    1C
    1UUSER                                                              
    1UDATE              26.october.2022                                 
    1UTIME              23:40:43                                        
    1UHOST                                                              
    1UPGM               CalculiX                                        
    1UVERSION           Version 2.17                             
    1UCOMPILETIME       Thu Jul 23 21:43:50 CEST 2020                    
    1UDIR                                                               
    1UDBN                                                               
    1UMAT    1SOLIDMATERIAL                                             
    2C                          4348                                     1
 -1         1 5.35115E+01 2.63643E+01 0.00000E+00
 -1         2 6.55036E+01 2.14573E+01 0.00000E+00
 -1         3 1.50000E+02 0.00000E+00 0.00000E+00
 -1         4 1.50000E+02 5.00000E+01 0.00000E+00
 -1         5 0.00000E+00 0.00000E+00 0.00000E+00
 -1         6 0.00000E+00 5.00000E+01 0.00000E+00
 -1         7 0.00000E+00 4.70500E+01 0.00000E+00
 -1         8 0.00000E+00 4.41000E+01 0.00000E+00
 -1         9 0.00000E+00 4.11500E+01 0.00000E+00
 -1        10 0.00000E+00 3.82000E+01 0.00000E+00
 -1        11 0.00000E+00 3.52500E+01 0.00000E+00
 -1        12 0.00000E+00 3.23500E+01 0.00000E+00
 -1        13 0.00000E+00 2.94000E+01 0.00000E+00
 -1        14 0.00000E+00 2.64500E+01 0.00000E+00
 -1        15 0.00000E+00 2.35000E+01 0.00000E+00
 -1        16 0.00000E+00 2.05500E+01 0.00000E+00
 -1        17 0.00000E+00 1.76000E+01 0.00000E+00
 -1        18 0.00000E+00 1.47000E+01 0.00000E+00
 -1        19 0.00000E+00 1.17500E+01 0.00000E+00
 -1        20 0.00000E+00 8.80000E+00 0.00000E+00
 -1        21 0.00000E+00 5.85000E+00 0.00000E+00
 -1        22 0.00000E+00 2.90000E+00 0.00000E+00
 -1        23 3.15000E+00 5.00000E+01 0.00000E+00
 -1        24 6.15000E+00 5.00000E+01 0.00000E+00
 -1        25 9.15000E+00 5.00000E+01 0.00000E+00
 -1        26 1.21500E+01 5.00000E+01 0.00000E+00
 -1        27 1.51500E+01 5.00000E+01 0.00000E+00
 -1        28 1.81500E+01 5.00000E+01 0.00000E+00
 -1        29 2.11500E+01 5.00000E+01 0.00000E+00
 -1        30 2.41500E+01 5.00000E+01 0.00000E+00
 -1        31 2.71500E+01 5.00000E+01 0.00000E+00
 -1        32 3.01500E+01 5.00000E+01 0.00000E+00
 -1        33 3.31500E+01 5.00000E+01 0.00000E+00
 -1        34 3.61500E+01 5.00000E+01 0.00000E+00
 -1        35 3.91500E+01 5.00000E+01 0.00000E+00
 -1        36 4.21500E+01 5.00000E+01 0.00000E+00
 -1        37 4.51500E+01 5.00000E+01 0.00000E+00
 -1        38 4.81500E+01 5.00000E+01 0.00000E+00
 -1        39 5.11500E+01 5.00000E+01 0.00000E+00
 -1        40 5.41500E+01 5.00000E+01 0.00000E+00
 -1        41 5.71500E+01 5.00000E+01 0.00000E+00
 -1        42 6.01500E+01 5.00000E+01 0.00000E+00
 -1        43 6.31500E+01 5.00000E+01 0.00000E+00
 -1        44 6.61500E+01 5.00000E+01 0.00000E+00
 -1        45 6.91500E+01 5.00000E+01 0.00000E+00
 -1        46 7.21500E+01 5.00000E+01 0.00000E+00
 -1        47 7.51500E+01 5.00000E+01 0.00000E+00
 -1        48 7.81500E+01 5.00000E+01 0.00000E+00
 -1        49 8.11500E+01 5.00000E+01 0.00000E+00
 -1        50 8.41500E+01 5.00000E+01 0.00000E+00
 -1        51 8.71500E+01 5.00000E+01 0.00000E+00
 -1        52 9.01500E+01 5.00000E+01 0.00000E+00
 -1        53 9.31500E+01 5.00000E+01 0.00000E+00
 -1        54 9.61500E+01 5.00000E+01 0.00000E+00
 -1        55 9.91500E+01 5.00000E+01 0.00000E+00
 -1        56 1.02150E+02 5.00000E+01 0.00000E+00
 -1        57 1.05150E+02 5.00000E+01 0.00000E+00
 -1        58 1.08150E+02 5.00000E+01 0.00000E+00
 -1        59 1.11150E+02 5.00000E+01 0.00000E+00
 -1        60 1.14150E+02 5.00000E+01 0.00000E+00
 -1        61 1.17150E+02 5.00000E+01 0.00000E+00
 -1        62 1.20150E+02 5.00000E+01 0.00000E+00
 -1        63 1.23150E+02 5.00000E+01 0.00000E+00
 -1        64 1.26150E+02 5.00000E+01 0.00000E+00
 -1        65 1.29150E+02 5.00000E+01 0.00000E+00
 -1        66 1.32150E+02 5.00000E+01 0.00000E+00
 -1        67 1.35150E+02 5.00000E+01 0.00000E+00
 -1        68 1.38150E+02 5.00000E+01 0.00000E+00
 -1        69 1.41150E+02 5.00000E+01 0.00000E+00
 -1        70 1.44150E+02 5.00000E+01 0.00000E+00
 -1        71 1.47150E+02 5.00000E+01 0.00000E+00
 -1        72 3.15000E+00 0.00000E+00 0.00000E+00
 -1        73 6.15000E+00 0.00000E+00 0.00000E+00
 -1        74 9.15000E+00 0.00000E+00 0.00000E+00
 -1        75 1.21500E+01 0.00000E+00 0.00000E+00
 -1        76 1.51500E+01 0.00000E+00 0.00000E+00
 -1        77 1.81500E+01 0.00000E+00 0.00000E+00
 -1        78 2.11500E+01 0.00000E+00 0.00000E+00
 -1        79 2.41500E+01 0.00000E+00 0.00000E+00
 -1        80 2.71500E+01 0.00000E+00 0.00000E+00
 -1        81 3.01500E+01 0.00000E+00 0.00000E+00
 -1        82 3.31500E+01 0.00000E+00 0.00000E+00
 -1        83 3.61500E+01 0.00000E+00 0.00000E+00
 -1        84 3.91500E+01 0.00000E+00 0.00000E+00
 -1        85 4.21500E+01 0.00000E+00 0.00000E+00
 -1        86 4.51500E+01 0.00000E+00 0.00000E+00
 -1        87 4.81500E+01 0.00000E+00 0.00000E+00
 -1        88 5.11500E+01 0.00000E+00 0.00000E+00
 -1        89 5.41500E+01 0.00000E+00 0.00000E+00
 -1        90 5.71500E+01 0.00000E+00 0.00000E+00
 -1        91 6.01500E+01 0.00000E+00 0.00000E+00
 -1        92 6.31500E+01 0.00000E+00 0.00000E+00
 -1        93 6.61500E+01 0.00000E+00 0.00000E+00
 -1        94 6.91500E+01 0.00000E+00 0.00000E+00
 -1        95 7.21500E+01 0.00000E+00 0.00000E+00
 -1        96 7.51500E+01 0.00000E+00 0.00000E+00
 -1        97 7.81500E+01 0.00000E+00 0.00000E+00
 -1        98 8.11500E+01 0.00000E+00 0.00000E+00
 -1        99 8.41500E+01 0.00000E+00 0.00000E+00
 -1       100 8.71500E+01 0.00000E+00 0.00000E+00
 -1       101 9.01500E+01 0.00000E+00 0.00000E+00
 -1       102 9.31500E+01 0.00000E+00 0.00000E+00
 -1       103 9.61500E+01 0.00000E+00 0.00000E+00
 -1       104 9.91500E+01 0.00000E+00 0.00000E+00
 -1       105 1.02150E+02 0.00000E+00 0.00000E+00
 -1       106 1.05150E+02 0.00000E+00 0.00000E+00
 -1       107 1.08150E+02 0.00000E+00 0.00000E+00
 -1       108 1.11150E+02 0.00000E+00 0.00000E+00
 -1       109 1.14150E+02 0.00000E+00 0.00000E+00
 -1       110 1.17150E+02 0.00000E+00 0.00000E+00
 -1       111 1.20150E+02 0.00000E+00 0.00000E+00
 -1       112 1.23150E+02 0.00000E+00 0.00000E+00
 -1       113 1.26150E+02 0.00000E+00 0.00000E+00
 -1       114 1.29150E+02 0.00000E+00 0.00000E+00
 -1       115 1.32150E+02 0.00000E+00 0.00000E+00
 -1       116 1.35150E+02 0.00000E+00 0.00000E+00
 -1       117 1.38150E+02 0.00000E+00 0.00000E+00
 -1       118 1.41150E+02 0.00000E+00 0.00000E+00
 -1       119 1.44150E+02 0.00000E+00 0.00000E+00
 -1       120 1.47150E+02 0.00000E+00 0.00000E+00
 -1       121 1.50000E+02 2.95000E+00 0.00000E+00
 -1       122 1.50000E+02 5.90000E+00 0.00000E+00
 -1       123 1.50000E+02 8.85000E+00 0.00000E+00
 -1       124 1.50000E+02 1.18000E+01 0.00000E+00
 -1       125 1.50000E+02 1.47500E+01 0.00000E+00
 -1       126 1.50000E+02 1.76500E+01 0.00000E+00
 -1       127 1.50000E+02 2.06000E+01 0.00000E+00
 -1       128 1.50000E+02 2.35500E+01 0.00000E+00
 -1       129 1.50000E+02 2.65000E+01 0.00000E+00
 -1       130 1.50000E+02 2.94500E+01 0.00000E+00
 -1       131 1.50000E+02 3.24000E+01 0.00000E+00
 -1       132 1.50000E+02 3.53000E+01 0.00000E+00
 -1       133 1.50000E+02 3.82500E+01 0.00000E+00
 -1       134 1.50000E+02 4.12000E+01 0.00000E+00
 -1       135 1.50000E+02 4.41500E+01 0.00000E+00
 -1       136 1.50000E+02 4.71000E+01 0.00000E+00
 -1       137 6.53431E+01 1.99670E+01 0.00000E+00
 -1       138 6.48756E+01 1.85594E+01 0.00000E+00
 -1       139 6.41296E+01 1.72922E+01 0.00000E+00
 -1       140 6.30858E+01 1.61655E+01 0.00000E+00
 -1       141 6.17944E+01 1.52791E+01 0.00000E+00
 -1       142 6.04411E+01 1.47308E+01 0.00000E+00
 -1       143 5.88938E+01 1.44682E+01 0.00000E+00
 -1       144 5.74078E+01 1.45436E+01 0.00000E+00
 -1       145 5.59235E+01 1.49501E+01 0.00000E+00
 -1       146 5.44930E+01 1.57202E+01 0.00000E+00
 -1       147 5.33038E+01 1.67709E+01 0.00000E+00
 -1       148 5.23958E+01 1.80375E+01 0.00000E+00
 -1       149 5.18062E+01 1.94216E+01 0.00000E+00
 -1       150 5.15256E+01 2.09027E+01 0.00000E+00
 -1       151 5.15703E+01 2.24209E+01 0.00000E+00
 -1       152 5.19581E+01 2.39386E+01 0.00000E+00
 -1       153 5.26228E+01 2.52542E+01 0.00000E+00
 -1       154 5.45491E+01 2.72333E+01 0.00000E+00
 -1       155 5.57403E+01 2.78888E+01 0.00000E+00
 -1       156 5.70453E+01 2.83037E+01 0.00000E+00
 -1       157 5.84961E+01 2.84573E+01 0.00000E+00
 -1       158 5.99105E+01 2.83145E+01 0.00000E+00
 -1       159 6.12209E+01 2.79084E+01 0.00000E+00
 -1       160 6.24191E+01 2.72598E+01 0.00000E+00
 -1       161 6.34759E+01 2.63844E+01 0.00000E+00
 -1       162 6.43290E+01 2.53387E+01 0.00000E+00
 -1       163 6.49674E+01 2.41443E+01 0.00000E+00
 -1       164 6.53653E+01 2.28417E+01 0.00000E+00
 -1       165 2.59800E+00 4.55750E+01 0.00000E+00
 -1       166 2.59800E+00 4.26250E+01 0.00000E+00
 -1       167 2.59800E+00 3.96750E+01 0.00000E+00
 -1       168 2.59800E+00 3.67250E+01 0.00000E+00
 -1       169 2.59800E+00 3.38250E+01 0.00000E+00
 -1       170 2.59800E+00 3.08750E+01 0.00000E+00
 -1       171 2.59800E+00 2.79250E+01 0.00000E+00
 -1       172 2.59800E+00 2.49750E+01 0.00000E+00
 -1       173 2.59800E+00 2.20250E+01 0.00000E+00
 -1       174 2.59800E+00 1.90750E+01 0.00000E+00
 -1       175 2.59800E+00 1.61750E+01 0.00000E+00
 -1       176 2.59800E+00 1.32250E+01 0.00000E+00
 -1       177 2.59800E+00 1.02750E+01 0.00000E+00
 -1       178 2.59800E+00 7.32500E+00 0.00000E+00
 -1       179 2.59800E+00 4.37500E+00 0.00000E+00
 -1       180 2.87400E+00 2.18750E+00 0.00000E+00
 -1       181 4.65000E+00 4.74020E+01 0.00000E+00
 -1       182 7.65000E+00 4.74020E+01 0.00000E+00
 -1       183 1.06500E+01 4.74020E+01 0.00000E+00
 -1       184 1.36500E+01 4.74020E+01 0.00000E+00
 -1       185 1.66500E+01 4.74020E+01 0.00000E+00
 -1       186 1.96500E+01 4.74020E+01 0.00000E+00
 -1       187 2.26500E+01 4.74020E+01 0.00000E+00
 -1       188 2.56500E+01 4.74020E+01 0.00000E+00
 -1       189 2.86500E+01 4.74020E+01 0.00000E+00
 -1       190 3.16500E+01 4.74020E+01 0.00000E+00
 -1       191 3.46500E+01 4.74020E+01 0.00000E+00
 -1       192 3.76500E+01 4.74020E+01 0.00000E+00
 -1       193 4.06500E+01 4.74020E+01 0.00000E+00
 -1       194 4.36500E+01 4.74020E+01 0.00000E+00
 -1       195 4.66500E+01 4.74020E+01 0.00000E+00
 -1       196 4.96500E+01 4.74020E+01 0.00000E+00
 -1       197 5.26500E+01 4.74020E+01 0.00000E+00
 -1       198 5.56500E+01 4.74020E+01 0.00000E+00
 -1       199 5.86500E+01 4.74020E+01 0.00000E+00
 -1       200 6.16500E+01 4.74020E+01 0.00000E+00
 -1       201 6.46500E+01 4.74020E+01 0.00000E+00
 -1       202 6.76500E+01 4.74020E+01 0.00000E+00
 -1       203 7.06500E+01 4.74020E+01 0.00000E+00
 -1       204 7.36500E+01 4.74020E+01 0.00000E+00
 -1       205 7.66500E+01 4.74020E+01 0.00000E+00
 -1       206 7.96500E+01 4.74020E+01 0.00000E+00
 -1       207 8.26500E+01 4.74020E+01 0.00000E+00
 -1       208 8.56500E+01 4.74020E+01 0.00000E+00
 -1       209 8.86500E+01 4.74020E+01 0.00000E+00
 -1       210 9.16500E+01 4.74020E+01 0.00000E+00
 -1       211 9.46500E+01 4.74020E+01 0.00000E+00
 -1       212 9.76500E+01 4.74020E+01 0.00000E+00
 -1       213 1.00650E+02 4.74020E+01 0.00000E+00
 -1       214 1.03650E+02 4.74020E+01 0.00000E+00
 -1       215 1.06650E+02 4.74020E+01 0.00000E+00
 -1       216 1.09650E+02 4.74020E+01 0.00000E+00
 -1       217 1.12650E+02 4.74020E+01 0.00000E+00
 -1       218 1.15650E+02 4.74020E+01 0.00000E+00
 -1       219 1.18650E+02 4.74020E+01 0.00000E+00
 -1       220 1.21650E+02 4.74020E+01 0.00000E+00
 -1       221 1.24650E+02 4.74020E+01 0.00000E+00
 -1       222 1.27650E+02 4.74020E+01 0.00000E+00
 -1       223 1.30650E+02 4.74020E+01 0.00000E+00
 -1       224 1.33650E+02 4.74020E+01 0.00000E+00
 -1       225 1.36650E+02 4.74020E+01 0.00000E+00
 -1       226 1.39650E+02 4.74020E+01 0.00000E+00
 -1       227 1.42650E+02 4.74020E+01 0.00000E+00
 -1       228 1.45650E+02 4.74020E+01 0.00000E+00
 -1       229 5.87400E+00 2.18750E+00 0.00000E+00
 -1       230 8.87400E+00 2.18750E+00 0.00000E+00
 -1       231 1.18740E+01 2.18750E+00 0.00000E+00
 -1       232 1.48740E+01 2.18750E+00 0.00000E+00
 -1       233 1.78740E+01 2.18750E+00 0.00000E+00
 -1       234 2.08740E+01 2.18750E+00 0.00000E+00
 -1       235 2.38740E+01 2.18750E+00 0.00000E+00
 -1       236 2.68740E+01 2.18750E+00 0.00000E+00
 -1       237 2.98740E+01 2.18750E+00 0.00000E+00
 -1       238 3.28740E+01 2.18750E+00 0.00000E+00
 -1       239 3.58740E+01 2.18750E+00 0.00000E+00
 -1       240 3.88740E+01 2.18750E+00 0.00000E+00
 -1       241 4.18740E+01 2.18750E+00 0.00000E+00
 -1       242 4.48740E+01 2.18750E+00 0.00000E+00
 -1       243 4.78740E+01 2.18750E+00 0.00000E+00
 -1       244 5.08740E+01 2.18750E+00 0.00000E+00
 -1       245 5.38740E+01 2.18750E+00 0.00000E+00
 -1       246 5.68740E+01 2.18750E+00 0.00000E+00
 -1       247 5.98740E+01 2.18750E+00 0.00000E+00
 -1       248 6.28740E+01 2.18750E+00 0.00000E+00
 -1       249 6.58740E+01 2.18750E+00 0.00000E+00
 -1       250 6.88740E+01 2.18750E+00 0.00000E+00
 -1       251 7.18740E+01 2.18750E+00 0.00000E+00
 -1       252 7.48740E+01 2.18750E+00 0.00000E+00
 -1       253 7.78740E+01 2.18750E+00 0.00000E+00
 -1       254 8.08740E+01 2.18750E+00 0.00000E+00
 -1       255 8.38740E+01 2.18750E+00 0.00000E+00
 -1       256 8.68740E+01 2.18750E+00 0.00000E+00
 -1       257 8.98740E+01 2.18750E+00 0.00000E+00
 -1       258 9.28740E+01 2.18750E+00 0.00000E+00
 -1       259 9.58740E+01 2.18750E+00 0.00000E+00
 -1       260 9.88740E+01 2.18750E+00 0.00000E+00
 -1       261 1.01874E+02 2.18750E+00 0.00000E+00
 -1       262 1.04874E+02 2.18750E+00 0.00000E+00
 -1       263 1.07874E+02 2.18750E+00 0.00000E+00
 -1       264 1.10874E+02 2.18750E+00 0.00000E+00
 -1       265 1.13874E+02 2.18750E+00 0.00000E+00
 -1       266 1.16874E+02 2.18750E+00 0.00000E+00
 -1       267 1.19874E+02 2.18750E+00 0.00000E+00
 -1       268 1.22874E+02 2.18750E+00 0.00000E+00
 -1       269 1.25874E+02 2.18750E+00 0.00000E+00
 -1       270 1.28874E+02 2.18750E+00 0.00000E+00
 -1       271 1.31874E+02 2.18750E+00 0.00000E+00
 -1       272 1.34874E+02 2.18750E+00 0.00000E+00
 -1       273 1.37874E+02 2.18750E+00 0.00000E+00
 -1       274 1.40874E+02 2.18750E+00 0.00000E+00
 -1       275 1.43874E+02 2.18750E+00 0.00000E+00
 -1       276 1.46874E+02 2.18750E+00 0.00000E+00
 -1       277 1.47402E+02 4.42500E+00 0.00000E+00
 -1       278 1.47402E+02 7.37500E+00 0.00000E+00
 -1       279 1.47402E+02 1.03250E+01 0.00000E+00
 -1       280 1.47402E+02 1.32750E+01 0.00000E+00
 -1       281 1.47402E+02 1.61750E+01 0.00000E+00
 -1       282 1.47402E+02 1.91250E+01 0.00000E+00
 -1       283 1.47402E+02 2.20750E+01 0.00000E+00
 -1       284 1.47402E+02 2.50250E+01 0.00000E+00
 -1       285 1.47402E+02 2.79750E+01 0.00000E+00
 -1       286 1.47402E+02 3.09250E+01 0.00000E+00
 -1       287 1.47402E+02 3.38250E+01 0.00000E+00
 -1       288 1.47402E+02 3.67750E+01 0.00000E+00
 -1       289 1.47402E+02 3.97250E+01 0.00000E+00
 -1       290 1.47402E+02 4.26750E+01 0.00000E+00
 -1       291 1.46526E+02 4.50385E+01 0.00000E+00
 -1       292 6.67121E+01 2.05734E+01 0.00000E+00
 -1       293 6.63395E+01 1.88547E+01 0.00000E+00
 -1       294 6.55474E+01 1.73108E+01 0.00000E+00
 -1       295 6.44971E+01 1.59049E+01 0.00000E+00
 -1       296 6.32211E+01 1.45845E+01 0.00000E+00
 -1       297 6.15731E+01 1.38813E+01 0.00000E+00
 -1       298 5.98984E+01 1.32390E+01 0.00000E+00
 -1       299 5.80808E+01 1.31277E+01 0.00000E+00
 -1       300 5.63454E+01 1.35775E+01 0.00000E+00
 -1       301 5.46336E+01 1.42676E+01 0.00000E+00
 -1       302 5.29846E+01 1.52115E+01 0.00000E+00
 -1       303 5.16602E+01 1.65514E+01 0.00000E+00
 -1       304 5.09085E+01 1.82215E+01 0.00000E+00
 -1       305 5.03100E+01 1.99053E+01 0.00000E+00
 -1       306 5.02523E+01 2.16999E+01 0.00000E+00
 -1       307 5.04272E+01 2.35214E+01 0.00000E+00
 -1       308 5.12084E+01 2.51431E+01 0.00000E+00
 -1       309 5.21207E+01 2.65669E+01 0.00000E+00
 -1       310 5.32519E+01 2.77283E+01 0.00000E+00
 -1       311 5.45602E+01 2.86232E+01 0.00000E+00
 -1       312 5.60254E+01 2.92517E+01 0.00000E+00
 -1       313 5.76342E+01 2.96695E+01 0.00000E+00
 -1       314 5.93252E+01 2.95921E+01 0.00000E+00
 -1       315 6.09246E+01 2.92695E+01 0.00000E+00
 -1       316 6.23971E+01 2.86503E+01 0.00000E+00
 -1       317 6.37743E+01 2.78203E+01 0.00000E+00
 -1       318 6.48419E+01 2.66280E+01 0.00000E+00
 -1       319 6.57174E+01 2.53130E+01 0.00000E+00
 -1       320 6.63258E+01 2.38473E+01 0.00000E+00
 -1       321 6.67243E+01 2.22783E+01 0.00000E+00
 -1       322 5.19600E+00 4.11500E+01 0.00000E+00
 -1       323 5.19600E+00 4.41000E+01 0.00000E+00
 -1       324 5.19600E+00 3.52750E+01 0.00000E+00
 -1       325 5.19600E+00 3.23250E+01 0.00000E+00
 -1       326 5.19600E+00 2.93750E+01 0.00000E+00
 -1       327 5.19600E+00 2.64250E+01 0.00000E+00
 -1       328 5.19600E+00 2.34750E+01 0.00000E+00
 -1       329 5.19600E+00 2.05250E+01 0.00000E+00
 -1       330 5.19600E+00 1.76250E+01 0.00000E+00
 -1       331 5.19600E+00 1.46750E+01 0.00000E+00
 -1       332 5.19600E+00 1.17250E+01 0.00000E+00
 -1       333 5.19600E+00 8.77500E+00 0.00000E+00
 -1       334 5.19600E+00 5.82500E+00 0.00000E+00
 -1       335 5.53500E+00 4.00625E+00 0.00000E+00
 -1       336 8.53500E+00 4.00625E+00 0.00000E+00
 -1       337 9.15000E+00 4.48040E+01 0.00000E+00
 -1       338 1.21500E+01 4.48040E+01 0.00000E+00
 -1       339 1.51500E+01 4.48040E+01 0.00000E+00
 -1       340 1.81500E+01 4.48040E+01 0.00000E+00
 -1       341 2.11500E+01 4.48040E+01 0.00000E+00
 -1       342 2.41500E+01 4.48040E+01 0.00000E+00
 -1       343 2.71500E+01 4.48040E+01 0.00000E+00
 -1       344 3.01500E+01 4.48040E+01 0.00000E+00
 -1       345 3.31500E+01 4.48040E+01 0.00000E+00
 -1       346 3.61500E+01 4.48040E+01 0.00000E+00
 -1       347 3.91500E+01 4.48040E+01 0.00000E+00
 -1       348 4.21500E+01 4.48040E+01 0.00000E+00
 -1       349 4.51500E+01 4.48040E+01 0.00000E+00
 -1       350 4.81500E+01 4.48040E+01 0.00000E+00
 -1       351 5.11500E+01 4.48040E+01 0.00000E+00
 -1       352 5.41500E+01 4.48040E+01 0.00000E+00
 -1       353 5.71500E+01 4.48040E+01 0.00000E+00
 -1       354 6.01500E+01 4.48040E+01 0.00000E+00
 -1       355 6.31500E+01 4.48040E+01 0.00000E+00
 -1       356 6.61500E+01 4.48040E+01 0.00000E+00
 -1       357 6.91500E+01 4.48040E+01 0.00000E+00
 -1       358 7.21500E+01 4.48040E+01 0.00000E+00
 -1       359 7.51500E+01 4.48040E+01 0.00000E+00
 -1       360 7.81500E+01 4.48040E+01 0.00000E+00
 -1       361 8.11500E+01 4.48040E+01 0.00000E+00
 -1       362 8.41500E+01 4.48040E+01 0.00000E+00
 -1       363 8.71500E+01 4.48040E+01 0.00000E+00
 -1       364 9.01500E+01 4.48040E+01 0.00000E+00
 -1       365 9.31500E+01 4.48040E+01 0.00000E+00
 -1       366 9.61500E+01 4.48040E+01 0.00000E+00
 -1       367 9.91500E+01 4.48040E+01 0.00000E+00
 -1       368 1.02150E+02 4.48040E+01 0.00000E+00
 -1       369 1.05150E+02 4.48040E+01 0.00000E+00
 -1       370 1.08150E+02 4.48040E+01 0.00000E+00
 -1       371 1.11150E+02 4.48040E+01 0.00000E+00
 -1       372 1.14150E+02 4.48040E+01 0.00000E+00
 -1       373 1.17150E+02 4.48040E+01 0.00000E+00
 -1       374 1.20150E+02 4.48040E+01 0.00000E+00
 -1       375 1.23150E+02 4.48040E+01 0.00000E+00
 -1       376 1.26150E+02 4.48040E+01 0.00000E+00
 -1       377 1.29150E+02 4.48040E+01 0.00000E+00
 -1       378 1.32150E+02 4.48040E+01 0.00000E+00
 -1       379 1.35150E+02 4.48040E+01 0.00000E+00
 -1       380 1.38150E+02 4.48040E+01 0.00000E+00
 -1       381 1.41150E+02 4.48040E+01 0.00000E+00
 -1       382 1.43838E+02 4.49212E+01 0.00000E+00
 -1       383 1.15350E+01 4.00625E+00 0.00000E+00
 -1       384 1.45350E+01 4.00625E+00 0.00000E+00
 -1       385 1.75350E+01 4.00625E+00 0.00000E+00
 -1       386 2.05350E+01 4.00625E+00 0.00000E+00
 -1       387 2.35350E+01 4.00625E+00 0.00000E+00
 -1       388 2.65350E+01 4.00625E+00 0.00000E+00
 -1       389 2.95350E+01 4.00625E+00 0.00000E+00
 -1       390 3.25350E+01 4.00625E+00 0.00000E+00
 -1       391 3.55350E+01 4.00625E+00 0.00000E+00
 -1       392 3.85350E+01 4.00625E+00 0.00000E+00
 -1       393 4.15350E+01 4.00625E+00 0.00000E+00
 -1       394 4.45350E+01 4.00625E+00 0.00000E+00
 -1       395 4.75350E+01 4.00625E+00 0.00000E+00
 -1       396 5.05350E+01 4.00625E+00 0.00000E+00
 -1       397 5.35350E+01 4.00625E+00 0.00000E+00
 -1       398 5.65350E+01 4.00625E+00 0.00000E+00
 -1       399 5.95350E+01 4.00625E+00 0.00000E+00
 -1       400 6.25350E+01 4.00625E+00 0.00000E+00
 -1       401 6.55350E+01 4.00625E+00 0.00000E+00
 -1       402 6.85350E+01 4.00625E+00 0.00000E+00
 -1       403 7.15350E+01 4.00625E+00 0.00000E+00
 -1       404 7.45350E+01 4.00625E+00 0.00000E+00
 -1       405 7.75350E+01 4.00625E+00 0.00000E+00
 -1       406 8.05350E+01 4.00625E+00 0.00000E+00
 -1       407 8.35350E+01 4.00625E+00 0.00000E+00
 -1       408 8.65350E+01 4.00625E+00 0.00000E+00
 -1       409 8.95350E+01 4.00625E+00 0.00000E+00
 -1       410 9.25350E+01 4.00625E+00 0.00000E+00
 -1       411 9.55350E+01 4.00625E+00 0.00000E+00
 -1       412 9.85350E+01 4.00625E+00 0.00000E+00
 -1       413 1.01535E+02 4.00625E+00 0.00000E+00
 -1       414 1.04535E+02 4.00625E+00 0.00000E+00
 -1       415 1.07535E+02 4.00625E+00 0.00000E+00
 -1       416 1.10535E+02 4.00625E+00 0.00000E+00
 -1       417 1.13535E+02 4.00625E+00 0.00000E+00
 -1       418 1.16535E+02 4.00625E+00 0.00000E+00
 -1       419 1.19535E+02 4.00625E+00 0.00000E+00
 -1       420 1.22535E+02 4.00625E+00 0.00000E+00
 -1       421 1.25535E+02 4.00625E+00 0.00000E+00
 -1       422 1.28535E+02 4.00625E+00 0.00000E+00
 -1       423 1.31535E+02 4.00625E+00 0.00000E+00
 -1       424 1.34535E+02 4.00625E+00 0.00000E+00
 -1       425 1.37535E+02 4.00625E+00 0.00000E+00
 -1       426 1.40535E+02 4.00625E+00 0.00000E+00
 -1       427 1.43535E+02 4.00625E+00 0.00000E+00
 -1       428 1.45469E+02 4.21562E+00 0.00000E+00
 -1       429 1.44804E+02 1.18000E+01 0.00000E+00
 -1       430 1.44804E+02 8.85000E+00 0.00000E+00
 -1       431 1.45136E+02 6.53281E+00 0.00000E+00
 -1       432 1.44804E+02 1.47000E+01 0.00000E+00
 -1       433 1.44804E+02 1.76500E+01 0.00000E+00
 -1       434 1.44804E+02 2.06000E+01 0.00000E+00
 -1       435 1.44804E+02 2.35500E+01 0.00000E+00
 -1       436 1.44804E+02 2.65000E+01 0.00000E+00
 -1       437 1.44804E+02 2.94500E+01 0.00000E+00
 -1       438 1.44804E+02 3.23500E+01 0.00000E+00
 -1       439 1.44804E+02 3.53000E+01 0.00000E+00
 -1       440 1.44804E+02 3.82500E+01 0.00000E+00
 -1       441 1.44804E+02 4.12000E+01 0.00000E+00
 -1       442 6.72458E+01 1.74146E+01 0.00000E+00
 -1       443 6.83495E+01 2.14142E+01 0.00000E+00
 -1       444 6.77926E+01 1.94394E+01 0.00000E+00
 -1       445 6.61955E+01 1.60087E+01 0.00000E+00
 -1       446 6.49719E+01 1.41693E+01 0.00000E+00
 -1       447 5.19600E+00 3.82125E+01 0.00000E+00
 -1       448 6.12299E+01 1.22717E+01 0.00000E+00
 -1       449 5.90790E+01 1.17223E+01 0.00000E+00
 -1       450 5.68038E+01 1.17735E+01 0.00000E+00
 -1       451 5.49422E+01 1.25650E+01 0.00000E+00
 -1       452 5.31652E+01 1.36146E+01 0.00000E+00
 -1       453 5.12218E+01 1.47935E+01 0.00000E+00
 -1       454 5.00260E+01 1.68201E+01 0.00000E+00
 -1       455 4.91511E+01 1.85451E+01 0.00000E+00
 -1       456 4.89019E+01 2.07582E+01 0.00000E+00
 -1       457 4.86325E+01 2.27746E+01 0.00000E+00
 -1       458 4.96500E+01 2.48948E+01 0.00000E+00
 -1       459 5.04321E+01 2.66447E+01 0.00000E+00
 -1       460 5.16977E+01 2.81105E+01 0.00000E+00
 -1       461 5.31269E+01 2.93148E+01 0.00000E+00
 -1       462 5.47819E+01 3.01287E+01 0.00000E+00
 -1       463 5.65040E+01 3.07151E+01 0.00000E+00
 -1       464 5.85542E+01 3.12604E+01 0.00000E+00
 -1       465 6.01537E+01 3.09378E+01 0.00000E+00
 -1       466 6.21633E+01 3.01548E+01 0.00000E+00
 -1       467 6.37980E+01 2.94173E+01 0.00000E+00
 -1       468 6.53362E+01 2.81446E+01 0.00000E+00
 -1       469 6.63586E+01 2.66888E+01 0.00000E+00
 -1       470 6.76057E+01 2.52377E+01 0.00000E+00
 -1       471 6.80041E+01 2.36687E+01 0.00000E+00
 -1       472 6.29387E+01 1.29637E+01 0.00000E+00
 -1       473 1.00350E+01 6.60425E+00 0.00000E+00
 -1       474 7.79400E+00 3.08500E+01 0.00000E+00
 -1       475 7.79400E+00 3.38000E+01 0.00000E+00
 -1       476 7.79400E+00 2.49500E+01 0.00000E+00
 -1       477 7.79400E+00 2.20000E+01 0.00000E+00
 -1       478 7.79400E+00 1.91000E+01 0.00000E+00
 -1       479 7.79400E+00 1.61500E+01 0.00000E+00
 -1       480 7.79400E+00 1.32000E+01 0.00000E+00
 -1       481 7.79400E+00 1.02500E+01 0.00000E+00
 -1       482 1.30350E+01 6.60425E+00 0.00000E+00
 -1       483 1.06500E+01 4.22060E+01 0.00000E+00
 -1       484 6.26337E+01 1.12609E+01 0.00000E+00
 -1       485 1.36500E+01 4.22060E+01 0.00000E+00
 -1       486 1.66500E+01 4.22060E+01 0.00000E+00
 -1       487 1.96500E+01 4.22060E+01 0.00000E+00
 -1       488 2.26500E+01 4.22060E+01 0.00000E+00
 -1       489 2.56500E+01 4.22060E+01 0.00000E+00
 -1       490 2.86500E+01 4.22060E+01 0.00000E+00
 -1       491 3.16500E+01 4.22060E+01 0.00000E+00
 -1       492 3.46500E+01 4.22060E+01 0.00000E+00
 -1       493 3.76500E+01 4.22060E+01 0.00000E+00
 -1       494 4.06500E+01 4.22060E+01 0.00000E+00
 -1       495 4.36500E+01 4.22060E+01 0.00000E+00
 -1       496 4.66500E+01 4.22060E+01 0.00000E+00
 -1       497 4.96500E+01 4.22060E+01 0.00000E+00
 -1       498 5.26500E+01 4.22060E+01 0.00000E+00
 -1       499 5.56500E+01 4.22060E+01 0.00000E+00
 -1       500 5.86500E+01 4.22060E+01 0.00000E+00
 -1       501 6.16500E+01 4.22060E+01 0.00000E+00
 -1       502 6.46500E+01 4.22060E+01 0.00000E+00
 -1       503 6.76500E+01 4.22060E+01 0.00000E+00
 -1       504 7.06500E+01 4.22060E+01 0.00000E+00
 -1       505 7.36500E+01 4.22060E+01 0.00000E+00
 -1       506 7.66500E+01 4.22060E+01 0.00000E+00
 -1       507 7.96500E+01 4.22060E+01 0.00000E+00
 -1       508 8.26500E+01 4.22060E+01 0.00000E+00
 -1       509 8.56500E+01 4.22060E+01 0.00000E+00
 -1       510 8.86500E+01 4.22060E+01 0.00000E+00
 -1       511 9.16500E+01 4.22060E+01 0.00000E+00
 -1       512 9.46500E+01 4.22060E+01 0.00000E+00
 -1       513 9.76500E+01 4.22060E+01 0.00000E+00
 -1       514 1.00650E+02 4.22060E+01 0.00000E+00
 -1       515 1.03650E+02 4.22060E+01 0.00000E+00
 -1       516 1.06650E+02 4.22060E+01 0.00000E+00
 -1       517 1.09650E+02 4.22060E+01 0.00000E+00
 -1       518 1.12650E+02 4.22060E+01 0.00000E+00
 -1       519 1.15650E+02 4.22060E+01 0.00000E+00
 -1       520 1.18650E+02 4.22060E+01 0.00000E+00
 -1       521 1.21650E+02 4.22060E+01 0.00000E+00
 -1       522 1.24650E+02 4.22060E+01 0.00000E+00
 -1       523 1.27650E+02 4.22060E+01 0.00000E+00
 -1       524 1.30650E+02 4.22060E+01 0.00000E+00
 -1       525 1.33650E+02 4.22060E+01 0.00000E+00
 -1       526 1.36650E+02 4.22060E+01 0.00000E+00
 -1       527 1.39650E+02 4.22060E+01 0.00000E+00
 -1       528 1.90350E+01 6.60425E+00 0.00000E+00
 -1       529 2.20350E+01 6.60425E+00 0.00000E+00
 -1       530 2.50350E+01 6.60425E+00 0.00000E+00
 -1       531 2.80350E+01 6.60425E+00 0.00000E+00
 -1       532 3.10350E+01 6.60425E+00 0.00000E+00
 -1       533 3.40350E+01 6.60425E+00 0.00000E+00
 -1       534 3.70350E+01 6.60425E+00 0.00000E+00
 -1       535 4.00350E+01 6.60425E+00 0.00000E+00
 -1       536 4.30350E+01 6.60425E+00 0.00000E+00
 -1       537 4.60350E+01 6.60425E+00 0.00000E+00
 -1       538 4.90350E+01 6.60425E+00 0.00000E+00
 -1       539 5.20350E+01 6.60425E+00 0.00000E+00
 -1       540 5.50350E+01 6.60425E+00 0.00000E+00
 -1       541 5.80350E+01 6.60425E+00 0.00000E+00
 -1       542 6.10350E+01 6.60425E+00 0.00000E+00
 -1       543 6.40350E+01 6.60425E+00 0.00000E+00
 -1       544 6.70350E+01 6.60425E+00 0.00000E+00
 -1       545 7.00350E+01 6.60425E+00 0.00000E+00
 -1       546 7.30350E+01 6.60425E+00 0.00000E+00
 -1       547 7.60350E+01 6.60425E+00 0.00000E+00
 -1       548 7.90350E+01 6.60425E+00 0.00000E+00
 -1       549 8.20350E+01 6.60425E+00 0.00000E+00
 -1       550 8.50350E+01 6.60425E+00 0.00000E+00
 -1       551 8.80350E+01 6.60425E+00 0.00000E+00
 -1       552 9.10350E+01 6.60425E+00 0.00000E+00
 -1       553 9.40350E+01 6.60425E+00 0.00000E+00
 -1       554 9.70350E+01 6.60425E+00 0.00000E+00
 -1       555 1.00035E+02 6.60425E+00 0.00000E+00
 -1       556 1.03035E+02 6.60425E+00 0.00000E+00
 -1       557 1.06035E+02 6.60425E+00 0.00000E+00
 -1       558 1.09035E+02 6.60425E+00 0.00000E+00
 -1       559 1.12035E+02 6.60425E+00 0.00000E+00
 -1       560 1.15035E+02 6.60425E+00 0.00000E+00
 -1       561 1.18035E+02 6.60425E+00 0.00000E+00
 -1       562 1.21035E+02 6.60425E+00 0.00000E+00
 -1       563 1.24035E+02 6.60425E+00 0.00000E+00
 -1       564 1.27035E+02 6.60425E+00 0.00000E+00
 -1       565 1.30035E+02 6.60425E+00 0.00000E+00
 -1       566 1.33035E+02 6.60425E+00 0.00000E+00
 -1       567 1.36035E+02 6.60425E+00 0.00000E+00
 -1       568 1.39035E+02 6.60425E+00 0.00000E+00
 -1       569 1.42035E+02 6.60425E+00 0.00000E+00
 -1       570 1.42206E+02 1.61750E+01 0.00000E+00
 -1       571 1.42206E+02 1.91250E+01 0.00000E+00
 -1       572 1.42206E+02 1.03250E+01 0.00000E+00
 -1       573 1.42206E+02 1.32500E+01 0.00000E+00
 -1       574 1.42206E+02 2.20750E+01 0.00000E+00
 -1       575 1.42206E+02 2.50250E+01 0.00000E+00
 -1       576 1.42206E+02 2.79750E+01 0.00000E+00
 -1       577 1.42206E+02 3.08750E+01 0.00000E+00
 -1       578 1.42206E+02 3.38250E+01 0.00000E+00
 -1       579 1.42206E+02 3.67750E+01 0.00000E+00
 -1       580 1.42206E+02 3.97250E+01 0.00000E+00
 -1       581 6.97217E+01 1.99613E+01 0.00000E+00
 -1       582 6.91750E+01 1.79365E+01 0.00000E+00
 -1       583 6.97893E+01 2.27885E+01 0.00000E+00
 -1       584 1.60350E+01 6.60425E+00 0.00000E+00
 -1       585 6.79604E+01 1.57854E+01 0.00000E+00
 -1       586 6.48301E+01 1.20912E+01 0.00000E+00
 -1       587 6.80923E+01 2.69173E+01 0.00000E+00
 -1       588 5.71314E+01 3.24833E+01 0.00000E+00
 -1       589 7.79400E+00 2.79000E+01 0.00000E+00
 -1       590 5.79047E+01 1.01170E+01 0.00000E+00
 -1       591 6.36860E+01 3.13494E+01 0.00000E+00
 -1       592 6.05374E+01 1.04976E+01 0.00000E+00
 -1       593 5.52019E+01 1.05909E+01 0.00000E+00
 -1       594 5.31815E+01 1.16130E+01 0.00000E+00
 -1       595 5.13039E+01 1.27377E+01 0.00000E+00
 -1       596 4.91467E+01 1.49352E+01 0.00000E+00
 -1       597 4.83578E+01 1.70584E+01 0.00000E+00
 -1       598 4.73222E+01 1.94598E+01 0.00000E+00
 -1       599 4.70528E+01 2.14761E+01 0.00000E+00
 -1       600 4.74439E+01 2.46493E+01 0.00000E+00
 -1       601 4.82260E+01 2.63992E+01 0.00000E+00
 -1       602 4.98936E+01 2.83890E+01 0.00000E+00
 -1       603 5.13072E+01 3.00242E+01 0.00000E+00
 -1       604 5.31975E+01 3.12608E+01 0.00000E+00
 -1       605 5.51441E+01 3.18868E+01 0.00000E+00
 -1       606 5.97594E+01 3.31089E+01 0.00000E+00
 -1       607 6.17690E+01 3.23259E+01 0.00000E+00
 -1       608 6.56604E+01 3.01024E+01 0.00000E+00
 -1       609 6.70699E+01 2.83731E+01 0.00000E+00
 -1       610 6.93048E+01 2.48341E+01 0.00000E+00
 -1       611 7.92300E+00 4.16780E+01 0.00000E+00
 -1       612 7.61550E+00 6.21462E+00 0.00000E+00
 -1       613 6.67368E+01 1.39460E+01 0.00000E+00
 -1       614 7.79400E+00 3.67375E+01 0.00000E+00
 -1       615 7.11616E+01 2.13356E+01 0.00000E+00
 -1       616 4.58642E+01 2.33508E+01 0.00000E+00
 -1       617 4.92289E+01 1.28793E+01 0.00000E+00
 -1       618 1.41678E+02 4.22645E+01 0.00000E+00
 -1       619 1.03920E+01 2.05500E+01 0.00000E+00
 -1       620 1.03920E+01 2.35000E+01 0.00000E+00
 -1       621 1.03920E+01 1.46750E+01 0.00000E+00
 -1       622 1.03920E+01 1.17250E+01 0.00000E+00
 -1       623 1.15350E+01 9.20225E+00 0.00000E+00
 -1       624 5.35944E+01 3.33661E+01 0.00000E+00
 -1       625 1.45350E+01 9.20225E+00 0.00000E+00
 -1       626 6.89161E+01 2.85827E+01 0.00000E+00
 -1       627 1.51500E+01 3.96080E+01 0.00000E+00
 -1       628 1.81500E+01 3.96080E+01 0.00000E+00
 -1       629 2.11500E+01 3.96080E+01 0.00000E+00
 -1       630 2.41500E+01 3.96080E+01 0.00000E+00
 -1       631 2.71500E+01 3.96080E+01 0.00000E+00
 -1       632 3.01500E+01 3.96080E+01 0.00000E+00
 -1       633 3.31500E+01 3.96080E+01 0.00000E+00
 -1       634 3.61500E+01 3.96080E+01 0.00000E+00
 -1       635 3.91500E+01 3.96080E+01 0.00000E+00
 -1       636 4.21500E+01 3.96080E+01 0.00000E+00
 -1       637 4.51500E+01 3.96080E+01 0.00000E+00
 -1       638 4.81500E+01 3.96080E+01 0.00000E+00
 -1       639 5.11500E+01 3.96080E+01 0.00000E+00
 -1       640 5.41500E+01 3.96080E+01 0.00000E+00
 -1       641 5.71500E+01 3.96080E+01 0.00000E+00
 -1       642 6.01500E+01 3.96080E+01 0.00000E+00
 -1       643 6.31500E+01 3.96080E+01 0.00000E+00
 -1       644 6.61500E+01 3.96080E+01 0.00000E+00
 -1       645 6.91500E+01 3.96080E+01 0.00000E+00
 -1       646 7.21500E+01 3.96080E+01 0.00000E+00
 -1       647 7.51500E+01 3.96080E+01 0.00000E+00
 -1       648 7.81500E+01 3.96080E+01 0.00000E+00
 -1       649 8.11500E+01 3.96080E+01 0.00000E+00
 -1       650 8.41500E+01 3.96080E+01 0.00000E+00
 -1       651 8.71500E+01 3.96080E+01 0.00000E+00
 -1       652 9.01500E+01 3.96080E+01 0.00000E+00
 -1       653 9.31500E+01 3.96080E+01 0.00000E+00
 -1       654 9.61500E+01 3.96080E+01 0.00000E+00
 -1       655 9.91500E+01 3.96080E+01 0.00000E+00
 -1       656 1.02150E+02 3.96080E+01 0.00000E+00
 -1       657 1.05150E+02 3.96080E+01 0.00000E+00
 -1       658 1.08150E+02 3.96080E+01 0.00000E+00
 -1       659 1.11150E+02 3.96080E+01 0.00000E+00
 -1       660 1.14150E+02 3.96080E+01 0.00000E+00
 -1       661 1.17150E+02 3.96080E+01 0.00000E+00
 -1       662 1.20150E+02 3.96080E+01 0.00000E+00
 -1       663 1.23150E+02 3.96080E+01 0.00000E+00
 -1       664 1.26150E+02 3.96080E+01 0.00000E+00
 -1       665 1.29150E+02 3.96080E+01 0.00000E+00
 -1       666 1.32150E+02 3.96080E+01 0.00000E+00
 -1       667 1.35150E+02 3.96080E+01 0.00000E+00
 -1       668 1.38150E+02 3.96080E+01 0.00000E+00
 -1       669 2.35350E+01 9.20225E+00 0.00000E+00
 -1       670 6.75066E+01 3.03120E+01 0.00000E+00
 -1       671 2.05350E+01 9.20225E+00 0.00000E+00
 -1       672 2.95350E+01 9.20225E+00 0.00000E+00
 -1       673 3.25350E+01 9.20225E+00 0.00000E+00
 -1       674 3.55350E+01 9.20225E+00 0.00000E+00
 -1       675 3.85350E+01 9.20225E+00 0.00000E+00
 -1       676 4.15350E+01 9.20225E+00 0.00000E+00
 -1       677 4.45350E+01 9.20225E+00 0.00000E+00
 -1       678 4.75350E+01 9.20225E+00 0.00000E+00
 -1       679 5.05350E+01 9.20225E+00 0.00000E+00
 -1       680 6.25350E+01 8.65450E+00 0.00000E+00
 -1       681 6.55350E+01 8.98964E+00 0.00000E+00
 -1       682 6.85350E+01 8.98964E+00 0.00000E+00
 -1       683 7.15350E+01 8.98964E+00 0.00000E+00
 -1       684 7.45350E+01 8.98964E+00 0.00000E+00
 -1       685 7.75350E+01 8.98964E+00 0.00000E+00
 -1       686 8.05350E+01 8.98964E+00 0.00000E+00
 -1       687 8.35350E+01 8.98964E+00 0.00000E+00
 -1       688 8.65350E+01 8.98964E+00 0.00000E+00
 -1       689 8.95350E+01 8.98964E+00 0.00000E+00
 -1       690 9.25350E+01 8.98964E+00 0.00000E+00
 -1       691 9.55350E+01 8.98964E+00 0.00000E+00
 -1       692 9.85350E+01 8.98964E+00 0.00000E+00
 -1       693 1.01535E+02 8.98964E+00 0.00000E+00
 -1       694 1.04535E+02 8.98964E+00 0.00000E+00
 -1       695 1.07535E+02 8.98964E+00 0.00000E+00
 -1       696 1.10535E+02 8.98964E+00 0.00000E+00
 -1       697 1.13535E+02 8.98964E+00 0.00000E+00
 -1       698 1.16535E+02 8.98964E+00 0.00000E+00
 -1       699 1.19535E+02 8.98964E+00 0.00000E+00
 -1       700 1.22535E+02 8.98964E+00 0.00000E+00
 -1       701 1.25535E+02 8.98964E+00 0.00000E+00
 -1       702 1.28535E+02 8.98964E+00 0.00000E+00
 -1       703 1.31535E+02 8.98964E+00 0.00000E+00
 -1       704 1.34535E+02 8.98964E+00 0.00000E+00
 -1       705 1.37535E+02 8.98964E+00 0.00000E+00
 -1       706 1.39870E+02 9.65732E+00 0.00000E+00
 -1       707 1.39608E+02 2.35500E+01 0.00000E+00
 -1       708 1.40178E+02 3.96665E+01 0.00000E+00
 -1       709 1.39608E+02 1.76500E+01 0.00000E+00
 -1       710 1.39608E+02 2.65000E+01 0.00000E+00
 -1       711 1.39608E+02 2.06000E+01 0.00000E+00
 -1       712 6.35820E+01 3.35152E+01 0.00000E+00
 -1       713 1.39608E+02 2.94000E+01 0.00000E+00
 -1       714 1.39608E+02 3.23500E+01 0.00000E+00
 -1       715 1.39608E+02 3.53000E+01 0.00000E+00
 -1       716 7.10233E+01 1.85236E+01 0.00000E+00
 -1       717 7.12160E+01 2.42066E+01 0.00000E+00
 -1       718 6.43976E+01 9.91502E+00 0.00000E+00
 -1       719 4.62651E+01 1.75799E+01 0.00000E+00
 -1       720 4.74884E+01 2.87111E+01 0.00000E+00
 -1       721 1.75350E+01 9.20225E+00 0.00000E+00
 -1       722 2.65350E+01 9.20225E+00 0.00000E+00
 -1       723 1.21500E+01 3.96080E+01 0.00000E+00
 -1       724 1.03920E+01 1.76125E+01 0.00000E+00
 -1       725 6.73299E+01 1.14289E+01 0.00000E+00
 -1       726 7.02071E+01 1.59353E+01 0.00000E+00
 -1       727 1.03920E+01 3.23250E+01 0.00000E+00
 -1       728 6.56785E+01 3.23177E+01 0.00000E+00
 -1       729 4.89020E+01 3.03462E+01 0.00000E+00
 -1       730 5.80482E+01 3.44646E+01 0.00000E+00
 -1       731 4.70540E+01 1.54567E+01 0.00000E+00
 -1       732 4.53214E+01 2.02186E+01 0.00000E+00
 -1       733 4.62691E+01 2.62240E+01 0.00000E+00
 -1       734 7.00360E+01 2.66542E+01 0.00000E+00
 -1       735 5.11299E+01 3.23582E+01 0.00000E+00
 -1       736 6.13869E+01 3.43154E+01 0.00000E+00
 -1       737 6.90557E+01 1.37301E+01 0.00000E+00
 -1       738 5.55816E+01 3.39626E+01 0.00000E+00
 -1       739 1.03920E+01 3.52625E+01 0.00000E+00
 -1       740 1.03920E+01 2.64500E+01 0.00000E+00
 -1       741 1.39608E+02 1.47250E+01 0.00000E+00
 -1       742 1.39739E+02 1.21912E+01 0.00000E+00
 -1       743 7.24631E+01 1.98979E+01 0.00000E+00
 -1       744 1.05210E+01 3.87342E+01 0.00000E+00
 -1       745 5.94545E+01 8.69275E+00 0.00000E+00
 -1       746 7.25883E+01 2.27536E+01 0.00000E+00
 -1       747 4.46893E+01 2.49256E+01 0.00000E+00
 -1       748 1.03920E+01 2.93875E+01 0.00000E+00
 -1       749 4.71362E+01 1.34008E+01 0.00000E+00
 -1       750 1.38879E+02 3.74540E+01 0.00000E+00
 -1       751 5.96757E+01 3.56712E+01 0.00000E+00
 -1       752 4.41328E+01 2.20933E+01 0.00000E+00
 -1       753 5.15227E+01 3.49150E+01 0.00000E+00
 -1       754 1.29900E+01 1.32000E+01 0.00000E+00
 -1       755 1.36500E+01 3.70100E+01 0.00000E+00
 -1       756 1.96500E+01 3.70100E+01 0.00000E+00
 -1       757 2.26500E+01 3.70100E+01 0.00000E+00
 -1       758 2.56500E+01 3.70100E+01 0.00000E+00
 -1       759 2.86500E+01 3.70100E+01 0.00000E+00
 -1       760 3.16500E+01 3.70100E+01 0.00000E+00
 -1       761 3.46500E+01 3.70100E+01 0.00000E+00
 -1       762 3.76500E+01 3.70100E+01 0.00000E+00
 -1       763 4.06500E+01 3.70100E+01 0.00000E+00
 -1       764 4.36500E+01 3.70100E+01 0.00000E+00
 -1       765 4.66500E+01 3.70100E+01 0.00000E+00
 -1       766 4.96500E+01 3.70100E+01 0.00000E+00
 -1       767 5.86500E+01 3.70550E+01 0.00000E+00
 -1       768 6.46500E+01 3.70100E+01 0.00000E+00
 -1       769 6.76500E+01 3.70100E+01 0.00000E+00
 -1       770 7.06500E+01 3.70100E+01 0.00000E+00
 -1       771 7.36500E+01 3.70100E+01 0.00000E+00
 -1       772 7.66500E+01 3.70100E+01 0.00000E+00
 -1       773 7.96500E+01 3.70100E+01 0.00000E+00
 -1       774 8.26500E+01 3.70100E+01 0.00000E+00
 -1       775 8.56500E+01 3.70100E+01 0.00000E+00
 -1       776 8.86500E+01 3.70100E+01 0.00000E+00
 -1       777 9.16500E+01 3.70100E+01 0.00000E+00
 -1       778 9.46500E+01 3.70100E+01 0.00000E+00
 -1       779 9.76500E+01 3.70100E+01 0.00000E+00
 -1       780 1.00650E+02 3.70100E+01 0.00000E+00
 -1       781 1.03650E+02 3.70100E+01 0.00000E+00
 -1       782 1.06650E+02 3.70100E+01 0.00000E+00
 -1       783 1.09650E+02 3.70100E+01 0.00000E+00
 -1       784 1.12650E+02 3.70100E+01 0.00000E+00
 -1       785 1.15650E+02 3.70100E+01 0.00000E+00
 -1       786 1.18650E+02 3.70100E+01 0.00000E+00
 -1       787 1.21650E+02 3.70100E+01 0.00000E+00
 -1       788 1.24650E+02 3.70100E+01 0.00000E+00
 -1       789 1.27650E+02 3.70100E+01 0.00000E+00
 -1       790 1.30650E+02 3.70100E+01 0.00000E+00
 -1       791 1.33650E+02 3.70100E+01 0.00000E+00
 -1       792 1.36264E+02 3.72320E+01 0.00000E+00
 -1       793 2.20350E+01 1.18003E+01 0.00000E+00
 -1       794 3.40350E+01 1.18003E+01 0.00000E+00
 -1       795 3.10350E+01 1.18003E+01 0.00000E+00
 -1       796 4.00350E+01 1.18003E+01 0.00000E+00
 -1       797 4.30350E+01 1.18003E+01 0.00000E+00
 -1       798 4.65174E+01 3.09791E+01 0.00000E+00
 -1       799 7.60350E+01 1.15876E+01 0.00000E+00
 -1       800 7.90350E+01 1.15876E+01 0.00000E+00
 -1       801 8.20350E+01 1.15876E+01 0.00000E+00
 -1       802 8.50350E+01 1.15876E+01 0.00000E+00
 -1       803 8.80350E+01 1.15876E+01 0.00000E+00
 -1       804 9.10350E+01 1.15876E+01 0.00000E+00
 -1       805 9.40350E+01 1.15876E+01 0.00000E+00
 -1       806 9.70350E+01 1.15876E+01 0.00000E+00
 -1       807 1.00035E+02 1.15876E+01 0.00000E+00
 -1       808 1.03035E+02 1.15876E+01 0.00000E+00
 -1       809 1.06035E+02 1.15876E+01 0.00000E+00
 -1       810 1.09035E+02 1.15876E+01 0.00000E+00
 -1       811 1.12035E+02 1.15876E+01 0.00000E+00
 -1       812 1.15035E+02 1.15876E+01 0.00000E+00
 -1       813 1.18035E+02 1.15876E+01 0.00000E+00
 -1       814 1.21035E+02 1.15876E+01 0.00000E+00
 -1       815 1.24035E+02 1.15876E+01 0.00000E+00
 -1       816 1.27035E+02 1.15876E+01 0.00000E+00
 -1       817 1.30035E+02 1.15876E+01 0.00000E+00
 -1       818 1.33035E+02 1.15876E+01 0.00000E+00
 -1       819 1.36035E+02 1.15876E+01 0.00000E+00
 -1       820 1.37887E+02 1.18894E+01 0.00000E+00
 -1       821 6.31867E+01 3.58416E+01 0.00000E+00
 -1       822 1.29900E+01 2.20250E+01 0.00000E+00
 -1       823 6.99671E+01 1.12489E+01 0.00000E+00
 -1       824 1.37010E+02 2.50250E+01 0.00000E+00
 -1       825 1.37010E+02 3.38250E+01 0.00000E+00
 -1       826 1.37010E+02 2.79250E+01 0.00000E+00
 -1       827 7.22509E+01 1.67137E+01 0.00000E+00
 -1       828 7.11042E+01 2.85639E+01 0.00000E+00
 -1       829 4.85295E+01 3.29982E+01 0.00000E+00
 -1       830 4.41783E+01 1.83217E+01 0.00000E+00
 -1       831 1.37010E+02 3.08750E+01 0.00000E+00
 -1       832 7.30350E+01 1.15876E+01 0.00000E+00
 -1       833 6.57302E+01 3.48423E+01 0.00000E+00
 -1       834 3.70350E+01 1.18003E+01 0.00000E+00
 -1       835 5.63726E+01 3.63869E+01 0.00000E+00
 -1       836 6.81078E+01 3.26960E+01 0.00000E+00
 -1       837 6.95173E+01 3.09667E+01 0.00000E+00
 -1       838 1.66500E+01 3.70100E+01 0.00000E+00
 -1       839 4.47377E+01 1.58042E+01 0.00000E+00
 -1       840 1.20210E+01 3.61362E+01 0.00000E+00
 -1       841 7.24729E+01 2.63207E+01 0.00000E+00
 -1       842 1.37625E+01 1.12011E+01 0.00000E+00
 -1       843 4.48874E+01 2.84439E+01 0.00000E+00
 -1       844 5.39476E+01 3.56509E+01 0.00000E+00
 -1       845 7.15973E+01 1.38062E+01 0.00000E+00
 -1       846 1.29900E+01 2.49750E+01 0.00000E+00
 -1       847 1.29900E+01 1.61375E+01 0.00000E+00
 -1       848 4.33076E+01 2.71454E+01 0.00000E+00
 -1       849 1.29900E+01 1.90812E+01 0.00000E+00
 -1       850 1.37010E+02 1.61875E+01 0.00000E+00
 -1       851 1.67625E+01 1.12011E+01 0.00000E+00
 -1       852 1.29900E+01 3.08563E+01 0.00000E+00
 -1       853 2.80350E+01 1.18003E+01 0.00000E+00
 -1       854 1.25055E+01 3.34963E+01 0.00000E+00
 -1       855 4.29897E+01 2.01963E+01 0.00000E+00
 -1       856 1.37010E+02 1.91375E+01 0.00000E+00
 -1       857 1.37010E+02 2.20812E+01 0.00000E+00
 -1       858 7.36908E+01 1.80880E+01 0.00000E+00
 -1       859 1.93988E+01 1.15007E+01 0.00000E+00
 -1       860 7.38898E+01 2.13160E+01 0.00000E+00
 -1       861 7.38451E+01 2.48678E+01 0.00000E+00
 -1       862 2.50350E+01 1.18003E+01 0.00000E+00
 -1       863 1.36637E+02 3.55285E+01 0.00000E+00
 -1       864 2.41500E+01 3.44120E+01 0.00000E+00
 -1       865 2.71500E+01 3.44120E+01 0.00000E+00
 -1       866 3.01500E+01 3.44120E+01 0.00000E+00
 -1       867 3.31500E+01 3.44120E+01 0.00000E+00
 -1       868 3.61500E+01 3.44120E+01 0.00000E+00
 -1       869 3.91500E+01 3.44120E+01 0.00000E+00
 -1       870 4.21500E+01 3.44120E+01 0.00000E+00
 -1       871 4.51500E+01 3.44120E+01 0.00000E+00
 -1       872 6.91500E+01 3.44120E+01 0.00000E+00
 -1       873 7.21500E+01 3.44120E+01 0.00000E+00
 -1       874 7.51500E+01 3.44120E+01 0.00000E+00
 -1       875 7.81500E+01 3.44120E+01 0.00000E+00
 -1       876 8.11500E+01 3.44120E+01 0.00000E+00
 -1       877 8.41500E+01 3.44120E+01 0.00000E+00
 -1       878 8.71500E+01 3.44120E+01 0.00000E+00
 -1       879 9.01500E+01 3.44120E+01 0.00000E+00
 -1       880 9.31500E+01 3.44120E+01 0.00000E+00
 -1       881 9.61500E+01 3.44120E+01 0.00000E+00
 -1       882 9.91500E+01 3.44120E+01 0.00000E+00
 -1       883 1.02150E+02 3.44120E+01 0.00000E+00
 -1       884 1.05150E+02 3.44120E+01 0.00000E+00
 -1       885 1.08150E+02 3.44120E+01 0.00000E+00
 -1       886 1.11150E+02 3.44120E+01 0.00000E+00
 -1       887 1.14150E+02 3.44120E+01 0.00000E+00
 -1       888 1.17150E+02 3.44120E+01 0.00000E+00
 -1       889 1.20150E+02 3.44120E+01 0.00000E+00
 -1       890 1.23150E+02 3.44120E+01 0.00000E+00
 -1       891 1.26150E+02 3.44120E+01 0.00000E+00
 -1       892 1.29150E+02 3.44120E+01 0.00000E+00
 -1       893 1.32150E+02 3.44120E+01 0.00000E+00
 -1       894 1.29900E+01 2.79188E+01 0.00000E+00
 -1       895 7.42514E+01 1.47368E+01 0.00000E+00
 -1       896 4.15350E+01 1.43982E+01 0.00000E+00
 -1       897 8.05350E+01 1.41856E+01 0.00000E+00
 -1       898 7.75350E+01 1.41856E+01 0.00000E+00
 -1       899 8.65350E+01 1.41856E+01 0.00000E+00
 -1       900 8.95350E+01 1.41856E+01 0.00000E+00
 -1       901 9.25350E+01 1.41856E+01 0.00000E+00
 -1       902 9.55350E+01 1.41856E+01 0.00000E+00
 -1       903 9.85350E+01 1.41856E+01 0.00000E+00
 -1       904 1.01535E+02 1.41856E+01 0.00000E+00
 -1       905 1.04535E+02 1.41856E+01 0.00000E+00
 -1       906 1.07535E+02 1.41856E+01 0.00000E+00
 -1       907 1.10535E+02 1.41856E+01 0.00000E+00
 -1       908 1.13535E+02 1.41856E+01 0.00000E+00
 -1       909 1.16535E+02 1.41856E+01 0.00000E+00
 -1       910 1.19535E+02 1.41856E+01 0.00000E+00
 -1       911 1.22535E+02 1.41856E+01 0.00000E+00
 -1       912 1.25535E+02 1.41856E+01 0.00000E+00
 -1       913 1.28535E+02 1.41856E+01 0.00000E+00
 -1       914 1.31535E+02 1.41856E+01 0.00000E+00
 -1       915 1.34535E+02 1.41856E+01 0.00000E+00
 -1       916 4.36959E+01 3.10015E+01 0.00000E+00
 -1       917 7.35387E+01 2.85102E+01 0.00000E+00
 -1       918 1.37449E+02 1.40385E+01 0.00000E+00
 -1       919 1.34412E+02 2.64750E+01 0.00000E+00
 -1       920 7.21614E+01 3.09875E+01 0.00000E+00
 -1       921 8.35350E+01 1.41856E+01 0.00000E+00
 -1       922 3.25350E+01 1.43982E+01 0.00000E+00
 -1       923 2.11500E+01 3.44120E+01 0.00000E+00
 -1       924 4.56166E+01 1.37686E+01 0.00000E+00
 -1       925 1.81500E+01 3.44120E+01 0.00000E+00
 -1       926 2.35350E+01 1.43982E+01 0.00000E+00
 -1       927 7.06557E+01 3.26998E+01 0.00000E+00
 -1       928 1.41345E+01 3.43700E+01 0.00000E+00
 -1       929 4.22348E+01 2.39370E+01 0.00000E+00
 -1       930 4.22930E+01 1.65818E+01 0.00000E+00
 -1       931 1.59900E+01 1.32000E+01 0.00000E+00
 -1       932 4.21162E+01 2.97031E+01 0.00000E+00
 -1       933 1.34394E+02 3.49702E+01 0.00000E+00
 -1       934 3.85350E+01 1.43982E+01 0.00000E+00
 -1       935 4.10918E+01 2.20401E+01 0.00000E+00
 -1       936 2.95350E+01 1.43982E+01 0.00000E+00
 -1       937 1.46190E+01 3.17300E+01 0.00000E+00
 -1       938 1.46190E+01 2.87925E+01 0.00000E+00
 -1       939 1.34412E+02 2.94250E+01 0.00000E+00
 -1       940 1.34412E+02 2.35313E+01 0.00000E+00
 -1       941 3.55350E+01 1.43982E+01 0.00000E+00
 -1       942 7.51175E+01 1.95060E+01 0.00000E+00
 -1       943 7.51467E+01 2.34301E+01 0.00000E+00
 -1       944 2.65350E+01 1.43982E+01 0.00000E+00
 -1       945 1.55880E+01 2.05531E+01 0.00000E+00
 -1       946 2.05351E+01 1.43983E+01 0.00000E+00
 -1       947 1.34412E+02 1.76625E+01 0.00000E+00
 -1       948 4.32948E+01 1.39737E+01 0.00000E+00
 -1       949 4.11044E+01 1.84565E+01 0.00000E+00
 -1       950 7.49110E+01 2.70573E+01 0.00000E+00
 -1       951 1.55880E+01 2.35031E+01 0.00000E+00
 -1       952 1.34580E+02 3.26435E+01 0.00000E+00
 -1       953 2.56500E+01 3.18140E+01 0.00000E+00
 -1       954 1.55880E+01 1.76094E+01 0.00000E+00
 -1       955 2.86500E+01 3.18140E+01 0.00000E+00
 -1       956 3.16500E+01 3.18140E+01 0.00000E+00
 -1       957 3.46500E+01 3.18140E+01 0.00000E+00
 -1       958 3.76500E+01 3.18140E+01 0.00000E+00
 -1       959 7.36557E+01 3.26998E+01 0.00000E+00
 -1       960 7.66500E+01 3.18140E+01 0.00000E+00
 -1       961 7.96500E+01 3.18140E+01 0.00000E+00
 -1       962 8.26500E+01 3.18140E+01 0.00000E+00
 -1       963 8.56500E+01 3.18140E+01 0.00000E+00
 -1       964 8.86500E+01 3.18140E+01 0.00000E+00
 -1       965 9.16500E+01 3.18140E+01 0.00000E+00
 -1       966 9.46500E+01 3.18140E+01 0.00000E+00
 -1       967 9.76500E+01 3.18140E+01 0.00000E+00
 -1       968 1.00650E+02 3.18140E+01 0.00000E+00
 -1       969 1.03650E+02 3.18140E+01 0.00000E+00
 -1       970 1.06650E+02 3.18140E+01 0.00000E+00
 -1       971 1.09650E+02 3.18140E+01 0.00000E+00
 -1       972 1.12650E+02 3.18140E+01 0.00000E+00
 -1       973 1.15650E+02 3.18140E+01 0.00000E+00
 -1       974 1.18650E+02 3.18140E+01 0.00000E+00
 -1       975 1.21650E+02 3.18140E+01 0.00000E+00
 -1       976 1.24650E+02 3.18140E+01 0.00000E+00
 -1       977 1.27650E+02 3.18140E+01 0.00000E+00
 -1       978 1.30650E+02 3.18140E+01 0.00000E+00
 -1       979 7.90350E+01 1.67836E+01 0.00000E+00
 -1       980 9.10350E+01 1.67836E+01 0.00000E+00
 -1       981 8.80350E+01 1.67836E+01 0.00000E+00
 -1       982 9.70350E+01 1.67836E+01 0.00000E+00
 -1       983 1.00035E+02 1.67836E+01 0.00000E+00
 -1       984 1.03035E+02 1.67836E+01 0.00000E+00
 -1       985 1.06035E+02 1.67836E+01 0.00000E+00
 -1       986 1.09035E+02 1.67836E+01 0.00000E+00
 -1       987 1.12035E+02 1.67836E+01 0.00000E+00
 -1       988 1.15035E+02 1.67836E+01 0.00000E+00
 -1       989 1.18035E+02 1.67836E+01 0.00000E+00
 -1       990 1.21035E+02 1.67836E+01 0.00000E+00
 -1       991 1.24035E+02 1.67836E+01 0.00000E+00
 -1       992 1.27035E+02 1.67836E+01 0.00000E+00
 -1       993 1.30035E+02 1.67836E+01 0.00000E+00
 -1       994 7.63629E+01 1.74358E+01 0.00000E+00
 -1       995 2.20351E+01 1.69963E+01 0.00000E+00
 -1       996 4.06331E+01 3.20575E+01 0.00000E+00
 -1       997 8.20350E+01 1.67836E+01 0.00000E+00
 -1       998 1.34412E+02 2.05969E+01 0.00000E+00
 -1       999 2.26500E+01 3.18140E+01 0.00000E+00
 -1      1000 1.51035E+01 2.61478E+01 0.00000E+00
 -1      1001 2.50351E+01 1.69963E+01 0.00000E+00
 -1      1002 1.96500E+01 3.18140E+01 0.00000E+00
 -1      1003 8.50350E+01 1.67836E+01 0.00000E+00
 -1      1004 4.06679E+01 2.62445E+01 0.00000E+00
 -1      1005 1.82625E+01 1.37991E+01 0.00000E+00
 -1      1006 9.40350E+01 1.67836E+01 0.00000E+00
 -1      1007 1.71345E+01 3.03032E+01 0.00000E+00
 -1      1008 3.98197E+01 1.64274E+01 0.00000E+00
 -1      1009 1.81860E+01 1.90812E+01 0.00000E+00
 -1      1010 1.90352E+01 1.69963E+01 0.00000E+00
 -1      1011 1.30035E+02 1.97180E+01 0.00000E+00
 -1      1012 3.95248E+01 2.43476E+01 0.00000E+00
 -1      1013 3.10350E+01 1.69963E+01 0.00000E+00
 -1      1014 1.31814E+02 2.50031E+01 0.00000E+00
 -1      1015 1.81860E+01 2.20313E+01 0.00000E+00
 -1      1016 1.31814E+02 2.79531E+01 0.00000E+00
 -1      1017 7.72805E+01 2.94356E+01 0.00000E+00
 -1      1018 3.40350E+01 1.69963E+01 0.00000E+00
 -1      1019 7.63743E+01 2.16202E+01 0.00000E+00
 -1      1020 7.62125E+01 2.56196E+01 0.00000E+00
 -1      1021 2.80350E+01 1.69963E+01 0.00000E+00
 -1      1022 2.71500E+01 2.92160E+01 0.00000E+00
 -1      1023 3.01500E+01 2.92160E+01 0.00000E+00
 -1      1024 3.31500E+01 2.92160E+01 0.00000E+00
 -1      1025 3.61500E+01 2.92160E+01 0.00000E+00
 -1      1026 8.95350E+01 1.93816E+01 0.00000E+00
 -1      1027 8.05350E+01 1.93816E+01 0.00000E+00
 -1      1028 3.70350E+01 1.69963E+01 0.00000E+00
 -1      1029 2.11859E+01 1.90812E+01 0.00000E+00
 -1      1030 8.11500E+01 2.92160E+01 0.00000E+00
 -1      1031 8.41500E+01 2.92160E+01 0.00000E+00
 -1      1032 8.71500E+01 2.92160E+01 0.00000E+00
 -1      1033 9.01500E+01 2.92160E+01 0.00000E+00
 -1      1034 9.31500E+01 2.92160E+01 0.00000E+00
 -1      1035 9.61500E+01 2.92160E+01 0.00000E+00
 -1      1036 9.91500E+01 2.92160E+01 0.00000E+00
 -1      1037 1.02150E+02 2.92160E+01 0.00000E+00
 -1      1038 1.05150E+02 2.92160E+01 0.00000E+00
 -1      1039 1.08150E+02 2.92160E+01 0.00000E+00
 -1      1040 1.11150E+02 2.92160E+01 0.00000E+00
 -1      1041 1.14150E+02 2.92160E+01 0.00000E+00
 -1      1042 1.17150E+02 2.92160E+01 0.00000E+00
 -1      1043 1.20150E+02 2.92160E+01 0.00000E+00
 -1      1044 1.23150E+02 2.92160E+01 0.00000E+00
 -1      1045 1.26150E+02 2.92160E+01 0.00000E+00
 -1      1046 1.29150E+02 2.92160E+01 0.00000E+00
 -1      1047 7.76197E+01 1.95500E+01 0.00000E+00
 -1      1048 3.91331E+01 2.94595E+01 0.00000E+00
 -1      1049 1.01535E+02 1.93816E+01 0.00000E+00
 -1      1050 9.85350E+01 1.93816E+01 0.00000E+00
 -1      1051 1.07535E+02 1.93816E+01 0.00000E+00
 -1      1052 1.10535E+02 1.93816E+01 0.00000E+00
 -1      1053 1.13535E+02 1.93816E+01 0.00000E+00
 -1      1054 1.16535E+02 1.93816E+01 0.00000E+00
 -1      1055 1.19535E+02 1.93816E+01 0.00000E+00
 -1      1056 1.22535E+02 1.93816E+01 0.00000E+00
 -1      1057 1.25535E+02 1.93816E+01 0.00000E+00
 -1      1058 1.27785E+02 1.95498E+01 0.00000E+00
 -1      1059 2.41859E+01 1.90812E+01 0.00000E+00
 -1      1060 2.41500E+01 2.92160E+01 0.00000E+00
 -1      1061 2.11500E+01 2.92160E+01 0.00000E+00
 -1      1062 1.30924E+02 2.23606E+01 0.00000E+00
 -1      1063 3.88803E+01 2.02405E+01 0.00000E+00
 -1      1064 8.65350E+01 1.93816E+01 0.00000E+00
 -1      1065 8.35350E+01 1.93816E+01 0.00000E+00
 -1      1066 1.04535E+02 1.93816E+01 0.00000E+00
 -1      1067 3.78374E+01 2.67818E+01 0.00000E+00
 -1      1068 3.73133E+01 2.25480E+01 0.00000E+00
 -1      1069 9.25350E+01 1.93816E+01 0.00000E+00
 -1      1070 1.76190E+01 2.76586E+01 0.00000E+00
 -1      1071 9.55350E+01 1.93816E+01 0.00000E+00
 -1      1072 2.71859E+01 1.90812E+01 0.00000E+00
 -1      1073 1.81676E+01 2.50276E+01 0.00000E+00
 -1      1074 1.28907E+02 2.45107E+01 0.00000E+00
 -1      1075 7.74401E+01 2.38097E+01 0.00000E+00
 -1      1076 3.01858E+01 1.90812E+01 0.00000E+00
 -1      1077 3.79576E+01 1.86184E+01 0.00000E+00
 -1      1078 3.31858E+01 1.90812E+01 0.00000E+00
 -1      1079 1.29029E+02 2.68633E+01 0.00000E+00
 -1      1080 3.16500E+01 2.66180E+01 0.00000E+00
 -1      1081 3.46500E+01 2.66180E+01 0.00000E+00
 -1      1082 3.55717E+01 1.88498E+01 0.00000E+00
 -1      1083 2.56500E+01 2.66180E+01 0.00000E+00
 -1      1084 8.26500E+01 2.66180E+01 0.00000E+00
 -1      1085 7.86856E+01 2.17394E+01 0.00000E+00
 -1      1086 8.56500E+01 2.66180E+01 0.00000E+00
 -1      1087 8.86500E+01 2.66180E+01 0.00000E+00
 -1      1088 9.16500E+01 2.66180E+01 0.00000E+00
 -1      1089 9.46500E+01 2.66180E+01 0.00000E+00
 -1      1090 9.76500E+01 2.66180E+01 0.00000E+00
 -1      1091 1.00650E+02 2.66180E+01 0.00000E+00
 -1      1092 1.03650E+02 2.66180E+01 0.00000E+00
 -1      1093 1.06650E+02 2.66180E+01 0.00000E+00
 -1      1094 1.09650E+02 2.66180E+01 0.00000E+00
 -1      1095 1.12650E+02 2.66180E+01 0.00000E+00
 -1      1096 1.15650E+02 2.66180E+01 0.00000E+00
 -1      1097 1.18650E+02 2.66180E+01 0.00000E+00
 -1      1098 1.21650E+02 2.66180E+01 0.00000E+00
 -1      1099 1.24650E+02 2.66180E+01 0.00000E+00
 -1      1100 1.15035E+02 2.19796E+01 0.00000E+00
 -1      1101 2.86500E+01 2.66180E+01 0.00000E+00
 -1      1102 7.90680E+01 2.67320E+01 0.00000E+00
 -1      1103 1.28346E+02 2.20302E+01 0.00000E+00
 -1      1104 1.12035E+02 2.19796E+01 0.00000E+00
 -1      1105 1.09035E+02 2.19796E+01 0.00000E+00
 -1      1106 1.18035E+02 2.19796E+01 0.00000E+00
 -1      1107 1.21035E+02 2.19796E+01 0.00000E+00
 -1      1108 1.24035E+02 2.19796E+01 0.00000E+00
 -1      1109 2.15076E+01 2.24086E+01 0.00000E+00
 -1      1110 8.80350E+01 2.19796E+01 0.00000E+00
 -1      1111 1.00035E+02 2.19796E+01 0.00000E+00
 -1      1112 2.26500E+01 2.66180E+01 0.00000E+00
 -1      1113 2.48705E+01 2.23740E+01 0.00000E+00
 -1      1114 9.70350E+01 2.19796E+01 0.00000E+00
 -1      1115 8.20350E+01 2.19346E+01 0.00000E+00
 -1      1116 8.50350E+01 2.19796E+01 0.00000E+00
 -1      1117 1.26190E+02 2.20049E+01 0.00000E+00
 -1      1118 1.03035E+02 2.19796E+01 0.00000E+00
 -1      1119 9.10350E+01 2.19796E+01 0.00000E+00
 -1      1120 8.06678E+01 2.41787E+01 0.00000E+00
 -1      1121 1.06035E+02 2.19796E+01 0.00000E+00
 -1      1122 2.78705E+01 2.23740E+01 0.00000E+00
 -1      1123 3.64944E+01 2.04719E+01 0.00000E+00
 -1      1124 3.11534E+01 2.22219E+01 0.00000E+00
 -1      1125 9.40350E+01 2.19796E+01 0.00000E+00
 -1      1126 8.41500E+01 2.40200E+01 0.00000E+00
 -1      1127 1.26093E+02 2.38436E+01 0.00000E+00
 -1      1128 3.42333E+01 2.23850E+01 0.00000E+00
 -1      1129 0.00000E+00 4.85250E+01 0.00000E+00
 -1      1130 0.00000E+00 4.55750E+01 0.00000E+00
 -1      1131 0.00000E+00 4.26250E+01 0.00000E+00
 -1      1132 0.00000E+00 3.96750E+01 0.00000E+00
 -1      1133 0.00000E+00 3.67250E+01 0.00000E+00
 -1      1134 0.00000E+00 3.38000E+01 0.00000E+00
 -1      1135 0.00000E+00 3.08750E+01 0.00000E+00
 -1      1136 0.00000E+00 2.79250E+01 0.00000E+00
 -1      1137 0.00000E+00 2.49750E+01 0.00000E+00
 -1      1138 0.00000E+00 2.20250E+01 0.00000E+00
 -1      1139 0.00000E+00 1.90750E+01 0.00000E+00
 -1      1140 0.00000E+00 1.61500E+01 0.00000E+00
 -1      1141 0.00000E+00 1.32250E+01 0.00000E+00
 -1      1142 0.00000E+00 1.02750E+01 0.00000E+00
 -1      1143 0.00000E+00 7.32500E+00 0.00000E+00
 -1      1144 0.00000E+00 4.37500E+00 0.00000E+00
 -1      1145 0.00000E+00 1.45000E+00 0.00000E+00
 -1      1146 1.57500E+00 5.00000E+01 0.00000E+00
 -1      1147 4.65000E+00 5.00000E+01 0.00000E+00
 -1      1148 7.65000E+00 5.00000E+01 0.00000E+00
 -1      1149 1.06500E+01 5.00000E+01 0.00000E+00
 -1      1150 1.36500E+01 5.00000E+01 0.00000E+00
 -1      1151 1.66500E+01 5.00000E+01 0.00000E+00
 -1      1152 1.96500E+01 5.00000E+01 0.00000E+00
 -1      1153 2.26500E+01 5.00000E+01 0.00000E+00
 -1      1154 2.56500E+01 5.00000E+01 0.00000E+00
 -1      1155 2.86500E+01 5.00000E+01 0.00000E+00
 -1      1156 3.16500E+01 5.00000E+01 0.00000E+00
 -1      1157 3.46500E+01 5.00000E+01 0.00000E+00
 -1      1158 3.76500E+01 5.00000E+01 0.00000E+00
 -1      1159 4.06500E+01 5.00000E+01 0.00000E+00
 -1      1160 4.36500E+01 5.00000E+01 0.00000E+00
 -1      1161 4.66500E+01 5.00000E+01 0.00000E+00
 -1      1162 4.96500E+01 5.00000E+01 0.00000E+00
 -1      1163 5.26500E+01 5.00000E+01 0.00000E+00
 -1      1164 5.56500E+01 5.00000E+01 0.00000E+00
 -1      1165 5.86500E+01 5.00000E+01 0.00000E+00
 -1      1166 6.16500E+01 5.00000E+01 0.00000E+00
 -1      1167 6.46500E+01 5.00000E+01 0.00000E+00
 -1      1168 6.76500E+01 5.00000E+01 0.00000E+00
 -1      1169 7.06500E+01 5.00000E+01 0.00000E+00
 -1      1170 7.36500E+01 5.00000E+01 0.00000E+00
 -1      1171 7.66500E+01 5.00000E+01 0.00000E+00
 -1      1172 7.96500E+01 5.00000E+01 0.00000E+00
 -1      1173 8.26500E+01 5.00000E+01 0.00000E+00
 -1      1174 8.56500E+01 5.00000E+01 0.00000E+00
 -1      1175 8.86500E+01 5.00000E+01 0.00000E+00
 -1      1176 9.16500E+01 5.00000E+01 0.00000E+00
 -1      1177 9.46500E+01 5.00000E+01 0.00000E+00
 -1      1178 9.76500E+01 5.00000E+01 0.00000E+00
 -1      1179 1.00650E+02 5.00000E+01 0.00000E+00
 -1      1180 1.03650E+02 5.00000E+01 0.00000E+00
 -1      1181 1.06650E+02 5.00000E+01 0.00000E+00
 -1      1182 1.09650E+02 5.00000E+01 0.00000E+00
 -1      1183 1.12650E+02 5.00000E+01 0.00000E+00
 -1      1184 1.15650E+02 5.00000E+01 0.00000E+00
 -1      1185 1.18650E+02 5.00000E+01 0.00000E+00
 -1      1186 1.21650E+02 5.00000E+01 0.00000E+00
 -1      1187 1.24650E+02 5.00000E+01 0.00000E+00
 -1      1188 1.27650E+02 5.00000E+01 0.00000E+00
 -1      1189 1.30650E+02 5.00000E+01 0.00000E+00
 -1      1190 1.33650E+02 5.00000E+01 0.00000E+00
 -1      1191 1.36650E+02 5.00000E+01 0.00000E+00
 -1      1192 1.39650E+02 5.00000E+01 0.00000E+00
 -1      1193 1.42650E+02 5.00000E+01 0.00000E+00
 -1      1194 1.45650E+02 5.00000E+01 0.00000E+00
 -1      1195 1.48575E+02 5.00000E+01 0.00000E+00
 -1      1196 1.57500E+00 0.00000E+00 0.00000E+00
 -1      1197 4.65000E+00 0.00000E+00 0.00000E+00
 -1      1198 7.65000E+00 0.00000E+00 0.00000E+00
 -1      1199 1.06500E+01 0.00000E+00 0.00000E+00
 -1      1200 1.36500E+01 0.00000E+00 0.00000E+00
 -1      1201 1.66500E+01 0.00000E+00 0.00000E+00
 -1      1202 1.96500E+01 0.00000E+00 0.00000E+00
 -1      1203 2.26500E+01 0.00000E+00 0.00000E+00
 -1      1204 2.56500E+01 0.00000E+00 0.00000E+00
 -1      1205 2.86500E+01 0.00000E+00 0.00000E+00
 -1      1206 3.16500E+01 0.00000E+00 0.00000E+00
 -1      1207 3.46500E+01 0.00000E+00 0.00000E+00
 -1      1208 3.76500E+01 0.00000E+00 0.00000E+00
 -1      1209 4.06500E+01 0.00000E+00 0.00000E+00
 -1      1210 4.36500E+01 0.00000E+00 0.00000E+00
 -1      1211 4.66500E+01 0.00000E+00 0.00000E+00
 -1      1212 4.96500E+01 0.00000E+00 0.00000E+00
 -1      1213 5.26500E+01 0.00000E+00 0.00000E+00
 -1      1214 5.56500E+01 0.00000E+00 0.00000E+00
 -1      1215 5.86500E+01 0.00000E+00 0.00000E+00
 -1      1216 6.16500E+01 0.00000E+00 0.00000E+00
 -1      1217 6.46500E+01 0.00000E+00 0.00000E+00
 -1      1218 6.76500E+01 0.00000E+00 0.00000E+00
 -1      1219 7.06500E+01 0.00000E+00 0.00000E+00
 -1      1220 7.36500E+01 0.00000E+00 0.00000E+00
 -1      1221 7.66500E+01 0.00000E+00 0.00000E+00
 -1      1222 7.96500E+01 0.00000E+00 0.00000E+00
 -1      1223 8.26500E+01 0.00000E+00 0.00000E+00
 -1      1224 8.56500E+01 0.00000E+00 0.00000E+00
 -1      1225 8.86500E+01 0.00000E+00 0.00000E+00
 -1      1226 9.16500E+01 0.00000E+00 0.00000E+00
 -1      1227 9.46500E+01 0.00000E+00 0.00000E+00
 -1      1228 9.76500E+01 0.00000E+00 0.00000E+00
 -1      1229 1.00650E+02 0.00000E+00 0.00000E+00
 -1      1230 1.03650E+02 0.00000E+00 0.00000E+00
 -1      1231 1.06650E+02 0.00000E+00 0.00000E+00
 -1      1232 1.09650E+02 0.00000E+00 0.00000E+00
 -1      1233 1.12650E+02 0.00000E+00 0.00000E+00
 -1      1234 1.15650E+02 0.00000E+00 0.00000E+00
 -1      1235 1.18650E+02 0.00000E+00 0.00000E+00
 -1      1236 1.21650E+02 0.00000E+00 0.00000E+00
 -1      1237 1.24650E+02 0.00000E+00 0.00000E+00
 -1      1238 1.27650E+02 0.00000E+00 0.00000E+00
 -1      1239 1.30650E+02 0.00000E+00 0.00000E+00
 -1      1240 1.33650E+02 0.00000E+00 0.00000E+00
 -1      1241 1.36650E+02 0.00000E+00 0.00000E+00
 -1      1242 1.39650E+02 0.00000E+00 0.00000E+00
 -1      1243 1.42650E+02 0.00000E+00 0.00000E+00
 -1      1244 1.45650E+02 0.00000E+00 0.00000E+00
 -1      1245 1.48575E+02 0.00000E+00 0.00000E+00
 -1      1246 1.50000E+02 1.47500E+00 0.00000E+00
 -1      1247 1.50000E+02 4.42500E+00 0.00000E+00
 -1      1248 1.50000E+02 7.37500E+00 0.00000E+00
 -1      1249 1.50000E+02 1.03250E+01 0.00000E+00
 -1      1250 1.50000E+02 1.32750E+01 0.00000E+00
 -1      1251 1.50000E+02 1.62000E+01 0.00000E+00
 -1      1252 1.50000E+02 1.91250E+01 0.00000E+00
 -1      1253 1.50000E+02 2.20750E+01 0.00000E+00
 -1      1254 1.50000E+02 2.50250E+01 0.00000E+00
 -1      1255 1.50000E+02 2.79750E+01 0.00000E+00
 -1      1256 1.50000E+02 3.09250E+01 0.00000E+00
 -1      1257 1.50000E+02 3.38500E+01 0.00000E+00
 -1      1258 1.50000E+02 3.67750E+01 0.00000E+00
 -1      1259 1.50000E+02 3.97250E+01 0.00000E+00
 -1      1260 1.50000E+02 4.26750E+01 0.00000E+00
 -1      1261 1.50000E+02 4.56250E+01 0.00000E+00
 -1      1262 1.50000E+02 4.85500E+01 0.00000E+00
 -1      1263 6.54634E+01 2.07079E+01 0.00000E+00
 -1      1264 6.51468E+01 1.92508E+01 0.00000E+00
 -1      1265 6.45360E+01 1.79062E+01 0.00000E+00
 -1      1266 6.36387E+01 1.67001E+01 0.00000E+00
 -1      1267 6.24650E+01 1.56861E+01 0.00000E+00
 -1      1268 6.11321E+01 1.49696E+01 0.00000E+00
 -1      1269 5.96748E+01 1.45560E+01 0.00000E+00
 -1      1270 5.81488E+01 1.44663E+01 0.00000E+00
 -1      1271 5.66545E+01 1.47060E+01 0.00000E+00
 -1      1272 5.51858E+01 1.52935E+01 0.00000E+00
 -1      1273 5.38685E+01 1.62117E+01 0.00000E+00
 -1      1274 5.28145E+01 1.73789E+01 0.00000E+00
 -1      1275 5.20637E+01 1.87137E+01 0.00000E+00
 -1      1276 5.16259E+01 2.01545E+01 0.00000E+00
 -1      1277 5.15066E+01 2.16630E+01 0.00000E+00
 -1      1278 5.17216E+01 2.31906E+01 0.00000E+00
 -1      1279 5.22558E+01 2.46139E+01 0.00000E+00
 -1      1280 5.30389E+01 2.58319E+01 0.00000E+00
 -1      1281 5.40093E+01 2.68239E+01 0.00000E+00
 -1      1282 5.51288E+01 2.75900E+01 0.00000E+00
 -1      1283 5.63826E+01 2.81282E+01 0.00000E+00
 -1      1284 5.77667E+01 2.84184E+01 0.00000E+00
 -1      1285 5.92070E+01 2.84219E+01 0.00000E+00
 -1      1286 6.05757E+01 2.81436E+01 0.00000E+00
 -1      1287 6.18358E+01 2.76133E+01 0.00000E+00
 -1      1288 6.29690E+01 2.68481E+01 0.00000E+00
 -1      1289 6.39277E+01 2.58822E+01 0.00000E+00
 -1      1290 6.46771E+01 2.47570E+01 0.00000E+00
 -1      1291 6.51981E+01 2.35027E+01 0.00000E+00
 -1      1292 6.54690E+01 2.21530E+01 0.00000E+00
 -1      1293 1.57500E+00 4.85250E+01 0.00000E+00
 -1      1294 1.29900E+00 4.48375E+01 0.00000E+00
 -1      1295 1.29900E+00 4.63125E+01 0.00000E+00
 -1      1296 1.29900E+00 4.18875E+01 0.00000E+00
 -1      1297 1.29900E+00 4.33625E+01 0.00000E+00
 -1      1298 2.59800E+00 4.41000E+01 0.00000E+00
 -1      1299 1.29900E+00 3.89375E+01 0.00000E+00
 -1      1300 1.29900E+00 4.04125E+01 0.00000E+00
 -1      1301 2.59800E+00 4.11500E+01 0.00000E+00
 -1      1302 1.29900E+00 3.59875E+01 0.00000E+00
 -1      1303 1.29900E+00 3.74625E+01 0.00000E+00
 -1      1304 2.59800E+00 3.82000E+01 0.00000E+00
 -1      1305 1.29900E+00 3.30875E+01 0.00000E+00
 -1      1306 1.29900E+00 3.45375E+01 0.00000E+00
 -1      1307 2.59800E+00 3.52750E+01 0.00000E+00
 -1      1308 1.29900E+00 3.01375E+01 0.00000E+00
 -1      1309 1.29900E+00 3.16125E+01 0.00000E+00
 -1      1310 2.59800E+00 3.23500E+01 0.00000E+00
 -1      1311 1.29900E+00 2.71875E+01 0.00000E+00
 -1      1312 1.29900E+00 2.86625E+01 0.00000E+00
 -1      1313 2.59800E+00 2.94000E+01 0.00000E+00
 -1      1314 1.29900E+00 2.42375E+01 0.00000E+00
 -1      1315 1.29900E+00 2.57125E+01 0.00000E+00
 -1      1316 2.59800E+00 2.64500E+01 0.00000E+00
 -1      1317 1.29900E+00 2.12875E+01 0.00000E+00
 -1      1318 1.29900E+00 2.27625E+01 0.00000E+00
 -1      1319 2.59800E+00 2.35000E+01 0.00000E+00
 -1      1320 1.29900E+00 1.83375E+01 0.00000E+00
 -1      1321 1.29900E+00 1.98125E+01 0.00000E+00
 -1      1322 2.59800E+00 2.05500E+01 0.00000E+00
 -1      1323 1.29900E+00 1.54375E+01 0.00000E+00
 -1      1324 1.29900E+00 1.68875E+01 0.00000E+00
 -1      1325 2.59800E+00 1.76250E+01 0.00000E+00
 -1      1326 1.29900E+00 1.24875E+01 0.00000E+00
 -1      1327 1.29900E+00 1.39625E+01 0.00000E+00
 -1      1328 2.59800E+00 1.47000E+01 0.00000E+00
 -1      1329 1.29900E+00 9.53750E+00 0.00000E+00
 -1      1330 1.29900E+00 1.10125E+01 0.00000E+00
 -1      1331 2.59800E+00 1.17500E+01 0.00000E+00
 -1      1332 1.29900E+00 6.58750E+00 0.00000E+00
 -1      1333 1.29900E+00 8.06250E+00 0.00000E+00
 -1      1334 2.59800E+00 8.80000E+00 0.00000E+00
 -1      1335 1.29900E+00 3.63750E+00 0.00000E+00
 -1      1336 1.29900E+00 5.11250E+00 0.00000E+00
 -1      1337 2.59800E+00 5.85000E+00 0.00000E+00
 -1      1338 1.43700E+00 1.09375E+00 0.00000E+00
 -1      1339 1.43700E+00 2.54375E+00 0.00000E+00
 -1      1340 2.73600E+00 3.28125E+00 0.00000E+00
 -1      1341 3.01200E+00 1.09375E+00 0.00000E+00
 -1      1342 3.90000E+00 4.87010E+01 0.00000E+00
 -1      1343 5.40000E+00 4.87010E+01 0.00000E+00
 -1      1344 6.90000E+00 4.87010E+01 0.00000E+00
 -1      1345 8.40000E+00 4.87010E+01 0.00000E+00
 -1      1346 6.15000E+00 4.74020E+01 0.00000E+00
 -1      1347 9.90000E+00 4.87010E+01 0.00000E+00
 -1      1348 1.14000E+01 4.87010E+01 0.00000E+00
 -1      1349 9.15000E+00 4.74020E+01 0.00000E+00
 -1      1350 1.29000E+01 4.87010E+01 0.00000E+00
 -1      1351 1.44000E+01 4.87010E+01 0.00000E+00
 -1      1352 1.21500E+01 4.74020E+01 0.00000E+00
 -1      1353 1.59000E+01 4.87010E+01 0.00000E+00
 -1      1354 1.74000E+01 4.87010E+01 0.00000E+00
 -1      1355 1.51500E+01 4.74020E+01 0.00000E+00
 -1      1356 1.89000E+01 4.87010E+01 0.00000E+00
 -1      1357 2.04000E+01 4.87010E+01 0.00000E+00
 -1      1358 1.81500E+01 4.74020E+01 0.00000E+00
 -1      1359 2.19000E+01 4.87010E+01 0.00000E+00
 -1      1360 2.34000E+01 4.87010E+01 0.00000E+00
 -1      1361 2.11500E+01 4.74020E+01 0.00000E+00
 -1      1362 2.49000E+01 4.87010E+01 0.00000E+00
 -1      1363 2.64000E+01 4.87010E+01 0.00000E+00
 -1      1364 2.41500E+01 4.74020E+01 0.00000E+00
 -1      1365 2.79000E+01 4.87010E+01 0.00000E+00
 -1      1366 2.94000E+01 4.87010E+01 0.00000E+00
 -1      1367 2.71500E+01 4.74020E+01 0.00000E+00
 -1      1368 3.09000E+01 4.87010E+01 0.00000E+00
 -1      1369 3.24000E+01 4.87010E+01 0.00000E+00
 -1      1370 3.01500E+01 4.74020E+01 0.00000E+00
 -1      1371 3.39000E+01 4.87010E+01 0.00000E+00
 -1      1372 3.54000E+01 4.87010E+01 0.00000E+00
 -1      1373 3.31500E+01 4.74020E+01 0.00000E+00
 -1      1374 3.69000E+01 4.87010E+01 0.00000E+00
 -1      1375 3.84000E+01 4.87010E+01 0.00000E+00
 -1      1376 3.61500E+01 4.74020E+01 0.00000E+00
 -1      1377 3.99000E+01 4.87010E+01 0.00000E+00
 -1      1378 4.14000E+01 4.87010E+01 0.00000E+00
 -1      1379 3.91500E+01 4.74020E+01 0.00000E+00
 -1      1380 4.29000E+01 4.87010E+01 0.00000E+00
 -1      1381 4.44000E+01 4.87010E+01 0.00000E+00
 -1      1382 4.21500E+01 4.74020E+01 0.00000E+00
 -1      1383 4.59000E+01 4.87010E+01 0.00000E+00
 -1      1384 4.74000E+01 4.87010E+01 0.00000E+00
 -1      1385 4.51500E+01 4.74020E+01 0.00000E+00
 -1      1386 4.89000E+01 4.87010E+01 0.00000E+00
 -1      1387 5.04000E+01 4.87010E+01 0.00000E+00
 -1      1388 4.81500E+01 4.74020E+01 0.00000E+00
 -1      1389 5.19000E+01 4.87010E+01 0.00000E+00
 -1      1390 5.34000E+01 4.87010E+01 0.00000E+00
 -1      1391 5.11500E+01 4.74020E+01 0.00000E+00
 -1      1392 5.49000E+01 4.87010E+01 0.00000E+00
 -1      1393 5.64000E+01 4.87010E+01 0.00000E+00
 -1      1394 5.41500E+01 4.74020E+01 0.00000E+00
 -1      1395 5.79000E+01 4.87010E+01 0.00000E+00
 -1      1396 5.94000E+01 4.87010E+01 0.00000E+00
 -1      1397 5.71500E+01 4.74020E+01 0.00000E+00
 -1      1398 6.09000E+01 4.87010E+01 0.00000E+00
 -1      1399 6.24000E+01 4.87010E+01 0.00000E+00
 -1      1400 6.01500E+01 4.74020E+01 0.00000E+00
 -1      1401 6.39000E+01 4.87010E+01 0.00000E+00
 -1      1402 6.54000E+01 4.87010E+01 0.00000E+00
 -1      1403 6.31500E+01 4.74020E+01 0.00000E+00
 -1      1404 6.69000E+01 4.87010E+01 0.00000E+00
 -1      1405 6.84000E+01 4.87010E+01 0.00000E+00
 -1      1406 6.61500E+01 4.74020E+01 0.00000E+00
 -1      1407 6.99000E+01 4.87010E+01 0.00000E+00
 -1      1408 7.14000E+01 4.87010E+01 0.00000E+00
 -1      1409 6.91500E+01 4.74020E+01 0.00000E+00
 -1      1410 7.29000E+01 4.87010E+01 0.00000E+00
 -1      1411 7.44000E+01 4.87010E+01 0.00000E+00
 -1      1412 7.21500E+01 4.74020E+01 0.00000E+00
 -1      1413 7.59000E+01 4.87010E+01 0.00000E+00
 -1      1414 7.74000E+01 4.87010E+01 0.00000E+00
 -1      1415 7.51500E+01 4.74020E+01 0.00000E+00
 -1      1416 7.89000E+01 4.87010E+01 0.00000E+00
 -1      1417 8.04000E+01 4.87010E+01 0.00000E+00
 -1      1418 7.81500E+01 4.74020E+01 0.00000E+00
 -1      1419 8.19000E+01 4.87010E+01 0.00000E+00
 -1      1420 8.34000E+01 4.87010E+01 0.00000E+00
 -1      1421 8.11500E+01 4.74020E+01 0.00000E+00
 -1      1422 8.49000E+01 4.87010E+01 0.00000E+00
 -1      1423 8.64000E+01 4.87010E+01 0.00000E+00
 -1      1424 8.41500E+01 4.74020E+01 0.00000E+00
 -1      1425 8.79000E+01 4.87010E+01 0.00000E+00
 -1      1426 8.94000E+01 4.87010E+01 0.00000E+00
 -1      1427 8.71500E+01 4.74020E+01 0.00000E+00
 -1      1428 9.09000E+01 4.87010E+01 0.00000E+00
 -1      1429 9.24000E+01 4.87010E+01 0.00000E+00
 -1      1430 9.01500E+01 4.74020E+01 0.00000E+00
 -1      1431 9.39000E+01 4.87010E+01 0.00000E+00
 -1      1432 9.54000E+01 4.87010E+01 0.00000E+00
 -1      1433 9.31500E+01 4.74020E+01 0.00000E+00
 -1      1434 9.69000E+01 4.87010E+01 0.00000E+00
 -1      1435 9.84000E+01 4.87010E+01 0.00000E+00
 -1      1436 9.61500E+01 4.74020E+01 0.00000E+00
 -1      1437 9.99000E+01 4.87010E+01 0.00000E+00
 -1      1438 1.01400E+02 4.87010E+01 0.00000E+00
 -1      1439 9.91500E+01 4.74020E+01 0.00000E+00
 -1      1440 1.02900E+02 4.87010E+01 0.00000E+00
 -1      1441 1.04400E+02 4.87010E+01 0.00000E+00
 -1      1442 1.02150E+02 4.74020E+01 0.00000E+00
 -1      1443 1.05900E+02 4.87010E+01 0.00000E+00
 -1      1444 1.07400E+02 4.87010E+01 0.00000E+00
 -1      1445 1.05150E+02 4.74020E+01 0.00000E+00
 -1      1446 1.08900E+02 4.87010E+01 0.00000E+00
 -1      1447 1.10400E+02 4.87010E+01 0.00000E+00
 -1      1448 1.08150E+02 4.74020E+01 0.00000E+00
 -1      1449 1.11900E+02 4.87010E+01 0.00000E+00
 -1      1450 1.13400E+02 4.87010E+01 0.00000E+00
 -1      1451 1.11150E+02 4.74020E+01 0.00000E+00
 -1      1452 1.14900E+02 4.87010E+01 0.00000E+00
 -1      1453 1.16400E+02 4.87010E+01 0.00000E+00
 -1      1454 1.14150E+02 4.74020E+01 0.00000E+00
 -1      1455 1.17900E+02 4.87010E+01 0.00000E+00
 -1      1456 1.19400E+02 4.87010E+01 0.00000E+00
 -1      1457 1.17150E+02 4.74020E+01 0.00000E+00
 -1      1458 1.20900E+02 4.87010E+01 0.00000E+00
 -1      1459 1.22400E+02 4.87010E+01 0.00000E+00
 -1      1460 1.20150E+02 4.74020E+01 0.00000E+00
 -1      1461 1.23900E+02 4.87010E+01 0.00000E+00
 -1      1462 1.25400E+02 4.87010E+01 0.00000E+00
 -1      1463 1.23150E+02 4.74020E+01 0.00000E+00
 -1      1464 1.26900E+02 4.87010E+01 0.00000E+00
 -1      1465 1.28400E+02 4.87010E+01 0.00000E+00
 -1      1466 1.26150E+02 4.74020E+01 0.00000E+00
 -1      1467 1.29900E+02 4.87010E+01 0.00000E+00
 -1      1468 1.31400E+02 4.87010E+01 0.00000E+00
 -1      1469 1.29150E+02 4.74020E+01 0.00000E+00
 -1      1470 1.32900E+02 4.87010E+01 0.00000E+00
 -1      1471 1.34400E+02 4.87010E+01 0.00000E+00
 -1      1472 1.32150E+02 4.74020E+01 0.00000E+00
 -1      1473 1.35900E+02 4.87010E+01 0.00000E+00
 -1      1474 1.37400E+02 4.87010E+01 0.00000E+00
 -1      1475 1.35150E+02 4.74020E+01 0.00000E+00
 -1      1476 1.38900E+02 4.87010E+01 0.00000E+00
 -1      1477 1.40400E+02 4.87010E+01 0.00000E+00
 -1      1478 1.38150E+02 4.74020E+01 0.00000E+00
 -1      1479 1.41900E+02 4.87010E+01 0.00000E+00
 -1      1480 1.43400E+02 4.87010E+01 0.00000E+00
 -1      1481 1.41150E+02 4.74020E+01 0.00000E+00
 -1      1482 1.44900E+02 4.87010E+01 0.00000E+00
 -1      1483 1.46400E+02 4.87010E+01 0.00000E+00
 -1      1484 1.44150E+02 4.74020E+01 0.00000E+00
 -1      1485 1.48575E+02 4.85500E+01 0.00000E+00
 -1      1486 1.47825E+02 4.72510E+01 0.00000E+00
 -1      1487 6.01200E+00 1.09375E+00 0.00000E+00
 -1      1488 4.51200E+00 1.09375E+00 0.00000E+00
 -1      1489 4.37400E+00 2.18750E+00 0.00000E+00
 -1      1490 9.01200E+00 1.09375E+00 0.00000E+00
 -1      1491 7.51200E+00 1.09375E+00 0.00000E+00
 -1      1492 7.37400E+00 2.18750E+00 0.00000E+00
 -1      1493 1.20120E+01 1.09375E+00 0.00000E+00
 -1      1494 1.05120E+01 1.09375E+00 0.00000E+00
 -1      1495 1.03740E+01 2.18750E+00 0.00000E+00
 -1      1496 1.50120E+01 1.09375E+00 0.00000E+00
 -1      1497 1.35120E+01 1.09375E+00 0.00000E+00
 -1      1498 1.33740E+01 2.18750E+00 0.00000E+00
 -1      1499 1.80120E+01 1.09375E+00 0.00000E+00
 -1      1500 1.65120E+01 1.09375E+00 0.00000E+00
 -1      1501 1.63740E+01 2.18750E+00 0.00000E+00
 -1      1502 2.10120E+01 1.09375E+00 0.00000E+00
 -1      1503 1.95120E+01 1.09375E+00 0.00000E+00
 -1      1504 1.93740E+01 2.18750E+00 0.00000E+00
 -1      1505 2.40120E+01 1.09375E+00 0.00000E+00
 -1      1506 2.25120E+01 1.09375E+00 0.00000E+00
 -1      1507 2.23740E+01 2.18750E+00 0.00000E+00
 -1      1508 2.70120E+01 1.09375E+00 0.00000E+00
 -1      1509 2.55120E+01 1.09375E+00 0.00000E+00
 -1      1510 2.53740E+01 2.18750E+00 0.00000E+00
 -1      1511 3.00120E+01 1.09375E+00 0.00000E+00
 -1      1512 2.85120E+01 1.09375E+00 0.00000E+00
 -1      1513 2.83740E+01 2.18750E+00 0.00000E+00
 -1      1514 3.30120E+01 1.09375E+00 0.00000E+00
 -1      1515 3.15120E+01 1.09375E+00 0.00000E+00
 -1      1516 3.13740E+01 2.18750E+00 0.00000E+00
 -1      1517 3.60120E+01 1.09375E+00 0.00000E+00
 -1      1518 3.45120E+01 1.09375E+00 0.00000E+00
 -1      1519 3.43740E+01 2.18750E+00 0.00000E+00
 -1      1520 3.90120E+01 1.09375E+00 0.00000E+00
 -1      1521 3.75120E+01 1.09375E+00 0.00000E+00
 -1      1522 3.73740E+01 2.18750E+00 0.00000E+00
 -1      1523 4.20120E+01 1.09375E+00 0.00000E+00
 -1      1524 4.05120E+01 1.09375E+00 0.00000E+00
 -1      1525 4.03740E+01 2.18750E+00 0.00000E+00
 -1      1526 4.50120E+01 1.09375E+00 0.00000E+00
 -1      1527 4.35120E+01 1.09375E+00 0.00000E+00
 -1      1528 4.33740E+01 2.18750E+00 0.00000E+00
 -1      1529 4.80120E+01 1.09375E+00 0.00000E+00
 -1      1530 4.65120E+01 1.09375E+00 0.00000E+00
 -1      1531 4.63740E+01 2.18750E+00 0.00000E+00
 -1      1532 5.10120E+01 1.09375E+00 0.00000E+00
 -1      1533 4.95120E+01 1.09375E+00 0.00000E+00
 -1      1534 4.93740E+01 2.18750E+00 0.00000E+00
 -1      1535 5.40120E+01 1.09375E+00 0.00000E+00
 -1      1536 5.25120E+01 1.09375E+00 0.00000E+00
 -1      1537 5.23740E+01 2.18750E+00 0.00000E+00
 -1      1538 5.70120E+01 1.09375E+00 0.00000E+00
 -1      1539 5.55120E+01 1.09375E+00 0.00000E+00
 -1      1540 5.53740E+01 2.18750E+00 0.00000E+00
 -1      1541 6.00120E+01 1.09375E+00 0.00000E+00
 -1      1542 5.85120E+01 1.09375E+00 0.00000E+00
 -1      1543 5.83740E+01 2.18750E+00 0.00000E+00
 -1      1544 6.30120E+01 1.09375E+00 0.00000E+00
 -1      1545 6.15120E+01 1.09375E+00 0.00000E+00
 -1      1546 6.13740E+01 2.18750E+00 0.00000E+00
 -1      1547 6.60120E+01 1.09375E+00 0.00000E+00
 -1      1548 6.45120E+01 1.09375E+00 0.00000E+00
 -1      1549 6.43740E+01 2.18750E+00 0.00000E+00
 -1      1550 6.90120E+01 1.09375E+00 0.00000E+00
 -1      1551 6.75120E+01 1.09375E+00 0.00000E+00
 -1      1552 6.73740E+01 2.18750E+00 0.00000E+00
 -1      1553 7.20120E+01 1.09375E+00 0.00000E+00
 -1      1554 7.05120E+01 1.09375E+00 0.00000E+00
 -1      1555 7.03740E+01 2.18750E+00 0.00000E+00
 -1      1556 7.50120E+01 1.09375E+00 0.00000E+00
 -1      1557 7.35120E+01 1.09375E+00 0.00000E+00
 -1      1558 7.33740E+01 2.18750E+00 0.00000E+00
 -1      1559 7.80120E+01 1.09375E+00 0.00000E+00
 -1      1560 7.65120E+01 1.09375E+00 0.00000E+00
 -1      1561 7.63740E+01 2.18750E+00 0.00000E+00
 -1      1562 8.10120E+01 1.09375E+00 0.00000E+00
 -1      1563 7.95120E+01 1.09375E+00 0.00000E+00
 -1      1564 7.93740E+01 2.18750E+00 0.00000E+00
 -1      1565 8.40120E+01 1.09375E+00 0.00000E+00
 -1      1566 8.25120E+01 1.09375E+00 0.00000E+00
 -1      1567 8.23740E+01 2.18750E+00 0.00000E+00
 -1      1568 8.70120E+01 1.09375E+00 0.00000E+00
 -1      1569 8.55120E+01 1.09375E+00 0.00000E+00
 -1      1570 8.53740E+01 2.18750E+00 0.00000E+00
 -1      1571 9.00120E+01 1.09375E+00 0.00000E+00
 -1      1572 8.85120E+01 1.09375E+00 0.00000E+00
 -1      1573 8.83740E+01 2.18750E+00 0.00000E+00
 -1      1574 9.30120E+01 1.09375E+00 0.00000E+00
 -1      1575 9.15120E+01 1.09375E+00 0.00000E+00
 -1      1576 9.13740E+01 2.18750E+00 0.00000E+00
 -1      1577 9.60120E+01 1.09375E+00 0.00000E+00
 -1      1578 9.45120E+01 1.09375E+00 0.00000E+00
 -1      1579 9.43740E+01 2.18750E+00 0.00000E+00
 -1      1580 9.90120E+01 1.09375E+00 0.00000E+00
 -1      1581 9.75120E+01 1.09375E+00 0.00000E+00
 -1      1582 9.73740E+01 2.18750E+00 0.00000E+00
 -1      1583 1.02012E+02 1.09375E+00 0.00000E+00
 -1      1584 1.00512E+02 1.09375E+00 0.00000E+00
 -1      1585 1.00374E+02 2.18750E+00 0.00000E+00
 -1      1586 1.05012E+02 1.09375E+00 0.00000E+00
 -1      1587 1.03512E+02 1.09375E+00 0.00000E+00
 -1      1588 1.03374E+02 2.18750E+00 0.00000E+00
 -1      1589 1.08012E+02 1.09375E+00 0.00000E+00
 -1      1590 1.06512E+02 1.09375E+00 0.00000E+00
 -1      1591 1.06374E+02 2.18750E+00 0.00000E+00
 -1      1592 1.11012E+02 1.09375E+00 0.00000E+00
 -1      1593 1.09512E+02 1.09375E+00 0.00000E+00
 -1      1594 1.09374E+02 2.18750E+00 0.00000E+00
 -1      1595 1.14012E+02 1.09375E+00 0.00000E+00
 -1      1596 1.12512E+02 1.09375E+00 0.00000E+00
 -1      1597 1.12374E+02 2.18750E+00 0.00000E+00
 -1      1598 1.17012E+02 1.09375E+00 0.00000E+00
 -1      1599 1.15512E+02 1.09375E+00 0.00000E+00
 -1      1600 1.15374E+02 2.18750E+00 0.00000E+00
 -1      1601 1.20012E+02 1.09375E+00 0.00000E+00
 -1      1602 1.18512E+02 1.09375E+00 0.00000E+00
 -1      1603 1.18374E+02 2.18750E+00 0.00000E+00
 -1      1604 1.23012E+02 1.09375E+00 0.00000E+00
 -1      1605 1.21512E+02 1.09375E+00 0.00000E+00
 -1      1606 1.21374E+02 2.18750E+00 0.00000E+00
 -1      1607 1.26012E+02 1.09375E+00 0.00000E+00
 -1      1608 1.24512E+02 1.09375E+00 0.00000E+00
 -1      1609 1.24374E+02 2.18750E+00 0.00000E+00
 -1      1610 1.29012E+02 1.09375E+00 0.00000E+00
 -1      1611 1.27512E+02 1.09375E+00 0.00000E+00
 -1      1612 1.27374E+02 2.18750E+00 0.00000E+00
 -1      1613 1.32012E+02 1.09375E+00 0.00000E+00
 -1      1614 1.30512E+02 1.09375E+00 0.00000E+00
 -1      1615 1.30374E+02 2.18750E+00 0.00000E+00
 -1      1616 1.35012E+02 1.09375E+00 0.00000E+00
 -1      1617 1.33512E+02 1.09375E+00 0.00000E+00
 -1      1618 1.33374E+02 2.18750E+00 0.00000E+00
 -1      1619 1.38012E+02 1.09375E+00 0.00000E+00
 -1      1620 1.36512E+02 1.09375E+00 0.00000E+00
 -1      1621 1.36374E+02 2.18750E+00 0.00000E+00
 -1      1622 1.41012E+02 1.09375E+00 0.00000E+00
 -1      1623 1.39512E+02 1.09375E+00 0.00000E+00
 -1      1624 1.39374E+02 2.18750E+00 0.00000E+00
 -1      1625 1.44012E+02 1.09375E+00 0.00000E+00
 -1      1626 1.42512E+02 1.09375E+00 0.00000E+00
 -1      1627 1.42374E+02 2.18750E+00 0.00000E+00
 -1      1628 1.47012E+02 1.09375E+00 0.00000E+00
 -1      1629 1.45512E+02 1.09375E+00 0.00000E+00
 -1      1630 1.45374E+02 2.18750E+00 0.00000E+00
 -1      1631 1.48575E+02 1.47500E+00 0.00000E+00
 -1      1632 1.48701E+02 5.16250E+00 0.00000E+00
 -1      1633 1.48701E+02 3.68750E+00 0.00000E+00
 -1      1634 1.48701E+02 8.11250E+00 0.00000E+00
 -1      1635 1.48701E+02 6.63750E+00 0.00000E+00
 -1      1636 1.47402E+02 5.90000E+00 0.00000E+00
 -1      1637 1.48701E+02 1.10625E+01 0.00000E+00
 -1      1638 1.48701E+02 9.58750E+00 0.00000E+00
 -1      1639 1.47402E+02 8.85000E+00 0.00000E+00
 -1      1640 1.48701E+02 1.40125E+01 0.00000E+00
 -1      1641 1.48701E+02 1.25375E+01 0.00000E+00
 -1      1642 1.47402E+02 1.18000E+01 0.00000E+00
 -1      1643 1.48701E+02 1.69125E+01 0.00000E+00
 -1      1644 1.48701E+02 1.54625E+01 0.00000E+00
 -1      1645 1.47402E+02 1.47250E+01 0.00000E+00
 -1      1646 1.48701E+02 1.98625E+01 0.00000E+00
 -1      1647 1.48701E+02 1.83875E+01 0.00000E+00
 -1      1648 1.47402E+02 1.76500E+01 0.00000E+00
 -1      1649 1.48701E+02 2.28125E+01 0.00000E+00
 -1      1650 1.48701E+02 2.13375E+01 0.00000E+00
 -1      1651 1.47402E+02 2.06000E+01 0.00000E+00
 -1      1652 1.48701E+02 2.57625E+01 0.00000E+00
 -1      1653 1.48701E+02 2.42875E+01 0.00000E+00
 -1      1654 1.47402E+02 2.35500E+01 0.00000E+00
 -1      1655 1.48701E+02 2.87125E+01 0.00000E+00
 -1      1656 1.48701E+02 2.72375E+01 0.00000E+00
 -1      1657 1.47402E+02 2.65000E+01 0.00000E+00
 -1      1658 1.48701E+02 3.16625E+01 0.00000E+00
 -1      1659 1.48701E+02 3.01875E+01 0.00000E+00
 -1      1660 1.47402E+02 2.94500E+01 0.00000E+00
 -1      1661 1.48701E+02 3.45625E+01 0.00000E+00
 -1      1662 1.48701E+02 3.31125E+01 0.00000E+00
 -1      1663 1.47402E+02 3.23750E+01 0.00000E+00
 -1      1664 1.48701E+02 3.75125E+01 0.00000E+00
 -1      1665 1.48701E+02 3.60375E+01 0.00000E+00
 -1      1666 1.47402E+02 3.53000E+01 0.00000E+00
 -1      1667 1.48701E+02 4.04625E+01 0.00000E+00
 -1      1668 1.48701E+02 3.89875E+01 0.00000E+00
 -1      1669 1.47402E+02 3.82500E+01 0.00000E+00
 -1      1670 1.48701E+02 4.34125E+01 0.00000E+00
 -1      1671 1.48701E+02 4.19375E+01 0.00000E+00
 -1      1672 1.47402E+02 4.12000E+01 0.00000E+00
 -1      1673 1.48263E+02 4.60692E+01 0.00000E+00
 -1      1674 1.48263E+02 4.45942E+01 0.00000E+00
 -1      1675 1.46964E+02 4.38568E+01 0.00000E+00
 -1      1676 1.46088E+02 4.62202E+01 0.00000E+00
 -1      1677 6.60276E+01 2.02702E+01 0.00000E+00
 -1      1678 6.61079E+01 2.10153E+01 0.00000E+00
 -1      1679 6.56076E+01 1.87071E+01 0.00000E+00
 -1      1680 6.58413E+01 1.94108E+01 0.00000E+00
 -1      1681 6.48385E+01 1.73015E+01 0.00000E+00
 -1      1682 6.52115E+01 1.79351E+01 0.00000E+00
 -1      1683 6.37915E+01 1.60352E+01 0.00000E+00
 -1      1684 6.43134E+01 1.65985E+01 0.00000E+00
 -1      1685 6.25078E+01 1.49318E+01 0.00000E+00
 -1      1686 6.31535E+01 1.53750E+01 0.00000E+00
 -1      1687 6.10071E+01 1.43060E+01 0.00000E+00
 -1      1688 6.16838E+01 1.45802E+01 0.00000E+00
 -1      1689 5.93961E+01 1.38536E+01 0.00000E+00
 -1      1690 6.01698E+01 1.39849E+01 0.00000E+00
 -1      1691 5.77443E+01 1.38357E+01 0.00000E+00
 -1      1692 5.84873E+01 1.37979E+01 0.00000E+00
 -1      1693 5.61345E+01 1.42638E+01 0.00000E+00
 -1      1694 5.68766E+01 1.40606E+01 0.00000E+00
 -1      1695 5.45633E+01 1.49939E+01 0.00000E+00
 -1      1696 5.52786E+01 1.46089E+01 0.00000E+00
 -1      1697 5.31442E+01 1.59912E+01 0.00000E+00
 -1      1698 5.37388E+01 1.54658E+01 0.00000E+00
 -1      1699 5.20280E+01 1.72945E+01 0.00000E+00
 -1      1700 5.24820E+01 1.66612E+01 0.00000E+00
 -1      1701 5.13573E+01 1.88215E+01 0.00000E+00
 -1      1702 5.16522E+01 1.81295E+01 0.00000E+00
 -1      1703 5.09178E+01 2.04040E+01 0.00000E+00
 -1      1704 5.10581E+01 1.96634E+01 0.00000E+00
 -1      1705 5.09113E+01 2.20604E+01 0.00000E+00
 -1      1706 5.08890E+01 2.13013E+01 0.00000E+00
 -1      1707 5.11927E+01 2.37300E+01 0.00000E+00
 -1      1708 5.09987E+01 2.29712E+01 0.00000E+00
 -1      1709 5.19156E+01 2.51987E+01 0.00000E+00
 -1      1710 5.15832E+01 2.45408E+01 0.00000E+00
 -1      1711 5.28161E+01 2.64656E+01 0.00000E+00
 -1      1712 5.23718E+01 2.59106E+01 0.00000E+00
 -1      1713 5.39005E+01 2.74808E+01 0.00000E+00
 -1      1714 5.33817E+01 2.70463E+01 0.00000E+00
 -1      1715 5.51502E+01 2.82560E+01 0.00000E+00
 -1      1716 5.45547E+01 2.79283E+01 0.00000E+00
 -1      1717 5.65354E+01 2.87777E+01 0.00000E+00
 -1      1718 5.58829E+01 2.85702E+01 0.00000E+00
 -1      1719 5.80652E+01 2.90634E+01 0.00000E+00
 -1      1720 5.73398E+01 2.89866E+01 0.00000E+00
 -1      1721 5.96179E+01 2.89533E+01 0.00000E+00
 -1      1722 5.89106E+01 2.90247E+01 0.00000E+00
 -1      1723 6.10727E+01 2.85889E+01 0.00000E+00
 -1      1724 6.04176E+01 2.87920E+01 0.00000E+00
 -1      1725 6.24081E+01 2.79551E+01 0.00000E+00
 -1      1726 6.18090E+01 2.82794E+01 0.00000E+00
 -1      1727 6.36251E+01 2.71024E+01 0.00000E+00
 -1      1728 6.30967E+01 2.75401E+01 0.00000E+00
 -1      1729 6.45854E+01 2.59833E+01 0.00000E+00
 -1      1730 6.41589E+01 2.65062E+01 0.00000E+00
 -1      1731 6.53424E+01 2.47286E+01 0.00000E+00
 -1      1732 6.50232E+01 2.53258E+01 0.00000E+00
 -1      1733 6.58456E+01 2.33445E+01 0.00000E+00
 -1      1734 6.56466E+01 2.39958E+01 0.00000E+00
 -1      1735 6.61139E+01 2.18678E+01 0.00000E+00
 -1      1736 6.60448E+01 2.25600E+01 0.00000E+00
 -1      1737 6.38591E+01 1.52447E+01 0.00000E+00
 -1      1738 6.50223E+01 1.66078E+01 0.00000E+00
 -1      1739 1.48437E+02 2.56875E+00 0.00000E+00
 -1      1740 1.47138E+02 3.30625E+00 0.00000E+00
 -1      1741 6.65258E+01 1.97140E+01 0.00000E+00
 -1      1742 6.59435E+01 1.80827E+01 0.00000E+00
 -1      1743 6.67182E+01 2.14259E+01 0.00000E+00
 -1      1744 6.23971E+01 1.42329E+01 0.00000E+00
 -1      1745 6.07357E+01 1.35601E+01 0.00000E+00
 -1      1746 5.89896E+01 1.31833E+01 0.00000E+00
 -1      1747 5.72131E+01 1.33526E+01 0.00000E+00
 -1      1748 5.54895E+01 1.39226E+01 0.00000E+00
 -1      1749 5.38091E+01 1.47395E+01 0.00000E+00
 -1      1750 5.23224E+01 1.58814E+01 0.00000E+00
 -1      1751 5.12844E+01 1.73864E+01 0.00000E+00
 -1      1752 5.06093E+01 1.90634E+01 0.00000E+00
 -1      1753 5.02812E+01 2.08026E+01 0.00000E+00
 -1      1754 5.03398E+01 2.26107E+01 0.00000E+00
 -1      1755 5.08178E+01 2.43323E+01 0.00000E+00
 -1      1756 5.16645E+01 2.58550E+01 0.00000E+00
 -1      1757 5.26863E+01 2.71476E+01 0.00000E+00
 -1      1758 5.39060E+01 2.81758E+01 0.00000E+00
 -1      1759 5.52928E+01 2.89374E+01 0.00000E+00
 -1      1760 5.68298E+01 2.94606E+01 0.00000E+00
 -1      1761 5.84797E+01 2.96308E+01 0.00000E+00
 -1      1762 6.01249E+01 2.94308E+01 0.00000E+00
 -1      1763 6.16609E+01 2.89599E+01 0.00000E+00
 -1      1764 6.30857E+01 2.82353E+01 0.00000E+00
 -1      1765 6.43081E+01 2.72241E+01 0.00000E+00
 -1      1766 6.52797E+01 2.59705E+01 0.00000E+00
 -1      1767 6.60216E+01 2.45801E+01 0.00000E+00
 -1      1768 6.65250E+01 2.30628E+01 0.00000E+00
 -1      1769 2.87400E+00 4.77875E+01 0.00000E+00
 -1      1770 3.89700E+00 4.04125E+01 0.00000E+00
 -1      1771 3.89700E+00 4.18875E+01 0.00000E+00
 -1      1772 3.89700E+00 4.33625E+01 0.00000E+00
 -1      1773 3.89700E+00 4.48375E+01 0.00000E+00
 -1      1774 5.19600E+00 4.26250E+01 0.00000E+00
 -1      1775 3.89700E+00 3.45500E+01 0.00000E+00
 -1      1776 3.89700E+00 3.60000E+01 0.00000E+00
 -1      1777 3.89700E+00 3.16000E+01 0.00000E+00
 -1      1778 3.89700E+00 3.30750E+01 0.00000E+00
 -1      1779 5.19600E+00 3.38000E+01 0.00000E+00
 -1      1780 3.89700E+00 2.86500E+01 0.00000E+00
 -1      1781 3.89700E+00 3.01250E+01 0.00000E+00
 -1      1782 5.19600E+00 3.08500E+01 0.00000E+00
 -1      1783 3.89700E+00 2.57000E+01 0.00000E+00
 -1      1784 3.89700E+00 2.71750E+01 0.00000E+00
 -1      1785 5.19600E+00 2.79000E+01 0.00000E+00
 -1      1786 3.89700E+00 2.27500E+01 0.00000E+00
 -1      1787 3.89700E+00 2.42250E+01 0.00000E+00
 -1      1788 5.19600E+00 2.49500E+01 0.00000E+00
 -1      1789 3.89700E+00 1.98000E+01 0.00000E+00
 -1      1790 3.89700E+00 2.12750E+01 0.00000E+00
 -1      1791 5.19600E+00 2.20000E+01 0.00000E+00
 -1      1792 3.89700E+00 1.69000E+01 0.00000E+00
 -1      1793 3.89700E+00 1.83500E+01 0.00000E+00
 -1      1794 5.19600E+00 1.90750E+01 0.00000E+00
 -1      1795 3.89700E+00 1.39500E+01 0.00000E+00
 -1      1796 3.89700E+00 1.54250E+01 0.00000E+00
 -1      1797 5.19600E+00 1.61500E+01 0.00000E+00
 -1      1798 3.89700E+00 1.10000E+01 0.00000E+00
 -1      1799 3.89700E+00 1.24750E+01 0.00000E+00
 -1      1800 5.19600E+00 1.32000E+01 0.00000E+00
 -1      1801 3.89700E+00 8.05000E+00 0.00000E+00
 -1      1802 3.89700E+00 9.52500E+00 0.00000E+00
 -1      1803 5.19600E+00 1.02500E+01 0.00000E+00
 -1      1804 3.89700E+00 5.10000E+00 0.00000E+00
 -1      1805 3.89700E+00 6.57500E+00 0.00000E+00
 -1      1806 5.19600E+00 7.30000E+00 0.00000E+00
 -1      1807 4.20450E+00 3.09687E+00 0.00000E+00
 -1      1808 4.06650E+00 4.19063E+00 0.00000E+00
 -1      1809 5.36550E+00 4.91563E+00 0.00000E+00
 -1      1810 5.70450E+00 3.09687E+00 0.00000E+00
 -1      1811 3.62400E+00 4.64885E+01 0.00000E+00
 -1      1812 8.70450E+00 3.09687E+00 0.00000E+00
 -1      1813 7.20450E+00 3.09687E+00 0.00000E+00
 -1      1814 7.03500E+00 4.00625E+00 0.00000E+00
 -1      1815 4.92300E+00 4.57510E+01 0.00000E+00
 -1      1816 8.40000E+00 4.61030E+01 0.00000E+00
 -1      1817 9.90000E+00 4.61030E+01 0.00000E+00
 -1      1818 1.14000E+01 4.61030E+01 0.00000E+00
 -1      1819 1.29000E+01 4.61030E+01 0.00000E+00
 -1      1820 1.06500E+01 4.48040E+01 0.00000E+00
 -1      1821 1.44000E+01 4.61030E+01 0.00000E+00
 -1      1822 1.59000E+01 4.61030E+01 0.00000E+00
 -1      1823 1.36500E+01 4.48040E+01 0.00000E+00
 -1      1824 1.74000E+01 4.61030E+01 0.00000E+00
 -1      1825 1.89000E+01 4.61030E+01 0.00000E+00
 -1      1826 1.66500E+01 4.48040E+01 0.00000E+00
 -1      1827 2.04000E+01 4.61030E+01 0.00000E+00
 -1      1828 2.19000E+01 4.61030E+01 0.00000E+00
 -1      1829 1.96500E+01 4.48040E+01 0.00000E+00
 -1      1830 2.34000E+01 4.61030E+01 0.00000E+00
 -1      1831 2.49000E+01 4.61030E+01 0.00000E+00
 -1      1832 2.26500E+01 4.48040E+01 0.00000E+00
 -1      1833 2.64000E+01 4.61030E+01 0.00000E+00
 -1      1834 2.79000E+01 4.61030E+01 0.00000E+00
 -1      1835 2.56500E+01 4.48040E+01 0.00000E+00
 -1      1836 2.94000E+01 4.61030E+01 0.00000E+00
 -1      1837 3.09000E+01 4.61030E+01 0.00000E+00
 -1      1838 2.86500E+01 4.48040E+01 0.00000E+00
 -1      1839 3.24000E+01 4.61030E+01 0.00000E+00
 -1      1840 3.39000E+01 4.61030E+01 0.00000E+00
 -1      1841 3.16500E+01 4.48040E+01 0.00000E+00
 -1      1842 3.54000E+01 4.61030E+01 0.00000E+00
 -1      1843 3.69000E+01 4.61030E+01 0.00000E+00
 -1      1844 3.46500E+01 4.48040E+01 0.00000E+00
 -1      1845 3.84000E+01 4.61030E+01 0.00000E+00
 -1      1846 3.99000E+01 4.61030E+01 0.00000E+00
 -1      1847 3.76500E+01 4.48040E+01 0.00000E+00
 -1      1848 4.14000E+01 4.61030E+01 0.00000E+00
 -1      1849 4.29000E+01 4.61030E+01 0.00000E+00
 -1      1850 4.06500E+01 4.48040E+01 0.00000E+00
 -1      1851 4.44000E+01 4.61030E+01 0.00000E+00
 -1      1852 4.59000E+01 4.61030E+01 0.00000E+00
 -1      1853 4.36500E+01 4.48040E+01 0.00000E+00
 -1      1854 4.74000E+01 4.61030E+01 0.00000E+00
 -1      1855 4.89000E+01 4.61030E+01 0.00000E+00
 -1      1856 4.66500E+01 4.48040E+01 0.00000E+00
 -1      1857 5.04000E+01 4.61030E+01 0.00000E+00
 -1      1858 5.19000E+01 4.61030E+01 0.00000E+00
 -1      1859 4.96500E+01 4.48040E+01 0.00000E+00
 -1      1860 5.34000E+01 4.61030E+01 0.00000E+00
 -1      1861 5.49000E+01 4.61030E+01 0.00000E+00
 -1      1862 5.26500E+01 4.48040E+01 0.00000E+00
 -1      1863 5.64000E+01 4.61030E+01 0.00000E+00
 -1      1864 5.79000E+01 4.61030E+01 0.00000E+00
 -1      1865 5.56500E+01 4.48040E+01 0.00000E+00
 -1      1866 5.94000E+01 4.61030E+01 0.00000E+00
 -1      1867 6.09000E+01 4.61030E+01 0.00000E+00
 -1      1868 5.86500E+01 4.48040E+01 0.00000E+00
 -1      1869 6.24000E+01 4.61030E+01 0.00000E+00
 -1      1870 6.39000E+01 4.61030E+01 0.00000E+00
 -1      1871 6.16500E+01 4.48040E+01 0.00000E+00
 -1      1872 6.54000E+01 4.61030E+01 0.00000E+00
 -1      1873 6.69000E+01 4.61030E+01 0.00000E+00
 -1      1874 6.46500E+01 4.48040E+01 0.00000E+00
 -1      1875 6.84000E+01 4.61030E+01 0.00000E+00
 -1      1876 6.99000E+01 4.61030E+01 0.00000E+00
 -1      1877 6.76500E+01 4.48040E+01 0.00000E+00
 -1      1878 7.14000E+01 4.61030E+01 0.00000E+00
 -1      1879 7.29000E+01 4.61030E+01 0.00000E+00
 -1      1880 7.06500E+01 4.48040E+01 0.00000E+00
 -1      1881 7.44000E+01 4.61030E+01 0.00000E+00
 -1      1882 7.59000E+01 4.61030E+01 0.00000E+00
 -1      1883 7.36500E+01 4.48040E+01 0.00000E+00
 -1      1884 7.74000E+01 4.61030E+01 0.00000E+00
 -1      1885 7.89000E+01 4.61030E+01 0.00000E+00
 -1      1886 7.66500E+01 4.48040E+01 0.00000E+00
 -1      1887 8.04000E+01 4.61030E+01 0.00000E+00
 -1      1888 8.19000E+01 4.61030E+01 0.00000E+00
 -1      1889 7.96500E+01 4.48040E+01 0.00000E+00
 -1      1890 8.34000E+01 4.61030E+01 0.00000E+00
 -1      1891 8.49000E+01 4.61030E+01 0.00000E+00
 -1      1892 8.26500E+01 4.48040E+01 0.00000E+00
 -1      1893 8.64000E+01 4.61030E+01 0.00000E+00
 -1      1894 8.79000E+01 4.61030E+01 0.00000E+00
 -1      1895 8.56500E+01 4.48040E+01 0.00000E+00
 -1      1896 8.94000E+01 4.61030E+01 0.00000E+00
 -1      1897 9.09000E+01 4.61030E+01 0.00000E+00
 -1      1898 8.86500E+01 4.48040E+01 0.00000E+00
 -1      1899 9.24000E+01 4.61030E+01 0.00000E+00
 -1      1900 9.39000E+01 4.61030E+01 0.00000E+00
 -1      1901 9.16500E+01 4.48040E+01 0.00000E+00
 -1      1902 9.54000E+01 4.61030E+01 0.00000E+00
 -1      1903 9.69000E+01 4.61030E+01 0.00000E+00
 -1      1904 9.46500E+01 4.48040E+01 0.00000E+00
 -1      1905 9.84000E+01 4.61030E+01 0.00000E+00
 -1      1906 9.99000E+01 4.61030E+01 0.00000E+00
 -1      1907 9.76500E+01 4.48040E+01 0.00000E+00
 -1      1908 1.01400E+02 4.61030E+01 0.00000E+00
 -1      1909 1.02900E+02 4.61030E+01 0.00000E+00
 -1      1910 1.00650E+02 4.48040E+01 0.00000E+00
 -1      1911 1.04400E+02 4.61030E+01 0.00000E+00
 -1      1912 1.05900E+02 4.61030E+01 0.00000E+00
 -1      1913 1.03650E+02 4.48040E+01 0.00000E+00
 -1      1914 1.07400E+02 4.61030E+01 0.00000E+00
 -1      1915 1.08900E+02 4.61030E+01 0.00000E+00
 -1      1916 1.06650E+02 4.48040E+01 0.00000E+00
 -1      1917 1.10400E+02 4.61030E+01 0.00000E+00
 -1      1918 1.11900E+02 4.61030E+01 0.00000E+00
 -1      1919 1.09650E+02 4.48040E+01 0.00000E+00
 -1      1920 1.13400E+02 4.61030E+01 0.00000E+00
 -1      1921 1.14900E+02 4.61030E+01 0.00000E+00
 -1      1922 1.12650E+02 4.48040E+01 0.00000E+00
 -1      1923 1.16400E+02 4.61030E+01 0.00000E+00
 -1      1924 1.17900E+02 4.61030E+01 0.00000E+00
 -1      1925 1.15650E+02 4.48040E+01 0.00000E+00
 -1      1926 1.19400E+02 4.61030E+01 0.00000E+00
 -1      1927 1.20900E+02 4.61030E+01 0.00000E+00
 -1      1928 1.18650E+02 4.48040E+01 0.00000E+00
 -1      1929 1.22400E+02 4.61030E+01 0.00000E+00
 -1      1930 1.23900E+02 4.61030E+01 0.00000E+00
 -1      1931 1.21650E+02 4.48040E+01 0.00000E+00
 -1      1932 1.25400E+02 4.61030E+01 0.00000E+00
 -1      1933 1.26900E+02 4.61030E+01 0.00000E+00
 -1      1934 1.24650E+02 4.48040E+01 0.00000E+00
 -1      1935 1.28400E+02 4.61030E+01 0.00000E+00
 -1      1936 1.29900E+02 4.61030E+01 0.00000E+00
 -1      1937 1.27650E+02 4.48040E+01 0.00000E+00
 -1      1938 1.31400E+02 4.61030E+01 0.00000E+00
 -1      1939 1.32900E+02 4.61030E+01 0.00000E+00
 -1      1940 1.30650E+02 4.48040E+01 0.00000E+00
 -1      1941 1.34400E+02 4.61030E+01 0.00000E+00
 -1      1942 1.35900E+02 4.61030E+01 0.00000E+00
 -1      1943 1.33650E+02 4.48040E+01 0.00000E+00
 -1      1944 1.37400E+02 4.61030E+01 0.00000E+00
 -1      1945 1.38900E+02 4.61030E+01 0.00000E+00
 -1      1946 1.36650E+02 4.48040E+01 0.00000E+00
 -1      1947 1.40400E+02 4.61030E+01 0.00000E+00
 -1      1948 1.41900E+02 4.61030E+01 0.00000E+00
 -1      1949 1.39650E+02 4.48040E+01 0.00000E+00
 -1      1950 1.43244E+02 4.61616E+01 0.00000E+00
 -1      1951 1.44744E+02 4.61616E+01 0.00000E+00
 -1      1952 1.45182E+02 4.49799E+01 0.00000E+00
 -1      1953 1.42494E+02 4.48626E+01 0.00000E+00
 -1      1954 1.17045E+01 3.09687E+00 0.00000E+00
 -1      1955 1.02045E+01 3.09687E+00 0.00000E+00
 -1      1956 1.00350E+01 4.00625E+00 0.00000E+00
 -1      1957 1.47045E+01 3.09687E+00 0.00000E+00
 -1      1958 1.32045E+01 3.09687E+00 0.00000E+00
 -1      1959 1.30350E+01 4.00625E+00 0.00000E+00
 -1      1960 1.77045E+01 3.09687E+00 0.00000E+00
 -1      1961 1.62045E+01 3.09687E+00 0.00000E+00
 -1      1962 1.60350E+01 4.00625E+00 0.00000E+00
 -1      1963 2.07045E+01 3.09687E+00 0.00000E+00
 -1      1964 1.92045E+01 3.09687E+00 0.00000E+00
 -1      1965 1.90350E+01 4.00625E+00 0.00000E+00
 -1      1966 2.37045E+01 3.09687E+00 0.00000E+00
 -1      1967 2.22045E+01 3.09687E+00 0.00000E+00
 -1      1968 2.20350E+01 4.00625E+00 0.00000E+00
 -1      1969 2.67045E+01 3.09687E+00 0.00000E+00
 -1      1970 2.52045E+01 3.09687E+00 0.00000E+00
 -1      1971 2.50350E+01 4.00625E+00 0.00000E+00
 -1      1972 2.97045E+01 3.09687E+00 0.00000E+00
 -1      1973 2.82045E+01 3.09687E+00 0.00000E+00
 -1      1974 2.80350E+01 4.00625E+00 0.00000E+00
 -1      1975 3.27045E+01 3.09687E+00 0.00000E+00
 -1      1976 3.12045E+01 3.09687E+00 0.00000E+00
 -1      1977 3.10350E+01 4.00625E+00 0.00000E+00
 -1      1978 3.57045E+01 3.09687E+00 0.00000E+00
 -1      1979 3.42045E+01 3.09687E+00 0.00000E+00
 -1      1980 3.40350E+01 4.00625E+00 0.00000E+00
 -1      1981 3.87045E+01 3.09687E+00 0.00000E+00
 -1      1982 3.72045E+01 3.09687E+00 0.00000E+00
 -1      1983 3.70350E+01 4.00625E+00 0.00000E+00
 -1      1984 4.17045E+01 3.09687E+00 0.00000E+00
 -1      1985 4.02045E+01 3.09687E+00 0.00000E+00
 -1      1986 4.00350E+01 4.00625E+00 0.00000E+00
 -1      1987 4.47045E+01 3.09687E+00 0.00000E+00
 -1      1988 4.32045E+01 3.09687E+00 0.00000E+00
 -1      1989 4.30350E+01 4.00625E+00 0.00000E+00
 -1      1990 4.77045E+01 3.09687E+00 0.00000E+00
 -1      1991 4.62045E+01 3.09687E+00 0.00000E+00
 -1      1992 4.60350E+01 4.00625E+00 0.00000E+00
 -1      1993 5.07045E+01 3.09687E+00 0.00000E+00
 -1      1994 4.92045E+01 3.09687E+00 0.00000E+00
 -1      1995 4.90350E+01 4.00625E+00 0.00000E+00
 -1      1996 5.37045E+01 3.09687E+00 0.00000E+00
 -1      1997 5.22045E+01 3.09687E+00 0.00000E+00
 -1      1998 5.20350E+01 4.00625E+00 0.00000E+00
 -1      1999 5.67045E+01 3.09687E+00 0.00000E+00
 -1      2000 5.52045E+01 3.09687E+00 0.00000E+00
 -1      2001 5.50350E+01 4.00625E+00 0.00000E+00
 -1      2002 5.97045E+01 3.09687E+00 0.00000E+00
 -1      2003 5.82045E+01 3.09687E+00 0.00000E+00
 -1      2004 5.80350E+01 4.00625E+00 0.00000E+00
 -1      2005 6.27045E+01 3.09687E+00 0.00000E+00
 -1      2006 6.12045E+01 3.09687E+00 0.00000E+00
 -1      2007 6.10350E+01 4.00625E+00 0.00000E+00
 -1      2008 6.57045E+01 3.09687E+00 0.00000E+00
 -1      2009 6.42045E+01 3.09687E+00 0.00000E+00
 -1      2010 6.40350E+01 4.00625E+00 0.00000E+00
 -1      2011 6.87045E+01 3.09687E+00 0.00000E+00
 -1      2012 6.72045E+01 3.09687E+00 0.00000E+00
 -1      2013 6.70350E+01 4.00625E+00 0.00000E+00
 -1      2014 7.17045E+01 3.09687E+00 0.00000E+00
 -1      2015 7.02045E+01 3.09687E+00 0.00000E+00
 -1      2016 7.00350E+01 4.00625E+00 0.00000E+00
 -1      2017 7.47045E+01 3.09687E+00 0.00000E+00
 -1      2018 7.32045E+01 3.09687E+00 0.00000E+00
 -1      2019 7.30350E+01 4.00625E+00 0.00000E+00
 -1      2020 7.77045E+01 3.09687E+00 0.00000E+00
 -1      2021 7.62045E+01 3.09687E+00 0.00000E+00
 -1      2022 7.60350E+01 4.00625E+00 0.00000E+00
 -1      2023 8.07045E+01 3.09687E+00 0.00000E+00
 -1      2024 7.92045E+01 3.09687E+00 0.00000E+00
 -1      2025 7.90350E+01 4.00625E+00 0.00000E+00
 -1      2026 8.37045E+01 3.09687E+00 0.00000E+00
 -1      2027 8.22045E+01 3.09687E+00 0.00000E+00
 -1      2028 8.20350E+01 4.00625E+00 0.00000E+00
 -1      2029 8.67045E+01 3.09687E+00 0.00000E+00
 -1      2030 8.52045E+01 3.09687E+00 0.00000E+00
 -1      2031 8.50350E+01 4.00625E+00 0.00000E+00
 -1      2032 8.97045E+01 3.09687E+00 0.00000E+00
 -1      2033 8.82045E+01 3.09687E+00 0.00000E+00
 -1      2034 8.80350E+01 4.00625E+00 0.00000E+00
 -1      2035 9.27045E+01 3.09687E+00 0.00000E+00
 -1      2036 9.12045E+01 3.09687E+00 0.00000E+00
 -1      2037 9.10350E+01 4.00625E+00 0.00000E+00
 -1      2038 9.57045E+01 3.09687E+00 0.00000E+00
 -1      2039 9.42045E+01 3.09687E+00 0.00000E+00
 -1      2040 9.40350E+01 4.00625E+00 0.00000E+00
 -1      2041 9.87045E+01 3.09687E+00 0.00000E+00
 -1      2042 9.72045E+01 3.09687E+00 0.00000E+00
 -1      2043 9.70350E+01 4.00625E+00 0.00000E+00
 -1      2044 1.01704E+02 3.09687E+00 0.00000E+00
 -1      2045 1.00204E+02 3.09687E+00 0.00000E+00
 -1      2046 1.00035E+02 4.00625E+00 0.00000E+00
 -1      2047 1.04704E+02 3.09687E+00 0.00000E+00
 -1      2048 1.03204E+02 3.09687E+00 0.00000E+00
 -1      2049 1.03035E+02 4.00625E+00 0.00000E+00
 -1      2050 1.07704E+02 3.09687E+00 0.00000E+00
 -1      2051 1.06204E+02 3.09687E+00 0.00000E+00
 -1      2052 1.06035E+02 4.00625E+00 0.00000E+00
 -1      2053 1.10704E+02 3.09687E+00 0.00000E+00
 -1      2054 1.09204E+02 3.09687E+00 0.00000E+00
 -1      2055 1.09035E+02 4.00625E+00 0.00000E+00
 -1      2056 1.13704E+02 3.09687E+00 0.00000E+00
 -1      2057 1.12204E+02 3.09687E+00 0.00000E+00
 -1      2058 1.12035E+02 4.00625E+00 0.00000E+00
 -1      2059 1.16704E+02 3.09687E+00 0.00000E+00
 -1      2060 1.15204E+02 3.09687E+00 0.00000E+00
 -1      2061 1.15035E+02 4.00625E+00 0.00000E+00
 -1      2062 1.19704E+02 3.09687E+00 0.00000E+00
 -1      2063 1.18204E+02 3.09687E+00 0.00000E+00
 -1      2064 1.18035E+02 4.00625E+00 0.00000E+00
 -1      2065 1.22704E+02 3.09687E+00 0.00000E+00
 -1      2066 1.21204E+02 3.09687E+00 0.00000E+00
 -1      2067 1.21035E+02 4.00625E+00 0.00000E+00
 -1      2068 1.25704E+02 3.09687E+00 0.00000E+00
 -1      2069 1.24204E+02 3.09687E+00 0.00000E+00
 -1      2070 1.24035E+02 4.00625E+00 0.00000E+00
 -1      2071 1.28704E+02 3.09687E+00 0.00000E+00
 -1      2072 1.27204E+02 3.09687E+00 0.00000E+00
 -1      2073 1.27035E+02 4.00625E+00 0.00000E+00
 -1      2074 1.31704E+02 3.09687E+00 0.00000E+00
 -1      2075 1.30204E+02 3.09687E+00 0.00000E+00
 -1      2076 1.30035E+02 4.00625E+00 0.00000E+00
 -1      2077 1.34704E+02 3.09687E+00 0.00000E+00
 -1      2078 1.33204E+02 3.09687E+00 0.00000E+00
 -1      2079 1.33035E+02 4.00625E+00 0.00000E+00
 -1      2080 1.37704E+02 3.09687E+00 0.00000E+00
 -1      2081 1.36204E+02 3.09687E+00 0.00000E+00
 -1      2082 1.36035E+02 4.00625E+00 0.00000E+00
 -1      2083 1.40704E+02 3.09687E+00 0.00000E+00
 -1      2084 1.39204E+02 3.09687E+00 0.00000E+00
 -1      2085 1.39035E+02 4.00625E+00 0.00000E+00
 -1      2086 1.43704E+02 3.09687E+00 0.00000E+00
 -1      2087 1.42204E+02 3.09687E+00 0.00000E+00
 -1      2088 1.42035E+02 4.00625E+00 0.00000E+00
 -1      2089 1.46171E+02 3.20156E+00 0.00000E+00
 -1      2090 1.44671E+02 3.20156E+00 0.00000E+00
 -1      2091 1.44502E+02 4.11094E+00 0.00000E+00
 -1      2092 1.46435E+02 4.32031E+00 0.00000E+00
 -1      2093 1.46103E+02 1.25375E+01 0.00000E+00
 -1      2094 1.46103E+02 1.10625E+01 0.00000E+00
 -1      2095 1.46103E+02 9.58750E+00 0.00000E+00
 -1      2096 1.46103E+02 8.11250E+00 0.00000E+00
 -1      2097 1.44804E+02 1.03250E+01 0.00000E+00
 -1      2098 1.46269E+02 6.95391E+00 0.00000E+00
 -1      2099 1.46269E+02 5.47891E+00 0.00000E+00
 -1      2100 1.45302E+02 5.37422E+00 0.00000E+00
 -1      2101 1.44970E+02 7.69141E+00 0.00000E+00
 -1      2102 1.46103E+02 1.54375E+01 0.00000E+00
 -1      2103 1.46103E+02 1.39875E+01 0.00000E+00
 -1      2104 1.44804E+02 1.32500E+01 0.00000E+00
 -1      2105 1.46103E+02 1.83875E+01 0.00000E+00
 -1      2106 1.46103E+02 1.69125E+01 0.00000E+00
 -1      2107 1.44804E+02 1.61750E+01 0.00000E+00
 -1      2108 1.46103E+02 2.13375E+01 0.00000E+00
 -1      2109 1.46103E+02 1.98625E+01 0.00000E+00
 -1      2110 1.44804E+02 1.91250E+01 0.00000E+00
 -1      2111 1.46103E+02 2.42875E+01 0.00000E+00
 -1      2112 1.46103E+02 2.28125E+01 0.00000E+00
 -1      2113 1.44804E+02 2.20750E+01 0.00000E+00
 -1      2114 1.46103E+02 2.72375E+01 0.00000E+00
 -1      2115 1.46103E+02 2.57625E+01 0.00000E+00
 -1      2116 1.44804E+02 2.50250E+01 0.00000E+00
 -1      2117 1.46103E+02 3.01875E+01 0.00000E+00
 -1      2118 1.46103E+02 2.87125E+01 0.00000E+00
 -1      2119 1.44804E+02 2.79750E+01 0.00000E+00
 -1      2120 1.46103E+02 3.30875E+01 0.00000E+00
 -1      2121 1.46103E+02 3.16375E+01 0.00000E+00
 -1      2122 1.44804E+02 3.09000E+01 0.00000E+00
 -1      2123 1.46103E+02 3.60375E+01 0.00000E+00
 -1      2124 1.46103E+02 3.45625E+01 0.00000E+00
 -1      2125 1.44804E+02 3.38250E+01 0.00000E+00
 -1      2126 1.46103E+02 3.89875E+01 0.00000E+00
 -1      2127 1.46103E+02 3.75125E+01 0.00000E+00
 -1      2128 1.44804E+02 3.67750E+01 0.00000E+00
 -1      2129 1.46103E+02 4.19375E+01 0.00000E+00
 -1      2130 1.46103E+02 4.04625E+01 0.00000E+00
 -1      2131 1.44804E+02 3.97250E+01 0.00000E+00
 -1      2132 6.63966E+01 1.73627E+01 0.00000E+00
 -1      2133 6.67926E+01 1.81346E+01 0.00000E+00
 -1      2134 6.75308E+01 2.09938E+01 0.00000E+00
 -1      2135 6.75369E+01 2.18463E+01 0.00000E+00
 -1      2136 6.70660E+01 1.91470E+01 0.00000E+00
 -1      2137 6.72523E+01 2.00064E+01 0.00000E+00
 -1      2138 6.53463E+01 1.59568E+01 0.00000E+00
 -1      2139 6.58715E+01 1.66597E+01 0.00000E+00
 -1      2140 6.67207E+01 1.67116E+01 0.00000E+00
 -1      2141 6.40965E+01 1.43769E+01 0.00000E+00
 -1      2142 6.47345E+01 1.50371E+01 0.00000E+00
 -1      2143 3.89700E+00 3.74688E+01 0.00000E+00
 -1      2144 3.89700E+00 3.89437E+01 0.00000E+00
 -1      2145 5.19600E+00 3.96813E+01 0.00000E+00
 -1      2146 5.19600E+00 3.67438E+01 0.00000E+00
 -1      2147 6.05641E+01 1.27553E+01 0.00000E+00
 -1      2148 6.14015E+01 1.30765E+01 0.00000E+00
 -1      2149 5.85799E+01 1.24250E+01 0.00000E+00
 -1      2150 5.94887E+01 1.24806E+01 0.00000E+00
 -1      2151 5.65746E+01 1.26755E+01 0.00000E+00
 -1      2152 5.74423E+01 1.24506E+01 0.00000E+00
 -1      2153 5.47879E+01 1.34163E+01 0.00000E+00
 -1      2154 5.56438E+01 1.30713E+01 0.00000E+00
 -1      2155 5.30749E+01 1.44130E+01 0.00000E+00
 -1      2156 5.38994E+01 1.39411E+01 0.00000E+00
 -1      2157 5.14410E+01 1.56725E+01 0.00000E+00
 -1      2158 5.21032E+01 1.50025E+01 0.00000E+00
 -1      2159 5.04672E+01 1.75208E+01 0.00000E+00
 -1      2160 5.08431E+01 1.66857E+01 0.00000E+00
 -1      2161 4.97306E+01 1.92252E+01 0.00000E+00
 -1      2162 5.00298E+01 1.83833E+01 0.00000E+00
 -1      2163 4.95771E+01 2.12291E+01 0.00000E+00
 -1      2164 4.96060E+01 2.03318E+01 0.00000E+00
 -1      2165 4.95298E+01 2.31480E+01 0.00000E+00
 -1      2166 4.94424E+01 2.22372E+01 0.00000E+00
 -1      2167 5.04292E+01 2.50190E+01 0.00000E+00
 -1      2168 5.00386E+01 2.42081E+01 0.00000E+00
 -1      2169 5.12764E+01 2.66058E+01 0.00000E+00
 -1      2170 5.08202E+01 2.58939E+01 0.00000E+00
 -1      2171 5.24748E+01 2.79194E+01 0.00000E+00
 -1      2172 5.19092E+01 2.73387E+01 0.00000E+00
 -1      2173 5.38436E+01 2.89690E+01 0.00000E+00
 -1      2174 5.31894E+01 2.85215E+01 0.00000E+00
 -1      2175 5.54037E+01 2.96902E+01 0.00000E+00
 -1      2176 5.46710E+01 2.93760E+01 0.00000E+00
 -1      2177 5.70691E+01 3.01923E+01 0.00000E+00
 -1      2178 5.62647E+01 2.99834E+01 0.00000E+00
 -1      2179 5.89397E+01 3.04263E+01 0.00000E+00
 -1      2180 5.80942E+01 3.04650E+01 0.00000E+00
 -1      2181 6.05391E+01 3.01036E+01 0.00000E+00
 -1      2182 5.97394E+01 3.02650E+01 0.00000E+00
 -1      2183 5.93540E+01 3.10991E+01 0.00000E+00
 -1      2184 6.22802E+01 2.94025E+01 0.00000E+00
 -1      2185 6.15439E+01 2.97121E+01 0.00000E+00
 -1      2186 6.37862E+01 2.86188E+01 0.00000E+00
 -1      2187 6.30976E+01 2.90338E+01 0.00000E+00
 -1      2188 6.50891E+01 2.73863E+01 0.00000E+00
 -1      2189 6.45553E+01 2.79825E+01 0.00000E+00
 -1      2190 6.60380E+01 2.60009E+01 0.00000E+00
 -1      2191 6.56002E+01 2.66584E+01 0.00000E+00
 -1      2192 6.69658E+01 2.45425E+01 0.00000E+00
 -1      2193 6.66616E+01 2.52753E+01 0.00000E+00
 -1      2194 6.73642E+01 2.29735E+01 0.00000E+00
 -1      2195 6.71650E+01 2.37580E+01 0.00000E+00
 -1      2196 6.78049E+01 2.44532E+01 0.00000E+00
 -1      2197 6.22559E+01 1.34225E+01 0.00000E+00
 -1      2198 6.30799E+01 1.37741E+01 0.00000E+00
 -1      2199 6.55837E+01 1.50890E+01 0.00000E+00
 -1      2200 6.42300E+00 4.57510E+01 0.00000E+00
 -1      2201 6.20843E+01 1.26177E+01 0.00000E+00
 -1      2202 7.17300E+00 4.44520E+01 0.00000E+00
 -1      2203 6.75192E+01 1.84270E+01 0.00000E+00
 -1      2204 6.80710E+01 2.04268E+01 0.00000E+00
 -1      2205 1.45665E+02 4.31193E+01 0.00000E+00
 -1      2206 6.81768E+01 2.25415E+01 0.00000E+00
 -1      2207 6.39553E+01 1.35665E+01 0.00000E+00
 -1      2208 6.69821E+01 2.59632E+01 0.00000E+00
 -1      2209 6.58474E+01 2.74167E+01 0.00000E+00
 -1      2210 6.45671E+01 2.87809E+01 0.00000E+00
 -1      2211 6.11585E+01 3.05463E+01 0.00000E+00
 -1      2212 5.75291E+01 3.09878E+01 0.00000E+00
 -1      2213 5.56430E+01 3.04219E+01 0.00000E+00
 -1      2214 5.39544E+01 2.97217E+01 0.00000E+00
 -1      2215 5.24123E+01 2.87126E+01 0.00000E+00
 -1      2216 5.10649E+01 2.73776E+01 0.00000E+00
 -1      2217 5.00410E+01 2.57698E+01 0.00000E+00
 -1      2218 4.91412E+01 2.38347E+01 0.00000E+00
 -1      2219 4.87672E+01 2.17664E+01 0.00000E+00
 -1      2220 4.90265E+01 1.96517E+01 0.00000E+00
 -1      2221 4.95885E+01 1.76826E+01 0.00000E+00
 -1      2222 5.06239E+01 1.58068E+01 0.00000E+00
 -1      2223 5.21935E+01 1.42041E+01 0.00000E+00
 -1      2224 5.40537E+01 1.30898E+01 0.00000E+00
 -1      2225 5.58730E+01 1.21692E+01 0.00000E+00
 -1      2226 6.01544E+01 1.19970E+01 0.00000E+00
 -1      2227 5.79414E+01 1.17479E+01 0.00000E+00
 -1      2228 6.29806E+01 2.97860E+01 0.00000E+00
 -1      2229 1.07850E+01 5.30525E+00 0.00000E+00
 -1      2230 9.28500E+00 5.30525E+00 0.00000E+00
 -1      2231 6.49500E+00 3.01125E+01 0.00000E+00
 -1      2232 6.49500E+00 3.15875E+01 0.00000E+00
 -1      2233 6.49500E+00 3.30625E+01 0.00000E+00
 -1      2234 6.49500E+00 3.45375E+01 0.00000E+00
 -1      2235 7.79400E+00 3.23250E+01 0.00000E+00
 -1      2236 6.49500E+00 2.42125E+01 0.00000E+00
 -1      2237 6.49500E+00 2.56875E+01 0.00000E+00
 -1      2238 6.49500E+00 2.12625E+01 0.00000E+00
 -1      2239 6.49500E+00 2.27375E+01 0.00000E+00
 -1      2240 7.79400E+00 2.34750E+01 0.00000E+00
 -1      2241 6.49500E+00 1.83625E+01 0.00000E+00
 -1      2242 6.49500E+00 1.98125E+01 0.00000E+00
 -1      2243 7.79400E+00 2.05500E+01 0.00000E+00
 -1      2244 6.49500E+00 1.54125E+01 0.00000E+00
 -1      2245 6.49500E+00 1.68875E+01 0.00000E+00
 -1      2246 7.79400E+00 1.76250E+01 0.00000E+00
 -1      2247 6.49500E+00 1.24625E+01 0.00000E+00
 -1      2248 6.49500E+00 1.39375E+01 0.00000E+00
 -1      2249 7.79400E+00 1.46750E+01 0.00000E+00
 -1      2250 6.49500E+00 9.51250E+00 0.00000E+00
 -1      2251 6.49500E+00 1.09875E+01 0.00000E+00
 -1      2252 7.79400E+00 1.17250E+01 0.00000E+00
 -1      2253 1.37850E+01 5.30525E+00 0.00000E+00
 -1      2254 1.22850E+01 5.30525E+00 0.00000E+00
 -1      2255 1.15350E+01 6.60425E+00 0.00000E+00
 -1      2256 9.90000E+00 4.35050E+01 0.00000E+00
 -1      2257 1.14000E+01 4.35050E+01 0.00000E+00
 -1      2258 6.19318E+01 1.17663E+01 0.00000E+00
 -1      2259 6.27862E+01 1.21123E+01 0.00000E+00
 -1      2260 1.29000E+01 4.35050E+01 0.00000E+00
 -1      2261 1.44000E+01 4.35050E+01 0.00000E+00
 -1      2262 1.21500E+01 4.22060E+01 0.00000E+00
 -1      2263 1.59000E+01 4.35050E+01 0.00000E+00
 -1      2264 1.74000E+01 4.35050E+01 0.00000E+00
 -1      2265 1.51500E+01 4.22060E+01 0.00000E+00
 -1      2266 1.89000E+01 4.35050E+01 0.00000E+00
 -1      2267 2.04000E+01 4.35050E+01 0.00000E+00
 -1      2268 1.81500E+01 4.22060E+01 0.00000E+00
 -1      2269 2.19000E+01 4.35050E+01 0.00000E+00
 -1      2270 2.34000E+01 4.35050E+01 0.00000E+00
 -1      2271 2.11500E+01 4.22060E+01 0.00000E+00
 -1      2272 2.49000E+01 4.35050E+01 0.00000E+00
 -1      2273 2.64000E+01 4.35050E+01 0.00000E+00
 -1      2274 2.41500E+01 4.22060E+01 0.00000E+00
 -1      2275 2.79000E+01 4.35050E+01 0.00000E+00
 -1      2276 2.94000E+01 4.35050E+01 0.00000E+00
 -1      2277 2.71500E+01 4.22060E+01 0.00000E+00
 -1      2278 3.09000E+01 4.35050E+01 0.00000E+00
 -1      2279 3.24000E+01 4.35050E+01 0.00000E+00
 -1      2280 3.01500E+01 4.22060E+01 0.00000E+00
 -1      2281 3.39000E+01 4.35050E+01 0.00000E+00
 -1      2282 3.54000E+01 4.35050E+01 0.00000E+00
 -1      2283 3.31500E+01 4.22060E+01 0.00000E+00
 -1      2284 3.69000E+01 4.35050E+01 0.00000E+00
 -1      2285 3.84000E+01 4.35050E+01 0.00000E+00
 -1      2286 3.61500E+01 4.22060E+01 0.00000E+00
 -1      2287 3.99000E+01 4.35050E+01 0.00000E+00
 -1      2288 4.14000E+01 4.35050E+01 0.00000E+00
 -1      2289 3.91500E+01 4.22060E+01 0.00000E+00
 -1      2290 4.29000E+01 4.35050E+01 0.00000E+00
 -1      2291 4.44000E+01 4.35050E+01 0.00000E+00
 -1      2292 4.21500E+01 4.22060E+01 0.00000E+00
 -1      2293 4.59000E+01 4.35050E+01 0.00000E+00
 -1      2294 4.74000E+01 4.35050E+01 0.00000E+00
 -1      2295 4.51500E+01 4.22060E+01 0.00000E+00
 -1      2296 4.89000E+01 4.35050E+01 0.00000E+00
 -1      2297 5.04000E+01 4.35050E+01 0.00000E+00
 -1      2298 4.81500E+01 4.22060E+01 0.00000E+00
 -1      2299 5.19000E+01 4.35050E+01 0.00000E+00
 -1      2300 5.34000E+01 4.35050E+01 0.00000E+00
 -1      2301 5.11500E+01 4.22060E+01 0.00000E+00
 -1      2302 5.49000E+01 4.35050E+01 0.00000E+00
 -1      2303 5.64000E+01 4.35050E+01 0.00000E+00
 -1      2304 5.41500E+01 4.22060E+01 0.00000E+00
 -1      2305 5.79000E+01 4.35050E+01 0.00000E+00
 -1      2306 5.94000E+01 4.35050E+01 0.00000E+00
 -1      2307 5.71500E+01 4.22060E+01 0.00000E+00
 -1      2308 6.09000E+01 4.35050E+01 0.00000E+00
 -1      2309 6.24000E+01 4.35050E+01 0.00000E+00
 -1      2310 6.01500E+01 4.22060E+01 0.00000E+00
 -1      2311 6.39000E+01 4.35050E+01 0.00000E+00
 -1      2312 6.54000E+01 4.35050E+01 0.00000E+00
 -1      2313 6.31500E+01 4.22060E+01 0.00000E+00
 -1      2314 6.69000E+01 4.35050E+01 0.00000E+00
 -1      2315 6.84000E+01 4.35050E+01 0.00000E+00
 -1      2316 6.61500E+01 4.22060E+01 0.00000E+00
 -1      2317 6.99000E+01 4.35050E+01 0.00000E+00
 -1      2318 7.14000E+01 4.35050E+01 0.00000E+00
 -1      2319 6.91500E+01 4.22060E+01 0.00000E+00
 -1      2320 7.29000E+01 4.35050E+01 0.00000E+00
 -1      2321 7.44000E+01 4.35050E+01 0.00000E+00
 -1      2322 7.21500E+01 4.22060E+01 0.00000E+00
 -1      2323 7.59000E+01 4.35050E+01 0.00000E+00
 -1      2324 7.74000E+01 4.35050E+01 0.00000E+00
 -1      2325 7.51500E+01 4.22060E+01 0.00000E+00
 -1      2326 7.89000E+01 4.35050E+01 0.00000E+00
 -1      2327 8.04000E+01 4.35050E+01 0.00000E+00
 -1      2328 7.81500E+01 4.22060E+01 0.00000E+00
 -1      2329 8.19000E+01 4.35050E+01 0.00000E+00
 -1      2330 8.34000E+01 4.35050E+01 0.00000E+00
 -1      2331 8.11500E+01 4.22060E+01 0.00000E+00
 -1      2332 8.49000E+01 4.35050E+01 0.00000E+00
 -1      2333 8.64000E+01 4.35050E+01 0.00000E+00
 -1      2334 8.41500E+01 4.22060E+01 0.00000E+00
 -1      2335 8.79000E+01 4.35050E+01 0.00000E+00
 -1      2336 8.94000E+01 4.35050E+01 0.00000E+00
 -1      2337 8.71500E+01 4.22060E+01 0.00000E+00
 -1      2338 9.09000E+01 4.35050E+01 0.00000E+00
 -1      2339 9.24000E+01 4.35050E+01 0.00000E+00
 -1      2340 9.01500E+01 4.22060E+01 0.00000E+00
 -1      2341 9.39000E+01 4.35050E+01 0.00000E+00
 -1      2342 9.54000E+01 4.35050E+01 0.00000E+00
 -1      2343 9.31500E+01 4.22060E+01 0.00000E+00
 -1      2344 9.69000E+01 4.35050E+01 0.00000E+00
 -1      2345 9.84000E+01 4.35050E+01 0.00000E+00
 -1      2346 9.61500E+01 4.22060E+01 0.00000E+00
 -1      2347 9.99000E+01 4.35050E+01 0.00000E+00
 -1      2348 1.01400E+02 4.35050E+01 0.00000E+00
 -1      2349 9.91500E+01 4.22060E+01 0.00000E+00
 -1      2350 1.02900E+02 4.35050E+01 0.00000E+00
 -1      2351 1.04400E+02 4.35050E+01 0.00000E+00
 -1      2352 1.02150E+02 4.22060E+01 0.00000E+00
 -1      2353 1.05900E+02 4.35050E+01 0.00000E+00
 -1      2354 1.07400E+02 4.35050E+01 0.00000E+00
 -1      2355 1.05150E+02 4.22060E+01 0.00000E+00
 -1      2356 1.08900E+02 4.35050E+01 0.00000E+00
 -1      2357 1.10400E+02 4.35050E+01 0.00000E+00
 -1      2358 1.08150E+02 4.22060E+01 0.00000E+00
 -1      2359 1.11900E+02 4.35050E+01 0.00000E+00
 -1      2360 1.13400E+02 4.35050E+01 0.00000E+00
 -1      2361 1.11150E+02 4.22060E+01 0.00000E+00
 -1      2362 1.14900E+02 4.35050E+01 0.00000E+00
 -1      2363 1.16400E+02 4.35050E+01 0.00000E+00
 -1      2364 1.14150E+02 4.22060E+01 0.00000E+00
 -1      2365 1.17900E+02 4.35050E+01 0.00000E+00
 -1      2366 1.19400E+02 4.35050E+01 0.00000E+00
 -1      2367 1.17150E+02 4.22060E+01 0.00000E+00
 -1      2368 1.20900E+02 4.35050E+01 0.00000E+00
 -1      2369 1.22400E+02 4.35050E+01 0.00000E+00
 -1      2370 1.20150E+02 4.22060E+01 0.00000E+00
 -1      2371 1.23900E+02 4.35050E+01 0.00000E+00
 -1      2372 1.25400E+02 4.35050E+01 0.00000E+00
 -1      2373 1.23150E+02 4.22060E+01 0.00000E+00
 -1      2374 1.26900E+02 4.35050E+01 0.00000E+00
 -1      2375 1.28400E+02 4.35050E+01 0.00000E+00
 -1      2376 1.26150E+02 4.22060E+01 0.00000E+00
 -1      2377 1.29900E+02 4.35050E+01 0.00000E+00
 -1      2378 1.31400E+02 4.35050E+01 0.00000E+00
 -1      2379 1.29150E+02 4.22060E+01 0.00000E+00
 -1      2380 1.32900E+02 4.35050E+01 0.00000E+00
 -1      2381 1.34400E+02 4.35050E+01 0.00000E+00
 -1      2382 1.32150E+02 4.22060E+01 0.00000E+00
 -1      2383 1.35900E+02 4.35050E+01 0.00000E+00
 -1      2384 1.37400E+02 4.35050E+01 0.00000E+00
 -1      2385 1.35150E+02 4.22060E+01 0.00000E+00
 -1      2386 1.38900E+02 4.35050E+01 0.00000E+00
 -1      2387 1.40400E+02 4.35050E+01 0.00000E+00
 -1      2388 1.38150E+02 4.22060E+01 0.00000E+00
 -1      2389 1.97850E+01 5.30525E+00 0.00000E+00
 -1      2390 1.82850E+01 5.30525E+00 0.00000E+00
 -1      2391 2.27850E+01 5.30525E+00 0.00000E+00
 -1      2392 2.12850E+01 5.30525E+00 0.00000E+00
 -1      2393 2.05350E+01 6.60425E+00 0.00000E+00
 -1      2394 2.57850E+01 5.30525E+00 0.00000E+00
 -1      2395 2.42850E+01 5.30525E+00 0.00000E+00
 -1      2396 2.35350E+01 6.60425E+00 0.00000E+00
 -1      2397 2.87850E+01 5.30525E+00 0.00000E+00
 -1      2398 2.72850E+01 5.30525E+00 0.00000E+00
 -1      2399 2.65350E+01 6.60425E+00 0.00000E+00
 -1      2400 3.17850E+01 5.30525E+00 0.00000E+00
 -1      2401 3.02850E+01 5.30525E+00 0.00000E+00
 -1      2402 2.95350E+01 6.60425E+00 0.00000E+00
 -1      2403 3.47850E+01 5.30525E+00 0.00000E+00
 -1      2404 3.32850E+01 5.30525E+00 0.00000E+00
 -1      2405 3.25350E+01 6.60425E+00 0.00000E+00
 -1      2406 3.77850E+01 5.30525E+00 0.00000E+00
 -1      2407 3.62850E+01 5.30525E+00 0.00000E+00
 -1      2408 3.55350E+01 6.60425E+00 0.00000E+00
 -1      2409 4.07850E+01 5.30525E+00 0.00000E+00
 -1      2410 3.92850E+01 5.30525E+00 0.00000E+00
 -1      2411 3.85350E+01 6.60425E+00 0.00000E+00
 -1      2412 4.37850E+01 5.30525E+00 0.00000E+00
 -1      2413 4.22850E+01 5.30525E+00 0.00000E+00
 -1      2414 4.15350E+01 6.60425E+00 0.00000E+00
 -1      2415 4.67850E+01 5.30525E+00 0.00000E+00
 -1      2416 4.52850E+01 5.30525E+00 0.00000E+00
 -1      2417 4.45350E+01 6.60425E+00 0.00000E+00
 -1      2418 4.97850E+01 5.30525E+00 0.00000E+00
 -1      2419 4.82850E+01 5.30525E+00 0.00000E+00
 -1      2420 4.75350E+01 6.60425E+00 0.00000E+00
 -1      2421 5.27850E+01 5.30525E+00 0.00000E+00
 -1      2422 5.12850E+01 5.30525E+00 0.00000E+00
 -1      2423 5.05350E+01 6.60425E+00 0.00000E+00
 -1      2424 5.57850E+01 5.30525E+00 0.00000E+00
 -1      2425 5.42850E+01 5.30525E+00 0.00000E+00
 -1      2426 5.35350E+01 6.60425E+00 0.00000E+00
 -1      2427 5.87850E+01 5.30525E+00 0.00000E+00
 -1      2428 5.72850E+01 5.30525E+00 0.00000E+00
 -1      2429 5.65350E+01 6.60425E+00 0.00000E+00
 -1      2430 6.17850E+01 5.30525E+00 0.00000E+00
 -1      2431 6.02850E+01 5.30525E+00 0.00000E+00
 -1      2432 5.95350E+01 6.60425E+00 0.00000E+00
 -1      2433 6.47850E+01 5.30525E+00 0.00000E+00
 -1      2434 6.32850E+01 5.30525E+00 0.00000E+00
 -1      2435 6.25350E+01 6.60425E+00 0.00000E+00
 -1      2436 6.77850E+01 5.30525E+00 0.00000E+00
 -1      2437 6.62850E+01 5.30525E+00 0.00000E+00
 -1      2438 6.55350E+01 6.60425E+00 0.00000E+00
 -1      2439 7.07850E+01 5.30525E+00 0.00000E+00
 -1      2440 6.92850E+01 5.30525E+00 0.00000E+00
 -1      2441 6.85350E+01 6.60425E+00 0.00000E+00
 -1      2442 7.37850E+01 5.30525E+00 0.00000E+00
 -1      2443 7.22850E+01 5.30525E+00 0.00000E+00
 -1      2444 7.15350E+01 6.60425E+00 0.00000E+00
 -1      2445 7.67850E+01 5.30525E+00 0.00000E+00
 -1      2446 7.52850E+01 5.30525E+00 0.00000E+00
 -1      2447 7.45350E+01 6.60425E+00 0.00000E+00
 -1      2448 7.97850E+01 5.30525E+00 0.00000E+00
 -1      2449 7.82850E+01 5.30525E+00 0.00000E+00
 -1      2450 7.75350E+01 6.60425E+00 0.00000E+00
 -1      2451 8.27850E+01 5.30525E+00 0.00000E+00
 -1      2452 8.12850E+01 5.30525E+00 0.00000E+00
 -1      2453 8.05350E+01 6.60425E+00 0.00000E+00
 -1      2454 8.57850E+01 5.30525E+00 0.00000E+00
 -1      2455 8.42850E+01 5.30525E+00 0.00000E+00
 -1      2456 8.35350E+01 6.60425E+00 0.00000E+00
 -1      2457 8.87850E+01 5.30525E+00 0.00000E+00
 -1      2458 8.72850E+01 5.30525E+00 0.00000E+00
 -1      2459 8.65350E+01 6.60425E+00 0.00000E+00
 -1      2460 9.17850E+01 5.30525E+00 0.00000E+00
 -1      2461 9.02850E+01 5.30525E+00 0.00000E+00
 -1      2462 8.95350E+01 6.60425E+00 0.00000E+00
 -1      2463 9.47850E+01 5.30525E+00 0.00000E+00
 -1      2464 9.32850E+01 5.30525E+00 0.00000E+00
 -1      2465 9.25350E+01 6.60425E+00 0.00000E+00
 -1      2466 9.77850E+01 5.30525E+00 0.00000E+00
 -1      2467 9.62850E+01 5.30525E+00 0.00000E+00
 -1      2468 9.55350E+01 6.60425E+00 0.00000E+00
 -1      2469 1.00785E+02 5.30525E+00 0.00000E+00
 -1      2470 9.92850E+01 5.30525E+00 0.00000E+00
 -1      2471 9.85350E+01 6.60425E+00 0.00000E+00
 -1      2472 1.03785E+02 5.30525E+00 0.00000E+00
 -1      2473 1.02285E+02 5.30525E+00 0.00000E+00
 -1      2474 1.01535E+02 6.60425E+00 0.00000E+00
 -1      2475 1.06785E+02 5.30525E+00 0.00000E+00
 -1      2476 1.05285E+02 5.30525E+00 0.00000E+00
 -1      2477 1.04535E+02 6.60425E+00 0.00000E+00
 -1      2478 1.09785E+02 5.30525E+00 0.00000E+00
 -1      2479 1.08285E+02 5.30525E+00 0.00000E+00
 -1      2480 1.07535E+02 6.60425E+00 0.00000E+00
 -1      2481 1.12785E+02 5.30525E+00 0.00000E+00
 -1      2482 1.11285E+02 5.30525E+00 0.00000E+00
 -1      2483 1.10535E+02 6.60425E+00 0.00000E+00
 -1      2484 1.15785E+02 5.30525E+00 0.00000E+00
 -1      2485 1.14285E+02 5.30525E+00 0.00000E+00
 -1      2486 1.13535E+02 6.60425E+00 0.00000E+00
 -1      2487 1.18785E+02 5.30525E+00 0.00000E+00
 -1      2488 1.17285E+02 5.30525E+00 0.00000E+00
 -1      2489 1.16535E+02 6.60425E+00 0.00000E+00
 -1      2490 1.21785E+02 5.30525E+00 0.00000E+00
 -1      2491 1.20285E+02 5.30525E+00 0.00000E+00
 -1      2492 1.19535E+02 6.60425E+00 0.00000E+00
 -1      2493 1.24785E+02 5.30525E+00 0.00000E+00
 -1      2494 1.23285E+02 5.30525E+00 0.00000E+00
 -1      2495 1.22535E+02 6.60425E+00 0.00000E+00
 -1      2496 1.27785E+02 5.30525E+00 0.00000E+00
 -1      2497 1.26285E+02 5.30525E+00 0.00000E+00
 -1      2498 1.25535E+02 6.60425E+00 0.00000E+00
 -1      2499 1.30785E+02 5.30525E+00 0.00000E+00
 -1      2500 1.29285E+02 5.30525E+00 0.00000E+00
 -1      2501 1.28535E+02 6.60425E+00 0.00000E+00
 -1      2502 1.33785E+02 5.30525E+00 0.00000E+00
 -1      2503 1.32285E+02 5.30525E+00 0.00000E+00
 -1      2504 1.31535E+02 6.60425E+00 0.00000E+00
 -1      2505 1.36785E+02 5.30525E+00 0.00000E+00
 -1      2506 1.35285E+02 5.30525E+00 0.00000E+00
 -1      2507 1.34535E+02 6.60425E+00 0.00000E+00
 -1      2508 1.39785E+02 5.30525E+00 0.00000E+00
 -1      2509 1.38285E+02 5.30525E+00 0.00000E+00
 -1      2510 1.37535E+02 6.60425E+00 0.00000E+00
 -1      2511 1.42785E+02 5.30525E+00 0.00000E+00
 -1      2512 1.41285E+02 5.30525E+00 0.00000E+00
 -1      2513 1.40535E+02 6.60425E+00 0.00000E+00
 -1      2514 1.44336E+02 5.26953E+00 0.00000E+00
 -1      2515 1.43505E+02 1.69125E+01 0.00000E+00
 -1      2516 1.43505E+02 1.54375E+01 0.00000E+00
 -1      2517 1.43505E+02 1.98625E+01 0.00000E+00
 -1      2518 1.43505E+02 1.83875E+01 0.00000E+00
 -1      2519 1.42206E+02 1.76500E+01 0.00000E+00
 -1      2520 1.43505E+02 1.10625E+01 0.00000E+00
 -1      2521 1.43505E+02 9.58750E+00 0.00000E+00
 -1      2522 1.43505E+02 1.39750E+01 0.00000E+00
 -1      2523 1.43505E+02 1.25250E+01 0.00000E+00
 -1      2524 1.42206E+02 1.17875E+01 0.00000E+00
 -1      2525 1.42206E+02 1.47125E+01 0.00000E+00
 -1      2526 1.43505E+02 2.28125E+01 0.00000E+00
 -1      2527 1.43505E+02 2.13375E+01 0.00000E+00
 -1      2528 1.42206E+02 2.06000E+01 0.00000E+00
 -1      2529 1.43505E+02 2.57625E+01 0.00000E+00
 -1      2530 1.43505E+02 2.42875E+01 0.00000E+00
 -1      2531 1.42206E+02 2.35500E+01 0.00000E+00
 -1      2532 1.43505E+02 2.87125E+01 0.00000E+00
 -1      2533 1.43505E+02 2.72375E+01 0.00000E+00
 -1      2534 1.42206E+02 2.65000E+01 0.00000E+00
 -1      2535 1.43505E+02 3.16125E+01 0.00000E+00
 -1      2536 1.43505E+02 3.01625E+01 0.00000E+00
 -1      2537 1.42206E+02 2.94250E+01 0.00000E+00
 -1      2538 1.43505E+02 3.45625E+01 0.00000E+00
 -1      2539 1.43505E+02 3.30875E+01 0.00000E+00
 -1      2540 1.42206E+02 3.23500E+01 0.00000E+00
 -1      2541 1.43505E+02 3.75125E+01 0.00000E+00
 -1      2542 1.43505E+02 3.60375E+01 0.00000E+00
 -1      2543 1.42206E+02 3.53000E+01 0.00000E+00
 -1      2544 1.43505E+02 4.04625E+01 0.00000E+00
 -1      2545 1.43505E+02 3.89875E+01 0.00000E+00
 -1      2546 1.42206E+02 3.82500E+01 0.00000E+00
 -1      2547 6.87571E+01 1.97004E+01 0.00000E+00
 -1      2548 6.90356E+01 2.06878E+01 0.00000E+00
 -1      2549 6.82104E+01 1.76755E+01 0.00000E+00
 -1      2550 6.84838E+01 1.86879E+01 0.00000E+00
 -1      2551 6.94484E+01 1.89489E+01 0.00000E+00
 -1      2552 6.90694E+01 2.21014E+01 0.00000E+00
 -1      2553 6.88967E+01 2.32286E+01 0.00000E+00
 -1      2554 1.67850E+01 5.30525E+00 0.00000E+00
 -1      2555 1.52850E+01 5.30525E+00 0.00000E+00
 -1      2556 1.75350E+01 6.60425E+00 0.00000E+00
 -1      2557 1.44321E+02 4.30606E+01 0.00000E+00
 -1      2558 6.70780E+01 1.58971E+01 0.00000E+00
 -1      2559 6.76031E+01 1.66000E+01 0.00000E+00
 -1      2560 6.38844E+01 1.25274E+01 0.00000E+00
 -1      2561 6.49010E+01 1.31302E+01 0.00000E+00
 -1      2562 6.78490E+01 2.60775E+01 0.00000E+00
 -1      2563 6.72254E+01 2.68031E+01 0.00000E+00
 -1      2564 5.78428E+01 3.18719E+01 0.00000E+00
 -1      2565 5.68177E+01 3.15992E+01 0.00000E+00
 -1      2566 6.49500E+00 2.71625E+01 0.00000E+00
 -1      2567 6.49500E+00 2.86375E+01 0.00000E+00
 -1      2568 7.79400E+00 2.93750E+01 0.00000E+00
 -1      2569 7.79400E+00 2.64250E+01 0.00000E+00
 -1      2570 5.73543E+01 1.09452E+01 0.00000E+00
 -1      2571 5.84919E+01 1.09197E+01 0.00000E+00
 -1      2572 6.37420E+01 3.03833E+01 0.00000E+00
 -1      2573 6.29246E+01 3.07521E+01 0.00000E+00
 -1      2574 5.98082E+01 1.11100E+01 0.00000E+00
 -1      2575 6.08836E+01 1.13846E+01 0.00000E+00
 -1      2576 5.50721E+01 1.15779E+01 0.00000E+00
 -1      2577 5.60029E+01 1.11822E+01 0.00000E+00
 -1      2578 5.31733E+01 1.26138E+01 0.00000E+00
 -1      2579 5.40619E+01 1.20890E+01 0.00000E+00
 -1      2580 5.12629E+01 1.37656E+01 0.00000E+00
 -1      2581 5.22346E+01 1.31761E+01 0.00000E+00
 -1      2582 4.95863E+01 1.58776E+01 0.00000E+00
 -1      2583 5.01843E+01 1.48644E+01 0.00000E+00
 -1      2584 4.87545E+01 1.78018E+01 0.00000E+00
 -1      2585 4.91919E+01 1.69393E+01 0.00000E+00
 -1      2586 4.81121E+01 2.01090E+01 0.00000E+00
 -1      2587 4.82367E+01 1.90024E+01 0.00000E+00
 -1      2588 4.78426E+01 2.21253E+01 0.00000E+00
 -1      2589 4.79773E+01 2.11172E+01 0.00000E+00
 -1      2590 4.71875E+01 2.04679E+01 0.00000E+00
 -1      2591 4.85469E+01 2.47720E+01 0.00000E+00
 -1      2592 4.80382E+01 2.37119E+01 0.00000E+00
 -1      2593 4.93290E+01 2.65220E+01 0.00000E+00
 -1      2594 4.89380E+01 2.56470E+01 0.00000E+00
 -1      2595 4.78349E+01 2.55242E+01 0.00000E+00
 -1      2596 5.07957E+01 2.82498E+01 0.00000E+00
 -1      2597 5.01628E+01 2.75169E+01 0.00000E+00
 -1      2598 5.22170E+01 2.96695E+01 0.00000E+00
 -1      2599 5.15024E+01 2.90673E+01 0.00000E+00
 -1      2600 5.39897E+01 3.06947E+01 0.00000E+00
 -1      2601 5.31622E+01 3.02878E+01 0.00000E+00
 -1      2602 5.58240E+01 3.13010E+01 0.00000E+00
 -1      2603 5.49630E+01 3.10078E+01 0.00000E+00
 -1      2604 5.99565E+01 3.20233E+01 0.00000E+00
 -1      2605 5.91568E+01 3.21847E+01 0.00000E+00
 -1      2606 6.19661E+01 3.12403E+01 0.00000E+00
 -1      2607 6.09613E+01 3.16318E+01 0.00000E+00
 -1      2608 6.07642E+01 3.27174E+01 0.00000E+00
 -1      2609 6.54983E+01 2.91235E+01 0.00000E+00
 -1      2610 6.47292E+01 2.97598E+01 0.00000E+00
 -1      2611 6.67142E+01 2.75310E+01 0.00000E+00
 -1      2612 6.62031E+01 2.82589E+01 0.00000E+00
 -1      2613 6.75811E+01 2.76452E+01 0.00000E+00
 -1      2614 6.86545E+01 2.42514E+01 0.00000E+00
 -1      2615 6.84553E+01 2.50359E+01 0.00000E+00
 -1      2616 6.55950E+00 4.28890E+01 0.00000E+00
 -1      2617 8.53650E+00 4.32410E+01 0.00000E+00
 -1      2618 9.28650E+00 4.19420E+01 0.00000E+00
 -1      2619 6.55950E+00 4.14140E+01 0.00000E+00
 -1      2620 8.07525E+00 5.11044E+00 0.00000E+00
 -1      2621 6.57525E+00 5.11044E+00 0.00000E+00
 -1      2622 6.40575E+00 6.01981E+00 0.00000E+00
 -1      2623 8.82525E+00 6.40944E+00 0.00000E+00
 -1      2624 6.58544E+01 1.40576E+01 0.00000E+00
 -1      2625 6.64662E+01 1.49773E+01 0.00000E+00
 -1      2626 6.73486E+01 1.48657E+01 0.00000E+00
 -1      2627 5.92211E+01 1.03073E+01 0.00000E+00
 -1      2628 7.79400E+00 3.52687E+01 0.00000E+00
 -1      2629 6.49500E+00 3.60062E+01 0.00000E+00
 -1      2630 6.49500E+00 3.74750E+01 0.00000E+00
 -1      2631 1.45350E+01 6.60425E+00 0.00000E+00
 -1      2632 6.40575E+00 7.49481E+00 0.00000E+00
 -1      2633 6.57834E+01 1.30186E+01 0.00000E+00
 -1      2634 6.37319E+01 1.16761E+01 0.00000E+00
 -1      2635 6.55950E+00 3.99453E+01 0.00000E+00
 -1      2636 6.85677E+01 1.68610E+01 0.00000E+00
 -1      2637 6.27275E+01 3.18376E+01 0.00000E+00
 -1      2638 1.43586E+02 6.56853E+00 0.00000E+00
 -1      2639 1.43419E+02 7.72713E+00 0.00000E+00
 -1      2640 6.46732E+01 3.07259E+01 0.00000E+00
 -1      2641 7.04417E+01 2.06485E+01 0.00000E+00
 -1      2642 6.97555E+01 2.13749E+01 0.00000E+00
 -1      2643 7.04754E+01 2.20621E+01 0.00000E+00
 -1      2644 6.95471E+01 2.38113E+01 0.00000E+00
 -1      2645 5.61377E+01 3.21851E+01 0.00000E+00
 -1      2646 7.70475E+00 8.23231E+00 0.00000E+00
 -1      2647 5.41708E+01 3.15738E+01 0.00000E+00
 -1      2648 5.22523E+01 3.06425E+01 0.00000E+00
 -1      2649 6.86986E+01 2.58757E+01 0.00000E+00
 -1      2650 4.90598E+01 2.73941E+01 0.00000E+00
 -1      2651 4.72483E+01 2.30627E+01 0.00000E+00
 -1      2652 4.64585E+01 2.24134E+01 0.00000E+00
 -1      2653 4.66540E+01 2.40000E+01 0.00000E+00
 -1      2654 4.78400E+01 1.82591E+01 0.00000E+00
 -1      2655 4.87523E+01 1.59968E+01 0.00000E+00
 -1      2656 5.02253E+01 1.38364E+01 0.00000E+00
 -1      2657 5.02664E+01 1.28085E+01 0.00000E+00
 -1      2658 4.91878E+01 1.39073E+01 0.00000E+00
 -1      2659 5.22427E+01 1.21753E+01 0.00000E+00
 -1      2660 5.41917E+01 1.11019E+01 0.00000E+00
 -1      2661 5.84454E+01 3.27961E+01 0.00000E+00
 -1      2662 6.15856E+01 1.08793E+01 0.00000E+00
 -1      2663 5.65533E+01 1.03539E+01 0.00000E+00
 -1      2664 5.06004E+01 2.92066E+01 0.00000E+00
 -1      2665 1.42758E+02 4.35929E+01 0.00000E+00
 -1      2666 1.43241E+02 4.17323E+01 0.00000E+00
 -1      2667 1.41942E+02 4.09948E+01 0.00000E+00
 -1      2668 1.41414E+02 4.35342E+01 0.00000E+00
 -1      2669 6.63652E+01 2.92378E+01 0.00000E+00
 -1      2670 1.42120E+02 8.46463E+00 0.00000E+00
 -1      2671 1.40664E+02 4.22352E+01 0.00000E+00
 -1      2672 9.09300E+00 1.98250E+01 0.00000E+00
 -1      2673 9.09300E+00 2.12750E+01 0.00000E+00
 -1      2674 9.09300E+00 2.27500E+01 0.00000E+00
 -1      2675 9.09300E+00 2.42250E+01 0.00000E+00
 -1      2676 1.03920E+01 2.20250E+01 0.00000E+00
 -1      2677 9.09300E+00 1.39375E+01 0.00000E+00
 -1      2678 9.09300E+00 1.54125E+01 0.00000E+00
 -1      2679 9.09300E+00 1.09875E+01 0.00000E+00
 -1      2680 9.09300E+00 1.24625E+01 0.00000E+00
 -1      2681 1.03920E+01 1.32000E+01 0.00000E+00
 -1      2682 1.22850E+01 7.90325E+00 0.00000E+00
 -1      2683 1.07850E+01 7.90325E+00 0.00000E+00
 -1      2684 5.43692E+01 3.26265E+01 0.00000E+00
 -1      2685 5.33959E+01 3.23134E+01 0.00000E+00
 -1      2686 1.52850E+01 7.90325E+00 0.00000E+00
 -1      2687 1.37850E+01 7.90325E+00 0.00000E+00
 -1      2688 1.30350E+01 9.20225E+00 0.00000E+00
 -1      2689 8.91450E+00 8.42712E+00 0.00000E+00
 -1      2690 6.85042E+01 2.77500E+01 0.00000E+00
 -1      2691 6.79930E+01 2.84779E+01 0.00000E+00
 -1      2692 1.44000E+01 4.09070E+01 0.00000E+00
 -1      2693 1.59000E+01 4.09070E+01 0.00000E+00
 -1      2694 1.74000E+01 4.09070E+01 0.00000E+00
 -1      2695 1.89000E+01 4.09070E+01 0.00000E+00
 -1      2696 1.66500E+01 3.96080E+01 0.00000E+00
 -1      2697 2.04000E+01 4.09070E+01 0.00000E+00
 -1      2698 2.19000E+01 4.09070E+01 0.00000E+00
 -1      2699 1.96500E+01 3.96080E+01 0.00000E+00
 -1      2700 2.34000E+01 4.09070E+01 0.00000E+00
 -1      2701 2.49000E+01 4.09070E+01 0.00000E+00
 -1      2702 2.26500E+01 3.96080E+01 0.00000E+00
 -1      2703 2.64000E+01 4.09070E+01 0.00000E+00
 -1      2704 2.79000E+01 4.09070E+01 0.00000E+00
 -1      2705 2.56500E+01 3.96080E+01 0.00000E+00
 -1      2706 2.94000E+01 4.09070E+01 0.00000E+00
 -1      2707 3.09000E+01 4.09070E+01 0.00000E+00
 -1      2708 2.86500E+01 3.96080E+01 0.00000E+00
 -1      2709 3.24000E+01 4.09070E+01 0.00000E+00
 -1      2710 3.39000E+01 4.09070E+01 0.00000E+00
 -1      2711 3.16500E+01 3.96080E+01 0.00000E+00
 -1      2712 3.54000E+01 4.09070E+01 0.00000E+00
 -1      2713 3.69000E+01 4.09070E+01 0.00000E+00
 -1      2714 3.46500E+01 3.96080E+01 0.00000E+00
 -1      2715 3.84000E+01 4.09070E+01 0.00000E+00
 -1      2716 3.99000E+01 4.09070E+01 0.00000E+00
 -1      2717 3.76500E+01 3.96080E+01 0.00000E+00
 -1      2718 4.14000E+01 4.09070E+01 0.00000E+00
 -1      2719 4.29000E+01 4.09070E+01 0.00000E+00
 -1      2720 4.06500E+01 3.96080E+01 0.00000E+00
 -1      2721 4.44000E+01 4.09070E+01 0.00000E+00
 -1      2722 4.59000E+01 4.09070E+01 0.00000E+00
 -1      2723 4.36500E+01 3.96080E+01 0.00000E+00
 -1      2724 4.74000E+01 4.09070E+01 0.00000E+00
 -1      2725 4.89000E+01 4.09070E+01 0.00000E+00
 -1      2726 4.66500E+01 3.96080E+01 0.00000E+00
 -1      2727 5.04000E+01 4.09070E+01 0.00000E+00
 -1      2728 5.19000E+01 4.09070E+01 0.00000E+00
 -1      2729 4.96500E+01 3.96080E+01 0.00000E+00
 -1      2730 5.34000E+01 4.09070E+01 0.00000E+00
 -1      2731 5.49000E+01 4.09070E+01 0.00000E+00
 -1      2732 5.26500E+01 3.96080E+01 0.00000E+00
 -1      2733 5.64000E+01 4.09070E+01 0.00000E+00
 -1      2734 5.79000E+01 4.09070E+01 0.00000E+00
 -1      2735 5.56500E+01 3.96080E+01 0.00000E+00
 -1      2736 5.94000E+01 4.09070E+01 0.00000E+00
 -1      2737 6.09000E+01 4.09070E+01 0.00000E+00
 -1      2738 5.86500E+01 3.96080E+01 0.00000E+00
 -1      2739 6.24000E+01 4.09070E+01 0.00000E+00
 -1      2740 6.39000E+01 4.09070E+01 0.00000E+00
 -1      2741 6.16500E+01 3.96080E+01 0.00000E+00
 -1      2742 6.54000E+01 4.09070E+01 0.00000E+00
 -1      2743 6.69000E+01 4.09070E+01 0.00000E+00
 -1      2744 6.46500E+01 3.96080E+01 0.00000E+00
 -1      2745 6.84000E+01 4.09070E+01 0.00000E+00
 -1      2746 6.99000E+01 4.09070E+01 0.00000E+00
 -1      2747 6.76500E+01 3.96080E+01 0.00000E+00
 -1      2748 7.14000E+01 4.09070E+01 0.00000E+00
 -1      2749 7.29000E+01 4.09070E+01 0.00000E+00
 -1      2750 7.06500E+01 3.96080E+01 0.00000E+00
 -1      2751 7.44000E+01 4.09070E+01 0.00000E+00
 -1      2752 7.59000E+01 4.09070E+01 0.00000E+00
 -1      2753 7.36500E+01 3.96080E+01 0.00000E+00
 -1      2754 7.74000E+01 4.09070E+01 0.00000E+00
 -1      2755 7.89000E+01 4.09070E+01 0.00000E+00
 -1      2756 7.66500E+01 3.96080E+01 0.00000E+00
 -1      2757 8.04000E+01 4.09070E+01 0.00000E+00
 -1      2758 8.19000E+01 4.09070E+01 0.00000E+00
 -1      2759 7.96500E+01 3.96080E+01 0.00000E+00
 -1      2760 8.34000E+01 4.09070E+01 0.00000E+00
 -1      2761 8.49000E+01 4.09070E+01 0.00000E+00
 -1      2762 8.26500E+01 3.96080E+01 0.00000E+00
 -1      2763 8.64000E+01 4.09070E+01 0.00000E+00
 -1      2764 8.79000E+01 4.09070E+01 0.00000E+00
 -1      2765 8.56500E+01 3.96080E+01 0.00000E+00
 -1      2766 8.94000E+01 4.09070E+01 0.00000E+00
 -1      2767 9.09000E+01 4.09070E+01 0.00000E+00
 -1      2768 8.86500E+01 3.96080E+01 0.00000E+00
 -1      2769 9.24000E+01 4.09070E+01 0.00000E+00
 -1      2770 9.39000E+01 4.09070E+01 0.00000E+00
 -1      2771 9.16500E+01 3.96080E+01 0.00000E+00
 -1      2772 9.54000E+01 4.09070E+01 0.00000E+00
 -1      2773 9.69000E+01 4.09070E+01 0.00000E+00
 -1      2774 9.46500E+01 3.96080E+01 0.00000E+00
 -1      2775 9.84000E+01 4.09070E+01 0.00000E+00
 -1      2776 9.99000E+01 4.09070E+01 0.00000E+00
 -1      2777 9.76500E+01 3.96080E+01 0.00000E+00
 -1      2778 1.01400E+02 4.09070E+01 0.00000E+00
 -1      2779 1.02900E+02 4.09070E+01 0.00000E+00
 -1      2780 1.00650E+02 3.96080E+01 0.00000E+00
 -1      2781 1.04400E+02 4.09070E+01 0.00000E+00
 -1      2782 1.05900E+02 4.09070E+01 0.00000E+00
 -1      2783 1.03650E+02 3.96080E+01 0.00000E+00
 -1      2784 1.07400E+02 4.09070E+01 0.00000E+00
 -1      2785 1.08900E+02 4.09070E+01 0.00000E+00
 -1      2786 1.06650E+02 3.96080E+01 0.00000E+00
 -1      2787 1.10400E+02 4.09070E+01 0.00000E+00
 -1      2788 1.11900E+02 4.09070E+01 0.00000E+00
 -1      2789 1.09650E+02 3.96080E+01 0.00000E+00
 -1      2790 1.13400E+02 4.09070E+01 0.00000E+00
 -1      2791 1.14900E+02 4.09070E+01 0.00000E+00
 -1      2792 1.12650E+02 3.96080E+01 0.00000E+00
 -1      2793 1.16400E+02 4.09070E+01 0.00000E+00
 -1      2794 1.17900E+02 4.09070E+01 0.00000E+00
 -1      2795 1.15650E+02 3.96080E+01 0.00000E+00
 -1      2796 1.19400E+02 4.09070E+01 0.00000E+00
 -1      2797 1.20900E+02 4.09070E+01 0.00000E+00
 -1      2798 1.18650E+02 3.96080E+01 0.00000E+00
 -1      2799 1.22400E+02 4.09070E+01 0.00000E+00
 -1      2800 1.23900E+02 4.09070E+01 0.00000E+00
 -1      2801 1.21650E+02 3.96080E+01 0.00000E+00
 -1      2802 1.25400E+02 4.09070E+01 0.00000E+00
 -1      2803 1.26900E+02 4.09070E+01 0.00000E+00
 -1      2804 1.24650E+02 3.96080E+01 0.00000E+00
 -1      2805 1.28400E+02 4.09070E+01 0.00000E+00
 -1      2806 1.29900E+02 4.09070E+01 0.00000E+00
 -1      2807 1.27650E+02 3.96080E+01 0.00000E+00
 -1      2808 1.31400E+02 4.09070E+01 0.00000E+00
 -1      2809 1.32900E+02 4.09070E+01 0.00000E+00
 -1      2810 1.30650E+02 3.96080E+01 0.00000E+00
 -1      2811 1.34400E+02 4.09070E+01 0.00000E+00
 -1      2812 1.35900E+02 4.09070E+01 0.00000E+00
 -1      2813 1.33650E+02 3.96080E+01 0.00000E+00
 -1      2814 1.37400E+02 4.09070E+01 0.00000E+00
 -1      2815 1.38900E+02 4.09070E+01 0.00000E+00
 -1      2816 1.36650E+02 3.96080E+01 0.00000E+00
 -1      2817 2.42850E+01 7.90325E+00 0.00000E+00
 -1      2818 2.27850E+01 7.90325E+00 0.00000E+00
 -1      2819 6.72883E+01 2.93426E+01 0.00000E+00
 -1      2820 6.65835E+01 3.02072E+01 0.00000E+00
 -1      2821 6.82114E+01 2.94474E+01 0.00000E+00
 -1      2822 2.12850E+01 7.90325E+00 0.00000E+00
 -1      2823 1.97850E+01 7.90325E+00 0.00000E+00
 -1      2824 2.20350E+01 9.20225E+00 0.00000E+00
 -1      2825 3.02850E+01 7.90325E+00 0.00000E+00
 -1      2826 2.87850E+01 7.90325E+00 0.00000E+00
 -1      2827 3.32850E+01 7.90325E+00 0.00000E+00
 -1      2828 3.17850E+01 7.90325E+00 0.00000E+00
 -1      2829 3.10350E+01 9.20225E+00 0.00000E+00
 -1      2830 3.62850E+01 7.90325E+00 0.00000E+00
 -1      2831 3.47850E+01 7.90325E+00 0.00000E+00
 -1      2832 3.40350E+01 9.20225E+00 0.00000E+00
 -1      2833 3.92850E+01 7.90325E+00 0.00000E+00
 -1      2834 3.77850E+01 7.90325E+00 0.00000E+00
 -1      2835 3.70350E+01 9.20225E+00 0.00000E+00
 -1      2836 4.22850E+01 7.90325E+00 0.00000E+00
 -1      2837 4.07850E+01 7.90325E+00 0.00000E+00
 -1      2838 4.00350E+01 9.20225E+00 0.00000E+00
 -1      2839 4.52850E+01 7.90325E+00 0.00000E+00
 -1      2840 4.37850E+01 7.90325E+00 0.00000E+00
 -1      2841 4.30350E+01 9.20225E+00 0.00000E+00
 -1      2842 4.82850E+01 7.90325E+00 0.00000E+00
 -1      2843 4.67850E+01 7.90325E+00 0.00000E+00
 -1      2844 4.60350E+01 9.20225E+00 0.00000E+00
 -1      2845 5.12850E+01 7.90325E+00 0.00000E+00
 -1      2846 4.97850E+01 7.90325E+00 0.00000E+00
 -1      2847 4.90350E+01 9.20225E+00 0.00000E+00
 -1      2848 5.51185E+01 8.59755E+00 0.00000E+00
 -1      2849 5.36185E+01 8.59755E+00 0.00000E+00
 -1      2850 5.79699E+01 8.36062E+00 0.00000E+00
 -1      2851 5.64699E+01 8.36062E+00 0.00000E+00
 -1      2852 6.32850E+01 7.62938E+00 0.00000E+00
 -1      2853 6.17850E+01 7.62938E+00 0.00000E+00
 -1      2854 6.62850E+01 7.79695E+00 0.00000E+00
 -1      2855 6.47850E+01 7.79695E+00 0.00000E+00
 -1      2856 6.92850E+01 7.79695E+00 0.00000E+00
 -1      2857 6.77850E+01 7.79695E+00 0.00000E+00
 -1      2858 6.70350E+01 8.98964E+00 0.00000E+00
 -1      2859 7.22850E+01 7.79695E+00 0.00000E+00
 -1      2860 7.07850E+01 7.79695E+00 0.00000E+00
 -1      2861 7.00350E+01 8.98964E+00 0.00000E+00
 -1      2862 7.52850E+01 7.79695E+00 0.00000E+00
 -1      2863 7.37850E+01 7.79695E+00 0.00000E+00
 -1      2864 7.30350E+01 8.98964E+00 0.00000E+00
 -1      2865 7.82850E+01 7.79695E+00 0.00000E+00
 -1      2866 7.67850E+01 7.79695E+00 0.00000E+00
 -1      2867 7.60350E+01 8.98964E+00 0.00000E+00
 -1      2868 8.12850E+01 7.79695E+00 0.00000E+00
 -1      2869 7.97850E+01 7.79695E+00 0.00000E+00
 -1      2870 7.90350E+01 8.98964E+00 0.00000E+00
 -1      2871 8.42850E+01 7.79695E+00 0.00000E+00
 -1      2872 8.27850E+01 7.79695E+00 0.00000E+00
 -1      2873 8.20350E+01 8.98964E+00 0.00000E+00
 -1      2874 8.72850E+01 7.79695E+00 0.00000E+00
 -1      2875 8.57850E+01 7.79695E+00 0.00000E+00
 -1      2876 8.50350E+01 8.98964E+00 0.00000E+00
 -1      2877 9.02850E+01 7.79695E+00 0.00000E+00
 -1      2878 8.87850E+01 7.79695E+00 0.00000E+00
 -1      2879 8.80350E+01 8.98964E+00 0.00000E+00
 -1      2880 9.32850E+01 7.79695E+00 0.00000E+00
 -1      2881 9.17850E+01 7.79695E+00 0.00000E+00
 -1      2882 9.10350E+01 8.98964E+00 0.00000E+00
 -1      2883 9.62850E+01 7.79695E+00 0.00000E+00
 -1      2884 9.47850E+01 7.79695E+00 0.00000E+00
 -1      2885 9.40350E+01 8.98964E+00 0.00000E+00
 -1      2886 9.92850E+01 7.79695E+00 0.00000E+00
 -1      2887 9.77850E+01 7.79695E+00 0.00000E+00
 -1      2888 9.70350E+01 8.98964E+00 0.00000E+00
 -1      2889 1.02285E+02 7.79695E+00 0.00000E+00
 -1      2890 1.00785E+02 7.79695E+00 0.00000E+00
 -1      2891 1.00035E+02 8.98964E+00 0.00000E+00
 -1      2892 1.05285E+02 7.79695E+00 0.00000E+00
 -1      2893 1.03785E+02 7.79695E+00 0.00000E+00
 -1      2894 1.03035E+02 8.98964E+00 0.00000E+00
 -1      2895 1.08285E+02 7.79695E+00 0.00000E+00
 -1      2896 1.06785E+02 7.79695E+00 0.00000E+00
 -1      2897 1.06035E+02 8.98964E+00 0.00000E+00
 -1      2898 1.11285E+02 7.79695E+00 0.00000E+00
 -1      2899 1.09785E+02 7.79695E+00 0.00000E+00
 -1      2900 1.09035E+02 8.98964E+00 0.00000E+00
 -1      2901 1.14285E+02 7.79695E+00 0.00000E+00
 -1      2902 1.12785E+02 7.79695E+00 0.00000E+00
 -1      2903 1.12035E+02 8.98964E+00 0.00000E+00
 -1      2904 1.17285E+02 7.79695E+00 0.00000E+00
 -1      2905 1.15785E+02 7.79695E+00 0.00000E+00
 -1      2906 1.15035E+02 8.98964E+00 0.00000E+00
 -1      2907 1.20285E+02 7.79695E+00 0.00000E+00
 -1      2908 1.18785E+02 7.79695E+00 0.00000E+00
 -1      2909 1.18035E+02 8.98964E+00 0.00000E+00
 -1      2910 1.23285E+02 7.79695E+00 0.00000E+00
 -1      2911 1.21785E+02 7.79695E+00 0.00000E+00
 -1      2912 1.21035E+02 8.98964E+00 0.00000E+00
 -1      2913 1.26285E+02 7.79695E+00 0.00000E+00
 -1      2914 1.24785E+02 7.79695E+00 0.00000E+00
 -1      2915 1.24035E+02 8.98964E+00 0.00000E+00
 -1      2916 1.29285E+02 7.79695E+00 0.00000E+00
 -1      2917 1.27785E+02 7.79695E+00 0.00000E+00
 -1      2918 1.27035E+02 8.98964E+00 0.00000E+00
 -1      2919 1.32285E+02 7.79695E+00 0.00000E+00
 -1      2920 1.30785E+02 7.79695E+00 0.00000E+00
 -1      2921 1.30035E+02 8.98964E+00 0.00000E+00
 -1      2922 1.35285E+02 7.79695E+00 0.00000E+00
 -1      2923 1.33785E+02 7.79695E+00 0.00000E+00
 -1      2924 1.33035E+02 8.98964E+00 0.00000E+00
 -1      2925 1.38285E+02 7.79695E+00 0.00000E+00
 -1      2926 1.36785E+02 7.79695E+00 0.00000E+00
 -1      2927 1.36035E+02 8.98964E+00 0.00000E+00
 -1      2928 1.40953E+02 8.13079E+00 0.00000E+00
 -1      2929 1.39453E+02 8.13079E+00 0.00000E+00
 -1      2930 1.38703E+02 9.32348E+00 0.00000E+00
 -1      2931 1.41038E+02 9.99116E+00 0.00000E+00
 -1      2932 1.40907E+02 2.42875E+01 0.00000E+00
 -1      2933 1.40907E+02 2.28125E+01 0.00000E+00
 -1      2934 1.39914E+02 4.09362E+01 0.00000E+00
 -1      2935 1.40928E+02 4.09655E+01 0.00000E+00
 -1      2936 1.39164E+02 3.96372E+01 0.00000E+00
 -1      2937 1.40907E+02 1.83875E+01 0.00000E+00
 -1      2938 1.40907E+02 1.69125E+01 0.00000E+00
 -1      2939 1.40907E+02 2.72375E+01 0.00000E+00
 -1      2940 1.40907E+02 2.57625E+01 0.00000E+00
 -1      2941 1.39608E+02 2.50250E+01 0.00000E+00
 -1      2942 1.40907E+02 2.13375E+01 0.00000E+00
 -1      2943 1.40907E+02 1.98625E+01 0.00000E+00
 -1      2944 1.39608E+02 1.91250E+01 0.00000E+00
 -1      2945 1.39608E+02 2.20750E+01 0.00000E+00
 -1      2946 6.36340E+01 3.24323E+01 0.00000E+00
 -1      2947 6.26755E+01 3.29205E+01 0.00000E+00
 -1      2948 1.40907E+02 3.01375E+01 0.00000E+00
 -1      2949 1.40907E+02 2.86875E+01 0.00000E+00
 -1      2950 1.39608E+02 2.79500E+01 0.00000E+00
 -1      2951 1.40907E+02 3.30875E+01 0.00000E+00
 -1      2952 1.40907E+02 3.16125E+01 0.00000E+00
 -1      2953 1.39608E+02 3.08750E+01 0.00000E+00
 -1      2954 1.40907E+02 3.60375E+01 0.00000E+00
 -1      2955 1.40907E+02 3.45625E+01 0.00000E+00
 -1      2956 1.39608E+02 3.38250E+01 0.00000E+00
 -1      2957 7.00991E+01 1.82301E+01 0.00000E+00
 -1      2958 7.03725E+01 1.92425E+01 0.00000E+00
 -1      2959 7.05026E+01 2.34975E+01 0.00000E+00
 -1      2960 7.02604E+01 2.45203E+01 0.00000E+00
 -1      2961 7.85850E+00 3.92077E+01 0.00000E+00
 -1      2962 6.35157E+01 1.05880E+01 0.00000E+00
 -1      2963 6.46138E+01 1.10031E+01 0.00000E+00
 -1      2964 4.67936E+01 1.85198E+01 0.00000E+00
 -1      2965 4.73114E+01 1.73192E+01 0.00000E+00
 -1      2966 4.86910E+01 2.85501E+01 0.00000E+00
 -1      2967 4.78572E+01 2.75551E+01 0.00000E+00
 -1      2968 1.82850E+01 7.90325E+00 0.00000E+00
 -1      2969 1.67850E+01 7.90325E+00 0.00000E+00
 -1      2970 1.60350E+01 9.20225E+00 0.00000E+00
 -1      2971 1.90350E+01 9.20225E+00 0.00000E+00
 -1      2972 2.72850E+01 7.90325E+00 0.00000E+00
 -1      2973 2.57850E+01 7.90325E+00 0.00000E+00
 -1      2974 2.50350E+01 9.20225E+00 0.00000E+00
 -1      2975 2.80350E+01 9.20225E+00 0.00000E+00
 -1      2976 1.14000E+01 4.09070E+01 0.00000E+00
 -1      2977 1.29000E+01 4.09070E+01 0.00000E+00
 -1      2978 1.36500E+01 3.96080E+01 0.00000E+00
 -1      2979 9.09300E+00 1.68813E+01 0.00000E+00
 -1      2980 9.09300E+00 1.83563E+01 0.00000E+00
 -1      2981 1.03920E+01 1.90812E+01 0.00000E+00
 -1      2982 1.03920E+01 1.61437E+01 0.00000E+00
 -1      2983 6.60800E+01 1.17600E+01 0.00000E+00
 -1      2984 6.70333E+01 1.26874E+01 0.00000E+00
 -1      2985 6.90838E+01 1.58604E+01 0.00000E+00
 -1      2986 6.96911E+01 1.69359E+01 0.00000E+00
 -1      2987 9.09300E+00 3.15875E+01 0.00000E+00
 -1      2988 9.09300E+00 3.30625E+01 0.00000E+00
 -1      2989 6.56695E+01 3.12101E+01 0.00000E+00
 -1      2990 6.46822E+01 3.18335E+01 0.00000E+00
 -1      2991 5.01046E+01 3.01852E+01 0.00000E+00
 -1      2992 4.93978E+01 2.93676E+01 0.00000E+00
 -1      2993 4.81952E+01 2.95286E+01 0.00000E+00
 -1      2994 5.89038E+01 3.37867E+01 0.00000E+00
 -1      2995 5.75898E+01 3.34740E+01 0.00000E+00
 -1      2996 5.09195E+01 1.09700E+01 0.00000E+00
 -1      2997 5.18582E+01 1.04076E+01 0.00000E+00
 -1      2998 4.77059E+01 1.62575E+01 0.00000E+00
 -1      2999 4.81004E+01 1.51959E+01 0.00000E+00
 -1      3000 4.66596E+01 1.65183E+01 0.00000E+00
 -1      3001 4.61871E+01 2.08473E+01 0.00000E+00
 -1      3002 4.63218E+01 1.98392E+01 0.00000E+00
 -1      3003 4.72475E+01 2.63116E+01 0.00000E+00
 -1      3004 4.68565E+01 2.54366E+01 0.00000E+00
 -1      3005 1.41192E+02 3.96958E+01 0.00000E+00
 -1      3006 6.96704E+01 2.57441E+01 0.00000E+00
 -1      3007 6.90641E+01 2.67857E+01 0.00000E+00
 -1      3008 5.21637E+01 3.18095E+01 0.00000E+00
 -1      3009 5.12186E+01 3.11912E+01 0.00000E+00
 -1      3010 6.15362E+01 9.57604E+00 0.00000E+00
 -1      3011 6.25844E+01 9.95772E+00 0.00000E+00
 -1      3012 6.15779E+01 3.33207E+01 0.00000E+00
 -1      3013 6.05731E+01 3.37122E+01 0.00000E+00
 -1      3014 6.78962E+01 1.38381E+01 0.00000E+00
 -1      3015 6.85081E+01 1.47578E+01 0.00000E+00
 -1      3016 5.63565E+01 3.32230E+01 0.00000E+00
 -1      3017 5.53629E+01 3.29247E+01 0.00000E+00
 -1      3018 5.45880E+01 3.36643E+01 0.00000E+00
 -1      3019 5.28685E+01 9.89655E+00 0.00000E+00
 -1      3020 9.09300E+00 3.45313E+01 0.00000E+00
 -1      3021 9.09300E+00 3.60000E+01 0.00000E+00
 -1      3022 1.03920E+01 3.37938E+01 0.00000E+00
 -1      3023 1.03920E+01 2.49750E+01 0.00000E+00
 -1      3024 9.09300E+00 2.57000E+01 0.00000E+00
 -1      3025 9.09300E+00 2.71750E+01 0.00000E+00
 -1      3026 9.66450E+00 9.72612E+00 0.00000E+00
 -1      3027 5.23622E+01 3.28622E+01 0.00000E+00
 -1      3028 6.94761E+01 2.76185E+01 0.00000E+00
 -1      3029 6.81928E+01 1.25795E+01 0.00000E+00
 -1      3030 1.39608E+02 1.61875E+01 0.00000E+00
 -1      3031 1.40907E+02 1.54500E+01 0.00000E+00
 -1      3032 1.40907E+02 1.39875E+01 0.00000E+00
 -1      3033 6.65926E+01 3.13149E+01 0.00000E+00
 -1      3034 5.68149E+01 3.42136E+01 0.00000E+00
 -1      3035 5.00160E+01 3.13522E+01 0.00000E+00
 -1      3036 6.07862E+01 8.55092E+00 0.00000E+00
 -1      3037 6.40350E+01 8.82207E+00 0.00000E+00
 -1      3038 6.46302E+01 3.29165E+01 0.00000E+00
 -1      3039 1.40973E+02 1.27206E+01 0.00000E+00
 -1      3040 1.40973E+02 1.12581E+01 0.00000E+00
 -1      3041 1.39805E+02 1.09242E+01 0.00000E+00
 -1      3042 1.39674E+02 1.34581E+01 0.00000E+00
 -1      3043 6.24844E+01 3.39153E+01 0.00000E+00
 -1      3044 7.10924E+01 1.99296E+01 0.00000E+00
 -1      3045 7.18123E+01 2.06168E+01 0.00000E+00
 -1      3046 7.17432E+01 1.92108E+01 0.00000E+00
 -1      3047 7.06152E+01 1.72295E+01 0.00000E+00
 -1      3048 1.41192E+02 3.82207E+01 0.00000E+00
 -1      3049 7.06260E+01 2.54304E+01 0.00000E+00
 -1      3050 4.68787E+01 2.74675E+01 0.00000E+00
 -1      3051 9.15750E+00 3.77359E+01 0.00000E+00
 -1      3052 9.22200E+00 4.02061E+01 0.00000E+00
 -1      3053 1.05855E+01 4.04701E+01 0.00000E+00
 -1      3054 1.04565E+01 3.69984E+01 0.00000E+00
 -1      3055 5.86796E+01 9.40487E+00 0.00000E+00
 -1      3056 5.99959E+01 9.59517E+00 0.00000E+00
 -1      3057 4.57932E+01 1.88992E+01 0.00000E+00
 -1      3058 7.11888E+01 2.27711E+01 0.00000E+00
 -1      3059 7.19021E+01 2.34801E+01 0.00000E+00
 -1      3060 7.18749E+01 2.20446E+01 0.00000E+00
 -1      3061 4.60666E+01 2.47874E+01 0.00000E+00
 -1      3062 4.52767E+01 2.41382E+01 0.00000E+00
 -1      3063 4.54792E+01 2.55748E+01 0.00000E+00
 -1      3064 1.13355E+01 3.91711E+01 0.00000E+00
 -1      3065 9.09300E+00 2.86437E+01 0.00000E+00
 -1      3066 9.09300E+00 3.01187E+01 0.00000E+00
 -1      3067 1.03920E+01 3.08563E+01 0.00000E+00
 -1      3068 1.03920E+01 2.79188E+01 0.00000E+00
 -1      3069 4.81415E+01 1.41680E+01 0.00000E+00
 -1      3070 4.81826E+01 1.31401E+01 0.00000E+00
 -1      3071 4.70951E+01 1.44287E+01 0.00000E+00
 -1      3072 5.87447E+01 7.64850E+00 0.00000E+00
 -1      3073 6.58637E+01 1.06719E+01 0.00000E+00
 -1      3074 1.09635E+01 1.04636E+01 0.00000E+00
 -1      3075 6.96314E+01 1.48327E+01 0.00000E+00
 -1      3076 1.39529E+02 3.85602E+01 0.00000E+00
 -1      3077 1.40542E+02 3.71145E+01 0.00000E+00
 -1      3078 1.39243E+02 3.63770E+01 0.00000E+00
 -1      3079 1.38514E+02 3.85310E+01 0.00000E+00
 -1      3080 4.98820E+01 1.10408E+01 0.00000E+00
 -1      3081 5.97175E+01 3.43900E+01 0.00000E+00
 -1      3082 5.88620E+01 3.50679E+01 0.00000E+00
 -1      3083 6.05313E+01 3.49933E+01 0.00000E+00
 -1      3084 4.55928E+01 2.17847E+01 0.00000E+00
 -1      3085 4.47271E+01 2.11559E+01 0.00000E+00
 -1      3086 4.49985E+01 2.27220E+01 0.00000E+00
 -1      3087 5.25585E+01 3.41405E+01 0.00000E+00
 -1      3088 5.13263E+01 3.36366E+01 0.00000E+00
 -1      3089 1.16910E+01 1.24625E+01 0.00000E+00
 -1      3090 1.16910E+01 1.39375E+01 0.00000E+00
 -1      3091 1.29000E+01 3.83090E+01 0.00000E+00
 -1      3092 1.44000E+01 3.83090E+01 0.00000E+00
 -1      3093 1.89000E+01 3.83090E+01 0.00000E+00
 -1      3094 2.04000E+01 3.83090E+01 0.00000E+00
 -1      3095 2.19000E+01 3.83090E+01 0.00000E+00
 -1      3096 2.34000E+01 3.83090E+01 0.00000E+00
 -1      3097 2.11500E+01 3.70100E+01 0.00000E+00
 -1      3098 2.49000E+01 3.83090E+01 0.00000E+00
 -1      3099 2.64000E+01 3.83090E+01 0.00000E+00
 -1      3100 2.41500E+01 3.70100E+01 0.00000E+00
 -1      3101 2.79000E+01 3.83090E+01 0.00000E+00
 -1      3102 2.94000E+01 3.83090E+01 0.00000E+00
 -1      3103 2.71500E+01 3.70100E+01 0.00000E+00
 -1      3104 3.09000E+01 3.83090E+01 0.00000E+00
 -1      3105 3.24000E+01 3.83090E+01 0.00000E+00
 -1      3106 3.01500E+01 3.70100E+01 0.00000E+00
 -1      3107 3.39000E+01 3.83090E+01 0.00000E+00
 -1      3108 3.54000E+01 3.83090E+01 0.00000E+00
 -1      3109 3.31500E+01 3.70100E+01 0.00000E+00
 -1      3110 3.69000E+01 3.83090E+01 0.00000E+00
 -1      3111 3.84000E+01 3.83090E+01 0.00000E+00
 -1      3112 3.61500E+01 3.70100E+01 0.00000E+00
 -1      3113 3.99000E+01 3.83090E+01 0.00000E+00
 -1      3114 4.14000E+01 3.83090E+01 0.00000E+00
 -1      3115 3.91500E+01 3.70100E+01 0.00000E+00
 -1      3116 4.29000E+01 3.83090E+01 0.00000E+00
 -1      3117 4.44000E+01 3.83090E+01 0.00000E+00
 -1      3118 4.21500E+01 3.70100E+01 0.00000E+00
 -1      3119 4.59000E+01 3.83090E+01 0.00000E+00
 -1      3120 4.74000E+01 3.83090E+01 0.00000E+00
 -1      3121 4.51500E+01 3.70100E+01 0.00000E+00
 -1      3122 4.89000E+01 3.83090E+01 0.00000E+00
 -1      3123 5.04000E+01 3.83090E+01 0.00000E+00
 -1      3124 4.81500E+01 3.70100E+01 0.00000E+00
 -1      3125 5.13363E+01 3.72615E+01 0.00000E+00
 -1      3126 5.28363E+01 3.72615E+01 0.00000E+00
 -1      3127 5.79000E+01 3.83315E+01 0.00000E+00
 -1      3128 5.94000E+01 3.83315E+01 0.00000E+00
 -1      3129 6.39000E+01 3.83090E+01 0.00000E+00
 -1      3130 6.54000E+01 3.83090E+01 0.00000E+00
 -1      3131 6.69000E+01 3.83090E+01 0.00000E+00
 -1      3132 6.84000E+01 3.83090E+01 0.00000E+00
 -1      3133 6.61500E+01 3.70100E+01 0.00000E+00
 -1      3134 6.99000E+01 3.83090E+01 0.00000E+00
 -1      3135 7.14000E+01 3.83090E+01 0.00000E+00
 -1      3136 6.91500E+01 3.70100E+01 0.00000E+00
 -1      3137 7.29000E+01 3.83090E+01 0.00000E+00
 -1      3138 7.44000E+01 3.83090E+01 0.00000E+00
 -1      3139 7.21500E+01 3.70100E+01 0.00000E+00
 -1      3140 7.59000E+01 3.83090E+01 0.00000E+00
 -1      3141 7.74000E+01 3.83090E+01 0.00000E+00
 -1      3142 7.51500E+01 3.70100E+01 0.00000E+00
 -1      3143 7.89000E+01 3.83090E+01 0.00000E+00
 -1      3144 8.04000E+01 3.83090E+01 0.00000E+00
 -1      3145 7.81500E+01 3.70100E+01 0.00000E+00
 -1      3146 8.19000E+01 3.83090E+01 0.00000E+00
 -1      3147 8.34000E+01 3.83090E+01 0.00000E+00
 -1      3148 8.11500E+01 3.70100E+01 0.00000E+00
 -1      3149 8.49000E+01 3.83090E+01 0.00000E+00
 -1      3150 8.64000E+01 3.83090E+01 0.00000E+00
 -1      3151 8.41500E+01 3.70100E+01 0.00000E+00
 -1      3152 8.79000E+01 3.83090E+01 0.00000E+00
 -1      3153 8.94000E+01 3.83090E+01 0.00000E+00
 -1      3154 8.71500E+01 3.70100E+01 0.00000E+00
 -1      3155 9.09000E+01 3.83090E+01 0.00000E+00
 -1      3156 9.24000E+01 3.83090E+01 0.00000E+00
 -1      3157 9.01500E+01 3.70100E+01 0.00000E+00
 -1      3158 9.39000E+01 3.83090E+01 0.00000E+00
 -1      3159 9.54000E+01 3.83090E+01 0.00000E+00
 -1      3160 9.31500E+01 3.70100E+01 0.00000E+00
 -1      3161 9.69000E+01 3.83090E+01 0.00000E+00
 -1      3162 9.84000E+01 3.83090E+01 0.00000E+00
 -1      3163 9.61500E+01 3.70100E+01 0.00000E+00
 -1      3164 9.99000E+01 3.83090E+01 0.00000E+00
 -1      3165 1.01400E+02 3.83090E+01 0.00000E+00
 -1      3166 9.91500E+01 3.70100E+01 0.00000E+00
 -1      3167 1.02900E+02 3.83090E+01 0.00000E+00
 -1      3168 1.04400E+02 3.83090E+01 0.00000E+00
 -1      3169 1.02150E+02 3.70100E+01 0.00000E+00
 -1      3170 1.05900E+02 3.83090E+01 0.00000E+00
 -1      3171 1.07400E+02 3.83090E+01 0.00000E+00
 -1      3172 1.05150E+02 3.70100E+01 0.00000E+00
 -1      3173 1.08900E+02 3.83090E+01 0.00000E+00
 -1      3174 1.10400E+02 3.83090E+01 0.00000E+00
 -1      3175 1.08150E+02 3.70100E+01 0.00000E+00
 -1      3176 1.11900E+02 3.83090E+01 0.00000E+00
 -1      3177 1.13400E+02 3.83090E+01 0.00000E+00
 -1      3178 1.11150E+02 3.70100E+01 0.00000E+00
 -1      3179 1.14900E+02 3.83090E+01 0.00000E+00
 -1      3180 1.16400E+02 3.83090E+01 0.00000E+00
 -1      3181 1.14150E+02 3.70100E+01 0.00000E+00
 -1      3182 1.17900E+02 3.83090E+01 0.00000E+00
 -1      3183 1.19400E+02 3.83090E+01 0.00000E+00
 -1      3184 1.17150E+02 3.70100E+01 0.00000E+00
 -1      3185 1.20900E+02 3.83090E+01 0.00000E+00
 -1      3186 1.22400E+02 3.83090E+01 0.00000E+00
 -1      3187 1.20150E+02 3.70100E+01 0.00000E+00
 -1      3188 1.23900E+02 3.83090E+01 0.00000E+00
 -1      3189 1.25400E+02 3.83090E+01 0.00000E+00
 -1      3190 1.23150E+02 3.70100E+01 0.00000E+00
 -1      3191 1.26900E+02 3.83090E+01 0.00000E+00
 -1      3192 1.28400E+02 3.83090E+01 0.00000E+00
 -1      3193 1.26150E+02 3.70100E+01 0.00000E+00
 -1      3194 1.29900E+02 3.83090E+01 0.00000E+00
 -1      3195 1.31400E+02 3.83090E+01 0.00000E+00
 -1      3196 1.29150E+02 3.70100E+01 0.00000E+00
 -1      3197 1.32900E+02 3.83090E+01 0.00000E+00
 -1      3198 1.34400E+02 3.83090E+01 0.00000E+00
 -1      3199 1.32150E+02 3.70100E+01 0.00000E+00
 -1      3200 1.35707E+02 3.84200E+01 0.00000E+00
 -1      3201 1.37207E+02 3.84200E+01 0.00000E+00
 -1      3202 1.37572E+02 3.73430E+01 0.00000E+00
 -1      3203 1.34957E+02 3.71210E+01 0.00000E+00
 -1      3204 2.27850E+01 1.05013E+01 0.00000E+00
 -1      3205 2.12850E+01 1.05013E+01 0.00000E+00
 -1      3206 3.47850E+01 1.05013E+01 0.00000E+00
 -1      3207 3.32850E+01 1.05013E+01 0.00000E+00
 -1      3208 3.17850E+01 1.05013E+01 0.00000E+00
 -1      3209 3.02850E+01 1.05013E+01 0.00000E+00
 -1      3210 3.25350E+01 1.18003E+01 0.00000E+00
 -1      3211 4.07850E+01 1.05013E+01 0.00000E+00
 -1      3212 3.92850E+01 1.05013E+01 0.00000E+00
 -1      3213 4.37850E+01 1.05013E+01 0.00000E+00
 -1      3214 4.22850E+01 1.05013E+01 0.00000E+00
 -1      3215 4.15350E+01 1.18003E+01 0.00000E+00
 -1      3216 4.73356E+01 1.13015E+01 0.00000E+00
 -1      3217 4.58356E+01 1.13015E+01 0.00000E+00
 -1      3218 4.83820E+01 1.10408E+01 0.00000E+00
 -1      3219 4.77097E+01 3.06626E+01 0.00000E+00
 -1      3220 4.70029E+01 2.98451E+01 0.00000E+00
 -1      3221 6.02447E+01 7.64850E+00 0.00000E+00
 -1      3222 7.67850E+01 1.02886E+01 0.00000E+00
 -1      3223 7.52850E+01 1.02886E+01 0.00000E+00
 -1      3224 7.97850E+01 1.02886E+01 0.00000E+00
 -1      3225 7.82850E+01 1.02886E+01 0.00000E+00
 -1      3226 7.75350E+01 1.15876E+01 0.00000E+00
 -1      3227 8.27850E+01 1.02886E+01 0.00000E+00
 -1      3228 8.12850E+01 1.02886E+01 0.00000E+00
 -1      3229 8.05350E+01 1.15876E+01 0.00000E+00
 -1      3230 8.57850E+01 1.02886E+01 0.00000E+00
 -1      3231 8.42850E+01 1.02886E+01 0.00000E+00
 -1      3232 8.35350E+01 1.15876E+01 0.00000E+00
 -1      3233 8.87850E+01 1.02886E+01 0.00000E+00
 -1      3234 8.72850E+01 1.02886E+01 0.00000E+00
 -1      3235 8.65350E+01 1.15876E+01 0.00000E+00
 -1      3236 9.17850E+01 1.02886E+01 0.00000E+00
 -1      3237 9.02850E+01 1.02886E+01 0.00000E+00
 -1      3238 8.95350E+01 1.15876E+01 0.00000E+00
 -1      3239 9.47850E+01 1.02886E+01 0.00000E+00
 -1      3240 9.32850E+01 1.02886E+01 0.00000E+00
 -1      3241 9.25350E+01 1.15876E+01 0.00000E+00
 -1      3242 9.77850E+01 1.02886E+01 0.00000E+00
 -1      3243 9.62850E+01 1.02886E+01 0.00000E+00
 -1      3244 9.55350E+01 1.15876E+01 0.00000E+00
 -1      3245 1.00785E+02 1.02886E+01 0.00000E+00
 -1      3246 9.92850E+01 1.02886E+01 0.00000E+00
 -1      3247 9.85350E+01 1.15876E+01 0.00000E+00
 -1      3248 1.03785E+02 1.02886E+01 0.00000E+00
 -1      3249 1.02285E+02 1.02886E+01 0.00000E+00
 -1      3250 1.01535E+02 1.15876E+01 0.00000E+00
 -1      3251 1.06785E+02 1.02886E+01 0.00000E+00
 -1      3252 1.05285E+02 1.02886E+01 0.00000E+00
 -1      3253 1.04535E+02 1.15876E+01 0.00000E+00
 -1      3254 1.09785E+02 1.02886E+01 0.00000E+00
 -1      3255 1.08285E+02 1.02886E+01 0.00000E+00
 -1      3256 1.07535E+02 1.15876E+01 0.00000E+00
 -1      3257 1.12785E+02 1.02886E+01 0.00000E+00
 -1      3258 1.11285E+02 1.02886E+01 0.00000E+00
 -1      3259 1.10535E+02 1.15876E+01 0.00000E+00
 -1      3260 1.15785E+02 1.02886E+01 0.00000E+00
 -1      3261 1.14285E+02 1.02886E+01 0.00000E+00
 -1      3262 1.13535E+02 1.15876E+01 0.00000E+00
 -1      3263 1.18785E+02 1.02886E+01 0.00000E+00
 -1      3264 1.17285E+02 1.02886E+01 0.00000E+00
 -1      3265 1.16535E+02 1.15876E+01 0.00000E+00
 -1      3266 1.21785E+02 1.02886E+01 0.00000E+00
 -1      3267 1.20285E+02 1.02886E+01 0.00000E+00
 -1      3268 1.19535E+02 1.15876E+01 0.00000E+00
 -1      3269 1.24785E+02 1.02886E+01 0.00000E+00
 -1      3270 1.23285E+02 1.02886E+01 0.00000E+00
 -1      3271 1.22535E+02 1.15876E+01 0.00000E+00
 -1      3272 1.27785E+02 1.02886E+01 0.00000E+00
 -1      3273 1.26285E+02 1.02886E+01 0.00000E+00
 -1      3274 1.25535E+02 1.15876E+01 0.00000E+00
 -1      3275 1.30785E+02 1.02886E+01 0.00000E+00
 -1      3276 1.29285E+02 1.02886E+01 0.00000E+00
 -1      3277 1.28535E+02 1.15876E+01 0.00000E+00
 -1      3278 1.33785E+02 1.02886E+01 0.00000E+00
 -1      3279 1.32285E+02 1.02886E+01 0.00000E+00
 -1      3280 1.31535E+02 1.15876E+01 0.00000E+00
 -1      3281 1.36785E+02 1.02886E+01 0.00000E+00
 -1      3282 1.35285E+02 1.02886E+01 0.00000E+00
 -1      3283 1.34535E+02 1.15876E+01 0.00000E+00
 -1      3284 1.38879E+02 1.07734E+01 0.00000E+00
 -1      3285 1.37711E+02 1.04395E+01 0.00000E+00
 -1      3286 1.36961E+02 1.17385E+01 0.00000E+00
 -1      3287 1.38813E+02 1.20403E+01 0.00000E+00
 -1      3288 6.33843E+01 3.46784E+01 0.00000E+00
 -1      3289 6.22868E+01 3.50785E+01 0.00000E+00
 -1      3290 1.16910E+01 2.12875E+01 0.00000E+00
 -1      3291 1.16910E+01 2.27625E+01 0.00000E+00
 -1      3292 6.86485E+01 1.13389E+01 0.00000E+00
 -1      3293 6.95114E+01 1.24895E+01 0.00000E+00
 -1      3294 1.38309E+02 2.57625E+01 0.00000E+00
 -1      3295 1.38309E+02 2.42875E+01 0.00000E+00
 -1      3296 1.38309E+02 3.45625E+01 0.00000E+00
 -1      3297 1.38309E+02 3.30875E+01 0.00000E+00
 -1      3298 1.38309E+02 2.86625E+01 0.00000E+00
 -1      3299 1.38309E+02 2.72125E+01 0.00000E+00
 -1      3300 1.37010E+02 2.64750E+01 0.00000E+00
 -1      3301 7.12290E+01 1.63245E+01 0.00000E+00
 -1      3302 7.16371E+01 1.76187E+01 0.00000E+00
 -1      3303 7.05701E+01 2.76090E+01 0.00000E+00
 -1      3304 7.00101E+01 2.85733E+01 0.00000E+00
 -1      3305 6.34663E+01 9.28476E+00 0.00000E+00
 -1      3306 4.98297E+01 3.26782E+01 0.00000E+00
 -1      3307 4.87157E+01 3.16722E+01 0.00000E+00
 -1      3308 4.47498E+01 1.92701E+01 0.00000E+00
 -1      3309 4.52217E+01 1.79508E+01 0.00000E+00
 -1      3310 1.38309E+02 3.16125E+01 0.00000E+00
 -1      3311 1.38309E+02 3.01375E+01 0.00000E+00
 -1      3312 1.37010E+02 2.94000E+01 0.00000E+00
 -1      3313 1.37010E+02 3.23500E+01 0.00000E+00
 -1      3314 7.37850E+01 1.02886E+01 0.00000E+00
 -1      3315 7.22850E+01 1.02886E+01 0.00000E+00
 -1      3316 7.45350E+01 1.15876E+01 0.00000E+00
 -1      3317 7.07510E+01 1.01193E+01 0.00000E+00
 -1      3318 6.92510E+01 1.01193E+01 0.00000E+00
 -1      3319 6.57044E+01 3.35800E+01 0.00000E+00
 -1      3320 6.46561E+01 3.41787E+01 0.00000E+00
 -1      3321 3.77850E+01 1.05013E+01 0.00000E+00
 -1      3322 3.62850E+01 1.05013E+01 0.00000E+00
 -1      3323 3.55350E+01 1.18003E+01 0.00000E+00
 -1      3324 3.85350E+01 1.18003E+01 0.00000E+00
 -1      3325 5.72104E+01 3.54257E+01 0.00000E+00
 -1      3326 5.59771E+01 3.51747E+01 0.00000E+00
 -1      3327 6.78072E+01 3.15040E+01 0.00000E+00
 -1      3328 6.68931E+01 3.25069E+01 0.00000E+00
 -1      3329 6.92167E+01 2.97747E+01 0.00000E+00
 -1      3330 6.85120E+01 3.06394E+01 0.00000E+00
 -1      3331 6.88126E+01 3.18314E+01 0.00000E+00
 -1      3332 1.59000E+01 3.83090E+01 0.00000E+00
 -1      3333 1.74000E+01 3.83090E+01 0.00000E+00
 -1      3334 1.81500E+01 3.70100E+01 0.00000E+00
 -1      3335 4.55014E+01 1.66920E+01 0.00000E+00
 -1      3336 4.58959E+01 1.56304E+01 0.00000E+00
 -1      3337 1.12710E+01 3.74352E+01 0.00000E+00
 -1      3338 1.20855E+01 3.78721E+01 0.00000E+00
 -1      3339 1.12065E+01 3.56994E+01 0.00000E+00
 -1      3340 7.18444E+01 2.52636E+01 0.00000E+00
 -1      3341 7.12544E+01 2.64875E+01 0.00000E+00
 -1      3342 1.26488E+01 1.02017E+01 0.00000E+00
 -1      3343 1.20772E+01 1.14631E+01 0.00000E+00
 -1      3344 1.33763E+01 1.22006E+01 0.00000E+00
 -1      3345 1.41488E+01 1.02017E+01 0.00000E+00
 -1      3346 4.61879E+01 2.85775E+01 0.00000E+00
 -1      3347 4.55782E+01 2.73339E+01 0.00000E+00
 -1      3348 5.47646E+01 3.48068E+01 0.00000E+00
 -1      3349 5.37710E+01 3.45085E+01 0.00000E+00
 -1      3350 5.27351E+01 3.52829E+01 0.00000E+00
 -1      3351 5.51601E+01 3.60189E+01 0.00000E+00
 -1      3352 7.03265E+01 1.37682E+01 0.00000E+00
 -1      3353 7.09022E+01 1.48707E+01 0.00000E+00
 -1      3354 1.16910E+01 2.42375E+01 0.00000E+00
 -1      3355 1.16910E+01 2.57125E+01 0.00000E+00
 -1      3356 1.29900E+01 2.35000E+01 0.00000E+00
 -1      3357 1.29900E+01 1.46687E+01 0.00000E+00
 -1      3358 1.16910E+01 1.54063E+01 0.00000E+00
 -1      3359 1.16910E+01 1.68750E+01 0.00000E+00
 -1      3360 1.51500E+01 3.70100E+01 0.00000E+00
 -1      3361 4.40975E+01 2.77946E+01 0.00000E+00
 -1      3362 4.47883E+01 2.66847E+01 0.00000E+00
 -1      3363 4.39985E+01 2.60355E+01 0.00000E+00
 -1      3364 1.16910E+01 1.83469E+01 0.00000E+00
 -1      3365 1.16910E+01 1.98156E+01 0.00000E+00
 -1      3366 1.29900E+01 2.05531E+01 0.00000E+00
 -1      3367 1.29900E+01 1.76094E+01 0.00000E+00
 -1      3368 1.38309E+02 1.69188E+01 0.00000E+00
 -1      3369 1.38309E+02 1.54563E+01 0.00000E+00
 -1      3370 1.56488E+01 1.02017E+01 0.00000E+00
 -1      3371 1.52625E+01 1.12011E+01 0.00000E+00
 -1      3372 1.71488E+01 1.02017E+01 0.00000E+00
 -1      3373 6.09183E+01 3.64483E+01 0.00000E+00
 -1      3374 6.16683E+01 3.77248E+01 0.00000E+00
 -1      3375 5.52613E+01 3.79974E+01 0.00000E+00
 -1      3376 5.67613E+01 3.79974E+01 0.00000E+00
 -1      3377 6.31683E+01 3.77248E+01 0.00000E+00
 -1      3378 5.80242E+01 3.60290E+01 0.00000E+00
 -1      3379 1.16910E+01 3.01219E+01 0.00000E+00
 -1      3380 1.16910E+01 3.15906E+01 0.00000E+00
 -1      3381 7.19241E+01 1.52599E+01 0.00000E+00
 -1      3382 7.03107E+01 2.97653E+01 0.00000E+00
 -1      3383 2.95350E+01 1.18003E+01 0.00000E+00
 -1      3384 2.87850E+01 1.05013E+01 0.00000E+00
 -1      3385 2.72850E+01 1.05013E+01 0.00000E+00
 -1      3386 4.50856E+01 1.26005E+01 0.00000E+00
 -1      3387 4.75234E+01 3.19886E+01 0.00000E+00
 -1      3388 1.14487E+01 3.29106E+01 0.00000E+00
 -1      3389 1.14487E+01 3.43794E+01 0.00000E+00
 -1      3390 1.22633E+01 3.48162E+01 0.00000E+00
 -1      3391 1.27478E+01 3.21763E+01 0.00000E+00
 -1      3392 4.41555E+01 2.02075E+01 0.00000E+00
 -1      3393 4.35840E+01 1.92590E+01 0.00000E+00
 -1      3394 4.35613E+01 2.11448E+01 0.00000E+00
 -1      3395 6.79324E+01 1.02093E+01 0.00000E+00
 -1      3396 6.64324E+01 1.02093E+01 0.00000E+00
 -1      3397 6.44585E+01 3.53419E+01 0.00000E+00
 -1      3398 1.38309E+02 1.83937E+01 0.00000E+00
 -1      3399 1.37010E+02 1.76625E+01 0.00000E+00
 -1      3400 1.38309E+02 1.98687E+01 0.00000E+00
 -1      3401 4.57024E+01 2.97115E+01 0.00000E+00
 -1      3402 7.07822E+01 1.25275E+01 0.00000E+00
 -1      3403 7.15010E+01 1.14183E+01 0.00000E+00
 -1      3404 1.38309E+02 2.28156E+01 0.00000E+00
 -1      3405 1.38309E+02 2.13406E+01 0.00000E+00
 -1      3406 1.37010E+02 2.06094E+01 0.00000E+00
 -1      3407 1.37010E+02 2.35531E+01 0.00000E+00
 -1      3408 7.17885E+01 2.74423E+01 0.00000E+00
 -1      3409 7.23570E+01 1.83058E+01 0.00000E+00
 -1      3410 7.30769E+01 1.89929E+01 0.00000E+00
 -1      3411 7.29708E+01 1.74008E+01 0.00000E+00
 -1      3412 1.99669E+01 1.03515E+01 0.00000E+00
 -1      3413 1.84669E+01 1.03515E+01 0.00000E+00
 -1      3414 1.80806E+01 1.13509E+01 0.00000E+00
 -1      3415 2.07169E+01 1.16505E+01 0.00000E+00
 -1      3416 5.00261E+01 3.39566E+01 0.00000E+00
 -1      3417 4.44580E+01 1.70629E+01 0.00000E+00
 -1      3418 7.25257E+01 2.13258E+01 0.00000E+00
 -1      3419 7.32391E+01 2.20348E+01 0.00000E+00
 -1      3420 7.31765E+01 2.06069E+01 0.00000E+00
 -1      3421 7.32167E+01 2.38107E+01 0.00000E+00
 -1      3422 7.25306E+01 2.45372E+01 0.00000E+00
 -1      3423 7.31590E+01 2.55943E+01 0.00000E+00
 -1      3424 2.57850E+01 1.05013E+01 0.00000E+00
 -1      3425 2.42850E+01 1.05013E+01 0.00000E+00
 -1      3426 2.65350E+01 1.18003E+01 0.00000E+00
 -1      3427 6.69190E+01 3.37691E+01 0.00000E+00
 -1      3428 2.35350E+01 1.18003E+01 0.00000E+00
 -1      3429 4.44111E+01 2.35094E+01 0.00000E+00
 -1      3430 1.28355E+01 3.65731E+01 0.00000E+00
 -1      3431 6.49663E+01 9.45233E+00 0.00000E+00
 -1      3432 1.37758E+02 3.64912E+01 0.00000E+00
 -1      3433 1.38123E+02 3.54142E+01 0.00000E+00
 -1      3434 1.36824E+02 3.46768E+01 0.00000E+00
 -1      3435 1.36451E+02 3.63802E+01 0.00000E+00
 -1      3436 5.40488E+01 3.76295E+01 0.00000E+00
 -1      3437 5.05863E+01 3.59625E+01 0.00000E+00
 -1      3438 2.34000E+01 3.57110E+01 0.00000E+00
 -1      3439 2.49000E+01 3.57110E+01 0.00000E+00
 -1      3440 2.64000E+01 3.57110E+01 0.00000E+00
 -1      3441 2.79000E+01 3.57110E+01 0.00000E+00
 -1      3442 2.56500E+01 3.44120E+01 0.00000E+00
 -1      3443 2.94000E+01 3.57110E+01 0.00000E+00
 -1      3444 3.09000E+01 3.57110E+01 0.00000E+00
 -1      3445 2.86500E+01 3.44120E+01 0.00000E+00
 -1      3446 3.24000E+01 3.57110E+01 0.00000E+00
 -1      3447 3.39000E+01 3.57110E+01 0.00000E+00
 -1      3448 3.16500E+01 3.44120E+01 0.00000E+00
 -1      3449 3.54000E+01 3.57110E+01 0.00000E+00
 -1      3450 3.69000E+01 3.57110E+01 0.00000E+00
 -1      3451 3.46500E+01 3.44120E+01 0.00000E+00
 -1      3452 3.84000E+01 3.57110E+01 0.00000E+00
 -1      3453 3.99000E+01 3.57110E+01 0.00000E+00
 -1      3454 3.76500E+01 3.44120E+01 0.00000E+00
 -1      3455 4.14000E+01 3.57110E+01 0.00000E+00
 -1      3456 4.29000E+01 3.57110E+01 0.00000E+00
 -1      3457 4.06500E+01 3.44120E+01 0.00000E+00
 -1      3458 4.44000E+01 3.57110E+01 0.00000E+00
 -1      3459 4.59000E+01 3.57110E+01 0.00000E+00
 -1      3460 4.36500E+01 3.44120E+01 0.00000E+00
 -1      3461 6.39183E+01 3.64258E+01 0.00000E+00
 -1      3462 6.51901E+01 3.59261E+01 0.00000E+00
 -1      3463 4.90898E+01 3.50041E+01 0.00000E+00
 -1      3464 6.84000E+01 3.57110E+01 0.00000E+00
 -1      3465 6.99000E+01 3.57110E+01 0.00000E+00
 -1      3466 7.14000E+01 3.57110E+01 0.00000E+00
 -1      3467 7.29000E+01 3.57110E+01 0.00000E+00
 -1      3468 7.06500E+01 3.44120E+01 0.00000E+00
 -1      3469 7.44000E+01 3.57110E+01 0.00000E+00
 -1      3470 7.59000E+01 3.57110E+01 0.00000E+00
 -1      3471 7.36500E+01 3.44120E+01 0.00000E+00
 -1      3472 7.74000E+01 3.57110E+01 0.00000E+00
 -1      3473 7.89000E+01 3.57110E+01 0.00000E+00
 -1      3474 7.66500E+01 3.44120E+01 0.00000E+00
 -1      3475 8.04000E+01 3.57110E+01 0.00000E+00
 -1      3476 8.19000E+01 3.57110E+01 0.00000E+00
 -1      3477 7.96500E+01 3.44120E+01 0.00000E+00
 -1      3478 8.34000E+01 3.57110E+01 0.00000E+00
 -1      3479 8.49000E+01 3.57110E+01 0.00000E+00
 -1      3480 8.26500E+01 3.44120E+01 0.00000E+00
 -1      3481 8.64000E+01 3.57110E+01 0.00000E+00
 -1      3482 8.79000E+01 3.57110E+01 0.00000E+00
 -1      3483 8.56500E+01 3.44120E+01 0.00000E+00
 -1      3484 8.94000E+01 3.57110E+01 0.00000E+00
 -1      3485 9.09000E+01 3.57110E+01 0.00000E+00
 -1      3486 8.86500E+01 3.44120E+01 0.00000E+00
 -1      3487 9.24000E+01 3.57110E+01 0.00000E+00
 -1      3488 9.39000E+01 3.57110E+01 0.00000E+00
 -1      3489 9.16500E+01 3.44120E+01 0.00000E+00
 -1      3490 9.54000E+01 3.57110E+01 0.00000E+00
 -1      3491 9.69000E+01 3.57110E+01 0.00000E+00
 -1      3492 9.46500E+01 3.44120E+01 0.00000E+00
 -1      3493 9.84000E+01 3.57110E+01 0.00000E+00
 -1      3494 9.99000E+01 3.57110E+01 0.00000E+00
 -1      3495 9.76500E+01 3.44120E+01 0.00000E+00
 -1      3496 1.01400E+02 3.57110E+01 0.00000E+00
 -1      3497 1.02900E+02 3.57110E+01 0.00000E+00
 -1      3498 1.00650E+02 3.44120E+01 0.00000E+00
 -1      3499 1.04400E+02 3.57110E+01 0.00000E+00
 -1      3500 1.05900E+02 3.57110E+01 0.00000E+00
 -1      3501 1.03650E+02 3.44120E+01 0.00000E+00
 -1      3502 1.07400E+02 3.57110E+01 0.00000E+00
 -1      3503 1.08900E+02 3.57110E+01 0.00000E+00
 -1      3504 1.06650E+02 3.44120E+01 0.00000E+00
 -1      3505 1.10400E+02 3.57110E+01 0.00000E+00
 -1      3506 1.11900E+02 3.57110E+01 0.00000E+00
 -1      3507 1.09650E+02 3.44120E+01 0.00000E+00
 -1      3508 1.13400E+02 3.57110E+01 0.00000E+00
 -1      3509 1.14900E+02 3.57110E+01 0.00000E+00
 -1      3510 1.12650E+02 3.44120E+01 0.00000E+00
 -1      3511 1.16400E+02 3.57110E+01 0.00000E+00
 -1      3512 1.17900E+02 3.57110E+01 0.00000E+00
 -1      3513 1.15650E+02 3.44120E+01 0.00000E+00
 -1      3514 1.19400E+02 3.57110E+01 0.00000E+00
 -1      3515 1.20900E+02 3.57110E+01 0.00000E+00
 -1      3516 1.18650E+02 3.44120E+01 0.00000E+00
 -1      3517 1.22400E+02 3.57110E+01 0.00000E+00
 -1      3518 1.23900E+02 3.57110E+01 0.00000E+00
 -1      3519 1.21650E+02 3.44120E+01 0.00000E+00
 -1      3520 1.25400E+02 3.57110E+01 0.00000E+00
 -1      3521 1.26900E+02 3.57110E+01 0.00000E+00
 -1      3522 1.24650E+02 3.44120E+01 0.00000E+00
 -1      3523 1.28400E+02 3.57110E+01 0.00000E+00
 -1      3524 1.29900E+02 3.57110E+01 0.00000E+00
 -1      3525 1.27650E+02 3.44120E+01 0.00000E+00
 -1      3526 1.31400E+02 3.57110E+01 0.00000E+00
 -1      3527 1.32900E+02 3.57110E+01 0.00000E+00
 -1      3528 1.30650E+02 3.44120E+01 0.00000E+00
 -1      3529 1.16910E+01 2.86531E+01 0.00000E+00
 -1      3530 1.29900E+01 2.93875E+01 0.00000E+00
 -1      3531 1.16910E+01 2.71844E+01 0.00000E+00
 -1      3532 7.29244E+01 1.42715E+01 0.00000E+00
 -1      3533 7.32512E+01 1.57252E+01 0.00000E+00
 -1      3534 4.22850E+01 1.30992E+01 0.00000E+00
 -1      3535 4.07850E+01 1.30992E+01 0.00000E+00
 -1      3536 4.68398E+01 3.37051E+01 0.00000E+00
 -1      3537 4.58337E+01 3.26955E+01 0.00000E+00
 -1      3538 8.12850E+01 1.28866E+01 0.00000E+00
 -1      3539 7.97850E+01 1.28866E+01 0.00000E+00
 -1      3540 4.75898E+01 3.50041E+01 0.00000E+00
 -1      3541 7.82850E+01 1.28866E+01 0.00000E+00
 -1      3542 7.67850E+01 1.28866E+01 0.00000E+00
 -1      3543 7.90350E+01 1.41856E+01 0.00000E+00
 -1      3544 8.72850E+01 1.28866E+01 0.00000E+00
 -1      3545 8.57850E+01 1.28866E+01 0.00000E+00
 -1      3546 9.02850E+01 1.28866E+01 0.00000E+00
 -1      3547 8.87850E+01 1.28866E+01 0.00000E+00
 -1      3548 8.80350E+01 1.41856E+01 0.00000E+00
 -1      3549 9.32850E+01 1.28866E+01 0.00000E+00
 -1      3550 9.17850E+01 1.28866E+01 0.00000E+00
 -1      3551 9.10350E+01 1.41856E+01 0.00000E+00
 -1      3552 9.62850E+01 1.28866E+01 0.00000E+00
 -1      3553 9.47850E+01 1.28866E+01 0.00000E+00
 -1      3554 9.40350E+01 1.41856E+01 0.00000E+00
 -1      3555 9.92850E+01 1.28866E+01 0.00000E+00
 -1      3556 9.77850E+01 1.28866E+01 0.00000E+00
 -1      3557 9.70350E+01 1.41856E+01 0.00000E+00
 -1      3558 1.02285E+02 1.28866E+01 0.00000E+00
 -1      3559 1.00785E+02 1.28866E+01 0.00000E+00
 -1      3560 1.00035E+02 1.41856E+01 0.00000E+00
 -1      3561 1.05285E+02 1.28866E+01 0.00000E+00
 -1      3562 1.03785E+02 1.28866E+01 0.00000E+00
 -1      3563 1.03035E+02 1.41856E+01 0.00000E+00
 -1      3564 1.08285E+02 1.28866E+01 0.00000E+00
 -1      3565 1.06785E+02 1.28866E+01 0.00000E+00
 -1      3566 1.06035E+02 1.41856E+01 0.00000E+00
 -1      3567 1.11285E+02 1.28866E+01 0.00000E+00
 -1      3568 1.09785E+02 1.28866E+01 0.00000E+00
 -1      3569 1.09035E+02 1.41856E+01 0.00000E+00
 -1      3570 1.14285E+02 1.28866E+01 0.00000E+00
 -1      3571 1.12785E+02 1.28866E+01 0.00000E+00
 -1      3572 1.12035E+02 1.41856E+01 0.00000E+00
 -1      3573 1.17285E+02 1.28866E+01 0.00000E+00
 -1      3574 1.15785E+02 1.28866E+01 0.00000E+00
 -1      3575 1.15035E+02 1.41856E+01 0.00000E+00
 -1      3576 1.20285E+02 1.28866E+01 0.00000E+00
 -1      3577 1.18785E+02 1.28866E+01 0.00000E+00
 -1      3578 1.18035E+02 1.41856E+01 0.00000E+00
 -1      3579 1.23285E+02 1.28866E+01 0.00000E+00
 -1      3580 1.21785E+02 1.28866E+01 0.00000E+00
 -1      3581 1.21035E+02 1.41856E+01 0.00000E+00
 -1      3582 1.26285E+02 1.28866E+01 0.00000E+00
 -1      3583 1.24785E+02 1.28866E+01 0.00000E+00
 -1      3584 1.24035E+02 1.41856E+01 0.00000E+00
 -1      3585 1.29285E+02 1.28866E+01 0.00000E+00
 -1      3586 1.27785E+02 1.28866E+01 0.00000E+00
 -1      3587 1.27035E+02 1.41856E+01 0.00000E+00
 -1      3588 1.32285E+02 1.28866E+01 0.00000E+00
 -1      3589 1.30785E+02 1.28866E+01 0.00000E+00
 -1      3590 1.30035E+02 1.41856E+01 0.00000E+00
 -1      3591 1.35285E+02 1.28866E+01 0.00000E+00
 -1      3592 1.33785E+02 1.28866E+01 0.00000E+00
 -1      3593 1.33035E+02 1.41856E+01 0.00000E+00
 -1      3594 4.51066E+01 3.09903E+01 0.00000E+00
 -1      3595 4.42916E+01 2.97227E+01 0.00000E+00
 -1      3596 7.30058E+01 2.74155E+01 0.00000E+00
 -1      3597 7.23214E+01 2.85371E+01 0.00000E+00
 -1      3598 1.38528E+02 1.43817E+01 0.00000E+00
 -1      3599 1.38594E+02 1.31148E+01 0.00000E+00
 -1      3600 1.37668E+02 1.29639E+01 0.00000E+00
 -1      3601 1.37229E+02 1.51130E+01 0.00000E+00
 -1      3602 1.35711E+02 2.72000E+01 0.00000E+00
 -1      3603 1.35711E+02 2.57500E+01 0.00000E+00
 -1      3604 7.16328E+01 2.97757E+01 0.00000E+00
 -1      3605 7.08393E+01 3.09771E+01 0.00000E+00
 -1      3606 6.86289E+01 3.35540E+01 0.00000E+00
 -1      3607 6.74401E+01 3.46271E+01 0.00000E+00
 -1      3608 7.23162E+01 1.26969E+01 0.00000E+00
 -1      3609 8.42850E+01 1.28866E+01 0.00000E+00
 -1      3610 8.27850E+01 1.28866E+01 0.00000E+00
 -1      3611 8.50350E+01 1.41856E+01 0.00000E+00
 -1      3612 3.32850E+01 1.30992E+01 0.00000E+00
 -1      3613 3.17850E+01 1.30992E+01 0.00000E+00
 -1      3614 6.66901E+01 3.59261E+01 0.00000E+00
 -1      3615 2.04000E+01 3.57110E+01 0.00000E+00
 -1      3616 2.19000E+01 3.57110E+01 0.00000E+00
 -1      3617 2.26500E+01 3.44120E+01 0.00000E+00
 -1      3618 4.51771E+01 1.47864E+01 0.00000E+00
 -1      3619 4.63353E+01 1.46126E+01 0.00000E+00
 -1      3620 1.74000E+01 3.57110E+01 0.00000E+00
 -1      3621 1.89000E+01 3.57110E+01 0.00000E+00
 -1      3622 1.96500E+01 3.44120E+01 0.00000E+00
 -1      3623 2.42850E+01 1.30992E+01 0.00000E+00
 -1      3624 2.27850E+01 1.30992E+01 0.00000E+00
 -1      3625 7.00865E+01 3.18332E+01 0.00000E+00
 -1      3626 6.93818E+01 3.26979E+01 0.00000E+00
 -1      3627 6.99028E+01 3.35559E+01 0.00000E+00
 -1      3628 7.14085E+01 3.18436E+01 0.00000E+00
 -1      3629 4.63764E+01 1.35847E+01 0.00000E+00
 -1      3630 6.14312E+01 3.57564E+01 0.00000E+00
 -1      3631 1.30778E+01 3.52531E+01 0.00000E+00
 -1      3632 1.38923E+01 3.56900E+01 0.00000E+00
 -1      3633 1.33200E+01 3.39331E+01 0.00000E+00
 -1      3634 4.34621E+01 2.44313E+01 0.00000E+00
 -1      3635 4.31838E+01 2.30151E+01 0.00000E+00
 -1      3636 4.32357E+01 1.74518E+01 0.00000E+00
 -1      3637 4.35154E+01 1.61930E+01 0.00000E+00
 -1      3638 1.48763E+01 1.22006E+01 0.00000E+00
 -1      3639 1.44900E+01 1.32000E+01 0.00000E+00
 -1      3640 1.63762E+01 1.22006E+01 0.00000E+00
 -1      3641 7.36432E+01 1.31622E+01 0.00000E+00
 -1      3642 1.44900E+01 1.46687E+01 0.00000E+00
 -1      3643 4.35018E+01 2.90735E+01 0.00000E+00
 -1      3644 4.27119E+01 2.84242E+01 0.00000E+00
 -1      3645 4.29060E+01 3.03523E+01 0.00000E+00
 -1      3646 7.51432E+01 1.31622E+01 0.00000E+00
 -1      3647 7.58932E+01 1.44612E+01 0.00000E+00
 -1      3648 5.75113E+01 3.67210E+01 0.00000E+00
 -1      3649 1.29900E+01 2.64469E+01 0.00000E+00
 -1      3650 1.34022E+02 3.59901E+01 0.00000E+00
 -1      3651 1.35329E+02 3.61011E+01 0.00000E+00
 -1      3652 1.35515E+02 3.52494E+01 0.00000E+00
 -1      3653 1.33272E+02 3.46911E+01 0.00000E+00
 -1      3654 4.00350E+01 1.43982E+01 0.00000E+00
 -1      3655 3.92850E+01 1.30992E+01 0.00000E+00
 -1      3656 3.77850E+01 1.30992E+01 0.00000E+00
 -1      3657 4.26123E+01 2.20667E+01 0.00000E+00
 -1      3658 4.20407E+01 2.11182E+01 0.00000E+00
 -1      3659 4.16633E+01 2.29886E+01 0.00000E+00
 -1      3660 3.02850E+01 1.30992E+01 0.00000E+00
 -1      3661 2.87850E+01 1.30992E+01 0.00000E+00
 -1      3662 3.10350E+01 1.43982E+01 0.00000E+00
 -1      3663 4.44230E+01 3.27068E+01 0.00000E+00
 -1      3664 1.38045E+01 3.12931E+01 0.00000E+00
 -1      3665 1.35623E+01 3.26131E+01 0.00000E+00
 -1      3666 1.43767E+01 3.30500E+01 0.00000E+00
 -1      3667 1.38045E+01 2.83556E+01 0.00000E+00
 -1      3668 1.38045E+01 2.98244E+01 0.00000E+00
 -1      3669 1.46190E+01 3.02612E+01 0.00000E+00
 -1      3670 1.36742E+02 1.28130E+01 0.00000E+00
 -1      3671 1.35711E+02 2.86750E+01 0.00000E+00
 -1      3672 1.34412E+02 2.79500E+01 0.00000E+00
 -1      3673 1.35711E+02 3.01500E+01 0.00000E+00
 -1      3674 7.28500E+01 2.97489E+01 0.00000E+00
 -1      3675 1.34412E+02 2.50031E+01 0.00000E+00
 -1      3676 1.35711E+02 2.42781E+01 0.00000E+00
 -1      3677 1.35711E+02 2.28062E+01 0.00000E+00
 -1      3678 7.39711E+01 1.64124E+01 0.00000E+00
 -1      3679 8.20350E+01 1.41856E+01 0.00000E+00
 -1      3680 3.47850E+01 1.30992E+01 0.00000E+00
 -1      3681 3.40350E+01 1.43982E+01 0.00000E+00
 -1      3682 3.62850E+01 1.30992E+01 0.00000E+00
 -1      3683 7.44041E+01 1.87970E+01 0.00000E+00
 -1      3684 7.37903E+01 1.97020E+01 0.00000E+00
 -1      3685 7.45037E+01 2.04110E+01 0.00000E+00
 -1      3686 7.38675E+01 2.30919E+01 0.00000E+00
 -1      3687 7.44959E+01 2.41490E+01 0.00000E+00
 -1      3688 7.45183E+01 2.23730E+01 0.00000E+00
 -1      3689 2.72850E+01 1.30992E+01 0.00000E+00
 -1      3690 2.57850E+01 1.30992E+01 0.00000E+00
 -1      3691 2.80350E+01 1.43982E+01 0.00000E+00
 -1      3692 1.42890E+01 1.98172E+01 0.00000E+00
 -1      3693 1.42890E+01 2.12891E+01 0.00000E+00
 -1      3694 2.20350E+01 1.43983E+01 0.00000E+00
 -1      3695 2.12850E+01 1.30993E+01 0.00000E+00
 -1      3696 1.35711E+02 1.84000E+01 0.00000E+00
 -1      3697 1.35711E+02 1.69250E+01 0.00000E+00
 -1      3698 4.40163E+01 1.48889E+01 0.00000E+00
 -1      3699 4.44557E+01 1.38711E+01 0.00000E+00
 -1      3700 2.50350E+01 1.43982E+01 0.00000E+00
 -1      3701 4.26414E+01 1.83891E+01 0.00000E+00
 -1      3702 4.16987E+01 1.75192E+01 0.00000E+00
 -1      3703 4.20471E+01 1.93264E+01 0.00000E+00
 -1      3704 1.53923E+01 3.56900E+01 0.00000E+00
 -1      3705 4.27712E+01 2.55412E+01 0.00000E+00
 -1      3706 1.35773E+02 1.51866E+01 0.00000E+00
 -1      3707 1.35992E+02 1.41120E+01 0.00000E+00
 -1      3708 7.36919E+01 2.66890E+01 0.00000E+00
 -1      3709 7.42248E+01 2.77837E+01 0.00000E+00
 -1      3710 7.43780E+01 2.59625E+01 0.00000E+00
 -1      3711 1.99669E+01 1.29495E+01 0.00000E+00
 -1      3712 1.61423E+01 3.43910E+01 0.00000E+00
 -1      3713 4.27939E+01 1.52778E+01 0.00000E+00
 -1      3714 1.55880E+01 2.20281E+01 0.00000E+00
 -1      3715 1.42890E+01 2.27641E+01 0.00000E+00
 -1      3716 1.42890E+01 2.42391E+01 0.00000E+00
 -1      3717 1.35702E+02 3.43976E+01 0.00000E+00
 -1      3718 1.34473E+02 1.59241E+01 0.00000E+00
 -1      3719 1.34487E+02 3.38069E+01 0.00000E+00
 -1      3720 1.35795E+02 3.32342E+01 0.00000E+00
 -1      3721 1.35795E+02 3.17593E+01 0.00000E+00
 -1      3722 1.33365E+02 3.35277E+01 0.00000E+00
 -1      3723 2.49000E+01 3.31130E+01 0.00000E+00
 -1      3724 2.64000E+01 3.31130E+01 0.00000E+00
 -1      3725 1.42890E+01 1.68734E+01 0.00000E+00
 -1      3726 1.42890E+01 1.83453E+01 0.00000E+00
 -1      3727 1.55880E+01 1.90812E+01 0.00000E+00
 -1      3728 2.79000E+01 3.31130E+01 0.00000E+00
 -1      3729 2.94000E+01 3.31130E+01 0.00000E+00
 -1      3730 2.71500E+01 3.18140E+01 0.00000E+00
 -1      3731 3.09000E+01 3.31130E+01 0.00000E+00
 -1      3732 3.24000E+01 3.31130E+01 0.00000E+00
 -1      3733 3.01500E+01 3.18140E+01 0.00000E+00
 -1      3734 3.39000E+01 3.31130E+01 0.00000E+00
 -1      3735 3.54000E+01 3.31130E+01 0.00000E+00
 -1      3736 3.31500E+01 3.18140E+01 0.00000E+00
 -1      3737 3.69000E+01 3.31130E+01 0.00000E+00
 -1      3738 3.84000E+01 3.31130E+01 0.00000E+00
 -1      3739 3.61500E+01 3.18140E+01 0.00000E+00
 -1      3740 4.29230E+01 3.27068E+01 0.00000E+00
 -1      3741 7.14028E+01 3.35559E+01 0.00000E+00
 -1      3742 4.31649E+01 1.28870E+01 0.00000E+00
 -1      3743 4.24149E+01 1.41860E+01 0.00000E+00
 -1      3744 5.91628E+01 3.63631E+01 0.00000E+00
 -1      3745 1.57890E+01 1.54047E+01 0.00000E+00
 -1      3746 7.29028E+01 3.35559E+01 0.00000E+00
 -1      3747 7.44028E+01 3.35559E+01 0.00000E+00
 -1      3748 7.21557E+01 3.26998E+01 0.00000E+00
 -1      3749 7.59000E+01 3.31130E+01 0.00000E+00
 -1      3750 7.74000E+01 3.31130E+01 0.00000E+00
 -1      3751 7.89000E+01 3.31130E+01 0.00000E+00
 -1      3752 8.04000E+01 3.31130E+01 0.00000E+00
 -1      3753 7.81500E+01 3.18140E+01 0.00000E+00
 -1      3754 8.19000E+01 3.31130E+01 0.00000E+00
 -1      3755 8.34000E+01 3.31130E+01 0.00000E+00
 -1      3756 8.11500E+01 3.18140E+01 0.00000E+00
 -1      3757 8.49000E+01 3.31130E+01 0.00000E+00
 -1      3758 8.64000E+01 3.31130E+01 0.00000E+00
 -1      3759 8.41500E+01 3.18140E+01 0.00000E+00
 -1      3760 8.79000E+01 3.31130E+01 0.00000E+00
 -1      3761 8.94000E+01 3.31130E+01 0.00000E+00
 -1      3762 8.71500E+01 3.18140E+01 0.00000E+00
 -1      3763 9.09000E+01 3.31130E+01 0.00000E+00
 -1      3764 9.24000E+01 3.31130E+01 0.00000E+00
 -1      3765 9.01500E+01 3.18140E+01 0.00000E+00
 -1      3766 9.39000E+01 3.31130E+01 0.00000E+00
 -1      3767 9.54000E+01 3.31130E+01 0.00000E+00
 -1      3768 9.31500E+01 3.18140E+01 0.00000E+00
 -1      3769 9.69000E+01 3.31130E+01 0.00000E+00
 -1      3770 9.84000E+01 3.31130E+01 0.00000E+00
 -1      3771 9.61500E+01 3.18140E+01 0.00000E+00
 -1      3772 9.99000E+01 3.31130E+01 0.00000E+00
 -1      3773 1.01400E+02 3.31130E+01 0.00000E+00
 -1      3774 9.91500E+01 3.18140E+01 0.00000E+00
 -1      3775 1.02900E+02 3.31130E+01 0.00000E+00
 -1      3776 1.04400E+02 3.31130E+01 0.00000E+00
 -1      3777 1.02150E+02 3.18140E+01 0.00000E+00
 -1      3778 1.05900E+02 3.31130E+01 0.00000E+00
 -1      3779 1.07400E+02 3.31130E+01 0.00000E+00
 -1      3780 1.05150E+02 3.18140E+01 0.00000E+00
 -1      3781 1.08900E+02 3.31130E+01 0.00000E+00
 -1      3782 1.10400E+02 3.31130E+01 0.00000E+00
 -1      3783 1.08150E+02 3.18140E+01 0.00000E+00
 -1      3784 1.11900E+02 3.31130E+01 0.00000E+00
 -1      3785 1.13400E+02 3.31130E+01 0.00000E+00
 -1      3786 1.11150E+02 3.18140E+01 0.00000E+00
 -1      3787 1.14900E+02 3.31130E+01 0.00000E+00
 -1      3788 1.16400E+02 3.31130E+01 0.00000E+00
 -1      3789 1.14150E+02 3.18140E+01 0.00000E+00
 -1      3790 1.17900E+02 3.31130E+01 0.00000E+00
 -1      3791 1.19400E+02 3.31130E+01 0.00000E+00
 -1      3792 1.17150E+02 3.18140E+01 0.00000E+00
 -1      3793 1.20900E+02 3.31130E+01 0.00000E+00
 -1      3794 1.22400E+02 3.31130E+01 0.00000E+00
 -1      3795 1.20150E+02 3.18140E+01 0.00000E+00
 -1      3796 1.23900E+02 3.31130E+01 0.00000E+00
 -1      3797 1.25400E+02 3.31130E+01 0.00000E+00
 -1      3798 1.23150E+02 3.18140E+01 0.00000E+00
 -1      3799 1.26900E+02 3.31130E+01 0.00000E+00
 -1      3800 1.28400E+02 3.31130E+01 0.00000E+00
 -1      3801 1.26150E+02 3.18140E+01 0.00000E+00
 -1      3802 1.29900E+02 3.31130E+01 0.00000E+00
 -1      3803 1.31400E+02 3.31130E+01 0.00000E+00
 -1      3804 1.29150E+02 3.18140E+01 0.00000E+00
 -1      3805 7.97850E+01 1.54846E+01 0.00000E+00
 -1      3806 7.82850E+01 1.54846E+01 0.00000E+00
 -1      3807 9.17850E+01 1.54846E+01 0.00000E+00
 -1      3808 9.02850E+01 1.54846E+01 0.00000E+00
 -1      3809 8.87850E+01 1.54846E+01 0.00000E+00
 -1      3810 8.72850E+01 1.54846E+01 0.00000E+00
 -1      3811 8.95350E+01 1.67836E+01 0.00000E+00
 -1      3812 9.77850E+01 1.54846E+01 0.00000E+00
 -1      3813 9.62850E+01 1.54846E+01 0.00000E+00
 -1      3814 1.00785E+02 1.54846E+01 0.00000E+00
 -1      3815 9.92850E+01 1.54846E+01 0.00000E+00
 -1      3816 9.85350E+01 1.67836E+01 0.00000E+00
 -1      3817 1.03785E+02 1.54846E+01 0.00000E+00
 -1      3818 1.02285E+02 1.54846E+01 0.00000E+00
 -1      3819 1.01535E+02 1.67836E+01 0.00000E+00
 -1      3820 1.06785E+02 1.54846E+01 0.00000E+00
 -1      3821 1.05285E+02 1.54846E+01 0.00000E+00
 -1      3822 1.04535E+02 1.67836E+01 0.00000E+00
 -1      3823 1.09785E+02 1.54846E+01 0.00000E+00
 -1      3824 1.08285E+02 1.54846E+01 0.00000E+00
 -1      3825 1.07535E+02 1.67836E+01 0.00000E+00
 -1      3826 1.12785E+02 1.54846E+01 0.00000E+00
 -1      3827 1.11285E+02 1.54846E+01 0.00000E+00
 -1      3828 1.10535E+02 1.67836E+01 0.00000E+00
 -1      3829 1.15785E+02 1.54846E+01 0.00000E+00
 -1      3830 1.14285E+02 1.54846E+01 0.00000E+00
 -1      3831 1.13535E+02 1.67836E+01 0.00000E+00
 -1      3832 1.18785E+02 1.54846E+01 0.00000E+00
 -1      3833 1.17285E+02 1.54846E+01 0.00000E+00
 -1      3834 1.16535E+02 1.67836E+01 0.00000E+00
 -1      3835 1.21785E+02 1.54846E+01 0.00000E+00
 -1      3836 1.20285E+02 1.54846E+01 0.00000E+00
 -1      3837 1.19535E+02 1.67836E+01 0.00000E+00
 -1      3838 1.24785E+02 1.54846E+01 0.00000E+00
 -1      3839 1.23285E+02 1.54846E+01 0.00000E+00
 -1      3840 1.22535E+02 1.67836E+01 0.00000E+00
 -1      3841 1.27785E+02 1.54846E+01 0.00000E+00
 -1      3842 1.26285E+02 1.54846E+01 0.00000E+00
 -1      3843 1.25535E+02 1.67836E+01 0.00000E+00
 -1      3844 1.30785E+02 1.54846E+01 0.00000E+00
 -1      3845 1.29285E+02 1.54846E+01 0.00000E+00
 -1      3846 1.28535E+02 1.67836E+01 0.00000E+00
 -1      3847 1.32973E+02 1.59241E+01 0.00000E+00
 -1      3848 1.63845E+01 3.30710E+01 0.00000E+00
 -1      3849 7.69489E+01 1.58107E+01 0.00000E+00
 -1      3850 7.53072E+01 1.60863E+01 0.00000E+00
 -1      3851 7.50268E+01 1.77619E+01 0.00000E+00
 -1      3852 7.76989E+01 1.71097E+01 0.00000E+00
 -1      3853 2.27850E+01 1.56973E+01 0.00000E+00
 -1      3854 2.12851E+01 1.56973E+01 0.00000E+00
 -1      3855 4.19140E+01 1.54900E+01 0.00000E+00
 -1      3856 7.50943E+01 3.01621E+01 0.00000E+00
 -1      3857 7.44057E+01 3.14008E+01 0.00000E+00
 -1      3858 4.13915E+01 3.32348E+01 0.00000E+00
 -1      3859 4.21645E+01 3.15295E+01 0.00000E+00
 -1      3860 4.13746E+01 3.08803E+01 0.00000E+00
 -1      3861 3.98915E+01 3.32348E+01 0.00000E+00
 -1      3862 8.27850E+01 1.54846E+01 0.00000E+00
 -1      3863 8.12850E+01 1.54846E+01 0.00000E+00
 -1      3864 8.05350E+01 1.67836E+01 0.00000E+00
 -1      3865 1.35711E+02 2.13391E+01 0.00000E+00
 -1      3866 1.35711E+02 1.98672E+01 0.00000E+00
 -1      3867 1.34412E+02 1.91297E+01 0.00000E+00
 -1      3868 1.34412E+02 2.20641E+01 0.00000E+00
 -1      3869 2.19000E+01 3.31130E+01 0.00000E+00
 -1      3870 2.34000E+01 3.31130E+01 0.00000E+00
 -1      3871 2.41500E+01 3.18140E+01 0.00000E+00
 -1      3872 4.43258E+01 1.27844E+01 0.00000E+00
 -1      3873 1.40468E+01 2.55614E+01 0.00000E+00
 -1      3874 1.40468E+01 2.70333E+01 0.00000E+00
 -1      3875 1.48612E+01 2.74702E+01 0.00000E+00
 -1      3876 1.53457E+01 2.48255E+01 0.00000E+00
 -1      3877 2.57850E+01 1.56973E+01 0.00000E+00
 -1      3878 2.42850E+01 1.56973E+01 0.00000E+00
 -1      3879 2.35351E+01 1.69963E+01 0.00000E+00
 -1      3880 1.89000E+01 3.31130E+01 0.00000E+00
 -1      3881 2.04000E+01 3.31130E+01 0.00000E+00
 -1      3882 2.11500E+01 3.18140E+01 0.00000E+00
 -1      3883 8.57850E+01 1.54846E+01 0.00000E+00
 -1      3884 8.42850E+01 1.54846E+01 0.00000E+00
 -1      3885 8.65350E+01 1.67836E+01 0.00000E+00
 -1      3886 4.19878E+01 2.66950E+01 0.00000E+00
 -1      3887 4.14514E+01 2.50908E+01 0.00000E+00
 -1      3888 1.88306E+01 1.26499E+01 0.00000E+00
 -1      3889 1.75125E+01 1.25001E+01 0.00000E+00
 -1      3890 1.71263E+01 1.34996E+01 0.00000E+00
 -1      3891 1.93988E+01 1.40987E+01 0.00000E+00
 -1      3892 9.47850E+01 1.54846E+01 0.00000E+00
 -1      3893 9.32850E+01 1.54846E+01 0.00000E+00
 -1      3894 9.25350E+01 1.67836E+01 0.00000E+00
 -1      3895 9.55350E+01 1.67836E+01 0.00000E+00
 -1      3896 1.32223E+02 1.72231E+01 0.00000E+00
 -1      3897 1.58767E+01 3.10166E+01 0.00000E+00
 -1      3898 1.76423E+01 3.23576E+01 0.00000E+00
 -1      3899 1.83923E+01 3.10586E+01 0.00000E+00
 -1      3900 1.58767E+01 2.95479E+01 0.00000E+00
 -1      3901 4.10563E+01 1.65046E+01 0.00000E+00
 -1      3902 4.06773E+01 1.54128E+01 0.00000E+00
 -1      3903 3.91773E+01 1.54128E+01 0.00000E+00
 -1      3904 4.04620E+01 1.74419E+01 0.00000E+00
 -1      3905 8.35350E+01 1.67836E+01 0.00000E+00
 -1      3906 1.68870E+01 1.83453E+01 0.00000E+00
 -1      3907 1.68870E+01 1.98172E+01 0.00000E+00
 -1      3908 3.70350E+01 1.43982E+01 0.00000E+00
 -1      3909 2.05351E+01 1.69963E+01 0.00000E+00
 -1      3910 1.97851E+01 1.56973E+01 0.00000E+00
 -1      3911 1.32223E+02 2.01574E+01 0.00000E+00
 -1      3912 1.32223E+02 1.86903E+01 0.00000E+00
 -1      3913 1.30035E+02 1.82508E+01 0.00000E+00
 -1      3914 3.91415E+01 3.19358E+01 0.00000E+00
 -1      3915 4.08798E+01 2.41423E+01 0.00000E+00
 -1      3916 4.03083E+01 2.31939E+01 0.00000E+00
 -1      3917 4.00963E+01 2.52961E+01 0.00000E+00
 -1      3918 3.17850E+01 1.56973E+01 0.00000E+00
 -1      3919 3.02850E+01 1.56973E+01 0.00000E+00
 -1      3920 1.32615E+02 3.22287E+01 0.00000E+00
 -1      3921 4.10981E+01 2.02483E+01 0.00000E+00
 -1      3922 1.34496E+02 3.10343E+01 0.00000E+00
 -1      3923 1.33113E+02 2.57391E+01 0.00000E+00
 -1      3924 1.33113E+02 2.42672E+01 0.00000E+00
 -1      3925 1.81860E+01 2.05562E+01 0.00000E+00
 -1      3926 1.68870E+01 2.12922E+01 0.00000E+00
 -1      3927 1.68870E+01 2.27672E+01 0.00000E+00
 -1      3928 1.33113E+02 2.86891E+01 0.00000E+00
 -1      3929 1.33113E+02 2.72141E+01 0.00000E+00
 -1      3930 1.31814E+02 2.64781E+01 0.00000E+00
 -1      3931 1.86488E+01 1.53977E+01 0.00000E+00
 -1      3932 7.54096E+01 2.89729E+01 0.00000E+00
 -1      3933 7.69652E+01 3.06248E+01 0.00000E+00
 -1      3934 7.84652E+01 3.06248E+01 0.00000E+00
 -1      3935 7.60957E+01 2.82465E+01 0.00000E+00
 -1      3936 3.47850E+01 1.56973E+01 0.00000E+00
 -1      3937 3.32850E+01 1.56973E+01 0.00000E+00
 -1      3938 3.25350E+01 1.69963E+01 0.00000E+00
 -1      3939 7.57402E+01 1.84709E+01 0.00000E+00
 -1      3940 7.51321E+01 2.14681E+01 0.00000E+00
 -1      3941 7.57605E+01 2.25251E+01 0.00000E+00
 -1      3942 7.57459E+01 2.05631E+01 0.00000E+00
 -1      3943 7.56796E+01 2.45249E+01 0.00000E+00
 -1      3944 7.50288E+01 2.52437E+01 0.00000E+00
 -1      3945 7.55617E+01 2.63384E+01 0.00000E+00
 -1      3946 2.87850E+01 1.56973E+01 0.00000E+00
 -1      3947 2.72850E+01 1.56973E+01 0.00000E+00
 -1      3948 2.65350E+01 1.69963E+01 0.00000E+00
 -1      3949 2.95350E+01 1.69963E+01 0.00000E+00
 -1      3950 4.13920E+01 2.79738E+01 0.00000E+00
 -1      3951 7.29085E+01 3.18436E+01 0.00000E+00
 -1      3952 1.73116E+01 1.73028E+01 0.00000E+00
 -1      3953 1.86106E+01 1.80388E+01 0.00000E+00
 -1      3954 2.64000E+01 3.05150E+01 0.00000E+00
 -1      3955 2.79000E+01 3.05150E+01 0.00000E+00
 -1      3956 2.94000E+01 3.05150E+01 0.00000E+00
 -1      3957 3.09000E+01 3.05150E+01 0.00000E+00
 -1      3958 2.86500E+01 2.92160E+01 0.00000E+00
 -1      3959 3.24000E+01 3.05150E+01 0.00000E+00
 -1      3960 3.39000E+01 3.05150E+01 0.00000E+00
 -1      3961 3.16500E+01 2.92160E+01 0.00000E+00
 -1      3962 3.54000E+01 3.05150E+01 0.00000E+00
 -1      3963 3.69000E+01 3.05150E+01 0.00000E+00
 -1      3964 3.46500E+01 2.92160E+01 0.00000E+00
 -1      3965 9.02850E+01 1.80826E+01 0.00000E+00
 -1      3966 8.87850E+01 1.80826E+01 0.00000E+00
 -1      3967 8.12850E+01 1.80826E+01 0.00000E+00
 -1      3968 7.97850E+01 1.80826E+01 0.00000E+00
 -1      3969 3.77850E+01 1.56973E+01 0.00000E+00
 -1      3970 3.62850E+01 1.56973E+01 0.00000E+00
 -1      3971 3.55350E+01 1.69963E+01 0.00000E+00
 -1      3972 2.01105E+01 1.80388E+01 0.00000E+00
 -1      3973 1.96860E+01 1.90812E+01 0.00000E+00
 -1      3974 2.16105E+01 1.80387E+01 0.00000E+00
 -1      3975 7.51528E+01 3.22569E+01 0.00000E+00
 -1      3976 8.04000E+01 3.05150E+01 0.00000E+00
 -1      3977 8.19000E+01 3.05150E+01 0.00000E+00
 -1      3978 8.34000E+01 3.05150E+01 0.00000E+00
 -1      3979 8.49000E+01 3.05150E+01 0.00000E+00
 -1      3980 8.26500E+01 2.92160E+01 0.00000E+00
 -1      3981 8.64000E+01 3.05150E+01 0.00000E+00
 -1      3982 8.79000E+01 3.05150E+01 0.00000E+00
 -1      3983 8.56500E+01 2.92160E+01 0.00000E+00
 -1      3984 8.94000E+01 3.05150E+01 0.00000E+00
 -1      3985 9.09000E+01 3.05150E+01 0.00000E+00
 -1      3986 8.86500E+01 2.92160E+01 0.00000E+00
 -1      3987 9.24000E+01 3.05150E+01 0.00000E+00
 -1      3988 9.39000E+01 3.05150E+01 0.00000E+00
 -1      3989 9.16500E+01 2.92160E+01 0.00000E+00
 -1      3990 9.54000E+01 3.05150E+01 0.00000E+00
 -1      3991 9.69000E+01 3.05150E+01 0.00000E+00
 -1      3992 9.46500E+01 2.92160E+01 0.00000E+00
 -1      3993 9.84000E+01 3.05150E+01 0.00000E+00
 -1      3994 9.99000E+01 3.05150E+01 0.00000E+00
 -1      3995 9.76500E+01 2.92160E+01 0.00000E+00
 -1      3996 1.01400E+02 3.05150E+01 0.00000E+00
 -1      3997 1.02900E+02 3.05150E+01 0.00000E+00
 -1      3998 1.00650E+02 2.92160E+01 0.00000E+00
 -1      3999 1.04400E+02 3.05150E+01 0.00000E+00
 -1      4000 1.05900E+02 3.05150E+01 0.00000E+00
 -1      4001 1.03650E+02 2.92160E+01 0.00000E+00
 -1      4002 1.07400E+02 3.05150E+01 0.00000E+00
 -1      4003 1.08900E+02 3.05150E+01 0.00000E+00
 -1      4004 1.06650E+02 2.92160E+01 0.00000E+00
 -1      4005 1.10400E+02 3.05150E+01 0.00000E+00
 -1      4006 1.11900E+02 3.05150E+01 0.00000E+00
 -1      4007 1.09650E+02 2.92160E+01 0.00000E+00
 -1      4008 1.13400E+02 3.05150E+01 0.00000E+00
 -1      4009 1.14900E+02 3.05150E+01 0.00000E+00
 -1      4010 1.12650E+02 2.92160E+01 0.00000E+00
 -1      4011 1.16400E+02 3.05150E+01 0.00000E+00
 -1      4012 1.17900E+02 3.05150E+01 0.00000E+00
 -1      4013 1.15650E+02 2.92160E+01 0.00000E+00
 -1      4014 1.19400E+02 3.05150E+01 0.00000E+00
 -1      4015 1.20900E+02 3.05150E+01 0.00000E+00
 -1      4016 1.18650E+02 2.92160E+01 0.00000E+00
 -1      4017 1.22400E+02 3.05150E+01 0.00000E+00
 -1      4018 1.23900E+02 3.05150E+01 0.00000E+00
 -1      4019 1.21650E+02 2.92160E+01 0.00000E+00
 -1      4020 1.25400E+02 3.05150E+01 0.00000E+00
 -1      4021 1.26900E+02 3.05150E+01 0.00000E+00
 -1      4022 1.24650E+02 2.92160E+01 0.00000E+00
 -1      4023 1.28400E+02 3.05150E+01 0.00000E+00
 -1      4024 1.29900E+02 3.05150E+01 0.00000E+00
 -1      4025 1.27650E+02 2.92160E+01 0.00000E+00
 -1      4026 7.69913E+01 1.84929E+01 0.00000E+00
 -1      4027 7.63686E+01 1.95280E+01 0.00000E+00
 -1      4028 7.69970E+01 2.05851E+01 0.00000E+00
 -1      4029 1.32531E+02 3.06195E+01 0.00000E+00
 -1      4030 3.83915E+01 3.06368E+01 0.00000E+00
 -1      4031 3.98831E+01 3.07585E+01 0.00000E+00
 -1      4032 3.76415E+01 2.93378E+01 0.00000E+00
 -1      4033 4.06246E+01 2.95813E+01 0.00000E+00
 -1      4034 3.99005E+01 2.78520E+01 0.00000E+00
 -1      4035 1.02285E+02 1.80826E+01 0.00000E+00
 -1      4036 1.00785E+02 1.80826E+01 0.00000E+00
 -1      4037 9.92850E+01 1.80826E+01 0.00000E+00
 -1      4038 9.77850E+01 1.80826E+01 0.00000E+00
 -1      4039 1.00035E+02 1.93816E+01 0.00000E+00
 -1      4040 1.08285E+02 1.80826E+01 0.00000E+00
 -1      4041 1.06785E+02 1.80826E+01 0.00000E+00
 -1      4042 1.11285E+02 1.80826E+01 0.00000E+00
 -1      4043 1.09785E+02 1.80826E+01 0.00000E+00
 -1      4044 1.09035E+02 1.93816E+01 0.00000E+00
 -1      4045 1.14285E+02 1.80826E+01 0.00000E+00
 -1      4046 1.12785E+02 1.80826E+01 0.00000E+00
 -1      4047 1.12035E+02 1.93816E+01 0.00000E+00
 -1      4048 1.17285E+02 1.80826E+01 0.00000E+00
 -1      4049 1.15785E+02 1.80826E+01 0.00000E+00
 -1      4050 1.15035E+02 1.93816E+01 0.00000E+00
 -1      4051 1.20285E+02 1.80826E+01 0.00000E+00
 -1      4052 1.18785E+02 1.80826E+01 0.00000E+00
 -1      4053 1.18035E+02 1.93816E+01 0.00000E+00
 -1      4054 1.23285E+02 1.80826E+01 0.00000E+00
 -1      4055 1.21785E+02 1.80826E+01 0.00000E+00
 -1      4056 1.21035E+02 1.93816E+01 0.00000E+00
 -1      4057 1.26285E+02 1.80826E+01 0.00000E+00
 -1      4058 1.24785E+02 1.80826E+01 0.00000E+00
 -1      4059 1.24035E+02 1.93816E+01 0.00000E+00
 -1      4060 1.28910E+02 1.81667E+01 0.00000E+00
 -1      4061 1.27410E+02 1.81667E+01 0.00000E+00
 -1      4062 1.26660E+02 1.94657E+01 0.00000E+00
 -1      4063 1.28910E+02 1.96339E+01 0.00000E+00
 -1      4064 7.83274E+01 1.81668E+01 0.00000E+00
 -1      4065 1.69253E+01 1.57043E+01 0.00000E+00
 -1      4066 2.46105E+01 1.80387E+01 0.00000E+00
 -1      4067 2.31105E+01 1.80387E+01 0.00000E+00
 -1      4068 2.26859E+01 1.90812E+01 0.00000E+00
 -1      4069 2.34000E+01 3.05150E+01 0.00000E+00
 -1      4070 2.49000E+01 3.05150E+01 0.00000E+00
 -1      4071 2.56500E+01 2.92160E+01 0.00000E+00
 -1      4072 2.04000E+01 3.05150E+01 0.00000E+00
 -1      4073 2.19000E+01 3.05150E+01 0.00000E+00
 -1      4074 2.26500E+01 2.92160E+01 0.00000E+00
 -1      4075 1.32668E+02 2.29459E+01 0.00000E+00
 -1      4076 1.32668E+02 2.14787E+01 0.00000E+00
 -1      4077 1.30480E+02 2.10393E+01 0.00000E+00
 -1      4078 1.31369E+02 2.36818E+01 0.00000E+00
 -1      4079 3.99860E+01 2.11403E+01 0.00000E+00
 -1      4080 3.99923E+01 1.93485E+01 0.00000E+00
 -1      4081 8.72850E+01 1.80826E+01 0.00000E+00
 -1      4082 8.57850E+01 1.80826E+01 0.00000E+00
 -1      4083 8.80350E+01 1.93816E+01 0.00000E+00
 -1      4084 8.42850E+01 1.80826E+01 0.00000E+00
 -1      4085 8.27850E+01 1.80826E+01 0.00000E+00
 -1      4086 8.20350E+01 1.93816E+01 0.00000E+00
 -1      4087 8.50350E+01 1.93816E+01 0.00000E+00
 -1      4088 1.05285E+02 1.80826E+01 0.00000E+00
 -1      4089 1.03785E+02 1.80826E+01 0.00000E+00
 -1      4090 1.03035E+02 1.93816E+01 0.00000E+00
 -1      4091 1.06035E+02 1.93816E+01 0.00000E+00
 -1      4092 3.84852E+01 2.81207E+01 0.00000E+00
 -1      4093 3.92526E+01 2.65132E+01 0.00000E+00
 -1      4094 3.86811E+01 2.55647E+01 0.00000E+00
 -1      4095 3.69937E+01 2.79989E+01 0.00000E+00
 -1      4096 3.92025E+01 2.22941E+01 0.00000E+00
 -1      4097 3.80968E+01 2.13943E+01 0.00000E+00
 -1      4098 3.84191E+01 2.34478E+01 0.00000E+00
 -1      4099 9.17850E+01 1.80826E+01 0.00000E+00
 -1      4100 9.10350E+01 1.93816E+01 0.00000E+00
 -1      4101 9.32850E+01 1.80826E+01 0.00000E+00
 -1      4102 7.90774E+01 1.94658E+01 0.00000E+00
 -1      4103 1.63612E+01 2.69032E+01 0.00000E+00
 -1      4104 1.61190E+01 2.82255E+01 0.00000E+00
 -1      4105 1.73768E+01 2.89809E+01 0.00000E+00
 -1      4106 1.96860E+01 2.05562E+01 0.00000E+00
 -1      4107 7.92152E+01 2.93258E+01 0.00000E+00
 -1      4108 9.70350E+01 1.93816E+01 0.00000E+00
 -1      4109 9.62850E+01 1.80826E+01 0.00000E+00
 -1      4110 9.47850E+01 1.80826E+01 0.00000E+00
 -1      4111 1.91423E+01 2.97596E+01 0.00000E+00
 -1      4112 2.61105E+01 1.80387E+01 0.00000E+00
 -1      4113 2.56859E+01 1.90812E+01 0.00000E+00
 -1      4114 2.76105E+01 1.80387E+01 0.00000E+00
 -1      4115 1.81768E+01 2.35294E+01 0.00000E+00
 -1      4116 1.68778E+01 2.42654E+01 0.00000E+00
 -1      4117 1.30361E+02 2.47569E+01 0.00000E+00
 -1      4118 1.29916E+02 2.34356E+01 0.00000E+00
 -1      4119 3.84273E+01 1.67118E+01 0.00000E+00
 -1      4120 1.31232E+02 2.98836E+01 0.00000E+00
 -1      4121 7.62934E+01 2.36199E+01 0.00000E+00
 -1      4122 7.68263E+01 2.47146E+01 0.00000E+00
 -1      4123 7.69072E+01 2.27149E+01 0.00000E+00
 -1      4124 3.06104E+01 1.80387E+01 0.00000E+00
 -1      4125 2.91104E+01 1.80387E+01 0.00000E+00
 -1      4126 2.86859E+01 1.90812E+01 0.00000E+00
 -1      4127 1.66356E+01 2.55877E+01 0.00000E+00
 -1      4128 3.95310E+01 1.85374E+01 0.00000E+00
 -1      4129 3.88887E+01 1.75229E+01 0.00000E+00
 -1      4130 3.74963E+01 1.78073E+01 0.00000E+00
 -1      4131 3.84190E+01 1.94294E+01 0.00000E+00
 -1      4132 3.36104E+01 1.80387E+01 0.00000E+00
 -1      4133 3.21104E+01 1.80387E+01 0.00000E+00
 -1      4134 3.16858E+01 1.90812E+01 0.00000E+00
 -1      4135 1.30482E+02 2.85846E+01 0.00000E+00
 -1      4136 1.30421E+02 2.74082E+01 0.00000E+00
 -1      4137 1.30421E+02 2.59332E+01 0.00000E+00
 -1      4138 1.28968E+02 2.56870E+01 0.00000E+00
 -1      4139 1.29089E+02 2.80397E+01 0.00000E+00
 -1      4140 3.09000E+01 2.79170E+01 0.00000E+00
 -1      4141 3.24000E+01 2.79170E+01 0.00000E+00
 -1      4142 3.39000E+01 2.79170E+01 0.00000E+00
 -1      4143 3.54000E+01 2.79170E+01 0.00000E+00
 -1      4144 3.31500E+01 2.66180E+01 0.00000E+00
 -1      4145 3.63034E+01 1.79230E+01 0.00000E+00
 -1      4146 3.48034E+01 1.79230E+01 0.00000E+00
 -1      4147 3.43788E+01 1.89655E+01 0.00000E+00
 -1      4148 3.67647E+01 1.87341E+01 0.00000E+00
 -1      4149 2.49000E+01 2.79170E+01 0.00000E+00
 -1      4150 2.64000E+01 2.79170E+01 0.00000E+00
 -1      4151 8.19000E+01 2.79170E+01 0.00000E+00
 -1      4152 8.34000E+01 2.79170E+01 0.00000E+00
 -1      4153 7.81526E+01 2.06447E+01 0.00000E+00
 -1      4154 7.75299E+01 2.16798E+01 0.00000E+00
 -1      4155 7.80629E+01 2.27745E+01 0.00000E+00
 -1      4156 8.49000E+01 2.79170E+01 0.00000E+00
 -1      4157 8.64000E+01 2.79170E+01 0.00000E+00
 -1      4158 8.41500E+01 2.66180E+01 0.00000E+00
 -1      4159 8.79000E+01 2.79170E+01 0.00000E+00
 -1      4160 8.94000E+01 2.79170E+01 0.00000E+00
 -1      4161 8.71500E+01 2.66180E+01 0.00000E+00
 -1      4162 9.09000E+01 2.79170E+01 0.00000E+00
 -1      4163 9.24000E+01 2.79170E+01 0.00000E+00
 -1      4164 9.01500E+01 2.66180E+01 0.00000E+00
 -1      4165 9.39000E+01 2.79170E+01 0.00000E+00
 -1      4166 9.54000E+01 2.79170E+01 0.00000E+00
 -1      4167 9.31500E+01 2.66180E+01 0.00000E+00
 -1      4168 9.69000E+01 2.79170E+01 0.00000E+00
 -1      4169 9.84000E+01 2.79170E+01 0.00000E+00
 -1      4170 9.61500E+01 2.66180E+01 0.00000E+00
 -1      4171 9.99000E+01 2.79170E+01 0.00000E+00
 -1      4172 1.01400E+02 2.79170E+01 0.00000E+00
 -1      4173 9.91500E+01 2.66180E+01 0.00000E+00
 -1      4174 1.02900E+02 2.79170E+01 0.00000E+00
 -1      4175 1.04400E+02 2.79170E+01 0.00000E+00
 -1      4176 1.02150E+02 2.66180E+01 0.00000E+00
 -1      4177 1.05900E+02 2.79170E+01 0.00000E+00
 -1      4178 1.07400E+02 2.79170E+01 0.00000E+00
 -1      4179 1.05150E+02 2.66180E+01 0.00000E+00
 -1      4180 1.08900E+02 2.79170E+01 0.00000E+00
 -1      4181 1.10400E+02 2.79170E+01 0.00000E+00
 -1      4182 1.08150E+02 2.66180E+01 0.00000E+00
 -1      4183 1.11900E+02 2.79170E+01 0.00000E+00
 -1      4184 1.13400E+02 2.79170E+01 0.00000E+00
 -1      4185 1.11150E+02 2.66180E+01 0.00000E+00
 -1      4186 1.14900E+02 2.79170E+01 0.00000E+00
 -1      4187 1.16400E+02 2.79170E+01 0.00000E+00
 -1      4188 1.14150E+02 2.66180E+01 0.00000E+00
 -1      4189 1.17900E+02 2.79170E+01 0.00000E+00
 -1      4190 1.19400E+02 2.79170E+01 0.00000E+00
 -1      4191 1.17150E+02 2.66180E+01 0.00000E+00
 -1      4192 1.20900E+02 2.79170E+01 0.00000E+00
 -1      4193 1.22400E+02 2.79170E+01 0.00000E+00
 -1      4194 1.20150E+02 2.66180E+01 0.00000E+00
 -1      4195 1.23900E+02 2.79170E+01 0.00000E+00
 -1      4196 1.25400E+02 2.79170E+01 0.00000E+00
 -1      4197 1.23150E+02 2.66180E+01 0.00000E+00
 -1      4198 1.27589E+02 2.80397E+01 0.00000E+00
 -1      4199 1.15785E+02 2.06806E+01 0.00000E+00
 -1      4200 1.14285E+02 2.06806E+01 0.00000E+00
 -1      4201 2.79000E+01 2.79170E+01 0.00000E+00
 -1      4202 2.94000E+01 2.79170E+01 0.00000E+00
 -1      4203 3.01500E+01 2.66180E+01 0.00000E+00
 -1      4204 7.81742E+01 2.80838E+01 0.00000E+00
 -1      4205 8.01090E+01 2.79740E+01 0.00000E+00
 -1      4206 1.29635E+02 2.21954E+01 0.00000E+00
 -1      4207 1.29191E+02 2.08741E+01 0.00000E+00
 -1      4208 1.28066E+02 2.07900E+01 0.00000E+00
 -1      4209 1.28626E+02 2.32705E+01 0.00000E+00
 -1      4210 1.12785E+02 2.06806E+01 0.00000E+00
 -1      4211 1.11285E+02 2.06806E+01 0.00000E+00
 -1      4212 1.13535E+02 2.19796E+01 0.00000E+00
 -1      4213 1.09785E+02 2.06806E+01 0.00000E+00
 -1      4214 1.08285E+02 2.06806E+01 0.00000E+00
 -1      4215 1.10535E+02 2.19796E+01 0.00000E+00
 -1      4216 1.18785E+02 2.06806E+01 0.00000E+00
 -1      4217 1.17285E+02 2.06806E+01 0.00000E+00
 -1      4218 1.16535E+02 2.19796E+01 0.00000E+00
 -1      4219 1.21785E+02 2.06806E+01 0.00000E+00
 -1      4220 1.20285E+02 2.06806E+01 0.00000E+00
 -1      4221 1.19535E+02 2.19796E+01 0.00000E+00
 -1      4222 1.24785E+02 2.06806E+01 0.00000E+00
 -1      4223 1.23285E+02 2.06806E+01 0.00000E+00
 -1      4224 1.22535E+02 2.19796E+01 0.00000E+00
 -1      4225 2.13467E+01 2.07449E+01 0.00000E+00
 -1      4226 1.98468E+01 2.22199E+01 0.00000E+00
 -1      4227 1.78933E+01 2.63431E+01 0.00000E+00
 -1      4228 1.98376E+01 2.37181E+01 0.00000E+00
 -1      4229 7.69895E+01 2.68946E+01 0.00000E+00
 -1      4230 8.87850E+01 2.06806E+01 0.00000E+00
 -1      4231 8.72850E+01 2.06806E+01 0.00000E+00
 -1      4232 1.00785E+02 2.06806E+01 0.00000E+00
 -1      4233 9.92850E+01 2.06806E+01 0.00000E+00
 -1      4234 1.93845E+01 2.84373E+01 0.00000E+00
 -1      4235 2.19000E+01 2.79170E+01 0.00000E+00
 -1      4236 2.34000E+01 2.79170E+01 0.00000E+00
 -1      4237 2.41500E+01 2.66180E+01 0.00000E+00
 -1      4238 2.28467E+01 2.07449E+01 0.00000E+00
 -1      4239 7.96103E+01 2.05605E+01 0.00000E+00
 -1      4240 8.08590E+01 2.66750E+01 0.00000E+00
 -1      4241 9.40350E+01 1.93816E+01 0.00000E+00
 -1      4242 3.62437E+01 2.66999E+01 0.00000E+00
 -1      4243 2.20788E+01 2.45133E+01 0.00000E+00
 -1      4244 2.04088E+01 2.58228E+01 0.00000E+00
 -1      4245 1.26839E+02 2.67407E+01 0.00000E+00
 -1      4246 2.45282E+01 2.07276E+01 0.00000E+00
 -1      4247 2.31891E+01 2.23913E+01 0.00000E+00
 -1      4248 9.77850E+01 2.06806E+01 0.00000E+00
 -1      4249 9.62850E+01 2.06806E+01 0.00000E+00
 -1      4250 9.85350E+01 2.19796E+01 0.00000E+00
 -1      4251 2.71500E+01 2.66180E+01 0.00000E+00
 -1      4252 8.27850E+01 2.06581E+01 0.00000E+00
 -1      4253 8.12850E+01 2.06581E+01 0.00000E+00
 -1      4254 3.75754E+01 2.46649E+01 0.00000E+00
 -1      4255 8.65350E+01 2.19796E+01 0.00000E+00
 -1      4256 8.57850E+01 2.06806E+01 0.00000E+00
 -1      4257 8.42850E+01 2.06806E+01 0.00000E+00
 -1      4258 1.96588E+01 2.71218E+01 0.00000E+00
 -1      4259 7.76403E+01 2.61758E+01 0.00000E+00
 -1      4260 8.03603E+01 2.18370E+01 0.00000E+00
 -1      4261 1.26988E+02 2.07774E+01 0.00000E+00
 -1      4262 1.25863E+02 2.06933E+01 0.00000E+00
 -1      4263 1.25113E+02 2.19923E+01 0.00000E+00
 -1      4264 1.27268E+02 2.20176E+01 0.00000E+00
 -1      4265 1.02285E+02 2.06806E+01 0.00000E+00
 -1      4266 1.01535E+02 2.19796E+01 0.00000E+00
 -1      4267 1.03785E+02 2.06806E+01 0.00000E+00
 -1      4268 9.17850E+01 2.06806E+01 0.00000E+00
 -1      4269 9.02850E+01 2.06806E+01 0.00000E+00
 -1      4270 8.95350E+01 2.19796E+01 0.00000E+00
 -1      4271 7.82541E+01 2.52708E+01 0.00000E+00
 -1      4272 2.60282E+01 2.07276E+01 0.00000E+00
 -1      4273 7.90540E+01 2.39942E+01 0.00000E+00
 -1      4274 7.98679E+01 2.54554E+01 0.00000E+00
 -1      4275 8.16589E+01 2.53984E+01 0.00000E+00
 -1      4276 7.96767E+01 2.29591E+01 0.00000E+00
 -1      4277 1.06785E+02 2.06806E+01 0.00000E+00
 -1      4278 1.05285E+02 2.06806E+01 0.00000E+00
 -1      4279 1.07535E+02 2.19796E+01 0.00000E+00
 -1      4280 2.90282E+01 2.07276E+01 0.00000E+00
 -1      4281 2.75282E+01 2.07276E+01 0.00000E+00
 -1      4282 2.63705E+01 2.23740E+01 0.00000E+00
 -1      4283 3.76873E+01 2.03562E+01 0.00000E+00
 -1      4284 3.72260E+01 1.95451E+01 0.00000E+00
 -1      4285 3.60331E+01 1.96609E+01 0.00000E+00
 -1      4286 3.06696E+01 2.06516E+01 0.00000E+00
 -1      4287 2.95120E+01 2.22980E+01 0.00000E+00
 -1      4288 3.69039E+01 2.15100E+01 0.00000E+00
 -1      4289 3.21696E+01 2.06516E+01 0.00000E+00
 -1      4290 2.37603E+01 2.44960E+01 0.00000E+00
 -1      4291 2.99017E+01 2.44200E+01 0.00000E+00
 -1      4292 2.82603E+01 2.44960E+01 0.00000E+00
 -1      4293 9.47850E+01 2.06806E+01 0.00000E+00
 -1      4294 9.32850E+01 2.06806E+01 0.00000E+00
 -1      4295 9.25350E+01 2.19796E+01 0.00000E+00
 -1      4296 2.52603E+01 2.44960E+01 0.00000E+00
 -1      4297 8.34000E+01 2.53190E+01 0.00000E+00
 -1      4298 8.49000E+01 2.53190E+01 0.00000E+00
 -1      4299 8.68425E+01 2.42988E+01 0.00000E+00
 -1      4300 8.83425E+01 2.42988E+01 0.00000E+00
 -1      4301 8.98425E+01 2.42988E+01 0.00000E+00
 -1      4302 9.13425E+01 2.42988E+01 0.00000E+00
 -1      4303 9.28425E+01 2.42988E+01 0.00000E+00
 -1      4304 9.43425E+01 2.42988E+01 0.00000E+00
 -1      4305 9.58425E+01 2.42988E+01 0.00000E+00
 -1      4306 9.73425E+01 2.42988E+01 0.00000E+00
 -1      4307 9.88425E+01 2.42988E+01 0.00000E+00
 -1      4308 1.00342E+02 2.42988E+01 0.00000E+00
 -1      4309 1.01842E+02 2.42988E+01 0.00000E+00
 -1      4310 1.03342E+02 2.42988E+01 0.00000E+00
 -1      4311 1.04842E+02 2.42988E+01 0.00000E+00
 -1      4312 1.06342E+02 2.42988E+01 0.00000E+00
 -1      4313 1.07842E+02 2.42988E+01 0.00000E+00
 -1      4314 1.09342E+02 2.42988E+01 0.00000E+00
 -1      4315 1.10842E+02 2.42988E+01 0.00000E+00
 -1      4316 1.12342E+02 2.42988E+01 0.00000E+00
 -1      4317 1.13842E+02 2.42988E+01 0.00000E+00
 -1      4318 1.15342E+02 2.42988E+01 0.00000E+00
 -1      4319 1.16842E+02 2.42988E+01 0.00000E+00
 -1      4320 1.18342E+02 2.42988E+01 0.00000E+00
 -1      4321 1.19842E+02 2.42988E+01 0.00000E+00
 -1      4322 1.21342E+02 2.42988E+01 0.00000E+00
 -1      4323 1.22842E+02 2.42988E+01 0.00000E+00
 -1      4324 1.24342E+02 2.42988E+01 0.00000E+00
 -1      4325 8.35350E+01 2.19571E+01 0.00000E+00
 -1      4326 3.59817E+01 2.45830E+01 0.00000E+00
 -1      4327 3.14017E+01 2.44200E+01 0.00000E+00
 -1      4328 2.67603E+01 2.44960E+01 0.00000E+00
 -1      4329 8.13514E+01 2.30567E+01 0.00000E+00
 -1      4330 1.27500E+02 2.41771E+01 0.00000E+00
 -1      4331 1.27219E+02 2.29369E+01 0.00000E+00
 -1      4332 3.29417E+01 2.45015E+01 0.00000E+00
 -1      4333 3.44417E+01 2.45015E+01 0.00000E+00
 -1      4334 3.57733E+01 2.24665E+01 0.00000E+00
 -1      4335 3.26934E+01 2.23035E+01 0.00000E+00
 -1      4336 3.37096E+01 2.07331E+01 0.00000E+00
 -1      4337 1.26778E+02 2.55643E+01 0.00000E+00
 -1      4338 1.26142E+02 2.29243E+01 0.00000E+00
 -1      4339 8.30925E+01 2.29773E+01 0.00000E+00
 -1      4340 8.24089E+01 2.40994E+01 0.00000E+00
 -1      4341 1.25064E+02 2.29116E+01 0.00000E+00
 -1      4342 8.53425E+01 2.42988E+01 0.00000E+00
 -1      4343 1.04535E+02 2.19796E+01 0.00000E+00
 -1      4344 9.55350E+01 2.19796E+01 0.00000E+00
 -1      4345 1.25371E+02 2.52308E+01 0.00000E+00
 -1      4346 3.49025E+01 2.06174E+01 0.00000E+00
 -1      4347 3.53639E+01 2.14284E+01 0.00000E+00
 -1      4348 8.45925E+01 2.29998E+01 0.00000E+00
 -3
    3C                          2092                                     1
 -1       165    8    0    1
 -2         6         7        23      1129      1293      1146
 -1       166    8    0    1
 -2         7         8       165      1130      1294      1295
 -1       167    8    0    1
 -2         8         9       166      1131      1296      1297
 -1       168    8    0    1
 -2         8       166       165      1297      1298      1294
 -1       169    8    0    1
 -2         9        10       167      1132      1299      1300
 -1       170    8    0    1
 -2         9       167       166      1300      1301      1296
 -1       171    8    0    1
 -2        10        11       168      1133      1302      1303
 -1       172    8    0    1
 -2        10       168       167      1303      1304      1299
 -1       173    8    0    1
 -2        11        12       169      1134      1305      1306
 -1       174    8    0    1
 -2        11       169       168      1306      1307      1302
 -1       175    8    0    1
 -2        12        13       170      1135      1308      1309
 -1       176    8    0    1
 -2        12       170       169      1309      1310      1305
 -1       177    8    0    1
 -2        13        14       171      1136      1311      1312
 -1       178    8    0    1
 -2        13       171       170      1312      1313      1308
 -1       179    8    0    1
 -2        14        15       172      1137      1314      1315
 -1       180    8    0    1
 -2        14       172       171      1315      1316      1311
 -1       181    8    0    1
 -2        15        16       173      1138      1317      1318
 -1       182    8    0    1
 -2        15       173       172      1318      1319      1314
 -1       183    8    0    1
 -2        16        17       174      1139      1320      1321
 -1       184    8    0    1
 -2        16       174       173      1321      1322      1317
 -1       185    8    0    1
 -2        17        18       175      1140      1323      1324
 -1       186    8    0    1
 -2        17       175       174      1324      1325      1320
 -1       187    8    0    1
 -2        18        19       176      1141      1326      1327
 -1       188    8    0    1
 -2        18       176       175      1327      1328      1323
 -1       189    8    0    1
 -2        19        20       177      1142      1329      1330
 -1       190    8    0    1
 -2        19       177       176      1330      1331      1326
 -1       191    8    0    1
 -2        20        21       178      1143      1332      1333
 -1       192    8    0    1
 -2        20       178       177      1333      1334      1329
 -1       193    8    0    1
 -2        21        22       179      1144      1335      1336
 -1       194    8    0    1
 -2        21       179       178      1336      1337      1332
 -1       195    8    0    1
 -2        22         5       180      1145      1338      1339
 -1       196    8    0    1
 -2       179        22       180      1335      1339      1340
 -1       197    8    0    1
 -2         5        72       180      1196      1341      1338
 -1       198    8    0    1
 -2        24        23       181      1147      1342      1343
 -1       199    8    0    1
 -2        25        24       182      1148      1344      1345
 -1       200    8    0    1
 -2        24       181       182      1343      1346      1344
 -1       201    8    0    1
 -2        26        25       183      1149      1347      1348
 -1       202    8    0    1
 -2        25       182       183      1345      1349      1347
 -1       203    8    0    1
 -2        27        26       184      1150      1350      1351
 -1       204    8    0    1
 -2        26       183       184      1348      1352      1350
 -1       205    8    0    1
 -2        28        27       185      1151      1353      1354
 -1       206    8    0    1
 -2        27       184       185      1351      1355      1353
 -1       207    8    0    1
 -2        29        28       186      1152      1356      1357
 -1       208    8    0    1
 -2        28       185       186      1354      1358      1356
 -1       209    8    0    1
 -2        30        29       187      1153      1359      1360
 -1       210    8    0    1
 -2        29       186       187      1357      1361      1359
 -1       211    8    0    1
 -2        31        30       188      1154      1362      1363
 -1       212    8    0    1
 -2        30       187       188      1360      1364      1362
 -1       213    8    0    1
 -2        32        31       189      1155      1365      1366
 -1       214    8    0    1
 -2        31       188       189      1363      1367      1365
 -1       215    8    0    1
 -2        33        32       190      1156      1368      1369
 -1       216    8    0    1
 -2        32       189       190      1366      1370      1368
 -1       217    8    0    1
 -2        34        33       191      1157      1371      1372
 -1       218    8    0    1
 -2        33       190       191      1369      1373      1371
 -1       219    8    0    1
 -2        35        34       192      1158      1374      1375
 -1       220    8    0    1
 -2        34       191       192      1372      1376      1374
 -1       221    8    0    1
 -2        36        35       193      1159      1377      1378
 -1       222    8    0    1
 -2        35       192       193      1375      1379      1377
 -1       223    8    0    1
 -2        37        36       194      1160      1380      1381
 -1       224    8    0    1
 -2        36       193       194      1378      1382      1380
 -1       225    8    0    1
 -2        38        37       195      1161      1383      1384
 -1       226    8    0    1
 -2        37       194       195      1381      1385      1383
 -1       227    8    0    1
 -2        39        38       196      1162      1386      1387
 -1       228    8    0    1
 -2        38       195       196      1384      1388      1386
 -1       229    8    0    1
 -2        40        39       197      1163      1389      1390
 -1       230    8    0    1
 -2        39       196       197      1387      1391      1389
 -1       231    8    0    1
 -2        41        40       198      1164      1392      1393
 -1       232    8    0    1
 -2        40       197       198      1390      1394      1392
 -1       233    8    0    1
 -2        42        41       199      1165      1395      1396
 -1       234    8    0    1
 -2        41       198       199      1393      1397      1395
 -1       235    8    0    1
 -2        43        42       200      1166      1398      1399
 -1       236    8    0    1
 -2        42       199       200      1396      1400      1398
 -1       237    8    0    1
 -2        44        43       201      1167      1401      1402
 -1       238    8    0    1
 -2        43       200       201      1399      1403      1401
 -1       239    8    0    1
 -2        45        44       202      1168      1404      1405
 -1       240    8    0    1
 -2        44       201       202      1402      1406      1404
 -1       241    8    0    1
 -2        46        45       203      1169      1407      1408
 -1       242    8    0    1
 -2        45       202       203      1405      1409      1407
 -1       243    8    0    1
 -2        47        46       204      1170      1410      1411
 -1       244    8    0    1
 -2        46       203       204      1408      1412      1410
 -1       245    8    0    1
 -2        48        47       205      1171      1413      1414
 -1       246    8    0    1
 -2        47       204       205      1411      1415      1413
 -1       247    8    0    1
 -2        49        48       206      1172      1416      1417
 -1       248    8    0    1
 -2        48       205       206      1414      1418      1416
 -1       249    8    0    1
 -2        50        49       207      1173      1419      1420
 -1       250    8    0    1
 -2        49       206       207      1417      1421      1419
 -1       251    8    0    1
 -2        51        50       208      1174      1422      1423
 -1       252    8    0    1
 -2        50       207       208      1420      1424      1422
 -1       253    8    0    1
 -2        52        51       209      1175      1425      1426
 -1       254    8    0    1
 -2        51       208       209      1423      1427      1425
 -1       255    8    0    1
 -2        53        52       210      1176      1428      1429
 -1       256    8    0    1
 -2        52       209       210      1426      1430      1428
 -1       257    8    0    1
 -2        54        53       211      1177      1431      1432
 -1       258    8    0    1
 -2        53       210       211      1429      1433      1431
 -1       259    8    0    1
 -2        55        54       212      1178      1434      1435
 -1       260    8    0    1
 -2        54       211       212      1432      1436      1434
 -1       261    8    0    1
 -2        56        55       213      1179      1437      1438
 -1       262    8    0    1
 -2        55       212       213      1435      1439      1437
 -1       263    8    0    1
 -2        57        56       214      1180      1440      1441
 -1       264    8    0    1
 -2        56       213       214      1438      1442      1440
 -1       265    8    0    1
 -2        58        57       215      1181      1443      1444
 -1       266    8    0    1
 -2        57       214       215      1441      1445      1443
 -1       267    8    0    1
 -2        59        58       216      1182      1446      1447
 -1       268    8    0    1
 -2        58       215       216      1444      1448      1446
 -1       269    8    0    1
 -2        60        59       217      1183      1449      1450
 -1       270    8    0    1
 -2        59       216       217      1447      1451      1449
 -1       271    8    0    1
 -2        61        60       218      1184      1452      1453
 -1       272    8    0    1
 -2        60       217       218      1450      1454      1452
 -1       273    8    0    1
 -2        62        61       219      1185      1455      1456
 -1       274    8    0    1
 -2        61       218       219      1453      1457      1455
 -1       275    8    0    1
 -2        63        62       220      1186      1458      1459
 -1       276    8    0    1
 -2        62       219       220      1456      1460      1458
 -1       277    8    0    1
 -2        64        63       221      1187      1461      1462
 -1       278    8    0    1
 -2        63       220       221      1459      1463      1461
 -1       279    8    0    1
 -2        65        64       222      1188      1464      1465
 -1       280    8    0    1
 -2        64       221       222      1462      1466      1464
 -1       281    8    0    1
 -2        66        65       223      1189      1467      1468
 -1       282    8    0    1
 -2        65       222       223      1465      1469      1467
 -1       283    8    0    1
 -2        67        66       224      1190      1470      1471
 -1       284    8    0    1
 -2        66       223       224      1468      1472      1470
 -1       285    8    0    1
 -2        68        67       225      1191      1473      1474
 -1       286    8    0    1
 -2        67       224       225      1471      1475      1473
 -1       287    8    0    1
 -2        69        68       226      1192      1476      1477
 -1       288    8    0    1
 -2        68       225       226      1474      1478      1476
 -1       289    8    0    1
 -2        70        69       227      1193      1479      1480
 -1       290    8    0    1
 -2        69       226       227      1477      1481      1479
 -1       291    8    0    1
 -2        71        70       228      1194      1482      1483
 -1       292    8    0    1
 -2        70       227       228      1480      1484      1482
 -1       293    8    0    1
 -2         4        71       136      1195      1485      1262
 -1       294    8    0    1
 -2       136        71       228      1485      1483      1486
 -1       295    8    0    1
 -2        72        73       229      1197      1487      1488
 -1       296    8    0    1
 -2        72       229       180      1488      1489      1341
 -1       297    8    0    1
 -2        73        74       230      1198      1490      1491
 -1       298    8    0    1
 -2        73       230       229      1491      1492      1487
 -1       299    8    0    1
 -2        74        75       231      1199      1493      1494
 -1       300    8    0    1
 -2        74       231       230      1494      1495      1490
 -1       301    8    0    1
 -2        75        76       232      1200      1496      1497
 -1       302    8    0    1
 -2        75       232       231      1497      1498      1493
 -1       303    8    0    1
 -2        76        77       233      1201      1499      1500
 -1       304    8    0    1
 -2        76       233       232      1500      1501      1496
 -1       305    8    0    1
 -2        77        78       234      1202      1502      1503
 -1       306    8    0    1
 -2        77       234       233      1503      1504      1499
 -1       307    8    0    1
 -2        78        79       235      1203      1505      1506
 -1       308    8    0    1
 -2        78       235       234      1506      1507      1502
 -1       309    8    0    1
 -2        79        80       236      1204      1508      1509
 -1       310    8    0    1
 -2        79       236       235      1509      1510      1505
 -1       311    8    0    1
 -2        80        81       237      1205      1511      1512
 -1       312    8    0    1
 -2        80       237       236      1512      1513      1508
 -1       313    8    0    1
 -2        81        82       238      1206      1514      1515
 -1       314    8    0    1
 -2        81       238       237      1515      1516      1511
 -1       315    8    0    1
 -2        82        83       239      1207      1517      1518
 -1       316    8    0    1
 -2        82       239       238      1518      1519      1514
 -1       317    8    0    1
 -2        83        84       240      1208      1520      1521
 -1       318    8    0    1
 -2        83       240       239      1521      1522      1517
 -1       319    8    0    1
 -2        84        85       241      1209      1523      1524
 -1       320    8    0    1
 -2        84       241       240      1524      1525      1520
 -1       321    8    0    1
 -2        85        86       242      1210      1526      1527
 -1       322    8    0    1
 -2        85       242       241      1527      1528      1523
 -1       323    8    0    1
 -2        86        87       243      1211      1529      1530
 -1       324    8    0    1
 -2        86       243       242      1530      1531      1526
 -1       325    8    0    1
 -2        87        88       244      1212      1532      1533
 -1       326    8    0    1
 -2        87       244       243      1533      1534      1529
 -1       327    8    0    1
 -2        88        89       245      1213      1535      1536
 -1       328    8    0    1
 -2        88       245       244      1536      1537      1532
 -1       329    8    0    1
 -2        89        90       246      1214      1538      1539
 -1       330    8    0    1
 -2        89       246       245      1539      1540      1535
 -1       331    8    0    1
 -2        90        91       247      1215      1541      1542
 -1       332    8    0    1
 -2        90       247       246      1542      1543      1538
 -1       333    8    0    1
 -2        91        92       248      1216      1544      1545
 -1       334    8    0    1
 -2        91       248       247      1545      1546      1541
 -1       335    8    0    1
 -2        92        93       249      1217      1547      1548
 -1       336    8    0    1
 -2        92       249       248      1548      1549      1544
 -1       337    8    0    1
 -2        93        94       250      1218      1550      1551
 -1       338    8    0    1
 -2        93       250       249      1551      1552      1547
 -1       339    8    0    1
 -2        94        95       251      1219      1553      1554
 -1       340    8    0    1
 -2        94       251       250      1554      1555      1550
 -1       341    8    0    1
 -2        95        96       252      1220      1556      1557
 -1       342    8    0    1
 -2        95       252       251      1557      1558      1553
 -1       343    8    0    1
 -2        96        97       253      1221      1559      1560
 -1       344    8    0    1
 -2        96       253       252      1560      1561      1556
 -1       345    8    0    1
 -2        97        98       254      1222      1562      1563
 -1       346    8    0    1
 -2        97       254       253      1563      1564      1559
 -1       347    8    0    1
 -2        98        99       255      1223      1565      1566
 -1       348    8    0    1
 -2        98       255       254      1566      1567      1562
 -1       349    8    0    1
 -2        99       100       256      1224      1568      1569
 -1       350    8    0    1
 -2        99       256       255      1569      1570      1565
 -1       351    8    0    1
 -2       100       101       257      1225      1571      1572
 -1       352    8    0    1
 -2       100       257       256      1572      1573      1568
 -1       353    8    0    1
 -2       101       102       258      1226      1574      1575
 -1       354    8    0    1
 -2       101       258       257      1575      1576      1571
 -1       355    8    0    1
 -2       102       103       259      1227      1577      1578
 -1       356    8    0    1
 -2       102       259       258      1578      1579      1574
 -1       357    8    0    1
 -2       103       104       260      1228      1580      1581
 -1       358    8    0    1
 -2       103       260       259      1581      1582      1577
 -1       359    8    0    1
 -2       104       105       261      1229      1583      1584
 -1       360    8    0    1
 -2       104       261       260      1584      1585      1580
 -1       361    8    0    1
 -2       105       106       262      1230      1586      1587
 -1       362    8    0    1
 -2       105       262       261      1587      1588      1583
 -1       363    8    0    1
 -2       106       107       263      1231      1589      1590
 -1       364    8    0    1
 -2       106       263       262      1590      1591      1586
 -1       365    8    0    1
 -2       107       108       264      1232      1592      1593
 -1       366    8    0    1
 -2       107       264       263      1593      1594      1589
 -1       367    8    0    1
 -2       108       109       265      1233      1595      1596
 -1       368    8    0    1
 -2       108       265       264      1596      1597      1592
 -1       369    8    0    1
 -2       109       110       266      1234      1598      1599
 -1       370    8    0    1
 -2       109       266       265      1599      1600      1595
 -1       371    8    0    1
 -2       110       111       267      1235      1601      1602
 -1       372    8    0    1
 -2       110       267       266      1602      1603      1598
 -1       373    8    0    1
 -2       111       112       268      1236      1604      1605
 -1       374    8    0    1
 -2       111       268       267      1605      1606      1601
 -1       375    8    0    1
 -2       112       113       269      1237      1607      1608
 -1       376    8    0    1
 -2       112       269       268      1608      1609      1604
 -1       377    8    0    1
 -2       113       114       270      1238      1610      1611
 -1       378    8    0    1
 -2       113       270       269      1611      1612      1607
 -1       379    8    0    1
 -2       114       115       271      1239      1613      1614
 -1       380    8    0    1
 -2       114       271       270      1614      1615      1610
 -1       381    8    0    1
 -2       115       116       272      1240      1616      1617
 -1       382    8    0    1
 -2       115       272       271      1617      1618      1613
 -1       383    8    0    1
 -2       116       117       273      1241      1619      1620
 -1       384    8    0    1
 -2       116       273       272      1620      1621      1616
 -1       385    8    0    1
 -2       117       118       274      1242      1622      1623
 -1       386    8    0    1
 -2       117       274       273      1623      1624      1619
 -1       387    8    0    1
 -2       118       119       275      1243      1625      1626
 -1       388    8    0    1
 -2       118       275       274      1626      1627      1622
 -1       389    8    0    1
 -2       119       120       276      1244      1628      1629
 -1       390    8    0    1
 -2       119       276       275      1629      1630      1625
 -1       391    8    0    1
 -2       120         3       121      1245      1246      1631
 -1       392    8    0    1
 -2       121       122       277      1247      1632      1633
 -1       393    8    0    1
 -2       122       123       278      1248      1634      1635
 -1       394    8    0    1
 -2       122       278       277      1635      1636      1632
 -1       395    8    0    1
 -2       123       124       279      1249      1637      1638
 -1       396    8    0    1
 -2       123       279       278      1638      1639      1634
 -1       397    8    0    1
 -2       124       125       280      1250      1640      1641
 -1       398    8    0    1
 -2       124       280       279      1641      1642      1637
 -1       399    8    0    1
 -2       125       126       281      1251      1643      1644
 -1       400    8    0    1
 -2       125       281       280      1644      1645      1640
 -1       401    8    0    1
 -2       126       127       282      1252      1646      1647
 -1       402    8    0    1
 -2       126       282       281      1647      1648      1643
 -1       403    8    0    1
 -2       127       128       283      1253      1649      1650
 -1       404    8    0    1
 -2       127       283       282      1650      1651      1646
 -1       405    8    0    1
 -2       128       129       284      1254      1652      1653
 -1       406    8    0    1
 -2       128       284       283      1653      1654      1649
 -1       407    8    0    1
 -2       129       130       285      1255      1655      1656
 -1       408    8    0    1
 -2       129       285       284      1656      1657      1652
 -1       409    8    0    1
 -2       130       131       286      1256      1658      1659
 -1       410    8    0    1
 -2       130       286       285      1659      1660      1655
 -1       411    8    0    1
 -2       131       132       287      1257      1661      1662
 -1       412    8    0    1
 -2       131       287       286      1662      1663      1658
 -1       413    8    0    1
 -2       132       133       288      1258      1664      1665
 -1       414    8    0    1
 -2       132       288       287      1665      1666      1661
 -1       415    8    0    1
 -2       133       134       289      1259      1667      1668
 -1       416    8    0    1
 -2       133       289       288      1668      1669      1664
 -1       417    8    0    1
 -2       134       135       290      1260      1670      1671
 -1       418    8    0    1
 -2       134       290       289      1671      1672      1667
 -1       419    8    0    1
 -2       135       136       291      1261      1673      1674
 -1       420    8    0    1
 -2       290       135       291      1670      1674      1675
 -1       421    8    0    1
 -2       136       228       291      1486      1676      1673
 -1       422    8    0    1
 -2         2       137       292      1263      1677      1678
 -1       423    8    0    1
 -2       137       138       293      1264      1679      1680
 -1       424    8    0    1
 -2       138       139       294      1265      1681      1682
 -1       425    8    0    1
 -2       139       140       295      1266      1683      1684
 -1       426    8    0    1
 -2       140       141       296      1267      1685      1686
 -1       427    8    0    1
 -2       141       142       297      1268      1687      1688
 -1       428    8    0    1
 -2       142       143       298      1269      1689      1690
 -1       429    8    0    1
 -2       143       144       299      1270      1691      1692
 -1       430    8    0    1
 -2       144       145       300      1271      1693      1694
 -1       431    8    0    1
 -2       145       146       301      1272      1695      1696
 -1       432    8    0    1
 -2       146       147       302      1273      1697      1698
 -1       433    8    0    1
 -2       147       148       303      1274      1699      1700
 -1       434    8    0    1
 -2       148       149       304      1275      1701      1702
 -1       435    8    0    1
 -2       149       150       305      1276      1703      1704
 -1       436    8    0    1
 -2       150       151       306      1277      1705      1706
 -1       437    8    0    1
 -2       151       152       307      1278      1707      1708
 -1       438    8    0    1
 -2       152       153       308      1279      1709      1710
 -1       439    8    0    1
 -2       153         1       309      1280      1711      1712
 -1       440    8    0    1
 -2         1       154       310      1281      1713      1714
 -1       441    8    0    1
 -2       154       155       311      1282      1715      1716
 -1       442    8    0    1
 -2       155       156       312      1283      1717      1718
 -1       443    8    0    1
 -2       156       157       313      1284      1719      1720
 -1       444    8    0    1
 -2       157       158       314      1285      1721      1722
 -1       445    8    0    1
 -2       158       159       315      1286      1723      1724
 -1       446    8    0    1
 -2       159       160       316      1287      1725      1726
 -1       447    8    0    1
 -2       160       161       317      1288      1727      1728
 -1       448    8    0    1
 -2       161       162       318      1289      1729      1730
 -1       449    8    0    1
 -2       162       163       319      1290      1731      1732
 -1       450    8    0    1
 -2       163       164       320      1291      1733      1734
 -1       451    8    0    1
 -2       164         2       321      1292      1735      1736
 -1       452    8    0    1
 -2       295       140       296      1683      1686      1737
 -1       453    8    0    1
 -2       294       139       295      1681      1684      1738
 -1       454    8    0    1
 -2       120       121       276      1631      1739      1628
 -1       455    8    0    1
 -2       121       277       276      1633      1740      1739
 -1       456    8    0    1
 -2       292       137       293      1677      1680      1741
 -1       457    8    0    1
 -2       293       138       294      1679      1682      1742
 -1       458    8    0    1
 -2         2       292       321      1678      1743      1735
 -1       459    8    0    1
 -2       141       297       296      1688      1744      1685
 -1       460    8    0    1
 -2       142       298       297      1690      1745      1687
 -1       461    8    0    1
 -2       143       299       298      1692      1746      1689
 -1       462    8    0    1
 -2       144       300       299      1694      1747      1691
 -1       463    8    0    1
 -2       145       301       300      1696      1748      1693
 -1       464    8    0    1
 -2       146       302       301      1698      1749      1695
 -1       465    8    0    1
 -2       147       303       302      1700      1750      1697
 -1       466    8    0    1
 -2       148       304       303      1702      1751      1699
 -1       467    8    0    1
 -2       149       305       304      1704      1752      1701
 -1       468    8    0    1
 -2       150       306       305      1706      1753      1703
 -1       469    8    0    1
 -2       151       307       306      1708      1754      1705
 -1       470    8    0    1
 -2       152       308       307      1710      1755      1707
 -1       471    8    0    1
 -2       153       309       308      1712      1756      1709
 -1       472    8    0    1
 -2         1       310       309      1714      1757      1711
 -1       473    8    0    1
 -2       154       311       310      1716      1758      1713
 -1       474    8    0    1
 -2       155       312       311      1718      1759      1715
 -1       475    8    0    1
 -2       156       313       312      1720      1760      1717
 -1       476    8    0    1
 -2       157       314       313      1722      1761      1719
 -1       477    8    0    1
 -2       158       315       314      1724      1762      1721
 -1       478    8    0    1
 -2       159       316       315      1726      1763      1723
 -1       479    8    0    1
 -2       160       317       316      1728      1764      1725
 -1       480    8    0    1
 -2       161       318       317      1730      1765      1727
 -1       481    8    0    1
 -2       162       319       318      1732      1766      1729
 -1       482    8    0    1
 -2       163       320       319      1734      1767      1731
 -1       483    8    0    1
 -2       164       321       320      1736      1768      1733
 -1       484    8    0    1
 -2        23         7       165      1293      1295      1769
 -1       485    8    0    1
 -2       166       167       322      1301      1770      1771
 -1       486    8    0    1
 -2       165       166       323      1298      1772      1773
 -1       487    8    0    1
 -2       166       322       323      1771      1774      1772
 -1       488    8    0    1
 -2       168       169       324      1307      1775      1776
 -1       489    8    0    1
 -2       169       170       325      1310      1777      1778
 -1       490    8    0    1
 -2       169       325       324      1778      1779      1775
 -1       491    8    0    1
 -2       170       171       326      1313      1780      1781
 -1       492    8    0    1
 -2       170       326       325      1781      1782      1777
 -1       493    8    0    1
 -2       171       172       327      1316      1783      1784
 -1       494    8    0    1
 -2       171       327       326      1784      1785      1780
 -1       495    8    0    1
 -2       172       173       328      1319      1786      1787
 -1       496    8    0    1
 -2       172       328       327      1787      1788      1783
 -1       497    8    0    1
 -2       173       174       329      1322      1789      1790
 -1       498    8    0    1
 -2       173       329       328      1790      1791      1786
 -1       499    8    0    1
 -2       174       175       330      1325      1792      1793
 -1       500    8    0    1
 -2       174       330       329      1793      1794      1789
 -1       501    8    0    1
 -2       175       176       331      1328      1795      1796
 -1       502    8    0    1
 -2       175       331       330      1796      1797      1792
 -1       503    8    0    1
 -2       176       177       332      1331      1798      1799
 -1       504    8    0    1
 -2       176       332       331      1799      1800      1795
 -1       505    8    0    1
 -2       177       178       333      1334      1801      1802
 -1       506    8    0    1
 -2       177       333       332      1802      1803      1798
 -1       507    8    0    1
 -2       178       179       334      1337      1804      1805
 -1       508    8    0    1
 -2       178       334       333      1805      1806      1801
 -1       509    8    0    1
 -2       179       180       335      1340      1807      1808
 -1       510    8    0    1
 -2       334       179       335      1804      1808      1809
 -1       511    8    0    1
 -2       180       229       335      1489      1810      1807
 -1       512    8    0    1
 -2       181        23       165      1342      1769      1811
 -1       513    8    0    1
 -2       229       230       336      1492      1812      1813
 -1       514    8    0    1
 -2       229       336       335      1813      1814      1810
 -1       515    8    0    1
 -2       181       165       323      1811      1773      1815
 -1       516    8    0    1
 -2       183       182       337      1349      1816      1817
 -1       517    8    0    1
 -2       184       183       338      1352      1818      1819
 -1       518    8    0    1
 -2       183       337       338      1817      1820      1818
 -1       519    8    0    1
 -2       185       184       339      1355      1821      1822
 -1       520    8    0    1
 -2       184       338       339      1819      1823      1821
 -1       521    8    0    1
 -2       186       185       340      1358      1824      1825
 -1       522    8    0    1
 -2       185       339       340      1822      1826      1824
 -1       523    8    0    1
 -2       187       186       341      1361      1827      1828
 -1       524    8    0    1
 -2       186       340       341      1825      1829      1827
 -1       525    8    0    1
 -2       188       187       342      1364      1830      1831
 -1       526    8    0    1
 -2       187       341       342      1828      1832      1830
 -1       527    8    0    1
 -2       189       188       343      1367      1833      1834
 -1       528    8    0    1
 -2       188       342       343      1831      1835      1833
 -1       529    8    0    1
 -2       190       189       344      1370      1836      1837
 -1       530    8    0    1
 -2       189       343       344      1834      1838      1836
 -1       531    8    0    1
 -2       191       190       345      1373      1839      1840
 -1       532    8    0    1
 -2       190       344       345      1837      1841      1839
 -1       533    8    0    1
 -2       192       191       346      1376      1842      1843
 -1       534    8    0    1
 -2       191       345       346      1840      1844      1842
 -1       535    8    0    1
 -2       193       192       347      1379      1845      1846
 -1       536    8    0    1
 -2       192       346       347      1843      1847      1845
 -1       537    8    0    1
 -2       194       193       348      1382      1848      1849
 -1       538    8    0    1
 -2       193       347       348      1846      1850      1848
 -1       539    8    0    1
 -2       195       194       349      1385      1851      1852
 -1       540    8    0    1
 -2       194       348       349      1849      1853      1851
 -1       541    8    0    1
 -2       196       195       350      1388      1854      1855
 -1       542    8    0    1
 -2       195       349       350      1852      1856      1854
 -1       543    8    0    1
 -2       197       196       351      1391      1857      1858
 -1       544    8    0    1
 -2       196       350       351      1855      1859      1857
 -1       545    8    0    1
 -2       198       197       352      1394      1860      1861
 -1       546    8    0    1
 -2       197       351       352      1858      1862      1860
 -1       547    8    0    1
 -2       199       198       353      1397      1863      1864
 -1       548    8    0    1
 -2       198       352       353      1861      1865      1863
 -1       549    8    0    1
 -2       200       199       354      1400      1866      1867
 -1       550    8    0    1
 -2       199       353       354      1864      1868      1866
 -1       551    8    0    1
 -2       201       200       355      1403      1869      1870
 -1       552    8    0    1
 -2       200       354       355      1867      1871      1869
 -1       553    8    0    1
 -2       202       201       356      1406      1872      1873
 -1       554    8    0    1
 -2       201       355       356      1870      1874      1872
 -1       555    8    0    1
 -2       203       202       357      1409      1875      1876
 -1       556    8    0    1
 -2       202       356       357      1873      1877      1875
 -1       557    8    0    1
 -2       204       203       358      1412      1878      1879
 -1       558    8    0    1
 -2       203       357       358      1876      1880      1878
 -1       559    8    0    1
 -2       205       204       359      1415      1881      1882
 -1       560    8    0    1
 -2       204       358       359      1879      1883      1881
 -1       561    8    0    1
 -2       206       205       360      1418      1884      1885
 -1       562    8    0    1
 -2       205       359       360      1882      1886      1884
 -1       563    8    0    1
 -2       207       206       361      1421      1887      1888
 -1       564    8    0    1
 -2       206       360       361      1885      1889      1887
 -1       565    8    0    1
 -2       208       207       362      1424      1890      1891
 -1       566    8    0    1
 -2       207       361       362      1888      1892      1890
 -1       567    8    0    1
 -2       209       208       363      1427      1893      1894
 -1       568    8    0    1
 -2       208       362       363      1891      1895      1893
 -1       569    8    0    1
 -2       210       209       364      1430      1896      1897
 -1       570    8    0    1
 -2       209       363       364      1894      1898      1896
 -1       571    8    0    1
 -2       211       210       365      1433      1899      1900
 -1       572    8    0    1
 -2       210       364       365      1897      1901      1899
 -1       573    8    0    1
 -2       212       211       366      1436      1902      1903
 -1       574    8    0    1
 -2       211       365       366      1900      1904      1902
 -1       575    8    0    1
 -2       213       212       367      1439      1905      1906
 -1       576    8    0    1
 -2       212       366       367      1903      1907      1905
 -1       577    8    0    1
 -2       214       213       368      1442      1908      1909
 -1       578    8    0    1
 -2       213       367       368      1906      1910      1908
 -1       579    8    0    1
 -2       215       214       369      1445      1911      1912
 -1       580    8    0    1
 -2       214       368       369      1909      1913      1911
 -1       581    8    0    1
 -2       216       215       370      1448      1914      1915
 -1       582    8    0    1
 -2       215       369       370      1912      1916      1914
 -1       583    8    0    1
 -2       217       216       371      1451      1917      1918
 -1       584    8    0    1
 -2       216       370       371      1915      1919      1917
 -1       585    8    0    1
 -2       218       217       372      1454      1920      1921
 -1       586    8    0    1
 -2       217       371       372      1918      1922      1920
 -1       587    8    0    1
 -2       219       218       373      1457      1923      1924
 -1       588    8    0    1
 -2       218       372       373      1921      1925      1923
 -1       589    8    0    1
 -2       220       219       374      1460      1926      1927
 -1       590    8    0    1
 -2       219       373       374      1924      1928      1926
 -1       591    8    0    1
 -2       221       220       375      1463      1929      1930
 -1       592    8    0    1
 -2       220       374       375      1927      1931      1929
 -1       593    8    0    1
 -2       222       221       376      1466      1932      1933
 -1       594    8    0    1
 -2       221       375       376      1930      1934      1932
 -1       595    8    0    1
 -2       223       222       377      1469      1935      1936
 -1       596    8    0    1
 -2       222       376       377      1933      1937      1935
 -1       597    8    0    1
 -2       224       223       378      1472      1938      1939
 -1       598    8    0    1
 -2       223       377       378      1936      1940      1938
 -1       599    8    0    1
 -2       225       224       379      1475      1941      1942
 -1       600    8    0    1
 -2       224       378       379      1939      1943      1941
 -1       601    8    0    1
 -2       226       225       380      1478      1944      1945
 -1       602    8    0    1
 -2       225       379       380      1942      1946      1944
 -1       603    8    0    1
 -2       227       226       381      1481      1947      1948
 -1       604    8    0    1
 -2       226       380       381      1945      1949      1947
 -1       605    8    0    1
 -2       228       227       382      1484      1950      1951
 -1       606    8    0    1
 -2       291       228       382      1676      1951      1952
 -1       607    8    0    1
 -2       227       381       382      1948      1953      1950
 -1       608    8    0    1
 -2       230       231       383      1495      1954      1955
 -1       609    8    0    1
 -2       230       383       336      1955      1956      1812
 -1       610    8    0    1
 -2       231       232       384      1498      1957      1958
 -1       611    8    0    1
 -2       231       384       383      1958      1959      1954
 -1       612    8    0    1
 -2       232       233       385      1501      1960      1961
 -1       613    8    0    1
 -2       232       385       384      1961      1962      1957
 -1       614    8    0    1
 -2       233       234       386      1504      1963      1964
 -1       615    8    0    1
 -2       233       386       385      1964      1965      1960
 -1       616    8    0    1
 -2       234       235       387      1507      1966      1967
 -1       617    8    0    1
 -2       234       387       386      1967      1968      1963
 -1       618    8    0    1
 -2       235       236       388      1510      1969      1970
 -1       619    8    0    1
 -2       235       388       387      1970      1971      1966
 -1       620    8    0    1
 -2       236       237       389      1513      1972      1973
 -1       621    8    0    1
 -2       236       389       388      1973      1974      1969
 -1       622    8    0    1
 -2       237       238       390      1516      1975      1976
 -1       623    8    0    1
 -2       237       390       389      1976      1977      1972
 -1       624    8    0    1
 -2       238       239       391      1519      1978      1979
 -1       625    8    0    1
 -2       238       391       390      1979      1980      1975
 -1       626    8    0    1
 -2       239       240       392      1522      1981      1982
 -1       627    8    0    1
 -2       239       392       391      1982      1983      1978
 -1       628    8    0    1
 -2       240       241       393      1525      1984      1985
 -1       629    8    0    1
 -2       240       393       392      1985      1986      1981
 -1       630    8    0    1
 -2       241       242       394      1528      1987      1988
 -1       631    8    0    1
 -2       241       394       393      1988      1989      1984
 -1       632    8    0    1
 -2       242       243       395      1531      1990      1991
 -1       633    8    0    1
 -2       242       395       394      1991      1992      1987
 -1       634    8    0    1
 -2       243       244       396      1534      1993      1994
 -1       635    8    0    1
 -2       243       396       395      1994      1995      1990
 -1       636    8    0    1
 -2       244       245       397      1537      1996      1997
 -1       637    8    0    1
 -2       244       397       396      1997      1998      1993
 -1       638    8    0    1
 -2       245       246       398      1540      1999      2000
 -1       639    8    0    1
 -2       245       398       397      2000      2001      1996
 -1       640    8    0    1
 -2       246       247       399      1543      2002      2003
 -1       641    8    0    1
 -2       246       399       398      2003      2004      1999
 -1       642    8    0    1
 -2       247       248       400      1546      2005      2006
 -1       643    8    0    1
 -2       247       400       399      2006      2007      2002
 -1       644    8    0    1
 -2       248       249       401      1549      2008      2009
 -1       645    8    0    1
 -2       248       401       400      2009      2010      2005
 -1       646    8    0    1
 -2       249       250       402      1552      2011      2012
 -1       647    8    0    1
 -2       249       402       401      2012      2013      2008
 -1       648    8    0    1
 -2       250       251       403      1555      2014      2015
 -1       649    8    0    1
 -2       250       403       402      2015      2016      2011
 -1       650    8    0    1
 -2       251       252       404      1558      2017      2018
 -1       651    8    0    1
 -2       251       404       403      2018      2019      2014
 -1       652    8    0    1
 -2       252       253       405      1561      2020      2021
 -1       653    8    0    1
 -2       252       405       404      2021      2022      2017
 -1       654    8    0    1
 -2       253       254       406      1564      2023      2024
 -1       655    8    0    1
 -2       253       406       405      2024      2025      2020
 -1       656    8    0    1
 -2       254       255       407      1567      2026      2027
 -1       657    8    0    1
 -2       254       407       406      2027      2028      2023
 -1       658    8    0    1
 -2       255       256       408      1570      2029      2030
 -1       659    8    0    1
 -2       255       408       407      2030      2031      2026
 -1       660    8    0    1
 -2       256       257       409      1573      2032      2033
 -1       661    8    0    1
 -2       256       409       408      2033      2034      2029
 -1       662    8    0    1
 -2       257       258       410      1576      2035      2036
 -1       663    8    0    1
 -2       257       410       409      2036      2037      2032
 -1       664    8    0    1
 -2       258       259       411      1579      2038      2039
 -1       665    8    0    1
 -2       258       411       410      2039      2040      2035
 -1       666    8    0    1
 -2       259       260       412      1582      2041      2042
 -1       667    8    0    1
 -2       259       412       411      2042      2043      2038
 -1       668    8    0    1
 -2       260       261       413      1585      2044      2045
 -1       669    8    0    1
 -2       260       413       412      2045      2046      2041
 -1       670    8    0    1
 -2       261       262       414      1588      2047      2048
 -1       671    8    0    1
 -2       261       414       413      2048      2049      2044
 -1       672    8    0    1
 -2       262       263       415      1591      2050      2051
 -1       673    8    0    1
 -2       262       415       414      2051      2052      2047
 -1       674    8    0    1
 -2       263       264       416      1594      2053      2054
 -1       675    8    0    1
 -2       263       416       415      2054      2055      2050
 -1       676    8    0    1
 -2       264       265       417      1597      2056      2057
 -1       677    8    0    1
 -2       264       417       416      2057      2058      2053
 -1       678    8    0    1
 -2       265       266       418      1600      2059      2060
 -1       679    8    0    1
 -2       265       418       417      2060      2061      2056
 -1       680    8    0    1
 -2       266       267       419      1603      2062      2063
 -1       681    8    0    1
 -2       266       419       418      2063      2064      2059
 -1       682    8    0    1
 -2       267       268       420      1606      2065      2066
 -1       683    8    0    1
 -2       267       420       419      2066      2067      2062
 -1       684    8    0    1
 -2       268       269       421      1609      2068      2069
 -1       685    8    0    1
 -2       268       421       420      2069      2070      2065
 -1       686    8    0    1
 -2       269       270       422      1612      2071      2072
 -1       687    8    0    1
 -2       269       422       421      2072      2073      2068
 -1       688    8    0    1
 -2       270       271       423      1615      2074      2075
 -1       689    8    0    1
 -2       270       423       422      2075      2076      2071
 -1       690    8    0    1
 -2       271       272       424      1618      2077      2078
 -1       691    8    0    1
 -2       271       424       423      2078      2079      2074
 -1       692    8    0    1
 -2       272       273       425      1621      2080      2081
 -1       693    8    0    1
 -2       272       425       424      2081      2082      2077
 -1       694    8    0    1
 -2       273       274       426      1624      2083      2084
 -1       695    8    0    1
 -2       273       426       425      2084      2085      2080
 -1       696    8    0    1
 -2       274       275       427      1627      2086      2087
 -1       697    8    0    1
 -2       274       427       426      2087      2088      2083
 -1       698    8    0    1
 -2       275       276       428      1630      2089      2090
 -1       699    8    0    1
 -2       427       275       428      2086      2090      2091
 -1       700    8    0    1
 -2       276       277       428      1740      2092      2089
 -1       701    8    0    1
 -2       279       280       429      1642      2093      2094
 -1       702    8    0    1
 -2       278       279       430      1639      2095      2096
 -1       703    8    0    1
 -2       279       429       430      2094      2097      2095
 -1       704    8    0    1
 -2       277       278       431      1636      2098      2099
 -1       705    8    0    1
 -2       428       277       431      2092      2099      2100
 -1       706    8    0    1
 -2       278       430       431      2096      2101      2098
 -1       707    8    0    1
 -2       280       281       432      1645      2102      2103
 -1       708    8    0    1
 -2       280       432       429      2103      2104      2093
 -1       709    8    0    1
 -2       281       282       433      1648      2105      2106
 -1       710    8    0    1
 -2       281       433       432      2106      2107      2102
 -1       711    8    0    1
 -2       282       283       434      1651      2108      2109
 -1       712    8    0    1
 -2       282       434       433      2109      2110      2105
 -1       713    8    0    1
 -2       283       284       435      1654      2111      2112
 -1       714    8    0    1
 -2       283       435       434      2112      2113      2108
 -1       715    8    0    1
 -2       284       285       436      1657      2114      2115
 -1       716    8    0    1
 -2       284       436       435      2115      2116      2111
 -1       717    8    0    1
 -2       285       286       437      1660      2117      2118
 -1       718    8    0    1
 -2       285       437       436      2118      2119      2114
 -1       719    8    0    1
 -2       286       287       438      1663      2120      2121
 -1       720    8    0    1
 -2       286       438       437      2121      2122      2117
 -1       721    8    0    1
 -2       287       288       439      1666      2123      2124
 -1       722    8    0    1
 -2       287       439       438      2124      2125      2120
 -1       723    8    0    1
 -2       288       289       440      1669      2126      2127
 -1       724    8    0    1
 -2       288       440       439      2127      2128      2123
 -1       725    8    0    1
 -2       289       290       441      1672      2129      2130
 -1       726    8    0    1
 -2       289       441       440      2130      2131      2126
 -1       727    8    0    1
 -2       293       294       442      1742      2132      2133
 -1       728    8    0    1
 -2       321       292       443      1743      2134      2135
 -1       729    8    0    1
 -2       292       293       444      1741      2136      2137
 -1       730    8    0    1
 -2       294       295       445      1738      2138      2139
 -1       731    8    0    1
 -2       294       445       442      2139      2140      2132
 -1       732    8    0    1
 -2       295       296       446      1737      2141      2142
 -1       733    8    0    1
 -2       167       168       447      1304      2143      2144
 -1       734    8    0    1
 -2       322       167       447      1770      2144      2145
 -1       735    8    0    1
 -2       168       324       447      1776      2146      2143
 -1       736    8    0    1
 -2       297       298       448      1745      2147      2148
 -1       737    8    0    1
 -2       298       299       449      1746      2149      2150
 -1       738    8    0    1
 -2       299       300       450      1747      2151      2152
 -1       739    8    0    1
 -2       300       301       451      1748      2153      2154
 -1       740    8    0    1
 -2       301       302       452      1749      2155      2156
 -1       741    8    0    1
 -2       302       303       453      1750      2157      2158
 -1       742    8    0    1
 -2       303       304       454      1751      2159      2160
 -1       743    8    0    1
 -2       304       305       455      1752      2161      2162
 -1       744    8    0    1
 -2       305       306       456      1753      2163      2164
 -1       745    8    0    1
 -2       306       307       457      1754      2165      2166
 -1       746    8    0    1
 -2       307       308       458      1755      2167      2168
 -1       747    8    0    1
 -2       308       309       459      1756      2169      2170
 -1       748    8    0    1
 -2       309       310       460      1757      2171      2172
 -1       749    8    0    1
 -2       310       311       461      1758      2173      2174
 -1       750    8    0    1
 -2       311       312       462      1759      2175      2176
 -1       751    8    0    1
 -2       312       313       463      1760      2177      2178
 -1       752    8    0    1
 -2       313       314       464      1761      2179      2180
 -1       753    8    0    1
 -2       314       315       465      1762      2181      2182
 -1       754    8    0    1
 -2       314       465       464      2182      2183      2179
 -1       755    8    0    1
 -2       315       316       466      1763      2184      2185
 -1       756    8    0    1
 -2       316       317       467      1764      2186      2187
 -1       757    8    0    1
 -2       317       318       468      1765      2188      2189
 -1       758    8    0    1
 -2       318       319       469      1766      2190      2191
 -1       759    8    0    1
 -2       319       320       470      1767      2192      2193
 -1       760    8    0    1
 -2       320       321       471      1768      2194      2195
 -1       761    8    0    1
 -2       320       471       470      2195      2196      2192
 -1       762    8    0    1
 -2       296       297       472      1744      2197      2198
 -1       763    8    0    1
 -2       445       295       446      2138      2142      2199
 -1       764    8    0    1
 -2       181       323       182      1815      2200      1346
 -1       765    8    0    1
 -2       297       448       472      2148      2201      2197
 -1       766    8    0    1
 -2       337       182       323      1816      2200      2202
 -1       767    8    0    1
 -2       444       293       442      2136      2133      2203
 -1       768    8    0    1
 -2       443       292       444      2134      2137      2204
 -1       769    8    0    1
 -2       441       290       291      2129      1675      2205
 -1       770    8    0    1
 -2       321       443       471      2135      2206      2194
 -1       771    8    0    1
 -2       446       296       472      2141      2198      2207
 -1       772    8    0    1
 -2       469       319       470      2190      2193      2208
 -1       773    8    0    1
 -2       468       318       469      2188      2191      2209
 -1       774    8    0    1
 -2       467       317       468      2186      2189      2210
 -1       775    8    0    1
 -2       465       315       466      2181      2185      2211
 -1       776    8    0    1
 -2       463       313       464      2177      2180      2212
 -1       777    8    0    1
 -2       462       312       463      2175      2178      2213
 -1       778    8    0    1
 -2       461       311       462      2173      2176      2214
 -1       779    8    0    1
 -2       460       310       461      2171      2174      2215
 -1       780    8    0    1
 -2       459       309       460      2169      2172      2216
 -1       781    8    0    1
 -2       458       308       459      2167      2170      2217
 -1       782    8    0    1
 -2       457       307       458      2165      2168      2218
 -1       783    8    0    1
 -2       456       306       457      2163      2166      2219
 -1       784    8    0    1
 -2       455       305       456      2161      2164      2220
 -1       785    8    0    1
 -2       454       304       455      2159      2162      2221
 -1       786    8    0    1
 -2       453       303       454      2157      2160      2222
 -1       787    8    0    1
 -2       452       302       453      2155      2158      2223
 -1       788    8    0    1
 -2       451       301       452      2153      2156      2224
 -1       789    8    0    1
 -2       450       300       451      2151      2154      2225
 -1       790    8    0    1
 -2       448       298       449      2147      2150      2226
 -1       791    8    0    1
 -2       449       299       450      2149      2152      2227
 -1       792    8    0    1
 -2       466       316       467      2184      2187      2228
 -1       793    8    0    1
 -2       336       383       473      1956      2229      2230
 -1       794    8    0    1
 -2       325       326       474      1782      2231      2232
 -1       795    8    0    1
 -2       324       325       475      1779      2233      2234
 -1       796    8    0    1
 -2       325       474       475      2232      2235      2233
 -1       797    8    0    1
 -2       327       328       476      1788      2236      2237
 -1       798    8    0    1
 -2       328       329       477      1791      2238      2239
 -1       799    8    0    1
 -2       328       477       476      2239      2240      2236
 -1       800    8    0    1
 -2       329       330       478      1794      2241      2242
 -1       801    8    0    1
 -2       329       478       477      2242      2243      2238
 -1       802    8    0    1
 -2       330       331       479      1797      2244      2245
 -1       803    8    0    1
 -2       330       479       478      2245      2246      2241
 -1       804    8    0    1
 -2       331       332       480      1800      2247      2248
 -1       805    8    0    1
 -2       331       480       479      2248      2249      2244
 -1       806    8    0    1
 -2       332       333       481      1803      2250      2251
 -1       807    8    0    1
 -2       332       481       480      2251      2252      2247
 -1       808    8    0    1
 -2       383       384       482      1959      2253      2254
 -1       809    8    0    1
 -2       383       482       473      2254      2255      2229
 -1       810    8    0    1
 -2       338       337       483      1820      2256      2257
 -1       811    8    0    1
 -2       472       448       484      2201      2258      2259
 -1       812    8    0    1
 -2       339       338       485      1823      2260      2261
 -1       813    8    0    1
 -2       338       483       485      2257      2262      2260
 -1       814    8    0    1
 -2       340       339       486      1826      2263      2264
 -1       815    8    0    1
 -2       339       485       486      2261      2265      2263
 -1       816    8    0    1
 -2       341       340       487      1829      2266      2267
 -1       817    8    0    1
 -2       340       486       487      2264      2268      2266
 -1       818    8    0    1
 -2       342       341       488      1832      2269      2270
 -1       819    8    0    1
 -2       341       487       488      2267      2271      2269
 -1       820    8    0    1
 -2       343       342       489      1835      2272      2273
 -1       821    8    0    1
 -2       342       488       489      2270      2274      2272
 -1       822    8    0    1
 -2       344       343       490      1838      2275      2276
 -1       823    8    0    1
 -2       343       489       490      2273      2277      2275
 -1       824    8    0    1
 -2       345       344       491      1841      2278      2279
 -1       825    8    0    1
 -2       344       490       491      2276      2280      2278
 -1       826    8    0    1
 -2       346       345       492      1844      2281      2282
 -1       827    8    0    1
 -2       345       491       492      2279      2283      2281
 -1       828    8    0    1
 -2       347       346       493      1847      2284      2285
 -1       829    8    0    1
 -2       346       492       493      2282      2286      2284
 -1       830    8    0    1
 -2       348       347       494      1850      2287      2288
 -1       831    8    0    1
 -2       347       493       494      2285      2289      2287
 -1       832    8    0    1
 -2       349       348       495      1853      2290      2291
 -1       833    8    0    1
 -2       348       494       495      2288      2292      2290
 -1       834    8    0    1
 -2       350       349       496      1856      2293      2294
 -1       835    8    0    1
 -2       349       495       496      2291      2295      2293
 -1       836    8    0    1
 -2       351       350       497      1859      2296      2297
 -1       837    8    0    1
 -2       350       496       497      2294      2298      2296
 -1       838    8    0    1
 -2       352       351       498      1862      2299      2300
 -1       839    8    0    1
 -2       351       497       498      2297      2301      2299
 -1       840    8    0    1
 -2       353       352       499      1865      2302      2303
 -1       841    8    0    1
 -2       352       498       499      2300      2304      2302
 -1       842    8    0    1
 -2       354       353       500      1868      2305      2306
 -1       843    8    0    1
 -2       353       499       500      2303      2307      2305
 -1       844    8    0    1
 -2       355       354       501      1871      2308      2309
 -1       845    8    0    1
 -2       354       500       501      2306      2310      2308
 -1       846    8    0    1
 -2       356       355       502      1874      2311      2312
 -1       847    8    0    1
 -2       355       501       502      2309      2313      2311
 -1       848    8    0    1
 -2       357       356       503      1877      2314      2315
 -1       849    8    0    1
 -2       356       502       503      2312      2316      2314
 -1       850    8    0    1
 -2       358       357       504      1880      2317      2318
 -1       851    8    0    1
 -2       357       503       504      2315      2319      2317
 -1       852    8    0    1
 -2       359       358       505      1883      2320      2321
 -1       853    8    0    1
 -2       358       504       505      2318      2322      2320
 -1       854    8    0    1
 -2       360       359       506      1886      2323      2324
 -1       855    8    0    1
 -2       359       505       506      2321      2325      2323
 -1       856    8    0    1
 -2       361       360       507      1889      2326      2327
 -1       857    8    0    1
 -2       360       506       507      2324      2328      2326
 -1       858    8    0    1
 -2       362       361       508      1892      2329      2330
 -1       859    8    0    1
 -2       361       507       508      2327      2331      2329
 -1       860    8    0    1
 -2       363       362       509      1895      2332      2333
 -1       861    8    0    1
 -2       362       508       509      2330      2334      2332
 -1       862    8    0    1
 -2       364       363       510      1898      2335      2336
 -1       863    8    0    1
 -2       363       509       510      2333      2337      2335
 -1       864    8    0    1
 -2       365       364       511      1901      2338      2339
 -1       865    8    0    1
 -2       364       510       511      2336      2340      2338
 -1       866    8    0    1
 -2       366       365       512      1904      2341      2342
 -1       867    8    0    1
 -2       365       511       512      2339      2343      2341
 -1       868    8    0    1
 -2       367       366       513      1907      2344      2345
 -1       869    8    0    1
 -2       366       512       513      2342      2346      2344
 -1       870    8    0    1
 -2       368       367       514      1910      2347      2348
 -1       871    8    0    1
 -2       367       513       514      2345      2349      2347
 -1       872    8    0    1
 -2       369       368       515      1913      2350      2351
 -1       873    8    0    1
 -2       368       514       515      2348      2352      2350
 -1       874    8    0    1
 -2       370       369       516      1916      2353      2354
 -1       875    8    0    1
 -2       369       515       516      2351      2355      2353
 -1       876    8    0    1
 -2       371       370       517      1919      2356      2357
 -1       877    8    0    1
 -2       370       516       517      2354      2358      2356
 -1       878    8    0    1
 -2       372       371       518      1922      2359      2360
 -1       879    8    0    1
 -2       371       517       518      2357      2361      2359
 -1       880    8    0    1
 -2       373       372       519      1925      2362      2363
 -1       881    8    0    1
 -2       372       518       519      2360      2364      2362
 -1       882    8    0    1
 -2       374       373       520      1928      2365      2366
 -1       883    8    0    1
 -2       373       519       520      2363      2367      2365
 -1       884    8    0    1
 -2       375       374       521      1931      2368      2369
 -1       885    8    0    1
 -2       374       520       521      2366      2370      2368
 -1       886    8    0    1
 -2       376       375       522      1934      2371      2372
 -1       887    8    0    1
 -2       375       521       522      2369      2373      2371
 -1       888    8    0    1
 -2       377       376       523      1937      2374      2375
 -1       889    8    0    1
 -2       376       522       523      2372      2376      2374
 -1       890    8    0    1
 -2       378       377       524      1940      2377      2378
 -1       891    8    0    1
 -2       377       523       524      2375      2379      2377
 -1       892    8    0    1
 -2       379       378       525      1943      2380      2381
 -1       893    8    0    1
 -2       378       524       525      2378      2382      2380
 -1       894    8    0    1
 -2       380       379       526      1946      2383      2384
 -1       895    8    0    1
 -2       379       525       526      2381      2385      2383
 -1       896    8    0    1
 -2       381       380       527      1949      2386      2387
 -1       897    8    0    1
 -2       380       526       527      2384      2388      2386
 -1       898    8    0    1
 -2       385       386       528      1965      2389      2390
 -1       899    8    0    1
 -2       386       387       529      1968      2391      2392
 -1       900    8    0    1
 -2       386       529       528      2392      2393      2389
 -1       901    8    0    1
 -2       387       388       530      1971      2394      2395
 -1       902    8    0    1
 -2       387       530       529      2395      2396      2391
 -1       903    8    0    1
 -2       388       389       531      1974      2397      2398
 -1       904    8    0    1
 -2       388       531       530      2398      2399      2394
 -1       905    8    0    1
 -2       389       390       532      1977      2400      2401
 -1       906    8    0    1
 -2       389       532       531      2401      2402      2397
 -1       907    8    0    1
 -2       390       391       533      1980      2403      2404
 -1       908    8    0    1
 -2       390       533       532      2404      2405      2400
 -1       909    8    0    1
 -2       391       392       534      1983      2406      2407
 -1       910    8    0    1
 -2       391       534       533      2407      2408      2403
 -1       911    8    0    1
 -2       392       393       535      1986      2409      2410
 -1       912    8    0    1
 -2       392       535       534      2410      2411      2406
 -1       913    8    0    1
 -2       393       394       536      1989      2412      2413
 -1       914    8    0    1
 -2       393       536       535      2413      2414      2409
 -1       915    8    0    1
 -2       394       395       537      1992      2415      2416
 -1       916    8    0    1
 -2       394       537       536      2416      2417      2412
 -1       917    8    0    1
 -2       395       396       538      1995      2418      2419
 -1       918    8    0    1
 -2       395       538       537      2419      2420      2415
 -1       919    8    0    1
 -2       396       397       539      1998      2421      2422
 -1       920    8    0    1
 -2       396       539       538      2422      2423      2418
 -1       921    8    0    1
 -2       397       398       540      2001      2424      2425
 -1       922    8    0    1
 -2       397       540       539      2425      2426      2421
 -1       923    8    0    1
 -2       398       399       541      2004      2427      2428
 -1       924    8    0    1
 -2       398       541       540      2428      2429      2424
 -1       925    8    0    1
 -2       399       400       542      2007      2430      2431
 -1       926    8    0    1
 -2       399       542       541      2431      2432      2427
 -1       927    8    0    1
 -2       400       401       543      2010      2433      2434
 -1       928    8    0    1
 -2       400       543       542      2434      2435      2430
 -1       929    8    0    1
 -2       401       402       544      2013      2436      2437
 -1       930    8    0    1
 -2       401       544       543      2437      2438      2433
 -1       931    8    0    1
 -2       402       403       545      2016      2439      2440
 -1       932    8    0    1
 -2       402       545       544      2440      2441      2436
 -1       933    8    0    1
 -2       403       404       546      2019      2442      2443
 -1       934    8    0    1
 -2       403       546       545      2443      2444      2439
 -1       935    8    0    1
 -2       404       405       547      2022      2445      2446
 -1       936    8    0    1
 -2       404       547       546      2446      2447      2442
 -1       937    8    0    1
 -2       405       406       548      2025      2448      2449
 -1       938    8    0    1
 -2       405       548       547      2449      2450      2445
 -1       939    8    0    1
 -2       406       407       549      2028      2451      2452
 -1       940    8    0    1
 -2       406       549       548      2452      2453      2448
 -1       941    8    0    1
 -2       407       408       550      2031      2454      2455
 -1       942    8    0    1
 -2       407       550       549      2455      2456      2451
 -1       943    8    0    1
 -2       408       409       551      2034      2457      2458
 -1       944    8    0    1
 -2       408       551       550      2458      2459      2454
 -1       945    8    0    1
 -2       409       410       552      2037      2460      2461
 -1       946    8    0    1
 -2       409       552       551      2461      2462      2457
 -1       947    8    0    1
 -2       410       411       553      2040      2463      2464
 -1       948    8    0    1
 -2       410       553       552      2464      2465      2460
 -1       949    8    0    1
 -2       411       412       554      2043      2466      2467
 -1       950    8    0    1
 -2       411       554       553      2467      2468      2463
 -1       951    8    0    1
 -2       412       413       555      2046      2469      2470
 -1       952    8    0    1
 -2       412       555       554      2470      2471      2466
 -1       953    8    0    1
 -2       413       414       556      2049      2472      2473
 -1       954    8    0    1
 -2       413       556       555      2473      2474      2469
 -1       955    8    0    1
 -2       414       415       557      2052      2475      2476
 -1       956    8    0    1
 -2       414       557       556      2476      2477      2472
 -1       957    8    0    1
 -2       415       416       558      2055      2478      2479
 -1       958    8    0    1
 -2       415       558       557      2479      2480      2475
 -1       959    8    0    1
 -2       416       417       559      2058      2481      2482
 -1       960    8    0    1
 -2       416       559       558      2482      2483      2478
 -1       961    8    0    1
 -2       417       418       560      2061      2484      2485
 -1       962    8    0    1
 -2       417       560       559      2485      2486      2481
 -1       963    8    0    1
 -2       418       419       561      2064      2487      2488
 -1       964    8    0    1
 -2       418       561       560      2488      2489      2484
 -1       965    8    0    1
 -2       419       420       562      2067      2490      2491
 -1       966    8    0    1
 -2       419       562       561      2491      2492      2487
 -1       967    8    0    1
 -2       420       421       563      2070      2493      2494
 -1       968    8    0    1
 -2       420       563       562      2494      2495      2490
 -1       969    8    0    1
 -2       421       422       564      2073      2496      2497
 -1       970    8    0    1
 -2       421       564       563      2497      2498      2493
 -1       971    8    0    1
 -2       422       423       565      2076      2499      2500
 -1       972    8    0    1
 -2       422       565       564      2500      2501      2496
 -1       973    8    0    1
 -2       423       424       566      2079      2502      2503
 -1       974    8    0    1
 -2       423       566       565      2503      2504      2499
 -1       975    8    0    1
 -2       424       425       567      2082      2505      2506
 -1       976    8    0    1
 -2       424       567       566      2506      2507      2502
 -1       977    8    0    1
 -2       425       426       568      2085      2508      2509
 -1       978    8    0    1
 -2       425       568       567      2509      2510      2505
 -1       979    8    0    1
 -2       426       427       569      2088      2511      2512
 -1       980    8    0    1
 -2       426       569       568      2512      2513      2508
 -1       981    8    0    1
 -2       427       428       431      2091      2100      2514
 -1       982    8    0    1
 -2       432       433       570      2107      2515      2516
 -1       983    8    0    1
 -2       433       434       571      2110      2517      2518
 -1       984    8    0    1
 -2       433       571       570      2518      2519      2515
 -1       985    8    0    1
 -2       430       429       572      2097      2520      2521
 -1       986    8    0    1
 -2       429       432       573      2104      2522      2523
 -1       987    8    0    1
 -2       572       429       573      2520      2523      2524
 -1       988    8    0    1
 -2       432       570       573      2516      2525      2522
 -1       989    8    0    1
 -2       434       435       574      2113      2526      2527
 -1       990    8    0    1
 -2       434       574       571      2527      2528      2517
 -1       991    8    0    1
 -2       435       436       575      2116      2529      2530
 -1       992    8    0    1
 -2       435       575       574      2530      2531      2526
 -1       993    8    0    1
 -2       436       437       576      2119      2532      2533
 -1       994    8    0    1
 -2       436       576       575      2533      2534      2529
 -1       995    8    0    1
 -2       437       438       577      2122      2535      2536
 -1       996    8    0    1
 -2       437       577       576      2536      2537      2532
 -1       997    8    0    1
 -2       438       439       578      2125      2538      2539
 -1       998    8    0    1
 -2       438       578       577      2539      2540      2535
 -1       999    8    0    1
 -2       439       440       579      2128      2541      2542
 -1      1000    8    0    1
 -2       439       579       578      2542      2543      2538
 -1      1001    8    0    1
 -2       440       441       580      2131      2544      2545
 -1      1002    8    0    1
 -2       440       580       579      2545      2546      2541
 -1      1003    8    0    1
 -2       443       444       581      2204      2547      2548
 -1      1004    8    0    1
 -2       444       442       582      2203      2549      2550
 -1      1005    8    0    1
 -2       444       582       581      2550      2551      2547
 -1      1006    8    0    1
 -2       471       443       583      2206      2552      2553
 -1      1007    8    0    1
 -2       384       385       584      1962      2554      2555
 -1      1008    8    0    1
 -2       385       528       584      2390      2556      2554
 -1      1009    8    0    1
 -2       441       291       382      2205      1952      2557
 -1      1010    8    0    1
 -2       442       445       585      2140      2558      2559
 -1      1011    8    0    1
 -2       446       472       586      2207      2560      2561
 -1      1012    8    0    1
 -2       469       470       587      2208      2562      2563
 -1      1013    8    0    1
 -2       463       464       588      2212      2564      2565
 -1      1014    8    0    1
 -2       326       327       589      1785      2566      2567
 -1      1015    8    0    1
 -2       474       326       589      2231      2567      2568
 -1      1016    8    0    1
 -2       327       476       589      2237      2569      2566
 -1      1017    8    0    1
 -2       449       450       590      2227      2570      2571
 -1      1018    8    0    1
 -2       466       467       591      2228      2572      2573
 -1      1019    8    0    1
 -2       448       449       592      2226      2574      2575
 -1      1020    8    0    1
 -2       450       451       593      2225      2576      2577
 -1      1021    8    0    1
 -2       451       452       594      2224      2578      2579
 -1      1022    8    0    1
 -2       452       453       595      2223      2580      2581
 -1      1023    8    0    1
 -2       453       454       596      2222      2582      2583
 -1      1024    8    0    1
 -2       454       455       597      2221      2584      2585
 -1      1025    8    0    1
 -2       455       456       598      2220      2586      2587
 -1      1026    8    0    1
 -2       456       457       599      2219      2588      2589
 -1      1027    8    0    1
 -2       456       599       598      2589      2590      2586
 -1      1028    8    0    1
 -2       457       458       600      2218      2591      2592
 -1      1029    8    0    1
 -2       458       459       601      2217      2593      2594
 -1      1030    8    0    1
 -2       458       601       600      2594      2595      2591
 -1      1031    8    0    1
 -2       459       460       602      2216      2596      2597
 -1      1032    8    0    1
 -2       460       461       603      2215      2598      2599
 -1      1033    8    0    1
 -2       461       462       604      2214      2600      2601
 -1      1034    8    0    1
 -2       462       463       605      2213      2602      2603
 -1      1035    8    0    1
 -2       464       465       606      2183      2604      2605
 -1      1036    8    0    1
 -2       465       466       607      2211      2606      2607
 -1      1037    8    0    1
 -2       465       607       606      2607      2608      2604
 -1      1038    8    0    1
 -2       467       468       608      2210      2609      2610
 -1      1039    8    0    1
 -2       468       469       609      2209      2611      2612
 -1      1040    8    0    1
 -2       469       587       609      2563      2613      2611
 -1      1041    8    0    1
 -2       470       471       610      2196      2614      2615
 -1      1042    8    0    1
 -2       337       323       611      2202      2616      2617
 -1      1043    8    0    1
 -2       483       337       611      2256      2617      2618
 -1      1044    8    0    1
 -2       323       322       611      1774      2619      2616
 -1      1045    8    0    1
 -2       335       336       612      1814      2620      2621
 -1      1046    8    0    1
 -2       334       335       612      1809      2621      2622
 -1      1047    8    0    1
 -2       336       473       612      2230      2623      2620
 -1      1048    8    0    1
 -2       445       446       613      2199      2624      2625
 -1      1049    8    0    1
 -2       445       613       585      2625      2626      2558
 -1      1050    8    0    1
 -2       449       590       592      2571      2627      2574
 -1      1051    8    0    1
 -2       324       475       614      2234      2628      2629
 -1      1052    8    0    1
 -2       324       614       447      2629      2630      2146
 -1      1053    8    0    1
 -2       482       384       584      2253      2555      2631
 -1      1054    8    0    1
 -2       333       334       612      1806      2622      2632
 -1      1055    8    0    1
 -2       613       446       586      2624      2561      2633
 -1      1056    8    0    1
 -2       472       484       586      2259      2634      2560
 -1      1057    8    0    1
 -2       611       322       447      2619      2145      2635
 -1      1058    8    0    1
 -2       442       585       582      2559      2636      2549
 -1      1059    8    0    1
 -2       607       466       591      2606      2573      2637
 -1      1060    8    0    1
 -2       427       431       569      2514      2638      2511
 -1      1061    8    0    1
 -2       431       430       569      2101      2639      2638
 -1      1062    8    0    1
 -2       467       608       591      2610      2640      2572
 -1      1063    8    0    1
 -2       443       581       615      2548      2641      2642
 -1      1064    8    0    1
 -2       443       615       583      2642      2643      2552
 -1      1065    8    0    1
 -2       471       583       610      2553      2644      2614
 -1      1066    8    0    1
 -2       605       463       588      2602      2565      2645
 -1      1067    8    0    1
 -2       333       612       481      2632      2646      2250
 -1      1068    8    0    1
 -2       604       462       605      2600      2603      2647
 -1      1069    8    0    1
 -2       603       461       604      2598      2601      2648
 -1      1070    8    0    1
 -2       470       610       587      2615      2649      2562
 -1      1071    8    0    1
 -2       601       459       602      2593      2597      2650
 -1      1072    8    0    1
 -2       599       457       616      2588      2651      2652
 -1      1073    8    0    1
 -2       457       600       616      2592      2653      2651
 -1      1074    8    0    1
 -2       597       455       598      2584      2587      2654
 -1      1075    8    0    1
 -2       596       454       597      2582      2585      2655
 -1      1076    8    0    1
 -2       595       453       617      2580      2656      2657
 -1      1077    8    0    1
 -2       453       596       617      2583      2658      2656
 -1      1078    8    0    1
 -2       594       452       595      2578      2581      2659
 -1      1079    8    0    1
 -2       593       451       594      2576      2579      2660
 -1      1080    8    0    1
 -2       588       464       606      2564      2605      2661
 -1      1081    8    0    1
 -2       484       448       592      2258      2575      2662
 -1      1082    8    0    1
 -2       590       450       593      2570      2577      2663
 -1      1083    8    0    1
 -2       602       460       603      2596      2599      2664
 -1      1084    8    0    1
 -2       441       382       618      2557      2665      2666
 -1      1085    8    0    1
 -2       580       441       618      2544      2666      2667
 -1      1086    8    0    1
 -2       382       381       618      1953      2668      2665
 -1      1087    8    0    1
 -2       608       468       609      2609      2612      2669
 -1      1088    8    0    1
 -2       569       430       572      2639      2521      2670
 -1      1089    8    0    1
 -2       618       381       527      2668      2387      2671
 -1      1090    8    0    1
 -2       477       478       619      2243      2672      2673
 -1      1091    8    0    1
 -2       476       477       620      2240      2674      2675
 -1      1092    8    0    1
 -2       477       619       620      2673      2676      2674
 -1      1093    8    0    1
 -2       479       480       621      2249      2677      2678
 -1      1094    8    0    1
 -2       480       481       622      2252      2679      2680
 -1      1095    8    0    1
 -2       480       622       621      2680      2681      2677
 -1      1096    8    0    1
 -2       473       482       623      2255      2682      2683
 -1      1097    8    0    1
 -2       604       605       624      2647      2684      2685
 -1      1098    8    0    1
 -2       482       584       625      2631      2686      2687
 -1      1099    8    0    1
 -2       482       625       623      2687      2688      2682
 -1      1100    8    0    1
 -2       612       473       481      2623      2689      2646
 -1      1101    8    0    1
 -2       609       587       626      2613      2690      2691
 -1      1102    8    0    1
 -2       486       485       627      2265      2692      2693
 -1      1103    8    0    1
 -2       487       486       628      2268      2694      2695
 -1      1104    8    0    1
 -2       486       627       628      2693      2696      2694
 -1      1105    8    0    1
 -2       488       487       629      2271      2697      2698
 -1      1106    8    0    1
 -2       487       628       629      2695      2699      2697
 -1      1107    8    0    1
 -2       489       488       630      2274      2700      2701
 -1      1108    8    0    1
 -2       488       629       630      2698      2702      2700
 -1      1109    8    0    1
 -2       490       489       631      2277      2703      2704
 -1      1110    8    0    1
 -2       489       630       631      2701      2705      2703
 -1      1111    8    0    1
 -2       491       490       632      2280      2706      2707
 -1      1112    8    0    1
 -2       490       631       632      2704      2708      2706
 -1      1113    8    0    1
 -2       492       491       633      2283      2709      2710
 -1      1114    8    0    1
 -2       491       632       633      2707      2711      2709
 -1      1115    8    0    1
 -2       493       492       634      2286      2712      2713
 -1      1116    8    0    1
 -2       492       633       634      2710      2714      2712
 -1      1117    8    0    1
 -2       494       493       635      2289      2715      2716
 -1      1118    8    0    1
 -2       493       634       635      2713      2717      2715
 -1      1119    8    0    1
 -2       495       494       636      2292      2718      2719
 -1      1120    8    0    1
 -2       494       635       636      2716      2720      2718
 -1      1121    8    0    1
 -2       496       495       637      2295      2721      2722
 -1      1122    8    0    1
 -2       495       636       637      2719      2723      2721
 -1      1123    8    0    1
 -2       497       496       638      2298      2724      2725
 -1      1124    8    0    1
 -2       496       637       638      2722      2726      2724
 -1      1125    8    0    1
 -2       498       497       639      2301      2727      2728
 -1      1126    8    0    1
 -2       497       638       639      2725      2729      2727
 -1      1127    8    0    1
 -2       499       498       640      2304      2730      2731
 -1      1128    8    0    1
 -2       498       639       640      2728      2732      2730
 -1      1129    8    0    1
 -2       500       499       641      2307      2733      2734
 -1      1130    8    0    1
 -2       499       640       641      2731      2735      2733
 -1      1131    8    0    1
 -2       501       500       642      2310      2736      2737
 -1      1132    8    0    1
 -2       500       641       642      2734      2738      2736
 -1      1133    8    0    1
 -2       502       501       643      2313      2739      2740
 -1      1134    8    0    1
 -2       501       642       643      2737      2741      2739
 -1      1135    8    0    1
 -2       503       502       644      2316      2742      2743
 -1      1136    8    0    1
 -2       502       643       644      2740      2744      2742
 -1      1137    8    0    1
 -2       504       503       645      2319      2745      2746
 -1      1138    8    0    1
 -2       503       644       645      2743      2747      2745
 -1      1139    8    0    1
 -2       505       504       646      2322      2748      2749
 -1      1140    8    0    1
 -2       504       645       646      2746      2750      2748
 -1      1141    8    0    1
 -2       506       505       647      2325      2751      2752
 -1      1142    8    0    1
 -2       505       646       647      2749      2753      2751
 -1      1143    8    0    1
 -2       507       506       648      2328      2754      2755
 -1      1144    8    0    1
 -2       506       647       648      2752      2756      2754
 -1      1145    8    0    1
 -2       508       507       649      2331      2757      2758
 -1      1146    8    0    1
 -2       507       648       649      2755      2759      2757
 -1      1147    8    0    1
 -2       509       508       650      2334      2760      2761
 -1      1148    8    0    1
 -2       508       649       650      2758      2762      2760
 -1      1149    8    0    1
 -2       510       509       651      2337      2763      2764
 -1      1150    8    0    1
 -2       509       650       651      2761      2765      2763
 -1      1151    8    0    1
 -2       511       510       652      2340      2766      2767
 -1      1152    8    0    1
 -2       510       651       652      2764      2768      2766
 -1      1153    8    0    1
 -2       512       511       653      2343      2769      2770
 -1      1154    8    0    1
 -2       511       652       653      2767      2771      2769
 -1      1155    8    0    1
 -2       513       512       654      2346      2772      2773
 -1      1156    8    0    1
 -2       512       653       654      2770      2774      2772
 -1      1157    8    0    1
 -2       514       513       655      2349      2775      2776
 -1      1158    8    0    1
 -2       513       654       655      2773      2777      2775
 -1      1159    8    0    1
 -2       515       514       656      2352      2778      2779
 -1      1160    8    0    1
 -2       514       655       656      2776      2780      2778
 -1      1161    8    0    1
 -2       516       515       657      2355      2781      2782
 -1      1162    8    0    1
 -2       515       656       657      2779      2783      2781
 -1      1163    8    0    1
 -2       517       516       658      2358      2784      2785
 -1      1164    8    0    1
 -2       516       657       658      2782      2786      2784
 -1      1165    8    0    1
 -2       518       517       659      2361      2787      2788
 -1      1166    8    0    1
 -2       517       658       659      2785      2789      2787
 -1      1167    8    0    1
 -2       519       518       660      2364      2790      2791
 -1      1168    8    0    1
 -2       518       659       660      2788      2792      2790
 -1      1169    8    0    1
 -2       520       519       661      2367      2793      2794
 -1      1170    8    0    1
 -2       519       660       661      2791      2795      2793
 -1      1171    8    0    1
 -2       521       520       662      2370      2796      2797
 -1      1172    8    0    1
 -2       520       661       662      2794      2798      2796
 -1      1173    8    0    1
 -2       522       521       663      2373      2799      2800
 -1      1174    8    0    1
 -2       521       662       663      2797      2801      2799
 -1      1175    8    0    1
 -2       523       522       664      2376      2802      2803
 -1      1176    8    0    1
 -2       522       663       664      2800      2804      2802
 -1      1177    8    0    1
 -2       524       523       665      2379      2805      2806
 -1      1178    8    0    1
 -2       523       664       665      2803      2807      2805
 -1      1179    8    0    1
 -2       525       524       666      2382      2808      2809
 -1      1180    8    0    1
 -2       524       665       666      2806      2810      2808
 -1      1181    8    0    1
 -2       526       525       667      2385      2811      2812
 -1      1182    8    0    1
 -2       525       666       667      2809      2813      2811
 -1      1183    8    0    1
 -2       527       526       668      2388      2814      2815
 -1      1184    8    0    1
 -2       526       667       668      2812      2816      2814
 -1      1185    8    0    1
 -2       529       530       669      2396      2817      2818
 -1      1186    8    0    1
 -2       608       609       670      2669      2819      2820
 -1      1187    8    0    1
 -2       609       626       670      2691      2821      2819
 -1      1188    8    0    1
 -2       528       529       671      2393      2822      2823
 -1      1189    8    0    1
 -2       529       669       671      2818      2824      2822
 -1      1190    8    0    1
 -2       531       532       672      2402      2825      2826
 -1      1191    8    0    1
 -2       532       533       673      2405      2827      2828
 -1      1192    8    0    1
 -2       532       673       672      2828      2829      2825
 -1      1193    8    0    1
 -2       533       534       674      2408      2830      2831
 -1      1194    8    0    1
 -2       533       674       673      2831      2832      2827
 -1      1195    8    0    1
 -2       534       535       675      2411      2833      2834
 -1      1196    8    0    1
 -2       534       675       674      2834      2835      2830
 -1      1197    8    0    1
 -2       535       536       676      2414      2836      2837
 -1      1198    8    0    1
 -2       535       676       675      2837      2838      2833
 -1      1199    8    0    1
 -2       536       537       677      2417      2839      2840
 -1      1200    8    0    1
 -2       536       677       676      2840      2841      2836
 -1      1201    8    0    1
 -2       537       538       678      2420      2842      2843
 -1      1202    8    0    1
 -2       537       678       677      2843      2844      2839
 -1      1203    8    0    1
 -2       538       539       679      2423      2845      2846
 -1      1204    8    0    1
 -2       538       679       678      2846      2847      2842
 -1      1205    8    0    1
 -2       539       540       593      2426      2848      2849
 -1      1206    8    0    1
 -2       540       541       590      2429      2850      2851
 -1      1207    8    0    1
 -2       542       543       680      2435      2852      2853
 -1      1208    8    0    1
 -2       543       544       681      2438      2854      2855
 -1      1209    8    0    1
 -2       544       545       682      2441      2856      2857
 -1      1210    8    0    1
 -2       544       682       681      2857      2858      2854
 -1      1211    8    0    1
 -2       545       546       683      2444      2859      2860
 -1      1212    8    0    1
 -2       545       683       682      2860      2861      2856
 -1      1213    8    0    1
 -2       546       547       684      2447      2862      2863
 -1      1214    8    0    1
 -2       546       684       683      2863      2864      2859
 -1      1215    8    0    1
 -2       547       548       685      2450      2865      2866
 -1      1216    8    0    1
 -2       547       685       684      2866      2867      2862
 -1      1217    8    0    1
 -2       548       549       686      2453      2868      2869
 -1      1218    8    0    1
 -2       548       686       685      2869      2870      2865
 -1      1219    8    0    1
 -2       549       550       687      2456      2871      2872
 -1      1220    8    0    1
 -2       549       687       686      2872      2873      2868
 -1      1221    8    0    1
 -2       550       551       688      2459      2874      2875
 -1      1222    8    0    1
 -2       550       688       687      2875      2876      2871
 -1      1223    8    0    1
 -2       551       552       689      2462      2877      2878
 -1      1224    8    0    1
 -2       551       689       688      2878      2879      2874
 -1      1225    8    0    1
 -2       552       553       690      2465      2880      2881
 -1      1226    8    0    1
 -2       552       690       689      2881      2882      2877
 -1      1227    8    0    1
 -2       553       554       691      2468      2883      2884
 -1      1228    8    0    1
 -2       553       691       690      2884      2885      2880
 -1      1229    8    0    1
 -2       554       555       692      2471      2886      2887
 -1      1230    8    0    1
 -2       554       692       691      2887      2888      2883
 -1      1231    8    0    1
 -2       555       556       693      2474      2889      2890
 -1      1232    8    0    1
 -2       555       693       692      2890      2891      2886
 -1      1233    8    0    1
 -2       556       557       694      2477      2892      2893
 -1      1234    8    0    1
 -2       556       694       693      2893      2894      2889
 -1      1235    8    0    1
 -2       557       558       695      2480      2895      2896
 -1      1236    8    0    1
 -2       557       695       694      2896      2897      2892
 -1      1237    8    0    1
 -2       558       559       696      2483      2898      2899
 -1      1238    8    0    1
 -2       558       696       695      2899      2900      2895
 -1      1239    8    0    1
 -2       559       560       697      2486      2901      2902
 -1      1240    8    0    1
 -2       559       697       696      2902      2903      2898
 -1      1241    8    0    1
 -2       560       561       698      2489      2904      2905
 -1      1242    8    0    1
 -2       560       698       697      2905      2906      2901
 -1      1243    8    0    1
 -2       561       562       699      2492      2907      2908
 -1      1244    8    0    1
 -2       561       699       698      2908      2909      2904
 -1      1245    8    0    1
 -2       562       563       700      2495      2910      2911
 -1      1246    8    0    1
 -2       562       700       699      2911      2912      2907
 -1      1247    8    0    1
 -2       563       564       701      2498      2913      2914
 -1      1248    8    0    1
 -2       563       701       700      2914      2915      2910
 -1      1249    8    0    1
 -2       564       565       702      2501      2916      2917
 -1      1250    8    0    1
 -2       564       702       701      2917      2918      2913
 -1      1251    8    0    1
 -2       565       566       703      2504      2919      2920
 -1      1252    8    0    1
 -2       565       703       702      2920      2921      2916
 -1      1253    8    0    1
 -2       566       567       704      2507      2922      2923
 -1      1254    8    0    1
 -2       566       704       703      2923      2924      2919
 -1      1255    8    0    1
 -2       567       568       705      2510      2925      2926
 -1      1256    8    0    1
 -2       567       705       704      2926      2927      2922
 -1      1257    8    0    1
 -2       568       569       706      2513      2928      2929
 -1      1258    8    0    1
 -2       705       568       706      2925      2929      2930
 -1      1259    8    0    1
 -2       569       572       706      2670      2931      2928
 -1      1260    8    0    1
 -2       574       575       707      2531      2932      2933
 -1      1261    8    0    1
 -2       618       527       708      2671      2934      2935
 -1      1262    8    0    1
 -2       527       668       708      2815      2936      2934
 -1      1263    8    0    1
 -2       570       571       709      2519      2937      2938
 -1      1264    8    0    1
 -2       575       576       710      2534      2939      2940
 -1      1265    8    0    1
 -2       575       710       707      2940      2941      2932
 -1      1266    8    0    1
 -2       571       574       711      2528      2942      2943
 -1      1267    8    0    1
 -2       709       571       711      2937      2943      2944
 -1      1268    8    0    1
 -2       574       707       711      2933      2945      2942
 -1      1269    8    0    1
 -2       607       591       712      2637      2946      2947
 -1      1270    8    0    1
 -2       576       577       713      2537      2948      2949
 -1      1271    8    0    1
 -2       576       713       710      2949      2950      2939
 -1      1272    8    0    1
 -2       577       578       714      2540      2951      2952
 -1      1273    8    0    1
 -2       577       714       713      2952      2953      2948
 -1      1274    8    0    1
 -2       578       579       715      2543      2954      2955
 -1      1275    8    0    1
 -2       578       715       714      2955      2956      2951
 -1      1276    8    0    1
 -2       581       582       716      2551      2957      2958
 -1      1277    8    0    1
 -2       610       583       717      2644      2959      2960
 -1      1278    8    0    1
 -2       611       447       614      2635      2630      2961
 -1      1279    8    0    1
 -2       586       484       718      2634      2962      2963
 -1      1280    8    0    1
 -2       597       598       719      2654      2964      2965
 -1      1281    8    0    1
 -2       601       602       720      2650      2966      2967
 -1      1282    8    0    1
 -2       584       528       721      2556      2968      2969
 -1      1283    8    0    1
 -2       625       584       721      2686      2969      2970
 -1      1284    8    0    1
 -2       528       671       721      2823      2971      2968
 -1      1285    8    0    1
 -2       530       531       722      2399      2972      2973
 -1      1286    8    0    1
 -2       669       530       722      2817      2973      2974
 -1      1287    8    0    1
 -2       531       672       722      2826      2975      2972
 -1      1288    8    0    1
 -2       485       483       723      2262      2976      2977
 -1      1289    8    0    1
 -2       485       723       627      2977      2978      2692
 -1      1290    8    0    1
 -2       478       479       724      2246      2979      2980
 -1      1291    8    0    1
 -2       619       478       724      2672      2980      2981
 -1      1292    8    0    1
 -2       479       621       724      2678      2982      2979
 -1      1293    8    0    1
 -2       613       586       725      2633      2983      2984
 -1      1294    8    0    1
 -2       582       585       726      2636      2985      2986
 -1      1295    8    0    1
 -2       475       474       727      2235      2987      2988
 -1      1296    8    0    1
 -2       591       608       728      2640      2989      2990
 -1      1297    8    0    1
 -2       590       593       540      2663      2848      2851
 -1      1298    8    0    1
 -2       602       603       729      2664      2991      2992
 -1      1299    8    0    1
 -2       602       729       720      2992      2993      2966
 -1      1300    8    0    1
 -2       588       606       730      2661      2994      2995
 -1      1301    8    0    1
 -2       594       595       679      2659      2996      2997
 -1      1302    8    0    1
 -2       596       597       731      2655      2998      2999
 -1      1303    8    0    1
 -2       597       719       731      2965      3000      2998
 -1      1304    8    0    1
 -2       598       599       732      2590      3001      3002
 -1      1305    8    0    1
 -2       600       601       733      2595      3003      3004
 -1      1306    8    0    1
 -2       580       618       708      2667      2935      3005
 -1      1307    8    0    1
 -2       587       610       734      2649      3006      3007
 -1      1308    8    0    1
 -2       603       604       735      2648      3008      3009
 -1      1309    8    0    1
 -2       484       592       680      2662      3010      3011
 -1      1310    8    0    1
 -2       606       607       736      2608      3012      3013
 -1      1311    8    0    1
 -2       585       613       737      2626      3014      3015
 -1      1312    8    0    1
 -2       605       588       738      2645      3016      3017
 -1      1313    8    0    1
 -2       605       738       624      3017      3018      2684
 -1      1314    8    0    1
 -2       539       593       679      2849      3019      2845
 -1      1315    8    0    1
 -2       614       475       739      2628      3020      3021
 -1      1316    8    0    1
 -2       475       727       739      2988      3022      3020
 -1      1317    8    0    1
 -2       476       620       740      2675      3023      3024
 -1      1318    8    0    1
 -2       476       740       589      3024      3025      2569
 -1      1319    8    0    1
 -2       481       473       623      2689      2683      3026
 -1      1320    8    0    1
 -2       604       624       735      2685      3027      3008
 -1      1321    8    0    1
 -2       626       587       734      2690      3007      3028
 -1      1322    8    0    1
 -2       613       725       737      2984      3029      3014
 -1      1323    8    0    1
 -2       570       709       741      2938      3030      3031
 -1      1324    8    0    1
 -2       570       741       573      3031      3032      2525
 -1      1325    8    0    1
 -2       608       670       728      2820      3033      2989
 -1      1326    8    0    1
 -2       738       588       730      3016      2995      3034
 -1      1327    8    0    1
 -2       729       603       735      2991      3009      3035
 -1      1328    8    0    1
 -2       542       680       592      2853      3010      3036
 -1      1329    8    0    1
 -2       543       681       680      2855      3037      2852
 -1      1330    8    0    1
 -2       712       591       728      2946      2990      3038
 -1      1331    8    0    1
 -2       572       573       742      2524      3039      3040
 -1      1332    8    0    1
 -2       706       572       742      2931      3040      3041
 -1      1333    8    0    1
 -2       573       741       742      3032      3042      3039
 -1      1334    8    0    1
 -2       736       607       712      3012      2947      3043
 -1      1335    8    0    1
 -2       615       581       743      2641      3044      3045
 -1      1336    8    0    1
 -2       581       716       743      2958      3046      3044
 -1      1337    8    0    1
 -2       716       582       726      2957      2986      3047
 -1      1338    8    0    1
 -2       579       580       708      2546      3005      3048
 -1      1339    8    0    1
 -2       610       717       734      2960      3049      3006
 -1      1340    8    0    1
 -2       733       601       720      3003      2967      3050
 -1      1341    8    0    1
 -2       611       614       744      2961      3051      3052
 -1      1342    8    0    1
 -2       483       611       744      2618      3052      3053
 -1      1343    8    0    1
 -2       614       739       744      3021      3054      3051
 -1      1344    8    0    1
 -2       592       590       745      2627      3055      3056
 -1      1345    8    0    1
 -2       598       732       719      3002      3057      2964
 -1      1346    8    0    1
 -2       717       583       746      2959      3058      3059
 -1      1347    8    0    1
 -2       583       615       746      2643      3060      3058
 -1      1348    8    0    1
 -2       616       600       747      2653      3061      3062
 -1      1349    8    0    1
 -2       600       733       747      3004      3063      3061
 -1      1350    8    0    1
 -2       483       744       723      3053      3064      2976
 -1      1351    8    0    1
 -2       474       589       748      2568      3065      3066
 -1      1352    8    0    1
 -2       727       474       748      2987      3066      3067
 -1      1353    8    0    1
 -2       589       740       748      3025      3068      3065
 -1      1354    8    0    1
 -2       617       596       749      2658      3069      3070
 -1      1355    8    0    1
 -2       596       731       749      2999      3071      3069
 -1      1356    8    0    1
 -2       590       541       745      2850      3072      3055
 -1      1357    8    0    1
 -2       586       718       725      2963      3073      2983
 -1      1358    8    0    1
 -2       481       623       622      3026      3074      2679
 -1      1359    8    0    1
 -2       726       585       737      2985      3015      3075
 -1      1360    8    0    1
 -2       579       708       750      3048      3076      3077
 -1      1361    8    0    1
 -2       715       579       750      2954      3077      3078
 -1      1362    8    0    1
 -2       708       668       750      2936      3079      3076
 -1      1363    8    0    1
 -2       679       595       617      2996      2657      3080
 -1      1364    8    0    1
 -2       730       606       751      2994      3081      3082
 -1      1365    8    0    1
 -2       606       736       751      3013      3083      3081
 -1      1366    8    0    1
 -2       732       599       752      3001      3084      3085
 -1      1367    8    0    1
 -2       599       616       752      2652      3086      3084
 -1      1368    8    0    1
 -2       735       624       753      3027      3087      3088
 -1      1369    8    0    1
 -2       621       622       754      2681      3089      3090
 -1      1370    8    0    1
 -2       627       723       755      2978      3091      3092
 -1      1371    8    0    1
 -2       629       628       756      2699      3093      3094
 -1      1372    8    0    1
 -2       630       629       757      2702      3095      3096
 -1      1373    8    0    1
 -2       629       756       757      3094      3097      3095
 -1      1374    8    0    1
 -2       631       630       758      2705      3098      3099
 -1      1375    8    0    1
 -2       630       757       758      3096      3100      3098
 -1      1376    8    0    1
 -2       632       631       759      2708      3101      3102
 -1      1377    8    0    1
 -2       631       758       759      3099      3103      3101
 -1      1378    8    0    1
 -2       633       632       760      2711      3104      3105
 -1      1379    8    0    1
 -2       632       759       760      3102      3106      3104
 -1      1380    8    0    1
 -2       634       633       761      2714      3107      3108
 -1      1381    8    0    1
 -2       633       760       761      3105      3109      3107
 -1      1382    8    0    1
 -2       635       634       762      2717      3110      3111
 -1      1383    8    0    1
 -2       634       761       762      3108      3112      3110
 -1      1384    8    0    1
 -2       636       635       763      2720      3113      3114
 -1      1385    8    0    1
 -2       635       762       763      3111      3115      3113
 -1      1386    8    0    1
 -2       637       636       764      2723      3116      3117
 -1      1387    8    0    1
 -2       636       763       764      3114      3118      3116
 -1      1388    8    0    1
 -2       638       637       765      2726      3119      3120
 -1      1389    8    0    1
 -2       637       764       765      3117      3121      3119
 -1      1390    8    0    1
 -2       639       638       766      2729      3122      3123
 -1      1391    8    0    1
 -2       638       765       766      3120      3124      3122
 -1      1392    8    0    1
 -2       640       639       753      2732      3125      3126
 -1      1393    8    0    1
 -2       642       641       767      2738      3127      3128
 -1      1394    8    0    1
 -2       644       643       768      2744      3129      3130
 -1      1395    8    0    1
 -2       645       644       769      2747      3131      3132
 -1      1396    8    0    1
 -2       644       768       769      3130      3133      3131
 -1      1397    8    0    1
 -2       646       645       770      2750      3134      3135
 -1      1398    8    0    1
 -2       645       769       770      3132      3136      3134
 -1      1399    8    0    1
 -2       647       646       771      2753      3137      3138
 -1      1400    8    0    1
 -2       646       770       771      3135      3139      3137
 -1      1401    8    0    1
 -2       648       647       772      2756      3140      3141
 -1      1402    8    0    1
 -2       647       771       772      3138      3142      3140
 -1      1403    8    0    1
 -2       649       648       773      2759      3143      3144
 -1      1404    8    0    1
 -2       648       772       773      3141      3145      3143
 -1      1405    8    0    1
 -2       650       649       774      2762      3146      3147
 -1      1406    8    0    1
 -2       649       773       774      3144      3148      3146
 -1      1407    8    0    1
 -2       651       650       775      2765      3149      3150
 -1      1408    8    0    1
 -2       650       774       775      3147      3151      3149
 -1      1409    8    0    1
 -2       652       651       776      2768      3152      3153
 -1      1410    8    0    1
 -2       651       775       776      3150      3154      3152
 -1      1411    8    0    1
 -2       653       652       777      2771      3155      3156
 -1      1412    8    0    1
 -2       652       776       777      3153      3157      3155
 -1      1413    8    0    1
 -2       654       653       778      2774      3158      3159
 -1      1414    8    0    1
 -2       653       777       778      3156      3160      3158
 -1      1415    8    0    1
 -2       655       654       779      2777      3161      3162
 -1      1416    8    0    1
 -2       654       778       779      3159      3163      3161
 -1      1417    8    0    1
 -2       656       655       780      2780      3164      3165
 -1      1418    8    0    1
 -2       655       779       780      3162      3166      3164
 -1      1419    8    0    1
 -2       657       656       781      2783      3167      3168
 -1      1420    8    0    1
 -2       656       780       781      3165      3169      3167
 -1      1421    8    0    1
 -2       658       657       782      2786      3170      3171
 -1      1422    8    0    1
 -2       657       781       782      3168      3172      3170
 -1      1423    8    0    1
 -2       659       658       783      2789      3173      3174
 -1      1424    8    0    1
 -2       658       782       783      3171      3175      3173
 -1      1425    8    0    1
 -2       660       659       784      2792      3176      3177
 -1      1426    8    0    1
 -2       659       783       784      3174      3178      3176
 -1      1427    8    0    1
 -2       661       660       785      2795      3179      3180
 -1      1428    8    0    1
 -2       660       784       785      3177      3181      3179
 -1      1429    8    0    1
 -2       662       661       786      2798      3182      3183
 -1      1430    8    0    1
 -2       661       785       786      3180      3184      3182
 -1      1431    8    0    1
 -2       663       662       787      2801      3185      3186
 -1      1432    8    0    1
 -2       662       786       787      3183      3187      3185
 -1      1433    8    0    1
 -2       664       663       788      2804      3188      3189
 -1      1434    8    0    1
 -2       663       787       788      3186      3190      3188
 -1      1435    8    0    1
 -2       665       664       789      2807      3191      3192
 -1      1436    8    0    1
 -2       664       788       789      3189      3193      3191
 -1      1437    8    0    1
 -2       666       665       790      2810      3194      3195
 -1      1438    8    0    1
 -2       665       789       790      3192      3196      3194
 -1      1439    8    0    1
 -2       667       666       791      2813      3197      3198
 -1      1440    8    0    1
 -2       666       790       791      3195      3199      3197
 -1      1441    8    0    1
 -2       668       667       792      2816      3200      3201
 -1      1442    8    0    1
 -2       750       668       792      3079      3201      3202
 -1      1443    8    0    1
 -2       667       791       792      3198      3203      3200
 -1      1444    8    0    1
 -2       671       669       793      2824      3204      3205
 -1      1445    8    0    1
 -2       673       674       794      2832      3206      3207
 -1      1446    8    0    1
 -2       672       673       795      2829      3208      3209
 -1      1447    8    0    1
 -2       673       794       795      3207      3210      3208
 -1      1448    8    0    1
 -2       675       676       796      2838      3211      3212
 -1      1449    8    0    1
 -2       676       677       797      2841      3213      3214
 -1      1450    8    0    1
 -2       676       797       796      3214      3215      3211
 -1      1451    8    0    1
 -2       677       678       749      2844      3216      3217
 -1      1452    8    0    1
 -2       678       679       617      2847      3080      3218
 -1      1453    8    0    1
 -2       720       729       798      2993      3219      3220
 -1      1454    8    0    1
 -2       541       542       745      2432      3221      3072
 -1      1455    8    0    1
 -2       684       685       799      2867      3222      3223
 -1      1456    8    0    1
 -2       685       686       800      2870      3224      3225
 -1      1457    8    0    1
 -2       685       800       799      3225      3226      3222
 -1      1458    8    0    1
 -2       686       687       801      2873      3227      3228
 -1      1459    8    0    1
 -2       686       801       800      3228      3229      3224
 -1      1460    8    0    1
 -2       687       688       802      2876      3230      3231
 -1      1461    8    0    1
 -2       687       802       801      3231      3232      3227
 -1      1462    8    0    1
 -2       688       689       803      2879      3233      3234
 -1      1463    8    0    1
 -2       688       803       802      3234      3235      3230
 -1      1464    8    0    1
 -2       689       690       804      2882      3236      3237
 -1      1465    8    0    1
 -2       689       804       803      3237      3238      3233
 -1      1466    8    0    1
 -2       690       691       805      2885      3239      3240
 -1      1467    8    0    1
 -2       690       805       804      3240      3241      3236
 -1      1468    8    0    1
 -2       691       692       806      2888      3242      3243
 -1      1469    8    0    1
 -2       691       806       805      3243      3244      3239
 -1      1470    8    0    1
 -2       692       693       807      2891      3245      3246
 -1      1471    8    0    1
 -2       692       807       806      3246      3247      3242
 -1      1472    8    0    1
 -2       693       694       808      2894      3248      3249
 -1      1473    8    0    1
 -2       693       808       807      3249      3250      3245
 -1      1474    8    0    1
 -2       694       695       809      2897      3251      3252
 -1      1475    8    0    1
 -2       694       809       808      3252      3253      3248
 -1      1476    8    0    1
 -2       695       696       810      2900      3254      3255
 -1      1477    8    0    1
 -2       695       810       809      3255      3256      3251
 -1      1478    8    0    1
 -2       696       697       811      2903      3257      3258
 -1      1479    8    0    1
 -2       696       811       810      3258      3259      3254
 -1      1480    8    0    1
 -2       697       698       812      2906      3260      3261
 -1      1481    8    0    1
 -2       697       812       811      3261      3262      3257
 -1      1482    8    0    1
 -2       698       699       813      2909      3263      3264
 -1      1483    8    0    1
 -2       698       813       812      3264      3265      3260
 -1      1484    8    0    1
 -2       699       700       814      2912      3266      3267
 -1      1485    8    0    1
 -2       699       814       813      3267      3268      3263
 -1      1486    8    0    1
 -2       700       701       815      2915      3269      3270
 -1      1487    8    0    1
 -2       700       815       814      3270      3271      3266
 -1      1488    8    0    1
 -2       701       702       816      2918      3272      3273
 -1      1489    8    0    1
 -2       701       816       815      3273      3274      3269
 -1      1490    8    0    1
 -2       702       703       817      2921      3275      3276
 -1      1491    8    0    1
 -2       702       817       816      3276      3277      3272
 -1      1492    8    0    1
 -2       703       704       818      2924      3278      3279
 -1      1493    8    0    1
 -2       703       818       817      3279      3280      3275
 -1      1494    8    0    1
 -2       704       705       819      2927      3281      3282
 -1      1495    8    0    1
 -2       704       819       818      3282      3283      3278
 -1      1496    8    0    1
 -2       705       706       820      2930      3284      3285
 -1      1497    8    0    1
 -2       819       705       820      3281      3285      3286
 -1      1498    8    0    1
 -2       706       742       820      3041      3287      3284
 -1      1499    8    0    1
 -2       736       712       821      3043      3288      3289
 -1      1500    8    0    1
 -2       620       619       822      2676      3290      3291
 -1      1501    8    0    1
 -2       737       725       823      3029      3292      3293
 -1      1502    8    0    1
 -2       707       710       824      2941      3294      3295
 -1      1503    8    0    1
 -2       714       715       825      2956      3296      3297
 -1      1504    8    0    1
 -2       710       713       826      2950      3298      3299
 -1      1505    8    0    1
 -2       710       826       824      3299      3300      3294
 -1      1506    8    0    1
 -2       716       726       827      3047      3301      3302
 -1      1507    8    0    1
 -2       626       734       828      3028      3303      3304
 -1      1508    8    0    1
 -2       718       484       680      2962      3011      3305
 -1      1509    8    0    1
 -2       729       735       829      3035      3306      3307
 -1      1510    8    0    1
 -2       719       732       830      3057      3308      3309
 -1      1511    8    0    1
 -2       713       714       831      2953      3310      3311
 -1      1512    8    0    1
 -2       826       713       831      3298      3311      3312
 -1      1513    8    0    1
 -2       714       825       831      3297      3313      3310
 -1      1514    8    0    1
 -2       683       684       832      2864      3314      3315
 -1      1515    8    0    1
 -2       684       799       832      3223      3316      3314
 -1      1516    8    0    1
 -2       682       683       823      2861      3317      3318
 -1      1517    8    0    1
 -2       712       728       833      3038      3319      3320
 -1      1518    8    0    1
 -2       674       675       834      2835      3321      3322
 -1      1519    8    0    1
 -2       794       674       834      3206      3322      3323
 -1      1520    8    0    1
 -2       675       796       834      3212      3324      3321
 -1      1521    8    0    1
 -2       738       730       835      3034      3325      3326
 -1      1522    8    0    1
 -2       728       670       836      3033      3327      3328
 -1      1523    8    0    1
 -2       670       626       837      2821      3329      3330
 -1      1524    8    0    1
 -2       670       837       836      3330      3331      3327
 -1      1525    8    0    1
 -2       628       627       838      2696      3332      3333
 -1      1526    8    0    1
 -2       628       838       756      3333      3334      3093
 -1      1527    8    0    1
 -2       731       719       839      3000      3335      3336
 -1      1528    8    0    1
 -2       723       744       840      3064      3337      3338
 -1      1529    8    0    1
 -2       744       739       840      3054      3339      3337
 -1      1530    8    0    1
 -2       734       717       841      3049      3340      3341
 -1      1531    8    0    1
 -2       622       623       842      3074      3342      3343
 -1      1532    8    0    1
 -2       754       622       842      3089      3343      3344
 -1      1533    8    0    1
 -2       623       625       842      2688      3345      3342
 -1      1534    8    0    1
 -2       733       720       843      3050      3346      3347
 -1      1535    8    0    1
 -2       542       592       745      3036      3056      3221
 -1      1536    8    0    1
 -2       624       738       844      3018      3348      3349
 -1      1537    8    0    1
 -2       753       624       844      3087      3349      3350
 -1      1538    8    0    1
 -2       738       835       844      3326      3351      3348
 -1      1539    8    0    1
 -2       726       737       845      3075      3352      3353
 -1      1540    8    0    1
 -2       740       620       846      3023      3354      3355
 -1      1541    8    0    1
 -2       620       822       846      3291      3356      3354
 -1      1542    8    0    1
 -2       621       754       847      3090      3357      3358
 -1      1543    8    0    1
 -2       621       847       724      3358      3359      2982
 -1      1544    8    0    1
 -2       627       755       838      3092      3360      3332
 -1      1545    8    0    1
 -2       733       843       848      3347      3361      3362
 -1      1546    8    0    1
 -2       733       848       747      3362      3363      3063
 -1      1547    8    0    1
 -2       619       724       849      2981      3364      3365
 -1      1548    8    0    1
 -2       822       619       849      3290      3365      3366
 -1      1549    8    0    1
 -2       724       847       849      3359      3367      3364
 -1      1550    8    0    1
 -2       741       709       850      3030      3368      3369
 -1      1551    8    0    1
 -2       842       625       851      3345      3370      3371
 -1      1552    8    0    1
 -2       625       721       851      2970      3372      3370
 -1      1553    8    0    1
 -2       642       767       821      3128      3373      3374
 -1      1554    8    0    1
 -2       641       640       835      2735      3375      3376
 -1      1555    8    0    1
 -2       643       642       821      2741      3374      3377
 -1      1556    8    0    1
 -2       835       730       751      3325      3082      3378
 -1      1557    8    0    1
 -2       727       748       852      3067      3379      3380
 -1      1558    8    0    1
 -2       726       845       827      3353      3381      3301
 -1      1559    8    0    1
 -2       837       626       828      3329      3304      3382
 -1      1560    8    0    1
 -2       672       795       853      3209      3383      3384
 -1      1561    8    0    1
 -2       672       853       722      3384      3385      2975
 -1      1562    8    0    1
 -2       677       749       797      3217      3386      3213
 -1      1563    8    0    1
 -2       678       617       749      3218      3070      3216
 -1      1564    8    0    1
 -2       798       729       829      3219      3307      3387
 -1      1565    8    0    1
 -2       739       727       854      3022      3388      3389
 -1      1566    8    0    1
 -2       840       739       854      3339      3389      3390
 -1      1567    8    0    1
 -2       727       852       854      3380      3391      3388
 -1      1568    8    0    1
 -2       830       732       855      3308      3392      3393
 -1      1569    8    0    1
 -2       732       752       855      3085      3394      3392
 -1      1570    8    0    1
 -2       681       682       725      2858      3395      3396
 -1      1571    8    0    1
 -2       821       712       833      3288      3320      3397
 -1      1572    8    0    1
 -2       850       709       856      3368      3398      3399
 -1      1573    8    0    1
 -2       709       711       856      2944      3400      3398
 -1      1574    8    0    1
 -2       720       798       843      3220      3401      3346
 -1      1575    8    0    1
 -2       737       823       845      3293      3402      3352
 -1      1576    8    0    1
 -2       683       832       823      3315      3403      3317
 -1      1577    8    0    1
 -2       711       707       857      2945      3404      3405
 -1      1578    8    0    1
 -2       856       711       857      3400      3405      3406
 -1      1579    8    0    1
 -2       707       824       857      3295      3407      3404
 -1      1580    8    0    1
 -2       828       734       841      3303      3341      3408
 -1      1581    8    0    1
 -2       743       716       858      3046      3409      3410
 -1      1582    8    0    1
 -2       716       827       858      3302      3411      3409
 -1      1583    8    0    1
 -2       823       725       682      3292      3395      3318
 -1      1584    8    0    1
 -2       679       593       594      3019      2660      2997
 -1      1585    8    0    1
 -2       721       671       859      2971      3412      3413
 -1      1586    8    0    1
 -2       851       721       859      3372      3413      3414
 -1      1587    8    0    1
 -2       671       793       859      3205      3415      3412
 -1      1588    8    0    1
 -2       829       735       753      3306      3088      3416
 -1      1589    8    0    1
 -2       719       830       839      3309      3417      3335
 -1      1590    8    0    1
 -2       746       615       860      3060      3418      3419
 -1      1591    8    0    1
 -2       615       743       860      3045      3420      3418
 -1      1592    8    0    1
 -2       717       746       861      3059      3421      3422
 -1      1593    8    0    1
 -2       717       861       841      3422      3423      3340
 -1      1594    8    0    1
 -2       669       722       862      2974      3424      3425
 -1      1595    8    0    1
 -2       722       853       862      3385      3426      3424
 -1      1596    8    0    1
 -2       833       728       836      3319      3328      3427
 -1      1597    8    0    1
 -2       793       669       862      3204      3425      3428
 -1      1598    8    0    1
 -2       616       747       752      3062      3429      3086
 -1      1599    8    0    1
 -2       755       723       840      3091      3338      3430
 -1      1600    8    0    1
 -2       681       725       718      3396      3073      3431
 -1      1601    8    0    1
 -2       715       750       863      3078      3432      3433
 -1      1602    8    0    1
 -2       825       715       863      3296      3433      3434
 -1      1603    8    0    1
 -2       750       792       863      3202      3435      3432
 -1      1604    8    0    1
 -2       835       640       844      3375      3436      3351
 -1      1605    8    0    1
 -2       639       766       753      3123      3437      3125
 -1      1606    8    0    1
 -2       758       757       864      3100      3438      3439
 -1      1607    8    0    1
 -2       759       758       865      3103      3440      3441
 -1      1608    8    0    1
 -2       758       864       865      3439      3442      3440
 -1      1609    8    0    1
 -2       760       759       866      3106      3443      3444
 -1      1610    8    0    1
 -2       759       865       866      3441      3445      3443
 -1      1611    8    0    1
 -2       761       760       867      3109      3446      3447
 -1      1612    8    0    1
 -2       760       866       867      3444      3448      3446
 -1      1613    8    0    1
 -2       762       761       868      3112      3449      3450
 -1      1614    8    0    1
 -2       761       867       868      3447      3451      3449
 -1      1615    8    0    1
 -2       763       762       869      3115      3452      3453
 -1      1616    8    0    1
 -2       762       868       869      3450      3454      3452
 -1      1617    8    0    1
 -2       764       763       870      3118      3455      3456
 -1      1618    8    0    1
 -2       763       869       870      3453      3457      3455
 -1      1619    8    0    1
 -2       765       764       871      3121      3458      3459
 -1      1620    8    0    1
 -2       764       870       871      3456      3460      3458
 -1      1621    8    0    1
 -2       643       821       768      3377      3461      3129
 -1      1622    8    0    1
 -2       768       821       833      3461      3397      3462
 -1      1623    8    0    1
 -2       829       753       766      3416      3437      3463
 -1      1624    8    0    1
 -2       770       769       872      3136      3464      3465
 -1      1625    8    0    1
 -2       771       770       873      3139      3466      3467
 -1      1626    8    0    1
 -2       770       872       873      3465      3468      3466
 -1      1627    8    0    1
 -2       772       771       874      3142      3469      3470
 -1      1628    8    0    1
 -2       771       873       874      3467      3471      3469
 -1      1629    8    0    1
 -2       773       772       875      3145      3472      3473
 -1      1630    8    0    1
 -2       772       874       875      3470      3474      3472
 -1      1631    8    0    1
 -2       774       773       876      3148      3475      3476
 -1      1632    8    0    1
 -2       773       875       876      3473      3477      3475
 -1      1633    8    0    1
 -2       775       774       877      3151      3478      3479
 -1      1634    8    0    1
 -2       774       876       877      3476      3480      3478
 -1      1635    8    0    1
 -2       776       775       878      3154      3481      3482
 -1      1636    8    0    1
 -2       775       877       878      3479      3483      3481
 -1      1637    8    0    1
 -2       777       776       879      3157      3484      3485
 -1      1638    8    0    1
 -2       776       878       879      3482      3486      3484
 -1      1639    8    0    1
 -2       778       777       880      3160      3487      3488
 -1      1640    8    0    1
 -2       777       879       880      3485      3489      3487
 -1      1641    8    0    1
 -2       779       778       881      3163      3490      3491
 -1      1642    8    0    1
 -2       778       880       881      3488      3492      3490
 -1      1643    8    0    1
 -2       780       779       882      3166      3493      3494
 -1      1644    8    0    1
 -2       779       881       882      3491      3495      3493
 -1      1645    8    0    1
 -2       781       780       883      3169      3496      3497
 -1      1646    8    0    1
 -2       780       882       883      3494      3498      3496
 -1      1647    8    0    1
 -2       782       781       884      3172      3499      3500
 -1      1648    8    0    1
 -2       781       883       884      3497      3501      3499
 -1      1649    8    0    1
 -2       783       782       885      3175      3502      3503
 -1      1650    8    0    1
 -2       782       884       885      3500      3504      3502
 -1      1651    8    0    1
 -2       784       783       886      3178      3505      3506
 -1      1652    8    0    1
 -2       783       885       886      3503      3507      3505
 -1      1653    8    0    1
 -2       785       784       887      3181      3508      3509
 -1      1654    8    0    1
 -2       784       886       887      3506      3510      3508
 -1      1655    8    0    1
 -2       786       785       888      3184      3511      3512
 -1      1656    8    0    1
 -2       785       887       888      3509      3513      3511
 -1      1657    8    0    1
 -2       787       786       889      3187      3514      3515
 -1      1658    8    0    1
 -2       786       888       889      3512      3516      3514
 -1      1659    8    0    1
 -2       788       787       890      3190      3517      3518
 -1      1660    8    0    1
 -2       787       889       890      3515      3519      3517
 -1      1661    8    0    1
 -2       789       788       891      3193      3520      3521
 -1      1662    8    0    1
 -2       788       890       891      3518      3522      3520
 -1      1663    8    0    1
 -2       790       789       892      3196      3523      3524
 -1      1664    8    0    1
 -2       789       891       892      3521      3525      3523
 -1      1665    8    0    1
 -2       791       790       893      3199      3526      3527
 -1      1666    8    0    1
 -2       790       892       893      3524      3528      3526
 -1      1667    8    0    1
 -2       852       748       894      3379      3529      3530
 -1      1668    8    0    1
 -2       748       740       894      3068      3531      3529
 -1      1669    8    0    1
 -2       827       845       895      3381      3532      3533
 -1      1670    8    0    1
 -2       796       797       896      3215      3534      3535
 -1      1671    8    0    1
 -2       798       829       871      3387      3536      3537
 -1      1672    8    0    1
 -2       800       801       897      3229      3538      3539
 -1      1673    8    0    1
 -2       829       766       765      3463      3124      3540
 -1      1674    8    0    1
 -2       799       800       898      3226      3541      3542
 -1      1675    8    0    1
 -2       800       897       898      3539      3543      3541
 -1      1676    8    0    1
 -2       802       803       899      3235      3544      3545
 -1      1677    8    0    1
 -2       803       804       900      3238      3546      3547
 -1      1678    8    0    1
 -2       803       900       899      3547      3548      3544
 -1      1679    8    0    1
 -2       804       805       901      3241      3549      3550
 -1      1680    8    0    1
 -2       804       901       900      3550      3551      3546
 -1      1681    8    0    1
 -2       805       806       902      3244      3552      3553
 -1      1682    8    0    1
 -2       805       902       901      3553      3554      3549
 -1      1683    8    0    1
 -2       806       807       903      3247      3555      3556
 -1      1684    8    0    1
 -2       806       903       902      3556      3557      3552
 -1      1685    8    0    1
 -2       807       808       904      3250      3558      3559
 -1      1686    8    0    1
 -2       807       904       903      3559      3560      3555
 -1      1687    8    0    1
 -2       808       809       905      3253      3561      3562
 -1      1688    8    0    1
 -2       808       905       904      3562      3563      3558
 -1      1689    8    0    1
 -2       809       810       906      3256      3564      3565
 -1      1690    8    0    1
 -2       809       906       905      3565      3566      3561
 -1      1691    8    0    1
 -2       810       811       907      3259      3567      3568
 -1      1692    8    0    1
 -2       810       907       906      3568      3569      3564
 -1      1693    8    0    1
 -2       811       812       908      3262      3570      3571
 -1      1694    8    0    1
 -2       811       908       907      3571      3572      3567
 -1      1695    8    0    1
 -2       812       813       909      3265      3573      3574
 -1      1696    8    0    1
 -2       812       909       908      3574      3575      3570
 -1      1697    8    0    1
 -2       813       814       910      3268      3576      3577
 -1      1698    8    0    1
 -2       813       910       909      3577      3578      3573
 -1      1699    8    0    1
 -2       814       815       911      3271      3579      3580
 -1      1700    8    0    1
 -2       814       911       910      3580      3581      3576
 -1      1701    8    0    1
 -2       815       816       912      3274      3582      3583
 -1      1702    8    0    1
 -2       815       912       911      3583      3584      3579
 -1      1703    8    0    1
 -2       816       817       913      3277      3585      3586
 -1      1704    8    0    1
 -2       816       913       912      3586      3587      3582
 -1      1705    8    0    1
 -2       817       818       914      3280      3588      3589
 -1      1706    8    0    1
 -2       817       914       913      3589      3590      3585
 -1      1707    8    0    1
 -2       818       819       915      3283      3591      3592
 -1      1708    8    0    1
 -2       818       915       914      3592      3593      3588
 -1      1709    8    0    1
 -2       843       798       916      3401      3594      3595
 -1      1710    8    0    1
 -2       828       841       917      3408      3596      3597
 -1      1711    8    0    1
 -2       742       741       918      3042      3598      3599
 -1      1712    8    0    1
 -2       820       742       918      3287      3599      3600
 -1      1713    8    0    1
 -2       741       850       918      3369      3601      3598
 -1      1714    8    0    1
 -2       824       826       919      3300      3602      3603
 -1      1715    8    0    1
 -2       837       828       920      3382      3604      3605
 -1      1716    8    0    1
 -2       833       836       872      3427      3606      3607
 -1      1717    8    0    1
 -2       845       823       832      3402      3403      3608
 -1      1718    8    0    1
 -2       680       681       718      3037      3431      3305
 -1      1719    8    0    1
 -2       801       802       921      3232      3609      3610
 -1      1720    8    0    1
 -2       802       899       921      3545      3611      3609
 -1      1721    8    0    1
 -2       795       794       922      3210      3612      3613
 -1      1722    8    0    1
 -2       769       768       833      3133      3462      3614
 -1      1723    8    0    1
 -2       757       756       923      3097      3615      3616
 -1      1724    8    0    1
 -2       757       923       864      3616      3617      3438
 -1      1725    8    0    1
 -2       731       839       924      3336      3618      3619
 -1      1726    8    0    1
 -2       756       838       925      3334      3620      3621
 -1      1727    8    0    1
 -2       756       925       923      3621      3622      3615
 -1      1728    8    0    1
 -2       793       862       926      3428      3623      3624
 -1      1729    8    0    1
 -2       836       837       927      3331      3625      3626
 -1      1730    8    0    1
 -2       872       836       927      3606      3626      3627
 -1      1731    8    0    1
 -2       837       920       927      3605      3628      3625
 -1      1732    8    0    1
 -2       749       731       924      3071      3619      3629
 -1      1733    8    0    1
 -2       736       821       751      3289      3630      3083
 -1      1734    8    0    1
 -2       755       840       928      3430      3631      3632
 -1      1735    8    0    1
 -2       840       854       928      3390      3633      3631
 -1      1736    8    0    1
 -2       752       747       929      3429      3634      3635
 -1      1737    8    0    1
 -2       839       830       930      3417      3636      3637
 -1      1738    8    0    1
 -2       754       842       931      3344      3638      3639
 -1      1739    8    0    1
 -2       842       851       931      3371      3640      3638
 -1      1740    8    0    1
 -2       829       765       871      3540      3459      3536
 -1      1741    8    0    1
 -2       845       832       895      3608      3641      3532
 -1      1742    8    0    1
 -2       769       833       872      3614      3607      3464
 -1      1743    8    0    1
 -2       847       754       931      3357      3639      3642
 -1      1744    8    0    1
 -2       848       843       932      3361      3643      3644
 -1      1745    8    0    1
 -2       843       916       932      3595      3645      3643
 -1      1746    8    0    1
 -2       640       753       844      3126      3350      3436
 -1      1747    8    0    1
 -2       895       832       799      3641      3316      3646
 -1      1748    8    0    1
 -2       799       898       895      3542      3647      3646
 -1      1749    8    0    1
 -2       641       835       767      3376      3648      3127
 -1      1750    8    0    1
 -2       894       740       846      3531      3355      3649
 -1      1751    8    0    1
 -2       792       791       933      3203      3650      3651
 -1      1752    8    0    1
 -2       863       792       933      3435      3651      3652
 -1      1753    8    0    1
 -2       791       893       933      3527      3653      3650
 -1      1754    8    0    1
 -2       796       896       934      3535      3654      3655
 -1      1755    8    0    1
 -2       796       934       834      3655      3656      3324
 -1      1756    8    0    1
 -2       855       752       935      3394      3657      3658
 -1      1757    8    0    1
 -2       752       929       935      3635      3659      3657
 -1      1758    8    0    1
 -2       853       795       936      3383      3660      3661
 -1      1759    8    0    1
 -2       795       922       936      3613      3662      3660
 -1      1760    8    0    1
 -2       798       871       916      3537      3663      3594
 -1      1761    8    0    1
 -2       854       852       937      3391      3664      3665
 -1      1762    8    0    1
 -2       854       937       928      3665      3666      3633
 -1      1763    8    0    1
 -2       852       894       938      3530      3667      3668
 -1      1764    8    0    1
 -2       852       938       937      3668      3669      3664
 -1      1765    8    0    1
 -2       819       820       918      3286      3600      3670
 -1      1766    8    0    1
 -2       919       826       939      3602      3671      3672
 -1      1767    8    0    1
 -2       826       831       939      3312      3673      3671
 -1      1768    8    0    1
 -2       828       917       920      3597      3674      3604
 -1      1769    8    0    1
 -2       824       919       940      3603      3675      3676
 -1      1770    8    0    1
 -2       824       940       857      3676      3677      3407
 -1      1771    8    0    1
 -2       858       827       895      3411      3533      3678
 -1      1772    8    0    1
 -2       897       801       921      3538      3610      3679
 -1      1773    8    0    1
 -2       922       794       941      3612      3680      3681
 -1      1774    8    0    1
 -2       794       834       941      3323      3682      3680
 -1      1775    8    0    1
 -2       743       858       942      3410      3683      3684
 -1      1776    8    0    1
 -2       743       942       860      3684      3685      3420
 -1      1777    8    0    1
 -2       861       746       943      3421      3686      3687
 -1      1778    8    0    1
 -2       746       860       943      3419      3688      3686
 -1      1779    8    0    1
 -2       862       853       944      3426      3689      3690
 -1      1780    8    0    1
 -2       853       936       944      3661      3691      3689
 -1      1781    8    0    1
 -2       822       849       945      3366      3692      3693
 -1      1782    8    0    1
 -2       793       926       946      3624      3694      3695
 -1      1783    8    0    1
 -2       850       856       947      3399      3696      3697
 -1      1784    8    0    1
 -2       924       839       948      3618      3698      3699
 -1      1785    8    0    1
 -2       926       862       944      3623      3690      3700
 -1      1786    8    0    1
 -2       930       830       949      3636      3701      3702
 -1      1787    8    0    1
 -2       830       855       949      3393      3703      3701
 -1      1788    8    0    1
 -2       838       755       928      3360      3632      3704
 -1      1789    8    0    1
 -2       747       848       929      3363      3705      3634
 -1      1790    8    0    1
 -2       918       850       915      3601      3706      3707
 -1      1791    8    0    1
 -2       917       841       950      3596      3708      3709
 -1      1792    8    0    1
 -2       841       861       950      3423      3710      3708
 -1      1793    8    0    1
 -2       859       793       946      3415      3695      3711
 -1      1794    8    0    1
 -2       838       928       925      3704      3712      3620
 -1      1795    8    0    1
 -2       839       930       948      3637      3713      3698
 -1      1796    8    0    1
 -2       822       945       951      3693      3714      3715
 -1      1797    8    0    1
 -2       822       951       846      3715      3716      3356
 -1      1798    8    0    1
 -2       825       863       933      3434      3652      3717
 -1      1799    8    0    1
 -2       819       918       915      3670      3707      3591
 -1      1800    8    0    1
 -2       850       947       915      3697      3718      3706
 -1      1801    8    0    1
 -2       825       933       952      3717      3719      3720
 -1      1802    8    0    1
 -2       831       825       952      3313      3720      3721
 -1      1803    8    0    1
 -2       933       893       952      3653      3722      3719
 -1      1804    8    0    1
 -2       865       864       953      3442      3723      3724
 -1      1805    8    0    1
 -2       849       847       954      3367      3725      3726
 -1      1806    8    0    1
 -2       849       954       945      3726      3727      3692
 -1      1807    8    0    1
 -2       866       865       955      3445      3728      3729
 -1      1808    8    0    1
 -2       865       953       955      3724      3730      3728
 -1      1809    8    0    1
 -2       867       866       956      3448      3731      3732
 -1      1810    8    0    1
 -2       866       955       956      3729      3733      3731
 -1      1811    8    0    1
 -2       868       867       957      3451      3734      3735
 -1      1812    8    0    1
 -2       867       956       957      3732      3736      3734
 -1      1813    8    0    1
 -2       869       868       958      3454      3737      3738
 -1      1814    8    0    1
 -2       868       957       958      3735      3739      3737
 -1      1815    8    0    1
 -2       871       870       916      3460      3740      3663
 -1      1816    8    0    1
 -2       873       872       927      3468      3627      3741
 -1      1817    8    0    1
 -2       896       797       948      3534      3742      3743
 -1      1818    8    0    1
 -2       767       835       751      3648      3378      3744
 -1      1819    8    0    1
 -2       847       931       954      3642      3745      3725
 -1      1820    8    0    1
 -2       874       873       959      3471      3746      3747
 -1      1821    8    0    1
 -2       873       927       959      3741      3748      3746
 -1      1822    8    0    1
 -2       875       874       960      3474      3749      3750
 -1      1823    8    0    1
 -2       876       875       961      3477      3751      3752
 -1      1824    8    0    1
 -2       875       960       961      3750      3753      3751
 -1      1825    8    0    1
 -2       877       876       962      3480      3754      3755
 -1      1826    8    0    1
 -2       876       961       962      3752      3756      3754
 -1      1827    8    0    1
 -2       878       877       963      3483      3757      3758
 -1      1828    8    0    1
 -2       877       962       963      3755      3759      3757
 -1      1829    8    0    1
 -2       879       878       964      3486      3760      3761
 -1      1830    8    0    1
 -2       878       963       964      3758      3762      3760
 -1      1831    8    0    1
 -2       880       879       965      3489      3763      3764
 -1      1832    8    0    1
 -2       879       964       965      3761      3765      3763
 -1      1833    8    0    1
 -2       881       880       966      3492      3766      3767
 -1      1834    8    0    1
 -2       880       965       966      3764      3768      3766
 -1      1835    8    0    1
 -2       882       881       967      3495      3769      3770
 -1      1836    8    0    1
 -2       881       966       967      3767      3771      3769
 -1      1837    8    0    1
 -2       883       882       968      3498      3772      3773
 -1      1838    8    0    1
 -2       882       967       968      3770      3774      3772
 -1      1839    8    0    1
 -2       884       883       969      3501      3775      3776
 -1      1840    8    0    1
 -2       883       968       969      3773      3777      3775
 -1      1841    8    0    1
 -2       885       884       970      3504      3778      3779
 -1      1842    8    0    1
 -2       884       969       970      3776      3780      3778
 -1      1843    8    0    1
 -2       886       885       971      3507      3781      3782
 -1      1844    8    0    1
 -2       885       970       971      3779      3783      3781
 -1      1845    8    0    1
 -2       887       886       972      3510      3784      3785
 -1      1846    8    0    1
 -2       886       971       972      3782      3786      3784
 -1      1847    8    0    1
 -2       888       887       973      3513      3787      3788
 -1      1848    8    0    1
 -2       887       972       973      3785      3789      3787
 -1      1849    8    0    1
 -2       889       888       974      3516      3790      3791
 -1      1850    8    0    1
 -2       888       973       974      3788      3792      3790
 -1      1851    8    0    1
 -2       890       889       975      3519      3793      3794
 -1      1852    8    0    1
 -2       889       974       975      3791      3795      3793
 -1      1853    8    0    1
 -2       891       890       976      3522      3796      3797
 -1      1854    8    0    1
 -2       890       975       976      3794      3798      3796
 -1      1855    8    0    1
 -2       892       891       977      3525      3799      3800
 -1      1856    8    0    1
 -2       891       976       977      3797      3801      3799
 -1      1857    8    0    1
 -2       893       892       978      3528      3802      3803
 -1      1858    8    0    1
 -2       892       977       978      3800      3804      3802
 -1      1859    8    0    1
 -2       898       897       979      3543      3805      3806
 -1      1860    8    0    1
 -2       900       901       980      3551      3807      3808
 -1      1861    8    0    1
 -2       899       900       981      3548      3809      3810
 -1      1862    8    0    1
 -2       900       980       981      3808      3811      3809
 -1      1863    8    0    1
 -2       902       903       982      3557      3812      3813
 -1      1864    8    0    1
 -2       903       904       983      3560      3814      3815
 -1      1865    8    0    1
 -2       903       983       982      3815      3816      3812
 -1      1866    8    0    1
 -2       904       905       984      3563      3817      3818
 -1      1867    8    0    1
 -2       904       984       983      3818      3819      3814
 -1      1868    8    0    1
 -2       905       906       985      3566      3820      3821
 -1      1869    8    0    1
 -2       905       985       984      3821      3822      3817
 -1      1870    8    0    1
 -2       906       907       986      3569      3823      3824
 -1      1871    8    0    1
 -2       906       986       985      3824      3825      3820
 -1      1872    8    0    1
 -2       907       908       987      3572      3826      3827
 -1      1873    8    0    1
 -2       907       987       986      3827      3828      3823
 -1      1874    8    0    1
 -2       908       909       988      3575      3829      3830
 -1      1875    8    0    1
 -2       908       988       987      3830      3831      3826
 -1      1876    8    0    1
 -2       909       910       989      3578      3832      3833
 -1      1877    8    0    1
 -2       909       989       988      3833      3834      3829
 -1      1878    8    0    1
 -2       910       911       990      3581      3835      3836
 -1      1879    8    0    1
 -2       910       990       989      3836      3837      3832
 -1      1880    8    0    1
 -2       911       912       991      3584      3838      3839
 -1      1881    8    0    1
 -2       911       991       990      3839      3840      3835
 -1      1882    8    0    1
 -2       912       913       992      3587      3841      3842
 -1      1883    8    0    1
 -2       912       992       991      3842      3843      3838
 -1      1884    8    0    1
 -2       913       914       993      3590      3844      3845
 -1      1885    8    0    1
 -2       913       993       992      3845      3846      3841
 -1      1886    8    0    1
 -2       914       915       947      3593      3718      3847
 -1      1887    8    0    1
 -2       928       937       925      3666      3848      3712
 -1      1888    8    0    1
 -2       895       898       994      3647      3849      3850
 -1      1889    8    0    1
 -2       858       895       994      3678      3850      3851
 -1      1890    8    0    1
 -2       898       979       994      3806      3852      3849
 -1      1891    8    0    1
 -2       946       926       995      3694      3853      3854
 -1      1892    8    0    1
 -2       948       930       896      3713      3855      3743
 -1      1893    8    0    1
 -2       920       917       960      3674      3856      3857
 -1      1894    8    0    1
 -2       916       870       996      3740      3858      3859
 -1      1895    8    0    1
 -2       932       916       996      3645      3859      3860
 -1      1896    8    0    1
 -2       870       869       996      3457      3861      3858
 -1      1897    8    0    1
 -2       897       921       997      3679      3862      3863
 -1      1898    8    0    1
 -2       897       997       979      3863      3864      3805
 -1      1899    8    0    1
 -2       856       857       998      3406      3865      3866
 -1      1900    8    0    1
 -2       947       856       998      3696      3866      3867
 -1      1901    8    0    1
 -2       857       940       998      3677      3868      3865
 -1      1902    8    0    1
 -2       864       923       999      3617      3869      3870
 -1      1903    8    0    1
 -2       864       999       953      3870      3871      3723
 -1      1904    8    0    1
 -2       924       948       797      3699      3742      3872
 -1      1905    8    0    1
 -2       894       846      1000      3649      3873      3874
 -1      1906    8    0    1
 -2       938       894      1000      3667      3874      3875
 -1      1907    8    0    1
 -2       846       951      1000      3716      3876      3873
 -1      1908    8    0    1
 -2       926       944      1001      3700      3877      3878
 -1      1909    8    0    1
 -2       926      1001       995      3878      3879      3853
 -1      1910    8    0    1
 -2       923       925      1002      3622      3880      3881
 -1      1911    8    0    1
 -2       923      1002       999      3881      3882      3869
 -1      1912    8    0    1
 -2       921       899      1003      3611      3883      3884
 -1      1913    8    0    1
 -2       899       981      1003      3810      3885      3883
 -1      1914    8    0    1
 -2       929       848      1004      3705      3886      3887
 -1      1915    8    0    1
 -2       851       859      1005      3414      3888      3889
 -1      1916    8    0    1
 -2       931       851      1005      3640      3889      3890
 -1      1917    8    0    1
 -2       859       946      1005      3711      3891      3888
 -1      1918    8    0    1
 -2       901       902      1006      3554      3892      3893
 -1      1919    8    0    1
 -2       980       901      1006      3807      3893      3894
 -1      1920    8    0    1
 -2       902       982      1006      3813      3895      3892
 -1      1921    8    0    1
 -2       914       947       993      3847      3896      3844
 -1      1922    8    0    1
 -2       925       937      1007      3848      3897      3898
 -1      1923    8    0    1
 -2      1002       925      1007      3880      3898      3899
 -1      1924    8    0    1
 -2       937       938      1007      3669      3900      3897
 -1      1925    8    0    1
 -2       896       930      1008      3855      3901      3902
 -1      1926    8    0    1
 -2       934       896      1008      3654      3902      3903
 -1      1927    8    0    1
 -2       930       949      1008      3702      3904      3901
 -1      1928    8    0    1
 -2       997       921      1003      3862      3884      3905
 -1      1929    8    0    1
 -2       945       954      1009      3727      3906      3907
 -1      1930    8    0    1
 -2       751       821       767      3630      3373      3744
 -1      1931    8    0    1
 -2       834       934       941      3656      3908      3682
 -1      1932    8    0    1
 -2       946       995      1010      3854      3909      3910
 -1      1933    8    0    1
 -2       947       998      1011      3867      3911      3912
 -1      1934    8    0    1
 -2       947      1011       993      3912      3913      3896
 -1      1935    8    0    1
 -2       869       958       996      3738      3914      3861
 -1      1936    8    0    1
 -2       935       929      1012      3659      3915      3916
 -1      1937    8    0    1
 -2       929      1004      1012      3887      3917      3915
 -1      1938    8    0    1
 -2       936       922      1013      3662      3918      3919
 -1      1939    8    0    1
 -2       893       978       952      3803      3920      3722
 -1      1940    8    0    1
 -2       855       935       949      3658      3921      3703
 -1      1941    8    0    1
 -2       939       831       952      3673      3721      3922
 -1      1942    8    0    1
 -2       940       919      1014      3675      3923      3924
 -1      1943    8    0    1
 -2       945      1009      1015      3907      3925      3926
 -1      1944    8    0    1
 -2       945      1015       951      3926      3927      3714
 -1      1945    8    0    1
 -2       919       939      1016      3672      3928      3929
 -1      1946    8    0    1
 -2       919      1016      1014      3929      3930      3923
 -1      1947    8    0    1
 -2       946      1010      1005      3910      3931      3891
 -1      1948    8    0    1
 -2       960       917      1017      3856      3932      3933
 -1      1949    8    0    1
 -2       961       960      1017      3753      3933      3934
 -1      1950    8    0    1
 -2       917       950      1017      3709      3935      3932
 -1      1951    8    0    1
 -2       922       941      1018      3681      3936      3937
 -1      1952    8    0    1
 -2       922      1018      1013      3937      3938      3918
 -1      1953    8    0    1
 -2       942       858       994      3683      3851      3939
 -1      1954    8    0    1
 -2       943       860      1019      3688      3940      3941
 -1      1955    8    0    1
 -2       860       942      1019      3685      3942      3940
 -1      1956    8    0    1
 -2       861       943      1020      3687      3943      3944
 -1      1957    8    0    1
 -2       861      1020       950      3944      3945      3710
 -1      1958    8    0    1
 -2       944       936      1021      3691      3946      3947
 -1      1959    8    0    1
 -2      1001       944      1021      3877      3947      3948
 -1      1960    8    0    1
 -2       936      1013      1021      3919      3949      3946
 -1      1961    8    0    1
 -2      1004       848       932      3886      3644      3950
 -1      1962    8    0    1
 -2       927       920       959      3628      3951      3748
 -1      1963    8    0    1
 -2      1009       954      1010      3906      3952      3953
 -1      1964    8    0    1
 -2       955       953      1022      3730      3954      3955
 -1      1965    8    0    1
 -2       956       955      1023      3733      3956      3957
 -1      1966    8    0    1
 -2       955      1022      1023      3955      3958      3956
 -1      1967    8    0    1
 -2       957       956      1024      3736      3959      3960
 -1      1968    8    0    1
 -2       956      1023      1024      3957      3961      3959
 -1      1969    8    0    1
 -2       958       957      1025      3739      3962      3963
 -1      1970    8    0    1
 -2       957      1024      1025      3960      3964      3962
 -1      1971    8    0    1
 -2       981       980      1026      3811      3965      3966
 -1      1972    8    0    1
 -2       979       997      1027      3864      3967      3968
 -1      1973    8    0    1
 -2       941       934      1028      3908      3969      3970
 -1      1974    8    0    1
 -2       941      1028      1018      3970      3971      3936
 -1      1975    8    0    1
 -2      1009      1010      1029      3953      3972      3973
 -1      1976    8    0    1
 -2      1010       995      1029      3909      3974      3972
 -1      1977    8    0    1
 -2       960       874       959      3749      3747      3975
 -1      1978    8    0    1
 -2       962       961      1030      3756      3976      3977
 -1      1979    8    0    1
 -2       963       962      1031      3759      3978      3979
 -1      1980    8    0    1
 -2       962      1030      1031      3977      3980      3978
 -1      1981    8    0    1
 -2       964       963      1032      3762      3981      3982
 -1      1982    8    0    1
 -2       963      1031      1032      3979      3983      3981
 -1      1983    8    0    1
 -2       965       964      1033      3765      3984      3985
 -1      1984    8    0    1
 -2       964      1032      1033      3982      3986      3984
 -1      1985    8    0    1
 -2       966       965      1034      3768      3987      3988
 -1      1986    8    0    1
 -2       965      1033      1034      3985      3989      3987
 -1      1987    8    0    1
 -2       967       966      1035      3771      3990      3991
 -1      1988    8    0    1
 -2       966      1034      1035      3988      3992      3990
 -1      1989    8    0    1
 -2       968       967      1036      3774      3993      3994
 -1      1990    8    0    1
 -2       967      1035      1036      3991      3995      3993
 -1      1991    8    0    1
 -2       969       968      1037      3777      3996      3997
 -1      1992    8    0    1
 -2       968      1036      1037      3994      3998      3996
 -1      1993    8    0    1
 -2       970       969      1038      3780      3999      4000
 -1      1994    8    0    1
 -2       969      1037      1038      3997      4001      3999
 -1      1995    8    0    1
 -2       971       970      1039      3783      4002      4003
 -1      1996    8    0    1
 -2       970      1038      1039      4000      4004      4002
 -1      1997    8    0    1
 -2       972       971      1040      3786      4005      4006
 -1      1998    8    0    1
 -2       971      1039      1040      4003      4007      4005
 -1      1999    8    0    1
 -2       973       972      1041      3789      4008      4009
 -1      2000    8    0    1
 -2       972      1040      1041      4006      4010      4008
 -1      2001    8    0    1
 -2       974       973      1042      3792      4011      4012
 -1      2002    8    0    1
 -2       973      1041      1042      4009      4013      4011
 -1      2003    8    0    1
 -2       975       974      1043      3795      4014      4015
 -1      2004    8    0    1
 -2       974      1042      1043      4012      4016      4014
 -1      2005    8    0    1
 -2       976       975      1044      3798      4017      4018
 -1      2006    8    0    1
 -2       975      1043      1044      4015      4019      4017
 -1      2007    8    0    1
 -2       977       976      1045      3801      4020      4021
 -1      2008    8    0    1
 -2       976      1044      1045      4018      4022      4020
 -1      2009    8    0    1
 -2       978       977      1046      3804      4023      4024
 -1      2010    8    0    1
 -2       977      1045      1046      4021      4025      4023
 -1      2011    8    0    1
 -2       942       994      1047      3939      4026      4027
 -1      2012    8    0    1
 -2       942      1047      1019      4027      4028      3942
 -1      2013    8    0    1
 -2       952       978       939      3920      4029      3922
 -1      2014    8    0    1
 -2       924       797       749      3872      3386      3629
 -1      2015    8    0    1
 -2       996       958      1048      3914      4030      4031
 -1      2016    8    0    1
 -2       958      1025      1048      3963      4032      4030
 -1      2017    8    0    1
 -2      1004       932      1048      3950      4033      4034
 -1      2018    8    0    1
 -2       983       984      1049      3819      4035      4036
 -1      2019    8    0    1
 -2       982       983      1050      3816      4037      4038
 -1      2020    8    0    1
 -2       983      1049      1050      4036      4039      4037
 -1      2021    8    0    1
 -2       985       986      1051      3825      4040      4041
 -1      2022    8    0    1
 -2       986       987      1052      3828      4042      4043
 -1      2023    8    0    1
 -2       986      1052      1051      4043      4044      4040
 -1      2024    8    0    1
 -2       987       988      1053      3831      4045      4046
 -1      2025    8    0    1
 -2       987      1053      1052      4046      4047      4042
 -1      2026    8    0    1
 -2       988       989      1054      3834      4048      4049
 -1      2027    8    0    1
 -2       988      1054      1053      4049      4050      4045
 -1      2028    8    0    1
 -2       989       990      1055      3837      4051      4052
 -1      2029    8    0    1
 -2       989      1055      1054      4052      4053      4048
 -1      2030    8    0    1
 -2       990       991      1056      3840      4054      4055
 -1      2031    8    0    1
 -2       990      1056      1055      4055      4056      4051
 -1      2032    8    0    1
 -2       991       992      1057      3843      4057      4058
 -1      2033    8    0    1
 -2       991      1057      1056      4058      4059      4054
 -1      2034    8    0    1
 -2       992       993      1058      3846      4060      4061
 -1      2035    8    0    1
 -2      1057       992      1058      4057      4061      4062
 -1      2036    8    0    1
 -2       993      1011      1058      3913      4063      4060
 -1      2037    8    0    1
 -2       994       979      1047      3852      4064      4026
 -1      2038    8    0    1
 -2      1005      1010       954      3931      3952      4065
 -1      2039    8    0    1
 -2       995      1001      1059      3879      4066      4067
 -1      2040    8    0    1
 -2       995      1059      1029      4067      4068      3974
 -1      2041    8    0    1
 -2       953       999      1060      3871      4069      4070
 -1      2042    8    0    1
 -2       953      1060      1022      4070      4071      3954
 -1      2043    8    0    1
 -2       999      1002      1061      3882      4072      4073
 -1      2044    8    0    1
 -2       999      1061      1060      4073      4074      4069
 -1      2045    8    0    1
 -2       932       996      1048      3860      4031      4033
 -1      2046    8    0    1
 -2       998       940      1062      3868      4075      4076
 -1      2047    8    0    1
 -2      1011       998      1062      3911      4076      4077
 -1      2048    8    0    1
 -2       940      1014      1062      3924      4078      4075
 -1      2049    8    0    1
 -2       949       935      1063      3921      4079      4080
 -1      2050    8    0    1
 -2      1003       981      1064      3885      4081      4082
 -1      2051    8    0    1
 -2       981      1026      1064      3966      4083      4081
 -1      2052    8    0    1
 -2       954       931      1005      3745      3890      4065
 -1      2053    8    0    1
 -2       997      1003      1065      3905      4084      4085
 -1      2054    8    0    1
 -2      1027       997      1065      3967      4085      4086
 -1      2055    8    0    1
 -2      1003      1064      1065      4082      4087      4084
 -1      2056    8    0    1
 -2       984       985      1066      3822      4088      4089
 -1      2057    8    0    1
 -2      1049       984      1066      4035      4089      4090
 -1      2058    8    0    1
 -2       985      1051      1066      4041      4091      4088
 -1      2059    8    0    1
 -2      1004      1048      1067      4034      4092      4093
 -1      2060    8    0    1
 -2      1012      1004      1067      3917      4093      4094
 -1      2061    8    0    1
 -2      1048      1025      1067      4032      4095      4092
 -1      2062    8    0    1
 -2      1063       935      1068      4079      4096      4097
 -1      2063    8    0    1
 -2       935      1012      1068      3916      4098      4096
 -1      2064    8    0    1
 -2      1026       980      1069      3965      4099      4100
 -1      2065    8    0    1
 -2       980      1006      1069      3894      4101      4099
 -1      2066    8    0    1
 -2       979      1027      1047      3968      4102      4064
 -1      2067    8    0    1
 -2       938      1000      1070      3875      4103      4104
 -1      2068    8    0    1
 -2       938      1070      1007      4104      4105      3900
 -1      2069    8    0    1
 -2      1009      1029      1015      3973      4106      3925
 -1      2070    8    0    1
 -2      1030       961      1017      3976      3934      4107
 -1      2071    8    0    1
 -2       982      1050      1071      4038      4108      4109
 -1      2072    8    0    1
 -2       982      1071      1006      4109      4110      3895
 -1      2073    8    0    1
 -2      1002      1007      1061      3899      4111      4072
 -1      2074    8    0    1
 -2      1059      1001      1072      4066      4112      4113
 -1      2075    8    0    1
 -2      1001      1021      1072      3948      4114      4112
 -1      2076    8    0    1
 -2       951      1015      1073      3927      4115      4116
 -1      2077    8    0    1
 -2      1062      1014      1074      4078      4117      4118
 -1      2078    8    0    1
 -2      1028       934      1008      3969      3903      4119
 -1      2079    8    0    1
 -2       939       978      1016      4029      4120      3928
 -1      2080    8    0    1
 -2      1020       943      1075      3943      4121      4122
 -1      2081    8    0    1
 -2       943      1019      1075      3941      4123      4121
 -1      2082    8    0    1
 -2      1021      1013      1076      3949      4124      4125
 -1      2083    8    0    1
 -2      1021      1076      1072      4125      4126      4114
 -1      2084    8    0    1
 -2      1000       951      1073      3876      4116      4127
 -1      2085    8    0    1
 -2      1008       949      1077      3904      4128      4129
 -1      2086    8    0    1
 -2      1028      1008      1077      4119      4129      4130
 -1      2087    8    0    1
 -2       949      1063      1077      4080      4131      4128
 -1      2088    8    0    1
 -2       920       960       959      3857      3975      3951
 -1      2089    8    0    1
 -2      1013      1018      1078      3938      4132      4133
 -1      2090    8    0    1
 -2      1013      1078      1076      4133      4134      4124
 -1      2091    8    0    1
 -2      1016       978      1046      4120      4024      4135
 -1      2092    8    0    1
 -2      1014      1016      1079      3930      4136      4137
 -1      2093    8    0    1
 -2      1074      1014      1079      4117      4137      4138
 -1      2094    8    0    1
 -2      1016      1046      1079      4135      4139      4136
 -1      2095    8    0    1
 -2      1024      1023      1080      3961      4140      4141
 -1      2096    8    0    1
 -2      1025      1024      1081      3964      4142      4143
 -1      2097    8    0    1
 -2      1024      1080      1081      4141      4144      4142
 -1      2098    8    0    1
 -2      1018      1028      1082      3971      4145      4146
 -1      2099    8    0    1
 -2      1078      1018      1082      4132      4146      4147
 -1      2100    8    0    1
 -2      1028      1077      1082      4130      4148      4145
 -1      2101    8    0    1
 -2      1022      1060      1083      4071      4149      4150
 -1      2102    8    0    1
 -2      1031      1030      1084      3980      4151      4152
 -1      2103    8    0    1
 -2      1019      1047      1085      4028      4153      4154
 -1      2104    8    0    1
 -2      1019      1085      1075      4154      4155      4123
 -1      2105    8    0    1
 -2      1032      1031      1086      3983      4156      4157
 -1      2106    8    0    1
 -2      1031      1084      1086      4152      4158      4156
 -1      2107    8    0    1
 -2      1033      1032      1087      3986      4159      4160
 -1      2108    8    0    1
 -2      1032      1086      1087      4157      4161      4159
 -1      2109    8    0    1
 -2      1034      1033      1088      3989      4162      4163
 -1      2110    8    0    1
 -2      1033      1087      1088      4160      4164      4162
 -1      2111    8    0    1
 -2      1035      1034      1089      3992      4165      4166
 -1      2112    8    0    1
 -2      1034      1088      1089      4163      4167      4165
 -1      2113    8    0    1
 -2      1036      1035      1090      3995      4168      4169
 -1      2114    8    0    1
 -2      1035      1089      1090      4166      4170      4168
 -1      2115    8    0    1
 -2      1037      1036      1091      3998      4171      4172
 -1      2116    8    0    1
 -2      1036      1090      1091      4169      4173      4171
 -1      2117    8    0    1
 -2      1038      1037      1092      4001      4174      4175
 -1      2118    8    0    1
 -2      1037      1091      1092      4172      4176      4174
 -1      2119    8    0    1
 -2      1039      1038      1093      4004      4177      4178
 -1      2120    8    0    1
 -2      1038      1092      1093      4175      4179      4177
 -1      2121    8    0    1
 -2      1040      1039      1094      4007      4180      4181
 -1      2122    8    0    1
 -2      1039      1093      1094      4178      4182      4180
 -1      2123    8    0    1
 -2      1041      1040      1095      4010      4183      4184
 -1      2124    8    0    1
 -2      1040      1094      1095      4181      4185      4183
 -1      2125    8    0    1
 -2      1042      1041      1096      4013      4186      4187
 -1      2126    8    0    1
 -2      1041      1095      1096      4184      4188      4186
 -1      2127    8    0    1
 -2      1043      1042      1097      4016      4189      4190
 -1      2128    8    0    1
 -2      1042      1096      1097      4187      4191      4189
 -1      2129    8    0    1
 -2      1044      1043      1098      4019      4192      4193
 -1      2130    8    0    1
 -2      1043      1097      1098      4190      4194      4192
 -1      2131    8    0    1
 -2      1045      1044      1099      4022      4195      4196
 -1      2132    8    0    1
 -2      1044      1098      1099      4193      4197      4195
 -1      2133    8    0    1
 -2      1046      1045      1079      4025      4198      4139
 -1      2134    8    0    1
 -2      1053      1054      1100      4050      4199      4200
 -1      2135    8    0    1
 -2      1023      1022      1101      3958      4201      4202
 -1      2136    8    0    1
 -2      1023      1101      1080      4202      4203      4140
 -1      2137    8    0    1
 -2      1030      1017      1102      4107      4204      4205
 -1      2138    8    0    1
 -2      1011      1062      1103      4077      4206      4207
 -1      2139    8    0    1
 -2      1058      1011      1103      4063      4207      4208
 -1      2140    8    0    1
 -2      1062      1074      1103      4118      4209      4206
 -1      2141    8    0    1
 -2      1052      1053      1104      4047      4210      4211
 -1      2142    8    0    1
 -2      1053      1100      1104      4200      4212      4210
 -1      2143    8    0    1
 -2      1051      1052      1105      4044      4213      4214
 -1      2144    8    0    1
 -2      1052      1104      1105      4211      4215      4213
 -1      2145    8    0    1
 -2      1054      1055      1106      4053      4216      4217
 -1      2146    8    0    1
 -2      1054      1106      1100      4217      4218      4199
 -1      2147    8    0    1
 -2      1055      1056      1107      4056      4219      4220
 -1      2148    8    0    1
 -2      1055      1107      1106      4220      4221      4216
 -1      2149    8    0    1
 -2      1056      1057      1108      4059      4222      4223
 -1      2150    8    0    1
 -2      1056      1108      1107      4223      4224      4219
 -1      2151    8    0    1
 -2      1015      1029      1109      4106      4225      4226
 -1      2152    8    0    1
 -2      1000      1073      1070      4127      4227      4103
 -1      2153    8    0    1
 -2      1073      1015      1109      4115      4226      4228
 -1      2154    8    0    1
 -2      1017       950      1102      3935      4229      4204
 -1      2155    8    0    1
 -2      1064      1026      1110      4083      4230      4231
 -1      2156    8    0    1
 -2      1050      1049      1111      4039      4232      4233
 -1      2157    8    0    1
 -2      1061      1007      1070      4111      4105      4234
 -1      2158    8    0    1
 -2      1060      1061      1112      4074      4235      4236
 -1      2159    8    0    1
 -2      1060      1112      1083      4236      4237      4149
 -1      2160    8    0    1
 -2      1029      1059      1109      4068      4238      4225
 -1      2161    8    0    1
 -2      1047      1027      1085      4102      4239      4153
 -1      2162    8    0    1
 -2      1030      1102      1084      4205      4240      4151
 -1      2163    8    0    1
 -2      1069      1006      1071      4101      4110      4241
 -1      2164    8    0    1
 -2      1025      1081      1067      4143      4242      4095
 -1      2165    8    0    1
 -2      1073      1109      1112      4228      4243      4244
 -1      2166    8    0    1
 -2      1045      1099      1079      4196      4245      4198
 -1      2167    8    0    1
 -2      1109      1059      1113      4238      4246      4247
 -1      2168    8    0    1
 -2      1071      1050      1114      4108      4248      4249
 -1      2169    8    0    1
 -2      1050      1111      1114      4233      4250      4248
 -1      2170    8    0    1
 -2      1101      1022      1083      4201      4150      4251
 -1      2171    8    0    1
 -2      1027      1065      1115      4086      4252      4253
 -1      2172    8    0    1
 -2      1068      1012      1067      4098      4094      4254
 -1      2173    8    0    1
 -2      1064      1110      1116      4231      4255      4256
 -1      2174    8    0    1
 -2      1064      1116      1065      4256      4257      4087
 -1      2175    8    0    1
 -2      1073      1112      1061      4244      4235      4258
 -1      2176    8    0    1
 -2      1102       950      1020      4229      3945      4259
 -1      2177    8    0    1
 -2      1085      1027      1115      4239      4253      4260
 -1      2178    8    0    1
 -2      1057      1058      1117      4062      4261      4262
 -1      2179    8    0    1
 -2      1108      1057      1117      4222      4262      4263
 -1      2180    8    0    1
 -2      1058      1103      1117      4208      4264      4261
 -1      2181    8    0    1
 -2      1111      1049      1118      4232      4265      4266
 -1      2182    8    0    1
 -2      1049      1066      1118      4090      4267      4265
 -1      2183    8    0    1
 -2      1026      1069      1119      4100      4268      4269
 -1      2184    8    0    1
 -2      1026      1119      1110      4269      4270      4230
 -1      2185    8    0    1
 -2      1020      1075      1102      4122      4271      4259
 -1      2186    8    0    1
 -2      1059      1072      1113      4113      4272      4246
 -1      2187    8    0    1
 -2      1102      1075      1120      4271      4273      4274
 -1      2188    8    0    1
 -2      1084      1102      1120      4240      4274      4275
 -1      2189    8    0    1
 -2      1075      1085      1120      4155      4276      4273
 -1      2190    8    0    1
 -2      1066      1051      1121      4091      4277      4278
 -1      2191    8    0    1
 -2      1051      1105      1121      4214      4279      4277
 -1      2192    8    0    1
 -2      1072      1076      1122      4126      4280      4281
 -1      2193    8    0    1
 -2      1072      1122      1113      4281      4282      4272
 -1      2194    8    0    1
 -2      1077      1063      1123      4131      4283      4284
 -1      2195    8    0    1
 -2      1077      1123      1082      4284      4285      4148
 -1      2196    8    0    1
 -2      1122      1076      1124      4280      4286      4287
 -1      2197    8    0    1
 -2      1123      1063      1068      4283      4097      4288
 -1      2198    8    0    1
 -2      1124      1076      1078      4286      4134      4289
 -1      2199    8    0    1
 -2      1073      1061      1070      4258      4234      4227
 -1      2200    8    0    1
 -2      1112      1109      1113      4243      4247      4290
 -1      2201    8    0    1
 -2      1122      1124      1101      4287      4291      4292
 -1      2202    8    0    1
 -2      1069      1071      1125      4241      4293      4294
 -1      2203    8    0    1
 -2      1069      1125      1119      4294      4295      4268
 -1      2204    8    0    1
 -2      1083      1112      1113      4237      4290      4296
 -1      2205    8    0    1
 -2      1086      1084      1126      4158      4297      4298
 -1      2206    8    0    1
 -2      1087      1086      1110      4161      4299      4300
 -1      2207    8    0    1
 -2      1088      1087      1119      4164      4301      4302
 -1      2208    8    0    1
 -2      1089      1088      1125      4167      4303      4304
 -1      2209    8    0    1
 -2      1090      1089      1114      4170      4305      4306
 -1      2210    8    0    1
 -2      1091      1090      1111      4173      4307      4308
 -1      2211    8    0    1
 -2      1092      1091      1118      4176      4309      4310
 -1      2212    8    0    1
 -2      1093      1092      1121      4179      4311      4312
 -1      2213    8    0    1
 -2      1094      1093      1105      4182      4313      4314
 -1      2214    8    0    1
 -2      1095      1094      1104      4185      4315      4316
 -1      2215    8    0    1
 -2      1096      1095      1100      4188      4317      4318
 -1      2216    8    0    1
 -2      1097      1096      1106      4191      4319      4320
 -1      2217    8    0    1
 -2      1098      1097      1107      4194      4321      4322
 -1      2218    8    0    1
 -2      1099      1098      1108      4197      4323      4324
 -1      2219    8    0    1
 -2      1115      1065      1116      4252      4257      4325
 -1      2220    8    0    1
 -2      1106      1107      1097      4221      4321      4320
 -1      2221    8    0    1
 -2      1068      1067      1081      4254      4242      4326
 -1      2222    8    0    1
 -2      1080      1101      1124      4203      4291      4327
 -1      2223    8    0    1
 -2      1106      1096      1100      4319      4318      4218
 -1      2224    8    0    1
 -2      1105      1104      1094      4215      4315      4314
 -1      2225    8    0    1
 -2      1107      1108      1098      4224      4323      4322
 -1      2226    8    0    1
 -2      1100      1095      1104      4317      4316      4212
 -1      2227    8    0    1
 -2      1083      1113      1122      4296      4282      4328
 -1      2228    8    0    1
 -2      1105      1093      1121      4313      4312      4279
 -1      2229    8    0    1
 -2      1122      1101      1083      4292      4251      4328
 -1      2230    8    0    1
 -2      1111      1090      1114      4307      4306      4250
 -1      2231    8    0    1
 -2      1085      1115      1120      4260      4329      4276
 -1      2232    8    0    1
 -2      1103      1074      1127      4209      4330      4331
 -1      2233    8    0    1
 -2      1081      1080      1128      4144      4332      4333
 -1      2234    8    0    1
 -2      1068      1081      1128      4326      4333      4334
 -1      2235    8    0    1
 -2      1080      1124      1128      4327      4335      4332
 -1      2236    8    0    1
 -2      1124      1078      1128      4289      4336      4335
 -1      2237    8    0    1
 -2      1074      1079      1099      4138      4245      4337
 -1      2238    8    0    1
 -2      1103      1127      1117      4331      4338      4264
 -1      2239    8    0    1
 -2      1120      1115      1126      4329      4339      4340
 -1      2240    8    0    1
 -2      1117      1127      1108      4338      4341      4263
 -1      2241    8    0    1
 -2      1110      1086      1116      4299      4342      4255
 -1      2242    8    0    1
 -2      1084      1120      1126      4275      4340      4297
 -1      2243    8    0    1
 -2      1066      1121      1118      4278      4343      4267
 -1      2244    8    0    1
 -2      1071      1114      1125      4249      4344      4293
 -1      2245    8    0    1
 -2      1087      1110      1119      4300      4270      4301
 -1      2246    8    0    1
 -2      1074      1099      1127      4337      4345      4330
 -1      2247    8    0    1
 -2      1091      1111      1118      4308      4266      4309
 -1      2248    8    0    1
 -2      1099      1108      1127      4324      4341      4345
 -1      2249    8    0    1
 -2      1121      1092      1118      4311      4310      4343
 -1      2250    8    0    1
 -2      1078      1082      1128      4147      4346      4336
 -1      2251    8    0    1
 -2      1123      1068      1128      4288      4334      4347
 -1      2252    8    0    1
 -2      1114      1089      1125      4305      4304      4344
 -1      2253    8    0    1
 -2      1125      1088      1119      4303      4302      4295
 -1      2254    8    0    1
 -2      1123      1128      1082      4347      4346      4285
 -1      2255    8    0    1
 -2      1115      1116      1126      4325      4348      4339
 -1      2256    8    0    1
 -2      1086      1126      1116      4298      4348      4342
 -3
    1PSTEP                         1           1           1          
  100CL  101 1.000000000        4348                     0    1           1
 -4  DISP        4    1
 -5  D1          1    2    1    0
 -5  D2          1    2    2    0
 -5  D3          1    2    3    0
 -5  ALL         1    2    0    0    1ALL
 -1         1 4.42194E-03-3.41898E-04-1.95626E-14
 -1         2 8.23926E-03 3.32220E-04-2.91699E-14
 -1         3 1.56238E-02 2.24427E-03-1.40762E-13
 -1         4 1.47879E-02 8.12826E-04-1.48453E-13
 -1         5 0.00000E+00 0.00000E+00 0.00000E+00
 -1         6 0.00000E+00 0.00000E+00 0.00000E+00
 -1         7 0.00000E+00 0.00000E+00 0.00000E+00
 -1         8 0.00000E+00 0.00000E+00 0.00000E+00
 -1         9 0.00000E+00 0.00000E+00 0.00000E+00
 -1        10 0.00000E+00 0.00000E+00 0.00000E+00
 -1        11 0.00000E+00 0.00000E+00 0.00000E+00
 -1        12 0.00000E+00 0.00000E+00 0.00000E+00
 -1        13 0.00000E+00 0.00000E+00 0.00000E+00
 -1        14 0.00000E+00 0.00000E+00 0.00000E+00
 -1        15 0.00000E+00 0.00000E+00 0.00000E+00
 -1        16 0.00000E+00 0.00000E+00 0.00000E+00
 -1        17 0.00000E+00 0.00000E+00 0.00000E+00
 -1        18 0.00000E+00 0.00000E+00 0.00000E+00
 -1        19 0.00000E+00 0.00000E+00 0.00000E+00
 -1        20 0.00000E+00 0.00000E+00 0.00000E+00
 -1        21 0.00000E+00 0.00000E+00 0.00000E+00
 -1        22 0.00000E+00 0.00000E+00 0.00000E+00
 -1        23 4.08538E-04-2.54630E-04 2.49942E-17
 -1        24 7.01279E-04-3.87643E-04-1.06973E-16
 -1        25 9.74680E-04-4.77387E-04-3.89185E-16
 -1        26 1.24485E-03-5.38491E-04-8.17566E-16
 -1        27 1.51672E-03-5.80361E-04-1.38802E-15
 -1        28 1.79296E-03-6.08806E-04-2.09724E-15
 -1        29 2.07524E-03-6.28229E-04-2.94193E-15
 -1        30 2.36468E-03-6.42377E-04-3.91941E-15
 -1        31 2.66205E-03-6.54751E-04-5.03325E-15
 -1        32 2.96760E-03-6.68804E-04-6.28094E-15
 -1        33 3.28095E-03-6.87971E-04-7.65849E-15
 -1        34 3.60070E-03-7.15483E-04-9.15887E-15
 -1        35 3.92414E-03-7.53861E-04-1.07884E-14
 -1        36 4.24697E-03-8.04045E-04-1.25462E-14
 -1        37 4.56356E-03-8.64217E-04-1.44328E-14
 -1        38 4.86789E-03-9.28689E-04-1.64529E-14
 -1        39 5.15533E-03-9.87593E-04-1.86039E-14
 -1        40 5.42499E-03-1.02825E-03-2.08961E-14
 -1        41 5.68114E-03-1.03852E-03-2.33322E-14
 -1        42 5.93267E-03-1.01105E-03-2.59075E-14
 -1        43 6.19027E-03-9.46243E-04-2.86264E-14
 -1        44 6.46252E-03-8.52116E-04-3.14821E-14
 -1        45 6.75328E-03-7.41113E-04-3.44647E-14
 -1        46 7.06131E-03-6.25851E-04-3.75731E-14
 -1        47 7.38193E-03-5.15965E-04-4.08040E-14
 -1        48 7.70929E-03-4.16965E-04-4.41571E-14
 -1        49 8.03811E-03-3.30687E-04-4.76288E-14
 -1        50 8.36453E-03-2.56473E-04-5.12208E-14
 -1        51 8.68622E-03-1.92358E-04-5.49302E-14
 -1        52 9.00219E-03-1.35958E-04-5.87512E-14
 -1        53 9.31232E-03-8.49965E-05-6.26699E-14
 -1        54 9.61706E-03-3.75541E-05-6.66826E-14
 -1        55 9.91713E-03 7.85768E-06-7.07926E-14
 -1        56 1.02133E-02 5.23202E-05-7.49976E-14
 -1        57 1.05064E-02 9.65710E-05-7.92812E-14
 -1        58 1.07972E-02 1.41078E-04-8.36145E-14
 -1        59 1.10861E-02 1.86111E-04-8.80020E-14
 -1        60 1.13738E-02 2.31797E-04-9.24422E-14
 -1        61 1.16605E-02 2.78170E-04-9.69301E-14
 -1        62 1.19467E-02 3.25203E-04-1.01467E-13
 -1        63 1.22324E-02 3.72836E-04-1.06050E-13
 -1        64 1.25180E-02 4.20989E-04-1.10690E-13
 -1        65 1.28034E-02 4.69576E-04-1.15375E-13
 -1        66 1.30888E-02 5.18512E-04-1.20095E-13
 -1        67 1.33742E-02 5.67715E-04-1.24844E-13
 -1        68 1.36596E-02 6.17110E-04-1.29603E-13
 -1        69 1.39452E-02 6.66625E-04-1.34363E-13
 -1        70 1.42308E-02 7.16196E-04-1.39121E-13
 -1        71 1.45165E-02 7.65766E-04-1.43899E-13
 -1        72 4.10591E-04 2.54990E-04 8.28466E-17
 -1        73 7.00752E-04 3.89506E-04 5.24144E-17
 -1        74 9.74873E-04 4.77658E-04-9.25705E-17
 -1        75 1.24553E-03 5.37723E-04-3.57102E-16
 -1        76 1.51810E-03 5.78245E-04-7.44373E-16
 -1        77 1.79562E-03 6.04843E-04-1.25792E-15
 -1        78 2.08033E-03 6.21808E-04-1.89824E-15
 -1        79 2.37418E-03 6.32900E-04-2.66384E-15
 -1        80 2.67916E-03 6.41899E-04-3.55223E-15
 -1        81 2.99731E-03 6.53056E-04-4.56566E-15
 -1        82 3.33055E-03 6.71517E-04-5.69893E-15
 -1        83 3.68017E-03 7.03640E-04-6.95282E-15
 -1        84 4.04585E-03 7.56957E-04-8.32980E-15
 -1        85 4.42406E-03 8.39231E-04-9.83272E-15
 -1        86 4.80626E-03 9.55806E-04-1.14688E-14
 -1        87 5.17820E-03 1.10469E-03-1.32346E-14
 -1        88 5.52270E-03 1.27053E-03-1.51389E-14
 -1        89 5.82768E-03 1.42230E-03-1.71897E-14
 -1        90 6.09657E-03 1.52151E-03-1.93967E-14
 -1        91 6.35173E-03 1.54115E-03-2.17689E-14
 -1        92 6.62402E-03 1.48291E-03-2.43034E-14
 -1        93 6.93441E-03 1.37606E-03-2.70055E-14
 -1        94 7.28446E-03 1.25923E-03-2.98750E-14
 -1        95 7.66106E-03 1.16208E-03-3.28880E-14
 -1        96 8.04705E-03 1.09850E-03-3.60317E-14
 -1        97 8.42891E-03 1.06966E-03-3.92940E-14
 -1        98 8.79891E-03 1.07010E-03-4.26655E-14
 -1        99 9.15422E-03 1.09243E-03-4.61361E-14
 -1       100 9.49505E-03 1.12981E-03-4.97105E-14
 -1       101 9.82305E-03 1.17689E-03-5.33907E-14
 -1       102 1.01404E-02 1.22977E-03-5.71601E-14
 -1       103 1.04493E-02 1.28580E-03-6.10126E-14
 -1       104 1.07516E-02 1.34322E-03-6.49588E-14
 -1       105 1.10490E-02 1.40096E-03-6.89865E-14
 -1       106 1.13426E-02 1.45837E-03-7.30985E-14
 -1       107 1.16335E-02 1.51509E-03-7.73011E-14
 -1       108 1.19224E-02 1.57099E-03-8.15842E-14
 -1       109 1.22101E-02 1.62601E-03-8.59377E-14
 -1       110 1.24967E-02 1.68019E-03-9.03555E-14
 -1       111 1.27828E-02 1.73362E-03-9.48226E-14
 -1       112 1.30685E-02 1.78638E-03-9.93528E-14
 -1       113 1.33540E-02 1.83859E-03-1.03929E-13
 -1       114 1.36393E-02 1.89034E-03-1.08538E-13
 -1       115 1.39247E-02 1.94173E-03-1.13169E-13
 -1       116 1.42101E-02 1.99284E-03-1.17802E-13
 -1       117 1.44956E-02 2.04376E-03-1.22435E-13
 -1       118 1.47811E-02 2.09455E-03-1.27062E-13
 -1       119 1.50667E-02 2.14529E-03-1.31701E-13
 -1       120 1.53524E-02 2.19603E-03-1.36347E-13
 -1       121 1.55739E-02 2.15998E-03-1.41259E-13
 -1       122 1.55239E-02 2.07567E-03-1.41753E-13
 -1       123 1.54740E-02 1.99130E-03-1.42247E-13
 -1       124 1.54240E-02 1.90686E-03-1.42731E-13
 -1       125 1.53742E-02 1.82237E-03-1.43214E-13
 -1       126 1.53253E-02 1.73926E-03-1.43689E-13
 -1       127 1.52757E-02 1.65470E-03-1.44158E-13
 -1       128 1.52262E-02 1.57011E-03-1.44631E-13
 -1       129 1.51769E-02 1.48553E-03-1.45104E-13
 -1       130 1.51277E-02 1.40095E-03-1.45563E-13
 -1       131 1.50787E-02 1.31638E-03-1.46010E-13
 -1       132 1.50306E-02 1.23329E-03-1.46447E-13
 -1       133 1.49818E-02 1.14880E-03-1.46873E-13
 -1       134 1.49331E-02 1.06436E-03-1.47278E-13
 -1       135 1.48845E-02 9.79996E-04-1.47671E-13
 -1       136 1.48358E-02 8.95683E-04-1.48067E-13
 -1       137 8.20971E-03 5.07045E-04-2.88674E-14
 -1       138 8.08280E-03 6.73726E-04-2.82903E-14
 -1       139 7.86540E-03 8.27376E-04-2.74852E-14
 -1       140 7.54884E-03 9.67428E-04-2.64315E-14
 -1       141 7.14774E-03 1.08028E-03-2.52045E-14
 -1       142 6.71669E-03 1.14925E-03-2.39890E-14
 -1       143 6.21893E-03 1.17660E-03-2.26720E-14
 -1       144 5.73757E-03 1.15400E-03-2.14801E-14
 -1       145 5.25370E-03 1.08299E-03-2.03570E-14
 -1       146 4.78888E-03 9.62908E-04-1.93454E-14
 -1       147 4.40460E-03 8.11894E-04-1.85688E-14
 -1       148 4.11138E-03 6.42532E-04-1.80282E-14
 -1       149 3.92017E-03 4.66406E-04-1.77310E-14
 -1       150 3.82631E-03 2.86912E-04-1.76585E-14
 -1       151 3.83419E-03 1.07389E-04-1.78161E-14
 -1       152 3.94888E-03-6.69418E-05-1.82184E-14
 -1       153 4.15014E-03-2.17123E-04-1.88099E-14
 -1       154 4.74125E-03-4.38010E-04-2.04215E-14
 -1       155 5.10983E-03-5.08104E-04-2.14000E-14
 -1       156 5.51607E-03-5.48266E-04-2.24741E-14
 -1       157 5.96869E-03-5.55027E-04-2.36763E-14
 -1       158 6.41317E-03-5.25263E-04-2.48551E-14
 -1       159 6.82694E-03-4.64096E-04-2.59488E-14
 -1       160 7.20787E-03-3.75003E-04-2.69460E-14
 -1       161 7.54654E-03-2.61052E-04-2.78097E-14
 -1       162 7.82422E-03-1.30241E-04-2.84840E-14
 -1       163 8.03728E-03 1.48251E-05-2.89532E-14
 -1       164 8.17764E-03 1.69910E-04-2.91875E-14
 -1       165 2.41654E-04-1.20072E-04-3.58668E-17
 -1       166 2.26784E-04-8.84682E-05-5.42203E-17
 -1       167 2.20619E-04-6.63320E-05-6.35681E-17
 -1       168 2.17092E-04-4.89243E-05-6.81082E-17
 -1       169 2.14815E-04-3.46095E-05-6.95685E-17
 -1       170 2.13262E-04-2.19219E-05-6.95990E-17
 -1       171 2.12343E-04-1.04299E-05-6.84911E-17
 -1       172 2.12028E-04 4.61259E-07-6.68106E-17
 -1       173 2.12322E-04 1.13203E-05-6.43271E-17
 -1       174 2.13243E-04 2.27317E-05-6.08678E-17
 -1       175 2.14804E-04 3.51079E-05-5.58838E-17
 -1       176 2.17199E-04 4.96285E-05-4.86875E-17
 -1       177 2.20825E-04 6.71592E-05-3.80386E-17
 -1       178 2.27032E-04 8.96096E-05-2.18399E-17
 -1       179 2.40649E-04 1.21886E-04 3.82181E-18
 -1       180 2.97937E-04 1.79584E-04 3.25227E-17
 -1       181 4.70089E-04-2.53470E-04-9.57994E-17
 -1       182 7.70824E-04-3.64116E-04-3.27703E-16
 -1       183 1.05900E-03-4.38808E-04-6.99104E-16
 -1       184 1.34276E-03-4.89406E-04-1.20873E-15
 -1       185 1.62615E-03-5.23223E-04-1.85521E-15
 -1       186 1.91173E-03-5.45462E-04-2.63636E-15
 -1       187 2.20116E-03-5.60276E-04-3.54935E-15
 -1       188 2.49555E-03-5.71365E-04-4.59298E-15
 -1       189 2.79553E-03-5.82304E-04-5.76946E-15
 -1       190 3.10127E-03-5.96695E-04-7.07550E-15
 -1       191 3.41233E-03-6.18124E-04-8.50665E-15
 -1       192 3.72749E-03-6.49843E-04-1.00624E-14
 -1       193 4.04464E-03-6.94061E-04-1.17470E-14
 -1       194 4.36073E-03-7.50822E-04-1.35576E-14
 -1       195 4.67211E-03-8.16633E-04-1.54987E-14
 -1       196 4.97532E-03-8.83421E-04-1.75711E-14
 -1       197 5.26836E-03-9.38821E-04-1.97816E-14
 -1       198 5.55197E-03-9.68695E-04-2.21342E-14
 -1       199 5.83005E-03-9.61634E-04-2.46282E-14
 -1       200 6.10864E-03-9.13517E-04-2.72625E-14
 -1       201 6.39367E-03-8.29318E-04-3.00401E-14
 -1       202 6.68881E-03-7.20964E-04-3.29518E-14
 -1       203 6.99456E-03-6.02675E-04-3.59900E-14
 -1       204 7.30881E-03-4.86572E-04-3.91534E-14
 -1       205 7.62817E-03-3.80441E-04-4.24388E-14
 -1       206 7.94915E-03-2.87651E-04-4.58431E-14
 -1       207 8.26895E-03-2.08293E-04-4.93633E-14
 -1       208 8.58567E-03-1.40582E-04-5.30013E-14
 -1       209 8.89830E-03-8.19808E-05-5.67530E-14
 -1       210 9.20648E-03-2.99247E-05-6.06121E-14
 -1       211 9.51036E-03 1.78148E-05-6.45656E-14
 -1       212 9.81033E-03 6.29992E-05-6.86145E-14
 -1       213 1.01069E-02 1.06925E-04-7.27588E-14
 -1       214 1.04007E-02 1.50486E-04-7.69850E-14
 -1       215 1.06923E-02 1.94259E-04-8.12745E-14
 -1       216 1.09821E-02 2.38581E-04-8.56197E-14
 -1       217 1.12706E-02 2.83619E-04-9.00223E-14
 -1       218 1.15581E-02 3.29426E-04-9.44735E-14
 -1       219 1.18448E-02 3.75982E-04-9.89741E-14
 -1       220 1.21311E-02 4.23225E-04-1.03525E-13
 -1       221 1.24171E-02 4.71067E-04-1.08123E-13
 -1       222 1.27028E-02 5.19415E-04-1.12769E-13
 -1       223 1.29885E-02 5.68174E-04-1.17454E-13
 -1       224 1.32741E-02 6.17255E-04-1.22173E-13
 -1       225 1.35596E-02 6.66573E-04-1.26909E-13
 -1       226 1.38452E-02 7.16051E-04-1.31662E-13
 -1       227 1.41309E-02 7.65617E-04-1.36411E-13
 -1       228 1.44165E-02 8.15207E-04-1.41174E-13
 -1       229 6.06354E-04 3.17093E-04-2.33849E-17
 -1       230 8.98838E-04 4.10000E-04-1.87160E-16
 -1       231 1.18327E-03 4.72616E-04-4.66681E-16
 -1       232 1.46578E-03 5.14252E-04-8.66179E-16
 -1       233 1.75007E-03 5.40946E-04-1.38949E-15
 -1       234 2.03869E-03 5.57180E-04-2.03739E-15
 -1       235 2.33364E-03 5.66784E-04-2.81057E-15
 -1       236 2.63670E-03 5.73523E-04-3.70628E-15
 -1       237 2.94950E-03 5.81591E-04-4.72382E-15
 -1       238 3.27348E-03 5.96083E-04-5.86222E-15
 -1       239 3.60957E-03 6.23402E-04-7.11994E-15
 -1       240 3.95770E-03 6.71360E-04-8.49890E-15
 -1       241 4.31600E-03 7.48472E-04-1.00034E-14
 -1       242 4.67984E-03 8.61510E-04-1.16366E-14
 -1       243 5.04143E-03 1.01053E-03-1.33994E-14
 -1       244 5.39095E-03 1.18197E-03-1.52996E-14
 -1       245 5.72054E-03 1.34442E-03-1.73453E-14
 -1       246 6.03032E-03 1.45562E-03-1.95451E-14
 -1       247 6.33131E-03 1.48294E-03-2.19075E-14
 -1       248 6.64036E-03 1.42513E-03-2.44401E-14
 -1       249 6.96932E-03 1.31317E-03-2.71385E-14
 -1       250 7.31914E-03 1.18955E-03-2.99975E-14
 -1       251 7.68239E-03 1.08689E-03-3.29981E-14
 -1       252 8.04931E-03 1.02014E-03-3.61303E-14
 -1       253 8.41201E-03 9.90267E-04-3.93858E-14
 -1       254 8.76579E-03 9.91122E-04-4.27490E-14
 -1       255 9.10872E-03 1.01467E-03-4.62138E-14
 -1       256 9.44080E-03 1.05361E-03-4.97798E-14
 -1       257 9.76300E-03 1.10229E-03-5.34506E-14
 -1       258 1.00768E-02 1.15664E-03-5.72180E-14
 -1       259 1.03836E-02 1.21396E-03-6.10706E-14
 -1       260 1.06849E-02 1.27246E-03-6.50112E-14
 -1       261 1.09819E-02 1.33108E-03-6.90373E-14
 -1       262 1.12756E-02 1.38919E-03-7.31484E-14
 -1       263 1.15669E-02 1.44647E-03-7.73407E-14
 -1       264 1.18563E-02 1.50279E-03-8.16105E-14
 -1       265 1.21444E-02 1.55813E-03-8.59464E-14
 -1       266 1.24315E-02 1.61256E-03-9.03469E-14
 -1       267 1.27180E-02 1.66616E-03-9.48031E-14
 -1       268 1.30041E-02 1.71905E-03-9.93189E-14
 -1       269 1.32899E-02 1.77134E-03-1.03885E-13
 -1       270 1.35755E-02 1.82315E-03-1.08487E-13
 -1       271 1.38611E-02 1.87457E-03-1.13109E-13
 -1       272 1.41466E-02 1.92570E-03-1.17742E-13
 -1       273 1.44322E-02 1.97662E-03-1.22372E-13
 -1       274 1.47178E-02 2.02741E-03-1.27005E-13
 -1       275 1.50034E-02 2.07814E-03-1.31643E-13
 -1       276 1.52891E-02 2.12887E-03-1.36288E-13
 -1       277 1.53015E-02 2.07386E-03-1.37484E-13
 -1       278 1.52515E-02 1.98953E-03-1.37979E-13
 -1       279 1.52015E-02 1.90516E-03-1.38465E-13
 -1       280 1.51516E-02 1.82076E-03-1.38944E-13
 -1       281 1.51027E-02 1.73776E-03-1.39400E-13
 -1       282 1.50530E-02 1.65331E-03-1.39862E-13
 -1       283 1.50034E-02 1.56885E-03-1.40325E-13
 -1       284 1.49541E-02 1.48439E-03-1.40787E-13
 -1       285 1.49048E-02 1.39992E-03-1.41240E-13
 -1       286 1.48557E-02 1.31547E-03-1.41683E-13
 -1       287 1.48076E-02 1.23245E-03-1.42108E-13
 -1       288 1.47588E-02 1.14803E-03-1.42528E-13
 -1       289 1.47100E-02 1.06363E-03-1.42936E-13
 -1       290 1.46614E-02 9.79268E-04-1.43336E-13
 -1       291 1.45389E-02 8.97226E-04-1.42257E-13
 -1       292 8.26140E-03 3.92142E-04-3.03097E-14
 -1       293 8.14542E-03 4.92799E-04-2.97679E-14
 -1       294 7.91370E-03 6.25084E-04-2.88459E-14
 -1       295 7.58809E-03 7.86335E-04-2.77137E-14
 -1       296 7.18659E-03 9.64120E-04-2.64074E-14
 -1       297 6.80194E-03 1.12957E-03-2.48715E-14
 -1       298 6.40114E-03 1.23828E-03-2.33748E-14
 -1       299 6.01304E-03 1.25292E-03-2.18747E-14
 -1       300 5.61206E-03 1.16259E-03-2.05595E-14
 -1       301 5.18396E-03 9.94543E-04-1.93422E-14
 -1       302 4.76417E-03 7.74881E-04-1.82505E-14
 -1       303 4.37087E-03 5.66194E-04-1.74578E-14
 -1       304 4.04799E-03 4.17475E-04-1.70885E-14
 -1       305 3.84963E-03 2.94302E-04-1.68330E-14
 -1       306 3.78950E-03 2.00900E-04-1.69365E-14
 -1       307 3.87764E-03 1.06077E-04-1.72014E-14
 -1       308 4.09404E-03-2.09146E-05-1.78551E-14
 -1       309 4.39007E-03-1.61058E-04-1.86060E-14
 -1       310 4.72355E-03-3.10865E-04-1.95121E-14
 -1       311 5.06889E-03-4.52877E-04-2.05575E-14
 -1       312 5.41843E-03-5.65938E-04-2.17384E-14
 -1       313 5.77768E-03-6.29615E-04-2.30605E-14
 -1       314 6.13910E-03-6.12898E-04-2.44623E-14
 -1       315 6.49717E-03-5.28392E-04-2.58149E-14
 -1       316 6.85729E-03-3.91854E-04-2.70701E-14
 -1       317 7.21235E-03-2.23476E-04-2.82517E-14
 -1       318 7.56549E-03-6.26177E-05-2.91335E-14
 -1       319 7.86829E-03 8.37330E-05-2.98365E-14
 -1       320 8.10184E-03 2.03673E-04-3.02738E-14
 -1       321 8.24098E-03 3.04275E-04-3.05010E-14
 -1       322 4.58256E-04-1.51929E-04-2.14787E-16
 -1       323 4.77690E-04-2.00603E-04-1.86008E-16
 -1       324 4.39913E-04-8.27075E-05-2.37881E-16
 -1       325 4.35083E-04-5.58325E-05-2.39853E-16
 -1       326 4.31975E-04-3.18969E-05-2.38545E-16
 -1       327 4.30415E-04-9.67539E-06-2.34598E-16
 -1       328 4.30378E-04 1.19391E-05-2.28299E-16
 -1       329 4.31903E-04 3.40457E-05-2.19290E-16
 -1       330 4.35000E-04 5.73883E-05-2.07018E-16
 -1       331 4.39988E-04 8.40802E-05-1.90061E-16
 -1       332 4.47416E-04 1.15423E-04-1.66889E-16
 -1       333 4.58904E-04 1.53901E-04-1.34465E-16
 -1       334 4.79464E-04 2.04021E-04-8.81897E-17
 -1       335 5.35299E-04 2.56481E-04-6.29786E-17
 -1       336 8.31041E-04 3.51178E-04-2.38548E-16
 -1       337 8.70665E-04-3.34373E-04-5.70680E-16
 -1       338 1.16142E-03-3.94615E-04-1.02430E-15
 -1       339 1.45016E-03-4.35267E-04-1.61133E-15
 -1       340 1.73879E-03-4.61850E-04-2.33090E-15
 -1       341 2.02884E-03-4.78802E-04-3.18101E-15
 -1       342 2.32152E-03-4.89969E-04-4.16005E-15
 -1       343 2.61778E-03-4.98959E-04-5.26725E-15
 -1       344 2.91826E-03-5.09377E-04-6.50302E-15
 -1       345 3.22339E-03-5.24907E-04-7.86545E-15
 -1       346 3.53318E-03-5.49201E-04-9.35049E-15
 -1       347 3.84718E-03-5.85433E-04-1.09602E-14
 -1       348 4.16417E-03-6.35428E-04-1.26969E-14
 -1       349 4.48196E-03-6.98290E-04-1.45612E-14
 -1       350 4.79749E-03-7.68790E-04-1.65554E-14
 -1       351 5.10747E-03-8.36312E-04-1.86822E-14
 -1       352 5.40991E-03-8.85726E-04-2.09503E-14
 -1       353 5.70576E-03-9.01474E-04-2.33601E-14
 -1       354 5.99924E-03-8.73602E-04-2.59111E-14
 -1       355 6.29591E-03-8.02697E-04-2.86100E-14
 -1       356 6.59972E-03-6.99448E-04-3.14484E-14
 -1       357 6.91135E-03-5.79758E-04-3.44167E-14
 -1       358 7.22863E-03-4.58490E-04-3.75140E-14
 -1       359 7.54831E-03-3.45859E-04-4.07321E-14
 -1       360 7.86748E-03-2.46826E-04-4.40691E-14
 -1       361 8.18411E-03-1.62290E-04-4.75215E-14
 -1       362 8.49714E-03-9.07251E-05-5.10881E-14
 -1       363 8.80616E-03-2.95458E-05-5.47727E-14
 -1       364 9.11123E-03 2.40141E-05-5.85652E-14
 -1       365 9.41264E-03 7.24314E-05-6.24613E-14
 -1       366 9.71082E-03 1.17707E-04-6.64499E-14
 -1       367 1.00062E-02 1.61341E-04-7.05368E-14
 -1       368 1.02993E-02 2.04389E-04-7.47077E-14
 -1       369 1.05906E-02 2.47543E-04-7.89517E-14
 -1       370 1.08803E-02 2.91221E-04-8.32533E-14
 -1       371 1.11688E-02 3.35642E-04-8.76138E-14
 -1       372 1.14565E-02 3.80890E-04-9.20341E-14
 -1       373 1.17435E-02 4.26959E-04-9.64992E-14
 -1       374 1.20301E-02 4.73791E-04-1.01015E-13
 -1       375 1.23163E-02 5.21297E-04-1.05577E-13
 -1       376 1.26023E-02 5.69378E-04-1.10185E-13
 -1       377 1.28881E-02 6.17932E-04-1.14837E-13
 -1       378 1.31738E-02 6.66863E-04-1.19523E-13
 -1       379 1.34595E-02 7.16079E-04-1.24231E-13
 -1       380 1.37452E-02 7.65497E-04-1.28962E-13
 -1       381 1.40308E-02 8.15042E-04-1.33704E-13
 -1       382 1.42849E-02 8.56134E-04-1.37973E-13
 -1       383 1.12137E-03 4.16135E-04-5.26363E-16
 -1       384 1.40902E-03 4.59394E-04-9.32116E-16
 -1       385 1.69683E-03 4.86932E-04-1.45939E-15
 -1       386 1.98704E-03 5.03299E-04-2.11008E-15
 -1       387 2.28142E-03 5.12355E-04-2.88461E-15
 -1       388 2.58153E-03 5.17828E-04-3.78141E-15
 -1       389 2.88875E-03 5.23801E-04-4.79928E-15
 -1       390 3.20438E-03 5.35197E-04-5.93767E-15
 -1       391 3.52954E-03 5.58214E-04-7.19408E-15
 -1       392 3.86505E-03 6.00553E-04-8.57061E-15
 -1       393 4.21100E-03 6.70990E-04-1.00707E-14
 -1       394 4.56609E-03 7.77471E-04-1.16969E-14
 -1       395 4.92647E-03 9.22606E-04-1.34531E-14
 -1       396 5.28498E-03 1.09649E-03-1.53427E-14
 -1       397 5.63288E-03 1.26953E-03-1.73764E-14
 -1       398 5.96596E-03 1.39604E-03-1.95637E-14
 -1       399 6.29037E-03 1.43492E-03-2.19149E-14
 -1       400 6.62003E-03 1.37967E-03-2.44366E-14
 -1       401 6.96432E-03 1.26335E-03-2.71270E-14
 -1       402 7.32177E-03 1.13371E-03-2.99743E-14
 -1       403 7.68422E-03 1.02650E-03-3.29651E-14
 -1       404 8.04376E-03 9.57176E-04-3.60839E-14
 -1       405 8.39566E-03 9.26194E-04-3.93276E-14
 -1       406 8.73805E-03 9.26837E-04-4.26824E-14
 -1       407 9.07079E-03 9.50690E-04-4.61386E-14
 -1       408 9.39460E-03 9.90227E-04-4.96957E-14
 -1       409 9.71054E-03 1.03963E-03-5.33565E-14
 -1       410 1.00198E-02 1.09474E-03-5.71164E-14
 -1       411 1.03236E-02 1.15279E-03-6.09641E-14
 -1       412 1.06229E-02 1.21196E-03-6.48986E-14
 -1       413 1.09187E-02 1.27116E-03-6.89200E-14
 -1       414 1.12117E-02 1.32977E-03-7.30235E-14
 -1       415 1.15026E-02 1.38746E-03-7.72071E-14
 -1       416 1.17920E-02 1.44411E-03-8.14674E-14
 -1       417 1.20801E-02 1.49972E-03-8.57900E-14
 -1       418 1.23674E-02 1.55436E-03-9.01736E-14
 -1       419 1.26540E-02 1.60812E-03-9.46175E-14
 -1       420 1.29403E-02 1.66113E-03-9.91230E-14
 -1       421 1.32262E-02 1.71351E-03-1.03679E-13
 -1       422 1.35120E-02 1.76538E-03-1.08275E-13
 -1       423 1.37977E-02 1.81684E-03-1.12890E-13
 -1       424 1.40834E-02 1.86800E-03-1.17520E-13
 -1       425 1.43690E-02 1.91893E-03-1.22150E-13
 -1       426 1.46547E-02 1.96972E-03-1.26785E-13
 -1       427 1.49403E-02 2.02044E-03-1.31423E-13
 -1       428 1.51209E-02 2.04714E-03-1.34452E-13
 -1       429 1.49291E-02 1.81912E-03-1.34673E-13
 -1       430 1.49791E-02 1.90346E-03-1.34197E-13
 -1       431 1.50500E-02 1.97531E-03-1.34330E-13
 -1       432 1.48801E-02 1.73620E-03-1.35127E-13
 -1       433 1.48303E-02 1.65184E-03-1.35578E-13
 -1       434 1.47807E-02 1.56749E-03-1.36028E-13
 -1       435 1.47313E-02 1.48313E-03-1.36478E-13
 -1       436 1.46819E-02 1.39878E-03-1.36927E-13
 -1       437 1.46328E-02 1.31442E-03-1.37368E-13
 -1       438 1.45846E-02 1.23150E-03-1.37790E-13
 -1       439 1.45357E-02 1.14715E-03-1.38205E-13
 -1       440 1.44869E-02 1.06280E-03-1.38609E-13
 -1       441 1.44382E-02 9.78467E-04-1.39008E-13
 -1       442 8.02198E-03 5.05780E-04-3.05246E-14
 -1       443 8.28880E-03 3.62726E-04-3.20559E-14
 -1       444 8.22999E-03 4.16616E-04-3.12828E-14
 -1       445 7.75773E-03 6.28197E-04-2.93466E-14
 -1       446 7.35644E-03 8.19907E-04-2.79818E-14
 -1       447 4.46976E-04-1.13923E-04-2.30451E-16
 -1       448 6.58233E-03 1.20523E-03-2.44010E-14
 -1       449 6.20850E-03 1.29275E-03-2.25352E-14
 -1       450 5.83612E-03 1.24094E-03-2.07354E-14
 -1       451 5.47550E-03 1.08498E-03-1.94163E-14
 -1       452 5.07011E-03 8.63980E-04-1.82446E-14
 -1       453 4.63450E-03 6.07436E-04-1.70312E-14
 -1       454 4.20755E-03 4.08515E-04-1.64236E-14
 -1       455 3.94204E-03 2.93589E-04-1.60101E-14
 -1       456 3.78350E-03 2.21590E-04-1.60264E-14
 -1       457 3.79197E-03 1.70467E-04-1.60163E-14
 -1       458 3.99009E-03 8.42310E-05-1.68231E-14
 -1       459 4.26731E-03-2.81395E-05-1.74735E-14
 -1       460 4.60872E-03-1.86948E-04-1.84480E-14
 -1       461 4.96018E-03-3.59683E-04-1.95557E-14
 -1       462 5.29784E-03-5.18159E-04-2.08479E-14
 -1       463 5.61586E-03-6.27869E-04-2.22314E-14
 -1       464 5.95652E-03-6.66980E-04-2.39447E-14
 -1       465 6.22016E-03-6.16372E-04-2.52810E-14
 -1       466 6.60412E-03-4.61392E-04-2.69942E-14
 -1       467 6.94134E-03-2.82142E-04-2.84276E-14
 -1       468 7.33546E-03-7.29904E-05-2.97640E-14
 -1       469 7.67718E-03 8.66543E-05-3.06137E-14
 -1       470 7.97616E-03 2.28685E-04-3.17058E-14
 -1       471 8.16576E-03 2.97987E-04-3.19444E-14
 -1       472 6.91539E-03 1.05505E-03-2.59811E-14
 -1       473 9.39591E-04 3.18506E-04-4.70324E-16
 -1       474 6.59569E-04-6.38307E-05-5.07600E-16
 -1       475 6.66511E-04-1.00608E-04-5.07102E-16
 -1       476 6.53964E-04 1.79752E-06-4.92692E-16
 -1       477 6.55238E-04 3.36858E-05-4.77649E-16
 -1       478 6.59244E-04 6.64179E-05-4.57469E-16
 -1       479 6.66313E-04 1.02758E-04-4.30255E-16
 -1       480 6.76891E-04 1.44040E-04-3.94148E-16
 -1       481 6.92243E-04 1.92502E-04-3.46423E-16
 -1       482 1.22962E-03 3.69304E-04-8.45810E-16
 -1       483 9.84030E-04-3.01016E-04-8.37682E-16
 -1       484 6.74472E-03 1.14628E-03-2.55144E-14
 -1       485 1.27332E-03-3.47268E-04-1.36759E-15
 -1       486 1.56273E-03-3.78390E-04-2.02725E-15
 -1       487 1.85263E-03-3.98242E-04-2.81646E-15
 -1       488 2.14372E-03-4.10470E-04-3.73250E-15
 -1       489 2.43683E-03-4.18515E-04-4.77439E-15
 -1       490 2.73284E-03-4.25781E-04-5.94192E-15
 -1       491 3.03266E-03-4.35791E-04-7.23362E-15
 -1       492 3.33728E-03-4.52231E-04-8.65087E-15
 -1       493 3.64756E-03-4.78824E-04-1.01889E-14
 -1       494 3.96401E-03-5.18856E-04-1.18502E-14
 -1       495 4.28614E-03-5.74171E-04-1.36380E-14
 -1       496 4.61185E-03-6.43412E-04-1.55532E-14
 -1       497 4.93708E-03-7.19718E-04-1.75998E-14
 -1       498 5.25690E-03-7.88959E-04-1.97809E-14
 -1       499 5.56863E-03-8.31577E-04-2.21062E-14
 -1       500 5.87435E-03-8.29356E-04-2.45733E-14
 -1       501 6.18051E-03-7.75372E-04-2.71907E-14
 -1       502 6.49323E-03-6.77899E-04-2.99535E-14
 -1       503 6.81426E-03-5.55815E-04-3.28531E-14
 -1       504 7.14036E-03-4.28484E-04-3.58830E-14
 -1       505 7.46670E-03-3.09331E-04-3.90362E-14
 -1       506 7.78944E-03-2.04765E-04-4.23079E-14
 -1       507 8.10667E-03-1.16008E-04-4.56940E-14
 -1       508 8.41804E-03-4.14134E-05-4.91929E-14
 -1       509 8.72409E-03 2.18198E-05-5.28071E-14
 -1       510 9.02568E-03 7.66595E-05-5.65349E-14
 -1       511 9.32366E-03 1.25757E-04-6.03694E-14
 -1       512 9.61879E-03 1.71263E-04-6.42997E-14
 -1       513 9.91168E-03 2.14808E-04-6.83270E-14
 -1       514 1.02028E-02 2.57558E-04-7.24445E-14
 -1       515 1.04926E-02 3.00291E-04-7.66397E-14
 -1       516 1.07813E-02 3.43494E-04-8.09024E-14
 -1       517 1.10692E-02 3.87432E-04-8.52220E-14
 -1       518 1.13564E-02 4.32220E-04-8.96006E-14
 -1       519 1.16432E-02 4.77873E-04-9.40343E-14
 -1       520 1.19297E-02 5.24340E-04-9.85139E-14
 -1       521 1.22159E-02 5.71539E-04-1.03040E-13
 -1       522 1.25019E-02 6.19368E-04-1.07619E-13
 -1       523 1.27878E-02 6.67722E-04-1.12236E-13
 -1       524 1.30736E-02 7.16500E-04-1.16890E-13
 -1       525 1.33593E-02 7.65607E-04-1.21569E-13
 -1       526 1.36451E-02 8.14956E-04-1.26273E-13
 -1       527 1.39308E-02 8.64469E-04-1.30994E-13
 -1       528 1.80916E-03 4.23249E-04-1.95209E-15
 -1       529 2.10053E-03 4.34494E-04-2.68766E-15
 -1       530 2.39434E-03 4.40076E-04-3.54436E-15
 -1       531 2.69159E-03 4.43654E-04-4.52177E-15
 -1       532 2.99337E-03 4.49402E-04-5.62026E-15
 -1       533 3.30100E-03 4.62439E-04-6.83652E-15
 -1       534 3.61632E-03 4.89235E-04-8.17009E-15
 -1       535 3.94185E-03 5.37835E-04-9.62335E-15
 -1       536 4.28074E-03 6.17537E-04-1.11984E-14
 -1       537 4.63549E-03 7.37033E-04-1.28993E-14
 -1       538 5.00506E-03 8.99078E-04-1.47284E-14
 -1       539 5.38025E-03 1.09030E-03-1.66943E-14
 -1       540 5.74874E-03 1.26657E-03-1.88084E-14
 -1       541 6.10264E-03 1.36639E-03-2.10847E-14
 -1       542 6.45493E-03 1.34883E-03-2.35337E-14
 -1       543 6.81881E-03 1.23624E-03-2.61543E-14
 -1       544 7.19418E-03 1.09158E-03-2.89387E-14
 -1       545 7.56768E-03 9.66453E-04-3.18711E-14
 -1       546 7.92856E-03 8.82482E-04-3.49341E-14
 -1       547 8.27371E-03 8.40680E-04-3.81206E-14
 -1       548 8.60495E-03 8.33545E-04-4.14245E-14
 -1       549 8.92547E-03 8.51996E-04-4.48357E-14
 -1       550 9.23806E-03 8.88020E-04-4.83480E-14
 -1       551 9.54471E-03 9.35375E-04-5.19610E-14
 -1       552 9.84682E-03 9.89528E-04-5.56769E-14
 -1       553 1.01453E-02 1.04735E-03-5.94856E-14
 -1       554 1.04409E-02 1.10679E-03-6.33805E-14
 -1       555 1.07342E-02 1.16653E-03-6.73644E-14
 -1       556 1.10257E-02 1.22580E-03-7.14320E-14
 -1       557 1.13156E-02 1.28420E-03-7.55774E-14
 -1       558 1.16044E-02 1.34153E-03-7.98014E-14
 -1       559 1.18923E-02 1.39775E-03-8.40892E-14
 -1       560 1.21796E-02 1.45293E-03-8.84379E-14
 -1       561 1.24663E-02 1.50715E-03-9.28449E-14
 -1       562 1.27527E-02 1.56055E-03-9.73131E-14
 -1       563 1.30388E-02 1.61324E-03-1.01842E-13
 -1       564 1.33247E-02 1.66535E-03-1.06409E-13
 -1       565 1.36105E-02 1.71699E-03-1.11008E-13
 -1       566 1.38963E-02 1.76828E-03-1.15630E-13
 -1       567 1.41820E-02 1.81930E-03-1.20262E-13
 -1       568 1.44677E-02 1.87013E-03-1.24898E-13
 -1       569 1.47534E-02 1.92086E-03-1.29539E-13
 -1       570 1.46077E-02 1.65029E-03-1.31309E-13
 -1       571 1.45581E-02 1.56602E-03-1.31750E-13
 -1       572 1.47066E-02 1.81743E-03-1.30407E-13
 -1       573 1.46571E-02 1.73386E-03-1.30866E-13
 -1       574 1.45085E-02 1.48177E-03-1.32193E-13
 -1       575 1.44591E-02 1.39752E-03-1.32633E-13
 -1       576 1.44099E-02 1.31328E-03-1.33066E-13
 -1       577 1.43616E-02 1.23045E-03-1.33484E-13
 -1       578 1.43127E-02 1.14619E-03-1.33895E-13
 -1       579 1.42638E-02 1.06191E-03-1.34297E-13
 -1       580 1.42151E-02 9.77621E-04-1.34695E-13
 -1       581 8.30493E-03 3.97051E-04-3.32978E-14
 -1       582 8.17690E-03 4.45193E-04-3.25151E-14
 -1       583 8.27732E-03 3.53228E-04-3.36698E-14
 -1       584 1.51922E-03 4.02790E-04-1.33874E-15
 -1       585 7.88788E-03 5.54960E-04-3.10521E-14
 -1       586 7.12104E-03 9.46980E-04-2.76087E-14
 -1       587 7.79188E-03 1.78913E-04-3.23566E-14
 -1       588 5.75062E-03-6.73424E-04-2.28630E-14
 -1       589 6.55421E-04-3.02080E-05-5.02473E-16
 -1       590 6.04500E-03 1.30716E-03-2.14148E-14
 -1       591 6.72253E-03-3.75982E-04-2.84836E-14
 -1       592 6.41407E-03 1.28003E-03-2.36096E-14
 -1       593 5.65089E-03 1.16922E-03-1.94060E-14
 -1       594 5.29006E-03 9.63251E-04-1.80656E-14
 -1       595 4.91367E-03 7.35525E-04-1.68976E-14
 -1       596 4.38544E-03 4.53972E-04-1.57071E-14
 -1       597 4.06231E-03 3.18648E-04-1.53993E-14
 -1       598 3.80377E-03 2.24960E-04-1.49595E-14
 -1       599 3.73311E-03 1.88117E-04-1.49503E-14
 -1       600 3.86153E-03 1.27437E-04-1.54172E-14
 -1       601 4.06242E-03 5.88058E-05-1.60260E-14
 -1       602 4.43719E-03-9.34380E-05-1.72442E-14
 -1       603 4.78553E-03-2.64525E-04-1.83163E-14
 -1       604 5.14868E-03-4.51526E-04-1.97478E-14
 -1       605 5.45924E-03-5.91075E-04-2.12526E-14
 -1       606 6.09643E-03-6.60788E-04-2.51014E-14
 -1       607 6.39171E-03-5.50957E-04-2.68100E-14
 -1       608 7.11598E-03-1.51541E-04-3.02481E-14
 -1       609 7.50123E-03 4.80767E-05-3.14723E-14
 -1       610 8.10981E-03 2.98690E-04-3.33824E-14
 -1       611 7.17585E-04-2.31789E-04-4.75331E-16
 -1       612 7.09638E-04 2.70793E-04-2.40374E-16
 -1       613 7.55415E-03 7.11462E-04-2.96392E-14
 -1       614 6.76689E-04-1.42051E-04-4.99424E-16
 -1       615 8.36152E-03 3.87138E-04-3.49313E-14
 -1       616 3.72330E-03 1.51198E-04-1.43676E-14
 -1       617 4.62465E-03 5.77485E-04-1.55642E-14
 -1       618 1.41230E-02 8.96325E-04-1.34202E-13
 -1       619 8.86725E-04 6.39189E-05-8.07500E-16
 -1       620 8.82822E-04 2.25514E-05-8.35347E-16
 -1       621 9.07608E-04 1.55710E-04-7.22689E-16
 -1       622 9.25600E-04 2.10438E-04-6.60811E-16
 -1       623 1.05532E-03 2.82287E-04-7.39121E-16
 -1       624 5.29648E-03-5.54117E-04-2.01730E-14
 -1       625 1.34305E-03 3.20341E-04-1.19918E-15
 -1       626 7.67492E-03 1.30230E-04-3.33307E-14
 -1       627 1.38943E-03-2.97452E-04-1.72974E-15
 -1       628 1.67740E-03-3.19842E-04-2.45757E-15
 -1       629 1.96614E-03-3.33502E-04-3.31162E-15
 -1       630 2.25592E-03-3.41375E-04-4.29033E-15
 -1       631 2.54741E-03-3.46425E-04-5.39140E-15
 -1       632 2.84160E-03-3.51737E-04-6.61605E-15
 -1       633 3.13991E-03-3.60642E-04-7.96323E-15
 -1       634 3.44413E-03-3.76822E-04-9.43162E-15
 -1       635 3.75626E-03-4.04291E-04-1.10213E-14
 -1       636 4.07794E-03-4.47052E-04-1.27328E-14
 -1       637 4.40930E-03-5.07947E-04-1.45696E-14
 -1       638 4.74754E-03-5.85999E-04-1.65349E-14
 -1       639 5.08638E-03-6.72689E-04-1.86314E-14
 -1       640 5.41701E-03-7.46157E-04-2.08666E-14
 -1       641 5.73808E-03-7.79611E-04-2.32499E-14
 -1       642 6.05451E-03-7.50529E-04-2.57827E-14
 -1       643 6.37549E-03-6.61227E-04-2.84681E-14
 -1       644 6.70805E-03-5.33397E-04-3.12964E-14
 -1       645 7.04696E-03-3.96004E-04-3.42569E-14
 -1       646 7.38478E-03-2.68247E-04-3.73463E-14
 -1       647 7.71534E-03-1.58244E-04-4.05536E-14
 -1       648 8.03614E-03-6.66138E-05-4.38776E-14
 -1       649 8.34753E-03 9.35785E-06-4.73118E-14
 -1       650 8.65119E-03 7.32458E-05-5.08581E-14
 -1       651 8.94909E-03 1.28416E-04-5.45199E-14
 -1       652 9.24293E-03 1.77678E-04-5.82902E-14
 -1       653 9.53402E-03 2.23234E-04-6.21642E-14
 -1       654 9.82329E-03 2.66731E-04-6.61325E-14
 -1       655 1.01114E-02 3.09346E-04-7.01962E-14
 -1       656 1.03987E-02 3.51877E-04-7.43412E-14
 -1       657 1.06855E-02 3.94831E-04-7.85593E-14
 -1       658 1.09719E-02 4.38498E-04-8.28393E-14
 -1       659 1.12582E-02 4.83010E-04-8.71804E-14
 -1       660 1.15442E-02 5.28397E-04-9.15763E-14
 -1       661 1.18302E-02 5.74619E-04-9.60214E-14
 -1       662 1.21161E-02 6.21600E-04-1.00513E-13
 -1       663 1.24019E-02 6.69242E-04-1.05058E-13
 -1       664 1.26877E-02 7.17441E-04-1.09647E-13
 -1       665 1.29735E-02 7.66096E-04-1.14271E-13
 -1       666 1.32593E-02 8.15111E-04-1.18923E-13
 -1       667 1.35450E-02 8.64398E-04-1.23595E-13
 -1       668 1.38307E-02 9.13881E-04-1.28293E-13
 -1       669 2.20783E-03 3.66567E-04-3.29162E-15
 -1       670 7.33398E-03-3.65608E-05-3.20632E-14
 -1       671 1.91933E-03 3.59329E-04-2.47355E-15
 -1       672 2.78718E-03 3.72625E-04-5.28650E-15
 -1       673 3.07950E-03 3.78814E-04-6.46316E-15
 -1       674 3.37560E-03 3.93263E-04-7.75584E-15
 -1       675 3.67855E-03 4.22139E-04-9.16631E-15
 -1       676 3.99345E-03 4.73524E-04-1.06948E-14
 -1       677 4.32712E-03 5.58211E-04-1.23427E-14
 -1       678 4.68856E-03 6.88189E-04-1.41128E-14
 -1       679 5.07674E-03 8.71790E-04-1.60114E-14
 -1       680 6.65589E-03 1.23861E-03-2.51023E-14
 -1       681 7.06285E-03 1.05955E-03-2.78666E-14
 -1       682 7.45694E-03 9.09814E-04-3.07414E-14
 -1       683 7.82713E-03 8.10899E-04-3.37502E-14
 -1       684 8.17048E-03 7.61385E-04-3.68832E-14
 -1       685 8.49265E-03 7.49512E-04-4.01347E-14
 -1       686 8.80097E-03 7.64281E-04-4.34973E-14
 -1       687 9.10108E-03 7.97248E-04-4.69632E-14
 -1       688 9.39651E-03 8.42194E-04-5.05331E-14
 -1       689 9.68925E-03 8.94633E-04-5.42029E-14
 -1       690 9.98035E-03 9.51391E-04-5.79696E-14
 -1       691 1.02703E-02 1.01029E-03-6.18270E-14
 -1       692 1.05594E-02 1.06989E-03-6.57714E-14
 -1       693 1.08479E-02 1.12929E-03-6.98015E-14
 -1       694 1.11357E-02 1.18797E-03-7.39111E-14
 -1       695 1.14231E-02 1.24566E-03-7.80978E-14
 -1       696 1.17101E-02 1.30228E-03-8.23528E-14
 -1       697 1.19967E-02 1.35784E-03-8.66674E-14
 -1       698 1.22831E-02 1.41241E-03-9.10429E-14
 -1       699 1.25693E-02 1.46611E-03-9.54783E-14
 -1       700 1.28553E-02 1.51906E-03-9.99716E-14
 -1       701 1.31412E-02 1.57139E-03-1.04515E-13
 -1       702 1.34271E-02 1.62320E-03-1.09094E-13
 -1       703 1.37129E-02 1.67461E-03-1.13697E-13
 -1       704 1.39986E-02 1.72572E-03-1.18326E-13
 -1       705 1.42844E-02 1.77661E-03-1.22963E-13
 -1       706 1.44955E-02 1.79706E-03-1.26684E-13
 -1       707 1.42364E-02 1.39615E-03-1.28363E-13
 -1       708 1.40229E-02 9.45733E-04-1.31490E-13
 -1       709 1.43354E-02 1.56444E-03-1.27493E-13
 -1       710 1.41871E-02 1.31202E-03-1.28790E-13
 -1       711 1.42858E-02 1.48029E-03-1.27930E-13
 -1       712 6.58104E-03-4.64724E-04-2.85421E-14
 -1       713 1.41387E-02 1.22932E-03-1.29202E-13
 -1       714 1.40897E-02 1.14516E-03-1.29611E-13
 -1       715 1.40408E-02 1.06098E-03-1.30008E-13
 -1       716 8.30503E-03 4.29731E-04-3.44717E-14
 -1       717 8.25424E-03 3.44135E-04-3.52845E-14
 -1       718 6.93975E-03 1.08553E-03-2.69383E-14
 -1       719 3.88251E-03 2.53369E-04-1.41740E-14
 -1       720 4.21085E-03-3.70345E-05-1.56994E-14
 -1       721 1.63112E-03 3.44972E-04-1.77638E-15
 -1       722 2.49693E-03 3.69860E-04-4.22884E-15
 -1       723 1.10253E-03-2.63523E-04-1.12828E-15
 -1       724 8.94896E-04 1.07614E-04-7.70563E-16
 -1       725 7.42062E-03 8.31138E-04-2.99000E-14
 -1       726 8.09148E-03 5.07247E-04-3.33289E-14
 -1       727 8.95599E-04-1.04172E-04-8.71275E-16
 -1       728 6.92693E-03-2.67151E-04-3.04348E-14
 -1       729 4.50471E-03-1.65761E-04-1.67061E-14
 -1       730 5.86773E-03-7.00716E-04-2.37445E-14
 -1       731 4.12886E-03 3.45839E-04-1.44635E-14
 -1       732 3.69539E-03 1.90798E-04-1.38235E-14
 -1       733 3.90405E-03 8.12388E-05-1.47956E-14
 -1       734 7.97832E-03 2.53813E-04-3.43007E-14
 -1       735 4.92692E-03-3.79713E-04-1.83346E-14
 -1       736 6.27419E-03-6.13102E-04-2.66039E-14
 -1       737 7.80350E-03 6.31030E-04-3.18954E-14
 -1       738 5.56396E-03-6.54261E-04-2.17257E-14
 -1       739 9.07961E-04-1.53056E-04-8.66095E-16
 -1       740 8.83083E-04-1.81436E-05-8.55049E-16
 -1       741 1.43848E-02 1.64792E-03-1.27055E-13
 -1       742 1.44401E-02 1.72248E-03-1.26876E-13
 -1       743 8.41182E-03 4.16978E-04-3.61292E-14
 -1       744 9.40996E-04-2.20977E-04-8.64163E-16
 -1       745 6.26009E-03 1.33436E-03-2.24925E-14
 -1       746 8.38840E-03 3.81356E-04-3.65713E-14
 -1       747 3.72573E-03 1.12173E-04-1.37686E-14
 -1       748 8.87363E-04-5.97573E-05-8.67148E-16
 -1       749 4.33096E-03 4.47174E-04-1.43191E-14
 -1       750 1.39357E-02 9.87422E-04-1.29152E-13
 -1       751 6.04712E-03-6.93347E-04-2.51896E-14
 -1       752 3.62293E-03 1.56706E-04-1.32636E-14
 -1       753 5.07069E-03-5.15158E-04-1.87408E-14
 -1       754 1.15825E-03 2.12262E-04-1.07842E-15
 -1       755 1.22309E-03-2.22133E-04-1.44133E-15
 -1       756 1.79251E-03-2.60165E-04-2.90075E-15
 -1       757 2.07849E-03-2.68227E-04-3.81616E-15
 -1       758 2.36521E-03-2.71975E-04-4.85357E-15
 -1       759 2.65332E-03-2.73830E-04-6.01206E-15
 -1       760 2.94411E-03-2.76442E-04-7.29095E-15
 -1       761 3.23958E-03-2.82875E-04-8.69019E-15
 -1       762 3.54257E-03-2.96891E-04-1.02089E-14
 -1       763 3.85653E-03-3.23251E-04-1.18477E-14
 -1       764 4.18478E-03-3.67776E-04-1.36070E-14
 -1       765 4.52833E-03-4.36128E-04-1.54898E-14
 -1       766 4.88301E-03-5.28415E-04-1.75027E-14
 -1       767 5.91712E-03-7.29678E-04-2.43895E-14
 -1       768 6.59820E-03-5.18627E-04-2.97461E-14
 -1       769 6.95424E-03-3.63015E-04-3.26402E-14
 -1       770 7.30791E-03-2.21471E-04-3.56643E-14
 -1       771 7.64941E-03-1.04769E-04-3.88093E-14
 -1       772 7.97530E-03-1.15865E-05-4.20719E-14
 -1       773 8.28701E-03 6.35438E-05-4.54462E-14
 -1       774 8.58788E-03 1.25982E-04-4.89299E-14
 -1       775 8.88131E-03 1.79897E-04-5.25254E-14
 -1       776 9.17005E-03 2.28316E-04-5.62283E-14
 -1       777 9.45608E-03 2.73401E-04-6.00421E-14
 -1       778 9.74071E-03 3.16681E-04-6.39539E-14
 -1       779 1.00248E-02 3.59222E-04-6.79620E-14
 -1       780 1.03087E-02 4.01741E-04-7.20556E-14
 -1       781 1.05928E-02 4.44696E-04-7.62272E-14
 -1       782 1.08772E-02 4.88353E-04-8.04677E-14
 -1       783 1.11618E-02 5.32836E-04-8.47717E-14
 -1       784 1.14467E-02 5.78175E-04-8.91280E-14
 -1       785 1.17318E-02 6.24337E-04-9.35357E-14
 -1       786 1.20171E-02 6.71249E-04-9.79957E-14
 -1       787 1.23025E-02 7.18821E-04-1.02503E-13
 -1       788 1.25881E-02 7.66954E-04-1.07064E-13
 -1       789 1.28737E-02 8.15551E-04-1.11660E-13
 -1       790 1.31594E-02 8.64519E-04-1.16287E-13
 -1       791 1.34451E-02 9.13775E-04-1.20935E-13
 -1       792 1.36904E-02 9.50546E-04-1.25032E-13
 -1       793 2.02654E-03 2.96844E-04-3.02453E-15
 -1       794 3.14967E-03 3.12922E-04-7.32861E-15
 -1       795 2.87042E-03 3.06239E-04-6.07574E-15
 -1       796 3.71584E-03 3.55286E-04-1.01831E-14
 -1       797 4.01449E-03 4.04059E-04-1.17839E-14
 -1       798 4.26880E-03-1.35528E-04-1.51994E-14
 -1       799 8.41147E-03 6.57793E-04-3.88787E-14
 -1       800 8.70159E-03 6.73392E-04-4.21932E-14
 -1       801 8.98421E-03 7.05638E-04-4.56132E-14
 -1       802 9.26416E-03 7.48905E-04-4.91386E-14
 -1       803 9.54391E-03 7.99401E-04-5.27623E-14
 -1       804 9.82448E-03 8.54397E-04-5.64869E-14
 -1       805 1.01062E-02 9.11907E-04-6.03037E-14
 -1       806 1.03889E-02 9.70526E-04-6.42114E-14
 -1       807 1.06725E-02 1.02930E-03-6.82037E-14
 -1       808 1.09568E-02 1.08764E-03-7.22782E-14
 -1       809 1.12416E-02 1.14520E-03-7.64316E-14
 -1       810 1.15267E-02 1.20182E-03-8.06579E-14
 -1       811 1.18120E-02 1.25745E-03-8.49421E-14
 -1       812 1.20975E-02 1.31215E-03-8.92845E-14
 -1       813 1.23832E-02 1.36599E-03-9.36892E-14
 -1       814 1.26688E-02 1.41907E-03-9.81478E-14
 -1       815 1.29545E-02 1.47153E-03-1.02660E-13
 -1       816 1.32403E-02 1.52345E-03-1.07214E-13
 -1       817 1.35260E-02 1.57495E-03-1.11801E-13
 -1       818 1.38117E-02 1.62612E-03-1.16416E-13
 -1       819 1.40975E-02 1.67705E-03-1.21048E-13
 -1       820 1.42688E-02 1.69979E-03-1.23960E-13
 -1       821 6.45378E-03-5.58719E-04-2.83216E-14
 -1       822 1.11678E-03 5.12723E-05-1.25595E-15
 -1       823 7.74228E-03 7.39405E-04-3.24828E-14
 -1       824 1.39643E-02 1.31065E-03-1.24540E-13
 -1       825 1.38178E-02 1.06001E-03-1.25749E-13
 -1       826 1.39159E-02 1.22809E-03-1.24947E-13
 -1       827 8.29334E-03 4.79744E-04-3.55312E-14
 -1       828 7.89299E-03 2.00492E-04-3.55630E-14
 -1       829 4.62157E-03-2.99381E-04-1.65909E-14
 -1       830 3.71320E-03 2.13185E-04-1.30157E-14
 -1       831 1.38668E-02 1.14407E-03-1.25354E-13
 -1       832 8.10462E-03 6.67966E-04-3.56776E-14
 -1       833 6.80025E-03-3.78464E-04-3.06503E-14
 -1       834 3.43014E-03 3.27524E-04-8.69801E-15
 -1       835 5.66712E-03-7.14802E-04-2.24845E-14
 -1       836 7.21817E-03-1.34874E-04-3.28334E-14
 -1       837 7.51856E-03 2.79179E-05-3.41248E-14
 -1       838 1.50721E-03-2.45492E-04-2.10908E-15
 -1       839 3.90718E-03 2.85142E-04-1.31276E-14
 -1       840 1.06391E-03-1.87358E-04-1.13657E-15
 -1       841 8.18621E-03 3.06852E-04-3.67969E-14
 -1       842 1.24836E-03 2.64173E-04-1.14454E-15
 -1       843 3.94048E-03 8.26302E-07-1.40770E-14
 -1       844 5.38048E-03-6.37168E-04-2.05596E-14
 -1       845 8.07226E-03 5.84732E-04-3.44840E-14
 -1       846 1.11447E-03 3.13921E-06-1.28974E-15
 -1       847 1.13858E-03 1.53942E-04-1.15215E-15
 -1       848 3.73523E-03 4.49977E-05-1.30806E-14
 -1       849 1.12480E-03 1.00857E-04-1.21027E-15
 -1       850 1.41126E-02 1.56237E-03-1.23251E-13
 -1       851 1.53371E-03 2.89594E-04-1.70960E-15
 -1       852 1.12627E-03-9.56938E-05-1.32483E-15
 -1       853 2.59051E-03 3.03486E-04-4.93938E-15
 -1       854 1.09365E-03-1.40728E-04-1.23419E-15
 -1       855 3.58252E-03 1.73661E-04-1.24812E-14
 -1       856 1.40630E-02 1.47831E-03-1.23690E-13
 -1       857 1.40136E-02 1.39447E-03-1.24119E-13
 -1       858 8.44114E-03 4.58411E-04-3.72152E-14
 -1       859 1.78080E-03 2.96209E-04-2.31877E-15
 -1       860 8.48236E-03 4.11700E-04-3.77973E-14
 -1       861 8.36630E-03 3.56671E-04-3.81128E-14
 -1       862 2.30925E-03 3.01335E-04-3.92324E-15
 -1       863 1.37541E-02 1.00528E-03-1.25392E-13
 -1       864 2.18945E-03-2.02851E-04-4.32911E-15
 -1       865 2.47151E-03-2.02626E-04-5.42217E-15
 -1       866 2.75435E-03-2.00888E-04-6.63489E-15
 -1       867 3.03948E-03-1.99736E-04-7.96603E-15
 -1       868 3.32951E-03-2.01888E-04-9.41530E-15
 -1       869 3.62847E-03-2.11303E-04-1.09819E-14
 -1       870 3.94150E-03-2.34100E-04-1.26666E-14
 -1       871 4.27519E-03-2.79453E-04-1.44711E-14
 -1       872 7.24666E-03-1.68973E-04-3.39888E-14
 -1       873 7.60076E-03-4.25149E-05-3.70733E-14
 -1       874 7.93055E-03 5.09127E-05-4.02744E-14
 -1       875 8.24041E-03 1.22467E-04-4.35887E-14
 -1       876 8.53608E-03 1.80821E-04-4.70143E-14
 -1       877 8.82296E-03 2.31467E-04-5.05483E-14
 -1       878 9.10491E-03 2.77710E-04-5.41877E-14
 -1       879 9.38451E-03 3.21566E-04-5.79360E-14
 -1       880 9.66339E-03 3.64303E-04-6.17900E-14
 -1       881 9.94249E-03 4.06739E-04-6.57416E-14
 -1       882 1.02223E-02 4.49397E-04-6.97849E-14
 -1       883 1.05030E-02 4.92605E-04-7.39107E-14
 -1       884 1.07847E-02 5.36542E-04-7.81083E-14
 -1       885 1.10672E-02 5.81290E-04-8.23709E-14
 -1       886 1.13505E-02 6.26855E-04-8.66939E-14
 -1       887 1.16345E-02 6.73196E-04-9.10628E-14
 -1       888 1.19189E-02 7.20243E-04-9.54878E-14
 -1       889 1.22037E-02 7.67910E-04-9.99632E-14
 -1       890 1.24889E-02 8.16108E-04-1.04488E-13
 -1       891 1.27742E-02 8.64748E-04-1.09056E-13
 -1       892 1.30597E-02 9.13745E-04-1.13656E-13
 -1       893 1.33453E-02 9.63024E-04-1.18284E-13
 -1       894 1.11772E-03-4.52381E-05-1.31281E-15
 -1       895 8.36092E-03 5.47702E-04-3.73920E-14
 -1       896 3.72494E-03 2.90055E-04-1.12170E-14
 -1       897 8.88402E-03 6.20381E-04-4.42626E-14
 -1       898 8.62490E-03 5.86686E-04-4.08889E-14
 -1       899 9.40908E-03 7.11014E-04-5.13190E-14
 -1       900 9.67730E-03 7.63577E-04-5.49966E-14
 -1       901 9.94920E-03 8.18828E-04-5.87740E-14
 -1       902 1.02243E-02 8.75561E-04-6.26418E-14
 -1       903 1.05020E-02 9.32871E-04-6.65999E-14
 -1       904 1.07817E-02 9.90125E-04-7.06411E-14
 -1       905 1.10631E-02 1.04692E-03-7.47643E-14
 -1       906 1.13457E-02 1.10301E-03-7.89577E-14
 -1       907 1.16292E-02 1.15832E-03-8.32155E-14
 -1       908 1.19133E-02 1.21281E-03-8.75327E-14
 -1       909 1.21980E-02 1.26654E-03-9.19047E-14
 -1       910 1.24830E-02 1.31957E-03-9.63326E-14
 -1       911 1.27683E-02 1.37200E-03-1.00813E-13
 -1       912 1.30538E-02 1.42393E-03-1.05340E-13
 -1       913 1.33394E-02 1.47545E-03-1.09907E-13
 -1       914 1.36250E-02 1.52663E-03-1.14505E-13
 -1       915 1.39107E-02 1.57757E-03-1.19128E-13
 -1       916 3.96601E-03-1.01047E-04-1.34746E-14
 -1       917 8.11806E-03 2.51163E-04-3.81126E-14
 -1       918 1.41907E-02 1.63106E-03-1.23606E-13
 -1       919 1.36928E-02 1.22602E-03-1.20721E-13
 -1       920 7.81082E-03 1.18619E-04-3.68524E-14
 -1       921 9.14478E-03 6.62657E-04-4.77382E-14
 -1       922 2.94454E-03 2.45689E-04-6.88853E-15
 -1       923 1.90749E-03-1.99759E-04-3.35595E-15
 -1       924 4.14155E-03 3.81846E-04-1.34498E-14
 -1       925 1.62567E-03-1.91701E-04-2.50375E-15
 -1       926 2.13146E-03 2.36962E-04-3.60503E-15
 -1       927 7.52707E-03-1.58131E-05-3.54112E-14
 -1       928 1.24964E-03-1.69740E-04-1.55478E-15
 -1       929 3.54480E-03 1.13359E-04-1.22975E-14
 -1       930 3.67356E-03 2.37318E-04-1.18175E-14
 -1       931 1.44009E-03 2.37333E-04-1.63034E-15
 -1       932 3.75140E-03-4.40542E-05-1.25063E-14
 -1       933 1.35497E-02 9.84124E-04-1.21831E-13
 -1       934 3.46612E-03 2.66392E-04-9.66039E-15
 -1       935 3.45562E-03 1.34813E-04-1.15533E-14
 -1       936 2.67768E-03 2.42227E-04-5.67579E-15
 -1       937 1.27930E-03-1.19541E-04-1.65871E-15
 -1       938 1.26749E-03-6.41876E-05-1.64711E-15
 -1       939 1.36436E-02 1.14218E-03-1.21125E-13
 -1       940 1.37420E-02 1.30966E-03-1.20307E-13
 -1       941 3.20701E-03 2.52848E-04-8.21672E-15
 -1       942 8.55198E-03 4.48915E-04-3.89127E-14
 -1       943 8.50523E-03 3.93674E-04-3.93700E-14
 -1       944 2.40647E-03 2.40074E-04-4.58150E-15
 -1       945 1.35548E-03 8.52675E-05-1.74997E-15
 -1       946 1.85352E-03 2.30707E-04-2.74673E-15
 -1       947 1.38404E-02 1.47650E-03-1.19457E-13
 -1       948 3.90630E-03 3.26608E-04-1.21416E-14
 -1       949 3.51432E-03 1.90556E-04-1.13176E-14
 -1       950 8.32198E-03 3.15119E-04-3.94586E-14
 -1       951 1.34914E-03 3.11122E-05-1.80186E-15
 -1       952 1.36060E-02 1.05343E-03-1.21818E-13
 -1       953 2.29931E-03-1.37890E-04-4.84791E-15
 -1       954 1.36906E-03 1.41672E-04-1.68265E-15
 -1       955 2.57502E-03-1.33901E-04-5.99380E-15
 -1       956 2.85017E-03-1.28209E-04-7.25749E-15
 -1       957 3.12625E-03-1.22230E-04-8.63854E-15
 -1       958 3.40616E-03-1.18201E-04-1.01366E-14
 -1       959 7.86149E-03 8.29979E-05-3.85533E-14
 -1       960 8.21416E-03 1.85949E-04-4.17401E-14
 -1       961 8.49890E-03 2.37402E-04-4.51080E-14
 -1       962 8.77513E-03 2.82751E-04-4.85839E-14
 -1       963 9.04742E-03 3.25475E-04-5.21624E-14
 -1       964 9.31867E-03 3.67337E-04-5.58495E-14
 -1       965 9.59048E-03 4.09191E-04-5.96412E-14
 -1       966 9.86369E-03 4.51478E-04-6.35348E-14
 -1       967 1.01387E-02 4.94423E-04-6.75229E-14
 -1       968 1.04155E-02 5.38141E-04-7.16032E-14
 -1       969 1.06940E-02 5.82673E-04-7.57613E-14
 -1       970 1.09741E-02 6.28011E-04-7.99834E-14
 -1       971 1.12555E-02 6.74114E-04-8.42654E-14
 -1       972 1.15381E-02 7.20917E-04-8.86014E-14
 -1       973 1.18214E-02 7.68345E-04-9.29882E-14
 -1       974 1.21055E-02 8.16315E-04-9.74284E-14
 -1       975 1.23901E-02 8.64748E-04-1.01919E-13
 -1       976 1.26750E-02 9.13564E-04-1.06454E-13
 -1       977 1.29603E-02 9.62693E-04-1.11030E-13
 -1       978 1.32457E-02 1.01207E-03-1.15637E-13
 -1       979 8.79523E-03 5.43678E-04-4.29072E-14
 -1       980 9.79655E-03 7.31718E-04-5.72346E-14
 -1       981 9.53505E-03 6.79602E-04-5.35031E-14
 -1       982 1.03347E-02 8.40656E-04-6.49839E-14
 -1       983 1.06094E-02 8.96046E-04-6.89935E-14
 -1       984 1.08869E-02 9.51387E-04-7.30847E-14
 -1       985 1.11666E-02 1.00638E-03-7.72519E-14
 -1       986 1.14478E-02 1.06087E-03-8.14844E-14
 -1       987 1.17304E-02 1.11476E-03-8.57761E-14
 -1       988 1.20138E-02 1.16806E-03-9.01228E-14
 -1       989 1.22980E-02 1.22079E-03-9.45202E-14
 -1       990 1.25827E-02 1.27301E-03-9.89719E-14
 -1       991 1.28677E-02 1.32480E-03-1.03470E-13
 -1       992 1.31530E-02 1.37621E-03-1.08010E-13
 -1       993 1.34385E-02 1.42733E-03-1.12590E-13
 -1       994 8.60543E-03 4.98740E-04-4.00196E-14
 -1       995 1.96482E-03 1.75866E-04-3.27860E-15
 -1       996 3.70204E-03-1.29222E-04-1.17464E-14
 -1       997 9.03308E-03 5.84606E-04-4.63374E-14
 -1       998 1.37911E-02 1.39305E-03-1.19885E-13
 -1       999 2.02253E-03-1.39072E-04-3.82015E-15
 -1      1000 1.30578E-03-1.69230E-05-1.72967E-15
 -1      1001 2.23616E-03 1.80428E-04-4.21363E-15
 -1      1002 1.74490E-03-1.36460E-04-2.91190E-15
 -1      1003 9.28011E-03 6.30250E-04-4.98698E-14
 -1      1004 3.49735E-03 5.38301E-05-1.15511E-14
 -1      1005 1.64768E-03 2.36304E-04-2.15182E-15
 -1      1006 1.00634E-02 7.85670E-04-6.10631E-14
 -1      1007 1.50352E-03-9.92712E-05-2.23629E-15
 -1      1008 3.49276E-03 2.24727E-04-1.04824E-14
 -1      1009 1.59852E-03 1.22180E-04-2.31411E-15
 -1      1010 1.69017E-03 1.68269E-04-2.46118E-15
 -1      1011 1.33893E-02 1.34418E-03-1.13019E-13
 -1      1012 3.37260E-03 8.55532E-05-1.08426E-14
 -1      1013 2.76263E-03 1.87028E-04-6.43620E-15
 -1      1014 1.34701E-02 1.22441E-03-1.16504E-13
 -1      1015 1.58669E-03 6.35142E-05-2.38803E-15
 -1      1016 1.34209E-02 1.14080E-03-1.16913E-13
 -1      1017 8.39298E-03 2.75597E-04-4.22549E-14
 -1      1018 3.01463E-03 1.92251E-04-7.72326E-15
 -1      1019 8.62028E-03 4.31960E-04-4.05180E-14
 -1      1020 8.49099E-03 3.63086E-04-4.07434E-14
 -1      1021 2.50261E-03 1.83602E-04-5.26599E-15
 -1      1022 2.40905E-03-7.40980E-05-5.37007E-15
 -1      1023 2.67655E-03-6.68128E-05-6.56573E-15
 -1      1024 2.94107E-03-5.71854E-05-7.87782E-15
 -1      1025 3.20337E-03-4.58526E-05-9.30797E-15
 -1      1026 9.64409E-03 6.50650E-04-5.56912E-14
 -1      1027 8.91990E-03 5.15793E-04-4.49276E-14
 -1      1028 3.25693E-03 2.00634E-04-9.12493E-15
 -1      1029 1.87117E-03 1.29589E-04-3.11227E-15
 -1      1030 8.73840E-03 3.32122E-04-4.66255E-14
 -1      1031 8.99692E-03 3.70503E-04-5.01487E-14
 -1      1032 9.25735E-03 4.09955E-04-5.37760E-14
 -1      1033 9.52061E-03 4.50791E-04-5.75081E-14
 -1      1034 9.78706E-03 4.93000E-04-6.13413E-14
 -1      1035 1.00567E-02 5.36442E-04-6.52708E-14
 -1      1036 1.03292E-02 5.80966E-04-6.93000E-14
 -1      1037 1.06044E-02 6.26431E-04-7.34158E-14
 -1      1038 1.08819E-02 6.72711E-04-7.76030E-14
 -1      1039 1.11613E-02 7.19690E-04-8.18448E-14
 -1      1040 1.14423E-02 7.67268E-04-8.61437E-14
 -1      1041 1.17245E-02 8.15354E-04-9.04962E-14
 -1      1042 1.20077E-02 8.63865E-04-9.49032E-14
 -1      1043 1.22917E-02 9.12730E-04-9.93591E-14
 -1      1044 1.25762E-02 9.61884E-04-1.03862E-13
 -1      1045 1.28611E-02 1.01127E-03-1.08407E-13
 -1      1046 1.31463E-02 1.06085E-03-1.12990E-13
 -1      1047 8.71252E-03 4.76490E-04-4.16604E-14
 -1      1048 3.47179E-03-4.16072E-05-1.08510E-14
 -1      1049 1.07120E-02 8.58953E-04-7.13916E-14
 -1      1050 1.04383E-02 8.05716E-04-6.73323E-14
 -1      1051 1.12675E-02 9.65429E-04-7.97382E-14
 -1      1052 1.15482E-02 1.01830E-03-8.40079E-14
 -1      1053 1.18304E-02 1.07081E-03-8.83318E-14
 -1      1054 1.21135E-02 1.12295E-03-9.27040E-14
 -1      1055 1.23975E-02 1.17473E-03-9.71278E-14
 -1      1056 1.26820E-02 1.22619E-03-1.01603E-13
 -1      1057 1.29670E-02 1.27736E-03-1.06120E-13
 -1      1058 1.31781E-02 1.31084E-03-1.09558E-13
 -1      1059 2.14065E-03 1.34722E-04-4.02737E-15
 -1      1060 2.13856E-03-7.86889E-05-4.29135E-15
 -1      1061 1.86565E-03-8.02324E-05-3.32995E-15
 -1      1062 1.34297E-02 1.28435E-03-1.14763E-13
 -1      1063 3.32481E-03 1.49475E-04-1.02700E-14
 -1      1064 9.39230E-03 6.02540E-04-5.20029E-14
 -1      1065 9.14996E-03 5.57382E-04-4.84145E-14
 -1      1066 1.09886E-02 9.12268E-04-7.55305E-14
 -1      1067 3.29085E-03 2.32529E-05-1.00746E-14
 -1      1068 3.20118E-03 1.03256E-04-9.61134E-15
 -1      1069 9.90332E-03 7.01013E-04-5.94756E-14
 -1      1070 1.53713E-03-4.66676E-05-2.33627E-15
 -1      1071 1.01685E-02 7.52907E-04-6.33559E-14
 -1      1072 2.40507E-03 1.38881E-04-5.05937E-15
 -1      1073 1.58213E-03 5.02647E-06-2.44054E-15
 -1      1074 1.32018E-02 1.18972E-03-1.11974E-13
 -1      1075 8.64144E-03 4.08804E-04-4.19208E-14
 -1      1076 2.66242E-03 1.43353E-04-6.20870E-15
 -1      1077 3.28803E-03 1.72997E-04-9.69442E-15
 -1      1078 2.91051E-03 1.49407E-04-7.47527E-15
 -1      1079 1.31741E-02 1.12531E-03-1.12485E-13
 -1      1080 2.77826E-03-2.83610E-06-7.13560E-15
 -1      1081 3.02913E-03 9.93108E-06-8.49667E-15
 -1      1082 3.10287E-03 1.60351E-04-8.54997E-15
 -1      1083 2.25726E-03-1.93293E-05-4.76546E-15
 -1      1084 8.95093E-03 4.10947E-04-4.81406E-14
 -1      1085 8.76975E-03 4.55009E-04-4.30966E-14
 -1      1086 9.19813E-03 4.48393E-04-5.17130E-14
 -1      1087 9.45150E-03 4.88478E-04-5.53881E-14
 -1      1088 9.71063E-03 5.30925E-04-5.91628E-14
 -1      1089 9.97467E-03 5.75188E-04-6.30315E-14
 -1      1090 1.02429E-02 6.20865E-04-6.70042E-14
 -1      1091 1.05148E-02 6.67627E-04-7.10703E-14
 -1      1092 1.07898E-02 7.15211E-04-7.52155E-14
 -1      1093 1.10672E-02 7.63417E-04-7.94244E-14
 -1      1094 1.13466E-02 8.12094E-04-8.36888E-14
 -1      1095 1.16277E-02 8.61127E-04-8.80062E-14
 -1      1096 1.19101E-02 9.10431E-04-9.23809E-14
 -1      1097 1.21934E-02 9.59943E-04-9.68061E-14
 -1      1098 1.24775E-02 1.00961E-03-1.01276E-13
 -1      1099 1.27621E-02 1.05940E-03-1.05788E-13
 -1      1100 1.19294E-02 1.02620E-03-9.08794E-14
 -1      1101 2.52062E-03-1.24575E-05-5.89242E-15
 -1      1102 8.66076E-03 3.67771E-04-4.40261E-14
 -1      1103 1.31900E-02 1.25031E-03-1.10771E-13
 -1      1104 1.16472E-02 9.74952E-04-8.65253E-14
 -1      1105 1.13664E-02 9.23578E-04-8.22246E-14
 -1      1106 1.22126E-02 1.07729E-03-9.52826E-14
 -1      1107 1.24966E-02 1.12822E-03-9.97327E-14
 -1      1108 1.27812E-02 1.17899E-03-1.04229E-13
 -1      1109 1.88518E-03 6.16195E-05-3.30767E-15
 -1      1110 9.48652E-03 5.74756E-04-5.41427E-14
 -1      1111 1.05366E-02 7.69609E-04-6.96867E-14
 -1      1112 1.98953E-03-2.37579E-05-3.75499E-15
 -1      1113 2.18411E-03 6.77278E-05-4.37547E-15
 -1      1114 1.02662E-02 7.18986E-04-6.56569E-14
 -1      1115 9.00902E-03 4.91992E-04-4.69483E-14
 -1      1116 9.24199E-03 5.31322E-04-5.04967E-14
 -1      1117 1.29855E-02 1.21469E-03-1.07488E-13
 -1      1118 1.08105E-02 8.20753E-04-7.37993E-14
 -1      1119 9.73995E-03 6.20992E-04-5.78841E-14
 -1      1120 8.86286E-03 4.36272E-04-4.56019E-14
 -1      1121 1.10873E-02 8.72139E-04-7.79786E-14
 -1      1122 2.44488E-03 7.33344E-05-5.45217E-15
 -1      1123 3.15137E-03 1.34852E-04-9.09060E-15
 -1      1124 2.72155E-03 8.44442E-05-6.75788E-15
 -1      1125 1.00003E-02 6.69277E-04-6.17215E-14
 -1      1126 9.13563E-03 4.81294E-04-4.96578E-14
 -1      1127 1.29455E-02 1.16135E-03-1.07597E-13
 -1      1128 2.96882E-03 9.18763E-05-8.12290E-15
 -1      1129 0.00000E+00 0.00000E+00 0.00000E+00
 -1      1130 0.00000E+00 0.00000E+00 0.00000E+00
 -1      1131 0.00000E+00 0.00000E+00 0.00000E+00
 -1      1132 0.00000E+00 0.00000E+00 0.00000E+00
 -1      1133 0.00000E+00 0.00000E+00 0.00000E+00
 -1      1134 0.00000E+00 0.00000E+00 0.00000E+00
 -1      1135 0.00000E+00 0.00000E+00 0.00000E+00
 -1      1136 0.00000E+00 0.00000E+00 0.00000E+00
 -1      1137 0.00000E+00 0.00000E+00 0.00000E+00
 -1      1138 0.00000E+00 0.00000E+00 0.00000E+00
 -1      1139 0.00000E+00 0.00000E+00 0.00000E+00
 -1      1140 0.00000E+00 0.00000E+00 0.00000E+00
 -1      1141 0.00000E+00 0.00000E+00 0.00000E+00
 -1      1142 0.00000E+00 0.00000E+00 0.00000E+00
 -1      1143 0.00000E+00 0.00000E+00 0.00000E+00
 -1      1144 0.00000E+00 0.00000E+00 0.00000E+00
 -1      1145 0.00000E+00 0.00000E+00 0.00000E+00
 -1      1146 2.09996E-04-1.45819E-04 9.83913E-18
 -1      1147 5.49287E-04-3.28171E-04-6.20299E-17
 -1      1148 8.33299E-04-4.41918E-04-2.65562E-16
 -1      1149 1.10743E-03-5.15761E-04-6.22088E-16
 -1      1150 1.37990E-03-5.65294E-04-1.12230E-15
 -1      1151 1.65471E-03-5.98693E-04-1.76228E-15
 -1      1152 1.93436E-03-6.21121E-04-2.53904E-15
 -1      1153 2.22042E-03-6.36549E-04-3.44965E-15
 -1      1154 2.51392E-03-6.48523E-04-4.49491E-15
 -1      1155 2.81536E-03-6.60502E-04-5.67610E-15
 -1      1156 3.12472E-03-6.75983E-04-6.98921E-15
 -1      1157 3.44109E-03-6.98440E-04-8.42818E-15
 -1      1158 3.76246E-03-7.30992E-04-9.99250E-15
 -1      1159 4.08539E-03-7.75695E-04-1.16869E-14
 -1      1160 4.40497E-03-8.32426E-04-1.35094E-14
 -1      1161 4.71543E-03-8.97567E-04-1.54633E-14
 -1      1162 5.01143E-03-9.63069E-04-1.75498E-14
 -1      1163 5.29012E-03-1.01687E-03-1.97712E-14
 -1      1164 5.55310E-03-1.04541E-03-2.21341E-14
 -1      1165 5.80694E-03-1.03789E-03-2.46404E-14
 -1      1166 6.06151E-03-9.90425E-04-2.72883E-14
 -1      1167 6.32652E-03-9.07714E-04-3.00757E-14
 -1      1168 6.60818E-03-8.01061E-04-3.29938E-14
 -1      1169 6.90769E-03-6.84127E-04-3.60369E-14
 -1      1170 7.22201E-03-5.68771E-04-3.92076E-14
 -1      1171 7.54588E-03-4.62774E-04-4.24995E-14
 -1      1172 7.87377E-03-3.69638E-04-4.59106E-14
 -1      1173 8.20117E-03-2.89616E-04-4.94402E-14
 -1      1174 8.52506E-03-2.21062E-04-5.30928E-14
 -1      1175 8.84378E-03-1.61551E-04-5.68591E-14
 -1      1176 9.15678E-03-1.08594E-04-6.07243E-14
 -1      1177 9.46421E-03-6.00146E-05-6.46883E-14
 -1      1178 9.76665E-03-1.40813E-05-6.87489E-14
 -1      1179 1.00648E-02 3.04885E-05-7.29063E-14
 -1      1180 1.03596E-02 7.45874E-05-7.71482E-14
 -1      1181 1.06515E-02 1.18797E-04-8.14544E-14
 -1      1182 1.09414E-02 1.63464E-04-8.58151E-14
 -1      1183 1.12298E-02 2.08770E-04-9.02334E-14
 -1      1184 1.15170E-02 2.54779E-04-9.46987E-14
 -1      1185 1.18035E-02 3.01483E-04-9.92083E-14
 -1      1186 1.20895E-02 3.48832E-04-1.03765E-13
 -1      1187 1.23752E-02 3.96747E-04-1.08376E-13
 -1      1188 1.26606E-02 4.45143E-04-1.13040E-13
 -1      1189 1.29461E-02 4.93932E-04-1.17742E-13
 -1      1190 1.32315E-02 5.43029E-04-1.22476E-13
 -1      1191 1.35169E-02 5.92354E-04-1.27225E-13
 -1      1192 1.38024E-02 6.41833E-04-1.31984E-13
 -1      1193 1.40880E-02 6.91397E-04-1.36741E-13
 -1      1194 1.43737E-02 7.40983E-04-1.41509E-13
 -1      1195 1.46522E-02 7.89303E-04-1.46180E-13
 -1      1196 2.26397E-04 1.57905E-04 4.16876E-17
 -1      1197 5.51121E-04 3.32207E-04 5.48335E-17
 -1      1198 8.33903E-04 4.42993E-04-3.39897E-17
 -1      1199 1.10814E-03 5.15565E-04-2.40801E-16
 -1      1200 1.38102E-03 5.63927E-04-5.67973E-16
 -1      1201 1.65684E-03 5.95747E-04-1.01907E-15
 -1      1202 1.93843E-03 6.15976E-04-1.59668E-15
 -1      1203 2.22803E-03 6.28496E-04-2.29887E-15
 -1      1204 2.52766E-03 6.36925E-04-3.12574E-15
 -1      1205 2.83935E-03 6.45147E-04-4.07600E-15
 -1      1206 3.16505E-03 6.57781E-04-5.14942E-15
 -1      1207 3.50632E-03 6.80620E-04-6.34390E-15
 -1      1208 3.86364E-03 7.20904E-04-7.66093E-15
 -1      1209 4.23519E-03 7.87004E-04-9.09984E-15
 -1      1210 4.61518E-03 8.86736E-04-1.06688E-14
 -1      1211 4.99252E-03 1.02332E-03-1.23732E-14
 -1      1212 5.35147E-03 1.18898E-03-1.42088E-14
 -1      1213 5.67682E-03 1.35921E-03-1.61847E-14
 -1      1214 5.96344E-03 1.49506E-03-1.83159E-14
 -1      1215 6.22414E-03 1.55853E-03-2.06083E-14
 -1      1216 6.48662E-03 1.53426E-03-2.30605E-14
 -1      1217 6.77777E-03 1.44058E-03-2.56769E-14
 -1      1218 7.10861E-03 1.31723E-03-2.84596E-14
 -1      1219 7.47258E-03 1.20239E-03-3.14005E-14
 -1      1220 7.85406E-03 1.11874E-03-3.44783E-14
 -1      1221 8.23777E-03 1.07262E-03-3.76803E-14
 -1      1222 8.61334E-03 1.06024E-03-4.09951E-14
 -1      1223 8.97572E-03 1.07394E-03-4.44156E-14
 -1      1224 9.32365E-03 1.10594E-03-4.79384E-14
 -1      1225 9.65805E-03 1.14991E-03-5.15669E-14
 -1      1226 9.98082E-03 1.20118E-03-5.52901E-14
 -1      1227 1.02941E-02 1.25654E-03-5.90992E-14
 -1      1228 1.05998E-02 1.31388E-03-6.29995E-14
 -1      1229 1.08997E-02 1.37186E-03-6.69834E-14
 -1      1230 1.11953E-02 1.42968E-03-7.10500E-14
 -1      1231 1.14877E-02 1.48689E-03-7.52077E-14
 -1      1232 1.17777E-02 1.54327E-03-7.94496E-14
 -1      1233 1.20661E-02 1.59875E-03-8.37691E-14
 -1      1234 1.23533E-02 1.65335E-03-8.81595E-14
 -1      1235 1.26397E-02 1.70714E-03-9.26008E-14
 -1      1236 1.29256E-02 1.76021E-03-9.70970E-14
 -1      1237 1.32112E-02 1.81267E-03-1.01650E-13
 -1      1238 1.34966E-02 1.86461E-03-1.06233E-13
 -1      1239 1.37820E-02 1.91615E-03-1.10853E-13
 -1      1240 1.40674E-02 1.96737E-03-1.15483E-13
 -1      1241 1.43528E-02 2.01836E-03-1.20117E-13
 -1      1242 1.46383E-02 2.06919E-03-1.24750E-13
 -1      1243 1.49239E-02 2.11993E-03-1.29385E-13
 -1      1244 1.52096E-02 2.17066E-03-1.34026E-13
 -1      1245 1.54881E-02 2.22014E-03-1.38558E-13
 -1      1246 1.55989E-02 2.20212E-03-1.41011E-13
 -1      1247 1.55489E-02 2.11782E-03-1.41506E-13
 -1      1248 1.54989E-02 2.03348E-03-1.41996E-13
 -1      1249 1.54490E-02 1.94908E-03-1.42485E-13
 -1      1250 1.53991E-02 1.86461E-03-1.42971E-13
 -1      1251 1.53497E-02 1.78081E-03-1.43456E-13
 -1      1252 1.53004E-02 1.69698E-03-1.43929E-13
 -1      1253 1.52509E-02 1.61240E-03-1.44394E-13
 -1      1254 1.52015E-02 1.52782E-03-1.44869E-13
 -1      1255 1.51523E-02 1.44324E-03-1.45330E-13
 -1      1256 1.51032E-02 1.35867E-03-1.45780E-13
 -1      1257 1.50546E-02 1.27484E-03-1.46225E-13
 -1      1258 1.50062E-02 1.19104E-03-1.46665E-13
 -1      1259 1.49575E-02 1.10658E-03-1.47076E-13
 -1      1260 1.49088E-02 1.02218E-03-1.47471E-13
 -1      1261 1.48601E-02 9.37842E-04-1.47870E-13
 -1      1262 1.48119E-02 8.54260E-04-1.48269E-13
 -1      1263 8.27659E-03 4.07143E-04-2.90606E-14
 -1      1264 8.18294E-03 5.56904E-04-2.86215E-14
 -1      1265 7.98522E-03 7.09145E-04-2.79368E-14
 -1      1266 7.69234E-03 8.65495E-04-2.70172E-14
 -1      1267 7.31574E-03 1.01621E-03-2.58805E-14
 -1      1268 6.89800E-03 1.13605E-03-2.46612E-14
 -1      1269 6.44983E-03 1.20569E-03-2.33954E-14
 -1      1270 5.98409E-03 1.21256E-03-2.21363E-14
 -1      1271 5.52266E-03 1.15306E-03-2.09665E-14
 -1      1272 5.05649E-03 1.03016E-03-1.98773E-14
 -1      1273 4.62215E-03 8.64922E-04-1.89642E-14
 -1      1274 4.25877E-03 6.87199E-04-1.82904E-14
 -1      1275 3.98853E-03 5.15254E-04-1.78637E-14
 -1      1276 3.82529E-03 3.54442E-04-1.76741E-14
 -1      1277 3.77621E-03 2.00519E-04-1.77160E-14
 -1      1278 3.84896E-03 4.74687E-05-1.79998E-14
 -1      1279 4.03213E-03-1.02682E-04-1.85103E-14
 -1      1280 4.29588E-03-2.44117E-04-1.91982E-14
 -1      1281 4.61163E-03-3.71678E-04-2.00207E-14
 -1      1282 4.96256E-03-4.78961E-04-2.09533E-14
 -1      1283 5.34315E-03-5.57265E-04-2.19920E-14
 -1      1284 5.75393E-03-5.95345E-04-2.31379E-14
 -1      1285 6.17942E-03-5.83965E-04-2.43332E-14
 -1      1286 6.58988E-03-5.24085E-04-2.54675E-14
 -1      1287 6.97991E-03-4.25815E-04-2.65064E-14
 -1      1288 7.34647E-03-2.99971E-04-2.74326E-14
 -1      1289 7.67311E-03-1.60171E-04-2.81957E-14
 -1      1290 7.94312E-03-1.70760E-05-2.87615E-14
 -1      1291 8.14309E-03 1.24479E-04-2.91093E-14
 -1      1292 8.25857E-03 2.63564E-04-2.92150E-14
 -1      1293 1.66460E-04-1.07942E-04-1.09369E-17
 -1      1294 1.13248E-04-5.43801E-05-3.33663E-17
 -1      1295 1.18133E-04-6.52548E-05-2.70237E-17
 -1      1296 1.09154E-04-4.03885E-05-4.36120E-17
 -1      1297 1.11033E-04-4.66882E-05-4.06034E-17
 -1      1298 2.27954E-04-1.01909E-04-9.57079E-17
 -1      1299 1.07352E-04-3.02949E-05-4.86265E-17
 -1      1300 1.08326E-04-3.50527E-05-4.71763E-17
 -1      1301 2.20551E-04-7.60674E-05-1.13394E-16
 -1      1302 1.06245E-04-2.21806E-05-5.13776E-17
 -1      1303 1.06848E-04-2.60835E-05-5.07813E-17
 -1      1304 2.16704E-04-5.67612E-05-1.22840E-16
 -1      1305 1.05506E-04-1.53918E-05-5.22179E-17
 -1      1306 1.05906E-04-1.86835E-05-5.20553E-17
 -1      1307 2.14287E-04-4.11824E-05-1.27353E-16
 -1      1308 1.04992E-04-9.31554E-06-5.23805E-17
 -1      1309 1.05255E-04-1.22900E-05-5.25160E-17
 -1      1310 2.12619E-04-2.78569E-05-1.28817E-16
 -1      1311 1.04708E-04-3.76026E-06-5.16893E-17
 -1      1312 1.04839E-04-6.51213E-06-5.19875E-17
 -1      1313 2.11514E-04-1.59323E-05-1.28451E-16
 -1      1314 1.04653E-04 1.56245E-06-5.04696E-17
 -1      1315 1.04655E-04-1.10985E-06-5.08762E-17
 -1      1316 2.10955E-04-4.90240E-06-1.26391E-16
 -1      1317 1.04835E-04 6.94040E-06-4.86400E-17
 -1      1318 1.04704E-04 4.20411E-06-4.92092E-17
 -1      1319 2.10944E-04 5.80857E-06-1.22976E-16
 -1      1320 1.05258E-04 1.26740E-05-4.61057E-17
 -1      1321 1.04990E-04 9.72230E-06-4.68375E-17
 -1      1322 2.11493E-04 1.67771E-05-1.18002E-16
 -1      1323 1.05925E-04 1.89740E-05-4.24872E-17
 -1      1324 1.05512E-04 1.57012E-05-4.36391E-17
 -1      1325 2.12606E-04 2.85061E-05-1.11226E-16
 -1      1326 1.06916E-04 2.64409E-05-3.72830E-17
 -1      1327 1.06293E-04 2.25256E-05-3.90855E-17
 -1      1328 2.14335E-04 4.17552E-05-1.01807E-16
 -1      1329 1.08407E-04 3.55245E-05-3.01273E-17
 -1      1330 1.07421E-04 3.07127E-05-3.28920E-17
 -1      1331 2.16864E-04 5.75235E-05-8.89317E-17
 -1      1332 1.11058E-04 4.73148E-05-1.94614E-17
 -1      1333 1.09205E-04 4.09445E-05-2.39744E-17
 -1      1334 2.20735E-04 7.70805E-05-7.10288E-17
 -1      1335 1.17465E-04 6.52264E-05-3.08998E-18
 -1      1336 1.12934E-04 5.50848E-05-1.08962E-17
 -1      1337 2.28027E-04 1.03487E-04-4.55094E-17
 -1      1338 1.57069E-04 1.07604E-04 2.14672E-17
 -1      1339 1.35980E-04 8.36834E-05 6.80337E-18
 -1      1340 2.57240E-04 1.46598E-04-1.51924E-17
 -1      1341 3.34383E-04 2.15013E-04 2.63326E-17
 -1      1342 4.21407E-04-2.54123E-04-7.27364E-17
 -1      1343 5.75259E-04-3.25267E-04-1.42274E-16
 -1      1344 7.23687E-04-3.81867E-04-2.51955E-16
 -1      1345 8.68582E-04-4.27116E-04-3.98404E-16
 -1      1346 6.15099E-04-3.17004E-04-2.33361E-16
 -1      1347 1.01086E-03-4.64125E-04-5.79736E-16
 -1      1348 1.15152E-03-4.94069E-04-7.97092E-16
 -1      1349 9.11849E-04-4.09409E-04-5.34322E-16
 -1      1350 1.29143E-03-5.18811E-04-1.04932E-15
 -1      1351 1.43114E-03-5.38889E-04-1.33671E-15
 -1      1352 1.19967E-03-4.70466E-04-9.74738E-16
 -1      1353 1.57116E-03-5.55384E-04-1.65803E-15
 -1      1354 1.71181E-03-5.68720E-04-2.01359E-15
 -1      1355 1.48422E-03-5.10993E-04-1.55278E-15
 -1      1356 1.85340E-03-5.79581E-04-2.40284E-15
 -1      1357 1.99613E-03-5.88385E-04-2.82515E-15
 -1      1358 1.76921E-03-5.37528E-04-2.26613E-15
 -1      1359 2.14018E-03-5.95648E-04-3.28088E-15
 -1      1360 2.28568E-03-6.01788E-04-3.77018E-15
 -1      1361 2.05697E-03-5.54704E-04-3.11273E-15
 -1      1362 2.43275E-03-6.07266E-04-4.29282E-15
 -1      1363 2.58143E-03-6.12501E-04-4.84851E-15
 -1      1364 2.34902E-03-5.66381E-04-4.09102E-15
 -1      1365 2.73180E-03-6.17958E-04-5.43760E-15
 -1      1366 2.88383E-03-6.24055E-04-6.05996E-15
 -1      1367 2.64623E-03-5.76162E-04-5.20145E-15
 -1      1368 3.03750E-03-6.31284E-04-6.71411E-15
 -1      1369 3.19271E-03-6.40044E-04-7.40070E-15
 -1      1370 2.94903E-03-5.87653E-04-6.44199E-15
 -1      1371 3.34933E-03-6.50847E-04-8.11790E-15
 -1      1372 3.50714E-03-6.64026E-04-8.86636E-15
 -1      1373 3.25725E-03-6.04539E-04-7.81043E-15
 -1      1374 3.66587E-03-6.80048E-04-9.64696E-15
 -1      1375 3.82519E-03-6.99101E-04-1.04590E-14
 -1      1376 3.57010E-03-6.30422E-04-9.30365E-15
 -1      1377 3.98467E-03-7.21477E-04-1.13034E-14
 -1      1378 4.14383E-03-7.47091E-04-1.21806E-14
 -1      1379 3.88594E-03-6.68321E-04-1.09238E-14
 -1      1380 4.30214E-03-7.75861E-04-1.30892E-14
 -1      1381 4.45904E-03-8.07284E-04-1.40300E-14
 -1      1382 4.20225E-03-7.19709E-04-1.26719E-14
 -1      1383 4.61397E-03-8.40684E-04-1.50039E-14
 -1      1384 4.76642E-03-8.75039E-04-1.60110E-14
 -1      1385 4.51579E-03-7.83142E-04-1.45482E-14
 -1      1386 4.91597E-03-9.08975E-04-1.70509E-14
 -1      1387 5.06235E-03-9.40983E-04-1.81244E-14
 -1      1388 4.82307E-03-8.52846E-04-1.65559E-14
 -1      1389 5.20547E-03-9.69166E-04-1.92325E-14
 -1      1390 5.34548E-03-9.91841E-04-2.03756E-14
 -1      1391 5.12134E-03-9.18096E-04-1.86972E-14
 -1      1392 5.48277E-03-1.00711E-03-2.15552E-14
 -1      1393 5.61798E-03-1.01362E-03-2.27693E-14
 -1      1394 5.40989E-03-9.64589E-04-2.09784E-14
 -1      1395 5.75190E-03-1.01020E-03-2.40188E-14
 -1      1396 5.88549E-03-9.96374E-04-2.53041E-14
 -1      1397 5.69095E-03-9.78290E-04-2.34010E-14
 -1      1398 6.01970E-03-9.72196E-04-2.66256E-14
 -1      1399 6.15549E-03-9.38255E-04-2.79826E-14
 -1      1400 5.96949E-03-9.50567E-04-2.59658E-14
 -1      1401 6.29361E-03-8.95822E-04-2.93726E-14
 -1      1402 6.43468E-03-8.46313E-04-3.07958E-14
 -1      1403 6.25153E-03-8.81893E-04-2.86723E-14
 -1      1404 6.57903E-03-7.91657E-04-3.22534E-14
 -1      1405 6.72679E-03-7.33559E-04-3.37422E-14
 -1      1406 6.54184E-03-7.81639E-04-3.15160E-14
 -1      1407 6.87783E-03-6.73888E-04-3.52628E-14
 -1      1408 7.03188E-03-6.14131E-04-3.68146E-14
 -1      1409 6.84243E-03-6.64149E-04-3.44907E-14
 -1      1410 7.18850E-03-5.55605E-04-3.83978E-14
 -1      1411 7.34720E-03-4.99310E-04-4.00124E-14
 -1      1412 7.15241E-03-5.43591E-04-3.75918E-14
 -1      1413 7.50743E-03-4.45875E-04-4.16556E-14
 -1      1414 7.66865E-03-3.95799E-04-4.33291E-14
 -1      1415 7.46902E-03-4.30354E-04-4.08151E-14
 -1      1416 7.83037E-03-3.49150E-04-4.50333E-14
 -1      1417 7.99213E-03-3.06039E-04-4.67662E-14
 -1      1418 7.78890E-03-3.29962E-04-4.41585E-14
 -1      1419 8.15358E-03-2.66197E-04-4.85298E-14
 -1      1420 8.31439E-03-2.29497E-04-5.03221E-14
 -1      1421 8.10900E-03-2.43838E-04-4.76206E-14
 -1      1422 8.47433E-03-1.95535E-04-5.21442E-14
 -1      1423 8.63324E-03-1.64069E-04-5.39962E-14
 -1      1424 8.42701E-03-1.70778E-04-5.12004E-14
 -1      1425 8.79099E-03-1.34690E-04-5.58748E-14
 -1      1426 8.94753E-03-1.07127E-04-5.77789E-14
 -1      1427 8.74152E-03-1.08327E-04-5.48942E-14
 -1      1428 9.10283E-03-8.10305E-05-5.97097E-14
 -1      1429 9.25691E-03-5.61470E-05-6.16642E-14
 -1      1430 9.05185E-03-5.37389E-05-5.86968E-14
 -1      1431 9.40980E-03-3.22099E-05-6.36443E-14
 -1      1432 9.56155E-03-9.00468E-06-6.56479E-14
 -1      1433 9.35787E-03-4.50970E-06-6.26035E-14
 -1      1434 9.71225E-03 1.36557E-05-6.76749E-14
 -1      1435 9.86195E-03 3.59408E-05-6.97265E-14
 -1      1436 9.65982E-03 4.14027E-05-6.66036E-14
 -1      1437 1.00107E-02 5.79715E-05-7.18009E-14
 -1      1438 1.01587E-02 7.98747E-05-7.38967E-14
 -1      1439 9.95817E-03 8.55356E-05-7.06989E-14
 -1      1440 1.03059E-02 1.01721E-04-7.60131E-14
 -1      1441 1.04525E-02 1.23600E-04-7.81453E-14
 -1      1442 1.02534E-02 1.28974E-04-7.48828E-14
 -1      1443 1.05985E-02 1.45547E-04-8.02929E-14
 -1      1444 1.07439E-02 1.67623E-04-8.24557E-14
 -1      1445 1.05462E-02 1.72432E-04-7.91380E-14
 -1      1446 1.08889E-02 1.89838E-04-8.46337E-14
 -1      1447 1.10335E-02 2.12230E-04-8.68251E-14
 -1      1448 1.08370E-02 2.16346E-04-8.34553E-14
 -1      1449 1.11778E-02 2.34797E-04-8.90287E-14
 -1      1450 1.13218E-02 2.57558E-04-9.12476E-14
 -1      1451 1.11262E-02 2.60949E-04-8.78302E-14
 -1      1452 1.14655E-02 2.80501E-04-9.34759E-14
 -1      1453 1.16090E-02 3.03637E-04-9.57159E-14
 -1      1454 1.14142E-02 3.06335E-04-9.22577E-14
 -1      1455 1.17524E-02 3.26948E-04-9.79705E-14
 -1      1456 1.18956E-02 3.50436E-04-1.00234E-13
 -1      1457 1.17013E-02 3.52507E-04-9.67333E-14
 -1      1458 1.20387E-02 3.74083E-04-1.02510E-13
 -1      1459 1.21817E-02 3.97887E-04-1.04800E-13
 -1      1460 1.19879E-02 3.99414E-04-1.01258E-13
 -1      1461 1.23246E-02 4.21829E-04-1.07103E-13
 -1      1462 1.24675E-02 4.45903E-04-1.09417E-13
 -1      1463 1.22741E-02 4.46975E-04-1.05831E-13
 -1      1464 1.26103E-02 4.70094E-04-1.11744E-13
 -1      1465 1.27531E-02 4.94392E-04-1.14083E-13
 -1      1466 1.25599E-02 4.95093E-04-1.10454E-13
 -1      1467 1.28959E-02 5.18784E-04-1.16429E-13
 -1      1468 1.30386E-02 5.43262E-04-1.18781E-13
 -1      1469 1.28456E-02 5.43673E-04-1.15119E-13
 -1      1470 1.31814E-02 5.67812E-04-1.21142E-13
 -1      1471 1.33241E-02 5.92425E-04-1.23511E-13
 -1      1472 1.31312E-02 5.92620E-04-1.19818E-13
 -1      1473 1.34669E-02 6.17091E-04-1.25884E-13
 -1      1474 1.36097E-02 6.41802E-04-1.28256E-13
 -1      1475 1.34168E-02 6.41845E-04-1.24543E-13
 -1      1476 1.37524E-02 6.66546E-04-1.30631E-13
 -1      1477 1.38952E-02 6.91316E-04-1.33009E-13
 -1      1478 1.37024E-02 6.91267E-04-1.29285E-13
 -1      1479 1.40380E-02 7.16104E-04-1.35389E-13
 -1      1480 1.41809E-02 7.40900E-04-1.37768E-13
 -1      1481 1.39881E-02 7.40811E-04-1.34036E-13
 -1      1482 1.43237E-02 7.65698E-04-1.40151E-13
 -1      1483 1.44665E-02 7.90490E-04-1.42539E-13
 -1      1484 1.42737E-02 7.90409E-04-1.38793E-13
 -1      1485 1.46762E-02 8.30733E-04-1.45988E-13
 -1      1486 1.46262E-02 8.55463E-04-1.44622E-13
 -1      1487 6.43640E-04 3.58138E-04-1.64934E-17
 -1      1488 4.92621E-04 2.93990E-04 1.89193E-17
 -1      1489 4.46101E-04 2.56353E-04-1.17636E-17
 -1      1490 9.32699E-04 4.49405E-04-1.73649E-16
 -1      1491 7.89819E-04 4.08306E-04-8.05833E-17
 -1      1492 7.48550E-04 3.72554E-04-1.20834E-16
 -1      1493 1.21350E-03 5.09792E-04-4.47464E-16
 -1      1494 1.07355E-03 4.82657E-04-2.95581E-16
 -1      1495 1.03914E-03 4.48903E-04-3.43909E-16
 -1      1496 1.49287E-03 5.49681E-04-8.42046E-16
 -1      1497 1.35300E-03 5.31883E-04-6.29244E-16
 -1      1498 1.32399E-03 4.99261E-04-6.84457E-16
 -1      1499 1.77494E-03 5.75199E-04-1.36085E-15
 -1      1500 1.63334E-03 5.63944E-04-1.08565E-15
 -1      1501 1.60815E-03 5.31792E-04-1.14629E-15
 -1      1502 2.06246E-03 5.90714E-04-2.00512E-15
 -1      1503 1.91786E-03 5.83951E-04-1.66746E-15
 -1      1504 1.89506E-03 5.51766E-04-1.73234E-15
 -1      1505 2.35758E-03 5.99937E-04-2.77324E-15
 -1      1506 2.20894E-03 5.95853E-04-2.37383E-15
 -1      1507 2.18715E-03 5.63227E-04-2.44267E-15
 -1      1508 2.66223E-03 6.06557E-04-3.66519E-15
 -1      1509 2.50860E-03 6.03284E-04-3.20361E-15
 -1      1510 2.48640E-03 5.69840E-04-3.27645E-15
 -1      1511 2.97818E-03 6.14736E-04-4.67993E-15
 -1      1512 2.81868E-03 6.10113E-04-4.15747E-15
 -1      1513 2.79449E-03 5.75466E-04-4.23254E-15
 -1      1514 3.30695E-03 6.29601E-04-5.81554E-15
 -1      1515 3.14087E-03 6.20931E-04-5.23271E-15
 -1      1516 3.11293E-03 5.84666E-04-5.31069E-15
 -1      1517 3.64941E-03 6.57663E-04-7.07347E-15
 -1      1518 3.47643E-03 6.41522E-04-6.42898E-15
 -1      1519 3.44284E-03 6.03206E-04-6.50897E-15
 -1      1520 4.00505E-03 7.06959E-04-8.45301E-15
 -1      1521 3.82566E-03 6.79193E-04-7.74765E-15
 -1      1522 3.78460E-03 6.38417E-04-7.82866E-15
 -1      1523 4.37096E-03 7.86305E-04-9.95513E-15
 -1      1524 4.18700E-03 7.42550E-04-9.18818E-15
 -1      1525 4.13724E-03 6.99071E-04-9.27043E-15
 -1      1526 4.74075E-03 9.02686E-04-1.15907E-14
 -1      1527 4.55593E-03 8.39952E-04-1.07565E-14
 -1      1528 4.49769E-03 7.93959E-04-1.08385E-14
 -1      1529 5.10432E-03 1.05591E-03-1.33590E-14
 -1      1530 4.92414E-03 9.75564E-04-1.24579E-14
 -1      1531 4.86007E-03 9.28076E-04-1.25387E-14
 -1      1532 5.44967E-03 1.23129E-03-1.52619E-14
 -1      1533 5.28007E-03 1.14273E-03-1.42933E-14
 -1      1534 5.21583E-03 1.09593E-03-1.43706E-14
 -1      1535 5.76829E-03 1.39570E-03-1.73117E-14
 -1      1536 5.61258E-03 1.31746E-03-1.62678E-14
 -1      1537 5.55593E-03 1.27430E-03-1.63441E-14
 -1      1538 6.06197E-03 1.50587E-03-1.95198E-14
 -1      1539 5.91754E-03 1.45975E-03-1.83956E-14
 -1      1540 5.87586E-03 1.42246E-03-1.84686E-14
 -1      1541 6.34543E-03 1.52952E-03-2.18893E-14
 -1      1542 6.20352E-03 1.52889E-03-2.06835E-14
 -1      1543 6.18082E-03 1.49719E-03-2.07522E-14
 -1      1544 6.63983E-03 1.46631E-03-2.44195E-14
 -1      1545 6.48998E-03 1.50686E-03-2.31339E-14
 -1      1546 6.48546E-03 1.47781E-03-2.31994E-14
 -1      1547 6.95985E-03 1.34935E-03-2.71193E-14
 -1      1548 6.79618E-03 1.41169E-03-2.57485E-14
 -1      1549 6.80473E-03 1.38175E-03-2.58135E-14
 -1      1550 7.30723E-03 1.22230E-03-2.99759E-14
 -1      1551 7.13050E-03 1.28474E-03-2.85281E-14
 -1      1552 7.14470E-03 1.25196E-03-2.85894E-14
 -1      1553 7.67345E-03 1.11813E-03-3.29809E-14
 -1      1554 7.48876E-03 1.16622E-03-3.14609E-14
 -1      1555 7.50146E-03 1.13047E-03-3.15175E-14
 -1      1556 8.04659E-03 1.05146E-03-3.61186E-14
 -1      1557 7.85990E-03 1.08001E-03-3.45345E-14
 -1      1558 7.86623E-03 1.04212E-03-3.45838E-14
 -1      1559 8.41670E-03 1.02246E-03-3.93715E-14
 -1      1560 8.23255E-03 1.03267E-03-3.77300E-14
 -1      1561 8.23043E-03 9.93691E-04-3.77768E-14
 -1      1562 8.77760E-03 1.02438E-03-4.27368E-14
 -1      1563 8.59858E-03 1.02011E-03-4.10413E-14
 -1      1564 8.58810E-03 9.80879E-04-4.10835E-14
 -1      1565 9.12662E-03 1.04881E-03-4.62051E-14
 -1      1566 8.95368E-03 1.03428E-03-4.44583E-14
 -1      1567 8.93611E-03 9.95340E-04-4.44972E-14
 -1      1568 9.46346E-03 1.08834E-03-4.97778E-14
 -1      1569 9.29653E-03 1.06707E-03-4.79778E-14
 -1      1570 9.27349E-03 1.02873E-03-4.80141E-14
 -1      1571 9.78920E-03 1.13732E-03-5.34491E-14
 -1      1572 9.62763E-03 1.11192E-03-5.16010E-14
 -1      1573 9.60067E-03 1.07429E-03-5.16327E-14
 -1      1574 1.01055E-02 1.19176E-03-5.72155E-14
 -1      1575 9.94840E-03 1.16404E-03-5.53221E-14
 -1      1576 9.91879E-03 1.12713E-03-5.53500E-14
 -1      1577 1.04140E-02 1.24902E-03-6.10687E-14
 -1      1578 1.02606E-02 1.22016E-03-5.91301E-14
 -1      1579 1.02293E-02 1.18391E-03-5.91583E-14
 -1      1580 1.07163E-02 1.30739E-03-6.50101E-14
 -1      1581 1.05658E-02 1.27814E-03-6.30281E-14
 -1      1582 1.05335E-02 1.24247E-03-6.30538E-14
 -1      1583 1.10140E-02 1.36583E-03-6.90333E-14
 -1      1584 1.08657E-02 1.33665E-03-6.70119E-14
 -1      1585 1.08328E-02 1.30146E-03-6.70351E-14
 -1      1586 1.13080E-02 1.42376E-03-7.31448E-14
 -1      1587 1.11614E-02 1.39489E-03-7.10785E-14
 -1      1588 1.11283E-02 1.36009E-03-7.11018E-14
 -1      1589 1.15994E-02 1.48086E-03-7.73415E-14
 -1      1590 1.14540E-02 1.45242E-03-7.52325E-14
 -1      1591 1.14209E-02 1.41795E-03-7.52530E-14
 -1      1592 1.18888E-02 1.53702E-03-8.16138E-14
 -1      1593 1.17443E-02 1.50906E-03-7.94681E-14
 -1      1594 1.17113E-02 1.47483E-03-7.94837E-14
 -1      1595 1.21768E-02 1.59222E-03-8.59615E-14
 -1      1596 1.20329E-02 1.56474E-03-8.37795E-14
 -1      1597 1.20001E-02 1.53070E-03-8.37880E-14
 -1      1598 1.24638E-02 1.64653E-03-9.03703E-14
 -1      1599 1.23204E-02 1.61948E-03-8.81581E-14
 -1      1600 1.22878E-02 1.58559E-03-8.81572E-14
 -1      1601 1.27502E-02 1.70003E-03-9.48306E-14
 -1      1602 1.26071E-02 1.67338E-03-9.25949E-14
 -1      1603 1.25747E-02 1.63959E-03-9.25849E-14
 -1      1604 1.30362E-02 1.75285E-03-9.93533E-14
 -1      1605 1.28932E-02 1.72652E-03-9.70843E-14
 -1      1606 1.28610E-02 1.69281E-03-9.70706E-14
 -1      1607 1.33219E-02 1.80508E-03-1.03918E-13
 -1      1608 1.31790E-02 1.77903E-03-1.01631E-13
 -1      1609 1.31469E-02 1.74537E-03-1.01611E-13
 -1      1610 1.36074E-02 1.85684E-03-1.08513E-13
 -1      1611 1.34646E-02 1.83101E-03-1.06213E-13
 -1      1612 1.34327E-02 1.79739E-03-1.06190E-13
 -1      1613 1.38929E-02 1.90822E-03-1.13140E-13
 -1      1614 1.37501E-02 1.88257E-03-1.10824E-13
 -1      1615 1.37183E-02 1.84898E-03-1.10798E-13
 -1      1616 1.41784E-02 1.95932E-03-1.17769E-13
 -1      1617 1.40356E-02 1.93380E-03-1.15456E-13
 -1      1618 1.40038E-02 1.90022E-03-1.15424E-13
 -1      1619 1.44639E-02 2.01022E-03-1.22404E-13
 -1      1620 1.43211E-02 1.98479E-03-1.20086E-13
 -1      1621 1.42894E-02 1.95122E-03-1.20057E-13
 -1      1622 1.47495E-02 2.06100E-03-1.27037E-13
 -1      1623 1.46067E-02 2.03562E-03-1.24718E-13
 -1      1624 1.45750E-02 2.00205E-03-1.24689E-13
 -1      1625 1.50351E-02 2.11172E-03-1.31675E-13
 -1      1626 1.48923E-02 2.08636E-03-1.29356E-13
 -1      1627 1.48606E-02 2.05279E-03-1.29326E-13
 -1      1628 1.53208E-02 2.16245E-03-1.36320E-13
 -1      1629 1.51779E-02 2.13708E-03-1.33997E-13
 -1      1630 1.51463E-02 2.10350E-03-1.33967E-13
 -1      1631 1.54632E-02 2.17800E-03-1.38805E-13
 -1      1632 1.54127E-02 2.07475E-03-1.39614E-13
 -1      1633 1.54377E-02 2.11691E-03-1.39368E-13
 -1      1634 1.53627E-02 1.99040E-03-1.40106E-13
 -1      1635 1.53877E-02 2.03258E-03-1.39863E-13
 -1      1636 1.52765E-02 2.03169E-03-1.37725E-13
 -1      1637 1.53127E-02 1.90600E-03-1.40592E-13
 -1      1638 1.53377E-02 1.94820E-03-1.40349E-13
 -1      1639 1.52265E-02 1.94734E-03-1.38215E-13
 -1      1640 1.52629E-02 1.82156E-03-1.41072E-13
 -1      1641 1.52878E-02 1.86378E-03-1.40833E-13
 -1      1642 1.51765E-02 1.86295E-03-1.38697E-13
 -1      1643 1.52139E-02 1.73851E-03-1.41543E-13
 -1      1644 1.52384E-02 1.78004E-03-1.41309E-13
 -1      1645 1.51271E-02 1.77926E-03-1.39168E-13
 -1      1646 1.51643E-02 1.65401E-03-1.42011E-13
 -1      1647 1.51891E-02 1.69627E-03-1.41779E-13
 -1      1648 1.50778E-02 1.69553E-03-1.39632E-13
 -1      1649 1.51148E-02 1.56950E-03-1.42476E-13
 -1      1650 1.51395E-02 1.61175E-03-1.42243E-13
 -1      1651 1.50282E-02 1.61108E-03-1.40093E-13
 -1      1652 1.50654E-02 1.48497E-03-1.42941E-13
 -1      1653 1.50901E-02 1.52723E-03-1.42712E-13
 -1      1654 1.49787E-02 1.52662E-03-1.40555E-13
 -1      1655 1.50162E-02 1.40045E-03-1.43395E-13
 -1      1656 1.50408E-02 1.44271E-03-1.43170E-13
 -1      1657 1.49294E-02 1.44216E-03-1.41013E-13
 -1      1658 1.49672E-02 1.31595E-03-1.43840E-13
 -1      1659 1.49917E-02 1.35820E-03-1.43619E-13
 -1      1660 1.48802E-02 1.35770E-03-1.41459E-13
 -1      1661 1.49191E-02 1.23289E-03-1.44273E-13
 -1      1662 1.49431E-02 1.27442E-03-1.44057E-13
 -1      1663 1.48316E-02 1.27396E-03-1.41894E-13
 -1      1664 1.48703E-02 1.14844E-03-1.44700E-13
 -1      1665 1.48947E-02 1.19066E-03-1.44490E-13
 -1      1666 1.47831E-02 1.19024E-03-1.42321E-13
 -1      1667 1.48216E-02 1.06402E-03-1.45105E-13
 -1      1668 1.48459E-02 1.10622E-03-1.44905E-13
 -1      1669 1.47344E-02 1.10583E-03-1.42736E-13
 -1      1670 1.47729E-02 9.79649E-04-1.45502E-13
 -1      1671 1.47972E-02 1.02183E-03-1.45304E-13
 -1      1672 1.46857E-02 1.02145E-03-1.43138E-13
 -1      1673 1.46874E-02 8.96470E-04-1.45161E-13
 -1      1674 1.47117E-02 9.38630E-04-1.44963E-13
 -1      1675 1.46001E-02 9.38249E-04-1.42797E-13
 -1      1676 1.44777E-02 8.56216E-04-1.41719E-13
 -1      1677 8.27693E-03 4.12268E-04-2.95968E-14
 -1      1678 8.29924E-03 3.67026E-04-2.97479E-14
 -1      1679 8.12997E-03 5.23226E-04-2.90399E-14
 -1      1680 8.21363E-03 4.69614E-04-2.93307E-14
 -1      1681 7.87415E-03 6.66152E-04-2.81872E-14
 -1      1682 8.00503E-03 5.98244E-04-2.85919E-14
 -1      1683 7.52668E-03 8.37856E-04-2.71067E-14
 -1      1684 7.69765E-03 7.54557E-04-2.76360E-14
 -1      1685 7.11384E-03 1.01867E-03-2.58519E-14
 -1      1686 7.30326E-03 9.32068E-04-2.64684E-14
 -1      1687 6.72409E-03 1.17198E-03-2.44875E-14
 -1      1688 6.90501E-03 1.10940E-03-2.50947E-14
 -1      1689 6.31142E-03 1.26136E-03-2.30891E-14
 -1      1690 6.49964E-03 1.23073E-03-2.37456E-14
 -1      1691 5.91530E-03 1.25277E-03-2.17461E-14
 -1      1692 6.09362E-03 1.26916E-03-2.23406E-14
 -1      1693 5.49743E-03 1.14525E-03-2.05219E-14
 -1      1694 5.69104E-03 1.20467E-03-2.10810E-14
 -1      1695 5.05422E-03 9.63635E-04-1.93936E-14
 -1      1696 5.26225E-03 1.05588E-03-1.98992E-14
 -1      1697 4.63340E-03 7.45895E-04-1.84442E-14
 -1      1698 4.82844E-03 8.44318E-04-1.88300E-14
 -1      1699 4.25275E-03 5.45724E-04-1.77669E-14
 -1      1700 4.42054E-03 6.30974E-04-1.80338E-14
 -1      1701 3.95779E-03 4.01252E-04-1.74245E-14
 -1      1702 4.07640E-03 4.66329E-04-1.75707E-14
 -1      1703 3.79125E-03 2.81261E-04-1.72565E-14
 -1      1704 3.85198E-03 3.30438E-04-1.72920E-14
 -1      1705 3.76587E-03 1.82185E-04-1.73856E-14
 -1      1706 3.75902E-03 2.27478E-04-1.73073E-14
 -1      1707 3.89009E-03 7.61502E-05-1.77233E-14
 -1      1708 3.81441E-03 1.27223E-04-1.75242E-14
 -1      1709 4.12954E-03-5.87882E-05-1.83525E-14
 -1      1710 4.00682E-03 2.91619E-06-1.80598E-14
 -1      1711 4.44163E-03-2.05280E-04-1.91155E-14
 -1      1712 4.29089E-03-1.35527E-04-1.87420E-14
 -1      1713 4.78244E-03-3.55543E-04-2.00095E-14
 -1      1714 4.62360E-03-2.86412E-04-1.95827E-14
 -1      1715 5.13576E-03-4.93862E-04-2.10316E-14
 -1      1716 4.97152E-03-4.32278E-04-2.05435E-14
 -1      1717 5.49225E-03-5.96944E-04-2.21671E-14
 -1      1718 5.32785E-03-5.54932E-04-2.16306E-14
 -1      1719 5.86306E-03-6.44165E-04-2.34317E-14
 -1      1720 5.69161E-03-6.31472E-04-2.28324E-14
 -1      1721 6.23391E-03-6.12054E-04-2.47207E-14
 -1      1722 6.06369E-03-6.35503E-04-2.41310E-14
 -1      1723 6.59903E-03-5.14612E-04-2.59352E-14
 -1      1724 6.43122E-03-5.66890E-04-2.53884E-14
 -1      1725 6.96598E-03-3.71433E-04-2.70509E-14
 -1      1726 6.79631E-03-4.42307E-04-2.65522E-14
 -1      1727 7.32610E-03-2.01709E-04-2.80664E-14
 -1      1728 7.15844E-03-2.80628E-04-2.76300E-14
 -1      1729 7.67181E-03-4.32513E-05-2.88345E-14
 -1      1730 7.51954E-03-1.16437E-04-2.84953E-14
 -1      1731 7.96184E-03 9.87790E-05-2.94115E-14
 -1      1732 7.83526E-03 3.60610E-05-2.91748E-14
 -1      1733 8.17533E-03 2.16100E-04-2.97412E-14
 -1      1734 8.08783E-03 1.65069E-04-2.96216E-14
 -1      1735 8.28772E-03 3.15870E-04-2.98418E-14
 -1      1736 8.24963E-03 2.73451E-04-2.98509E-14
 -1      1737 7.35484E-03 8.48195E-04-2.70990E-14
 -1      1738 7.74505E-03 6.61354E-04-2.83065E-14
 -1      1739 1.54315E-02 2.14441E-03-1.38776E-13
 -1      1740 1.52953E-02 2.10136E-03-1.36884E-13
 -1      1741 8.24892E-03 4.15809E-04-3.00488E-14
 -1      1742 8.05189E-03 5.14020E-04-2.93222E-14
 -1      1743 8.30349E-03 3.48289E-04-3.04137E-14
 -1      1744 6.95504E-03 1.05122E-03-2.56847E-14
 -1      1745 6.56604E-03 1.21617E-03-2.41764E-14
 -1      1746 6.19944E-03 1.29330E-03-2.26820E-14
 -1      1747 5.83660E-03 1.25024E-03-2.12750E-14
 -1      1748 5.43587E-03 1.09895E-03-1.99998E-14
 -1      1749 5.00967E-03 8.73368E-04-1.88309E-14
 -1      1750 4.58554E-03 6.31820E-04-1.78780E-14
 -1      1751 4.19816E-03 4.46085E-04-1.72911E-14
 -1      1752 3.91066E-03 3.19541E-04-1.69728E-14
 -1      1753 3.76618E-03 2.38636E-04-1.68954E-14
 -1      1754 3.78320E-03 1.71235E-04-1.70812E-14
 -1      1755 3.95662E-03 8.38990E-05-1.75437E-14
 -1      1756 4.24217E-03-4.62537E-05-1.82549E-14
 -1      1757 4.58284E-03-2.02653E-04-1.90940E-14
 -1      1758 4.93649E-03-3.70926E-04-2.00791E-14
 -1      1759 5.28331E-03-5.24603E-04-2.11991E-14
 -1      1760 5.62416E-03-6.33874E-04-2.24552E-14
 -1      1761 5.95665E-03-6.66149E-04-2.38170E-14
 -1      1762 6.29437E-03-6.07300E-04-2.51892E-14
 -1      1763 6.63819E-03-4.75835E-04-2.64846E-14
 -1      1764 6.99527E-03-2.97830E-04-2.76945E-14
 -1      1765 7.36137E-03-1.10195E-04-2.87194E-14
 -1      1766 7.71308E-03 5.47236E-05-2.95036E-14
 -1      1767 8.00701E-03 1.85493E-04-3.00669E-14
 -1      1768 8.21387E-03 2.80573E-04-3.03952E-14
 -1      1769 2.85838E-04-1.70978E-04-6.27889E-17
 -1      1770 3.34213E-04-1.07064E-04-1.78961E-16
 -1      1771 3.38735E-04-1.23497E-04-1.69881E-16
 -1      1772 3.44828E-04-1.42826E-04-1.58050E-16
 -1      1773 3.54296E-04-1.65295E-04-1.41109E-16
 -1      1774 4.61886E-04-1.75351E-04-2.46561E-16
 -1      1775 3.24149E-04-5.69405E-05-1.95495E-16
 -1      1776 3.25937E-04-6.76124E-05-1.93625E-16
 -1      1777 3.21422E-04-3.73234E-05-1.96728E-16
 -1      1778 3.22661E-04-4.67822E-05-1.96335E-16
 -1      1779 4.35151E-04-6.87835E-05-2.88859E-16
 -1      1780 3.19719E-04-1.97446E-05-1.95360E-16
 -1      1781 3.20457E-04-2.83185E-05-1.96444E-16
 -1      1782 4.31441E-04-4.35279E-05-2.89441E-16
 -1      1783 3.18976E-04-3.28281E-06-1.91809E-16
 -1      1784 3.19231E-04-1.14113E-05-1.93855E-16
 -1      1785 4.29235E-04-2.06107E-05-2.86636E-16
 -1      1786 3.19201E-04 1.29175E-05-1.86063E-16
 -1      1787 3.18965E-04 4.81291E-06-1.89329E-16
 -1      1788 4.28473E-04 1.13436E-06-2.80863E-16
 -1      1789 3.20418E-04 2.97217E-05-1.78107E-16
 -1      1790 3.19678E-04 2.12070E-05-1.82566E-16
 -1      1791 4.29175E-04 2.28180E-05-2.71945E-16
 -1      1792 3.22631E-04 4.77324E-05-1.67048E-16
 -1      1793 3.21384E-04 3.85078E-05-1.73106E-16
 -1      1794 4.31364E-04 4.53820E-05-2.59558E-16
 -1      1795 3.26058E-04 6.86476E-05-1.52005E-16
 -1      1796 3.24163E-04 5.78285E-05-1.60381E-16
 -1      1797 4.35136E-04 7.02347E-05-2.42861E-16
 -1      1798 3.31107E-04 9.36513E-05-1.31622E-16
 -1      1799 3.28308E-04 8.05977E-05-1.42952E-16
 -1      1800 4.40833E-04 9.91152E-05-2.20418E-16
 -1      1801 3.39125E-04 1.25195E-04-1.02701E-16
 -1      1802 3.34538E-04 1.08538E-04-1.18639E-16
 -1      1803 4.49245E-04 1.33917E-04-1.89708E-16
 -1      1804 3.54945E-04 1.68472E-04-6.17182E-17
 -1      1805 3.45566E-04 1.45161E-04-8.44322E-17
 -1      1806 4.63043E-04 1.78137E-04-1.47194E-16
 -1      1807 4.09678E-04 2.24368E-04-3.06016E-17
 -1      1808 3.80601E-04 1.93366E-04-5.00766E-17
 -1      1809 4.99765E-04 2.30813E-04-1.07987E-16
 -1      1810 5.61729E-04 2.88934E-04-7.41865E-17
 -1      1811 3.41895E-04-1.83445E-04-1.05628E-16
 -1      1812 8.60219E-04 3.84573E-04-2.46155E-16
 -1      1813 7.11874E-04 3.41388E-04-1.46218E-16
 -1      1814 6.78622E-04 3.11015E-04-1.67834E-16
 -1      1815 4.62131E-04-2.25638E-04-1.84328E-16
 -1      1816 8.13779E-04-3.53514E-04-4.85777E-16
 -1      1817 9.61136E-04-3.90440E-04-6.75187E-16
 -1      1818 1.10647E-03-4.20848E-04-8.98234E-16
 -1      1819 1.25109E-03-4.45459E-04-1.15579E-15
 -1      1820 1.01382E-03-3.70436E-04-8.20836E-16
 -1      1821 1.39494E-03-4.65679E-04-1.44698E-15
 -1      1822 1.53864E-03-4.81859E-04-1.77169E-15
 -1      1823 1.30472E-03-4.19679E-04-1.34045E-15
 -1      1824 1.68241E-03-4.94973E-04-2.12985E-15
 -1      1825 1.82653E-03-5.05336E-04-2.52077E-15
 -1      1826 1.59409E-03-4.52025E-04-1.99317E-15
 -1      1827 1.97122E-03-5.13666E-04-2.94437E-15
 -1      1828 2.11666E-03-5.20282E-04-3.40095E-15
 -1      1829 1.88382E-03-4.72560E-04-2.77713E-15
 -1      1830 2.26299E-03-5.25781E-04-3.89046E-15
 -1      1831 2.41032E-03-5.30495E-04-4.41265E-15
 -1      1832 2.17540E-03-4.85433E-04-3.69107E-15
 -1      1833 2.55877E-03-5.34982E-04-4.96670E-15
 -1      1834 2.70836E-03-5.39593E-04-5.55342E-15
 -1      1835 2.46995E-03-4.94352E-04-4.73407E-15
 -1      1836 2.85920E-03-5.44889E-04-6.17255E-15
 -1      1837 3.01121E-03-5.51241E-04-6.82344E-15
 -1      1838 2.76831E-03-5.02926E-04-5.90535E-15
 -1      1839 3.16451E-03-5.59217E-04-7.50585E-15
 -1      1840 3.31887E-03-5.69189E-04-8.21898E-15
 -1      1841 3.07103E-03-5.14851E-04-7.20385E-15
 -1      1842 3.47444E-03-5.81694E-04-8.96386E-15
 -1      1843 3.63080E-03-5.97060E-04-9.73997E-15
 -1      1844 3.37834E-03-5.33918E-04-8.62708E-15
 -1      1845 3.78815E-03-6.15688E-04-1.05478E-14
 -1      1846 3.94580E-03-6.37762E-04-1.13872E-14
 -1      1847 3.69011E-03-5.63754E-04-1.01751E-14
 -1      1848 4.10400E-03-6.63377E-04-1.22580E-14
 -1      1849 4.26187E-03-6.92418E-04-1.31616E-14
 -1      1850 4.00557E-03-6.07166E-04-1.18482E-14
 -1      1851 4.41961E-03-7.24459E-04-1.40970E-14
 -1      1852 4.57624E-03-7.58878E-04-1.50647E-14
 -1      1853 4.32312E-03-6.64971E-04-1.36490E-14
 -1      1854 4.73190E-03-7.94552E-04-1.60650E-14
 -1      1855 4.88578E-03-8.30239E-04-1.70986E-14
 -1      1856 4.64016E-03-7.34341E-04-1.55782E-14
 -1      1857 5.03785E-03-8.64135E-04-1.81666E-14
 -1      1858 5.18788E-03-8.94424E-04-1.92687E-14
 -1      1859 4.95337E-03-8.07244E-04-1.76393E-14
 -1      1860 5.33565E-03-9.18997E-04-2.04053E-14
 -1      1861 5.48184E-03-9.36007E-04-2.15779E-14
 -1      1862 5.25977E-03-8.70049E-04-1.98362E-14
 -1      1863 5.62608E-03-9.43700E-04-2.27869E-14
 -1      1864 5.76992E-03-9.40907E-04-2.40295E-14
 -1      1865 5.55859E-03-9.06079E-04-2.21749E-14
 -1      1866 5.91292E-03-9.26992E-04-2.53098E-14
 -1      1867 6.05699E-03-9.02013E-04-2.66260E-14
 -1      1868 5.85249E-03-9.01255E-04-2.46570E-14
 -1      1869 6.20168E-03-8.66733E-04-2.79758E-14
 -1      1870 6.34848E-03-8.22436E-04-2.93610E-14
 -1      1871 6.14683E-03-8.50351E-04-2.72818E-14
 -1      1872 6.49704E-03-7.70934E-04-3.07823E-14
 -1      1873 6.64796E-03-7.14120E-04-3.22353E-14
 -1      1874 6.44680E-03-7.59632E-04-3.00499E-14
 -1      1875 6.80102E-03-6.54117E-04-3.37200E-14
 -1      1876 6.95595E-03-5.92691E-04-3.52379E-14
 -1      1877 6.75477E-03-6.43780E-04-3.29528E-14
 -1      1878 7.11272E-03-5.31599E-04-3.67869E-14
 -1      1879 7.27054E-03-4.72047E-04-3.83666E-14
 -1      1880 7.06968E-03-5.19457E-04-3.59847E-14
 -1      1881 7.42952E-03-4.15106E-04-3.99768E-14
 -1      1882 7.58873E-03-3.61365E-04-4.16167E-14
 -1      1883 7.38853E-03-3.99863E-04-3.91409E-14
 -1      1884 7.74837E-03-3.11222E-04-4.32864E-14
 -1      1885 7.90762E-03-2.64797E-04-4.49853E-14
 -1      1886 7.70810E-03-2.92655E-04-4.24177E-14
 -1      1887 8.06669E-03-2.22008E-04-4.67154E-14
 -1      1888 8.22498E-03-1.82704E-04-4.84731E-14
 -1      1889 8.02595E-03-2.00495E-04-4.58132E-14
 -1      1890 8.38265E-03-1.46542E-04-5.02602E-14
 -1      1891 8.53934E-03-1.13257E-04-5.20757E-14
 -1      1892 8.34064E-03-1.22707E-04-4.93236E-14
 -1      1893 8.69517E-03-8.24170E-05-5.39197E-14
 -1      1894 8.84998E-03-5.37372E-05-5.57910E-14
 -1      1895 8.65151E-03-5.69242E-05-5.29484E-14
 -1      1896 9.00381E-03-2.68041E-05-5.76901E-14
 -1      1897 9.15665E-03-1.36057E-06-5.96141E-14
 -1      1898 8.95843E-03-2.50280E-07-5.66856E-14
 -1      1899 9.30852E-03 2.29373E-05-6.15632E-14
 -1      1900 9.45948E-03 4.63009E-05-6.35371E-14
 -1      1901 9.26159E-03 5.00684E-05-6.05284E-14
 -1      1902 9.60955E-03 6.89902E-05-6.55367E-14
 -1      1903 9.75882E-03 9.11684E-05-6.75577E-14
 -1      1904 9.56136E-03 9.63368E-05-6.44712E-14
 -1      1905 9.90731E-03 1.13017E-04-6.96010E-14
 -1      1906 1.00551E-02 1.34655E-04-7.16682E-14
 -1      1907 9.85816E-03 1.40329E-04-6.85073E-14
 -1      1908 1.02023E-02 1.56200E-04-7.37561E-14
 -1      1909 1.03489E-02 1.77737E-04-7.58627E-14
 -1      1910 1.01524E-02 1.83320E-04-7.26338E-14
 -1      1911 1.04949E-02 1.99331E-04-7.79867E-14
 -1      1912 1.06405E-02 2.21039E-04-8.01254E-14
 -1      1913 1.04446E-02 2.26170E-04-7.68383E-14
 -1      1914 1.07857E-02 2.42893E-04-8.22808E-14
 -1      1915 1.09305E-02 2.64929E-04-8.44522E-14
 -1      1916 1.07352E-02 2.69416E-04-8.11120E-14
 -1      1917 1.10750E-02 2.87154E-04-8.66352E-14
 -1      1918 1.12192E-02 3.09588E-04-8.88328E-14
 -1      1919 1.10244E-02 3.13359E-04-8.54443E-14
 -1      1920 1.13632E-02 3.32226E-04-9.10428E-14
 -1      1921 1.15069E-02 3.55075E-04-9.32657E-14
 -1      1922 1.13125E-02 3.58133E-04-8.98318E-14
 -1      1923 1.16505E-02 3.78123E-04-9.55023E-14
 -1      1924 1.17939E-02 4.01369E-04-9.77504E-14
 -1      1925 1.15999E-02 4.03763E-04-9.42746E-14
 -1      1926 1.19372E-02 4.24796E-04-1.00010E-13
 -1      1927 1.20804E-02 4.48402E-04-1.02280E-13
 -1      1928 1.18867E-02 4.50207E-04-9.87638E-14
 -1      1929 1.22235E-02 4.72165E-04-1.04565E-13
 -1      1930 1.23666E-02 4.96081E-04-1.06860E-13
 -1      1931 1.21731E-02 4.97384E-04-1.03302E-13
 -1      1932 1.25095E-02 5.20131E-04-1.09168E-13
 -1      1933 1.26525E-02 5.44307E-04-1.11488E-13
 -1      1934 1.24592E-02 5.45194E-04-1.07888E-13
 -1      1935 1.27954E-02 5.68592E-04-1.13817E-13
 -1      1936 1.29382E-02 5.92978E-04-1.16153E-13
 -1      1937 1.27451E-02 5.93533E-04-1.12519E-13
 -1      1938 1.30811E-02 6.17450E-04-1.18500E-13
 -1      1939 1.32239E-02 6.42000E-04-1.20851E-13
 -1      1940 1.30309E-02 6.42298E-04-1.17185E-13
 -1      1941 1.33667E-02 6.66613E-04-1.23208E-13
 -1      1942 1.35096E-02 6.91283E-04-1.25573E-13
 -1      1943 1.33166E-02 6.91395E-04-1.21880E-13
 -1      1944 1.36524E-02 7.15996E-04-1.27941E-13
 -1      1945 1.37952E-02 7.40747E-04-1.30309E-13
 -1      1946 1.36023E-02 7.40735E-04-1.26596E-13
 -1      1947 1.39380E-02 7.65523E-04-1.32682E-13
 -1      1948 1.40809E-02 7.90317E-04-1.35059E-13
 -1      1949 1.38880E-02 7.90238E-04-1.31333E-13
 -1      1950 1.42079E-02 8.10865E-04-1.37197E-13
 -1      1951 1.43507E-02 8.35670E-04-1.39576E-13
 -1      1952 1.44119E-02 8.76682E-04-1.40115E-13
 -1      1953 1.41579E-02 8.35576E-04-1.35838E-13
 -1      1954 1.15063E-03 4.48109E-04-5.31544E-16
 -1      1955 1.00592E-03 4.19623E-04-3.74118E-16
 -1      1956 9.73822E-04 3.90307E-04-4.00315E-16
 -1      1957 1.43749E-03 4.89750E-04-9.35070E-16
 -1      1958 1.29412E-03 4.71258E-04-7.18176E-16
 -1      1959 1.26425E-03 4.43140E-04-7.47828E-16
 -1      1960 1.72464E-03 5.15937E-04-1.46089E-15
 -1      1961 1.58079E-03 5.04498E-04-1.18262E-15
 -1      1962 1.55281E-03 4.77158E-04-1.21473E-15
 -1      1963 2.01481E-03 5.31266E-04-2.11037E-15
 -1      1964 1.86918E-03 5.24730E-04-1.77005E-15
 -1      1965 1.84232E-03 4.97751E-04-1.80402E-15
 -1      1966 2.31007E-03 5.39554E-04-2.88364E-15
 -1      1967 2.16167E-03 5.36072E-04-2.48160E-15
 -1      1968 2.13494E-03 5.09087E-04-2.51645E-15
 -1      1969 2.61213E-03 5.44496E-04-3.77893E-15
 -1      1970 2.46013E-03 5.42207E-04-3.31614E-15
 -1      1971 2.43242E-03 5.14867E-04-3.35184E-15
 -1      1972 2.92246E-03 5.50194E-04-4.79633E-15
 -1      1973 2.76614E-03 5.46972E-04-4.27219E-15
 -1      1974 2.73621E-03 5.18895E-04-4.30827E-15
 -1      1975 3.24236E-03 5.61672E-04-5.93400E-15
 -1      1976 3.08111E-03 5.54867E-04-5.35036E-15
 -1      1977 3.04763E-03 5.25593E-04-5.38610E-15
 -1      1978 3.57272E-03 5.85355E-04-7.19235E-15
 -1      1979 3.40617E-03 5.71566E-04-6.54797E-15
 -1      1980 3.36785E-03 5.40514E-04-6.58370E-15
 -1      1981 3.91380E-03 6.29316E-04-8.57219E-15
 -1      1982 3.74196E-03 6.04318E-04-7.86673E-15
 -1      1983 3.69781E-03 5.70774E-04-7.90129E-15
 -1      1984 4.26470E-03 7.02785E-04-1.00737E-14
 -1      1985 4.08825E-03 6.61909E-04-9.30747E-15
 -1      1986 4.03804E-03 6.25113E-04-9.34005E-15
 -1      1987 4.62270E-03 8.13939E-04-1.17045E-14
 -1      1988 4.44333E-03 7.53470E-04-1.08728E-14
 -1      1989 4.38822E-03 7.12938E-04-1.09033E-14
 -1      1990 4.98251E-03 9.64846E-04-1.34656E-14
 -1      1991 4.80319E-03 8.84926E-04-1.25685E-14
 -1      1992 4.74626E-03 8.41137E-04-1.25955E-14
 -1      1993 5.33621E-03 1.14369E-03-1.53631E-14
 -1      1994 5.16105E-03 1.05243E-03-1.43969E-14
 -1      1995 5.10703E-03 1.00771E-03-1.44186E-14
 -1      1996 5.67560E-03 1.31819E-03-1.74045E-14
 -1      1997 5.50812E-03 1.23416E-03-1.63655E-14
 -1      1998 5.46186E-03 1.19275E-03-1.63822E-14
 -1      1999 5.99819E-03 1.44184E-03-1.96023E-14
 -1      2000 5.83836E-03 1.38899E-03-1.84836E-14
 -1      2001 5.80247E-03 1.35477E-03-1.84942E-14
 -1      2002 6.31205E-03 1.47552E-03-2.19620E-14
 -1      2003 6.15455E-03 1.47069E-03-2.07609E-14
 -1      2004 6.12872E-03 1.44425E-03-2.07653E-14
 -1      2005 6.63253E-03 1.41442E-03-2.44871E-14
 -1      2006 6.47004E-03 1.45485E-03-2.32036E-14
 -1      2007 6.45280E-03 1.43229E-03-2.32027E-14
 -1      2008 6.96959E-03 1.29358E-03-2.71794E-14
 -1      2009 6.79860E-03 1.35850E-03-2.58127E-14
 -1      2010 6.78905E-03 1.33498E-03-2.58079E-14
 -1      2011 7.32251E-03 1.16064E-03-3.00262E-14
 -1      2012 7.14458E-03 1.22625E-03-2.85839E-14
 -1      2013 7.14125E-03 1.19973E-03-2.85740E-14
 -1      2014 7.68381E-03 1.05149E-03-3.30187E-14
 -1      2015 7.50294E-03 1.10204E-03-3.15059E-14
 -1      2016 7.50275E-03 1.07282E-03-3.14912E-14
 -1      2017 8.04528E-03 9.81684E-04-3.61461E-14
 -1      2018 7.86521E-03 1.01166E-03-3.45660E-14
 -1      2019 7.86440E-03 9.80820E-04-3.45458E-14
 -1      2020 8.40120E-03 9.51240E-04-3.93890E-14
 -1      2021 8.22438E-03 9.62007E-04-3.77531E-14
 -1      2022 8.21995E-03 9.30401E-04-3.77261E-14
 -1      2023 8.74853E-03 9.52926E-04-4.27459E-14
 -1      2024 8.57616E-03 9.48627E-04-4.10544E-14
 -1      2025 8.56661E-03 9.16747E-04-4.10227E-14
 -1      2026 9.08618E-03 9.77892E-04-4.62062E-14
 -1      2027 8.91863E-03 9.62979E-04-4.44628E-14
 -1      2028 8.90375E-03 9.31105E-04-4.44265E-14
 -1      2029 9.41431E-03 1.01837E-03-4.97701E-14
 -1      2030 9.25140E-03 9.96550E-04-4.79751E-14
 -1      2031 9.23178E-03 9.64849E-04-4.79339E-14
 -1      2032 9.73379E-03 1.06846E-03-5.34333E-14
 -1      2033 9.57505E-03 1.04246E-03-5.15901E-14
 -1      2034 9.55159E-03 1.01104E-03-5.15437E-14
 -1      2035 1.00458E-02 1.12402E-03-5.71934E-14
 -1      2036 9.89062E-03 1.09572E-03-5.53008E-14
 -1      2037 9.86425E-03 1.06462E-03-5.52519E-14
 -1      2038 1.03516E-02 1.18230E-03-6.10422E-14
 -1      2039 1.01994E-02 1.15292E-03-5.91063E-14
 -1      2040 1.01709E-02 1.12217E-03-5.90525E-14
 -1      2041 1.06523E-02 1.24157E-03-6.49789E-14
 -1      2042 1.05025E-02 1.21187E-03-6.30008E-14
 -1      2043 1.04726E-02 1.18146E-03-6.29431E-14
 -1      2044 1.09491E-02 1.30078E-03-6.89998E-14
 -1      2045 1.08011E-02 1.27122E-03-6.69789E-14
 -1      2046 1.07702E-02 1.24110E-03-6.69204E-14
 -1      2047 1.12427E-02 1.35934E-03-7.31085E-14
 -1      2048 1.10962E-02 1.33016E-03-7.10453E-14
 -1      2049 1.10648E-02 1.30031E-03-7.09837E-14
 -1      2050 1.15340E-02 1.41695E-03-7.72958E-14
 -1      2051 1.13886E-02 1.38827E-03-7.51918E-14
 -1      2052 1.13568E-02 1.35864E-03-7.51283E-14
 -1      2053 1.18236E-02 1.47351E-03-8.15541E-14
 -1      2054 1.16790E-02 1.44536E-03-7.94152E-14
 -1      2055 1.16470E-02 1.41592E-03-7.93464E-14
 -1      2056 1.21119E-02 1.52902E-03-8.58862E-14
 -1      2057 1.19679E-02 1.50139E-03-8.37128E-14
 -1      2058 1.19358E-02 1.47210E-03-8.36365E-14
 -1      2059 1.23992E-02 1.58357E-03-9.02779E-14
 -1      2060 1.22556E-02 1.55641E-03-8.80746E-14
 -1      2061 1.22236E-02 1.52724E-03-8.79905E-14
 -1      2062 1.26858E-02 1.63725E-03-9.47270E-14
 -1      2063 1.25426E-02 1.61051E-03-9.24952E-14
 -1      2064 1.25106E-02 1.58144E-03-9.24057E-14
 -1      2065 1.29721E-02 1.69020E-03-9.92376E-14
 -1      2066 1.28290E-02 1.66381E-03-9.69756E-14
 -1      2067 1.27971E-02 1.63481E-03-9.68788E-14
 -1      2068 1.32580E-02 1.74252E-03-1.03794E-13
 -1      2069 1.31150E-02 1.71643E-03-1.01511E-13
 -1      2070 1.30832E-02 1.68749E-03-1.01410E-13
 -1      2071 1.35437E-02 1.79435E-03-1.08383E-13
 -1      2072 1.34009E-02 1.76849E-03-1.06085E-13
 -1      2073 1.33691E-02 1.73959E-03-1.05980E-13
 -1      2074 1.38294E-02 1.84577E-03-1.12999E-13
 -1      2075 1.36866E-02 1.82010E-03-1.10690E-13
 -1      2076 1.36549E-02 1.79123E-03-1.10581E-13
 -1      2077 1.41150E-02 1.89690E-03-1.17630E-13
 -1      2078 1.39722E-02 1.87137E-03-1.15314E-13
 -1      2079 1.39405E-02 1.84251E-03-1.15202E-13
 -1      2080 1.44006E-02 1.94781E-03-1.22261E-13
 -1      2081 1.42578E-02 1.92237E-03-1.19945E-13
 -1      2082 1.42262E-02 1.89353E-03-1.19833E-13
 -1      2083 1.46862E-02 1.99858E-03-1.26895E-13
 -1      2084 1.45434E-02 1.97321E-03-1.24576E-13
 -1      2085 1.45118E-02 1.94436E-03-1.24465E-13
 -1      2086 1.49719E-02 2.04930E-03-1.31535E-13
 -1      2087 1.48290E-02 2.02394E-03-1.29216E-13
 -1      2088 1.47975E-02 1.99510E-03-1.29104E-13
 -1      2089 1.52050E-02 2.08800E-03-1.35373E-13
 -1      2090 1.50622E-02 2.06264E-03-1.33049E-13
 -1      2091 1.50306E-02 2.03380E-03-1.32940E-13
 -1      2092 1.52112E-02 2.06050E-03-1.35966E-13
 -1      2093 1.50403E-02 1.81994E-03-1.36802E-13
 -1      2094 1.50653E-02 1.86212E-03-1.36564E-13
 -1      2095 1.50903E-02 1.90431E-03-1.36324E-13
 -1      2096 1.51153E-02 1.94648E-03-1.36083E-13
 -1      2097 1.49540E-02 1.86129E-03-1.34431E-13
 -1      2098 1.51507E-02 1.98241E-03-1.36149E-13
 -1      2099 1.51757E-02 2.02457E-03-1.35901E-13
 -1      2100 1.50854E-02 2.01123E-03-1.34390E-13
 -1      2101 1.50145E-02 1.93938E-03-1.34259E-13
 -1      2102 1.49913E-02 1.73698E-03-1.37262E-13
 -1      2103 1.50158E-02 1.77846E-03-1.37032E-13
 -1      2104 1.49045E-02 1.77766E-03-1.34899E-13
 -1      2105 1.49416E-02 1.65259E-03-1.37722E-13
 -1      2106 1.49665E-02 1.69479E-03-1.37492E-13
 -1      2107 1.48552E-02 1.69402E-03-1.35354E-13
 -1      2108 1.48920E-02 1.56818E-03-1.38177E-13
 -1      2109 1.49168E-02 1.61038E-03-1.37950E-13
 -1      2110 1.48055E-02 1.60967E-03-1.35807E-13
 -1      2111 1.48426E-02 1.48377E-03-1.38634E-13
 -1      2112 1.48673E-02 1.52598E-03-1.38405E-13
 -1      2113 1.47559E-02 1.52531E-03-1.36259E-13
 -1      2114 1.47933E-02 1.39937E-03-1.39083E-13
 -1      2115 1.48180E-02 1.44157E-03-1.38859E-13
 -1      2116 1.47065E-02 1.44096E-03-1.36708E-13
 -1      2117 1.47442E-02 1.31496E-03-1.39522E-13
 -1      2118 1.47688E-02 1.35716E-03-1.39303E-13
 -1      2119 1.46573E-02 1.35660E-03-1.37150E-13
 -1      2120 1.46960E-02 1.23199E-03-1.39949E-13
 -1      2121 1.47201E-02 1.27348E-03-1.39736E-13
 -1      2122 1.46086E-02 1.27296E-03-1.37581E-13
 -1      2123 1.46472E-02 1.14760E-03-1.40367E-13
 -1      2124 1.46716E-02 1.18980E-03-1.40159E-13
 -1      2125 1.45601E-02 1.18932E-03-1.38001E-13
 -1      2126 1.45984E-02 1.06323E-03-1.40774E-13
 -1      2127 1.46228E-02 1.10541E-03-1.40571E-13
 -1      2128 1.45113E-02 1.10498E-03-1.38411E-13
 -1      2129 1.45498E-02 9.78878E-04-1.41174E-13
 -1      2130 1.45741E-02 1.02105E-03-1.40975E-13
 -1      2131 1.44626E-02 1.02063E-03-1.38813E-13
 -1      2132 7.96759E-03 5.09271E-04-2.97041E-14
 -1      2133 8.09676E-03 4.58576E-04-3.01670E-14
 -1      2134 8.31308E-03 3.62963E-04-3.11949E-14
 -1      2135 8.30252E-03 3.48313E-04-3.12896E-14
 -1      2136 8.21416E-03 4.13998E-04-3.05390E-14
 -1      2137 8.28062E-03 3.88514E-04-3.08125E-14
 -1      2138 7.65067E-03 6.57337E-04-2.85572E-14
 -1      2139 7.82098E-03 5.77184E-04-2.91260E-14
 -1      2140 7.89508E-03 5.22062E-04-2.99591E-14
 -1      2141 7.22986E-03 8.65644E-04-2.72327E-14
 -1      2142 7.42416E-03 7.62712E-04-2.78899E-14
 -1      2143 3.28027E-04-7.94898E-05-1.90223E-16
 -1      2144 3.30738E-04-9.24278E-05-1.85277E-16
 -1      2145 4.48673E-04-1.32155E-04-2.70454E-16
 -1      2146 4.40574E-04-9.77006E-05-2.83261E-16
 -1      2147 6.47127E-03 1.25477E-03-2.39447E-14
 -1      2148 6.63606E-03 1.18634E-03-2.46940E-14
 -1      2149 6.12304E-03 1.31553E-03-2.22684E-14
 -1      2150 6.27507E-03 1.30487E-03-2.30156E-14
 -1      2151 5.77073E-03 1.23350E-03-2.07095E-14
 -1      2152 5.92774E-03 1.28775E-03-2.13634E-14
 -1      2153 5.39233E-03 1.04439E-03-1.94329E-14
 -1      2154 5.57603E-03 1.14745E-03-2.00392E-14
 -1      2155 4.96968E-03 7.94848E-04-1.82869E-14
 -1      2156 5.17243E-03 9.20905E-04-1.88337E-14
 -1      2157 4.53349E-03 5.41325E-04-1.72756E-14
 -1      2158 4.73565E-03 6.50959E-04-1.76673E-14
 -1      2159 4.12572E-03 3.66904E-04-1.67772E-14
 -1      2160 4.29666E-03 4.33939E-04-1.69597E-14
 -1      2161 3.86864E-03 2.67057E-04-1.64382E-14
 -1      2162 3.97895E-03 3.05637E-04-1.65634E-14
 -1      2163 3.74727E-03 2.15358E-04-1.64952E-14
 -1      2164 3.78002E-03 2.33296E-04-1.64441E-14
 -1      2165 3.80362E-03 1.73189E-04-1.66227E-14
 -1      2166 3.75445E-03 1.91903E-04-1.64921E-14
 -1      2167 4.03476E-03 8.39847E-05-1.73574E-14
 -1      2168 3.91289E-03 1.29047E-04-1.70336E-14
 -1      2169 4.34843E-03-4.24150E-05-1.80658E-14
 -1      2170 4.19030E-03 2.40626E-05-1.76935E-14
 -1      2171 4.70523E-03-2.14278E-04-1.90164E-14
 -1      2172 4.53683E-03-1.30933E-04-1.85661E-14
 -1      2173 5.06025E-03-3.97682E-04-2.01015E-14
 -1      2174 4.89780E-03-3.11647E-04-1.95819E-14
 -1      2175 5.39394E-03-5.60495E-04-2.13458E-14
 -1      2176 5.24162E-03-4.88293E-04-2.07566E-14
 -1      2177 5.70835E-03-6.65154E-04-2.27041E-14
 -1      2178 5.56286E-03-6.23597E-04-2.20446E-14
 -1      2179 6.02625E-03-6.81153E-04-2.42611E-14
 -1      2180 5.88763E-03-6.88584E-04-2.35600E-14
 -1      2181 6.31084E-03-6.01821E-04-2.55991E-14
 -1      2182 6.16773E-03-6.52460E-04-2.49252E-14
 -1      2183 6.07576E-03-6.78592E-04-2.46588E-14
 -1      2184 6.67291E-03-4.30505E-04-2.70774E-14
 -1      2185 6.51597E-03-5.13856E-04-2.64492E-14
 -1      2186 7.02152E-03-2.30845E-04-2.83773E-14
 -1      2187 6.85319E-03-3.29651E-04-2.77841E-14
 -1      2188 7.41194E-03-2.50674E-05-2.94801E-14
 -1      2189 7.23556E-03-1.14558E-04-2.90354E-14
 -1      2190 7.76151E-03 1.32909E-04-3.02474E-14
 -1      2191 7.60091E-03 6.19138E-05-2.98939E-14
 -1      2192 8.05132E-03 2.56393E-04-3.10053E-14
 -1      2193 7.92395E-03 2.11694E-04-3.07831E-14
 -1      2194 8.23719E-03 3.17667E-04-3.12352E-14
 -1      2195 8.15629E-03 2.91784E-04-3.11194E-14
 -1      2196 8.09581E-03 2.95559E-04-3.18407E-14
 -1      2197 6.81532E-03 1.10034E-03-2.54763E-14
 -1      2198 6.99170E-03 9.99481E-04-2.62459E-14
 -1      2199 7.53690E-03 6.87052E-04-2.86965E-14
 -1      2200 6.12395E-04-2.82928E-04-2.96475E-16
 -1      2201 6.71153E-03 1.14677E-03-2.52379E-14
 -1      2202 6.69153E-04-2.74747E-04-3.92983E-16
 -1      2203 8.15853E-03 4.25608E-04-3.09240E-14
 -1      2204 8.30679E-03 3.73774E-04-3.16854E-14
 -1      2205 1.44886E-02 9.37850E-04-1.40636E-13
 -1      2206 8.27743E-03 3.45292E-04-3.20154E-14
 -1      2207 7.10101E-03 9.25509E-04-2.70168E-14
 -1      2208 7.83550E-03 2.01885E-04-3.11767E-14
 -1      2209 7.48939E-03 4.47893E-05-3.02146E-14
 -1      2210 7.10513E-03-1.56388E-04-2.91250E-14
 -1      2211 6.37904E-03-5.68026E-04-2.61762E-14
 -1      2212 5.80293E-03-6.88541E-04-2.31338E-14
 -1      2213 5.48987E-03-5.97586E-04-2.15875E-14
 -1      2214 5.16817E-03-4.40500E-04-2.02434E-14
 -1      2215 4.81780E-03-2.51181E-04-1.90385E-14
 -1      2216 4.45165E-03-6.85520E-05-1.79898E-14
 -1      2217 4.11795E-03 6.98979E-05-1.71719E-14
 -1      2218 3.84918E-03 1.60684E-04-1.64366E-14
 -1      2219 3.74001E-03 1.98061E-04-1.60399E-14
 -1      2220 3.81686E-03 2.35580E-04-1.60369E-14
 -1      2221 4.05295E-03 3.10294E-04-1.62370E-14
 -1      2222 4.42477E-03 4.65325E-04-1.67525E-14
 -1      2223 4.87890E-03 7.09682E-04-1.76653E-14
 -1      2224 5.31379E-03 9.78439E-04-1.88691E-14
 -1      2225 5.68944E-03 1.19297E-03-2.01221E-14
 -1      2226 6.37236E-03 1.29066E-03-2.35152E-14
 -1      2227 6.02832E-03 1.31410E-03-2.16810E-14
 -1      2228 6.73430E-03-3.74341E-04-2.77459E-14
 -1      2229 1.02719E-03 3.69895E-04-5.35027E-16
 -1      2230 8.80512E-04 3.38309E-04-3.82764E-16
 -1      2231 5.42814E-04-4.66857E-05-4.09896E-16
 -1      2232 5.44856E-04-6.14700E-05-4.10655E-16
 -1      2233 5.47448E-04-7.71015E-05-4.10357E-16
 -1      2234 5.50589E-04-9.36642E-05-4.08771E-16
 -1      2235 6.60541E-04-8.18654E-05-5.55735E-16
 -1      2236 5.39661E-04 8.12880E-06-3.95652E-16
 -1      2237 5.39692E-04-5.23149E-06-4.00830E-16
 -1      2238 5.41142E-04 3.52407E-05-3.82439E-16
 -1      2239 5.40144E-04 2.15865E-05-3.89689E-16
 -1      2240 6.52332E-04 1.76662E-05-5.32113E-16
 -1      2241 5.44679E-04 6.34949E-05-3.64441E-16
 -1      2242 5.42654E-04 4.91028E-05-3.74307E-16
 -1      2243 6.54908E-04 4.98250E-05-5.13451E-16
 -1      2244 5.50567E-04 9.53975E-05-3.40074E-16
 -1      2245 5.47330E-04 7.89732E-05-3.53165E-16
 -1      2246 6.60261E-04 8.42236E-05-4.88298E-16
 -1      2247 5.59269E-04 1.32352E-04-3.07791E-16
 -1      2248 5.54542E-04 1.13152E-04-3.25166E-16
 -1      2249 6.68745E-04 1.22972E-04-4.54701E-16
 -1      2250 5.72138E-04 1.76887E-04-2.64274E-16
 -1      2251 5.65117E-04 1.53533E-04-2.87829E-16
 -1      2252 6.81065E-04 1.67904E-04-4.10628E-16
 -1      2253 1.31826E-03 4.16828E-04-9.25936E-16
 -1      2254 1.17290E-03 3.95953E-04-7.15573E-16
 -1      2255 1.08256E-03 3.48747E-04-6.77884E-16
 -1      2256 9.23522E-04-3.20767E-04-7.42150E-16
 -1      2257 1.06952E-03-3.49732E-04-9.71391E-16
 -1      2258 6.63555E-03 1.19154E-03-2.50082E-14
 -1      2259 6.78440E-03 1.10724E-03-2.58000E-14
 -1      2260 1.21496E-03-3.73714E-04-1.23359E-15
 -1      2261 1.36029E-03-3.93175E-04-1.52898E-15
 -1      2262 1.12666E-03-3.28265E-04-1.12730E-15
 -1      2263 1.50532E-03-4.09013E-04-1.85682E-15
 -1      2264 1.65040E-03-4.21548E-04-2.21745E-15
 -1      2265 1.41688E-03-3.66189E-04-1.72131E-15
 -1      2266 1.79556E-03-4.31536E-04-2.61043E-15
 -1      2267 1.94101E-03-4.39277E-04-3.03548E-15
 -1      2268 1.70707E-03-3.90713E-04-2.44455E-15
 -1      2269 2.08686E-03-4.45404E-04-3.49270E-15
 -1      2270 2.23324E-03-4.50223E-04-3.98238E-15
 -1      2271 1.99787E-03-4.05737E-04-3.29618E-15
 -1      2272 2.38028E-03-4.54299E-04-4.50326E-15
 -1      2273 2.52807E-03-4.57967E-04-5.05630E-15
 -1      2274 2.29013E-03-4.14839E-04-4.27429E-15
 -1      2275 2.67673E-03-4.61768E-04-5.64082E-15
 -1      2276 2.82633E-03-4.66074E-04-6.25707E-15
 -1      2277 2.58472E-03-4.21452E-04-5.37879E-15
 -1      2278 2.97702E-03-4.71425E-04-6.90463E-15
 -1      2279 3.12876E-03-4.78240E-04-7.58341E-15
 -1      2280 2.88258E-03-4.29063E-04-6.60802E-15
 -1      2281 3.28180E-03-4.87040E-04-8.29299E-15
 -1      2282 3.43596E-03-4.98277E-04-9.03388E-15
 -1      2283 3.18470E-03-4.41340E-04-7.96222E-15
 -1      2284 3.59155E-03-5.12399E-04-9.80520E-15
 -1      2285 3.74821E-03-5.29835E-04-1.06079E-14
 -1      2286 3.49210E-03-4.62119E-04-9.43908E-15
 -1      2287 3.90632E-03-5.50850E-04-1.14425E-14
 -1      2288 4.06526E-03-5.75708E-04-1.23076E-14
 -1      2289 3.80558E-03-4.95138E-04-1.10396E-14
 -1      2290 4.22538E-03-6.04324E-04-1.32042E-14
 -1      2291 4.38579E-03-6.36551E-04-1.41338E-14
 -1      2292 4.12531E-03-5.43317E-04-1.27644E-14
 -1      2293 4.54671E-03-6.71765E-04-1.50952E-14
 -1      2294 4.70707E-03-7.09034E-04-1.60892E-14
 -1      2295 4.45012E-03-6.07355E-04-1.46157E-14
 -1      2296 4.86682E-03-7.47040E-04-1.71161E-14
 -1      2297 5.02511E-03-7.83928E-04-1.81770E-14
 -1      2298 4.77673E-03-6.83467E-04-1.65973E-14
 -1      2299 5.18163E-03-8.17760E-04-1.92724E-14
 -1      2300 5.33623E-03-8.45789E-04-2.04019E-14
 -1      2301 5.10011E-03-7.61086E-04-1.87115E-14
 -1      2302 5.48847E-03-8.66023E-04-2.15677E-14
 -1      2303 5.63944E-03-8.76053E-04-2.27696E-14
 -1      2304 5.41564E-03-8.21997E-04-2.09648E-14
 -1      2305 5.78865E-03-8.74513E-04-2.40079E-14
 -1      2306 5.93823E-03-8.60444E-04-2.52825E-14
 -1      2307 5.72258E-03-8.45469E-04-2.33618E-14
 -1      2308 6.08773E-03-8.33935E-04-2.65929E-14
 -1      2309 6.23911E-03-7.96142E-04-2.79383E-14
 -1      2310 6.02615E-03-8.17104E-04-2.59049E-14
 -1      2311 6.39191E-03-7.48461E-04-2.93197E-14
 -1      2312 6.54716E-03-6.93433E-04-3.07373E-14
 -1      2313 6.33398E-03-7.37893E-04-2.85938E-14
 -1      2314 6.70438E-03-6.33162E-04-3.21885E-14
 -1      2315 6.86335E-03-5.70258E-04-3.36707E-14
 -1      2316 6.65073E-03-6.22956E-04-3.14242E-14
 -1      2317 7.02378E-03-5.06614E-04-3.51850E-14
 -1      2318 7.18476E-03-4.44040E-04-3.67314E-14
 -1      2319 6.97522E-03-4.93548E-04-3.43883E-14
 -1      2320 7.34629E-03-3.83797E-04-3.83080E-14
 -1      2321 7.50732E-03-3.26733E-04-3.99152E-14
 -1      2322 7.30258E-03-3.67044E-04-3.74770E-14
 -1      2323 7.66809E-03-2.73445E-04-4.15533E-14
 -1      2324 7.82774E-03-2.24054E-04-4.32191E-14
 -1      2325 7.62796E-03-2.53471E-04-4.06898E-14
 -1      2326 7.98663E-03-1.78652E-04-4.49137E-14
 -1      2327 8.14419E-03-1.36989E-04-4.66388E-14
 -1      2328 7.94833E-03-1.56268E-04-4.40191E-14
 -1      2329 8.30076E-03-9.88476E-05-4.83917E-14
 -1      2330 8.45604E-03-6.38456E-05-5.01726E-14
 -1      2331 8.26270E-03-7.47646E-05-4.74621E-14
 -1      2332 8.61029E-03-3.16264E-05-5.19819E-14
 -1      2333 8.76340E-03-1.80904E-06-5.38196E-14
 -1      2334 8.57131E-03-6.38627E-06-5.10190E-14
 -1      2335 8.91553E-03 2.59893E-05-5.56851E-14
 -1      2336 9.06669E-03 5.20936E-05-5.75784E-14
 -1      2337 8.87497E-03 5.19835E-05-5.46890E-14
 -1      2338 9.21698E-03 7.68482E-05-5.94972E-14
 -1      2339 9.36647E-03 1.00508E-04-6.14399E-14
 -1      2340 9.17462E-03 1.03289E-04-5.84679E-14
 -1      2341 9.51520E-03 1.23350E-04-6.34076E-14
 -1      2342 9.66328E-03 1.45563E-04-6.54019E-14
 -1      2343 9.47107E-03 1.50003E-04-6.23503E-14
 -1      2344 9.81072E-03 1.67354E-04-6.74172E-14
 -1      2345 9.95763E-03 1.88856E-04-6.94546E-14
 -1      2346 9.76502E-03 1.94044E-04-6.63281E-14
 -1      2347 1.01040E-02 2.10210E-04-7.15140E-14
 -1      2348 1.02500E-02 2.31508E-04-7.35947E-14
 -1      2349 1.00570E-02 2.36813E-04-7.03986E-14
 -1      2350 1.03955E-02 2.52838E-04-7.56953E-14
 -1      2351 1.05407E-02 2.74258E-04-7.78116E-14
 -1      2352 1.03475E-02 2.79273E-04-7.45539E-14
 -1      2353 1.06855E-02 2.95818E-04-7.99442E-14
 -1      2354 1.08301E-02 3.17553E-04-8.20931E-14
 -1      2355 1.06367E-02 3.22042E-04-7.87817E-14
 -1      2356 1.09744E-02 3.39484E-04-8.42564E-14
 -1      2357 1.11184E-02 3.61629E-04-8.64336E-14
 -1      2358 1.09250E-02 3.65478E-04-8.30708E-14
 -1      2359 1.12623E-02 3.83991E-04-8.86242E-14
 -1      2360 1.14061E-02 4.06577E-04-9.08292E-14
 -1      2361 1.12126E-02 4.09758E-04-8.74194E-14
 -1      2362 1.15496E-02 4.29378E-04-9.30462E-14
 -1      2363 1.16931E-02 4.52394E-04-9.52782E-14
 -1      2364 1.14997E-02 4.54932E-04-9.18237E-14
 -1      2365 1.18364E-02 4.75608E-04-9.75232E-14
 -1      2366 1.19797E-02 4.99018E-04-9.97767E-14
 -1      2367 1.17863E-02 5.00972E-04-9.62798E-14
 -1      2368 1.21228E-02 5.22603E-04-1.02043E-13
 -1      2369 1.22659E-02 5.46358E-04-1.04321E-13
 -1      2370 1.20727E-02 5.47802E-04-1.00787E-13
 -1      2371 1.24090E-02 5.70264E-04-1.06609E-13
 -1      2372 1.25520E-02 5.94311E-04-1.08912E-13
 -1      2373 1.23588E-02 5.95323E-04-1.05336E-13
 -1      2374 1.26949E-02 6.18483E-04-1.11223E-13
 -1      2375 1.28379E-02 6.42770E-04-1.13544E-13
 -1      2376 1.26448E-02 6.43429E-04-1.09931E-13
 -1      2377 1.29808E-02 6.67156E-04-1.15875E-13
 -1      2378 1.31237E-02 6.91632E-04-1.18211E-13
 -1      2379 1.29306E-02 6.92014E-04-1.14566E-13
 -1      2380 1.32665E-02 7.16184E-04-1.20557E-13
 -1      2381 1.34094E-02 7.40804E-04-1.22904E-13
 -1      2382 1.32164E-02 7.40976E-04-1.19234E-13
 -1      2383 1.35523E-02 7.65478E-04-1.25258E-13
 -1      2384 1.36951E-02 7.90199E-04-1.27618E-13
 -1      2385 1.35022E-02 7.90224E-04-1.23923E-13
 -1      2386 1.38380E-02 8.14956E-04-1.29981E-13
 -1      2387 1.39808E-02 8.39740E-04-1.32348E-13
 -1      2388 1.37879E-02 8.39674E-04-1.28634E-13
 -1      2389 1.89912E-03 4.64190E-04-2.06844E-15
 -1      2390 1.75346E-03 4.56760E-04-1.73707E-15
 -1      2391 2.19243E-03 4.73283E-04-2.82295E-15
 -1      2392 2.04536E-03 4.69590E-04-2.43032E-15
 -1      2393 1.95495E-03 4.30489E-04-2.33961E-15
 -1      2394 2.48958E-03 4.77581E-04-3.69895E-15
 -1      2395 2.34042E-03 4.75824E-04-3.24571E-15
 -1      2396 2.24779E-03 4.37601E-04-3.13554E-15
 -1      2397 2.79180E-03 4.80930E-04-4.69622E-15
 -1      2398 2.63995E-03 4.79134E-04-4.18253E-15
 -1      2399 2.54344E-03 4.40717E-04-4.05225E-15
 -1      2400 3.10028E-03 4.87875E-04-5.81359E-15
 -1      2401 2.94515E-03 4.83652E-04-5.23964E-15
 -1      2402 2.84293E-03 4.43679E-04-5.08949E-15
 -1      2403 3.41629E-03 5.04162E-04-7.04974E-15
 -1      2404 3.25725E-03 4.94456E-04-6.41672E-15
 -1      2405 3.14744E-03 4.51082E-04-6.24610E-15
 -1      2406 3.74128E-03 5.37137E-04-8.40591E-15
 -1      2407 3.57762E-03 5.18045E-04-7.71270E-15
 -1      2408 3.45853E-03 4.68739E-04-7.52116E-15
 -1      2409 4.07691E-03 5.95771E-04-9.88287E-15
 -1      2410 3.90783E-03 5.62606E-04-9.12908E-15
 -1      2411 3.77850E-03 5.04085E-04-8.91504E-15
 -1      2412 4.42465E-03 6.89698E-04-1.14838E-14
 -1      2413 4.24956E-03 6.37670E-04-1.06672E-14
 -1      2414 4.11049E-03 5.66280E-04-1.04299E-14
 -1      2415 4.78427E-03 8.25825E-04-1.32126E-14
 -1      2416 4.60363E-03 7.52222E-04-1.23321E-14
 -1      2417 4.45801E-03 6.65538E-04-1.20680E-14
 -1      2418 5.15151E-03 1.00119E-03-1.50745E-14
 -1      2419 4.96809E-03 9.09340E-04-1.41266E-14
 -1      2420 4.82262E-03 8.09387E-04-1.38339E-14
 -1      2421 5.51569E-03 1.19240E-03-1.70765E-14
 -1      2422 5.33523E-03 1.09757E-03-1.60573E-14
 -1      2423 5.19949E-03 9.95180E-04-1.57319E-14
 -1      2424 5.86514E-03 1.35064E-03-1.92311E-14
 -1      2425 5.69197E-03 1.27965E-03-1.81342E-14
 -1      2426 5.57360E-03 1.19409E-03-1.77736E-14
 -1      2427 6.19966E-03 1.42077E-03-2.15480E-14
 -1      2428 6.03180E-03 1.40003E-03-2.03687E-14
 -1      2429 5.93015E-03 1.34801E-03-1.99708E-14
 -1      2430 6.53719E-03 1.37805E-03-2.40347E-14
 -1      2431 6.36624E-03 1.41218E-03-2.27710E-14
 -1      2432 6.27559E-03 1.39095E-03-2.23355E-14
 -1      2433 6.88962E-03 1.25600E-03-2.66885E-14
 -1      2434 6.71072E-03 1.32294E-03-2.53405E-14
 -1      2435 6.62861E-03 1.31341E-03-2.48712E-14
 -1      2436 7.25580E-03 1.11256E-03-2.94987E-14
 -1      2437 7.07206E-03 1.18350E-03-2.80742E-14
 -1      2438 6.99899E-03 1.16847E-03-2.75722E-14
 -1      2439 7.62347E-03 9.92019E-04-3.24554E-14
 -1      2440 7.44077E-03 1.04777E-03-3.09593E-14
 -1      2441 7.37744E-03 1.02224E-03-3.04279E-14
 -1      2442 7.98288E-03 9.13247E-04-3.55469E-14
 -1      2443 7.80499E-03 9.47271E-04-3.39850E-14
 -1      2444 7.74773E-03 9.12831E-04-3.34241E-14
 -1      2445 8.33060E-03 8.76350E-04-3.87572E-14
 -1      2446 8.15851E-03 8.90030E-04-3.71377E-14
 -1      2447 8.10193E-03 8.49486E-04-3.65484E-14
 -1      2448 8.66694E-03 8.73644E-04-4.20837E-14
 -1      2449 8.50023E-03 8.71325E-04-4.04063E-14
 -1      2450 8.44010E-03 8.26550E-04-3.97913E-14
 -1      2451 8.99352E-03 8.95841E-04-4.55153E-14
 -1      2452 8.83138E-03 8.82160E-04-4.37868E-14
 -1      2453 8.76554E-03 8.34354E-04-4.31468E-14
 -1      2454 9.31201E-03 9.34798E-04-4.90510E-14
 -1      2455 9.15367E-03 9.13634E-04-4.72710E-14
 -1      2456 9.08165E-03 8.63691E-04-4.66079E-14
 -1      2457 9.62381E-03 9.84273E-04-5.26888E-14
 -1      2458 9.46863E-03 9.58517E-04-5.08577E-14
 -1      2459 9.39098E-03 9.07173E-04-5.01712E-14
 -1      2460 9.93009E-03 1.03983E-03-5.64212E-14
 -1      2461 9.77754E-03 1.01150E-03-5.45427E-14
 -1      2462 9.69521E-03 9.59347E-04-5.38344E-14
 -1      2463 1.02318E-02 1.09849E-03-6.02471E-14
 -1      2464 1.00814E-02 1.06891E-03-5.83228E-14
 -1      2465 9.99548E-03 1.01641E-03-5.75941E-14
 -1      2466 1.05298E-02 1.15834E-03-6.41642E-14
 -1      2467 1.03812E-02 1.12835E-03-6.21955E-14
 -1      2468 1.02926E-02 1.07581E-03-6.14454E-14
 -1      2469 1.08248E-02 1.21820E-03-6.81643E-14
 -1      2470 1.06776E-02 1.18832E-03-6.61534E-14
 -1      2471 1.05871E-02 1.13594E-03-6.53859E-14
 -1      2472 1.11174E-02 1.27742E-03-7.22500E-14
 -1      2473 1.09714E-02 1.24793E-03-7.01959E-14
 -1      2474 1.08795E-02 1.19581E-03-6.94103E-14
 -1      2475 1.14082E-02 1.33565E-03-7.64144E-14
 -1      2476 1.12630E-02 1.30668E-03-7.43227E-14
 -1      2477 1.11703E-02 1.25488E-03-7.35155E-14
 -1      2478 1.16975E-02 1.39276E-03-8.06493E-14
 -1      2479 1.15530E-02 1.36435E-03-7.85232E-14
 -1      2480 1.14597E-02 1.31289E-03-7.76990E-14
 -1      2481 1.19857E-02 1.44876E-03-8.49552E-14
 -1      2482 1.18417E-02 1.42090E-03-8.27938E-14
 -1      2483 1.17482E-02 1.36976E-03-8.19527E-14
 -1      2484 1.22731E-02 1.50370E-03-8.93201E-14
 -1      2485 1.21295E-02 1.47636E-03-8.71308E-14
 -1      2486 1.20358E-02 1.42550E-03-8.62710E-14
 -1      2487 1.25599E-02 1.55772E-03-9.37477E-14
 -1      2488 1.24166E-02 1.53082E-03-9.15272E-14
 -1      2489 1.23228E-02 1.48021E-03-9.06500E-14
 -1      2490 1.28463E-02 1.61093E-03-9.82335E-14
 -1      2491 1.27032E-02 1.58442E-03-9.59814E-14
 -1      2492 1.26094E-02 1.53402E-03-9.50902E-14
 -1      2493 1.31324E-02 1.66346E-03-1.02770E-13
 -1      2494 1.29894E-02 1.63727E-03-1.00497E-13
 -1      2495 1.28957E-02 1.58705E-03-9.95843E-14
 -1      2496 1.34183E-02 1.71544E-03-1.07343E-13
 -1      2497 1.32754E-02 1.68951E-03-1.05053E-13
 -1      2498 1.31817E-02 1.63943E-03-1.04129E-13
 -1      2499 1.37041E-02 1.76698E-03-1.11952E-13
 -1      2500 1.35612E-02 1.74126E-03-1.09646E-13
 -1      2501 1.34676E-02 1.69128E-03-1.08711E-13
 -1      2502 1.39898E-02 1.81819E-03-1.16574E-13
 -1      2503 1.38470E-02 1.79262E-03-1.14260E-13
 -1      2504 1.37534E-02 1.74272E-03-1.13319E-13
 -1      2505 1.42755E-02 1.86915E-03-1.21205E-13
 -1      2506 1.41327E-02 1.84369E-03-1.18889E-13
 -1      2507 1.40391E-02 1.79385E-03-1.17943E-13
 -1      2508 1.45612E-02 1.91995E-03-1.25838E-13
 -1      2509 1.44183E-02 1.89456E-03-1.23521E-13
 -1      2510 1.43248E-02 1.84476E-03-1.22575E-13
 -1      2511 1.48469E-02 1.97066E-03-1.30481E-13
 -1      2512 1.47040E-02 1.94531E-03-1.28159E-13
 -1      2513 1.46106E-02 1.89552E-03-1.27213E-13
 -1      2514 1.49951E-02 1.99788E-03-1.32874E-13
 -1      2515 1.47190E-02 1.65108E-03-1.33445E-13
 -1      2516 1.47439E-02 1.69324E-03-1.33220E-13
 -1      2517 1.46693E-02 1.56677E-03-1.33893E-13
 -1      2518 1.46942E-02 1.60892E-03-1.33668E-13
 -1      2519 1.45828E-02 1.60816E-03-1.31534E-13
 -1      2520 1.48178E-02 1.81829E-03-1.32535E-13
 -1      2521 1.48428E-02 1.86045E-03-1.32297E-13
 -1      2522 1.47686E-02 1.73504E-03-1.32994E-13
 -1      2523 1.47931E-02 1.77648E-03-1.32765E-13
 -1      2524 1.46818E-02 1.77565E-03-1.30634E-13
 -1      2525 1.46324E-02 1.69208E-03-1.31088E-13
 -1      2526 1.46198E-02 1.48246E-03-1.34340E-13
 -1      2527 1.46446E-02 1.52462E-03-1.34117E-13
 -1      2528 1.45332E-02 1.52390E-03-1.31979E-13
 -1      2529 1.45705E-02 1.39816E-03-1.34781E-13
 -1      2530 1.45952E-02 1.44031E-03-1.34561E-13
 -1      2531 1.44838E-02 1.43964E-03-1.32421E-13
 -1      2532 1.45213E-02 1.31386E-03-1.35218E-13
 -1      2533 1.45459E-02 1.35601E-03-1.35000E-13
 -1      2534 1.44345E-02 1.35540E-03-1.32856E-13
 -1      2535 1.44731E-02 1.23099E-03-1.35637E-13
 -1      2536 1.44972E-02 1.27242E-03-1.35427E-13
 -1      2537 1.43857E-02 1.27186E-03-1.33281E-13
 -1      2538 1.44241E-02 1.14668E-03-1.36052E-13
 -1      2539 1.44486E-02 1.18883E-03-1.35847E-13
 -1      2540 1.43371E-02 1.18832E-03-1.33696E-13
 -1      2541 1.43754E-02 1.06236E-03-1.36457E-13
 -1      2542 1.43997E-02 1.10452E-03-1.36256E-13
 -1      2543 1.42882E-02 1.10405E-03-1.34105E-13
 -1      2544 1.43267E-02 9.78044E-04-1.36854E-13
 -1      2545 1.43510E-02 1.02020E-03-1.36654E-13
 -1      2546 1.42394E-02 1.01976E-03-1.34504E-13
 -1      2547 8.29292E-03 3.83960E-04-3.23060E-14
 -1      2548 8.32888E-03 3.75729E-04-3.26938E-14
 -1      2549 8.11384E-03 4.35044E-04-3.15374E-14
 -1      2550 8.22137E-03 4.05031E-04-3.19212E-14
 -1      2551 8.27370E-03 3.98966E-04-3.29286E-14
 -1      2552 8.31375E-03 3.61265E-04-3.28794E-14
 -1      2553 8.24880E-03 3.48325E-04-3.28219E-14
 -1      2554 1.60827E-03 4.46674E-04-1.43655E-15
 -1      2555 1.46324E-03 4.33631E-04-1.16614E-15
 -1      2556 1.66388E-03 4.15839E-04-1.66542E-15
 -1      2557 1.43615E-02 9.17291E-04-1.38496E-13
 -1      2558 7.81359E-03 5.47175E-04-3.02257E-14
 -1      2559 7.95237E-03 4.92481E-04-3.08173E-14
 -1      2560 6.98352E-03 9.92229E-04-2.68372E-14
 -1      2561 7.19344E-03 8.65873E-04-2.78412E-14
 -1      2562 7.88488E-03 2.38961E-04-3.20528E-14
 -1      2563 7.72623E-03 1.75698E-04-3.15044E-14
 -1      2564 5.85225E-03-7.02895E-04-2.34543E-14
 -1      2565 5.71067E-03-6.79227E-04-2.26033E-14
 -1      2566 5.40231E-04-1.87327E-05-4.04800E-16
 -1      2567 5.41267E-04-3.24694E-05-4.07877E-16
 -1      2568 6.55167E-04-4.67781E-05-5.53309E-16
 -1      2569 6.52431E-04-1.41138E-05-5.45408E-16
 -1      2570 5.96278E-03 1.30686E-03-2.11305E-14
 -1      2571 6.11914E-03 1.33480E-03-2.20294E-14
 -1      2572 6.78322E-03-3.24852E-04-2.84968E-14
 -1      2573 6.62857E-03-4.22346E-04-2.77775E-14
 -1      2574 6.30549E-03 1.31961E-03-2.31261E-14
 -1      2575 6.46358E-03 1.26907E-03-2.40609E-14
 -1      2576 5.60554E-03 1.14275E-03-1.94632E-14
 -1      2577 5.76074E-03 1.22940E-03-2.01171E-14
 -1      2578 5.23024E-03 9.08238E-04-1.81993E-14
 -1      2579 5.41491E-03 1.02850E-03-1.87806E-14
 -1      2580 4.81024E-03 6.46465E-04-1.70020E-14
 -1      2581 5.02618E-03 7.78761E-04-1.76041E-14
 -1      2582 4.31046E-03 3.93062E-04-1.60942E-14
 -1      2583 4.52228E-03 4.90421E-04-1.63925E-14
 -1      2584 3.98976E-03 2.74821E-04-1.57268E-14
 -1      2585 4.12917E-03 3.22052E-04-1.59312E-14
 -1      2586 3.76658E-03 2.12146E-04-1.55119E-14
 -1      2587 3.84685E-03 2.29788E-04-1.55028E-14
 -1      2588 3.72986E-03 1.90512E-04-1.55005E-14
 -1      2589 3.73035E-03 1.98247E-04-1.55063E-14
 -1      2590 3.73119E-03 1.97574E-04-1.49789E-14
 -1      2591 3.91172E-03 1.43234E-04-1.61369E-14
 -1      2592 3.80239E-03 1.67571E-04-1.57398E-14
 -1      2593 4.16484E-03 6.03511E-05-1.67694E-14
 -1      2594 4.02601E-03 1.07714E-04-1.64504E-14
 -1      2595 3.94375E-03 1.22476E-04-1.57457E-14
 -1      2596 4.54545E-03-1.03416E-04-1.78764E-14
 -1      2597 4.37296E-03-2.42453E-05-1.73929E-14
 -1      2598 4.90710E-03-2.92007E-04-1.89740E-14
 -1      2599 4.73837E-03-1.99798E-04-1.84252E-14
 -1      2600 5.25833E-03-4.87187E-04-2.03418E-14
 -1      2601 5.10376E-03-3.99761E-04-1.96995E-14
 -1      2602 5.55954E-03-6.31607E-04-2.17935E-14
 -1      2603 5.42220E-03-5.68981E-04-2.11032E-14
 -1      2604 6.13550E-03-6.67133E-04-2.52422E-14
 -1      2605 6.02766E-03-6.94995E-04-2.45726E-14
 -1      2606 6.45130E-03-5.22228E-04-2.69486E-14
 -1      2607 6.28890E-03-6.07752E-04-2.60867E-14
 -1      2608 6.22391E-03-6.35414E-04-2.59926E-14
 -1      2609 7.18420E-03-8.71056E-05-3.00428E-14
 -1      2610 6.99494E-03-1.97903E-04-2.93676E-14
 -1      2611 7.56585E-03 1.04844E-04-3.10720E-14
 -1      2612 7.39571E-03 2.34383E-05-3.06437E-14
 -1      2613 7.64122E-03 1.46960E-04-3.19394E-14
 -1      2614 8.15393E-03 3.23520E-04-3.26803E-14
 -1      2615 8.05664E-03 2.98698E-04-3.25582E-14
 -1      2616 5.93234E-04-2.21654E-04-3.58762E-16
 -1      2617 7.88023E-04-2.83053E-04-5.67634E-16
 -1      2618 8.47291E-04-2.69600E-04-6.86368E-16
 -1      2619 5.83051E-04-1.93668E-04-3.76936E-16
 -1      2620 7.64718E-04 3.12919E-04-2.74561E-16
 -1      2621 6.16611E-04 2.68101E-04-1.73933E-16
 -1      2622 5.89762E-04 2.41584E-04-1.87404E-16
 -1      2623 8.21202E-04 2.98998E-04-3.79200E-16
 -1      2624 7.43017E-03 7.33336E-04-2.88445E-14
 -1      2625 7.62681E-03 6.32663E-04-2.95311E-14
 -1      2626 7.71475E-03 5.97984E-04-3.03779E-14
 -1      2627 6.22204E-03 1.33797E-03-2.25480E-14
 -1      2628 6.68768E-04-1.20928E-04-5.51114E-16
 -1      2629 5.54419E-04-1.11444E-04-4.05031E-16
 -1      2630 5.58886E-04-1.30627E-04-3.99095E-16
 -1      2631 1.37345E-03 3.89992E-04-1.11227E-15
 -1      2632 5.76914E-04 2.11109E-04-2.20540E-16
 -1      2633 7.31188E-03 8.08590E-04-2.86579E-14
 -1      2634 6.90285E-03 1.05009E-03-2.65981E-14
 -1      2635 5.74960E-04-1.68749E-04-3.90421E-16
 -1      2636 8.05331E-03 4.62292E-04-3.18084E-14
 -1      2637 6.52575E-03-4.78652E-04-2.76810E-14
 -1      2638 1.49017E-02 1.94809E-03-1.31928E-13
 -1      2639 1.48662E-02 1.91217E-03-1.31862E-13
 -1      2640 6.88812E-03-2.57773E-04-2.93964E-14
 -1      2641 8.36106E-03 3.84528E-04-3.41345E-14
 -1      2642 8.34433E-03 3.74431E-04-3.35055E-14
 -1      2643 8.34741E-03 3.76362E-04-3.43216E-14
 -1      2644 8.22553E-03 3.46448E-04-3.35469E-14
 -1      2645 5.62661E-03-6.61393E-04-2.21003E-14
 -1      2646 6.94839E-04 2.30677E-04-3.32552E-16
 -1      2647 5.33380E-03-5.33845E-04-2.05387E-14
 -1      2648 4.99815E-03-3.50821E-04-1.90659E-14
 -1      2649 7.97096E-03 2.74040E-04-3.28897E-14
 -1      2650 4.24465E-03 2.08258E-05-1.66581E-14
 -1      2651 3.74260E-03 1.75712E-04-1.52071E-14
 -1      2652 3.70015E-03 1.75024E-04-1.46832E-14
 -1      2653 3.76809E-03 1.58061E-04-1.49126E-14
 -1      2654 3.89738E-03 2.41154E-04-1.52031E-14
 -1      2655 4.21737E-03 3.50753E-04-1.55807E-14
 -1      2656 4.66341E-03 5.59037E-04-1.63279E-14
 -1      2657 4.78524E-03 6.32746E-04-1.62588E-14
 -1      2658 4.52272E-03 4.90244E-04-1.56705E-14
 -1      2659 5.13032E-03 8.42113E-04-1.75139E-14
 -1      2660 5.50127E-03 1.08069E-03-1.87713E-14
 -1      2661 5.92930E-03-7.07561E-04-2.40169E-14
 -1      2662 6.55305E-03 1.24029E-03-2.46030E-14
 -1      2663 5.86584E-03 1.27669E-03-2.04433E-14
 -1      2664 4.63263E-03-1.53901E-04-1.78124E-14
 -1      2665 1.42039E-02 8.76223E-04-1.36089E-13
 -1      2666 1.42806E-02 9.37385E-04-1.36605E-13
 -1      2667 1.41690E-02 9.36962E-04-1.34452E-13
 -1      2668 1.40769E-02 8.55669E-04-1.33955E-13
 -1      2669 7.28636E-03-2.70504E-05-3.08895E-14
 -1      2670 1.47300E-02 1.86916E-03-1.29972E-13
 -1      2671 1.40269E-02 8.80379E-04-1.32598E-13
 -1      2672 7.70632E-04 6.66076E-05-6.63816E-16
 -1      2673 7.68205E-04 4.79068E-05-6.77410E-16
 -1      2674 7.66580E-04 2.93537E-05-6.89160E-16
 -1      2675 7.65826E-04 1.11059E-05-6.99229E-16
 -1      2676 8.82306E-04 4.30977E-05-8.65952E-16
 -1      2677 7.89829E-04 1.52266E-04-5.85632E-16
 -1      2678 7.83544E-04 1.28866E-04-6.09416E-16
 -1      2679 8.06273E-04 2.04688E-04-5.28345E-16
 -1      2680 7.97413E-04 1.77463E-04-5.59055E-16
 -1      2681 9.13632E-04 1.82847E-04-7.32582E-16
 -1      2682 1.13967E-03 3.27054E-04-8.29916E-16
 -1      2683 9.94491E-04 3.02848E-04-6.35221E-16
 -1      2684 5.40021E-03-5.82365E-04-2.07583E-14
 -1      2685 5.25770E-03-5.09919E-04-2.00071E-14
 -1      2686 1.42965E-03 3.62773E-04-1.30672E-15
 -1      2687 1.28461E-03 3.46903E-04-1.05345E-15
 -1      2688 1.19745E-03 3.04711E-04-9.90676E-16
 -1      2689 8.09154E-04 2.54079E-04-4.47315E-16
 -1      2690 7.72306E-03 1.82588E-04-3.28696E-14
 -1      2691 7.57803E-03 1.19423E-04-3.24246E-14
 -1      2692 1.32962E-03-3.24190E-04-1.58687E-15
 -1      2693 1.47436E-03-3.38754E-04-1.91767E-15
 -1      2694 1.61911E-03-3.50449E-04-2.28031E-15
 -1      2695 1.76404E-03-3.59554E-04-2.67481E-15
 -1      2696 1.53219E-03-3.10931E-04-2.11789E-15
 -1      2697 1.90909E-03-3.66636E-04-3.10099E-15
 -1      2698 2.05441E-03-3.71976E-04-3.55873E-15
 -1      2699 1.82095E-03-3.28197E-04-2.90798E-15
 -1      2700 2.20005E-03-3.76094E-04-4.04772E-15
 -1      2701 2.34612E-03-3.79294E-04-4.56787E-15
 -1      2702 2.11044E-03-3.38114E-04-3.82325E-15
 -1      2703 2.49274E-03-3.82067E-04-5.11901E-15
 -1      2704 2.64001E-03-3.84758E-04-5.70139E-15
 -1      2705 2.40115E-03-3.43670E-04-4.86234E-15
 -1      2706 2.78812E-03-3.87843E-04-6.31510E-15
 -1      2707 2.93715E-03-3.91738E-04-6.95956E-15
 -1      2708 2.69396E-03-3.47903E-04-6.02501E-15
 -1      2709 3.08737E-03-3.96904E-04-7.63460E-15
 -1      2710 3.23885E-03-4.03851E-04-8.34023E-15
 -1      2711 2.99011E-03-3.54041E-04-7.31056E-15
 -1      2712 3.39193E-03-4.13006E-04-9.07620E-15
 -1      2713 3.54659E-03-4.24973E-04-9.84343E-15
 -1      2714 3.29129E-03-3.65637E-04-8.71743E-15
 -1      2715 3.70328E-03-4.40096E-04-1.06405E-14
 -1      2716 3.86176E-03-4.59019E-04-1.14694E-14
 -1      2717 3.59954E-03-3.86654E-04-1.02465E-14
 -1      2718 4.02256E-03-4.81910E-04-1.23288E-14
 -1      2719 4.18505E-03-5.09251E-04-1.32186E-14
 -1      2720 3.91691E-03-4.21357E-04-1.18970E-14
 -1      2721 4.34966E-03-5.40883E-04-1.41412E-14
 -1      2722 4.51530E-03-5.76701E-04-1.50958E-14
 -1      2723 4.24456E-03-4.73666E-04-1.36720E-14
 -1      2724 4.68209E-03-6.16054E-04-1.60819E-14
 -1      2725 4.84853E-03-6.57425E-04-1.71016E-14
 -1      2726 4.58123E-03-5.45355E-04-1.55721E-14
 -1      2727 5.01424E-03-6.99431E-04-1.81553E-14
 -1      2728 5.17800E-03-7.38965E-04-1.92427E-14
 -1      2729 4.92178E-03-6.32049E-04-1.76036E-14
 -1      2730 5.33939E-03-7.73809E-04-2.03664E-14
 -1      2731 5.49821E-03-7.99811E-04-2.15243E-14
 -1      2732 5.25769E-03-7.19125E-04-1.97712E-14
 -1      2733 5.65372E-03-8.14857E-04-2.27193E-14
 -1      2734 5.80844E-03-8.15528E-04-2.39517E-14
 -1      2735 5.58176E-03-7.79545E-04-2.20814E-14
 -1      2736 5.96181E-03-8.00987E-04-2.52209E-14
 -1      2737 6.11686E-03-7.71745E-04-2.65277E-14
 -1      2738 5.89595E-03-7.84189E-04-2.45400E-14
 -1      2739 6.27287E-03-7.28903E-04-2.78711E-14
 -1      2740 6.43222E-03-6.75344E-04-2.92491E-14
 -1      2741 6.21050E-03-7.21985E-04-2.71493E-14
 -1      2742 6.59413E-03-6.13477E-04-3.06623E-14
 -1      2743 6.75850E-03-5.47660E-04-3.21110E-14
 -1      2744 6.53599E-03-6.06096E-04-2.99045E-14
 -1      2745 6.92467E-03-4.79927E-04-3.35913E-14
 -1      2746 7.09132E-03-4.13215E-04-3.51039E-14
 -1      2747 6.87273E-03-4.66990E-04-3.27963E-14
 -1      2748 7.25822E-03-3.48903E-04-3.66486E-14
 -1      2749 7.42384E-03-2.88278E-04-3.82230E-14
 -1      2750 7.21327E-03-3.30014E-04-3.58202E-14
 -1      2751 7.58838E-03-2.31991E-04-3.98279E-14
 -1      2752 7.75079E-03-1.80082E-04-4.14627E-14
 -1      2753 7.54929E-03-2.09083E-04-3.89688E-14
 -1      2754 7.91149E-03-1.32711E-04-4.31248E-14
 -1      2755 8.06994E-03-8.93942E-05-4.48153E-14
 -1      2756 7.87601E-03-1.07802E-04-4.22332E-14
 -1      2757 8.22663E-03-5.00042E-05-4.65359E-14
 -1      2758 8.38137E-03-1.39370E-05-4.82842E-14
 -1      2759 8.19249E-03-2.43284E-05-4.56128E-14
 -1      2760 8.53457E-03 1.90753E-05-5.00599E-14
 -1      2761 8.68625E-03 4.95716E-05-5.18636E-14
 -1      2762 8.50001E-03 4.49556E-05-4.91046E-14
 -1      2763 8.83669E-03 7.78642E-05-5.36973E-14
 -1      2764 8.98601E-03 1.04379E-04-5.55571E-14
 -1      2765 8.80063E-03 1.03763E-04-5.27092E-14
 -1      2766 9.13440E-03 1.29415E-04-5.74451E-14
 -1      2767 9.28198E-03 1.53286E-04-5.93589E-14
 -1      2768 9.09629E-03 1.55293E-04-5.64247E-14
 -1      2769 9.42887E-03 1.76248E-04-6.12949E-14
 -1      2770 9.57518E-03 1.98522E-04-6.32570E-14
 -1      2771 9.38857E-03 2.02104E-04-6.02456E-14
 -1      2772 9.72098E-03 2.20310E-04-6.52450E-14
 -1      2773 9.86638E-03 2.41760E-04-6.72551E-14
 -1      2774 9.67862E-03 2.46136E-04-6.41640E-14
 -1      2775 1.00114E-02 2.63022E-04-6.92872E-14
 -1      2776 1.01561E-02 2.84191E-04-7.13408E-14
 -1      2777 9.96720E-03 2.88801E-04-6.81789E-14
 -1      2778 1.03006E-02 3.05368E-04-7.34149E-14
 -1      2779 1.04448E-02 3.26613E-04-7.55090E-14
 -1      2780 1.02548E-02 3.31077E-04-7.22810E-14
 -1      2781 1.05888E-02 3.47986E-04-7.76205E-14
 -1      2782 1.07327E-02 3.69523E-04-7.97470E-14
 -1      2783 1.05419E-02 3.73603E-04-7.64615E-14
 -1      2784 1.08764E-02 3.91254E-04-8.18884E-14
 -1      2785 1.10200E-02 4.13195E-04-8.40463E-14
 -1      2786 1.08285E-02 4.16763E-04-8.07105E-14
 -1      2787 1.11635E-02 4.35359E-04-8.62181E-14
 -1      2788 1.13069E-02 4.57750E-04-8.84042E-14
 -1      2789 1.11149E-02 4.60752E-04-8.50183E-14
 -1      2790 1.14502E-02 4.80365E-04-9.06034E-14
 -1      2791 1.15934E-02 5.03202E-04-9.28142E-14
 -1      2792 1.14010E-02 5.05640E-04-8.93848E-14
 -1      2793 1.17366E-02 5.26249E-04-9.50394E-14
 -1      2794 1.18797E-02 5.49501E-04-9.72800E-14
 -1      2795 1.16871E-02 5.51411E-04-9.38040E-14
 -1      2796 1.20228E-02 5.72942E-04-9.95303E-14
 -1      2797 1.21658E-02 5.96562E-04-1.01791E-13
 -1      2798 1.19730E-02 5.97999E-04-9.82742E-14
 -1      2799 1.23088E-02 6.20345E-04-1.04064E-13
 -1      2800 1.24518E-02 6.44281E-04-1.06348E-13
 -1      2801 1.22589E-02 6.45309E-04-1.02792E-13
 -1      2802 1.25947E-02 6.68353E-04-1.08644E-13
 -1      2803 1.27377E-02 6.92551E-04-1.10948E-13
 -1      2804 1.25448E-02 6.93238E-04-1.07358E-13
 -1      2805 1.28806E-02 7.16858E-04-1.13260E-13
 -1      2806 1.30235E-02 7.41266E-04-1.15583E-13
 -1      2807 1.28306E-02 7.41678E-04-1.11960E-13
 -1      2808 1.31664E-02 7.65760E-04-1.17914E-13
 -1      2809 1.33093E-02 7.90331E-04-1.20250E-13
 -1      2810 1.31163E-02 7.90528E-04-1.16598E-13
 -1      2811 1.34521E-02 8.14965E-04-1.22592E-13
 -1      2812 1.35950E-02 8.39655E-04-1.24937E-13
 -1      2813 1.34021E-02 8.39696E-04-1.21262E-13
 -1      2814 1.37379E-02 8.64390E-04-1.27288E-13
 -1      2815 1.38807E-02 8.89161E-04-1.29645E-13
 -1      2816 1.36879E-02 8.89098E-04-1.25947E-13
 -1      2817 2.30112E-03 4.02332E-04-3.45444E-15
 -1      2818 2.15525E-03 4.00260E-04-3.02102E-15
 -1      2819 7.39247E-03 2.87999E-05-3.18018E-14
 -1      2820 7.20518E-03-7.32463E-05-3.11840E-14
 -1      2821 7.49477E-03 7.09162E-05-3.27248E-14
 -1      2822 2.00979E-03 3.96891E-04-2.61809E-15
 -1      2823 1.86453E-03 3.91936E-04-2.24489E-15
 -1      2824 2.06340E-03 3.63659E-04-2.90307E-15
 -1      2825 2.88997E-03 4.07396E-04-5.48858E-15
 -1      2826 2.74167E-03 4.05679E-04-4.93519E-15
 -1      2827 3.18954E-03 4.15321E-04-6.68435E-15
 -1      2828 3.03915E-03 4.10410E-04-6.07179E-15
 -1      2829 2.93305E-03 3.72186E-04-5.89376E-15
 -1      2830 3.49492E-03 4.34071E-04-7.99760E-15
 -1      2831 3.34134E-03 4.22909E-04-7.32589E-15
 -1      2832 3.22682E-03 3.80551E-04-7.12791E-15
 -1      2833 3.80934E-03 4.70996E-04-9.43004E-15
 -1      2834 3.65079E-03 4.49639E-04-8.69897E-15
 -1      2835 3.52574E-03 3.99893E-04-8.47967E-15
 -1      2836 4.13764E-03 5.35386E-04-1.09817E-14
 -1      2837 3.97155E-03 4.98895E-04-1.01907E-14
 -1      2838 3.83414E-03 4.37350E-04-9.94922E-15
 -1      2839 4.48567E-03 6.38541E-04-1.26560E-14
 -1      2840 4.30919E-03 5.81114E-04-1.18034E-14
 -1      2841 4.15864E-03 5.02606E-04-1.15378E-14
 -1      2842 4.85794E-03 7.89303E-04-1.44576E-14
 -1      2843 4.66984E-03 7.07170E-04-1.35406E-14
 -1      2844 4.50867E-03 6.08116E-04-1.32472E-14
 -1      2845 5.24893E-03 9.87508E-04-1.63916E-14
 -1      2846 5.05306E-03 8.83093E-04-1.54074E-14
 -1      2847 4.89017E-03 7.67510E-04-1.50826E-14
 -1      2848 5.72497E-03 1.23283E-03-1.91642E-14
 -1      2849 5.52998E-03 1.13133E-03-1.80823E-14
 -1      2850 6.08000E-03 1.35707E-03-2.13100E-14
 -1      2851 5.89544E-03 1.31102E-03-2.01479E-14
 -1      2852 6.72672E-03 1.24630E-03-2.56756E-14
 -1      2853 6.53933E-03 1.31439E-03-2.43629E-14
 -1      2854 7.11692E-03 1.07542E-03-2.84477E-14
 -1      2855 6.92170E-03 1.15789E-03-2.70540E-14
 -1      2856 7.50442E-03 9.32906E-04-3.13440E-14
 -1      2857 7.31327E-03 9.98803E-04-2.98775E-14
 -1      2858 7.25057E-03 9.76216E-04-2.93282E-14
 -1      2859 7.87271E-03 8.39697E-04-3.43781E-14
 -1      2860 7.69206E-03 8.80308E-04-3.28445E-14
 -1      2861 7.63980E-03 8.45774E-04-3.22672E-14
 -1      2862 8.21838E-03 7.93696E-04-3.75375E-14
 -1      2863 8.04853E-03 8.11656E-04-3.59434E-14
 -1      2864 7.99996E-03 7.72035E-04-3.53371E-14
 -1      2865 8.54563E-03 7.84736E-04-4.08115E-14
 -1      2866 8.38406E-03 7.85459E-04-3.91601E-14
 -1      2867 8.33343E-03 7.43746E-04-3.85294E-14
 -1      2868 8.86025E-03 8.02290E-04-4.41942E-14
 -1      2869 8.70423E-03 7.90849E-04-4.24892E-14
 -1      2870 8.64827E-03 7.47780E-04-4.18338E-14
 -1      2871 9.16675E-03 8.37860E-04-4.76849E-14
 -1      2872 9.01429E-03 8.18281E-04-4.59270E-14
 -1      2873 8.95184E-03 7.73904E-04-4.52468E-14
 -1      2874 9.46799E-03 8.85059E-04-5.12762E-14
 -1      2875 9.31786E-03 8.60323E-04-4.94681E-14
 -1      2876 9.24906E-03 8.14703E-04-4.87647E-14
 -1      2877 9.76569E-03 9.39281E-04-5.49658E-14
 -1      2878 9.61717E-03 9.11507E-04-5.31087E-14
 -1      2879 9.54278E-03 8.64855E-04-5.23830E-14
 -1      2880 1.00608E-02 9.97339E-04-5.87507E-14
 -1      2881 9.91349E-03 9.67974E-04-5.68477E-14
 -1      2882 9.83449E-03 9.20572E-04-5.61008E-14
 -1      2883 1.03539E-02 1.05711E-03-6.26287E-14
 -1      2884 1.02075E-02 1.02710E-03-6.06778E-14
 -1      2885 1.01249E-02 9.79234E-04-5.99118E-14
 -1      2886 1.06454E-02 1.11724E-03-6.65901E-14
 -1      2887 1.04998E-02 1.08719E-03-6.45984E-14
 -1      2888 1.04145E-02 1.03909E-03-6.38113E-14
 -1      2889 1.09356E-02 1.17691E-03-7.06362E-14
 -1      2890 1.07907E-02 1.14717E-03-6.86030E-14
 -1      2891 1.07033E-02 1.09901E-03-6.77966E-14
 -1      2892 1.12248E-02 1.23569E-03-7.47646E-14
 -1      2893 1.10803E-02 1.20643E-03-7.26906E-14
 -1      2894 1.09915E-02 1.15834E-03-7.18655E-14
 -1      2895 1.15131E-02 1.29337E-03-7.89663E-14
 -1      2896 1.13690E-02 1.26468E-03-7.68575E-14
 -1      2897 1.12791E-02 1.21672E-03-7.60142E-14
 -1      2898 1.18007E-02 1.34991E-03-8.32355E-14
 -1      2899 1.16569E-02 1.32178E-03-8.10932E-14
 -1      2900 1.15663E-02 1.27399E-03-8.02351E-14
 -1      2901 1.20877E-02 1.40535E-03-8.75683E-14
 -1      2902 1.19443E-02 1.37776E-03-8.53944E-14
 -1      2903 1.18532E-02 1.33015E-03-8.45197E-14
 -1      2904 1.23744E-02 1.45980E-03-9.19612E-14
 -1      2905 1.22311E-02 1.43269E-03-8.97560E-14
 -1      2906 1.21397E-02 1.38525E-03-8.88655E-14
 -1      2907 1.26608E-02 1.51337E-03-9.64119E-14
 -1      2908 1.25176E-02 1.48668E-03-9.41803E-14
 -1      2909 1.24261E-02 1.43940E-03-9.32714E-14
 -1      2910 1.29469E-02 1.56620E-03-1.00917E-13
 -1      2911 1.28039E-02 1.53987E-03-9.86573E-14
 -1      2912 1.27122E-02 1.49272E-03-9.77335E-14
 -1      2913 1.32329E-02 1.61842E-03-1.05468E-13
 -1      2914 1.30899E-02 1.59238E-03-1.03190E-13
 -1      2915 1.29982E-02 1.54535E-03-1.02249E-13
 -1      2916 1.35187E-02 1.67014E-03-1.10056E-13
 -1      2917 1.33758E-02 1.64434E-03-1.07758E-13
 -1      2918 1.32841E-02 1.59740E-03-1.06807E-13
 -1      2919 1.38045E-02 1.72149E-03-1.14667E-13
 -1      2920 1.36617E-02 1.69586E-03-1.12359E-13
 -1      2921 1.35699E-02 1.64900E-03-1.11398E-13
 -1      2922 1.40903E-02 1.77254E-03-1.19294E-13
 -1      2923 1.39474E-02 1.74705E-03-1.16978E-13
 -1      2924 1.38557E-02 1.70024E-03-1.16012E-13
 -1      2925 1.43760E-02 1.82339E-03-1.23929E-13
 -1      2926 1.42332E-02 1.79799E-03-1.21612E-13
 -1      2927 1.41415E-02 1.75122E-03-1.20643E-13
 -1      2928 1.46244E-02 1.85897E-03-1.28108E-13
 -1      2929 1.44816E-02 1.83361E-03-1.25786E-13
 -1      2930 1.43899E-02 1.78686E-03-1.24819E-13
 -1      2931 1.46010E-02 1.80726E-03-1.28539E-13
 -1      2932 1.43477E-02 1.39685E-03-1.30501E-13
 -1      2933 1.43724E-02 1.43895E-03-1.30285E-13
 -1      2934 1.39768E-02 9.05086E-04-1.31246E-13
 -1      2935 1.40729E-02 9.21021E-04-1.32848E-13
 -1      2936 1.39268E-02 9.29786E-04-1.29896E-13
 -1      2937 1.44467E-02 1.56525E-03-1.29625E-13
 -1      2938 1.44715E-02 1.60736E-03-1.29403E-13
 -1      2939 1.42984E-02 1.31266E-03-1.30931E-13
 -1      2940 1.43231E-02 1.35476E-03-1.30717E-13
 -1      2941 1.42117E-02 1.35409E-03-1.28584E-13
 -1      2942 1.43971E-02 1.48104E-03-1.30066E-13
 -1      2943 1.44219E-02 1.52315E-03-1.29845E-13
 -1      2944 1.43106E-02 1.52237E-03-1.27717E-13
 -1      2945 1.42611E-02 1.43822E-03-1.28154E-13
 -1      2946 6.61758E-03-4.26887E-04-2.85564E-14
 -1      2947 6.46660E-03-5.18305E-04-2.77121E-14
 -1      2948 1.42501E-02 1.22989E-03-1.31343E-13
 -1      2949 1.42743E-02 1.27128E-03-1.31140E-13
 -1      2950 1.41629E-02 1.27067E-03-1.29003E-13
 -1      2951 1.42011E-02 1.14568E-03-1.31757E-13
 -1      2952 1.42256E-02 1.18779E-03-1.31552E-13
 -1      2953 1.41142E-02 1.18724E-03-1.29415E-13
 -1      2954 1.41523E-02 1.06144E-03-1.32159E-13
 -1      2955 1.41767E-02 1.10356E-03-1.31960E-13
 -1      2956 1.40652E-02 1.10307E-03-1.29820E-13
 -1      2957 8.25887E-03 4.14291E-04-3.35152E-14
 -1      2958 8.32443E-03 3.99867E-04-3.39089E-14
 -1      2959 8.28420E-03 3.60929E-04-3.44978E-14
 -1      2960 8.19985E-03 3.42779E-04-3.43504E-14
 -1      2961 6.91553E-04-1.84372E-04-5.37371E-16
 -1      2962 6.81825E-03 1.11920E-03-2.62702E-14
 -1      2963 6.99508E-03 1.01584E-03-2.73213E-14
 -1      2964 3.82488E-03 2.20729E-04-1.45918E-14
 -1      2965 3.95822E-03 2.56662E-04-1.48061E-14
 -1      2966 4.33233E-03-3.32383E-05-1.64963E-14
 -1      2967 4.14418E-03 3.76632E-05-1.58960E-14
 -1      2968 1.71952E-03 3.84839E-04-1.90191E-15
 -1      2969 1.57453E-03 3.75320E-04-1.58943E-15
 -1      2970 1.48610E-03 3.35354E-04-1.50907E-15
 -1      2971 1.77474E-03 3.53924E-04-2.14595E-15
 -1      2972 2.59423E-03 4.04577E-04-4.41165E-15
 -1      2973 2.44737E-03 4.03660E-04-3.91817E-15
 -1      2974 2.35234E-03 3.67719E-04-3.78021E-15
 -1      2975 2.64199E-03 3.69354E-04-4.77694E-15
 -1      2976 1.04069E-03-2.84400E-04-1.02178E-15
 -1      2977 1.18512E-03-3.06172E-04-1.28840E-15
 -1      2978 1.24410E-03-2.83326E-04-1.45440E-15
 -1      2979 7.78267E-04 1.07004E-04-6.29732E-16
 -1      2980 7.74001E-04 8.62977E-05-6.47919E-16
 -1      2981 8.88274E-04 8.55037E-05-8.32342E-16
 -1      2982 8.98564E-04 1.31349E-04-7.88649E-16
 -1      2983 7.25107E-03 8.70827E-04-2.87860E-14
 -1      2984 7.45587E-03 7.51941E-04-2.98131E-14
 -1      2985 7.99409E-03 4.97080E-04-3.22134E-14
 -1      2986 8.14055E-03 4.50417E-04-3.29495E-14
 -1      2987 7.74476E-04-8.32820E-05-7.24355E-16
 -1      2988 7.78671E-04-1.04288E-04-7.24003E-16
 -1      2989 6.98652E-03-2.00855E-04-3.03821E-14
 -1      2990 6.79990E-03-3.16077E-04-2.94919E-14
 -1      2991 4.66242E-03-1.91059E-04-1.75400E-14
 -1      2992 4.49537E-03-1.05944E-04-1.70125E-14
 -1      2993 4.36444E-03-7.84687E-05-1.62335E-14
 -1      2994 5.97461E-03-7.09030E-04-2.44656E-14
 -1      2995 5.82110E-03-7.11610E-04-2.33541E-14
 -1      2996 5.03620E-03 7.96737E-04-1.64997E-14
 -1      2997 5.20825E-03 9.10015E-04-1.70684E-14
 -1      2998 4.09664E-03 3.04156E-04-1.49568E-14
 -1      2999 4.25417E-03 3.66366E-04-1.51080E-14
 -1      3000 3.98982E-03 2.73517E-04-1.43479E-14
 -1      3001 3.69174E-03 1.86694E-04-1.44070E-14
 -1      3002 3.72799E-03 1.95123E-04-1.44119E-14
 -1      3003 3.97564E-03 9.74433E-05-1.54325E-14
 -1      3004 3.87430E-03 1.25333E-04-1.51333E-14
 -1      3005 1.41190E-02 9.61664E-04-1.33096E-13
 -1      3006 8.05247E-03 3.00762E-04-3.38637E-14
 -1      3007 7.88951E-03 2.47945E-04-3.33460E-14
 -1      3008 5.06267E-03-4.08706E-04-1.90773E-14
 -1      3009 4.89166E-03-3.12893E-04-1.83695E-14
 -1      3010 6.52264E-03 1.27805E-03-2.44023E-14
 -1      3011 6.66829E-03 1.20585E-03-2.53624E-14
 -1      3012 6.30940E-03-5.99547E-04-2.67515E-14
 -1      3013 6.17689E-03-6.58757E-04-2.58925E-14
 -1      3014 7.66911E-03 6.39479E-04-3.07934E-14
 -1      3015 7.83134E-03 5.64370E-04-3.15063E-14
 -1      3016 5.66719E-03-6.85457E-04-2.23417E-14
 -1      3017 5.53878E-03-6.41018E-04-2.15406E-14
 -1      3018 5.44984E-03-6.21721E-04-2.09867E-14
 -1      3019 5.37510E-03 1.02100E-03-1.77067E-14
 -1      3020 7.83792E-04-1.26444E-04-7.21333E-16
 -1      3021 7.89838E-04-1.50003E-04-7.15926E-16
 -1      3022 8.99120E-04-1.28326E-04-9.14728E-16
 -1      3023 8.80517E-04 2.22405E-06-8.90645E-16
 -1      3024 7.65911E-04-7.10225E-06-7.07632E-16
 -1      3025 7.66823E-04-2.54334E-05-7.14313E-16
 -1      3026 8.69758E-04 2.40555E-04-5.60966E-16
 -1      3027 5.13533E-03-4.71331E-04-1.92828E-14
 -1      3028 7.83193E-03 2.19781E-04-3.38400E-14
 -1      3029 7.60074E-03 7.07804E-04-3.09282E-14
 -1      3030 1.43600E-02 1.60619E-03-1.27278E-13
 -1      3031 1.44962E-02 1.64912E-03-1.29184E-13
 -1      3032 1.45209E-02 1.69089E-03-1.28961E-13
 -1      3033 7.10629E-03-1.40897E-04-3.12806E-14
 -1      3034 5.72658E-03-7.06929E-04-2.27684E-14
 -1      3035 4.73609E-03-2.59475E-04-1.75477E-14
 -1      3036 6.41873E-03 1.33123E-03-2.36342E-14
 -1      3037 6.84269E-03 1.15952E-03-2.65111E-14
 -1      3038 6.72932E-03-3.70797E-04-2.95204E-14
 -1      3039 1.45486E-02 1.72818E-03-1.28865E-13
 -1      3040 1.45733E-02 1.76996E-03-1.28638E-13
 -1      3041 1.44677E-02 1.75978E-03-1.26775E-13
 -1      3042 1.44124E-02 1.68520E-03-1.26965E-13
 -1      3043 6.40769E-03-5.57532E-04-2.76054E-14
 -1      3044 8.37253E-03 3.96772E-04-3.47294E-14
 -1      3045 8.40763E-03 3.98297E-04-3.55564E-14
 -1      3046 8.38044E-03 4.11200E-04-3.53276E-14
 -1      3047 8.22242E-03 4.43123E-04-3.39298E-14
 -1      3048 1.41434E-02 1.00380E-03-1.32900E-13
 -1      3049 8.14162E-03 3.23659E-04-3.48159E-14
 -1      3050 4.04709E-03 4.93824E-05-1.52760E-14
 -1      3051 8.04438E-04-1.81085E-04-7.15343E-16
 -1      3052 8.26335E-04-2.30296E-04-7.01235E-16
 -1      3053 9.58583E-04-2.60851E-04-8.96906E-16
 -1      3054 9.21094E-04-1.86350E-04-9.11462E-16
 -1      3055 6.15770E-03 1.35022E-03-2.20030E-14
 -1      3056 6.32159E-03 1.33420E-03-2.31022E-14
 -1      3057 3.75502E-03 2.04661E-04-1.40267E-14
 -1      3058 8.34657E-03 3.75761E-04-3.51344E-14
 -1      3059 8.34309E-03 3.73070E-04-3.59512E-14
 -1      3060 8.39557E-03 3.86396E-04-3.57743E-14
 -1      3061 3.78445E-03 1.38632E-04-1.46098E-14
 -1      3062 3.70901E-03 1.43220E-04-1.40950E-14
 -1      3063 3.79811E-03 1.14853E-04-1.43063E-14
 -1      3064 1.01916E-03-2.43459E-04-1.03475E-15
 -1      3065 7.68560E-04-4.40665E-05-7.19246E-16
 -1      3066 7.71100E-04-6.33152E-05-7.22689E-16
 -1      3067 8.88981E-04-8.16967E-05-9.15473E-16
 -1      3068 8.82785E-04-3.87844E-05-9.07030E-16
 -1      3069 4.37256E-03 4.23784E-04-1.50400E-14
 -1      3070 4.48256E-03 4.87865E-04-1.49679E-14
 -1      3071 4.23269E-03 3.73772E-04-1.44240E-14
 -1      3072 6.17605E-03 1.37409E-03-2.18351E-14
 -1      3073 7.15937E-03 9.50516E-04-2.84422E-14
 -1      3074 9.87069E-04 2.46387E-04-7.39033E-16
 -1      3075 7.95295E-03 5.40469E-04-3.26409E-14
 -1      3076 1.39793E-02 9.66570E-04-1.30328E-13
 -1      3077 1.40998E-02 1.02464E-03-1.31730E-13
 -1      3078 1.39882E-02 1.02419E-03-1.29592E-13
 -1      3079 1.38832E-02 9.50634E-04-1.28732E-13
 -1      3080 4.88448E-03 7.16520E-04-1.58285E-14
 -1      3081 6.06322E-03-6.96645E-04-2.51964E-14
 -1      3082 5.95874E-03-7.19214E-04-2.45084E-14
 -1      3083 6.14851E-03-6.75272E-04-2.59356E-14
 -1      3084 3.66391E-03 1.73603E-04-1.41227E-14
 -1      3085 3.63444E-03 1.71583E-04-1.35705E-14
 -1      3086 3.65192E-03 1.60661E-04-1.38373E-14
 -1      3087 5.19965E-03-5.36635E-04-1.94947E-14
 -1      3088 5.02439E-03-4.50060E-04-1.85806E-14
 -1      3089 1.03995E-03 2.13875E-04-8.94806E-16
 -1      3090 1.02984E-03 1.84383E-04-9.31804E-16
 -1      3091 1.16078E-03-2.44307E-04-1.32420E-15
 -1      3092 1.30365E-03-2.59879E-04-1.62541E-15
 -1      3093 1.73399E-03-2.90718E-04-2.71717E-15
 -1      3094 1.87784E-03-2.96678E-04-3.14364E-15
 -1      3095 2.02181E-03-3.01083E-04-3.60087E-15
 -1      3096 2.16600E-03-3.04181E-04-4.08934E-15
 -1      3097 1.93450E-03-2.65049E-04-3.38175E-15
 -1      3098 2.31044E-03-3.06383E-04-4.60840E-15
 -1      3099 2.45527E-03-3.07973E-04-5.15782E-15
 -1      3100 2.22098E-03-2.70232E-04-4.35721E-15
 -1      3101 2.60057E-03-3.09344E-04-5.73796E-15
 -1      3102 2.74655E-03-3.10849E-04-6.34906E-15
 -1      3103 2.50839E-03-2.72226E-04-5.45451E-15
 -1      3104 2.89338E-03-3.12865E-04-6.98969E-15
 -1      3105 3.04131E-03-3.15857E-04-7.66089E-15
 -1      3106 2.79773E-03-2.73562E-04-6.67280E-15
 -1      3107 3.19066E-03-3.20183E-04-8.36278E-15
 -1      3108 3.34166E-03-3.26478E-04-9.09423E-15
 -1      3109 3.09070E-03-2.77081E-04-8.01140E-15
 -1      3110 3.49479E-03-3.35067E-04-9.85599E-15
 -1      3111 3.65024E-03-3.46808E-04-1.06479E-14
 -1      3112 3.38985E-03-2.86189E-04-9.47023E-15
 -1      3113 3.80864E-03-3.61969E-04-1.14704E-14
 -1      3114 3.96990E-03-3.81616E-04-1.23237E-14
 -1      3115 3.69856E-03-3.05203E-04-1.10483E-14
 -1      3116 4.13475E-03-4.05917E-04-1.32065E-14
 -1      3117 4.30247E-03-4.35842E-04-1.41214E-14
 -1      3118 4.02058E-03-3.39691E-04-1.27476E-14
 -1      3119 4.47367E-03-4.71352E-04-1.50687E-14
 -1      3120 4.64664E-03-5.12451E-04-1.60466E-14
 -1      3121 4.35860E-03-3.96228E-04-1.45692E-14
 -1      3122 4.82218E-03-5.58329E-04-1.70566E-14
 -1      3123 4.99669E-03-6.06949E-04-1.81015E-14
 -1      3124 4.71161E-03-4.79334E-04-1.65168E-14
 -1      3125 5.09620E-03-6.00238E-04-1.87394E-14
 -1      3126 5.27224E-03-6.52816E-04-1.98367E-14
 -1      3127 5.82678E-03-7.68160E-04-2.38628E-14
 -1      3128 5.98596E-03-7.52807E-04-2.51284E-14
 -1      3129 6.47552E-03-6.00926E-04-2.91483E-14
 -1      3130 6.64603E-03-5.29575E-04-3.05594E-14
 -1      3131 6.81976E-03-4.54252E-04-3.20051E-14
 -1      3132 6.99417E-03-3.80312E-04-3.34835E-14
 -1      3133 6.76696E-03-4.44089E-04-3.12153E-14
 -1      3134 7.16904E-03-3.09509E-04-3.49948E-14
 -1      3135 7.34154E-03-2.43860E-04-3.65380E-14
 -1      3136 7.12574E-03-2.88823E-04-3.41722E-14
 -1      3137 7.51208E-03-1.84033E-04-3.81122E-14
 -1      3138 7.67900E-03-1.29711E-04-3.97144E-14
 -1      3139 7.47684E-03-1.57111E-04-3.72563E-14
 -1      3140 7.84297E-03-8.10184E-05-4.13453E-14
 -1      3141 8.00338E-03-3.69517E-05-4.30044E-14
 -1      3142 7.81253E-03-5.21875E-05-4.04597E-14
 -1      3143 8.16094E-03 2.60455E-06-4.46927E-14
 -1      3144 8.31560E-03 3.86748E-05-4.64103E-14
 -1      3145 8.13213E-03 3.10809E-05-4.37771E-14
 -1      3146 8.46798E-03 7.14614E-05-4.81542E-14
 -1      3147 8.61826E-03 1.01752E-04-4.99261E-14
 -1      3148 8.43856E-03 9.88289E-05-4.72071E-14
 -1      3149 8.76690E-03 1.29778E-04-5.17251E-14
 -1      3150 8.91414E-03 1.56099E-04-5.35526E-14
 -1      3151 8.73554E-03 1.56074E-04-5.07465E-14
 -1      3152 9.06027E-03 1.80944E-04-5.54088E-14
 -1      3153 9.20554E-03 2.04688E-04-5.72913E-14
 -1      3154 9.02635E-03 2.06461E-04-5.43970E-14
 -1      3155 9.35011E-03 2.27536E-04-5.91977E-14
 -1      3156 9.49418E-03 2.49733E-04-6.11297E-14
 -1      3157 9.31347E-03 2.52583E-04-5.81536E-14
 -1      3158 9.63782E-03 2.71454E-04-6.30876E-14
 -1      3159 9.78120E-03 2.92851E-04-6.50705E-14
 -1      3160 9.59858E-03 2.96265E-04-6.20149E-14
 -1      3161 9.92433E-03 3.14062E-04-6.70751E-14
 -1      3162 1.00673E-02 3.35181E-04-6.91014E-14
 -1      3163 9.88277E-03 3.38784E-04-6.59738E-14
 -1      3164 1.02102E-02 3.56305E-04-7.11501E-14
 -1      3165 1.03530E-02 3.77490E-04-7.32177E-14
 -1      3166 1.01667E-02 3.81017E-04-7.00234E-14
 -1      3167 1.04958E-02 3.98800E-04-7.53046E-14
 -1      3168 1.06386E-02 4.20264E-04-7.74106E-14
 -1      3169 1.04506E-02 4.23535E-04-7.41522E-14
 -1      3170 1.07813E-02 4.41920E-04-7.95325E-14
 -1      3171 1.09241E-02 4.63779E-04-8.16692E-14
 -1      3172 1.07348E-02 4.66684E-04-7.83572E-14
 -1      3173 1.10668E-02 4.85861E-04-8.38221E-14
 -1      3174 1.12096E-02 5.08164E-04-8.59900E-14
 -1      3175 1.10193E-02 5.10646E-04-8.26276E-14
 -1      3176 1.13523E-02 5.30693E-04-8.81706E-14
 -1      3177 1.14951E-02 5.53441E-04-9.03628E-14
 -1      3178 1.13041E-02 5.55487E-04-8.69583E-14
 -1      3179 1.16379E-02 5.76404E-04-9.25702E-14
 -1      3180 1.17807E-02 5.99570E-04-9.47903E-14
 -1      3181 1.15891E-02 6.01196E-04-9.13389E-14
 -1      3182 1.19235E-02 6.22931E-04-9.70228E-14
 -1      3183 1.20664E-02 6.46473E-04-9.92674E-14
 -1      3184 1.18743E-02 6.47711E-04-9.57733E-14
 -1      3185 1.22092E-02 6.70184E-04-1.01524E-13
 -1      3186 1.23521E-02 6.94051E-04-1.03792E-13
 -1      3187 1.21597E-02 6.94946E-04-1.00257E-13
 -1      3188 1.24949E-02 7.18059E-04-1.06072E-13
 -1      3189 1.26378E-02 7.42198E-04-1.08362E-13
 -1      3190 1.24452E-02 7.42800E-04-1.04790E-13
 -1      3191 1.27806E-02 7.66453E-04-1.10662E-13
 -1      3192 1.29235E-02 7.90814E-04-1.12968E-13
 -1      3193 1.27308E-02 7.91172E-04-1.09363E-13
 -1      3194 1.30664E-02 8.15267E-04-1.15283E-13
 -1      3195 1.32092E-02 8.39802E-04-1.17606E-13
 -1      3196 1.30165E-02 8.39966E-04-1.13973E-13
 -1      3197 1.33521E-02 8.64407E-04-1.19936E-13
 -1      3198 1.34950E-02 8.89074E-04-1.22270E-13
 -1      3199 1.33022E-02 8.89091E-04-1.18611E-13
 -1      3200 1.36177E-02 9.07447E-04-1.24322E-13
 -1      3201 1.37605E-02 9.32201E-04-1.26665E-13
 -1      3202 1.38130E-02 9.68958E-04-1.27098E-13
 -1      3203 1.35677E-02 9.32124E-04-1.22986E-13
 -1      3204 2.11597E-03 3.30997E-04-3.19493E-15
 -1      3205 1.97283E-03 3.27936E-04-2.78134E-15
 -1      3206 3.25963E-03 3.46940E-04-7.57692E-15
 -1      3207 3.11577E-03 3.41605E-04-6.92622E-15
 -1      3208 2.97265E-03 3.38265E-04-6.30450E-15
 -1      3209 2.82977E-03 3.36355E-04-5.71171E-15
 -1      3210 3.00894E-03 3.05662E-04-6.72116E-15
 -1      3211 3.85165E-03 4.03144E-04-1.04729E-14
 -1      3212 3.69954E-03 3.81812E-04-9.70505E-15
 -1      3213 4.17078E-03 4.67417E-04-1.20959E-14
 -1      3214 4.00818E-03 4.30643E-04-1.12695E-14
 -1      3215 3.86156E-03 3.67737E-04-1.10003E-14
 -1      3216 4.53166E-03 5.54631E-04-1.42590E-14
 -1      3217 4.35291E-03 4.92010E-04-1.33608E-14
 -1      3218 4.68535E-03 6.21826E-04-1.48763E-14
 -1      3219 4.39481E-03-1.31742E-04-1.59805E-14
 -1      3220 4.25215E-03-6.98635E-05-1.54860E-14
 -1      3221 6.35503E-03 1.36156E-03-2.30626E-14
 -1      3222 8.44895E-03 6.95974E-04-3.95386E-14
 -1      3223 8.29326E-03 6.97250E-04-3.79130E-14
 -1      3224 8.74922E-03 7.12435E-04-4.28739E-14
 -1      3225 8.60053E-03 7.01760E-04-4.11937E-14
 -1      3226 8.55930E-03 6.55696E-04-4.05523E-14
 -1      3227 9.04092E-03 7.46172E-04-4.63174E-14
 -1      3228 8.89574E-03 7.27612E-04-4.45817E-14
 -1      3229 8.84482E-03 6.82373E-04-4.39188E-14
 -1      3230 9.32871E-03 7.91323E-04-4.98639E-14
 -1      3231 9.18506E-03 7.67620E-04-4.80775E-14
 -1      3232 9.12529E-03 7.22064E-04-4.73897E-14
 -1      3233 9.61502E-03 8.43714E-04-5.35101E-14
 -1      3234 9.47191E-03 8.16809E-04-5.16754E-14
 -1      3235 9.40454E-03 7.70390E-04-5.09649E-14
 -1      3236 9.90094E-03 9.00377E-04-5.72531E-14
 -1      3237 9.75795E-03 8.71643E-04-5.53699E-14
 -1      3238 9.68430E-03 8.24232E-04-5.46376E-14
 -1      3239 1.01869E-02 9.59228E-04-6.10891E-14
 -1      3240 1.00439E-02 9.29617E-04-5.91584E-14
 -1      3241 9.96519E-03 8.81316E-04-5.84054E-14
 -1      3242 1.04730E-02 1.01885E-03-6.50142E-14
 -1      3243 1.03299E-02 9.88999E-04-6.30415E-14
 -1      3244 1.02473E-02 9.40000E-04-6.22679E-14
 -1      3245 1.07592E-02 1.07834E-03-6.90230E-14
 -1      3246 1.06161E-02 1.04865E-03-6.70088E-14
 -1      3247 1.05304E-02 9.99150E-04-6.62190E-14
 -1      3248 1.10454E-02 1.13715E-03-7.31152E-14
 -1      3249 1.09023E-02 1.10785E-03-7.10585E-14
 -1      3250 1.08143E-02 1.05803E-03-7.02521E-14
 -1      3251 1.13317E-02 1.19499E-03-7.72840E-14
 -1      3252 1.11885E-02 1.16620E-03-7.51894E-14
 -1      3253 1.10989E-02 1.11620E-03-7.43647E-14
 -1      3254 1.16178E-02 1.25177E-03-8.15206E-14
 -1      3255 1.14747E-02 1.22352E-03-7.93945E-14
 -1      3256 1.13839E-02 1.17343E-03-7.85536E-14
 -1      3257 1.19039E-02 1.30748E-03-8.58217E-14
 -1      3258 1.17609E-02 1.27976E-03-8.36638E-14
 -1      3259 1.16691E-02 1.22965E-03-8.28085E-14
 -1      3260 1.21900E-02 1.36219E-03-9.01796E-14
 -1      3261 1.20470E-02 1.33496E-03-8.79920E-14
 -1      3262 1.19546E-02 1.28487E-03-8.71220E-14
 -1      3263 1.24760E-02 1.41601E-03-9.45998E-14
 -1      3264 1.23330E-02 1.38921E-03-9.23837E-14
 -1      3265 1.22402E-02 1.33916E-03-9.14957E-14
 -1      3266 1.27619E-02 1.46906E-03-9.90717E-14
 -1      3267 1.26189E-02 1.44263E-03-9.68280E-14
 -1      3268 1.25259E-02 1.39264E-03-9.59258E-14
 -1      3269 1.30477E-02 1.52147E-03-1.03596E-13
 -1      3270 1.29048E-02 1.49534E-03-1.01329E-13
 -1      3271 1.28116E-02 1.44540E-03-1.00410E-13
 -1      3272 1.33336E-02 1.57335E-03-1.08159E-13
 -1      3273 1.31907E-02 1.54747E-03-1.05873E-13
 -1      3274 1.30973E-02 1.49758E-03-1.04941E-13
 -1      3275 1.36194E-02 1.62481E-03-1.12755E-13
 -1      3276 1.34765E-02 1.59912E-03-1.10453E-13
 -1      3277 1.33831E-02 1.54928E-03-1.09510E-13
 -1      3278 1.39051E-02 1.67594E-03-1.17371E-13
 -1      3279 1.37622E-02 1.65041E-03-1.15061E-13
 -1      3280 1.36688E-02 1.60060E-03-1.14109E-13
 -1      3281 1.41909E-02 1.72685E-03-1.22005E-13
 -1      3282 1.40480E-02 1.70142E-03-1.19685E-13
 -1      3283 1.39546E-02 1.65164E-03-1.18728E-13
 -1      3284 1.43821E-02 1.74844E-03-1.25319E-13
 -1      3285 1.42765E-02 1.73822E-03-1.23463E-13
 -1      3286 1.41831E-02 1.68845E-03-1.22501E-13
 -1      3287 1.43544E-02 1.71115E-03-1.25414E-13
 -1      3288 6.49670E-03-5.22988E-04-2.84768E-14
 -1      3289 6.35335E-03-5.98525E-04-2.74996E-14
 -1      3290 9.99536E-04 5.87657E-05-1.06195E-15
 -1      3291 9.97284E-04 3.61376E-05-1.07921E-15
 -1      3292 7.57458E-03 7.65194E-04-3.12161E-14
 -1      3293 7.75733E-03 6.68375E-04-3.22231E-14
 -1      3294 1.40757E-02 1.31135E-03-1.26667E-13
 -1      3295 1.41003E-02 1.35339E-03-1.26456E-13
 -1      3296 1.39293E-02 1.06049E-03-1.27885E-13
 -1      3297 1.39537E-02 1.10256E-03-1.27687E-13
 -1      3298 1.40273E-02 1.22871E-03-1.27079E-13
 -1      3299 1.40515E-02 1.27003E-03-1.26874E-13
 -1      3300 1.39401E-02 1.26937E-03-1.24750E-13
 -1      3301 8.20457E-03 4.71262E-04-3.44554E-14
 -1      3302 8.30958E-03 4.38866E-04-3.50331E-14
 -1      3303 7.93313E-03 2.47304E-04-3.49581E-14
 -1      3304 7.78363E-03 1.88919E-04-3.44675E-14
 -1      3305 6.77484E-03 1.17466E-03-2.60591E-14
 -1      3306 4.78769E-03-3.28110E-04-1.74909E-14
 -1      3307 4.58597E-03-2.22205E-04-1.66897E-14
 -1      3308 3.68616E-03 1.92656E-04-1.34447E-14
 -1      3309 3.78241E-03 2.16928E-04-1.36166E-14
 -1      3310 1.39782E-02 1.14462E-03-1.27487E-13
 -1      3311 1.40027E-02 1.18667E-03-1.27283E-13
 -1      3312 1.38913E-02 1.18608E-03-1.25160E-13
 -1      3313 1.38422E-02 1.10204E-03-1.25563E-13
 -1      3314 8.13206E-03 7.05737E-04-3.63174E-14
 -1      3315 7.96429E-03 7.25144E-04-3.47478E-14
 -1      3316 8.26126E-03 6.48909E-04-3.72977E-14
 -1      3317 7.77532E-03 7.65075E-04-3.31501E-14
 -1      3318 7.58917E-03 8.12499E-04-3.16450E-14
 -1      3319 6.83810E-03-3.24008E-04-3.05851E-14
 -1      3320 6.67496E-03-4.23044E-04-2.96287E-14
 -1      3321 3.55086E-03 3.66314E-04-8.96691E-15
 -1      3322 3.40439E-03 3.54855E-04-8.25688E-15
 -1      3323 3.28810E-03 3.14371E-04-8.03174E-15
 -1      3324 3.57026E-03 3.32963E-04-9.45844E-15
 -1      3325 5.76894E-03-7.27056E-04-2.31575E-14
 -1      3326 5.62986E-03-7.02355E-04-2.21528E-14
 -1      3327 7.25178E-03-7.44840E-05-3.24861E-14
 -1      3328 7.05778E-03-1.90074E-04-3.16616E-14
 -1      3329 7.58090E-03 9.72972E-05-3.37605E-14
 -1      3330 7.41447E-03 1.44420E-05-3.31220E-14
 -1      3331 7.35574E-03-4.10716E-05-3.35126E-14
 -1      3332 1.44684E-03-2.72628E-04-1.95792E-15
 -1      3333 1.59036E-03-2.82774E-04-2.32200E-15
 -1      3334 1.64856E-03-2.54303E-04-2.52947E-15
 -1      3335 3.88985E-03 2.51392E-04-1.36761E-14
 -1      3336 4.00993E-03 2.92159E-04-1.38163E-14
 -1      3337 1.00013E-03-2.05655E-04-1.04054E-15
 -1      3338 1.08010E-03-2.25053E-04-1.17809E-15
 -1      3339 9.83401E-04-1.70656E-04-1.04074E-15
 -1      3340 8.23038E-03 3.40203E-04-3.60661E-14
 -1      3341 8.09135E-03 3.01044E-04-3.55651E-14
 -1      3342 1.15013E-03 2.75805E-04-9.68315E-16
 -1      3343 1.08432E-03 2.39881E-04-9.23537E-16
 -1      3344 1.20096E-03 2.38498E-04-1.15037E-15
 -1      3345 1.29374E-03 2.93000E-04-1.21002E-15
 -1      3346 4.07232E-03 4.17005E-06-1.49096E-14
 -1      3347 3.92364E-03 5.84846E-05-1.44680E-14
 -1      3348 5.48388E-03-6.57507E-04-2.11861E-14
 -1      3349 5.35989E-03-6.06906E-04-2.04136E-14
 -1      3350 5.24057E-03-5.85918E-04-1.96796E-14
 -1      3351 5.53530E-03-6.95764E-04-2.15531E-14
 -1      3352 7.93936E-03 5.83315E-04-3.32121E-14
 -1      3353 8.07808E-03 5.26253E-04-3.39393E-14
 -1      3354 9.96252E-04 1.37876E-05-1.09384E-15
 -1      3355 9.96437E-04-8.50901E-06-1.10625E-15
 -1      3356 1.11305E-03 2.71643E-05-1.31664E-15
 -1      3357 1.14582E-03 1.82878E-04-1.15630E-15
 -1      3358 1.02111E-03 1.56748E-04-9.64615E-16
 -1      3359 1.01382E-03 1.30630E-04-9.93549E-16
 -1      3360 1.36337E-03-2.35714E-04-1.80089E-15
 -1      3361 3.82901E-03 3.79095E-05-1.36060E-14
 -1      3362 3.81785E-03 7.90219E-05-1.39572E-14
 -1      3363 3.72326E-03 9.11923E-05-1.34552E-14
 -1      3364 1.00777E-03 1.05717E-04-1.01920E-15
 -1      3365 1.00305E-03 8.18826E-05-1.04216E-15
 -1      3366 1.11820E-03 7.58733E-05-1.27616E-15
 -1      3367 1.12911E-03 1.27118E-04-1.22333E-15
 -1      3368 1.42240E-02 1.56343E-03-1.25374E-13
 -1      3369 1.42487E-02 1.60515E-03-1.25154E-13
 -1      3370 1.43737E-03 3.06889E-04-1.48071E-15
 -1      3371 1.38962E-03 2.79176E-04-1.44935E-15
 -1      3372 1.58113E-03 3.17801E-04-1.78106E-15
 -1      3373 6.17256E-03-6.82610E-04-2.63565E-14
 -1      3374 6.23594E-03-6.80289E-04-2.70860E-14
 -1      3375 5.54582E-03-7.39991E-04-2.17182E-14
 -1      3376 5.70870E-03-7.59942E-04-2.29147E-14
 -1      3377 6.40358E-03-6.18950E-04-2.84453E-14
 -1      3378 5.85620E-03-7.35119E-04-2.38592E-14
 -1      3379 1.00404E-03-7.72160E-05-1.12880E-15
 -1      3380 1.00883E-03-1.01516E-04-1.13138E-15
 -1      3381 8.19375E-03 5.10664E-04-3.50441E-14
 -1      3382 7.70463E-03 1.35605E-04-3.48733E-14
 -1      3383 2.72981E-03 3.02486E-04-5.52726E-15
 -1      3384 2.68714E-03 3.35286E-04-5.14928E-15
 -1      3385 2.54444E-03 3.34684E-04-4.61607E-15
 -1      3386 4.17661E-03 4.05911E-04-1.30563E-14
 -1      3387 4.45402E-03-2.03490E-04-1.59235E-14
 -1      3388 9.91974E-04-1.22414E-04-1.08950E-15
 -1      3389 9.98764E-04-1.48563E-04-1.08672E-15
 -1      3390 1.07646E-03-1.64301E-04-1.22961E-15
 -1      3391 1.10769E-03-1.18365E-04-1.32372E-15
 -1      3392 3.62622E-03 1.76936E-04-1.31716E-14
 -1      3393 3.62750E-03 1.85184E-04-1.27763E-14
 -1      3394 3.58237E-03 1.64075E-04-1.28987E-14
 -1      3395 7.42018E-03 8.61488E-04-3.03619E-14
 -1      3396 7.21703E-03 9.41748E-04-2.89204E-14
 -1      3397 6.61088E-03-4.78789E-04-2.95150E-14
 -1      3398 1.41992E-02 1.52137E-03-1.25593E-13
 -1      3399 1.40878E-02 1.52034E-03-1.23473E-13
 -1      3400 1.41744E-02 1.47932E-03-1.25812E-13
 -1      3401 4.10218E-03-4.73287E-05-1.46670E-14
 -1      3402 7.90730E-03 6.40472E-04-3.35136E-14
 -1      3403 7.92588E-03 6.83670E-04-3.40985E-14
 -1      3404 1.41250E-02 1.39533E-03-1.26243E-13
 -1      3405 1.41497E-02 1.43737E-03-1.26028E-13
 -1      3406 1.40382E-02 1.43639E-03-1.23907E-13
 -1      3407 1.39889E-02 1.35256E-03-1.24334E-13
 -1      3408 8.05175E-03 2.74344E-04-3.62071E-14
 -1      3409 8.38171E-03 4.31113E-04-3.58641E-14
 -1      3410 8.44128E-03 4.28965E-04-3.67030E-14
 -1      3411 8.38225E-03 4.55262E-04-3.64036E-14
 -1      3412 1.84897E-03 3.27764E-04-2.43439E-15
 -1      3413 1.70546E-03 3.21445E-04-2.07729E-15
 -1      3414 1.65642E-03 2.94334E-04-2.03900E-15
 -1      3415 1.90312E-03 2.97242E-04-2.69606E-15
 -1      3416 4.86391E-03-4.04861E-04-1.76859E-14
 -1      3417 3.79192E-03 2.32213E-04-1.31023E-14
 -1      3418 8.43417E-03 3.98358E-04-3.63796E-14
 -1      3419 8.45372E-03 3.98406E-04-3.72098E-14
 -1      3420 8.46569E-03 4.10611E-04-3.69900E-14
 -1      3421 8.39301E-03 3.76691E-04-3.73695E-14
 -1      3422 8.31816E-03 3.61286E-04-3.67160E-14
 -1      3423 8.29069E-03 3.44095E-04-3.74811E-14
 -1      3424 2.40176E-03 3.33996E-04-4.11266E-15
 -1      3425 2.25890E-03 3.32939E-04-3.63903E-15
 -1      3426 2.44942E-03 3.01314E-04-4.45172E-15
 -1      3427 6.98871E-03-2.55069E-04-3.17722E-14
 -1      3428 2.16742E-03 2.99075E-04-3.49470E-15
 -1      3429 3.64432E-03 1.44639E-04-1.35457E-14
 -1      3430 1.14124E-03-2.05456E-04-1.32724E-15
 -1      3431 6.98356E-03 1.07305E-03-2.74466E-14
 -1      3432 1.38449E-02 9.96343E-04-1.27280E-13
 -1      3433 1.38974E-02 1.03310E-03-1.27707E-13
 -1      3434 1.37859E-02 1.03263E-03-1.25581E-13
 -1      3435 1.37222E-02 9.77897E-04-1.25221E-13
 -1      3436 5.41275E-03-7.02579E-04-2.07651E-14
 -1      3437 4.98784E-03-5.21807E-04-1.81590E-14
 -1      3438 2.13317E-03-2.35336E-04-4.10929E-15
 -1      3439 2.27545E-03-2.36320E-04-4.62664E-15
 -1      3440 2.41786E-03-2.36622E-04-5.17434E-15
 -1      3441 2.56056E-03-2.36486E-04-5.75225E-15
 -1      3442 2.32935E-03-2.02482E-04-4.89786E-15
 -1      3443 2.70365E-03-2.36200E-04-6.35905E-15
 -1      3444 2.84741E-03-2.36098E-04-6.99642E-15
 -1      3445 2.61170E-03-2.00764E-04-6.04948E-15
 -1      3446 2.99203E-03-2.36448E-04-7.66397E-15
 -1      3447 3.13793E-03-2.37756E-04-8.36120E-15
 -1      3448 2.89547E-03-1.98415E-04-7.32063E-15
 -1      3449 3.28545E-03-2.40263E-04-9.08835E-15
 -1      3450 3.43512E-03-2.44777E-04-9.84468E-15
 -1      3451 3.18281E-03-1.97755E-04-8.71026E-15
 -1      3452 3.58752E-03-2.51520E-04-1.06309E-14
 -1      3453 3.74314E-03-2.61746E-04-1.14475E-14
 -1      3454 3.47718E-03-2.01999E-04-1.02189E-14
 -1      3455 3.90288E-03-2.75663E-04-1.22933E-14
 -1      3456 4.06692E-03-2.95196E-04-1.31691E-14
 -1      3457 3.78361E-03-2.16112E-04-1.18445E-14
 -1      3458 4.23661E-03-3.20512E-04-1.40757E-14
 -1      3459 4.41082E-03-3.53810E-04-1.50138E-14
 -1      3460 4.10858E-03-2.47890E-04-1.35890E-14
 -1      3461 6.51630E-03-5.45692E-04-2.90721E-14
 -1      3462 6.68226E-03-4.56011E-04-3.02386E-14
 -1      3463 4.77820E-03-4.17818E-04-1.70864E-14
 -1      3464 7.08580E-03-2.66396E-04-3.33499E-14
 -1      3465 7.26766E-03-1.92373E-04-3.48602E-14
 -1      3466 7.44613E-03-1.27508E-04-3.64020E-14
 -1      3467 7.61875E-03-7.03003E-05-3.79745E-14
 -1      3468 7.42026E-03-9.57654E-05-3.55504E-14
 -1      3469 7.78666E-03-2.09614E-05-3.95758E-14
 -1      3470 7.94916E-03 2.28427E-05-4.12047E-14
 -1      3471 7.76569E-03 1.29237E-05-3.86926E-14
 -1      3472 8.10734E-03 6.11762E-05-4.28628E-14
 -1      3473 8.26151E-03 9.58603E-05-4.45489E-14
 -1      3474 8.08695E-03 9.32973E-05-4.19505E-14
 -1      3475 8.41245E-03 1.27051E-04-4.62617E-14
 -1      3476 8.56072E-03 1.55917E-04-4.80032E-14
 -1      3477 8.38993E-03 1.56395E-04-4.53199E-14
 -1      3478 8.70685E-03 1.82602E-04-4.97711E-14
 -1      3479 8.85136E-03 2.07845E-04-5.15654E-14
 -1      3480 8.68098E-03 2.09541E-04-4.87980E-14
 -1      3481 8.99458E-03 2.31785E-04-5.33891E-14
 -1      3482 9.13693E-03 2.54850E-04-5.52401E-14
 -1      3483 8.96503E-03 2.57007E-04-5.23859E-14
 -1      3484 9.27858E-03 2.77178E-04-5.71165E-14
 -1      3485 9.41983E-03 2.99017E-04-5.90172E-14
 -1      3486 9.24544E-03 3.01358E-04-5.60814E-14
 -1      3487 9.56078E-03 3.20492E-04-6.09453E-14
 -1      3488 9.70162E-03 3.41746E-04-6.28996E-14
 -1      3489 9.52438E-03 3.44142E-04-5.98816E-14
 -1      3490 9.84239E-03 3.62885E-04-6.48754E-14
 -1      3491 9.98321E-03 3.83985E-04-6.68758E-14
 -1      3492 9.80314E-03 3.86348E-04-6.37814E-14
 -1      3493 1.01241E-02 4.05130E-04-6.88988E-14
 -1      3494 1.02651E-02 4.26356E-04-7.09418E-14
 -1      3495 1.00824E-02 4.28613E-04-6.77765E-14
 -1      3496 1.04062E-02 4.47726E-04-7.30058E-14
 -1      3497 1.05475E-02 4.69253E-04-7.50870E-14
 -1      3498 1.03626E-02 4.71338E-04-7.18604E-14
 -1      3499 1.06890E-02 4.90977E-04-7.71868E-14
 -1      3500 1.08306E-02 5.12897E-04-7.93038E-14
 -1      3501 1.06437E-02 5.14762E-04-7.60206E-14
 -1      3502 1.09723E-02 5.35038E-04-8.14363E-14
 -1      3503 1.11142E-02 5.57390E-04-8.35859E-14
 -1      3504 1.09258E-02 5.59000E-04-8.02489E-14
 -1      3505 1.12562E-02 5.79963E-04-8.57475E-14
 -1      3506 1.13983E-02 6.02745E-04-8.79220E-14
 -1      3507 1.12087E-02 6.04086E-04-8.45399E-14
 -1      3508 1.15406E-02 6.25737E-04-9.01110E-14
 -1      3509 1.16829E-02 6.48923E-04-9.23125E-14
 -1      3510 1.14923E-02 6.49995E-04-8.88853E-14
 -1      3511 1.18253E-02 6.72298E-04-9.45268E-14
 -1      3512 1.19678E-02 6.95847E-04-9.67543E-14
 -1      3513 1.17765E-02 6.96664E-04-9.32830E-14
 -1      3514 1.21104E-02 7.19562E-04-9.89930E-14
 -1      3515 1.22530E-02 7.43427E-04-1.01246E-13
 -1      3516 1.20612E-02 7.44009E-04-9.77320E-14
 -1      3517 1.23956E-02 7.67433E-04-1.03509E-13
 -1      3518 1.25383E-02 7.91565E-04-1.05784E-13
 -1      3519 1.23462E-02 7.91939E-04-1.02230E-13
 -1      3520 1.26811E-02 8.15813E-04-1.08069E-13
 -1      3521 1.28238E-02 8.40165E-04-1.10363E-13
 -1      3522 1.26314E-02 8.40362E-04-1.06775E-13
 -1      3523 1.29666E-02 8.64610E-04-1.12665E-13
 -1      3524 1.31094E-02 8.89137E-04-1.14973E-13
 -1      3525 1.29169E-02 8.89187E-04-1.11357E-13
 -1      3526 1.32523E-02 9.13737E-04-1.17290E-13
 -1      3527 1.33951E-02 9.38399E-04-1.19613E-13
 -1      3528 1.32024E-02 9.38334E-04-1.15971E-13
 -1      3529 1.00034E-03-5.37620E-05-1.12378E-15
 -1      3530 1.11947E-03-7.02349E-05-1.36356E-15
 -1      3531 9.97815E-04-3.09543E-05-1.11627E-15
 -1      3532 8.22583E-03 5.47391E-04-3.59602E-14
 -1      3533 8.32820E-03 5.00206E-04-3.64921E-14
 -1      3534 3.86190E-03 3.32462E-04-1.15312E-14
 -1      3535 3.72114E-03 3.13957E-04-1.07287E-14
 -1      3536 4.45397E-03-2.77807E-04-1.55520E-14
 -1      3537 4.28754E-03-2.00631E-04-1.48760E-14
 -1      3538 8.93425E-03 6.57333E-04-4.49649E-14
 -1      3539 8.79886E-03 6.38716E-04-4.32547E-14
 -1      3540 4.59274E-03-3.65491E-04-1.60853E-14
 -1      3541 8.66306E-03 6.22804E-04-4.15719E-14
 -1      3542 8.52525E-03 6.10634E-04-3.99131E-14
 -1      3543 8.75771E-03 5.96450E-04-4.25911E-14
 -1      3544 9.47626E-03 7.51703E-04-5.20684E-14
 -1      3545 9.34003E-03 7.25841E-04-5.02545E-14
 -1      3546 9.75045E-03 8.06259E-04-5.57666E-14
 -1      3547 9.61299E-03 7.78549E-04-5.39054E-14
 -1      3548 9.54375E-03 7.34628E-04-5.31714E-14
 -1      3549 1.00271E-02 8.63276E-04-5.95609E-14
 -1      3550 9.88845E-03 8.34526E-04-5.76522E-14
 -1      3551 9.81343E-03 7.89299E-04-5.68972E-14
 -1      3552 1.03060E-02 9.21467E-04-6.34497E-14
 -1      3553 1.01663E-02 8.92271E-04-6.14937E-14
 -1      3554 1.00867E-02 8.45874E-04-6.07181E-14
 -1      3555 1.05866E-02 9.79922E-04-6.74234E-14
 -1      3556 1.04461E-02 9.50692E-04-6.54264E-14
 -1      3557 1.03629E-02 9.03335E-04-6.46310E-14
 -1      3558 1.08687E-02 1.03804E-03-7.14820E-14
 -1      3559 1.07275E-02 1.00904E-03-6.94427E-14
 -1      3560 1.06416E-02 9.60942E-04-6.86308E-14
 -1      3561 1.11518E-02 1.09546E-03-7.56149E-14
 -1      3562 1.10101E-02 1.06684E-03-7.35382E-14
 -1      3563 1.09221E-02 1.01820E-03-7.27109E-14
 -1      3564 1.14357E-02 1.15200E-03-7.98233E-14
 -1      3565 1.12937E-02 1.12384E-03-7.77117E-14
 -1      3566 1.12041E-02 1.07480E-03-7.68673E-14
 -1      3567 1.17202E-02 1.20761E-03-8.40959E-14
 -1      3568 1.15779E-02 1.17992E-03-8.19519E-14
 -1      3569 1.14872E-02 1.13061E-03-8.10941E-14
 -1      3570 1.20051E-02 1.26230E-03-8.84229E-14
 -1      3571 1.18626E-02 1.23506E-03-8.62533E-14
 -1      3572 1.17710E-02 1.18558E-03-8.53823E-14
 -1      3573 1.22903E-02 1.31615E-03-9.28106E-14
 -1      3574 1.21477E-02 1.28933E-03-9.06084E-14
 -1      3575 1.20555E-02 1.23973E-03-8.97244E-14
 -1      3576 1.25757E-02 1.36926E-03-9.72514E-14
 -1      3577 1.24330E-02 1.34279E-03-9.50249E-14
 -1      3578 1.23404E-02 1.29313E-03-9.41238E-14
 -1      3579 1.28613E-02 1.42174E-03-1.01746E-13
 -1      3580 1.27185E-02 1.39557E-03-9.94935E-14
 -1      3581 1.26256E-02 1.34587E-03-9.85776E-14
 -1      3582 1.31469E-02 1.47368E-03-1.06285E-13
 -1      3583 1.30041E-02 1.44777E-03-1.04011E-13
 -1      3584 1.29110E-02 1.39805E-03-1.03081E-13
 -1      3585 1.34326E-02 1.52520E-03-1.10862E-13
 -1      3586 1.32897E-02 1.49949E-03-1.08568E-13
 -1      3587 1.31965E-02 1.44976E-03-1.07628E-13
 -1      3588 1.37183E-02 1.57638E-03-1.15463E-13
 -1      3589 1.35754E-02 1.55083E-03-1.13159E-13
 -1      3590 1.34821E-02 1.50110E-03-1.12209E-13
 -1      3591 1.40040E-02 1.62732E-03-1.20087E-13
 -1      3592 1.38612E-02 1.60188E-03-1.17774E-13
 -1      3593 1.37678E-02 1.55215E-03-1.16817E-13
 -1      3594 4.11704E-03-1.03420E-04-1.43582E-14
 -1      3595 3.95900E-03-3.84670E-05-1.38105E-14
 -1      3596 8.15439E-03 2.91775E-04-3.74842E-14
 -1      3597 8.00927E-03 2.41506E-04-3.68587E-14
 -1      3598 1.42877E-02 1.63951E-03-1.25332E-13
 -1      3599 1.43153E-02 1.67678E-03-1.25239E-13
 -1      3600 1.42297E-02 1.66543E-03-1.23785E-13
 -1      3601 1.41516E-02 1.59672E-03-1.23431E-13
 -1      3602 1.38043E-02 1.22707E-03-1.22837E-13
 -1      3603 1.38285E-02 1.26831E-03-1.22633E-13
 -1      3604 7.84434E-03 1.73134E-04-3.62385E-14
 -1      3605 7.66300E-03 8.99486E-05-3.55102E-14
 -1      3606 7.21914E-03-1.45671E-04-3.34467E-14
 -1      3607 7.01350E-03-2.67550E-04-3.23361E-14
 -1      3608 8.08309E-03 6.13157E-04-3.51164E-14
 -1      3609 9.20448E-03 7.01322E-04-4.84647E-14
 -1      3610 9.06918E-03 6.78365E-04-4.67022E-14
 -1      3611 9.27809E-03 6.83162E-04-4.95425E-14
 -1      3612 3.04258E-03 2.74669E-04-7.14340E-15
 -1      3613 2.90685E-03 2.72499E-04-6.51248E-15
 -1      3614 6.86615E-03-3.69968E-04-3.16794E-14
 -1      3615 1.84889E-03-2.30214E-04-3.16620E-15
 -1      3616 1.99102E-03-2.33366E-04-3.62251E-15
 -1      3617 2.04730E-03-2.01666E-04-3.86540E-15
 -1      3618 4.01671E-03 3.13489E-04-1.33193E-14
 -1      3619 4.13970E-03 3.43477E-04-1.39844E-14
 -1      3620 1.56498E-03-2.19283E-04-2.34498E-15
 -1      3621 1.70689E-03-2.25578E-04-2.74039E-15
 -1      3622 1.76522E-03-1.96604E-04-2.95430E-15
 -1      3623 2.21813E-03 2.68044E-04-3.80119E-15
 -1      3624 2.07828E-03 2.66202E-04-3.34746E-15
 -1      3625 7.51170E-03 1.67049E-05-3.48014E-14
 -1      3626 7.36590E-03-6.24350E-05-3.41470E-14
 -1      3627 7.37781E-03-8.42928E-05-3.47318E-14
 -1      3628 7.66549E-03 6.39327E-05-3.61626E-14
 -1      3629 4.23600E-03 3.94919E-04-1.39124E-14
 -1      3630 6.24143E-03-6.51951E-04-2.67737E-14
 -1      3631 1.15495E-03-1.80200E-04-1.38131E-15
 -1      3632 1.23421E-03-1.96227E-04-1.54156E-15
 -1      3633 1.16944E-03-1.55562E-04-1.43303E-15
 -1      3634 3.62105E-03 1.21844E-04-1.30526E-14
 -1      3635 3.56987E-03 1.39483E-04-1.28069E-14
 -1      3636 3.68680E-03 2.14605E-04-1.24391E-14
 -1      3637 3.77935E-03 2.46212E-04-1.24923E-14
 -1      3638 1.34291E-03 2.52451E-04-1.41501E-15
 -1      3639 1.29735E-03 2.26620E-04-1.37776E-15
 -1      3640 1.48510E-03 2.63697E-04-1.70880E-15
 -1      3641 8.23958E-03 5.90005E-04-3.65705E-14
 -1      3642 1.28556E-03 1.95050E-04-1.42341E-15
 -1      3643 3.84712E-03-1.03434E-05-1.33142E-14
 -1      3644 3.74203E-03 1.09320E-05-1.28271E-14
 -1      3645 3.85525E-03-6.15489E-05-1.30182E-14
 -1      3646 8.38238E-03 5.92376E-04-3.81689E-14
 -1      3647 8.49560E-03 5.56810E-04-3.91567E-14
 -1      3648 5.79616E-03-7.44392E-04-2.34697E-14
 -1      3649 1.11354E-03-2.09330E-05-1.34560E-15
 -1      3650 1.34973E-02 9.48929E-04-1.21389E-13
 -1      3651 1.36200E-02 9.67329E-04-1.23434E-13
 -1      3652 1.36518E-02 9.94680E-04-1.23618E-13
 -1      3653 1.34474E-02 9.73549E-04-1.20060E-13
 -1      3654 3.59121E-03 2.69252E-04-1.04547E-14
 -1      3655 3.58371E-03 3.00737E-04-9.95506E-15
 -1      3656 3.44762E-03 2.90606E-04-9.20890E-15
 -1      3657 3.53063E-03 1.46649E-04-1.24240E-14
 -1      3658 3.50347E-03 1.52920E-04-1.20441E-14
 -1      3659 3.48444E-03 1.27192E-04-1.19538E-14
 -1      3660 2.77062E-03 2.71166E-04-5.91173E-15
 -1      3661 2.63355E-03 2.70446E-04-5.34010E-15
 -1      3662 2.80983E-03 2.41405E-04-6.30209E-15
 -1      3663 4.12663E-03-1.78893E-04-1.40054E-14
 -1      3664 1.20066E-03-1.07710E-04-1.53020E-15
 -1      3665 1.18464E-03-1.31431E-04-1.48273E-15
 -1      3666 1.26229E-03-1.44752E-04-1.65045E-15
 -1      3667 1.19050E-03-5.45960E-05-1.51828E-15
 -1      3668 1.19489E-03-8.07352E-05-1.52564E-15
 -1      3669 1.27089E-03-9.15856E-05-1.69703E-15
 -1      3670 1.41440E-02 1.65408E-03-1.22328E-13
 -1      3671 1.37797E-02 1.18510E-03-1.23042E-13
 -1      3672 1.36681E-02 1.18410E-03-1.20929E-13
 -1      3673 1.37551E-02 1.14313E-03-1.23245E-13
 -1      3674 7.96835E-03 2.00255E-04-3.75133E-14
 -1      3675 1.37173E-02 1.26784E-03-1.20519E-13
 -1      3676 1.38531E-02 1.31018E-03-1.22425E-13
 -1      3677 1.38777E-02 1.35205E-03-1.22215E-13
 -1      3678 8.41249E-03 4.88454E-04-3.73411E-14
 -1      3679 9.01643E-03 6.36458E-04-4.60134E-14
 -1      3680 3.17763E-03 2.78161E-04-7.80340E-15
 -1      3681 3.07382E-03 2.45322E-04-7.57132E-15
 -1      3682 3.31269E-03 2.83334E-04-8.49184E-15
 -1      3683 8.51153E-03 4.45994E-04-3.80916E-14
 -1      3684 8.49118E-03 4.26991E-04-3.75399E-14
 -1      3685 8.53245E-03 4.26837E-04-3.83822E-14
 -1      3686 8.45601E-03 3.91578E-04-3.79891E-14
 -1      3687 8.45030E-03 3.81542E-04-3.87691E-14
 -1      3688 8.51048E-03 4.04930E-04-3.86120E-14
 -1      3689 2.49582E-03 2.69851E-04-4.79730E-15
 -1      3690 2.35729E-03 2.69207E-04-4.28437E-15
 -1      3691 2.54117E-03 2.39709E-04-5.14949E-15
 -1      3692 1.23824E-03 9.41234E-05-1.50864E-15
 -1      3693 1.23374E-03 6.78400E-05-1.53530E-15
 -1      3694 1.99163E-03 2.34112E-04-3.19804E-15
 -1      3695 1.93794E-03 2.63236E-04-2.92335E-15
 -1      3696 1.39517E-02 1.47744E-03-1.21575E-13
 -1      3697 1.39765E-02 1.51944E-03-1.21357E-13
 -1      3698 3.90582E-03 2.91989E-04-1.26604E-14
 -1      3699 4.01941E-03 3.36679E-04-1.28166E-14
 -1      3700 2.26819E-03 2.38007E-04-4.11464E-15
 -1      3701 3.60555E-03 1.93368E-04-1.21813E-14
 -1      3702 3.58003E-03 2.04892E-04-1.15954E-14
 -1      3703 3.53721E-03 1.76649E-04-1.19225E-14
 -1      3704 1.37532E-03-2.07267E-04-1.86452E-15
 -1      3705 3.61785E-03 9.24720E-05-1.27200E-14
 -1      3706 1.40116E-02 1.57001E-03-1.21191E-13
 -1      3707 1.40506E-02 1.60434E-03-1.21368E-13
 -1      3708 8.25787E-03 3.21490E-04-3.81481E-14
 -1      3709 8.22823E-03 2.94507E-04-3.88151E-14
 -1      3710 8.35212E-03 3.45199E-04-3.88170E-14
 -1      3711 1.81598E-03 2.63181E-04-2.56868E-15
 -1      3712 1.43568E-03-1.82686E-04-2.04303E-15
 -1      3713 3.77785E-03 2.66605E-04-1.20092E-14
 -1      3714 1.34961E-03 5.80724E-05-1.81872E-15
 -1      3715 1.23084E-03 4.20209E-05-1.55858E-15
 -1      3716 1.22958E-03 1.64545E-05-1.57849E-15
 -1      3717 1.36837E-02 1.02203E-03-1.23796E-13
 -1      3718 1.38755E-02 1.52703E-03-1.19296E-13
 -1      3719 1.35778E-02 1.01877E-03-1.21830E-13
 -1      3720 1.37119E-02 1.05671E-03-1.23789E-13
 -1      3721 1.37364E-02 1.09872E-03-1.23592E-13
 -1      3722 1.34756E-02 1.00818E-03-1.20055E-13
 -1      3723 2.24319E-03-1.69832E-04-4.62527E-15
 -1      3724 2.38280E-03-1.68829E-04-5.17018E-15
 -1      3725 1.25215E-03 1.49196E-04-1.44452E-15
 -1      3726 1.24440E-03 1.21150E-04-1.47847E-15
 -1      3727 1.35963E-03 1.13204E-04-1.75851E-15
 -1      3728 2.52229E-03-1.67235E-04-5.74431E-15
 -1      3729 2.66187E-03-1.65218E-04-6.34773E-15
 -1      3730 2.43579E-03-1.35410E-04-5.44275E-15
 -1      3731 2.80158E-03-1.62964E-04-6.98120E-15
 -1      3732 2.94181E-03-1.60750E-04-7.64464E-15
 -1      3733 2.71101E-03-1.29882E-04-6.64647E-15
 -1      3734 3.08269E-03-1.58730E-04-8.33739E-15
 -1      3735 3.22487E-03-1.57422E-04-9.05966E-15
 -1      3736 2.98628E-03-1.23084E-04-7.96813E-15
 -1      3737 3.36863E-03-1.56951E-04-9.81034E-15
 -1      3738 3.51489E-03-1.58299E-04-1.05911E-14
 -1      3739 3.26384E-03-1.16629E-04-9.40711E-15
 -1      3740 3.96283E-03-1.61807E-04-1.31085E-14
 -1      3741 7.55661E-03-2.22626E-05-3.62742E-14
 -1      3742 3.95959E-03 3.53351E-04-1.19937E-14
 -1      3743 3.81031E-03 2.96411E-04-1.17031E-14
 -1      3744 5.97883E-03-7.29036E-04-2.48336E-14
 -1      3745 1.40089E-03 1.88177E-04-1.70170E-15
 -1      3746 7.72831E-03 2.90042E-05-3.78446E-14
 -1      3747 7.89263E-03 7.26519E-05-3.94442E-14
 -1      3748 7.69391E-03 4.61217E-05-3.70019E-14
 -1      3749 8.07307E-03 1.26921E-04-4.10397E-14
 -1      3750 8.22457E-03 1.58453E-04-4.26961E-14
 -1      3751 8.37199E-03 1.86466E-04-4.43792E-14
 -1      3752 8.51640E-03 2.12445E-04-4.60904E-14
 -1      3753 8.35906E-03 2.17519E-04-4.34412E-14
 -1      3754 8.65833E-03 2.36554E-04-4.78290E-14
 -1      3755 8.79870E-03 2.59685E-04-4.95942E-14
 -1      3756 8.63914E-03 2.63838E-04-4.68619E-14
 -1      3757 8.93776E-03 2.81903E-04-5.13865E-14
 -1      3758 9.07614E-03 3.03642E-04-5.32059E-14
 -1      3759 8.91284E-03 3.06532E-04-5.03903E-14
 -1      3760 9.21397E-03 3.24970E-04-5.50508E-14
 -1      3761 9.35165E-03 3.46098E-04-5.69225E-14
 -1      3762 9.18413E-03 3.48026E-04-5.40238E-14
 -1      3763 9.48923E-03 3.67100E-04-5.88204E-14
 -1      3764 9.62697E-03 3.88071E-04-6.07431E-14
 -1      3765 9.45526E-03 3.89356E-04-5.77625E-14
 -1      3766 9.76486E-03 4.09083E-04-6.26920E-14
 -1      3767 9.90306E-03 4.30168E-04-6.46631E-14
 -1      3768 9.72747E-03 4.31067E-04-6.16045E-14
 -1      3769 1.00415E-02 4.51390E-04-6.66589E-14
 -1      3770 1.01804E-02 4.72751E-04-6.86771E-14
 -1      3771 1.00013E-02 4.73431E-04-6.55440E-14
 -1      3772 1.03196E-02 4.94302E-04-7.07152E-14
 -1      3773 1.04591E-02 5.16031E-04-7.27774E-14
 -1      3774 1.02771E-02 5.16584E-04-6.95755E-14
 -1      3775 1.05990E-02 5.37975E-04-7.48555E-14
 -1      3776 1.07392E-02 5.60115E-04-7.69513E-14
 -1      3777 1.05547E-02 5.60583E-04-7.36922E-14
 -1      3778 1.08797E-02 5.82475E-04-7.90619E-14
 -1      3779 1.10205E-02 6.05034E-04-8.11895E-14
 -1      3780 1.08339E-02 6.05429E-04-7.78799E-14
 -1      3781 1.11615E-02 6.27806E-04-8.33347E-14
 -1      3782 1.13029E-02 6.50768E-04-8.54907E-14
 -1      3783 1.11147E-02 6.51089E-04-8.21294E-14
 -1      3784 1.14444E-02 6.73927E-04-8.76608E-14
 -1      3785 1.15861E-02 6.97261E-04-8.98446E-14
 -1      3786 1.13966E-02 6.97503E-04-8.64396E-14
 -1      3787 1.17280E-02 7.20771E-04-9.20413E-14
 -1      3788 1.18700E-02 7.44438E-04-9.42505E-14
 -1      3789 1.16796E-02 7.44595E-04-9.08008E-14
 -1      3790 1.20122E-02 7.68257E-04-9.64717E-14
 -1      3791 1.21545E-02 7.92211E-04-9.87066E-14
 -1      3792 1.19633E-02 7.92283E-04-9.52142E-14
 -1      3793 1.22969E-02 8.16295E-04-1.00955E-13
 -1      3794 1.24393E-02 8.40492E-04-1.03212E-13
 -1      3795 1.22477E-02 8.40480E-04-9.96791E-14
 -1      3796 1.25819E-02 8.64797E-04-1.05481E-13
 -1      3797 1.27245E-02 8.89197E-04-1.07762E-13
 -1      3798 1.25325E-02 8.89105E-04-1.04191E-13
 -1      3799 1.28672E-02 9.13682E-04-1.10051E-13
 -1      3800 1.30099E-02 9.38243E-04-1.12347E-13
 -1      3801 1.28176E-02 9.38082E-04-1.08745E-13
 -1      3802 1.31526E-02 9.62872E-04-1.14650E-13
 -1      3803 1.32954E-02 9.87560E-04-1.16963E-13
 -1      3804 1.31029E-02 9.87342E-04-1.13333E-13
 -1      3805 8.84278E-03 5.76074E-04-4.36117E-14
 -1      3806 8.72061E-03 5.56721E-04-4.19258E-14
 -1      3807 9.87328E-03 7.73171E-04-5.80280E-14
 -1      3808 9.73952E-03 7.45745E-04-5.61400E-14
 -1      3809 9.60703E-03 7.18903E-04-5.42764E-14
 -1      3810 9.47579E-03 6.92614E-04-5.24372E-14
 -1      3811 9.66633E-03 7.03884E-04-5.53817E-14
 -1      3812 1.04182E-02 8.85514E-04-6.58142E-14
 -1      3813 1.02807E-02 8.57182E-04-6.38336E-14
 -1      3814 1.06954E-02 9.42143E-04-6.98404E-14
 -1      3815 1.05565E-02 9.13832E-04-6.78171E-14
 -1      3816 1.04719E-02 8.67748E-04-6.70004E-14
 -1      3817 1.09747E-02 9.98453E-04-7.39424E-14
 -1      3818 1.08348E-02 9.70347E-04-7.18818E-14
 -1      3819 1.07480E-02 9.23334E-04-7.10494E-14
 -1      3820 1.12558E-02 1.05419E-03-7.81201E-14
 -1      3821 1.11151E-02 1.02640E-03-7.60218E-14
 -1      3822 1.10265E-02 9.78663E-04-7.51753E-14
 -1      3823 1.15382E-02 1.10923E-03-8.23643E-14
 -1      3824 1.13969E-02 1.08180E-03-8.02336E-14
 -1      3825 1.13070E-02 1.03352E-03-7.93725E-14
 -1      3826 1.18216E-02 1.16353E-03-8.66681E-14
 -1      3827 1.16798E-02 1.13647E-03-8.45099E-14
 -1      3828 1.15889E-02 1.08778E-03-8.36349E-14
 -1      3829 1.21057E-02 1.21713E-03-9.10259E-14
 -1      3830 1.19636E-02 1.19041E-03-8.88408E-14
 -1      3831 1.18719E-02 1.14142E-03-8.79537E-14
 -1      3832 1.23903E-02 1.27007E-03-9.54365E-14
 -1      3833 1.22480E-02 1.24367E-03-9.32245E-14
 -1      3834 1.21557E-02 1.19446E-03-9.23249E-14
 -1      3835 1.26754E-02 1.32244E-03-9.99028E-14
 -1      3836 1.25328E-02 1.29632E-03-9.76635E-14
 -1      3837 1.24402E-02 1.24695E-03-9.67490E-14
 -1      3838 1.29606E-02 1.37432E-03-1.04413E-13
 -1      3839 1.28180E-02 1.34844E-03-1.02153E-13
 -1      3840 1.27251E-02 1.29896E-03-1.01225E-13
 -1      3841 1.32461E-02 1.42581E-03-1.08968E-13
 -1      3842 1.31033E-02 1.40011E-03-1.06686E-13
 -1      3843 1.30103E-02 1.35056E-03-1.05745E-13
 -1      3844 1.35317E-02 1.47697E-03-1.13555E-13
 -1      3845 1.33889E-02 1.45143E-03-1.11257E-13
 -1      3846 1.32957E-02 1.40182E-03-1.10305E-13
 -1      3847 1.37327E-02 1.50164E-03-1.16984E-13
 -1      3848 1.44893E-03-1.55058E-04-2.10239E-15
 -1      3849 8.62135E-03 5.33586E-04-4.04882E-14
 -1      3850 8.50093E-03 5.08877E-04-3.87333E-14
 -1      3851 8.52894E-03 4.70099E-04-3.86384E-14
 -1      3852 8.70425E-03 5.15167E-04-4.14820E-14
 -1      3853 2.04542E-03 2.05684E-04-3.47944E-15
 -1      3854 1.90766E-03 2.02911E-04-3.04623E-15
 -1      3855 3.69389E-03 2.53288E-04-1.15458E-14
 -1      3856 8.15725E-03 2.25610E-04-3.99470E-14
 -1      3857 8.01432E-03 1.64332E-04-3.92972E-14
 -1      3858 3.82143E-03-1.73621E-04-1.22370E-14
 -1      3859 3.83439E-03-1.07126E-04-1.26307E-14
 -1      3860 3.72846E-03-8.01311E-05-1.21595E-14
 -1      3861 3.66735E-03-1.66181E-04-1.13988E-14
 -1      3862 9.09118E-03 6.19198E-04-4.70644E-14
 -1      3863 8.96599E-03 5.96887E-04-4.53247E-14
 -1      3864 8.91727E-03 5.59645E-04-4.46347E-14
 -1      3865 1.39023E-02 1.39379E-03-1.22004E-13
 -1      3866 1.39270E-02 1.43567E-03-1.21790E-13
 -1      3867 1.38157E-02 1.43478E-03-1.19675E-13
 -1      3868 1.37665E-02 1.35136E-03-1.20100E-13
 -1      3869 1.96363E-03-1.69321E-04-3.62561E-15
 -1      3870 2.10350E-03-1.70036E-04-4.11037E-15
 -1      3871 2.15961E-03-1.38522E-04-4.35727E-15
 -1      3872 4.08305E-03 3.79222E-04-1.26378E-14
 -1      3873 1.20796E-03-6.45984E-06-1.54432E-15
 -1      3874 1.20966E-03-3.19035E-05-1.55789E-15
 -1      3875 1.28424E-03-4.06347E-05-1.73192E-15
 -1      3876 1.32496E-03 6.93686E-06-1.80896E-15
 -1      3877 2.31817E-03 2.09051E-04-4.43469E-15
 -1      3878 2.18228E-03 2.07703E-04-3.94221E-15
 -1      3879 2.09946E-03 1.77991E-04-3.76805E-15
 -1      3880 1.68368E-03-1.64394E-04-2.74646E-15
 -1      3881 1.82370E-03-1.67471E-04-3.17106E-15
 -1      3882 1.88231E-03-1.38222E-04-3.39007E-15
 -1      3883 9.34607E-03 6.67202E-04-5.06209E-14
 -1      3884 9.21774E-03 6.42607E-04-4.88298E-14
 -1      3885 9.40864E-03 6.52524E-04-5.17007E-14
 -1      3886 3.60658E-03 5.88609E-05-1.23354E-14
 -1      3887 3.51284E-03 9.02524E-05-1.19544E-14
 -1      3888 1.71242E-03 2.66131E-04-2.27398E-15
 -1      3889 1.58950E-03 2.63442E-04-1.96363E-15
 -1      3890 1.54270E-03 2.37889E-04-1.91951E-15
 -1      3891 1.74963E-03 2.34117E-04-2.47732E-15
 -1      3892 1.01440E-02 8.28985E-04-6.18761E-14
 -1      3893 1.00081E-02 8.00912E-04-5.99408E-14
 -1      3894 9.93019E-03 7.57411E-04-5.91605E-14
 -1      3895 1.01991E-02 8.12265E-04-6.30338E-14
 -1      3896 1.36394E-02 1.45200E-03-1.16023E-13
 -1      3897 1.38974E-03-1.10496E-04-1.97962E-15
 -1      3898 1.56099E-03-1.44101E-04-2.41286E-15
 -1      3899 1.62191E-03-1.17733E-04-2.60401E-15
 -1      3900 1.38307E-03-8.14414E-05-1.97261E-15
 -1      3901 3.57746E-03 2.22627E-04-1.11691E-14
 -1      3902 3.59803E-03 2.46866E-04-1.08778E-14
 -1      3903 3.47556E-03 2.38821E-04-1.01001E-14
 -1      3904 3.49578E-03 2.00892E-04-1.09275E-14
 -1      3905 9.15846E-03 6.04196E-04-4.81160E-14
 -1      3906 1.48223E-03 1.32765E-04-2.02547E-15
 -1      3907 1.47475E-03 1.03555E-04-2.06336E-15
 -1      3908 3.33356E-03 2.53749E-04-8.95631E-15
 -1      3909 1.82632E-03 1.72453E-04-2.89294E-15
 -1      3910 1.76927E-03 1.99034E-04-2.64272E-15
 -1      3911 1.35901E-02 1.36868E-03-1.16451E-13
 -1      3912 1.36148E-02 1.41033E-03-1.16238E-13
 -1      3913 1.34138E-02 1.38575E-03-1.12814E-13
 -1      3914 3.55097E-03-1.17622E-04-1.09601E-14
 -1      3915 3.45266E-03 1.02926E-04-1.15901E-14
 -1      3916 3.40242E-03 1.12881E-04-1.12287E-14
 -1      3917 3.42385E-03 7.51083E-05-1.12261E-14
 -1      3918 2.84837E-03 2.13399E-04-6.69732E-15
 -1      3919 2.71804E-03 2.12096E-04-6.08807E-15
 -1      3920 1.34258E-02 1.03272E-03-1.18725E-13
 -1      3921 3.46044E-03 1.58853E-04-1.14703E-14
 -1      3922 1.36247E-02 1.09781E-03-1.21479E-13
 -1      3923 1.35814E-02 1.22524E-03-1.18618E-13
 -1      3924 1.36060E-02 1.26701E-03-1.18410E-13
 -1      3925 1.58974E-03 9.25853E-05-2.39313E-15
 -1      3926 1.46925E-03 7.50270E-05-2.09700E-15
 -1      3927 1.46580E-03 4.69094E-05-2.12647E-15
 -1      3928 1.35321E-02 1.14150E-03-1.19022E-13
 -1      3929 1.35568E-02 1.18337E-03-1.18819E-13
 -1      3930 1.34454E-02 1.18260E-03-1.16716E-13
 -1      3931 1.66679E-03 2.01938E-04-2.34503E-15
 -1      3932 8.25651E-03 2.71591E-04-4.01937E-14
 -1      3933 8.30640E-03 2.38320E-04-4.20322E-14
 -1      3934 8.44456E-03 2.60769E-04-4.37055E-14
 -1      3935 8.35697E-03 3.02038E-04-4.08815E-14
 -1      3936 3.10375E-03 2.18037E-04-8.00454E-15
 -1      3937 2.97687E-03 2.15416E-04-7.33624E-15
 -1      3938 2.88670E-03 1.87217E-04-7.09890E-15
 -1      3939 8.58907E-03 4.67038E-04-3.94955E-14
 -1      3940 8.56027E-03 4.21076E-04-3.91774E-14
 -1      3941 8.57696E-03 4.14505E-04-3.99732E-14
 -1      3942 8.60185E-03 4.37891E-04-3.97442E-14
 -1      3943 8.50881E-03 3.84196E-04-4.00875E-14
 -1      3944 8.43449E-03 3.66244E-04-3.94508E-14
 -1      3945 8.41642E-03 3.46932E-04-4.01311E-14
 -1      3946 2.58620E-03 2.11000E-04-5.50791E-15
 -1      3947 2.45281E-03 2.10137E-04-4.95658E-15
 -1      3948 2.36831E-03 1.81225E-04-4.76148E-15
 -1      3949 2.63127E-03 1.83779E-04-5.87148E-15
 -1      3950 3.61044E-03 1.84579E-05-1.20593E-14
 -1      3951 7.83123E-03 1.09277E-04-3.77331E-14
 -1      3952 1.52783E-03 1.55713E-04-2.09288E-15
 -1      3953 1.64204E-03 1.44943E-04-2.42758E-15
 -1      3954 2.35245E-03-1.05198E-04-5.14539E-15
 -1      3955 2.48857E-03-1.02411E-04-5.71564E-15
 -1      3956 2.62412E-03-9.90130E-05-6.31565E-15
 -1      3957 2.75933E-03-9.50540E-05-6.94425E-15
 -1      3958 2.54121E-03-6.99107E-05-5.98896E-15
 -1      3959 2.89411E-03-9.06411E-05-7.60313E-15
 -1      3960 3.02894E-03-8.59174E-05-8.29144E-15
 -1      3961 2.80687E-03-6.08133E-05-7.24265E-15
 -1      3962 3.16375E-03-8.09552E-05-9.00785E-15
 -1      3963 3.29940E-03-7.61687E-05-9.75335E-15
 -1      3964 3.06974E-03-4.92780E-05-8.61313E-15
 -1      3965 9.72188E-03 6.89338E-04-5.64870E-14
 -1      3966 9.59303E-03 6.63701E-04-5.46221E-14
 -1      3967 8.98184E-03 5.46381E-04-4.56606E-14
 -1      3968 8.86814E-03 5.25263E-04-4.39445E-14
 -1      3969 3.35190E-03 2.26531E-04-9.42543E-15
 -1      3970 3.22856E-03 2.21789E-04-8.70094E-15
 -1      3971 3.13290E-03 1.92879E-04-8.44218E-15
 -1      3972 1.77912E-03 1.49079E-04-2.81612E-15
 -1      3973 1.73342E-03 1.26160E-04-2.73703E-15
 -1      3974 1.91560E-03 1.52316E-04-3.23409E-15
 -1      3975 8.04144E-03 1.45106E-04-4.01662E-14
 -1      3976 8.62364E-03 2.90612E-04-4.58962E-14
 -1      3977 8.75734E-03 3.10619E-04-4.76323E-14
 -1      3978 8.89019E-03 3.30433E-04-4.93955E-14
 -1      3979 9.02300E-03 3.50302E-04-5.11851E-14
 -1      3980 8.86980E-03 3.53610E-04-4.84031E-14
 -1      3981 9.15571E-03 3.70254E-04-5.30011E-14
 -1      3982 9.28880E-03 3.90386E-04-5.48426E-14
 -1      3983 9.12861E-03 3.91626E-04-5.19797E-14
 -1      3984 9.42221E-03 4.10745E-04-5.67100E-14
 -1      3985 9.55619E-03 4.31334E-04-5.86025E-14
 -1      3986 9.38993E-03 4.31231E-04-5.56605E-14
 -1      3987 9.69069E-03 4.52195E-04-6.05206E-14
 -1      3988 9.82585E-03 4.73292E-04-6.24637E-14
 -1      3989 9.65440E-03 4.72434E-04-5.94412E-14
 -1      3990 9.96159E-03 4.94664E-04-6.44319E-14
 -1      3991 1.00980E-02 5.16264E-04-6.64223E-14
 -1      3992 9.92215E-03 5.15057E-04-6.33215E-14
 -1      3993 1.02350E-02 5.38129E-04-6.84367E-14
 -1      3994 1.03725E-02 5.60210E-04-7.04724E-14
 -1      3995 1.01930E-02 5.58907E-04-6.72990E-14
 -1      3996 1.05106E-02 5.82538E-04-7.25284E-14
 -1      3997 1.06493E-02 6.05067E-04-7.46054E-14
 -1      3998 1.04668E-02 6.03812E-04-7.13667E-14
 -1      3999 1.07884E-02 6.27822E-04-7.66968E-14
 -1      4000 1.09280E-02 6.50761E-04-7.88036E-14
 -1      4001 1.07431E-02 6.49625E-04-7.55130E-14
 -1      4002 1.10680E-02 6.73901E-04-8.09283E-14
 -1      4003 1.12084E-02 6.97208E-04-8.30656E-14
 -1      4004 1.10215E-02 6.96216E-04-7.97269E-14
 -1      4005 1.13491E-02 7.20692E-04-8.52187E-14
 -1      4006 1.14901E-02 7.44324E-04-8.73837E-14
 -1      4007 1.13016E-02 7.43470E-04-8.39983E-14
 -1      4008 1.16313E-02 7.68108E-04-8.95622E-14
 -1      4009 1.17729E-02 7.92020E-04-9.17546E-14
 -1      4010 1.15832E-02 7.91287E-04-8.83252E-14
 -1      4011 1.19146E-02 8.16062E-04-9.39590E-14
 -1      4012 1.20565E-02 8.40214E-04-9.61753E-14
 -1      4013 1.18659E-02 8.39577E-04-9.27040E-14
 -1      4014 1.21986E-02 8.64474E-04-9.84049E-14
 -1      4015 1.23408E-02 8.88827E-04-1.00648E-13
 -1      4016 1.21495E-02 8.88262E-04-9.71340E-14
 -1      4017 1.24831E-02 9.13268E-04-1.02904E-13
 -1      4018 1.26255E-02 9.37785E-04-1.05167E-13
 -1      4019 1.24338E-02 9.37272E-04-1.01615E-13
 -1      4020 1.27680E-02 9.62374E-04-1.07439E-13
 -1      4021 1.29106E-02 9.87025E-04-1.09724E-13
 -1      4022 1.27185E-02 9.86546E-04-1.06137E-13
 -1      4023 1.30533E-02 1.01173E-03-1.12018E-13
 -1      4024 1.31959E-02 1.03649E-03-1.14317E-13
 -1      4025 1.30036E-02 1.03603E-03-1.10700E-13
 -1      4026 8.67182E-03 4.81824E-04-4.08678E-14
 -1      4027 8.63938E-03 4.58630E-04-4.03042E-14
 -1      4028 8.67807E-03 4.51906E-04-4.11170E-14
 -1      4029 1.34446E-02 1.07704E-03-1.18383E-13
 -1      4030 3.43888E-03-7.54854E-05-1.05264E-14
 -1      4031 3.58177E-03-7.67650E-05-1.13289E-14
 -1      4032 3.33391E-03-3.94513E-05-1.00978E-14
 -1      4033 3.60706E-03-3.50833E-05-1.16964E-14
 -1      4034 3.48195E-03 1.31601E-05-1.12350E-14
 -1      4035 1.07995E-02 9.04458E-04-7.22580E-14
 -1      4036 1.06614E-02 8.77199E-04-7.02127E-14
 -1      4037 1.05241E-02 8.49959E-04-6.81857E-14
 -1      4038 1.03876E-02 8.22719E-04-6.61779E-14
 -1      4039 1.05750E-02 8.31950E-04-6.93715E-14
 -1      4040 1.13576E-02 1.01274E-03-8.06244E-14
 -1      4041 1.12173E-02 9.85811E-04-7.85079E-14
 -1      4042 1.16392E-02 1.06623E-03-8.49039E-14
 -1      4043 1.14982E-02 1.03955E-03-8.27565E-14
 -1      4044 1.14076E-02 9.91792E-04-8.18757E-14
 -1      4045 1.19219E-02 1.11922E-03-8.92381E-14
 -1      4046 1.17804E-02 1.09279E-03-8.70654E-14
 -1      4047 1.16891E-02 1.04453E-03-8.61726E-14
 -1      4048 1.22056E-02 1.17172E-03-9.36231E-14
 -1      4049 1.20637E-02 1.14553E-03-9.14260E-14
 -1      4050 1.19718E-02 1.09689E-03-9.05220E-14
 -1      4051 1.24900E-02 1.22377E-03-9.80601E-14
 -1      4052 1.23477E-02 1.19779E-03-9.58346E-14
 -1      4053 1.22554E-02 1.14886E-03-9.49212E-14
 -1      4054 1.27748E-02 1.27542E-03-1.02546E-13
 -1      4055 1.26323E-02 1.24964E-03-1.00299E-13
 -1      4056 1.25396E-02 1.20049E-03-9.93707E-14
 -1      4057 1.30599E-02 1.32674E-03-1.07076E-13
 -1      4058 1.29173E-02 1.30112E-03-1.04805E-13
 -1      4059 1.28244E-02 1.25181E-03-1.03867E-13
 -1      4060 1.33082E-02 1.36904E-03-1.11081E-13
 -1      4061 1.31655E-02 1.34354E-03-1.08796E-13
 -1      4062 1.30725E-02 1.29413E-03-1.07846E-13
 -1      4063 1.32836E-02 1.32754E-03-1.11296E-13
 -1      4064 8.76226E-03 5.04645E-04-4.23103E-14
 -1      4065 1.50412E-03 1.87799E-04-1.95460E-15
 -1      4066 2.18573E-03 1.56920E-04-4.15820E-15
 -1      4067 2.05119E-03 1.54899E-04-3.68134E-15
 -1      4068 2.00468E-03 1.32111E-04-3.59237E-15
 -1      4069 2.07876E-03-1.08538E-04-4.09319E-15
 -1      4070 2.21588E-03-1.07246E-04-4.60455E-15
 -1      4071 2.27237E-03-7.62799E-05-4.85260E-15
 -1      4072 1.80340E-03-1.08434E-04-3.15909E-15
 -1      4073 1.94127E-03-1.08923E-04-3.61111E-15
 -1      4074 2.00067E-03-7.96721E-05-3.83397E-15
 -1      4075 1.35858E-02 1.29705E-03-1.17535E-13
 -1      4076 1.36103E-02 1.33868E-03-1.17326E-13
 -1      4077 1.34094E-02 1.31429E-03-1.13900E-13
 -1      4078 1.34498E-02 1.25440E-03-1.15641E-13
 -1      4079 3.38034E-03 1.40521E-04-1.09346E-14
 -1      4080 3.40768E-03 1.65787E-04-1.08187E-14
 -1      4081 9.46610E-03 6.38767E-04-5.27800E-14
 -1      4082 9.34118E-03 6.14375E-04-5.09615E-14
 -1      4083 9.51910E-03 6.25162E-04-5.38588E-14
 -1      4084 9.21868E-03 5.90913E-04-4.91698E-14
 -1      4085 9.09869E-03 5.68076E-04-4.74009E-14
 -1      4086 9.03750E-03 5.34244E-04-4.66866E-14
 -1      4087 9.27271E-03 5.78143E-04-5.02223E-14
 -1      4088 1.10775E-02 9.58785E-04-7.64075E-14
 -1      4089 1.09382E-02 9.31648E-04-7.43233E-14
 -1      4090 1.08501E-02 8.85366E-04-7.34690E-14
 -1      4091 1.11278E-02 9.38706E-04-7.76401E-14
 -1      4092 3.37254E-03-2.41841E-06-1.04936E-14
 -1      4093 3.39048E-03 4.25991E-05-1.08326E-14
 -1      4094 3.32537E-03 5.85757E-05-1.04903E-14
 -1      4095 3.24442E-03-7.55383E-06-9.72361E-15
 -1      4096 3.32511E-03 1.18992E-04-1.05926E-14
 -1      4097 3.25284E-03 1.26098E-04-9.97175E-15
 -1      4098 3.27739E-03 9.58689E-05-1.02504E-14
 -1      4099 9.85235E-03 7.15364E-04-5.83790E-14
 -1      4100 9.77416E-03 6.74746E-04-5.75967E-14
 -1      4101 9.98433E-03 7.41863E-04-6.02947E-14
 -1      4102 8.82025E-03 4.93041E-04-4.33091E-14
 -1      4103 1.41916E-03-3.13869E-05-2.06347E-15
 -1      4104 1.40051E-03-5.63597E-05-2.01939E-15
 -1      4105 1.51799E-03-7.29022E-05-2.32889E-15
 -1      4106 1.72570E-03 9.59115E-05-2.78103E-15
 -1      4107 8.56968E-03 3.08692E-04-4.44483E-14
 -1      4108 1.03034E-02 7.78744E-04-6.53556E-14
 -1      4109 1.02521E-02 7.95607E-04-6.41945E-14
 -1      4110 1.01176E-02 7.68595E-04-6.22336E-14
 -1      4111 1.68330E-03-9.10218E-05-2.79769E-15
 -1      4112 2.31890E-03 1.58681E-04-4.66435E-15
 -1      4113 2.27164E-03 1.36349E-04-4.56483E-15
 -1      4114 2.45059E-03 1.60219E-04-5.20005E-15
 -1      4115 1.58148E-03 3.42361E-05-2.45665E-15
 -1      4116 1.46355E-03 1.85729E-05-2.15014E-15
 -1      4117 1.33359E-02 1.20707E-03-1.14244E-13
 -1      4118 1.33157E-02 1.23699E-03-1.13376E-13
 -1      4119 3.36911E-03 2.07027E-04-9.82325E-15
 -1      4120 1.33332E-02 1.07641E-03-1.16281E-13
 -1      4121 8.58021E-03 4.03930E-04-4.06677E-14
 -1      4122 8.57749E-03 3.90674E-04-4.13629E-14
 -1      4123 8.64283E-03 4.22206E-04-4.12501E-14
 -1      4124 2.70832E-03 1.63652E-04-6.35856E-15
 -1      4125 2.58042E-03 1.61885E-04-5.76478E-15
 -1      4126 2.53234E-03 1.40205E-04-5.65448E-15
 -1      4127 1.44206E-03-6.55770E-06-2.11217E-15
 -1      4128 3.39566E-03 1.77061E-04-1.05206E-14
 -1      4129 3.37874E-03 1.92788E-04-1.01173E-14
 -1      4130 3.26646E-03 1.82928E-04-9.43980E-15
 -1      4131 3.29845E-03 1.58200E-04-1.00119E-14
 -1      4132 2.95687E-03 1.68535E-04-7.63446E-15
 -1      4133 2.83382E-03 1.65924E-04-6.98203E-15
 -1      4134 2.78460E-03 1.44952E-04-6.86201E-15
 -1      4135 1.32835E-02 1.10078E-03-1.14955E-13
 -1      4136 1.32974E-02 1.13307E-03-1.14701E-13
 -1      4137 1.33220E-02 1.17481E-03-1.14500E-13
 -1      4138 1.31879E-02 1.15751E-03-1.12237E-13
 -1      4139 1.31601E-02 1.09308E-03-1.12745E-13
 -1      4140 2.72470E-03-3.32663E-05-6.88658E-15
 -1      4141 2.85414E-03-2.75908E-05-7.54040E-15
 -1      4142 2.98214E-03-2.11709E-05-8.22259E-15
 -1      4143 3.10923E-03-1.39686E-05-8.93397E-15
 -1      4144 2.90142E-03 4.52220E-06-7.83650E-15
 -1      4145 3.17255E-03 1.77122E-04-8.86923E-15
 -1      4146 3.05467E-03 1.73392E-04-8.16603E-15
 -1      4147 3.00339E-03 1.52994E-04-8.03743E-15
 -1      4148 3.19093E-03 1.63848E-04-9.14515E-15
 -1      4149 2.19559E-03-4.85230E-05-4.56537E-15
 -1      4150 2.32950E-03-4.57729E-05-5.10174E-15
 -1      4151 8.85106E-03 3.75382E-04-4.74139E-14
 -1      4152 8.97626E-03 3.93197E-04-4.91746E-14
 -1      4153 8.75250E-03 4.64091E-04-4.24070E-14
 -1      4154 8.70147E-03 4.42901E-04-4.18294E-14
 -1      4155 8.71657E-03 4.33054E-04-4.25390E-14
 -1      4156 9.10229E-03 4.11757E-04-5.09603E-14
 -1      4157 9.22965E-03 4.30884E-04-5.27747E-14
 -1      4158 9.07645E-03 4.30552E-04-4.99439E-14
 -1      4159 9.35796E-03 4.50610E-04-5.46124E-14
 -1      4160 9.48757E-03 4.70875E-04-5.64761E-14
 -1      4161 9.32601E-03 4.68780E-04-5.35670E-14
 -1      4162 9.61819E-03 4.91675E-04-5.83656E-14
 -1      4163 9.74997E-03 5.12899E-04-6.02774E-14
 -1      4164 9.58181E-03 5.09851E-04-5.72914E-14
 -1      4165 9.88271E-03 5.34552E-04-6.22147E-14
 -1      4166 1.00165E-02 5.56543E-04-6.41783E-14
 -1      4167 9.84305E-03 5.53099E-04-6.11127E-14
 -1      4168 1.01511E-02 5.78883E-04-6.61664E-14
 -1      4169 1.02866E-02 6.01492E-04-6.81754E-14
 -1      4170 1.01090E-02 5.98019E-04-6.50332E-14
 -1      4171 1.04229E-02 6.24383E-04-7.02076E-14
 -1      4172 1.05600E-02 6.47488E-04-7.22606E-14
 -1      4173 1.03789E-02 6.44217E-04-6.90499E-14
 -1      4174 1.06977E-02 6.70821E-04-7.43318E-14
 -1      4175 1.08360E-02 6.94326E-04-7.64193E-14
 -1      4176 1.06522E-02 6.91383E-04-7.31512E-14
 -1      4177 1.09749E-02 7.18016E-04-7.85251E-14
 -1      4178 1.11143E-02 7.41843E-04-8.06461E-14
 -1      4179 1.09283E-02 7.39279E-04-7.73237E-14
 -1      4180 1.12542E-02 7.65820E-04-8.27788E-14
 -1      4181 1.13945E-02 7.89908E-04-8.49268E-14
 -1      4182 1.12067E-02 7.87723E-04-8.15598E-14
 -1      4183 1.15351E-02 8.14117E-04-8.70886E-14
 -1      4184 1.16761E-02 8.38416E-04-8.92628E-14
 -1      4185 1.14870E-02 8.36582E-04-8.58517E-14
 -1      4186 1.18173E-02 8.62813E-04-9.14493E-14
 -1      4187 1.19588E-02 8.87283E-04-9.36503E-14
 -1      4188 1.17687E-02 8.85754E-04-9.01964E-14
 -1      4189 1.21006E-02 9.11830E-04-9.58653E-14
 -1      4190 1.22425E-02 9.36438E-04-9.80902E-14
 -1      4191 1.20516E-02 9.35166E-04-9.45951E-14
 -1      4192 1.23845E-02 9.61107E-04-1.00329E-13
 -1      4193 1.25268E-02 9.85824E-04-1.02579E-13
 -1      4194 1.23353E-02 9.84760E-04-9.90448E-14
 -1      4195 1.26691E-02 1.01059E-03-1.04839E-13
 -1      4196 1.28115E-02 1.03539E-03-1.07105E-13
 -1      4197 1.26197E-02 1.03449E-03-1.03538E-13
 -1      4198 1.30175E-02 1.06820E-03-1.10451E-13
 -1      4199 1.20214E-02 1.07440E-03-9.18032E-14
 -1      4200 1.18799E-02 1.04856E-03-8.96143E-14
 -1      4201 2.46234E-03-4.23386E-05-5.66704E-15
 -1      4202 2.59417E-03-3.81529E-05-6.26199E-15
 -1      4203 2.64769E-03-7.24237E-06-6.53511E-15
 -1      4204 8.53686E-03 3.29398E-04-4.31699E-14
 -1      4205 8.70108E-03 3.53519E-04-4.53500E-14
 -1      4206 1.33098E-02 1.26735E-03-1.12773E-13
 -1      4207 1.32896E-02 1.29721E-03-1.11903E-13
 -1      4208 1.31840E-02 1.28059E-03-1.10174E-13
 -1      4209 1.31958E-02 1.22002E-03-1.11381E-13
 -1      4210 1.17387E-02 1.02265E-03-8.74409E-14
 -1      4211 1.15978E-02 9.96672E-04-8.52771E-14
 -1      4212 1.17881E-02 1.00056E-03-8.87037E-14
 -1      4213 1.14573E-02 9.70636E-04-8.31272E-14
 -1      4214 1.13172E-02 9.44534E-04-8.09923E-14
 -1      4215 1.15066E-02 9.49223E-04-8.43793E-14
 -1      4216 1.23050E-02 1.12588E-03-9.62144E-14
 -1      4217 1.21631E-02 1.10017E-03-9.40025E-14
 -1      4218 1.20708E-02 1.05174E-03-9.30817E-14
 -1      4219 1.25892E-02 1.17711E-03-1.00680E-13
 -1      4220 1.24470E-02 1.15153E-03-9.84420E-14
 -1      4221 1.23545E-02 1.10276E-03-9.75109E-14
 -1      4222 1.28740E-02 1.22812E-03-1.05183E-13
 -1      4223 1.27316E-02 1.20264E-03-1.02926E-13
 -1      4224 1.26388E-02 1.15362E-03-1.01984E-13
 -1      4225 1.87467E-03 9.52960E-05-3.25040E-15
 -1      4226 1.73447E-03 6.27036E-05-2.86831E-15
 -1      4227 1.55708E-03-2.08358E-05-2.43073E-15
 -1      4228 1.73122E-03 3.26589E-05-2.90023E-15
 -1      4229 8.49703E-03 3.47237E-04-4.17457E-14
 -1      4230 9.56814E-03 6.11475E-04-5.49424E-14
 -1      4231 9.44349E-03 5.88036E-04-5.30968E-14
 -1      4232 1.06247E-02 8.13664E-04-7.05627E-14
 -1      4233 1.04884E-02 7.87558E-04-6.85288E-14
 -1      4234 1.69908E-03-6.33817E-05-2.85175E-15
 -1      4235 1.92536E-03-5.18956E-05-3.58023E-15
 -1      4236 2.06086E-03-5.05537E-05-4.05790E-15
 -1      4237 2.12199E-03-2.16191E-05-4.28317E-15
 -1      4238 2.00904E-03 9.77431E-05-3.70078E-15
 -1      4239 8.85295E-03 4.83248E-04-4.40396E-14
 -1      4240 8.80870E-03 3.91272E-04-4.60948E-14
 -1      4241 1.00361E-02 7.26160E-04-6.14302E-14
 -1      4242 3.15659E-03 1.87021E-05-9.30287E-15
 -1      4243 1.93235E-03 1.94516E-05-3.57054E-15
 -1      4244 1.78384E-03-9.13638E-06-3.10246E-15
 -1      4245 1.29680E-02 1.09235E-03-1.09136E-13
 -1      4246 2.15841E-03 1.00758E-04-4.23979E-15
 -1      4247 2.03339E-03 6.45582E-05-3.86059E-15
 -1      4248 1.03530E-02 7.61597E-04-6.65191E-14
 -1      4249 1.02187E-02 7.35758E-04-6.45316E-14
 -1      4250 1.04014E-02 7.44005E-04-6.76836E-14
 -1      4251 2.38746E-03-1.58007E-05-5.35055E-15
 -1      4252 9.08556E-03 5.23037E-04-4.77106E-14
 -1      4253 8.97282E-03 5.02776E-04-4.59667E-14
 -1      4254 3.22915E-03 6.85021E-05-9.88069E-15
 -1      4255 9.36558E-03 5.52277E-04-5.23328E-14
 -1      4256 9.32128E-03 5.65496E-04-5.12759E-14
 -1      4257 9.20175E-03 5.43532E-04-4.94816E-14
 -1      4258 1.71918E-03-3.61909E-05-2.91119E-15
 -1      4259 8.57861E-03 3.69313E-04-4.24028E-14
 -1      4260 8.89225E-03 4.72564E-04-4.50349E-14
 -1      4261 1.30817E-02 1.26272E-03-1.08534E-13
 -1      4262 1.29762E-02 1.24604E-03-1.06816E-13
 -1      4263 1.28833E-02 1.19685E-03-1.05865E-13
 -1      4264 1.30877E-02 1.23251E-03-1.09136E-13
 -1      4265 1.07619E-02 8.39812E-04-7.26117E-14
 -1      4266 1.06734E-02 7.94978E-04-7.17526E-14
 -1      4267 1.08998E-02 8.66016E-04-7.46807E-14
 -1      4268 9.82353E-03 6.59941E-04-5.87059E-14
 -1      4269 9.69488E-03 6.35389E-04-5.68113E-14
 -1      4270 9.61401E-03 5.97237E-04-5.60271E-14
 -1      4271 8.65837E-03 3.92821E-04-4.30029E-14
 -1      4272 2.29008E-03 1.02963E-04-4.75209E-15
 -1      4273 8.75547E-03 4.23737E-04-4.37770E-14
 -1      4274 8.77165E-03 4.05475E-04-4.48432E-14
 -1      4275 8.91082E-03 4.25775E-04-4.68977E-14
 -1      4276 8.82395E-03 4.46870E-04-4.43756E-14
 -1      4277 1.11775E-02 9.18394E-04-7.88735E-14
 -1      4278 1.10383E-02 8.92206E-04-7.67699E-14
 -1      4279 1.12266E-02 8.97779E-04-8.01067E-14
 -1      4280 2.54807E-03 1.07991E-04-5.86472E-15
 -1      4281 2.42007E-03 1.05429E-04-5.29366E-15
 -1      4282 2.31306E-03 7.02275E-05-4.93556E-15
 -1      4283 3.23305E-03 1.40390E-04-9.70359E-15
 -1      4284 3.21111E-03 1.51624E-04-9.42338E-15
 -1      4285 3.12107E-03 1.45589E-04-8.85225E-15
 -1      4286 2.68603E-03 1.12907E-04-6.51966E-15
 -1      4287 2.58171E-03 7.83753E-05-6.12357E-15
 -1      4288 3.16759E-03 1.18582E-04-9.38319E-15
 -1      4289 2.80886E-03 1.16326E-04-7.15136E-15
 -1      4290 2.08222E-03 2.21561E-05-4.10384E-15
 -1      4291 2.61472E-03 3.73478E-05-6.36157E-15
 -1      4292 2.47539E-03 3.13268E-05-5.71221E-15
 -1      4293 1.00856E-02 7.10189E-04-6.25656E-14
 -1      4294 9.95382E-03 6.84848E-04-6.06242E-14
 -1      4295 9.87054E-03 6.44614E-04-5.98159E-14
 -1      4296 2.21474E-03 2.47738E-05-4.61089E-15
 -1      4297 9.04976E-03 4.47734E-04-4.89289E-14
 -1      4298 9.17056E-03 4.66185E-04-5.07140E-14
 -1      4299 9.35082E-03 5.12022E-04-5.29588E-14
 -1      4300 9.47542E-03 5.32879E-04-5.48002E-14
 -1      4301 9.60186E-03 5.54619E-04-5.66662E-14
 -1      4302 9.73007E-03 5.76801E-04-5.85570E-14
 -1      4303 9.85982E-03 5.99635E-04-6.04727E-14
 -1      4304 9.99101E-03 6.22805E-04-6.24110E-14
 -1      4305 1.01235E-02 6.46446E-04-6.43761E-14
 -1      4306 1.02571E-02 6.70324E-04-6.63636E-14
 -1      4307 1.03919E-02 6.94534E-04-6.83737E-14
 -1      4308 1.05275E-02 7.18902E-04-7.04073E-14
 -1      4309 1.06641E-02 7.43497E-04-7.24593E-14
 -1      4310 1.08014E-02 7.68190E-04-7.45277E-14
 -1      4311 1.09395E-02 7.93034E-04-7.66174E-14
 -1      4312 1.10781E-02 8.17934E-04-7.87216E-14
 -1      4313 1.12174E-02 8.42931E-04-8.08402E-14
 -1      4314 1.13571E-02 8.67955E-04-8.29754E-14
 -1      4315 1.14973E-02 8.93038E-04-8.51239E-14
 -1      4316 1.16378E-02 9.18132E-04-8.72854E-14
 -1      4317 1.17787E-02 9.43260E-04-8.94588E-14
 -1      4318 1.19200E-02 9.68388E-04-9.16452E-14
 -1      4319 1.20614E-02 9.93533E-04-9.38456E-14
 -1      4320 1.22031E-02 1.01867E-03-9.60596E-14
 -1      4321 1.23450E-02 1.04382E-03-9.82854E-14
 -1      4322 1.24871E-02 1.06896E-03-1.00521E-13
 -1      4323 1.26293E-02 1.09410E-03-1.02765E-13
 -1      4324 1.27716E-02 1.11924E-03-1.05022E-13
 -1      4325 9.12757E-03 5.10704E-04-4.87375E-14
 -1      4326 3.10738E-03 6.00443E-05-9.08692E-15
 -1      4327 2.74013E-03 4.24282E-05-6.98844E-15
 -1      4328 2.34582E-03 2.77138E-05-5.14722E-15
 -1      4329 8.94345E-03 4.64550E-04-4.63042E-14
 -1      4330 1.30736E-02 1.17555E-03-1.09791E-13
 -1      4331 1.30676E-02 1.20578E-03-1.09192E-13
 -1      4332 2.86647E-03 4.66651E-05-7.66454E-15
 -1      4333 2.98678E-03 5.36364E-05-8.34998E-15
 -1      4334 3.08168E-03 9.71931E-05-8.88478E-15
 -1      4335 2.84289E-03 8.74974E-05-7.45935E-15
 -1      4336 2.93114E-03 1.19396E-04-7.83411E-15
 -1      4337 1.29819E-02 1.12444E-03-1.08885E-13
 -1      4338 1.29654E-02 1.18801E-03-1.07555E-13
 -1      4339 9.07669E-03 4.87022E-04-4.83268E-14
 -1      4340 9.00145E-03 4.58840E-04-4.76408E-14
 -1      4341 1.28633E-02 1.17023E-03-1.05919E-13
 -1      4342 9.22843E-03 4.91625E-04-5.11417E-14
 -1      4343 1.09487E-02 8.46314E-04-7.58957E-14
 -1      4344 1.01334E-02 6.93731E-04-6.37033E-14
 -1      4345 1.28537E-02 1.11032E-03-1.06706E-13
 -1      4346 3.02479E-03 1.25078E-04-8.37440E-15
 -1      4347 3.05397E-03 1.12910E-04-8.63548E-15
 -1      4348 9.19328E-03 5.06218E-04-5.01055E-14
 -3
    1PSTEP                         2           1           1          
  100CL  101 1.000000000        4348                     0    1           1
 -4  STRESS      6    1
 -5  SXX         1    4    1    1
 -5  SYY         1    4    2    2
 -5  SZZ         1    4    3    3
 -5  SXY         1    4    1    2
 -5  SYZ         1    4    2    3
 -5  SZX         1    4    3    1
 -1         1 1.04954E+01 9.24198E+00-5.49155E-02 9.83342E+00-3.35332E-12-3.25834E-12
 -1         2-7.30161E-01-2.45972E+01-3.36291E+00-6.29605E-02 8.79088E-14 1.51650E-13
 -1         3 2.00001E+01 2.81640E-04-1.76064E-05 2.71491E-04-3.66254E-13-6.03580E-13
 -1         4 2.00000E+01 2.30433E-04-4.40497E-05-2.26240E-04 2.30665E-13 2.02069E-13
 -1         5 3.24340E+01 6.08435E+00 2.66981E+00 6.14243E+00-4.55816E-14 3.26407E-12
 -1         6 3.53656E+01 1.21129E+01 5.01060E+00-8.52446E+00-1.88682E-13 2.55362E-12
 -1         7 2.08842E+01 6.11335E+00-1.07116E-01-4.60016E+00-2.87687E-14 2.92485E-13
 -1         8 1.97875E+01 5.96633E+00 6.17433E-02-3.10557E+00-2.95805E-14-3.55497E-13
 -1         9 1.92510E+01 5.80379E+00 5.48133E-02-2.32779E+00-2.62828E-14-6.89802E-13
 -1        10 1.89699E+01 5.71298E+00 5.19905E-02-1.74450E+00-1.30330E-14-8.42825E-13
 -1        11 1.87940E+01 5.65615E+00 4.73365E-02-1.26403E+00-1.10493E-14-8.96647E-13
 -1        12 1.86761E+01 5.61835E+00 4.25848E-02-8.57669E-01-1.06382E-15-9.06685E-13
 -1        13 1.85980E+01 5.59361E+00 3.86671E-02-4.90391E-01 1.15619E-15-8.86581E-13
 -1        14 1.85587E+01 5.58125E+00 3.64752E-02-1.50829E-01 6.94594E-15-8.55724E-13
 -1        15 1.85584E+01 5.58113E+00 3.62807E-02 1.78769E-01 1.46297E-14-8.19808E-13
 -1        16 1.85978E+01 5.59346E+00 3.81781E-02 5.16378E-01 1.68585E-14-7.69092E-13
 -1        17 1.86779E+01 5.61859E+00 4.20431E-02 8.80966E-01 2.16914E-14-7.01894E-13
 -1        18 1.87998E+01 5.65753E+00 4.72107E-02 1.28534E+00 2.48907E-14-5.83622E-13
 -1        19 1.89811E+01 5.71594E+00 5.23168E-02 1.76805E+00 3.66634E-14-3.99974E-13
 -1        20 1.92636E+01 5.80825E+00 5.47507E-02 2.35800E+00 4.08978E-14-1.08394E-13
 -1        21 1.97895E+01 5.98198E+00 5.75011E-02 3.13366E+00 4.20566E-14 4.00704E-13
 -1        22 2.12399E+01 6.38496E+00 1.50761E-01 4.39613E+00 2.73392E-15 1.34789E-12
 -1        23 2.29780E+01-1.38092E+00-9.41502E-01-6.77612E-01-1.30847E-13 1.89107E-12
 -1        24 1.95186E+01-9.95928E-02-3.06129E-01 6.69077E-02-2.72690E-14 1.34338E-12
 -1        25 1.89925E+01-5.73751E-02-6.84381E-02 6.20566E-02-2.18048E-14 8.00733E-13
 -1        26 1.89623E+01-2.42157E-02-8.79196E-03 3.47648E-02 1.14300E-14 4.37992E-13
 -1        27 1.91782E+01-1.46123E-02-2.20011E-03 2.55112E-02-3.27156E-14 2.33355E-13
 -1        28 1.95423E+01-9.36814E-03-2.82843E-03 2.08553E-02-1.61568E-15 7.50658E-14
 -1        29 2.00051E+01-6.03070E-03-3.06373E-03 1.87803E-02 2.36289E-14-6.85060E-14
 -1        30 2.05349E+01-3.27139E-03-2.10300E-03 1.81401E-02-1.81209E-14-2.51727E-13
 -1        31 2.11019E+01-2.74603E-04 3.20842E-04 1.80935E-02-1.02812E-14-4.22219E-13
 -1        32 2.16673E+01 3.50362E-03 4.76398E-03 1.76724E-02-1.63349E-14-5.41879E-13
 -1        33 2.21739E+01 8.30455E-03 1.17853E-02 1.55144E-02 6.08929E-14-5.50333E-13
 -1        34 2.25402E+01 1.38502E-02 2.13246E-02 9.79965E-03-1.75096E-14-5.22834E-13
 -1        35 2.26629E+01 1.90314E-02 3.18109E-02-1.39288E-03-2.00530E-14-6.48057E-13
 -1        36 2.24347E+01 2.17433E-02 3.93250E-02-1.89941E-02 1.95870E-14-6.40045E-13
 -1        37 2.17859E+01 1.92551E-02 3.77444E-02-4.10656E-02-2.81953E-14-6.65410E-13
 -1        38 2.07438E+01 9.64291E-03 2.15791E-02-6.10795E-02 2.39473E-14-7.87901E-13
 -1        39 1.94868E+01-6.19671E-03-9.28895E-03-6.85618E-02-7.00167E-15-6.04478E-13
 -1        40 1.83391E+01-2.33563E-02-4.50812E-02-5.46552E-02 1.65883E-16-6.85368E-13
 -1        41 1.76693E+01-3.44079E-02-6.90139E-02-1.96182E-02 2.38217E-14-8.59150E-13
 -1        42 1.77219E+01-3.39095E-02-6.78754E-02 2.37617E-02-6.46616E-14-1.03031E-12
 -1        43 1.84849E+01-2.21261E-02-4.23503E-02 5.72691E-02 2.41810E-14-1.04843E-12
 -1        44 1.96978E+01-4.96670E-03-6.54400E-03 6.91209E-02-2.90864E-15-8.86416E-13
 -1        45 2.09915E+01 1.02741E-02 2.29698E-02 6.01114E-02 8.42642E-15-6.73333E-13
 -1        46 2.20557E+01 1.90152E-02 3.73554E-02 3.98462E-02-2.58721E-14-7.22733E-13
 -1        47 2.27316E+01 2.07592E-02 3.74789E-02 1.85225E-02-8.72804E-15-5.82613E-13
 -1        48 2.30063E+01 1.76391E-02 2.92134E-02 2.18509E-03-3.71662E-14-5.06944E-13
 -1        49 2.29578E+01 1.23781E-02 1.85084E-02-7.57853E-03-1.49554E-14-6.88371E-13
 -1        50 2.26954E+01 7.02925E-03 9.04053E-03-1.18222E-02-2.47234E-14-8.20814E-13
 -1        51 2.23205E+01 2.67238E-03 2.21679E-03-1.24232E-02 8.23862E-14-7.79644E-13
 -1        52 2.19102E+01-3.73910E-04-1.96595E-03-1.10710E-02-1.09926E-13-7.19981E-13
 -1        53 2.15145E+01-2.21687E-03-4.09444E-03-8.94053E-03 1.17098E-13-7.24225E-13
 -1        54 2.11613E+01-3.13001E-03-4.84632E-03-6.71911E-03 1.32626E-14-9.00562E-13
 -1        55 2.08625E+01-3.40427E-03-4.78038E-03-4.74465E-03-5.14235E-14-1.28060E-12
 -1        56 2.06200E+01-3.28356E-03-4.29076E-03-3.14130E-03 6.40474E-14-1.29773E-12
 -1        57 2.04297E+01-2.94816E-03-3.62853E-03-1.91819E-03-4.10996E-14-1.28883E-12
 -1        58 2.02850E+01-2.52014E-03-2.94034E-03-1.03129E-03 3.25977E-14-1.23336E-12
 -1        59 2.01782E+01-2.07598E-03-2.30378E-03-4.18276E-04-7.22098E-14-1.24819E-12
 -1        60 2.01018E+01-1.65950E-03-1.75367E-03-1.62312E-05-2.81200E-15-9.41087E-13
 -1        61 2.00492E+01-1.29253E-03-1.29984E-03 2.30437E-04 6.36428E-14-4.59750E-13
 -1        62 2.00146E+01-9.82913E-04-9.38546E-04 3.67430E-04-1.33486E-13-3.56670E-13
 -1        63 1.99935E+01-7.30071E-04-6.59345E-04 4.30562E-04-7.79056E-14-4.96912E-13
 -1        64 1.99820E+01-5.28725E-04-4.49137E-04 4.46895E-04-2.87650E-14-9.57606E-13
 -1        65 1.99774E+01-3.71218E-04-2.94303E-04 4.36217E-04-5.52845E-14-5.46876E-13
 -1        66 1.99775E+01-2.48856E-04-1.81437E-04 4.12428E-04-5.67753E-14-6.74614E-13
 -1        67 1.99805E+01-1.52534E-04-9.67383E-05 3.84491E-04 1.28632E-13-3.30951E-13
 -1        68 1.99853E+01-7.28280E-05-2.35383E-05 3.56494E-04 3.28048E-14 1.53514E-13
 -1        69 1.99908E+01-1.27791E-06 6.04397E-05 3.23598E-04 1.59680E-14 3.22115E-13
 -1        70 1.99959E+01 5.29358E-05 1.61425E-04 2.47616E-04 6.31426E-15 1.97872E-13
 -1        71 1.99994E+01-1.27661E-05 1.92182E-04 9.75106E-05-6.00070E-14-9.99788E-15
 -1        72 2.10035E+01-4.02712E-01-9.80248E-01-3.17656E-01 3.08954E-14 3.10005E-12
 -1        73 1.94828E+01-6.64073E-02-2.87711E-01-5.49138E-02 2.11168E-14 2.53997E-12
 -1        74 1.90088E+01-2.23149E-02-6.45871E-02-1.95451E-02 2.02794E-14 2.10206E-12
 -1        75 1.89961E+01-1.27089E-02-1.27665E-02-1.38475E-02 4.33681E-16 1.86469E-12
 -1        76 1.92460E+01-8.96773E-03-5.24804E-03-1.06976E-02 3.52940E-15 1.66244E-12
 -1        77 1.96721E+01-7.34779E-03-6.50193E-03-9.00815E-03 1.62571E-14 1.47869E-12
 -1        78 2.02427E+01-6.65274E-03-8.74301E-03-8.69724E-03-9.87914E-15 1.43608E-12
 -1        79 2.09517E+01-6.14301E-03-1.08370E-02-9.96010E-03 3.91028E-15 1.32358E-12
 -1        80 2.18028E+01-5.08203E-03-1.22249E-02-1.33198E-02-6.01407E-16 1.17879E-12
 -1        81 2.27965E+01-2.53575E-03-1.14433E-02-1.94697E-02 1.61600E-14 1.12213E-12
 -1        82 2.39107E+01 2.64192E-03-5.58411E-03-2.88274E-02 2.37727E-14 1.00481E-12
 -1        83 2.50713E+01 1.14412E-02 9.82142E-03-4.04276E-02-8.99834E-15 8.71357E-13
 -1        84 2.61128E+01 2.34580E-02 3.92047E-02-4.96831E-02 1.55790E-14 1.02133E-12
 -1        85 2.67425E+01 3.48397E-02 8.12672E-02-4.56518E-02 3.35079E-14 9.93016E-13
 -1        86 2.65587E+01 3.66918E-02 1.19319E-01-1.18222E-02 3.13751E-14 7.28598E-13
 -1        87 2.52035E+01 1.86951E-02 1.15506E-01 6.25278E-02-8.81743E-14 9.12881E-13
 -1        88 2.27048E+01-1.71912E-02 3.22785E-02 1.54997E-01-1.71624E-15 1.08660E-12
 -1        89 1.98292E+01-5.15337E-02-1.13285E-01 1.99905E-01 6.85112E-14 5.97501E-13
 -1        90 1.79418E+01-5.62954E-02-2.23939E-01 1.35219E-01-3.85338E-14 2.78597E-13
 -1        91 1.81571E+01-3.17318E-02-2.04176E-01-1.79987E-02-5.43185E-15 5.33816E-13
 -1        92 2.03583E+01 1.83421E-03-7.85013E-02-1.47175E-01 2.08109E-14 5.86142E-13
 -1        93 2.33132E+01 2.58849E-02 5.65013E-02-1.78790E-01-2.73080E-14 1.08968E-13
 -1        94 2.57055E+01 3.31732E-02 1.20740E-01-1.31010E-01 3.98483E-14-2.47614E-13
 -1        95 2.69092E+01 2.77162E-02 1.12158E-01-6.14158E-02-4.87277E-14-2.38237E-13
 -1        96 2.69954E+01 1.71821E-02 7.11375E-02-8.45380E-03 2.60907E-14-3.70355E-14
 -1        97 2.63532E+01 7.23362E-03 3.06598E-02 1.95436E-02-3.12587E-14 2.55230E-14
 -1        98 2.53746E+01 2.80174E-04 3.78801E-03 2.90950E-02-6.18917E-15-8.55253E-14
 -1        99 2.43309E+01-3.60424E-03-9.74436E-03 2.87133E-02-4.40801E-15-2.58861E-13
 -1       100 2.33694E+01-5.24509E-03-1.44771E-02 2.43105E-02 2.95397E-14-8.60596E-15
 -1       101 2.25511E+01-5.52976E-03-1.45963E-02 1.90299E-02-6.22970E-14 2.39789E-13
 -1       102 2.18876E+01-5.11719E-03-1.27856E-02 1.42207E-02 4.36012E-14 4.33102E-13
 -1       103 2.13670E+01-4.41633E-03-1.04508E-02 1.03019E-02 3.24706E-14 2.95835E-13
 -1       104 2.09682E+01-3.65214E-03-8.21612E-03 7.28508E-03-5.62311E-14 3.67025E-13
 -1       105 2.06686E+01-2.93455E-03-6.30371E-03 5.03756E-03 6.85906E-14 4.62915E-13
 -1       106 2.04477E+01-2.30855E-03-4.75353E-03 3.39852E-03-1.06963E-13-4.52125E-14
 -1       107 2.02877E+01-1.78536E-03-3.53400E-03 2.22250E-03 1.44815E-14-2.09247E-13
 -1       108 2.01742E+01-1.36013E-03-2.59224E-03 1.39122E-03 1.22508E-14-5.19175E-13
 -1       109 2.00957E+01-1.02142E-03-1.87471E-03 8.13074E-04 1.00506E-13-6.20283E-13
 -1       110 2.00431E+01-7.55938E-04-1.33440E-03 4.18710E-04-1.04929E-13-1.90524E-13
 -1       111 2.00095E+01-5.50681E-04-9.32308E-04 1.56155E-04 1.08838E-13-1.50684E-13
 -1       112 1.99896E+01-3.93863E-04-6.36922E-04-1.34231E-05-1.15715E-13-8.43192E-14
 -1       113 1.99792E+01-2.75141E-04-4.22914E-04-1.19023E-04 2.48199E-14 2.19771E-13
 -1       114 1.99755E+01-1.85543E-04-2.69898E-04-1.82310E-04 1.75962E-14-3.90848E-13
 -1       115 1.99762E+01-1.17130E-04-1.60941E-04-2.19636E-04 3.42470E-14-7.19404E-13
 -1       116 1.99798E+01-6.25760E-05-8.00632E-05-2.43572E-04 3.50504E-14-8.22571E-13
 -1       117 1.99850E+01-1.49571E-05-8.58814E-06-2.63133E-04 9.87624E-14-1.00686E-12
 -1       118 1.99907E+01 3.06948E-05 7.66372E-05-2.81690E-04-8.17520E-14-7.34293E-13
 -1       119 1.99960E+01 7.74572E-05 1.89300E-04-2.82709E-04-3.68709E-14-7.21208E-13
 -1       120 1.99993E+01-4.28800E-05 1.60386E-04-1.55261E-04 1.30197E-13-7.13303E-13
 -1       121 1.99998E+01-6.35203E-04 1.32915E-04-1.32318E-04-1.83899E-13 2.49295E-13
 -1       122 1.99999E+01-3.89970E-03 1.17500E-04-2.42826E-04 6.23025E-13-2.46005E-13
 -1       123 1.99998E+01-8.49012E-03-1.40560E-05-2.43615E-04 2.97604E-13 1.18455E-13
 -1       124 1.99998E+01-1.29299E-02-8.50658E-05-1.91227E-04 6.85984E-14-4.70869E-15
 -1       125 1.99998E+01-1.65362E-02-1.03422E-04-1.29676E-04-3.29265E-13 2.54403E-14
 -1       126 1.99997E+01-1.90727E-02-9.75679E-05-7.92666E-05-3.90371E-13 4.41867E-14
 -1       127 1.99998E+01-2.06497E-02-8.23177E-05-3.90852E-05 2.24742E-16-7.58358E-14
 -1       128 1.99998E+01-2.13430E-02-7.11953E-05-9.13005E-06-6.08454E-13-1.03146E-13
 -1       129 1.99998E+01-2.12531E-02-6.95510E-05 1.64706E-05-1.30964E-13 3.43380E-13
 -1       130 1.99998E+01-2.03976E-02-7.77705E-05 4.47297E-05-5.31062E-13-7.18983E-14
 -1       131 1.99998E+01-1.87079E-02-9.03122E-05 8.33853E-05-1.07035E-12-1.76346E-13
 -1       132 1.99998E+01-1.61302E-02-9.71438E-05 1.29564E-04-1.33323E-12 5.02482E-13
 -1       133 1.99998E+01-1.25515E-02-7.92620E-05 1.87329E-04-3.30089E-13-9.60647E-14
 -1       134 1.99998E+01-8.20050E-03-7.08410E-06 2.47835E-04 3.80881E-14 2.81011E-14
 -1       135 1.99999E+01-3.83062E-03 9.37870E-05 3.29420E-04-1.68344E-13-2.04339E-13
 -1       136 1.99999E+01-7.17553E-04 1.19931E-04 1.17876E-04-3.15512E-13-5.92149E-14
 -1       137-1.47989E+00-2.04503E+01-3.15090E+00-3.97571E+00 1.73311E-12 3.33629E-13
 -1       138-1.77357E+00-9.40601E+00-2.42375E+00-3.43159E+00 3.51963E-12 1.73841E-12
 -1       139 2.45929E+00 2.75538E+00-1.25902E+00 2.92470E+00 3.56765E-12 2.58155E-12
 -1       140 1.55909E+01 1.01177E+01 2.82044E-01 1.24569E+01 2.65038E-12 3.10213E-12
 -1       141 3.61219E+01 9.81299E+00 1.85677E+00 1.82940E+01 1.59486E-12 2.84994E-12
 -1       142 5.60961E+01 4.91578E+00 3.14012E+00 1.51719E+01 6.17562E-13 1.88621E-12
 -1       143 6.74923E+01 1.23816E+00 3.81439E+00 3.61467E+00 6.67105E-14 1.56541E-13
 -1       144 6.42525E+01 2.32831E+00 3.64162E+00-9.58106E+00 3.00601E-13-1.72390E-12
 -1       145 4.75191E+01 7.52566E+00 2.65664E+00-1.80752E+01 1.34653E-12-3.04773E-12
 -1       146 2.46562E+01 1.10225E+01 1.06396E+00-1.62840E+01 2.21290E-12-3.32306E-12
 -1       147 7.43417E+00 6.80126E+00-5.84243E-01-7.31690E+00 2.69795E-12-2.34807E-12
 -1       148-7.37619E-01-4.24021E+00-1.97988E+00 1.34603E+00 2.38370E-12-1.44731E-12
 -1       149-1.84063E+00-1.68556E+01-2.94964E+00 4.38870E+00 1.33960E-12-3.91048E-13
 -1       150-9.10648E-01-2.42950E+01-3.37728E+00 1.80024E+00-6.08125E-14-1.59525E-14
 -1       151-1.09920E+00-2.24799E+01-3.24029E+00-2.81213E+00-1.61049E-12-2.92675E-13
 -1       152-1.68721E+00-1.20268E+01-2.51641E+00-3.67163E+00-2.93332E-12-1.14585E-12
 -1       153 1.06346E+00 6.97823E-01-1.37582E+00 1.30744E+00-3.72591E-12-2.42334E-12
 -1       154 2.58765E+01 1.12314E+01 1.23722E+00 1.67455E+01-2.33885E-12-3.28354E-12
 -1       155 4.41227E+01 8.05112E+00 2.37372E+00 1.81215E+01-1.20828E-12-2.74869E-12
 -1       156 5.94435E+01 3.21053E+00 3.18516E+00 1.20298E+01-3.74048E-13-1.61490E-12
 -1       157 6.58281E+01 8.01547E-01 3.49016E+00 1.71052E-01-1.56368E-14-6.46109E-14
 -1       158 5.97812E+01 3.03649E+00 3.19174E+00-1.17837E+01-4.07504E-13 1.62736E-12
 -1       159 4.46875E+01 7.86193E+00 2.40055E+00-1.79903E+01-1.18860E-12 2.81603E-12
 -1       160 2.64153E+01 1.11407E+01 1.25583E+00-1.68357E+01-2.02388E-12 3.06055E-12
 -1       161 1.08651E+01 9.27713E+00-3.27127E-02-1.00236E+01-2.82963E-12 2.76923E-12
 -1       162 1.55300E+00 1.51132E+00-1.28941E+00-1.90697E+00-2.96108E-12 1.99979E-12
 -1       163-1.58269E+00-9.83568E+00-2.33694E+00 3.32775E+00-2.63933E-12 1.14686E-12
 -1       164-1.26565E+00-2.00925E+01-3.05621E+00 3.51683E+00-1.79753E-12 4.70447E-13
 -1       165 2.11436E+01 3.66498E+00-5.49390E-02-3.43257E+00-4.02458E-13-2.54796E-14
 -1       166 2.01329E+01 4.20736E+00-4.40422E-02-2.60769E+00-3.34809E-13-4.19935E-13
 -1       167 1.96100E+01 4.50287E+00-3.06295E-02-1.98133E+00-2.47690E-13-6.34368E-13
 -1       168 1.93016E+01 4.66412E+00-2.28138E-02-1.47000E+00-1.64319E-13-7.27643E-13
 -1       169 1.90986E+01 4.76533E+00-1.83365E-02-1.04051E+00-8.66837E-14-7.54793E-13
 -1       170 1.89588E+01 4.83216E+00-1.60291E-02-6.58552E-01-1.31147E-14-7.56072E-13
 -1       171 1.88756E+01 4.87111E+00-1.48463E-02-3.12546E-01 5.63860E-14-7.27442E-13
 -1       172 1.88469E+01 4.88527E+00-1.44712E-02 1.49925E-02 1.24285E-13-7.04996E-13
 -1       173 1.88733E+01 4.87491E+00-1.48366E-02 3.41205E-01 1.85946E-13-6.64315E-13
 -1       174 1.89565E+01 4.83808E+00-1.60317E-02 6.83814E-01 2.46957E-13-6.19550E-13
 -1       175 1.90971E+01 4.77178E+00-1.84150E-02 1.05498E+00 3.02885E-13-5.24802E-13
 -1       176 1.93109E+01 4.66408E+00-2.29098E-02 1.48853E+00 3.74202E-13-3.90235E-13
 -1       177 1.96300E+01 4.49202E+00-3.16740E-02 2.00537E+00 4.26784E-13-1.77598E-13
 -1       178 2.01628E+01 4.18632E+00-4.53399E-02 2.63628E+00 4.49901E-13 1.72133E-13
 -1       179 2.12649E+01 3.43855E+00-5.73170E-02 3.35644E+00 3.85166E-13 7.72035E-13
 -1       180 2.24813E+01 1.12249E+00-3.31926E-01 2.88236E+00 2.57669E-13 1.52622E-12
 -1       181 2.20948E+01 8.44885E-01 1.03598E-03-1.82775E+00-3.59927E-13 4.87953E-13
 -1       182 2.06868E+01 1.90165E-01-9.15513E-03-6.35253E-01-2.99582E-13 3.23528E-13
 -1       183 2.00460E+01 1.08960E-01 1.41295E-02-1.45556E-01-2.21933E-13 2.05380E-13
 -1       184 1.98630E+01 5.92007E-02 1.05365E-02 9.77946E-02-1.46261E-13 5.51404E-14
 -1       185 1.99202E+01 3.76596E-02 5.71232E-03 2.40141E-01-1.08522E-13-2.68841E-14
 -1       186 2.01287E+01 2.58090E-02 2.92162E-03 3.32894E-01-1.17703E-13-1.05350E-13
 -1       187 2.04352E+01 1.68178E-02 1.39233E-03 3.94531E-01-1.03368E-13-2.03668E-13
 -1       188 2.08026E+01 6.82203E-03 3.26582E-04 4.29029E-01-5.60177E-14-1.78730E-13
 -1       189 2.11974E+01-7.18570E-03-6.55198E-04 4.31149E-01-4.39025E-14-1.75588E-13
 -1       190 2.15813E+01-2.75966E-02-1.64921E-03 3.88717E-01-3.31244E-14-1.61237E-13
 -1       191 2.19069E+01-5.53327E-02-2.56472E-03 2.85471E-01-2.41844E-14-2.90880E-13
 -1       192 2.21162E+01-8.79558E-02-3.16393E-03 1.07098E-01-4.08822E-14-2.82331E-13
 -1       193 2.21466E+01-1.17167E-01-3.13932E-03-1.47573E-01-2.94318E-14-2.54372E-13
 -1       194 2.19466E+01-1.27477E-01-2.27058E-03-4.50864E-01-5.23947E-14-2.91371E-13
 -1       195 2.15030E+01-9.98579E-02-7.41978E-04-7.33116E-01-5.07307E-14-2.21193E-13
 -1       196 2.08720E+01-2.33717E-02 1.12748E-03-8.87876E-01 1.25433E-13-1.55955E-13
 -1       197 2.01967E+01 8.74627E-02 2.55638E-03-8.11851E-01 1.39559E-14-1.39798E-13
 -1       198 1.96801E+01 1.88794E-01 3.21386E-03-4.73532E-01-1.29682E-13-1.99547E-13
 -1       199 1.95066E+01 2.27703E-01 3.32160E-03 3.93020E-02-1.99665E-13-3.75552E-13
 -1       200 1.97473E+01 1.82011E-01 3.09856E-03 5.43488E-01-2.76658E-14-4.25724E-13
 -1       201 2.03192E+01 7.81056E-02 2.34164E-03 8.62245E-01 5.90253E-14-4.72279E-13
 -1       202 2.10336E+01-3.03744E-02 1.00760E-03 9.18149E-01 4.71538E-14-4.62622E-13
 -1       203 2.16920E+01-1.01106E-01-7.14982E-04 7.53613E-01 6.47381E-14-3.99104E-13
 -1       204 2.21618E+01-1.23440E-01-2.21260E-03 4.75102E-01 1.22489E-13-2.48593E-13
 -1       205 2.23961E+01-1.09810E-01-2.99249E-03 1.86020E-01 2.84200E-14-2.04762E-13
 -1       206 2.24141E+01-7.93092E-02-2.95929E-03-4.89587E-02-1.21099E-13-2.64198E-13
 -1       207 2.22690E+01-4.68325E-02-2.36631E-03-2.06500E-01-9.35322E-14-2.79714E-13
 -1       208 2.20218E+01-2.01650E-02-1.53970E-03-2.90865E-01 1.34288E-14-2.47179E-13
 -1       209 2.17263E+01-1.58731E-03-7.36292E-04-3.18760E-01 2.93408E-14-1.88389E-13
 -1       210 2.14223E+01 9.59627E-03-9.52132E-05-3.09081E-01-9.00902E-14-2.20185E-13
 -1       211 2.11360E+01 1.51640E-02 3.41592E-04-2.77917E-01-9.65297E-14-3.47308E-13
 -1       212 2.08821E+01 1.69561E-02 5.91849E-04-2.37036E-01-1.88249E-13-4.52684E-13
 -1       213 2.06665E+01 1.64674E-02 6.98149E-04-1.94146E-01-3.49437E-14-4.51527E-13
 -1       214 2.04899E+01 1.47692E-02 7.06406E-04-1.53774E-01 4.10700E-14-5.59072E-13
 -1       215 2.03496E+01 1.25641E-02 6.55574E-04-1.18210E-01-1.63222E-14-5.74325E-13
 -1       216 2.02412E+01 1.02788E-02 5.74596E-04-8.82968E-02 9.78906E-14-6.61122E-13
 -1       217 2.01596E+01 8.14948E-03 4.82997E-04-6.40117E-02 3.26350E-14-5.68947E-13
 -1       218 2.00999E+01 6.28904E-03 3.92812E-04-4.48626E-02 2.16701E-13-3.38426E-13
 -1       219 2.00575E+01 4.73442E-03 3.10668E-04-3.01462E-02-4.49255E-14-3.79207E-13
 -1       220 2.00286E+01 3.47886E-03 2.39547E-04-1.91051E-02-1.95567E-14-2.74802E-13
 -1       221 2.00099E+01 2.49232E-03 1.80106E-04-1.10179E-02-1.32051E-13-1.38673E-13
 -1       222 1.99987E+01 1.73407E-03 1.31607E-04-5.24671E-03 1.65712E-13-6.32238E-14
 -1       223 1.99928E+01 1.15962E-03 9.25164E-05-1.25858E-03 1.08166E-14 2.64367E-13
 -1       224 1.99908E+01 7.23682E-04 6.09931E-05 1.36693E-03 2.47536E-13 3.20333E-13
 -1       225 1.99912E+01 3.80101E-04 3.54336E-05 2.93516E-03 2.70928E-13 2.02522E-13
 -1       226 1.99930E+01 7.62138E-05 1.60624E-05 3.63248E-03 7.70689E-14 5.49134E-14
 -1       227 1.99955E+01-2.59324E-04 4.94006E-06 3.51199E-03 2.70788E-14 8.09551E-14
 -1       228 1.99978E+01-6.93120E-04 7.21119E-06 2.53450E-03-9.34503E-14 4.85362E-14
 -1       229 2.11343E+01 2.73613E-01-4.94377E-02 1.04831E+00 2.88936E-13 1.33618E-12
 -1       230 2.01805E+01 1.30554E-01 9.14489E-03 3.23374E-01 2.23848E-13 1.11424E-12
 -1       231 1.98410E+01 6.76278E-02 1.32350E-02 7.95508E-03 1.34093E-13 9.27859E-13
 -1       232 1.98390E+01 4.26720E-02 8.14171E-03-1.70175E-01 1.24144E-13 8.20144E-13
 -1       233 2.00541E+01 3.33702E-02 4.39726E-03-2.94049E-01 1.08814E-13 7.11509E-13
 -1       234 2.04285E+01 3.08231E-02 2.44982E-03-3.97019E-01 1.10515E-14 6.29441E-13
 -1       235 2.09357E+01 3.12462E-02 1.33523E-03-4.94197E-01 6.37091E-14 6.01886E-13
 -1       236 2.15624E+01 3.17834E-02 4.04242E-04-5.90356E-01 7.85776E-14 5.42636E-13
 -1       237 2.22966E+01 2.87629E-02-6.12051E-04-6.80235E-01 5.08742E-14 4.42261E-13
 -1       238 2.31137E+01 1.65214E-02-1.64339E-03-7.44811E-01 4.54046E-14 4.55590E-13
 -1       239 2.39602E+01-1.31146E-02-2.15138E-03-7.45452E-01 6.11902E-14 5.19859E-13
 -1       240 2.47357E+01-6.90702E-02-1.04242E-03-6.20307E-01-3.58932E-14 5.19223E-13
 -1       241 2.52804E+01-1.52685E-01 2.81993E-03-2.94169E-01 1.63055E-14 5.46458E-13
 -1       242 2.53868E+01-2.40445E-01 8.60526E-03 2.75425E-01 5.88002E-14 5.78925E-13
 -1       243 2.48723E+01-2.66900E-01 1.11501E-02 1.00767E+00-1.09465E-13 5.95208E-13
 -1       244 2.37270E+01-1.39663E-01 1.85661E-03 1.59700E+00 1.08158E-14 6.00246E-13
 -1       245 2.23041E+01 1.43655E-01-2.04027E-02 1.58497E+00 2.99857E-13 5.08772E-13
 -1       246 2.12884E+01 4.31417E-01-3.63088E-02 7.38771E-01 1.38540E-13 4.10953E-13
 -1       247 2.13149E+01 4.62266E-01-3.02827E-02-5.71716E-01-3.24272E-14 2.53090E-13
 -1       248 2.23797E+01 2.13264E-01-1.13896E-02-1.53630E+00 5.82815E-14 2.09728E-15
 -1       249 2.38588E+01-8.79766E-02 7.58327E-03-1.67799E+00 1.58098E-13-8.18581E-14
 -1       250 2.50514E+01-2.46990E-01 1.26854E-02-1.15809E+00 2.13516E-13-2.26722E-13
 -1       251 2.56111E+01-2.46587E-01 6.92137E-03-4.30213E-01-5.32482E-14-3.82288E-13
 -1       252 2.55545E+01-1.67628E-01 1.28847E-04 1.67180E-01-6.31301E-14-3.43594E-13
 -1       253 2.50711E+01-8.22303E-02-3.36163E-03 5.21917E-01-8.04046E-14-2.14195E-13
 -1       254 2.43691E+01-2.09118E-02-3.69561E-03 6.64620E-01-5.74231E-14-7.74944E-14
 -1       255 2.36070E+01 1.37069E-02-2.53951E-03 6.69486E-01-2.22566E-14 7.29096E-14
 -1       256 2.28825E+01 2.89734E-02-1.16787E-03 6.02638E-01-1.92184E-13 2.41345E-13
 -1       257 2.22444E+01 3.28421E-02-1.26892E-04 5.08235E-01-8.69712E-14 9.41436E-14
 -1       258 2.17094E+01 3.09989E-02 4.89636E-04 4.11031E-01-4.33145E-14-1.29878E-14
 -1       259 2.12761E+01 2.68261E-02 7.72460E-04 3.22811E-01 8.51381E-15 2.41254E-13
 -1       260 2.09341E+01 2.21000E-02 8.43751E-04 2.47898E-01 5.07355E-14 1.35737E-13
 -1       261 2.06698E+01 1.76472E-02 8.00318E-04 1.86791E-01 2.11323E-14 5.44789E-14
 -1       262 2.04691E+01 1.37870E-02 7.04907E-04 1.38266E-01 1.06200E-13 2.00318E-13
 -1       263 2.03195E+01 1.05899E-02 5.93525E-04 1.00485E-01 1.60302E-13-1.06146E-13
 -1       264 2.02099E+01 8.01570E-03 4.84818E-04 7.15390E-02 7.78763E-14-2.24068E-13
 -1       265 2.01313E+01 5.98319E-03 3.87259E-04 4.96793E-02-1.58664E-13-1.59188E-13
 -1       266 2.00763E+01 4.40277E-03 3.03765E-04 3.34024E-02-2.09365E-13-1.80335E-15
 -1       267 2.00390E+01 3.19029E-03 2.34417E-04 2.14592E-02 8.94340E-14 1.34976E-13
 -1       268 2.00147E+01 2.27189E-03 1.77956E-04 1.28359E-02-2.38646E-13 4.45201E-13
 -1       269 2.00000E+01 1.58458E-03 1.32580E-04 6.72455E-03 1.90282E-13 1.22425E-13
 -1       270 1.99920E+01 1.07530E-03 9.63175E-05 2.49382E-03 1.17101E-13 1.37497E-13
 -1       271 1.99888E+01 6.99308E-04 6.72399E-05-3.38063E-04 2.18023E-13-2.95222E-14
 -1       272 1.99887E+01 4.17063E-04 4.39553E-05-2.12388E-03 9.44794E-14-1.78998E-13
 -1       273 1.99905E+01 1.89468E-04 2.68221E-05-3.09739E-03 9.97607E-14-1.66539E-14
 -1       274 1.99933E+01-2.36917E-05 1.97410E-05-3.37219E-03-9.41193E-14-2.29181E-13
 -1       275 1.99962E+01-2.89271E-04 2.27358E-05-2.93521E-03 2.55277E-14-2.60883E-13
 -1       276 1.99986E+01-6.41128E-04 2.93011E-05-1.69899E-03-7.97595E-15 5.82017E-14
 -1       277 1.99992E+01-2.21152E-03 1.47650E-06-2.53845E-03-2.54008E-14 6.95467E-13
 -1       278 1.99997E+01-4.54451E-03-2.48095E-06-3.27803E-03 4.65020E-13-3.33041E-13
 -1       279 2.00000E+01-6.97945E-03-1.85351E-06-3.17066E-03 1.91402E-13-3.38504E-14
 -1       280 2.00001E+01-9.14156E-03 3.14390E-06-2.59453E-03 1.98247E-13-1.39341E-13
 -1       281 2.00001E+01-1.07852E-02 7.19024E-06-1.86534E-03 1.11675E-13-2.09893E-13
 -1       282 2.00001E+01-1.19111E-02 9.50439E-06-1.14082E-03-2.77586E-14 1.36947E-13
 -1       283 2.00000E+01-1.25196E-02 1.03734E-05-5.00766E-04 5.65005E-14-2.46022E-13
 -1       284 2.00000E+01-1.26735E-02 1.04685E-05 6.79197E-05 1.96958E-13 2.29164E-13
 -1       285 2.00000E+01-1.24064E-02 1.01056E-05 6.23597E-04-5.29094E-14-4.25489E-13
 -1       286 2.00001E+01-1.17055E-02 8.96281E-06 1.22771E-03-3.13712E-13-2.36085E-13
 -1       287 2.00001E+01-1.05498E-02 6.47014E-06 1.88974E-03-2.62285E-13-7.38653E-14
 -1       288 2.00001E+01-8.87037E-03 2.45359E-06 2.57361E-03-9.87045E-14 4.87910E-13
 -1       289 2.00000E+01-6.74832E-03-3.89444E-06 3.10828E-03-1.77408E-13 3.35690E-13
 -1       290 1.99996E+01-4.33571E-03-3.34576E-06 3.11710E-03-8.32289E-14-1.05922E-13
 -1       291 1.99990E+01-2.31414E-03-1.05549E-05 3.33478E-03-1.16122E-13-2.35338E-13
 -1       292-8.81975E-01-1.04671E+01-9.06151E-01 9.06323E-01 2.94445E-13 8.94701E-13
 -1       293 2.54730E+00-8.67930E+00-7.88392E-01 3.22273E+00 9.00724E-13 1.41244E-12
 -1       294 8.86011E+00-5.47907E+00-5.86084E-01 5.11354E+00 1.41648E-12 1.00135E-12
 -1       295 1.83664E+01-1.36780E+00-1.65336E-01 6.95219E+00 1.41454E-12 1.09510E-12
 -1       296 2.99915E+01 1.50331E+00 2.63997E-01 6.59699E+00 1.14347E-12 9.33198E-13
 -1       297 3.97935E+01 4.76194E+00 7.50369E-01 5.92639E+00 1.00349E-12 8.91592E-13
 -1       298 4.49713E+01 6.56405E+00 8.88672E-01 2.31557E+00 9.23817E-13 4.61131E-13
 -1       299 4.61933E+01 7.07301E+00 9.43854E-01-7.72850E-01 9.66449E-13-3.59088E-14
 -1       300 4.41276E+01 5.83600E+00 9.88411E-01-4.55676E+00 8.66279E-13-6.71907E-13
 -1       301 3.51395E+01 3.77701E+00 5.82853E-01-7.08049E+00 1.00474E-12-1.08114E-12
 -1       302 2.41798E+01-4.28313E-01 2.94014E-02-6.94029E+00 7.34746E-13-1.16879E-12
 -1       303 1.40965E+01-4.35731E+00-3.02438E-01-6.42172E+00 5.55722E-13-8.84362E-13
 -1       304 4.93078E+00-7.56555E+00-6.83943E-01-4.23232E+00 3.78364E-13-9.19235E-13
 -1       305 1.46249E-01-9.60156E+00-7.99807E-01-2.04971E+00 3.44030E-14-6.92446E-13
 -1       306-1.22338E+00-1.06718E+01-9.10125E-01 5.74898E-01-3.66977E-13-7.34746E-13
 -1       307 1.52990E+00-8.89954E+00-7.39397E-01 3.27617E+00-7.80459E-13-9.84587E-13
 -1       308 6.99076E+00-6.02844E+00-6.02600E-01 4.96784E+00-1.25627E-12-1.30444E-12
 -1       309 1.52980E+01-1.99934E+00-2.23305E-01 6.85689E+00-1.44476E-12-1.27834E-12
 -1       310 2.47713E+01 1.49475E+00 1.78990E-01 7.78489E+00-1.52553E-12-1.24567E-12
 -1       311 3.39998E+01 4.09799E+00 5.47279E-01 7.34670E+00-1.28638E-12-1.15780E-12
 -1       312 4.16618E+01 5.73593E+00 8.40730E-01 5.39109E+00-9.39297E-13-7.59892E-13
 -1       313 4.53958E+01 6.74061E+00 9.32254E-01 1.80871E+00-7.74103E-13-3.26336E-13
 -1       314 4.62153E+01 6.53189E+00 1.00679E+00-1.86135E+00-7.82263E-13 8.26700E-14
 -1       315 4.18854E+01 5.79848E+00 8.59876E-01-5.20253E+00-8.96394E-13 4.68625E-13
 -1       316 3.42406E+01 4.15431E+00 5.46024E-01-7.26427E+00-8.85396E-13 9.29923E-13
 -1       317 2.52570E+01 1.20141E+00 1.63377E-01-7.48213E+00-9.53626E-13 9.02389E-13
 -1       318 1.57214E+01-1.74316E+00-2.00390E-01-6.94089E+00-1.08347E-12 1.10500E-12
 -1       319 7.86545E+00-5.50434E+00-5.56934E-01-5.25927E+00-8.71359E-13 8.81954E-13
 -1       320 2.22973E+00-8.71292E+00-7.97711E-01-3.30143E+00-6.50785E-13 7.88432E-13
 -1       321-8.18334E-01-1.02282E+01-8.81780E-01-1.42017E+00-2.64289E-13 9.48602E-13
 -1       322 2.02814E+01 3.04404E+00-1.79533E-02-1.87022E+00-3.39239E-13-3.74131E-13
 -1       323 2.09313E+01 2.20309E+00-1.71176E-02-2.15122E+00-4.10771E-13-1.33005E-13
 -1       324 1.95558E+01 3.80816E+00-1.43720E-02-1.09448E+00-1.59461E-13-5.63440E-13
 -1       325 1.93435E+01 4.00598E+00-1.24749E-02-7.42484E-01-6.70123E-14-5.88726E-13
 -1       326 1.92042E+01 4.12897E+00-1.12830E-02-4.22412E-01 2.95136E-14-5.62187E-13
 -1       327 1.91332E+01 4.19042E+00-1.07066E-02-1.24447E-01 1.21731E-13-5.50673E-13
 -1       328 1.91309E+01 4.19420E+00-1.07027E-02 1.64200E-01 1.88548E-13-5.14357E-13
 -1       329 1.91990E+01 4.13852E+00-1.12791E-02 4.57696E-01 2.57810E-13-4.96567E-13
 -1       330 1.93371E+01 4.01923E+00-1.25598E-02 7.64942E-01 3.25119E-13-4.23505E-13
 -1       331 1.95557E+01 3.81718E+00-1.48028E-02 1.10821E+00 4.04801E-13-3.08387E-13
 -1       332 1.98697E+01 3.49980E+00-1.83271E-02 1.48613E+00 4.63409E-13-1.70032E-13
 -1       333 2.03240E+01 2.99497E+00-2.22894E-02 1.87417E+00 4.90057E-13 6.34059E-14
 -1       334 2.09324E+01 2.13101E+00-2.94946E-02 2.10037E+00 4.59288E-13 4.36387E-13
 -1       335 2.12809E+01 1.18090E+00-2.34920E-02 1.74080E+00 3.87817E-13 7.94564E-13
 -1       336 2.06781E+01 5.04197E-01 9.10221E-03 7.27361E-01 3.34203E-13 6.56432E-13
 -1       337 2.07280E+01 6.98170E-01 1.27694E-02-7.95516E-01-3.11930E-13-5.90747E-14
 -1       338 2.04095E+01 3.78508E-01 7.63283E-03-1.88383E-01-2.42280E-13-6.30418E-14
 -1       339 2.02817E+01 2.31659E-01 4.64800E-03 1.75019E-01-1.76398E-13-7.39770E-14
 -1       340 2.02986E+01 1.53280E-01 2.45778E-03 4.11198E-01-1.52531E-13-1.15053E-13
 -1       341 2.04236E+01 1.02947E-01 1.28465E-03 5.70502E-01-1.39283E-13-1.09707E-13
 -1       342 2.06265E+01 5.96224E-02 5.26745E-04 6.73841E-01-7.31250E-14-1.30759E-13
 -1       343 2.08837E+01 9.31023E-03-1.94449E-04 7.23871E-01-5.62607E-14-1.59604E-13
 -1       344 2.11735E+01-5.87534E-02-1.04418E-03 7.10007E-01-4.09890E-14-1.86641E-13
 -1       345 2.14731E+01-1.51284E-01-2.05034E-03 6.12119E-01-5.80663E-14-2.04247E-13
 -1       346 2.17542E+01-2.66373E-01-3.09671E-03 4.06504E-01-7.37854E-15-1.66016E-13
 -1       347 2.19794E+01-3.85663E-01-3.88330E-03 7.76476E-02-5.77077E-15-1.31228E-13
 -1       348 2.21018E+01-4.66607E-01-3.95071E-03-3.61762E-01-2.79650E-14-6.96359E-14
 -1       349 2.20705E+01-4.44090E-01-2.83919E-03-8.45308E-01-8.65020E-15 1.56827E-14
 -1       350 2.18535E+01-2.56266E-01-9.31888E-04-1.23640E+00 8.93152E-14 2.60248E-14
 -1       351 2.14781E+01 1.01460E-01 2.15798E-03-1.35103E+00-9.61013E-15-6.27905E-15
 -1       352 2.10662E+01 5.17190E-01 4.32666E-03-1.05008E+00-1.31376E-13-2.23489E-13
 -1       353 2.08002E+01 8.00585E-01 5.28228E-03-3.58251E-01-1.59478E-13-2.10057E-13
 -1       354 2.08276E+01 7.84806E-01 4.99840E-03 4.85211E-01-1.34536E-13-1.80618E-13
 -1       355 2.11360E+01 4.86670E-01 3.58379E-03 1.15106E+00-6.78927E-14-2.07039E-13
 -1       356 2.15785E+01 6.85980E-02 1.56334E-03 1.41707E+00 5.22808E-14-3.27965E-13
 -1       357 2.19687E+01-2.70685E-01-8.01903E-04 1.27762E+00 1.39467E-13-2.26323E-13
 -1       358 2.21985E+01-4.37382E-01-2.83111E-03 8.84355E-01 8.53443E-14-2.07701E-13
 -1       359 2.22490E+01-4.44245E-01-3.80808E-03 4.17516E-01 9.89313E-14-3.29181E-13
 -1       360 2.21553E+01-3.55589E-01-3.63101E-03 5.74021E-03 5.66838E-14-3.40188E-13
 -1       361 2.19677E+01-2.35244E-01-2.79907E-03-2.92307E-01-6.12314E-14-2.30725E-13
 -1       362 2.17304E+01-1.23808E-01-1.77377E-03-4.69882E-01 4.27555E-14-8.80565E-14
 -1       363 2.14762E+01-3.87042E-02-8.50649E-04-5.47172E-01-8.49033E-15-1.40694E-13
 -1       364 2.12269E+01 1.75993E-02-1.52675E-04-5.52761E-01-7.08639E-14-2.21168E-13
 -1       365 2.09960E+01 4.96740E-02 3.02200E-04-5.13518E-01-1.37651E-13-2.05658E-13
 -1       366 2.07911E+01 6.40862E-02 5.52535E-04-4.50602E-01-7.07917E-14-1.89573E-13
 -1       367 2.06150E+01 6.69279E-02 6.53417E-04-3.78873E-01-6.54624E-14-2.60924E-15
 -1       368 2.04680E+01 6.29536E-02 6.56866E-04-3.07790E-01-1.06137E-13 3.83757E-14
 -1       369 2.03483E+01 5.55114E-02 6.04056E-04-2.42739E-01-7.10639E-14-1.15990E-14
 -1       370 2.02531E+01 4.67803E-02 5.24127E-04-1.86283E-01 8.38010E-15-9.53112E-14
 -1       371 2.01791E+01 3.80738E-02 4.35964E-04-1.39165E-01 7.04917E-14-1.21198E-13
 -1       372 2.01227E+01 3.01091E-02 3.50753E-04-1.01049E-01 2.05540E-13-6.85481E-14
 -1       373 2.00809E+01 2.32151E-02 2.74366E-04-7.10225E-02 2.69532E-13 7.55994E-14
 -1       374 2.00506E+01 1.74808E-02 2.09227E-04-4.79275E-02 9.76944E-14 2.73353E-13
 -1       375 2.00294E+01 1.28560E-02 1.55656E-04-3.05659E-02-7.17167E-14 2.15691E-13
 -1       376 2.00152E+01 9.21616E-03 1.12754E-04-1.78181E-02 7.76187E-14 2.61673E-13
 -1       377 2.00061E+01 6.40289E-03 7.90149E-05-8.70509E-03 4.03426E-13 3.17443E-13
 -1       378 2.00008E+01 4.24553E-03 5.26010E-05-2.41713E-03 2.80071E-13 6.72182E-13
 -1       379 1.99981E+01 2.57003E-03 3.15902E-05 1.67766E-03 5.50980E-14 4.84787E-13
 -1       380 1.99973E+01 1.20107E-03 1.53034E-05 4.03026E-03-1.08337E-13 2.57056E-13
 -1       381 1.99975E+01-5.29555E-05 1.43674E-06 4.94176E-03-4.18356E-14 1.19443E-13
 -1       382 1.99980E+01-1.17678E-03-1.63443E-05 4.62281E-03-1.73740E-13-1.74214E-13
 -1       383 2.03080E+01 2.61903E-01 1.14698E-02 1.58095E-01 2.36468E-13 5.61704E-13
 -1       384 2.01868E+01 1.66384E-01 7.15971E-03-1.84399E-01 1.73141E-13 4.59199E-13
 -1       385 2.02634E+01 1.26133E-01 4.10966E-03-4.21009E-01 1.50902E-13 3.95421E-13
 -1       386 2.04891E+01 1.11501E-01 2.73526E-03-6.09669E-01 5.84758E-14 3.39736E-13
 -1       387 2.08345E+01 1.08331E-01 2.11693E-03-7.78917E-01 8.95756E-14 2.66860E-13
 -1       388 2.12824E+01 1.06330E-01 1.60593E-03-9.39422E-01 1.10626E-13 2.52474E-13
 -1       389 2.18204E+01 9.34252E-02 7.96034E-04-1.08596E+00 9.05624E-14 2.22658E-13
 -1       390 2.24346E+01 5.22556E-02-6.07779E-04-1.19356E+00 2.24005E-14 2.36105E-13
 -1       391 2.31022E+01-4.09836E-02-2.72103E-03-1.21065E+00 3.71969E-14 2.40808E-13
 -1       392 2.37838E+01-2.11093E-01-5.21333E-03-1.05457E+00-9.90267E-15 2.61846E-13
 -1       393 2.44133E+01-4.62302E-01-7.02268E-03-6.21845E-01 9.35493E-15 3.11443E-13
 -1       394 2.48792E+01-7.27552E-01-6.75994E-03 1.58284E-01 3.87537E-14 4.50825E-13
 -1       395 2.50250E+01-8.27128E-01-6.04120E-03 1.20732E+00-8.15971E-14 5.11858E-13
 -1       396 2.46908E+01-4.86681E-01-8.84476E-03 2.14516E+00 2.84607E-14 4.82784E-13
 -1       397 2.39174E+01 3.65473E-01-1.99964E-02 2.28871E+00 3.22033E-13 4.06881E-13
 -1       398 2.31654E+01 1.28195E+00-2.44624E-02 1.21390E+00 2.40762E-13 4.56614E-13
 -1       399 2.30763E+01 1.45148E+00-1.40667E-02-6.72847E-01 1.82925E-13 2.50070E-13
 -1       400 2.37386E+01 7.16973E-01-1.33466E-02-2.13412E+00 1.97861E-13-2.84902E-14
 -1       401 2.46132E+01-2.36264E-01-6.64501E-03-2.37544E+00 2.52042E-13-3.04816E-13
 -1       402 2.51314E+01-7.66502E-01-5.96340E-03-1.61789E+00 2.41144E-13-3.97841E-13
 -1       403 2.51409E+01-7.88993E-01-9.43858E-03-5.48941E-01-3.23964E-14-3.24116E-13
 -1       404 2.47771E+01-5.49274E-01-9.74172E-03 3.30531E-01-1.59078E-13-3.10485E-13
 -1       405 2.42175E+01-2.77655E-01-7.37359E-03 8.58004E-01-1.53898E-13-8.42902E-15
 -1       406 2.35900E+01-7.67917E-02-4.03751E-03 1.07560E+00-5.22808E-14-5.61010E-15
 -1       407 2.29703E+01 4.01870E-02-1.22359E-03 1.08747E+00-4.35428E-14 1.70289E-13
 -1       408 2.24001E+01 9.41449E-02 5.83645E-04 9.88235E-01-1.90331E-13 2.07003E-13
 -1       409 2.18995E+01 1.09760E-01 1.50333E-03 8.43057E-01 3.22727E-14 2.80669E-13
 -1       410 2.14752E+01 1.05416E-01 1.81323E-03 6.90041E-01-2.95294E-14 4.34128E-13
 -1       411 2.11253E+01 9.24327E-02 1.77609E-03 5.48440E-01 4.56410E-14 2.61348E-13
 -1       412 2.08433E+01 7.69715E-02 1.57579E-03 4.26139E-01 1.70402E-13 6.78875E-15
 -1       413 2.06204E+01 6.20296E-02 1.32114E-03 3.24862E-01-1.42442E-13-2.34288E-14
 -1       414 2.04475E+01 4.88551E-02 1.06848E-03 2.43340E-01 8.60293E-14 1.36919E-13
 -1       415 2.03155E+01 3.78037E-02 8.42799E-04 1.79076E-01 2.04233E-13 4.61356E-13
 -1       416 2.02165E+01 2.88136E-02 6.52238E-04 1.29264E-01 1.70968E-13 6.58670E-13
 -1       417 2.01437E+01 2.16535E-02 4.96754E-04 9.12244E-02-1.94245E-13 3.80326E-13
 -1       418 2.00912E+01 1.60429E-02 3.72790E-04 6.25857E-02-1.94445E-14 5.09806E-13
 -1       419 2.00542E+01 1.17073E-02 2.75640E-04 4.13341E-02-1.54226E-13 1.46465E-13
 -1       420 2.00291E+01 8.39979E-03 2.00536E-04 2.58073E-02-1.63812E-13 7.19031E-14
 -1       421 2.00127E+01 5.90613E-03 1.43090E-04 1.46620E-02 9.66843E-14 2.18266E-13
 -1       422 2.00027E+01 4.04356E-03 9.94293E-05 6.83476E-03 1.23246E-13 4.57720E-13
 -1       423 1.99972E+01 2.65674E-03 6.60969E-05 1.50452E-03 3.29891E-13 3.20259E-13
 -1       424 1.99950E+01 1.60992E-03 4.01078E-05-1.94134E-03 1.43113E-13 2.17974E-16
 -1       425 1.99947E+01 7.72429E-04 2.00154E-05-3.92821E-03 2.17829E-15 3.15803E-13
 -1       426 1.99957E+01 1.93316E-05 5.00612E-06-4.70053E-03-3.04511E-14 5.32649E-13
 -1       427 1.99972E+01-7.91553E-04-2.74631E-06-4.35091E-03-3.87353E-14 6.51026E-13
 -1       428 1.99983E+01-1.47725E-03-1.01661E-05-3.64582E-03-2.50125E-13 8.54241E-13
 -1       429 2.00007E+01-3.94716E-03 5.21234E-06-4.15937E-03 3.33065E-13 9.66686E-14
 -1       430 2.00001E+01-3.13106E-03-6.14898E-06-4.79267E-03 8.93526E-14-1.49909E-13
 -1       431 1.99992E+01-2.48206E-03-1.36829E-05-4.60833E-03-2.31121E-13 2.52955E-13
 -1       432 2.00009E+01-4.42785E-03 9.50437E-06-3.13666E-03 3.79364E-13-4.94856E-13
 -1       433 2.00009E+01-4.65236E-03 1.09652E-05-2.04841E-03 3.37932E-13 9.91413E-15
 -1       434 2.00008E+01-4.70077E-03 1.11523E-05-1.08121E-03 1.57536E-13-5.95688E-14
 -1       435 2.00006E+01-4.67153E-03 1.08663E-05-2.62251E-04 3.65033E-14-1.53368E-13
 -1       436 2.00006E+01-4.62853E-03 1.06731E-05 4.81089E-04-3.51879E-13-2.23295E-13
 -1       437 2.00007E+01-4.57929E-03 1.06572E-05 1.25976E-03-1.25788E-13-3.80951E-13
 -1       438 2.00008E+01-4.47496E-03 1.01751E-05 2.13862E-03-8.21561E-14-1.29034E-13
 -1       439 2.00009E+01-4.22771E-03 8.16289E-06 3.13651E-03 1.02442E-13 5.76778E-13
 -1       440 2.00006E+01-3.73883E-03 3.75110E-06 4.09098E-03 1.10921E-13 1.32235E-13
 -1       441 2.00000E+01-3.01251E-03-8.06109E-06 4.73372E-03-1.76045E-13 7.52815E-14
 -1       442 1.04559E+01-5.67485E+00-4.19927E-02 6.64102E+00-3.13638E-15 6.41889E-13
 -1       443 1.70163E+00-3.59185E+00 4.23944E-02-2.85676E-01-1.09393E-13 1.21991E-12
 -1       444 3.32608E+00-5.06542E+00-8.40079E-02 3.94519E+00 3.60822E-14 1.31038E-12
 -1       445 1.74785E+01-5.71458E+00-7.99583E-02 6.59499E+00 3.84970E-13 3.13437E-13
 -1       446 2.69403E+01-4.03783E+00-2.10313E-02 4.05923E+00 4.22065E-13 1.28522E-13
 -1       447 1.98502E+01 3.51173E+00-2.00850E-02-1.48369E+00-2.52676E-13-5.26259E-13
 -1       448 3.58717E+01 4.91868E+00 6.62671E-02-3.26017E-01 9.41539E-13 2.44540E-13
 -1       449 3.60851E+01 7.76602E+00 3.51013E-02-3.36754E-01 9.88210E-13 2.56479E-13
 -1       450 3.54191E+01 6.78255E+00 1.90748E-02 7.11110E-01 9.41497E-13 3.14415E-13
 -1       451 3.49310E+01 3.12129E+00 7.61075E-02-1.99224E-01 7.46798E-13 1.13090E-13
 -1       452 3.07315E+01-1.42299E+00 3.34464E-02-2.81856E+00 2.91961E-13-1.98036E-13
 -1       453 2.36236E+01-5.42023E+00-1.39755E-02-5.36703E+00-4.62130E-14-3.74492E-13
 -1       454 1.33676E+01-5.92644E+00-5.54487E-02-6.96168E+00-2.08444E-13-7.38111E-13
 -1       455 6.35472E+00-4.92510E+00-6.01404E-03-5.59621E+00-2.26527E-13-6.89254E-13
 -1       456 1.48819E+00-4.41173E+00-4.37388E-02-1.29175E+00-1.44128E-13-7.82818E-13
 -1       457 3.03158E+00-3.67742E+00 5.61344E-02 3.32113E+00-9.10383E-14-9.60107E-13
 -1       458 8.22273E+00-5.53770E+00-5.69852E-02 6.60227E+00-1.52045E-13-8.56960E-13
 -1       459 1.61825E+01-5.54790E+00-3.28033E-02 7.17941E+00-1.37862E-13-6.40226E-13
 -1       460 2.39025E+01-3.98421E+00-4.02467E-03 5.62813E+00-5.11355E-13-4.57426E-13
 -1       461 2.99591E+01-8.16013E-01 3.24877E-02 3.18958E+00-8.34052E-13-8.52651E-14
 -1       462 3.40100E+01 3.27262E+00 8.57783E-02 1.34730E+00-9.69377E-13-9.83380E-14
 -1       463 3.59427E+01 6.61334E+00 9.59742E-02 2.31135E-01-8.58827E-13-1.23637E-13
 -1       464 3.48230E+01 8.22722E+00 7.04293E-03 1.05213E-02-9.52544E-13-1.10987E-13
 -1       465 3.54192E+01 7.07899E+00 4.82037E-02 2.12230E-01-8.20455E-13-2.69368E-13
 -1       466 3.40963E+01 3.40201E+00 7.05481E-02-1.22993E+00-5.60600E-13-3.55160E-13
 -1       467 3.02282E+01-5.87783E-01 3.25391E-02-2.93213E+00-2.86961E-13-1.88460E-14
 -1       468 2.39203E+01-3.94370E+00-1.24031E-02-5.54699E+00-1.52392E-13-7.04992E-14
 -1       469 1.64178E+01-5.29179E+00-4.57229E-02-7.03204E+00 9.19542E-14 5.59438E-13
 -1       470 9.88071E+00-5.11817E+00 1.06105E-02-6.98364E+00 2.76792E-13 3.10828E-13
 -1       471 4.51956E+00-4.39589E+00 1.97021E-02-4.98039E+00 4.90857E-14 7.06366E-13
 -1       472 3.33074E+01 8.00914E-01 5.18897E-02 1.10528E+00 7.21570E-13 1.95594E-13
 -1       473 2.06488E+01 9.01619E-01 4.25172E-03 6.59194E-01 3.38622E-13 2.28133E-13
 -1       474 1.95202E+01 3.36533E+00-4.82318E-03-4.45476E-01-6.65795E-15-5.10539E-13
 -1       475 1.97151E+01 3.13872E+00-5.41604E-03-7.02406E-01-1.05849E-13-4.93799E-13
 -1       476 1.93537E+01 3.54786E+00-4.33335E-03 2.47539E-02 1.38896E-13-4.89158E-13
 -1       477 1.93890E+01 3.51218E+00-4.44182E-03 2.49450E-01 2.04096E-13-4.52065E-13
 -1       478 1.95033E+01 3.38963E+00-4.84860E-03 4.75560E-01 2.84551E-13-4.19676E-13
 -1       479 1.97003E+01 3.16458E+00-5.55025E-03 7.16529E-01 3.46423E-13-3.07662E-13
 -1       480 1.99770E+01 2.81642E+00-6.30079E-03 9.63206E-01 4.02880E-13-2.13367E-13
 -1       481 2.03405E+01 2.30166E+00-5.61720E-03 1.19157E+00 4.28698E-13-5.78595E-14
 -1       482 2.04802E+01 5.63515E-01 5.57332E-03 7.38384E-02 2.51275E-13 1.67963E-13
 -1       483 2.05756E+01 1.05193E+00 3.27737E-03-6.25803E-01-2.56319E-13-2.09667E-13
 -1       484 3.16101E+01 1.69982E+00-1.27192E-01-1.94379E+00 6.14460E-13-4.87249E-14
 -1       485 2.04723E+01 6.48987E-01 2.18474E-03-8.41084E-02-1.91174E-13-1.98173E-13
 -1       486 2.04143E+01 4.29526E-01 1.30677E-03 2.98035E-01-1.76793E-13-1.66046E-13
 -1       487 2.04246E+01 2.94694E-01 6.92396E-04 5.69397E-01-1.65136E-13-1.52714E-13
 -1       488 2.05023E+01 1.94877E-01 3.52153E-04 7.61755E-01-1.07820E-13-1.49446E-13
 -1       489 2.06415E+01 9.80105E-02 6.66979E-05 8.88532E-01-7.61380E-14-1.08991E-13
 -1       490 2.08381E+01-2.03808E-02-2.66760E-04 9.47568E-01-6.87307E-14-1.33665E-13
 -1       491 2.10904E+01-1.79017E-01-6.97956E-04 9.23109E-01-6.23656E-14-1.07378E-13
 -1       492 2.13964E+01-3.86277E-01-1.22216E-03 7.88621E-01-3.81800E-14-9.66419E-14
 -1       493 2.17473E+01-6.28806E-01-1.75522E-03 5.13169E-01 7.22399E-14-4.17325E-14
 -1       494 2.21145E+01-8.54307E-01-2.07362E-03 7.61744E-02 2.53684E-14 2.93761E-14
 -1       495 2.24367E+01-9.57967E-01-1.86554E-03-5.03661E-01-1.82613E-14 7.89603E-14
 -1       496 2.26184E+01-7.96068E-01-7.99505E-04-1.12708E+00 2.42335E-14 8.53677E-14
 -1       497 2.25624E+01-2.60787E-01-1.90264E-03-1.58461E+00-3.35260E-15 2.38173E-14
 -1       498 2.22809E+01 5.74017E-01-1.94833E-04-1.58187E+00-1.26515E-13 4.56868E-14
 -1       499 2.19291E+01 1.38901E+00-2.19844E-05-9.79076E-01-1.99181E-13-5.70969E-14
 -1       500 2.17902E+01 1.70234E+00-2.50256E-04 9.01475E-02-2.15773E-13-1.50720E-13
 -1       501 2.19740E+01 1.33068E+00-1.88831E-03 1.12209E+00-1.18202E-13-1.89911E-13
 -1       502 2.23417E+01 5.03417E-01-1.45719E-03 1.68830E+00-1.16225E-13-3.10950E-13
 -1       503 2.26246E+01-3.09356E-01-2.62389E-04 1.63475E+00 7.55698E-14-2.73524E-13
 -1       504 2.26680E+01-7.99182E-01-8.90750E-04 1.16751E+00 1.52893E-13-2.74636E-13
 -1       505 2.24869E+01-9.24073E-01-1.88491E-03 5.60071E-01 9.17087E-14-3.36273E-13
 -1       506 2.21764E+01-7.99534E-01-2.00560E-03 1.19101E-02 2.77516E-14-2.79216E-13
 -1       507 2.18288E+01-5.68443E-01-1.62561E-03-3.88869E-01 6.43802E-15-3.96583E-13
 -1       508 2.15002E+01-3.31471E-01-1.07785E-03-6.31782E-01-1.78534E-14-2.45732E-13
 -1       509 2.12137E+01-1.38201E-01-5.77623E-04-7.43102E-01 8.89952E-14-1.69719E-13
 -1       510 2.09733E+01-2.30939E-03-1.90479E-04-7.59399E-01-1.02407E-13-9.20740E-14
 -1       511 2.07747E+01 8.12186E-02 6.56193E-05-7.14774E-01-1.11140E-14 2.36998E-14
 -1       512 2.06116E+01 1.24279E-01 2.12989E-04-6.36273E-01-1.26490E-13 1.76152E-13
 -1       513 2.04783E+01 1.39336E-01 2.80577E-04-5.43309E-01-4.42007E-14 1.35272E-13
 -1       514 2.03697E+01 1.36809E-01 2.95275E-04-4.48697E-01-4.82829E-14-5.03128E-14
 -1       515 2.02821E+01 1.24437E-01 2.78515E-04-3.60148E-01-1.10551E-13 1.06405E-13
 -1       516 2.02119E+01 1.07514E-01 2.45621E-04-2.81713E-01-7.22146E-14 1.93838E-13
 -1       517 2.01565E+01 8.94139E-02 2.06661E-04-2.14977E-01 4.43352E-14 3.84431E-13
 -1       518 2.01133E+01 7.21194E-02 1.67726E-04-1.59969E-01 1.41987E-13 4.23014E-13
 -1       519 2.00802E+01 5.66678E-02 1.32138E-04-1.15821E-01 9.98491E-14 1.89659E-13
 -1       520 2.00553E+01 4.34837E-02 1.01401E-04-8.12166E-02 1.51649E-13 1.30508E-13
 -1       521 2.00369E+01 3.26154E-02 7.59040E-05-5.46842E-02 5.92071E-14 2.67917E-13
 -1       522 2.00236E+01 2.38958E-02 5.53834E-05-3.47815E-02 8.15027E-14 4.81359E-13
 -1       523 2.00143E+01 1.70456E-02 3.91790E-05-2.01987E-02 1.35207E-13 2.28608E-13
 -1       524 2.00081E+01 1.17367E-02 2.66317E-05-9.81201E-03 3.75708E-13 3.70691E-14
 -1       525 2.00040E+01 7.62822E-03 1.69076E-05-2.70333E-03 9.89808E-14 2.49732E-13
 -1       526 2.00016E+01 4.37316E-03 9.68540E-06 1.83391E-03-1.55368E-13 4.77109E-13
 -1       527 2.00003E+01 1.63512E-03 4.45185E-06 4.30821E-03-2.85864E-13 2.08243E-13
 -1       528 2.04446E+01 3.20958E-01 1.93441E-03-6.53899E-01 1.59463E-13 1.50203E-13
 -1       529 2.05669E+01 2.90098E-01 1.41785E-03-9.19084E-01 1.16356E-13 7.85070E-14
 -1       530 2.07657E+01 2.77182E-01 1.16472E-03-1.15960E+00 1.18822E-13 5.72331E-14
 -1       531 2.10332E+01 2.56743E-01 8.64130E-04-1.38342E+00 1.02540E-13 6.76217E-14
 -1       532 2.13703E+01 1.96303E-01 2.63341E-04-1.57960E+00 4.23575E-14 1.22411E-13
 -1       533 2.17896E+01 5.10527E-02-8.58205E-04-1.71303E+00 4.80743E-14 7.55528E-14
 -1       534 2.23201E+01-2.34087E-01-2.62124E-03-1.71649E+00 1.67119E-14 8.40943E-14
 -1       535 2.30052E+01-7.02159E-01-4.73256E-03-1.48536E+00-8.66041E-14 1.06868E-13
 -1       536 2.38856E+01-1.32298E+00-5.43966E-03-8.80715E-01-1.32693E-13 1.77614E-13
 -1       537 2.48927E+01-1.84270E+00-4.37904E-03 1.87424E-01-9.44175E-14 2.66495E-13
 -1       538 2.58014E+01-1.76333E+00-1.28652E-02 1.62332E+00-6.44915E-14 2.65900E-13
 -1       539 2.60601E+01-4.50882E-01-1.77470E-02 2.73782E+00 1.28527E-13 3.44190E-13
 -1       540 2.55147E+01 1.86979E+00-9.38333E-02 2.54594E+00 3.21278E-13 4.33546E-13
 -1       541 2.53121E+01 3.33352E+00-8.11024E-02 3.78315E-01 3.75037E-13 4.63206E-14
 -1       542 2.55222E+01 2.53189E+00-7.29778E-02-2.09496E+00 3.88734E-13-4.48839E-13
 -1       543 2.60754E+01 2.59852E-01-5.04585E-02-2.92956E+00 3.80151E-13-5.49578E-13
 -1       544 2.60125E+01-1.47937E+00-1.80525E-02-2.10883E+00 1.73435E-13-3.32929E-13
 -1       545 2.52717E+01-1.90296E+00-1.01183E-02-6.89708E-01 4.37344E-14-7.13203E-14
 -1       546 2.42866E+01-1.48991E+00-7.08408E-03 5.07595E-01-1.21285E-14-5.53176E-14
 -1       547 2.33839E+01-8.55311E-01-5.45895E-03 1.22956E+00-1.88425E-13-6.53949E-14
 -1       548 2.26709E+01-3.28093E-01-3.13398E-03 1.53872E+00-1.32238E-13-2.98434E-14
 -1       549 2.21280E+01 1.02453E-02-1.07442E-03 1.57409E+00-8.99725E-14 2.63317E-15
 -1       550 2.17073E+01 1.87454E-01 2.47758E-04 1.45583E+00-1.58474E-13-9.57192E-14
 -1       551 2.13701E+01 2.57277E-01 9.52148E-04 1.26728E+00-1.57361E-13-1.33959E-13
 -1       552 2.10930E+01 2.65648E-01 1.21176E-03 1.05930E+00-2.90329E-13-2.02308E-14
 -1       553 2.08629E+01 2.43587E-01 1.21194E-03 8.59808E-01 1.05427E-13-1.43497E-14
 -1       554 2.06722E+01 2.09456E-01 1.08651E-03 6.82071E-01 2.09813E-13 4.31488E-15
 -1       555 2.05158E+01 1.73092E-01 9.16078E-04 5.30778E-01-4.39244E-14 2.63974E-13
 -1       556 2.03892E+01 1.39218E-01 7.43199E-04 4.05937E-01 4.04420E-14 1.32924E-13
 -1       557 2.02885E+01 1.09733E-01 5.87212E-04 3.05271E-01 3.59328E-14 1.69375E-13
 -1       558 2.02096E+01 8.50753E-02 4.54834E-04 2.25582E-01 1.35783E-13 1.92899E-13
 -1       559 2.01489E+01 6.49943E-02 3.46544E-04 1.63493E-01 1.17828E-13 3.38076E-13
 -1       560 2.01030E+01 4.89552E-02 2.60103E-04 1.15823E-01-6.08430E-14 2.36570E-13
 -1       561 2.00691E+01 3.63446E-02 1.92335E-04 7.97452E-02 2.41497E-14 1.37357E-13
 -1       562 2.00445E+01 2.65656E-02 1.39974E-04 5.28426E-02-2.42480E-13 2.40056E-13
 -1       563 2.00272E+01 1.90770E-02 9.99980E-05 3.31020E-02-2.05004E-13 3.47922E-13
 -1       564 2.00153E+01 1.34028E-02 6.97468E-05 1.88848E-02 3.74714E-14 2.75947E-13
 -1       565 2.00076E+01 9.13091E-03 4.69204E-05 8.89006E-03 2.03979E-13 8.73598E-14
 -1       566 2.00029E+01 5.90831E-03 2.93381E-05 2.11152E-03 3.22260E-13 4.16124E-13
 -1       567 2.00003E+01 3.41753E-03 1.62668E-05-2.20275E-03-1.73334E-13 5.66235E-13
 -1       568 1.99992E+01 1.35740E-03 3.69914E-06-4.59069E-03-1.10693E-13 4.70537E-13
 -1       569 1.99989E+01-5.51421E-04-3.84297E-06-5.37894E-03-1.23030E-13 3.49658E-13
 -1       570 2.00020E+01 1.41989E-03 4.46287E-06-2.25135E-03 6.05875E-13-4.17667E-13
 -1       571 2.00017E+01 2.34758E-03 4.63848E-06-1.20318E-03 3.61029E-13-1.19743E-13
 -1       572 2.00012E+01-3.14967E-04-3.48615E-06-4.68352E-03 2.02929E-13 3.05792E-13
 -1       573 2.00019E+01 4.57281E-04 3.84577E-06-3.48926E-03 2.81541E-13-1.71347E-13
 -1       574 2.00014E+01 3.02197E-03 4.79720E-06-4.30077E-04 9.09282E-14-4.14151E-13
 -1       575 2.00012E+01 3.29008E-03 4.68763E-06 1.47040E-04-1.12312E-13-5.09583E-13
 -1       576 2.00013E+01 3.09292E-03 4.64157E-06 6.97579E-04-1.73470E-13-1.98052E-14
 -1       577 2.00015E+01 2.49241E-03 4.47960E-06 1.38347E-03-6.36322E-14-3.31717E-13
 -1       578 2.00018E+01 1.60311E-03 3.07533E-06 2.32502E-03 3.44362E-14 6.84108E-14
 -1       579 2.00017E+01 6.73526E-04 4.57683E-07 3.46780E-03-1.23552E-13 4.48690E-13
 -1       580 2.00010E+01-7.48893E-05-2.73496E-07 4.50556E-03-3.17114E-13 3.24988E-14
 -1       581 5.80962E+00-1.49916E+00 1.87926E-01 2.65492E+00-2.04840E-13 1.19828E-12
 -1       582 9.80556E+00-3.23718E+00 1.39154E-01 5.78330E+00-3.93005E-13 7.25628E-13
 -1       583 5.76291E+00-1.42255E+00 1.80343E-01-3.00346E+00 2.05422E-13 7.30763E-13
 -1       584 2.04117E+01 3.97209E-01 3.16840E-03-3.38466E-01 1.85433E-13 1.46686E-13
 -1       585 1.73903E+01-5.43165E+00 8.56708E-02 6.53391E+00-1.40554E-13 1.95302E-13
 -1       586 2.97516E+01-2.91024E+00-5.34733E-02 9.63458E-02 2.65579E-13-1.00198E-13
 -1       587 1.65453E+01-5.09840E+00 9.23644E-02-7.00374E+00 4.99628E-13 3.36783E-13
 -1       588 3.03622E+01 6.95605E+00-1.60153E-01-9.32887E-01-8.16000E-13-5.14380E-14
 -1       589 1.93986E+01 3.49899E+00-4.45683E-03-2.04130E-01 8.46205E-14-5.00216E-13
 -1       590 3.04078E+01 6.64979E+00-1.75050E-01 5.78892E-01 9.59247E-13 1.05977E-13
 -1       591 3.00600E+01 1.45419E-01-9.97249E-02 6.27261E-01-1.68022E-13-7.59788E-13
 -1       592 3.11727E+01 5.53149E+00-1.62974E-01-1.85874E+00 8.58605E-13 7.68344E-14
 -1       593 3.07934E+01 3.22387E+00-1.59612E-01 2.45040E+00 6.52693E-13 4.64725E-13
 -1       594 3.08812E+01-9.58376E-01-1.10799E-01 9.79355E-01 1.86821E-13 4.17763E-13
 -1       595 2.80656E+01-4.37520E+00-5.45000E-02-1.63195E+00-1.79485E-13 2.23266E-13
 -1       596 2.03789E+01-5.61778E+00 6.87528E-02-5.87914E+00-3.83811E-13-3.35646E-13
 -1       597 1.26109E+01-4.37621E+00 1.14548E-01-6.64070E+00-4.04149E-13-6.52554E-13
 -1       598 6.52680E+00-1.89135E+00 1.65202E-01-3.65738E+00-2.35915E-13-6.08097E-13
 -1       599 5.20075E+00-1.04462E+00 1.95543E-01 3.24409E-01-6.05696E-14-8.01414E-13
 -1       600 9.52329E+00-2.69225E+00 1.67758E-01 5.80981E+00 3.03577E-13-5.28119E-13
 -1       601 1.46534E+01-4.58734E+00 9.90688E-02 7.00480E+00 3.86358E-13-4.59646E-13
 -1       602 2.22448E+01-5.59677E+00 3.45444E-02 5.63039E+00 1.51476E-13-1.68521E-13
 -1       603 2.73656E+01-3.97841E+00-3.52707E-02 2.45531E+00-2.43916E-13 3.27176E-13
 -1       604 3.00156E+01-1.53416E-01-9.46014E-02-4.35815E-01-6.12118E-13 2.39198E-13
 -1       605 3.08827E+01 4.03120E+00-1.37261E-01-1.42135E+00-7.46354E-13 5.91888E-15
 -1       606 2.88427E+01 6.65421E+00-1.99684E-01 1.03093E+00-5.89515E-13-4.36803E-13
 -1       607 3.00423E+01 4.21569E+00-1.61794E-01 1.75455E+00-3.96114E-13-6.54581E-13
 -1       608 2.74555E+01-3.81792E+00-3.88894E-02-2.27962E+00 6.84175E-14-4.71817E-13
 -1       609 2.21869E+01-5.44196E+00 2.52148E-02-5.55578E+00 3.45439E-13-1.20223E-13
 -1       610 9.67030E+00-3.06540E+00 1.34723E-01-6.11567E+00 4.00784E-13 9.57914E-14
 -1       611 2.05654E+01 1.82324E+00-5.65876E-03-1.26826E+00-3.25108E-13-2.83229E-13
 -1       612 2.08124E+01 1.33682E+00-7.29616E-04 1.28866E+00 4.23750E-13 3.08361E-13
 -1       613 2.45313E+01-5.71006E+00 3.51174E-03 4.22879E+00 8.99697E-14 2.81684E-14
 -1       614 1.99782E+01 2.80946E+00-6.50033E-03-9.70678E-01-1.97450E-13-4.95141E-13
 -1       615 7.38958E+00-4.94357E-02 1.74048E-01-1.25567E-01-2.57147E-14 8.30842E-13
 -1       616 8.72357E+00-6.43112E-01 1.53886E-01 3.31300E+00 2.14427E-13-5.22984E-13
 -1       617 2.51507E+01-5.37171E+00 9.21315E-03-3.04906E+00-2.92821E-13 1.40839E-13
 -1       618 1.99998E+01-9.88423E-05-8.99725E-07 5.02807E-03-3.39067E-13 1.03270E-13
 -1       619 1.96003E+01 2.86454E+00-1.40797E-03 2.41782E-01 2.11255E-13-3.56209E-13
 -1       620 1.95233E+01 2.95529E+00-1.31227E-03 1.02584E-01 1.61037E-13-4.31515E-13
 -1       621 1.99956E+01 2.34648E+00-1.55305E-03 5.14385E-01 3.09961E-13-2.22863E-13
 -1       622 2.02734E+01 1.89191E+00-2.08710E-03 6.18664E-01 3.49356E-13-1.18339E-13
 -1       623 2.04990E+01 1.20280E+00 2.84702E-03 4.29344E-01 3.12757E-13 2.01483E-15
 -1       624 2.80351E+01 1.35772E+00-1.07339E-01-2.01119E+00-4.62644E-13 1.84481E-13
 -1       625 2.04283E+01 8.44727E-01 1.29940E-03-9.01753E-02 2.20251E-13-2.33000E-15
 -1       626 2.05529E+01-4.94733E+00 5.46551E-02-5.51219E+00 6.38205E-13-2.23805E-13
 -1       627 2.04035E+01 8.66893E-01 3.34446E-04 8.45449E-02-1.57695E-13-2.94670E-13
 -1       628 2.03783E+01 6.09664E-01 2.36790E-04 4.41219E-01-1.52392E-13-2.99161E-13
 -1       629 2.03794E+01 4.30237E-01 1.43953E-04 7.15187E-01-1.19757E-13-2.36136E-13
 -1       630 2.04231E+01 2.79514E-01 6.85560E-05 9.22470E-01-8.09952E-14-2.35163E-13
 -1       631 2.05227E+01 1.17963E-01-1.56007E-05 1.06946E+00-5.53422E-14-2.23715E-13
 -1       632 2.06946E+01-8.79601E-02-1.43087E-04 1.15002E+00 1.10103E-14-1.12578E-13
 -1       633 2.09599E+01-3.63870E-01-3.37252E-04 1.14410E+00-6.53821E-15-1.42504E-14
 -1       634 2.13412E+01-7.17298E-01-6.05757E-04 1.01693E+00 3.16060E-14 2.16536E-14
 -1       635 2.18496E+01-1.11655E+00-9.20407E-04 7.21310E-01 1.60058E-14-6.68743E-14
 -1       636 2.24580E+01-1.45777E+00-1.19421E-03 2.12088E-01 4.03514E-14-7.38758E-14
 -1       637 2.30659E+01-1.53994E+00-1.48834E-03-5.08683E-01 4.76479E-14 1.82646E-14
 -1       638 2.35008E+01-1.10665E+00-1.21536E-03-1.30714E+00 1.43694E-14 6.92744E-14
 -1       639 2.35846E+01 5.36926E-02 2.23823E-03-1.90444E+00-9.60482E-14-1.64408E-15
 -1       640 2.31346E+01 1.61019E+00-3.30089E-02-1.72967E+00-2.67907E-13-4.08324E-14
 -1       641 2.28714E+01 2.68144E+00-1.38681E-02-6.31833E-01-2.57398E-13-7.75613E-14
 -1       642 2.28746E+01 2.67930E+00-2.64078E-02 8.29833E-01-1.88386E-13-1.87392E-13
 -1       643 2.32990E+01 1.42167E+00-1.06010E-02 1.84007E+00-2.61495E-13-2.35209E-13
 -1       644 2.35610E+01-8.42939E-02-6.55863E-03 1.90800E+00-2.43588E-14-3.64053E-13
 -1       645 2.34784E+01-1.13097E+00-1.26644E-03 1.33622E+00 1.43925E-13-4.16906E-13
 -1       646 2.30295E+01-1.50375E+00-1.51798E-03 5.48618E-01 8.17520E-14-3.90255E-13
 -1       647 2.24173E+01-1.37928E+00-1.23923E-03-1.34852E-01-3.16635E-14-4.51308E-13
 -1       648 2.18175E+01-1.02407E+00-8.94571E-04-6.02090E-01-4.88315E-15-4.81981E-13
 -1       649 2.13200E+01-6.30942E-01-5.34109E-04-8.62272E-01 1.56167E-13-3.17760E-13
 -1       650 2.09444E+01-2.97323E-01-2.86766E-04-9.65366E-01 1.81834E-13-1.32053E-13
 -1       651 2.06758E+01-5.42245E-02-9.70205E-05-9.62996E-01 1.36084E-14-1.04039E-13
 -1       652 2.04886E+01 1.02018E-01 1.13141E-05-8.96529E-01-4.40818E-14 5.72205E-15
 -1       653 2.03589E+01 1.88708E-01 6.88980E-05-7.95871E-01 1.03009E-13-7.18182E-14
 -1       654 2.02681E+01 2.25528E-01 9.47708E-05-6.81457E-01-3.50668E-14 6.32632E-16
 -1       655 2.02031E+01 2.29687E-01 1.00944E-04-5.66536E-01-6.31224E-14 2.91960E-13
 -1       656 2.01554E+01 2.14454E-01 9.57534E-05-4.59111E-01-2.23096E-13 2.07377E-13
 -1       657 2.01194E+01 1.89243E-01 8.47668E-05-3.63482E-01-1.29378E-13 2.38614E-13
 -1       658 2.00918E+01 1.60299E-01 7.15491E-05-2.81418E-01-5.90896E-14 1.51281E-13
 -1       659 2.00702E+01 1.31488E-01 5.82428E-05-2.13046E-01 8.20737E-14 9.85608E-14
 -1       660 2.00533E+01 1.04990E-01 4.60195E-05-1.57496E-01-4.17418E-14 1.56384E-14
 -1       661 2.00401E+01 8.18562E-02 3.54188E-05-1.13365E-01 4.72295E-14-5.80219E-14
 -1       662 2.00297E+01 6.24108E-02 2.65833E-05-7.90281E-02 6.29664E-14-7.69313E-14
 -1       663 2.00217E+01 4.65406E-02 1.94484E-05-5.28508E-02 2.14655E-14-1.39198E-13
 -1       664 2.00155E+01 3.38868E-02 1.37971E-05-3.33115E-02-1.63374E-13-1.63305E-13
 -1       665 2.00108E+01 2.39704E-02 9.18779E-06-1.90713E-02 3.17791E-13-1.23449E-13
 -1       666 2.00073E+01 1.62659E-02 5.65326E-06-9.00709E-03 3.34910E-13-6.76354E-14
 -1       667 2.00047E+01 1.02465E-02 7.23405E-06-2.20573E-03 1.40426E-13-9.44942E-14
 -1       668 2.00028E+01 5.37817E-03 1.42174E-07 1.99182E-03-1.93628E-13 2.03987E-13
 -1       669 2.03700E+01 5.12930E-01 4.24572E-04-1.13833E+00 1.49995E-13-5.51563E-14
 -1       670 2.51020E+01-4.86156E+00-4.88679E-03-3.06981E+00 4.00749E-13-5.27845E-13
 -1       671 2.03572E+01 5.55972E-01 5.86353E-04-8.39122E-01 1.60133E-13-4.47386E-14
 -1       672 2.05031E+01 4.31714E-01 3.41862E-04-1.68053E+00 4.82593E-14-2.39480E-14
 -1       673 2.06518E+01 2.94530E-01 8.84825E-05-1.92495E+00 5.44677E-14-3.62682E-14
 -1       674 2.09152E+01-1.84861E-03-4.74344E-04-2.12364E+00 1.90032E-14 2.84621E-14
 -1       675 2.13916E+01-5.47032E-01-1.31708E-03-2.21855E+00-9.36974E-14 1.29413E-14
 -1       676 2.22214E+01-1.39491E+00-1.78278E-03-2.09806E+00-1.69596E-13 9.94764E-14
 -1       677 2.36111E+01-2.48704E+00-1.13732E-02-1.52275E+00-1.98799E-13 1.59560E-13
 -1       678 2.55721E+01-3.23972E+00 7.74092E-04-3.15984E-01-1.20845E-13 2.36236E-13
 -1       679 2.73387E+01-2.71192E+00-6.69746E-02 1.58859E+00-1.19576E-13 4.57050E-13
 -1       680 2.79257E+01 1.91121E+00-1.09352E-01-2.94716E+00 3.97127E-13-5.35596E-13
 -1       681 2.77105E+01-1.77068E+00-6.94273E-02-2.16225E+00 7.47085E-14-3.71408E-13
 -1       682 2.60957E+01-3.12073E+00-1.05760E-02-3.76818E-01-4.65704E-14-2.63966E-13
 -1       683 2.42228E+01-2.67926E+00 5.00199E-04 1.06343E+00 1.76812E-14-2.23594E-13
 -1       684 2.27394E+01-1.64435E+00-1.45875E-03 1.78602E+00-1.36310E-13 4.22853E-14
 -1       685 2.17772E+01-7.24512E-01-1.07110E-03 2.01602E+00-9.68217E-14 5.68891E-14
 -1       686 2.12062E+01-1.01268E-01-4.42243E-04 1.97313E+00-3.75394E-14-1.62367E-14
 -1       687 2.08799E+01 2.47776E-01 1.12607E-05 1.79531E+00-6.89901E-14 1.72226E-16
 -1       688 2.06855E+01 4.05250E-01 3.31254E-04 1.56210E+00-2.23005E-13 1.59203E-13
 -1       689 2.05567E+01 4.46690E-01 4.72446E-04 1.31689E+00-1.81559E-13 8.21346E-14
 -1       690 2.04597E+01 4.25992E-01 4.93468E-04 1.08324E+00 4.49783E-14-3.48914E-13
 -1       691 2.03792E+01 3.76871E-01 4.52701E-04 8.73025E-01 6.24989E-14-3.80493E-13
 -1       692 2.03094E+01 3.18570E-01 3.87408E-04 6.91072E-01-8.71711E-14-1.56848E-13
 -1       693 2.02485E+01 2.61166E-01 3.17821E-04 5.38024E-01-2.69076E-14-2.86033E-13
 -1       694 2.01960E+01 2.09349E-01 2.53460E-04 4.12159E-01 1.25715E-13-3.47835E-13
 -1       695 2.01517E+01 1.64832E-01 1.97972E-04 3.10576E-01-9.12447E-15-1.98475E-13
 -1       696 2.01151E+01 1.27785E-01 1.52053E-04 2.29934E-01 5.91024E-14 7.96090E-14
 -1       697 2.00855E+01 9.76463E-02 1.15055E-04 1.66882E-01 5.54122E-15 9.73801E-14
 -1       698 2.00622E+01 7.35604E-02 8.58129E-05 1.18301E-01-4.79786E-14 1.65672E-13
 -1       699 2.00442E+01 5.46001E-02 6.30549E-05 8.14181E-02-1.02731E-13 3.62765E-13
 -1       700 2.00306E+01 3.98750E-02 4.55751E-05 5.38445E-02-2.34367E-13 2.44422E-13
 -1       701 2.00205E+01 2.85753E-02 3.22833E-05 3.35781E-02 4.58922E-14 1.65466E-13
 -1       702 2.00133E+01 1.99815E-02 2.21964E-05 1.89809E-02 3.12949E-13 1.61501E-13
 -1       703 2.00082E+01 1.34638E-02 1.40621E-05 8.75494E-03 1.39002E-13 1.47508E-13
 -1       704 2.00047E+01 8.49483E-03 9.46539E-06 1.88751E-03 1.11306E-13 4.61449E-13
 -1       705 2.00025E+01 4.55990E-03 1.40123E-05-2.37353E-03 9.15443E-15 3.58482E-13
 -1       706 2.00018E+01 2.26706E-03 5.16220E-06-3.98639E-03-8.11920E-14 5.77887E-13
 -1       707 2.00015E+01 1.16341E-02 1.07592E-06 2.24972E-04 1.45109E-13-6.75528E-13
 -1       708 2.00018E+01 2.52520E-03-6.83491E-06 3.64418E-03-3.45920E-13 9.73389E-14
 -1       709 2.00027E+01 8.83304E-03-4.41081E-08-3.62095E-04 3.65399E-13-5.05015E-13
 -1       710 2.00014E+01 1.16658E-02 1.25926E-06 1.22043E-04 4.87764E-14-4.65241E-13
 -1       711 2.00020E+01 1.06315E-02 6.43921E-07 1.43333E-04 5.76944E-14-3.93526E-13
 -1       712 2.77933E+01 1.16393E+00-1.11201E-01 2.10214E+00-1.08136E-13-8.17416E-13
 -1       713 2.00018E+01 1.07471E-02 7.03198E-07 1.40638E-04 4.11832E-14-3.80148E-14
 -1       714 2.00024E+01 9.00307E-03-1.15074E-06 5.34783E-04 2.24711E-13-1.16791E-13
 -1       715 2.00028E+01 6.73384E-03-1.83092E-06 1.42101E-03 1.05230E-13 1.99162E-13
 -1       716 1.01458E+01-1.16238E+00 1.38181E-01 4.07918E+00-1.94702E-13 8.07077E-13
 -1       717 1.00747E+01-1.05459E+00 1.33218E-01-4.34032E+00 3.57915E-13 6.51007E-14
 -1       718 2.89711E+01-1.00726E+00-9.25495E-02-2.24609E+00 9.85080E-14-4.49189E-13
 -1       719 1.19529E+01-2.03318E+00 1.33792E-01-5.16174E+00-2.53977E-13-5.51559E-13
 -1       720 2.03558E+01-4.73000E+00 6.67115E-02 5.44913E+00 4.08056E-13-1.94246E-13
 -1       721 2.03776E+01 6.51944E-01 9.59610E-04-4.99316E-01 1.91495E-13-2.77537E-14
 -1       722 2.04168E+01 4.85829E-01 4.33880E-04-1.41619E+00 8.30870E-14-2.97236E-14
 -1       723 2.04216E+01 1.28106E+00 9.08727E-04-3.73110E-01-1.99113E-13-3.01026E-13
 -1       724 1.97618E+01 2.66467E+00-1.50669E-03 3.80636E-01 2.83122E-13-3.22128E-13
 -1       725 2.68648E+01-4.52867E+00-1.34482E-02 9.76091E-01-4.25389E-14-4.01824E-13
 -1       726 1.59311E+01-3.44575E+00 1.03486E-01 5.75452E+00-2.41297E-13 3.33279E-13
 -1       727 1.97950E+01 2.61923E+00-1.71238E-03-3.52833E-01-4.84972E-14-4.21396E-13
 -1       728 2.76695E+01-2.32165E+00-5.17610E-02 3.82640E-01 1.54619E-13-9.66272E-13
 -1       729 2.44715E+01-5.02679E+00-7.28503E-04 3.34316E+00 1.97108E-13 1.73138E-13
 -1       730 2.67150E+01 6.05707E+00-1.46107E-01-3.52643E-01-6.07216E-13-3.86412E-13
 -1       731 1.73698E+01-3.92246E+00 1.02681E-01-5.75414E+00-3.58467E-13-5.29306E-13
 -1       732 8.66879E+00-5.51676E-02 1.47204E-01-1.67960E+00-1.77513E-13-4.78541E-13
 -1       733 1.42358E+01-2.80727E+00 1.04281E-01 5.88675E+00 4.14377E-13-3.68434E-13
 -1       734 1.50811E+01-3.50704E+00 1.03152E-01-6.31634E+00 5.08094E-13 1.33532E-13
 -1       735 2.75447E+01-2.60803E+00-5.67519E-02-2.44987E-01-2.34136E-13 3.49838E-13
 -1       736 2.70058E+01 4.27685E+00-1.32361E-01 1.92217E+00-2.55872E-13-5.61015E-13
 -1       737 2.19542E+01-4.98513E+00 4.74137E-02 4.51560E+00-1.93758E-13-1.00244E-13
 -1       738 2.74547E+01 4.35135E+00-1.43821E-01-1.94589E+00-6.44054E-13 3.35704E-14
 -1       739 2.00189E+01 2.30645E+00-2.37086E-03-5.14636E-01-1.29294E-13-4.30974E-13
 -1       740 1.95341E+01 2.94242E+00-1.30655E-03-4.06796E-02 1.06580E-13-4.45684E-13
 -1       741 2.00031E+01 6.53989E-03-2.28498E-06-1.36329E-03 3.20328E-13-5.85414E-14
 -1       742 2.00028E+01 4.23881E-03-8.67750E-07-2.65482E-03 1.10672E-13 2.41300E-13
 -1       743 9.98302E+00 2.38567E-01 1.13656E-01 1.78764E+00-1.33097E-13 9.60530E-13
 -1       744 2.03350E+01 1.75581E+00-8.34616E-04-6.42636E-01-2.02620E-13-3.73277E-13
 -1       745 2.76380E+01 5.12555E+00-1.92007E-01-9.71550E-01 8.07465E-13-2.41852E-13
 -1       746 9.94761E+00 2.72840E-01 1.09951E-01-2.00618E+00 1.61237E-13 2.88186E-13
 -1       747 1.22771E+01-9.36958E-01 9.71690E-02 4.31519E+00 2.86970E-13-2.94393E-13
 -1       748 1.96282E+01 2.83030E+00-1.35697E-03-1.92348E-01 3.02077E-14-4.25012E-13
 -1       749 2.18970E+01-4.52605E+00 3.15197E-02-4.19287E+00-3.33844E-13-9.16975E-14
 -1       750 2.00031E+01 6.33080E-03-2.30645E-06 1.66583E-03-2.83334E-13-2.40362E-13
 -1       751 2.54401E+01 5.02636E+00-7.26943E-02 9.36164E-01-3.78742E-13-5.09827E-13
 -1       752 1.00215E+01 4.39369E-01 1.07145E-01 1.06372E+00 4.21136E-14-3.99427E-13
 -1       753 2.62126E+01-6.51679E-01-3.96730E-02-1.78501E+00-2.34728E-13 4.39284E-14
 -1       754 2.01822E+01 1.65043E+00 9.08412E-04 1.89320E-01 2.75776E-13-1.48071E-13
 -1       755 2.02577E+01 1.42855E+00 1.84710E-04-1.26567E-01-1.53963E-13-3.53254E-13
 -1       756 2.02328E+01 7.59464E-01 9.79071E-05 5.74751E-01-8.54340E-14-2.50943E-13
 -1       757 2.02097E+01 5.49341E-01 2.69159E-05 8.39740E-01-1.06732E-13-2.08273E-13
 -1       758 2.02168E+01 3.53180E-01 2.25368E-05 1.06040E+00-7.74317E-14-2.01599E-13
 -1       759 2.02820E+01 1.25651E-01 6.79636E-06 1.24036E+00 3.47489E-14-1.93643E-13
 -1       760 2.04412E+01-1.75304E-01-4.45181E-05 1.37316E+00 1.00630E-13-1.71472E-13
 -1       761 2.07411E+01-5.83425E-01-1.31593E-04 1.43616E+00 4.89685E-14-9.14661E-14
 -1       762 2.12349E+01-1.10774E+00-2.98064E-04 1.38267E+00 7.73844E-15-6.93921E-14
 -1       763 2.19680E+01-1.70098E+00-4.59860E-04 1.13349E+00 4.51942E-14 3.75867E-14
 -1       764 2.29265E+01-2.18990E+00-5.25362E-04 5.79681E-01 1.00696E-13-1.20582E-14
 -1       765 2.39718E+01-2.21307E+00 5.76574E-05-3.57885E-01 5.37621E-14-2.58023E-14
 -1       766 2.46538E+01-1.28235E+00-2.95941E-02-1.40854E+00-8.94822E-14-9.70274E-14
 -1       767 2.42093E+01 4.29301E+00-8.64176E-02 1.77351E-01-3.60156E-13-4.38357E-13
 -1       768 2.48323E+01 5.95039E-01-2.83242E-02 2.13697E+00-1.62623E-13-3.83527E-13
 -1       769 2.46432E+01-1.41487E+00-1.07964E-02 1.41163E+00 8.14674E-14-1.51659E-13
 -1       770 2.38277E+01-2.18885E+00-3.38979E-03 3.33549E-01 1.18372E-13-3.87002E-13
 -1       771 2.27883E+01-2.08653E+00-1.12742E-03-5.28106E-01 1.93503E-14-3.38324E-13
 -1       772 2.18394E+01-1.57253E+00-4.11067E-04-1.02694E+00 5.78099E-14-1.44647E-13
 -1       773 2.11163E+01-9.87404E-01-1.16948E-04-1.23801E+00 1.29834E-13-1.11969E-13
 -1       774 2.06224E+01-4.87588E-01-1.17611E-04-1.26763E+00 2.52013E-13-1.97073E-13
 -1       775 2.03123E+01-1.20092E-01 8.36157E-06-1.19656E+00 1.63403E-13-2.45319E-13
 -1       776 2.01320E+01 1.20560E-01 4.28261E-05-1.07561E+00 1.45772E-13-7.61234E-14
 -1       777 2.00360E+01 2.59104E-01 4.68844E-05-9.34644E-01-4.61339E-14 8.99627E-14
 -1       778 1.99913E+01 3.23320E-01 4.32289E-05-7.90974E-01-2.29039E-14 5.99020E-14
 -1       779 1.99756E+01 3.37673E-01 3.74094E-05-6.54518E-01 1.46138E-13 2.64821E-14
 -1       780 1.99747E+01 3.21319E-01 3.13598E-05-5.30686E-01-1.56647E-13 3.45731E-14
 -1       781 1.99804E+01 2.88159E-01 2.56359E-05-4.22047E-01 3.24986E-14 1.56837E-13
 -1       782 1.99880E+01 2.47684E-01 2.04751E-05-3.29319E-01-2.15564E-13 3.45919E-13
 -1       783 1.99952E+01 2.05990E-01 1.60010E-05-2.52024E-01-3.58998E-14 3.47658E-13
 -1       784 2.00008E+01 1.66699E-01 1.22493E-05-1.88947E-01-9.39845E-14 8.05151E-14
 -1       785 2.00048E+01 1.31719E-01 9.18379E-06-1.38474E-01 1.86474E-15-2.88628E-14
 -1       786 2.00072E+01 1.01819E-01 6.71508E-06-9.88374E-02 9.39291E-14 2.58693E-13
 -1       787 2.00083E+01 7.70492E-02 4.72308E-06-6.82777E-02 8.29603E-14 2.69510E-13
 -1       788 2.00084E+01 5.70354E-02 3.21224E-06-4.51581E-02-1.05292E-13 1.73352E-13
 -1       789 2.00078E+01 4.11797E-02 1.82473E-06-2.80275E-02 7.09318E-14 1.67881E-13
 -1       790 2.00068E+01 2.87819E-02 8.81635E-07-1.56385E-02 3.03369E-13-2.73873E-13
 -1       791 2.00055E+01 1.91085E-02 3.51686E-06-7.01891E-03 3.21011E-13-1.88397E-13
 -1       792 2.00043E+01 1.19949E-02-1.66333E-06-1.76578E-03 3.79414E-15-1.28880E-13
 -1       793 2.00778E+01 7.94715E-01 6.88429E-05-9.49724E-01 1.31841E-13-1.07849E-13
 -1       794 1.96685E+01 4.02284E-01 1.52065E-04-2.14309E+00-2.23763E-14-5.10055E-14
 -1       795 1.97338E+01 6.17217E-01 1.82311E-04-1.82934E+00 4.25110E-14-1.00108E-13
 -1       796 2.00880E+01-8.46008E-01 5.83838E-04-2.83969E+00-2.07708E-13 4.19180E-14
 -1       797 2.10216E+01-2.07026E+00 1.92614E-02-3.13087E+00-3.03993E-13 1.70133E-14
 -1       798 2.26678E+01-4.23699E+00 1.20177E-02 3.41052E+00 2.57120E-13 9.12703E-15
 -1       799 2.04365E+01-1.13785E+00 1.16200E-03 2.74538E+00-1.98823E-13-1.20274E-13
 -1       800 1.99047E+01-2.03861E-01 1.56633E-03 2.41675E+00-1.47360E-13 8.50394E-15
 -1       801 1.97359E+01 3.25957E-01 3.76017E-04 2.07206E+00-1.12261E-13 5.75093E-14
 -1       802 1.97335E+01 5.79976E-01 1.93992E-04 1.75238E+00-1.69945E-13-5.62017E-14
 -1       803 1.97942E+01 6.62323E-01 1.88160E-04 1.46514E+00-1.30048E-13-9.13507E-14
 -1       804 1.98664E+01 6.48437E-01 1.76410E-04 1.21009E+00 1.73969E-13-1.31579E-13
 -1       805 1.99285E+01 5.86668E-01 1.52313E-04 9.86133E-01 1.21741E-13-7.61505E-14
 -1       806 1.99744E+01 5.05890E-01 1.24647E-04 7.92313E-01-6.70712E-14-2.27452E-13
 -1       807 2.00045E+01 4.22274E-01 9.92513E-05 6.27336E-01 1.17174E-13-3.26045E-13
 -1       808 2.00221E+01 3.44135E-01 7.77859E-05 4.89289E-01-4.60301E-14-2.47663E-13
 -1       809 2.00305E+01 2.75163E-01 6.02315E-05 3.75694E-01-2.54523E-13-8.29360E-14
 -1       810 2.00330E+01 2.16460E-01 4.61193E-05 2.83718E-01-2.90920E-14-1.41204E-14
 -1       811 2.00318E+01 1.67770E-01 3.49162E-05 2.10397E-01-1.17438E-13 1.16645E-13
 -1       812 2.00286E+01 1.28180E-01 2.61194E-05 1.52829E-01-4.53732E-14 3.34289E-13
 -1       813 2.00246E+01 9.65207E-02 1.92670E-05 1.08308E-01-1.19349E-13 3.75697E-13
 -1       814 2.00204E+01 7.15710E-02 1.39841E-05 7.44070E-02-2.53066E-13 3.94477E-13
 -1       815 2.00164E+01 5.21685E-02 9.98618E-06 4.90124E-02-4.99761E-14 1.47135E-13
 -1       816 2.00128E+01 3.72483E-02 7.23626E-06 3.03321E-02 9.95121E-14 1.90927E-13
 -1       817 2.00097E+01 2.58501E-02 5.46198E-06 1.68892E-02-5.93871E-14 7.03006E-13
 -1       818 2.00070E+01 1.71499E-02 2.52429E-06 7.56256E-03-5.29013E-15 7.37261E-13
 -1       819 2.00049E+01 1.04289E-02 3.83724E-06 1.38226E-03-6.47831E-15 5.90349E-13
 -1       820 2.00037E+01 7.27709E-03-1.33773E-05-1.03796E-03 1.06919E-13 5.33859E-13
 -1       821 2.55682E+01 2.05830E+00-7.05505E-02 2.35972E+00-1.95543E-13-4.81384E-13
 -1       822 1.96311E+01 2.42817E+00-2.56505E-04 9.21214E-02 1.47012E-13-3.77759E-13
 -1       823 2.41535E+01-3.99831E+00 1.33655E-02 2.18423E+00-1.54011E-13-3.08048E-13
 -1       824 2.00008E+01 2.14653E-02 1.05234E-06 2.02561E-04 3.90033E-13-5.21206E-13
 -1       825 2.00032E+01 1.50525E-02 7.41928E-07-1.72414E-03 1.64325E-13-2.36987E-13
 -1       826 2.00011E+01 2.07074E-02 1.37791E-06-9.83023E-04 2.48375E-13-2.96786E-13
 -1       827 1.43540E+01-1.48894E+00 6.23502E-02 4.48900E+00-1.85796E-13 4.20327E-13
 -1       828 1.88399E+01-3.61390E+00 4.11278E-02-5.12897E+00 5.81151E-13-2.01989E-13
 -1       829 2.54406E+01-3.69107E+00-1.08027E-02 8.40367E-01 1.39992E-15 2.35731E-13
 -1       830 1.21789E+01-3.68884E-01 8.61590E-02-3.38623E+00-1.22805E-13-5.01491E-13
 -1       831 2.00021E+01 1.84675E-02-2.22240E-06-1.76340E-03 6.29565E-14 2.06805E-14
 -1       832 2.16411E+01-2.52870E+00 1.86366E-02 2.91174E+00-1.17334E-13-1.38641E-13
 -1       833 2.62386E+01-1.00100E+00-3.82665E-02 1.68099E+00 5.21362E-14-4.64542E-13
 -1       834 1.97314E+01-4.11929E-02 2.49173E-05-2.48482E+00-5.11085E-14 4.55639E-14
 -1       835 2.47982E+01 4.03379E+00-8.72745E-02-1.33314E+00-4.58231E-13-2.60075E-13
 -1       836 2.55712E+01-3.70229E+00-2.31805E-02-8.72333E-01 2.06033E-13-7.36973E-13
 -1       837 2.34435E+01-4.44618E+00 1.62606E-02-3.17593E+00 4.90507E-13-4.92983E-13
 -1       838 2.02605E+01 1.02931E+00-4.25054E-04 2.54149E-01-1.40728E-13-3.07039E-13
 -1       839 1.61289E+01-2.00539E+00 7.31745E-02-4.74615E+00-2.60949E-13-5.09315E-13
 -1       840 2.01623E+01 1.84124E+00-1.96986E-04-3.34416E-01-1.31929E-13-4.04701E-13
 -1       841 1.45905E+01-1.64496E+00 6.42262E-02-4.84916E+00 3.28654E-13-1.07605E-13
 -1       842 2.03352E+01 1.23313E+00 5.37767E-05 6.17062E-02 2.58002E-13-7.81844E-14
 -1       843 1.83221E+01-3.02723E+00 3.84407E-02 4.86499E+00 3.86729E-13-2.87820E-13
 -1       844 2.58453E+01 2.03362E+00-4.49576E-02-2.24991E+00-3.76969E-13-9.46344E-14
 -1       845 1.97472E+01-3.18721E+00 4.59604E-02 4.34050E+00-2.40325E-13-1.07150E-13
 -1       846 1.96028E+01 2.46305E+00-3.81653E-04 4.76823E-02 1.02616E-13-3.98817E-13
 -1       847 1.99454E+01 2.01798E+00 7.39798E-05 1.68107E-01 2.43414E-13-2.48224E-13
 -1       848 1.61465E+01-1.52826E+00 3.93411E-02 4.37438E+00 2.38714E-13-3.10392E-13
 -1       849 1.97488E+01 2.28120E+00-2.82026E-04 1.30790E-01 1.88690E-13-2.76622E-13
 -1       850 2.00037E+01 1.48728E-02-1.02347E-06 1.87508E-03-1.91770E-13-3.28309E-13
 -1       851 2.02807E+01 9.50952E-01 8.77722E-05-3.64012E-01 1.95286E-13-1.17386E-13
 -1       852 1.98065E+01 2.21407E+00-2.50149E-04-7.68605E-02-1.07154E-14-3.66080E-13
 -1       853 1.98452E+01 7.07327E-01 1.75821E-04-1.53486E+00 3.32265E-14-1.15773E-13
 -1       854 1.99691E+01 2.06360E+00-4.56004E-04-1.93592E-01-7.46583E-14-3.63497E-13
 -1       855 1.15515E+01 6.27836E-01 6.18502E-02-1.16890E+00-1.64040E-14-3.77502E-13
 -1       856 2.00024E+01 1.83234E-02-2.50665E-06 2.03352E-03 3.17910E-14-3.75212E-13
 -1       857 2.00013E+01 2.06325E-02-1.03967E-06 1.37412E-03 1.34618E-14-4.92309E-13
 -1       858 1.30459E+01-7.68433E-02 5.53806E-02 3.08390E+00-2.13640E-13 7.54712E-13
 -1       859 2.01925E+01 8.43799E-01 1.74750E-04-6.75389E-01 1.49814E-13-1.05383E-13
 -1       860 1.10261E+01 7.85045E-01 6.65033E-02-1.01330E-01-3.23510E-14 5.74761E-13
 -1       861 1.31604E+01-2.33685E-01 5.75001E-02-3.44447E+00 1.19372E-13-8.19258E-14
 -1       862 1.99647E+01 7.47951E-01 1.50198E-04-1.24680E+00 1.14387E-13-9.47681E-14
 -1       863 2.00039E+01 1.38078E-02 2.99079E-05-1.87976E-03-9.95348E-14-2.68757E-13
 -1       864 1.99361E+01 6.56906E-01 1.89537E-06 9.31027E-01-5.87834E-14-1.80394E-13
 -1       865 1.98883E+01 4.28447E-01 8.10530E-06 1.17403E+00-1.68111E-14-1.35353E-13
 -1       866 1.98996E+01 1.46148E-01 3.85691E-06 1.41028E+00 6.31242E-14-1.41910E-13
 -1       867 2.00233E+01-2.41932E-01-1.16675E-05 1.63904E+00 7.87108E-14-2.88321E-13
 -1       868 2.03346E+01-7.83521E-01 6.53052E-05 1.84037E+00 8.79946E-14-2.44680E-13
 -1       869 2.09307E+01-1.49818E+00 1.44750E-03 1.95456E+00 1.35973E-13-1.38904E-13
 -1       870 2.19250E+01-2.34286E+00-1.83699E-03 1.84575E+00 9.37739E-14-1.10852E-14
 -1       871 2.33853E+01-3.06704E+00 3.79595E-03 1.32834E+00 1.13073E-13 8.33678E-14
 -1       872 2.48349E+01-3.03576E+00-4.17242E-03-2.14846E-01 4.51872E-14-4.95326E-13
 -1       873 2.31081E+01-2.93036E+00 8.05186E-05-1.30442E+00 2.56754E-13-3.06550E-13
 -1       874 2.17140E+01-2.17721E+00 3.39253E-03-1.76990E+00 8.75631E-14-6.94145E-14
 -1       875 2.07419E+01-1.34527E+00 7.03785E-04-1.82128E+00-4.90326E-14-1.01795E-13
 -1       876 2.01462E+01-6.56439E-01-4.21471E-05-1.68336E+00 1.82621E-13-1.26762E-13
 -1       877 1.98233E+01-1.61566E-01 1.38774E-04-1.47697E+00 1.87175E-13-9.64898E-14
 -1       878 1.96751E+01 1.60531E-01 1.01718E-04-1.25859E+00 2.04530E-13-2.36228E-13
 -1       879 1.96324E+01 3.47594E-01 6.19007E-05-1.05267E+00 2.60273E-13-6.74475E-14
 -1       880 1.96483E+01 4.36972E-01 3.64147E-05-8.67766E-01-2.20851E-14-1.27252E-14
 -1       881 1.96926E+01 4.60304E-01 2.16295E-05-7.06004E-01-2.92701E-14-9.32424E-14
 -1       882 1.97473E+01 4.42162E-01 1.35217E-05-5.66909E-01-1.97999E-13-4.89403E-13
 -1       883 1.98020E+01 4.00493E-01 8.77038E-06-4.49022E-01 1.57151E-13-3.38386E-13
 -1       884 1.98512E+01 3.47784E-01 5.73460E-06-3.50511E-01 1.05229E-13-2.91593E-13
 -1       885 1.98927E+01 2.92276E-01 3.69706E-06-2.69367E-01 5.17368E-15 4.27905E-14
 -1       886 1.99259E+01 2.39060E-01 2.31923E-06-2.03505E-01-2.81721E-13 2.25329E-14
 -1       887 1.99516E+01 1.90973E-01 1.40593E-06-1.50838E-01-9.90981E-14 1.17358E-13
 -1       888 1.99706E+01 1.49313E-01 7.95155E-07-1.09359E-01 2.51364E-13 1.81148E-13
 -1       889 1.99840E+01 1.14370E-01 2.98835E-07-7.71985E-02 9.17996E-14 1.42904E-13
 -1       890 1.99931E+01 8.58159E-02-1.07966E-07-5.26652E-02-1.53687E-13 4.64475E-14
 -1       891 1.99989E+01 6.29575E-02-4.01314E-07-3.42818E-02-6.30558E-15 4.30816E-14
 -1       892 2.00021E+01 4.49688E-02 2.13931E-06-2.08113E-02-8.45729E-14 7.81802E-14
 -1       893 2.00036E+01 3.08077E-02-2.26051E-05-1.11411E-02 2.17989E-13 9.02176E-14
 -1       894 1.96646E+01 2.38987E+00-5.35585E-04-7.58401E-03 5.48172E-14-3.78941E-13
 -1       895 1.75923E+01-1.26550E+00 3.08451E-02 3.79953E+00-1.59376E-13 1.18896E-13
 -1       896 1.79636E+01-9.05737E-01 1.08982E-02-3.46923E+00-1.93346E-13-1.49684E-13
 -1       897 1.82770E+01 4.79266E-01 4.08096E-04 2.20780E+00-1.38019E-13-9.97126E-14
 -1       898 1.80920E+01-1.60877E-01 5.75521E-03 2.82199E+00-1.70345E-13 6.12548E-14
 -1       899 1.88891E+01 8.89202E-01 3.65363E-05 1.45080E+00-9.26851E-14-1.91776E-13
 -1       900 1.91609E+01 8.77810E-01 4.12137E-05 1.19360E+00-1.08569E-13-9.29262E-14
 -1       901 1.93841E+01 8.05401E-01 3.69114E-05 9.79975E-01-1.70677E-15-3.28163E-14
 -1       902 1.95592E+01 7.05595E-01 2.47214E-05 7.98231E-01 2.25839E-13-1.63360E-13
 -1       903 1.96922E+01 5.98507E-01 1.50063E-05 6.42781E-01-4.42169E-14-2.38274E-13
 -1       904 1.97905E+01 4.95440E-01 9.10422E-06 5.10607E-01-7.64559E-14-1.26551E-13
 -1       905 1.98615E+01 4.02117E-01 5.72515E-06 3.99567E-01-1.96206E-13-2.16073E-13
 -1       906 1.99119E+01 3.20891E-01 3.74797E-06 3.07655E-01-8.86207E-14-3.57259E-13
 -1       907 1.99469E+01 2.52166E-01 2.54275E-06 2.32779E-01-1.73926E-13-1.08516E-13
 -1       908 1.99706E+01 1.95280E-01 1.78717E-06 1.72759E-01-2.52897E-13-1.09973E-13
 -1       909 1.99861E+01 1.49044E-01 1.30395E-06 1.25418E-01-1.98457E-13 7.46238E-14
 -1       910 1.99960E+01 1.12059E-01 9.10749E-07 8.86823E-02-2.69176E-13 1.23043E-13
 -1       911 2.00018E+01 8.28982E-02 7.00030E-07 6.06512E-02-7.85046E-14 1.16857E-13
 -1       912 2.00048E+01 6.02086E-02 2.82469E-07 3.96428E-02-1.16719E-14 1.01850E-13
 -1       913 2.00060E+01 4.27022E-02 8.81107E-07 2.42084E-02-3.14936E-14 1.91807E-15
 -1       914 2.00060E+01 2.92305E-02-2.39773E-05 1.31050E-02 1.29401E-13-4.53153E-13
 -1       915 2.00052E+01 1.90709E-02 1.79291E-05 5.47948E-03-4.15853E-14-3.43929E-13
 -1       916 2.07908E+01-2.96275E+00 6.88198E-03 3.40488E+00 2.19294E-13-1.56605E-13
 -1       917 1.78780E+01-2.14089E+00 2.09202E-02-4.23369E+00 3.66013E-13-3.48338E-13
 -1       918 2.00041E+01 1.08882E-02 3.63743E-06 6.13068E-04 7.53577E-14-1.23087E-13
 -1       919 1.99991E+01 3.27382E-02-4.02820E-06-1.27911E-03 5.52206E-14-5.12045E-13
 -1       920 2.12615E+01-3.35847E+00 1.83403E-02-3.44813E+00 3.57972E-13-1.35637E-13
 -1       921 1.85814E+01 7.84867E-01 1.11118E-04 1.77482E+00-1.60842E-13-1.88569E-13
 -1       922 1.87512E+01 8.19695E-01-3.41298E-06-1.79605E+00-1.01542E-14-1.77516E-13
 -1       923 2.00050E+01 8.82012E-01 3.74369E-05 6.73711E-01-5.00716E-14-2.36824E-13
 -1       924 1.99878E+01-3.37377E+00 5.11920E-02-4.30639E+00-3.55954E-13-2.05939E-13
 -1       925 2.00642E+01 1.15056E+00-7.40487E-07 3.90812E-01-7.38139E-14-2.47304E-13
 -1       926 1.96679E+01 1.01429E+00 4.23396E-05-9.50645E-01 1.36565E-13-1.49844E-13
 -1       927 2.34988E+01-3.67289E+00 6.20196E-03-1.99426E+00 2.33560E-13-3.28256E-13
 -1       928 2.00721E+01 1.67785E+00 5.17196E-04-3.51133E-02-8.88854E-14-3.37358E-13
 -1       929 1.29753E+01 3.28241E-01 4.17511E-02 2.41773E+00 1.23459E-13-2.14951E-13
 -1       930 1.54239E+01-4.18759E-01 3.81335E-02-3.46566E+00-1.44632E-13-4.22818E-13
 -1       931 2.01527E+01 1.27226E+00 1.93838E-05-2.13820E-01 2.26715E-13-1.27901E-13
 -1       932 1.89971E+01-1.96698E+00 1.93284E-02 3.63550E+00 2.48450E-13-2.31234E-13
 -1       933 2.00041E+01 2.13601E-02 3.49120E-06-5.91793E-03 3.28575E-13-2.33836E-13
 -1       934 1.80655E+01 5.69986E-02 3.67917E-03-2.72183E+00-7.61347E-14-1.79665E-13
 -1       935 1.30864E+01 9.34733E-01 3.00184E-02 5.90465E-01 9.12971E-14-2.46102E-13
 -1       936 1.91035E+01 9.26787E-01-2.61033E-05-1.48640E+00 5.45800E-14-1.45729E-13
 -1       937 1.98893E+01 1.86637E+00 5.55654E-04 4.12432E-02-3.71623E-14-3.40422E-13
 -1       938 1.97217E+01 2.07503E+00-1.82333E-04 6.12533E-02 3.64740E-14-3.33666E-13
 -1       939 2.00003E+01 3.04528E-02-1.87533E-06-3.83386E-03-3.91534E-14-2.84251E-13
 -1       940 1.99992E+01 3.26911E-02-3.22277E-06 1.65406E-03-8.91842E-14-2.65077E-13
 -1       941 1.83838E+01 5.68013E-01 6.71328E-04-2.18734E+00-7.83246E-14-1.85317E-13
 -1       942 1.28172E+01 7.77885E-01 3.70741E-02 1.49787E+00-1.04325E-13 8.11979E-13
 -1       943 1.28212E+01 6.37245E-01 3.79593E-02-1.90874E+00 5.26406E-14-2.00343E-14
 -1       944 1.94120E+01 9.71583E-01 2.16211E-05-1.21454E+00 3.04724E-14-1.51578E-13
 -1       945 1.96687E+01 1.98190E+00-1.40692E-04-1.39953E-02 1.53158E-13-2.91126E-13
 -1       946 1.98684E+01 1.10408E+00 4.15723E-05-6.73192E-01 1.25495E-13-1.34850E-13
 -1       947 2.00029E+01 2.59794E-02-9.12871E-06 5.71942E-03 1.46582E-14-1.81468E-13
 -1       948 1.86677E+01-1.86266E+00 2.01123E-02-3.91566E+00-2.75375E-13-1.62351E-13
 -1       949 1.41833E+01 5.92804E-01 3.45596E-02-2.14422E+00-5.70178E-14-3.87967E-13
 -1       950 1.60542E+01-8.81990E-01 2.54679E-02-3.71905E+00 2.71719E-13-2.45598E-13
 -1       951 1.96029E+01 2.06208E+00 2.20815E-04 4.43118E-02 1.10875E-13-3.26899E-13
 -1       952 2.00026E+01 2.50851E-02 1.22842E-05-5.29561E-03-3.70711E-14-1.41790E-13
 -1       953 1.95640E+01 7.66555E-01-5.54420E-05 9.69854E-01-2.36145E-14-1.71815E-13
 -1       954 1.98247E+01 1.78838E+00-4.83250E-04-7.43628E-02 1.74668E-13-2.37785E-13
 -1       955 1.94248E+01 5.28601E-01-1.07162E-04 1.24557E+00 1.35345E-15-1.69425E-13
 -1       956 1.93314E+01 2.18106E-01-1.47866E-04 1.56147E+00-6.22151E-15-2.07985E-13
 -1       957 1.93465E+01-2.28442E-01-1.49045E-04 1.93221E+00 8.37461E-14-2.58659E-13
 -1       958 1.95709E+01-8.82993E-01 6.68398E-04 2.35408E+00 1.78877E-13-2.43692E-13
 -1       959 2.16071E+01-2.72869E+00 7.51351E-03-2.43244E+00 3.21432E-13-1.61158E-13
 -1       960 1.99462E+01-1.61455E+00-4.68019E-04-2.62631E+00 5.83143E-14-6.22076E-14
 -1       961 1.93562E+01-7.25131E-01 4.78333E-06-2.19803E+00 1.71848E-13 4.13179E-15
 -1       962 1.91134E+01-1.23381E-01 1.35436E-04-1.78686E+00 1.23386E-13-1.00182E-13
 -1       963 1.90699E+01 2.56221E-01 1.27860E-04-1.42737E+00 8.90108E-14-1.93289E-13
 -1       964 1.91282E+01 4.73188E-01 2.66378E-05-1.13504E+00 3.22510E-13-1.55780E-13
 -1       965 1.92351E+01 5.75078E-01-1.27278E-05-8.99569E-01 1.17862E-13-1.70570E-13
 -1       966 1.93589E+01 5.99576E-01-2.07633E-05-7.10614E-01-1.42040E-13-1.22132E-13
 -1       967 1.94814E+01 5.75212E-01-1.93626E-05-5.58654E-01-1.69047E-13-8.31705E-14
 -1       968 1.95931E+01 5.22625E-01-1.59564E-05-4.36179E-01-4.19061E-14 4.61895E-14
 -1       969 1.96897E+01 4.56332E-01-1.27471E-05-3.37534E-01 2.66955E-13-3.47194E-14
 -1       970 1.97699E+01 3.86144E-01-1.01297E-05-2.58375E-01 2.42393E-13-7.74145E-14
 -1       971 1.98344E+01 3.18309E-01-8.02135E-06-1.95250E-01-1.48732E-13-1.38640E-13
 -1       972 1.98847E+01 2.56453E-01-6.27857E-06-1.45329E-01-1.82083E-13 2.55229E-14
 -1       973 1.99229E+01 2.02355E-01-4.78780E-06-1.06244E-01 1.30296E-13 4.09706E-14
 -1       974 1.99510E+01 1.56543E-01-3.54029E-06-7.59917E-02 2.18338E-13 1.44080E-13
 -1       975 1.99710E+01 1.18757E-01-2.80849E-06-5.28803E-02 8.18673E-14 1.80046E-13
 -1       976 1.99846E+01 8.82758E-02 2.89455E-07-3.54552E-02-1.93056E-13 3.55052E-13
 -1       977 1.99935E+01 6.40551E-02-9.48576E-07-2.25977E-02-2.06292E-14 2.21321E-13
 -1       978 1.99988E+01 4.51211E-02 3.50036E-06-1.31334E-02 1.16605E-13 1.23519E-13
 -1       979 1.64704E+01 7.54740E-01 4.91252E-03 2.01370E+00-3.49356E-14 5.37382E-13
 -1       980 1.87962E+01 1.00761E+00-1.10964E-04 8.31315E-01 6.46717E-14-5.16910E-14
 -1       981 1.83988E+01 1.09043E+00-1.85973E-04 1.00067E+00-1.39815E-13-4.39157E-15
 -1       982 1.93440E+01 7.69688E-01-6.50967E-05 5.68327E-01 7.75285E-14-1.01385E-13
 -1       983 1.95256E+01 6.46950E-01-5.17984E-05 4.62028E-01 2.10064E-14-2.29000E-13
 -1       984 1.96625E+01 5.33021E-01-4.04163E-05 3.69875E-01 1.85677E-14-1.59264E-13
 -1       985 1.97644E+01 4.31532E-01-3.10363E-05 2.91142E-01-1.97463E-13-2.79376E-13
 -1       986 1.98393E+01 3.43826E-01-2.34925E-05 2.25072E-01-3.49398E-13-2.37109E-13
 -1       987 1.98937E+01 2.69829E-01-1.75001E-05 1.70668E-01-2.24833E-13 1.17090E-13
 -1       988 1.99324E+01 2.08643E-01-1.27771E-05 1.26706E-01-2.77237E-13 3.15108E-13
 -1       989 1.99594E+01 1.58929E-01-9.10017E-06 9.18284E-02-9.24138E-14 2.71238E-13
 -1       990 1.99778E+01 1.19164E-01-6.37803E-06 6.46638E-02-1.79578E-13-2.21780E-13
 -1       991 1.99898E+01 8.78148E-02-5.58938E-06 4.39047E-02-8.52296E-15-3.86592E-13
 -1       992 1.99972E+01 6.34283E-02-4.60791E-07 2.83987E-02 7.77454E-14-3.22214E-13
 -1       993 2.00014E+01 4.45742E-02 1.84090E-05 1.69773E-02 2.07793E-13-2.95534E-13
 -1       994 1.50862E+01 4.52027E-01 2.18021E-02 2.45630E+00-1.00088E-13 6.61297E-13
 -1       995 1.95082E+01 1.26353E+00-7.49455E-05-6.10647E-01 1.31398E-13-1.74657E-13
 -1       996 2.03111E+01-1.81408E+00 4.96542E-03 2.70318E+00 2.49689E-13-1.84295E-13
 -1       997 1.72549E+01 1.02482E+00-2.43986E-04 1.53153E+00-5.51978E-14 3.42005E-13
 -1       998 2.00007E+01 3.02762E-02 1.87646E-06 4.24382E-03 1.33615E-13-5.20306E-13
 -1       999 1.97080E+01 9.87386E-01 6.20676E-05 7.16528E-01-1.56400E-14-1.77585E-13
 -1      1000 1.96303E+01 2.10741E+00 1.17324E-04 7.53397E-02 8.47308E-14-3.68090E-13
 -1      1001 1.91947E+01 1.19142E+00-4.92717E-05-8.13460E-01 9.80541E-14-1.37043E-13
 -1      1002 1.98242E+01 1.23961E+00-7.30964E-04 4.68427E-01-3.18960E-14-2.33838E-13
 -1      1003 1.78926E+01 1.11282E+00-2.29388E-04 1.21969E+00-1.28680E-13 1.14499E-13
 -1      1004 1.57254E+01-2.26793E-01 1.28851E-02 3.02434E+00 1.26177E-13-2.70314E-13
 -1      1005 2.00331E+01 1.16267E+00-4.46607E-05-4.64111E-01 1.55754E-13-1.32816E-13
 -1      1006 1.91056E+01 8.94068E-01-8.14320E-05 6.90189E-01 2.09601E-13-1.93867E-13
 -1      1007 1.97854E+01 1.62804E+00-2.44118E-04 2.32967E-01 6.26438E-16-3.14237E-13
 -1      1008 1.63082E+01 2.65489E-01 1.32795E-02-2.66890E+00-1.51718E-13-2.91888E-13
 -1      1009 1.96418E+01 1.62517E+00 3.40174E-04-2.06737E-01 1.41536E-13-2.29006E-13
 -1      1010 1.97306E+01 1.41549E+00 7.76508E-05-3.84441E-01 1.62940E-13-1.76338E-13
 -1      1011 1.99962E+01 5.24339E-02-1.09077E-05 1.26559E-02 2.79214E-14-3.53341E-13
 -1      1012 1.49165E+01 6.21659E-01 3.20232E-03 1.82523E+00 8.29446E-14-1.63132E-13
 -1      1013 1.82631E+01 1.12652E+00-1.51649E-04-1.22355E+00 6.39376E-14-1.75873E-13
 -1      1014 1.99953E+01 4.71994E-02-4.12755E-06 3.21749E-04-2.33052E-13-1.65162E-13
 -1      1015 1.95286E+01 1.74360E+00 2.67368E-04-4.31607E-02 1.15543E-13-2.92465E-13
 -1      1016 1.99962E+01 4.56186E-02-1.45709E-05-5.09752E-03-1.01912E-13-4.20157E-13
 -1      1017 1.82351E+01-8.86383E-01 5.18538E-03-2.93276E+00 2.09836E-14-2.00824E-13
 -1      1018 1.76105E+01 1.03325E+00-5.01989E-04-1.49485E+00-1.44238E-14-2.07672E-13
 -1      1019 1.32317E+01 1.08120E+00 2.35494E-02-2.85135E-01 4.19633E-14 3.57350E-13
 -1      1020 1.50392E+01 8.79545E-02 2.71659E-02-2.77577E+00 7.74844E-14-2.84535E-13
 -1      1021 1.87841E+01 1.16020E+00-6.72222E-05-1.00999E+00 6.57740E-14-1.95215E-13
 -1      1022 1.90956E+01 8.93340E-01-2.57389E-04 9.25051E-01-1.08202E-14-2.05913E-13
 -1      1023 1.88113E+01 6.77377E-01-4.69062E-04 1.23232E+00-1.16799E-14-2.03704E-13
 -1      1024 1.85280E+01 3.81165E-01-4.94457E-04 1.63289E+00 2.03910E-14-2.03830E-13
 -1      1025 1.82916E+01-6.46924E-02-9.48857E-05 2.16632E+00 1.50258E-13-1.27108E-13
 -1      1026 1.82346E+01 1.16011E+00-4.69932E-04 5.21878E-01-2.84756E-14 5.91877E-14
 -1      1027 1.59042E+01 1.23951E+00 2.88251E-03 8.65621E-01 1.68933E-13 5.53280E-13
 -1      1028 1.67890E+01 8.17937E-01 1.01868E-03-1.89545E+00-4.44150E-14-2.03337E-13
 -1      1029 1.94262E+01 1.42370E+00-1.67582E-04-3.66151E-01 1.46930E-13-1.76175E-13
 -1      1030 1.80700E+01 6.29095E-02 6.19250E-04-2.03966E+00 1.19464E-13-3.63834E-13
 -1      1031 1.82656E+01 4.44277E-01 2.55503E-04-1.52235E+00 9.41366E-14-3.82402E-13
 -1      1032 1.85056E+01 6.54411E-01-1.34917E-04-1.14284E+00 1.89218E-13-2.62904E-13
 -1      1033 1.87512E+01 7.46100E-01-1.92155E-04-8.60354E-01 3.40640E-13-3.03461E-13
 -1      1034 1.89825E+01 7.57231E-01-1.31290E-04-6.51004E-01 6.78466E-14-1.46350E-13
 -1      1035 1.91885E+01 7.18429E-01-1.07292E-04-4.93892E-01-5.08030E-15 1.27090E-13
 -1      1036 1.93660E+01 6.50537E-01-8.91610E-05-3.74611E-01-1.81342E-13 1.25816E-14
 -1      1037 1.95149E+01 5.68485E-01-7.49483E-05-2.83368E-01 1.20523E-13 5.43504E-14
 -1      1038 1.96369E+01 4.82649E-01-6.30571E-05-2.13254E-01-4.89389E-14-1.47114E-13
 -1      1039 1.97344E+01 3.99828E-01-5.26500E-05-1.59277E-01 3.34407E-14-4.55621E-13
 -1      1040 1.98108E+01 3.24090E-01-4.33940E-05-1.17757E-01 4.11261E-15-2.89177E-13
 -1      1041 1.98691E+01 2.57515E-01-3.51437E-05-8.59241E-02-4.62352E-14 7.79069E-14
 -1      1042 1.99128E+01 2.00786E-01-2.78607E-05-6.16489E-02 2.86519E-13 1.00011E-13
 -1      1043 1.99445E+01 1.53666E-01-2.22298E-05-4.32715E-02 2.49633E-13-3.87803E-14
 -1      1044 1.99670E+01 1.15361E-01-1.04185E-05-2.95465E-02 6.79815E-14 1.24038E-13
 -1      1045 1.99822E+01 8.47022E-02-1.57916E-05-1.91721E-02-1.86996E-13 2.04392E-13
 -1      1046 1.99919E+01 6.09237E-02 1.84141E-05-1.18609E-02-1.36962E-13-2.08686E-13
 -1      1047 1.44621E+01 1.08235E+00 1.11412E-02 1.06922E+00-1.37246E-13 5.83036E-13
 -1      1048 1.83726E+01-8.28594E-01 1.63587E-03 2.87092E+00 2.14872E-13-1.68512E-13
 -1      1049 1.94576E+01 6.52711E-01-1.49557E-04 2.79282E-01-1.69029E-13-3.62156E-14
 -1      1050 1.92600E+01 7.79653E-01-1.90406E-04 3.35741E-01 1.16466E-13-2.37317E-13
 -1      1051 1.97221E+01 4.33629E-01-9.25358E-05 1.80998E-01-1.26587E-13 2.22746E-14
 -1      1052 1.98071E+01 3.44931E-01-7.22750E-05 1.40982E-01-3.49531E-13-2.79091E-13
 -1      1053 1.98697E+01 2.70176E-01-5.59212E-05 1.07352E-01-2.38764E-13-4.64510E-13
 -1      1054 1.99150E+01 2.08406E-01-4.27795E-05 7.97912E-02-2.21577E-13-2.62441E-13
 -1      1055 1.99471E+01 1.58258E-01-3.36478E-05 5.77099E-02 3.31669E-15 5.31050E-14
 -1      1056 1.99694E+01 1.18138E-01-2.23701E-05 4.03993E-02 1.43103E-13-7.04012E-14
 -1      1057 1.99841E+01 8.67167E-02-1.14420E-05 2.72752E-02 4.79105E-14-2.80188E-13
 -1      1058 1.99912E+01 6.81348E-02-9.51382E-06 1.91814E-02 7.48517E-14-4.06565E-13
 -1      1059 1.90998E+01 1.31998E+00-1.58536E-04-5.04269E-01 1.07967E-13-1.75490E-13
 -1      1060 1.93514E+01 1.08504E+00 2.99674E-06 6.78289E-01-3.46867E-14-2.57071E-13
 -1      1061 1.95564E+01 1.29980E+00 4.21889E-05 4.63172E-01 7.18809E-15-2.89513E-13
 -1      1062 1.99947E+01 5.13072E-02 5.78257E-06 6.00819E-03 6.23345E-14-7.55830E-13
 -1      1063 1.47064E+01 1.09793E+00 2.45882E-03-6.79637E-01 2.43471E-14-2.39571E-13
 -1      1064 1.76705E+01 1.24570E+00-4.25486E-04 5.95413E-01 6.21309E-14 1.77842E-13
 -1      1065 1.69212E+01 1.28073E+00-2.14236E-04 6.97836E-01 3.31539E-14 2.87081E-13
 -1      1066 1.96083E+01 5.36517E-01-1.17751E-04 2.27307E-01-6.35566E-14 1.95758E-13
 -1      1067 1.68496E+01 2.14674E-01 8.11858E-03 2.26032E+00 1.33169E-13-1.79746E-13
 -1      1068 1.55018E+01 1.11655E+00 1.69181E-03 5.50273E-01 2.93837E-14-1.92885E-13
 -1      1069 1.86685E+01 1.04330E+00-3.19797E-04 4.56728E-01 1.09827E-13-1.38197E-14
 -1      1070 1.96308E+01 1.72635E+00 6.66932E-05 1.94191E-01 3.95356E-14-3.00796E-13
 -1      1071 1.90027E+01 9.12481E-01-2.43771E-04 3.95200E-01 2.33374E-13 7.55954E-14
 -1      1072 1.86569E+01 1.27594E+00-4.05239E-04-6.21822E-01 1.03872E-13-1.79636E-13
 -1      1073 1.95241E+01 1.75278E+00 5.25528E-04 1.01870E-01 5.69148E-14-3.25168E-13
 -1      1074 1.99882E+01 6.71234E-02 7.51760E-06 1.98574E-03-9.20882E-15-4.76739E-13
 -1      1075 1.44775E+01 8.31549E-01 1.18296E-02-1.57293E+00 2.36107E-14-8.92485E-14
 -1      1076 1.80762E+01 1.25897E+00-3.76714E-04-7.32935E-01 6.25811E-14-1.84624E-13
 -1      1077 1.57341E+01 9.84025E-01 4.18649E-03-1.42190E+00-1.36591E-14-1.83537E-13
 -1      1078 1.73137E+01 1.23363E+00 1.14721E-03-8.60759E-01 4.98235E-14-1.75523E-13
 -1      1079 1.99893E+01 6.51738E-02 2.00766E-05-5.34257E-03-3.22853E-13-2.05996E-13
 -1      1080 1.80477E+01 8.89875E-01 1.20882E-03 1.07945E+00 1.02996E-14-1.28803E-13
 -1      1081 1.74662E+01 6.56756E-01 4.01788E-04 1.52943E+00 8.14514E-14-1.07857E-13
 -1      1082 1.66032E+01 1.15142E+00 3.47456E-03-1.07996E+00-7.23831E-14-2.04210E-13
 -1      1083 1.89442E+01 1.18644E+00 5.74355E-04 5.36875E-01 1.95724E-14-1.85580E-13
 -1      1084 1.72583E+01 7.30297E-01-3.55869E-04-1.43094E+00 3.23303E-14-5.15753E-13
 -1      1085 1.47195E+01 1.21717E+00 9.24915E-03-2.32592E-01 2.49401E-14 2.94417E-13
 -1      1086 1.77473E+01 9.10610E-01 2.00104E-03-1.01133E+00 2.93395E-13-2.68932E-13
 -1      1087 1.81977E+01 9.52125E-01 6.15153E-05-7.09445E-01 2.50172E-13-6.47608E-14
 -1      1088 1.85701E+01 9.31525E-01-1.56445E-04-5.04289E-01 2.94280E-13-8.97603E-14
 -1      1089 1.88778E+01 8.68763E-01-1.26203E-04-3.58445E-01 1.71423E-13-7.58806E-14
 -1      1090 1.91308E+01 7.80417E-01-1.00748E-04-2.54920E-01-1.54168E-13-7.88437E-14
 -1      1091 1.93368E+01 6.80098E-01-8.01456E-05-1.81340E-01 1.81086E-14 4.57224E-14
 -1      1092 1.95025E+01 5.77658E-01-6.13667E-05-1.28934E-01-1.19544E-13-1.42601E-13
 -1      1093 1.96337E+01 4.79741E-01-4.45628E-05-9.15188E-02-2.19325E-13-2.16423E-13
 -1      1094 1.97361E+01 3.90419E-01-3.03740E-05-6.47408E-02 2.72858E-14-1.91541E-13
 -1      1095 1.98145E+01 3.11805E-01-1.91007E-05-4.55340E-02 1.32515E-13-3.50109E-13
 -1      1096 1.98735E+01 2.44596E-01-1.07855E-05-3.17393E-02 1.41903E-13-4.76297E-13
 -1      1097 1.99169E+01 1.88526E-01-5.70837E-06-2.18387E-02 2.08528E-13-5.55269E-13
 -1      1098 1.99479E+01 1.42689E-01-1.20635E-05-1.47575E-02 3.01876E-13-6.96771E-13
 -1      1099 1.99702E+01 1.05396E-01 3.79694E-05-9.65150E-03-7.43695E-14-5.39767E-13
 -1      1100 1.98677E+01 2.56947E-01 3.19575E-05 5.09430E-02-1.53628E-13-2.06096E-13
 -1      1101 1.85398E+01 1.04801E+00 9.44459E-04 7.63458E-01 5.71231E-15-1.73574E-13
 -1      1102 1.65587E+01 3.12912E-01 2.15311E-03-2.21889E+00 4.17062E-14-3.96126E-13
 -1      1103 1.99884E+01 6.93064E-02-1.36008E-05 1.04174E-02-5.63115E-14-4.41001E-13
 -1      1104 1.98050E+01 3.28935E-01 3.99487E-05 6.58107E-02-2.39619E-14-2.83750E-13
 -1      1105 1.97203E+01 4.14386E-01 4.79518E-05 8.24319E-02-1.37277E-13-1.12154E-13
 -1      1106 1.99134E+01 1.97520E-01 2.47926E-05 3.82603E-02-1.44911E-13-4.87597E-13
 -1      1107 1.99459E+01 1.49396E-01 2.65643E-05 2.78687E-02 6.22030E-14-7.11801E-13
 -1      1108 1.99685E+01 1.11045E-01 6.24523E-05 1.93448E-02 2.55550E-13-5.13168E-13
 -1      1109 1.92704E+01 1.50443E+00 1.58295E-04-5.93015E-02 9.89107E-14-2.20097E-13
 -1      1110 1.77760E+01 1.22147E+00-9.92800E-04 4.43979E-02 1.18006E-13-9.21946E-14
 -1      1111 1.92698E+01 7.47939E-01 5.86609E-05 1.29301E-01 1.40552E-14-1.60470E-13
 -1      1112 1.92599E+01 1.34798E+00-1.05349E-04 3.65182E-01 3.93845E-14-2.47065E-13
 -1      1113 1.88652E+01 1.36832E+00-1.86510E-04-6.27584E-02 7.84632E-14-1.86269E-13
 -1      1114 1.90239E+01 8.76655E-01 4.61943E-05 1.34755E-01 2.20491E-13-2.53369E-13
 -1      1115 1.62074E+01 1.27755E+00-3.71515E-04-1.48818E-01 3.27373E-13 2.38690E-13
 -1      1116 1.71223E+01 1.26634E+00 4.21678E-04-4.54762E-02 1.32392E-13 1.38183E-13
 -1      1117 1.99803E+01 8.82060E-02 8.48330E-05 1.41233E-02 1.89088E-13-5.93758E-13
 -1      1118 1.94607E+01 6.25472E-01 5.95930E-05 1.16368E-01-1.97440E-13-2.26879E-13
 -1      1119 1.83031E+01 1.12415E+00-1.27221E-04 1.00194E-01 1.67577E-13-2.94117E-13
 -1      1120 1.60086E+01 1.01959E+00 1.70432E-03-1.10830E+00 8.88834E-14-4.29666E-14
 -1      1121 1.96080E+01 5.13512E-01 5.50469E-05 9.98512E-02-7.67843E-14-1.87275E-13
 -1      1122 1.83684E+01 1.30512E+00-7.17674E-04-2.09009E-02 5.66325E-14-1.48021E-13
 -1      1123 1.58978E+01 1.20280E+00-6.54456E-04-4.81866E-01-3.24531E-14-2.16115E-13
 -1      1124 1.76385E+01 1.27058E+00-1.63669E-03 4.09329E-02 8.18623E-14-1.19879E-13
 -1      1125 1.87086E+01 1.00506E+00 5.61765E-06 1.27405E-01 1.85555E-13-3.40729E-13
 -1      1126 1.69901E+01 1.13872E+00-9.27320E-03-6.24041E-01 3.12753E-13 1.14660E-13
 -1      1127 1.99769E+01 9.14854E-02-7.79596E-05 5.82252E-03 6.08942E-14-7.53764E-13
 -1      1128 1.67151E+01 1.23023E+00-6.78523E-04 2.39377E-01 2.66407E-14-1.28685E-13
 -1      1129 2.78208E+01 9.03341E+00 2.29036E+00-6.58202E+00-5.50671E-14 1.39311E-12
 -1      1130 2.06293E+01 6.25540E+00 2.22013E-01-3.75549E+00-2.70894E-14 4.04468E-14
 -1      1131 1.95508E+01 5.89079E+00 8.51427E-02-2.70276E+00-1.68615E-14-5.07518E-13
 -1      1132 1.91213E+01 5.75577E+00 6.46253E-02-2.03100E+00-1.06998E-14-7.48194E-13
 -1      1133 1.88877E+01 5.68337E+00 5.68371E-02-1.50090E+00-5.94663E-15-8.55414E-13
 -1      1134 1.87392E+01 5.63695E+00 5.06328E-02-1.05837E+00-3.41567E-15-8.85858E-13
 -1      1135 1.86405E+01 5.60580E+00 4.55462E-02-6.72338E-01-2.32453E-16-8.81752E-13
 -1      1136 1.85814E+01 5.58702E+00 4.20107E-02-3.19720E-01 1.25421E-15-8.55635E-13
 -1      1137 1.85615E+01 5.58066E+00 4.06667E-02 1.40227E-02 3.52713E-15-8.21734E-13
 -1      1138 1.85812E+01 5.58688E+00 4.17023E-02 3.46758E-01 7.50094E-15-7.81488E-13
 -1      1139 1.86414E+01 5.60595E+00 4.50982E-02 6.96920E-01 8.40127E-15-7.20898E-13
 -1      1140 1.87437E+01 5.63834E+00 5.06963E-02 1.08061E+00 1.16678E-14-6.28085E-13
 -1      1141 1.88969E+01 5.68629E+00 5.73963E-02 1.52307E+00 1.37078E-14-4.74003E-13
 -1      1142 1.91334E+01 5.75948E+00 6.48569E-02 2.05796E+00 1.78954E-14-2.39791E-13
 -1      1143 1.95545E+01 5.89030E+00 7.98009E-02 2.73653E+00 2.17881E-14 1.61345E-13
 -1      1144 2.05385E+01 6.21178E+00 1.67423E-01 3.72669E+00 2.07334E-14 8.82568E-13
 -1      1145 2.51106E+01 7.95599E+00 1.40926E+00 5.73211E+00 3.35287E-14 2.24490E-12
 -1      1146 2.85877E+01 3.54833E+00 1.21561E+00-4.13979E+00-2.13968E-13 2.23283E-12
 -1      1147 2.02796E+01-1.79842E-01-6.17119E-01-9.64555E-02-7.17135E-14 1.72949E-12
 -1      1148 1.90662E+01-9.77925E-02-2.34855E-01 6.50711E-02-2.61648E-14 1.06824E-12
 -1      1149 1.88950E+01-5.11255E-02-6.22703E-02 4.22929E-02-1.62578E-14 6.10421E-13
 -1      1150 1.90253E+01-2.90947E-02-2.07276E-02 2.93304E-02-1.44216E-14 3.17822E-13
 -1      1151 1.93325E+01-1.84879E-02-1.22024E-02 2.29703E-02-1.96648E-14 1.56694E-13
 -1      1152 1.97553E+01-1.23107E-02-9.37540E-03 1.98675E-02-1.27936E-15 3.82333E-15
 -1      1153 2.02584E+01-7.80205E-03-6.64697E-03 1.85935E-02-2.49226E-15-1.26985E-13
 -1      1154 2.08139E+01-3.36291E-03-2.59256E-03 1.82261E-02-8.34844E-15-3.53235E-13
 -1      1155 2.13897E+01 2.14606E-03 3.84858E-03 1.78869E-02-1.20733E-14-4.89650E-13
 -1      1156 2.19390E+01 9.52072E-03 1.36961E-02 1.64294E-02 1.06605E-14-5.78792E-13
 -1      1157 2.23928E+01 1.89704E-02 2.73361E-02 1.22942E-02 1.51719E-14-5.02459E-13
 -1      1158 2.26570E+01 2.95718E-02 4.34424E-02 3.66722E-03-1.48575E-14-5.96366E-13
 -1      1159 2.26209E+01 3.85816E-02 5.76987E-02-1.08085E-02 3.87320E-15-6.58843E-13
 -1      1160 2.21867E+01 4.11981E-02 6.22740E-02-3.05811E-02 2.32106E-15-6.33753E-13
 -1      1161 2.13225E+01 3.16896E-02 4.79869E-02-5.14520E-02-1.18278E-14-7.82242E-13
 -1      1162 2.01264E+01 7.17267E-03 1.02881E-02-6.50081E-02 1.38143E-14-6.81059E-13
 -1      1163 1.88592E+01-2.76909E-02-4.33079E-02-6.16655E-02-3.34108E-15-6.18776E-13
 -1      1164 1.78926E+01-5.92863E-02-9.15488E-02-3.71507E-02 7.03257E-15-7.91100E-13
 -1      1165 1.75619E+01-7.13973E-02-1.09997E-01 2.09368E-03-3.28574E-14-9.00572E-13
 -1      1166 1.79955E+01-5.72162E-02-8.84064E-02 4.05559E-02 9.41434E-15-1.10006E-12
 -1      1167 1.90428E+01-2.48810E-02-3.89160E-02 6.33110E-02 1.23655E-14-9.69079E-13
 -1      1168 2.03597E+01 9.25648E-03 1.35780E-02 6.48645E-02 8.74377E-15-7.27612E-13
 -1      1169 2.15820E+01 3.20357E-02 4.87048E-02 5.04267E-02-3.67731E-14-6.95936E-13
 -1      1170 2.24677E+01 3.98671E-02 6.03967E-02 2.98088E-02-6.80445E-16-7.05883E-13
 -1      1171 2.29366E+01 3.62130E-02 5.41086E-02 1.10361E-02-5.46503E-14-4.83081E-13
 -1      1172 2.30323E+01 2.68185E-02 3.91385E-02-2.09490E-03-1.05332E-14-5.68810E-13
 -1      1173 2.28572E+01 1.63557E-02 2.30198E-02-9.26856E-03-8.89263E-15-7.65573E-13
 -1      1174 2.25219E+01 7.44438E-03 9.78788E-03-1.18835E-02 3.73413E-14-8.34218E-13
 -1      1175 2.21173E+01 9.99888E-04 6.43237E-04-1.16738E-02 3.39969E-15-7.38434E-13
 -1      1176 2.17069E+01-3.05262E-03-4.77657E-03-1.00504E-02-3.06784E-14-7.26235E-13
 -1      1177 2.13286E+01-5.20301E-03-7.39963E-03-7.94384E-03 4.60722E-14-7.69040E-13
 -1      1178 2.10012E+01-6.01717E-03-8.17473E-03-5.87658E-03 2.12583E-14-1.07216E-12
 -1      1179 2.07307E+01-5.98479E-03-7.85930E-03-4.09186E-03 2.61662E-14-1.35046E-12
 -1      1180 2.05153E+01-5.47454E-03-6.98466E-03-2.66711E-03-1.63136E-14-1.32031E-12
 -1      1181 2.03491E+01-4.73977E-03-5.89133E-03-1.59287E-03 1.99844E-14-1.28614E-12
 -1      1182 2.02248E+01-3.94179E-03-4.78052E-03-8.21271E-04-1.36299E-14-1.18604E-12
 -1      1183 2.01346E+01-3.17523E-03-3.75994E-03-2.92811E-04-1.00947E-14-1.18376E-12
 -1      1184 2.00713E+01-2.48945E-03-2.87820E-03 5.01412E-05-1.85808E-14-6.92625E-13
 -1      1185 2.00287E+01-1.90474E-03-2.14862E-03 2.57592E-04 2.02743E-14-4.21909E-13
 -1      1186 2.00017E+01-1.42367E-03-1.56478E-03 3.70233E-04-9.36637E-14-3.71126E-13
 -1      1187 1.99860E+01-1.03875E-03-1.11023E-03 4.19737E-04-4.57825E-14-7.23662E-13
 -1      1188 1.99785E+01-7.37319E-04-7.64225E-04 4.29889E-04 1.25030E-14-7.60052E-13
 -1      1189 1.99766E+01-5.04432E-04-5.04736E-04 4.17906E-04-7.19849E-14-4.99222E-13
 -1      1190 1.99785E+01-3.24367E-04-3.09314E-04 3.95530E-04 3.35067E-15-5.85375E-13
 -1      1191 1.99826E+01-1.81165E-04-1.53828E-04 3.69460E-04 4.60223E-14-3.02355E-14
 -1      1192 1.99880E+01-5.88237E-05-9.33178E-06 3.39834E-04 3.29423E-14 1.85933E-13
 -1      1193 1.99935E+01 5.79434E-05 1.50866E-04 2.89409E-04 4.19981E-14 3.82022E-13
 -1      1194 1.99980E+01 1.74461E-04 3.10667E-04 1.78818E-04-5.47159E-14-8.40964E-14
 -1      1195 1.99998E+01 3.62365E-06 7.15665E-05-2.29366E-05 1.03910E-13 1.17898E-13
 -1      1196 2.75636E+01 5.17972E-01 3.35522E-01 1.93984E+00-3.68663E-14 3.32773E-12
 -1      1197 2.01405E+01-6.85570E-02-5.73141E-01 1.24721E-01 1.20147E-14 2.85175E-12
 -1      1198 1.91405E+01-4.40180E-02-1.93482E-01 1.92799E-02 1.54980E-14 2.33930E-12
 -1      1199 1.89370E+01-2.66228E-02-5.52288E-02 3.38014E-03 9.44297E-15 1.99277E-12
 -1      1200 1.90760E+01-1.96517E-02-2.21048E-02-1.01960E-03-1.28456E-15 1.78711E-12
 -1      1201 1.94224E+01-1.68921E-02-1.71923E-02-1.93208E-03 1.73002E-14 1.58608E-12
 -1      1202 1.99231E+01-1.61630E-02-1.84369E-02-2.18572E-03-2.75973E-15 1.46632E-12
 -1      1203 2.05619E+01-1.63137E-02-2.08786E-02-2.86333E-03 4.44154E-15 1.42316E-12
 -1      1204 2.13396E+01-1.62016E-02-2.31065E-02-4.78586E-03 8.56216E-15 1.26964E-12
 -1      1205 2.22609E+01-1.41973E-02-2.32617E-02-8.93547E-03 7.33680E-15 1.14941E-12
 -1      1206 2.33192E+01-7.86081E-03-1.77992E-02-1.64269E-02 1.49825E-14 1.09673E-12
 -1      1207 2.44729E+01 5.97592E-03-1.02809E-03-2.79695E-02 1.34872E-14 9.23983E-13
 -1      1208 2.56109E+01 2.99313E-02 3.38077E-02-4.23550E-02 5.03287E-15 9.34482E-13
 -1      1209 2.65099E+01 6.22178E-02 8.92283E-02-5.36826E-02-8.21912E-15 1.07137E-12
 -1      1210 2.68143E+01 9.07931E-02 1.52392E-01-4.89551E-02 3.28505E-14 8.25874E-13
 -1      1211 2.61072E+01 9.05307E-02 1.83736E-01-1.11473E-02-2.74416E-14 8.18762E-13
 -1      1212 2.41592E+01 3.72430E-02 1.26826E-01 6.38587E-02-4.35155E-14 1.02005E-12
 -1      1213 2.13265E+01-5.51748E-02-3.60403E-02 1.44426E-01 3.43447E-14 8.63754E-13
 -1      1214 1.87299E+01-1.27382E-01-2.25104E-01 1.68966E-01 7.89299E-15 4.11352E-13
 -1      1215 1.77517E+01-1.18243E-01-2.99341E-01 9.92233E-02-6.19470E-15 3.66453E-13
 -1      1216 1.89951E+01-4.86555E-02-2.05434E-01-2.62881E-02-1.10571E-14 6.55365E-13
 -1      1217 2.17266E+01 2.07439E-02-2.98856E-02-1.21033E-01 1.18716E-14 3.94407E-13
 -1      1218 2.45438E+01 5.24971E-02 1.04562E-01-1.41807E-01 2.64363E-14-7.24976E-14
 -1      1219 2.64086E+01 5.13589E-02 1.44669E-01-1.06001E-01-8.27723E-15-3.39548E-13
 -1      1220 2.70541E+01 3.59743E-02 1.16898E-01-5.38186E-02-1.11551E-14-1.84498E-13
 -1      1221 2.67474E+01 1.94160E-02 6.79581E-02-1.21864E-02 1.76985E-15 2.18194E-14
 -1      1222 2.59056E+01 6.98436E-03 2.65112E-02 1.19038E-02 2.55612E-15-4.51375E-15
 -1      1223 2.48708E+01-6.98328E-04 7.49112E-04 2.19053E-02-3.32324E-15-2.15702E-13
 -1      1224 2.38535E+01-4.69140E-03-1.17849E-02 2.35071E-02 1.30586E-14-1.21576E-13
 -1      1225 2.29557E+01-6.29150E-03-1.60276E-02 2.11301E-02 9.54640E-16 1.05169E-13
 -1      1226 2.22113E+01-6.51952E-03-1.59857E-02 1.74001E-02-1.55574E-14 2.74737E-13
 -1      1227 2.16183E+01-6.04933E-03-1.41268E-02 1.36185E-02 2.67629E-14 3.86184E-13
 -1      1228 2.11589E+01-5.28268E-03-1.17414E-02 1.03143E-02-2.22640E-14 3.00423E-13
 -1      1229 2.08106E+01-4.44084E-03-9.41879E-03 7.62801E-03-5.80201E-14 4.39269E-13
 -1      1230 2.05515E+01-3.63603E-03-7.38493E-03 5.53128E-03 4.41818E-15 2.11915E-13
 -1      1231 2.03622E+01-2.91844E-03-5.69500E-03 3.93601E-03-2.45314E-14-1.21874E-13
 -1      1232 2.02265E+01-2.30473E-03-4.33223E-03 2.74397E-03 4.57554E-14-3.77742E-13
 -1      1233 2.01314E+01-1.79444E-03-3.25439E-03 1.86624E-03 4.80008E-14-5.93059E-13
 -1      1234 2.00666E+01-1.37901E-03-2.41425E-03 1.22880E-03 4.52454E-14-5.20213E-13
 -1      1235 2.00241E+01-1.04660E-03-1.76768E-03 7.72468E-04-6.02361E-14 2.73257E-14
 -1      1236 1.99978E+01-7.84546E-04-1.27622E-03 4.50836E-04 6.08775E-14-3.23088E-13
 -1      1237 1.99831E+01-5.80432E-04-9.07253E-04 2.27819E-04-7.73714E-14 2.02827E-13
 -1      1238 1.99764E+01-4.22603E-04-6.33330E-04 7.54292E-05 2.89596E-14 3.56599E-14
 -1      1239 1.99751E+01-3.00088E-04-4.31024E-04-2.81563E-05 5.19112E-14-7.52975E-13
 -1      1240 1.99775E+01-2.01859E-04-2.78744E-04-1.00318E-04 5.62353E-14-5.83161E-13
 -1      1241 1.99820E+01-1.15738E-04-1.53049E-04-1.55107E-04 7.90601E-14-1.01799E-12
 -1      1242 1.99876E+01-2.75762E-05-2.48938E-05-2.03144E-04-2.91071E-14-7.76939E-13
 -1      1243 1.99933E+01 7.71256E-05 1.35822E-04-2.46315E-04-3.48561E-14-6.28396E-13
 -1      1244 1.99980E+01 1.85868E-04 3.00480E-04-2.44010E-04 1.00606E-13-7.43079E-13
 -1      1245 1.99998E+01-8.86611E-06 6.43701E-05 1.42360E-05-6.85637E-14-6.41944E-13
 -1      1246 1.99998E+01 1.75045E-05 4.93851E-05-7.09292E-06-4.31092E-13-7.56756E-14
 -1      1247 1.99999E+01-1.88936E-03 2.47680E-04-1.52456E-04 4.17956E-13-4.70411E-14
 -1      1248 1.99998E+01-6.11431E-03 7.06781E-05-2.43732E-04 4.01405E-13-5.25882E-15
 -1      1249 1.99997E+01-1.08056E-02-8.11956E-05-2.18894E-04 2.65914E-13 1.85097E-14
 -1      1250 1.99997E+01-1.49108E-02-1.48824E-04-1.63073E-04-5.68584E-14-4.28666E-14
 -1      1251 1.99997E+01-1.79971E-02-1.60165E-04-1.05585E-04-5.58028E-13 1.31936E-14
 -1      1252 1.99997E+01-2.00389E-02-1.43286E-04-6.12930E-05-1.45304E-13-2.38688E-14
 -1      1253 1.99997E+01-2.11530E-02-1.23513E-04-2.52815E-05-2.61508E-13-1.74621E-13
 -1      1254 1.99997E+01-2.14434E-02-1.13541E-04 3.65732E-06-3.85314E-13 9.12908E-14
 -1      1255 1.99997E+01-2.09755E-02-1.18362E-04 3.18302E-05-3.63844E-13 5.56326E-14
 -1      1256 1.99997E+01-1.97187E-02-1.33826E-04 6.57175E-05-7.53518E-13-1.57449E-13
 -1      1257 1.99997E+01-1.75947E-02-1.47751E-04 1.09191E-04-1.24798E-12 1.50270E-13
 -1      1258 1.99997E+01-1.45046E-02-1.38530E-04 1.61046E-04-8.10114E-13 1.65528E-13
 -1      1259 1.99998E+01-1.04584E-02-7.16238E-05 2.16673E-04-1.90433E-13-4.03149E-14
 -1      1260 1.99999E+01-5.82220E-03 1.01857E-04 2.80741E-04-1.30600E-14-2.01962E-14
 -1      1261 2.00000E+01-1.83840E-03 2.63133E-04 1.81320E-04-2.16687E-13-1.80594E-13
 -1      1262 1.99998E+01-7.03262E-06 3.08532E-05 2.67270E-05-1.11781E-13 1.00454E-13
 -1      1263-1.13705E+00-2.43549E+01-3.75563E+00-2.29139E+00 1.12277E-12 2.18773E-13
 -1      1264-1.94989E+00-1.61065E+01-3.19200E+00-4.36632E+00 2.58793E-12 1.12998E-12
 -1      1265-2.33507E-01-3.64650E+00-2.08042E+00-8.75608E-01 3.83293E-12 2.27729E-12
 -1      1266 8.54177E+00 6.99800E+00-4.47767E-01 7.62014E+00 3.13904E-12 2.87459E-12
 -1      1267 2.60395E+01 1.07942E+01 1.34931E+00 1.59385E+01 2.17004E-12 3.04978E-12
 -1      1268 4.75556E+01 7.93320E+00 3.06315E+00 1.77232E+01 1.10101E-12 2.56861E-12
 -1      1269 6.43042E+01 3.35506E+00 4.24184E+00 9.97847E+00 3.04451E-13 1.06493E-12
 -1      1270 6.85390E+01 2.07439E+00 4.55407E+00-3.14130E+00 1.80599E-13-8.12239E-13
 -1      1271 5.80044E+01 5.18439E+00 3.80373E+00-1.46685E+01 7.90840E-13-2.51310E-12
 -1      1272 3.67561E+01 9.95359E+00 2.22035E+00-1.81054E+01 1.88138E-12-3.43880E-12
 -1      1273 1.56318E+01 9.63227E+00 3.24344E-01-1.19908E+01 2.48468E-12-2.92166E-12
 -1      1274 2.67518E+00 1.39978E+00-1.41817E+00-2.51688E+00 2.68541E-12-2.00184E-12
 -1      1275-1.75171E+00-1.15103E+01-2.84554E+00 3.67745E+00 1.89337E-12-9.38805E-13
 -1      1276-1.55857E+00-2.22262E+01-3.65797E+00 3.57513E+00 6.73239E-13-2.44388E-13
 -1      1277-9.62284E-01-2.54385E+01-3.85102E+00-6.07920E-01-8.36942E-13-1.38847E-13
 -1      1278-1.65128E+00-1.86250E+01-3.31151E+00-3.83627E+00-2.36922E-12-7.52953E-13
 -1      1279-8.19880E-01-6.14683E+00-2.21720E+00-1.84725E+00-3.38174E-12-1.84042E-12
 -1      1280 5.29436E+00 5.32355E+00-7.47542E-01 5.39775E+00-3.69971E-12-2.94187E-12
 -1      1281 1.81479E+01 1.09405E+01 7.81339E-01 1.36196E+01-2.90656E-12-3.42948E-12
 -1      1282 3.56864E+01 1.03384E+01 2.19603E+00 1.81235E+01-1.78924E-12-3.10574E-12
 -1      1283 5.33954E+01 6.08457E+00 3.36338E+00 1.58215E+01-7.88203E-13-2.26796E-12
 -1      1284 6.48312E+01 2.23433E+00 4.00809E+00 6.41889E+00-1.70419E-13-8.53151E-13
 -1      1285 6.50608E+01 2.04087E+00 4.00321E+00-6.12936E+00-1.91434E-13 8.18401E-13
 -1      1286 5.37919E+01 5.90017E+00 3.36140E+00-1.55822E+01-7.86426E-13 2.33569E-12
 -1      1287 3.62620E+01 1.01826E+01 2.21890E+00-1.81393E+01-1.63802E-12 2.98894E-12
 -1      1288 1.85970E+01 1.09309E+01 8.06783E-01-1.37417E+01-2.50866E-12 3.05533E-12
 -1      1289 5.76650E+00 5.75910E+00-6.73158E-01-5.79659E+00-2.97429E-12 2.49822E-12
 -1      1290-5.22870E-01-4.50224E+00-2.04323E+00 1.23700E+00-2.80620E-12 1.59395E-12
 -1      1291-1.72054E+00-1.61124E+01-3.09422E+00 4.02083E+00-2.31037E-12 8.43270E-13
 -1      1292-1.13727E+00-2.40084E+01-3.70740E+00 1.99314E+00-1.04428E-12 2.79630E-13
 -1      1293 2.22642E+01 1.84055E+00-7.17169E-01-2.70993E+00-8.27116E-14 1.06959E-12
 -1      1294 2.04771E+01 4.68761E+00-4.43923E-02-3.14021E+00-2.01603E-13-2.17215E-13
 -1      1295 2.09614E+01 4.79511E+00-1.05511E-01-4.00585E+00-2.66787E-13 6.86257E-14
 -1      1296 1.96563E+01 5.00511E+00-1.78988E-02-2.45656E+00-1.84956E-13-6.14443E-13
 -1      1297 1.99599E+01 5.10252E+00 6.02789E-03-2.85928E+00-2.11636E-13-4.47788E-13
 -1      1298 2.06626E+01 3.94344E+00-2.31199E-02-2.88843E+00-3.43690E-13-1.87531E-13
 -1      1299 1.92691E+01 5.10508E+00-4.13498E-03-1.86179E+00-1.30659E-13-8.00561E-13
 -1      1300 1.94426E+01 5.16705E+00 1.43208E-02-2.15722E+00-1.58151E-13-7.18307E-13
 -1      1301 1.98769E+01 4.38168E+00-2.22695E-02-2.28168E+00-2.81728E-13-5.17801E-13
 -1      1302 1.90336E+01 5.15656E+00 1.30803E-03-1.36676E+00-8.72982E-14-8.76191E-13
 -1      1303 1.91435E+01 5.19587E+00 1.46006E-02-1.60878E+00-1.02175E-13-8.45771E-13
 -1      1304 1.94606E+01 4.59459E+00-1.83255E-02-1.72131E+00-1.95679E-13-6.74728E-13
 -1      1305 1.88773E+01 5.18897E+00 3.64915E-03-9.49338E-01-3.82012E-14-8.90746E-13
 -1      1306 1.89514E+01 5.21480E+00 1.33073E-02-1.15356E+00-5.88869E-14-8.83339E-13
 -1      1307 1.92037E+01 4.72069E+00-1.49691E-02-1.25219E+00-1.25654E-13-7.34780E-13
 -1      1308 1.87714E+01 5.21085E+00 4.68382E-03-5.74542E-01-1.50054E-15-8.81750E-13
 -1      1309 1.88203E+01 5.22751E+00 1.12608E-02-7.59022E-01-1.30304E-14-8.92501E-13
 -1      1310 1.90312E+01 4.80294E+00-1.28524E-02-8.47532E-01-4.62018E-14-7.52717E-13
 -1      1311 1.87129E+01 5.22526E+00 5.69886E-03-2.31511E-01 4.07166E-14-8.53250E-13
 -1      1312 1.87375E+01 5.23354E+00 9.10495E-03-4.02191E-01 2.56089E-14-8.67277E-13
 -1      1313 1.89192E+01 4.85480E+00-1.17656E-02-4.84384E-01 1.83300E-14-7.32421E-13
 -1      1314 1.87009E+01 5.23334E+00 7.03030E-03 9.73030E-02 7.89163E-14-8.19664E-13
 -1      1315 1.87013E+01 5.23349E+00 7.24652E-03-6.84306E-02 6.49647E-14-8.39889E-13
 -1      1316 1.88631E+01 4.88090E+00-1.12663E-02-1.48354E-01 8.69422E-14-7.13559E-13
 -1      1317 1.87361E+01 5.23535E+00 8.81806E-03 4.29441E-01 1.12357E-13-7.73728E-13
 -1      1318 1.87119E+01 5.22721E+00 5.74314E-03 2.59729E-01 1.02326E-13-8.02317E-13
 -1      1319 1.88619E+01 4.88286E+00-1.12370E-02 1.77765E-01 1.46515E-13-6.79396E-13
 -1      1320 1.88200E+01 5.23054E+00 1.09652E-02 7.83213E-01 1.50160E-13-7.15900E-13
 -1      1321 1.87703E+01 5.21384E+00 4.52720E-03 6.00106E-01 1.39979E-13-7.54022E-13
 -1      1322 1.89169E+01 4.85987E+00-1.16993E-02 5.11372E-01 2.07235E-13-6.37938E-13
 -1      1323 1.89538E+01 5.21852E+00 1.32712E-02 1.17125E+00 1.84110E-13-6.06740E-13
 -1      1324 1.88774E+01 5.19191E+00 3.22948E-03 9.68263E-01 1.69980E-13-6.70592E-13
 -1      1325 1.90297E+01 4.80951E+00-1.26803E-02 8.67462E-01 2.58079E-13-5.64427E-13
 -1      1326 1.91546E+01 5.19736E+00 1.49531E-02 1.62985E+00 2.29552E-13-4.43704E-13
 -1      1327 1.90405E+01 5.15691E+00 8.64499E-04 1.38705E+00 2.07544E-13-5.40805E-13
 -1      1328 1.92075E+01 4.72480E+00-1.47886E-02 1.26861E+00 3.21050E-13-4.48440E-13
 -1      1329 1.94594E+01 5.16523E+00 1.42420E-02 2.18396E+00 2.65982E-13-1.86184E-13
 -1      1330 1.92832E+01 5.10095E+00-5.02875E-03 1.88533E+00 2.45227E-13-3.39086E-13
 -1      1331 1.94758E+01 4.59001E+00-1.84063E-02 1.74192E+00 3.79511E-13-2.79530E-13
 -1      1332 1.99919E+01 5.11306E+00 1.21243E-02 2.88996E+00 2.82066E-13 2.44943E-13
 -1      1333 1.96749E+01 4.99818E+00-1.87440E-02 2.49063E+00 2.59313E-13-1.25247E-14
 -1      1334 1.99033E+01 4.36698E+00-2.24213E-02 2.31153E+00 4.17210E-13 9.92956E-15
 -1      1335 2.11894E+01 4.88944E+00 1.35473E-02 3.89847E+00 2.16355E-13 1.00708E-12
 -1      1336 2.04579E+01 4.73014E+00-4.33355E-02 3.24157E+00 2.18769E-13 5.48069E-13
 -1      1337 2.07069E+01 3.90878E+00-1.91916E-02 2.98265E+00 3.99961E-13 4.84626E-13
 -1      1338 2.70796E+01 3.16892E+00 9.01076E-01 4.47581E+00 8.36553E-14 2.32903E-12
 -1      1339 2.20613E+01 3.50734E+00-1.76632E-01 3.75778E+00 9.31200E-14 1.43019E-12
 -1      1340 2.22057E+01 2.54227E+00-2.92602E-02 3.29536E+00 3.37421E-13 1.16995E-12
 -1      1341 2.14463E+01 3.52273E-01-7.57617E-01 1.11191E+00 1.68983E-13 2.28689E-12
 -1      1342 2.20556E+01 1.26639E-01-3.98036E-01-1.20689E+00-2.25597E-13 1.16268E-12
 -1      1343 2.08188E+01 3.01240E-01-1.60942E-01-7.39064E-01-2.00000E-13 9.08593E-13
 -1      1344 2.02765E+01 1.53337E-01-7.18563E-02-3.36269E-01-1.57527E-13 8.04651E-13
 -1      1345 1.98881E+01 9.23284E-02-1.33794E-02-2.64855E-01-1.52722E-13 5.63757E-13
 -1      1346 2.11518E+01 3.63386E-01-1.03607E-01-1.14422E+00-3.54314E-13 4.18228E-13
 -1      1347 1.95988E+01 6.75877E-02 3.59735E-03-6.53772E-02-1.28263E-13 4.91409E-13
 -1      1348 1.95314E+01 4.53417E-02 1.38410E-02-4.56194E-02-1.00378E-13 3.24237E-13
 -1      1349 2.02243E+01 1.35768E-01-3.60727E-02-3.70389E-01-2.68015E-13 2.77117E-13
 -1      1350 1.94505E+01 3.70176E-02 1.31864E-02 5.44913E-02-7.10825E-14 2.39996E-13
 -1      1351 1.95333E+01 2.53588E-02 1.13316E-02 6.69929E-02-8.71074E-14 1.37102E-13
 -1      1352 1.98911E+01 6.28195E-02-1.00156E-02-1.75989E-02-1.89883E-13 1.33711E-13
 -1      1353 1.95719E+01 2.31885E-02 8.42921E-03 1.25190E-01-6.93447E-14 1.06115E-13
 -1      1354 1.97382E+01 1.61800E-02 6.51601E-03 1.33739E-01-5.04904E-14 2.35575E-14
 -1      1355 1.98526E+01 3.50276E-02-5.54128E-03 1.71787E-01-1.26330E-13 1.19930E-14
 -1      1356 1.98511E+01 1.59060E-02 4.09007E-03 1.71588E-01-6.56146E-14-1.64695E-14
 -1      1357 2.00703E+01 1.07265E-02 3.52102E-03 1.77757E-01-5.11438E-14-9.87474E-14
 -1      1358 1.99993E+01 2.26065E-02-4.55322E-03 2.88291E-01-1.16542E-13-5.75867E-14
 -1      1359 2.02314E+01 1.09195E-02 1.61745E-03 2.02869E-01-3.02137E-14-1.46546E-13
 -1      1360 2.04853E+01 6.19001E-03 1.83085E-03 2.07103E-01-6.98116E-14-2.31110E-13
 -1      1361 2.02657E+01 1.50442E-02-3.68080E-03 3.65148E-01-1.03735E-13-1.60542E-13
 -1      1362 2.06764E+01 6.04705E-03 2.90517E-04 2.21037E-01-4.14651E-14-2.30415E-13
 -1      1363 2.09485E+01 8.81335E-04 7.79812E-04 2.22979E-01-4.29909E-14-2.96999E-13
 -1      1364 2.06097E+01 7.96727E-03-2.53058E-03 4.13314E-01-8.22431E-14-1.90107E-13
 -1      1365 2.11530E+01-3.00728E-04-3.51970E-04 2.23461E-01-3.19451E-14-3.04026E-13
 -1      1366 2.14232E+01-6.50576E-03 1.33707E-04 2.22036E-01-3.31476E-14-3.51401E-13
 -1      1367 2.09981E+01-1.39158E-03-9.69968E-04 4.32058E-01-5.60856E-14-1.95948E-13
 -1      1368 2.16218E+01-9.41324E-03-3.63750E-04 2.03902E-01-3.26562E-14-3.50334E-13
 -1      1369 2.18614E+01-1.68741E-02-4.48800E-05 1.97392E-01 8.96809E-15-3.60777E-13
 -1      1370 2.13963E+01-1.52059E-02 1.25195E-03 4.12590E-01-4.49244E-14-1.76677E-13
 -1      1371 2.20295E+01-2.20122E-02 4.15578E-04 1.53789E-01 2.36092E-14-4.03176E-13
 -1      1372 2.21993E+01-3.02169E-02 4.30512E-04 1.40142E-01-3.00901E-14-4.01690E-13
 -1      1373 2.17620E+01-3.47893E-02 4.39134E-03 3.40513E-01-1.91405E-14-2.14607E-13
 -1      1374 2.23067E+01-3.74800E-02 2.12674E-03 6.50832E-02-3.45045E-14-3.86415E-13
 -1      1375 2.23583E+01-4.46890E-02 1.66291E-03 4.27339E-02-5.31328E-14-4.41512E-13
 -1      1376 2.20420E+01-5.94148E-02 8.48415E-03 2.00141E-01-3.55488E-14-3.06847E-13
 -1      1377 2.23717E+01-5.27059E-02 4.57560E-03-6.41620E-02-5.95357E-15-4.45964E-13
 -1      1378 2.22573E+01-5.55972E-02 3.38175E-03-9.47327E-02-1.07293E-15-4.38351E-13
 -1      1379 2.21737E+01-8.44650E-02 1.30155E-02-1.69591E-02-2.74156E-14-2.70422E-13
 -1      1380 2.21491E+01-6.11908E-02 6.89672E-03-2.21653E-01-1.35794E-14-4.61849E-13
 -1      1381 2.18401E+01-5.53330E-02 4.65082E-03-2.55829E-01-4.57672E-14-4.66585E-13
 -1      1382 2.20957E+01-9.99306E-02 1.65476E-02-2.98391E-01-4.22804E-14-2.63695E-13
 -1      1383 2.16026E+01-5.40327E-02 7.45902E-03-3.73390E-01-5.94256E-14-4.65426E-13
 -1      1384 2.11168E+01-3.59850E-02 4.06595E-03-4.01134E-01-2.78493E-14-5.04444E-13
 -1      1385 2.17696E+01-9.15584E-02 1.66274E-02-5.95935E-01-6.71607E-14-2.73666E-13
 -1      1386 2.07793E+01-2.43788E-02 4.81266E-03-4.64812E-01 7.56103E-14-4.68153E-13
 -1      1387 2.02020E+01 4.58919E-03 5.33281E-04-4.72472E-01 3.36859E-14-4.10311E-13
 -1      1388 2.12118E+01-4.77842E-02 1.06155E-02-8.20575E-01 4.54276E-14-1.84328E-13
 -1      1389 1.98404E+01 2.45057E-02-1.17828E-03-4.39663E-01 1.88322E-14-3.58283E-13
 -1      1390 1.93192E+01 5.58316E-02-5.30176E-03-4.17129E-01-7.44153E-15-4.08375E-13
 -1      1391 2.05228E+01 2.88591E-02-2.02330E-03-8.64264E-01 8.63394E-14-1.52581E-13
 -1      1392 1.90421E+01 7.53664E-02-8.02233E-03-2.75237E-01-6.93187E-14-4.52926E-13
 -1      1393 1.87403E+01 9.56713E-02-1.05431E-02-2.24513E-01-5.86467E-14-5.07731E-13
 -1      1394 1.98867E+01 1.14206E-01-1.75589E-02-6.55855E-01-8.41670E-14-2.09797E-13
 -1      1395 1.86469E+01 1.03393E-01-1.18039E-02-1.04319E-02-5.68174E-14-6.23402E-13
 -1      1396 1.86714E+01 1.02358E-01-1.16544E-02 5.12034E-02-1.31933E-13-6.95801E-13
 -1      1397 1.95150E+01 1.69609E-01-2.84976E-02-2.22161E-01-1.54418E-13-2.65974E-13
 -1      1398 1.87999E+01 9.33966E-02-1.03038E-02 2.61777E-01-4.75618E-14-7.51198E-13
 -1      1399 1.91457E+01 7.16545E-02-7.49583E-03 3.10589E-01 5.68469E-15-7.69596E-13
 -1      1400 1.95499E+01 1.67172E-01-2.79151E-02 2.97346E-01-1.46383E-13-3.98891E-13
 -1      1401 1.94515E+01 5.18062E-02-4.87762E-03 4.44321E-01 2.10760E-14-7.27234E-13
 -1      1402 2.00046E+01 2.02239E-02-5.75972E-04 4.64249E-01 1.83599E-14-6.84799E-13
 -1      1403 1.99844E+01 1.07563E-01-1.65718E-02 7.16381E-01 4.37966E-14-4.66340E-13
 -1      1404 2.03861E+01 1.01182E-03 8.85179E-04 4.88733E-01 5.64243E-14-6.68833E-13
 -1      1405 2.09829E+01-2.70437E-02 5.25655E-03 4.79136E-01 4.68328E-14-5.81001E-13
 -1      1406 2.06678E+01 2.23232E-02-9.42739E-04 9.04349E-01 6.61320E-14-4.66851E-13
 -1      1407 2.13339E+01-3.72200E-02 4.15365E-03 4.11305E-01 3.93127E-14-5.67164E-13
 -1      1408 2.18326E+01-5.39297E-02 7.60767E-03 3.83263E-01-6.30008E-15-5.43579E-13
 -1      1409 2.13884E+01-5.12820E-02 1.11107E-02 8.45269E-01 5.63148E-14-4.52250E-13
 -1      1410 2.20829E+01-5.40142E-02 4.46568E-03 2.67206E-01 5.01387E-14-4.74103E-13
 -1      1411 2.24069E+01-5.88466E-02 6.74377E-03 2.34146E-01 6.98920E-14-4.48820E-13
 -1      1412 2.19710E+01-9.06082E-02 1.63487E-02 6.17683E-01 5.55805E-14-2.84046E-13
 -1      1413 2.25322E+01-5.24601E-02 3.01010E-03 1.13140E-01 3.52756E-14-3.71326E-13
 -1      1414 2.26705E+01-4.91161E-02 4.30693E-03 8.45335E-02-2.28749E-14-3.82427E-13
 -1      1415 2.23258E+01-9.53488E-02 1.57268E-02 3.29368E-01 1.11341E-13-2.30018E-13
 -1      1416 2.26816E+01-4.06723E-02 1.20958E-03-1.41077E-02-6.99501E-14-3.88837E-13
 -1      1417 2.26666E+01-3.35692E-02 1.83537E-03-3.41955E-02-8.59933E-14-4.82748E-13
 -1      1418 2.24443E+01-7.78867E-02 1.19709E-02 6.51471E-02-7.21177E-14-2.11735E-13
 -1      1419 2.25923E+01-2.60583E-02-9.79427E-05-1.00478E-01-4.48140E-14-4.59858E-13
 -1      1420 2.24729E+01-1.84171E-02 9.29194E-05-1.11925E-01-4.91269E-14-5.09557E-13
 -1      1421 2.23688E+01-5.22430E-02 7.45853E-03-1.31499E-01-1.20995E-13-2.86393E-13
 -1      1422 2.23456E+01-1.30711E-02-7.15057E-04-1.47521E-01-1.19470E-14-5.43093E-13
 -1      1423 2.21694E+01-6.57469E-03-8.06022E-04-1.52104E-01 6.03775E-14-5.42664E-13
 -1      1424 2.21607E+01-2.79644E-02 3.54299E-03-2.51881E-01-4.63800E-14-2.81676E-13
 -1      1425 2.20173E+01-3.45029E-03-7.96321E-04-1.63988E-01 1.90473E-14-5.07926E-13
 -1      1426 2.18212E+01 1.35268E-03-1.07072E-03-1.63926E-01-3.82811E-14-4.92845E-13
 -1      1427 2.18797E+01-9.35831E-03 7.03476E-04-3.07129E-01 7.39111E-15-2.51524E-13
 -1      1428 2.16651E+01 2.72716E-03-5.87958E-04-1.60028E-01-9.32812E-14-4.62614E-13
 -1      1429 2.14739E+01 5.90868E-03-9.72507E-04-1.57255E-01 2.73376E-14-4.67693E-13
 -1      1430 2.15731E+01 2.86249E-03-1.08201E-03-3.15400E-01-6.62316E-15-2.20665E-13
 -1      1431 2.13272E+01 6.11270E-03-2.88906E-04-1.44334E-01 2.19028E-14-5.10822E-13
 -1      1432 2.11551E+01 7.99305E-03-7.24219E-04-1.40274E-01-8.08609E-14-6.12427E-13
 -1      1433 2.12738E+01 9.71507E-03-2.03701E-03-2.94321E-01-8.35079E-14-2.40778E-13
 -1      1434 2.10253E+01 7.52097E-03-1.52617E-05-1.23275E-01-8.79237E-14-6.88882E-13
 -1      1435 2.08786E+01 8.46249E-03-4.54186E-04-1.18859E-01-1.32157E-13-9.10691E-13
 -1      1436 2.10016E+01 1.27067E-02-2.41575E-03-2.57839E-01-1.54632E-13-3.53743E-13
 -1      1437 2.07688E+01 7.66977E-03 1.85397E-04-1.01016E-01-7.41244E-14-8.68442E-13
 -1      1438 2.06490E+01 7.98704E-03-2.23656E-04-9.67929E-02 6.68129E-14-8.83554E-13
 -1      1439 2.07662E+01 1.32245E-02-2.43247E-03-2.15662E-01-1.44755E-13-4.99448E-13
 -1      1440 2.05593E+01 7.10105E-03 3.06883E-04-8.00011E-02 4.91762E-14-8.85898E-13
 -1      1441 2.04647E+01 7.03514E-03-5.22329E-05-7.62522E-02 8.17337E-15-8.72146E-13
 -1      1442 2.05704E+01 1.23298E-02-2.24467E-03-1.73862E-01 2.98023E-14-5.99037E-13
 -1      1443 2.03937E+01 6.18630E-03 3.62204E-04-6.14687E-02-2.47938E-14-8.76981E-13
 -1      1444 2.03213E+01 5.90810E-03 6.18188E-05-5.83034E-02 2.32637E-14-8.91674E-13
 -1      1445 2.04127E+01 1.07508E-02-1.95870E-03-1.35809E-01 5.91649E-16-5.52677E-13
 -1      1446 2.02666E+01 5.16116E-03 3.69904E-04-4.58786E-02 7.17985E-14-9.32797E-13
 -1      1447 2.02128E+01 4.78478E-03 1.28846E-04-4.33042E-02 4.64131E-15-8.92134E-13
 -1      1448 2.02893E+01 8.94662E-03-1.64175E-03-1.03039E-01 5.10822E-14-6.29849E-13
 -1      1449 2.01718E+01 4.16363E-03 3.47310E-04-3.32260E-02 1.57396E-14-9.37424E-13
 -1      1450 2.01331E+01 3.76097E-03 1.61028E-04-3.11950E-02 7.56415E-14-8.23763E-13
 -1      1451 2.01953E+01 7.18349E-03-1.33333E-03-7.59400E-02 3.08469E-14-5.87224E-13
 -1      1452 2.01032E+01 3.26606E-03 3.08060E-04-2.32559E-02 8.00459E-14-5.99872E-13
 -1      1453 2.00763E+01 2.87934E-03 1.69326E-04-2.16954E-02 1.32800E-13-4.04763E-13
 -1      1454 2.01257E+01 5.59907E-03-1.05451E-03-5.42407E-02 1.24232E-13-4.67675E-13
 -1      1455 2.00552E+01 2.49900E-03 2.61785E-04-1.56006E-02 2.55542E-14-4.17967E-13
 -1      1456 2.00374E+01 2.15043E-03 1.62449E-04-1.44307E-02-1.22399E-13-4.25581E-13
 -1      1457 2.00755E+01 4.25043E-03-8.14486E-04-3.73338E-02 1.24958E-13-3.95067E-13
 -1      1458 2.00230E+01 1.86783E-03 2.14693E-04-9.86337E-03-6.35408E-14-3.20101E-13
 -1      1459 2.00120E+01 1.56656E-03 1.46780E-04-9.00713E-03-6.74076E-14-4.21884E-13
 -1      1460 2.00406E+01 3.14697E-03-6.15191E-04-2.44831E-02-1.54321E-14-3.18534E-13
 -1      1461 2.00027E+01 1.36368E-03 1.70380E-04-5.66606E-03-1.49403E-13-3.26216E-13
 -1      1462 1.99966E+01 1.11072E-03 1.26687E-04-5.05510E-03-9.69842E-14-5.30151E-13
 -1      1463 2.00174E+01 2.27179E-03-4.54383E-04-1.49456E-02-1.36759E-13-1.94464E-13
 -1      1464 1.99911E+01 9.70442E-04 1.30600E-04-2.67431E-03 5.53005E-14-4.61435E-13
 -1      1465 1.99884E+01 7.61881E-04 1.04944E-04-2.25095E-03 6.60827E-14-3.38599E-13
 -1      1466 2.00029E+01 1.59508E-03-3.27609E-04-8.04011E-03 3.36881E-14-6.03446E-14
 -1      1467 1.99857E+01 6.68811E-04 9.59163E-05-6.08490E-04-7.86719E-14-1.38767E-13
 -1      1468 1.99854E+01 4.97846E-04 8.32192E-05-3.26481E-04-3.16018E-14-2.04046E-13
 -1      1469 1.99948E+01 1.08178E-03-2.29426E-04-3.18015E-03 1.05210E-13 1.61491E-13
 -1      1470 1.99845E+01 4.38300E-04 6.63630E-05 7.52429E-04 8.02355E-14-2.22602E-13
 -1      1471 1.99858E+01 2.96392E-04 6.27919E-05 9.27915E-04 1.80707E-13 1.49712E-15
 -1      1472 1.99912E+01 6.95294E-04-1.54071E-04 1.11374E-04 1.07145E-13 1.98309E-13
 -1      1473 1.99861E+01 2.57714E-04 4.23938E-05 1.56984E-03 2.02139E-13-3.68846E-14
 -1      1474 1.99883E+01 1.35008E-04 4.58238E-05 1.66204E-03 1.18426E-13 2.13454E-13
 -1      1475 1.99906E+01 3.98470E-04-9.55175E-05 2.19764E-03 2.89052E-13 2.34948E-13
 -1      1476 1.99893E+01 1.03922E-04 2.68043E-05 1.94334E-03 9.40822E-14 5.13175E-14
 -1      1477 1.99918E+01-1.11610E-05 3.75923E-05 1.96198E-03 7.80693E-14 9.97693E-14
 -1      1478 1.99919E+01 1.51426E-04-4.70250E-05 3.32533E-03 1.44185E-13 1.39898E-13
 -1      1479 1.99932E+01-5.31299E-05 2.65662E-05 1.90266E-03 9.96007E-15 2.28824E-13
 -1      1480 1.99955E+01-1.72741E-04 4.07295E-05 1.83802E-03-1.29330E-14 1.82296E-13
 -1      1481 1.99942E+01-9.68674E-05-1.76778E-06 3.61202E-03 4.84368E-14 4.48616E-14
 -1      1482 1.99967E+01-2.43162E-04 4.62195E-05 1.39595E-03-7.30261E-14 1.49317E-13
 -1      1483 1.99984E+01-3.40750E-04 5.76672E-05 1.25255E-03-7.45799E-14 1.03481E-13
 -1      1484 1.99967E+01-4.26049E-04 4.17812E-05 3.05390E-03-3.84360E-14 5.29836E-14
 -1      1485 1.99995E+01-3.14394E-04 1.16751E-04 2.04880E-04-1.60269E-13 5.99195E-14
 -1      1486 1.99991E+01-8.91373E-04 6.58401E-05 1.34185E-03-1.16464E-13 7.99303E-15
 -1      1487 2.04215E+01 7.48134E-02-1.48607E-01 4.24019E-01 1.63435E-13 1.91621E-12
 -1      1488 2.15988E+01 2.16228E-01-2.27916E-01 6.57060E-01 1.41581E-13 2.16015E-12
 -1      1489 2.18323E+01 8.65188E-01-8.75076E-02 1.94178E+00 2.78291E-13 1.49303E-12
 -1      1490 1.96491E+01 3.43127E-02-2.01683E-02 1.24603E-01 1.30777E-13 1.59070E-12
 -1      1491 1.99849E+01 1.15801E-01-6.04231E-02 1.77659E-01 1.18426E-13 1.78623E-12
 -1      1492 2.05391E+01 1.85423E-01-5.58436E-02 6.69736E-01 2.50827E-13 1.24677E-12
 -1      1493 1.94472E+01 1.90603E-02 5.39100E-03-1.96730E-02 6.74192E-14 1.38296E-12
 -1      1494 1.94904E+01 5.70973E-02 2.23994E-03 1.02436E-02 7.70521E-14 1.48844E-12
 -1      1495 1.99466E+01 7.60651E-02-1.36687E-02 1.69527E-01 1.82396E-13 1.03498E-12
 -1      1496 1.95615E+01 1.29679E-02 5.88467E-03-1.02715E-01 6.66815E-14 1.22885E-12
 -1      1497 1.94567E+01 3.46222E-02 1.18070E-02-8.23762E-02 5.90552E-14 1.32202E-12
 -1      1498 1.97960E+01 4.00616E-02-4.93922E-03-7.63087E-02 1.19638E-13 8.91962E-13
 -1      1499 1.98780E+01 1.09341E-02 3.07936E-03-1.61941E-01 6.00214E-14 1.08165E-12
 -1      1500 1.96786E+01 2.60002E-02 9.07881E-03-1.45418E-01 5.58893E-14 1.16726E-12
 -1      1501 1.99125E+01 2.65915E-02-5.09648E-03-2.27656E-01 1.21093E-13 7.77986E-13
 -1      1502 2.03492E+01 1.06339E-02 9.75468E-04-2.12752E-01 6.48006E-15 1.01740E-12
 -1      1503 2.00748E+01 2.30902E-02 5.86944E-03-1.97173E-01 1.62791E-14 1.03785E-12
 -1      1504 2.02118E+01 2.20248E-02-6.27179E-03-3.41248E-01 5.38315E-14 6.79222E-13
 -1      1505 2.09569E+01 1.09756E-02-4.73793E-04-2.62052E-01 3.24541E-14 9.56627E-13
 -1      1506 2.06130E+01 2.28489E-02 3.81250E-03-2.45881E-01 2.80093E-14 1.00058E-12
 -1      1507 2.06539E+01 2.13059E-02-7.34761E-03-4.41310E-01 3.83860E-14 6.26645E-13
 -1      1508 2.16956E+01 1.09774E-02-1.53313E-03-3.11804E-01 3.89920E-14 8.50590E-13
 -1      1509 2.12821E+01 2.33763E-02 2.43376E-03-2.94485E-01 3.63622E-14 9.05666E-13
 -1      1510 2.12208E+01 2.18049E-02-8.34086E-03-5.37975E-01 6.92593E-14 5.83232E-13
 -1      1511 2.25579E+01 9.24175E-03-1.97556E-03-3.58783E-01 3.34286E-14 7.67046E-13
 -1      1512 2.20766E+01 2.25464E-02 1.31784E-03-3.41087E-01 2.09652E-14 8.01095E-13
 -1      1513 2.19017E+01 2.09733E-02-9.01817E-03-6.31345E-01 6.08550E-14 5.17749E-13
 -1      1514 2.35185E+01 3.61516E-03-8.96322E-04-3.92288E-01 4.91560E-14 7.41410E-13
 -1      1515 2.29825E+01 1.71726E-02 4.53814E-04-3.77209E-01 3.60092E-14 7.83526E-13
 -1      1516 2.26808E+01 1.51477E-02-8.58687E-03-7.09830E-01 5.04306E-14 4.39379E-13
 -1      1517 2.45111E+01-8.83149E-03 3.44117E-03-3.90711E-01 3.13846E-14 6.74887E-13
 -1      1518 2.39588E+01 2.55796E-03 3.70402E-04-3.84809E-01 4.07176E-14 7.18991E-13
 -1      1519 2.35227E+01-1.18419E-03-5.52069E-03-7.45364E-01 5.41676E-14 4.90386E-13
 -1      1520 2.54006E+01-3.08085E-02 1.32284E-02-3.19360E-01-7.80626E-15 7.29881E-13
 -1      1521 2.49132E+01-2.68389E-02 2.25259E-03-3.33932E-01-3.49529E-14 6.67636E-13
 -1      1522 2.43547E+01-3.50319E-02 2.37057E-03-6.88420E-01 1.15368E-14 5.32869E-13
 -1      1523 2.59625E+01-6.11615E-02 2.89687E-02-1.36264E-01 3.03126E-14 7.76170E-13
 -1      1524 2.56772E+01-7.35700E-02 7.51301E-03-1.86023E-01-2.18575E-16 7.83765E-13
 -1      1525 2.50496E+01-9.12075E-02 1.68675E-02-4.70254E-01-2.57416E-14 5.50168E-13
 -1      1526 2.59016E+01-8.87142E-02 4.48949E-02 1.81388E-01 3.59972E-14 6.76518E-13
 -1      1527 2.59995E+01-1.28482E-01 1.57810E-02 8.64754E-02 4.84283E-14 7.65448E-13
 -1      1528 2.54196E+01-1.61975E-01 3.61862E-02-2.91522E-02 4.79946E-14 5.43831E-13
 -1      1529 2.49666E+01-8.74187E-02 4.49270E-02 5.84867E-01-9.77864E-14 7.28195E-13
 -1      1530 2.55986E+01-1.60630E-01 2.16964E-02 4.57119E-01-3.26232E-14 6.63983E-13
 -1      1531 2.52525E+01-2.12411E-01 5.07023E-02 6.21817E-01-1.68546E-14 6.07106E-13
 -1      1532 2.31832E+01-2.87279E-02 8.84902E-03 8.99414E-01 5.55979E-15 8.42701E-13
 -1      1533 2.43212E+01-1.21234E-01 1.35063E-02 7.92316E-01-5.52813E-14 7.20299E-13
 -1      1534 2.44213E+01-1.75829E-01 4.30978E-02 1.29690E+00-7.73548E-14 5.68080E-13
 -1      1535 2.11037E+01 7.58032E-02-5.96607E-02 8.71125E-01 1.80883E-13 5.51961E-13
 -1      1536 2.23935E+01 1.04929E-02-1.69033E-02 8.62159E-01 1.37928E-13 7.57366E-13
 -1      1537 2.30757E+01 1.19378E-04 3.76701E-03 1.60782E+00 1.59989E-13 5.73208E-13
 -1      1538 1.97106E+01 1.60723E-01-1.14632E-01 3.81506E-01 2.38802E-14 3.03153E-13
 -1      1539 2.05476E+01 1.75450E-01-5.56226E-02 5.08888E-01 9.90319E-14 4.33598E-13
 -1      1540 2.17571E+01 2.57585E-01-4.78802E-02 1.19222E+00 2.35659E-13 4.79741E-13
 -1      1541 1.98362E+01 1.46937E-01-1.02658E-01-3.51433E-01-8.80719E-15 3.45106E-13
 -1      1542 1.97321E+01 2.51081E-01-6.87378E-02-1.51494E-01-2.74052E-14 2.94214E-13
 -1      1543 2.11876E+01 4.22893E-01-6.97610E-02 9.88443E-02 3.78864E-14 3.67387E-13
 -1      1544 2.14221E+01 4.84595E-02-3.51126E-02-8.73410E-01 2.42696E-14 2.72268E-13
 -1      1545 2.04314E+01 1.76030E-01-4.22966E-02-7.26073E-01 1.25143E-14 3.05402E-13
 -1      1546 2.17252E+01 3.24274E-01-5.58146E-02-1.06254E+00 4.59355E-15 1.35694E-13
 -1      1547 2.35803E+01-4.85547E-02 3.71612E-02-9.30992E-01 6.99015E-14-4.57967E-16
 -1      1548 2.22449E+01 2.65681E-02 1.88870E-03-9.00473E-01 1.02850E-13 2.05599E-13
 -1      1549 2.30407E+01 5.33994E-02-2.33987E-02-1.62252E+00 1.28290E-13-5.07580E-14
 -1      1550 2.53368E+01-8.95422E-02 6.82675E-02-6.28713E-01 1.12676E-13-1.81188E-13
 -1      1551 2.42437E+01-8.64037E-02 3.36693E-02-6.88354E-01 7.61856E-14-5.05984E-14
 -1      1552 2.44311E+01-1.76110E-01 3.44392E-03-1.42571E+00 1.72553E-13-1.15560E-13
 -1      1553 2.62115E+01-8.00178E-02 5.85573E-02-2.24548E-01-2.50251E-14-3.15508E-13
 -1      1554 2.56513E+01-1.20732E-01 3.84201E-02-3.12144E-01 1.25022E-14-2.80748E-13
 -1      1555 2.53467E+01-2.50340E-01 1.44341E-02-7.93304E-01 1.06179E-13-2.81287E-13
 -1      1556 2.62369E+01-5.00416E-02 3.31800E-02 9.75977E-02-3.02501E-14-1.75720E-13
 -1      1557 2.61896E+01-9.95729E-02 2.56492E-02 2.54075E-02-7.39495E-14-2.58238E-13
 -1      1558 2.56163E+01-2.03899E-01 1.41263E-02-1.27721E-01-7.76029E-14-3.86260E-13
 -1      1559 2.56894E+01-2.18398E-02 1.08068E-02 2.82813E-01-7.54431E-14-1.17923E-13
 -1      1560 2.59856E+01-6.04649E-02 1.02248E-02 2.39167E-01-2.68882E-14-1.30158E-13
 -1      1561 2.53475E+01-1.18098E-01 9.70027E-03 3.47432E-01-4.32848E-14-2.94309E-13
 -1      1562 2.48623E+01-3.05569E-03-2.44834E-03 3.53072E-01-2.44138E-14-3.97980E-14
 -1      1563 2.53233E+01-2.61675E-02-2.89718E-04 3.33876E-01-6.07591E-14-4.67508E-14
 -1      1564 2.47471E+01-4.46877E-02 5.31903E-03 5.94468E-01-1.09395E-13-1.06056E-13
 -1      1565 2.39682E+01 6.83536E-03-7.97951E-03 3.51037E-01-1.64795E-14-8.43076E-14
 -1      1566 2.44663E+01-3.54344E-03-4.98022E-03 3.47561E-01 1.53409E-15-5.46091E-14
 -1      1567 2.40051E+01 1.42679E-03 2.33245E-03 6.67141E-01 1.72399E-14-6.35256E-15
 -1      1568 2.31300E+01 1.07400E-02-8.99198E-03 3.12795E-01-7.12290E-14 8.03767E-14
 -1      1569 2.35934E+01 8.60624E-03-5.83611E-03 3.17586E-01-1.00789E-13-3.43475E-15
 -1      1570 2.32531E+01 2.41768E-02 6.36585E-04 6.35724E-01-1.45841E-13 2.26100E-13
 -1      1571 2.24039E+01 1.13140E-02-7.98985E-03 2.61604E-01-8.13117E-14 2.04642E-13
 -1      1572 2.28013E+01 1.36672E-02-4.93857E-03 2.69807E-01-6.08532E-14 7.53703E-14
 -1      1573 2.25657E+01 3.19634E-02-2.23070E-04 5.55089E-01-1.42940E-13 1.41886E-13
 -1      1574 2.18051E+01 1.03207E-02-6.39215E-03 2.10071E-01-2.08373E-14 2.65514E-13
 -1      1575 2.21294E+01 1.46629E-02-3.57991E-03 2.18986E-01-7.13032E-14 1.28550E-13
 -1      1576 2.19753E+01 3.17847E-02-6.19266E-04 4.59438E-01-3.64661E-14-1.43527E-14
 -1      1577 2.13277E+01 8.75774E-03-4.83686E-03 1.63950E-01 1.44019E-14 2.54591E-13
 -1      1578 2.15836E+01 1.36415E-02-2.34676E-03 1.72271E-01 6.94713E-15 2.87461E-13
 -1      1579 2.14892E+01 2.80946E-02-7.75963E-04 3.66897E-01-3.40734E-14 9.18141E-14
 -1      1580 2.09566E+01 7.12430E-03-3.54106E-03 1.25180E-01 1.25642E-14 2.61045E-13
 -1      1581 2.11535E+01 1.18043E-02-1.41222E-03 1.32388E-01 4.14005E-14 2.62520E-13
 -1      1582 2.11008E+01 2.33258E-02-8.09024E-04 2.85464E-01 3.29198E-14 2.98712E-13
 -1      1583 2.06737E+01 5.63900E-03-2.53504E-03 9.38028E-02 7.11057E-14 2.37838E-13
 -1      1584 2.08223E+01 9.78567E-03-7.68397E-04 9.97831E-02-2.17883E-14 2.58914E-13
 -1      1585 2.07975E+01 1.86470E-02-7.76808E-04 2.17536E-01-6.18494E-15 5.24486E-14
 -1      1586 2.04621E+01 4.37636E-03-1.78194E-03 6.90484E-02-1.41595E-14 8.11132E-14
 -1      1587 2.05721E+01 7.88672E-03-3.51770E-04 7.38741E-02 1.42330E-13 2.96308E-13
 -1      1588 2.05653E+01 1.45339E-02-7.10451E-04 1.62759E-01 1.15931E-13 1.32475E-13
 -1      1589 2.03065E+01 3.34325E-03-1.22976E-03 4.98846E-02 6.20961E-14-1.21602E-13
 -1      1590 2.03866E+01 6.22791E-03-9.58426E-05 5.37020E-02 1.81427E-14-6.21010E-14
 -1      1591 2.03906E+01 1.11167E-02-6.28133E-04 1.19615E-01 1.03039E-13 1.30245E-15
 -1      1592 2.01944E+01 2.51826E-03-8.30459E-04 3.52782E-02 6.12396E-14-3.59878E-13
 -1      1593 2.02514E+01 4.83874E-03 5.25039E-05 3.82511E-02 8.29255E-14-2.08116E-13
 -1      1594 2.02615E+01 8.37061E-03-5.41151E-04 8.62406E-02 1.34534E-13-1.58013E-13
 -1      1595 2.01153E+01 1.87086E-03-5.45058E-04 2.43025E-02 2.67191E-15-4.05063E-13
 -1      1596 2.01550E+01 3.70657E-03 1.31352E-04 2.65865E-02-7.02244E-14-3.52192E-13
 -1      1597 2.01680E+01 6.21157E-03-4.56580E-04 6.08161E-02-5.68782E-14-1.67643E-13
 -1      1598 2.00611E+01 1.36998E-03-3.43625E-04 1.61705E-02-1.88867E-13-1.13921E-13
 -1      1599 2.00878E+01 2.80178E-03 1.66579E-04 1.79032E-02-7.40391E-14-2.59260E-13
 -1      1600 2.01017E+01 4.54133E-03-3.78648E-04 4.17218E-02-1.30888E-13-1.05488E-13
 -1      1601 2.00253E+01 9.87445E-04-2.03686E-04 1.02344E-02 1.00026E-13-1.72242E-15
 -1      1602 2.00426E+01 2.09005E-03 1.75259E-04 1.15327E-02-1.64546E-14-5.58812E-14
 -1      1603 2.00559E+01 3.26672E-03-3.09603E-04 2.75848E-02-9.98586E-14 2.10503E-14
 -1      1604 2.00029E+01 6.98881E-04-1.08509E-04 5.97216E-03-1.86050E-13 1.41165E-13
 -1      1605 2.00133E+01 1.53797E-03 1.68449E-04 6.93310E-03-9.78720E-15 4.46980E-14
 -1      1606 2.00255E+01 2.30640E-03-2.50313E-04 1.72760E-02-1.65183E-14 2.94136E-13
 -1      1607 1.99902E+01 4.83683E-04-4.56288E-05 2.97024E-03 7.41487E-14 1.27130E-13
 -1      1608 1.99957E+01 1.11511E-03 1.53198E-04 3.67251E-03-5.99377E-15 1.58963E-13
 -1      1609 2.00063E+01 1.59194E-03-2.00688E-04 9.88575E-03-7.00321E-14 3.45383E-13
 -1      1610 1.99842E+01 3.24535E-04-5.73813E-06 9.07091E-04 9.65334E-14-1.13126E-13
 -1      1611 1.99864E+01 7.94626E-04 1.33892E-04 1.41329E-03 1.34104E-13 1.58316E-13
 -1      1612 1.99952E+01 1.06672E-03-1.59979E-04 4.69465E-03 1.67483E-13 1.13101E-13
 -1      1613 1.99828E+01 2.06754E-04 1.82619E-05-4.61275E-04 1.15306E-13-3.94031E-13
 -1      1614 1.99827E+01 5.52957E-04 1.13144E-04-1.02735E-04 1.59374E-13-2.13190E-13
 -1      1615 1.99898E+01 6.84042E-04-1.26982E-04 1.14589E-03 2.03552E-13 4.18966E-14
 -1      1616 1.99844E+01 1.17074E-04 3.26648E-05-1.31207E-03 2.48104E-14-4.99905E-13
 -1      1617 1.99829E+01 3.68687E-04 9.26449E-05-1.06584E-03 3.86444E-14-4.39247E-13
 -1      1618 1.99882E+01 4.04729E-04-9.97993E-05-1.17863E-03 1.25505E-13-1.32539E-13
 -1      1619 1.99879E+01 4.21635E-05 4.51560E-05-1.76035E-03 9.83796E-14-5.33369E-13
 -1      1620 1.99855E+01 2.20297E-04 7.45087E-05-1.60465E-03 5.52909E-14-5.15497E-13
 -1      1621 1.99892E+01 1.93552E-04-7.48280E-05-2.57375E-03 9.07070E-14-1.02425E-13
 -1      1622 1.99920E+01-3.26066E-05 6.55154E-05-1.85721E-03-1.14471E-13-5.35339E-13
 -1      1623 1.99894E+01 8.38731E-05 6.29160E-05-1.78623E-03-2.28910E-14-5.69413E-13
 -1      1624 1.99917E+01 1.40496E-05-4.57808E-05-3.21567E-03-1.13754E-14-7.13609E-14
 -1      1625 1.99960E+01-1.25860E-04 9.63710E-05-1.58113E-03-4.06733E-14-5.61159E-13
 -1      1626 1.99936E+01-7.10182E-05 6.27973E-05-1.61340E-03-3.12807E-14-5.25241E-13
 -1      1627 1.99947E+01-1.75463E-04-4.93412E-06-3.15684E-03-6.04952E-14-2.17720E-13
 -1      1628 1.99988E+01-2.72756E-04 7.83484E-05-8.78164E-04 1.33954E-14-3.98282E-13
 -1      1629 1.99973E+01-2.69237E-04 7.07401E-05-1.02965E-03 3.61953E-15-4.44512E-13
 -1      1630 1.99974E+01-4.58201E-04 4.34914E-05-2.34488E-03 3.66891E-14-1.53482E-13
 -1      1631 1.99995E+01-3.62629E-04 9.77587E-05-2.38917E-04-1.46346E-13-1.53976E-13
 -1      1632 1.99996E+01-3.11181E-03 3.47955E-05-1.41169E-03 3.38968E-13 7.92014E-14
 -1      1633 1.99995E+01-1.57309E-03 3.10595E-05-1.22039E-03 3.10163E-14 4.71461E-13
 -1      1634 1.99998E+01-6.47236E-03-8.33732E-06-1.74712E-03 3.95862E-13-1.42403E-13
 -1      1635 1.99997E+01-4.35660E-03 1.88988E-05-1.72635E-03 5.65065E-13-2.90036E-13
 -1      1636 1.99995E+01-3.29503E-03 2.89379E-05-2.95548E-03 2.09481E-13 3.31303E-14
 -1      1637 1.99999E+01-9.85032E-03-2.49409E-05-1.64937E-03 1.59621E-13-1.04235E-13
 -1      1638 1.99998E+01-7.77187E-03-3.89151E-06-1.70247E-03 2.32382E-13 9.61986E-14
 -1      1639 1.99998E+01-5.77714E-03-1.15976E-05-3.25920E-03 3.09725E-13-9.05471E-14
 -1      1640 2.00000E+01-1.27199E-02-2.47930E-05-1.32753E-03 5.87986E-14-2.01517E-14
 -1      1641 1.99999E+01-1.10028E-02-1.12920E-05-1.40813E-03 4.26631E-14 2.24316E-14
 -1      1642 2.00000E+01-8.14240E-03-3.36491E-05-2.89999E-03 1.22153E-13-1.88483E-13
 -1      1643 2.00000E+01-1.48173E-02-1.89577E-05-9.40817E-04-1.04726E-13-2.76725E-14
 -1      1644 1.99999E+01-1.35904E-02-8.63010E-06-1.02034E-03-1.43286E-13-1.00556E-13
 -1      1645 2.00001E+01-1.00756E-02-3.99669E-05-2.23333E-03 1.81203E-13-2.81566E-13
 -1      1646 1.99999E+01-1.61871E-02-1.19570E-05-5.63791E-04-4.36542E-14 5.61832E-14
 -1      1647 1.99999E+01-1.54145E-02-5.58995E-06-6.34552E-04-2.40828E-13 1.71941E-13
 -1      1648 2.00001E+01-1.14619E-02-3.49693E-05-1.50129E-03-1.37710E-14 4.93903E-14
 -1      1649 1.99999E+01-1.68528E-02-6.24720E-06-2.33194E-04-1.81029E-13-2.23730E-13
 -1      1650 1.99999E+01-1.65087E-02-3.09186E-06-2.92462E-04-4.51969E-15-1.91166E-13
 -1      1651 2.00000E+01-1.23171E-02-2.80458E-05-8.17224E-04-2.35152E-14-1.07694E-13
 -1      1652 1.99999E+01-1.68922E-02-3.02110E-06 6.22301E-05 9.25338E-14 4.03558E-13
 -1      1653 1.99999E+01-1.69342E-02-3.19853E-06 8.50094E-06-1.85942E-13 9.64072E-14
 -1      1654 2.00000E+01-1.26877E-02-2.28906E-05-2.14394E-04 1.18390E-13-9.41161E-14
 -1      1655 1.99999E+01-1.63315E-02-2.53861E-06 3.55010E-04-3.41201E-13-2.46545E-13
 -1      1656 1.99999E+01-1.67516E-02-6.07648E-06 2.98498E-04-1.25106E-13-1.89498E-14
 -1      1657 2.00000E+01-1.26289E-02-2.21636E-05 3.45101E-04 9.88334E-14-3.26998E-14
 -1      1658 1.99999E+01-1.51364E-02-4.70117E-06 6.76963E-04-6.64583E-13-2.40807E-13
 -1      1659 1.99999E+01-1.59618E-02-1.16626E-05 6.11185E-04-4.14263E-13-1.27308E-13
 -1      1660 2.00000E+01-1.21516E-02-2.59592E-05 9.23169E-04-2.01815E-13-3.34015E-13
 -1      1661 1.99999E+01-1.32795E-02-8.46850E-06 1.03066E-03-7.69264E-13 1.75252E-13
 -1      1662 1.99999E+01-1.45252E-02-1.86032E-05 9.57855E-04-6.28193E-13-2.22617E-13
 -1      1663 2.00000E+01-1.12299E-02-3.18839E-05 1.55726E-03-3.23371E-13-2.19938E-13
 -1      1664 1.99999E+01-1.06821E-02-1.04057E-05 1.39379E-03-2.38597E-13 6.95693E-14
 -1      1665 1.99999E+01-1.23883E-02-2.46640E-05 1.31902E-03-6.88682E-13 5.67886E-13
 -1      1666 2.00000E+01-9.81226E-03-3.60324E-05 2.23579E-03-2.14989E-13 4.81012E-13
 -1      1667 1.99998E+01-7.52317E-03-7.92997E-06 1.67326E-03-1.45894E-13 1.66870E-13
 -1      1668 1.99999E+01-9.55060E-03-2.46503E-05 1.61771E-03-3.08726E-13 1.27349E-13
 -1      1669 2.00000E+01-7.88140E-03-3.09308E-05 2.85495E-03-1.94239E-13 2.07605E-13
 -1      1670 1.99997E+01-4.26003E-03-9.49684E-07 1.66265E-03-1.70772E-13-1.13208E-13
 -1      1671 1.99998E+01-6.25951E-03-1.33664E-05 1.67842E-03-3.80130E-14 3.14157E-14
 -1      1672 1.99998E+01-5.54810E-03-1.29030E-05 3.17926E-03-1.30466E-13 1.35203E-13
 -1      1673 1.99994E+01-1.74040E-03-6.53259E-06 1.58548E-03-2.25763E-13-2.00886E-13
 -1      1674 1.99995E+01-3.19404E-03-1.32664E-05 1.86509E-03-1.12172E-13-2.19073E-13
 -1      1675 1.99995E+01-3.15240E-03 8.03719E-05 3.22214E-03-7.09373E-14-1.70298E-13
 -1      1676 1.99985E+01-1.35705E-03 4.60034E-05 2.92867E-03-1.04106E-13-1.65314E-13
 -1      1677-6.87103E-01-1.49052E+01-1.69489E+00-1.20614E+00 1.01746E-12 4.88332E-13
 -1      1678-6.24080E-01-1.66871E+01-1.82584E+00 1.26126E-01 2.67786E-13 5.05929E-13
 -1      1679 1.08585E+00-8.81600E+00-1.29159E+00 7.41176E-02 2.11853E-12 1.53264E-12
 -1      1680 4.67880E-01-1.36587E+01-1.74214E+00-3.61472E-01 1.28531E-12 9.25746E-13
 -1      1681 6.14807E+00-1.26688E+00-7.03396E-01 3.83560E+00 2.52243E-12 1.71552E-12
 -1      1682 3.32268E+00-6.82647E+00-1.42721E+00 1.10467E+00 2.42617E-12 1.37090E-12
 -1      1683 1.68278E+01 4.47946E+00 9.79418E-02 9.29515E+00 2.04914E-12 2.05003E-12
 -1      1684 1.01903E+01 7.58766E-01-8.07346E-01 5.35545E+00 2.37810E-12 1.85318E-12
 -1      1685 3.24078E+01 5.71624E+00 9.40872E-01 1.19602E+01 1.40354E-12 1.79501E-12
 -1      1686 2.29067E+01 5.13595E+00 3.85806E-02 9.78301E+00 1.80778E-12 1.95777E-12
 -1      1687 4.67232E+01 4.96719E+00 1.64936E+00 1.05456E+01 8.41674E-13 1.44507E-12
 -1      1688 3.76557E+01 6.50572E+00 9.37709E-01 1.20301E+01 1.23124E-12 1.87361E-12
 -1      1689 5.48135E+01 3.69332E+00 1.87541E+00 3.33044E+00 5.14921E-13 3.81140E-13
 -1      1690 4.98968E+01 4.96274E+00 1.55734E+00 8.23485E+00 7.45931E-13 1.09357E-12
 -1      1691 5.42497E+01 4.12565E+00 1.81336E+00-4.58421E+00 6.04794E-13-7.93865E-13
 -1      1692 5.55868E+01 3.69242E+00 1.86256E+00 9.08771E-01 5.29743E-13-1.36904E-14
 -1      1693 4.54844E+01 5.82490E+00 1.42572E+00-1.10353E+01 1.02525E-12-1.78380E-12
 -1      1694 5.28847E+01 4.00811E+00 1.92027E+00-7.32733E+00 5.91194E-13-1.24079E-12
 -1      1695 2.97777E+01 6.73667E+00 5.37519E-01-1.18577E+01 1.53244E-12-2.22489E-12
 -1      1696 4.03911E+01 5.94344E+00 1.46573E+00-1.24479E+01 1.23807E-12-2.01816E-12
 -1      1697 1.58379E+01 2.97626E+00-3.97030E-01-7.55404E+00 1.64035E-12-1.73350E-12
 -1      1698 2.41920E+01 5.41943E+00 5.76420E-01-1.10743E+01 1.47415E-12-2.14340E-12
 -1      1699 6.63602E+00-3.92125E+00-1.09627E+00-3.05628E+00 1.40921E-12-1.17295E-12
 -1      1700 1.11875E+01 1.10534E+00-2.81817E-01-6.53097E+00 1.60494E-12-1.49147E-12
 -1      1701 1.34836E+00-1.13474E+01-1.64521E+00-3.53844E-03 8.51319E-13-6.50827E-13
 -1      1702 2.70046E+00-5.73781E+00-1.05686E+00-1.42861E+00 1.35225E-12-1.11733E-12
 -1      1703-3.01883E-01-1.59674E+01-1.78238E+00 4.53506E-02 1.44329E-15-3.91465E-13
 -1      1704-2.06674E-01-1.27556E+01-1.51306E+00 8.22155E-01 6.55476E-13-5.23775E-13
 -1      1705-7.47029E-01-1.58923E+01-1.73095E+00-7.40250E-01-9.65950E-13-4.80921E-13
 -1      1706-7.63163E-01-1.67169E+01-1.81609E+00 8.62557E-01-2.35464E-13-3.34899E-13
 -1      1707 6.15718E-01-1.01916E+01-1.30185E+00 3.20720E-02-1.81577E-12-1.00983E-12
 -1      1708 1.89933E-01-1.46982E+01-1.72474E+00 1.24339E-01-1.18761E-12-6.66495E-13
 -1      1709 4.55246E+00-2.54918E+00-7.54850E-01 3.03178E+00-2.46159E-12-1.79723E-12
 -1      1710 2.44672E+00-8.31180E+00-1.44219E+00 8.28806E-01-2.06790E-12-1.25244E-12
 -1      1711 1.30439E+01 3.65999E+00-3.69692E-02 7.99803E+00-2.41296E-12-2.17659E-12
 -1      1712 7.99862E+00-4.98492E-01-8.56324E-01 4.45516E+00-2.53841E-12-1.86073E-12
 -1      1713 2.49741E+01 6.44525E+00 6.72276E-01 1.18661E+01-1.96310E-12-2.21245E-12
 -1      1714 1.75465E+01 4.99106E+00-1.25185E-01 9.10414E+00-2.33569E-12-2.25087E-12
 -1      1715 3.82399E+01 6.19328E+00 1.28571E+00 1.24835E+01-1.27393E-12-1.93323E-12
 -1      1716 2.98031E+01 6.95221E+00 5.94907E-01 1.20747E+01-1.74083E-12-2.17604E-12
 -1      1717 4.93923E+01 4.48488E+00 1.69205E+00 8.78318E+00-6.65700E-13-1.22757E-12
 -1      1718 4.25028E+01 6.11921E+00 1.22765E+00 1.14966E+01-1.00892E-12-1.71052E-12
 -1      1719 5.45150E+01 3.51723E+00 1.80918E+00 1.41742E+00-4.23328E-13-2.63817E-13
 -1      1720 5.17078E+01 4.34260E+00 1.63581E+00 6.48075E+00-5.49172E-13-9.02112E-13
 -1      1721 5.23162E+01 4.21508E+00 1.70389E+00-6.42672E+00-5.61745E-13 7.60780E-13
 -1      1722 5.49809E+01 3.40279E+00 1.85688E+00-1.26346E+00-3.82638E-13 3.18912E-14
 -1      1723 4.29082E+01 6.02400E+00 1.24789E+00-1.13667E+01-9.80993E-13 1.61171E-12
 -1      1724 4.97059E+01 4.42791E+00 1.71790E+00-8.61039E+00-6.65350E-13 1.05427E-12
 -1      1725 3.01655E+01 6.95434E+00 6.01884E-01-1.20811E+01-1.42530E-12 1.97353E-12
 -1      1726 3.86428E+01 6.15742E+00 1.30566E+00-1.23989E+01-1.07059E-12 1.81166E-12
 -1      1727 1.80709E+01 4.79533E+00-1.16098E-01-9.04768E+00-1.82943E-12 1.80189E-12
 -1      1728 2.55044E+01 6.18524E+00 6.63949E-01-1.17089E+01-1.47815E-12 1.90647E-12
 -1      1729 8.47633E+00-9.07558E-03-8.02681E-01-4.78305E+00-1.96820E-12 1.53866E-12
 -1      1730 1.33858E+01 3.78302E+00-3.71189E-02-8.13633E+00-1.93445E-12 1.81721E-12
 -1      1731 2.93926E+00-7.10011E+00-1.37299E+00-1.16777E+00-1.70786E-12 1.00603E-12
 -1      1732 5.20205E+00-1.92700E+00-7.13719E-01-3.43642E+00-1.89671E-12 1.35841E-12
 -1      1733 3.87593E-01-1.36152E+01-1.73348E+00 1.70714E-01-1.17606E-12 6.52436E-13
 -1      1734 9.23712E-01-9.01620E+00-1.27265E+00-1.20635E-01-1.63392E-12 9.06844E-13
 -1      1735-5.58131E-01-1.65650E+01-1.80913E+00-4.59449E-01-1.92568E-13 5.63161E-13
 -1      1736-5.17201E-01-1.46020E+01-1.62661E+00 7.25466E-01-9.94815E-13 6.60749E-13
 -1      1737 2.46783E+01 3.26394E-01 2.46311E-01 6.99061E+00 1.28009E-12 1.06615E-12
 -1      1738 1.34413E+01-3.56199E+00-4.46258E-01 6.03458E+00 1.52744E-12 1.08158E-12
 -1      1739 1.99994E+01-7.63410E-04 9.78038E-05-9.14189E-04-1.39749E-13 1.73143E-13
 -1      1740 1.99989E+01-1.34299E-03 5.12689E-05-2.11189E-03-9.94735E-15 6.61977E-13
 -1      1741 3.60005E-01-1.04373E+01-1.20268E+00 1.98183E+00 6.59361E-13 1.07314E-12
 -1      1742 5.30727E+00-7.68126E+00-9.50433E-01 4.04828E+00 1.17173E-12 1.29911E-12
 -1      1743-1.35687E+00-1.12910E+01-1.28739E+00-2.61828E-01-1.87142E-14 1.05682E-12
 -1      1744 3.54463E+01 3.61362E+00 8.11273E-01 6.33035E+00 1.08896E-12 9.48353E-13
 -1      1745 4.37678E+01 6.28562E+00 1.36246E+00 4.27114E+00 9.63313E-13 6.85785E-13
 -1      1746 4.70286E+01 7.61226E+00 1.53832E+00 7.92892E-01 9.76552E-13 2.17826E-13
 -1      1747 4.66249E+01 7.22789E+00 1.58203E+00-2.70674E+00 9.01168E-13-3.84082E-13
 -1      1748 4.07507E+01 5.38716E+00 1.24645E+00-6.02838E+00 1.01343E-12-8.92175E-13
 -1      1749 2.99231E+01 1.94085E+00 4.65807E-01-7.04325E+00 8.56204E-13-1.27054E-12
 -1      1750 1.91623E+01-2.52892E+00-1.52361E-01-6.63662E+00 6.88893E-13-1.04849E-12
 -1      1751 9.23935E+00-6.23182E+00-6.45280E-01-5.37431E+00 5.12812E-13-9.92456E-13
 -1      1752 2.05033E+00-9.39997E+00-1.08594E+00-3.02852E+00 2.17604E-13-7.96058E-13
 -1      1753-1.06083E+00-1.11189E+01-1.25723E+00-7.09438E-01-1.52267E-13-7.38798E-13
 -1      1754-3.87575E-01-1.06170E+01-1.19521E+00 1.90260E+00-6.08513E-13-9.32587E-13
 -1      1755 3.87049E+00-8.23640E+00-9.69156E-01 3.96171E+00-1.07025E-12-1.15612E-12
 -1      1756 1.09503E+01-4.23527E+00-5.23333E-01 5.87790E+00-1.39488E-12-1.34459E-12
 -1      1757 2.01606E+01-1.10400E-01 5.66170E-02 7.37971E+00-1.52423E-12-1.30862E-12
 -1      1758 2.98655E+01 3.17912E+00 6.07113E-01 7.70969E+00-1.44212E-12-1.25222E-12
 -1      1759 3.87007E+01 5.45345E+00 1.08954E+00 6.55786E+00-1.12904E-12-9.93983E-13
 -1      1760 4.48190E+01 6.82305E+00 1.40560E+00 3.71617E+00-8.39995E-13-5.29687E-13
 -1      1761 4.71336E+01 7.36674E+00 1.54126E+00-1.69329E-02-7.93254E-13-1.27967E-13
 -1      1762 4.53207E+01 6.79311E+00 1.46315E+00-3.60229E+00-8.51430E-13 2.95042E-13
 -1      1763 3.89688E+01 5.49466E+00 1.10481E+00-6.44631E+00-8.82801E-13 7.18314E-13
 -1      1764 3.01519E+01 3.04128E+00 5.79255E-01-7.45729E+00-9.44078E-13 1.01663E-12
 -1      1765 2.06872E+01-9.21662E-02 8.56781E-02-7.33348E+00-1.09313E-12 1.04794E-12
 -1      1766 1.16035E+01-3.81795E+00-4.78701E-01-6.04095E+00-1.01363E-12 1.06715E-12
 -1      1767 4.64071E+00-7.67649E+00-9.42206E-01-4.19777E+00-8.18234E-13 8.30364E-13
 -1      1768 1.99524E-01-1.04065E+01-1.23191E+00-2.21802E+00-4.48919E-13 8.67972E-13
 -1      1769 2.28998E+01 1.96470E+00-2.55457E-02-2.60746E+00-2.71425E-13 8.56537E-13
 -1      1770 1.99410E+01 3.73922E+00-3.61264E-02-1.92776E+00-2.88478E-13-4.54359E-13
 -1      1771 2.02000E+01 3.57756E+00-3.81828E-02-2.22390E+00-3.42859E-13-3.50258E-13
 -1      1772 2.05191E+01 3.17673E+00-4.57189E-02-2.38041E+00-3.56551E-13-2.07709E-13
 -1      1773 2.07440E+01 2.79522E+00-1.38443E-01-2.66046E+00-4.05120E-13-2.99899E-14
 -1      1774 2.05838E+01 2.70548E+00-3.18780E-03-1.99851E+00-3.70937E-13-2.43090E-13
 -1      1775 1.93188E+01 4.27979E+00-2.05486E-02-1.07063E+00-1.24199E-13-6.00150E-13
 -1      1776 1.94342E+01 4.23280E+00-1.50690E-02-1.28127E+00-1.65153E-13-5.86690E-13
 -1      1777 1.91453E+01 4.41431E+00-1.67950E-02-7.02755E-01-3.75338E-14-6.08293E-13
 -1      1778 1.92255E+01 4.38444E+00-1.22944E-02-8.90926E-01-7.95022E-14-6.12961E-13
 -1      1779 1.94546E+01 3.92066E+00-7.75741E-03-9.16841E-01-1.17656E-13-5.82857E-13
 -1      1780 1.90364E+01 4.49682E+00-1.43055E-02-3.69081E-01 4.10865E-14-5.83750E-13
 -1      1781 1.90844E+01 4.47984E+00-1.14005E-02-5.39999E-01 7.28042E-15-5.99503E-13
 -1      1782 1.92777E+01 4.07721E+00-7.56466E-03-5.81207E-01-1.40269E-14-5.74219E-13
 -1      1783 1.89887E+01 4.53575E+00-1.26638E-02-5.58553E-02 1.26000E-13-5.70696E-13
 -1      1784 1.90055E+01 4.52970E+00-1.15478E-02-2.17779E-01 9.02249E-14-5.81788E-13
 -1      1785 1.91721E+01 4.16783E+00-7.24644E-03-2.72718E-01 7.28496E-14-5.59345E-13
 -1      1786 1.90028E+01 4.53326E+00-1.17251E-02 2.51924E-01 1.92673E-13-5.31332E-13
 -1      1787 1.89878E+01 4.53784E+00-1.25112E-02 9.07309E-02 1.56806E-13-5.52830E-13
 -1      1788 1.91353E+01 4.20013E+00-7.05663E-03 1.99705E-02 1.49866E-13-5.33758E-13
 -1      1789 1.90804E+01 4.48732E+00-1.15788E-02 5.70203E-01 2.53969E-13-5.00926E-13
 -1      1790 1.90327E+01 4.50366E+00-1.42378E-02 4.01180E-01 2.25260E-13-5.25859E-13
 -1      1791 1.91683E+01 4.17494E+00-7.09102E-03 3.10404E-01 2.20062E-13-5.09015E-13
 -1      1792 1.92214E+01 4.39418E+00-1.24891E-02 9.09343E-01 3.17929E-13-4.20251E-13
 -1      1793 1.91409E+01 4.42375E+00-1.69219E-02 7.26829E-01 2.83546E-13-4.67355E-13
 -1      1794 1.92724E+01 4.08928E+00-7.24917E-03 6.10156E-01 2.83874E-13-4.61004E-13
 -1      1795 1.94387E+01 4.23687E+00-1.54156E-02 1.29732E+00 3.96432E-13-2.99876E-13
 -1      1796 1.93175E+01 4.28727E+00-2.10396E-02 1.08501E+00 3.50776E-13-3.66599E-13
 -1      1797 1.94516E+01 3.93275E+00-7.64781E-03 9.34830E-01 3.55657E-13-3.62215E-13
 -1      1798 1.97535E+01 3.98284E+00-2.31912E-02 1.74274E+00 4.48617E-13-1.32012E-13
 -1      1799 1.95783E+01 4.06985E+00-2.78017E-02 1.49223E+00 4.17699E-13-2.35409E-13
 -1      1800 1.97202E+01 3.68154E+00-7.57175E-03 1.29523E+00 4.25941E-13-2.42299E-13
 -1      1801 2.02256E+01 3.54419E+00-4.28730E-02 2.24049E+00 4.74657E-13 1.50335E-13
 -1      1802 1.99580E+01 3.71703E+00-4.02554E-02 1.94700E+00 4.52755E-13-1.50019E-14
 -1      1803 2.01072E+01 3.28896E+00-4.66496E-03 1.68043E+00 4.69660E-13-4.47906E-14
 -1      1804 2.10800E+01 2.67147E+00-5.51567E-02 2.65765E+00 4.21845E-13 6.28823E-13
 -1      1805 2.05772E+01 3.09724E+00-4.99390E-02 2.40025E+00 4.42620E-13 3.40450E-13
 -1      1806 2.06803E+01 2.63091E+00 3.27963E-03 2.00640E+00 4.66738E-13 2.51691E-13
 -1      1807 2.18561E+01 1.20117E+00-1.19778E-01 2.17646E+00 3.37758E-13 1.18948E-12
 -1      1808 2.14241E+01 2.24571E+00-1.47268E-04 2.56092E+00 3.79821E-13 8.28948E-13
 -1      1809 2.11254E+01 1.68426E+00-2.04245E-02 1.93711E+00 4.25576E-13 6.14966E-13
 -1      1810 2.11353E+01 7.74474E-01-5.92601E-02 1.37244E+00 3.46556E-13 1.07587E-12
 -1      1811 2.19150E+01 2.43268E+00 8.89132E-02-2.88905E+00-3.62561E-13 2.92891E-13
 -1      1812 2.04055E+01 3.09002E-01-6.37549E-03 4.95064E-01 2.75474E-13 8.95844E-13
 -1      1813 2.08854E+01 4.45842E-01-1.09209E-02 8.78068E-01 3.01058E-13 9.94584E-13
 -1      1814 2.09745E+01 8.47217E-01 1.00821E-03 1.22592E+00 3.57988E-13 7.31568E-13
 -1      1815 2.16558E+01 1.73152E+00 7.84175E-02-2.16165E+00-3.83887E-13 1.69725E-13
 -1      1816 2.07785E+01 5.10730E-01 3.28862E-02-7.43523E-01-2.94029E-13 1.31579E-13
 -1      1817 2.04159E+01 3.70015E-01 1.01144E-02-4.43954E-01-2.55620E-13 6.31517E-14
 -1      1818 2.02711E+01 2.80880E-01 2.77380E-02-1.87481E-01-2.33279E-13 6.73975E-14
 -1      1819 2.01599E+01 2.07509E-01 1.28585E-02-3.42033E-02-1.93487E-13-8.08728E-15
 -1      1820 2.05160E+01 5.13718E-01-7.45246E-03-4.74035E-01-2.87208E-13-5.20816E-14
 -1      1821 2.01000E+01 1.65948E-01 1.71205E-02 1.23601E-01-1.58117E-13-6.11143E-15
 -1      1822 2.01165E+01 1.30413E-01 9.48551E-03 2.15051E-01-1.38799E-13-5.88323E-14
 -1      1823 2.03048E+01 2.90107E-01-7.16611E-03 3.75772E-04-2.15320E-13-6.88078E-14
 -1      1824 2.01270E+01 1.07718E-01 9.34087E-03 3.17591E-01-1.32772E-13-6.17340E-14
 -1      1825 2.02240E+01 8.76706E-02 6.53845E-03 3.77195E-01-1.21260E-13-1.01664E-13
 -1      1826 2.02611E+01 1.81805E-01-6.14608E-03 2.97094E-01-1.70885E-13-9.65512E-14
 -1      1827 2.02875E+01 7.26374E-02 4.97462E-03 4.46353E-01-1.34613E-13-9.31919E-14
 -1      1828 2.04359E+01 5.81310E-02 4.34895E-03 4.85892E-01-1.24022E-13-1.43834E-13
 -1      1829 2.03408E+01 1.20535E-01-5.05532E-03 4.93489E-01-1.44579E-13-1.17046E-13
 -1      1830 2.05382E+01 4.48494E-02 2.52278E-03 5.30659E-01-8.02588E-14-1.49579E-13
 -1      1831 2.07175E+01 3.00803E-02 2.22028E-03 5.53140E-01-3.78676E-14-1.47918E-13
 -1      1832 2.05113E+01 7.59844E-02-3.93232E-03 6.24413E-01-1.12384E-13-1.19117E-13
 -1      1833 2.08473E+01 1.45712E-02 9.92020E-04 5.74389E-01-5.48705E-14-1.50303E-13
 -1      1834 2.10395E+01-4.77506E-03-3.71043E-04 5.77317E-01-4.81432E-14-1.63133E-13
 -1      1835 2.07468E+01 3.11087E-02-2.89994E-03 7.01358E-01-6.29031E-14-1.43686E-13
 -1      1836 2.11866E+01-2.56187E-02-1.14636E-04 5.69983E-01-3.58903E-14-1.70251E-13
 -1      1837 2.13717E+01-5.27927E-02-3.67373E-03 5.46833E-01-3.57211E-14-1.77218E-13
 -1      1838 2.10255E+01-2.61110E-02-1.91043E-03 7.20214E-01-4.87197E-14-1.81853E-13
 -1      1839 2.15251E+01-8.09115E-02-1.03799E-03 5.01537E-01-3.95456E-14-1.94800E-13
 -1      1840 2.16790E+01-1.17132E-01-7.59599E-03 4.43462E-01-3.24645E-14-2.25667E-13
 -1      1841 2.13259E+01-1.04150E-01-8.06125E-04 6.65457E-01-5.94041E-14-2.15912E-13
 -1      1842 2.18246E+01-1.51892E-01-1.92843E-03 3.49242E-01-1.70489E-14-2.36368E-13
 -1      1843 2.19187E+01-1.94092E-01-1.15197E-02 2.48457E-01 1.41206E-15-2.37923E-13
 -1      1844 2.16227E+01-2.05236E-01 6.42575E-04 5.14823E-01-4.16715E-14-1.75942E-13
 -1      1845 2.20376E+01-2.29884E-01-2.93770E-03 9.82379E-02 4.22926E-15-2.33645E-13
 -1      1846 2.20428E+01-2.67709E-01-1.41215E-02-4.58111E-02-3.00836E-14-1.99412E-13
 -1      1847 2.18831E+01-3.19186E-01 2.70207E-03 2.47990E-01 1.11378E-14-1.63613E-13
 -1      1848 2.21096E+01-2.91547E-01-4.22311E-03-2.45921E-01-3.80763E-14-2.07767E-13
 -1      1849 2.20045E+01-3.05785E-01-1.34855E-02-4.17906E-01-2.75509E-14-1.93009E-13
 -1      1850 2.20641E+01-4.15761E-01 5.50270E-03-1.37612E-01-2.95328E-14-9.71618E-14
 -1      1851 2.19909E+01-2.97707E-01-5.73121E-03-6.36962E-01-1.75580E-14-1.68606E-13
 -1      1852 2.17741E+01-2.64625E-01-8.03869E-03-7.98155E-01-4.19977E-15-6.95906E-14
 -1      1853 2.21146E+01-4.42035E-01 8.58092E-03-6.03766E-01-1.88482E-14-4.64019E-14
 -1      1854 2.16607E+01-2.05640E-01-7.00072E-03-9.73393E-01 2.84729E-14-8.97338E-14
 -1      1855 2.13644E+01-1.11292E-01 1.90663E-03-1.06399E+00 1.21294E-13-4.91360E-15
 -1      1856 2.19891E+01-3.36178E-01 1.01758E-02-1.04937E+00 2.15136E-14-3.90746E-16
 -1      1857 2.11639E+01 2.28204E-04-5.83582E-03-1.11244E+00 8.37693E-14-3.10611E-14
 -1      1858 2.08560E+01 1.38137E-01 1.26552E-02-1.07252E+00-1.43635E-15-6.46098E-14
 -1      1859 2.16803E+01-6.87463E-02 7.47459E-03-1.31191E+00 6.71443E-14 4.63618E-14
 -1      1860 2.06337E+01 2.67473E-01-8.30582E-04-9.33215E-01-7.52384E-14-1.81249E-13
 -1      1861 2.04037E+01 3.94277E-01 1.83179E-02-7.43669E-01-1.18345E-13-2.34744E-13
 -1      1862 2.12627E+01 3.06015E-01-4.64188E-04-1.22272E+00-1.06097E-13-1.26163E-13
 -1      1863 2.02592E+01 4.82282E-01 7.70987E-03-4.29850E-01-1.30584E-13-2.16747E-13
 -1      1864 2.01835E+01 5.31104E-01 1.54323E-02-1.39299E-01-1.85385E-13-2.74998E-13
 -1      1865 2.08984E+01 6.40378E-01-1.10516E-02-7.20281E-01-1.33475E-13-2.41799E-13
 -1      1866 2.01977E+01 5.26339E-01 1.58422E-02 2.42070E-01-2.18327E-13-2.65789E-13
 -1      1867 2.03051E+01 4.69131E-01 6.96460E-03 5.27279E-01-1.18171E-13-2.74773E-13
 -1      1868 2.07688E+01 7.68368E-01-1.55284E-02 6.47170E-02-1.58190E-13-1.94217E-13
 -1      1869 2.04716E+01 3.76271E-01 1.76508E-02 8.29528E-01-4.64758E-14-2.75971E-13
 -1      1870 2.07287E+01 2.46467E-01-1.55716E-03 1.00817E+00 1.81313E-14-3.73600E-13
 -1      1871 2.09484E+01 6.18237E-01-1.08044E-02 8.34558E-01-1.14656E-13-1.85677E-13
 -1      1872 2.09663E+01 1.16289E-01 1.15479E-02 1.13189E+00 6.38558E-14-3.82258E-13
 -1      1873 2.12946E+01-1.84934E-02-5.78188E-03 1.16014E+00 4.17488E-14-3.33223E-13
 -1      1874 2.13501E+01 2.75712E-01-6.69757E-05 1.30667E+00 6.76716E-15-3.11546E-13
 -1      1875 2.15014E+01-1.24362E-01 8.36028E-04 1.10033E+00 3.82103E-14-3.06317E-13
 -1      1876 2.18134E+01-2.11307E-01-6.18770E-03 1.00457E+00 1.14715E-13-2.79263E-13
 -1      1877 2.17892E+01-9.18385E-02 7.80878E-03 1.36434E+00 9.05407E-14-2.83150E-13
 -1      1878 2.19321E+01-2.63927E-01-8.67679E-03 8.28068E-01 8.92637E-14-2.57783E-13
 -1      1879 2.21635E+01-2.90332E-01-4.87314E-03 6.69234E-01 1.17362E-13-2.15884E-13
 -1      1880 2.21102E+01-3.40441E-01 9.99426E-03 1.08845E+00 1.17579E-13-1.80144E-13
 -1      1881 2.21860E+01-2.93708E-01-1.36498E-02 4.57602E-01 1.14299E-13-3.00710E-13
 -1      1882 2.23093E+01-2.75304E-01-3.32678E-03 2.93767E-01 6.14717E-14-2.73254E-13
 -1      1883 2.22509E+01-4.28138E-01 8.09230E-03 6.50460E-01 1.06778E-13-2.80759E-13
 -1      1884 2.22564E+01-2.49224E-01-1.39197E-02 1.06178E-01 5.40887E-15-2.98540E-13
 -1      1885 2.22757E+01-2.09812E-01-2.06051E-03-2.67736E-02-4.17518E-14-2.89852E-13
 -1      1886 2.22241E+01-3.90322E-01 5.02474E-03 2.06890E-01 7.17187E-14-4.01293E-13
 -1      1887 2.21754E+01-1.73828E-01-1.12024E-02-1.62894E-01-6.19799E-14-2.73489E-13
 -1      1888 2.21133E+01-1.31950E-01-1.13263E-03-2.52113E-01-5.56282E-14-2.91123E-13
 -1      1889 2.20764E+01-2.89258E-01 2.39403E-03-1.49172E-01-2.31872E-14-2.56798E-13
 -1      1890 2.19894E+01-9.84422E-02-7.39924E-03-3.33355E-01-4.69477E-14-2.24516E-13
 -1      1891 2.18742E+01-6.38929E-02-4.35045E-04-3.81219E-01 2.14587E-14-1.24528E-13
 -1      1892 2.18574E+01-1.76358E-01 5.83155E-04-3.86359E-01-6.25086E-15-1.69292E-13
 -1      1893 2.17436E+01-3.81733E-02-3.78692E-03-4.16735E-01 1.03805E-14-1.70651E-13
 -1      1894 2.16017E+01-1.39338E-02 1.03109E-04-4.32527E-01 3.30055E-14-8.43958E-14
 -1      1895 2.16063E+01-8.04067E-02-5.35390E-04-5.12488E-01 1.70695E-14-1.91584E-13
 -1      1896 2.14751E+01 3.21774E-03-9.63405E-04-4.35401E-01-1.60842E-14-1.55602E-13
 -1      1897 2.13266E+01 1.79136E-02 5.05992E-04-4.29689E-01-6.78074E-14-2.21765E-13
 -1      1898 2.13505E+01-1.13351E-02-1.17606E-03-5.52580E-01-5.83268E-14-1.37988E-13
 -1      1899 2.12104E+01 2.78383E-02 9.41142E-04-4.12214E-01-1.36463E-13-2.14900E-13
 -1      1900 2.10688E+01 3.51832E-02 7.78003E-04-3.94071E-01-9.21980E-14-2.83906E-13
 -1      1901 2.11079E+01 3.18231E-02-1.50732E-03-5.34639E-01-7.57215E-14-1.95532E-13
 -1      1902 2.09663E+01 3.98229E-02 2.03922E-03-3.65899E-01-9.82779E-14-3.07554E-13
 -1      1903 2.08397E+01 4.21514E-02 9.29758E-04-3.42032E-01-1.21642E-13-2.55233E-13
 -1      1904 2.08884E+01 5.45182E-02-1.63704E-03-4.82751E-01-1.16116E-13-2.17229E-13
 -1      1905 2.07521E+01 4.33093E-02 2.52945E-03-3.09910E-01-1.17925E-13-2.29727E-13
 -1      1906 2.06439E+01 4.25607E-02 9.81345E-04-2.84761E-01-1.11059E-14-2.01897E-13
 -1      1907 2.06973E+01 6.29531E-02-1.63302E-03-4.14895E-01-8.27801E-14-1.16902E-13
 -1      1908 2.05710E+01 4.16456E-02 2.61052E-03-2.52964E-01-7.67745E-14-2.09616E-13
 -1      1909 2.04819E+01 3.92370E-02 9.58212E-04-2.29180E-01-4.19763E-14-2.79947E-13
 -1      1910 2.05357E+01 6.24370E-02-1.54152E-03-3.43169E-01-5.16253E-14-7.50966E-15
 -1      1911 2.04227E+01 3.72432E-02 2.44532E-03-2.00125E-01 5.86955E-15-3.15026E-13
 -1      1912 2.03516E+01 3.41229E-02 8.85725E-04-1.79073E-01-2.97473E-15-3.75362E-13
 -1      1913 2.04027E+01 5.69277E-02-1.39661E-03-2.74935E-01-1.01999E-13 4.12667E-15
 -1      1914 2.03046E+01 3.17004E-02 2.15279E-03-1.53899E-01-3.17282E-14-3.89610E-13
 -1      1915 2.02494E+01 2.84551E-02 7.85578E-04-1.36107E-01 5.78729E-14-3.92431E-13
 -1      1916 2.02958E+01 4.91178E-02-1.22410E-03-2.14115E-01-4.68053E-14-2.77440E-14
 -1      1917 2.02129E+01 2.59991E-02 1.81250E-03-1.15133E-01 8.52937E-14-4.23797E-13
 -1      1918 2.01711E+01 2.29608E-02 6.74364E-04-1.00618E-01-7.93267E-15-3.08615E-13
 -1      1919 2.02119E+01 4.07040E-02-1.04318E-03-1.62322E-01 7.88030E-14-1.30343E-13
 -1      1920 2.01435E+01 2.06904E-02 1.47348E-03-8.36824E-02 1.11872E-13-3.18186E-13
 -1      1921 2.01128E+01 1.80220E-02 5.63589E-04-7.21802E-02 2.44241E-13-2.12838E-13
 -1      1922 2.01474E+01 3.26690E-02-8.67351E-04-1.19735E-01 1.03911E-13-1.24466E-13
 -1      1923 2.00922E+01 1.60412E-02 1.16294E-03-5.88633E-02 2.50401E-13-1.50101E-13
 -1      1924 2.00703E+01 1.37999E-02 4.60419E-04-4.99780E-02 1.50136E-13-1.20590E-13
 -1      1925 2.00990E+01 2.55166E-02-7.05251E-04-8.57106E-02 2.13944E-13-1.41315E-14
 -1      1926 2.00555E+01 1.21411E-02 8.93566E-04-3.97551E-02 8.70970E-14 7.48247E-14
 -1      1927 2.00405E+01 1.03215E-02 3.68634E-04-3.30523E-02 8.30751E-14 1.03853E-13
 -1      1928 2.00635E+01 1.94460E-02-5.61619E-04-5.92016E-02 2.41697E-13 1.33664E-13
 -1      1929 2.00301E+01 8.97519E-03 6.68884E-04-2.53831E-02-6.30271E-14-2.46443E-14
 -1      1930 2.00203E+01 7.53780E-03 2.89534E-04-2.04446E-02-3.10709E-14 4.62694E-14
 -1      1931 2.00383E+01 1.44732E-02-4.38264E-04-3.90239E-02-6.21790E-14 2.09537E-13
 -1      1932 2.00134E+01 6.47141E-03 4.87061E-04-1.48257E-02-3.47913E-14 4.11974E-14
 -1      1933 2.00074E+01 5.36050E-03 2.22674E-04-1.12790E-02 8.54857E-14 2.90188E-14
 -1      1934 2.00210E+01 1.05119E-02-3.34945E-04-2.40148E-02 5.40230E-14 2.66942E-13
 -1      1935 2.00030E+01 4.53057E-03 3.43442E-04-7.27172E-03 2.98440E-13 9.02599E-14
 -1      1936 1.99998E+01 3.68435E-03 1.66417E-04-4.80311E-03 2.56267E-13 3.18899E-13
 -1      1937 2.00096E+01 7.42389E-03-2.50115E-04-1.31230E-02 2.36544E-13 2.73977E-13
 -1      1938 1.99972E+01 3.04302E-03 2.32181E-04-2.04550E-03 1.38954E-13 4.28086E-13
 -1      1939 1.99960E+01 2.39849E-03 1.18271E-04-4.05929E-04 2.72173E-13 6.31377E-13
 -1      1940 2.00027E+01 5.04944E-03-1.81492E-04-5.45367E-03 3.22960E-13 4.28373E-13
 -1      1941 1.99948E+01 1.89604E-03 1.47406E-04 1.38340E-03 2.05918E-13 4.86153E-13
 -1      1942 1.99948E+01 1.39010E-03 7.53122E-05 2.37680E-03 1.99380E-13 3.36384E-13
 -1      1943 1.99990E+01 3.22109E-03-1.26687E-04-2.85617E-04 1.71675E-13 7.37315E-13
 -1      1944 1.99944E+01 9.75659E-04 8.41029E-05 3.39839E-03 5.96453E-14 2.37786E-13
 -1      1945 1.99952E+01 5.48088E-04 3.83092E-05 3.85977E-03-5.01628E-14 1.55765E-13
 -1      1946 1.99974E+01 1.77018E-03-8.27197E-05 2.92393E-03-6.76275E-15 3.29163E-13
 -1      1947 1.99954E+01 1.51000E-04 3.57245E-05 4.25087E-03 8.46071E-15 7.90779E-14
 -1      1948 1.99965E+01-2.60637E-04 6.28214E-06 4.21708E-03 3.11315E-14 7.50627E-14
 -1      1949 1.99972E+01 5.38206E-04-4.67363E-05 4.54453E-03-8.78038E-14 1.27492E-13
 -1      1950 1.99968E+01-6.13385E-04 1.51016E-05 4.04481E-03 1.19493E-14-3.85840E-14
 -1      1951 1.99979E+01-1.06713E-03-2.13901E-05 3.52827E-03-9.46308E-14-1.16833E-13
 -1      1952 1.99985E+01-1.73164E-03-1.97145E-05 4.02699E-03-1.39986E-13-1.88949E-13
 -1      1953 1.99977E+01-6.71160E-04-3.31308E-05 4.82262E-03-9.37399E-14-9.70268E-15
 -1      1954 2.00723E+01 1.65549E-01 1.02188E-02 6.56703E-02 1.94469E-13 7.48044E-13
 -1      1955 2.02590E+01 2.22986E-01 1.77715E-02 2.54513E-01 2.25618E-13 8.38090E-13
 -1      1956 2.04493E+01 3.72570E-01-2.82728E-03 4.35879E-01 2.80623E-13 6.17905E-13
 -1      1957 2.00183E+01 1.07181E-01 9.65939E-03-1.89433E-01 1.56147E-13 6.40977E-13
 -1      1958 2.00274E+01 1.32921E-01 1.58002E-02-7.55109E-02 1.52312E-13 6.95412E-13
 -1      1959 2.02051E+01 2.04699E-01-3.52630E-03-1.49051E-02 2.08018E-13 5.26789E-13
 -1      1960 2.01672E+01 8.30886E-02 7.72798E-03-3.67123E-01 1.36105E-13 5.56589E-13
 -1      1961 2.00627E+01 9.51073E-02 1.03942E-02-2.84785E-01 1.39476E-13 6.08355E-13
 -1      1962 2.01925E+01 1.37055E-01-4.66104E-03-3.02491E-01 1.60304E-13 4.33105E-13
 -1      1963 2.04690E+01 7.46699E-02 6.75782E-03-5.11849E-01 2.71020E-14 4.79624E-13
 -1      1964 2.02822E+01 8.02481E-02 6.85101E-03-4.42093E-01 8.49073E-14 5.38103E-13
 -1      1965 2.03499E+01 1.10415E-01-5.06589E-03-5.13964E-01 1.08868E-13 3.71755E-13
 -1      1966 2.08965E+01 7.30593E-02 6.27286E-03-6.44731E-01 7.52302E-14 4.30750E-13
 -1      1967 2.06422E+01 7.60560E-02 4.94175E-03-5.78516E-01 3.55705E-14 4.54302E-13
 -1      1968 2.06391E+01 1.02013E-01-5.04161E-03-6.92297E-01 6.58531E-14 3.16358E-13
 -1      1969 2.14341E+01 7.14527E-02 5.57730E-03-7.72963E-01 9.31501E-14 3.97314E-13
 -1      1970 2.11201E+01 7.50726E-02 3.74357E-03-7.07252E-01 8.30759E-14 4.36990E-13
 -1      1971 2.10380E+01 9.96419E-02-5.04073E-03-8.57003E-01 1.09305E-13 2.50028E-13
 -1      1972 2.20689E+01 6.15163E-02 4.00488E-03-8.90709E-01 6.44383E-14 3.16267E-13
 -1      1973 2.17030E+01 6.97083E-02 2.57071E-03-8.28510E-01 8.58888E-14 3.83459E-13
 -1      1974 2.15330E+01 9.23847E-02-5.23359E-03-1.01102E+00 1.00204E-13 2.52267E-13
 -1      1975 2.27799E+01 3.11808E-02 9.03568E-04-9.75133E-01 2.04612E-14 3.33079E-13
 -1      1976 2.23766E+01 4.94337E-02 9.55812E-04-9.27828E-01 4.42838E-14 3.23715E-13
 -1      1977 2.21122E+01 6.59390E-02-5.58526E-03-1.13970E+00 6.50102E-14 2.37917E-13
 -1      1978 2.35274E+01-3.57950E-02-4.09489E-03-9.79984E-01 6.19296E-14 3.93982E-13
 -1      1979 2.31158E+01-6.86939E-04-1.34881E-03-9.70934E-01 3.18864E-14 3.45396E-13
 -1      1980 2.27585E+01 3.26986E-04-5.83024E-03-1.20543E+00 2.49147E-14 2.53806E-13
 -1      1981 2.42406E+01-1.55208E-01-1.03587E-02-8.31761E-01-6.94150E-15 4.23914E-13
 -1      1982 2.38724E+01-9.82017E-02-4.20912E-03-8.98659E-01 9.16454E-15 4.17485E-13
 -1      1983 2.34423E+01-1.27961E-01-5.29043E-03-1.14163E+00 5.82520E-15 2.36906E-13
 -1      1984 2.48097E+01-3.25610E-01-1.51219E-02-4.40416E-01 2.52732E-14 4.45294E-13
 -1      1985 2.45612E+01-2.52930E-01-6.96165E-03-6.30125E-01 2.58821E-15 4.52639E-13
 -1      1986 2.41118E+01-3.32850E-01-2.70459E-03-8.54924E-01 5.99781E-15 3.11150E-13
 -1      1987 2.50850E+01-4.94731E-01-1.40566E-02 2.48214E-01 6.65145E-14 5.07645E-13
 -1      1988 2.50476E+01-4.38692E-01-8.73687E-03-9.25830E-02 3.47708E-14 5.02755E-13
 -1      1989 2.46782E+01-5.81745E-01 3.83235E-03-2.53934E-01 1.25282E-14 3.89300E-13
 -1      1990 2.49126E+01-5.32852E-01-4.81642E-03 1.14756E+00-9.29014E-14 5.66398E-13
 -1      1991 2.51554E+01-5.59694E-01-1.00903E-02 6.99484E-01 1.70003E-16 5.29132E-13
 -1      1992 2.50037E+01-7.52468E-01 1.32015E-02 6.64712E-01 6.28664E-15 4.66495E-13
 -1      1993 2.42084E+01-2.66393E-01 4.06571E-03 1.90004E+00 3.21730E-14 5.65711E-13
 -1      1994 2.47253E+01-4.40737E-01-1.28446E-02 1.52864E+00-7.73045E-14 5.50098E-13
 -1      1995 2.49180E+01-6.19762E-01 1.81724E-02 1.68442E+00-6.64685E-14 4.97342E-13
 -1      1996 2.31475E+01 3.02806E-01-4.84579E-03 1.93654E+00 3.21720E-13 4.48457E-13
 -1      1997 2.37904E+01 2.94957E-02-1.65238E-02 1.92006E+00 1.84471E-13 5.13183E-13
 -1      1998 2.43454E+01-3.75090E-02 2.20640E-03 2.26804E+00 2.12468E-13 4.66609E-13
 -1      1999 2.22555E+01 8.60843E-01-2.94235E-02 9.43754E-01 2.02872E-13 4.78142E-13
 -1      2000 2.27485E+01 6.62540E-01-1.41683E-02 1.42151E+00 2.78545E-13 4.89060E-13
 -1      2001 2.35463E+01 8.06316E-01-2.70554E-02 1.81328E+00 2.84377E-13 4.35192E-13
 -1      2002 2.21881E+01 9.07091E-01-4.35129E-02-6.60263E-01 6.32584E-14 2.30319E-13
 -1      2003 2.22335E+01 9.86749E-01 6.16480E-04 7.50961E-02 1.39853E-13 3.88823E-13
 -1      2004 2.30894E+01 1.33660E+00-3.73078E-02 2.79182E-01 1.77955E-13 3.78864E-13
 -1      2005 2.30359E+01 4.05941E-01-3.40422E-02-1.85634E+00 1.37949E-13-4.01797E-14
 -1      2006 2.25864E+01 6.90226E-01 4.04361E-03-1.32671E+00 7.46278E-14 1.27079E-13
 -1      2007 2.33822E+01 1.06187E+00-2.67386E-02-1.45293E+00 1.77282E-13 1.16809E-13
 -1      2008 2.42334E+01-1.89631E-01-1.37410E-03-2.03211E+00 1.77670E-13-1.85522E-13
 -1      2009 2.35349E+01 6.27368E-02-3.76680E-03-1.95244E+00 1.55858E-13-1.61753E-13
 -1      2010 2.41775E+01 2.54886E-01-4.03186E-03-2.30863E+00 2.37470E-13-2.04206E-13
 -1      2011 2.51161E+01-4.99854E-01 2.08417E-02-1.38408E+00 2.36606E-13-3.47829E-13
 -1      2012 2.45062E+01-4.11697E-01-1.28557E-02-1.65042E+00 1.91323E-13-1.92398E-13
 -1      2013 2.48827E+01-4.78001E-01 4.95160E-03-2.01667E+00 2.39192E-13-3.12379E-13
 -1      2014 2.54101E+01-4.96369E-01 2.17496E-02-4.80711E-01-8.02292E-14-3.79405E-13
 -1      2015 2.50901E+01-5.41392E-01-1.79167E-02-8.53097E-01 1.06117E-13-3.36913E-13
 -1      2016 2.51410E+01-7.67026E-01-2.84026E-03-1.07459E+00 1.25955E-13-3.87398E-13
 -1      2017 2.51921E+01-3.38534E-01 1.26116E-02 2.58846E-01-1.02141E-13-3.35993E-13
 -1      2018 2.51816E+01-4.31004E-01-1.70414E-02-4.85850E-02-1.56951E-13-3.70779E-13
 -1      2019 2.49610E+01-6.68422E-01-9.33399E-03-9.17031E-02-1.16707E-13-3.12915E-13
 -1      2020 2.46572E+01-1.67162E-01 3.40835E-03 6.98277E-01-1.21094E-13-1.06382E-13
 -1      2021 2.48735E+01-2.49222E-01-1.23571E-02 5.11990E-01-7.82065E-14-1.97157E-13
 -1      2022 2.45004E+01-4.16715E-01-9.49741E-03 6.08639E-01-1.14555E-13-1.58078E-13
 -1      2023 2.39815E+01-4.25275E-02-1.92026E-03 8.75482E-01-9.17487E-14-4.05379E-14
 -1      2024 2.43206E+01-9.57456E-02-6.78150E-03 7.96413E-01-9.92843E-14-4.20922E-14
 -1      2025 2.39077E+01-1.80628E-01-6.37060E-03 9.75332E-01-1.11338E-13-1.18898E-14
 -1      2026 2.32844E+01 2.91865E-02-3.82060E-03 8.80984E-01-2.51357E-14 1.58662E-13
 -1      2027 2.36628E+01 2.08548E-03-2.01578E-03 8.73232E-01-1.90075E-14 2.18324E-14
 -1      2028 2.32828E+01-2.10730E-02-3.19230E-03 1.08541E+00-3.67542E-14 7.55784E-14
 -1      2029 2.26345E+01 6.17333E-02-3.80668E-03 7.95784E-01-2.14021E-13 2.79238E-13
 -1      2030 2.29993E+01 5.21499E-02 1.26734E-03 8.26549E-01-1.49082E-13 1.72305E-13
 -1      2031 2.26852E+01 6.48660E-02-1.17799E-03 1.03887E+00-1.39250E-13 1.95188E-13
 -1      2032 2.20650E+01 7.06593E-02-3.04293E-03 6.74644E-01-2.21503E-14 2.00750E-13
 -1      2033 2.23888E+01 7.08605E-02 3.10746E-03 7.21420E-01-6.68740E-14 2.96133E-13
 -1      2034 2.21473E+01 9.98470E-02-2.59257E-04 9.15223E-01-8.63888E-14 2.45204E-13
 -1      2035 2.15862E+01 6.73867E-02-2.16059E-03 5.48839E-01-2.77779E-14 1.00207E-13
 -1      2036 2.18590E+01 7.21715E-02 3.85621E-03 5.98564E-01-4.06671E-14 1.76779E-13
 -1      2037 2.16829E+01 1.05540E-01-1.17653E-05 7.65547E-01 1.48731E-14 3.09801E-13
 -1      2038 2.11958E+01 5.88982E-02-1.40998E-03 4.33680E-01 3.31005E-14 1.87093E-13
 -1      2039 2.14175E+01 6.52633E-02 3.90716E-03 4.79810E-01 1.43418E-15 9.27540E-14
 -1      2040 2.12948E+01 9.69255E-02-7.07566E-05 6.18116E-01-2.12584E-14 3.60268E-13
 -1      2041 2.08850E+01 4.89742E-02-8.49039E-04 3.35092E-01 9.83246E-14 2.60209E-14
 -1      2042 2.10603E+01 5.53812E-02 3.57975E-03 3.74967E-01 1.20635E-13 1.71558E-13
 -1      2043 2.09785E+01 8.28000E-02-2.15432E-04 4.86251E-01 1.27150E-13 8.45426E-14
 -1      2044 2.06424E+01 3.94445E-02-4.59645E-04 2.54063E-01-9.69637E-14-3.50847E-14
 -1      2045 2.07782E+01 4.52079E-02 3.08954E-03 2.87098E-01-5.71943E-14-1.13734E-14
 -1      2046 2.07263E+01 6.77500E-02-3.43134E-04 3.74624E-01 1.67128E-14-3.06126E-14
 -1      2047 2.04563E+01 3.10639E-02-2.03221E-04 1.89264E-01 6.35633E-14 2.13718E-13
 -1      2048 2.05596E+01 3.59514E-02 2.56399E-03 2.15869E-01 1.16660E-14 1.36809E-13
 -1      2049 2.05290E+01 5.38827E-02-4.20997E-04 2.83397E-01-5.29405E-14 8.04371E-14
 -1      2050 2.03162E+01 2.40410E-02-4.23888E-05 1.38481E-01 1.86086E-13 1.63699E-13
 -1      2051 2.03932E+01 2.80410E-02 2.06960E-03 1.59471E-01 1.40321E-13 3.08586E-13
 -1      2052 2.03771E+01 4.19789E-02-4.49150E-04 2.10660E-01 1.68627E-13 2.75463E-13
 -1      2053 2.02123E+01 1.83296E-02 5.27544E-05 9.93301E-02 7.00003E-14 1.41280E-13
 -1      2054 2.02689E+01 2.15260E-02 1.63550E-03 1.15618E-01 1.53395E-13 2.86809E-13
 -1      2055 2.02623E+01 3.21678E-02-4.39524E-04 1.53753E-01 1.75734E-13 6.08416E-13
 -1      2056 2.01369E+01 1.37802E-02 1.04232E-04 6.95858E-02-2.35656E-13 8.99922E-14
 -1      2057 2.01776E+01 1.62894E-02 1.27000E-03 8.20435E-02-6.12582E-14 4.35777E-14
 -1      2058 2.01771E+01 2.42901E-02-4.05726E-04 1.09932E-01 5.04244E-14 5.03176E-13
 -1      2059 2.00834E+01 1.02143E-02 1.27560E-04 4.73051E-02-6.57441E-14 2.71228E-13
 -1      2060 2.01119E+01 1.21552E-02 9.70827E-04 5.67028E-02-1.20157E-13 2.53673E-13
 -1      2061 2.01150E+01 1.80824E-02-3.59127E-04 7.66759E-02-1.67265E-13 3.86837E-13
 -1      2062 2.00464E+01 7.45799E-03 1.33345E-04 3.08562E-02-2.70768E-14 1.86128E-13
 -1      2063 2.00658E+01 8.93904E-03 7.30961E-04 3.78480E-02-1.62416E-13 1.05738E-13
 -1      2064 2.00707E+01 1.32639E-02-3.07934E-04 5.17942E-02-7.64226E-14 3.17144E-13
 -1      2065 2.00218E+01 5.35443E-03 1.28631E-04 1.89030E-02-2.31690E-13 3.13922E-13
 -1      2066 2.00345E+01 6.47003E-03 5.41758E-04 2.40293E-02-5.54850E-14 2.29807E-13
 -1      2067 2.00401E+01 9.57317E-03-2.57479E-04 3.34533E-02-1.81681E-13 6.69080E-14
 -1      2068 2.00063E+01 3.76760E-03 1.17916E-04 1.03731E-02 1.76367E-13 1.78432E-13
 -1      2069 2.00141E+01 4.59760E-03 3.94492E-04 1.40709E-02-6.43333E-14 3.24309E-13
 -1      2070 2.00197E+01 6.78096E-03-2.10856E-04 2.01534E-02 1.40372E-15 5.01231E-14
 -1      2071 1.99974E+01 2.58113E-03 1.03867E-04 4.42268E-03 4.39371E-14 3.57047E-13
 -1      2072 2.00016E+01 3.19226E-03 2.81037E-04 7.03802E-03 1.77984E-13 3.15246E-13
 -1      2073 2.00068E+01 4.69119E-03-1.69546E-04 1.06934E-02 1.02097E-13 3.54298E-13
 -1      2074 1.99931E+01 1.69565E-03 8.77047E-05 4.04138E-04 2.88155E-13 1.22149E-13
 -1      2075 1.99949E+01 2.14361E-03 1.94073E-04 2.20373E-03 1.89284E-13 2.37969E-13
 -1      2076 1.99993E+01 3.13800E-03-1.33942E-04 4.13325E-03 2.08256E-13 3.88399E-13
 -1      2077 1.99919E+01 1.02304E-03 6.95726E-05-2.16125E-03 1.23239E-13-1.34228E-13
 -1      2078 1.99921E+01 1.35609E-03 1.27249E-04-9.80370E-04 1.72438E-13-5.63859E-14
 -1      2079 1.99956E+01 1.97901E-03-1.03943E-04-2.42845E-04 2.69035E-13 1.18684E-13
 -1      2080 1.99927E+01 4.78112E-04 5.00461E-05-3.59875E-03 8.30746E-14 2.12066E-13
 -1      2081 1.99918E+01 7.41024E-04 7.56291E-05-2.90551E-03 8.82445E-14 1.41722E-13
 -1      2082 1.99945E+01 1.08576E-03-7.84324E-05-2.95394E-03 2.81765E-14 1.78172E-13
 -1      2083 1.99945E+01-2.57977E-05 3.04361E-05-4.08316E-03 1.25181E-14 1.22058E-13
 -1      2084 1.99932E+01 2.10220E-04 3.67828E-05-3.81466E-03 8.33705E-14 2.33240E-13
 -1      2085 1.99950E+01 3.31996E-04-5.48951E-05-4.33329E-03-1.35865E-14 4.05108E-13
 -1      2086 1.99967E+01-5.82210E-04 1.39449E-05-3.63222E-03 4.04227E-14 1.50416E-13
 -1      2087 1.99953E+01-3.25166E-04 1.27409E-05-3.82061E-03-3.22845E-14 1.52006E-13
 -1      2088 1.99963E+01-4.09005E-04-3.16168E-05-4.56572E-03-2.83330E-14 5.94774E-13
 -1      2089 1.99984E+01-1.15112E-03-5.47395E-06-2.62655E-03-1.14827E-13 4.62037E-13
 -1      2090 1.99972E+01-8.28075E-04 5.87787E-07-3.27348E-03-8.86666E-14 2.94683E-13
 -1      2091 1.99977E+01-1.07638E-03-2.15576E-06-4.00381E-03-1.19044E-13 7.61581E-13
 -1      2092 1.99987E+01-1.83370E-03 1.61961E-05-3.09730E-03-1.71606E-13 9.06718E-13
 -1      2093 2.00005E+01-6.51154E-03 1.36045E-06-3.35588E-03 2.84394E-13-1.31891E-13
 -1      2094 2.00003E+01-5.44806E-03 1.81600E-05-3.67725E-03 2.87177E-13 3.42409E-14
 -1      2095 2.00001E+01-5.01851E-03 3.84607E-06-3.97421E-03 1.31935E-13-1.77191E-13
 -1      2096 1.99998E+01-3.86022E-03-1.27266E-06-4.03120E-03 2.55285E-13-2.14849E-13
 -1      2097 2.00004E+01-3.57160E-03-1.76070E-05-4.51719E-03 2.16729E-13-1.28500E-14
 -1      2098 1.99995E+01-3.52058E-03 5.17015E-06-3.92759E-03 1.12503E-13-3.39242E-14
 -1      2099 1.99991E+01-2.40758E-03-1.46067E-05-3.53840E-03-1.60614E-13 4.43297E-13
 -1      2100 1.99987E+01-2.01669E-03-1.73160E-05-4.11563E-03-2.49027E-13 5.79798E-13
 -1      2101 1.99996E+01-2.86320E-03-2.33194E-05-4.73869E-03-3.00812E-14 1.30661E-13
 -1      2102 2.00005E+01-7.57583E-03 1.32094E-06-2.48246E-03 2.13681E-13-4.58854E-13
 -1      2103 2.00005E+01-6.74387E-03 3.57630E-05-2.88715E-03 3.63388E-13-2.75293E-13
 -1      2104 2.00008E+01-4.23030E-03-1.27452E-05-3.65438E-03 3.43559E-13-1.54345E-13
 -1      2105 2.00005E+01-8.25516E-03 3.40025E-06-1.57954E-03 1.53809E-13-2.99579E-14
 -1      2106 2.00005E+01-7.67456E-03 3.95098E-05-1.98144E-03 1.98180E-13-6.33638E-14
 -1      2107 2.00009E+01-4.57913E-03-6.55730E-06-2.58936E-03 3.71920E-13-3.30465E-13
 -1      2108 2.00004E+01-8.58576E-03 8.03612E-06-7.78711E-04 7.59850E-14-1.54643E-13
 -1      2109 2.00004E+01-8.26388E-03 3.51351E-05-1.13204E-03 1.40834E-13 6.59660E-14
 -1      2110 2.00008E+01-4.70297E-03 6.28697E-07-1.55716E-03 2.58064E-13-3.42072E-14
 -1      2111 2.00003E+01-8.64635E-03 1.54276E-05-8.50985E-05 7.54128E-14-5.68611E-14
 -1      2112 2.00004E+01-8.56141E-03 2.59823E-05-3.97558E-04 8.48039E-14-1.01827E-13
 -1      2113 2.00007E+01-4.70022E-03 6.52851E-06-6.65717E-04 1.25368E-13-1.24008E-13
 -1      2114 2.00003E+01-8.48567E-03 2.46439E-05 5.67184E-04-1.58603E-13-3.31129E-13
 -1      2115 2.00003E+01-8.62410E-03 1.59272E-05 2.62137E-04-4.59501E-14 5.62559E-16
 -1      2116 2.00006E+01-4.65823E-03 8.98759E-06 1.10435E-04-1.70914E-13-1.75156E-13
 -1      2117 2.00004E+01-8.10445E-03 3.31128E-05 1.26275E-03-2.13321E-13-2.99775E-13
 -1      2118 2.00004E+01-8.46923E-03 7.55003E-06 9.30042E-04-1.06055E-13-4.04541E-13
 -1      2119 2.00007E+01-4.61522E-03 7.22518E-06 8.66284E-04-2.69517E-13-3.43445E-13
 -1      2120 2.00005E+01-7.47125E-03 3.72028E-05 2.03552E-03-1.40123E-13-1.30662E-13
 -1      2121 2.00004E+01-8.06766E-03 1.90807E-06 1.67064E-03-2.69497E-13-1.47110E-13
 -1      2122 2.00007E+01-4.54753E-03 2.52679E-06 1.69281E-03-1.47701E-13-2.89089E-13
 -1      2123 2.00005E+01-6.51467E-03 3.29589E-05 2.87548E-03 5.96372E-14 6.93099E-13
 -1      2124 2.00005E+01-7.36141E-03-8.96792E-07 2.49626E-03-3.99417E-14 3.95192E-13
 -1      2125 2.00008E+01-4.38291E-03-4.99148E-06 2.63369E-03 6.68659E-14 1.35781E-13
 -1      2126 2.00003E+01-5.22891E-03 1.64656E-05 3.60509E-03-1.02494E-16 2.35411E-13
 -1      2127 2.00004E+01-6.27565E-03-1.09351E-06 3.31207E-03 2.87082E-14 2.61242E-13
 -1      2128 2.00007E+01-4.02058E-03-1.21819E-05 3.62246E-03 1.03001E-13 4.08432E-13
 -1      2129 1.99997E+01-3.72524E-03-2.44450E-05 3.97845E-03-1.13205E-13-8.23818E-14
 -1      2130 2.00001E+01-4.82959E-03 1.08502E-05 3.87993E-03-1.38356E-13 2.36958E-13
 -1      2131 2.00003E+01-3.37054E-03-6.56589E-06 4.41107E-03-8.43406E-15 1.30083E-13
 -1      2132 9.97423E+00-5.55637E+00-1.87421E-01 6.02458E+00 6.86451E-13 7.57241E-13
 -1      2133 6.48314E+00-6.91576E+00-4.00831E-01 4.91486E+00 3.90354E-13 1.03462E-12
 -1      2134 5.48533E-01-6.69017E+00-3.03504E-01 5.53140E-01 7.57866E-14 1.19338E-12
 -1      2135 5.23662E-01-6.56643E+00-2.95556E-01-1.08923E+00-1.72418E-13 1.10684E-12
 -1      2136 3.11725E+00-6.69779E+00-3.22512E-01 3.77116E+00 5.24691E-13 1.27720E-12
 -1      2137 1.21819E+00-7.46958E+00-4.36783E-01 2.27168E+00 1.20098E-13 1.07830E-12
 -1      2138 1.78354E+01-3.62402E+00-1.01844E-01 6.73499E+00 9.21374E-13 6.40599E-13
 -1      2139 1.30620E+01-5.57840E+00-3.97134E-01 5.80261E+00 8.74856E-13 6.79845E-13
 -1      2140 1.39207E+01-5.90123E+00-1.04263E-01 6.55894E+00 2.47025E-13 4.69486E-13
 -1      2141 2.81335E+01-1.32204E+00 8.25003E-02 5.33540E+00 8.09686E-13 5.15477E-13
 -1      2142 2.28827E+01-3.01902E+00-1.77656E-01 5.43023E+00 8.67695E-13 6.52645E-13
 -1      2143 1.95648E+01 4.07407E+00-2.76009E-02-1.47970E+00-2.06372E-13-5.62614E-13
 -1      2144 1.97312E+01 3.99490E+00-2.28701E-02-1.72716E+00-2.59148E-13-5.18269E-13
 -1      2145 2.00704E+01 3.29769E+00-1.36902E-02-1.67742E+00-2.86811E-13-4.56338E-13
 -1      2146 1.97147E+01 3.67992E+00-6.45614E-03-1.28724E+00-2.00682E-13-5.42920E-13
 -1      2147 3.98143E+01 5.62729E+00 3.07126E-01 1.19414E+00 8.86624E-13 3.36176E-13
 -1      2148 3.77091E+01 4.49589E+00 2.56035E-01 2.43713E+00 9.40803E-13 5.09037E-13
 -1      2149 4.06007E+01 7.27427E+00 3.19063E-01-2.15000E-01 9.91263E-13 1.42653E-13
 -1      2150 4.01400E+01 6.95498E+00 3.01341E-01 6.08707E-01 9.64062E-13 3.23908E-13
 -1      2151 3.94019E+01 6.00926E+00 3.14263E-01-1.41118E+00 8.75910E-13-1.36280E-13
 -1      2152 4.00904E+01 6.76079E+00 2.59484E-01-2.87553E-01 9.55347E-13 1.80855E-13
 -1      2153 3.49344E+01 3.02647E+00 1.28719E-01-3.31453E+00 8.61325E-13-3.71481E-13
 -1      2154 3.88280E+01 4.39808E+00 3.58318E-01-2.46325E+00 8.40772E-13-2.36922E-13
 -1      2155 2.72626E+01-1.02257E+00-1.06349E-01-4.84614E+00 4.82725E-13-6.69687E-13
 -1      2156 3.26828E+01 1.23381E+00 3.06750E-01-4.96167E+00 6.41209E-13-6.24389E-13
 -1      2157 1.88761E+01-4.83512E+00-2.07324E-01-5.85874E+00 2.50966E-13-6.41653E-13
 -1      2158 2.39017E+01-2.94186E+00 6.97862E-02-6.20292E+00 3.66762E-13-7.41018E-13
 -1      2159 9.14721E+00-6.60804E+00-3.83800E-01-5.56265E+00 4.77396E-14-8.27033E-13
 -1      2160 1.36881E+01-5.03323E+00-1.18666E-01-6.74576E+00 2.12941E-13-7.95086E-13
 -1      2161 3.25911E+00-6.93914E+00-3.56694E-01-3.73513E+00-9.20930E-14-6.36435E-13
 -1      2162 5.93134E+00-6.17940E+00-2.30119E-01-5.13175E+00 5.03486E-14-7.67997E-13
 -1      2163 2.04945E-01-7.25018E+00-3.93615E-01-1.50793E-01-2.32743E-13-7.33746E-13
 -1      2164 9.22931E-01-6.76937E+00-3.21369E-01-1.86493E+00-5.27356E-14-7.23310E-13
 -1      2165 2.43226E+00-6.05028E+00-2.06584E-01 3.55949E+00-4.13114E-13-9.30700E-13
 -1      2166 9.81618E-01-6.78169E+00-3.24425E-01 1.75597E+00-2.17368E-13-8.52873E-13
 -1      2167 7.85830E+00-5.72769E+00-2.20486E-01 5.94298E+00-7.17537E-13-1.04675E-12
 -1      2168 4.78375E+00-6.92508E+00-3.73591E-01 4.82789E+00-4.64961E-13-9.06608E-13
 -1      2169 1.59109E+01-3.79193E+00-3.78114E-02 7.04695E+00-8.03468E-13-8.98004E-13
 -1      2170 1.16116E+01-5.70007E+00-3.54108E-01 6.12472E+00-6.38933E-13-9.53640E-13
 -1      2171 2.42719E+01-1.21763E+00 1.27330E-01 6.67006E+00-1.04439E-12-8.07354E-13
 -1      2172 1.95766E+01-3.14335E+00-2.18011E-01 6.24639E+00-9.27702E-13-8.54206E-13
 -1      2173 3.17177E+01 1.67538E+00 2.76499E-01 5.25266E+00-1.07525E-12-6.28164E-13
 -1      2174 2.73114E+01 7.54384E-03-5.25453E-02 5.38557E+00-1.13809E-12-7.12208E-13
 -1      2175 3.74088E+01 4.51502E+00 3.84287E-01 3.46292E+00-1.00708E-12-4.26326E-13
 -1      2176 3.38299E+01 3.32350E+00 1.29817E-01 4.13804E+00-1.12055E-12-5.96190E-13
 -1      2177 4.00871E+01 6.57409E+00 3.40776E-01 1.20491E+00-8.00804E-13-2.15883E-13
 -1      2178 3.85656E+01 5.87926E+00 3.06610E-01 2.49073E+00-8.86291E-13-4.13947E-13
 -1      2179 3.99312E+01 7.18616E+00 3.02753E-01-5.43956E-01-8.70193E-13-8.70137E-15
 -1      2180 3.95772E+01 7.30925E+00 2.71471E-01 5.60057E-01-8.34555E-13-2.06696E-13
 -1      2181 3.84351E+01 6.14919E+00 2.65335E-01-2.10891E+00-8.47156E-13 4.75731E-14
 -1      2182 4.01433E+01 6.65080E+00 3.24435E-01-9.97011E-01-8.19955E-13-5.24303E-14
 -1      2183 3.57150E+01 8.06538E+00 3.28536E-01 1.19989E-01-8.96949E-13-1.27412E-13
 -1      2184 3.39683E+01 3.40585E+00 1.17376E-01-4.07319E+00-6.99295E-13 2.82441E-13
 -1      2185 3.75223E+01 4.63430E+00 3.75574E-01-3.33704E+00-7.84373E-13 3.19744E-14
 -1      2186 2.76515E+01 4.13244E-02-5.30572E-02-5.11248E+00-5.82617E-13 4.89386E-13
 -1      2187 3.20241E+01 1.81557E+00 2.89951E-01-5.08484E+00-5.82923E-13 4.18554E-13
 -1      2188 1.98268E+01-3.04104E+00-2.11234E-01-6.23419E+00-6.06626E-13 5.32019E-13
 -1      2189 2.44528E+01-1.33637E+00 9.95726E-02-6.50314E+00-5.93359E-13 3.52607E-13
 -1      2190 1.20653E+01-5.29027E+00-3.34788E-01-6.18254E+00-3.38396E-13 7.60988E-13
 -1      2191 1.61726E+01-3.44413E+00-3.28376E-02-7.00936E+00-5.17586E-13 8.47711E-13
 -1      2192 6.14061E+00-6.56070E+00-3.32558E-01-5.24804E+00-1.59206E-13 5.40623E-13
 -1      2193 9.20536E+00-5.24787E+00-1.21380E-01-6.32607E+00-2.61235E-13 5.77295E-13
 -1      2194 1.82458E+00-6.86392E+00-3.37619E-01-3.13052E+00-7.34968E-14 8.13627E-13
 -1      2195 3.69358E+00-6.25145E+00-2.22504E-01-4.39652E+00-2.91489E-13 7.55146E-13
 -1      2196 7.07879E+00-5.05422E+00-1.18888E-01-5.98283E+00 1.36002E-13 4.81587E-13
 -1      2197 3.61797E+01 2.76454E+00 3.46885E-01 3.55059E+00 9.00267E-13 5.09259E-13
 -1      2198 3.14735E+01 9.46112E-01-1.47697E-03 3.67451E+00 9.24150E-13 5.66436E-13
 -1      2199 2.25539E+01-4.80954E+00 5.60888E-02 5.51833E+00 4.35652E-13 3.00593E-13
 -1      2200 2.09419E+01 1.10702E+00-1.90923E-02-1.43985E+00-3.52808E-13 8.60041E-14
 -1      2201 3.50799E+01 3.16682E+00 2.76382E-01 3.83523E-01 8.55788E-13 2.44138E-13
 -1      2202 2.08396E+01 1.33827E+00-1.99837E-02-1.45659E+00-3.67033E-13-8.04808E-14
 -1      2203 6.69111E+00-5.64558E+00-1.67531E-01 5.37561E+00 8.15459E-14 1.05443E-12
 -1      2204 2.17664E+00-4.71316E+00-1.73575E-01 1.80619E+00-1.15519E-13 1.28442E-12
 -1      2205 1.99995E+01-2.79447E-03-1.60947E-05 4.06103E-03-1.54120E-13-6.50177E-14
 -1      2206 2.70319E+00-4.41605E+00-1.27318E-01-2.66265E+00-3.76366E-14 9.98535E-13
 -1      2207 3.04815E+01-1.58049E+00 1.26750E-01 2.55279E+00 5.65367E-13 8.71525E-14
 -1      2208 1.30006E+01-5.52141E+00-9.92730E-02-6.93693E+00 1.97731E-13 4.96735E-13
 -1      2209 2.02995E+01-4.61671E+00 7.61504E-03-6.37703E+00-8.46545E-14 2.38420E-13
 -1      2210 2.73893E+01-2.21850E+00 1.10251E-01-4.29650E+00-2.30066E-13 2.19824E-14
 -1      2211 3.55633E+01 5.58370E+00 3.23213E-01-5.38968E-01-6.97137E-13-3.93574E-13
 -1      2212 3.61160E+01 7.76039E+00 3.03203E-01 1.23863E-01-9.00613E-13-1.12979E-13
 -1      2213 3.55708E+01 5.27302E+00 3.35465E-01 8.24214E-01-9.07996E-13-1.56430E-13
 -1      2214 3.23990E+01 1.44420E+00 2.30701E-01 2.28485E+00-9.12248E-13-1.09801E-13
 -1      2215 2.72302E+01-2.32144E+00 1.18364E-01 4.45449E+00-7.20868E-13-3.23741E-13
 -1      2216 2.01550E+01-4.86293E+00 1.79644E-03 6.41374E+00-3.53939E-13-5.70682E-13
 -1      2217 1.21412E+01-5.75155E+00-1.19307E-01 6.99370E+00-1.77081E-13-7.99028E-13
 -1      2218 5.24560E+00-5.07554E+00-1.52587E-01 4.96572E+00-9.44800E-14-9.27425E-13
 -1      2219 1.94654E+00-4.35621E+00-1.37256E-01 1.05110E+00-1.53579E-13-8.98781E-13
 -1      2220 3.63243E+00-4.96968E+00-1.46235E-01-3.52313E+00-1.70308E-13-7.47069E-13
 -1      2221 9.77661E+00-5.66110E+00-9.25529E-02-6.26076E+00-2.45914E-13-7.72382E-13
 -1      2222 1.86226E+01-5.70381E+00 1.45874E-03-6.36899E+00-7.44960E-14-5.75970E-13
 -1      2223 2.72001E+01-3.58101E+00 3.02387E-03-4.01965E+00 1.27731E-13-3.30347E-13
 -1      2224 3.34174E+01 1.10760E+00 2.59980E-01-1.56761E+00 5.41747E-13-5.20695E-14
 -1      2225 3.58957E+01 5.33626E+00 3.39134E-01 2.46342E-01 8.46767E-13 1.13576E-13
 -1      2226 3.66644E+01 6.69979E+00 2.97601E-01-3.40604E-01 9.40248E-13 2.44194E-13
 -1      2227 3.64215E+01 7.67422E+00 2.88508E-01 1.90030E-01 9.68892E-13 3.46903E-13
 -1      2228 3.25597E+01 1.63119E+00 2.32280E-01-2.09051E+00-4.25701E-13-1.59650E-13
 -1      2229 2.04985E+01 5.62031E-01 6.67248E-03 3.98548E-01 2.82732E-13 3.84604E-13
 -1      2230 2.06988E+01 7.40848E-01 2.08449E-02 7.13736E-01 3.35612E-13 4.39507E-13
 -1      2231 1.93577E+01 3.74014E+00-1.13882E-02-4.37156E-01 1.63556E-14-5.36378E-13
 -1      2232 1.94329E+01 3.68027E+00-8.88428E-03-5.91422E-01-3.86196E-14-5.55845E-13
 -1      2233 1.95239E+01 3.56324E+00-1.33419E-02-7.26389E-01-8.38890E-14-5.49355E-13
 -1      2234 1.96350E+01 3.46450E+00-1.09973E-02-8.94718E-01-1.40812E-13-5.31403E-13
 -1      2235 1.96239E+01 3.26864E+00 1.18603E-03-5.73104E-01-5.33934E-14-5.09302E-13
 -1      2236 1.92407E+01 3.86593E+00-9.06813E-03 9.19984E-02 1.66820E-13-5.05438E-13
 -1      2237 1.92427E+01 3.86451E+00-8.68090E-03-4.75356E-02 1.26531E-13-5.23351E-13
 -1      2238 1.92937E+01 3.82022E+00-8.77962E-03 3.51076E-01 2.37992E-13-4.72911E-13
 -1      2239 1.92575E+01 3.84759E+00-9.71863E-03 2.09557E-01 1.96608E-13-4.87123E-13
 -1      2240 1.93764E+01 3.54304E+00 8.46584E-04 1.37069E-01 1.68995E-13-4.73306E-13
 -1      2241 1.94207E+01 3.69830E+00-9.33458E-03 6.17285E-01 3.07996E-13-4.29834E-13
 -1      2242 1.93471E+01 3.75663E+00-1.13758E-02 4.69848E-01 2.68621E-13-4.60741E-13
 -1      2243 1.94521E+01 3.46541E+00 1.21351E-03 3.62029E-01 2.41124E-13-4.28942E-13
 -1      2244 1.96276E+01 3.48157E+00-1.13960E-02 9.08163E-01 3.80087E-13-3.09808E-13
 -1      2245 1.95132E+01 3.58217E+00-1.36289E-02 7.45017E-01 3.31425E-13-3.73156E-13
 -1      2246 1.96085E+01 3.29528E+00 1.70707E-03 5.95377E-01 3.10811E-13-3.71970E-13
 -1      2247 1.99175E+01 3.14069E+00-1.64327E-02 1.21745E+00 4.40036E-13-1.93743E-13
 -1      2248 1.97612E+01 3.30292E+00-1.63882E-02 1.04145E+00 4.02569E-13-2.64050E-13
 -1      2249 1.98475E+01 3.01470E+00 2.96087E-03 8.39629E-01 3.66391E-13-2.60296E-13
 -1      2250 2.02995E+01 2.62163E+00-2.66170E-02 1.51365E+00 4.66814E-13 3.74006E-15
 -1      2251 2.00978E+01 2.88303E+00-1.84228E-02 1.34084E+00 4.43910E-13-1.12313E-13
 -1      2252 2.01636E+01 2.59776E+00 6.34025E-03 1.07391E+00 4.14473E-13-1.31254E-13
 -1      2253 2.03528E+01 3.53281E-01 8.49867E-03-6.53386E-02 2.12318E-13 3.13728E-13
 -1      2254 2.04275E+01 4.37733E-01 2.03475E-02 1.27549E-01 2.40275E-13 3.65508E-13
 -1      2255 2.05271E+01 7.22100E-01-3.89027E-03 3.54533E-01 2.95113E-13 2.00921E-13
 -1      2256 2.06553E+01 9.03808E-01 1.35273E-02-7.28190E-01-2.81500E-13-1.35803E-13
 -1      2257 2.04957E+01 6.89464E-01-1.77696E-03-3.96791E-01-2.42813E-13-1.39890E-13
 -1      2258 3.34166E+01 3.15475E+00-1.28905E-01-9.73821E-01 8.42271E-13 8.01581E-14
 -1      2259 3.24245E+01 1.30904E+00-5.26345E-02-5.67408E-01 6.42250E-13 1.25622E-13
 -1      2260 2.04629E+01 5.41624E-01 1.61275E-02-1.49594E-01-2.16543E-13-1.22011E-13
 -1      2261 2.03863E+01 4.27235E-01 2.37480E-03 5.14204E-02-1.86645E-13-1.35326E-13
 -1      2262 2.05065E+01 8.34657E-01-3.05143E-03-3.44313E-01-2.32040E-13-1.98422E-13
 -1      2263 2.03661E+01 3.49511E-01 1.09229E-02 2.27077E-01-1.79618E-13-1.06508E-13
 -1      2264 2.03647E+01 2.84216E-01 2.97573E-03 3.58980E-01-1.74661E-13-1.39084E-13
 -1      2265 2.04218E+01 5.30330E-01-4.89866E-03 1.13104E-01-1.80983E-13-1.89542E-13
 -1      2266 2.03749E+01 2.36936E-01 6.73274E-03 4.83510E-01-1.52911E-13-1.36818E-13
 -1      2267 2.04305E+01 1.94128E-01 2.67896E-03 5.73083E-01-1.32265E-13-1.42569E-13
 -1      2268 2.04010E+01 3.54924E-01-4.96416E-03 4.37626E-01-1.75564E-13-1.57464E-13
 -1      2269 2.04727E+01 1.58834E-01 4.31697E-03 6.61121E-01-1.19267E-13-1.41610E-13
 -1      2270 2.05688E+01 1.22773E-01 1.85624E-03 7.19819E-01-9.92757E-14-1.45498E-13
 -1      2271 2.04488E+01 2.39156E-01-4.44952E-03 6.68525E-01-1.41870E-13-1.61044E-13
 -1      2272 2.06416E+01 8.79559E-02 3.12947E-03 7.77303E-01-7.75214E-14-1.10427E-13
 -1      2273 2.07647E+01 4.76213E-02 4.07571E-04 8.07129E-01-5.54488E-14-1.36047E-13
 -1      2274 2.05602E+01 1.41944E-01-3.96219E-03 8.27885E-01-9.04082E-14-1.18692E-13
 -1      2275 2.08672E+01 4.60470E-03 2.79154E-03 8.32495E-01-4.63930E-14-1.41513E-13
 -1      2276 2.10054E+01-4.86645E-02-1.79107E-03 8.28564E-01-4.32255E-14-1.50910E-13
 -1      2277 2.07302E+01 3.50848E-02-3.73186E-03 9.21231E-01-7.15712E-14-1.22467E-13
 -1      2278 2.11377E+01-1.06443E-01 3.04207E-03 8.13692E-01-6.40787E-14-1.50556E-13
 -1      2279 2.12783E+01-1.78371E-01-4.77843E-03 7.66149E-01-7.73217E-14-1.58895E-13
 -1      2280 2.09559E+01-1.02973E-01-3.77860E-03 9.39518E-01-6.63309E-14-1.25202E-13
 -1      2281 2.14402E+01-2.53599E-01 3.56545E-03 6.97787E-01-3.53842E-14-1.55825E-13
 -1      2282 2.15685E+01-3.43711E-01-8.33322E-03 5.94781E-01-7.53954E-15-1.30815E-13
 -1      2283 2.12360E+01-2.85656E-01-3.92581E-03 8.61457E-01-6.11711E-14-1.18330E-13
 -1      2284 2.17551E+01-4.30952E-01 3.79932E-03 4.57888E-01 3.18448E-14-9.16672E-14
 -1      2285 2.18531E+01-5.26651E-01-1.16800E-02 2.91289E-01 3.75368E-14-8.80706E-14
 -1      2286 2.15660E+01-5.10165E-01-3.70196E-03 6.57944E-01 2.50341E-14-7.60561E-14
 -1      2287 2.20484E+01-6.06167E-01 2.81700E-03 7.66979E-02 8.76599E-15-3.01548E-14
 -1      2288 2.20956E+01-6.76091E-01-1.31659E-02-1.48068E-01-4.45824E-16 3.12686E-14
 -1      2289 2.19288E+01-7.42966E-01-2.23255E-03 3.02326E-01 4.30613E-14-1.85635E-14
 -1      2290 2.22644E+01-7.09378E-01-5.00256E-04-4.29216E-01-2.45557E-14 3.71856E-14
 -1      2291 2.22422E+01-7.02817E-01-1.03637E-02-6.80091E-01-1.37954E-14 5.62042E-14
 -1      2292 2.22813E+01-9.04339E-01 1.48741E-03-2.08057E-01-1.03778E-14 5.89135E-14
 -1      2293 2.23301E+01-6.38381E-01-6.51509E-03-9.77004E-01-1.36761E-14 5.66705E-14
 -1      2294 2.22314E+01-5.02659E-01-1.76195E-03-1.18544E+00 5.59162E-14 3.73876E-14
 -1      2295 2.25447E+01-8.70037E-01 7.35476E-03-8.16519E-01-1.10148E-14 8.68064E-14
 -1      2296 2.21857E+01-3.04187E-01-1.45849E-02-1.39507E+00 4.45296E-14 3.33746E-14
 -1      2297 2.20301E+01-2.67208E-02 1.09335E-02-1.46557E+00-2.97548E-15 9.01189E-15
 -1      2298 2.26181E+01-5.14835E-01 1.19859E-02-1.36963E+00 3.03680E-14 4.60146E-14
 -1      2299 2.18545E+01 2.77920E-01-1.69389E-02-1.45362E+00-7.57728E-14-2.05595E-14
 -1      2300 2.16951E+01 6.09761E-01 2.06117E-02-1.30637E+00-1.50481E-13-9.29317E-14
 -1      2301 2.24408E+01 1.69486E-01 7.62577E-03-1.61064E+00-6.29341E-14 3.53488E-14
 -1      2302 2.14883E+01 8.99725E-01-1.04456E-02-1.01093E+00-1.33827E-13-1.45185E-13
 -1      2303 2.13887E+01 1.13183E+00 1.78115E-02-6.52743E-01-1.52411E-13-1.21391E-13
 -1      2304 2.21100E+01 9.82592E-01-6.54241E-04-1.31503E+00-1.89984E-13 3.95446E-15
 -1      2305 2.13063E+01 1.24454E+00 5.27571E-03-1.44444E-01-2.03678E-13-1.70574E-13
 -1      2306 2.13177E+01 1.23029E+00 3.18169E-03 2.95812E-01-1.58706E-13-1.67931E-13
 -1      2307 2.18464E+01 1.53383E+00-1.15255E-02-4.56459E-01-1.94114E-13-1.13381E-13
 -1      2308 2.14248E+01 1.09901E+00 1.76608E-02 7.88747E-01-1.01835E-13-2.08915E-13
 -1      2309 2.15415E+01 8.56620E-01-1.23464E-02 1.13301E+00-9.49462E-14-2.05115E-13
 -1      2310 2.18692E+01 1.50488E+00-1.20261E-02 6.23055E-01-1.77643E-13-2.11212E-13
 -1      2311 2.17608E+01 5.58922E-01 1.93283E-02 1.41042E+00-9.54475E-14-2.62001E-13
 -1      2312 2.19375E+01 2.24194E-01-1.72953E-02 1.53815E+00-3.87677E-14-3.77103E-13
 -1      2313 2.21626E+01 9.24696E-01-5.66830E-04 1.43782E+00-1.21567E-13-2.24700E-13
 -1      2314 2.21091E+01-7.14283E-02 9.52074E-03 1.52437E+00 4.79181E-14-3.52983E-13
 -1      2315 2.22748E+01-3.32020E-01-1.27241E-02 1.44225E+00 1.36417E-13-3.18389E-13
 -1      2316 2.25083E+01 1.08886E-01 9.90440E-03 1.68822E+00-1.77353E-14-3.18562E-13
 -1      2317 2.23133E+01-5.14522E-01-2.72263E-03 1.22648E+00 1.76564E-13-3.14629E-13
 -1      2318 2.24204E+01-6.33627E-01-5.30440E-03 1.01749E+00 1.18514E-13-2.78807E-13
 -1      2319 2.26718E+01-5.41263E-01 1.20213E-02 1.41363E+00 1.32796E-13-2.48930E-13
 -1      2320 2.23311E+01-6.84535E-01-1.09846E-02 7.27758E-01 8.70345E-14-2.86379E-13
 -1      2321 2.23642E+01-6.79368E-01 4.64508E-04 4.85914E-01 1.22615E-13-2.67703E-13
 -1      2322 2.25932E+01-8.55060E-01 6.73419E-03 8.63963E-01 1.28603E-13-3.11195E-13
 -1      2323 2.22003E+01-6.38355E-01-1.33027E-02 2.19775E-01 5.30058E-14-3.14155E-13
 -1      2324 2.21679E+01-5.63022E-01 3.48757E-03 9.35178E-03 9.16866E-14-2.51263E-13
 -1      2325 2.23364E+01-8.60550E-01 9.86812E-04 2.79884E-01 3.46704E-14-3.66656E-13
 -1      2326 2.19821E+01-4.81326E-01-1.15544E-02-1.87649E-01 6.42936E-14-3.50103E-13
 -1      2327 2.19027E+01-3.85424E-01 4.21126E-03-3.38636E-01-2.96360E-14-2.79736E-13
 -1      2328 2.20003E+01-6.85530E-01-2.34261E-03-1.96090E-01 2.46774E-14-3.07810E-13
 -1      2329 2.17272E+01-3.00066E-01-8.18510E-03-4.59384E-01-2.85937E-14-2.35919E-13
 -1      2330 2.16201E+01-2.13449E-01 3.70958E-03-5.48566E-01 4.57435E-14-1.08789E-13
 -1      2331 2.16592E+01-4.52400E-01-3.45126E-03-5.17060E-01 3.16880E-15-3.35323E-13
 -1      2332 2.14683E+01-1.43149E-01-4.74782E-03-6.04995E-01 6.79977E-14-1.93121E-13
 -1      2333 2.13492E+01-7.78675E-02 2.80576E-03-6.43003E-01 4.83296E-14-2.17450E-13
 -1      2334 2.13511E+01-2.37338E-01-3.34981E-03-6.92512E-01-8.98045E-15-2.09008E-13
 -1      2335 2.12235E+01-2.80842E-02-1.93968E-03-6.52781E-01-4.89174E-14-1.61175E-13
 -1      2336 2.11036E+01 1.47225E-02 1.94562E-03-6.54190E-01-8.50968E-14-1.75105E-13
 -1      2337 2.10880E+01-7.25672E-02-2.81985E-03-7.54651E-01 2.67699E-14-1.04029E-13
 -1      2338 2.10013E+01 4.55639E-02 5.82907E-05-6.34035E-01-4.37756E-14-1.46220E-13
 -1      2339 2.08883E+01 6.96971E-02 1.28021E-03-6.12495E-01-5.92425E-14-4.56559E-14
 -1      2340 2.08689E+01 3.73349E-02-2.26720E-03-7.39110E-01-5.08872E-14-5.62785E-14
 -1      2341 2.08056E+01 8.58276E-02 1.31283E-03-5.75703E-01-1.54836E-13-7.56475E-14
 -1      2342 2.07037E+01 9.63927E-02 8.21195E-04-5.41997E-01-8.60281E-14-3.33450E-14
 -1      2343 2.06885E+01 1.00785E-01-1.82803E-03-6.76530E-01-9.76973E-14 1.65515E-13
 -1      2344 2.06371E+01 1.02317E-01 1.98185E-03-4.98090E-01-1.40862E-14-6.19359E-14
 -1      2345 2.05487E+01 1.03987E-01 5.26318E-04-4.59837E-01-2.97030E-14 7.85293E-14
 -1      2346 2.05406E+01 1.29980E-01-1.50877E-03-5.90105E-01-7.04114E-14 1.53274E-13
 -1      2347 2.04951E+01 1.03487E-01 2.23368E-03-4.15070E-01-1.04337E-13 2.50960E-15
 -1      2348 2.04206E+01 9.99057E-02 3.45386E-04-3.77159E-01-7.65154E-14-9.90438E-15
 -1      2349 2.04200E+01 1.36385E-01-1.27662E-03-4.95883E-01-6.95660E-14 4.62892E-14
 -1      2350 2.03778E+01 9.57915E-02 2.21387E-03-3.35273E-01-1.06881E-13 7.02967E-14
 -1      2351 2.03167E+01 8.95384E-02 2.37210E-04-3.00518E-01-1.01965E-13 1.05058E-13
 -1      2352 2.03222E+01 1.29089E-01-1.09736E-03-4.04058E-01-9.03990E-14-7.71891E-14
 -1      2353 2.02828E+01 8.37315E-02 2.03477E-03-2.63460E-01-1.03389E-13 9.66985E-14
 -1      2354 2.02338E+01 7.64965E-02 1.72826E-04-2.33220E-01-9.25713E-15 8.81971E-14
 -1      2355 2.02437E+01 1.14611E-01-9.47305E-04-3.20453E-01-1.04015E-13 1.84888E-13
 -1      2356 2.02072E+01 7.02201E-02 1.77644E-03-2.01741E-01 2.87598E-14 1.24694E-13
 -1      2357 2.01688E+01 6.30309E-02 1.33655E-04-1.76428E-01 9.10712E-14 1.76890E-13
 -1      2358 2.01813E+01 9.72766E-02-8.13644E-04-2.47838E-01-1.92044E-14 2.72890E-13
 -1      2359 2.01482E+01 5.70047E-02 1.49210E-03-1.50530E-01 9.39949E-14 2.14416E-13
 -1      2360 2.01189E+01 5.04276E-02 1.08522E-04-1.29987E-01 1.29796E-13 2.33878E-13
 -1      2361 2.01324E+01 7.97559E-02-6.91127E-04-1.86988E-01 1.22848E-13 4.28747E-13
 -1      2362 2.01032E+01 4.50292E-02 1.21459E-03-1.09245E-01 1.50392E-13 1.32414E-13
 -1      2363 2.00812E+01 3.93269E-02 9.10198E-05-9.30048E-02 1.66667E-13 1.48206E-13
 -1      2364 2.00947E+01 6.35512E-02-5.78598E-04-1.37459E-01 9.02474E-14 2.82238E-13
 -1      2365 2.00695E+01 3.47131E-02 9.62227E-04-7.67822E-02 2.38753E-13 1.12680E-13
 -1      2366 2.00535E+01 2.99582E-02 7.75884E-05-6.42451E-02 1.59630E-13 1.16974E-13
 -1      2367 2.00660E+01 4.93878E-02-4.76547E-04-9.81441E-02 1.12361E-13 9.24937E-14
 -1      2368 2.00449E+01 2.61505E-02 7.43524E-04-5.18358E-02-2.28713E-14 1.85144E-13
 -1      2369 2.00336E+01 2.23039E-02 6.62406E-05-4.23739E-02-6.76446E-14 2.46414E-13
 -1      2370 2.00447E+01 3.74988E-02-3.85725E-04-6.76386E-02 9.75006E-14 2.10266E-13
 -1      2371 2.00274E+01 1.92462E-02 5.60737E-04-3.30884E-02 2.26327E-14 3.57262E-13
 -1      2372 2.00197E+01 1.62087E-02 5.57607E-05-2.61114E-02 1.64858E-13 4.14270E-13
 -1      2373 2.00291E+01 2.78234E-02-3.06482E-04-4.44802E-02 7.74675E-14 4.11733E-13
 -1      2374 2.00154E+01 1.38043E-02 4.12384E-04-1.93258E-02 1.38385E-13 3.89150E-13
 -1      2375 2.00105E+01 1.14483E-02 4.52414E-05-1.43149E-02 2.56877E-13 3.48589E-13
 -1      2376 2.00181E+01 2.01387E-02-2.38639E-04-2.72894E-02 1.29014E-13 3.88000E-13
 -1      2377 2.00076E+01 9.58274E-03 2.95109E-04-9.49583E-03 3.69615E-13 2.42738E-13
 -1      2378 2.00046E+01 7.77097E-03 3.39571E-05-6.01993E-03 3.71401E-13 3.00385E-13
 -1      2379 2.00106E+01 1.41424E-02-1.81554E-04-1.48481E-02 2.21370E-13 1.03596E-13
 -1      2380 2.00028E+01 6.32418E-03 2.04789E-04-2.73281E-03 2.09171E-13 3.20464E-13
 -1      2381 2.00012E+01 4.91759E-03 2.07607E-05-4.52778E-04 3.54226E-14 3.51484E-13
 -1      2382 2.00056E+01 9.50271E-03-1.34083E-04-6.13504E-03 2.59326E-13 8.22399E-14
 -1      2383 2.00001E+01 3.76621E-03 1.37097E-04 1.63545E-03 8.62184E-15 4.02480E-13
 -1      2384 1.99995E+01 2.63376E-03 8.45291E-06 2.96306E-03-4.10951E-14 3.75783E-13
 -1      2385 2.00025E+01 5.87605E-03-9.60501E-05-3.35132E-04-1.03929E-15 4.08683E-13
 -1      2386 1.99990E+01 1.62977E-03 8.02749E-05 4.09963E-03-2.29215E-13 2.29676E-13
 -1      2387 1.99989E+01 6.89281E-04 6.77073E-06 4.61918E-03-2.06837E-13 1.62415E-13
 -1      2388 2.00007E+01 2.94938E-03-6.34087E-05 3.16090E-03-2.54467E-13 3.05862E-13
 -1      2389 2.04784E+01 2.16292E-01 7.38760E-03-6.40041E-01 1.05403E-13 2.32087E-13
 -1      2390 2.03709E+01 2.32549E-01 7.53442E-03-5.32610E-01 1.51145E-13 2.71204E-13
 -1      2391 2.07100E+01 2.00944E-01 7.22112E-03-8.56746E-01 9.44377E-14 1.65288E-13
 -1      2392 2.05404E+01 2.06198E-01 4.45650E-03-7.61162E-01 8.13381E-14 1.93594E-13
 -1      2393 2.04864E+01 2.98125E-01-4.84856E-03-7.87911E-01 1.35764E-13 1.09177E-13
 -1      2394 2.10311E+01 1.93207E-01 6.82778E-03-1.05676E+00 1.19066E-13 1.56095E-13
 -1      2395 2.08094E+01 1.96613E-01 2.71554E-03-9.67093E-01 1.18682E-13 1.62996E-13
 -1      2396 2.06506E+01 2.77560E-01-4.19669E-03-1.04010E+00 1.22134E-13 7.52690E-14
 -1      2397 2.14314E+01 1.73880E-01 5.60640E-03-1.24107E+00 1.04776E-13 1.49167E-13
 -1      2398 2.11652E+01 1.85933E-01 1.79749E-03-1.15986E+00 1.18027E-13 1.64909E-13
 -1      2399 2.08863E+01 2.61813E-01-3.83413E-03-1.27234E+00 1.10788E-13 5.24671E-14
 -1      2400 2.19036E+01 1.17172E-01 2.81803E-03-1.39124E+00 2.89478E-14 1.70513E-13
 -1      2401 2.16013E+01 1.52425E-01 1.54917E-03-1.33130E+00 6.63151E-14 1.63893E-13
 -1      2402 2.11900E+01 2.21910E-01-4.12116E-03-1.48330E+00 7.75420E-14 1.02752E-13
 -1      2403 2.24424E+01-1.21473E-02-2.34094E-03-1.46341E+00 3.03760E-14 1.62541E-13
 -1      2404 2.21172E+01 6.58433E-02 2.10329E-03-1.45103E+00 3.24155E-14 1.60722E-13
 -1      2405 2.15676E+01 1.19034E-01-5.49926E-03-1.65030E+00 4.28101E-14 1.02839E-13
 -1      2406 2.30431E+01-2.53773E-01-1.03221E-02-1.38220E+00 8.95291E-15 1.49296E-13
 -1      2407 2.27162E+01-1.12725E-01 3.75726E-03-1.45912E+00 2.85893E-14 1.48978E-13
 -1      2408 2.20390E+01-9.73003E-02-8.44068E-03-1.72260E+00 4.20250E-14 6.72583E-14
 -1      2409 2.36943E+01-6.28029E-01-2.05762E-02-1.04383E+00-4.10783E-14 1.85000E-13
 -1      2410 2.34000E+01-4.18519E-01 6.64232E-03-1.26141E+00-2.84764E-14 1.58594E-13
 -1      2411 2.26397E+01-4.76635E-01-1.28272E-02-1.61434E+00-3.74982E-14 1.07095E-13
 -1      2412 2.43605E+01-1.06973E+00-2.83811E-02-3.43336E-01-6.06511E-14 2.92562E-13
 -1      2413 2.41517E+01-8.43532E-01 9.74345E-03-7.38844E-01-5.79051E-14 2.59592E-13
 -1      2414 2.34121E+01-1.02618E+00-1.70104E-02-1.20554E+00-1.08854E-13 1.95242E-13
 -1      2415 2.49366E+01-1.34915E+00-2.90333E-02 7.22479E-01-5.03833E-14 3.92110E-13
 -1      2416 2.48810E+01-1.24836E+00 8.24019E-03 1.86388E-01-8.22866E-15 3.70120E-13
 -1      2417 2.43575E+01-1.60130E+00-1.48782E-02-3.68746E-01-1.07389E-13 2.14244E-13
 -1      2418 2.52410E+01-1.03639E+00-1.19793E-02 1.91056E+00-2.09451E-14 3.54379E-13
 -1      2419 2.53820E+01-1.30635E+00-1.14196E-02 1.41301E+00-9.10660E-14 3.92817E-13
 -1      2420 2.53416E+01-1.81319E+00-5.38780E-03 8.86861E-01-8.47738E-14 2.55758E-13
 -1      2421 2.50415E+01 1.70728E-01 4.07405E-03 2.50051E+00 2.72494E-13 4.07289E-13
 -1      2422 2.53346E+01-5.43521E-01-5.32240E-02 2.41301E+00 1.24080E-13 3.91543E-13
 -1      2423 2.59719E+01-1.03427E+00-3.23550E-03 2.24997E+00 3.92290E-14 2.98742E-13
 -1      2424 2.44481E+01 1.71818E+00-2.93863E-02 1.82585E+00 2.97193E-13 4.25683E-13
 -1      2425 2.47883E+01 9.38291E-01-8.68419E-02 2.34468E+00 3.05613E-13 4.56126E-13
 -1      2426 2.59704E+01 6.36574E-01-1.41317E-02 2.70684E+00 2.23002E-13 4.58206E-13
 -1      2427 2.42260E+01 2.37627E+00-4.30782E-02-1.87311E-01 2.96346E-13 1.63140E-13
 -1      2428 2.42797E+01 2.28168E+00-4.83730E-02 7.53839E-01 2.90386E-13 2.77117E-13
 -1      2429 2.55264E+01 2.71103E+00-4.78901E-02 1.46976E+00 3.45529E-13 2.41963E-13
 -1      2430 2.46062E+01 1.45714E+00-8.09510E-02-2.06653E+00 2.62998E-13-1.83048E-13
 -1      2431 2.43758E+01 2.10633E+00-6.54997E-03-1.34074E+00 3.06172E-13-6.61415E-14
 -1      2432 2.55091E+01 3.01691E+00-7.09034E-02-8.74780E-01 3.92346E-13-1.95893E-13
 -1      2433 2.52770E+01-1.39823E-01-5.96072E-02-2.60803E+00 3.48185E-13-4.39076E-13
 -1      2434 2.49286E+01 6.46061E-01 1.13074E-03-2.52623E+00 3.24116E-13-2.82315E-13
 -1      2435 2.58553E+01 1.40823E+00-6.30782E-02-2.60758E+00 3.73535E-13-4.41994E-13
 -1      2436 2.55207E+01-1.15957E+00-1.79170E-02-1.84717E+00 1.97922E-13-3.99738E-13
 -1      2437 2.52908E+01-7.64955E-01-1.09737E-02-2.25281E+00 2.72677E-13-3.67999E-13
 -1      2438 2.61124E+01-5.81389E-01-4.27060E-05-2.58002E+00 2.67703E-13-4.43329E-13
 -1      2439 2.51854E+01-1.30884E+00 4.76773E-03-6.27486E-01 2.05313E-14-2.10356E-13
 -1      2440 2.51607E+01-1.32579E+00-2.72472E-02-1.16209E+00 1.54638E-13-2.72133E-13
 -1      2441 2.56576E+01-1.68948E+00-1.22928E-03-1.39875E+00 1.34441E-13-2.16850E-13
 -1      2442 2.45312E+01-9.63087E-01 1.06861E-02 4.03548E-01-1.23659E-13-2.05014E-13
 -1      2443 2.46787E+01-1.17107E+00-2.97303E-02-2.54752E-02-3.66894E-14-1.74901E-13
 -1      2444 2.47577E+01-1.70729E+00-1.23280E-02-6.81004E-02 6.72379E-15-3.25717E-14
 -1      2445 2.38085E+01-5.19906E-01 8.13545E-03 1.03185E+00-1.74371E-13-7.01678E-14
 -1      2446 2.40600E+01-7.39300E-01-2.20133E-02 7.77269E-01-1.63319E-13-1.97263E-13
 -1      2447 2.38043E+01-1.18548E+00-1.66659E-02 8.90447E-01-1.05522E-13-9.09407E-14
 -1      2448 2.31408E+01-1.72661E-01 4.67251E-03 1.30057E+00-5.59461E-14-7.73500E-14
 -1      2449 2.34363E+01-3.31152E-01-1.21214E-02 1.19695E+00-1.36008E-13-4.44701E-14
 -1      2450 2.30027E+01-6.00219E-01-1.36263E-02 1.39898E+00-1.68342E-13-4.95651E-14
 -1      2451 2.25598E+01 4.09805E-02 2.37075E-03 1.32782E+00-1.01597E-13 3.31740E-14
 -1      2452 2.28596E+01-5.08431E-02-4.05612E-03 1.32494E+00-6.44576E-14-3.69886E-15
 -1      2453 2.23831E+01-1.64439E-01-8.87043E-03 1.56514E+00-7.88922E-14 5.27508E-15
 -1      2454 2.20639E+01 1.47342E-01 1.22069E-03 1.22083E+00-1.79260E-13-2.60415E-15
 -1      2455 2.23446E+01 1.04956E-01 1.24065E-03 1.27305E+00-9.04808E-14 4.30355E-14
 -1      2456 2.19066E+01 9.48576E-02-5.20917E-03 1.51938E+00-1.04376E-13-3.55253E-14
 -1      2457 2.16444E+01 1.84828E-01 7.94642E-04 1.05455E+00-7.53397E-14 5.59791E-14
 -1      2458 2.18937E+01 1.72717E-01 4.14062E-03 1.13005E+00-1.46312E-13 6.48851E-14
 -1      2459 2.15302E+01 2.18939E-01-3.07825E-03 1.36329E+00-2.16124E-13-9.77313E-14
 -1      2460 2.12927E+01 1.84255E-01 6.89914E-04 8.74112E-01-1.17764E-13 3.31072E-13
 -1      2461 2.15059E+01 1.88200E-01 5.35189E-03 9.53911E-01-9.41833E-14 1.73925E-13
 -1      2462 2.12241E+01 2.58210E-01-2.03619E-03 1.16350E+00-2.18684E-13-1.10741E-13
 -1      2463 2.10017E+01 1.65694E-01 6.86317E-04 7.03453E-01 9.96336E-14 1.78769E-13
 -1      2464 2.11785E+01 1.76806E-01 5.51396E-03 7.77723E-01 3.55321E-14 3.32597E-13
 -1      2465 2.09708E+01 2.51479E-01-1.59164E-03 9.58981E-01-1.26339E-13 3.87668E-14
 -1      2466 2.07642E+01 1.40677E-01 6.88303E-04 5.53328E-01 2.15487E-13 4.28412E-14
 -1      2467 2.09075E+01 1.53992E-01 5.10798E-03 6.17885E-01 1.98690E-13 1.89054E-13
 -1      2468 2.07607E+01 2.23562E-01-1.40540E-03 7.70029E-01 1.82613E-13-3.42066E-14
 -1      2469 2.05735E+01 1.15190E-01 6.66153E-04 4.26994E-01-7.49461E-14 1.56026E-13
 -1      2470 2.06872E+01 1.28204E-01 4.44878E-03 4.80792E-01 9.63265E-14 1.74493E-13
 -1      2471 2.05877E+01 1.88574E-01-1.29805E-03 6.05428E-01 9.19373E-14 1.10672E-13
 -1      2472 2.04228E+01 9.19840E-02 6.18505E-04 3.23823E-01 8.60069E-14 6.91100E-14
 -1      2473 2.05114E+01 1.03595E-01 3.72224E-03 3.67391E-01-7.49189E-14 8.83750E-14
 -1      2474 2.04468E+01 1.53769E-01-1.19491E-03 4.67405E-01-5.80481E-14 2.49257E-13
 -1      2475 2.03056E+01 7.20668E-02 5.53373E-04 2.41413E-01 1.03468E-13 3.48620E-13
 -1      2476 2.03734E+01 8.19177E-02 3.02726E-03 2.75956E-01 1.01746E-13 1.62905E-13
 -1      2477 2.03339E+01 1.22426E-01-1.07550E-03 3.54755E-01 5.35692E-14 1.11370E-13
 -1      2478 2.02159E+01 5.55728E-02 4.79952E-04 1.76744E-01 1.34199E-13 5.01049E-13
 -1      2479 2.02669E+01 6.36700E-02 2.40931E-03 2.03665E-01 1.11085E-13 4.36138E-13
 -1      2480 2.02448E+01 9.56867E-02-9.42175E-04 2.64700E-01 7.15422E-14 1.86518E-13
 -1      2481 2.01485E+01 4.22396E-02 4.05672E-04 1.26772E-01 5.78232E-15 4.92212E-13
 -1      2482 2.01862E+01 4.87500E-02 1.88355E-03 1.47441E-01 2.02700E-13 5.60725E-13
 -1      2483 2.01758E+01 7.36257E-02-8.04056E-04 1.93933E-01 1.49058E-13 2.14275E-13
 -1      2484 2.00988E+01 3.16551E-02 3.35554E-04 8.87107E-02-1.57749E-13 4.28877E-13
 -1      2485 2.01261E+01 3.68009E-02 1.44922E-03 1.04353E-01-1.88532E-13 4.01407E-13
 -1      2486 2.01231E+01 5.58403E-02-6.70028E-04 1.39166E-01 5.85965E-14 2.99010E-13
 -1      2487 2.00629E+01 2.33778E-02 2.72447E-04 6.01332E-02-7.24354E-14 1.53626E-13
 -1      2488 2.00822E+01 2.73863E-02 1.09807E-03 7.18031E-02 4.19036E-14 3.02030E-13
 -1      2489 2.00838E+01 4.17523E-02-5.46435E-04 9.73897E-02-5.21293E-15 1.47507E-13
 -1      2490 2.00377E+01 1.69908E-02 2.17494E-04 3.89965E-02-2.10665E-13 1.11779E-13
 -1      2491 2.00509E+01 2.00725E-02 8.19006E-04 4.75705E-02-2.37742E-13 1.62306E-13
 -1      2492 2.00550E+01 3.07567E-02-4.36852E-04 6.59826E-02-1.53675E-13 2.38408E-13
 -1      2493 2.00206E+01 1.21217E-02 1.70571E-04 2.36212E-02-1.32795E-13 3.13188E-13
 -1      2494 2.00293E+01 1.44631E-02 6.00462E-04 2.98129E-02-1.35284E-13 1.61131E-13
 -1      2495 2.00345E+01 2.22871E-02-3.42635E-04 4.27297E-02-1.82407E-13 2.33386E-13
 -1      2496 2.00095E+01 8.44605E-03 1.30666E-04 1.26568E-02 9.74950E-14 2.69808E-13
 -1      2497 2.00149E+01 1.02089E-02 4.31589E-04 1.70344E-02 6.93218E-14 2.79154E-13
 -1      2498 2.00202E+01 1.58386E-02-2.63580E-04 2.58063E-02-7.98945E-14 4.29159E-13
 -1      2499 2.00028E+01 5.68454E-03 9.63193E-05 5.04344E-03 3.01365E-13 2.65128E-13
 -1      2500 2.00058E+01 7.00773E-03 3.02666E-04 8.04787E-03 2.04718E-13 2.39755E-13
 -1      2501 2.00107E+01 1.09720E-02-1.98430E-04 1.37439E-02 6.90706E-14 8.13700E-14
 -1      2502 1.99991E+01 3.59553E-03 6.54330E-05-2.65787E-05 1.98706E-13 1.98312E-13
 -1      2503 2.00005E+01 4.60032E-03 2.05197E-04 1.93538E-03 2.76225E-13 3.61609E-13
 -1      2504 2.00047E+01 7.31008E-03-1.45321E-04 5.39072E-03 2.67065E-13 2.57411E-13
 -1      2505 1.99976E+01 1.96100E-03 3.91103E-05-3.13813E-03-9.81300E-14 3.95767E-13
 -1      2506 1.99979E+01 2.75637E-03 1.32294E-04-1.98863E-03-5.58445E-15 3.57588E-13
 -1      2507 2.00013E+01 4.52142E-03-1.02919E-04-1.32700E-04 4.13252E-14 5.26840E-13
 -1      2508 1.99975E+01 5.54280E-04 1.25522E-05-4.68457E-03-1.24896E-13 5.59374E-13
 -1      2509 1.99971E+01 1.25009E-03 7.54146E-05-4.21071E-03-9.70595E-14 4.61641E-13
 -1      2510 1.99995E+01 2.32207E-03-6.65786E-05-3.45995E-03-1.73996E-13 5.92107E-13
 -1      2511 1.99980E+01-7.89593E-04-1.45487E-05-4.86539E-03-1.60231E-13 5.54411E-13
 -1      2512 1.99974E+01-9.58485E-05 4.45869E-05-4.98419E-03-1.06320E-13 4.46328E-13
 -1      2513 1.99989E+01 3.19837E-04-4.80033E-05-5.05496E-03-3.61839E-14 3.45341E-13
 -1      2514 1.99982E+01-1.50885E-03 1.68301E-05-4.46849E-03-2.04302E-13 4.98742E-13
 -1      2515 2.00014E+01-1.63385E-03-1.66676E-05-2.15489E-03 4.92606E-13-1.81204E-13
 -1      2516 2.00015E+01-1.49033E-03 3.20386E-05-2.69780E-03 4.62255E-13-5.23806E-13
 -1      2517 2.00012E+01-1.20178E-03-1.64887E-05-1.15288E-03 2.39155E-13-1.06313E-13
 -1      2518 2.00013E+01-1.14294E-03 2.83953E-05-1.62677E-03 3.30005E-13 3.58529E-14
 -1      2519 2.00018E+01 1.92911E-03 1.91865E-05-1.71496E-03 4.79629E-13-2.07041E-13
 -1      2520 2.00010E+01-2.10721E-03 2.03456E-06-4.40269E-03 2.62550E-13 1.54001E-13
 -1      2521 2.00005E+01-1.69760E-03-1.21882E-06-4.73857E-03 1.51075E-13 6.89718E-14
 -1      2522 2.00014E+01-1.98709E-03-1.07248E-05-3.30981E-03 2.73984E-13-3.27352E-13
 -1      2523 2.00013E+01-1.72725E-03 2.61554E-05-3.82259E-03 2.27170E-13-1.36455E-14
 -1      2524 2.00016E+01 7.71458E-05 8.63984E-07-4.07935E-03 2.36371E-13 4.56671E-14
 -1      2525 2.00019E+01 9.57866E-04 6.04468E-06-2.86508E-03 4.40673E-13-3.86011E-13
 -1      2526 2.00010E+01-8.49340E-04-9.48942E-06-3.58751E-04 8.86042E-14-2.74468E-13
 -1      2527 2.00011E+01-8.41394E-04 1.77797E-05-7.51302E-04 1.40270E-13-1.88556E-13
 -1      2528 2.00015E+01 2.75404E-03 3.07714E-05-8.04471E-04 2.31508E-13-2.81857E-13
 -1      2529 2.00009E+01-6.85901E-04 2.29631E-06 3.03560E-04-2.28873E-13-3.20669E-13
 -1      2530 2.00009E+01-7.05232E-04 4.03313E-06-4.81284E-05-9.11974E-14-2.86969E-13
 -1      2531 2.00013E+01 3.23926E-03 3.73624E-05-1.35899E-04-1.45458E-14-4.41556E-13
 -1      2532 2.00010E+01-7.48557E-04 1.55113E-05 9.73139E-04-1.62661E-13-2.07792E-13
 -1      2533 2.00009E+01-7.90738E-04-8.39575E-06 6.01445E-04-3.18607E-13-2.12962E-13
 -1      2534 2.00013E+01 3.27576E-03 3.74755E-05 4.19231E-04-9.54743E-14-2.99925E-13
 -1      2535 2.00012E+01-9.84584E-04 2.61570E-05 1.76002E-03-9.70914E-14-1.74444E-13
 -1      2536 2.00011E+01-1.07022E-03-1.64762E-05 1.33294E-03-6.06045E-14-3.20196E-13
 -1      2537 2.00014E+01 2.86424E-03 3.22416E-05 1.03036E-03-1.06170E-13-1.60274E-13
 -1      2538 2.00013E+01-1.29871E-03 2.87762E-05 2.73166E-03 5.07324E-14 2.15779E-13
 -1      2539 2.00013E+01-1.45193E-03-1.77328E-05 2.23635E-03 2.30172E-14-8.59134E-15
 -1      2540 2.00017E+01 2.09889E-03 2.07344E-05 1.84092E-03-5.68902E-15-1.58970E-13
 -1      2541 2.00012E+01-1.55262E-03 1.59171E-05 3.77065E-03-4.92415E-14 3.18166E-13
 -1      2542 2.00013E+01-1.78569E-03-8.70173E-06 3.28705E-03-6.77338E-14 5.11292E-13
 -1      2543 2.00018E+01 1.16802E-03 1.30085E-05 2.89230E-03-6.00890E-14 2.44744E-13
 -1      2544 2.00005E+01-1.55509E-03 1.72323E-06 4.58239E-03-2.36238E-13 1.03340E-13
 -1      2545 2.00009E+01-1.91231E-03-1.71236E-06 4.29081E-03-1.30732E-13 3.02488E-14
 -1      2546 2.00014E+01 2.59399E-04-1.49320E-05 3.98312E-03-2.11495E-13 1.38170E-13
 -1      2547 4.60589E+00-3.21557E+00 7.77468E-02 3.39213E+00-1.02945E-13 1.29990E-12
 -1      2548 3.69742E+00-2.45118E+00 1.12076E-01 1.23923E+00-1.25761E-13 1.11811E-12
 -1      2549 1.00108E+01-4.45157E+00 3.53621E-02 6.28533E+00-1.94816E-13 7.06268E-13
 -1      2550 6.67185E+00-3.98441E+00 5.34642E-02 4.84403E+00-1.75082E-13 1.03301E-12
 -1      2551 7.72532E+00-2.46019E+00 1.49906E-01 4.23376E+00-3.04770E-13 1.03612E-12
 -1      2552 3.70340E+00-2.43709E+00 1.09126E-01-1.65934E+00-6.66134E-16 9.75831E-13
 -1      2553 5.05578E+00-2.92794E+00 9.59560E-02-4.04399E+00 9.43134E-14 7.30249E-13
 -1      2554 2.03523E+01 2.57797E-01 7.81440E-03-3.88767E-01 1.65466E-13 2.70549E-13
 -1      2555 2.03229E+01 2.97047E-01 1.27962E-02-2.54093E-01 1.74175E-13 2.98885E-13
 -1      2556 2.04039E+01 3.49760E-01-5.39838E-03-4.99040E-01 1.73021E-13 1.56803E-13
 -1      2557 1.99991E+01-1.95322E-03 2.44500E-05 4.69523E-03-2.38103E-13-3.06865E-14
 -1      2558 1.73623E+01-5.66511E+00-3.11031E-02 6.65055E+00 1.04972E-13 1.99084E-13
 -1      2559 1.39915E+01-5.41400E+00 4.24979E-02 6.51263E+00-1.06526E-13 3.41255E-13
 -1      2560 3.12028E+01-1.30191E+00-1.04714E-01 6.85673E-01 4.67633E-13 6.49480E-14
 -1      2561 2.85173E+01-3.31640E+00 1.19961E-03 1.91666E+00 3.24879E-13-3.69704E-14
 -1      2562 1.32376E+01-5.00266E+00 6.31613E-02-6.94311E+00 3.75561E-13 3.12583E-13
 -1      2563 1.64901E+01-5.28328E+00 1.30429E-02-7.07520E+00 2.92322E-13 3.97678E-13
 -1      2564 3.23848E+01 7.52520E+00-1.55239E-01-3.97532E-01-8.92231E-13-1.02453E-13
 -1      2565 3.30784E+01 6.71507E+00-6.29862E-02-5.36444E-01-8.19012E-13-7.20535E-14
 -1      2566 1.92628E+01 3.83896E+00-9.97037E-03-1.67000E-01 1.05775E-13-5.30397E-13
 -1      2567 1.93020E+01 3.80958E+00-8.32140E-03-3.11061E-01 5.00329E-14-5.32940E-13
 -1      2568 1.94647E+01 3.44580E+00 7.24895E-04-3.24084E-01 3.63475E-14-4.95988E-13
 -1      2569 1.93811E+01 3.53604E+00 6.79648E-04-8.92732E-02 1.14321E-13-4.99696E-13
 -1      2570 3.28485E+01 6.71351E+00-1.18018E-01 8.31605E-01 9.37139E-13 2.64094E-13
 -1      2571 3.31332E+01 7.12131E+00-1.29886E-01-6.23541E-02 9.70557E-13 2.21156E-13
 -1      2572 3.01055E+01-2.06029E-01-7.16886E-02-9.93593E-01-2.29004E-13-4.31932E-13
 -1      2573 3.17405E+01 1.62406E+00-1.02339E-01-3.34893E-01-3.57214E-13-5.25358E-13
 -1      2574 3.33702E+01 6.56822E+00-1.58070E-01-9.47529E-01 8.79574E-13 1.84144E-13
 -1      2575 3.35507E+01 5.24169E+00-5.89738E-02-1.24522E+00 9.12881E-13 2.10831E-13
 -1      2576 3.28969E+01 3.14520E+00-9.49040E-02 1.29673E+00 6.91336E-13 2.64899E-13
 -1      2577 3.28495E+01 4.93473E+00-1.84165E-01 1.31596E+00 8.27116E-13 3.04423E-13
 -1      2578 3.08565E+01-1.16868E+00-7.46358E-02-6.92720E-01 2.52708E-13 1.26732E-13
 -1      2579 3.25248E+01 1.06958E+00-8.59984E-02 2.99447E-01 4.93341E-13 2.37421E-13
 -1      2580 2.59389E+01-4.74991E+00-2.14789E-02-3.56334E+00-9.78106E-14-8.24896E-14
 -1      2581 2.92295E+01-3.08751E+00-4.66739E-02-2.34784E+00 7.54674E-14-1.03251E-14
 -1      2582 1.71295E+01-5.70985E+00 4.11568E-02-6.35309E+00-2.99538E-13-5.23574E-13
 -1      2583 2.16498E+01-5.66723E+00-6.10953E-02-5.62973E+00-2.20768E-13-3.11362E-13
 -1      2584 9.55641E+00-4.55939E+00 7.20765E-02-6.01032E+00-3.13721E-13-6.78513E-13
 -1      2585 1.28674E+01-5.22666E+00-2.09405E-02-6.86530E+00-3.15414E-13-6.98608E-13
 -1      2586 4.08781E+00-3.03183E+00 7.48342E-02-2.43374E+00-2.03407E-13-6.69353E-13
 -1      2587 6.30879E+00-3.37989E+00 6.30997E-02-4.67849E+00-2.10998E-13-6.48315E-13
 -1      2588 3.97135E+00-2.31093E+00 9.84117E-02 1.76255E+00-7.43780E-14-8.74190E-13
 -1      2589 3.43890E+00-2.65569E+00 1.03388E-01-5.62719E-01-7.92352E-14-7.87315E-13
 -1      2590 5.84214E+00-1.56378E+00 1.73210E-01-1.63508E+00-1.60538E-13-7.07379E-13
 -1      2591 8.88605E+00-4.08040E+00 8.59193E-02 6.31509E+00 8.40994E-14-6.92668E-13
 -1      2592 6.28563E+00-3.05516E+00 1.27223E-01 4.66249E+00 8.72635E-14-7.57172E-13
 -1      2593 1.52286E+01-5.12727E+00 6.43165E-03 7.19236E+00 1.40721E-13-5.56777E-13
 -1      2594 1.16145E+01-4.89671E+00 5.12839E-02 6.75723E+00 1.50768E-13-6.12954E-13
 -1      2595 1.20877E+01-3.74116E+00 1.23312E-01 6.42642E+00 3.36786E-13-5.00905E-13
 -1      2596 2.28939E+01-4.88811E+00-3.47362E-02 5.69359E+00-1.69309E-13-2.82441E-13
 -1      2597 1.93123E+01-5.45956E+00 2.00377E-02 6.31398E+00 1.36280E-14-3.85358E-13
 -1      2598 2.84027E+01-2.54072E+00-7.05262E-02 2.86865E+00-5.55708E-13 1.88904E-13
 -1      2599 2.57523E+01-3.94122E+00-2.13053E-02 3.93781E+00-3.32012E-13-8.07965E-14
 -1      2600 3.17204E+01 1.42134E+00-7.89274E-02 5.03640E-01-7.84997E-13 9.98646E-14
 -1      2601 3.00073E+01-4.89236E-01-6.26655E-02 1.23030E+00-6.80591E-13 1.49714E-13
 -1      2602 3.30887E+01 5.21164E+00-1.09423E-01-4.97511E-01-8.06410E-13-2.48690E-14
 -1      2603 3.23553E+01 3.60716E+00-7.99234E-02-1.93132E-01-8.14321E-13 7.21645E-15
 -1      2604 3.18422E+01 6.78526E+00-1.38660E-01 7.78077E-01-7.16760E-13-3.62405E-13
 -1      2605 3.15106E+01 7.31002E+00-1.92760E-01 4.05889E-01-8.15070E-13-2.84151E-13
 -1      2606 3.20107E+01 3.77591E+00-9.49529E-02 5.05746E-01-4.70207E-13-5.07427E-13
 -1      2607 3.23144E+01 5.53720E+00-1.72532E-01 9.09552E-01-6.13620E-13-4.63324E-13
 -1      2608 2.97566E+01 5.61832E+00-6.28890E-02 1.37105E+00-4.61131E-13-5.33060E-13
 -1      2609 2.58231E+01-3.83852E+00-1.77263E-02-3.80643E+00-1.34059E-14-2.05530E-13
 -1      2610 2.85530E+01-2.36843E+00-8.14343E-02-2.65517E+00-1.16351E-13-2.52465E-13
 -1      2611 1.94252E+01-5.31312E+00-8.41492E-03-6.24721E+00 2.18686E-13 1.49464E-13
 -1      2612 2.28438E+01-4.78784E+00-4.63345E-02-5.60482E+00 9.17599E-14-9.08579E-14
 -1      2613 1.94493E+01-5.30702E+00 7.52689E-02-6.28206E+00 4.13281E-13 1.11144E-13
 -1      2614 7.23258E+00-3.67661E+00 8.18637E-02-5.44458E+00 2.68591E-13 3.14831E-13
 -1      2615 9.70571E+00-4.07162E+00 5.95986E-02-6.58064E+00 3.31041E-13 1.70197E-13
 -1      2616 2.07264E+01 1.97990E+00-1.21398E-02-1.65741E+00-3.60014E-13-2.16532E-13
 -1      2617 2.06348E+01 1.25305E+00-5.70282E-03-1.03105E+00-3.24209E-13-1.83270E-13
 -1      2618 2.05769E+01 1.44047E+00 4.37880E-03-9.40463E-01-2.90819E-13-2.35815E-13
 -1      2619 2.04409E+01 2.42525E+00-5.50898E-03-1.58425E+00-3.30716E-13-3.17885E-13
 -1      2620 2.07518E+01 9.01118E-01-4.52309E-03 9.96200E-01 3.87230E-13 4.77345E-13
 -1      2621 2.10497E+01 1.26923E+00-5.11262E-03 1.50945E+00 3.98494E-13 5.38833E-13
 -1      2622 2.08500E+01 1.73222E+00-1.56714E-02 1.68211E+00 4.44680E-13 3.73262E-13
 -1      2623 2.06982E+01 1.10834E+00-9.83652E-03 9.56525E-01 3.86429E-13 2.81727E-13
 -1      2624 2.53893E+01-5.02043E+00-1.15979E-01 4.25701E+00 2.49689E-13 8.27116E-14
 -1      2625 2.12817E+01-5.59281E+00 7.19275E-03 5.39522E+00 1.85157E-13 1.58290E-13
 -1      2626 2.11283E+01-5.60318E+00 8.90359E-02 5.44747E+00 1.24900E-14 1.42983E-13
 -1      2627 3.11444E+01 6.34529E+00-9.87305E-02-6.85943E-01 9.05498E-13 1.31249E-13
 -1      2628 1.98562E+01 2.99345E+00 2.96624E-03-8.32539E-01-1.53159E-13-4.87853E-13
 -1      2629 1.97638E+01 3.29028E+00-1.57893E-02-1.03314E+00-1.69417E-13-5.26323E-13
 -1      2630 1.99114E+01 3.14826E+00-1.56619E-02-1.21969E+00-2.28403E-13-5.18038E-13
 -1      2631 2.04168E+01 4.68334E-01-5.06251E-03-1.37865E-01 2.24312E-13 1.65879E-13
 -1      2632 2.06055E+01 2.15143E+00-1.26947E-02 1.61648E+00 4.50523E-13 1.84297E-13
 -1      2633 2.75006E+01-4.40685E+00 3.33594E-02 2.20014E+00 2.04670E-13-6.68354E-14
 -1      2634 3.09248E+01-5.49203E-01-6.48149E-03-1.00493E+00 3.93151E-13-2.07057E-14
 -1      2635 2.02272E+01 2.68268E+00-1.23030E-02-1.41565E+00-2.80913E-13-4.08883E-13
 -1      2636 1.35453E+01-4.43628E+00 1.20834E-01 6.25706E+00-2.63928E-13 4.79394E-13
 -1      2637 3.03820E+01 2.32582E+00-2.22607E-02 1.22220E+00-3.11917E-13-7.16371E-13
 -1      2638 1.99990E+01-1.46019E-03-2.03898E-05-5.02838E-03-2.21163E-13 3.51143E-13
 -1      2639 1.99997E+01-1.71720E-03 1.70844E-05-5.04938E-03-5.70181E-14 2.15291E-13
 -1      2640 2.90246E+01-1.82480E+00 3.36285E-03-8.03739E-01-2.96785E-14-6.17506E-13
 -1      2641 6.50779E+00-7.73531E-01 1.55621E-01 1.13579E+00-1.56521E-13 9.24427E-13
 -1      2642 4.84694E+00-1.63693E+00 1.59968E-01-2.05637E-01-6.49706E-14 9.87044E-13
 -1      2643 6.50929E+00-7.47427E-01 1.55780E-01-1.42839E+00 1.42796E-13 8.13516E-13
 -1      2644 7.64441E+00-2.33525E+00 1.48713E-01-4.60866E+00 3.04048E-13 3.84387E-13
 -1      2645 3.09415E+01 5.64676E+00-3.77246E-02-1.19416E+00-7.78266E-13-3.33067E-14
 -1      2646 2.06055E+01 1.87905E+00 1.20611E-02 1.27397E+00 4.18892E-13 1.24147E-13
 -1      2647 3.07134E+01 2.06188E+00-1.60739E-02-9.67788E-01-6.88782E-13 9.00113E-14
 -1      2648 2.89890E+01-2.06625E+00 7.65609E-03 9.82593E-01-4.48479E-13 3.02730E-13
 -1      2649 1.30353E+01-4.17644E+00 1.12854E-01-6.63886E+00 4.41258E-13 2.82413E-13
 -1      2650 1.84829E+01-5.22135E+00 8.94165E-02 6.41302E+00 2.66120E-13-3.88873E-13
 -1      2651 6.25514E+00-1.98836E+00 1.68719E-01 3.33931E+00 6.48370E-14-7.79876E-13
 -1      2652 6.97868E+00-8.27888E-01 1.79648E-01 1.99707E+00 5.24303E-14-6.90226E-13
 -1      2653 9.00730E+00-1.69740E+00 1.28063E-01 4.42975E+00 2.81782E-13-5.23914E-13
 -1      2654 9.39394E+00-3.19077E+00 1.43167E-01-5.23590E+00-3.01259E-13-6.45678E-13
 -1      2655 1.66596E+01-5.06389E+00 1.16971E-01-6.35835E+00-4.10977E-13-5.34885E-13
 -1      2656 2.45552E+01-5.42083E+00 4.31115E-02-4.13007E+00-2.16854E-13-1.16615E-13
 -1      2657 2.63492E+01-5.09629E+00-1.37291E-01-2.32309E+00-2.66759E-13 1.83006E-13
 -1      2658 2.28357E+01-5.38470E+00 8.14120E-02-4.58913E+00-3.07726E-13-1.21723E-13
 -1      2659 2.98189E+01-2.75347E+00-1.33002E-02-2.01434E-01-7.16788E-15 2.86687E-13
 -1      2660 3.11955E+01 1.43698E+00 2.00449E-02 1.67894E+00 4.50695E-13 4.62547E-13
 -1      2661 2.98569E+01 7.04062E+00-1.03752E-01 8.22020E-02-7.46625E-13-2.28333E-13
 -1      2662 3.17824E+01 3.79985E+00-2.48828E-02-1.92679E+00 7.67997E-13 2.35090E-14
 -1      2663 3.09868E+01 5.30279E+00-5.22050E-02 1.50375E+00 8.38385E-13 2.46858E-13
 -1      2664 2.49989E+01-4.83328E+00 3.05905E-02 4.12090E+00-4.44367E-14 2.41057E-14
 -1      2665 1.99989E+01-7.15417E-04-4.49153E-06 4.81885E-03-2.88117E-13-6.67216E-14
 -1      2666 1.99999E+01-1.52535E-03-2.10670E-05 4.94138E-03-2.42813E-13 9.34057E-14
 -1      2667 2.00005E+01-4.26191E-06 2.74670E-05 4.75883E-03-3.35001E-13 1.94445E-13
 -1      2668 1.99987E+01 4.48694E-05 4.18334E-05 4.92963E-03-1.91115E-13 9.54065E-14
 -1      2669 2.50583E+01-4.65704E+00 4.58390E-02-3.99668E+00 2.18769E-13-2.67397E-13
 -1      2670 2.00001E+01-4.15432E-04 3.83485E-06-5.07434E-03 3.73350E-14 3.32266E-13
 -1      2671 1.99999E+01 6.73323E-04-5.93372E-05 4.68921E-03-2.91112E-13 1.27478E-13
 -1      2672 1.95495E+01 3.11861E+00-5.83044E-03 3.54689E-01 2.47651E-13-3.83344E-13
 -1      2673 1.94913E+01 3.17993E+00-6.35597E-03 2.49529E-01 2.04709E-13-4.07666E-13
 -1      2674 1.94533E+01 3.22603E+00-5.72605E-03 1.72244E-01 1.83346E-13-4.46524E-13
 -1      2675 1.94364E+01 3.24431E+00-5.44896E-03 6.70822E-02 1.48985E-13-4.55640E-13
 -1      2676 1.95685E+01 2.92682E+00 5.30982E-03 1.72182E-01 1.86803E-13-3.99721E-13
 -1      2677 1.99784E+01 2.56654E+00-9.20200E-03 7.31812E-01 3.59878E-13-2.24256E-13
 -1      2678 1.98448E+01 2.74339E+00-8.04800E-03 6.21277E-01 3.28367E-13-2.63132E-13
 -1      2679 2.02915E+01 2.07421E+00-1.05708E-02 8.88285E-01 3.90706E-13-9.84282E-14
 -1      2680 2.01296E+01 2.34299E+00-6.64712E-03 8.00973E-01 3.75312E-13-1.66066E-13
 -1      2681 2.01447E+01 2.14657E+00 7.09268E-03 5.69653E-01 3.29428E-13-1.61985E-13
 -1      2682 2.04911E+01 8.69406E-01-4.33743E-04 2.45100E-01 2.79300E-13 8.31205E-14
 -1      2683 2.05842E+01 1.06799E+00 8.95621E-03 5.50233E-01 3.19617E-13 1.13612E-13
 -1      2684 2.92652E+01 2.55035E+00-1.82845E-01-1.63929E+00-6.27415E-13 4.65322E-14
 -1      2685 2.90310E+01 7.53588E-01-7.59323E-02-1.31525E+00-5.55403E-13 1.84464E-13
 -1      2686 2.04284E+01 6.11495E-01 1.93552E-03-2.17899E-01 2.06726E-13 7.56237E-14
 -1      2687 2.04674E+01 7.21515E-01 9.59477E-03 6.82636E-04 2.36066E-13 8.44025E-14
 -1      2688 2.04517E+01 1.01857E+00-5.55162E-04 1.62554E-01 2.67784E-13-1.11898E-15
 -1      2689 2.05287E+01 1.59452E+00-7.06818E-04 9.51133E-01 3.85763E-13 8.68403E-14
 -1      2690 1.86591E+01-4.92748E+00 9.90328E-02-6.16609E+00 5.65811E-13 4.15362E-14
 -1      2691 2.11288E+01-5.28220E+00-3.37594E-02-5.59318E+00 4.60312E-13-1.83269E-13
 -1      2692 2.04491E+01 7.75624E-01 7.80678E-03-6.62113E-03-1.63832E-13-2.39102E-13
 -1      2693 2.04114E+01 6.37580E-01-1.42412E-03 1.93732E-01-1.54342E-13-2.43927E-13
 -1      2694 2.04075E+01 5.33854E-01 6.24880E-03 3.63500E-01-1.55653E-13-2.22646E-13
 -1      2695 2.04052E+01 4.44856E-01 1.14116E-04 5.07583E-01-1.67638E-13-2.24295E-13
 -1      2696 2.03803E+01 7.33885E-01-2.59372E-03 2.67135E-01-1.48838E-13-2.97515E-13
 -1      2697 2.04117E+01 3.73663E-01 4.59410E-03 6.37279E-01-1.51581E-13-2.00300E-13
 -1      2698 2.04448E+01 3.07032E-01 8.20992E-04 7.40400E-01-1.12144E-13-1.96534E-13
 -1      2699 2.03678E+01 5.15659E-01-3.23214E-03 5.81396E-01-1.50043E-13-2.66313E-13
 -1      2700 2.04712E+01 2.46949E-01 3.71373E-03 8.37808E-01-7.67917E-14-1.68670E-13
 -1      2701 2.05359E+01 1.83388E-01 8.15995E-04 9.07082E-01-6.53486E-14-1.76374E-13
 -1      2702 2.03904E+01 3.50730E-01-3.59858E-03 8.21455E-01-9.83366E-14-2.31311E-13
 -1      2703 2.05905E+01 1.18175E-01 3.72592E-03 9.74850E-01-7.93303E-14-1.56642E-13
 -1      2704 2.06834E+01 4.19830E-02 1.42284E-04 1.00984E+00-7.93374E-14-1.76797E-13
 -1      2705 2.04616E+01 1.94482E-01-4.13143E-03 9.98571E-01-7.26013E-14-2.15649E-13
 -1      2706 2.07758E+01-4.16546E-02 4.64102E-03 1.04417E+00-2.75931E-14-1.29248E-13
 -1      2707 2.08948E+01-1.43242E-01-1.27192E-03 1.03778E+00-6.90729E-15-1.00925E-13
 -1      2708 2.05955E+01 1.00391E-02-5.12453E-03 1.11290E+00-1.93452E-14-1.89407E-13
 -1      2709 2.10368E+01-2.54880E-01 6.37100E-03 1.02790E+00-1.95226E-14-7.74120E-14
 -1      2710 2.11795E+01-3.89080E-01-3.55144E-03 9.67598E-01-3.22380E-14-6.08648E-14
 -1      2711 2.08106E+01-2.32321E-01-6.66220E-03 1.15142E+00-8.35359E-15-5.80649E-14
 -1      2712 2.13831E+01-5.30191E-01 8.55240E-03 8.95620E-01-2.65577E-14-1.85114E-14
 -1      2713 2.15437E+01-6.91843E-01-6.73619E-03 7.66244E-01 4.56709E-14-2.12294E-14
 -1      2714 2.11294E+01-5.49092E-01-8.49069E-03 1.08676E+00 2.04098E-14 2.58209E-14
 -1      2715 2.18138E+01-8.47159E-01 1.02076E-02 6.09130E-01 5.64467E-14-2.37650E-14
 -1      2716 2.19783E+01-1.00705E+00-1.03033E-02 3.99329E-01 3.73610E-14-3.05704E-14
 -1      2717 2.15705E+01-9.27657E-01-9.76497E-03 8.77845E-01 2.30837E-14-1.03451E-14
 -1      2718 2.22983E+01-1.13254E+00 9.39915E-03 1.37468E-01 2.25892E-14-5.05144E-14
 -1      2719 2.24396E+01-1.22482E+00-1.23062E-02-1.46991E-01 1.24761E-14-5.81783E-15
 -1      2720 2.21306E+01-1.29865E+00-8.66453E-03 4.77494E-01 2.22089E-14-1.04845E-13
 -1      2721 2.27522E+01-1.24044E+00 3.41836E-03-5.06203E-01 2.82876E-14 3.47642E-14
 -1      2722 2.28329E+01-1.16515E+00-9.21455E-03-8.21250E-01 2.75520E-14 5.34784E-14
 -1      2723 2.27511E+01-1.50571E+00-2.92508E-03-1.38716E-01 5.42429E-14-1.96086E-14
 -1      2724 2.30393E+01-9.73472E-01-8.69395E-03-1.20644E+00 1.54998E-14 7.05303E-14
 -1      2725 2.30245E+01-6.45033E-01-1.43456E-03-1.44920E+00 2.89796E-15 3.69453E-14
 -1      2726 2.32928E+01-1.31938E+00 6.61678E-03-9.08325E-01 2.81004E-14 4.48010E-14
 -1      2727 2.30179E+01-1.74337E-01-2.53680E-02-1.70974E+00-4.05396E-14 1.68242E-14
 -1      2728 2.29204E+01 3.99753E-01 1.65300E-02-1.72091E+00-8.95378E-14 4.56944E-14
 -1      2729 2.35632E+01-5.39278E-01 7.14893E-03-1.62534E+00-3.72393E-14 3.51542E-14
 -1      2730 2.26994E+01 9.59231E-01-4.27599E-02-1.60172E+00-1.80567E-13 1.92910E-14
 -1      2731 2.25994E+01 1.54761E+00 1.66344E-02-1.32013E+00-2.69394E-13-1.01262E-14
 -1      2732 2.34076E+01 8.84336E-01 3.88364E-04-1.86788E+00-1.77818E-13-1.85711E-14
 -1      2733 2.23903E+01 1.98537E+00-2.01807E-02-7.92331E-01-2.36161E-13-9.45472E-14
 -1      2734 2.23369E+01 2.20923E+00-1.03093E-03-2.57578E-01-2.11934E-13-8.46211E-14
 -1      2735 2.30931E+01 2.12984E+00-2.26847E-04-1.20481E+00-2.77251E-13-5.33133E-14
 -1      2736 2.23693E+01 2.17903E+00 3.10537E-03 4.43487E-01-1.96088E-13-1.53833E-13
 -1      2737 2.23898E+01 1.90101E+00-3.99509E-02 9.46330E-01-1.46164E-13-1.47718E-13
 -1      2738 2.29193E+01 2.66066E+00-1.70819E-02 1.13650E-01-2.19143E-13-1.06632E-13
 -1      2739 2.26482E+01 1.47806E+00 2.07983E-02 1.47815E+00-1.78989E-13-1.61217E-13
 -1      2740 2.27770E+01 8.74028E-01-3.34243E-02 1.74221E+00-1.70959E-13-2.32598E-13
 -1      2741 2.30969E+01 2.15350E+00 4.78490E-04 1.38972E+00-2.19966E-13-2.19673E-13
 -1      2742 2.29594E+01 2.80725E-01 9.87820E-03 1.79493E+00-4.94375E-14-3.31582E-13
 -1      2743 2.30587E+01-2.62625E-01-2.46578E-02 1.74863E+00 3.97401E-14-2.91554E-13
 -1      2744 2.34762E+01 6.66211E-01 3.89331E-03 1.90886E+00-1.53700E-13-3.07081E-13
 -1      2745 2.30480E+01-6.82847E-01 4.81324E-04 1.49023E+00 7.03791E-14-2.84944E-13
 -1      2746 2.30562E+01-9.86287E-01-7.42488E-03 1.24149E+00 9.39737E-14-3.08759E-13
 -1      2747 2.35586E+01-5.86215E-01 1.59077E-02 1.64489E+00 6.40669E-14-3.85289E-13
 -1      2748 2.28393E+01-1.15150E+00-1.00504E-02 8.61777E-01 9.97168E-14-2.68929E-13
 -1      2749 2.27603E+01-1.20302E+00 4.45619E-03 5.55549E-01 8.73381E-14-3.07785E-13
 -1      2750 2.32652E+01-1.31439E+00 6.61563E-03 9.41265E-01 1.18112E-13-4.26568E-13
 -1      2751 2.24443E+01-1.16990E+00-1.26243E-02 2.13620E-01-9.85648E-15-3.91494E-13
 -1      2752 2.23093E+01-1.06523E+00 9.83771E-03-5.45749E-02-1.58134E-15-4.25348E-13
 -1      2753 2.27112E+01-1.44914E+00-3.65046E-03 1.96877E-01 1.21973E-16-4.06013E-13
 -1      2754 2.19932E+01-9.33355E-01-1.02570E-02-2.95657E-01 5.29069E-15-3.77952E-13
 -1      2755 2.18381E+01-7.71399E-01 1.02147E-02-4.87685E-01-8.56398E-15-4.42590E-13
 -1      2756 2.20944E+01-1.21279E+00-8.71411E-03-3.79054E-01-8.98736E-15-4.95599E-13
 -1      2757 2.15736E+01-6.17757E-01-6.65453E-03-6.26603E-01 5.86720E-14-3.96320E-13
 -1      2758 2.14231E+01-4.61047E-01 8.26047E-03-7.40526E-01 6.11478E-14-3.26846E-13
 -1      2759 2.15454E+01-8.37598E-01-9.29605E-03-7.40449E-01 5.49301E-14-4.09980E-13
 -1      2760 2.12231E+01-3.27268E-01-3.52477E-03-7.99535E-01 3.20295E-14-1.75875E-13
 -1      2761 2.10888E+01-2.03441E-01 5.74320E-03-8.49510E-01 8.97931E-14-1.67531E-13
 -1      2762 2.11133E+01-4.71775E-01-7.73387E-03-9.19494E-01 1.88775E-13-1.78147E-13
 -1      2763 2.09462E+01-1.04300E-01-1.25766E-03-8.53862E-01 6.51022E-14-9.28477E-14
 -1      2764 2.08311E+01-1.90832E-02 3.54571E-03-8.58007E-01-5.67159E-14-1.03251E-13
 -1      2765 2.07966E+01-1.81018E-01-5.65156E-03-9.67750E-01 1.02792E-13-1.39925E-13
 -1      2766 2.07328E+01 4.55250E-02 2.35120E-04-8.28703E-01-7.47406E-14-7.16181E-14
 -1      2767 2.06358E+01 9.68791E-02 1.90361E-03-8.03571E-01 5.10266E-15-4.93196E-14
 -1      2768 2.05732E+01 2.04459E-02-3.83886E-03-9.31798E-01-2.43143E-14-7.45757E-14
 -1      2769 2.05688E+01 1.33343E-01 1.14013E-03-7.56072E-01 2.85124E-14 8.32206E-16
 -1      2770 2.04878E+01 1.59005E-01 8.02465E-04-7.14724E-01-1.86978E-14 1.29318E-13
 -1      2771 2.04178E+01 1.43107E-01-2.51606E-03-8.47175E-01 3.62787E-14-8.67318E-14
 -1      2772 2.04420E+01 1.75099E-01 1.62788E-03-6.59663E-01-9.89258E-14 1.18629E-13
 -1      2773 2.03747E+01 1.83148E-01 1.29403E-04-6.11493E-01-5.77352E-14 1.11513E-13
 -1      2774 2.03096E+01 2.05598E-01-1.63813E-03-7.38935E-01 9.09751E-15-1.61028E-14
 -1      2775 2.03428E+01 1.85826E-01 1.82648E-03-5.55765E-01-1.01721E-13 1.84336E-13
 -1      2776 2.02873E+01 1.82879E-01-2.40229E-04-5.07005E-01-1.94674E-14 1.68731E-13
 -1      2777 2.02328E+01 2.26520E-01-1.09101E-03-6.23826E-01-3.62770E-14 3.53794E-14
 -1      2778 2.02647E+01 1.77546E-01 1.83236E-03-4.54763E-01-1.14868E-13 1.10866E-13
 -1      2779 2.02193E+01 1.68488E-01-4.10885E-04-4.09188E-01-1.27641E-13 1.13560E-13
 -1      2780 2.01772E+01 2.21234E-01-7.62864E-04-5.12399E-01-1.66967E-13 3.06235E-13
 -1      2781 2.02027E+01 1.58993E-01 1.71763E-03-3.62655E-01-1.14343E-13 1.85877E-13
 -1      2782 2.01660E+01 1.47164E-01-4.59971E-04-3.22263E-01-1.22658E-13 2.05451E-13
 -1      2783 2.01357E+01 2.01163E-01-5.67892E-04-4.10749E-01-1.10438E-13 2.05956E-13
 -1      2784 2.01537E+01 1.36058E-01 1.53528E-03-2.82356E-01-6.47357E-14 2.57885E-13
 -1      2785 2.01244E+01 1.23592E-01-4.40672E-04-2.47934E-01-2.52223E-15 2.96099E-13
 -1      2786 2.01042E+01 1.74187E-01-4.48639E-04-3.21867E-01-1.04001E-13 2.51391E-13
 -1      2787 2.01150E+01 1.12454E-01 1.32300E-03-2.14729E-01 4.40034E-14 2.66796E-13
 -1      2788 2.00920E+01 1.00611E-01-3.87516E-04-1.86295E-01 1.18604E-13 2.47799E-13
 -1      2789 2.00798E+01 1.45387E-01-3.70111E-04-2.46668E-01 4.15942E-15 4.83064E-14
 -1      2790 2.00847E+01 9.03321E-02 1.10632E-03-1.59363E-01 4.68413E-14 1.79097E-13
 -1      2791 2.00669E+01 7.97695E-02-3.21764E-04-1.36485E-01 1.14370E-14 1.19332E-13
 -1      2792 2.00607E+01 1.17799E-01-3.12616E-04-1.84758E-01 1.30330E-14 8.54871E-14
 -1      2793 2.00613E+01 7.07822E-02 9.01379E-04-1.15132E-01 7.09598E-14 1.51633E-14
 -1      2794 2.00478E+01 6.17681E-02-2.55731E-04-9.71488E-02 7.19092E-14-3.22819E-14
 -1      2795 2.00457E+01 9.30450E-02-2.65924E-04-1.34983E-01 1.33276E-14-6.41800E-16
 -1      2796 2.00435E+01 5.42099E-02 7.17307E-04-8.05724E-02 1.35298E-14 6.60189E-14
 -1      2797 2.00334E+01 4.67698E-02-1.95986E-04-6.67414E-02 3.63924E-14 4.32882E-14
 -1      2798 2.00341E+01 7.18131E-02-2.25219E-04-9.58183E-02 4.56454E-14-4.05314E-14
 -1      2799 2.00301E+01 4.06014E-02 5.58318E-04-5.41348E-02 8.30344E-14 8.37981E-14
 -1      2800 2.00227E+01 3.46204E-02-1.45548E-04-4.37252E-02 1.69939E-14 1.49804E-13
 -1      2801 2.00250E+01 5.42091E-02-1.88559E-04-6.56286E-02 7.52695E-14-8.77238E-14
 -1      2802 2.00202E+01 2.97038E-02 4.25311E-04-3.43398E-02-6.75090E-14 1.45452E-13
 -1      2803 2.00150E+01 2.49938E-02-1.05402E-04-2.66851E-02 1.19955E-14-5.69547E-14
 -1      2804 2.00180E+01 3.99964E-02-1.55254E-04-4.28310E-02-1.02320E-13-1.76958E-13
 -1      2805 2.00131E+01 2.11423E-02 3.17070E-04-1.98644E-02 1.99737E-13-5.80960E-14
 -1      2806 2.00095E+01 1.74834E-02-7.54286E-05-1.43904E-02 3.45454E-13-1.39850E-13
 -1      2807 2.00127E+01 2.87556E-02-1.25365E-04-2.59934E-02 8.24820E-14-1.07651E-13
 -1      2808 2.00081E+01 1.44911E-02 2.31563E-04-9.58500E-03 3.70424E-13-5.23728E-15
 -1      2809 2.00057E+01 1.16572E-02-5.42017E-05-5.82136E-03 2.39083E-13 1.69469E-13
 -1      2810 2.00087E+01 1.99844E-02-9.89771E-05-1.38835E-02 3.45407E-13-9.82123E-14
 -1      2811 2.00047E+01 9.32119E-03 1.67264E-04-2.58761E-03 1.38619E-13 2.02639E-13
 -1      2812 2.00032E+01 7.08234E-03-3.88042E-05-1.62313E-04-5.43387E-14 2.24094E-13
 -1      2813 2.00057E+01 1.31633E-02-7.51732E-05-5.48786E-03 2.32487E-13-9.75400E-14
 -1      2814 2.00024E+01 5.16355E-03 1.11384E-04 1.82181E-03-3.01070E-13 3.98223E-13
 -1      2815 2.00016E+01 3.38817E-03-1.09820E-05 3.15435E-03-2.62412E-13 2.81431E-13
 -1      2816 2.00035E+01 7.71290E-03-7.22350E-05 9.38023E-06-2.91475E-15 4.36286E-14
 -1      2817 2.05738E+01 3.95845E-01 4.78492E-03-1.15131E+00 1.32438E-13-3.38809E-15
 -1      2818 2.04752E+01 4.06151E-01 1.59878E-03-1.02496E+00 1.43406E-13 3.37533E-14
 -1      2819 2.38124E+01-5.01958E+00 6.97858E-02-4.21885E+00 3.94060E-13-3.16192E-13
 -1      2820 2.59908E+01-4.50300E+00-1.25847E-01-2.77139E+00 2.26541E-13-4.93716E-13
 -1      2821 2.29837E+01-4.90326E+00 7.89061E-02-4.30039E+00 5.17225E-13-3.64500E-13
 -1      2822 2.04688E+01 4.21863E-01 4.18842E-03-8.82334E-01 1.38273E-13 2.30029E-14
 -1      2823 2.04102E+01 4.45884E-01 3.67619E-03-7.41590E-01 1.66052E-13 5.50011E-14
 -1      2824 2.03546E+01 5.30504E-01-2.38000E-03-9.89957E-01 1.46882E-13-4.94069E-14
 -1      2825 2.09422E+01 3.12343E-01 4.66176E-03-1.63144E+00 5.05557E-14 5.20741E-14
 -1      2826 2.07732E+01 3.48570E-01 2.98011E-04-1.52932E+00 6.94725E-14 3.74842E-14
 -1      2827 2.12274E+01 1.66156E-01 3.44069E-03-1.82064E+00 5.39606E-14 3.11161E-14
 -1      2828 2.10188E+01 2.54062E-01 1.66671E-03-1.74863E+00 4.67897E-14 6.39944E-14
 -1      2829 2.05683E+01 3.60574E-01-3.66368E-03-1.80398E+00 4.56917E-14-5.75225E-14
 -1      2830 2.16273E+01-1.33533E-01 7.05548E-04-1.92338E+00 1.81745E-14 5.23852E-14
 -1      2831 2.13672E+01 4.23366E-02 5.27776E-03-1.91160E+00 5.17028E-14 4.64692E-14
 -1      2832 2.07653E+01 1.41230E-01-7.57766E-03-2.02710E+00 4.99107E-14 3.62774E-15
 -1      2833 2.22122E+01-6.54014E-01-4.40826E-03-1.85873E+00-9.94879E-14 7.21775E-14
 -1      2834 2.18831E+01-3.57087E-01 1.20572E-02-1.95442E+00-4.47060E-14 8.01321E-14
 -1      2835 2.11160E+01-2.86170E-01-1.52701E-02-2.17736E+00-3.60815E-14 1.81681E-14
 -1      2836 2.30719E+01-1.40985E+00-1.23666E-02-1.50546E+00-1.58245E-13 1.19081E-13
 -1      2837 2.26589E+01-9.92766E-01 2.27488E-02-1.76851E+00-1.21675E-13 1.09685E-13
 -1      2838 2.17389E+01-9.97092E-01-2.70834E-02-2.16981E+00-1.32074E-13 5.37057E-14
 -1      2839 2.42555E+01-2.20575E+00-1.54187E-02-7.23804E-01-1.55783E-13 1.77408E-13
 -1      2840 2.37825E+01-1.80638E+00 3.60312E-02-1.19371E+00-1.74911E-13 1.47036E-13
 -1      2841 2.27554E+01-1.99354E+00-5.43136E-02-1.84299E+00-1.89257E-13 1.37457E-13
 -1      2842 2.56128E+01-2.52858E+00-3.49645E-02 6.17894E-01-6.94141E-14 1.97709E-13
 -1      2843 2.52403E+01-2.46744E+00 3.99794E-02-4.96003E-02-1.28335E-13 2.08062E-13
 -1      2844 2.44306E+01-2.95235E+00-6.43922E-02-9.50907E-01-1.54830E-13 1.84270E-13
 -1      2845 2.66887E+01-1.41972E+00-7.78017E-03 2.14505E+00-8.43076E-16 3.39841E-13
 -1      2846 2.66074E+01-2.25773E+00-3.19980E-02 1.53142E+00-7.38350E-14 3.19052E-13
 -1      2847 2.62945E+01-3.01726E+00-8.54039E-02 5.36435E-01-1.03032E-13 3.25275E-13
 -1      2848 2.78859E+01 2.66516E+00-1.33794E-01 2.58562E+00 4.90746E-13 4.16972E-13
 -1      2849 2.80390E+01 9.10932E-01-1.42341E-01 2.66478E+00 2.88734E-13 4.38781E-13
 -1      2850 2.75557E+01 4.86526E+00-1.48668E-01 5.35061E-01 6.59639E-13 1.10259E-14
 -1      2851 2.75471E+01 4.13540E+00-1.88358E-01 1.62330E+00 6.34853E-13 1.88509E-13
 -1      2852 2.69332E+01 8.52533E-01-1.44336E-01-2.85374E+00 3.59844E-13-5.59178E-13
 -1      2853 2.67924E+01 2.40258E+00-2.53069E-02-2.45961E+00 4.16722E-13-5.26263E-13
 -1      2854 2.68226E+01-1.73110E+00-5.92437E-02-2.10683E+00 5.54157E-14-3.36958E-13
 -1      2855 2.69407E+01-5.67602E-01-2.23697E-02-2.58959E+00 2.24987E-13-4.89539E-13
 -1      2856 2.57016E+01-2.47025E+00 1.17649E-02-5.42164E-01 9.39656E-15-1.50702E-13
 -1      2857 2.60470E+01-2.27841E+00-2.87820E-02-1.23535E+00 1.01665E-13-2.49741E-13
 -1      2858 2.68819E+01-2.47511E+00-2.85820E-02-1.26142E+00 1.30659E-14-3.45654E-13
 -1      2859 2.43075E+01-2.00388E+00 3.34410E-02 7.52341E-01 5.03769E-14-1.48486E-13
 -1      2860 2.47430E+01-2.34060E+00-2.91327E-02 1.99174E-01 5.02549E-15-7.99560E-14
 -1      2861 2.50543E+01-2.94721E+00-3.23099E-02 3.83551E-01-4.30645E-14-2.05453E-13
 -1      2862 2.31070E+01-1.18522E+00 2.60108E-02 1.48390E+00-1.81272E-13 2.07278E-14
 -1      2863 2.35172E+01-1.62023E+00-1.89784E-02 1.16268E+00-4.40099E-14-7.98426E-14
 -1      2864 2.33791E+01-2.20880E+00-3.67643E-02 1.45596E+00-4.29518E-14-1.92325E-13
 -1      2865 2.22523E+01-4.84933E-01 1.51678E-02 1.76254E+00-1.66481E-13 8.74875E-15
 -1      2866 2.25879E+01-8.23905E-01-8.70110E-03 1.63147E+00-1.59345E-13 5.16007E-14
 -1      2867 2.21848E+01-1.21271E+00-2.83724E-02 1.91568E+00-1.22992E-13 1.19606E-13
 -1      2868 2.16824E+01-2.32097E-02 7.22708E-03 1.76508E+00-6.68806E-14-1.30755E-16
 -1      2869 2.19454E+01-2.34218E-01-2.16828E-03 1.75919E+00-9.47695E-14 1.71038E-14
 -1      2870 2.14498E+01-4.26357E-01-1.66639E-02 2.00250E+00-5.52461E-14-1.40350E-15
 -1      2871 2.13005E+01 2.27904E-01 2.44146E-03 1.62076E+00-3.48958E-14-4.98275E-14
 -1      2872 2.15094E+01 1.19771E-01 1.63633E-03 1.68532E+00-2.07137E-14 3.58244E-14
 -1      2873 2.10233E+01 6.73506E-02-8.37397E-03 1.88770E+00-8.16197E-14 7.81141E-15
 -1      2874 2.10302E+01 3.34603E-01 1.36607E-05 1.41174E+00-2.13343E-13-3.80458E-14
 -1      2875 2.12009E+01 2.93524E-01 3.58924E-03 1.50884E+00-1.85313E-13 8.94048E-15
 -1      2876 2.07744E+01 3.24290E-01-3.60949E-03 1.67998E+00-1.25410E-13 5.57299E-14
 -1      2877 2.08253E+01 3.55817E-01-1.03570E-03 1.18603E+00-2.71800E-13-7.92515E-14
 -1      2878 2.09677E+01 3.52989E-01 4.45070E-03 1.29207E+00-1.53423E-13-2.75052E-14
 -1      2879 2.06179E+01 4.25165E-01-1.27323E-03 1.43951E+00-2.08579E-13 1.13070E-13
 -1      2880 2.06610E+01 3.32700E-01-1.34955E-03 9.69889E-01 7.40941E-14-2.30814E-13
 -1      2881 2.07805E+01 3.48926E-01 4.62426E-03 1.07165E+00-1.33183E-13-2.03923E-13
 -1      2882 2.05067E+01 4.35890E-01-3.52654E-04 1.19940E+00-8.82045E-14-1.20386E-13
 -1      2883 2.05253E+01 2.90438E-01-1.31082E-03 7.76161E-01 8.23552E-14-1.85262E-13
 -1      2884 2.06251E+01 3.14295E-01 4.39188E-03 8.67148E-01 7.74477E-14-2.66655E-13
 -1      2885 2.04181E+01 4.00927E-01-1.22656E-04 9.77132E-01 6.72381E-14-4.58688E-13
 -1      2886 2.04123E+01 2.43051E-01-1.12934E-03 6.09724E-01-5.09786E-14 1.77912E-14
 -1      2887 2.04947E+01 2.68324E-01 3.94373E-03 6.87535E-01 6.04302E-14-9.92197E-14
 -1      2888 2.03428E+01 3.47072E-01-1.64805E-04 7.80931E-01 2.08489E-15-2.10178E-13
 -1      2889 2.03187E+01 1.97639E-01-9.11641E-04 4.70947E-01 1.55275E-14-4.81054E-15
 -1      2890 2.03857E+01 2.21264E-01 3.40560E-03 5.35466E-01-6.91506E-14 1.59278E-14
 -1      2891 2.02771E+01 2.89108E-01-2.73879E-04 6.13446E-01-7.60693E-14-1.70238E-13
 -1      2892 2.02422E+01 1.57325E-01-7.06512E-04 3.57840E-01 2.86960E-14-1.04752E-13
 -1      2893 2.02957E+01 1.78021E-01 2.85636E-03 4.10112E-01 1.00025E-13-7.77923E-14
 -1      2894 2.02203E+01 2.34451E-01-3.65230E-04 4.74077E-01 9.35799E-14-2.97159E-13
 -1      2895 2.01807E+01 1.23097E-01-5.32271E-04 2.67353E-01 7.71032E-14-7.74414E-14
 -1      2896 2.02228E+01 1.40529E-01 2.34113E-03 3.08920E-01 1.85498E-14-4.79377E-14
 -1      2897 2.01718E+01 1.86298E-01-4.14417E-04 3.60474E-01 8.58610E-15-2.83002E-13
 -1      2898 2.01321E+01 9.48707E-02-3.92343E-04 1.96124E-01 3.99568E-14 1.19939E-13
 -1      2899 2.01646E+01 1.09170E-01 1.88227E-03 2.28649E-01 1.47562E-13 7.84190E-14
 -1      2900 2.01315E+01 1.45572E-01-4.23179E-04 2.69492E-01 3.13054E-14-7.78784E-14
 -1      2901 2.00944E+01 7.20810E-02-2.83746E-04 1.40882E-01 5.43289E-14 8.39225E-14
 -1      2902 2.01191E+01 8.35803E-02 1.48785E-03 1.65957E-01 7.03051E-14 1.58681E-13
 -1      2903 2.00986E+01 1.12062E-01-4.02078E-04 1.97771E-01 3.64600E-14 1.17947E-13
 -1      2904 2.00658E+01 5.39873E-02-2.01389E-04 9.86562E-02-2.17171E-14 1.59336E-13
 -1      2905 2.00841E+01 6.30873E-02 1.15759E-03 1.17709E-01 1.73269E-14 1.22285E-13
 -1      2906 2.00724E+01 8.50420E-02-3.62594E-04 1.42071E-01-3.42861E-14 2.76664E-14
 -1      2907 2.00445E+01 3.98288E-02-1.40066E-04 6.68497E-02-1.59296E-13 2.87366E-13
 -1      2908 2.00578E+01 4.69289E-02 8.86730E-04 8.11128E-02-2.01086E-14 3.06872E-13
 -1      2909 2.00520E+01 6.36120E-02-3.14129E-04 9.94411E-02-6.26765E-14 3.46060E-13
 -1      2910 2.00290E+01 2.88932E-02-9.53140E-05 4.32636E-02-2.05257E-13 1.74457E-13
 -1      2911 2.00384E+01 3.43627E-02 6.68495E-04 5.37714E-02-2.03219E-13 2.52523E-13
 -1      2912 2.00364E+01 4.68566E-02-2.63372E-04 6.72996E-02-1.78642E-13 3.15913E-13
 -1      2913 2.00180E+01 2.05415E-02-6.37426E-05 2.60793E-02 5.27607E-14 1.75953E-13
 -1      2914 2.00245E+01 2.47100E-02 4.95564E-04 3.36784E-02-1.10747E-14 2.01097E-13
 -1      2915 2.00247E+01 3.39224E-02-2.14671E-04 4.34519E-02-9.61480E-14 1.98548E-13
 -1      2916 2.00105E+01 1.42119E-02-4.29743E-05 1.38296E-02 1.72534E-13 1.32127E-13
 -1      2917 2.00148E+01 1.73685E-02 3.60833E-04 1.91960E-02 1.20907E-13 2.07549E-13
 -1      2918 2.00163E+01 2.40432E-02-1.70510E-04 2.60786E-02 1.50136E-13 7.04101E-14
 -1      2919 2.00056E+01 9.41965E-03-3.07320E-05 5.36513E-03 2.72837E-13 2.35383E-13
 -1      2920 2.00083E+01 1.18114E-02 2.57392E-04 9.02273E-03 1.59594E-13 1.15440E-13
 -1      2921 2.00102E+01 1.65452E-02-1.31936E-04 1.37119E-02 2.32173E-13 2.04142E-13
 -1      2922 2.00026E+01 5.74798E-03-2.25459E-05-1.95782E-04-5.21888E-14 5.23144E-13
 -1      2923 2.00041E+01 7.58959E-03 1.79252E-04 2.14864E-03 2.50724E-13 5.10975E-13
 -1      2924 2.00061E+01 1.08496E-02-9.89947E-05 5.20016E-03 1.15302E-13 2.88014E-13
 -1      2925 2.00009E+01 2.84412E-03 7.18952E-06-3.45854E-03-3.35622E-14 3.44991E-13
 -1      2926 2.00016E+01 4.25572E-03 1.12332E-04-2.19344E-03-9.12884E-14 4.41518E-13
 -1      2927 2.00033E+01 6.46390E-03-6.50043E-05-3.51956E-04 3.23617E-14 3.86232E-13
 -1      2928 2.00003E+01 7.06322E-04-5.79877E-07-4.72115E-03-5.19022E-14 3.41002E-13
 -1      2929 2.00006E+01 1.97819E-03 5.06238E-05-4.24164E-03-4.50161E-14 3.96602E-13
 -1      2930 2.00020E+01 3.33776E-03-5.82352E-05-3.22224E-03-7.90445E-15 5.16460E-13
 -1      2931 2.00015E+01 9.10254E-04-2.65964E-05-4.36175E-03 4.50441E-14 5.35673E-13
 -1      2932 2.00013E+01 7.39167E-03-2.76438E-05 1.48070E-04-2.23347E-14-6.39273E-13
 -1      2933 2.00014E+01 7.27702E-03-7.01916E-06-7.23605E-05 1.22771E-13-5.36321E-13
 -1      2934 2.00012E+01 2.22388E-03 6.68684E-05 3.91262E-03-2.79061E-13 2.61149E-13
 -1      2935 2.00008E+01 1.13206E-03 1.37724E-06 4.31908E-03-3.25446E-13 3.18201E-13
 -1      2936 2.00022E+01 3.83832E-03-6.93671E-05 2.87285E-03-3.17544E-13 9.71139E-14
 -1      2937 2.00021E+01 5.51807E-03-4.54395E-05-8.17515E-04 3.66572E-13-3.03112E-13
 -1      2938 2.00023E+01 5.11351E-03 2.38518E-05-1.29688E-03 5.44713E-13-3.70782E-13
 -1      2939 2.00014E+01 7.32486E-03-9.46642E-06 3.78983E-04-6.34583E-14-2.58568E-13
 -1      2940 2.00013E+01 7.41055E-03-2.53358E-05 1.71560E-04-8.79106E-15-5.25986E-13
 -1      2941 2.00016E+01 1.18372E-02 7.32687E-05 1.75122E-04 8.77618E-14-5.06368E-13
 -1      2942 2.00016E+01 6.74916E-03-4.10438E-05-1.82447E-04 4.81669E-14-4.54652E-13
 -1      2943 2.00019E+01 6.45933E-03 1.09384E-05-5.09077E-04 2.43906E-13-2.72175E-13
 -1      2944 2.00024E+01 9.87574E-03 5.27089E-05-8.67512E-05 1.57377E-13-4.15407E-13
 -1      2945 2.00018E+01 1.13082E-02 6.80332E-05 1.99025E-04 1.48184E-13-5.35494E-13
 -1      2946 2.89710E+01 7.77182E-01-6.65724E-02 1.46382E+00-9.96148E-14-8.14099E-13
 -1      2947 2.87298E+01 2.53681E+00-2.01947E-01 1.84065E+00-2.33799E-13-7.59851E-13
 -1      2948 2.00017E+01 6.58680E-03 8.69650E-06 7.39745E-04-3.27157E-14-2.52176E-13
 -1      2949 2.00015E+01 6.84215E-03-3.97191E-05 4.57090E-04-4.76898E-14 1.59365E-14
 -1      2950 2.00017E+01 1.13808E-02 6.90451E-05 1.19103E-04-9.92526E-16-2.66659E-13
 -1      2951 2.00021E+01 5.28445E-03 1.85786E-05 1.41587E-03 1.21568E-13 4.22129E-15
 -1      2952 2.00019E+01 5.67849E-03-4.51223E-05 9.91479E-04 7.76060E-14-1.92511E-13
 -1      2953 2.00021E+01 1.00216E-02 5.33396E-05 3.14860E-04 9.75927E-14-6.77432E-14
 -1      2954 2.00023E+01 3.62374E-03-2.34525E-06 2.43845E-03 3.08636E-14 3.39151E-13
 -1      2955 2.00022E+01 4.11804E-03-3.99219E-05 1.87269E-03 6.79884E-14 1.75908E-13
 -1      2956 2.00026E+01 8.00342E-03 3.83313E-05 9.53148E-04 1.48235E-13-5.12468E-16
 -1      2957 9.85931E+00-2.22412E+00 1.01745E-01 4.94984E+00-2.88658E-13 7.12541E-13
 -1      2958 7.98053E+00-1.32196E+00 1.54041E-01 3.34566E+00-2.15064E-13 9.89986E-13
 -1      2959 7.94790E+00-1.20431E+00 1.54424E-01-3.66152E+00 2.79138E-13 3.69593E-13
 -1      2960 9.75700E+00-2.06199E+00 1.07758E-01-5.24946E+00 3.43059E-13 8.56537E-14
 -1      2961 2.02688E+01 2.37165E+00 3.44669E-04-1.13818E+00-2.57071E-13-3.97677E-13
 -1      2962 3.00181E+01 1.91175E-01-1.83946E-01-2.00451E+00 3.37882E-13-2.50605E-13
 -1      2963 2.93964E+01-1.74695E+00-2.47741E-02-1.25025E+00 1.90521E-13-3.05672E-13
 -1      2964 9.23277E+00-1.94071E+00 1.38576E-01-4.43130E+00-2.54075E-13-5.62328E-13
 -1      2965 1.21196E+01-3.25272E+00 7.33680E-02-5.92326E+00-3.09752E-13-5.78843E-13
 -1      2966 2.10803E+01-5.27172E+00-1.34776E-02 5.59919E+00 2.74517E-13-1.79501E-13
 -1      2967 1.76622E+01-4.55708E+00 1.15531E-01 6.20672E+00 3.93699E-13-3.39888E-13
 -1      2968 2.04188E+01 4.81664E-01 3.26861E-03-5.80570E-01 1.75676E-13 5.04771E-14
 -1      2969 2.04067E+01 5.36400E-01 6.53319E-03-4.12273E-01 1.79986E-13 6.06969E-14
 -1      2970 2.03911E+01 7.41632E-01-2.41596E-03-2.97486E-01 2.07472E-13-1.22504E-15
 -1      2971 2.03562E+01 5.98289E-01-2.74912E-03-6.70986E-01 1.81640E-13-3.45967E-14
 -1      2972 2.07304E+01 3.71873E-01 5.01624E-03-1.40155E+00 8.76601E-14 4.80274E-15
 -1      2973 2.05962E+01 3.84824E-01 4.23673E-04-1.28504E+00 1.16345E-13-4.14615E-15
 -1      2974 2.03863E+01 4.96835E-01-2.03822E-03-1.27794E+00 1.31943E-13-4.68027E-14
 -1      2975 2.04535E+01 4.56730E-01-2.18113E-03-1.54898E+00 5.65761E-14-7.13687E-15
 -1      2976 2.04977E+01 1.17560E+00 3.56325E-03-5.03277E-01-2.24325E-13-2.55248E-13
 -1      2977 2.04455E+01 9.49456E-01-3.35668E-03-2.25708E-01-1.90275E-13-2.54713E-13
 -1      2978 2.04069E+01 1.06515E+00-9.01029E-04-1.38020E-01-1.85478E-13-2.87535E-13
 -1      2979 1.97274E+01 2.90410E+00-6.86150E-03 5.43485E-01 3.23853E-13-3.14839E-13
 -1      2980 1.96284E+01 3.01718E+00-7.37148E-03 4.32781E-01 2.85272E-13-3.72837E-13
 -1      2981 1.96886E+01 2.78368E+00 5.91157E-03 3.11007E-01 2.39971E-13-3.40593E-13
 -1      2982 1.98874E+01 2.52817E+00 6.84194E-03 4.47798E-01 2.94399E-13-2.71349E-13
 -1      2983 2.79435E+01-4.01434E+00-1.68087E-01 6.74502E-01 1.05683E-13-2.45526E-13
 -1      2984 2.59280E+01-4.93333E+00 7.70000E-02 2.45256E+00 4.14946E-15-1.73708E-13
 -1      2985 1.64293E+01-4.53719E+00 1.71591E-02 6.18300E+00-1.74444E-13 3.44835E-13
 -1      2986 1.29855E+01-3.26491E+00 1.45995E-01 5.75176E+00-3.05977E-13 4.87110E-13
 -1      2987 1.96540E+01 2.98208E+00-7.31995E-03-4.04144E-01-2.42553E-14-4.75552E-13
 -1      2988 1.97527E+01 2.86900E+00-6.27588E-03-5.23958E-01-7.90089E-14-4.60654E-13
 -1      2989 2.77047E+01-2.88215E+00 2.11089E-02-8.22224E-01 9.50802E-14-7.64624E-13
 -1      2990 2.86093E+01-1.26362E+00-1.56487E-01 4.11949E-01 3.68872E-14-8.32556E-13
 -1      2991 2.56120E+01-4.69728E+00-1.16849E-01 2.99936E+00-3.06283E-14 2.43104E-13
 -1      2992 2.34787E+01-5.16009E+00 6.38773E-02 4.35723E+00 1.87045E-13 1.07553E-15
 -1      2993 2.25311E+01-4.89005E+00 7.25568E-02 4.40435E+00 3.07074E-13-2.62117E-14
 -1      2994 2.77636E+01 6.42375E+00-1.69481E-01 3.06104E-01-5.86864E-13-4.08035E-13
 -1      2995 2.85144E+01 6.48789E+00-1.49786E-01-6.84040E-01-7.13096E-13-1.81681E-13
 -1      2996 2.80556E+01-3.32499E+00 3.72914E-02 2.02616E-01-1.40346E-13 4.16875E-13
 -1      2997 2.87924E+01-2.27000E+00-2.10445E-01 1.33117E+00-2.63643E-14 4.91440E-13
 -1      2998 1.52081E+01-4.08900E+00 1.48595E-01-6.13334E+00-3.97238E-13-5.92804E-13
 -1      2999 1.85866E+01-4.87451E+00 8.00000E-03-5.82435E+00-3.87093E-13-4.32439E-13
 -1      3000 1.47747E+01-3.03390E+00 1.47943E-01-5.52906E+00-2.85785E-13-5.65548E-13
 -1      3001 6.89310E+00-5.68003E-01 1.35173E-01-6.81716E-01-1.34420E-13-6.14508E-13
 -1      3002 7.62633E+00-9.47014E-01 1.54793E-01-2.66711E+00-1.95753E-13-5.59414E-13
 -1      3003 1.42917E+01-3.73375E+00 5.21389E-02 6.48412E+00 3.77087E-13-3.86857E-13
 -1      3004 1.19041E+01-2.70309E+00 1.36823E-01 5.78732E+00 3.62543E-13-4.02789E-13
 -1      3005 2.00014E+01 1.24130E-03-1.69690E-05 4.10134E-03-2.72907E-13 8.47500E-14
 -1      3006 1.24261E+01-3.24621E+00 1.26271E-01-6.20040E+00 4.35554E-13 2.08111E-13
 -1      3007 1.56540E+01-4.38216E+00 4.37511E-02-6.69106E+00 5.18863E-13 3.05714E-13
 -1      3008 2.85110E+01-1.58212E+00-1.70156E-01-2.37759E-01-4.41720E-13 2.86743E-13
 -1      3009 2.76086E+01-3.11601E+00 2.02010E-02 9.78996E-01-2.55660E-13 3.56784E-13
 -1      3010 2.92105E+01 3.58226E+00-2.08822E-01-2.38376E+00 6.19144E-13-2.55657E-13
 -1      3011 2.96497E+01 1.87455E+00-1.33884E-01-2.58835E+00 4.89581E-13-3.01981E-13
 -1      3012 2.85569E+01 4.26311E+00-1.24604E-01 1.88247E+00-3.10807E-13-6.31717E-13
 -1      3013 2.78405E+01 5.46126E+00-1.71846E-01 1.46700E+00-4.20081E-13-4.89345E-13
 -1      3014 2.28794E+01-5.50374E+00-8.46807E-02 4.45305E+00-2.87131E-14-3.71231E-15
 -1      3015 1.98698E+01-5.08544E+00 1.14215E-01 5.39906E+00-1.17586E-13 7.07507E-14
 -1      3016 2.87402E+01 5.56618E+00-1.95424E-01-1.38628E+00-7.43045E-13-1.15671E-14
 -1      3017 2.91363E+01 4.22721E+00-1.36372E-01-1.75424E+00-6.85285E-13 1.60705E-14
 -1      3018 2.78856E+01 2.90528E+00-8.34201E-02-1.99239E+00-5.38208E-13 1.08691E-13
 -1      3019 2.88741E+01-1.41212E-01-1.19737E-01 2.19749E+00 1.90986E-13 5.06151E-13
 -1      3020 1.98669E+01 2.70804E+00-7.83281E-03-6.13443E-01-1.10712E-13-4.50894E-13
 -1      3021 1.99877E+01 2.53783E+00-1.10916E-02-7.35681E-01-1.68426E-13-4.64013E-13
 -1      3022 1.99144E+01 2.47922E+00 4.41197E-03-4.32857E-01-9.37166E-14-4.14066E-13
 -1      3023 1.95350E+01 2.96466E+00 4.97363E-03 3.12991E-02 1.33562E-13-4.31878E-13
 -1      3024 1.94402E+01 3.23739E+00-6.07614E-03-1.16878E-02 1.27448E-13-4.67140E-13
 -1      3025 1.94651E+01 3.21388E+00-4.97636E-03-1.19187E-01 9.71882E-14-4.76764E-13
 -1      3026 2.04265E+01 1.72705E+00-2.65866E-03 8.11036E-01 3.73623E-13-2.02538E-14
 -1      3027 2.79556E+01-6.20654E-01-4.47928E-02-1.20693E+00-3.47909E-13 2.58557E-13
 -1      3028 1.79156E+01-4.26317E+00 1.10045E-01-5.97259E+00 6.00325E-13-2.83593E-14
 -1      3029 2.46210E+01-4.79499E+00 6.23137E-02 2.80961E+00-1.49700E-13-1.95313E-13
 -1      3030 2.00029E+01 7.78651E-03 2.54707E-05-8.42246E-04 3.47628E-13-2.70109E-13
 -1      3031 2.00025E+01 3.93861E-03-3.87456E-05-1.83729E-03 4.93289E-13-3.12086E-13
 -1      3032 2.00025E+01 3.49744E-03 2.86159E-05-2.42854E-03 3.72521E-13-1.68511E-13
 -1      3033 2.65761E+01-3.65688E+00-1.43291E-02-1.37103E+00 2.36484E-13-7.45709E-13
 -1      3034 2.72204E+01 5.24557E+00-1.24508E-01-1.15202E+00-6.35852E-13-1.69767E-13
 -1      3035 2.62461E+01-3.91698E+00 1.20130E-03 1.59336E+00-3.70780E-14 2.77903E-13
 -1      3036 2.80291E+01 3.87069E+00-1.43681E-01-2.02286E+00 6.29899E-13-3.03500E-13
 -1      3037 2.79346E+01 2.40059E-02-7.86460E-02-2.66096E+00 2.63171E-13-4.39052E-13
 -1      3038 2.78717E+01-5.91601E-01-5.57345E-02 1.27310E+00 7.56062E-14-8.47517E-13
 -1      3039 2.00023E+01 2.31041E-03-2.93101E-05-3.09435E-03 2.64737E-13-3.97896E-14
 -1      3040 2.00020E+01 1.93689E-03 2.16083E-05-3.65475E-03 1.68612E-13 3.13687E-13
 -1      3041 2.00024E+01 3.33855E-03 2.87164E-05-3.28962E-03-2.49625E-14 5.17480E-13
 -1      3042 2.00030E+01 5.45837E-03 2.01403E-05-1.99440E-03 2.49957E-13 6.19378E-14
 -1      3043 2.75368E+01 2.71666E+00-1.04497E-01 2.03995E+00-1.85491E-13-6.67973E-13
 -1      3044 8.10754E+00-5.87528E-01 1.77497E-01 2.18264E+00-1.50203E-13 1.00250E-12
 -1      3045 8.60704E+00 5.38563E-02 1.16770E-01 9.09503E-01-8.21877E-14 8.29919E-13
 -1      3046 9.98565E+00-4.53891E-01 1.10902E-01 2.82344E+00-1.75658E-13 8.97227E-13
 -1      3047 1.29606E+01-2.29691E+00 1.41792E-01 5.04771E+00-2.16646E-13 5.11369E-13
 -1      3048 2.00019E+01 1.80078E-03 3.85584E-05 3.51249E-03-2.09118E-13 1.05342E-13
 -1      3049 1.24801E+01-2.28345E+00 1.38368E-01-5.42585E+00 4.12892E-13 1.13409E-13
 -1      3050 1.73355E+01-3.82951E+00 1.04461E-01 5.81053E+00 4.22343E-13-3.34621E-13
 -1      3051 2.01728E+01 2.27610E+00-1.33963E-03-8.22311E-01-1.94901E-13-4.33241E-13
 -1      3052 2.04263E+01 1.78454E+00-8.70999E-03-9.34673E-01-2.67352E-13-3.25265E-13
 -1      3053 2.04479E+01 1.41761E+00 1.54978E-04-6.38888E-01-2.35458E-13-2.86537E-13
 -1      3054 2.01887E+01 2.05038E+00 5.29649E-03-5.84062E-01-1.65488E-13-4.15742E-13
 -1      3055 2.91054E+01 5.91085E+00-1.68977E-01-2.70839E-01 8.85597E-13-4.15709E-14
 -1      3056 2.94793E+01 5.34301E+00-1.60456E-01-1.42425E+00 8.52929E-13-9.61453E-14
 -1      3057 1.01615E+01-1.00481E+00 1.60558E-01-3.47439E+00-2.19713E-13-5.41234E-13
 -1      3058 8.07503E+00-5.18686E-01 1.75687E-01-2.47665E+00 1.79825E-13 5.53946E-13
 -1      3059 9.93469E+00-4.03137E-01 1.00831E-01-3.06784E+00 2.72799E-13 1.75526E-13
 -1      3060 8.59588E+00 9.25987E-02 1.20879E-01-1.13340E+00 3.86600E-14 6.35991E-13
 -1      3061 1.10612E+01-1.82413E+00 1.36592E-01 5.01241E+00 3.08642E-13-3.93671E-13
 -1      3062 1.04851E+01-8.07578E-01 1.20685E-01 3.83876E+00 2.39059E-13-3.71328E-13
 -1      3063 1.32121E+01-1.84303E+00 1.03563E-01 4.99333E+00 3.74638E-13-3.35038E-13
 -1      3064 2.03788E+01 1.52793E+00 2.90378E-03-5.13281E-01-2.00860E-13-3.22436E-13
 -1      3065 1.95091E+01 3.15621E+00-6.64442E-03-2.02180E-01 5.91058E-14-4.62814E-13
 -1      3066 1.95730E+01 3.09030E+00-5.15370E-03-3.15473E-01 1.01136E-14-4.65953E-13
 -1      3067 1.97184E+01 2.74080E+00 4.72587E-03-2.72227E-01-5.63200E-15-4.26352E-13
 -1      3068 1.95873E+01 2.90220E+00 4.87419E-03-1.15999E-01 6.50596E-14-4.38119E-13
 -1      3069 2.13147E+01-5.01654E+00 1.15646E-01-5.00731E+00-3.55244E-13-2.58148E-13
 -1      3070 2.31515E+01-5.05574E+00-8.12417E-02-3.64034E+00-3.02064E-13 5.19081E-14
 -1      3071 1.96908E+01-4.19853E+00 9.34210E-02-5.07054E+00-3.32928E-13-3.61280E-13
 -1      3072 2.63792E+01 4.27605E+00-1.36872E-01-2.78960E-01 5.95080E-13-1.38668E-13
 -1      3073 2.81240E+01-2.88886E+00-3.26799E-02-7.23772E-01 4.81941E-14-4.38830E-13
 -1      3074 2.03882E+01 1.55971E+00 3.48417E-03 5.29989E-01 3.37713E-13-5.93826E-14
 -1      3075 1.90826E+01-4.24870E+00 1.15103E-01 5.19438E+00-2.13024E-13 1.46480E-13
 -1      3076 2.00024E+01 4.34450E-03-2.55627E-05 2.65333E-03-3.78091E-13-1.90694E-13
 -1      3077 2.00023E+01 3.50483E-03-2.70839E-05 2.66071E-03-1.09521E-13 2.26556E-13
 -1      3078 2.00030E+01 6.73296E-03 7.59021E-05 1.52582E-03-1.93978E-14 1.01132E-13
 -1      3079 2.00031E+01 6.11828E-03 1.05880E-04 1.73091E-03-2.75565E-13-1.98755E-13
 -1      3080 2.67448E+01-3.89832E+00 3.99809E-02-7.47902E-01-1.63253E-13 3.12014E-13
 -1      3081 2.70664E+01 5.65095E+00-1.47830E-01 9.80547E-01-4.60215E-13-4.34160E-13
 -1      3082 2.60664E+01 5.59104E+00-8.49422E-02 3.10478E-01-5.06151E-13-4.65867E-13
 -1      3083 2.62412E+01 4.79284E+00-5.40392E-02 1.43516E+00-3.35162E-13-5.06602E-13
 -1      3084 7.88093E+00-2.34314E-01 1.87148E-01 7.02026E-01-1.78746E-14-6.01325E-13
 -1      3085 9.33833E+00 1.74779E-01 1.16859E-01-2.10966E-01-9.91048E-14-4.42452E-13
 -1      3086 9.22508E+00-1.49173E-01 8.70037E-02 2.14139E+00 1.25412E-13-4.53193E-13
 -1      3087 2.69292E+01 9.64755E-02-1.63668E-01-1.76263E+00-3.45446E-13 1.33664E-13
 -1      3088 2.70099E+01-1.48855E+00 1.85669E-02-1.08666E+00-2.25500E-13 2.32259E-13
 -1      3089 2.02196E+01 1.75995E+00-5.33412E-03 3.96801E-01 3.06306E-13-1.35094E-13
 -1      3090 2.00916E+01 1.98765E+00-2.48955E-03 3.58211E-01 2.86081E-13-1.84008E-13
 -1      3091 2.03397E+01 1.36071E+00 1.54951E-03-2.50388E-01-1.75817E-13-3.36895E-13
 -1      3092 2.03275E+01 1.13839E+00-3.46732E-03-2.02208E-02-1.62134E-13-3.31794E-13
 -1      3093 2.03122E+01 6.94412E-01 3.49923E-03 5.04443E-01-1.30698E-13-2.85316E-13
 -1      3094 2.03077E+01 5.89070E-01-4.12185E-04 6.45974E-01-1.13751E-13-2.53773E-13
 -1      3095 2.03013E+01 4.98063E-01 2.93252E-03 7.73992E-01-1.13200E-13-2.18037E-13
 -1      3096 2.03194E+01 4.10064E-01 6.58939E-04 8.82466E-01-1.09380E-13-2.46407E-13
 -1      3097 2.02150E+01 6.52011E-01-1.79135E-03 7.09293E-01-9.75522E-14-2.13311E-13
 -1      3098 2.03273E+01 3.24355E-01 2.98363E-03 9.87803E-01-9.07456E-14-2.29054E-13
 -1      3099 2.03740E+01 2.31573E-01 1.30513E-03 1.06671E+00-6.00422E-14-2.14977E-13
 -1      3100 2.02048E+01 4.48201E-01-2.93299E-03 9.51846E-01-9.29048E-14-2.12058E-13
 -1      3101 2.04116E+01 1.31181E-01 3.85449E-03 1.15048E+00 4.47666E-15-2.14605E-13
 -1      3102 2.04940E+01 1.38901E-02 1.48069E-03 1.19771E+00 2.90386E-14-1.64685E-13
 -1      3103 2.02374E+01 2.35101E-01-4.50300E-03 1.15213E+00-3.02697E-14-1.89497E-13
 -1      3104 2.05807E+01-1.18691E-01 5.80961E-03 1.25543E+00 3.97741E-14-1.35582E-13
 -1      3105 2.07081E+01-2.77247E-01 9.59823E-04 1.26230E+00 2.76453E-14-1.00357E-13
 -1      3106 2.03438E+01-3.13436E-02-6.88492E-03 1.30904E+00 6.89782E-14-1.87456E-13
 -1      3107 2.08687E+01-4.54430E-01 9.01490E-03 1.28115E+00 2.14669E-14-4.33446E-14
 -1      3108 2.10501E+01-6.63020E-01-7.20571E-04 1.23171E+00 5.52200E-14-4.23096E-14
 -1      3109 2.05644E+01-3.89438E-01-1.02920E-02 1.40833E+00 7.94448E-14-1.37895E-13
 -1      3110 2.13129E+01-8.84405E-01 1.32793E-02 1.18705E+00 1.78968E-14-2.55363E-14
 -1      3111 2.15509E+01-1.13251E+00-4.29137E-03 1.05859E+00-1.41994E-14-7.45845E-14
 -1      3112 2.09496E+01-8.60731E-01-1.44838E-02 1.41570E+00 1.83678E-14-8.15158E-14
 -1      3113 2.19377E+01-1.37017E+00 1.73783E-02 9.11176E-01 1.64424E-14-3.85711E-14
 -1      3114 2.22166E+01-1.60719E+00-1.00562E-02 6.79610E-01 5.68798E-14-1.91332E-14
 -1      3115 2.15503E+01-1.42486E+00-1.83657E-02 1.26937E+00 1.91455E-14-6.37814E-15
 -1      3116 2.27172E+01-1.78192E+00 1.79659E-02 3.80494E-01 7.59705E-14 1.78930E-14
 -1      3117 2.29902E+01-1.89022E+00-1.53395E-02 3.94515E-02 6.85085E-14 3.73204E-15
 -1      3118 2.23914E+01-1.97293E+00-1.94833E-02 8.73576E-01 8.03354E-14 4.29233E-14
 -1      3119 2.35109E+01-1.84840E+00 9.28532E-03-4.24693E-01 3.89636E-14 2.79880E-14
 -1      3120 2.37203E+01-1.64558E+00-7.24358E-03-8.17138E-01 1.82658E-14 2.75409E-14
 -1      3121 2.33898E+01-2.23271E+00-1.79085E-02 1.32309E-01 8.60994E-14-3.98696E-14
 -1      3122 2.40870E+01-1.24385E+00-1.29539E-02-1.33216E+00-2.94357E-14 1.36202E-14
 -1      3123 2.41812E+01-6.06542E-01 3.58920E-03-1.64692E+00-9.02251E-14-7.64727E-14
 -1      3124 2.43316E+01-1.73447E+00 8.60658E-05-9.09001E-01-2.61666E-14-6.47780E-14
 -1      3125 2.47342E+01-2.42014E-01-5.03576E-02-1.85868E+00-1.60569E-13-3.56338E-14
 -1      3126 2.46914E+01 7.55811E-01-2.14916E-02-1.87649E+00-2.51823E-13-7.50398E-14
 -1      3127 2.35059E+01 3.51757E+00-2.16989E-02-2.26678E-01-3.23061E-13-2.60220E-13
 -1      3128 2.34787E+01 3.44863E+00-7.30801E-02 5.07000E-01-2.66426E-13-3.42512E-13
 -1      3129 2.40440E+01 1.04460E+00-2.00630E-02 1.94683E+00-2.33953E-13-3.49784E-13
 -1      3130 2.41417E+01 1.59973E-01-4.61463E-02 1.99897E+00-1.06501E-13-3.62944E-13
 -1      3131 2.41060E+01-6.80199E-01-1.71248E-03 1.67543E+00-2.66063E-15-2.92241E-13
 -1      3132 2.40344E+01-1.29875E+00-1.61376E-02 1.35910E+00 1.48724E-13-3.03809E-13
 -1      3133 2.48104E+01-4.15200E-01 6.53236E-03 1.83777E+00-4.82288E-14-2.82543E-13
 -1      3134 2.36434E+01-1.65944E+00-1.37831E-02 8.39055E-01 1.83415E-13-4.17182E-13
 -1      3135 2.34373E+01-1.82253E+00 8.71341E-03 4.47754E-01 1.29207E-13-4.57405E-13
 -1      3136 2.42416E+01-1.79051E+00 3.98732E-03 8.69053E-01 1.10063E-13-2.55055E-13
 -1      3137 2.29049E+01-1.82231E+00-1.53415E-02 6.94364E-03 2.05680E-14-4.22388E-13
 -1      3138 2.26288E+01-1.69169E+00 1.77847E-02-3.15262E-01 1.72171E-16-3.67869E-13
 -1      3139 2.32706E+01-2.15854E+00-1.20191E-02-1.15878E-01 5.40410E-14-3.89479E-13
 -1      3140 2.21328E+01-1.50354E+00-9.63676E-03-5.87185E-01 2.64485E-14-2.94868E-13
 -1      3141 2.18571E+01-1.26191E+00 1.69928E-02-7.98799E-01 3.88804E-14-2.75441E-13
 -1      3142 2.22609E+01-1.85303E+00-1.82479E-02-7.93860E-01 5.09178E-14-2.85650E-13
 -1      3143 2.14750E+01-1.02501E+00-4.10768E-03-9.26248E-01 6.31657E-14-2.58302E-13
 -1      3144 2.12412E+01-7.82842E-01 1.26902E-02-1.03831E+00 1.40370E-13-1.43844E-13
 -1      3145 2.14303E+01-1.30007E+00-1.74312E-02-1.14266E+00 1.03912E-13-1.32005E-13
 -1      3146 2.09793E+01-5.70766E-01-6.85711E-04-1.06964E+00 2.16104E-13-2.22791E-13
 -1      3147 2.07994E+01-3.75655E-01 8.15579E-03-1.10867E+00 2.50365E-13-1.65378E-13
 -1      3148 2.08339E+01-7.51411E-01-1.34858E-02-1.25855E+00 1.73693E-13-1.53124E-13
 -1      3149 2.06349E+01-2.14793E-01 1.01683E-03-1.08411E+00 2.18597E-13-1.70166E-13
 -1      3150 2.05041E+01-7.73932E-02 4.67291E-03-1.07503E+00 1.04519E-13-1.58595E-13
 -1      3151 2.04440E+01-3.12570E-01-9.19181E-03-1.23502E+00 2.37339E-13-2.56056E-13
 -1      3152 2.04087E+01 3.05132E-02 1.71786E-03-1.02126E+00 5.68692E-14-6.23956E-14
 -1      3153 2.03160E+01 1.16299E-01 2.23966E-03-9.83413E-01 4.07513E-14 6.37892E-14
 -1      3154 2.02081E+01-4.88612E-03-5.74068E-03-1.13740E+00 1.39359E-13-1.68699E-13
 -1      3155 2.02657E+01 1.80031E-01 1.92106E-03-9.16799E-01-7.81570E-14 9.89830E-14
 -1      3156 2.02003E+01 2.25855E-01 6.79693E-04-8.63913E-01 2.79070E-14 1.99881E-14
 -1      3157 2.00762E+01 1.87053E-01-3.34364E-03-1.00553E+00 5.02856E-14-1.62093E-14
 -1      3158 2.01776E+01 2.56793E-01 1.91310E-03-7.94212E-01 2.42634E-14 2.54322E-14
 -1      3159 2.01308E+01 2.74489E-01-2.41932E-04-7.35640E-01-1.85970E-14 5.99818E-14
 -1      3160 2.00097E+01 2.89849E-01-1.79793E-03-8.62681E-01-6.18696E-15 1.21536E-13
 -1      3161 2.01237E+01 2.83154E-01 1.81289E-03-6.68565E-01 6.10388E-14 5.66617E-14
 -1      3162 2.00895E+01 2.82661E-01-7.29011E-04-6.10369E-01 8.01307E-14 1.43131E-13
 -1      3163 1.99817E+01 3.29927E-01-8.66331E-04-7.22315E-01 1.34956E-14 4.17219E-14
 -1      3164 2.00905E+01 2.77469E-01 1.66868E-03-5.49095E-01-1.28375E-13 2.37415E-13
 -1      3165 2.00647E+01 2.66314E-01-9.35757E-04-4.94947E-01-2.48629E-13 1.07848E-13
 -1      3166 1.99746E+01 3.29331E-01-3.44034E-04-5.92011E-01 3.29950E-14 1.36139E-14
 -1      3167 2.00693E+01 2.53431E-01 1.50116E-03-4.41025E-01-1.62256E-13 1.53532E-13
 -1      3168 2.00494E+01 2.36919E-01-9.71396E-04-3.92896E-01-7.17272E-14 1.66279E-13
 -1      3169 1.99776E+01 3.04751E-01-7.66041E-05-4.75710E-01-1.02430E-13 7.95178E-14
 -1      3170 2.00549E+01 2.20571E-01 1.32186E-03-3.46826E-01-2.13249E-13 3.19025E-13
 -1      3171 2.00393E+01 2.02216E-01-9.10041E-04-3.05518E-01-1.64682E-13 2.53417E-13
 -1      3172 1.99844E+01 2.67990E-01 4.15683E-05-3.75022E-01-4.91817E-14 2.63821E-13
 -1      3173 2.00446E+01 1.85119E-01 1.13984E-03-2.67127E-01-5.06564E-14 1.37738E-13
 -1      3174 2.00322E+01 1.67093E-01-8.00316E-04-2.32672E-01 8.17184E-14 1.73496E-13
 -1      3175 1.99918E+01 2.26903E-01 7.82665E-05-2.90047E-01-1.48745E-13 2.66548E-13
 -1      3176 2.00365E+01 1.50868E-01 9.62929E-04-2.01376E-01 3.68253E-14 1.12475E-13
 -1      3177 2.00267E+01 1.34393E-01-6.72945E-04-1.73332E-01-8.22388E-14 3.77939E-14
 -1      3178 1.99981E+01 1.86384E-01 7.47930E-05-2.19922E-01-5.12937E-14 2.81421E-13
 -1      3179 2.00299E+01 1.19898E-01 7.97377E-04-1.48331E-01-7.32472E-14 1.47813E-14
 -1      3180 2.00221E+01 1.05553E-01-5.46354E-04-1.26003E-01 2.39673E-15-5.05067E-14
 -1      3181 2.00028E+01 1.49217E-01 5.49809E-05-1.63219E-01-9.61754E-14 4.49313E-14
 -1      3182 2.00244E+01 9.31422E-02 6.47547E-04-1.06407E-01 2.11467E-14 1.42076E-13
 -1      3183 2.00182E+01 8.10949E-02-4.30709E-04-8.89907E-02 7.67922E-14 8.10122E-14
 -1      3184 2.00060E+01 1.16751E-01 3.16677E-05-1.18239E-01 9.71608E-14 6.53820E-14
 -1      3185 2.00196E+01 7.08074E-02 5.15944E-04-7.39173E-02 9.14201E-14 1.84223E-13
 -1      3186 2.00148E+01 6.09718E-02-3.30936E-04-6.06022E-02 1.37073E-14 6.96052E-14
 -1      3187 2.00077E+01 8.93970E-02 1.10347E-05-8.32123E-02 1.16514E-13 3.17571E-13
 -1      3188 2.00155E+01 5.26598E-02 4.03565E-04-4.92276E-02-6.61534E-14-3.97739E-15
 -1      3189 2.00118E+01 4.48093E-02-2.48489E-04-3.92584E-02-1.35847E-13 1.97811E-14
 -1      3190 2.00082E+01 6.69940E-02-4.73778E-06-5.64377E-02-5.64435E-14 1.42037E-13
 -1      3191 2.00121E+01 3.82265E-02 3.09920E-04-3.08534E-02-3.57882E-14 3.77349E-14
 -1      3192 2.00092E+01 3.20661E-02-1.83062E-04-2.35638E-02 2.04041E-13 6.03178E-14
 -1      3193 2.00080E+01 4.90559E-02-1.47249E-05-3.63692E-02-1.25021E-14 1.79463E-13
 -1      3194 2.00091E+01 2.69203E-02 2.33366E-04-1.75057E-02 2.84929E-13-1.08031E-13
 -1      3195 2.00070E+01 2.21282E-02-1.32798E-04-1.23343E-02 2.94061E-13-1.33894E-13
 -1      3196 2.00072E+01 3.49332E-02-2.00996E-05-2.16574E-02 1.58888E-13-3.80333E-14
 -1      3197 2.00067E+01 1.81169E-02 1.71396E-04-8.12190E-03 2.50427E-13-1.06944E-13
 -1      3198 2.00051E+01 1.43992E-02-8.22193E-05-4.61866E-03 1.99884E-13-1.12474E-13
 -1      3199 2.00060E+01 2.39264E-02-1.64567E-05-1.11869E-02 3.16291E-13-2.83389E-13
 -1      3200 2.00047E+01 1.14558E-02 1.32696E-04-2.08677E-03 2.98828E-14-9.54263E-14
 -1      3201 2.00035E+01 8.49274E-03-4.77030E-05 1.35150E-04-9.37305E-14-6.13316E-14
 -1      3202 2.00035E+01 8.99103E-03-8.19917E-05 2.08782E-05-2.09560E-13-3.93817E-13
 -1      3203 2.00048E+01 1.54418E-02-6.24201E-05-4.30469E-03 2.28756E-13-3.37621E-14
 -1      3204 2.02253E+01 6.52196E-01 1.87755E-03-1.04501E+00 1.43962E-13-8.84483E-14
 -1      3205 2.02209E+01 6.79531E-01 4.18634E-04-8.92435E-01 1.56280E-13-7.69350E-14
 -1      3206 2.03049E+01 2.01298E-01 8.09020E-03-2.13669E+00-7.68539E-15-3.21672E-15
 -1      3207 2.01676E+01 3.51445E-01 9.80000E-05-2.03137E+00 3.06845E-14-4.92480E-14
 -1      3208 2.01989E+01 4.57383E-01 5.85769E-03-1.87795E+00 4.46661E-14-8.93001E-14
 -1      3209 2.01206E+01 5.24883E-01-1.63123E-03-1.75421E+00 4.92007E-14-7.58593E-14
 -1      3210 1.96969E+01 5.09851E-01-2.17308E-03-1.98514E+00 1.21485E-14-9.24229E-14
 -1      3211 2.12038E+01-1.13571E+00 1.27610E-02-2.48506E+00-2.08167E-13 5.35396E-14
 -1      3212 2.07854E+01-6.67385E-01 1.58423E-02-2.50899E+00-1.52704E-13 2.42321E-14
 -1      3213 2.24563E+01-2.33148E+00 2.37798E-02-2.32605E+00-2.60025E-13 1.04364E-13
 -1      3214 2.17218E+01-1.68186E+00 4.43427E-02-2.56449E+00-2.39259E-13 7.48221E-14
 -1      3215 2.04505E+01-1.50380E+00-2.92624E-02-2.99126E+00-2.42783E-13-5.95422E-15
 -1      3216 2.40949E+01-3.94868E+00 3.77597E-02-2.24907E+00-2.24439E-13 1.69814E-13
 -1      3217 2.30209E+01-3.39646E+00 5.94659E-02-2.71609E+00-2.67441E-13 1.22278E-13
 -1      3218 2.56945E+01-4.14848E+00 1.00853E-01-1.56462E+00-2.05882E-13 2.66460E-13
 -1      3219 2.33005E+01-4.73060E+00-8.74340E-02 3.45170E+00 2.22128E-13 6.74946E-14
 -1      3220 2.16278E+01-4.35380E+00 8.63084E-02 4.33551E+00 3.16868E-13-7.60329E-14
 -1      3221 2.64426E+01 3.73863E+00-1.62325E-01-1.53976E+00 5.92582E-13-3.97554E-13
 -1      3222 2.11580E+01-8.91184E-01 2.21123E-02 2.35623E+00-1.26840E-13-4.29111E-14
 -1      3223 2.16387E+01-1.41794E+00 1.10944E-02 2.29177E+00-1.37563E-13 6.87888E-15
 -1      3224 2.05819E+01-1.37726E-01 8.57386E-03 2.18434E+00-5.68678E-14 1.27690E-14
 -1      3225 2.08728E+01-4.72091E-01 1.13432E-02 2.22780E+00-6.74283E-14 3.45466E-14
 -1      3226 2.00972E+01-6.85731E-01-2.22624E-02 2.58113E+00-2.02544E-13-1.10999E-13
 -1      3227 2.03179E+01 2.91175E-01 1.48235E-03 1.93077E+00-1.12392E-13 2.45630E-14
 -1      3228 2.04864E+01 1.11430E-01 8.25858E-03 2.02734E+00-3.83135E-14 3.20804E-14
 -1      3229 1.97940E+01 5.40771E-02-9.89053E-03 2.24297E+00-1.26464E-13 8.74158E-14
 -1      3230 2.02116E+01 4.91772E-01-1.60222E-03 1.65756E+00-2.20085E-13 1.07067E-13
 -1      3231 2.03134E+01 4.15288E-01 5.96718E-03 1.77549E+00-1.73079E-13-1.65860E-14
 -1      3232 1.97283E+01 4.52676E-01-3.08644E-03 1.91084E+00-1.32608E-13-9.30294E-15
 -1      3233 2.01742E+01 5.51378E-01-2.74691E-03 1.39245E+00-1.51238E-13 4.23561E-14
 -1      3234 2.02424E+01 5.36272E-01 4.55804E-03 1.51403E+00-1.53610E-13 1.26892E-13
 -1      3235 1.97663E+01 6.23123E-01 2.86285E-04 1.60745E+00-1.56440E-13-5.32250E-14
 -1      3236 2.01608E+01 5.33195E-01-2.96164E-03 1.14825E+00 1.06709E-13-1.59206E-13
 -1      3237 2.02127E+01 5.50698E-01 3.72322E-03 1.26365E+00 2.73940E-14 2.29363E-16
 -1      3238 1.98355E+01 6.57831E-01 1.55272E-03 1.33638E+00-5.24649E-16-1.35674E-13
 -1      3239 2.01516E+01 4.77576E-01-2.75260E-03 9.30939E-01 1.18945E-13-2.30311E-13
 -1      3240 2.01950E+01 5.09865E-01 3.20396E-03 1.03498E+00 1.00928E-13-2.24692E-13
 -1      3241 1.99026E+01 6.19696E-01 1.74311E-03 1.09690E+00 1.41231E-13-1.03246E-13
 -1      3242 2.01401E+01 4.08244E-01-2.37606E-03 7.42732E-01-1.34794E-13-2.03429E-13
 -1      3243 2.01779E+01 4.45077E-01 2.82152E-03 8.33166E-01 1.98197E-14-2.78052E-13
 -1      3244 1.99555E+01 5.47880E-01 1.48552E-03 8.88032E-01 6.37603E-14-1.53778E-13
 -1      3245 2.01252E+01 3.38131E-01-1.96147E-03 5.83417E-01 5.89309E-14-3.59950E-13
 -1      3246 2.01583E+01 3.74059E-01 2.48469E-03 6.59867E-01 1.56225E-14-2.12984E-13
 -1      3247 1.99923E+01 4.65144E-01 1.10042E-03 7.08683E-01-3.55880E-15-2.27649E-13
 -1      3248 2.01081E+01 2.73627E-01-1.57143E-03 4.51216E-01 1.09097E-13-4.01788E-13
 -1      3249 2.01368E+01 3.06061E-01 2.16135E-03 5.14407E-01-5.87482E-15-4.40012E-13
 -1      3250 2.00150E+01 3.83824E-01 7.33825E-04 5.57253E-01 3.61802E-14-3.14040E-13
 -1      3251 2.00905E+01 2.17365E-01-1.23184E-03 3.43445E-01-1.39525E-13-1.44087E-13
 -1      3252 2.01148E+01 2.45332E-01 1.84776E-03 3.94694E-01-4.67412E-14-2.55678E-13
 -1      3253 2.00271E+01 3.09945E-01 4.39128E-04 4.31538E-01-1.47724E-13-1.50644E-13
 -1      3254 2.00737E+01 1.69944E-01-9.49193E-04 2.57008E-01-2.24689E-15 5.48616E-14
 -1      3255 2.00938E+01 1.93335E-01 1.55035E-03 2.97879E-01-2.27149E-14-3.98163E-14
 -1      3256 2.00320E+01 2.45891E-01 2.24814E-04 3.28871E-01-1.64973E-13-6.67192E-14
 -1      3257 2.00584E+01 1.30936E-01-7.20664E-04 1.88735E-01-5.69610E-14 2.07413E-13
 -1      3258 2.00748E+01 1.50068E-01 1.27688E-03 2.20829E-01 9.18005E-15 1.33407E-13
 -1      3259 2.00323E+01 1.92061E-01 8.06643E-05 2.46344E-01-5.50194E-14 2.74720E-14
 -1      3260 2.00453E+01 9.94514E-02-5.39635E-04 1.35606E-01-4.47380E-14 1.81150E-13
 -1      3261 2.00583E+01 1.14822E-01 1.03296E-03 1.60434E-01-1.81256E-14 2.89378E-13
 -1      3262 2.00299E+01 1.47847E-01-9.02517E-06 1.81015E-01-7.14728E-14 3.23503E-13
 -1      3263 2.00344E+01 7.44395E-02-3.98527E-04 9.48706E-02-1.35862E-13 3.72245E-13
 -1      3264 2.00444E+01 8.66005E-02 8.21274E-04 1.13795E-01-6.65744E-14 2.95285E-13
 -1      3265 2.00262E+01 1.12190E-01-5.94803E-05 1.30077E-01-1.01617E-13 2.87119E-13
 -1      3266 2.00255E+01 5.48489E-02-2.90061E-04 6.41150E-02-2.31968E-13 3.32730E-13
 -1      3267 2.00331E+01 6.43385E-02 6.41916E-04 7.83172E-02-1.70677E-13 4.12718E-13
 -1      3268 2.00220E+01 8.38790E-02-8.31881E-05 9.09610E-02-2.26264E-13 4.31193E-13
 -1      3269 2.00185E+01 3.96977E-02-2.07972E-04 4.12758E-02-3.44270E-15 3.05274E-13
 -1      3270 2.00242E+01 4.70124E-02 4.93269E-04 5.17547E-02-1.12431E-13 2.68017E-13
 -1      3271 2.00180E+01 6.17127E-02-8.96280E-05 6.13944E-02-1.21693E-13 2.23161E-13
 -1      3272 2.00131E+01 2.80979E-02-1.47294E-04 2.46353E-02 2.43487E-13 1.51243E-13
 -1      3273 2.00172E+01 3.36842E-02 3.72896E-04 3.22130E-02 8.66299E-14 2.62990E-13
 -1      3274 2.00142E+01 4.45689E-02-8.59030E-05 3.94249E-02 4.18760E-14 1.02872E-13
 -1      3275 2.00090E+01 1.92557E-02-1.04793E-04 1.28052E-02 7.60541E-14 4.15628E-13
 -1      3276 2.00119E+01 2.35112E-02 2.77270E-04 1.81380E-02 2.22026E-13 3.19143E-13
 -1      3277 2.00109E+01 3.14331E-02-7.54366E-05 2.34200E-02-1.90488E-14 3.51574E-13
 -1      3278 2.00059E+01 1.25216E-02-7.25054E-05 4.70531E-03 5.97069E-14 5.23379E-13
 -1      3279 2.00079E+01 1.57608E-02 2.01262E-04 8.30667E-03 6.69458E-14 4.24999E-13
 -1      3280 2.00081E+01 2.14120E-02-5.90568E-05 1.20741E-02-4.36071E-15 8.37511E-13
 -1      3281 2.00037E+01 7.33422E-03-1.33296E-05-4.96124E-04 1.98590E-14 4.53430E-13
 -1      3282 2.00050E+01 9.77650E-03 1.36410E-04 1.72227E-03 1.42405E-13 4.79458E-13
 -1      3283 2.00057E+01 1.37199E-02-5.19767E-05 4.32787E-03 5.10348E-14 6.70117E-13
 -1      3284 2.00028E+01 4.72694E-03 1.94373E-05-2.48787E-03 2.63183E-14 6.27325E-13
 -1      3285 2.00032E+01 6.06399E-03 5.58880E-05-1.64956E-03 5.55486E-14 5.14080E-13
 -1      3286 2.00042E+01 8.85178E-03-3.99918E-05 1.50255E-04-1.04022E-14 4.52117E-13
 -1      3287 2.00032E+01 5.66190E-03-4.94147E-05-1.85854E-03 9.44573E-14 4.89322E-13
 -1      3288 2.67260E+01 1.65970E+00-4.93681E-02 2.22980E+00-1.75138E-13-6.13301E-13
 -1      3289 2.61834E+01 2.90888E+00-1.78868E-01 2.07020E+00-1.91694E-13-5.16212E-13
 -1      3290 1.96118E+01 2.63689E+00-4.54166E-03 1.62377E-01 1.88843E-13-3.63465E-13
 -1      3291 1.95744E+01 2.68302E+00-4.05508E-03 1.01519E-01 1.57133E-13-4.04078E-13
 -1      3292 2.52043E+01-4.35844E+00-8.20993E-02 1.66486E+00-1.30618E-13-3.76306E-13
 -1      3293 2.32835E+01-4.35034E+00 1.07485E-01 3.23914E+00-1.94050E-13-2.35778E-13
 -1      3294 2.00011E+01 1.64530E-02-3.87418E-05 1.01170E-04 2.33287E-13-4.96232E-13
 -1      3295 2.00011E+01 1.64396E-02-3.66030E-05 2.75292E-04 2.77460E-13-6.22425E-13
 -1      3296 2.00030E+01 1.07720E-02-1.03296E-05-1.48723E-04 9.76690E-14-7.23991E-15
 -1      3297 2.00027E+01 1.19083E-02-7.12311E-05-5.65239E-04 2.10793E-13-2.07681E-13
 -1      3298 2.00015E+01 1.56455E-02-1.12088E-05-4.70419E-04 1.34904E-13-1.40674E-13
 -1      3299 2.00012E+01 1.60540E-02-6.00260E-05-3.66095E-04 1.67061E-13-3.47667E-13
 -1      3300 2.00011E+01 2.13791E-02 1.15774E-04-4.00740E-04 3.35724E-13-4.80155E-13
 -1      3301 1.49007E+01-2.54125E+00 6.26699E-03 5.13897E+00-2.00465E-13 3.26614E-13
 -1      3302 1.23238E+01-1.29245E+00 1.18960E-01 4.29976E+00-1.32470E-13 5.90639E-13
 -1      3303 1.70648E+01-3.49036E+00 9.27298E-02-5.65336E+00 5.62703E-13-4.46032E-14
 -1      3304 1.94913E+01-4.38955E+00-3.02385E-02-5.36281E+00 6.40245E-13-1.81084E-13
 -1      3305 2.86174E+01 6.76675E-01-1.22601E-02-2.62483E+00 2.59529E-13-4.43555E-13
 -1      3306 2.62264E+01-3.38172E+00-1.43705E-01 4.28544E-01-1.12270E-13 2.64875E-13
 -1      3307 2.51164E+01-4.17991E+00 6.54979E-02 2.02502E+00 8.70051E-14 1.88811E-13
 -1      3308 1.03582E+01-2.57466E-01 8.92252E-02-2.58727E+00-1.35687E-13-4.72469E-13
 -1      3309 1.19665E+01-1.20699E+00 8.44759E-02-4.26070E+00-1.92069E-13-5.09606E-13
 -1      3310 2.00023E+01 1.36769E-02 1.04079E-05-6.38855E-04 1.29909E-13-8.27488E-14
 -1      3311 2.00018E+01 1.44663E-02-7.48028E-05-7.41766E-04 1.14752E-13 5.64447E-14
 -1      3312 2.00017E+01 1.98415E-02 1.00212E-04-1.40261E-03 1.35434E-13-1.17166E-13
 -1      3313 2.00027E+01 1.69608E-02 5.58814E-05-1.79203E-03 1.01966E-13-1.82321E-13
 -1      3314 2.22782E+01-2.00103E+00 4.76901E-02 2.28167E+00-1.16208E-13-6.73925E-14
 -1      3315 2.29613E+01-2.67364E+00-3.77461E-03 2.01809E+00-5.25621E-14-1.60283E-13
 -1      3316 2.09081E+01-1.89887E+00-4.41950E-02 2.84240E+00-1.32266E-13-1.53521E-13
 -1      3317 2.42926E+01-3.22045E+00 6.61700E-02 1.56403E+00-7.65009E-14-2.36651E-13
 -1      3318 2.51765E+01-3.63125E+00-1.62303E-02 9.40888E-01-1.45764E-13-2.66922E-13
 -1      3319 2.70174E+01-1.48854E+00 1.19118E-02 1.13261E+00 1.15734E-13-6.82197E-13
 -1      3320 2.68352E+01-4.48018E-02-1.35790E-01 1.81316E+00-5.42968E-14-6.16604E-13
 -1      3321 2.05879E+01-2.96961E-01 1.06612E-02-2.36110E+00-6.69132E-14-1.22873E-15
 -1      3322 2.03438E+01-1.07673E-02 4.94912E-03-2.29617E+00-1.92795E-14 1.88768E-14
 -1      3323 1.96804E+01 1.76575E-01-7.91261E-03-2.31234E+00-4.49679E-14-6.96285E-15
 -1      3324 1.98554E+01-4.57356E-01-1.93615E-02-2.66260E+00-1.27030E-13 6.40195E-14
 -1      3325 2.56870E+01 4.94746E+00-1.57687E-01-8.28305E-01-5.34045E-13-3.63844E-13
 -1      3326 2.61297E+01 4.23562E+00-9.54832E-02-1.66522E+00-5.45813E-13-1.51143E-13
 -1      3327 2.54655E+01-4.12761E+00 4.28892E-02-1.86383E+00 3.32864E-13-6.83370E-13
 -1      3328 2.64441E+01-3.16013E+00-1.07928E-01-3.09755E-01 1.55849E-13-8.85021E-13
 -1      3329 2.21731E+01-4.60131E+00 7.95476E-02-4.25529E+00 5.78725E-13-3.12279E-13
 -1      3330 2.40483E+01-4.74135E+00-7.02767E-02-3.17320E+00 4.42965E-13-5.43347E-13
 -1      3331 2.45787E+01-4.09010E+00 6.78161E-03-2.01154E+00 3.58911E-13-6.83412E-13
 -1      3332 2.03389E+01 9.60422E-01 4.07446E-03 1.65651E-01-1.48888E-13-3.13656E-13
 -1      3333 2.03185E+01 8.13430E-01-2.04692E-03 3.48330E-01-1.37886E-13-3.22348E-13
 -1      3334 2.02415E+01 8.95487E-01-5.33494E-04 4.17661E-01-1.12317E-13-2.71848E-13
 -1      3335 1.41950E+01-1.97955E+00 1.25255E-01-4.92086E+00-2.52735E-13-5.49477E-13
 -1      3336 1.65449E+01-3.03384E+00 1.90007E-02-5.25749E+00-3.03070E-13-5.05512E-13
 -1      3337 2.02395E+01 1.79392E+00-4.99146E-03-4.83660E-01-1.66220E-13-4.06046E-13
 -1      3338 2.02924E+01 1.57098E+00 8.27933E-04-3.56327E-01-1.70807E-13-3.61154E-13
 -1      3339 2.00916E+01 2.07317E+00-1.07939E-03-4.30142E-01-1.28486E-13-4.22712E-13
 -1      3340 1.23634E+01-1.35234E+00 9.15242E-02-4.64714E+00 3.55570E-13 1.87350E-14
 -1      3341 1.47062E+01-2.57280E+00 5.52781E-02-5.60095E+00 4.10991E-13-1.00725E-13
 -1      3342 2.04110E+01 1.21594E+00-1.14583E-03 2.44806E-01 2.85955E-13-4.67284E-14
 -1      3343 2.03088E+01 1.55945E+00 1.69333E-03 3.40732E-01 2.99802E-13-8.98207E-14
 -1      3344 2.02596E+01 1.44668E+00 1.77371E-03 1.26150E-01 2.68217E-13-1.06845E-13
 -1      3345 2.03762E+01 1.04014E+00-1.11843E-03-1.65843E-02 2.38103E-13-4.97635E-14
 -1      3346 1.90941E+01-3.95338E+00-1.64634E-02 5.20723E+00 3.96835E-13-2.45602E-13
 -1      3347 1.63954E+01-2.88162E+00 8.95385E-02 5.36565E+00 3.98181E-13-3.54036E-13
 -1      3348 2.65452E+01 3.09542E+00-1.25496E-01-2.03636E+00-5.35488E-13-4.48599E-14
 -1      3349 2.69056E+01 1.82766E+00-4.67791E-02-2.16701E+00-3.96919E-13 5.71834E-14
 -1      3350 2.60952E+01 7.83921E-01-6.27969E-03-2.06943E+00-2.90358E-13-3.31679E-14
 -1      3351 2.54137E+01 2.97250E+00-6.37608E-02-1.76380E+00-4.40488E-13-1.76869E-13
 -1      3352 2.05349E+01-4.20161E+00-6.08479E-02 4.47106E+00-2.36124E-13-1.29508E-13
 -1      3353 1.80910E+01-3.20259E+00 1.47269E-01 4.94786E+00-2.61915E-13 1.34170E-13
 -1      3354 1.95593E+01 2.69965E+00-4.60425E-03 7.02003E-02 1.36487E-13-4.09899E-13
 -1      3355 1.95669E+01 2.69465E+00-3.50422E-03 6.58477E-03 9.97199E-14-4.18705E-13
 -1      3356 1.96240E+01 2.46222E+00 6.42987E-03 7.01697E-02 1.28711E-13-3.80284E-13
 -1      3357 2.00714E+01 1.85180E+00 6.89380E-03 1.80420E-01 2.58449E-13-1.90216E-13
 -1      3358 1.99621E+01 2.17028E+00-6.10201E-03 3.33111E-01 2.77094E-13-2.41872E-13
 -1      3359 1.98489E+01 2.33095E+00-4.94833E-03 2.78926E-01 2.59870E-13-2.90820E-13
 -1      3360 2.02572E+01 1.22243E+00-1.12909E-03 6.86030E-02-1.52088E-13-3.29643E-13
 -1      3361 1.72365E+01-2.23258E+00 5.37702E-02 4.52627E+00 3.22055E-13-2.97675E-13
 -1      3362 1.52944E+01-2.16751E+00 6.78406E-02 5.10547E+00 3.16962E-13-3.37910E-13
 -1      3363 1.42372E+01-1.25402E+00 5.22524E-02 4.37065E+00 2.64750E-13-2.97248E-13
 -1      3364 1.97513E+01 2.46260E+00-4.71765E-03 2.50371E-01 2.40713E-13-2.97512E-13
 -1      3365 1.96712E+01 2.56303E+00-4.58678E-03 1.91071E-01 1.97223E-13-3.08088E-13
 -1      3366 1.96976E+01 2.37340E+00 7.13440E-03 1.11742E-01 1.61217E-13-3.22060E-13
 -1      3367 1.98564E+01 2.17113E+00 8.26277E-03 1.49339E-01 2.21971E-13-2.71126E-13
 -1      3368 2.00031E+01 1.17452E-02-6.96780E-05 6.95648E-04 5.95688E-14-4.27326E-13
 -1      3369 2.00034E+01 1.06627E-02 2.05978E-05 2.42759E-04 5.37247E-14-7.54994E-14
 -1      3370 2.03568E+01 9.01406E-01 1.76400E-03-2.24280E-01 2.07582E-13-5.95448E-14
 -1      3371 2.03059E+01 1.09153E+00 7.76814E-04-1.52480E-01 2.28728E-13-9.53853E-14
 -1      3372 2.03290E+01 7.99777E-01 1.26893E-05-4.33080E-01 1.99790E-13-7.24815E-14
 -1      3373 2.49382E+01 3.46240E+00-6.19057E-02 1.38318E+00-2.79290E-13-4.75821E-13
 -1      3374 2.41710E+01 2.64232E+00-2.43818E-02 1.61661E+00-2.19491E-13-4.24076E-13
 -1      3375 2.38883E+01 2.70301E+00-6.30297E-02-1.50526E+00-3.64455E-13-1.17998E-13
 -1      3376 2.37929E+01 3.32339E+00-4.67870E-02-9.87396E-01-3.60330E-13-1.45484E-13
 -1      3377 2.43227E+01 1.66618E+00-6.51963E-02 2.03506E+00-2.41970E-13-4.09632E-13
 -1      3378 2.51289E+01 4.57423E+00-1.10893E-01-2.76613E-01-4.31585E-13-4.02459E-13
 -1      3379 1.97140E+01 2.51282E+00-4.31549E-03-1.39690E-01 1.98514E-14-3.88867E-13
 -1      3380 1.97995E+01 2.40883E+00-3.08165E-03-2.10680E-01-2.71392E-14-3.93331E-13
 -1      3381 1.71277E+01-2.36017E+00 7.83611E-02 4.53589E+00-2.54366E-13 2.21892E-13
 -1      3382 2.12718E+01-4.08158E+00 5.75140E-02-4.21104E+00 5.69732E-13-3.13423E-13
 -1      3383 1.97907E+01 6.63587E-01 1.62834E-04-1.68160E+00 3.82356E-14-1.02289E-13
 -1      3384 2.01772E+01 5.70612E-01 4.30450E-03-1.60780E+00 3.52348E-14-7.16137E-14
 -1      3385 2.01319E+01 5.96964E-01-1.68181E-03-1.47498E+00 4.54404E-14-7.88507E-14
 -1      3386 2.12291E+01-3.24726E+00-1.65684E-02-3.61339E+00-3.38365E-13-3.75602E-14
 -1      3387 2.42140E+01-3.99669E+00 4.41557E-02 2.15208E+00 1.46681E-13 1.24019E-13
 -1      3388 1.98791E+01 2.33260E+00-4.40814E-03-2.77290E-01-5.76722E-14-3.76704E-13
 -1      3389 1.99886E+01 2.17913E+00-4.17262E-03-3.48571E-01-1.08059E-13-3.97833E-13
 -1      3390 2.00692E+01 1.96334E+00 3.87130E-03-2.63161E-01-1.08972E-13-3.84862E-13
 -1      3391 1.98946E+01 2.15009E+00 4.63148E-03-1.34123E-01-4.78013E-14-3.65883E-13
 -1      3392 1.03059E+01 3.21990E-01 1.45079E-01-1.40829E+00-9.86364E-14-3.95350E-13
 -1      3393 1.18589E+01 1.56813E-01 8.91510E-02-2.19535E+00-7.69142E-14-4.57773E-13
 -1      3394 1.07058E+01 5.00051E-01 5.90539E-02-1.50311E-01 7.01869E-15-3.74756E-13
 -1      3395 2.65252E+01-3.73681E+00 1.99214E-02 2.30615E-01-7.36227E-14-3.92235E-13
 -1      3396 2.74674E+01-3.01885E+00 1.10872E-03-6.37962E-01 6.86369E-14-3.98861E-13
 -1      3397 2.60260E+01 4.87121E-01-3.00152E-02 2.00929E+00-7.11861E-14-4.32321E-13
 -1      3398 2.00026E+01 1.35341E-02 1.51003E-05 8.66563E-04 1.48293E-13-5.46031E-13
 -1      3399 2.00031E+01 1.67923E-02 6.52892E-05 2.00939E-03-1.01916E-13-3.82123E-13
 -1      3400 2.00021E+01 1.43389E-02-7.71326E-05 1.02299E-03 2.82116E-15-4.14777E-13
 -1      3401 2.05517E+01-3.68054E+00 4.83092E-02 4.26857E+00 3.31034E-13-1.49548E-13
 -1      3402 2.20722E+01-3.67576E+00 4.36862E-02 3.30927E+00-1.60857E-13-2.16725E-13
 -1      3403 2.26626E+01-3.34088E+00-5.26663E-02 2.59971E+00-1.13130E-13-1.79244E-13
 -1      3404 2.00013E+01 1.60028E-02-6.23743E-05 7.31386E-04 7.81916E-14-6.16498E-13
 -1      3405 2.00017E+01 1.55526E-02-9.89096E-06 8.07349E-04 5.99218E-14-4.38629E-13
 -1      3406 2.00020E+01 1.97396E-02 1.00033E-04 1.73419E-03 5.05887E-14-3.85787E-13
 -1      3407 2.00012E+01 2.13484E-02 1.15320E-04 7.99924E-04 1.94041E-13-4.37512E-13
 -1      3408 1.67282E+01-2.61763E+00 8.61456E-02-5.05481E+00 4.60007E-13-1.66242E-13
 -1      3409 1.17833E+01-5.79518E-01 1.29136E-01 3.54936E+00-1.96773E-13 7.92102E-13
 -1      3410 1.14748E+01 4.95281E-02 6.61575E-02 2.47246E+00-1.48430E-13 8.75855E-13
 -1      3411 1.35619E+01-7.93105E-01 1.98290E-02 3.76252E+00-2.08947E-13 5.93907E-13
 -1      3412 2.02767E+01 6.97410E-01 9.14205E-04-7.57725E-01 1.56204E-13-7.40178E-14
 -1      3413 2.02893E+01 7.52930E-01 1.62797E-03-5.83535E-01 1.74739E-13-7.02220E-14
 -1      3414 2.02345E+01 8.97935E-01 2.05266E-04-5.20888E-01 1.71773E-13-1.18283E-13
 -1      3415 2.01352E+01 8.19683E-01 5.16841E-04-8.14083E-01 1.48622E-13-9.27440E-14
 -1      3416 2.61206E+01-2.28929E+00 1.92153E-02-5.17956E-01-1.25502E-13 1.83083E-13
 -1      3417 1.41910E+01-1.17166E+00 1.13118E-01-4.14237E+00-1.93470E-13-5.10141E-13
 -1      3418 9.39250E+00 3.83296E-01 1.52651E-01-1.14940E-01-4.54402E-14 7.79335E-13
 -1      3419 1.03824E+01 4.77555E-01 5.08398E-02-9.84442E-01 6.16070E-14 4.18179E-13
 -1      3420 1.04272E+01 4.85810E-01 6.71227E-02 7.83296E-01-1.07218E-13 8.62213E-13
 -1      3421 1.15050E+01-6.48169E-03 6.62419E-02-2.80837E+00 1.78621E-13 4.15432E-14
 -1      3422 1.18107E+01-6.03812E-01 1.27671E-01-3.88204E+00 2.63817E-13-9.56180E-15
 -1      3423 1.38094E+01-9.22437E-01 5.30667E-02-4.08219E+00 2.23550E-13 5.32907E-15
 -1      3424 2.01928E+01 6.17032E-01 3.12991E-03-1.33174E+00 8.17576E-14-6.22480E-14
 -1      3425 2.01691E+01 6.32395E-01-8.26117E-04-1.19137E+00 1.24287E-13-8.42583E-14
 -1      3426 1.99067E+01 7.28702E-01 7.17699E-04-1.39094E+00 7.71387E-14-1.05229E-13
 -1      3427 2.60283E+01-2.42274E+00-3.81586E-02 4.33680E-01 1.18499E-13-5.81039E-13
 -1      3428 2.00214E+01 7.71535E-01 5.98791E-04-1.09922E+00 1.19424E-13-1.14081E-13
 -1      3429 1.09914E+01-2.27834E-01 1.15911E-01 2.74556E+00 1.57936E-13-3.58477E-13
 -1      3430 2.02094E+01 1.63392E+00-4.03536E-04-2.34325E-01-1.40808E-13-3.69566E-13
 -1      3431 2.82871E+01-1.53793E+00-1.36281E-01-2.16679E+00 8.26700E-14-3.65263E-13
 -1      3432 2.00035E+01 9.83152E-03-3.87761E-05-9.70053E-05-2.02732E-13-2.00491E-13
 -1      3433 2.00033E+01 1.00944E-02-5.12340E-05-1.33509E-04 2.79885E-15 3.41165E-14
 -1      3434 2.00036E+01 1.45937E-02 6.93072E-05-1.81189E-03 2.97858E-14-2.11147E-13
 -1      3435 2.00042E+01 1.31227E-02 1.09740E-04-1.89310E-03-2.84204E-14-2.52154E-13
 -1      3436 2.43614E+01 1.80594E+00-7.99032E-02-1.97166E+00-3.08135E-13-8.52209E-14
 -1      3437 2.53425E+01-1.03057E+00-5.54805E-02-1.57374E+00-1.60285E-13-4.15401E-14
 -1      3438 2.00770E+01 6.07588E-01 1.21947E-03 8.83348E-01-8.51837E-14-2.05998E-13
 -1      3439 2.00797E+01 5.03460E-01 1.54692E-03 9.96903E-01-6.73823E-14-1.82540E-13
 -1      3440 2.00584E+01 3.95323E-01 1.63417E-03 1.11444E+00-3.74807E-14-1.80123E-13
 -1      3441 2.00912E+01 2.76615E-01 2.95125E-03 1.20951E+00 4.54174E-15-1.71468E-13
 -1      3442 1.99062E+01 5.40708E-01-2.21940E-03 1.05296E+00-3.41065E-14-1.39616E-13
 -1      3443 2.01001E+01 1.42032E-01 2.91856E-03 1.32098E+00 3.77801E-14-1.60580E-13
 -1      3444 2.01803E+01-1.49544E-02 4.21188E-03 1.39578E+00 9.07466E-14-1.48110E-13
 -1      3445 1.98822E+01 2.83304E-01-4.59953E-03 1.29230E+00 2.05353E-14-1.33859E-13
 -1      3446 2.02477E+01-1.98055E-01 5.62874E-03 1.49882E+00 1.06053E-13-2.19780E-13
 -1      3447 2.03970E+01-4.15225E-01 4.94637E-03 1.54428E+00 6.84077E-14-2.00457E-13
 -1      3448 1.99401E+01-5.52776E-02-8.27296E-03 1.52502E+00 7.22970E-14-2.10175E-13
 -1      3449 2.05629E+01-6.63908E-01 1.05121E-02 1.62594E+00 5.20147E-14-1.74302E-13
 -1      3450 2.08043E+01-9.54805E-01 4.03673E-03 1.62156E+00 6.31410E-14-1.51962E-13
 -1      3451 2.01422E+01-5.25753E-01-1.37956E-02 1.74135E+00 7.57281E-14-2.94658E-13
 -1      3452 2.11217E+01-1.26891E+00 1.83451E-02 1.64800E+00 8.42126E-14-9.68674E-14
 -1      3453 2.14736E+01-1.62115E+00 1.12973E-03 1.55683E+00 7.62717E-14-5.28735E-14
 -1      3454 2.05763E+01-1.16454E+00-2.07915E-02 1.90296E+00 1.21683E-13-1.77871E-13
 -1      3455 2.19916E+01-1.96413E+00 2.67407E-02 1.47055E+00 5.05230E-14-5.32300E-15
 -1      3456 2.24504E+01-2.30576E+00-5.52321E-03 1.24111E+00 8.11287E-14-2.95920E-14
 -1      3457 2.13295E+01-1.94798E+00-3.02085E-02 1.91435E+00 1.00159E-13-8.26414E-14
 -1      3458 2.32154E+01-2.55454E+00 3.90763E-02 9.25729E-01 1.20156E-13-4.98885E-15
 -1      3459 2.37217E+01-2.68340E+00-1.89850E-03 4.96430E-01 1.10252E-13-2.01618E-15
 -1      3460 2.25326E+01-2.77810E+00-4.61561E-02 1.61557E+00 1.07833E-13 4.41392E-14
 -1      3461 2.51924E+01 1.23133E+00-5.37098E-02 2.20254E+00-1.86129E-13-4.09393E-13
 -1      3462 2.55492E+01-7.32345E-02-1.11920E-02 1.92944E+00-7.64666E-14-4.10671E-13
 -1      3463 2.51635E+01-2.38811E+00-1.05174E-02-4.12754E-01-6.98122E-14 8.06685E-14
 -1      3464 2.47548E+01-2.21416E+00-1.80316E-02 6.18063E-01 5.42162E-14-3.28029E-13
 -1      3465 2.43529E+01-2.57549E+00 9.60617E-03 8.09167E-02 5.62432E-14-4.11428E-13
 -1      3466 2.34946E+01-2.61108E+00-1.89240E-02-4.90538E-01 1.65277E-13-3.31890E-13
 -1      3467 2.30073E+01-2.44704E+00 2.75526E-02-8.84070E-01 1.41373E-13-2.94613E-13
 -1      3468 2.39111E+01-3.01216E+00-1.27496E-02-7.97849E-01 1.55116E-13-4.05741E-13
 -1      3469 2.22745E+01-2.17070E+00-7.27677E-03-1.15665E+00 6.88709E-14-2.22555E-13
 -1      3470 2.18303E+01-1.82373E+00 2.67182E-02-1.36643E+00 8.83460E-14-9.48011E-14
 -1      3471 2.23241E+01-2.57915E+00-2.39184E-02-1.55861E+00 1.40999E-13-2.32274E-13
 -1      3472 2.13120E+01-1.47924E+00 4.91529E-04-1.43733E+00 1.01533E-14-1.12737E-13
 -1      3473 2.09651E+01-1.13341E+00 1.74006E-02-1.51139E+00 6.52281E-14-1.54070E-13
 -1      3474 2.11531E+01-1.79474E+00-2.63704E-02-1.80821E+00 4.07289E-14-5.14818E-14
 -1      3475 2.06501E+01-8.29436E-01 4.30380E-03-1.47023E+00 1.23857E-13-2.01195E-13
 -1      3476 2.04070E+01-5.55067E-01 9.46834E-03-1.46478E+00 1.83560E-13-1.81321E-13
 -1      3477 2.03886E+01-1.02136E+00-2.02485E-02-1.75738E+00 6.40572E-14-1.45474E-13
 -1      3478 2.02362E+01-3.25826E-01 4.92230E-03-1.37832E+00 2.34910E-13-1.04901E-13
 -1      3479 2.00805E+01-1.33049E-01 4.61391E-03-1.33085E+00 1.66725E-13-2.17605E-13
 -1      3480 1.99522E+01-4.20804E-01-1.25576E-02-1.58130E+00 1.99027E-13-8.92876E-14
 -1      3481 2.00026E+01 2.16268E-02 4.41021E-03-1.23104E+00 1.37306E-13-2.40833E-13
 -1      3482 1.99099E+01 1.43183E-01 1.65350E-03-1.16424E+00 2.00070E-13-2.43172E-13
 -1      3483 1.97314E+01-6.58977E-03-7.11883E-03-1.36742E+00 1.71750E-13-2.24913E-13
 -1      3484 1.98876E+01 2.36379E-01 3.54058E-03-1.06601E+00 2.07516E-13-1.01565E-13
 -1      3485 1.98367E+01 3.03222E-01-4.09868E-05-9.92588E-01 1.27890E-13 1.34208E-14
 -1      3486 1.96452E+01 2.51255E-01-3.71119E-03-1.15481E+00 2.50119E-13-1.71765E-13
 -1      3487 1.98453E+01 3.50561E-01 2.75781E-03-9.02117E-01-2.56508E-14 3.27968E-14
 -1      3488 1.98200E+01 3.78581E-01-9.42572E-04-8.29282E-01 4.54499E-15-2.35151E-14
 -1      3489 1.96372E+01 3.91393E-01-1.61884E-03-9.59256E-01 1.20253E-13-1.31207E-14
 -1      3490 1.98438E+01 3.94310E-01 2.15172E-03-7.48880E-01-4.13208E-14-4.52324E-14
 -1      3491 1.98332E+01 3.96743E-01-1.35986E-03-6.80662E-01 4.89544E-14-1.49411E-14
 -1      3492 1.96703E+01 4.48778E-01-4.06342E-04-7.85923E-01-3.35062E-14-3.23823E-14
 -1      3493 1.98626E+01 3.92305E-01 1.70809E-03-6.10856E-01-2.72009E-14-2.11210E-13
 -1      3494 1.98597E+01 3.79251E-01-1.48835E-03-5.49400E-01-1.20685E-13-2.32893E-13
 -1      3495 1.97213E+01 4.51855E-01 2.38912E-04-6.35547E-01-1.09065E-13-2.57001E-13
 -1      3496 1.98891E+01 3.63148E-01 1.38439E-03-4.89903E-01 7.35211E-16-1.45172E-13
 -1      3497 1.98897E+01 3.41849E-01-1.45009E-03-4.36177E-01 1.09909E-13-2.19559E-14
 -1      3498 1.97765E+01 4.22118E-01 5.36789E-04-5.07126E-01-1.21453E-14-4.55598E-13
 -1      3499 1.99163E+01 3.20040E-01 1.13975E-03-3.86311E-01 9.58317E-14-4.23376E-14
 -1      3500 1.99182E+01 2.95419E-01-1.32124E-03-3.40513E-01-4.36776E-14 2.81583E-14
 -1      3501 1.98285E+01 3.74925E-01 6.30790E-04-3.99005E-01 1.22049E-13-3.11801E-13
 -1      3502 1.99408E+01 2.71852E-01 9.45574E-04-2.99392E-01-1.22672E-13 1.39574E-13
 -1      3503 1.99426E+01 2.47061E-01-1.14994E-03-2.61212E-01-3.49432E-14 1.82790E-13
 -1      3504 1.98736E+01 3.20728E-01 6.12515E-04-3.09261E-01 3.61735E-14-1.23084E-13
 -1      3505 1.99610E+01 2.24184E-01 7.84640E-04-2.27838E-01-1.64884E-13 1.89920E-13
 -1      3506 1.99623E+01 2.01086E-01-9.66472E-04-1.96649E-01-1.66492E-13 7.09826E-14
 -1      3507 1.99107E+01 2.66244E-01 5.39189E-04-2.35844E-01-1.14871E-13-1.53440E-14
 -1      3508 1.99766E+01 1.80277E-01 6.47501E-04-1.69988E-01-1.06754E-13 4.61235E-14
 -1      3509 1.99774E+01 1.59835E-01-7.89260E-04-1.44990E-01-6.01758E-14 4.27219E-14
 -1      3510 1.99399E+01 2.15467E-01 4.45290E-04-1.76664E-01-1.70240E-13 1.09468E-13
 -1      3511 1.99880E+01 1.41742E-01 5.29263E-04-1.24026E-01 1.56558E-13 2.64955E-14
 -1      3512 1.99882E+01 1.24323E-01-6.28661E-04-1.04353E-01 2.20956E-13 1.79374E-13
 -1      3513 1.99619E+01 1.70479E-01 3.50421E-04-1.29672E-01 4.53033E-14 1.81679E-13
 -1      3514 1.99959E+01 1.09117E-01 4.27327E-04-8.81320E-02 1.27885E-13 1.86643E-13
 -1      3515 1.99957E+01 9.47077E-02-4.89446E-04-7.29267E-02 1.40007E-13 2.04461E-13
 -1      3516 1.99779E+01 1.32081E-01 2.64749E-04-9.29262E-02 2.23561E-13 1.55377E-13
 -1      3517 2.00010E+01 8.22709E-02 3.40311E-04-6.05830E-02 4.18539E-15 1.07331E-13
 -1      3518 2.00004E+01 7.06314E-02-3.73486E-04-4.90471E-02-9.27564E-14 1.21749E-13
 -1      3519 1.99890E+01 1.00257E-01 1.92748E-04-6.46461E-02-6.06052E-14 8.50656E-14
 -1      3520 2.00039E+01 6.06741E-02 2.67417E-04-3.98240E-02-4.29922E-14 1.13563E-13
 -1      3521 2.00031E+01 5.14490E-02-2.79750E-04-3.12512E-02 3.85698E-14 1.15790E-13
 -1      3522 1.99962E+01 7.44916E-02 1.34175E-04-4.32435E-02-7.26324E-14 6.93839E-15
 -1      3523 2.00052E+01 4.36121E-02 2.06528E-04-2.45079E-02-6.72871E-14 9.57885E-14
 -1      3524 2.00043E+01 3.64132E-02-1.99390E-04-1.82931E-02 7.25446E-14-1.36422E-13
 -1      3525 2.00006E+01 5.40262E-02 9.14477E-05-2.73602E-02-5.56725E-14 7.93396E-14
 -1      3526 2.00053E+01 3.02192E-02 1.35856E-04-1.34541E-02 2.60495E-13-1.75319E-13
 -1      3527 2.00045E+01 2.46836E-02-1.03864E-04-9.16709E-03 2.64983E-13-1.80614E-13
 -1      3528 2.00029E+01 3.80230E-02 6.67816E-05-1.58216E-02 6.67187E-14 1.39870E-13
 -1      3529 1.96454E+01 2.60148E+00-3.44673E-03-9.71028E-02 4.34924E-14-4.04471E-13
 -1      3530 1.97399E+01 2.31544E+00 4.46947E-03-4.16273E-02 2.79210E-14-3.66077E-13
 -1      3531 1.95957E+01 2.65641E+00-4.67949E-03-2.91989E-02 8.23570E-14-4.14372E-13
 -1      3532 1.83847E+01-2.30167E+00-5.12685E-02 4.08489E+00-2.11543E-13 3.63598E-15
 -1      3533 1.62377E+01-1.28009E+00 1.31234E-01 4.11588E+00-2.10817E-13 2.80387E-13
 -1      3534 1.95067E+01-1.51752E+00 2.37140E-02-3.36059E+00-2.55988E-13-7.20604E-14
 -1      3535 1.90704E+01-8.76171E-01 7.98130E-03-3.14223E+00-1.93511E-13-5.24884E-14
 -1      3536 2.41566E+01-3.43144E+00-5.64931E-02 1.15631E+00 7.48199E-14 1.53356E-13
 -1      3537 2.31797E+01-3.53485E+00 6.15732E-02 2.25514E+00 1.74277E-13 6.96752E-14
 -1      3538 1.90107E+01 3.91081E-01-4.74704E-03 2.14024E+00-1.37359E-13-6.94746E-14
 -1      3539 1.91122E+01 1.53761E-01 1.72583E-02 2.31633E+00-1.34928E-13-4.14107E-14
 -1      3540 2.46790E+01-2.88275E+00-2.92631E-03 1.68067E-01 3.47864E-14 9.26013E-14
 -1      3541 1.90217E+01-1.93052E-01 2.25370E-03 2.60108E+00-2.10858E-13-3.15626E-14
 -1      3542 1.93263E+01-6.24167E-01 3.29595E-02 2.77561E+00-2.14834E-13-4.77686E-14
 -1      3543 1.81834E+01 1.67099E-01 3.06486E-03 2.50506E+00-1.57009E-13-1.21058E-14
 -1      3544 1.93347E+01 7.67403E-01-5.81639E-03 1.46166E+00-1.53445E-13-2.31257E-13
 -1      3545 1.93117E+01 7.40993E-01 5.31667E-03 1.59973E+00-1.30932E-13-1.79385E-13
 -1      3546 1.95067E+01 7.56241E-01-5.08923E-03 1.20521E+00 2.75301E-14-2.01852E-13
 -1      3547 1.94756E+01 7.74083E-01 3.16088E-03 1.32711E+00-1.08983E-13-1.53204E-13
 -1      3548 1.90403E+01 8.89836E-01 4.81049E-03 1.32009E+00-1.07117E-13-3.96614E-14
 -1      3549 1.96502E+01 6.90229E-01-4.31522E-03 9.85836E-01 2.41570E-14-3.60898E-14
 -1      3550 1.96229E+01 7.29907E-01 2.13488E-03 1.09307E+00 6.93693E-14-9.33564E-14
 -1      3551 1.92858E+01 8.46882E-01 4.37204E-03 1.08536E+00-5.89704E-14-1.03742E-13
 -1      3552 1.97618E+01 6.00762E-01-3.59369E-03 7.97455E-01 9.30741E-14-1.64357E-13
 -1      3553 1.97420E+01 6.48795E-01 1.67430E-03 8.90728E-01 1.71704E-13-9.53084E-14
 -1      3554 1.94823E+01 7.59661E-01 3.63331E-03 8.87973E-01 1.21557E-13-1.06143E-13
 -1      3555 1.98444E+01 5.06103E-01-2.94720E-03 6.36713E-01 1.10402E-14-2.79603E-13
 -1      3556 1.98321E+01 5.54782E-01 1.45516E-03 7.16602E-01-4.97935E-14-1.75599E-13
 -1      3557 1.96338E+01 6.55191E-01 2.85166E-03 7.19513E-01 7.86469E-14-1.77958E-13
 -1      3558 1.99032E+01 4.16116E-01-2.38342E-03 5.01171E-01-7.20757E-14-6.04849E-14
 -1      3559 1.98969E+01 4.61384E-01 1.32042E-03 5.68447E-01 2.43560E-14-2.46165E-13
 -1      3560 1.97473E+01 5.49259E-01 2.14992E-03 5.75786E-01-3.28820E-14-2.09550E-13
 -1      3561 1.99438E+01 3.35530E-01-1.90259E-03 3.88518E-01-2.61421E-13-7.98143E-14
 -1      3562 1.99417E+01 3.75540E-01 1.20141E-03 4.44212E-01-1.61291E-13-8.88994E-14
 -1      3563 1.98302E+01 4.50392E-01 1.57160E-03 4.54253E-01-1.24190E-13-1.20241E-13
 -1      3564 1.99708E+01 2.66077E-01-1.50006E-03 2.96320E-01-5.27983E-14-1.58010E-13
 -1      3565 1.99715E+01 3.00262E-01 1.07526E-03 3.41667E-01-1.93523E-13-1.39694E-13
 -1      3566 1.98896E+01 3.62612E-01 1.11937E-03 3.52857E-01-1.76219E-13-3.28552E-13
 -1      3567 1.99881E+01 2.07827E-01-1.16835E-03 2.22033E-01-1.60505E-13-8.25041E-14
 -1      3568 1.99903E+01 2.36317E-01 9.40312E-04 2.58366E-01-4.62712E-14-1.14890E-13
 -1      3569 1.99313E+01 2.87267E-01 7.78359E-04 2.69550E-01-9.32970E-14-2.34726E-13
 -1      3570 1.99987E+01 1.59992E-01-8.98832E-04 1.63101E-01-1.90046E-13 9.48476E-14
 -1      3571 2.00017E+01 1.83270E-01 8.02627E-04 1.91762E-01-2.16254E-13-3.53188E-14
 -1      3572 1.99599E+01 2.24198E-01 5.28225E-04 2.02193E-01-1.95475E-13-1.27690E-13
 -1      3573 2.00047E+01 1.21390E-01-6.82816E-04 1.17072E-01-1.31112E-13 2.28602E-13
 -1      3574 2.00079E+01 1.40095E-01 6.69389E-04 1.39334E-01-1.08968E-13 2.23013E-13
 -1      3575 1.99791E+01 1.72454E-01 3.48876E-04 1.48602E-01-2.49766E-13 2.93637E-14
 -1      3576 2.00077E+01 9.07154E-02-5.11972E-04 8.16842E-02-3.02166E-13 2.63559E-13
 -1      3577 2.00108E+01 1.05522E-01 5.46235E-04 9.87057E-02-1.92435E-13 3.22434E-13
 -1      3578 1.99915E+01 1.30719E-01 2.22856E-04 1.06647E-01-2.29714E-13 1.34058E-13
 -1      3579 2.00088E+01 6.66766E-02-3.78390E-04 5.49230E-02-4.53594E-14 1.75246E-13
 -1      3580 2.00115E+01 7.82382E-02 4.36652E-04 6.77243E-02-1.16319E-13 2.41496E-13
 -1      3581 1.99991E+01 9.75648E-02 1.36424E-04 7.43386E-02-1.91929E-13 4.84078E-14
 -1      3582 2.00086E+01 4.80686E-02-2.76061E-04 3.50435E-02-6.12629E-15 1.29725E-13
 -1      3583 2.00110E+01 5.69920E-02 3.42786E-04 4.44978E-02-4.14693E-14 3.62960E-14
 -1      3584 2.00034E+01 7.15867E-02 7.81739E-05 4.98844E-02-6.77630E-15 1.06437E-13
 -1      3585 2.00077E+01 3.37893E-02-1.95747E-04 2.05860E-02-1.62897E-13 3.61876E-13
 -1      3586 2.00097E+01 4.06197E-02 2.65946E-04 2.74082E-02-5.79231E-14 9.14603E-14
 -1      3587 2.00054E+01 5.14525E-02 3.47271E-05 3.17062E-02-6.72242E-14 6.34149E-14
 -1      3588 2.00064E+01 2.27877E-02-1.53218E-04 1.04099E-02 5.46627E-14 1.58953E-13
 -1      3589 2.00081E+01 2.80136E-02 1.87318E-04 1.51157E-02 2.73345E-14 2.41335E-13
 -1      3590 2.00060E+01 3.59682E-02 1.32477E-05 1.84746E-02 5.50885E-14-1.99236E-13
 -1      3591 2.00050E+01 1.44698E-02-6.25238E-05 3.43062E-03-5.21105E-14 2.09693E-13
 -1      3592 2.00063E+01 1.84658E-02 1.41143E-04 6.61456E-03-1.19626E-14 2.26204E-13
 -1      3593 2.00056E+01 2.43102E-02 4.92887E-05 9.24264E-03 6.76850E-14-4.48767E-13
 -1      3594 2.15413E+01-3.69074E+00-5.38412E-02 3.45881E+00 2.46293E-13-7.03968E-14
 -1      3595 1.96521E+01-2.95341E+00 4.80657E-02 4.11284E+00 2.90192E-13-1.95430E-13
 -1      3596 1.62656E+01-1.89491E+00 4.36374E-02-4.55645E+00 3.22894E-13-2.19408E-13
 -1      3597 1.81874E+01-2.93705E+00-2.40865E-02-4.71281E+00 4.59830E-13-2.76435E-13
 -1      3598 2.00035E+01 8.59895E-03-5.17000E-05-3.82781E-04 1.64152E-13-6.84845E-14
 -1      3599 2.00035E+01 7.46977E-03 1.17690E-05-1.02061E-03 8.56718E-14 1.85243E-14
 -1      3600 2.00040E+01 9.08101E-03 2.07934E-06-1.78543E-04 1.10476E-13 1.32737E-13
 -1      3601 2.00038E+01 1.29187E-02-8.65344E-06 1.23904E-03-4.75823E-14-1.87326E-13
 -1      3602 2.00001E+01 2.65877E-02-3.65122E-05-1.21464E-03 1.86912E-13-4.01015E-13
 -1      3603 1.99999E+01 2.69203E-02-7.88293E-05-4.41043E-04 1.73311E-13-5.51834E-13
 -1      3604 2.02253E+01-3.41302E+00 7.61494E-02-4.22932E+00 4.55042E-13-2.14871E-13
 -1      3605 2.21800E+01-3.99010E+00-3.79054E-02-3.34958E+00 4.22811E-13-2.75766E-13
 -1      3606 2.52548E+01-3.30163E+00 2.24606E-02-5.40463E-01 1.17351E-13-5.46545E-13
 -1      3607 2.55679E+01-2.13640E+00-2.66644E-02 7.41208E-01 7.50303E-14-5.23758E-13
 -1      3608 2.08845E+01-2.75105E+00 1.06558E-01 3.56205E+00-1.53655E-13-1.39627E-13
 -1      3609 1.91528E+01 6.72308E-01-6.10731E-03 1.76679E+00-1.11855E-13-1.63252E-13
 -1      3610 1.91657E+01 5.66379E-01 9.66238E-03 1.92351E+00-1.09160E-13-4.89362E-14
 -1      3611 1.87504E+01 8.43847E-01 4.41161E-03 1.60937E+00-1.31444E-13-2.28360E-13
 -1      3612 1.92140E+01 6.19827E-01 7.88408E-03-1.96895E+00-2.14613E-14-9.50590E-14
 -1      3613 1.92380E+01 7.10845E-01-5.65095E-03-1.81553E+00 1.16968E-14-1.06260E-13
 -1      3614 2.53910E+01-1.30327E+00-4.23102E-02 1.49530E+00 6.72093E-14-3.01951E-13
 -1      3615 2.01219E+01 8.25905E-01 1.28673E-03 6.22389E-01-5.55186E-14-2.37713E-13
 -1      3616 2.01082E+01 7.12523E-01 1.03701E-04 7.57074E-01-7.16304E-14-2.14551E-13
 -1      3617 1.99681E+01 7.68812E-01-5.82972E-04 8.03218E-01-6.52078E-14-2.13759E-13
 -1      3618 1.81285E+01-2.72254E+00 8.34382E-02-4.60164E+00-3.05748E-13-3.54890E-13
 -1      3619 1.88381E+01-3.61495E+00 1.05219E-01-4.99201E+00-3.46209E-13-3.54911E-13
 -1      3620 2.01677E+01 1.09906E+00 2.98558E-03 3.21974E-01-1.10167E-13-2.77172E-13
 -1      3621 2.01470E+01 9.50797E-01-1.54679E-03 4.83077E-01-6.85759E-14-2.52524E-13
 -1      3622 2.00337E+01 1.01721E+00 3.20494E-04 5.34653E-01-5.75100E-14-2.41357E-13
 -1      3623 1.98138E+01 8.79434E-01 5.64698E-04-1.09710E+00 1.34234E-13-1.16523E-13
 -1      3624 1.98708E+01 9.05577E-01-1.69272E-03-9.50591E-01 1.21774E-13-1.17329E-13
 -1      3625 2.35472E+01-3.94631E+00 6.06178E-02-2.51672E+00 3.17489E-13-4.27692E-13
 -1      3626 2.44090E+01-3.71567E+00-3.31572E-02-1.47040E+00 2.11850E-13-5.01519E-13
 -1      3627 2.41527E+01-3.42302E+00-2.68592E-02-1.14669E+00 1.59715E-13-4.01470E-13
 -1      3628 2.24006E+01-3.59300E+00-7.84001E-04-2.75369E+00 2.84252E-13-2.35855E-13
 -1      3629 2.07813E+01-3.98820E+00 4.12058E-03-4.26435E+00-3.55917E-13-1.93314E-13
 -1      3630 2.55533E+01 3.68519E+00-4.36409E-02 1.75681E+00-2.72282E-13-5.08968E-13
 -1      3631 2.01132E+01 1.75837E+00-9.73788E-04-1.80305E-01-1.10757E-13-3.72430E-13
 -1      3632 2.01683E+01 1.56654E+00 4.56808E-03-8.22745E-02-1.18789E-13-3.46764E-13
 -1      3633 2.00156E+01 1.86418E+00-3.57397E-03-1.17083E-01-7.65022E-14-3.56611E-13
 -1      3634 1.25298E+01-3.05461E-01 4.96967E-02 3.34663E+00 2.01110E-13-2.58446E-13
 -1      3635 1.14709E+01 3.65733E-01 5.52305E-02 1.77237E+00 9.95159E-14-2.84869E-13
 -1      3636 1.38763E+01-3.99410E-01 6.13837E-02-3.42002E+00-1.38225E-13-4.61825E-13
 -1      3637 1.56235E+01-1.24245E+00 9.17493E-03-4.10247E+00-2.00728E-13-4.61853E-13
 -1      3638 2.02446E+01 1.25141E+00-9.24222E-04-7.88471E-02 2.48133E-13-1.19566E-13
 -1      3639 2.01676E+01 1.45291E+00-7.58925E-04-1.50043E-02 2.61167E-13-1.43803E-13
 -1      3640 2.02132E+01 1.11183E+00-1.16531E-03-2.90993E-01 2.10334E-13-1.24172E-13
 -1      3641 1.96734E+01-1.94737E+00 3.38742E-02 3.42000E+00-1.55070E-13-1.06694E-14
 -1      3642 2.00485E+01 1.63634E+00-1.79119E-03-1.20673E-02 2.28232E-13-1.71916E-13
 -1      3643 1.86878E+01-2.50349E+00 1.83794E-02 4.22686E+00 2.94084E-13-2.29091E-13
 -1      3644 1.76084E+01-1.76786E+00 2.44480E-02 3.99600E+00 2.57840E-13-2.78114E-13
 -1      3645 1.98974E+01-2.41867E+00 3.31235E-02 3.46974E+00 2.14016E-13-1.93086E-13
 -1      3646 1.91135E+01-1.19206E+00 2.58714E-02 3.24036E+00-1.73494E-13 1.20754E-14
 -1      3647 1.78518E+01-6.86571E-01 1.97448E-02 3.27352E+00-1.49370E-13 1.12122E-13
 -1      3648 2.45675E+01 4.26422E+00-5.23884E-02-5.82053E-01-4.23925E-13-3.20487E-13
 -1      3649 1.96391E+01 2.44168E+00 5.38210E-03 2.06784E-02 7.44801E-14-3.91866E-13
 -1      3650 2.00049E+01 2.04931E-02 1.00335E-04-6.57236E-03 3.94444E-13-2.11563E-13
 -1      3651 2.00043E+01 1.64758E-02-3.69489E-05-3.87192E-03 2.70449E-13-1.53191E-13
 -1      3652 2.00039E+01 1.73982E-02-4.43599E-05-3.84701E-03 1.01851E-13-3.73558E-13
 -1      3653 2.00039E+01 2.61126E-02 1.45888E-05-8.54646E-03 2.94197E-13-3.49171E-14
 -1      3654 1.79862E+01-4.21239E-01-4.84274E-03-3.08507E+00-1.16783E-13-1.61772E-13
 -1      3655 1.91092E+01-3.72573E-01 2.47336E-02-2.79699E+00-1.46523E-13-3.13785E-14
 -1      3656 1.89131E+01-2.26236E-03-1.84479E-03-2.60173E+00-7.54283E-14-2.07032E-14
 -1      3657 1.17327E+01 6.84901E-01 8.93916E-02 8.50316E-01 7.75903E-14-2.86444E-13
 -1      3658 1.22074E+01 7.59108E-01 1.13865E-02-2.55880E-01 5.26450E-14-2.85466E-13
 -1      3659 1.30235E+01 6.18429E-01 2.97368E-02 1.44242E+00 9.96208E-14-2.44731E-13
 -1      3660 1.94182E+01 7.75906E-01 4.15632E-03-1.65601E+00 3.39187E-14-1.05140E-13
 -1      3661 1.94695E+01 8.12529E-01-4.53834E-03-1.51316E+00 3.20129E-14-1.12163E-13
 -1      3662 1.89409E+01 8.79078E-01 4.07278E-03-1.63911E+00 2.17088E-14-1.62919E-13
 -1      3663 2.22386E+01-3.07948E+00 2.06239E-02 2.40649E+00 1.61510E-13-8.81738E-15
 -1      3664 1.98421E+01 2.03650E+00-2.86860E-03-1.92242E-02-3.01609E-14-3.59828E-13
 -1      3665 1.99261E+01 1.96435E+00-1.27420E-03-7.00300E-02-6.12848E-14-3.57473E-13
 -1      3666 1.99856E+01 1.78221E+00 4.63215E-03 4.23040E-03-6.21988E-14-3.30434E-13
 -1      3667 1.96887E+01 2.22681E+00-3.41666E-03 2.46057E-02 4.97737E-14-3.50537E-13
 -1      3668 1.97605E+01 2.14431E+00-1.71783E-03-3.82137E-03 1.03438E-14-3.55872E-13
 -1      3669 1.98085E+01 1.98591E+00 4.94591E-03 5.19101E-02-4.84179E-15-3.34147E-13
 -1      3670 2.00046E+01 1.08667E-02 5.81926E-05 1.06799E-03 4.85891E-15 2.20421E-13
 -1      3671 2.00005E+01 2.53973E-02-1.03131E-04-2.34141E-03 1.18235E-13-2.57633E-13
 -1      3672 1.99999E+01 3.20298E-02 1.74505E-04-2.59162E-03 7.26553E-14-3.35729E-13
 -1      3673 2.00012E+01 2.44252E-02 1.59127E-05-2.92123E-03-3.15405E-15-1.34759E-13
 -1      3674 1.96846E+01-2.78341E+00 4.80312E-02-3.89697E+00 3.88013E-13-2.39859E-13
 -1      3675 1.99993E+01 3.32106E-02 1.77262E-04 1.89842E-04-7.82261E-14-3.75059E-13
 -1      3676 1.99999E+01 2.69493E-02-6.71023E-05 8.71673E-04 1.69378E-13-2.61774E-13
 -1      3677 2.00003E+01 2.65218E-02-4.91881E-05 1.64338E-03 1.79923E-14-3.63743E-13
 -1      3678 1.52941E+01-7.24519E-01 2.70421E-02 3.54548E+00-1.96565E-13 4.13829E-13
 -1      3679 1.84393E+01 6.38715E-01 2.53392E-03 1.98514E+00-1.56021E-13-1.37120E-13
 -1      3680 1.90258E+01 4.74912E-01-5.61125E-03-2.16684E+00-4.95351E-14-9.18963E-14
 -1      3681 1.85783E+01 6.99512E-01 2.91963E-03-1.98725E+00-3.07532E-14-1.80698E-13
 -1      3682 1.90722E+01 2.79588E-01 1.45051E-02-2.33922E+00-7.31667E-14-5.29651E-14
 -1      3683 1.28497E+01 3.54110E-01 2.95751E-02 2.21308E+00-1.56290E-13 8.06806E-13
 -1      3684 1.15593E+01 5.42481E-01 1.14112E-01 1.63258E+00-1.55646E-13 9.00231E-13
 -1      3685 1.18357E+01 7.37209E-01 2.03115E-02 7.61065E-01-7.10126E-14 6.76292E-13
 -1      3686 1.15515E+01 4.99768E-01 1.19450E-01-1.95771E+00 1.53828E-13 8.31141E-14
 -1      3687 1.28786E+01 1.71469E-01 1.52745E-02-2.64135E+00 1.17143E-13-5.06747E-14
 -1      3688 1.18664E+01 6.96648E-01 4.04255E-02-1.07338E+00 2.51361E-14 1.89460E-13
 -1      3689 1.96265E+01 8.40136E-01 2.00975E-03-1.37275E+00 2.68857E-14-1.10277E-13
 -1      3690 1.96848E+01 8.58195E-01-3.10798E-03-1.23223E+00 7.39669E-14-1.14848E-13
 -1      3691 1.92701E+01 9.54123E-01 4.09552E-03-1.34981E+00 4.33205E-14-1.42943E-13
 -1      3692 1.97045E+01 2.12169E+00-4.25411E-03 5.38328E-02 1.66695E-13-2.85823E-13
 -1      3693 1.96473E+01 2.19611E+00-3.40305E-03 4.37106E-02 1.43716E-13-3.48552E-13
 -1      3694 1.97760E+01 1.06134E+00 3.27204E-03-8.12895E-01 1.35166E-13-1.31996E-13
 -1      3695 1.99699E+01 9.45446E-01-8.09358E-04-8.09632E-01 1.25273E-13-1.24290E-13
 -1      3696 2.00024E+01 2.19633E-02-1.42982E-04 3.78868E-03 3.26339E-14-2.31920E-13
 -1      3697 2.00034E+01 2.05114E-02 3.96181E-05 3.87207E-03-1.42718E-13-2.93327E-13
 -1      3698 1.75146E+01-1.90343E+00 7.55090E-02-4.28861E+00-2.89570E-13-3.48815E-13
 -1      3699 1.92009E+01-2.62086E+00 5.38223E-03-4.11513E+00-3.16850E-13-1.73903E-13
 -1      3700 1.95497E+01 9.96717E-01 3.61476E-03-1.08288E+00 8.67766E-14-1.70839E-13
 -1      3701 1.32489E+01 1.33606E-01 5.93767E-02-2.74765E+00-8.15216E-14-4.55629E-13
 -1      3702 1.48379E+01 9.82950E-02 5.17094E-02-2.75915E+00-9.87591E-14-3.89874E-13
 -1      3703 1.28628E+01 5.94334E-01 3.85894E-02-1.68971E+00-3.89888E-14-4.17385E-13
 -1      3704 2.01634E+01 1.34124E+00-3.60331E-03 1.06135E-01-1.18544E-13-3.14420E-13
 -1      3705 1.44735E+01-5.70441E-01 6.03312E-02 3.48975E+00 1.81893E-13-2.56167E-13
 -1      3706 2.00044E+01 1.69084E-02-5.25835E-05 3.67447E-03-1.04296E-13-4.04910E-13
 -1      3707 2.00047E+01 1.49130E-02 1.18061E-05 2.96499E-03 2.61243E-14-1.27799E-13
 -1      3708 1.54079E+01-1.25365E+00 5.86372E-02-4.26526E+00 2.87589E-13-1.11196E-13
 -1      3709 1.69915E+01-1.46343E+00 5.57836E-02-3.95435E+00 2.87437E-13-2.86420E-13
 -1      3710 1.45770E+01-5.99481E-01 2.16105E-02-3.62708E+00 2.10222E-13-1.51063E-13
 -1      3711 2.00303E+01 9.77952E-01-1.89490E-04-6.75304E-01 1.46443E-13-1.19623E-13
 -1      3712 2.00711E+01 1.40179E+00-5.43558E-04 1.79957E-01-9.06091E-14-2.87192E-13
 -1      3713 1.70655E+01-1.14466E+00 4.91525E-02-3.76227E+00-2.14115E-13-3.28276E-13
 -1      3714 1.96427E+01 2.03933E+00 6.94095E-03 1.50718E-02 1.37200E-13-3.10002E-13
 -1      3715 1.96121E+01 2.23637E+00-3.97052E-03 6.29388E-02 1.32501E-13-3.55433E-13
 -1      3716 1.96020E+01 2.25684E+00-1.92495E-03 5.04016E-02 1.06739E-13-3.67770E-13
 -1      3717 2.00036E+01 1.81146E-02-5.59935E-05-3.72847E-03 1.69760E-13-2.56829E-13
 -1      3718 2.00039E+01 2.27512E-02-2.73431E-05 5.69461E-03-7.44732E-14-3.70121E-13
 -1      3719 2.00033E+01 2.34682E-02 4.30917E-05-5.63557E-03 1.55345E-13-1.03171E-13
 -1      3720 2.00030E+01 2.00338E-02 2.74981E-05-3.53536E-03 7.90659E-14-1.94829E-13
 -1      3721 2.00021E+01 2.15671E-02-1.20387E-04-3.49928E-03-3.16632E-14-1.33984E-13
 -1      3722 2.00029E+01 2.79261E-02-4.76843E-05-8.15966E-03 1.31699E-13 3.73588E-15
 -1      3723 1.97508E+01 7.11323E-01-1.01465E-03 9.50047E-01-2.50334E-14-1.66971E-13
 -1      3724 1.97296E+01 5.99908E-01 2.90405E-03 1.07293E+00-1.67412E-14-1.36152E-13
 -1      3725 1.98826E+01 1.89455E+00-3.60712E-03 4.04086E-02 2.13170E-13-2.41892E-13
 -1      3726 1.97831E+01 2.02508E+00-3.98301E-03 3.14762E-02 1.75226E-13-2.68356E-13
 -1      3727 1.97532E+01 1.90332E+00 6.54034E-03-4.57292E-02 1.53473E-13-2.53692E-13
 -1      3728 1.96594E+01 4.77482E-01-8.23002E-04 1.20852E+00-4.06320E-15-1.35504E-13
 -1      3729 1.96698E+01 3.42342E-01 5.21215E-03 1.33053E+00 3.27604E-14-1.47029E-13
 -1      3730 1.94927E+01 6.47421E-01-8.77341E-04 1.10638E+00-5.92880E-15-1.70689E-13
 -1      3731 1.96227E+01 1.81800E-01 2.13675E-04 1.48274E+00 3.55380E-14-1.71390E-13
 -1      3732 1.96912E+01-4.95020E-03 7.96890E-03 1.60546E+00 2.89173E-14-2.27083E-13
 -1      3733 1.93701E+01 3.71103E-01-3.51281E-03 1.40133E+00-2.61419E-15-1.78209E-13
 -1      3734 1.97005E+01-2.31426E-01 3.10052E-03 1.77871E+00 9.18687E-14-2.65633E-13
 -1      3735 1.98633E+01-4.99718E-01 1.07377E-02 1.89582E+00 1.08588E-13-2.48379E-13
 -1      3736 1.93192E+01-1.09901E-02-7.87284E-03 1.74393E+00 2.59922E-14-2.38945E-13
 -1      3737 1.99842E+01-8.16999E-01 1.00929E-02 2.08251E+00 1.31885E-13-2.29421E-13
 -1      3738 2.02783E+01-1.19514E+00 1.00734E-02 2.17198E+00 1.67046E-13-1.91179E-13
 -1      3739 1.94188E+01-5.69574E-01-1.53509E-02 2.14066E+00 1.25429E-13-2.48026E-13
 -1      3740 2.14956E+01-2.60296E+00 3.71204E-02 2.58630E+00 1.78736E-13-7.21992E-14
 -1      3741 2.33559E+01-3.21270E+00 4.20634E-02-1.62136E+00 2.61557E-13-3.16531E-13
 -1      3742 1.98797E+01-1.97704E+00 2.27592E-02-3.53375E+00-2.73023E-13-5.00398E-14
 -1      3743 1.82627E+01-1.42634E+00-6.67747E-03-3.69849E+00-2.28890E-13-1.43559E-13
 -1      3744 2.48295E+01 4.60020E+00-1.14483E-01 5.13758E-01-3.56333E-13-4.81419E-13
 -1      3745 1.99871E+01 1.55315E+00 4.17084E-03-1.39079E-01 1.96173E-13-1.60149E-13
 -1      3746 2.23483E+01-2.89673E+00-1.82816E-02-1.91042E+00 2.90378E-13-2.22883E-13
 -1      3747 2.17309E+01-2.39251E+00 4.00946E-02-2.08471E+00 1.91997E-13-1.11214E-13
 -1      3748 2.24639E+01-3.23707E+00-1.79038E-02-2.25443E+00 2.75150E-13-2.67029E-13
 -1      3749 2.08481E+01-1.92356E+00 4.59708E-03-2.24120E+00 7.49869E-14-4.74144E-14
 -1      3750 2.03912E+01-1.43353E+00 2.40237E-02-2.19964E+00-3.15791E-14-9.75814E-14
 -1      3751 2.00761E+01-1.03447E+00 1.14666E-02-2.02920E+00 3.93067E-14-1.02877E-14
 -1      3752 1.97796E+01-6.75522E-01 1.00344E-02-1.92929E+00 2.07023E-13 7.25335E-14
 -1      3753 1.95654E+01-1.20263E+00-3.31330E-02-2.40466E+00 7.30269E-14-9.80054E-14
 -1      3754 1.96503E+01-3.84145E-01 9.91564E-03-1.74410E+00 2.14222E-13-3.25032E-14
 -1      3755 1.94817E+01-1.40802E-01 2.47433E-03-1.62604E+00 1.79347E-13-1.27181E-14
 -1      3756 1.91986E+01-4.42542E-01-1.50869E-02-1.99181E+00 1.69659E-13-6.23831E-14
 -1      3757 1.94592E+01 5.53784E-02 8.07465E-03-1.45667E+00 1.03004E-13-1.44505E-13
 -1      3758 1.93773E+01 2.05640E-01-5.55294E-04-1.34109E+00 1.40124E-13-1.99965E-13
 -1      3759 1.90754E+01 6.16572E-02-6.66417E-03-1.60336E+00 6.06287E-14-1.51533E-13
 -1      3760 1.94086E+01 3.23560E-01 5.61251E-03-1.19900E+00 2.68523E-13-1.78435E-13
 -1      3761 1.93808E+01 4.06207E-01-1.84974E-03-1.09381E+00 3.23077E-13-1.32194E-13
 -1      3762 1.90936E+01 3.63291E-01-2.75519E-03-1.27853E+00 2.13630E-13-2.18758E-13
 -1      3763 1.94373E+01 4.66598E-01 3.84254E-03-9.76930E-01 1.76552E-13-1.70493E-13
 -1      3764 1.94401E+01 5.01572E-01-2.31391E-03-8.84540E-01 6.50084E-14-7.26386E-14
 -1      3765 1.91819E+01 5.24655E-01-5.81245E-04-1.01510E+00 2.24899E-13-1.81815E-13
 -1      3766 1.95051E+01 5.22318E-01 2.61400E-03-7.89255E-01-5.87359E-14-1.04078E-13
 -1      3767 1.95232E+01 5.25722E-01-2.36684E-03-7.09551E-01-3.21347E-14-1.27659E-13
 -1      3768 1.93000E+01 5.88744E-01 5.84819E-04-8.03356E-01-8.69648E-15-1.31325E-13
 -1      3769 1.95875E+01 5.20896E-01 1.79913E-03-6.32047E-01-1.27079E-13-2.08257E-13
 -1      3770 1.96116E+01 5.04874E-01-2.22646E-03-5.64099E-01-1.92269E-13-3.04721E-13
 -1      3771 1.94242E+01 5.89124E-01 1.13270E-03-6.33274E-01-1.51765E-13-1.02638E-13
 -1      3772 1.96701E+01 4.84897E-01 1.27300E-03-5.01139E-01-1.26677E-13-1.95461E-13
 -1      3773 1.96948E+01 4.58195E-01-1.99968E-03-4.43844E-01 9.80118E-14-2.09547E-13
 -1      3774 1.95415E+01 5.50669E-01 1.32897E-03-4.96329E-01-8.09119E-14 6.63626E-14
 -1      3775 1.97455E+01 4.30468E-01 9.31500E-04-3.92871E-01 2.13323E-13-2.44215E-13
 -1      3776 1.97680E+01 3.99143E-01-1.73929E-03-3.45121E-01 2.03867E-13-1.81305E-13
 -1      3777 1.96453E+01 4.91090E-01 1.32457E-03-3.85972E-01 1.13090E-13-6.09611E-14
 -1      3778 1.98102E+01 3.68684E-01 7.04688E-04-3.04092E-01 1.56346E-13-1.74844E-13
 -1      3779 1.98292E+01 3.36726E-01-1.47426E-03-2.64799E-01 1.08938E-13-6.11466E-16
 -1      3780 1.97332E+01 4.22636E-01 1.21161E-03-2.97227E-01 2.50599E-13-5.19817E-14
 -1      3781 1.98632E+01 3.06745E-01 5.48370E-04-2.32034E-01-4.63844E-14-6.85683E-14
 -1      3782 1.98785E+01 2.76601E-01-1.22171E-03-2.00134E-01-2.30121E-13-5.26727E-14
 -1      3783 1.98050E+01 3.53387E-01 1.04807E-03-2.26212E-01 4.53274E-14-1.06681E-13
 -1      3784 1.99051E+01 2.48984E-01 4.35498E-04-1.74220E-01-2.32930E-13 5.37623E-14
 -1      3785 1.99168E+01 2.21995E-01-9.91666E-04-1.48683E-01-8.12163E-14 4.09153E-14
 -1      3786 1.98619E+01 2.88310E-01 8.69900E-04-1.69795E-01-1.99706E-13-5.10659E-14
 -1      3787 1.99371E+01 1.97696E-01 3.50011E-04-1.28412E-01 3.43867E-14 1.22979E-13
 -1      3788 1.99456E+01 1.74439E-01-7.89407E-04-1.08264E-01 1.65955E-13 1.35631E-13
 -1      3789 1.99056E+01 2.30126E-01 6.98265E-04-1.25381E-01 2.36546E-14 1.82523E-14
 -1      3790 1.99607E+01 1.53789E-01 2.82558E-04-9.26012E-02 2.26569E-13 1.86518E-13
 -1      3791 1.99667E+01 1.34341E-01-6.16972E-04-7.69436E-02 1.25244E-13 1.47391E-13
 -1      3792 1.99383E+01 1.79995E-01 5.44343E-04-9.07885E-02 1.75949E-13 1.49227E-13
 -1      3793 1.99775E+01 1.17272E-01 2.27423E-04-6.50054E-02 5.54247E-14 1.71871E-13
 -1      3794 1.99814E+01 1.01410E-01-4.72470E-04-5.30311E-02-5.65204E-14 1.95892E-13
 -1      3795 1.99619E+01 1.38049E-01 4.12961E-04-6.41700E-02 1.21026E-13 5.76772E-14
 -1      3796 1.99889E+01 8.76210E-02 1.82200E-04-4.40582E-02-2.00517E-13 2.03140E-13
 -1      3797 1.99913E+01 7.49284E-02-3.56129E-04-3.50541E-02-7.97469E-14 1.56743E-13
 -1      3798 1.99785E+01 1.03811E-01 3.08637E-04-4.39616E-02-5.06617E-14 3.60577E-13
 -1      3799 1.99962E+01 6.39739E-02 1.44899E-04-2.84446E-02-5.02570E-14 1.14275E-13
 -1      3800 1.99975E+01 5.39925E-02-2.60307E-04-2.18221E-02-3.66479E-14 9.69304E-14
 -1      3801 1.99896E+01 7.63746E-02 2.26216E-04-2.88576E-02-1.15573E-13 3.13379E-13
 -1      3802 2.00005E+01 4.53981E-02 1.09946E-04-1.70544E-02 1.16966E-13 1.00301E-13
 -1      3803 2.00011E+01 3.76815E-02-1.08107E-04-1.22477E-02 2.00573E-13 1.63464E-13
 -1      3804 1.99964E+01 5.46796E-02 1.30416E-04-1.78046E-02 9.66678E-14 1.76672E-13
 -1      3805 1.73409E+01 5.82883E-01-1.92173E-02 2.11536E+00-1.04732E-13 2.26057E-13
 -1      3806 1.72365E+01 3.19996E-01 8.94200E-03 2.42413E+00-9.42185E-14 2.67281E-13
 -1      3807 1.90801E+01 8.99240E-01-5.68020E-03 9.10388E-01 7.39974E-14-6.21264E-14
 -1      3808 1.89715E+01 9.44408E-01 3.72859E-04 1.00828E+00 5.63053E-15-5.09816E-15
 -1      3809 1.87670E+01 9.73957E-01-7.47504E-03 1.10331E+00-1.60228E-13-4.93656E-15
 -1      3810 1.86359E+01 9.93959E-01 1.46871E-03 1.22067E+00-1.03889E-13-2.77901E-14
 -1      3811 1.86209E+01 1.05787E+00 7.61988E-03 9.14654E-01-5.10119E-14 3.50216E-14
 -1      3812 1.95120E+01 6.79582E-01-3.54668E-03 6.08327E-01-7.10178E-15-1.94165E-13
 -1      3813 1.94474E+01 7.38492E-01 5.65361E-05 6.80843E-01 1.60470E-13-1.70439E-13
 -1      3814 1.96533E+01 5.67424E-01-2.84887E-03 4.88416E-01-6.09943E-14-2.32073E-13
 -1      3815 1.96059E+01 6.23731E-01 1.68009E-04 5.50675E-01-2.73141E-14-2.77401E-13
 -1      3816 1.94450E+01 7.12241E-01 3.55158E-03 5.14593E-01 4.39100E-14-1.89696E-13
 -1      3817 1.97584E+01 4.64380E-01-2.28882E-03 3.86299E-01-8.54162E-14-2.82129E-13
 -1      3818 1.97244E+01 5.15404E-01 2.86959E-04 4.39067E-01-8.52939E-14-2.69994E-13
 -1      3819 1.96016E+01 5.92904E-01 2.69131E-03 4.15390E-01 1.65603E-14-1.60780E-13
 -1      3820 1.98354E+01 3.73519E-01-1.82989E-03 3.00576E-01-1.77317E-13-3.68331E-13
 -1      3821 1.98117E+01 4.18099E-01 3.70548E-04 3.44595E-01-1.89236E-13-3.54302E-13
 -1      3822 1.97190E+01 4.84424E-01 2.01823E-03 3.29967E-01-6.36527E-14-2.13327E-13
 -1      3823 1.98910E+01 2.95743E-01-1.45094E-03 2.29797E-01-3.05398E-13-1.26381E-13
 -1      3824 1.98749E+01 3.33648E-01 4.10034E-04 2.65902E-01-2.22775E-13-3.49579E-13
 -1      3825 1.98059E+01 3.89240E-01 1.49739E-03 2.57597E-01-2.62788E-13-3.03709E-13
 -1      3826 1.99306E+01 2.30693E-01-1.13846E-03 1.72352E-01-1.97999E-13 1.88333E-14
 -1      3827 1.99199E+01 2.62229E-01 4.11751E-04 2.01468E-01-2.12180E-13 1.57529E-14
 -1      3828 1.98694E+01 3.07947E-01 1.09869E-03 1.97405E-01-2.83378E-13-1.03711E-13
 -1      3829 1.99581E+01 1.77328E-01-8.82574E-04 1.26525E-01-3.26963E-13 1.59213E-13
 -1      3830 1.99513E+01 2.03084E-01 3.86723E-04 1.49613E-01-3.21177E-13 1.07215E-13
 -1      3831 1.99150E+01 2.40028E-01 7.96667E-04 1.48276E-01-2.41452E-13 2.29238E-13
 -1      3832 1.99769E+01 1.34277E-01-6.75656E-04 9.05867E-02-1.93149E-13 1.48086E-13
 -1      3833 1.99728E+01 1.54973E-01 3.45845E-04 1.08591E-01-1.69263E-13 1.25957E-13
 -1      3834 1.99473E+01 1.84336E-01 5.70100E-04 1.08914E-01-1.78897E-13 3.57265E-13
 -1      3835 1.99892E+01 1.00069E-01-5.10166E-04 6.28917E-02-2.21070E-13-8.64596E-14
 -1      3836 1.99870E+01 1.16454E-01 2.97768E-04 7.66926E-02-2.56288E-13-9.21590E-14
 -1      3837 1.99695E+01 1.39419E-01 4.01190E-04 7.79497E-02-1.25286E-13 1.57245E-14
 -1      3838 1.99969E+01 7.32547E-02-3.83165E-04 4.19320E-02-2.35289E-14-1.72024E-13
 -1      3839 1.99959E+01 8.60606E-02 2.49216E-04 5.23247E-02-5.81488E-14-1.70241E-13
 -1      3840 1.99844E+01 1.03738E-01 2.77488E-04 5.40431E-02-8.33255E-14-2.98409E-13
 -1      3841 2.00013E+01 5.24906E-02-2.80956E-04 2.63395E-02 9.02937E-14-2.77205E-13
 -1      3842 2.00012E+01 6.24410E-02 2.22082E-04 3.40669E-02 2.45666E-14-1.49155E-13
 -1      3843 1.99938E+01 7.57265E-02 1.68085E-04 3.59566E-02-9.31333E-15-3.17460E-13
 -1      3844 2.00034E+01 3.65070E-02-2.10484E-04 1.49072E-02 1.95353E-13-4.03991E-13
 -1      3845 2.00038E+01 4.42244E-02 2.07839E-04 2.06706E-02 2.11898E-13-2.14011E-13
 -1      3846 1.99993E+01 5.38946E-02 1.79372E-05 2.25636E-02 1.31323E-13-3.90088E-13
 -1      3847 2.00044E+01 2.81202E-02 9.58067E-05 9.42062E-03 6.19088E-14-3.51458E-13
 -1      3848 1.99729E+01 1.49493E+00-2.98686E-03 2.07863E-01-5.22752E-14-2.86071E-13
 -1      3849 1.65171E+01 8.63535E-02-2.32288E-02 2.68539E+00-1.10596E-13 3.46350E-13
 -1      3850 1.61925E+01-3.81545E-01 1.65291E-02 3.14376E+00-9.88827E-14 3.65699E-13
 -1      3851 1.42008E+01 2.73111E-01 9.25823E-02 2.75233E+00-1.48163E-13 7.06612E-13
 -1      3852 1.58876E+01 6.30786E-01 4.42972E-02 2.21621E+00-7.96138E-14 5.61438E-13
 -1      3853 1.95808E+01 1.13538E+00-1.77239E-03-7.77170E-01 1.33107E-13-1.66175E-13
 -1      3854 1.96821E+01 1.18470E+00-2.23585E-03-6.42830E-01 1.20874E-13-1.60153E-13
 -1      3855 1.67112E+01-6.67422E-01 2.57104E-02-3.48796E+00-1.66599E-13-2.88516E-13
 -1      3856 1.90488E+01-1.82475E+00 3.29315E-02-3.37337E+00 2.20165E-13-1.74910E-13
 -1      3857 2.04595E+01-2.46297E+00-1.89600E-02-3.03617E+00 2.48289E-13-7.19754E-14
 -1      3858 2.11903E+01-2.08511E+00 1.99908E-02 2.27395E+00 1.68106E-13-6.23477E-14
 -1      3859 2.04570E+01-2.40174E+00-2.51659E-02 3.05273E+00 2.18089E-13-1.80126E-13
 -1      3860 1.96470E+01-1.87076E+00 9.27616E-03 3.11672E+00 2.50584E-13-2.16952E-13
 -1      3861 2.06764E+01-1.62269E+00 2.54602E-02 2.29995E+00 1.88233E-13-1.48884E-13
 -1      3862 1.78987E+01 8.81476E-01-1.38719E-02 1.66268E+00-1.63657E-13 2.09580E-14
 -1      3863 1.77590E+01 7.70417E-01 8.67982E-03 1.86475E+00-1.14716E-13 1.53696E-13
 -1      3864 1.69161E+01 9.09969E-01 1.90357E-02 1.76092E+00-5.94401E-14 4.61951E-13
 -1      3865 2.00008E+01 2.53455E-02-9.98222E-05 2.75412E-03 8.94448E-14-5.23250E-13
 -1      3866 2.00016E+01 2.42712E-02 9.10160E-08 3.27048E-03 1.03915E-13-3.67343E-13
 -1      3867 2.00022E+01 2.85892E-02 2.27341E-04 5.09881E-03 1.02175E-13-3.45148E-13
 -1      3868 2.00002E+01 3.20623E-02 2.20717E-04 2.98351E-03 6.68014E-14-4.71907E-13
 -1      3869 1.98566E+01 9.35514E-01-6.37120E-04 6.95309E-01-3.72969E-14-2.09077E-13
 -1      3870 1.98226E+01 8.21983E-01 9.78828E-04 8.23710E-01-3.43212E-14-1.86208E-13
 -1      3871 1.96381E+01 8.78017E-01 8.75647E-04 8.42630E-01-2.42202E-14-1.58984E-13
 -1      3872 2.04744E+01-2.63937E+00 4.05057E-02-3.64170E+00-3.39406E-13-7.16042E-14
 -1      3873 1.96107E+01 2.27645E+00-4.44721E-03 5.83283E-02 9.92281E-14-3.90163E-13
 -1      3874 1.96455E+01 2.24730E+00-1.28193E-03 3.82475E-02 6.43770E-14-3.79536E-13
 -1      3875 1.96812E+01 2.10346E+00 4.98161E-03 7.03774E-02 6.13645E-14-3.48532E-13
 -1      3876 1.96249E+01 2.09769E+00 6.29598E-03 6.20092E-02 9.55250E-14-3.44953E-13
 -1      3877 1.92946E+01 1.07972E+00-1.01060E-03-1.01036E+00 6.92164E-14-1.49465E-13
 -1      3878 1.94231E+01 1.10174E+00-3.47277E-03-8.84342E-01 1.08971E-13-1.53177E-13
 -1      3879 1.93635E+01 1.23131E+00 4.45690E-03-7.12666E-01 1.14479E-13-1.47183E-13
 -1      3880 1.99439E+01 1.19740E+00-1.00967E-03 4.30612E-01-4.78147E-14-2.46191E-13
 -1      3881 1.99135E+01 1.05899E+00-6.48074E-04 5.69723E-01-4.20447E-14-2.36605E-13
 -1      3882 1.97702E+01 1.11742E+00 2.26360E-03 5.93421E-01-2.96820E-14-1.96205E-13
 -1      3883 1.83747E+01 9.85715E-01-1.01202E-02 1.34313E+00-1.07957E-13-7.11878E-14
 -1      3884 1.82294E+01 9.58097E-01 4.11895E-03 1.49176E+00-1.66672E-13-3.44715E-14
 -1      3885 1.81763E+01 1.11317E+00 9.73158E-03 1.10746E+00-1.44920E-13 1.12163E-14
 -1      3886 1.58117E+01-8.80866E-01 3.96555E-03 3.69639E+00 1.79487E-13-2.87236E-13
 -1      3887 1.43680E+01 3.69540E-02 2.27109E-02 2.74317E+00 1.15580E-13-2.14179E-13
 -1      3888 2.01090E+01 1.00037E+00-1.44584E-03-5.69507E-01 1.41994E-13-1.23575E-13
 -1      3889 2.01596E+01 1.06196E+00 5.86871E-04-4.14053E-01 1.64865E-13-1.35177E-13
 -1      3890 2.00938E+01 1.21834E+00 2.94712E-04-3.43977E-01 1.92471E-13-1.30309E-13
 -1      3891 1.99565E+01 1.13948E+00 3.36787E-03-5.72157E-01 1.42293E-13-1.25556E-13
 -1      3892 1.93246E+01 7.94250E-01-4.44883E-03 7.47850E-01 2.27095E-13-2.23037E-13
 -1      3893 1.92392E+01 8.50667E-01 5.68904E-05 8.31805E-01 1.17022E-13-1.50277E-13
 -1      3894 1.89688E+01 9.57693E-01 5.98414E-03 7.59894E-01 1.46455E-13-1.90409E-13
 -1      3895 1.92384E+01 8.37092E-01 4.63766E-03 6.28605E-01 1.34804E-13-1.26544E-13
 -1      3896 2.00020E+01 3.48029E-02-1.18987E-04 1.09336E-02 1.72669E-13-2.35109E-13
 -1      3897 1.98379E+01 1.73916E+00-1.76160E-03 1.37802E-01-1.71498E-14-3.31048E-13
 -1      3898 1.99225E+01 1.40512E+00 3.16364E-03 3.10861E-01-3.65116E-14-2.72392E-13
 -1      3899 1.98001E+01 1.43178E+00-2.29815E-03 3.47710E-01-1.53871E-14-2.76099E-13
 -1      3900 1.97469E+01 1.83896E+00-5.39076E-03 1.42324E-01 1.98148E-14-3.22066E-13
 -1      3901 1.59041E+01-6.93388E-02 3.16392E-02-3.04971E+00-1.43109E-13-3.34399E-13
 -1      3902 1.71417E+01-2.82449E-01 3.36937E-02-3.06166E+00-1.75596E-13-2.34569E-13
 -1      3903 1.71637E+01 1.28645E-01-1.06703E-02-2.69271E+00-1.05375E-13-2.65524E-13
 -1      3904 1.52215E+01 3.70930E-01-4.93380E-03-2.42946E+00-9.41140E-14-3.17742E-13
 -1      3905 1.76134E+01 1.08439E+00 1.25613E-02 1.37016E+00-7.94175E-14 2.27564E-13
 -1      3906 1.97318E+01 1.69708E+00-3.42202E-03-1.45569E-01 1.54872E-13-2.44665E-13
 -1      3907 1.96523E+01 1.79453E+00-3.10042E-03-1.06602E-01 1.40547E-13-2.60070E-13
 -1      3908 1.82246E+01 3.13264E-01-8.00242E-04-2.44652E+00-9.12272E-14-1.85797E-13
 -1      3909 1.96298E+01 1.34114E+00 3.66928E-03-4.99052E-01 1.45691E-13-1.63790E-13
 -1      3910 1.97914E+01 1.25462E+00-3.21081E-03-5.25224E-01 1.27271E-13-1.51868E-13
 -1      3911 1.99984E+01 4.07471E-02-1.60424E-04 8.17565E-03 9.41373E-14-4.38238E-13
 -1      3912 1.99998E+01 3.84797E-02-9.38969E-05 9.24807E-03 1.19054E-13-2.28588E-13
 -1      3913 1.99992E+01 4.90856E-02 2.71520E-04 1.49955E-02 1.38421E-13-2.67375E-13
 -1      3914 1.98635E+01-1.37641E+00-2.33576E-02 2.53565E+00 2.19185E-13-2.28878E-13
 -1      3915 1.40660E+01 4.92907E-01 4.55750E-02 2.11383E+00 9.03969E-14-1.98740E-13
 -1      3916 1.39870E+01 7.45311E-01 1.22138E-03 1.27309E+00 8.17887E-14-2.30066E-13
 -1      3917 1.53338E+01 2.20854E-01 2.10048E-02 2.35483E+00 9.43247E-14-2.04286E-13
 -1      3918 1.84944E+01 9.79372E-01 2.18882E-03-1.50616E+00 3.09297E-14-1.98112E-13
 -1      3919 1.86679E+01 1.01779E+00-7.56771E-03-1.36071E+00 7.58511E-14-1.64607E-13
 -1      3920 2.00010E+01 3.47423E-02 3.74866E-05-9.08055E-03 2.02631E-14 4.81881E-14
 -1      3921 1.34553E+01 8.18480E-01 3.52360E-02-8.17074E-01 4.66380E-15-3.10856E-13
 -1      3922 2.00015E+01 2.80026E-02 8.06403E-05-4.65592E-03-1.26876E-13-2.62818E-13
 -1      3923 1.99972E+01 3.97152E-02-7.79321E-05-6.11240E-04-8.39522E-14-3.54090E-13
 -1      3924 1.99971E+01 3.94962E-02-1.69403E-04 9.92292E-04-2.19026E-13-2.12410E-13
 -1      3925 1.95833E+01 1.69991E+00 4.38930E-03-1.25397E-01 1.21520E-13-2.67767E-13
 -1      3926 1.95951E+01 1.85628E+00-3.08194E-03-3.37801E-02 1.41666E-13-2.95475E-13
 -1      3927 1.95643E+01 1.89382E+00-2.87818E-03 2.75838E-03 1.11293E-13-3.00522E-13
 -1      3928 1.99983E+01 3.77565E-02-6.68034E-05-4.51923E-03-4.85966E-14-3.54835E-13
 -1      3929 1.99975E+01 3.88168E-02-1.52523E-04-3.10175E-03 4.12645E-14-4.25719E-13
 -1      3930 1.99959E+01 4.69169E-02 1.75870E-04-2.43424E-03-1.65995E-13-3.22128E-13
 -1      3931 1.98754E+01 1.29450E+00-9.26564E-04-4.23983E-01 1.54793E-13-1.56780E-13
 -1      3932 1.80136E+01-1.51492E+00-1.10110E-02-3.55848E+00 1.68509E-13-2.62047E-13
 -1      3933 1.91860E+01-1.25196E+00 2.51872E-02-2.78091E+00 1.63706E-14-1.11862E-13
 -1      3934 1.88390E+01-7.86738E-01 1.55976E-02-2.53529E+00 7.84396E-14-1.44530E-13
 -1      3935 1.71548E+01-8.97643E-01 2.95816E-03-3.29714E+00 1.12937E-13-2.39812E-13
 -1      3936 1.79854E+01 8.18905E-01 7.53877E-03-1.83950E+00-3.91330E-14-2.42936E-13
 -1      3937 1.81611E+01 9.12502E-01-1.07960E-02-1.65479E+00-3.91332E-15-2.36316E-13
 -1      3938 1.79618E+01 1.08829E+00 6.95203E-03-1.35801E+00 2.29801E-14-1.87484E-13
 -1      3939 1.38836E+01 5.61813E-01-8.51032E-03 2.01939E+00-1.09059E-13 7.58929E-13
 -1      3940 1.22597E+01 9.92365E-01 9.21288E-02-2.01470E-01 1.67965E-15 3.56729E-13
 -1      3941 1.29268E+01 8.26207E-01-2.69331E-04-1.05820E+00 2.76584E-14 1.31783E-13
 -1      3942 1.29576E+01 9.25860E-01 2.02560E-02 5.63689E-01-1.48067E-14 5.78110E-13
 -1      3943 1.38657E+01 3.26738E-01 5.99805E-03-2.38868E+00 5.08534E-14-1.25474E-13
 -1      3944 1.42079E+01-5.41832E-02 7.13544E-02-3.09912E+00 7.91259E-14-1.63909E-13
 -1      3945 1.55124E+01-4.03936E-01 2.15603E-02-3.25276E+00 2.10108E-13-2.87178E-13
 -1      3946 1.89330E+01 1.04449E+00 3.87972E-05-1.24428E+00 5.90187E-14-1.78539E-13
 -1      3947 1.90867E+01 1.06164E+00-5.19260E-03-1.11603E+00 4.17277E-14-1.88165E-13
 -1      3948 1.90049E+01 1.18086E+00 5.30487E-03-9.12003E-01 8.35610E-14-1.65833E-13
 -1      3949 1.85439E+01 1.14962E+00 6.42441E-03-1.11625E+00 6.12216E-14-1.74320E-13
 -1      3950 1.73342E+01-1.08343E+00 3.41692E-02 3.43562E+00 2.09813E-13-2.70659E-13
 -1      3951 2.14204E+01-2.96456E+00 2.68876E-02-2.89445E+00 3.31813E-13-1.79100E-13
 -1      3952 1.97845E+01 1.59541E+00 1.17703E-03-2.30054E-01 1.73368E-13-2.16512E-13
 -1      3953 1.96856E+01 1.52292E+00 9.39078E-04-2.93958E-01 1.67968E-13-2.02212E-13
 -1      3954 1.93258E+01 8.23595E-01-4.03382E-03 9.49235E-01-1.85822E-14-2.09972E-13
 -1      3955 1.92627E+01 7.17654E-01 3.98932E-03 1.08545E+00-4.21505E-15-2.06675E-13
 -1      3956 1.91150E+01 5.94275E-01-4.87009E-03 1.24045E+00-6.85773E-15-2.09427E-13
 -1      3957 1.90784E+01 4.59057E-01 7.14759E-03 1.39867E+00-8.65486E-15-2.12912E-13
 -1      3958 1.89605E+01 7.88779E-01 1.91408E-03 1.07534E+00-1.28770E-14-2.11929E-13
 -1      3959 1.89297E+01 2.89083E-01-5.15690E-03 1.59745E+00 8.50088E-15-2.35682E-13
 -1      3960 1.89521E+01 9.31449E-02 1.18437E-02 1.78698E+00 3.77107E-14-2.49807E-13
 -1      3961 1.86728E+01 5.31657E-01 2.81723E-05 1.42746E+00 9.12882E-15-1.84348E-13
 -1      3962 1.88289E+01-1.55277E-01-2.85569E-03 2.04736E+00 9.76463E-14-2.06725E-13
 -1      3963 1.89582E+01-4.55232E-01 1.79159E-02 2.27339E+00 1.61577E-13-1.90847E-13
 -1      3964 1.84043E+01 1.57165E-01-3.71080E-03 1.89122E+00 7.76828E-14-1.73185E-13
 -1      3965 1.85014E+01 1.07577E+00-6.78190E-03 6.83156E-01-1.61768E-14-4.51215E-14
 -1      3966 1.83031E+01 1.12311E+00-2.90887E-03 7.54387E-01-4.76351E-14 4.42383E-14
 -1      3967 1.65311E+01 1.09872E+00-2.17950E-02 1.21830E+00 5.47078E-14 4.63444E-13
 -1      3968 1.61402E+01 1.00298E+00-4.87170E-04 1.42727E+00 6.70630E-14 5.94348E-13
 -1      3969 1.74233E+01 4.69586E-01 1.88808E-02-2.31394E+00-7.10222E-14-2.59515E-13
 -1      3970 1.75716E+01 6.68438E-01-1.29788E-02-2.05870E+00-7.02082E-14-2.41070E-13
 -1      3971 1.72342E+01 9.34871E-01 7.83417E-03-1.68704E+00-2.97645E-14-2.01971E-13
 -1      3972 1.95790E+01 1.41649E+00-1.86124E-03-3.80058E-01 1.58554E-13-1.72781E-13
 -1      3973 1.95424E+01 1.52097E+00 1.40538E-03-2.87648E-01 1.45208E-13-1.91838E-13
 -1      3974 1.94628E+01 1.34321E+00-1.51765E-03-4.87350E-01 1.39426E-13-1.80852E-13
 -1      3975 2.07278E+01-2.20364E+00-6.18752E-03-2.55704E+00 2.23077E-13-9.89937E-14
 -1      3976 1.87350E+01-3.22156E-01 1.37926E-02-2.13469E+00 1.40438E-13-2.24125E-13
 -1      3977 1.86016E+01-3.79783E-02-1.09869E-03-1.91269E+00 1.04408E-13-2.59261E-13
 -1      3978 1.87030E+01 1.76139E-01 1.15198E-02-1.65816E+00 7.49392E-14-2.75644E-13
 -1      3979 1.86669E+01 3.37511E-01-5.14591E-03-1.47592E+00 9.52830E-14-2.56389E-13
 -1      3980 1.81671E+01 2.50079E-01-2.13000E-03-1.77324E+00 1.09636E-13-3.81580E-13
 -1      3981 1.87941E+01 4.66602E-01 7.26176E-03-1.28648E+00 1.68675E-13-1.97155E-13
 -1      3982 1.88124E+01 5.53067E-01-5.26680E-03-1.14095E+00 2.55907E-13-2.27155E-13
 -1      3983 1.83922E+01 5.51661E-01 1.25136E-03-1.32711E+00 1.39130E-13-3.17683E-13
 -1      3984 1.89423E+01 6.17556E-01 4.55858E-03-9.97670E-01 3.01431E-13-2.47221E-13
 -1      3985 1.89880E+01 6.51542E-01-4.66255E-03-8.82449E-01 2.16370E-13-2.16233E-13
 -1      3986 1.86373E+01 7.04705E-01 2.44094E-03-9.97768E-01 2.58670E-13-3.30542E-13
 -1      3987 1.91092E+01 6.71597E-01 2.78498E-03-7.74566E-01 1.27277E-13-1.29753E-13
 -1      3988 1.91655E+01 6.71230E-01-3.92915E-03-6.83235E-01-6.00345E-14-8.62340E-14
 -1      3989 1.88765E+01 7.55755E-01 2.84226E-03-7.52881E-01 2.26126E-13-2.09240E-13
 -1      3990 1.92730E+01 6.62719E-01 1.67026E-03-6.01286E-01-1.58443E-13 1.93646E-14
 -1      3991 1.93302E+01 6.41127E-01-3.26535E-03-5.28475E-01-9.97476E-14 7.87461E-14
 -1      3992 1.90944E+01 7.41501E-01 2.77969E-03-5.70492E-01 4.09847E-15 8.99186E-15
 -1      3993 1.94225E+01 6.15487E-01 9.98739E-04-4.65623E-01-1.29278E-13 3.34595E-14
 -1      3994 1.94754E+01 5.82033E-01-2.69867E-03-4.07317E-01-1.03555E-13 5.86455E-14
 -1      3995 1.92851E+01 6.87698E-01 2.55467E-03-4.32830E-01-6.48068E-14 6.03172E-14
 -1      3996 1.95527E+01 5.47453E-01 5.93641E-04-3.58835E-01-7.82722E-15 8.18584E-15
 -1      3997 1.95988E+01 5.08763E-01-2.21716E-03-3.12079E-01 1.86342E-13 5.40683E-14
 -1      3998 1.94472E+01 6.12246E-01 2.25736E-03-3.27939E-01-7.10929E-14 4.06653E-15
 -1      3999 1.96621E+01 4.70918E-01 3.53169E-04-2.74581E-01 1.08712E-13-6.67081E-14
 -1      4000 1.97005E+01 4.31475E-01-1.80696E-03-2.37158E-01 1.52774E-13-1.27017E-13
 -1      4001 1.95815E+01 5.27837E-01 1.93330E-03-2.47524E-01 3.56758E-14 4.88558E-15
 -1      4002 1.97511E+01 3.94095E-01 2.13791E-04-2.08157E-01 1.63916E-13-2.69405E-13
 -1      4003 1.97820E+01 3.56733E-01-1.45783E-03-1.78347E-01-4.95174E-14-2.88651E-13
 -1      4004 1.96902E+01 4.43080E-01 1.61198E-03-1.85668E-01 2.77156E-15-3.22292E-13
 -1      4005 1.98217E+01 3.22084E-01 1.35113E-04-1.55976E-01-7.69522E-14-2.33673E-13
 -1      4006 1.98458E+01 2.88415E-01-1.16238E-03-1.32399E-01-1.29874E-13-7.84472E-14
 -1      4007 1.97762E+01 3.63420E-01 1.31206E-03-1.38059E-01 1.02890E-14-4.56180E-13
 -1      4008 1.98763E+01 2.57702E-01 9.17577E-05-1.15227E-01-1.32719E-13 5.71833E-14
 -1      4009 1.98945E+01 2.28471E-01-9.14680E-04-9.67470E-02 4.98968E-14 2.80979E-14
 -1      4010 1.98428E+01 2.91938E-01 1.04436E-03-1.01488E-01-4.03229E-14-9.98700E-14
 -1      4011 1.99173E+01 2.02159E-01 6.82479E-05-8.36542E-02 2.18664E-13 3.66686E-14
 -1      4012 1.99307E+01 1.77521E-01-7.09536E-04-6.93231E-02 2.93782E-13 1.33559E-13
 -1      4013 1.98931E+01 2.30014E-01 8.13816E-04-7.35141E-02 1.52312E-13 7.10547E-14
 -1      4014 1.99474E+01 1.55590E-01 5.54431E-05-5.94271E-02 1.99986E-13 6.04962E-15
 -1      4015 1.99569E+01 1.35323E-01-5.44725E-04-4.84480E-02 1.58241E-13-4.69394E-15
 -1      4016 1.99303E+01 1.77870E-01 6.20448E-04-5.22497E-02 2.20057E-13 2.08684E-14
 -1      4017 1.99687E+01 1.17461E-01 4.70008E-05-4.10670E-02 1.25935E-13 1.27769E-13
 -1      4018 1.99752E+01 1.01188E-01-3.92155E-04-3.27851E-02-6.01091E-14 2.51911E-13
 -1      4019 1.99569E+01 1.34974E-01 4.60932E-04-3.62258E-02 1.91064E-13-2.95386E-14
 -1      4020 1.99832E+01 8.68279E-02 1.87902E-05-2.72457E-02-2.00145E-13 2.63259E-13
 -1      4021 1.99875E+01 7.38918E-02-2.75974E-04-2.11386E-02-8.50792E-14 2.07519E-13
 -1      4022 1.99754E+01 1.00572E-01 3.75840E-04-2.42871E-02-8.68917E-14 2.46243E-13
 -1      4023 1.99925E+01 6.27425E-02 3.27684E-05-1.72185E-02-2.81242E-14 7.28323E-14
 -1      4024 1.99950E+01 5.27010E-02-1.87404E-04-1.26964E-02-1.51407E-14-6.56212E-14
 -1      4025 1.99875E+01 7.28115E-02 1.55668E-04-1.54887E-02-1.81104E-13-9.84476E-15
 -1      4026 1.47227E+01 7.65142E-01 7.19816E-03 1.73413E+00-1.04802E-13 6.67265E-13
 -1      4027 1.37445E+01 9.85464E-01 6.55002E-02 1.27256E+00-6.06318E-14 6.72056E-13
 -1      4028 1.37700E+01 1.04293E+00-1.24178E-02 4.22424E-01-3.84189E-14 5.23801E-13
 -1      4029 1.99993E+01 3.76582E-02-8.84859E-05-8.10416E-03-1.30400E-14-1.28484E-13
 -1      4030 1.90009E+01-8.48685E-01 7.07710E-03 2.59469E+00 2.01343E-13-1.99687E-13
 -1      4031 1.93681E+01-1.31453E+00 1.98925E-02 2.81394E+00 2.46258E-13-2.04745E-13
 -1      4032 1.82871E+01-4.53498E-01-1.39073E-02 2.51062E+00 1.79585E-13-1.32241E-13
 -1      4033 1.85991E+01-1.42425E+00-1.54619E-02 3.25476E+00 2.35550E-13-2.08602E-13
 -1      4034 1.70987E+01-5.52728E-01 4.89015E-03 2.98368E+00 1.78932E-13-2.33870E-13
 -1      4035 1.95554E+01 5.89948E-01-2.45274E-03 3.26700E-01-3.64752E-14-2.27618E-14
 -1      4036 1.94876E+01 6.49234E-01-8.71975E-04 3.68507E-01 1.77663E-14-6.70301E-14
 -1      4037 1.93868E+01 7.09826E-01-3.04750E-03 4.01664E-01 6.57880E-14-2.44806E-13
 -1      4038 1.92964E+01 7.73463E-01-1.31373E-03 4.49083E-01 9.88117E-14-1.42454E-13
 -1      4039 1.93696E+01 7.20331E-01 3.69688E-03 3.07317E-01-1.58997E-14-1.79554E-13
 -1      4040 1.97779E+01 3.86618E-01-1.59687E-03 2.04265E-01-2.46579E-13-6.79631E-14
 -1      4041 1.97412E+01 4.32811E-01-2.83192E-04 2.34993E-01-1.58306E-13-3.27054E-14
 -1      4042 1.98483E+01 3.05608E-01-1.27534E-03 1.56753E-01-3.18770E-13-1.19650E-13
 -1      4043 1.98219E+01 3.44814E-01-1.16127E-04 1.82289E-01-3.56691E-13-2.07908E-13
 -1      4044 1.97690E+01 3.91032E-01 1.61084E-03 1.60686E-01-2.63740E-13-1.62578E-13
 -1      4045 1.98994E+01 2.37944E-01-1.00687E-03 1.17722E-01-2.61932E-13-5.63283E-14
 -1      4046 1.98808E+01 2.70537E-01-1.06333E-05 1.38517E-01-2.93345E-13-1.30797E-13
 -1      4047 1.98417E+01 3.08845E-01 1.20370E-03 1.23874E-01-2.63723E-13-4.19768E-13
 -1      4048 1.99360E+01 1.82476E-01-7.83829E-04 8.63222E-02-1.46321E-13 1.29076E-13
 -1      4049 1.99231E+01 2.09082E-01 5.01478E-05 1.02929E-01-1.75906E-13 1.19040E-13
 -1      4050 1.98947E+01 2.40231E-01 8.90166E-04 9.33033E-02-2.41819E-13-3.89629E-13
 -1      4051 1.99616E+01 1.37754E-01-6.03080E-04 6.15584E-02-2.49939E-14-6.17559E-14
 -1      4052 1.99529E+01 1.59127E-01 8.04302E-05 7.45721E-02-3.99525E-14 2.01489E-13
 -1      4053 1.99328E+01 1.84008E-01 6.49992E-04 6.85170E-02-1.13936E-13-8.12805E-14
 -1      4054 1.99789E+01 1.02230E-01-4.54026E-04 4.24265E-02 1.02588E-14-2.06513E-13
 -1      4055 1.99734E+01 1.19147E-01 9.20855E-05 5.24226E-02-9.07862E-15-1.86926E-13
 -1      4056 1.99594E+01 1.38676E-01 4.63111E-04 4.88487E-02 1.55766E-13 2.83073E-15
 -1      4057 1.99902E+01 7.45076E-02-3.08844E-04 2.79893E-02 3.14207E-14-2.24955E-13
 -1      4058 1.99869E+01 8.76918E-02 1.13181E-04 3.54740E-02-2.42467E-14-2.64042E-13
 -1      4059 1.99775E+01 1.02701E-01 3.24583E-04 3.36780E-02 3.31832E-14-1.66219E-13
 -1      4060 1.99962E+01 5.59088E-02-1.51358E-04 1.84189E-02 4.49996E-14-2.44055E-13
 -1      4061 1.99943E+01 6.62793E-02 1.77114E-04 2.38578E-02 9.74095E-14-2.89422E-13
 -1      4062 1.99879E+01 7.75377E-02 1.07774E-04 2.30333E-02 9.94111E-14-4.05141E-13
 -1      4063 1.99936E+01 6.01242E-02-7.72967E-05 1.58218E-02-8.03533E-15-3.64711E-13
 -1      4064 1.54123E+01 8.78148E-01-1.92706E-02 1.58805E+00-7.88362E-14 6.42211E-13
 -1      4065 1.99242E+01 1.47111E+00-1.80290E-03-2.57707E-01 1.77615E-13-1.70224E-13
 -1      4066 1.91449E+01 1.25235E+00-1.64265E-03-6.56183E-01 1.05952E-13-1.64837E-13
 -1      4067 1.93036E+01 1.28741E+00-2.95093E-03-5.62571E-01 1.16484E-13-1.74270E-13
 -1      4068 1.92773E+01 1.37693E+00 4.97816E-03-4.37565E-01 1.29413E-13-1.66729E-13
 -1      4069 1.95252E+01 1.03265E+00-3.02942E-03 6.99291E-01-2.21398E-14-2.26804E-13
 -1      4070 1.94570E+01 9.29118E-01 1.74439E-03 8.23006E-01-3.80984E-14-2.17060E-13
 -1      4071 1.92318E+01 9.92931E-01 2.95801E-03 7.99222E-01-1.65404E-14-2.23098E-13
 -1      4072 1.96934E+01 1.26923E+00-2.32903E-04 4.73523E-01-8.58238E-15-2.63418E-13
 -1      4073 1.96300E+01 1.14149E+00-7.22913E-04 5.89553E-01 4.33398E-15-2.49163E-13
 -1      4074 1.94639E+01 1.19778E+00 4.32183E-03 5.69801E-01-1.44427E-14-2.78807E-13
 -1      4075 1.99970E+01 4.15601E-02-1.04461E-04 3.68194E-03-4.04751E-14-5.78517E-13
 -1      4076 1.99977E+01 4.01255E-02-1.83497E-04 5.16668E-03 1.18609E-13-5.35889E-13
 -1      4077 1.99957E+01 5.26006E-02 2.51972E-04 9.32704E-03 1.15673E-14-5.33152E-13
 -1      4078 1.99952E+01 4.97588E-02 1.95021E-04 3.12155E-03-7.30573E-14-5.54357E-13
 -1      4079 1.38809E+01 1.03144E+00 1.82354E-02-1.00118E-01 5.26130E-14-2.44067E-13
 -1      4080 1.43943E+01 8.54586E-01 1.50626E-02-1.38424E+00-1.18111E-14-3.11334E-13
 -1      4081 1.80143E+01 1.15614E+00-9.63522E-03 8.07487E-01 1.11039E-15 3.87217E-14
 -1      4082 1.77627E+01 1.18013E+00-2.80651E-03 8.98441E-01 8.38587E-15 1.58027E-13
 -1      4083 1.79877E+01 1.21577E+00 1.13733E-02 5.58746E-01 1.71846E-16 1.11946E-13
 -1      4084 1.73773E+01 1.17708E+00-1.43565E-02 9.72568E-01-3.55084E-14 2.09524E-13
 -1      4085 1.70631E+01 1.15845E+00-1.62926E-03 1.10201E+00 2.00374E-14 3.31049E-13
 -1      4086 1.64847E+01 1.28405E+00 2.46020E-02 7.76259E-01 1.15141E-13 4.45853E-13
 -1      4087 1.73453E+01 1.28196E+00 1.62111E-02 6.44745E-01 5.87185E-14 2.22951E-13
 -1      4088 1.96827E+01 4.81540E-01-1.98257E-03 2.60843E-01-9.38262E-14 9.01396E-15
 -1      4089 1.96325E+01 5.34661E-01-5.29974E-04 2.97055E-01 2.13441E-14 5.68548E-14
 -1      4090 1.95410E+01 5.97747E-01 2.81613E-03 2.53037E-01-1.41840E-13 9.17499E-14
 -1      4091 1.96712E+01 4.87425E-01 2.13697E-03 2.03858E-01-4.64696E-14 1.46064E-13
 -1      4092 1.76335E+01-2.74457E-01 2.49057E-02 2.56401E+00 1.76056E-13-1.82252E-13
 -1      4093 1.63446E+01-2.00763E-02 9.96615E-03 2.62502E+00 1.29238E-13-2.36315E-13
 -1      4094 1.58710E+01 3.90536E-01-4.93540E-03 2.05179E+00 1.03321E-13-1.66029E-13
 -1      4095 1.75558E+01 4.85564E-02-1.30970E-02 2.19804E+00 1.55085E-13-1.57098E-13
 -1      4096 1.44444E+01 1.02224E+00 3.18290E-02 5.37712E-01 6.43029E-14-2.47259E-13
 -1      4097 1.51322E+01 1.09323E+00 4.02055E-03-3.94838E-02 1.37286E-14-1.98645E-13
 -1      4098 1.51473E+01 8.74577E-01-1.14849E-02 1.16142E+00 6.56619E-14-1.75003E-13
 -1      4099 1.87222E+01 1.02321E+00-2.36606E-03 6.38713E-01 8.63294E-14-1.18777E-13
 -1      4100 1.84778E+01 1.11144E+00 8.52394E-03 4.89067E-01 6.36627E-14-1.94702E-14
 -1      4101 1.88767E+01 9.62988E-01-4.99969E-03 5.78335E-01 1.79574E-13-1.52142E-13
 -1      4102 1.52833E+01 1.19828E+00 3.91532E-02 9.65518E-01-3.23012E-14 5.38414E-13
 -1      4103 1.96209E+01 1.90492E+00-5.98088E-03 1.32476E-01 6.72567E-14-3.36922E-13
 -1      4104 1.96817E+01 1.89423E+00-1.46137E-04 1.31381E-01 3.97439E-14-3.14157E-13
 -1      4105 1.97185E+01 1.68646E+00 5.28508E-03 2.15720E-01 2.11430E-14-3.02508E-13
 -1      4106 1.94658E+01 1.57290E+00-5.40146E-03-1.94227E-01 1.27957E-13-2.40629E-13
 -1      4107 1.80948E+01-4.17362E-01-1.13882E-02-2.48128E+00 7.58404E-14-2.83598E-13
 -1      4108 1.91458E+01 8.51549E-01 4.85420E-03 3.65347E-01 1.88554E-13-8.57847E-14
 -1      4109 1.91655E+01 8.36781E-01-3.84619E-03 4.85425E-01 1.40463E-13-5.24208E-14
 -1      4110 1.90465E+01 9.01441E-01-1.83296E-03 5.38704E-01 1.91490E-13-2.36802E-14
 -1      4111 1.96795E+01 1.45855E+00 3.63175E-04 3.51494E-01 1.84217E-15-2.98276E-13
 -1      4112 1.89250E+01 1.22783E+00-4.15146E-03-7.23763E-01 9.45798E-14-1.70723E-13
 -1      4113 1.89010E+01 1.30681E+00 7.81961E-03-5.64158E-01 9.96752E-14-1.79364E-13
 -1      4114 1.87204E+01 1.21376E+00-1.32164E-03-8.11254E-01 9.47353E-14-1.75681E-13
 -1      4115 1.95340E+01 1.76507E+00 7.32305E-03 3.10431E-02 8.61277E-14-3.01105E-13
 -1      4116 1.95577E+01 1.89813E+00-4.19286E-03 7.00274E-02 8.81216E-14-3.24698E-13
 -1      4117 1.99919E+01 5.71326E-02 3.28214E-05 9.36540E-04-6.53941E-14-3.13454E-13
 -1      4118 1.99911E+01 5.90547E-02-1.76883E-04 4.03310E-03 5.98305E-14-7.43543E-13
 -1      4119 1.65595E+01 5.59321E-01 1.37582E-02-2.26745E+00-9.98799E-14-2.42654E-13
 -1      4120 1.99973E+01 4.60805E-02 1.24304E-04-9.14570E-03-7.46213E-14-2.61585E-13
 -1      4121 1.37647E+01 7.85436E-01 6.92670E-02-1.73337E+00 3.43553E-14-3.32148E-14
 -1      4122 1.46756E+01 4.55309E-01 1.79155E-03-2.17307E+00 4.56562E-14-1.79222E-13
 -1      4123 1.37878E+01 9.27587E-01-4.60059E-03-9.58118E-01 6.56363E-14 1.23139E-13
 -1      4124 1.81722E+01 1.18687E+00-7.78145E-04-9.71356E-01 5.84444E-14-1.75172E-13
 -1      4125 1.84278E+01 1.19960E+00-6.34643E-03-8.79726E-01 7.62030E-14-1.87595E-13
 -1      4126 1.83973E+01 1.27970E+00 1.03105E-02-6.76880E-01 9.45705E-14-1.71384E-13
 -1      4127 1.95820E+01 1.92450E+00 8.03868E-05 9.18609E-02 7.17980E-14-3.44414E-13
 -1      4128 1.50456E+01 7.91413E-01 3.19180E-02-1.74122E+00-2.60840E-14-2.76858E-13
 -1      4129 1.59977E+01 6.56035E-01 1.77696E-02-2.03204E+00-8.08771E-14-2.18569E-13
 -1      4130 1.62145E+01 8.66199E-01-1.99211E-02-1.66501E+00-1.90293E-14-1.54316E-13
 -1      4131 1.51889E+01 1.01073E+00-1.55612E-02-1.08652E+00 1.00258E-14-2.40522E-13
 -1      4132 1.74696E+01 1.13009E+00 2.55386E-03-1.16814E+00 9.72802E-15-1.59708E-13
 -1      4133 1.77879E+01 1.16422E+00-8.47215E-03-1.05312E+00 4.34300E-14-1.55132E-13
 -1      4134 1.77424E+01 1.26109E+00 1.49041E-02-7.96270E-01 5.02014E-14-1.68233E-13
 -1      4135 1.99940E+01 5.30455E-02-8.15464E-05-8.30044E-03-1.28962E-13-3.27571E-13
 -1      4136 1.99928E+01 5.52552E-02-1.95606E-05-5.32414E-03-1.99210E-13-2.94315E-13
 -1      4137 1.99920E+01 5.58210E-02-1.94865E-04-2.33767E-03-2.68123E-13-1.88102E-13
 -1      4138 1.99890E+01 6.65534E-02 2.01905E-04-1.84111E-03-1.54387E-13-3.17933E-13
 -1      4139 1.99905E+01 6.34921E-02 1.30311E-04-8.65408E-03-2.53548E-13-2.43743E-13
 -1      4140 1.84176E+01 7.61034E-01-1.19674E-02 1.15344E+00-2.37557E-15-1.61729E-13
 -1      4141 1.83005E+01 6.50219E-01 9.70927E-03 1.34670E+00 1.40842E-14-1.55846E-13
 -1      4142 1.79824E+01 4.90729E-01-1.52201E-02 1.57735E+00 5.17723E-14-1.54151E-13
 -1      4143 1.79047E+01 3.21883E-01 1.79273E-02 1.83627E+00 1.25446E-13-1.24797E-13
 -1      4144 1.77948E+01 7.85768E-01 1.32573E-02 1.29579E+00 4.55600E-14-1.19046E-13
 -1      4145 1.67049E+01 9.95462E-01 8.84435E-03-1.47556E+00-5.87429E-14-1.81287E-13
 -1      4146 1.70818E+01 1.06980E+00-1.56122E-02-1.30235E+00-4.82375E-14-1.83662E-13
 -1      4147 1.69907E+01 1.21581E+00 1.72214E-02-9.67273E-01-2.46515E-15-1.96689E-13
 -1      4148 1.62287E+01 1.08060E+00 2.18579E-02-1.24457E+00-4.70712E-14-2.01362E-13
 -1      4149 1.91407E+01 1.12322E+00-6.61849E-03 6.07133E-01 4.58561E-15-2.11057E-13
 -1      4150 1.90234E+01 1.04375E+00 2.68493E-03 7.24308E-01 7.92194E-15-1.81172E-13
 -1      4151 1.76780E+01 4.18672E-01 1.45767E-02-1.73153E+00 5.85717E-14-4.64745E-13
 -1      4152 1.77466E+01 5.65145E-01-1.14008E-02-1.48637E+00 6.60576E-14-3.98534E-13
 -1      4153 1.45331E+01 1.13704E+00-3.83842E-03 3.88280E-01-8.75333E-14 4.01722E-13
 -1      4154 1.40820E+01 1.19661E+00 5.73425E-02-2.56214E-01 4.60678E-14 3.60827E-13
 -1      4155 1.45352E+01 1.01230E+00-5.08350E-03-8.70239E-01 4.43530E-14 1.01807E-13
 -1      4156 1.80214E+01 6.78578E-01 6.03508E-03-1.26134E+00 1.82360E-13-3.16858E-13
 -1      4157 1.81200E+01 7.49221E-01-1.39440E-02-1.08513E+00 2.13360E-13-2.64266E-13
 -1      4158 1.75482E+01 8.23062E-01 1.04700E-02-1.21183E+00 2.10988E-13-3.81144E-13
 -1      4159 1.83615E+01 8.09714E-01 4.43701E-03-9.19436E-01 1.85388E-13-1.71553E-13
 -1      4160 1.84700E+01 8.28429E-01-9.72900E-03-7.90774E-01 2.87588E-13-1.95079E-13
 -1      4161 1.80233E+01 9.54628E-01 1.90611E-02-8.47728E-01 2.44610E-13-1.80506E-13
 -1      4162 1.86665E+01 8.41502E-01 1.97448E-03-6.76632E-01 3.49782E-13-1.83227E-13
 -1      4163 1.87729E+01 8.29123E-01-7.21643E-03-5.82174E-01 1.97460E-13-1.26697E-13
 -1      4164 1.84292E+01 9.62456E-01 1.65865E-02-6.00350E-01 2.62584E-13-6.69855E-14
 -1      4165 1.89335E+01 8.14150E-01 9.24860E-04-5.00524E-01 4.32928E-14-7.42456E-14
 -1      4166 1.90302E+01 7.82250E-01-5.38130E-03-4.30076E-01 5.05403E-14 1.83422E-14
 -1      4167 1.87588E+01 9.16331E-01 1.28490E-02-4.26716E-01 2.59686E-13-1.71219E-14
 -1      4168 1.91613E+01 7.49725E-01 2.78768E-04-3.71313E-01-4.71232E-14 2.18117E-14
 -1      4169 1.92460E+01 7.06975E-01-4.05695E-03-3.18095E-01-1.62111E-13-2.92534E-14
 -1      4170 1.90312E+01 8.36856E-01 9.91492E-03-3.03502E-01-8.96912E-15-1.25386E-13
 -1      4171 1.93520E+01 6.65148E-01-9.48582E-05-2.75709E-01-1.20706E-13 2.57083E-14
 -1      4172 1.94238E+01 6.17882E-01-3.07738E-03-2.35132E-01 8.75035E-14 3.32683E-14
 -1      4173 1.92546E+01 7.39530E-01 7.67399E-03-2.15993E-01-6.25214E-14 2.38264E-14
 -1      4174 1.95087E+01 5.72672E-01-2.86729E-04-2.04503E-01 2.07507E-14-6.86225E-14
 -1      4175 1.95680E+01 5.25304E-01-2.33877E-03-1.73362E-01-1.07409E-13-1.44115E-13
 -1      4176 1.94357E+01 6.35863E-01 5.94256E-03-1.53731E-01-4.12055E-14-4.86696E-14
 -1      4177 1.96350E+01 4.80716E-01-3.62842E-04-1.51202E-01-1.56476E-13-2.24065E-13
 -1      4178 1.96827E+01 4.36111E-01-1.77469E-03-1.27212E-01-8.50704E-14-3.39979E-13
 -1      4179 1.95805E+01 5.33925E-01 4.58692E-03-1.09325E-01-1.72934E-13-2.41858E-13
 -1      4180 1.97348E+01 3.94653E-01-3.69389E-04-1.11172E-01 7.03951E-15-3.22018E-13
 -1      4181 1.97723E+01 3.54477E-01-1.34077E-03-9.26712E-02 2.31314E-14-3.15214E-13
 -1      4182 1.96943E+01 4.38950E-01 3.51707E-03-7.75721E-02-1.01257E-13-1.94581E-13
 -1      4183 1.98121E+01 3.17532E-01-3.37675E-04-8.10667E-02 1.86220E-14-2.53217E-13
 -1      4184 1.98410E+01 2.82568E-01-1.00616E-03-6.68212E-02 1.59413E-14-1.46335E-13
 -1      4185 1.97824E+01 3.53942E-01 2.67130E-03-5.48086E-02 1.04690E-13-2.57383E-13
 -1      4186 1.98708E+01 2.50715E-01-2.88136E-04-5.84411E-02 2.96357E-14-5.31706E-14
 -1      4187 1.98925E+01 2.21125E-01-7.48631E-04-4.75144E-02 1.71274E-13-1.20692E-13
 -1      4188 1.98493E+01 2.80237E-01 2.00446E-03-3.84564E-02 1.39674E-13-4.68036E-13
 -1      4189 1.99144E+01 1.94399E-01-2.33083E-04-4.14835E-02 1.99569E-13-1.65084E-13
 -1      4190 1.99302E+01 1.69939E-01-5.50599E-04-3.31503E-02 2.55948E-13-2.30627E-13
 -1      4191 1.98991E+01 2.17994E-01 1.47941E-03-2.67022E-02 1.65023E-13-5.81601E-13
 -1      4192 1.99459E+01 1.48028E-01-1.78695E-04-2.88208E-02 2.97857E-13-3.25199E-13
 -1      4193 1.99571E+01 1.28197E-01-3.95062E-04-2.25092E-02 1.79690E-13-2.14959E-13
 -1      4194 1.99351E+01 1.66584E-01 1.05082E-03-1.82760E-02 2.30417E-13-6.33477E-13
 -1      4195 1.99680E+01 1.10483E-01-1.57546E-04-1.94657E-02-4.73662E-14-4.81272E-14
 -1      4196 1.99760E+01 9.49388E-02-9.35473E-05-1.46378E-02-1.38735E-13-4.81892E-14
 -1      4197 1.99604E+01 1.24670E-01 5.72160E-04-1.23204E-02 1.59233E-13-5.75710E-13
 -1      4198 1.99854E+01 7.45999E-02-1.91475E-04-1.19622E-02-2.58390E-13 7.62834E-16
 -1      4199 1.98904E+01 2.30884E-01-9.43136E-04 6.55633E-02-2.57595E-13-2.93604E-13
 -1      4200 1.98685E+01 2.62983E-01-2.54654E-04 7.80071E-02-1.26706E-13-3.52575E-13
 -1      4201 1.88092E+01 9.52966E-01-8.96847E-03 8.43266E-01-9.13411E-15-1.83749E-13
 -1      4202 1.86825E+01 8.69845E-01 5.02885E-03 9.89290E-01-5.61194E-15-1.92679E-13
 -1      4203 1.83297E+01 9.82189E-01 1.35738E-02 9.15771E-01 9.55854E-15-1.54301E-13
 -1      4204 1.73819E+01-2.63060E-01 2.03268E-02-2.60094E+00 6.74174E-14-2.77929E-13
 -1      4205 1.73185E+01 1.66514E-01-6.43777E-03-2.12692E+00 9.60835E-14-2.97070E-13
 -1      4206 1.99916E+01 6.04331E-02 5.45962E-05 8.00729E-03 9.35559E-15-5.35972E-13
 -1      4207 1.99919E+01 6.07035E-02-2.05065E-04 1.16213E-02-1.01128E-13-3.36061E-13
 -1      4208 1.99898E+01 6.91789E-02 1.19424E-04 1.48777E-02-6.16523E-15-3.88903E-13
 -1      4209 1.99885E+01 6.89334E-02 2.74324E-04 6.17331E-03 2.98046E-14-5.54854E-13
 -1      4210 1.98362E+01 2.97320E-01-1.19213E-03 8.69284E-02-3.47606E-14-4.21837E-13
 -1      4211 1.98056E+01 3.35949E-01-4.40618E-04 1.01844E-01-1.44907E-13-3.07173E-13
 -1      4212 1.98425E+01 2.95390E-01 2.42243E-03 5.83393E-02-6.53947E-14-2.96185E-13
 -1      4213 1.97623E+01 3.76910E-01-1.48523E-03 1.12278E-01-2.50249E-13-2.19088E-13
 -1      4214 1.97205E+01 4.22434E-01-7.16892E-04 1.29631E-01-1.39787E-13-7.20878E-14
 -1      4215 1.97710E+01 3.75029E-01 3.25315E-03 7.42409E-02-7.82824E-14-2.50356E-13
 -1      4216 1.99295E+01 1.76479E-01-7.35546E-04 4.80821E-02-1.24019E-13-2.54918E-13
 -1      4217 1.99141E+01 2.02656E-01-1.33469E-04 5.82002E-02-2.08199E-13-3.48855E-13
 -1      4218 1.98950E+01 2.28987E-01 1.78027E-03 4.44761E-02-1.81627E-13-2.51081E-13
 -1      4219 1.99570E+01 1.32709E-01-5.43889E-04 3.41386E-02 1.68378E-13-3.26613E-13
 -1      4220 1.99465E+01 1.53696E-01-5.59926E-05 4.21812E-02 1.11394E-14-4.13536E-13
 -1      4221 1.99329E+01 1.74667E-01 1.28240E-03 3.28906E-02-4.84964E-14-6.85116E-13
 -1      4222 1.99761E+01 9.80569E-02-2.96176E-04 2.34041E-02 1.39077E-13-3.16311E-13
 -1      4223 1.99689E+01 1.14394E-01-5.34168E-05 2.94075E-02 1.88054E-13-1.96738E-13
 -1      4224 1.99592E+01 1.30982E-01 8.35388E-04 2.34739E-02 1.52021E-13-5.20631E-13
 -1      4225 1.93402E+01 1.47558E+00 1.52799E-03-2.12415E-01 1.25767E-13-1.99463E-13
 -1      4226 1.94123E+01 1.61533E+00 1.09005E-03-5.26865E-02 1.14885E-13-2.46630E-13
 -1      4227 1.95701E+01 1.74561E+00-1.86991E-05 1.48240E-01 4.91041E-14-3.28682E-13
 -1      4228 1.93878E+01 1.61132E+00-7.57664E-03 2.85929E-02 7.34793E-14-2.70028E-13
 -1      4229 1.62597E+01-2.60819E-01 2.20585E-03-2.92738E+00 1.28646E-13-3.50124E-13
 -1      4230 1.79998E+01 1.17923E+00-7.47796E-03 2.95362E-01-2.77084E-14 3.02112E-14
 -1      4231 1.77103E+01 1.21816E+00-9.60869E-03 3.10109E-01 2.23664E-14 7.13133E-14
 -1      4232 1.93616E+01 6.95487E-01-2.70957E-03 2.06339E-01-1.65211E-13-1.39087E-13
 -1      4233 1.92623E+01 7.58693E-01-2.47018E-03 2.27801E-01 8.53815E-14-1.96909E-13
 -1      4234 1.95955E+01 1.51516E+00 1.63546E-03 3.19861E-01 1.46635E-14-2.83706E-13
 -1      4235 1.93965E+01 1.31568E+00-6.46372E-03 4.11641E-01 2.44291E-14-2.77636E-13
 -1      4236 1.93060E+01 1.21902E+00 1.05410E-03 5.17243E-01 3.51225E-15-2.42092E-13
 -1      4237 1.91258E+01 1.27687E+00 9.18369E-03 4.50771E-01 3.67349E-14-2.07131E-13
 -1      4238 1.91645E+01 1.40164E+00-7.70962E-03-2.70553E-01 1.08639E-13-2.05514E-13
 -1      4239 1.52612E+01 1.20355E+00-1.55297E-02 3.53136E-01 8.19900E-14 4.21076E-13
 -1      4240 1.69359E+01 5.23361E-01 6.09069E-03-1.81544E+00-2.23166E-14-4.58538E-13
 -1      4241 1.88550E+01 9.85152E-01 6.40834E-03 4.25866E-01 1.46718E-13 5.96991E-14
 -1      4242 1.71735E+01 4.36254E-01 5.70843E-03 1.88203E+00 1.10536E-13-1.33543E-13
 -1      4243 1.92568E+01 1.44162E+00 2.87150E-03 1.47603E-01 5.65985E-14-2.47202E-13
 -1      4244 1.94066E+01 1.54936E+00 4.14149E-03 2.23141E-01 4.63282E-14-2.86496E-13
 -1      4245 1.99808E+01 8.44876E-02 1.22013E-04-7.37650E-03-2.24586E-13-3.07340E-13
 -1      4246 1.89677E+01 1.34816E+00-2.58267E-03-2.89095E-01 8.58531E-14-1.75973E-13
 -1      4247 1.90974E+01 1.44733E+00 1.06103E-02-6.45687E-02 8.93797E-14-1.99076E-13
 -1      4248 1.91397E+01 8.22257E-01-3.32556E-03 2.38271E-01 2.21826E-13-1.20878E-13
 -1      4249 1.90095E+01 8.87440E-01-3.55576E-03 2.58857E-01 2.53456E-13-5.23183E-14
 -1      4250 1.91731E+01 8.23361E-01 9.84309E-03 1.34198E-01 1.63024E-13-1.26839E-13
 -1      4251 1.87749E+01 1.12916E+00 1.25050E-02 6.46310E-01 8.31073E-15-1.81541E-13
 -1      4252 1.65178E+01 1.26105E+00-1.59276E-02 2.91554E-01 1.60304E-13 2.77239E-13
 -1      4253 1.60160E+01 1.25263E+00-8.17166E-03 3.33934E-01 2.77348E-13 3.81385E-13
 -1      4254 1.60659E+01 7.12609E-01 8.41994E-03 1.44157E+00 7.31238E-14-1.73091E-13
 -1      4255 1.74988E+01 1.27544E+00 2.06686E-02 2.94435E-03 9.63528E-14 1.87133E-14
 -1      4256 1.73679E+01 1.25156E+00-9.70490E-03 2.98396E-01 8.02164E-14 1.86352E-13
 -1      4257 1.69993E+01 1.26780E+00-6.72720E-03 3.23223E-01 1.03875E-13 2.21040E-13
 -1      4258 1.95336E+01 1.53529E+00 1.79156E-03 2.71916E-01 2.71741E-14-3.06132E-13
 -1      4259 1.58562E+01 2.20638E-01 2.81351E-02-2.46699E+00 6.44901E-14-4.04565E-13
 -1      4260 1.55516E+01 1.27379E+00 2.79998E-02-1.90553E-01 1.80239E-13 2.84206E-13
 -1      4261 1.99853E+01 7.77857E-02-2.12409E-04 1.67835E-02 1.45198E-13-4.98073E-13
 -1      4262 1.99819E+01 8.77935E-02 4.11978E-05 2.07942E-02 1.61985E-13-4.23067E-13
 -1      4263 1.99752E+01 9.94286E-02 2.49983E-04 1.64785E-02 2.44394E-13-5.35962E-13
 -1      4264 1.99845E+01 7.84355E-02 1.07810E-05 1.22304E-02 2.24637E-14-5.23252E-13
 -1      4265 1.94575E+01 6.35533E-01-1.68271E-03 1.94201E-01-2.46226E-13-1.68834E-13
 -1      4266 1.93851E+01 6.94980E-01 7.49595E-03 1.24184E-01-1.21304E-13-1.77261E-13
 -1      4267 1.95327E+01 5.76977E-01-2.22732E-03 1.73209E-01-1.78032E-13-7.40719E-14
 -1      4268 1.84823E+01 1.07423E+00-5.47991E-03 2.85405E-01 1.16420E-13-9.25453E-14
 -1      4269 1.82602E+01 1.12947E+00-7.11411E-03 3.01050E-01 5.57565E-14-7.21843E-14
 -1      4270 1.81019E+01 1.19899E+00 2.19810E-02 7.89889E-02 1.49244E-13-1.89275E-13
 -1      4271 1.54987E+01 5.24547E-01-1.41338E-02-1.94763E+00 1.56420E-14-3.10850E-13
 -1      4272 1.87342E+01 1.30963E+00-9.90842E-03-3.34490E-01 8.85876E-14-1.88944E-13
 -1      4273 1.53343E+01 9.57580E-01 3.31070E-02-1.33636E+00 4.09390E-14-8.49386E-14
 -1      4274 1.62493E+01 6.75533E-01 3.97368E-03-1.65775E+00 2.78334E-15-2.77554E-13
 -1      4275 1.65995E+01 8.43515E-01-1.91755E-02-1.27515E+00 1.13891E-14-2.97918E-13
 -1      4276 1.53265E+01 1.09178E+00-1.43924E-02-7.13024E-01 9.89183E-14 1.31256E-13
 -1      4277 1.96634E+01 4.70234E-01-1.82696E-03 1.41323E-01-3.82920E-14-1.32063E-13
 -1      4278 1.96070E+01 5.22606E-01-1.11672E-03 1.60817E-01-5.92305E-14-6.10042E-14
 -1      4279 1.96754E+01 4.68529E-01 4.32445E-03 9.15179E-02-1.03168E-13-1.31292E-13
 -1      4280 1.81868E+01 1.26968E+00-1.22087E-02-3.67155E-01 5.77795E-14-1.71681E-13
 -1      4281 1.84895E+01 1.29096E+00-5.60379E-03-3.29513E-01 8.60930E-14-1.72445E-13
 -1      4282 1.86608E+01 1.35175E+00 1.50763E-02-4.35949E-02 7.72430E-14-1.75958E-13
 -1      4283 1.53759E+01 1.18157E+00 2.68162E-02-5.70756E-01-8.28504E-15-2.35300E-13
 -1      4284 1.58105E+01 1.10040E+00 4.99886E-03-9.32512E-01-3.76705E-14-2.20032E-13
 -1      4285 1.62142E+01 1.15189E+00-1.46998E-02-7.78584E-01-5.15300E-14-2.13371E-13
 -1      4286 1.78242E+01 1.26230E+00-9.29826E-03-3.62488E-01 6.42397E-14-1.54906E-13
 -1      4287 1.80674E+01 1.30596E+00 1.90180E-02 9.52220E-03 7.11495E-14-1.22406E-13
 -1      4288 1.56957E+01 1.13104E+00-5.97338E-03-8.50556E-03-1.19783E-15-2.01599E-13
 -1      4289 1.74231E+01 1.23785E+00-1.68673E-02-4.04234E-01 6.81610E-14-1.68897E-13
 -1      4290 1.90395E+01 1.34441E+00-1.02631E-02 1.66720E-01 5.76997E-14-2.24583E-13
 -1      4291 1.80513E+01 1.13957E+00-1.51983E-02 4.28823E-01 4.69095E-14-1.44813E-13
 -1      4292 1.84179E+01 1.18456E+00-4.40706E-03 3.71213E-01 3.00658E-14-1.50278E-13
 -1      4293 1.88529E+01 9.51392E-01-4.18308E-03 2.65786E-01 2.15810E-13-7.57724E-14
 -1      4294 1.86829E+01 1.01448E+00-5.05708E-03 2.84157E-01 1.31010E-13-9.05418E-14
 -1      4295 1.85528E+01 1.08437E+00 1.71299E-02 1.18676E-01 1.55635E-13-3.36266E-13
 -1      4296 1.88782E+01 1.28455E+00-3.23575E-03 2.37468E-01 4.64179E-14-1.97099E-13
 -1      4297 1.71278E+01 9.50576E-01 4.45960E-03-1.01202E+00 2.35362E-13-1.85446E-13
 -1      4298 1.73830E+01 1.02878E+00 3.73813E-03-8.30065E-01 3.25362E-13-1.02728E-13
 -1      4299 1.76885E+01 1.07518E+00-9.77263E-03-4.74652E-01 2.54895E-13-1.63240E-13
 -1      4300 1.79204E+01 1.07033E+00-1.77977E-02-3.50790E-01 2.56391E-13-8.96012E-14
 -1      4301 1.81884E+01 1.03780E+00-1.21632E-02-3.04358E-01 2.53143E-13-1.61169E-13
 -1      4302 1.83830E+01 1.01625E+00-1.38873E-02-2.14128E-01 1.92838E-13-2.32660E-13
 -1      4303 1.85920E+01 9.67610E-01-9.85012E-03-1.87018E-01 1.88010E-13-2.32353E-13
 -1      4304 1.87525E+01 9.29188E-01-1.02557E-02-1.23642E-01 2.27335E-13-2.51719E-13
 -1      4305 1.89155E+01 8.71718E-01-7.69801E-03-1.09636E-01 2.14868E-13-2.66037E-13
 -1      4306 1.90468E+01 8.23585E-01-7.52961E-03-6.55748E-02 2.33242E-14-1.93074E-13
 -1      4307 1.91738E+01 7.63012E-01-6.03031E-03-6.02063E-02-3.73191E-14-1.02339E-13
 -1      4308 1.92803E+01 7.11028E-01-5.53423E-03-2.97068E-02 3.91916E-14-8.53702E-14
 -1      4309 1.93790E+01 6.51551E-01-4.74190E-03-2.97819E-02-7.23362E-14-6.84308E-14
 -1      4310 1.94643E+01 5.99932E-01-4.06501E-03-8.72024E-03-1.33260E-13-9.81292E-14
 -1      4311 1.95404E+01 5.44368E-01-3.72604E-03-1.19383E-02-1.20088E-13-9.66604E-14
 -1      4312 1.96078E+01 4.95902E-01-2.97503E-03 2.59118E-03-1.81737E-13-1.06610E-13
 -1      4313 1.96660E+01 4.45928E-01-2.91233E-03-2.16782E-03-1.64367E-13-8.71877E-14
 -1      4314 1.97185E+01 4.02257E-01-2.16320E-03 7.85934E-03-4.85095E-14-1.00361E-13
 -1      4315 1.97624E+01 3.58665E-01-2.25613E-03 2.61567E-03-1.93105E-15-1.67023E-13
 -1      4316 1.98026E+01 3.20570E-01-1.55836E-03 9.54775E-03 6.14838E-14-2.55728E-13
 -1      4317 1.98352E+01 2.83508E-01-1.72717E-03 4.46684E-03 2.48376E-14-3.25207E-13
 -1      4318 1.98654E+01 2.51153E-01-1.10836E-03 9.27122E-03 5.33676E-14-3.48252E-13
 -1      4319 1.98892E+01 2.20339E-01-1.30122E-03 4.71163E-03 5.62806E-14-5.33882E-13
 -1      4320 1.99115E+01 1.93480E-01-7.70599E-04 8.04526E-03 8.83439E-14-5.99592E-13
 -1      4321 1.99285E+01 1.68376E-01-9.47699E-04 4.18428E-03 1.27993E-13-6.81795E-13
 -1      4322 1.99445E+01 1.46519E-01-4.92245E-04 6.50088E-03 1.71951E-13-7.36834E-13
 -1      4323 1.99564E+01 1.26667E-01-5.48163E-04 3.44973E-03 2.59264E-13-7.49313E-13
 -1      4324 1.99675E+01 1.09104E-01-2.36082E-04 4.75293E-03 1.76496E-13-7.38690E-13
 -1      4325 1.67347E+01 1.28359E+00 1.90253E-02-9.99406E-02 2.47435E-13 2.03570E-13
 -1      4326 1.64299E+01 8.72386E-01-1.66437E-02 1.10613E+00 5.51655E-14-1.36878E-13
 -1      4327 1.78002E+01 1.09318E+00-2.65449E-03 5.65169E-01 4.53971E-14-1.18601E-13
 -1      4328 1.86233E+01 1.22962E+00-1.28704E-02 2.73058E-01 3.19986E-14-1.76174E-13
 -1      4329 1.60835E+01 1.14826E+00-3.24295E-03-6.08704E-01 2.50973E-13 1.30238E-13
 -1      4330 1.99825E+01 7.87410E-02-1.92578E-04 3.94083E-03-2.38310E-14-5.21869E-13
 -1      4331 1.99825E+01 7.98461E-02-2.40840E-04 8.29386E-03 6.51501E-15-6.16687E-13
 -1      4332 1.73408E+01 1.03034E+00-1.94117E-02 6.98299E-01 2.99370E-14-1.02124E-13
 -1      4333 1.70482E+01 9.61515E-01 9.11271E-04 8.97928E-01 5.23131E-14-1.17605E-13
 -1      4334 1.61844E+01 1.17602E+00 1.56900E-02 4.00131E-01 2.60874E-14-1.77519E-13
 -1      4335 1.72577E+01 1.26870E+00 2.25524E-02 1.36388E-01 5.76631E-14-1.08162E-13
 -1      4336 1.69678E+01 1.22686E+00-9.26036E-03-3.43078E-01 4.20376E-14-1.69098E-13
 -1      4337 1.99794E+01 8.54069E-02-1.28076E-04-3.27584E-03-1.09103E-13-4.61087E-13
 -1      4338 1.99789E+01 9.01712E-02 1.92971E-04 1.00231E-02 1.27011E-13-6.77385E-13
 -1      4339 1.65762E+01 1.18966E+00-1.82313E-02-4.02762E-01 2.95011E-13 1.93032E-13
 -1      4340 1.65537E+01 1.09338E+00 1.05659E-02-8.56963E-01 2.26885E-13 6.86478E-14
 -1      4341 1.99729E+01 1.01872E-01 2.49146E-04 1.21044E-02 2.27504E-13-7.37719E-13
 -1      4342 1.73577E+01 1.08386E+00-1.31050E-02-5.56080E-01 2.00613E-13-7.09331E-14
 -1      4343 1.95493E+01 5.75666E-01 5.70574E-03 1.08881E-01-1.30361E-13-2.44550E-13
 -1      4344 1.89013E+01 9.55655E-01 1.29679E-02 1.34389E-01 1.91676E-13-3.91473E-13
 -1      4345 1.99730E+01 9.87980E-02-5.73994E-05-1.82599E-03 7.06232E-15-8.03395E-13
 -1      4346 1.65926E+01 1.19180E+00-8.28233E-03-4.20983E-01-2.00747E-14-1.70413E-13
 -1      4347 1.63065E+01 1.21736E+00-2.12031E-03-1.19690E-01 2.51535E-16-1.73343E-13
 -1      4348 1.70266E+01 1.18517E+00-1.53733E-02-3.43988E-01 1.83913E-13 1.07594E-13
 -3
    1PSTEP                         3           1           1          
  100CL  101 1.000000000        4348                     0    1           1
 -4  TOSTRAIN    6    1
 -5  EXX         1    4    1    1
 -5  EYY         1    4    2    2
 -5  EZZ         1    4    3    3
 -5  EXY         1    4    1    2
 -5  EYZ         1    4    2    3
 -5  EZX         1    4    3    1
 -1         1 3.68538E-05 2.90944E-05-2.84578E-05 6.08736E-05-2.07570E-17-2.01712E-17
 -1         2 3.64660E-05-1.11282E-04 2.01680E-05-3.89755E-07 5.44298E-19 9.38910E-19
 -1         3 9.52380E-05-2.85702E-05-2.85720E-05 1.68066E-09-2.26728E-18-3.73645E-18
 -1         4 9.52379E-05-2.85703E-05-2.85720E-05-1.40053E-09 1.42792E-18 1.25090E-18
 -1         5 1.41942E-04-2.11752E-05-4.23129E-05 3.80246E-05-2.82274E-19 2.02061E-17
 -1         6 1.43945E-04 2.56795E-10-4.39664E-05-5.27705E-05-1.16827E-18 1.58082E-17
 -1         7 9.08681E-05-5.70314E-07-3.90780E-05-2.84772E-05-1.77771E-19 1.81069E-18
 -1         8 8.56145E-05 5.50649E-08-3.64971E-05-1.92250E-05-1.83012E-19-2.20068E-18
 -1         9 8.33020E-05 5.73625E-08-3.55315E-05-1.44101E-05-1.62630E-19-4.27022E-18
 -1        10 8.20971E-05 3.05502E-08-3.50137E-05-1.07993E-05-8.06733E-20-5.21749E-18
 -1        11 8.13475E-05 1.78314E-08-3.47034E-05-7.82494E-06-6.84111E-20-5.55066E-18
 -1        12 8.08469E-05 1.30419E-08-3.45036E-05-5.30938E-06-6.57774E-21-5.61282E-18
 -1        13 8.05156E-05 1.24902E-08-3.43752E-05-3.03575E-06 7.15677E-21-5.48835E-18
 -1        14 8.03495E-05 1.28110E-08-3.43120E-05-9.33706E-07 4.29935E-20-5.29735E-18
 -1        15 8.03485E-05 1.29521E-08-3.43123E-05 1.10666E-06 9.05630E-20-5.07500E-18
 -1        16 8.05155E-05 1.27638E-08-3.43771E-05 3.19662E-06 1.04360E-19-4.76105E-18
 -1        17 8.08560E-05 1.23546E-08-3.45091E-05 5.45360E-06 1.34275E-19-4.34506E-18
 -1        18 8.13734E-05 1.62737E-08-3.47143E-05 7.95687E-06 1.54074E-19-3.61291E-18
 -1        19 8.21459E-05 2.81512E-08-3.50324E-05 1.09450E-05 2.26972E-19-2.47604E-18
 -1        20 8.33555E-05 6.07644E-08-3.55561E-05 1.45972E-05 2.53236E-19-6.71009E-19
 -1        21 8.56078E-05 1.32776E-07-3.65425E-05 1.93988E-05 2.60304E-19 2.48057E-18
 -1        22 9.18054E-05-1.53473E-07-3.87461E-05 2.72141E-05 1.69407E-20 8.34412E-18
 -1        23 1.12737E-04-3.80565E-05-3.53363E-05-4.19474E-06-8.10055E-19 1.17067E-17
 -1        24 9.35251E-05-2.79206E-05-2.91991E-05 4.14191E-07-1.68804E-19 8.31616E-18
 -1        25 9.06204E-05-2.73076E-05-2.73761E-05 3.84160E-07-1.34986E-19 4.95690E-18
 -1        26 9.03441E-05-2.71918E-05-2.70963E-05 2.15211E-07 7.07570E-20 2.71137E-18
 -1        27 9.13488E-05-2.74639E-05-2.73871E-05 1.57927E-07-2.02524E-19 1.44457E-18
 -1        28 9.30762E-05-2.79582E-05-2.79177E-05 1.29104E-07-1.00027E-20 4.64703E-19
 -1        29 9.52753E-05-2.86030E-05-2.85847E-05 1.16259E-07 1.46274E-19-4.24059E-19
 -1        30 9.77927E-05-2.93481E-05-2.93408E-05 1.12296E-07-1.12177E-19-1.55829E-18
 -1        31 1.00485E-04-3.01473E-05-3.01437E-05 1.12007E-07-6.36453E-20-2.61372E-18
 -1        32 1.03166E-04-3.09434E-05-3.09356E-05 1.09400E-07-1.01120E-19-3.35447E-18
 -1        33 1.05561E-04-3.16543E-05-3.16327E-05 9.60417E-08 3.76956E-19-3.40682E-18
 -1        34 1.07284E-04-3.21648E-05-3.21185E-05 6.06645E-08-1.08394E-19-3.23660E-18
 -1        35 1.07846E-04-3.23303E-05-3.22512E-05-8.62258E-09-1.24138E-19-4.01178E-18
 -1        36 1.06745E-04-3.20023E-05-3.18934E-05-1.17582E-07 1.21251E-19-3.96217E-18
 -1        37 1.03661E-04-3.10849E-05-3.09704E-05-2.54216E-07-1.74543E-19-4.11921E-18
 -1        38 9.87354E-05-2.96189E-05-2.95450E-05-3.78111E-07 1.48246E-19-4.87752E-18
 -1        39 9.28166E-05-2.78546E-05-2.78737E-05-4.24430E-07-4.33418E-20-3.74206E-18
 -1        40 8.74269E-05-2.62456E-05-2.63800E-05-3.38342E-07 1.03398E-21-4.24277E-18
 -1        41 8.42872E-05-2.53071E-05-2.55213E-05-1.21446E-07 1.47470E-19-5.31857E-18
 -1        42 8.45352E-05-2.53814E-05-2.55917E-05 1.47096E-07-4.00284E-19-6.37813E-18
 -1        43 8.81154E-05-2.64518E-05-2.65770E-05 3.54523E-07 1.49698E-19-6.49028E-18
 -1        44 9.38156E-05-2.81541E-05-2.81638E-05 4.27891E-07-1.80073E-20-5.48732E-18
 -1        45 9.99118E-05-2.99717E-05-2.98931E-05 3.72118E-07 5.21637E-20-4.16825E-18
 -1        46 1.04947E-04-3.14710E-05-3.13575E-05 2.46667E-07-1.60160E-19-4.47403E-18
 -1        47 1.08162E-04-3.24284E-05-3.23249E-05 1.14663E-07-5.40290E-20-3.60667E-18
 -1        48 1.09487E-04-3.28239E-05-3.27522E-05 1.35267E-08-2.30070E-19-3.13823E-18
 -1        49 1.09279E-04-3.27644E-05-3.27264E-05-4.69147E-08-9.25805E-20-4.26135E-18
 -1        50 1.08050E-04-3.24014E-05-3.23890E-05-7.31849E-08-1.53048E-19-5.08121E-18
 -1        51 1.06281E-04-3.18769E-05-3.18797E-05-7.69057E-08 5.10010E-19-4.82637E-18
 -1        52 1.04338E-04-3.12993E-05-3.13091E-05-6.85350E-08-6.80495E-19-4.45701E-18
 -1        53 1.02459E-04-3.07397E-05-3.07513E-05-5.53462E-08 7.24895E-19-4.48329E-18
 -1        54 1.00779E-04-3.02384E-05-3.02490E-05-4.15945E-08 8.21023E-20-5.57491E-18
 -1        55 9.93570E-05-2.98130E-05-2.98215E-05-2.93717E-08-3.18336E-19-7.92756E-18
 -1        56 9.82011E-05-2.94666E-05-2.94728E-05-1.94461E-08 3.96485E-19-8.03359E-18
 -1        57 9.72937E-05-2.91942E-05-2.91984E-05-1.18745E-08-2.54426E-19-7.97850E-18
 -1        58 9.66030E-05-2.89864E-05-2.89890E-05-6.38420E-09 2.01795E-19-7.63506E-18
 -1        59 9.60927E-05-2.88325E-05-2.88339E-05-2.58933E-09-4.47013E-19-7.72690E-18
 -1        60 9.57276E-05-2.87222E-05-2.87228E-05-1.00479E-10-1.74074E-20-5.82577E-18
 -1        61 9.54759E-05-2.86460E-05-2.86460E-05 1.42651E-09 3.93979E-19-2.84607E-18
 -1        62 9.53104E-05-2.85956E-05-2.85954E-05 2.27456E-09-8.26343E-19-2.20796E-18
 -1        63 9.52090E-05-2.85646E-05-2.85642E-05 2.66538E-09-4.82273E-19-3.07612E-18
 -1        64 9.51539E-05-2.85476E-05-2.85471E-05 2.76649E-09-1.78069E-19-5.92804E-18
 -1        65 9.51315E-05-2.85405E-05-2.85400E-05 2.70039E-09-3.42238E-19-3.38542E-18
 -1        66 9.51314E-05-2.85402E-05-2.85397E-05 2.55313E-09-3.51466E-19-4.17618E-18
 -1        67 9.51456E-05-2.85442E-05-2.85438E-05 2.38018E-09 7.96295E-19-2.04874E-18
 -1        68 9.51682E-05-2.85507E-05-2.85504E-05 2.20687E-09 2.03077E-19 9.50325E-19
 -1        69 9.51941E-05-2.85584E-05-2.85580E-05 2.00322E-09 9.88494E-20 1.99405E-18
 -1        70 9.52183E-05-2.85655E-05-2.85649E-05 1.53286E-09 3.90883E-20 1.22492E-18
 -1        71 9.52348E-05-2.85709E-05-2.85696E-05 6.03637E-10-3.71472E-19-6.18916E-20
 -1        72 1.01992E-04-3.05223E-05-3.40975E-05-1.96644E-06 1.91297E-19 1.91908E-17
 -1        73 9.32810E-05-2.77378E-05-2.91077E-05-3.39942E-07 1.30718E-19 1.57236E-17
 -1        74 9.06423E-05-2.71694E-05-2.74311E-05-1.20994E-07 1.25545E-19 1.30127E-17
 -1        75 9.04938E-05-2.71795E-05-2.71799E-05-8.57225E-08 2.68503E-21 1.15434E-17
 -1        76 9.16682E-05-2.75296E-05-2.75065E-05-6.62234E-08 2.18500E-20 1.02913E-17
 -1        77 9.36965E-05-2.81287E-05-2.81235E-05-5.57647E-08 1.00638E-19 9.15380E-18
 -1        78 9.64159E-05-2.89374E-05-2.89503E-05-5.38400E-08-6.11572E-20 8.89004E-18
 -1        79 9.97940E-05-2.99447E-05-2.99738E-05-6.16577E-08 2.42070E-20 8.19356E-18
 -1        80 1.03847E-04-3.11536E-05-3.11978E-05-8.24559E-08-3.72190E-21 7.29730E-18
 -1        81 1.08575E-04-3.25622E-05-3.26173E-05-1.20527E-07 1.00038E-19 6.94652E-18
 -1        82 1.13864E-04-3.41375E-05-3.41885E-05-1.78455E-07 1.47164E-19 6.22025E-18
 -1        83 1.19357E-04-3.57756E-05-3.57857E-05-2.50266E-07-5.57040E-20 5.39412E-18
 -1        84 1.24257E-04-3.72482E-05-3.71508E-05-3.07562E-07 9.64460E-20 6.32251E-18
 -1        85 1.27179E-04-3.81537E-05-3.78663E-05-2.82606E-07 2.07424E-19 6.14724E-18
 -1        86 1.26247E-04-3.79367E-05-3.74252E-05-7.31851E-08 1.94242E-19 4.51036E-18
 -1        87 1.19825E-04-3.60810E-05-3.54817E-05 3.87077E-07-5.45842E-19 5.65114E-18
 -1        88 1.08096E-04-3.25634E-05-3.22571E-05 9.59502E-07-1.06235E-20 6.72634E-18
 -1        89 9.46601E-05-2.84110E-05-2.87932E-05 1.23751E-06 4.24137E-19 3.69878E-18
 -1        90 8.58373E-05-2.55793E-05-2.66171E-05 8.37070E-07-2.38556E-19 1.72470E-18
 -1        91 8.67994E-05-2.57981E-05-2.68657E-05-1.11420E-07-3.36332E-20 3.30459E-18
 -1        92 9.70538E-05-2.89624E-05-2.94597E-05-9.11082E-07 1.28825E-19 3.62842E-18
 -1        93 1.10898E-04-3.32620E-05-3.30725E-05-1.10680E-06-1.69053E-19 6.74662E-19
 -1        94 1.22187E-04-3.67366E-05-3.61946E-05-8.11012E-07 2.46678E-19-1.53281E-18
 -1        95 1.27939E-04-3.84699E-05-3.79472E-05-3.80193E-07-3.01640E-19-1.47472E-18
 -1        96 1.28424E-04-3.85847E-05-3.82507E-05-5.23330E-08 1.61519E-19-2.29266E-19
 -1        97 1.25437E-04-3.76567E-05-3.75117E-05 1.20984E-07-1.93507E-19 1.58011E-19
 -1        98 1.20826E-04-3.62535E-05-3.62318E-05 1.80112E-07-3.83134E-20-5.29422E-19
 -1        99 1.15880E-04-3.47616E-05-3.47997E-05 1.77749E-07-2.72876E-20-1.60245E-18
 -1       100 1.11311E-04-3.33891E-05-3.34463E-05 1.50494E-07 1.82863E-19-5.33168E-20
 -1       101 1.07415E-04-3.22213E-05-3.22774E-05 1.17804E-07-3.85646E-19 1.48441E-18
 -1       102 1.04252E-04-3.12741E-05-3.13216E-05 8.80326E-08 2.69911E-19 2.68111E-18
 -1       103 1.01769E-04-3.05304E-05-3.05677E-05 6.37737E-08 2.01008E-19 1.83136E-18
 -1       104 9.98654E-05-2.99602E-05-2.99884E-05 4.50981E-08-3.48097E-19 2.27206E-18
 -1       105 9.84352E-05-2.95316E-05-2.95524E-05 3.11849E-08 4.24608E-19 2.86566E-18
 -1       106 9.73800E-05-2.92152E-05-2.92303E-05 2.10385E-08-6.62152E-19-2.79886E-19
 -1       107 9.66157E-05-2.89859E-05-2.89967E-05 1.37583E-08 8.96467E-20-1.29534E-18
 -1       108 9.60733E-05-2.88231E-05-2.88307E-05 8.61231E-09 7.58381E-20-3.21394E-18
 -1       109 9.56980E-05-2.87103E-05-2.87156E-05 5.03331E-09 6.22178E-19-3.83985E-18
 -1       110 9.54465E-05-2.86348E-05-2.86383E-05 2.59201E-09-6.49562E-19-1.17943E-18
 -1       111 9.52856E-05-2.85863E-05-2.85887E-05 9.66672E-10 6.73761E-19-9.32807E-19
 -1       112 9.51898E-05-2.85575E-05-2.85590E-05-8.30953E-11-7.16332E-19-5.21976E-19
 -1       113 9.51401E-05-2.85424E-05-2.85433E-05-7.36810E-10 1.53647E-19 1.36049E-18
 -1       114 9.51221E-05-2.85369E-05-2.85374E-05-1.12859E-09 1.08929E-19-2.41953E-18
 -1       115 9.51253E-05-2.85378E-05-2.85381E-05-1.35965E-09 2.12006E-19-4.45345E-18
 -1       116 9.51421E-05-2.85428E-05-2.85429E-05-1.50783E-09 2.16979E-19-5.09211E-18
 -1       117 9.51665E-05-2.85500E-05-2.85500E-05-1.62892E-09 6.11387E-19-6.23294E-18
 -1       118 9.51937E-05-2.85581E-05-2.85578E-05-1.74379E-09-5.06084E-19-4.54562E-18
 -1       119 9.52186E-05-2.85656E-05-2.85649E-05-1.75010E-09-2.28248E-19-4.46462E-18
 -1       120 9.52348E-05-2.85709E-05-2.85697E-05-9.61137E-10 8.05983E-19-4.41568E-18
 -1       121 9.52380E-05-2.85744E-05-2.85696E-05-8.19111E-10-1.13842E-18 1.54325E-18
 -1       122 9.52428E-05-2.85900E-05-2.85651E-05-1.50321E-09 3.85682E-18-1.52289E-18
 -1       123 9.52493E-05-2.86116E-05-2.85591E-05-1.50809E-09 1.84231E-18 7.33294E-19
 -1       124 9.52556E-05-2.86325E-05-2.85530E-05-1.18379E-09 4.24657E-19-2.91491E-20
 -1       125 9.52607E-05-2.86497E-05-2.85479E-05-8.02755E-10-2.03831E-18 1.57488E-19
 -1       126 9.52643E-05-2.86617E-05-2.85443E-05-4.90698E-10-2.41658E-18 2.73537E-19
 -1       127 9.52665E-05-2.86693E-05-2.85420E-05-2.41956E-10 1.39125E-21-4.69460E-19
 -1       128 9.52675E-05-2.86726E-05-2.85409E-05-5.65194E-11-3.76662E-18-6.38523E-19
 -1       129 9.52674E-05-2.86722E-05-2.85410E-05 1.01961E-10-8.10731E-19 2.12569E-18
 -1       130 9.52662E-05-2.86681E-05-2.85423E-05 2.76898E-10-3.28752E-18-4.45085E-19
 -1       131 9.52638E-05-2.86600E-05-2.85448E-05 5.16195E-10-6.62595E-18-1.09167E-18
 -1       132 9.52601E-05-2.86477E-05-2.85485E-05 8.02061E-10-8.25330E-18 3.11060E-18
 -1       133 9.52550E-05-2.86308E-05-2.85535E-05 1.15966E-09-2.04341E-18-5.94686E-19
 -1       134 9.52489E-05-2.86102E-05-2.85595E-05 1.53422E-09 2.35783E-19 1.73959E-19
 -1       135 9.52428E-05-2.85896E-05-2.85653E-05 2.03926E-09-1.04213E-18-1.26495E-18
 -1       136 9.52384E-05-2.85748E-05-2.85697E-05 7.29710E-10-1.95317E-18-3.66569E-19
 -1       137 2.66689E-05-9.07670E-05 1.63245E-05-2.46115E-05 1.07289E-17 2.06533E-18
 -1       138 8.45408E-06-3.87944E-05 4.42916E-06-2.12432E-05 2.17870E-17 1.07622E-17
 -1       139 9.57325E-06 1.14062E-05-1.34448E-05 1.81053E-05 2.20872E-17 1.59797E-17
 -1       140 5.93855E-05 2.55039E-05-3.53835E-05 7.71141E-05 1.64066E-17 1.92044E-17
 -1       141 1.55338E-04-7.52669E-06-5.67795E-05 1.13249E-04 9.87323E-18 1.76420E-17
 -1       142 2.55616E-04-6.12147E-05-7.22069E-05 9.39212E-05 3.82314E-18 1.16747E-17
 -1       143 3.14174E-04-9.59707E-05-8.00226E-05 2.23765E-05 4.13061E-19 9.69747E-19
 -1       144 2.97436E-04-8.59045E-05-7.77744E-05-5.93113E-05 1.86092E-18-1.06711E-17
 -1       145 2.11735E-04-3.58432E-05-6.59847E-05-1.11894E-04 8.33597E-18-1.88655E-17
 -1       146 1.00144E-04 1.57453E-05-4.59032E-05-1.00806E-04 1.36982E-17-2.05698E-17
 -1       147 2.65194E-05 2.26013E-05-2.31184E-05-4.52951E-05 1.66993E-17-1.45334E-17
 -1       148 5.37338E-06-1.63093E-05-2.31684E-06 8.33254E-06 1.47566E-17-8.95886E-18
 -1       149 1.95284E-05-7.34217E-05 1.26630E-05 2.71682E-05 8.29161E-18-2.42066E-18
 -1       150 3.51954E-05-1.09565E-04 1.99258E-05 1.11444E-05-3.76506E-19-9.87058E-20
 -1       151 3.15088E-05-1.00848E-04 1.82545E-05-1.74084E-05-9.97000E-18-1.81166E-18
 -1       152 1.27417E-05-5.12654E-05 7.60856E-06-2.27291E-05-1.81595E-17-7.09380E-18
 -1       153 6.03265E-06 3.76920E-06-9.06764E-06 8.09369E-06-2.30634E-17-1.50018E-17
 -1       154 1.05409E-04 1.47489E-05-4.71197E-05 1.03663E-04-1.44792E-17-2.03267E-17
 -1       155 1.95216E-04-2.80848E-05-6.32306E-05 1.12180E-04-7.47972E-18-1.70169E-17
 -1       156 2.73928E-04-7.41813E-05-7.43384E-05 7.44702E-05-2.31544E-18-9.99753E-18
 -1       157 3.07336E-04-9.52092E-05-7.85654E-05 1.05889E-06-9.67206E-20-3.99871E-19
 -1       158 2.75775E-04-7.55018E-05-7.45408E-05-7.29468E-05-2.52270E-18 1.00742E-17
 -1       159 1.98137E-04-2.98308E-05-6.36394E-05-1.11369E-04-7.35786E-18 1.74315E-17
 -1       160 1.08078E-04 1.35205E-05-4.76713E-05-1.04221E-04-1.25289E-17 1.89439E-17
 -1       161 3.85325E-05 2.87019E-05-2.89304E-05-6.20511E-05-1.75175E-17 1.71431E-17
 -1       162 7.07821E-06 6.82022E-06-1.05176E-05-1.18050E-05-1.83294E-17 1.23779E-17
 -1       163 9.85283E-06-4.12371E-05 5.18366E-06 2.06004E-05-1.63393E-17 7.10047E-18
 -1       164 2.70426E-05-8.95042E-05 1.59582E-05 2.17708E-05-1.11268E-17 2.91223E-18
 -1       165 9.55268E-05-1.26744E-05-3.57025E-05-2.12493E-05-2.49142E-18-1.57680E-19
 -1       166 8.99236E-05-8.66338E-06-3.49816E-05-1.61428E-05-2.07262E-18-2.59964E-18
 -1       167 8.69918E-05-6.52824E-06-3.45927E-05-1.22654E-05-1.53333E-18-3.92704E-18
 -1       168 8.52818E-05-5.33100E-06-3.43453E-05-9.10000E-06-1.01721E-18-4.50447E-18
 -1       169 8.41645E-05-4.56551E-06-3.41787E-05-6.44124E-06-5.36612E-19-4.67254E-18
 -1       170 8.33997E-05-4.05078E-06-3.40634E-05-4.07675E-06-8.11869E-20-4.68046E-18
 -1       171 8.29465E-05-3.74823E-06-3.39946E-05-1.93481E-06 3.49054E-19-4.50324E-18
 -1       172 8.27890E-05-3.64032E-06-3.39720E-05 9.28106E-08 7.69384E-19-4.36427E-18
 -1       173 8.29300E-05-3.72685E-06-3.39967E-05 2.11222E-06 1.15110E-18-4.11240E-18
 -1       174 8.33805E-05-4.01934E-06-3.40686E-05 4.23314E-06 1.52879E-18-3.83531E-18
 -1       175 8.41480E-05-4.53250E-06-3.41861E-05 6.53084E-06 1.87501E-18-3.24876E-18
 -1       176 8.53264E-05-5.34437E-06-3.43591E-05 9.21472E-06 2.31649E-18-2.41572E-18
 -1       177 8.71043E-05-6.60707E-06-3.46109E-05 1.24142E-05 2.64200E-18-1.09941E-18
 -1       178 9.00974E-05-8.80429E-06-3.50003E-05 1.63198E-05 2.78511E-18 1.06565E-18
 -1       179 9.64313E-05-1.39225E-05-3.55636E-05 2.07780E-05 2.38436E-18 4.77920E-18
 -1       180 1.05925E-04-2.62968E-05-3.53003E-05 1.78432E-05 1.59509E-18 9.44833E-18
 -1       181 1.04005E-04-2.75423E-05-3.27661E-05-1.13147E-05-2.22807E-18 3.02068E-18
 -1       182 9.82499E-05-2.86339E-05-2.98678E-05-3.93252E-06-1.85454E-18 2.00280E-18
 -1       183 9.52813E-05-2.81385E-05-2.87255E-05-9.01062E-07-1.37388E-18 1.27140E-18
 -1       184 9.44863E-05-2.81089E-05-2.84102E-05 6.05395E-07-9.05434E-19 3.41341E-19
 -1       185 9.47960E-05-2.82862E-05-2.84840E-05 1.48659E-06-6.71801E-19-1.66430E-19
 -1       186 9.58097E-05-2.86365E-05-2.87782E-05 2.06077E-06-7.28639E-19-6.52168E-19
 -1       187 9.72843E-05-2.91150E-05-2.92105E-05 2.44233E-06-6.39899E-19-1.26080E-18
 -1       188 9.90498E-05-2.96860E-05-2.97262E-05 2.65589E-06-3.46777E-19-1.10642E-18
 -1       189 1.00951E-04-3.03152E-05-3.02748E-05 2.66902E-06-2.71778E-19-1.08697E-18
 -1       190 1.02810E-04-3.09595E-05-3.07989E-05 2.40634E-06-2.05056E-19-9.98130E-19
 -1       191 1.04402E-04-3.15555E-05-3.12288E-05 1.76720E-06-1.49713E-19-1.80069E-18
 -1       192 1.05445E-04-3.20089E-05-3.14840E-05 6.62985E-07-2.53078E-19-1.74776E-18
 -1       193 1.05632E-04-3.21914E-05-3.14855E-05-9.13547E-07-1.82203E-19-1.57468E-18
 -1       194 1.04693E-04-3.19561E-05-3.11810E-05-2.79107E-06-3.24341E-19-1.80373E-18
 -1       195 1.02539E-04-3.11930E-05-3.05794E-05-4.53833E-06-3.14047E-19-1.36929E-18
 -1       196 9.94223E-05-2.99301E-05-2.97784E-05-5.49638E-06 7.76489E-19-9.65429E-19
 -1       197 9.60464E-05-2.84397E-05-2.89653E-05-5.02574E-06 8.63924E-20-8.65400E-19
 -1       198 9.34404E-05-2.72200E-05-2.83688E-05-2.93139E-06-8.02785E-19-1.23528E-18
 -1       199 9.25586E-05-2.67870E-05-2.81761E-05 2.43298E-07-1.23602E-18-2.32484E-18
 -1       200 9.37702E-05-2.73481E-05-2.84556E-05 3.36445E-06-1.71259E-19-2.63543E-18
 -1       201 9.66430E-05-2.86588E-05-2.91278E-05 5.33771E-06 3.65397E-19-2.92362E-18
 -1       202 1.00202E-04-3.01941E-05-2.99998E-05 5.68378E-06 2.91905E-19-2.86384E-18
 -1       203 1.03441E-04-3.14690E-05-3.08476E-05 4.66523E-06 4.00761E-19-2.47065E-18
 -1       204 1.05712E-04-3.22444E-05-3.14940E-05 2.94111E-06 7.58268E-19-1.53890E-18
 -1       205 1.06809E-04-3.25131E-05-3.18519E-05 1.15155E-06 1.75935E-19-1.26758E-18
 -1       206 1.06851E-04-3.23936E-05-3.19209E-05-3.03078E-07-7.49656E-19-1.63551E-18
 -1       207 1.06113E-04-3.20324E-05-3.17572E-05-1.27833E-06-5.79010E-19-1.73157E-18
 -1       208 1.04897E-04-3.15536E-05-3.14383E-05-1.80059E-06 8.31312E-20-1.53016E-18
 -1       209 1.03462E-04-3.10440E-05-3.10388E-05-1.97327E-06 1.81633E-19-1.16622E-18
 -1       210 1.01997E-04-3.05575E-05-3.06175E-05-1.91336E-06-5.57701E-19-1.36305E-18
 -1       211 1.00626E-04-3.01226E-05-3.02144E-05-1.72044E-06-5.97565E-19-2.15000E-18
 -1       212 9.94133E-05-2.97516E-05-2.98529E-05-1.46736E-06-1.16535E-18-2.80233E-18
 -1       213 9.83874E-05-2.94461E-05-2.95438E-05-1.20186E-06-2.16319E-19-2.79517E-18
 -1       214 9.75490E-05-2.92020E-05-2.92891E-05-9.51935E-07 2.54244E-19-3.46092E-18
 -1       215 9.68841E-05-2.90120E-05-2.90857E-05-7.31775E-07-1.01043E-19-3.55535E-18
 -1       216 9.63711E-05-2.88679E-05-2.89279E-05-5.46599E-07 6.05990E-19-4.09266E-18
 -1       217 9.59857E-05-2.87613E-05-2.88087E-05-3.96263E-07 2.02026E-19-3.52205E-18
 -1       218 9.57041E-05-2.86847E-05-2.87212E-05-2.77721E-07 1.34148E-18-2.09502E-18
 -1       219 9.55047E-05-2.86315E-05-2.86589E-05-1.86620E-07-2.78110E-19-2.34747E-18
 -1       220 9.53690E-05-2.85961E-05-2.86161E-05-1.18270E-07-1.21065E-19-1.70115E-18
 -1       221 9.52813E-05-2.85739E-05-2.85882E-05-6.82061E-08-8.17459E-19-8.58454E-19
 -1       222 9.52290E-05-2.85614E-05-2.85714E-05-3.24797E-08 1.02583E-18-3.91386E-19
 -1       223 9.52022E-05-2.85558E-05-2.85624E-05-7.79118E-09 6.69600E-20 1.63656E-18
 -1       224 9.51931E-05-2.85549E-05-2.85590E-05 8.46195E-09 1.53237E-18 1.98301E-18
 -1       225 9.51956E-05-2.85571E-05-2.85592E-05 1.81700E-08 1.67717E-18 1.25371E-18
 -1       226 9.52048E-05-2.85611E-05-2.85615E-05 2.24868E-08 4.77093E-19 3.39940E-19
 -1       227 9.52168E-05-2.85662E-05-2.85645E-05 2.17409E-08 1.67631E-19 5.01151E-19
 -1       228 9.52286E-05-2.85716E-05-2.85673E-05 1.56898E-08-5.78502E-19 3.00462E-19
 -1       229 1.00319E-04-2.88183E-05-3.08182E-05 6.48952E-06 1.78862E-18 8.27164E-18
 -1       230 9.58981E-05-2.82207E-05-2.89723E-05 2.00184E-06 1.38571E-18 6.89765E-18
 -1       231 9.43653E-05-2.80411E-05-2.83778E-05 4.92457E-08 8.30106E-19 5.74389E-18
 -1       232 9.43987E-05-2.81498E-05-2.83636E-05-1.05347E-06 7.68515E-19 5.07707E-18
 -1       233 9.54416E-05-2.84960E-05-2.86754E-05-1.82030E-06 6.73604E-19 4.40458E-18
 -1       234 9.72312E-05-2.90403E-05-2.92160E-05-2.45774E-06 6.84111E-20 3.89654E-18
 -1       235 9.96471E-05-2.97612E-05-2.99464E-05-3.05932E-06 3.94386E-19 3.72596E-18
 -1       236 1.02632E-04-3.06527E-05-3.08469E-05-3.65458E-06 4.86433E-19 3.35917E-18
 -1       237 1.06134E-04-3.17145E-05-3.18963E-05-4.21098E-06 3.14935E-19 2.73781E-18
 -1       238 1.10044E-04-3.29385E-05-3.30510E-05-4.61073E-06 2.81076E-19 2.82032E-18
 -1       239 1.14118E-04-3.42882E-05-3.42203E-05-4.61470E-06 3.78795E-19 3.21817E-18
 -1       240 1.17889E-04-3.56642E-05-3.52431E-05-3.83999E-06-2.22197E-19 3.21424E-18
 -1       241 1.20597E-04-3.68459E-05-3.58833E-05-1.82104E-06 1.00929E-19 3.38284E-18
 -1       242 1.21221E-04-3.74241E-05-3.58823E-05 1.70501E-06 3.63993E-19 3.58383E-18
 -1       243 1.18805E-04-3.68187E-05-3.50974E-05 6.23795E-06-6.77653E-19 3.68463E-18
 -1       244 1.13182E-04-3.45634E-05-3.36873E-05 9.88619E-06 6.69520E-20 3.71580E-18
 -1       245 1.06034E-04-3.11498E-05-3.21654E-05 9.81169E-06 1.85627E-18 3.14955E-18
 -1       246 1.00809E-04-2.83057E-05-3.12012E-05 4.57335E-06 8.57621E-19 2.54400E-18
 -1       247 1.00882E-04-2.82053E-05-3.12544E-05-3.53920E-06-2.00740E-19 1.56677E-18
 -1       248 1.06282E-04-3.09392E-05-3.23299E-05-9.51042E-06 3.60790E-19 1.29967E-20
 -1       249 1.13728E-04-3.45138E-05-3.39222E-05-1.03876E-05 9.78707E-19-5.06711E-19
 -1       250 1.19627E-04-3.69820E-05-3.53744E-05-7.16910E-06 1.32178E-18-1.40352E-18
 -1       251 1.22300E-04-3.77714E-05-3.62021E-05-2.66322E-06-3.29615E-19-2.36655E-18
 -1       252 1.21927E-04-3.73048E-05-3.62663E-05 1.03492E-06-3.90787E-19-2.12700E-18
 -1       253 1.19508E-04-3.62026E-05-3.57143E-05 3.23092E-06-4.97753E-19-1.32599E-18
 -1       254 1.16078E-04-3.49072E-05-3.48007E-05 4.11431E-06-3.55476E-19-4.79722E-19
 -1       255 1.12398E-04-3.36554E-05-3.37559E-05 4.14444E-06-1.37779E-19 4.51346E-19
 -1       256 1.08924E-04-3.25496E-05-3.27362E-05 3.73061E-06-1.18971E-18 1.49404E-18
 -1       257 1.05879E-04-3.16211E-05-3.18252E-05 3.14622E-06-5.38394E-19 5.82792E-19
 -1       258 1.03333E-04-3.08665E-05-3.10554E-05 2.54448E-06-2.68139E-19-8.04049E-20
 -1       259 1.01275E-04-3.02678E-05-3.04291E-05 1.99835E-06 5.27038E-20 1.49348E-18
 -1       260 9.96535E-05-2.98019E-05-2.99335E-05 1.53461E-06 3.14076E-19 8.40276E-19
 -1       261 9.84010E-05-2.94453E-05-2.95496E-05 1.15633E-06 1.30817E-19 3.37250E-19
 -1       262 9.74512E-05-2.91769E-05-2.92579E-05 8.55933E-07 6.57427E-19 1.24007E-18
 -1       263 9.67435E-05-2.89783E-05-2.90401E-05 6.22052E-07 9.92349E-19-6.57096E-19
 -1       264 9.62256E-05-2.88339E-05-2.88805E-05 4.42860E-07 4.82092E-19-1.38709E-18
 -1       265 9.58544E-05-2.87311E-05-2.87658E-05 3.07539E-07-9.82203E-19-9.85447E-19
 -1       266 9.55948E-05-2.86599E-05-2.86853E-05 2.06777E-07-1.29607E-18-1.11634E-20
 -1       267 9.54188E-05-2.86123E-05-2.86306E-05 1.32843E-07 5.53639E-19 8.35568E-19
 -1       268 9.53047E-05-2.85819E-05-2.85949E-05 7.94602E-08-1.47733E-18 2.75601E-18
 -1       269 9.52356E-05-2.85641E-05-2.85730E-05 4.16281E-08 1.17793E-18 7.57869E-19
 -1       270 9.51985E-05-2.85551E-05-2.85611E-05 1.54380E-08 7.24910E-19 8.51170E-19
 -1       271 9.51836E-05-2.85522E-05-2.85561E-05-2.09277E-09 1.34967E-18-1.82756E-19
 -1       272 9.51836E-05-2.85533E-05-2.85557E-05-1.31478E-08 5.84873E-19-1.10809E-18
 -1       273 9.51926E-05-2.85570E-05-2.85580E-05-1.91743E-08 6.17566E-19-1.03095E-19
 -1       274 9.52063E-05-2.85620E-05-2.85617E-05-2.08754E-08-5.82644E-19-1.41874E-18
 -1       275 9.52204E-05-2.85674E-05-2.85655E-05-1.81703E-08 1.58029E-19-1.61499E-18
 -1       276 9.52321E-05-2.85725E-05-2.85683E-05-1.05176E-08-4.93749E-20 3.60296E-19
 -1       277 9.52374E-05-2.85808E-05-2.85671E-05-1.57142E-08-1.57243E-19 4.30527E-18
 -1       278 9.52431E-05-2.85926E-05-2.85645E-05-2.02925E-08 2.87870E-18-2.06168E-18
 -1       279 9.52480E-05-2.86046E-05-2.85614E-05-1.96279E-08 1.18487E-18-2.09550E-19
 -1       280 9.52516E-05-2.86151E-05-2.85585E-05-1.60614E-08 1.22725E-18-8.62589E-19
 -1       281 9.52541E-05-2.86230E-05-2.85562E-05-1.15473E-08 6.91320E-19-1.29934E-18
 -1       282 9.52555E-05-2.86283E-05-2.85545E-05-7.06222E-09-1.71839E-19 8.47764E-19
 -1       283 9.52562E-05-2.86311E-05-2.85536E-05-3.09998E-09 3.49765E-19-1.52299E-18
 -1       284 9.52563E-05-2.86318E-05-2.85533E-05 4.20455E-10 1.21927E-18 1.41864E-18
 -1       285 9.52560E-05-2.86306E-05-2.85537E-05 3.86036E-09-3.27535E-19-2.63398E-18
 -1       286 9.52551E-05-2.86273E-05-2.85548E-05 7.60010E-09-1.94203E-18-1.46148E-18
 -1       287 9.52536E-05-2.86218E-05-2.85565E-05 1.16984E-08-1.62367E-18-4.57261E-19
 -1       288 9.52511E-05-2.86138E-05-2.85589E-05 1.59319E-08-6.11028E-19 3.02040E-18
 -1       289 9.52476E-05-2.86035E-05-2.85618E-05 1.92417E-08-1.09824E-18 2.07808E-18
 -1       290 9.52426E-05-2.85916E-05-2.85647E-05 1.92963E-08-5.15227E-19-6.55709E-19
 -1       291 9.52369E-05-2.85811E-05-2.85668E-05 2.06439E-08-7.18848E-19-1.45685E-18
 -1       292 1.20476E-05-4.72888E-05 1.18979E-05 5.61057E-06 1.82297E-18 5.53832E-18
 -1       293 2.56553E-05-4.38427E-05 5.00575E-06 1.99502E-05 5.57686E-18 8.74382E-18
 -1       294 5.08555E-05-3.79108E-05-7.62093E-06 3.16552E-05 8.76827E-18 6.19885E-18
 -1       295 8.96492E-05-3.25148E-05-2.50710E-05 4.30373E-05 8.75705E-18 6.77902E-18
 -1       296 1.40292E-04-3.60635E-05-4.37355E-05 4.08385E-05 7.07887E-18 5.77676E-18
 -1       297 1.81618E-04-3.52439E-05-6.00774E-05 3.66872E-05 6.21207E-18 5.51969E-18
 -1       298 2.03502E-04-3.42569E-05-6.93902E-05 1.43345E-05 5.71832E-18 2.85461E-18
 -1       299 2.08515E-04-3.36578E-05-7.16001E-05-4.78431E-06 5.98333E-18-2.22346E-19
 -1       300 2.00382E-04-3.66610E-05-6.66698E-05-2.82085E-05 5.36278E-18-4.15936E-18
 -1       301 1.61102E-04-3.30461E-05-5.28195E-05-4.38316E-05 6.21966E-18-6.69262E-18
 -1       302 1.15712E-04-3.66242E-05-3.37907E-05-4.29637E-05 4.54772E-18-7.23557E-18
 -1       303 7.37830E-05-4.04549E-05-1.53533E-05-3.97535E-05 3.43917E-18-5.47427E-18
 -1       304 3.52649E-05-4.20933E-05 5.07097E-07-2.62001E-05 2.34310E-18-5.69047E-18
 -1       305 1.55555E-05-4.47880E-05 9.69898E-06-1.26886E-05 2.13452E-19-4.28609E-18
 -1       306 1.07200E-05-4.77703E-05 1.26592E-05 3.55889E-06-2.27182E-18-4.54814E-18
 -1       307 2.10552E-05-4.35080E-05 7.00711E-06 2.02810E-05-4.83126E-18-6.09493E-18
 -1       308 4.27622E-05-3.78328E-05-4.24426E-06 3.07533E-05-7.77619E-18-8.07487E-18
 -1       309 7.60227E-05-3.10559E-05-2.00614E-05 4.24474E-05-8.94488E-18-7.91362E-18
 -1       310 1.15567E-04-2.85254E-05-3.66706E-05 4.81922E-05-9.44336E-18-7.71118E-18
 -1       311 1.55267E-04-2.98387E-05-5.18193E-05 4.54796E-05-7.96349E-18-7.16929E-18
 -1       312 1.88994E-04-3.34040E-05-6.37076E-05 3.33734E-05-5.81483E-18-4.70315E-18
 -1       313 2.05209E-04-3.40848E-05-7.00413E-05 1.11968E-05-4.79272E-18-2.02012E-18
 -1       314 2.09303E-04-3.63558E-05-7.05588E-05-1.15227E-05-4.84206E-18 5.11661E-19
 -1       315 1.89943E-04-3.34529E-05-6.40252E-05-3.22061E-05-5.54907E-18 2.90066E-18
 -1       316 1.56336E-04-2.99128E-05-5.22498E-05-4.49693E-05-5.48099E-18 5.75707E-18
 -1       317 1.18322E-04-3.05938E-05-3.70198E-05-4.63180E-05-5.90467E-18 5.58639E-18
 -1       318 7.76404E-05-3.04737E-05-2.09232E-05-4.29674E-05-6.70681E-18 6.84064E-18
 -1       319 4.61135E-05-3.66519E-05-6.02508E-06-3.25574E-05-5.39433E-18 5.45971E-18
 -1       320 2.42044E-05-4.35358E-05 5.46307E-06-2.04374E-05-4.02828E-18 4.88076E-18
 -1       321 1.19746E-05-4.62769E-05 1.15818E-05-8.79155E-06-1.63647E-18 5.87184E-18
 -1       322 9.22549E-05-1.44523E-05-3.34075E-05-1.15775E-05-2.10005E-18-2.31607E-18
 -1       323 9.65503E-05-1.93866E-05-3.31307E-05-1.33171E-05-2.54287E-18-8.23342E-19
 -1       324 8.77033E-05-9.78229E-06-3.34456E-05-6.77536E-06-9.87141E-19-3.48797E-18
 -1       325 8.64068E-05-8.53962E-06-3.34158E-05-4.59633E-06-4.14837E-19-3.64448E-18
 -1       326 8.55663E-05-7.75675E-06-3.33869E-05-2.61493E-06 1.82703E-19-3.48020E-18
 -1       327 8.51396E-05-7.36351E-06-3.33705E-05-7.70388E-07 7.53575E-19-3.40893E-18
 -1       328 8.51230E-05-7.34216E-06-3.33725E-05 1.01648E-06 1.16720E-18-3.18412E-18
 -1       329 8.55279E-05-7.70382E-06-3.33931E-05 2.83335E-06 1.59597E-18-3.07399E-18
 -1       330 8.63577E-05-8.46732E-06-3.34260E-05 4.73535E-06 2.01264E-18-2.62170E-18
 -1       331 8.76904E-05-9.73853E-06-3.34603E-05 6.86036E-06 2.50591E-18-1.90906E-18
 -1       332 8.96440E-05-1.16934E-05-3.34722E-05 9.19986E-06 2.86872E-18-1.05257E-18
 -1       333 9.25343E-05-1.47407E-05-3.34190E-05 1.16020E-05 3.03368E-18 3.92520E-19
 -1       334 9.66761E-05-1.97137E-05-3.30882E-05 1.30023E-05 2.84322E-18 2.70147E-18
 -1       335 9.96841E-05-2.47444E-05-3.22001E-05 1.07764E-05 2.40077E-18 4.91878E-18
 -1       336 9.77336E-05-2.71521E-05-3.02170E-05 4.50271E-06 2.06890E-18 4.06363E-18
 -1       337 9.76890E-05-2.63050E-05-3.05480E-05-4.92462E-06-1.93099E-18-3.65703E-19
 -1       338 9.66365E-05-2.73649E-05-2.96608E-05-1.16618E-06-1.49983E-18-3.90257E-19
 -1       339 9.62419E-05-2.78774E-05-2.92827E-05 1.08345E-06-1.09199E-18-4.57950E-19
 -1       340 9.64377E-05-2.82717E-05-2.92053E-05 2.54551E-06-9.44240E-19-7.12232E-19
 -1       341 9.71062E-05-2.86881E-05-2.93175E-05 3.53168E-06-8.62225E-19-6.79138E-19
 -1       342 9.81356E-05-2.91833E-05-2.95491E-05 4.17140E-06-4.52679E-19-8.09462E-19
 -1       343 9.94330E-05-2.97892E-05-2.98480E-05 4.48111E-06-3.48281E-19-9.88022E-19
 -1       344 1.00912E-04-3.05262E-05-3.01690E-05 4.39528E-06-2.53741E-19-1.15540E-18
 -1       345 1.02472E-04-3.13934E-05-3.04696E-05 3.78931E-06-3.59458E-19-1.26439E-18
 -1       346 1.03976E-04-3.23414E-05-3.07116E-05 2.51646E-06-4.56753E-20-1.02772E-18
 -1       347 1.05220E-04-3.32301E-05-3.08667E-05 4.80676E-07-3.57243E-20-8.12361E-19
 -1       348 1.05919E-04-3.37903E-05-3.09262E-05-2.23948E-06-1.73115E-19-4.31079E-19
 -1       349 1.05736E-04-3.36400E-05-3.09085E-05-5.23286E-06-5.35542E-20 9.70829E-20
 -1       350 1.04432E-04-3.24382E-05-3.08576E-05-7.65387E-06 5.52902E-19 1.61107E-19
 -1       351 1.02129E-04-3.02030E-05-3.08177E-05-8.36349E-06-5.94899E-20-3.88725E-20
 -1       352 9.95703E-05-2.76380E-05-3.08128E-05-6.50051E-06-8.13280E-19-1.38351E-18
 -1       353 9.78974E-05-2.59098E-05-3.08331E-05-2.21774E-06-9.87245E-19-1.30035E-18
 -1       354 9.80506E-05-2.60236E-05-3.08510E-05 3.00369E-06-8.32835E-19-1.11811E-18
 -1       355 9.99474E-05-2.78820E-05-3.08725E-05 7.12564E-06-4.20284E-19-1.28167E-18
 -1       356 1.02654E-04-3.05020E-05-3.09170E-05 8.77235E-06 3.23642E-19-2.03026E-18
 -1       357 1.05001E-04-3.26717E-05-3.10010E-05 7.90911E-06 8.63368E-19-1.40105E-18
 -1       358 1.06336E-04-3.37909E-05-3.11008E-05 5.47458E-06 5.28320E-19-1.28577E-18
 -1       359 1.06588E-04-3.38943E-05-3.11678E-05 2.58462E-06 6.12430E-19-2.03779E-18
 -1       360 1.06015E-04-3.33386E-05-3.11598E-05 3.55346E-08 3.50902E-19-2.10593E-18
 -1       361 1.04948E-04-3.24986E-05-3.10597E-05-1.80952E-06-3.79054E-19-1.42830E-18
 -1       362 1.03657E-04-3.16304E-05-3.08750E-05-2.90879E-06 2.64677E-19-5.45111E-19
 -1       363 1.02324E-04-3.08633E-05-3.06290E-05-3.38726E-06-5.25588E-20-8.70966E-19
 -1       364 1.01055E-04-3.02401E-05-3.03500E-05-3.42185E-06-4.38681E-19-1.36914E-18
 -1       365 9.99098E-05-2.97582E-05-3.00639E-05-3.17892E-06-8.52123E-19-1.27312E-18
 -1       366 9.89127E-05-2.93971E-05-2.97904E-05-2.78944E-06-4.38234E-19-1.17355E-18
 -1       367 9.80702E-05-2.91322E-05-2.95425E-05-2.34540E-06-4.05243E-19-1.61524E-20
 -1       368 9.73759E-05-2.89412E-05-2.93268E-05-1.90537E-06-6.57038E-19 2.37564E-19
 -1       369 9.68167E-05-2.88056E-05-2.91455E-05-1.50267E-06-4.39920E-19-7.18031E-20
 -1       370 9.63759E-05-2.87110E-05-2.89974E-05-1.15318E-06 5.18768E-20-5.90021E-19
 -1       371 9.60358E-05-2.86466E-05-2.88795E-05-8.61497E-07 4.36377E-19-7.50271E-19
 -1       372 9.57790E-05-2.86039E-05-2.87881E-05-6.25542E-07 1.27239E-18-4.24345E-19
 -1       373 9.55898E-05-2.85768E-05-2.87189E-05-4.39663E-07 1.66853E-18 4.67996E-19
 -1       374 9.54540E-05-2.85608E-05-2.86677E-05-2.96694E-07 6.04775E-19 1.69218E-18
 -1       375 9.53597E-05-2.85525E-05-2.86311E-05-1.89218E-07-4.43961E-19 1.33523E-18
 -1       376 9.52970E-05-2.85494E-05-2.86057E-05-1.10302E-07 4.80497E-19 1.61988E-18
 -1       377 9.52578E-05-2.85497E-05-2.85889E-05-5.38887E-08 2.49740E-18 1.96512E-18
 -1       378 9.52357E-05-2.85524E-05-2.85784E-05-1.49632E-08 1.73378E-18 4.16113E-18
 -1       379 9.52255E-05-2.85566E-05-2.85723E-05 1.03855E-08 3.41083E-19 3.00106E-18
 -1       380 9.52233E-05-2.85618E-05-2.85692E-05 2.49492E-08-6.70657E-19 1.59130E-18
 -1       381 9.52261E-05-2.85680E-05-2.85677E-05 3.05918E-08-2.58982E-19 7.39410E-19
 -1       382 9.52305E-05-2.85742E-05-2.85670E-05 2.86174E-08-1.07553E-18-1.07847E-18
 -1       383 9.63145E-05-2.77807E-05-2.93310E-05 9.78681E-07 1.46384E-18 3.47721E-18
 -1       384 9.58795E-05-2.80562E-05-2.90418E-05-1.14152E-06 1.07182E-18 2.84266E-18
 -1       385 9.63064E-05-2.83530E-05-2.91084E-05-2.60625E-06 9.34160E-19 2.44785E-18
 -1       386 9.74038E-05-2.87430E-05-2.94163E-05-3.77414E-06 3.61992E-19 2.10313E-18
 -1       387 9.90539E-05-2.92507E-05-2.99082E-05-4.82187E-06 5.54516E-19 1.65199E-18
 -1       388 1.01190E-04-2.98993E-05-3.05476E-05-5.81547E-06 6.84830E-19 1.56293E-18
 -1       389 1.03772E-04-3.07283E-05-3.13017E-05-6.72264E-06 5.60625E-19 1.37836E-18
 -1       390 1.06758E-04-3.17998E-05-3.21270E-05-7.38873E-06 1.38669E-19 1.46160E-18
 -1       391 1.10073E-04-3.31944E-05-3.29575E-05-7.49448E-06 2.30267E-19 1.49072E-18
 -1       392 1.13565E-04-3.49747E-05-3.37002E-05-6.52830E-06-6.13024E-20 1.62095E-18
 -1       393 1.16924E-04-3.70676E-05-3.42492E-05-3.84952E-06 5.79093E-20 1.92798E-18
 -1       394 1.19522E-04-3.89967E-05-3.45346E-05 9.79855E-07 2.39902E-19 2.79082E-18
 -1       395 1.20357E-04-3.96801E-05-3.45972E-05 7.47391E-06-5.05119E-19 3.16865E-18
 -1       396 1.18283E-04-3.75774E-05-3.46194E-05 1.32796E-05 1.76183E-19 2.98868E-18
 -1       397 1.13399E-04-3.23988E-05-3.47851E-05 1.41682E-05 1.99354E-18 2.51879E-18
 -1       398 1.08515E-04-2.69540E-05-3.50413E-05 7.51464E-06 1.49042E-18 2.82667E-18
 -1       399 1.07834E-04-2.60342E-05-3.51066E-05-4.16524E-06 1.13243E-18 1.54806E-18
 -1       400 1.12036E-04-3.04790E-05-3.50000E-05-1.32112E-05 1.22484E-18-1.76368E-19
 -1       401 1.17553E-04-3.62773E-05-3.48558E-05-1.47051E-05 1.56026E-18-1.88695E-18
 -1       402 1.20777E-04-3.95436E-05-3.48355E-05-1.00155E-05 1.49281E-18-2.46283E-18
 -1       403 1.20859E-04-3.96592E-05-3.48334E-05-3.39820E-06-2.00542E-19-2.00644E-18
 -1       404 1.18785E-04-3.79975E-05-3.46576E-05 2.04614E-06-9.84772E-19-1.92205E-18
 -1       405 1.15729E-04-3.59081E-05-3.42349E-05 5.31145E-06-9.52699E-19-5.21769E-20
 -1       406 1.12449E-04-3.40599E-05-3.36095E-05 6.65848E-06-3.23644E-19-3.47284E-20
 -1       407 1.09327E-04-3.26216E-05-3.28779E-05 6.73198E-06-2.69551E-19 1.05417E-18
 -1       408 1.06532E-04-3.15526E-05-3.21318E-05 6.11765E-06-1.17824E-18 1.28145E-18
 -1       409 1.04124E-04-3.07645E-05-3.14346E-05 5.21892E-06 1.99783E-19 1.73747E-18
 -1       410 1.02109E-04-3.01794E-05-3.08208E-05 4.27168E-06-1.82801E-19 2.68746E-18
 -1       411 1.00462E-04-2.97413E-05-3.03025E-05 3.39511E-06 2.82540E-19 1.61787E-18
 -1       412 9.91414E-05-2.94118E-05-2.98785E-05 2.63800E-06 1.05487E-18 4.20254E-20
 -1       413 9.81020E-05-2.91643E-05-2.95401E-05 2.01105E-06-8.81781E-19-1.45036E-19
 -1       414 9.72976E-05-2.89796E-05-2.92754E-05 1.50639E-06 5.32562E-19 8.47595E-19
 -1       415 9.66853E-05-2.88433E-05-2.90721E-05 1.10856E-06 1.26430E-18 2.85601E-18
 -1       416 9.62272E-05-2.87445E-05-2.89188E-05 8.00203E-07 1.05837E-18 4.07748E-18
 -1       417 9.58907E-05-2.86743E-05-2.88053E-05 5.64722E-07-1.20247E-18 2.35440E-18
 -1       418 9.56487E-05-2.86258E-05-2.87228E-05 3.87435E-07-1.20371E-19 3.15594E-18
 -1       419 9.54791E-05-2.85935E-05-2.86643E-05 2.55878E-07-9.54732E-19 9.06691E-19
 -1       420 9.53642E-05-2.85732E-05-2.86240E-05 1.59760E-07-1.01408E-18 4.45115E-19
 -1       421 9.52898E-05-2.85616E-05-2.85973E-05 9.07645E-08 5.98522E-19 1.35117E-18
 -1       422 9.52449E-05-2.85561E-05-2.85806E-05 4.23104E-08 7.62949E-19 2.83350E-18
 -1       423 9.52211E-05-2.85549E-05-2.85710E-05 9.31368E-09 2.04218E-18 1.98256E-18
 -1       424 9.52117E-05-2.85566E-05-2.85663E-05-1.20178E-08 8.85939E-19 1.34935E-21
 -1       425 9.52118E-05-2.85602E-05-2.85649E-05-2.43175E-08 1.34846E-20 1.95497E-18
 -1       426 9.52175E-05-2.85652E-05-2.85653E-05-2.90985E-08-1.88507E-19 3.29735E-18
 -1       427 9.52258E-05-2.85712E-05-2.85663E-05-2.69342E-08-2.39790E-19 4.03016E-18
 -1       428 9.52319E-05-2.85760E-05-2.85669E-05-2.25693E-08-1.54839E-18 5.28816E-18
 -1       429 9.52472E-05-2.85913E-05-2.85668E-05-2.57485E-08 2.06183E-18 5.98425E-19
 -1       430 9.52429E-05-2.85864E-05-2.85671E-05-2.96689E-08 5.53135E-19-9.28008E-19
 -1       431 9.52377E-05-2.85820E-05-2.85668E-05-2.85278E-08-1.43075E-18 1.56591E-18
 -1       432 9.52489E-05-2.85939E-05-2.85664E-05-1.94174E-08 2.34845E-18-3.06340E-18
 -1       433 9.52490E-05-2.85949E-05-2.85660E-05-1.26806E-08 2.09196E-18 6.13732E-20
 -1       434 9.52484E-05-2.85949E-05-2.85657E-05-6.69320E-09 9.75221E-19-3.68759E-19
 -1       435 9.52478E-05-2.85946E-05-2.85656E-05-1.62346E-09 2.25973E-19-9.49423E-19
 -1       436 9.52476E-05-2.85944E-05-2.85656E-05 2.97817E-09-2.17830E-18-1.38230E-18
 -1       437 9.52479E-05-2.85942E-05-2.85658E-05 7.79854E-09-7.78689E-19-2.35827E-18
 -1       438 9.52483E-05-2.85939E-05-2.85661E-05 1.32391E-08-5.08585E-19-7.98782E-19
 -1       439 9.52482E-05-2.85928E-05-2.85666E-05 1.94165E-08 6.34163E-19 3.57053E-18
 -1       440 9.52465E-05-2.85902E-05-2.85670E-05 2.53251E-08 6.86656E-19 8.18597E-19
 -1       441 9.52425E-05-2.85858E-05-2.85672E-05 2.93040E-08-1.08980E-18 4.66028E-19
 -1       442 5.79567E-05-4.19000E-05-7.02997E-06 4.11111E-05-1.95876E-20 3.97359E-18
 -1       443 1.31737E-05-1.95955E-05 2.90219E-06-1.76847E-06-6.77183E-19 7.55183E-18
 -1       444 2.31948E-05-2.87526E-05 2.08474E-06 2.44226E-05 2.23352E-19 8.11193E-18
 -1       445 9.15090E-05-5.20674E-05-1.71864E-05 4.08261E-05 2.38323E-18 1.94037E-18
 -1       446 1.34085E-04-5.76838E-05-3.28179E-05 2.51285E-05 2.61262E-18 7.95682E-19
 -1       447 8.95368E-05-1.16062E-05-3.34699E-05-9.18475E-06-1.56418E-18-3.25779E-18
 -1       448 1.63696E-04-2.79177E-05-5.79564E-05-2.01820E-06 5.82843E-18 1.51428E-18
 -1       449 1.60690E-04-1.46193E-05-6.24774E-05-2.08467E-06 6.11738E-18 1.58768E-18
 -1       450 1.58946E-04-1.83281E-05-6.01972E-05 4.40211E-06 5.82843E-18 1.94643E-18
 -1       451 1.61770E-04-3.51469E-05-5.39980E-05-1.23329E-06 4.62284E-18 7.00179E-19
 -1       452 1.48325E-04-5.07260E-05-4.17100E-05-1.74482E-05 1.80752E-18-1.22566E-18
 -1       453 1.20256E-04-5.95387E-05-2.60714E-05-3.32245E-05-2.86085E-19-2.31806E-18
 -1       454 7.22009E-05-4.72385E-05-1.08943E-05-4.30961E-05-1.29014E-18-4.56925E-18
 -1       455 3.73050E-05-3.25224E-05-2.07096E-06-3.46432E-05-1.40258E-18-4.26682E-18
 -1       456 1.34516E-05-2.30718E-05 3.96821E-06-7.99656E-06-8.92270E-19-4.84577E-18
 -1       457 1.96094E-05-2.19225E-05 1.18993E-06 2.05594E-05-5.63595E-19-5.94352E-18
 -1       458 4.71483E-05-3.80354E-05-4.10711E-06 4.08712E-05-9.41265E-19-5.30497E-18
 -1       459 8.50321E-05-4.94896E-05-1.53485E-05 4.44439E-05-8.53386E-19-3.96325E-18
 -1       460 1.19519E-04-5.31131E-05-2.84738E-05 3.48408E-05-3.16557E-18-2.83163E-18
 -1       461 1.43782E-04-4.67309E-05-4.14783E-05 1.97450E-05-5.16312E-18-5.27384E-19
 -1       462 1.57155E-04-3.31243E-05-5.28524E-05 8.34045E-06-6.00080E-18-6.09123E-19
 -1       463 1.61571E-04-1.99917E-05-6.03373E-05 1.43083E-06-5.31672E-18-7.65612E-19
 -1       464 1.54060E-04-1.05799E-05-6.14667E-05 6.51318E-08-5.89641E-18-6.87068E-19
 -1       465 1.58481E-04-1.69583E-05-6.04822E-05 1.31381E-06-5.07892E-18-1.66749E-18
 -1       466 1.57402E-04-3.26097E-05-5.32331E-05-7.61383E-06-3.47024E-18-2.19837E-18
 -1       467 1.44737E-04-4.60286E-05-4.21885E-05-1.81513E-05-1.77623E-18-1.16573E-19
 -1       468 1.19558E-04-5.29336E-05-2.85971E-05-3.43385E-05-9.43595E-19-4.36222E-19
 -1       469 8.58048E-05-4.85876E-05-1.61120E-05-4.35317E-05 5.68889E-19 3.46331E-18
 -1       470 5.43475E-05-3.85027E-05-6.75311E-06-4.32321E-05 1.71365E-18 1.92419E-18
 -1       471 2.77734E-05-2.74175E-05-8.28463E-08-3.08310E-05 3.03979E-19 4.37249E-18
 -1       472 1.57388E-04-4.38422E-05-4.84790E-05 6.84221E-06 4.46685E-18 1.21105E-18
 -1       473 9.70335E-05-2.52109E-05-3.07661E-05 4.08073E-06 2.09622E-18 1.41225E-18
 -1       474 8.81528E-05-1.18538E-05-3.27166E-05-2.75771E-06-4.12153E-20-3.16048E-18
 -1       475 8.94054E-05-1.32105E-05-3.26742E-05-4.34823E-06-6.55253E-19-3.05685E-18
 -1       476 8.70981E-05-1.07473E-05-3.27371E-05 1.53238E-07 8.59835E-19-3.02812E-18
 -1       477 8.73173E-05-1.09675E-05-3.27371E-05 1.54422E-06 1.26345E-18-2.79850E-18
 -1       478 8.80376E-05-1.17139E-05-3.27273E-05 2.94394E-06 1.76151E-18-2.59800E-18
 -1       479 8.92981E-05-1.30659E-05-3.26906E-05 4.43566E-06 2.14452E-18-1.90458E-18
 -1       480 9.11141E-05-1.51180E-05-3.25920E-05 5.96270E-06 2.49402E-18-1.32084E-18
 -1       481 9.35795E-05-1.80896E-05-3.23727E-05 7.37640E-06 2.65385E-18-3.58174E-19
 -1       482 9.67117E-05-2.65820E-05-3.00359E-05 4.57095E-07 1.55551E-18 1.03977E-18
 -1       483 9.64718E-05-2.43892E-05-3.08809E-05-3.87402E-06-1.58674E-18-1.29794E-18
 -1       484 1.48278E-04-3.68812E-05-4.81913E-05-1.20330E-05 3.80376E-18-3.01703E-19
 -1       485 9.65568E-05-2.61588E-05-3.01628E-05-5.20671E-07-1.18345E-18-1.22679E-18
 -1       486 9.65953E-05-2.71197E-05-2.97706E-05 1.84498E-06-1.09443E-18-1.02791E-18
 -1       487 9.68379E-05-2.77757E-05-2.95957E-05 3.52484E-06-1.02227E-18-9.45371E-19
 -1       488 9.73512E-05-2.83616E-05-2.95658E-05 4.71563E-06-6.67458E-19-9.25145E-19
 -1       489 9.81530E-05-2.90213E-05-2.96276E-05 5.50044E-06-4.71331E-19-6.74706E-19
 -1       490 9.92586E-05-2.98654E-05-2.97409E-05 5.86590E-06-4.25476E-19-8.27448E-19
 -1       491 1.00687E-04-3.09806E-05-2.98767E-05 5.71448E-06-3.86073E-19-6.64720E-19
 -1       492 1.02441E-04-3.24040E-05-3.00203E-05 4.88194E-06-2.36352E-19-5.98260E-19
 -1       493 1.04459E-04-3.40593E-05-3.01776E-05 3.17676E-06 4.47200E-19-2.58344E-19
 -1       494 1.06531E-04-3.56574E-05-3.03816E-05 4.71556E-07 1.57042E-19 1.81852E-19
 -1       495 1.08213E-04-3.66115E-05-3.06928E-05-3.11790E-06-1.13046E-19 4.88803E-19
 -1       496 1.08845E-04-3.61016E-05-3.11785E-05-6.97717E-06 1.50018E-19 5.28467E-19
 -1       497 1.07815E-04-3.34712E-05-3.18686E-05-9.80947E-06-2.07552E-20 1.47442E-19
 -1       498 1.05280E-04-2.90962E-05-3.26508E-05-9.79252E-06-7.83187E-19 2.82820E-19
 -1       499 1.02440E-04-2.47129E-05-3.33117E-05-6.06095E-06-1.23303E-18-3.53457E-19
 -1       500 1.01331E-04-2.30221E-05-3.35619E-05 5.58056E-07-1.33574E-18-9.33029E-19
 -1       501 1.02740E-04-2.50521E-05-3.33014E-05 6.94628E-06-7.31724E-19-1.17564E-18
 -1       502 1.05672E-04-2.95175E-05-3.26429E-05 1.04514E-05-7.19489E-19-1.92493E-18
 -1       503 1.08178E-04-3.37936E-05-3.18802E-05 1.01199E-05 4.67814E-19-1.69324E-18
 -1       504 1.09086E-04-3.61872E-05-3.12454E-05 7.22747E-06 9.46482E-19-1.70013E-18
 -1       505 1.08403E-04-3.65218E-05-3.08130E-05 3.46711E-06 5.67721E-19-2.08169E-18
 -1       506 1.06747E-04-3.54850E-05-3.05479E-05 7.37291E-08 1.71797E-19-1.72848E-18
 -1       507 1.04761E-04-3.38885E-05-3.03796E-05-2.40729E-06 3.98546E-20-2.45504E-18
 -1       508 1.02857E-04-3.22914E-05-3.02461E-05-3.91103E-06-1.10521E-19-1.52119E-18
 -1       509 1.01216E-04-3.09626E-05-3.01106E-05-4.60016E-06 5.50923E-19-1.05064E-18
 -1       510 9.98763E-05-2.99726E-05-2.99594E-05-4.70104E-06-6.33949E-19-5.69982E-19
 -1       511 9.88108E-05-2.92914E-05-2.97938E-05-4.42479E-06-6.88009E-20 1.46713E-19
 -1       512 9.79727E-05-2.88537E-05-2.96217E-05-3.93883E-06-7.83034E-19 1.09046E-18
 -1       513 9.73161E-05-2.85916E-05-2.94524E-05-3.36334E-06-2.73623E-19 8.37401E-19
 -1       514 9.68029E-05-2.84486E-05-2.92937E-05-2.77765E-06-2.98895E-19-3.11460E-19
 -1       515 9.64030E-05-2.83822E-05-2.91508E-05-2.22949E-06-6.84364E-19 6.58697E-19
 -1       516 9.60933E-05-2.83625E-05-2.90266E-05-1.74394E-06-4.47043E-19 1.19995E-18
 -1       517 9.58552E-05-2.83695E-05-2.89217E-05-1.33081E-06 2.74456E-19 2.37981E-18
 -1       518 9.56744E-05-2.83901E-05-2.88355E-05-9.90286E-07 8.78967E-19 2.61866E-18
 -1       519 9.55388E-05-2.84163E-05-2.87663E-05-7.16990E-07 6.18113E-19 1.17408E-18
 -1       520 9.54390E-05-2.84434E-05-2.87120E-05-5.02769E-07 9.38780E-19 8.07908E-19
 -1       521 9.53669E-05-2.84689E-05-2.86703E-05-3.38521E-07 3.66520E-19 1.65853E-18
 -1       522 9.53163E-05-2.84915E-05-2.86390E-05-2.15314E-07 5.04540E-19 2.97984E-18
 -1       523 9.52820E-05-2.85108E-05-2.86161E-05-1.25040E-07 8.36993E-19 1.41519E-18
 -1       524 9.52598E-05-2.85271E-05-2.85996E-05-6.07410E-08 2.32581E-18 2.29475E-19
 -1       525 9.52464E-05-2.85409E-05-2.85880E-05-1.67349E-08 6.12738E-19 1.54596E-18
 -1       526 9.52396E-05-2.85529E-05-2.85799E-05 1.13528E-08-9.61799E-19 2.95353E-18
 -1       527 9.52372E-05-2.85641E-05-2.85742E-05 2.66699E-08-1.76963E-18 1.28912E-18
 -1       528 9.68939E-05-2.76810E-05-2.96559E-05-4.04794E-06 9.87153E-19 9.29827E-19
 -1       529 9.75212E-05-2.80019E-05-2.97890E-05-5.68957E-06 7.20301E-19 4.85996E-19
 -1       530 9.84865E-05-2.83470E-05-3.00557E-05-7.17850E-06 7.35563E-19 3.54300E-19
 -1       531 9.97902E-05-2.88261E-05-3.04101E-05-8.56406E-06 6.34769E-19 4.18611E-19
 -1       532 1.01483E-04-2.95946E-05-3.08082E-05-9.77848E-06 2.62213E-19 7.57784E-19
 -1       533 1.03688E-04-3.08836E-05-3.12050E-05-1.06045E-05 2.97603E-19 4.67708E-19
 -1       534 1.06625E-04-3.29969E-05-3.15640E-05-1.06259E-05 1.03457E-19 5.20583E-19
 -1       535 1.10559E-04-3.62015E-05-3.18841E-05-9.19510E-06-5.36121E-19 6.61564E-19
 -1       536 1.15639E-04-4.04144E-05-3.22582E-05-5.45205E-06-8.21439E-19 1.09952E-18
 -1       537 1.21175E-04-4.43295E-05-3.29495E-05 1.16024E-06-5.84481E-19 1.64974E-18
 -1       538 1.25401E-04-4.52376E-05-3.44014E-05 1.00491E-05-3.99235E-19 1.64605E-18
 -1       539 1.24765E-04-3.93505E-05-3.66691E-05 1.69484E-05 7.95639E-19 2.13071E-18
 -1       540 1.18962E-04-2.74118E-05-3.95676E-05 1.57606E-05 1.98886E-18 2.68384E-18
 -1       541 1.15888E-04-2.01704E-05-4.13086E-05 2.34195E-06 2.32166E-18 2.86813E-19
 -1       542 1.18022E-04-2.42995E-05-4.04248E-05-1.29688E-05 2.40645E-18-2.77855E-18
 -1       543 1.23869E-04-3.59411E-05-3.78620E-05-1.81354E-05 2.35328E-18-3.40216E-18
 -1       544 1.26008E-04-4.41796E-05-3.51333E-05-1.30547E-05 1.07365E-18-2.06100E-18
 -1       545 1.23075E-04-4.51497E-05-3.34322E-05-4.26962E-06 2.70736E-19-4.41513E-19
 -1       546 1.17789E-04-4.17799E-05-3.26005E-05 3.14225E-06-7.50790E-20-3.42439E-19
 -1       547 1.12582E-04-3.74707E-05-3.22098E-05 7.61158E-06-1.16644E-18-4.04826E-19
 -1       548 1.08430E-04-3.39449E-05-3.19333E-05 9.52543E-06-8.18616E-19-1.84744E-19
 -1       549 1.05358E-04-3.15611E-05-3.16312E-05 9.74439E-06-5.56973E-19 1.63015E-20
 -1       550 1.03100E-04-3.01181E-05-3.12770E-05 9.01227E-06-9.81032E-19-5.92547E-19
 -1       551 1.01394E-04-2.93050E-05-3.08918E-05 7.84504E-06-9.74142E-19-8.29269E-19
 -1       552 1.00062E-04-2.88697E-05-3.05066E-05 6.55759E-06-1.79727E-18-1.25238E-19
 -1       553 9.89974E-05-2.86459E-05-3.01463E-05 5.32262E-06 6.52643E-19-8.88316E-20
 -1       554 9.81383E-05-2.85359E-05-2.98258E-05 4.22234E-06 1.29884E-18 2.67113E-20
 -1       555 9.74456E-05-2.84853E-05-2.95512E-05 3.28577E-06-2.71913E-19 1.63412E-18
 -1       556 9.68916E-05-2.84656E-05-2.93228E-05 2.51295E-06 2.50355E-19 8.22864E-19
 -1       557 9.64542E-05-2.84619E-05-2.91375E-05 1.88978E-06 2.22441E-19 1.04851E-18
 -1       558 9.61140E-05-2.84664E-05-2.89902E-05 1.39646E-06 8.40560E-19 1.19414E-18
 -1       559 9.58538E-05-2.84751E-05-2.88753E-05 1.01210E-06 7.29414E-19 2.09285E-18
 -1       560 9.56584E-05-2.84859E-05-2.87873E-05 7.17000E-07-3.76647E-19 1.46448E-18
 -1       561 9.55148E-05-2.84973E-05-2.87211E-05 4.93661E-07 1.49498E-19 8.50303E-19
 -1       562 9.54118E-05-2.85087E-05-2.86723E-05 3.27121E-07-1.50107E-18 1.48606E-18
 -1       563 9.53400E-05-2.85195E-05-2.86370E-05 2.04917E-07-1.26907E-18 2.15380E-18
 -1       564 9.52919E-05-2.85296E-05-2.86122E-05 1.16906E-07 2.31966E-19 1.70824E-18
 -1       565 9.52614E-05-2.85389E-05-2.85952E-05 5.50337E-08 1.26273E-18 5.40799E-19
 -1       566 9.52436E-05-2.85475E-05-2.85839E-05 1.30713E-08 1.99494E-18 2.57601E-18
 -1       567 9.52348E-05-2.85557E-05-2.85767E-05-1.36360E-08-1.07302E-18 3.50526E-18
 -1       568 9.52321E-05-2.85638E-05-2.85721E-05-2.84185E-08-6.85240E-19 2.91285E-18
 -1       569 9.52338E-05-2.85725E-05-2.85691E-05-3.32982E-08-7.61614E-19 2.16455E-18
 -1       570 9.52454E-05-2.85675E-05-2.85762E-05-1.39369E-08 3.75066E-18-2.58556E-18
 -1       571 9.52427E-05-2.85627E-05-2.85772E-05-7.44828E-09 2.23494E-18-7.41265E-19
 -1       572 9.52442E-05-2.85746E-05-2.85727E-05-2.89932E-08 1.25623E-18 1.89300E-18
 -1       573 9.52465E-05-2.85720E-05-2.85748E-05-2.16002E-08 1.74287E-18-1.06072E-18
 -1       574 9.52402E-05-2.85590E-05-2.85777E-05-2.66238E-09 5.62889E-19-2.56379E-18
 -1       575 9.52391E-05-2.85575E-05-2.85778E-05 9.10247E-10-6.95264E-19-3.15456E-18
 -1       576 9.52397E-05-2.85585E-05-2.85776E-05 4.31835E-09-1.07386E-18-1.22603E-19
 -1       577 9.52418E-05-2.85617E-05-2.85771E-05 8.56436E-09-3.93914E-19-2.05349E-18
 -1       578 9.52443E-05-2.85663E-05-2.85762E-05 1.43930E-08 2.13176E-19 4.23496E-19
 -1       579 9.52454E-05-2.85707E-05-2.85749E-05 2.14673E-08-7.64844E-19 2.77760E-18
 -1       580 9.52431E-05-2.85733E-05-2.85728E-05 2.78915E-08-1.96309E-18 2.01183E-19
 -1       581 2.95380E-05-1.57068E-05-5.26290E-06 1.64352E-05-1.26803E-18 7.41800E-18
 -1       582 5.11189E-05-2.96219E-05-8.72076E-06 3.58014E-05-2.43284E-18 4.49213E-18
 -1       583 2.92170E-05-1.52644E-05-5.34174E-06-1.85929E-05 1.27171E-18 4.52369E-18
 -1       584 9.66268E-05-2.72727E-05-2.97120E-05-2.09527E-06 1.14792E-18 9.08056E-19
 -1       585 9.04482E-05-5.08307E-05-1.66759E-05 4.04480E-05-8.70009E-19 1.20898E-18
 -1       586 1.45908E-04-5.62842E-05-3.85994E-05 5.96426E-07 1.64401E-18-6.20293E-19
 -1       587 8.59388E-05-4.80462E-05-1.59129E-05-4.33565E-05 3.09273E-18 2.08485E-18
 -1       588 1.34874E-04-1.00218E-05-5.40744E-05-5.77502E-06-5.05149E-18-3.18431E-19
 -1       589 8.73821E-05-1.10441E-05-3.27320E-05-1.26366E-06 5.23841E-19-3.09657E-18
 -1       590 1.35549E-04-1.15240E-05-5.37730E-05 3.58362E-06 5.93834E-18 6.56055E-19
 -1       591 1.43077E-04-4.21079E-05-4.36254E-05 3.88305E-06-1.04010E-18-4.70347E-18
 -1       592 1.40772E-04-1.79592E-05-5.32106E-05-1.15065E-05 5.31471E-18 4.75662E-19
 -1       593 1.42258E-04-2.84108E-05-4.93562E-05 1.51692E-05 4.04035E-18 2.87700E-18
 -1       594 1.48581E-04-4.85214E-05-4.32745E-05 6.06267E-06 1.15653E-18 2.58615E-18
 -1       595 1.39974E-04-6.08501E-05-3.41029E-05-1.01026E-05-1.11108E-18 1.38230E-18
 -1       596 1.04969E-04-5.59622E-05-2.07599E-05-3.63947E-05-2.37609E-18-2.07780E-18
 -1       597 6.61401E-05-3.90183E-05-1.12184E-05-4.11091E-05-2.50192E-18-4.03961E-18
 -1       598 3.35459E-05-1.85664E-05-5.83539E-06-2.26409E-05-1.46036E-18-3.76421E-18
 -1       599 2.59785E-05-1.26834E-05-5.00619E-06 2.00824E-06-3.74939E-19-4.96107E-18
 -1       600 4.89554E-05-2.66646E-05-8.95978E-06 3.59655E-05 1.87930E-18-3.26928E-18
 -1       601 7.61898E-05-4.29194E-05-1.39083E-05 4.33630E-05 2.39165E-18-2.84545E-18
 -1       602 1.13873E-04-5.84789E-05-2.36183E-05 3.48548E-05 9.37824E-19-1.04321E-18
 -1       603 1.36046E-04-5.79881E-05-3.35783E-05 1.51995E-05-1.50998E-18 2.02552E-18
 -1       604 1.43286E-04-4.34748E-05-4.31107E-05-2.69791E-06-3.78928E-18 1.48056E-18
 -1       605 1.41498E-04-2.47259E-05-5.05306E-05-8.79886E-06-4.62030E-18 3.65283E-20
 -1       606 1.28125E-04-9.23188E-06-5.16607E-05 6.38198E-06-3.64949E-18-2.70399E-18
 -1       607 1.37267E-04-2.26116E-05-4.97104E-05 1.08615E-05-2.45221E-18-4.05221E-18
 -1       608 1.36250E-04-5.73471E-05-3.39531E-05-1.41119E-05 4.23596E-19-2.92089E-18
 -1       609 1.13390E-04-5.76457E-05-2.38013E-05-3.43929E-05 2.13855E-18-7.44304E-19
 -1       610 5.02357E-05-2.86043E-05-8.79403E-06-3.78589E-05 2.48107E-18 5.92923E-19
 -1       611 9.53341E-05-2.06890E-05-3.20108E-05-7.85116E-06-2.01257E-18-1.75332E-18
 -1       612 9.71978E-05-2.33651E-05-3.16452E-05 7.97743E-06 2.62321E-18 1.90891E-18
 -1       613 1.24968E-04-6.22405E-05-2.68708E-05 2.61782E-05 5.57136E-19 1.74356E-19
 -1       614 9.11302E-05-1.51527E-05-3.25848E-05-6.00896E-06-1.22231E-18-3.06516E-18
 -1       615 3.50105E-05-1.10406E-05-9.65713E-06-7.77321E-07-1.59189E-19 5.14350E-18
 -1       616 4.22397E-05-1.57445E-05-1.08107E-05 2.05091E-05 1.32745E-18-3.23741E-18
 -1       617 1.27426E-04-6.15223E-05-2.82118E-05-1.88751E-05-1.81265E-18 8.71822E-19
 -1       618 9.52375E-05-2.85717E-05-2.85711E-05 3.11262E-08-2.09899E-18 6.39292E-19
 -1       619 8.92448E-05-1.43578E-05-3.20994E-05 1.49675E-06 1.30777E-18-2.20511E-18
 -1       620 8.87479E-05-1.38157E-05-3.21185E-05 6.35043E-07 9.96894E-19-2.67128E-18
 -1       621 9.18671E-05-1.73892E-05-3.19246E-05 3.18429E-06 1.91881E-18-1.37963E-18
 -1       622 9.38404E-05-1.99500E-05-3.16747E-05 3.82982E-06 2.16268E-18-7.32576E-19
 -1       623 9.58918E-05-2.35607E-05-3.09890E-05 2.65785E-06 1.93612E-18 1.24731E-20
 -1       624 1.31714E-04-3.34315E-05-4.25009E-05-1.24502E-05-2.86400E-18 1.14199E-18
 -1       625 9.60690E-05-2.51626E-05-3.03838E-05-5.58228E-07 1.36346E-18-1.44240E-20
 -1       626 1.04860E-04-5.29981E-05-2.20334E-05-3.41231E-05 3.95077E-18-1.38542E-18
 -1       627 9.59206E-05-2.50203E-05-3.03847E-05 5.23373E-07-9.76207E-19-1.82415E-18
 -1       628 9.61682E-05-2.62090E-05-2.99817E-05 2.73135E-06-9.43381E-19-1.85195E-18
 -1       629 9.64299E-05-2.70649E-05-2.97274E-05 4.42735E-06-7.41351E-19-1.46180E-18
 -1       630 9.68537E-05-2.78450E-05-2.95749E-05 5.71053E-06-5.01399E-19-1.45577E-18
 -1       631 9.75589E-05-2.87565E-05-2.94868E-05 6.62048E-06-3.42595E-19-1.38490E-18
 -1       632 9.86715E-05-2.99823E-05-2.94387E-05 7.11917E-06 6.81591E-20-6.96915E-19
 -1       633 1.00329E-04-3.16750E-05-2.94245E-05 7.08255E-06-4.04751E-20-8.82175E-20
 -1       634 1.02650E-04-3.39023E-05-2.94656E-05 6.29529E-06 1.95656E-19 1.34046E-19
 -1       635 1.05642E-04-3.65293E-05-2.96230E-05 4.46525E-06 9.90829E-20-4.13984E-19
 -1       636 1.09027E-04-3.90229E-05-3.00060E-05 1.31293E-06 2.49795E-19-4.57325E-19
 -1       637 1.12040E-04-4.02822E-05-3.07584E-05-3.14899E-06 2.94962E-19 1.13066E-19
 -1       638 1.13491E-04-3.88406E-05-3.19974E-05-8.09181E-06 8.89533E-20 4.28842E-19
 -1       639 1.12227E-04-3.34397E-05-3.37583E-05-1.17894E-05-5.94571E-19-1.01776E-20
 -1       640 1.07912E-04-2.53347E-05-3.55069E-05-1.07075E-05-1.65848E-18-2.52773E-19
 -1       641 1.05100E-04-1.98848E-05-3.65701E-05-3.91135E-06-1.59341E-18-4.80140E-19
 -1       642 1.05137E-04-1.98817E-05-3.66313E-05 5.13706E-06-1.16621E-18-1.16005E-18
 -1       643 1.08932E-04-2.64992E-05-3.53657E-05 1.13909E-05-1.61878E-18-1.45604E-18
 -1       644 1.12325E-04-3.40505E-05-3.35693E-05 1.18114E-05-1.50789E-19-2.25366E-18
 -1       645 1.13419E-04-3.89243E-05-3.19309E-05 8.27181E-06 8.90966E-19-2.58085E-18
 -1       646 1.11815E-04-4.00578E-05-3.07583E-05 3.39621E-06 5.06084E-19-2.41586E-18
 -1       647 1.08721E-04-3.85909E-05-3.00602E-05-8.34797E-07-1.96011E-19-2.79381E-18
 -1       648 1.05357E-04-3.60432E-05-2.97092E-05-3.72722E-06-3.02302E-20-2.98369E-18
 -1       649 1.02426E-04-3.34608E-05-2.95583E-05-5.33788E-06 9.66747E-19-1.96709E-18
 -1       650 1.00160E-04-3.13360E-05-2.94972E-05-5.97608E-06 1.12564E-18-8.17469E-19
 -1       651 9.85336E-05-2.97949E-05-2.94598E-05-5.96140E-06 8.42427E-20-6.44049E-19
 -1       652 9.74190E-05-2.87836E-05-2.94151E-05-5.54994E-06-2.72887E-19 3.54222E-20
 -1       653 9.66774E-05-2.81856E-05-2.93534E-05-4.92682E-06 6.37675E-19-4.44589E-19
 -1       654 9.61923E-05-2.78806E-05-2.92761E-05-4.21854E-06-2.17080E-19 3.91629E-21
 -1       655 9.58769E-05-2.77680E-05-2.91892E-05-3.50713E-06-3.90757E-19 1.80737E-18
 -1       656 9.56714E-05-2.77723E-05-2.90993E-05-2.84212E-06-1.38107E-18 1.28376E-18
 -1       657 9.55363E-05-2.78410E-05-2.90120E-05-2.25012E-06-8.00914E-19 1.47713E-18
 -1       658 9.54460E-05-2.79393E-05-2.89312E-05-1.74211E-06-3.65793E-19 9.36498E-19
 -1       659 9.53846E-05-2.80457E-05-2.88593E-05-1.31886E-06 5.08076E-19 6.10138E-19
 -1       660 9.53420E-05-2.81477E-05-2.87974E-05-9.74978E-07-2.58401E-19 9.68093E-20
 -1       661 9.53119E-05-2.82389E-05-2.87454E-05-7.01782E-07 2.92373E-19-3.59183E-19
 -1       662 9.52903E-05-2.83167E-05-2.87029E-05-4.89221E-07 3.89792E-19-4.76241E-19
 -1       663 9.52748E-05-2.83808E-05-2.86688E-05-3.27172E-07 1.32882E-19-8.61699E-19
 -1       664 9.52635E-05-2.84322E-05-2.86419E-05-2.06214E-07-1.01136E-18-1.01093E-18
 -1       665 9.52554E-05-2.84728E-05-2.86211E-05-1.18060E-07 1.96728E-18-7.64210E-19
 -1       666 9.52497E-05-2.85044E-05-2.86051E-05-5.57582E-08 2.07325E-18-4.18695E-19
 -1       667 9.52459E-05-2.85294E-05-2.85928E-05-1.36545E-08 8.69307E-19-5.84964E-19
 -1       668 9.52438E-05-2.85498E-05-2.85831E-05 1.23303E-08-1.19865E-18 1.26278E-18
 -1       669 9.62668E-05-2.66581E-05-2.98308E-05-7.04681E-06 9.28538E-19-3.41444E-19
 -1       670 1.26485E-04-5.90033E-05-2.89381E-05-1.90036E-05 2.48085E-18-3.26771E-18
 -1       671 9.61439E-05-2.64350E-05-2.98731E-05-5.19456E-06 9.91301E-19-2.76953E-19
 -1       672 9.70167E-05-2.72349E-05-2.99053E-05-1.04033E-05 2.98748E-19-1.48249E-19
 -1       673 9.79209E-05-2.81001E-05-2.99229E-05-1.19164E-05 3.37181E-19-2.24517E-19
 -1       674 9.95993E-05-2.98869E-05-2.98784E-05-1.31464E-05 1.17639E-19 1.76194E-19
 -1       675 1.02648E-04-3.31624E-05-2.97842E-05-1.37339E-05-5.80033E-19 8.01155E-20
 -1       676 1.07812E-04-3.83848E-05-2.97607E-05-1.29880E-05-1.04988E-18 6.15808E-19
 -1       677 1.16003E-04-4.55570E-05-3.02314E-05-9.42656E-06-1.23067E-18 9.87756E-19
 -1       678 1.26399E-04-5.19599E-05-3.18997E-05-1.95609E-06-7.48096E-19 1.46242E-18
 -1       679 1.34154E-04-5.18735E-05-3.55000E-05 9.83415E-06-7.40227E-19 2.82938E-18
 -1       680 1.30405E-04-3.06366E-05-4.31448E-05-1.82443E-05 2.45843E-18-3.31558E-18
 -1       681 1.34584E-04-4.79191E-05-3.73875E-05-1.33853E-05 4.62506E-19-2.29919E-18
 -1       682 1.28738E-04-5.21251E-05-3.28717E-05-2.33268E-06-2.88296E-19-1.63409E-18
 -1       683 1.19173E-04-4.73631E-05-3.07740E-05 6.58316E-06 1.09452E-19-1.38415E-18
 -1       684 1.10634E-04-4.03131E-05-3.01428E-05 1.10563E-05-8.43825E-19 2.61768E-19
 -1       685 1.04737E-04-3.45588E-05-3.00803E-05 1.24801E-05-5.99372E-19 3.52169E-19
 -1       686 1.01127E-04-3.07761E-05-3.01520E-05 1.22146E-05-2.32387E-19-1.00513E-19
 -1       687 9.90742E-05-2.86486E-05-3.01824E-05 1.11138E-05-4.27082E-19 1.06541E-21
 -1       688 9.79228E-05-2.76214E-05-3.01280E-05 9.67013E-06-1.38050E-18 9.85542E-19
 -1       689 9.72503E-05-2.72403E-05-3.00026E-05 8.15215E-06-1.12394E-18 5.08452E-19
 -1       690 9.68179E-05-2.72003E-05-2.98344E-05 6.70578E-06 2.78437E-19-2.15995E-18
 -1       691 9.65050E-05-2.73192E-05-2.96494E-05 5.40444E-06 3.86898E-19-2.35543E-18
 -1       692 9.62560E-05-2.74970E-05-2.94667E-05 4.27807E-06-5.39631E-19-9.70964E-19
 -1       693 9.60480E-05-2.76833E-05-2.92980E-05 3.33063E-06-1.66571E-19-1.77068E-18
 -1       694 9.58720E-05-2.78549E-05-2.91493E-05 2.55146E-06 7.78237E-19-2.15326E-18
 -1       695 9.57246E-05-2.80035E-05-2.90226E-05 1.92262E-06-5.64848E-20-1.22865E-18
 -1       696 9.56033E-05-2.81275E-05-2.89176E-05 1.42340E-06 3.65872E-19 4.92817E-19
 -1       697 9.55057E-05-2.82288E-05-2.88326E-05 1.03308E-06 3.43028E-20 6.02829E-19
 -1       698 9.54291E-05-2.83101E-05-2.87650E-05 7.32341E-07-2.97011E-19 1.02559E-18
 -1       699 9.53704E-05-2.83746E-05-2.87123E-05 5.04017E-07-6.35951E-19 2.24569E-18
 -1       700 9.53266E-05-2.84253E-05-2.86718E-05 3.33323E-07-1.45085E-18 1.51309E-18
 -1       701 9.52949E-05-2.84647E-05-2.86414E-05 2.07864E-07 2.84094E-19 1.02431E-18
 -1       702 9.52727E-05-2.84953E-05-2.86188E-05 1.17501E-07 1.93730E-18 9.99767E-19
 -1       703 9.52578E-05-2.85190E-05-2.86023E-05 5.41972E-08 8.60489E-19 9.13145E-19
 -1       704 9.52484E-05-2.85377E-05-2.85903E-05 1.16846E-08 6.89036E-19 2.85659E-18
 -1       705 9.52434E-05-2.85533E-05-2.85814E-05-1.46933E-08 5.66703E-20 2.21917E-18
 -1       706 9.52434E-05-2.85632E-05-2.85772E-05-2.46777E-08-5.02617E-19 3.57740E-18
 -1       707 9.52286E-05-2.85182E-05-2.85902E-05 1.39268E-09 8.98297E-19-4.18184E-18
 -1       708 9.52431E-05-2.85620E-05-2.85777E-05 2.25592E-08-2.14141E-18 6.02574E-19
 -1       709 9.52381E-05-2.85332E-05-2.85878E-05-2.24154E-09 2.26199E-18-3.12628E-18
 -1       710 9.52283E-05-2.85179E-05-2.85901E-05 7.55504E-10 3.01949E-19-2.88006E-18
 -1       711 9.52324E-05-2.85236E-05-2.85895E-05 8.87297E-10 3.57156E-19-2.43611E-18
 -1       712 1.30845E-04-3.40034E-05-4.18970E-05 1.30133E-05-6.69341E-19-5.06017E-18
 -1       713 9.52313E-05-2.85228E-05-2.85893E-05 8.70614E-10 2.54944E-19-2.35330E-19
 -1       714 9.52366E-05-2.85320E-05-2.85877E-05 3.31056E-09 1.39107E-18-7.22994E-19
 -1       715 9.52418E-05-2.85433E-05-2.85850E-05 8.79671E-09 6.51426E-19 1.23291E-18
 -1       716 4.97766E-05-2.02266E-05-1.21755E-05 2.52521E-05-1.20530E-18 4.99622E-18
 -1       717 4.92909E-05-1.96046E-05-1.22515E-05-2.68687E-05 2.21569E-18 4.02870E-19
 -1       718 1.39529E-04-4.60515E-05-4.03890E-05-1.39044E-05 6.09824E-19-2.78070E-18
 -1       719 5.96322E-05-2.69486E-05-1.35340E-05-3.19536E-05-1.57225E-18-3.41444E-18
 -1       720 1.03594E-04-5.16988E-05-2.20048E-05 3.37327E-05 2.52614E-18-1.20248E-18
 -1       721 9.61033E-05-2.60077E-05-3.00376E-05-3.09100E-06 1.18544E-18-1.71809E-19
 -1       722 9.65280E-05-2.68539E-05-2.98588E-05-8.76689E-06 5.14348E-19-1.84003E-19
 -1       723 9.54142E-05-2.30747E-05-3.09994E-05-2.30973E-06-1.23261E-18-1.86349E-18
 -1       724 9.02991E-05-1.55400E-05-3.20449E-05 2.35632E-06 1.75266E-18-1.99413E-18
 -1       725 1.34416E-04-5.99242E-05-3.19728E-05 6.04247E-06-2.63348E-19-2.48754E-18
 -1       726 8.06372E-05-3.93150E-05-1.73435E-05 3.56232E-05-1.49366E-18 2.06305E-18
 -1       727 9.05224E-05-1.58035E-05-3.20284E-05-2.18420E-06-3.00221E-19-2.60864E-18
 -1       728 1.35150E-04-5.05094E-05-3.64577E-05 2.36873E-06 9.57180E-19-5.98172E-18
 -1       729 1.23713E-04-5.88953E-05-2.77816E-05 2.06958E-05 1.22020E-18 1.07175E-18
 -1       730 1.18770E-04-9.11246E-06-4.75131E-05-2.18303E-06-3.75871E-18-2.39207E-18
 -1       731 8.81700E-05-4.36390E-05-1.87215E-05-3.56209E-05-2.21901E-18-3.27664E-18
 -1       732 4.11485E-05-1.28570E-05-1.16042E-05-1.03975E-05-1.09889E-18-2.96244E-18
 -1       733 7.16507E-05-3.38537E-05-1.58298E-05 3.64418E-05 2.56519E-18-2.28082E-18
 -1       734 7.66773E-05-3.83919E-05-1.60431E-05-3.91012E-05 3.14519E-18 8.26651E-19
 -1       735 1.34972E-04-5.16877E-05-3.58941E-05-1.51658E-06-1.44943E-18 2.16570E-18
 -1       736 1.22678E-04-1.80247E-05-4.53198E-05 1.18992E-05-1.58395E-18-3.47295E-18
 -1       737 1.11598E-04-5.51696E-05-2.40158E-05 2.79537E-05-1.19948E-18-6.20551E-19
 -1       738 1.24726E-04-1.82948E-05-4.61220E-05-1.20460E-05-3.98693E-18 2.07801E-19
 -1       739 9.20366E-05-1.76120E-05-3.19047E-05-3.18584E-06-8.00394E-19-2.66793E-18
 -1       740 8.88178E-05-1.38924E-05-3.21155E-05-2.51826E-07 6.59784E-19-2.75900E-18
 -1       741 9.52435E-05-2.85447E-05-2.85852E-05-8.43939E-09 1.98298E-18-3.62399E-19
 -1       742 9.52456E-05-2.85553E-05-2.85816E-05-1.64346E-08 6.85110E-19 1.49376E-18
 -1       743 4.70350E-05-1.32878E-05-1.40610E-05 1.10663E-05-8.23925E-19 5.94620E-18
 -1       744 9.43262E-05-2.06878E-05-3.15623E-05-3.97822E-06-1.25431E-18-2.31076E-18
 -1       745 1.24561E-04-1.48011E-05-4.77194E-05-6.01435E-06 4.99876E-18-1.49713E-18
 -1       746 4.68227E-05-1.30687E-05-1.40771E-05-1.24192E-05 9.98129E-19 1.78406E-18
 -1       747 5.96622E-05-2.21393E-05-1.57375E-05 2.67131E-05 1.77644E-18-1.82242E-18
 -1       748 8.94262E-05-1.45607E-05-3.20900E-05-1.19072E-06 1.87000E-19-2.63103E-18
 -1       749 1.10692E-04-5.28791E-05-2.46656E-05-2.59558E-05-2.06671E-18-5.67651E-19
 -1       750 9.52436E-05-2.85456E-05-2.85848E-05 1.03123E-08-1.75397E-18-1.48795E-18
 -1       751 1.14067E-04-1.23042E-05-4.38697E-05 5.79530E-06-2.34469E-18-3.15608E-18
 -1       752 4.69405E-05-1.23772E-05-1.44338E-05 6.58491E-06 2.60703E-19-2.47257E-18
 -1       753 1.25809E-04-4.04931E-05-3.67045E-05-1.10501E-05-1.45307E-18 2.71944E-19
 -1       754 9.37465E-05-2.09738E-05-3.11851E-05 1.17198E-06 1.70719E-18-9.16631E-19
 -1       755 9.44240E-05-2.21372E-05-3.09794E-05-7.83512E-07-9.53102E-19-2.18681E-18
 -1       756 9.52616E-05-2.52877E-05-2.99885E-05 3.55799E-06-5.28877E-19-1.55345E-18
 -1       757 9.54517E-05-2.62551E-05-2.96556E-05 5.19839E-06-6.60720E-19-1.28931E-18
 -1       758 9.57659E-05-2.71994E-05-2.93856E-05 6.56438E-06-4.79339E-19-1.24799E-18
 -1       759 9.64014E-05-2.83759E-05-2.91537E-05 7.67840E-06 2.15113E-19-1.19874E-18
 -1       760 9.75896E-05-3.00364E-05-2.89515E-05 8.50051E-06 6.22950E-19-1.06150E-18
 -1       761 9.96010E-05-3.24082E-05-2.87974E-05 8.89053E-06 3.03139E-19-5.66218E-19
 -1       762 1.02701E-04-3.56100E-05-2.87545E-05 8.55939E-06 4.79050E-20-4.29570E-19
 -1       763 1.07040E-04-3.94821E-05-2.89550E-05 7.01684E-06 2.79771E-19 2.32681E-19
 -1       764 1.12303E-04-4.31795E-05-2.96262E-05 3.58850E-06 6.23355E-19-7.46406E-20
 -1       765 1.17313E-04-4.47839E-05-3.10836E-05-2.21548E-06 3.32816E-19-1.59725E-19
 -1       766 1.19273E-04-4.12838E-05-3.35287E-05-8.71956E-06-5.53940E-19-6.00652E-19
 -1       767 1.09273E-04-1.40184E-05-4.11291E-05 1.09789E-06-2.22958E-18-2.71363E-18
 -1       768 1.17440E-04-3.26008E-05-3.64597E-05 1.32288E-05-1.00671E-18-2.37422E-18
 -1       769 1.19385E-04-4.19267E-05-3.32348E-05 8.73867E-06 5.04320E-19-9.38841E-19
 -1       770 1.16597E-04-4.44578E-05-3.09288E-05 2.06483E-06 7.32778E-19-2.39573E-18
 -1       771 1.11498E-04-4.24889E-05-2.95793E-05-3.26923E-06 1.19789E-19-2.09438E-18
 -1       772 1.06244E-04-3.86869E-05-2.89547E-05-6.35726E-06 3.57870E-19-8.95428E-19
 -1       773 1.01965E-04-3.48680E-05-2.87562E-05-7.66389E-06 8.03734E-19-6.93144E-19
 -1       774 9.88985E-05-3.17822E-05-2.87645E-05-7.84726E-06 1.56008E-18-1.21997E-18
 -1       775 9.68969E-05-2.95895E-05-2.88460E-05-7.40725E-06 1.01154E-18-1.51864E-18
 -1       776 9.56942E-05-2.81859E-05-2.89320E-05-6.65852E-06 9.02399E-19-4.71240E-19
 -1       777 9.50393E-05-2.73891E-05-2.89928E-05-5.78589E-06-2.85591E-19 5.56912E-19
 -1       778 9.47347E-05-2.70194E-05-2.90207E-05-4.89651E-06-1.41786E-19 3.70822E-19
 -1       779 9.46393E-05-2.69286E-05-2.90187E-05-4.05178E-06 9.04666E-19 1.63936E-19
 -1       780 9.46587E-05-2.70053E-05-2.89942E-05-3.28520E-06-9.69718E-19 2.14024E-19
 -1       781 9.47333E-05-2.71713E-05-2.89550E-05-2.61267E-06 2.01182E-19 9.70893E-19
 -1       782 9.48273E-05-2.73749E-05-2.89081E-05-2.03864E-06-1.33444E-18 2.14140E-18
 -1       783 9.49208E-05-2.75836E-05-2.88587E-05-1.56015E-06-2.22237E-19 2.15217E-18
 -1       784 9.50039E-05-2.77788E-05-2.88107E-05-1.16967E-06-5.81809E-19 4.98427E-19
 -1       785 9.50728E-05-2.79511E-05-2.87664E-05-8.57223E-07 1.15436E-20-1.78674E-19
 -1       786 9.51270E-05-2.80969E-05-2.87272E-05-6.11851E-07 5.81466E-19 1.60143E-18
 -1       787 9.51676E-05-2.82164E-05-2.86933E-05-4.22671E-07 5.13564E-19 1.66839E-18
 -1       788 9.51967E-05-2.83119E-05-2.86649E-05-2.79550E-07-6.51810E-19 1.07313E-18
 -1       789 9.52166E-05-2.83865E-05-2.86414E-05-1.73504E-07 4.39101E-19 1.03926E-18
 -1       790 9.52294E-05-2.84441E-05-2.86223E-05-9.68100E-08 1.87800E-18-1.69540E-18
 -1       791 9.52372E-05-2.84884E-05-2.86066E-05-4.34504E-08 1.98721E-18-1.16627E-18
 -1       792 9.52416E-05-2.85205E-05-2.85948E-05-1.09310E-08 2.34875E-20-7.97827E-19
 -1       793 9.44730E-05-2.48982E-05-2.98175E-05-5.87924E-06 8.16158E-19-6.67639E-19
 -1       794 9.30845E-05-2.61824E-05-2.86718E-05-1.32667E-05-1.38519E-19-3.15748E-19
 -1       795 9.30887E-05-2.52523E-05-2.90721E-05-1.13245E-05 2.63164E-19-6.19716E-19
 -1       796 9.68648E-05-3.27266E-05-2.74858E-05-1.75790E-05-1.28581E-18 2.59492E-19
 -1       797 1.03033E-04-3.99167E-05-2.69816E-05-1.93815E-05-1.88188E-18 1.05304E-19
 -1       798 1.13978E-04-5.25759E-05-2.62725E-05 2.11127E-05 1.59169E-18 5.65064E-20
 -1       799 9.89403E-05-3.46149E-05-2.75639E-05 1.69952E-05-1.23081E-18-7.44552E-19
 -1       800 9.50733E-05-2.94083E-05-2.81366E-05 1.49608E-05-9.12233E-19 5.26434E-20
 -1       801 9.35143E-05-2.66425E-05-2.86580E-05 1.28270E-05-6.94951E-19 3.56008E-19
 -1       802 9.31402E-05-2.54292E-05-2.90183E-05 1.08481E-05-1.05204E-18-3.47915E-19
 -1       803 9.33116E-05-2.51238E-05-2.92227E-05 9.06991E-06-8.05062E-19-5.65505E-19
 -1       804 9.36751E-05-2.52930E-05-2.93060E-05 7.49103E-06 1.07695E-18-8.14535E-19
 -1       805 9.40594E-05-2.56759E-05-2.93067E-05 6.10463E-06 7.53634E-19-4.71408E-19
 -1       806 9.43932E-05-2.61260E-05-2.92569E-05 4.90480E-06-4.15202E-19-1.40804E-18
 -1       807 9.46562E-05-2.65672E-05-2.91807E-05 3.88351E-06 7.25364E-19-2.01838E-18
 -1       808 9.48514E-05-2.69643E-05-2.90942E-05 3.02893E-06-2.84948E-19-1.53315E-18
 -1       809 9.49902E-05-2.73048E-05-2.90078E-05 2.32573E-06-1.57562E-18-5.13413E-19
 -1       810 9.50857E-05-2.75878E-05-2.89275E-05 1.75635E-06-1.80093E-19-8.74120E-20
 -1       811 9.51496E-05-2.78179E-05-2.88563E-05 1.30246E-06-7.26998E-19 7.22090E-19
 -1       812 9.51911E-05-2.80019E-05-2.87953E-05 9.46081E-07-2.80882E-19 2.06941E-18
 -1       813 9.52172E-05-2.81469E-05-2.87443E-05 6.70478E-07-7.38829E-19 2.32574E-18
 -1       814 9.52328E-05-2.82597E-05-2.87027E-05 4.60615E-07-1.56660E-18 2.44200E-18
 -1       815 9.52415E-05-2.83464E-05-2.86693E-05 3.03410E-07-3.09376E-19 9.10835E-19
 -1       816 9.52458E-05-2.84123E-05-2.86429E-05 1.87770E-07 6.16027E-19 1.18193E-18
 -1       817 9.52472E-05-2.84622E-05-2.86222E-05 1.04552E-07-3.67634E-19 4.35194E-18
 -1       818 9.52472E-05-2.84998E-05-2.86060E-05 4.68158E-08-3.27484E-20 4.56400E-18
 -1       819 9.52464E-05-2.85287E-05-2.85933E-05 8.55683E-09-4.01038E-20 3.65454E-18
 -1       820 9.52455E-05-2.85421E-05-2.85872E-05-6.42546E-09 6.61879E-19 3.30484E-18
 -1       821 1.18914E-04-2.66238E-05-3.98024E-05 1.46078E-05-1.21053E-18-2.98001E-18
 -1       822 9.00128E-05-1.64813E-05-3.15144E-05 5.70276E-07 9.10074E-19-2.33851E-18
 -1       823 1.20709E-04-5.35636E-05-2.87294E-05 1.35215E-05-9.53415E-19-1.90696E-18
 -1       824 9.52115E-05-2.84704E-05-2.86033E-05 1.25395E-09 2.41449E-18-3.22651E-18
 -1       825 9.52321E-05-2.85044E-05-2.85976E-05-1.06732E-08 1.01725E-18-1.46706E-18
 -1       826 9.52140E-05-2.84745E-05-2.86026E-05-6.08538E-09 1.53756E-18-1.83725E-18
 -1       827 7.03903E-05-2.76850E-05-1.80817E-05 2.77891E-05-1.15017E-18 2.60198E-18
 -1       828 9.48177E-05-4.41819E-05-2.15556E-05-3.17507E-05 3.59759E-18-1.25043E-18
 -1       829 1.26434E-04-5.39048E-05-3.11222E-05 5.20227E-06 8.65458E-21 1.45927E-18
 -1       830 5.83987E-05-1.92781E-05-1.64612E-05-2.09624E-05-7.60239E-19-3.10440E-18
 -1       831 9.52216E-05-2.84865E-05-2.86008E-05-1.09163E-08 3.89730E-19 1.28022E-19
 -1       832 1.06639E-04-4.29839E-05-2.72147E-05 1.80251E-05-7.26354E-19-8.58264E-19
 -1       833 1.26431E-04-4.21958E-05-3.62360E-05 1.04061E-05 3.22739E-19-2.87574E-18
 -1       834 9.40178E-05-2.83839E-05-2.81287E-05-1.53822E-05-3.16387E-19 2.82063E-19
 -1       835 1.12449E-04-1.60929E-05-4.16042E-05-8.25279E-06-2.83670E-18-1.61000E-18
 -1       836 1.27090E-04-5.41271E-05-3.13516E-05-5.40016E-06 1.27544E-18-4.56222E-18
 -1       837 1.17964E-04-5.46862E-05-2.70616E-05-1.96605E-05 3.03643E-18-3.05178E-18
 -1       838 9.50086E-05-2.40414E-05-3.04160E-05 1.57330E-06-8.71175E-19-1.90072E-18
 -1       839 7.95645E-05-3.26953E-05-1.98280E-05-2.93809E-05-1.61541E-18-3.15288E-18
 -1       840 9.33808E-05-2.00352E-05-3.14345E-05-2.07020E-06-8.16700E-19-2.50529E-18
 -1       841 7.17367E-05-2.87684E-05-1.81878E-05-3.00186E-05 2.03452E-18-6.66112E-19
 -1       842 9.50724E-05-2.31783E-05-3.08116E-05 3.81991E-07 1.59716E-18-4.83999E-19
 -1       843 9.15176E-05-4.06447E-05-2.16667E-05 3.01166E-05 2.39405E-18-1.78175E-18
 -1       844 1.20232E-04-2.71737E-05-4.00411E-05-1.39280E-05-2.33364E-18-5.85842E-19
 -1       845 9.85218E-05-4.34531E-05-2.34383E-05 2.68698E-05-1.48769E-18-6.63319E-19
 -1       846 8.98284E-05-1.62746E-05-3.15244E-05 2.95176E-07 6.35239E-19-2.46887E-18
 -1       847 9.20951E-05-1.88841E-05-3.13759E-05 1.04066E-06 1.50685E-18-1.53663E-18
 -1       848 7.90151E-05-3.04000E-05-2.06959E-05 2.70795E-05 1.47775E-18-1.92148E-18
 -1       849 9.07833E-05-1.73493E-05-3.14727E-05 8.09653E-07 1.16808E-18-1.71242E-18
 -1       850 9.52344E-05-2.85059E-05-2.85980E-05 1.16076E-08-1.18715E-18-2.03239E-18
 -1       851 9.52162E-05-2.44442E-05-3.03305E-05-2.25341E-06 1.20891E-18-7.26675E-19
 -1       852 9.11540E-05-1.77514E-05-3.14591E-05-4.75803E-07-6.63335E-20-2.26621E-18
 -1       853 9.34903E-05-2.49823E-05-2.93599E-05-9.50151E-06 2.05688E-19-7.16693E-19
 -1       854 9.21435E-05-1.86999E-05-3.14774E-05-1.19843E-06-4.62170E-19-2.25022E-18
 -1       855 5.40220E-05-1.36008E-05-1.71046E-05-7.23602E-06-1.01546E-19-2.33696E-18
 -1       856 9.52235E-05-2.84877E-05-2.86011E-05 1.25885E-08 1.96801E-19-2.32274E-18
 -1       857 9.52150E-05-2.84751E-05-2.86028E-05 8.50644E-09 8.33351E-20-3.04763E-18
 -1       858 6.21542E-05-1.90821E-05-1.82636E-05 1.90908E-05-1.32255E-18 4.67202E-18
 -1       859 9.49493E-05-2.48287E-05-3.00511E-05-4.18098E-06 9.27418E-19-6.52374E-19
 -1       860 5.12886E-05-1.21082E-05-1.65563E-05-6.27281E-07-2.00272E-19 3.55809E-18
 -1       861 6.29202E-05-1.99955E-05-1.81929E-05-2.13229E-05 7.38983E-19-5.07187E-19
 -1       862 9.40011E-05-2.49595E-05-2.95887E-05-7.71831E-06 7.08108E-19-5.86660E-19
 -1       863 9.52368E-05-2.85113E-05-2.85966E-05-1.16366E-08-6.16168E-19-1.66374E-18
 -1       864 9.39956E-05-2.53521E-05-2.94186E-05 5.76350E-06-3.63897E-19-1.11673E-18
 -1       865 9.40942E-05-2.63717E-05-2.90239E-05 7.26777E-06-1.04069E-19-8.37901E-19
 -1       866 9.45514E-05-2.77321E-05-2.86368E-05 8.73029E-06 3.90769E-19-8.78490E-19
 -1       867 9.56949E-05-2.97568E-05-2.82592E-05 1.01465E-05 4.87257E-19-1.78485E-18
 -1       868 9.79505E-05-3.27805E-05-2.79298E-05 1.13928E-05 5.44729E-19-1.51469E-18
 -1       869 1.01808E-04-3.70372E-05-2.77538E-05 1.20997E-05 8.41740E-19-8.59884E-19
 -1       870 1.07754E-04-4.24753E-05-2.79833E-05 1.14261E-05 5.80503E-19-6.86196E-20
 -1       871 1.15735E-04-4.80179E-05-2.90080E-05 8.22305E-06 6.99988E-19 5.16095E-19
 -1       872 1.22604E-04-4.99285E-05-3.11616E-05-1.33000E-06 2.79738E-19-3.06632E-18
 -1       873 1.14225E-04-4.69657E-05-2.88249E-05-8.07498E-06 1.58943E-18-1.89769E-18
 -1       874 1.06505E-04-4.13925E-05-2.78935E-05-1.09565E-05 5.42057E-19-4.29708E-19
 -1       875 1.00692E-04-3.60384E-05-2.77062E-05-1.12746E-05-3.03535E-19-6.30163E-19
 -1       876 9.68723E-05-3.19062E-05-2.78428E-05-1.04208E-05 1.13051E-18-7.84720E-19
 -1       877 9.46271E-05-2.90885E-05-2.80875E-05-9.14312E-06 1.15870E-18-5.97318E-19
 -1       878 9.34617E-05-2.73431E-05-2.83362E-05-7.79126E-06 1.26614E-18-1.46236E-18
 -1       879 9.29911E-05-2.63912E-05-2.85426E-05-6.51655E-06 1.61122E-18-4.17532E-19
 -1       880 9.29389E-05-2.59882E-05-2.86930E-05-5.37188E-06-1.36717E-19-7.87749E-20
 -1       881 9.31169E-05-2.59405E-05-2.87898E-05-4.37050E-06-1.81196E-19-5.77215E-19
 -1       882 9.34033E-05-2.61050E-05-2.88421E-05-3.50944E-06-1.22571E-18-3.02964E-18
 -1       883 9.37230E-05-2.63814E-05-2.88606E-05-2.77966E-06 9.72841E-19-2.09477E-18
 -1       884 9.40326E-05-2.67027E-05-2.88556E-05-2.16983E-06 6.51416E-19-1.80510E-18
 -1       885 9.43094E-05-2.70263E-05-2.88356E-05-1.66751E-06 3.20275E-20 2.64893E-19
 -1       886 9.45439E-05-2.73273E-05-2.88071E-05-1.25979E-06-1.74398E-18 1.39490E-19
 -1       887 9.47347E-05-2.75929E-05-2.87751E-05-9.33758E-07-6.13465E-19 7.26502E-19
 -1       888 9.48846E-05-2.78184E-05-2.87427E-05-6.76985E-07 1.55607E-18 1.12140E-18
 -1       889 9.49987E-05-2.80040E-05-2.87120E-05-4.77896E-07 5.68284E-19 8.84647E-19
 -1       890 9.50828E-05-2.81530E-05-2.86842E-05-3.26023E-07-9.51395E-19 2.87532E-19
 -1       891 9.51428E-05-2.82700E-05-2.86597E-05-2.12220E-07-3.90346E-20 2.66696E-19
 -1       892 9.51839E-05-2.83603E-05-2.86387E-05-1.28832E-07-5.23546E-19 4.83972E-19
 -1       893 9.52110E-05-2.84298E-05-2.86206E-05-6.89689E-08 1.34945E-18 5.58490E-19
 -1       894 9.02276E-05-1.67112E-05-3.15089E-05-4.69486E-08 3.39345E-19-2.34583E-18
 -1       895 8.55366E-05-3.12021E-05-2.31771E-05 2.35209E-05-9.86598E-19 7.36022E-19
 -1       896 8.68193E-05-2.99909E-05-2.43165E-05-2.14762E-05-1.19691E-18-9.26624E-19
 -1       897 8.63482E-05-2.38284E-05-2.67927E-05 1.36673E-05-8.54401E-19-6.17269E-19
 -1       898 8.63739E-05-2.66200E-05-2.55885E-05 1.74694E-05-1.05451E-18 3.79202E-19
 -1       899 8.86776E-05-2.27501E-05-2.82545E-05 8.98116E-06-5.73765E-19-1.18719E-18
 -1       900 8.99883E-05-2.31927E-05-2.86265E-05 7.38893E-06-6.72096E-19-5.75257E-19
 -1       901 9.11547E-05-2.38564E-05-2.88420E-05 6.06651E-06-1.05653E-20-2.03148E-19
 -1       902 9.21312E-05-2.45818E-05-2.89496E-05 4.94143E-06 1.39805E-18-1.01127E-18
 -1       903 9.29172E-05-2.52817E-05-2.89866E-05 3.97912E-06-2.73724E-19-1.47503E-18
 -1       904 9.35325E-05-2.59129E-05-2.89798E-05 3.16090E-06-4.73298E-19-7.83413E-19
 -1       905 9.40043E-05-2.64588E-05-2.89481E-05 2.47351E-06-1.21461E-18-1.33759E-18
 -1       906 9.43602E-05-2.69175E-05-2.89040E-05 1.90453E-06-5.48605E-19-2.21161E-18
 -1       907 9.46248E-05-2.72947E-05-2.88558E-05 1.44101E-06-1.07668E-18-6.71763E-19
 -1       908 9.48189E-05-2.75995E-05-2.88083E-05 1.06946E-06-1.56555E-18-6.80787E-19
 -1       909 9.49591E-05-2.78419E-05-2.87645E-05 7.76399E-07-1.22854E-18 4.61957E-19
 -1       910 9.50588E-05-2.80320E-05-2.87257E-05 5.48985E-07-1.66632E-18 7.61697E-19
 -1       911 9.51281E-05-2.81792E-05-2.86924E-05 3.75460E-07-4.85981E-19 7.23403E-19
 -1       912 9.51750E-05-2.82916E-05-2.86643E-05 2.45408E-07-7.22545E-20 6.30502E-19
 -1       913 9.52058E-05-2.83767E-05-2.86410E-05 1.49861E-07-1.94960E-19 1.18738E-20
 -1       914 9.52248E-05-2.84407E-05-2.86218E-05 8.11262E-08 8.01055E-19-2.80523E-18
 -1       915 9.52357E-05-2.84881E-05-2.86061E-05 3.39206E-08-2.57433E-19-2.12908E-18
 -1       916 1.03226E-04-4.38193E-05-2.54358E-05 2.10778E-05 1.35753E-18-9.69456E-19
 -1       917 8.81618E-05-3.57646E-05-2.23819E-05-2.62086E-05 2.26578E-18-2.15638E-18
 -1       918 9.52421E-05-2.85254E-05-2.85928E-05 3.79518E-09 4.66500E-19-7.61968E-19
 -1       919 9.51870E-05-2.84142E-05-2.86169E-05-7.91830E-09 3.41842E-19-3.16980E-18
 -1       920 1.06017E-04-4.63925E-05-2.54884E-05-2.13455E-05 2.21603E-18-8.39650E-19
 -1       921 8.73615E-05-2.28076E-05-2.76656E-05 1.09870E-05-9.95686E-19-1.16733E-18
 -1       922 8.81203E-05-2.28841E-05-2.79584E-05-1.11184E-05-6.28599E-20-1.09891E-18
 -1       923 9.40016E-05-2.43785E-05-2.98383E-05 4.17059E-06-3.09967E-19-1.46605E-18
 -1       924 9.99263E-05-4.46926E-05-2.34905E-05-2.66586E-05-2.20352E-18-1.27485E-18
 -1       925 9.39002E-05-2.31843E-05-3.03068E-05 2.41931E-06-4.56944E-19-1.53093E-18
 -1       926 9.22077E-05-2.32671E-05-2.95458E-05-5.88495E-06 8.45404E-19-9.27604E-19
 -1       927 1.17137E-04-5.10685E-05-2.82932E-05-1.23454E-05 1.44585E-18-2.03206E-18
 -1       928 9.31839E-05-2.06855E-05-3.10689E-05-2.17368E-07-5.50243E-19-2.08840E-18
 -1       929 6.12584E-05-1.70327E-05-1.88062E-05 1.49669E-05 7.64264E-19-1.33063E-18
 -1       930 7.39907E-05-2.40826E-05-2.12543E-05-2.14541E-05-8.95342E-19-2.61744E-18
 -1       931 9.41476E-05-2.27312E-05-3.06070E-05-1.32365E-06 1.40347E-18-7.91766E-19
 -1       932 9.32445E-05-3.65328E-05-2.42366E-05 2.25055E-05 1.53802E-18-1.43145E-18
 -1       933 9.52272E-05-2.84756E-05-2.86078E-05-3.66348E-08 2.03404E-18-1.44756E-18
 -1       934 8.59394E-05-2.55417E-05-2.58717E-05-1.68494E-05-4.71308E-19-1.11221E-18
 -1       935 6.09378E-05-1.42866E-05-1.98872E-05 3.65526E-06 5.65169E-19-1.52349E-18
 -1       936 8.96449E-05-2.28773E-05-2.86148E-05-9.20154E-06 3.37876E-19-9.02133E-19
 -1       937 9.20439E-05-1.95266E-05-3.10769E-05 2.55315E-07-2.30052E-19-2.10737E-18
 -1       938 9.09487E-05-1.82925E-05-3.11390E-05 3.79187E-07 2.25791E-19-2.06555E-18
 -1       939 9.51958E-05-2.84268E-05-2.86153E-05-2.37334E-08-2.42378E-19-1.75965E-18
 -1       940 9.51878E-05-2.84147E-05-2.86171E-05 1.02394E-08-5.52093E-19-1.64095E-18
 -1       941 8.67295E-05-2.35587E-05-2.70708E-05-1.35407E-05-4.84865E-19-1.14720E-18
 -1       942 5.98701E-05-1.46590E-05-1.92450E-05 9.27250E-06-6.45821E-19 5.02654E-18
 -1       943 6.00888E-05-1.53357E-05-1.90456E-05-1.18160E-05 3.25872E-19-1.24037E-19
 -1       944 9.10502E-05-2.31049E-05-2.91193E-05-7.51858E-06 1.88639E-19-9.38339E-19
 -1       945 9.08293E-05-1.86603E-05-3.09301E-05-8.66376E-08 9.48122E-19-1.80221E-18
 -1       946 9.30342E-05-2.31260E-05-2.99605E-05-4.16738E-06 7.76876E-19-8.34787E-19
 -1       947 9.52148E-05-2.84519E-05-2.86127E-05 3.54059E-08 9.07410E-20-1.12337E-18
 -1       948 9.15261E-05-3.55667E-05-2.39115E-05-2.42398E-05-1.70471E-18-1.00504E-18
 -1       949 6.66434E-05-1.74884E-05-2.09442E-05-1.32737E-05-3.52971E-19-2.40170E-18
 -1       950 7.76722E-05-2.71709E-05-2.15533E-05-2.30227E-05 1.68207E-18-1.52037E-18
 -1       951 9.04010E-05-1.81850E-05-3.09489E-05 2.74311E-07 6.86370E-19-2.02366E-18
 -1       952 9.52145E-05-2.84557E-05-2.86109E-05-3.27824E-08-2.29487E-19-8.77750E-19
 -1       953 9.20671E-05-2.42983E-05-2.90440E-05 6.00386E-06-1.46185E-19-1.06361E-18
 -1       954 9.18490E-05-1.98041E-05-3.08781E-05-4.60341E-07 1.08128E-18-1.47200E-18
 -1       955 9.17440E-05-2.52324E-05-2.85054E-05 7.71067E-06 8.37846E-21-1.04882E-18
 -1       956 9.17428E-05-2.65774E-05-2.79285E-05 9.66624E-06-3.85137E-20-1.28752E-18
 -1       957 9.24526E-05-2.87254E-05-2.73122E-05 1.19613E-05 5.18427E-19-1.60122E-18
 -1       958 9.44554E-05-3.21642E-05-2.66939E-05 1.45729E-05 1.10733E-18-1.50857E-18
 -1       959 1.06778E-04-4.38718E-05-2.69334E-05-1.50580E-05 1.98982E-18-9.97653E-19
 -1       960 9.72892E-05-3.61823E-05-2.61903E-05-1.62581E-05 3.60991E-19-3.85089E-19
 -1       961 9.32082E-05-3.11047E-05-2.66158E-05-1.36069E-05 1.06382E-18 2.55775E-20
 -1       962 9.11923E-05-2.78926E-05-2.71280E-05-1.10615E-05 7.63818E-19-6.20176E-19
 -1       963 9.04430E-05-2.60228E-05-2.76082E-05-8.83613E-06 5.51019E-19-1.19655E-18
 -1       964 9.04106E-05-2.50727E-05-2.80018E-05-7.02646E-06 1.99649E-18-9.64353E-19
 -1       965 9.07743E-05-2.47403E-05-2.83004E-05-5.56876E-06 7.29625E-19-1.05591E-18
 -1       966 9.13288E-05-2.48004E-05-2.85122E-05-4.39904E-06-8.79295E-19-7.56054E-19
 -1       967 9.19469E-05-2.50914E-05-2.86524E-05-3.45833E-06-1.04648E-18-5.14865E-19
 -1       968 9.25538E-05-2.55014E-05-2.87368E-05-2.70016E-06-2.59419E-19 2.85935E-19
 -1       969 9.31084E-05-2.59551E-05-2.87801E-05-2.08950E-06 1.65258E-18-2.14929E-19
 -1       970 9.35907E-05-2.64039E-05-2.87944E-05-1.59947E-06 1.50053E-18-4.79233E-19
 -1       971 9.39948E-05-2.68191E-05-2.87896E-05-1.20869E-06-9.20723E-19-8.58248E-19
 -1       972 9.43227E-05-2.71855E-05-2.87731E-05-8.99657E-07-1.12718E-18 1.57999E-19
 -1       973 9.45817E-05-2.74976E-05-2.87503E-05-6.57702E-07 8.06597E-19 2.53627E-19
 -1       974 9.47809E-05-2.77559E-05-2.87250E-05-4.70425E-07 1.35162E-18 8.91925E-19
 -1       975 9.49302E-05-2.79644E-05-2.86996E-05-3.27354E-07 5.06798E-19 1.11457E-18
 -1       976 9.50388E-05-2.81291E-05-2.86756E-05-2.19485E-07-1.19511E-18 2.19794E-18
 -1       977 9.51157E-05-2.82571E-05-2.86537E-05-1.39890E-07-1.27705E-19 1.37008E-18
 -1       978 9.51679E-05-2.83548E-05-2.86341E-05-8.13023E-08 7.21838E-19 7.64641E-19
 -1       979 7.73452E-05-1.99421E-05-2.45839E-05 1.24657E-05-2.16265E-19 3.32665E-18
 -1       980 8.80665E-05-2.20534E-05-2.82917E-05 5.14623E-06 4.00349E-19-3.19992E-19
 -1       981 8.60559E-05-2.10912E-05-2.78427E-05 6.19461E-06-8.65523E-19-2.71854E-20
 -1       982 9.10149E-05-2.39690E-05-2.87342E-05 3.51822E-06 4.79939E-19-6.27623E-19
 -1       983 9.20551E-05-2.48130E-05-2.88182E-05 2.86017E-06 1.30039E-19-1.41762E-18
 -1       984 9.28694E-05-2.55510E-05-2.88509E-05 2.28970E-06 1.14943E-19-9.85919E-19
 -1       985 9.34997E-05-2.61799E-05-2.88515E-05 1.80231E-06-1.22239E-18-1.72947E-18
 -1       986 9.39819E-05-2.67046E-05-2.88332E-05 1.39330E-06-2.16294E-18-1.46782E-18
 -1       987 9.43463E-05-2.71346E-05-2.88051E-05 1.05652E-06-1.39183E-18 7.24841E-19
 -1       988 9.46181E-05-2.74813E-05-2.87730E-05 7.84368E-07-1.71623E-18 1.95067E-18
 -1       989 9.48178E-05-2.77566E-05-2.87405E-05 5.68462E-07-5.72085E-19 1.67909E-18
 -1       990 9.49620E-05-2.79722E-05-2.87099E-05 4.00300E-07-1.11168E-18-1.37292E-18
 -1       991 9.50639E-05-2.81386E-05-2.86823E-05 2.71791E-07-5.27612E-20-2.39319E-18
 -1       992 9.51341E-05-2.82654E-05-2.86580E-05 1.75801E-07 4.81281E-19-1.99466E-18
 -1       993 9.51809E-05-2.83611E-05-2.86370E-05 1.05098E-07 1.28634E-18-1.82949E-18
 -1       994 7.11622E-05-1.94304E-05-2.20937E-05 1.52057E-05-6.19593E-19 4.09374E-18
 -1       995 9.10910E-05-2.18519E-05-2.96742E-05-3.78020E-06 8.13419E-19-1.08121E-18
 -1       996 9.93042E-05-3.76615E-05-2.64007E-05 1.67340E-05 1.54569E-18-1.14087E-18
 -1       997 8.07027E-05-1.97694E-05-2.61151E-05 9.48087E-06-3.41703E-19 2.11718E-18
 -1       998 9.51983E-05-2.84283E-05-2.86157E-05 2.62713E-08 8.27138E-19-3.22094E-18
 -1       999 9.24370E-05-2.34525E-05-2.95645E-05 4.43565E-06-9.68191E-20-1.09933E-18
 -1      1000 9.04668E-05-1.80081E-05-3.10533E-05 4.66388E-07 5.24524E-19-2.27865E-18
 -1      1001 8.97013E-05-2.17475E-05-2.91232E-05-5.03571E-06 6.07002E-19-8.48361E-19
 -1      1002 9.26313E-05-2.24164E-05-3.00947E-05 2.89979E-06-1.97452E-19-1.44757E-18
 -1      1003 8.36133E-05-2.02614E-05-2.71516E-05 7.55048E-06-7.96593E-19 7.08804E-19
 -1      1004 7.51886E-05-2.35633E-05-2.20796E-05 1.87221E-05 7.81100E-19-1.67338E-18
 -1      1005 9.37350E-05-2.30822E-05-3.02800E-05-2.87307E-06 9.64193E-19-8.22194E-19
 -1      1006 8.97021E-05-2.30362E-05-2.85714E-05 4.27260E-06 1.29753E-18-1.20013E-18
 -1      1007 9.18909E-05-2.05120E-05-3.05918E-05 1.44218E-06 3.87762E-21-1.94528E-18
 -1      1008 7.72599E-05-2.20522E-05-2.36135E-05-1.65218E-05-9.39204E-19-1.80693E-18
 -1      1009 9.12101E-05-2.03213E-05-3.03797E-05-1.27980E-06 8.76173E-19-1.41766E-18
 -1      1010 9.19329E-05-2.14462E-05-3.02083E-05-2.37988E-06 1.00868E-18-1.09162E-18
 -1      1011 9.51453E-05-2.83163E-05-2.86410E-05 7.83459E-08 1.72847E-19-2.18735E-18
 -1      1012 7.01381E-05-1.83535E-05-2.21821E-05 1.12990E-05 5.13469E-19-1.00986E-18
 -1      1013 8.53582E-05-2.07256E-05-2.77002E-05-7.57433E-06 3.95805E-19-1.08874E-18
 -1      1014 9.51483E-05-2.83399E-05-2.86322E-05 1.99178E-09-1.44270E-18-1.02243E-18
 -1      1015 9.05020E-05-1.95955E-05-3.03875E-05-2.67185E-07 7.15267E-19-1.81050E-18
 -1      1016 9.51547E-05-2.83487E-05-2.86312E-05-3.15561E-08-6.30885E-19-2.60097E-18
 -1      1017 8.80926E-05-3.02784E-05-2.47592E-05-1.81552E-05 1.29894E-19-1.24320E-18
 -1      1018 8.23844E-05-2.02370E-05-2.66364E-05-9.25381E-06-8.92913E-20-1.28559E-18
 -1      1019 6.14301E-05-1.37876E-05-2.03349E-05-1.76512E-06 2.59770E-19 2.21217E-18
 -1      1020 7.14507E-05-2.11045E-05-2.14808E-05-1.71833E-05 4.79663E-19-1.76143E-18
 -1      1021 8.77908E-05-2.13096E-05-2.84922E-05-6.25234E-06 4.07171E-19-1.20848E-18
 -1      1022 8.96555E-05-2.30250E-05-2.85568E-05 5.72651E-06-6.69827E-20-1.27470E-18
 -1      1023 8.86108E-05-2.36471E-05-2.78433E-05 7.62865E-06-7.23042E-20-1.26102E-18
 -1      1024 8.76848E-05-2.46528E-05-2.70155E-05 1.01084E-05 1.26230E-19-1.26181E-18
 -1      1025 8.71952E-05-2.64387E-05-2.60388E-05 1.34106E-05 9.30165E-19-7.86861E-19
 -1      1026 8.51747E-05-2.05244E-05-2.77089E-05 3.23067E-06-1.76277E-19 3.66400E-19
 -1      1027 7.39596E-05-1.68220E-05-2.44773E-05 5.35861E-06 1.04577E-18 3.42506E-18
 -1      1028 7.87778E-05-2.00908E-05-2.51479E-05-1.17337E-05-2.74950E-19-1.25876E-18
 -1      1029 9.04723E-05-2.09720E-05-2.97864E-05-2.26665E-06 9.09568E-19-1.09061E-18
 -1      1030 8.59566E-05-2.55155E-05-2.59011E-05-1.26264E-05 7.39537E-19-2.25230E-18
 -1      1031 8.63441E-05-2.39785E-05-2.67272E-05-9.42409E-06 5.82750E-19-2.36725E-18
 -1      1032 8.71871E-05-2.33201E-05-2.73721E-05-7.07473E-06 1.17135E-18-1.62750E-18
 -1      1033 8.82259E-05-2.32343E-05-2.78542E-05-5.32600E-06 2.10873E-18-1.87857E-18
 -1      1034 8.93113E-05-2.35118E-05-2.82003E-05-4.03002E-06 4.20002E-19-9.05976E-19
 -1      1035 9.03474E-05-2.39908E-05-2.84389E-05-3.05743E-06-3.14494E-20 7.86748E-19
 -1      1036 9.12898E-05-2.45678E-05-2.85955E-05-2.31902E-06-1.12260E-18 7.78861E-20
 -1      1037 9.21163E-05-2.51713E-05-2.86910E-05-1.75419E-06 7.46093E-19 3.36455E-19
 -1      1038 9.28195E-05-2.57542E-05-2.87425E-05-1.32014E-06-3.02955E-19-9.10705E-19
 -1      1039 9.34023E-05-2.62880E-05-2.87635E-05-9.85998E-07 2.07014E-19-2.82051E-18
 -1      1040 9.38740E-05-2.67577E-05-2.87643E-05-7.28974E-07 2.54590E-20-1.79014E-18
 -1      1041 9.42472E-05-2.71582E-05-2.87525E-05-5.31911E-07-2.86218E-19 4.82281E-19
 -1      1042 9.45359E-05-2.74907E-05-2.87338E-05-3.81636E-07 1.77369E-18 6.19119E-19
 -1      1043 9.47544E-05-2.77604E-05-2.87118E-05-2.67871E-07 1.54535E-18-2.40069E-19
 -1      1044 9.49161E-05-2.79749E-05-2.86891E-05-1.82907E-07 4.20838E-19 7.67853E-19
 -1      1045 9.50325E-05-2.81427E-05-2.86671E-05-1.18684E-07-1.15759E-18 1.26528E-18
 -1      1046 9.51124E-05-2.82698E-05-2.86468E-05-7.34244E-08-8.47860E-19-1.29186E-18
 -1      1047 6.73049E-05-1.55220E-05-2.21533E-05 6.61899E-06-8.49618E-19 3.60927E-18
 -1      1048 8.86700E-05-3.01946E-05-2.50551E-05 1.77724E-05 1.33016E-18-1.04317E-18
 -1      1049 9.17230E-05-2.46882E-05-2.87297E-05 1.72889E-06-1.04637E-18-2.24192E-19
 -1      1050 9.06009E-05-2.38014E-05-2.86290E-05 2.07839E-06 7.20981E-19-1.46911E-18
 -1      1051 9.32954E-05-2.61094E-05-2.87943E-05 1.12046E-06-7.83634E-19 1.37890E-19
 -1      1052 9.38268E-05-2.66532E-05-2.87889E-05 8.72747E-07-2.16376E-18-1.72771E-18
 -1      1053 9.42317E-05-2.70986E-05-2.87715E-05 6.64561E-07-1.47806E-18-2.87554E-18
 -1      1054 9.45358E-05-2.74576E-05-2.87480E-05 4.93946E-07-1.37167E-18-1.62464E-18
 -1      1055 9.47604E-05-2.77423E-05-2.87222E-05 3.57252E-07 2.05319E-20 3.28745E-19
 -1      1056 9.49235E-05-2.79651E-05-2.86966E-05 2.50091E-07 8.85875E-19-4.35817E-19
 -1      1057 9.50383E-05-2.81357E-05-2.86726E-05 1.68847E-07 2.96589E-19-1.73450E-18
 -1      1058 9.50987E-05-2.82343E-05-2.86562E-05 1.18742E-07 4.63368E-19-2.51683E-18
 -1      1059 8.90660E-05-2.09996E-05-2.91719E-05-3.12167E-06 6.68368E-19-1.08637E-18
 -1      1060 9.05995E-05-2.24780E-05-2.91949E-05 4.19893E-06-2.14727E-19-1.59139E-18
 -1      1061 9.12690E-05-2.17483E-05-2.97944E-05 2.86725E-06 4.44981E-20-1.79222E-18
 -1      1062 9.51398E-05-2.83196E-05-2.86372E-05 3.71936E-08 3.85880E-19-4.67895E-18
 -1      1063 6.84583E-05-1.57843E-05-2.25658E-05-4.20728E-06 1.50712E-19-1.48305E-18
 -1      1064 8.23662E-05-1.93110E-05-2.70251E-05 3.68589E-06 3.84620E-19 1.10093E-18
 -1      1065 7.87478E-05-1.80741E-05-2.60038E-05 4.31994E-06 2.05239E-19 1.77716E-18
 -1      1066 9.26064E-05-2.54568E-05-2.87788E-05 1.40714E-06-3.93446E-19 1.21183E-18
 -1      1067 7.99177E-05-2.30601E-05-2.43388E-05 1.39925E-05 8.24378E-19-1.11271E-18
 -1      1068 7.22206E-05-1.68309E-05-2.37324E-05 3.40645E-06 1.81904E-19-1.19405E-18
 -1      1069 8.74078E-05-2.17008E-05-2.81613E-05 2.82737E-06 6.79880E-19-8.55508E-20
 -1      1070 9.10137E-05-1.98234E-05-3.05099E-05 1.20213E-06 2.44744E-19-1.86207E-18
 -1      1071 8.91857E-05-2.28012E-05-2.84514E-05 2.44647E-06 1.44469E-18 4.67971E-19
 -1      1072 8.70202E-05-2.05762E-05-2.84774E-05-3.84937E-06 6.43017E-19-1.11203E-18
 -1      1073 9.04671E-05-1.95457E-05-3.03930E-05 6.30622E-07 3.52329E-19-2.01294E-18
 -1      1074 9.50860E-05-2.82350E-05-2.86504E-05 1.22927E-08-5.70070E-20-2.95124E-18
 -1      1075 6.77355E-05-1.67392E-05-2.18137E-05-9.73719E-06 1.46163E-19-5.52495E-19
 -1      1076 8.42794E-05-1.98276E-05-2.76235E-05-4.53722E-06 3.87407E-19-1.14291E-18
 -1      1077 7.35126E-05-1.77974E-05-2.38631E-05-8.80223E-06-8.45550E-20-1.13618E-18
 -1      1078 8.06824E-05-1.88611E-05-2.64908E-05-5.32851E-06 3.08431E-19-1.08657E-18
 -1      1079 9.50938E-05-2.82458E-05-2.86491E-05-3.30730E-08-1.99861E-18-1.27521E-18
 -1      1080 8.46685E-05-2.15467E-05-2.70479E-05 6.68229E-06 6.37611E-20-7.97349E-19
 -1      1081 8.22335E-05-2.18248E-05-2.58880E-05 9.46790E-06 5.04223E-19-6.67686E-19
 -1      1082 7.74128E-05-1.82408E-05-2.53471E-05-6.68546E-06-4.48085E-19-1.26416E-18
 -1      1083 8.85148E-05-2.14143E-05-2.87553E-05 3.32351E-06 1.21162E-19-1.14883E-18
 -1      1084 8.11397E-05-2.11766E-05-2.56997E-05-8.85821E-06 2.00140E-19-3.19275E-18
 -1      1085 6.83406E-05-1.52450E-05-2.27226E-05-1.43986E-06 1.54387E-19 1.82258E-18
 -1      1086 8.32073E-05-2.10199E-05-2.66447E-05-6.26064E-06 1.81626E-18-1.66482E-18
 -1      1087 8.52953E-05-2.14628E-05-2.73565E-05-4.39180E-06 1.54868E-18-4.00900E-19
 -1      1088 8.70985E-05-2.20926E-05-2.78602E-05-3.12179E-06 1.82173E-18-5.55660E-19
 -1      1089 8.86533E-05-2.28311E-05-2.82099E-05-2.21894E-06 1.06119E-18-4.69738E-19
 -1      1090 8.99844E-05-2.36133E-05-2.84451E-05-1.57808E-06-9.54370E-19-4.88080E-19
 -1      1091 9.11087E-05-2.43854E-05-2.85960E-05-1.12258E-06 1.12100E-19 2.83043E-19
 -1      1092 9.20438E-05-2.51098E-05-2.86862E-05-7.98163E-07-7.40035E-19-8.82767E-19
 -1      1093 9.28086E-05-2.57636E-05-2.87337E-05-5.66545E-07-1.35773E-18-1.33976E-18
 -1      1094 9.34236E-05-2.63352E-05-2.87523E-05-4.00777E-07 1.68912E-19-1.18573E-18
 -1      1095 9.39094E-05-2.68216E-05-2.87520E-05-2.81877E-07 8.20334E-19-2.16734E-18
 -1      1096 9.42862E-05-2.72259E-05-2.87402E-05-1.96481E-07 8.78447E-19-2.94851E-18
 -1      1097 9.45728E-05-2.75549E-05-2.87220E-05-1.35192E-07 1.29089E-18-3.43738E-18
 -1      1098 9.47864E-05-2.78176E-05-2.87010E-05-9.13557E-08 1.86875E-18-4.31335E-18
 -1      1099 9.49457E-05-2.80271E-05-2.86793E-05-5.97474E-08-4.60383E-19-3.34141E-18
 -1      1100 9.42411E-05-2.71590E-05-2.87494E-05 3.15361E-07-9.51029E-19-1.27583E-18
 -1      1101 8.67861E-05-2.14962E-05-2.79780E-05 4.72617E-06 3.53630E-20-1.07450E-18
 -1      1102 7.84008E-05-2.21683E-05-2.40920E-05-1.37360E-05 2.58183E-19-2.45221E-18
 -1      1103 9.50837E-05-2.82248E-05-2.86539E-05 6.44890E-08-3.48595E-19-2.73001E-18
 -1      1104 9.38393E-05-2.67265E-05-2.87625E-05 4.07400E-07-1.48335E-19-1.75655E-18
 -1      1105 9.33142E-05-2.61987E-05-2.87636E-05 5.10293E-07-8.49813E-19-6.94286E-19
 -1      1106 9.45437E-05-2.75072E-05-2.87298E-05 2.36849E-07-8.97066E-19-3.01846E-18
 -1      1107 9.47672E-05-2.77828E-05-2.87075E-05 1.72521E-07 3.85066E-19-4.40639E-18
 -1      1108 9.49292E-05-2.79977E-05-2.86847E-05 1.19753E-07 1.58198E-18-3.17675E-18
 -1      1109 8.96142E-05-2.03653E-05-2.96775E-05-3.67104E-07 6.12305E-19-1.36250E-18
 -1      1110 8.29043E-05-1.95764E-05-2.71440E-05 2.74844E-07 7.30512E-19-5.70730E-19
 -1      1111 9.06921E-05-2.39667E-05-2.85964E-05 8.00436E-07 8.70075E-20-9.93382E-19
 -1      1112 8.97884E-05-2.10951E-05-2.94404E-05 2.26065E-06 2.43809E-19-1.52945E-18
 -1      1113 8.78798E-05-2.04342E-05-2.89059E-05-3.88504E-07 4.85724E-19-1.15310E-18
 -1      1114 8.93376E-05-2.30025E-05-2.84292E-05 8.34199E-07 1.36494E-18-1.56848E-18
 -1      1115 7.53537E-05-1.70694E-05-2.49803E-05-9.21254E-07 2.02660E-18 1.47760E-18
 -1      1116 7.97251E-05-1.84308E-05-2.62675E-05-2.81519E-07 8.19570E-19 8.55416E-19
 -1      1117 9.50183E-05-2.81234E-05-2.86689E-05 8.74297E-08 1.17055E-18-3.67564E-18
 -1      1118 9.17765E-05-2.48227E-05-2.86943E-05 7.20376E-07-1.22225E-18-1.40449E-18
 -1      1119 8.55520E-05-2.07940E-05-2.77539E-05 6.20250E-07 1.03738E-18-1.82072E-18
 -1      1120 7.47724E-05-1.80166E-05-2.43179E-05-6.86093E-06 5.50235E-19-2.65984E-19
 -1      1121 9.26376E-05-2.55662E-05-2.87447E-05 6.18127E-07-4.75332E-19-1.15932E-18
 -1      1122 8.56050E-05-2.00246E-05-2.81084E-05-1.29386E-07 3.50584E-19-9.16320E-19
 -1      1123 7.39863E-05-1.69826E-05-2.44325E-05-2.98298E-06-2.00902E-19-1.33785E-18
 -1      1124 8.21799E-05-1.91451E-05-2.70207E-05 2.53394E-07 5.06768E-19-7.42105E-19
 -1      1125 8.76526E-05-2.19405E-05-2.81623E-05 7.88699E-07 1.14867E-18-2.10927E-18
 -1      1126 7.92917E-05-1.88359E-05-2.59425E-05-3.86311E-06 1.93609E-18 7.09801E-19
 -1      1127 9.49974E-05-2.81026E-05-2.86695E-05 3.60442E-08 3.76964E-19-4.66616E-18
 -1      1128 7.78391E-05-1.80195E-05-2.56394E-05 1.48185E-06 1.64917E-19-7.96621E-19
 -1      1129 1.16303E-04 2.56795E-10-4.17424E-05-4.07459E-05-3.40507E-19 8.62407E-18
 -1      1130 8.89811E-05 7.37265E-11-3.73495E-05-2.32483E-05-1.67289E-19 2.50510E-19
 -1      1131 8.45620E-05 4.27097E-11-3.59397E-05-1.67314E-05-1.04238E-19-3.14174E-18
 -1      1132 8.27388E-05 3.22563E-11-3.52309E-05-1.25729E-05-6.61744E-20-4.63170E-18
 -1      1133 8.17411E-05 2.64602E-11-3.48309E-05-9.29128E-06-3.68195E-20-5.29540E-18
 -1      1134 8.11091E-05 2.27016E-11-3.45819E-05-6.55182E-06-2.11229E-20-5.48388E-18
 -1      1135 8.06907E-05 2.01656E-11-3.44206E-05-4.16209E-06-1.44922E-21-5.45846E-18
 -1      1136 8.04413E-05 1.86568E-11-3.43262E-05-1.97922E-06 7.76226E-21-5.29679E-18
 -1      1137 8.03577E-05 1.81173E-11-3.42952E-05 8.68071E-08 2.18276E-20-5.08693E-18
 -1      1138 8.04412E-05 1.85511E-11-3.43273E-05 2.14660E-06 4.64346E-20-4.83778E-18
 -1      1139 8.06956E-05 2.00118E-11-3.44243E-05 4.31427E-06 5.19999E-20-4.46271E-18
 -1      1140 8.11288E-05 2.25707E-11-3.45901E-05 6.68948E-06 7.21963E-20-3.88816E-18
 -1      1141 8.17799E-05 2.65441E-11-3.48455E-05 9.42853E-06 8.48621E-20-2.93431E-18
 -1      1142 8.27909E-05 3.26222E-11-3.52524E-05 1.27398E-05 1.10829E-19-1.48441E-18
 -1      1143 8.45879E-05 4.31887E-11-3.59697E-05 1.69404E-05 1.34943E-19 9.98797E-19
 -1      1144 8.86890E-05 6.87564E-11-3.74174E-05 2.30700E-05 1.28431E-19 5.46357E-18
 -1      1145 1.06195E-04 1.64968E-10-4.05272E-05 3.54845E-05 2.07523E-19 1.38972E-17
 -1      1146 1.29326E-04-2.56794E-05-4.01200E-05-2.56273E-05-1.32487E-18 1.38227E-17
 -1      1147 9.77080E-05-2.89456E-05-3.16526E-05-5.97106E-07-4.44031E-19 1.07065E-17
 -1      1148 9.12667E-05-2.73676E-05-2.82161E-05 4.02821E-07-1.61982E-19 6.61296E-18
 -1      1149 9.01381E-05-2.71473E-05-2.72163E-05 2.61813E-07-1.00645E-19 3.77875E-18
 -1      1150 9.06679E-05-2.72880E-05-2.72362E-05 1.81569E-07-8.92743E-20 1.96747E-18
 -1      1151 9.21033E-05-2.76884E-05-2.76495E-05 1.42197E-07-1.21735E-19 9.69985E-19
 -1      1152 9.41037E-05-2.82670E-05-2.82489E-05 1.22989E-07-7.92025E-21 2.36905E-20
 -1      1153 9.64890E-05-2.89682E-05-2.89610E-05 1.15103E-07-1.54277E-20-7.86100E-19
 -1      1154 9.91225E-05-2.97465E-05-2.97417E-05 1.12828E-07-5.16804E-20-2.18666E-18
 -1      1155 1.01847E-04-3.05520E-05-3.05414E-05 1.10729E-07-7.47397E-20-3.03116E-18
 -1      1156 1.04438E-04-3.13156E-05-3.12898E-05 1.01706E-07 6.59974E-20-3.58299E-18
 -1      1157 1.06566E-04-3.19384E-05-3.18867E-05 7.61067E-08 9.39214E-20-3.11048E-18
 -1      1158 1.07786E-04-3.22884E-05-3.22025E-05 2.27019E-08-9.19742E-20-3.69179E-18
 -1      1159 1.07581E-04-3.22143E-05-3.20960E-05-6.69096E-08 2.39750E-20-4.07853E-18
 -1      1160 1.05503E-04-3.15880E-05-3.14576E-05-1.89312E-07 1.43698E-20-3.92319E-18
 -1      1161 1.01422E-04-3.03783E-05-3.02774E-05-3.18512E-07-7.32220E-20-4.84249E-18
 -1      1162 9.58149E-05-2.87325E-05-2.87132E-05-4.02431E-07 8.55164E-20-4.21611E-18
 -1      1163 8.99071E-05-2.70117E-05-2.71084E-05-3.81739E-07-2.06812E-20-3.83049E-18
 -1      1164 8.54182E-05-2.57124E-05-2.59121E-05-2.29981E-07 4.35362E-20-4.89731E-18
 -1      1165 8.38874E-05-2.52713E-05-2.55103E-05 1.29609E-08-2.03394E-19-5.57497E-18
 -1      1166 8.59010E-05-2.58540E-05-2.60471E-05 2.51060E-07 5.82765E-20-6.80993E-18
 -1      1167 9.07714E-05-2.72670E-05-2.73538E-05 3.91925E-07 7.65473E-20-5.99911E-18
 -1      1168 9.69182E-05-2.90606E-05-2.90338E-05 4.01542E-07 5.41278E-20-4.50426E-18
 -1      1169 1.02656E-04-3.07485E-05-3.06453E-05 3.12165E-07-2.27643E-19-4.30817E-18
 -1      1170 1.06846E-04-3.19931E-05-3.18660E-05 1.84531E-07-4.21200E-21-4.36974E-18
 -1      1171 1.09093E-04-3.26715E-05-3.25607E-05 6.83188E-08-3.38307E-19-2.99050E-18
 -1      1172 1.09583E-04-3.28314E-05-3.27552E-05-1.29685E-08-6.52066E-20-3.52121E-18
 -1      1173 1.08788E-04-3.26081E-05-3.25669E-05-5.73768E-08-5.50456E-20-4.73927E-18
 -1      1174 1.07222E-04-3.21527E-05-3.21382E-05-7.35647E-08 2.31161E-19-5.16421E-18
 -1      1175 1.05318E-04-3.15924E-05-3.15946E-05-7.22666E-08 2.10456E-20-4.57125E-18
 -1      1176 1.03377E-04-3.10176E-05-3.10283E-05-6.22167E-08-1.89914E-19-4.49575E-18
 -1      1177 1.01583E-04-3.04836E-05-3.04972E-05-4.91761E-08 2.85209E-19-4.76072E-18
 -1      1178 1.00026E-04-3.00187E-05-3.00321E-05-3.63788E-08 1.31599E-19-6.63720E-18
 -1      1179 9.87374E-05-2.96326E-05-2.96442E-05-2.53306E-08 1.61981E-19-8.35998E-18
 -1      1180 9.77096E-05-2.93236E-05-2.93330E-05-1.65107E-08-1.00990E-19-8.17336E-18
 -1      1181 9.69159E-05-2.90844E-05-2.90915E-05-9.86064E-09 1.23713E-19-7.96182E-18
 -1      1182 9.63211E-05-2.89045E-05-2.89097E-05-5.08406E-09-8.43761E-20-7.34216E-18
 -1      1183 9.58888E-05-2.87734E-05-2.87770E-05-1.81264E-09-6.24914E-20-7.32804E-18
 -1      1184 9.55851E-05-2.86810E-05-2.86834E-05 3.10398E-10-1.15024E-19-4.28768E-18
 -1      1185 9.53806E-05-2.86184E-05-2.86199E-05 1.59462E-09 1.25507E-19-2.61182E-18
 -1      1186 9.52504E-05-2.85784E-05-2.85793E-05 2.29192E-09-5.79823E-19-2.29744E-18
 -1      1187 9.51747E-05-2.85549E-05-2.85553E-05 2.59837E-09-2.83415E-19-4.47981E-18
 -1      1188 9.51380E-05-2.85432E-05-2.85433E-05 2.66122E-09 7.73992E-20-4.70508E-18
 -1      1189 9.51283E-05-2.85397E-05-2.85397E-05 2.58704E-09-4.45621E-19-3.09042E-18
 -1      1190 9.51365E-05-2.85418E-05-2.85417E-05 2.44852E-09 2.07422E-20-3.62375E-18
 -1      1191 9.51559E-05-2.85473E-05-2.85471E-05 2.28713E-09 2.84900E-19-1.87172E-19
 -1      1192 9.51810E-05-2.85545E-05-2.85542E-05 2.10374E-09 2.03929E-19 1.15101E-18
 -1      1193 9.52068E-05-2.85621E-05-2.85615E-05 1.79158E-09 2.59988E-19 2.36490E-18
 -1      1194 9.52279E-05-2.85682E-05-2.85674E-05 1.10697E-09-3.38717E-19-5.20597E-19
 -1      1195 9.52372E-05-2.85713E-05-2.85709E-05-1.41989E-10 6.43255E-19 7.29847E-19
 -1      1196 1.30036E-04-3.73894E-05-3.85189E-05 1.20085E-05-2.28222E-19 2.06003E-17
 -1      1197 9.68238E-05-2.82798E-05-3.14034E-05 7.72080E-07 7.43007E-20 1.76538E-17
 -1      1198 9.14843E-05-2.72767E-05-2.82020E-05 1.19352E-07 9.59331E-20 1.44814E-17
 -1      1199 9.02929E-05-2.71007E-05-2.72778E-05 2.09247E-08 5.84585E-20 1.23362E-17
 -1      1200 9.08976E-05-2.73134E-05-2.73286E-05-6.31179E-09-7.94755E-21 1.10631E-17
 -1      1201 9.25365E-05-2.78022E-05-2.78041E-05-1.19605E-08 1.07093E-19 9.81851E-18
 -1      1202 9.49214E-05-2.85122E-05-2.85263E-05-1.35307E-08-1.70862E-20 9.07723E-18
 -1      1203 9.79670E-05-2.94220E-05-2.94503E-05-1.77254E-08 2.74938E-20 8.80999E-18
 -1      1204 1.01673E-04-3.05293E-05-3.05720E-05-2.96268E-08 5.30057E-20 7.85967E-18
 -1      1205 1.06058E-04-3.18357E-05-3.18918E-05-5.53148E-08 4.54164E-20 7.11539E-18
 -1      1206 1.11080E-04-3.33251E-05-3.33867E-05-1.01690E-07 9.27476E-20 6.78926E-18
 -1      1207 1.16531E-04-3.49314E-05-3.49748E-05-1.73145E-07 8.34925E-20 5.71991E-18
 -1      1208 1.21866E-04-3.64928E-05-3.64688E-05-2.62198E-07 3.11582E-20 5.78497E-18
 -1      1209 1.26021E-04-3.77024E-05-3.75352E-05-3.32321E-07-5.08683E-20 6.63225E-18
 -1      1210 1.27340E-04-3.80914E-05-3.77101E-05-3.03056E-07 2.03347E-19 5.11253E-18
 -1      1211 1.23928E-04-3.71274E-05-3.65504E-05-6.90072E-08-1.69850E-19 5.06843E-18
 -1      1212 1.14809E-04-3.45170E-05-3.39624E-05 3.95316E-07-2.69383E-19 6.31463E-18
 -1      1213 1.01685E-04-3.06776E-05-3.05592E-05 8.94064E-07 2.12606E-19 5.34711E-18
 -1      1214 8.96933E-05-2.70419E-05-2.76469E-05 1.04598E-06 4.88897E-20 2.54639E-18
 -1      1215 8.51285E-05-2.54950E-05-2.66161E-05 6.14239E-07-3.83547E-20 2.26857E-18
 -1      1216 9.08159E-05-2.70741E-05-2.80446E-05-1.62736E-07-6.84575E-20 4.05708E-18
 -1      1217 1.03473E-04-3.08965E-05-3.12099E-05-7.49249E-07 7.34917E-20 2.44157E-18
 -1      1218 1.16651E-04-3.49620E-05-3.46397E-05-8.77855E-07 1.63649E-19-4.48716E-19
 -1      1219 1.25475E-04-3.76886E-05-3.71110E-05-6.56199E-07-5.12521E-20-2.10181E-18
 -1      1220 1.28611E-04-3.86444E-05-3.81434E-05-3.33163E-07-6.90431E-20-1.14207E-18
 -1      1221 1.27244E-04-3.82152E-05-3.79147E-05-7.54394E-08 1.09585E-20 1.35089E-19
 -1      1222 1.23312E-04-3.70126E-05-3.68917E-05 7.36900E-08 1.58240E-20-2.79521E-20
 -1      1223 1.18432E-04-3.55341E-05-3.55251E-05 1.35604E-07-2.05722E-20-1.33527E-18
 -1      1224 1.13611E-04-3.40819E-05-3.41258E-05 1.45520E-07 8.08391E-20-7.52615E-19
 -1      1225 1.09345E-04-3.28009E-05-3.28612E-05 1.30806E-07 5.90855E-21 6.51051E-19
 -1      1226 1.05800E-04-3.17387E-05-3.17973E-05 1.07715E-07-9.63053E-20 1.70074E-18
 -1      1227 1.02973E-04-3.08919E-05-3.09419E-05 8.43052E-08 1.65674E-19 2.39064E-18
 -1      1228 1.00781E-04-3.02354E-05-3.02754E-05 6.38501E-08-1.37825E-19 1.85977E-18
 -1      1229 9.91181E-05-2.97372E-05-2.97680E-05 4.72210E-08-3.59173E-19 2.71929E-18
 -1      1230 9.78801E-05-2.93661E-05-2.93893E-05 3.42413E-08 2.73503E-20 1.31185E-18
 -1      1231 9.69751E-05-2.90946E-05-2.91118E-05 2.43658E-08-1.51861E-19-7.54459E-19
 -1      1232 9.63260E-05-2.88997E-05-2.89123E-05 1.69865E-08 2.83248E-19-2.33840E-18
 -1      1233 9.58709E-05-2.87630E-05-2.87720E-05 1.15529E-08 2.97148E-19-3.67132E-18
 -1      1234 9.55606E-05-2.86697E-05-2.86761E-05 7.60685E-09 2.80090E-19-3.22036E-18
 -1      1235 9.53570E-05-2.86084E-05-2.86128E-05 4.78194E-09-3.72890E-19 1.69159E-19
 -1      1236 9.52308E-05-2.85703E-05-2.85733E-05 2.79089E-09 3.76860E-19-2.00007E-18
 -1      1237 9.51596E-05-2.85487E-05-2.85507E-05 1.41031E-09-4.78966E-19 1.25560E-18
 -1      1238 9.51270E-05-2.85388E-05-2.85401E-05 4.66943E-10 1.79274E-19 2.20753E-19
 -1      1239 9.51207E-05-2.85367E-05-2.85375E-05-1.74301E-10 3.21355E-19-4.66127E-18
 -1      1240 9.51315E-05-2.85398E-05-2.85403E-05-6.21013E-10 3.48123E-19-3.61004E-18
 -1      1241 9.51527E-05-2.85460E-05-2.85463E-05-9.60188E-10 4.89420E-19-6.30184E-18
 -1      1242 9.51792E-05-2.85538E-05-2.85538E-05-1.25756E-09-1.80187E-19-4.80963E-18
 -1      1243 9.52060E-05-2.85617E-05-2.85614E-05-1.52481E-09-2.15776E-19-3.89007E-18
 -1      1244 9.52278E-05-2.85681E-05-2.85674E-05-1.51054E-09 6.22796E-19-4.60001E-18
 -1      1245 9.52372E-05-2.85713E-05-2.85709E-05 8.81275E-11-4.24442E-19-3.97394E-18
 -1      1246 9.52369E-05-2.85711E-05-2.85709E-05-4.39085E-11-2.66866E-18-4.68468E-19
 -1      1247 9.52401E-05-2.85807E-05-2.85675E-05-9.43774E-10 2.58735E-18-2.91207E-19
 -1      1248 9.52459E-05-2.86004E-05-2.85621E-05-1.50882E-09 2.48489E-18-3.25546E-20
 -1      1249 9.52524E-05-2.86224E-05-2.85560E-05-1.35506E-09 1.64613E-18 1.14584E-19
 -1      1250 9.52582E-05-2.86418E-05-2.85504E-05-1.00950E-09-3.51980E-19-2.65365E-19
 -1      1251 9.52626E-05-2.86565E-05-2.85461E-05-6.53620E-10-3.45446E-18 8.16747E-20
 -1      1252 9.52655E-05-2.86662E-05-2.85431E-05-3.79433E-10-8.99498E-19-1.47759E-19
 -1      1253 9.52672E-05-2.86716E-05-2.85414E-05-1.56505E-10-1.61886E-18-1.08098E-18
 -1      1254 9.52676E-05-2.86730E-05-2.85409E-05 2.26405E-11-2.38528E-18 5.65134E-19
 -1      1255 9.52669E-05-2.86707E-05-2.85416E-05 1.97044E-10-2.25237E-18 3.44392E-19
 -1      1256 9.52651E-05-2.86647E-05-2.85435E-05 4.06823E-10-4.66464E-18-9.74681E-19
 -1      1257 9.52620E-05-2.86546E-05-2.85466E-05 6.75947E-10-7.72559E-18 9.30245E-19
 -1      1258 9.52577E-05-2.86399E-05-2.85510E-05 9.96952E-10-5.01499E-18 1.02469E-18
 -1      1259 9.52520E-05-2.86208E-05-2.85565E-05 1.34131E-09-1.17887E-18-2.49569E-19
 -1      1260 9.52457E-05-2.85991E-05-2.85624E-05 1.73792E-09-8.08482E-20-1.25024E-19
 -1      1261 9.52403E-05-2.85805E-05-2.85675E-05 1.12246E-09-1.34139E-18-1.11796E-18
 -1      1262 9.52369E-05-2.85712E-05-2.85709E-05 1.65453E-10-6.91975E-19 6.21856E-19
 -1      1263 3.47434E-05-1.08986E-04 1.85331E-05-1.41848E-05 6.95075E-18 1.35427E-18
 -1      1264 1.82840E-05-6.93519E-05 1.05948E-05-2.70296E-05 1.60208E-17 6.99501E-18
 -1      1265 7.06936E-06-1.40587E-05-4.36388E-06-5.42043E-06 2.37288E-17 1.40972E-17
 -1      1266 3.13176E-05 2.17610E-05-2.43319E-05 4.71723E-05 1.94343E-17 1.77962E-17
 -1      1267 1.06650E-04 1.22743E-05-4.61943E-05 9.86672E-05 1.34331E-17 1.88787E-17
 -1      1268 2.10746E-04-3.45353E-05-6.46832E-05 1.09715E-04 6.81523E-18 1.59005E-17
 -1      1269 2.95358E-04-8.19464E-05-7.64568E-05 6.17715E-05 1.88465E-18 6.59246E-18
 -1      1270 3.16907E-04-9.45406E-05-7.91902E-05-1.94462E-05 1.11808E-18-5.02735E-18
 -1      1271 2.63371E-04-6.36097E-05-7.21567E-05-9.08047E-05 4.89564E-18-1.55549E-17
 -1      1272 1.57638E-04-8.28261E-06-5.61550E-05-1.12081E-04 1.16476E-17-2.12876E-17
 -1      1273 6.02134E-05 2.30735E-05-3.45470E-05-7.42290E-05 1.53787E-17-1.80858E-17
 -1      1274 1.27652E-05 4.86989E-06-1.25746E-05-1.55807E-05 1.66239E-17-1.23921E-17
 -1      1275 1.21669E-05-4.82435E-05 5.39552E-06 2.27652E-05 1.17204E-17-5.81107E-18
 -1      1276 2.95557E-05-9.83871E-05 1.65594E-05 2.21318E-05 4.16656E-18-1.51307E-18
 -1      1277 3.72599E-05-1.14260E-04 1.93772E-05-3.76331E-06-5.18067E-18-8.59368E-19
 -1      1278 2.34746E-05-8.16007E-05 1.31970E-05-2.37483E-05-1.46698E-17-4.66080E-18
 -1      1279 8.04443E-06-2.49319E-05-6.05649E-07-1.14354E-05-2.09319E-17-1.13943E-17
 -1      1280 1.86741E-05 1.88548E-05-1.87282E-05 3.34146E-05-2.29004E-17-1.82112E-17
 -1      1281 6.96731E-05 2.50559E-05-3.78342E-05 8.43119E-05-1.79944E-17-2.12317E-17
 -1      1282 1.52029E-04-4.88729E-06-5.52925E-05 1.12193E-04-1.10750E-17-1.92276E-17
 -1      1283 2.40767E-04-5.21098E-05-6.89552E-05 9.79424E-05-4.87933E-18-1.40396E-17
 -1      1284 2.99802E-04-8.77021E-05-7.67217E-05 3.97360E-05-1.05503E-18-5.28252E-18
 -1      1285 3.01179E-04-8.89444E-05-7.67966E-05-3.79437E-05-1.18524E-18 5.06526E-18
 -1      1286 2.42921E-04-5.35515E-05-6.92677E-05-9.64611E-05-4.86875E-18 1.44597E-17
 -1      1287 1.54960E-04-6.48428E-06-5.57831E-05-1.12291E-04-1.01407E-17 1.85026E-17
 -1      1288 7.17889E-05 2.43324E-05-3.83409E-05-8.50677E-05-1.55295E-17 1.89126E-17
 -1      1289 2.01939E-05 2.01481E-05-1.96706E-05-3.58837E-05-1.84111E-17 1.54634E-17
 -1      1290 6.86080E-06-1.77734E-05-2.55092E-06 7.65763E-06-1.73710E-17 9.86539E-18
 -1      1291 1.92451E-05-6.98477E-05 1.07413E-05 2.48909E-05-1.43030E-17 5.22048E-18
 -1      1292 3.41784E-05-1.07405E-04 1.82681E-05 1.23385E-05-6.46413E-18 1.73118E-18
 -1      1293 1.04415E-04-2.20170E-05-3.78505E-05-1.67758E-05-5.11820E-19 6.62147E-18
 -1      1294 9.08768E-05-6.86765E-06-3.61610E-05-1.94394E-05-1.24800E-18-1.34461E-18
 -1      1295 9.31169E-05-6.96031E-06-3.72975E-05-2.47981E-05-1.65150E-18 4.24787E-19
 -1      1296 8.64769E-05-4.22104E-06-3.53158E-05-1.52073E-05-1.14492E-18-3.80371E-18
 -1      1297 8.77490E-05-4.22495E-06-3.57747E-05-1.77003E-05-1.31010E-18-2.77205E-18
 -1      1298 9.27929E-05-1.07067E-05-3.52616E-05-1.78808E-05-2.12764E-18-1.16086E-18
 -1      1299 8.44703E-05-3.21140E-06-3.48399E-05-1.15254E-05-8.08837E-19-4.95584E-18
 -1      1300 8.51818E-05-3.19058E-06-3.50884E-05-1.33542E-05-9.79011E-19-4.44666E-18
 -1      1301 8.84242E-05-7.49864E-06-3.47612E-05-1.41247E-05-1.74403E-18-3.20549E-18
 -1      1302 8.32679E-05-2.63770E-06-3.45512E-05-8.46092E-06-5.40433E-19-5.42403E-18
 -1      1303 8.37159E-05-2.62644E-06-3.47010E-05-9.95910E-06-6.32522E-19-5.23572E-18
 -1      1304 8.61319E-05-5.89563E-06-3.44518E-05-1.06557E-05-1.21134E-18-4.17690E-18
 -1      1305 8.24741E-05-2.26346E-06-3.43631E-05-5.87685E-06-2.36481E-19-5.51417E-18
 -1      1306 8.27763E-05-2.26015E-06-3.44598E-05-7.14106E-06-3.64542E-19-5.46829E-18
 -1      1307 8.47236E-05-4.93297E-06-3.42489E-05-7.75167E-06-7.77851E-19-4.54862E-18
 -1      1308 8.19370E-05-2.00944E-06-3.42381E-05-3.55669E-06-9.28428E-21-5.45845E-18
 -1      1309 8.21365E-05-2.00931E-06-3.43004E-05-4.69871E-06-8.06733E-20-5.52501E-18
 -1      1310 8.37817E-05-4.29790E-06-3.41100E-05-5.24662E-06-2.86008E-19-4.65969E-18
 -1      1311 8.16364E-05-1.85873E-06-3.41703E-05-1.43317E-06 2.52055E-19-5.28203E-18
 -1      1312 8.17367E-05-1.85924E-06-3.42010E-05-2.48975E-06 1.58521E-19-5.36888E-18
 -1      1313 8.31729E-05-3.89255E-06-3.40189E-05-2.99856E-06 1.13468E-19-4.53404E-18
 -1      1314 8.15656E-05-1.80490E-06-3.41583E-05 6.02352E-07 4.88528E-19-5.07411E-18
 -1      1315 8.15672E-05-1.80514E-06-3.41581E-05-4.23618E-07 4.02159E-19-5.19933E-18
 -1      1316 8.28675E-05-3.68874E-06-3.39736E-05-9.18382E-07 5.38213E-19-4.41728E-18
 -1      1317 8.17278E-05-1.84819E-06-3.42029E-05 2.65844E-06 6.95543E-19-4.78973E-18
 -1      1318 8.16286E-05-1.84803E-06-3.41714E-05 1.60785E-06 6.33442E-19-4.96671E-18
 -1      1319 8.28592E-05-3.67783E-06-3.39746E-05 1.10045E-06 9.06998E-19-4.20578E-18
 -1      1320 8.21311E-05-1.99403E-06-3.43057E-05 4.84846E-06 9.29559E-19-4.43177E-18
 -1      1321 8.19277E-05-1.99341E-06-3.42415E-05 3.71494E-06 8.66538E-19-4.66775E-18
 -1      1322 8.31545E-05-3.86517E-06-3.40225E-05 3.16563E-06 1.28289E-18-3.94912E-18
 -1      1323 8.27820E-05-2.24565E-06-3.44686E-05 7.25062E-06 1.13971E-18-3.75601E-18
 -1      1324 8.24707E-05-2.24893E-06-3.43693E-05 5.99401E-06 1.05227E-18-4.15128E-18
 -1      1325 8.37649E-05-4.26470E-06-3.41164E-05 5.37000E-06 1.59764E-18-3.49409E-18
 -1      1326 8.37661E-05-2.63571E-06-3.47173E-05 1.00895E-05 1.42103E-18-2.74676E-18
 -1      1327 8.33009E-05-2.64527E-06-3.45636E-05 8.58650E-06 1.28482E-18-3.34786E-18
 -1      1328 8.47358E-05-4.91913E-06-3.42594E-05 7.85333E-06 1.98745E-18-2.77607E-18
 -1      1329 8.52644E-05-3.22309E-06-3.51102E-05 1.35198E-05 1.64661E-18-1.15255E-18
 -1      1330 8.45448E-05-3.24996E-06-3.48584E-05 1.16711E-05 1.51807E-18-2.09913E-18
 -1      1331 8.62111E-05-5.93910E-06-3.44674E-05 1.07833E-05 2.34935E-18-1.73038E-18
 -1      1332 8.78780E-05-4.22932E-06-3.58065E-05 1.78902E-05 1.74611E-18 1.51635E-18
 -1      1333 8.65765E-05-4.27937E-06-3.53365E-05 1.54182E-05 1.60529E-18-7.74770E-20
 -1      1334 8.85709E-05-7.60605E-06-3.47786E-05 1.43095E-05 2.58275E-18 6.15158E-20
 -1      1335 9.38976E-05-7.00685E-06-3.71910E-05 2.41334E-05 1.33926E-18 6.23437E-18
 -1      1336 9.07229E-05-6.63910E-06-3.61892E-05 2.00669E-05 1.35419E-18 3.39284E-18
 -1      1337 9.30475E-05-1.09406E-05-3.52566E-05 1.84640E-05 2.47596E-18 3.00008E-18
 -1      1338 1.23136E-04-2.48823E-05-3.89213E-05 2.77074E-05 5.17749E-19 1.44176E-17
 -1      1339 1.00296E-04-1.45622E-05-3.73678E-05 2.32624E-05 5.76512E-19 8.85361E-18
 -1      1340 1.02152E-04-1.95746E-05-3.54936E-05 2.03999E-05 2.08884E-18 7.24234E-18
 -1      1341 1.02704E-04-2.78778E-05-3.47485E-05 6.88325E-06 1.04614E-18 1.41571E-17
 -1      1342 1.05414E-04-3.03363E-05-3.35843E-05-7.47122E-06-1.39655E-18 7.19745E-18
 -1      1343 9.89367E-05-2.80767E-05-3.09379E-05-4.57516E-06-1.23804E-18 5.62467E-18
 -1      1344 9.64384E-05-2.81336E-05-2.95277E-05-2.08167E-06-9.75147E-19 4.98119E-18
 -1      1345 9.45925E-05-2.79528E-05-2.86072E-05-1.63958E-06-9.45421E-19 3.48993E-18
 -1      1346 1.00352E-04-2.83385E-05-3.12294E-05-7.08324E-06-2.19344E-18 2.58912E-18
 -1      1347 9.32260E-05-2.76816E-05-2.80777E-05-4.04716E-07-7.94021E-19 3.04207E-18
 -1      1348 9.29221E-05-2.77059E-05-2.79009E-05-2.82406E-07-6.21378E-19 2.00715E-18
 -1      1349 9.61636E-05-2.81938E-05-2.92575E-05-2.29289E-06-1.65915E-18 1.71547E-18
 -1      1350 9.25496E-05-2.76290E-05-2.77765E-05 3.37327E-07-4.40030E-19 1.48567E-18
 -1      1351 9.29631E-05-2.78001E-05-2.78869E-05 4.14718E-07-5.39236E-19 8.48753E-19
 -1      1352 9.46442E-05-2.81024E-05-2.85533E-05-1.08945E-07-1.17547E-18 8.27710E-19
 -1      1353 9.31545E-05-2.78615E-05-2.79529E-05 7.74987E-07-4.29274E-19 6.56887E-19
 -1      1354 9.39589E-05-2.81297E-05-2.81895E-05 8.27910E-07-3.12562E-19 1.45822E-19
 -1      1355 9.44940E-05-2.81861E-05-2.84373E-05 1.06344E-06-7.82036E-19 7.42411E-20
 -1      1356 9.45003E-05-2.82888E-05-2.83619E-05 1.06221E-06-4.06184E-19-1.01962E-19
 -1      1357 9.55526E-05-2.86258E-05-2.86704E-05 1.10040E-06-3.16603E-19-6.11293E-19
 -1      1358 9.52092E-05-2.84563E-05-2.86245E-05 1.78466E-06-7.21447E-19-3.56492E-19
 -1      1359 9.63220E-05-2.88523E-05-2.89099E-05 1.25586E-06-1.87037E-19-9.07186E-19
 -1      1360 9.75374E-05-2.92378E-05-2.92648E-05 1.28206E-06-4.32167E-19-1.43068E-18
 -1      1361 9.64871E-05-2.88741E-05-2.89900E-05 2.26044E-06-6.42170E-19-9.93833E-19
 -1      1362 9.84498E-05-2.95093E-05-2.95449E-05 1.36832E-06-2.56689E-19-1.42636E-18
 -1      1363 9.97524E-05-2.99234E-05-2.99240E-05 1.38034E-06-2.66135E-19-1.83857E-18
 -1      1364 9.81339E-05-2.94009E-05-2.94659E-05 2.55861E-06-5.09126E-19-1.17685E-18
 -1      1365 1.00730E-04-3.02195E-05-3.02198E-05 1.38333E-06-1.97756E-19-1.88206E-18
 -1      1366 1.02024E-04-3.06357E-05-3.05946E-05 1.37451E-06-2.05200E-19-2.17533E-18
 -1      1367 9.99944E-05-3.00026E-05-2.99999E-05 2.67464E-06-3.47197E-19-1.21301E-18
 -1      1368 1.02975E-04-3.09325E-05-3.08765E-05 1.26225E-06-2.02158E-19-2.16872E-18
 -1      1369 1.04126E-04-3.13109E-05-3.12067E-05 1.22195E-06 5.55154E-20-2.23338E-18
 -1      1370 1.01907E-04-3.06403E-05-3.05384E-05 2.55413E-06-2.78101E-19-1.09371E-18
 -1      1371 1.04933E-04-3.15761E-05-3.14373E-05 9.52026E-07 1.46153E-19-2.49585E-18
 -1      1372 1.05754E-04-3.18578E-05-3.16681E-05 8.67545E-07-1.86274E-19-2.48666E-18
 -1      1373 1.03672E-04-3.12605E-05-3.10180E-05 2.10794E-06-1.18489E-19-1.32852E-18
 -1      1374 1.06273E-04-3.20482E-05-3.18030E-05 4.02896E-07-2.13595E-19-2.39209E-18
 -1      1375 1.06530E-04-3.21556E-05-3.18687E-05 2.64543E-07-3.28910E-19-2.73317E-18
 -1      1376 1.05035E-04-3.17836E-05-3.13633E-05 1.23897E-06-2.20070E-19-1.89953E-18
 -1      1377 1.06601E-04-3.22171E-05-3.18625E-05-3.97193E-07-3.68559E-20-2.76072E-18
 -1      1378 1.06062E-04-3.20657E-05-3.17005E-05-5.86441E-07-6.64391E-21-2.71358E-18
 -1      1379 1.05691E-04-3.20975E-05-3.14941E-05-1.04985E-07-1.69718E-19-1.67404E-18
 -1      1380 1.05550E-04-3.19429E-05-3.15214E-05-1.37214E-06-8.40581E-20-2.85904E-18
 -1      1381 1.04073E-04-3.14702E-05-3.10989E-05-1.58370E-06-2.83319E-19-2.88838E-18
 -1      1382 1.05337E-04-3.20648E-05-3.13438E-05-1.84718E-06-2.61740E-19-1.63240E-18
 -1      1383 1.02936E-04-3.11289E-05-3.07482E-05-2.31146E-06-3.67877E-19-2.88124E-18
 -1      1384 1.00602E-04-3.03441E-05-3.00961E-05-2.48321E-06-1.72398E-19-3.12275E-18
 -1      1385 1.03772E-04-3.15592E-05-3.08895E-05-3.68912E-06-4.15748E-19-1.69412E-18
 -1      1386 9.89772E-05-2.98077E-05-2.96270E-05-2.87741E-06 4.68063E-19-2.89810E-18
 -1      1387 9.61928E-05-2.88389E-05-2.88641E-05-2.92483E-06 2.08531E-19-2.54004E-18
 -1      1388 1.01062E-04-3.05453E-05-3.01837E-05-5.07975E-06 2.81218E-19-1.14107E-18
 -1      1389 9.44450E-05-2.82251E-05-2.83841E-05-2.72172E-06 1.16580E-19-2.21798E-18
 -1      1390 9.19239E-05-2.73254E-05-2.77038E-05-2.58223E-06-4.60673E-20-2.52802E-18
 -1      1391 9.76894E-05-2.91780E-05-2.93692E-05-5.35021E-06 5.34479E-19-9.44548E-19
 -1      1392 9.05803E-05-2.68326E-05-2.73488E-05-1.70385E-06-4.29102E-19-2.80381E-18
 -1      1393 8.91178E-05-2.63012E-05-2.69587E-05-1.38984E-06-3.63059E-19-3.14310E-18
 -1      1394 9.45607E-05-2.78407E-05-2.86564E-05-4.06005E-06-5.21031E-19-1.29873E-18
 -1      1395 8.86638E-05-2.61292E-05-2.68423E-05-6.45783E-08-3.51724E-19-3.85917E-18
 -1      1396 8.87820E-05-2.61694E-05-2.68752E-05 3.16974E-07-8.16725E-19-4.30735E-18
 -1      1397 9.27270E-05-2.70302E-05-2.82566E-05-1.37528E-06-9.55916E-19-1.64650E-18
 -1      1398 8.94047E-05-2.63975E-05-2.70395E-05 1.62052E-06-2.94430E-19-4.65026E-18
 -1      1399 9.10785E-05-2.69991E-05-2.74891E-05 1.92270E-06 3.51982E-20-4.76419E-18
 -1      1400 9.28959E-05-2.70925E-05-2.83002E-05 1.84071E-06-9.06180E-19-2.46932E-18
 -1      1401 9.25590E-05-2.75341E-05-2.78850E-05 2.75056E-06 1.30470E-19-4.50193E-18
 -1      1402 9.52321E-05-2.84809E-05-2.86097E-05 2.87392E-06 1.13655E-19-4.23919E-18
 -1      1403 9.50336E-05-2.80132E-05-2.87817E-05 4.43474E-06 2.71117E-19-2.88687E-18
 -1      1404 9.70742E-05-2.91195E-05-2.91203E-05 3.02549E-06 3.49292E-19-4.14035E-18
 -1      1405 9.99495E-05-3.01118E-05-2.99118E-05 2.96608E-06 2.89918E-19-3.59666E-18
 -1      1406 9.83875E-05-2.94178E-05-2.95618E-05 5.59835E-06 4.09392E-19-2.89004E-18
 -1      1407 1.01637E-04-3.06601E-05-3.04040E-05 2.54618E-06 2.43366E-19-3.51100E-18
 -1      1408 1.04031E-04-3.14572E-05-3.10762E-05 2.37258E-06-3.89966E-20-3.36500E-18
 -1      1409 1.01907E-04-3.08150E-05-3.04287E-05 5.23262E-06 3.48610E-19-2.79964E-18
 -1      1410 1.05227E-04-3.18106E-05-3.14486E-05 1.65413E-06 3.10391E-19-2.93489E-18
 -1      1411 1.06774E-04-3.22997E-05-3.18937E-05 1.44948E-06 4.32662E-19-2.77841E-18
 -1      1412 1.04730E-04-3.18420E-05-3.11799E-05 3.82375E-06 3.44067E-19-1.75839E-18
 -1      1413 1.07367E-04-3.24429E-05-3.20995E-05 7.00393E-07 2.18372E-19-2.29869E-18
 -1      1414 1.08019E-04-3.26264E-05-3.22957E-05 5.23302E-07-1.41603E-19-2.36740E-18
 -1      1415 1.06427E-04-3.23706E-05-3.16830E-05 2.03895E-06 6.89260E-19-1.42392E-18
 -1      1416 1.08064E-04-3.25977E-05-3.23384E-05-8.73332E-08-4.33019E-19-2.40709E-18
 -1      1417 1.07981E-04-3.25433E-05-3.23241E-05-2.11686E-07-5.32340E-19-2.98844E-18
 -1      1418 1.06972E-04-3.24513E-05-3.18951E-05 4.03292E-07-4.46433E-19-1.31074E-18
 -1      1419 1.07620E-04-3.23986E-05-3.22379E-05-6.22004E-07-2.77420E-19-2.84675E-18
 -1      1420 1.07040E-04-3.21920E-05-3.20774E-05-6.92867E-07-3.04118E-19-3.15439E-18
 -1      1421 1.06582E-04-3.22148E-05-3.18452E-05-8.14043E-07-7.49019E-19-1.77291E-18
 -1      1422 1.06427E-04-3.19835E-05-3.19070E-05-9.13224E-07-7.39582E-20-3.36201E-18
 -1      1423 1.05579E-04-3.17008E-05-3.16651E-05-9.41596E-07 3.73767E-19-3.35935E-18
 -1      1424 1.05562E-04-3.17964E-05-3.16013E-05-1.55926E-06-2.87111E-19-1.74371E-18
 -1      1425 1.04850E-04-3.14686E-05-3.14521E-05-1.01516E-06 1.17911E-19-3.14431E-18
 -1      1426 1.03910E-04-3.11652E-05-3.11802E-05-1.01478E-06-2.36979E-19-3.05093E-18
 -1      1427 1.04201E-04-3.13023E-05-3.12400E-05-1.90128E-06 4.57538E-20-1.55705E-18
 -1      1428 1.03164E-04-3.09363E-05-3.09568E-05-9.90648E-07-5.77456E-19-2.86379E-18
 -1      1429 1.02250E-04-3.06474E-05-3.06900E-05-9.73483E-07 1.69233E-19-2.89524E-18
 -1      1430 1.02727E-04-3.08036E-05-3.08280E-05-1.95248E-06-4.10011E-20-1.36602E-18
 -1      1431 1.01550E-04-3.04380E-05-3.04776E-05-8.93498E-07 1.35589E-19-3.16223E-18
 -1      1432 1.00728E-04-3.01824E-05-3.02364E-05-8.68362E-07-5.00567E-19-3.79121E-18
 -1      1433 1.01293E-04-3.03420E-05-3.04148E-05-1.82199E-06-5.16954E-19-1.49053E-18
 -1      1434 1.00110E-04-3.00003E-05-3.00470E-05-7.63131E-07-5.44290E-19-4.26451E-18
 -1      1435 9.94105E-05-2.97856E-05-2.98408E-05-7.35795E-07-8.18116E-19-5.63761E-18
 -1      1436 9.99930E-05-2.99384E-05-3.00320E-05-1.59615E-06-9.57245E-19-2.18984E-18
 -1      1437 9.88878E-05-2.96335E-05-2.96798E-05-6.25336E-07-4.58866E-19-5.37607E-18
 -1      1438 9.83172E-05-2.94601E-05-2.95110E-05-5.99194E-07 4.13604E-19-5.46963E-18
 -1      1439 9.88712E-05-2.95995E-05-2.96965E-05-1.33505E-06-8.96103E-19-3.09182E-18
 -1      1440 9.78907E-05-2.93370E-05-2.93791E-05-4.95245E-07 3.04425E-19-5.48413E-18
 -1      1441 9.74410E-05-2.92017E-05-2.92456E-05-4.72037E-07 5.05970E-20-5.39900E-18
 -1      1442 9.79398E-05-2.93244E-05-2.94146E-05-1.07629E-06 1.84490E-19-3.70833E-18
 -1      1443 9.71033E-05-2.91049E-05-2.91409E-05-3.80521E-07-1.53485E-19-5.42893E-18
 -1      1444 9.67596E-05-2.90024E-05-2.90386E-05-3.60926E-07 1.44013E-19-5.51988E-18
 -1      1445 9.71909E-05-2.91070E-05-2.91857E-05-8.40719E-07 3.66358E-21-3.42133E-18
 -1      1446 9.64995E-05-2.89282E-05-2.89578E-05-2.84010E-07 4.44466E-19-5.77446E-18
 -1      1447 9.62445E-05-2.88529E-05-2.88817E-05-2.68074E-07 2.87325E-20-5.52274E-18
 -1      1448 9.66055E-05-2.89398E-05-2.90054E-05-6.37857E-07 3.16224E-19-3.89907E-18
 -1      1449 9.60496E-05-2.87975E-05-2.88211E-05-2.05684E-07 9.74361E-20-5.80310E-18
 -1      1450 9.58663E-05-2.87439E-05-2.87662E-05-1.93112E-07 4.68257E-19-5.09948E-18
 -1      1451 9.61600E-05-2.88144E-05-2.88671E-05-4.70105E-07 1.90956E-19-3.63520E-18
 -1      1452 9.57243E-05-2.87037E-05-2.87220E-05-1.43965E-07 4.95523E-19-3.71349E-18
 -1      1453 9.55972E-05-2.86670E-05-2.86838E-05-1.34305E-07 8.22094E-19-2.50568E-18
 -1      1454 9.58300E-05-2.87228E-05-2.87640E-05-3.35776E-07 7.69055E-19-2.89513E-18
 -1      1455 9.54970E-05-2.86387E-05-2.86526E-05-9.65753E-08 1.58193E-19-2.58742E-18
 -1      1456 9.54128E-05-2.86148E-05-2.86271E-05-8.93328E-08-7.57710E-19-2.63455E-18
 -1      1457 9.55927E-05-2.86579E-05-2.86892E-05-2.31114E-07 7.73552E-19-2.44565E-18
 -1      1458 9.53448E-05-2.85957E-05-2.86060E-05-6.10590E-08-3.93348E-19-1.98158E-18
 -1      1459 9.52926E-05-2.85813E-05-2.85901E-05-5.57584E-08-4.17285E-19-2.61166E-18
 -1      1460 9.54279E-05-2.86136E-05-2.86369E-05-1.51562E-07-9.55315E-20-1.97188E-18
 -1      1461 9.52490E-05-2.85691E-05-2.85765E-05-3.50756E-08-9.24878E-19-2.01943E-18
 -1      1462 9.52200E-05-2.85614E-05-2.85675E-05-3.12935E-08-6.00378E-19-3.28189E-18
 -1      1463 9.53184E-05-2.85848E-05-2.86017E-05-9.25206E-08-8.46605E-19-1.20383E-18
 -1      1464 9.51943E-05-2.85543E-05-2.85595E-05-1.65552E-08 3.42337E-19-2.85650E-18
 -1      1465 9.51818E-05-2.85514E-05-2.85555E-05-1.39345E-08 4.09084E-19-2.09609E-18
 -1      1466 9.52502E-05-2.85675E-05-2.85795E-05-4.97721E-08 2.08546E-19-3.73562E-19
 -1      1467 9.51690E-05-2.85480E-05-2.85515E-05-3.76685E-09-4.87016E-19-8.59035E-19
 -1      1468 9.51677E-05-2.85483E-05-2.85509E-05-2.02107E-09-1.95630E-19-1.26314E-18
 -1      1469 9.52121E-05-2.85585E-05-2.85666E-05-1.96867E-08 6.51300E-19 9.99704E-19
 -1      1470 9.51637E-05-2.85473E-05-2.85496E-05 4.65789E-09 4.96696E-19-1.37801E-18
 -1      1471 9.51698E-05-2.85498E-05-2.85512E-05 5.74424E-09 1.11866E-18 9.26794E-21
 -1      1472 9.51953E-05-2.85553E-05-2.85606E-05 6.89455E-10 6.63279E-19 1.22763E-18
 -1      1473 9.51716E-05-2.85504E-05-2.85518E-05 9.71806E-09 1.25134E-18-2.28333E-19
 -1      1474 9.51819E-05-2.85541E-05-2.85546E-05 1.02888E-08 7.33113E-19 1.32138E-18
 -1      1475 9.51929E-05-2.85560E-05-2.85590E-05 1.36044E-08 1.78937E-18 1.45444E-18
 -1      1476 9.51871E-05-2.85557E-05-2.85562E-05 1.20302E-08 5.82414E-19 3.17680E-19
 -1      1477 9.51991E-05-2.85599E-05-2.85596E-05 1.21456E-08 4.83286E-19 6.17620E-19
 -1      1478 9.51995E-05-2.85591E-05-2.85603E-05 2.05854E-08 8.92576E-19 8.66032E-19
 -1      1479 9.52055E-05-2.85619E-05-2.85615E-05 1.17784E-08 6.16576E-20 1.41653E-18
 -1      1480 9.52169E-05-2.85659E-05-2.85646E-05 1.13782E-08-8.00613E-20 1.12850E-18
 -1      1481 9.52107E-05-2.85636E-05-2.85630E-05 2.23601E-08 2.99847E-19 2.77714E-19
 -1      1482 9.52229E-05-2.85680E-05-2.85662E-05 8.64157E-09-4.52066E-19 9.24341E-19
 -1      1483 9.52309E-05-2.85708E-05-2.85684E-05 7.75391E-09-4.61685E-19 6.40597E-19
 -1      1484 9.52229E-05-2.85688E-05-2.85659E-05 1.89051E-08-2.37937E-19 3.27994E-19
 -1      1485 9.52362E-05-2.85724E-05-2.85698E-05 1.26830E-09-9.92143E-19 3.70930E-19
 -1      1486 9.52348E-05-2.85744E-05-2.85685E-05 8.30670E-09-7.20966E-19 4.94807E-20
 -1      1487 9.73508E-05-2.86051E-05-2.99881E-05 2.62488E-06 1.01175E-18 1.18623E-17
 -1      1488 1.02868E-04-2.95002E-05-3.22496E-05 4.06751E-06 8.76414E-19 1.33723E-17
 -1      1489 1.02852E-04-2.69441E-05-3.28417E-05 1.20206E-05 1.72276E-18 9.24272E-18
 -1      1490 9.35472E-05-2.78780E-05-2.82153E-05 7.71352E-07 8.09565E-19 9.84721E-18
 -1      1491 9.50870E-05-2.79121E-05-2.90030E-05 1.09980E-06 7.33120E-19 1.10576E-17
 -1      1492 9.76203E-05-2.83789E-05-2.98724E-05 4.14598E-06 1.55277E-18 7.71811E-18
 -1      1493 9.25710E-05-2.76987E-05-2.77833E-05-1.21785E-07 4.17356E-19 8.56117E-18
 -1      1494 9.27266E-05-2.75747E-05-2.79143E-05 6.34130E-08 4.76985E-19 9.21413E-18
 -1      1495 9.48946E-05-2.81134E-05-2.86689E-05 1.04945E-06 1.12911E-18 6.40700E-18
 -1      1496 9.31232E-05-2.78917E-05-2.79355E-05-6.35857E-07 4.12790E-19 7.60715E-18
 -1      1497 9.25847E-05-2.76473E-05-2.77885E-05-5.09948E-07 3.65577E-19 8.18393E-18
 -1      1498 9.42165E-05-2.80822E-05-2.83607E-05-4.72387E-07 7.40624E-19 5.52165E-18
 -1      1499 9.46374E-05-2.83495E-05-2.83982E-05-1.00249E-06 3.71563E-19 6.69587E-18
 -1      1500 9.36577E-05-2.80015E-05-2.81063E-05-9.00205E-07 3.45983E-19 7.22589E-18
 -1      1501 9.47908E-05-2.83125E-05-2.85087E-05-1.40930E-06 7.49627E-19 4.81609E-18
 -1      1502 9.68842E-05-2.90210E-05-2.90808E-05-1.31704E-06 4.01116E-20 6.29818E-18
 -1      1503 9.55531E-05-2.85768E-05-2.86834E-05-1.22059E-06 1.00775E-19 6.42476E-18
 -1      1504 9.62242E-05-2.87602E-05-2.89353E-05-2.11249E-06 3.33238E-19 4.20471E-18
 -1      1505 9.97798E-05-2.98855E-05-2.99564E-05-1.62223E-06 2.00906E-19 5.92194E-18
 -1      1506 9.81192E-05-2.93438E-05-2.94617E-05-1.52212E-06 1.73390E-19 6.19406E-18
 -1      1507 9.83322E-05-2.93937E-05-2.95711E-05-2.73192E-06 2.37623E-19 3.87924E-18
 -1      1508 1.03299E-04-3.09392E-05-3.10167E-05-1.93021E-06 2.41380E-19 5.26555E-18
 -1      1509 1.01306E-04-3.02952E-05-3.04248E-05-1.82300E-06 2.25101E-19 5.60648E-18
 -1      1510 1.01032E-04-3.01997E-05-3.03863E-05-3.33032E-06 4.28751E-19 3.61048E-18
 -1      1511 1.07408E-04-3.21788E-05-3.22482E-05-2.22104E-06 2.06941E-19 4.74836E-18
 -1      1512 1.05093E-04-3.14325E-05-3.15639E-05-2.11149E-06 1.29781E-19 4.95915E-18
 -1      1513 1.04277E-04-3.11755E-05-3.13611E-05-3.90832E-06 3.76720E-19 3.20510E-18
 -1      1514 1.11989E-04-3.35794E-05-3.36073E-05-2.42845E-06 3.04299E-19 4.58970E-18
 -1      1515 1.09415E-04-3.27510E-05-3.28545E-05-2.33510E-06 2.22914E-19 4.85036E-18
 -1      1516 1.07995E-04-3.23168E-05-3.24637E-05-4.39418E-06 3.12190E-19 2.71997E-18
 -1      1517 1.16727E-04-3.50628E-05-3.49868E-05-2.41869E-06 1.94287E-19 4.17788E-18
 -1      1518 1.14085E-04-3.42152E-05-3.42287E-05-2.38215E-06 2.52062E-19 4.45087E-18
 -1      1519 1.12022E-04-3.36016E-05-3.36284E-05-4.61416E-06 3.35323E-19 3.03571E-18
 -1      1520 1.20981E-04-3.64522E-05-3.61796E-05-1.97699E-06-4.83272E-20 4.51831E-18
 -1      1521 1.18669E-04-3.57212E-05-3.55412E-05-2.06720E-06-2.16371E-19 4.13299E-18
 -1      1522 1.16021E-04-3.49626E-05-3.47311E-05-4.26165E-06 7.14287E-20 3.29872E-18
 -1      1523 1.23677E-04-3.74219E-05-3.68639E-05-8.43537E-07 1.87651E-19 4.80486E-18
 -1      1524 1.22367E-04-3.70428E-05-3.65409E-05-1.15157E-06-1.36319E-21 4.85188E-18
 -1      1525 1.19390E-04-3.62436E-05-3.55745E-05-2.91110E-06-1.59348E-19 3.40580E-18
 -1      1526 1.23404E-04-3.74889E-05-3.66618E-05 1.12288E-06 2.22862E-19 4.18797E-18
 -1      1527 1.23968E-04-3.77765E-05-3.68834E-05 5.35324E-07 2.99770E-19 4.73850E-18
 -1      1528 1.21226E-04-3.71368E-05-3.59101E-05-1.80466E-07 2.97123E-19 3.36658E-18
 -1      1529 1.18949E-04-3.61470E-05-3.53277E-05 3.62060E-06-6.05344E-19 4.50791E-18
 -1      1530 1.22097E-04-3.73653E-05-3.62367E-05 2.82978E-06-2.01938E-19 4.11044E-18
 -1      1531 1.20481E-04-3.71590E-05-3.55302E-05 3.84934E-06-1.04344E-19 3.75826E-18
 -1      1532 1.10424E-04-3.32683E-05-3.30356E-05 5.56780E-06 3.44140E-20 5.21666E-18
 -1      1533 1.15969E-04-3.53411E-05-3.45070E-05 4.90481E-06-3.42215E-19 4.45910E-18
 -1      1534 1.16482E-04-3.57865E-05-3.44312E-05 8.02840E-06-4.78865E-19 3.51672E-18
 -1      1535 1.00471E-04-2.97020E-05-3.05406E-05 5.39268E-06 1.11974E-18 3.41693E-18
 -1      1536 1.06645E-04-3.19167E-05-3.20863E-05 5.33718E-06 8.53849E-19 4.68812E-18
 -1      1537 1.09879E-04-3.29701E-05-3.29475E-05 9.95319E-06 9.90413E-19 3.54843E-18
 -1      1538 9.37943E-05-2.72289E-05-2.89335E-05 2.36170E-06 1.47834E-19 1.87671E-18
 -1      1539 9.76747E-05-2.84388E-05-2.98693E-05 3.15026E-06 6.13067E-19 2.68414E-18
 -1      1540 1.03306E-04-2.97865E-05-3.16775E-05 7.38043E-06 1.45886E-18 2.96980E-18
 -1      1541 9.43947E-05-2.74910E-05-2.90361E-05-2.17554E-06-5.45410E-20 2.13638E-18
 -1      1542 9.37020E-05-2.68949E-05-2.88748E-05-9.37817E-07-1.69671E-19 1.82136E-18
 -1      1543 1.00389E-04-2.81546E-05-3.12043E-05 6.11894E-07 2.34469E-19 2.27430E-18
 -1      1544 1.01991E-04-3.03221E-05-3.08394E-05-5.40683E-06 1.50236E-19 1.68549E-18
 -1      1545 9.71013E-05-2.82890E-05-2.96406E-05-4.49474E-06 7.74506E-20 1.89063E-18
 -1      1546 1.03070E-04-2.94121E-05-3.17650E-05-6.57760E-06 2.84550E-20 8.39992E-19
 -1      1547 1.12304E-04-3.39705E-05-3.34399E-05-5.76328E-06 4.32721E-19-2.96462E-21
 -1      1548 1.05887E-04-3.16545E-05-3.18073E-05-5.57436E-06 6.36688E-19 1.27277E-18
 -1      1549 1.09675E-04-3.26276E-05-3.31030E-05-1.00442E-05 7.94179E-19-3.14143E-19
 -1      1550 1.20682E-04-3.67193E-05-3.57424E-05-3.89203E-06 6.97532E-19-1.12179E-18
 -1      1551 1.15522E-04-3.50934E-05-3.43501E-05-4.26124E-06 4.71639E-19-3.13190E-19
 -1      1552 1.16585E-04-3.57450E-05-3.46335E-05-8.82583E-06 1.06820E-18-7.15399E-19
 -1      1553 1.24847E-04-3.79096E-05-3.70518E-05-1.39006E-06-1.54921E-19-1.95315E-18
 -1      1554 1.22267E-04-3.72745E-05-3.62893E-05-1.93232E-06 7.73844E-20-1.73801E-18
 -1      1555 1.21036E-04-3.74223E-05-3.57832E-05-4.91093E-06 6.57271E-19-1.74129E-18
 -1      1556 1.24962E-04-3.77669E-05-3.72517E-05 6.04176E-07-1.87247E-19-1.08778E-18
 -1      1557 1.24818E-04-3.79245E-05-3.71493E-05 1.57285E-07-4.57795E-19-1.59856E-18
 -1      1558 1.22254E-04-3.75859E-05-3.62362E-05-7.90653E-07-4.80387E-19-2.39113E-18
 -1      1559 1.22346E-04-3.68186E-05-3.66165E-05 1.75075E-06-4.67036E-19-7.30010E-19
 -1      1560 1.23813E-04-3.74249E-05-3.69873E-05 1.48055E-06-1.66462E-19-8.05760E-19
 -1      1561 1.20857E-04-3.67869E-05-3.59958E-05 2.15077E-06-2.67954E-19-1.82191E-18
 -1      1562 1.18400E-04-3.55286E-05-3.55248E-05 2.18568E-06-1.51133E-19-2.46328E-19
 -1      1563 1.20625E-04-3.63003E-05-3.61401E-05 2.06685E-06-3.76127E-19-2.89421E-19
 -1      1564 1.17900E-04-3.55734E-05-3.52639E-05 3.68004E-06-6.77203E-19-6.56543E-19
 -1      1565 1.14136E-04-3.41963E-05-3.42880E-05 2.17309E-06-1.02016E-19-5.21891E-19
 -1      1566 1.16518E-04-3.49616E-05-3.49705E-05 2.15157E-06 9.49686E-21-3.38019E-19
 -1      1567 1.14305E-04-3.42895E-05-3.42839E-05 4.12992E-06 1.06724E-19-3.93142E-20
 -1      1568 1.10140E-04-3.29788E-05-3.31010E-05 1.93635E-06-4.40943E-19 4.97552E-19
 -1      1569 1.12345E-04-3.36555E-05-3.37449E-05 1.96601E-06-6.23932E-19-2.12552E-20
 -1      1570 1.10694E-04-3.31045E-05-3.32503E-05 3.93543E-06-9.02828E-19 1.39968E-18
 -1      1571 1.06680E-04-3.19402E-05-3.20597E-05 1.61946E-06-5.03359E-19 1.26682E-18
 -1      1572 1.08565E-04-3.25012E-05-3.26164E-05 1.67023E-06-3.76713E-19 4.66543E-19
 -1      1573 1.07410E-04-3.20841E-05-3.22834E-05 3.43626E-06-8.84875E-19 8.78343E-19
 -1      1574 1.03828E-04-3.10919E-05-3.11953E-05 1.30044E-06-1.28994E-19 1.64366E-18
 -1      1575 1.05362E-04-3.15386E-05-3.16515E-05 1.35563E-06-4.41400E-19 7.95781E-19
 -1      1576 1.04600E-04-3.12411E-05-3.14417E-05 2.84414E-06-2.25741E-19-8.88524E-20
 -1      1577 1.01555E-04-3.04196E-05-3.05038E-05 1.01493E-06 8.91568E-20 1.57604E-18
 -1      1578 1.02763E-04-3.07654E-05-3.08644E-05 1.06644E-06 4.30068E-20 1.77952E-18
 -1      1579 1.02291E-04-3.05640E-05-3.07427E-05 2.27127E-06-2.10928E-19 5.68371E-19
 -1      1580 9.97880E-05-2.98990E-05-2.99650E-05 7.74922E-07 7.77765E-20 1.61599E-18
 -1      1581 1.00716E-04-3.01611E-05-3.02429E-05 8.19542E-07 2.56289E-19 1.62513E-18
 -1      1582 1.00448E-04-3.00317E-05-3.01811E-05 1.76716E-06 2.03794E-19 1.84917E-18
 -1      1583 9.84419E-05-2.95034E-05-2.95540E-05 5.80684E-07 4.40179E-19 1.47234E-18
 -1      1584 9.91408E-05-2.96984E-05-2.97638E-05 6.17705E-07-1.34881E-19 1.60280E-18
 -1      1585 9.90101E-05-2.96208E-05-2.97410E-05 1.34665E-06-3.82902E-20 3.24680E-19
 -1      1586 9.74348E-05-2.92082E-05-2.92463E-05 4.27443E-07-8.76547E-20 5.02128E-19
 -1      1587 9.79517E-05-2.93507E-05-2.94017E-05 4.57316E-07 8.81092E-19 1.83429E-18
 -1      1588 9.79101E-05-2.93087E-05-2.94031E-05 1.00756E-06 7.17669E-19 8.20086E-19
 -1      1589 9.66948E-05-2.89917E-05-2.90200E-05 3.08810E-07 3.84404E-19-7.52776E-19
 -1      1590 9.70700E-05-2.90938E-05-2.91330E-05 3.32441E-07 1.12311E-19-3.84435E-19
 -1      1591 9.70831E-05-2.90756E-05-2.91483E-05 7.40474E-07 6.37862E-19 8.06263E-21
 -1      1592 9.61613E-05-2.88359E-05-2.88567E-05 2.18389E-07 3.79102E-19-2.22782E-18
 -1      1593 9.64283E-05-2.89076E-05-2.89372E-05 2.36792E-07 5.13347E-19-1.28833E-18
 -1      1594 9.64723E-05-2.89044E-05-2.89596E-05 5.33870E-07 8.32831E-19-9.78176E-19
 -1      1595 9.57853E-05-2.87265E-05-2.87414E-05 1.50444E-07 1.65407E-20-2.50753E-18
 -1      1596 9.59706E-05-2.87754E-05-2.87975E-05 1.64583E-07-4.34722E-19-2.18024E-18
 -1      1597 9.60298E-05-2.87812E-05-2.88225E-05 3.76481E-07-3.52103E-19-1.03779E-18
 -1      1598 9.55275E-05-2.86517E-05-2.86623E-05 1.00103E-07-1.16917E-18-7.05226E-19
 -1      1599 9.56521E-05-2.86838E-05-2.87001E-05 1.10829E-07-4.58337E-19-1.60494E-18
 -1      1600 9.57162E-05-2.86945E-05-2.87249E-05 2.58278E-07-8.10260E-19-6.53018E-19
 -1      1601 9.53574E-05-2.86026E-05-2.86099E-05 6.33559E-08 6.19208E-19-1.06622E-20
 -1      1602 9.54375E-05-2.86225E-05-2.86344E-05 7.13932E-08-1.01862E-19-3.45931E-19
 -1      1603 9.55001E-05-2.86353E-05-2.86574E-05 1.70763E-07-6.18172E-19 1.30311E-19
 -1      1604 9.52511E-05-2.85721E-05-2.85771E-05 3.69705E-08-1.15174E-18 8.73875E-19
 -1      1605 9.52991E-05-2.85834E-05-2.85919E-05 4.29192E-08-6.05868E-20 2.76703E-19
 -1      1606 9.53564E-05-2.85965E-05-2.86123E-05 1.06947E-07-1.02256E-19 1.82084E-18
 -1      1607 9.51906E-05-2.85550E-05-2.85583E-05 1.83872E-08 4.59016E-19 7.86994E-19
 -1      1608 9.52159E-05-2.85602E-05-2.85662E-05 2.27346E-08-3.71042E-20 9.84056E-19
 -1      1609 9.52660E-05-2.85725E-05-2.85836E-05 6.11975E-08-4.33532E-19 2.13808E-18
 -1      1610 9.51622E-05-2.85473E-05-2.85493E-05 5.61532E-09 5.97588E-19-7.00303E-19
 -1      1611 9.51719E-05-2.85484E-05-2.85525E-05 8.74896E-09 8.30166E-19 9.80049E-19
 -1      1612 9.52138E-05-2.85592E-05-2.85668E-05 2.90621E-08 1.03680E-18 7.00150E-19
 -1      1613 9.51558E-05-2.85459E-05-2.85471E-05-2.85551E-09 7.13801E-19-2.43924E-18
 -1      1614 9.51549E-05-2.85443E-05-2.85470E-05-6.35981E-10 9.86604E-19-1.31975E-18
 -1      1615 9.51885E-05-2.85534E-05-2.85584E-05 7.09359E-09 1.26008E-18 2.59360E-19
 -1      1616 9.51637E-05-2.85487E-05-2.85492E-05-8.12231E-09 1.53588E-19-3.09465E-18
 -1      1617 9.51561E-05-2.85454E-05-2.85471E-05-6.59804E-09 2.39227E-19-2.71915E-18
 -1      1618 9.51817E-05-2.85526E-05-2.85557E-05-7.29631E-09 7.76936E-19-8.20481E-19
 -1      1619 9.51801E-05-2.85539E-05-2.85539E-05-1.08974E-08 6.09016E-19-3.30181E-18
 -1      1620 9.51687E-05-2.85498E-05-2.85507E-05-9.93355E-09 3.42277E-19-3.19117E-18
 -1      1621 9.51867E-05-2.85550E-05-2.85567E-05-1.59327E-08 5.61519E-19-6.34057E-19
 -1      1622 9.52001E-05-2.85603E-05-2.85597E-05-1.14970E-08-7.08631E-19-3.31400E-18
 -1      1623 9.51874E-05-2.85560E-05-2.85561E-05-1.10576E-08-1.41706E-19-3.52494E-18
 -1      1624 9.51985E-05-2.85594E-05-2.85598E-05-1.99065E-08-7.04190E-20-4.41758E-19
 -1      1625 9.52193E-05-2.85665E-05-2.85651E-05-9.78796E-09-2.51787E-19-3.47384E-18
 -1      1626 9.52077E-05-2.85627E-05-2.85619E-05-9.98771E-09-1.93642E-19-3.25149E-18
 -1      1627 9.52130E-05-2.85646E-05-2.85636E-05-1.95423E-08-3.74494E-19-1.34779E-18
 -1      1628 9.52328E-05-2.85712E-05-2.85690E-05-5.43626E-09 8.29237E-20-2.46556E-18
 -1      1629 9.52254E-05-2.85689E-05-2.85668E-05-6.37402E-09 2.24066E-20-2.75174E-18
 -1      1630 9.52264E-05-2.85700E-05-2.85669E-05-1.45159E-08 2.27123E-19-9.50126E-19
 -1      1631 9.52362E-05-2.85726E-05-2.85698E-05-1.47901E-09-9.05951E-19-9.53186E-19
 -1      1632 9.52406E-05-2.85857E-05-2.85662E-05-8.73904E-09 2.09837E-18 4.90294E-19
 -1      1633 9.52379E-05-2.85782E-05-2.85683E-05-7.55480E-09 1.92006E-19 2.91857E-18
 -1      1634 9.52464E-05-2.86020E-05-2.85619E-05-1.08155E-08 2.45057E-18-8.81544E-19
 -1      1635 9.52428E-05-2.85918E-05-2.85647E-05-1.06869E-08 3.49802E-18-1.79546E-18
 -1      1636 9.52403E-05-2.85864E-05-2.85658E-05-1.82959E-08 1.29678E-18 2.05092E-19
 -1      1637 9.52518E-05-2.86182E-05-2.85574E-05-1.02104E-08 9.88129E-19-6.45262E-19
 -1      1638 9.52485E-05-2.86082E-05-2.85601E-05-1.05391E-08 1.43856E-18 5.95515E-19
 -1      1639 9.52456E-05-2.85987E-05-2.85630E-05-2.01760E-08 1.91735E-18-5.60529E-19
 -1      1640 9.52561E-05-2.86319E-05-2.85533E-05-8.21801E-09 3.63991E-19-1.24749E-19
 -1      1641 9.52534E-05-2.86237E-05-2.85556E-05-8.71698E-09 2.64105E-19 1.38862E-19
 -1      1642 9.52498E-05-2.86102E-05-2.85600E-05-1.79523E-08 7.56187E-19-1.16680E-18
 -1      1643 9.52591E-05-2.86419E-05-2.85503E-05-5.82411E-09-6.48304E-19-1.71306E-19
 -1      1644 9.52572E-05-2.86361E-05-2.85520E-05-6.31641E-09-8.87009E-19-6.22491E-19
 -1      1645 9.52528E-05-2.86194E-05-2.85573E-05-1.38254E-08 1.12173E-18-1.74303E-18
 -1      1646 9.52609E-05-2.86484E-05-2.85483E-05-3.49014E-09-2.70240E-19 3.47801E-19
 -1      1647 9.52598E-05-2.86447E-05-2.85493E-05-3.92818E-09-1.49084E-18 1.06439E-18
 -1      1648 9.52548E-05-2.86260E-05-2.85553E-05-9.29367E-09-8.52489E-20 3.05749E-19
 -1      1649 9.52618E-05-2.86515E-05-2.85473E-05-1.44358E-09-1.12066E-18-1.38500E-18
 -1      1650 9.52613E-05-2.86499E-05-2.85477E-05-1.81048E-09-2.79790E-20-1.18341E-18
 -1      1651 9.52559E-05-2.86301E-05-2.85540E-05-5.05901E-09-1.45570E-19-6.66679E-19
 -1      1652 9.52618E-05-2.86517E-05-2.85472E-05 3.85234E-10 5.72828E-19 2.49822E-18
 -1      1653 9.52619E-05-2.86519E-05-2.85471E-05 5.26248E-11-1.15107E-18 5.96807E-19
 -1      1654 9.52563E-05-2.86318E-05-2.85534E-05-1.32720E-09 7.32891E-19-5.82623E-19
 -1      1655 9.52610E-05-2.86491E-05-2.85480E-05 2.19768E-09-2.11220E-18-1.52623E-18
 -1      1656 9.52616E-05-2.86511E-05-2.85474E-05 1.84784E-09-7.74463E-19-1.17308E-19
 -1      1657 9.52562E-05-2.86315E-05-2.85535E-05 2.13634E-09 6.11826E-19-2.02428E-19
 -1      1658 9.52594E-05-2.86434E-05-2.85497E-05 4.19072E-09-4.11408E-18-1.49071E-18
 -1      1659 9.52605E-05-2.86473E-05-2.85486E-05 3.78352E-09-2.56449E-18-7.88095E-19
 -1      1660 9.52556E-05-2.86293E-05-2.85542E-05 5.71485E-09-1.24933E-18-2.06771E-18
 -1      1661 9.52567E-05-2.86346E-05-2.85524E-05 6.38026E-09-4.76211E-18 1.08489E-18
 -1      1662 9.52586E-05-2.86405E-05-2.85507E-05 5.92958E-09-3.88882E-18-1.37811E-18
 -1      1663 9.52544E-05-2.86249E-05-2.85556E-05 9.64019E-09-2.00182E-18-1.36152E-18
 -1      1664 9.52529E-05-2.86222E-05-2.85561E-05 8.62824E-09-1.47703E-18 4.30667E-19
 -1      1665 9.52555E-05-2.86303E-05-2.85538E-05 8.16534E-09-4.26327E-18 3.51549E-18
 -1      1666 9.52524E-05-2.86182E-05-2.85576E-05 1.38406E-08-1.33089E-18 2.97769E-18
 -1      1667 9.52481E-05-2.86070E-05-2.85605E-05 1.03583E-08-9.03156E-19 1.03301E-18
 -1      1668 9.52513E-05-2.86167E-05-2.85578E-05 1.00144E-08-1.91116E-18 7.88352E-19
 -1      1669 9.52493E-05-2.86089E-05-2.85603E-05 1.76735E-08-1.20243E-18 1.28517E-18
 -1      1670 9.52428E-05-2.85913E-05-2.85649E-05 1.02926E-08-1.05716E-18-7.00812E-19
 -1      1671 9.52461E-05-2.86009E-05-2.85623E-05 1.03902E-08-2.35319E-19 1.94478E-19
 -1      1672 9.52451E-05-2.85975E-05-2.85633E-05 1.96811E-08-8.07647E-19 8.36973E-19
 -1      1673 9.52376E-05-2.85788E-05-2.85681E-05 9.81485E-09-1.39758E-18-1.24358E-18
 -1      1674 9.52402E-05-2.85859E-05-2.85662E-05 1.15458E-08-6.94395E-19-1.35617E-18
 -1      1675 9.52401E-05-2.85858E-05-2.85658E-05 1.99466E-08-4.39136E-19-1.05423E-18
 -1      1676 9.52326E-05-2.85758E-05-2.85671E-05 1.81299E-08-6.44467E-19-1.02337E-18
 -1      1677 2.04425E-05-6.75742E-05 1.42038E-05-7.46659E-06 6.29854E-18 3.02327E-18
 -1      1678 2.34752E-05-7.59623E-05 1.60357E-05 7.80781E-07 1.65786E-18 3.13169E-18
 -1      1679 1.96101E-05-4.16871E-05 4.89266E-06 4.58823E-07 1.31155E-17 9.48772E-18
 -1      1680 2.42292E-05-6.32209E-05 1.05481E-05-2.23768E-06 7.95787E-18 5.73071E-18
 -1      1681 3.20912E-05-1.38108E-05-1.03226E-05 2.37442E-05 1.56159E-17 1.06197E-17
 -1      1682 2.76133E-05-3.52148E-05-1.79084E-06 6.83845E-06 1.50179E-17 8.48727E-18
 -1      1683 7.35931E-05-2.84884E-06-2.99725E-05 5.75414E-05 1.26860E-17 1.26911E-17
 -1      1684 4.85947E-05-9.79108E-06-1.94861E-05 3.31528E-05 1.47231E-17 1.14714E-17
 -1      1685 1.44813E-04-2.04208E-05-4.99826E-05 7.40394E-05 8.68929E-18 1.11114E-17
 -1      1686 1.01687E-04-8.32204E-06-3.98772E-05 6.05615E-05 1.11910E-17 1.21210E-17
 -1      1687 2.13039E-04-4.54504E-05-6.59893E-05 6.52824E-05 5.21042E-18 8.94467E-18
 -1      1688 1.68679E-04-2.41538E-05-5.86224E-05 7.44721E-05 7.62203E-18 1.15976E-17
 -1      1689 2.53061E-04-6.33969E-05-7.46506E-05 2.06170E-05 3.18738E-18 2.35983E-18
 -1      1690 2.28289E-04-4.98738E-05-7.09549E-05 5.09776E-05 4.61760E-18 6.76864E-18
 -1      1691 2.49848E-04-6.04442E-05-7.47584E-05-2.83784E-05 3.74431E-18-4.91406E-18
 -1      1692 2.56763E-04-6.44875E-05-7.58152E-05 5.62573E-06 3.27929E-18-8.47562E-20
 -1      1693 2.06234E-04-3.92768E-05-6.65099E-05-6.83137E-05 6.34682E-18-1.10419E-17
 -1      1694 2.43363E-04-5.92065E-05-7.21313E-05-4.53597E-05 3.65982E-18-7.68174E-18
 -1      1695 1.31407E-04-1.12281E-05-4.96038E-05-7.34047E-05 9.48677E-18-1.37736E-17
 -1      1696 1.81754E-04-3.14934E-05-5.92126E-05-7.70584E-05 7.66395E-18-1.24912E-17
 -1      1697 7.17340E-05-7.88571E-06-2.87680E-05-4.67631E-05 1.01534E-17-1.07311E-17
 -1      1698 1.06635E-04-9.57667E-06-3.95572E-05-6.85549E-05 9.12509E-18-1.32671E-17
 -1      1699 3.87680E-05-2.65866E-05-9.09856E-06-1.89198E-05 8.72613E-18-7.26034E-18
 -1      1700 5.20972E-05-1.03160E-05-1.89032E-05-4.04298E-05 9.93316E-18-9.23266E-18
 -1      1701 2.49817E-05-5.36113E-05 6.45005E-06-2.19046E-08 5.27024E-18-4.02870E-18
 -1      1702 2.25660E-05-2.96709E-05-6.93591E-07-8.84378E-06 8.37207E-18-6.91666E-18
 -1      1703 2.39192E-05-7.30575E-05 1.47542E-05 2.80742E-07 9.10560E-21-2.42336E-18
 -1      1704 1.93996E-05-5.82842E-05 1.13125E-05 5.08953E-06 4.05729E-18-3.24244E-18
 -1      1705 2.16188E-05-7.21377E-05 1.55279E-05-4.58250E-06-5.97963E-18-2.97732E-18
 -1      1706 2.28416E-05-7.59196E-05 1.63235E-05 5.33964E-06-1.45758E-18-2.07332E-18
 -1      1707 1.93513E-05-4.75515E-05 7.48060E-06 1.98541E-07-1.12418E-17-6.25126E-18
 -1      1708 2.43658E-05-6.77990E-05 1.25131E-05 7.69720E-07-7.35225E-18-4.12600E-18
 -1      1709 2.63984E-05-1.75641E-05-6.45636E-06 1.87682E-05-1.52381E-17-1.11258E-17
 -1      1710 2.55853E-05-4.10150E-05 1.51110E-06 5.13070E-06-1.28004E-17-7.75332E-18
 -1      1711 5.69382E-05-1.15284E-06-2.40388E-05 4.95116E-05-1.49366E-17-1.34738E-17
 -1      1712 4.00241E-05-1.25771E-05-1.47922E-05 2.75796E-05-1.57142E-17-1.15196E-17
 -1      1713 1.08756E-04-5.94603E-06-4.16835E-05 7.34569E-05-1.21524E-17-1.36948E-17
 -1      1714 7.66036E-05-1.12067E-06-3.27926E-05 5.63589E-05-1.44572E-17-1.39345E-17
 -1      1715 1.71410E-04-2.69733E-05-5.73535E-05 7.72787E-05-7.88672E-18-1.19686E-17
 -1      1716 1.31138E-04-1.03199E-05-4.96746E-05 7.47479E-05-1.07768E-17-1.34695E-17
 -1      1717 2.26377E-04-5.16211E-05-6.89101E-05 5.43721E-05-4.12100E-18-7.59789E-18
 -1      1718 1.91899E-04-3.33330E-05-6.36141E-05 7.11695E-05-6.24560E-18-1.05896E-17
 -1      1719 2.51986E-04-6.37143E-05-7.42880E-05 8.77451E-06-2.62072E-18-1.63329E-18
 -1      1720 2.37687E-04-5.55261E-05-7.22824E-05 4.01189E-05-3.39957E-18-5.58491E-18
 -1      1721 2.40669E-04-5.70998E-05-7.26452E-05-3.97845E-05-3.47728E-18 4.70950E-18
 -1      1722 2.54300E-04-6.49931E-05-7.45630E-05-7.82141E-06-2.36830E-18 1.97359E-19
 -1      1723 1.93936E-04-3.43944E-05-6.39609E-05-7.03653E-05-6.07280E-18 9.97635E-18
 -1      1724 2.27915E-04-5.23773E-05-6.91535E-05-5.33024E-05-4.11886E-18 6.52724E-18
 -1      1725 1.32851E-04-1.08375E-05-5.01622E-05-7.47875E-05-8.82354E-18 1.22168E-17
 -1      1726 1.73352E-04-2.77481E-05-5.77828E-05-7.67549E-05-6.62761E-18 1.12147E-17
 -1      1727 7.93672E-05-2.81481E-06-3.32189E-05-5.60095E-05-1.13265E-17 1.11554E-17
 -1      1728 1.11665E-04-7.92989E-06-4.21093E-05-7.24834E-05-9.15219E-18 1.18034E-17
 -1      1729 4.15231E-05-1.10056E-05-1.59184E-05-2.96094E-05-1.21829E-17 9.52404E-18
 -1      1730 5.83905E-05-1.05512E-06-2.47036E-05-5.03678E-05-1.19745E-17 1.12494E-17
 -1      1731 2.61009E-05-3.60476E-05-5.93947E-07-7.22905E-06-1.05727E-17 6.22781E-18
 -1      1732 2.85441E-05-1.55881E-05-8.07730E-06-2.12731E-05-1.17416E-17 8.40807E-18
 -1      1733 2.37723E-05-6.29116E-05 1.06419E-05 1.05680E-06-7.28025E-18 4.03884E-18
 -1      1734 1.90970E-05-4.24358E-05 5.50046E-06-7.46787E-07-1.01153E-17 5.61403E-18
 -1      1735 2.35909E-05-7.54990E-05 1.58467E-05-2.84421E-06-1.19230E-18 3.48639E-18
 -1      1736 2.07209E-05-6.64708E-05 1.38531E-05 4.49098E-06-6.15878E-18 4.09032E-18
 -1      1737 1.16698E-04-3.40524E-05-3.45481E-05 4.32752E-05 7.92484E-18 6.60008E-18
 -1      1738 6.97322E-05-3.55262E-05-1.62383E-05 3.73569E-05 9.45543E-18 6.69580E-18
 -1      1739 9.52360E-05-2.85743E-05-2.85690E-05-5.65926E-09-8.65115E-19 1.07184E-18
 -1      1740 9.52347E-05-2.85763E-05-2.85677E-05-1.30736E-08-6.15788E-20 4.09795E-18
 -1      1741 1.83428E-05-4.84976E-05 8.66910E-06 1.22685E-05 4.08228E-18 6.64370E-18
 -1      1742 3.76037E-05-4.28015E-05-1.13446E-06 2.50608E-05 7.25399E-18 8.04207E-18
 -1      1743 1.15078E-05-4.99890E-05 1.19379E-05-1.62084E-06-1.15885E-19 6.54206E-18
 -1      1744 1.62471E-04-3.45889E-05-5.19367E-05 3.91879E-05 6.74154E-18 5.87079E-18
 -1      1745 1.97492E-04-3.45403E-05-6.50170E-05 2.64404E-05 5.96311E-18 4.24575E-18
 -1      1746 2.10873E-04-3.31324E-05-7.07330E-05 4.90838E-06 6.04485E-18 1.34848E-18
 -1      1747 2.09438E-04-3.44485E-05-6.93991E-05-1.67560E-05 5.57898E-18-2.37847E-18
 -1      1748 1.84574E-04-3.43428E-05-5.99758E-05-3.73186E-05 6.27342E-18-5.52265E-18
 -1      1749 1.39053E-04-3.41705E-05-4.33018E-05-4.36011E-05 5.29989E-18-7.86555E-18
 -1      1750 9.50794E-05-3.91995E-05-2.44875E-05-4.10838E-05 4.26312E-18-6.49081E-18
 -1      1751 5.38213E-05-4.19526E-05-7.36923E-06-3.32695E-05 3.17468E-18-6.14374E-18
 -1      1752 2.47434E-05-4.61395E-05 5.32834E-06-1.87480E-05 1.34848E-18-4.92783E-18
 -1      1753 1.26286E-05-4.96355E-05 1.14128E-05-4.39176E-06-9.42536E-19-4.57271E-18
 -1      1754 1.50290E-05-4.82961E-05 1.00294E-05 1.17780E-05-3.76760E-18-5.77295E-18
 -1      1755 3.15817E-05-4.33657E-05 1.62200E-06 2.45249E-05-6.62549E-18-7.15674E-18
 -1      1756 5.89424E-05-3.50637E-05-1.20850E-05 3.63870E-05-8.63550E-18-8.32379E-18
 -1      1757 9.60798E-05-2.94075E-05-2.83736E-05 4.56839E-05-9.43764E-18-8.10145E-18
 -1      1758 1.36808E-04-2.83936E-05-4.43156E-05 4.77267E-05-8.92730E-18-7.75374E-18
 -1      1759 1.74942E-04-3.08744E-05-5.78891E-05 4.05963E-05-6.98940E-18-6.15454E-18
 -1      1760 2.01669E-04-3.35445E-05-6.70810E-05 2.30049E-05-5.19951E-18-3.27886E-18
 -1      1761 2.11720E-04-3.44558E-05-7.05182E-05-1.04823E-07-4.91025E-18-7.92346E-19
 -1      1762 2.04018E-04-3.44860E-05-6.74809E-05-2.22999E-05-5.27066E-18 1.82705E-18
 -1      1763 1.76138E-04-3.10829E-05-5.82582E-05-3.99057E-05-5.46492E-18 4.44692E-18
 -1      1764 1.38408E-04-2.94193E-05-4.46604E-05-4.61642E-05-5.84453E-18 6.29261E-18
 -1      1765 9.85198E-05-3.01145E-05-2.90135E-05-4.53977E-05-6.76779E-18 6.48785E-18
 -1      1766 6.13930E-05-3.40733E-05-1.34018E-05-3.73964E-05-6.27567E-18 6.60601E-18
 -1      1767 3.44110E-05-4.18383E-05-1.49870E-07-2.59862E-05-5.06610E-18 5.14043E-18
 -1      1768 1.75765E-05-4.80800E-05 8.71517E-06-1.37306E-05-2.77912E-18 5.37273E-18
 -1      1769 1.06277E-04-2.33218E-05-3.56424E-05-1.61414E-05-1.68025E-18 5.30221E-18
 -1      1770 8.96669E-05-1.06297E-05-3.40009E-05-1.19338E-05-1.78582E-18-2.81271E-18
 -1      1771 9.11344E-05-1.17667E-05-3.41498E-05-1.37670E-05-2.12247E-18-2.16827E-18
 -1      1772 9.32369E-05-1.41203E-05-3.40688E-05-1.47359E-05-2.20722E-18-1.28580E-18
 -1      1773 9.49854E-05-1.61259E-05-3.42867E-05-1.64695E-05-2.50792E-18-1.85606E-19
 -1      1774 9.41576E-05-1.65176E-05-3.32856E-05-1.23717E-05-2.29627E-18-1.50483E-18
 -1      1775 8.59097E-05-7.18900E-06-3.38101E-05-6.62773E-06-7.68851E-19-3.71522E-18
 -1      1776 8.65187E-05-7.58550E-06-3.38818E-05-7.93170E-06-1.02238E-18-3.63189E-18
 -1      1777 8.48860E-05-6.30593E-06-3.37366E-05-4.35039E-06-2.32350E-19-3.76564E-18
 -1      1778 8.53039E-05-6.56911E-06-3.37870E-05-5.51526E-06-4.92156E-19-3.79454E-18
 -1      1779 8.70509E-05-9.11132E-06-3.34301E-05-5.67568E-06-7.28345E-19-3.60817E-18
 -1      1780 8.42460E-05-5.76100E-06-3.36870E-05-2.28479E-06 2.54344E-19-3.61371E-18
 -1      1781 8.44945E-05-5.91452E-06-3.37175E-05-3.34285E-06 4.50706E-20-3.71121E-18
 -1      1782 8.59847E-05-8.11345E-06-3.34002E-05-3.59795E-06-8.68325E-20-3.55469E-18
 -1      1783 8.39609E-05-5.50985E-06-3.36667E-05-3.45771E-07 7.79997E-19-3.53288E-18
 -1      1784 8.40477E-05-5.56416E-06-3.36766E-05-1.34815E-06 5.58535E-19-3.60154E-18
 -1      1785 8.53518E-05-7.53149E-06-3.33772E-05-1.68826E-06 4.50974E-19-3.46260E-18
 -1      1786 8.40303E-05-5.54321E-06-3.36788E-05 1.55953E-06 1.19273E-18-3.28919E-18
 -1      1787 8.39533E-05-5.49879E-06-3.36676E-05 5.61667E-07 9.70707E-19-3.42228E-18
 -1      1788 8.51303E-05-7.32543E-06-3.33699E-05 1.23627E-07 9.27739E-19-3.30422E-18
 -1      1789 8.44653E-05-5.87304E-06-3.37234E-05 3.52983E-06 1.57219E-18-3.10097E-18
 -1      1790 8.42186E-05-5.72328E-06-3.36912E-05 2.48349E-06 1.39447E-18-3.25531E-18
 -1      1791 8.53238E-05-7.49253E-06-3.33813E-05 1.92155E-06 1.36229E-18-3.15104E-18
 -1      1792 8.52711E-05-6.51670E-06-3.37961E-05 5.62927E-06 1.96814E-18-2.60153E-18
 -1      1793 8.48517E-05-6.25453E-06-3.37444E-05 4.49942E-06 1.75529E-18-2.89315E-18
 -1      1794 8.59420E-05-8.04891E-06-3.34084E-05 3.77715E-06 1.75731E-18-2.85385E-18
 -1      1795 8.65346E-05-7.57199E-06-3.38956E-05 8.03100E-06 2.45410E-18-1.85639E-18
 -1      1796 8.58935E-05-7.15080E-06-3.38213E-05 6.71672E-06 2.17147E-18-2.26941E-18
 -1      1797 8.70195E-05-9.04973E-06-3.34427E-05 5.78704E-06 2.20169E-18-2.24229E-18
 -1      1798 8.84075E-05-9.22022E-06-3.40194E-05 1.07884E-05 2.77716E-18-8.17228E-19
 -1      1799 8.74559E-05-8.54913E-06-3.39155E-05 9.23761E-06 2.58576E-18-1.45727E-18
 -1      1800 8.86572E-05-1.06298E-05-3.34671E-05 8.01807E-06 2.63677E-18-1.49996E-18
 -1      1801 9.13104E-05-1.19553E-05-3.41610E-05 1.38697E-05 2.93834E-18 9.30625E-19
 -1      1802 8.97855E-05-1.07538E-05-3.40132E-05 1.20529E-05 2.80278E-18-9.28560E-20
 -1      1803 9.10567E-05-1.30562E-05-3.34453E-05 1.04026E-05 2.90742E-18-2.77271E-19
 -1      1804 9.66434E-05-1.73142E-05-3.41933E-05 1.64521E-05 2.61144E-18 3.89265E-18
 -1      1805 9.36333E-05-1.45759E-05-3.40584E-05 1.48587E-05 2.74005E-18 2.10755E-18
 -1      1806 9.47147E-05-1.70199E-05-3.32862E-05 1.24206E-05 2.88932E-18 1.55806E-18
 -1      1807 1.02532E-04-2.53320E-05-3.35093E-05 1.34733E-05 2.09090E-18 7.36347E-18
 -1      1808 9.88115E-05-1.99118E-05-3.38147E-05 1.58533E-05 2.35126E-18 5.13138E-18
 -1      1809 9.82203E-05-2.21297E-05-3.26825E-05 1.19917E-05 2.63454E-18 3.80694E-18
 -1      1810 9.96227E-05-2.64207E-05-3.15819E-05 8.49604E-06 2.14538E-18 6.66017E-18
 -1      1811 1.00755E-04-1.98500E-05-3.43590E-05-1.78846E-05-2.24441E-18 1.81307E-18
 -1      1812 9.67365E-05-2.76701E-05-2.96224E-05 3.06468E-06 1.70532E-18 5.54568E-18
 -1      1813 9.88330E-05-2.76976E-05-3.05252E-05 5.43566E-06 1.86368E-18 6.15696E-18
 -1      1814 9.86666E-05-2.59306E-05-3.11690E-05 7.58901E-06 2.21610E-18 4.52875E-18
 -1      1815 1.00537E-04-2.28035E-05-3.30370E-05-1.33816E-05-2.37643E-18 1.05074E-18
 -1      1816 9.81686E-05-2.72985E-05-3.02566E-05-4.60276E-06-1.82014E-18 8.14531E-19
 -1      1817 9.66754E-05-2.74180E-05-2.96460E-05-2.74829E-06-1.58240E-18 3.90932E-19
 -1      1818 9.60881E-05-2.76608E-05-2.92279E-05-1.16060E-06-1.44412E-18 4.17223E-19
 -1      1819 9.56846E-05-2.78300E-05-2.90350E-05-2.11734E-07-1.19778E-18-5.00643E-20
 -1      1820 9.69721E-05-2.68517E-05-3.00780E-05-2.93450E-06-1.77795E-18-3.22410E-19
 -1      1821 9.54529E-05-2.79485E-05-2.88699E-05 7.65147E-07-9.78826E-19-3.78253E-20
 -1      1822 9.55929E-05-2.81304E-05-2.88790E-05 1.33127E-06-8.59232E-19-3.64201E-19
 -1      1823 9.62853E-05-2.76151E-05-2.94554E-05 2.32621E-09-1.33294E-18-4.25952E-19
 -1      1824 9.56756E-05-2.82532E-05-2.88622E-05 1.96604E-06-8.21926E-19-3.82161E-19
 -1      1825 9.61702E-05-2.84833E-05-2.89855E-05 2.33502E-06-7.50660E-19-6.29347E-19
 -1      1826 9.62305E-05-2.80699E-05-2.92334E-05 1.83915E-06-1.05786E-18-5.97698E-19
 -1      1827 9.64965E-05-2.86434E-05-2.90623E-05 2.76314E-06-8.33317E-19-5.76901E-19
 -1      1828 9.72244E-05-2.89235E-05-2.92564E-05 3.00790E-06-7.67758E-19-8.90401E-19
 -1      1829 9.66960E-05-2.84771E-05-2.92546E-05 3.05493E-06-8.95016E-19-7.24570E-19
 -1      1830 9.77331E-05-2.91303E-05-2.93923E-05 3.28503E-06-4.96840E-19-9.25967E-19
 -1      1831 9.86086E-05-2.94563E-05-2.96288E-05 3.42420E-06-2.34418E-19-9.15684E-19
 -1      1832 9.75698E-05-2.89344E-05-2.94291E-05 3.86542E-06-6.95715E-19-7.37389E-19
 -1      1833 9.92504E-05-2.97138E-05-2.97979E-05 3.55574E-06-3.39675E-19-9.30443E-19
 -1      1834 1.00195E-04-3.00786E-05-3.00514E-05 3.57387E-06-2.98029E-19-1.00987E-18
 -1      1835 9.87538E-05-2.94860E-05-2.96965E-05 4.34174E-06-3.89400E-19-8.89482E-19
 -1      1836 1.00925E-04-3.03884E-05-3.02305E-05 3.52847E-06-2.22178E-19-1.05394E-18
 -1      1837 1.01851E-04-3.07772E-05-3.04731E-05 3.38516E-06-2.21130E-19-1.09706E-18
 -1      1838 1.00161E-04-3.01580E-05-3.00082E-05 4.45847E-06-3.01599E-19-1.12575E-18
 -1      1839 1.02618E-04-3.11340E-05-3.06395E-05 3.10475E-06-2.44807E-19-1.20590E-18
 -1      1840 1.03411E-04-3.15169E-05-3.08388E-05 2.74524E-06-2.00970E-19-1.39699E-18
 -1      1841 1.01702E-04-3.09604E-05-3.03207E-05 4.11950E-06-3.67740E-19-1.33660E-18
 -1      1842 1.04147E-04-3.18986E-05-3.09702E-05 2.16197E-06-1.05542E-19-1.46323E-18
 -1      1843 1.04669E-04-3.22203E-05-3.10901E-05 1.53807E-06 8.74164E-21-1.47285E-18
 -1      1844 1.03258E-04-3.18678E-05-3.05933E-05 3.18700E-06-2.57965E-19-1.08916E-18
 -1      1845 1.05274E-04-3.25728E-05-3.11679E-05 6.08139E-07 2.61786E-20-1.44637E-18
 -1      1846 1.05369E-04-3.27444E-05-3.11746E-05-2.83593E-07-1.86238E-19-1.23445E-18
 -1      1847 1.04657E-04-3.27853E-05-3.07927E-05 1.53518E-06 6.89472E-20-1.01284E-18
 -1      1848 1.05706E-04-3.29675E-05-3.11888E-05-1.52237E-06-2.35713E-19-1.28618E-18
 -1      1849 1.05239E-04-3.28718E-05-3.10623E-05-2.58704E-06-1.70545E-19-1.19482E-18
 -1      1850 1.05653E-04-3.35078E-05-3.09000E-05-8.51883E-07-1.82827E-19-6.01478E-19
 -1      1851 1.05152E-04-3.28250E-05-3.10175E-05-3.94310E-06-1.08692E-19-1.04375E-18
 -1      1852 1.04076E-04-3.23544E-05-3.07660E-05-4.94096E-06-2.59999E-20-4.30799E-19
 -1      1853 1.05927E-04-3.37095E-05-3.09200E-05-3.73760E-06-1.16682E-19-2.87251E-19
 -1      1854 1.03450E-04-3.19131E-05-3.06834E-05-6.02577E-06 1.76266E-19-5.55491E-19
 -1      1855 1.01892E-04-3.10533E-05-3.03525E-05-6.58663E-06 7.50867E-19-3.04138E-20
 -1      1856 1.05176E-04-3.30284E-05-3.08843E-05-6.49613E-06 1.33176E-19-2.41702E-21
 -1      1857 1.00788E-04-3.02247E-05-3.02623E-05-6.88655E-06 5.18572E-19-1.92296E-19
 -1      1858 9.90990E-05-2.91546E-05-2.99314E-05-6.63938E-06-8.88888E-21-3.99972E-19
 -1      1859 1.03327E-04-3.13099E-05-3.08381E-05-8.12136E-06 4.15657E-19 2.87000E-19
 -1      1860 9.78747E-05-2.82018E-05-2.98628E-05-5.77705E-06-4.65756E-19-1.12201E-18
 -1      1861 9.65710E-05-2.72968E-05-2.96242E-05-4.60366E-06-7.32604E-19-1.45318E-18
 -1      1862 1.00814E-04-2.89174E-05-3.08146E-05-7.56921E-06-6.56788E-19-7.81014E-19
 -1      1863 9.57724E-05-2.66562E-05-2.95940E-05-2.66097E-06-8.08367E-19-1.34177E-18
 -1      1864 9.53311E-05-2.63265E-05-2.95188E-05-8.62327E-07-1.14762E-18-1.70236E-18
 -1      1865 9.86172E-05-2.67897E-05-3.08223E-05-4.45888E-06-8.26274E-19-1.49685E-18
 -1      1866 9.54048E-05-2.63701E-05-2.95303E-05 1.49853E-06-1.35155E-18-1.64536E-18
 -1      1867 9.60108E-05-2.67833E-05-2.96443E-05 3.26411E-06-7.31532E-19-1.70098E-18
 -1      1868 9.78234E-05-2.59886E-05-3.08413E-05 4.00629E-07-9.79263E-19-1.20230E-18
 -1      1869 9.69211E-05-2.74786E-05-2.96986E-05 5.13517E-06-2.87707E-19-1.70839E-18
 -1      1870 9.83584E-05-2.84366E-05-2.99720E-05 6.24106E-06 1.12238E-19-2.31276E-18
 -1      1871 9.88867E-05-2.69669E-05-3.08610E-05 5.16631E-06-7.09767E-19-1.14943E-18
 -1      1872 9.96567E-05-2.94145E-05-3.00629E-05 7.00692E-06 3.95298E-19-2.36636E-18
 -1      1873 1.01437E-04-3.05006E-05-3.04219E-05 7.18180E-06 2.58446E-19-2.06282E-18
 -1      1874 1.01273E-04-2.91872E-05-3.08944E-05 8.08891E-06 4.18917E-20-1.92862E-18
 -1      1875 1.02564E-04-3.13097E-05-3.05347E-05 6.81160E-06 2.36542E-19-1.89624E-18
 -1      1876 1.04184E-04-3.21594E-05-3.08896E-05 6.21874E-06 7.10135E-19-1.72876E-18
 -1      1877 1.03878E-04-3.15759E-05-3.09590E-05 8.44589E-06 5.60491E-19-1.75284E-18
 -1      1878 1.04828E-04-3.25760E-05-3.09959E-05 5.12614E-06 5.52590E-19-1.59580E-18
 -1      1879 1.05962E-04-3.30377E-05-3.12706E-05 4.14287E-06 7.26523E-19-1.33642E-18
 -1      1880 1.05759E-04-3.32215E-05-3.10521E-05 6.73805E-06 7.27869E-19-1.11518E-18
 -1      1881 1.06087E-04-3.30734E-05-3.13397E-05 2.83278E-06 7.07564E-19-1.86154E-18
 -1      1882 1.06633E-04-3.31766E-05-3.14930E-05 1.81856E-06 3.80543E-19-1.69157E-18
 -1      1883 1.06557E-04-3.38373E-05-3.11368E-05 4.02666E-06 6.61003E-19-1.73803E-18
 -1      1884 1.06359E-04-3.29618E-05-3.15051E-05 6.57293E-07 3.34777E-20-1.84810E-18
 -1      1885 1.06377E-04-3.28186E-05-3.15325E-05-1.65741E-07-2.58464E-19-1.79432E-18
 -1      1886 1.06379E-04-3.36145E-05-3.11671E-05 1.28075E-06 4.43974E-19-2.48419E-18
 -1      1887 1.05862E-04-3.24910E-05-3.14842E-05-1.00839E-06-3.83686E-19-1.69303E-18
 -1      1888 1.05491E-04-3.22171E-05-3.14073E-05-1.56070E-06-3.44372E-19-1.80219E-18
 -1      1889 1.05536E-04-3.29186E-05-3.11131E-05-9.23443E-07-1.43537E-19-1.58970E-18
 -1      1890 1.04863E-04-3.18716E-05-3.13080E-05-2.06363E-06-2.90630E-19-1.38986E-18
 -1      1891 1.04255E-04-3.15526E-05-3.11597E-05-2.35993E-06 1.32840E-19-7.70886E-19
 -1      1892 1.04334E-04-3.20655E-05-3.09701E-05-2.39175E-06-3.86955E-20-1.04800E-18
 -1      1893 1.03601E-04-3.12387E-05-3.10258E-05-2.57979E-06 6.42620E-20-1.05641E-18
 -1      1894 1.02885E-04-3.09260E-05-3.08391E-05-2.67755E-06 2.04320E-19-5.22450E-19
 -1      1895 1.03003E-04-3.12482E-05-3.07538E-05-3.17254E-06 1.05670E-19-1.18600E-18
 -1      1896 1.02259E-04-3.06620E-05-3.06879E-05-2.69534E-06-9.95685E-20-9.63249E-19
 -1      1897 1.01529E-04-3.03819E-05-3.04897E-05-2.65998E-06-4.19760E-19-1.37283E-18
 -1      1898 1.01687E-04-3.05531E-05-3.04902E-05-3.42073E-06-3.61070E-19-8.54209E-19
 -1      1899 1.00961E-04-3.01693E-05-3.03358E-05-2.55180E-06-8.44769E-19-1.33033E-18
 -1      1900 1.00276E-04-2.99319E-05-3.01449E-05-2.43949E-06-5.70749E-19-1.75751E-18
 -1      1901 1.00470E-04-3.00004E-05-3.02067E-05-3.30967E-06-4.68753E-19-1.21044E-18
 -1      1902 9.97799E-05-2.97652E-05-2.99991E-05-2.26509E-06-6.08387E-19-1.90390E-18
 -1      1903 9.91751E-05-2.95716E-05-2.98268E-05-2.11734E-06-7.53019E-19-1.58001E-18
 -1      1904 9.93932E-05-2.95787E-05-2.99263E-05-2.98846E-06-7.18813E-19-1.34475E-18
 -1      1905 9.87540E-05-2.94432E-05-2.96957E-05-1.91849E-06-7.30012E-19-1.42212E-18
 -1      1906 9.82420E-05-2.92900E-05-2.95474E-05-1.76281E-06-6.87528E-20-1.24984E-18
 -1      1907 9.84708E-05-2.92654E-05-2.96652E-05-2.56840E-06-5.12448E-19-7.23678E-19
 -1      1908 9.78940E-05-2.91926E-05-2.94342E-05-1.56597E-06-4.75272E-19-1.29762E-18
 -1      1909 9.74754E-05-2.90744E-05-2.93113E-05-1.41873E-06-2.59853E-19-1.73301E-18
 -1      1910 9.77020E-05-2.90372E-05-2.94332E-05-2.12438E-06-3.19585E-19-4.64882E-20
 -1      1911 9.71944E-05-2.90015E-05-2.92169E-05-1.23887E-06 3.63356E-20-1.95016E-18
 -1      1912 9.68622E-05-2.89124E-05-2.91182E-05-1.10855E-06-1.84163E-20-2.32367E-18
 -1      1913 9.70765E-05-2.88737E-05-2.92347E-05-1.70198E-06-6.31425E-19 2.55462E-20
 -1      1914 9.66403E-05-2.88587E-05-2.90416E-05-9.52706E-07-1.96412E-19-2.41187E-18
 -1      1915 9.63837E-05-2.87933E-05-2.89646E-05-8.42566E-07 3.58261E-19-2.42934E-18
 -1      1916 9.65785E-05-2.87584E-05-2.90701E-05-1.32547E-06-2.89747E-19-1.71749E-19
 -1      1917 9.62122E-05-2.87544E-05-2.89041E-05-7.12729E-07 5.28008E-19-2.62350E-18
 -1      1918 9.60193E-05-2.87075E-05-2.88455E-05-6.22876E-07-4.91076E-20-1.91047E-18
 -1      1919 9.61904E-05-2.86788E-05-2.89372E-05-1.00485E-06 4.87828E-19-8.06888E-19
 -1      1920 9.58896E-05-2.86800E-05-2.87989E-05-5.18034E-07 6.92541E-19-1.96972E-18
 -1      1921 9.57485E-05-2.86475E-05-2.87556E-05-4.46830E-07 1.51197E-18-1.31757E-18
 -1      1922 9.58945E-05-2.86252E-05-2.88328E-05-7.41219E-07 6.43256E-19-7.70501E-19
 -1      1923 9.56528E-05-2.86285E-05-2.87206E-05-3.64392E-07 1.55010E-18-9.29199E-19
 -1      1924 9.55527E-05-2.86069E-05-2.86894E-05-3.09388E-07 9.29411E-19-7.46508E-19
 -1      1925 9.56739E-05-2.85903E-05-2.87526E-05-5.30589E-07 1.32441E-18-8.74807E-20
 -1      1926 9.54839E-05-2.85942E-05-2.86639E-05-2.46103E-07 5.39172E-19 4.63200E-19
 -1      1927 9.54157E-05-2.85807E-05-2.86423E-05-2.04610E-07 5.14275E-19 6.42902E-19
 -1      1928 9.55135E-05-2.85687E-05-2.86926E-05-3.66486E-07 1.49622E-18 8.27444E-19
 -1      1929 9.53679E-05-2.85727E-05-2.86241E-05-1.57133E-07-3.90168E-19-1.52560E-19
 -1      1930 9.53237E-05-2.85650E-05-2.86098E-05-1.26562E-07-1.92344E-19 2.86430E-19
 -1      1931 9.54003E-05-2.85566E-05-2.86489E-05-2.41577E-07-3.84918E-19 1.29713E-18
 -1      1932 9.52918E-05-2.85604E-05-2.85974E-05-9.17783E-08-2.15375E-19 2.55032E-19
 -1      1933 9.52653E-05-2.85568E-05-2.85886E-05-6.98222E-08 5.29197E-19 1.79640E-19
 -1      1934 9.53234E-05-2.85508E-05-2.86180E-05-1.48663E-07 3.34428E-19 1.65250E-18
 -1      1935 9.52453E-05-2.85546E-05-2.85805E-05-4.50154E-08 1.84749E-18 5.58751E-19
 -1      1936 9.52317E-05-2.85538E-05-2.85756E-05-2.97335E-08 1.58641E-18 1.97414E-18
 -1      1937 9.52737E-05-2.85495E-05-2.85970E-05-8.12379E-08 1.46432E-18 1.69605E-18
 -1      1938 9.52203E-05-2.85533E-05-2.85707E-05-1.26626E-08 8.60191E-19 2.65006E-18
 -1      1939 9.52155E-05-2.85545E-05-2.85686E-05-2.51289E-09 1.68488E-18 3.90853E-18
 -1      1940 9.52441E-05-2.85510E-05-2.85834E-05-3.37608E-08 1.99928E-18 2.65183E-18
 -1      1941 9.52102E-05-2.85551E-05-2.85659E-05 8.56393E-09 1.27473E-18 3.00952E-18
 -1      1942 9.52113E-05-2.85575E-05-2.85656E-05 1.47135E-08 1.23426E-18 2.08238E-18
 -1      1943 9.52288E-05-2.85544E-05-2.85752E-05-1.76811E-09 1.06275E-18 4.56433E-18
 -1      1944 9.52100E-05-2.85589E-05-2.85644E-05 2.10376E-08 3.69233E-19 1.47201E-18
 -1      1945 9.52145E-05-2.85620E-05-2.85652E-05 2.38938E-08-3.10531E-19 9.64260E-19
 -1      1946 9.52232E-05-2.85591E-05-2.85706E-05 1.81005E-08-4.18646E-20 2.03768E-18
 -1      1947 9.52157E-05-2.85641E-05-2.85648E-05 2.63149E-08 5.23759E-20 4.89530E-19
 -1      1948 9.52217E-05-2.85676E-05-2.85660E-05 2.61057E-08 1.92719E-19 4.64674E-19
 -1      1949 9.52240E-05-2.85648E-05-2.85684E-05 2.81328E-08-5.43547E-19 7.89239E-19
 -1      1950 9.52237E-05-2.85698E-05-2.85659E-05 2.50393E-08 7.39718E-20-2.38853E-19
 -1      1951 9.52296E-05-2.85735E-05-2.85670E-05 2.18416E-08-5.85810E-19-7.23251E-19
 -1      1952 9.52335E-05-2.85775E-05-2.85669E-05 2.49290E-08-8.66582E-19-1.16969E-18
 -1      1953 9.52281E-05-2.85713E-05-2.85673E-05 2.98543E-08-5.80294E-19-6.00642E-20
 -1      1954 9.53314E-05-2.79010E-05-2.88626E-05 4.06531E-07 1.20385E-18 4.63074E-18
 -1      1955 9.61273E-05-2.79049E-05-2.91753E-05 1.57556E-06 1.39668E-18 5.18816E-18
 -1      1956 9.68496E-05-2.74352E-05-2.97591E-05 2.69830E-06 1.73721E-18 3.82513E-18
 -1      1957 9.51583E-05-2.81010E-05-2.87047E-05-1.17268E-06 9.66623E-19 3.96795E-18
 -1      1958 9.51559E-05-2.80001E-05-2.87252E-05-4.67449E-07 9.42887E-19 4.30493E-18
 -1      1959 9.59274E-05-2.78847E-05-2.91737E-05-9.22698E-08 1.28773E-18 3.26106E-18
 -1      1960 9.59044E-05-2.84256E-05-2.88921E-05-2.27267E-06 8.42550E-19 3.44555E-18
 -1      1961 9.53858E-05-2.82229E-05-2.87473E-05-1.76295E-06 8.63428E-19 3.76601E-18
 -1      1962 9.59657E-05-2.81872E-05-2.90644E-05-1.87256E-06 9.92359E-19 2.68112E-18
 -1      1963 9.73552E-05-2.88955E-05-2.93159E-05-3.16859E-06 1.67769E-19 2.96910E-18
 -1      1964 9.64576E-05-2.86023E-05-2.90566E-05-2.73677E-06 5.25617E-19 3.33112E-18
 -1      1965 9.67540E-05-2.85383E-05-2.92532E-05-3.18168E-06 6.73944E-19 2.30134E-18
 -1      1966 9.93937E-05-2.95132E-05-2.99266E-05-3.99119E-06 4.65713E-19 2.66655E-18
 -1      1967 9.81803E-05-2.91337E-05-2.95739E-05-3.58129E-06 2.20199E-19 2.81235E-18
 -1      1968 9.81431E-05-2.89915E-05-2.96542E-05-4.28565E-06 4.07663E-19 1.95840E-18
 -1      1969 1.01957E-04-3.02879E-05-3.06957E-05-4.78501E-06 5.76646E-19 2.45956E-18
 -1      1970 1.00459E-04-2.98195E-05-3.02610E-05-4.37822E-06 5.14281E-19 2.70518E-18
 -1      1971 1.00046E-04-2.95726E-05-3.02207E-05-5.30526E-06 6.76652E-19 1.54779E-18
 -1      1972 1.04996E-04-3.12398E-05-3.15958E-05-5.51391E-06 3.98903E-19 1.95783E-18
 -1      1973 1.03244E-04-3.06760E-05-3.10916E-05-5.12887E-06 5.31689E-19 2.37380E-18
 -1      1974 1.02414E-04-3.03141E-05-3.09184E-05-6.25869E-06 6.20313E-19 1.56165E-18
 -1      1975 1.08430E-04-3.23956E-05-3.25830E-05-6.03653E-06 1.26664E-19 2.06192E-18
 -1      1976 1.06483E-04-3.17325E-05-3.20326E-05-5.74370E-06 2.74139E-19 2.00395E-18
 -1      1977 1.05210E-04-3.12669E-05-3.17097E-05-7.05531E-06 4.02443E-19 1.47282E-18
 -1      1978 1.12092E-04-3.37751E-05-3.35789E-05-6.06657E-06 3.83373E-19 2.43893E-18
 -1      1979 1.10078E-04-3.30239E-05-3.30280E-05-6.01055E-06 1.97393E-19 2.13818E-18
 -1      1980 1.08382E-04-3.25023E-05-3.25404E-05-7.46218E-06 1.54234E-19 1.57118E-18
 -1      1981 1.15668E-04-3.53538E-05-3.44571E-05-5.14900E-06-4.29605E-20 2.62423E-18
 -1      1982 1.13824E-04-3.45650E-05-3.39831E-05-5.56313E-06 5.67314E-20 2.58444E-18
 -1      1983 1.11821E-04-3.40908E-05-3.33314E-05-7.06722E-06 3.60551E-20 1.46656E-18
 -1      1984 1.18628E-04-3.69714E-05-3.50493E-05-2.72638E-06 1.56456E-19 2.75658E-18
 -1      1985 1.17329E-04-3.62819E-05-3.47593E-05-3.90078E-06 1.60275E-20 2.80204E-18
 -1      1986 1.15297E-04-3.60265E-05-3.39827E-05-5.29239E-06 3.71239E-20 1.92616E-18
 -1      1987 1.20179E-04-3.81715E-05-3.51959E-05 1.53656E-06 4.11737E-19 3.14258E-18
 -1      1988 1.19913E-04-3.78588E-05-3.51971E-05-5.73133E-07 2.15265E-19 3.11229E-18
 -1      1989 1.18341E-04-3.80303E-05-3.44053E-05-1.57197E-06 7.75697E-20 2.40995E-18
 -1      1990 1.19400E-04-3.81200E-05-3.48512E-05 7.10392E-06-5.75102E-19 3.50627E-18
 -1      1991 1.20602E-04-3.85871E-05-3.51848E-05 4.33014E-06 1.01909E-21 3.27560E-18
 -1      1992 1.20122E-04-3.93217E-05-3.45818E-05 4.11488E-06 3.89238E-20 2.88782E-18
 -1      1993 1.15653E-04-3.58578E-05-3.41835E-05 1.17622E-05 1.99170E-19 3.50206E-18
 -1      1994 1.18387E-04-3.74022E-05-3.47533E-05 9.46299E-06-4.78534E-19 3.40536E-18
 -1      1995 1.19516E-04-3.85743E-05-3.46252E-05 1.04273E-05-4.11466E-19 3.07879E-18
 -1      1996 1.09801E-04-3.16190E-05-3.35235E-05 1.19881E-05 1.99160E-18 2.77618E-18
 -1      1997 1.13269E-04-3.38223E-05-3.41071E-05 1.18861E-05 1.14197E-18 3.17685E-18
 -1      1998 1.15981E-04-3.49609E-05-3.47151E-05 1.40403E-05 1.31527E-18 2.88851E-18
 -1      1999 1.04791E-04-2.76523E-05-3.31635E-05 5.84228E-06 1.25589E-18 2.95992E-18
 -1      2000 1.07400E-04-2.93227E-05-3.35118E-05 8.79980E-06 1.72432E-18 3.02751E-18
 -1      2001 1.11012E-04-2.97594E-05-3.49184E-05 1.12251E-05 1.76048E-18 2.69404E-18
 -1      2002 1.04424E-04-2.73157E-05-3.32004E-05-4.08735E-06 3.91594E-19 1.42579E-18
 -1      2003 1.04463E-04-2.70642E-05-3.31688E-05 4.64881E-07 8.65747E-19 2.40701E-18
 -1      2004 1.08093E-04-2.65668E-05-3.50719E-05 1.72827E-06 1.10157E-18 2.34535E-18
 -1      2005 1.09163E-04-3.09267E-05-3.36504E-05-1.14916E-05 8.53968E-19-2.48737E-19
 -1      2006 1.06562E-04-2.89852E-05-3.32330E-05-8.21297E-06 4.62004E-19 7.86655E-19
 -1      2007 1.09865E-04-2.83084E-05-3.50474E-05-8.99431E-06 1.09749E-18 7.23101E-19
 -1      2008 1.15670E-04-3.55201E-05-3.43547E-05-1.25798E-05 1.09986E-18-1.14847E-18
 -1      2009 1.11987E-04-3.33172E-05-3.37289E-05-1.20865E-05 9.64843E-19-1.00135E-18
 -1      2010 1.14773E-04-3.33198E-05-3.49226E-05-1.42915E-05 1.47004E-18-1.26412E-18
 -1      2011 1.20285E-04-3.82901E-05-3.50668E-05-8.56810E-06 1.46471E-18-2.15324E-18
 -1      2012 1.17302E-04-3.69509E-05-3.44819E-05-1.02169E-05 1.18440E-18-1.19107E-18
 -1      2013 1.19165E-04-3.78299E-05-3.48402E-05-1.24841E-05 1.48072E-18-1.93375E-18
 -1      2014 1.21678E-04-3.86948E-05-3.54874E-05-2.97583E-06-4.96652E-19-2.34870E-18
 -1      2015 1.20276E-04-3.83955E-05-3.51549E-05-5.28108E-06 6.56927E-19-2.08565E-18
 -1      2016 1.20819E-04-3.95641E-05-3.48334E-05-6.65224E-06 7.79720E-19-2.39817E-18
 -1      2017 1.20428E-04-3.76187E-05-3.54450E-05 1.60238E-06-6.32303E-19-2.07995E-18
 -1      2018 1.20552E-04-3.80017E-05-3.54391E-05-3.00764E-07-9.71573E-19-2.29530E-18
 -1      2019 1.19830E-04-3.88282E-05-3.47481E-05-5.67686E-07-7.22453E-19-1.93709E-18
 -1      2020 1.17649E-04-3.60254E-05-3.49695E-05 4.32266E-06-7.49637E-19-6.58548E-19
 -1      2021 1.18819E-04-3.67027E-05-3.52364E-05 3.16946E-06-4.84132E-19-1.22050E-18
 -1      2022 1.17277E-04-3.69714E-05-3.44505E-05 3.76777E-06-7.09152E-19-9.78575E-19
 -1      2023 1.14261E-04-3.44591E-05-3.42077E-05 5.41965E-06-5.67969E-19-2.50940E-19
 -1      2024 1.15959E-04-3.51900E-05-3.46393E-05 4.93017E-06-6.14618E-19-2.60575E-19
 -1      2025 1.14113E-04-3.50048E-05-3.39261E-05 6.03777E-06-6.89233E-19-7.36058E-20
 -1      2026 1.10842E-04-3.31190E-05-3.33233E-05 5.45371E-06-1.55602E-19 9.82204E-19
 -1      2027 1.12680E-04-3.37912E-05-3.38166E-05 5.40572E-06-1.17666E-19 1.35155E-19
 -1      2028 1.10905E-04-3.33569E-05-3.32462E-05 6.71918E-06-2.27525E-19 4.67870E-19
 -1      2029 1.07701E-04-3.20356E-05-3.24414E-05 4.92628E-06-1.32489E-18 1.72862E-18
 -1      2030 1.09444E-04-3.26097E-05-3.29247E-05 5.11673E-06-9.22889E-19 1.06666E-18
 -1      2031 1.07934E-04-3.20969E-05-3.25058E-05 6.43112E-06-8.62022E-19 1.20831E-18
 -1      2032 1.04975E-04-3.11806E-05-3.16368E-05 4.17637E-06-1.37118E-19 1.24273E-18
 -1      2033 1.06508E-04-3.16511E-05-3.20705E-05 4.46594E-06-4.13986E-19 1.83320E-18
 -1      2034 1.05321E-04-3.11631E-05-3.17828E-05 5.66567E-06-5.34790E-19 1.51793E-18
 -1      2035 1.02698E-04-3.05135E-05-3.09440E-05 3.39758E-06-1.71956E-19 6.20329E-19
 -1      2036 1.03982E-04-3.08890E-05-3.13119E-05 3.70540E-06-2.51747E-19 1.09435E-18
 -1      2037 1.03101E-04-3.04730E-05-3.11264E-05 4.73910E-06 9.20718E-20 1.91782E-18
 -1      2038 1.00850E-04-2.99972E-05-3.03706E-05 2.68468E-06 2.04909E-19 1.15820E-18
 -1      2039 1.01889E-04-3.02912E-05-3.06710E-05 2.97025E-06 8.87896E-21 5.74191E-19
 -1      2040 1.01265E-04-2.99595E-05-3.05599E-05 3.82643E-06-1.31599E-19 2.23023E-18
 -1      2041 9.93835E-05-2.96012E-05-2.99097E-05 2.07438E-06 6.08676E-19 1.61082E-19
 -1      2042 1.00203E-04-2.98276E-05-3.01483E-05 2.32123E-06 7.46789E-19 1.06203E-18
 -1      2043 9.97798E-05-2.95748E-05-3.00887E-05 3.01013E-06 7.87120E-19 5.23359E-19
 -1      2044 9.82412E-05-2.93006E-05-2.95476E-05 1.57277E-06-6.00252E-19-2.17191E-19
 -1      2045 9.88746E-05-2.94722E-05-2.97330E-05 1.77727E-06-3.54060E-19-7.04067E-20
 -1      2046 9.86006E-05-2.92860E-05-2.97075E-05 2.31910E-06 1.03457E-19-1.89507E-19
 -1      2047 9.73671E-05-2.90751E-05-2.92687E-05 1.17163E-06 3.93487E-19 1.32301E-18
 -1      2048 9.78477E-05-2.92033E-05-2.94100E-05 1.33633E-06 7.22145E-20 8.46912E-19
 -1      2049 9.76806E-05-2.90699E-05-2.94061E-05 1.75436E-06-3.27727E-19 4.97944E-19
 -1      2050 9.67093E-05-2.89085E-05-2.90576E-05 8.57261E-07 1.15196E-18 1.01337E-18
 -1      2051 9.70676E-05-2.90026E-05-2.91634E-05 9.87200E-07 8.68652E-19 1.91030E-18
 -1      2052 9.69747E-05-2.89097E-05-2.91723E-05 1.30409E-06 1.04388E-18 1.70525E-18
 -1      2053 9.62230E-05-2.87876E-05-2.89007E-05 6.14901E-07 4.33334E-19 8.74590E-19
 -1      2054 9.64853E-05-2.88554E-05-2.89785E-05 7.15733E-07 9.49586E-19 1.77548E-18
 -1      2055 9.64420E-05-2.87924E-05-2.89943E-05 9.51803E-07 1.08787E-18 3.76639E-18
 -1      2056 9.58704E-05-2.87016E-05-2.87862E-05 4.30769E-07-1.45882E-18 5.57095E-19
 -1      2057 9.60585E-05-2.87493E-05-2.88423E-05 5.07888E-07-3.79218E-19 2.69766E-19
 -1      2058 9.60472E-05-2.87081E-05-2.88610E-05 6.80534E-07 3.12151E-19 3.11490E-18
 -1      2059 9.56204E-05-2.86421E-05-2.87045E-05 2.92841E-07-4.06988E-19 1.67903E-18
 -1      2060 9.57521E-05-2.86748E-05-2.87440E-05 3.51017E-07-7.43827E-19 1.57036E-18
 -1      2061 9.57602E-05-2.86490E-05-2.87632E-05 4.74660E-07-1.03545E-18 2.39470E-18
 -1      2062 9.54483E-05-2.86024E-05-2.86478E-05 1.91014E-07-1.67618E-19 1.15222E-18
 -1      2063 9.55376E-05-2.86239E-05-2.86747E-05 2.34297E-07-1.00543E-18 6.54567E-19
 -1      2064 9.55564E-05-2.86089E-05-2.86929E-05 3.20631E-07-4.73093E-19 1.96328E-18
 -1      2065 9.53342E-05-2.85773E-05-2.86096E-05 1.17018E-07-1.43427E-18 1.94333E-18
 -1      2066 9.53922E-05-2.85906E-05-2.86273E-05 1.48753E-07-3.43479E-19 1.42262E-18
 -1      2067 9.54158E-05-2.85828E-05-2.86436E-05 2.07092E-07-1.12469E-18 4.14193E-19
 -1      2068 9.52627E-05-2.85627E-05-2.85853E-05 6.42141E-08 1.09180E-18 1.10458E-18
 -1      2069 9.52979E-05-2.85702E-05-2.85962E-05 8.71057E-08-3.98254E-19 2.00762E-18
 -1      2070 9.53224E-05-2.85670E-05-2.86102E-05 1.24759E-07 8.68953E-21 3.10285E-19
 -1      2071 9.52218E-05-2.85556E-05-2.85709E-05 2.73785E-08 2.71992E-19 2.21029E-18
 -1      2072 9.52409E-05-2.85589E-05-2.85770E-05 4.35687E-08 1.10181E-18 1.95152E-18
 -1      2073 9.52639E-05-2.85585E-05-2.85886E-05 6.61975E-08 6.32030E-19 2.19328E-18
 -1      2074 9.52026E-05-2.85536E-05-2.85635E-05 2.50181E-09 1.78381E-18 7.56158E-19
 -1      2075 9.52103E-05-2.85542E-05-2.85662E-05 1.36422E-08 1.17176E-18 1.47314E-18
 -1      2076 9.52304E-05-2.85553E-05-2.85755E-05 2.55868E-08 1.28920E-18 2.40438E-18
 -1      2077 9.51979E-05-2.85551E-05-2.85610E-05-1.33792E-08 7.62907E-19-8.30938E-19
 -1      2078 9.51981E-05-2.85538E-05-2.85614E-05-6.06896E-09 1.06748E-18-3.49056E-19
 -1      2079 9.52145E-05-2.85556E-05-2.85685E-05-1.50332E-09 1.66546E-18 7.34712E-19
 -1      2080 9.52025E-05-2.85588E-05-2.85614E-05-2.22780E-08 5.14272E-19 1.31279E-18
 -1      2081 9.51981E-05-2.85564E-05-2.85605E-05-1.79865E-08 5.46275E-19 8.77328E-19
 -1      2082 9.52105E-05-2.85583E-05-2.85655E-05-1.82863E-08 1.74426E-19 1.10297E-18
 -1      2083 9.52121E-05-2.85638E-05-2.85634E-05-2.52767E-08 7.74931E-20 7.55594E-19
 -1      2084 9.52054E-05-2.85608E-05-2.85618E-05-2.36145E-08 5.16103E-19 1.44387E-18
 -1      2085 9.52138E-05-2.85626E-05-2.85650E-05-2.68251E-08-8.41072E-20 2.50781E-18
 -1      2086 9.52232E-05-2.85695E-05-2.85658E-05-2.24852E-08 2.50236E-19 9.31147E-19
 -1      2087 9.52162E-05-2.85663E-05-2.85642E-05-2.36514E-08-1.99856E-19 9.40993E-19
 -1      2088 9.52212E-05-2.85681E-05-2.85657E-05-2.82640E-08-1.75395E-19 3.68193E-18
 -1      2089 9.52319E-05-2.85746E-05-2.85675E-05-1.62596E-08-7.10835E-19 2.86023E-18
 -1      2090 9.52259E-05-2.85714E-05-2.85662E-05-2.02644E-08-5.48889E-19 1.82423E-18
 -1      2091 9.52287E-05-2.85733E-05-2.85666E-05-2.47855E-08-7.36936E-19 4.71455E-18
 -1      2092 9.52347E-05-2.85784E-05-2.85669E-05-1.91738E-08-1.06232E-18 5.61302E-18
 -1      2093 9.52495E-05-2.86031E-05-2.85628E-05-2.07745E-08 1.76053E-18-8.16467E-19
 -1      2094 9.52473E-05-2.85978E-05-2.85640E-05-2.27639E-08 1.77776E-18 2.11967E-19
 -1      2095 9.52457E-05-2.85955E-05-2.85644E-05-2.46023E-08 8.16743E-19-1.09690E-18
 -1      2096 9.52426E-05-2.85895E-05-2.85656E-05-2.49551E-08 1.58034E-18-1.33002E-18
 -1      2097 9.52450E-05-2.85889E-05-2.85669E-05-2.79635E-08 1.34165E-18-7.95476E-20
 -1      2098 9.52407E-05-2.85875E-05-2.85656E-05-2.43136E-08 6.96445E-19-2.10007E-19
 -1      2099 9.52371E-05-2.85815E-05-2.85667E-05-2.19044E-08-9.94274E-19 2.74422E-18
 -1      2100 9.52349E-05-2.85792E-05-2.85668E-05-2.54777E-08-1.54160E-18 3.58923E-18
 -1      2101 9.52404E-05-2.85845E-05-2.85669E-05-2.93347E-08-1.86217E-19 8.08854E-19
 -1      2102 9.52515E-05-2.86083E-05-2.85614E-05-1.53676E-08 1.32279E-18-2.84052E-18
 -1      2103 9.52502E-05-2.86043E-05-2.85624E-05-1.78728E-08 2.24954E-18-1.70419E-18
 -1      2104 9.52480E-05-2.85927E-05-2.85666E-05-2.26223E-08 2.12679E-18-9.55466E-19
 -1      2105 9.52522E-05-2.86114E-05-2.85603E-05-9.77812E-09 9.52154E-19-1.85454E-19
 -1      2106 9.52515E-05-2.86088E-05-2.85610E-05-1.22660E-08 1.22683E-18-3.92252E-19
 -1      2107 9.52489E-05-2.85945E-05-2.85662E-05-1.60294E-08 2.30236E-18-2.04573E-18
 -1      2108 9.52522E-05-2.86129E-05-2.85597E-05-4.82059E-09 4.70383E-19-9.57315E-19
 -1      2109 9.52520E-05-2.86115E-05-2.85601E-05-7.00787E-09 8.71829E-19 4.08361E-19
 -1      2110 9.52487E-05-2.85950E-05-2.85659E-05-9.63957E-09 1.59754E-18-2.11759E-19
 -1      2111 9.52520E-05-2.86131E-05-2.85595E-05-5.26801E-10 4.66841E-19-3.51998E-19
 -1      2112 9.52520E-05-2.86127E-05-2.85596E-05-2.46107E-09 5.24976E-19-6.30359E-19
 -1      2113 9.52481E-05-2.85948E-05-2.85657E-05-4.12110E-09 7.76087E-19-7.67667E-19
 -1      2114 9.52518E-05-2.86124E-05-2.85597E-05 3.51114E-09-9.81828E-19-2.04985E-18
 -1      2115 9.52519E-05-2.86130E-05-2.85595E-05 1.62276E-09-2.84453E-19 3.48251E-21
 -1      2116 9.52477E-05-2.85945E-05-2.85656E-05 6.83646E-10-1.05804E-18-1.08430E-18
 -1      2117 9.52516E-05-2.86106E-05-2.85603E-05 7.81699E-09-1.32056E-18-1.85575E-18
 -1      2118 9.52519E-05-2.86123E-05-2.85598E-05 5.75740E-09-6.56533E-19-2.50430E-18
 -1      2119 9.52478E-05-2.85943E-05-2.85657E-05 5.36271E-09-1.66844E-18-2.12609E-18
 -1      2120 9.52510E-05-2.86077E-05-2.85613E-05 1.26008E-08-8.67425E-19-8.08861E-19
 -1      2121 9.52517E-05-2.86105E-05-2.85605E-05 1.03421E-08-1.66832E-18-9.10680E-19
 -1      2122 9.52481E-05-2.85942E-05-2.85660E-05 1.04793E-08-9.14340E-19-1.78960E-18
 -1      2123 9.52496E-05-2.86032E-05-2.85626E-05 1.78006E-08 3.69183E-19 4.29061E-18
 -1      2124 9.52509E-05-2.86072E-05-2.85616E-05 1.54530E-08-2.47258E-19 2.44643E-18
 -1      2125 9.52483E-05-2.85935E-05-2.85664E-05 1.63038E-08 4.13931E-19 8.40547E-19
 -1      2126 9.52468E-05-2.85967E-05-2.85643E-05 2.23173E-08-6.34499E-22 1.45731E-18
 -1      2127 9.52489E-05-2.86019E-05-2.85630E-05 2.05033E-08 1.77718E-19 1.61721E-18
 -1      2128 9.52473E-05-2.85916E-05-2.85668E-05 2.24248E-08 6.37624E-19 2.52839E-18
 -1      2129 9.52420E-05-2.85887E-05-2.85658E-05 2.46285E-08-7.00796E-19-5.09982E-19
 -1      2130 9.52455E-05-2.85946E-05-2.85646E-05 2.40186E-08-8.56489E-19 1.46688E-18
 -1      2131 9.52445E-05-2.85879E-05-2.85671E-05 2.73066E-08-5.22109E-20 8.05277E-19
 -1      2132 5.57018E-05-4.04401E-05-7.20371E-06 3.72950E-05 4.24872E-18 4.68769E-18
 -1      2133 4.13244E-05-4.16212E-05-1.29068E-06 3.04253E-05 2.41701E-18 6.40473E-18
 -1      2134 1.26030E-05-3.22080E-05 7.32851E-06 3.42420E-06 4.69256E-19 7.38782E-18
 -1      2135 1.22965E-05-3.15946E-05 7.22511E-06-6.74283E-06-1.06726E-18 6.85080E-18
 -1      2136 2.48731E-05-3.58867E-05 3.57929E-06 2.33453E-05 3.24837E-18 7.90642E-18
 -1      2137 1.70957E-05-3.66857E-05 6.85064E-06 1.40628E-05 7.43695E-19 6.67547E-18
 -1      2138 9.02530E-05-4.25909E-05-2.07869E-05 4.16928E-05 5.70307E-18 3.96581E-18
 -1      2139 7.07364E-05-4.46564E-05-1.25819E-05 3.59209E-05 5.41593E-18 4.20912E-18
 -1      2140 7.48682E-05-4.78388E-05-1.19528E-05 4.06030E-05 1.52932E-18 2.90649E-18
 -1      2141 1.35740E-04-4.66040E-05-3.79092E-05 3.30287E-05 5.01232E-18 3.19077E-18
 -1      2142 1.13532E-04-4.68120E-05-2.92227E-05 3.36157E-05 5.37104E-18 4.03992E-18
 -1      2143 8.73848E-05-8.50989E-06-3.39012E-05-9.16007E-06-1.27754E-18-3.48285E-18
 -1      2144 8.82837E-05-9.13142E-06-3.40033E-05-1.06920E-05-1.60425E-18-3.20835E-18
 -1      2145 9.08821E-05-1.29492E-05-3.34482E-05-1.03840E-05-1.77550E-18-2.82496E-18
 -1      2146 8.86316E-05-1.06312E-05-3.34516E-05-7.96865E-06-1.24232E-18-3.36093E-18
 -1      2147 1.81114E-04-3.05197E-05-6.34541E-05 7.39231E-06 5.48835E-18 2.08116E-18
 -1      2148 1.72779E-04-3.28270E-05-5.90737E-05 1.50870E-05 5.82378E-18 3.15308E-18
 -1      2149 1.82489E-04-2.38174E-05-6.68734E-05-1.33095E-06 6.13591E-18 8.83138E-19
 -1      2150 1.80777E-04-2.46544E-05-6.58436E-05 3.76819E-06 5.96777E-18 2.00535E-18
 -1      2151 1.78595E-04-2.81219E-05-6.33766E-05-8.73587E-06 5.42228E-18-8.43221E-19
 -1      2152 1.80878E-04-2.54485E-05-6.56947E-05-1.78009E-06 5.91441E-18 1.11967E-18
 -1      2153 1.61847E-04-3.56784E-05-5.36169E-05-2.05185E-05 5.33191E-18-2.29969E-18
 -1      2154 1.78100E-04-3.50372E-05-6.00452E-05-1.52487E-05 5.20481E-18-1.46621E-18
 -1      2155 1.31434E-04-4.36640E-05-3.79921E-05-2.99999E-05 2.98791E-18-4.14538E-18
 -1      2156 1.53432E-04-4.12526E-05-4.69916E-05-3.07151E-05 3.96920E-18-3.86501E-18
 -1      2157 9.70895E-05-4.96940E-05-2.10458E-05-3.62684E-05 1.55303E-18-3.97174E-18
 -1      2158 1.17921E-04-4.82539E-05-2.96104E-05-3.83990E-05 2.27005E-18-4.58668E-18
 -1      2159 5.35465E-05-4.39860E-05-5.45502E-06-3.44354E-05 2.96462E-19-5.11968E-18
 -1      2160 7.25413E-05-4.33526E-05-1.29292E-05-4.17595E-05 1.31798E-18-4.92190E-18
 -1      2161 2.59422E-05-3.71898E-05 3.55864E-06-2.31222E-05-5.69630E-19-3.93976E-18
 -1      2162 3.74010E-05-3.75703E-05-7.41443E-07-3.17680E-05 3.11708E-19-4.75461E-18
 -1      2163 1.18956E-05-3.42552E-05 8.19027E-06-9.33480E-07-1.44072E-18-4.54221E-18
 -1      2164 1.45245E-05-3.30945E-05 6.82173E-06-1.15448E-05-3.26108E-19-4.47699E-18
 -1      2165 2.05205E-05-3.19904E-05 4.18487E-06 2.20349E-05-2.55783E-18-5.76109E-18
 -1      2166 1.48260E-05-3.32326E-05 6.74095E-06 1.08703E-05-1.34572E-18-5.27998E-18
 -1      2167 4.59179E-05-3.81859E-05-4.09368E-06 3.67899E-05-4.44099E-18-6.47996E-18
 -1      2168 3.32064E-05-3.92768E-05 1.28003E-06 2.98870E-05-2.87822E-18-5.61223E-18
 -1      2169 8.12374E-05-4.07327E-05-1.74929E-05 4.36240E-05-4.97378E-18-5.55887E-18
 -1      2170 6.39423E-05-4.32254E-05-1.01313E-05 3.79149E-05-3.95480E-18-5.90340E-18
 -1      2171 1.17138E-04-4.06543E-05-3.23283E-05 4.12909E-05-6.46583E-18-4.99792E-18
 -1      2172 9.80239E-05-4.26235E-05-2.45142E-05 3.86681E-05-5.74288E-18-5.28803E-18
 -1      2173 1.48248E-04-3.77280E-05-4.63877E-05 3.25165E-05-6.65630E-18-3.88958E-18
 -1      2174 1.30119E-04-3.89053E-05-3.92773E-05 3.33392E-05-7.04541E-18-4.40881E-18
 -1      2175 1.71138E-04-3.24900E-05-5.80612E-05 2.14371E-05-6.23437E-18-2.63893E-18
 -1      2176 1.56162E-04-3.26877E-05-5.24582E-05 2.56164E-05-6.93672E-18-3.69052E-18
 -1      2177 1.81012E-04-2.64489E-05-6.50361E-05 7.45897E-06-4.95768E-18-1.33619E-18
 -1      2178 1.74809E-04-2.75353E-05-6.20326E-05 1.54188E-05-5.48687E-18-2.56185E-18
 -1      2179 1.79450E-04-2.32573E-05-6.58688E-05-3.36735E-06-5.38713E-18-5.39984E-20
 -1      2180 1.77633E-04-2.21206E-05-6.56879E-05 3.46702E-06-5.16605E-18-1.27966E-18
 -1      2181 1.73861E-04-2.60045E-05-6.24283E-05-1.30551E-05-5.24440E-18 2.93920E-19
 -1      2182 1.81194E-04-2.61406E-05-6.53038E-05-6.17197E-06-5.07584E-18-3.24625E-19
 -1      2183 1.58080E-04-1.30842E-05-6.09790E-05 7.42787E-07-5.55272E-18-7.88694E-19
 -1      2184 1.56721E-04-3.24755E-05-5.28327E-05-2.52150E-05-4.32895E-18 1.74955E-18
 -1      2185 1.71521E-04-3.20718E-05-5.84353E-05-2.06579E-05-4.85562E-18 1.97782E-19
 -1      2186 1.31691E-04-3.92296E-05-3.98139E-05-3.16487E-05-3.60709E-18 3.02899E-18
 -1      2187 1.49488E-04-3.75174E-05-4.69617E-05-3.14776E-05-3.60836E-18 2.59234E-18
 -1      2188 9.90592E-05-4.25033E-05-2.49855E-05-3.85926E-05-3.75574E-18 3.29326E-18
 -1      2189 1.18209E-04-4.14385E-05-3.25493E-05-4.02575E-05-3.67401E-18 2.18280E-18
 -1      2190 6.54896E-05-4.19496E-05-1.12728E-05-3.82729E-05-2.09514E-18 4.71077E-18
 -1      2191 8.19795E-05-3.94574E-05-1.83399E-05-4.33913E-05-3.20433E-18 5.24758E-18
 -1      2192 3.90885E-05-3.95387E-05-9.83485E-07-3.24879E-05-9.85523E-19 3.34684E-18
 -1      2193 5.15054E-05-3.79670E-05-6.23156E-06-3.91614E-05-1.61699E-18 3.57384E-18
 -1      2194 1.89764E-05-3.48095E-05 5.59135E-06-1.93794E-05-4.54857E-19 5.03646E-18
 -1      2195 2.68370E-05-3.47275E-05 2.59456E-06-2.72165E-05-1.80460E-18 4.67456E-18
 -1      2196 4.10987E-05-3.40104E-05-3.45838E-06-3.70366E-05 8.41951E-19 2.98134E-18
 -1      2197 1.67839E-04-3.90163E-05-5.39827E-05 2.19798E-05 5.57306E-18 3.15181E-18
 -1      2198 1.48525E-04-4.04548E-05-4.63208E-05 2.27470E-05 5.72107E-18 3.50629E-18
 -1      2199 1.14190E-04-5.52025E-05-2.50819E-05 3.41611E-05 2.69738E-18 1.86072E-18
 -1      2200 9.81691E-05-2.46182E-05-3.15894E-05-8.91336E-06-2.18405E-18 5.32413E-19
 -1      2201 1.62128E-04-3.54289E-05-5.33221E-05 2.37419E-06 5.29777E-18 1.51195E-18
 -1      2202 9.73531E-05-2.33696E-05-3.17779E-05-9.01701E-06-2.27211E-18-4.98188E-19
 -1      2203 4.01669E-05-3.62031E-05-2.29138E-06 3.32776E-05 5.05255E-19 6.52702E-18
 -1      2204 1.73460E-05-2.53051E-05 2.79704E-06 1.11812E-05-7.15108E-19 7.95110E-18
 -1      2205 9.52396E-05-2.85840E-05-2.85668E-05 2.51397E-08-9.54079E-19-4.02491E-19
 -1      2206 1.93628E-05-2.47086E-05 1.84067E-06-1.64831E-05-2.32828E-19 6.18122E-18
 -1      2207 1.47227E-04-5.12522E-05-4.06836E-05 1.58030E-05 3.49994E-18 5.39136E-19
 -1      2208 6.99374E-05-4.47230E-05-1.11574E-05-4.29429E-05 1.22396E-18 3.07505E-18
 -1      2209 1.03249E-04-5.09945E-05-2.23677E-05-3.94769E-05-5.24737E-19 1.47617E-18
 -1      2210 1.33437E-04-4.98494E-05-3.54333E-05-2.65974E-05-1.42429E-18 1.36372E-19
 -1      2211 1.60911E-04-2.46774E-05-5.72424E-05-3.33647E-06-4.31542E-18-2.43585E-18
 -1      2212 1.60462E-04-1.50732E-05-6.12368E-05 7.66772E-07-5.57432E-18-6.99543E-19
 -1      2213 1.61373E-04-2.61850E-05-5.67508E-05 5.10228E-06-5.62070E-18-9.69006E-19
 -1      2214 1.51888E-04-3.97367E-05-4.72488E-05 1.41443E-05-5.64727E-18-6.79320E-19
 -1      2215 1.32815E-04-5.01239E-05-3.50204E-05 2.75754E-05-4.46259E-18-2.00408E-18
 -1      2216 1.02920E-04-5.19522E-05-2.18372E-05 3.97041E-05-2.19127E-18-3.53297E-18
 -1      2217 6.62021E-05-4.45624E-05-9.69616E-06 4.32944E-05-1.09606E-18-4.94641E-18
 -1      2218 3.24478E-05-3.14450E-05-9.69555E-07 3.07401E-05-5.85088E-19-5.74034E-18
 -1      2219 1.56885E-05-2.33286E-05 2.78880E-06 6.50682E-06-9.50742E-19-5.56331E-18
 -1      2220 2.46057E-05-2.86454E-05 1.21400E-06-2.18098E-05-1.05413E-18-4.62480E-18
 -1      2221 5.47748E-05-4.07920E-05-6.32003E-06-3.87571E-05-1.52212E-18-4.78150E-18
 -1      2222 9.68252E-05-5.37668E-05-1.84484E-05-3.94271E-05-4.60786E-19-3.56548E-18
 -1      2223 1.34636E-04-5.59141E-05-3.37272E-05-2.48835E-05 7.90917E-19-2.04558E-18
 -1      2224 1.57177E-04-4.28363E-05-4.80834E-05-9.70424E-06 3.35346E-18-3.21873E-19
 -1      2225 1.62824E-04-2.63533E-05-5.72879E-05 1.52498E-06 5.24229E-18 7.03673E-19
 -1      2226 1.64596E-04-2.08991E-05-6.05317E-05-2.10850E-06 5.82081E-18 1.51153E-18
 -1      2227 1.62061E-04-1.58990E-05-6.16201E-05 1.17637E-06 5.99784E-18 2.14755E-18
 -1      2228 1.52384E-04-3.90782E-05-4.77381E-05-1.29412E-05-2.63523E-18-9.88064E-19
 -1      2229 9.67996E-05-2.66168E-05-3.00547E-05 2.46720E-06 1.75024E-18 2.38087E-18
 -1      2230 9.74774E-05-2.60716E-05-3.05287E-05 4.41836E-06 2.07759E-18 2.72076E-18
 -1      2231 8.68529E-05-9.82745E-06-3.30512E-05-2.70620E-06 1.01250E-19-3.32044E-18
 -1      2232 8.72928E-05-1.02235E-05-3.30611E-05-3.66119E-06-2.39073E-19-3.44095E-18
 -1      2233 8.78994E-05-1.09043E-05-3.30451E-05-4.49670E-06-5.19313E-19-3.40077E-18
 -1      2234 8.85666E-05-1.15367E-05-3.30517E-05-5.53873E-06-8.71691E-19-3.28964E-18
 -1      2235 8.87759E-05-1.24709E-05-3.26980E-05-3.54779E-06-3.30530E-19-3.15282E-18
 -1      2236 8.61126E-05-9.06457E-06-3.30527E-05 5.69514E-07 1.03269E-18-3.12890E-18
 -1      2237 8.61236E-05-9.07475E-06-3.30517E-05-2.94268E-07 7.83289E-19-3.23979E-18
 -1      2238 8.64299E-05-9.35840E-06-3.30617E-05 2.17333E-06 1.47329E-18-2.92754E-18
 -1      2239 8.62195E-05-9.17490E-06-3.30535E-05 1.29726E-06 1.21710E-18-3.01553E-18
 -1      2240 8.72059E-05-1.08102E-05-3.27380E-05 8.48520E-07 1.04616E-18-2.92999E-18
 -1      2241 8.72095E-05-1.01196E-05-3.30716E-05 3.82129E-06 1.90664E-18-2.66087E-18
 -1      2242 8.67785E-05-9.73370E-06-3.30595E-05 2.90858E-06 1.66289E-18-2.85221E-18
 -1      2243 8.76769E-05-1.12885E-05-3.27336E-05 2.24113E-06 1.49268E-18-2.65536E-18
 -1      2244 8.85073E-05-1.14442E-05-3.30673E-05 5.62196E-06 2.35292E-18-1.91785E-18
 -1      2245 8.78221E-05-1.07986E-05-3.30583E-05 4.61201E-06 2.05168E-18-2.31002E-18
 -1      2246 8.86639E-05-1.23228E-05-3.27116E-05 3.68567E-06 1.92407E-18-2.30267E-18
 -1      2247 9.03818E-05-1.34744E-05-3.30185E-05 7.53657E-06 2.72403E-18-1.19934E-18
 -1      2248 8.94059E-05-1.24787E-05-3.30268E-05 6.44704E-06 2.49209E-18-1.63459E-18
 -1      2249 9.02012E-05-1.40022E-05-3.26462E-05 5.19770E-06 2.26814E-18-1.61135E-18
 -1      2250 9.29572E-05-1.64773E-05-3.28713E-05 9.37022E-06 2.88980E-18 2.31478E-20
 -1      2251 9.16114E-05-1.49561E-05-3.29175E-05 8.30044E-06 2.74802E-18-6.95249E-19
 -1      2252 9.22970E-05-1.64439E-05-3.24860E-05 6.64804E-06 2.56579E-18-8.12513E-19
 -1      2253 9.64011E-05-2.74052E-05-2.95396E-05-4.04477E-07 1.31435E-18 1.94212E-18
 -1      2254 9.66196E-05-2.71268E-05-2.97106E-05 7.89590E-07 1.48743E-18 2.26266E-18
 -1      2255 9.67222E-05-2.58803E-05-3.03746E-05 2.19473E-06 1.82689E-18 1.24380E-18
 -1      2256 9.70480E-05-2.52230E-05-3.07343E-05-4.50784E-06-1.74262E-18-8.40684E-19
 -1      2257 9.66163E-05-2.59939E-05-3.02730E-05-2.45633E-06-1.50313E-18-8.65989E-19
 -1      2258 1.54804E-04-3.25313E-05-5.28587E-05-6.02841E-06 5.21391E-18 4.95938E-19
 -1      2259 1.52607E-04-4.00119E-05-4.84414E-05-3.51253E-06 3.97576E-18 7.77576E-19
 -1      2260 9.66454E-05-2.66765E-05-2.99296E-05-9.26057E-07-1.34051E-18-7.55307E-19
 -1      2261 9.64639E-05-2.70922E-05-2.97223E-05 3.18317E-07-1.15542E-18-8.37735E-19
 -1      2262 9.64618E-05-2.53160E-05-3.05019E-05-2.13146E-06-1.43644E-18-1.22833E-18
 -1      2263 9.64663E-05-2.74456E-05-2.95417E-05 1.40572E-06-1.11192E-18-6.59337E-19
 -1      2264 9.65647E-05-2.77433E-05-2.94843E-05 2.22226E-06-1.08123E-18-8.60993E-19
 -1      2265 9.64961E-05-2.66416E-05-2.99550E-05 7.00169E-07-1.12037E-18-1.17335E-18
 -1      2266 9.66753E-05-2.79884E-05-2.94135E-05 2.99316E-06-9.46590E-19-8.46966E-19
 -1      2267 9.70071E-05-2.82659E-05-2.94510E-05 3.54765E-06-8.18783E-19-8.82568E-19
 -1      2268 9.66479E-05-2.74471E-05-2.96750E-05 2.70911E-06-1.08682E-18-9.74780E-19
 -1      2269 9.72562E-05-2.84966E-05-2.94531E-05 4.09265E-06-7.38321E-19-8.76632E-19
 -1      2270 9.77687E-05-2.88020E-05-2.95506E-05 4.45602E-06-6.14565E-19-9.00704E-19
 -1      2271 9.70397E-05-2.80673E-05-2.95753E-05 4.13849E-06-8.78241E-19-9.96937E-19
 -1      2272 9.81631E-05-2.90736E-05-2.95987E-05 4.81188E-06-4.79894E-19-6.83596E-19
 -1      2273 9.88111E-05-2.94377E-05-2.97300E-05 4.99651E-06-3.43254E-19-8.42196E-19
 -1      2274 9.77087E-05-2.86902E-05-2.95934E-05 5.12500E-06-5.59669E-19-7.34760E-19
 -1      2275 9.93570E-05-2.97923E-05-2.98036E-05 5.15354E-06-2.87194E-19-8.76033E-19
 -1      2276 1.00098E-04-3.02369E-05-2.99467E-05 5.12921E-06-2.67586E-19-9.34205E-19
 -1      2277 9.86704E-05-2.94422E-05-2.96825E-05 5.70286E-06-4.43059E-19-7.58129E-19
 -1      2278 1.00803E-04-3.07080E-05-3.00302E-05 5.03714E-06-3.96677E-19-9.32015E-19
 -1      2279 1.01587E-04-3.12402E-05-3.01655E-05 4.74283E-06-4.78658E-19-9.83636E-19
 -1      2280 9.99426E-05-3.04220E-05-2.98079E-05 5.81607E-06-4.10619E-19-7.75061E-19
 -1      2281 1.02453E-04-3.18416E-05-3.02496E-05 4.31963E-06-2.19046E-19-9.64634E-19
 -1      2282 1.03210E-04-3.24369E-05-3.03608E-05 3.68198E-06-4.66728E-20-8.09810E-19
 -1      2283 1.01538E-04-3.16918E-05-2.99478E-05 5.33283E-06-3.78678E-19-7.32517E-19
 -1      2284 1.04206E-04-3.31363E-05-3.04450E-05 2.83455E-06 1.97137E-19-5.67464E-19
 -1      2285 1.04831E-04-3.37099E-05-3.05220E-05 1.80322E-06 2.32372E-19-5.45199E-19
 -1      2286 1.03429E-04-3.32326E-05-3.00974E-05 4.07299E-06 1.54975E-19-4.70824E-19
 -1      2287 1.05854E-04-3.43883E-05-3.06184E-05 4.74796E-07 5.42680E-20-1.86673E-19
 -1      2288 1.06202E-04-3.47659E-05-3.06621E-05-9.16611E-07-2.76113E-21 1.93568E-19
 -1      2289 1.05488E-04-3.48617E-05-3.02762E-05 1.87154E-06 2.66569E-19-1.14917E-19
 -1      2290 1.07035E-04-3.51835E-05-3.07952E-05-2.65705E-06-1.52013E-19 2.30197E-19
 -1      2291 1.06934E-04-3.51065E-05-3.08199E-05-4.21009E-06-8.54064E-20 3.47930E-19
 -1      2292 1.07391E-04-3.61390E-05-3.05315E-05-1.28797E-06-6.42430E-20 3.64703E-19
 -1      2293 1.07255E-04-3.49308E-05-3.10192E-05-6.04812E-06-8.46669E-20 3.50818E-19
 -1      2294 1.06584E-04-3.41502E-05-3.10494E-05-7.33846E-06 3.46149E-19 2.31448E-19
 -1      2295 1.08588E-04-3.63603E-05-3.09288E-05-5.05464E-06-6.81837E-20 5.37374E-19
 -1      2296 1.06102E-04-3.31215E-05-3.13288E-05-8.63613E-06 2.75662E-19 2.06606E-19
 -1      2297 1.04928E-04-3.16144E-05-3.13813E-05-9.07255E-06-1.84188E-20 5.57867E-20
 -1      2298 1.08424E-04-3.47803E-05-3.15190E-05-8.47868E-06 1.87991E-19 2.84852E-19
 -1      2299 1.03696E-04-2.98731E-05-3.16984E-05-8.99862E-06-4.69068E-19-1.27273E-19
 -1      2300 1.02409E-04-2.81188E-05-3.17659E-05-8.08706E-06-9.31549E-19-5.75288E-19
 -1      2301 1.06608E-04-3.12621E-05-3.22641E-05-9.97061E-06-3.89593E-19 2.18828E-19
 -1      2302 1.01055E-04-2.63982E-05-3.20326E-05-6.25814E-06-8.28453E-19-8.98763E-19
 -1      2303 1.00209E-04-2.51911E-05-3.20874E-05-4.04079E-06-9.43495E-19-7.51473E-19
 -1      2304 1.03883E-04-2.69057E-05-3.29925E-05-8.14067E-06-1.17609E-18 2.44808E-20
 -1      2305 9.96729E-05-2.45186E-05-3.21903E-05-8.94179E-07-1.26087E-18-1.05594E-18
 -1      2306 9.97508E-05-2.45999E-05-3.21963E-05 1.83122E-06-9.82466E-19-1.03957E-18
 -1      2307 1.01856E-04-2.38887E-05-3.34552E-05-2.82570E-06-1.20166E-18-7.01883E-19
 -1      2308 1.00428E-04-2.53987E-05-3.20928E-05 4.88272E-06-6.30411E-19-1.29329E-18
 -1      2309 1.01372E-04-2.66768E-05-3.20561E-05 7.01389E-06-5.87761E-19-1.26976E-18
 -1      2310 1.02007E-04-2.40585E-05-3.34489E-05 3.85701E-06-1.09970E-18-1.30750E-18
 -1      2311 1.02797E-04-2.84529E-05-3.17933E-05 8.73115E-06-5.90862E-19-1.62191E-18
 -1      2312 1.04168E-04-3.02469E-05-3.17419E-05 9.52186E-06-2.39992E-19-2.33445E-18
 -1      2313 1.04216E-04-2.72567E-05-3.29846E-05 8.90078E-06-7.52562E-19-1.39100E-18
 -1      2314 1.05370E-04-3.19382E-05-3.14371E-05 9.43661E-06 2.96635E-19-2.18514E-18
 -1      2315 1.06563E-04-3.33839E-05-3.14074E-05 8.92823E-06 8.44485E-19-1.97098E-18
 -1      2316 1.07013E-04-3.16503E-05-3.22631E-05 1.04509E-05-1.09786E-19-1.97205E-18
 -1      2317 1.06993E-04-3.43223E-05-3.11540E-05 7.59252E-06 1.09301E-18-1.94771E-18
 -1      2318 1.07677E-04-3.50389E-05-3.11493E-05 6.29877E-06 7.33660E-19-1.72595E-18
 -1      2319 1.08717E-04-3.49829E-05-3.15578E-05 8.75107E-06 8.22072E-19-1.54099E-18
 -1      2320 1.07332E-04-3.51456E-05-3.09760E-05 4.50517E-06 5.38784E-19-1.77282E-18
 -1      2321 1.07466E-04-3.51847E-05-3.09762E-05 3.00804E-06 7.59047E-19-1.65721E-18
 -1      2322 1.08799E-04-3.63574E-05-3.10225E-05 5.34834E-06 7.96113E-19-1.92644E-18
 -1      2323 1.06647E-04-3.47355E-05-3.08662E-05 1.36051E-06 3.28129E-19-1.94477E-18
 -1      2324 1.06361E-04-3.43545E-05-3.08475E-05 5.78919E-08 5.67585E-19-1.55544E-18
 -1      2325 1.07592E-04-3.60083E-05-3.06750E-05 1.73261E-06 2.14627E-19-2.26978E-18
 -1      2326 1.05381E-04-3.36785E-05-3.07704E-05-1.16164E-06 3.98006E-19-2.16730E-18
 -1      2327 1.04843E-04-3.31309E-05-3.07189E-05-2.09632E-06-1.83464E-19-1.73170E-18
 -1      2328 1.05746E-04-3.46900E-05-3.04608E-05-1.21389E-06 1.52765E-19-1.90549E-18
 -1      2329 1.03903E-04-3.24560E-05-3.06492E-05-2.84380E-06-1.77007E-19-1.46045E-18
 -1      2330 1.03252E-04-3.19075E-05-3.05632E-05-3.39588E-06 2.83174E-19-6.73456E-19
 -1      2331 1.03790E-04-3.30911E-05-3.03119E-05-3.20085E-06 1.96174E-20-2.07581E-18
 -1      2332 1.02442E-04-3.13439E-05-3.04872E-05-3.74521E-06 4.20938E-19-1.19551E-18
 -1      2333 1.01770E-04-3.08737E-05-3.03743E-05-3.98049E-06 2.99183E-19-1.34612E-18
 -1      2334 1.02016E-04-3.16270E-05-3.01785E-05-4.28698E-06-5.55927E-20-1.29386E-18
 -1      2335 1.01107E-04-3.04502E-05-3.02884E-05-4.04102E-06-3.02822E-19-9.97748E-19
 -1      2336 1.00470E-04-3.00807E-05-3.01598E-05-4.04975E-06-5.26790E-19-1.08398E-18
 -1      2337 1.00527E-04-3.04673E-05-3.00355E-05-4.67165E-06 1.65719E-19-6.43991E-19
 -1      2338 9.99411E-05-2.97850E-05-3.00667E-05-3.92498E-06-2.70992E-19-9.05169E-19
 -1      2339 9.93665E-05-2.95103E-05-2.99338E-05-3.79164E-06-3.66739E-19-2.82632E-19
 -1      2340 9.93259E-05-2.96318E-05-2.98769E-05-4.57544E-06-3.15016E-19-3.48390E-19
 -1      2341 9.89498E-05-2.93154E-05-2.98386E-05-3.56388E-06-9.58507E-19-4.68294E-19
 -1      2342 9.84504E-05-2.91189E-05-2.97106E-05-3.35522E-06-5.32555E-19-2.06422E-19
 -1      2343 9.83754E-05-2.90725E-05-2.97077E-05-4.18804E-06-6.04793E-19 1.02461E-18
 -1      2344 9.81230E-05-2.89972E-05-2.96183E-05-3.08342E-06-8.71997E-20-3.83413E-19
 -1      2345 9.77015E-05-2.88608E-05-2.95013E-05-2.84661E-06-1.83876E-19 4.86134E-19
 -1      2346 9.76290E-05-2.87227E-05-2.95366E-05-3.65303E-06-4.35880E-19 9.48838E-19
 -1      2347 9.74449E-05-2.87892E-05-2.94160E-05-2.56948E-06-6.45894E-19 1.55356E-20
 -1      2348 9.70977E-05-2.86970E-05-2.93134E-05-2.33480E-06-4.73667E-19-6.13128E-20
 -1      2349 9.70451E-05-2.85202E-05-2.93724E-05-3.06975E-06-4.30647E-19 2.86552E-19
 -1      2350 9.68973E-05-2.86582E-05-2.92375E-05-2.07550E-06-6.61642E-19 4.35170E-19
 -1      2351 9.66178E-05-2.85978E-05-2.91506E-05-1.86035E-06-6.31211E-19 6.50361E-19
 -1      2352 9.65897E-05-2.84155E-05-2.92214E-05-2.50131E-06-5.59613E-19-4.77838E-19
 -1      2353 9.64621E-05-2.85796E-05-2.90853E-05-1.63094E-06-6.40029E-19 5.98610E-19
 -1      2354 9.62417E-05-2.85413E-05-2.90138E-05-1.44374E-06-5.73062E-20 5.45982E-19
 -1      2355 9.62362E-05-2.83725E-05-2.90878E-05-1.98375E-06-6.43906E-19 1.14455E-18
 -1      2356 9.61218E-05-2.85355E-05-2.89592E-05-1.24887E-06 1.78037E-19 7.71914E-19
 -1      2357 9.59517E-05-2.85126E-05-2.89020E-05-1.09217E-06 5.63774E-19 1.09503E-18
 -1      2358 9.59637E-05-2.83661E-05-2.89733E-05-1.53424E-06-1.18884E-19 1.68932E-18
 -1      2359 9.58604E-05-2.85139E-05-2.88575E-05-9.31853E-07 5.81873E-19 1.32733E-18
 -1      2360 9.57320E-05-2.85013E-05-2.88128E-05-8.04679E-07 8.03496E-19 1.44782E-18
 -1      2361 9.57557E-05-2.83798E-05-2.88778E-05-1.15754E-06 7.60489E-19 2.65415E-18
 -1      2362 9.56634E-05-2.85061E-05-2.87774E-05-6.76276E-07 9.30995E-19 8.19709E-19
 -1      2363 9.55686E-05-2.85003E-05-2.87432E-05-5.75744E-07 1.03175E-18 9.17464E-19
 -1      2364 9.55989E-05-2.84032E-05-2.88002E-05-8.50939E-07 5.58674E-19 1.74719E-18
 -1      2365 9.55180E-05-2.85068E-05-2.87157E-05-4.75319E-07 1.47799E-18 6.97544E-19
 -1      2366 9.54500E-05-2.85053E-05-2.86903E-05-3.97708E-07 9.88185E-19 7.24126E-19
 -1      2367 9.54825E-05-2.84299E-05-2.87385E-05-6.07559E-07 6.95568E-19 5.72580E-19
 -1      2368 9.54133E-05-2.85121E-05-2.86693E-05-3.20889E-07-1.41584E-19 1.14613E-18
 -1      2369 9.53661E-05-2.85133E-05-2.86510E-05-2.62315E-07-4.18752E-19 1.52542E-18
 -1      2370 9.53978E-05-2.84561E-05-2.86906E-05-4.18715E-07 6.03575E-19 1.30165E-18
 -1      2371 9.53403E-05-2.85197E-05-2.86354E-05-2.04833E-07 1.40107E-19 2.21162E-18
 -1      2372 9.53088E-05-2.85225E-05-2.86225E-05-1.61642E-07 1.02055E-18 2.56453E-18
 -1      2373 9.53375E-05-2.84801E-05-2.86543E-05-2.75353E-07 4.79561E-19 2.54882E-18
 -1      2374 9.52912E-05-2.85283E-05-2.86112E-05-1.19636E-07 8.56672E-19 2.40902E-18
 -1      2375 9.52715E-05-2.85319E-05-2.86025E-05-8.86163E-08 1.59019E-18 2.15793E-18
 -1      2376 9.52960E-05-2.85011E-05-2.86272E-05-1.68935E-07 7.98656E-19 2.40191E-18
 -1      2377 9.52601E-05-2.85370E-05-2.85945E-05-5.87837E-08 2.28809E-18 1.50266E-18
 -1      2378 9.52489E-05-2.85411E-05-2.85889E-05-3.72662E-08 2.29915E-18 1.85952E-18
 -1      2379 9.52685E-05-2.85189E-05-2.86076E-05-9.19165E-08 1.37039E-18 6.41310E-19
 -1      2380 9.52420E-05-2.85456E-05-2.85834E-05-1.69174E-08 1.29487E-18 1.98382E-18
 -1      2381 9.52368E-05-2.85498E-05-2.85801E-05-2.80291E-09 2.19283E-19 2.17585E-18
 -1      2382 9.52514E-05-2.85340E-05-2.85936E-05-3.79788E-08 1.60535E-18 5.09104E-19
 -1      2383 9.52331E-05-2.85539E-05-2.85763E-05 1.01242E-08 5.33733E-20 2.49155E-18
 -1      2384 9.52320E-05-2.85582E-05-2.85744E-05 1.83428E-08-2.54398E-19 2.32628E-18
 -1      2385 9.52418E-05-2.85469E-05-2.85839E-05-2.07463E-09-6.43365E-21 2.52994E-18
 -1      2386 9.52307E-05-2.85623E-05-2.85719E-05 2.53787E-08-1.41895E-18 1.42181E-18
 -1      2387 9.52320E-05-2.85666E-05-2.85708E-05 2.85949E-08-1.28042E-18 1.00542E-18
 -1      2388 9.52375E-05-2.85583E-05-2.85770E-05 1.95675E-08-1.57527E-18 1.89343E-18
 -1      2389 9.71966E-05-2.82354E-05-2.95287E-05-3.96216E-06 6.52498E-19 1.43673E-18
 -1      2390 9.66613E-05-2.80047E-05-2.93976E-05-3.29711E-06 9.35659E-19 1.67888E-18
 -1      2391 9.83214E-05-2.86391E-05-2.98383E-05-5.30367E-06 5.84615E-19 1.02321E-18
 -1      2392 9.75103E-05-2.83678E-05-2.96167E-05-4.71195E-06 5.03523E-19 1.19844E-18
 -1      2393 9.71352E-05-2.78397E-05-2.97152E-05-4.87755E-06 8.40441E-19 6.75856E-19
 -1      2394 9.98625E-05-2.91342E-05-3.02880E-05-6.54185E-06 7.37079E-19 9.66305E-19
 -1      2395 9.88079E-05-2.87954E-05-2.99957E-05-5.98677E-06 7.34701E-19 1.00902E-18
 -1      2396 9.79457E-05-2.81732E-05-2.99174E-05-6.43873E-06 7.56065E-19 4.65950E-19
 -1      2397 1.01798E-04-2.97963E-05-3.08380E-05-7.68284E-06 6.48615E-19 9.23415E-19
 -1      2398 1.00518E-04-2.93531E-05-3.04930E-05-7.18007E-06 7.30645E-19 1.02087E-18
 -1      2399 9.90902E-05-2.85854E-05-3.02299E-05-7.87636E-06 6.85833E-19 3.24797E-19
 -1      2400 1.04131E-04-3.07369E-05-3.14448E-05-8.61245E-06 1.79200E-19 1.05556E-18
 -1      2401 1.02644E-04-3.01354E-05-3.10694E-05-8.24136E-06 4.10522E-19 1.01458E-18
 -1      2402 1.00594E-04-2.92088E-05-3.06081E-05-9.18235E-06 4.80022E-19 6.36085E-19
 -1      2403 1.06889E-04-3.21151E-05-3.20544E-05-9.05917E-06 1.88043E-19 1.00621E-18
 -1      2404 1.05223E-04-3.12855E-05-3.16801E-05-8.98258E-06 2.00668E-19 9.94944E-19
 -1      2405 1.02541E-04-3.02362E-05-3.10071E-05-1.02161E-05 2.65015E-19 6.36621E-19
 -1      2406 1.10106E-04-3.41124E-05-3.26053E-05-8.55648E-06 5.54244E-20 9.24212E-19
 -1      2407 1.08328E-04-3.29939E-05-3.22728E-05-9.03263E-06 1.76984E-19 9.22244E-19
 -1      2408 1.05099E-04-3.19356E-05-3.13855E-05-1.06637E-05 2.60156E-19 4.16361E-19
 -1      2409 1.13757E-04-3.68102E-05-3.30498E-05-6.46178E-06-2.54295E-19 1.14524E-18
 -1      2410 1.12017E-04-3.54311E-05-3.27991E-05-7.80873E-06-1.76275E-19 9.81771E-19
 -1      2411 1.08507E-04-3.45938E-05-3.17226E-05-9.99354E-06-2.32130E-19 6.62970E-19
 -1      2412 1.17571E-04-3.98541E-05-3.34077E-05-2.12541E-06-3.75474E-19 1.81110E-18
 -1      2413 1.16199E-04-3.85332E-05-3.32510E-05-4.57379E-06-3.58454E-19 1.60700E-18
 -1      2414 1.12977E-04-3.83082E-05-3.20609E-05-7.46284E-06-6.73864E-19 1.20864E-18
 -1      2415 1.20715E-04-4.20067E-05-3.38346E-05 4.47249E-06-3.11880E-19 2.42734E-18
 -1      2416 1.20253E-04-4.15006E-05-3.37217E-05 1.15383E-06-5.09279E-20 2.29122E-18
 -1      2417 1.18297E-04-4.24003E-05-3.25797E-05-2.28271E-06-6.64782E-19 1.32628E-18
 -1      2418 1.21693E-04-4.09766E-05-3.46350E-05 1.18273E-05-1.29661E-19 2.19378E-18
 -1      2419 1.22749E-04-4.24645E-05-3.44482E-05 8.74719E-06-5.63737E-19 2.43173E-18
 -1      2420 1.23272E-04-4.48288E-05-3.36377E-05 5.49009E-06-5.24793E-19 1.58326E-18
 -1      2421 1.18996E-04-3.49664E-05-3.59981E-05 1.54794E-05 1.68684E-18 2.52130E-18
 -1      2422 1.21493E-04-3.87045E-05-3.56693E-05 1.49377E-05 7.68113E-19 2.42384E-18
 -1      2423 1.25158E-04-4.20232E-05-3.56407E-05 1.39284E-05 2.42834E-19 1.84935E-18
 -1      2424 1.14007E-04-2.67021E-05-3.75203E-05 1.13029E-05 1.83976E-18 2.63518E-18
 -1      2425 1.16823E-04-3.08198E-05-3.71658E-05 1.45147E-05 1.89193E-18 2.82360E-18
 -1      2426 1.22779E-04-3.40491E-05-3.80772E-05 1.67566E-05 1.38049E-18 2.83651E-18
 -1      2427 1.12029E-04-2.32314E-05-3.82083E-05-1.15954E-06 1.83457E-18 1.00993E-18
 -1      2428 1.12427E-04-2.37511E-05-3.81752E-05 4.66662E-06 1.79756E-18 1.71549E-18
 -1      2429 1.17750E-04-2.34882E-05-4.05672E-05 9.09851E-06 2.13902E-18 1.49790E-18
 -1      2430 1.15206E-04-2.80973E-05-3.76188E-05-1.27928E-05 1.62808E-18-1.13316E-18
 -1      2431 1.13075E-04-2.47830E-05-3.78628E-05-8.29985E-06 1.89529E-18-4.09448E-19
 -1      2432 1.17263E-04-2.19741E-05-4.10891E-05-5.41531E-06 2.42887E-18-1.21267E-18
 -1      2433 1.20651E-04-3.66906E-05-3.61941E-05-1.61450E-05 2.15542E-18-2.71809E-18
 -1      2434 1.17783E-04-3.25374E-05-3.65299E-05-1.56385E-05 2.00638E-18-1.74766E-18
 -1      2435 1.21199E-04-3.01401E-05-3.92482E-05-1.61422E-05 2.31224E-18-2.73618E-18
 -1      2436 1.23209E-04-4.19543E-05-3.48869E-05-1.14348E-05 1.22523E-18-2.47456E-18
 -1      2437 1.21541E-04-3.97567E-05-3.50892E-05-1.39460E-05 1.68800E-18-2.27808E-18
 -1      2438 1.25175E-04-4.00719E-05-3.64731E-05-1.59716E-05 1.65718E-18-2.74443E-18
 -1      2439 1.21794E-04-4.22186E-05-3.40867E-05-3.88443E-06 1.27105E-19-1.30221E-18
 -1      2440 1.21746E-04-4.22183E-05-3.41797E-05-7.19391E-06 9.57280E-19-1.68464E-18
 -1      2441 1.24594E-04-4.46971E-05-3.42460E-05-8.65893E-06 8.32250E-19-1.34240E-18
 -1      2442 1.18176E-04-3.96460E-05-3.36178E-05 2.49815E-06-7.65499E-19-1.26914E-18
 -1      2443 1.19233E-04-4.07894E-05-3.37239E-05-1.57703E-07-2.27124E-19-1.08272E-18
 -1      2444 1.20351E-04-4.34806E-05-3.29879E-05-4.21574E-07 4.16204E-20-2.01634E-19
 -1      2445 1.14105E-04-3.64996E-05-3.32307E-05 6.38762E-06-1.07943E-18-4.34369E-19
 -1      2446 1.15659E-04-3.78605E-05-3.34201E-05 4.81167E-06-1.01103E-18-1.22115E-18
 -1      2447 1.15071E-04-3.96275E-05-3.23920E-05 5.51229E-06-6.53228E-19-5.62964E-19
 -1      2448 1.10434E-04-3.38872E-05-3.27894E-05 8.05117E-06-3.46332E-19-4.78833E-19
 -1      2449 1.12092E-04-3.50400E-05-3.30651E-05 7.40971E-06-8.41947E-19-2.75286E-19
 -1      2450 1.10414E-04-3.56997E-05-3.20684E-05 8.66034E-06-1.04212E-18-3.06832E-19
 -1      2451 1.07366E-04-3.20365E-05-3.22755E-05 8.21985E-06-6.28934E-19 2.05362E-19
 -1      2452 1.08934E-04-3.28929E-05-3.26033E-05 8.20200E-06-3.99020E-19-2.28997E-20
 -1      2453 1.06834E-04-3.27462E-05-3.17831E-05 9.68898E-06-4.88381E-19 3.26546E-20
 -1      2454 1.04854E-04-3.08200E-05-3.17246E-05 7.55752E-06-1.10970E-18-1.61193E-20
 -1      2455 1.06251E-04-3.14228E-05-3.20649E-05 7.88080E-06-5.60120E-19 2.66412E-19
 -1      2456 1.04189E-04-3.08360E-05-3.14555E-05 9.40566E-06-6.46139E-19-2.19918E-19
 -1      2457 1.02803E-04-3.00415E-05-3.11808E-05 6.52819E-06-4.66390E-19 3.46537E-19
 -1      2458 1.04003E-04-3.04601E-05-3.15037E-05 6.99557E-06-9.05744E-19 4.01670E-19
 -1      2459 1.02217E-04-2.97105E-05-3.10849E-05 8.43941E-06-1.33791E-18-6.05003E-19
 -1      2460 1.01130E-04-2.95418E-05-3.06781E-05 5.41117E-06-7.29015E-19 2.04949E-18
 -1      2461 1.02132E-04-2.98341E-05-3.09660E-05 5.90516E-06-5.83042E-19 1.07668E-18
 -1      2462 1.00701E-04-2.90876E-05-3.06986E-05 7.20261E-06-1.35376E-18-6.85541E-19
 -1      2463 9.97702E-05-2.92143E-05-3.02358E-05 4.35471E-06 6.16779E-19 1.10667E-18
 -1      2464 1.00590E-04-2.94210E-05-3.04814E-05 4.81448E-06 2.19959E-19 2.05894E-18
 -1      2465 9.95040E-05-2.87585E-05-3.03251E-05 5.93655E-06-7.82096E-19 2.39985E-19
 -1      2466 9.86753E-05-2.89943E-05-2.98609E-05 3.42536E-06 1.33397E-18 2.65208E-19
 -1      2467 9.93322E-05-2.91419E-05-3.00635E-05 3.82500E-06 1.22998E-18 1.17033E-18
 -1      2468 9.85432E-05-2.85916E-05-2.99843E-05 4.76684E-06 1.13046E-18-2.11755E-19
 -1      2469 9.78036E-05-2.88432E-05-2.95521E-05 2.64329E-06-4.63952E-19 9.65872E-19
 -1      2470 9.83211E-05-2.89490E-05-2.97151E-05 2.97633E-06 5.96306E-19 1.08019E-18
 -1      2471 9.77689E-05-2.85111E-05-2.96865E-05 3.74789E-06 5.69135E-19 6.85113E-19
 -1      2472 9.71191E-05-2.87383E-05-2.93039E-05 2.00462E-06 5.32424E-19 4.27824E-19
 -1      2473 9.75199E-05-2.88140E-05-2.94322E-05 2.27433E-06-4.63784E-19 5.47083E-19
 -1      2474 9.71479E-05-2.84758E-05-2.94351E-05 2.89346E-06-3.59345E-19 1.54302E-18
 -1      2475 9.65894E-05-2.86655E-05-2.91082E-05 1.49446E-06 6.40518E-19 2.15812E-18
 -1      2476 9.68947E-05-2.87191E-05-2.92074E-05 1.70830E-06 6.29857E-19 1.00846E-18
 -1      2477 9.66548E-05-2.84639E-05-2.92285E-05 2.19610E-06 3.31619E-19 6.89435E-19
 -1      2478 9.61860E-05-2.86159E-05-2.89569E-05 1.09413E-06 8.30758E-19 3.10173E-18
 -1      2479 9.64147E-05-2.86530E-05-2.90322E-05 1.26079E-06 6.87668E-19 2.69990E-18
 -1      2480 9.62687E-05-2.84642E-05-2.90624E-05 1.63862E-06 4.42880E-19 1.15464E-18
 -1      2481 9.58842E-05-2.85830E-05-2.88419E-05 7.84781E-07 3.57958E-20 3.04703E-18
 -1      2482 9.60524E-05-2.86080E-05-2.88981E-05 9.12727E-07 1.25481E-18 3.47115E-18
 -1      2483 9.59710E-05-2.84708E-05-2.89315E-05 1.20054E-06 9.22739E-19 1.32647E-18
 -1      2484 9.56627E-05-2.85623E-05-2.87561E-05 5.49162E-07-9.76543E-19 2.65495E-18
 -1      2485 9.57838E-05-2.85784E-05-2.87972E-05 6.45997E-07-1.16710E-18 2.48490E-18
 -1      2486 9.57457E-05-2.84805E-05-2.88303E-05 8.61502E-07 3.62740E-19 1.85101E-18
 -1      2487 9.55038E-05-2.85503E-05-2.86934E-05 3.72253E-07-4.48409E-19 9.51016E-19
 -1      2488 9.55888E-05-2.85600E-05-2.87228E-05 4.44495E-07 2.59403E-19 1.86971E-18
 -1      2489 9.55783E-05-2.84915E-05-2.87534E-05 6.02888E-07-3.22706E-20 9.13139E-19
 -1      2490 9.53930E-05-2.85447E-05-2.86485E-05 2.41407E-07-1.30412E-18 6.91965E-19
 -1      2491 9.54508E-05-2.85498E-05-2.86690E-05 2.94484E-07-1.47173E-18 1.00475E-18
 -1      2492 9.54567E-05-2.85029E-05-2.86960E-05 4.08463E-07-9.51322E-19 1.47586E-18
 -1      2493 9.53185E-05-2.85434E-05-2.86173E-05 1.46227E-07-8.22063E-19 1.93878E-18
 -1      2494 9.53560E-05-2.85453E-05-2.86311E-05 1.84556E-07-8.37475E-19 9.97480E-19
 -1      2495 9.53708E-05-2.85140E-05-2.86541E-05 2.64517E-07-1.12919E-18 1.44477E-18
 -1      2496 9.52710E-05-2.85449E-05-2.85964E-05 7.83513E-08 6.03540E-19 1.67024E-18
 -1      2497 9.52937E-05-2.85447E-05-2.86052E-05 1.05451E-07 4.29135E-19 1.72809E-18
 -1      2498 9.53121E-05-2.85245E-05-2.86242E-05 1.59753E-07-4.94585E-19 2.65670E-18
 -1      2499 9.52430E-05-2.85484E-05-2.85830E-05 3.12213E-08 1.86559E-18 1.64127E-18
 -1      2500 9.52551E-05-2.85467E-05-2.85882E-05 4.98202E-08 1.26730E-18 1.48420E-18
 -1      2501 9.52738E-05-2.85342E-05-2.86034E-05 8.50814E-08 4.27580E-19 5.03719E-19
 -1      2502 9.52288E-05-2.85532E-05-2.85750E-05-1.64535E-10 1.23009E-18 1.22765E-18
 -1      2503 9.52337E-05-2.85505E-05-2.85778E-05 1.19809E-08 1.70997E-18 2.23853E-18
 -1      2504 9.52504E-05-2.85432E-05-2.85893E-05 3.33711E-08 1.65326E-18 1.59350E-18
 -1      2505 9.52239E-05-2.85588E-05-2.85707E-05-1.94265E-08-6.07471E-19 2.44999E-18
 -1      2506 9.52241E-05-2.85555E-05-2.85718E-05-1.23105E-08-3.45704E-20 2.21364E-18
 -1      2507 9.52378E-05-2.85516E-05-2.85802E-05-8.21479E-10 2.55823E-19 3.26139E-18
 -1      2508 9.52252E-05-2.85652E-05-2.85685E-05-2.89997E-08-7.73163E-19 3.46279E-18
 -1      2509 9.52224E-05-2.85614E-05-2.85687E-05-2.60663E-08-6.00844E-19 2.85778E-18
 -1      2510 9.52325E-05-2.85596E-05-2.85743E-05-2.14187E-08-1.07712E-18 3.66543E-18
 -1      2511 9.52298E-05-2.85723E-05-2.85675E-05-3.01191E-08-9.91905E-19 3.43207E-18
 -1      2512 9.52257E-05-2.85682E-05-2.85673E-05-3.08545E-08-6.58174E-19 2.76298E-18
 -1      2513 9.52325E-05-2.85683E-05-2.85705E-05-3.12926E-08-2.23996E-19 2.13782E-18
 -1      2514 9.52318E-05-2.85761E-05-2.85667E-05-2.76621E-08-1.26473E-18 3.08745E-18
 -1      2515 9.52471E-05-2.85812E-05-2.85712E-05-1.33398E-08 3.04946E-18-1.12174E-18
 -1      2516 9.52472E-05-2.85807E-05-2.85712E-05-1.67007E-08 2.86158E-18-3.24261E-18
 -1      2517 9.52455E-05-2.85788E-05-2.85715E-05-7.13688E-09 1.48048E-18-6.58128E-19
 -1      2518 9.52459E-05-2.85788E-05-2.85715E-05-1.00705E-08 2.04289E-18 2.21947E-19
 -1      2519 9.52440E-05-2.85649E-05-2.85767E-05-1.06164E-08 2.96913E-18-1.28168E-18
 -1      2520 9.52459E-05-2.85829E-05-2.85699E-05-2.72548E-08 1.62531E-18 9.53339E-19
 -1      2521 9.52431E-05-2.85803E-05-2.85698E-05-2.93340E-08 9.35228E-19 4.26968E-19
 -1      2522 9.52477E-05-2.85829E-05-2.85707E-05-2.04893E-08 1.69609E-18-2.02647E-18
 -1      2523 9.52467E-05-2.85816E-05-2.85707E-05-2.36637E-08 1.40629E-18-8.44724E-20
 -1      2524 9.52454E-05-2.85733E-05-2.85738E-05-2.52531E-08 1.46325E-18 2.82701E-19
 -1      2525 9.52459E-05-2.85696E-05-2.85755E-05-1.77362E-08 2.72798E-18-2.38959E-18
 -1      2526 9.52439E-05-2.85768E-05-2.85716E-05-2.22084E-09 5.48502E-19-1.69909E-18
 -1      2527 9.52444E-05-2.85770E-05-2.85717E-05-4.65092E-09 8.68340E-19-1.16725E-18
 -1      2528 9.52415E-05-2.85606E-05-2.85774E-05-4.98006E-09 1.43315E-18-1.74483E-18
 -1      2529 9.52434E-05-2.85760E-05-2.85717E-05 1.87918E-09-1.41683E-18-1.98509E-18
 -1      2530 9.52435E-05-2.85761E-05-2.85717E-05-2.97938E-10-5.64555E-19-1.77647E-18
 -1      2531 9.52397E-05-2.85579E-05-2.85778E-05-8.41281E-10-9.00454E-20-2.73344E-18
 -1      2532 9.52439E-05-2.85764E-05-2.85717E-05 6.02419E-09-1.00695E-18-1.28633E-18
 -1      2533 9.52436E-05-2.85765E-05-2.85717E-05 3.72323E-09-1.97233E-18-1.31833E-18
 -1      2534 9.52394E-05-2.85577E-05-2.85777E-05 2.59524E-09-5.91032E-19-1.85668E-18
 -1      2535 9.52451E-05-2.85779E-05-2.85716E-05 1.08954E-08-6.01042E-19-1.07989E-18
 -1      2536 9.52448E-05-2.85780E-05-2.85715E-05 8.25153E-09-3.75171E-19-1.98217E-18
 -1      2537 9.52408E-05-2.85599E-05-2.85774E-05 6.37843E-09-6.57245E-19-9.92171E-19
 -1      2538 9.52462E-05-2.85796E-05-2.85713E-05 1.69103E-08 3.14058E-19 1.33577E-18
 -1      2539 9.52462E-05-2.85801E-05-2.85713E-05 1.38441E-08 1.42488E-19-5.31845E-20
 -1      2540 9.52430E-05-2.85639E-05-2.85767E-05 1.13962E-08-3.52177E-20-9.84100E-19
 -1      2541 9.52459E-05-2.85805E-05-2.85708E-05 2.33421E-08-3.04829E-19 1.96960E-18
 -1      2542 9.52469E-05-2.85818E-05-2.85708E-05 2.03484E-08-4.19304E-19 3.16514E-18
 -1      2543 9.52448E-05-2.85684E-05-2.85756E-05 1.79047E-08-3.71979E-19 1.51508E-18
 -1      2544 9.52426E-05-2.85795E-05-2.85699E-05 2.83672E-08-1.46243E-18 6.39725E-19
 -1      2545 9.52451E-05-2.85818E-05-2.85700E-05 2.65622E-08-8.09295E-19 1.87255E-19
 -1      2546 9.52445E-05-2.85722E-05-2.85739E-05 2.46574E-08-1.30926E-18 8.55337E-19
 -1      2547 2.64154E-05-2.20031E-05-1.61595E-06 2.09989E-05-6.37392E-19 8.04702E-18
 -1      2548 2.09483E-05-1.71144E-05-1.24664E-06 7.67140E-06-7.78529E-19 6.92195E-18
 -1      2549 5.39794E-05-3.55496E-05-7.77338E-06 3.89092E-05-1.20660E-18 4.37217E-18
 -1      2550 3.73863E-05-2.85810E-05-3.58460E-06 2.99868E-05-1.08399E-18 6.39468E-18
 -1      2551 4.00876E-05-2.29655E-05-6.80777E-06 2.62090E-05-1.88645E-18 6.41373E-18
 -1      2552 2.09609E-05-1.70517E-05-1.28935E-06-1.02721E-05-4.12929E-21 6.04040E-18
 -1      2553 2.81208E-05-2.13022E-05-2.58284E-06-2.50342E-05 5.83923E-19 4.52040E-18
 -1      2554 9.65361E-05-2.78582E-05-2.94057E-05-2.40666E-06 1.02432E-18 1.67482E-18
 -1      2555 9.63330E-05-2.76365E-05-2.93961E-05-1.57296E-06 1.07823E-18 1.85024E-18
 -1      2556 9.66696E-05-2.74752E-05-2.96738E-05-3.08930E-06 1.07108E-18 9.70683E-19
 -1      2557 9.52368E-05-2.85795E-05-2.85673E-05 2.90657E-08-1.47397E-18-1.89964E-19
 -1      2558 9.08153E-05-5.17356E-05-1.68585E-05 4.11701E-05 6.49674E-19 1.23241E-18
 -1      2559 7.42997E-05-4.58295E-05-1.20512E-05 4.03163E-05-6.59203E-19 2.11261E-18
 -1      2560 1.50594E-04-5.06255E-05-4.32143E-05 4.24464E-06 2.89484E-18 4.02341E-19
 -1      2561 1.40533E-04-5.65331E-05-3.59956E-05 1.18650E-05 2.01096E-18-2.28699E-19
 -1      2562 7.00928E-05-4.28233E-05-1.14635E-05-4.29811E-05 2.32511E-18 1.93526E-18
 -1      2563 8.60534E-05-4.87344E-05-1.59477E-05-4.37989E-05 1.80926E-18 2.46189E-18
 -1      2564 1.43685E-04-1.02079E-05-5.77535E-05-2.46091E-06-5.52350E-18-6.34216E-19
 -1      2565 1.48013E-04-1.51884E-05-5.71478E-05-3.32084E-06-5.07013E-18-4.46175E-19
 -1      2566 8.62577E-05-9.22328E-06-3.30500E-05-1.03381E-06 6.54797E-19-3.28341E-18
 -1      2567 8.64838E-05-9.42152E-06-3.30561E-05-1.92562E-06 3.09727E-19-3.29914E-18
 -1      2568 8.77652E-05-1.13991E-05-3.27258E-05-2.00623E-06 2.25008E-19-3.07040E-18
 -1      2569 8.72384E-05-1.08499E-05-3.27355E-05-5.52644E-07 7.07704E-19-3.09336E-18
 -1      2570 1.46999E-04-1.47887E-05-5.70791E-05 5.14803E-06 5.80175E-18 1.63467E-18
 -1      2571 1.47789E-04-1.32366E-05-5.81250E-05-3.86002E-07 6.00800E-18 1.36907E-18
 -1      2572 1.43756E-04-4.38865E-05-4.30549E-05-6.15081E-06-1.41767E-18-2.67429E-18
 -1      2573 1.48972E-04-3.74638E-05-4.81510E-05-2.07315E-06-2.21150E-18-3.25239E-18
 -1      2574 1.49748E-04-1.61687E-05-5.78076E-05-5.86565E-06 5.44473E-18 1.14011E-18
 -1      2575 1.52362E-04-2.28850E-05-5.56986E-05-7.70852E-06 5.65119E-18 1.30528E-18
 -1      2576 1.52295E-04-3.18829E-05-5.19407E-05 8.02736E-06 4.27985E-18 1.64028E-18
 -1      2577 1.49640E-04-2.31660E-05-5.48544E-05 8.14644E-06 5.12053E-18 1.88465E-18
 -1      2578 1.48712E-04-4.95392E-05-4.27665E-05-4.28827E-06 1.56432E-18 7.85200E-19
 -1      2579 1.53475E-04-4.12479E-05-4.84015E-05 1.85372E-06 3.05387E-18 1.47003E-18
 -1      2580 1.30335E-04-5.96435E-05-3.03723E-05-2.20588E-05-6.05629E-19-5.10761E-19
 -1      2581 1.43665E-04-5.63921E-05-3.75679E-05-1.45342E-05 4.67139E-19-6.41627E-20
 -1      2582 8.96673E-05-5.17193E-05-1.61178E-05-3.93286E-05-1.85437E-18-3.24115E-18
 -1      2583 1.11278E-04-5.78278E-05-2.31232E-05-3.48507E-05-1.36648E-18-1.92742E-18
 -1      2584 5.19171E-05-3.54663E-05-6.79538E-06-3.72067E-05-1.94267E-18-4.20022E-18
 -1      2585 6.87700E-05-4.32410E-05-1.10151E-05-4.24995E-05-1.95262E-18-4.32463E-18
 -1      2586 2.36901E-05-2.03839E-05-1.15220E-06-1.50660E-05-1.25911E-18-4.14347E-18
 -1      2587 3.47801E-05-2.51974E-05-3.88366E-06-2.89621E-05-1.30612E-18-4.01324E-18
 -1      2588 2.20720E-05-1.68184E-05-1.90340E-06 1.09110E-05-4.60362E-19-5.41169E-18
 -1      2589 2.00219E-05-1.77066E-05-6.26546E-07-3.48350E-06-4.90485E-19-4.87319E-18
 -1      2590 2.98062E-05-1.60399E-05-5.28713E-06-1.01219E-05-9.93781E-19-4.37895E-18
 -1      2591 4.80209E-05-3.22476E-05-6.45608E-06 3.90934E-05 5.20502E-19-4.28747E-18
 -1      2592 3.41144E-05-2.37096E-05-4.00913E-06 2.88630E-05 5.40301E-19-4.68727E-18
 -1      2593 7.98327E-05-4.61799E-05-1.43999E-05 4.45241E-05 8.71809E-19-3.44684E-18
 -1      2594 6.22292E-05-3.99831E-05-9.35264E-06 4.18305E-05 9.33219E-19-3.79439E-18
 -1      2595 6.27288E-05-3.52593E-05-1.13364E-05 3.97826E-05 2.08487E-18-3.10109E-18
 -1      2596 1.16051E-04-5.59327E-05-2.58880E-05 3.52461E-05-1.04820E-18-1.74828E-18
 -1      2597 9.97339E-05-5.36155E-05-1.96942E-05 3.90866E-05 8.47033E-20-2.38562E-18
 -1      2598 1.38981E-04-5.25731E-05-3.72815E-05 1.77583E-05-3.44001E-18 1.16975E-18
 -1      2599 1.28291E-04-5.55263E-05-3.12602E-05 2.43769E-05-2.05511E-18-5.00173E-19
 -1      2600 1.49132E-04-3.84338E-05-4.77212E-05 3.11777E-06-4.85953E-18 6.18122E-19
 -1      2601 1.43680E-04-4.51077E-05-4.24671E-05 7.61613E-06-4.21325E-18 9.27501E-19
 -1      2602 1.50276E-04-2.22959E-05-5.52358E-05-3.07983E-06-4.99220E-18-1.54160E-19
 -1      2603 1.49034E-04-2.89307E-05-5.17555E-05-1.19558E-06-5.04090E-18 4.40457E-20
 -1      2604 1.42134E-04-1.29800E-05-5.58424E-05 4.81667E-06-4.43718E-18-2.24358E-18
 -1      2605 1.39883E-04-9.93019E-06-5.63760E-05 2.51265E-06-5.04578E-18-1.75897E-18
 -1      2606 1.47173E-04-2.76134E-05-5.15759E-05 3.13081E-06-2.91062E-18-3.14122E-18
 -1      2607 1.46214E-04-1.95493E-05-5.48952E-05 5.63056E-06-3.79873E-18-2.86784E-18
 -1      2608 1.33762E-04-1.56657E-05-5.08351E-05 8.48745E-06-2.85450E-18-3.29993E-18
 -1      2609 1.28476E-04-5.51434E-05-3.14909E-05-2.35636E-05-8.33269E-20-1.27224E-18
 -1      2610 1.39466E-04-5.19518E-05-3.77943E-05-1.64368E-05-7.20190E-19-1.56299E-18
 -1      2611 1.00103E-04-5.30389E-05-2.02002E-05-3.86732E-05 1.35356E-18 9.25172E-19
 -1      2612 1.15686E-04-5.53671E-05-2.60149E-05-3.46965E-05 5.67724E-19-5.62430E-19
 -1      2613 1.00090E-04-5.31637E-05-1.98448E-05-3.88890E-05 2.55804E-18 6.88042E-19
 -1      2614 3.95762E-05-2.79568E-05-4.69013E-06-3.37045E-05 1.66273E-18 1.94881E-18
 -1      2615 5.19491E-05-3.33391E-05-7.76491E-06-4.07373E-05 2.04982E-18 1.05371E-18
 -1      2616 9.58861E-05-2.01637E-05-3.24954E-05-1.02602E-05-2.22865E-18-1.34044E-18
 -1      2617 9.64791E-05-2.35032E-05-3.12955E-05-6.38268E-06-2.00700E-18-1.13453E-18
 -1      2618 9.59214E-05-2.25425E-05-3.14326E-05-5.82191E-06-1.80030E-18-1.45981E-18
 -1      2619 9.38811E-05-1.76447E-05-3.26922E-05-9.80726E-06-2.04729E-18-1.96786E-18
 -1      2620 9.75372E-05-2.53479E-05-3.09543E-05 6.16695E-06 2.39716E-18 2.95499E-18
 -1      2621 9.84307E-05-2.40197E-05-3.19085E-05 9.34419E-06 2.46682E-18 3.33562E-18
 -1      2622 9.68333E-05-2.15146E-05-3.23349E-05 1.04131E-05 2.75276E-18 2.31071E-18
 -1      2623 9.69936E-05-2.42770E-05-3.11991E-05 5.92134E-06 2.39217E-18 1.74403E-18
 -1      2624 1.28239E-04-6.00116E-05-2.96507E-05 2.63529E-05 1.54605E-18 5.12243E-19
 -1      2625 1.09321E-04-5.70451E-05-2.23784E-05 3.33990E-05 1.14582E-18 9.79805E-19
 -1      2626 1.08488E-04-5.69923E-05-2.17548E-05 3.37225E-05 7.72918E-20 8.85096E-19
 -1      2627 1.39383E-04-1.41354E-05-5.40269E-05-4.24631E-06 5.60524E-18 8.12516E-19
 -1      2628 9.02726E-05-1.41157E-05-3.26282E-05-5.15382E-06-9.48128E-19-3.02004E-18
 -1      2629 8.94353E-05-1.25434E-05-3.30095E-05-6.39562E-06-1.04877E-18-3.25819E-18
 -1      2630 9.03409E-05-1.34307E-05-3.30169E-05-7.55043E-06-1.41392E-18-3.20691E-18
 -1      2631 9.65612E-05-2.69295E-05-2.98601E-05-8.53451E-07 1.38860E-18 1.02687E-18
 -1      2632 9.50663E-05-1.91735E-05-3.25704E-05 1.00068E-05 2.78895E-18 1.14091E-18
 -1      2633 1.37203E-04-6.03192E-05-3.28323E-05 1.36199E-05 1.26695E-18-4.13776E-19
 -1      2634 1.48055E-04-4.67843E-05-4.34246E-05-6.22100E-06 2.43368E-18-1.28114E-19
 -1      2635 9.25051E-05-1.61037E-05-3.27870E-05-8.76354E-06-1.73898E-18-2.53118E-18
 -1      2636 7.06663E-05-4.06482E-05-1.24375E-05 3.87342E-05-1.63414E-18 2.96790E-18
 -1      2637 1.41385E-04-3.22957E-05-4.68314E-05 7.56602E-06-1.93081E-18-4.43506E-18
 -1      2638 9.52353E-05-2.85769E-05-2.85680E-05-3.11281E-08-1.36910E-18 2.17374E-18
 -1      2639 9.52389E-05-2.85791E-05-2.85684E-05-3.12581E-08-3.52969E-19 1.33275E-18
 -1      2640 1.40815E-04-5.01581E-05-3.88409E-05-4.97553E-06-1.83694E-19-3.82287E-18
 -1      2641 3.18722E-05-1.32026E-05-7.45074E-06 7.03107E-06-9.68953E-19 5.72298E-18
 -1      2642 2.51906E-05-1.49477E-05-3.82398E-06-1.27299E-06-4.02208E-19 6.11028E-18
 -1      2643 3.18418E-05-1.30807E-05-7.48942E-06-8.84241E-06 8.83972E-19 5.03603E-18
 -1      2644 3.95256E-05-2.22533E-05-6.87635E-06-2.85298E-05 1.88211E-18 2.37910E-18
 -1      2645 1.39328E-04-1.72589E-05-5.24486E-05-7.39241E-06-4.81771E-18-2.06253E-19
 -1      2646 9.54198E-05-2.05058E-05-3.20633E-05 7.88646E-06 2.59315E-18 7.68530E-19
 -1      2647 1.43332E-04-3.40348E-05-4.68983E-05-5.99107E-06-4.26386E-18 5.56924E-19
 -1      2648 1.40984E-04-5.12631E-05-3.84246E-05 6.08272E-06-2.77632E-18 1.87427E-18
 -1      2649 6.78779E-05-3.86709E-05-1.21181E-05-4.10977E-05 2.73147E-18 1.74838E-18
 -1      2650 9.53450E-05-5.13954E-05-1.85192E-05 3.96996E-05 1.64727E-18-2.40736E-18
 -1      2651 3.23859E-05-1.86453E-05-5.29198E-06 2.06719E-05 4.01494E-19-4.82830E-18
 -1      2652 3.41579E-05-1.41685E-05-7.93138E-06 1.23628E-05 3.24625E-19-4.27265E-18
 -1      2653 4.51338E-05-2.11334E-05-9.83290E-06 2.74223E-05 1.74436E-18-3.24329E-18
 -1      2654 4.90868E-05-2.88186E-05-8.17992E-06-3.24127E-05-1.86474E-18-3.99694E-18
 -1      2655 8.63986E-05-4.80803E-05-1.60083E-05-3.93612E-05-2.54428E-18-3.31116E-18
 -1      2656 1.24612E-04-6.09539E-05-2.71296E-05-2.55671E-05-1.34234E-18-7.21884E-19
 -1      2657 1.32949E-04-6.17137E-05-3.10151E-05-1.43811E-05-1.65129E-18 1.13301E-18
 -1      2658 1.16317E-04-5.83801E-05-2.45423E-05-2.84089E-05-1.90508E-18-7.53528E-19
 -1      2659 1.45947E-04-5.56912E-05-3.87283E-05-1.24697E-06-4.44163E-20 1.77453E-18
 -1      2660 1.46468E-04-3.77508E-05-4.65223E-05 1.03934E-05 2.78981E-18 2.86361E-18
 -1      2661 1.32266E-04-8.97781E-06-5.32049E-05 5.08869E-07-4.62205E-18-1.41350E-18
 -1      2662 1.45952E-04-2.72734E-05-5.09503E-05-1.19278E-05 4.75418E-18 1.45266E-19
 -1      2663 1.40055E-04-1.89409E-05-5.20908E-05 9.30896E-06 5.19019E-18 1.52826E-18
 -1      2664 1.25903E-04-5.87720E-05-2.86623E-05 2.55104E-05-2.74862E-19 1.49184E-19
 -1      2665 9.52339E-05-2.85733E-05-2.85689E-05 2.98309E-08-1.78358E-18-4.13039E-19
 -1      2666 9.52400E-05-2.85786E-05-2.85693E-05 3.05895E-08-1.50313E-18 5.78226E-19
 -1      2667 9.52404E-05-2.85722E-05-2.85720E-05 2.94594E-08-2.07381E-18 1.20371E-18
 -1      2668 9.52318E-05-2.85694E-05-2.85694E-05 3.05168E-08-1.18309E-18 5.90612E-19
 -1      2669 1.25913E-04-5.80394E-05-2.89264E-05-2.47414E-05 1.35419E-18-1.65531E-18
 -1      2670 9.52393E-05-2.85736E-05-2.85710E-05-3.14126E-08 2.31121E-19 2.05688E-18
 -1      2671 9.52370E-05-2.85681E-05-2.85726E-05 2.90285E-08-1.80212E-18 7.89149E-19
 -1      2672 8.86461E-05-1.30690E-05-3.24108E-05 2.19569E-06 1.53308E-18-2.37308E-18
 -1      2673 8.82820E-05-1.26931E-05-3.24177E-05 1.54470E-06 1.26725E-18-2.52365E-18
 -1      2674 8.80341E-05-1.24201E-05-3.24263E-05 1.06627E-06 1.13500E-18-2.76420E-18
 -1      2675 8.79273E-05-1.23094E-05-3.24269E-05 4.15270E-07 9.22287E-19-2.82063E-18
 -1      2676 8.89945E-05-1.40253E-05-3.21109E-05 1.06589E-06 1.15640E-18-2.47447E-18
 -1      2677 9.14821E-05-1.63059E-05-3.22509E-05 4.53026E-06 2.22782E-18-1.38825E-18
 -1      2678 9.05916E-05-1.52745E-05-3.23072E-05 3.84600E-06 2.03275E-18-1.62891E-18
 -1      2679 9.36779E-05-1.90955E-05-3.20013E-05 5.49891E-06 2.41866E-18-6.09316E-19
 -1      2680 9.25174E-05-1.75899E-05-3.21353E-05 4.95840E-06 2.32336E-18-1.02802E-18
 -1      2681 9.28504E-05-1.85665E-05-3.18109E-05 3.52643E-06 2.03931E-18-1.00276E-18
 -1      2682 9.63355E-05-2.51324E-05-3.05171E-05 1.51729E-06 1.72899E-18 5.14555E-19
 -1      2683 9.64815E-05-2.43331E-05-3.08891E-05 3.40621E-06 1.97858E-18 7.03310E-19
 -1      2684 1.35976E-04-2.94017E-05-4.63215E-05-1.01480E-05-3.88407E-18 2.87991E-19
 -1      2685 1.37275E-04-3.77759E-05-4.29110E-05-8.14205E-06-3.43821E-18 1.14169E-18
 -1      2686 9.64017E-05-2.62743E-05-3.00478E-05-1.34890E-06 1.27973E-18 4.68147E-19
 -1      2687 9.64194E-05-2.58171E-05-3.02242E-05 4.22584E-09 1.46136E-18 5.22493E-19
 -1      2688 9.59349E-05-2.43656E-05-3.06745E-05 1.00629E-06 1.65771E-18-6.92681E-21
 -1      2689 9.54787E-05-2.17327E-05-3.16079E-05 5.88797E-06 2.38805E-18 5.37588E-19
 -1      2690 9.57506E-05-5.02615E-05-1.91450E-05-3.81710E-05 3.50259E-18 2.57127E-19
 -1      2691 1.08208E-04-5.52892E-05-2.27988E-05-3.46245E-05 2.84963E-18-1.13455E-18
 -1      2692 9.62577E-05-2.55308E-05-3.02839E-05-4.09880E-08-1.01420E-18-1.48015E-18
 -1      2693 9.62883E-05-2.61210E-05-3.00767E-05 1.19929E-06-9.55449E-19-1.51002E-18
 -1      2694 9.64069E-05-2.66203E-05-2.98864E-05 2.25024E-06-9.63563E-19-1.37829E-18
 -1      2695 9.65320E-05-2.70321E-05-2.97853E-05 3.14218E-06-1.03776E-18-1.38849E-18
 -1      2696 9.60045E-05-2.56164E-05-3.01755E-05 1.65369E-06-9.21379E-19-1.84176E-18
 -1      2697 9.66580E-05-2.73867E-05-2.96714E-05 3.94506E-06-9.38360E-19-1.23996E-18
 -1      2698 9.69162E-05-2.77459E-05-2.96415E-05 4.58343E-06-6.94227E-19-1.21664E-18
 -1      2699 9.62576E-05-2.66368E-05-2.98489E-05 3.59912E-06-9.28839E-19-1.64860E-18
 -1      2700 9.71240E-05-2.80740E-05-2.95797E-05 5.18643E-06-4.75377E-19-1.04415E-18
 -1      2701 9.75267E-05-2.84649E-05-2.95951E-05 5.61527E-06-4.04539E-19-1.09184E-18
 -1      2702 9.66014E-05-2.74539E-05-2.96474E-05 5.08520E-06-6.08750E-19-1.43193E-18
 -1      2703 9.78760E-05-2.88576E-05-2.95661E-05 6.03479E-06-4.91092E-19-9.69690E-19
 -1      2704 9.84324E-05-2.93481E-05-2.96071E-05 6.25140E-06-4.91136E-19-1.09446E-18
 -1      2705 9.71643E-05-2.82989E-05-2.95284E-05 6.18163E-06-4.49437E-19-1.33497E-18
 -1      2706 9.89854E-05-2.98847E-05-2.95981E-05 6.46393E-06-1.70814E-19-8.00107E-19
 -1      2707 9.97057E-05-3.05301E-05-2.96512E-05 6.42438E-06-4.27594E-20-6.24774E-19
 -1      2708 9.80667E-05-2.93670E-05-2.94609E-05 6.88939E-06-1.19756E-19-1.17252E-18
 -1      2709 1.00530E-04-3.12754E-05-2.96581E-05 6.36317E-06-1.20854E-19-4.79217E-19
 -1      2710 1.01416E-04-3.21042E-05-2.97176E-05 5.98989E-06-1.99570E-19-3.76783E-19
 -1      2711 9.94396E-05-3.08262E-05-2.94293E-05 7.12784E-06-5.17126E-20-3.59450E-19
 -1      2712 1.02569E-04-3.30842E-05-2.97491E-05 5.54431E-06-1.64405E-19-1.14595E-19
 -1      2713 1.03587E-04-3.40616E-05-2.98205E-05 4.74342E-06 2.82725E-19-1.31421E-19
 -1      2714 1.01413E-04-3.27874E-05-2.94409E-05 6.72758E-06 1.26345E-19 1.59842E-19
 -1      2715 1.05071E-04-3.52113E-05-2.99038E-05 3.77080E-06 3.49432E-19-1.47116E-19
 -1      2716 1.06112E-04-3.61783E-05-3.00079E-05 2.47204E-06 2.31282E-19-1.89245E-19
 -1      2717 1.04056E-04-3.52185E-05-2.95363E-05 5.43428E-06 1.42898E-19-6.40412E-20
 -1      2718 1.07787E-04-3.72613E-05-3.01921E-05 8.50994E-07 1.39837E-19-3.12707E-19
 -1      2719 1.08623E-04-3.78714E-05-3.03654E-05-9.09946E-07 7.72330E-20-3.60142E-20
 -1      2720 1.07251E-04-3.77868E-05-2.98012E-05 2.95592E-06 1.37485E-19-6.49042E-19
 -1      2721 1.10111E-04-3.84149E-05-3.07148E-05-3.13364E-06 1.75114E-19 2.15208E-19
 -1      2722 1.10406E-04-3.81536E-05-3.09978E-05-5.08393E-06 1.70559E-19 3.31057E-19
 -1      2723 1.10494E-04-3.96674E-05-3.03645E-05-8.58715E-07 3.35787E-19-1.21386E-19
 -1      2724 1.11114E-04-3.75364E-05-3.15640E-05-7.46841E-06 9.59530E-20 4.36614E-19
 -1      2725 1.10564E-04-3.59616E-05-3.19775E-05-8.97121E-06 1.79399E-20 2.28711E-19
 -1      2726 1.12793E-04-3.95676E-05-3.13591E-05-5.62296E-06 1.73954E-19 2.77335E-19
 -1      2727 1.09895E-04-3.36767E-05-3.27545E-05-1.05841E-05-2.50957E-19 1.04152E-19
 -1      2728 1.08550E-04-3.08635E-05-3.32358E-05-1.06533E-05-5.54277E-19 2.82869E-19
 -1      2729 1.12966E-04-3.62400E-05-3.28573E-05-1.00616E-05-2.30532E-19 2.17621E-19
 -1      2730 1.06783E-04-2.77989E-05-3.40017E-05-9.91542E-06-1.11780E-18 1.19415E-19
 -1      2731 1.05381E-04-2.49390E-05-3.44165E-05-8.17222E-06-1.66768E-18-6.26887E-20
 -1      2732 1.10201E-04-2.92289E-05-3.47010E-05-1.15630E-05-1.10077E-18-1.14971E-19
 -1      2733 1.03813E-04-2.25032E-05-3.49185E-05-4.90491E-06-1.46195E-18-5.85296E-19
 -1      2734 1.03212E-04-2.13883E-05-3.50709E-05-1.59453E-06-1.31197E-18-5.23845E-19
 -1      2735 1.06925E-04-2.28478E-05-3.60339E-05-7.45832E-06-1.71631E-18-3.30032E-19
 -1      2736 1.03403E-04-2.15843E-05-3.50543E-05 2.74539E-06-1.21388E-18-9.52300E-19
 -1      2737 1.03959E-04-2.28759E-05-3.48914E-05 5.85823E-06-9.04797E-19-9.14442E-19
 -1      2738 1.05363E-04-2.00477E-05-3.66242E-05 7.03548E-07-1.35661E-18-6.60106E-19
 -1      2739 1.05707E-04-2.53458E-05-3.43670E-05 9.15047E-06-1.10804E-18-9.98003E-19
 -1      2740 1.07261E-04-2.83288E-05-3.39463E-05 1.07851E-05-1.05832E-18-1.43989E-18
 -1      2741 1.06908E-04-2.27416E-05-3.60698E-05 8.60305E-06-1.36170E-18-1.35987E-18
 -1      2742 1.08915E-04-3.14765E-05-3.31532E-05 1.11115E-05-3.06044E-19-2.05266E-18
 -1      2743 1.10214E-04-3.41563E-05-3.26832E-05 1.08248E-05 2.46012E-19-1.80486E-18
 -1      2744 1.10834E-04-3.03705E-05-3.44706E-05 1.18168E-05-9.51471E-19-1.90097E-18
 -1      2745 1.10727E-04-3.61781E-05-3.19479E-05 9.22523E-06 4.35680E-19-1.76394E-18
 -1      2746 1.11211E-04-3.76235E-05-3.15639E-05 7.68540E-06 5.81743E-19-1.91137E-18
 -1      2747 1.12999E-04-3.64694E-05-3.27420E-05 1.01826E-05 3.96609E-19-2.38513E-18
 -1      2748 1.10418E-04-3.80965E-05-3.10304E-05 5.33481E-06 6.17295E-19-1.66480E-18
 -1      2749 1.10095E-04-3.82498E-05-3.07749E-05 3.43911E-06 5.40666E-19-1.90534E-18
 -1      2750 1.12655E-04-3.95045E-05-3.13268E-05 5.82688E-06 7.31173E-19-2.64066E-18
 -1      2751 1.08567E-04-3.76163E-05-3.04522E-05 1.32241E-06-6.10128E-20-2.42353E-18
 -1      2752 1.07742E-04-3.69570E-05-3.03018E-05-3.37845E-07-9.78948E-21-2.63311E-18
 -1      2753 1.10224E-04-3.93400E-05-3.03918E-05 1.21876E-06 7.53975E-22-2.51341E-18
 -1      2754 1.06078E-04-3.58487E-05-3.01343E-05-1.83026E-06 3.27547E-20-2.33970E-18
 -1      2755 1.05078E-04-3.48852E-05-3.00466E-05-3.01900E-06-5.30155E-20-2.73984E-18
 -1      2756 1.06957E-04-3.73262E-05-2.98724E-05-2.34653E-06-5.56368E-20-3.06800E-18
 -1      2757 1.03623E-04-3.37516E-05-2.99686E-05-3.87897E-06 3.63208E-19-2.45341E-18
 -1      2758 1.02662E-04-3.28117E-05-2.99065E-05-4.58421E-06 3.78534E-19-2.02333E-18
 -1      2759 1.03807E-04-3.47544E-05-2.96269E-05-4.58373E-06 3.40044E-19-2.53797E-18
 -1      2760 1.01535E-04-3.18721E-05-2.98680E-05-4.94950E-06 1.98278E-19-1.08875E-18
 -1      2761 1.00705E-04-3.11038E-05-2.98089E-05-5.25887E-06 5.55862E-19-1.03710E-18
 -1      2762 1.01225E-04-3.23974E-05-2.95248E-05-5.69210E-06 1.16861E-18-1.10281E-18
 -1      2763 9.98948E-05-3.04181E-05-2.97802E-05-5.28581E-06 4.03014E-19-5.74771E-19
 -1      2764 9.92180E-05-2.98547E-05-2.97146E-05-5.31147E-06-3.51098E-19-6.39171E-19
 -1      2765 9.92981E-05-3.05633E-05-2.94777E-05-5.99083E-06 6.36333E-19-8.66205E-19
 -1      2766 9.86621E-05-2.94018E-05-2.96822E-05-5.13007E-06-4.62680E-19-4.43351E-19
 -1      2767 9.81247E-05-2.90211E-05-2.96091E-05-4.97449E-06 3.15880E-20-3.05312E-19
 -1      2768 9.79437E-05-2.92874E-05-2.94377E-05-5.76827E-06-1.50517E-19-4.61660E-19
 -1      2769 9.77545E-05-2.87506E-05-2.95690E-05-4.68045E-06 1.76505E-19 5.15168E-21
 -1      2770 9.73327E-05-2.85123E-05-2.94916E-05-4.42448E-06-1.15748E-19 8.00537E-19
 -1      2771 9.70270E-05-2.84833E-05-2.93848E-05-5.24442E-06 2.24582E-19-5.36911E-19
 -1      2772 9.70902E-05-2.83713E-05-2.94452E-05-4.08363E-06-6.12397E-19 7.34368E-19
 -1      2773 9.67605E-05-2.82347E-05-2.93677E-05-3.78543E-06-3.57409E-19 6.90321E-19
 -1      2774 9.64208E-05-2.80323E-05-2.93152E-05-4.57436E-06 5.63179E-20-9.96841E-20
 -1      2775 9.66025E-05-2.81789E-05-2.93179E-05-3.44045E-06-6.29701E-19 1.14113E-18
 -1      2776 9.63453E-05-2.81107E-05-2.92443E-05-3.13860E-06-1.20513E-19 1.04453E-18
 -1      2777 9.60248E-05-2.78238E-05-2.92328E-05-3.86178E-06-2.24572E-19 2.19015E-19
 -1      2778 9.62421E-05-2.81067E-05-2.91944E-05-2.81520E-06-7.11090E-19 6.86312E-19
 -1      2779 9.60421E-05-2.80817E-05-2.91273E-05-2.53307E-06-7.90157E-19 7.02988E-19
 -1      2780 9.57667E-05-2.77699E-05-2.91442E-05-3.17200E-06-1.03360E-18 1.89574E-18
 -1      2781 9.59739E-05-2.81064E-05-2.90800E-05-2.24501E-06-7.07839E-19 1.15067E-18
 -1      2782 9.58191E-05-2.81072E-05-2.90210E-05-1.99496E-06-7.59313E-19 1.27184E-18
 -1      2783 9.55978E-05-2.78066E-05-2.90554E-05-2.54273E-06-6.83666E-19 1.27497E-18
 -1      2784 9.57733E-05-2.81453E-05-2.89780E-05-1.74792E-06-4.00745E-19 1.59643E-18
 -1      2785 9.56545E-05-2.81600E-05-2.89278E-05-1.53483E-06-1.56139E-20 1.83299E-18
 -1      2786 9.54859E-05-2.78901E-05-2.89712E-05-1.99251E-06-6.43817E-19 1.55623E-18
 -1      2787 9.56231E-05-2.82021E-05-2.88900E-05-1.32927E-06 2.72402E-19 1.65160E-18
 -1      2788 9.55328E-05-2.82232E-05-2.88484E-05-1.15325E-06 7.34218E-19 1.53400E-18
 -1      2789 9.54107E-05-2.79925E-05-2.88948E-05-1.52699E-06 2.57488E-20 2.99040E-19
 -1      2790 9.55109E-05-2.82639E-05-2.88162E-05-9.86535E-07 2.89970E-19 1.10869E-18
 -1      2791 9.54433E-05-2.82867E-05-2.87825E-05-8.44907E-07 7.08005E-20 7.38722E-19
 -1      2792 9.53592E-05-2.80967E-05-2.88279E-05-1.14374E-06 8.06804E-20 5.29206E-19
 -1      2793 9.54277E-05-2.83233E-05-2.87559E-05-7.12724E-07 4.39275E-19 9.38683E-20
 -1      2794 9.53779E-05-2.83452E-05-2.87292E-05-6.01397E-07 4.45152E-19-1.99840E-19
 -1      2795 9.53234E-05-2.81933E-05-2.87710E-05-8.35607E-07 8.25041E-20-3.97305E-21
 -1      2796 9.53666E-05-2.83764E-05-2.87076E-05-4.98782E-07 8.37560E-20 4.08688E-19
 -1      2797 9.53306E-05-2.83962E-05-2.86869E-05-4.13161E-07 2.25286E-19 2.67975E-19
 -1      2798 9.52981E-05-2.82778E-05-2.87238E-05-5.93161E-07 2.82567E-19-2.50909E-19
 -1      2799 9.53225E-05-2.84218E-05-2.86697E-05-3.35120E-07 5.14022E-19 5.18750E-19
 -1      2800 9.52972E-05-2.84389E-05-2.86541E-05-2.70680E-07 1.05200E-19 9.27357E-19
 -1      2801 9.52800E-05-2.83487E-05-2.86855E-05-4.06272E-07 4.65954E-19-5.43052E-19
 -1      2802 9.52912E-05-2.84594E-05-2.86407E-05-2.12580E-07-4.17913E-19 9.00418E-19
 -1      2803 9.52740E-05-2.84737E-05-2.86291E-05-1.65193E-07 7.42576E-20-3.52577E-19
 -1      2804 9.52670E-05-2.84065E-05-2.86551E-05-2.65144E-07-6.33411E-19-1.09546E-18
 -1      2805 9.52697E-05-2.84899E-05-2.86188E-05-1.22970E-07 1.23647E-18-3.59642E-19
 -1      2806 9.52586E-05-2.85017E-05-2.86104E-05-8.90832E-08 2.13853E-18-8.65737E-19
 -1      2807 9.52577E-05-2.84525E-05-2.86313E-05-1.60912E-07 5.10603E-19-6.66409E-19
 -1      2808 9.52555E-05-2.85143E-05-2.86026E-05-5.93357E-08 2.29310E-18-3.24213E-20
 -1      2809 9.52488E-05-2.85240E-05-2.85965E-05-3.60370E-08 1.48004E-18 1.04909E-18
 -1      2810 9.52512E-05-2.84886E-05-2.86129E-05-8.59454E-08 2.13823E-18-6.07981E-19
 -1      2811 9.52467E-05-2.85339E-05-2.85906E-05-1.60185E-08 8.58117E-19 1.25443E-18
 -1      2812 9.52433E-05-2.85422E-05-2.85863E-05-1.00480E-09-3.36382E-19 1.38725E-18
 -1      2813 9.52468E-05-2.85168E-05-2.85988E-05-3.39725E-08 1.43920E-18-6.03819E-19
 -1      2814 9.52421E-05-2.85505E-05-2.85817E-05 1.12779E-08-1.86377E-18 2.46519E-18
 -1      2815 9.52408E-05-2.85575E-05-2.85786E-05 1.95269E-08-1.62445E-18 1.74219E-18
 -1      2816 9.52441E-05-2.85397E-05-2.85879E-05 5.80681E-11-1.80437E-20 2.70082E-19
 -1      2817 9.73982E-05-2.75130E-05-2.99339E-05-7.12718E-06 8.19855E-19-2.09742E-20
 -1      2818 9.69186E-05-2.73186E-05-2.98229E-05-6.34499E-06 8.87750E-19 2.08949E-19
 -1      2819 1.20464E-04-5.80202E-05-2.65146E-05-2.61167E-05 2.43956E-18-1.95739E-18
 -1      2820 1.30378E-04-5.83927E-05-3.12961E-05-1.71562E-05 1.40247E-18-3.05641E-18
 -1      2821 1.16338E-04-5.62954E-05-2.54535E-05-2.66215E-05 3.20184E-18-2.25644E-18
 -1      2822 9.68617E-05-2.72382E-05-2.98238E-05-5.46207E-06 8.55976E-19 1.42400E-19
 -1      2823 9.65491E-05-2.70394E-05-2.97769E-05-4.59080E-06 1.02794E-18 3.40483E-19
 -1      2824 9.61722E-05-2.65484E-05-2.98472E-05-6.12831E-06 9.09268E-19-3.05852E-19
 -1      2825 9.92717E-05-2.84367E-05-3.03414E-05-1.00994E-05 3.12964E-19 3.22363E-19
 -1      2826 9.84217E-05-2.80166E-05-3.01725E-05-9.46723E-06 4.30069E-19 2.32045E-19
 -1      2827 1.00841E-04-2.95385E-05-3.05458E-05-1.12706E-05 3.34042E-19 1.92623E-19
 -1      2828 9.97243E-05-2.88195E-05-3.03819E-05-1.08248E-05 2.89651E-19 3.96156E-19
 -1      2829 9.74345E-05-2.76610E-05-2.99159E-05-1.11675E-05 2.82854E-19-3.56092E-19
 -1      2830 1.03177E-04-3.15331E-05-3.07021E-05-1.19066E-05 1.12508E-19 3.24290E-19
 -1      2831 1.01681E-04-3.03305E-05-3.05599E-05-1.18337E-05 3.20066E-19 2.87666E-19
 -1      2832 9.86916E-05-2.89814E-05-2.99026E-05-1.25487E-05 3.08971E-19 2.24573E-20
 -1      2833 1.06713E-04-3.48398E-05-3.08184E-05-1.15064E-05-6.15881E-19 4.46813E-19
 -1      2834 1.04698E-04-3.29793E-05-3.06941E-05-1.20988E-05-2.76752E-19 4.96056E-19
 -1      2835 1.00983E-04-3.15066E-05-2.98296E-05-1.34789E-05-2.23362E-19 1.12470E-19
 -1      2836 1.11898E-04-3.96557E-05-3.10046E-05-9.31952E-06-9.79607E-19 7.37178E-19
 -1      2837 1.09285E-04-3.71299E-05-3.08434E-05-1.09479E-05-7.53224E-19 6.79006E-19
 -1      2838 1.04982E-04-3.57649E-05-2.97601E-05-1.34322E-05-8.17603E-19 3.32467E-19
 -1      2839 1.18675E-04-4.51322E-05-3.15730E-05-4.48069E-06-9.64373E-19 1.09824E-18
 -1      2840 1.15779E-04-4.26284E-05-3.12229E-05-7.38966E-06-1.08279E-18 9.10230E-19
 -1      2841 1.11284E-04-4.19231E-05-2.99184E-05-1.14090E-05-1.17160E-18 8.50924E-19
 -1      2842 1.25628E-04-4.85807E-05-3.31440E-05 3.82506E-06-4.29710E-19 1.22392E-18
 -1      2843 1.23660E-04-4.78644E-05-3.23423E-05-3.07049E-07-7.94452E-19 1.28801E-18
 -1      2844 1.20646E-04-4.88676E-05-3.09898E-05-5.88657E-06-9.58484E-19 1.14073E-18
 -1      2845 1.29128E-04-4.48762E-05-3.61356E-05 1.32789E-05-5.21455E-21 2.10380E-18
 -1      2846 1.29973E-04-4.87159E-05-3.49376E-05 9.48021E-06-4.57054E-19 1.97509E-18
 -1      2847 1.29644E-04-5.18094E-05-3.36598E-05 3.32079E-06-6.37816E-19 2.01360E-18
 -1      2848 1.29174E-04-2.69546E-05-4.42815E-05 1.60062E-05 3.03788E-18 2.58123E-18
 -1      2849 1.32421E-04-3.55147E-05-4.20349E-05 1.64963E-05 1.78735E-18 2.71628E-18
 -1      2850 1.24480E-04-1.59850E-05-4.70236E-05 3.31228E-06 4.08355E-18 6.83450E-20
 -1      2851 1.25538E-04-1.93915E-05-4.61576E-05 1.00490E-05 3.93002E-18 1.16697E-18
 -1      2852 1.27242E-04-3.42102E-05-4.03813E-05-1.76660E-05 2.22759E-18-3.46153E-18
 -1      2853 1.24187E-04-2.67979E-05-4.18276E-05-1.52262E-05 2.57974E-18-3.25785E-18
 -1      2854 1.30285E-04-4.64768E-05-3.61272E-05-1.30423E-05 3.43075E-19-2.08594E-18
 -1      2855 1.29132E-04-4.11576E-05-3.77824E-05-1.60308E-05 1.39281E-18-3.03045E-18
 -1      2856 1.25901E-04-4.84965E-05-3.31316E-05-3.35625E-06 5.81706E-20-9.32941E-19
 -1      2857 1.27329E-04-4.80185E-05-3.40922E-05-7.64743E-06 6.29354E-19-1.54601E-18
 -1      2858 1.31586E-04-5.01481E-05-3.50029E-05-7.80879E-06 8.08916E-20-2.13978E-18
 -1      2859 1.18565E-04-4.43151E-05-3.17031E-05 4.65735E-06 3.11855E-19-9.19196E-19
 -1      2860 1.21209E-04-4.64513E-05-3.21422E-05 1.23298E-06 3.11020E-20-4.94965E-19
 -1      2861 1.23563E-04-4.97801E-05-3.17354E-05 2.37436E-06-2.66597E-19-1.27186E-18
 -1      2862 1.11689E-04-3.86911E-05-3.11930E-05 9.18606E-06-1.12216E-18 1.28312E-19
 -1      2863 1.14329E-04-4.12843E-05-3.13718E-05 7.19754E-06-2.72447E-19-4.94259E-19
 -1      2864 1.14537E-04-4.38642E-05-3.04183E-05 9.01307E-06-2.65896E-19-1.19058E-18
 -1      2865 1.06634E-04-3.41198E-05-3.10239E-05 1.09109E-05-1.03059E-18 5.41605E-20
 -1      2866 1.08751E-04-3.61793E-05-3.11328E-05 1.00996E-05-9.86423E-19 3.19432E-19
 -1      2867 1.07415E-04-3.74268E-05-3.00952E-05 1.18590E-05-7.61382E-19 7.40416E-19
 -1      2868 1.03272E-04-3.10957E-05-3.09073E-05 1.09267E-05-4.14023E-19-8.09396E-22
 -1      2869 1.04840E-04-3.24628E-05-3.10263E-05 1.08902E-05-5.86670E-19 1.05882E-19
 -1      2870 1.02775E-04-3.26491E-05-3.01129E-05 1.23965E-05-3.41999E-19-8.68953E-21
 -1      2871 1.01102E-04-2.93475E-05-3.07432E-05 1.00333E-05-2.16022E-19-3.08456E-19
 -1      2872 1.02252E-04-3.01597E-05-3.08910E-05 1.04329E-05-1.28228E-19 2.21770E-19
 -1      2873 1.00027E-04-2.97006E-05-3.01693E-05 1.16858E-05-5.05265E-19 4.83557E-20
 -1      2874 9.96659E-05-2.84498E-05-3.05211E-05 8.73935E-06-1.32069E-18-2.35522E-19
 -1      2875 1.00532E-04-2.88944E-05-3.06893E-05 9.34042E-06-1.14717E-18 5.53459E-20
 -1      2876 9.84676E-05-2.81283E-05-3.01582E-05 1.03999E-05-7.76351E-19 3.44995E-19
 -1      2877 9.86612E-05-2.80546E-05-3.02636E-05 7.34209E-06-1.68257E-18-4.90605E-19
 -1      2878 9.93355E-05-2.82793E-05-3.04369E-05 7.99854E-06-9.49765E-19-1.70270E-19
 -1      2879 9.75748E-05-2.74277E-05-3.00675E-05 8.91127E-06-1.29120E-18 6.99957E-19
 -1      2880 9.79123E-05-2.79295E-05-2.99974E-05 6.00407E-06 4.58678E-19-1.42885E-18
 -1      2881 9.84499E-05-2.80315E-05-3.01629E-05 6.63400E-06-8.24466E-19-1.26238E-18
 -1      2882 9.70286E-05-2.72191E-05-2.99196E-05 7.42484E-06-5.46027E-19-7.45249E-19
 -1      2883 9.73265E-05-2.79369E-05-2.97430E-05 4.80481E-06 5.09818E-19-1.14686E-18
 -1      2884 9.77596E-05-2.79741E-05-2.98926E-05 5.36806E-06 4.79438E-19-1.65072E-18
 -1      2885 9.66567E-05-2.72594E-05-2.97421E-05 6.04891E-06 4.16236E-19-2.83949E-18
 -1      2886 9.68557E-05-2.80014E-05-2.95130E-05 3.77448E-06-3.15582E-19 1.10136E-19
 -1      2887 9.72047E-05-2.80060E-05-2.96426E-05 4.25617E-06 3.74091E-19-6.14217E-19
 -1      2888 9.63747E-05-2.74081E-05-2.95577E-05 4.83434E-06 1.29061E-20-1.30110E-18
 -1      2889 9.64747E-05-2.80843E-05-2.93134E-05 2.91539E-06 9.61225E-20-2.97797E-20
 -1      2890 9.67536E-05-2.80736E-05-2.94222E-05 3.31479E-06-4.28075E-19 9.86007E-20
 -1      2891 9.61451E-05-2.75902E-05-2.93816E-05 3.79752E-06-4.70905E-19-1.05385E-18
 -1      2892 9.61677E-05-2.81673E-05-2.91455E-05 2.21520E-06 1.77642E-19-6.48463E-19
 -1      2893 9.63879E-05-2.81503E-05-2.92346E-05 2.53879E-06 6.19204E-19-4.81571E-19
 -1      2894 9.59525E-05-2.77691E-05-2.92228E-05 2.93476E-06 5.79304E-19-1.83956E-18
 -1      2895 9.59234E-05-2.82426E-05-2.90079E-05 1.65504E-06 4.77306E-19-4.79399E-19
 -1      2896 9.60947E-05-2.82238E-05-2.90793E-05 1.91236E-06 1.14832E-19-2.96757E-19
 -1      2897 9.57908E-05-2.79292E-05-2.90850E-05 2.23150E-06 5.31517E-20-1.75192E-18
 -1      2898 9.57321E-05-2.83078E-05-2.88975E-05 1.21410E-06 2.47352E-19 7.42477E-19
 -1      2899 9.58631E-05-2.82894E-05-2.89535E-05 1.41544E-06 9.13481E-19 4.85451E-19
 -1      2900 9.56569E-05-2.80655E-05-2.89692E-05 1.66828E-06 1.93795E-19-4.82105E-19
 -1      2901 9.55851E-05-2.83626E-05-2.88106E-05 8.72129E-07 3.36322E-19 5.19520E-19
 -1      2902 9.56835E-05-2.83456E-05-2.88538E-05 1.02735E-06 4.35222E-19 9.82310E-19
 -1      2903 9.55481E-05-2.81781E-05-2.88743E-05 1.22430E-06 2.25705E-19 7.30148E-19
 -1      2904 9.54744E-05-2.84080E-05-2.87435E-05 6.10729E-07-1.34439E-19 9.86368E-19
 -1      2905 9.55468E-05-2.83928E-05-2.87762E-05 7.28672E-07 1.07262E-19 7.57003E-19
 -1      2906 9.54619E-05-2.82694E-05-2.87981E-05 8.79488E-07-2.12247E-19 1.71268E-19
 -1      2907 9.53931E-05-2.84451E-05-2.86925E-05 4.13831E-07-9.86120E-19 1.77893E-18
 -1      2908 9.54451E-05-2.84318E-05-2.87168E-05 5.02127E-07-1.24482E-19 1.89968E-18
 -1      2909 9.53951E-05-2.83423E-05-2.87380E-05 6.15588E-07-3.87998E-19 2.14227E-18
 -1      2910 9.53349E-05-2.84751E-05-2.86545E-05 2.67822E-07-1.27064E-18 1.07997E-18
 -1      2911 9.53711E-05-2.84637E-05-2.86723E-05 3.32871E-07-1.25802E-18 1.56324E-18
 -1      2912 9.53447E-05-2.83999E-05-2.86916E-05 4.16617E-07-1.10588E-18 1.95565E-18
 -1      2913 9.52946E-05-2.84993E-05-2.86268E-05 1.61443E-07 3.26614E-19 1.08923E-18
 -1      2914 9.53189E-05-2.84895E-05-2.86394E-05 2.08486E-07-6.85577E-20 1.24489E-18
 -1      2915 9.53077E-05-2.84449E-05-2.86562E-05 2.68988E-07-5.95202E-19 1.22911E-18
 -1      2916 9.52679E-05-2.85187E-05-2.86070E-05 8.56120E-08 1.06806E-18 8.17929E-19
 -1      2917 9.52834E-05-2.85104E-05-2.86157E-05 1.18833E-07 7.48471E-19 1.28483E-18
 -1      2918 9.52814E-05-2.84799E-05-2.86298E-05 1.61439E-07 9.29411E-19 4.35872E-19
 -1      2919 9.52514E-05-2.85345E-05-2.85930E-05 3.32127E-08 1.68899E-18 1.45714E-18
 -1      2920 9.52604E-05-2.85274E-05-2.85989E-05 5.58550E-08 9.87960E-19 7.14627E-19
 -1      2921 9.52634E-05-2.85071E-05-2.86103E-05 8.48835E-08 1.43726E-18 1.26374E-18
 -1      2922 9.52421E-05-2.85477E-05-2.85834E-05-1.21199E-09-3.23074E-19 3.23851E-18
 -1      2923 9.52465E-05-2.85414E-05-2.85873E-05 1.33011E-08 1.55210E-18 3.16318E-18
 -1      2924 9.52518E-05-2.85283E-05-2.85961E-05 3.21915E-08 7.13777E-19 1.78294E-18
 -1      2925 9.52382E-05-2.85591E-05-2.85767E-05-2.14100E-08-2.07766E-19 2.13566E-18
 -1      2926 9.52394E-05-2.85536E-05-2.85792E-05-1.35785E-08-5.65119E-19 2.73320E-18
 -1      2927 9.52448E-05-2.85453E-05-2.85857E-05-2.17878E-09 2.00335E-19 2.39096E-18
 -1      2928 9.52387E-05-2.85685E-05-2.85729E-05-2.92262E-08-3.21299E-19 2.11096E-18
 -1      2929 9.52380E-05-2.85629E-05-2.85748E-05-2.62578E-08-2.78671E-19 2.45515E-18
 -1      2930 9.52431E-05-2.85584E-05-2.85794E-05-1.99472E-08-4.89323E-20 3.19713E-18
 -1      2931 9.52438E-05-2.85691E-05-2.85749E-05-2.70013E-08 2.78845E-19 3.31607E-18
 -1      2932 9.52338E-05-2.85381E-05-2.85840E-05 9.16624E-10-1.38262E-19-3.95741E-18
 -1      2933 9.52345E-05-2.85388E-05-2.85839E-05-4.47946E-10 7.60012E-19-3.32008E-18
 -1      2934 9.52405E-05-2.85626E-05-2.85760E-05 2.42210E-08-1.72752E-18 1.61664E-18
 -1      2935 9.52405E-05-2.85672E-05-2.85742E-05 2.67372E-08-2.01467E-18 1.96982E-18
 -1      2936 9.52431E-05-2.85562E-05-2.85804E-05 1.77843E-08-1.96575E-18 6.01181E-19
 -1      2937 9.52403E-05-2.85481E-05-2.85825E-05-5.06081E-09 2.26926E-18-1.87641E-18
 -1      2938 9.52419E-05-2.85505E-05-2.85820E-05-8.02831E-09 3.37203E-18-2.29532E-18
 -1      2939 9.52341E-05-2.85385E-05-2.85839E-05 2.34609E-09-3.92837E-19-1.60066E-18
 -1      2940 9.52337E-05-2.85379E-05-2.85840E-05 1.06204E-09-5.44208E-20-3.25611E-18
 -1      2941 9.52285E-05-2.85174E-05-2.85902E-05 1.08409E-09 5.43287E-19-3.13466E-18
 -1      2942 9.52362E-05-2.85415E-05-2.85836E-05-1.12944E-09 2.98176E-19-2.81451E-18
 -1      2943 9.52377E-05-2.85433E-05-2.85833E-05-3.15143E-09 1.50989E-18-1.68489E-18
 -1      2944 9.52353E-05-2.85279E-05-2.85887E-05-5.37032E-10 9.74240E-19-2.57157E-18
 -1      2945 9.52305E-05-2.85203E-05-2.85899E-05 1.23206E-09 9.17330E-19-3.31496E-18
 -1      2946 1.36942E-04-3.75912E-05-4.28145E-05 9.06174E-06-6.16534E-19-5.03963E-18
 -1      2947 1.33473E-04-2.86741E-05-4.56283E-05 1.13945E-05-1.44737E-18-4.70379E-18
 -1      2948 9.52367E-05-2.85425E-05-2.85832E-05 4.57937E-09-2.02526E-19-1.56109E-18
 -1      2949 9.52354E-05-2.85409E-05-2.85835E-05 2.82961E-09-2.95223E-19 9.86543E-20
 -1      2950 9.52298E-05-2.85198E-05-2.85898E-05 7.37302E-10-6.14421E-21-1.65075E-18
 -1      2951 9.52405E-05-2.85493E-05-2.85819E-05 8.76489E-09 7.52563E-19 2.61318E-20
 -1      2952 9.52390E-05-2.85470E-05-2.85824E-05 6.13773E-09 4.80418E-19-1.19174E-18
 -1      2953 9.52339E-05-2.85269E-05-2.85886E-05 1.94913E-09 6.04145E-19-4.19363E-19
 -1      2954 9.52437E-05-2.85574E-05-2.85798E-05 1.50952E-08 1.91060E-19 2.09951E-18
 -1      2955 9.52430E-05-2.85550E-05-2.85807E-05 1.15928E-08 4.20881E-19 1.08896E-18
 -1      2956 9.52391E-05-2.85371E-05-2.85864E-05 5.90044E-09 9.17648E-19-3.17242E-21
 -1      2957 4.99811E-05-2.48211E-05-1.04229E-05 3.06418E-05-1.78682E-18 4.41114E-18
 -1      2958 3.96710E-05-1.79159E-05-8.77872E-06 2.07112E-05-1.33138E-18 6.12828E-18
 -1      2959 3.93470E-05-1.73096E-05-8.89834E-06-2.26666E-05 1.72805E-18 2.28784E-18
 -1      2960 4.92537E-05-2.39115E-05-1.04797E-05-3.24966E-05 2.12372E-18 5.29819E-19
 -1      2961 9.31293E-05-1.76623E-05-3.23418E-05-7.04585E-06-1.59139E-18-2.46181E-18
 -1      2962 1.42933E-04-4.17098E-05-4.40320E-05-1.24088E-05 2.09175E-18-1.55134E-18
 -1      2963 1.42514E-04-5.02782E-05-3.96172E-05-7.73965E-06 1.17944E-18-1.89227E-18
 -1      2964 4.65400E-05-2.26291E-05-9.75733E-06-2.74319E-05-1.57310E-18-3.48109E-18
 -1      2965 6.22543E-05-3.29077E-05-1.23176E-05-3.66678E-05-1.91747E-18-3.58337E-18
 -1      2966 1.07933E-04-5.51989E-05-2.26479E-05 3.46617E-05 1.69936E-18-1.11118E-18
 -1      2967 9.04507E-05-4.70971E-05-1.81714E-05 3.84225E-05 2.43734E-18-2.10403E-18
 -1      2968 9.65395E-05-2.68807E-05-2.98422E-05-3.59400E-06 1.08752E-18 3.12477E-19
 -1      2969 9.63991E-05-2.66075E-05-2.98876E-05-2.55217E-06 1.11420E-18 3.75743E-19
 -1      2970 9.60446E-05-2.55952E-05-3.02012E-05-1.84158E-06 1.28435E-18-7.58401E-21
 -1      2971 9.60835E-05-2.62274E-05-2.99481E-05-4.15372E-06 1.12444E-18-2.14170E-19
 -1      2972 9.81777E-05-2.78512E-05-3.01222E-05-8.67624E-06 5.42657E-19 2.97315E-20
 -1      2973 9.75269E-05-2.75913E-05-2.99709E-05-7.95503E-06 7.20234E-19-2.56670E-20
 -1      2974 9.63708E-05-2.67545E-05-2.98428E-05-7.91104E-06 8.16788E-19-2.89731E-19
 -1      2975 9.67482E-05-2.70413E-05-2.98821E-05-9.58891E-06 3.50233E-19-4.41808E-20
 -1      2976 9.59234E-05-2.36894E-05-3.09448E-05-3.11552E-06-1.38868E-18-1.58011E-18
 -1      2977 9.60079E-05-2.46818E-05-3.05802E-05-1.39724E-06-1.17789E-18-1.57680E-18
 -1      2978 9.56553E-05-2.40793E-05-3.06786E-05-8.54411E-07-1.14820E-18-1.77998E-18
 -1      2979 8.98010E-05-1.43431E-05-3.23633E-05 3.36443E-06 2.00480E-18-1.94900E-18
 -1      2980 8.91687E-05-1.36624E-05-3.23859E-05 2.67912E-06 1.76597E-18-2.30804E-18
 -1      2981 8.97702E-05-1.48794E-05-3.20751E-05 1.92528E-06 1.48553E-18-2.10843E-18
 -1      2982 9.10803E-05-1.63814E-05-3.19896E-05 2.77208E-06 1.82247E-18-1.67978E-18
 -1      2983 1.39039E-04-5.87950E-05-3.49849E-05 4.17549E-06 6.54201E-19-1.52021E-18
 -1      2984 1.30404E-04-6.06421E-05-2.96257E-05 1.51825E-05 2.57286E-20-1.07531E-18
 -1      2985 8.46920E-05-4.51006E-05-1.69070E-05 3.82757E-05-1.07986E-18 2.13473E-18
 -1      2986 6.62913E-05-3.43065E-05-1.31914E-05 3.56062E-05-1.89418E-18 3.01565E-18
 -1      2987 8.93410E-05-1.38663E-05-3.23722E-05-2.50184E-06-1.50152E-19-2.94389E-18
 -1      2988 8.99711E-05-1.45473E-05-3.23467E-05-3.24355E-06-4.89103E-19-2.85167E-18
 -1      2989 1.36015E-04-5.33329E-05-3.53603E-05-5.08996E-06 5.88648E-19-4.73354E-18
 -1      2990 1.38263E-04-4.66641E-05-3.98104E-05 2.55016E-06 2.28355E-19-5.15377E-18
 -1      2991 1.28839E-04-5.87896E-05-3.04346E-05 1.85675E-05-1.89630E-19 1.50502E-18
 -1      2992 1.19084E-04-5.82042E-05-2.58653E-05 2.69733E-05 1.15784E-18 6.61744E-21
 -1      2993 1.14173E-04-5.55769E-05-2.48560E-05 2.72650E-05 1.90101E-18-1.62260E-19
 -1      2994 1.23273E-04-8.83083E-06-4.96461E-05 1.89493E-06-3.63292E-18-2.52597E-18
 -1      2995 1.26728E-04-9.62617E-06-5.07165E-05-4.23453E-06-4.41431E-18-1.12470E-18
 -1      2996 1.38295E-04-5.59659E-05-3.51518E-05 1.25429E-06-8.68897E-19 2.58091E-18
 -1      2997 1.40650E-04-5.16408E-05-3.88912E-05 8.24058E-06-1.63213E-19 3.04233E-18
 -1      2998 7.80486E-05-4.14095E-05-1.51768E-05-3.79683E-05-2.45915E-18-3.66977E-18
 -1      2999 9.54595E-05-4.97756E-05-1.95505E-05-3.60555E-05-2.39626E-18-2.67710E-18
 -1      3000 7.44786E-05-3.57652E-05-1.60681E-05-3.42275E-05-1.76913E-18-3.50100E-18
 -1      3001 3.34426E-05-1.27452E-05-8.39217E-06-4.22015E-06-8.32130E-19-3.80402E-18
 -1      3002 3.74476E-05-1.56255E-05-8.80477E-06-1.65107E-05-1.21184E-18-3.46309E-18
 -1      3003 7.33150E-05-3.82709E-05-1.48345E-05 4.01398E-05 2.33432E-18-2.39477E-18
 -1      3004 6.03523E-05-3.00732E-05-1.24928E-05 3.58263E-05 2.24421E-18-2.49366E-18
 -1      3005 9.52428E-05-2.85674E-05-2.85752E-05 2.53893E-08-1.68943E-18 5.24643E-19
 -1      3006 6.36290E-05-3.33901E-05-1.25129E-05-3.83834E-05 2.69611E-18 1.28813E-18
 -1      3007 8.07407E-05-4.32928E-05-1.58943E-05-4.14208E-05 3.21163E-18 1.89259E-18
 -1      3008 1.38270E-04-4.80208E-05-3.92801E-05-1.47184E-06-2.73446E-18 1.77506E-18
 -1      3009 1.35892E-04-5.43078E-05-3.48932E-05 6.06045E-06-1.58267E-18 2.20864E-18
 -1      3010 1.34279E-04-2.43727E-05-4.78413E-05-1.47566E-05 3.83282E-18-1.58247E-18
 -1      3011 1.38702E-04-3.32390E-05-4.56722E-05-1.60231E-05 3.03079E-18-1.86951E-18
 -1      3012 1.30073E-04-2.03170E-05-4.74790E-05 1.16534E-05-1.92404E-18-3.91065E-18
 -1      3013 1.25018E-04-1.35207E-05-4.83923E-05 9.08140E-06-2.60060E-18-3.02925E-18
 -1      3014 1.16933E-04-5.87721E-05-2.52256E-05 2.75665E-05-1.77665E-19-2.29890E-20
 -1      3015 1.01720E-04-5.27650E-05-2.05766E-05 3.34228E-05-7.28025E-19 4.37956E-19
 -1      3016 1.29186E-04-1.42726E-05-4.99397E-05-8.58171E-06-4.59960E-18-7.16802E-20
 -1      3017 1.32900E-04-2.12989E-05-4.83116E-05-1.08596E-05-4.24215E-18 9.97381E-20
 -1      3018 1.28758E-04-2.58828E-05-4.43843E-05-1.23339E-05-3.33180E-18 6.72862E-19
 -1      3019 1.37868E-04-4.17501E-05-4.16171E-05 1.36035E-05 1.18230E-18 3.13328E-18
 -1      3020 9.07468E-05-1.54747E-05-3.22872E-05-3.79751E-06-6.85358E-19-2.79124E-18
 -1      3021 9.15701E-05-1.64532E-05-3.22322E-05-4.55421E-06-1.04264E-18-2.87246E-18
 -1      3022 9.12826E-05-1.66497E-05-3.19699E-05-2.67959E-06-5.80150E-19-2.56326E-18
 -1      3023 8.87812E-05-1.37967E-05-3.21186E-05 1.93756E-07 8.26813E-19-2.67353E-18
 -1      3024 8.79561E-05-1.23469E-05-3.24255E-05-7.23531E-08 7.88965E-19-2.89183E-18
 -1      3025 8.81069E-05-1.24960E-05-3.24223E-05-7.37826E-07 6.01642E-19-2.95140E-18
 -1      3026 9.48058E-05-2.09529E-05-3.16607E-05 5.02070E-06 2.31290E-18-1.25377E-19
 -1      3027 1.34073E-04-4.28281E-05-3.92633E-05-7.47150E-06-2.15366E-18 1.60068E-18
 -1      3028 9.12454E-05-4.60517E-05-1.89794E-05-3.69732E-05 3.71625E-18-1.75442E-19
 -1      3029 1.24004E-04-5.80952E-05-2.80262E-05 1.73929E-05-9.26760E-19-1.20898E-18
 -1      3030 9.52408E-05-2.85385E-05-2.85866E-05-5.21390E-09 2.15198E-18-1.67210E-18
 -1      3031 9.52443E-05-2.85562E-05-2.85808E-05-1.13737E-08 3.05370E-18-1.93196E-18
 -1      3032 9.52451E-05-2.85584E-05-2.85799E-05-1.50338E-08 2.30608E-18-1.04316E-18
 -1      3033 1.31798E-04-5.53592E-05-3.28100E-05-8.48733E-06 1.46404E-18-4.61644E-18
 -1      3034 1.22305E-04-1.37295E-05-4.69728E-05-7.13156E-06-3.93606E-18-1.05093E-18
 -1      3035 1.30575E-04-5.61484E-05-3.18930E-05 9.86366E-06-2.29519E-19 1.72038E-18
 -1      3036 1.28148E-04-2.14044E-05-4.62553E-05-1.25225E-05 3.89932E-18-1.87882E-18
 -1      3037 1.33100E-04-3.96799E-05-4.03154E-05-1.64726E-05 1.62916E-18-2.71802E-18
 -1      3038 1.33647E-04-4.25542E-05-3.92370E-05 7.88107E-06 4.68065E-19-5.24652E-18
 -1      3039 9.52460E-05-2.85637E-05-2.85782E-05-1.91555E-08 1.63885E-18-2.46317E-19
 -1      3040 9.52449E-05-2.85651E-05-2.85770E-05-2.26247E-08 1.04379E-18 1.94187E-18
 -1      3041 9.52445E-05-2.85589E-05-2.85794E-05-2.03643E-08-1.54530E-19 3.20345E-18
 -1      3042 9.52446E-05-2.85498E-05-2.85834E-05-1.23463E-08 1.54736E-18 3.83424E-19
 -1      3043 1.27396E-04-2.62526E-05-4.37169E-05 1.26283E-05-1.14826E-18-4.13500E-18
 -1      3044 3.91931E-05-1.46335E-05-9.89765E-06 1.35116E-05-9.29777E-19 6.20610E-18
 -1      3045 4.07422E-05-1.22061E-05-1.18167E-05 5.63025E-06-5.08749E-19 5.13810E-18
 -1      3046 4.80407E-05-1.65850E-05-1.30887E-05 1.74784E-05-1.08743E-18 5.55421E-18
 -1      3047 6.47961E-05-2.96554E-05-1.45587E-05 3.12478E-05-1.34128E-18 3.16579E-18
 -1      3048 9.52444E-05-2.85656E-05-2.85765E-05 2.17440E-08-1.29454E-18 6.52117E-19
 -1      3049 6.24934E-05-2.88999E-05-1.39077E-05-3.35886E-05 2.55597E-18 7.01979E-19
 -1      3050 8.78716E-05-4.31501E-05-1.87969E-05 3.59700E-05 2.61458E-18-2.07147E-18
 -1      3051 9.28113E-05-1.79778E-05-3.20762E-05-5.09050E-06-1.20653E-18-2.68197E-18
 -1      3052 9.47312E-05-2.06702E-05-3.17713E-05-5.78607E-06-1.65503E-18-2.01354E-18
 -1      3053 9.53456E-05-2.24610E-05-3.12357E-05-3.95502E-06-1.45760E-18-1.77380E-18
 -1      3054 9.32001E-05-1.90849E-05-3.17449E-05-3.61563E-06-1.02445E-18-2.57364E-18
 -1      3055 1.30395E-04-1.31909E-05-5.08279E-05-1.67662E-06 5.48263E-18-2.57286E-19
 -1      3056 1.32974E-04-1.64411E-05-5.05102E-05-8.81677E-06 5.27977E-18-5.95147E-19
 -1      3057 4.95940E-05-1.95306E-05-1.23164E-05-2.15081E-05-1.36023E-18-3.35065E-18
 -1      3058 3.89425E-05-1.42567E-05-9.95817E-06-1.53316E-05 1.11319E-18 3.42921E-18
 -1      3059 4.77399E-05-1.62562E-05-1.31364E-05-1.89914E-05 1.68877E-18 1.08664E-18
 -1      3060 4.06278E-05-1.20116E-05-1.18365E-05-7.01630E-06 2.39327E-19 3.93712E-18
 -1      3061 5.50833E-05-2.46832E-05-1.25454E-05 3.10292E-05 1.91059E-18-2.43691E-18
 -1      3062 5.09103E-05-1.89967E-05-1.32503E-05 2.37638E-05 1.47993E-18-2.29864E-18
 -1      3063 6.53998E-05-2.77987E-05-1.57484E-05 3.09111E-05 2.31915E-18-2.07412E-18
 -1      3064 9.48549E-05-2.18408E-05-3.12815E-05-3.17745E-06-1.24342E-18-1.99603E-18
 -1      3065 8.84009E-05-1.28310E-05-3.24106E-05-1.25159E-06 3.65893E-19-2.86503E-18
 -1      3066 8.87974E-05-1.32383E-05-3.24007E-05-1.95293E-06 6.26082E-20-2.88447E-18
 -1      3067 8.99747E-05-1.51244E-05-3.20620E-05-1.68522E-06-3.48650E-20-2.63932E-18
 -1      3068 8.91201E-05-1.41689E-05-3.21047E-05-7.18087E-07 4.02751E-19-2.71217E-18
 -1      3069 1.08500E-04-5.45030E-05-2.27323E-05-3.09977E-05-2.19922E-18-1.59806E-18
 -1      3070 1.17584E-04-5.70324E-05-2.62379E-05-2.25354E-05-1.86988E-18 3.21343E-19
 -1      3071 9.96301E-05-4.82561E-05-2.16869E-05-3.13891E-05-2.06094E-18-2.23654E-18
 -1      3072 1.19702E-04-1.71269E-05-4.44450E-05-1.72690E-06 3.68396E-18-8.58369E-19
 -1      3073 1.38097E-04-5.38869E-05-3.62058E-05-4.48049E-06 2.98351E-19-2.71675E-18
 -1      3074 9.48534E-05-2.17037E-05-3.13375E-05 3.28089E-06 2.09061E-18-3.67606E-19
 -1      3075 9.67749E-05-4.76572E-05-2.06433E-05 3.21557E-05-1.31862E-18 9.06696E-19
 -1      3076 9.52436E-05-2.85542E-05-2.85812E-05 1.64254E-08-2.34056E-18-1.18049E-18
 -1      3077 9.52442E-05-2.85580E-05-2.85799E-05 1.64711E-08-6.77989E-19 1.40249E-18
 -1      3078 9.52428E-05-2.85438E-05-2.85850E-05 9.44557E-09-1.20082E-19 6.26057E-19
 -1      3079 9.52439E-05-2.85468E-05-2.85841E-05 1.07152E-08-1.70588E-18-1.23039E-18
 -1      3080 1.32868E-04-5.68275E-05-3.24475E-05-4.62987E-06-1.01060E-18 1.93161E-18
 -1      3081 1.21026E-04-1.15458E-05-4.74430E-05 6.07005E-06-2.84921E-18-2.68764E-18
 -1      3082 1.16260E-04-1.04924E-05-4.56294E-05 1.92201E-06-3.13349E-18-2.88394E-18
 -1      3083 1.18188E-04-1.45872E-05-4.45917E-05 8.88432E-06-2.07481E-18-3.13617E-18
 -1      3084 3.75956E-05-1.26416E-05-1.00326E-05 4.34588E-06-1.10644E-19-3.72239E-18
 -1      3085 4.40516E-05-1.26751E-05-1.30337E-05-1.30598E-06-6.13510E-19-2.73920E-18
 -1      3086 4.40178E-05-1.40133E-05-1.25513E-05 1.32562E-05 7.76345E-19-2.80537E-18
 -1      3087 1.28330E-04-3.77771E-05-3.93875E-05-1.09115E-05-2.13852E-18 8.27445E-19
 -1      3088 1.30718E-04-4.57004E-05-3.63706E-05-6.72697E-06-1.39591E-18 1.43789E-18
 -1      3089 9.37773E-05-2.04969E-05-3.14248E-05 2.45639E-06 1.89618E-18-8.36295E-19
 -1      3090 9.28385E-05-1.92338E-05-3.15537E-05 2.21750E-06 1.77098E-18-1.13910E-18
 -1      3091 9.49095E-05-2.25793E-05-3.09932E-05-1.55002E-06-1.08839E-18-2.08554E-18
 -1      3092 9.51764E-05-2.36135E-05-3.06821E-05-1.25176E-07-1.00368E-18-2.05397E-18
 -1      3093 9.57279E-05-2.57158E-05-2.99928E-05 3.12274E-06-8.09084E-19-1.76624E-18
 -1      3094 9.58626E-05-2.62054E-05-2.98546E-05 3.99889E-06-7.04171E-19-1.57098E-18
 -1      3095 9.59570E-05-2.66343E-05-2.96994E-05 4.79138E-06-7.00761E-19-1.34975E-18
 -1      3096 9.61724E-05-2.70760E-05-2.96104E-05 5.46288E-06-6.77112E-19-1.52538E-18
 -1      3097 9.53331E-05-2.57712E-05-2.98186E-05 4.39086E-06-6.03894E-19-1.32050E-18
 -1      3098 9.63292E-05-2.74988E-05-2.94882E-05 6.11497E-06-5.61758E-19-1.41795E-18
 -1      3099 9.66865E-05-2.80049E-05-2.94303E-05 6.60347E-06-3.71690E-19-1.33081E-18
 -1      3100 9.55773E-05-2.67255E-05-2.95183E-05 5.89238E-06-5.75125E-19-1.31274E-18
 -1      3101 9.70052E-05-2.85403E-05-2.93285E-05 7.12201E-06 2.77130E-20-1.32851E-18
 -1      3102 9.75687E-05-2.92132E-05-2.92900E-05 7.41436E-06 1.79763E-19-1.01948E-18
 -1      3103 9.60394E-05-2.77847E-05-2.92679E-05 7.13226E-06-1.87384E-19-1.17307E-18
 -1      3104 9.81646E-05-2.99745E-05-2.92038E-05 7.77174E-06 2.46220E-19-8.39317E-19
 -1      3105 9.90046E-05-3.09046E-05-2.91823E-05 7.81425E-06 1.71137E-19-6.21258E-19
 -1      3106 9.69297E-05-2.92019E-05-2.90505E-05 8.10356E-06 4.27009E-19-1.16044E-18
 -1      3107 1.00011E-04-3.19893E-05-2.91204E-05 7.93095E-06 1.32890E-19-2.68323E-19
 -1      3108 1.01187E-04-3.32278E-05-2.91279E-05 7.62487E-06 3.41838E-19-2.61917E-19
 -1      3109 9.84966E-05-3.12174E-05-2.88703E-05 8.71821E-06 4.91802E-19-8.53635E-19
 -1      3110 1.02735E-04-3.46775E-05-2.91204E-05 7.34838E-06 1.10789E-19-1.58082E-19
 -1      3111 1.04248E-04-3.61738E-05-2.91896E-05 6.55321E-06-8.79020E-20-4.61714E-19
 -1      3112 1.01010E-04-3.40060E-05-2.87674E-05 8.76383E-06 1.13705E-19-5.04622E-19
 -1      3113 1.06398E-04-3.78890E-05-2.92994E-05 5.64062E-06 1.01786E-19-2.38775E-19
 -1      3114 1.08104E-04-3.93769E-05-2.94899E-05 4.20711E-06 3.52115E-19-1.18442E-19
 -1      3115 1.04682E-04-3.75450E-05-2.88381E-05 7.85803E-06 1.18522E-19-3.94830E-20
 -1      3116 1.10697E-04-4.09641E-05-2.98219E-05 2.35544E-06 4.70293E-19 1.10766E-19
 -1      3117 1.12199E-04-4.18223E-05-3.02159E-05 2.44223E-07 4.24099E-19 2.31032E-20
 -1      3118 1.09472E-04-4.13547E-05-2.92620E-05 5.40785E-06 4.97310E-19 2.65715E-19
 -1      3119 1.14584E-04-4.24021E-05-3.09022E-05-2.62905E-06 2.41204E-19 1.73255E-19
 -1      3120 1.15315E-04-4.17118E-05-3.15698E-05-5.05847E-06 1.13077E-19 1.70489E-19
 -1      3121 1.14595E-04-4.40204E-05-3.03097E-05 8.19058E-07 5.32999E-19-2.46808E-19
 -1      3122 1.16495E-04-4.03146E-05-3.26947E-05-8.24670E-06-1.82225E-19 8.43062E-20
 -1      3123 1.16010E-04-3.74380E-05-3.36610E-05-1.01952E-05-5.58533E-19-4.73405E-19
 -1      3124 1.18343E-04-4.30190E-05-3.22812E-05-5.62715E-06-1.61988E-19-4.01017E-19
 -1      3125 1.18200E-04-3.64151E-05-3.52286E-05-1.15061E-05-9.93980E-19-2.20593E-19
 -1      3126 1.16529E-04-3.16436E-05-3.64555E-05-1.16164E-05-1.55891E-18-4.64523E-19
 -1      3127 1.06939E-04-1.67985E-05-3.87082E-05-1.40325E-06-1.99992E-18-1.61088E-18
 -1      3128 1.06981E-04-1.70145E-05-3.88156E-05 3.13857E-06-1.64933E-18-2.12032E-18
 -1      3129 1.13032E-04-2.93457E-05-3.59365E-05 1.20518E-05-1.44827E-18-2.16532E-18
 -1      3130 1.14798E-04-3.36605E-05-3.49365E-05 1.23746E-05-6.59296E-19-2.24679E-18
 -1      3131 1.15765E-04-3.76738E-05-3.34736E-05 1.03717E-05-1.64741E-20-1.80911E-18
 -1      3132 1.16328E-04-4.04963E-05-3.25563E-05 8.41349E-06 9.20672E-19-1.88072E-18
 -1      3133 1.18729E-04-3.74299E-05-3.48192E-05 1.13767E-05-2.98579E-19-1.74908E-18
 -1      3134 1.14978E-04-4.16587E-05-3.14713E-05 5.19415E-06 1.13543E-18-2.58256E-18
 -1      3135 1.14197E-04-4.21730E-05-3.08367E-05 2.77181E-06 7.99844E-19-2.83155E-18
 -1      3136 1.17989E-04-4.31629E-05-3.20540E-05 5.37985E-06 6.81352E-19-1.57892E-18
 -1      3137 1.11696E-04-4.13771E-05-3.01911E-05 4.29844E-08 1.27323E-19-2.61478E-18
 -1      3138 1.10148E-04-4.04080E-05-2.98255E-05-1.95162E-06 1.06375E-21-2.27728E-18
 -1      3139 1.13913E-04-4.35053E-05-3.02173E-05-7.17340E-07 3.34538E-19-2.41106E-18
 -1      3140 1.07556E-04-3.87643E-05-2.95163E-05-3.63495E-06 1.63730E-19-1.82537E-18
 -1      3141 1.05860E-04-3.72578E-05-2.93408E-05-4.94494E-06 2.40687E-19-1.70511E-18
 -1      3142 1.08678E-04-4.05992E-05-2.92410E-05-4.91437E-06 3.15204E-19-1.76831E-18
 -1      3143 1.03732E-04-3.55536E-05-2.92338E-05-5.73392E-06 3.91026E-19-1.59901E-18
 -1      3144 1.02249E-04-3.40905E-05-2.91657E-05-6.42764E-06 8.68956E-19-8.90463E-19
 -1      3145 1.03931E-04-3.67806E-05-2.88405E-05-7.07359E-06 6.43267E-19-8.17173E-19
 -1      3146 1.00718E-04-3.26874E-05-2.91584E-05-6.62159E-06 1.33779E-18-1.37918E-18
 -1      3147 9.95699E-05-3.15140E-05-2.91380E-05-6.86319E-06 1.54988E-18-1.02377E-18
 -1      3148 1.00302E-04-3.33215E-05-2.87534E-05-7.79103E-06 1.07524E-18-9.47908E-19
 -1      3149 9.85669E-05-3.05027E-05-2.91668E-05-6.71113E-06 1.35322E-18-1.05341E-18
 -1      3150 9.77424E-05-2.96668E-05-2.91587E-05-6.65494E-06 6.47023E-19-9.81776E-19
 -1      3151 9.78121E-05-3.06810E-05-2.88030E-05-7.64535E-06 1.46924E-18-1.58511E-18
 -1      3152 9.71381E-05-2.90124E-05-2.91906E-05-6.32211E-06 3.52047E-19-3.86258E-19
 -1      3153 9.65734E-05-2.84722E-05-2.91783E-05-6.08779E-06 2.52270E-19 3.94885E-19
 -1      3154 9.62441E-05-2.88838E-05-2.88890E-05-7.04104E-06 8.62702E-19-1.04433E-18
 -1      3155 9.62434E-05-2.80965E-05-2.91990E-05-5.67542E-06-4.83829E-19 6.12752E-19
 -1      3156 9.58682E-05-2.77830E-05-2.91770E-05-5.34803E-06 1.72757E-19 1.23736E-19
 -1      3157 9.53384E-05-2.77847E-05-2.89634E-05-6.22471E-06 3.11292E-19-1.00344E-19
 -1      3158 9.57140E-05-2.76050E-05-2.91828E-05-4.91655E-06 1.50202E-19 1.57437E-19
 -1      3159 9.54691E-05-2.74508E-05-2.91515E-05-4.55396E-06-1.15124E-19 3.71316E-19
 -1      3160 9.48728E-05-2.72025E-05-2.90079E-05-5.34041E-06-3.83002E-20 7.52365E-19
 -1      3161 9.54201E-05-2.74024E-05-2.91440E-05-4.13873E-06 3.77859E-19 3.50763E-19
 -1      3162 9.52613E-05-2.73522E-05-2.91065E-05-3.77848E-06 4.96047E-19 8.86048E-19
 -1      3163 9.46809E-05-2.69730E-05-2.90207E-05-4.47147E-06 8.35441E-20 2.58279E-19
 -1      3164 9.52702E-05-2.73818E-05-2.90891E-05-3.39916E-06-7.94705E-19 1.46971E-18
 -1      3165 9.51671E-05-2.73944E-05-2.90488E-05-3.06395E-06-1.53913E-18 6.67628E-19
 -1      3166 9.46471E-05-2.69664E-05-2.90072E-05-3.66483E-06 2.04255E-19 8.42765E-20
 -1      3167 9.52038E-05-2.74657E-05-2.90253E-05-2.73016E-06-1.00444E-18 9.50435E-19
 -1      3168 9.51362E-05-2.75124E-05-2.89851E-05-2.43221E-06-4.44025E-19 1.02934E-18
 -1      3169 9.46960E-05-2.70881E-05-2.89751E-05-2.94487E-06-6.34089E-19 4.92253E-19
 -1      3170 9.51827E-05-2.76015E-05-2.89587E-05-2.14702E-06-1.32011E-18 1.97492E-18
 -1      3171 9.51378E-05-2.76634E-05-2.89208E-05-1.89130E-06-1.01946E-18 1.56877E-18
 -1      3172 9.47808E-05-2.72730E-05-2.89318E-05-2.32157E-06-3.04458E-19 1.63318E-18
 -1      3173 9.51842E-05-2.77552E-05-2.88941E-05-1.65364E-06-3.13587E-19 8.52666E-19
 -1      3174 9.51538E-05-2.78206E-05-2.88599E-05-1.44035E-06 5.05876E-19 1.07402E-18
 -1      3175 9.48746E-05-2.74793E-05-2.88834E-05-1.79553E-06-9.20801E-19 1.65006E-18
 -1      3176 9.51950E-05-2.79065E-05-2.88345E-05-1.24661E-06 2.27966E-19 6.96274E-19
 -1      3177 9.51740E-05-2.79686E-05-2.88047E-05-1.07301E-06-5.09098E-19 2.33962E-19
 -1      3178 9.49626E-05-2.76813E-05-2.88346E-05-1.36142E-06-3.17533E-19 1.74213E-18
 -1      3179 9.52081E-05-2.80444E-05-2.87816E-05-9.18238E-07-4.53435E-19 9.15035E-20
 -1      3180 9.51933E-05-2.80996E-05-2.87564E-05-7.80016E-07 1.48368E-20-3.12661E-19
 -1      3181 9.50384E-05-2.78650E-05-2.87884E-05-1.01040E-06-5.95372E-19 2.78146E-19
 -1      3182 9.52201E-05-2.81636E-05-2.87362E-05-6.58711E-07 1.30908E-19 8.79517E-19
 -1      3183 9.52096E-05-2.82107E-05-2.87153E-05-5.50895E-07 4.75380E-19 5.01504E-19
 -1      3184 9.50996E-05-2.80240E-05-2.87466E-05-7.31955E-07 6.01471E-19 4.04746E-19
 -1      3185 9.52296E-05-2.82630E-05-2.86981E-05-4.57583E-07 5.65934E-19 1.14043E-18
 -1      3186 9.52220E-05-2.83018E-05-2.86813E-05-3.75156E-07 8.48548E-20 4.30889E-19
 -1      3187 9.51468E-05-2.81567E-05-2.87100E-05-5.15124E-07 7.21277E-19 1.96592E-18
 -1      3188 9.52363E-05-2.83435E-05-2.86669E-05-3.04742E-07-4.09521E-19-2.46219E-20
 -1      3189 9.52308E-05-2.83746E-05-2.86535E-05-2.43028E-07-8.40960E-19 1.22454E-19
 -1      3190 9.51816E-05-2.82642E-05-2.86789E-05-3.49376E-07-3.49412E-19 8.79276E-19
 -1      3191 9.52406E-05-2.84071E-05-2.86418E-05-1.90997E-07-2.21546E-19 2.33597E-19
 -1      3192 9.52366E-05-2.84317E-05-2.86313E-05-1.45871E-07 1.26311E-18 3.73396E-19
 -1      3193 9.52061E-05-2.83492E-05-2.86530E-05-2.25143E-07-7.73941E-20 1.11096E-18
 -1      3194 9.52428E-05-2.84566E-05-2.86218E-05-1.08368E-07 1.76385E-18-6.68765E-19
 -1      3195 9.52400E-05-2.84759E-05-2.86137E-05-7.63552E-08 1.82038E-18-8.28868E-19
 -1      3196 9.52224E-05-2.84153E-05-2.86317E-05-1.34070E-07 9.83593E-19-2.35444E-19
 -1      3197 9.52437E-05-2.84949E-05-2.86060E-05-5.02785E-08 1.55026E-18-6.62037E-19
 -1      3198 9.52419E-05-2.85100E-05-2.85997E-05-2.85917E-08 1.23738E-18-6.96267E-19
 -1      3199 9.52327E-05-2.84661E-05-2.86143E-05-6.92519E-08 1.95799E-18-1.75431E-18
 -1      3200 9.52440E-05-2.85238E-05-2.85939E-05-1.29181E-08 1.84989E-19-5.90734E-19
 -1      3201 9.52429E-05-2.85360E-05-2.85889E-05 8.36642E-10-5.80237E-19-3.79672E-19
 -1      3202 9.52422E-05-2.85335E-05-2.85897E-05 1.29246E-10-1.29728E-18-2.43791E-18
 -1      3203 9.52389E-05-2.85046E-05-2.86006E-05-2.66481E-08 1.41611E-18-2.09004E-19
 -1      3204 9.53764E-05-2.57902E-05-2.98160E-05-6.46911E-06 8.91194E-19-5.47537E-19
 -1      3205 9.53185E-05-2.56517E-05-2.98557E-05-5.52460E-06 9.67447E-19-4.76264E-19
 -1      3206 9.63907E-05-2.80600E-05-2.92560E-05-1.32272E-05-4.75757E-20-1.99131E-20
 -1      3207 9.55342E-05-2.71375E-05-2.93125E-05-1.25752E-05 1.89952E-19-3.04868E-19
 -1      3208 9.55232E-05-2.66859E-05-2.94810E-05-1.16254E-05 2.76505E-19-5.52810E-19
 -1      3209 9.50651E-05-2.62420E-05-2.95014E-05-1.08594E-05 3.04575E-19-4.69605E-19
 -1      3210 9.30697E-05-2.57075E-05-2.88772E-05-1.22890E-05 7.52056E-20-5.72142E-19
 -1      3211 1.02575E-04-3.57176E-05-2.86080E-05-1.53837E-05-1.28865E-18 3.31438E-19
 -1      3212 9.99090E-05-3.28941E-05-2.86646E-05-1.55319E-05-9.45313E-19 1.50009E-19
 -1      3213 1.10231E-04-4.32167E-05-2.86365E-05-1.43993E-05-1.60967E-18 6.46048E-19
 -1      3214 1.05777E-04-3.91034E-05-2.84174E-05-1.58754E-05-1.48113E-18 4.63181E-19
 -1      3215 9.95736E-05-3.63342E-05-2.72061E-05-1.85173E-05-1.50295E-18-3.68633E-20
 -1      3216 1.20325E-04-5.32785E-05-2.86005E-05-1.39228E-05-1.38937E-18 1.05125E-18
 -1      3217 1.14391E-04-4.91456E-05-2.77518E-05-1.68139E-05-1.65559E-18 7.56966E-19
 -1      3218 1.28137E-04-5.66051E-05-3.02997E-05-9.68574E-06-1.27449E-18 1.64946E-18
 -1      3219 1.17838E-04-5.56882E-05-2.69448E-05 2.13676E-05 1.37505E-18 4.17829E-19
 -1      3220 1.09086E-04-5.17525E-05-2.42661E-05 2.68389E-05 1.96160E-18-4.70659E-19
 -1      3221 1.20808E-04-1.97402E-05-4.38890E-05-9.53184E-06 3.66850E-18-2.46100E-18
 -1      3222 1.01994E-04-3.45010E-05-2.88473E-05 1.45862E-05-7.85197E-19-2.65642E-19
 -1      3223 1.05051E-04-3.76803E-05-2.88339E-05 1.41872E-05-8.51582E-19 4.25812E-20
 -1      3224 9.81933E-05-3.00707E-05-2.91651E-05 1.35221E-05-3.52038E-19 7.90458E-20
 -1      3225 1.00053E-04-3.20826E-05-2.90899E-05 1.37911E-05-4.17415E-19 2.13861E-19
 -1      3226 9.67122E-05-3.19438E-05-2.78366E-05 1.59785E-05-1.25384E-18-6.87132E-19
 -1      3227 9.63339E-05-2.76412E-05-2.94345E-05 1.19524E-05-6.95761E-19 1.52056E-19
 -1      3228 9.73835E-05-2.87475E-05-2.93862E-05 1.25502E-05-2.37178E-19 1.98593E-19
 -1      3229 9.41942E-05-2.80056E-05-2.84015E-05 1.38850E-05-7.82869E-19 5.41143E-19
 -1      3230 9.55456E-05-2.65297E-05-2.95839E-05 1.02611E-05-1.36243E-18 6.62794E-19
 -1      3231 9.61287E-05-2.70501E-05-2.95840E-05 1.09911E-05-1.07144E-18-1.02676E-19
 -1      3232 9.33020E-05-2.60233E-05-2.88447E-05 1.18290E-05-8.20903E-19-5.75891E-20
 -1      3233 9.52840E-05-2.61908E-05-2.96211E-05 8.61993E-06-9.36234E-19 2.62204E-19
 -1      3234 9.56199E-05-2.63706E-05-2.96622E-05 9.37256E-06-9.50917E-19 7.85520E-19
 -1      3235 9.32347E-05-2.52707E-05-2.91264E-05 9.95085E-06-9.68438E-19-3.29488E-19
 -1      3236 9.52463E-05-2.62579E-05-2.95769E-05 7.10821E-06 6.60578E-19-9.85559E-19
 -1      3237 9.54588E-05-2.62582E-05-2.96442E-05 7.82257E-06 1.69582E-19 1.41975E-21
 -1      3238 9.35127E-05-2.52061E-05-2.92688E-05 8.27281E-06-3.24785E-21-8.39889E-19
 -1      3239 9.52819E-05-2.65100E-05-2.94834E-05 5.76296E-06 7.36329E-19-1.42573E-18
 -1      3240 9.54338E-05-2.64267E-05-2.95632E-05 6.40699E-06 6.24791E-19-1.39095E-18
 -1      3241 9.38865E-05-2.54838E-05-2.93093E-05 6.79033E-06 8.74284E-19-6.39145E-19
 -1      3242 9.53253E-05-2.68241E-05-2.93661E-05 4.59786E-06-8.34436E-19-1.25932E-18
 -1      3243 9.54455E-05-2.67102E-05-2.94480E-05 5.15769E-06 1.22693E-19-1.72127E-18
 -1      3244 9.42415E-05-2.59011E-05-2.92835E-05 5.49734E-06 3.94707E-19-9.51961E-19
 -1      3245 9.53539E-05-2.71373E-05-2.92426E-05 3.61163E-06 3.64810E-19-2.22826E-18
 -1      3246 9.54542E-05-2.70200E-05-2.93202E-05 4.08489E-06 9.67109E-20-1.31847E-18
 -1      3247 9.45352E-05-2.63470E-05-2.92196E-05 4.38709E-06-2.20307E-20-1.40926E-18
 -1      3248 9.53642E-05-2.74206E-05-2.91242E-05 2.79324E-06 6.75360E-19-2.48726E-18
 -1      3249 9.54493E-05-2.73125E-05-2.91938E-05 3.18443E-06-3.63678E-20-2.72388E-18
 -1      3250 9.47601E-05-2.67662E-05-2.91377E-05 3.44966E-06 2.23972E-19-1.94406E-18
 -1      3251 9.53602E-05-2.76639E-05-2.90171E-05 2.12609E-06-8.63728E-19-8.91969E-19
 -1      3252 9.54318E-05-2.75699E-05-2.90771E-05 2.44335E-06-2.89351E-19-1.58277E-18
 -1      3253 9.49239E-05-2.71349E-05-2.90509E-05 2.67143E-06-9.14482E-19-9.32558E-19
 -1      3254 9.53474E-05-2.78660E-05-2.89239E-05 1.59100E-06-1.39092E-20 3.39620E-19
 -1      3255 9.54065E-05-2.77870E-05-2.89743E-05 1.84401E-06-1.40616E-19-2.46482E-19
 -1      3256 9.50389E-05-2.74466E-05-2.89673E-05 2.03587E-06-1.02126E-18-4.13023E-19
 -1      3257 9.53304E-05-2.80304E-05-2.88454E-05 1.16836E-06-3.52616E-19 1.28398E-18
 -1      3258 9.53781E-05-2.79655E-05-2.88866E-05 1.36704E-06 5.68288E-20 8.25855E-19
 -1      3259 9.51172E-05-2.77031E-05-2.88915E-05 1.52498E-06-3.40597E-19 1.70065E-19
 -1      3260 9.53125E-05-2.81618E-05-2.87808E-05 8.39464E-07-2.76949E-19 1.12141E-18
 -1      3261 9.53501E-05-2.81094E-05-2.88138E-05 9.93166E-07-1.12206E-19 1.79139E-18
 -1      3262 9.51691E-05-2.79101E-05-2.88254E-05 1.12057E-06-4.42451E-19 2.00264E-18
 -1      3263 9.52959E-05-2.82655E-05-2.87287E-05 5.87294E-07-8.41053E-19 2.30438E-18
 -1      3264 9.53248E-05-2.82237E-05-2.87547E-05 7.04445E-07-4.12127E-19 1.82795E-18
 -1      3265 9.52026E-05-2.80745E-05-2.87694E-05 8.05241E-07-6.29055E-19 1.77740E-18
 -1      3266 9.52815E-05-2.83462E-05-2.86876E-05 3.96902E-07-1.43599E-18 2.05976E-18
 -1      3267 9.53031E-05-2.83133E-05-2.87076E-05 4.84821E-07-1.05657E-18 2.55492E-18
 -1      3268 9.52233E-05-2.82034E-05-2.87231E-05 5.63092E-07-1.40068E-18 2.66929E-18
 -1      3269 9.52696E-05-2.84085E-05-2.86555E-05 2.55517E-07-2.13120E-20 1.88979E-18
 -1      3270 9.52853E-05-2.83828E-05-2.86708E-05 3.20386E-07-6.96000E-19 1.65915E-18
 -1      3271 9.52356E-05-2.83031E-05-2.86857E-05 3.80060E-07-7.53336E-19 1.38147E-18
 -1      3272 9.52603E-05-2.84561E-05-2.86309E-05 1.52504E-07 1.50730E-18 9.36265E-19
 -1      3273 9.52714E-05-2.84361E-05-2.86424E-05 1.99414E-07 5.36280E-19 1.62803E-18
 -1      3274 9.52422E-05-2.83794E-05-2.86558E-05 2.44059E-07 2.59232E-19 6.36830E-19
 -1      3275 9.52534E-05-2.84924E-05-2.86122E-05 7.92704E-08 4.70811E-19 2.57293E-18
 -1      3276 9.52608E-05-2.84769E-05-2.86207E-05 1.12283E-07 1.37445E-18 1.97565E-18
 -1      3277 9.52453E-05-2.84372E-05-2.86323E-05 1.44981E-07-1.17921E-19 2.17641E-18
 -1      3278 9.52484E-05-2.85201E-05-2.85981E-05 2.91281E-08 3.69614E-19 3.23997E-18
 -1      3279 9.52531E-05-2.85080E-05-2.86043E-05 5.14222E-08 4.14426E-19 2.63095E-18
 -1      3280 9.52463E-05-2.84810E-05-2.86139E-05 7.47443E-08-2.69948E-20 5.18459E-18
 -1      3281 9.52453E-05-2.85418E-05-2.85873E-05-3.07124E-09 1.22937E-19 2.80695E-18
 -1      3282 9.52479E-05-2.85323E-05-2.85919E-05 1.06617E-08 8.81556E-19 2.96807E-18
 -1      3283 9.52459E-05-2.85142E-05-2.85995E-05 2.67916E-08 3.15930E-19 4.14834E-18
 -1      3284 9.52447E-05-2.85530E-05-2.85821E-05-1.54011E-08 1.62923E-19 3.88344E-18
 -1      3285 9.52448E-05-2.85473E-05-2.85845E-05-1.02116E-08 3.43872E-19 3.18240E-18
 -1      3286 9.52455E-05-2.85352E-05-2.85903E-05 9.30151E-10-6.43945E-20 2.79882E-18
 -1      3287 9.52454E-05-2.85490E-05-2.85844E-05-1.15053E-08 5.84735E-19 3.02913E-18
 -1      3288 1.24966E-04-3.02061E-05-4.07861E-05 1.38035E-05-1.08426E-18-3.79667E-18
 -1      3289 1.20783E-04-2.32976E-05-4.24122E-05 1.28155E-05-1.18659E-18-3.19564E-18
 -1      3290 8.96292E-05-1.54538E-05-3.18055E-05 1.00519E-06 1.16903E-18-2.25002E-18
 -1      3291 8.93844E-05-1.51814E-05-3.18156E-05 6.28448E-07 9.72729E-19-2.50144E-18
 -1      3292 1.26364E-04-5.66433E-05-3.01707E-05 1.03063E-05-8.08586E-19-2.32951E-18
 -1      3293 1.16935E-04-5.41316E-05-2.65356E-05 2.00518E-05-1.20123E-18-1.45954E-18
 -1      3294 9.52199E-05-2.84946E-05-2.85967E-05 6.26292E-10 1.44416E-18-3.07191E-18
 -1      3295 9.52201E-05-2.84947E-05-2.85967E-05 1.70419E-09 1.71761E-18-3.85311E-18
 -1      3296 9.52372E-05-2.85245E-05-2.85912E-05-9.20663E-10 6.04617E-19-4.48185E-20
 -1      3297 9.52341E-05-2.85185E-05-2.85927E-05-3.49910E-09 1.30491E-18-1.28564E-18
 -1      3298 9.52228E-05-2.84990E-05-2.85959E-05-2.91211E-09 8.35119E-19-8.70838E-19
 -1      3299 9.52210E-05-2.84966E-05-2.85964E-05-2.26630E-09 1.03419E-18-2.15223E-18
 -1      3300 9.52127E-05-2.84714E-05-2.86030E-05-2.48077E-09 2.07829E-18-2.97239E-18
 -1      3301 7.45774E-05-3.33969E-05-1.76266E-05 3.18127E-05-1.24096E-18 2.02176E-18
 -1      3302 6.03612E-05-2.39299E-05-1.51926E-05 2.66175E-05-8.19981E-19 3.65622E-18
 -1      3303 8.61149E-05-4.11316E-05-1.89506E-05-3.49970E-05 3.48337E-18-2.76186E-19
 -1      3304 9.91298E-05-4.87042E-05-2.17180E-05-3.31983E-05 3.96343E-18-1.12094E-18
 -1      3305 1.35324E-04-3.76423E-05-4.19071E-05-1.62490E-05 1.60650E-18-2.74582E-18
 -1      3306 1.29924E-04-5.33644E-05-3.33195E-05 2.65289E-06-6.95010E-19 1.63970E-18
 -1      3307 1.25480E-04-5.58785E-05-2.95974E-05 1.25358E-05 5.38594E-19 1.16880E-18
 -1      3308 4.95650E-05-1.61509E-05-1.40047E-05-1.60164E-05-8.39939E-19-2.92459E-18
 -1      3309 5.85868E-05-2.29632E-05-1.49684E-05-2.63758E-05-1.18892E-18-3.15467E-18
 -1      3310 9.52294E-05-2.85096E-05-2.85942E-05-3.95482E-09 8.04199E-19-5.12255E-19
 -1      3311 9.52263E-05-2.85051E-05-2.85951E-05-4.59189E-09 7.10368E-19 3.49420E-19
 -1      3312 9.52179E-05-2.84796E-05-2.86018E-05-8.68284E-09 8.38402E-19-7.25314E-19
 -1      3313 9.52267E-05-2.84946E-05-2.85993E-05-1.10935E-08 6.31217E-19-1.12865E-18
 -1      3314 1.08877E-04-4.14228E-05-2.87403E-05 1.41246E-05-7.19379E-19-4.17195E-19
 -1      3315 1.13165E-04-4.55282E-05-2.90004E-05 1.24930E-05-3.25393E-19-9.92231E-19
 -1      3316 1.02338E-04-3.88478E-05-2.73665E-05 1.75958E-05-8.18796E-19-9.50371E-19
 -1      3317 1.20185E-04-5.01337E-05-2.97879E-05 9.68207E-06-4.73587E-19-1.46498E-18
 -1      3318 1.25099E-04-5.32349E-05-3.08562E-05 5.82454E-06-9.02368E-19-1.65238E-18
 -1      3319 1.30764E-04-4.57015E-05-3.64130E-05 7.01141E-06 7.16405E-19-4.22309E-18
 -1      3320 1.28045E-04-3.83553E-05-3.89186E-05 1.12243E-05-3.36166E-19-3.81705E-18
 -1      3321 9.84468E-05-3.08407E-05-2.89364E-05-1.46163E-05-4.14228E-19-7.60675E-21
 -1      3322 9.68836E-05-2.91209E-05-2.90236E-05-1.42144E-05-1.19349E-19 1.16856E-19
 -1      3323 9.34753E-05-2.72627E-05-2.84048E-05-1.43145E-05-2.78372E-19-4.31036E-20
 -1      3324 9.52307E-05-3.05151E-05-2.78037E-05-1.64827E-05-7.86376E-19 3.96311E-19
 -1      3325 1.15476E-04-1.29111E-05-4.45144E-05-5.12760E-06-3.30597E-18-2.25239E-18
 -1      3326 1.18513E-04-1.70221E-05-4.38337E-05-1.03085E-05-3.37881E-18-9.35654E-19
 -1      3327 1.27100E-04-5.60958E-05-3.02784E-05-1.15380E-05 2.06061E-18-4.23043E-18
 -1      3328 1.30593E-04-5.26714E-05-3.37768E-05-1.91753E-06 9.64777E-19-5.47877E-18
 -1      3329 1.12046E-04-5.37005E-05-2.47237E-05-2.63422E-05 3.58258E-18-1.93310E-18
 -1      3330 1.21390E-04-5.68322E-05-2.79160E-05-1.96436E-05 2.74211E-18-3.36357E-18
 -1      3331 1.22875E-04-5.45988E-05-2.92371E-05-1.24524E-05 2.22179E-18-4.23061E-18
 -1      3332 9.54738E-05-2.44879E-05-3.04081E-05 1.02546E-06-9.21685E-19-1.94168E-18
 -1      3333 9.55955E-05-2.51500E-05-3.01982E-05 2.15633E-06-8.53580E-19-1.99549E-18
 -1      3334 9.51097E-05-2.46515E-05-3.01983E-05 2.58552E-06-6.95294E-19-1.68287E-18
 -1      3335 7.02441E-05-2.98839E-05-1.68542E-05-3.04624E-05-1.56452E-18-3.40158E-18
 -1      3336 8.30922E-05-3.81096E-05-1.92111E-05-3.25464E-05-1.87618E-18-3.12936E-18
 -1      3337 9.38228E-05-2.03639E-05-3.15000E-05-2.99408E-06-1.02898E-18-2.51362E-18
 -1      3338 9.43852E-05-2.15095E-05-3.12295E-05-2.20583E-06-1.05738E-18-2.23572E-18
 -1      3339 9.27142E-05-1.88285E-05-3.16691E-05-2.66278E-06-7.95389E-19-2.61679E-18
 -1      3340 6.06747E-05-2.42325E-05-1.52943E-05-2.87680E-05 2.20115E-18 1.15938E-19
 -1      3341 7.36259E-05-3.33392E-05-1.70702E-05-3.46725E-05 2.54417E-18-6.23522E-19
 -1      3342 9.54599E-05-2.33667E-05-3.09011E-05 1.51546E-06 1.77019E-18-2.89270E-19
 -1      3343 9.44784E-05-2.15890E-05-3.12323E-05 2.10929E-06 1.85592E-18-5.56032E-19
 -1      3344 9.44053E-05-2.20559E-05-3.10006E-05 7.80929E-07 1.66039E-18-6.61421E-19
 -1      3345 9.55452E-05-2.41542E-05-3.06001E-05-1.02665E-07 1.47397E-18-3.08060E-19
 -1      3346 9.65954E-05-4.60793E-05-2.17080E-05 3.22352E-05 2.45671E-18-1.52042E-18
 -1      3347 8.20619E-05-3.72719E-05-1.88790E-05 3.32159E-05 2.46492E-18-2.19170E-18
 -1      3348 1.22163E-04-2.30023E-05-4.29413E-05-1.26060E-05-3.31497E-18-2.77721E-19
 -1      3349 1.25578E-04-2.96666E-05-4.12703E-05-1.34148E-05-2.45719E-18 3.54060E-19
 -1      3350 1.23152E-04-3.35369E-05-3.84287E-05-1.28108E-05-1.79746E-18-2.05353E-19
 -1      3351 1.16862E-04-2.20594E-05-4.08553E-05-1.09188E-05-2.72681E-18-1.09495E-18
 -1      3352 1.03874E-04-4.92563E-05-2.36230E-05 2.76780E-05-1.46161E-18-8.01717E-19
 -1      3353 9.05124E-05-4.13051E-05-2.05679E-05 3.06296E-05-1.62133E-18 8.30463E-19
 -1      3354 8.92893E-05-1.50798E-05-3.18204E-05 4.34573E-07 8.44922E-19-2.53747E-18
 -1      3355 8.93314E-05-1.51161E-05-3.18190E-05 4.07629E-08 6.17314E-19-2.59199E-18
 -1      3356 8.99212E-05-1.63187E-05-3.15212E-05 4.34384E-07 7.96781E-19-2.35414E-18
 -1      3357 9.29229E-05-1.98652E-05-3.12860E-05 1.11688E-06 1.59992E-18-1.17753E-18
 -1      3358 9.19659E-05-1.81739E-05-3.16467E-05 2.06212E-06 1.71534E-18-1.49730E-18
 -1      3359 9.11959E-05-1.72488E-05-3.17091E-05 1.72669E-06 1.60872E-18-1.80031E-18
 -1      3360 9.47182E-05-2.31162E-05-3.06906E-05 4.24685E-07-9.41497E-19-2.04064E-18
 -1      3361 8.51914E-05-3.53318E-05-2.11782E-05 2.80198E-05 1.99366E-18-1.84273E-18
 -1      3362 7.58301E-05-3.22676E-05-1.84297E-05 3.16053E-05 1.96218E-18-2.09185E-18
 -1      3363 6.95129E-05-2.63850E-05-1.82985E-05 2.70564E-05 1.63888E-18-1.84013E-18
 -1      3364 9.05428E-05-1.64828E-05-3.17567E-05 1.54992E-06 1.49012E-18-1.84174E-18
 -1      3365 9.00175E-05-1.58903E-05-3.17850E-05 1.18282E-06 1.22091E-18-1.90721E-18
 -1      3366 9.03972E-05-1.68477E-05-3.14960E-05 6.91738E-07 9.98008E-19-1.99370E-18
 -1      3367 9.14410E-05-1.80394E-05-3.14286E-05 9.24483E-07 1.37411E-18-1.67840E-18
 -1      3368 9.52360E-05-2.85198E-05-2.85929E-05 4.30639E-09 3.68759E-19-2.64535E-18
 -1      3369 9.52392E-05-2.85256E-05-2.85915E-05 1.50279E-09 3.32582E-19-4.67377E-19
 -1      3370 9.56469E-05-2.47913E-05-3.03605E-05-1.38840E-06 1.28503E-18-3.68611E-19
 -1      3371 9.51343E-05-2.38118E-05-3.05640E-05-9.43922E-07 1.41594E-18-5.90480E-19
 -1      3372 9.56623E-05-2.52330E-05-3.01839E-05-2.68097E-06 1.23680E-18-4.48695E-19
 -1      3373 1.13896E-04-1.90500E-05-4.08671E-05 8.56252E-06-1.72890E-18-2.94556E-18
 -1      3374 1.11360E-04-2.19127E-05-3.84208E-05 1.00076E-05-1.35880E-18-2.62523E-18
 -1      3375 1.09982E-04-2.11646E-05-3.82877E-05-9.31829E-06-2.25615E-18-7.30467E-19
 -1      3376 1.08619E-04-1.80973E-05-3.89603E-05-6.11245E-06-2.23061E-18-9.00621E-19
 -1      3377 1.13535E-04-2.67194E-05-3.74375E-05 1.25980E-05-1.49791E-18-2.53579E-18
 -1      3378 1.13285E-04-1.39579E-05-4.29611E-05-1.71237E-06-2.67186E-18-2.49140E-18
 -1      3379 9.02925E-05-1.61908E-05-3.17731E-05-8.64750E-07 1.22889E-19-2.40727E-18
 -1      3380 9.08467E-05-1.68100E-05-3.17409E-05-1.30421E-06-1.68005E-19-2.43491E-18
 -1      3381 8.48204E-05-3.58191E-05-2.07234E-05 2.80793E-05-1.57469E-18 1.37365E-18
 -1      3382 1.07043E-04-4.99065E-05-2.42836E-05-2.60684E-05 3.52689E-18-1.94024E-18
 -1      3383 9.32933E-05-2.51128E-05-2.92197E-05-1.04099E-05 2.36697E-19-6.33217E-19
 -1      3384 9.52607E-05-2.61135E-05-2.96193E-05-9.95303E-06 2.18120E-19-4.43323E-19
 -1      3385 9.50158E-05-2.59148E-05-2.96207E-05-9.13085E-06 2.81298E-19-4.88124E-19
 -1      3386 1.05753E-04-4.57667E-05-2.57672E-05-2.23686E-05-2.09465E-18-2.32537E-19
 -1      3387 1.20951E-04-5.36863E-05-2.86716E-05 1.33224E-05 9.08019E-19 7.67729E-19
 -1      3388 9.13366E-05-1.72848E-05-3.17521E-05-1.71656E-06-3.57018E-19-2.33198E-18
 -1      3389 9.20768E-05-1.81724E-05-3.16881E-05-2.15782E-06-6.68938E-19-2.46277E-18
 -1      3390 9.27573E-05-1.93266E-05-3.14566E-05-1.62909E-06-6.74586E-19-2.38248E-18
 -1      3391 9.16579E-05-1.81889E-05-3.14703E-05-8.30285E-07-2.95913E-19-2.26499E-18
 -1      3392 4.84086E-05-1.33967E-05-1.44919E-05-8.71800E-06-6.10631E-19-2.44734E-18
 -1      3393 5.61197E-05-1.63220E-05-1.67408E-05-1.35903E-05-4.76145E-19-2.83380E-18
 -1      3394 5.01811E-05-1.29971E-05-1.57271E-05-9.30497E-07 4.34369E-20-2.31992E-18
 -1      3395 1.31620E-04-5.57159E-05-3.24599E-05 1.42762E-06-4.55763E-19-2.42813E-18
 -1      3396 1.35108E-04-5.36162E-05-3.49212E-05-3.94929E-06 4.24890E-19-2.46915E-18
 -1      3397 1.23280E-04-3.48175E-05-3.80189E-05 1.24384E-05-4.40669E-19-2.67633E-18
 -1      3398 9.52311E-05-2.85107E-05-2.85944E-05 5.36443E-09 9.18006E-19-3.38019E-18
 -1      3399 9.52290E-05-2.84961E-05-2.85996E-05 1.24391E-08-6.30907E-19-2.36552E-18
 -1      3400 9.52277E-05-2.85060E-05-2.85953E-05 6.33282E-09 1.74643E-20-2.56767E-18
 -1      3401 1.03054E-04-4.69549E-05-2.38715E-05 2.64245E-05 2.04926E-18-9.25767E-19
 -1      3402 1.10295E-04-4.90978E-05-2.60726E-05 2.04860E-05-9.95767E-19-1.34164E-18
 -1      3403 1.12765E-04-4.82088E-05-2.78532E-05 1.60934E-05-7.00357E-19-1.10961E-18
 -1      3404 9.52217E-05-2.84970E-05-2.85965E-05 4.52763E-09 4.84043E-19-3.81641E-18
 -1      3405 9.52239E-05-2.84998E-05-2.85961E-05 4.99787E-09 3.70944E-19-2.71532E-18
 -1      3406 9.52193E-05-2.84805E-05-2.86020E-05 1.07355E-08 3.13168E-19-2.38821E-18
 -1      3407 9.52132E-05-2.84717E-05-2.86031E-05 4.95191E-09 1.20121E-18-2.70841E-18
 -1      3408 8.32743E-05-3.64853E-05-1.97477E-05-3.12917E-05 2.84767E-18-1.02909E-18
 -1      3409 5.67542E-05-1.97773E-05-1.53904E-05 2.19723E-05-1.21814E-18 4.90353E-18
 -1      3410 5.44768E-05-1.62513E-05-1.61483E-05 1.53057E-05-9.18845E-19 5.42186E-18
 -1      3411 6.56854E-05-2.31792E-05-1.81468E-05 2.32918E-05-1.29349E-18 3.67655E-18
 -1      3412 9.55581E-05-2.56470E-05-2.99587E-05-4.69068E-06 9.66978E-19-4.58206E-19
 -1      3413 9.55375E-05-2.54016E-05-3.00525E-05-3.61236E-06 1.08172E-18-4.34708E-19
 -1      3414 9.50717E-05-2.46309E-05-3.01882E-05-3.22454E-06 1.06335E-18-7.32226E-19
 -1      3415 9.47102E-05-2.48621E-05-2.99331E-05-5.03956E-06 9.20042E-19-5.74130E-19
 -1      3416 1.27627E-04-4.82439E-05-3.39532E-05-3.20639E-06-7.76938E-19 1.13333E-18
 -1      3417 6.90884E-05-2.60138E-05-1.80604E-05-2.56432E-05-1.19773E-18-3.15795E-18
 -1      3418 4.39605E-05-1.18107E-05-1.32385E-05-7.11531E-07-2.81311E-19 4.82449E-18
 -1      3419 4.86852E-05-1.26306E-05-1.52722E-05-6.09416E-06 3.81363E-19 2.58880E-18
 -1      3420 4.88632E-05-1.26784E-05-1.52703E-05 4.84898E-06-6.63723E-19 5.33763E-18
 -1      3421 5.47003E-05-1.65612E-05-1.61110E-05-1.73851E-05 1.10578E-18 2.57233E-19
 -1      3422 5.69214E-05-1.99300E-05-1.54018E-05-2.40316E-05 1.63313E-18-5.91864E-20
 -1      3423 6.70011E-05-2.41961E-05-1.81573E-05-2.52707E-05 1.38388E-18 3.29284E-20
 -1      3424 9.52702E-05-2.59131E-05-2.97134E-05-8.24407E-06 5.06118E-19-3.85345E-19
 -1      3425 9.51410E-05-2.58004E-05-2.97203E-05-7.37512E-06 7.69398E-19-5.21600E-19
 -1      3426 9.37516E-05-2.49691E-05-2.94757E-05-8.61057E-06 4.77524E-19-6.51416E-19
 -1      3427 1.27460E-04-4.86656E-05-3.39039E-05 2.68469E-06 7.33537E-19-3.59687E-18
 -1      3428 9.42372E-05-2.49289E-05-2.97014E-05-6.80467E-06 7.39291E-19-7.06218E-19
 -1      3429 5.25001E-05-1.69526E-05-1.48246E-05 1.69964E-05 9.77661E-19-2.21907E-18
 -1      3430 9.39019E-05-2.10895E-05-3.12067E-05-1.45058E-06-8.71670E-19-2.28779E-18
 -1      3431 1.37092E-04-4.75389E-05-3.88620E-05-1.34135E-05 5.11727E-19-2.26121E-18
 -1      3432 9.52405E-05-2.85295E-05-2.85906E-05-6.00509E-10-1.25501E-18-1.24113E-18
 -1      3433 9.52392E-05-2.85279E-05-2.85907E-05-8.26485E-10 1.73262E-20 2.11197E-19
 -1      3434 9.52343E-05-2.85072E-05-2.85971E-05-1.12165E-08 1.84388E-19-1.30710E-18
 -1      3435 9.52394E-05-2.85151E-05-2.85957E-05-1.17192E-08-1.75936E-19-1.56095E-18
 -1      3436 1.13541E-04-2.60882E-05-3.77625E-05-1.22055E-05-1.90754E-18-5.27549E-19
 -1      3437 1.22230E-04-4.10319E-05-3.49956E-05-9.74221E-06-9.92233E-19-2.57172E-19
 -1      3438 9.47348E-05-2.57898E-05-2.95435E-05 5.46834E-06-5.27328E-19-1.27523E-18
 -1      3439 9.48960E-05-2.62900E-05-2.93971E-05 6.17131E-06-4.17129E-19-1.13001E-18
 -1      3440 9.49490E-05-2.67747E-05-2.92118E-05 6.89890E-06-2.32023E-19-1.11505E-18
 -1      3441 9.52728E-05-2.73887E-05-2.90828E-05 7.48745E-06 2.81158E-20-1.06147E-18
 -1      3442 9.40222E-05-2.58595E-05-2.92205E-05 6.51832E-06-2.11135E-19-8.64292E-19
 -1      3443 9.55077E-05-2.80423E-05-2.89034E-05 8.17750E-06 2.33877E-19-9.94070E-19
 -1      3444 9.61118E-05-2.89062E-05-2.87875E-05 8.64057E-06 5.61764E-19-9.16874E-19
 -1      3445 9.42789E-05-2.70475E-05-2.88297E-05 7.99997E-06 1.27123E-19-8.28653E-19
 -1      3446 9.66924E-05-2.98764E-05-2.86155E-05 9.27842E-06 6.56518E-19-1.36054E-18
 -1      3447 9.77145E-05-3.11228E-05-2.85218E-05 9.55986E-06 4.23478E-19-1.24092E-18
 -1      3448 9.50436E-05-2.87372E-05-2.84463E-05 9.44061E-06 4.47553E-19-1.30108E-18
 -1      3449 9.88521E-05-3.25521E-05-2.83771E-05 1.00654E-05 3.21997E-19-1.07901E-18
 -1      3450 1.00426E-04-3.42729E-05-2.83372E-05 1.00382E-05 3.90873E-19-9.40716E-19
 -1      3451 9.66861E-05-3.12585E-05-2.80892E-05 1.07798E-05 4.68793E-19-1.82408E-18
 -1      3452 1.02366E-04-3.62425E-05-2.82738E-05 1.02019E-05 5.21316E-19-5.99655E-19
 -1      3453 1.04570E-04-3.83980E-05-2.83553E-05 9.63754E-06 4.72160E-19-3.27312E-19
 -1      3454 9.96757E-05-3.49104E-05-2.78301E-05 1.17802E-05 7.53276E-19-1.10111E-18
 -1      3455 1.07489E-04-4.08077E-05-2.84833E-05 9.10343E-06 3.12757E-19-3.29499E-20
 -1      3456 1.10209E-04-4.30440E-05-2.88044E-05 7.68305E-06 5.02221E-19-1.83183E-19
 -1      3457 1.04395E-04-3.97036E-05-2.78317E-05 1.18507E-05 6.20032E-19-5.11595E-19
 -1      3458 1.14143E-04-4.53851E-05-2.93294E-05 5.73070E-06 7.43823E-19-3.08770E-20
 -1      3459 1.16797E-04-4.66635E-05-3.00637E-05 3.07314E-06 6.82517E-19-1.24747E-20
 -1      3460 1.11333E-04-4.53525E-05-2.84405E-05 1.00011E-05 6.67531E-19 2.73241E-19
 -1      3461 1.18281E-04-3.00489E-05-3.80039E-05 1.36348E-05-1.15226E-18-2.53438E-18
 -1      3462 1.21784E-04-3.68316E-05-3.64475E-05 1.19442E-05-4.73359E-19-2.54228E-18
 -1      3463 1.23253E-04-4.73048E-05-3.25864E-05-2.55514E-06-4.32199E-19 4.99333E-19
 -1      3464 1.21069E-04-4.58819E-05-3.22868E-05 3.82610E-06 3.35630E-19-2.03066E-18
 -1      3465 1.19632E-04-4.70678E-05-3.10648E-05 5.00913E-07 3.48170E-19-2.54694E-18
 -1      3466 1.15636E-04-4.59704E-05-2.99238E-05-3.03666E-06 1.02314E-18-2.05455E-18
 -1      3467 1.13015E-04-4.45595E-05-2.92406E-05-5.47282E-06 8.75170E-19-1.82380E-18
 -1      3468 1.18184E-04-4.84842E-05-2.99164E-05-4.93907E-06 9.60238E-19-2.51173E-18
 -1      3469 1.09180E-04-4.21470E-05-2.87544E-05-7.16023E-06 4.26344E-19-1.37772E-18
 -1      3470 1.06521E-04-3.99088E-05-2.84536E-05-8.45883E-06 5.46900E-19-5.86860E-19
 -1      3471 1.10024E-04-4.41390E-05-2.83209E-05-9.64857E-06 8.72848E-19-1.43789E-18
 -1      3472 1.03598E-04-3.74905E-05-2.83302E-05-8.89777E-06 6.28541E-20-6.97894E-19
 -1      3473 1.01428E-04-3.53722E-05-2.82481E-05-9.35620E-06 4.03792E-19-9.53767E-19
 -1      3474 1.03331E-04-3.87274E-05-2.77804E-05-1.11937E-05 2.52131E-19-3.18693E-19
 -1      3475 9.95127E-05-3.34560E-05-2.82948E-05-9.10144E-06 7.66736E-19-1.24550E-18
 -1      3476 9.79557E-05-3.18096E-05-2.83149E-05-9.06771E-06 1.13632E-18-1.12246E-18
 -1      3477 9.85766E-05-3.39613E-05-2.77639E-05-1.08790E-05 3.96544E-19-9.00550E-19
 -1      3478 9.68215E-05-3.04675E-05-2.84200E-05-8.53243E-06 1.45420E-18-6.49387E-19
 -1      3479 9.58050E-05-2.93266E-05-2.84744E-05-8.23860E-06 1.03211E-18-1.34708E-18
 -1      3480 9.56293E-05-3.04890E-05-2.79617E-05-9.78901E-06 1.23207E-18-5.52733E-19
 -1      3481 9.52130E-05-2.84784E-05-2.85850E-05-7.62075E-06 8.49991E-19-1.49087E-18
 -1      3482 9.46023E-05-2.77633E-05-2.86394E-05-7.20722E-06 1.23853E-18-1.50535E-18
 -1      3483 9.39785E-05-2.82089E-05-2.82122E-05-8.46500E-06 1.06322E-18-1.39232E-18
 -1      3484 9.43602E-05-2.72903E-05-2.87317E-05-6.59913E-06 1.28463E-18-6.28737E-19
 -1      3485 9.40274E-05-2.68942E-05-2.87715E-05-6.14459E-06 7.91698E-19 8.30810E-20
 -1      3486 9.31951E-05-2.68629E-05-2.84412E-05-7.14880E-06 1.54835E-18-1.06331E-18
 -1      3487 9.39968E-05-2.66851E-05-2.88381E-05-5.58453E-06-1.58791E-19 2.03028E-19
 -1      3488 9.38417E-05-2.65102E-05-2.88597E-05-5.13365E-06 2.81356E-20-1.45570E-19
 -1      3489 9.29538E-05-2.61871E-05-2.86200E-05-5.93825E-06 7.44424E-19-8.12236E-20
 -1      3490 9.39280E-05-2.64737E-05-2.89014E-05-4.63592E-06-2.55795E-19-2.80010E-19
 -1      3491 9.38791E-05-2.64420E-05-2.89064E-05-4.21362E-06 3.03051E-19-9.24929E-20
 -1      3492 9.30276E-05-2.59628E-05-2.87435E-05-4.86524E-06-2.07419E-19-2.00462E-19
 -1      3493 9.40207E-05-2.65094E-05-2.89274E-05-3.78149E-06-1.68387E-19-1.30749E-18
 -1      3494 9.40301E-05-2.65629E-05-2.89198E-05-3.40105E-06-7.47095E-19-1.44172E-18
 -1      3495 9.32650E-05-2.60219E-05-2.88176E-05-3.93434E-06-6.75165E-19-1.59096E-18
 -1      3496 9.41891E-05-2.66857E-05-2.89251E-05-3.03273E-06 4.55135E-21-8.98682E-19
 -1      3497 9.42266E-05-2.67839E-05-2.89091E-05-2.70014E-06 6.80390E-19-1.35917E-19
 -1      3498 9.35700E-05-2.62428E-05-2.88526E-05-3.13935E-06-7.51850E-20-2.82037E-18
 -1      3499 9.43809E-05-2.69295E-05-2.89037E-05-2.39145E-06 5.93244E-19-2.62090E-19
 -1      3500 9.44283E-05-2.70459E-05-2.88828E-05-2.10794E-06-2.70385E-19 1.74313E-19
 -1      3501 9.38848E-05-2.65419E-05-2.88590E-05-2.47003E-06 7.55544E-19-1.93020E-18
 -1      3502 9.45664E-05-2.71937E-05-2.88707E-05-1.85338E-06-7.59395E-19 8.64030E-19
 -1      3503 9.46137E-05-2.73114E-05-2.88479E-05-1.61703E-06-2.16315E-19 1.13156E-18
 -1      3504 9.41772E-05-2.68645E-05-2.88462E-05-1.91447E-06 2.23931E-19-7.61949E-19
 -1      3505 9.47308E-05-2.74492E-05-2.88322E-05-1.41043E-06-1.02071E-18 1.17569E-18
 -1      3506 9.47729E-05-2.75587E-05-2.88095E-05-1.21735E-06-1.03067E-18 4.39416E-19
 -1      3507 9.44318E-05-2.71768E-05-2.88217E-05-1.45999E-06-7.11108E-19-9.49865E-20
 -1      3508 9.48681E-05-2.76804E-05-2.87924E-05-1.05231E-06-6.60856E-19 2.85526E-19
 -1      3509 9.49030E-05-2.77768E-05-2.87712E-05-8.97558E-07-3.72517E-19 2.64469E-19
 -1      3510 9.46433E-05-2.74601E-05-2.87912E-05-1.09363E-06-1.05387E-18 6.77660E-19
 -1      3511 9.49779E-05-2.78801E-05-2.87543E-05-7.67780E-07 9.69168E-19 1.64020E-19
 -1      3512 9.50053E-05-2.79617E-05-2.87352E-05-6.45993E-07 1.36782E-18 1.11041E-18
 -1      3513 9.48126E-05-2.77057E-05-2.87589E-05-8.02730E-07 2.80449E-19 1.12468E-18
 -1      3514 9.50623E-05-2.80466E-05-2.87195E-05-5.45579E-07 7.91670E-19 1.15541E-18
 -1      3515 9.50829E-05-2.81136E-05-2.87029E-05-4.51451E-07 8.66713E-19 1.26571E-18
 -1      3516 9.49437E-05-2.79113E-05-2.87273E-05-5.75258E-07 1.38395E-18 9.61859E-19
 -1      3517 9.51249E-05-2.81816E-05-2.86888E-05-3.75038E-07 2.59095E-20 6.64427E-19
 -1      3518 9.51397E-05-2.82351E-05-2.86747E-05-3.03625E-07-5.74206E-19 7.53687E-19
 -1      3519 9.50421E-05-2.80785E-05-2.86980E-05-4.00190E-07-3.75175E-19 5.26597E-19
 -1      3520 9.51696E-05-2.82885E-05-2.86624E-05-2.46530E-07-2.66142E-19 7.03010E-19
 -1      3521 9.51797E-05-2.83304E-05-2.86507E-05-1.93460E-07 2.38765E-19 7.16795E-19
 -1      3522 9.51136E-05-2.82115E-05-2.86718E-05-2.67698E-07-4.49629E-19 4.29519E-20
 -1      3523 9.52002E-05-2.83715E-05-2.86402E-05-1.51716E-07-4.16539E-19 5.92976E-19
 -1      3524 9.52067E-05-2.84039E-05-2.86305E-05-1.13243E-07 4.49085E-19-8.44515E-19
 -1      3525 9.51638E-05-2.83152E-05-2.86491E-05-1.69372E-07-3.44639E-19 4.91150E-19
 -1      3526 9.52201E-05-2.84353E-05-2.86216E-05-8.32872E-08 1.61259E-18-1.08531E-18
 -1      3527 9.52245E-05-2.84602E-05-2.86136E-05-5.67487E-08 1.64037E-18-1.11809E-18
 -1      3528 9.51974E-05-2.83946E-05-2.86295E-05-9.79432E-08 4.13021E-19 8.65863E-19
 -1      3529 8.98382E-05-1.56720E-05-3.17977E-05-6.01113E-07 2.69239E-19-2.50387E-18
 -1      3530 9.06855E-05-1.71804E-05-3.14864E-05-2.57693E-07 1.72844E-19-2.26619E-18
 -1      3531 8.95245E-05-1.53376E-05-3.18110E-05-1.80755E-07 5.09829E-19-2.56516E-18
 -1      3532 9.09073E-05-3.71509E-05-2.32198E-05 2.52874E-05-1.30955E-18 2.25523E-20
 -1      3533 7.89637E-05-2.94799E-05-2.07431E-05 2.54793E-05-1.30507E-18 1.73576E-18
 -1      3534 9.50232E-05-3.51269E-05-2.55860E-05-2.08037E-05-1.58469E-18-4.46089E-19
 -1      3535 9.20517E-05-3.14271E-05-2.59538E-05-1.94519E-05-1.19793E-18-3.24933E-19
 -1      3536 1.20014E-04-5.07689E-05-2.98764E-05 7.15812E-06 4.63178E-19 9.49365E-19
 -1      3537 1.15341E-04-5.00345E-05-2.77709E-05 1.39604E-05 1.07888E-18 4.31325E-19
 -1      3538 8.99750E-05-2.52890E-05-2.77394E-05 1.32491E-05-8.50317E-19-4.30083E-19
 -1      3539 9.07660E-05-2.65956E-05-2.74406E-05 1.43392E-05-8.35266E-19-2.56353E-19
 -1      3540 1.21642E-04-4.89790E-05-3.11515E-05 1.04042E-06 2.15345E-19 5.73249E-19
 -1      3541 9.08519E-05-2.80963E-05-2.68873E-05 1.61019E-05-1.30531E-18-1.95385E-19
 -1      3542 9.28746E-05-3.06283E-05-2.65604E-05 1.71823E-05-1.32992E-18-2.95705E-19
 -1      3543 8.63445E-05-2.51849E-05-2.62004E-05 1.55075E-05-9.71964E-19-7.49376E-20
 -1      3544 9.09818E-05-2.39583E-05-2.87449E-05 9.04835E-06-9.49898E-19-1.43159E-18
 -1      3545 9.08942E-05-2.40672E-05-2.86214E-05 9.90307E-06-8.10529E-19-1.11048E-18
 -1      3546 9.18157E-05-2.42582E-05-2.89712E-05 7.46080E-06 1.70425E-19-1.24956E-18
 -1      3547 9.16305E-05-2.41407E-05-2.89130E-05 8.21542E-06-6.74655E-19-9.48408E-19
 -1      3548 8.93900E-05-2.29700E-05-2.84487E-05 8.17199E-06-6.63105E-19-2.45523E-19
 -1      3549 9.25925E-05-2.47788E-05-2.90783E-05 6.10279E-06 1.49544E-19-2.23413E-19
 -1      3550 9.23967E-05-2.45600E-05-2.90653E-05 6.76661E-06 4.29429E-19-5.77921E-19
 -1      3551 9.06209E-05-2.35246E-05-2.87401E-05 6.71892E-06-3.65054E-19-6.42210E-19
 -1      3552 9.32508E-05-2.53652E-05-2.91065E-05 4.93663E-06 5.76173E-19-1.01745E-18
 -1      3553 9.30804E-05-2.51158E-05-2.91218E-05 5.51403E-06 1.06293E-18-5.90004E-19
 -1      3554 9.16825E-05-2.42196E-05-2.88998E-05 5.49698E-06 7.52493E-19-6.57073E-19
 -1      3555 9.37784E-05-2.59349E-05-2.90862E-05 3.94156E-06 6.83440E-20-1.73088E-18
 -1      3556 9.36439E-05-2.56918E-05-2.91172E-05 4.43611E-06-3.08245E-19-1.08704E-18
 -1      3557 9.25543E-05-2.49324E-05-2.89707E-05 4.45413E-06 4.86862E-19-1.10164E-18
 -1      3558 9.41863E-05-2.64483E-05-2.90390E-05 3.10249E-06-4.46183E-19-3.74430E-19
 -1      3559 9.40863E-05-2.62290E-05-2.90770E-05 3.51896E-06 1.50775E-19-1.52388E-18
 -1      3560 9.32468E-05-2.55979E-05-2.89848E-05 3.56439E-06-2.03555E-19-1.29722E-18
 -1      3561 9.44937E-05-2.68906E-05-2.89795E-05 2.40511E-06-1.61832E-18-4.94089E-19
 -1      3562 9.44224E-05-2.67016E-05-2.90189E-05 2.74989E-06-9.98468E-19-5.50329E-19
 -1      3563 9.37839E-05-2.61864E-05-2.89648E-05 2.81204E-06-7.68796E-19-7.44351E-19
 -1      3564 9.47209E-05-2.72605E-05-2.89169E-05 1.83436E-06-3.26847E-19-9.78158E-19
 -1      3565 9.46717E-05-2.71024E-05-2.89545E-05 2.11508E-06-1.19800E-18-8.64773E-19
 -1      3566 9.41929E-05-2.66886E-05-2.89264E-05 2.18435E-06-1.09088E-18-2.03390E-18
 -1      3567 9.48862E-05-2.75631E-05-2.88569E-05 1.37449E-06-9.93604E-19-5.10740E-19
 -1      3568 9.48532E-05-2.74337E-05-2.88908E-05 1.59941E-06-2.86441E-19-7.11225E-19
 -1      3569 9.44996E-05-2.71065E-05-2.88800E-05 1.66865E-06-5.77553E-19-1.45307E-18
 -1      3570 9.50047E-05-2.78064E-05-2.88024E-05 1.00967E-06-1.17648E-18 5.87152E-19
 -1      3571 9.49831E-05-2.77023E-05-2.88318E-05 1.18710E-06-1.33872E-18-2.18640E-19
 -1      3572 9.47263E-05-2.74474E-05-2.88320E-05 1.25167E-06-1.21009E-18-7.90460E-19
 -1      3573 9.50882E-05-2.79992E-05-2.87549E-05 7.24733E-07-8.11647E-19 1.41516E-18
 -1      3574 9.50746E-05-2.79166E-05-2.87797E-05 8.62542E-07-6.74562E-19 1.38055E-18
 -1      3575 9.48917E-05-2.77209E-05-2.87863E-05 9.19915E-07-1.54617E-18 1.81775E-19
 -1      3576 9.51461E-05-2.81498E-05-2.87145E-05 5.05664E-07-1.87055E-18 1.63155E-18
 -1      3577 9.51379E-05-2.80851E-05-2.87350E-05 6.11035E-07-1.19127E-18 1.99602E-18
 -1      3578 9.50104E-05-2.79371E-05-2.87449E-05 6.60196E-07-1.42204E-18 8.29882E-19
 -1      3579 9.51852E-05-2.82659E-05-2.86810E-05 3.40000E-07-2.80796E-19 1.08486E-18
 -1      3580 9.51806E-05-2.82160E-05-2.86976E-05 4.19246E-07-7.20070E-19 1.49498E-18
 -1      3581 9.50941E-05-2.81057E-05-2.87088E-05 4.60191E-07-1.18813E-18 2.99667E-19
 -1      3582 9.52108E-05-2.83544E-05-2.86537E-05 2.16936E-07-3.79246E-20 8.03061E-19
 -1      3583 9.52085E-05-2.83162E-05-2.86669E-05 2.75463E-07-2.56714E-19 2.24689E-19
 -1      3584 9.51518E-05-2.82355E-05-2.86781E-05 3.08808E-07-4.19485E-20 6.58895E-19
 -1      3585 9.52268E-05-2.84213E-05-2.86316E-05 1.27437E-07-1.00841E-18 2.24019E-18
 -1      3586 9.52260E-05-2.83923E-05-2.86421E-05 1.69670E-07-3.58572E-19 5.66183E-19
 -1      3587 9.51903E-05-2.83342E-05-2.86525E-05 1.96277E-07-4.16150E-19 3.92568E-19
 -1      3588 9.52364E-05-2.84719E-05-2.86139E-05 6.44422E-08 3.38388E-19 9.83993E-19
 -1      3589 9.52364E-05-2.84499E-05-2.86221E-05 9.35733E-08 1.69213E-19 1.49398E-18
 -1      3590 9.52151E-05-2.84087E-05-2.86313E-05 1.14367E-07 3.41024E-19-1.23337E-18
 -1      3591 9.52415E-05-2.85096E-05-2.85996E-05 2.12372E-08-3.22589E-19 1.29810E-18
 -1      3592 9.52416E-05-2.84927E-05-2.86062E-05 4.09473E-08-7.40545E-20 1.40031E-18
 -1      3593 9.52298E-05-2.84637E-05-2.86139E-05 5.72163E-08 4.19003E-19-2.77808E-18
 -1      3594 1.07927E-04-4.82714E-05-2.57573E-05 2.14117E-05 1.52466E-18-4.35798E-19
 -1      3595 9.77319E-05-4.22070E-05-2.36264E-05 2.54604E-05 1.79645E-18-1.20980E-18
 -1      3596 8.00998E-05-3.23223E-05-2.03217E-05-2.82066E-05 1.99889E-18-1.35827E-18
 -1      3597 9.08368E-05-3.99335E-05-2.19009E-05-2.91745E-05 2.84656E-18-1.71127E-18
 -1      3598 9.52427E-05-2.85354E-05-2.85890E-05-2.36959E-09 1.01618E-18-4.23952E-19
 -1      3599 9.52442E-05-2.85409E-05-2.85871E-05-6.31807E-09 5.30349E-19 1.14674E-19
 -1      3600 9.52441E-05-2.85339E-05-2.85901E-05-1.10526E-09 6.83900E-19 8.21703E-19
 -1      3601 9.52379E-05-2.85154E-05-2.85954E-05 7.67025E-09-2.94557E-19-1.15964E-18
 -1      3602 9.52007E-05-2.84449E-05-2.86097E-05-7.51917E-09 1.15707E-18-2.48248E-18
 -1      3603 9.51992E-05-2.84429E-05-2.86101E-05-2.73027E-09 1.07288E-18-3.41612E-18
 -1      3604 1.01078E-04-4.52546E-05-2.36549E-05-2.61815E-05 2.81691E-18-1.33015E-18
 -1      3605 1.11374E-04-5.06321E-05-2.61661E-05-2.07355E-05 2.61742E-18-1.70713E-18
 -1      3606 1.24945E-04-5.18323E-05-3.12546E-05-3.34572E-06 7.26458E-19-3.38334E-18
 -1      3607 1.24842E-04-4.66608E-05-3.36006E-05 4.58843E-06 4.64478E-19-3.24231E-18
 -1      3608 1.03228E-04-4.30875E-05-2.53975E-05 2.20508E-05-9.51218E-19-8.64357E-19
 -1      3609 9.02523E-05-2.41510E-05-2.83507E-05 1.09373E-05-6.92434E-19-1.01060E-18
 -1      3610 9.04421E-05-2.46963E-05-2.81426E-05 1.19074E-05-6.75753E-19-3.02940E-19
 -1      3611 8.80759E-05-2.27743E-05-2.79708E-05 9.96278E-06-8.13702E-19-1.41366E-18
 -1      3612 9.05986E-05-2.45083E-05-2.82965E-05-1.21887E-05-1.32856E-19-5.88460E-19
 -1      3613 9.06022E-05-2.40898E-05-2.85253E-05-1.12390E-05 7.24093E-20-6.57799E-19
 -1      3614 1.22832E-04-4.24184E-05-3.46125E-05 9.25661E-06 4.16058E-19-1.86922E-18
 -1      3615 9.46367E-05-2.48145E-05-2.99193E-05 3.85288E-06-3.43687E-19-1.47156E-18
 -1      3616 9.47352E-05-2.53331E-05-2.97434E-05 4.68665E-06-4.43426E-19-1.32818E-18
 -1      3617 9.39886E-05-2.48640E-05-2.96269E-05 4.97230E-06-4.03667E-19-1.32327E-18
 -1      3618 9.00962E-05-3.89815E-05-2.16112E-05-2.84863E-05-1.89275E-18-2.19694E-18
 -1      3619 9.47192E-05-4.42759E-05-2.12463E-05-3.09029E-05-2.14318E-18-2.19707E-18
 -1      3620 9.44621E-05-2.35816E-05-3.03668E-05 1.99317E-06-6.81986E-19-1.71583E-18
 -1      3621 9.45821E-05-2.42516E-05-3.01471E-05 2.99048E-06-4.24518E-19-1.56324E-18
 -1      3622 9.39452E-05-2.37763E-05-3.00713E-05 3.30975E-06-3.56014E-19-1.49411E-18
 -1      3623 9.30943E-05-2.41185E-05-2.95591E-05-6.79159E-06 8.30973E-19-7.21335E-19
 -1      3624 9.33316E-05-2.40722E-05-2.96886E-05-5.88461E-06 7.53839E-19-7.26324E-19
 -1      3625 1.17681E-04-5.25174E-05-2.77126E-05-1.55797E-05 1.96539E-18-2.64761E-18
 -1      3626 1.21589E-04-5.25162E-05-2.97197E-05-9.10250E-06 1.31147E-18-3.10465E-18
 -1      3627 1.19941E-04-5.07655E-05-2.97417E-05-7.09858E-06 9.88712E-19-2.48529E-18
 -1      3628 1.11803E-04-4.91092E-05-2.68717E-05-1.70467E-05 1.75964E-18-1.46005E-18
 -1      3629 1.04650E-04-4.86849E-05-2.39705E-05-2.63984E-05-2.20334E-18-1.19667E-18
 -1      3630 1.16480E-04-1.88938E-05-4.19770E-05 1.08755E-05-1.68554E-18-3.15080E-18
 -1      3631 9.32665E-05-2.03585E-05-3.12497E-05-1.11618E-06-6.85641E-19-2.30552E-18
 -1      3632 9.37952E-05-2.13587E-05-3.10281E-05-5.09318E-07-7.35359E-19-2.14663E-18
 -1      3633 9.26546E-05-1.97116E-05-3.12739E-05-7.24801E-07-4.73585E-19-2.20759E-18
 -1      3634 6.00311E-05-1.94253E-05-1.72267E-05 2.07173E-05 1.24490E-18-1.59994E-18
 -1      3635 5.40221E-05-1.47244E-05-1.66465E-05 1.09718E-05 6.16048E-19-1.76342E-18
 -1      3636 6.65607E-05-2.18130E-05-1.89604E-05-2.11715E-05-8.55689E-19-2.85890E-18
 -1      3637 7.61597E-05-2.82489E-05-2.05007E-05-2.53963E-05-1.24262E-18-2.85911E-18
 -1      3638 9.46167E-05-2.29605E-05-3.07131E-05-4.88101E-07 1.53606E-18-7.40170E-19
 -1      3639 9.39617E-05-2.18911E-05-3.08901E-05-9.28838E-08 1.61675E-18-8.90209E-19
 -1      3640 9.46667E-05-2.35799E-05-3.04699E-05-1.80138E-06 1.30207E-18-7.68683E-19
 -1      3641 9.64166E-05-3.74265E-05-2.51616E-05 2.11714E-05-9.59953E-19-6.60487E-20
 -1      3642 9.31340E-05-2.08461E-05-3.09869E-05-7.47021E-08 1.41287E-18-1.06424E-18
 -1      3643 9.25399E-05-3.86445E-05-2.30330E-05 2.61663E-05 1.82054E-18-1.41818E-18
 -1      3644 8.63402E-05-3.36082E-05-2.25129E-05 2.47372E-05 1.59615E-18-1.72167E-18
 -1      3645 9.81575E-05-3.99897E-05-2.48119E-05 2.14794E-05 1.32486E-18-1.19530E-18
 -1      3646 9.26825E-05-3.30184E-05-2.54788E-05 2.00594E-05-1.07402E-18 7.47573E-20
 -1      3647 8.59612E-05-2.88002E-05-2.44277E-05 2.02646E-05-9.24669E-19 6.94084E-19
 -1      3648 1.10971E-04-1.47158E-05-4.14377E-05-3.60318E-06-2.62437E-18-1.98397E-18
 -1      3649 9.00235E-05-1.64364E-05-3.15183E-05 1.28009E-07 4.61067E-19-2.42584E-18
 -1      3650 9.52322E-05-2.84811E-05-2.86073E-05-4.06860E-08 2.44180E-18-1.30968E-18
 -1      3651 9.52349E-05-2.84990E-05-2.86012E-05-2.39690E-08 1.67421E-18-9.48323E-19
 -1      3652 9.52321E-05-2.84942E-05-2.86021E-05-2.38148E-08 6.30506E-19-2.31250E-18
 -1      3653 9.52191E-05-2.84526E-05-2.86142E-05-5.29067E-08 1.82122E-18-2.16153E-19
 -1      3654 8.62572E-05-2.76935E-05-2.51158E-05-1.90980E-05-7.22939E-19-1.00146E-18
 -1      3655 9.14932E-05-2.91084E-05-2.66488E-05-1.73147E-05-9.07040E-19-1.94247E-19
 -1      3656 9.00680E-05-2.70268E-05-2.70242E-05-1.61060E-05-4.66935E-19-1.28162E-19
 -1      3657 5.47638E-05-1.36273E-05-1.73137E-05 5.26386E-06 4.80311E-19-1.77321E-18
 -1      3658 5.70300E-05-1.38407E-05-1.84694E-05-1.58402E-06 3.25889E-19-1.76718E-18
 -1      3659 6.10909E-05-1.57026E-05-1.93469E-05 8.92926E-06 6.16700E-19-1.51498E-18
 -1      3660 9.13530E-05-2.40514E-05-2.88289E-05-1.02515E-05 2.09973E-19-6.50869E-19
 -1      3661 9.15575E-05-2.39379E-05-2.89959E-05-9.36716E-06 1.98175E-19-6.94343E-19
 -1      3662 8.89333E-05-2.28782E-05-2.82949E-05-1.01469E-05 1.34388E-19-1.00855E-18
 -1      3663 1.10268E-04-4.64631E-05-2.72720E-05 1.48973E-05 9.99830E-19-5.45873E-20
 -1      3664 9.15809E-05-1.86441E-05-3.12688E-05-1.19007E-07-1.86710E-19-2.22751E-18
 -1      3665 9.20816E-05-1.91099E-05-3.12781E-05-4.33519E-07-3.79382E-19-2.21293E-18
 -1      3666 9.26170E-05-2.00708E-05-3.10748E-05 2.61882E-08-3.85040E-19-2.04554E-18
 -1      3667 9.05793E-05-1.75180E-05-3.13241E-05 1.52321E-07 3.08123E-19-2.16999E-18
 -1      3668 9.10366E-05-1.80158E-05-3.13007E-05-2.36561E-08 6.40333E-20-2.20302E-18
 -1      3669 9.14821E-05-1.88482E-05-3.11113E-05 3.21348E-07-2.99732E-20-2.06853E-18
 -1      3670 9.52442E-05-2.85263E-05-2.85932E-05 6.61139E-09 3.00790E-20 1.36451E-18
 -1      3671 9.52045E-05-2.84511E-05-2.86090E-05-1.44944E-08 7.31928E-19-1.59487E-18
 -1      3672 9.51916E-05-2.84190E-05-2.86162E-05-1.60434E-08 4.49771E-19-2.07832E-18
 -1      3673 9.52091E-05-2.84569E-05-2.86080E-05-1.80838E-08-1.95251E-20-8.34220E-19
 -1      3674 9.76439E-05-4.14438E-05-2.39158E-05-2.41241E-05 2.40197E-18-1.48481E-18
 -1      3675 9.51872E-05-2.84126E-05-2.86171E-05 1.17521E-09-4.84257E-19-2.32179E-18
 -1      3676 9.51994E-05-2.84429E-05-2.86102E-05 5.39607E-09 1.04853E-18-1.62051E-18
 -1      3677 9.52015E-05-2.84454E-05-2.86099E-05 1.01733E-08 1.11381E-19-2.25174E-18
 -1      3678 7.38253E-05-2.53374E-05-2.06849E-05 2.19482E-05-1.21682E-18 2.56177E-18
 -1      3679 8.68900E-05-2.33039E-05-2.72422E-05 1.22890E-05-9.65841E-19-8.48839E-19
 -1      3680 8.99286E-05-2.49102E-05-2.78849E-05-1.34138E-05-3.06645E-19-5.68881E-19
 -1      3681 8.74645E-05-2.32136E-05-2.75258E-05-1.23020E-05-1.90376E-19-1.11860E-18
 -1      3682 9.04000E-05-2.59354E-05-2.75764E-05-1.44809E-05-4.52938E-19-3.27880E-19
 -1      3683 6.06408E-05-1.67127E-05-1.87217E-05 1.37000E-05-9.67504E-19 4.99458E-18
 -1      3684 5.41062E-05-1.40930E-05-1.67448E-05 1.01065E-05-9.63533E-19 5.57295E-18
 -1      3685 5.52784E-05-1.34267E-05-1.78646E-05 4.71136E-06-4.39603E-19 4.18657E-18
 -1      3686 5.41226E-05-1.42929E-05-1.66473E-05-1.21192E-05 9.52264E-19 5.14520E-19
 -1      3687 6.10598E-05-1.76033E-05-1.85702E-05-1.63512E-05 7.25176E-19-3.13720E-19
 -1      3688 5.54536E-05-1.36924E-05-1.77547E-05-6.64473E-06 1.55603E-19 1.17296E-18
 -1      3689 9.22565E-05-2.40401E-05-2.92285E-05-8.49800E-06 1.66435E-19-6.82666E-19
 -1      3690 9.25156E-05-2.40301E-05-2.93619E-05-7.62811E-06 4.57890E-19-7.10962E-19
 -1      3691 9.03933E-05-2.29911E-05-2.88722E-05-8.35597E-06 2.68176E-19-8.84885E-19
 -1      3692 9.08061E-05-1.80399E-05-3.12005E-05 3.33250E-07 1.03192E-18-1.76938E-18
 -1      3693 9.04259E-05-1.76050E-05-3.12210E-05 2.70590E-07 8.89667E-19-2.15770E-18
 -1      3694 9.26505E-05-2.32021E-05-2.97520E-05-5.03221E-06 8.36740E-19-8.17120E-19
 -1      3695 9.37454E-05-2.40252E-05-2.98830E-05-5.01201E-06 7.75500E-19-7.69416E-19
 -1      3696 9.52184E-05-2.84701E-05-2.86069E-05 2.34538E-08 2.02019E-19-1.43570E-18
 -1      3697 9.52247E-05-2.84786E-05-2.86053E-05 2.39700E-08-8.83489E-19-1.81583E-18
 -1      3698 8.60140E-05-3.41926E-05-2.19421E-05-2.65485E-05-1.79257E-18-2.15938E-18
 -1      3699 9.51691E-05-3.99178E-05-2.36601E-05-2.54746E-05-1.96146E-18-1.07653E-18
 -1      3700 9.16646E-05-2.31870E-05-2.93348E-05-6.70357E-06 5.37189E-19-1.05758E-18
 -1      3701 6.28142E-05-1.83756E-05-1.88351E-05-1.70093E-05-5.04660E-19-2.82051E-18
 -1      3702 7.04422E-05-2.08027E-05-2.10911E-05-1.70804E-05-6.11369E-19-2.41353E-18
 -1      3703 6.03474E-05-1.56004E-05-1.90407E-05-1.04601E-05-2.41365E-19-2.58377E-18
 -1      3704 9.41054E-05-2.24129E-05-3.07381E-05 6.57028E-07-7.33845E-19-1.94641E-18
 -1      3705 6.96500E-05-2.34789E-05-1.95742E-05 2.16032E-05 1.12600E-18-1.58580E-18
 -1      3706 9.52348E-05-2.84971E-05-2.86021E-05 2.27467E-08-6.45645E-19-2.50658E-18
 -1      3707 9.52390E-05-2.85071E-05-2.85993E-05 1.83547E-08 1.61722E-19-7.91137E-19
 -1      3708 7.50779E-05-2.80648E-05-1.99411E-05-2.64040E-05 1.78030E-18-6.88347E-19
 -1      3709 8.29227E-05-3.13219E-05-2.19173E-05-2.44793E-05 1.77938E-18-1.77309E-18
 -1      3710 7.02400E-05-2.37099E-05-1.98650E-05-2.24533E-05 1.30141E-18-9.35177E-19
 -1      3711 9.39857E-05-2.39576E-05-3.00127E-05-4.18046E-06 9.06550E-19-7.40523E-19
 -1      3712 9.35750E-05-2.19971E-05-3.06782E-05 1.11402E-06-5.60913E-19-1.77785E-18
 -1      3713 8.28291E-05-2.99002E-05-2.25100E-05-2.32902E-05-1.32550E-18-2.03222E-18
 -1      3714 9.06134E-05-1.83598E-05-3.09413E-05 9.33014E-08 8.49335E-19-1.91906E-18
 -1      3715 9.02019E-05-1.73623E-05-3.12310E-05 3.89621E-07 8.20247E-19-2.20030E-18
 -1      3716 9.01216E-05-1.72533E-05-3.12361E-05 3.12010E-07 6.60766E-19-2.27667E-18
 -1      3717 9.52294E-05-2.84902E-05-2.86027E-05-2.30810E-08 1.05090E-18-1.58989E-18
 -1      3718 9.52242E-05-2.84686E-05-2.86096E-05 3.52524E-08-4.61025E-19-2.29122E-18
 -1      3719 9.52201E-05-2.84644E-05-2.86094E-05-3.48869E-08 9.61660E-19-6.38675E-19
 -1      3720 9.52236E-05-2.84803E-05-2.86042E-05-2.18856E-08 4.89456E-19-1.20608E-18
 -1      3721 9.52177E-05-2.84716E-05-2.86059E-05-2.16622E-08-1.96010E-19-8.29428E-19
 -1      3722 9.52122E-05-2.84426E-05-2.86157E-05-5.05122E-08 8.15278E-19 2.31269E-20
 -1      3723 9.30369E-05-2.48268E-05-2.92365E-05 5.88124E-06-1.54969E-19-1.03363E-18
 -1      3724 9.30895E-05-2.53326E-05-2.90284E-05 6.64193E-06-1.03636E-19-8.42844E-19
 -1      3725 9.19775E-05-1.93768E-05-3.11273E-05 2.50148E-07 1.31962E-18-1.49743E-18
 -1      3726 9.13181E-05-1.86127E-05-3.11735E-05 1.94853E-07 1.08473E-18-1.66125E-18
 -1      3727 9.13345E-05-1.91648E-05-3.09068E-05-2.83086E-07 9.50070E-19-1.57047E-18
 -1      3728 9.29353E-05-2.58100E-05-2.87709E-05 7.48132E-06-2.51531E-20-8.38832E-19
 -1      3729 9.31694E-05-2.64770E-05-2.85640E-05 8.23661E-06 2.02802E-19-9.10181E-19
 -1      3730 9.18988E-05-2.47625E-05-2.87758E-05 6.84903E-06-3.67018E-20-1.05665E-18
 -1      3731 9.31813E-05-2.71670E-05-2.82911E-05 9.17889E-06 2.19997E-19-1.06099E-18
 -1      3732 9.37635E-05-2.81653E-05-2.80853E-05 9.93855E-06 1.79012E-19-1.40575E-18
 -1      3733 9.17132E-05-2.58993E-05-2.82184E-05 8.67492E-06-1.61830E-20-1.10320E-18
 -1      3734 9.41380E-05-2.92500E-05-2.77982E-05 1.10110E-05 5.68711E-19-1.64440E-18
 -1      3735 9.52857E-05-3.07711E-05-2.76111E-05 1.17360E-05 6.72213E-19-1.53758E-18
 -1      3736 9.20231E-05-2.76399E-05-2.76206E-05 1.07957E-05 1.60903E-19-1.47918E-18
 -1      3737 9.63156E-05-3.24538E-05-2.73337E-05 1.28917E-05 8.16431E-19-1.42023E-18
 -1      3738 9.82561E-05-3.46745E-05-2.72136E-05 1.34456E-05 1.03409E-18-1.18349E-18
 -1      3739 9.33061E-05-3.04315E-05-2.70006E-05 1.32517E-05 7.76462E-19-1.53540E-18
 -1      3740 1.06025E-04-4.31561E-05-2.68127E-05 1.60104E-05 1.10645E-18-4.46944E-19
 -1      3741 1.15748E-04-4.87243E-05-2.85758E-05-1.00370E-05 1.61916E-18-1.95948E-18
 -1      3742 9.74568E-05-3.78465E-05-2.54668E-05-2.18756E-05-1.69015E-18-3.09763E-19
 -1      3743 8.90122E-05-3.28721E-05-2.40837E-05-2.28954E-05-1.41694E-18-8.88696E-19
 -1      3744 1.11827E-04-1.34014E-05-4.25876E-05 3.18040E-06-2.20594E-18-2.98022E-18
 -1      3745 9.29517E-05-2.11630E-05-3.07519E-05-8.60966E-07 1.21440E-18-9.91400E-19
 -1      3746 1.10585E-04-4.56940E-05-2.78750E-05-1.18264E-05 1.79758E-18-1.37976E-18
 -1      3747 1.06841E-04-4.24944E-05-2.74354E-05-1.29054E-05 1.18855E-18-6.88469E-19
 -1      3748 1.11621E-04-4.74803E-05-2.75521E-05-1.39560E-05 1.70331E-18-1.65305E-18
 -1      3749 1.02018E-04-3.89494E-05-2.70132E-05-1.38741E-05 4.64207E-19-2.93518E-19
 -1      3750 9.91145E-05-3.59909E-05-2.69680E-05-1.36168E-05-1.95488E-19-6.04074E-19
 -1      3751 9.70620E-05-3.36226E-05-2.71477E-05-1.25617E-05 2.43327E-19-6.36865E-20
 -1      3752 9.51394E-05-3.14877E-05-2.72438E-05-1.19433E-05 1.28157E-18 4.49017E-19
 -1      3753 9.49337E-05-3.36300E-05-2.63902E-05-1.48860E-05 4.52066E-19-6.06704E-19
 -1      3754 9.41075E-05-2.99153E-05-2.74759E-05-1.07968E-05 1.32614E-18-2.01210E-19
 -1      3755 9.29675E-05-2.85050E-05-2.76180E-05-1.00660E-05 1.11024E-18-7.87312E-20
 -1      3756 9.20759E-05-2.95124E-05-2.68663E-05-1.23303E-05 1.05027E-18-3.86182E-19
 -1      3757 9.25723E-05-2.75467E-05-2.78396E-05-9.01745E-06 6.37645E-19-8.94557E-19
 -1      3758 9.19799E-05-2.67018E-05-2.79783E-05-8.30201E-06 8.67432E-19-1.23788E-18
 -1      3759 9.07567E-05-2.69475E-05-2.73704E-05-9.92559E-06 3.75321E-19-9.38059E-19
 -1      3760 9.19516E-05-2.61938E-05-2.81621E-05-7.42237E-06 1.66228E-18-1.10460E-18
 -1      3761 9.17118E-05-2.57499E-05-2.82759E-05-6.77120E-06 2.00000E-18-8.18343E-19
 -1      3762 9.04069E-05-2.55427E-05-2.78087E-05-7.91471E-06 1.32247E-18-1.35422E-18
 -1      3763 9.18866E-05-2.55512E-05-2.84159E-05-6.04766E-06 1.09294E-18-1.05543E-18
 -1      3764 9.18585E-05-2.53798E-05-2.84991E-05-5.47573E-06 4.02433E-19-4.49667E-19
 -1      3765 9.05935E-05-2.49035E-05-2.81549E-05-6.28397E-06 1.39223E-18-1.12552E-18
 -1      3766 9.21316E-05-2.53810E-05-2.85982E-05-4.88586E-06-3.63603E-19-6.44292E-19
 -1      3767 9.22201E-05-2.53835E-05-2.86526E-05-4.39246E-06-1.98929E-19-7.90270E-19
 -1      3768 9.10628E-05-2.47687E-05-2.84097E-05-4.97315E-06-5.38357E-20-8.12963E-19
 -1      3769 9.25269E-05-2.55042E-05-2.87177E-05-3.91267E-06-7.86680E-19-1.28921E-18
 -1      3770 9.26704E-05-2.56092E-05-2.87484E-05-3.49204E-06-1.19024E-18-1.88637E-18
 -1      3771 9.16530E-05-2.49451E-05-2.85851E-05-3.92027E-06-9.39498E-19-6.35381E-19
 -1      3772 9.29728E-05-2.57930E-05-2.87868E-05-3.10229E-06-7.84188E-19-1.21000E-18
 -1      3773 9.31332E-05-2.59507E-05-2.87996E-05-2.74761E-06 6.06740E-19-1.29720E-18
 -1      3774 9.22661E-05-2.52961E-05-2.86967E-05-3.07251E-06-5.00884E-19 4.10816E-19
 -1      3775 9.34101E-05-2.61594E-05-2.88184E-05-2.43206E-06 1.32057E-18-1.51180E-18
 -1      3776 9.35656E-05-2.63368E-05-2.88185E-05-2.13646E-06 1.26204E-18-1.12237E-18
 -1      3777 9.28457E-05-2.57281E-05-2.87600E-05-2.38935E-06 7.00082E-19-3.77378E-19
 -1      3778 9.38067E-05-2.65457E-05-2.88236E-05-1.88247E-06 9.67856E-19-1.08237E-18
 -1      3779 9.39459E-05-2.67219E-05-2.88155E-05-1.63923E-06 6.74380E-19-3.78539E-21
 -1      3780 9.33623E-05-2.61795E-05-2.87883E-05-1.83998E-06 1.55133E-18-3.21792E-19
 -1      3781 9.41479E-05-2.69162E-05-2.88117E-05-1.43640E-06-2.87142E-19-4.24471E-19
 -1      3782 9.42659E-05-2.70789E-05-2.87988E-05-1.23892E-06-1.42456E-18-3.26069E-19
 -1      3783 9.38033E-05-2.66116E-05-2.87927E-05-1.40036E-06 2.80598E-19-6.60406E-19
 -1      3784 9.44300E-05-2.72509E-05-2.87895E-05-1.07850E-06-1.44195E-18 3.32815E-19
 -1      3785 9.45261E-05-2.73940E-05-2.87744E-05-9.20416E-07-5.02768E-19 2.53285E-19
 -1      3786 9.41671E-05-2.70024E-05-2.87818E-05-1.05111E-06-1.23628E-18-3.16122E-19
 -1      3787 9.46557E-05-2.75407E-05-2.87623E-05-7.94932E-07 2.12870E-19 7.61301E-19
 -1      3788 9.47312E-05-2.76620E-05-2.87467E-05-6.70206E-07 1.02734E-18 8.39623E-19
 -1      3789 9.44587E-05-2.73417E-05-2.87620E-05-7.76170E-07 1.46434E-19 1.12990E-19
 -1      3790 9.48309E-05-2.77834E-05-2.87336E-05-5.73245E-07 1.40257E-18 1.15464E-18
 -1      3791 9.48884E-05-2.78832E-05-2.87187E-05-4.76317E-07 7.75318E-19 9.12419E-19
 -1      3792 9.46862E-05-2.76269E-05-2.87378E-05-5.62024E-07 1.08921E-18 9.23787E-19
 -1      3793 9.49631E-05-2.79812E-05-2.87057E-05-4.02414E-07 3.43105E-19 1.06396E-18
 -1      3794 9.50055E-05-2.80613E-05-2.86920E-05-3.28287E-07-3.49888E-19 1.21266E-18
 -1      3795 9.48591E-05-2.78603E-05-2.87123E-05-3.97243E-07 7.49206E-19 3.57049E-19
 -1      3796 9.50599E-05-2.81386E-05-2.86799E-05-2.72741E-07-1.24130E-18 1.25753E-18
 -1      3797 9.50901E-05-2.82017E-05-2.86677E-05-2.17002E-07-4.93671E-19 9.70315E-19
 -1      3798 9.49870E-05-2.80468E-05-2.86875E-05-2.72143E-07-3.13620E-19 2.23214E-18
 -1      3799 9.51286E-05-2.82616E-05-2.86568E-05-1.76086E-07-3.11115E-19 7.07415E-19
 -1      3800 9.51494E-05-2.83104E-05-2.86462E-05-1.35089E-07-2.26868E-19 6.00045E-19
 -1      3801 9.50790E-05-2.81932E-05-2.86646E-05-1.78642E-07-7.15453E-19 1.93996E-18
 -1      3802 9.51755E-05-2.83561E-05-2.86365E-05-1.05575E-07 7.24078E-19 6.20909E-19
 -1      3803 9.51897E-05-2.83934E-05-2.86274E-05-7.58189E-08 1.24164E-18 1.01192E-18
 -1      3804 9.51428E-05-2.83061E-05-2.86438E-05-1.10219E-07 5.98419E-19 1.09368E-18
 -1      3805 8.17705E-05-2.19696E-05-2.56969E-05 1.30951E-05-6.48344E-19 1.39940E-18
 -1      3806 8.16089E-05-2.31126E-05-2.50382E-05 1.50065E-05-5.83260E-19 1.65459E-18
 -1      3807 8.95809E-05-2.29670E-05-2.85689E-05 5.63573E-06 4.58080E-19-3.84592E-19
 -1      3808 8.89907E-05-2.26055E-05-2.84495E-05 6.24170E-06 3.48555E-20-3.15608E-20
 -1      3809 8.79859E-05-2.21614E-05-2.82369E-05 6.82999E-06-9.91886E-19-3.05594E-20
 -1      3810 8.73205E-05-2.18917E-05-2.80357E-05 7.55653E-06-6.43121E-19-1.72034E-19
 -1      3811 8.71491E-05-2.15748E-05-2.80763E-05 5.66215E-06-3.15788E-19 2.16800E-19
 -1      3812 9.19484E-05-2.46331E-05-2.88620E-05 3.76583E-06-4.39634E-20-1.20198E-18
 -1      3813 9.15514E-05-2.42654E-05-2.88367E-05 4.21474E-06 9.93386E-19-1.05510E-18
 -1      3814 9.27807E-05-2.53701E-05-2.89004E-05 3.02353E-06-3.77584E-19-1.43664E-18
 -1      3815 9.24700E-05-2.50385E-05-2.88986E-05 3.40894E-06-1.69088E-19-1.71724E-18
 -1      3816 9.15728E-05-2.43921E-05-2.87792E-05 3.18558E-06 2.71824E-19-1.17431E-18
 -1      3817 9.34275E-05-2.60117E-05-2.89006E-05 2.39137E-06-5.28767E-19-1.74651E-18
 -1      3818 9.31892E-05-2.57239E-05-2.89127E-05 2.71803E-06-5.28010E-19-1.67139E-18
 -1      3819 9.24902E-05-2.51828E-05-2.88365E-05 2.57146E-06 1.02516E-19-9.95303E-19
 -1      3820 9.39233E-05-2.65550E-05-2.88786E-05 1.86071E-06-1.09768E-18-2.28014E-18
 -1      3821 9.37435E-05-2.63120E-05-2.88979E-05 2.13321E-06-1.17146E-18-2.19330E-18
 -1      3822 9.32050E-05-2.58661E-05-2.88524E-05 2.04265E-06-3.94040E-19-1.32059E-18
 -1      3823 9.42988E-05-2.70054E-05-2.88452E-05 1.42255E-06-1.89056E-18-7.82356E-19
 -1      3824 9.41651E-05-2.68045E-05-2.88674E-05 1.64606E-06-1.37908E-18-2.16406E-18
 -1      3825 9.37555E-05-2.64427E-05-2.88430E-05 1.59465E-06-1.62679E-18-1.88011E-18
 -1      3826 9.45795E-05-2.73721E-05-2.88072E-05 1.06694E-06-1.22571E-18 1.16587E-19
 -1      3827 9.44814E-05-2.72089E-05-2.88296E-05 1.24718E-06-1.31349E-18 9.75182E-20
 -1      3828 9.41745E-05-2.69200E-05-2.88195E-05 1.22203E-06-1.75424E-18-6.42019E-19
 -1      3829 9.47866E-05-2.76659E-05-2.87691E-05 7.83251E-07-2.02406E-18 9.85604E-19
 -1      3830 9.47157E-05-2.75354E-05-2.87902E-05 9.26175E-07-1.98824E-18 6.63711E-19
 -1      3831 9.44895E-05-2.73082E-05-2.87892E-05 9.17900E-07-1.49470E-18 1.41909E-18
 -1      3832 9.49370E-05-2.78980E-05-2.87334E-05 5.60775E-07-1.19568E-18 9.16721E-19
 -1      3833 9.48866E-05-2.77951E-05-2.87523E-05 6.72230E-07-1.04782E-18 7.79736E-19
 -1      3834 9.47229E-05-2.76191E-05-2.87567E-05 6.74231E-07-1.10746E-18 2.21164E-18
 -1      3835 9.50443E-05-2.80787E-05-2.87013E-05 3.89330E-07-1.36853E-18-5.35226E-19
 -1      3836 9.50092E-05-2.79987E-05-2.87177E-05 4.74764E-07-1.58654E-18-5.70508E-19
 -1      3837 9.48932E-05-2.78646E-05-2.87252E-05 4.82545E-07-7.75580E-19 9.73424E-20
 -1      3838 9.51191E-05-2.82176E-05-2.86734E-05 2.59579E-07-1.45655E-19-1.06491E-18
 -1      3839 9.50953E-05-2.81561E-05-2.86873E-05 3.23915E-07-3.59969E-19-1.05387E-18
 -1      3840 9.50151E-05-2.80555E-05-2.86960E-05 3.34552E-07-5.15824E-19-1.84729E-18
 -1      3841 9.51696E-05-2.83229E-05-2.86496E-05 1.63054E-07 5.58961E-19-1.71603E-18
 -1      3842 9.51541E-05-2.82761E-05-2.86612E-05 2.10890E-07 1.52079E-19-9.23343E-19
 -1      3843 9.51004E-05-2.82023E-05-2.86700E-05 2.22589E-07-5.76539E-20-1.96523E-18
 -1      3844 9.52022E-05-2.84021E-05-2.86294E-05 9.22828E-08 1.20933E-18-2.50090E-18
 -1      3845 9.51929E-05-2.83666E-05-2.86391E-05 1.27961E-07 1.31175E-18-1.32483E-18
 -1      3846 9.51579E-05-2.83139E-05-2.86474E-05 1.39679E-07 8.12950E-19-2.41483E-18
 -1      3847 9.52189E-05-2.84440E-05-2.86175E-05 5.83181E-08 3.83245E-19-2.17569E-18
 -1      3848 9.29775E-05-2.14097E-05-3.06825E-05 1.28677E-06-3.23609E-19-1.77092E-18
 -1      3849 7.85625E-05-2.31514E-05-2.38298E-05 1.66238E-05-6.84638E-19 2.14407E-18
 -1      3850 7.76287E-05-2.49727E-05-2.25084E-05 1.94614E-05-6.12126E-19 2.26381E-18
 -1      3851 6.71002E-05-1.91185E-05-2.02361E-05 1.70382E-05-9.17198E-19 4.37426E-18
 -1      3852 7.46911E-05-1.97562E-05-2.33868E-05 1.37194E-05-4.92844E-19 3.47557E-18
 -1      3853 9.16225E-05-2.25635E-05-2.96030E-05-4.81105E-06 8.23996E-19-1.02870E-18
 -1      3854 9.20351E-05-2.24727E-05-2.98204E-05-3.97943E-06 7.48267E-19-9.91422E-19
 -1      3855 8.04938E-05-2.70881E-05-2.27972E-05-2.15921E-05-1.03133E-18-1.78609E-18
 -1      3856 9.32685E-05-3.59490E-05-2.44490E-05-2.08828E-05 1.36293E-18-1.08276E-18
 -1      3857 1.00972E-04-4.09292E-05-2.57996E-05-1.87954E-05 1.53703E-18-4.45553E-19
 -1      3858 1.03856E-04-4.02295E-05-2.71979E-05 1.40768E-05 1.04065E-18-3.85956E-19
 -1      3859 1.00881E-04-4.06251E-05-2.59130E-05 1.88978E-05 1.35007E-18-1.11506E-18
 -1      3860 9.62166E-05-3.69888E-05-2.53505E-05 1.92940E-05 1.55123E-18-1.34304E-18
 -1      3861 1.00741E-04-3.73012E-05-2.70984E-05 1.42378E-05 1.16525E-18-9.21660E-19
 -1      3862 8.39924E-05-2.13522E-05-2.68949E-05 1.02928E-05-1.01311E-18 1.29741E-19
 -1      3863 8.34539E-05-2.17138E-05-2.64293E-05 1.15437E-05-7.10147E-19 9.51453E-19
 -1      3864 7.92256E-05-1.98598E-05-2.53751E-05 1.09009E-05-3.67964E-19 2.85970E-18
 -1      3865 9.52060E-05-2.84518E-05-2.86093E-05 1.70493E-08 5.53706E-19-3.23917E-18
 -1      3866 9.52111E-05-2.84582E-05-2.86084E-05 2.02458E-08 6.43285E-19-2.27403E-18
 -1      3867 9.52073E-05-2.84387E-05-2.86143E-05 3.15641E-08 6.32511E-19-2.13663E-18
 -1      3868 9.51930E-05-2.84194E-05-2.86165E-05 1.84694E-08 4.13533E-19-2.92133E-18
 -1      3869 9.32196E-05-2.39108E-05-2.97060E-05 4.30429E-06-2.30886E-19-1.29428E-18
 -1      3870 9.32175E-05-2.44051E-05-2.94875E-05 5.09916E-06-2.12464E-19-1.15272E-18
 -1      3871 9.22590E-05-2.38746E-05-2.93045E-05 5.21628E-06-1.49934E-19-9.84185E-19
 -1      3872 1.01210E-04-4.18754E-05-2.52857E-05-2.25439E-05-2.10110E-18-4.43263E-19
 -1      3873 9.01385E-05-1.71687E-05-3.12885E-05 3.61080E-07 6.14269E-19-2.41530E-18
 -1      3874 9.03416E-05-1.73618E-05-3.12816E-05 2.36770E-07 3.98524E-19-2.34951E-18
 -1      3875 9.07080E-05-1.81067E-05-3.10972E-05 4.35670E-07 3.79875E-19-2.15758E-18
 -1      3876 9.04463E-05-1.80556E-05-3.10023E-05 3.83866E-07 5.91345E-19-2.13542E-18
 -1      3877 9.03380E-05-2.24207E-05-2.91110E-05-6.25459E-06 4.28482E-19-9.25257E-19
 -1      3878 9.09220E-05-2.24960E-05-2.93377E-05-5.47450E-06 6.74583E-19-9.48237E-19
 -1      3879 9.04420E-05-2.18052E-05-2.94000E-05-4.41174E-06 7.08680E-19-9.11137E-19
 -1      3880 9.32620E-05-2.27880E-05-3.02067E-05 2.66569E-06-2.95996E-19-1.52404E-18
 -1      3881 9.33142E-05-2.34041E-05-2.99638E-05 3.52686E-06-2.60277E-19-1.46470E-18
 -1      3882 9.25443E-05-2.29253E-05-2.98287E-05 3.67356E-06-1.83746E-19-1.21460E-18
 -1      3883 8.61049E-05-2.15412E-05-2.77059E-05 8.31463E-06-6.68308E-19-4.40686E-19
 -1      3884 8.54318E-05-2.14854E-05-2.73910E-05 9.23473E-06-1.03178E-18-2.13395E-19
 -1      3885 8.49497E-05-2.06793E-05-2.75100E-05 6.85573E-06-8.97123E-19 6.94344E-20
 -1      3886 7.65466E-05-2.67884E-05-2.13109E-05 2.28824E-05 1.11110E-18-1.77811E-18
 -1      3887 6.83338E-05-2.03822E-05-2.04704E-05 1.69815E-05 7.15498E-19-1.32587E-18
 -1      3888 9.43302E-05-2.39614E-05-3.01632E-05-3.52552E-06 8.79010E-19-7.64987E-19
 -1      3889 9.44800E-05-2.37433E-05-3.03137E-05-2.56319E-06 1.02060E-18-8.36807E-19
 -1      3890 9.39437E-05-2.29042E-05-3.04445E-05-2.12938E-06 1.19149E-18-8.06672E-19
 -1      3891 9.33983E-05-2.30880E-05-3.01211E-05-3.54192E-06 8.80860E-19-7.77251E-19
 -1      3892 9.08934E-05-2.38180E-05-2.87623E-05 4.62955E-06 1.40582E-18-1.38070E-18
 -1      3893 9.03999E-05-2.34339E-05-2.86995E-05 5.14927E-06 7.24423E-19-9.30284E-19
 -1      3894 8.89512E-05-2.25465E-05-2.84380E-05 4.70410E-06 9.06628E-19-1.17872E-18
 -1      3895 9.04091E-05-2.35039E-05-2.86572E-05 3.89136E-06 8.34502E-19-7.83366E-19
 -1      3896 9.51980E-05-2.84084E-05-2.86246E-05 6.76845E-08 1.06890E-18-1.45544E-18
 -1      3897 9.19843E-05-2.00557E-05-3.08328E-05 8.53058E-07-1.06166E-19-2.04935E-18
 -1      3898 9.28571E-05-2.17742E-05-3.04529E-05 1.92438E-06-2.26024E-19-1.68624E-18
 -1      3899 9.22439E-05-2.14645E-05-3.03421E-05 2.15249E-06-9.52540E-20-1.70919E-18
 -1      3900 9.14134E-05-1.94452E-05-3.08626E-05 8.81052E-07 1.22663E-19-1.99374E-18
 -1      3901 7.57878E-05-2.30956E-05-2.24705E-05-1.88792E-05-8.85901E-19-2.07010E-18
 -1      3902 8.19826E-05-2.58813E-05-2.39242E-05-1.89531E-05-1.08702E-18-1.45212E-18
 -1      3903 8.15633E-05-2.38917E-05-2.47541E-05-1.66691E-05-6.52321E-19-1.64373E-18
 -1      3904 7.19605E-05-1.99716E-05-2.22984E-05-1.50395E-05-5.82603E-19-1.96697E-18
 -1      3905 8.23063E-05-2.00162E-05-2.66513E-05 8.48197E-06-4.91634E-19 1.40873E-18
 -1      3906 9.15415E-05-2.01021E-05-3.06290E-05-9.01139E-07 9.58734E-19-1.51459E-18
 -1      3907 9.10230E-05-1.95249E-05-3.06530E-05-6.59920E-07 8.70053E-19-1.60996E-18
 -1      3908 8.63372E-05-2.45422E-05-2.64864E-05-1.51451E-05-5.64738E-19-1.15017E-18
 -1      3909 9.15539E-05-2.16614E-05-2.99410E-05-3.08937E-06 9.01894E-19-1.01394E-18
 -1      3910 9.24570E-05-2.22945E-05-3.00810E-05-3.25138E-06 7.87871E-19-9.40133E-19
 -1      3911 9.51724E-05-2.83748E-05-2.86281E-05 5.06112E-08 5.82755E-19-2.71290E-18
 -1      3912 9.51823E-05-2.83878E-05-2.86266E-05 5.72500E-08 7.37003E-19-1.41507E-18
 -1      3913 9.51638E-05-2.83369E-05-2.86391E-05 9.28292E-08 8.56891E-19-1.65518E-18
 -1      3914 9.65880E-05-3.48975E-05-2.65214E-05 1.56969E-05 1.35685E-18-1.41686E-18
 -1      3915 6.62118E-05-1.78123E-05-2.05815E-05 1.30856E-05 5.59598E-19-1.23029E-18
 -1      3916 6.55384E-05-1.64341E-05-2.10404E-05 7.88105E-06 5.06314E-19-1.42421E-18
 -1      3917 7.26724E-05-2.08837E-05-2.21209E-05 1.45775E-05 5.83910E-19-1.26462E-18
 -1      3918 8.66664E-05-2.17601E-05-2.78093E-05-9.32384E-06 1.91470E-19-1.22640E-18
 -1      3919 8.74517E-05-2.18110E-05-2.81585E-05-8.42342E-06 4.69554E-19-1.01899E-18
 -1      3920 9.51930E-05-2.84074E-05-2.86223E-05-5.62129E-08 1.25438E-19 2.98307E-19
 -1      3921 6.28534E-05-1.53747E-05-2.02234E-05-5.05808E-06 2.88785E-20-1.92434E-18
 -1      3922 9.52051E-05-2.84403E-05-2.86132E-05-2.88224E-08-7.85423E-19-1.62697E-18
 -1      3923 9.51680E-05-2.83782E-05-2.86245E-05-3.78387E-09-5.19704E-19-2.19198E-18
 -1      3924 9.51682E-05-2.83790E-05-2.86245E-05 6.14276E-09-1.35587E-18-1.31492E-18
 -1      3925 9.08191E-05-1.98876E-05-3.03837E-05-7.76268E-07 7.52268E-19-1.65761E-18
 -1      3926 9.06626E-05-1.91492E-05-3.06595E-05-2.09115E-07 8.76979E-19-1.82913E-18
 -1      3927 9.04619E-05-1.89266E-05-3.06681E-05 1.70757E-08 6.88955E-19-1.86038E-18
 -1      3928 9.51760E-05-2.83891E-05-2.86232E-05-2.79762E-08-3.00836E-19-2.19660E-18
 -1      3929 9.51709E-05-2.83828E-05-2.86240E-05-1.92013E-08 2.55447E-19-2.63540E-18
 -1      3930 9.51513E-05-2.83424E-05-2.86318E-05-1.50691E-08-1.02759E-18-1.99413E-18
 -1      3931 9.27970E-05-2.22279E-05-3.02472E-05-2.62466E-06 9.58242E-19-9.70545E-19
 -1      3932 8.79590E-05-3.29319E-05-2.36220E-05-2.20287E-05 1.04315E-18-1.62220E-18
 -1      3933 9.31144E-05-3.34062E-05-2.55001E-05-1.72151E-05 1.01343E-19-6.92483E-19
 -1      3934 9.08112E-05-3.06815E-05-2.57147E-05-1.56946E-05 4.85570E-19-8.94712E-19
 -1      3935 8.29677E-05-2.87856E-05-2.32105E-05-2.04109E-05 6.99131E-19-1.48454E-18
 -1      3936 8.44640E-05-2.18046E-05-2.68274E-05-1.13874E-05-2.42251E-19-1.50389E-18
 -1      3937 8.51931E-05-2.15837E-05-2.72994E-05-1.02439E-05-2.42265E-20-1.46291E-18
 -1      3938 8.39677E-05-2.04873E-05-2.71813E-05-8.40675E-06 1.42258E-19-1.16061E-18
 -1      3939 6.53221E-05-1.71463E-05-2.06769E-05 1.25010E-05-6.75132E-19 4.69815E-18
 -1      3940 5.68300E-05-1.29199E-05-1.84928E-05-1.24720E-06 1.03977E-20 2.20835E-18
 -1      3941 6.03761E-05-1.45321E-05-1.96484E-05-6.55075E-06 1.71225E-19 8.15825E-19
 -1      3942 6.03511E-05-1.41309E-05-1.97370E-05 3.48950E-06-9.16648E-20 3.57877E-18
 -1      3943 6.55517E-05-1.82608E-05-2.02463E-05-1.47871E-05 3.14798E-19-7.76756E-19
 -1      3944 6.76323E-05-2.06570E-05-1.98799E-05-1.91850E-05 4.89823E-19-1.01472E-18
 -1      3945 7.44149E-05-2.41149E-05-2.14809E-05-2.01361E-05 1.30067E-18-1.77779E-18
 -1      3946 8.86648E-05-2.20734E-05-2.85390E-05-7.70270E-06 3.65353E-19-1.10524E-18
 -1      3947 8.93796E-05-2.22038E-05-2.88080E-05-6.90876E-06 2.58315E-19-1.16483E-18
 -1      3948 8.88049E-05-2.15343E-05-2.88115E-05-5.64573E-06 5.17282E-19-1.02658E-18
 -1      3949 8.66529E-05-2.10261E-05-2.81030E-05-6.91014E-06 3.78990E-19-1.07912E-18
 -1      3950 8.40427E-05-2.99711E-05-2.30527E-05 2.12681E-05 1.29885E-18-1.67551E-18
 -1      3951 1.06198E-04-4.47559E-05-2.62374E-05-1.79180E-05 2.05408E-18-1.10871E-18
 -1      3952 9.19311E-05-2.06681E-05-3.05371E-05-1.42415E-06 1.07323E-18-1.34031E-18
 -1      3953 9.15641E-05-2.08717E-05-3.02934E-05-1.81974E-06 1.03980E-18-1.25179E-18
 -1      3954 9.08568E-05-2.36806E-05-2.88041E-05 5.87622E-06-1.15033E-19-1.29983E-18
 -1      3955 9.06963E-05-2.41065E-05-2.85244E-05 6.71944E-06-2.60930E-20-1.27942E-18
 -1      3956 9.01820E-05-2.44704E-05-2.81794E-05 7.67895E-06-4.24525E-20-1.29646E-18
 -1      3957 9.01835E-05-2.50791E-05-2.78766E-05 8.65844E-06-5.35775E-20-1.31803E-18
 -1      3958 8.91586E-05-2.33331E-05-2.82042E-05 6.65690E-06-7.97154E-20-1.31194E-18
 -1      3959 8.97359E-05-2.56585E-05-2.74800E-05 9.88898E-06 5.26240E-20-1.45898E-18
 -1      3960 9.00981E-05-2.66478E-05-2.71511E-05 1.10622E-05 2.33446E-19-1.54643E-18
 -1      3961 8.81584E-05-2.41437E-05-2.74347E-05 8.83667E-06 5.65101E-20-1.14120E-18
 -1      3962 8.98873E-05-2.76337E-05-2.66902E-05 1.26741E-05 6.04477E-19-1.27973E-18
 -1      3963 9.09017E-05-2.92765E-05-2.63474E-05 1.40734E-05 1.00024E-18-1.18143E-18
 -1      3964 8.74203E-05-2.55381E-05-2.65340E-05 1.17076E-05 4.80893E-19-1.07210E-18
 -1      3965 8.65746E-05-2.12981E-05-2.79996E-05 4.22906E-06-1.00143E-19-2.79323E-19
 -1      3966 8.55575E-05-2.07951E-05-2.77656E-05 4.67002E-06-2.94884E-19 2.73857E-19
 -1      3967 7.71808E-05-1.83526E-05-2.52892E-05 7.54189E-06 3.38666E-19 2.86894E-18
 -1      3968 7.54261E-05-1.82807E-05-2.44926E-05 8.83547E-06 4.15154E-19 3.67929E-18
 -1      3969 8.22704E-05-2.26813E-05-2.54714E-05-1.43244E-05-4.39661E-19-1.60653E-18
 -1      3970 8.27378E-05-2.19007E-05-2.61190E-05-1.27443E-05-4.34621E-19-1.49234E-18
 -1      3971 8.07210E-05-2.01797E-05-2.59185E-05-1.04436E-05-1.84259E-19-1.25030E-18
 -1      3972 9.12125E-05-2.12222E-05-3.00024E-05-2.35274E-06 9.81525E-19-1.06960E-18
 -1      3973 9.08841E-05-2.06769E-05-3.00838E-05-1.78068E-06 8.98909E-19-1.18757E-18
 -1      3974 9.07632E-05-2.14056E-05-2.97301E-05-3.01693E-06 8.63116E-19-1.11956E-18
 -1      3975 1.01861E-04-4.00958E-05-2.64925E-05-1.58293E-05 1.38095E-18-6.12835E-19
 -1      3976 8.96546E-05-2.83180E-05-2.62383E-05-1.32148E-05 8.69378E-19-1.38744E-18
 -1      3977 8.86347E-05-2.67530E-05-2.65247E-05-1.18404E-05 6.46335E-19-1.60495E-18
 -1      3978 8.87936E-05-2.58962E-05-2.69153E-05-1.02648E-05 4.63910E-19-1.70637E-18
 -1      3979 8.84154E-05-2.50525E-05-2.71737E-05-9.13662E-06 5.89847E-19-1.58717E-18
 -1      3980 8.61557E-05-2.47591E-05-2.63204E-05-1.09772E-05 6.78699E-19-2.36216E-18
 -1      3981 8.88189E-05-2.46372E-05-2.74807E-05-7.96394E-06 1.04418E-18-1.22048E-18
 -1      3982 8.88004E-05-2.42337E-05-2.76901E-05-7.06303E-06 1.58418E-18-1.40620E-18
 -1      3983 8.67919E-05-2.36494E-05-2.70567E-05-8.21545E-06 8.61283E-19-1.96661E-18
 -1      3984 8.93129E-05-2.41262E-05-2.79210E-05-6.17605E-06 1.86600E-18-1.53041E-18
 -1      3985 8.94950E-05-2.40165E-05-2.80787E-05-5.46278E-06 1.33943E-18-1.33859E-18
 -1      3986 8.77386E-05-2.32724E-05-2.76198E-05-6.17666E-06 1.60129E-18-2.04621E-18
 -1      3987 9.00328E-05-2.41048E-05-2.82450E-05-4.79494E-06 7.87904E-19-8.03230E-19
 -1      3988 9.03110E-05-2.41773E-05-2.83569E-05-4.22955E-06-3.71642E-19-5.33830E-19
 -1      3989 8.88046E-05-2.33717E-05-2.80326E-05-4.66069E-06 1.39983E-18-1.29530E-18
 -1      3990 9.08270E-05-2.43794E-05-2.84716E-05-3.72225E-06-9.80840E-19 1.19876E-19
 -1      3991 9.11372E-05-2.45569E-05-2.85460E-05-3.27151E-06-6.17485E-19 4.87476E-19
 -1      3992 8.98624E-05-2.37507E-05-2.83238E-05-3.53162E-06 2.53714E-20 5.56641E-20
 -1      3993 9.16076E-05-2.48170E-05-2.86210E-05-2.88243E-06-8.00291E-19 2.07130E-19
 -1      3994 9.19123E-05-2.50465E-05-2.86663E-05-2.52149E-06-6.41057E-19 3.63044E-19
 -1      3995 9.08477E-05-2.42790E-05-2.85204E-05-2.67942E-06-4.01185E-19 3.73392E-19
 -1      3996 9.23254E-05-2.53264E-05-2.87117E-05-2.22136E-06-4.84542E-20 5.06743E-20
 -1      3997 9.26039E-05-2.55724E-05-2.87356E-05-1.93192E-06 1.15354E-18 3.34709E-19
 -1      3998 9.17278E-05-2.48695E-05-2.86456E-05-2.03010E-06-4.40099E-19 2.51738E-20
 -1      3999 9.29556E-05-2.58467E-05-2.87597E-05-1.69978E-06 6.72980E-19-4.12955E-19
 -1      4000 9.31979E-05-2.60863E-05-2.87685E-05-1.46812E-06 9.45742E-19-7.86299E-19
 -1      4001 9.24884E-05-2.54628E-05-2.87184E-05-1.53229E-06 2.20850E-19 3.02440E-20
 -1      4002 9.34896E-05-2.63395E-05-2.87779E-05-1.28859E-06 1.01472E-18-1.66775E-18
 -1      4003 9.36927E-05-2.65592E-05-2.87766E-05-1.10405E-06-3.06536E-19-1.78689E-18
 -1      4004 9.31276E-05-2.60212E-05-2.87541E-05-1.14937E-06 1.71571E-20-1.99514E-18
 -1      4005 9.39288E-05-2.67832E-05-2.87762E-05-9.65568E-07-4.76371E-19-1.44655E-18
 -1      4006 9.40937E-05-2.69761E-05-2.87688E-05-8.19615E-07-8.03979E-19-4.85626E-19
 -1      4007 9.36514E-05-2.65230E-05-2.87646E-05-8.54653E-07 6.36938E-20-2.82397E-18
 -1      4008 9.42806E-05-2.71676E-05-2.87624E-05-7.13308E-07-8.21592E-19 3.53992E-19
 -1      4009 9.44108E-05-2.73315E-05-2.87515E-05-5.98910E-07 3.08885E-19 1.73940E-19
 -1      4010 9.40708E-05-2.69581E-05-2.87589E-05-6.28259E-07-2.49618E-19-6.18243E-19
 -1      4011 9.45555E-05-2.74908E-05-2.87418E-05-5.17859E-07 1.35364E-18 2.26996E-19
 -1      4012 9.46557E-05-2.76261E-05-2.87295E-05-4.29143E-07 1.81865E-18 8.26792E-19
 -1      4013 9.43993E-05-2.73246E-05-2.87434E-05-4.55087E-07 9.42885E-19 4.39862E-19
 -1      4014 9.47652E-05-2.77554E-05-2.87183E-05-3.67882E-07 1.23801E-18 3.74500E-20
 -1      4015 9.48403E-05-2.78647E-05-2.87058E-05-2.99916E-07 9.79587E-19-2.90577E-20
 -1      4016 9.46510E-05-2.76257E-05-2.87229E-05-3.23451E-07 1.36226E-18 1.29185E-19
 -1      4017 9.49212E-05-2.79675E-05-2.86943E-05-2.54224E-07 7.79598E-19 7.90949E-19
 -1      4018 9.49760E-05-2.80536E-05-2.86824E-05-2.02955E-07-3.72104E-19 1.55945E-18
 -1      4019 9.48394E-05-2.78678E-05-2.87005E-05-2.24255E-07 1.18277E-18-1.82858E-19
 -1      4020 9.50340E-05-2.81340E-05-2.86714E-05-1.68664E-07-1.23899E-18 1.62970E-18
 -1      4021 9.50734E-05-2.82013E-05-2.86604E-05-1.30858E-07-5.26681E-19 1.28464E-18
 -1      4022 9.49766E-05-2.80579E-05-2.86781E-05-1.50349E-07-5.37901E-19 1.52436E-18
 -1      4023 9.51129E-05-2.82621E-05-2.86503E-05-1.06591E-07-1.74102E-19 4.50866E-19
 -1      4024 9.51395E-05-2.83131E-05-2.86405E-05-7.85966E-08-9.37281E-20-4.06227E-19
 -1      4025 9.50744E-05-2.82071E-05-2.86569E-05-9.58826E-08-1.12112E-18-6.09437E-20
 -1      4026 6.90049E-05-1.73992E-05-2.20912E-05 1.07351E-05-6.48773E-19 4.13070E-18
 -1      4027 6.39486E-05-1.50359E-05-2.07309E-05 7.87777E-06-3.75333E-19 4.16032E-18
 -1      4028 6.40992E-05-1.46873E-05-2.12205E-05 2.61501E-06-2.37828E-19 3.24256E-18
 -1      4029 9.51812E-05-2.83910E-05-2.86247E-05-5.01686E-08-8.07238E-20-7.95375E-19
 -1      4030 9.16828E-05-3.11956E-05-2.58980E-05 1.60624E-05 1.24641E-18-1.23616E-18
 -1      4031 9.40783E-05-3.39567E-05-2.56960E-05 1.74196E-05 1.52445E-18-1.26747E-18
 -1      4032 8.77492E-05-2.82641E-05-2.55428E-05 1.55419E-05 1.11172E-18-8.18644E-19
 -1      4033 9.06237E-05-3.33302E-05-2.46091E-05 2.01485E-05 1.45817E-18-1.29134E-18
 -1      4034 8.22049E-05-2.70657E-05-2.36138E-05 1.84704E-05 1.10767E-18-1.44776E-18
 -1      4035 9.22816E-05-2.51235E-05-2.87907E-05 2.02243E-06-2.25798E-19-1.40907E-19
 -1      4036 9.18717E-05-2.47465E-05-2.87710E-05 2.28123E-06 1.09982E-19-4.14948E-19
 -1      4037 9.13083E-05-2.43109E-05-2.87240E-05 2.48649E-06 4.07259E-19-1.51546E-18
 -1      4038 9.07846E-05-2.38813E-05-2.86775E-05 2.78004E-06 6.11691E-19-8.81855E-19
 -1      4039 9.12019E-05-2.42460E-05-2.86823E-05 1.90244E-06-9.84264E-20-1.11152E-18
 -1      4040 9.36306E-05-2.64109E-05-2.88141E-05 1.26450E-06-1.52644E-18-4.20724E-19
 -1      4041 9.33880E-05-2.61404E-05-2.88214E-05 1.45472E-06-9.79987E-19-2.02462E-19
 -1      4042 9.40808E-05-2.68976E-05-2.87973E-05 9.70376E-07-1.97334E-18-7.40693E-19
 -1      4043 9.38974E-05-2.66748E-05-2.88101E-05 1.12845E-06-2.20809E-18-1.28705E-18
 -1      4044 9.35774E-05-2.63817E-05-2.87924E-05 9.94720E-07-1.63268E-18-1.00643E-18
 -1      4045 9.44207E-05-2.72933E-05-2.87725E-05 7.28757E-07-1.62149E-18-3.48699E-19
 -1      4046 9.42840E-05-2.71128E-05-2.87877E-05 8.57485E-07-1.81594E-18-8.09697E-19
 -1      4047 9.40411E-05-2.68763E-05-2.87807E-05 7.66836E-07-1.63257E-18-2.59856E-18
 -1      4048 9.46738E-05-2.76100E-05-2.87444E-05 5.34375E-07-9.05795E-19 7.99044E-19
 -1      4049 9.45733E-05-2.74661E-05-2.87601E-05 6.37181E-07-1.08894E-18 7.36913E-19
 -1      4050 9.43923E-05-2.72783E-05-2.87600E-05 5.77592E-07-1.49698E-18-2.41199E-18
 -1      4051 9.48591E-05-2.78597E-05-2.87162E-05 3.81076E-07-1.54724E-19-3.82298E-19
 -1      4052 9.47866E-05-2.77466E-05-2.87311E-05 4.61637E-07-2.47325E-19 1.24731E-18
 -1      4053 9.46541E-05-2.76001E-05-2.87351E-05 4.24153E-07-7.05318E-19-5.03165E-19
 -1      4054 9.49924E-05-2.80539E-05-2.86895E-05 2.62640E-07 6.35071E-20-1.27841E-18
 -1      4055 9.49410E-05-2.79662E-05-2.87032E-05 3.24521E-07-5.62010E-20-1.15716E-18
 -1      4056 9.48461E-05-2.78538E-05-2.87094E-05 3.02397E-07 9.64263E-19 1.75236E-20
 -1      4057 9.50856E-05-2.82022E-05-2.86654E-05 1.73267E-07 1.94509E-19-1.39258E-18
 -1      4058 9.50502E-05-2.81353E-05-2.86774E-05 2.19601E-07-1.50099E-19-1.63454E-18
 -1      4059 9.49839E-05-2.80507E-05-2.86845E-05 2.08483E-07 2.05420E-19-1.02897E-18
 -1      4060 9.51405E-05-2.82996E-05-2.86466E-05 1.14022E-07 2.78569E-19-1.51082E-18
 -1      4061 9.51162E-05-2.82480E-05-2.86572E-05 1.47691E-07 6.03011E-19-1.79166E-18
 -1      4062 9.50693E-05-2.81850E-05-2.86643E-05 1.42587E-07 6.15402E-19-2.50802E-18
 -1      4063 9.51220E-05-2.82759E-05-2.86486E-05 9.79444E-08-4.97425E-20-2.25773E-18
 -1      4064 7.21647E-05-1.78083E-05-2.33638E-05 9.83080E-06-4.88033E-19 3.97559E-18
 -1      4065 9.27780E-05-2.14552E-05-3.05733E-05-1.59533E-06 1.09952E-18-1.05377E-18
 -1      4066 8.93797E-05-2.13840E-05-2.91468E-05-4.06208E-06 6.55897E-19-1.02042E-18
 -1      4067 9.00871E-05-2.14418E-05-2.94298E-05-3.48259E-06 7.21091E-19-1.07881E-18
 -1      4068 8.98227E-05-2.09894E-05-2.94824E-05-2.70874E-06 8.01128E-19-1.03213E-18
 -1      4069 9.15061E-05-2.29714E-05-2.93827E-05 4.32894E-06-1.37056E-19-1.40403E-18
 -1      4070 9.13228E-05-2.33739E-05-2.91148E-05 5.09480E-06-2.35847E-19-1.34370E-18
 -1      4071 9.01574E-05-2.27500E-05-2.88784E-05 4.94756E-06-1.02393E-19-1.38108E-18
 -1      4072 9.19653E-05-2.20892E-05-2.99477E-05 2.93133E-06-5.31292E-20-1.63068E-18
 -1      4073 9.18466E-05-2.26062E-05-2.96770E-05 3.64961E-06 2.68294E-20-1.54244E-18
 -1      4074 9.09681E-05-2.21081E-05-2.94961E-05 3.52734E-06-8.94071E-20-1.72595E-18
 -1      4075 9.51645E-05-2.83691E-05-2.86270E-05 2.27930E-08-2.50560E-19-3.58130E-18
 -1      4076 9.51699E-05-2.83767E-05-2.86263E-05 3.19842E-08 7.34246E-19-3.31741E-18
 -1      4077 9.51421E-05-2.83151E-05-2.86392E-05 5.77388E-08 7.16071E-20-3.30046E-18
 -1      4078 9.51440E-05-2.83279E-05-2.86348E-05 1.93239E-08-4.52259E-19-3.43173E-18
 -1      4079 6.45998E-05-1.49442E-05-2.12165E-05-6.19779E-07 3.25692E-19-1.51088E-18
 -1      4080 6.73017E-05-1.65153E-05-2.17123E-05-8.56909E-06-7.31153E-20-1.92730E-18
 -1      4081 8.41446E-05-2.02155E-05-2.74322E-05 4.99873E-06 6.87387E-21 2.39707E-19
 -1      4082 8.29025E-05-1.97516E-05-2.70746E-05 5.56178E-06 5.19122E-20 9.78262E-19
 -1      4083 8.39028E-05-1.99236E-05-2.73794E-05 3.45891E-06 1.06375E-21 6.92998E-19
 -1      4084 8.10881E-05-1.91991E-05-2.65746E-05 6.02066E-06-2.19815E-19 1.29705E-18
 -1      4085 7.96005E-05-1.88572E-05-2.60386E-05 6.82196E-06 1.24039E-19 2.04935E-18
 -1      4086 7.66292E-05-1.74702E-05-2.52668E-05 4.80541E-06 7.12782E-19 2.76004E-18
 -1      4087 8.07419E-05-1.86975E-05-2.65331E-05 3.99128E-06 3.63496E-19 1.38017E-18
 -1      4088 9.30422E-05-2.58223E-05-2.88155E-05 1.61474E-06-5.80829E-19 5.58008E-20
 -1      4089 9.27250E-05-2.54997E-05-2.88127E-05 1.83891E-06 1.32130E-19 3.51958E-19
 -1      4090 9.21945E-05-2.50733E-05-2.87563E-05 1.56642E-06-8.78058E-19 5.67976E-19
 -1      4091 9.29730E-05-2.57837E-05-2.87879E-05 1.26198E-06-2.87669E-19 9.04208E-19
 -1      4092 8.43255E-05-2.65332E-05-2.46800E-05 1.58725E-05 1.08987E-18-1.12822E-18
 -1      4093 7.78459E-05-2.34593E-05-2.32733E-05 1.62501E-05 8.00049E-19-1.46291E-18
 -1      4094 7.50255E-05-2.08062E-05-2.32543E-05 1.27016E-05 6.39604E-19-1.02780E-18
 -1      4095 8.35486E-05-2.48298E-05-2.52115E-05 1.36069E-05 9.60051E-19-9.72512E-19
 -1      4096 6.72769E-05-1.58125E-05-2.19436E-05 3.32869E-06 3.98069E-19-1.53065E-18
 -1      4097 7.04906E-05-1.64173E-05-2.31600E-05-2.44424E-07 8.49845E-20-1.22970E-18
 -1      4098 7.08968E-05-1.74579E-05-2.29430E-05 7.18974E-06 4.06490E-19-1.08336E-18
 -1      4099 8.76949E-05-2.18702E-05-2.82190E-05 3.95394E-06 5.34421E-19-7.35283E-19
 -1      4100 8.63895E-05-2.11164E-05-2.79440E-05 3.02756E-06 3.94103E-19-1.20530E-19
 -1      4101 8.85203E-05-2.23739E-05-2.83662E-05 3.58017E-06 1.11165E-18-9.41832E-19
 -1      4102 7.10097E-05-1.61831E-05-2.33586E-05 5.97702E-06-1.99963E-19 3.33304E-18
 -1      4103 9.07202E-05-1.89503E-05-3.07797E-05 8.20091E-07 4.16351E-19-2.08571E-18
 -1      4104 9.10164E-05-1.90963E-05-3.08234E-05 8.13310E-07 2.46033E-19-1.94478E-18
 -1      4105 9.14806E-05-2.01460E-05-3.05533E-05 1.33541E-06 1.30885E-19-1.87267E-18
 -1      4106 9.04548E-05-2.03105E-05-3.00810E-05-1.20235E-06 7.92112E-19-1.48961E-18
 -1      4107 8.67781E-05-2.78209E-05-2.53077E-05-1.53603E-05 4.69488E-19-1.75561E-18
 -1      4108 8.99470E-05-2.33031E-05-2.85445E-05 2.26167E-06 1.16724E-18-5.31049E-19
 -1      4109 9.00741E-05-2.33890E-05-2.85929E-05 3.00501E-06 8.69532E-19-3.24509E-19
 -1      4110 8.94126E-05-2.29141E-05-2.85058E-05 3.33483E-06 1.18542E-18-1.46592E-19
 -1      4111 9.16278E-05-2.11687E-05-3.01955E-05 2.17591E-06 1.14039E-20-1.84647E-18
 -1      4112 8.83710E-05-2.11830E-05-2.88095E-05-4.48044E-06 5.85494E-19-1.05686E-18
 -1      4113 8.81269E-05-2.07897E-05-2.88311E-05-3.49240E-06 6.17037E-19-1.11035E-18
 -1      4114 8.74127E-05-2.09617E-05-2.84837E-05-5.02205E-06 5.86456E-19-1.08755E-18
 -1      4115 9.04869E-05-1.95111E-05-3.03923E-05 1.92171E-07 5.33172E-19-1.86398E-18
 -1      4116 9.04262E-05-1.88949E-05-3.06711E-05 4.33503E-07 5.45515E-19-2.01004E-18
 -1      4117 9.51177E-05-2.82878E-05-2.86413E-05 5.79763E-09-4.04821E-19-1.94043E-18
 -1      4118 9.51115E-05-2.82772E-05-2.86439E-05 2.49668E-08 3.70379E-19-4.60289E-18
 -1      4119 7.80359E-05-2.10126E-05-2.43899E-05-1.40366E-05-6.18301E-19-1.50214E-18
 -1      4120 9.51595E-05-2.83484E-05-2.86329E-05-5.66162E-08-4.61941E-19-1.61934E-18
 -1      4121 6.43251E-05-1.60226E-05-2.04561E-05-1.07304E-05 2.12673E-19-2.05630E-19
 -1      4122 6.92306E-05-1.87995E-05-2.16070E-05-1.34524E-05 2.82631E-19-1.10949E-18
 -1      4123 6.43378E-05-1.52733E-05-2.10439E-05-5.93121E-06 4.06321E-19 7.62277E-19
 -1      4124 8.48398E-05-2.03074E-05-2.76595E-05-6.01316E-06 3.61798E-19-1.08440E-18
 -1      4125 8.60470E-05-2.06041E-05-2.80694E-05-5.44592E-06 4.71732E-19-1.16130E-18
 -1      4126 8.57635E-05-2.02028E-05-2.80610E-05-4.19021E-06 5.85437E-19-1.06094E-18
 -1      4127 9.04981E-05-1.88101E-05-3.07232E-05 5.68663E-07 4.44464E-19-2.13208E-18
 -1      4128 7.04697E-05-1.77707E-05-2.24724E-05-1.07790E-05-1.61472E-19-1.71388E-18
 -1      4129 7.52169E-05-1.97553E-05-2.37064E-05-1.25793E-05-5.00666E-19-1.35304E-18
 -1      4130 7.60028E-05-1.90103E-05-2.44958E-05-1.03072E-05-1.17799E-19-9.55288E-19
 -1      4131 7.09065E-05-1.68632E-05-2.32164E-05-6.72609E-06 6.20667E-20-1.48894E-18
 -1      4132 8.15705E-05-1.95789E-05-2.65588E-05-7.23131E-06 6.02210E-20-9.88669E-19
 -1      4133 8.30530E-05-1.98552E-05-2.71147E-05-6.51934E-06 2.68852E-19-9.60339E-19
 -1      4134 8.26649E-05-1.93624E-05-2.70769E-05-4.92929E-06 3.10772E-19-1.04144E-18
 -1      4135 9.51337E-05-2.83101E-05-2.86390E-05-5.13837E-08-7.98335E-19-2.02782E-18
 -1      4136 9.51247E-05-2.82979E-05-2.86401E-05-3.29589E-08-1.23320E-18-1.82195E-18
 -1      4137 9.51204E-05-2.82939E-05-2.86406E-05-1.44713E-08-1.65981E-18-1.16444E-18
 -1      4138 9.50903E-05-2.82391E-05-2.86498E-05-1.13973E-08-9.55728E-19-1.96815E-18
 -1      4139 9.51022E-05-2.82558E-05-2.86480E-05-5.35729E-08-1.56959E-18-1.50888E-18
 -1      4140 8.66330E-05-2.26699E-05-2.74551E-05 7.14036E-06-1.47056E-20-1.00118E-18
 -1      4141 8.62024E-05-2.30611E-05-2.70262E-05 8.33669E-06 8.71873E-20-9.64761E-19
 -1      4142 8.49511E-05-2.33306E-05-2.64626E-05 9.76452E-06 3.20494E-19-9.54267E-19
 -1      4143 8.47750E-05-2.40710E-05-2.59526E-05 1.13674E-05 7.76567E-19-7.72551E-19
 -1      4144 8.35959E-05-2.16984E-05-2.64806E-05 8.02157E-06 2.82038E-19-7.36954E-19
 -1      4145 7.81122E-05-1.91364E-05-2.52441E-05-9.13442E-06-3.63647E-19-1.12225E-18
 -1      4146 7.98360E-05-1.92860E-05-2.60052E-05-8.06218E-06-2.98615E-19-1.13696E-18
 -1      4147 7.91466E-05-1.85074E-05-2.59273E-05-5.98788E-06-1.52590E-20-1.21760E-18
 -1      4148 7.57047E-05-1.80694E-05-2.46235E-05-7.70446E-06-2.91391E-19-1.24653E-18
 -1      4149 8.95508E-05-2.19857E-05-2.89799E-05 3.75844E-06 2.83870E-20-1.30655E-18
 -1      4150 8.90928E-05-2.22099E-05-2.86546E-05 4.48381E-06 4.90402E-20-1.12154E-18
 -1      4151 8.35622E-05-2.32815E-05-2.57830E-05-1.07190E-05 3.62586E-19-2.87699E-18
 -1      4152 8.37163E-05-2.26448E-05-2.62139E-05-9.20133E-06 4.08927E-19-2.46712E-18
 -1      4153 6.75863E-05-1.53416E-05-2.24042E-05 2.40364E-06-5.41869E-19 2.48684E-18
 -1      4154 6.52657E-05-1.45009E-05-2.15535E-05-1.58609E-06 2.85175E-19 2.23368E-18
 -1      4155 6.77761E-05-1.59368E-05-2.22349E-05-5.38719E-06 2.74558E-19 6.30219E-19
 -1      4156 8.48380E-05-2.25221E-05-2.66855E-05-7.80831E-06 1.12890E-18-1.96150E-18
 -1      4157 8.52351E-05-2.22980E-05-2.70224E-05-6.71750E-06 1.32080E-18-1.63593E-18
 -1      4158 8.23719E-05-2.11644E-05-2.61948E-05-7.50183E-06 1.30612E-18-2.35946E-18
 -1      4159 8.62728E-05-2.23813E-05-2.73664E-05-5.69175E-06 1.14764E-18-1.06200E-18
 -1      4160 8.67826E-05-2.24269E-05-2.76155E-05-4.89527E-06 1.78030E-18-1.20763E-18
 -1      4161 8.44343E-05-2.12290E-05-2.70206E-05-5.24784E-06 1.51425E-18-1.11742E-18
 -1      4162 8.76829E-05-2.26620E-05-2.78591E-05-4.18867E-06 2.16532E-18-1.13426E-18
 -1      4163 8.82204E-05-2.28599E-05-2.80372E-05-3.60393E-06 1.22237E-18-7.84315E-19
 -1      4164 8.63594E-05-2.17680E-05-2.76234E-05-3.71645E-06 1.62552E-18-4.14672E-19
 -1      4165 8.89950E-05-2.31722E-05-2.82065E-05-3.09848E-06 2.68003E-19-4.59616E-19
 -1      4166 8.95104E-05-2.34534E-05-2.83292E-05-2.66237E-06 3.12868E-19 1.13547E-19
 -1      4167 8.80004E-05-2.24532E-05-2.80462E-05-2.64158E-06 1.60758E-18-1.05994E-19
 -1      4168 9.01728E-05-2.38036E-05-2.84430E-05-2.29861E-06-2.91715E-19 1.35024E-19
 -1      4169 9.06433E-05-2.41219E-05-2.85235E-05-1.96916E-06-1.00355E-18-1.81093E-19
 -1      4170 8.94151E-05-2.32166E-05-2.83357E-05-1.87882E-06-5.55212E-20-7.76200E-19
 -1      4171 9.12024E-05-2.44782E-05-2.85964E-05-1.70677E-06-7.47226E-19 1.59146E-19
 -1      4172 9.16162E-05-2.48017E-05-2.86457E-05-1.45558E-06 5.41688E-19 2.05947E-19
 -1      4173 9.06212E-05-2.39960E-05-2.85265E-05-1.33710E-06-3.87037E-19 1.47497E-19
 -1      4174 9.20808E-05-2.51421E-05-2.86890E-05-1.26597E-06 1.28457E-19-4.24805E-19
 -1      4175 9.24338E-05-2.54495E-05-2.87158E-05-1.07319E-06-6.64916E-19-8.92140E-19
 -1      4176 9.16342E-05-2.47459E-05-2.86454E-05-9.51669E-07-2.55082E-19-3.01287E-19
 -1      4177 9.28135E-05-2.57603E-05-2.87384E-05-9.36011E-07-9.68658E-19-1.38707E-18
 -1      4178 9.31067E-05-2.60389E-05-2.87496E-05-7.87503E-07-5.26626E-19-2.10463E-18
 -1      4179 9.24709E-05-2.54361E-05-2.87130E-05-6.76776E-07-1.07055E-18-1.49722E-18
 -1      4180 9.34118E-05-2.63127E-05-2.87581E-05-6.88205E-07 4.35779E-20-1.99345E-18
 -1      4181 9.36495E-05-2.65563E-05-2.87590E-05-5.73679E-07 1.43194E-19-1.95132E-18
 -1      4182 9.31504E-05-2.60495E-05-2.87451E-05-4.80208E-07-6.26829E-19-1.20455E-18
 -1      4183 9.38903E-05-2.67905E-05-2.87582E-05-5.01841E-07 1.15279E-19-1.56753E-18
 -1      4184 9.40787E-05-2.69973E-05-2.87527E-05-4.13655E-07 9.86841E-20-9.05884E-19
 -1      4185 9.36925E-05-2.65790E-05-2.87535E-05-3.39291E-07 6.48083E-19-1.59332E-18
 -1      4186 9.42652E-05-2.71926E-05-2.87464E-05-3.61779E-07 1.83459E-19-3.29151E-19
 -1      4187 9.44112E-05-2.73638E-05-2.87373E-05-2.94137E-07 1.06026E-18-7.47139E-19
 -1      4188 9.41173E-05-2.70246E-05-2.87469E-05-2.38064E-07 8.64647E-19-2.89737E-18
 -1      4189 9.45530E-05-2.75231E-05-2.87279E-05-2.56803E-07 1.23543E-18-1.02195E-18
 -1      4190 9.46636E-05-2.76617E-05-2.87171E-05-2.05216E-07 1.58444E-18-1.42769E-18
 -1      4191 9.44439E-05-2.73913E-05-2.87316E-05-1.65299E-07 1.02157E-18-3.60038E-18
 -1      4192 9.47691E-05-2.77889E-05-2.87064E-05-1.78415E-07 1.84388E-18-2.01314E-18
 -1      4193 9.48511E-05-2.78991E-05-2.86951E-05-1.39342E-07 1.11237E-18-1.33070E-18
 -1      4194 9.46898E-05-2.76870E-05-2.87117E-05-1.13137E-07 1.42639E-18-3.92153E-18
 -1      4195 9.49280E-05-2.79993E-05-2.86843E-05-1.20502E-07-2.93219E-19-2.97931E-19
 -1      4196 9.49885E-05-2.80850E-05-2.86733E-05-9.06148E-08-8.58836E-19-2.98314E-19
 -1      4197 9.48707E-05-2.79220E-05-2.86903E-05-7.62693E-08 9.85727E-19-3.56392E-18
 -1      4198 9.50622E-05-2.81951E-05-2.86580E-05-7.40514E-08-1.59955E-18 4.72232E-21
 -1      4199 9.43877E-05-2.73141E-05-2.87492E-05 4.05868E-07-1.59463E-18-1.81755E-18
 -1      4200 9.42366E-05-2.71309E-05-2.87605E-05 4.82901E-07-7.84373E-19-2.18261E-18
 -1      4201 8.82192E-05-2.23196E-05-2.82744E-05 5.22022E-06-5.65453E-20-1.13749E-18
 -1      4202 8.77146E-05-2.25544E-05-2.79080E-05 6.12417E-06-3.47399E-20-1.19277E-18
 -1      4203 8.58617E-05-2.15276E-05-2.75238E-05 5.66906E-06 5.91724E-20-9.55195E-19
 -1      4204 8.31177E-05-2.61130E-05-2.43587E-05-1.61011E-05 4.17349E-19-1.72051E-18
 -1      4205 8.22403E-05-2.39386E-05-2.50092E-05-1.31666E-05 5.94804E-19-1.83901E-18
 -1      4206 9.51118E-05-2.82718E-05-2.86455E-05 4.95689E-08 5.79156E-20-3.31792E-18
 -1      4207 9.51131E-05-2.82705E-05-2.86475E-05 7.19413E-08-6.26032E-19-2.08038E-18
 -1      4208 9.50903E-05-2.82275E-05-2.86551E-05 9.21001E-08-3.81657E-20-2.40749E-18
 -1      4209 9.50847E-05-2.82272E-05-2.86522E-05 3.82157E-08 1.84505E-19-3.43481E-18
 -1      4210 9.40349E-05-2.69199E-05-2.87678E-05 5.38128E-07-2.15185E-19-2.61137E-18
 -1      4211 9.38333E-05-2.66934E-05-2.87758E-05 6.30461E-07-8.97044E-19-1.90155E-18
 -1      4212 9.40626E-05-2.69432E-05-2.87569E-05 3.61148E-07-4.04824E-19-1.83353E-18
 -1      4213 9.35700E-05-2.64350E-05-2.87774E-05 6.95056E-07-1.54916E-18-1.35626E-18
 -1      4214 9.33048E-05-2.61596E-05-2.87791E-05 8.02479E-07-8.65347E-19-4.46258E-19
 -1      4215 9.36071E-05-2.64630E-05-2.87645E-05 4.59586E-07-4.84605E-19-1.54982E-18
 -1      4216 9.46513E-05-2.76293E-05-2.87263E-05 2.97651E-07-7.67738E-19-1.57807E-18
 -1      4217 9.45399E-05-2.74835E-05-2.87389E-05 3.60287E-07-1.28885E-18-2.15958E-18
 -1      4218 9.44086E-05-2.73336E-05-2.87401E-05 2.75328E-07-1.12436E-18-1.55431E-18
 -1      4219 9.48447E-05-2.78773E-05-2.87022E-05 2.11334E-07 1.04234E-18-2.02189E-18
 -1      4220 9.47639E-05-2.77630E-05-2.87148E-05 2.61121E-07 6.89584E-20-2.55999E-18
 -1      4221 9.46670E-05-2.76456E-05-2.87189E-05 2.03609E-07-3.00216E-19-4.24119E-18
 -1      4222 9.49845E-05-2.80699E-05-2.86788E-05 1.44883E-07 8.60952E-19-1.95812E-18
 -1      4223 9.49266E-05-2.79822E-05-2.86906E-05 1.82047E-07 1.16415E-18-1.21790E-18
 -1      4224 9.48553E-05-2.78905E-05-2.86962E-05 1.45314E-07 9.41080E-19-3.22295E-18
 -1      4225 8.99859E-05-2.06044E-05-2.97295E-05-1.31495E-06 7.78558E-19-1.23477E-18
 -1      4226 9.01305E-05-2.00414E-05-3.00343E-05-3.26155E-07 7.11195E-19-1.52676E-18
 -1      4227 9.06974E-05-1.96449E-05-3.04511E-05 9.17677E-07 3.03977E-19-2.03470E-18
 -1      4228 9.00317E-05-2.00130E-05-3.00348E-05 1.77004E-07 4.54872E-19-1.67160E-18
 -1      4229 7.77967E-05-2.44733E-05-2.28451E-05-1.81218E-05 7.96381E-19-2.16742E-18
 -1      4230 8.40393E-05-2.00879E-05-2.74342E-05 1.82843E-06-1.71528E-19 1.87022E-19
 -1      4231 8.26083E-05-1.94859E-05-2.70864E-05 1.91972E-06 1.38458E-19 4.41462E-19
 -1      4232 9.12086E-05-2.43438E-05-2.86660E-05 1.27734E-06-1.02274E-18-8.61012E-19
 -1      4233 9.06450E-05-2.39013E-05-2.86132E-05 1.41019E-06 5.28553E-19-1.21896E-18
 -1      4234 9.11450E-05-2.07808E-05-3.01503E-05 1.98009E-06 9.07746E-20-1.75627E-18
 -1      4235 9.04939E-05-2.14349E-05-2.96196E-05 2.54825E-06 1.51228E-19-1.71870E-18
 -1      4236 9.01904E-05-2.17767E-05-2.93164E-05 3.20198E-06 2.17424E-20-1.49866E-18
 -1      4237 8.92378E-05-2.12553E-05-2.91029E-05 2.79049E-06 2.27407E-19-1.28224E-18
 -1      4238 8.92680E-05-2.06923E-05-2.94169E-05-1.67485E-06 6.72528E-19-1.27223E-18
 -1      4239 7.09752E-05-1.60483E-05-2.35950E-05 2.18608E-06 5.07555E-19 2.60666E-18
 -1      4240 7.98909E-05-2.17107E-05-2.49128E-05-1.12384E-05-1.38149E-19-2.83857E-18
 -1      4241 8.83691E-05-2.22537E-05-2.83125E-05 2.63631E-06 9.08257E-19 3.69566E-19
 -1      4242 8.11472E-05-2.24643E-05-2.51296E-05 1.16507E-05 6.84267E-19-8.26694E-19
 -1      4243 8.96354E-05-2.06489E-05-2.95555E-05 9.13730E-07 3.50371E-19-1.53030E-18
 -1      4244 9.01930E-05-2.03517E-05-2.99173E-05 1.38135E-06 2.86794E-19-1.77355E-18
 -1      4245 9.50256E-05-2.81418E-05-2.86640E-05-4.56640E-08-1.39030E-18-1.90258E-18
 -1      4246 8.84003E-05-2.06733E-05-2.90350E-05-1.78964E-06 5.31471E-19-1.08936E-18
 -1      4247 8.88574E-05-2.04052E-05-2.92991E-05-3.99711E-07 5.53304E-19-1.23238E-18
 -1      4248 8.99715E-05-2.34222E-05-2.85329E-05 1.47501E-06 1.37321E-18-7.48290E-19
 -1      4249 8.92587E-05-2.29254E-05-2.84411E-05 1.60245E-06 1.56901E-18-3.23875E-19
 -1      4250 9.01104E-05-2.34835E-05-2.85196E-05 8.30749E-07 1.00920E-18-7.85191E-19
 -1      4251 8.77733E-05-2.14622E-05-2.83748E-05 4.00097E-06 5.14473E-20-1.12382E-18
 -1      4252 7.68775E-05-1.75691E-05-2.54742E-05 1.80486E-06 9.92362E-19 1.71624E-18
 -1      4253 7.44890E-05-1.69034E-05-2.47084E-05 2.06721E-06 1.71691E-18 2.36095E-18
 -1      4254 7.54742E-05-1.95699E-05-2.39292E-05 8.92401E-06 4.52671E-19-1.07151E-18
 -1      4255 8.14760E-05-1.89543E-05-2.67219E-05 1.82269E-08 5.96468E-19 1.15845E-19
 -1      4256 8.09304E-05-1.88377E-05-2.66455E-05 1.84721E-06 4.96579E-19 1.15361E-18
 -1      4257 7.91473E-05-1.82379E-05-2.61278E-05 2.00090E-06 6.43039E-19 1.36834E-18
 -1      4258 9.08213E-05-2.05968E-05-3.00899E-05 1.68329E-06 1.68221E-19-1.89511E-18
 -1      4259 7.51502E-05-2.16412E-05-2.28329E-05-1.52719E-05 3.99224E-19-2.50445E-18
 -1      4260 7.21953E-05-1.61908E-05-2.39029E-05-1.17961E-06 1.11577E-18 1.75937E-18
 -1      4261 9.50574E-05-2.81797E-05-2.86626E-05 1.03898E-07 8.98847E-19-3.08331E-18
 -1      4262 9.50264E-05-2.81276E-05-2.86708E-05 1.28726E-07 1.00277E-18-2.61899E-18
 -1      4263 9.49776E-05-2.80629E-05-2.86768E-05 1.02010E-07 1.51292E-18-3.31786E-18
 -1      4264 9.50524E-05-2.81759E-05-2.86613E-05 7.57122E-08 1.39061E-19-3.23918E-18
 -1      4265 9.17491E-05-2.47676E-05-2.87123E-05 1.20220E-06-1.52426E-18-1.04516E-18
 -1      4266 9.13063E-05-2.43942E-05-2.86501E-05 7.68759E-07-7.50927E-19-1.09733E-18
 -1      4267 9.21917E-05-2.51531E-05-2.87387E-05 1.07224E-06-1.10211E-18-4.58540E-19
 -1      4268 8.64840E-05-2.12800E-05-2.79639E-05 1.76679E-06 7.20697E-19-5.72899E-19
 -1      4269 8.53501E-05-2.06974E-05-2.77334E-05 1.86364E-06 3.45158E-19-4.46855E-19
 -1      4270 8.44552E-05-2.01817E-05-2.74680E-05 4.88979E-07 9.23891E-19-1.17170E-18
 -1      4271 7.30742E-05-1.96230E-05-2.29577E-05-1.20567E-05 9.68265E-20-1.92431E-18
 -1      4272 8.73536E-05-2.05126E-05-2.86812E-05-2.07066E-06 5.48400E-19-1.16965E-18
 -1      4273 7.16051E-05-1.73935E-05-2.31164E-05-8.27271E-06 2.53435E-19-5.25809E-19
 -1      4274 7.64069E-05-2.00021E-05-2.41594E-05-1.02623E-05 1.72322E-20-1.71819E-18
 -1      4275 7.78674E-05-1.96694E-05-2.50098E-05-7.89378E-06 7.05039E-20-1.84425E-18
 -1      4276 7.14442E-05-1.66755E-05-2.35232E-05-4.41396E-06 6.12358E-19 8.12531E-19
 -1      4277 9.29662E-05-2.58488E-05-2.87711E-05 8.74859E-07-2.37046E-19-8.17532E-19
 -1      4278 9.26218E-05-2.55198E-05-2.87619E-05 9.95534E-07-3.66665E-19-3.77645E-19
 -1      4279 9.30167E-05-2.58827E-05-2.87564E-05 5.66539E-07-6.38659E-19-8.12760E-19
 -1      4280 8.48073E-05-1.99176E-05-2.78531E-05-2.27286E-06 3.57683E-19-1.06279E-18
 -1      4281 8.62089E-05-2.02581E-05-2.82844E-05-2.03984E-06 5.32957E-19-1.06752E-18
 -1      4282 8.69082E-05-2.02429E-05-2.85175E-05-2.69873E-07 4.78170E-19-1.08926E-18
 -1      4283 7.14923E-05-1.63774E-05-2.35258E-05-3.53325E-06-5.12885E-20-1.45662E-18
 -1      4284 7.37089E-05-1.73535E-05-2.41346E-05-5.77269E-06-2.33200E-19-1.36211E-18
 -1      4285 7.55860E-05-1.76570E-05-2.48787E-05-4.81981E-06-3.18997E-19-1.32087E-18
 -1      4286 8.30872E-05-1.94389E-05-2.73107E-05-2.24397E-06 3.97675E-19-9.58940E-19
 -1      4287 8.41426E-05-1.96189E-05-2.75857E-05 5.89470E-08 4.40451E-19-7.57754E-19
 -1      4288 7.31340E-05-1.70279E-05-2.40666E-05-5.26535E-08-7.41485E-21-1.24799E-18
 -1      4289 8.12230E-05-1.89716E-05-2.67389E-05-2.50240E-06 4.21951E-19-1.04556E-18
 -1      4290 8.87583E-05-2.07827E-05-2.91687E-05 1.03208E-06 3.57189E-19-1.39028E-18
 -1      4291 8.43522E-05-2.03393E-05-2.74879E-05 2.65462E-06 2.90393E-19-8.96459E-19
 -1      4292 8.60186E-05-2.06643E-05-2.80246E-05 2.29799E-06 1.86124E-19-9.30289E-19
 -1      4293 8.84228E-05-2.23964E-05-2.83118E-05 1.64534E-06 1.33597E-18-4.69067E-19
 -1      4294 8.75241E-05-2.18517E-05-2.81632E-05 1.75907E-06 8.11013E-19-5.60497E-19
 -1      4295 8.67733E-05-2.13649E-05-2.79716E-05 7.34662E-07 9.63455E-19-2.08164E-18
 -1      4296 8.80657E-05-2.08473E-05-2.88193E-05 1.47004E-06 2.87348E-19-1.22014E-18
 -1      4297 8.01967E-05-1.99481E-05-2.58051E-05-6.26488E-06 1.45700E-18-1.14800E-18
 -1      4298 8.13013E-05-1.99393E-05-2.62848E-05-5.13849E-06 2.01415E-18-6.35933E-19
 -1      4299 8.27088E-05-2.01354E-05-2.68517E-05-2.93832E-06 1.57792E-18-1.01053E-18
 -1      4300 8.38315E-05-2.04783E-05-2.72143E-05-2.17156E-06 1.58718E-18-5.54676E-19
 -1      4301 8.51464E-05-2.10242E-05-2.75240E-05-1.88412E-06 1.56708E-18-9.97713E-19
 -1      4302 8.61060E-05-2.14022E-05-2.77793E-05-1.32555E-06 1.19376E-18-1.44028E-18
 -1      4303 8.71649E-05-2.19382E-05-2.79891E-05-1.15773E-06 1.16387E-18-1.43838E-18
 -1      4304 8.79849E-05-2.23499E-05-2.81656E-05-7.65403E-07 1.40731E-18-1.55826E-18
 -1      4305 8.88394E-05-2.28601E-05-2.83041E-05-6.78696E-07 1.33013E-18-1.64689E-18
 -1      4306 8.95332E-05-2.32771E-05-2.84221E-05-4.05939E-07 1.44389E-19-1.19522E-18
 -1      4307 9.02226E-05-2.37492E-05-2.85099E-05-3.72706E-07-2.31025E-19-6.33524E-19
 -1      4308 9.08029E-05-2.41495E-05-2.85853E-05-1.83899E-07 2.42614E-19-5.28483E-19
 -1      4309 9.13568E-05-2.45749E-05-2.86376E-05-1.84364E-07-4.47796E-19-4.23619E-19
 -1      4310 9.18357E-05-2.49435E-05-2.86825E-05-5.39824E-08-8.24940E-19-6.07466E-19
 -1      4311 9.22772E-05-2.53173E-05-2.87103E-05-7.39035E-08-7.43403E-19-5.98374E-19
 -1      4312 9.26665E-05-2.56455E-05-2.87338E-05 1.60406E-08-1.12504E-18-6.59964E-19
 -1      4313 9.30146E-05-2.59666E-05-2.87452E-05-1.34198E-08-1.01751E-18-5.39734E-19
 -1      4314 9.33262E-05-2.62507E-05-2.87543E-05 4.86530E-08-3.00297E-19-6.21280E-19
 -1      4315 9.35973E-05-2.65208E-05-2.87551E-05 1.61922E-08-1.19541E-20-1.03395E-18
 -1      4316 9.38424E-05-2.67607E-05-2.87548E-05 5.91051E-08 3.80614E-19-1.58308E-18
 -1      4317 9.40507E-05-2.69835E-05-2.87492E-05 2.76518E-08 1.53757E-19-2.01319E-18
 -1      4318 9.42401E-05-2.71816E-05-2.87433E-05 5.73933E-08 3.30371E-19-2.15584E-18
 -1      4319 9.43975E-05-2.73620E-05-2.87341E-05 2.91672E-08 3.48404E-19-3.30498E-18
 -1      4320 9.45413E-05-2.75225E-05-2.87250E-05 4.98040E-08 5.46891E-19-3.71176E-18
 -1      4321 9.46582E-05-2.76661E-05-2.87143E-05 2.59027E-08 7.92340E-19-4.22063E-18
 -1      4322 9.47653E-05-2.77938E-05-2.87038E-05 4.02435E-08 1.06446E-18-4.56135E-18
 -1      4323 9.48502E-05-2.79052E-05-2.86927E-05 2.13555E-08 1.60497E-18-4.63860E-18
 -1      4324 9.49276E-05-2.80051E-05-2.86819E-05 2.94229E-08 1.09259E-18-4.57284E-18
 -1      4325 7.78284E-05-1.78216E-05-2.56499E-05-6.18680E-07 1.53174E-18 1.26020E-18
 -1      4326 7.70150E-05-1.92932E-05-2.47968E-05 6.84749E-06 3.41500E-19-8.47337E-19
 -1      4327 8.32050E-05-2.02195E-05-2.70032E-05 3.49867E-06 2.81030E-19-7.34193E-19
 -1      4328 8.69443E-05-2.07310E-05-2.84227E-05 1.69036E-06 1.98086E-19-1.09060E-18
 -1      4329 7.49523E-05-1.75039E-05-2.46322E-05-3.76817E-06 1.55364E-18 8.06235E-19
 -1      4330 9.50426E-05-2.81712E-05-2.86599E-05 2.43956E-08-1.47525E-19-3.23062E-18
 -1      4331 9.50412E-05-2.81659E-05-2.86617E-05 5.13429E-08 4.03310E-20-3.81759E-18
 -1      4332 8.11310E-05-1.98384E-05-2.63369E-05 4.32281E-06 1.85325E-19-6.32193E-19
 -1      4333 7.98068E-05-1.97772E-05-2.57238E-05 5.55860E-06 3.23843E-19-7.28030E-19
 -1      4334 7.53661E-05-1.75429E-05-2.47259E-05 2.47700E-06 1.61494E-19-1.09893E-18
 -1      4335 8.03349E-05-1.86447E-05-2.63589E-05 8.44309E-07 3.56965E-19-6.69573E-19
 -1      4336 7.90597E-05-1.83843E-05-2.60365E-05-2.12382E-06 2.60231E-19-1.04680E-18
 -1      4337 9.50184E-05-2.81352E-05-2.86647E-05-2.02790E-08-6.75401E-19-2.85435E-18
 -1      4338 9.50087E-05-2.81122E-05-2.86692E-05 6.20478E-08 7.86256E-19-4.19334E-18
 -1      4339 7.72609E-05-1.79892E-05-2.54666E-05-2.49329E-06 1.82626E-18 1.19496E-18
 -1      4340 7.72503E-05-1.84567E-05-2.51598E-05-5.30501E-06 1.40453E-18 4.24964E-19
 -1      4341 9.49632E-05-2.80480E-05-2.86771E-05 7.49322E-08 1.40836E-18-4.56683E-18
 -1      4342 8.11260E-05-1.96168E-05-2.64075E-05-3.44240E-06 1.24189E-18-4.39110E-19
 -1      4343 9.22613E-05-2.51944E-05-2.87228E-05 6.74022E-07-8.06999E-19-1.51388E-18
 -1      4344 8.86224E-05-2.24696E-05-2.83053E-05 8.31930E-07 1.18656E-18-2.42341E-18
 -1      4345 9.49687E-05-2.80624E-05-2.86743E-05-1.13037E-08 4.37192E-20-4.97340E-18
 -1      4346 7.73216E-05-1.80166E-05-2.54457E-05-2.60608E-06-1.24276E-19-1.05494E-18
 -1      4347 7.59138E-05-1.74950E-05-2.50441E-05-7.40935E-07 1.55179E-21-1.07308E-18
 -1      4348 7.94081E-05-1.86582E-05-2.60901E-05-2.12945E-06 1.13851E-18 6.66058E-19
 -3
    1PSTEP                         4           1           1          
  100CL  101 1.000000000        4348                     0    1           1
 -4  ERROR       1    1
 -5  STR(%)      1    1    0    0
 -1         1 2.72680E+01
 -1         2 2.47029E+01
 -1         3 8.11444E-04
 -1         4 8.31088E-04
 -1         5 1.38430E+01
 -1         6 1.29504E+01
 -1         7 1.29504E+01
 -1         8 3.55715E+00
 -1         9 1.80178E+00
 -1        10 1.30573E+00
 -1        11 1.04770E+00
 -1        12 8.76936E-01
 -1        13 7.57163E-01
 -1        14 6.72296E-01
 -1        15 6.69255E-01
 -1        16 7.53621E-01
 -1        17 8.69157E-01
 -1        18 1.04827E+00
 -1        19 1.31775E+00
 -1        20 1.80881E+00
 -1        21 3.39102E+00
 -1        22 8.39934E+00
 -1        23 1.29504E+01
 -1        24 4.27953E+00
 -1        25 3.22602E+00
 -1        26 1.96951E+00
 -1        27 1.40804E+00
 -1        28 1.05955E+00
 -1        29 7.90680E-01
 -1        30 6.07718E-01
 -1        31 6.07718E-01
 -1        32 7.06298E-01
 -1        33 8.28453E-01
 -1        34 8.32335E-01
 -1        35 8.48953E-01
 -1        36 8.48953E-01
 -1        37 1.12816E+00
 -1        38 1.51637E+00
 -1        39 2.44990E+00
 -1        40 2.98920E+00
 -1        41 2.98920E+00
 -1        42 2.97850E+00
 -1        43 2.97850E+00
 -1        44 2.38377E+00
 -1        45 1.43554E+00
 -1        46 1.13878E+00
 -1        47 9.10700E-01
 -1        48 9.10700E-01
 -1        49 8.49999E-01
 -1        50 8.49999E-01
 -1        51 7.59826E-01
 -1        52 6.26464E-01
 -1        53 4.97841E-01
 -1        54 3.88430E-01
 -1        55 3.39448E-01
 -1        56 2.84947E-01
 -1        57 2.30210E-01
 -1        58 1.79861E-01
 -1        59 1.36191E-01
 -1        60 9.99323E-02
 -1        61 8.31737E-02
 -1        62 6.86751E-02
 -1        63 5.50908E-02
 -1        64 4.29054E-02
 -1        65 3.22814E-02
 -1        66 2.31789E-02
 -1        67 1.84238E-02
 -1        68 1.38831E-02
 -1        69 9.20635E-03
 -1        70 5.72006E-03
 -1        71 4.23007E-03
 -1        72 1.38430E+01
 -1        73 3.41234E+00
 -1        74 2.39580E+00
 -1        75 1.63800E+00
 -1        76 1.35853E+00
 -1        77 1.19094E+00
 -1        78 1.06330E+00
 -1        79 9.51479E-01
 -1        80 1.01631E+00
 -1        81 1.05695E+00
 -1        82 1.06434E+00
 -1        83 1.34724E+00
 -1        84 1.64185E+00
 -1        85 1.75846E+00
 -1        86 2.13916E+00
 -1        87 2.20613E+00
 -1        88 2.86512E+00
 -1        89 4.48134E+00
 -1        90 5.05035E+00
 -1        91 5.50766E+00
 -1        92 5.50766E+00
 -1        93 3.79829E+00
 -1        94 2.10339E+00
 -1        95 1.65910E+00
 -1        96 1.96997E+00
 -1        97 1.96997E+00
 -1        98 1.92172E+00
 -1        99 1.67330E+00
 -1       100 1.39903E+00
 -1       101 1.13539E+00
 -1       102 8.83626E-01
 -1       103 6.64114E-01
 -1       104 4.83654E-01
 -1       105 3.64375E-01
 -1       106 2.76661E-01
 -1       107 2.05618E-01
 -1       108 1.49542E-01
 -1       109 1.06197E-01
 -1       110 7.33050E-02
 -1       111 5.16928E-02
 -1       112 4.25955E-02
 -1       113 3.42136E-02
 -1       114 2.67015E-02
 -1       115 2.02094E-02
 -1       116 1.76545E-02
 -1       117 1.43696E-02
 -1       118 1.04922E-02
 -1       119 6.48259E-03
 -1       120 4.15884E-03
 -1       121 1.95150E-03
 -1       122 1.21984E-03
 -1       123 4.41344E-04
 -1       124 6.89347E-04
 -1       125 7.13371E-04
 -1       126 7.13371E-04
 -1       127 6.35023E-04
 -1       128 5.44356E-04
 -1       129 5.23138E-04
 -1       130 5.89869E-04
 -1       131 6.59863E-04
 -1       132 6.59863E-04
 -1       133 6.41576E-04
 -1       134 4.19495E-04
 -1       135 1.55819E-03
 -1       136 2.71525E-03
 -1       137 2.50417E+01
 -1       138 4.91016E+01
 -1       139 4.91016E+01
 -1       140 2.28869E+01
 -1       141 1.20973E+01
 -1       142 1.30051E+01
 -1       143 1.30051E+01
 -1       144 1.27025E+01
 -1       145 1.22980E+01
 -1       146 1.51918E+01
 -1       147 4.01848E+01
 -1       148 4.01848E+01
 -1       149 2.56883E+01
 -1       150 2.56883E+01
 -1       151 2.54855E+01
 -1       152 2.95400E+01
 -1       153 2.95400E+01
 -1       154 1.19280E+01
 -1       155 1.19245E+01
 -1       156 1.20640E+01
 -1       157 1.20640E+01
 -1       158 1.18475E+01
 -1       159 1.18475E+01
 -1       160 1.17943E+01
 -1       161 2.51263E+01
 -1       162 3.08835E+01
 -1       163 3.08835E+01
 -1       164 2.47029E+01
 -1       165 5.90140E+00
 -1       166 2.28384E+00
 -1       167 1.53434E+00
 -1       168 1.17317E+00
 -1       169 9.63707E-01
 -1       170 8.23622E-01
 -1       171 7.24138E-01
 -1       172 6.56368E-01
 -1       173 7.21174E-01
 -1       174 8.18653E-01
 -1       175 9.65460E-01
 -1       176 1.18400E+00
 -1       177 1.55097E+00
 -1       178 2.27011E+00
 -1       179 3.82258E+00
 -1       180 1.38430E+01
 -1       181 4.27953E+00
 -1       182 3.22602E+00
 -1       183 1.96951E+00
 -1       184 1.40804E+00
 -1       185 1.05955E+00
 -1       186 7.90680E-01
 -1       187 6.02792E-01
 -1       188 6.07718E-01
 -1       189 5.98455E-01
 -1       190 7.06298E-01
 -1       191 8.28453E-01
 -1       192 8.32335E-01
 -1       193 8.48953E-01
 -1       194 8.18216E-01
 -1       195 1.12816E+00
 -1       196 1.63956E+00
 -1       197 2.44990E+00
 -1       198 2.98920E+00
 -1       199 2.92437E+00
 -1       200 2.97850E+00
 -1       201 2.38377E+00
 -1       202 1.58346E+00
 -1       203 1.13878E+00
 -1       204 8.79911E-01
 -1       205 9.10700E-01
 -1       206 8.43692E-01
 -1       207 8.49999E-01
 -1       208 7.59826E-01
 -1       209 6.26464E-01
 -1       210 5.23570E-01
 -1       211 4.50763E-01
 -1       212 3.69872E-01
 -1       213 2.89596E-01
 -1       214 2.30210E-01
 -1       215 1.79861E-01
 -1       216 1.41249E-01
 -1       217 1.07925E-01
 -1       218 8.31737E-02
 -1       219 6.86751E-02
 -1       220 5.50908E-02
 -1       221 4.29054E-02
 -1       222 3.22814E-02
 -1       223 2.36964E-02
 -1       224 1.84238E-02
 -1       225 1.38831E-02
 -1       226 9.20635E-03
 -1       227 5.72006E-03
 -1       228 4.23007E-03
 -1       229 3.41234E+00
 -1       230 2.39580E+00
 -1       231 1.63800E+00
 -1       232 1.35853E+00
 -1       233 1.19094E+00
 -1       234 1.06330E+00
 -1       235 9.51479E-01
 -1       236 9.29233E-01
 -1       237 1.01631E+00
 -1       238 1.05695E+00
 -1       239 1.12008E+00
 -1       240 1.34724E+00
 -1       241 1.64185E+00
 -1       242 1.75846E+00
 -1       243 2.13916E+00
 -1       244 2.20613E+00
 -1       245 2.95406E+00
 -1       246 4.48134E+00
 -1       247 5.05035E+00
 -1       248 5.50766E+00
 -1       249 3.79829E+00
 -1       250 2.10339E+00
 -1       251 1.48704E+00
 -1       252 1.66881E+00
 -1       253 1.96997E+00
 -1       254 1.92172E+00
 -1       255 1.67330E+00
 -1       256 1.39903E+00
 -1       257 1.15037E+00
 -1       258 9.21250E-01
 -1       259 7.11227E-01
 -1       260 5.32133E-01
 -1       261 3.86758E-01
 -1       262 2.78681E-01
 -1       263 2.05618E-01
 -1       264 1.49809E-01
 -1       265 1.08952E-01
 -1       266 7.74037E-02
 -1       267 5.34497E-02
 -1       268 4.25955E-02
 -1       269 3.42136E-02
 -1       270 2.67015E-02
 -1       271 2.02094E-02
 -1       272 1.76545E-02
 -1       273 1.43696E-02
 -1       274 1.04922E-02
 -1       275 6.48259E-03
 -1       276 4.15884E-03
 -1       277 1.32833E-03
 -1       278 9.81905E-04
 -1       279 1.19898E-03
 -1       280 1.22881E-03
 -1       281 1.22881E-03
 -1       282 1.18071E-03
 -1       283 1.01484E-03
 -1       284 8.53045E-04
 -1       285 9.43447E-04
 -1       286 1.08372E-03
 -1       287 1.13695E-03
 -1       288 1.13695E-03
 -1       289 1.08503E-03
 -1       290 9.33304E-04
 -1       291 2.44844E-03
 -1       292 3.19637E+01
 -1       293 3.06355E+01
 -1       294 4.91016E+01
 -1       295 2.45892E+01
 -1       296 1.18842E+01
 -1       297 1.20973E+01
 -1       298 1.30051E+01
 -1       299 1.27025E+01
 -1       300 1.22980E+01
 -1       301 1.15570E+01
 -1       302 1.51918E+01
 -1       303 4.01848E+01
 -1       304 3.63419E+01
 -1       305 2.90177E+01
 -1       306 2.90177E+01
 -1       307 3.36854E+01
 -1       308 3.36854E+01
 -1       309 2.92304E+01
 -1       310 1.19280E+01
 -1       311 1.10740E+01
 -1       312 1.19245E+01
 -1       313 1.20640E+01
 -1       314 1.17066E+01
 -1       315 1.18475E+01
 -1       316 1.11109E+01
 -1       317 1.17943E+01
 -1       318 2.70035E+01
 -1       319 3.11698E+01
 -1       320 3.11698E+01
 -1       321 3.19637E+01
 -1       322 1.06141E+00
 -1       323 2.39600E+00
 -1       324 8.06727E-01
 -1       325 6.87721E-01
 -1       326 6.01161E-01
 -1       327 5.32194E-01
 -1       328 5.30015E-01
 -1       329 5.96772E-01
 -1       330 6.89477E-01
 -1       331 8.07114E-01
 -1       332 9.58197E-01
 -1       333 1.17060E+00
 -1       334 1.30762E+00
 -1       335 2.07178E+00
 -1       336 1.74015E+00
 -1       337 1.59408E+00
 -1       338 1.08455E+00
 -1       339 7.49049E-01
 -1       340 6.01330E-01
 -1       341 4.48082E-01
 -1       342 4.36859E-01
 -1       343 4.35510E-01
 -1       344 4.62807E-01
 -1       345 5.47431E-01
 -1       346 5.40419E-01
 -1       347 4.47491E-01
 -1       348 4.63499E-01
 -1       349 7.35535E-01
 -1       350 1.19615E+00
 -1       351 1.53399E+00
 -1       352 1.88982E+00
 -1       353 1.91823E+00
 -1       354 1.94478E+00
 -1       355 1.87813E+00
 -1       356 1.49065E+00
 -1       357 1.14459E+00
 -1       358 6.67376E-01
 -1       359 4.27737E-01
 -1       360 4.81333E-01
 -1       361 6.06863E-01
 -1       362 6.39852E-01
 -1       363 5.99401E-01
 -1       364 5.33068E-01
 -1       365 4.72860E-01
 -1       366 4.11008E-01
 -1       367 3.40440E-01
 -1       368 2.70697E-01
 -1       369 2.07421E-01
 -1       370 1.53328E-01
 -1       371 1.09163E-01
 -1       372 8.01384E-02
 -1       373 5.77085E-02
 -1       374 4.19925E-02
 -1       375 3.38182E-02
 -1       376 2.72468E-02
 -1       377 2.10652E-02
 -1       378 1.54317E-02
 -1       379 1.09635E-02
 -1       380 8.26074E-03
 -1       381 5.39101E-03
 -1       382 3.18245E-03
 -1       383 1.07158E+00
 -1       384 7.27923E-01
 -1       385 7.14345E-01
 -1       386 6.83489E-01
 -1       387 6.44188E-01
 -1       388 7.97154E-01
 -1       389 1.03913E+00
 -1       390 1.22731E+00
 -1       391 1.39104E+00
 -1       392 1.41002E+00
 -1       393 1.39389E+00
 -1       394 1.18220E+00
 -1       395 1.30036E+00
 -1       396 1.86072E+00
 -1       397 2.56762E+00
 -1       398 3.29602E+00
 -1       399 3.10076E+00
 -1       400 3.04648E+00
 -1       401 2.49483E+00
 -1       402 1.32153E+00
 -1       403 1.20249E+00
 -1       404 1.39291E+00
 -1       405 1.49150E+00
 -1       406 1.47791E+00
 -1       407 1.38684E+00
 -1       408 1.23598E+00
 -1       409 1.05618E+00
 -1       410 8.64256E-01
 -1       411 6.80433E-01
 -1       412 5.19147E-01
 -1       413 3.85361E-01
 -1       414 2.78681E-01
 -1       415 2.01748E-01
 -1       416 1.49809E-01
 -1       417 1.08952E-01
 -1       418 7.74037E-02
 -1       419 5.34497E-02
 -1       420 3.55560E-02
 -1       421 2.59792E-02
 -1       422 2.13557E-02
 -1       423 1.67807E-02
 -1       424 1.24598E-02
 -1       425 8.84474E-03
 -1       426 6.97156E-03
 -1       427 4.98417E-03
 -1       428 3.21154E-03
 -1       429 1.84342E-03
 -1       430 2.01603E-03
 -1       431 2.62792E-03
 -1       432 1.69016E-03
 -1       433 1.47840E-03
 -1       434 1.26331E-03
 -1       435 9.54730E-04
 -1       436 8.66954E-04
 -1       437 1.12997E-03
 -1       438 1.34475E-03
 -1       439 1.59642E-03
 -1       440 1.59642E-03
 -1       441 2.65384E-03
 -1       442 3.06355E+01
 -1       443 3.19637E+01
 -1       444 3.05542E+01
 -1       445 1.80849E+01
 -1       446 1.12466E+01
 -1       447 9.45433E-01
 -1       448 9.29477E+00
 -1       449 1.05245E+01
 -1       450 1.06046E+01
 -1       451 9.22392E+00
 -1       452 8.29122E+00
 -1       453 1.35191E+01
 -1       454 2.36135E+01
 -1       455 2.78640E+01
 -1       456 3.80589E+01
 -1       457 3.80589E+01
 -1       458 3.36854E+01
 -1       459 2.01369E+01
 -1       460 1.14065E+01
 -1       461 6.80101E+00
 -1       462 8.31641E+00
 -1       463 9.71836E+00
 -1       464 1.11672E+01
 -1       465 1.04120E+01
 -1       466 8.50279E+00
 -1       467 6.94452E+00
 -1       468 1.08753E+01
 -1       469 1.85896E+01
 -1       470 3.11698E+01
 -1       471 2.90241E+01
 -1       472 7.60356E+00
 -1       473 8.85139E-01
 -1       474 4.82668E-01
 -1       475 5.31535E-01
 -1       476 3.70067E-01
 -1       477 4.14611E-01
 -1       478 4.73248E-01
 -1       479 5.25928E-01
 -1       480 5.47881E-01
 -1       481 7.23110E-01
 -1       482 6.62131E-01
 -1       483 6.66754E-01
 -1       484 4.93468E+00
 -1       485 4.80265E-01
 -1       486 3.25041E-01
 -1       487 2.69345E-01
 -1       488 2.67732E-01
 -1       489 3.10664E-01
 -1       490 3.95923E-01
 -1       491 4.79096E-01
 -1       492 5.31662E-01
 -1       493 6.08846E-01
 -1       494 7.59834E-01
 -1       495 8.25995E-01
 -1       496 1.12306E+00
 -1       497 1.29216E+00
 -1       498 1.46846E+00
 -1       499 1.87798E+00
 -1       500 1.68210E+00
 -1       501 1.81245E+00
 -1       502 1.45897E+00
 -1       503 1.24799E+00
 -1       504 1.05785E+00
 -1       505 8.29165E-01
 -1       506 7.47041E-01
 -1       507 6.28739E-01
 -1       508 6.47844E-01
 -1       509 6.12500E-01
 -1       510 5.50861E-01
 -1       511 4.99999E-01
 -1       512 4.42452E-01
 -1       513 3.75231E-01
 -1       514 3.06597E-01
 -1       515 2.42511E-01
 -1       516 1.86166E-01
 -1       517 1.38805E-01
 -1       518 1.00421E-01
 -1       519 7.02838E-02
 -1       520 4.73164E-02
 -1       521 3.03328E-02
 -1       522 2.05485E-02
 -1       523 1.54789E-02
 -1       524 1.26884E-02
 -1       525 9.74200E-03
 -1       526 6.86882E-03
 -1       527 4.57553E-03
 -1       528 3.89777E-01
 -1       529 4.64989E-01
 -1       530 6.77826E-01
 -1       531 9.14364E-01
 -1       532 1.13610E+00
 -1       533 1.30502E+00
 -1       534 1.49117E+00
 -1       535 1.74957E+00
 -1       536 1.96874E+00
 -1       537 2.37615E+00
 -1       538 2.71497E+00
 -1       539 3.80826E+00
 -1       540 6.83836E+00
 -1       541 6.07377E+00
 -1       542 6.16296E+00
 -1       543 2.68922E+00
 -1       544 2.28993E+00
 -1       545 2.30017E+00
 -1       546 1.89959E+00
 -1       547 1.76545E+00
 -1       548 1.54783E+00
 -1       549 1.43080E+00
 -1       550 1.27886E+00
 -1       551 1.07754E+00
 -1       552 8.80268E-01
 -1       553 7.04282E-01
 -1       554 5.48251E-01
 -1       555 4.16877E-01
 -1       556 3.10225E-01
 -1       557 2.26005E-01
 -1       558 1.60992E-01
 -1       559 1.11806E-01
 -1       560 7.53090E-02
 -1       561 5.07172E-02
 -1       562 3.56700E-02
 -1       563 2.59792E-02
 -1       564 2.13557E-02
 -1       565 1.67807E-02
 -1       566 1.24598E-02
 -1       567 8.54584E-03
 -1       568 6.20162E-03
 -1       569 4.11568E-03
 -1       570 1.71841E-03
 -1       571 1.43162E-03
 -1       572 3.58729E-03
 -1       573 2.24346E-03
 -1       574 9.92489E-04
 -1       575 8.14112E-04
 -1       576 9.00448E-04
 -1       577 1.24936E-03
 -1       578 1.52856E-03
 -1       579 2.02827E-03
 -1       580 2.08572E-03
 -1       581 3.05542E+01
 -1       582 2.21358E+01
 -1       583 2.90241E+01
 -1       584 4.88260E-01
 -1       585 1.32537E+01
 -1       586 6.35340E+00
 -1       587 1.34364E+01
 -1       588 7.86304E+00
 -1       589 4.25759E-01
 -1       590 7.82048E+00
 -1       591 4.39354E+00
 -1       592 6.93944E+00
 -1       593 6.83836E+00
 -1       594 4.17540E+00
 -1       595 6.83910E+00
 -1       596 1.16797E+01
 -1       597 1.69745E+01
 -1       598 2.78640E+01
 -1       599 3.80589E+01
 -1       600 2.41325E+01
 -1       601 1.44794E+01
 -1       602 9.89155E+00
 -1       603 6.28412E+00
 -1       604 4.15029E+00
 -1       605 6.34000E+00
 -1       606 8.64936E+00
 -1       607 6.89863E+00
 -1       608 6.40631E+00
 -1       609 8.94030E+00
 -1       610 1.79324E+01
 -1       611 8.42125E-01
 -1       612 1.19809E+00
 -1       613 9.10462E+00
 -1       614 8.29073E-01
 -1       615 1.98611E+01
 -1       616 1.78604E+01
 -1       617 6.95613E+00
 -1       618 3.14096E-03
 -1       619 3.19813E-01
 -1       620 2.74545E-01
 -1       621 3.89196E-01
 -1       622 4.29842E-01
 -1       623 4.21407E-01
 -1       624 3.31678E+00
 -1       625 2.99557E-01
 -1       626 7.55568E+00
 -1       627 2.75044E-01
 -1       628 2.03492E-01
 -1       629 2.43114E-01
 -1       630 3.23976E-01
 -1       631 4.09761E-01
 -1       632 5.19724E-01
 -1       633 6.48169E-01
 -1       634 7.64989E-01
 -1       635 8.81764E-01
 -1       636 1.18787E+00
 -1       637 1.34361E+00
 -1       638 1.59613E+00
 -1       639 2.41836E+00
 -1       640 3.44949E+00
 -1       641 2.87274E+00
 -1       642 3.74356E+00
 -1       643 2.51882E+00
 -1       644 1.58368E+00
 -1       645 1.51989E+00
 -1       646 1.37345E+00
 -1       647 1.17176E+00
 -1       648 9.18339E-01
 -1       649 8.58622E-01
 -1       650 7.52519E-01
 -1       651 6.38201E-01
 -1       652 5.56252E-01
 -1       653 4.83022E-01
 -1       654 4.05392E-01
 -1       655 3.30726E-01
 -1       656 2.63161E-01
 -1       657 2.04615E-01
 -1       658 1.55564E-01
 -1       659 1.15611E-01
 -1       660 8.38727E-02
 -1       661 5.92519E-02
 -1       662 4.06006E-02
 -1       663 2.68237E-02
 -1       664 1.69336E-02
 -1       665 1.00739E-02
 -1       666 6.81191E-03
 -1       667 5.69633E-03
 -1       668 4.30961E-03
 -1       669 5.52612E-01
 -1       670 5.71128E+00
 -1       671 3.76293E-01
 -1       672 1.02637E+00
 -1       673 1.30887E+00
 -1       674 1.60009E+00
 -1       675 1.87315E+00
 -1       676 2.43309E+00
 -1       677 3.34837E+00
 -1       678 5.37871E+00
 -1       679 4.54465E+00
 -1       680 4.92438E+00
 -1       681 2.28993E+00
 -1       682 3.18475E+00
 -1       683 3.40400E+00
 -1       684 2.67477E+00
 -1       685 2.12791E+00
 -1       686 1.75502E+00
 -1       687 1.50134E+00
 -1       688 1.24449E+00
 -1       689 1.00775E+00
 -1       690 8.00851E-01
 -1       691 6.25950E-01
 -1       692 4.81629E-01
 -1       693 3.64870E-01
 -1       694 2.72033E-01
 -1       695 1.99384E-01
 -1       696 1.43404E-01
 -1       697 1.00934E-01
 -1       698 6.92388E-02
 -1       699 4.60127E-02
 -1       700 2.93504E-02
 -1       701 1.77048E-02
 -1       702 1.17851E-02
 -1       703 9.48725E-03
 -1       704 7.38982E-03
 -1       705 5.29943E-03
 -1       706 4.11568E-03
 -1       707 1.69237E-03
 -1       708 3.11667E-03
 -1       709 1.73770E-03
 -1       710 1.66342E-03
 -1       711 1.69237E-03
 -1       712 3.18508E+00
 -1       713 1.66342E-03
 -1       714 1.50585E-03
 -1       715 2.07058E-03
 -1       716 1.47559E+01
 -1       717 1.40499E+01
 -1       718 3.48293E+00
 -1       719 1.49544E+01
 -1       720 8.82278E+00
 -1       721 2.45927E-01
 -1       722 7.71621E-01
 -1       723 3.97661E-01
 -1       724 3.65201E-01
 -1       725 6.13171E+00
 -1       726 1.19110E+01
 -1       727 3.78889E-01
 -1       728 3.99844E+00
 -1       729 5.24209E+00
 -1       730 5.52660E+00
 -1       731 9.07772E+00
 -1       732 1.36557E+01
 -1       733 1.04798E+01
 -1       734 1.15384E+01
 -1       735 4.37579E+00
 -1       736 4.73774E+00
 -1       737 7.96700E+00
 -1       738 5.13229E+00
 -1       739 4.88556E-01
 -1       740 2.91524E-01
 -1       741 1.76028E-03
 -1       742 2.52528E-03
 -1       743 1.00398E+01
 -1       744 6.07793E-01
 -1       745 6.16296E+00
 -1       746 9.96439E+00
 -1       747 9.77735E+00
 -1       748 3.37381E-01
 -1       749 6.71757E+00
 -1       750 2.52675E-03
 -1       751 4.51304E+00
 -1       752 1.36467E+01
 -1       753 3.29256E+00
 -1       754 3.36618E-01
 -1       755 3.17663E-01
 -1       756 2.75200E-01
 -1       757 3.28741E-01
 -1       758 4.30995E-01
 -1       759 5.55912E-01
 -1       760 6.88316E-01
 -1       761 9.03630E-01
 -1       762 1.14841E+00
 -1       763 1.39678E+00
 -1       764 1.78188E+00
 -1       765 2.11399E+00
 -1       766 2.25713E+00
 -1       767 3.74356E+00
 -1       768 2.21684E+00
 -1       769 2.02338E+00
 -1       770 2.09294E+00
 -1       771 1.71883E+00
 -1       772 1.42744E+00
 -1       773 1.21727E+00
 -1       774 9.75046E-01
 -1       775 7.87565E-01
 -1       776 6.64541E-01
 -1       777 5.47579E-01
 -1       778 4.44768E-01
 -1       779 3.52735E-01
 -1       780 2.74162E-01
 -1       781 2.12256E-01
 -1       782 1.63352E-01
 -1       783 1.22016E-01
 -1       784 8.83819E-02
 -1       785 6.32167E-02
 -1       786 4.43391E-02
 -1       787 3.05955E-02
 -1       788 2.05307E-02
 -1       789 1.33380E-02
 -1       790 8.36598E-03
 -1       791 5.02437E-03
 -1       792 3.33932E-03
 -1       793 5.02223E-01
 -1       794 1.59813E+00
 -1       795 1.17864E+00
 -1       796 3.05386E+00
 -1       797 3.53831E+00
 -1       798 5.35743E+00
 -1       799 3.76287E+00
 -1       800 2.48617E+00
 -1       801 1.86190E+00
 -1       802 1.39973E+00
 -1       803 1.08259E+00
 -1       804 8.58605E-01
 -1       805 6.68169E-01
 -1       806 5.08626E-01
 -1       807 3.79659E-01
 -1       808 2.78056E-01
 -1       809 2.03970E-01
 -1       810 1.50744E-01
 -1       811 1.09622E-01
 -1       812 7.82339E-02
 -1       813 5.46195E-02
 -1       814 3.71523E-02
 -1       815 2.44903E-02
 -1       816 1.55368E-02
 -1       817 9.40263E-03
 -1       818 5.72774E-03
 -1       819 4.57786E-03
 -1       820 3.18633E-03
 -1       821 3.74356E+00
 -1       822 2.08600E-01
 -1       823 5.48153E+00
 -1       824 3.64246E-03
 -1       825 2.56756E-03
 -1       826 3.54816E-03
 -1       827 9.39338E+00
 -1       828 6.44194E+00
 -1       829 3.66534E+00
 -1       830 9.94040E+00
 -1       831 3.50480E-03
 -1       832 5.33360E+00
 -1       833 2.55145E+00
 -1       834 2.21862E+00
 -1       835 4.10612E+00
 -1       836 3.08291E+00
 -1       837 5.55370E+00
 -1       838 2.63955E-01
 -1       839 7.49974E+00
 -1       840 3.97661E-01
 -1       841 9.47221E+00
 -1       842 2.99557E-01
 -1       843 6.95154E+00
 -1       844 3.44949E+00
 -1       845 7.79522E+00
 -1       846 1.81044E-01
 -1       847 4.02899E-01
 -1       848 6.76051E+00
 -1       849 2.55266E-01
 -1       850 3.05336E-03
 -1       851 3.24877E-01
 -1       852 2.38963E-01
 -1       853 8.78992E-01
 -1       854 2.84451E-01
 -1       855 7.39470E+00
 -1       856 3.47419E-03
 -1       857 3.64246E-03
 -1       858 7.84844E+00
 -1       859 4.14839E-01
 -1       860 9.07576E+00
 -1       861 8.06203E+00
 -1       862 6.64559E-01
 -1       863 2.52675E-03
 -1       864 4.33512E-01
 -1       865 5.58927E-01
 -1       866 7.58699E-01
 -1       867 1.01320E+00
 -1       868 1.29169E+00
 -1       869 1.71360E+00
 -1       870 2.05017E+00
 -1       871 3.38757E+00
 -1       872 2.60818E+00
 -1       873 2.33827E+00
 -1       874 2.26559E+00
 -1       875 1.76537E+00
 -1       876 1.33909E+00
 -1       877 1.07522E+00
 -1       878 8.31017E-01
 -1       879 6.35117E-01
 -1       880 5.11082E-01
 -1       881 4.13476E-01
 -1       882 3.38464E-01
 -1       883 2.69879E-01
 -1       884 2.10162E-01
 -1       885 1.59974E-01
 -1       886 1.18984E-01
 -1       887 8.63390E-02
 -1       888 6.09460E-02
 -1       889 4.22762E-02
 -1       890 2.86860E-02
 -1       891 1.87046E-02
 -1       892 1.15555E-02
 -1       893 6.56905E-03
 -1       894 2.38963E-01
 -1       895 7.84844E+00
 -1       896 4.16305E+00
 -1       897 2.44161E+00
 -1       898 4.51683E+00
 -1       899 1.39497E+00
 -1       900 1.08008E+00
 -1       901 8.29651E-01
 -1       902 6.32585E-01
 -1       903 4.78097E-01
 -1       904 3.57596E-01
 -1       905 2.64212E-01
 -1       906 1.92416E-01
 -1       907 1.37750E-01
 -1       908 9.66051E-02
 -1       909 6.72787E-02
 -1       910 4.58914E-02
 -1       911 3.02955E-02
 -1       912 1.92458E-02
 -1       913 1.15598E-02
 -1       914 7.32161E-03
 -1       915 5.48563E-03
 -1       916 4.03050E+00
 -1       917 5.52874E+00
 -1       918 3.05336E-03
 -1       919 6.37802E-03
 -1       920 4.33169E+00
 -1       921 1.79554E+00
 -1       922 1.57184E+00
 -1       923 3.58238E-01
 -1       924 5.58950E+00
 -1       925 3.44240E-01
 -1       926 6.27736E-01
 -1       927 3.01116E+00
 -1       928 2.63955E-01
 -1       929 6.47079E+00
 -1       930 5.96818E+00
 -1       931 4.29343E-01
 -1       932 4.46668E+00
 -1       933 3.12167E-03
 -1       934 2.49439E+00
 -1       935 6.19379E+00
 -1       936 1.17864E+00
 -1       937 3.36589E-01
 -1       938 2.26990E-01
 -1       939 6.37802E-03
 -1       940 8.64587E-03
 -1       941 2.12072E+00
 -1       942 6.01978E+00
 -1       943 6.30151E+00
 -1       944 8.68872E-01
 -1       945 2.28507E-01
 -1       946 4.77259E-01
 -1       947 1.04386E-02
 -1       948 4.78435E+00
 -1       949 5.55606E+00
 -1       950 5.16524E+00
 -1       951 1.84267E-01
 -1       952 5.51821E-03
 -1       953 5.65682E-01
 -1       954 4.29343E-01
 -1       955 7.66322E-01
 -1       956 1.01820E+00
 -1       957 1.47128E+00
 -1       958 2.00385E+00
 -1       959 2.33827E+00
 -1       960 3.19493E+00
 -1       961 1.76537E+00
 -1       962 1.48617E+00
 -1       963 1.03795E+00
 -1       964 8.01408E-01
 -1       965 6.29552E-01
 -1       966 5.11082E-01
 -1       967 4.07536E-01
 -1       968 3.20123E-01
 -1       969 2.47789E-01
 -1       970 1.88876E-01
 -1       971 1.41600E-01
 -1       972 1.04227E-01
 -1       973 7.51379E-02
 -1       974 5.28723E-02
 -1       975 3.61348E-02
 -1       976 2.45058E-02
 -1       977 1.60913E-02
 -1       978 1.00683E-02
 -1       979 3.77626E+00
 -1       980 9.39710E-01
 -1       981 1.26577E+00
 -1       982 5.34315E-01
 -1       983 4.03558E-01
 -1       984 3.03191E-01
 -1       985 2.25736E-01
 -1       986 1.66016E-01
 -1       987 1.20230E-01
 -1       988 8.54478E-02
 -1       989 5.93496E-02
 -1       990 4.07663E-02
 -1       991 2.74555E-02
 -1       992 1.78301E-02
 -1       993 1.33743E-02
 -1       994 5.45817E+00
 -1       995 5.39180E-01
 -1       996 2.31554E+00
 -1       997 2.41118E+00
 -1       998 1.04386E-02
 -1       999 4.41834E-01
 -1      1000 1.61904E-01
 -1      1001 7.51171E-01
 -1      1002 3.44260E-01
 -1      1003 1.73912E+00
 -1      1004 5.32246E+00
 -1      1005 4.29343E-01
 -1      1006 7.06889E-01
 -1      1007 3.44240E-01
 -1      1008 3.43510E+00
 -1      1009 3.22113E-01
 -1      1010 4.16644E-01
 -1      1011 1.33743E-02
 -1      1012 4.24452E+00
 -1      1013 1.48201E+00
 -1      1014 9.66019E-03
 -1      1015 3.38864E-01
 -1      1016 9.54645E-03
 -1      1017 2.80709E+00
 -1      1018 2.12072E+00
 -1      1019 4.99866E+00
 -1      1020 4.46039E+00
 -1      1021 1.04890E+00
 -1      1022 7.66322E-01
 -1      1023 1.01820E+00
 -1      1024 1.44646E+00
 -1      1025 2.04655E+00
 -1      1026 9.29743E-01
 -1      1027 2.97993E+00
 -1      1028 2.41834E+00
 -1      1029 4.64789E-01
 -1      1030 2.24960E+00
 -1      1031 1.34510E+00
 -1      1032 1.03625E+00
 -1      1033 8.01408E-01
 -1      1034 6.13542E-01
 -1      1035 4.68604E-01
 -1      1036 3.57325E-01
 -1      1037 2.71217E-01
 -1      1038 2.04373E-01
 -1      1039 1.52502E-01
 -1      1040 1.12390E-01
 -1      1041 8.15707E-02
 -1      1042 5.81090E-02
 -1      1043 4.04655E-02
 -1      1044 2.73846E-02
 -1      1045 2.00286E-02
 -1      1046 1.16330E-02
 -1      1047 3.86138E+00
 -1      1048 4.01016E+00
 -1      1049 3.04722E-01
 -1      1050 3.98947E-01
 -1      1051 1.74124E-01
 -1      1052 1.29268E-01
 -1      1053 9.44219E-02
 -1      1054 6.76371E-02
 -1      1055 4.73329E-02
 -1      1056 3.22314E-02
 -1      1057 2.19356E-02
 -1      1058 1.51680E-02
 -1      1059 6.49100E-01
 -1      1060 5.65682E-01
 -1      1061 4.04710E-01
 -1      1062 9.66019E-03
 -1      1063 4.39699E+00
 -1      1064 1.29340E+00
 -1      1065 1.90286E+00
 -1      1066 2.31477E-01
 -1      1067 3.27921E+00
 -1      1068 4.39699E+00
 -1      1069 6.91109E-01
 -1      1070 2.93236E-01
 -1      1071 5.22652E-01
 -1      1072 9.06676E-01
 -1      1073 3.56370E-01
 -1      1074 2.25050E-02
 -1      1075 3.72152E+00
 -1      1076 1.27410E+00
 -1      1077 3.22799E+00
 -1      1078 1.55073E+00
 -1      1079 2.25050E-02
 -1      1080 2.12331E+00
 -1      1081 3.16991E+00
 -1      1082 1.69238E+00
 -1      1083 9.35813E-01
 -1      1084 2.05152E+00
 -1      1085 2.89654E+00
 -1      1086 1.34510E+00
 -1      1087 1.01285E+00
 -1      1088 6.94415E-01
 -1      1089 5.03579E-01
 -1      1090 3.68748E-01
 -1      1091 2.73419E-01
 -1      1092 2.14524E-01
 -1      1093 1.66159E-01
 -1      1094 1.26908E-01
 -1      1095 9.52316E-02
 -1      1096 7.01722E-02
 -1      1097 5.05782E-02
 -1      1098 3.54507E-02
 -1      1099 2.40116E-02
 -1      1100 9.51674E-02
 -1      1101 1.44614E+00
 -1      1102 3.72152E+00
 -1      1103 1.53971E-02
 -1      1104 1.26908E-01
 -1      1105 1.65710E-01
 -1      1106 6.97402E-02
 -1      1107 4.96730E-02
 -1      1108 3.41033E-02
 -1      1109 5.06865E-01
 -1      1110 1.01306E+00
 -1      1111 3.27266E-01
 -1      1112 6.26631E-01
 -1      1113 6.59134E-01
 -1      1114 4.08617E-01
 -1      1115 2.45715E+00
 -1      1116 1.47006E+00
 -1      1117 1.51124E-02
 -1      1118 2.66098E-01
 -1      1119 7.22253E-01
 -1      1120 3.01126E+00
 -1      1121 2.12073E-01
 -1      1122 1.00707E+00
 -1      1123 2.08891E+00
 -1      1124 1.67386E+00
 -1      1125 5.38518E-01
 -1      1126 1.82584E+00
 -1      1127 1.95873E-02
 -1      1128 2.76817E+00
 -1      1129 1.29504E+01
 -1      1130 8.25377E+00
 -1      1131 2.67946E+00
 -1      1132 1.55375E+00
 -1      1133 1.17672E+00
 -1      1134 9.62319E-01
 -1      1135 8.17050E-01
 -1      1136 7.14730E-01
 -1      1137 6.70776E-01
 -1      1138 7.11438E-01
 -1      1139 8.11389E-01
 -1      1140 9.58713E-01
 -1      1141 1.18301E+00
 -1      1142 1.56328E+00
 -1      1143 2.59992E+00
 -1      1144 5.89518E+00
 -1      1145 1.11211E+01
 -1      1146 1.29504E+01
 -1      1147 8.61495E+00
 -1      1148 3.75277E+00
 -1      1149 2.59776E+00
 -1      1150 1.68878E+00
 -1      1151 1.23379E+00
 -1      1152 9.25112E-01
 -1      1153 6.99199E-01
 -1      1154 6.07718E-01
 -1      1155 6.57008E-01
 -1      1156 7.67376E-01
 -1      1157 8.30394E-01
 -1      1158 8.40644E-01
 -1      1159 8.48953E-01
 -1      1160 9.88556E-01
 -1      1161 1.32226E+00
 -1      1162 1.98313E+00
 -1      1163 2.71955E+00
 -1      1164 2.98920E+00
 -1      1165 2.98385E+00
 -1      1166 2.97850E+00
 -1      1167 2.68113E+00
 -1      1168 1.90965E+00
 -1      1169 1.28716E+00
 -1      1170 1.02474E+00
 -1      1171 9.10700E-01
 -1      1172 8.80350E-01
 -1      1173 8.49999E-01
 -1      1174 8.04912E-01
 -1      1175 6.93145E-01
 -1      1176 5.62152E-01
 -1      1177 4.43135E-01
 -1      1178 3.63939E-01
 -1      1179 3.12198E-01
 -1      1180 2.57578E-01
 -1      1181 2.05036E-01
 -1      1182 1.58026E-01
 -1      1183 1.18062E-01
 -1      1184 9.15530E-02
 -1      1185 7.59244E-02
 -1      1186 6.18830E-02
 -1      1187 4.89981E-02
 -1      1188 3.75934E-02
 -1      1189 2.77302E-02
 -1      1190 2.08014E-02
 -1      1191 1.61534E-02
 -1      1192 1.15447E-02
 -1      1193 7.46320E-03
 -1      1194 4.97506E-03
 -1      1195 2.53058E-03
 -1      1196 1.38430E+01
 -1      1197 8.62765E+00
 -1      1198 2.90407E+00
 -1      1199 2.01690E+00
 -1      1200 1.49826E+00
 -1      1201 1.27473E+00
 -1      1202 1.12712E+00
 -1      1203 1.00739E+00
 -1      1204 9.83895E-01
 -1      1205 1.03663E+00
 -1      1206 1.06064E+00
 -1      1207 1.20579E+00
 -1      1208 1.49455E+00
 -1      1209 1.70016E+00
 -1      1210 1.94881E+00
 -1      1211 2.17264E+00
 -1      1212 2.53562E+00
 -1      1213 3.67323E+00
 -1      1214 4.76585E+00
 -1      1215 5.27900E+00
 -1      1216 5.50766E+00
 -1      1217 4.65298E+00
 -1      1218 2.95084E+00
 -1      1219 1.88125E+00
 -1      1220 1.81453E+00
 -1      1221 1.96997E+00
 -1      1222 1.94584E+00
 -1      1223 1.79751E+00
 -1      1224 1.53616E+00
 -1      1225 1.26721E+00
 -1      1226 1.00951E+00
 -1      1227 7.73870E-01
 -1      1228 5.73884E-01
 -1      1229 4.24015E-01
 -1      1230 3.20518E-01
 -1      1231 2.41140E-01
 -1      1232 1.77580E-01
 -1      1233 1.27870E-01
 -1      1234 8.97513E-02
 -1      1235 6.24989E-02
 -1      1236 4.71441E-02
 -1      1237 3.84045E-02
 -1      1238 3.04575E-02
 -1      1239 2.34554E-02
 -1      1240 1.89319E-02
 -1      1241 1.60120E-02
 -1      1242 1.24309E-02
 -1      1243 8.48741E-03
 -1      1244 5.32072E-03
 -1      1245 2.48514E-03
 -1      1246 1.38147E-03
 -1      1247 1.58567E-03
 -1      1248 8.30594E-04
 -1      1249 5.65346E-04
 -1      1250 7.01359E-04
 -1      1251 7.13371E-04
 -1      1252 6.74197E-04
 -1      1253 5.89689E-04
 -1      1254 5.33747E-04
 -1      1255 5.56504E-04
 -1      1256 6.24866E-04
 -1      1257 6.59863E-04
 -1      1258 6.50719E-04
 -1      1259 5.30536E-04
 -1      1260 9.88844E-04
 -1      1261 2.13672E-03
 -1      1262 1.77317E-03
 -1      1263 2.48723E+01
 -1      1264 3.70716E+01
 -1      1265 4.91016E+01
 -1      1266 3.59942E+01
 -1      1267 1.74921E+01
 -1      1268 1.25512E+01
 -1      1269 1.30051E+01
 -1      1270 1.28538E+01
 -1      1271 1.25002E+01
 -1      1272 1.37449E+01
 -1      1273 2.76883E+01
 -1      1274 4.01848E+01
 -1      1275 3.29365E+01
 -1      1276 2.56883E+01
 -1      1277 2.55869E+01
 -1      1278 2.75127E+01
 -1      1279 2.95400E+01
 -1      1280 2.84040E+01
 -1      1281 1.95980E+01
 -1      1282 1.19263E+01
 -1      1283 1.19942E+01
 -1      1284 1.20640E+01
 -1      1285 1.19557E+01
 -1      1286 1.18475E+01
 -1      1287 1.18209E+01
 -1      1288 1.84603E+01
 -1      1289 2.80049E+01
 -1      1290 3.08835E+01
 -1      1291 2.77932E+01
 -1      1292 2.47029E+01
 -1      1293 1.29504E+01
 -1      1294 4.72928E+00
 -1      1295 9.42589E+00
 -1      1296 2.04281E+00
 -1      1297 2.92049E+00
 -1      1298 4.09262E+00
 -1      1299 1.42004E+00
 -1      1300 1.66806E+00
 -1      1301 1.90909E+00
 -1      1302 1.11044E+00
 -1      1303 1.23945E+00
 -1      1304 1.35376E+00
 -1      1305 9.20321E-01
 -1      1306 1.00570E+00
 -1      1307 1.06844E+00
 -1      1308 7.90393E-01
 -1      1309 8.50279E-01
 -1      1310 8.93664E-01
 -1      1311 6.98217E-01
 -1      1312 7.40651E-01
 -1      1313 7.73880E-01
 -1      1314 6.62811E-01
 -1      1315 6.64332E-01
 -1      1316 6.90253E-01
 -1      1317 7.37397E-01
 -1      1318 6.95214E-01
 -1      1319 6.88771E-01
 -1      1320 8.43905E-01
 -1      1321 7.86137E-01
 -1      1322 7.69913E-01
 -1      1323 1.00686E+00
 -1      1324 9.17308E-01
 -1      1325 8.92056E-01
 -1      1326 1.25088E+00
 -1      1327 1.11613E+00
 -1      1328 1.07473E+00
 -1      1329 1.67989E+00
 -1      1330 1.43436E+00
 -1      1331 1.36748E+00
 -1      1332 2.83057E+00
 -1      1333 2.03946E+00
 -1      1334 1.91054E+00
 -1      1335 6.11096E+00
 -1      1336 3.60680E+00
 -1      1337 3.04634E+00
 -1      1338 1.38430E+01
 -1      1339 1.11211E+01
 -1      1340 8.83277E+00
 -1      1341 1.38430E+01
 -1      1342 8.61495E+00
 -1      1343 4.27953E+00
 -1      1344 3.75277E+00
 -1      1345 3.22602E+00
 -1      1346 3.75277E+00
 -1      1347 2.59776E+00
 -1      1348 1.96951E+00
 -1      1349 2.59776E+00
 -1      1350 1.68878E+00
 -1      1351 1.40804E+00
 -1      1352 1.68878E+00
 -1      1353 1.23379E+00
 -1      1354 1.05955E+00
 -1      1355 1.23379E+00
 -1      1356 9.25112E-01
 -1      1357 7.90680E-01
 -1      1358 9.25112E-01
 -1      1359 6.96736E-01
 -1      1360 6.05255E-01
 -1      1361 6.96736E-01
 -1      1362 6.07718E-01
 -1      1363 6.07718E-01
 -1      1364 6.05255E-01
 -1      1365 6.03087E-01
 -1      1366 6.52377E-01
 -1      1367 6.03087E-01
 -1      1368 7.06298E-01
 -1      1369 7.67376E-01
 -1      1370 6.52377E-01
 -1      1371 8.28453E-01
 -1      1372 8.30394E-01
 -1      1373 7.67376E-01
 -1      1374 8.32335E-01
 -1      1375 8.40644E-01
 -1      1376 8.30394E-01
 -1      1377 8.48953E-01
 -1      1378 8.48953E-01
 -1      1379 8.40644E-01
 -1      1380 8.33585E-01
 -1      1381 9.73188E-01
 -1      1382 8.33585E-01
 -1      1383 1.12816E+00
 -1      1384 1.32226E+00
 -1      1385 9.73188E-01
 -1      1386 1.57796E+00
 -1      1387 2.04473E+00
 -1      1388 1.38386E+00
 -1      1389 2.44990E+00
 -1      1390 2.71955E+00
 -1      1391 2.04473E+00
 -1      1392 2.98920E+00
 -1      1393 2.98920E+00
 -1      1394 2.71955E+00
 -1      1395 2.95679E+00
 -1      1396 2.95144E+00
 -1      1397 2.95679E+00
 -1      1398 2.97850E+00
 -1      1399 2.97850E+00
 -1      1400 2.95144E+00
 -1      1401 2.68113E+00
 -1      1402 2.38377E+00
 -1      1403 2.68113E+00
 -1      1404 1.98362E+00
 -1      1405 1.50950E+00
 -1      1406 1.98362E+00
 -1      1407 1.28716E+00
 -1      1408 1.13878E+00
 -1      1409 1.36112E+00
 -1      1410 1.00935E+00
 -1      1411 8.95306E-01
 -1      1412 1.00935E+00
 -1      1413 9.10700E-01
 -1      1414 9.10700E-01
 -1      1415 8.95306E-01
 -1      1416 8.77196E-01
 -1      1417 8.46845E-01
 -1      1418 8.77196E-01
 -1      1419 8.49999E-01
 -1      1420 8.49999E-01
 -1      1421 8.46845E-01
 -1      1422 8.04912E-01
 -1      1423 7.59826E-01
 -1      1424 8.04912E-01
 -1      1425 6.93145E-01
 -1      1426 6.26464E-01
 -1      1427 6.93145E-01
 -1      1428 5.75017E-01
 -1      1429 5.10705E-01
 -1      1430 5.75017E-01
 -1      1431 4.74302E-01
 -1      1432 4.19596E-01
 -1      1433 4.87166E-01
 -1      1434 3.79151E-01
 -1      1435 3.54660E-01
 -1      1436 4.10317E-01
 -1      1437 3.14522E-01
 -1      1438 2.87272E-01
 -1      1439 3.29734E-01
 -1      1440 2.57578E-01
 -1      1441 2.30210E-01
 -1      1442 2.59903E-01
 -1      1443 2.05036E-01
 -1      1444 1.79861E-01
 -1      1445 2.05036E-01
 -1      1446 1.60555E-01
 -1      1447 1.38720E-01
 -1      1448 1.60555E-01
 -1      1449 1.22058E-01
 -1      1450 1.03929E-01
 -1      1451 1.24587E-01
 -1      1452 9.15530E-02
 -1      1453 8.31737E-02
 -1      1454 9.55492E-02
 -1      1455 7.59244E-02
 -1      1456 6.86751E-02
 -1      1457 7.59244E-02
 -1      1458 6.18830E-02
 -1      1459 5.50908E-02
 -1      1460 6.18830E-02
 -1      1461 4.89981E-02
 -1      1462 4.29054E-02
 -1      1463 4.89981E-02
 -1      1464 3.75934E-02
 -1      1465 3.22814E-02
 -1      1466 3.75934E-02
 -1      1467 2.79889E-02
 -1      1468 2.34377E-02
 -1      1469 2.79889E-02
 -1      1470 2.08014E-02
 -1      1471 1.84238E-02
 -1      1472 2.10601E-02
 -1      1473 1.61534E-02
 -1      1474 1.38831E-02
 -1      1475 1.61534E-02
 -1      1476 1.15447E-02
 -1      1477 9.20635E-03
 -1      1478 1.15447E-02
 -1      1479 7.46320E-03
 -1      1480 5.72006E-03
 -1      1481 7.46320E-03
 -1      1482 4.97506E-03
 -1      1483 4.23007E-03
 -1      1484 4.97506E-03
 -1      1485 3.47266E-03
 -1      1486 3.47266E-03
 -1      1487 3.41234E+00
 -1      1488 8.62765E+00
 -1      1489 8.62765E+00
 -1      1490 2.39580E+00
 -1      1491 2.90407E+00
 -1      1492 2.90407E+00
 -1      1493 1.63800E+00
 -1      1494 2.01690E+00
 -1      1495 2.01690E+00
 -1      1496 1.35853E+00
 -1      1497 1.49826E+00
 -1      1498 1.49826E+00
 -1      1499 1.19094E+00
 -1      1500 1.27473E+00
 -1      1501 1.27473E+00
 -1      1502 1.06330E+00
 -1      1503 1.12712E+00
 -1      1504 1.12712E+00
 -1      1505 9.51479E-01
 -1      1506 1.00739E+00
 -1      1507 1.00739E+00
 -1      1508 9.72772E-01
 -1      1509 9.40356E-01
 -1      1510 9.40356E-01
 -1      1511 1.03663E+00
 -1      1512 1.01631E+00
 -1      1513 9.72772E-01
 -1      1514 1.06064E+00
 -1      1515 1.05695E+00
 -1      1516 1.03663E+00
 -1      1517 1.23366E+00
 -1      1518 1.09221E+00
 -1      1519 1.08851E+00
 -1      1520 1.49455E+00
 -1      1521 1.34724E+00
 -1      1522 1.23366E+00
 -1      1523 1.70016E+00
 -1      1524 1.64185E+00
 -1      1525 1.49455E+00
 -1      1526 1.94881E+00
 -1      1527 1.75846E+00
 -1      1528 1.70016E+00
 -1      1529 2.17264E+00
 -1      1530 2.13916E+00
 -1      1531 1.94881E+00
 -1      1532 2.53562E+00
 -1      1533 2.20613E+00
 -1      1534 2.17264E+00
 -1      1535 3.71770E+00
 -1      1536 2.90959E+00
 -1      1537 2.58009E+00
 -1      1538 4.76585E+00
 -1      1539 4.48134E+00
 -1      1540 3.71770E+00
 -1      1541 5.27900E+00
 -1      1542 5.05035E+00
 -1      1543 4.76585E+00
 -1      1544 5.50766E+00
 -1      1545 5.50766E+00
 -1      1546 5.27900E+00
 -1      1547 3.79829E+00
 -1      1548 4.65298E+00
 -1      1549 4.65298E+00
 -1      1550 2.10339E+00
 -1      1551 2.95084E+00
 -1      1552 2.95084E+00
 -1      1553 1.57307E+00
 -1      1554 1.79521E+00
 -1      1555 1.79521E+00
 -1      1556 1.81939E+00
 -1      1557 1.66396E+00
 -1      1558 1.57792E+00
 -1      1559 1.96997E+00
 -1      1560 1.96997E+00
 -1      1561 1.81939E+00
 -1      1562 1.92172E+00
 -1      1563 1.94584E+00
 -1      1564 1.94584E+00
 -1      1565 1.67330E+00
 -1      1566 1.79751E+00
 -1      1567 1.79751E+00
 -1      1568 1.39903E+00
 -1      1569 1.53616E+00
 -1      1570 1.53616E+00
 -1      1571 1.14288E+00
 -1      1572 1.27470E+00
 -1      1573 1.27470E+00
 -1      1574 9.02438E-01
 -1      1575 1.02832E+00
 -1      1576 1.03581E+00
 -1      1577 6.87671E-01
 -1      1578 7.97427E-01
 -1      1579 8.16239E-01
 -1      1580 5.07894E-01
 -1      1581 5.98123E-01
 -1      1582 6.21680E-01
 -1      1583 3.75566E-01
 -1      1584 4.35206E-01
 -1      1585 4.59445E-01
 -1      1586 2.77671E-01
 -1      1587 3.21528E-01
 -1      1588 3.32719E-01
 -1      1589 2.05618E-01
 -1      1590 2.41140E-01
 -1      1591 2.42150E-01
 -1      1592 1.49675E-01
 -1      1593 1.77713E-01
 -1      1594 1.77713E-01
 -1      1595 1.07575E-01
 -1      1596 1.29247E-01
 -1      1597 1.29380E-01
 -1      1598 7.53544E-02
 -1      1599 9.18006E-02
 -1      1600 9.31779E-02
 -1      1601 5.25712E-02
 -1      1602 6.33774E-02
 -1      1603 6.54267E-02
 -1      1604 4.25955E-02
 -1      1605 4.71441E-02
 -1      1606 4.80226E-02
 -1      1607 3.42136E-02
 -1      1608 3.84045E-02
 -1      1609 3.84045E-02
 -1      1610 2.67015E-02
 -1      1611 3.04575E-02
 -1      1612 3.04575E-02
 -1      1613 2.02094E-02
 -1      1614 2.34554E-02
 -1      1615 2.34554E-02
 -1      1616 1.76545E-02
 -1      1617 1.89319E-02
 -1      1618 1.89319E-02
 -1      1619 1.43696E-02
 -1      1620 1.60120E-02
 -1      1621 1.60120E-02
 -1      1622 1.04922E-02
 -1      1623 1.24309E-02
 -1      1624 1.24309E-02
 -1      1625 6.48259E-03
 -1      1626 8.48741E-03
 -1      1627 8.48741E-03
 -1      1628 4.15884E-03
 -1      1629 5.32072E-03
 -1      1630 5.32072E-03
 -1      1631 3.05517E-03
 -1      1632 1.27409E-03
 -1      1633 1.63991E-03
 -1      1634 7.11625E-04
 -1      1635 1.10087E-03
 -1      1636 1.15512E-03
 -1      1637 9.44161E-04
 -1      1638 8.20160E-04
 -1      1639 1.09044E-03
 -1      1640 9.71089E-04
 -1      1641 9.59077E-04
 -1      1642 1.21389E-03
 -1      1643 9.71089E-04
 -1      1644 9.71089E-04
 -1      1645 1.22881E-03
 -1      1646 9.07865E-04
 -1      1647 9.47039E-04
 -1      1648 1.20476E-03
 -1      1649 7.79599E-04
 -1      1650 8.24932E-04
 -1      1651 1.09777E-03
 -1      1652 6.88092E-04
 -1      1653 6.98701E-04
 -1      1654 9.33943E-04
 -1      1655 7.66658E-04
 -1      1656 7.33293E-04
 -1      1657 8.98246E-04
 -1      1658 8.71793E-04
 -1      1659 8.36796E-04
 -1      1660 1.01359E-03
 -1      1661 8.98409E-04
 -1      1662 8.98409E-04
 -1      1663 1.11034E-03
 -1      1664 8.89265E-04
 -1      1665 8.98409E-04
 -1      1666 1.13695E-03
 -1      1667 7.52265E-04
 -1      1668 8.63305E-04
 -1      1669 1.11099E-03
 -1      1670 1.24575E-03
 -1      1671 6.76400E-04
 -1      1672 1.00917E-03
 -1      1673 2.58184E-03
 -1      1674 2.00332E-03
 -1      1675 1.69087E-03
 -1      1676 3.33925E-03
 -1      1677 2.85027E+01
 -1      1678 2.83333E+01
 -1      1679 3.98685E+01
 -1      1680 2.78386E+01
 -1      1681 4.91016E+01
 -1      1682 4.91016E+01
 -1      1683 2.37381E+01
 -1      1684 3.68454E+01
 -1      1685 1.19907E+01
 -1      1686 1.73855E+01
 -1      1687 1.25512E+01
 -1      1688 1.20973E+01
 -1      1689 1.30051E+01
 -1      1690 1.30051E+01
 -1      1691 1.27025E+01
 -1      1692 1.28538E+01
 -1      1693 1.22980E+01
 -1      1694 1.25002E+01
 -1      1695 1.33744E+01
 -1      1696 1.19275E+01
 -1      1697 2.76883E+01
 -1      1698 1.51918E+01
 -1      1699 4.01848E+01
 -1      1700 4.01848E+01
 -1      1701 3.10151E+01
 -1      1702 3.82633E+01
 -1      1703 2.73530E+01
 -1      1704 2.73530E+01
 -1      1705 2.72516E+01
 -1      1706 2.73530E+01
 -1      1707 3.16127E+01
 -1      1708 2.95854E+01
 -1      1709 3.16127E+01
 -1      1710 3.16127E+01
 -1      1711 2.82492E+01
 -1      1712 2.93852E+01
 -1      1713 1.19280E+01
 -1      1714 1.95980E+01
 -1      1715 1.14993E+01
 -1      1716 1.15010E+01
 -1      1717 1.19942E+01
 -1      1718 1.19245E+01
 -1      1719 1.20640E+01
 -1      1720 1.20640E+01
 -1      1721 1.17770E+01
 -1      1722 1.18853E+01
 -1      1723 1.18475E+01
 -1      1724 1.18475E+01
 -1      1725 1.14526E+01
 -1      1726 1.14792E+01
 -1      1727 1.84603E+01
 -1      1728 1.17943E+01
 -1      1729 2.89435E+01
 -1      1730 2.60649E+01
 -1      1731 3.10267E+01
 -1      1732 3.10267E+01
 -1      1733 2.79364E+01
 -1      1734 3.10267E+01
 -1      1735 2.83333E+01
 -1      1736 2.83333E+01
 -1      1737 1.82367E+01
 -1      1738 3.68454E+01
 -1      1739 3.05517E-03
 -1      1740 2.74359E-03
 -1      1741 3.12996E+01
 -1      1742 3.98685E+01
 -1      1743 3.19637E+01
 -1      1744 1.19907E+01
 -1      1745 1.25512E+01
 -1      1746 1.28538E+01
 -1      1747 1.25002E+01
 -1      1748 1.19275E+01
 -1      1749 1.33744E+01
 -1      1750 2.76883E+01
 -1      1751 3.82633E+01
 -1      1752 3.26798E+01
 -1      1753 2.90177E+01
 -1      1754 3.13516E+01
 -1      1755 3.36854E+01
 -1      1756 3.14579E+01
 -1      1757 2.05792E+01
 -1      1758 1.15010E+01
 -1      1759 1.14993E+01
 -1      1760 1.19942E+01
 -1      1761 1.18853E+01
 -1      1762 1.17770E+01
 -1      1763 1.14792E+01
 -1      1764 1.14526E+01
 -1      1765 1.93989E+01
 -1      1766 2.90866E+01
 -1      1767 3.11698E+01
 -1      1768 3.15667E+01
 -1      1769 9.42589E+00
 -1      1770 1.29788E+00
 -1      1771 1.67262E+00
 -1      1772 2.33992E+00
 -1      1773 4.14870E+00
 -1      1774 1.72870E+00
 -1      1775 8.85217E-01
 -1      1776 9.89948E-01
 -1      1777 7.55671E-01
 -1      1778 8.25714E-01
 -1      1779 7.47224E-01
 -1      1780 6.62649E-01
 -1      1781 7.12391E-01
 -1      1782 6.44441E-01
 -1      1783 5.94281E-01
 -1      1784 6.28166E-01
 -1      1785 5.66677E-01
 -1      1786 6.25594E-01
 -1      1787 5.93191E-01
 -1      1788 5.31104E-01
 -1      1789 7.07713E-01
 -1      1790 6.58973E-01
 -1      1791 5.63394E-01
 -1      1792 8.27468E-01
 -1      1793 7.54065E-01
 -1      1794 6.43125E-01
 -1      1795 9.95557E-01
 -1      1796 8.86287E-01
 -1      1797 7.48295E-01
 -1      1798 1.25458E+00
 -1      1799 1.07110E+00
 -1      1800 8.82655E-01
 -1      1801 1.72035E+00
 -1      1802 1.36078E+00
 -1      1803 1.06440E+00
 -1      1804 2.56510E+00
 -1      1805 1.78887E+00
 -1      1806 1.23911E+00
 -1      1807 7.95737E+00
 -1      1808 2.94718E+00
 -1      1809 1.68970E+00
 -1      1810 2.74206E+00
 -1      1811 5.09047E+00
 -1      1812 2.06797E+00
 -1      1813 2.57624E+00
 -1      1814 1.90596E+00
 -1      1815 3.33776E+00
 -1      1816 2.41005E+00
 -1      1817 1.78179E+00
 -1      1818 1.52703E+00
 -1      1819 1.24629E+00
 -1      1820 1.33931E+00
 -1      1821 1.07855E+00
 -1      1822 9.04297E-01
 -1      1823 9.16797E-01
 -1      1824 8.30437E-01
 -1      1825 6.96005E-01
 -1      1826 6.75189E-01
 -1      1827 6.19381E-01
 -1      1828 5.25437E-01
 -1      1829 5.24706E-01
 -1      1830 5.19825E-01
 -1      1831 5.22289E-01
 -1      1832 4.42470E-01
 -1      1833 5.21614E-01
 -1      1834 5.16983E-01
 -1      1835 4.36185E-01
 -1      1836 5.30631E-01
 -1      1837 5.84553E-01
 -1      1838 4.49159E-01
 -1      1839 6.26865E-01
 -1      1840 6.87942E-01
 -1      1841 5.05119E-01
 -1      1842 6.84436E-01
 -1      1843 6.86377E-01
 -1      1844 5.43925E-01
 -1      1845 6.39913E-01
 -1      1846 6.48222E-01
 -1      1847 4.93955E-01
 -1      1848 6.56226E-01
 -1      1849 6.40858E-01
 -1      1850 4.55495E-01
 -1      1851 7.76876E-01
 -1      1852 9.31847E-01
 -1      1853 5.99517E-01
 -1      1854 1.16216E+00
 -1      1855 1.41786E+00
 -1      1856 9.65843E-01
 -1      1857 1.58678E+00
 -1      1858 1.99195E+00
 -1      1859 1.36507E+00
 -1      1860 2.16986E+00
 -1      1861 2.43951E+00
 -1      1862 1.71191E+00
 -1      1863 2.45372E+00
 -1      1864 2.42130E+00
 -1      1865 1.90402E+00
 -1      1866 2.43458E+00
 -1      1867 2.46164E+00
 -1      1868 1.93150E+00
 -1      1869 2.42832E+00
 -1      1870 2.13095E+00
 -1      1871 1.91146E+00
 -1      1872 1.93721E+00
 -1      1873 1.53706E+00
 -1      1874 1.68439E+00
 -1      1875 1.36403E+00
 -1      1876 1.14169E+00
 -1      1877 1.31762E+00
 -1      1878 9.03080E-01
 -1      1879 7.73643E-01
 -1      1880 9.05983E-01
 -1      1881 6.53824E-01
 -1      1882 6.69218E-01
 -1      1883 5.47556E-01
 -1      1884 6.96017E-01
 -1      1885 6.62512E-01
 -1      1886 4.54535E-01
 -1      1887 7.25277E-01
 -1      1888 7.28431E-01
 -1      1889 5.44098E-01
 -1      1890 7.44925E-01
 -1      1891 6.99839E-01
 -1      1892 6.23357E-01
 -1      1893 6.79613E-01
 -1      1894 6.12932E-01
 -1      1895 6.19626E-01
 -1      1896 5.79766E-01
 -1      1897 5.28319E-01
 -1      1898 5.66235E-01
 -1      1899 4.98215E-01
 -1      1900 4.61811E-01
 -1      1901 5.02964E-01
 -1      1902 4.30885E-01
 -1      1903 3.90440E-01
 -1      1904 4.41934E-01
 -1      1905 3.55156E-01
 -1      1906 3.15018E-01
 -1      1907 3.75724E-01
 -1      1908 2.80147E-01
 -1      1909 2.50453E-01
 -1      1910 3.05568E-01
 -1      1911 2.18815E-01
 -1      1912 1.93641E-01
 -1      1913 2.39059E-01
 -1      1914 1.66595E-01
 -1      1915 1.47289E-01
 -1      1916 1.80374E-01
 -1      1917 1.25206E-01
 -1      1918 1.08544E-01
 -1      1919 1.31246E-01
 -1      1920 9.40316E-02
 -1      1921 8.16561E-02
 -1      1922 9.46507E-02
 -1      1923 7.04411E-02
 -1      1924 6.31918E-02
 -1      1925 6.89235E-02
 -1      1926 5.53338E-02
 -1      1927 4.85417E-02
 -1      1928 4.98505E-02
 -1      1929 4.44545E-02
 -1      1930 3.83618E-02
 -1      1931 3.79054E-02
 -1      1932 3.50761E-02
 -1      1933 2.97641E-02
 -1      1934 3.05325E-02
 -1      1935 2.66733E-02
 -1      1936 2.23808E-02
 -1      1937 2.41560E-02
 -1      1938 1.95641E-02
 -1      1939 1.69278E-02
 -1      1940 1.82484E-02
 -1      1941 1.46937E-02
 -1      1942 1.24233E-02
 -1      1943 1.31976E-02
 -1      1944 1.10719E-02
 -1      1945 8.73354E-03
 -1      1946 9.61212E-03
 -1      1947 7.29868E-03
 -1      1948 5.55553E-03
 -1      1949 6.82588E-03
 -1      1950 4.45125E-03
 -1      1951 3.70626E-03
 -1      1952 2.81545E-03
 -1      1953 4.28673E-03
 -1      1954 1.35479E+00
 -1      1955 1.73369E+00
 -1      1956 1.40586E+00
 -1      1957 1.04323E+00
 -1      1958 1.18296E+00
 -1      1959 8.99752E-01
 -1      1960 9.52640E-01
 -1      1961 1.03644E+00
 -1      1962 7.21134E-01
 -1      1963 8.73393E-01
 -1      1964 9.37212E-01
 -1      1965 6.98917E-01
 -1      1966 7.97834E-01
 -1      1967 8.53742E-01
 -1      1968 6.63839E-01
 -1      1969 8.63194E-01
 -1      1970 8.74317E-01
 -1      1971 7.20671E-01
 -1      1972 1.02772E+00
 -1      1973 9.84180E-01
 -1      1974 9.18141E-01
 -1      1975 1.14213E+00
 -1      1976 1.12181E+00
 -1      1977 1.13322E+00
 -1      1978 1.25556E+00
 -1      1979 1.22400E+00
 -1      1980 1.30918E+00
 -1      1981 1.37863E+00
 -1      1982 1.26505E+00
 -1      1983 1.40053E+00
 -1      1984 1.51787E+00
 -1      1985 1.37056E+00
 -1      1986 1.40195E+00
 -1      1987 1.47033E+00
 -1      1988 1.41203E+00
 -1      1989 1.28804E+00
 -1      1990 1.71976E+00
 -1      1991 1.52941E+00
 -1      1992 1.24128E+00
 -1      1993 2.03343E+00
 -1      1994 1.99994E+00
 -1      1995 1.58054E+00
 -1      1996 2.76084E+00
 -1      1997 2.38688E+00
 -1      1998 2.21417E+00
 -1      1999 3.88868E+00
 -1      2000 3.12504E+00
 -1      2001 2.93182E+00
 -1      2002 4.07555E+00
 -1      2003 3.79105E+00
 -1      2004 3.19839E+00
 -1      2005 4.27707E+00
 -1      2006 4.04841E+00
 -1      2007 3.07362E+00
 -1      2008 3.14656E+00
 -1      2009 4.00124E+00
 -1      2010 2.77065E+00
 -1      2011 1.71246E+00
 -1      2012 2.55991E+00
 -1      2013 1.90818E+00
 -1      2014 1.34476E+00
 -1      2015 1.65294E+00
 -1      2016 1.26201E+00
 -1      2017 1.53086E+00
 -1      2018 1.43997E+00
 -1      2019 1.29770E+00
 -1      2020 1.73073E+00
 -1      2021 1.58016E+00
 -1      2022 1.44220E+00
 -1      2023 1.69982E+00
 -1      2024 1.72394E+00
 -1      2025 1.48471E+00
 -1      2026 1.53007E+00
 -1      2027 1.65428E+00
 -1      2028 1.43238E+00
 -1      2029 1.31751E+00
 -1      2030 1.45464E+00
 -1      2031 1.31141E+00
 -1      2032 1.10328E+00
 -1      2033 1.22760E+00
 -1      2034 1.14608E+00
 -1      2035 8.92753E-01
 -1      2036 1.00731E+00
 -1      2037 9.60219E-01
 -1      2038 6.95830E-01
 -1      2039 8.00842E-01
 -1      2040 7.72345E-01
 -1      2041 5.25640E-01
 -1      2042 6.15187E-01
 -1      2043 5.99790E-01
 -1      2044 3.86059E-01
 -1      2045 4.58747E-01
 -1      2046 4.52254E-01
 -1      2047 2.78681E-01
 -1      2048 3.32719E-01
 -1      2049 3.32021E-01
 -1      2050 2.03683E-01
 -1      2051 2.40215E-01
 -1      2052 2.40215E-01
 -1      2053 1.49809E-01
 -1      2054 1.77713E-01
 -1      2055 1.75778E-01
 -1      2056 1.08952E-01
 -1      2057 1.29380E-01
 -1      2058 1.29380E-01
 -1      2059 7.74037E-02
 -1      2060 9.31779E-02
 -1      2061 9.31779E-02
 -1      2062 5.34497E-02
 -1      2063 6.54267E-02
 -1      2064 6.54267E-02
 -1      2065 3.90757E-02
 -1      2066 4.45028E-02
 -1      2067 4.45028E-02
 -1      2068 3.00964E-02
 -1      2069 3.42873E-02
 -1      2070 3.07676E-02
 -1      2071 2.40286E-02
 -1      2072 2.77847E-02
 -1      2073 2.36675E-02
 -1      2074 1.84951E-02
 -1      2075 2.17411E-02
 -1      2076 1.90682E-02
 -1      2077 1.50571E-02
 -1      2078 1.63346E-02
 -1      2079 1.46202E-02
 -1      2080 1.16071E-02
 -1      2081 1.32496E-02
 -1      2082 1.06523E-02
 -1      2083 8.73189E-03
 -1      2084 1.06706E-02
 -1      2085 7.90815E-03
 -1      2086 5.73338E-03
 -1      2087 7.73820E-03
 -1      2088 5.97786E-03
 -1      2089 3.68519E-03
 -1      2090 4.84707E-03
 -1      2091 4.09786E-03
 -1      2092 2.26994E-03
 -1      2093 1.53611E-03
 -1      2094 1.52120E-03
 -1      2095 1.60750E-03
 -1      2096 1.49897E-03
 -1      2097 1.92972E-03
 -1      2098 1.80491E-03
 -1      2099 1.97813E-03
 -1      2100 2.91973E-03
 -1      2101 2.32198E-03
 -1      2102 1.45948E-03
 -1      2103 1.45948E-03
 -1      2104 1.76679E-03
 -1      2105 1.32956E-03
 -1      2106 1.35361E-03
 -1      2107 1.58428E-03
 -1      2108 1.13907E-03
 -1      2109 1.22201E-03
 -1      2110 1.37086E-03
 -1      2111 9.03887E-04
 -1      2112 9.84786E-04
 -1      2113 1.10902E-03
 -1      2114 9.05201E-04
 -1      2115 8.60000E-04
 -1      2116 9.10842E-04
 -1      2117 1.10684E-03
 -1      2118 1.03671E-03
 -1      2119 9.98460E-04
 -1      2120 1.24085E-03
 -1      2121 1.21424E-03
 -1      2122 1.23736E-03
 -1      2123 1.36669E-03
 -1      2124 1.36669E-03
 -1      2125 1.47058E-03
 -1      2126 1.34073E-03
 -1      2127 1.36669E-03
 -1      2128 1.59642E-03
 -1      2129 1.79357E-03
 -1      2130 1.86944E-03
 -1      2131 2.12513E-03
 -1      2132 3.98685E+01
 -1      2133 3.06355E+01
 -1      2134 3.19637E+01
 -1      2135 3.19637E+01
 -1      2136 3.05948E+01
 -1      2137 3.12589E+01
 -1      2138 2.13370E+01
 -1      2139 3.35932E+01
 -1      2140 2.43602E+01
 -1      2141 1.15654E+01
 -1      2142 1.79179E+01
 -1      2143 1.05930E+00
 -1      2144 1.23989E+00
 -1      2145 1.00342E+00
 -1      2146 8.76080E-01
 -1      2147 1.11499E+01
 -1      2148 1.06960E+01
 -1      2149 1.16135E+01
 -1      2150 1.17648E+01
 -1      2151 1.14513E+01
 -1      2152 1.16535E+01
 -1      2153 1.03905E+01
 -1      2154 1.07609E+01
 -1      2155 1.17415E+01
 -1      2156 9.92412E+00
 -1      2157 2.68519E+01
 -1      2158 1.43554E+01
 -1      2159 2.99777E+01
 -1      2160 3.18991E+01
 -1      2161 2.84409E+01
 -1      2162 3.21030E+01
 -1      2163 3.35383E+01
 -1      2164 3.35383E+01
 -1      2165 3.58722E+01
 -1      2166 3.35383E+01
 -1      2167 3.36854E+01
 -1      2168 3.36854E+01
 -1      2169 2.46837E+01
 -1      2170 2.69111E+01
 -1      2171 1.16673E+01
 -1      2172 2.03185E+01
 -1      2173 8.93752E+00
 -1      2174 9.36451E+00
 -1      2175 1.01205E+01
 -1      2176 9.69522E+00
 -1      2177 1.08912E+01
 -1      2178 1.08214E+01
 -1      2179 1.14369E+01
 -1      2180 1.16156E+01
 -1      2181 1.11298E+01
 -1      2182 1.10593E+01
 -1      2183 1.07896E+01
 -1      2184 9.80685E+00
 -1      2185 1.01752E+01
 -1      2186 9.36940E+00
 -1      2187 9.02772E+00
 -1      2188 1.89394E+01
 -1      2189 1.13348E+01
 -1      2190 2.48797E+01
 -1      2191 2.27965E+01
 -1      2192 3.11698E+01
 -1      2193 3.11698E+01
 -1      2194 3.04939E+01
 -1      2195 3.00970E+01
 -1      2196 3.00970E+01
 -1      2197 9.85041E+00
 -1      2198 9.74386E+00
 -1      2199 1.46657E+01
 -1      2200 2.81101E+00
 -1      2201 8.44916E+00
 -1      2202 1.99504E+00
 -1      2203 3.05948E+01
 -1      2204 3.12589E+01
 -1      2205 2.55114E-03
 -1      2206 3.04939E+01
 -1      2207 9.42506E+00
 -1      2208 2.48797E+01
 -1      2209 1.47324E+01
 -1      2210 8.90989E+00
 -1      2211 9.45739E+00
 -1      2212 1.04428E+01
 -1      2213 9.01738E+00
 -1      2214 7.55871E+00
 -1      2215 9.10375E+00
 -1      2216 1.57717E+01
 -1      2217 2.69111E+01
 -1      2218 3.58722E+01
 -1      2219 3.80589E+01
 -1      2220 3.29615E+01
 -1      2221 2.57388E+01
 -1      2222 1.85663E+01
 -1      2223 1.09051E+01
 -1      2224 8.75757E+00
 -1      2225 9.91426E+00
 -1      2226 9.90964E+00
 -1      2227 1.05646E+01
 -1      2228 7.72365E+00
 -1      2229 9.78360E-01
 -1      2230 1.31264E+00
 -1      2231 5.41914E-01
 -1      2232 5.85194E-01
 -1      2233 6.09628E-01
 -1      2234 6.69131E-01
 -1      2235 5.07101E-01
 -1      2236 4.50041E-01
 -1      2237 4.51131E-01
 -1      2238 5.05692E-01
 -1      2239 4.72313E-01
 -1      2240 3.92339E-01
 -1      2241 5.81362E-01
 -1      2242 5.35010E-01
 -1      2243 4.43929E-01
 -1      2244 6.66521E-01
 -1      2245 6.07702E-01
 -1      2246 4.99588E-01
 -1      2247 7.53039E-01
 -1      2248 6.77497E-01
 -1      2249 5.36905E-01
 -1      2250 9.46854E-01
 -1      2251 8.40653E-01
 -1      2252 6.35496E-01
 -1      2253 6.95027E-01
 -1      2254 8.66856E-01
 -1      2255 7.73635E-01
 -1      2256 1.13042E+00
 -1      2257 8.75650E-01
 -1      2258 7.11472E+00
 -1      2259 6.26912E+00
 -1      2260 7.82405E-01
 -1      2261 6.14657E-01
 -1      2262 5.73509E-01
 -1      2263 5.37045E-01
 -1      2264 4.63185E-01
 -1      2265 4.02653E-01
 -1      2266 4.35338E-01
 -1      2267 3.58714E-01
 -1      2268 2.97193E-01
 -1      2269 3.57907E-01
 -1      2270 3.52295E-01
 -1      2271 2.68539E-01
 -1      2272 3.73762E-01
 -1      2273 3.73087E-01
 -1      2274 2.89198E-01
 -1      2275 4.15717E-01
 -1      2276 4.29365E-01
 -1      2277 3.53294E-01
 -1      2278 4.70951E-01
 -1      2279 5.13263E-01
 -1      2280 4.37510E-01
 -1      2281 5.39546E-01
 -1      2282 5.36040E-01
 -1      2283 5.05379E-01
 -1      2284 5.74632E-01
 -1      2285 5.28168E-01
 -1      2286 5.70254E-01
 -1      2287 6.03662E-01
 -1      2288 6.11667E-01
 -1      2289 6.84340E-01
 -1      2290 6.44747E-01
 -1      2291 7.80765E-01
 -1      2292 7.92915E-01
 -1      2293 9.29299E-01
 -1      2294 1.15961E+00
 -1      2295 9.74529E-01
 -1      2296 1.24415E+00
 -1      2297 1.41307E+00
 -1      2298 1.20761E+00
 -1      2299 1.50123E+00
 -1      2300 1.67914E+00
 -1      2301 1.38031E+00
 -1      2302 1.88390E+00
 -1      2303 1.89810E+00
 -1      2304 1.67322E+00
 -1      2305 1.80017E+00
 -1      2306 1.81344E+00
 -1      2307 1.78004E+00
 -1      2308 1.87862E+00
 -1      2309 1.84529E+00
 -1      2310 1.74728E+00
 -1      2311 1.66855E+00
 -1      2312 1.47481E+00
 -1      2313 1.63571E+00
 -1      2314 1.36932E+00
 -1      2315 1.19629E+00
 -1      2316 1.35348E+00
 -1      2317 1.10122E+00
 -1      2318 8.62613E-01
 -1      2319 1.15292E+00
 -1      2320 7.48270E-01
 -1      2321 6.28451E-01
 -1      2322 9.43508E-01
 -1      2323 5.87389E-01
 -1      2324 6.14187E-01
 -1      2325 7.88103E-01
 -1      2326 5.55036E-01
 -1      2327 6.17801E-01
 -1      2328 6.87890E-01
 -1      2329 6.27353E-01
 -1      2330 6.43848E-01
 -1      2331 6.38291E-01
 -1      2332 6.26176E-01
 -1      2333 6.05951E-01
 -1      2334 6.30172E-01
 -1      2335 5.75131E-01
 -1      2336 5.41964E-01
 -1      2337 5.81680E-01
 -1      2338 5.16534E-01
 -1      2339 4.86430E-01
 -1      2340 5.25430E-01
 -1      2341 4.57656E-01
 -1      2342 4.26730E-01
 -1      2343 4.71226E-01
 -1      2344 3.93119E-01
 -1      2345 3.57835E-01
 -1      2346 4.08841E-01
 -1      2347 3.23519E-01
 -1      2348 2.88647E-01
 -1      2349 3.40914E-01
 -1      2350 2.56604E-01
 -1      2351 2.24966E-01
 -1      2352 2.74554E-01
 -1      2353 1.96793E-01
 -1      2354 1.69747E-01
 -1      2355 2.14339E-01
 -1      2356 1.46067E-01
 -1      2357 1.23984E-01
 -1      2358 1.62486E-01
 -1      2359 1.04792E-01
 -1      2360 9.02796E-02
 -1      2361 1.19613E-01
 -1      2362 7.52111E-02
 -1      2363 6.39961E-02
 -1      2364 8.53523E-02
 -1      2365 5.25125E-02
 -1      2366 4.46545E-02
 -1      2367 5.88001E-02
 -1      2368 3.61626E-02
 -1      2369 3.20755E-02
 -1      2370 3.88246E-02
 -1      2371 2.71834E-02
 -1      2372 2.38977E-02
 -1      2373 2.54406E-02
 -1      2374 2.13629E-02
 -1      2375 1.82721E-02
 -1      2376 1.80137E-02
 -1      2377 1.68768E-02
 -1      2378 1.40600E-02
 -1      2379 1.40837E-02
 -1      2380 1.25868E-02
 -1      2381 1.03527E-02
 -1      2382 1.12152E-02
 -1      2383 8.91616E-03
 -1      2384 7.56478E-03
 -1      2385 8.30541E-03
 -1      2386 6.41813E-03
 -1      2387 4.98327E-03
 -1      2388 5.72217E-03
 -1      2389 5.36633E-01
 -1      2390 5.52061E-01
 -1      2391 5.54589E-01
 -1      2392 5.74239E-01
 -1      2393 4.27383E-01
 -1      2394 7.37490E-01
 -1      2395 6.61007E-01
 -1      2396 5.71408E-01
 -1      2397 9.76745E-01
 -1      2398 8.55759E-01
 -1      2399 7.96095E-01
 -1      2400 1.18170E+00
 -1      2401 1.08761E+00
 -1      2402 1.02523E+00
 -1      2403 1.34803E+00
 -1      2404 1.26616E+00
 -1      2405 1.22056E+00
 -1      2406 1.45059E+00
 -1      2407 1.44111E+00
 -1      2408 1.39809E+00
 -1      2409 1.57173E+00
 -1      2410 1.57980E+00
 -1      2411 1.62037E+00
 -1      2412 1.57547E+00
 -1      2413 1.68131E+00
 -1      2414 1.85916E+00
 -1      2415 1.83826E+00
 -1      2416 1.77918E+00
 -1      2417 2.17245E+00
 -1      2418 2.28785E+00
 -1      2419 2.00767E+00
 -1      2420 2.54556E+00
 -1      2421 3.18794E+00
 -1      2422 2.83449E+00
 -1      2423 3.26162E+00
 -1      2424 5.06719E+00
 -1      2425 4.70299E+00
 -1      2426 5.32331E+00
 -1      2427 4.58726E+00
 -1      2428 4.68490E+00
 -1      2429 6.45607E+00
 -1      2430 4.60472E+00
 -1      2431 4.63186E+00
 -1      2432 6.11836E+00
 -1      2433 2.59202E+00
 -1      2434 2.86785E+00
 -1      2435 4.42609E+00
 -1      2436 1.80573E+00
 -1      2437 2.39238E+00
 -1      2438 2.48958E+00
 -1      2439 1.75133E+00
 -1      2440 1.81085E+00
 -1      2441 2.29505E+00
 -1      2442 1.64625E+00
 -1      2443 1.55104E+00
 -1      2444 2.09988E+00
 -1      2445 1.62847E+00
 -1      2446 1.57918E+00
 -1      2447 1.83252E+00
 -1      2448 1.51287E+00
 -1      2449 1.51967E+00
 -1      2450 1.65664E+00
 -1      2451 1.40882E+00
 -1      2452 1.45435E+00
 -1      2453 1.48931E+00
 -1      2454 1.25742E+00
 -1      2455 1.33285E+00
 -1      2456 1.35483E+00
 -1      2457 1.06686E+00
 -1      2458 1.15676E+00
 -1      2459 1.17820E+00
 -1      2460 8.72262E-01
 -1      2461 9.68225E-01
 -1      2462 9.78906E-01
 -1      2463 6.92358E-01
 -1      2464 7.84269E-01
 -1      2465 7.92275E-01
 -1      2466 5.33699E-01
 -1      2467 6.14342E-01
 -1      2468 6.26266E-01
 -1      2469 4.01119E-01
 -1      2470 4.68012E-01
 -1      2471 4.82564E-01
 -1      2472 2.94453E-01
 -1      2473 3.47793E-01
 -1      2474 3.63551E-01
 -1      2475 2.13877E-01
 -1      2476 2.52343E-01
 -1      2477 2.68115E-01
 -1      2478 1.55400E-01
 -1      2479 1.81370E-01
 -1      2480 1.93499E-01
 -1      2481 1.10379E-01
 -1      2482 1.30807E-01
 -1      2483 1.36399E-01
 -1      2484 7.63564E-02
 -1      2485 9.21305E-02
 -1      2486 9.35575E-02
 -1      2487 5.20835E-02
 -1      2488 6.40605E-02
 -1      2489 6.30131E-02
 -1      2490 3.56130E-02
 -1      2491 4.45599E-02
 -1      2492 4.31936E-02
 -1      2493 2.59792E-02
 -1      2494 3.07676E-02
 -1      2495 3.08246E-02
 -1      2496 2.13557E-02
 -1      2497 2.36675E-02
 -1      2498 2.36675E-02
 -1      2499 1.67807E-02
 -1      2500 1.90682E-02
 -1      2501 1.90682E-02
 -1      2502 1.24598E-02
 -1      2503 1.46202E-02
 -1      2504 1.46202E-02
 -1      2505 8.69529E-03
 -1      2506 1.05028E-02
 -1      2507 1.05028E-02
 -1      2508 6.58659E-03
 -1      2509 7.52318E-03
 -1      2510 7.37373E-03
 -1      2511 4.54993E-03
 -1      2512 5.54362E-03
 -1      2513 5.15865E-03
 -1      2514 3.80605E-03
 -1      2515 1.59841E-03
 -1      2516 1.70428E-03
 -1      2517 1.34746E-03
 -1      2518 1.45501E-03
 -1      2519 1.57501E-03
 -1      2520 2.71535E-03
 -1      2521 2.80166E-03
 -1      2522 1.96681E-03
 -1      2523 2.04344E-03
 -1      2524 2.91538E-03
 -1      2525 1.98093E-03
 -1      2526 9.73609E-04
 -1      2527 1.12790E-03
 -1      2528 1.21205E-03
 -1      2529 8.40533E-04
 -1      2530 8.84421E-04
 -1      2531 9.03300E-04
 -1      2532 1.01521E-03
 -1      2533 8.83701E-04
 -1      2534 8.57280E-04
 -1      2535 1.29706E-03
 -1      2536 1.18967E-03
 -1      2537 1.07491E-03
 -1      2538 1.56249E-03
 -1      2539 1.43666E-03
 -1      2540 1.38896E-03
 -1      2541 1.81234E-03
 -1      2542 1.81234E-03
 -1      2543 1.77841E-03
 -1      2544 2.36978E-03
 -1      2545 1.84107E-03
 -1      2546 2.05699E-03
 -1      2547 3.05542E+01
 -1      2548 3.12589E+01
 -1      2549 2.63857E+01
 -1      2550 2.63450E+01
 -1      2551 2.63450E+01
 -1      2552 3.04939E+01
 -1      2553 2.90241E+01
 -1      2554 6.01303E-01
 -1      2555 6.08092E-01
 -1      2556 4.39019E-01
 -1      2557 2.91815E-03
 -1      2558 1.56693E+01
 -1      2559 2.19446E+01
 -1      2560 6.97848E+00
 -1      2561 8.79998E+00
 -1      2562 2.23031E+01
 -1      2563 1.60130E+01
 -1      2564 9.51512E+00
 -1      2565 8.79070E+00
 -1      2566 4.78976E-01
 -1      2567 5.13460E-01
 -1      2568 4.54213E-01
 -1      2569 3.97913E-01
 -1      2570 9.21254E+00
 -1      2571 9.17250E+00
 -1      2572 5.66903E+00
 -1      2573 6.44816E+00
 -1      2574 8.73198E+00
 -1      2575 8.11710E+00
 -1      2576 8.03114E+00
 -1      2577 8.72148E+00
 -1      2578 6.23331E+00
 -1      2579 6.69966E+00
 -1      2580 1.01791E+01
 -1      2581 7.56516E+00
 -1      2582 1.76466E+01
 -1      2583 1.25994E+01
 -1      2584 2.24193E+01
 -1      2585 2.02940E+01
 -1      2586 3.29615E+01
 -1      2587 2.78640E+01
 -1      2588 3.80589E+01
 -1      2589 3.80589E+01
 -1      2590 3.29615E+01
 -1      2591 2.89090E+01
 -1      2592 3.10957E+01
 -1      2593 1.73082E+01
 -1      2594 2.40824E+01
 -1      2595 1.93060E+01
 -1      2596 1.06490E+01
 -1      2597 1.50142E+01
 -1      2598 6.54256E+00
 -1      2599 8.84531E+00
 -1      2600 6.23335E+00
 -1      2601 5.47565E+00
 -1      2602 8.02918E+00
 -1      2603 7.32820E+00
 -1      2604 9.53067E+00
 -1      2605 9.90827E+00
 -1      2606 7.70071E+00
 -1      2607 8.65531E+00
 -1      2608 7.77399E+00
 -1      2609 8.64078E+00
 -1      2610 6.67541E+00
 -1      2611 1.37649E+01
 -1      2612 9.90778E+00
 -1      2613 1.11884E+01
 -1      2614 2.34783E+01
 -1      2615 2.45511E+01
 -1      2616 1.61906E+00
 -1      2617 1.21810E+00
 -1      2618 7.54440E-01
 -1      2619 9.51767E-01
 -1      2620 1.46912E+00
 -1      2621 1.63493E+00
 -1      2622 1.25286E+00
 -1      2623 1.04162E+00
 -1      2624 1.01756E+01
 -1      2625 1.35947E+01
 -1      2626 1.11792E+01
 -1      2627 7.37996E+00
 -1      2628 6.80304E-01
 -1      2629 8.17900E-01
 -1      2630 8.87253E-01
 -1      2631 5.75195E-01
 -1      2632 1.18434E+00
 -1      2633 7.72901E+00
 -1      2634 5.64404E+00
 -1      2635 8.93779E-01
 -1      2636 1.76948E+01
 -1      2637 5.64608E+00
 -1      2638 3.37180E-03
 -1      2639 3.06586E-03
 -1      2640 5.39992E+00
 -1      2641 2.52076E+01
 -1      2642 2.59124E+01
 -1      2643 2.44426E+01
 -1      2644 2.34783E+01
 -1      2645 7.10152E+00
 -1      2646 9.60601E-01
 -1      2647 5.24514E+00
 -1      2648 5.21720E+00
 -1      2649 1.56844E+01
 -1      2650 1.21855E+01
 -1      2651 2.79597E+01
 -1      2652 2.79597E+01
 -1      2653 2.09965E+01
 -1      2654 2.24193E+01
 -1      2655 1.43271E+01
 -1      2656 1.02376E+01
 -1      2657 6.89762E+00
 -1      2658 9.31792E+00
 -1      2659 5.50725E+00
 -1      2660 5.50688E+00
 -1      2661 8.25620E+00
 -1      2662 5.93706E+00
 -1      2663 7.32942E+00
 -1      2664 8.08783E+00
 -1      2665 3.16171E-03
 -1      2666 2.89740E-03
 -1      2667 2.61334E-03
 -1      2668 4.26598E-03
 -1      2669 7.67330E+00
 -1      2670 3.85149E-03
 -1      2671 3.85824E-03
 -1      2672 3.96530E-01
 -1      2673 3.67212E-01
 -1      2674 3.44578E-01
 -1      2675 3.22306E-01
 -1      2676 2.97179E-01
 -1      2677 4.68539E-01
 -1      2678 4.57562E-01
 -1      2679 5.76476E-01
 -1      2680 4.88862E-01
 -1      2681 4.09519E-01
 -1      2682 5.41769E-01
 -1      2683 6.53273E-01
 -1      2684 4.82839E+00
 -1      2685 3.73354E+00
 -1      2686 3.93909E-01
 -1      2687 4.80844E-01
 -1      2688 3.60482E-01
 -1      2689 8.04125E-01
 -1      2690 1.04960E+01
 -1      2691 8.24799E+00
 -1      2692 3.77654E-01
 -1      2693 3.00043E-01
 -1      2694 2.64267E-01
 -1      2695 2.36419E-01
 -1      2696 2.39268E-01
 -1      2697 2.56230E-01
 -1      2698 2.55423E-01
 -1      2699 2.23303E-01
 -1      2700 2.95854E-01
 -1      2701 3.17320E-01
 -1      2702 2.83545E-01
 -1      2703 3.60213E-01
 -1      2704 4.02842E-01
 -1      2705 3.66869E-01
 -1      2706 4.57824E-01
 -1      2707 4.99410E-01
 -1      2708 4.64743E-01
 -1      2709 5.63633E-01
 -1      2710 5.89916E-01
 -1      2711 5.83947E-01
 -1      2712 6.48325E-01
 -1      2713 6.86917E-01
 -1      2714 7.06579E-01
 -1      2715 7.45305E-01
 -1      2716 8.20799E-01
 -1      2717 8.23377E-01
 -1      2718 9.73850E-01
 -1      2719 1.00693E+00
 -1      2720 1.03482E+00
 -1      2721 1.08480E+00
 -1      2722 1.23334E+00
 -1      2723 1.26574E+00
 -1      2724 1.35960E+00
 -1      2725 1.44414E+00
 -1      2726 1.46987E+00
 -1      2727 1.85526E+00
 -1      2728 1.94341E+00
 -1      2729 2.00724E+00
 -1      2730 2.45897E+00
 -1      2731 2.66374E+00
 -1      2732 2.93392E+00
 -1      2733 2.37536E+00
 -1      2734 2.27742E+00
 -1      2735 3.16112E+00
 -1      2736 2.71283E+00
 -1      2737 2.77800E+00
 -1      2738 3.30815E+00
 -1      2739 2.16563E+00
 -1      2740 1.98889E+00
 -1      2741 3.13119E+00
 -1      2742 1.52133E+00
 -1      2743 1.41584E+00
 -1      2744 2.05125E+00
 -1      2745 1.38394E+00
 -1      2746 1.28887E+00
 -1      2747 1.55178E+00
 -1      2748 1.21565E+00
 -1      2749 1.10131E+00
 -1      2750 1.44667E+00
 -1      2751 1.00046E+00
 -1      2752 9.59400E-01
 -1      2753 1.27260E+00
 -1      2754 8.32690E-01
 -1      2755 7.73539E-01
 -1      2756 1.04505E+00
 -1      2757 7.43681E-01
 -1      2758 7.53233E-01
 -1      2759 8.88481E-01
 -1      2760 7.00181E-01
 -1      2761 6.82509E-01
 -1      2762 8.05570E-01
 -1      2763 6.25350E-01
 -1      2764 5.94531E-01
 -1      2765 6.95360E-01
 -1      2766 5.53556E-01
 -1      2767 5.28126E-01
 -1      2768 5.97227E-01
 -1      2769 4.91510E-01
 -1      2770 4.62737E-01
 -1      2771 5.19637E-01
 -1      2772 4.23922E-01
 -1      2773 3.90312E-01
 -1      2774 4.44207E-01
 -1      2775 3.52978E-01
 -1      2776 3.18662E-01
 -1      2777 3.68059E-01
 -1      2778 2.84879E-01
 -1      2779 2.52836E-01
 -1      2780 2.96944E-01
 -1      2781 2.23563E-01
 -1      2782 1.95391E-01
 -1      2783 2.33888E-01
 -1      2784 1.70865E-01
 -1      2785 1.47185E-01
 -1      2786 1.80090E-01
 -1      2787 1.27208E-01
 -1      2788 1.08016E-01
 -1      2789 1.35587E-01
 -1      2790 9.21467E-02
 -1      2791 7.70782E-02
 -1      2792 9.97416E-02
 -1      2793 6.47679E-02
 -1      2794 5.32842E-02
 -1      2795 7.15623E-02
 -1      2796 4.39585E-02
 -1      2797 3.54667E-02
 -1      2798 4.99262E-02
 -1      2799 2.85782E-02
 -1      2800 2.36861E-02
 -1      2801 3.37121E-02
 -1      2802 1.87411E-02
 -1      2803 1.62063E-02
 -1      2804 2.18787E-02
 -1      2805 1.27764E-02
 -1      2806 1.13811E-02
 -1      2807 1.35038E-02
 -1      2808 9.75016E-03
 -1      2809 8.27696E-03
 -1      2810 8.44289E-03
 -1      2811 7.71917E-03
 -1      2812 6.28258E-03
 -1      2813 6.25412E-03
 -1      2814 5.58921E-03
 -1      2815 4.44257E-03
 -1      2816 5.00297E-03
 -1      2817 6.15219E-01
 -1      2818 5.08801E-01
 -1      2819 7.32579E+00
 -1      2820 6.05879E+00
 -1      2821 6.63348E+00
 -1      2822 4.20641E-01
 -1      2823 3.83035E-01
 -1      2824 4.64452E-01
 -1      2825 1.08124E+00
 -1      2826 9.70367E-01
 -1      2827 1.30694E+00
 -1      2828 1.22248E+00
 -1      2829 1.16762E+00
 -1      2830 1.54563E+00
 -1      2831 1.45255E+00
 -1      2832 1.45448E+00
 -1      2833 1.81136E+00
 -1      2834 1.68216E+00
 -1      2835 1.73662E+00
 -1      2836 2.20092E+00
 -1      2837 2.09133E+00
 -1      2838 2.15312E+00
 -1      2839 2.86226E+00
 -1      2840 2.65855E+00
 -1      2841 2.89073E+00
 -1      2842 4.04684E+00
 -1      2843 3.87743E+00
 -1      2844 4.36354E+00
 -1      2845 4.17646E+00
 -1      2846 3.62981E+00
 -1      2847 4.96168E+00
 -1      2848 6.83836E+00
 -1      2849 5.32331E+00
 -1      2850 6.94712E+00
 -1      2851 7.32942E+00
 -1      2852 3.80680E+00
 -1      2853 5.54367E+00
 -1      2854 2.28993E+00
 -1      2855 2.48958E+00
 -1      2856 2.74246E+00
 -1      2857 2.73734E+00
 -1      2858 2.73734E+00
 -1      2859 2.65180E+00
 -1      2860 2.85209E+00
 -1      2861 3.29438E+00
 -1      2862 2.22011E+00
 -1      2863 2.28718E+00
 -1      2864 3.03939E+00
 -1      2865 1.83787E+00
 -1      2866 1.94668E+00
 -1      2867 2.40134E+00
 -1      2868 1.59291E+00
 -1      2869 1.65143E+00
 -1      2870 1.94147E+00
 -1      2871 1.39010E+00
 -1      2872 1.46607E+00
 -1      2873 1.62818E+00
 -1      2874 1.16102E+00
 -1      2875 1.26167E+00
 -1      2876 1.37292E+00
 -1      2877 9.44007E-01
 -1      2878 1.04264E+00
 -1      2879 1.12612E+00
 -1      2880 7.52566E-01
 -1      2881 8.40559E-01
 -1      2882 9.04298E-01
 -1      2883 5.87101E-01
 -1      2884 6.65116E-01
 -1      2885 7.13400E-01
 -1      2886 4.49253E-01
 -1      2887 5.14940E-01
 -1      2888 5.53790E-01
 -1      2889 3.37547E-01
 -1      2890 3.90874E-01
 -1      2891 4.23249E-01
 -1      2892 2.49019E-01
 -1      2893 2.91129E-01
 -1      2894 3.18451E-01
 -1      2895 1.80188E-01
 -1      2896 2.12695E-01
 -1      2897 2.35709E-01
 -1      2898 1.27605E-01
 -1      2899 1.52198E-01
 -1      2900 1.71394E-01
 -1      2901 8.81214E-02
 -1      2902 1.06370E-01
 -1      2903 1.22169E-01
 -1      2904 5.99780E-02
 -1      2905 7.22739E-02
 -1      2906 8.50863E-02
 -1      2907 4.08414E-02
 -1      2908 4.83650E-02
 -1      2909 5.76258E-02
 -1      2910 2.76648E-02
 -1      2911 3.25102E-02
 -1      2912 3.76816E-02
 -1      2913 1.95303E-02
 -1      2914 2.18420E-02
 -1      2915 2.35276E-02
 -1      2916 1.42829E-02
 -1      2917 1.65704E-02
 -1      2918 1.47450E-02
 -1      2919 1.09735E-02
 -1      2920 1.31340E-02
 -1      2921 1.06362E-02
 -1      2922 7.96783E-03
 -1      2923 9.92479E-03
 -1      2924 8.43853E-03
 -1      2925 5.75053E-03
 -1      2926 6.92264E-03
 -1      2927 6.34463E-03
 -1      2928 4.11568E-03
 -1      2929 5.15865E-03
 -1      2930 4.70756E-03
 -1      2931 3.85149E-03
 -1      2932 1.25324E-03
 -1      2933 1.34243E-03
 -1      2934 3.84610E-03
 -1      2935 3.12881E-03
 -1      2936 3.71314E-03
 -1      2937 1.58466E-03
 -1      2938 1.72805E-03
 -1      2939 1.28194E-03
 -1      2940 1.23877E-03
 -1      2941 1.67790E-03
 -1      2942 1.34243E-03
 -1      2943 1.56199E-03
 -1      2944 1.71503E-03
 -1      2945 1.69237E-03
 -1      2946 3.78931E+00
 -1      2947 5.04185E+00
 -1      2948 1.45639E-03
 -1      2949 1.28194E-03
 -1      2950 1.66342E-03
 -1      2951 1.51720E-03
 -1      2952 1.37761E-03
 -1      2953 1.58464E-03
 -1      2954 2.04942E-03
 -1      2955 1.79957E-03
 -1      2956 1.78821E-03
 -1      2957 1.84459E+01
 -1      2958 2.26551E+01
 -1      2959 2.15370E+01
 -1      2960 1.59911E+01
 -1      2961 8.35599E-01
 -1      2962 4.20880E+00
 -1      2963 4.91816E+00
 -1      2964 2.14092E+01
 -1      2965 1.59644E+01
 -1      2966 9.35717E+00
 -1      2967 1.16511E+01
 -1      2968 3.17852E-01
 -1      2969 3.67094E-01
 -1      2970 2.72742E-01
 -1      2971 3.11110E-01
 -1      2972 8.42992E-01
 -1      2973 7.24723E-01
 -1      2974 6.62116E-01
 -1      2975 8.98996E-01
 -1      2976 5.32207E-01
 -1      2977 4.38963E-01
 -1      2978 3.36352E-01
 -1      2979 4.45564E-01
 -1      2980 4.19224E-01
 -1      2981 3.42506E-01
 -1      2982 3.77198E-01
 -1      2983 6.24256E+00
 -1      2984 7.61816E+00
 -1      2985 1.25823E+01
 -1      2986 1.70234E+01
 -1      2987 4.30778E-01
 -1      2988 4.55212E-01
 -1      2989 5.20237E+00
 -1      2990 4.19599E+00
 -1      2991 5.76310E+00
 -1      2992 7.56682E+00
 -1      2993 7.03244E+00
 -1      2994 7.08798E+00
 -1      2995 6.69482E+00
 -1      2996 5.69188E+00
 -1      2997 4.36002E+00
 -1      2998 1.30261E+01
 -1      2999 1.03787E+01
 -1      3000 1.20160E+01
 -1      3001 2.58573E+01
 -1      3002 2.07599E+01
 -1      3003 1.24796E+01
 -1      3004 1.73062E+01
 -1      3005 2.60119E-03
 -1      3006 1.47354E+01
 -1      3007 1.24874E+01
 -1      3008 4.26304E+00
 -1      3009 5.32995E+00
 -1      3010 5.93191E+00
 -1      3011 4.92953E+00
 -1      3012 5.81819E+00
 -1      3013 6.69355E+00
 -1      3014 8.53581E+00
 -1      3015 1.06104E+01
 -1      3016 6.49767E+00
 -1      3017 5.73614E+00
 -1      3018 4.22453E+00
 -1      3019 5.69151E+00
 -1      3020 5.10045E-01
 -1      3021 6.58814E-01
 -1      3022 4.33722E-01
 -1      3023 2.83034E-01
 -1      3024 3.30796E-01
 -1      3025 3.58641E-01
 -1      3026 5.72259E-01
 -1      3027 3.84628E+00
 -1      3028 9.54702E+00
 -1      3029 7.04936E+00
 -1      3030 1.74899E-03
 -1      3031 1.73934E-03
 -1      3032 2.00187E-03
 -1      3033 4.85486E+00
 -1      3034 5.32944E+00
 -1      3035 4.80894E+00
 -1      3036 6.55120E+00
 -1      3037 3.60715E+00
 -1      3038 3.59176E+00
 -1      3039 2.38437E-03
 -1      3040 3.05628E-03
 -1      3041 3.32048E-03
 -1      3042 2.14278E-03
 -1      3043 3.96141E+00
 -1      3044 2.02970E+01
 -1      3045 1.49504E+01
 -1      3046 1.23979E+01
 -1      3047 1.33334E+01
 -1      3048 2.57247E-03
 -1      3049 1.27941E+01
 -1      3050 9.65130E+00
 -1      3051 7.18433E-01
 -1      3052 7.24959E-01
 -1      3053 6.37274E-01
 -1      3054 5.48175E-01
 -1      3055 6.99172E+00
 -1      3056 6.55120E+00
 -1      3057 1.43051E+01
 -1      3058 1.94943E+01
 -1      3059 1.20071E+01
 -1      3060 1.49127E+01
 -1      3061 1.69549E+01
 -1      3062 1.38189E+01
 -1      3063 1.01286E+01
 -1      3064 5.02727E-01
 -1      3065 3.81570E-01
 -1      3066 4.10024E-01
 -1      3067 3.58135E-01
 -1      3068 3.14453E-01
 -1      3069 9.19864E+00
 -1      3070 6.83685E+00
 -1      3071 7.89764E+00
 -1      3072 6.11836E+00
 -1      3073 4.80732E+00
 -1      3074 4.25625E-01
 -1      3075 9.93898E+00
 -1      3076 2.82171E-03
 -1      3077 2.27751E-03
 -1      3078 2.29866E-03
 -1      3079 3.41818E-03
 -1      3080 5.75039E+00
 -1      3081 6.58120E+00
 -1      3082 5.01982E+00
 -1      3083 4.62539E+00
 -1      3084 2.58528E+01
 -1      3085 1.36512E+01
 -1      3086 1.57536E+01
 -1      3087 3.30467E+00
 -1      3088 3.83417E+00
 -1      3089 3.83230E-01
 -1      3090 3.62907E-01
 -1      3091 3.57662E-01
 -1      3092 2.96353E-01
 -1      3093 2.39346E-01
 -1      3094 2.59157E-01
 -1      3095 2.85928E-01
 -1      3096 3.26359E-01
 -1      3097 3.01971E-01
 -1      3098 3.77486E-01
 -1      3099 4.20378E-01
 -1      3100 3.79868E-01
 -1      3101 4.82836E-01
 -1      3102 5.37818E-01
 -1      3103 4.93453E-01
 -1      3104 6.04020E-01
 -1      3105 6.68243E-01
 -1      3106 6.22114E-01
 -1      3107 7.75899E-01
 -1      3108 8.34309E-01
 -1      3109 7.95973E-01
 -1      3110 9.56699E-01
 -1      3111 1.01509E+00
 -1      3112 1.02602E+00
 -1      3113 1.13927E+00
 -1      3114 1.29232E+00
 -1      3115 1.27259E+00
 -1      3116 1.48487E+00
 -1      3117 1.56274E+00
 -1      3118 1.58933E+00
 -1      3119 1.72880E+00
 -1      3120 1.85506E+00
 -1      3121 1.94794E+00
 -1      3122 1.92663E+00
 -1      3123 2.33775E+00
 -1      3124 2.18556E+00
 -1      3125 2.85546E+00
 -1      3126 3.37103E+00
 -1      3127 3.30815E+00
 -1      3128 3.74356E+00
 -1      3129 2.36783E+00
 -1      3130 1.90026E+00
 -1      3131 1.80353E+00
 -1      3132 1.77163E+00
 -1      3133 2.12011E+00
 -1      3134 1.80641E+00
 -1      3135 1.73319E+00
 -1      3136 2.05816E+00
 -1      3137 1.54614E+00
 -1      3138 1.44529E+00
 -1      3139 1.90588E+00
 -1      3140 1.29960E+00
 -1      3141 1.17289E+00
 -1      3142 1.57314E+00
 -1      3143 1.06781E+00
 -1      3144 1.03795E+00
 -1      3145 1.32236E+00
 -1      3146 9.16834E-01
 -1      3147 8.63782E-01
 -1      3148 1.09616E+00
 -1      3149 7.70042E-01
 -1      3150 7.12883E-01
 -1      3151 8.81306E-01
 -1      3152 6.51371E-01
 -1      3153 6.10397E-01
 -1      3154 7.26053E-01
 -1      3155 5.51916E-01
 -1      3156 5.15301E-01
 -1      3157 6.06060E-01
 -1      3158 4.63895E-01
 -1      3159 4.25080E-01
 -1      3160 4.96174E-01
 -1      3161 3.79064E-01
 -1      3162 3.41731E-01
 -1      3163 3.98752E-01
 -1      3164 3.02444E-01
 -1      3165 2.68662E-01
 -1      3166 3.13449E-01
 -1      3167 2.37709E-01
 -1      3168 2.08436E-01
 -1      3169 2.43209E-01
 -1      3170 1.83983E-01
 -1      3171 1.59458E-01
 -1      3172 1.87804E-01
 -1      3173 1.38790E-01
 -1      3174 1.18813E-01
 -1      3175 1.42684E-01
 -1      3176 1.01996E-01
 -1      3177 8.61273E-02
 -1      3178 1.05199E-01
 -1      3179 7.35447E-02
 -1      3180 6.12343E-02
 -1      3181 7.57993E-02
 -1      3182 5.17955E-02
 -1      3183 4.24699E-02
 -1      3184 5.37779E-02
 -1      3185 3.55980E-02
 -1      3186 2.87096E-02
 -1      3187 3.74673E-02
 -1      3188 2.36772E-02
 -1      3189 1.87322E-02
 -1      3190 2.55631E-02
 -1      3191 1.51358E-02
 -1      3192 1.17060E-02
 -1      3193 1.69344E-02
 -1      3194 9.21992E-03
 -1      3195 7.58895E-03
 -1      3196 1.08520E-02
 -1      3197 5.91814E-03
 -1      3198 5.36035E-03
 -1      3199 6.69517E-03
 -1      3200 4.51783E-03
 -1      3201 3.82446E-03
 -1      3202 2.93303E-03
 -1      3203 4.18184E-03
 -1      3204 5.27418E-01
 -1      3205 4.39258E-01
 -1      3206 1.59911E+00
 -1      3207 1.45350E+00
 -1      3208 1.24375E+00
 -1      3209 1.10251E+00
 -1      3210 1.38839E+00
 -1      3211 2.74347E+00
 -1      3212 2.46350E+00
 -1      3213 3.44334E+00
 -1      3214 2.98570E+00
 -1      3215 3.29608E+00
 -1      3216 6.04814E+00
 -1      3217 5.03297E+00
 -1      3218 6.16742E+00
 -1      3219 5.29976E+00
 -1      3220 7.09011E+00
 -1      3221 6.16296E+00
 -1      3222 2.94539E+00
 -1      3223 3.21882E+00
 -1      3224 2.12059E+00
 -1      3225 2.30704E+00
 -1      3226 3.12452E+00
 -1      3227 1.68162E+00
 -1      3228 1.80846E+00
 -1      3229 2.17403E+00
 -1      3230 1.32211E+00
 -1      3231 1.45054E+00
 -1      3232 1.63081E+00
 -1      3233 1.04517E+00
 -1      3234 1.16354E+00
 -1      3235 1.24116E+00
 -1      3236 8.29728E-01
 -1      3237 9.33175E-01
 -1      3238 9.70600E-01
 -1      3239 6.47060E-01
 -1      3240 7.34510E-01
 -1      3241 7.63387E-01
 -1      3242 4.95127E-01
 -1      3243 5.67288E-01
 -1      3244 5.88398E-01
 -1      3245 3.72264E-01
 -1      3246 4.30644E-01
 -1      3247 4.44142E-01
 -1      3248 2.75044E-01
 -1      3249 3.21463E-01
 -1      3250 3.28857E-01
 -1      3251 2.01677E-01
 -1      3252 2.38001E-01
 -1      3253 2.41013E-01
 -1      3254 1.47074E-01
 -1      3255 1.75064E-01
 -1      3256 1.77357E-01
 -1      3257 1.05278E-01
 -1      3258 1.26513E-01
 -1      3259 1.30183E-01
 -1      3260 7.37364E-02
 -1      3261 8.95838E-02
 -1      3262 9.39280E-02
 -1      3263 5.03161E-02
 -1      3264 6.19292E-02
 -1      3265 6.64267E-02
 -1      3266 3.32514E-02
 -1      3267 4.15825E-02
 -1      3268 4.58859E-02
 -1      3269 2.10976E-02
 -1      3270 2.69204E-02
 -1      3271 3.08213E-02
 -1      3272 1.36610E-02
 -1      3273 1.66208E-02
 -1      3274 2.00136E-02
 -1      3275 9.44494E-03
 -1      3276 1.05939E-02
 -1      3277 1.24697E-02
 -1      3278 6.55878E-03
 -1      3279 7.60749E-03
 -1      3280 7.56518E-03
 -1      3281 4.93865E-03
 -1      3282 5.98384E-03
 -1      3283 5.15280E-03
 -1      3284 3.65101E-03
 -1      3285 4.24288E-03
 -1      3286 3.88210E-03
 -1      3287 2.85581E-03
 -1      3288 3.46432E+00
 -1      3289 4.24065E+00
 -1      3290 2.64206E-01
 -1      3291 2.41572E-01
 -1      3292 5.80662E+00
 -1      3293 6.72427E+00
 -1      3294 2.65294E-03
 -1      3295 2.66742E-03
 -1      3296 2.31907E-03
 -1      3297 2.03670E-03
 -1      3298 2.60579E-03
 -1      3299 2.60579E-03
 -1      3300 3.59531E-03
 -1      3301 1.06522E+01
 -1      3302 1.20747E+01
 -1      3303 8.99015E+00
 -1      3304 6.99881E+00
 -1      3305 4.20365E+00
 -1      3306 4.02056E+00
 -1      3307 4.45371E+00
 -1      3308 1.17981E+01
 -1      3309 1.24474E+01
 -1      3310 2.50532E-03
 -1      3311 2.58411E-03
 -1      3312 3.52648E-03
 -1      3313 3.03618E-03
 -1      3314 4.00418E+00
 -1      3315 4.36880E+00
 -1      3316 4.54824E+00
 -1      3317 4.44277E+00
 -1      3318 4.33314E+00
 -1      3319 3.27494E+00
 -1      3320 2.86826E+00
 -1      3321 2.04589E+00
 -1      3322 1.90936E+00
 -1      3323 1.90838E+00
 -1      3324 2.63624E+00
 -1      3325 4.81636E+00
 -1      3326 4.61920E+00
 -1      3327 4.39710E+00
 -1      3328 3.54067E+00
 -1      3329 6.55469E+00
 -1      3330 5.63249E+00
 -1      3331 4.31831E+00
 -1      3332 2.69499E-01
 -1      3333 2.33724E-01
 -1      3334 2.69578E-01
 -1      3335 1.12271E+01
 -1      3336 8.28873E+00
 -1      3337 5.02727E-01
 -1      3338 3.97661E-01
 -1      3339 4.43108E-01
 -1      3340 1.17611E+01
 -1      3341 1.05053E+01
 -1      3342 3.60482E-01
 -1      3343 3.64700E-01
 -1      3344 3.18088E-01
 -1      3345 2.99557E-01
 -1      3346 7.88716E+00
 -1      3347 8.71568E+00
 -1      3348 4.29089E+00
 -1      3349 3.38314E+00
 -1      3350 3.37103E+00
 -1      3351 3.77780E+00
 -1      3352 7.88111E+00
 -1      3353 9.85309E+00
 -1      3354 2.27794E-01
 -1      3355 2.36284E-01
 -1      3356 1.94822E-01
 -1      3357 3.69759E-01
 -1      3358 3.96048E-01
 -1      3359 3.84050E-01
 -1      3360 2.90809E-01
 -1      3361 6.85602E+00
 -1      3362 8.62016E+00
 -1      3363 8.26893E+00
 -1      3364 3.10233E-01
 -1      3365 2.87539E-01
 -1      3366 2.31933E-01
 -1      3367 3.29083E-01
 -1      3368 2.39553E-03
 -1      3369 2.40682E-03
 -1      3370 3.12217E-01
 -1      3371 3.12217E-01
 -1      3372 2.85402E-01
 -1      3373 3.74356E+00
 -1      3374 3.74356E+00
 -1      3375 3.77780E+00
 -1      3376 3.48943E+00
 -1      3377 3.13119E+00
 -1      3378 4.30958E+00
 -1      3379 2.88172E-01
 -1      3380 3.08926E-01
 -1      3381 8.59430E+00
 -1      3382 5.99782E+00
 -1      3383 1.02882E+00
 -1      3384 9.52681E-01
 -1      3385 8.25306E-01
 -1      3386 5.12794E+00
 -1      3387 4.51138E+00
 -1      3388 3.31670E-01
 -1      3389 3.86503E-01
 -1      3390 3.41056E-01
 -1      3391 2.61707E-01
 -1      3392 1.05252E+01
 -1      3393 8.66755E+00
 -1      3394 1.05207E+01
 -1      3395 4.65823E+00
 -1      3396 4.21082E+00
 -1      3397 3.14750E+00
 -1      3398 2.60594E-03
 -1      3399 3.26378E-03
 -1      3400 2.58328E-03
 -1      3401 6.15448E+00
 -1      3402 6.63838E+00
 -1      3403 5.40757E+00
 -1      3404 2.66742E-03
 -1      3405 2.66742E-03
 -1      3406 3.55833E-03
 -1      3407 3.64246E-03
 -1      3408 7.95707E+00
 -1      3409 1.13022E+01
 -1      3410 8.94411E+00
 -1      3411 8.62091E+00
 -1      3412 3.95566E-01
 -1      3413 3.30383E-01
 -1      3414 3.69858E-01
 -1      3415 4.58531E-01
 -1      3416 3.47895E+00
 -1      3417 8.72007E+00
 -1      3418 1.44684E+01
 -1      3419 9.52007E+00
 -1      3420 9.55777E+00
 -1      3421 9.01321E+00
 -1      3422 1.10560E+01
 -1      3423 8.76712E+00
 -1      3424 7.18090E-01
 -1      3425 6.08585E-01
 -1      3426 7.71776E-01
 -1      3427 2.81718E+00
 -1      3428 5.83391E-01
 -1      3429 1.17120E+01
 -1      3430 3.57662E-01
 -1      3431 2.88643E+00
 -1      3432 2.52675E-03
 -1      3433 2.29866E-03
 -1      3434 2.54715E-03
 -1      3435 2.93303E-03
 -1      3436 3.44949E+00
 -1      3437 2.77485E+00
 -1      3438 3.81126E-01
 -1      3439 4.32253E-01
 -1      3440 4.94961E-01
 -1      3441 5.57419E-01
 -1      3442 4.96219E-01
 -1      3443 6.57305E-01
 -1      3444 7.23507E-01
 -1      3445 6.58813E-01
 -1      3446 8.50756E-01
 -1      3447 9.58413E-01
 -1      3448 8.85948E-01
 -1      3449 1.09766E+00
 -1      3450 1.22005E+00
 -1      3451 1.15244E+00
 -1      3452 1.43100E+00
 -1      3453 1.55519E+00
 -1      3454 1.50264E+00
 -1      3455 1.72348E+00
 -1      3456 1.91603E+00
 -1      3457 1.88189E+00
 -1      3458 2.58473E+00
 -1      3459 2.75078E+00
 -1      3460 2.71887E+00
 -1      3461 2.98020E+00
 -1      3462 2.38414E+00
 -1      3463 2.96124E+00
 -1      3464 2.31578E+00
 -1      3465 2.35056E+00
 -1      3466 2.21560E+00
 -1      3467 2.02855E+00
 -1      3468 2.47322E+00
 -1      3469 1.99221E+00
 -1      3470 1.84652E+00
 -1      3471 2.30193E+00
 -1      3472 1.59641E+00
 -1      3473 1.49132E+00
 -1      3474 2.01548E+00
 -1      3475 1.27818E+00
 -1      3476 1.15707E+00
 -1      3477 1.55223E+00
 -1      3478 1.02513E+00
 -1      3479 9.31390E-01
 -1      3480 1.20715E+00
 -1      3481 8.09291E-01
 -1      3482 7.47779E-01
 -1      3483 9.53116E-01
 -1      3484 6.49829E-01
 -1      3485 5.91348E-01
 -1      3486 7.33067E-01
 -1      3487 5.29331E-01
 -1      3488 4.77925E-01
 -1      3489 5.73099E-01
 -1      3490 4.29122E-01
 -1      3491 3.83106E-01
 -1      3492 4.62279E-01
 -1      3493 3.45600E-01
 -1      3494 3.06313E-01
 -1      3495 3.75970E-01
 -1      3496 2.72021E-01
 -1      3497 2.41068E-01
 -1      3498 3.04172E-01
 -1      3499 2.11209E-01
 -1      3500 1.86757E-01
 -1      3501 2.40021E-01
 -1      3502 1.61663E-01
 -1      3503 1.40995E-01
 -1      3504 1.85068E-01
 -1      3505 1.20500E-01
 -1      3506 1.03683E-01
 -1      3507 1.39479E-01
 -1      3508 8.73605E-02
 -1      3509 7.47778E-02
 -1      3510 1.02662E-01
 -1      3511 6.20814E-02
 -1      3512 5.26426E-02
 -1      3513 7.36425E-02
 -1      3514 4.33077E-02
 -1      3515 3.64359E-02
 -1      3516 5.16111E-02
 -1      3517 2.96407E-02
 -1      3518 2.46083E-02
 -1      3519 3.54811E-02
 -1      3520 1.96176E-02
 -1      3521 1.60213E-02
 -1      3522 2.36953E-02
 -1      3523 1.24468E-02
 -1      3524 9.96076E-03
 -1      3525 1.51300E-02
 -1      3526 7.46751E-03
 -1      3527 5.79671E-03
 -1      3528 9.06229E-03
 -1      3529 2.88172E-01
 -1      3530 2.38963E-01
 -1      3531 2.65244E-01
 -1      3532 7.82183E+00
 -1      3533 8.62091E+00
 -1      3534 3.85068E+00
 -1      3535 3.60845E+00
 -1      3536 3.52645E+00
 -1      3537 4.37250E+00
 -1      3538 2.15175E+00
 -1      3539 2.46389E+00
 -1      3540 2.88967E+00
 -1      3541 3.50150E+00
 -1      3542 4.13985E+00
 -1      3543 3.47922E+00
 -1      3544 1.23878E+00
 -1      3545 1.39735E+00
 -1      3546 9.69344E-01
 -1      3547 1.08134E+00
 -1      3548 1.23753E+00
 -1      3549 7.48910E-01
 -1      3550 8.44128E-01
 -1      3551 9.54867E-01
 -1      3552 5.70606E-01
 -1      3553 6.50377E-01
 -1      3554 7.31118E-01
 -1      3555 4.28878E-01
 -1      3556 4.93361E-01
 -1      3557 5.55341E-01
 -1      3558 3.17826E-01
 -1      3559 3.68627E-01
 -1      3560 4.17846E-01
 -1      3561 2.34091E-01
 -1      3562 2.71134E-01
 -1      3563 3.10904E-01
 -1      3564 1.71580E-01
 -1      3565 1.98193E-01
 -1      3566 2.28314E-01
 -1      3567 1.23686E-01
 -1      3568 1.44247E-01
 -1      3569 1.65083E-01
 -1      3570 8.74195E-02
 -1      3571 1.03114E-01
 -1      3572 1.17178E-01
 -1      3573 6.09491E-02
 -1      3574 7.27563E-02
 -1      3575 8.19419E-02
 -1      3576 4.15219E-02
 -1      3577 5.02555E-02
 -1      3578 5.65851E-02
 -1      3579 2.73929E-02
 -1      3580 3.37239E-02
 -1      3581 3.80935E-02
 -1      3582 1.73913E-02
 -1      3583 2.18681E-02
 -1      3584 2.47706E-02
 -1      3585 1.04812E-02
 -1      3586 1.35483E-02
 -1      3587 1.54028E-02
 -1      3588 6.52467E-03
 -1      3589 8.36212E-03
 -1      3590 9.44072E-03
 -1      3591 5.03175E-03
 -1      3592 5.60669E-03
 -1      3593 6.40362E-03
 -1      3594 4.69396E+00
 -1      3595 5.49102E+00
 -1      3596 7.50048E+00
 -1      3597 5.98534E+00
 -1      3598 2.40682E-03
 -1      3599 2.78932E-03
 -1      3600 3.11985E-03
 -1      3601 3.05336E-03
 -1      3602 4.96309E-03
 -1      3603 5.01024E-03
 -1      3604 5.38681E+00
 -1      3605 4.94270E+00
 -1      3606 2.84554E+00
 -1      3607 2.57981E+00
 -1      3608 6.56441E+00
 -1      3609 1.59763E+00
 -1      3610 1.82872E+00
 -1      3611 1.59526E+00
 -1      3612 1.58498E+00
 -1      3613 1.37524E+00
 -1      3614 2.28741E+00
 -1      3615 3.16719E-01
 -1      3616 3.43490E-01
 -1      3617 3.95875E-01
 -1      3618 6.54462E+00
 -1      3619 7.33361E+00
 -1      3620 3.04097E-01
 -1      3621 3.09720E-01
 -1      3622 3.51239E-01
 -1      3623 6.46148E-01
 -1      3624 5.64980E-01
 -1      3625 4.28243E+00
 -1      3626 3.04703E+00
 -1      3627 2.80967E+00
 -1      3628 3.67142E+00
 -1      3629 6.15353E+00
 -1      3630 4.12830E+00
 -1      3631 3.30808E-01
 -1      3632 2.90809E-01
 -1      3633 2.74203E-01
 -1      3634 8.12407E+00
 -1      3635 1.00588E+01
 -1      3636 7.95429E+00
 -1      3637 6.73396E+00
 -1      3638 3.64450E-01
 -1      3639 3.82980E-01
 -1      3640 3.77110E-01
 -1      3641 6.59102E+00
 -1      3642 4.16121E-01
 -1      3643 5.70911E+00
 -1      3644 5.61359E+00
 -1      3645 4.24859E+00
 -1      3646 5.80566E+00
 -1      3647 6.18263E+00
 -1      3648 3.92484E+00
 -1      3649 2.10004E-01
 -1      3650 4.07302E-03
 -1      3651 3.23049E-03
 -1      3652 2.82421E-03
 -1      3653 4.84536E-03
 -1      3654 3.32872E+00
 -1      3655 2.77412E+00
 -1      3656 2.35651E+00
 -1      3657 9.92026E+00
 -1      3658 6.79425E+00
 -1      3659 6.33229E+00
 -1      3660 1.17864E+00
 -1      3661 1.02882E+00
 -1      3662 1.37524E+00
 -1      3663 3.70903E+00
 -1      3664 2.87776E-01
 -1      3665 3.10520E-01
 -1      3666 3.00272E-01
 -1      3667 2.32977E-01
 -1      3668 2.32977E-01
 -1      3669 2.81790E-01
 -1      3670 3.81561E-03
 -1      3671 4.96309E-03
 -1      3672 6.37802E-03
 -1      3673 4.94141E-03
 -1      3674 4.93022E+00
 -1      3675 7.51194E-03
 -1      3676 6.14417E-03
 -1      3677 6.14417E-03
 -1      3678 7.84844E+00
 -1      3679 2.11858E+00
 -1      3680 1.85943E+00
 -1      3681 1.84628E+00
 -1      3682 2.16967E+00
 -1      3683 6.93411E+00
 -1      3684 8.02978E+00
 -1      3685 7.54777E+00
 -1      3686 8.13295E+00
 -1      3687 7.18177E+00
 -1      3688 7.68863E+00
 -1      3689 8.73932E-01
 -1      3690 7.66715E-01
 -1      3691 1.02376E+00
 -1      3692 2.41886E-01
 -1      3693 2.18553E-01
 -1      3694 5.52498E-01
 -1      3695 4.89741E-01
 -1      3696 6.95641E-03
 -1      3697 6.74600E-03
 -1      3698 6.14205E+00
 -1      3699 5.18693E+00
 -1      3700 7.48304E-01
 -1      3701 7.74823E+00
 -1      3702 5.76212E+00
 -1      3703 6.47538E+00
 -1      3704 2.63955E-01
 -1      3705 6.61565E+00
 -1      3706 4.26950E-03
 -1      3707 4.26950E-03
 -1      3708 7.31872E+00
 -1      3709 5.34699E+00
 -1      3710 6.61363E+00
 -1      3711 4.46049E-01
 -1      3712 3.04097E-01
 -1      3713 5.37627E+00
 -1      3714 2.06387E-01
 -1      3715 1.96433E-01
 -1      3716 1.82656E-01
 -1      3717 2.84461E-03
 -1      3718 7.96214E-03
 -1      3719 4.31994E-03
 -1      3720 4.04288E-03
 -1      3721 4.51150E-03
 -1      3722 6.04363E-03
 -1      3723 4.99597E-01
 -1      3724 5.62304E-01
 -1      3725 4.16121E-01
 -1      3726 3.42304E-01
 -1      3727 3.28925E-01
 -1      3728 6.62624E-01
 -1      3729 7.62510E-01
 -1      3730 6.66002E-01
 -1      3731 8.88450E-01
 -1      3732 1.01570E+00
 -1      3733 8.92262E-01
 -1      3734 1.24224E+00
 -1      3735 1.38149E+00
 -1      3736 1.24474E+00
 -1      3737 1.64777E+00
 -1      3738 1.85872E+00
 -1      3739 1.73757E+00
 -1      3740 3.04034E+00
 -1      3741 2.67471E+00
 -1      3742 4.16133E+00
 -1      3743 4.47370E+00
 -1      3744 4.12830E+00
 -1      3745 4.29343E-01
 -1      3746 2.33827E+00
 -1      3747 2.30193E+00
 -1      3748 2.67471E+00
 -1      3749 2.73026E+00
 -1      3750 2.48015E+00
 -1      3751 1.76537E+00
 -1      3752 1.55223E+00
 -1      3753 2.48015E+00
 -1      3754 1.41263E+00
 -1      3755 1.28069E+00
 -1      3756 1.62577E+00
 -1      3757 1.05658E+00
 -1      3758 9.34485E-01
 -1      3759 1.26206E+00
 -1      3760 8.16212E-01
 -1      3761 7.18262E-01
 -1      3762 9.19681E-01
 -1      3763 6.32334E-01
 -1      3764 5.70317E-01
 -1      3765 7.15480E-01
 -1      3766 5.11082E-01
 -1      3767 4.62279E-01
 -1      3768 5.70317E-01
 -1      3769 4.10506E-01
 -1      3770 3.73000E-01
 -1      3771 4.59309E-01
 -1      3772 3.29293E-01
 -1      3773 2.95001E-01
 -1      3774 3.63829E-01
 -1      3775 2.58834E-01
 -1      3776 2.28976E-01
 -1      3777 2.83956E-01
 -1      3778 1.99519E-01
 -1      3779 1.74425E-01
 -1      3780 2.18332E-01
 -1      3781 1.50787E-01
 -1      3782 1.30292E-01
 -1      3783 1.65238E-01
 -1      3784 1.11606E-01
 -1      3785 9.52829E-02
 -1      3786 1.22914E-01
 -1      3787 8.07385E-02
 -1      3788 6.80420E-02
 -1      3789 8.96823E-02
 -1      3790 5.69092E-02
 -1      3791 4.75743E-02
 -1      3792 6.40051E-02
 -1      3793 3.92055E-02
 -1      3794 3.24104E-02
 -1      3795 4.45036E-02
 -1      3796 2.65959E-02
 -1      3797 2.16052E-02
 -1      3798 3.03203E-02
 -1      3799 1.73979E-02
 -1      3800 1.38234E-02
 -1      3801 2.02985E-02
 -1      3802 1.08119E-02
 -1      3803 8.31866E-03
 -1      3804 1.30798E-02
 -1      3805 3.10894E+00
 -1      3806 4.14654E+00
 -1      3807 8.84681E-01
 -1      3808 1.00990E+00
 -1      3809 1.17293E+00
 -1      3810 1.33037E+00
 -1      3811 1.10274E+00
 -1      3812 5.06206E-01
 -1      3813 5.83450E-01
 -1      3814 3.80577E-01
 -1      3815 4.40827E-01
 -1      3816 4.68937E-01
 -1      3817 2.83701E-01
 -1      3818 3.30394E-01
 -1      3819 3.53375E-01
 -1      3820 2.09076E-01
 -1      3821 2.44974E-01
 -1      3822 2.64464E-01
 -1      3823 1.51883E-01
 -1      3824 1.79216E-01
 -1      3825 1.95876E-01
 -1      3826 1.08417E-01
 -1      3827 1.28990E-01
 -1      3828 1.43123E-01
 -1      3829 7.63633E-02
 -1      3830 9.10265E-02
 -1      3831 1.02839E-01
 -1      3832 5.26205E-02
 -1      3833 6.33141E-02
 -1      3834 7.23987E-02
 -1      3835 3.55309E-02
 -1      3836 4.33288E-02
 -1      3837 5.00579E-02
 -1      3838 2.33506E-02
 -1      3839 2.88755E-02
 -1      3840 3.41109E-02
 -1      3841 1.46950E-02
 -1      3842 1.85379E-02
 -1      3843 2.26428E-02
 -1      3844 1.03480E-02
 -1      3845 1.24671E-02
 -1      3846 1.56022E-02
 -1      3847 8.88013E-03
 -1      3848 3.40415E-01
 -1      3849 4.98750E+00
 -1      3850 6.65331E+00
 -1      3851 6.65331E+00
 -1      3852 4.61722E+00
 -1      3853 5.83458E-01
 -1      3854 5.08220E-01
 -1      3855 5.06562E+00
 -1      3856 4.36184E+00
 -1      3857 3.76331E+00
 -1      3858 2.18286E+00
 -1      3859 3.17302E+00
 -1      3860 3.39111E+00
 -1      3861 2.01457E+00
 -1      3862 2.10336E+00
 -1      3863 2.42640E+00
 -1      3864 3.09372E+00
 -1      3865 7.04055E-03
 -1      3866 6.95641E-03
 -1      3867 1.04386E-02
 -1      3868 9.54226E-03
 -1      3869 4.00036E-01
 -1      3870 4.37673E-01
 -1      3871 5.03758E-01
 -1      3872 4.56391E+00
 -1      3873 1.71474E-01
 -1      3874 2.00434E-01
 -1      3875 1.94447E-01
 -1      3876 1.73086E-01
 -1      3877 8.10021E-01
 -1      3878 6.89454E-01
 -1      3879 6.45175E-01
 -1      3880 3.44250E-01
 -1      3881 3.51249E-01
 -1      3882 3.93047E-01
 -1      3883 1.56705E+00
 -1      3884 1.76733E+00
 -1      3885 1.50245E+00
 -1      3886 6.04149E+00
 -1      3887 5.89663E+00
 -1      3888 4.22091E-01
 -1      3889 3.77110E-01
 -1      3890 4.29343E-01
 -1      3891 4.53301E-01
 -1      3892 6.69737E-01
 -1      3893 7.68270E-01
 -1      3894 8.23300E-01
 -1      3895 6.20602E-01
 -1      3896 1.19065E-02
 -1      3897 3.40415E-01
 -1      3898 3.44240E-01
 -1      3899 3.44250E-01
 -1      3900 2.85615E-01
 -1      3901 4.70164E+00
 -1      3902 3.79908E+00
 -1      3903 2.96474E+00
 -1      3904 4.49558E+00
 -1      3905 2.07515E+00
 -1      3906 3.75728E-01
 -1      3907 2.75310E-01
 -1      3908 2.30755E+00
 -1      3909 4.77912E-01
 -1      3910 4.46952E-01
 -1      3911 1.19065E-02
 -1      3912 1.19065E-02
 -1      3913 1.33743E-02
 -1      3914 2.15970E+00
 -1      3915 5.35766E+00
 -1      3916 5.21916E+00
 -1      3917 4.78349E+00
 -1      3918 1.52693E+00
 -1      3919 1.33033E+00
 -1      3920 7.79324E-03
 -1      3921 5.87493E+00
 -1      3922 5.94811E-03
 -1      3923 8.01910E-03
 -1      3924 9.15303E-03
 -1      3925 3.30488E-01
 -1      3926 2.83685E-01
 -1      3927 2.61565E-01
 -1      3928 7.96223E-03
 -1      3929 7.96223E-03
 -1      3930 9.60332E-03
 -1      3931 4.22993E-01
 -1      3932 4.16792E+00
 -1      3933 3.00101E+00
 -1      3934 2.28623E+00
 -1      3935 3.98616E+00
 -1      3936 2.12072E+00
 -1      3937 1.84628E+00
 -1      3938 1.80137E+00
 -1      3939 5.73898E+00
 -1      3940 7.03721E+00
 -1      3941 5.65008E+00
 -1      3942 5.50922E+00
 -1      3943 5.38095E+00
 -1      3944 6.26121E+00
 -1      3945 4.81281E+00
 -1      3946 1.11377E+00
 -1      3947 9.58888E-01
 -1      3948 9.00037E-01
 -1      3949 1.26546E+00
 -1      3950 4.89457E+00
 -1      3951 3.33498E+00
 -1      3952 4.22993E-01
 -1      3953 3.69378E-01
 -1      3954 6.66002E-01
 -1      3955 7.66322E-01
 -1      3956 8.92262E-01
 -1      3957 1.01820E+00
 -1      3958 8.92262E-01
 -1      3959 1.23233E+00
 -1      3960 1.45887E+00
 -1      3961 1.23233E+00
 -1      3962 1.75892E+00
 -1      3963 2.02520E+00
 -1      3964 1.74651E+00
 -1      3965 9.34727E-01
 -1      3966 1.09776E+00
 -1      3967 2.69555E+00
 -1      3968 3.37810E+00
 -1      3969 2.45637E+00
 -1      3970 2.26953E+00
 -1      3971 2.26953E+00
 -1      3972 4.40717E-01
 -1      3973 3.93451E-01
 -1      3974 5.01985E-01
 -1      3975 2.76660E+00
 -1      3976 2.00748E+00
 -1      3977 1.86789E+00
 -1      3978 1.41563E+00
 -1      3979 1.19153E+00
 -1      3980 1.79735E+00
 -1      3981 1.03710E+00
 -1      3982 9.18828E-01
 -1      3983 1.19067E+00
 -1      3984 8.01408E-01
 -1      3985 7.15480E-01
 -1      3986 9.18828E-01
 -1      3987 6.21547E-01
 -1      3988 5.62312E-01
 -1      3989 7.07475E-01
 -1      3990 4.89843E-01
 -1      3991 4.38070E-01
 -1      3992 5.41073E-01
 -1      3993 3.82431E-01
 -1      3994 3.38724E-01
 -1      3995 4.12965E-01
 -1      3996 2.95670E-01
 -1      3997 2.59503E-01
 -1      3998 3.14271E-01
 -1      3999 2.26081E-01
 -1      4000 1.96625E-01
 -1      4001 2.37795E-01
 -1      4002 1.70689E-01
 -1      4003 1.47051E-01
 -1      4004 1.78438E-01
 -1      4005 1.26995E-01
 -1      4006 1.08308E-01
 -1      4007 1.32446E-01
 -1      4008 9.28987E-02
 -1      4009 7.83543E-02
 -1      4010 9.69802E-02
 -1      4011 6.66234E-02
 -1      4012 5.54906E-02
 -1      4013 6.98398E-02
 -1      4014 4.66689E-02
 -1      4015 3.83002E-02
 -1      4016 4.92872E-02
 -1      4017 3.17597E-02
 -1      4018 2.59452E-02
 -1      4019 3.39250E-02
 -1      4020 2.22672E-02
 -1      4021 1.80599E-02
 -1      4022 2.37066E-02
 -1      4023 1.38621E-02
 -1      4024 1.08506E-02
 -1      4025 1.58308E-02
 -1      4026 4.65978E+00
 -1      4027 4.94058E+00
 -1      4028 4.43002E+00
 -1      4029 8.22315E-03
 -1      4030 3.00700E+00
 -1      4031 3.16285E+00
 -1      4032 3.02835E+00
 -1      4033 4.23842E+00
 -1      4034 4.66631E+00
 -1      4035 3.03956E-01
 -1      4036 3.54140E-01
 -1      4037 4.01253E-01
 -1      4038 4.66631E-01
 -1      4039 3.51834E-01
 -1      4040 1.70070E-01
 -1      4041 1.99930E-01
 -1      4042 1.24749E-01
 -1      4043 1.47642E-01
 -1      4044 1.51696E-01
 -1      4045 8.99349E-02
 -1      4046 1.07326E-01
 -1      4047 1.11845E-01
 -1      4048 6.34933E-02
 -1      4049 7.65425E-02
 -1      4050 8.10295E-02
 -1      4051 4.40496E-02
 -1      4052 5.33412E-02
 -1      4053 5.74850E-02
 -1      4054 2.98435E-02
 -1      4055 3.64989E-02
 -1      4056 3.97822E-02
 -1      4057 1.98828E-02
 -1      4058 2.46955E-02
 -1      4059 2.70835E-02
 -1      4060 1.42712E-02
 -1      4061 1.64991E-02
 -1      4062 1.85518E-02
 -1      4063 1.42712E-02
 -1      4064 3.81882E+00
 -1      4065 4.29343E-01
 -1      4066 7.00135E-01
 -1      4067 5.94140E-01
 -1      4068 5.56944E-01
 -1      4069 5.03758E-01
 -1      4070 5.65682E-01
 -1      4071 6.66002E-01
 -1      4072 3.74485E-01
 -1      4073 4.23272E-01
 -1      4074 4.85196E-01
 -1      4075 9.15303E-03
 -1      4076 1.00494E-02
 -1      4077 1.15173E-02
 -1      4078 9.66019E-03
 -1      4079 5.29539E+00
 -1      4080 4.97653E+00
 -1      4081 1.27959E+00
 -1      4082 1.51626E+00
 -1      4083 1.11157E+00
 -1      4084 1.82099E+00
 -1      4085 2.15702E+00
 -1      4086 2.44140E+00
 -1      4087 1.59813E+00
 -1      4088 2.28607E-01
 -1      4089 2.67334E-01
 -1      4090 2.68099E-01
 -1      4091 2.02800E-01
 -1      4092 3.64468E+00
 -1      4093 4.30084E+00
 -1      4094 3.76187E+00
 -1      4095 2.66288E+00
 -1      4096 5.29539E+00
 -1      4097 4.39699E+00
 -1      4098 4.32076E+00
 -1      4099 8.15410E-01
 -1      4100 8.10426E-01
 -1      4101 6.98999E-01
 -1      4102 3.42066E+00
 -1      4103 2.27570E-01
 -1      4104 2.60113E-01
 -1      4105 3.18738E-01
 -1      4106 4.01827E-01
 -1      4107 2.52834E+00
 -1      4108 4.60799E-01
 -1      4109 5.28483E-01
 -1      4110 6.14770E-01
 -1      4111 3.74475E-01
 -1      4112 8.28923E-01
 -1      4113 7.77888E-01
 -1      4114 9.77790E-01
 -1      4115 3.47617E-01
 -1      4116 2.70318E-01
 -1      4117 1.60826E-02
 -1      4118 1.60826E-02
 -1      4119 2.92672E+00
 -1      4120 9.80736E-03
 -1      4121 5.01152E+00
 -1      4122 4.09096E+00
 -1      4123 4.36009E+00
 -1      4124 1.37806E+00
 -1      4125 1.16150E+00
 -1      4126 1.09039E+00
 -1      4127 2.59137E-01
 -1      4128 4.39202E+00
 -1      4129 3.33154E+00
 -1      4130 2.82316E+00
 -1      4131 3.81249E+00
 -1      4132 1.83572E+00
 -1      4133 1.51637E+00
 -1      4134 1.41241E+00
 -1      4135 1.05897E-02
 -1      4136 1.60257E-02
 -1      4137 1.60826E-02
 -1      4138 2.25050E-02
 -1      4139 1.70690E-02
 -1      4140 1.57076E+00
 -1      4141 1.78489E+00
 -1      4142 2.30819E+00
 -1      4143 2.60823E+00
 -1      4144 2.64661E+00
 -1      4145 2.05536E+00
 -1      4146 1.90655E+00
 -1      4147 1.62155E+00
 -1      4148 2.46018E+00
 -1      4149 7.50747E-01
 -1      4150 8.51067E-01
 -1      4151 2.15056E+00
 -1      4152 1.69831E+00
 -1      4153 3.37896E+00
 -1      4154 3.94760E+00
 -1      4155 3.30903E+00
 -1      4156 1.34510E+00
 -1      4157 1.19067E+00
 -1      4158 1.69831E+00
 -1      4159 1.02455E+00
 -1      4160 9.07126E-01
 -1      4161 1.17897E+00
 -1      4162 7.47911E-01
 -1      4163 6.53978E-01
 -1      4164 8.53630E-01
 -1      4165 5.58560E-01
 -1      4166 4.86091E-01
 -1      4167 5.98997E-01
 -1      4168 4.18676E-01
 -1      4169 3.63037E-01
 -1      4170 4.36163E-01
 -1      4171 3.15372E-01
 -1      4172 2.72318E-01
 -1      4173 3.21084E-01
 -1      4174 2.42871E-01
 -1      4175 2.09449E-01
 -1      4176 2.43972E-01
 -1      4177 1.85266E-01
 -1      4178 1.59330E-01
 -1      4179 1.90342E-01
 -1      4180 1.39705E-01
 -1      4181 1.19649E-01
 -1      4182 1.46533E-01
 -1      4183 1.03811E-01
 -1      4184 8.84012E-02
 -1      4185 1.11070E-01
 -1      4186 7.58715E-02
 -1      4187 6.41406E-02
 -1      4188 8.27019E-02
 -1      4189 5.43436E-02
 -1      4190 4.55219E-02
 -1      4191 6.03752E-02
 -1      4192 3.79581E-02
 -1      4193 3.14176E-02
 -1      4194 4.30145E-02
 -1      4195 2.56981E-02
 -1      4196 2.20201E-02
 -1      4197 2.97312E-02
 -1      4198 2.12668E-02
 -1      4199 8.14023E-02
 -1      4200 9.47946E-02
 -1      4201 1.10623E+00
 -1      4202 1.23217E+00
 -1      4203 1.78473E+00
 -1      4204 3.26431E+00
 -1      4205 2.98556E+00
 -1      4206 1.25286E-02
 -1      4207 1.43857E-02
 -1      4208 1.52826E-02
 -1      4209 1.89510E-02
 -1      4210 1.10665E-01
 -1      4211 1.28088E-01
 -1      4212 1.11037E-01
 -1      4213 1.47489E-01
 -1      4214 1.69917E-01
 -1      4215 1.46309E-01
 -1      4216 5.85366E-02
 -1      4217 6.86887E-02
 -1      4218 8.24538E-02
 -1      4219 4.09522E-02
 -1      4220 4.85029E-02
 -1      4221 5.97066E-02
 -1      4222 2.80194E-02
 -1      4223 3.31674E-02
 -1      4224 4.18881E-02
 -1      4225 4.85827E-01
 -1      4226 4.22864E-01
 -1      4227 3.24803E-01
 -1      4228 4.31617E-01
 -1      4229 4.44338E+00
 -1      4230 9.71400E-01
 -1      4231 1.15323E+00
 -1      4232 3.15994E-01
 -1      4233 3.63107E-01
 -1      4234 3.48973E-01
 -1      4235 5.15671E-01
 -1      4236 5.96157E-01
 -1      4237 7.81222E-01
 -1      4238 5.77982E-01
 -1      4239 2.93824E+00
 -1      4240 2.88652E+00
 -1      4241 6.06880E-01
 -1      4242 3.22456E+00
 -1      4243 5.66748E-01
 -1      4244 4.91501E-01
 -1      4245 2.32583E-02
 -1      4246 6.54117E-01
 -1      4247 5.83000E-01
 -1      4248 4.03782E-01
 -1      4249 4.65634E-01
 -1      4250 3.67941E-01
 -1      4251 1.19098E+00
 -1      4252 2.18000E+00
 -1      4253 2.71854E+00
 -1      4254 3.83810E+00
 -1      4255 1.24156E+00
 -1      4256 1.38173E+00
 -1      4257 1.68646E+00
 -1      4258 3.80540E-01
 -1      4259 4.09096E+00
 -1      4260 2.67684E+00
 -1      4261 1.51402E-02
 -1      4262 1.85240E-02
 -1      4263 2.46078E-02
 -1      4264 1.52547E-02
 -1      4265 2.85410E-01
 -1      4266 2.96682E-01
 -1      4267 2.48787E-01
 -1      4268 7.06681E-01
 -1      4269 8.25998E-01
 -1      4270 8.67655E-01
 -1      4271 3.72152E+00
 -1      4272 7.82905E-01
 -1      4273 3.36639E+00
 -1      4274 3.36639E+00
 -1      4275 2.53139E+00
 -1      4276 2.95390E+00
 -1      4277 1.93098E-01
 -1      4278 2.21775E-01
 -1      4279 1.88892E-01
 -1      4280 1.14059E+00
 -1      4281 9.56875E-01
 -1      4282 8.33104E-01
 -1      4283 3.24295E+00
 -1      4284 2.65845E+00
 -1      4285 1.89064E+00
 -1      4286 1.47398E+00
 -1      4287 1.34047E+00
 -1      4288 3.24295E+00
 -1      4289 1.61229E+00
 -1      4290 6.42883E-01
 -1      4291 1.56000E+00
 -1      4292 1.22661E+00
 -1      4293 5.30585E-01
 -1      4294 6.14813E-01
 -1      4295 6.30386E-01
 -1      4296 7.97474E-01
 -1      4297 1.93868E+00
 -1      4298 1.58547E+00
 -1      4299 1.17908E+00
 -1      4300 1.01295E+00
 -1      4301 8.67549E-01
 -1      4302 7.08334E-01
 -1      4303 6.16466E-01
 -1      4304 5.21048E-01
 -1      4305 4.56098E-01
 -1      4306 3.88682E-01
 -1      4307 3.48007E-01
 -1      4308 3.00343E-01
 -1      4309 2.69759E-01
 -1      4310 2.40311E-01
 -1      4311 2.13299E-01
 -1      4312 1.89116E-01
 -1      4313 1.65934E-01
 -1      4314 1.46309E-01
 -1      4315 1.26908E-01
 -1      4316 1.11070E-01
 -1      4317 9.51995E-02
 -1      4318 8.26698E-02
 -1      4319 6.99562E-02
 -1      4320 6.01592E-02
 -1      4321 5.01256E-02
 -1      4322 4.25619E-02
 -1      4323 3.47770E-02
 -1      4324 2.90575E-02
 -1      4325 1.96360E+00
 -1      4326 3.78345E+00
 -1      4327 1.89858E+00
 -1      4328 9.71444E-01
 -1      4329 2.73420E+00
 -1      4330 2.10462E-02
 -1      4331 1.74922E-02
 -1      4332 2.44574E+00
 -1      4333 2.96904E+00
 -1      4334 3.58258E+00
 -1      4335 2.22102E+00
 -1      4336 2.15945E+00
 -1      4337 2.32583E-02
 -1      4338 1.73499E-02
 -1      4339 2.14149E+00
 -1      4340 2.41855E+00
 -1      4341 2.68453E-02
 -1      4342 1.40758E+00
 -1      4343 2.39086E-01
 -1      4344 4.73567E-01
 -1      4345 2.17995E-02
 -1      4346 2.23028E+00
 -1      4347 2.42854E+00
 -1      4348 1.64795E+00
 -3
 9999
