    1C
    1UUSER                                                              
    1UDATE              27.october.2022                                 
    1UTIME              00:02:36                                        
    1UHOST                                                              
    1UPGM               CalculiX                                        
    1UVERSION           Version 2.17                             
    1UCOMPILETIME       Thu Jul 23 21:43:50 CEST 2020                    
    1UDIR                                                               
    1UDBN                                                               
    1UMAT    1SOLIDMATERIAL                                             
    2C                          4269                                     1
 -1         1 1.24868E+02 2.96592E+01 0.00000E+00
 -1         2 1.34488E+02 2.31679E+01 0.00000E+00
 -1         3 1.50000E+02 0.00000E+00 0.00000E+00
 -1         4 1.50000E+02 5.00000E+01 0.00000E+00
 -1         5 0.00000E+00 0.00000E+00 0.00000E+00
 -1         6 0.00000E+00 5.00000E+01 0.00000E+00
 -1         7 0.00000E+00 4.70500E+01 0.00000E+00
 -1         8 0.00000E+00 4.41000E+01 0.00000E+00
 -1         9 0.00000E+00 4.11500E+01 0.00000E+00
 -1        10 0.00000E+00 3.82000E+01 0.00000E+00
 -1        11 0.00000E+00 3.52500E+01 0.00000E+00
 -1        12 0.00000E+00 3.23500E+01 0.00000E+00
 -1        13 0.00000E+00 2.94000E+01 0.00000E+00
 -1        14 0.00000E+00 2.64500E+01 0.00000E+00
 -1        15 0.00000E+00 2.35000E+01 0.00000E+00
 -1        16 0.00000E+00 2.05500E+01 0.00000E+00
 -1        17 0.00000E+00 1.76000E+01 0.00000E+00
 -1        18 0.00000E+00 1.47000E+01 0.00000E+00
 -1        19 0.00000E+00 1.17500E+01 0.00000E+00
 -1        20 0.00000E+00 8.80000E+00 0.00000E+00
 -1        21 0.00000E+00 5.85000E+00 0.00000E+00
 -1        22 0.00000E+00 2.90000E+00 0.00000E+00
 -1        23 3.15000E+00 5.00000E+01 0.00000E+00
 -1        24 6.15000E+00 5.00000E+01 0.00000E+00
 -1        25 9.15000E+00 5.00000E+01 0.00000E+00
 -1        26 1.21500E+01 5.00000E+01 0.00000E+00
 -1        27 1.51500E+01 5.00000E+01 0.00000E+00
 -1        28 1.81500E+01 5.00000E+01 0.00000E+00
 -1        29 2.11500E+01 5.00000E+01 0.00000E+00
 -1        30 2.41500E+01 5.00000E+01 0.00000E+00
 -1        31 2.71500E+01 5.00000E+01 0.00000E+00
 -1        32 3.01500E+01 5.00000E+01 0.00000E+00
 -1        33 3.31500E+01 5.00000E+01 0.00000E+00
 -1        34 3.61500E+01 5.00000E+01 0.00000E+00
 -1        35 3.91500E+01 5.00000E+01 0.00000E+00
 -1        36 4.21500E+01 5.00000E+01 0.00000E+00
 -1        37 4.51500E+01 5.00000E+01 0.00000E+00
 -1        38 4.81500E+01 5.00000E+01 0.00000E+00
 -1        39 5.11500E+01 5.00000E+01 0.00000E+00
 -1        40 5.41500E+01 5.00000E+01 0.00000E+00
 -1        41 5.71500E+01 5.00000E+01 0.00000E+00
 -1        42 6.01500E+01 5.00000E+01 0.00000E+00
 -1        43 6.31500E+01 5.00000E+01 0.00000E+00
 -1        44 6.61500E+01 5.00000E+01 0.00000E+00
 -1        45 6.91500E+01 5.00000E+01 0.00000E+00
 -1        46 7.21500E+01 5.00000E+01 0.00000E+00
 -1        47 7.51500E+01 5.00000E+01 0.00000E+00
 -1        48 7.81500E+01 5.00000E+01 0.00000E+00
 -1        49 8.11500E+01 5.00000E+01 0.00000E+00
 -1        50 8.41500E+01 5.00000E+01 0.00000E+00
 -1        51 8.71500E+01 5.00000E+01 0.00000E+00
 -1        52 9.01500E+01 5.00000E+01 0.00000E+00
 -1        53 9.31500E+01 5.00000E+01 0.00000E+00
 -1        54 9.61500E+01 5.00000E+01 0.00000E+00
 -1        55 9.91500E+01 5.00000E+01 0.00000E+00
 -1        56 1.02150E+02 5.00000E+01 0.00000E+00
 -1        57 1.05150E+02 5.00000E+01 0.00000E+00
 -1        58 1.08150E+02 5.00000E+01 0.00000E+00
 -1        59 1.11150E+02 5.00000E+01 0.00000E+00
 -1        60 1.14150E+02 5.00000E+01 0.00000E+00
 -1        61 1.17150E+02 5.00000E+01 0.00000E+00
 -1        62 1.20150E+02 5.00000E+01 0.00000E+00
 -1        63 1.23150E+02 5.00000E+01 0.00000E+00
 -1        64 1.26150E+02 5.00000E+01 0.00000E+00
 -1        65 1.29150E+02 5.00000E+01 0.00000E+00
 -1        66 1.32150E+02 5.00000E+01 0.00000E+00
 -1        67 1.35150E+02 5.00000E+01 0.00000E+00
 -1        68 1.38150E+02 5.00000E+01 0.00000E+00
 -1        69 1.41150E+02 5.00000E+01 0.00000E+00
 -1        70 1.44150E+02 5.00000E+01 0.00000E+00
 -1        71 1.47150E+02 5.00000E+01 0.00000E+00
 -1        72 3.15000E+00 0.00000E+00 0.00000E+00
 -1        73 6.15000E+00 0.00000E+00 0.00000E+00
 -1        74 9.15000E+00 0.00000E+00 0.00000E+00
 -1        75 1.21500E+01 0.00000E+00 0.00000E+00
 -1        76 1.51500E+01 0.00000E+00 0.00000E+00
 -1        77 1.81500E+01 0.00000E+00 0.00000E+00
 -1        78 2.11500E+01 0.00000E+00 0.00000E+00
 -1        79 2.41500E+01 0.00000E+00 0.00000E+00
 -1        80 2.71500E+01 0.00000E+00 0.00000E+00
 -1        81 3.01500E+01 0.00000E+00 0.00000E+00
 -1        82 3.31500E+01 0.00000E+00 0.00000E+00
 -1        83 3.61500E+01 0.00000E+00 0.00000E+00
 -1        84 3.91500E+01 0.00000E+00 0.00000E+00
 -1        85 4.21500E+01 0.00000E+00 0.00000E+00
 -1        86 4.51500E+01 0.00000E+00 0.00000E+00
 -1        87 4.81500E+01 0.00000E+00 0.00000E+00
 -1        88 5.11500E+01 0.00000E+00 0.00000E+00
 -1        89 5.41500E+01 0.00000E+00 0.00000E+00
 -1        90 5.71500E+01 0.00000E+00 0.00000E+00
 -1        91 6.01500E+01 0.00000E+00 0.00000E+00
 -1        92 6.31500E+01 0.00000E+00 0.00000E+00
 -1        93 6.61500E+01 0.00000E+00 0.00000E+00
 -1        94 6.91500E+01 0.00000E+00 0.00000E+00
 -1        95 7.21500E+01 0.00000E+00 0.00000E+00
 -1        96 7.51500E+01 0.00000E+00 0.00000E+00
 -1        97 7.81500E+01 0.00000E+00 0.00000E+00
 -1        98 8.11500E+01 0.00000E+00 0.00000E+00
 -1        99 8.41500E+01 0.00000E+00 0.00000E+00
 -1       100 8.71500E+01 0.00000E+00 0.00000E+00
 -1       101 9.01500E+01 0.00000E+00 0.00000E+00
 -1       102 9.31500E+01 0.00000E+00 0.00000E+00
 -1       103 9.61500E+01 0.00000E+00 0.00000E+00
 -1       104 9.91500E+01 0.00000E+00 0.00000E+00
 -1       105 1.02150E+02 0.00000E+00 0.00000E+00
 -1       106 1.05150E+02 0.00000E+00 0.00000E+00
 -1       107 1.08150E+02 0.00000E+00 0.00000E+00
 -1       108 1.11150E+02 0.00000E+00 0.00000E+00
 -1       109 1.14150E+02 0.00000E+00 0.00000E+00
 -1       110 1.17150E+02 0.00000E+00 0.00000E+00
 -1       111 1.20150E+02 0.00000E+00 0.00000E+00
 -1       112 1.23150E+02 0.00000E+00 0.00000E+00
 -1       113 1.26150E+02 0.00000E+00 0.00000E+00
 -1       114 1.29150E+02 0.00000E+00 0.00000E+00
 -1       115 1.32150E+02 0.00000E+00 0.00000E+00
 -1       116 1.35150E+02 0.00000E+00 0.00000E+00
 -1       117 1.38150E+02 0.00000E+00 0.00000E+00
 -1       118 1.41150E+02 0.00000E+00 0.00000E+00
 -1       119 1.44150E+02 0.00000E+00 0.00000E+00
 -1       120 1.47150E+02 0.00000E+00 0.00000E+00
 -1       121 1.50000E+02 2.95000E+00 0.00000E+00
 -1       122 1.50000E+02 5.90000E+00 0.00000E+00
 -1       123 1.50000E+02 8.85000E+00 0.00000E+00
 -1       124 1.50000E+02 1.18000E+01 0.00000E+00
 -1       125 1.50000E+02 1.47500E+01 0.00000E+00
 -1       126 1.50000E+02 1.76500E+01 0.00000E+00
 -1       127 1.50000E+02 2.06000E+01 0.00000E+00
 -1       128 1.50000E+02 2.35500E+01 0.00000E+00
 -1       129 1.50000E+02 2.65000E+01 0.00000E+00
 -1       130 1.50000E+02 2.94500E+01 0.00000E+00
 -1       131 1.50000E+02 3.24000E+01 0.00000E+00
 -1       132 1.50000E+02 3.53000E+01 0.00000E+00
 -1       133 1.50000E+02 3.82500E+01 0.00000E+00
 -1       134 1.50000E+02 4.12000E+01 0.00000E+00
 -1       135 1.50000E+02 4.41500E+01 0.00000E+00
 -1       136 1.50000E+02 4.71000E+01 0.00000E+00
 -1       137 1.34336E+02 2.17180E+01 0.00000E+00
 -1       138 1.33828E+02 2.02012E+01 0.00000E+00
 -1       139 1.32958E+02 1.87996E+01 0.00000E+00
 -1       140 1.31958E+02 1.77811E+01 0.00000E+00
 -1       141 1.30709E+02 1.69527E+01 0.00000E+00
 -1       142 1.29273E+02 1.63992E+01 0.00000E+00
 -1       143 1.27747E+02 1.61727E+01 0.00000E+00
 -1       144 1.26305E+02 1.62687E+01 0.00000E+00
 -1       145 1.24761E+02 1.67211E+01 0.00000E+00
 -1       146 1.23498E+02 1.74166E+01 0.00000E+00
 -1       147 1.22366E+02 1.83967E+01 0.00000E+00
 -1       148 1.21445E+02 1.96349E+01 0.00000E+00
 -1       149 1.20843E+02 2.09689E+01 0.00000E+00
 -1       150 1.20533E+02 2.23795E+01 0.00000E+00
 -1       151 1.20531E+02 2.39392E+01 0.00000E+00
 -1       152 1.20863E+02 2.54274E+01 0.00000E+00
 -1       153 1.21508E+02 2.68068E+01 0.00000E+00
 -1       154 1.22415E+02 2.79907E+01 0.00000E+00
 -1       155 1.23534E+02 2.89440E+01 0.00000E+00
 -1       156 1.26329E+02 3.00712E+01 0.00000E+00
 -1       157 1.27830E+02 3.01596E+01 0.00000E+00
 -1       158 1.29331E+02 2.99210E+01 0.00000E+00
 -1       159 1.30734E+02 2.93699E+01 0.00000E+00
 -1       160 1.32025E+02 2.84991E+01 0.00000E+00
 -1       161 1.33078E+02 2.73814E+01 0.00000E+00
 -1       162 1.33829E+02 2.61334E+01 0.00000E+00
 -1       163 1.34307E+02 2.47484E+01 0.00000E+00
 -1       164 2.59800E+00 4.55750E+01 0.00000E+00
 -1       165 2.59800E+00 4.26250E+01 0.00000E+00
 -1       166 2.59800E+00 3.96750E+01 0.00000E+00
 -1       167 2.59800E+00 3.67250E+01 0.00000E+00
 -1       168 2.59800E+00 3.38250E+01 0.00000E+00
 -1       169 2.59800E+00 3.08750E+01 0.00000E+00
 -1       170 2.59800E+00 2.79250E+01 0.00000E+00
 -1       171 2.59800E+00 2.49750E+01 0.00000E+00
 -1       172 2.59800E+00 2.20250E+01 0.00000E+00
 -1       173 2.59800E+00 1.90750E+01 0.00000E+00
 -1       174 2.59800E+00 1.61750E+01 0.00000E+00
 -1       175 2.59800E+00 1.32250E+01 0.00000E+00
 -1       176 2.59800E+00 1.02750E+01 0.00000E+00
 -1       177 2.59800E+00 7.32500E+00 0.00000E+00
 -1       178 2.59800E+00 4.37500E+00 0.00000E+00
 -1       179 2.87400E+00 2.18750E+00 0.00000E+00
 -1       180 4.65000E+00 4.74020E+01 0.00000E+00
 -1       181 7.65000E+00 4.74020E+01 0.00000E+00
 -1       182 1.06500E+01 4.74020E+01 0.00000E+00
 -1       183 1.36500E+01 4.74020E+01 0.00000E+00
 -1       184 1.66500E+01 4.74020E+01 0.00000E+00
 -1       185 1.96500E+01 4.74020E+01 0.00000E+00
 -1       186 2.26500E+01 4.74020E+01 0.00000E+00
 -1       187 2.56500E+01 4.74020E+01 0.00000E+00
 -1       188 2.86500E+01 4.74020E+01 0.00000E+00
 -1       189 3.16500E+01 4.74020E+01 0.00000E+00
 -1       190 3.46500E+01 4.74020E+01 0.00000E+00
 -1       191 3.76500E+01 4.74020E+01 0.00000E+00
 -1       192 4.06500E+01 4.74020E+01 0.00000E+00
 -1       193 4.36500E+01 4.74020E+01 0.00000E+00
 -1       194 4.66500E+01 4.74020E+01 0.00000E+00
 -1       195 4.96500E+01 4.74020E+01 0.00000E+00
 -1       196 5.26500E+01 4.74020E+01 0.00000E+00
 -1       197 5.56500E+01 4.74020E+01 0.00000E+00
 -1       198 5.86500E+01 4.74020E+01 0.00000E+00
 -1       199 6.16500E+01 4.74020E+01 0.00000E+00
 -1       200 6.46500E+01 4.74020E+01 0.00000E+00
 -1       201 6.76500E+01 4.74020E+01 0.00000E+00
 -1       202 7.06500E+01 4.74020E+01 0.00000E+00
 -1       203 7.36500E+01 4.74020E+01 0.00000E+00
 -1       204 7.66500E+01 4.74020E+01 0.00000E+00
 -1       205 7.96500E+01 4.74020E+01 0.00000E+00
 -1       206 8.26500E+01 4.74020E+01 0.00000E+00
 -1       207 8.56500E+01 4.74020E+01 0.00000E+00
 -1       208 8.86500E+01 4.74020E+01 0.00000E+00
 -1       209 9.16500E+01 4.74020E+01 0.00000E+00
 -1       210 9.46500E+01 4.74020E+01 0.00000E+00
 -1       211 9.76500E+01 4.74020E+01 0.00000E+00
 -1       212 1.00650E+02 4.74020E+01 0.00000E+00
 -1       213 1.03650E+02 4.74020E+01 0.00000E+00
 -1       214 1.06650E+02 4.74020E+01 0.00000E+00
 -1       215 1.09650E+02 4.74020E+01 0.00000E+00
 -1       216 1.12650E+02 4.74020E+01 0.00000E+00
 -1       217 1.15650E+02 4.74020E+01 0.00000E+00
 -1       218 1.18650E+02 4.74020E+01 0.00000E+00
 -1       219 1.21650E+02 4.74020E+01 0.00000E+00
 -1       220 1.24650E+02 4.74020E+01 0.00000E+00
 -1       221 1.27650E+02 4.74020E+01 0.00000E+00
 -1       222 1.30650E+02 4.74020E+01 0.00000E+00
 -1       223 1.33650E+02 4.74020E+01 0.00000E+00
 -1       224 1.36650E+02 4.74020E+01 0.00000E+00
 -1       225 1.39650E+02 4.74020E+01 0.00000E+00
 -1       226 1.42650E+02 4.74020E+01 0.00000E+00
 -1       227 1.45650E+02 4.74020E+01 0.00000E+00
 -1       228 5.87400E+00 2.18750E+00 0.00000E+00
 -1       229 8.87400E+00 2.18750E+00 0.00000E+00
 -1       230 1.18740E+01 2.18750E+00 0.00000E+00
 -1       231 1.48740E+01 2.18750E+00 0.00000E+00
 -1       232 1.78740E+01 2.18750E+00 0.00000E+00
 -1       233 2.08740E+01 2.18750E+00 0.00000E+00
 -1       234 2.38740E+01 2.18750E+00 0.00000E+00
 -1       235 2.68740E+01 2.18750E+00 0.00000E+00
 -1       236 2.98740E+01 2.18750E+00 0.00000E+00
 -1       237 3.28740E+01 2.18750E+00 0.00000E+00
 -1       238 3.58740E+01 2.18750E+00 0.00000E+00
 -1       239 3.88740E+01 2.18750E+00 0.00000E+00
 -1       240 4.18740E+01 2.18750E+00 0.00000E+00
 -1       241 4.48740E+01 2.18750E+00 0.00000E+00
 -1       242 4.78740E+01 2.18750E+00 0.00000E+00
 -1       243 5.08740E+01 2.18750E+00 0.00000E+00
 -1       244 5.38740E+01 2.18750E+00 0.00000E+00
 -1       245 5.68740E+01 2.18750E+00 0.00000E+00
 -1       246 5.98740E+01 2.18750E+00 0.00000E+00
 -1       247 6.28740E+01 2.18750E+00 0.00000E+00
 -1       248 6.58740E+01 2.18750E+00 0.00000E+00
 -1       249 6.88740E+01 2.18750E+00 0.00000E+00
 -1       250 7.18740E+01 2.18750E+00 0.00000E+00
 -1       251 7.48740E+01 2.18750E+00 0.00000E+00
 -1       252 7.78740E+01 2.18750E+00 0.00000E+00
 -1       253 8.08740E+01 2.18750E+00 0.00000E+00
 -1       254 8.38740E+01 2.18750E+00 0.00000E+00
 -1       255 8.68740E+01 2.18750E+00 0.00000E+00
 -1       256 8.98740E+01 2.18750E+00 0.00000E+00
 -1       257 9.28740E+01 2.18750E+00 0.00000E+00
 -1       258 9.58740E+01 2.18750E+00 0.00000E+00
 -1       259 9.88740E+01 2.18750E+00 0.00000E+00
 -1       260 1.01874E+02 2.18750E+00 0.00000E+00
 -1       261 1.04874E+02 2.18750E+00 0.00000E+00
 -1       262 1.07874E+02 2.18750E+00 0.00000E+00
 -1       263 1.10874E+02 2.18750E+00 0.00000E+00
 -1       264 1.13874E+02 2.18750E+00 0.00000E+00
 -1       265 1.16874E+02 2.18750E+00 0.00000E+00
 -1       266 1.19874E+02 2.18750E+00 0.00000E+00
 -1       267 1.22874E+02 2.18750E+00 0.00000E+00
 -1       268 1.25874E+02 2.18750E+00 0.00000E+00
 -1       269 1.28874E+02 2.18750E+00 0.00000E+00
 -1       270 1.31874E+02 2.18750E+00 0.00000E+00
 -1       271 1.34874E+02 2.18750E+00 0.00000E+00
 -1       272 1.37874E+02 2.18750E+00 0.00000E+00
 -1       273 1.40874E+02 2.18750E+00 0.00000E+00
 -1       274 1.43874E+02 2.18750E+00 0.00000E+00
 -1       275 1.46874E+02 2.18750E+00 0.00000E+00
 -1       276 1.47402E+02 4.42500E+00 0.00000E+00
 -1       277 1.47402E+02 7.37500E+00 0.00000E+00
 -1       278 1.47402E+02 1.03250E+01 0.00000E+00
 -1       279 1.47402E+02 1.32750E+01 0.00000E+00
 -1       280 1.47402E+02 1.61750E+01 0.00000E+00
 -1       281 1.47402E+02 1.91250E+01 0.00000E+00
 -1       282 1.47402E+02 2.20750E+01 0.00000E+00
 -1       283 1.47402E+02 2.50250E+01 0.00000E+00
 -1       284 1.47402E+02 2.79750E+01 0.00000E+00
 -1       285 1.47402E+02 3.09250E+01 0.00000E+00
 -1       286 1.47402E+02 3.38250E+01 0.00000E+00
 -1       287 1.47402E+02 3.67750E+01 0.00000E+00
 -1       288 1.47402E+02 3.97250E+01 0.00000E+00
 -1       289 1.47402E+02 4.26750E+01 0.00000E+00
 -1       290 1.46526E+02 4.50385E+01 0.00000E+00
 -1       291 1.35618E+02 2.23167E+01 0.00000E+00
 -1       292 1.35391E+02 2.05214E+01 0.00000E+00
 -1       293 1.34708E+02 1.86839E+01 0.00000E+00
 -1       294 1.33323E+02 1.74411E+01 0.00000E+00
 -1       295 1.32003E+02 1.63564E+01 0.00000E+00
 -1       296 1.30457E+02 1.54665E+01 0.00000E+00
 -1       297 1.28700E+02 1.50038E+01 0.00000E+00
 -1       298 1.26945E+02 1.50110E+01 0.00000E+00
 -1       299 1.25121E+02 1.50902E+01 0.00000E+00
 -1       300 1.23544E+02 1.60069E+01 0.00000E+00
 -1       301 1.22138E+02 1.69902E+01 0.00000E+00
 -1       302 1.20798E+02 1.81923E+01 0.00000E+00
 -1       303 1.19734E+02 1.96648E+01 0.00000E+00
 -1       304 1.19503E+02 2.14141E+01 0.00000E+00
 -1       305 1.19236E+02 2.31578E+01 0.00000E+00
 -1       306 1.19432E+02 2.49656E+01 0.00000E+00
 -1       307 1.19936E+02 2.67020E+01 0.00000E+00
 -1       308 1.20932E+02 2.81867E+01 0.00000E+00
 -1       309 1.22134E+02 2.94541E+01 0.00000E+00
 -1       310 1.23589E+02 3.04441E+01 0.00000E+00
 -1       311 1.25269E+02 3.10320E+01 0.00000E+00
 -1       312 1.27008E+02 3.13257E+01 0.00000E+00
 -1       313 1.28784E+02 3.13204E+01 0.00000E+00
 -1       314 1.30507E+02 3.08519E+01 0.00000E+00
 -1       315 1.32057E+02 2.99395E+01 0.00000E+00
 -1       316 1.33677E+02 2.90017E+01 0.00000E+00
 -1       317 1.34492E+02 2.73825E+01 0.00000E+00
 -1       318 1.35214E+02 2.58368E+01 0.00000E+00
 -1       319 1.35769E+02 2.41150E+01 0.00000E+00
 -1       320 5.19600E+00 4.11500E+01 0.00000E+00
 -1       321 5.19600E+00 4.41000E+01 0.00000E+00
 -1       322 5.19600E+00 3.52750E+01 0.00000E+00
 -1       323 5.19600E+00 3.23250E+01 0.00000E+00
 -1       324 5.19600E+00 2.93750E+01 0.00000E+00
 -1       325 5.19600E+00 2.64250E+01 0.00000E+00
 -1       326 5.19600E+00 2.34750E+01 0.00000E+00
 -1       327 5.19600E+00 2.05250E+01 0.00000E+00
 -1       328 5.19600E+00 1.76250E+01 0.00000E+00
 -1       329 5.19600E+00 1.46750E+01 0.00000E+00
 -1       330 5.19600E+00 1.17250E+01 0.00000E+00
 -1       331 5.19600E+00 8.77500E+00 0.00000E+00
 -1       332 5.19600E+00 5.82500E+00 0.00000E+00
 -1       333 5.53500E+00 4.00625E+00 0.00000E+00
 -1       334 8.53500E+00 4.00625E+00 0.00000E+00
 -1       335 9.15000E+00 4.48040E+01 0.00000E+00
 -1       336 1.21500E+01 4.48040E+01 0.00000E+00
 -1       337 1.51500E+01 4.48040E+01 0.00000E+00
 -1       338 1.81500E+01 4.48040E+01 0.00000E+00
 -1       339 2.11500E+01 4.48040E+01 0.00000E+00
 -1       340 2.41500E+01 4.48040E+01 0.00000E+00
 -1       341 2.71500E+01 4.48040E+01 0.00000E+00
 -1       342 3.01500E+01 4.48040E+01 0.00000E+00
 -1       343 3.31500E+01 4.48040E+01 0.00000E+00
 -1       344 3.61500E+01 4.48040E+01 0.00000E+00
 -1       345 3.91500E+01 4.48040E+01 0.00000E+00
 -1       346 4.21500E+01 4.48040E+01 0.00000E+00
 -1       347 4.51500E+01 4.48040E+01 0.00000E+00
 -1       348 4.81500E+01 4.48040E+01 0.00000E+00
 -1       349 5.11500E+01 4.48040E+01 0.00000E+00
 -1       350 5.41500E+01 4.48040E+01 0.00000E+00
 -1       351 5.71500E+01 4.48040E+01 0.00000E+00
 -1       352 6.01500E+01 4.48040E+01 0.00000E+00
 -1       353 6.31500E+01 4.48040E+01 0.00000E+00
 -1       354 6.61500E+01 4.48040E+01 0.00000E+00
 -1       355 6.91500E+01 4.48040E+01 0.00000E+00
 -1       356 7.21500E+01 4.48040E+01 0.00000E+00
 -1       357 7.51500E+01 4.48040E+01 0.00000E+00
 -1       358 7.81500E+01 4.48040E+01 0.00000E+00
 -1       359 8.11500E+01 4.48040E+01 0.00000E+00
 -1       360 8.41500E+01 4.48040E+01 0.00000E+00
 -1       361 8.71500E+01 4.48040E+01 0.00000E+00
 -1       362 9.01500E+01 4.48040E+01 0.00000E+00
 -1       363 9.31500E+01 4.48040E+01 0.00000E+00
 -1       364 9.61500E+01 4.48040E+01 0.00000E+00
 -1       365 9.91500E+01 4.48040E+01 0.00000E+00
 -1       366 1.02150E+02 4.48040E+01 0.00000E+00
 -1       367 1.05150E+02 4.48040E+01 0.00000E+00
 -1       368 1.08150E+02 4.48040E+01 0.00000E+00
 -1       369 1.11150E+02 4.48040E+01 0.00000E+00
 -1       370 1.14150E+02 4.48040E+01 0.00000E+00
 -1       371 1.17150E+02 4.48040E+01 0.00000E+00
 -1       372 1.20150E+02 4.48040E+01 0.00000E+00
 -1       373 1.23150E+02 4.48040E+01 0.00000E+00
 -1       374 1.26150E+02 4.48040E+01 0.00000E+00
 -1       375 1.29150E+02 4.48040E+01 0.00000E+00
 -1       376 1.32150E+02 4.48040E+01 0.00000E+00
 -1       377 1.35150E+02 4.48040E+01 0.00000E+00
 -1       378 1.38150E+02 4.48040E+01 0.00000E+00
 -1       379 1.41150E+02 4.48040E+01 0.00000E+00
 -1       380 1.43838E+02 4.49212E+01 0.00000E+00
 -1       381 1.15350E+01 4.00625E+00 0.00000E+00
 -1       382 1.45350E+01 4.00625E+00 0.00000E+00
 -1       383 1.75350E+01 4.00625E+00 0.00000E+00
 -1       384 2.05350E+01 4.00625E+00 0.00000E+00
 -1       385 2.35350E+01 4.00625E+00 0.00000E+00
 -1       386 2.65350E+01 4.00625E+00 0.00000E+00
 -1       387 2.95350E+01 4.00625E+00 0.00000E+00
 -1       388 3.25350E+01 4.00625E+00 0.00000E+00
 -1       389 3.55350E+01 4.00625E+00 0.00000E+00
 -1       390 3.85350E+01 4.00625E+00 0.00000E+00
 -1       391 4.15350E+01 4.00625E+00 0.00000E+00
 -1       392 4.45350E+01 4.00625E+00 0.00000E+00
 -1       393 4.75350E+01 4.00625E+00 0.00000E+00
 -1       394 5.05350E+01 4.00625E+00 0.00000E+00
 -1       395 5.35350E+01 4.00625E+00 0.00000E+00
 -1       396 5.65350E+01 4.00625E+00 0.00000E+00
 -1       397 5.95350E+01 4.00625E+00 0.00000E+00
 -1       398 6.25350E+01 4.00625E+00 0.00000E+00
 -1       399 6.55350E+01 4.00625E+00 0.00000E+00
 -1       400 6.85350E+01 4.00625E+00 0.00000E+00
 -1       401 7.15350E+01 4.00625E+00 0.00000E+00
 -1       402 7.45350E+01 4.00625E+00 0.00000E+00
 -1       403 7.75350E+01 4.00625E+00 0.00000E+00
 -1       404 8.05350E+01 4.00625E+00 0.00000E+00
 -1       405 8.35350E+01 4.00625E+00 0.00000E+00
 -1       406 8.65350E+01 4.00625E+00 0.00000E+00
 -1       407 8.95350E+01 4.00625E+00 0.00000E+00
 -1       408 9.25350E+01 4.00625E+00 0.00000E+00
 -1       409 9.55350E+01 4.00625E+00 0.00000E+00
 -1       410 9.85350E+01 4.00625E+00 0.00000E+00
 -1       411 1.01535E+02 4.00625E+00 0.00000E+00
 -1       412 1.04535E+02 4.00625E+00 0.00000E+00
 -1       413 1.07535E+02 4.00625E+00 0.00000E+00
 -1       414 1.10535E+02 4.00625E+00 0.00000E+00
 -1       415 1.13535E+02 4.00625E+00 0.00000E+00
 -1       416 1.16535E+02 4.00625E+00 0.00000E+00
 -1       417 1.19535E+02 4.00625E+00 0.00000E+00
 -1       418 1.22535E+02 4.00625E+00 0.00000E+00
 -1       419 1.25535E+02 4.00625E+00 0.00000E+00
 -1       420 1.28535E+02 4.00625E+00 0.00000E+00
 -1       421 1.31535E+02 4.00625E+00 0.00000E+00
 -1       422 1.34535E+02 4.00625E+00 0.00000E+00
 -1       423 1.37535E+02 4.00625E+00 0.00000E+00
 -1       424 1.40535E+02 4.00625E+00 0.00000E+00
 -1       425 1.43535E+02 4.00625E+00 0.00000E+00
 -1       426 1.45469E+02 4.21562E+00 0.00000E+00
 -1       427 1.44804E+02 1.18000E+01 0.00000E+00
 -1       428 1.44804E+02 8.85000E+00 0.00000E+00
 -1       429 1.45136E+02 6.53281E+00 0.00000E+00
 -1       430 1.44804E+02 1.47000E+01 0.00000E+00
 -1       431 1.44804E+02 1.76500E+01 0.00000E+00
 -1       432 1.44804E+02 2.06000E+01 0.00000E+00
 -1       433 1.44804E+02 2.35500E+01 0.00000E+00
 -1       434 1.44804E+02 2.65000E+01 0.00000E+00
 -1       435 1.44804E+02 2.94500E+01 0.00000E+00
 -1       436 1.44804E+02 3.23500E+01 0.00000E+00
 -1       437 1.44804E+02 3.53000E+01 0.00000E+00
 -1       438 1.44804E+02 3.82500E+01 0.00000E+00
 -1       439 1.44804E+02 4.12000E+01 0.00000E+00
 -1       440 1.36421E+02 1.90925E+01 0.00000E+00
 -1       441 1.37236E+02 2.30866E+01 0.00000E+00
 -1       442 1.37008E+02 2.12913E+01 0.00000E+00
 -1       443 1.34937E+02 1.70356E+01 0.00000E+00
 -1       444 1.33486E+02 1.58973E+01 0.00000E+00
 -1       445 5.19600E+00 3.82125E+01 0.00000E+00
 -1       446 1.30015E+02 1.35766E+01 0.00000E+00
 -1       447 1.27817E+02 1.35437E+01 0.00000E+00
 -1       448 1.25992E+02 1.36229E+01 0.00000E+00
 -1       449 1.23681E+02 1.44280E+01 0.00000E+00
 -1       450 1.22051E+02 1.53676E+01 0.00000E+00
 -1       451 1.20435E+02 1.64393E+01 0.00000E+00
 -1       452 1.19080E+02 1.80708E+01 0.00000E+00
 -1       453 1.18250E+02 2.03595E+01 0.00000E+00
 -1       454 1.17982E+02 2.21031E+01 0.00000E+00
 -1       455 1.17629E+02 2.42467E+01 0.00000E+00
 -1       456 1.18439E+02 2.61951E+01 0.00000E+00
 -1       457 1.19149E+02 2.83068E+01 0.00000E+00
 -1       458 1.20349E+02 2.99427E+01 0.00000E+00
 -1       459 1.22038E+02 3.11594E+01 0.00000E+00
 -1       460 1.23918E+02 3.21988E+01 0.00000E+00
 -1       461 1.25895E+02 3.26222E+01 0.00000E+00
 -1       462 1.27900E+02 3.27030E+01 0.00000E+00
 -1       463 1.30029E+02 3.24986E+01 0.00000E+00
 -1       464 1.32024E+02 3.16573E+01 0.00000E+00
 -1       465 1.33644E+02 3.07196E+01 0.00000E+00
 -1       466 1.35392E+02 2.88502E+01 0.00000E+00
 -1       467 1.36114E+02 2.73044E+01 0.00000E+00
 -1       468 1.36805E+02 2.53990E+01 0.00000E+00
 -1       469 1.31876E+02 1.47879E+01 0.00000E+00
 -1       470 1.36651E+02 1.74443E+01 0.00000E+00
 -1       471 1.35359E+02 3.05680E+01 0.00000E+00
 -1       472 1.17597E+02 1.87655E+01 0.00000E+00
 -1       473 1.24553E+02 1.29607E+01 0.00000E+00
 -1       474 1.00350E+01 6.60425E+00 0.00000E+00
 -1       475 7.79400E+00 3.08500E+01 0.00000E+00
 -1       476 7.79400E+00 3.38000E+01 0.00000E+00
 -1       477 7.79400E+00 2.49500E+01 0.00000E+00
 -1       478 7.79400E+00 2.20000E+01 0.00000E+00
 -1       479 7.79400E+00 1.91000E+01 0.00000E+00
 -1       480 7.79400E+00 1.61500E+01 0.00000E+00
 -1       481 7.79400E+00 1.32000E+01 0.00000E+00
 -1       482 7.79400E+00 1.02500E+01 0.00000E+00
 -1       483 1.30350E+01 6.60425E+00 0.00000E+00
 -1       484 1.06500E+01 4.22060E+01 0.00000E+00
 -1       485 1.31881E+02 1.27448E+01 0.00000E+00
 -1       486 1.36500E+01 4.22060E+01 0.00000E+00
 -1       487 1.66500E+01 4.22060E+01 0.00000E+00
 -1       488 1.96500E+01 4.22060E+01 0.00000E+00
 -1       489 2.26500E+01 4.22060E+01 0.00000E+00
 -1       490 2.56500E+01 4.22060E+01 0.00000E+00
 -1       491 2.86500E+01 4.22060E+01 0.00000E+00
 -1       492 3.16500E+01 4.22060E+01 0.00000E+00
 -1       493 3.46500E+01 4.22060E+01 0.00000E+00
 -1       494 3.76500E+01 4.22060E+01 0.00000E+00
 -1       495 4.06500E+01 4.22060E+01 0.00000E+00
 -1       496 4.36500E+01 4.22060E+01 0.00000E+00
 -1       497 4.66500E+01 4.22060E+01 0.00000E+00
 -1       498 4.96500E+01 4.22060E+01 0.00000E+00
 -1       499 5.26500E+01 4.22060E+01 0.00000E+00
 -1       500 5.56500E+01 4.22060E+01 0.00000E+00
 -1       501 5.86500E+01 4.22060E+01 0.00000E+00
 -1       502 6.16500E+01 4.22060E+01 0.00000E+00
 -1       503 6.46500E+01 4.22060E+01 0.00000E+00
 -1       504 6.76500E+01 4.22060E+01 0.00000E+00
 -1       505 7.06500E+01 4.22060E+01 0.00000E+00
 -1       506 7.36500E+01 4.22060E+01 0.00000E+00
 -1       507 7.66500E+01 4.22060E+01 0.00000E+00
 -1       508 7.96500E+01 4.22060E+01 0.00000E+00
 -1       509 8.26500E+01 4.22060E+01 0.00000E+00
 -1       510 8.56500E+01 4.22060E+01 0.00000E+00
 -1       511 8.86500E+01 4.22060E+01 0.00000E+00
 -1       512 9.16500E+01 4.22060E+01 0.00000E+00
 -1       513 9.46500E+01 4.22060E+01 0.00000E+00
 -1       514 9.76500E+01 4.22060E+01 0.00000E+00
 -1       515 1.00650E+02 4.22060E+01 0.00000E+00
 -1       516 1.03650E+02 4.22060E+01 0.00000E+00
 -1       517 1.06650E+02 4.22060E+01 0.00000E+00
 -1       518 1.09650E+02 4.22060E+01 0.00000E+00
 -1       519 1.12650E+02 4.22060E+01 0.00000E+00
 -1       520 1.15650E+02 4.22060E+01 0.00000E+00
 -1       521 1.18650E+02 4.22060E+01 0.00000E+00
 -1       522 1.21650E+02 4.22060E+01 0.00000E+00
 -1       523 1.24650E+02 4.22060E+01 0.00000E+00
 -1       524 1.27650E+02 4.22060E+01 0.00000E+00
 -1       525 1.30650E+02 4.22060E+01 0.00000E+00
 -1       526 1.33650E+02 4.22060E+01 0.00000E+00
 -1       527 1.36650E+02 4.22060E+01 0.00000E+00
 -1       528 1.39650E+02 4.22060E+01 0.00000E+00
 -1       529 1.90350E+01 6.60425E+00 0.00000E+00
 -1       530 2.20350E+01 6.60425E+00 0.00000E+00
 -1       531 2.50350E+01 6.60425E+00 0.00000E+00
 -1       532 2.80350E+01 6.60425E+00 0.00000E+00
 -1       533 3.10350E+01 6.60425E+00 0.00000E+00
 -1       534 3.40350E+01 6.60425E+00 0.00000E+00
 -1       535 3.70350E+01 6.60425E+00 0.00000E+00
 -1       536 4.00350E+01 6.60425E+00 0.00000E+00
 -1       537 4.30350E+01 6.60425E+00 0.00000E+00
 -1       538 4.60350E+01 6.60425E+00 0.00000E+00
 -1       539 4.90350E+01 6.60425E+00 0.00000E+00
 -1       540 5.20350E+01 6.60425E+00 0.00000E+00
 -1       541 5.50350E+01 6.60425E+00 0.00000E+00
 -1       542 5.80350E+01 6.60425E+00 0.00000E+00
 -1       543 6.10350E+01 6.60425E+00 0.00000E+00
 -1       544 6.40350E+01 6.60425E+00 0.00000E+00
 -1       545 6.70350E+01 6.60425E+00 0.00000E+00
 -1       546 7.00350E+01 6.60425E+00 0.00000E+00
 -1       547 7.30350E+01 6.60425E+00 0.00000E+00
 -1       548 7.60350E+01 6.60425E+00 0.00000E+00
 -1       549 7.90350E+01 6.60425E+00 0.00000E+00
 -1       550 8.20350E+01 6.60425E+00 0.00000E+00
 -1       551 8.50350E+01 6.60425E+00 0.00000E+00
 -1       552 8.80350E+01 6.60425E+00 0.00000E+00
 -1       553 9.10350E+01 6.60425E+00 0.00000E+00
 -1       554 9.40350E+01 6.60425E+00 0.00000E+00
 -1       555 9.70350E+01 6.60425E+00 0.00000E+00
 -1       556 1.00035E+02 6.60425E+00 0.00000E+00
 -1       557 1.03035E+02 6.60425E+00 0.00000E+00
 -1       558 1.06035E+02 6.60425E+00 0.00000E+00
 -1       559 1.09035E+02 6.60425E+00 0.00000E+00
 -1       560 1.12035E+02 6.60425E+00 0.00000E+00
 -1       561 1.15035E+02 6.60425E+00 0.00000E+00
 -1       562 1.18035E+02 6.60425E+00 0.00000E+00
 -1       563 1.21035E+02 6.60425E+00 0.00000E+00
 -1       564 1.24035E+02 6.60425E+00 0.00000E+00
 -1       565 1.27035E+02 6.60425E+00 0.00000E+00
 -1       566 1.30035E+02 6.60425E+00 0.00000E+00
 -1       567 1.33035E+02 6.60425E+00 0.00000E+00
 -1       568 1.36035E+02 6.60425E+00 0.00000E+00
 -1       569 1.39035E+02 6.60425E+00 0.00000E+00
 -1       570 1.42035E+02 6.60425E+00 0.00000E+00
 -1       571 1.42206E+02 1.61750E+01 0.00000E+00
 -1       572 1.42206E+02 1.91250E+01 0.00000E+00
 -1       573 1.42206E+02 1.03250E+01 0.00000E+00
 -1       574 1.42206E+02 1.32500E+01 0.00000E+00
 -1       575 1.42206E+02 2.20750E+01 0.00000E+00
 -1       576 1.42206E+02 2.50250E+01 0.00000E+00
 -1       577 1.42206E+02 2.79750E+01 0.00000E+00
 -1       578 1.42206E+02 3.08750E+01 0.00000E+00
 -1       579 1.42206E+02 3.38250E+01 0.00000E+00
 -1       580 1.42206E+02 3.67750E+01 0.00000E+00
 -1       581 1.42206E+02 3.97250E+01 0.00000E+00
 -1       582 1.38706E+02 2.45568E+01 0.00000E+00
 -1       583 1.60350E+01 6.60425E+00 0.00000E+00
 -1       584 1.38990E+02 2.19526E+01 0.00000E+00
 -1       585 1.38072E+02 2.69363E+01 0.00000E+00
 -1       586 7.92300E+00 4.16780E+01 0.00000E+00
 -1       587 1.31661E+02 3.35811E+01 0.00000E+00
 -1       588 7.79400E+00 2.79000E+01 0.00000E+00
 -1       589 1.28944E+02 1.16777E+01 0.00000E+00
 -1       590 1.22093E+02 1.35569E+01 0.00000E+00
 -1       591 1.27120E+02 1.17569E+01 0.00000E+00
 -1       592 1.16450E+02 2.58795E+01 0.00000E+00
 -1       593 1.20387E+02 1.46138E+01 0.00000E+00
 -1       594 1.18502E+02 1.62128E+01 0.00000E+00
 -1       595 1.16587E+02 2.09963E+01 0.00000E+00
 -1       596 1.16233E+02 2.31399E+01 0.00000E+00
 -1       597 1.17160E+02 2.79913E+01 0.00000E+00
 -1       598 1.18366E+02 3.01392E+01 0.00000E+00
 -1       599 1.20191E+02 3.19427E+01 0.00000E+00
 -1       600 1.22148E+02 3.31800E+01 0.00000E+00
 -1       601 1.24547E+02 3.40876E+01 0.00000E+00
 -1       602 1.26832E+02 3.42926E+01 0.00000E+00
 -1       603 1.29129E+02 3.43081E+01 0.00000E+00
 -1       604 1.33693E+02 3.26728E+01 0.00000E+00
 -1       605 1.37350E+02 2.84820E+01 0.00000E+00
 -1       606 1.35219E+02 1.51829E+01 0.00000E+00
 -1       607 1.38403E+02 1.97539E+01 0.00000E+00
 -1       608 7.61550E+00 6.21462E+00 0.00000E+00
 -1       609 1.33609E+02 1.40736E+01 0.00000E+00
 -1       610 1.30810E+02 1.08458E+01 0.00000E+00
 -1       611 7.79400E+00 3.67375E+01 0.00000E+00
 -1       612 1.38632E+02 1.81056E+01 0.00000E+00
 -1       613 1.35408E+02 3.25212E+01 0.00000E+00
 -1       614 1.36932E+02 1.55916E+01 0.00000E+00
 -1       615 1.41678E+02 4.22645E+01 0.00000E+00
 -1       616 1.37317E+02 3.01999E+01 0.00000E+00
 -1       617 1.15054E+02 2.47727E+01 0.00000E+00
 -1       618 1.17019E+02 1.69074E+01 0.00000E+00
 -1       619 1.25680E+02 1.10947E+01 0.00000E+00
 -1       620 1.22965E+02 1.20896E+01 0.00000E+00
 -1       621 1.03920E+01 2.05500E+01 0.00000E+00
 -1       622 1.03920E+01 2.35000E+01 0.00000E+00
 -1       623 1.03920E+01 1.46750E+01 0.00000E+00
 -1       624 1.03920E+01 1.17250E+01 0.00000E+00
 -1       625 1.15350E+01 9.20225E+00 0.00000E+00
 -1       626 1.25536E+02 3.58983E+01 0.00000E+00
 -1       627 1.45350E+01 9.20225E+00 0.00000E+00
 -1       628 1.39265E+02 2.84349E+01 0.00000E+00
 -1       629 1.51500E+01 3.96080E+01 0.00000E+00
 -1       630 1.81500E+01 3.96080E+01 0.00000E+00
 -1       631 2.11500E+01 3.96080E+01 0.00000E+00
 -1       632 2.41500E+01 3.96080E+01 0.00000E+00
 -1       633 2.71500E+01 3.96080E+01 0.00000E+00
 -1       634 3.01500E+01 3.96080E+01 0.00000E+00
 -1       635 3.31500E+01 3.96080E+01 0.00000E+00
 -1       636 3.61500E+01 3.96080E+01 0.00000E+00
 -1       637 3.91500E+01 3.96080E+01 0.00000E+00
 -1       638 4.21500E+01 3.96080E+01 0.00000E+00
 -1       639 4.51500E+01 3.96080E+01 0.00000E+00
 -1       640 4.81500E+01 3.96080E+01 0.00000E+00
 -1       641 5.11500E+01 3.96080E+01 0.00000E+00
 -1       642 5.41500E+01 3.96080E+01 0.00000E+00
 -1       643 5.71500E+01 3.96080E+01 0.00000E+00
 -1       644 6.01500E+01 3.96080E+01 0.00000E+00
 -1       645 6.31500E+01 3.96080E+01 0.00000E+00
 -1       646 6.61500E+01 3.96080E+01 0.00000E+00
 -1       647 6.91500E+01 3.96080E+01 0.00000E+00
 -1       648 7.21500E+01 3.96080E+01 0.00000E+00
 -1       649 7.51500E+01 3.96080E+01 0.00000E+00
 -1       650 7.81500E+01 3.96080E+01 0.00000E+00
 -1       651 8.11500E+01 3.96080E+01 0.00000E+00
 -1       652 8.41500E+01 3.96080E+01 0.00000E+00
 -1       653 8.71500E+01 3.96080E+01 0.00000E+00
 -1       654 9.01500E+01 3.96080E+01 0.00000E+00
 -1       655 9.31500E+01 3.96080E+01 0.00000E+00
 -1       656 9.61500E+01 3.96080E+01 0.00000E+00
 -1       657 9.91500E+01 3.96080E+01 0.00000E+00
 -1       658 1.02150E+02 3.96080E+01 0.00000E+00
 -1       659 1.05150E+02 3.96080E+01 0.00000E+00
 -1       660 1.08150E+02 3.96080E+01 0.00000E+00
 -1       661 1.11150E+02 3.96080E+01 0.00000E+00
 -1       662 1.14150E+02 3.96080E+01 0.00000E+00
 -1       663 1.17150E+02 3.96080E+01 0.00000E+00
 -1       664 1.20150E+02 3.96080E+01 0.00000E+00
 -1       665 1.23150E+02 3.96080E+01 0.00000E+00
 -1       666 1.26150E+02 3.96080E+01 0.00000E+00
 -1       667 1.29150E+02 3.96080E+01 0.00000E+00
 -1       668 1.32150E+02 3.96080E+01 0.00000E+00
 -1       669 1.35150E+02 3.96080E+01 0.00000E+00
 -1       670 1.38150E+02 3.96080E+01 0.00000E+00
 -1       671 2.35350E+01 9.20225E+00 0.00000E+00
 -1       672 1.27967E+02 3.61830E+01 0.00000E+00
 -1       673 2.05350E+01 9.20225E+00 0.00000E+00
 -1       674 2.95350E+01 9.20225E+00 0.00000E+00
 -1       675 3.25350E+01 9.20225E+00 0.00000E+00
 -1       676 3.55350E+01 9.20225E+00 0.00000E+00
 -1       677 3.85350E+01 9.20225E+00 0.00000E+00
 -1       678 4.15350E+01 9.20225E+00 0.00000E+00
 -1       679 4.45350E+01 9.20225E+00 0.00000E+00
 -1       680 4.75350E+01 9.20225E+00 0.00000E+00
 -1       681 5.05350E+01 9.20225E+00 0.00000E+00
 -1       682 5.35350E+01 9.20225E+00 0.00000E+00
 -1       683 5.65350E+01 9.20225E+00 0.00000E+00
 -1       684 5.95350E+01 9.20225E+00 0.00000E+00
 -1       685 6.25350E+01 9.20225E+00 0.00000E+00
 -1       686 6.55350E+01 9.20225E+00 0.00000E+00
 -1       687 6.85350E+01 9.20225E+00 0.00000E+00
 -1       688 7.15350E+01 9.20225E+00 0.00000E+00
 -1       689 7.45350E+01 9.20225E+00 0.00000E+00
 -1       690 7.75350E+01 9.20225E+00 0.00000E+00
 -1       691 8.05350E+01 9.20225E+00 0.00000E+00
 -1       692 8.35350E+01 9.20225E+00 0.00000E+00
 -1       693 8.65350E+01 9.20225E+00 0.00000E+00
 -1       694 8.95350E+01 9.20225E+00 0.00000E+00
 -1       695 9.25350E+01 9.20225E+00 0.00000E+00
 -1       696 9.55350E+01 9.20225E+00 0.00000E+00
 -1       697 9.85350E+01 9.20225E+00 0.00000E+00
 -1       698 1.01535E+02 9.20225E+00 0.00000E+00
 -1       699 1.04535E+02 9.20225E+00 0.00000E+00
 -1       700 1.07535E+02 9.20225E+00 0.00000E+00
 -1       701 1.10535E+02 9.20225E+00 0.00000E+00
 -1       702 1.13535E+02 9.20225E+00 0.00000E+00
 -1       703 1.16535E+02 9.20225E+00 0.00000E+00
 -1       704 1.19535E+02 9.20225E+00 0.00000E+00
 -1       705 1.22535E+02 9.20225E+00 0.00000E+00
 -1       706 1.34535E+02 9.20225E+00 0.00000E+00
 -1       707 1.37535E+02 9.20225E+00 0.00000E+00
 -1       708 1.39870E+02 9.76363E+00 0.00000E+00
 -1       709 1.40178E+02 3.96665E+01 0.00000E+00
 -1       710 1.40156E+02 1.76500E+01 0.00000E+00
 -1       711 1.39821E+02 3.23500E+01 0.00000E+00
 -1       712 1.39821E+02 3.53000E+01 0.00000E+00
 -1       713 1.75350E+01 9.20225E+00 0.00000E+00
 -1       714 1.33513E+02 3.49988E+01 0.00000E+00
 -1       715 1.33995E+02 1.17841E+01 0.00000E+00
 -1       716 1.30914E+02 3.57541E+01 0.00000E+00
 -1       717 9.78035E+00 3.93914E+01 0.00000E+00
 -1       718 1.14703E+02 2.76423E+01 0.00000E+00
 -1       719 2.65350E+01 9.20225E+00 0.00000E+00
 -1       720 1.18119E+02 1.38498E+01 0.00000E+00
 -1       721 1.24652E+01 3.94997E+01 0.00000E+00
 -1       722 1.03920E+01 1.76125E+01 0.00000E+00
 -1       723 1.15377E+02 1.91045E+01 0.00000E+00
 -1       724 1.03920E+01 3.23250E+01 0.00000E+00
 -1       725 1.20161E+02 1.23425E+01 0.00000E+00
 -1       726 1.16122E+02 2.99869E+01 0.00000E+00
 -1       727 1.14883E+02 2.18160E+01 0.00000E+00
 -1       728 1.35605E+02 1.28934E+01 0.00000E+00
 -1       729 1.17955E+02 3.23801E+01 0.00000E+00
 -1       730 1.22741E+02 3.52380E+01 0.00000E+00
 -1       731 1.20163E+02 3.41526E+01 0.00000E+00
 -1       732 1.03920E+01 3.52625E+01 0.00000E+00
 -1       733 1.03920E+01 2.64500E+01 0.00000E+00
 -1       734 1.38914E+02 1.62529E+01 0.00000E+00
 -1       735 1.37366E+02 3.21531E+01 0.00000E+00
 -1       736 1.37318E+02 1.33020E+01 0.00000E+00
 -1       737 1.16635E+02 1.45445E+01 0.00000E+00
 -1       738 1.39870E+02 1.26886E+01 0.00000E+00
 -1       739 1.03920E+01 2.93875E+01 0.00000E+00
 -1       740 1.40013E+02 1.51693E+01 0.00000E+00
 -1       741 1.35228E+02 3.48472E+01 0.00000E+00
 -1       742 1.13705E+02 2.34488E+01 0.00000E+00
 -1       743 1.17671E+02 3.49959E+01 0.00000E+00
 -1       744 1.29900E+01 1.32000E+01 0.00000E+00
 -1       745 1.96500E+01 3.70100E+01 0.00000E+00
 -1       746 2.26500E+01 3.70100E+01 0.00000E+00
 -1       747 2.56500E+01 3.70100E+01 0.00000E+00
 -1       748 2.86500E+01 3.70100E+01 0.00000E+00
 -1       749 3.16500E+01 3.70100E+01 0.00000E+00
 -1       750 3.46500E+01 3.70100E+01 0.00000E+00
 -1       751 3.76500E+01 3.70100E+01 0.00000E+00
 -1       752 4.06500E+01 3.70100E+01 0.00000E+00
 -1       753 4.36500E+01 3.70100E+01 0.00000E+00
 -1       754 4.66500E+01 3.70100E+01 0.00000E+00
 -1       755 4.96500E+01 3.70100E+01 0.00000E+00
 -1       756 5.26500E+01 3.70100E+01 0.00000E+00
 -1       757 5.56500E+01 3.70100E+01 0.00000E+00
 -1       758 5.86500E+01 3.70100E+01 0.00000E+00
 -1       759 6.16500E+01 3.70100E+01 0.00000E+00
 -1       760 6.46500E+01 3.70100E+01 0.00000E+00
 -1       761 6.76500E+01 3.70100E+01 0.00000E+00
 -1       762 7.06500E+01 3.70100E+01 0.00000E+00
 -1       763 7.36500E+01 3.70100E+01 0.00000E+00
 -1       764 7.66500E+01 3.70100E+01 0.00000E+00
 -1       765 7.96500E+01 3.70100E+01 0.00000E+00
 -1       766 8.26500E+01 3.70100E+01 0.00000E+00
 -1       767 8.56500E+01 3.70100E+01 0.00000E+00
 -1       768 8.86500E+01 3.70100E+01 0.00000E+00
 -1       769 9.16500E+01 3.70100E+01 0.00000E+00
 -1       770 9.46500E+01 3.70100E+01 0.00000E+00
 -1       771 9.76500E+01 3.70100E+01 0.00000E+00
 -1       772 1.00650E+02 3.70100E+01 0.00000E+00
 -1       773 1.03650E+02 3.70100E+01 0.00000E+00
 -1       774 1.06650E+02 3.70100E+01 0.00000E+00
 -1       775 1.09650E+02 3.70100E+01 0.00000E+00
 -1       776 1.12650E+02 3.70100E+01 0.00000E+00
 -1       777 1.15650E+02 3.70100E+01 0.00000E+00
 -1       778 3.40350E+01 1.18003E+01 0.00000E+00
 -1       779 3.10350E+01 1.18003E+01 0.00000E+00
 -1       780 4.00350E+01 1.18003E+01 0.00000E+00
 -1       781 4.30350E+01 1.18003E+01 0.00000E+00
 -1       782 4.60350E+01 1.18003E+01 0.00000E+00
 -1       783 4.90350E+01 1.18003E+01 0.00000E+00
 -1       784 5.20350E+01 1.18003E+01 0.00000E+00
 -1       785 5.50350E+01 1.18003E+01 0.00000E+00
 -1       786 5.80350E+01 1.18003E+01 0.00000E+00
 -1       787 6.10350E+01 1.18003E+01 0.00000E+00
 -1       788 6.40350E+01 1.18003E+01 0.00000E+00
 -1       789 6.70350E+01 1.18003E+01 0.00000E+00
 -1       790 7.00350E+01 1.18003E+01 0.00000E+00
 -1       791 7.30350E+01 1.18003E+01 0.00000E+00
 -1       792 7.60350E+01 1.18003E+01 0.00000E+00
 -1       793 7.90350E+01 1.18003E+01 0.00000E+00
 -1       794 8.20350E+01 1.18003E+01 0.00000E+00
 -1       795 8.50350E+01 1.18003E+01 0.00000E+00
 -1       796 8.80350E+01 1.18003E+01 0.00000E+00
 -1       797 9.10350E+01 1.18003E+01 0.00000E+00
 -1       798 9.40350E+01 1.18003E+01 0.00000E+00
 -1       799 9.70350E+01 1.18003E+01 0.00000E+00
 -1       800 1.00035E+02 1.18003E+01 0.00000E+00
 -1       801 1.03035E+02 1.18003E+01 0.00000E+00
 -1       802 1.06035E+02 1.18003E+01 0.00000E+00
 -1       803 1.09035E+02 1.18003E+01 0.00000E+00
 -1       804 1.12035E+02 1.18003E+01 0.00000E+00
 -1       805 1.15035E+02 1.18003E+01 0.00000E+00
 -1       806 1.29900E+01 2.20250E+01 0.00000E+00
 -1       807 1.13658E+02 2.98759E+01 0.00000E+00
 -1       808 1.13442E+02 2.01531E+01 0.00000E+00
 -1       809 1.37203E+02 1.09454E+01 0.00000E+00
 -1       810 3.70350E+01 1.18003E+01 0.00000E+00
 -1       811 2.20350E+01 1.18003E+01 0.00000E+00
 -1       812 1.12677E+02 2.59379E+01 0.00000E+00
 -1       813 1.66500E+01 3.70100E+01 0.00000E+00
 -1       814 1.14690E+02 1.68786E+01 0.00000E+00
 -1       815 1.37625E+01 1.12011E+01 0.00000E+00
 -1       816 1.15278E+02 3.25324E+01 0.00000E+00
 -1       817 1.17327E+02 1.15260E+01 0.00000E+00
 -1       818 1.29900E+01 2.49750E+01 0.00000E+00
 -1       819 1.29900E+01 1.61375E+01 0.00000E+00
 -1       820 1.29900E+01 1.90875E+01 0.00000E+00
 -1       821 1.11632E+02 2.81715E+01 0.00000E+00
 -1       822 1.36845E+02 3.50905E+01 0.00000E+00
 -1       823 1.36780E+02 3.64341E+01 0.00000E+00
 -1       824 1.90350E+01 1.18003E+01 0.00000E+00
 -1       825 2.80350E+01 1.18003E+01 0.00000E+00
 -1       826 1.12264E+02 2.17859E+01 0.00000E+00
 -1       827 1.63988E+01 1.15007E+01 0.00000E+00
 -1       828 1.12756E+02 1.79272E+01 0.00000E+00
 -1       829 1.39652E+01 3.69017E+01 0.00000E+00
 -1       830 1.29900E+01 3.08563E+01 0.00000E+00
 -1       831 2.50350E+01 1.18003E+01 0.00000E+00
 -1       832 1.29900E+01 3.37938E+01 0.00000E+00
 -1       833 1.19538E+02 3.62920E+01 0.00000E+00
 -1       834 1.27257E+02 9.56314E+00 0.00000E+00
 -1       835 1.15835E+02 1.31724E+01 0.00000E+00
 -1       836 2.41500E+01 3.44120E+01 0.00000E+00
 -1       837 2.71500E+01 3.44120E+01 0.00000E+00
 -1       838 3.01500E+01 3.44120E+01 0.00000E+00
 -1       839 3.31500E+01 3.44120E+01 0.00000E+00
 -1       840 3.61500E+01 3.44120E+01 0.00000E+00
 -1       841 3.91500E+01 3.44120E+01 0.00000E+00
 -1       842 4.21500E+01 3.44120E+01 0.00000E+00
 -1       843 4.51500E+01 3.44120E+01 0.00000E+00
 -1       844 4.81500E+01 3.44120E+01 0.00000E+00
 -1       845 5.11500E+01 3.44120E+01 0.00000E+00
 -1       846 5.41500E+01 3.44120E+01 0.00000E+00
 -1       847 5.71500E+01 3.44120E+01 0.00000E+00
 -1       848 6.01500E+01 3.44120E+01 0.00000E+00
 -1       849 6.31500E+01 3.44120E+01 0.00000E+00
 -1       850 6.61500E+01 3.44120E+01 0.00000E+00
 -1       851 6.91500E+01 3.44120E+01 0.00000E+00
 -1       852 7.21500E+01 3.44120E+01 0.00000E+00
 -1       853 7.51500E+01 3.44120E+01 0.00000E+00
 -1       854 7.81500E+01 3.44120E+01 0.00000E+00
 -1       855 8.11500E+01 3.44120E+01 0.00000E+00
 -1       856 8.41500E+01 3.44120E+01 0.00000E+00
 -1       857 8.71500E+01 3.44120E+01 0.00000E+00
 -1       858 9.01500E+01 3.44120E+01 0.00000E+00
 -1       859 9.31500E+01 3.44120E+01 0.00000E+00
 -1       860 9.61500E+01 3.44120E+01 0.00000E+00
 -1       861 9.91500E+01 3.44120E+01 0.00000E+00
 -1       862 1.02150E+02 3.44120E+01 0.00000E+00
 -1       863 1.05150E+02 3.44120E+01 0.00000E+00
 -1       864 1.08150E+02 3.44120E+01 0.00000E+00
 -1       865 1.11150E+02 3.44120E+01 0.00000E+00
 -1       866 1.14410E+02 3.47039E+01 0.00000E+00
 -1       867 4.45350E+01 1.43982E+01 0.00000E+00
 -1       868 4.15350E+01 1.43982E+01 0.00000E+00
 -1       869 5.05350E+01 1.43982E+01 0.00000E+00
 -1       870 5.35350E+01 1.43982E+01 0.00000E+00
 -1       871 5.65350E+01 1.43982E+01 0.00000E+00
 -1       872 5.95350E+01 1.43982E+01 0.00000E+00
 -1       873 6.25350E+01 1.43982E+01 0.00000E+00
 -1       874 6.55350E+01 1.43982E+01 0.00000E+00
 -1       875 6.85350E+01 1.43982E+01 0.00000E+00
 -1       876 7.15350E+01 1.43982E+01 0.00000E+00
 -1       877 7.45350E+01 1.43982E+01 0.00000E+00
 -1       878 7.75350E+01 1.43982E+01 0.00000E+00
 -1       879 8.05350E+01 1.43982E+01 0.00000E+00
 -1       880 8.35350E+01 1.43982E+01 0.00000E+00
 -1       881 8.65350E+01 1.43982E+01 0.00000E+00
 -1       882 8.95350E+01 1.43982E+01 0.00000E+00
 -1       883 9.25350E+01 1.43982E+01 0.00000E+00
 -1       884 9.55350E+01 1.43982E+01 0.00000E+00
 -1       885 9.85350E+01 1.43982E+01 0.00000E+00
 -1       886 1.01535E+02 1.43982E+01 0.00000E+00
 -1       887 1.04535E+02 1.43982E+01 0.00000E+00
 -1       888 1.07535E+02 1.43982E+01 0.00000E+00
 -1       889 1.10535E+02 1.43982E+01 0.00000E+00
 -1       890 1.13185E+02 1.37853E+01 0.00000E+00
 -1       891 4.75350E+01 1.43982E+01 0.00000E+00
 -1       892 3.25350E+01 1.43982E+01 0.00000E+00
 -1       893 1.29900E+01 2.79188E+01 0.00000E+00
 -1       894 1.11237E+02 2.42750E+01 0.00000E+00
 -1       895 1.81500E+01 3.44120E+01 0.00000E+00
 -1       896 1.13890E+02 1.55065E+01 0.00000E+00
 -1       897 2.11500E+01 3.44120E+01 0.00000E+00
 -1       898 1.56263E+01 1.34996E+01 0.00000E+00
 -1       899 1.12431E+02 3.24460E+01 0.00000E+00
 -1       900 2.05350E+01 1.43982E+01 0.00000E+00
 -1       901 2.95350E+01 1.43982E+01 0.00000E+00
 -1       902 3.55350E+01 1.43982E+01 0.00000E+00
 -1       903 1.10406E+02 3.07416E+01 0.00000E+00
 -1       904 2.35350E+01 1.43982E+01 0.00000E+00
 -1       905 3.85350E+01 1.43982E+01 0.00000E+00
 -1       906 1.55880E+01 2.05562E+01 0.00000E+00
 -1       907 1.55880E+01 2.35063E+01 0.00000E+00
 -1       908 1.55880E+01 2.93875E+01 0.00000E+00
 -1       909 1.10192E+02 2.65086E+01 0.00000E+00
 -1       910 1.11577E+02 1.95600E+01 0.00000E+00
 -1       911 1.54652E+01 3.43037E+01 0.00000E+00
 -1       912 2.56500E+01 3.18140E+01 0.00000E+00
 -1       913 1.75351E+01 1.43983E+01 0.00000E+00
 -1       914 1.55880E+01 1.76063E+01 0.00000E+00
 -1       915 2.86500E+01 3.18140E+01 0.00000E+00
 -1       916 3.16500E+01 3.18140E+01 0.00000E+00
 -1       917 3.46500E+01 3.18140E+01 0.00000E+00
 -1       918 3.76500E+01 3.18140E+01 0.00000E+00
 -1       919 4.06500E+01 3.18140E+01 0.00000E+00
 -1       920 4.36500E+01 3.18140E+01 0.00000E+00
 -1       921 4.66500E+01 3.18140E+01 0.00000E+00
 -1       922 4.96500E+01 3.18140E+01 0.00000E+00
 -1       923 5.26500E+01 3.18140E+01 0.00000E+00
 -1       924 5.56500E+01 3.18140E+01 0.00000E+00
 -1       925 5.86500E+01 3.18140E+01 0.00000E+00
 -1       926 6.16500E+01 3.18140E+01 0.00000E+00
 -1       927 6.46500E+01 3.18140E+01 0.00000E+00
 -1       928 6.76500E+01 3.18140E+01 0.00000E+00
 -1       929 7.06500E+01 3.18140E+01 0.00000E+00
 -1       930 7.36500E+01 3.18140E+01 0.00000E+00
 -1       931 7.66500E+01 3.18140E+01 0.00000E+00
 -1       932 7.96500E+01 3.18140E+01 0.00000E+00
 -1       933 8.26500E+01 3.18140E+01 0.00000E+00
 -1       934 8.56500E+01 3.18140E+01 0.00000E+00
 -1       935 8.86500E+01 3.18140E+01 0.00000E+00
 -1       936 9.16500E+01 3.18140E+01 0.00000E+00
 -1       937 9.46500E+01 3.18140E+01 0.00000E+00
 -1       938 9.76500E+01 3.18140E+01 0.00000E+00
 -1       939 1.00650E+02 3.18140E+01 0.00000E+00
 -1       940 1.03650E+02 3.18140E+01 0.00000E+00
 -1       941 1.06650E+02 3.18140E+01 0.00000E+00
 -1       942 4.30350E+01 1.69963E+01 0.00000E+00
 -1       943 5.50350E+01 1.69963E+01 0.00000E+00
 -1       944 5.20350E+01 1.69963E+01 0.00000E+00
 -1       945 6.10350E+01 1.69963E+01 0.00000E+00
 -1       946 6.40350E+01 1.69963E+01 0.00000E+00
 -1       947 6.70350E+01 1.69963E+01 0.00000E+00
 -1       948 7.00350E+01 1.69963E+01 0.00000E+00
 -1       949 7.30350E+01 1.69963E+01 0.00000E+00
 -1       950 7.60350E+01 1.69963E+01 0.00000E+00
 -1       951 7.90350E+01 1.69963E+01 0.00000E+00
 -1       952 8.20350E+01 1.69963E+01 0.00000E+00
 -1       953 8.50350E+01 1.69963E+01 0.00000E+00
 -1       954 8.80350E+01 1.69963E+01 0.00000E+00
 -1       955 9.10350E+01 1.69963E+01 0.00000E+00
 -1       956 9.40350E+01 1.69963E+01 0.00000E+00
 -1       957 9.70350E+01 1.69963E+01 0.00000E+00
 -1       958 1.00035E+02 1.69963E+01 0.00000E+00
 -1       959 1.03035E+02 1.69963E+01 0.00000E+00
 -1       960 1.06035E+02 1.69963E+01 0.00000E+00
 -1       961 1.09035E+02 1.69963E+01 0.00000E+00
 -1       962 1.12051E+02 1.62060E+01 0.00000E+00
 -1       963 1.09545E+02 2.21206E+01 0.00000E+00
 -1       964 1.55880E+01 2.64469E+01 0.00000E+00
 -1       965 1.96500E+01 3.18140E+01 0.00000E+00
 -1       966 5.80350E+01 1.69963E+01 0.00000E+00
 -1       967 2.26500E+01 3.18140E+01 0.00000E+00
 -1       968 2.65350E+01 1.43982E+01 0.00000E+00
 -1       969 1.09278E+02 3.25768E+01 0.00000E+00
 -1       970 1.81860E+01 1.90812E+01 0.00000E+00
 -1       971 3.10350E+01 1.69963E+01 0.00000E+00
 -1       972 1.81860E+01 2.20313E+01 0.00000E+00
 -1       973 4.60350E+01 1.69963E+01 0.00000E+00
 -1       974 4.90350E+01 1.69963E+01 0.00000E+00
 -1       975 1.10306E+02 1.82782E+01 0.00000E+00
 -1       976 1.08500E+02 2.43542E+01 0.00000E+00
 -1       977 1.08965E+02 2.90787E+01 0.00000E+00
 -1       978 4.00350E+01 1.69963E+01 0.00000E+00
 -1       979 2.20350E+01 1.69963E+01 0.00000E+00
 -1       980 1.96500E+01 2.88734E+01 0.00000E+00
 -1       981 3.40350E+01 1.69963E+01 0.00000E+00
 -1       982 2.13479E+01 2.03231E+01 0.00000E+00
 -1       983 2.80350E+01 1.69963E+01 0.00000E+00
 -1       984 5.35350E+01 1.95942E+01 0.00000E+00
 -1       985 3.01500E+01 2.92160E+01 0.00000E+00
 -1       986 3.31500E+01 2.92160E+01 0.00000E+00
 -1       987 3.61500E+01 2.92160E+01 0.00000E+00
 -1       988 3.91500E+01 2.92160E+01 0.00000E+00
 -1       989 4.21500E+01 2.92160E+01 0.00000E+00
 -1       990 4.51500E+01 2.92160E+01 0.00000E+00
 -1       991 4.81500E+01 2.92160E+01 0.00000E+00
 -1       992 5.11500E+01 2.92160E+01 0.00000E+00
 -1       993 5.41500E+01 2.92160E+01 0.00000E+00
 -1       994 5.71500E+01 2.92160E+01 0.00000E+00
 -1       995 6.01500E+01 2.92160E+01 0.00000E+00
 -1       996 6.31500E+01 2.92160E+01 0.00000E+00
 -1       997 6.61500E+01 2.92160E+01 0.00000E+00
 -1       998 6.91500E+01 2.92160E+01 0.00000E+00
 -1       999 7.21500E+01 2.92160E+01 0.00000E+00
 -1      1000 7.51500E+01 2.92160E+01 0.00000E+00
 -1      1001 7.81500E+01 2.92160E+01 0.00000E+00
 -1      1002 8.11500E+01 2.92160E+01 0.00000E+00
 -1      1003 8.41500E+01 2.92160E+01 0.00000E+00
 -1      1004 8.71500E+01 2.92160E+01 0.00000E+00
 -1      1005 9.01500E+01 2.92160E+01 0.00000E+00
 -1      1006 9.31500E+01 2.92160E+01 0.00000E+00
 -1      1007 9.61500E+01 2.92160E+01 0.00000E+00
 -1      1008 9.91500E+01 2.92160E+01 0.00000E+00
 -1      1009 1.02150E+02 2.92160E+01 0.00000E+00
 -1      1010 1.05150E+02 2.92160E+01 0.00000E+00
 -1      1011 6.85350E+01 1.95942E+01 0.00000E+00
 -1      1012 6.55350E+01 1.95942E+01 0.00000E+00
 -1      1013 6.25350E+01 1.95942E+01 0.00000E+00
 -1      1014 7.15350E+01 1.95942E+01 0.00000E+00
 -1      1015 7.45350E+01 1.95942E+01 0.00000E+00
 -1      1016 7.75350E+01 1.95942E+01 0.00000E+00
 -1      1017 8.05350E+01 1.95942E+01 0.00000E+00
 -1      1018 8.35350E+01 1.95942E+01 0.00000E+00
 -1      1019 8.65350E+01 1.95942E+01 0.00000E+00
 -1      1020 8.95350E+01 1.95942E+01 0.00000E+00
 -1      1021 9.25350E+01 1.95942E+01 0.00000E+00
 -1      1022 9.55350E+01 1.95942E+01 0.00000E+00
 -1      1023 9.85350E+01 1.95942E+01 0.00000E+00
 -1      1024 1.01535E+02 1.95942E+01 0.00000E+00
 -1      1025 1.04535E+02 1.95942E+01 0.00000E+00
 -1      1026 1.07535E+02 1.95942E+01 0.00000E+00
 -1      1027 3.70350E+01 1.69963E+01 0.00000E+00
 -1      1028 2.41500E+01 2.92160E+01 0.00000E+00
 -1      1029 1.81860E+01 2.49719E+01 0.00000E+00
 -1      1030 5.95350E+01 1.95942E+01 0.00000E+00
 -1      1031 5.65350E+01 1.95942E+01 0.00000E+00
 -1      1032 2.50350E+01 1.69963E+01 0.00000E+00
 -1      1033 2.19000E+01 2.90447E+01 0.00000E+00
 -1      1034 1.07808E+02 3.04464E+01 0.00000E+00
 -1      1035 2.71500E+01 2.92160E+01 0.00000E+00
 -1      1036 5.05350E+01 1.95942E+01 0.00000E+00
 -1      1037 2.43479E+01 2.03231E+01 0.00000E+00
 -1      1038 1.08955E+02 1.95658E+01 0.00000E+00
 -1      1039 4.75350E+01 1.95942E+01 0.00000E+00
 -1      1040 4.45350E+01 1.95942E+01 0.00000E+00
 -1      1041 1.07274E+02 2.69242E+01 0.00000E+00
 -1      1042 1.06670E+02 2.21365E+01 0.00000E+00
 -1      1043 4.15350E+01 1.95942E+01 0.00000E+00
 -1      1044 3.25350E+01 1.95942E+01 0.00000E+00
 -1      1045 2.95350E+01 1.95942E+01 0.00000E+00
 -1      1046 3.46500E+01 2.66180E+01 0.00000E+00
 -1      1047 3.76500E+01 2.66180E+01 0.00000E+00
 -1      1048 4.06500E+01 2.66180E+01 0.00000E+00
 -1      1049 4.36500E+01 2.66180E+01 0.00000E+00
 -1      1050 4.66500E+01 2.66180E+01 0.00000E+00
 -1      1051 4.96500E+01 2.66180E+01 0.00000E+00
 -1      1052 5.26500E+01 2.66180E+01 0.00000E+00
 -1      1053 5.56500E+01 2.66180E+01 0.00000E+00
 -1      1054 5.86500E+01 2.66180E+01 0.00000E+00
 -1      1055 6.16500E+01 2.66180E+01 0.00000E+00
 -1      1056 6.46500E+01 2.66180E+01 0.00000E+00
 -1      1057 6.76500E+01 2.66180E+01 0.00000E+00
 -1      1058 7.06500E+01 2.66180E+01 0.00000E+00
 -1      1059 7.36500E+01 2.66180E+01 0.00000E+00
 -1      1060 7.66500E+01 2.66180E+01 0.00000E+00
 -1      1061 7.96500E+01 2.66180E+01 0.00000E+00
 -1      1062 8.26500E+01 2.66180E+01 0.00000E+00
 -1      1063 8.56500E+01 2.66180E+01 0.00000E+00
 -1      1064 8.86500E+01 2.66180E+01 0.00000E+00
 -1      1065 9.16500E+01 2.66180E+01 0.00000E+00
 -1      1066 9.46500E+01 2.66180E+01 0.00000E+00
 -1      1067 9.76500E+01 2.66180E+01 0.00000E+00
 -1      1068 1.00650E+02 2.66180E+01 0.00000E+00
 -1      1069 1.03650E+02 2.66180E+01 0.00000E+00
 -1      1070 6.70350E+01 2.21922E+01 0.00000E+00
 -1      1071 7.00350E+01 2.21922E+01 0.00000E+00
 -1      1072 1.06308E+02 2.78484E+01 0.00000E+00
 -1      1073 6.40350E+01 2.21922E+01 0.00000E+00
 -1      1074 7.60350E+01 2.21922E+01 0.00000E+00
 -1      1075 7.90350E+01 2.21922E+01 0.00000E+00
 -1      1076 8.20350E+01 2.21922E+01 0.00000E+00
 -1      1077 8.50350E+01 2.21922E+01 0.00000E+00
 -1      1078 8.80350E+01 2.21922E+01 0.00000E+00
 -1      1079 9.10350E+01 2.21922E+01 0.00000E+00
 -1      1080 9.40350E+01 2.21922E+01 0.00000E+00
 -1      1081 9.70350E+01 2.21922E+01 0.00000E+00
 -1      1082 1.00035E+02 2.21922E+01 0.00000E+00
 -1      1083 1.03035E+02 2.21922E+01 0.00000E+00
 -1      1084 2.13479E+01 2.32637E+01 0.00000E+00
 -1      1085 3.16500E+01 2.66180E+01 0.00000E+00
 -1      1086 2.56500E+01 2.66180E+01 0.00000E+00
 -1      1087 2.69415E+01 1.99587E+01 0.00000E+00
 -1      1088 3.55350E+01 1.95942E+01 0.00000E+00
 -1      1089 5.80350E+01 2.21922E+01 0.00000E+00
 -1      1090 5.50350E+01 2.21922E+01 0.00000E+00
 -1      1091 6.10350E+01 2.21922E+01 0.00000E+00
 -1      1092 7.30350E+01 2.21922E+01 0.00000E+00
 -1      1093 2.86500E+01 2.66180E+01 0.00000E+00
 -1      1094 5.20350E+01 2.21922E+01 0.00000E+00
 -1      1095 2.16240E+01 2.61542E+01 0.00000E+00
 -1      1096 4.90350E+01 2.21922E+01 0.00000E+00
 -1      1097 3.40350E+01 2.21922E+01 0.00000E+00
 -1      1098 3.85350E+01 1.95942E+01 0.00000E+00
 -1      1099 4.60350E+01 2.21922E+01 0.00000E+00
 -1      1100 2.36370E+01 2.63861E+01 0.00000E+00
 -1      1101 4.30350E+01 2.21922E+01 0.00000E+00
 -1      1102 1.05581E+02 2.48992E+01 0.00000E+00
 -1      1103 3.10350E+01 2.21922E+01 0.00000E+00
 -1      1104 3.70350E+01 2.21922E+01 0.00000E+00
 -1      1105 3.91500E+01 2.40200E+01 0.00000E+00
 -1      1106 2.46666E+01 2.36488E+01 0.00000E+00
 -1      1107 3.01500E+01 2.40200E+01 0.00000E+00
 -1      1108 2.80351E+01 2.21923E+01 0.00000E+00
 -1      1109 0.00000E+00 4.85250E+01 0.00000E+00
 -1      1110 0.00000E+00 4.55750E+01 0.00000E+00
 -1      1111 0.00000E+00 4.26250E+01 0.00000E+00
 -1      1112 0.00000E+00 3.96750E+01 0.00000E+00
 -1      1113 0.00000E+00 3.67250E+01 0.00000E+00
 -1      1114 0.00000E+00 3.38000E+01 0.00000E+00
 -1      1115 0.00000E+00 3.08750E+01 0.00000E+00
 -1      1116 0.00000E+00 2.79250E+01 0.00000E+00
 -1      1117 0.00000E+00 2.49750E+01 0.00000E+00
 -1      1118 0.00000E+00 2.20250E+01 0.00000E+00
 -1      1119 0.00000E+00 1.90750E+01 0.00000E+00
 -1      1120 0.00000E+00 1.61500E+01 0.00000E+00
 -1      1121 0.00000E+00 1.32250E+01 0.00000E+00
 -1      1122 0.00000E+00 1.02750E+01 0.00000E+00
 -1      1123 0.00000E+00 7.32500E+00 0.00000E+00
 -1      1124 0.00000E+00 4.37500E+00 0.00000E+00
 -1      1125 0.00000E+00 1.45000E+00 0.00000E+00
 -1      1126 1.57500E+00 5.00000E+01 0.00000E+00
 -1      1127 4.65000E+00 5.00000E+01 0.00000E+00
 -1      1128 7.65000E+00 5.00000E+01 0.00000E+00
 -1      1129 1.06500E+01 5.00000E+01 0.00000E+00
 -1      1130 1.36500E+01 5.00000E+01 0.00000E+00
 -1      1131 1.66500E+01 5.00000E+01 0.00000E+00
 -1      1132 1.96500E+01 5.00000E+01 0.00000E+00
 -1      1133 2.26500E+01 5.00000E+01 0.00000E+00
 -1      1134 2.56500E+01 5.00000E+01 0.00000E+00
 -1      1135 2.86500E+01 5.00000E+01 0.00000E+00
 -1      1136 3.16500E+01 5.00000E+01 0.00000E+00
 -1      1137 3.46500E+01 5.00000E+01 0.00000E+00
 -1      1138 3.76500E+01 5.00000E+01 0.00000E+00
 -1      1139 4.06500E+01 5.00000E+01 0.00000E+00
 -1      1140 4.36500E+01 5.00000E+01 0.00000E+00
 -1      1141 4.66500E+01 5.00000E+01 0.00000E+00
 -1      1142 4.96500E+01 5.00000E+01 0.00000E+00
 -1      1143 5.26500E+01 5.00000E+01 0.00000E+00
 -1      1144 5.56500E+01 5.00000E+01 0.00000E+00
 -1      1145 5.86500E+01 5.00000E+01 0.00000E+00
 -1      1146 6.16500E+01 5.00000E+01 0.00000E+00
 -1      1147 6.46500E+01 5.00000E+01 0.00000E+00
 -1      1148 6.76500E+01 5.00000E+01 0.00000E+00
 -1      1149 7.06500E+01 5.00000E+01 0.00000E+00
 -1      1150 7.36500E+01 5.00000E+01 0.00000E+00
 -1      1151 7.66500E+01 5.00000E+01 0.00000E+00
 -1      1152 7.96500E+01 5.00000E+01 0.00000E+00
 -1      1153 8.26500E+01 5.00000E+01 0.00000E+00
 -1      1154 8.56500E+01 5.00000E+01 0.00000E+00
 -1      1155 8.86500E+01 5.00000E+01 0.00000E+00
 -1      1156 9.16500E+01 5.00000E+01 0.00000E+00
 -1      1157 9.46500E+01 5.00000E+01 0.00000E+00
 -1      1158 9.76500E+01 5.00000E+01 0.00000E+00
 -1      1159 1.00650E+02 5.00000E+01 0.00000E+00
 -1      1160 1.03650E+02 5.00000E+01 0.00000E+00
 -1      1161 1.06650E+02 5.00000E+01 0.00000E+00
 -1      1162 1.09650E+02 5.00000E+01 0.00000E+00
 -1      1163 1.12650E+02 5.00000E+01 0.00000E+00
 -1      1164 1.15650E+02 5.00000E+01 0.00000E+00
 -1      1165 1.18650E+02 5.00000E+01 0.00000E+00
 -1      1166 1.21650E+02 5.00000E+01 0.00000E+00
 -1      1167 1.24650E+02 5.00000E+01 0.00000E+00
 -1      1168 1.27650E+02 5.00000E+01 0.00000E+00
 -1      1169 1.30650E+02 5.00000E+01 0.00000E+00
 -1      1170 1.33650E+02 5.00000E+01 0.00000E+00
 -1      1171 1.36650E+02 5.00000E+01 0.00000E+00
 -1      1172 1.39650E+02 5.00000E+01 0.00000E+00
 -1      1173 1.42650E+02 5.00000E+01 0.00000E+00
 -1      1174 1.45650E+02 5.00000E+01 0.00000E+00
 -1      1175 1.48575E+02 5.00000E+01 0.00000E+00
 -1      1176 1.57500E+00 0.00000E+00 0.00000E+00
 -1      1177 4.65000E+00 0.00000E+00 0.00000E+00
 -1      1178 7.65000E+00 0.00000E+00 0.00000E+00
 -1      1179 1.06500E+01 0.00000E+00 0.00000E+00
 -1      1180 1.36500E+01 0.00000E+00 0.00000E+00
 -1      1181 1.66500E+01 0.00000E+00 0.00000E+00
 -1      1182 1.96500E+01 0.00000E+00 0.00000E+00
 -1      1183 2.26500E+01 0.00000E+00 0.00000E+00
 -1      1184 2.56500E+01 0.00000E+00 0.00000E+00
 -1      1185 2.86500E+01 0.00000E+00 0.00000E+00
 -1      1186 3.16500E+01 0.00000E+00 0.00000E+00
 -1      1187 3.46500E+01 0.00000E+00 0.00000E+00
 -1      1188 3.76500E+01 0.00000E+00 0.00000E+00
 -1      1189 4.06500E+01 0.00000E+00 0.00000E+00
 -1      1190 4.36500E+01 0.00000E+00 0.00000E+00
 -1      1191 4.66500E+01 0.00000E+00 0.00000E+00
 -1      1192 4.96500E+01 0.00000E+00 0.00000E+00
 -1      1193 5.26500E+01 0.00000E+00 0.00000E+00
 -1      1194 5.56500E+01 0.00000E+00 0.00000E+00
 -1      1195 5.86500E+01 0.00000E+00 0.00000E+00
 -1      1196 6.16500E+01 0.00000E+00 0.00000E+00
 -1      1197 6.46500E+01 0.00000E+00 0.00000E+00
 -1      1198 6.76500E+01 0.00000E+00 0.00000E+00
 -1      1199 7.06500E+01 0.00000E+00 0.00000E+00
 -1      1200 7.36500E+01 0.00000E+00 0.00000E+00
 -1      1201 7.66500E+01 0.00000E+00 0.00000E+00
 -1      1202 7.96500E+01 0.00000E+00 0.00000E+00
 -1      1203 8.26500E+01 0.00000E+00 0.00000E+00
 -1      1204 8.56500E+01 0.00000E+00 0.00000E+00
 -1      1205 8.86500E+01 0.00000E+00 0.00000E+00
 -1      1206 9.16500E+01 0.00000E+00 0.00000E+00
 -1      1207 9.46500E+01 0.00000E+00 0.00000E+00
 -1      1208 9.76500E+01 0.00000E+00 0.00000E+00
 -1      1209 1.00650E+02 0.00000E+00 0.00000E+00
 -1      1210 1.03650E+02 0.00000E+00 0.00000E+00
 -1      1211 1.06650E+02 0.00000E+00 0.00000E+00
 -1      1212 1.09650E+02 0.00000E+00 0.00000E+00
 -1      1213 1.12650E+02 0.00000E+00 0.00000E+00
 -1      1214 1.15650E+02 0.00000E+00 0.00000E+00
 -1      1215 1.18650E+02 0.00000E+00 0.00000E+00
 -1      1216 1.21650E+02 0.00000E+00 0.00000E+00
 -1      1217 1.24650E+02 0.00000E+00 0.00000E+00
 -1      1218 1.27650E+02 0.00000E+00 0.00000E+00
 -1      1219 1.30650E+02 0.00000E+00 0.00000E+00
 -1      1220 1.33650E+02 0.00000E+00 0.00000E+00
 -1      1221 1.36650E+02 0.00000E+00 0.00000E+00
 -1      1222 1.39650E+02 0.00000E+00 0.00000E+00
 -1      1223 1.42650E+02 0.00000E+00 0.00000E+00
 -1      1224 1.45650E+02 0.00000E+00 0.00000E+00
 -1      1225 1.48575E+02 0.00000E+00 0.00000E+00
 -1      1226 1.50000E+02 1.47500E+00 0.00000E+00
 -1      1227 1.50000E+02 4.42500E+00 0.00000E+00
 -1      1228 1.50000E+02 7.37500E+00 0.00000E+00
 -1      1229 1.50000E+02 1.03250E+01 0.00000E+00
 -1      1230 1.50000E+02 1.32750E+01 0.00000E+00
 -1      1231 1.50000E+02 1.62000E+01 0.00000E+00
 -1      1232 1.50000E+02 1.91250E+01 0.00000E+00
 -1      1233 1.50000E+02 2.20750E+01 0.00000E+00
 -1      1234 1.50000E+02 2.50250E+01 0.00000E+00
 -1      1235 1.50000E+02 2.79750E+01 0.00000E+00
 -1      1236 1.50000E+02 3.09250E+01 0.00000E+00
 -1      1237 1.50000E+02 3.38500E+01 0.00000E+00
 -1      1238 1.50000E+02 3.67750E+01 0.00000E+00
 -1      1239 1.50000E+02 3.97250E+01 0.00000E+00
 -1      1240 1.50000E+02 4.26750E+01 0.00000E+00
 -1      1241 1.50000E+02 4.56250E+01 0.00000E+00
 -1      1242 1.50000E+02 4.85500E+01 0.00000E+00
 -1      1243 1.34450E+02 2.24390E+01 0.00000E+00
 -1      1244 1.34126E+02 2.09451E+01 0.00000E+00
 -1      1245 1.33435E+02 1.94746E+01 0.00000E+00
 -1      1246 1.32484E+02 1.82648E+01 0.00000E+00
 -1      1247 1.31356E+02 1.73333E+01 0.00000E+00
 -1      1248 1.30006E+02 1.66364E+01 0.00000E+00
 -1      1249 1.28516E+02 1.62438E+01 0.00000E+00
 -1      1250 1.27023E+02 1.61834E+01 0.00000E+00
 -1      1251 1.25520E+02 1.64504E+01 0.00000E+00
 -1      1252 1.24111E+02 1.70363E+01 0.00000E+00
 -1      1253 1.22906E+02 1.78763E+01 0.00000E+00
 -1      1254 1.21871E+02 1.89904E+01 0.00000E+00
 -1      1255 1.21109E+02 2.02861E+01 0.00000E+00
 -1      1256 1.20651E+02 2.16662E+01 0.00000E+00
 -1      1257 1.20488E+02 2.31593E+01 0.00000E+00
 -1      1258 1.20656E+02 2.46924E+01 0.00000E+00
 -1      1259 1.21148E+02 2.61347E+01 0.00000E+00
 -1      1260 1.21930E+02 2.74230E+01 0.00000E+00
 -1      1261 1.22949E+02 2.84969E+01 0.00000E+00
 -1      1262 1.24182E+02 2.93378E+01 0.00000E+00
 -1      1263 1.25587E+02 2.99049E+01 0.00000E+00
 -1      1264 1.27077E+02 3.01558E+01 0.00000E+00
 -1      1265 1.28587E+02 3.00812E+01 0.00000E+00
 -1      1266 1.30047E+02 2.96833E+01 0.00000E+00
 -1      1267 1.31404E+02 2.89705E+01 0.00000E+00
 -1      1268 1.32582E+02 2.79692E+01 0.00000E+00
 -1      1269 1.33486E+02 2.67770E+01 0.00000E+00
 -1      1270 1.34105E+02 2.54535E+01 0.00000E+00
 -1      1271 1.34443E+02 2.39633E+01 0.00000E+00
 -1      1272 1.57500E+00 4.85250E+01 0.00000E+00
 -1      1273 1.29900E+00 4.48375E+01 0.00000E+00
 -1      1274 1.29900E+00 4.63125E+01 0.00000E+00
 -1      1275 1.29900E+00 4.18875E+01 0.00000E+00
 -1      1276 1.29900E+00 4.33625E+01 0.00000E+00
 -1      1277 2.59800E+00 4.41000E+01 0.00000E+00
 -1      1278 1.29900E+00 3.89375E+01 0.00000E+00
 -1      1279 1.29900E+00 4.04125E+01 0.00000E+00
 -1      1280 2.59800E+00 4.11500E+01 0.00000E+00
 -1      1281 1.29900E+00 3.59875E+01 0.00000E+00
 -1      1282 1.29900E+00 3.74625E+01 0.00000E+00
 -1      1283 2.59800E+00 3.82000E+01 0.00000E+00
 -1      1284 1.29900E+00 3.30875E+01 0.00000E+00
 -1      1285 1.29900E+00 3.45375E+01 0.00000E+00
 -1      1286 2.59800E+00 3.52750E+01 0.00000E+00
 -1      1287 1.29900E+00 3.01375E+01 0.00000E+00
 -1      1288 1.29900E+00 3.16125E+01 0.00000E+00
 -1      1289 2.59800E+00 3.23500E+01 0.00000E+00
 -1      1290 1.29900E+00 2.71875E+01 0.00000E+00
 -1      1291 1.29900E+00 2.86625E+01 0.00000E+00
 -1      1292 2.59800E+00 2.94000E+01 0.00000E+00
 -1      1293 1.29900E+00 2.42375E+01 0.00000E+00
 -1      1294 1.29900E+00 2.57125E+01 0.00000E+00
 -1      1295 2.59800E+00 2.64500E+01 0.00000E+00
 -1      1296 1.29900E+00 2.12875E+01 0.00000E+00
 -1      1297 1.29900E+00 2.27625E+01 0.00000E+00
 -1      1298 2.59800E+00 2.35000E+01 0.00000E+00
 -1      1299 1.29900E+00 1.83375E+01 0.00000E+00
 -1      1300 1.29900E+00 1.98125E+01 0.00000E+00
 -1      1301 2.59800E+00 2.05500E+01 0.00000E+00
 -1      1302 1.29900E+00 1.54375E+01 0.00000E+00
 -1      1303 1.29900E+00 1.68875E+01 0.00000E+00
 -1      1304 2.59800E+00 1.76250E+01 0.00000E+00
 -1      1305 1.29900E+00 1.24875E+01 0.00000E+00
 -1      1306 1.29900E+00 1.39625E+01 0.00000E+00
 -1      1307 2.59800E+00 1.47000E+01 0.00000E+00
 -1      1308 1.29900E+00 9.53750E+00 0.00000E+00
 -1      1309 1.29900E+00 1.10125E+01 0.00000E+00
 -1      1310 2.59800E+00 1.17500E+01 0.00000E+00
 -1      1311 1.29900E+00 6.58750E+00 0.00000E+00
 -1      1312 1.29900E+00 8.06250E+00 0.00000E+00
 -1      1313 2.59800E+00 8.80000E+00 0.00000E+00
 -1      1314 1.29900E+00 3.63750E+00 0.00000E+00
 -1      1315 1.29900E+00 5.11250E+00 0.00000E+00
 -1      1316 2.59800E+00 5.85000E+00 0.00000E+00
 -1      1317 1.43700E+00 1.09375E+00 0.00000E+00
 -1      1318 1.43700E+00 2.54375E+00 0.00000E+00
 -1      1319 2.73600E+00 3.28125E+00 0.00000E+00
 -1      1320 3.01200E+00 1.09375E+00 0.00000E+00
 -1      1321 3.90000E+00 4.87010E+01 0.00000E+00
 -1      1322 5.40000E+00 4.87010E+01 0.00000E+00
 -1      1323 6.90000E+00 4.87010E+01 0.00000E+00
 -1      1324 8.40000E+00 4.87010E+01 0.00000E+00
 -1      1325 6.15000E+00 4.74020E+01 0.00000E+00
 -1      1326 9.90000E+00 4.87010E+01 0.00000E+00
 -1      1327 1.14000E+01 4.87010E+01 0.00000E+00
 -1      1328 9.15000E+00 4.74020E+01 0.00000E+00
 -1      1329 1.29000E+01 4.87010E+01 0.00000E+00
 -1      1330 1.44000E+01 4.87010E+01 0.00000E+00
 -1      1331 1.21500E+01 4.74020E+01 0.00000E+00
 -1      1332 1.59000E+01 4.87010E+01 0.00000E+00
 -1      1333 1.74000E+01 4.87010E+01 0.00000E+00
 -1      1334 1.51500E+01 4.74020E+01 0.00000E+00
 -1      1335 1.89000E+01 4.87010E+01 0.00000E+00
 -1      1336 2.04000E+01 4.87010E+01 0.00000E+00
 -1      1337 1.81500E+01 4.74020E+01 0.00000E+00
 -1      1338 2.19000E+01 4.87010E+01 0.00000E+00
 -1      1339 2.34000E+01 4.87010E+01 0.00000E+00
 -1      1340 2.11500E+01 4.74020E+01 0.00000E+00
 -1      1341 2.49000E+01 4.87010E+01 0.00000E+00
 -1      1342 2.64000E+01 4.87010E+01 0.00000E+00
 -1      1343 2.41500E+01 4.74020E+01 0.00000E+00
 -1      1344 2.79000E+01 4.87010E+01 0.00000E+00
 -1      1345 2.94000E+01 4.87010E+01 0.00000E+00
 -1      1346 2.71500E+01 4.74020E+01 0.00000E+00
 -1      1347 3.09000E+01 4.87010E+01 0.00000E+00
 -1      1348 3.24000E+01 4.87010E+01 0.00000E+00
 -1      1349 3.01500E+01 4.74020E+01 0.00000E+00
 -1      1350 3.39000E+01 4.87010E+01 0.00000E+00
 -1      1351 3.54000E+01 4.87010E+01 0.00000E+00
 -1      1352 3.31500E+01 4.74020E+01 0.00000E+00
 -1      1353 3.69000E+01 4.87010E+01 0.00000E+00
 -1      1354 3.84000E+01 4.87010E+01 0.00000E+00
 -1      1355 3.61500E+01 4.74020E+01 0.00000E+00
 -1      1356 3.99000E+01 4.87010E+01 0.00000E+00
 -1      1357 4.14000E+01 4.87010E+01 0.00000E+00
 -1      1358 3.91500E+01 4.74020E+01 0.00000E+00
 -1      1359 4.29000E+01 4.87010E+01 0.00000E+00
 -1      1360 4.44000E+01 4.87010E+01 0.00000E+00
 -1      1361 4.21500E+01 4.74020E+01 0.00000E+00
 -1      1362 4.59000E+01 4.87010E+01 0.00000E+00
 -1      1363 4.74000E+01 4.87010E+01 0.00000E+00
 -1      1364 4.51500E+01 4.74020E+01 0.00000E+00
 -1      1365 4.89000E+01 4.87010E+01 0.00000E+00
 -1      1366 5.04000E+01 4.87010E+01 0.00000E+00
 -1      1367 4.81500E+01 4.74020E+01 0.00000E+00
 -1      1368 5.19000E+01 4.87010E+01 0.00000E+00
 -1      1369 5.34000E+01 4.87010E+01 0.00000E+00
 -1      1370 5.11500E+01 4.74020E+01 0.00000E+00
 -1      1371 5.49000E+01 4.87010E+01 0.00000E+00
 -1      1372 5.64000E+01 4.87010E+01 0.00000E+00
 -1      1373 5.41500E+01 4.74020E+01 0.00000E+00
 -1      1374 5.79000E+01 4.87010E+01 0.00000E+00
 -1      1375 5.94000E+01 4.87010E+01 0.00000E+00
 -1      1376 5.71500E+01 4.74020E+01 0.00000E+00
 -1      1377 6.09000E+01 4.87010E+01 0.00000E+00
 -1      1378 6.24000E+01 4.87010E+01 0.00000E+00
 -1      1379 6.01500E+01 4.74020E+01 0.00000E+00
 -1      1380 6.39000E+01 4.87010E+01 0.00000E+00
 -1      1381 6.54000E+01 4.87010E+01 0.00000E+00
 -1      1382 6.31500E+01 4.74020E+01 0.00000E+00
 -1      1383 6.69000E+01 4.87010E+01 0.00000E+00
 -1      1384 6.84000E+01 4.87010E+01 0.00000E+00
 -1      1385 6.61500E+01 4.74020E+01 0.00000E+00
 -1      1386 6.99000E+01 4.87010E+01 0.00000E+00
 -1      1387 7.14000E+01 4.87010E+01 0.00000E+00
 -1      1388 6.91500E+01 4.74020E+01 0.00000E+00
 -1      1389 7.29000E+01 4.87010E+01 0.00000E+00
 -1      1390 7.44000E+01 4.87010E+01 0.00000E+00
 -1      1391 7.21500E+01 4.74020E+01 0.00000E+00
 -1      1392 7.59000E+01 4.87010E+01 0.00000E+00
 -1      1393 7.74000E+01 4.87010E+01 0.00000E+00
 -1      1394 7.51500E+01 4.74020E+01 0.00000E+00
 -1      1395 7.89000E+01 4.87010E+01 0.00000E+00
 -1      1396 8.04000E+01 4.87010E+01 0.00000E+00
 -1      1397 7.81500E+01 4.74020E+01 0.00000E+00
 -1      1398 8.19000E+01 4.87010E+01 0.00000E+00
 -1      1399 8.34000E+01 4.87010E+01 0.00000E+00
 -1      1400 8.11500E+01 4.74020E+01 0.00000E+00
 -1      1401 8.49000E+01 4.87010E+01 0.00000E+00
 -1      1402 8.64000E+01 4.87010E+01 0.00000E+00
 -1      1403 8.41500E+01 4.74020E+01 0.00000E+00
 -1      1404 8.79000E+01 4.87010E+01 0.00000E+00
 -1      1405 8.94000E+01 4.87010E+01 0.00000E+00
 -1      1406 8.71500E+01 4.74020E+01 0.00000E+00
 -1      1407 9.09000E+01 4.87010E+01 0.00000E+00
 -1      1408 9.24000E+01 4.87010E+01 0.00000E+00
 -1      1409 9.01500E+01 4.74020E+01 0.00000E+00
 -1      1410 9.39000E+01 4.87010E+01 0.00000E+00
 -1      1411 9.54000E+01 4.87010E+01 0.00000E+00
 -1      1412 9.31500E+01 4.74020E+01 0.00000E+00
 -1      1413 9.69000E+01 4.87010E+01 0.00000E+00
 -1      1414 9.84000E+01 4.87010E+01 0.00000E+00
 -1      1415 9.61500E+01 4.74020E+01 0.00000E+00
 -1      1416 9.99000E+01 4.87010E+01 0.00000E+00
 -1      1417 1.01400E+02 4.87010E+01 0.00000E+00
 -1      1418 9.91500E+01 4.74020E+01 0.00000E+00
 -1      1419 1.02900E+02 4.87010E+01 0.00000E+00
 -1      1420 1.04400E+02 4.87010E+01 0.00000E+00
 -1      1421 1.02150E+02 4.74020E+01 0.00000E+00
 -1      1422 1.05900E+02 4.87010E+01 0.00000E+00
 -1      1423 1.07400E+02 4.87010E+01 0.00000E+00
 -1      1424 1.05150E+02 4.74020E+01 0.00000E+00
 -1      1425 1.08900E+02 4.87010E+01 0.00000E+00
 -1      1426 1.10400E+02 4.87010E+01 0.00000E+00
 -1      1427 1.08150E+02 4.74020E+01 0.00000E+00
 -1      1428 1.11900E+02 4.87010E+01 0.00000E+00
 -1      1429 1.13400E+02 4.87010E+01 0.00000E+00
 -1      1430 1.11150E+02 4.74020E+01 0.00000E+00
 -1      1431 1.14900E+02 4.87010E+01 0.00000E+00
 -1      1432 1.16400E+02 4.87010E+01 0.00000E+00
 -1      1433 1.14150E+02 4.74020E+01 0.00000E+00
 -1      1434 1.17900E+02 4.87010E+01 0.00000E+00
 -1      1435 1.19400E+02 4.87010E+01 0.00000E+00
 -1      1436 1.17150E+02 4.74020E+01 0.00000E+00
 -1      1437 1.20900E+02 4.87010E+01 0.00000E+00
 -1      1438 1.22400E+02 4.87010E+01 0.00000E+00
 -1      1439 1.20150E+02 4.74020E+01 0.00000E+00
 -1      1440 1.23900E+02 4.87010E+01 0.00000E+00
 -1      1441 1.25400E+02 4.87010E+01 0.00000E+00
 -1      1442 1.23150E+02 4.74020E+01 0.00000E+00
 -1      1443 1.26900E+02 4.87010E+01 0.00000E+00
 -1      1444 1.28400E+02 4.87010E+01 0.00000E+00
 -1      1445 1.26150E+02 4.74020E+01 0.00000E+00
 -1      1446 1.29900E+02 4.87010E+01 0.00000E+00
 -1      1447 1.31400E+02 4.87010E+01 0.00000E+00
 -1      1448 1.29150E+02 4.74020E+01 0.00000E+00
 -1      1449 1.32900E+02 4.87010E+01 0.00000E+00
 -1      1450 1.34400E+02 4.87010E+01 0.00000E+00
 -1      1451 1.32150E+02 4.74020E+01 0.00000E+00
 -1      1452 1.35900E+02 4.87010E+01 0.00000E+00
 -1      1453 1.37400E+02 4.87010E+01 0.00000E+00
 -1      1454 1.35150E+02 4.74020E+01 0.00000E+00
 -1      1455 1.38900E+02 4.87010E+01 0.00000E+00
 -1      1456 1.40400E+02 4.87010E+01 0.00000E+00
 -1      1457 1.38150E+02 4.74020E+01 0.00000E+00
 -1      1458 1.41900E+02 4.87010E+01 0.00000E+00
 -1      1459 1.43400E+02 4.87010E+01 0.00000E+00
 -1      1460 1.41150E+02 4.74020E+01 0.00000E+00
 -1      1461 1.44900E+02 4.87010E+01 0.00000E+00
 -1      1462 1.46400E+02 4.87010E+01 0.00000E+00
 -1      1463 1.44150E+02 4.74020E+01 0.00000E+00
 -1      1464 1.48575E+02 4.85500E+01 0.00000E+00
 -1      1465 1.47825E+02 4.72510E+01 0.00000E+00
 -1      1466 6.01200E+00 1.09375E+00 0.00000E+00
 -1      1467 4.51200E+00 1.09375E+00 0.00000E+00
 -1      1468 4.37400E+00 2.18750E+00 0.00000E+00
 -1      1469 9.01200E+00 1.09375E+00 0.00000E+00
 -1      1470 7.51200E+00 1.09375E+00 0.00000E+00
 -1      1471 7.37400E+00 2.18750E+00 0.00000E+00
 -1      1472 1.20120E+01 1.09375E+00 0.00000E+00
 -1      1473 1.05120E+01 1.09375E+00 0.00000E+00
 -1      1474 1.03740E+01 2.18750E+00 0.00000E+00
 -1      1475 1.50120E+01 1.09375E+00 0.00000E+00
 -1      1476 1.35120E+01 1.09375E+00 0.00000E+00
 -1      1477 1.33740E+01 2.18750E+00 0.00000E+00
 -1      1478 1.80120E+01 1.09375E+00 0.00000E+00
 -1      1479 1.65120E+01 1.09375E+00 0.00000E+00
 -1      1480 1.63740E+01 2.18750E+00 0.00000E+00
 -1      1481 2.10120E+01 1.09375E+00 0.00000E+00
 -1      1482 1.95120E+01 1.09375E+00 0.00000E+00
 -1      1483 1.93740E+01 2.18750E+00 0.00000E+00
 -1      1484 2.40120E+01 1.09375E+00 0.00000E+00
 -1      1485 2.25120E+01 1.09375E+00 0.00000E+00
 -1      1486 2.23740E+01 2.18750E+00 0.00000E+00
 -1      1487 2.70120E+01 1.09375E+00 0.00000E+00
 -1      1488 2.55120E+01 1.09375E+00 0.00000E+00
 -1      1489 2.53740E+01 2.18750E+00 0.00000E+00
 -1      1490 3.00120E+01 1.09375E+00 0.00000E+00
 -1      1491 2.85120E+01 1.09375E+00 0.00000E+00
 -1      1492 2.83740E+01 2.18750E+00 0.00000E+00
 -1      1493 3.30120E+01 1.09375E+00 0.00000E+00
 -1      1494 3.15120E+01 1.09375E+00 0.00000E+00
 -1      1495 3.13740E+01 2.18750E+00 0.00000E+00
 -1      1496 3.60120E+01 1.09375E+00 0.00000E+00
 -1      1497 3.45120E+01 1.09375E+00 0.00000E+00
 -1      1498 3.43740E+01 2.18750E+00 0.00000E+00
 -1      1499 3.90120E+01 1.09375E+00 0.00000E+00
 -1      1500 3.75120E+01 1.09375E+00 0.00000E+00
 -1      1501 3.73740E+01 2.18750E+00 0.00000E+00
 -1      1502 4.20120E+01 1.09375E+00 0.00000E+00
 -1      1503 4.05120E+01 1.09375E+00 0.00000E+00
 -1      1504 4.03740E+01 2.18750E+00 0.00000E+00
 -1      1505 4.50120E+01 1.09375E+00 0.00000E+00
 -1      1506 4.35120E+01 1.09375E+00 0.00000E+00
 -1      1507 4.33740E+01 2.18750E+00 0.00000E+00
 -1      1508 4.80120E+01 1.09375E+00 0.00000E+00
 -1      1509 4.65120E+01 1.09375E+00 0.00000E+00
 -1      1510 4.63740E+01 2.18750E+00 0.00000E+00
 -1      1511 5.10120E+01 1.09375E+00 0.00000E+00
 -1      1512 4.95120E+01 1.09375E+00 0.00000E+00
 -1      1513 4.93740E+01 2.18750E+00 0.00000E+00
 -1      1514 5.40120E+01 1.09375E+00 0.00000E+00
 -1      1515 5.25120E+01 1.09375E+00 0.00000E+00
 -1      1516 5.23740E+01 2.18750E+00 0.00000E+00
 -1      1517 5.70120E+01 1.09375E+00 0.00000E+00
 -1      1518 5.55120E+01 1.09375E+00 0.00000E+00
 -1      1519 5.53740E+01 2.18750E+00 0.00000E+00
 -1      1520 6.00120E+01 1.09375E+00 0.00000E+00
 -1      1521 5.85120E+01 1.09375E+00 0.00000E+00
 -1      1522 5.83740E+01 2.18750E+00 0.00000E+00
 -1      1523 6.30120E+01 1.09375E+00 0.00000E+00
 -1      1524 6.15120E+01 1.09375E+00 0.00000E+00
 -1      1525 6.13740E+01 2.18750E+00 0.00000E+00
 -1      1526 6.60120E+01 1.09375E+00 0.00000E+00
 -1      1527 6.45120E+01 1.09375E+00 0.00000E+00
 -1      1528 6.43740E+01 2.18750E+00 0.00000E+00
 -1      1529 6.90120E+01 1.09375E+00 0.00000E+00
 -1      1530 6.75120E+01 1.09375E+00 0.00000E+00
 -1      1531 6.73740E+01 2.18750E+00 0.00000E+00
 -1      1532 7.20120E+01 1.09375E+00 0.00000E+00
 -1      1533 7.05120E+01 1.09375E+00 0.00000E+00
 -1      1534 7.03740E+01 2.18750E+00 0.00000E+00
 -1      1535 7.50120E+01 1.09375E+00 0.00000E+00
 -1      1536 7.35120E+01 1.09375E+00 0.00000E+00
 -1      1537 7.33740E+01 2.18750E+00 0.00000E+00
 -1      1538 7.80120E+01 1.09375E+00 0.00000E+00
 -1      1539 7.65120E+01 1.09375E+00 0.00000E+00
 -1      1540 7.63740E+01 2.18750E+00 0.00000E+00
 -1      1541 8.10120E+01 1.09375E+00 0.00000E+00
 -1      1542 7.95120E+01 1.09375E+00 0.00000E+00
 -1      1543 7.93740E+01 2.18750E+00 0.00000E+00
 -1      1544 8.40120E+01 1.09375E+00 0.00000E+00
 -1      1545 8.25120E+01 1.09375E+00 0.00000E+00
 -1      1546 8.23740E+01 2.18750E+00 0.00000E+00
 -1      1547 8.70120E+01 1.09375E+00 0.00000E+00
 -1      1548 8.55120E+01 1.09375E+00 0.00000E+00
 -1      1549 8.53740E+01 2.18750E+00 0.00000E+00
 -1      1550 9.00120E+01 1.09375E+00 0.00000E+00
 -1      1551 8.85120E+01 1.09375E+00 0.00000E+00
 -1      1552 8.83740E+01 2.18750E+00 0.00000E+00
 -1      1553 9.30120E+01 1.09375E+00 0.00000E+00
 -1      1554 9.15120E+01 1.09375E+00 0.00000E+00
 -1      1555 9.13740E+01 2.18750E+00 0.00000E+00
 -1      1556 9.60120E+01 1.09375E+00 0.00000E+00
 -1      1557 9.45120E+01 1.09375E+00 0.00000E+00
 -1      1558 9.43740E+01 2.18750E+00 0.00000E+00
 -1      1559 9.90120E+01 1.09375E+00 0.00000E+00
 -1      1560 9.75120E+01 1.09375E+00 0.00000E+00
 -1      1561 9.73740E+01 2.18750E+00 0.00000E+00
 -1      1562 1.02012E+02 1.09375E+00 0.00000E+00
 -1      1563 1.00512E+02 1.09375E+00 0.00000E+00
 -1      1564 1.00374E+02 2.18750E+00 0.00000E+00
 -1      1565 1.05012E+02 1.09375E+00 0.00000E+00
 -1      1566 1.03512E+02 1.09375E+00 0.00000E+00
 -1      1567 1.03374E+02 2.18750E+00 0.00000E+00
 -1      1568 1.08012E+02 1.09375E+00 0.00000E+00
 -1      1569 1.06512E+02 1.09375E+00 0.00000E+00
 -1      1570 1.06374E+02 2.18750E+00 0.00000E+00
 -1      1571 1.11012E+02 1.09375E+00 0.00000E+00
 -1      1572 1.09512E+02 1.09375E+00 0.00000E+00
 -1      1573 1.09374E+02 2.18750E+00 0.00000E+00
 -1      1574 1.14012E+02 1.09375E+00 0.00000E+00
 -1      1575 1.12512E+02 1.09375E+00 0.00000E+00
 -1      1576 1.12374E+02 2.18750E+00 0.00000E+00
 -1      1577 1.17012E+02 1.09375E+00 0.00000E+00
 -1      1578 1.15512E+02 1.09375E+00 0.00000E+00
 -1      1579 1.15374E+02 2.18750E+00 0.00000E+00
 -1      1580 1.20012E+02 1.09375E+00 0.00000E+00
 -1      1581 1.18512E+02 1.09375E+00 0.00000E+00
 -1      1582 1.18374E+02 2.18750E+00 0.00000E+00
 -1      1583 1.23012E+02 1.09375E+00 0.00000E+00
 -1      1584 1.21512E+02 1.09375E+00 0.00000E+00
 -1      1585 1.21374E+02 2.18750E+00 0.00000E+00
 -1      1586 1.26012E+02 1.09375E+00 0.00000E+00
 -1      1587 1.24512E+02 1.09375E+00 0.00000E+00
 -1      1588 1.24374E+02 2.18750E+00 0.00000E+00
 -1      1589 1.29012E+02 1.09375E+00 0.00000E+00
 -1      1590 1.27512E+02 1.09375E+00 0.00000E+00
 -1      1591 1.27374E+02 2.18750E+00 0.00000E+00
 -1      1592 1.32012E+02 1.09375E+00 0.00000E+00
 -1      1593 1.30512E+02 1.09375E+00 0.00000E+00
 -1      1594 1.30374E+02 2.18750E+00 0.00000E+00
 -1      1595 1.35012E+02 1.09375E+00 0.00000E+00
 -1      1596 1.33512E+02 1.09375E+00 0.00000E+00
 -1      1597 1.33374E+02 2.18750E+00 0.00000E+00
 -1      1598 1.38012E+02 1.09375E+00 0.00000E+00
 -1      1599 1.36512E+02 1.09375E+00 0.00000E+00
 -1      1600 1.36374E+02 2.18750E+00 0.00000E+00
 -1      1601 1.41012E+02 1.09375E+00 0.00000E+00
 -1      1602 1.39512E+02 1.09375E+00 0.00000E+00
 -1      1603 1.39374E+02 2.18750E+00 0.00000E+00
 -1      1604 1.44012E+02 1.09375E+00 0.00000E+00
 -1      1605 1.42512E+02 1.09375E+00 0.00000E+00
 -1      1606 1.42374E+02 2.18750E+00 0.00000E+00
 -1      1607 1.47012E+02 1.09375E+00 0.00000E+00
 -1      1608 1.45512E+02 1.09375E+00 0.00000E+00
 -1      1609 1.45374E+02 2.18750E+00 0.00000E+00
 -1      1610 1.48575E+02 1.47500E+00 0.00000E+00
 -1      1611 1.48701E+02 5.16250E+00 0.00000E+00
 -1      1612 1.48701E+02 3.68750E+00 0.00000E+00
 -1      1613 1.48701E+02 8.11250E+00 0.00000E+00
 -1      1614 1.48701E+02 6.63750E+00 0.00000E+00
 -1      1615 1.47402E+02 5.90000E+00 0.00000E+00
 -1      1616 1.48701E+02 1.10625E+01 0.00000E+00
 -1      1617 1.48701E+02 9.58750E+00 0.00000E+00
 -1      1618 1.47402E+02 8.85000E+00 0.00000E+00
 -1      1619 1.48701E+02 1.40125E+01 0.00000E+00
 -1      1620 1.48701E+02 1.25375E+01 0.00000E+00
 -1      1621 1.47402E+02 1.18000E+01 0.00000E+00
 -1      1622 1.48701E+02 1.69125E+01 0.00000E+00
 -1      1623 1.48701E+02 1.54625E+01 0.00000E+00
 -1      1624 1.47402E+02 1.47250E+01 0.00000E+00
 -1      1625 1.48701E+02 1.98625E+01 0.00000E+00
 -1      1626 1.48701E+02 1.83875E+01 0.00000E+00
 -1      1627 1.47402E+02 1.76500E+01 0.00000E+00
 -1      1628 1.48701E+02 2.28125E+01 0.00000E+00
 -1      1629 1.48701E+02 2.13375E+01 0.00000E+00
 -1      1630 1.47402E+02 2.06000E+01 0.00000E+00
 -1      1631 1.48701E+02 2.57625E+01 0.00000E+00
 -1      1632 1.48701E+02 2.42875E+01 0.00000E+00
 -1      1633 1.47402E+02 2.35500E+01 0.00000E+00
 -1      1634 1.48701E+02 2.87125E+01 0.00000E+00
 -1      1635 1.48701E+02 2.72375E+01 0.00000E+00
 -1      1636 1.47402E+02 2.65000E+01 0.00000E+00
 -1      1637 1.48701E+02 3.16625E+01 0.00000E+00
 -1      1638 1.48701E+02 3.01875E+01 0.00000E+00
 -1      1639 1.47402E+02 2.94500E+01 0.00000E+00
 -1      1640 1.48701E+02 3.45625E+01 0.00000E+00
 -1      1641 1.48701E+02 3.31125E+01 0.00000E+00
 -1      1642 1.47402E+02 3.23750E+01 0.00000E+00
 -1      1643 1.48701E+02 3.75125E+01 0.00000E+00
 -1      1644 1.48701E+02 3.60375E+01 0.00000E+00
 -1      1645 1.47402E+02 3.53000E+01 0.00000E+00
 -1      1646 1.48701E+02 4.04625E+01 0.00000E+00
 -1      1647 1.48701E+02 3.89875E+01 0.00000E+00
 -1      1648 1.47402E+02 3.82500E+01 0.00000E+00
 -1      1649 1.48701E+02 4.34125E+01 0.00000E+00
 -1      1650 1.48701E+02 4.19375E+01 0.00000E+00
 -1      1651 1.47402E+02 4.12000E+01 0.00000E+00
 -1      1652 1.48263E+02 4.60692E+01 0.00000E+00
 -1      1653 1.48263E+02 4.45942E+01 0.00000E+00
 -1      1654 1.46964E+02 4.38568E+01 0.00000E+00
 -1      1655 1.46088E+02 4.62202E+01 0.00000E+00
 -1      1656 1.34977E+02 2.20174E+01 0.00000E+00
 -1      1657 1.35053E+02 2.27423E+01 0.00000E+00
 -1      1658 1.34610E+02 2.03613E+01 0.00000E+00
 -1      1659 1.34864E+02 2.11197E+01 0.00000E+00
 -1      1660 1.33833E+02 1.87417E+01 0.00000E+00
 -1      1661 1.34268E+02 1.94426E+01 0.00000E+00
 -1      1662 1.32641E+02 1.76111E+01 0.00000E+00
 -1      1663 1.33141E+02 1.81203E+01 0.00000E+00
 -1      1664 1.31356E+02 1.66545E+01 0.00000E+00
 -1      1665 1.31981E+02 1.70687E+01 0.00000E+00
 -1      1666 1.29865E+02 1.59329E+01 0.00000E+00
 -1      1667 1.30583E+02 1.62096E+01 0.00000E+00
 -1      1668 1.28223E+02 1.55883E+01 0.00000E+00
 -1      1669 1.28986E+02 1.57015E+01 0.00000E+00
 -1      1670 1.26625E+02 1.56399E+01 0.00000E+00
 -1      1671 1.27346E+02 1.55918E+01 0.00000E+00
 -1      1672 1.24941E+02 1.59057E+01 0.00000E+00
 -1      1673 1.25713E+02 1.56795E+01 0.00000E+00
 -1      1674 1.23521E+02 1.67117E+01 0.00000E+00
 -1      1675 1.24153E+02 1.63640E+01 0.00000E+00
 -1      1676 1.22252E+02 1.76934E+01 0.00000E+00
 -1      1677 1.22818E+02 1.72034E+01 0.00000E+00
 -1      1678 1.21122E+02 1.89136E+01 0.00000E+00
 -1      1679 1.21582E+02 1.82945E+01 0.00000E+00
 -1      1680 1.20288E+02 2.03169E+01 0.00000E+00
 -1      1681 1.20589E+02 1.96499E+01 0.00000E+00
 -1      1682 1.20018E+02 2.18968E+01 0.00000E+00
 -1      1683 1.20173E+02 2.11915E+01 0.00000E+00
 -1      1684 1.19883E+02 2.35485E+01 0.00000E+00
 -1      1685 1.19884E+02 2.27686E+01 0.00000E+00
 -1      1686 1.20147E+02 2.51965E+01 0.00000E+00
 -1      1687 1.19981E+02 2.44524E+01 0.00000E+00
 -1      1688 1.20722E+02 2.67544E+01 0.00000E+00
 -1      1689 1.20399E+02 2.60647E+01 0.00000E+00
 -1      1690 1.21673E+02 2.80887E+01 0.00000E+00
 -1      1691 1.21220E+02 2.74968E+01 0.00000E+00
 -1      1692 1.22834E+02 2.91991E+01 0.00000E+00
 -1      1693 1.22274E+02 2.87224E+01 0.00000E+00
 -1      1694 1.24229E+02 3.00516E+01 0.00000E+00
 -1      1695 1.23561E+02 2.96941E+01 0.00000E+00
 -1      1696 1.25799E+02 3.05516E+01 0.00000E+00
 -1      1697 1.25069E+02 3.03456E+01 0.00000E+00
 -1      1698 1.27419E+02 3.07426E+01 0.00000E+00
 -1      1699 1.26668E+02 3.06985E+01 0.00000E+00
 -1      1700 1.29058E+02 3.06207E+01 0.00000E+00
 -1      1701 1.28307E+02 3.07400E+01 0.00000E+00
 -1      1702 1.30620E+02 3.01109E+01 0.00000E+00
 -1      1703 1.29919E+02 3.03864E+01 0.00000E+00
 -1      1704 1.32041E+02 2.92193E+01 0.00000E+00
 -1      1705 1.31396E+02 2.96547E+01 0.00000E+00
 -1      1706 1.33378E+02 2.81916E+01 0.00000E+00
 -1      1707 1.32851E+02 2.87504E+01 0.00000E+00
 -1      1708 1.34161E+02 2.67580E+01 0.00000E+00
 -1      1709 1.33785E+02 2.73820E+01 0.00000E+00
 -1      1710 1.34761E+02 2.52926E+01 0.00000E+00
 -1      1711 1.34522E+02 2.59851E+01 0.00000E+00
 -1      1712 1.35128E+02 2.36415E+01 0.00000E+00
 -1      1713 1.35038E+02 2.44317E+01 0.00000E+00
 -1      1714 1.32663E+02 1.68987E+01 0.00000E+00
 -1      1715 1.34016E+02 1.80625E+01 0.00000E+00
 -1      1716 1.48437E+02 2.56875E+00 0.00000E+00
 -1      1717 1.47138E+02 3.30625E+00 0.00000E+00
 -1      1718 1.35504E+02 2.14191E+01 0.00000E+00
 -1      1719 1.35049E+02 1.96026E+01 0.00000E+00
 -1      1720 1.35693E+02 2.32159E+01 0.00000E+00
 -1      1721 1.31230E+02 1.59114E+01 0.00000E+00
 -1      1722 1.29578E+02 1.52352E+01 0.00000E+00
 -1      1723 1.27823E+02 1.50074E+01 0.00000E+00
 -1      1724 1.26033E+02 1.50506E+01 0.00000E+00
 -1      1725 1.24333E+02 1.55486E+01 0.00000E+00
 -1      1726 1.22841E+02 1.64985E+01 0.00000E+00
 -1      1727 1.21468E+02 1.75912E+01 0.00000E+00
 -1      1728 1.20266E+02 1.89285E+01 0.00000E+00
 -1      1729 1.19618E+02 2.05395E+01 0.00000E+00
 -1      1730 1.19369E+02 2.22859E+01 0.00000E+00
 -1      1731 1.19334E+02 2.40617E+01 0.00000E+00
 -1      1732 1.19684E+02 2.58338E+01 0.00000E+00
 -1      1733 1.20434E+02 2.74443E+01 0.00000E+00
 -1      1734 1.21533E+02 2.88204E+01 0.00000E+00
 -1      1735 1.22861E+02 2.99491E+01 0.00000E+00
 -1      1736 1.24429E+02 3.07381E+01 0.00000E+00
 -1      1737 1.26139E+02 3.11789E+01 0.00000E+00
 -1      1738 1.27896E+02 3.13230E+01 0.00000E+00
 -1      1739 1.29645E+02 3.10861E+01 0.00000E+00
 -1      1740 1.31282E+02 3.03957E+01 0.00000E+00
 -1      1741 1.32867E+02 2.94706E+01 0.00000E+00
 -1      1742 1.34085E+02 2.81921E+01 0.00000E+00
 -1      1743 1.34853E+02 2.66096E+01 0.00000E+00
 -1      1744 1.35491E+02 2.49759E+01 0.00000E+00
 -1      1745 2.87400E+00 4.77875E+01 0.00000E+00
 -1      1746 3.89700E+00 4.04125E+01 0.00000E+00
 -1      1747 3.89700E+00 4.18875E+01 0.00000E+00
 -1      1748 3.89700E+00 4.33625E+01 0.00000E+00
 -1      1749 3.89700E+00 4.48375E+01 0.00000E+00
 -1      1750 5.19600E+00 4.26250E+01 0.00000E+00
 -1      1751 3.89700E+00 3.45500E+01 0.00000E+00
 -1      1752 3.89700E+00 3.60000E+01 0.00000E+00
 -1      1753 3.89700E+00 3.16000E+01 0.00000E+00
 -1      1754 3.89700E+00 3.30750E+01 0.00000E+00
 -1      1755 5.19600E+00 3.38000E+01 0.00000E+00
 -1      1756 3.89700E+00 2.86500E+01 0.00000E+00
 -1      1757 3.89700E+00 3.01250E+01 0.00000E+00
 -1      1758 5.19600E+00 3.08500E+01 0.00000E+00
 -1      1759 3.89700E+00 2.57000E+01 0.00000E+00
 -1      1760 3.89700E+00 2.71750E+01 0.00000E+00
 -1      1761 5.19600E+00 2.79000E+01 0.00000E+00
 -1      1762 3.89700E+00 2.27500E+01 0.00000E+00
 -1      1763 3.89700E+00 2.42250E+01 0.00000E+00
 -1      1764 5.19600E+00 2.49500E+01 0.00000E+00
 -1      1765 3.89700E+00 1.98000E+01 0.00000E+00
 -1      1766 3.89700E+00 2.12750E+01 0.00000E+00
 -1      1767 5.19600E+00 2.20000E+01 0.00000E+00
 -1      1768 3.89700E+00 1.69000E+01 0.00000E+00
 -1      1769 3.89700E+00 1.83500E+01 0.00000E+00
 -1      1770 5.19600E+00 1.90750E+01 0.00000E+00
 -1      1771 3.89700E+00 1.39500E+01 0.00000E+00
 -1      1772 3.89700E+00 1.54250E+01 0.00000E+00
 -1      1773 5.19600E+00 1.61500E+01 0.00000E+00
 -1      1774 3.89700E+00 1.10000E+01 0.00000E+00
 -1      1775 3.89700E+00 1.24750E+01 0.00000E+00
 -1      1776 5.19600E+00 1.32000E+01 0.00000E+00
 -1      1777 3.89700E+00 8.05000E+00 0.00000E+00
 -1      1778 3.89700E+00 9.52500E+00 0.00000E+00
 -1      1779 5.19600E+00 1.02500E+01 0.00000E+00
 -1      1780 3.89700E+00 5.10000E+00 0.00000E+00
 -1      1781 3.89700E+00 6.57500E+00 0.00000E+00
 -1      1782 5.19600E+00 7.30000E+00 0.00000E+00
 -1      1783 4.20450E+00 3.09687E+00 0.00000E+00
 -1      1784 4.06650E+00 4.19063E+00 0.00000E+00
 -1      1785 5.36550E+00 4.91563E+00 0.00000E+00
 -1      1786 5.70450E+00 3.09687E+00 0.00000E+00
 -1      1787 3.62400E+00 4.64885E+01 0.00000E+00
 -1      1788 8.70450E+00 3.09687E+00 0.00000E+00
 -1      1789 7.20450E+00 3.09687E+00 0.00000E+00
 -1      1790 7.03500E+00 4.00625E+00 0.00000E+00
 -1      1791 4.92300E+00 4.57510E+01 0.00000E+00
 -1      1792 8.40000E+00 4.61030E+01 0.00000E+00
 -1      1793 9.90000E+00 4.61030E+01 0.00000E+00
 -1      1794 1.14000E+01 4.61030E+01 0.00000E+00
 -1      1795 1.29000E+01 4.61030E+01 0.00000E+00
 -1      1796 1.06500E+01 4.48040E+01 0.00000E+00
 -1      1797 1.44000E+01 4.61030E+01 0.00000E+00
 -1      1798 1.59000E+01 4.61030E+01 0.00000E+00
 -1      1799 1.36500E+01 4.48040E+01 0.00000E+00
 -1      1800 1.74000E+01 4.61030E+01 0.00000E+00
 -1      1801 1.89000E+01 4.61030E+01 0.00000E+00
 -1      1802 1.66500E+01 4.48040E+01 0.00000E+00
 -1      1803 2.04000E+01 4.61030E+01 0.00000E+00
 -1      1804 2.19000E+01 4.61030E+01 0.00000E+00
 -1      1805 1.96500E+01 4.48040E+01 0.00000E+00
 -1      1806 2.34000E+01 4.61030E+01 0.00000E+00
 -1      1807 2.49000E+01 4.61030E+01 0.00000E+00
 -1      1808 2.26500E+01 4.48040E+01 0.00000E+00
 -1      1809 2.64000E+01 4.61030E+01 0.00000E+00
 -1      1810 2.79000E+01 4.61030E+01 0.00000E+00
 -1      1811 2.56500E+01 4.48040E+01 0.00000E+00
 -1      1812 2.94000E+01 4.61030E+01 0.00000E+00
 -1      1813 3.09000E+01 4.61030E+01 0.00000E+00
 -1      1814 2.86500E+01 4.48040E+01 0.00000E+00
 -1      1815 3.24000E+01 4.61030E+01 0.00000E+00
 -1      1816 3.39000E+01 4.61030E+01 0.00000E+00
 -1      1817 3.16500E+01 4.48040E+01 0.00000E+00
 -1      1818 3.54000E+01 4.61030E+01 0.00000E+00
 -1      1819 3.69000E+01 4.61030E+01 0.00000E+00
 -1      1820 3.46500E+01 4.48040E+01 0.00000E+00
 -1      1821 3.84000E+01 4.61030E+01 0.00000E+00
 -1      1822 3.99000E+01 4.61030E+01 0.00000E+00
 -1      1823 3.76500E+01 4.48040E+01 0.00000E+00
 -1      1824 4.14000E+01 4.61030E+01 0.00000E+00
 -1      1825 4.29000E+01 4.61030E+01 0.00000E+00
 -1      1826 4.06500E+01 4.48040E+01 0.00000E+00
 -1      1827 4.44000E+01 4.61030E+01 0.00000E+00
 -1      1828 4.59000E+01 4.61030E+01 0.00000E+00
 -1      1829 4.36500E+01 4.48040E+01 0.00000E+00
 -1      1830 4.74000E+01 4.61030E+01 0.00000E+00
 -1      1831 4.89000E+01 4.61030E+01 0.00000E+00
 -1      1832 4.66500E+01 4.48040E+01 0.00000E+00
 -1      1833 5.04000E+01 4.61030E+01 0.00000E+00
 -1      1834 5.19000E+01 4.61030E+01 0.00000E+00
 -1      1835 4.96500E+01 4.48040E+01 0.00000E+00
 -1      1836 5.34000E+01 4.61030E+01 0.00000E+00
 -1      1837 5.49000E+01 4.61030E+01 0.00000E+00
 -1      1838 5.26500E+01 4.48040E+01 0.00000E+00
 -1      1839 5.64000E+01 4.61030E+01 0.00000E+00
 -1      1840 5.79000E+01 4.61030E+01 0.00000E+00
 -1      1841 5.56500E+01 4.48040E+01 0.00000E+00
 -1      1842 5.94000E+01 4.61030E+01 0.00000E+00
 -1      1843 6.09000E+01 4.61030E+01 0.00000E+00
 -1      1844 5.86500E+01 4.48040E+01 0.00000E+00
 -1      1845 6.24000E+01 4.61030E+01 0.00000E+00
 -1      1846 6.39000E+01 4.61030E+01 0.00000E+00
 -1      1847 6.16500E+01 4.48040E+01 0.00000E+00
 -1      1848 6.54000E+01 4.61030E+01 0.00000E+00
 -1      1849 6.69000E+01 4.61030E+01 0.00000E+00
 -1      1850 6.46500E+01 4.48040E+01 0.00000E+00
 -1      1851 6.84000E+01 4.61030E+01 0.00000E+00
 -1      1852 6.99000E+01 4.61030E+01 0.00000E+00
 -1      1853 6.76500E+01 4.48040E+01 0.00000E+00
 -1      1854 7.14000E+01 4.61030E+01 0.00000E+00
 -1      1855 7.29000E+01 4.61030E+01 0.00000E+00
 -1      1856 7.06500E+01 4.48040E+01 0.00000E+00
 -1      1857 7.44000E+01 4.61030E+01 0.00000E+00
 -1      1858 7.59000E+01 4.61030E+01 0.00000E+00
 -1      1859 7.36500E+01 4.48040E+01 0.00000E+00
 -1      1860 7.74000E+01 4.61030E+01 0.00000E+00
 -1      1861 7.89000E+01 4.61030E+01 0.00000E+00
 -1      1862 7.66500E+01 4.48040E+01 0.00000E+00
 -1      1863 8.04000E+01 4.61030E+01 0.00000E+00
 -1      1864 8.19000E+01 4.61030E+01 0.00000E+00
 -1      1865 7.96500E+01 4.48040E+01 0.00000E+00
 -1      1866 8.34000E+01 4.61030E+01 0.00000E+00
 -1      1867 8.49000E+01 4.61030E+01 0.00000E+00
 -1      1868 8.26500E+01 4.48040E+01 0.00000E+00
 -1      1869 8.64000E+01 4.61030E+01 0.00000E+00
 -1      1870 8.79000E+01 4.61030E+01 0.00000E+00
 -1      1871 8.56500E+01 4.48040E+01 0.00000E+00
 -1      1872 8.94000E+01 4.61030E+01 0.00000E+00
 -1      1873 9.09000E+01 4.61030E+01 0.00000E+00
 -1      1874 8.86500E+01 4.48040E+01 0.00000E+00
 -1      1875 9.24000E+01 4.61030E+01 0.00000E+00
 -1      1876 9.39000E+01 4.61030E+01 0.00000E+00
 -1      1877 9.16500E+01 4.48040E+01 0.00000E+00
 -1      1878 9.54000E+01 4.61030E+01 0.00000E+00
 -1      1879 9.69000E+01 4.61030E+01 0.00000E+00
 -1      1880 9.46500E+01 4.48040E+01 0.00000E+00
 -1      1881 9.84000E+01 4.61030E+01 0.00000E+00
 -1      1882 9.99000E+01 4.61030E+01 0.00000E+00
 -1      1883 9.76500E+01 4.48040E+01 0.00000E+00
 -1      1884 1.01400E+02 4.61030E+01 0.00000E+00
 -1      1885 1.02900E+02 4.61030E+01 0.00000E+00
 -1      1886 1.00650E+02 4.48040E+01 0.00000E+00
 -1      1887 1.04400E+02 4.61030E+01 0.00000E+00
 -1      1888 1.05900E+02 4.61030E+01 0.00000E+00
 -1      1889 1.03650E+02 4.48040E+01 0.00000E+00
 -1      1890 1.07400E+02 4.61030E+01 0.00000E+00
 -1      1891 1.08900E+02 4.61030E+01 0.00000E+00
 -1      1892 1.06650E+02 4.48040E+01 0.00000E+00
 -1      1893 1.10400E+02 4.61030E+01 0.00000E+00
 -1      1894 1.11900E+02 4.61030E+01 0.00000E+00
 -1      1895 1.09650E+02 4.48040E+01 0.00000E+00
 -1      1896 1.13400E+02 4.61030E+01 0.00000E+00
 -1      1897 1.14900E+02 4.61030E+01 0.00000E+00
 -1      1898 1.12650E+02 4.48040E+01 0.00000E+00
 -1      1899 1.16400E+02 4.61030E+01 0.00000E+00
 -1      1900 1.17900E+02 4.61030E+01 0.00000E+00
 -1      1901 1.15650E+02 4.48040E+01 0.00000E+00
 -1      1902 1.19400E+02 4.61030E+01 0.00000E+00
 -1      1903 1.20900E+02 4.61030E+01 0.00000E+00
 -1      1904 1.18650E+02 4.48040E+01 0.00000E+00
 -1      1905 1.22400E+02 4.61030E+01 0.00000E+00
 -1      1906 1.23900E+02 4.61030E+01 0.00000E+00
 -1      1907 1.21650E+02 4.48040E+01 0.00000E+00
 -1      1908 1.25400E+02 4.61030E+01 0.00000E+00
 -1      1909 1.26900E+02 4.61030E+01 0.00000E+00
 -1      1910 1.24650E+02 4.48040E+01 0.00000E+00
 -1      1911 1.28400E+02 4.61030E+01 0.00000E+00
 -1      1912 1.29900E+02 4.61030E+01 0.00000E+00
 -1      1913 1.27650E+02 4.48040E+01 0.00000E+00
 -1      1914 1.31400E+02 4.61030E+01 0.00000E+00
 -1      1915 1.32900E+02 4.61030E+01 0.00000E+00
 -1      1916 1.30650E+02 4.48040E+01 0.00000E+00
 -1      1917 1.34400E+02 4.61030E+01 0.00000E+00
 -1      1918 1.35900E+02 4.61030E+01 0.00000E+00
 -1      1919 1.33650E+02 4.48040E+01 0.00000E+00
 -1      1920 1.37400E+02 4.61030E+01 0.00000E+00
 -1      1921 1.38900E+02 4.61030E+01 0.00000E+00
 -1      1922 1.36650E+02 4.48040E+01 0.00000E+00
 -1      1923 1.40400E+02 4.61030E+01 0.00000E+00
 -1      1924 1.41900E+02 4.61030E+01 0.00000E+00
 -1      1925 1.39650E+02 4.48040E+01 0.00000E+00
 -1      1926 1.43244E+02 4.61616E+01 0.00000E+00
 -1      1927 1.44744E+02 4.61616E+01 0.00000E+00
 -1      1928 1.45182E+02 4.49799E+01 0.00000E+00
 -1      1929 1.42494E+02 4.48626E+01 0.00000E+00
 -1      1930 1.17045E+01 3.09687E+00 0.00000E+00
 -1      1931 1.02045E+01 3.09687E+00 0.00000E+00
 -1      1932 1.00350E+01 4.00625E+00 0.00000E+00
 -1      1933 1.47045E+01 3.09687E+00 0.00000E+00
 -1      1934 1.32045E+01 3.09687E+00 0.00000E+00
 -1      1935 1.30350E+01 4.00625E+00 0.00000E+00
 -1      1936 1.77045E+01 3.09687E+00 0.00000E+00
 -1      1937 1.62045E+01 3.09687E+00 0.00000E+00
 -1      1938 1.60350E+01 4.00625E+00 0.00000E+00
 -1      1939 2.07045E+01 3.09687E+00 0.00000E+00
 -1      1940 1.92045E+01 3.09687E+00 0.00000E+00
 -1      1941 1.90350E+01 4.00625E+00 0.00000E+00
 -1      1942 2.37045E+01 3.09687E+00 0.00000E+00
 -1      1943 2.22045E+01 3.09687E+00 0.00000E+00
 -1      1944 2.20350E+01 4.00625E+00 0.00000E+00
 -1      1945 2.67045E+01 3.09687E+00 0.00000E+00
 -1      1946 2.52045E+01 3.09687E+00 0.00000E+00
 -1      1947 2.50350E+01 4.00625E+00 0.00000E+00
 -1      1948 2.97045E+01 3.09687E+00 0.00000E+00
 -1      1949 2.82045E+01 3.09687E+00 0.00000E+00
 -1      1950 2.80350E+01 4.00625E+00 0.00000E+00
 -1      1951 3.27045E+01 3.09687E+00 0.00000E+00
 -1      1952 3.12045E+01 3.09687E+00 0.00000E+00
 -1      1953 3.10350E+01 4.00625E+00 0.00000E+00
 -1      1954 3.57045E+01 3.09687E+00 0.00000E+00
 -1      1955 3.42045E+01 3.09687E+00 0.00000E+00
 -1      1956 3.40350E+01 4.00625E+00 0.00000E+00
 -1      1957 3.87045E+01 3.09687E+00 0.00000E+00
 -1      1958 3.72045E+01 3.09687E+00 0.00000E+00
 -1      1959 3.70350E+01 4.00625E+00 0.00000E+00
 -1      1960 4.17045E+01 3.09687E+00 0.00000E+00
 -1      1961 4.02045E+01 3.09687E+00 0.00000E+00
 -1      1962 4.00350E+01 4.00625E+00 0.00000E+00
 -1      1963 4.47045E+01 3.09687E+00 0.00000E+00
 -1      1964 4.32045E+01 3.09687E+00 0.00000E+00
 -1      1965 4.30350E+01 4.00625E+00 0.00000E+00
 -1      1966 4.77045E+01 3.09687E+00 0.00000E+00
 -1      1967 4.62045E+01 3.09687E+00 0.00000E+00
 -1      1968 4.60350E+01 4.00625E+00 0.00000E+00
 -1      1969 5.07045E+01 3.09687E+00 0.00000E+00
 -1      1970 4.92045E+01 3.09687E+00 0.00000E+00
 -1      1971 4.90350E+01 4.00625E+00 0.00000E+00
 -1      1972 5.37045E+01 3.09687E+00 0.00000E+00
 -1      1973 5.22045E+01 3.09687E+00 0.00000E+00
 -1      1974 5.20350E+01 4.00625E+00 0.00000E+00
 -1      1975 5.67045E+01 3.09687E+00 0.00000E+00
 -1      1976 5.52045E+01 3.09687E+00 0.00000E+00
 -1      1977 5.50350E+01 4.00625E+00 0.00000E+00
 -1      1978 5.97045E+01 3.09687E+00 0.00000E+00
 -1      1979 5.82045E+01 3.09687E+00 0.00000E+00
 -1      1980 5.80350E+01 4.00625E+00 0.00000E+00
 -1      1981 6.27045E+01 3.09687E+00 0.00000E+00
 -1      1982 6.12045E+01 3.09687E+00 0.00000E+00
 -1      1983 6.10350E+01 4.00625E+00 0.00000E+00
 -1      1984 6.57045E+01 3.09687E+00 0.00000E+00
 -1      1985 6.42045E+01 3.09687E+00 0.00000E+00
 -1      1986 6.40350E+01 4.00625E+00 0.00000E+00
 -1      1987 6.87045E+01 3.09687E+00 0.00000E+00
 -1      1988 6.72045E+01 3.09687E+00 0.00000E+00
 -1      1989 6.70350E+01 4.00625E+00 0.00000E+00
 -1      1990 7.17045E+01 3.09687E+00 0.00000E+00
 -1      1991 7.02045E+01 3.09687E+00 0.00000E+00
 -1      1992 7.00350E+01 4.00625E+00 0.00000E+00
 -1      1993 7.47045E+01 3.09687E+00 0.00000E+00
 -1      1994 7.32045E+01 3.09687E+00 0.00000E+00
 -1      1995 7.30350E+01 4.00625E+00 0.00000E+00
 -1      1996 7.77045E+01 3.09687E+00 0.00000E+00
 -1      1997 7.62045E+01 3.09687E+00 0.00000E+00
 -1      1998 7.60350E+01 4.00625E+00 0.00000E+00
 -1      1999 8.07045E+01 3.09687E+00 0.00000E+00
 -1      2000 7.92045E+01 3.09687E+00 0.00000E+00
 -1      2001 7.90350E+01 4.00625E+00 0.00000E+00
 -1      2002 8.37045E+01 3.09687E+00 0.00000E+00
 -1      2003 8.22045E+01 3.09687E+00 0.00000E+00
 -1      2004 8.20350E+01 4.00625E+00 0.00000E+00
 -1      2005 8.67045E+01 3.09687E+00 0.00000E+00
 -1      2006 8.52045E+01 3.09687E+00 0.00000E+00
 -1      2007 8.50350E+01 4.00625E+00 0.00000E+00
 -1      2008 8.97045E+01 3.09687E+00 0.00000E+00
 -1      2009 8.82045E+01 3.09687E+00 0.00000E+00
 -1      2010 8.80350E+01 4.00625E+00 0.00000E+00
 -1      2011 9.27045E+01 3.09687E+00 0.00000E+00
 -1      2012 9.12045E+01 3.09687E+00 0.00000E+00
 -1      2013 9.10350E+01 4.00625E+00 0.00000E+00
 -1      2014 9.57045E+01 3.09687E+00 0.00000E+00
 -1      2015 9.42045E+01 3.09687E+00 0.00000E+00
 -1      2016 9.40350E+01 4.00625E+00 0.00000E+00
 -1      2017 9.87045E+01 3.09687E+00 0.00000E+00
 -1      2018 9.72045E+01 3.09687E+00 0.00000E+00
 -1      2019 9.70350E+01 4.00625E+00 0.00000E+00
 -1      2020 1.01704E+02 3.09687E+00 0.00000E+00
 -1      2021 1.00204E+02 3.09687E+00 0.00000E+00
 -1      2022 1.00035E+02 4.00625E+00 0.00000E+00
 -1      2023 1.04704E+02 3.09687E+00 0.00000E+00
 -1      2024 1.03204E+02 3.09687E+00 0.00000E+00
 -1      2025 1.03035E+02 4.00625E+00 0.00000E+00
 -1      2026 1.07704E+02 3.09687E+00 0.00000E+00
 -1      2027 1.06204E+02 3.09687E+00 0.00000E+00
 -1      2028 1.06035E+02 4.00625E+00 0.00000E+00
 -1      2029 1.10704E+02 3.09687E+00 0.00000E+00
 -1      2030 1.09204E+02 3.09687E+00 0.00000E+00
 -1      2031 1.09035E+02 4.00625E+00 0.00000E+00
 -1      2032 1.13704E+02 3.09687E+00 0.00000E+00
 -1      2033 1.12204E+02 3.09687E+00 0.00000E+00
 -1      2034 1.12035E+02 4.00625E+00 0.00000E+00
 -1      2035 1.16704E+02 3.09687E+00 0.00000E+00
 -1      2036 1.15204E+02 3.09687E+00 0.00000E+00
 -1      2037 1.15035E+02 4.00625E+00 0.00000E+00
 -1      2038 1.19704E+02 3.09687E+00 0.00000E+00
 -1      2039 1.18204E+02 3.09687E+00 0.00000E+00
 -1      2040 1.18035E+02 4.00625E+00 0.00000E+00
 -1      2041 1.22704E+02 3.09687E+00 0.00000E+00
 -1      2042 1.21204E+02 3.09687E+00 0.00000E+00
 -1      2043 1.21035E+02 4.00625E+00 0.00000E+00
 -1      2044 1.25704E+02 3.09687E+00 0.00000E+00
 -1      2045 1.24204E+02 3.09687E+00 0.00000E+00
 -1      2046 1.24035E+02 4.00625E+00 0.00000E+00
 -1      2047 1.28704E+02 3.09687E+00 0.00000E+00
 -1      2048 1.27204E+02 3.09687E+00 0.00000E+00
 -1      2049 1.27035E+02 4.00625E+00 0.00000E+00
 -1      2050 1.31704E+02 3.09687E+00 0.00000E+00
 -1      2051 1.30204E+02 3.09687E+00 0.00000E+00
 -1      2052 1.30035E+02 4.00625E+00 0.00000E+00
 -1      2053 1.34704E+02 3.09687E+00 0.00000E+00
 -1      2054 1.33204E+02 3.09687E+00 0.00000E+00
 -1      2055 1.33035E+02 4.00625E+00 0.00000E+00
 -1      2056 1.37704E+02 3.09687E+00 0.00000E+00
 -1      2057 1.36204E+02 3.09687E+00 0.00000E+00
 -1      2058 1.36035E+02 4.00625E+00 0.00000E+00
 -1      2059 1.40704E+02 3.09687E+00 0.00000E+00
 -1      2060 1.39204E+02 3.09687E+00 0.00000E+00
 -1      2061 1.39035E+02 4.00625E+00 0.00000E+00
 -1      2062 1.43704E+02 3.09687E+00 0.00000E+00
 -1      2063 1.42204E+02 3.09687E+00 0.00000E+00
 -1      2064 1.42035E+02 4.00625E+00 0.00000E+00
 -1      2065 1.46171E+02 3.20156E+00 0.00000E+00
 -1      2066 1.44671E+02 3.20156E+00 0.00000E+00
 -1      2067 1.44502E+02 4.11094E+00 0.00000E+00
 -1      2068 1.46435E+02 4.32031E+00 0.00000E+00
 -1      2069 1.46103E+02 1.25375E+01 0.00000E+00
 -1      2070 1.46103E+02 1.10625E+01 0.00000E+00
 -1      2071 1.46103E+02 9.58750E+00 0.00000E+00
 -1      2072 1.46103E+02 8.11250E+00 0.00000E+00
 -1      2073 1.44804E+02 1.03250E+01 0.00000E+00
 -1      2074 1.46269E+02 6.95391E+00 0.00000E+00
 -1      2075 1.46269E+02 5.47891E+00 0.00000E+00
 -1      2076 1.45302E+02 5.37422E+00 0.00000E+00
 -1      2077 1.44970E+02 7.69141E+00 0.00000E+00
 -1      2078 1.46103E+02 1.54375E+01 0.00000E+00
 -1      2079 1.46103E+02 1.39875E+01 0.00000E+00
 -1      2080 1.44804E+02 1.32500E+01 0.00000E+00
 -1      2081 1.46103E+02 1.83875E+01 0.00000E+00
 -1      2082 1.46103E+02 1.69125E+01 0.00000E+00
 -1      2083 1.44804E+02 1.61750E+01 0.00000E+00
 -1      2084 1.46103E+02 2.13375E+01 0.00000E+00
 -1      2085 1.46103E+02 1.98625E+01 0.00000E+00
 -1      2086 1.44804E+02 1.91250E+01 0.00000E+00
 -1      2087 1.46103E+02 2.42875E+01 0.00000E+00
 -1      2088 1.46103E+02 2.28125E+01 0.00000E+00
 -1      2089 1.44804E+02 2.20750E+01 0.00000E+00
 -1      2090 1.46103E+02 2.72375E+01 0.00000E+00
 -1      2091 1.46103E+02 2.57625E+01 0.00000E+00
 -1      2092 1.44804E+02 2.50250E+01 0.00000E+00
 -1      2093 1.46103E+02 3.01875E+01 0.00000E+00
 -1      2094 1.46103E+02 2.87125E+01 0.00000E+00
 -1      2095 1.44804E+02 2.79750E+01 0.00000E+00
 -1      2096 1.46103E+02 3.30875E+01 0.00000E+00
 -1      2097 1.46103E+02 3.16375E+01 0.00000E+00
 -1      2098 1.44804E+02 3.09000E+01 0.00000E+00
 -1      2099 1.46103E+02 3.60375E+01 0.00000E+00
 -1      2100 1.46103E+02 3.45625E+01 0.00000E+00
 -1      2101 1.44804E+02 3.38250E+01 0.00000E+00
 -1      2102 1.46103E+02 3.89875E+01 0.00000E+00
 -1      2103 1.46103E+02 3.75125E+01 0.00000E+00
 -1      2104 1.44804E+02 3.67750E+01 0.00000E+00
 -1      2105 1.46103E+02 4.19375E+01 0.00000E+00
 -1      2106 1.46103E+02 4.04625E+01 0.00000E+00
 -1      2107 1.44804E+02 3.97250E+01 0.00000E+00
 -1      2108 1.35565E+02 1.88882E+01 0.00000E+00
 -1      2109 1.35906E+02 1.98070E+01 0.00000E+00
 -1      2110 1.36427E+02 2.27016E+01 0.00000E+00
 -1      2111 1.36502E+02 2.36008E+01 0.00000E+00
 -1      2112 1.36200E+02 2.09063E+01 0.00000E+00
 -1      2113 1.36313E+02 2.18040E+01 0.00000E+00
 -1      2114 1.37122E+02 2.21889E+01 0.00000E+00
 -1      2115 1.34130E+02 1.72384E+01 0.00000E+00
 -1      2116 1.34823E+02 1.78598E+01 0.00000E+00
 -1      2117 1.32745E+02 1.61268E+01 0.00000E+00
 -1      2118 1.33405E+02 1.66692E+01 0.00000E+00
 -1      2119 3.89700E+00 3.74688E+01 0.00000E+00
 -1      2120 3.89700E+00 3.89437E+01 0.00000E+00
 -1      2121 5.19600E+00 3.96813E+01 0.00000E+00
 -1      2122 5.19600E+00 3.67438E+01 0.00000E+00
 -1      2123 1.29358E+02 1.42902E+01 0.00000E+00
 -1      2124 1.30236E+02 1.45216E+01 0.00000E+00
 -1      2125 1.27381E+02 1.42773E+01 0.00000E+00
 -1      2126 1.28258E+02 1.42737E+01 0.00000E+00
 -1      2127 1.25557E+02 1.43566E+01 0.00000E+00
 -1      2128 1.26469E+02 1.43170E+01 0.00000E+00
 -1      2129 1.26905E+02 1.35833E+01 0.00000E+00
 -1      2130 1.23613E+02 1.52174E+01 0.00000E+00
 -1      2131 1.24401E+02 1.47591E+01 0.00000E+00
 -1      2132 1.22094E+02 1.61789E+01 0.00000E+00
 -1      2133 1.22797E+02 1.56873E+01 0.00000E+00
 -1      2134 1.20617E+02 1.73158E+01 0.00000E+00
 -1      2135 1.21287E+02 1.67147E+01 0.00000E+00
 -1      2136 1.19407E+02 1.88678E+01 0.00000E+00
 -1      2137 1.19939E+02 1.81315E+01 0.00000E+00
 -1      2138 1.18877E+02 2.08868E+01 0.00000E+00
 -1      2139 1.18992E+02 2.00121E+01 0.00000E+00
 -1      2140 1.18609E+02 2.26304E+01 0.00000E+00
 -1      2141 1.18743E+02 2.17586E+01 0.00000E+00
 -1      2142 1.18116E+02 2.12313E+01 0.00000E+00
 -1      2143 1.18530E+02 2.46061E+01 0.00000E+00
 -1      2144 1.18432E+02 2.37022E+01 0.00000E+00
 -1      2145 1.19187E+02 2.64485E+01 0.00000E+00
 -1      2146 1.18935E+02 2.55803E+01 0.00000E+00
 -1      2147 1.20041E+02 2.82468E+01 0.00000E+00
 -1      2148 1.19542E+02 2.75044E+01 0.00000E+00
 -1      2149 1.21241E+02 2.96984E+01 0.00000E+00
 -1      2150 1.20641E+02 2.90647E+01 0.00000E+00
 -1      2151 1.22813E+02 3.08017E+01 0.00000E+00
 -1      2152 1.22086E+02 3.03068E+01 0.00000E+00
 -1      2153 1.24594E+02 3.16154E+01 0.00000E+00
 -1      2154 1.23753E+02 3.13214E+01 0.00000E+00
 -1      2155 1.26451E+02 3.19739E+01 0.00000E+00
 -1      2156 1.25582E+02 3.18271E+01 0.00000E+00
 -1      2157 1.28342E+02 3.20117E+01 0.00000E+00
 -1      2158 1.27454E+02 3.20144E+01 0.00000E+00
 -1      2159 1.30268E+02 3.16752E+01 0.00000E+00
 -1      2160 1.29407E+02 3.19095E+01 0.00000E+00
 -1      2161 1.32041E+02 3.07984E+01 0.00000E+00
 -1      2162 1.31265E+02 3.12546E+01 0.00000E+00
 -1      2163 1.33661E+02 2.98606E+01 0.00000E+00
 -1      2164 1.32851E+02 3.03295E+01 0.00000E+00
 -1      2165 1.32834E+02 3.11884E+01 0.00000E+00
 -1      2166 1.34942E+02 2.81163E+01 0.00000E+00
 -1      2167 1.34535E+02 2.89260E+01 0.00000E+00
 -1      2168 1.35664E+02 2.65706E+01 0.00000E+00
 -1      2169 1.35303E+02 2.73435E+01 0.00000E+00
 -1      2170 1.35753E+02 2.80773E+01 0.00000E+00
 -1      2171 1.36287E+02 2.47570E+01 0.00000E+00
 -1      2172 1.36010E+02 2.56179E+01 0.00000E+00
 -1      2173 1.31167E+02 1.51272E+01 0.00000E+00
 -1      2174 1.31940E+02 1.55722E+01 0.00000E+00
 -1      2175 1.32681E+02 1.53426E+01 0.00000E+00
 -1      2176 6.42300E+00 4.57510E+01 0.00000E+00
 -1      2177 1.30946E+02 1.41823E+01 0.00000E+00
 -1      2178 7.17300E+00 4.44520E+01 0.00000E+00
 -1      2179 1.36715E+02 2.01919E+01 0.00000E+00
 -1      2180 1.35794E+02 1.72399E+01 0.00000E+00
 -1      2181 1.35679E+02 1.80641E+01 0.00000E+00
 -1      2182 1.36536E+02 1.82684E+01 0.00000E+00
 -1      2183 1.45665E+02 4.31193E+01 0.00000E+00
 -1      2184 1.37020E+02 2.42428E+01 0.00000E+00
 -1      2185 1.34212E+02 1.64665E+01 0.00000E+00
 -1      2186 1.36460E+02 2.63517E+01 0.00000E+00
 -1      2187 1.34518E+02 2.97849E+01 0.00000E+00
 -1      2188 1.34502E+02 3.06438E+01 0.00000E+00
 -1      2189 1.35376E+02 2.97091E+01 0.00000E+00
 -1      2190 1.31027E+02 3.20779E+01 0.00000E+00
 -1      2191 1.28965E+02 3.26008E+01 0.00000E+00
 -1      2192 1.26897E+02 3.26626E+01 0.00000E+00
 -1      2193 1.24906E+02 3.24105E+01 0.00000E+00
 -1      2194 1.22978E+02 3.16791E+01 0.00000E+00
 -1      2195 1.21194E+02 3.05510E+01 0.00000E+00
 -1      2196 1.19749E+02 2.91248E+01 0.00000E+00
 -1      2197 1.18794E+02 2.72509E+01 0.00000E+00
 -1      2198 1.17805E+02 2.31749E+01 0.00000E+00
 -1      2199 1.18665E+02 1.92152E+01 0.00000E+00
 -1      2200 1.18338E+02 1.84182E+01 0.00000E+00
 -1      2201 1.17923E+02 1.95625E+01 0.00000E+00
 -1      2202 1.19757E+02 1.72551E+01 0.00000E+00
 -1      2203 1.21243E+02 1.59035E+01 0.00000E+00
 -1      2204 1.24837E+02 1.40255E+01 0.00000E+00
 -1      2205 1.25273E+02 1.32918E+01 0.00000E+00
 -1      2206 1.24117E+02 1.36943E+01 0.00000E+00
 -1      2207 1.28916E+02 1.35601E+01 0.00000E+00
 -1      2208 1.22866E+02 1.48978E+01 0.00000E+00
 -1      2209 1.18034E+02 2.52209E+01 0.00000E+00
 -1      2210 1.07850E+01 5.30525E+00 0.00000E+00
 -1      2211 9.28500E+00 5.30525E+00 0.00000E+00
 -1      2212 6.49500E+00 3.01125E+01 0.00000E+00
 -1      2213 6.49500E+00 3.15875E+01 0.00000E+00
 -1      2214 6.49500E+00 3.30625E+01 0.00000E+00
 -1      2215 6.49500E+00 3.45375E+01 0.00000E+00
 -1      2216 7.79400E+00 3.23250E+01 0.00000E+00
 -1      2217 6.49500E+00 2.42125E+01 0.00000E+00
 -1      2218 6.49500E+00 2.56875E+01 0.00000E+00
 -1      2219 6.49500E+00 2.12625E+01 0.00000E+00
 -1      2220 6.49500E+00 2.27375E+01 0.00000E+00
 -1      2221 7.79400E+00 2.34750E+01 0.00000E+00
 -1      2222 6.49500E+00 1.83625E+01 0.00000E+00
 -1      2223 6.49500E+00 1.98125E+01 0.00000E+00
 -1      2224 7.79400E+00 2.05500E+01 0.00000E+00
 -1      2225 6.49500E+00 1.54125E+01 0.00000E+00
 -1      2226 6.49500E+00 1.68875E+01 0.00000E+00
 -1      2227 7.79400E+00 1.76250E+01 0.00000E+00
 -1      2228 6.49500E+00 1.24625E+01 0.00000E+00
 -1      2229 6.49500E+00 1.39375E+01 0.00000E+00
 -1      2230 7.79400E+00 1.46750E+01 0.00000E+00
 -1      2231 6.49500E+00 9.51250E+00 0.00000E+00
 -1      2232 6.49500E+00 1.09875E+01 0.00000E+00
 -1      2233 7.79400E+00 1.17250E+01 0.00000E+00
 -1      2234 1.37850E+01 5.30525E+00 0.00000E+00
 -1      2235 1.22850E+01 5.30525E+00 0.00000E+00
 -1      2236 1.15350E+01 6.60425E+00 0.00000E+00
 -1      2237 9.90000E+00 4.35050E+01 0.00000E+00
 -1      2238 1.14000E+01 4.35050E+01 0.00000E+00
 -1      2239 1.30948E+02 1.31607E+01 0.00000E+00
 -1      2240 1.31879E+02 1.37664E+01 0.00000E+00
 -1      2241 1.29000E+01 4.35050E+01 0.00000E+00
 -1      2242 1.44000E+01 4.35050E+01 0.00000E+00
 -1      2243 1.21500E+01 4.22060E+01 0.00000E+00
 -1      2244 1.59000E+01 4.35050E+01 0.00000E+00
 -1      2245 1.74000E+01 4.35050E+01 0.00000E+00
 -1      2246 1.51500E+01 4.22060E+01 0.00000E+00
 -1      2247 1.89000E+01 4.35050E+01 0.00000E+00
 -1      2248 2.04000E+01 4.35050E+01 0.00000E+00
 -1      2249 1.81500E+01 4.22060E+01 0.00000E+00
 -1      2250 2.19000E+01 4.35050E+01 0.00000E+00
 -1      2251 2.34000E+01 4.35050E+01 0.00000E+00
 -1      2252 2.11500E+01 4.22060E+01 0.00000E+00
 -1      2253 2.49000E+01 4.35050E+01 0.00000E+00
 -1      2254 2.64000E+01 4.35050E+01 0.00000E+00
 -1      2255 2.41500E+01 4.22060E+01 0.00000E+00
 -1      2256 2.79000E+01 4.35050E+01 0.00000E+00
 -1      2257 2.94000E+01 4.35050E+01 0.00000E+00
 -1      2258 2.71500E+01 4.22060E+01 0.00000E+00
 -1      2259 3.09000E+01 4.35050E+01 0.00000E+00
 -1      2260 3.24000E+01 4.35050E+01 0.00000E+00
 -1      2261 3.01500E+01 4.22060E+01 0.00000E+00
 -1      2262 3.39000E+01 4.35050E+01 0.00000E+00
 -1      2263 3.54000E+01 4.35050E+01 0.00000E+00
 -1      2264 3.31500E+01 4.22060E+01 0.00000E+00
 -1      2265 3.69000E+01 4.35050E+01 0.00000E+00
 -1      2266 3.84000E+01 4.35050E+01 0.00000E+00
 -1      2267 3.61500E+01 4.22060E+01 0.00000E+00
 -1      2268 3.99000E+01 4.35050E+01 0.00000E+00
 -1      2269 4.14000E+01 4.35050E+01 0.00000E+00
 -1      2270 3.91500E+01 4.22060E+01 0.00000E+00
 -1      2271 4.29000E+01 4.35050E+01 0.00000E+00
 -1      2272 4.44000E+01 4.35050E+01 0.00000E+00
 -1      2273 4.21500E+01 4.22060E+01 0.00000E+00
 -1      2274 4.59000E+01 4.35050E+01 0.00000E+00
 -1      2275 4.74000E+01 4.35050E+01 0.00000E+00
 -1      2276 4.51500E+01 4.22060E+01 0.00000E+00
 -1      2277 4.89000E+01 4.35050E+01 0.00000E+00
 -1      2278 5.04000E+01 4.35050E+01 0.00000E+00
 -1      2279 4.81500E+01 4.22060E+01 0.00000E+00
 -1      2280 5.19000E+01 4.35050E+01 0.00000E+00
 -1      2281 5.34000E+01 4.35050E+01 0.00000E+00
 -1      2282 5.11500E+01 4.22060E+01 0.00000E+00
 -1      2283 5.49000E+01 4.35050E+01 0.00000E+00
 -1      2284 5.64000E+01 4.35050E+01 0.00000E+00
 -1      2285 5.41500E+01 4.22060E+01 0.00000E+00
 -1      2286 5.79000E+01 4.35050E+01 0.00000E+00
 -1      2287 5.94000E+01 4.35050E+01 0.00000E+00
 -1      2288 5.71500E+01 4.22060E+01 0.00000E+00
 -1      2289 6.09000E+01 4.35050E+01 0.00000E+00
 -1      2290 6.24000E+01 4.35050E+01 0.00000E+00
 -1      2291 6.01500E+01 4.22060E+01 0.00000E+00
 -1      2292 6.39000E+01 4.35050E+01 0.00000E+00
 -1      2293 6.54000E+01 4.35050E+01 0.00000E+00
 -1      2294 6.31500E+01 4.22060E+01 0.00000E+00
 -1      2295 6.69000E+01 4.35050E+01 0.00000E+00
 -1      2296 6.84000E+01 4.35050E+01 0.00000E+00
 -1      2297 6.61500E+01 4.22060E+01 0.00000E+00
 -1      2298 6.99000E+01 4.35050E+01 0.00000E+00
 -1      2299 7.14000E+01 4.35050E+01 0.00000E+00
 -1      2300 6.91500E+01 4.22060E+01 0.00000E+00
 -1      2301 7.29000E+01 4.35050E+01 0.00000E+00
 -1      2302 7.44000E+01 4.35050E+01 0.00000E+00
 -1      2303 7.21500E+01 4.22060E+01 0.00000E+00
 -1      2304 7.59000E+01 4.35050E+01 0.00000E+00
 -1      2305 7.74000E+01 4.35050E+01 0.00000E+00
 -1      2306 7.51500E+01 4.22060E+01 0.00000E+00
 -1      2307 7.89000E+01 4.35050E+01 0.00000E+00
 -1      2308 8.04000E+01 4.35050E+01 0.00000E+00
 -1      2309 7.81500E+01 4.22060E+01 0.00000E+00
 -1      2310 8.19000E+01 4.35050E+01 0.00000E+00
 -1      2311 8.34000E+01 4.35050E+01 0.00000E+00
 -1      2312 8.11500E+01 4.22060E+01 0.00000E+00
 -1      2313 8.49000E+01 4.35050E+01 0.00000E+00
 -1      2314 8.64000E+01 4.35050E+01 0.00000E+00
 -1      2315 8.41500E+01 4.22060E+01 0.00000E+00
 -1      2316 8.79000E+01 4.35050E+01 0.00000E+00
 -1      2317 8.94000E+01 4.35050E+01 0.00000E+00
 -1      2318 8.71500E+01 4.22060E+01 0.00000E+00
 -1      2319 9.09000E+01 4.35050E+01 0.00000E+00
 -1      2320 9.24000E+01 4.35050E+01 0.00000E+00
 -1      2321 9.01500E+01 4.22060E+01 0.00000E+00
 -1      2322 9.39000E+01 4.35050E+01 0.00000E+00
 -1      2323 9.54000E+01 4.35050E+01 0.00000E+00
 -1      2324 9.31500E+01 4.22060E+01 0.00000E+00
 -1      2325 9.69000E+01 4.35050E+01 0.00000E+00
 -1      2326 9.84000E+01 4.35050E+01 0.00000E+00
 -1      2327 9.61500E+01 4.22060E+01 0.00000E+00
 -1      2328 9.99000E+01 4.35050E+01 0.00000E+00
 -1      2329 1.01400E+02 4.35050E+01 0.00000E+00
 -1      2330 9.91500E+01 4.22060E+01 0.00000E+00
 -1      2331 1.02900E+02 4.35050E+01 0.00000E+00
 -1      2332 1.04400E+02 4.35050E+01 0.00000E+00
 -1      2333 1.02150E+02 4.22060E+01 0.00000E+00
 -1      2334 1.05900E+02 4.35050E+01 0.00000E+00
 -1      2335 1.07400E+02 4.35050E+01 0.00000E+00
 -1      2336 1.05150E+02 4.22060E+01 0.00000E+00
 -1      2337 1.08900E+02 4.35050E+01 0.00000E+00
 -1      2338 1.10400E+02 4.35050E+01 0.00000E+00
 -1      2339 1.08150E+02 4.22060E+01 0.00000E+00
 -1      2340 1.11900E+02 4.35050E+01 0.00000E+00
 -1      2341 1.13400E+02 4.35050E+01 0.00000E+00
 -1      2342 1.11150E+02 4.22060E+01 0.00000E+00
 -1      2343 1.14900E+02 4.35050E+01 0.00000E+00
 -1      2344 1.16400E+02 4.35050E+01 0.00000E+00
 -1      2345 1.14150E+02 4.22060E+01 0.00000E+00
 -1      2346 1.17900E+02 4.35050E+01 0.00000E+00
 -1      2347 1.19400E+02 4.35050E+01 0.00000E+00
 -1      2348 1.17150E+02 4.22060E+01 0.00000E+00
 -1      2349 1.20900E+02 4.35050E+01 0.00000E+00
 -1      2350 1.22400E+02 4.35050E+01 0.00000E+00
 -1      2351 1.20150E+02 4.22060E+01 0.00000E+00
 -1      2352 1.23900E+02 4.35050E+01 0.00000E+00
 -1      2353 1.25400E+02 4.35050E+01 0.00000E+00
 -1      2354 1.23150E+02 4.22060E+01 0.00000E+00
 -1      2355 1.26900E+02 4.35050E+01 0.00000E+00
 -1      2356 1.28400E+02 4.35050E+01 0.00000E+00
 -1      2357 1.26150E+02 4.22060E+01 0.00000E+00
 -1      2358 1.29900E+02 4.35050E+01 0.00000E+00
 -1      2359 1.31400E+02 4.35050E+01 0.00000E+00
 -1      2360 1.29150E+02 4.22060E+01 0.00000E+00
 -1      2361 1.32900E+02 4.35050E+01 0.00000E+00
 -1      2362 1.34400E+02 4.35050E+01 0.00000E+00
 -1      2363 1.32150E+02 4.22060E+01 0.00000E+00
 -1      2364 1.35900E+02 4.35050E+01 0.00000E+00
 -1      2365 1.37400E+02 4.35050E+01 0.00000E+00
 -1      2366 1.35150E+02 4.22060E+01 0.00000E+00
 -1      2367 1.38900E+02 4.35050E+01 0.00000E+00
 -1      2368 1.40400E+02 4.35050E+01 0.00000E+00
 -1      2369 1.38150E+02 4.22060E+01 0.00000E+00
 -1      2370 1.97850E+01 5.30525E+00 0.00000E+00
 -1      2371 1.82850E+01 5.30525E+00 0.00000E+00
 -1      2372 2.27850E+01 5.30525E+00 0.00000E+00
 -1      2373 2.12850E+01 5.30525E+00 0.00000E+00
 -1      2374 2.05350E+01 6.60425E+00 0.00000E+00
 -1      2375 2.57850E+01 5.30525E+00 0.00000E+00
 -1      2376 2.42850E+01 5.30525E+00 0.00000E+00
 -1      2377 2.35350E+01 6.60425E+00 0.00000E+00
 -1      2378 2.87850E+01 5.30525E+00 0.00000E+00
 -1      2379 2.72850E+01 5.30525E+00 0.00000E+00
 -1      2380 2.65350E+01 6.60425E+00 0.00000E+00
 -1      2381 3.17850E+01 5.30525E+00 0.00000E+00
 -1      2382 3.02850E+01 5.30525E+00 0.00000E+00
 -1      2383 2.95350E+01 6.60425E+00 0.00000E+00
 -1      2384 3.47850E+01 5.30525E+00 0.00000E+00
 -1      2385 3.32850E+01 5.30525E+00 0.00000E+00
 -1      2386 3.25350E+01 6.60425E+00 0.00000E+00
 -1      2387 3.77850E+01 5.30525E+00 0.00000E+00
 -1      2388 3.62850E+01 5.30525E+00 0.00000E+00
 -1      2389 3.55350E+01 6.60425E+00 0.00000E+00
 -1      2390 4.07850E+01 5.30525E+00 0.00000E+00
 -1      2391 3.92850E+01 5.30525E+00 0.00000E+00
 -1      2392 3.85350E+01 6.60425E+00 0.00000E+00
 -1      2393 4.37850E+01 5.30525E+00 0.00000E+00
 -1      2394 4.22850E+01 5.30525E+00 0.00000E+00
 -1      2395 4.15350E+01 6.60425E+00 0.00000E+00
 -1      2396 4.67850E+01 5.30525E+00 0.00000E+00
 -1      2397 4.52850E+01 5.30525E+00 0.00000E+00
 -1      2398 4.45350E+01 6.60425E+00 0.00000E+00
 -1      2399 4.97850E+01 5.30525E+00 0.00000E+00
 -1      2400 4.82850E+01 5.30525E+00 0.00000E+00
 -1      2401 4.75350E+01 6.60425E+00 0.00000E+00
 -1      2402 5.27850E+01 5.30525E+00 0.00000E+00
 -1      2403 5.12850E+01 5.30525E+00 0.00000E+00
 -1      2404 5.05350E+01 6.60425E+00 0.00000E+00
 -1      2405 5.57850E+01 5.30525E+00 0.00000E+00
 -1      2406 5.42850E+01 5.30525E+00 0.00000E+00
 -1      2407 5.35350E+01 6.60425E+00 0.00000E+00
 -1      2408 5.87850E+01 5.30525E+00 0.00000E+00
 -1      2409 5.72850E+01 5.30525E+00 0.00000E+00
 -1      2410 5.65350E+01 6.60425E+00 0.00000E+00
 -1      2411 6.17850E+01 5.30525E+00 0.00000E+00
 -1      2412 6.02850E+01 5.30525E+00 0.00000E+00
 -1      2413 5.95350E+01 6.60425E+00 0.00000E+00
 -1      2414 6.47850E+01 5.30525E+00 0.00000E+00
 -1      2415 6.32850E+01 5.30525E+00 0.00000E+00
 -1      2416 6.25350E+01 6.60425E+00 0.00000E+00
 -1      2417 6.77850E+01 5.30525E+00 0.00000E+00
 -1      2418 6.62850E+01 5.30525E+00 0.00000E+00
 -1      2419 6.55350E+01 6.60425E+00 0.00000E+00
 -1      2420 7.07850E+01 5.30525E+00 0.00000E+00
 -1      2421 6.92850E+01 5.30525E+00 0.00000E+00
 -1      2422 6.85350E+01 6.60425E+00 0.00000E+00
 -1      2423 7.37850E+01 5.30525E+00 0.00000E+00
 -1      2424 7.22850E+01 5.30525E+00 0.00000E+00
 -1      2425 7.15350E+01 6.60425E+00 0.00000E+00
 -1      2426 7.67850E+01 5.30525E+00 0.00000E+00
 -1      2427 7.52850E+01 5.30525E+00 0.00000E+00
 -1      2428 7.45350E+01 6.60425E+00 0.00000E+00
 -1      2429 7.97850E+01 5.30525E+00 0.00000E+00
 -1      2430 7.82850E+01 5.30525E+00 0.00000E+00
 -1      2431 7.75350E+01 6.60425E+00 0.00000E+00
 -1      2432 8.27850E+01 5.30525E+00 0.00000E+00
 -1      2433 8.12850E+01 5.30525E+00 0.00000E+00
 -1      2434 8.05350E+01 6.60425E+00 0.00000E+00
 -1      2435 8.57850E+01 5.30525E+00 0.00000E+00
 -1      2436 8.42850E+01 5.30525E+00 0.00000E+00
 -1      2437 8.35350E+01 6.60425E+00 0.00000E+00
 -1      2438 8.87850E+01 5.30525E+00 0.00000E+00
 -1      2439 8.72850E+01 5.30525E+00 0.00000E+00
 -1      2440 8.65350E+01 6.60425E+00 0.00000E+00
 -1      2441 9.17850E+01 5.30525E+00 0.00000E+00
 -1      2442 9.02850E+01 5.30525E+00 0.00000E+00
 -1      2443 8.95350E+01 6.60425E+00 0.00000E+00
 -1      2444 9.47850E+01 5.30525E+00 0.00000E+00
 -1      2445 9.32850E+01 5.30525E+00 0.00000E+00
 -1      2446 9.25350E+01 6.60425E+00 0.00000E+00
 -1      2447 9.77850E+01 5.30525E+00 0.00000E+00
 -1      2448 9.62850E+01 5.30525E+00 0.00000E+00
 -1      2449 9.55350E+01 6.60425E+00 0.00000E+00
 -1      2450 1.00785E+02 5.30525E+00 0.00000E+00
 -1      2451 9.92850E+01 5.30525E+00 0.00000E+00
 -1      2452 9.85350E+01 6.60425E+00 0.00000E+00
 -1      2453 1.03785E+02 5.30525E+00 0.00000E+00
 -1      2454 1.02285E+02 5.30525E+00 0.00000E+00
 -1      2455 1.01535E+02 6.60425E+00 0.00000E+00
 -1      2456 1.06785E+02 5.30525E+00 0.00000E+00
 -1      2457 1.05285E+02 5.30525E+00 0.00000E+00
 -1      2458 1.04535E+02 6.60425E+00 0.00000E+00
 -1      2459 1.09785E+02 5.30525E+00 0.00000E+00
 -1      2460 1.08285E+02 5.30525E+00 0.00000E+00
 -1      2461 1.07535E+02 6.60425E+00 0.00000E+00
 -1      2462 1.12785E+02 5.30525E+00 0.00000E+00
 -1      2463 1.11285E+02 5.30525E+00 0.00000E+00
 -1      2464 1.10535E+02 6.60425E+00 0.00000E+00
 -1      2465 1.15785E+02 5.30525E+00 0.00000E+00
 -1      2466 1.14285E+02 5.30525E+00 0.00000E+00
 -1      2467 1.13535E+02 6.60425E+00 0.00000E+00
 -1      2468 1.18785E+02 5.30525E+00 0.00000E+00
 -1      2469 1.17285E+02 5.30525E+00 0.00000E+00
 -1      2470 1.16535E+02 6.60425E+00 0.00000E+00
 -1      2471 1.21785E+02 5.30525E+00 0.00000E+00
 -1      2472 1.20285E+02 5.30525E+00 0.00000E+00
 -1      2473 1.19535E+02 6.60425E+00 0.00000E+00
 -1      2474 1.24785E+02 5.30525E+00 0.00000E+00
 -1      2475 1.23285E+02 5.30525E+00 0.00000E+00
 -1      2476 1.22535E+02 6.60425E+00 0.00000E+00
 -1      2477 1.27785E+02 5.30525E+00 0.00000E+00
 -1      2478 1.26285E+02 5.30525E+00 0.00000E+00
 -1      2479 1.25535E+02 6.60425E+00 0.00000E+00
 -1      2480 1.30785E+02 5.30525E+00 0.00000E+00
 -1      2481 1.29285E+02 5.30525E+00 0.00000E+00
 -1      2482 1.28535E+02 6.60425E+00 0.00000E+00
 -1      2483 1.33785E+02 5.30525E+00 0.00000E+00
 -1      2484 1.32285E+02 5.30525E+00 0.00000E+00
 -1      2485 1.31535E+02 6.60425E+00 0.00000E+00
 -1      2486 1.36785E+02 5.30525E+00 0.00000E+00
 -1      2487 1.35285E+02 5.30525E+00 0.00000E+00
 -1      2488 1.34535E+02 6.60425E+00 0.00000E+00
 -1      2489 1.39785E+02 5.30525E+00 0.00000E+00
 -1      2490 1.38285E+02 5.30525E+00 0.00000E+00
 -1      2491 1.37535E+02 6.60425E+00 0.00000E+00
 -1      2492 1.42785E+02 5.30525E+00 0.00000E+00
 -1      2493 1.41285E+02 5.30525E+00 0.00000E+00
 -1      2494 1.40535E+02 6.60425E+00 0.00000E+00
 -1      2495 1.44336E+02 5.26953E+00 0.00000E+00
 -1      2496 1.43505E+02 1.69125E+01 0.00000E+00
 -1      2497 1.43505E+02 1.54375E+01 0.00000E+00
 -1      2498 1.43505E+02 1.98625E+01 0.00000E+00
 -1      2499 1.43505E+02 1.83875E+01 0.00000E+00
 -1      2500 1.42206E+02 1.76500E+01 0.00000E+00
 -1      2501 1.43505E+02 1.10625E+01 0.00000E+00
 -1      2502 1.43505E+02 9.58750E+00 0.00000E+00
 -1      2503 1.43505E+02 1.39750E+01 0.00000E+00
 -1      2504 1.43505E+02 1.25250E+01 0.00000E+00
 -1      2505 1.42206E+02 1.17875E+01 0.00000E+00
 -1      2506 1.42206E+02 1.47125E+01 0.00000E+00
 -1      2507 1.43505E+02 2.28125E+01 0.00000E+00
 -1      2508 1.43505E+02 2.13375E+01 0.00000E+00
 -1      2509 1.42206E+02 2.06000E+01 0.00000E+00
 -1      2510 1.43505E+02 2.57625E+01 0.00000E+00
 -1      2511 1.43505E+02 2.42875E+01 0.00000E+00
 -1      2512 1.42206E+02 2.35500E+01 0.00000E+00
 -1      2513 1.43505E+02 2.87125E+01 0.00000E+00
 -1      2514 1.43505E+02 2.72375E+01 0.00000E+00
 -1      2515 1.42206E+02 2.65000E+01 0.00000E+00
 -1      2516 1.43505E+02 3.16125E+01 0.00000E+00
 -1      2517 1.43505E+02 3.01625E+01 0.00000E+00
 -1      2518 1.42206E+02 2.94250E+01 0.00000E+00
 -1      2519 1.43505E+02 3.45625E+01 0.00000E+00
 -1      2520 1.43505E+02 3.30875E+01 0.00000E+00
 -1      2521 1.42206E+02 3.23500E+01 0.00000E+00
 -1      2522 1.43505E+02 3.75125E+01 0.00000E+00
 -1      2523 1.43505E+02 3.60375E+01 0.00000E+00
 -1      2524 1.42206E+02 3.53000E+01 0.00000E+00
 -1      2525 1.43505E+02 4.04625E+01 0.00000E+00
 -1      2526 1.43505E+02 3.89875E+01 0.00000E+00
 -1      2527 1.42206E+02 3.82500E+01 0.00000E+00
 -1      2528 1.44321E+02 4.30606E+01 0.00000E+00
 -1      2529 1.37971E+02 2.38217E+01 0.00000E+00
 -1      2530 1.37756E+02 2.49779E+01 0.00000E+00
 -1      2531 1.67850E+01 5.30525E+00 0.00000E+00
 -1      2532 1.52850E+01 5.30525E+00 0.00000E+00
 -1      2533 1.75350E+01 6.60425E+00 0.00000E+00
 -1      2534 1.37999E+02 2.16219E+01 0.00000E+00
 -1      2535 1.38113E+02 2.25196E+01 0.00000E+00
 -1      2536 1.37438E+02 2.61677E+01 0.00000E+00
 -1      2537 1.37093E+02 2.71204E+01 0.00000E+00
 -1      2538 6.55950E+00 4.28890E+01 0.00000E+00
 -1      2539 8.53650E+00 4.32410E+01 0.00000E+00
 -1      2540 9.28650E+00 4.19420E+01 0.00000E+00
 -1      2541 6.55950E+00 4.14140E+01 0.00000E+00
 -1      2542 1.31842E+02 3.26192E+01 0.00000E+00
 -1      2543 1.30845E+02 3.30398E+01 0.00000E+00
 -1      2544 6.49500E+00 2.71625E+01 0.00000E+00
 -1      2545 6.49500E+00 2.86375E+01 0.00000E+00
 -1      2546 7.79400E+00 2.93750E+01 0.00000E+00
 -1      2547 7.79400E+00 2.64250E+01 0.00000E+00
 -1      2548 1.28380E+02 1.26107E+01 0.00000E+00
 -1      2549 1.29480E+02 1.26271E+01 0.00000E+00
 -1      2550 1.22072E+02 1.44623E+01 0.00000E+00
 -1      2551 1.22887E+02 1.39925E+01 0.00000E+00
 -1      2552 1.26556E+02 1.26899E+01 0.00000E+00
 -1      2553 1.27468E+02 1.26503E+01 0.00000E+00
 -1      2554 1.28032E+02 1.17173E+01 0.00000E+00
 -1      2555 1.17444E+02 2.60373E+01 0.00000E+00
 -1      2556 1.17039E+02 2.50631E+01 0.00000E+00
 -1      2557 1.20411E+02 1.55266E+01 0.00000E+00
 -1      2558 1.21219E+02 1.49907E+01 0.00000E+00
 -1      2559 1.18791E+02 1.71418E+01 0.00000E+00
 -1      2560 1.19469E+02 1.63260E+01 0.00000E+00
 -1      2561 1.17285E+02 2.15497E+01 0.00000E+00
 -1      2562 1.17419E+02 2.06779E+01 0.00000E+00
 -1      2563 1.16931E+02 2.36933E+01 0.00000E+00
 -1      2564 1.17108E+02 2.26215E+01 0.00000E+00
 -1      2565 1.16410E+02 2.20681E+01 0.00000E+00
 -1      2566 1.18155E+02 2.81490E+01 0.00000E+00
 -1      2567 1.17800E+02 2.70932E+01 0.00000E+00
 -1      2568 1.16805E+02 2.69354E+01 0.00000E+00
 -1      2569 1.19358E+02 3.00410E+01 0.00000E+00
 -1      2570 1.18758E+02 2.92230E+01 0.00000E+00
 -1      2571 1.21114E+02 3.15510E+01 0.00000E+00
 -1      2572 1.20270E+02 3.09427E+01 0.00000E+00
 -1      2573 1.23033E+02 3.26894E+01 0.00000E+00
 -1      2574 1.22093E+02 3.21697E+01 0.00000E+00
 -1      2575 1.25221E+02 3.33549E+01 0.00000E+00
 -1      2576 1.24233E+02 3.31432E+01 0.00000E+00
 -1      2577 1.27366E+02 3.34978E+01 0.00000E+00
 -1      2578 1.26363E+02 3.34574E+01 0.00000E+00
 -1      2579 1.29579E+02 3.34033E+01 0.00000E+00
 -1      2580 1.28514E+02 3.35055E+01 0.00000E+00
 -1      2581 1.33669E+02 3.16962E+01 0.00000E+00
 -1      2582 1.32859E+02 3.21651E+01 0.00000E+00
 -1      2583 1.36732E+02 2.78932E+01 0.00000E+00
 -1      2584 1.36371E+02 2.86661E+01 0.00000E+00
 -1      2585 1.37711E+02 2.77092E+01 0.00000E+00
 -1      2586 1.34352E+02 1.55401E+01 0.00000E+00
 -1      2587 1.35078E+02 1.61093E+01 0.00000E+00
 -1      2588 1.37412E+02 1.94232E+01 0.00000E+00
 -1      2589 1.37706E+02 2.05226E+01 0.00000E+00
 -1      2590 1.38696E+02 2.08532E+01 0.00000E+00
 -1      2591 8.07525E+00 5.11044E+00 0.00000E+00
 -1      2592 6.57525E+00 5.11044E+00 0.00000E+00
 -1      2593 6.40575E+00 6.01981E+00 0.00000E+00
 -1      2594 8.82525E+00 6.40944E+00 0.00000E+00
 -1      2595 1.32743E+02 1.44308E+01 0.00000E+00
 -1      2596 1.33548E+02 1.49854E+01 0.00000E+00
 -1      2597 1.34414E+02 1.46282E+01 0.00000E+00
 -1      2598 1.29877E+02 1.12618E+01 0.00000E+00
 -1      2599 1.30413E+02 1.22112E+01 0.00000E+00
 -1      2600 1.31346E+02 1.17953E+01 0.00000E+00
 -1      2601 7.79400E+00 3.52687E+01 0.00000E+00
 -1      2602 6.49500E+00 3.60062E+01 0.00000E+00
 -1      2603 6.49500E+00 3.74750E+01 0.00000E+00
 -1      2604 1.45350E+01 6.60425E+00 0.00000E+00
 -1      2605 6.40575E+00 7.49481E+00 0.00000E+00
 -1      2606 1.32745E+02 1.34092E+01 0.00000E+00
 -1      2607 1.37527E+02 1.85991E+01 0.00000E+00
 -1      2608 1.38518E+02 1.89297E+01 0.00000E+00
 -1      2609 1.37642E+02 1.77749E+01 0.00000E+00
 -1      2610 1.32677E+02 3.31269E+01 0.00000E+00
 -1      2611 1.34526E+02 3.16204E+01 0.00000E+00
 -1      2612 1.34551E+02 3.25970E+01 0.00000E+00
 -1      2613 1.35384E+02 3.15446E+01 0.00000E+00
 -1      2614 1.38389E+02 2.57465E+01 0.00000E+00
 -1      2615 1.35935E+02 1.63136E+01 0.00000E+00
 -1      2616 1.36792E+02 1.65179E+01 0.00000E+00
 -1      2617 1.36075E+02 1.53872E+01 0.00000E+00
 -1      2618 1.43586E+02 6.56853E+00 0.00000E+00
 -1      2619 1.43419E+02 7.72713E+00 0.00000E+00
 -1      2620 1.30395E+02 3.39446E+01 0.00000E+00
 -1      2621 1.42758E+02 4.35929E+01 0.00000E+00
 -1      2622 1.43241E+02 4.17323E+01 0.00000E+00
 -1      2623 1.41942E+02 4.09948E+01 0.00000E+00
 -1      2624 1.41414E+02 4.35342E+01 0.00000E+00
 -1      2625 1.27980E+02 3.43003E+01 0.00000E+00
 -1      2626 1.38848E+02 2.32547E+01 0.00000E+00
 -1      2627 7.70475E+00 8.23231E+00 0.00000E+00
 -1      2628 1.25689E+02 3.41901E+01 0.00000E+00
 -1      2629 1.23348E+02 3.36338E+01 0.00000E+00
 -1      2630 1.36355E+02 2.95250E+01 0.00000E+00
 -1      2631 1.36338E+02 3.03839E+01 0.00000E+00
 -1      2632 1.37334E+02 2.93410E+01 0.00000E+00
 -1      2633 1.21170E+02 3.25614E+01 0.00000E+00
 -1      2634 1.16341E+02 2.45097E+01 0.00000E+00
 -1      2635 1.15644E+02 2.39563E+01 0.00000E+00
 -1      2636 1.15752E+02 2.53261E+01 0.00000E+00
 -1      2637 1.18049E+02 1.74891E+01 0.00000E+00
 -1      2638 1.17761E+02 1.65601E+01 0.00000E+00
 -1      2639 1.17308E+02 1.78365E+01 0.00000E+00
 -1      2640 1.19445E+02 1.54133E+01 0.00000E+00
 -1      2641 1.25836E+02 1.23588E+01 0.00000E+00
 -1      2642 1.26400E+02 1.14258E+01 0.00000E+00
 -1      2643 1.25116E+02 1.20277E+01 0.00000E+00
 -1      2644 6.55950E+00 3.99453E+01 0.00000E+00
 -1      2645 1.17092E+02 1.98809E+01 0.00000E+00
 -1      2646 1.23323E+02 1.32588E+01 0.00000E+00
 -1      2647 1.23759E+02 1.25252E+01 0.00000E+00
 -1      2648 1.22529E+02 1.28233E+01 0.00000E+00
 -1      2649 1.21240E+02 1.40854E+01 0.00000E+00
 -1      2650 1.17763E+02 2.90653E+01 0.00000E+00
 -1      2651 1.19279E+02 3.10409E+01 0.00000E+00
 -1      2652 1.42120E+02 8.46463E+00 0.00000E+00
 -1      2653 1.40664E+02 4.22352E+01 0.00000E+00
 -1      2654 9.09300E+00 1.98250E+01 0.00000E+00
 -1      2655 9.09300E+00 2.12750E+01 0.00000E+00
 -1      2656 9.09300E+00 2.27500E+01 0.00000E+00
 -1      2657 9.09300E+00 2.42250E+01 0.00000E+00
 -1      2658 1.03920E+01 2.20250E+01 0.00000E+00
 -1      2659 9.09300E+00 1.39375E+01 0.00000E+00
 -1      2660 9.09300E+00 1.54125E+01 0.00000E+00
 -1      2661 9.09300E+00 1.09875E+01 0.00000E+00
 -1      2662 9.09300E+00 1.24625E+01 0.00000E+00
 -1      2663 1.03920E+01 1.32000E+01 0.00000E+00
 -1      2664 1.22850E+01 7.90325E+00 0.00000E+00
 -1      2665 1.07850E+01 7.90325E+00 0.00000E+00
 -1      2666 1.26184E+02 3.50955E+01 0.00000E+00
 -1      2667 1.25042E+02 3.49929E+01 0.00000E+00
 -1      2668 1.52850E+01 7.90325E+00 0.00000E+00
 -1      2669 1.37850E+01 7.90325E+00 0.00000E+00
 -1      2670 1.30350E+01 9.20225E+00 0.00000E+00
 -1      2671 1.38669E+02 2.76856E+01 0.00000E+00
 -1      2672 1.38308E+02 2.84585E+01 0.00000E+00
 -1      2673 1.44000E+01 4.09070E+01 0.00000E+00
 -1      2674 1.59000E+01 4.09070E+01 0.00000E+00
 -1      2675 1.74000E+01 4.09070E+01 0.00000E+00
 -1      2676 1.89000E+01 4.09070E+01 0.00000E+00
 -1      2677 1.66500E+01 3.96080E+01 0.00000E+00
 -1      2678 2.04000E+01 4.09070E+01 0.00000E+00
 -1      2679 2.19000E+01 4.09070E+01 0.00000E+00
 -1      2680 1.96500E+01 3.96080E+01 0.00000E+00
 -1      2681 2.34000E+01 4.09070E+01 0.00000E+00
 -1      2682 2.49000E+01 4.09070E+01 0.00000E+00
 -1      2683 2.26500E+01 3.96080E+01 0.00000E+00
 -1      2684 2.64000E+01 4.09070E+01 0.00000E+00
 -1      2685 2.79000E+01 4.09070E+01 0.00000E+00
 -1      2686 2.56500E+01 3.96080E+01 0.00000E+00
 -1      2687 2.94000E+01 4.09070E+01 0.00000E+00
 -1      2688 3.09000E+01 4.09070E+01 0.00000E+00
 -1      2689 2.86500E+01 3.96080E+01 0.00000E+00
 -1      2690 3.24000E+01 4.09070E+01 0.00000E+00
 -1      2691 3.39000E+01 4.09070E+01 0.00000E+00
 -1      2692 3.16500E+01 3.96080E+01 0.00000E+00
 -1      2693 3.54000E+01 4.09070E+01 0.00000E+00
 -1      2694 3.69000E+01 4.09070E+01 0.00000E+00
 -1      2695 3.46500E+01 3.96080E+01 0.00000E+00
 -1      2696 3.84000E+01 4.09070E+01 0.00000E+00
 -1      2697 3.99000E+01 4.09070E+01 0.00000E+00
 -1      2698 3.76500E+01 3.96080E+01 0.00000E+00
 -1      2699 4.14000E+01 4.09070E+01 0.00000E+00
 -1      2700 4.29000E+01 4.09070E+01 0.00000E+00
 -1      2701 4.06500E+01 3.96080E+01 0.00000E+00
 -1      2702 4.44000E+01 4.09070E+01 0.00000E+00
 -1      2703 4.59000E+01 4.09070E+01 0.00000E+00
 -1      2704 4.36500E+01 3.96080E+01 0.00000E+00
 -1      2705 4.74000E+01 4.09070E+01 0.00000E+00
 -1      2706 4.89000E+01 4.09070E+01 0.00000E+00
 -1      2707 4.66500E+01 3.96080E+01 0.00000E+00
 -1      2708 5.04000E+01 4.09070E+01 0.00000E+00
 -1      2709 5.19000E+01 4.09070E+01 0.00000E+00
 -1      2710 4.96500E+01 3.96080E+01 0.00000E+00
 -1      2711 5.34000E+01 4.09070E+01 0.00000E+00
 -1      2712 5.49000E+01 4.09070E+01 0.00000E+00
 -1      2713 5.26500E+01 3.96080E+01 0.00000E+00
 -1      2714 5.64000E+01 4.09070E+01 0.00000E+00
 -1      2715 5.79000E+01 4.09070E+01 0.00000E+00
 -1      2716 5.56500E+01 3.96080E+01 0.00000E+00
 -1      2717 5.94000E+01 4.09070E+01 0.00000E+00
 -1      2718 6.09000E+01 4.09070E+01 0.00000E+00
 -1      2719 5.86500E+01 3.96080E+01 0.00000E+00
 -1      2720 6.24000E+01 4.09070E+01 0.00000E+00
 -1      2721 6.39000E+01 4.09070E+01 0.00000E+00
 -1      2722 6.16500E+01 3.96080E+01 0.00000E+00
 -1      2723 6.54000E+01 4.09070E+01 0.00000E+00
 -1      2724 6.69000E+01 4.09070E+01 0.00000E+00
 -1      2725 6.46500E+01 3.96080E+01 0.00000E+00
 -1      2726 6.84000E+01 4.09070E+01 0.00000E+00
 -1      2727 6.99000E+01 4.09070E+01 0.00000E+00
 -1      2728 6.76500E+01 3.96080E+01 0.00000E+00
 -1      2729 7.14000E+01 4.09070E+01 0.00000E+00
 -1      2730 7.29000E+01 4.09070E+01 0.00000E+00
 -1      2731 7.06500E+01 3.96080E+01 0.00000E+00
 -1      2732 7.44000E+01 4.09070E+01 0.00000E+00
 -1      2733 7.59000E+01 4.09070E+01 0.00000E+00
 -1      2734 7.36500E+01 3.96080E+01 0.00000E+00
 -1      2735 7.74000E+01 4.09070E+01 0.00000E+00
 -1      2736 7.89000E+01 4.09070E+01 0.00000E+00
 -1      2737 7.66500E+01 3.96080E+01 0.00000E+00
 -1      2738 8.04000E+01 4.09070E+01 0.00000E+00
 -1      2739 8.19000E+01 4.09070E+01 0.00000E+00
 -1      2740 7.96500E+01 3.96080E+01 0.00000E+00
 -1      2741 8.34000E+01 4.09070E+01 0.00000E+00
 -1      2742 8.49000E+01 4.09070E+01 0.00000E+00
 -1      2743 8.26500E+01 3.96080E+01 0.00000E+00
 -1      2744 8.64000E+01 4.09070E+01 0.00000E+00
 -1      2745 8.79000E+01 4.09070E+01 0.00000E+00
 -1      2746 8.56500E+01 3.96080E+01 0.00000E+00
 -1      2747 8.94000E+01 4.09070E+01 0.00000E+00
 -1      2748 9.09000E+01 4.09070E+01 0.00000E+00
 -1      2749 8.86500E+01 3.96080E+01 0.00000E+00
 -1      2750 9.24000E+01 4.09070E+01 0.00000E+00
 -1      2751 9.39000E+01 4.09070E+01 0.00000E+00
 -1      2752 9.16500E+01 3.96080E+01 0.00000E+00
 -1      2753 9.54000E+01 4.09070E+01 0.00000E+00
 -1      2754 9.69000E+01 4.09070E+01 0.00000E+00
 -1      2755 9.46500E+01 3.96080E+01 0.00000E+00
 -1      2756 9.84000E+01 4.09070E+01 0.00000E+00
 -1      2757 9.99000E+01 4.09070E+01 0.00000E+00
 -1      2758 9.76500E+01 3.96080E+01 0.00000E+00
 -1      2759 1.01400E+02 4.09070E+01 0.00000E+00
 -1      2760 1.02900E+02 4.09070E+01 0.00000E+00
 -1      2761 1.00650E+02 3.96080E+01 0.00000E+00
 -1      2762 1.04400E+02 4.09070E+01 0.00000E+00
 -1      2763 1.05900E+02 4.09070E+01 0.00000E+00
 -1      2764 1.03650E+02 3.96080E+01 0.00000E+00
 -1      2765 1.07400E+02 4.09070E+01 0.00000E+00
 -1      2766 1.08900E+02 4.09070E+01 0.00000E+00
 -1      2767 1.06650E+02 3.96080E+01 0.00000E+00
 -1      2768 1.10400E+02 4.09070E+01 0.00000E+00
 -1      2769 1.11900E+02 4.09070E+01 0.00000E+00
 -1      2770 1.09650E+02 3.96080E+01 0.00000E+00
 -1      2771 1.13400E+02 4.09070E+01 0.00000E+00
 -1      2772 1.14900E+02 4.09070E+01 0.00000E+00
 -1      2773 1.12650E+02 3.96080E+01 0.00000E+00
 -1      2774 1.16400E+02 4.09070E+01 0.00000E+00
 -1      2775 1.17900E+02 4.09070E+01 0.00000E+00
 -1      2776 1.15650E+02 3.96080E+01 0.00000E+00
 -1      2777 1.19400E+02 4.09070E+01 0.00000E+00
 -1      2778 1.20900E+02 4.09070E+01 0.00000E+00
 -1      2779 1.18650E+02 3.96080E+01 0.00000E+00
 -1      2780 1.22400E+02 4.09070E+01 0.00000E+00
 -1      2781 1.23900E+02 4.09070E+01 0.00000E+00
 -1      2782 1.21650E+02 3.96080E+01 0.00000E+00
 -1      2783 1.25400E+02 4.09070E+01 0.00000E+00
 -1      2784 1.26900E+02 4.09070E+01 0.00000E+00
 -1      2785 1.24650E+02 3.96080E+01 0.00000E+00
 -1      2786 1.28400E+02 4.09070E+01 0.00000E+00
 -1      2787 1.29900E+02 4.09070E+01 0.00000E+00
 -1      2788 1.27650E+02 3.96080E+01 0.00000E+00
 -1      2789 1.31400E+02 4.09070E+01 0.00000E+00
 -1      2790 1.32900E+02 4.09070E+01 0.00000E+00
 -1      2791 1.30650E+02 3.96080E+01 0.00000E+00
 -1      2792 1.34400E+02 4.09070E+01 0.00000E+00
 -1      2793 1.35900E+02 4.09070E+01 0.00000E+00
 -1      2794 1.33650E+02 3.96080E+01 0.00000E+00
 -1      2795 1.37400E+02 4.09070E+01 0.00000E+00
 -1      2796 1.38900E+02 4.09070E+01 0.00000E+00
 -1      2797 1.36650E+02 3.96080E+01 0.00000E+00
 -1      2798 2.42850E+01 7.90325E+00 0.00000E+00
 -1      2799 2.27850E+01 7.90325E+00 0.00000E+00
 -1      2800 1.28548E+02 3.52455E+01 0.00000E+00
 -1      2801 1.27400E+02 3.52378E+01 0.00000E+00
 -1      2802 2.12850E+01 7.90325E+00 0.00000E+00
 -1      2803 1.97850E+01 7.90325E+00 0.00000E+00
 -1      2804 2.20350E+01 9.20225E+00 0.00000E+00
 -1      2805 3.02850E+01 7.90325E+00 0.00000E+00
 -1      2806 2.87850E+01 7.90325E+00 0.00000E+00
 -1      2807 3.32850E+01 7.90325E+00 0.00000E+00
 -1      2808 3.17850E+01 7.90325E+00 0.00000E+00
 -1      2809 3.10350E+01 9.20225E+00 0.00000E+00
 -1      2810 3.62850E+01 7.90325E+00 0.00000E+00
 -1      2811 3.47850E+01 7.90325E+00 0.00000E+00
 -1      2812 3.40350E+01 9.20225E+00 0.00000E+00
 -1      2813 3.92850E+01 7.90325E+00 0.00000E+00
 -1      2814 3.77850E+01 7.90325E+00 0.00000E+00
 -1      2815 3.70350E+01 9.20225E+00 0.00000E+00
 -1      2816 4.22850E+01 7.90325E+00 0.00000E+00
 -1      2817 4.07850E+01 7.90325E+00 0.00000E+00
 -1      2818 4.00350E+01 9.20225E+00 0.00000E+00
 -1      2819 4.52850E+01 7.90325E+00 0.00000E+00
 -1      2820 4.37850E+01 7.90325E+00 0.00000E+00
 -1      2821 4.30350E+01 9.20225E+00 0.00000E+00
 -1      2822 4.82850E+01 7.90325E+00 0.00000E+00
 -1      2823 4.67850E+01 7.90325E+00 0.00000E+00
 -1      2824 4.60350E+01 9.20225E+00 0.00000E+00
 -1      2825 5.12850E+01 7.90325E+00 0.00000E+00
 -1      2826 4.97850E+01 7.90325E+00 0.00000E+00
 -1      2827 4.90350E+01 9.20225E+00 0.00000E+00
 -1      2828 5.42850E+01 7.90325E+00 0.00000E+00
 -1      2829 5.27850E+01 7.90325E+00 0.00000E+00
 -1      2830 5.20350E+01 9.20225E+00 0.00000E+00
 -1      2831 5.72850E+01 7.90325E+00 0.00000E+00
 -1      2832 5.57850E+01 7.90325E+00 0.00000E+00
 -1      2833 5.50350E+01 9.20225E+00 0.00000E+00
 -1      2834 6.02850E+01 7.90325E+00 0.00000E+00
 -1      2835 5.87850E+01 7.90325E+00 0.00000E+00
 -1      2836 5.80350E+01 9.20225E+00 0.00000E+00
 -1      2837 6.32850E+01 7.90325E+00 0.00000E+00
 -1      2838 6.17850E+01 7.90325E+00 0.00000E+00
 -1      2839 6.10350E+01 9.20225E+00 0.00000E+00
 -1      2840 6.62850E+01 7.90325E+00 0.00000E+00
 -1      2841 6.47850E+01 7.90325E+00 0.00000E+00
 -1      2842 6.40350E+01 9.20225E+00 0.00000E+00
 -1      2843 6.92850E+01 7.90325E+00 0.00000E+00
 -1      2844 6.77850E+01 7.90325E+00 0.00000E+00
 -1      2845 6.70350E+01 9.20225E+00 0.00000E+00
 -1      2846 7.22850E+01 7.90325E+00 0.00000E+00
 -1      2847 7.07850E+01 7.90325E+00 0.00000E+00
 -1      2848 7.00350E+01 9.20225E+00 0.00000E+00
 -1      2849 7.52850E+01 7.90325E+00 0.00000E+00
 -1      2850 7.37850E+01 7.90325E+00 0.00000E+00
 -1      2851 7.30350E+01 9.20225E+00 0.00000E+00
 -1      2852 7.82850E+01 7.90325E+00 0.00000E+00
 -1      2853 7.67850E+01 7.90325E+00 0.00000E+00
 -1      2854 7.60350E+01 9.20225E+00 0.00000E+00
 -1      2855 8.12850E+01 7.90325E+00 0.00000E+00
 -1      2856 7.97850E+01 7.90325E+00 0.00000E+00
 -1      2857 7.90350E+01 9.20225E+00 0.00000E+00
 -1      2858 8.42850E+01 7.90325E+00 0.00000E+00
 -1      2859 8.27850E+01 7.90325E+00 0.00000E+00
 -1      2860 8.20350E+01 9.20225E+00 0.00000E+00
 -1      2861 8.72850E+01 7.90325E+00 0.00000E+00
 -1      2862 8.57850E+01 7.90325E+00 0.00000E+00
 -1      2863 8.50350E+01 9.20225E+00 0.00000E+00
 -1      2864 9.02850E+01 7.90325E+00 0.00000E+00
 -1      2865 8.87850E+01 7.90325E+00 0.00000E+00
 -1      2866 8.80350E+01 9.20225E+00 0.00000E+00
 -1      2867 9.32850E+01 7.90325E+00 0.00000E+00
 -1      2868 9.17850E+01 7.90325E+00 0.00000E+00
 -1      2869 9.10350E+01 9.20225E+00 0.00000E+00
 -1      2870 9.62850E+01 7.90325E+00 0.00000E+00
 -1      2871 9.47850E+01 7.90325E+00 0.00000E+00
 -1      2872 9.40350E+01 9.20225E+00 0.00000E+00
 -1      2873 9.92850E+01 7.90325E+00 0.00000E+00
 -1      2874 9.77850E+01 7.90325E+00 0.00000E+00
 -1      2875 9.70350E+01 9.20225E+00 0.00000E+00
 -1      2876 1.02285E+02 7.90325E+00 0.00000E+00
 -1      2877 1.00785E+02 7.90325E+00 0.00000E+00
 -1      2878 1.00035E+02 9.20225E+00 0.00000E+00
 -1      2879 1.05285E+02 7.90325E+00 0.00000E+00
 -1      2880 1.03785E+02 7.90325E+00 0.00000E+00
 -1      2881 1.03035E+02 9.20225E+00 0.00000E+00
 -1      2882 1.08285E+02 7.90325E+00 0.00000E+00
 -1      2883 1.06785E+02 7.90325E+00 0.00000E+00
 -1      2884 1.06035E+02 9.20225E+00 0.00000E+00
 -1      2885 1.11285E+02 7.90325E+00 0.00000E+00
 -1      2886 1.09785E+02 7.90325E+00 0.00000E+00
 -1      2887 1.09035E+02 9.20225E+00 0.00000E+00
 -1      2888 1.14285E+02 7.90325E+00 0.00000E+00
 -1      2889 1.12785E+02 7.90325E+00 0.00000E+00
 -1      2890 1.12035E+02 9.20225E+00 0.00000E+00
 -1      2891 1.17285E+02 7.90325E+00 0.00000E+00
 -1      2892 1.15785E+02 7.90325E+00 0.00000E+00
 -1      2893 1.15035E+02 9.20225E+00 0.00000E+00
 -1      2894 1.20285E+02 7.90325E+00 0.00000E+00
 -1      2895 1.18785E+02 7.90325E+00 0.00000E+00
 -1      2896 1.18035E+02 9.20225E+00 0.00000E+00
 -1      2897 1.23285E+02 7.90325E+00 0.00000E+00
 -1      2898 1.21785E+02 7.90325E+00 0.00000E+00
 -1      2899 1.21035E+02 9.20225E+00 0.00000E+00
 -1      2900 1.26358E+02 8.84946E+00 0.00000E+00
 -1      2901 1.24858E+02 8.84946E+00 0.00000E+00
 -1      2902 1.29490E+02 9.14096E+00 0.00000E+00
 -1      2903 1.27990E+02 9.14096E+00 0.00000E+00
 -1      2904 1.35285E+02 7.90325E+00 0.00000E+00
 -1      2905 1.33785E+02 7.90325E+00 0.00000E+00
 -1      2906 1.38285E+02 7.90325E+00 0.00000E+00
 -1      2907 1.36785E+02 7.90325E+00 0.00000E+00
 -1      2908 1.36035E+02 9.20225E+00 0.00000E+00
 -1      2909 1.40953E+02 8.18394E+00 0.00000E+00
 -1      2910 1.39453E+02 8.18394E+00 0.00000E+00
 -1      2911 1.38703E+02 9.48294E+00 0.00000E+00
 -1      2912 1.41038E+02 1.00443E+01 0.00000E+00
 -1      2913 1.40456E+02 2.47909E+01 0.00000E+00
 -1      2914 1.40456E+02 2.33159E+01 0.00000E+00
 -1      2915 1.39914E+02 4.09362E+01 0.00000E+00
 -1      2916 1.40928E+02 4.09655E+01 0.00000E+00
 -1      2917 1.39164E+02 3.96372E+01 0.00000E+00
 -1      2918 1.41181E+02 1.83875E+01 0.00000E+00
 -1      2919 1.41181E+02 1.69125E+01 0.00000E+00
 -1      2920 1.40736E+02 2.82049E+01 0.00000E+00
 -1      2921 1.40736E+02 2.67299E+01 0.00000E+00
 -1      2922 1.40736E+02 2.96549E+01 0.00000E+00
 -1      2923 1.41013E+02 3.30875E+01 0.00000E+00
 -1      2924 1.41013E+02 3.16125E+01 0.00000E+00
 -1      2925 1.41013E+02 3.60375E+01 0.00000E+00
 -1      2926 1.41013E+02 3.45625E+01 0.00000E+00
 -1      2927 1.39821E+02 3.38250E+01 0.00000E+00
 -1      2928 1.82850E+01 7.90325E+00 0.00000E+00
 -1      2929 1.67850E+01 7.90325E+00 0.00000E+00
 -1      2930 1.60350E+01 9.20225E+00 0.00000E+00
 -1      2931 1.90350E+01 9.20225E+00 0.00000E+00
 -1      2932 1.33603E+02 3.38358E+01 0.00000E+00
 -1      2933 1.32587E+02 3.42899E+01 0.00000E+00
 -1      2934 1.32938E+02 1.22644E+01 0.00000E+00
 -1      2935 1.33802E+02 1.29288E+01 0.00000E+00
 -1      2936 1.31287E+02 3.46676E+01 0.00000E+00
 -1      2937 1.30021E+02 3.50311E+01 0.00000E+00
 -1      2938 8.85168E+00 4.05347E+01 0.00000E+00
 -1      2939 1.02152E+01 4.07987E+01 0.00000E+00
 -1      2940 1.15932E+02 2.78168E+01 0.00000E+00
 -1      2941 1.15577E+02 2.67609E+01 0.00000E+00
 -1      2942 2.72850E+01 7.90325E+00 0.00000E+00
 -1      2943 2.57850E+01 7.90325E+00 0.00000E+00
 -1      2944 2.50350E+01 9.20225E+00 0.00000E+00
 -1      2945 2.80350E+01 9.20225E+00 0.00000E+00
 -1      2946 1.18311E+02 1.50313E+01 0.00000E+00
 -1      2947 1.19253E+02 1.42318E+01 0.00000E+00
 -1      2948 1.15576E+01 4.08528E+01 0.00000E+00
 -1      2949 1.30576E+01 4.08528E+01 0.00000E+00
 -1      2950 1.38076E+01 3.95538E+01 0.00000E+00
 -1      2951 1.11228E+01 3.94455E+01 0.00000E+00
 -1      2952 9.09300E+00 1.68813E+01 0.00000E+00
 -1      2953 9.09300E+00 1.83563E+01 0.00000E+00
 -1      2954 1.03920E+01 1.90812E+01 0.00000E+00
 -1      2955 1.03920E+01 1.61437E+01 0.00000E+00
 -1      2956 1.41192E+02 3.96958E+01 0.00000E+00
 -1      2957 1.15982E+02 2.00504E+01 0.00000E+00
 -1      2958 1.16487E+02 1.89350E+01 0.00000E+00
 -1      2959 9.09300E+00 3.15875E+01 0.00000E+00
 -1      2960 9.09300E+00 3.30625E+01 0.00000E+00
 -1      2961 1.20274E+02 1.34782E+01 0.00000E+00
 -1      2962 1.21127E+02 1.29497E+01 0.00000E+00
 -1      2963 1.17244E+02 3.00631E+01 0.00000E+00
 -1      2964 1.16641E+02 2.89891E+01 0.00000E+00
 -1      2965 7.48818E+00 3.88019E+01 0.00000E+00
 -1      2966 1.15558E+02 2.24779E+01 0.00000E+00
 -1      2967 1.15735E+02 2.14062E+01 0.00000E+00
 -1      2968 8.91450E+00 8.42712E+00 0.00000E+00
 -1      2969 1.34607E+02 1.34835E+01 0.00000E+00
 -1      2970 1.35412E+02 1.40382E+01 0.00000E+00
 -1      2971 1.34800E+02 1.23387E+01 0.00000E+00
 -1      2972 1.19073E+02 3.21614E+01 0.00000E+00
 -1      2973 1.18161E+02 3.12596E+01 0.00000E+00
 -1      2974 1.40598E+02 2.20138E+01 0.00000E+00
 -1      2975 1.23644E+02 3.46628E+01 0.00000E+00
 -1      2976 1.22444E+02 3.42090E+01 0.00000E+00
 -1      2977 1.21156E+02 3.36663E+01 0.00000E+00
 -1      2978 1.20177E+02 3.30477E+01 0.00000E+00
 -1      2979 1.40598E+02 2.05388E+01 0.00000E+00
 -1      2980 9.09300E+00 3.45313E+01 0.00000E+00
 -1      2981 9.09300E+00 3.60000E+01 0.00000E+00
 -1      2982 1.03920E+01 3.37938E+01 0.00000E+00
 -1      2983 1.03920E+01 2.49750E+01 0.00000E+00
 -1      2984 9.09300E+00 2.57000E+01 0.00000E+00
 -1      2985 9.09300E+00 2.71750E+01 0.00000E+00
 -1      2986 1.38291E+02 2.93174E+01 0.00000E+00
 -1      2987 1.24138E+02 3.55681E+01 0.00000E+00
 -1      2988 1.37782E+02 1.68486E+01 0.00000E+00
 -1      2989 1.38773E+02 1.71793E+01 0.00000E+00
 -1      2990 1.37923E+02 1.59222E+01 0.00000E+00
 -1      2991 1.36363E+02 3.13605E+01 0.00000E+00
 -1      2992 1.36387E+02 3.23372E+01 0.00000E+00
 -1      2993 1.37342E+02 3.11765E+01 0.00000E+00
 -1      2994 1.41192E+02 3.82207E+01 0.00000E+00
 -1      2995 1.19140E+02 1.30962E+01 0.00000E+00
 -1      2996 1.21452E+02 3.46953E+01 0.00000E+00
 -1      2997 1.36269E+02 1.42425E+01 0.00000E+00
 -1      2998 1.37125E+02 1.44468E+01 0.00000E+00
 -1      2999 1.36462E+02 1.30977E+01 0.00000E+00
 -1      3000 1.17569E+02 1.53786E+01 0.00000E+00
 -1      3001 1.17377E+02 1.41972E+01 0.00000E+00
 -1      3002 1.16827E+02 1.57260E+01 0.00000E+00
 -1      3003 1.26752E+02 3.60406E+01 0.00000E+00
 -1      3004 1.32214E+02 3.53765E+01 0.00000E+00
 -1      3005 1.24108E+02 1.01485E+01 0.00000E+00
 -1      3006 1.32673E+02 1.00240E+01 0.00000E+00
 -1      3007 1.31923E+02 8.72505E+00 0.00000E+00
 -1      3008 1.30423E+02 8.72505E+00 0.00000E+00
 -1      3009 1.41038E+02 1.15068E+01 0.00000E+00
 -1      3010 1.39870E+02 1.12261E+01 0.00000E+00
 -1      3011 1.41038E+02 1.29693E+01 0.00000E+00
 -1      3012 1.15412E+02 2.88146E+01 0.00000E+00
 -1      3013 1.16198E+02 1.80060E+01 0.00000E+00
 -1      3014 1.39543E+02 3.03924E+01 0.00000E+00
 -1      3015 1.15130E+02 2.04603E+01 0.00000E+00
 -1      3016 1.39999E+02 3.74832E+01 0.00000E+00
 -1      3017 1.32403E+02 1.13149E+01 0.00000E+00
 -1      3018 1.17038E+02 3.11835E+01 0.00000E+00
 -1      3019 1.38986E+02 2.64958E+01 0.00000E+00
 -1      3020 1.29441E+02 3.59686E+01 0.00000E+00
 -1      3021 1.14879E+02 2.62075E+01 0.00000E+00
 -1      3022 9.09300E+00 2.86437E+01 0.00000E+00
 -1      3023 9.09300E+00 3.01187E+01 0.00000E+00
 -1      3024 1.03920E+01 3.08563E+01 0.00000E+00
 -1      3025 1.03920E+01 2.79188E+01 0.00000E+00
 -1      3026 1.24322E+02 1.15921E+01 0.00000E+00
 -1      3027 1.41110E+02 1.56722E+01 0.00000E+00
 -1      3028 1.41110E+02 1.42097E+01 0.00000E+00
 -1      3029 1.39942E+02 1.39290E+01 0.00000E+00
 -1      3030 1.40084E+02 1.64097E+01 0.00000E+00
 -1      3031 1.21563E+02 1.22161E+01 0.00000E+00
 -1      3032 8.78718E+00 3.80644E+01 0.00000E+00
 -1      3033 1.34461E+02 3.37600E+01 0.00000E+00
 -1      3034 1.34371E+02 3.49230E+01 0.00000E+00
 -1      3035 1.35318E+02 3.36842E+01 0.00000E+00
 -1      3036 1.14969E+02 2.32944E+01 0.00000E+00
 -1      3037 1.14294E+02 2.26324E+01 0.00000E+00
 -1      3038 1.14379E+02 2.41108E+01 0.00000E+00
 -1      3039 9.66450E+00 9.72612E+00 0.00000E+00
 -1      3040 1.19059E+02 3.32663E+01 0.00000E+00
 -1      3041 1.09635E+01 1.04636E+01 0.00000E+00
 -1      3042 1.39573E+02 1.98013E+01 0.00000E+00
 -1      3043 1.18917E+02 3.45743E+01 0.00000E+00
 -1      3044 1.17813E+02 3.36880E+01 0.00000E+00
 -1      3045 1.16910E+01 1.24625E+01 0.00000E+00
 -1      3046 1.16910E+01 1.39375E+01 0.00000E+00
 -1      3047 1.89000E+01 3.83090E+01 0.00000E+00
 -1      3048 2.04000E+01 3.83090E+01 0.00000E+00
 -1      3049 2.19000E+01 3.83090E+01 0.00000E+00
 -1      3050 2.34000E+01 3.83090E+01 0.00000E+00
 -1      3051 2.11500E+01 3.70100E+01 0.00000E+00
 -1      3052 2.49000E+01 3.83090E+01 0.00000E+00
 -1      3053 2.64000E+01 3.83090E+01 0.00000E+00
 -1      3054 2.41500E+01 3.70100E+01 0.00000E+00
 -1      3055 2.79000E+01 3.83090E+01 0.00000E+00
 -1      3056 2.94000E+01 3.83090E+01 0.00000E+00
 -1      3057 2.71500E+01 3.70100E+01 0.00000E+00
 -1      3058 3.09000E+01 3.83090E+01 0.00000E+00
 -1      3059 3.24000E+01 3.83090E+01 0.00000E+00
 -1      3060 3.01500E+01 3.70100E+01 0.00000E+00
 -1      3061 3.39000E+01 3.83090E+01 0.00000E+00
 -1      3062 3.54000E+01 3.83090E+01 0.00000E+00
 -1      3063 3.31500E+01 3.70100E+01 0.00000E+00
 -1      3064 3.69000E+01 3.83090E+01 0.00000E+00
 -1      3065 3.84000E+01 3.83090E+01 0.00000E+00
 -1      3066 3.61500E+01 3.70100E+01 0.00000E+00
 -1      3067 3.99000E+01 3.83090E+01 0.00000E+00
 -1      3068 4.14000E+01 3.83090E+01 0.00000E+00
 -1      3069 3.91500E+01 3.70100E+01 0.00000E+00
 -1      3070 4.29000E+01 3.83090E+01 0.00000E+00
 -1      3071 4.44000E+01 3.83090E+01 0.00000E+00
 -1      3072 4.21500E+01 3.70100E+01 0.00000E+00
 -1      3073 4.59000E+01 3.83090E+01 0.00000E+00
 -1      3074 4.74000E+01 3.83090E+01 0.00000E+00
 -1      3075 4.51500E+01 3.70100E+01 0.00000E+00
 -1      3076 4.89000E+01 3.83090E+01 0.00000E+00
 -1      3077 5.04000E+01 3.83090E+01 0.00000E+00
 -1      3078 4.81500E+01 3.70100E+01 0.00000E+00
 -1      3079 5.19000E+01 3.83090E+01 0.00000E+00
 -1      3080 5.34000E+01 3.83090E+01 0.00000E+00
 -1      3081 5.11500E+01 3.70100E+01 0.00000E+00
 -1      3082 5.49000E+01 3.83090E+01 0.00000E+00
 -1      3083 5.64000E+01 3.83090E+01 0.00000E+00
 -1      3084 5.41500E+01 3.70100E+01 0.00000E+00
 -1      3085 5.79000E+01 3.83090E+01 0.00000E+00
 -1      3086 5.94000E+01 3.83090E+01 0.00000E+00
 -1      3087 5.71500E+01 3.70100E+01 0.00000E+00
 -1      3088 6.09000E+01 3.83090E+01 0.00000E+00
 -1      3089 6.24000E+01 3.83090E+01 0.00000E+00
 -1      3090 6.01500E+01 3.70100E+01 0.00000E+00
 -1      3091 6.39000E+01 3.83090E+01 0.00000E+00
 -1      3092 6.54000E+01 3.83090E+01 0.00000E+00
 -1      3093 6.31500E+01 3.70100E+01 0.00000E+00
 -1      3094 6.69000E+01 3.83090E+01 0.00000E+00
 -1      3095 6.84000E+01 3.83090E+01 0.00000E+00
 -1      3096 6.61500E+01 3.70100E+01 0.00000E+00
 -1      3097 6.99000E+01 3.83090E+01 0.00000E+00
 -1      3098 7.14000E+01 3.83090E+01 0.00000E+00
 -1      3099 6.91500E+01 3.70100E+01 0.00000E+00
 -1      3100 7.29000E+01 3.83090E+01 0.00000E+00
 -1      3101 7.44000E+01 3.83090E+01 0.00000E+00
 -1      3102 7.21500E+01 3.70100E+01 0.00000E+00
 -1      3103 7.59000E+01 3.83090E+01 0.00000E+00
 -1      3104 7.74000E+01 3.83090E+01 0.00000E+00
 -1      3105 7.51500E+01 3.70100E+01 0.00000E+00
 -1      3106 7.89000E+01 3.83090E+01 0.00000E+00
 -1      3107 8.04000E+01 3.83090E+01 0.00000E+00
 -1      3108 7.81500E+01 3.70100E+01 0.00000E+00
 -1      3109 8.19000E+01 3.83090E+01 0.00000E+00
 -1      3110 8.34000E+01 3.83090E+01 0.00000E+00
 -1      3111 8.11500E+01 3.70100E+01 0.00000E+00
 -1      3112 8.49000E+01 3.83090E+01 0.00000E+00
 -1      3113 8.64000E+01 3.83090E+01 0.00000E+00
 -1      3114 8.41500E+01 3.70100E+01 0.00000E+00
 -1      3115 8.79000E+01 3.83090E+01 0.00000E+00
 -1      3116 8.94000E+01 3.83090E+01 0.00000E+00
 -1      3117 8.71500E+01 3.70100E+01 0.00000E+00
 -1      3118 9.09000E+01 3.83090E+01 0.00000E+00
 -1      3119 9.24000E+01 3.83090E+01 0.00000E+00
 -1      3120 9.01500E+01 3.70100E+01 0.00000E+00
 -1      3121 9.39000E+01 3.83090E+01 0.00000E+00
 -1      3122 9.54000E+01 3.83090E+01 0.00000E+00
 -1      3123 9.31500E+01 3.70100E+01 0.00000E+00
 -1      3124 9.69000E+01 3.83090E+01 0.00000E+00
 -1      3125 9.84000E+01 3.83090E+01 0.00000E+00
 -1      3126 9.61500E+01 3.70100E+01 0.00000E+00
 -1      3127 9.99000E+01 3.83090E+01 0.00000E+00
 -1      3128 1.01400E+02 3.83090E+01 0.00000E+00
 -1      3129 9.91500E+01 3.70100E+01 0.00000E+00
 -1      3130 1.02900E+02 3.83090E+01 0.00000E+00
 -1      3131 1.04400E+02 3.83090E+01 0.00000E+00
 -1      3132 1.02150E+02 3.70100E+01 0.00000E+00
 -1      3133 1.05900E+02 3.83090E+01 0.00000E+00
 -1      3134 1.07400E+02 3.83090E+01 0.00000E+00
 -1      3135 1.05150E+02 3.70100E+01 0.00000E+00
 -1      3136 1.08900E+02 3.83090E+01 0.00000E+00
 -1      3137 1.10400E+02 3.83090E+01 0.00000E+00
 -1      3138 1.08150E+02 3.70100E+01 0.00000E+00
 -1      3139 1.11900E+02 3.83090E+01 0.00000E+00
 -1      3140 1.13400E+02 3.83090E+01 0.00000E+00
 -1      3141 1.11150E+02 3.70100E+01 0.00000E+00
 -1      3142 1.14900E+02 3.83090E+01 0.00000E+00
 -1      3143 1.16400E+02 3.83090E+01 0.00000E+00
 -1      3144 1.14150E+02 3.70100E+01 0.00000E+00
 -1      3145 1.17410E+02 3.73019E+01 0.00000E+00
 -1      3146 1.18910E+02 3.73019E+01 0.00000E+00
 -1      3147 1.21445E+02 3.74230E+01 0.00000E+00
 -1      3148 1.22945E+02 3.74230E+01 0.00000E+00
 -1      3149 1.24343E+02 3.77532E+01 0.00000E+00
 -1      3150 1.25843E+02 3.77532E+01 0.00000E+00
 -1      3151 1.27059E+02 3.78955E+01 0.00000E+00
 -1      3152 1.28559E+02 3.78955E+01 0.00000E+00
 -1      3153 1.30032E+02 3.76811E+01 0.00000E+00
 -1      3154 1.31532E+02 3.76811E+01 0.00000E+00
 -1      3155 1.32832E+02 3.73034E+01 0.00000E+00
 -1      3156 1.34332E+02 3.73034E+01 0.00000E+00
 -1      3157 3.47850E+01 1.05013E+01 0.00000E+00
 -1      3158 3.32850E+01 1.05013E+01 0.00000E+00
 -1      3159 3.17850E+01 1.05013E+01 0.00000E+00
 -1      3160 3.02850E+01 1.05013E+01 0.00000E+00
 -1      3161 3.25350E+01 1.18003E+01 0.00000E+00
 -1      3162 4.07850E+01 1.05013E+01 0.00000E+00
 -1      3163 3.92850E+01 1.05013E+01 0.00000E+00
 -1      3164 4.37850E+01 1.05013E+01 0.00000E+00
 -1      3165 4.22850E+01 1.05013E+01 0.00000E+00
 -1      3166 4.15350E+01 1.18003E+01 0.00000E+00
 -1      3167 4.67850E+01 1.05013E+01 0.00000E+00
 -1      3168 4.52850E+01 1.05013E+01 0.00000E+00
 -1      3169 4.45350E+01 1.18003E+01 0.00000E+00
 -1      3170 4.97850E+01 1.05013E+01 0.00000E+00
 -1      3171 4.82850E+01 1.05013E+01 0.00000E+00
 -1      3172 4.75350E+01 1.18003E+01 0.00000E+00
 -1      3173 5.27850E+01 1.05013E+01 0.00000E+00
 -1      3174 5.12850E+01 1.05013E+01 0.00000E+00
 -1      3175 5.05350E+01 1.18003E+01 0.00000E+00
 -1      3176 5.57850E+01 1.05013E+01 0.00000E+00
 -1      3177 5.42850E+01 1.05013E+01 0.00000E+00
 -1      3178 5.35350E+01 1.18003E+01 0.00000E+00
 -1      3179 5.87850E+01 1.05013E+01 0.00000E+00
 -1      3180 5.72850E+01 1.05013E+01 0.00000E+00
 -1      3181 5.65350E+01 1.18003E+01 0.00000E+00
 -1      3182 6.17850E+01 1.05013E+01 0.00000E+00
 -1      3183 6.02850E+01 1.05013E+01 0.00000E+00
 -1      3184 5.95350E+01 1.18003E+01 0.00000E+00
 -1      3185 6.47850E+01 1.05013E+01 0.00000E+00
 -1      3186 6.32850E+01 1.05013E+01 0.00000E+00
 -1      3187 6.25350E+01 1.18003E+01 0.00000E+00
 -1      3188 6.77850E+01 1.05013E+01 0.00000E+00
 -1      3189 6.62850E+01 1.05013E+01 0.00000E+00
 -1      3190 6.55350E+01 1.18003E+01 0.00000E+00
 -1      3191 7.07850E+01 1.05013E+01 0.00000E+00
 -1      3192 6.92850E+01 1.05013E+01 0.00000E+00
 -1      3193 6.85350E+01 1.18003E+01 0.00000E+00
 -1      3194 7.37850E+01 1.05013E+01 0.00000E+00
 -1      3195 7.22850E+01 1.05013E+01 0.00000E+00
 -1      3196 7.15350E+01 1.18003E+01 0.00000E+00
 -1      3197 7.67850E+01 1.05013E+01 0.00000E+00
 -1      3198 7.52850E+01 1.05013E+01 0.00000E+00
 -1      3199 7.45350E+01 1.18003E+01 0.00000E+00
 -1      3200 7.97850E+01 1.05013E+01 0.00000E+00
 -1      3201 7.82850E+01 1.05013E+01 0.00000E+00
 -1      3202 7.75350E+01 1.18003E+01 0.00000E+00
 -1      3203 8.27850E+01 1.05013E+01 0.00000E+00
 -1      3204 8.12850E+01 1.05013E+01 0.00000E+00
 -1      3205 8.05350E+01 1.18003E+01 0.00000E+00
 -1      3206 8.57850E+01 1.05013E+01 0.00000E+00
 -1      3207 8.42850E+01 1.05013E+01 0.00000E+00
 -1      3208 8.35350E+01 1.18003E+01 0.00000E+00
 -1      3209 8.87850E+01 1.05013E+01 0.00000E+00
 -1      3210 8.72850E+01 1.05013E+01 0.00000E+00
 -1      3211 8.65350E+01 1.18003E+01 0.00000E+00
 -1      3212 9.17850E+01 1.05013E+01 0.00000E+00
 -1      3213 9.02850E+01 1.05013E+01 0.00000E+00
 -1      3214 8.95350E+01 1.18003E+01 0.00000E+00
 -1      3215 9.47850E+01 1.05013E+01 0.00000E+00
 -1      3216 9.32850E+01 1.05013E+01 0.00000E+00
 -1      3217 9.25350E+01 1.18003E+01 0.00000E+00
 -1      3218 9.77850E+01 1.05013E+01 0.00000E+00
 -1      3219 9.62850E+01 1.05013E+01 0.00000E+00
 -1      3220 9.55350E+01 1.18003E+01 0.00000E+00
 -1      3221 1.00785E+02 1.05013E+01 0.00000E+00
 -1      3222 9.92850E+01 1.05013E+01 0.00000E+00
 -1      3223 9.85350E+01 1.18003E+01 0.00000E+00
 -1      3224 1.03785E+02 1.05013E+01 0.00000E+00
 -1      3225 1.02285E+02 1.05013E+01 0.00000E+00
 -1      3226 1.01535E+02 1.18003E+01 0.00000E+00
 -1      3227 1.06785E+02 1.05013E+01 0.00000E+00
 -1      3228 1.05285E+02 1.05013E+01 0.00000E+00
 -1      3229 1.04535E+02 1.18003E+01 0.00000E+00
 -1      3230 1.09785E+02 1.05013E+01 0.00000E+00
 -1      3231 1.08285E+02 1.05013E+01 0.00000E+00
 -1      3232 1.07535E+02 1.18003E+01 0.00000E+00
 -1      3233 1.12785E+02 1.05013E+01 0.00000E+00
 -1      3234 1.11285E+02 1.05013E+01 0.00000E+00
 -1      3235 1.10535E+02 1.18003E+01 0.00000E+00
 -1      3236 1.15785E+02 1.05013E+01 0.00000E+00
 -1      3237 1.14285E+02 1.05013E+01 0.00000E+00
 -1      3238 1.13535E+02 1.18003E+01 0.00000E+00
 -1      3239 1.21348E+02 1.07724E+01 0.00000E+00
 -1      3240 1.19848E+02 1.07724E+01 0.00000E+00
 -1      3241 1.34265E+02 1.04932E+01 0.00000E+00
 -1      3242 1.16910E+01 2.12875E+01 0.00000E+00
 -1      3243 1.16910E+01 2.27625E+01 0.00000E+00
 -1      3244 1.14890E+02 2.99314E+01 0.00000E+00
 -1      3245 1.14181E+02 2.87591E+01 0.00000E+00
 -1      3246 1.38593E+02 3.37265E+01 0.00000E+00
 -1      3247 1.38593E+02 3.22515E+01 0.00000E+00
 -1      3248 1.14163E+02 2.09846E+01 0.00000E+00
 -1      3249 1.14409E+02 1.96288E+01 0.00000E+00
 -1      3250 1.38537E+02 1.03545E+01 0.00000E+00
 -1      3251 1.37369E+02 1.00738E+01 0.00000E+00
 -1      3252 1.35869E+02 1.00738E+01 0.00000E+00
 -1      3253 1.38537E+02 1.18170E+01 0.00000E+00
 -1      3254 3.77850E+01 1.05013E+01 0.00000E+00
 -1      3255 3.62850E+01 1.05013E+01 0.00000E+00
 -1      3256 3.55350E+01 1.18003E+01 0.00000E+00
 -1      3257 3.85350E+01 1.18003E+01 0.00000E+00
 -1      3258 2.27850E+01 1.05013E+01 0.00000E+00
 -1      3259 2.12850E+01 1.05013E+01 0.00000E+00
 -1      3260 1.13690E+02 2.67901E+01 0.00000E+00
 -1      3261 1.13866E+02 2.53553E+01 0.00000E+00
 -1      3262 1.59000E+01 3.83090E+01 0.00000E+00
 -1      3263 1.74000E+01 3.83090E+01 0.00000E+00
 -1      3264 1.81500E+01 3.70100E+01 0.00000E+00
 -1      3265 1.00862E+01 3.73269E+01 0.00000E+00
 -1      3266 1.15033E+02 1.79916E+01 0.00000E+00
 -1      3267 1.15855E+02 1.68930E+01 0.00000E+00
 -1      3268 1.35599E+02 1.13647E+01 0.00000E+00
 -1      3269 1.36404E+02 1.19194E+01 0.00000E+00
 -1      3270 1.26488E+01 1.02017E+01 0.00000E+00
 -1      3271 1.20772E+01 1.14631E+01 0.00000E+00
 -1      3272 1.33763E+01 1.22006E+01 0.00000E+00
 -1      3273 1.41488E+01 1.02017E+01 0.00000E+00
 -1      3274 1.16617E+02 3.24562E+01 0.00000E+00
 -1      3275 1.15700E+02 3.12596E+01 0.00000E+00
 -1      3276 1.18744E+02 1.19343E+01 0.00000E+00
 -1      3277 1.18431E+02 1.03641E+01 0.00000E+00
 -1      3278 1.16931E+02 1.03641E+01 0.00000E+00
 -1      3279 1.17723E+02 1.26879E+01 0.00000E+00
 -1      3280 1.16910E+01 2.42375E+01 0.00000E+00
 -1      3281 1.16910E+01 2.57125E+01 0.00000E+00
 -1      3282 1.29900E+01 2.35000E+01 0.00000E+00
 -1      3283 1.29900E+01 1.46687E+01 0.00000E+00
 -1      3284 1.16910E+01 1.54063E+01 0.00000E+00
 -1      3285 1.16910E+01 1.68750E+01 0.00000E+00
 -1      3286 1.38116E+02 1.47775E+01 0.00000E+00
 -1      3287 1.14468E+02 3.12041E+01 0.00000E+00
 -1      3288 1.38569E+02 3.12749E+01 0.00000E+00
 -1      3289 1.39394E+02 1.78778E+01 0.00000E+00
 -1      3290 1.39279E+02 1.87019E+01 0.00000E+00
 -1      3291 1.37261E+02 1.21237E+01 0.00000E+00
 -1      3292 1.15663E+02 1.57116E+01 0.00000E+00
 -1      3293 1.22750E+02 1.06459E+01 0.00000E+00
 -1      3294 1.16910E+01 1.98188E+01 0.00000E+00
 -1      3295 1.29900E+01 2.05562E+01 0.00000E+00
 -1      3296 1.16910E+01 1.83500E+01 0.00000E+00
 -1      3297 1.12645E+02 2.90237E+01 0.00000E+00
 -1      3298 1.13168E+02 2.79069E+01 0.00000E+00
 -1      3299 1.12155E+02 2.70547E+01 0.00000E+00
 -1      3300 1.38333E+02 3.51953E+01 0.00000E+00
 -1      3301 1.37105E+02 3.36218E+01 0.00000E+00
 -1      3302 1.35147E+02 3.57165E+01 0.00000E+00
 -1      3303 1.35965E+02 3.80211E+01 0.00000E+00
 -1      3304 2.05350E+01 1.18003E+01 0.00000E+00
 -1      3305 1.97850E+01 1.05013E+01 0.00000E+00
 -1      3306 1.82850E+01 1.05013E+01 0.00000E+00
 -1      3307 1.37465E+02 3.80211E+01 0.00000E+00
 -1      3308 2.87850E+01 1.05013E+01 0.00000E+00
 -1      3309 2.72850E+01 1.05013E+01 0.00000E+00
 -1      3310 2.95350E+01 1.18003E+01 0.00000E+00
 -1      3311 1.16181E+02 1.16631E+01 0.00000E+00
 -1      3312 1.38985E+02 3.74540E+01 0.00000E+00
 -1      3313 1.16474E+02 3.37641E+01 0.00000E+00
 -1      3314 1.39535E+02 1.69515E+01 0.00000E+00
 -1      3315 1.36126E+02 3.38059E+01 0.00000E+00
 -1      3316 1.13573E+02 2.18010E+01 0.00000E+00
 -1      3317 1.12853E+02 2.09695E+01 0.00000E+00
 -1      3318 1.12984E+02 2.26174E+01 0.00000E+00
 -1      3319 1.69669E+01 1.03515E+01 0.00000E+00
 -1      3320 1.54669E+01 1.03515E+01 0.00000E+00
 -1      3321 1.50806E+01 1.13509E+01 0.00000E+00
 -1      3322 1.77169E+01 1.16505E+01 0.00000E+00
 -1      3323 1.13099E+02 1.90402E+01 0.00000E+00
 -1      3324 1.14066E+02 1.85159E+01 0.00000E+00
 -1      3325 1.13723E+02 1.74029E+01 0.00000E+00
 -1      3326 1.45576E+01 3.82548E+01 0.00000E+00
 -1      3327 1.53076E+01 3.69558E+01 0.00000E+00
 -1      3328 1.32152E+01 3.82007E+01 0.00000E+00
 -1      3329 1.16910E+01 3.01219E+01 0.00000E+00
 -1      3330 1.16910E+01 3.15906E+01 0.00000E+00
 -1      3331 2.42850E+01 1.05013E+01 0.00000E+00
 -1      3332 2.35350E+01 1.18003E+01 0.00000E+00
 -1      3333 2.57850E+01 1.05013E+01 0.00000E+00
 -1      3334 1.39463E+02 1.57111E+01 0.00000E+00
 -1      3335 1.13191E+02 2.46934E+01 0.00000E+00
 -1      3336 1.14286E+01 3.73811E+01 0.00000E+00
 -1      3337 1.29900E+01 3.23250E+01 0.00000E+00
 -1      3338 1.16910E+01 3.30594E+01 0.00000E+00
 -1      3339 1.16910E+01 3.45281E+01 0.00000E+00
 -1      3340 1.36036E+02 3.49689E+01 0.00000E+00
 -1      3341 1.19844E+02 3.79500E+01 0.00000E+00
 -1      3342 1.21139E+02 3.57650E+01 0.00000E+00
 -1      3343 1.26469E+02 1.03289E+01 0.00000E+00
 -1      3344 1.27188E+02 1.06600E+01 0.00000E+00
 -1      3345 1.19851E+02 3.52223E+01 0.00000E+00
 -1      3346 1.16977E+02 1.35111E+01 0.00000E+00
 -1      3347 1.16581E+02 1.23492E+01 0.00000E+00
 -1      3348 1.15435E+02 1.24863E+01 0.00000E+00
 -1      3349 1.16235E+02 1.38584E+01 0.00000E+00
 -1      3350 1.28100E+02 1.06204E+01 0.00000E+00
 -1      3351 1.16660E+02 3.60029E+01 0.00000E+00
 -1      3352 1.38594E+02 1.29953E+01 0.00000E+00
 -1      3353 2.34000E+01 3.57110E+01 0.00000E+00
 -1      3354 2.49000E+01 3.57110E+01 0.00000E+00
 -1      3355 2.64000E+01 3.57110E+01 0.00000E+00
 -1      3356 2.79000E+01 3.57110E+01 0.00000E+00
 -1      3357 2.56500E+01 3.44120E+01 0.00000E+00
 -1      3358 2.94000E+01 3.57110E+01 0.00000E+00
 -1      3359 3.09000E+01 3.57110E+01 0.00000E+00
 -1      3360 2.86500E+01 3.44120E+01 0.00000E+00
 -1      3361 3.24000E+01 3.57110E+01 0.00000E+00
 -1      3362 3.39000E+01 3.57110E+01 0.00000E+00
 -1      3363 3.16500E+01 3.44120E+01 0.00000E+00
 -1      3364 3.54000E+01 3.57110E+01 0.00000E+00
 -1      3365 3.69000E+01 3.57110E+01 0.00000E+00
 -1      3366 3.46500E+01 3.44120E+01 0.00000E+00
 -1      3367 3.84000E+01 3.57110E+01 0.00000E+00
 -1      3368 3.99000E+01 3.57110E+01 0.00000E+00
 -1      3369 3.76500E+01 3.44120E+01 0.00000E+00
 -1      3370 4.14000E+01 3.57110E+01 0.00000E+00
 -1      3371 4.29000E+01 3.57110E+01 0.00000E+00
 -1      3372 4.06500E+01 3.44120E+01 0.00000E+00
 -1      3373 4.44000E+01 3.57110E+01 0.00000E+00
 -1      3374 4.59000E+01 3.57110E+01 0.00000E+00
 -1      3375 4.36500E+01 3.44120E+01 0.00000E+00
 -1      3376 4.74000E+01 3.57110E+01 0.00000E+00
 -1      3377 4.89000E+01 3.57110E+01 0.00000E+00
 -1      3378 4.66500E+01 3.44120E+01 0.00000E+00
 -1      3379 5.04000E+01 3.57110E+01 0.00000E+00
 -1      3380 5.19000E+01 3.57110E+01 0.00000E+00
 -1      3381 4.96500E+01 3.44120E+01 0.00000E+00
 -1      3382 5.34000E+01 3.57110E+01 0.00000E+00
 -1      3383 5.49000E+01 3.57110E+01 0.00000E+00
 -1      3384 5.26500E+01 3.44120E+01 0.00000E+00
 -1      3385 5.64000E+01 3.57110E+01 0.00000E+00
 -1      3386 5.79000E+01 3.57110E+01 0.00000E+00
 -1      3387 5.56500E+01 3.44120E+01 0.00000E+00
 -1      3388 5.94000E+01 3.57110E+01 0.00000E+00
 -1      3389 6.09000E+01 3.57110E+01 0.00000E+00
 -1      3390 5.86500E+01 3.44120E+01 0.00000E+00
 -1      3391 6.24000E+01 3.57110E+01 0.00000E+00
 -1      3392 6.39000E+01 3.57110E+01 0.00000E+00
 -1      3393 6.16500E+01 3.44120E+01 0.00000E+00
 -1      3394 6.54000E+01 3.57110E+01 0.00000E+00
 -1      3395 6.69000E+01 3.57110E+01 0.00000E+00
 -1      3396 6.46500E+01 3.44120E+01 0.00000E+00
 -1      3397 6.84000E+01 3.57110E+01 0.00000E+00
 -1      3398 6.99000E+01 3.57110E+01 0.00000E+00
 -1      3399 6.76500E+01 3.44120E+01 0.00000E+00
 -1      3400 7.14000E+01 3.57110E+01 0.00000E+00
 -1      3401 7.29000E+01 3.57110E+01 0.00000E+00
 -1      3402 7.06500E+01 3.44120E+01 0.00000E+00
 -1      3403 7.44000E+01 3.57110E+01 0.00000E+00
 -1      3404 7.59000E+01 3.57110E+01 0.00000E+00
 -1      3405 7.36500E+01 3.44120E+01 0.00000E+00
 -1      3406 7.74000E+01 3.57110E+01 0.00000E+00
 -1      3407 7.89000E+01 3.57110E+01 0.00000E+00
 -1      3408 7.66500E+01 3.44120E+01 0.00000E+00
 -1      3409 8.04000E+01 3.57110E+01 0.00000E+00
 -1      3410 8.19000E+01 3.57110E+01 0.00000E+00
 -1      3411 7.96500E+01 3.44120E+01 0.00000E+00
 -1      3412 8.34000E+01 3.57110E+01 0.00000E+00
 -1      3413 8.49000E+01 3.57110E+01 0.00000E+00
 -1      3414 8.26500E+01 3.44120E+01 0.00000E+00
 -1      3415 8.64000E+01 3.57110E+01 0.00000E+00
 -1      3416 8.79000E+01 3.57110E+01 0.00000E+00
 -1      3417 8.56500E+01 3.44120E+01 0.00000E+00
 -1      3418 8.94000E+01 3.57110E+01 0.00000E+00
 -1      3419 9.09000E+01 3.57110E+01 0.00000E+00
 -1      3420 8.86500E+01 3.44120E+01 0.00000E+00
 -1      3421 9.24000E+01 3.57110E+01 0.00000E+00
 -1      3422 9.39000E+01 3.57110E+01 0.00000E+00
 -1      3423 9.16500E+01 3.44120E+01 0.00000E+00
 -1      3424 9.54000E+01 3.57110E+01 0.00000E+00
 -1      3425 9.69000E+01 3.57110E+01 0.00000E+00
 -1      3426 9.46500E+01 3.44120E+01 0.00000E+00
 -1      3427 9.84000E+01 3.57110E+01 0.00000E+00
 -1      3428 9.99000E+01 3.57110E+01 0.00000E+00
 -1      3429 9.76500E+01 3.44120E+01 0.00000E+00
 -1      3430 1.01400E+02 3.57110E+01 0.00000E+00
 -1      3431 1.02900E+02 3.57110E+01 0.00000E+00
 -1      3432 1.00650E+02 3.44120E+01 0.00000E+00
 -1      3433 1.04400E+02 3.57110E+01 0.00000E+00
 -1      3434 1.05900E+02 3.57110E+01 0.00000E+00
 -1      3435 1.03650E+02 3.44120E+01 0.00000E+00
 -1      3436 1.07400E+02 3.57110E+01 0.00000E+00
 -1      3437 1.08900E+02 3.57110E+01 0.00000E+00
 -1      3438 1.06650E+02 3.44120E+01 0.00000E+00
 -1      3439 1.10400E+02 3.57110E+01 0.00000E+00
 -1      3440 1.11900E+02 3.57110E+01 0.00000E+00
 -1      3441 1.09650E+02 3.44120E+01 0.00000E+00
 -1      3442 1.13530E+02 3.58570E+01 0.00000E+00
 -1      3443 1.15030E+02 3.58570E+01 0.00000E+00
 -1      3444 1.16041E+02 3.48499E+01 0.00000E+00
 -1      3445 1.12780E+02 3.45580E+01 0.00000E+00
 -1      3446 4.52850E+01 1.30992E+01 0.00000E+00
 -1      3447 4.37850E+01 1.30992E+01 0.00000E+00
 -1      3448 4.22850E+01 1.30992E+01 0.00000E+00
 -1      3449 4.07850E+01 1.30992E+01 0.00000E+00
 -1      3450 4.30350E+01 1.43982E+01 0.00000E+00
 -1      3451 5.12850E+01 1.30992E+01 0.00000E+00
 -1      3452 4.97850E+01 1.30992E+01 0.00000E+00
 -1      3453 5.42850E+01 1.30992E+01 0.00000E+00
 -1      3454 5.27850E+01 1.30992E+01 0.00000E+00
 -1      3455 5.20350E+01 1.43982E+01 0.00000E+00
 -1      3456 5.72850E+01 1.30992E+01 0.00000E+00
 -1      3457 5.57850E+01 1.30992E+01 0.00000E+00
 -1      3458 5.50350E+01 1.43982E+01 0.00000E+00
 -1      3459 6.02850E+01 1.30992E+01 0.00000E+00
 -1      3460 5.87850E+01 1.30992E+01 0.00000E+00
 -1      3461 5.80350E+01 1.43982E+01 0.00000E+00
 -1      3462 6.32850E+01 1.30992E+01 0.00000E+00
 -1      3463 6.17850E+01 1.30992E+01 0.00000E+00
 -1      3464 6.10350E+01 1.43982E+01 0.00000E+00
 -1      3465 6.62850E+01 1.30992E+01 0.00000E+00
 -1      3466 6.47850E+01 1.30992E+01 0.00000E+00
 -1      3467 6.40350E+01 1.43982E+01 0.00000E+00
 -1      3468 6.92850E+01 1.30992E+01 0.00000E+00
 -1      3469 6.77850E+01 1.30992E+01 0.00000E+00
 -1      3470 6.70350E+01 1.43982E+01 0.00000E+00
 -1      3471 7.22850E+01 1.30992E+01 0.00000E+00
 -1      3472 7.07850E+01 1.30992E+01 0.00000E+00
 -1      3473 7.00350E+01 1.43982E+01 0.00000E+00
 -1      3474 7.52850E+01 1.30992E+01 0.00000E+00
 -1      3475 7.37850E+01 1.30992E+01 0.00000E+00
 -1      3476 7.30350E+01 1.43982E+01 0.00000E+00
 -1      3477 7.82850E+01 1.30992E+01 0.00000E+00
 -1      3478 7.67850E+01 1.30992E+01 0.00000E+00
 -1      3479 7.60350E+01 1.43982E+01 0.00000E+00
 -1      3480 8.12850E+01 1.30992E+01 0.00000E+00
 -1      3481 7.97850E+01 1.30992E+01 0.00000E+00
 -1      3482 7.90350E+01 1.43982E+01 0.00000E+00
 -1      3483 8.42850E+01 1.30992E+01 0.00000E+00
 -1      3484 8.27850E+01 1.30992E+01 0.00000E+00
 -1      3485 8.20350E+01 1.43982E+01 0.00000E+00
 -1      3486 8.72850E+01 1.30992E+01 0.00000E+00
 -1      3487 8.57850E+01 1.30992E+01 0.00000E+00
 -1      3488 8.50350E+01 1.43982E+01 0.00000E+00
 -1      3489 9.02850E+01 1.30992E+01 0.00000E+00
 -1      3490 8.87850E+01 1.30992E+01 0.00000E+00
 -1      3491 8.80350E+01 1.43982E+01 0.00000E+00
 -1      3492 9.32850E+01 1.30992E+01 0.00000E+00
 -1      3493 9.17850E+01 1.30992E+01 0.00000E+00
 -1      3494 9.10350E+01 1.43982E+01 0.00000E+00
 -1      3495 9.62850E+01 1.30992E+01 0.00000E+00
 -1      3496 9.47850E+01 1.30992E+01 0.00000E+00
 -1      3497 9.40350E+01 1.43982E+01 0.00000E+00
 -1      3498 9.92850E+01 1.30992E+01 0.00000E+00
 -1      3499 9.77850E+01 1.30992E+01 0.00000E+00
 -1      3500 9.70350E+01 1.43982E+01 0.00000E+00
 -1      3501 1.02285E+02 1.30992E+01 0.00000E+00
 -1      3502 1.00785E+02 1.30992E+01 0.00000E+00
 -1      3503 1.00035E+02 1.43982E+01 0.00000E+00
 -1      3504 1.05285E+02 1.30992E+01 0.00000E+00
 -1      3505 1.03785E+02 1.30992E+01 0.00000E+00
 -1      3506 1.03035E+02 1.43982E+01 0.00000E+00
 -1      3507 1.08285E+02 1.30992E+01 0.00000E+00
 -1      3508 1.06785E+02 1.30992E+01 0.00000E+00
 -1      3509 1.06035E+02 1.43982E+01 0.00000E+00
 -1      3510 1.11285E+02 1.30992E+01 0.00000E+00
 -1      3511 1.09785E+02 1.30992E+01 0.00000E+00
 -1      3512 1.09035E+02 1.43982E+01 0.00000E+00
 -1      3513 1.14110E+02 1.27928E+01 0.00000E+00
 -1      3514 1.12610E+02 1.27928E+01 0.00000E+00
 -1      3515 1.11860E+02 1.40918E+01 0.00000E+00
 -1      3516 1.14510E+02 1.34788E+01 0.00000E+00
 -1      3517 1.27146E+02 8.08369E+00 0.00000E+00
 -1      3518 4.82850E+01 1.30992E+01 0.00000E+00
 -1      3519 4.67850E+01 1.30992E+01 0.00000E+00
 -1      3520 4.60350E+01 1.43982E+01 0.00000E+00
 -1      3521 4.90350E+01 1.43982E+01 0.00000E+00
 -1      3522 3.32850E+01 1.30992E+01 0.00000E+00
 -1      3523 3.17850E+01 1.30992E+01 0.00000E+00
 -1      3524 1.16910E+01 2.86531E+01 0.00000E+00
 -1      3525 1.29900E+01 2.93875E+01 0.00000E+00
 -1      3526 1.16910E+01 2.71844E+01 0.00000E+00
 -1      3527 1.11957E+02 2.51065E+01 0.00000E+00
 -1      3528 1.12471E+02 2.38619E+01 0.00000E+00
 -1      3529 1.11750E+02 2.30305E+01 0.00000E+00
 -1      3530 1.74000E+01 3.57110E+01 0.00000E+00
 -1      3531 1.89000E+01 3.57110E+01 0.00000E+00
 -1      3532 1.21786E+01 3.60821E+01 0.00000E+00
 -1      3533 1.14844E+02 3.36182E+01 0.00000E+00
 -1      3534 1.14290E+02 1.61926E+01 0.00000E+00
 -1      3535 1.15263E+02 1.50255E+01 0.00000E+00
 -1      3536 1.14863E+02 1.43394E+01 0.00000E+00
 -1      3537 2.04000E+01 3.57110E+01 0.00000E+00
 -1      3538 2.19000E+01 3.57110E+01 0.00000E+00
 -1      3539 2.26500E+01 3.44120E+01 0.00000E+00
 -1      3540 1.46944E+01 1.23503E+01 0.00000E+00
 -1      3541 1.43081E+01 1.33498E+01 0.00000E+00
 -1      3542 1.60125E+01 1.25001E+01 0.00000E+00
 -1      3543 1.13855E+02 3.24892E+01 0.00000E+00
 -1      3544 1.13045E+02 3.11610E+01 0.00000E+00
 -1      3545 1.38300E+02 3.58671E+01 0.00000E+00
 -1      3546 1.43081E+01 1.48185E+01 0.00000E+00
 -1      3547 2.12850E+01 1.30992E+01 0.00000E+00
 -1      3548 1.97850E+01 1.30992E+01 0.00000E+00
 -1      3549 1.29900E+01 1.76125E+01 0.00000E+00
 -1      3550 3.10350E+01 1.43982E+01 0.00000E+00
 -1      3551 3.02850E+01 1.30992E+01 0.00000E+00
 -1      3552 2.87850E+01 1.30992E+01 0.00000E+00
 -1      3553 1.38666E+02 1.42357E+01 0.00000E+00
 -1      3554 3.62850E+01 1.30992E+01 0.00000E+00
 -1      3555 3.47850E+01 1.30992E+01 0.00000E+00
 -1      3556 3.40350E+01 1.43982E+01 0.00000E+00
 -1      3557 1.12032E+02 3.03088E+01 0.00000E+00
 -1      3558 1.11019E+02 2.94566E+01 0.00000E+00
 -1      3559 1.11419E+02 3.15938E+01 0.00000E+00
 -1      3560 1.36812E+02 3.57623E+01 0.00000E+00
 -1      3561 2.65350E+01 1.18003E+01 0.00000E+00
 -1      3562 1.13323E+02 1.67169E+01 0.00000E+00
 -1      3563 2.27850E+01 1.30992E+01 0.00000E+00
 -1      3564 2.20350E+01 1.43982E+01 0.00000E+00
 -1      3565 2.42850E+01 1.30992E+01 0.00000E+00
 -1      3566 4.00350E+01 1.43982E+01 0.00000E+00
 -1      3567 3.92850E+01 1.30992E+01 0.00000E+00
 -1      3568 3.77850E+01 1.30992E+01 0.00000E+00
 -1      3569 1.42890E+01 1.98219E+01 0.00000E+00
 -1      3570 1.42890E+01 2.12906E+01 0.00000E+00
 -1      3571 1.96500E+01 3.44120E+01 0.00000E+00
 -1      3572 1.13421E+02 3.35750E+01 0.00000E+00
 -1      3573 1.42890E+01 2.27656E+01 0.00000E+00
 -1      3574 1.42890E+01 2.42406E+01 0.00000E+00
 -1      3575 1.55880E+01 2.20313E+01 0.00000E+00
 -1      3576 1.29900E+01 2.64469E+01 0.00000E+00
 -1      3577 1.42890E+01 2.86531E+01 0.00000E+00
 -1      3578 1.42890E+01 3.01219E+01 0.00000E+00
 -1      3579 1.10912E+02 2.73401E+01 0.00000E+00
 -1      3580 1.11435E+02 2.62233E+01 0.00000E+00
 -1      3581 1.10714E+02 2.53918E+01 0.00000E+00
 -1      3582 1.11921E+02 2.06730E+01 0.00000E+00
 -1      3583 1.12510E+02 1.98566E+01 0.00000E+00
 -1      3584 1.12167E+02 1.87436E+01 0.00000E+00
 -1      3585 1.60576E+01 3.56568E+01 0.00000E+00
 -1      3586 1.68076E+01 3.43578E+01 0.00000E+00
 -1      3587 1.47152E+01 3.56027E+01 0.00000E+00
 -1      3588 1.55266E+01 3.18456E+01 0.00000E+00
 -1      3589 1.42276E+01 3.25800E+01 0.00000E+00
 -1      3590 1.18604E+02 3.56439E+01 0.00000E+00
 -1      3591 1.36004E+02 3.56407E+01 0.00000E+00
 -1      3592 2.49000E+01 3.31130E+01 0.00000E+00
 -1      3593 2.64000E+01 3.31130E+01 0.00000E+00
 -1      3594 1.90350E+01 1.43983E+01 0.00000E+00
 -1      3595 1.82850E+01 1.30993E+01 0.00000E+00
 -1      3596 1.42890E+01 1.68719E+01 0.00000E+00
 -1      3597 1.42890E+01 1.83469E+01 0.00000E+00
 -1      3598 1.55880E+01 1.90812E+01 0.00000E+00
 -1      3599 2.79000E+01 3.31130E+01 0.00000E+00
 -1      3600 2.94000E+01 3.31130E+01 0.00000E+00
 -1      3601 2.71500E+01 3.18140E+01 0.00000E+00
 -1      3602 3.09000E+01 3.31130E+01 0.00000E+00
 -1      3603 3.24000E+01 3.31130E+01 0.00000E+00
 -1      3604 3.01500E+01 3.18140E+01 0.00000E+00
 -1      3605 3.39000E+01 3.31130E+01 0.00000E+00
 -1      3606 3.54000E+01 3.31130E+01 0.00000E+00
 -1      3607 3.31500E+01 3.18140E+01 0.00000E+00
 -1      3608 3.69000E+01 3.31130E+01 0.00000E+00
 -1      3609 3.84000E+01 3.31130E+01 0.00000E+00
 -1      3610 3.61500E+01 3.18140E+01 0.00000E+00
 -1      3611 3.99000E+01 3.31130E+01 0.00000E+00
 -1      3612 4.14000E+01 3.31130E+01 0.00000E+00
 -1      3613 3.91500E+01 3.18140E+01 0.00000E+00
 -1      3614 4.29000E+01 3.31130E+01 0.00000E+00
 -1      3615 4.44000E+01 3.31130E+01 0.00000E+00
 -1      3616 4.21500E+01 3.18140E+01 0.00000E+00
 -1      3617 4.59000E+01 3.31130E+01 0.00000E+00
 -1      3618 4.74000E+01 3.31130E+01 0.00000E+00
 -1      3619 4.51500E+01 3.18140E+01 0.00000E+00
 -1      3620 4.89000E+01 3.31130E+01 0.00000E+00
 -1      3621 5.04000E+01 3.31130E+01 0.00000E+00
 -1      3622 4.81500E+01 3.18140E+01 0.00000E+00
 -1      3623 5.19000E+01 3.31130E+01 0.00000E+00
 -1      3624 5.34000E+01 3.31130E+01 0.00000E+00
 -1      3625 5.11500E+01 3.18140E+01 0.00000E+00
 -1      3626 5.49000E+01 3.31130E+01 0.00000E+00
 -1      3627 5.64000E+01 3.31130E+01 0.00000E+00
 -1      3628 5.41500E+01 3.18140E+01 0.00000E+00
 -1      3629 5.79000E+01 3.31130E+01 0.00000E+00
 -1      3630 5.94000E+01 3.31130E+01 0.00000E+00
 -1      3631 5.71500E+01 3.18140E+01 0.00000E+00
 -1      3632 6.09000E+01 3.31130E+01 0.00000E+00
 -1      3633 6.24000E+01 3.31130E+01 0.00000E+00
 -1      3634 6.01500E+01 3.18140E+01 0.00000E+00
 -1      3635 6.39000E+01 3.31130E+01 0.00000E+00
 -1      3636 6.54000E+01 3.31130E+01 0.00000E+00
 -1      3637 6.31500E+01 3.18140E+01 0.00000E+00
 -1      3638 6.69000E+01 3.31130E+01 0.00000E+00
 -1      3639 6.84000E+01 3.31130E+01 0.00000E+00
 -1      3640 6.61500E+01 3.18140E+01 0.00000E+00
 -1      3641 6.99000E+01 3.31130E+01 0.00000E+00
 -1      3642 7.14000E+01 3.31130E+01 0.00000E+00
 -1      3643 6.91500E+01 3.18140E+01 0.00000E+00
 -1      3644 7.29000E+01 3.31130E+01 0.00000E+00
 -1      3645 7.44000E+01 3.31130E+01 0.00000E+00
 -1      3646 7.21500E+01 3.18140E+01 0.00000E+00
 -1      3647 7.59000E+01 3.31130E+01 0.00000E+00
 -1      3648 7.74000E+01 3.31130E+01 0.00000E+00
 -1      3649 7.51500E+01 3.18140E+01 0.00000E+00
 -1      3650 7.89000E+01 3.31130E+01 0.00000E+00
 -1      3651 8.04000E+01 3.31130E+01 0.00000E+00
 -1      3652 7.81500E+01 3.18140E+01 0.00000E+00
 -1      3653 8.19000E+01 3.31130E+01 0.00000E+00
 -1      3654 8.34000E+01 3.31130E+01 0.00000E+00
 -1      3655 8.11500E+01 3.18140E+01 0.00000E+00
 -1      3656 8.49000E+01 3.31130E+01 0.00000E+00
 -1      3657 8.64000E+01 3.31130E+01 0.00000E+00
 -1      3658 8.41500E+01 3.18140E+01 0.00000E+00
 -1      3659 8.79000E+01 3.31130E+01 0.00000E+00
 -1      3660 8.94000E+01 3.31130E+01 0.00000E+00
 -1      3661 8.71500E+01 3.18140E+01 0.00000E+00
 -1      3662 9.09000E+01 3.31130E+01 0.00000E+00
 -1      3663 9.24000E+01 3.31130E+01 0.00000E+00
 -1      3664 9.01500E+01 3.18140E+01 0.00000E+00
 -1      3665 9.39000E+01 3.31130E+01 0.00000E+00
 -1      3666 9.54000E+01 3.31130E+01 0.00000E+00
 -1      3667 9.31500E+01 3.18140E+01 0.00000E+00
 -1      3668 9.69000E+01 3.31130E+01 0.00000E+00
 -1      3669 9.84000E+01 3.31130E+01 0.00000E+00
 -1      3670 9.61500E+01 3.18140E+01 0.00000E+00
 -1      3671 9.99000E+01 3.31130E+01 0.00000E+00
 -1      3672 1.01400E+02 3.31130E+01 0.00000E+00
 -1      3673 9.91500E+01 3.18140E+01 0.00000E+00
 -1      3674 1.02900E+02 3.31130E+01 0.00000E+00
 -1      3675 1.04400E+02 3.31130E+01 0.00000E+00
 -1      3676 1.02150E+02 3.18140E+01 0.00000E+00
 -1      3677 1.05900E+02 3.31130E+01 0.00000E+00
 -1      3678 1.07400E+02 3.31130E+01 0.00000E+00
 -1      3679 1.05150E+02 3.18140E+01 0.00000E+00
 -1      3680 1.11791E+02 3.34290E+01 0.00000E+00
 -1      3681 4.37850E+01 1.56973E+01 0.00000E+00
 -1      3682 4.22850E+01 1.56973E+01 0.00000E+00
 -1      3683 5.57850E+01 1.56973E+01 0.00000E+00
 -1      3684 5.42850E+01 1.56973E+01 0.00000E+00
 -1      3685 5.27850E+01 1.56973E+01 0.00000E+00
 -1      3686 5.12850E+01 1.56973E+01 0.00000E+00
 -1      3687 5.35350E+01 1.69963E+01 0.00000E+00
 -1      3688 6.17850E+01 1.56973E+01 0.00000E+00
 -1      3689 6.02850E+01 1.56973E+01 0.00000E+00
 -1      3690 6.47850E+01 1.56973E+01 0.00000E+00
 -1      3691 6.32850E+01 1.56973E+01 0.00000E+00
 -1      3692 6.25350E+01 1.69963E+01 0.00000E+00
 -1      3693 6.77850E+01 1.56973E+01 0.00000E+00
 -1      3694 6.62850E+01 1.56973E+01 0.00000E+00
 -1      3695 6.55350E+01 1.69963E+01 0.00000E+00
 -1      3696 7.07850E+01 1.56973E+01 0.00000E+00
 -1      3697 6.92850E+01 1.56973E+01 0.00000E+00
 -1      3698 6.85350E+01 1.69963E+01 0.00000E+00
 -1      3699 7.37850E+01 1.56973E+01 0.00000E+00
 -1      3700 7.22850E+01 1.56973E+01 0.00000E+00
 -1      3701 7.15350E+01 1.69963E+01 0.00000E+00
 -1      3702 7.67850E+01 1.56973E+01 0.00000E+00
 -1      3703 7.52850E+01 1.56973E+01 0.00000E+00
 -1      3704 7.45350E+01 1.69963E+01 0.00000E+00
 -1      3705 7.97850E+01 1.56973E+01 0.00000E+00
 -1      3706 7.82850E+01 1.56973E+01 0.00000E+00
 -1      3707 7.75350E+01 1.69963E+01 0.00000E+00
 -1      3708 8.27850E+01 1.56973E+01 0.00000E+00
 -1      3709 8.12850E+01 1.56973E+01 0.00000E+00
 -1      3710 8.05350E+01 1.69963E+01 0.00000E+00
 -1      3711 8.57850E+01 1.56973E+01 0.00000E+00
 -1      3712 8.42850E+01 1.56973E+01 0.00000E+00
 -1      3713 8.35350E+01 1.69963E+01 0.00000E+00
 -1      3714 8.87850E+01 1.56973E+01 0.00000E+00
 -1      3715 8.72850E+01 1.56973E+01 0.00000E+00
 -1      3716 8.65350E+01 1.69963E+01 0.00000E+00
 -1      3717 9.17850E+01 1.56973E+01 0.00000E+00
 -1      3718 9.02850E+01 1.56973E+01 0.00000E+00
 -1      3719 8.95350E+01 1.69963E+01 0.00000E+00
 -1      3720 9.47850E+01 1.56973E+01 0.00000E+00
 -1      3721 9.32850E+01 1.56973E+01 0.00000E+00
 -1      3722 9.25350E+01 1.69963E+01 0.00000E+00
 -1      3723 9.77850E+01 1.56973E+01 0.00000E+00
 -1      3724 9.62850E+01 1.56973E+01 0.00000E+00
 -1      3725 9.55350E+01 1.69963E+01 0.00000E+00
 -1      3726 1.00785E+02 1.56973E+01 0.00000E+00
 -1      3727 9.92850E+01 1.56973E+01 0.00000E+00
 -1      3728 9.85350E+01 1.69963E+01 0.00000E+00
 -1      3729 1.03785E+02 1.56973E+01 0.00000E+00
 -1      3730 1.02285E+02 1.56973E+01 0.00000E+00
 -1      3731 1.01535E+02 1.69963E+01 0.00000E+00
 -1      3732 1.06785E+02 1.56973E+01 0.00000E+00
 -1      3733 1.05285E+02 1.56973E+01 0.00000E+00
 -1      3734 1.04535E+02 1.69963E+01 0.00000E+00
 -1      3735 1.09785E+02 1.56973E+01 0.00000E+00
 -1      3736 1.08285E+02 1.56973E+01 0.00000E+00
 -1      3737 1.07535E+02 1.69963E+01 0.00000E+00
 -1      3738 1.13537E+02 1.46459E+01 0.00000E+00
 -1      3739 1.69669E+01 1.29495E+01 0.00000E+00
 -1      3740 1.12403E+02 1.70666E+01 0.00000E+00
 -1      3741 1.12970E+02 1.58563E+01 0.00000E+00
 -1      3742 1.12618E+02 1.49957E+01 0.00000E+00
 -1      3743 1.56071E+01 1.55529E+01 0.00000E+00
 -1      3744 1.10391E+02 2.31978E+01 0.00000E+00
 -1      3745 1.10905E+02 2.19532E+01 0.00000E+00
 -1      3746 1.34776E+01 3.53477E+01 0.00000E+00
 -1      3747 1.42276E+01 3.40487E+01 0.00000E+00
 -1      3748 1.42890E+01 2.57109E+01 0.00000E+00
 -1      3749 1.42890E+01 2.71828E+01 0.00000E+00
 -1      3750 1.55880E+01 2.79172E+01 0.00000E+00
 -1      3751 1.55880E+01 2.49766E+01 0.00000E+00
 -1      3752 1.89000E+01 3.31130E+01 0.00000E+00
 -1      3753 2.04000E+01 3.31130E+01 0.00000E+00
 -1      3754 5.87850E+01 1.56973E+01 0.00000E+00
 -1      3755 5.72850E+01 1.56973E+01 0.00000E+00
 -1      3756 5.95350E+01 1.69963E+01 0.00000E+00
 -1      3757 1.65807E+01 1.39489E+01 0.00000E+00
 -1      3758 2.19000E+01 3.31130E+01 0.00000E+00
 -1      3759 2.34000E+01 3.31130E+01 0.00000E+00
 -1      3760 2.41500E+01 3.18140E+01 0.00000E+00
 -1      3761 2.72850E+01 1.30992E+01 0.00000E+00
 -1      3762 2.57850E+01 1.30992E+01 0.00000E+00
 -1      3763 2.80350E+01 1.43982E+01 0.00000E+00
 -1      3764 1.10214E+02 3.34944E+01 0.00000E+00
 -1      3765 1.10855E+02 3.25114E+01 0.00000E+00
 -1      3766 1.09842E+02 3.16592E+01 0.00000E+00
 -1      3767 1.08714E+02 3.34944E+01 0.00000E+00
 -1      3768 1.68870E+01 1.83438E+01 0.00000E+00
 -1      3769 1.68870E+01 1.98188E+01 0.00000E+00
 -1      3770 3.17850E+01 1.56973E+01 0.00000E+00
 -1      3771 3.02850E+01 1.56973E+01 0.00000E+00
 -1      3772 5.65350E+01 1.69963E+01 0.00000E+00
 -1      3773 1.81860E+01 2.05562E+01 0.00000E+00
 -1      3774 1.68870E+01 2.12938E+01 0.00000E+00
 -1      3775 1.68870E+01 2.27687E+01 0.00000E+00
 -1      3776 4.52850E+01 1.56973E+01 0.00000E+00
 -1      3777 4.45350E+01 1.69963E+01 0.00000E+00
 -1      3778 4.67850E+01 1.56973E+01 0.00000E+00
 -1      3779 1.65615E+01 1.60023E+01 0.00000E+00
 -1      3780 3.70350E+01 1.43982E+01 0.00000E+00
 -1      3781 2.50350E+01 1.43982E+01 0.00000E+00
 -1      3782 1.11293E+02 1.53021E+01 0.00000E+00
 -1      3783 1.10543E+02 1.66011E+01 0.00000E+00
 -1      3784 4.97850E+01 1.56973E+01 0.00000E+00
 -1      3785 4.82850E+01 1.56973E+01 0.00000E+00
 -1      3786 4.75350E+01 1.69963E+01 0.00000E+00
 -1      3787 1.10561E+02 2.08403E+01 0.00000E+00
 -1      3788 1.11531E+02 1.81027E+01 0.00000E+00
 -1      3789 1.11179E+02 1.72421E+01 0.00000E+00
 -1      3790 1.09671E+02 1.76372E+01 0.00000E+00
 -1      3791 1.10942E+02 1.89191E+01 0.00000E+00
 -1      3792 1.09869E+02 2.43146E+01 0.00000E+00
 -1      3793 1.09023E+02 2.32374E+01 0.00000E+00
 -1      3794 1.09346E+02 2.54314E+01 0.00000E+00
 -1      3795 1.10299E+02 2.86251E+01 0.00000E+00
 -1      3796 1.09578E+02 2.77937E+01 0.00000E+00
 -1      3797 1.09685E+02 2.99102E+01 0.00000E+00
 -1      3798 2.11500E+01 3.18140E+01 0.00000E+00
 -1      3799 4.07850E+01 1.56973E+01 0.00000E+00
 -1      3800 3.92850E+01 1.56973E+01 0.00000E+00
 -1      3801 4.15350E+01 1.69963E+01 0.00000E+00
 -1      3802 1.76190E+01 3.06007E+01 0.00000E+00
 -1      3803 1.75576E+01 3.30588E+01 0.00000E+00
 -1      3804 2.27850E+01 1.56973E+01 0.00000E+00
 -1      3805 2.12850E+01 1.56973E+01 0.00000E+00
 -1      3806 1.76190E+01 2.76601E+01 0.00000E+00
 -1      3807 1.76190E+01 2.91304E+01 0.00000E+00
 -1      3808 1.96500E+01 3.03437E+01 0.00000E+00
 -1      3809 3.47850E+01 1.56973E+01 0.00000E+00
 -1      3810 3.32850E+01 1.56973E+01 0.00000E+00
 -1      3811 3.25350E+01 1.69963E+01 0.00000E+00
 -1      3812 1.07964E+02 3.21954E+01 0.00000E+00
 -1      3813 5.05350E+01 1.69963E+01 0.00000E+00
 -1      3814 2.01105E+01 1.80387E+01 0.00000E+00
 -1      3815 1.93605E+01 1.67397E+01 0.00000E+00
 -1      3816 1.78605E+01 1.67398E+01 0.00000E+00
 -1      3817 2.16915E+01 1.86597E+01 0.00000E+00
 -1      3818 1.97670E+01 1.97022E+01 0.00000E+00
 -1      3819 2.95350E+01 1.69963E+01 0.00000E+00
 -1      3820 2.87850E+01 1.56973E+01 0.00000E+00
 -1      3821 2.72850E+01 1.56973E+01 0.00000E+00
 -1      3822 5.42850E+01 1.82952E+01 0.00000E+00
 -1      3823 5.27850E+01 1.82952E+01 0.00000E+00
 -1      3824 2.94000E+01 3.05150E+01 0.00000E+00
 -1      3825 3.09000E+01 3.05150E+01 0.00000E+00
 -1      3826 3.24000E+01 3.05150E+01 0.00000E+00
 -1      3827 3.39000E+01 3.05150E+01 0.00000E+00
 -1      3828 3.16500E+01 2.92160E+01 0.00000E+00
 -1      3829 3.54000E+01 3.05150E+01 0.00000E+00
 -1      3830 3.69000E+01 3.05150E+01 0.00000E+00
 -1      3831 3.46500E+01 2.92160E+01 0.00000E+00
 -1      3832 3.84000E+01 3.05150E+01 0.00000E+00
 -1      3833 3.99000E+01 3.05150E+01 0.00000E+00
 -1      3834 3.76500E+01 2.92160E+01 0.00000E+00
 -1      3835 4.14000E+01 3.05150E+01 0.00000E+00
 -1      3836 4.29000E+01 3.05150E+01 0.00000E+00
 -1      3837 4.06500E+01 2.92160E+01 0.00000E+00
 -1      3838 4.44000E+01 3.05150E+01 0.00000E+00
 -1      3839 4.59000E+01 3.05150E+01 0.00000E+00
 -1      3840 4.36500E+01 2.92160E+01 0.00000E+00
 -1      3841 4.74000E+01 3.05150E+01 0.00000E+00
 -1      3842 4.89000E+01 3.05150E+01 0.00000E+00
 -1      3843 4.66500E+01 2.92160E+01 0.00000E+00
 -1      3844 5.04000E+01 3.05150E+01 0.00000E+00
 -1      3845 5.19000E+01 3.05150E+01 0.00000E+00
 -1      3846 4.96500E+01 2.92160E+01 0.00000E+00
 -1      3847 5.34000E+01 3.05150E+01 0.00000E+00
 -1      3848 5.49000E+01 3.05150E+01 0.00000E+00
 -1      3849 5.26500E+01 2.92160E+01 0.00000E+00
 -1      3850 5.64000E+01 3.05150E+01 0.00000E+00
 -1      3851 5.79000E+01 3.05150E+01 0.00000E+00
 -1      3852 5.56500E+01 2.92160E+01 0.00000E+00
 -1      3853 5.94000E+01 3.05150E+01 0.00000E+00
 -1      3854 6.09000E+01 3.05150E+01 0.00000E+00
 -1      3855 5.86500E+01 2.92160E+01 0.00000E+00
 -1      3856 6.24000E+01 3.05150E+01 0.00000E+00
 -1      3857 6.39000E+01 3.05150E+01 0.00000E+00
 -1      3858 6.16500E+01 2.92160E+01 0.00000E+00
 -1      3859 6.54000E+01 3.05150E+01 0.00000E+00
 -1      3860 6.69000E+01 3.05150E+01 0.00000E+00
 -1      3861 6.46500E+01 2.92160E+01 0.00000E+00
 -1      3862 6.84000E+01 3.05150E+01 0.00000E+00
 -1      3863 6.99000E+01 3.05150E+01 0.00000E+00
 -1      3864 6.76500E+01 2.92160E+01 0.00000E+00
 -1      3865 7.14000E+01 3.05150E+01 0.00000E+00
 -1      3866 7.29000E+01 3.05150E+01 0.00000E+00
 -1      3867 7.06500E+01 2.92160E+01 0.00000E+00
 -1      3868 7.44000E+01 3.05150E+01 0.00000E+00
 -1      3869 7.59000E+01 3.05150E+01 0.00000E+00
 -1      3870 7.36500E+01 2.92160E+01 0.00000E+00
 -1      3871 7.74000E+01 3.05150E+01 0.00000E+00
 -1      3872 7.89000E+01 3.05150E+01 0.00000E+00
 -1      3873 7.66500E+01 2.92160E+01 0.00000E+00
 -1      3874 8.04000E+01 3.05150E+01 0.00000E+00
 -1      3875 8.19000E+01 3.05150E+01 0.00000E+00
 -1      3876 7.96500E+01 2.92160E+01 0.00000E+00
 -1      3877 8.34000E+01 3.05150E+01 0.00000E+00
 -1      3878 8.49000E+01 3.05150E+01 0.00000E+00
 -1      3879 8.26500E+01 2.92160E+01 0.00000E+00
 -1      3880 8.64000E+01 3.05150E+01 0.00000E+00
 -1      3881 8.79000E+01 3.05150E+01 0.00000E+00
 -1      3882 8.56500E+01 2.92160E+01 0.00000E+00
 -1      3883 8.94000E+01 3.05150E+01 0.00000E+00
 -1      3884 9.09000E+01 3.05150E+01 0.00000E+00
 -1      3885 8.86500E+01 2.92160E+01 0.00000E+00
 -1      3886 9.24000E+01 3.05150E+01 0.00000E+00
 -1      3887 9.39000E+01 3.05150E+01 0.00000E+00
 -1      3888 9.16500E+01 2.92160E+01 0.00000E+00
 -1      3889 9.54000E+01 3.05150E+01 0.00000E+00
 -1      3890 9.69000E+01 3.05150E+01 0.00000E+00
 -1      3891 9.46500E+01 2.92160E+01 0.00000E+00
 -1      3892 9.84000E+01 3.05150E+01 0.00000E+00
 -1      3893 9.99000E+01 3.05150E+01 0.00000E+00
 -1      3894 9.76500E+01 2.92160E+01 0.00000E+00
 -1      3895 1.01400E+02 3.05150E+01 0.00000E+00
 -1      3896 1.02900E+02 3.05150E+01 0.00000E+00
 -1      3897 1.00650E+02 2.92160E+01 0.00000E+00
 -1      3898 1.04400E+02 3.05150E+01 0.00000E+00
 -1      3899 1.05900E+02 3.05150E+01 0.00000E+00
 -1      3900 1.03650E+02 2.92160E+01 0.00000E+00
 -1      3901 6.92850E+01 1.82952E+01 0.00000E+00
 -1      3902 6.77850E+01 1.82952E+01 0.00000E+00
 -1      3903 6.62850E+01 1.82952E+01 0.00000E+00
 -1      3904 6.47850E+01 1.82952E+01 0.00000E+00
 -1      3905 6.70350E+01 1.95942E+01 0.00000E+00
 -1      3906 6.32850E+01 1.82952E+01 0.00000E+00
 -1      3907 6.17850E+01 1.82952E+01 0.00000E+00
 -1      3908 6.40350E+01 1.95942E+01 0.00000E+00
 -1      3909 7.22850E+01 1.82952E+01 0.00000E+00
 -1      3910 7.07850E+01 1.82952E+01 0.00000E+00
 -1      3911 7.00350E+01 1.95942E+01 0.00000E+00
 -1      3912 7.52850E+01 1.82952E+01 0.00000E+00
 -1      3913 7.37850E+01 1.82952E+01 0.00000E+00
 -1      3914 7.30350E+01 1.95942E+01 0.00000E+00
 -1      3915 7.82850E+01 1.82952E+01 0.00000E+00
 -1      3916 7.67850E+01 1.82952E+01 0.00000E+00
 -1      3917 7.60350E+01 1.95942E+01 0.00000E+00
 -1      3918 8.12850E+01 1.82952E+01 0.00000E+00
 -1      3919 7.97850E+01 1.82952E+01 0.00000E+00
 -1      3920 7.90350E+01 1.95942E+01 0.00000E+00
 -1      3921 8.42850E+01 1.82952E+01 0.00000E+00
 -1      3922 8.27850E+01 1.82952E+01 0.00000E+00
 -1      3923 8.20350E+01 1.95942E+01 0.00000E+00
 -1      3924 8.72850E+01 1.82952E+01 0.00000E+00
 -1      3925 8.57850E+01 1.82952E+01 0.00000E+00
 -1      3926 8.50350E+01 1.95942E+01 0.00000E+00
 -1      3927 9.02850E+01 1.82952E+01 0.00000E+00
 -1      3928 8.87850E+01 1.82952E+01 0.00000E+00
 -1      3929 8.80350E+01 1.95942E+01 0.00000E+00
 -1      3930 9.32850E+01 1.82952E+01 0.00000E+00
 -1      3931 9.17850E+01 1.82952E+01 0.00000E+00
 -1      3932 9.10350E+01 1.95942E+01 0.00000E+00
 -1      3933 9.62850E+01 1.82952E+01 0.00000E+00
 -1      3934 9.47850E+01 1.82952E+01 0.00000E+00
 -1      3935 9.40350E+01 1.95942E+01 0.00000E+00
 -1      3936 9.92850E+01 1.82952E+01 0.00000E+00
 -1      3937 9.77850E+01 1.82952E+01 0.00000E+00
 -1      3938 9.70350E+01 1.95942E+01 0.00000E+00
 -1      3939 1.02285E+02 1.82952E+01 0.00000E+00
 -1      3940 1.00785E+02 1.82952E+01 0.00000E+00
 -1      3941 1.00035E+02 1.95942E+01 0.00000E+00
 -1      3942 1.05285E+02 1.82952E+01 0.00000E+00
 -1      3943 1.03785E+02 1.82952E+01 0.00000E+00
 -1      3944 1.03035E+02 1.95942E+01 0.00000E+00
 -1      3945 1.08285E+02 1.82952E+01 0.00000E+00
 -1      3946 1.06785E+02 1.82952E+01 0.00000E+00
 -1      3947 1.06035E+02 1.95942E+01 0.00000E+00
 -1      3948 3.77850E+01 1.56973E+01 0.00000E+00
 -1      3949 3.62850E+01 1.56973E+01 0.00000E+00
 -1      3950 3.55350E+01 1.69963E+01 0.00000E+00
 -1      3951 3.85350E+01 1.69963E+01 0.00000E+00
 -1      3952 2.34000E+01 3.05150E+01 0.00000E+00
 -1      3953 2.49000E+01 3.05150E+01 0.00000E+00
 -1      3954 1.68870E+01 2.42391E+01 0.00000E+00
 -1      3955 1.68870E+01 2.57094E+01 0.00000E+00
 -1      3956 1.81860E+01 2.35016E+01 0.00000E+00
 -1      3957 6.02850E+01 1.82952E+01 0.00000E+00
 -1      3958 5.87850E+01 1.82952E+01 0.00000E+00
 -1      3959 6.10350E+01 1.95942E+01 0.00000E+00
 -1      3960 5.72850E+01 1.82952E+01 0.00000E+00
 -1      3961 5.57850E+01 1.82952E+01 0.00000E+00
 -1      3962 5.50350E+01 1.95942E+01 0.00000E+00
 -1      3963 2.57850E+01 1.56973E+01 0.00000E+00
 -1      3964 2.42850E+01 1.56973E+01 0.00000E+00
 -1      3965 2.35350E+01 1.69963E+01 0.00000E+00
 -1      3966 2.07750E+01 3.04293E+01 0.00000E+00
 -1      3967 2.22750E+01 3.04293E+01 0.00000E+00
 -1      3968 2.30250E+01 2.91303E+01 0.00000E+00
 -1      3969 2.07750E+01 2.89590E+01 0.00000E+00
 -1      3970 1.08543E+02 3.15116E+01 0.00000E+00
 -1      3971 1.09107E+02 3.05940E+01 0.00000E+00
 -1      3972 1.08386E+02 2.97625E+01 0.00000E+00
 -1      3973 1.07229E+02 3.11302E+01 0.00000E+00
 -1      3974 2.64000E+01 3.05150E+01 0.00000E+00
 -1      3975 2.79000E+01 3.05150E+01 0.00000E+00
 -1      3976 2.56500E+01 2.92160E+01 0.00000E+00
 -1      3977 5.12850E+01 1.82952E+01 0.00000E+00
 -1      3978 4.97850E+01 1.82952E+01 0.00000E+00
 -1      3979 5.20350E+01 1.95942E+01 0.00000E+00
 -1      3980 2.65350E+01 1.69963E+01 0.00000E+00
 -1      3981 2.46915E+01 1.86597E+01 0.00000E+00
 -1      3982 2.31915E+01 1.86597E+01 0.00000E+00
 -1      3983 2.28479E+01 2.03231E+01 0.00000E+00
 -1      3984 1.06479E+02 2.98312E+01 0.00000E+00
 -1      3985 1.97670E+01 2.11772E+01 0.00000E+00
 -1      3986 1.09250E+02 2.08432E+01 0.00000E+00
 -1      3987 1.10266E+02 1.95629E+01 0.00000E+00
 -1      3988 4.82850E+01 1.82952E+01 0.00000E+00
 -1      3989 4.67850E+01 1.82952E+01 0.00000E+00
 -1      3990 4.90350E+01 1.95942E+01 0.00000E+00
 -1      3991 1.09631E+02 1.89220E+01 0.00000E+00
 -1      3992 1.89180E+01 2.69226E+01 0.00000E+00
 -1      3993 4.52850E+01 1.82952E+01 0.00000E+00
 -1      3994 4.37850E+01 1.82952E+01 0.00000E+00
 -1      3995 4.60350E+01 1.95942E+01 0.00000E+00
 -1      3996 1.08119E+02 2.80015E+01 0.00000E+00
 -1      3997 1.08733E+02 2.67164E+01 0.00000E+00
 -1      3998 1.07887E+02 2.56392E+01 0.00000E+00
 -1      3999 1.08995E+02 1.82810E+01 0.00000E+00
 -1      4000 1.07585E+02 2.32453E+01 0.00000E+00
 -1      4001 1.08107E+02 2.21285E+01 0.00000E+00
 -1      4002 4.30350E+01 1.95942E+01 0.00000E+00
 -1      4003 4.22850E+01 1.82952E+01 0.00000E+00
 -1      4004 4.07850E+01 1.82952E+01 0.00000E+00
 -1      4005 3.32850E+01 1.82952E+01 0.00000E+00
 -1      4006 3.17850E+01 1.82952E+01 0.00000E+00
 -1      4007 5.80350E+01 1.95942E+01 0.00000E+00
 -1      4008 2.86500E+01 2.92160E+01 0.00000E+00
 -1      4009 1.07813E+02 2.08511E+01 0.00000E+00
 -1      4010 3.02850E+01 1.82952E+01 0.00000E+00
 -1      4011 2.87850E+01 1.82952E+01 0.00000E+00
 -1      4012 3.10350E+01 1.95942E+01 0.00000E+00
 -1      4013 3.39000E+01 2.79170E+01 0.00000E+00
 -1      4014 3.54000E+01 2.79170E+01 0.00000E+00
 -1      4015 3.69000E+01 2.79170E+01 0.00000E+00
 -1      4016 3.84000E+01 2.79170E+01 0.00000E+00
 -1      4017 3.61500E+01 2.66180E+01 0.00000E+00
 -1      4018 3.99000E+01 2.79170E+01 0.00000E+00
 -1      4019 4.14000E+01 2.79170E+01 0.00000E+00
 -1      4020 3.91500E+01 2.66180E+01 0.00000E+00
 -1      4021 4.29000E+01 2.79170E+01 0.00000E+00
 -1      4022 4.44000E+01 2.79170E+01 0.00000E+00
 -1      4023 4.21500E+01 2.66180E+01 0.00000E+00
 -1      4024 4.59000E+01 2.79170E+01 0.00000E+00
 -1      4025 4.74000E+01 2.79170E+01 0.00000E+00
 -1      4026 4.51500E+01 2.66180E+01 0.00000E+00
 -1      4027 4.89000E+01 2.79170E+01 0.00000E+00
 -1      4028 5.04000E+01 2.79170E+01 0.00000E+00
 -1      4029 4.81500E+01 2.66180E+01 0.00000E+00
 -1      4030 5.19000E+01 2.79170E+01 0.00000E+00
 -1      4031 5.34000E+01 2.79170E+01 0.00000E+00
 -1      4032 5.11500E+01 2.66180E+01 0.00000E+00
 -1      4033 5.49000E+01 2.79170E+01 0.00000E+00
 -1      4034 5.64000E+01 2.79170E+01 0.00000E+00
 -1      4035 5.41500E+01 2.66180E+01 0.00000E+00
 -1      4036 5.79000E+01 2.79170E+01 0.00000E+00
 -1      4037 5.94000E+01 2.79170E+01 0.00000E+00
 -1      4038 5.71500E+01 2.66180E+01 0.00000E+00
 -1      4039 6.09000E+01 2.79170E+01 0.00000E+00
 -1      4040 6.24000E+01 2.79170E+01 0.00000E+00
 -1      4041 6.01500E+01 2.66180E+01 0.00000E+00
 -1      4042 6.39000E+01 2.79170E+01 0.00000E+00
 -1      4043 6.54000E+01 2.79170E+01 0.00000E+00
 -1      4044 6.31500E+01 2.66180E+01 0.00000E+00
 -1      4045 6.69000E+01 2.79170E+01 0.00000E+00
 -1      4046 6.84000E+01 2.79170E+01 0.00000E+00
 -1      4047 6.61500E+01 2.66180E+01 0.00000E+00
 -1      4048 6.99000E+01 2.79170E+01 0.00000E+00
 -1      4049 7.14000E+01 2.79170E+01 0.00000E+00
 -1      4050 6.91500E+01 2.66180E+01 0.00000E+00
 -1      4051 7.29000E+01 2.79170E+01 0.00000E+00
 -1      4052 7.44000E+01 2.79170E+01 0.00000E+00
 -1      4053 7.21500E+01 2.66180E+01 0.00000E+00
 -1      4054 7.59000E+01 2.79170E+01 0.00000E+00
 -1      4055 7.74000E+01 2.79170E+01 0.00000E+00
 -1      4056 7.51500E+01 2.66180E+01 0.00000E+00
 -1      4057 7.89000E+01 2.79170E+01 0.00000E+00
 -1      4058 8.04000E+01 2.79170E+01 0.00000E+00
 -1      4059 7.81500E+01 2.66180E+01 0.00000E+00
 -1      4060 8.19000E+01 2.79170E+01 0.00000E+00
 -1      4061 8.34000E+01 2.79170E+01 0.00000E+00
 -1      4062 8.11500E+01 2.66180E+01 0.00000E+00
 -1      4063 8.49000E+01 2.79170E+01 0.00000E+00
 -1      4064 8.64000E+01 2.79170E+01 0.00000E+00
 -1      4065 8.41500E+01 2.66180E+01 0.00000E+00
 -1      4066 8.79000E+01 2.79170E+01 0.00000E+00
 -1      4067 8.94000E+01 2.79170E+01 0.00000E+00
 -1      4068 8.71500E+01 2.66180E+01 0.00000E+00
 -1      4069 9.09000E+01 2.79170E+01 0.00000E+00
 -1      4070 9.24000E+01 2.79170E+01 0.00000E+00
 -1      4071 9.01500E+01 2.66180E+01 0.00000E+00
 -1      4072 9.39000E+01 2.79170E+01 0.00000E+00
 -1      4073 9.54000E+01 2.79170E+01 0.00000E+00
 -1      4074 9.31500E+01 2.66180E+01 0.00000E+00
 -1      4075 9.69000E+01 2.79170E+01 0.00000E+00
 -1      4076 9.84000E+01 2.79170E+01 0.00000E+00
 -1      4077 9.61500E+01 2.66180E+01 0.00000E+00
 -1      4078 9.99000E+01 2.79170E+01 0.00000E+00
 -1      4079 1.01400E+02 2.79170E+01 0.00000E+00
 -1      4080 9.91500E+01 2.66180E+01 0.00000E+00
 -1      4081 1.02900E+02 2.79170E+01 0.00000E+00
 -1      4082 1.04400E+02 2.79170E+01 0.00000E+00
 -1      4083 1.02150E+02 2.66180E+01 0.00000E+00
 -1      4084 6.77850E+01 2.08932E+01 0.00000E+00
 -1      4085 6.62850E+01 2.08932E+01 0.00000E+00
 -1      4086 7.07850E+01 2.08932E+01 0.00000E+00
 -1      4087 6.92850E+01 2.08932E+01 0.00000E+00
 -1      4088 6.85350E+01 2.21922E+01 0.00000E+00
 -1      4089 1.05729E+02 2.85322E+01 0.00000E+00
 -1      4090 1.07058E+02 2.91474E+01 0.00000E+00
 -1      4091 1.07636E+02 2.84635E+01 0.00000E+00
 -1      4092 1.04979E+02 2.72332E+01 0.00000E+00
 -1      4093 6.47850E+01 2.08932E+01 0.00000E+00
 -1      4094 6.32850E+01 2.08932E+01 0.00000E+00
 -1      4095 6.55350E+01 2.21922E+01 0.00000E+00
 -1      4096 7.67850E+01 2.08932E+01 0.00000E+00
 -1      4097 7.52850E+01 2.08932E+01 0.00000E+00
 -1      4098 7.97850E+01 2.08932E+01 0.00000E+00
 -1      4099 7.82850E+01 2.08932E+01 0.00000E+00
 -1      4100 7.75350E+01 2.21922E+01 0.00000E+00
 -1      4101 8.27850E+01 2.08932E+01 0.00000E+00
 -1      4102 8.12850E+01 2.08932E+01 0.00000E+00
 -1      4103 8.05350E+01 2.21922E+01 0.00000E+00
 -1      4104 8.57850E+01 2.08932E+01 0.00000E+00
 -1      4105 8.42850E+01 2.08932E+01 0.00000E+00
 -1      4106 8.35350E+01 2.21922E+01 0.00000E+00
 -1      4107 8.87850E+01 2.08932E+01 0.00000E+00
 -1      4108 8.72850E+01 2.08932E+01 0.00000E+00
 -1      4109 8.65350E+01 2.21922E+01 0.00000E+00
 -1      4110 9.17850E+01 2.08932E+01 0.00000E+00
 -1      4111 9.02850E+01 2.08932E+01 0.00000E+00
 -1      4112 8.95350E+01 2.21922E+01 0.00000E+00
 -1      4113 9.47850E+01 2.08932E+01 0.00000E+00
 -1      4114 9.32850E+01 2.08932E+01 0.00000E+00
 -1      4115 9.25350E+01 2.21922E+01 0.00000E+00
 -1      4116 9.77850E+01 2.08932E+01 0.00000E+00
 -1      4117 9.62850E+01 2.08932E+01 0.00000E+00
 -1      4118 9.55350E+01 2.21922E+01 0.00000E+00
 -1      4119 1.00785E+02 2.08932E+01 0.00000E+00
 -1      4120 9.92850E+01 2.08932E+01 0.00000E+00
 -1      4121 9.85350E+01 2.21922E+01 0.00000E+00
 -1      4122 1.03785E+02 2.08932E+01 0.00000E+00
 -1      4123 1.02285E+02 2.08932E+01 0.00000E+00
 -1      4124 1.01535E+02 2.21922E+01 0.00000E+00
 -1      4125 1.08245E+02 1.95800E+01 0.00000E+00
 -1      4126 1.97670E+01 2.26475E+01 0.00000E+00
 -1      4127 1.97670E+01 2.41178E+01 0.00000E+00
 -1      4128 2.13479E+01 2.17934E+01 0.00000E+00
 -1      4129 3.09000E+01 2.79170E+01 0.00000E+00
 -1      4130 3.24000E+01 2.79170E+01 0.00000E+00
 -1      4131 3.31500E+01 2.66180E+01 0.00000E+00
 -1      4132 2.49000E+01 2.79170E+01 0.00000E+00
 -1      4133 2.64000E+01 2.79170E+01 0.00000E+00
 -1      4134 2.74882E+01 1.84775E+01 0.00000E+00
 -1      4135 2.59882E+01 1.84775E+01 0.00000E+00
 -1      4136 2.56447E+01 2.01409E+01 0.00000E+00
 -1      4137 2.82382E+01 1.97765E+01 0.00000E+00
 -1      4138 3.47850E+01 1.82952E+01 0.00000E+00
 -1      4139 3.40350E+01 1.95942E+01 0.00000E+00
 -1      4140 3.62850E+01 1.82952E+01 0.00000E+00
 -1      4141 5.87850E+01 2.08932E+01 0.00000E+00
 -1      4142 5.72850E+01 2.08932E+01 0.00000E+00
 -1      4143 5.57850E+01 2.08932E+01 0.00000E+00
 -1      4144 5.42850E+01 2.08932E+01 0.00000E+00
 -1      4145 5.65350E+01 2.21922E+01 0.00000E+00
 -1      4146 6.17850E+01 2.08932E+01 0.00000E+00
 -1      4147 6.02850E+01 2.08932E+01 0.00000E+00
 -1      4148 5.95350E+01 2.21922E+01 0.00000E+00
 -1      4149 7.37850E+01 2.08932E+01 0.00000E+00
 -1      4150 7.22850E+01 2.08932E+01 0.00000E+00
 -1      4151 7.15350E+01 2.21922E+01 0.00000E+00
 -1      4152 7.45350E+01 2.21922E+01 0.00000E+00
 -1      4153 2.79000E+01 2.79170E+01 0.00000E+00
 -1      4154 2.94000E+01 2.79170E+01 0.00000E+00
 -1      4155 3.01500E+01 2.66180E+01 0.00000E+00
 -1      4156 5.27850E+01 2.08932E+01 0.00000E+00
 -1      4157 5.12850E+01 2.08932E+01 0.00000E+00
 -1      4158 5.35350E+01 2.21922E+01 0.00000E+00
 -1      4159 1.99050E+01 2.55630E+01 0.00000E+00
 -1      4160 2.06370E+01 2.75138E+01 0.00000E+00
 -1      4161 2.17620E+01 2.75995E+01 0.00000E+00
 -1      4162 2.14860E+01 2.47090E+01 0.00000E+00
 -1      4163 4.97850E+01 2.08932E+01 0.00000E+00
 -1      4164 4.82850E+01 2.08932E+01 0.00000E+00
 -1      4165 5.05350E+01 2.21922E+01 0.00000E+00
 -1      4166 6.25350E+01 2.21922E+01 0.00000E+00
 -1      4167 3.47850E+01 2.08932E+01 0.00000E+00
 -1      4168 3.32850E+01 2.08932E+01 0.00000E+00
 -1      4169 1.05602E+02 2.08654E+01 0.00000E+00
 -1      4170 1.04852E+02 2.21644E+01 0.00000E+00
 -1      4171 2.28479E+01 2.17934E+01 0.00000E+00
 -1      4172 3.92850E+01 1.82952E+01 0.00000E+00
 -1      4173 3.77850E+01 1.82952E+01 0.00000E+00
 -1      4174 3.70350E+01 1.95942E+01 0.00000E+00
 -1      4175 4.00350E+01 1.95942E+01 0.00000E+00
 -1      4176 4.67850E+01 2.08932E+01 0.00000E+00
 -1      4177 4.52850E+01 2.08932E+01 0.00000E+00
 -1      4178 4.75350E+01 2.21922E+01 0.00000E+00
 -1      4179 2.27685E+01 2.77154E+01 0.00000E+00
 -1      4180 2.38935E+01 2.78011E+01 0.00000E+00
 -1      4181 2.46435E+01 2.65021E+01 0.00000E+00
 -1      4182 2.26305E+01 2.62702E+01 0.00000E+00
 -1      4183 4.37850E+01 2.08932E+01 0.00000E+00
 -1      4184 4.22850E+01 2.08932E+01 0.00000E+00
 -1      4185 4.45350E+01 2.21922E+01 0.00000E+00
 -1      4186 1.07041E+02 2.46267E+01 0.00000E+00
 -1      4187 1.06126E+02 2.35179E+01 0.00000E+00
 -1      4188 1.04308E+02 2.35457E+01 0.00000E+00
 -1      4189 3.25350E+01 2.21922E+01 0.00000E+00
 -1      4190 3.17850E+01 2.08932E+01 0.00000E+00
 -1      4191 3.02850E+01 2.08932E+01 0.00000E+00
 -1      4192 2.71500E+01 2.66180E+01 0.00000E+00
 -1      4193 1.06428E+02 2.59117E+01 0.00000E+00
 -1      4194 1.07102E+02 2.08654E+01 0.00000E+00
 -1      4195 3.62850E+01 2.08932E+01 0.00000E+00
 -1      4196 3.55350E+01 2.21922E+01 0.00000E+00
 -1      4197 3.77850E+01 2.08932E+01 0.00000E+00
 -1      4198 3.84000E+01 2.53190E+01 0.00000E+00
 -1      4199 3.99000E+01 2.53190E+01 0.00000E+00
 -1      4200 4.18425E+01 2.44051E+01 0.00000E+00
 -1      4201 4.33425E+01 2.44051E+01 0.00000E+00
 -1      4202 4.48425E+01 2.44051E+01 0.00000E+00
 -1      4203 4.63425E+01 2.44051E+01 0.00000E+00
 -1      4204 4.78425E+01 2.44051E+01 0.00000E+00
 -1      4205 4.93425E+01 2.44051E+01 0.00000E+00
 -1      4206 5.08425E+01 2.44051E+01 0.00000E+00
 -1      4207 5.23425E+01 2.44051E+01 0.00000E+00
 -1      4208 5.38425E+01 2.44051E+01 0.00000E+00
 -1      4209 5.53425E+01 2.44051E+01 0.00000E+00
 -1      4210 5.68425E+01 2.44051E+01 0.00000E+00
 -1      4211 5.83425E+01 2.44051E+01 0.00000E+00
 -1      4212 5.98425E+01 2.44051E+01 0.00000E+00
 -1      4213 6.13425E+01 2.44051E+01 0.00000E+00
 -1      4214 6.28425E+01 2.44051E+01 0.00000E+00
 -1      4215 6.43425E+01 2.44051E+01 0.00000E+00
 -1      4216 6.58425E+01 2.44051E+01 0.00000E+00
 -1      4217 6.73425E+01 2.44051E+01 0.00000E+00
 -1      4218 6.88425E+01 2.44051E+01 0.00000E+00
 -1      4219 7.03425E+01 2.44051E+01 0.00000E+00
 -1      4220 7.18425E+01 2.44051E+01 0.00000E+00
 -1      4221 7.33425E+01 2.44051E+01 0.00000E+00
 -1      4222 7.48425E+01 2.44051E+01 0.00000E+00
 -1      4223 7.63425E+01 2.44051E+01 0.00000E+00
 -1      4224 7.78425E+01 2.44051E+01 0.00000E+00
 -1      4225 7.93425E+01 2.44051E+01 0.00000E+00
 -1      4226 8.08425E+01 2.44051E+01 0.00000E+00
 -1      4227 8.23425E+01 2.44051E+01 0.00000E+00
 -1      4228 8.38425E+01 2.44051E+01 0.00000E+00
 -1      4229 8.53425E+01 2.44051E+01 0.00000E+00
 -1      4230 8.68425E+01 2.44051E+01 0.00000E+00
 -1      4231 8.83425E+01 2.44051E+01 0.00000E+00
 -1      4232 8.98425E+01 2.44051E+01 0.00000E+00
 -1      4233 9.13425E+01 2.44051E+01 0.00000E+00
 -1      4234 9.28425E+01 2.44051E+01 0.00000E+00
 -1      4235 9.43425E+01 2.44051E+01 0.00000E+00
 -1      4236 9.58425E+01 2.44051E+01 0.00000E+00
 -1      4237 9.73425E+01 2.44051E+01 0.00000E+00
 -1      4238 9.88425E+01 2.44051E+01 0.00000E+00
 -1      4239 1.00342E+02 2.44051E+01 0.00000E+00
 -1      4240 1.06791E+02 2.73863E+01 0.00000E+00
 -1      4241 1.01842E+02 2.44051E+01 0.00000E+00
 -1      4242 2.45072E+01 2.19859E+01 0.00000E+00
 -1      4243 2.30072E+01 2.34563E+01 0.00000E+00
 -1      4244 2.94000E+01 2.53190E+01 0.00000E+00
 -1      4245 3.09000E+01 2.53190E+01 0.00000E+00
 -1      4246 3.28425E+01 2.44051E+01 0.00000E+00
 -1      4247 3.43425E+01 2.44051E+01 0.00000E+00
 -1      4248 3.58425E+01 2.44051E+01 0.00000E+00
 -1      4249 3.73425E+01 2.44051E+01 0.00000E+00
 -1      4250 3.80925E+01 2.31061E+01 0.00000E+00
 -1      4251 3.20925E+01 2.31061E+01 0.00000E+00
 -1      4252 2.66583E+01 2.51334E+01 0.00000E+00
 -1      4253 2.74083E+01 2.38344E+01 0.00000E+00
 -1      4254 1.03342E+02 2.44051E+01 0.00000E+00
 -1      4255 1.04616E+02 2.57586E+01 0.00000E+00
 -1      4256 1.05945E+02 2.63738E+01 0.00000E+00
 -1      4257 2.58040E+01 2.18037E+01 0.00000E+00
 -1      4258 4.10925E+01 2.31061E+01 0.00000E+00
 -1      4259 4.03425E+01 2.18071E+01 0.00000E+00
 -1      4260 2.31453E+01 2.49015E+01 0.00000E+00
 -1      4261 2.51583E+01 2.51334E+01 0.00000E+00
 -1      4262 3.88425E+01 2.18071E+01 0.00000E+00
 -1      4263 2.95350E+01 2.21923E+01 0.00000E+00
 -1      4264 2.87850E+01 2.08933E+01 0.00000E+00
 -1      4265 2.74883E+01 2.10755E+01 0.00000E+00
 -1      4266 2.41518E+01 2.50174E+01 0.00000E+00
 -1      4267 2.63508E+01 2.29205E+01 0.00000E+00
 -1      4268 3.05925E+01 2.31061E+01 0.00000E+00
 -1      4269 2.90925E+01 2.31061E+01 0.00000E+00
 -3
    3C                          2053                                     1
 -1       164    8    0    1
 -2         6         7        23      1109      1272      1126
 -1       165    8    0    1
 -2         7         8       164      1110      1273      1274
 -1       166    8    0    1
 -2         8         9       165      1111      1275      1276
 -1       167    8    0    1
 -2         8       165       164      1276      1277      1273
 -1       168    8    0    1
 -2         9        10       166      1112      1278      1279
 -1       169    8    0    1
 -2         9       166       165      1279      1280      1275
 -1       170    8    0    1
 -2        10        11       167      1113      1281      1282
 -1       171    8    0    1
 -2        10       167       166      1282      1283      1278
 -1       172    8    0    1
 -2        11        12       168      1114      1284      1285
 -1       173    8    0    1
 -2        11       168       167      1285      1286      1281
 -1       174    8    0    1
 -2        12        13       169      1115      1287      1288
 -1       175    8    0    1
 -2        12       169       168      1288      1289      1284
 -1       176    8    0    1
 -2        13        14       170      1116      1290      1291
 -1       177    8    0    1
 -2        13       170       169      1291      1292      1287
 -1       178    8    0    1
 -2        14        15       171      1117      1293      1294
 -1       179    8    0    1
 -2        14       171       170      1294      1295      1290
 -1       180    8    0    1
 -2        15        16       172      1118      1296      1297
 -1       181    8    0    1
 -2        15       172       171      1297      1298      1293
 -1       182    8    0    1
 -2        16        17       173      1119      1299      1300
 -1       183    8    0    1
 -2        16       173       172      1300      1301      1296
 -1       184    8    0    1
 -2        17        18       174      1120      1302      1303
 -1       185    8    0    1
 -2        17       174       173      1303      1304      1299
 -1       186    8    0    1
 -2        18        19       175      1121      1305      1306
 -1       187    8    0    1
 -2        18       175       174      1306      1307      1302
 -1       188    8    0    1
 -2        19        20       176      1122      1308      1309
 -1       189    8    0    1
 -2        19       176       175      1309      1310      1305
 -1       190    8    0    1
 -2        20        21       177      1123      1311      1312
 -1       191    8    0    1
 -2        20       177       176      1312      1313      1308
 -1       192    8    0    1
 -2        21        22       178      1124      1314      1315
 -1       193    8    0    1
 -2        21       178       177      1315      1316      1311
 -1       194    8    0    1
 -2        22         5       179      1125      1317      1318
 -1       195    8    0    1
 -2       178        22       179      1314      1318      1319
 -1       196    8    0    1
 -2         5        72       179      1176      1320      1317
 -1       197    8    0    1
 -2        24        23       180      1127      1321      1322
 -1       198    8    0    1
 -2        25        24       181      1128      1323      1324
 -1       199    8    0    1
 -2        24       180       181      1322      1325      1323
 -1       200    8    0    1
 -2        26        25       182      1129      1326      1327
 -1       201    8    0    1
 -2        25       181       182      1324      1328      1326
 -1       202    8    0    1
 -2        27        26       183      1130      1329      1330
 -1       203    8    0    1
 -2        26       182       183      1327      1331      1329
 -1       204    8    0    1
 -2        28        27       184      1131      1332      1333
 -1       205    8    0    1
 -2        27       183       184      1330      1334      1332
 -1       206    8    0    1
 -2        29        28       185      1132      1335      1336
 -1       207    8    0    1
 -2        28       184       185      1333      1337      1335
 -1       208    8    0    1
 -2        30        29       186      1133      1338      1339
 -1       209    8    0    1
 -2        29       185       186      1336      1340      1338
 -1       210    8    0    1
 -2        31        30       187      1134      1341      1342
 -1       211    8    0    1
 -2        30       186       187      1339      1343      1341
 -1       212    8    0    1
 -2        32        31       188      1135      1344      1345
 -1       213    8    0    1
 -2        31       187       188      1342      1346      1344
 -1       214    8    0    1
 -2        33        32       189      1136      1347      1348
 -1       215    8    0    1
 -2        32       188       189      1345      1349      1347
 -1       216    8    0    1
 -2        34        33       190      1137      1350      1351
 -1       217    8    0    1
 -2        33       189       190      1348      1352      1350
 -1       218    8    0    1
 -2        35        34       191      1138      1353      1354
 -1       219    8    0    1
 -2        34       190       191      1351      1355      1353
 -1       220    8    0    1
 -2        36        35       192      1139      1356      1357
 -1       221    8    0    1
 -2        35       191       192      1354      1358      1356
 -1       222    8    0    1
 -2        37        36       193      1140      1359      1360
 -1       223    8    0    1
 -2        36       192       193      1357      1361      1359
 -1       224    8    0    1
 -2        38        37       194      1141      1362      1363
 -1       225    8    0    1
 -2        37       193       194      1360      1364      1362
 -1       226    8    0    1
 -2        39        38       195      1142      1365      1366
 -1       227    8    0    1
 -2        38       194       195      1363      1367      1365
 -1       228    8    0    1
 -2        40        39       196      1143      1368      1369
 -1       229    8    0    1
 -2        39       195       196      1366      1370      1368
 -1       230    8    0    1
 -2        41        40       197      1144      1371      1372
 -1       231    8    0    1
 -2        40       196       197      1369      1373      1371
 -1       232    8    0    1
 -2        42        41       198      1145      1374      1375
 -1       233    8    0    1
 -2        41       197       198      1372      1376      1374
 -1       234    8    0    1
 -2        43        42       199      1146      1377      1378
 -1       235    8    0    1
 -2        42       198       199      1375      1379      1377
 -1       236    8    0    1
 -2        44        43       200      1147      1380      1381
 -1       237    8    0    1
 -2        43       199       200      1378      1382      1380
 -1       238    8    0    1
 -2        45        44       201      1148      1383      1384
 -1       239    8    0    1
 -2        44       200       201      1381      1385      1383
 -1       240    8    0    1
 -2        46        45       202      1149      1386      1387
 -1       241    8    0    1
 -2        45       201       202      1384      1388      1386
 -1       242    8    0    1
 -2        47        46       203      1150      1389      1390
 -1       243    8    0    1
 -2        46       202       203      1387      1391      1389
 -1       244    8    0    1
 -2        48        47       204      1151      1392      1393
 -1       245    8    0    1
 -2        47       203       204      1390      1394      1392
 -1       246    8    0    1
 -2        49        48       205      1152      1395      1396
 -1       247    8    0    1
 -2        48       204       205      1393      1397      1395
 -1       248    8    0    1
 -2        50        49       206      1153      1398      1399
 -1       249    8    0    1
 -2        49       205       206      1396      1400      1398
 -1       250    8    0    1
 -2        51        50       207      1154      1401      1402
 -1       251    8    0    1
 -2        50       206       207      1399      1403      1401
 -1       252    8    0    1
 -2        52        51       208      1155      1404      1405
 -1       253    8    0    1
 -2        51       207       208      1402      1406      1404
 -1       254    8    0    1
 -2        53        52       209      1156      1407      1408
 -1       255    8    0    1
 -2        52       208       209      1405      1409      1407
 -1       256    8    0    1
 -2        54        53       210      1157      1410      1411
 -1       257    8    0    1
 -2        53       209       210      1408      1412      1410
 -1       258    8    0    1
 -2        55        54       211      1158      1413      1414
 -1       259    8    0    1
 -2        54       210       211      1411      1415      1413
 -1       260    8    0    1
 -2        56        55       212      1159      1416      1417
 -1       261    8    0    1
 -2        55       211       212      1414      1418      1416
 -1       262    8    0    1
 -2        57        56       213      1160      1419      1420
 -1       263    8    0    1
 -2        56       212       213      1417      1421      1419
 -1       264    8    0    1
 -2        58        57       214      1161      1422      1423
 -1       265    8    0    1
 -2        57       213       214      1420      1424      1422
 -1       266    8    0    1
 -2        59        58       215      1162      1425      1426
 -1       267    8    0    1
 -2        58       214       215      1423      1427      1425
 -1       268    8    0    1
 -2        60        59       216      1163      1428      1429
 -1       269    8    0    1
 -2        59       215       216      1426      1430      1428
 -1       270    8    0    1
 -2        61        60       217      1164      1431      1432
 -1       271    8    0    1
 -2        60       216       217      1429      1433      1431
 -1       272    8    0    1
 -2        62        61       218      1165      1434      1435
 -1       273    8    0    1
 -2        61       217       218      1432      1436      1434
 -1       274    8    0    1
 -2        63        62       219      1166      1437      1438
 -1       275    8    0    1
 -2        62       218       219      1435      1439      1437
 -1       276    8    0    1
 -2        64        63       220      1167      1440      1441
 -1       277    8    0    1
 -2        63       219       220      1438      1442      1440
 -1       278    8    0    1
 -2        65        64       221      1168      1443      1444
 -1       279    8    0    1
 -2        64       220       221      1441      1445      1443
 -1       280    8    0    1
 -2        66        65       222      1169      1446      1447
 -1       281    8    0    1
 -2        65       221       222      1444      1448      1446
 -1       282    8    0    1
 -2        67        66       223      1170      1449      1450
 -1       283    8    0    1
 -2        66       222       223      1447      1451      1449
 -1       284    8    0    1
 -2        68        67       224      1171      1452      1453
 -1       285    8    0    1
 -2        67       223       224      1450      1454      1452
 -1       286    8    0    1
 -2        69        68       225      1172      1455      1456
 -1       287    8    0    1
 -2        68       224       225      1453      1457      1455
 -1       288    8    0    1
 -2        70        69       226      1173      1458      1459
 -1       289    8    0    1
 -2        69       225       226      1456      1460      1458
 -1       290    8    0    1
 -2        71        70       227      1174      1461      1462
 -1       291    8    0    1
 -2        70       226       227      1459      1463      1461
 -1       292    8    0    1
 -2         4        71       136      1175      1464      1242
 -1       293    8    0    1
 -2       136        71       227      1464      1462      1465
 -1       294    8    0    1
 -2        72        73       228      1177      1466      1467
 -1       295    8    0    1
 -2        72       228       179      1467      1468      1320
 -1       296    8    0    1
 -2        73        74       229      1178      1469      1470
 -1       297    8    0    1
 -2        73       229       228      1470      1471      1466
 -1       298    8    0    1
 -2        74        75       230      1179      1472      1473
 -1       299    8    0    1
 -2        74       230       229      1473      1474      1469
 -1       300    8    0    1
 -2        75        76       231      1180      1475      1476
 -1       301    8    0    1
 -2        75       231       230      1476      1477      1472
 -1       302    8    0    1
 -2        76        77       232      1181      1478      1479
 -1       303    8    0    1
 -2        76       232       231      1479      1480      1475
 -1       304    8    0    1
 -2        77        78       233      1182      1481      1482
 -1       305    8    0    1
 -2        77       233       232      1482      1483      1478
 -1       306    8    0    1
 -2        78        79       234      1183      1484      1485
 -1       307    8    0    1
 -2        78       234       233      1485      1486      1481
 -1       308    8    0    1
 -2        79        80       235      1184      1487      1488
 -1       309    8    0    1
 -2        79       235       234      1488      1489      1484
 -1       310    8    0    1
 -2        80        81       236      1185      1490      1491
 -1       311    8    0    1
 -2        80       236       235      1491      1492      1487
 -1       312    8    0    1
 -2        81        82       237      1186      1493      1494
 -1       313    8    0    1
 -2        81       237       236      1494      1495      1490
 -1       314    8    0    1
 -2        82        83       238      1187      1496      1497
 -1       315    8    0    1
 -2        82       238       237      1497      1498      1493
 -1       316    8    0    1
 -2        83        84       239      1188      1499      1500
 -1       317    8    0    1
 -2        83       239       238      1500      1501      1496
 -1       318    8    0    1
 -2        84        85       240      1189      1502      1503
 -1       319    8    0    1
 -2        84       240       239      1503      1504      1499
 -1       320    8    0    1
 -2        85        86       241      1190      1505      1506
 -1       321    8    0    1
 -2        85       241       240      1506      1507      1502
 -1       322    8    0    1
 -2        86        87       242      1191      1508      1509
 -1       323    8    0    1
 -2        86       242       241      1509      1510      1505
 -1       324    8    0    1
 -2        87        88       243      1192      1511      1512
 -1       325    8    0    1
 -2        87       243       242      1512      1513      1508
 -1       326    8    0    1
 -2        88        89       244      1193      1514      1515
 -1       327    8    0    1
 -2        88       244       243      1515      1516      1511
 -1       328    8    0    1
 -2        89        90       245      1194      1517      1518
 -1       329    8    0    1
 -2        89       245       244      1518      1519      1514
 -1       330    8    0    1
 -2        90        91       246      1195      1520      1521
 -1       331    8    0    1
 -2        90       246       245      1521      1522      1517
 -1       332    8    0    1
 -2        91        92       247      1196      1523      1524
 -1       333    8    0    1
 -2        91       247       246      1524      1525      1520
 -1       334    8    0    1
 -2        92        93       248      1197      1526      1527
 -1       335    8    0    1
 -2        92       248       247      1527      1528      1523
 -1       336    8    0    1
 -2        93        94       249      1198      1529      1530
 -1       337    8    0    1
 -2        93       249       248      1530      1531      1526
 -1       338    8    0    1
 -2        94        95       250      1199      1532      1533
 -1       339    8    0    1
 -2        94       250       249      1533      1534      1529
 -1       340    8    0    1
 -2        95        96       251      1200      1535      1536
 -1       341    8    0    1
 -2        95       251       250      1536      1537      1532
 -1       342    8    0    1
 -2        96        97       252      1201      1538      1539
 -1       343    8    0    1
 -2        96       252       251      1539      1540      1535
 -1       344    8    0    1
 -2        97        98       253      1202      1541      1542
 -1       345    8    0    1
 -2        97       253       252      1542      1543      1538
 -1       346    8    0    1
 -2        98        99       254      1203      1544      1545
 -1       347    8    0    1
 -2        98       254       253      1545      1546      1541
 -1       348    8    0    1
 -2        99       100       255      1204      1547      1548
 -1       349    8    0    1
 -2        99       255       254      1548      1549      1544
 -1       350    8    0    1
 -2       100       101       256      1205      1550      1551
 -1       351    8    0    1
 -2       100       256       255      1551      1552      1547
 -1       352    8    0    1
 -2       101       102       257      1206      1553      1554
 -1       353    8    0    1
 -2       101       257       256      1554      1555      1550
 -1       354    8    0    1
 -2       102       103       258      1207      1556      1557
 -1       355    8    0    1
 -2       102       258       257      1557      1558      1553
 -1       356    8    0    1
 -2       103       104       259      1208      1559      1560
 -1       357    8    0    1
 -2       103       259       258      1560      1561      1556
 -1       358    8    0    1
 -2       104       105       260      1209      1562      1563
 -1       359    8    0    1
 -2       104       260       259      1563      1564      1559
 -1       360    8    0    1
 -2       105       106       261      1210      1565      1566
 -1       361    8    0    1
 -2       105       261       260      1566      1567      1562
 -1       362    8    0    1
 -2       106       107       262      1211      1568      1569
 -1       363    8    0    1
 -2       106       262       261      1569      1570      1565
 -1       364    8    0    1
 -2       107       108       263      1212      1571      1572
 -1       365    8    0    1
 -2       107       263       262      1572      1573      1568
 -1       366    8    0    1
 -2       108       109       264      1213      1574      1575
 -1       367    8    0    1
 -2       108       264       263      1575      1576      1571
 -1       368    8    0    1
 -2       109       110       265      1214      1577      1578
 -1       369    8    0    1
 -2       109       265       264      1578      1579      1574
 -1       370    8    0    1
 -2       110       111       266      1215      1580      1581
 -1       371    8    0    1
 -2       110       266       265      1581      1582      1577
 -1       372    8    0    1
 -2       111       112       267      1216      1583      1584
 -1       373    8    0    1
 -2       111       267       266      1584      1585      1580
 -1       374    8    0    1
 -2       112       113       268      1217      1586      1587
 -1       375    8    0    1
 -2       112       268       267      1587      1588      1583
 -1       376    8    0    1
 -2       113       114       269      1218      1589      1590
 -1       377    8    0    1
 -2       113       269       268      1590      1591      1586
 -1       378    8    0    1
 -2       114       115       270      1219      1592      1593
 -1       379    8    0    1
 -2       114       270       269      1593      1594      1589
 -1       380    8    0    1
 -2       115       116       271      1220      1595      1596
 -1       381    8    0    1
 -2       115       271       270      1596      1597      1592
 -1       382    8    0    1
 -2       116       117       272      1221      1598      1599
 -1       383    8    0    1
 -2       116       272       271      1599      1600      1595
 -1       384    8    0    1
 -2       117       118       273      1222      1601      1602
 -1       385    8    0    1
 -2       117       273       272      1602      1603      1598
 -1       386    8    0    1
 -2       118       119       274      1223      1604      1605
 -1       387    8    0    1
 -2       118       274       273      1605      1606      1601
 -1       388    8    0    1
 -2       119       120       275      1224      1607      1608
 -1       389    8    0    1
 -2       119       275       274      1608      1609      1604
 -1       390    8    0    1
 -2       120         3       121      1225      1226      1610
 -1       391    8    0    1
 -2       121       122       276      1227      1611      1612
 -1       392    8    0    1
 -2       122       123       277      1228      1613      1614
 -1       393    8    0    1
 -2       122       277       276      1614      1615      1611
 -1       394    8    0    1
 -2       123       124       278      1229      1616      1617
 -1       395    8    0    1
 -2       123       278       277      1617      1618      1613
 -1       396    8    0    1
 -2       124       125       279      1230      1619      1620
 -1       397    8    0    1
 -2       124       279       278      1620      1621      1616
 -1       398    8    0    1
 -2       125       126       280      1231      1622      1623
 -1       399    8    0    1
 -2       125       280       279      1623      1624      1619
 -1       400    8    0    1
 -2       126       127       281      1232      1625      1626
 -1       401    8    0    1
 -2       126       281       280      1626      1627      1622
 -1       402    8    0    1
 -2       127       128       282      1233      1628      1629
 -1       403    8    0    1
 -2       127       282       281      1629      1630      1625
 -1       404    8    0    1
 -2       128       129       283      1234      1631      1632
 -1       405    8    0    1
 -2       128       283       282      1632      1633      1628
 -1       406    8    0    1
 -2       129       130       284      1235      1634      1635
 -1       407    8    0    1
 -2       129       284       283      1635      1636      1631
 -1       408    8    0    1
 -2       130       131       285      1236      1637      1638
 -1       409    8    0    1
 -2       130       285       284      1638      1639      1634
 -1       410    8    0    1
 -2       131       132       286      1237      1640      1641
 -1       411    8    0    1
 -2       131       286       285      1641      1642      1637
 -1       412    8    0    1
 -2       132       133       287      1238      1643      1644
 -1       413    8    0    1
 -2       132       287       286      1644      1645      1640
 -1       414    8    0    1
 -2       133       134       288      1239      1646      1647
 -1       415    8    0    1
 -2       133       288       287      1647      1648      1643
 -1       416    8    0    1
 -2       134       135       289      1240      1649      1650
 -1       417    8    0    1
 -2       134       289       288      1650      1651      1646
 -1       418    8    0    1
 -2       135       136       290      1241      1652      1653
 -1       419    8    0    1
 -2       289       135       290      1649      1653      1654
 -1       420    8    0    1
 -2       136       227       290      1465      1655      1652
 -1       421    8    0    1
 -2         2       137       291      1243      1656      1657
 -1       422    8    0    1
 -2       137       138       292      1244      1658      1659
 -1       423    8    0    1
 -2       138       139       293      1245      1660      1661
 -1       424    8    0    1
 -2       139       140       294      1246      1662      1663
 -1       425    8    0    1
 -2       140       141       295      1247      1664      1665
 -1       426    8    0    1
 -2       141       142       296      1248      1666      1667
 -1       427    8    0    1
 -2       142       143       297      1249      1668      1669
 -1       428    8    0    1
 -2       143       144       298      1250      1670      1671
 -1       429    8    0    1
 -2       144       145       299      1251      1672      1673
 -1       430    8    0    1
 -2       145       146       300      1252      1674      1675
 -1       431    8    0    1
 -2       146       147       301      1253      1676      1677
 -1       432    8    0    1
 -2       147       148       302      1254      1678      1679
 -1       433    8    0    1
 -2       148       149       303      1255      1680      1681
 -1       434    8    0    1
 -2       149       150       304      1256      1682      1683
 -1       435    8    0    1
 -2       150       151       305      1257      1684      1685
 -1       436    8    0    1
 -2       151       152       306      1258      1686      1687
 -1       437    8    0    1
 -2       152       153       307      1259      1688      1689
 -1       438    8    0    1
 -2       153       154       308      1260      1690      1691
 -1       439    8    0    1
 -2       154       155       309      1261      1692      1693
 -1       440    8    0    1
 -2       155         1       310      1262      1694      1695
 -1       441    8    0    1
 -2         1       156       311      1263      1696      1697
 -1       442    8    0    1
 -2       156       157       312      1264      1698      1699
 -1       443    8    0    1
 -2       157       158       313      1265      1700      1701
 -1       444    8    0    1
 -2       158       159       314      1266      1702      1703
 -1       445    8    0    1
 -2       159       160       315      1267      1704      1705
 -1       446    8    0    1
 -2       160       161       316      1268      1706      1707
 -1       447    8    0    1
 -2       161       162       317      1269      1708      1709
 -1       448    8    0    1
 -2       162       163       318      1270      1710      1711
 -1       449    8    0    1
 -2       163         2       319      1271      1712      1713
 -1       450    8    0    1
 -2       294       140       295      1662      1665      1714
 -1       451    8    0    1
 -2       293       139       294      1660      1663      1715
 -1       452    8    0    1
 -2       120       121       275      1610      1716      1607
 -1       453    8    0    1
 -2       121       276       275      1612      1717      1716
 -1       454    8    0    1
 -2       291       137       292      1656      1659      1718
 -1       455    8    0    1
 -2       292       138       293      1658      1661      1719
 -1       456    8    0    1
 -2         2       291       319      1657      1720      1712
 -1       457    8    0    1
 -2       141       296       295      1667      1721      1664
 -1       458    8    0    1
 -2       142       297       296      1669      1722      1666
 -1       459    8    0    1
 -2       143       298       297      1671      1723      1668
 -1       460    8    0    1
 -2       144       299       298      1673      1724      1670
 -1       461    8    0    1
 -2       145       300       299      1675      1725      1672
 -1       462    8    0    1
 -2       146       301       300      1677      1726      1674
 -1       463    8    0    1
 -2       147       302       301      1679      1727      1676
 -1       464    8    0    1
 -2       148       303       302      1681      1728      1678
 -1       465    8    0    1
 -2       149       304       303      1683      1729      1680
 -1       466    8    0    1
 -2       150       305       304      1685      1730      1682
 -1       467    8    0    1
 -2       151       306       305      1687      1731      1684
 -1       468    8    0    1
 -2       152       307       306      1689      1732      1686
 -1       469    8    0    1
 -2       153       308       307      1691      1733      1688
 -1       470    8    0    1
 -2       154       309       308      1693      1734      1690
 -1       471    8    0    1
 -2       155       310       309      1695      1735      1692
 -1       472    8    0    1
 -2         1       311       310      1697      1736      1694
 -1       473    8    0    1
 -2       156       312       311      1699      1737      1696
 -1       474    8    0    1
 -2       157       313       312      1701      1738      1698
 -1       475    8    0    1
 -2       158       314       313      1703      1739      1700
 -1       476    8    0    1
 -2       159       315       314      1705      1740      1702
 -1       477    8    0    1
 -2       160       316       315      1707      1741      1704
 -1       478    8    0    1
 -2       161       317       316      1709      1742      1706
 -1       479    8    0    1
 -2       162       318       317      1711      1743      1708
 -1       480    8    0    1
 -2       163       319       318      1713      1744      1710
 -1       481    8    0    1
 -2        23         7       164      1272      1274      1745
 -1       482    8    0    1
 -2       165       166       320      1280      1746      1747
 -1       483    8    0    1
 -2       164       165       321      1277      1748      1749
 -1       484    8    0    1
 -2       165       320       321      1747      1750      1748
 -1       485    8    0    1
 -2       167       168       322      1286      1751      1752
 -1       486    8    0    1
 -2       168       169       323      1289      1753      1754
 -1       487    8    0    1
 -2       168       323       322      1754      1755      1751
 -1       488    8    0    1
 -2       169       170       324      1292      1756      1757
 -1       489    8    0    1
 -2       169       324       323      1757      1758      1753
 -1       490    8    0    1
 -2       170       171       325      1295      1759      1760
 -1       491    8    0    1
 -2       170       325       324      1760      1761      1756
 -1       492    8    0    1
 -2       171       172       326      1298      1762      1763
 -1       493    8    0    1
 -2       171       326       325      1763      1764      1759
 -1       494    8    0    1
 -2       172       173       327      1301      1765      1766
 -1       495    8    0    1
 -2       172       327       326      1766      1767      1762
 -1       496    8    0    1
 -2       173       174       328      1304      1768      1769
 -1       497    8    0    1
 -2       173       328       327      1769      1770      1765
 -1       498    8    0    1
 -2       174       175       329      1307      1771      1772
 -1       499    8    0    1
 -2       174       329       328      1772      1773      1768
 -1       500    8    0    1
 -2       175       176       330      1310      1774      1775
 -1       501    8    0    1
 -2       175       330       329      1775      1776      1771
 -1       502    8    0    1
 -2       176       177       331      1313      1777      1778
 -1       503    8    0    1
 -2       176       331       330      1778      1779      1774
 -1       504    8    0    1
 -2       177       178       332      1316      1780      1781
 -1       505    8    0    1
 -2       177       332       331      1781      1782      1777
 -1       506    8    0    1
 -2       178       179       333      1319      1783      1784
 -1       507    8    0    1
 -2       332       178       333      1780      1784      1785
 -1       508    8    0    1
 -2       179       228       333      1468      1786      1783
 -1       509    8    0    1
 -2       180        23       164      1321      1745      1787
 -1       510    8    0    1
 -2       228       229       334      1471      1788      1789
 -1       511    8    0    1
 -2       228       334       333      1789      1790      1786
 -1       512    8    0    1
 -2       180       164       321      1787      1749      1791
 -1       513    8    0    1
 -2       182       181       335      1328      1792      1793
 -1       514    8    0    1
 -2       183       182       336      1331      1794      1795
 -1       515    8    0    1
 -2       182       335       336      1793      1796      1794
 -1       516    8    0    1
 -2       184       183       337      1334      1797      1798
 -1       517    8    0    1
 -2       183       336       337      1795      1799      1797
 -1       518    8    0    1
 -2       185       184       338      1337      1800      1801
 -1       519    8    0    1
 -2       184       337       338      1798      1802      1800
 -1       520    8    0    1
 -2       186       185       339      1340      1803      1804
 -1       521    8    0    1
 -2       185       338       339      1801      1805      1803
 -1       522    8    0    1
 -2       187       186       340      1343      1806      1807
 -1       523    8    0    1
 -2       186       339       340      1804      1808      1806
 -1       524    8    0    1
 -2       188       187       341      1346      1809      1810
 -1       525    8    0    1
 -2       187       340       341      1807      1811      1809
 -1       526    8    0    1
 -2       189       188       342      1349      1812      1813
 -1       527    8    0    1
 -2       188       341       342      1810      1814      1812
 -1       528    8    0    1
 -2       190       189       343      1352      1815      1816
 -1       529    8    0    1
 -2       189       342       343      1813      1817      1815
 -1       530    8    0    1
 -2       191       190       344      1355      1818      1819
 -1       531    8    0    1
 -2       190       343       344      1816      1820      1818
 -1       532    8    0    1
 -2       192       191       345      1358      1821      1822
 -1       533    8    0    1
 -2       191       344       345      1819      1823      1821
 -1       534    8    0    1
 -2       193       192       346      1361      1824      1825
 -1       535    8    0    1
 -2       192       345       346      1822      1826      1824
 -1       536    8    0    1
 -2       194       193       347      1364      1827      1828
 -1       537    8    0    1
 -2       193       346       347      1825      1829      1827
 -1       538    8    0    1
 -2       195       194       348      1367      1830      1831
 -1       539    8    0    1
 -2       194       347       348      1828      1832      1830
 -1       540    8    0    1
 -2       196       195       349      1370      1833      1834
 -1       541    8    0    1
 -2       195       348       349      1831      1835      1833
 -1       542    8    0    1
 -2       197       196       350      1373      1836      1837
 -1       543    8    0    1
 -2       196       349       350      1834      1838      1836
 -1       544    8    0    1
 -2       198       197       351      1376      1839      1840
 -1       545    8    0    1
 -2       197       350       351      1837      1841      1839
 -1       546    8    0    1
 -2       199       198       352      1379      1842      1843
 -1       547    8    0    1
 -2       198       351       352      1840      1844      1842
 -1       548    8    0    1
 -2       200       199       353      1382      1845      1846
 -1       549    8    0    1
 -2       199       352       353      1843      1847      1845
 -1       550    8    0    1
 -2       201       200       354      1385      1848      1849
 -1       551    8    0    1
 -2       200       353       354      1846      1850      1848
 -1       552    8    0    1
 -2       202       201       355      1388      1851      1852
 -1       553    8    0    1
 -2       201       354       355      1849      1853      1851
 -1       554    8    0    1
 -2       203       202       356      1391      1854      1855
 -1       555    8    0    1
 -2       202       355       356      1852      1856      1854
 -1       556    8    0    1
 -2       204       203       357      1394      1857      1858
 -1       557    8    0    1
 -2       203       356       357      1855      1859      1857
 -1       558    8    0    1
 -2       205       204       358      1397      1860      1861
 -1       559    8    0    1
 -2       204       357       358      1858      1862      1860
 -1       560    8    0    1
 -2       206       205       359      1400      1863      1864
 -1       561    8    0    1
 -2       205       358       359      1861      1865      1863
 -1       562    8    0    1
 -2       207       206       360      1403      1866      1867
 -1       563    8    0    1
 -2       206       359       360      1864      1868      1866
 -1       564    8    0    1
 -2       208       207       361      1406      1869      1870
 -1       565    8    0    1
 -2       207       360       361      1867      1871      1869
 -1       566    8    0    1
 -2       209       208       362      1409      1872      1873
 -1       567    8    0    1
 -2       208       361       362      1870      1874      1872
 -1       568    8    0    1
 -2       210       209       363      1412      1875      1876
 -1       569    8    0    1
 -2       209       362       363      1873      1877      1875
 -1       570    8    0    1
 -2       211       210       364      1415      1878      1879
 -1       571    8    0    1
 -2       210       363       364      1876      1880      1878
 -1       572    8    0    1
 -2       212       211       365      1418      1881      1882
 -1       573    8    0    1
 -2       211       364       365      1879      1883      1881
 -1       574    8    0    1
 -2       213       212       366      1421      1884      1885
 -1       575    8    0    1
 -2       212       365       366      1882      1886      1884
 -1       576    8    0    1
 -2       214       213       367      1424      1887      1888
 -1       577    8    0    1
 -2       213       366       367      1885      1889      1887
 -1       578    8    0    1
 -2       215       214       368      1427      1890      1891
 -1       579    8    0    1
 -2       214       367       368      1888      1892      1890
 -1       580    8    0    1
 -2       216       215       369      1430      1893      1894
 -1       581    8    0    1
 -2       215       368       369      1891      1895      1893
 -1       582    8    0    1
 -2       217       216       370      1433      1896      1897
 -1       583    8    0    1
 -2       216       369       370      1894      1898      1896
 -1       584    8    0    1
 -2       218       217       371      1436      1899      1900
 -1       585    8    0    1
 -2       217       370       371      1897      1901      1899
 -1       586    8    0    1
 -2       219       218       372      1439      1902      1903
 -1       587    8    0    1
 -2       218       371       372      1900      1904      1902
 -1       588    8    0    1
 -2       220       219       373      1442      1905      1906
 -1       589    8    0    1
 -2       219       372       373      1903      1907      1905
 -1       590    8    0    1
 -2       221       220       374      1445      1908      1909
 -1       591    8    0    1
 -2       220       373       374      1906      1910      1908
 -1       592    8    0    1
 -2       222       221       375      1448      1911      1912
 -1       593    8    0    1
 -2       221       374       375      1909      1913      1911
 -1       594    8    0    1
 -2       223       222       376      1451      1914      1915
 -1       595    8    0    1
 -2       222       375       376      1912      1916      1914
 -1       596    8    0    1
 -2       224       223       377      1454      1917      1918
 -1       597    8    0    1
 -2       223       376       377      1915      1919      1917
 -1       598    8    0    1
 -2       225       224       378      1457      1920      1921
 -1       599    8    0    1
 -2       224       377       378      1918      1922      1920
 -1       600    8    0    1
 -2       226       225       379      1460      1923      1924
 -1       601    8    0    1
 -2       225       378       379      1921      1925      1923
 -1       602    8    0    1
 -2       227       226       380      1463      1926      1927
 -1       603    8    0    1
 -2       290       227       380      1655      1927      1928
 -1       604    8    0    1
 -2       226       379       380      1924      1929      1926
 -1       605    8    0    1
 -2       229       230       381      1474      1930      1931
 -1       606    8    0    1
 -2       229       381       334      1931      1932      1788
 -1       607    8    0    1
 -2       230       231       382      1477      1933      1934
 -1       608    8    0    1
 -2       230       382       381      1934      1935      1930
 -1       609    8    0    1
 -2       231       232       383      1480      1936      1937
 -1       610    8    0    1
 -2       231       383       382      1937      1938      1933
 -1       611    8    0    1
 -2       232       233       384      1483      1939      1940
 -1       612    8    0    1
 -2       232       384       383      1940      1941      1936
 -1       613    8    0    1
 -2       233       234       385      1486      1942      1943
 -1       614    8    0    1
 -2       233       385       384      1943      1944      1939
 -1       615    8    0    1
 -2       234       235       386      1489      1945      1946
 -1       616    8    0    1
 -2       234       386       385      1946      1947      1942
 -1       617    8    0    1
 -2       235       236       387      1492      1948      1949
 -1       618    8    0    1
 -2       235       387       386      1949      1950      1945
 -1       619    8    0    1
 -2       236       237       388      1495      1951      1952
 -1       620    8    0    1
 -2       236       388       387      1952      1953      1948
 -1       621    8    0    1
 -2       237       238       389      1498      1954      1955
 -1       622    8    0    1
 -2       237       389       388      1955      1956      1951
 -1       623    8    0    1
 -2       238       239       390      1501      1957      1958
 -1       624    8    0    1
 -2       238       390       389      1958      1959      1954
 -1       625    8    0    1
 -2       239       240       391      1504      1960      1961
 -1       626    8    0    1
 -2       239       391       390      1961      1962      1957
 -1       627    8    0    1
 -2       240       241       392      1507      1963      1964
 -1       628    8    0    1
 -2       240       392       391      1964      1965      1960
 -1       629    8    0    1
 -2       241       242       393      1510      1966      1967
 -1       630    8    0    1
 -2       241       393       392      1967      1968      1963
 -1       631    8    0    1
 -2       242       243       394      1513      1969      1970
 -1       632    8    0    1
 -2       242       394       393      1970      1971      1966
 -1       633    8    0    1
 -2       243       244       395      1516      1972      1973
 -1       634    8    0    1
 -2       243       395       394      1973      1974      1969
 -1       635    8    0    1
 -2       244       245       396      1519      1975      1976
 -1       636    8    0    1
 -2       244       396       395      1976      1977      1972
 -1       637    8    0    1
 -2       245       246       397      1522      1978      1979
 -1       638    8    0    1
 -2       245       397       396      1979      1980      1975
 -1       639    8    0    1
 -2       246       247       398      1525      1981      1982
 -1       640    8    0    1
 -2       246       398       397      1982      1983      1978
 -1       641    8    0    1
 -2       247       248       399      1528      1984      1985
 -1       642    8    0    1
 -2       247       399       398      1985      1986      1981
 -1       643    8    0    1
 -2       248       249       400      1531      1987      1988
 -1       644    8    0    1
 -2       248       400       399      1988      1989      1984
 -1       645    8    0    1
 -2       249       250       401      1534      1990      1991
 -1       646    8    0    1
 -2       249       401       400      1991      1992      1987
 -1       647    8    0    1
 -2       250       251       402      1537      1993      1994
 -1       648    8    0    1
 -2       250       402       401      1994      1995      1990
 -1       649    8    0    1
 -2       251       252       403      1540      1996      1997
 -1       650    8    0    1
 -2       251       403       402      1997      1998      1993
 -1       651    8    0    1
 -2       252       253       404      1543      1999      2000
 -1       652    8    0    1
 -2       252       404       403      2000      2001      1996
 -1       653    8    0    1
 -2       253       254       405      1546      2002      2003
 -1       654    8    0    1
 -2       253       405       404      2003      2004      1999
 -1       655    8    0    1
 -2       254       255       406      1549      2005      2006
 -1       656    8    0    1
 -2       254       406       405      2006      2007      2002
 -1       657    8    0    1
 -2       255       256       407      1552      2008      2009
 -1       658    8    0    1
 -2       255       407       406      2009      2010      2005
 -1       659    8    0    1
 -2       256       257       408      1555      2011      2012
 -1       660    8    0    1
 -2       256       408       407      2012      2013      2008
 -1       661    8    0    1
 -2       257       258       409      1558      2014      2015
 -1       662    8    0    1
 -2       257       409       408      2015      2016      2011
 -1       663    8    0    1
 -2       258       259       410      1561      2017      2018
 -1       664    8    0    1
 -2       258       410       409      2018      2019      2014
 -1       665    8    0    1
 -2       259       260       411      1564      2020      2021
 -1       666    8    0    1
 -2       259       411       410      2021      2022      2017
 -1       667    8    0    1
 -2       260       261       412      1567      2023      2024
 -1       668    8    0    1
 -2       260       412       411      2024      2025      2020
 -1       669    8    0    1
 -2       261       262       413      1570      2026      2027
 -1       670    8    0    1
 -2       261       413       412      2027      2028      2023
 -1       671    8    0    1
 -2       262       263       414      1573      2029      2030
 -1       672    8    0    1
 -2       262       414       413      2030      2031      2026
 -1       673    8    0    1
 -2       263       264       415      1576      2032      2033
 -1       674    8    0    1
 -2       263       415       414      2033      2034      2029
 -1       675    8    0    1
 -2       264       265       416      1579      2035      2036
 -1       676    8    0    1
 -2       264       416       415      2036      2037      2032
 -1       677    8    0    1
 -2       265       266       417      1582      2038      2039
 -1       678    8    0    1
 -2       265       417       416      2039      2040      2035
 -1       679    8    0    1
 -2       266       267       418      1585      2041      2042
 -1       680    8    0    1
 -2       266       418       417      2042      2043      2038
 -1       681    8    0    1
 -2       267       268       419      1588      2044      2045
 -1       682    8    0    1
 -2       267       419       418      2045      2046      2041
 -1       683    8    0    1
 -2       268       269       420      1591      2047      2048
 -1       684    8    0    1
 -2       268       420       419      2048      2049      2044
 -1       685    8    0    1
 -2       269       270       421      1594      2050      2051
 -1       686    8    0    1
 -2       269       421       420      2051      2052      2047
 -1       687    8    0    1
 -2       270       271       422      1597      2053      2054
 -1       688    8    0    1
 -2       270       422       421      2054      2055      2050
 -1       689    8    0    1
 -2       271       272       423      1600      2056      2057
 -1       690    8    0    1
 -2       271       423       422      2057      2058      2053
 -1       691    8    0    1
 -2       272       273       424      1603      2059      2060
 -1       692    8    0    1
 -2       272       424       423      2060      2061      2056
 -1       693    8    0    1
 -2       273       274       425      1606      2062      2063
 -1       694    8    0    1
 -2       273       425       424      2063      2064      2059
 -1       695    8    0    1
 -2       274       275       426      1609      2065      2066
 -1       696    8    0    1
 -2       425       274       426      2062      2066      2067
 -1       697    8    0    1
 -2       275       276       426      1717      2068      2065
 -1       698    8    0    1
 -2       278       279       427      1621      2069      2070
 -1       699    8    0    1
 -2       277       278       428      1618      2071      2072
 -1       700    8    0    1
 -2       278       427       428      2070      2073      2071
 -1       701    8    0    1
 -2       276       277       429      1615      2074      2075
 -1       702    8    0    1
 -2       426       276       429      2068      2075      2076
 -1       703    8    0    1
 -2       277       428       429      2072      2077      2074
 -1       704    8    0    1
 -2       279       280       430      1624      2078      2079
 -1       705    8    0    1
 -2       279       430       427      2079      2080      2069
 -1       706    8    0    1
 -2       280       281       431      1627      2081      2082
 -1       707    8    0    1
 -2       280       431       430      2082      2083      2078
 -1       708    8    0    1
 -2       281       282       432      1630      2084      2085
 -1       709    8    0    1
 -2       281       432       431      2085      2086      2081
 -1       710    8    0    1
 -2       282       283       433      1633      2087      2088
 -1       711    8    0    1
 -2       282       433       432      2088      2089      2084
 -1       712    8    0    1
 -2       283       284       434      1636      2090      2091
 -1       713    8    0    1
 -2       283       434       433      2091      2092      2087
 -1       714    8    0    1
 -2       284       285       435      1639      2093      2094
 -1       715    8    0    1
 -2       284       435       434      2094      2095      2090
 -1       716    8    0    1
 -2       285       286       436      1642      2096      2097
 -1       717    8    0    1
 -2       285       436       435      2097      2098      2093
 -1       718    8    0    1
 -2       286       287       437      1645      2099      2100
 -1       719    8    0    1
 -2       286       437       436      2100      2101      2096
 -1       720    8    0    1
 -2       287       288       438      1648      2102      2103
 -1       721    8    0    1
 -2       287       438       437      2103      2104      2099
 -1       722    8    0    1
 -2       288       289       439      1651      2105      2106
 -1       723    8    0    1
 -2       288       439       438      2106      2107      2102
 -1       724    8    0    1
 -2       292       293       440      1719      2108      2109
 -1       725    8    0    1
 -2       319       291       441      1720      2110      2111
 -1       726    8    0    1
 -2       291       292       442      1718      2112      2113
 -1       727    8    0    1
 -2       291       442       441      2113      2114      2110
 -1       728    8    0    1
 -2       293       294       443      1715      2115      2116
 -1       729    8    0    1
 -2       294       295       444      1714      2117      2118
 -1       730    8    0    1
 -2       166       167       445      1283      2119      2120
 -1       731    8    0    1
 -2       320       166       445      1746      2120      2121
 -1       732    8    0    1
 -2       167       322       445      1752      2122      2119
 -1       733    8    0    1
 -2       296       297       446      1722      2123      2124
 -1       734    8    0    1
 -2       297       298       447      1723      2125      2126
 -1       735    8    0    1
 -2       298       299       448      1724      2127      2128
 -1       736    8    0    1
 -2       298       448       447      2128      2129      2125
 -1       737    8    0    1
 -2       299       300       449      1725      2130      2131
 -1       738    8    0    1
 -2       300       301       450      1726      2132      2133
 -1       739    8    0    1
 -2       301       302       451      1727      2134      2135
 -1       740    8    0    1
 -2       302       303       452      1728      2136      2137
 -1       741    8    0    1
 -2       303       304       453      1729      2138      2139
 -1       742    8    0    1
 -2       304       305       454      1730      2140      2141
 -1       743    8    0    1
 -2       304       454       453      2141      2142      2138
 -1       744    8    0    1
 -2       305       306       455      1731      2143      2144
 -1       745    8    0    1
 -2       306       307       456      1732      2145      2146
 -1       746    8    0    1
 -2       307       308       457      1733      2147      2148
 -1       747    8    0    1
 -2       308       309       458      1734      2149      2150
 -1       748    8    0    1
 -2       309       310       459      1735      2151      2152
 -1       749    8    0    1
 -2       310       311       460      1736      2153      2154
 -1       750    8    0    1
 -2       311       312       461      1737      2155      2156
 -1       751    8    0    1
 -2       312       313       462      1738      2157      2158
 -1       752    8    0    1
 -2       313       314       463      1739      2159      2160
 -1       753    8    0    1
 -2       314       315       464      1740      2161      2162
 -1       754    8    0    1
 -2       315       316       465      1741      2163      2164
 -1       755    8    0    1
 -2       315       465       464      2164      2165      2161
 -1       756    8    0    1
 -2       316       317       466      1742      2166      2167
 -1       757    8    0    1
 -2       317       318       467      1743      2168      2169
 -1       758    8    0    1
 -2       317       467       466      2169      2170      2166
 -1       759    8    0    1
 -2       318       319       468      1744      2171      2172
 -1       760    8    0    1
 -2       295       296       469      1721      2173      2174
 -1       761    8    0    1
 -2       444       295       469      2117      2174      2175
 -1       762    8    0    1
 -2       180       321       181      1791      2176      1325
 -1       763    8    0    1
 -2       296       446       469      2124      2177      2173
 -1       764    8    0    1
 -2       335       181       321      1792      2176      2178
 -1       765    8    0    1
 -2       442       292       440      2112      2109      2179
 -1       766    8    0    1
 -2       293       443       470      2116      2180      2181
 -1       767    8    0    1
 -2       293       470       440      2181      2182      2108
 -1       768    8    0    1
 -2       439       289       290      2105      1654      2183
 -1       769    8    0    1
 -2       319       441       468      2111      2184      2171
 -1       770    8    0    1
 -2       443       294       444      2115      2118      2185
 -1       771    8    0    1
 -2       467       318       468      2168      2172      2186
 -1       772    8    0    1
 -2       465       316       471      2163      2187      2188
 -1       773    8    0    1
 -2       316       466       471      2167      2189      2187
 -1       774    8    0    1
 -2       463       314       464      2159      2162      2190
 -1       775    8    0    1
 -2       462       313       463      2157      2160      2191
 -1       776    8    0    1
 -2       461       312       462      2155      2158      2192
 -1       777    8    0    1
 -2       460       311       461      2153      2156      2193
 -1       778    8    0    1
 -2       459       310       460      2151      2154      2194
 -1       779    8    0    1
 -2       458       309       459      2149      2152      2195
 -1       780    8    0    1
 -2       457       308       458      2147      2150      2196
 -1       781    8    0    1
 -2       456       307       457      2145      2148      2197
 -1       782    8    0    1
 -2       454       305       455      2140      2144      2198
 -1       783    8    0    1
 -2       452       303       472      2136      2199      2200
 -1       784    8    0    1
 -2       303       453       472      2139      2201      2199
 -1       785    8    0    1
 -2       451       302       452      2134      2137      2202
 -1       786    8    0    1
 -2       450       301       451      2132      2135      2203
 -1       787    8    0    1
 -2       448       299       473      2127      2204      2205
 -1       788    8    0    1
 -2       299       449       473      2131      2206      2204
 -1       789    8    0    1
 -2       446       297       447      2123      2126      2207
 -1       790    8    0    1
 -2       449       300       450      2130      2133      2208
 -1       791    8    0    1
 -2       455       306       456      2143      2146      2209
 -1       792    8    0    1
 -2       334       381       474      1932      2210      2211
 -1       793    8    0    1
 -2       323       324       475      1758      2212      2213
 -1       794    8    0    1
 -2       322       323       476      1755      2214      2215
 -1       795    8    0    1
 -2       323       475       476      2213      2216      2214
 -1       796    8    0    1
 -2       325       326       477      1764      2217      2218
 -1       797    8    0    1
 -2       326       327       478      1767      2219      2220
 -1       798    8    0    1
 -2       326       478       477      2220      2221      2217
 -1       799    8    0    1
 -2       327       328       479      1770      2222      2223
 -1       800    8    0    1
 -2       327       479       478      2223      2224      2219
 -1       801    8    0    1
 -2       328       329       480      1773      2225      2226
 -1       802    8    0    1
 -2       328       480       479      2226      2227      2222
 -1       803    8    0    1
 -2       329       330       481      1776      2228      2229
 -1       804    8    0    1
 -2       329       481       480      2229      2230      2225
 -1       805    8    0    1
 -2       330       331       482      1779      2231      2232
 -1       806    8    0    1
 -2       330       482       481      2232      2233      2228
 -1       807    8    0    1
 -2       381       382       483      1935      2234      2235
 -1       808    8    0    1
 -2       381       483       474      2235      2236      2210
 -1       809    8    0    1
 -2       336       335       484      1796      2237      2238
 -1       810    8    0    1
 -2       469       446       485      2177      2239      2240
 -1       811    8    0    1
 -2       337       336       486      1799      2241      2242
 -1       812    8    0    1
 -2       336       484       486      2238      2243      2241
 -1       813    8    0    1
 -2       338       337       487      1802      2244      2245
 -1       814    8    0    1
 -2       337       486       487      2242      2246      2244
 -1       815    8    0    1
 -2       339       338       488      1805      2247      2248
 -1       816    8    0    1
 -2       338       487       488      2245      2249      2247
 -1       817    8    0    1
 -2       340       339       489      1808      2250      2251
 -1       818    8    0    1
 -2       339       488       489      2248      2252      2250
 -1       819    8    0    1
 -2       341       340       490      1811      2253      2254
 -1       820    8    0    1
 -2       340       489       490      2251      2255      2253
 -1       821    8    0    1
 -2       342       341       491      1814      2256      2257
 -1       822    8    0    1
 -2       341       490       491      2254      2258      2256
 -1       823    8    0    1
 -2       343       342       492      1817      2259      2260
 -1       824    8    0    1
 -2       342       491       492      2257      2261      2259
 -1       825    8    0    1
 -2       344       343       493      1820      2262      2263
 -1       826    8    0    1
 -2       343       492       493      2260      2264      2262
 -1       827    8    0    1
 -2       345       344       494      1823      2265      2266
 -1       828    8    0    1
 -2       344       493       494      2263      2267      2265
 -1       829    8    0    1
 -2       346       345       495      1826      2268      2269
 -1       830    8    0    1
 -2       345       494       495      2266      2270      2268
 -1       831    8    0    1
 -2       347       346       496      1829      2271      2272
 -1       832    8    0    1
 -2       346       495       496      2269      2273      2271
 -1       833    8    0    1
 -2       348       347       497      1832      2274      2275
 -1       834    8    0    1
 -2       347       496       497      2272      2276      2274
 -1       835    8    0    1
 -2       349       348       498      1835      2277      2278
 -1       836    8    0    1
 -2       348       497       498      2275      2279      2277
 -1       837    8    0    1
 -2       350       349       499      1838      2280      2281
 -1       838    8    0    1
 -2       349       498       499      2278      2282      2280
 -1       839    8    0    1
 -2       351       350       500      1841      2283      2284
 -1       840    8    0    1
 -2       350       499       500      2281      2285      2283
 -1       841    8    0    1
 -2       352       351       501      1844      2286      2287
 -1       842    8    0    1
 -2       351       500       501      2284      2288      2286
 -1       843    8    0    1
 -2       353       352       502      1847      2289      2290
 -1       844    8    0    1
 -2       352       501       502      2287      2291      2289
 -1       845    8    0    1
 -2       354       353       503      1850      2292      2293
 -1       846    8    0    1
 -2       353       502       503      2290      2294      2292
 -1       847    8    0    1
 -2       355       354       504      1853      2295      2296
 -1       848    8    0    1
 -2       354       503       504      2293      2297      2295
 -1       849    8    0    1
 -2       356       355       505      1856      2298      2299
 -1       850    8    0    1
 -2       355       504       505      2296      2300      2298
 -1       851    8    0    1
 -2       357       356       506      1859      2301      2302
 -1       852    8    0    1
 -2       356       505       506      2299      2303      2301
 -1       853    8    0    1
 -2       358       357       507      1862      2304      2305
 -1       854    8    0    1
 -2       357       506       507      2302      2306      2304
 -1       855    8    0    1
 -2       359       358       508      1865      2307      2308
 -1       856    8    0    1
 -2       358       507       508      2305      2309      2307
 -1       857    8    0    1
 -2       360       359       509      1868      2310      2311
 -1       858    8    0    1
 -2       359       508       509      2308      2312      2310
 -1       859    8    0    1
 -2       361       360       510      1871      2313      2314
 -1       860    8    0    1
 -2       360       509       510      2311      2315      2313
 -1       861    8    0    1
 -2       362       361       511      1874      2316      2317
 -1       862    8    0    1
 -2       361       510       511      2314      2318      2316
 -1       863    8    0    1
 -2       363       362       512      1877      2319      2320
 -1       864    8    0    1
 -2       362       511       512      2317      2321      2319
 -1       865    8    0    1
 -2       364       363       513      1880      2322      2323
 -1       866    8    0    1
 -2       363       512       513      2320      2324      2322
 -1       867    8    0    1
 -2       365       364       514      1883      2325      2326
 -1       868    8    0    1
 -2       364       513       514      2323      2327      2325
 -1       869    8    0    1
 -2       366       365       515      1886      2328      2329
 -1       870    8    0    1
 -2       365       514       515      2326      2330      2328
 -1       871    8    0    1
 -2       367       366       516      1889      2331      2332
 -1       872    8    0    1
 -2       366       515       516      2329      2333      2331
 -1       873    8    0    1
 -2       368       367       517      1892      2334      2335
 -1       874    8    0    1
 -2       367       516       517      2332      2336      2334
 -1       875    8    0    1
 -2       369       368       518      1895      2337      2338
 -1       876    8    0    1
 -2       368       517       518      2335      2339      2337
 -1       877    8    0    1
 -2       370       369       519      1898      2340      2341
 -1       878    8    0    1
 -2       369       518       519      2338      2342      2340
 -1       879    8    0    1
 -2       371       370       520      1901      2343      2344
 -1       880    8    0    1
 -2       370       519       520      2341      2345      2343
 -1       881    8    0    1
 -2       372       371       521      1904      2346      2347
 -1       882    8    0    1
 -2       371       520       521      2344      2348      2346
 -1       883    8    0    1
 -2       373       372       522      1907      2349      2350
 -1       884    8    0    1
 -2       372       521       522      2347      2351      2349
 -1       885    8    0    1
 -2       374       373       523      1910      2352      2353
 -1       886    8    0    1
 -2       373       522       523      2350      2354      2352
 -1       887    8    0    1
 -2       375       374       524      1913      2355      2356
 -1       888    8    0    1
 -2       374       523       524      2353      2357      2355
 -1       889    8    0    1
 -2       376       375       525      1916      2358      2359
 -1       890    8    0    1
 -2       375       524       525      2356      2360      2358
 -1       891    8    0    1
 -2       377       376       526      1919      2361      2362
 -1       892    8    0    1
 -2       376       525       526      2359      2363      2361
 -1       893    8    0    1
 -2       378       377       527      1922      2364      2365
 -1       894    8    0    1
 -2       377       526       527      2362      2366      2364
 -1       895    8    0    1
 -2       379       378       528      1925      2367      2368
 -1       896    8    0    1
 -2       378       527       528      2365      2369      2367
 -1       897    8    0    1
 -2       383       384       529      1941      2370      2371
 -1       898    8    0    1
 -2       384       385       530      1944      2372      2373
 -1       899    8    0    1
 -2       384       530       529      2373      2374      2370
 -1       900    8    0    1
 -2       385       386       531      1947      2375      2376
 -1       901    8    0    1
 -2       385       531       530      2376      2377      2372
 -1       902    8    0    1
 -2       386       387       532      1950      2378      2379
 -1       903    8    0    1
 -2       386       532       531      2379      2380      2375
 -1       904    8    0    1
 -2       387       388       533      1953      2381      2382
 -1       905    8    0    1
 -2       387       533       532      2382      2383      2378
 -1       906    8    0    1
 -2       388       389       534      1956      2384      2385
 -1       907    8    0    1
 -2       388       534       533      2385      2386      2381
 -1       908    8    0    1
 -2       389       390       535      1959      2387      2388
 -1       909    8    0    1
 -2       389       535       534      2388      2389      2384
 -1       910    8    0    1
 -2       390       391       536      1962      2390      2391
 -1       911    8    0    1
 -2       390       536       535      2391      2392      2387
 -1       912    8    0    1
 -2       391       392       537      1965      2393      2394
 -1       913    8    0    1
 -2       391       537       536      2394      2395      2390
 -1       914    8    0    1
 -2       392       393       538      1968      2396      2397
 -1       915    8    0    1
 -2       392       538       537      2397      2398      2393
 -1       916    8    0    1
 -2       393       394       539      1971      2399      2400
 -1       917    8    0    1
 -2       393       539       538      2400      2401      2396
 -1       918    8    0    1
 -2       394       395       540      1974      2402      2403
 -1       919    8    0    1
 -2       394       540       539      2403      2404      2399
 -1       920    8    0    1
 -2       395       396       541      1977      2405      2406
 -1       921    8    0    1
 -2       395       541       540      2406      2407      2402
 -1       922    8    0    1
 -2       396       397       542      1980      2408      2409
 -1       923    8    0    1
 -2       396       542       541      2409      2410      2405
 -1       924    8    0    1
 -2       397       398       543      1983      2411      2412
 -1       925    8    0    1
 -2       397       543       542      2412      2413      2408
 -1       926    8    0    1
 -2       398       399       544      1986      2414      2415
 -1       927    8    0    1
 -2       398       544       543      2415      2416      2411
 -1       928    8    0    1
 -2       399       400       545      1989      2417      2418
 -1       929    8    0    1
 -2       399       545       544      2418      2419      2414
 -1       930    8    0    1
 -2       400       401       546      1992      2420      2421
 -1       931    8    0    1
 -2       400       546       545      2421      2422      2417
 -1       932    8    0    1
 -2       401       402       547      1995      2423      2424
 -1       933    8    0    1
 -2       401       547       546      2424      2425      2420
 -1       934    8    0    1
 -2       402       403       548      1998      2426      2427
 -1       935    8    0    1
 -2       402       548       547      2427      2428      2423
 -1       936    8    0    1
 -2       403       404       549      2001      2429      2430
 -1       937    8    0    1
 -2       403       549       548      2430      2431      2426
 -1       938    8    0    1
 -2       404       405       550      2004      2432      2433
 -1       939    8    0    1
 -2       404       550       549      2433      2434      2429
 -1       940    8    0    1
 -2       405       406       551      2007      2435      2436
 -1       941    8    0    1
 -2       405       551       550      2436      2437      2432
 -1       942    8    0    1
 -2       406       407       552      2010      2438      2439
 -1       943    8    0    1
 -2       406       552       551      2439      2440      2435
 -1       944    8    0    1
 -2       407       408       553      2013      2441      2442
 -1       945    8    0    1
 -2       407       553       552      2442      2443      2438
 -1       946    8    0    1
 -2       408       409       554      2016      2444      2445
 -1       947    8    0    1
 -2       408       554       553      2445      2446      2441
 -1       948    8    0    1
 -2       409       410       555      2019      2447      2448
 -1       949    8    0    1
 -2       409       555       554      2448      2449      2444
 -1       950    8    0    1
 -2       410       411       556      2022      2450      2451
 -1       951    8    0    1
 -2       410       556       555      2451      2452      2447
 -1       952    8    0    1
 -2       411       412       557      2025      2453      2454
 -1       953    8    0    1
 -2       411       557       556      2454      2455      2450
 -1       954    8    0    1
 -2       412       413       558      2028      2456      2457
 -1       955    8    0    1
 -2       412       558       557      2457      2458      2453
 -1       956    8    0    1
 -2       413       414       559      2031      2459      2460
 -1       957    8    0    1
 -2       413       559       558      2460      2461      2456
 -1       958    8    0    1
 -2       414       415       560      2034      2462      2463
 -1       959    8    0    1
 -2       414       560       559      2463      2464      2459
 -1       960    8    0    1
 -2       415       416       561      2037      2465      2466
 -1       961    8    0    1
 -2       415       561       560      2466      2467      2462
 -1       962    8    0    1
 -2       416       417       562      2040      2468      2469
 -1       963    8    0    1
 -2       416       562       561      2469      2470      2465
 -1       964    8    0    1
 -2       417       418       563      2043      2471      2472
 -1       965    8    0    1
 -2       417       563       562      2472      2473      2468
 -1       966    8    0    1
 -2       418       419       564      2046      2474      2475
 -1       967    8    0    1
 -2       418       564       563      2475      2476      2471
 -1       968    8    0    1
 -2       419       420       565      2049      2477      2478
 -1       969    8    0    1
 -2       419       565       564      2478      2479      2474
 -1       970    8    0    1
 -2       420       421       566      2052      2480      2481
 -1       971    8    0    1
 -2       420       566       565      2481      2482      2477
 -1       972    8    0    1
 -2       421       422       567      2055      2483      2484
 -1       973    8    0    1
 -2       421       567       566      2484      2485      2480
 -1       974    8    0    1
 -2       422       423       568      2058      2486      2487
 -1       975    8    0    1
 -2       422       568       567      2487      2488      2483
 -1       976    8    0    1
 -2       423       424       569      2061      2489      2490
 -1       977    8    0    1
 -2       423       569       568      2490      2491      2486
 -1       978    8    0    1
 -2       424       425       570      2064      2492      2493
 -1       979    8    0    1
 -2       424       570       569      2493      2494      2489
 -1       980    8    0    1
 -2       425       426       429      2067      2076      2495
 -1       981    8    0    1
 -2       430       431       571      2083      2496      2497
 -1       982    8    0    1
 -2       431       432       572      2086      2498      2499
 -1       983    8    0    1
 -2       431       572       571      2499      2500      2496
 -1       984    8    0    1
 -2       428       427       573      2073      2501      2502
 -1       985    8    0    1
 -2       427       430       574      2080      2503      2504
 -1       986    8    0    1
 -2       573       427       574      2501      2504      2505
 -1       987    8    0    1
 -2       430       571       574      2497      2506      2503
 -1       988    8    0    1
 -2       432       433       575      2089      2507      2508
 -1       989    8    0    1
 -2       432       575       572      2508      2509      2498
 -1       990    8    0    1
 -2       433       434       576      2092      2510      2511
 -1       991    8    0    1
 -2       433       576       575      2511      2512      2507
 -1       992    8    0    1
 -2       434       435       577      2095      2513      2514
 -1       993    8    0    1
 -2       434       577       576      2514      2515      2510
 -1       994    8    0    1
 -2       435       436       578      2098      2516      2517
 -1       995    8    0    1
 -2       435       578       577      2517      2518      2513
 -1       996    8    0    1
 -2       436       437       579      2101      2519      2520
 -1       997    8    0    1
 -2       436       579       578      2520      2521      2516
 -1       998    8    0    1
 -2       437       438       580      2104      2522      2523
 -1       999    8    0    1
 -2       437       580       579      2523      2524      2519
 -1      1000    8    0    1
 -2       438       439       581      2107      2525      2526
 -1      1001    8    0    1
 -2       438       581       580      2526      2527      2522
 -1      1002    8    0    1
 -2       439       290       380      2183      1928      2528
 -1      1003    8    0    1
 -2       468       441       582      2184      2529      2530
 -1      1004    8    0    1
 -2       382       383       583      1938      2531      2532
 -1      1005    8    0    1
 -2       383       529       583      2371      2533      2531
 -1      1006    8    0    1
 -2       441       442       584      2114      2534      2535
 -1      1007    8    0    1
 -2       467       468       585      2186      2536      2537
 -1      1008    8    0    1
 -2       335       321       586      2178      2538      2539
 -1      1009    8    0    1
 -2       484       335       586      2237      2539      2540
 -1      1010    8    0    1
 -2       321       320       586      1750      2541      2538
 -1      1011    8    0    1
 -2       463       464       587      2190      2542      2543
 -1      1012    8    0    1
 -2       324       325       588      1761      2544      2545
 -1      1013    8    0    1
 -2       475       324       588      2212      2545      2546
 -1      1014    8    0    1
 -2       325       477       588      2218      2547      2544
 -1      1015    8    0    1
 -2       446       447       589      2207      2548      2549
 -1      1016    8    0    1
 -2       449       450       590      2208      2550      2551
 -1      1017    8    0    1
 -2       447       448       591      2129      2552      2553
 -1      1018    8    0    1
 -2       447       591       589      2553      2554      2548
 -1      1019    8    0    1
 -2       455       456       592      2209      2555      2556
 -1      1020    8    0    1
 -2       450       451       593      2203      2557      2558
 -1      1021    8    0    1
 -2       451       452       594      2202      2559      2560
 -1      1022    8    0    1
 -2       453       454       595      2142      2561      2562
 -1      1023    8    0    1
 -2       454       455       596      2198      2563      2564
 -1      1024    8    0    1
 -2       454       596       595      2564      2565      2561
 -1      1025    8    0    1
 -2       456       457       597      2197      2566      2567
 -1      1026    8    0    1
 -2       456       597       592      2567      2568      2555
 -1      1027    8    0    1
 -2       457       458       598      2196      2569      2570
 -1      1028    8    0    1
 -2       458       459       599      2195      2571      2572
 -1      1029    8    0    1
 -2       459       460       600      2194      2573      2574
 -1      1030    8    0    1
 -2       460       461       601      2193      2575      2576
 -1      1031    8    0    1
 -2       461       462       602      2192      2577      2578
 -1      1032    8    0    1
 -2       462       463       603      2191      2579      2580
 -1      1033    8    0    1
 -2       464       465       604      2165      2581      2582
 -1      1034    8    0    1
 -2       466       467       605      2170      2583      2584
 -1      1035    8    0    1
 -2       467       585       605      2537      2585      2583
 -1      1036    8    0    1
 -2       443       444       606      2185      2586      2587
 -1      1037    8    0    1
 -2       442       440       607      2179      2588      2589
 -1      1038    8    0    1
 -2       442       607       584      2589      2590      2534
 -1      1039    8    0    1
 -2       333       334       608      1790      2591      2592
 -1      1040    8    0    1
 -2       332       333       608      1785      2592      2593
 -1      1041    8    0    1
 -2       334       474       608      2211      2594      2591
 -1      1042    8    0    1
 -2       444       469       609      2175      2595      2596
 -1      1043    8    0    1
 -2       444       609       606      2596      2597      2586
 -1      1044    8    0    1
 -2       446       589       610      2549      2598      2599
 -1      1045    8    0    1
 -2       446       610       485      2599      2600      2239
 -1      1046    8    0    1
 -2       322       476       611      2215      2601      2602
 -1      1047    8    0    1
 -2       322       611       445      2602      2603      2122
 -1      1048    8    0    1
 -2       483       382       583      2234      2532      2604
 -1      1049    8    0    1
 -2       331       332       608      1782      2593      2605
 -1      1050    8    0    1
 -2       609       469       485      2595      2240      2606
 -1      1051    8    0    1
 -2       607       440       612      2588      2607      2608
 -1      1052    8    0    1
 -2       440       470       612      2182      2609      2607
 -1      1053    8    0    1
 -2       587       464       604      2542      2582      2610
 -1      1054    8    0    1
 -2       604       465       613      2581      2611      2612
 -1      1055    8    0    1
 -2       465       471       613      2188      2613      2611
 -1      1056    8    0    1
 -2       468       582       585      2530      2614      2536
 -1      1057    8    0    1
 -2       470       443       614      2180      2615      2616
 -1      1058    8    0    1
 -2       443       606       614      2587      2617      2615
 -1      1059    8    0    1
 -2       425       429       570      2495      2618      2492
 -1      1060    8    0    1
 -2       429       428       570      2077      2619      2618
 -1      1061    8    0    1
 -2       603       463       587      2579      2543      2620
 -1      1062    8    0    1
 -2       439       380       615      2528      2621      2622
 -1      1063    8    0    1
 -2       581       439       615      2525      2622      2623
 -1      1064    8    0    1
 -2       380       379       615      1929      2624      2621
 -1      1065    8    0    1
 -2       602       462       603      2577      2580      2625
 -1      1066    8    0    1
 -2       582       441       584      2529      2535      2626
 -1      1067    8    0    1
 -2       331       608       482      2605      2627      2231
 -1      1068    8    0    1
 -2       601       461       602      2575      2578      2628
 -1      1069    8    0    1
 -2       600       460       601      2573      2576      2629
 -1      1070    8    0    1
 -2       471       466       616      2189      2630      2631
 -1      1071    8    0    1
 -2       466       605       616      2584      2632      2630
 -1      1072    8    0    1
 -2       599       459       600      2571      2574      2633
 -1      1073    8    0    1
 -2       596       455       617      2563      2634      2635
 -1      1074    8    0    1
 -2       455       592       617      2556      2636      2634
 -1      1075    8    0    1
 -2       594       452       618      2559      2637      2638
 -1      1076    8    0    1
 -2       452       472       618      2200      2639      2637
 -1      1077    8    0    1
 -2       593       451       594      2557      2560      2640
 -1      1078    8    0    1
 -2       591       448       619      2552      2641      2642
 -1      1079    8    0    1
 -2       448       473       619      2205      2643      2641
 -1      1080    8    0    1
 -2       586       320       445      2541      2121      2644
 -1      1081    8    0    1
 -2       472       453       595      2201      2562      2645
 -1      1082    8    0    1
 -2       473       449       620      2206      2646      2647
 -1      1083    8    0    1
 -2       449       590       620      2551      2648      2646
 -1      1084    8    0    1
 -2       590       450       593      2550      2558      2649
 -1      1085    8    0    1
 -2       457       598       597      2570      2650      2566
 -1      1086    8    0    1
 -2       598       458       599      2569      2572      2651
 -1      1087    8    0    1
 -2       570       428       573      2619      2502      2652
 -1      1088    8    0    1
 -2       615       379       528      2624      2368      2653
 -1      1089    8    0    1
 -2       478       479       621      2224      2654      2655
 -1      1090    8    0    1
 -2       477       478       622      2221      2656      2657
 -1      1091    8    0    1
 -2       478       621       622      2655      2658      2656
 -1      1092    8    0    1
 -2       480       481       623      2230      2659      2660
 -1      1093    8    0    1
 -2       481       482       624      2233      2661      2662
 -1      1094    8    0    1
 -2       481       624       623      2662      2663      2659
 -1      1095    8    0    1
 -2       474       483       625      2236      2664      2665
 -1      1096    8    0    1
 -2       601       602       626      2628      2666      2667
 -1      1097    8    0    1
 -2       483       583       627      2604      2668      2669
 -1      1098    8    0    1
 -2       483       627       625      2669      2670      2664
 -1      1099    8    0    1
 -2       605       585       628      2585      2671      2672
 -1      1100    8    0    1
 -2       487       486       629      2246      2673      2674
 -1      1101    8    0    1
 -2       488       487       630      2249      2675      2676
 -1      1102    8    0    1
 -2       487       629       630      2674      2677      2675
 -1      1103    8    0    1
 -2       489       488       631      2252      2678      2679
 -1      1104    8    0    1
 -2       488       630       631      2676      2680      2678
 -1      1105    8    0    1
 -2       490       489       632      2255      2681      2682
 -1      1106    8    0    1
 -2       489       631       632      2679      2683      2681
 -1      1107    8    0    1
 -2       491       490       633      2258      2684      2685
 -1      1108    8    0    1
 -2       490       632       633      2682      2686      2684
 -1      1109    8    0    1
 -2       492       491       634      2261      2687      2688
 -1      1110    8    0    1
 -2       491       633       634      2685      2689      2687
 -1      1111    8    0    1
 -2       493       492       635      2264      2690      2691
 -1      1112    8    0    1
 -2       492       634       635      2688      2692      2690
 -1      1113    8    0    1
 -2       494       493       636      2267      2693      2694
 -1      1114    8    0    1
 -2       493       635       636      2691      2695      2693
 -1      1115    8    0    1
 -2       495       494       637      2270      2696      2697
 -1      1116    8    0    1
 -2       494       636       637      2694      2698      2696
 -1      1117    8    0    1
 -2       496       495       638      2273      2699      2700
 -1      1118    8    0    1
 -2       495       637       638      2697      2701      2699
 -1      1119    8    0    1
 -2       497       496       639      2276      2702      2703
 -1      1120    8    0    1
 -2       496       638       639      2700      2704      2702
 -1      1121    8    0    1
 -2       498       497       640      2279      2705      2706
 -1      1122    8    0    1
 -2       497       639       640      2703      2707      2705
 -1      1123    8    0    1
 -2       499       498       641      2282      2708      2709
 -1      1124    8    0    1
 -2       498       640       641      2706      2710      2708
 -1      1125    8    0    1
 -2       500       499       642      2285      2711      2712
 -1      1126    8    0    1
 -2       499       641       642      2709      2713      2711
 -1      1127    8    0    1
 -2       501       500       643      2288      2714      2715
 -1      1128    8    0    1
 -2       500       642       643      2712      2716      2714
 -1      1129    8    0    1
 -2       502       501       644      2291      2717      2718
 -1      1130    8    0    1
 -2       501       643       644      2715      2719      2717
 -1      1131    8    0    1
 -2       503       502       645      2294      2720      2721
 -1      1132    8    0    1
 -2       502       644       645      2718      2722      2720
 -1      1133    8    0    1
 -2       504       503       646      2297      2723      2724
 -1      1134    8    0    1
 -2       503       645       646      2721      2725      2723
 -1      1135    8    0    1
 -2       505       504       647      2300      2726      2727
 -1      1136    8    0    1
 -2       504       646       647      2724      2728      2726
 -1      1137    8    0    1
 -2       506       505       648      2303      2729      2730
 -1      1138    8    0    1
 -2       505       647       648      2727      2731      2729
 -1      1139    8    0    1
 -2       507       506       649      2306      2732      2733
 -1      1140    8    0    1
 -2       506       648       649      2730      2734      2732
 -1      1141    8    0    1
 -2       508       507       650      2309      2735      2736
 -1      1142    8    0    1
 -2       507       649       650      2733      2737      2735
 -1      1143    8    0    1
 -2       509       508       651      2312      2738      2739
 -1      1144    8    0    1
 -2       508       650       651      2736      2740      2738
 -1      1145    8    0    1
 -2       510       509       652      2315      2741      2742
 -1      1146    8    0    1
 -2       509       651       652      2739      2743      2741
 -1      1147    8    0    1
 -2       511       510       653      2318      2744      2745
 -1      1148    8    0    1
 -2       510       652       653      2742      2746      2744
 -1      1149    8    0    1
 -2       512       511       654      2321      2747      2748
 -1      1150    8    0    1
 -2       511       653       654      2745      2749      2747
 -1      1151    8    0    1
 -2       513       512       655      2324      2750      2751
 -1      1152    8    0    1
 -2       512       654       655      2748      2752      2750
 -1      1153    8    0    1
 -2       514       513       656      2327      2753      2754
 -1      1154    8    0    1
 -2       513       655       656      2751      2755      2753
 -1      1155    8    0    1
 -2       515       514       657      2330      2756      2757
 -1      1156    8    0    1
 -2       514       656       657      2754      2758      2756
 -1      1157    8    0    1
 -2       516       515       658      2333      2759      2760
 -1      1158    8    0    1
 -2       515       657       658      2757      2761      2759
 -1      1159    8    0    1
 -2       517       516       659      2336      2762      2763
 -1      1160    8    0    1
 -2       516       658       659      2760      2764      2762
 -1      1161    8    0    1
 -2       518       517       660      2339      2765      2766
 -1      1162    8    0    1
 -2       517       659       660      2763      2767      2765
 -1      1163    8    0    1
 -2       519       518       661      2342      2768      2769
 -1      1164    8    0    1
 -2       518       660       661      2766      2770      2768
 -1      1165    8    0    1
 -2       520       519       662      2345      2771      2772
 -1      1166    8    0    1
 -2       519       661       662      2769      2773      2771
 -1      1167    8    0    1
 -2       521       520       663      2348      2774      2775
 -1      1168    8    0    1
 -2       520       662       663      2772      2776      2774
 -1      1169    8    0    1
 -2       522       521       664      2351      2777      2778
 -1      1170    8    0    1
 -2       521       663       664      2775      2779      2777
 -1      1171    8    0    1
 -2       523       522       665      2354      2780      2781
 -1      1172    8    0    1
 -2       522       664       665      2778      2782      2780
 -1      1173    8    0    1
 -2       524       523       666      2357      2783      2784
 -1      1174    8    0    1
 -2       523       665       666      2781      2785      2783
 -1      1175    8    0    1
 -2       525       524       667      2360      2786      2787
 -1      1176    8    0    1
 -2       524       666       667      2784      2788      2786
 -1      1177    8    0    1
 -2       526       525       668      2363      2789      2790
 -1      1178    8    0    1
 -2       525       667       668      2787      2791      2789
 -1      1179    8    0    1
 -2       527       526       669      2366      2792      2793
 -1      1180    8    0    1
 -2       526       668       669      2790      2794      2792
 -1      1181    8    0    1
 -2       528       527       670      2369      2795      2796
 -1      1182    8    0    1
 -2       527       669       670      2793      2797      2795
 -1      1183    8    0    1
 -2       530       531       671      2377      2798      2799
 -1      1184    8    0    1
 -2       602       603       672      2625      2800      2801
 -1      1185    8    0    1
 -2       529       530       673      2374      2802      2803
 -1      1186    8    0    1
 -2       530       671       673      2799      2804      2802
 -1      1187    8    0    1
 -2       532       533       674      2383      2805      2806
 -1      1188    8    0    1
 -2       533       534       675      2386      2807      2808
 -1      1189    8    0    1
 -2       533       675       674      2808      2809      2805
 -1      1190    8    0    1
 -2       534       535       676      2389      2810      2811
 -1      1191    8    0    1
 -2       534       676       675      2811      2812      2807
 -1      1192    8    0    1
 -2       535       536       677      2392      2813      2814
 -1      1193    8    0    1
 -2       535       677       676      2814      2815      2810
 -1      1194    8    0    1
 -2       536       537       678      2395      2816      2817
 -1      1195    8    0    1
 -2       536       678       677      2817      2818      2813
 -1      1196    8    0    1
 -2       537       538       679      2398      2819      2820
 -1      1197    8    0    1
 -2       537       679       678      2820      2821      2816
 -1      1198    8    0    1
 -2       538       539       680      2401      2822      2823
 -1      1199    8    0    1
 -2       538       680       679      2823      2824      2819
 -1      1200    8    0    1
 -2       539       540       681      2404      2825      2826
 -1      1201    8    0    1
 -2       539       681       680      2826      2827      2822
 -1      1202    8    0    1
 -2       540       541       682      2407      2828      2829
 -1      1203    8    0    1
 -2       540       682       681      2829      2830      2825
 -1      1204    8    0    1
 -2       541       542       683      2410      2831      2832
 -1      1205    8    0    1
 -2       541       683       682      2832      2833      2828
 -1      1206    8    0    1
 -2       542       543       684      2413      2834      2835
 -1      1207    8    0    1
 -2       542       684       683      2835      2836      2831
 -1      1208    8    0    1
 -2       543       544       685      2416      2837      2838
 -1      1209    8    0    1
 -2       543       685       684      2838      2839      2834
 -1      1210    8    0    1
 -2       544       545       686      2419      2840      2841
 -1      1211    8    0    1
 -2       544       686       685      2841      2842      2837
 -1      1212    8    0    1
 -2       545       546       687      2422      2843      2844
 -1      1213    8    0    1
 -2       545       687       686      2844      2845      2840
 -1      1214    8    0    1
 -2       546       547       688      2425      2846      2847
 -1      1215    8    0    1
 -2       546       688       687      2847      2848      2843
 -1      1216    8    0    1
 -2       547       548       689      2428      2849      2850
 -1      1217    8    0    1
 -2       547       689       688      2850      2851      2846
 -1      1218    8    0    1
 -2       548       549       690      2431      2852      2853
 -1      1219    8    0    1
 -2       548       690       689      2853      2854      2849
 -1      1220    8    0    1
 -2       549       550       691      2434      2855      2856
 -1      1221    8    0    1
 -2       549       691       690      2856      2857      2852
 -1      1222    8    0    1
 -2       550       551       692      2437      2858      2859
 -1      1223    8    0    1
 -2       550       692       691      2859      2860      2855
 -1      1224    8    0    1
 -2       551       552       693      2440      2861      2862
 -1      1225    8    0    1
 -2       551       693       692      2862      2863      2858
 -1      1226    8    0    1
 -2       552       553       694      2443      2864      2865
 -1      1227    8    0    1
 -2       552       694       693      2865      2866      2861
 -1      1228    8    0    1
 -2       553       554       695      2446      2867      2868
 -1      1229    8    0    1
 -2       553       695       694      2868      2869      2864
 -1      1230    8    0    1
 -2       554       555       696      2449      2870      2871
 -1      1231    8    0    1
 -2       554       696       695      2871      2872      2867
 -1      1232    8    0    1
 -2       555       556       697      2452      2873      2874
 -1      1233    8    0    1
 -2       555       697       696      2874      2875      2870
 -1      1234    8    0    1
 -2       556       557       698      2455      2876      2877
 -1      1235    8    0    1
 -2       556       698       697      2877      2878      2873
 -1      1236    8    0    1
 -2       557       558       699      2458      2879      2880
 -1      1237    8    0    1
 -2       557       699       698      2880      2881      2876
 -1      1238    8    0    1
 -2       558       559       700      2461      2882      2883
 -1      1239    8    0    1
 -2       558       700       699      2883      2884      2879
 -1      1240    8    0    1
 -2       559       560       701      2464      2885      2886
 -1      1241    8    0    1
 -2       559       701       700      2886      2887      2882
 -1      1242    8    0    1
 -2       560       561       702      2467      2888      2889
 -1      1243    8    0    1
 -2       560       702       701      2889      2890      2885
 -1      1244    8    0    1
 -2       561       562       703      2470      2891      2892
 -1      1245    8    0    1
 -2       561       703       702      2892      2893      2888
 -1      1246    8    0    1
 -2       562       563       704      2473      2894      2895
 -1      1247    8    0    1
 -2       562       704       703      2895      2896      2891
 -1      1248    8    0    1
 -2       563       564       705      2476      2897      2898
 -1      1249    8    0    1
 -2       563       705       704      2898      2899      2894
 -1      1250    8    0    1
 -2       564       565       619      2479      2900      2901
 -1      1251    8    0    1
 -2       565       566       589      2482      2902      2903
 -1      1252    8    0    1
 -2       567       568       706      2488      2904      2905
 -1      1253    8    0    1
 -2       568       569       707      2491      2906      2907
 -1      1254    8    0    1
 -2       568       707       706      2907      2908      2904
 -1      1255    8    0    1
 -2       569       570       708      2494      2909      2910
 -1      1256    8    0    1
 -2       707       569       708      2906      2910      2911
 -1      1257    8    0    1
 -2       570       573       708      2652      2912      2909
 -1      1258    8    0    1
 -2       575       576       582      2512      2913      2914
 -1      1259    8    0    1
 -2       615       528       709      2653      2915      2916
 -1      1260    8    0    1
 -2       528       670       709      2796      2917      2915
 -1      1261    8    0    1
 -2       571       572       710      2500      2918      2919
 -1      1262    8    0    1
 -2       576       577       628      2515      2920      2921
 -1      1263    8    0    1
 -2       577       578       628      2518      2922      2920
 -1      1264    8    0    1
 -2       578       579       711      2521      2923      2924
 -1      1265    8    0    1
 -2       579       580       712      2524      2925      2926
 -1      1266    8    0    1
 -2       579       712       711      2926      2927      2923
 -1      1267    8    0    1
 -2       583       529       713      2533      2928      2929
 -1      1268    8    0    1
 -2       627       583       713      2668      2929      2930
 -1      1269    8    0    1
 -2       529       673       713      2803      2931      2928
 -1      1270    8    0    1
 -2       587       604       714      2610      2932      2933
 -1      1271    8    0    1
 -2       609       485       715      2606      2934      2935
 -1      1272    8    0    1
 -2       603       587       716      2620      2936      2937
 -1      1273    8    0    1
 -2       484       586       717      2540      2938      2939
 -1      1274    8    0    1
 -2       592       597       718      2568      2940      2941
 -1      1275    8    0    1
 -2       531       532       719      2380      2942      2943
 -1      1276    8    0    1
 -2       671       531       719      2798      2943      2944
 -1      1277    8    0    1
 -2       532       674       719      2806      2945      2942
 -1      1278    8    0    1
 -2       593       594       720      2640      2946      2947
 -1      1279    8    0    1
 -2       486       484       721      2243      2948      2949
 -1      1280    8    0    1
 -2       629       486       721      2673      2949      2950
 -1      1281    8    0    1
 -2       484       717       721      2939      2951      2948
 -1      1282    8    0    1
 -2       479       480       722      2227      2952      2953
 -1      1283    8    0    1
 -2       621       479       722      2654      2953      2954
 -1      1284    8    0    1
 -2       480       623       722      2660      2955      2952
 -1      1285    8    0    1
 -2       581       615       709      2623      2916      2956
 -1      1286    8    0    1
 -2       472       595       723      2645      2957      2958
 -1      1287    8    0    1
 -2       476       475       724      2216      2959      2960
 -1      1288    8    0    1
 -2       590       593       725      2649      2961      2962
 -1      1289    8    0    1
 -2       597       598       726      2650      2963      2964
 -1      1290    8    0    1
 -2       586       445       717      2644      2965      2938
 -1      1291    8    0    1
 -2       595       596       727      2565      2966      2967
 -1      1292    8    0    1
 -2       482       608       474      2627      2594      2968
 -1      1293    8    0    1
 -2       606       609       728      2597      2969      2970
 -1      1294    8    0    1
 -2       609       715       728      2935      2971      2969
 -1      1295    8    0    1
 -2       598       599       729      2651      2972      2973
 -1      1296    8    0    1
 -2       575       582       584      2914      2626      2974
 -1      1297    8    0    1
 -2       600       601       730      2629      2975      2976
 -1      1298    8    0    1
 -2       599       600       731      2633      2977      2978
 -1      1299    8    0    1
 -2       575       584       572      2974      2979      2509
 -1      1300    8    0    1
 -2       611       476       732      2601      2980      2981
 -1      1301    8    0    1
 -2       476       724       732      2960      2982      2980
 -1      1302    8    0    1
 -2       477       622       733      2657      2983      2984
 -1      1303    8    0    1
 -2       477       733       588      2984      2985      2547
 -1      1304    8    0    1
 -2       605       628       616      2672      2986      2632
 -1      1305    8    0    1
 -2       601       626       730      2667      2987      2975
 -1      1306    8    0    1
 -2       612       470       734      2609      2988      2989
 -1      1307    8    0    1
 -2       470       614       734      2616      2990      2988
 -1      1308    8    0    1
 -2       613       471       735      2613      2991      2992
 -1      1309    8    0    1
 -2       471       616       735      2631      2993      2991
 -1      1310    8    0    1
 -2       581       709       580      2956      2994      2527
 -1      1311    8    0    1
 -2       593       720       725      2947      2995      2961
 -1      1312    8    0    1
 -2       731       600       730      2977      2976      2996
 -1      1313    8    0    1
 -2       614       606       736      2617      2997      2998
 -1      1314    8    0    1
 -2       606       728       736      2970      2999      2997
 -1      1315    8    0    1
 -2       720       594       737      2946      3000      3001
 -1      1316    8    0    1
 -2       594       618       737      2638      3002      3000
 -1      1317    8    0    1
 -2       602       672       626      2801      3003      2666
 -1      1318    8    0    1
 -2       587       714       716      2933      3004      2936
 -1      1319    8    0    1
 -2       564       619       705      2901      3005      2897
 -1      1320    8    0    1
 -2       567       706       610      2905      3006      3007
 -1      1321    8    0    1
 -2       566       567       610      2485      3007      3008
 -1      1322    8    0    1
 -2       708       573       738      2912      3009      3010
 -1      1323    8    0    1
 -2       573       574       738      2505      3011      3009
 -1      1324    8    0    1
 -2       718       597       726      2940      2964      3012
 -1      1325    8    0    1
 -2       472       723       618      2958      3013      2639
 -1      1326    8    0    1
 -2       628       578       711      2922      2924      3014
 -1      1327    8    0    1
 -2       595       727       723      2967      3015      2957
 -1      1328    8    0    1
 -2       712       580       709      2925      2994      3016
 -1      1329    8    0    1
 -2       715       485       610      2934      2600      3017
 -1      1330    8    0    1
 -2       598       729       726      2973      3018      2963
 -1      1331    8    0    1
 -2       582       576       628      2913      2921      3019
 -1      1332    8    0    1
 -2       603       716       672      2937      3020      2800
 -1      1333    8    0    1
 -2       592       718       617      2941      3021      2636
 -1      1334    8    0    1
 -2       475       588       739      2546      3022      3023
 -1      1335    8    0    1
 -2       724       475       739      2959      3023      3024
 -1      1336    8    0    1
 -2       588       733       739      2985      3025      3022
 -1      1337    8    0    1
 -2       619       473       620      2643      2647      3026
 -1      1338    8    0    1
 -2       574       571       740      2506      3027      3028
 -1      1339    8    0    1
 -2       738       574       740      3011      3028      3029
 -1      1340    8    0    1
 -2       571       710       740      2919      3030      3027
 -1      1341    8    0    1
 -2       620       590       725      2648      2962      3031
 -1      1342    8    0    1
 -2       445       611       717      2603      3032      2965
 -1      1343    8    0    1
 -2       714       604       741      2932      3033      3034
 -1      1344    8    0    1
 -2       604       613       741      2612      3035      3033
 -1      1345    8    0    1
 -2       727       596       742      2966      3036      3037
 -1      1346    8    0    1
 -2       596       617       742      2635      3038      3036
 -1      1347    8    0    1
 -2       482       474       625      2968      2665      3039
 -1      1348    8    0    1
 -2       729       599       731      2972      2978      3040
 -1      1349    8    0    1
 -2       624       482       625      2661      3039      3041
 -1      1350    8    0    1
 -2       572       584       710      2979      3042      2918
 -1      1351    8    0    1
 -2       729       731       743      3040      3043      3044
 -1      1352    8    0    1
 -2       623       624       744      2663      3045      3046
 -1      1353    8    0    1
 -2       631       630       745      2680      3047      3048
 -1      1354    8    0    1
 -2       632       631       746      2683      3049      3050
 -1      1355    8    0    1
 -2       631       745       746      3048      3051      3049
 -1      1356    8    0    1
 -2       633       632       747      2686      3052      3053
 -1      1357    8    0    1
 -2       632       746       747      3050      3054      3052
 -1      1358    8    0    1
 -2       634       633       748      2689      3055      3056
 -1      1359    8    0    1
 -2       633       747       748      3053      3057      3055
 -1      1360    8    0    1
 -2       635       634       749      2692      3058      3059
 -1      1361    8    0    1
 -2       634       748       749      3056      3060      3058
 -1      1362    8    0    1
 -2       636       635       750      2695      3061      3062
 -1      1363    8    0    1
 -2       635       749       750      3059      3063      3061
 -1      1364    8    0    1
 -2       637       636       751      2698      3064      3065
 -1      1365    8    0    1
 -2       636       750       751      3062      3066      3064
 -1      1366    8    0    1
 -2       638       637       752      2701      3067      3068
 -1      1367    8    0    1
 -2       637       751       752      3065      3069      3067
 -1      1368    8    0    1
 -2       639       638       753      2704      3070      3071
 -1      1369    8    0    1
 -2       638       752       753      3068      3072      3070
 -1      1370    8    0    1
 -2       640       639       754      2707      3073      3074
 -1      1371    8    0    1
 -2       639       753       754      3071      3075      3073
 -1      1372    8    0    1
 -2       641       640       755      2710      3076      3077
 -1      1373    8    0    1
 -2       640       754       755      3074      3078      3076
 -1      1374    8    0    1
 -2       642       641       756      2713      3079      3080
 -1      1375    8    0    1
 -2       641       755       756      3077      3081      3079
 -1      1376    8    0    1
 -2       643       642       757      2716      3082      3083
 -1      1377    8    0    1
 -2       642       756       757      3080      3084      3082
 -1      1378    8    0    1
 -2       644       643       758      2719      3085      3086
 -1      1379    8    0    1
 -2       643       757       758      3083      3087      3085
 -1      1380    8    0    1
 -2       645       644       759      2722      3088      3089
 -1      1381    8    0    1
 -2       644       758       759      3086      3090      3088
 -1      1382    8    0    1
 -2       646       645       760      2725      3091      3092
 -1      1383    8    0    1
 -2       645       759       760      3089      3093      3091
 -1      1384    8    0    1
 -2       647       646       761      2728      3094      3095
 -1      1385    8    0    1
 -2       646       760       761      3092      3096      3094
 -1      1386    8    0    1
 -2       648       647       762      2731      3097      3098
 -1      1387    8    0    1
 -2       647       761       762      3095      3099      3097
 -1      1388    8    0    1
 -2       649       648       763      2734      3100      3101
 -1      1389    8    0    1
 -2       648       762       763      3098      3102      3100
 -1      1390    8    0    1
 -2       650       649       764      2737      3103      3104
 -1      1391    8    0    1
 -2       649       763       764      3101      3105      3103
 -1      1392    8    0    1
 -2       651       650       765      2740      3106      3107
 -1      1393    8    0    1
 -2       650       764       765      3104      3108      3106
 -1      1394    8    0    1
 -2       652       651       766      2743      3109      3110
 -1      1395    8    0    1
 -2       651       765       766      3107      3111      3109
 -1      1396    8    0    1
 -2       653       652       767      2746      3112      3113
 -1      1397    8    0    1
 -2       652       766       767      3110      3114      3112
 -1      1398    8    0    1
 -2       654       653       768      2749      3115      3116
 -1      1399    8    0    1
 -2       653       767       768      3113      3117      3115
 -1      1400    8    0    1
 -2       655       654       769      2752      3118      3119
 -1      1401    8    0    1
 -2       654       768       769      3116      3120      3118
 -1      1402    8    0    1
 -2       656       655       770      2755      3121      3122
 -1      1403    8    0    1
 -2       655       769       770      3119      3123      3121
 -1      1404    8    0    1
 -2       657       656       771      2758      3124      3125
 -1      1405    8    0    1
 -2       656       770       771      3122      3126      3124
 -1      1406    8    0    1
 -2       658       657       772      2761      3127      3128
 -1      1407    8    0    1
 -2       657       771       772      3125      3129      3127
 -1      1408    8    0    1
 -2       659       658       773      2764      3130      3131
 -1      1409    8    0    1
 -2       658       772       773      3128      3132      3130
 -1      1410    8    0    1
 -2       660       659       774      2767      3133      3134
 -1      1411    8    0    1
 -2       659       773       774      3131      3135      3133
 -1      1412    8    0    1
 -2       661       660       775      2770      3136      3137
 -1      1413    8    0    1
 -2       660       774       775      3134      3138      3136
 -1      1414    8    0    1
 -2       662       661       776      2773      3139      3140
 -1      1415    8    0    1
 -2       661       775       776      3137      3141      3139
 -1      1416    8    0    1
 -2       663       662       777      2776      3142      3143
 -1      1417    8    0    1
 -2       662       776       777      3140      3144      3142
 -1      1418    8    0    1
 -2       664       663       743      2779      3145      3146
 -1      1419    8    0    1
 -2       665       664       730      2782      3147      3148
 -1      1420    8    0    1
 -2       666       665       626      2785      3149      3150
 -1      1421    8    0    1
 -2       667       666       672      2788      3151      3152
 -1      1422    8    0    1
 -2       668       667       716      2791      3153      3154
 -1      1423    8    0    1
 -2       669       668       714      2794      3155      3156
 -1      1424    8    0    1
 -2       675       676       778      2812      3157      3158
 -1      1425    8    0    1
 -2       674       675       779      2809      3159      3160
 -1      1426    8    0    1
 -2       675       778       779      3158      3161      3159
 -1      1427    8    0    1
 -2       677       678       780      2818      3162      3163
 -1      1428    8    0    1
 -2       678       679       781      2821      3164      3165
 -1      1429    8    0    1
 -2       678       781       780      3165      3166      3162
 -1      1430    8    0    1
 -2       679       680       782      2824      3167      3168
 -1      1431    8    0    1
 -2       679       782       781      3168      3169      3164
 -1      1432    8    0    1
 -2       680       681       783      2827      3170      3171
 -1      1433    8    0    1
 -2       680       783       782      3171      3172      3167
 -1      1434    8    0    1
 -2       681       682       784      2830      3173      3174
 -1      1435    8    0    1
 -2       681       784       783      3174      3175      3170
 -1      1436    8    0    1
 -2       682       683       785      2833      3176      3177
 -1      1437    8    0    1
 -2       682       785       784      3177      3178      3173
 -1      1438    8    0    1
 -2       683       684       786      2836      3179      3180
 -1      1439    8    0    1
 -2       683       786       785      3180      3181      3176
 -1      1440    8    0    1
 -2       684       685       787      2839      3182      3183
 -1      1441    8    0    1
 -2       684       787       786      3183      3184      3179
 -1      1442    8    0    1
 -2       685       686       788      2842      3185      3186
 -1      1443    8    0    1
 -2       685       788       787      3186      3187      3182
 -1      1444    8    0    1
 -2       686       687       789      2845      3188      3189
 -1      1445    8    0    1
 -2       686       789       788      3189      3190      3185
 -1      1446    8    0    1
 -2       687       688       790      2848      3191      3192
 -1      1447    8    0    1
 -2       687       790       789      3192      3193      3188
 -1      1448    8    0    1
 -2       688       689       791      2851      3194      3195
 -1      1449    8    0    1
 -2       688       791       790      3195      3196      3191
 -1      1450    8    0    1
 -2       689       690       792      2854      3197      3198
 -1      1451    8    0    1
 -2       689       792       791      3198      3199      3194
 -1      1452    8    0    1
 -2       690       691       793      2857      3200      3201
 -1      1453    8    0    1
 -2       690       793       792      3201      3202      3197
 -1      1454    8    0    1
 -2       691       692       794      2860      3203      3204
 -1      1455    8    0    1
 -2       691       794       793      3204      3205      3200
 -1      1456    8    0    1
 -2       692       693       795      2863      3206      3207
 -1      1457    8    0    1
 -2       692       795       794      3207      3208      3203
 -1      1458    8    0    1
 -2       693       694       796      2866      3209      3210
 -1      1459    8    0    1
 -2       693       796       795      3210      3211      3206
 -1      1460    8    0    1
 -2       694       695       797      2869      3212      3213
 -1      1461    8    0    1
 -2       694       797       796      3213      3214      3209
 -1      1462    8    0    1
 -2       695       696       798      2872      3215      3216
 -1      1463    8    0    1
 -2       695       798       797      3216      3217      3212
 -1      1464    8    0    1
 -2       696       697       799      2875      3218      3219
 -1      1465    8    0    1
 -2       696       799       798      3219      3220      3215
 -1      1466    8    0    1
 -2       697       698       800      2878      3221      3222
 -1      1467    8    0    1
 -2       697       800       799      3222      3223      3218
 -1      1468    8    0    1
 -2       698       699       801      2881      3224      3225
 -1      1469    8    0    1
 -2       698       801       800      3225      3226      3221
 -1      1470    8    0    1
 -2       699       700       802      2884      3227      3228
 -1      1471    8    0    1
 -2       699       802       801      3228      3229      3224
 -1      1472    8    0    1
 -2       700       701       803      2887      3230      3231
 -1      1473    8    0    1
 -2       700       803       802      3231      3232      3227
 -1      1474    8    0    1
 -2       701       702       804      2890      3233      3234
 -1      1475    8    0    1
 -2       701       804       803      3234      3235      3230
 -1      1476    8    0    1
 -2       702       703       805      2893      3236      3237
 -1      1477    8    0    1
 -2       702       805       804      3237      3238      3233
 -1      1478    8    0    1
 -2       704       705       725      2899      3239      3240
 -1      1479    8    0    1
 -2       610       706       715      3006      3241      3017
 -1      1480    8    0    1
 -2       672       666       626      3151      3150      3003
 -1      1481    8    0    1
 -2       622       621       806      2658      3242      3243
 -1      1482    8    0    1
 -2       672       716       667      3020      3153      3152
 -1      1483    8    0    1
 -2       718       726       807      3012      3244      3245
 -1      1484    8    0    1
 -2       714       668       716      3155      3154      3004
 -1      1485    8    0    1
 -2       711       712       735      2927      3246      3247
 -1      1486    8    0    1
 -2       723       727       808      3015      3248      3249
 -1      1487    8    0    1
 -2       707       708       809      2911      3250      3251
 -1      1488    8    0    1
 -2       706       707       809      2908      3251      3252
 -1      1489    8    0    1
 -2       708       738       809      3010      3253      3250
 -1      1490    8    0    1
 -2       589       566       610      2902      3008      2598
 -1      1491    8    0    1
 -2       730       626       665      2987      3149      3148
 -1      1492    8    0    1
 -2       676       677       810      2815      3254      3255
 -1      1493    8    0    1
 -2       778       676       810      3157      3255      3256
 -1      1494    8    0    1
 -2       677       780       810      3163      3257      3254
 -1      1495    8    0    1
 -2       673       671       811      2804      3258      3259
 -1      1496    8    0    1
 -2       617       718       812      3021      3260      3261
 -1      1497    8    0    1
 -2       630       629       813      2677      3262      3263
 -1      1498    8    0    1
 -2       630       813       745      3263      3264      3047
 -1      1499    8    0    1
 -2       717       611       732      3032      2981      3265
 -1      1500    8    0    1
 -2       618       723       814      3013      3266      3267
 -1      1501    8    0    1
 -2       728       715       809      2971      3268      3269
 -1      1502    8    0    1
 -2       624       625       815      3041      3270      3271
 -1      1503    8    0    1
 -2       744       624       815      3045      3271      3272
 -1      1504    8    0    1
 -2       625       627       815      2670      3273      3270
 -1      1505    8    0    1
 -2       726       729       816      3018      3274      3275
 -1      1506    8    0    1
 -2       704       725       817      3240      3276      3277
 -1      1507    8    0    1
 -2       703       704       817      2896      3277      3278
 -1      1508    8    0    1
 -2       725       720       817      2995      3279      3276
 -1      1509    8    0    1
 -2       715       706       809      3241      3252      3268
 -1      1510    8    0    1
 -2       733       622       818      2983      3280      3281
 -1      1511    8    0    1
 -2       622       806       818      3243      3282      3280
 -1      1512    8    0    1
 -2       623       744       819      3046      3283      3284
 -1      1513    8    0    1
 -2       623       819       722      3284      3285      2955
 -1      1514    8    0    1
 -2       734       614       736      2990      2998      3286
 -1      1515    8    0    1
 -2       726       816       807      3275      3287      3244
 -1      1516    8    0    1
 -2       735       616       711      2993      3288      3247
 -1      1517    8    0    1
 -2       607       612       710      2608      3289      3290
 -1      1518    8    0    1
 -2       736       728       809      2999      3269      3291
 -1      1519    8    0    1
 -2       737       618       814      3002      3267      3292
 -1      1520    8    0    1
 -2       620       725       705      3031      3239      3293
 -1      1521    8    0    1
 -2       806       621       820      3242      3294      3295
 -1      1522    8    0    1
 -2       621       722       820      2954      3296      3294
 -1      1523    8    0    1
 -2       718       807       821      3245      3297      3298
 -1      1524    8    0    1
 -2       718       821       812      3298      3299      3260
 -1      1525    8    0    1
 -2       735       712       822      3246      3300      3301
 -1      1526    8    0    1
 -2       669       714       823      3156      3302      3303
 -1      1527    8    0    1
 -2       673       811       824      3259      3304      3305
 -1      1528    8    0    1
 -2       673       824       713      3305      3306      2931
 -1      1529    8    0    1
 -2       670       669       823      2797      3303      3307
 -1      1530    8    0    1
 -2       719       674       825      2945      3308      3309
 -1      1531    8    0    1
 -2       674       779       825      3160      3310      3308
 -1      1532    8    0    1
 -2       805       703       817      3236      3278      3311
 -1      1533    8    0    1
 -2       709       670       712      2917      3312      3016
 -1      1534    8    0    1
 -2       729       743       816      3044      3313      3274
 -1      1535    8    0    1
 -2       620       705       619      3293      3005      3026
 -1      1536    8    0    1
 -2       711       616       628      3288      2986      3014
 -1      1537    8    0    1
 -2       710       612       734      3289      2989      3314
 -1      1538    8    0    1
 -2       613       735       822      2992      3301      3315
 -1      1539    8    0    1
 -2       808       727       826      3248      3316      3317
 -1      1540    8    0    1
 -2       727       742       826      3037      3318      3316
 -1      1541    8    0    1
 -2       627       713       827      2930      3319      3320
 -1      1542    8    0    1
 -2       815       627       827      3273      3320      3321
 -1      1543    8    0    1
 -2       713       824       827      3306      3322      3319
 -1      1544    8    0    1
 -2       723       808       828      3249      3323      3324
 -1      1545    8    0    1
 -2       723       828       814      3324      3325      3266
 -1      1546    8    0    1
 -2       813       629       829      3262      3326      3327
 -1      1547    8    0    1
 -2       629       721       829      2950      3328      3326
 -1      1548    8    0    1
 -2       724       739       830      3024      3329      3330
 -1      1549    8    0    1
 -2       811       671       831      3258      3331      3332
 -1      1550    8    0    1
 -2       671       719       831      2944      3333      3331
 -1      1551    8    0    1
 -2       710       734       740      3314      3334      3030
 -1      1552    8    0    1
 -2       617       812       742      3261      3335      3038
 -1      1553    8    0    1
 -2       721       717       732      2951      3265      3336
 -1      1554    8    0    1
 -2       724       830       832      3330      3337      3338
 -1      1555    8    0    1
 -2       724       832       732      3338      3339      2982
 -1      1556    8    0    1
 -2       741       613       822      3035      3315      3340
 -1      1557    8    0    1
 -2       730       664       833      3147      3341      3342
 -1      1558    8    0    1
 -2       591       619       834      2642      3343      3344
 -1      1559    8    0    1
 -2       730       833       731      3342      3345      2996
 -1      1560    8    0    1
 -2       817       720       835      3279      3346      3347
 -1      1561    8    0    1
 -2       805       817       835      3311      3347      3348
 -1      1562    8    0    1
 -2       720       737       835      3001      3349      3346
 -1      1563    8    0    1
 -2       585       582       628      2614      3019      2671
 -1      1564    8    0    1
 -2       584       607       710      2590      3290      3042
 -1      1565    8    0    1
 -2       591       834       589      3344      3350      2554
 -1      1566    8    0    1
 -2       663       777       743      3143      3351      3145
 -1      1567    8    0    1
 -2       736       809       738      3291      3253      3352
 -1      1568    8    0    1
 -2       747       746       836      3054      3353      3354
 -1      1569    8    0    1
 -2       748       747       837      3057      3355      3356
 -1      1570    8    0    1
 -2       747       836       837      3354      3357      3355
 -1      1571    8    0    1
 -2       749       748       838      3060      3358      3359
 -1      1572    8    0    1
 -2       748       837       838      3356      3360      3358
 -1      1573    8    0    1
 -2       750       749       839      3063      3361      3362
 -1      1574    8    0    1
 -2       749       838       839      3359      3363      3361
 -1      1575    8    0    1
 -2       751       750       840      3066      3364      3365
 -1      1576    8    0    1
 -2       750       839       840      3362      3366      3364
 -1      1577    8    0    1
 -2       752       751       841      3069      3367      3368
 -1      1578    8    0    1
 -2       751       840       841      3365      3369      3367
 -1      1579    8    0    1
 -2       753       752       842      3072      3370      3371
 -1      1580    8    0    1
 -2       752       841       842      3368      3372      3370
 -1      1581    8    0    1
 -2       754       753       843      3075      3373      3374
 -1      1582    8    0    1
 -2       753       842       843      3371      3375      3373
 -1      1583    8    0    1
 -2       755       754       844      3078      3376      3377
 -1      1584    8    0    1
 -2       754       843       844      3374      3378      3376
 -1      1585    8    0    1
 -2       756       755       845      3081      3379      3380
 -1      1586    8    0    1
 -2       755       844       845      3377      3381      3379
 -1      1587    8    0    1
 -2       757       756       846      3084      3382      3383
 -1      1588    8    0    1
 -2       756       845       846      3380      3384      3382
 -1      1589    8    0    1
 -2       758       757       847      3087      3385      3386
 -1      1590    8    0    1
 -2       757       846       847      3383      3387      3385
 -1      1591    8    0    1
 -2       759       758       848      3090      3388      3389
 -1      1592    8    0    1
 -2       758       847       848      3386      3390      3388
 -1      1593    8    0    1
 -2       760       759       849      3093      3391      3392
 -1      1594    8    0    1
 -2       759       848       849      3389      3393      3391
 -1      1595    8    0    1
 -2       761       760       850      3096      3394      3395
 -1      1596    8    0    1
 -2       760       849       850      3392      3396      3394
 -1      1597    8    0    1
 -2       762       761       851      3099      3397      3398
 -1      1598    8    0    1
 -2       761       850       851      3395      3399      3397
 -1      1599    8    0    1
 -2       763       762       852      3102      3400      3401
 -1      1600    8    0    1
 -2       762       851       852      3398      3402      3400
 -1      1601    8    0    1
 -2       764       763       853      3105      3403      3404
 -1      1602    8    0    1
 -2       763       852       853      3401      3405      3403
 -1      1603    8    0    1
 -2       765       764       854      3108      3406      3407
 -1      1604    8    0    1
 -2       764       853       854      3404      3408      3406
 -1      1605    8    0    1
 -2       766       765       855      3111      3409      3410
 -1      1606    8    0    1
 -2       765       854       855      3407      3411      3409
 -1      1607    8    0    1
 -2       767       766       856      3114      3412      3413
 -1      1608    8    0    1
 -2       766       855       856      3410      3414      3412
 -1      1609    8    0    1
 -2       768       767       857      3117      3415      3416
 -1      1610    8    0    1
 -2       767       856       857      3413      3417      3415
 -1      1611    8    0    1
 -2       769       768       858      3120      3418      3419
 -1      1612    8    0    1
 -2       768       857       858      3416      3420      3418
 -1      1613    8    0    1
 -2       770       769       859      3123      3421      3422
 -1      1614    8    0    1
 -2       769       858       859      3419      3423      3421
 -1      1615    8    0    1
 -2       771       770       860      3126      3424      3425
 -1      1616    8    0    1
 -2       770       859       860      3422      3426      3424
 -1      1617    8    0    1
 -2       772       771       861      3129      3427      3428
 -1      1618    8    0    1
 -2       771       860       861      3425      3429      3427
 -1      1619    8    0    1
 -2       773       772       862      3132      3430      3431
 -1      1620    8    0    1
 -2       772       861       862      3428      3432      3430
 -1      1621    8    0    1
 -2       774       773       863      3135      3433      3434
 -1      1622    8    0    1
 -2       773       862       863      3431      3435      3433
 -1      1623    8    0    1
 -2       775       774       864      3138      3436      3437
 -1      1624    8    0    1
 -2       774       863       864      3434      3438      3436
 -1      1625    8    0    1
 -2       776       775       865      3141      3439      3440
 -1      1626    8    0    1
 -2       775       864       865      3437      3441      3439
 -1      1627    8    0    1
 -2       777       776       866      3144      3442      3443
 -1      1628    8    0    1
 -2       743       777       866      3351      3443      3444
 -1      1629    8    0    1
 -2       776       865       866      3440      3445      3442
 -1      1630    8    0    1
 -2       781       782       867      3169      3446      3447
 -1      1631    8    0    1
 -2       780       781       868      3166      3448      3449
 -1      1632    8    0    1
 -2       781       867       868      3447      3450      3448
 -1      1633    8    0    1
 -2       783       784       869      3175      3451      3452
 -1      1634    8    0    1
 -2       784       785       870      3178      3453      3454
 -1      1635    8    0    1
 -2       784       870       869      3454      3455      3451
 -1      1636    8    0    1
 -2       785       786       871      3181      3456      3457
 -1      1637    8    0    1
 -2       785       871       870      3457      3458      3453
 -1      1638    8    0    1
 -2       786       787       872      3184      3459      3460
 -1      1639    8    0    1
 -2       786       872       871      3460      3461      3456
 -1      1640    8    0    1
 -2       787       788       873      3187      3462      3463
 -1      1641    8    0    1
 -2       787       873       872      3463      3464      3459
 -1      1642    8    0    1
 -2       788       789       874      3190      3465      3466
 -1      1643    8    0    1
 -2       788       874       873      3466      3467      3462
 -1      1644    8    0    1
 -2       789       790       875      3193      3468      3469
 -1      1645    8    0    1
 -2       789       875       874      3469      3470      3465
 -1      1646    8    0    1
 -2       790       791       876      3196      3471      3472
 -1      1647    8    0    1
 -2       790       876       875      3472      3473      3468
 -1      1648    8    0    1
 -2       791       792       877      3199      3474      3475
 -1      1649    8    0    1
 -2       791       877       876      3475      3476      3471
 -1      1650    8    0    1
 -2       792       793       878      3202      3477      3478
 -1      1651    8    0    1
 -2       792       878       877      3478      3479      3474
 -1      1652    8    0    1
 -2       793       794       879      3205      3480      3481
 -1      1653    8    0    1
 -2       793       879       878      3481      3482      3477
 -1      1654    8    0    1
 -2       794       795       880      3208      3483      3484
 -1      1655    8    0    1
 -2       794       880       879      3484      3485      3480
 -1      1656    8    0    1
 -2       795       796       881      3211      3486      3487
 -1      1657    8    0    1
 -2       795       881       880      3487      3488      3483
 -1      1658    8    0    1
 -2       796       797       882      3214      3489      3490
 -1      1659    8    0    1
 -2       796       882       881      3490      3491      3486
 -1      1660    8    0    1
 -2       797       798       883      3217      3492      3493
 -1      1661    8    0    1
 -2       797       883       882      3493      3494      3489
 -1      1662    8    0    1
 -2       798       799       884      3220      3495      3496
 -1      1663    8    0    1
 -2       798       884       883      3496      3497      3492
 -1      1664    8    0    1
 -2       799       800       885      3223      3498      3499
 -1      1665    8    0    1
 -2       799       885       884      3499      3500      3495
 -1      1666    8    0    1
 -2       800       801       886      3226      3501      3502
 -1      1667    8    0    1
 -2       800       886       885      3502      3503      3498
 -1      1668    8    0    1
 -2       801       802       887      3229      3504      3505
 -1      1669    8    0    1
 -2       801       887       886      3505      3506      3501
 -1      1670    8    0    1
 -2       802       803       888      3232      3507      3508
 -1      1671    8    0    1
 -2       802       888       887      3508      3509      3504
 -1      1672    8    0    1
 -2       803       804       889      3235      3510      3511
 -1      1673    8    0    1
 -2       803       889       888      3511      3512      3507
 -1      1674    8    0    1
 -2       804       805       890      3238      3513      3514
 -1      1675    8    0    1
 -2       889       804       890      3510      3514      3515
 -1      1676    8    0    1
 -2       805       835       890      3348      3516      3513
 -1      1677    8    0    1
 -2       619       565       834      2900      3517      3343
 -1      1678    8    0    1
 -2       782       783       891      3172      3518      3519
 -1      1679    8    0    1
 -2       867       782       891      3446      3519      3520
 -1      1680    8    0    1
 -2       783       869       891      3452      3521      3518
 -1      1681    8    0    1
 -2       779       778       892      3161      3522      3523
 -1      1682    8    0    1
 -2       830       739       893      3329      3524      3525
 -1      1683    8    0    1
 -2       739       733       893      3025      3526      3524
 -1      1684    8    0    1
 -2       742       812       894      3335      3527      3528
 -1      1685    8    0    1
 -2       742       894       826      3528      3529      3318
 -1      1686    8    0    1
 -2       745       813       895      3264      3530      3531
 -1      1687    8    0    1
 -2       721       732       829      3336      3532      3328
 -1      1688    8    0    1
 -2       816       743       866      3313      3444      3533
 -1      1689    8    0    1
 -2       737       814       896      3292      3534      3535
 -1      1690    8    0    1
 -2       737       896       835      3535      3536      3349
 -1      1691    8    0    1
 -2       746       745       897      3051      3537      3538
 -1      1692    8    0    1
 -2       746       897       836      3538      3539      3353
 -1      1693    8    0    1
 -2       744       815       898      3272      3540      3541
 -1      1694    8    0    1
 -2       815       827       898      3321      3542      3540
 -1      1695    8    0    1
 -2       807       816       899      3287      3543      3544
 -1      1696    8    0    1
 -2       712       670       823      3312      3307      3545
 -1      1697    8    0    1
 -2       819       744       898      3283      3541      3546
 -1      1698    8    0    1
 -2       824       811       900      3304      3547      3548
 -1      1699    8    0    1
 -2       820       722       819      3296      3285      3549
 -1      1700    8    0    1
 -2       779       892       901      3523      3550      3551
 -1      1701    8    0    1
 -2       779       901       825      3551      3552      3310
 -1      1702    8    0    1
 -2       736       738       740      3352      3029      3553
 -1      1703    8    0    1
 -2       778       810       902      3256      3554      3555
 -1      1704    8    0    1
 -2       778       902       892      3555      3556      3522
 -1      1705    8    0    1
 -2       821       807       903      3297      3557      3558
 -1      1706    8    0    1
 -2       807       899       903      3544      3559      3557
 -1      1707    8    0    1
 -2       822       712       823      3300      3545      3560
 -1      1708    8    0    1
 -2       719       825       831      3309      3561      3333
 -1      1709    8    0    1
 -2       814       828       896      3325      3562      3534
 -1      1710    8    0    1
 -2       900       811       904      3547      3563      3564
 -1      1711    8    0    1
 -2       811       831       904      3332      3565      3563
 -1      1712    8    0    1
 -2       736       740       734      3553      3334      3286
 -1      1713    8    0    1
 -2       780       868       905      3449      3566      3567
 -1      1714    8    0    1
 -2       780       905       810      3567      3568      3257
 -1      1715    8    0    1
 -2       806       820       906      3295      3569      3570
 -1      1716    8    0    1
 -2       565       589       834      2903      3350      3517
 -1      1717    8    0    1
 -2       745       895       897      3531      3571      3537
 -1      1718    8    0    1
 -2       816       866       899      3533      3572      3543
 -1      1719    8    0    1
 -2       818       806       907      3282      3573      3574
 -1      1720    8    0    1
 -2       806       906       907      3570      3575      3573
 -1      1721    8    0    1
 -2       893       733       818      3526      3281      3576
 -1      1722    8    0    1
 -2       830       893       908      3525      3577      3578
 -1      1723    8    0    1
 -2       812       821       909      3299      3579      3580
 -1      1724    8    0    1
 -2       812       909       894      3580      3581      3527
 -1      1725    8    0    1
 -2       808       826       910      3317      3582      3583
 -1      1726    8    0    1
 -2       808       910       828      3583      3584      3323
 -1      1727    8    0    1
 -2       895       813       911      3530      3585      3586
 -1      1728    8    0    1
 -2       813       829       911      3327      3587      3585
 -1      1729    8    0    1
 -2       830       908       911      3578      3588      3589
 -1      1730    8    0    1
 -2       731       833       743      3345      3590      3043
 -1      1731    8    0    1
 -2       741       822       823      3340      3560      3591
 -1      1732    8    0    1
 -2       837       836       912      3357      3592      3593
 -1      1733    8    0    1
 -2       824       900       913      3548      3594      3595
 -1      1734    8    0    1
 -2       820       819       914      3549      3596      3597
 -1      1735    8    0    1
 -2       820       914       906      3597      3598      3569
 -1      1736    8    0    1
 -2       823       714       741      3302      3034      3591
 -1      1737    8    0    1
 -2       838       837       915      3360      3599      3600
 -1      1738    8    0    1
 -2       837       912       915      3593      3601      3599
 -1      1739    8    0    1
 -2       839       838       916      3363      3602      3603
 -1      1740    8    0    1
 -2       838       915       916      3600      3604      3602
 -1      1741    8    0    1
 -2       840       839       917      3366      3605      3606
 -1      1742    8    0    1
 -2       839       916       917      3603      3607      3605
 -1      1743    8    0    1
 -2       841       840       918      3369      3608      3609
 -1      1744    8    0    1
 -2       840       917       918      3606      3610      3608
 -1      1745    8    0    1
 -2       842       841       919      3372      3611      3612
 -1      1746    8    0    1
 -2       841       918       919      3609      3613      3611
 -1      1747    8    0    1
 -2       843       842       920      3375      3614      3615
 -1      1748    8    0    1
 -2       842       919       920      3612      3616      3614
 -1      1749    8    0    1
 -2       844       843       921      3378      3617      3618
 -1      1750    8    0    1
 -2       843       920       921      3615      3619      3617
 -1      1751    8    0    1
 -2       845       844       922      3381      3620      3621
 -1      1752    8    0    1
 -2       844       921       922      3618      3622      3620
 -1      1753    8    0    1
 -2       846       845       923      3384      3623      3624
 -1      1754    8    0    1
 -2       845       922       923      3621      3625      3623
 -1      1755    8    0    1
 -2       847       846       924      3387      3626      3627
 -1      1756    8    0    1
 -2       846       923       924      3624      3628      3626
 -1      1757    8    0    1
 -2       848       847       925      3390      3629      3630
 -1      1758    8    0    1
 -2       847       924       925      3627      3631      3629
 -1      1759    8    0    1
 -2       849       848       926      3393      3632      3633
 -1      1760    8    0    1
 -2       848       925       926      3630      3634      3632
 -1      1761    8    0    1
 -2       850       849       927      3396      3635      3636
 -1      1762    8    0    1
 -2       849       926       927      3633      3637      3635
 -1      1763    8    0    1
 -2       851       850       928      3399      3638      3639
 -1      1764    8    0    1
 -2       850       927       928      3636      3640      3638
 -1      1765    8    0    1
 -2       852       851       929      3402      3641      3642
 -1      1766    8    0    1
 -2       851       928       929      3639      3643      3641
 -1      1767    8    0    1
 -2       853       852       930      3405      3644      3645
 -1      1768    8    0    1
 -2       852       929       930      3642      3646      3644
 -1      1769    8    0    1
 -2       854       853       931      3408      3647      3648
 -1      1770    8    0    1
 -2       853       930       931      3645      3649      3647
 -1      1771    8    0    1
 -2       855       854       932      3411      3650      3651
 -1      1772    8    0    1
 -2       854       931       932      3648      3652      3650
 -1      1773    8    0    1
 -2       856       855       933      3414      3653      3654
 -1      1774    8    0    1
 -2       855       932       933      3651      3655      3653
 -1      1775    8    0    1
 -2       857       856       934      3417      3656      3657
 -1      1776    8    0    1
 -2       856       933       934      3654      3658      3656
 -1      1777    8    0    1
 -2       858       857       935      3420      3659      3660
 -1      1778    8    0    1
 -2       857       934       935      3657      3661      3659
 -1      1779    8    0    1
 -2       859       858       936      3423      3662      3663
 -1      1780    8    0    1
 -2       858       935       936      3660      3664      3662
 -1      1781    8    0    1
 -2       860       859       937      3426      3665      3666
 -1      1782    8    0    1
 -2       859       936       937      3663      3667      3665
 -1      1783    8    0    1
 -2       861       860       938      3429      3668      3669
 -1      1784    8    0    1
 -2       860       937       938      3666      3670      3668
 -1      1785    8    0    1
 -2       862       861       939      3432      3671      3672
 -1      1786    8    0    1
 -2       861       938       939      3669      3673      3671
 -1      1787    8    0    1
 -2       863       862       940      3435      3674      3675
 -1      1788    8    0    1
 -2       862       939       940      3672      3676      3674
 -1      1789    8    0    1
 -2       864       863       941      3438      3677      3678
 -1      1790    8    0    1
 -2       863       940       941      3675      3679      3677
 -1      1791    8    0    1
 -2       866       865       899      3445      3680      3572
 -1      1792    8    0    1
 -2       868       867       942      3450      3681      3682
 -1      1793    8    0    1
 -2       870       871       943      3458      3683      3684
 -1      1794    8    0    1
 -2       869       870       944      3455      3685      3686
 -1      1795    8    0    1
 -2       870       943       944      3684      3687      3685
 -1      1796    8    0    1
 -2       872       873       945      3464      3688      3689
 -1      1797    8    0    1
 -2       873       874       946      3467      3690      3691
 -1      1798    8    0    1
 -2       873       946       945      3691      3692      3688
 -1      1799    8    0    1
 -2       874       875       947      3470      3693      3694
 -1      1800    8    0    1
 -2       874       947       946      3694      3695      3690
 -1      1801    8    0    1
 -2       875       876       948      3473      3696      3697
 -1      1802    8    0    1
 -2       875       948       947      3697      3698      3693
 -1      1803    8    0    1
 -2       876       877       949      3476      3699      3700
 -1      1804    8    0    1
 -2       876       949       948      3700      3701      3696
 -1      1805    8    0    1
 -2       877       878       950      3479      3702      3703
 -1      1806    8    0    1
 -2       877       950       949      3703      3704      3699
 -1      1807    8    0    1
 -2       878       879       951      3482      3705      3706
 -1      1808    8    0    1
 -2       878       951       950      3706      3707      3702
 -1      1809    8    0    1
 -2       879       880       952      3485      3708      3709
 -1      1810    8    0    1
 -2       879       952       951      3709      3710      3705
 -1      1811    8    0    1
 -2       880       881       953      3488      3711      3712
 -1      1812    8    0    1
 -2       880       953       952      3712      3713      3708
 -1      1813    8    0    1
 -2       881       882       954      3491      3714      3715
 -1      1814    8    0    1
 -2       881       954       953      3715      3716      3711
 -1      1815    8    0    1
 -2       882       883       955      3494      3717      3718
 -1      1816    8    0    1
 -2       882       955       954      3718      3719      3714
 -1      1817    8    0    1
 -2       883       884       956      3497      3720      3721
 -1      1818    8    0    1
 -2       883       956       955      3721      3722      3717
 -1      1819    8    0    1
 -2       884       885       957      3500      3723      3724
 -1      1820    8    0    1
 -2       884       957       956      3724      3725      3720
 -1      1821    8    0    1
 -2       885       886       958      3503      3726      3727
 -1      1822    8    0    1
 -2       885       958       957      3727      3728      3723
 -1      1823    8    0    1
 -2       886       887       959      3506      3729      3730
 -1      1824    8    0    1
 -2       886       959       958      3730      3731      3726
 -1      1825    8    0    1
 -2       887       888       960      3509      3732      3733
 -1      1826    8    0    1
 -2       887       960       959      3733      3734      3729
 -1      1827    8    0    1
 -2       888       889       961      3512      3735      3736
 -1      1828    8    0    1
 -2       888       961       960      3736      3737      3732
 -1      1829    8    0    1
 -2       835       896       890      3536      3738      3516
 -1      1830    8    0    1
 -2       827       824       913      3322      3595      3739
 -1      1831    8    0    1
 -2       896       828       962      3562      3740      3741
 -1      1832    8    0    1
 -2       896       962       890      3741      3742      3738
 -1      1833    8    0    1
 -2       819       898       914      3546      3743      3596
 -1      1834    8    0    1
 -2       826       894       963      3529      3744      3745
 -1      1835    8    0    1
 -2       829       732       832      3532      3339      3746
 -1      1836    8    0    1
 -2       832       830       911      3337      3589      3747
 -1      1837    8    0    1
 -2       893       818       964      3576      3748      3749
 -1      1838    8    0    1
 -2       908       893       964      3577      3749      3750
 -1      1839    8    0    1
 -2       818       907       964      3574      3751      3748
 -1      1840    8    0    1
 -2       897       895       965      3571      3752      3753
 -1      1841    8    0    1
 -2       871       872       966      3461      3754      3755
 -1      1842    8    0    1
 -2       872       945       966      3689      3756      3754
 -1      1843    8    0    1
 -2       898       827       913      3542      3739      3757
 -1      1844    8    0    1
 -2       832       911       829      3747      3587      3746
 -1      1845    8    0    1
 -2       836       897       967      3539      3758      3759
 -1      1846    8    0    1
 -2       836       967       912      3759      3760      3592
 -1      1847    8    0    1
 -2       831       825       968      3561      3761      3762
 -1      1848    8    0    1
 -2       825       901       968      3552      3763      3761
 -1      1849    8    0    1
 -2       899       865       969      3680      3764      3765
 -1      1850    8    0    1
 -2       903       899       969      3559      3765      3766
 -1      1851    8    0    1
 -2       865       864       969      3441      3767      3764
 -1      1852    8    0    1
 -2       906       914       970      3598      3768      3769
 -1      1853    8    0    1
 -2       901       892       971      3550      3770      3771
 -1      1854    8    0    1
 -2       664       743       833      3146      3590      3341
 -1      1855    8    0    1
 -2       943       871       966      3683      3755      3772
 -1      1856    8    0    1
 -2       906       970       972      3769      3773      3774
 -1      1857    8    0    1
 -2       906       972       907      3774      3775      3575
 -1      1858    8    0    1
 -2       942       867       973      3681      3776      3777
 -1      1859    8    0    1
 -2       867       891       973      3520      3778      3776
 -1      1860    8    0    1
 -2       898       913       914      3757      3779      3743
 -1      1861    8    0    1
 -2       902       810       905      3554      3568      3780
 -1      1862    8    0    1
 -2       904       831       968      3565      3762      3781
 -1      1863    8    0    1
 -2       961       889       962      3735      3782      3783
 -1      1864    8    0    1
 -2       889       890       962      3515      3742      3782
 -1      1865    8    0    1
 -2       891       869       974      3521      3784      3785
 -1      1866    8    0    1
 -2       891       974       973      3785      3786      3778
 -1      1867    8    0    1
 -2       826       963       910      3745      3787      3582
 -1      1868    8    0    1
 -2       962       828       975      3740      3788      3789
 -1      1869    8    0    1
 -2       961       962       975      3783      3789      3790
 -1      1870    8    0    1
 -2       828       910       975      3584      3791      3788
 -1      1871    8    0    1
 -2       963       894       976      3744      3792      3793
 -1      1872    8    0    1
 -2       894       909       976      3581      3794      3792
 -1      1873    8    0    1
 -2       909       821       977      3579      3795      3796
 -1      1874    8    0    1
 -2       821       903       977      3558      3797      3795
 -1      1875    8    0    1
 -2       967       897       965      3758      3753      3798
 -1      1876    8    0    1
 -2       905       868       978      3566      3799      3800
 -1      1877    8    0    1
 -2       868       942       978      3682      3801      3799
 -1      1878    8    0    1
 -2       911       908       965      3588      3802      3803
 -1      1879    8    0    1
 -2       900       904       979      3564      3804      3805
 -1      1880    8    0    1
 -2       908       964       980      3750      3806      3807
 -1      1881    8    0    1
 -2       908       980       965      3807      3808      3802
 -1      1882    8    0    1
 -2       892       902       981      3556      3809      3810
 -1      1883    8    0    1
 -2       892       981       971      3810      3811      3770
 -1      1884    8    0    1
 -2       969       864       941      3767      3678      3812
 -1      1885    8    0    1
 -2       974       869       944      3784      3686      3813
 -1      1886    8    0    1
 -2       900       979       970      3805      3814      3815
 -1      1887    8    0    1
 -2       900       970       913      3815      3816      3594
 -1      1888    8    0    1
 -2       970       979       982      3814      3817      3818
 -1      1889    8    0    1
 -2       901       971       983      3771      3819      3820
 -1      1890    8    0    1
 -2       901       983       968      3820      3821      3763
 -1      1891    8    0    1
 -2       944       943       984      3687      3822      3823
 -1      1892    8    0    1
 -2       916       915       985      3604      3824      3825
 -1      1893    8    0    1
 -2       917       916       986      3607      3826      3827
 -1      1894    8    0    1
 -2       916       985       986      3825      3828      3826
 -1      1895    8    0    1
 -2       918       917       987      3610      3829      3830
 -1      1896    8    0    1
 -2       917       986       987      3827      3831      3829
 -1      1897    8    0    1
 -2       919       918       988      3613      3832      3833
 -1      1898    8    0    1
 -2       918       987       988      3830      3834      3832
 -1      1899    8    0    1
 -2       920       919       989      3616      3835      3836
 -1      1900    8    0    1
 -2       919       988       989      3833      3837      3835
 -1      1901    8    0    1
 -2       921       920       990      3619      3838      3839
 -1      1902    8    0    1
 -2       920       989       990      3836      3840      3838
 -1      1903    8    0    1
 -2       922       921       991      3622      3841      3842
 -1      1904    8    0    1
 -2       921       990       991      3839      3843      3841
 -1      1905    8    0    1
 -2       923       922       992      3625      3844      3845
 -1      1906    8    0    1
 -2       922       991       992      3842      3846      3844
 -1      1907    8    0    1
 -2       924       923       993      3628      3847      3848
 -1      1908    8    0    1
 -2       923       992       993      3845      3849      3847
 -1      1909    8    0    1
 -2       925       924       994      3631      3850      3851
 -1      1910    8    0    1
 -2       924       993       994      3848      3852      3850
 -1      1911    8    0    1
 -2       926       925       995      3634      3853      3854
 -1      1912    8    0    1
 -2       925       994       995      3851      3855      3853
 -1      1913    8    0    1
 -2       927       926       996      3637      3856      3857
 -1      1914    8    0    1
 -2       926       995       996      3854      3858      3856
 -1      1915    8    0    1
 -2       928       927       997      3640      3859      3860
 -1      1916    8    0    1
 -2       927       996       997      3857      3861      3859
 -1      1917    8    0    1
 -2       929       928       998      3643      3862      3863
 -1      1918    8    0    1
 -2       928       997       998      3860      3864      3862
 -1      1919    8    0    1
 -2       930       929       999      3646      3865      3866
 -1      1920    8    0    1
 -2       929       998       999      3863      3867      3865
 -1      1921    8    0    1
 -2       931       930      1000      3649      3868      3869
 -1      1922    8    0    1
 -2       930       999      1000      3866      3870      3868
 -1      1923    8    0    1
 -2       932       931      1001      3652      3871      3872
 -1      1924    8    0    1
 -2       931      1000      1001      3869      3873      3871
 -1      1925    8    0    1
 -2       933       932      1002      3655      3874      3875
 -1      1926    8    0    1
 -2       932      1001      1002      3872      3876      3874
 -1      1927    8    0    1
 -2       934       933      1003      3658      3877      3878
 -1      1928    8    0    1
 -2       933      1002      1003      3875      3879      3877
 -1      1929    8    0    1
 -2       935       934      1004      3661      3880      3881
 -1      1930    8    0    1
 -2       934      1003      1004      3878      3882      3880
 -1      1931    8    0    1
 -2       936       935      1005      3664      3883      3884
 -1      1932    8    0    1
 -2       935      1004      1005      3881      3885      3883
 -1      1933    8    0    1
 -2       937       936      1006      3667      3886      3887
 -1      1934    8    0    1
 -2       936      1005      1006      3884      3888      3886
 -1      1935    8    0    1
 -2       938       937      1007      3670      3889      3890
 -1      1936    8    0    1
 -2       937      1006      1007      3887      3891      3889
 -1      1937    8    0    1
 -2       939       938      1008      3673      3892      3893
 -1      1938    8    0    1
 -2       938      1007      1008      3890      3894      3892
 -1      1939    8    0    1
 -2       940       939      1009      3676      3895      3896
 -1      1940    8    0    1
 -2       939      1008      1009      3893      3897      3895
 -1      1941    8    0    1
 -2       941       940      1010      3679      3898      3899
 -1      1942    8    0    1
 -2       940      1009      1010      3896      3900      3898
 -1      1943    8    0    1
 -2       970       914       913      3768      3779      3816
 -1      1944    8    0    1
 -2       947       948      1011      3698      3901      3902
 -1      1945    8    0    1
 -2       946       947      1012      3695      3903      3904
 -1      1946    8    0    1
 -2       947      1011      1012      3902      3905      3903
 -1      1947    8    0    1
 -2       945       946      1013      3692      3906      3907
 -1      1948    8    0    1
 -2       946      1012      1013      3904      3908      3906
 -1      1949    8    0    1
 -2       948       949      1014      3701      3909      3910
 -1      1950    8    0    1
 -2       948      1014      1011      3910      3911      3901
 -1      1951    8    0    1
 -2       949       950      1015      3704      3912      3913
 -1      1952    8    0    1
 -2       949      1015      1014      3913      3914      3909
 -1      1953    8    0    1
 -2       950       951      1016      3707      3915      3916
 -1      1954    8    0    1
 -2       950      1016      1015      3916      3917      3912
 -1      1955    8    0    1
 -2       951       952      1017      3710      3918      3919
 -1      1956    8    0    1
 -2       951      1017      1016      3919      3920      3915
 -1      1957    8    0    1
 -2       952       953      1018      3713      3921      3922
 -1      1958    8    0    1
 -2       952      1018      1017      3922      3923      3918
 -1      1959    8    0    1
 -2       953       954      1019      3716      3924      3925
 -1      1960    8    0    1
 -2       953      1019      1018      3925      3926      3921
 -1      1961    8    0    1
 -2       954       955      1020      3719      3927      3928
 -1      1962    8    0    1
 -2       954      1020      1019      3928      3929      3924
 -1      1963    8    0    1
 -2       955       956      1021      3722      3930      3931
 -1      1964    8    0    1
 -2       955      1021      1020      3931      3932      3927
 -1      1965    8    0    1
 -2       956       957      1022      3725      3933      3934
 -1      1966    8    0    1
 -2       956      1022      1021      3934      3935      3930
 -1      1967    8    0    1
 -2       957       958      1023      3728      3936      3937
 -1      1968    8    0    1
 -2       957      1023      1022      3937      3938      3933
 -1      1969    8    0    1
 -2       958       959      1024      3731      3939      3940
 -1      1970    8    0    1
 -2       958      1024      1023      3940      3941      3936
 -1      1971    8    0    1
 -2       959       960      1025      3734      3942      3943
 -1      1972    8    0    1
 -2       959      1025      1024      3943      3944      3939
 -1      1973    8    0    1
 -2       960       961      1026      3737      3945      3946
 -1      1974    8    0    1
 -2       960      1026      1025      3946      3947      3942
 -1      1975    8    0    1
 -2       902       905      1027      3780      3948      3949
 -1      1976    8    0    1
 -2       981       902      1027      3809      3949      3950
 -1      1977    8    0    1
 -2       905       978      1027      3800      3951      3948
 -1      1978    8    0    1
 -2       912       967      1028      3760      3952      3953
 -1      1979    8    0    1
 -2       964       907      1029      3751      3954      3955
 -1      1980    8    0    1
 -2       907       972      1029      3775      3956      3954
 -1      1981    8    0    1
 -2       966       945      1030      3756      3957      3958
 -1      1982    8    0    1
 -2       945      1013      1030      3907      3959      3957
 -1      1983    8    0    1
 -2       943       966      1031      3772      3960      3961
 -1      1984    8    0    1
 -2       943      1031       984      3961      3962      3822
 -1      1985    8    0    1
 -2       904       968      1032      3781      3963      3964
 -1      1986    8    0    1
 -2       904      1032       979      3964      3965      3804
 -1      1987    8    0    1
 -2       967       965      1033      3798      3966      3967
 -1      1988    8    0    1
 -2      1028       967      1033      3952      3967      3968
 -1      1989    8    0    1
 -2       965       980      1033      3808      3969      3966
 -1      1990    8    0    1
 -2       903       969      1034      3766      3970      3971
 -1      1991    8    0    1
 -2       977       903      1034      3797      3971      3972
 -1      1992    8    0    1
 -2       969       941      1034      3812      3973      3970
 -1      1993    8    0    1
 -2       915       912      1035      3601      3974      3975
 -1      1994    8    0    1
 -2       912      1028      1035      3953      3976      3974
 -1      1995    8    0    1
 -2       974       944      1036      3813      3977      3978
 -1      1996    8    0    1
 -2       944       984      1036      3823      3979      3977
 -1      1997    8    0    1
 -2       895       911       965      3586      3803      3752
 -1      1998    8    0    1
 -2       968       983      1032      3821      3980      3963
 -1      1999    8    0    1
 -2       979      1032      1037      3965      3981      3982
 -1      2000    8    0    1
 -2       979      1037       982      3982      3983      3817
 -1      2001    8    0    1
 -2       941      1010      1034      3899      3984      3973
 -1      2002    8    0    1
 -2       972       970       982      3773      3818      3985
 -1      2003    8    0    1
 -2       910       963      1038      3787      3986      3987
 -1      2004    8    0    1
 -2       973       974      1039      3786      3988      3989
 -1      2005    8    0    1
 -2       974      1036      1039      3978      3990      3988
 -1      2006    8    0    1
 -2       975       910      1038      3791      3987      3991
 -1      2007    8    0    1
 -2       980       964      1029      3806      3955      3992
 -1      2008    8    0    1
 -2       942       973      1040      3777      3993      3994
 -1      2009    8    0    1
 -2       973      1039      1040      3989      3995      3993
 -1      2010    8    0    1
 -2       909       977      1041      3796      3996      3997
 -1      2011    8    0    1
 -2       909      1041       976      3997      3998      3794
 -1      2012    8    0    1
 -2       961       975      1038      3790      3991      3999
 -1      2013    8    0    1
 -2       963       976      1042      3793      4000      4001
 -1      2014    8    0    1
 -2       942      1040      1043      3994      4002      4003
 -1      2015    8    0    1
 -2       942      1043       978      4003      4004      3801
 -1      2016    8    0    1
 -2       971       981      1044      3811      4005      4006
 -1      2017    8    0    1
 -2      1031       966      1030      3960      3958      4007
 -1      2018    8    0    1
 -2       985       915      1035      3824      3975      4008
 -1      2019    8    0    1
 -2       963      1042      1038      4001      4009      3986
 -1      2020    8    0    1
 -2       983       971      1045      3819      4010      4011
 -1      2021    8    0    1
 -2       971      1044      1045      4006      4012      4010
 -1      2022    8    0    1
 -2       987       986      1046      3831      4013      4014
 -1      2023    8    0    1
 -2       988       987      1047      3834      4015      4016
 -1      2024    8    0    1
 -2       987      1046      1047      4014      4017      4015
 -1      2025    8    0    1
 -2       989       988      1048      3837      4018      4019
 -1      2026    8    0    1
 -2       988      1047      1048      4016      4020      4018
 -1      2027    8    0    1
 -2       990       989      1049      3840      4021      4022
 -1      2028    8    0    1
 -2       989      1048      1049      4019      4023      4021
 -1      2029    8    0    1
 -2       991       990      1050      3843      4024      4025
 -1      2030    8    0    1
 -2       990      1049      1050      4022      4026      4024
 -1      2031    8    0    1
 -2       992       991      1051      3846      4027      4028
 -1      2032    8    0    1
 -2       991      1050      1051      4025      4029      4027
 -1      2033    8    0    1
 -2       993       992      1052      3849      4030      4031
 -1      2034    8    0    1
 -2       992      1051      1052      4028      4032      4030
 -1      2035    8    0    1
 -2       994       993      1053      3852      4033      4034
 -1      2036    8    0    1
 -2       993      1052      1053      4031      4035      4033
 -1      2037    8    0    1
 -2       995       994      1054      3855      4036      4037
 -1      2038    8    0    1
 -2       994      1053      1054      4034      4038      4036
 -1      2039    8    0    1
 -2       996       995      1055      3858      4039      4040
 -1      2040    8    0    1
 -2       995      1054      1055      4037      4041      4039
 -1      2041    8    0    1
 -2       997       996      1056      3861      4042      4043
 -1      2042    8    0    1
 -2       996      1055      1056      4040      4044      4042
 -1      2043    8    0    1
 -2       998       997      1057      3864      4045      4046
 -1      2044    8    0    1
 -2       997      1056      1057      4043      4047      4045
 -1      2045    8    0    1
 -2       999       998      1058      3867      4048      4049
 -1      2046    8    0    1
 -2       998      1057      1058      4046      4050      4048
 -1      2047    8    0    1
 -2      1000       999      1059      3870      4051      4052
 -1      2048    8    0    1
 -2       999      1058      1059      4049      4053      4051
 -1      2049    8    0    1
 -2      1001      1000      1060      3873      4054      4055
 -1      2050    8    0    1
 -2      1000      1059      1060      4052      4056      4054
 -1      2051    8    0    1
 -2      1002      1001      1061      3876      4057      4058
 -1      2052    8    0    1
 -2      1001      1060      1061      4055      4059      4057
 -1      2053    8    0    1
 -2      1003      1002      1062      3879      4060      4061
 -1      2054    8    0    1
 -2      1002      1061      1062      4058      4062      4060
 -1      2055    8    0    1
 -2      1004      1003      1063      3882      4063      4064
 -1      2056    8    0    1
 -2      1003      1062      1063      4061      4065      4063
 -1      2057    8    0    1
 -2      1005      1004      1064      3885      4066      4067
 -1      2058    8    0    1
 -2      1004      1063      1064      4064      4068      4066
 -1      2059    8    0    1
 -2      1006      1005      1065      3888      4069      4070
 -1      2060    8    0    1
 -2      1005      1064      1065      4067      4071      4069
 -1      2061    8    0    1
 -2      1007      1006      1066      3891      4072      4073
 -1      2062    8    0    1
 -2      1006      1065      1066      4070      4074      4072
 -1      2063    8    0    1
 -2      1008      1007      1067      3894      4075      4076
 -1      2064    8    0    1
 -2      1007      1066      1067      4073      4077      4075
 -1      2065    8    0    1
 -2      1009      1008      1068      3897      4078      4079
 -1      2066    8    0    1
 -2      1008      1067      1068      4076      4080      4078
 -1      2067    8    0    1
 -2      1010      1009      1069      3900      4081      4082
 -1      2068    8    0    1
 -2      1009      1068      1069      4079      4083      4081
 -1      2069    8    0    1
 -2      1012      1011      1070      3905      4084      4085
 -1      2070    8    0    1
 -2      1011      1014      1071      3911      4086      4087
 -1      2071    8    0    1
 -2      1011      1071      1070      4087      4088      4084
 -1      2072    8    0    1
 -2      1034      1010      1072      3984      4089      4090
 -1      2073    8    0    1
 -2       977      1034      1072      3972      4090      4091
 -1      2074    8    0    1
 -2      1010      1069      1072      4082      4092      4089
 -1      2075    8    0    1
 -2      1013      1012      1073      3908      4093      4094
 -1      2076    8    0    1
 -2      1012      1070      1073      4085      4095      4093
 -1      2077    8    0    1
 -2      1015      1016      1074      3917      4096      4097
 -1      2078    8    0    1
 -2      1016      1017      1075      3920      4098      4099
 -1      2079    8    0    1
 -2      1016      1075      1074      4099      4100      4096
 -1      2080    8    0    1
 -2      1017      1018      1076      3923      4101      4102
 -1      2081    8    0    1
 -2      1017      1076      1075      4102      4103      4098
 -1      2082    8    0    1
 -2      1018      1019      1077      3926      4104      4105
 -1      2083    8    0    1
 -2      1018      1077      1076      4105      4106      4101
 -1      2084    8    0    1
 -2      1019      1020      1078      3929      4107      4108
 -1      2085    8    0    1
 -2      1019      1078      1077      4108      4109      4104
 -1      2086    8    0    1
 -2      1020      1021      1079      3932      4110      4111
 -1      2087    8    0    1
 -2      1020      1079      1078      4111      4112      4107
 -1      2088    8    0    1
 -2      1021      1022      1080      3935      4113      4114
 -1      2089    8    0    1
 -2      1021      1080      1079      4114      4115      4110
 -1      2090    8    0    1
 -2      1022      1023      1081      3938      4116      4117
 -1      2091    8    0    1
 -2      1022      1081      1080      4117      4118      4113
 -1      2092    8    0    1
 -2      1023      1024      1082      3941      4119      4120
 -1      2093    8    0    1
 -2      1023      1082      1081      4120      4121      4116
 -1      2094    8    0    1
 -2      1024      1025      1083      3944      4122      4123
 -1      2095    8    0    1
 -2      1024      1083      1082      4123      4124      4119
 -1      2096    8    0    1
 -2      1026       961      1038      3945      3999      4125
 -1      2097    8    0    1
 -2      1029       972      1084      3956      4126      4127
 -1      2098    8    0    1
 -2       972       982      1084      3985      4128      4126
 -1      2099    8    0    1
 -2       986       985      1085      3828      4129      4130
 -1      2100    8    0    1
 -2       986      1085      1046      4130      4131      4013
 -1      2101    8    0    1
 -2      1035      1028      1086      3976      4132      4133
 -1      2102    8    0    1
 -2      1032       983      1087      3980      4134      4135
 -1      2103    8    0    1
 -2      1037      1032      1087      3981      4135      4136
 -1      2104    8    0    1
 -2       983      1045      1087      4011      4137      4134
 -1      2105    8    0    1
 -2      1044       981      1088      4005      4138      4139
 -1      2106    8    0    1
 -2       981      1027      1088      3950      4140      4138
 -1      2107    8    0    1
 -2      1031      1030      1089      4007      4141      4142
 -1      2108    8    0    1
 -2       984      1031      1090      3962      4143      4144
 -1      2109    8    0    1
 -2      1031      1089      1090      4142      4145      4143
 -1      2110    8    0    1
 -2      1030      1013      1091      3959      4146      4147
 -1      2111    8    0    1
 -2      1030      1091      1089      4147      4148      4141
 -1      2112    8    0    1
 -2      1014      1015      1092      3914      4149      4150
 -1      2113    8    0    1
 -2      1071      1014      1092      4086      4150      4151
 -1      2114    8    0    1
 -2      1015      1074      1092      4097      4152      4149
 -1      2115    8    0    1
 -2       985      1035      1093      4008      4153      4154
 -1      2116    8    0    1
 -2       985      1093      1085      4154      4155      4129
 -1      2117    8    0    1
 -2      1036       984      1094      3979      4156      4157
 -1      2118    8    0    1
 -2       984      1090      1094      4144      4158      4156
 -1      2119    8    0    1
 -2       980      1029      1095      3992      4159      4160
 -1      2120    8    0    1
 -2      1033       980      1095      3969      4160      4161
 -1      2121    8    0    1
 -2      1029      1084      1095      4127      4162      4159
 -1      2122    8    0    1
 -2      1039      1036      1096      3990      4163      4164
 -1      2123    8    0    1
 -2      1036      1094      1096      4157      4165      4163
 -1      2124    8    0    1
 -2      1013      1073      1091      4094      4166      4146
 -1      2125    8    0    1
 -2      1044      1088      1097      4139      4167      4168
 -1      2126    8    0    1
 -2      1083      1025      1042      4122      4169      4170
 -1      2127    8    0    1
 -2      1084       982      1037      4128      3983      4171
 -1      2128    8    0    1
 -2      1027       978      1098      3951      4172      4173
 -1      2129    8    0    1
 -2      1088      1027      1098      4140      4173      4174
 -1      2130    8    0    1
 -2       978      1043      1098      4004      4175      4172
 -1      2131    8    0    1
 -2      1040      1039      1099      3995      4176      4177
 -1      2132    8    0    1
 -2      1039      1096      1099      4164      4178      4176
 -1      2133    8    0    1
 -2      1028      1033      1100      3968      4179      4180
 -1      2134    8    0    1
 -2      1086      1028      1100      4132      4180      4181
 -1      2135    8    0    1
 -2      1033      1095      1100      4161      4182      4179
 -1      2136    8    0    1
 -2      1043      1040      1101      4002      4183      4184
 -1      2137    8    0    1
 -2      1040      1099      1101      4177      4185      4183
 -1      2138    8    0    1
 -2      1042       976      1102      4000      4186      4187
 -1      2139    8    0    1
 -2      1042      1102      1083      4187      4188      4170
 -1      2140    8    0    1
 -2      1044      1097      1103      4168      4189      4190
 -1      2141    8    0    1
 -2      1044      1103      1045      4190      4191      4012
 -1      2142    8    0    1
 -2      1093      1035      1086      4153      4133      4192
 -1      2143    8    0    1
 -2      1102       976      1041      4186      3998      4193
 -1      2144    8    0    1
 -2      1042      1025      1026      4169      3947      4194
 -1      2145    8    0    1
 -2      1097      1088      1104      4167      4195      4196
 -1      2146    8    0    1
 -2      1088      1098      1104      4174      4197      4195
 -1      2147    8    0    1
 -2      1048      1047      1105      4020      4198      4199
 -1      2148    8    0    1
 -2      1049      1048      1101      4023      4200      4201
 -1      2149    8    0    1
 -2      1050      1049      1099      4026      4202      4203
 -1      2150    8    0    1
 -2      1051      1050      1096      4029      4204      4205
 -1      2151    8    0    1
 -2      1052      1051      1094      4032      4206      4207
 -1      2152    8    0    1
 -2      1053      1052      1090      4035      4208      4209
 -1      2153    8    0    1
 -2      1054      1053      1089      4038      4210      4211
 -1      2154    8    0    1
 -2      1055      1054      1091      4041      4212      4213
 -1      2155    8    0    1
 -2      1056      1055      1073      4044      4214      4215
 -1      2156    8    0    1
 -2      1057      1056      1070      4047      4216      4217
 -1      2157    8    0    1
 -2      1058      1057      1071      4050      4218      4219
 -1      2158    8    0    1
 -2      1059      1058      1092      4053      4220      4221
 -1      2159    8    0    1
 -2      1060      1059      1074      4056      4222      4223
 -1      2160    8    0    1
 -2      1061      1060      1075      4059      4224      4225
 -1      2161    8    0    1
 -2      1062      1061      1076      4062      4226      4227
 -1      2162    8    0    1
 -2      1063      1062      1077      4065      4228      4229
 -1      2163    8    0    1
 -2      1064      1063      1078      4068      4230      4231
 -1      2164    8    0    1
 -2      1065      1064      1079      4071      4232      4233
 -1      2165    8    0    1
 -2      1066      1065      1080      4074      4234      4235
 -1      2166    8    0    1
 -2      1067      1066      1081      4077      4236      4237
 -1      2167    8    0    1
 -2      1068      1067      1082      4080      4238      4239
 -1      2168    8    0    1
 -2       977      1072      1041      4091      4240      3996
 -1      2169    8    0    1
 -2      1080      1065      1079      4234      4233      4115
 -1      2170    8    0    1
 -2      1071      1057      1070      4218      4217      4088
 -1      2171    8    0    1
 -2      1079      1064      1078      4232      4231      4112
 -1      2172    8    0    1
 -2      1050      1099      1096      4203      4178      4204
 -1      2173    8    0    1
 -2      1052      1094      1090      4207      4158      4208
 -1      2174    8    0    1
 -2      1053      1090      1089      4209      4145      4210
 -1      2175    8    0    1
 -2      1054      1089      1091      4211      4148      4212
 -1      2176    8    0    1
 -2      1055      1091      1073      4213      4166      4214
 -1      2177    8    0    1
 -2      1056      1073      1070      4215      4095      4216
 -1      2178    8    0    1
 -2      1058      1071      1092      4219      4151      4220
 -1      2179    8    0    1
 -2      1060      1074      1075      4223      4100      4224
 -1      2180    8    0    1
 -2      1061      1075      1076      4225      4103      4226
 -1      2181    8    0    1
 -2      1062      1076      1077      4227      4106      4228
 -1      2182    8    0    1
 -2      1063      1077      1078      4229      4109      4230
 -1      2183    8    0    1
 -2      1066      1080      1081      4235      4118      4236
 -1      2184    8    0    1
 -2      1067      1081      1082      4237      4121      4238
 -1      2185    8    0    1
 -2      1068      1082      1083      4239      4124      4241
 -1      2186    8    0    1
 -2      1042      1026      1038      4194      4125      4009
 -1      2187    8    0    1
 -2      1084      1037      1106      4171      4242      4243
 -1      2188    8    0    1
 -2      1094      1051      1096      4206      4205      4165
 -1      2189    8    0    1
 -2      1085      1093      1107      4155      4244      4245
 -1      2190    8    0    1
 -2      1099      1049      1101      4202      4201      4185
 -1      2191    8    0    1
 -2      1046      1085      1097      4131      4246      4247
 -1      2192    8    0    1
 -2      1047      1046      1104      4017      4248      4249
 -1      2193    8    0    1
 -2      1074      1059      1092      4222      4221      4152
 -1      2194    8    0    1
 -2      1046      1097      1104      4247      4196      4248
 -1      2195    8    0    1
 -2      1105      1047      1104      4198      4249      4250
 -1      2196    8    0    1
 -2      1097      1085      1107      4246      4245      4251
 -1      2197    8    0    1
 -2      1107      1093      1106      4244      4252      4253
 -1      2198    8    0    1
 -2      1069      1068      1083      4083      4241      4254
 -1      2199    8    0    1
 -2      1072      1069      1102      4092      4255      4256
 -1      2200    8    0    1
 -2      1106      1037      1087      4242      4136      4257
 -1      2201    8    0    1
 -2      1069      1083      1102      4254      4188      4255
 -1      2202    8    0    1
 -2      1101      1048      1105      4200      4199      4258
 -1      2203    8    0    1
 -2      1043      1101      1105      4184      4258      4259
 -1      2204    8    0    1
 -2      1095      1084      1106      4162      4243      4260
 -1      2205    8    0    1
 -2      1093      1086      1106      4192      4261      4252
 -1      2206    8    0    1
 -2      1104      1098      1105      4197      4262      4250
 -1      2207    8    0    1
 -2      1105      1098      1043      4262      4175      4259
 -1      2208    8    0    1
 -2      1041      1072      1102      4240      4256      4193
 -1      2209    8    0    1
 -2      1045      1103      1108      4191      4263      4264
 -1      2210    8    0    1
 -2      1087      1045      1108      4137      4264      4265
 -1      2211    8    0    1
 -2      1086      1100      1106      4181      4266      4261
 -1      2212    8    0    1
 -2      1095      1106      1100      4260      4266      4182
 -1      2213    8    0    1
 -2      1087      1108      1106      4265      4267      4257
 -1      2214    8    0    1
 -2      1108      1103      1107      4263      4268      4269
 -1      2215    8    0    1
 -2      1103      1097      1107      4189      4251      4268
 -1      2216    8    0    1
 -2      1108      1107      1106      4269      4253      4267
 -3
    1PSTEP                         1           1           1          
  100CL  101 1.000000000        4269                     0    1           1
 -4  DISP        4    1
 -5  D1          1    2    1    0
 -5  D2          1    2    2    0
 -5  D3          1    2    3    0
 -5  ALL         1    2    0    0    1ALL
 -1         1 1.17864E-02-7.31471E-04-1.32276E-13
 -1         2 1.51977E-02 2.10814E-04-1.49276E-13
 -1         3 1.45433E-02 3.67233E-04-1.76797E-13
 -1         4 1.42560E-02-4.40644E-05-1.78619E-13
 -1         5 0.00000E+00 0.00000E+00 0.00000E+00
 -1         6 0.00000E+00 0.00000E+00 0.00000E+00
 -1         7 0.00000E+00 0.00000E+00 0.00000E+00
 -1         8 0.00000E+00 0.00000E+00 0.00000E+00
 -1         9 0.00000E+00 0.00000E+00 0.00000E+00
 -1        10 0.00000E+00 0.00000E+00 0.00000E+00
 -1        11 0.00000E+00 0.00000E+00 0.00000E+00
 -1        12 0.00000E+00 0.00000E+00 0.00000E+00
 -1        13 0.00000E+00 0.00000E+00 0.00000E+00
 -1        14 0.00000E+00 0.00000E+00 0.00000E+00
 -1        15 0.00000E+00 0.00000E+00 0.00000E+00
 -1        16 0.00000E+00 0.00000E+00 0.00000E+00
 -1        17 0.00000E+00 0.00000E+00 0.00000E+00
 -1        18 0.00000E+00 0.00000E+00 0.00000E+00
 -1        19 0.00000E+00 0.00000E+00 0.00000E+00
 -1        20 0.00000E+00 0.00000E+00 0.00000E+00
 -1        21 0.00000E+00 0.00000E+00 0.00000E+00
 -1        22 0.00000E+00 0.00000E+00 0.00000E+00
 -1        23 4.11414E-04-2.60741E-04 5.42304E-17
 -1        24 7.03436E-04-4.00988E-04-1.11483E-16
 -1        25 9.73551E-04-4.98375E-04-4.89605E-16
 -1        26 1.23809E-03-5.67140E-04-1.07625E-15
 -1        27 1.50168E-03-6.16427E-04-1.86449E-15
 -1        28 1.76641E-03-6.51623E-04-2.85031E-15
 -1        29 2.03323E-03-6.76442E-04-4.02853E-15
 -1        30 2.30252E-03-6.93585E-04-5.39276E-15
 -1        31 2.57431E-03-7.05075E-04-6.94304E-15
 -1        32 2.84847E-03-7.12444E-04-8.67490E-15
 -1        33 3.12476E-03-7.16850E-04-1.05799E-14
 -1        34 3.40290E-03-7.19161E-04-1.26495E-14
 -1        35 3.68261E-03-7.20014E-04-1.48827E-14
 -1        36 3.96361E-03-7.19865E-04-1.72741E-14
 -1        37 4.24564E-03-7.19032E-04-1.98202E-14
 -1        38 4.52849E-03-7.17718E-04-2.25182E-14
 -1        39 4.81199E-03-7.16042E-04-2.53642E-14
 -1        40 5.09600E-03-7.14055E-04-2.83536E-14
 -1        41 5.38045E-03-7.11759E-04-3.14851E-14
 -1        42 5.66528E-03-7.09115E-04-3.47568E-14
 -1        43 5.95053E-03-7.06062E-04-3.81705E-14
 -1        44 6.23627E-03-7.02524E-04-4.17246E-14
 -1        45 6.52264E-03-6.98427E-04-4.54161E-14
 -1        46 6.80989E-03-6.93715E-04-4.92510E-14
 -1        47 7.09835E-03-6.88375E-04-5.32142E-14
 -1        48 7.38846E-03-6.82468E-04-5.72985E-14
 -1        49 7.68081E-03-6.76176E-04-6.14996E-14
 -1        50 7.97610E-03-6.69854E-04-6.58157E-14
 -1        51 8.27519E-03-6.64109E-04-7.02374E-14
 -1        52 8.57906E-03-6.59886E-04-7.47619E-14
 -1        53 8.88872E-03-6.58579E-04-7.93716E-14
 -1        54 9.20512E-03-6.62124E-04-8.40617E-14
 -1        55 9.52890E-03-6.73064E-04-8.88380E-14
 -1        56 9.86005E-03-6.94511E-04-9.36954E-14
 -1        57 1.01974E-02-7.29880E-04-9.86293E-14
 -1        58 1.05379E-02-7.82245E-04-1.03625E-13
 -1        59 1.08764E-02-8.53144E-04-1.08685E-13
 -1        60 1.12052E-02-9.40802E-04-1.13795E-13
 -1        61 1.15155E-02-1.03816E-03-1.18961E-13
 -1        62 1.17992E-02-1.13174E-03-1.24185E-13
 -1        63 1.20531E-02-1.20290E-03-1.29470E-13
 -1        64 1.22813E-02-1.23240E-03-1.34816E-13
 -1        65 1.24949E-02-1.20690E-03-1.40225E-13
 -1        66 1.27083E-02-1.12388E-03-1.45681E-13
 -1        67 1.29332E-02-9.91574E-04-1.51167E-13
 -1        68 1.31750E-02-8.24099E-04-1.56682E-13
 -1        69 1.34333E-02-6.35471E-04-1.62220E-13
 -1        70 1.37046E-02-4.36238E-04-1.67757E-13
 -1        71 1.39851E-02-2.33859E-04-1.73320E-13
 -1        72 4.13859E-04 2.61446E-04 8.43374E-17
 -1        73 7.03260E-04 4.03695E-04-2.98020E-17
 -1        74 9.74088E-04 5.00150E-04-3.37512E-16
 -1        75 1.23892E-03 5.68853E-04-8.39904E-16
 -1        76 1.50264E-03 6.18188E-04-1.53554E-15
 -1        77 1.76743E-03 6.53475E-04-2.42290E-15
 -1        78 2.03430E-03 6.78405E-04-3.49827E-15
 -1        79 2.30360E-03 6.95669E-04-4.75830E-15
 -1        80 2.57541E-03 7.07287E-04-6.19512E-15
 -1        81 2.84958E-03 7.14788E-04-7.80848E-15
 -1        82 3.12588E-03 7.19327E-04-9.59796E-15
 -1        83 3.40403E-03 7.21772E-04-1.15638E-14
 -1        84 3.68373E-03 7.22760E-04-1.36980E-14
 -1        85 3.96473E-03 7.22746E-04-1.60001E-14
 -1        86 4.24676E-03 7.22047E-04-1.84701E-14
 -1        87 4.52960E-03 7.20868E-04-2.11061E-14
 -1        88 4.81310E-03 7.19324E-04-2.38975E-14
 -1        89 5.09710E-03 7.17468E-04-2.68366E-14
 -1        90 5.38153E-03 7.15297E-04-2.99287E-14
 -1        91 5.66635E-03 7.12770E-04-3.31712E-14
 -1        92 5.95157E-03 7.09819E-04-3.65572E-14
 -1        93 6.23727E-03 7.06358E-04-4.00764E-14
 -1        94 6.52361E-03 7.02300E-04-4.37317E-14
 -1        95 6.81082E-03 6.97565E-04-4.75089E-14
 -1        96 7.09925E-03 6.92111E-04-5.14082E-14
 -1        97 7.38938E-03 6.85957E-04-5.54331E-14
 -1        98 7.68186E-03 6.79227E-04-5.95806E-14
 -1        99 7.97750E-03 6.72212E-04-6.38459E-14
 -1       100 8.27735E-03 6.65450E-04-6.82288E-14
 -1       101 8.58270E-03 6.59843E-04-7.27241E-14
 -1       102 8.89505E-03 6.56811E-04-7.73211E-14
 -1       103 9.21609E-03 6.58479E-04-8.20177E-14
 -1       104 9.54752E-03 6.67902E-04-8.67960E-14
 -1       105 9.89067E-03 6.89254E-04-9.16337E-14
 -1       106 1.02459E-02 7.27863E-04-9.65454E-14
 -1       107 1.06116E-02 7.89821E-04-1.01534E-13
 -1       108 1.09828E-02 8.80706E-04-1.06586E-13
 -1       109 1.13501E-02 1.00292E-03-1.11701E-13
 -1       110 1.16995E-02 1.15152E-03-1.16880E-13
 -1       111 1.20159E-02 1.31005E-03-1.22118E-13
 -1       112 1.22892E-02 1.44974E-03-1.27419E-13
 -1       113 1.25222E-02 1.53667E-03-1.32772E-13
 -1       114 1.27325E-02 1.54595E-03-1.38186E-13
 -1       115 1.29445E-02 1.47366E-03-1.43649E-13
 -1       116 1.31767E-02 1.33690E-03-1.49140E-13
 -1       117 1.34334E-02 1.16181E-03-1.54677E-13
 -1       118 1.37076E-02 9.69485E-04-1.60259E-13
 -1       119 1.39893E-02 7.69866E-04-1.65868E-13
 -1       120 1.42728E-02 5.64900E-04-1.71481E-13
 -1       121 1.47481E-02 2.82048E-04-1.76986E-13
 -1       122 1.49579E-02 1.95798E-04-1.77187E-13
 -1       123 1.51802E-02 1.15270E-04-1.77354E-13
 -1       124 1.54159E-02 5.48386E-05-1.77496E-13
 -1       125 1.56522E-02 3.28897E-05-1.77622E-13
 -1       126 1.58565E-02 6.26292E-05-1.77756E-13
 -1       127 1.59960E-02 1.44270E-04-1.77906E-13
 -1       128 1.60311E-02 2.56100E-04-1.78035E-13
 -1       129 1.59506E-02 3.61864E-04-1.78141E-13
 -1       130 1.57743E-02 4.27647E-04-1.78224E-13
 -1       131 1.55419E-02 4.37059E-04-1.78302E-13
 -1       132 1.52977E-02 3.95412E-04-1.78379E-13
 -1       133 1.50594E-02 3.17924E-04-1.78449E-13
 -1       134 1.48412E-02 2.24164E-04-1.78492E-13
 -1       135 1.46404E-02 1.28821E-04-1.78527E-13
 -1       136 1.44472E-02 3.94177E-05-1.78572E-13
 -1       137 1.51429E-02 4.19073E-04-1.48925E-13
 -1       138 1.49513E-02 6.35313E-04-1.47914E-13
 -1       139 1.46259E-02 8.35021E-04-1.46251E-13
 -1       140 1.42583E-02 9.80648E-04-1.44376E-13
 -1       141 1.38069E-02 1.09599E-03-1.42068E-13
 -1       142 1.32993E-02 1.16713E-03-1.39455E-13
 -1       143 1.27700E-02 1.18479E-03-1.36709E-13
 -1       144 1.22762E-02 1.15166E-03-1.34141E-13
 -1       145 1.17603E-02 1.06170E-03-1.31419E-13
 -1       146 1.13419E-02 9.42001E-04-1.29227E-13
 -1       147 1.09729E-02 7.86730E-04-1.27296E-13
 -1       148 1.06769E-02 6.03929E-04-1.25756E-13
 -1       149 1.04846E-02 4.19446E-04-1.24779E-13
 -1       150 1.03868E-02 2.28973E-04-1.24312E-13
 -1       151 1.03866E-02 2.49247E-05-1.24383E-13
 -1       152 1.04922E-02-1.68296E-04-1.25035E-13
 -1       153 1.06978E-02-3.47549E-04-1.26235E-13
 -1       154 1.09881E-02-5.04175E-04-1.27874E-13
 -1       155 1.13500E-02-6.32768E-04-1.29885E-13
 -1       156 1.22716E-02-7.89039E-04-1.34887E-13
 -1       157 1.27793E-02-8.00648E-04-1.37571E-13
 -1       158 1.32961E-02-7.64410E-04-1.40261E-13
 -1       159 1.37902E-02-6.82563E-04-1.42774E-13
 -1       160 1.42573E-02-5.54590E-04-1.45069E-13
 -1       161 1.46479E-02-3.92282E-04-1.46916E-13
 -1       162 1.49351E-02-2.12590E-04-1.48206E-13
 -1       163 1.51228E-02-1.34962E-05-1.49012E-13
 -1       164 2.40426E-04-1.25513E-04-4.22297E-17
 -1       165 2.25287E-04-9.46067E-05-7.20927E-17
 -1       166 2.19518E-04-7.27642E-05-8.80135E-17
 -1       167 2.16712E-04-5.50899E-05-9.65922E-17
 -1       168 2.15211E-04-3.99542E-05-1.00705E-16
 -1       169 2.14371E-04-2.59077E-05-1.02427E-16
 -1       170 2.13950E-04-1.26404E-05-1.02613E-16
 -1       171 2.13827E-04 2.72570E-07-1.01959E-16
 -1       172 2.13969E-04 1.31979E-05-1.00234E-16
 -1       173 2.14412E-04 2.65051E-05-9.73512E-17
 -1       174 2.15260E-04 4.03821E-05-9.30821E-17
 -1       175 2.16815E-04 5.59006E-05-8.60009E-17
 -1       176 2.19678E-04 7.38031E-05-7.45491E-17
 -1       177 2.25457E-04 9.60066E-05-5.48606E-17
 -1       178 2.39355E-04 1.27589E-04-2.14537E-17
 -1       179 2.97736E-04 1.85499E-04 1.41861E-17
 -1       180 4.68669E-04-2.63548E-04-1.14061E-16
 -1       181 7.66845E-04-3.82141E-04-4.27857E-16
 -1       182 1.05073E-03-4.65035E-04-9.39055E-16
 -1       183 1.32816E-03-5.23832E-04-1.64800E-15
 -1       184 1.60281E-03-5.65553E-04-2.55063E-15
 -1       185 1.87674E-03-5.94890E-04-3.64315E-15
 -1       186 2.15109E-03-6.15151E-04-4.92229E-15
 -1       187 2.42646E-03-6.28763E-04-6.38383E-15
 -1       188 2.70310E-03-6.37544E-04-8.02572E-15
 -1       189 2.98108E-03-6.42856E-04-9.84305E-15
 -1       190 3.26033E-03-6.45722E-04-1.18276E-14
 -1       191 3.54075E-03-6.46893E-04-1.39754E-14
 -1       192 3.82219E-03-6.46910E-04-1.62836E-14
 -1       193 4.10450E-03-6.46151E-04-1.87477E-14
 -1       194 4.38752E-03-6.44868E-04-2.13651E-14
 -1       195 4.67114E-03-6.43211E-04-2.41308E-14
 -1       196 4.95526E-03-6.41252E-04-2.70422E-14
 -1       197 5.23981E-03-6.39007E-04-3.00965E-14
 -1       198 5.52476E-03-6.36444E-04-3.32921E-14
 -1       199 5.81010E-03-6.33500E-04-3.66283E-14
 -1       200 6.09591E-03-6.30089E-04-4.01075E-14
 -1       201 6.38227E-03-6.26119E-04-4.37247E-14
 -1       202 6.66935E-03-6.21504E-04-4.74822E-14
 -1       203 6.95739E-03-6.16181E-04-5.13741E-14
 -1       204 7.24670E-03-6.10147E-04-5.53909E-14
 -1       205 7.53767E-03-6.03487E-04-5.95263E-14
 -1       206 7.83081E-03-5.96430E-04-6.37757E-14
 -1       207 8.12669E-03-5.89417E-04-6.81355E-14
 -1       208 8.42597E-03-5.83187E-04-7.25993E-14
 -1       209 8.72935E-03-5.78886E-04-7.71600E-14
 -1       210 9.03749E-03-5.78181E-04-8.18038E-14
 -1       211 9.35091E-03-5.83371E-04-8.65292E-14
 -1       212 9.66980E-03-5.97435E-04-9.13359E-14
 -1       213 9.99375E-03-6.23925E-04-9.62196E-14
 -1       214 1.03215E-02-6.66567E-04-1.01173E-13
 -1       215 1.06504E-02-7.28351E-04-1.06192E-13
 -1       216 1.09767E-02-8.09948E-04-1.11266E-13
 -1       217 1.12951E-02-9.07549E-04-1.16395E-13
 -1       218 1.16004E-02-1.01080E-03-1.21581E-13
 -1       219 1.18885E-02-1.10235E-03-1.26833E-13
 -1       220 1.21593E-02-1.16077E-03-1.32145E-13
 -1       221 1.24168E-02-1.16718E-03-1.37514E-13
 -1       222 1.26689E-02-1.11250E-03-1.42938E-13
 -1       223 1.29235E-02-1.00064E-03-1.48401E-13
 -1       224 1.31854E-02-8.45177E-04-1.53896E-13
 -1       225 1.34558E-02-6.62259E-04-1.59417E-13
 -1       226 1.37328E-02-4.64900E-04-1.64955E-13
 -1       227 1.40143E-02-2.61646E-04-1.70504E-13
 -1       228 6.04625E-04 3.31035E-04-1.29772E-16
 -1       229 8.93753E-04 4.32657E-04-4.55185E-16
 -1       230 1.17268E-03 5.04417E-04-9.68287E-16
 -1       231 1.44707E-03 5.55528E-04-1.67004E-15
 -1       232 1.71993E-03 5.91812E-04-2.55960E-15
 -1       233 1.99288E-03 6.17253E-04-3.63468E-15
 -1       234 2.26675E-03 6.34725E-04-4.89226E-15
 -1       235 2.54196E-03 6.46367E-04-6.32679E-15
 -1       236 2.81863E-03 6.53785E-04-7.93576E-15
 -1       237 3.09675E-03 6.58185E-04-9.71907E-15
 -1       238 3.37620E-03 6.60469E-04-1.16753E-14
 -1       239 3.65683E-03 6.61294E-04-1.37990E-14
 -1       240 3.93847E-03 6.61130E-04-1.60903E-14
 -1       241 4.22096E-03 6.60300E-04-1.85471E-14
 -1       242 4.50415E-03 6.59010E-04-2.11661E-14
 -1       243 4.78790E-03 6.57379E-04-2.39406E-14
 -1       244 5.07214E-03 6.55454E-04-2.68676E-14
 -1       245 5.35679E-03 6.53227E-04-2.99449E-14
 -1       246 5.64184E-03 6.50652E-04-3.31691E-14
 -1       247 5.92731E-03 6.47651E-04-3.65384E-14
 -1       248 6.21327E-03 6.44125E-04-4.00444E-14
 -1       249 6.49986E-03 6.39971E-04-4.36834E-14
 -1       250 6.78730E-03 6.35091E-04-4.74461E-14
 -1       251 7.07586E-03 6.29412E-04-5.13311E-14
 -1       252 7.36594E-03 6.22920E-04-5.53419E-14
 -1       253 7.65806E-03 6.15694E-04-5.94765E-14
 -1       254 7.95288E-03 6.07968E-04-6.37266E-14
 -1       255 8.25119E-03 6.00212E-04-6.80944E-14
 -1       256 8.55395E-03 5.93244E-04-7.25732E-14
 -1       257 8.86226E-03 5.88387E-04-7.71564E-14
 -1       258 9.17731E-03 5.87672E-04-8.18381E-14
 -1       259 9.50023E-03 5.94076E-04-8.66000E-14
 -1       260 9.83189E-03 6.11762E-04-9.14304E-14
 -1       261 1.01725E-02 6.46194E-04-9.63345E-14
 -1       262 1.05210E-02 7.03869E-04-1.01308E-13
 -1       263 1.08744E-02 7.91204E-04-1.06347E-13
 -1       264 1.12272E-02 9.11954E-04-1.11450E-13
 -1       265 1.15710E-02 1.06286E-03-1.16610E-13
 -1       266 1.18967E-02 1.22864E-03-1.21831E-13
 -1       267 1.21972E-02 1.37996E-03-1.27115E-13
 -1       268 1.24728E-02 1.47977E-03-1.32455E-13
 -1       269 1.27324E-02 1.49902E-03-1.37855E-13
 -1       270 1.29899E-02 1.43138E-03-1.43305E-13
 -1       271 1.32564E-02 1.29480E-03-1.48793E-13
 -1       272 1.35347E-02 1.11819E-03-1.54321E-13
 -1       273 1.38212E-02 9.25005E-04-1.59894E-13
 -1       274 1.41099E-02 7.25780E-04-1.65493E-13
 -1       275 1.43971E-02 5.21577E-04-1.71100E-13
 -1       276 1.46039E-02 4.21439E-04-1.72229E-13
 -1       277 1.48201E-02 3.39929E-04-1.72408E-13
 -1       278 1.50537E-02 2.66933E-04-1.72567E-13
 -1       279 1.53006E-02 2.11831E-04-1.72718E-13
 -1       280 1.55354E-02 1.84733E-04-1.72858E-13
 -1       281 1.57271E-02 1.89408E-04-1.72999E-13
 -1       282 1.58252E-02 2.20243E-04-1.73130E-13
 -1       283 1.58004E-02 2.58858E-04-1.73248E-13
 -1       284 1.56580E-02 2.82612E-04-1.73343E-13
 -1       285 1.54348E-02 2.75768E-04-1.73428E-13
 -1       286 1.51827E-02 2.36247E-04-1.73508E-13
 -1       287 1.49295E-02 1.69584E-04-1.73579E-13
 -1       288 1.46978E-02 8.69162E-05-1.73633E-13
 -1       289 1.44893E-02-1.94442E-06-1.73678E-13
 -1       290 1.42492E-02-1.32982E-04-1.72091E-13
 -1       291 1.52119E-02 2.69973E-04-1.51312E-13
 -1       292 1.50398E-02 3.89427E-04-1.50807E-13
 -1       293 1.46848E-02 5.50105E-04-1.49459E-13
 -1       294 1.42839E-02 7.79011E-04-1.46858E-13
 -1       295 1.38528E-02 9.79238E-04-1.44392E-13
 -1       296 1.33991E-02 1.15427E-03-1.41540E-13
 -1       297 1.29684E-02 1.25724E-03-1.38351E-13
 -1       298 1.25620E-02 1.25121E-03-1.35211E-13
 -1       299 1.21600E-02 1.15032E-03-1.31974E-13
 -1       300 1.17208E-02 9.65997E-04-1.29247E-13
 -1       301 1.13161E-02 7.59245E-04-1.26842E-13
 -1       302 1.09393E-02 5.37683E-04-1.24581E-13
 -1       303 1.06244E-02 3.51376E-04-1.22818E-13
 -1       304 1.04162E-02 2.40091E-04-1.22504E-13
 -1       305 1.03416E-02 1.24221E-04-1.22126E-13
 -1       306 1.04189E-02 1.18928E-05-1.22548E-13
 -1       307 1.06370E-02-1.16190E-04-1.23499E-13
 -1       308 1.09531E-02-2.86036E-04-1.25295E-13
 -1       309 1.13276E-02-4.72102E-04-1.27443E-13
 -1       310 1.17304E-02-6.58681E-04-1.30035E-13
 -1       311 1.21365E-02-8.07056E-04-1.33027E-13
 -1       312 1.25452E-02-8.79031E-04-1.36132E-13
 -1       313 1.29543E-02-8.58155E-04-1.39314E-13
 -1       314 1.33792E-02-7.39037E-04-1.42402E-13
 -1       315 1.38395E-02-5.52439E-04-1.45174E-13
 -1       316 1.42688E-02-3.12005E-04-1.48070E-13
 -1       317 1.47034E-02-1.38977E-04-1.49486E-13
 -1       318 1.50162E-02 2.09592E-05-1.50735E-13
 -1       319 1.52048E-02 1.58335E-04-1.51675E-13
 -1       320 4.55408E-04-1.64793E-04-2.98203E-16
 -1       321 4.74295E-04-2.12972E-04-2.49617E-16
 -1       322 4.40428E-04-9.40024E-05-3.42926E-16
 -1       323 4.37458E-04-6.49005E-05-3.51319E-16
 -1       324 4.35830E-04-3.78978E-05-3.54436E-16
 -1       325 4.35116E-04-1.20149E-05-3.53928E-16
 -1       326 4.35147E-04 1.35327E-05-3.50167E-16
 -1       327 4.35928E-04 3.94729E-05-3.43374E-16
 -1       328 4.37601E-04 6.61245E-05-3.32616E-16
 -1       329 4.40669E-04 9.53962E-05-3.16743E-16
 -1       330 4.46069E-04 1.28307E-04-2.92552E-16
 -1       331 4.55918E-04 1.67288E-04-2.55245E-16
 -1       332 4.75925E-04 2.17033E-04-1.97901E-16
 -1       333 5.32063E-04 2.69964E-04-1.74275E-16
 -1       334 8.24572E-04 3.73502E-04-5.08725E-16
 -1       335 8.63342E-04-3.57392E-04-7.80537E-16
 -1       336 1.14972E-03-4.26165E-04-1.41596E-15
 -1       337 1.43253E-03-4.75358E-04-2.24123E-15
 -1       338 1.71328E-03-5.10125E-04-3.25259E-15
 -1       339 1.99309E-03-5.34270E-04-4.44846E-15
 -1       340 2.27272E-03-5.50617E-04-5.82603E-15
 -1       341 2.55264E-03-5.61286E-04-7.38167E-15
 -1       342 2.83309E-03-5.67872E-04-9.11199E-15
 -1       343 3.11421E-03-5.71569E-04-1.10117E-14
 -1       344 3.39601E-03-5.73261E-04-1.30757E-14
 -1       345 3.67846E-03-5.73591E-04-1.53013E-14
 -1       346 3.96151E-03-5.73010E-04-1.76835E-14
 -1       347 4.24507E-03-5.71827E-04-2.02205E-14
 -1       348 4.52909E-03-5.70234E-04-2.29076E-14
 -1       349 4.81350E-03-5.68333E-04-2.57407E-14
 -1       350 5.09826E-03-5.66161E-04-2.87168E-14
 -1       351 5.38333E-03-5.63701E-04-3.18364E-14
 -1       352 5.66873E-03-5.60895E-04-3.50962E-14
 -1       353 5.95448E-03-5.57660E-04-3.85000E-14
 -1       354 6.24064E-03-5.53895E-04-4.20417E-14
 -1       355 6.52732E-03-5.49496E-04-4.57248E-14
 -1       356 6.81465E-03-5.44371E-04-4.95455E-14
 -1       357 7.10283E-03-5.38468E-04-5.34938E-14
 -1       358 7.39212E-03-5.31799E-04-5.75630E-14
 -1       359 7.68282E-03-5.24489E-04-6.17475E-14
 -1       360 7.97532E-03-5.16836E-04-6.60451E-14
 -1       361 8.27004E-03-5.09380E-04-7.04510E-14
 -1       362 8.56748E-03-5.03013E-04-7.49563E-14
 -1       363 8.86818E-03-4.99083E-04-7.95501E-14
 -1       364 9.17266E-03-4.99525E-04-8.42280E-14
 -1       365 9.48143E-03-5.06958E-04-8.89893E-14
 -1       366 9.79486E-03-5.24708E-04-9.38245E-14
 -1       367 1.01130E-02-5.56644E-04-9.87327E-14
 -1       368 1.04356E-02-6.06643E-04-1.03708E-13
 -1       369 1.07612E-02-6.77475E-04-1.08746E-13
 -1       370 1.10873E-02-7.68870E-04-1.13842E-13
 -1       371 1.14097E-02-8.74930E-04-1.18990E-13
 -1       372 1.17235E-02-9.81803E-04-1.24202E-13
 -1       373 1.20246E-02-1.06771E-03-1.29479E-13
 -1       374 1.23130E-02-1.10824E-03-1.34816E-13
 -1       375 1.25939E-02-1.08577E-03-1.40207E-13
 -1       376 1.28747E-02-9.97807E-04-1.45643E-13
 -1       377 1.31604E-02-8.56771E-04-1.51114E-13
 -1       378 1.34513E-02-6.81617E-04-1.56618E-13
 -1       379 1.37442E-02-4.88684E-04-1.62146E-13
 -1       380 1.39982E-02-3.12248E-04-1.67113E-13
 -1       381 1.11008E-03 4.47832E-04-1.02545E-15
 -1       382 1.39087E-03 5.00915E-04-1.72656E-15
 -1       383 1.66921E-03 5.38558E-04-2.61268E-15
 -1       384 1.94665E-03 5.64886E-04-3.68167E-15
 -1       385 2.22412E-03 5.82910E-04-4.93119E-15
 -1       386 2.50214E-03 5.94872E-04-6.35765E-15
 -1       387 2.78099E-03 6.02453E-04-7.95709E-15
 -1       388 3.06078E-03 6.06916E-04-9.72968E-15
 -1       389 3.34150E-03 6.09199E-04-1.16728E-14
 -1       390 3.62307E-03 6.09988E-04-1.37827E-14
 -1       391 3.90542E-03 6.09772E-04-1.60581E-14
 -1       392 4.18844E-03 6.08887E-04-1.84982E-14
 -1       393 4.47202E-03 6.07547E-04-2.10998E-14
 -1       394 4.75608E-03 6.05873E-04-2.38557E-14
 -1       395 5.04056E-03 6.03917E-04-2.67655E-14
 -1       396 5.32541E-03 6.01670E-04-2.98253E-14
 -1       397 5.61062E-03 5.99084E-04-3.30324E-14
 -1       398 5.89621E-03 5.96075E-04-3.63839E-14
 -1       399 6.18224E-03 5.92541E-04-3.98729E-14
 -1       400 6.46884E-03 5.88367E-04-4.34944E-14
 -1       401 6.75616E-03 5.83442E-04-4.72392E-14
 -1       402 7.04444E-03 5.77677E-04-5.11091E-14
 -1       403 7.33398E-03 5.71030E-04-5.51048E-14
 -1       404 7.62518E-03 5.63550E-04-5.92233E-14
 -1       405 7.91853E-03 5.55425E-04-6.34592E-14
 -1       406 8.21465E-03 5.47065E-04-6.78100E-14
 -1       407 8.51425E-03 5.39210E-04-7.22722E-14
 -1       408 8.81813E-03 5.33083E-04-7.68393E-14
 -1       409 9.12720E-03 5.30583E-04-8.15055E-14
 -1       410 9.44235E-03 5.34533E-04-8.62549E-14
 -1       411 9.76443E-03 5.48932E-04-9.10755E-14
 -1       412 1.00940E-02 5.79124E-04-9.59689E-14
 -1       413 1.04311E-02 6.31666E-04-1.00930E-13
 -1       414 1.07747E-02 7.13468E-04-1.05957E-13
 -1       415 1.11223E-02 8.29576E-04-1.11047E-13
 -1       416 1.14687E-02 9.79008E-04-1.16191E-13
 -1       417 1.18065E-02 1.14911E-03-1.21398E-13
 -1       418 1.21281E-02 1.31153E-03-1.26666E-13
 -1       419 1.24302E-02 1.42626E-03-1.31991E-13
 -1       420 1.27183E-02 1.45820E-03-1.37376E-13
 -1       421 1.30041E-02 1.39681E-03-1.42815E-13
 -1       422 1.32968E-02 1.26110E-03-1.48294E-13
 -1       423 1.35972E-02 1.08375E-03-1.53816E-13
 -1       424 1.38999E-02 8.91148E-04-1.59381E-13
 -1       425 1.41989E-02 6.94445E-04-1.64973E-13
 -1       426 1.44026E-02 5.59314E-04-1.68599E-13
 -1       427 1.49233E-02 3.77643E-04-1.67798E-13
 -1       428 1.46789E-02 4.64124E-04-1.67631E-13
 -1       429 1.45357E-02 5.13228E-04-1.68118E-13
 -1       430 1.51768E-02 3.04371E-04-1.67953E-13
 -1       431 1.54168E-02 2.53365E-04-1.68099E-13
 -1       432 1.55856E-02 2.31871E-04-1.68230E-13
 -1       433 1.56305E-02 2.30026E-04-1.68350E-13
 -1       434 1.55332E-02 2.24663E-04-1.68459E-13
 -1       435 1.53241E-02 1.94551E-04-1.68556E-13
 -1       436 1.50656E-02 1.35516E-04-1.68638E-13
 -1       437 1.47979E-02 5.38751E-05-1.68712E-13
 -1       438 1.45524E-02-3.82454E-05-1.68777E-13
 -1       439 1.43356E-02-1.32314E-04-1.68837E-13
 -1       440 1.48819E-02 3.88657E-04-1.52638E-13
 -1       441 1.52568E-02 2.19877E-04-1.54329E-13
 -1       442 1.51762E-02 2.76338E-04-1.53828E-13
 -1       443 1.43838E-02 6.14749E-04-1.49802E-13
 -1       444 1.39834E-02 8.29290E-04-1.47080E-13
 -1       445 4.45681E-04-1.26402E-04-3.26711E-16
 -1       446 1.31175E-02 1.23962E-03-1.40641E-13
 -1       447 1.27427E-02 1.30440E-03-1.36687E-13
 -1       448 1.24283E-02 1.25188E-03-1.33438E-13
 -1       449 1.19756E-02 1.04355E-03-1.29400E-13
 -1       450 1.15991E-02 8.23506E-04-1.26604E-13
 -1       451 1.12162E-02 5.90302E-04-1.23864E-13
 -1       452 1.08234E-02 3.80308E-04-1.21617E-13
 -1       453 1.04792E-02 2.25822E-04-1.20308E-13
 -1       454 1.03467E-02 1.54836E-04-1.19932E-13
 -1       455 1.03403E-02 8.69258E-05-1.19424E-13
 -1       456 1.05077E-02 3.19258E-07-1.20897E-13
 -1       457 1.08273E-02-1.36235E-04-1.22205E-13
 -1       458 1.11958E-02-3.17293E-04-1.24344E-13
 -1       459 1.15968E-02-5.38607E-04-1.27331E-13
 -1       460 1.20053E-02-7.51895E-04-1.30664E-13
 -1       461 1.23638E-02-8.85486E-04-1.34180E-13
 -1       462 1.27133E-02-9.15963E-04-1.37763E-13
 -1       463 1.30932E-02-8.23854E-04-1.41584E-13
 -1       464 1.35228E-02-6.21635E-04-1.45164E-13
 -1       465 1.39213E-02-4.01324E-04-1.48068E-13
 -1       466 1.44884E-02-1.16675E-04-1.51184E-13
 -1       467 1.48279E-02 2.22030E-05-1.52448E-13
 -1       468 1.51251E-02 1.39297E-04-1.53637E-13
 -1       469 1.35534E-02 1.05225E-03-1.44080E-13
 -1       470 1.46453E-02 4.64858E-04-1.52980E-13
 -1       471 1.41899E-02-2.25853E-04-1.51179E-13
 -1       472 1.06211E-02 2.68513E-04-1.19108E-13
 -1       473 1.22228E-02 1.17234E-03-1.30852E-13
 -1       474 9.31315E-04 3.46025E-04-8.71942E-16
 -1       475 6.65800E-04-7.51263E-05-7.49377E-16
 -1       476 6.69778E-04-1.15884E-04-7.38630E-16
 -1       477 6.63120E-04 1.10461E-06-7.47612E-16
 -1       478 6.63842E-04 3.87626E-05-7.37322E-16
 -1       479 6.65987E-04 7.68125E-05-7.20798E-16
 -1       480 6.70090E-04 1.17721E-04-6.96021E-16
 -1       481 6.77113E-04 1.62337E-04-6.60259E-16
 -1       482 6.89042E-04 2.12701E-04-6.08149E-16
 -1       483 1.21722E-03 4.06527E-04-1.51198E-15
 -1       484 9.76349E-04-3.28618E-04-1.17297E-15
 -1       485 1.33533E-02 1.13180E-03-1.43979E-13
 -1       486 1.26227E-03-3.83518E-04-1.92377E-15
 -1       487 1.54731E-03-4.23291E-04-2.85836E-15
 -1       488 1.83146E-03-4.51386E-04-3.97421E-15
 -1       489 2.11501E-03-4.70705E-04-5.26955E-15
 -1       490 2.39830E-03-4.83541E-04-6.74185E-15
 -1       491 2.68156E-03-4.91667E-04-8.38805E-15
 -1       492 2.96496E-03-4.96432E-04-1.02029E-14
 -1       493 3.24858E-03-4.98846E-04-1.21839E-14
 -1       494 3.53247E-03-4.99651E-04-1.43263E-14
 -1       495 3.81664E-03-4.99381E-04-1.66278E-14
 -1       496 4.10108E-03-4.98403E-04-1.90838E-14
 -1       497 4.38576E-03-4.96955E-04-2.16913E-14
 -1       498 4.67067E-03-4.95179E-04-2.44463E-14
 -1       499 4.95578E-03-4.93136E-04-2.73464E-14
 -1       500 5.24108E-03-4.90830E-04-3.03903E-14
 -1       501 5.52657E-03-4.88221E-04-3.35745E-14
 -1       502 5.81227E-03-4.85232E-04-3.69033E-14
 -1       503 6.09820E-03-4.81765E-04-4.03715E-14
 -1       504 6.38442E-03-4.77713E-04-4.39798E-14
 -1       505 6.67098E-03-4.72968E-04-4.77263E-14
 -1       506 6.95800E-03-4.67444E-04-5.16067E-14
 -1       507 7.24560E-03-4.61103E-04-5.56091E-14
 -1       508 7.53393E-03-4.53986E-04-5.97309E-14
 -1       509 7.82321E-03-4.46263E-04-6.39648E-14
 -1       510 8.11369E-03-4.38294E-04-6.83106E-14
 -1       511 8.40569E-03-4.30714E-04-7.27609E-14
 -1       512 8.69963E-03-4.24526E-04-7.73041E-14
 -1       513 8.99601E-03-4.21223E-04-8.19318E-14
 -1       514 9.29552E-03-4.22900E-04-8.66469E-14
 -1       515 9.59905E-03-4.32359E-04-9.14391E-14
 -1       516 9.90769E-03-4.53131E-04-9.62999E-14
 -1       517 1.02227E-02-4.89328E-04-1.01232E-13
 -1       518 1.05451E-02-5.45144E-04-1.06233E-13
 -1       519 1.08751E-02-6.23659E-04-1.11294E-13
 -1       520 1.12106E-02-7.24477E-04-1.16409E-13
 -1       521 1.15465E-02-8.40040E-04-1.21584E-13
 -1       522 1.18755E-02-9.52018E-04-1.26822E-13
 -1       523 1.21920E-02-1.03131E-03-1.32121E-13
 -1       524 1.24974E-02-1.04812E-03-1.37480E-13
 -1       525 1.28004E-02-9.88163E-04-1.42889E-13
 -1       526 1.31092E-02-8.61057E-04-1.48339E-13
 -1       527 1.34248E-02-6.91532E-04-1.53822E-13
 -1       528 1.37413E-02-5.02679E-04-1.59334E-13
 -1       529 1.78411E-03 4.81145E-04-3.33411E-15
 -1       530 2.06613E-03 5.02544E-04-4.51358E-15
 -1       531 2.34789E-03 5.16923E-04-5.86935E-15
 -1       532 2.62975E-03 5.26196E-04-7.39772E-15
 -1       533 2.91191E-03 5.31815E-04-9.09713E-15
 -1       534 3.19447E-03 5.34864E-04-1.09664E-14
 -1       535 3.47747E-03 5.36145E-04-1.30020E-14
 -1       536 3.76091E-03 5.36235E-04-1.52010E-14
 -1       537 4.04475E-03 5.35538E-04-1.75630E-14
 -1       538 4.32895E-03 5.34319E-04-2.00873E-14
 -1       539 4.61347E-03 5.32738E-04-2.27674E-14
 -1       540 4.89829E-03 5.30876E-04-2.56006E-14
 -1       541 5.18336E-03 5.28745E-04-2.85857E-14
 -1       542 5.46869E-03 5.26312E-04-3.17195E-14
 -1       543 5.75429E-03 5.23504E-04-3.49991E-14
 -1       544 6.04018E-03 5.20221E-04-3.84178E-14
 -1       545 6.32643E-03 5.16346E-04-4.19710E-14
 -1       546 6.61313E-03 5.11756E-04-4.56513E-14
 -1       547 6.90041E-03 5.06339E-04-4.94553E-14
 -1       548 7.18842E-03 5.00013E-04-5.33879E-14
 -1       549 7.47739E-03 4.92759E-04-5.74441E-14
 -1       550 7.76757E-03 4.84665E-04-6.16191E-14
 -1       551 8.05929E-03 4.75987E-04-6.59074E-14
 -1       552 8.35293E-03 4.67240E-04-7.03123E-14
 -1       553 8.64894E-03 4.59312E-04-7.48250E-14
 -1       554 8.94787E-03 4.53632E-04-7.94350E-14
 -1       555 9.25038E-03 4.52367E-04-8.41369E-14
 -1       556 9.55734E-03 4.58662E-04-8.89212E-14
 -1       557 9.86988E-03 4.76885E-04-9.37744E-14
 -1       558 1.01895E-02 5.12784E-04-9.86956E-14
 -1       559 1.05180E-02 5.73344E-04-1.03687E-13
 -1       560 1.08571E-02 6.65940E-04-1.08739E-13
 -1       561 1.12070E-02 7.95917E-04-1.13844E-13
 -1       562 1.15641E-02 9.61332E-04-1.19009E-13
 -1       563 1.19192E-02 1.14482E-03-1.24236E-13
 -1       564 1.22613E-02 1.30725E-03-1.29518E-13
 -1       565 1.25867E-02 1.39548E-03-1.34861E-13
 -1       566 1.29043E-02 1.37731E-03-1.40264E-13
 -1       567 1.32304E-02 1.26069E-03-1.45721E-13
 -1       568 1.35651E-02 1.08736E-03-1.51220E-13
 -1       569 1.38999E-02 8.96985E-04-1.56760E-13
 -1       570 1.42237E-02 7.07528E-04-1.62336E-13
 -1       571 1.50566E-02 3.42776E-04-1.63200E-13
 -1       572 1.53085E-02 2.69530E-04-1.63343E-13
 -1       573 1.45227E-02 5.59976E-04-1.62872E-13
 -1       574 1.47799E-02 4.46325E-04-1.63042E-13
 -1       575 1.54482E-02 2.32493E-04-1.63471E-13
 -1       576 1.54156E-02 2.11415E-04-1.63583E-13
 -1       577 1.52229E-02 1.67791E-04-1.63684E-13
 -1       578 1.49467E-02 8.48662E-05-1.63771E-13
 -1       579 1.46559E-02-2.40189E-05-1.63852E-13
 -1       580 1.43946E-02-1.40067E-04-1.63925E-13
 -1       581 1.41706E-02-2.50775E-04-1.63995E-13
 -1       582 1.52582E-02 1.97307E-04-1.57103E-13
 -1       583 1.50135E-03 4.50222E-04-2.33302E-15
 -1       584 1.52843E-02 2.39221E-04-1.57517E-13
 -1       585 1.50149E-02 1.23519E-04-1.56023E-13
 -1       586 7.12680E-04-2.51719E-04-6.63738E-16
 -1       587 1.32663E-02-7.27315E-04-1.44555E-13
 -1       588 6.63730E-04-3.65178E-05-7.51867E-16
 -1       589 1.28754E-02 1.31520E-03-1.38604E-13
 -1       590 1.18054E-02 9.25530E-04-1.26572E-13
 -1       591 1.26253E-02 1.31867E-03-1.35342E-13
 -1       592 1.03964E-02 4.94088E-05-1.17478E-13
 -1       593 1.14517E-02 7.01860E-04-1.23675E-13
 -1       594 1.10193E-02 4.53124E-04-1.20522E-13
 -1       595 1.03694E-02 1.63351E-04-1.17494E-13
 -1       596 1.02905E-02 1.12678E-04-1.16991E-13
 -1       597 1.06280E-02-4.07548E-05-1.18770E-13
 -1       598 1.09860E-02-2.01808E-04-1.20913E-13
 -1       599 1.14139E-02-4.29198E-04-1.24124E-13
 -1       600 1.17988E-02-6.50024E-04-1.27574E-13
 -1       601 1.21942E-02-8.49795E-04-1.31821E-13
 -1       602 1.25251E-02-9.34144E-04-1.35888E-13
 -1       603 1.28522E-02-9.02803E-04-1.40003E-13
 -1       604 1.36611E-02-5.03887E-04-1.48214E-13
 -1       605 1.47462E-02 2.90728E-05-1.54750E-13
 -1       606 1.41237E-02 7.07676E-04-1.50223E-13
 -1       607 1.50951E-02 2.96172E-04-1.56331E-13
 -1       608 7.03862E-04 2.90884E-04-4.73522E-16
 -1       609 1.37423E-02 9.19143E-04-1.47207E-13
 -1       610 1.31025E-02 1.25749E-03-1.41927E-13
 -1       611 6.76586E-04-1.60113E-04-7.17013E-16
 -1       612 1.49254E-02 3.54243E-04-1.56679E-13
 -1       613 1.39327E-02-3.44467E-04-1.51328E-13
 -1       614 1.44105E-02 5.61275E-04-1.53405E-13
 -1       615 1.39483E-02-3.72772E-04-1.63076E-13
 -1       616 1.44935E-02-6.76078E-05-1.54743E-13
 -1       617 1.02823E-02 7.79735E-05-1.15054E-13
 -1       618 1.07842E-02 3.39590E-04-1.18016E-13
 -1       619 1.24324E-02 1.28232E-03-1.32737E-13
 -1       620 1.20257E-02 1.07190E-03-1.28005E-13
 -1       621 8.99728E-04 7.41133E-05-1.25356E-15
 -1       622 8.97635E-04 2.51797E-05-1.27490E-15
 -1       623 9.11825E-04 1.78229E-04-1.17662E-15
 -1       624 9.24210E-04 2.36796E-04-1.11278E-15
 -1       625 1.04892E-03 3.13924E-04-1.28088E-15
 -1       626 1.23448E-02-9.26241E-04-1.33613E-13
 -1       627 1.33466E-03 3.61576E-04-2.03824E-15
 -1       628 1.49264E-02 9.75626E-05-1.58267E-13
 -1       629 1.38332E-03-3.37080E-04-2.46351E-15
 -1       630 1.66952E-03-3.68022E-04-3.50144E-15
 -1       631 1.95574E-03-3.89844E-04-4.71660E-15
 -1       632 2.24178E-03-4.04693E-04-6.10668E-15
 -1       633 2.52764E-03-4.14364E-04-7.67037E-15
 -1       634 2.81335E-03-4.20279E-04-9.40313E-15
 -1       635 3.09897E-03-4.23529E-04-1.13005E-14
 -1       636 3.38454E-03-4.24935E-04-1.33597E-14
 -1       637 3.67009E-03-4.25094E-04-1.55794E-14
 -1       638 3.95564E-03-4.24429E-04-1.79553E-14
 -1       639 4.24120E-03-4.23223E-04-2.04832E-14
 -1       640 4.52679E-03-4.21654E-04-2.31604E-14
 -1       641 4.81241E-03-4.19815E-04-2.59839E-14
 -1       642 5.09806E-03-4.17734E-04-2.89523E-14
 -1       643 5.38375E-03-4.15389E-04-3.20636E-14
 -1       644 5.66948E-03-4.12723E-04-3.53165E-14
 -1       645 5.95526E-03-4.09650E-04-3.87115E-14
 -1       646 6.24109E-03-4.06065E-04-4.22464E-14
 -1       647 6.52699E-03-4.01860E-04-4.59194E-14
 -1       648 6.81298E-03-3.96934E-04-4.97282E-14
 -1       649 7.09909E-03-3.91214E-04-5.36635E-14
 -1       650 7.38535E-03-3.84679E-04-5.77193E-14
 -1       651 7.67183E-03-3.77397E-04-6.18919E-14
 -1       652 7.95862E-03-3.69573E-04-6.61775E-14
 -1       653 8.24587E-03-3.61607E-04-7.05705E-14
 -1       654 8.53383E-03-3.54170E-04-7.50597E-14
 -1       655 8.82290E-03-3.48297E-04-7.96403E-14
 -1       656 9.11372E-03-3.45492E-04-8.43082E-14
 -1       657 9.40733E-03-3.47844E-04-8.90559E-14
 -1       658 9.70526E-03-3.58151E-04-9.38759E-14
 -1       659 1.00097E-02-3.80035E-04-9.87670E-14
 -1       660 1.03236E-02-4.17994E-04-1.03727E-13
 -1       661 1.06497E-02-4.77201E-04-1.08752E-13
 -1       662 1.09899E-02-5.62481E-04-1.13836E-13
 -1       663 1.13419E-02-6.75216E-04-1.18972E-13
 -1       664 1.16987E-02-8.05970E-04-1.24178E-13
 -1       665 1.20472E-02-9.27617E-04-1.29442E-13
 -1       666 1.23814E-02-9.97021E-04-1.34762E-13
 -1       667 1.27074E-02-9.76676E-04-1.40141E-13
 -1       668 1.30390E-02-8.64848E-04-1.45568E-13
 -1       669 1.33816E-02-6.94652E-04-1.51029E-13
 -1       670 1.37279E-02-5.03721E-04-1.56519E-13
 -1       671 2.19073E-03 4.37580E-04-5.37143E-15
 -1       672 1.26470E-02-9.51683E-04-1.37959E-13
 -1       673 1.90573E-03 4.20777E-04-4.08493E-15
 -1       674 2.76019E-03 4.55600E-04-8.45818E-15
 -1       675 3.04487E-03 4.59583E-04-1.02551E-14
 -1       676 3.32961E-03 4.61513E-04-1.22169E-14
 -1       677 3.61446E-03 4.62049E-04-1.43424E-14
 -1       678 3.89942E-03 4.61659E-04-1.66299E-14
 -1       679 4.18451E-03 4.60662E-04-1.90772E-14
 -1       680 4.46971E-03 4.59259E-04-2.16826E-14
 -1       681 4.75504E-03 4.57562E-04-2.44407E-14
 -1       682 5.04047E-03 4.55612E-04-2.73522E-14
 -1       683 5.32601E-03 4.53395E-04-3.04120E-14
 -1       684 5.61166E-03 4.50856E-04-3.36193E-14
 -1       685 5.89745E-03 4.47909E-04-3.69691E-14
 -1       686 6.18338E-03 4.44444E-04-4.04530E-14
 -1       687 6.46948E-03 4.40340E-04-4.40673E-14
 -1       688 6.75580E-03 4.35479E-04-4.78079E-14
 -1       689 7.04239E-03 4.29759E-04-5.16757E-14
 -1       690 7.32930E-03 4.23120E-04-5.56691E-14
 -1       691 7.61663E-03 4.15581E-04-5.97848E-14
 -1       692 7.90445E-03 4.07284E-04-6.40130E-14
 -1       693 8.19288E-03 3.98558E-04-6.83580E-14
 -1       694 8.48208E-03 3.90012E-04-7.28146E-14
 -1       695 8.77226E-03 3.82644E-04-7.73742E-14
 -1       696 9.06378E-03 3.77990E-04-8.20252E-14
 -1       697 9.35729E-03 3.78300E-04-8.67639E-14
 -1       698 9.65389E-03 3.86747E-04-9.15819E-14
 -1       699 9.95552E-03 4.07670E-04-9.64665E-14
 -1       700 1.02653E-02 4.46843E-04-1.01420E-13
 -1       701 1.05878E-02 5.11717E-04-1.06437E-13
 -1       702 1.09283E-02 6.11257E-04-1.11507E-13
 -1       703 1.12903E-02 7.54065E-04-1.16635E-13
 -1       704 1.16702E-02 9.40626E-04-1.21819E-13
 -1       705 1.20532E-02 1.14631E-03-1.27060E-13
 -1       706 1.35128E-02 1.08148E-03-1.48627E-13
 -1       707 1.38880E-02 8.83629E-04-1.54149E-13
 -1       708 1.42108E-02 7.13664E-04-1.58504E-13
 -1       709 1.39536E-02-3.76696E-04-1.60252E-13
 -1       710 1.50068E-02 3.36636E-04-1.59478E-13
 -1       711 1.45309E-02-6.54013E-05-1.59402E-13
 -1       712 1.42427E-02-2.10614E-04-1.59482E-13
 -1       713 1.62038E-03 3.96259E-04-2.97322E-15
 -1       714 1.34306E-02-6.29917E-04-1.47947E-13
 -1       715 1.35942E-02 1.00530E-03-1.47788E-13
 -1       716 1.30360E-02-8.38215E-04-1.43253E-13
 -1       717 8.72367E-04-2.47152E-04-1.05855E-15
 -1       718 1.04216E-02 1.99341E-06-1.14563E-13
 -1       719 2.47551E-03 4.48666E-04-6.83000E-15
 -1       720 1.12171E-02 5.80848E-04-1.19710E-13
 -1       721 1.12695E-03-2.97121E-04-1.68921E-15
 -1       722 9.04186E-04 1.24618E-04-1.22190E-15
 -1       723 1.04463E-02 2.01112E-04-1.15333E-13
 -1       724 9.03816E-04-1.22206E-04-1.27807E-15
 -1       725 1.16104E-02 8.21868E-04-1.23134E-13
 -1       726 1.07314E-02-1.17379E-04-1.17052E-13
 -1       727 1.02704E-02 1.28749E-04-1.14632E-13
 -1       728 1.39164E-02 8.21082E-04-1.50809E-13
 -1       729 1.11501E-02-3.23408E-04-1.20261E-13
 -1       730 1.19682E-02-7.76581E-04-1.28659E-13
 -1       731 1.15676E-02-5.58197E-04-1.24126E-13
 -1       732 9.11222E-04-1.75595E-04-1.25433E-15
 -1       733 8.97571E-04-2.31567E-05-1.28638E-15
 -1       734 1.47283E-02 4.31848E-04-1.57105E-13
 -1       735 1.42465E-02-1.82685E-04-1.54892E-13
 -1       736 1.41939E-02 6.79681E-04-1.53994E-13
 -1       737 1.09736E-02 4.58581E-04-1.17209E-13
 -1       738 1.44596E-02 5.74096E-04-1.58679E-13
 -1       739 8.99519E-04-7.18267E-05-1.28785E-15
 -1       740 1.47267E-02 4.46460E-04-1.59083E-13
 -1       741 1.36814E-02-4.89190E-04-1.51065E-13
 -1       742 1.02037E-02 9.56938E-05-1.12705E-13
 -1       743 1.12731E-02-4.67203E-04-1.19818E-13
 -1       744 1.16155E-03 2.43668E-04-1.76631E-15
 -1       745 1.79729E-03-3.09555E-04-4.17006E-15
 -1       746 2.08495E-03-3.25673E-04-5.47957E-15
 -1       747 2.37274E-03-3.36496E-04-6.96095E-15
 -1       748 2.66043E-03-3.43379E-04-8.61190E-15
 -1       749 2.94793E-03-3.47411E-04-1.04279E-14
 -1       750 3.23519E-03-3.49435E-04-1.24059E-14
 -1       751 3.52221E-03-3.50080E-04-1.45430E-14
 -1       752 3.80900E-03-3.49804E-04-1.68377E-14
 -1       753 4.09560E-03-3.48922E-04-1.92849E-14
 -1       754 4.38201E-03-3.47641E-04-2.18850E-14
 -1       755 4.66827E-03-3.46082E-04-2.46324E-14
 -1       756 4.95440E-03-3.44296E-04-2.75231E-14
 -1       757 5.24039E-03-3.42287E-04-3.05600E-14
 -1       758 5.52627E-03-3.40015E-04-3.37402E-14
 -1       759 5.81201E-03-3.37414E-04-3.70615E-14
 -1       760 6.09761E-03-3.34395E-04-4.05230E-14
 -1       761 6.38304E-03-3.30857E-04-4.41242E-14
 -1       762 6.66825E-03-3.26698E-04-4.78593E-14
 -1       763 6.95320E-03-3.21828E-04-5.17264E-14
 -1       764 7.23784E-03-3.16189E-04-5.57167E-14
 -1       765 7.52209E-03-3.09777E-04-5.98274E-14
 -1       766 7.80592E-03-3.02672E-04-6.40531E-14
 -1       767 8.08931E-03-2.95087E-04-6.83853E-14
 -1       768 8.37230E-03-2.87408E-04-7.28211E-14
 -1       769 8.65510E-03-2.80265E-04-7.73532E-14
 -1       770 8.93813E-03-2.74598E-04-8.19739E-14
 -1       771 9.22221E-03-2.71754E-04-8.66764E-14
 -1       772 9.50873E-03-2.73610E-04-9.14549E-14
 -1       773 9.80001E-03-2.82767E-04-9.63061E-14
 -1       774 1.00995E-02-3.02883E-04-1.01228E-13
 -1       775 1.04119E-02-3.39183E-04-1.06217E-13
 -1       776 1.07429E-02-3.98965E-04-1.11266E-13
 -1       777 1.10963E-02-4.90933E-04-1.16369E-13
 -1       778 3.18001E-03 3.86046E-04-1.14295E-14
 -1       779 2.89344E-03 3.83407E-04-9.53955E-15
 -1       780 3.75268E-03 3.87126E-04-1.56979E-14
 -1       781 4.03884E-03 3.86444E-04-1.80713E-14
 -1       782 4.32490E-03 3.85306E-04-2.06015E-14
 -1       783 4.61089E-03 3.83855E-04-2.32861E-14
 -1       784 4.89681E-03 3.82158E-04-2.61235E-14
 -1       785 5.18268E-03 3.80227E-04-2.91111E-14
 -1       786 5.46850E-03 3.78029E-04-3.22448E-14
 -1       787 5.75427E-03 3.75496E-04-3.55228E-14
 -1       788 6.03999E-03 3.72535E-04-3.89383E-14
 -1       789 6.32564E-03 3.69040E-04-4.24868E-14
 -1       790 6.61119E-03 3.64898E-04-4.61631E-14
 -1       791 6.89662E-03 3.60004E-04-4.99690E-14
 -1       792 7.18188E-03 3.54282E-04-5.38997E-14
 -1       793 7.46690E-03 3.47708E-04-5.79548E-14
 -1       794 7.75159E-03 3.40344E-04-6.21279E-14
 -1       795 8.03586E-03 3.32388E-04-6.64123E-14
 -1       796 8.31961E-03 3.24230E-04-7.08108E-14
 -1       797 8.60275E-03 3.16528E-04-7.53174E-14
 -1       798 8.88530E-03 3.10297E-04-7.99225E-14
 -1       799 9.16747E-03 3.07013E-04-8.46122E-14
 -1       800 9.44988E-03 3.08735E-04-8.93878E-14
 -1       801 9.73396E-03 3.18271E-04-9.42374E-14
 -1       802 1.00224E-02 3.39470E-04-9.91554E-14
 -1       803 1.03202E-02 3.77810E-04-1.04138E-13
 -1       804 1.06349E-02 4.41607E-04-1.09176E-13
 -1       805 1.09765E-02 5.43798E-04-1.14273E-13
 -1       806 1.13822E-03 5.90609E-05-1.92783E-15
 -1       807 1.04900E-02-7.82895E-05-1.12851E-13
 -1       808 1.02680E-02 1.53276E-04-1.12101E-13
 -1       809 1.39697E-02 8.19226E-04-1.53643E-13
 -1       810 3.46641E-03 3.87113E-04-1.34834E-14
 -1       811 2.03274E-03 3.57734E-04-4.86691E-15
 -1       812 1.02063E-02 4.58996E-05-1.11065E-13
 -1       813 1.51020E-03-2.86552E-04-3.03448E-15
 -1       814 1.05737E-02 2.74400E-04-1.14034E-13
 -1       815 1.24624E-03 3.00857E-04-1.90818E-15
 -1       816 1.08352E-02-2.36051E-04-1.15667E-13
 -1       817 1.12771E-02 6.74085E-04-1.18179E-13
 -1       818 1.13684E-03 1.19951E-06-1.95065E-15
 -1       819 1.14976E-03 1.79116E-04-1.83869E-15
 -1       820 1.14233E-03 1.17816E-04-1.89151E-15
 -1       821 1.02295E-02-1.38127E-05-1.09376E-13
 -1       822 1.38812E-02-3.84390E-04-1.54019E-13
 -1       823 1.37690E-02-4.56129E-04-1.53935E-13
 -1       824 1.74569E-03 3.39138E-04-3.64873E-15
 -1       825 2.60670E-03 3.78488E-04-7.81477E-15
 -1       826 1.01506E-02 1.15702E-04-1.10192E-13
 -1       827 1.49560E-03 3.24154E-04-2.70884E-15
 -1       828 1.03441E-02 2.08196E-04-1.10814E-13
 -1       829 1.25388E-03-2.56243E-04-2.16876E-15
 -1       830 1.14196E-03-1.15204E-04-1.95477E-15
 -1       831 2.31978E-03 3.70340E-04-6.25646E-15
 -1       832 1.14923E-03-1.76157E-04-1.93307E-15
 -1       833 1.15656E-02-6.32238E-04-1.23072E-13
 -1       834 1.26302E-02 1.34890E-03-1.35454E-13
 -1       835 1.09852E-02 5.02796E-04-1.15742E-13
 -1       836 2.21829E-03-2.58958E-04-6.26308E-15
 -1       837 2.50736E-03-2.66295E-04-7.83176E-15
 -1       838 2.79636E-03-2.70819E-04-9.56652E-15
 -1       839 3.08512E-03-2.73316E-04-1.14637E-14
 -1       840 3.37353E-03-2.74398E-04-1.35197E-14
 -1       841 3.66157E-03-2.74518E-04-1.57321E-14
 -1       842 3.94923E-03-2.74000E-04-1.81007E-14
 -1       843 4.23654E-03-2.73063E-04-2.06211E-14
 -1       844 4.52353E-03-2.71845E-04-2.32910E-14
 -1       845 4.81022E-03-2.70416E-04-2.61055E-14
 -1       846 5.09662E-03-2.68801E-04-2.90655E-14
 -1       847 5.38276E-03-2.66981E-04-3.21714E-14
 -1       848 5.66861E-03-2.64911E-04-3.54220E-14
 -1       849 5.95415E-03-2.62523E-04-3.88113E-14
 -1       850 6.23932E-03-2.59734E-04-4.23388E-14
 -1       851 6.52406E-03-2.56452E-04-4.60037E-14
 -1       852 6.80825E-03-2.52589E-04-4.98005E-14
 -1       853 7.09177E-03-2.48068E-04-5.37217E-14
 -1       854 7.37447E-03-2.42844E-04-5.77686E-14
 -1       855 7.65617E-03-2.36915E-04-6.19354E-14
 -1       856 7.93672E-03-2.30355E-04-6.62109E-14
 -1       857 8.21598E-03-2.23341E-04-7.05881E-14
 -1       858 8.49389E-03-2.16183E-04-7.50700E-14
 -1       859 8.77057E-03-2.09371E-04-7.96426E-14
 -1       860 9.04639E-03-2.03619E-04-8.43015E-14
 -1       861 9.32221E-03-1.99940E-04-8.90390E-14
 -1       862 9.59966E-03-1.99789E-04-9.38519E-14
 -1       863 9.88151E-03-2.05361E-04-9.87341E-14
 -1       864 1.01724E-02-2.20260E-04-1.03687E-13
 -1       865 1.04789E-02-2.50930E-04-1.08704E-13
 -1       866 1.08550E-02-3.30731E-04-1.14225E-13
 -1       867 4.17924E-03 3.10787E-04-1.95250E-14
 -1       868 3.89223E-03 3.11592E-04-1.70671E-14
 -1       869 4.75252E-03 3.08276E-04-2.48996E-14
 -1       870 5.03882E-03 3.06696E-04-2.78136E-14
 -1       871 5.32492E-03 3.04900E-04-3.08757E-14
 -1       872 5.61081E-03 3.02845E-04-3.40826E-14
 -1       873 5.89647E-03 3.00458E-04-3.74305E-14
 -1       874 6.18186E-03 2.97655E-04-4.09128E-14
 -1       875 6.46691E-03 2.94339E-04-4.45231E-14
 -1       876 6.75154E-03 2.90418E-04-4.82645E-14
 -1       877 7.03563E-03 2.85813E-04-5.21345E-14
 -1       878 7.31900E-03 2.80482E-04-5.61295E-14
 -1       879 7.60145E-03 2.74442E-04-6.02459E-14
 -1       880 7.88273E-03 2.67803E-04-6.44745E-14
 -1       881 8.16256E-03 2.60804E-04-6.88137E-14
 -1       882 8.44060E-03 2.53865E-04-7.32656E-14
 -1       883 8.71654E-03 2.47627E-04-7.78206E-14
 -1       884 8.99013E-03 2.43009E-04-8.24659E-14
 -1       885 9.26134E-03 2.41242E-04-8.71963E-14
 -1       886 9.53056E-03 2.43919E-04-9.20064E-14
 -1       887 9.79908E-03 2.53111E-04-9.68906E-14
 -1       888 1.00697E-02 2.71722E-04-1.01838E-13
 -1       889 1.03482E-02 3.04674E-04-1.06843E-13
 -1       890 1.06471E-02 3.81163E-04-1.11272E-13
 -1       891 4.46600E-03 3.09651E-04-2.21369E-14
 -1       892 3.02938E-03 3.09881E-04-1.06415E-14
 -1       893 1.13805E-03-5.65151E-05-1.95979E-15
 -1       894 1.00865E-02 7.06439E-05-1.08572E-13
 -1       895 1.64158E-03-2.31792E-04-3.63504E-15
 -1       896 1.06039E-02 3.18743E-04-1.12586E-13
 -1       897 1.92950E-03-2.47837E-04-4.86368E-15
 -1       898 1.41041E-03 2.65981E-04-2.53922E-15
 -1       899 1.05218E-02-1.79668E-04-1.10830E-13
 -1       900 1.87589E-03 2.78806E-04-4.35956E-15
 -1       901 2.74116E-03 3.06640E-04-8.82253E-15
 -1       902 3.31731E-03 3.11459E-04-1.26233E-14
 -1       903 1.02451E-02-9.70764E-05-1.07383E-13
 -1       904 2.16418E-03 2.92129E-04-5.67947E-15
 -1       905 3.60492E-03 3.11903E-04-1.47655E-14
 -1       906 1.38414E-03 9.99903E-05-2.70066E-15
 -1       907 1.38097E-03 3.39725E-05-2.73875E-15
 -1       908 1.38387E-03-9.71064E-05-2.76239E-15
 -1       909 1.00668E-02 2.32628E-05-1.06903E-13
 -1       910 1.01798E-02 1.55851E-04-1.08920E-13
 -1       911 1.38491E-03-2.09734E-04-2.68330E-15
 -1       912 2.35521E-03-1.89828E-04-7.06511E-15
 -1       913 1.58833E-03 2.59757E-04-3.21056E-15
 -1       914 1.39070E-03 1.67494E-04-2.64351E-15
 -1       915 2.64520E-03-1.94285E-04-8.71719E-15
 -1       916 2.93510E-03-1.96915E-04-1.05325E-14
 -1       917 3.22468E-03-1.98242E-04-1.25076E-14
 -1       918 3.51383E-03-1.98667E-04-1.46408E-14
 -1       919 3.80250E-03-1.98486E-04-1.69288E-14
 -1       920 4.09068E-03-1.97904E-04-1.93699E-14
 -1       921 4.37840E-03-1.97057E-04-2.19624E-14
 -1       922 4.66569E-03-1.96024E-04-2.47009E-14
 -1       923 4.95257E-03-1.94842E-04-2.75838E-14
 -1       924 5.23906E-03-1.93510E-04-3.06142E-14
 -1       925 5.52513E-03-1.92005E-04-3.37884E-14
 -1       926 5.81077E-03-1.90280E-04-3.71071E-14
 -1       927 6.09592E-03-1.88276E-04-4.05634E-14
 -1       928 6.38047E-03-1.85921E-04-4.41574E-14
 -1       929 6.66429E-03-1.83141E-04-4.78842E-14
 -1       930 6.94721E-03-1.79862E-04-5.17390E-14
 -1       931 7.22903E-03-1.76020E-04-5.57189E-14
 -1       932 7.50947E-03-1.71572E-04-5.98232E-14
 -1       933 7.78827E-03-1.66509E-04-6.40401E-14
 -1       934 8.06514E-03-1.60867E-04-6.83622E-14
 -1       935 8.33978E-03-1.54743E-04-7.27879E-14
 -1       936 8.61200E-03-1.48313E-04-7.73144E-14
 -1       937 8.88171E-03-1.41843E-04-8.19277E-14
 -1       938 9.14908E-03-1.35711E-04-8.66218E-14
 -1       939 9.41469E-03-1.30463E-04-9.13971E-14
 -1       940 9.67985E-03-1.26950E-04-9.62441E-14
 -1       941 9.94718E-03-1.26785E-04-1.01158E-13
 -1       942 4.03303E-03 2.35668E-04-1.84501E-14
 -1       943 5.18105E-03 2.31360E-04-2.95105E-14
 -1       944 4.89458E-03 2.32707E-04-2.65211E-14
 -1       945 5.75293E-03 2.28053E-04-3.59250E-14
 -1       946 6.03826E-03 2.25984E-04-3.93417E-14
 -1       947 6.32309E-03 2.23546E-04-4.28880E-14
 -1       948 6.60729E-03 2.20665E-04-4.65647E-14
 -1       949 6.89070E-03 2.17276E-04-5.03715E-14
 -1       950 7.17309E-03 2.13337E-04-5.43056E-14
 -1       951 7.45420E-03 2.08845E-04-5.83649E-14
 -1       952 7.73366E-03 2.03858E-04-6.25401E-14
 -1       953 8.01108E-03 1.98524E-04-6.68254E-14
 -1       954 8.28597E-03 1.93107E-04-7.12201E-14
 -1       955 8.55777E-03 1.88016E-04-7.57238E-14
 -1       956 8.82591E-03 1.83821E-04-8.03217E-14
 -1       957 9.08978E-03 1.81251E-04-8.50075E-14
 -1       958 9.34884E-03 1.81175E-04-8.97747E-14
 -1       959 9.60276E-03 1.84565E-04-9.46191E-14
 -1       960 9.85168E-03 1.92542E-04-9.95347E-14
 -1       961 1.00967E-02 2.06835E-04-1.04508E-13
 -1       962 1.03885E-02 2.58683E-04-1.09517E-13
 -1       963 9.98843E-03 9.92032E-05-1.05643E-13
 -1       964 1.38086E-03-3.12920E-05-2.75916E-15
 -1       965 1.77677E-03-1.72756E-04-4.26295E-15
 -1       966 5.46718E-03 2.29824E-04-3.26459E-14
 -1       967 2.06551E-03-1.82903E-04-5.57944E-15
 -1       968 2.45270E-03 3.01028E-04-7.16765E-15
 -1       969 1.02164E-02-1.59292E-04-1.05537E-13
 -1       970 1.63440E-03 1.45832E-04-3.58656E-15
 -1       971 2.87855E-03 2.33349E-04-9.85340E-15
 -1       972 1.62922E-03 7.31919E-05-3.64406E-15
 -1       973 4.32059E-03 2.34890E-04-2.09905E-14
 -1       974 4.60777E-03 2.33887E-04-2.36809E-14
 -1       975 1.01435E-02 1.80194E-04-1.06711E-13
 -1       976 9.91850E-03 5.73028E-05-1.03999E-13
 -1       977 1.00573E-02-4.46896E-05-1.04933E-13
 -1       978 3.74506E-03 2.36117E-04-1.60639E-14
 -1       979 2.01009E-03 2.15267E-04-5.10367E-15
 -1       980 1.77051E-03-9.72605E-05-4.27758E-15
 -1       981 3.16779E-03 2.35267E-04-1.17644E-14
 -1       982 1.93541E-03 1.24097E-04-4.90024E-15
 -1       983 2.58902E-03 2.29827E-04-8.10548E-15
 -1       984 5.03702E-03 1.57328E-04-2.81502E-14
 -1       985 2.78588E-03-1.20707E-04-9.61584E-15
 -1       986 3.07630E-03-1.21929E-04-1.15085E-14
 -1       987 3.36632E-03-1.22451E-04-1.35604E-14
 -1       988 3.65583E-03-1.22494E-04-1.57689E-14
 -1       989 3.94478E-03-1.22217E-04-1.81320E-14
 -1       990 4.23318E-03-1.21729E-04-2.06450E-14
 -1       991 4.52105E-03-1.21099E-04-2.33077E-14
 -1       992 4.80841E-03-1.20362E-04-2.61153E-14
 -1       993 5.09528E-03-1.19530E-04-2.90682E-14
 -1       994 5.38166E-03-1.18595E-04-3.21671E-14
 -1       995 5.66753E-03-1.17532E-04-3.54117E-14
 -1       996 5.95282E-03-1.16306E-04-3.87975E-14
 -1       997 6.23743E-03-1.14871E-04-4.23202E-14
 -1       998 6.52123E-03-1.13175E-04-4.59757E-14
 -1       999 6.80402E-03-1.11160E-04-4.97623E-14
 -1      1000 7.08557E-03-1.08771E-04-5.36758E-14
 -1      1001 7.36556E-03-1.05951E-04-5.77140E-14
 -1      1002 7.64365E-03-1.02653E-04-6.18724E-14
 -1      1003 7.91944E-03-9.88369E-05-6.61391E-14
 -1      1004 8.19249E-03-9.44784E-05-7.05113E-14
 -1      1005 8.46235E-03-8.95658E-05-7.49860E-14
 -1      1006 8.72857E-03-8.40992E-05-7.95557E-14
 -1      1007 8.99072E-03-7.80836E-05-8.42043E-14
 -1      1008 9.24849E-03-7.15267E-05-8.89389E-14
 -1      1009 9.50169E-03-6.44745E-05-9.37516E-14
 -1      1010 9.75044E-03-5.71508E-05-9.86312E-14
 -1      1011 6.46383E-03 1.50451E-04-4.48693E-14
 -1      1012 6.17973E-03 1.52292E-04-4.12553E-14
 -1      1013 5.89488E-03 1.53853E-04-3.77713E-14
 -1      1014 6.74702E-03 1.48288E-04-4.86127E-14
 -1      1015 7.02904E-03 1.45772E-04-5.24876E-14
 -1      1016 7.30960E-03 1.42898E-04-5.64872E-14
 -1      1017 7.58830E-03 1.39702E-04-6.06066E-14
 -1      1018 7.86468E-03 1.36279E-04-6.48411E-14
 -1      1019 8.13819E-03 1.32800E-04-6.91834E-14
 -1      1020 8.40816E-03 1.29533E-04-7.36339E-14
 -1      1021 8.67385E-03 1.26852E-04-7.81842E-14
 -1      1022 8.93435E-03 1.25229E-04-8.28214E-14
 -1      1023 9.18858E-03 1.25194E-04-8.75448E-14
 -1      1024 9.43524E-03 1.27271E-04-9.23485E-14
 -1      1025 9.67260E-03 1.31914E-04-9.72252E-14
 -1      1026 9.89846E-03 1.39611E-04-1.02170E-13
 -1      1027 3.45664E-03 2.36069E-04-1.38351E-14
 -1      1028 2.20489E-03-1.14917E-04-6.31578E-15
 -1      1029 1.62749E-03 1.53461E-06-3.68014E-15
 -1      1030 5.60943E-03 1.55184E-04-3.44217E-14
 -1      1031 5.32346E-03 1.56330E-04-3.12136E-14
 -1      1032 2.29941E-03 2.24063E-04-6.52122E-15
 -1      1033 1.98730E-03-1.06505E-04-5.24982E-15
 -1      1034 1.00064E-02-8.56107E-05-1.03044E-13
 -1      1035 2.49529E-03-1.18485E-04-7.88364E-15
 -1      1036 4.75013E-03 1.58202E-04-2.52342E-14
 -1      1037 2.22503E-03 1.30031E-04-6.29361E-15
 -1      1038 1.00011E-02 1.44551E-04-1.04529E-13
 -1      1039 4.46278E-03 1.58957E-04-2.24666E-14
 -1      1040 4.17496E-03 1.59572E-04-1.98468E-14
 -1      1041 9.86893E-03 2.58636E-06-1.02058E-13
 -1      1042 9.79676E-03 8.94186E-05-1.00867E-13
 -1      1043 3.88664E-03 1.59997E-04-1.73777E-14
 -1      1044 3.01856E-03 1.58861E-04-1.09064E-14
 -1      1045 2.72835E-03 1.56951E-04-9.06705E-15
 -1      1046 3.21960E-03-4.61611E-05-1.24942E-14
 -1      1047 3.50971E-03-4.62209E-05-1.46202E-14
 -1      1048 3.79923E-03-4.61330E-05-1.69036E-14
 -1      1049 4.08818E-03-4.59362E-05-1.93383E-14
 -1      1050 4.37652E-03-4.56758E-05-2.19239E-14
 -1      1051 4.66431E-03-4.53667E-05-2.46569E-14
 -1      1052 4.95155E-03-4.50186E-05-2.75343E-14
 -1      1053 5.23825E-03-4.46315E-05-3.05571E-14
 -1      1054 5.52441E-03-4.41978E-05-3.37254E-14
 -1      1055 5.80996E-03-4.37039E-05-3.70381E-14
 -1      1056 6.09483E-03-4.31304E-05-4.04917E-14
 -1      1057 6.37887E-03-4.24527E-05-4.40786E-14
 -1      1058 6.66190E-03-4.16405E-05-4.77938E-14
 -1      1059 6.94368E-03-4.06576E-05-5.16399E-14
 -1      1060 7.22390E-03-3.94600E-05-5.56146E-14
 -1      1061 7.50218E-03-3.79950E-05-5.97066E-14
 -1      1062 7.77806E-03-3.61974E-05-6.39142E-14
 -1      1063 8.05105E-03-3.39855E-05-6.82324E-14
 -1      1064 8.32054E-03-3.12557E-05-7.26567E-14
 -1      1065 8.58587E-03-2.78740E-05-7.71802E-14
 -1      1066 8.84630E-03-2.36667E-05-8.17860E-14
 -1      1067 9.10093E-03-1.84102E-05-8.64790E-14
 -1      1068 9.34863E-03-1.18236E-05-9.12520E-14
 -1      1069 9.58784E-03-3.70364E-06-9.60996E-14
 -1      1070 6.32103E-03 7.95516E-05-4.31755E-14
 -1      1071 6.60435E-03 7.85481E-05-4.68577E-14
 -1      1072 9.81410E-03-2.14069E-05-1.00491E-13
 -1      1073 6.03675E-03 8.04090E-05-3.96237E-14
 -1      1074 7.16716E-03 7.60768E-05-5.46129E-14
 -1      1075 7.44596E-03 7.46444E-05-5.86758E-14
 -1      1076 7.72243E-03 7.31578E-05-6.28555E-14
 -1      1077 7.99603E-03 7.17331E-05-6.71459E-14
 -1      1078 8.26608E-03 7.05500E-05-7.15466E-14
 -1      1079 8.53183E-03 6.98612E-05-7.60497E-14
 -1      1080 8.79234E-03 6.99964E-05-8.06381E-14
 -1      1081 9.04646E-03 7.13512E-05-8.53161E-14
 -1      1082 9.29265E-03 7.43537E-05-9.00779E-14
 -1      1083 9.52853E-03 7.92504E-05-9.49158E-14
 -1      1084 1.93160E-03 4.65703E-05-4.95892E-15
 -1      1085 2.92901E-03-4.58686E-05-1.05252E-14
 -1      1086 2.34731E-03-4.41828E-05-7.06832E-15
 -1      1087 2.47666E-03 1.43889E-04-7.62064E-15
 -1      1088 3.30842E-03 1.59823E-04-1.29061E-14
 -1      1089 5.46602E-03 8.17634E-05-3.29225E-14
 -1      1090 5.17976E-03 8.23021E-05-2.97860E-14
 -1      1091 5.75171E-03 8.11391E-05-3.62039E-14
 -1      1092 6.88650E-03 7.73880E-05-5.06711E-14
 -1      1093 2.63816E-03-4.52485E-05-8.71529E-15
 -1      1094 4.89297E-03 8.27703E-05-2.67964E-14
 -1      1095 1.95780E-03-2.95073E-05-5.11528E-15
 -1      1096 4.60566E-03 8.31751E-05-2.39521E-14
 -1      1097 3.16084E-03 8.34638E-05-1.19804E-14
 -1      1098 3.59778E-03 1.60126E-04-1.50634E-14
 -1      1099 4.31783E-03 8.35121E-05-2.12554E-14
 -1      1100 2.15233E-03-3.67894E-05-6.05447E-15
 -1      1101 4.02944E-03 8.37589E-05-1.87060E-14
 -1      1102 9.71879E-03 3.64929E-05-9.91922E-14
 -1      1103 2.87029E-03 8.26797E-05-1.00529E-14
 -1      1104 3.45094E-03 8.38191E-05-1.40657E-14
 -1      1105 3.65446E-03 3.01806E-05-1.56873E-14
 -1      1106 2.25198E-03 3.84166E-05-6.52667E-15
 -1      1107 2.78341E-03 2.95042E-05-9.55911E-15
 -1      1108 2.57952E-03 8.12736E-05-8.28658E-15
 -1      1109 0.00000E+00 0.00000E+00 0.00000E+00
 -1      1110 0.00000E+00 0.00000E+00 0.00000E+00
 -1      1111 0.00000E+00 0.00000E+00 0.00000E+00
 -1      1112 0.00000E+00 0.00000E+00 0.00000E+00
 -1      1113 0.00000E+00 0.00000E+00 0.00000E+00
 -1      1114 0.00000E+00 0.00000E+00 0.00000E+00
 -1      1115 0.00000E+00 0.00000E+00 0.00000E+00
 -1      1116 0.00000E+00 0.00000E+00 0.00000E+00
 -1      1117 0.00000E+00 0.00000E+00 0.00000E+00
 -1      1118 0.00000E+00 0.00000E+00 0.00000E+00
 -1      1119 0.00000E+00 0.00000E+00 0.00000E+00
 -1      1120 0.00000E+00 0.00000E+00 0.00000E+00
 -1      1121 0.00000E+00 0.00000E+00 0.00000E+00
 -1      1122 0.00000E+00 0.00000E+00 0.00000E+00
 -1      1123 0.00000E+00 0.00000E+00 0.00000E+00
 -1      1124 0.00000E+00 0.00000E+00 0.00000E+00
 -1      1125 0.00000E+00 0.00000E+00 0.00000E+00
 -1      1126 2.11679E-04-1.48333E-04 2.32968E-17
 -1      1127 5.51677E-04-3.37509E-04-5.77067E-17
 -1      1128 8.33535E-04-4.58998E-04-3.24908E-16
 -1      1129 1.10316E-03-5.40687E-04-8.08666E-16
 -1      1130 1.36862E-03-5.97952E-04-1.49722E-15
 -1      1131 1.63349E-03-6.38690E-04-2.38428E-15
 -1      1132 1.89962E-03-6.67552E-04-3.46645E-15
 -1      1133 2.16786E-03-6.87661E-04-4.73749E-15
 -1      1134 2.43849E-03-7.01309E-04-6.19391E-15
 -1      1135 2.71151E-03-7.10224E-04-7.83392E-15
 -1      1136 2.98675E-03-7.15718E-04-9.65201E-15
 -1      1137 3.26397E-03-7.18778E-04-1.16398E-14
 -1      1138 3.54289E-03-7.20138E-04-1.37905E-14
 -1      1139 3.82323E-03-7.20330E-04-1.61021E-14
 -1      1140 4.10472E-03-7.19728E-04-1.85696E-14
 -1      1141 4.38715E-03-7.18581E-04-2.11911E-14
 -1      1142 4.67032E-03-7.17043E-04-2.39624E-14
 -1      1143 4.95407E-03-7.15191E-04-2.68796E-14
 -1      1144 5.23829E-03-7.13046E-04-2.99391E-14
 -1      1145 5.52294E-03-7.10584E-04-3.31428E-14
 -1      1146 5.80799E-03-7.07750E-04-3.64855E-14
 -1      1147 6.09350E-03-7.04469E-04-3.99692E-14
 -1      1148 6.37958E-03-7.00659E-04-4.35919E-14
 -1      1149 6.66643E-03-6.96247E-04-4.73544E-14
 -1      1150 6.95433E-03-6.91186E-04-5.12525E-14
 -1      1151 7.24367E-03-6.85487E-04-5.52767E-14
 -1      1152 7.53497E-03-6.79251E-04-5.94169E-14
 -1      1153 7.82885E-03-6.72722E-04-6.36724E-14
 -1      1154 8.12612E-03-6.66354E-04-6.80431E-14
 -1      1155 8.42766E-03-6.60893E-04-7.25155E-14
 -1      1156 8.73447E-03-6.57481E-04-7.70782E-14
 -1      1157 9.04750E-03-6.57770E-04-8.17271E-14
 -1      1158 9.36752E-03-6.64022E-04-8.64596E-14
 -1      1159 9.69482E-03-6.79153E-04-9.12752E-14
 -1      1160 1.00288E-02-7.06620E-04-9.61715E-14
 -1      1161 1.03674E-02-7.50013E-04-1.01138E-13
 -1      1162 1.07066E-02-8.12128E-04-1.06167E-13
 -1      1163 1.10400E-02-8.93400E-04-1.11252E-13
 -1      1164 1.13595E-02-9.89775E-04-1.16389E-13
 -1      1165 1.16566E-02-1.09080E-03-1.21580E-13
 -1      1166 1.19256E-02-1.17943E-03-1.26834E-13
 -1      1167 1.21667E-02-1.23502E-03-1.32148E-13
 -1      1168 1.23874E-02-1.23964E-03-1.37530E-13
 -1      1169 1.26009E-02-1.18467E-03-1.42966E-13
 -1      1170 1.28202E-02-1.07361E-03-1.48435E-13
 -1      1171 1.30539E-02-9.19164E-04-1.53931E-13
 -1      1172 1.33043E-02-7.36788E-04-1.59456E-13
 -1      1173 1.35692E-02-5.39397E-04-1.64990E-13
 -1      1174 1.38449E-02-3.36065E-04-1.70538E-13
 -1      1175 1.41210E-02-1.38742E-04-1.75973E-13
 -1      1176 2.28438E-04 1.60711E-04 4.34087E-17
 -1      1177 5.53850E-04 3.42141E-04 5.01444E-18
 -1      1178 8.34465E-04 4.61168E-04-2.06473E-16
 -1      1179 1.10405E-03 5.42375E-04-6.13658E-16
 -1      1180 1.36952E-03 5.99634E-04-1.21409E-15
 -1      1181 1.63445E-03 6.40460E-04-2.00553E-15
 -1      1182 1.90063E-03 6.69427E-04-2.98704E-15
 -1      1183 2.16890E-03 6.89656E-04-4.15432E-15
 -1      1184 2.43956E-03 7.03431E-04-5.50283E-15
 -1      1185 2.71260E-03 7.12479E-04-7.02686E-15
 -1      1186 2.98785E-03 7.18109E-04-8.72796E-15
 -1      1187 3.26508E-03 7.21306E-04-1.06050E-14
 -1      1188 3.54400E-03 7.22803E-04-1.26554E-14
 -1      1189 3.82434E-03 7.23133E-04-1.48739E-14
 -1      1190 4.10584E-03 7.22668E-04-1.72601E-14
 -1      1191 4.38827E-03 7.21658E-04-1.98118E-14
 -1      1192 4.67143E-03 7.20256E-04-2.25253E-14
 -1      1193 4.95517E-03 7.18538E-04-2.53892E-14
 -1      1194 5.23939E-03 7.16523E-04-2.84034E-14
 -1      1195 5.52402E-03 7.14186E-04-3.15712E-14
 -1      1196 5.80904E-03 7.11465E-04-3.48878E-14
 -1      1197 6.09452E-03 7.08280E-04-3.83376E-14
 -1      1198 6.38057E-03 7.04536E-04-4.19213E-14
 -1      1199 6.66738E-03 7.00141E-04-4.56373E-14
 -1      1200 6.95525E-03 6.95025E-04-4.94760E-14
 -1      1201 7.24460E-03 6.89159E-04-5.34382E-14
 -1      1202 7.53598E-03 6.82594E-04-5.75228E-14
 -1      1203 7.83013E-03 6.75508E-04-6.17303E-14
 -1      1204 8.12798E-03 6.68280E-04-6.60549E-14
 -1      1205 8.43069E-03 6.61580E-04-7.04919E-14
 -1      1206 8.73964E-03 6.56512E-04-7.50375E-14
 -1      1207 9.05641E-03 6.54787E-04-7.96835E-14
 -1      1208 9.38266E-03 6.58950E-04-8.44190E-14
 -1      1209 9.71984E-03 6.72628E-04-8.92236E-14
 -1      1210 1.00688E-02 7.00713E-04-9.40979E-14
 -1      1211 1.04289E-02 7.49298E-04-9.90477E-14
 -1      1212 1.07969E-02 8.24954E-04-1.04067E-13
 -1      1213 1.11659E-02 9.32767E-04-1.09155E-13
 -1      1214 1.15243E-02 1.07264E-03-1.14300E-13
 -1      1215 1.18576E-02 1.23432E-03-1.19508E-13
 -1      1216 1.21528E-02 1.39397E-03-1.24778E-13
 -1      1217 1.24057E-02 1.51688E-03-1.30106E-13
 -1      1218 1.26266E-02 1.56971E-03-1.35489E-13
 -1      1219 1.28370E-02 1.53634E-03-1.40924E-13
 -1      1220 1.30590E-02 1.42500E-03-1.46395E-13
 -1      1221 1.33041E-02 1.26121E-03-1.51910E-13
 -1      1222 1.35703E-02 1.07183E-03-1.57472E-13
 -1      1223 1.38486E-02 8.73091E-04-1.63065E-13
 -1      1224 1.41309E-02 6.69707E-04-1.68674E-13
 -1      1225 1.44076E-02 4.67522E-04-1.74144E-13
 -1      1226 1.46450E-02 3.26237E-04-1.76888E-13
 -1      1227 1.48508E-02 2.40894E-04-1.77089E-13
 -1      1228 1.50666E-02 1.57752E-04-1.77272E-13
 -1      1229 1.52987E-02 8.70973E-05-1.77421E-13
 -1      1230 1.55424E-02 4.51596E-05-1.77558E-13
 -1      1231 1.57738E-02 4.82316E-05-1.77681E-13
 -1      1232 1.59576E-02 1.03038E-04-1.77829E-13
 -1      1233 1.60518E-02 1.99902E-04-1.77975E-13
 -1      1234 1.60278E-02 3.09158E-04-1.78092E-13
 -1      1235 1.58904E-02 3.94906E-04-1.78184E-13
 -1      1236 1.56735E-02 4.31724E-04-1.78259E-13
 -1      1237 1.54241E-02 4.14477E-04-1.78337E-13
 -1      1238 1.51761E-02 3.54611E-04-1.78410E-13
 -1      1239 1.49457E-02 2.69051E-04-1.78474E-13
 -1      1240 1.47372E-02 1.74945E-04-1.78507E-13
 -1      1241 1.45427E-02 8.32307E-05-1.78550E-13
 -1      1242 1.43523E-02-2.41545E-06-1.78604E-13
 -1      1243 1.52350E-02 3.00558E-04-1.49171E-13
 -1      1244 1.50933E-02 4.89380E-04-1.48501E-13
 -1      1245 1.48005E-02 6.91719E-04-1.47164E-13
 -1      1246 1.44200E-02 8.79150E-04-1.45373E-13
 -1      1247 1.39946E-02 1.03818E-03-1.43278E-13
 -1      1248 1.35176E-02 1.16215E-03-1.40811E-13
 -1      1249 1.30186E-02 1.22737E-03-1.38119E-13
 -1      1250 1.25341E-02 1.22129E-03-1.35445E-13
 -1      1251 1.20503E-02 1.14212E-03-1.32777E-13
 -1      1252 1.15911E-02 1.00744E-03-1.30306E-13
 -1      1253 1.11863E-02 8.41288E-04-1.28221E-13
 -1      1254 1.08281E-02 6.54052E-04-1.26466E-13
 -1      1255 1.05558E-02 4.69339E-04-1.25207E-13
 -1      1256 1.03881E-02 2.97889E-04-1.24484E-13
 -1      1257 1.03295E-02 1.27407E-04-1.24273E-13
 -1      1258 1.03927E-02-4.48206E-05-1.24641E-13
 -1      1259 1.05729E-02-2.16146E-04-1.25577E-13
 -1      1260 1.08506E-02-3.86431E-04-1.27008E-13
 -1      1261 1.12002E-02-5.47584E-04-1.28843E-13
 -1      1262 1.16080E-02-6.89831E-04-1.31060E-13
 -1      1263 1.20601E-02-7.96131E-04-1.33581E-13
 -1      1264 1.25340E-02-8.46305E-04-1.36245E-13
 -1      1265 1.30200E-02-8.30501E-04-1.38946E-13
 -1      1266 1.35071E-02-7.50561E-04-1.41558E-13
 -1      1267 1.39868E-02-6.15587E-04-1.43978E-13
 -1      1268 1.44337E-02-4.41724E-04-1.46059E-13
 -1      1269 1.48031E-02-2.57867E-04-1.47625E-13
 -1      1270 1.50720E-02-7.46066E-05-1.48665E-13
 -1      1271 1.52260E-02 1.13995E-04-1.49221E-13
 -1      1272 1.66712E-04-1.10340E-04-7.33192E-18
 -1      1273 1.12549E-04-5.69688E-05-4.30970E-17
 -1      1274 1.17632E-04-6.75783E-05-3.31495E-17
 -1      1275 1.08426E-04-4.34830E-05-5.95227E-17
 -1      1276 1.10292E-04-4.95986E-05-5.46031E-17
 -1      1277 2.26346E-04-1.07613E-04-1.28166E-16
 -1      1278 1.06842E-04-3.36049E-05-6.82776E-17
 -1      1279 1.07689E-04-3.83266E-05-6.57975E-17
 -1      1280 2.19111E-04-8.24442E-05-1.57304E-16
 -1      1281 1.06061E-04-2.53445E-05-7.33869E-17
 -1      1282 1.06493E-04-2.93771E-05-7.21808E-17
 -1      1283 2.15869E-04-6.32647E-05-1.74042E-16
 -1      1284 1.05655E-04-1.80859E-05-7.60026E-17
 -1      1285 1.05886E-04-2.16528E-05-7.55282E-17
 -1      1286 2.14204E-04-4.71754E-05-1.83637E-16
 -1      1287 1.05433E-04-1.12358E-05-7.73578E-17
 -1      1288 1.05557E-04-1.46200E-05-7.72223E-17
 -1      1289 2.13283E-04-3.27446E-05-1.88705E-16
 -1      1290 1.05332E-04-4.68776E-06-7.76018E-17
 -1      1291 1.05385E-04-7.94017E-06-7.76289E-17
 -1      1292 2.12784E-04-1.91850E-05-1.90765E-16
 -1      1293 1.05321E-04 1.74236E-06-7.71274E-17
 -1      1294 1.05319E-04-1.47018E-06-7.73307E-17
 -1      1295 2.12568E-04-6.15885E-06-1.90806E-16
 -1      1296 1.05394E-04 8.22220E-06-7.57722E-17
 -1      1297 1.05337E-04 4.96324E-06-7.61923E-17
 -1      1298 2.12576E-04 6.70645E-06-1.88814E-16
 -1      1299 1.05573E-04 1.49277E-05-7.36444E-17
 -1      1300 1.05444E-04 1.15285E-05-7.42678E-17
 -1      1301 2.12809E-04 1.97587E-05-1.84911E-16
 -1      1302 1.05908E-04 2.19452E-05-7.02699E-17
 -1      1303 1.05672E-04 1.83545E-05-7.12863E-17
 -1      1304 2.13324E-04 3.32580E-05-1.78893E-16
 -1      1305 1.06535E-04 2.98112E-05-6.49844E-17
 -1      1306 1.06095E-04 2.57346E-05-6.67869E-17
 -1      1307 2.14270E-04 4.77837E-05-1.69718E-16
 -1      1308 1.07729E-04 3.89102E-05-5.68935E-17
 -1      1309 1.06876E-04 3.41164E-05-6.00648E-17
 -1      1310 2.15980E-04 6.41956E-05-1.56084E-16
 -1      1311 1.10271E-04 5.03383E-05-4.33410E-17
 -1      1312 1.08432E-04 4.41539E-05-4.91144E-17
 -1      1313 2.19213E-04 8.36942E-05-1.34902E-16
 -1      1314 1.16947E-04 6.76138E-05-2.14401E-17
 -1      1315 1.12195E-04 5.77679E-05-3.20517E-17
 -1      1316 2.26333E-04 1.09432E-04-1.02322E-16
 -1      1317 1.57591E-04 1.09857E-04 1.30104E-17
 -1      1318 1.35673E-04 8.60865E-05-8.60585E-18
 -1      1319 2.56060E-04 1.52083E-04-6.32225E-17
 -1      1320 3.35110E-04 2.20732E-04-6.45100E-18
 -1      1321 4.21573E-04-2.61730E-04-8.10983E-17
 -1      1322 5.74685E-04-3.36786E-04-1.70843E-16
 -1      1323 7.21891E-04-3.97386E-04-3.17468E-16
 -1      1324 8.65077E-04-4.46681E-04-5.15877E-16
 -1      1325 6.12126E-04-3.30874E-04-3.00853E-16
 -1      1326 1.00512E-03-4.87756E-04-7.63902E-16
 -1      1327 1.14299E-03-5.21750E-04-1.06318E-15
 -1      1328 9.05393E-04-4.31571E-04-7.12592E-16
 -1      1329 1.27950E-03-5.50531E-04-1.41193E-15
 -1      1330 1.41517E-03-5.74578E-04-1.81054E-15
 -1      1331 1.18786E-03-5.01003E-04-1.32241E-15
 -1      1332 1.55044E-03-5.94955E-04-2.25761E-15
 -1      1333 1.68556E-03-6.11998E-04-2.75310E-15
 -1      1334 1.46483E-03-5.49795E-04-2.12777E-15
 -1      1335 1.82077E-03-6.26335E-04-3.29656E-15
 -1      1336 1.95619E-03-6.38258E-04-3.88734E-15
 -1      1337 1.73956E-03-5.84130E-04-3.12505E-15
 -1      1338 2.09193E-03-6.48172E-04-4.52463E-15
 -1      1339 2.22805E-03-6.56325E-04-5.20788E-15
 -1      1340 2.01392E-03-6.07992E-04-4.31065E-15
 -1      1341 2.36459E-03-6.62994E-04-5.93721E-15
 -1      1342 2.50156E-03-6.68383E-04-6.71249E-15
 -1      1343 2.28889E-03-6.24199E-04-5.68031E-15
 -1      1344 2.63898E-03-6.72689E-04-7.53308E-15
 -1      1345 2.77684E-03-6.76077E-04-8.39731E-15
 -1      1346 2.56494E-03-6.34829E-04-7.23178E-15
 -1      1347 2.91513E-03-6.78685E-04-9.30483E-15
 -1      1348 3.05383E-03-6.80645E-04-1.02562E-14
 -1      1349 2.84226E-03-6.41437E-04-8.96027E-15
 -1      1350 3.19293E-03-6.82054E-04-1.12488E-14
 -1      1351 3.33239E-03-6.83012E-04-1.22831E-14
 -1      1352 3.12088E-03-6.45190E-04-1.08600E-14
 -1      1353 3.47220E-03-6.83590E-04-1.33577E-14
 -1      1354 3.61232E-03-6.83861E-04-1.44721E-14
 -1      1355 3.40070E-03-6.46956E-04-1.29259E-14
 -1      1356 3.75274E-03-6.83872E-04-1.56273E-14
 -1      1357 3.89342E-03-6.83678E-04-1.68215E-14
 -1      1358 3.68162E-03-6.47364E-04-1.51543E-14
 -1      1359 4.03434E-03-6.83308E-04-1.80540E-14
 -1      1360 4.17549E-03-6.82801E-04-1.93248E-14
 -1      1361 3.96347E-03-6.46860E-04-1.75397E-14
 -1      1362 4.31683E-03-6.82173E-04-2.06339E-14
 -1      1363 4.45835E-03-6.81450E-04-2.19810E-14
 -1      1364 4.24611E-03-6.45749E-04-2.00790E-14
 -1      1365 4.60002E-03-6.80637E-04-2.33650E-14
 -1      1366 4.74185E-03-6.79752E-04-2.47856E-14
 -1      1367 4.52942E-03-6.44222E-04-2.27695E-14
 -1      1368 4.88380E-03-6.78791E-04-2.62429E-14
 -1      1369 5.02588E-03-6.77764E-04-2.77353E-14
 -1      1370 4.81328E-03-6.42382E-04-2.56081E-14
 -1      1371 5.16807E-03-6.76663E-04-2.92636E-14
 -1      1372 5.31036E-03-6.75489E-04-3.08283E-14
 -1      1373 5.09761E-03-6.40268E-04-2.85907E-14
 -1      1374 5.45276E-03-6.74232E-04-3.24278E-14
 -1      1375 5.59526E-03-6.72888E-04-3.40632E-14
 -1      1376 5.38235E-03-6.37866E-04-3.17159E-14
 -1      1377 5.73787E-03-6.71443E-04-3.57331E-14
 -1      1378 5.88059E-03-6.69894E-04-3.74383E-14
 -1      1379 5.66751E-03-6.35122E-04-3.49823E-14
 -1      1380 6.02344E-03-6.68220E-04-3.91783E-14
 -1      1381 6.16642E-03-6.66419E-04-4.09534E-14
 -1      1382 5.95310E-03-6.31958E-04-3.83898E-14
 -1      1383 6.30956E-03-6.64471E-04-4.27640E-14
 -1      1384 6.45288E-03-6.62375E-04-4.46092E-14
 -1      1385 6.23920E-03-6.28278E-04-4.19381E-14
 -1      1386 6.59640E-03-6.60110E-04-4.64883E-14
 -1      1387 6.74016E-03-6.57681E-04-4.84020E-14
 -1      1388 6.52595E-03-6.23984E-04-4.56249E-14
 -1      1389 6.88420E-03-6.55070E-04-5.03480E-14
 -1      1390 7.02856E-03-6.52291E-04-5.23282E-14
 -1      1391 6.81356E-03-6.18994E-04-4.94487E-14
 -1      1392 7.17330E-03-6.49330E-04-5.43381E-14
 -1      1393 7.31845E-03-6.46218E-04-5.63766E-14
 -1      1394 7.10229E-03-6.13261E-04-5.34014E-14
 -1      1395 7.46411E-03-6.42952E-04-5.84458E-14
 -1      1396 7.61032E-03-6.39581E-04-6.05428E-14
 -1      1397 7.39250E-03-6.06809E-04-5.74765E-14
 -1      1398 7.75718E-03-6.36121E-04-6.26683E-14
 -1      1399 7.90477E-03-6.32651E-04-6.48234E-14
 -1      1400 7.68463E-03-5.99775E-04-6.16675E-14
 -1      1401 8.05317E-03-6.29216E-04-6.70056E-14
 -1      1402 8.20248E-03-6.25932E-04-6.92147E-14
 -1      1403 7.97923E-03-5.92468E-04-6.59719E-14
 -1      1404 8.35280E-03-6.22888E-04-7.14484E-14
 -1      1405 8.50424E-03-6.20247E-04-7.37050E-14
 -1      1406 8.27689E-03-5.85451E-04-7.03829E-14
 -1      1407 8.65690E-03-6.18161E-04-7.59854E-14
 -1      1408 8.81087E-03-6.16852E-04-7.82866E-14
 -1      1409 8.57829E-03-5.79635E-04-7.48937E-14
 -1      1410 8.96625E-03-6.16556E-04-8.06098E-14
 -1      1411 9.12309E-03-6.17557E-04-8.29540E-14
 -1      1412 8.88410E-03-5.76408E-04-7.94941E-14
 -1      1413 9.28147E-03-6.20201E-04-8.53183E-14
 -1      1414 9.44139E-03-6.24830E-04-8.77024E-14
 -1      1415 9.19486E-03-5.77752E-04-8.41778E-14
 -1      1416 9.60284E-03-6.31912E-04-9.01076E-14
 -1      1417 9.76574E-03-6.41827E-04-9.25343E-14
 -1      1418 9.51091E-03-5.86350E-04-8.89434E-14
 -1      1419 9.92995E-03-6.55150E-04-9.49785E-14
 -1      1420 1.00953E-02-6.72241E-04-9.74395E-14
 -1      1421 9.83211E-03-6.05595E-04-9.37882E-14
 -1      1422 1.02614E-02-6.93709E-04-9.99191E-14
 -1      1423 1.04278E-02-7.19792E-04-1.02416E-13
 -1      1424 1.01576E-02-6.39378E-04-9.87064E-14
 -1      1425 1.05941E-02-7.50958E-04-1.04927E-13
 -1      1426 1.07597E-02-7.87142E-04-1.07453E-13
 -1      1427 1.04855E-02-6.91468E-04-1.03691E-13
 -1      1428 1.09237E-02-8.28390E-04-1.09992E-13
 -1      1429 1.10855E-02-8.74101E-04-1.12547E-13
 -1      1430 1.08126E-02-7.64239E-04-1.08738E-13
 -1      1431 1.12442E-02-9.23537E-04-1.15115E-13
 -1      1432 1.13989E-02-9.75323E-04-1.17693E-13
 -1      1433 1.11346E-02-8.56667E-04-1.13840E-13
 -1      1434 1.15489E-02-1.02768E-03-1.20289E-13
 -1      1435 1.16938E-02-1.07844E-03-1.22901E-13
 -1      1436 1.14464E-02-9.61888E-04-1.18999E-13
 -1      1437 1.18331E-02-1.12489E-03-1.25524E-13
 -1      1438 1.19669E-02-1.16442E-03-1.28165E-13
 -1      1439 1.17432E-02-1.06553E-03-1.24216E-13
 -1      1440 1.20956E-02-1.19409E-03-1.30823E-13
 -1      1441 1.22198E-02-1.21162E-03-1.33495E-13
 -1      1442 1.20229E-02-1.14676E-03-1.29497E-13
 -1      1443 1.23406E-02-1.21496E-03-1.36181E-13
 -1      1444 1.24591E-02-1.20301E-03-1.38884E-13
 -1      1445 1.22872E-02-1.18347E-03-1.34838E-13
 -1      1446 1.25767E-02-1.17547E-03-1.41598E-13
 -1      1447 1.26947E-02-1.13277E-03-1.44321E-13
 -1      1448 1.25422E-02-1.16028E-03-1.40234E-13
 -1      1449 1.28140E-02-1.07631E-03-1.47051E-13
 -1      1450 1.29355E-02-1.00771E-03-1.49793E-13
 -1      1451 1.27958E-02-1.07458E-03-1.45675E-13
 -1      1452 1.30597E-02-9.29214E-04-1.52543E-13
 -1      1453 1.31869E-02-8.42779E-04-1.55294E-13
 -1      1454 1.30545E-02-9.36482E-04-1.51152E-13
 -1      1455 1.33170E-02-7.50446E-04-1.58056E-13
 -1      1456 1.34497E-02-6.53854E-04-1.60822E-13
 -1      1457 1.33211E-02-7.62598E-04-1.56660E-13
 -1      1458 1.35849E-02-5.54330E-04-1.63590E-13
 -1      1459 1.37221E-02-4.52993E-04-1.66358E-13
 -1      1460 1.35950E-02-5.68619E-04-1.62188E-13
 -1      1461 1.38609E-02-3.50635E-04-1.69134E-13
 -1      1462 1.40013E-02-2.48304E-04-1.71916E-13
 -1      1463 1.38740E-02-3.65418E-04-1.67730E-13
 -1      1464 1.42168E-02-9.71582E-05-1.75951E-13
 -1      1465 1.42304E-02-1.10161E-04-1.74540E-13
 -1      1466 6.43135E-04 3.72000E-04-1.31907E-16
 -1      1467 4.92993E-04 3.03680E-04-4.47233E-17
 -1      1468 4.44921E-04 2.65881E-04-8.67768E-17
 -1      1469 9.28757E-04 4.71964E-04-4.50608E-16
 -1      1470 7.87875E-04 4.26472E-04-2.67364E-16
 -1      1471 7.44812E-04 3.90698E-04-3.18200E-16
 -1      1472 1.20369E-03 5.41393E-04-9.59343E-16
 -1      1473 1.06700E-03 5.09708E-04-6.80865E-16
 -1      1474 1.03089E-03 4.76141E-04-7.38735E-16
 -1      1475 1.47428E-03 5.90609E-04-1.65825E-15
 -1      1476 1.33921E-03 5.68139E-04-1.28497E-15
 -1      1477 1.30885E-03 5.35978E-04-1.34689E-15
 -1      1478 1.74386E-03 6.25535E-04-2.54567E-15
 -1      1479 1.60903E-03 6.09617E-04-2.07824E-15
 -1      1480 1.58312E-03 5.78289E-04-2.14246E-15
 -1      1481 2.01413E-03 6.50041E-04-3.62022E-15
 -1      1482 1.87883E-03 6.38917E-04-3.05958E-15
 -1      1483 1.85633E-03 6.08052E-04-3.12420E-15
 -1      1484 2.28587E-03 6.66878E-04-4.87712E-15
 -1      1485 2.14977E-03 6.59287E-04-4.22615E-15
 -1      1486 2.12989E-03 6.28654E-04-4.28981E-15
 -1      1487 2.55941E-03 6.78093E-04-6.31206E-15
 -1      1488 2.42240E-03 6.73087E-04-5.57265E-15
 -1      1489 2.40450E-03 6.42548E-04-5.63526E-15
 -1      1490 2.83480E-03 6.85228E-04-7.92334E-15
 -1      1491 2.69688E-03 6.82093E-04-7.09597E-15
 -1      1492 2.68047E-03 6.51563E-04-7.15679E-15
 -1      1493 3.11195E-03 6.89449E-04-9.70932E-15
 -1      1494 2.97316E-03 6.87645E-04-8.79430E-15
 -1      1495 2.95787E-03 6.57076E-04-8.85299E-15
 -1      1496 3.39067E-03 6.91624E-04-1.16678E-14
 -1      1497 3.25112E-03 6.90749E-04-1.06668E-14
 -1      1498 3.23665E-03 6.60117E-04-1.07218E-14
 -1      1499 3.67075E-03 6.92389E-04-1.37982E-14
 -1      1500 3.53055E-03 6.92152E-04-1.27120E-14
 -1      1501 3.51667E-03 6.61446E-04-1.27618E-14
 -1      1502 3.95199E-03 6.92199E-04-1.60943E-14
 -1      1503 3.81124E-03 6.92392E-04-1.49253E-14
 -1      1504 3.79779E-03 6.61613E-04-1.49696E-14
 -1      1505 4.23418E-03 6.91365E-04-1.85565E-14
 -1      1506 4.09298E-03 6.91848E-04-1.73044E-14
 -1      1507 4.07983E-03 6.61002E-04-1.73428E-14
 -1      1508 4.51714E-03 6.90085E-04-2.11811E-14
 -1      1509 4.37557E-03 6.90772E-04-1.98492E-14
 -1      1510 4.36265E-03 6.59867E-04-1.98794E-14
 -1      1511 4.80072E-03 6.88471E-04-2.39634E-14
 -1      1512 4.65886E-03 6.89315E-04-2.25534E-14
 -1      1513 4.64611E-03 6.58361E-04-2.25761E-14
 -1      1514 5.08481E-03 6.86568E-04-2.68957E-14
 -1      1515 4.94271E-03 6.87555E-04-2.54111E-14
 -1      1516 4.93010E-03 6.56561E-04-2.54262E-14
 -1      1517 5.36935E-03 6.84368E-04-2.99793E-14
 -1      1518 5.22703E-03 6.85507E-04-2.84189E-14
 -1      1519 5.21453E-03 6.54480E-04-2.84278E-14
 -1      1520 5.65429E-03 6.81821E-04-3.32140E-14
 -1      1521 5.51177E-03 6.83141E-04-3.15778E-14
 -1      1522 5.49939E-03 6.52087E-04-3.15791E-14
 -1      1523 5.93967E-03 6.78852E-04-3.65893E-14
 -1      1524 5.79692E-03 6.80393E-04-3.48841E-14
 -1      1525 5.78465E-03 6.49314E-04-3.48765E-14
 -1      1526 6.22557E-03 6.75364E-04-4.00993E-14
 -1      1527 6.08255E-03 6.77176E-04-3.83274E-14
 -1      1528 6.07039E-03 6.46068E-04-3.83120E-14
 -1      1529 6.51213E-03 6.71254E-04-4.37416E-14
 -1      1530 6.36875E-03 6.73389E-04-4.19045E-14
 -1      1531 6.35670E-03 6.42241E-04-4.18824E-14
 -1      1532 6.79958E-03 6.66428E-04-4.75134E-14
 -1      1533 6.65573E-03 6.68930E-04-4.56126E-14
 -1      1534 6.64375E-03 6.37724E-04-4.55826E-14
 -1      1535 7.08825E-03 6.60818E-04-5.14069E-14
 -1      1536 6.94374E-03 6.63714E-04-4.94441E-14
 -1      1537 6.93180E-03 6.32421E-04-4.94073E-14
 -1      1538 7.37859E-03 6.54412E-04-5.54230E-14
 -1      1539 7.23319E-03 6.57699E-04-5.33987E-14
 -1      1540 7.22119E-03 6.26275E-04-5.33552E-14
 -1      1541 7.67118E-03 6.47295E-04-5.95609E-14
 -1      1542 7.52457E-03 6.50915E-04-5.74780E-14
 -1      1543 7.51238E-03 6.19297E-04-5.74269E-14
 -1      1544 7.96676E-03 6.39706E-04-6.38213E-14
 -1      1545 7.81855E-03 6.43515E-04-6.16762E-14
 -1      1546 7.80596E-03 6.11618E-04-6.16190E-14
 -1      1547 8.26625E-03 6.32120E-04-6.81954E-14
 -1      1548 8.11595E-03 6.35843E-04-6.59944E-14
 -1      1549 8.10264E-03 6.03554E-04-6.59285E-14
 -1      1550 8.57076E-03 6.25363E-04-7.26776E-14
 -1      1551 8.41781E-03 6.28535E-04-7.04229E-14
 -1      1552 8.40332E-03 5.95703E-04-7.03505E-14
 -1      1553 8.88157E-03 6.20767E-04-7.72688E-14
 -1      1554 8.72529E-03 6.22647E-04-7.49600E-14
 -1      1555 8.70899E-03 5.89084E-04-7.48796E-14
 -1      1556 9.20002E-03 6.20382E-04-8.19513E-14
 -1      1557 9.03975E-03 6.19846E-04-7.95987E-14
 -1      1558 9.02079E-03 5.85315E-04-7.95105E-14
 -1      1559 9.52743E-03 6.27223E-04-8.67164E-14
 -1      1560 9.36252E-03 6.22635E-04-8.43244E-14
 -1      1561 9.33983E-03 5.86855E-04-8.42289E-14
 -1      1562 9.86469E-03 6.45525E-04-9.15526E-14
 -1      1563 9.69477E-03 6.34616E-04-8.91261E-14
 -1      1564 9.66706E-03 5.97275E-04-8.90243E-14
 -1      1565 1.02119E-02 6.80878E-04-9.64599E-14
 -1      1566 1.00371E-02 6.60711E-04-9.39964E-14
 -1      1567 1.00030E-02 6.21499E-04-9.38917E-14
 -1      1568 1.05673E-02 7.39967E-04-1.01437E-13
 -1      1569 1.03887E-02 7.07135E-04-9.89407E-14
 -1      1570 1.03471E-02 6.65826E-04-9.88298E-14
 -1      1571 1.09270E-02 8.29408E-04-1.06486E-13
 -1      1572 1.07470E-02 7.80761E-04-1.03953E-13
 -1      1573 1.06974E-02 7.37361E-04-1.03837E-13
 -1      1574 1.12837E-02 9.53011E-04-1.11593E-13
 -1      1575 1.11064E-02 8.87231E-04-1.09032E-13
 -1      1576 1.10498E-02 8.42219E-04-1.08909E-13
 -1      1577 1.16273E-02 1.10718E-03-1.16763E-13
 -1      1578 1.14579E-02 1.02726E-03-1.14170E-13
 -1      1579 1.13977E-02 9.81876E-04-1.14037E-13
 -1      1580 1.19467E-02 1.27572E-03-1.21993E-13
 -1      1581 1.17907E-02 1.19146E-03-1.19370E-13
 -1      1582 1.17325E-02 1.14781E-03-1.19230E-13
 -1      1583 1.22347E-02 1.42807E-03-1.27285E-13
 -1      1584 1.20949E-02 1.35623E-03-1.24631E-13
 -1      1585 1.20458E-02 1.31689E-03-1.24484E-13
 -1      1586 1.24926E-02 1.52636E-03-1.32632E-13
 -1      1587 1.23669E-02 1.48589E-03-1.29951E-13
 -1      1588 1.23341E-02 1.45275E-03-1.29795E-13
 -1      1589 1.27324E-02 1.54187E-03-1.38036E-13
 -1      1590 1.26136E-02 1.54503E-03-1.35326E-13
 -1      1591 1.26016E-02 1.51798E-03-1.35163E-13
 -1      1592 1.29708E-02 1.46937E-03-1.43484E-13
 -1      1593 1.28506E-02 1.51561E-03-1.40756E-13
 -1      1594 1.28601E-02 1.49262E-03-1.40585E-13
 -1      1595 1.32213E-02 1.32791E-03-1.48977E-13
 -1      1596 1.30940E-02 1.40533E-03-1.46227E-13
 -1      1597 1.31224E-02 1.38377E-03-1.46054E-13
 -1      1598 1.34878E-02 1.14732E-03-1.54510E-13
 -1      1599 1.33527E-02 1.24080E-03-1.51736E-13
 -1      1600 1.33955E-02 1.21898E-03-1.51562E-13
 -1      1601 1.37662E-02 9.51363E-04-1.60084E-13
 -1      1602 1.36260E-02 1.05041E-03-1.57292E-13
 -1      1603 1.36784E-02 1.02807E-03-1.57111E-13
 -1      1604 1.40500E-02 7.50253E-04-1.65680E-13
 -1      1605 1.39078E-02 8.51310E-04-1.62879E-13
 -1      1606 1.39660E-02 8.29029E-04-1.62693E-13
 -1      1607 1.43347E-02 5.44807E-04-1.71287E-13
 -1      1608 1.41923E-02 6.48157E-04-1.68484E-13
 -1      1609 1.42537E-02 6.26427E-04-1.68294E-13
 -1      1610 1.45094E-02 4.25416E-04-1.74231E-13
 -1      1611 1.47795E-02 3.12405E-04-1.74703E-13
 -1      1612 1.46750E-02 3.53674E-04-1.74609E-13
 -1      1613 1.49999E-02 2.34509E-04-1.74876E-13
 -1      1614 1.48876E-02 2.72340E-04-1.74794E-13
 -1      1615 1.47092E-02 3.82874E-04-1.72316E-13
 -1      1616 1.52387E-02 1.70764E-04-1.75030E-13
 -1      1617 1.51172E-02 2.00132E-04-1.74953E-13
 -1      1618 1.49350E-02 3.06086E-04-1.72485E-13
 -1      1619 1.54877E-02 1.33019E-04-1.75169E-13
 -1      1620 1.53631E-02 1.47852E-04-1.75103E-13
 -1      1621 1.51803E-02 2.41997E-04-1.72640E-13
 -1      1622 1.57163E-02 1.31275E-04-1.75304E-13
 -1      1623 1.56062E-02 1.27362E-04-1.75236E-13
 -1      1624 1.54309E-02 2.00269E-04-1.72786E-13
 -1      1625 1.58892E-02 1.67273E-04-1.75449E-13
 -1      1626 1.58131E-02 1.44924E-04-1.75374E-13
 -1      1627 1.56570E-02 1.87814E-04-1.72927E-13
 -1      1628 1.59583E-02 2.29351E-04-1.75579E-13
 -1      1629 1.59388E-02 1.96381E-04-1.75516E-13
 -1      1630 1.58127E-02 2.04850E-04-1.73061E-13
 -1      1631 1.59020E-02 2.93801E-04-1.75690E-13
 -1      1632 1.59459E-02 2.63039E-04-1.75637E-13
 -1      1633 1.58528E-02 2.39403E-04-1.73185E-13
 -1      1634 1.57346E-02 3.35242E-04-1.75782E-13
 -1      1635 1.58302E-02 3.18715E-04-1.75739E-13
 -1      1636 1.57632E-02 2.70368E-04-1.73293E-13
 -1      1637 1.54975E-02 3.38186E-04-1.75864E-13
 -1      1638 1.56218E-02 3.41883E-04-1.75824E-13
 -1      1639 1.55680E-02 2.77979E-04-1.73385E-13
 -1      1640 1.52422E-02 3.02625E-04-1.75937E-13
 -1      1641 1.53703E-02 3.24751E-04-1.75903E-13
 -1      1642 1.53175E-02 2.53632E-04-1.73466E-13
 -1      1643 1.49924E-02 2.36451E-04-1.76009E-13
 -1      1644 1.51147E-02 2.72501E-04-1.75973E-13
 -1      1645 1.50558E-02 2.00239E-04-1.73540E-13
 -1      1646 1.47666E-02 1.52934E-04-1.76064E-13
 -1      1647 1.48762E-02 1.96053E-04-1.76042E-13
 -1      1648 1.48091E-02 1.25825E-04-1.73607E-13
 -1      1649 1.45629E-02 6.34274E-05-1.76106E-13
 -1      1650 1.46625E-02 1.08325E-04-1.76086E-13
 -1      1651 1.45889E-02 4.06545E-05-1.73662E-13
 -1      1652 1.43482E-02-4.59870E-05-1.75335E-13
 -1      1653 1.44434E-02-2.09818E-06-1.75310E-13
 -1      1654 1.43669E-02-6.87720E-05-1.72891E-13
 -1      1655 1.41315E-02-1.98506E-04-1.71303E-13
 -1      1656 1.52295E-02 3.01328E-04-1.50121E-13
 -1      1657 1.52662E-02 2.45367E-04-1.50295E-13
 -1      1658 1.50140E-02 4.40533E-04-1.49366E-13
 -1      1659 1.51369E-02 3.69243E-04-1.49869E-13
 -1      1660 1.46290E-02 6.22591E-04-1.47866E-13
 -1      1661 1.48202E-02 5.28823E-04-1.48696E-13
 -1      1662 1.42223E-02 8.45948E-04-1.45632E-13
 -1      1663 1.44152E-02 7.53910E-04-1.46569E-13
 -1      1664 1.37777E-02 1.04454E-03-1.43249E-13
 -1      1665 1.39872E-02 9.53882E-04-1.44403E-13
 -1      1666 1.33189E-02 1.20474E-03-1.40523E-13
 -1      1667 1.35269E-02 1.13759E-03-1.41829E-13
 -1      1668 1.28783E-02 1.28246E-03-1.37557E-13
 -1      1669 1.30786E-02 1.25899E-03-1.38930E-13
 -1      1670 1.24660E-02 1.25397E-03-1.34701E-13
 -1      1671 1.26523E-02 1.27835E-03-1.35988E-13
 -1      1672 1.20404E-02 1.12662E-03-1.31723E-13
 -1      1673 1.22441E-02 1.20122E-03-1.33081E-13
 -1      1674 1.16037E-02 9.37354E-04-1.29254E-13
 -1      1675 1.17923E-02 1.02783E-03-1.30352E-13
 -1      1676 1.11940E-02 7.26653E-04-1.27076E-13
 -1      1677 1.13823E-02 8.26085E-04-1.28042E-13
 -1      1678 1.08216E-02 5.11404E-04-1.25171E-13
 -1      1679 1.09916E-02 6.03804E-04-1.25940E-13
 -1      1680 1.05316E-02 3.35921E-04-1.23800E-13
 -1      1681 1.06529E-02 4.04988E-04-1.24286E-13
 -1      1682 1.03540E-02 2.20304E-04-1.23410E-13
 -1      1683 1.04180E-02 2.77343E-04-1.23644E-13
 -1      1684 1.03143E-02 1.00117E-04-1.23256E-13
 -1      1685 1.03139E-02 1.54119E-04-1.23221E-13
 -1      1686 1.04260E-02-2.24215E-05-1.23797E-13
 -1      1687 1.03564E-02 3.50472E-05-1.23471E-13
 -1      1688 1.06730E-02-1.63086E-04-1.24873E-13
 -1      1689 1.05450E-02-9.32205E-05-1.24278E-13
 -1      1690 1.10078E-02-3.41316E-04-1.26589E-13
 -1      1691 1.08439E-02-2.58364E-04-1.25774E-13
 -1      1692 1.13943E-02-5.30079E-04-1.28671E-13
 -1      1693 1.12127E-02-4.42413E-04-1.27667E-13
 -1      1694 1.18092E-02-7.11862E-04-1.31171E-13
 -1      1695 1.16157E-02-6.30653E-04-1.29974E-13
 -1      1696 1.22268E-02-8.45882E-04-1.33975E-13
 -1      1697 1.20320E-02-7.92197E-04-1.32671E-13
 -1      1698 1.26456E-02-8.97854E-04-1.36871E-13
 -1      1699 1.24528E-02-8.85210E-04-1.35528E-13
 -1      1700 1.30695E-02-8.54741E-04-1.39805E-13
 -1      1701 1.28725E-02-8.88034E-04-1.38462E-13
 -1      1702 1.35093E-02-7.20401E-04-1.42599E-13
 -1      1703 1.33054E-02-7.92076E-04-1.41345E-13
 -1      1704 1.39821E-02-5.25275E-04-1.45130E-13
 -1      1705 1.37639E-02-6.22197E-04-1.43981E-13
 -1      1706 1.44158E-02-2.90059E-04-1.47507E-13
 -1      1707 1.42096E-02-3.90942E-04-1.46576E-13
 -1      1708 1.48259E-02-1.17415E-04-1.48849E-13
 -1      1709 1.46578E-02-2.01606E-04-1.48204E-13
 -1      1710 1.51123E-02 4.02930E-05-1.49861E-13
 -1      1711 1.49944E-02-2.83232E-05-1.49461E-13
 -1      1712 1.52627E-02 1.79472E-04-1.50474E-13
 -1      1713 1.52136E-02 1.21063E-04-1.50338E-13
 -1      1714 1.40304E-02 8.59069E-04-1.45641E-13
 -1      1715 1.44741E-02 6.18685E-04-1.48172E-13
 -1      1716 1.45720E-02 4.03862E-04-1.74044E-13
 -1      1717 1.44993E-02 4.73328E-04-1.71661E-13
 -1      1718 1.51843E-02 3.01237E-04-1.51065E-13
 -1      1719 1.48908E-02 4.21739E-04-1.50144E-13
 -1      1720 1.52773E-02 2.12105E-04-1.51495E-13
 -1      1721 1.35801E-02 1.07954E-03-1.42985E-13
 -1      1722 1.31530E-02 1.24811E-03-1.39969E-13
 -1      1723 1.27639E-02 1.30930E-03-1.36804E-13
 -1      1724 1.23813E-02 1.24807E-03-1.33615E-13
 -1      1725 1.19892E-02 1.07629E-03-1.30629E-13
 -1      1726 1.15608E-02 8.48669E-04-1.28053E-13
 -1      1727 1.11493E-02 6.08445E-04-1.25713E-13
 -1      1728 1.07737E-02 3.93819E-04-1.23699E-13
 -1      1729 1.04836E-02 2.60119E-04-1.22662E-13
 -1      1730 1.03245E-02 1.67131E-04-1.22318E-13
 -1      1731 1.03261E-02 8.42062E-05-1.22342E-13
 -1      1732 1.04933E-02-1.28829E-05-1.23033E-13
 -1      1733 1.07912E-02-1.51963E-04-1.24405E-13
 -1      1734 1.11662E-02-3.41560E-04-1.26376E-13
 -1      1735 1.15723E-02-5.53861E-04-1.28750E-13
 -1      1736 1.19747E-02-7.53402E-04-1.31546E-13
 -1      1737 1.23652E-02-8.88001E-04-1.34597E-13
 -1      1738 1.27474E-02-9.20810E-04-1.37739E-13
 -1      1739 1.31353E-02-8.37065E-04-1.40872E-13
 -1      1740 1.35638E-02-6.55556E-04-1.43798E-13
 -1      1741 1.40208E-02-4.09793E-04-1.46631E-13
 -1      1742 1.44755E-02-1.79901E-04-1.48785E-13
 -1      1743 1.48855E-02-9.89148E-06-1.50103E-13
 -1      1744 1.51665E-02 1.24196E-04-1.51197E-13
 -1      1745 2.85264E-04-1.76222E-04-7.44169E-17
 -1      1746 3.32179E-04-1.16750E-04-2.50139E-16
 -1      1747 3.36335E-04-1.32998E-04-2.34283E-16
 -1      1748 3.42232E-04-1.51986E-04-2.14862E-16
 -1      1749 3.51789E-04-1.73991E-04-1.87445E-16
 -1      1750 4.58353E-04-1.88061E-04-3.39545E-16
 -1      1751 3.24546E-04-6.53612E-05-2.83139E-16
 -1      1752 3.25696E-04-7.66489E-05-2.78098E-16
 -1      1753 3.23055E-04-4.38731E-05-2.89265E-16
 -1      1754 3.23709E-04-5.43594E-05-2.86690E-16
 -1      1755 4.36485E-04-7.92706E-05-4.20318E-16
 -1      1756 3.22269E-04-2.37620E-05-2.91352E-16
 -1      1757 3.22602E-04-3.36716E-05-2.90688E-16
 -1      1758 4.34488E-04-5.13004E-05-4.27203E-16
 -1      1759 3.21975E-04-4.33553E-06-2.90526E-16
 -1      1760 3.22072E-04-1.39838E-05-2.91325E-16
 -1      1761 4.33465E-04-2.49147E-05-4.29087E-16
 -1      1762 3.22098E-04 1.49742E-05-2.86771E-16
 -1      1763 3.21984E-04 5.31589E-06-2.89075E-16
 -1      1764 4.33168E-04 7.56821E-07-4.26783E-16
 -1      1765 3.22666E-04 3.47153E-05-2.80402E-16
 -1      1766 3.22313E-04 2.47733E-05-2.84088E-16
 -1      1767 4.33524E-04 2.64569E-05-4.20630E-16
 -1      1768 3.23797E-04 5.51455E-05-2.70292E-16
 -1      1769 3.23133E-04 4.47863E-05-2.75929E-16
 -1      1770 4.34603E-04 5.27029E-05-4.10343E-16
 -1      1771 3.25859E-04 7.77911E-05-2.55424E-16
 -1      1772 3.24659E-04 6.62127E-05-2.63827E-16
 -1      1773 4.36663E-04 8.05740E-05-3.94717E-16
 -1      1774 3.29553E-04 1.03626E-04-2.33117E-16
 -1      1775 3.27402E-04 9.02769E-05-2.45667E-16
 -1      1776 4.40318E-04 1.11537E-04-3.71936E-16
 -1      1777 3.36594E-04 1.35084E-04-1.98450E-16
 -1      1778 3.32409E-04 1.18585E-04-2.18087E-16
 -1      1779 4.46796E-04 1.47303E-04-3.37715E-16
 -1      1780 3.52326E-04 1.77581E-04-1.46123E-16
 -1      1781 3.42828E-04 1.54733E-04-1.75614E-16
 -1      1782 4.59340E-04 1.91425E-04-2.86541E-16
 -1      1783 4.07732E-04 2.33667E-04-1.09938E-16
 -1      1784 3.78118E-04 2.02641E-04-1.33926E-16
 -1      1785 4.95892E-04 2.43967E-04-2.40991E-16
 -1      1786 5.58594E-04 3.02479E-04-2.04399E-16
 -1      1787 3.40050E-04-1.90893E-04-1.34143E-16
 -1      1788 8.53646E-04 4.07086E-04-5.36179E-16
 -1      1789 7.07226E-04 3.59347E-04-3.47351E-16
 -1      1790 6.73455E-04 3.28778E-04-3.70689E-16
 -1      1791 4.58991E-04-2.36694E-04-2.42753E-16
 -1      1792 8.07300E-04-3.74079E-04-6.54953E-16
 -1      1793 9.52583E-04-4.15262E-04-9.17615E-16
 -1      1794 1.09544E-03-4.49952E-04-1.22831E-15
 -1      1795 1.23712E-03-4.78851E-04-1.58792E-15
 -1      1796 1.00401E-03-3.97876E-04-1.13063E-15
 -1      1797 1.37754E-03-5.03340E-04-1.99511E-15
 -1      1798 1.51725E-03-5.23719E-04-2.44997E-15
 -1      1799 1.28972E-03-4.55847E-04-1.85979E-15
 -1      1800 1.65644E-03-5.40906E-04-2.95188E-15
 -1      1801 1.79530E-03-5.55143E-04-3.50060E-15
 -1      1802 1.57215E-03-4.96804E-04-2.77721E-15
 -1      1803 1.93404E-03-5.67037E-04-4.09560E-15
 -1      1804 2.07272E-03-5.76791E-04-4.73669E-15
 -1      1805 1.85281E-03-5.25372E-04-3.88005E-15
 -1      1806 2.21149E-03-5.84824E-04-5.42333E-15
 -1      1807 2.35035E-03-5.91307E-04-6.15496E-15
 -1      1808 2.13274E-03-5.44889E-04-5.16610E-15
 -1      1809 2.48941E-03-5.96538E-04-6.93121E-15
 -1      1810 2.62865E-03-6.00656E-04-7.75224E-15
 -1      1811 2.41264E-03-5.57813E-04-6.63182E-15
 -1      1812 2.76814E-03-6.03874E-04-8.61689E-15
 -1      1813 2.90783E-03-6.06304E-04-9.52363E-15
 -1      1814 2.69290E-03-5.65979E-04-8.27417E-15
 -1      1815 3.04778E-03-6.08100E-04-1.04731E-14
 -1      1816 3.18794E-03-6.09349E-04-1.14643E-14
 -1      1817 2.97373E-03-5.70759E-04-1.00882E-14
 -1      1818 3.32835E-03-6.10160E-04-1.24966E-14
 -1      1819 3.46897E-03-6.10599E-04-1.35697E-14
 -1      1820 3.25520E-03-5.73176E-04-1.20691E-14
 -1      1821 3.60981E-03-6.10740E-04-1.46827E-14
 -1      1822 3.75083E-03-6.10635E-04-1.58357E-14
 -1      1823 3.53733E-03-5.73977E-04-1.42135E-14
 -1      1824 3.89204E-03-6.10331E-04-1.70271E-14
 -1      1825 4.03342E-03-6.09865E-04-1.82575E-14
 -1      1826 3.82008E-03-5.73698E-04-1.65168E-14
 -1      1827 4.17497E-03-6.09267E-04-1.95266E-14
 -1      1828 4.31665E-03-6.08561E-04-2.08331E-14
 -1      1829 4.10338E-03-5.72707E-04-1.89756E-14
 -1      1830 4.45847E-03-6.07762E-04-2.21767E-14
 -1      1831 4.60041E-03-6.06887E-04-2.35575E-14
 -1      1832 4.38717E-03-5.71245E-04-2.15868E-14
 -1      1833 4.74247E-03-6.05939E-04-2.49759E-14
 -1      1834 4.88464E-03-6.04927E-04-2.64297E-14
 -1      1835 4.67137E-03-5.69453E-04-2.43458E-14
 -1      1836 5.02691E-03-6.03846E-04-2.79195E-14
 -1      1837 5.16927E-03-6.02700E-04-2.94448E-14
 -1      1838 4.95595E-03-5.67392E-04-2.72504E-14
 -1      1839 5.31172E-03-6.01477E-04-3.10060E-14
 -1      1840 5.45427E-03-6.00178E-04-3.26026E-14
 -1      1841 5.24087E-03-5.65067E-04-3.02986E-14
 -1      1842 5.59692E-03-5.98785E-04-3.42345E-14
 -1      1843 5.73966E-03-5.97295E-04-3.59019E-14
 -1      1844 5.52611E-03-5.62435E-04-3.34891E-14
 -1      1845 5.88250E-03-5.95689E-04-3.76044E-14
 -1      1846 6.02547E-03-5.93963E-04-3.93414E-14
 -1      1847 5.81170E-03-5.59421E-04-3.68209E-14
 -1      1848 6.16855E-03-5.92093E-04-4.11148E-14
 -1      1849 6.31178E-03-5.90077E-04-4.29229E-14
 -1      1850 6.09767E-03-5.55927E-04-4.02941E-14
 -1      1851 6.45516E-03-5.87891E-04-4.47643E-14
 -1      1852 6.59873E-03-5.85535E-04-4.66407E-14
 -1      1853 6.38411E-03-5.51843E-04-4.39062E-14
 -1      1854 6.74250E-03-5.82987E-04-4.85513E-14
 -1      1855 6.88651E-03-5.80253E-04-5.04937E-14
 -1      1856 6.67115E-03-5.47063E-04-4.76561E-14
 -1      1857 7.03078E-03-5.77315E-04-5.24683E-14
 -1      1858 7.17537E-03-5.74189E-04-5.44743E-14
 -1      1859 6.95894E-03-5.41505E-04-5.15383E-14
 -1      1860 7.32029E-03-5.70867E-04-5.65103E-14
 -1      1861 7.46563E-03-5.67379E-04-5.85748E-14
 -1      1862 7.24773E-03-5.35133E-04-5.55464E-14
 -1      1863 7.61140E-03-5.63736E-04-6.06698E-14
 -1      1864 7.75769E-03-5.59985E-04-6.27918E-14
 -1      1865 7.53778E-03-5.28001E-04-5.96733E-14
 -1      1866 7.90452E-03-5.56167E-04-6.49411E-14
 -1      1867 8.05202E-03-5.52357E-04-6.71186E-14
 -1      1868 7.82943E-03-5.20298E-04-6.39138E-14
 -1      1869 8.20017E-03-5.48639E-04-6.93224E-14
 -1      1870 8.34913E-03-5.45121E-04-7.15516E-14
 -1      1871 8.12309E-03-5.12418E-04-6.82641E-14
 -1      1872 8.49890E-03-5.41952E-04-7.38045E-14
 -1      1873 8.64961E-03-5.39284E-04-7.60799E-14
 -1      1874 8.41920E-03-5.05052E-04-7.27181E-14
 -1      1875 8.80127E-03-5.37350E-04-7.83783E-14
 -1      1876 8.95401E-03-5.36358E-04-8.06982E-14
 -1      1877 8.71828E-03-4.99296E-04-7.72657E-14
 -1      1878 9.10783E-03-5.36647E-04-8.30391E-14
 -1      1879 9.26282E-03-5.38491E-04-8.53999E-14
 -1      1880 9.02082E-03-4.96784E-04-8.19010E-14
 -1      1881 9.41899E-03-5.42348E-04-8.77800E-14
 -1      1882 9.57633E-03-5.48562E-04-9.01807E-14
 -1      1883 9.32734E-03-4.99810E-04-8.66195E-14
 -1      1884 9.73491E-03-5.57700E-04-9.26009E-14
 -1      1885 9.89452E-03-5.70164E-04-9.50387E-14
 -1      1886 9.63825E-03-5.11419E-04-9.14164E-14
 -1      1887 1.00553E-02-5.86575E-04-9.74961E-14
 -1      1888 1.02168E-02-6.07339E-04-9.99695E-14
 -1      1889 9.95381E-03-5.35368E-04-9.62872E-14
 -1      1890 1.03792E-02-6.33003E-04-1.02459E-13
 -1      1891 1.05418E-02-6.63858E-04-1.04965E-13
 -1      1892 1.02739E-02-5.75820E-04-1.01230E-13
 -1      1893 1.07048E-02-7.00138E-04-1.07486E-13
 -1      1894 1.08671E-02-7.41793E-04-1.10021E-13
 -1      1895 1.05979E-02-6.36548E-04-1.06237E-13
 -1      1896 1.10290E-02-7.88410E-04-1.12570E-13
 -1      1897 1.11891E-02-8.39302E-04-1.15133E-13
 -1      1898 1.09239E-02-7.19367E-04-1.11302E-13
 -1      1899 1.13476E-02-8.93092E-04-1.17711E-13
 -1      1900 1.15031E-02-9.48080E-04-1.20304E-13
 -1      1901 1.12487E-02-8.21730E-04-1.16425E-13
 -1      1902 1.16557E-02-1.00182E-03-1.22912E-13
 -1      1903 1.18047E-02-1.05168E-03-1.25533E-13
 -1      1904 1.15675E-02-9.33833E-04-1.21607E-13
 -1      1905 1.19499E-02-1.09451E-03-1.28173E-13
 -1      1906 1.20918E-02-1.12735E-03-1.30828E-13
 -1      1907 1.18753E-02-1.03697E-03-1.26852E-13
 -1      1908 1.22299E-02-1.14737E-03-1.33495E-13
 -1      1909 1.23662E-02-1.15245E-03-1.36179E-13
 -1      1910 1.21696E-02-1.10610E-03-1.32156E-13
 -1      1911 1.25000E-02-1.14123E-03-1.38876E-13
 -1      1912 1.26340E-02-1.11342E-03-1.41584E-13
 -1      1913 1.24530E-02-1.11804E-03-1.37519E-13
 -1      1914 1.27676E-02-1.06967E-03-1.44304E-13
 -1      1915 1.29027E-02-1.01151E-03-1.47031E-13
 -1      1916 1.27327E-02-1.06172E-03-1.42932E-13
 -1      1917 1.30389E-02-9.41016E-04-1.49765E-13
 -1      1918 1.31769E-02-8.60531E-04-1.52511E-13
 -1      1919 1.30156E-02-9.43084E-04-1.48384E-13
 -1      1920 1.33164E-02-7.72419E-04-1.55265E-13
 -1      1921 1.34571E-02-6.78687E-04-1.58022E-13
 -1      1922 1.33045E-02-7.79932E-04-1.53868E-13
 -1      1923 1.35988E-02-5.81158E-04-1.60786E-13
 -1      1924 1.37410E-02-4.81004E-04-1.63554E-13
 -1      1925 1.35973E-02-5.91612E-04-1.59385E-13
 -1      1926 1.38651E-02-3.91671E-04-1.66037E-13
 -1      1927 1.40075E-02-2.89061E-04-1.68813E-13
 -1      1928 1.41235E-02-2.24376E-04-1.69605E-13
 -1      1929 1.38712E-02-4.04105E-04-1.64632E-13
 -1      1930 1.13873E-03 4.80050E-04-1.05135E-15
 -1      1931 9.96944E-04 4.46798E-04-7.70082E-16
 -1      1932 9.64553E-04 4.17340E-04-7.96130E-16
 -1      1933 1.41788E-03 5.31540E-04-1.75288E-15
 -1      1934 1.27871E-03 5.08086E-04-1.37867E-15
 -1      1935 1.24906E-03 4.79946E-04-1.40483E-15
 -1      1936 1.69430E-03 5.67853E-04-2.63969E-15
 -1      1937 1.55625E-03 5.51349E-04-2.17322E-15
 -1      1938 1.52936E-03 5.24173E-04-2.19815E-15
 -1      1939 1.96992E-03 5.93171E-04-3.71109E-15
 -1      1940 1.83212E-03 5.81716E-04-3.15266E-15
 -1      1941 1.80764E-03 5.55177E-04-3.17545E-15
 -1      1942 2.24580E-03 6.10451E-04-4.96289E-15
 -1      1943 2.10778E-03 6.02690E-04-4.31435E-15
 -1      1944 2.08530E-03 5.76555E-04-4.33404E-15
 -1      1945 2.52251E-03 6.21873E-04-6.39231E-15
 -1      1946 2.38403E-03 6.16800E-04-5.65584E-15
 -1      1947 2.36316E-03 5.90911E-04-5.67122E-15
 -1      1948 2.80029E-03 6.29069E-04-7.99645E-15
 -1      1949 2.66126E-03 6.25929E-04-7.17216E-15
 -1      1950 2.64166E-03 6.00180E-04-7.18341E-15
 -1      1951 3.07922E-03 6.33263E-04-9.77369E-15
 -1      1952 2.93962E-03 6.31489E-04-8.86312E-15
 -1      1953 2.92101E-03 6.05810E-04-8.86850E-15
 -1      1954 3.35926E-03 6.35362E-04-1.17211E-14
 -1      1955 3.21911E-03 6.34536E-04-1.07264E-14
 -1      1956 3.20127E-03 6.08881E-04-1.07258E-14
 -1      1957 3.64032E-03 6.36029E-04-1.38391E-14
 -1      1958 3.49968E-03 6.35847E-04-1.27591E-14
 -1      1959 3.48241E-03 6.10190E-04-1.27523E-14
 -1      1960 3.92226E-03 6.35736E-04-1.61221E-14
 -1      1961 3.78119E-03 6.35984E-04-1.49598E-14
 -1      1962 3.76436E-03 6.10309E-04-1.49453E-14
 -1      1963 4.20496E-03 6.34804E-04-1.85686E-14
 -1      1964 4.06353E-03 6.35338E-04-1.73247E-14
 -1      1965 4.04703E-03 6.09639E-04-1.73024E-14
 -1      1966 4.48830E-03 6.33440E-04-2.11767E-14
 -1      1967 4.34656E-03 6.34169E-04-1.98530E-14
 -1      1968 4.33032E-03 6.08446E-04-1.98222E-14
 -1      1969 4.77218E-03 6.31756E-04-2.39419E-14
 -1      1970 4.63019E-03 6.32635E-04-2.25403E-14
 -1      1971 4.61413E-03 6.06888E-04-2.25005E-14
 -1      1972 5.05652E-03 6.29797E-04-2.68598E-14
 -1      1973 4.91430E-03 6.30810E-04-2.53820E-14
 -1      1974 4.89840E-03 6.05046E-04-2.53338E-14
 -1      1975 5.34126E-03 6.27552E-04-2.99271E-14
 -1      1976 5.19884E-03 6.28712E-04-2.83745E-14
 -1      1977 5.18306E-03 6.02935E-04-2.83179E-14
 -1      1978 5.62640E-03 6.24968E-04-3.31436E-14
 -1      1979 5.48379E-03 6.26306E-04-3.15166E-14
 -1      1980 5.46809E-03 6.00521E-04-3.14515E-14
 -1      1981 5.91196E-03 6.21963E-04-3.65017E-14
 -1      1982 5.76913E-03 6.23523E-04-3.48054E-14
 -1      1983 5.75350E-03 5.97734E-04-3.47306E-14
 -1      1984 6.19801E-03 6.18429E-04-3.99969E-14
 -1      1985 6.05492E-03 6.20266E-04-3.82324E-14
 -1      1986 6.03933E-03 5.94475E-04-3.81494E-14
 -1      1987 6.48468E-03 6.14253E-04-4.36231E-14
 -1      1988 6.34126E-03 6.16425E-04-4.17944E-14
 -1      1989 6.32567E-03 5.90629E-04-4.17027E-14
 -1      1990 6.77216E-03 6.09321E-04-4.73785E-14
 -1      1991 6.62830E-03 6.11882E-04-4.54857E-14
 -1      1992 6.61267E-03 5.86076E-04-4.53859E-14
 -1      1993 7.06071E-03 6.03545E-04-5.12574E-14
 -1      1994 6.91628E-03 6.06536E-04-4.93018E-14
 -1      1995 6.90051E-03 5.80704E-04-4.91938E-14
 -1      1996 7.35069E-03 5.96883E-04-5.52583E-14
 -1      1997 7.20549E-03 6.00316E-04-5.32426E-14
 -1      1998 7.18948E-03 5.74435E-04-5.31270E-14
 -1      1999 7.64257E-03 5.89384E-04-5.93832E-14
 -1      2000 7.49636E-03 5.93221E-04-5.73062E-14
 -1      2001 7.47993E-03 5.67254E-04-5.71830E-14
 -1      2002 7.93690E-03 5.81237E-04-6.36263E-14
 -1      2003 7.78938E-03 5.85360E-04-6.14897E-14
 -1      2004 7.77230E-03 5.59254E-04-6.13594E-14
 -1      2005 8.23441E-03 5.72856E-04-6.79864E-14
 -1      2006 8.08520E-03 5.77025E-04-6.57920E-14
 -1      2007 8.06714E-03 5.50700E-04-6.56523E-14
 -1      2008 8.53590E-03 5.64992E-04-7.24525E-14
 -1      2009 8.38458E-03 5.68782E-04-7.02064E-14
 -1      2010 8.36510E-03 5.42127E-04-7.00593E-14
 -1      2011 8.84230E-03 5.58887E-04-7.70269E-14
 -1      2012 8.68840E-03 5.61606E-04-7.47263E-14
 -1      2013 8.66694E-03 5.34466E-04-7.45726E-14
 -1      2014 9.15461E-03 5.56486E-04-8.16949E-14
 -1      2015 8.99763E-03 5.57062E-04-7.93495E-14
 -1      2016 8.97347E-03 5.29223E-04-7.91862E-14
 -1      2017 9.47377E-03 5.60697E-04-8.64460E-14
 -1      2018 9.31324E-03 5.57544E-04-8.40615E-14
 -1      2019 9.28559E-03 5.28715E-04-8.38913E-14
 -1      2020 9.80050E-03 5.75666E-04-9.12728E-14
 -1      2021 9.63612E-03 5.66547E-04-8.88503E-14
 -1      2022 9.60409E-03 5.36343E-04-8.86752E-14
 -1      2023 1.01351E-02 6.06974E-04-9.61711E-14
 -1      2024 9.96681E-03 5.88927E-04-9.37135E-14
 -1      2025 9.92964E-03 5.56861E-04-9.35325E-14
 -1      2026 1.04769E-02 6.61492E-04-1.01137E-13
 -1      2027 1.03052E-02 6.30962E-04-9.86459E-14
 -1      2028 1.02625E-02 5.96485E-04-9.84597E-14
 -1      2029 1.08240E-02 7.46418E-04-1.06171E-13
 -1      2030 1.06501E-02 6.99878E-04-1.03644E-13
 -1      2031 1.06024E-02 6.62514E-04-1.03453E-13
 -1      2032 1.11724E-02 8.66794E-04-1.11262E-13
 -1      2033 1.09986E-02 8.02216E-04-1.08710E-13
 -1      2034 1.09477E-02 7.61897E-04-1.08510E-13
 -1      2035 1.15162E-02 1.02096E-03-1.16418E-13
 -1      2036 1.13457E-02 9.40340E-04-1.13834E-13
 -1      2037 1.12948E-02 8.97949E-04-1.13627E-13
 -1      2038 1.18473E-02 1.19475E-03-1.21632E-13
 -1      2039 1.16841E-02 1.10702E-03-1.19016E-13
 -1      2040 1.16379E-02 1.06489E-03-1.18804E-13
 -1      2041 1.21588E-02 1.35798E-03-1.26907E-13
 -1      2042 1.20059E-02 1.28005E-03-1.24262E-13
 -1      2043 1.19686E-02 1.24180E-03-1.24040E-13
 -1      2044 1.24488E-02 1.46983E-03-1.32241E-13
 -1      2045 1.23060E-02 1.42250E-03-1.29566E-13
 -1      2046 1.22805E-02 1.39134E-03-1.29337E-13
 -1      2047 1.27243E-02 1.49679E-03-1.37630E-13
 -1      2048 1.25872E-02 1.49468E-03-1.34928E-13
 -1      2049 1.25740E-02 1.47098E-03-1.34691E-13
 -1      2050 1.29974E-02 1.43031E-03-1.43069E-13
 -1      2051 1.28599E-02 1.47423E-03-1.40344E-13
 -1      2052 1.28589E-02 1.45550E-03-1.40103E-13
 -1      2053 1.32778E-02 1.29001E-03-1.48556E-13
 -1      2054 1.31362E-02 1.36734E-03-1.45808E-13
 -1      2055 1.31476E-02 1.35013E-03-1.45562E-13
 -1      2056 1.35673E-02 1.10870E-03-1.54080E-13
 -1      2057 1.34217E-02 1.20271E-03-1.51311E-13
 -1      2058 1.34452E-02 1.18518E-03-1.51062E-13
 -1      2059 1.38613E-02 9.12718E-04-1.59646E-13
 -1      2060 1.37142E-02 1.01177E-03-1.56858E-13
 -1      2061 1.37482E-02 9.94119E-04-1.56604E-13
 -1      2062 1.41543E-02 7.12990E-04-1.65234E-13
 -1      2063 1.40083E-02 8.13363E-04-1.62438E-13
 -1      2064 1.40500E-02 7.96713E-04-1.62181E-13
 -1      2065 1.43995E-02 5.42835E-04-1.69850E-13
 -1      2066 1.42551E-02 6.44897E-04-1.67046E-13
 -1      2067 1.43006E-02 6.29549E-04-1.66789E-13
 -1      2068 1.45028E-02 4.93016E-04-1.70413E-13
 -1      2069 1.51200E-02 2.98070E-04-1.70259E-13
 -1      2070 1.49921E-02 3.31427E-04-1.70179E-13
 -1      2071 1.48687E-02 3.69321E-04-1.70100E-13
 -1      2072 1.47504E-02 4.08526E-04-1.70018E-13
 -1      2073 1.48001E-02 4.22336E-04-1.67718E-13
 -1      2074 1.46778E-02 4.30166E-04-1.70261E-13
 -1      2075 1.45692E-02 4.71307E-04-1.70173E-13
 -1      2076 1.44674E-02 5.38862E-04-1.68361E-13
 -1      2077 1.46053E-02 4.91588E-04-1.67878E-13
 -1      2078 1.53720E-02 2.46251E-04-1.70404E-13
 -1      2079 1.52471E-02 2.68922E-04-1.70331E-13
 -1      2080 1.50558E-02 3.40039E-04-1.67876E-13
 -1      2081 1.55954E-02 2.20527E-04-1.70546E-13
 -1      2082 1.54910E-02 2.29776E-04-1.70476E-13
 -1      2083 1.53146E-02 2.75009E-04-1.68024E-13
 -1      2084 1.57325E-02 2.22155E-04-1.70677E-13
 -1      2085 1.56781E-02 2.19194E-04-1.70614E-13
 -1      2086 1.55332E-02 2.37940E-04-1.68166E-13
 -1      2087 1.57410E-02 2.37554E-04-1.70797E-13
 -1      2088 1.57544E-02 2.30635E-04-1.70739E-13
 -1      2089 1.56490E-02 2.29093E-04-1.68293E-13
 -1      2090 1.56154E-02 2.44052E-04-1.70902E-13
 -1      2091 1.56935E-02 2.44238E-04-1.70851E-13
 -1      2092 1.56213E-02 2.30068E-04-1.68409E-13
 -1      2093 1.53918E-02 2.23829E-04-1.70992E-13
 -1      2094 1.55124E-02 2.38019E-04-1.70948E-13
 -1      2095 1.54567E-02 2.14343E-04-1.68510E-13
 -1      2096 1.51300E-02 1.75248E-04-1.71072E-13
 -1      2097 1.52631E-02 2.02540E-04-1.71033E-13
 -1      2098 1.52081E-02 1.68048E-04-1.68599E-13
 -1      2099 1.48650E-02 1.03478E-04-1.71145E-13
 -1      2100 1.49955E-02 1.40990E-04-1.71111E-13
 -1      2101 1.49340E-02 9.51190E-05-1.68679E-13
 -1      2102 1.46243E-02 1.90830E-05-1.71210E-13
 -1      2103 1.47411E-02 6.17770E-05-1.71176E-13
 -1      2104 1.46714E-02 6.18298E-06-1.68750E-13
 -1      2105 1.44114E-02-6.99532E-05-1.71263E-13
 -1      2106 1.45147E-02-2.55850E-05-1.71236E-13
 -1      2107 1.44390E-02-8.77411E-05-1.68812E-13
 -1      2108 1.47883E-02 4.11173E-04-1.51058E-13
 -1      2109 1.49776E-02 3.44220E-04-1.51729E-13
 -1      2110 1.52830E-02 2.26586E-04-1.52822E-13
 -1      2111 1.52808E-02 2.07070E-04-1.53001E-13
 -1      2112 1.51445E-02 2.85374E-04-1.52324E-13
 -1      2113 1.52378E-02 2.55504E-04-1.52574E-13
 -1      2114 1.52732E-02 2.33647E-04-1.54083E-13
 -1      2115 1.42989E-02 6.48662E-04-1.48343E-13
 -1      2116 1.45147E-02 5.34350E-04-1.49644E-13
 -1      2117 1.38705E-02 8.85853E-04-1.45751E-13
 -1      2118 1.40813E-02 7.69467E-04-1.46985E-13
 -1      2119 3.27170E-04-8.89416E-05-2.71294E-16
 -1      2120 3.29257E-04-1.02111E-04-2.61808E-16
 -1      2121 4.46299E-04-1.45074E-04-3.81084E-16
 -1      2122 4.39993E-04-1.09909E-04-4.06007E-16
 -1      2123 1.30280E-02 1.29185E-03-1.39520E-13
 -1      2124 1.31994E-02 1.22526E-03-1.41116E-13
 -1      2125 1.26732E-02 1.32781E-03-1.35971E-13
 -1      2126 1.28293E-02 1.32822E-03-1.37541E-13
 -1      2127 1.23426E-02 1.23618E-03-1.32728E-13
 -1      2128 1.25048E-02 1.29704E-03-1.34346E-13
 -1      2129 1.25956E-02 1.32576E-03-1.35079E-13
 -1      2130 1.19151E-02 1.00633E-03-1.29345E-13
 -1      2131 1.21056E-02 1.11793E-03-1.30709E-13
 -1      2132 1.15174E-02 7.63202E-04-1.26734E-13
 -1      2133 1.17102E-02 8.83381E-04-1.27938E-13
 -1      2134 1.11132E-02 5.16649E-04-1.24227E-13
 -1      2135 1.13091E-02 6.32025E-04-1.25356E-13
 -1      2136 1.07246E-02 3.18936E-04-1.22219E-13
 -1      2137 1.08968E-02 4.01864E-04-1.23099E-13
 -1      2138 1.04215E-02 2.02540E-04-1.21410E-13
 -1      2139 1.05324E-02 2.39873E-04-1.21565E-13
 -1      2140 1.03028E-02 1.39624E-04-1.21034E-13
 -1      2141 1.03449E-02 1.66484E-04-1.21223E-13
 -1      2142 1.03735E-02 1.66159E-04-1.20127E-13
 -1      2143 1.03445E-02 8.38962E-05-1.20991E-13
 -1      2144 1.03010E-02 1.07662E-04-1.20780E-13
 -1      2145 1.05585E-02-5.37417E-06-1.22207E-13
 -1      2146 1.04381E-02 3.88019E-05-1.21733E-13
 -1      2147 1.09090E-02-1.53650E-04-1.23758E-13
 -1      2148 1.07385E-02-7.62257E-05-1.22866E-13
 -1      2149 1.13042E-02-3.54248E-04-1.25901E-13
 -1      2150 1.11152E-02-2.53745E-04-1.24830E-13
 -1      2151 1.17130E-02-5.89828E-04-1.28693E-13
 -1      2152 1.15239E-02-4.79747E-04-1.27398E-13
 -1      2153 1.21093E-02-8.03395E-04-1.31862E-13
 -1      2154 1.19355E-02-7.10880E-04-1.30367E-13
 -1      2155 1.24624E-02-9.27103E-04-1.35172E-13
 -1      2156 1.23014E-02-8.80597E-04-1.33620E-13
 -1      2157 1.28067E-02-9.31795E-04-1.38555E-13
 -1      2158 1.26475E-02-9.45328E-04-1.36965E-13
 -1      2159 1.31802E-02-8.06256E-04-1.42005E-13
 -1      2160 1.30066E-02-8.80504E-04-1.40463E-13
 -1      2161 1.36143E-02-5.79841E-04-1.45176E-13
 -1      2162 1.34099E-02-6.93598E-04-1.43791E-13
 -1      2163 1.40472E-02-3.23615E-04-1.48080E-13
 -1      2164 1.38312E-02-4.55754E-04-1.46628E-13
 -1      2165 1.36819E-02-5.05233E-04-1.46622E-13
 -1      2166 1.45762E-02-7.29744E-05-1.50340E-13
 -1      2167 1.43559E-02-1.65214E-04-1.49633E-13
 -1      2168 1.49384E-02 6.83305E-05-1.51585E-13
 -1      2169 1.47661E-02 2.62422E-06-1.50965E-13
 -1      2170 1.46621E-02-2.00952E-06-1.51818E-13
 -1      2171 1.52090E-02 1.68667E-04-1.52655E-13
 -1      2172 1.51016E-02 1.30376E-04-1.52177E-13
 -1      2173 1.34358E-02 1.11975E-03-1.42831E-13
 -1      2174 1.36378E-02 1.01092E-03-1.44257E-13
 -1      2175 1.37248E-02 9.36232E-04-1.45596E-13
 -1      2176 6.07926E-04-2.98095E-04-3.96167E-16
 -1      2177 1.32896E-02 1.17439E-03-1.42380E-13
 -1      2178 6.63643E-04-2.92375E-04-5.35853E-16
 -1      2179 1.50743E-02 2.93942E-04-1.53240E-13
 -1      2180 1.45064E-02 4.94807E-04-1.51399E-13
 -1      2181 1.46446E-02 4.48621E-04-1.51229E-13
 -1      2182 1.47661E-02 3.87113E-04-1.52816E-13
 -1      2183 1.42898E-02-1.35400E-04-1.70469E-13
 -1      2184 1.52589E-02 1.97756E-04-1.53982E-13
 -1      2185 1.41565E-02 6.89929E-04-1.48453E-13
 -1      2186 1.50150E-02 1.22285E-04-1.53040E-13
 -1      2187 1.41821E-02-2.21669E-04-1.49636E-13
 -1      2188 1.40286E-02-2.84513E-04-1.49631E-13
 -1      2189 1.43142E-02-1.35894E-04-1.51191E-13
 -1      2190 1.32686E-02-7.47644E-04-1.43382E-13
 -1      2191 1.28872E-02-9.16370E-04-1.39685E-13
 -1      2192 1.25483E-02-9.48827E-04-1.35984E-13
 -1      2193 1.22166E-02-8.50824E-04-1.32435E-13
 -1      2194 1.18449E-02-6.50405E-04-1.29008E-13
 -1      2195 1.14297E-02-4.03419E-04-1.25846E-13
 -1      2196 1.10243E-02-1.85111E-04-1.23287E-13
 -1      2197 1.06496E-02-2.42076E-05-1.21565E-13
 -1      2198 1.02905E-02 1.19083E-04-1.19686E-13
 -1      2199 1.06242E-02 2.56448E-04-1.20965E-13
 -1      2200 1.07155E-02 2.80278E-04-1.20364E-13
 -1      2201 1.05365E-02 2.13478E-04-1.19714E-13
 -1      2202 1.10287E-02 4.41384E-04-1.22743E-13
 -1      2203 1.14399E-02 6.79713E-04-1.25240E-13
 -1      2204 1.22416E-02 1.18580E-03-1.31437E-13
 -1      2205 1.23469E-02 1.24149E-03-1.32163E-13
 -1      2206 1.21467E-02 1.12644E-03-1.30147E-13
 -1      2207 1.29176E-02 1.32235E-03-1.38682E-13
 -1      2208 1.18318E-02 9.33500E-04-1.28017E-13
 -1      2209 1.03813E-02 7.43565E-05-1.20170E-13
 -1      2210 1.01666E-03 3.99777E-04-1.00470E-15
 -1      2211 8.72185E-04 3.63394E-04-7.38016E-16
 -1      2212 5.47751E-04-5.52885E-05-6.07058E-16
 -1      2213 5.48792E-04-7.20032E-05-6.04267E-16
 -1      2214 5.50218E-04-8.93248E-05-5.99591E-16
 -1      2215 5.52085E-04-1.07310E-04-5.92788E-16
 -1      2216 6.65258E-04-9.54748E-05-8.15049E-16
 -1      2217 5.46364E-04 8.85432E-06-6.03318E-16
 -1      2218 5.46344E-04-6.97978E-06-6.06394E-16
 -1      2219 5.47122E-04 4.08586E-05-5.93777E-16
 -1      2220 5.46620E-04 2.47874E-05-5.99252E-16
 -1      2221 6.61293E-04 1.99269E-05-8.13938E-16
 -1      2222 5.48956E-04 7.34738E-05-5.78273E-16
 -1      2223 5.47889E-04 5.69847E-05-5.87041E-16
 -1      2224 6.62624E-04 5.77760E-05-7.99721E-16
 -1      2225 5.52360E-04 1.08940E-04-5.55247E-16
 -1      2226 5.50429E-04 9.08684E-05-5.67783E-16
 -1      2227 6.65495E-04 9.72382E-05-7.77468E-16
 -1      2228 5.58254E-04 1.48271E-04-5.21772E-16
 -1      2229 5.54928E-04 1.28048E-04-5.40231E-16
 -1      2230 6.70602E-04 1.40003E-04-7.45213E-16
 -1      2231 5.68599E-04 1.93867E-04-4.72414E-16
 -1      2232 5.62752E-04 1.70150E-04-4.99519E-16
 -1      2233 6.79271E-04 1.87543E-04-6.98606E-16
 -1      2234 1.30214E-03 4.56721E-04-1.67456E-15
 -1      2235 1.15981E-03 4.30778E-04-1.31653E-15
 -1      2236 1.07183E-03 3.81297E-04-1.22341E-15
 -1      2237 9.15234E-04-3.46334E-04-1.02983E-15
 -1      2238 1.05934E-03-3.79656E-04-1.35266E-15
 -1      2239 1.32116E-02 1.20940E-03-1.42328E-13
 -1      2240 1.34014E-02 1.10190E-03-1.44052E-13
 -1      2241 1.20260E-03-4.08050E-04-1.72192E-15
 -1      2242 1.34542E-03-4.31925E-04-2.13849E-15
 -1      2243 1.11701E-03-3.60481E-04-1.58289E-15
 -1      2244 1.48760E-03-4.52144E-04-2.60091E-15
 -1      2245 1.62939E-03-4.68987E-04-3.10978E-15
 -1      2246 1.40335E-03-4.07246E-04-2.42398E-15
 -1      2247 1.77083E-03-4.83126E-04-3.66426E-15
 -1      2248 1.91201E-03-4.94776E-04-4.26417E-15
 -1      2249 1.68850E-03-4.40491E-04-3.44798E-15
 -1      2250 2.05305E-03-5.04430E-04-4.90885E-15
 -1      2251 2.19398E-03-5.12265E-04-5.59887E-15
 -1      2252 1.97270E-03-4.63556E-04-4.65237E-15
 -1      2253 2.33488E-03-5.18642E-04-6.33293E-15
 -1      2254 2.47578E-03-5.23704E-04-7.11112E-15
 -1      2255 2.25634E-03-4.79083E-04-6.03482E-15
 -1      2256 2.61673E-03-5.27715E-04-7.93301E-15
 -1      2257 2.75773E-03-5.30789E-04-8.79783E-15
 -1      2258 2.53976E-03-4.89109E-04-7.59318E-15
 -1      2259 2.89884E-03-5.33119E-04-9.70482E-15
 -1      2260 3.04002E-03-5.34794E-04-1.06533E-14
 -1      2261 2.82318E-03-4.95188E-04-9.32311E-15
 -1      2262 3.18132E-03-5.35953E-04-1.16433E-14
 -1      2263 3.32272E-03-5.36664E-04-1.26746E-14
 -1      2264 3.10676E-03-4.98489E-04-1.12200E-14
 -1      2265 3.46424E-03-5.37025E-04-1.37464E-14
 -1      2266 3.60586E-03-5.37087E-04-1.48580E-14
 -1      2267 3.39055E-03-4.99875E-04-1.32809E-14
 -1      2268 3.74760E-03-5.36917E-04-1.60082E-14
 -1      2269 3.88943E-03-5.36550E-04-1.71981E-14
 -1      2270 3.67461E-03-4.99975E-04-1.55019E-14
 -1      2271 4.03136E-03-5.36032E-04-1.84262E-14
 -1      2272 4.17339E-03-5.35386E-04-1.96929E-14
 -1      2273 3.95892E-03-4.99227E-04-1.78791E-14
 -1      2274 4.31550E-03-5.34638E-04-2.09980E-14
 -1      2275 4.45770E-03-5.33804E-04-2.23394E-14
 -1      2276 4.24349E-03-4.97927E-04-2.04101E-14
 -1      2277 4.59998E-03-5.32895E-04-2.37174E-14
 -1      2278 4.74232E-03-5.31921E-04-2.51328E-14
 -1      2279 4.52828E-03-4.96257E-04-2.30914E-14
 -1      2280 4.88475E-03-5.30883E-04-2.65839E-14
 -1      2281 5.02724E-03-5.29783E-04-2.80706E-14
 -1      2282 4.81329E-03-4.94311E-04-2.59188E-14
 -1      2283 5.16979E-03-5.28615E-04-2.95933E-14
 -1      2284 5.31241E-03-5.27379E-04-3.11520E-14
 -1      2285 5.09850E-03-4.92118E-04-2.88909E-14
 -1      2286 5.45510E-03-5.26059E-04-3.27459E-14
 -1      2287 5.59786E-03-5.24654E-04-3.43753E-14
 -1      2288 5.38391E-03-4.89653E-04-3.20055E-14
 -1      2289 5.74069E-03-5.23144E-04-3.60403E-14
 -1      2290 5.88360E-03-5.21524E-04-3.77404E-14
 -1      2291 5.66951E-03-4.86853E-04-3.52617E-14
 -1      2292 6.02659E-03-5.19773E-04-3.94758E-14
 -1      2293 6.16967E-03-5.17885E-04-4.12457E-14
 -1      2294 5.95534E-03-4.83626E-04-3.86603E-14
 -1      2295 6.31285E-03-5.15836E-04-4.30522E-14
 -1      2296 6.45615E-03-5.13622E-04-4.48910E-14
 -1      2297 6.24144E-03-4.79863E-04-4.21990E-14
 -1      2298 6.59957E-03-5.11221E-04-4.67643E-14
 -1      2299 6.74314E-03-5.08630E-04-4.86717E-14
 -1      2300 6.52785E-03-4.75449E-04-4.58761E-14
 -1      2301 6.88687E-03-5.05832E-04-5.06110E-14
 -1      2302 7.03080E-03-5.02829E-04-5.25826E-14
 -1      2303 6.81467E-03-4.70278E-04-4.96865E-14
 -1      2304 7.17492E-03-4.99613E-04-5.45848E-14
 -1      2305 7.31930E-03-4.96196E-04-5.66174E-14
 -1      2306 7.10201E-03-4.64278E-04-5.36258E-14
 -1      2307 7.46392E-03-4.92582E-04-5.86796E-14
 -1      2308 7.60887E-03-4.88798E-04-6.07704E-14
 -1      2309 7.39001E-03-4.57436E-04-5.76879E-14
 -1      2310 7.75413E-03-4.84874E-04-6.28892E-14
 -1      2311 7.89980E-03-4.80856E-04-6.50347E-14
 -1      2312 7.67884E-03-4.49839E-04-6.18653E-14
 -1      2313 8.04586E-03-4.76808E-04-6.72077E-14
 -1      2314 8.19243E-03-4.72806E-04-6.94081E-14
 -1      2315 7.96874E-03-4.41733E-04-6.61541E-14
 -1      2316 8.33947E-03-4.68964E-04-7.16327E-14
 -1      2317 8.48714E-03-4.65397E-04-7.38820E-14
 -1      2318 8.25998E-03-4.33594E-04-7.05491E-14
 -1      2319 8.63540E-03-4.62287E-04-7.61547E-14
 -1      2320 8.78439E-03-4.59803E-04-7.84482E-14
 -1      2321 8.55291E-03-4.26218E-04-7.50444E-14
 -1      2322 8.93412E-03-4.58211E-04-8.07643E-14
 -1      2323 9.08471E-03-4.57751E-04-8.31019E-14
 -1      2324 8.84798E-03-4.20836E-04-7.96290E-14
 -1      2325 9.23620E-03-4.58787E-04-8.54583E-14
 -1      2326 9.38869E-03-4.61646E-04-8.78362E-14
 -1      2327 9.14578E-03-4.19241E-04-8.42989E-14
 -1      2328 9.54229E-03-4.66792E-04-9.02337E-14
 -1      2329 9.69700E-03-4.74654E-04-9.26484E-14
 -1      2330 9.44708E-03-4.23907E-04-8.90514E-14
 -1      2331 9.85306E-03-4.85764E-04-9.50827E-14
 -1      2332 1.00103E-02-5.00654E-04-9.75339E-14
 -1      2333 9.75291E-03-4.38074E-04-9.38790E-14
 -1      2334 1.01692E-02-5.19846E-04-1.00002E-13
 -1      2335 1.03292E-02-5.43926E-04-1.02488E-13
 -1      2336 1.00645E-02-4.65726E-04-9.87770E-14
 -1      2337 1.04910E-02-5.73261E-04-1.04989E-13
 -1      2338 1.06537E-02-6.08334E-04-1.07505E-13
 -1      2339 1.03832E-02-5.11310E-04-1.03742E-13
 -1      2340 1.08180E-02-6.49131E-04-1.10035E-13
 -1      2341 1.09826E-02-6.95661E-04-1.12581E-13
 -1      2342 1.07099E-02-5.78971E-04-1.08771E-13
 -1      2343 1.11481E-02-7.47207E-04-1.15140E-13
 -1      2344 1.13127E-02-8.02871E-04-1.17716E-13
 -1      2345 1.10437E-02-6.70739E-04-1.13859E-13
 -1      2346 1.14768E-02-8.61013E-04-1.20307E-13
 -1      2347 1.16386E-02-9.18938E-04-1.22912E-13
 -1      2348 1.13812E-02-7.83487E-04-1.19007E-13
 -1      2349 1.17978E-02-9.73961E-04-1.25532E-13
 -1      2350 1.19538E-02-1.02217E-03-1.28168E-13
 -1      2351 1.17153E-02-9.04403E-04-1.24216E-13
 -1      2352 1.21059E-02-1.06040E-03-1.30820E-13
 -1      2353 1.22554E-02-1.08455E-03-1.33485E-13
 -1      2354 1.20380E-02-1.00801E-03-1.29484E-13
 -1      2355 1.24014E-02-1.09233E-03-1.36163E-13
 -1      2356 1.25471E-02-1.08173E-03-1.38857E-13
 -1      2357 1.23464E-02-1.06208E-03-1.34811E-13
 -1      2358 1.26917E-02-1.05244E-03-1.41561E-13
 -1      2359 1.28380E-02-1.00587E-03-1.44277E-13
 -1      2360 1.26469E-02-1.04135E-03-1.40192E-13
 -1      2361 1.29854E-02-9.43691E-04-1.47002E-13
 -1      2362 1.31351E-02-8.69288E-04-1.49733E-13
 -1      2363 1.29504E-02-9.43579E-04-1.45618E-13
 -1      2364 1.32863E-02-7.85067E-04-1.52475E-13
 -1      2365 1.34385E-02-6.94387E-04-1.55226E-13
 -1      2366 1.32628E-02-7.88901E-04-1.51084E-13
 -1      2367 1.35912E-02-5.99235E-04-1.57983E-13
 -1      2368 1.37430E-02-5.01256E-04-1.60746E-13
 -1      2369 1.35806E-02-6.04263E-04-1.56580E-13
 -1      2370 1.86535E-03 5.25240E-04-3.56109E-15
 -1      2371 1.72511E-03 5.12487E-04-3.02139E-15
 -1      2372 2.14545E-03 5.44527E-04-4.77377E-15
 -1      2373 2.00545E-03 5.35860E-04-4.14519E-15
 -1      2374 1.92465E-03 4.94623E-04-3.95287E-15
 -1      2375 2.42552E-03 5.57324E-04-6.16353E-15
 -1      2376 2.28547E-03 5.51631E-04-5.44663E-15
 -1      2377 2.20676E-03 5.11891E-04-5.21963E-15
 -1      2378 2.70594E-03 5.65437E-04-7.72626E-15
 -1      2379 2.56568E-03 5.61885E-04-6.92329E-15
 -1      2380 2.48871E-03 5.23210E-04-6.66089E-15
 -1      2381 2.98691E-03 5.70221E-04-9.46148E-15
 -1      2382 2.84636E-03 5.68183E-04-8.57235E-15
 -1      2383 2.77081E-03 5.30250E-04-8.27380E-15
 -1      2384 3.26851E-03 5.72682E-04-1.13657E-14
 -1      2385 3.12764E-03 5.71695E-04-1.03927E-14
 -1      2386 3.05322E-03 5.34266E-04-1.00577E-14
 -1      2387 3.55075E-03 5.73557E-04-1.34385E-14
 -1      2388 3.40956E-03 5.73283E-04-1.23814E-14
 -1      2389 3.33603E-03 5.36185E-04-1.20097E-14
 -1      2390 3.83358E-03 5.73372E-04-1.56756E-14
 -1      2391 3.69210E-03 5.73572E-04-1.45365E-14
 -1      2392 3.61926E-03 5.36686E-04-1.41272E-14
 -1      2393 4.11695E-03 5.72490E-04-1.80751E-14
 -1      2394 3.97521E-03 5.73001E-04-1.68553E-14
 -1      2395 3.90290E-03 5.36247E-04-1.64076E-14
 -1      2396 4.40079E-03 5.71145E-04-2.06355E-14
 -1      2397 4.25882E-03 5.71864E-04-1.93355E-14
 -1      2398 4.18692E-03 5.35193E-04-1.88494E-14
 -1      2399 4.68504E-03 5.69473E-04-2.33538E-14
 -1      2400 4.54287E-03 5.70343E-04-2.19756E-14
 -1      2401 4.47128E-03 5.33729E-04-2.14514E-14
 -1      2402 4.96966E-03 5.67533E-04-2.62248E-14
 -1      2403 4.82731E-03 5.68534E-04-2.47698E-14
 -1      2404 4.75595E-03 5.31969E-04-2.42078E-14
 -1      2405 5.25460E-03 5.65326E-04-2.92464E-14
 -1      2406 5.11209E-03 5.66463E-04-2.77172E-14
 -1      2407 5.04090E-03 5.29952E-04-2.71167E-14
 -1      2408 5.53987E-03 5.62803E-04-3.24161E-14
 -1      2409 5.39720E-03 5.64106E-04-3.08122E-14
 -1      2410 5.32610E-03 5.27663E-04-3.01757E-14
 -1      2411 5.82548E-03 5.59883E-04-3.57298E-14
 -1      2412 5.68263E-03 5.61396E-04-3.40552E-14
 -1      2413 5.61158E-03 5.25045E-04-3.33810E-14
 -1      2414 6.11148E-03 5.56458E-04-3.91815E-14
 -1      2415 5.96843E-03 5.58238E-04-3.74386E-14
 -1      2416 5.89733E-03 5.22005E-04-3.67292E-14
 -1      2417 6.39795E-03 5.52407E-04-4.27649E-14
 -1      2418 6.25465E-03 5.54516E-04-4.09570E-14
 -1      2419 6.18343E-03 5.18430E-04-4.02131E-14
 -1      2420 6.68503E-03 5.47605E-04-4.64795E-14
 -1      2421 6.54140E-03 5.50104E-04-4.46067E-14
 -1      2422 6.46993E-03 5.14192E-04-4.38295E-14
 -1      2423 6.97289E-03 5.41939E-04-5.03179E-14
 -1      2424 6.82884E-03 5.44881E-04-4.83828E-14
 -1      2425 6.75696E-03 5.09165E-04-4.75731E-14
 -1      2426 7.26177E-03 5.35337E-04-5.42801E-14
 -1      2427 7.11718E-03 5.38753E-04-5.22832E-14
 -1      2428 7.04465E-03 5.03241E-04-5.14412E-14
 -1      2429 7.55196E-03 5.27794E-04-5.83665E-14
 -1      2430 7.40667E-03 5.31674E-04-5.63086E-14
 -1      2431 7.33319E-03 4.96353E-04-5.54353E-14
 -1      2432 7.84385E-03 5.19429E-04-6.25695E-14
 -1      2433 7.69765E-03 5.23696E-04-6.04536E-14
 -1      2434 7.62283E-03 4.88516E-04-5.95502E-14
 -1      2435 8.13788E-03 5.10547E-04-6.68916E-14
 -1      2436 7.99055E-03 5.15020E-04-6.47162E-14
 -1      2437 7.91384E-03 4.79876E-04-6.37816E-14
 -1      2438 8.43459E-03 5.01747E-04-7.13214E-14
 -1      2439 8.28584E-03 5.06084E-04-6.90922E-14
 -1      2440 8.20657E-03 4.70785E-04-6.81276E-14
 -1      2441 8.73457E-03 4.94053E-04-7.58589E-14
 -1      2442 8.58409E-03 4.97679E-04-7.35777E-14
 -1      2443 8.50143E-03 4.61903E-04-7.25850E-14
 -1      2444 9.03852E-03 4.89103E-04-8.04924E-14
 -1      2445 8.88597E-03 4.91110E-04-7.81637E-14
 -1      2446 8.79890E-03 4.54344E-04-7.71442E-14
 -1      2447 9.34719E-03 4.89391E-04-8.52146E-14
 -1      2448 9.19219E-03 4.88411E-04-8.28432E-14
 -1      2449 9.09955E-03 4.49861E-04-8.17972E-14
 -1      2450 9.66141E-03 4.98536E-04-9.00167E-14
 -1      2451 9.50354E-03 4.92600E-04-8.76064E-14
 -1      2452 9.40412E-03 4.51081E-04-8.65384E-14
 -1      2453 9.98205E-03 5.21545E-04-9.48896E-14
 -1      2454 9.82089E-03 5.07960E-04-9.24442E-14
 -1      2455 9.71357E-03 4.61773E-04-9.13582E-14
 -1      2456 1.03100E-02 5.64889E-04-9.98313E-14
 -1      2457 1.01451E-02 5.40231E-04-9.73524E-14
 -1      2458 1.00292E-02 4.87098E-04-9.62457E-14
 -1      2459 1.06459E-02 6.36089E-04-1.04837E-13
 -1      2460 1.04771E-02 5.96510E-04-1.02325E-13
 -1      2461 1.03529E-02 5.33702E-04-1.01200E-13
 -1      2462 1.09898E-02 7.42180E-04-1.09904E-13
 -1      2463 1.08173E-02 6.84375E-04-1.07364E-13
 -1      2464 1.06866E-02 6.09356E-04-1.06219E-13
 -1      2465 1.13393E-02 8.86174E-04-1.15033E-13
 -1      2466 1.11646E-02 8.09483E-04-1.12461E-13
 -1      2467 1.10318E-02 7.21499E-04-1.11299E-13
 -1      2468 1.16889E-02 1.06092E-03-1.20220E-13
 -1      2469 1.15151E-02 9.70718E-04-1.17620E-13
 -1      2470 1.13874E-02 8.73433E-04-1.16436E-13
 -1      2471 1.20288E-02 1.24213E-03-1.25464E-13
 -1      2472 1.18609E-02 1.15324E-03-1.22833E-13
 -1      2473 1.17466E-02 1.05714E-03-1.21633E-13
 -1      2474 1.23507E-02 1.38668E-03-1.30768E-13
 -1      2475 1.21920E-02 1.32235E-03-1.28108E-13
 -1      2476 1.20971E-02 1.24345E-03-1.26884E-13
 -1      2477 1.26552E-02 1.44805E-03-1.36134E-13
 -1      2478 1.25034E-02 1.42994E-03-1.33444E-13
 -1      2479 1.24285E-02 1.38149E-03-1.32198E-13
 -1      2480 1.29548E-02 1.40542E-03-1.41549E-13
 -1      2481 1.28033E-02 1.43967E-03-1.38835E-13
 -1      2482 1.27432E-02 1.42074E-03-1.37570E-13
 -1      2483 1.32635E-02 1.27444E-03-1.47020E-13
 -1      2484 1.31074E-02 1.34834E-03-1.44279E-13
 -1      2485 1.30605E-02 1.34562E-03-1.42999E-13
 -1      2486 1.35816E-02 1.09489E-03-1.52529E-13
 -1      2487 1.34220E-02 1.18812E-03-1.49770E-13
 -1      2488 1.33913E-02 1.18938E-03-1.48478E-13
 -1      2489 1.39005E-02 9.00500E-04-1.58080E-13
 -1      2490 1.37419E-02 9.98191E-04-1.55300E-13
 -1      2491 1.37294E-02 9.98787E-04-1.53998E-13
 -1      2492 1.42113E-02 7.05762E-04-1.63657E-13
 -1      2493 1.40576E-02 8.03247E-04-1.60864E-13
 -1      2494 1.40617E-02 8.05277E-04-1.59550E-13
 -1      2495 1.43647E-02 6.05864E-04-1.66549E-13
 -1      2496 1.52574E-02 2.89146E-04-1.65650E-13
 -1      2497 1.51254E-02 3.25605E-04-1.65576E-13
 -1      2498 1.54739E-02 2.42130E-04-1.65786E-13
 -1      2499 1.53773E-02 2.61020E-04-1.65719E-13
 -1      2500 1.52053E-02 2.92988E-04-1.63276E-13
 -1      2501 1.47268E-02 4.66595E-04-1.65339E-13
 -1      2502 1.46031E-02 5.17044E-04-1.65255E-13
 -1      2503 1.49895E-02 3.69349E-04-1.65497E-13
 -1      2504 1.48561E-02 4.15947E-04-1.65419E-13
 -1      2505 1.46487E-02 5.01164E-04-1.62962E-13
 -1      2506 1.49245E-02 3.86415E-04-1.63126E-13
 -1      2507 1.55668E-02 2.27357E-04-1.65911E-13
 -1      2508 1.55401E-02 2.33426E-04-1.65851E-13
 -1      2509 1.54200E-02 2.41276E-04-1.63411E-13
 -1      2510 1.54961E-02 2.17688E-04-1.66025E-13
 -1      2511 1.55519E-02 2.26089E-04-1.65971E-13
 -1      2512 1.54831E-02 2.24258E-04-1.63536E-13
 -1      2513 1.52857E-02 1.80146E-04-1.66123E-13
 -1      2514 1.54036E-02 2.04182E-04-1.66074E-13
 -1      2515 1.53582E-02 2.00758E-04-1.63644E-13
 -1      2516 1.50130E-02 1.07779E-04-1.66209E-13
 -1      2517 1.51530E-02 1.47560E-04-1.66168E-13
 -1      2518 1.51015E-02 1.37762E-04-1.63738E-13
 -1      2519 1.47295E-02 1.06343E-05-1.66288E-13
 -1      2520 1.48691E-02 6.04559E-05-1.66249E-13
 -1      2521 1.48040E-02 3.70341E-05-1.63822E-13
 -1      2522 1.44739E-02-9.37297E-05-1.66358E-13
 -1      2523 1.45976E-02-4.20284E-05-1.66323E-13
 -1      2524 1.45201E-02-8.13744E-05-1.63900E-13
 -1      2525 1.42530E-02-1.95505E-04-1.66420E-13
 -1      2526 1.43595E-02-1.45741E-04-1.66388E-13
 -1      2527 1.42756E-02-1.97979E-04-1.63969E-13
 -1      2528 1.41621E-02-2.25181E-04-1.67978E-13
 -1      2529 1.53000E-02 2.10441E-04-1.55718E-13
 -1      2530 1.52279E-02 1.95150E-04-1.55366E-13
 -1      2531 1.58458E-03 4.97053E-04-2.52680E-15
 -1      2532 1.44364E-03 4.78725E-04-2.07778E-15
 -1      2533 1.64191E-03 4.69198E-04-2.86323E-15
 -1      2534 1.52652E-02 2.35319E-04-1.55677E-13
 -1      2535 1.53084E-02 2.26252E-04-1.55923E-13
 -1      2536 1.50932E-02 1.60762E-04-1.54832E-13
 -1      2537 1.49385E-02 1.17871E-04-1.54235E-13
 -1      2538 5.88506E-04-2.37947E-04-4.95372E-16
 -1      2539 7.81342E-04-3.04761E-04-7.85992E-16
 -1      2540 8.40754E-04-2.93567E-04-9.60752E-16
 -1      2541 5.78982E-04-2.10175E-04-5.26218E-16
 -1      2542 1.33446E-02-6.85698E-04-1.44867E-13
 -1      2543 1.31548E-02-7.97275E-04-1.43078E-13
 -1      2544 5.46558E-04-2.28962E-05-6.07993E-16
 -1      2545 5.47018E-04-3.89339E-05-6.08224E-16
 -1      2546 6.62474E-04-5.58056E-05-8.22286E-16
 -1      2547 6.61240E-04-1.77022E-05-8.21541E-16
 -1      2548 1.28118E-02 1.34783E-03-1.37665E-13
 -1      2549 1.29663E-02 1.31297E-03-1.39645E-13
 -1      2550 1.17549E-02 8.66383E-04-1.26605E-13
 -1      2551 1.19284E-02 9.85906E-04-1.28005E-13
 -1      2552 1.25527E-02 1.32469E-03-1.34407E-13
 -1      2553 1.26804E-02 1.34919E-03-1.36033E-13
 -1      2554 1.27494E-02 1.35613E-03-1.36988E-13
 -1      2555 1.04335E-02 6.06307E-05-1.19193E-13
 -1      2556 1.03407E-02 8.52707E-05-1.18457E-13
 -1      2557 1.13738E-02 6.18634E-04-1.23779E-13
 -1      2558 1.15633E-02 7.39984E-04-1.25150E-13
 -1      2559 1.09391E-02 3.78868E-04-1.21073E-13
 -1      2560 1.11379E-02 4.81044E-04-1.22193E-13
 -1      2561 1.03307E-02 1.43934E-04-1.18719E-13
 -1      2562 1.03998E-02 1.63713E-04-1.18905E-13
 -1      2563 1.02820E-02 1.09926E-04-1.18212E-13
 -1      2564 1.02858E-02 1.22914E-04-1.18467E-13
 -1      2565 1.02883E-02 1.26586E-04-1.17249E-13
 -1      2566 1.07258E-02-4.32338E-05-1.20495E-13
 -1      2567 1.05634E-02 1.58146E-05-1.19846E-13
 -1      2568 1.04879E-02 3.57108E-05-1.18132E-13
 -1      2569 1.11112E-02-2.20136E-04-1.22637E-13
 -1      2570 1.09273E-02-1.30809E-04-1.21574E-13
 -1      2571 1.15421E-02-4.62973E-04-1.25737E-13
 -1      2572 1.13469E-02-3.47314E-04-1.24248E-13
 -1      2573 1.19370E-02-7.06047E-04-1.29132E-13
 -1      2574 1.17517E-02-5.89612E-04-1.27465E-13
 -1      2575 1.22993E-02-8.95335E-04-1.33015E-13
 -1      2576 1.21459E-02-8.21300E-04-1.31259E-13
 -1      2577 1.26137E-02-9.63501E-04-1.36841E-13
 -1      2578 1.24707E-02-9.46282E-04-1.35049E-13
 -1      2579 1.29399E-02-8.96015E-04-1.40807E-13
 -1      2580 1.27824E-02-9.46910E-04-1.38897E-13
 -1      2581 1.37436E-02-4.41193E-04-1.48151E-13
 -1      2582 1.35552E-02-5.58595E-04-1.46696E-13
 -1      2583 1.47870E-02 6.61563E-05-1.53604E-13
 -1      2584 1.46171E-02 2.89405E-06-1.52974E-13
 -1      2585 1.49003E-02 1.10255E-04-1.55394E-13
 -1      2586 1.40192E-02 7.40711E-04-1.48664E-13
 -1      2587 1.42198E-02 6.30616E-04-1.50027E-13
 -1      2588 1.50114E-02 3.00410E-04-1.54490E-13
 -1      2589 1.51620E-02 2.61577E-04-1.55085E-13
 -1      2590 1.52339E-02 2.45477E-04-1.56929E-13
 -1      2591 7.57937E-04 3.34191E-04-5.48159E-16
 -1      2592 6.11513E-04 2.84832E-04-3.63316E-16
 -1      2593 5.84784E-04 2.58062E-04-3.75283E-16
 -1      2594 8.13758E-04 3.22860E-04-7.12104E-16
 -1      2595 1.36104E-02 9.82830E-04-1.45663E-13
 -1      2596 1.38119E-02 8.60262E-04-1.47162E-13
 -1      2597 1.39031E-02 7.99497E-04-1.48732E-13
 -1      2598 1.29799E-02 1.31627E-03-1.40281E-13
 -1      2599 1.30829E-02 1.27182E-03-1.41305E-13
 -1      2600 1.31958E-02 1.21755E-03-1.42972E-13
 -1      2601 6.70187E-04-1.37958E-04-7.97336E-16
 -1      2602 5.54545E-04-1.26220E-04-5.83206E-16
 -1      2603 5.57742E-04-1.46218E-04-5.70751E-16
 -1      2604 1.35787E-03 4.32704E-04-1.95292E-15
 -1      2605 5.72277E-04 2.27864E-04-4.16672E-16
 -1      2606 1.35089E-02 1.03560E-03-1.45611E-13
 -1      2607 1.49060E-02 3.32539E-04-1.54662E-13
 -1      2608 1.50308E-02 2.99409E-04-1.56509E-13
 -1      2609 1.47963E-02 3.71325E-04-1.54833E-13
 -1      2610 1.34304E-02-6.25759E-04-1.46393E-13
 -1      2611 1.38872E-02-3.49553E-04-1.49705E-13
 -1      2612 1.37726E-02-4.13590E-04-1.49779E-13
 -1      2613 1.40296E-02-2.66667E-04-1.51266E-13
 -1      2614 1.51822E-02 1.86040E-04-1.56567E-13
 -1      2615 1.43702E-02 5.48456E-04-1.51612E-13
 -1      2616 1.45146E-02 4.82865E-04-1.53200E-13
 -1      2617 1.42531E-02 6.06997E-04-1.51824E-13
 -1      2618 1.43811E-02 6.13596E-04-1.65226E-13
 -1      2619 1.44493E-02 5.86091E-04-1.64986E-13
 -1      2620 1.30332E-02-8.52071E-04-1.42287E-13
 -1      2621 1.39738E-02-3.46972E-04-1.65097E-13
 -1      2622 1.41402E-02-2.55155E-04-1.65957E-13
 -1      2623 1.40545E-02-3.15000E-04-1.63539E-13
 -1      2624 1.38435E-02-4.35030E-04-1.62615E-13
 -1      2625 1.26865E-02-9.62679E-04-1.37956E-13
 -1      2626 1.53314E-02 2.18922E-04-1.57311E-13
 -1      2627 6.89560E-04 2.51214E-04-6.04524E-16
 -1      2628 1.23767E-02-9.30036E-04-1.33866E-13
 -1      2629 1.20301E-02-7.70235E-04-1.29707E-13
 -1      2630 1.44710E-02-5.16615E-05-1.52972E-13
 -1      2631 1.43329E-02-1.13384E-04-1.52971E-13
 -1      2632 1.46171E-02 1.09092E-05-1.54759E-13
 -1      2633 1.16396E-02-5.32923E-04-1.25860E-13
 -1      2634 1.02923E-02 9.62030E-05-1.17243E-13
 -1      2635 1.02576E-02 1.00047E-04-1.16028E-13
 -1      2636 1.03142E-02 8.16825E-05-1.16270E-13
 -1      2637 1.08166E-02 3.17797E-04-1.19818E-13
 -1      2638 1.09046E-02 3.62410E-04-1.19269E-13
 -1      2639 1.07034E-02 2.71714E-04-1.18567E-13
 -1      2640 1.12527E-02 5.46381E-04-1.22102E-13
 -1      2641 1.24532E-02 1.29626E-03-1.33108E-13
 -1      2642 1.25350E-02 1.33296E-03-1.34055E-13
 -1      2643 1.23589E-02 1.25610E-03-1.31813E-13
 -1      2644 5.71743E-04-1.85297E-04-5.50653E-16
 -1      2645 1.04607E-02 1.82203E-04-1.18307E-13
 -1      2646 1.20498E-02 1.06581E-03-1.28724E-13
 -1      2647 1.21495E-02 1.13707E-03-1.29445E-13
 -1      2648 1.19533E-02 1.00668E-03-1.27306E-13
 -1      2649 1.16616E-02 8.03701E-04-1.25136E-13
 -1      2650 1.08036E-02-8.39286E-05-1.19853E-13
 -1      2651 1.12189E-02-2.87020E-04-1.22531E-13
 -1      2652 1.43662E-02 6.36627E-04-1.62609E-13
 -1      2653 1.38433E-02-4.41752E-04-1.61208E-13
 -1      2654 7.80155E-04 7.73250E-05-1.03697E-15
 -1      2655 7.78891E-04 5.54659E-05-1.04814E-15
 -1      2656 7.78042E-04 3.35564E-05-1.05716E-15
 -1      2657 7.77618E-04 1.18948E-05-1.06410E-15
 -1      2658 8.96448E-04 4.96768E-05-1.33212E-15
 -1      2659 7.91525E-04 1.73114E-04-9.63178E-16
 -1      2660 7.87510E-04 1.47700E-04-9.86949E-16
 -1      2661 8.03404E-04 2.28309E-04-9.01704E-16
 -1      2662 7.96774E-04 1.99919E-04-9.35368E-16
 -1      2663 9.14830E-04 2.07812E-04-1.20866E-15
 -1      2664 1.12985E-03 3.61936E-04-1.45305E-15
 -1      2665 9.86242E-04 3.32866E-04-1.12623E-15
 -1      2666 1.24413E-02-9.58053E-04-1.34766E-13
 -1      2667 1.22950E-02-9.13992E-04-1.32733E-13
 -1      2668 1.41609E-03 4.07839E-04-2.24092E-15
 -1      2669 1.27304E-03 3.86805E-04-1.82455E-15
 -1      2670 1.18968E-03 3.41483E-04-1.69323E-15
 -1      2671 1.49842E-02 1.35058E-04-1.57152E-13
 -1      2672 1.48457E-02 9.42923E-05-1.56515E-13
 -1      2673 1.32016E-03-3.62752E-04-2.24660E-15
 -1      2674 1.46339E-03-3.81739E-04-2.71674E-15
 -1      2675 1.60643E-03-3.97825E-04-3.23153E-15
 -1      2676 1.74937E-03-4.11243E-04-3.79178E-15
 -1      2677 1.52498E-03-3.55410E-04-3.01645E-15
 -1      2678 1.89214E-03-4.22461E-04-4.39633E-15
 -1      2679 2.03480E-03-4.31665E-04-5.04508E-15
 -1      2680 1.81167E-03-3.81330E-04-4.14121E-15
 -1      2681 2.17735E-03-4.39231E-04-5.73842E-15
 -1      2682 2.31982E-03-4.45312E-04-6.47514E-15
 -1      2683 2.09812E-03-3.99207E-04-5.44286E-15
 -1      2684 2.46223E-03-4.50198E-04-7.25451E-15
 -1      2685 2.60460E-03-4.54011E-04-8.07769E-15
 -1      2686 2.38430E-03-4.11057E-04-6.91840E-15
 -1      2687 2.74695E-03-4.56969E-04-8.94319E-15
 -1      2688 2.88928E-03-4.59166E-04-9.85015E-15
 -1      2689 2.67024E-03-4.18503E-04-8.56509E-15
 -1      2690 3.03163E-03-4.60764E-04-1.07987E-14
 -1      2691 3.17397E-03-4.61837E-04-1.17877E-14
 -1      2692 2.95601E-03-4.22803E-04-1.03795E-14
 -1      2693 3.31635E-03-4.62499E-04-1.28177E-14
 -1      2694 3.45874E-03-4.62806E-04-1.38884E-14
 -1      2695 3.24168E-03-4.24907E-04-1.23577E-14
 -1      2696 3.60116E-03-4.62841E-04-1.49979E-14
 -1      2697 3.74360E-03-4.62640E-04-1.61467E-14
 -1      2698 3.52729E-03-4.25515E-04-1.44961E-14
 -1      2699 3.88609E-03-4.62261E-04-1.73351E-14
 -1      2700 4.02859E-03-4.61731E-04-1.85613E-14
 -1      2701 3.81288E-03-4.25131E-04-1.67929E-14
 -1      2702 4.17113E-03-4.61083E-04-1.98253E-14
 -1      2703 4.31370E-03-4.60336E-04-2.11278E-14
 -1      2704 4.09846E-03-4.24099E-04-1.92437E-14
 -1      2705 4.45630E-03-4.59509E-04-2.24676E-14
 -1      2706 4.59893E-03-4.58612E-04-2.38432E-14
 -1      2707 4.38405E-03-4.22645E-04-2.18457E-14
 -1      2708 4.74160E-03-4.57652E-04-2.52560E-14
 -1      2709 4.88428E-03-4.56632E-04-2.67051E-14
 -1      2710 4.66967E-03-4.20896E-04-2.45959E-14
 -1      2711 5.02700E-03-4.55552E-04-2.81897E-14
 -1      2712 5.16975E-03-4.54409E-04-2.97106E-14
 -1      2713 4.95531E-03-4.18908E-04-2.74910E-14
 -1      2714 5.31253E-03-4.53196E-04-3.12668E-14
 -1      2715 5.45534E-03-4.51908E-04-3.28584E-14
 -1      2716 5.24099E-03-4.16681E-04-3.05304E-14
 -1      2717 5.59818E-03-4.50531E-04-3.44859E-14
 -1      2718 5.74105E-03-4.49058E-04-3.61491E-14
 -1      2719 5.52671E-03-4.14169E-04-3.37125E-14
 -1      2720 5.88396E-03-4.47472E-04-3.78473E-14
 -1      2721 6.02691E-03-4.45762E-04-3.95802E-14
 -1      2722 5.81248E-03-4.11296E-04-3.70368E-14
 -1      2723 6.16991E-03-4.43911E-04-4.13486E-14
 -1      2724 6.31295E-03-4.41908E-04-4.31527E-14
 -1      2725 6.09830E-03-4.07961E-04-4.05011E-14
 -1      2726 6.45604E-03-4.39735E-04-4.49898E-14
 -1      2727 6.59920E-03-4.37382E-04-4.68593E-14
 -1      2728 6.38419E-03-4.04054E-04-4.41051E-14
 -1      2729 6.74241E-03-4.34833E-04-4.87645E-14
 -1      2730 6.88571E-03-4.32082E-04-5.07014E-14
 -1      2731 6.67016E-03-3.99461E-04-4.78438E-14
 -1      2732 7.02908E-03-4.29119E-04-5.26688E-14
 -1      2733 7.17257E-03-4.25942E-04-5.46672E-14
 -1      2734 6.95623E-03-3.94086E-04-5.17150E-14
 -1      2735 7.31614E-03-4.22554E-04-5.66974E-14
 -1      2736 7.45986E-03-4.18961E-04-5.87564E-14
 -1      2737 7.24243E-03-3.87872E-04-5.57088E-14
 -1      2738 7.60369E-03-4.15185E-04-6.08437E-14
 -1      2739 7.74771E-03-4.11246E-04-6.29597E-14
 -1      2740 7.52881E-03-3.80829E-04-5.98236E-14
 -1      2741 7.89188E-03-4.07191E-04-6.51017E-14
 -1      2742 8.03629E-03-4.03063E-04-6.72713E-14
 -1      2743 7.81544E-03-3.73077E-04-6.40516E-14
 -1      2744 8.18091E-03-3.98946E-04-6.94684E-14
 -1      2745 8.32583E-03-3.94915E-04-7.16897E-14
 -1      2746 8.10243E-03-3.64899E-04-6.83885E-14
 -1      2747 8.47104E-03-3.91104E-04-7.39354E-14
 -1      2748 8.61664E-03-3.87630E-04-7.62044E-14
 -1      2749 8.38997E-03-3.56813E-04-7.28286E-14
 -1      2750 8.76266E-03-3.84691E-04-7.84959E-14
 -1      2751 8.90921E-03-3.82467E-04-8.08086E-14
 -1      2752 8.67837E-03-3.49653E-04-7.73629E-14
 -1      2753 9.05634E-03-3.81226E-04-8.31422E-14
 -1      2754 9.20421E-03-3.81240E-04-8.54952E-14
 -1      2755 8.96813E-03-3.44671E-04-8.19854E-14
 -1      2756 9.35293E-03-3.82847E-04-8.78711E-14
 -1      2757 9.50266E-03-3.86439E-04-9.02652E-14
 -1      2758 9.26008E-03-3.43659E-04-8.66915E-14
 -1      2759 9.65364E-03-3.92418E-04-9.26760E-14
 -1      2760 9.80602E-03-4.01334E-04-9.51068E-14
 -1      2761 9.55554E-03-3.49069E-04-9.14752E-14
 -1      2762 9.96018E-03-4.13612E-04-9.75544E-14
 -1      2763 1.01162E-02-4.29993E-04-1.00018E-13
 -1      2764 9.85644E-03-3.64155E-04-9.63317E-14
 -1      2765 1.02746E-02-4.50850E-04-1.02499E-13
 -1      2766 1.04354E-02-4.77104E-04-1.04996E-13
 -1      2767 1.01655E-02-3.93085E-04-1.01258E-13
 -1      2768 1.05992E-02-5.08963E-04-1.07509E-13
 -1      2769 1.07654E-02-5.47342E-04-1.10037E-13
 -1      2770 1.04858E-02-4.40963E-04-1.06248E-13
 -1      2771 1.09348E-02-5.92129E-04-1.12580E-13
 -1      2772 1.11059E-02-6.43513E-04-1.15136E-13
 -1      2773 1.08203E-02-5.13446E-04-1.11302E-13
 -1      2774 1.12792E-02-7.00735E-04-1.17710E-13
 -1      2775 1.14526E-02-7.62558E-04-1.20300E-13
 -1      2776 1.11689E-02-6.14613E-04-1.16413E-13
 -1      2777 1.16265E-02-8.27439E-04-1.22898E-13
 -1      2778 1.17972E-02-8.90391E-04-1.25515E-13
 -1      2779 1.15266E-02-7.41949E-04-1.21585E-13
 -1      2780 1.19646E-02-9.48453E-04-1.28151E-13
 -1      2781 1.21283E-02-9.95629E-04-1.30798E-13
 -1      2782 1.18822E-02-8.78891E-04-1.26820E-13
 -1      2783 1.22867E-02-1.02818E-03-1.33463E-13
 -1      2784 1.24435E-02-1.04021E-03-1.36138E-13
 -1      2785 1.22211E-02-9.86017E-04-1.32115E-13
 -1      2786 1.25972E-02-1.03008E-03-1.38827E-13
 -1      2787 1.27531E-02-9.97595E-04-1.41528E-13
 -1      2788 1.25443E-02-1.01633E-03-1.37465E-13
 -1      2789 1.29098E-02-9.44105E-04-1.44240E-13
 -1      2790 1.30706E-02-8.74336E-04-1.46963E-13
 -1      2791 1.28665E-02-9.46199E-04-1.42863E-13
 -1      2792 1.32343E-02-7.91536E-04-1.49692E-13
 -1      2793 1.33999E-02-7.01281E-04-1.52431E-13
 -1      2794 1.32021E-02-7.95221E-04-1.48303E-13
 -1      2795 1.35665E-02-6.06093E-04-1.55181E-13
 -1      2796 1.37319E-02-5.09281E-04-1.57936E-13
 -1      2797 1.35494E-02-6.06179E-04-1.53780E-13
 -1      2798 2.26923E-03 4.78615E-04-5.67141E-15
 -1      2799 2.12741E-03 4.71758E-04-4.98997E-15
 -1      2800 1.27369E-02-9.58018E-04-1.38994E-13
 -1      2801 1.25950E-02-9.73872E-04-1.36937E-13
 -1      2802 1.98549E-03 4.63279E-04-4.35227E-15
 -1      2803 1.84344E-03 4.53014E-04-3.75806E-15
 -1      2804 2.04764E-03 4.31351E-04-4.75845E-15
 -1      2805 2.83630E-03 4.94605E-04-8.82671E-15
 -1      2806 2.69453E-03 4.91993E-04-7.97383E-15
 -1      2807 3.11997E-03 4.97933E-04-1.06578E-14
 -1      2808 2.97812E-03 4.96558E-04-9.72143E-15
 -1      2809 2.90241E-03 4.58590E-04-9.38373E-15
 -1      2810 3.40385E-03 4.99383E-04-1.26563E-14
 -1      2811 3.26189E-03 4.98854E-04-1.16363E-14
 -1      2812 3.18719E-03 4.61295E-04-1.12624E-14
 -1      2813 3.68798E-03 4.99572E-04-1.48181E-14
 -1      2814 3.54589E-03 4.99608E-04-1.37166E-14
 -1      2815 3.47203E-03 4.62334E-04-1.33059E-14
 -1      2816 3.97237E-03 4.98930E-04-1.71420E-14
 -1      2817 3.83015E-03 4.99336E-04-1.59600E-14
 -1      2818 3.75697E-03 4.62261E-04-1.55123E-14
 -1      2819 4.25698E-03 4.97748E-04-1.96262E-14
 -1      2820 4.11465E-03 4.98394E-04-1.83643E-14
 -1      2821 4.04201E-03 4.61460E-04-1.78791E-14
 -1      2822 4.54183E-03 4.96201E-04-2.22680E-14
 -1      2823 4.39938E-03 4.97013E-04-2.09274E-14
 -1      2824 4.32717E-03 4.60185E-04-2.04053E-14
 -1      2825 4.82687E-03 4.94381E-04-2.50632E-14
 -1      2826 4.68433E-03 4.95322E-04-2.36466E-14
 -1      2827 4.61244E-03 4.58585E-04-2.30862E-14
 -1      2828 5.11211E-03 4.92311E-04-2.80104E-14
 -1      2829 4.96947E-03 4.93377E-04-2.65177E-14
 -1      2830 4.89782E-03 4.56731E-04-2.59206E-14
 -1      2831 5.39754E-03 4.89964E-04-3.11066E-14
 -1      2832 5.25481E-03 4.91174E-04-2.95408E-14
 -1      2833 5.18332E-03 4.54632E-04-2.89058E-14
 -1      2834 5.68317E-03 4.87271E-04-3.43483E-14
 -1      2835 5.54033E-03 4.88665E-04-3.27091E-14
 -1      2836 5.46893E-03 4.52248E-04-3.20390E-14
 -1      2837 5.96902E-03 4.84134E-04-3.77291E-14
 -1      2838 5.82607E-03 4.85763E-04-3.60208E-14
 -1      2839 5.75466E-03 4.49504E-04-3.53148E-14
 -1      2840 6.25513E-03 4.80435E-04-4.12456E-14
 -1      2841 6.11204E-03 4.82361E-04-3.94712E-14
 -1      2842 6.04053E-03 4.46297E-04-3.87295E-14
 -1      2843 6.54157E-03 4.76044E-04-4.48933E-14
 -1      2844 6.39830E-03 4.78332E-04-4.30534E-14
 -1      2845 6.32657E-03 4.42506E-04-4.22788E-14
 -1      2846 6.82840E-03 4.70837E-04-4.86678E-14
 -1      2847 6.68492E-03 4.73547E-04-4.67649E-14
 -1      2848 6.61281E-03 4.38003E-04-4.59574E-14
 -1      2849 7.11573E-03 4.64711E-04-5.25661E-14
 -1      2850 6.97198E-03 4.67892E-04-5.06014E-14
 -1      2851 6.89930E-03 4.32668E-04-4.97625E-14
 -1      2852 7.40370E-03 4.57615E-04-5.65902E-14
 -1      2853 7.25962E-03 4.61283E-04-5.45622E-14
 -1      2854 7.18609E-03 4.26410E-04-5.36921E-14
 -1      2855 7.69247E-03 4.49582E-04-6.07333E-14
 -1      2856 7.54796E-03 4.53707E-04-5.86472E-14
 -1      2857 7.47325E-03 4.19192E-04-5.77450E-14
 -1      2858 7.98224E-03 4.40790E-04-6.49933E-14
 -1      2859 7.83720E-03 4.45263E-04-6.28489E-14
 -1      2860 7.76085E-03 4.11073E-04-6.19185E-14
 -1      2861 8.27322E-03 4.31636E-04-6.93660E-14
 -1      2862 8.12754E-03 4.36226E-04-6.71663E-14
 -1      2863 8.04900E-03 4.02263E-04-6.62043E-14
 -1      2864 8.56572E-03 4.22840E-04-7.38472E-14
 -1      2865 8.41923E-03 4.27139E-04-7.15923E-14
 -1      2866 8.33781E-03 3.93200E-04-7.06036E-14
 -1      2867 8.86009E-03 4.15585E-04-7.84288E-14
 -1      2868 8.71261E-03 4.18933E-04-7.61267E-14
 -1      2869 8.62745E-03 3.84652E-04-7.51091E-14
 -1      2870 9.15683E-03 4.11699E-04-8.31029E-14
 -1      2871 9.00809E-03 4.13089E-04-8.07556E-14
 -1      2872 8.91817E-03 3.77847E-04-7.97144E-14
 -1      2873 9.45672E-03 4.13878E-04-8.78618E-14
 -1      2874 9.30629E-03 4.11833E-04-8.54710E-14
 -1      2875 9.21046E-03 3.74639E-04-8.44072E-14
 -1      2876 9.76094E-03 4.25937E-04-9.26948E-14
 -1      2877 9.60818E-03 4.18384E-04-9.02693E-14
 -1      2878 9.50515E-03 3.77712E-04-8.91822E-14
 -1      2879 1.00714E-02 4.53065E-04-9.75993E-14
 -1      2880 9.91527E-03 4.37206E-04-9.51393E-14
 -1      2881 9.80376E-03 3.90812E-04-9.40324E-14
 -1      2882 1.03910E-02 5.01983E-04-1.02568E-13
 -1      2883 1.02299E-02 4.74232E-04-1.00076E-13
 -1      2884 1.01089E-02 4.19032E-04-9.89511E-14
 -1      2885 1.07234E-02 5.80794E-04-1.07601E-13
 -1      2886 1.05556E-02 5.36939E-04-1.05078E-13
 -1      2887 1.04248E-02 4.69145E-04-1.03937E-13
 -1      2888 1.10720E-02 6.97823E-04-1.12690E-13
 -1      2889 1.08959E-02 6.33837E-04-1.10138E-13
 -1      2890 1.07569E-02 5.49865E-04-1.08980E-13
 -1      2891 1.14366E-02 8.57556E-04-1.17836E-13
 -1      2892 1.12532E-02 7.72219E-04-1.15255E-13
 -1      2893 1.11106E-02 6.71239E-04-1.14079E-13
 -1      2894 1.18088E-02 1.05211E-03-1.23040E-13
 -1      2895 1.16233E-02 9.52120E-04-1.20433E-13
 -1      2896 1.14864E-02 8.40543E-04-1.19234E-13
 -1      2897 1.21730E-02 1.24645E-03-1.28302E-13
 -1      2898 1.19935E-02 1.15356E-03-1.25664E-13
 -1      2899 1.18737E-02 1.04984E-03-1.24447E-13
 -1      2900 1.25264E-02 1.36486E-03-1.33819E-13
 -1      2901 1.23509E-02 1.30866E-03-1.31150E-13
 -1      2902 1.28853E-02 1.36367E-03-1.39454E-13
 -1      2903 1.27100E-02 1.38291E-03-1.36759E-13
 -1      2904 1.35323E-02 1.09321E-03-1.49937E-13
 -1      2905 1.33537E-02 1.18845E-03-1.47186E-13
 -1      2906 1.38897E-02 8.95912E-04-1.55465E-13
 -1      2907 1.37127E-02 9.94046E-04-1.52696E-13
 -1      2908 1.36924E-02 9.86810E-04-1.51395E-13
 -1      2909 1.42154E-02 7.17192E-04-1.60420E-13
 -1      2910 1.40448E-02 8.09713E-04-1.57642E-13
 -1      2911 1.40444E-02 7.97956E-04-1.56333E-13
 -1      2912 1.43662E-02 6.35085E-04-1.60694E-13
 -1      2913 1.53545E-02 2.13237E-04-1.60344E-13
 -1      2914 1.53939E-02 2.25608E-04-1.60284E-13
 -1      2915 1.38413E-02-4.44518E-04-1.59802E-13
 -1      2916 1.39486E-02-3.79659E-04-1.61670E-13
 -1      2917 1.38375E-02-4.43353E-04-1.58395E-13
 -1      2918 1.51834E-02 2.84075E-04-1.61409E-13
 -1      2919 1.50398E-02 3.30197E-04-1.61338E-13
 -1      2920 1.50918E-02 1.50229E-04-1.60978E-13
 -1      2921 1.52343E-02 1.87422E-04-1.60933E-13
 -1      2922 1.49363E-02 1.01097E-04-1.61023E-13
 -1      2923 1.45929E-02-4.07305E-05-1.61637E-13
 -1      2924 1.47489E-02 2.54716E-05-1.61595E-13
 -1      2925 1.43175E-02-1.76276E-04-1.61714E-13
 -1      2926 1.44495E-02-1.10161E-04-1.61676E-13
 -1      2927 1.43759E-02-1.32299E-04-1.59457E-13
 -1      2928 1.70123E-03 4.40543E-04-3.20787E-15
 -1      2929 1.55877E-03 4.25663E-04-2.70197E-15
 -1      2930 1.47612E-03 3.82190E-04-2.53809E-15
 -1      2931 1.76214E-03 4.11223E-04-3.56038E-15
 -1      2932 1.35091E-02-5.71979E-04-1.48090E-13
 -1      2933 1.33259E-02-6.86345E-04-1.46257E-13
 -1      2934 1.34513E-02 1.07579E-03-1.45899E-13
 -1      2935 1.36297E-02 9.63302E-04-1.47516E-13
 -1      2936 1.31193E-02-8.04127E-04-1.43916E-13
 -1      2937 1.29345E-02-8.96396E-04-1.41640E-13
 -1      2938 7.88865E-04-2.52483E-04-9.13603E-16
 -1      2939 9.20054E-04-2.88268E-04-1.17950E-15
 -1      2940 1.05138E-02 1.07273E-05-1.16671E-13
 -1      2941 1.03998E-02 4.64321E-05-1.16025E-13
 -1      2942 2.55276E-03 4.88549E-04-7.16365E-15
 -1      2943 2.41102E-03 4.84168E-04-6.39602E-15
 -1      2944 2.33276E-03 4.44829E-04-6.12946E-15
 -1      2945 2.61763E-03 4.53449E-04-7.67228E-15
 -1      2946 1.11442E-02 4.93865E-04-1.20122E-13
 -1      2947 1.13554E-02 6.16300E-04-1.21700E-13
 -1      2948 1.04827E-03-3.15837E-04-1.48252E-15
 -1      2949 1.19154E-03-3.41486E-04-1.86621E-15
 -1      2950 1.25305E-03-3.19921E-04-2.11684E-15
 -1      2951 9.96744E-04-2.74840E-04-1.41665E-15
 -1      2952 7.84356E-04 1.23447E-04-1.00655E-15
 -1      2953 7.81963E-04 1.00013E-04-1.02320E-15
 -1      2954 8.99567E-04 9.94412E-05-1.30466E-15
 -1      2955 9.05316E-04 1.51576E-04-1.26472E-15
 -1      2956 1.40603E-02-3.15969E-04-1.62129E-13
 -1      2957 1.03901E-02 1.61474E-04-1.16421E-13
 -1      2958 1.05204E-02 2.01841E-04-1.17224E-13
 -1      2959 7.81695E-04-9.79539E-05-1.06580E-15
 -1      2960 7.84016E-04-1.21303E-04-1.05834E-15
 -1      2961 1.15692E-02 7.51448E-04-1.23418E-13
 -1      2962 1.17363E-02 8.65576E-04-1.24867E-13
 -1      2963 1.08621E-02-1.26791E-04-1.18991E-13
 -1      2964 1.06859E-02-5.11497E-05-1.17923E-13
 -1      2965 6.52867E-04-1.88380E-04-7.07483E-16
 -1      2966 1.02541E-02 1.17681E-04-1.15816E-13
 -1      2967 1.02953E-02 1.30785E-04-1.16067E-13
 -1      2968 8.03109E-04 2.78214E-04-7.98772E-16
 -1      2969 1.38034E-02 8.59607E-04-1.49021E-13
 -1      2970 1.39861E-02 7.52990E-04-1.50529E-13
 -1      2971 1.37319E-02 9.13912E-04-1.49311E-13
 -1      2972 1.13013E-02-3.53008E-04-1.22204E-13
 -1      2973 1.10928E-02-2.39685E-04-1.20604E-13
 -1      2974 1.53876E-02 2.29333E-04-1.60494E-13
 -1      2975 1.21015E-02-8.27945E-04-1.30251E-13
 -1      2976 1.19207E-02-7.23437E-04-1.28130E-13
 -1      2977 1.17095E-02-5.98411E-04-1.25862E-13
 -1      2978 1.15275E-02-4.85223E-04-1.24141E-13
 -1      2979 1.53158E-02 2.46534E-04-1.60430E-13
 -1      2980 7.87078E-04-1.45443E-04-1.04783E-15
 -1      2981 7.90947E-04-1.70596E-04-1.03324E-15
 -1      2982 9.04850E-04-1.49044E-04-1.33342E-15
 -1      2983 8.95420E-04 1.01089E-06-1.34898E-15
 -1      2984 7.77588E-04-9.71950E-06-1.06875E-15
 -1      2985 7.77953E-04-3.13645E-05-1.07154E-15
 -1      2986 1.47244E-02 4.91541E-05-1.56513E-13
 -1      2987 1.21774E-02-8.80060E-04-1.31142E-13
 -1      2988 1.46795E-02 4.17205E-04-1.55045E-13
 -1      2989 1.48315E-02 3.70017E-04-1.56894E-13
 -1      2990 1.45703E-02 4.69321E-04-1.55258E-13
 -1      2991 1.41953E-02-1.78763E-04-1.53047E-13
 -1      2992 1.40762E-02-2.45764E-04-1.53121E-13
 -1      2993 1.43567E-02-1.05684E-04-1.54831E-13
 -1      2994 1.41651E-02-2.58557E-04-1.62097E-13
 -1      2995 1.14337E-02 6.87058E-04-1.21428E-13
 -1      2996 1.17940E-02-6.74279E-04-1.26401E-13
 -1      2997 1.41351E-02 6.74397E-04-1.52115E-13
 -1      2998 1.42828E-02 6.04491E-04-1.53705E-13
 -1      2999 1.40416E-02 7.39713E-04-1.52407E-13
 -1      3000 1.10147E-02 4.28635E-04-1.18867E-13
 -1      3001 1.11039E-02 4.98631E-04-1.18464E-13
 -1      3002 1.08905E-02 3.74454E-04-1.17618E-13
 -1      3003 1.25029E-02-9.74824E-04-1.35796E-13
 -1      3004 1.32115E-02-7.54928E-04-1.45607E-13
 -1      3005 1.22498E-02 1.23599E-03-1.29909E-13
 -1      3006 1.33008E-02 1.18644E-03-1.45282E-13
 -1      3007 1.31604E-02 1.27216E-03-1.43839E-13
 -1      3008 1.29831E-02 1.34021E-03-1.41115E-13
 -1      3009 1.44890E-02 5.68946E-04-1.60777E-13
 -1      3010 1.43249E-02 6.43259E-04-1.58596E-13
 -1      3011 1.46233E-02 5.02449E-04-1.60859E-13
 -1      3012 1.05613E-02-2.91577E-05-1.15817E-13
 -1      3013 1.05942E-02 2.35879E-04-1.16678E-13
 -1      3014 1.47255E-02 3.49984E-05-1.58847E-13
 -1      3015 1.03234E-02 1.45785E-04-1.14990E-13
 -1      3016 1.40825E-02-2.99108E-04-1.59880E-13
 -1      3017 1.33227E-02 1.15733E-03-1.44866E-13
 -1      3018 1.09456E-02-1.92237E-04-1.18669E-13
 -1      3019 1.51422E-02 1.72154E-04-1.57694E-13
 -1      3020 1.28303E-02-9.33970E-04-1.40615E-13
 -1      3021 1.03251E-02 5.82315E-05-1.14817E-13
 -1      3022 7.78733E-04-5.31470E-05-1.07198E-15
 -1      3023 7.79953E-04-7.53331E-05-1.07020E-15
 -1      3024 8.99281E-04-9.70880E-05-1.35096E-15
 -1      3025 8.96317E-04-4.75230E-05-1.35544E-15
 -1      3026 1.22557E-02 1.21046E-03-1.30381E-13
 -1      3027 1.49040E-02 3.79646E-04-1.61143E-13
 -1      3028 1.47540E-02 4.42008E-04-1.61063E-13
 -1      3029 1.45894E-02 5.00400E-04-1.58883E-13
 -1      3030 1.48765E-02 3.73376E-04-1.59280E-13
 -1      3031 1.18412E-02 9.48666E-04-1.25577E-13
 -1      3032 7.69982E-04-2.02381E-04-9.46739E-16
 -1      3033 1.36424E-02-4.92144E-04-1.49646E-13
 -1      3034 1.35376E-02-5.62948E-04-1.49511E-13
 -1      3035 1.37776E-02-4.14479E-04-1.51206E-13
 -1      3036 1.02297E-02 1.04868E-04-1.14852E-13
 -1      3037 1.02109E-02 1.08542E-04-1.13676E-13
 -1      3038 1.02188E-02 9.32420E-05-1.13887E-13
 -1      3039 8.64864E-04 2.66534E-04-9.72380E-16
 -1      3040 1.13802E-02-4.27530E-04-1.22204E-13
 -1      3041 9.82952E-04 2.75772E-04-1.25686E-15
 -1      3042 1.51958E-02 2.66607E-04-1.58498E-13
 -1      3043 1.14353E-02-5.01764E-04-1.21985E-13
 -1      3044 1.12359E-02-3.85877E-04-1.20060E-13
 -1      3045 1.04027E-03 2.43264E-04-1.48061E-15
 -1      3046 1.03364E-03 2.11540E-04-1.51893E-15
 -1      3047 1.73166E-03-3.40484E-04-3.88771E-15
 -1      3048 1.87533E-03-3.50704E-04-4.49665E-15
 -1      3049 2.01898E-03-3.59205E-04-5.14913E-15
 -1      3050 2.16262E-03-3.66143E-04-5.84525E-15
 -1      3051 1.94013E-03-3.19395E-04-4.85785E-15
 -1      3052 2.30622E-03-3.71796E-04-6.58408E-15
 -1      3053 2.44976E-03-3.76291E-04-7.36542E-15
 -1      3054 2.22816E-03-3.32534E-04-6.25165E-15
 -1      3055 2.59326E-03-3.79850E-04-8.18962E-15
 -1      3056 2.73669E-03-3.82572E-04-9.05585E-15
 -1      3057 2.51612E-03-3.41087E-04-7.81668E-15
 -1      3058 2.88007E-03-3.84628E-04-9.96263E-15
 -1      3059 3.02339E-03-3.86094E-04-1.09108E-14
 -1      3060 2.80388E-03-3.46288E-04-9.54869E-15
 -1      3061 3.16667E-03-3.87099E-04-1.18999E-14
 -1      3062 3.30989E-03-3.87698E-04-1.29290E-14
 -1      3063 3.09137E-03-3.49105E-04-1.14448E-14
 -1      3064 3.45309E-03-3.87986E-04-1.39975E-14
 -1      3065 3.59624E-03-3.88004E-04-1.51054E-14
 -1      3066 3.37860E-03-3.50270E-04-1.35018E-14
 -1      3067 3.73936E-03-3.87816E-04-1.62533E-14
 -1      3068 3.88244E-03-3.87451E-04-1.74397E-14
 -1      3069 3.66556E-03-3.50324E-04-1.57167E-14
 -1      3070 4.02550E-03-3.86954E-04-1.86640E-14
 -1      3071 4.16854E-03-3.86341E-04-1.99264E-14
 -1      3072 3.95230E-03-3.49648E-04-1.80876E-14
 -1      3073 4.31155E-03-3.85642E-04-2.12265E-14
 -1      3074 4.45455E-03-3.84864E-04-2.25646E-14
 -1      3075 4.23883E-03-3.48495E-04-2.06103E-14
 -1      3076 4.59753E-03-3.84023E-04-2.39379E-14
 -1      3077 4.74049E-03-3.83122E-04-2.53482E-14
 -1      3078 4.52519E-03-3.47026E-04-2.32832E-14
 -1      3079 4.88344E-03-3.82168E-04-2.67958E-14
 -1      3080 5.02637E-03-3.81156E-04-2.82782E-14
 -1      3081 4.81140E-03-3.45320E-04-2.61019E-14
 -1      3082 5.16930E-03-3.80087E-04-2.97966E-14
 -1      3083 5.31222E-03-3.78953E-04-3.13516E-14
 -1      3084 5.09748E-03-3.43403E-04-2.90656E-14
 -1      3085 5.45512E-03-3.77747E-04-3.29419E-14
 -1      3086 5.59801E-03-3.76460E-04-3.45680E-14
 -1      3087 5.38342E-03-3.41251E-04-3.21733E-14
 -1      3088 5.74090E-03-3.75081E-04-3.62292E-14
 -1      3089 5.88377E-03-3.73598E-04-3.79253E-14
 -1      3090 5.66925E-03-3.38809E-04-3.54238E-14
 -1      3091 6.02663E-03-3.71996E-04-3.96568E-14
 -1      3092 6.16948E-03-3.70264E-04-4.14236E-14
 -1      3093 5.95494E-03-3.35992E-04-3.88152E-14
 -1      3094 6.31232E-03-3.68387E-04-4.32250E-14
 -1      3095 6.45514E-03-3.66350E-04-4.50592E-14
 -1      3096 6.24047E-03-3.32703E-04-4.23462E-14
 -1      3097 6.59794E-03-3.64142E-04-4.69275E-14
 -1      3098 6.74073E-03-3.61748E-04-4.88293E-14
 -1      3099 6.52581E-03-3.28834E-04-4.60143E-14
 -1      3100 6.88348E-03-3.59159E-04-5.07633E-14
 -1      3101 7.02623E-03-3.56366E-04-5.27273E-14
 -1      3102 6.81091E-03-3.24283E-04-4.98134E-14
 -1      3103 7.16894E-03-3.53367E-04-5.47231E-14
 -1      3104 7.31163E-03-3.50156E-04-5.67499E-14
 -1      3105 7.09572E-03-3.18967E-04-5.37404E-14
 -1      3106 7.45428E-03-3.46746E-04-5.88059E-14
 -1      3107 7.59692E-03-3.43139E-04-6.08913E-14
 -1      3108 7.38016E-03-3.12844E-04-5.77900E-14
 -1      3109 7.73952E-03-3.39366E-04-6.30040E-14
 -1      3110 7.88212E-03-3.35442E-04-6.51433E-14
 -1      3111 7.66419E-03-3.05940E-04-6.19573E-14
 -1      3112 8.02468E-03-3.31427E-04-6.73106E-14
 -1      3113 8.16728E-03-3.27356E-04-6.95039E-14
 -1      3114 7.94776E-03-2.98389E-04-6.62350E-14
 -1      3115 8.30988E-03-3.23323E-04-7.17229E-14
 -1      3116 8.45256E-03-3.19394E-04-7.39651E-14
 -1      3117 8.23087E-03-2.90472E-04-7.06179E-14
 -1      3118 8.59530E-03-3.15706E-04-7.62306E-14
 -1      3119 8.73824E-03-3.12370E-04-7.85198E-14
 -1      3120 8.51363E-03-2.82679E-04-7.51007E-14
 -1      3121 8.88139E-03-3.09573E-04-8.08314E-14
 -1      3122 9.02490E-03-3.07494E-04-8.31620E-14
 -1      3123 8.79634E-03-2.75776E-04-7.96761E-14
 -1      3124 9.16887E-03-3.06368E-04-8.55130E-14
 -1      3125 9.31351E-03-3.06481E-04-8.78850E-14
 -1      3126 9.07960E-03-2.70884E-04-8.43373E-14
 -1      3127 9.45900E-03-3.08105E-04-9.02753E-14
 -1      3128 9.60566E-03-3.11688E-04-9.26840E-14
 -1      3129 9.36452E-03-2.69586E-04-8.90765E-14
 -1      3130 9.75380E-03-3.17523E-04-9.51102E-14
 -1      3131 9.90381E-03-3.26307E-04-9.75549E-14
 -1      3132 9.65300E-03-2.74084E-04-9.38902E-14
 -1      3133 1.00562E-02-3.38324E-04-1.00017E-13
 -1      3134 1.02114E-02-3.54618E-04-1.02495E-13
 -1      3135 9.94802E-03-2.87466E-04-9.87759E-14
 -1      3136 1.03703E-02-3.75423E-04-1.04991E-13
 -1      3137 1.05329E-02-4.02255E-04-1.07500E-13
 -1      3138 1.02539E-02-3.14149E-04-1.03733E-13
 -1      3139 1.07004E-02-4.35217E-04-1.10025E-13
 -1      3140 1.08724E-02-4.76216E-04-1.12565E-13
 -1      3141 1.05764E-02-3.60576E-04-1.08751E-13
 -1      3142 1.10500E-02-5.25051E-04-1.15119E-13
 -1      3143 1.12313E-02-5.82823E-04-1.17691E-13
 -1      3144 1.09214E-02-4.36008E-04-1.13829E-13
 -1      3145 1.13318E-02-5.75055E-04-1.19420E-13
 -1      3146 1.15218E-02-6.48422E-04-1.22013E-13
 -1      3147 1.18491E-02-7.92419E-04-1.26432E-13
 -1      3148 1.20362E-02-8.69003E-04-1.29069E-13
 -1      3149 1.22019E-02-9.39608E-04-1.31545E-13
 -1      3150 1.23765E-02-9.81309E-04-1.34208E-13
 -1      3151 1.25091E-02-9.96414E-04-1.36378E-13
 -1      3152 1.26781E-02-9.83534E-04-1.39066E-13
 -1      3153 1.28485E-02-9.34974E-04-1.41714E-13
 -1      3154 1.30251E-02-8.64416E-04-1.44423E-13
 -1      3155 1.31981E-02-7.71741E-04-1.46768E-13
 -1      3156 1.33870E-02-6.70057E-04-1.49493E-13
 -1      3157 3.25491E-03 4.24350E-04-1.18705E-14
 -1      3158 3.11206E-03 4.23501E-04-1.08874E-14
 -1      3159 2.96917E-03 4.22197E-04-9.94533E-15
 -1      3160 2.82627E-03 4.20375E-04-9.04482E-15
 -1      3161 3.03656E-03 3.85499E-04-1.05121E-14
 -1      3162 3.82622E-03 4.24757E-04-1.62097E-14
 -1      3163 3.68341E-03 4.24998E-04-1.50644E-14
 -1      3164 4.11185E-03 4.23842E-04-1.86190E-14
 -1      3165 3.96904E-03 4.24365E-04-1.73945E-14
 -1      3166 3.89577E-03 3.87106E-04-1.69105E-14
 -1      3167 4.39748E-03 4.22513E-04-2.11855E-14
 -1      3168 4.25467E-03 4.23221E-04-1.98829E-14
 -1      3169 4.18190E-03 3.86115E-04-1.93615E-14
 -1      3170 4.68313E-03 4.20893E-04-2.39065E-14
 -1      3171 4.54031E-03 4.21735E-04-2.25266E-14
 -1      3172 4.46794E-03 3.84763E-04-2.19686E-14
 -1      3173 4.96880E-03 4.19034E-04-2.67800E-14
 -1      3174 4.82597E-03 4.19992E-04-2.53245E-14
 -1      3175 4.75391E-03 3.83152E-04-2.47291E-14
 -1      3176 5.25451E-03 4.16933E-04-2.98030E-14
 -1      3177 5.11165E-03 4.18016E-04-2.82728E-14
 -1      3178 5.03982E-03 3.81315E-04-2.76413E-14
 -1      3179 5.54024E-03 4.14541E-04-3.29716E-14
 -1      3180 5.39737E-03 4.15777E-04-3.13694E-14
 -1      3181 5.32568E-03 3.79239E-04-3.07007E-14
 -1      3182 5.82602E-03 4.11776E-04-3.62823E-14
 -1      3183 5.68313E-03 4.13210E-04-3.46100E-14
 -1      3184 5.61149E-03 3.76867E-04-3.39058E-14
 -1      3185 6.11185E-03 4.08535E-04-3.97313E-14
 -1      3186 5.96893E-03 4.10222E-04-3.79903E-14
 -1      3187 5.89725E-03 3.74115E-04-3.72520E-14
 -1      3188 6.39773E-03 4.04696E-04-4.33117E-14
 -1      3189 6.25478E-03 4.06697E-04-4.15050E-14
 -1      3190 6.18296E-03 3.70879E-04-4.07332E-14
 -1      3191 6.68367E-03 4.00137E-04-4.70220E-14
 -1      3192 6.54069E-03 4.02514E-04-4.51501E-14
 -1      3193 6.46858E-03 3.67043E-04-4.43452E-14
 -1      3194 6.96967E-03 3.94747E-04-5.08576E-14
 -1      3195 6.82665E-03 3.97552E-04-4.89241E-14
 -1      3196 6.75410E-03 3.62491E-04-4.80860E-14
 -1      3197 7.25573E-03 3.88446E-04-5.48193E-14
 -1      3198 7.11268E-03 3.91713E-04-5.28235E-14
 -1      3199 7.03947E-03 3.57123E-04-5.19542E-14
 -1      3200 7.54185E-03 3.81217E-04-5.89017E-14
 -1      3201 7.39877E-03 3.84946E-04-5.68452E-14
 -1      3202 7.32464E-03 3.50876E-04-5.59470E-14
 -1      3203 7.82802E-03 3.73144E-04-6.31019E-14
 -1      3204 7.68492E-03 3.77278E-04-6.09870E-14
 -1      3205 7.60951E-03 3.43754E-04-6.00589E-14
 -1      3206 8.11423E-03 3.64471E-04-6.74167E-14
 -1      3207 7.97111E-03 3.68865E-04-6.52454E-14
 -1      3208 7.89399E-03 3.35868E-04-6.42876E-14
 -1      3209 8.40049E-03 3.55669E-04-7.18419E-14
 -1      3210 8.25734E-03 3.60054E-04-6.96171E-14
 -1      3211 8.17797E-03 3.27489E-04-6.86298E-14
 -1      3212 8.68685E-03 3.47537E-04-7.63715E-14
 -1      3213 8.54363E-03 3.51466E-04-7.40929E-14
 -1      3214 8.46134E-03 3.19114E-04-7.30806E-14
 -1      3215 8.97348E-03 3.41313E-04-8.09970E-14
 -1      3216 8.83008E-03 3.44102E-04-7.86727E-14
 -1      3217 8.74403E-03 3.11549E-04-7.76331E-14
 -1      3218 9.26080E-03 3.38822E-04-8.57102E-14
 -1      3219 9.11698E-03 3.39472E-04-8.33439E-14
 -1      3220 9.02613E-03 3.06005E-04-8.22795E-14
 -1      3221 9.54976E-03 3.42644E-04-9.05024E-14
 -1      3222 9.40495E-03 3.39749E-04-8.80970E-14
 -1      3223 9.30802E-03 3.04209E-04-8.70123E-14
 -1      3224 9.84218E-03 3.56339E-04-9.53693E-14
 -1      3225 9.69534E-03 3.47961E-04-9.29254E-14
 -1      3226 9.59069E-03 3.08537E-04-9.18212E-14
 -1      3227 1.01414E-02 3.84776E-04-1.00302E-13
 -1      3228 9.99063E-03 3.68254E-04-9.78269E-14
 -1      3229 9.87626E-03 3.22224E-04-9.67028E-14
 -1      3230 1.04527E-02 4.34697E-04-1.05303E-13
 -1      3231 1.02951E-02 4.06309E-04-1.02795E-13
 -1      3232 1.01687E-02 3.49761E-04-1.01653E-13
 -1      3233 1.07839E-02 5.15633E-04-1.10356E-13
 -1      3234 1.06155E-02 4.70177E-04-1.07822E-13
 -1      3235 1.04747E-02 3.97902E-04-1.06664E-13
 -1      3236 1.11431E-02 6.40248E-04-1.15466E-13
 -1      3237 1.09601E-02 5.71050E-04-1.12903E-13
 -1      3238 1.08045E-02 4.77450E-04-1.11730E-13
 -1      3239 1.18711E-02 1.00055E-03-1.25104E-13
 -1      3240 1.16664E-02 8.82024E-04-1.22493E-13
 -1      3241 1.35320E-02 1.05142E-03-1.48223E-13
 -1      3242 1.01651E-03 6.82026E-05-1.63832E-15
 -1      3243 1.01534E-03 4.12225E-05-1.65146E-15
 -1      3244 1.06067E-02-7.51790E-05-1.14959E-13
 -1      3245 1.04533E-02-2.07495E-05-1.13716E-13
 -1      3246 1.42285E-02-1.91805E-04-1.57198E-13
 -1      3247 1.43862E-02-1.07249E-04-1.57157E-13
 -1      3248 1.02518E-02 1.31095E-04-1.13374E-13
 -1      3249 1.03382E-02 1.58475E-04-1.13723E-13
 -1      3250 1.40870E-02 7.64886E-04-1.56078E-13
 -1      3251 1.39179E-02 8.53312E-04-1.53904E-13
 -1      3252 1.37228E-02 9.56015E-04-1.51140E-13
 -1      3253 1.42074E-02 6.87295E-04-1.56163E-13
 -1      3254 3.54058E-03 4.25039E-04-1.39594E-14
 -1      3255 3.39776E-03 4.24847E-04-1.28946E-14
 -1      3256 3.32312E-03 3.87160E-04-1.24832E-14
 -1      3257 3.60952E-03 3.87552E-04-1.46168E-14
 -1      3258 2.11107E-03 3.98796E-04-5.17151E-15
 -1      3259 1.96785E-03 3.90863E-04-4.52481E-15
 -1      3260 1.02919E-02 4.15603E-05-1.12821E-13
 -1      3261 1.02325E-02 7.18471E-05-1.13066E-13
 -1      3262 1.44457E-03-3.13745E-04-2.80255E-15
 -1      3263 1.58808E-03-3.28224E-04-3.32301E-15
 -1      3264 1.65235E-03-3.00151E-04-3.63670E-15
 -1      3265 8.87885E-04-2.11810E-04-1.22301E-15
 -1      3266 1.05031E-02 2.16565E-04-1.14693E-13
 -1      3267 1.06754E-02 2.79187E-04-1.16028E-13
 -1      3268 1.37714E-02 9.08749E-04-1.50722E-13
 -1      3269 1.39266E-02 8.16494E-04-1.52235E-13
 -1      3270 1.14502E-03 3.10560E-04-1.63743E-15
 -1      3271 1.08235E-03 2.71625E-04-1.54274E-15
 -1      3272 1.20143E-03 2.73039E-04-1.89658E-15
 -1      3273 1.28818E-03 3.32536E-04-2.03110E-15
 -1      3274 1.09985E-02-2.57830E-04-1.17973E-13
 -1      3275 1.07962E-02-1.58513E-04-1.16374E-13
 -1      3276 1.14564E-02 7.33635E-04-1.20662E-13
 -1      3277 1.14913E-02 8.03948E-04-1.20006E-13
 -1      3278 1.12960E-02 7.09309E-04-1.17420E-13
 -1      3279 1.12681E-02 6.16495E-04-1.18955E-13
 -1      3280 1.01474E-03 1.44487E-05-1.66142E-15
 -1      3281 1.01470E-03-1.22262E-05-1.66825E-15
 -1      3282 1.13542E-03 3.01663E-05-2.00483E-15
 -1      3283 1.15306E-03 2.11816E-04-1.86540E-15
 -1      3284 1.02829E-03 1.81152E-04-1.55132E-15
 -1      3285 1.02410E-03 1.51828E-04-1.57910E-15
 -1      3286 1.44550E-02 5.32976E-04-1.55551E-13
 -1      3287 1.06591E-02-1.35109E-04-1.14270E-13
 -1      3288 1.45004E-02-4.92916E-05-1.57082E-13
 -1      3289 1.49766E-02 3.24493E-04-1.58077E-13
 -1      3290 1.50651E-02 2.96368E-04-1.57905E-13
 -1      3291 1.40640E-02 7.45884E-04-1.53824E-13
 -1      3292 1.07661E-02 3.37613E-04-1.15627E-13
 -1      3293 1.20666E-02 1.12095E-03-1.27551E-13
 -1      3294 1.01832E-03 9.54616E-05-1.62235E-15
 -1      3295 1.13808E-03 8.85570E-05-1.97474E-15
 -1      3296 1.02079E-03 1.23230E-04-1.60263E-15
 -1      3297 1.03464E-02-2.91934E-05-1.11123E-13
 -1      3298 1.03204E-02 8.99884E-06-1.11973E-13
 -1      3299 1.02067E-02 2.68924E-05-1.10234E-13
 -1      3300 1.40578E-02-2.90751E-04-1.56758E-13
 -1      3301 1.40399E-02-2.77734E-04-1.54469E-13
 -1      3302 1.35896E-02-5.41631E-04-1.50946E-13
 -1      3303 1.35540E-02-5.86282E-04-1.52491E-13
 -1      3304 1.88824E-03 3.50470E-04-4.29015E-15
 -1      3305 1.82457E-03 3.81180E-04-3.92129E-15
 -1      3306 1.68121E-03 3.69580E-04-3.36086E-15
 -1      3307 1.37380E-02-4.85402E-04-1.55238E-13
 -1      3308 2.68333E-03 4.17893E-04-8.18616E-15
 -1      3309 2.54035E-03 4.14666E-04-7.36881E-15
 -1      3310 2.74979E-03 3.81962E-04-8.70519E-15
 -1      3311 1.11319E-02 5.95128E-04-1.16232E-13
 -1      3312 1.39639E-02-3.61290E-04-1.58015E-13
 -1      3313 1.10647E-02-3.34715E-04-1.17755E-13
 -1      3314 1.48803E-02 3.61824E-04-1.58290E-13
 -1      3315 1.38821E-02-3.58024E-04-1.52684E-13
 -1      3316 1.01972E-02 1.15912E-04-1.12415E-13
 -1      3317 1.01891E-02 1.25687E-04-1.11157E-13
 -1      3318 1.01572E-02 1.03979E-04-1.11458E-13
 -1      3319 1.55631E-03 3.61494E-04-2.89744E-15
 -1      3320 1.41294E-03 3.45320E-04-2.42021E-15
 -1      3321 1.36911E-03 3.15097E-04-2.34776E-15
 -1      3322 1.61927E-03 3.33889E-04-3.21696E-15
 -1      3323 1.02930E-02 1.66905E-04-1.11470E-13
 -1      3324 1.03913E-02 1.87095E-04-1.13079E-13
 -1      3325 1.04469E-02 2.22134E-04-1.12431E-13
 -1      3326 1.31607E-03-2.97295E-04-2.37536E-15
 -1      3327 1.38017E-03-2.73437E-04-2.64236E-15
 -1      3328 1.18783E-03-2.78763E-04-1.98381E-15
 -1      3329 1.01804E-03-9.29876E-05-1.67024E-15
 -1      3330 1.02042E-03-1.20692E-04-1.66405E-15
 -1      3331 2.25422E-03 4.05297E-04-5.86132E-15
 -1      3332 2.17560E-03 3.65690E-04-5.59211E-15
 -1      3333 2.39731E-03 4.10503E-04-6.59391E-15
 -1      3334 1.47283E-02 4.23982E-04-1.58095E-13
 -1      3335 1.01810E-02 7.75968E-05-1.11897E-13
 -1      3336 1.01424E-03-2.34388E-04-1.53286E-15
 -1      3337 1.14325E-03-1.45904E-04-2.00870E-15
 -1      3338 1.02364E-03-1.49105E-04-1.65421E-15
 -1      3339 1.02770E-03-1.78343E-04-1.63982E-15
 -1      3340 1.37678E-02-4.34254E-04-1.52549E-13
 -1      3341 1.16530E-02-7.27048E-04-1.23641E-13
 -1      3342 1.17810E-02-7.04775E-04-1.25872E-13
 -1      3343 1.25423E-02 1.34725E-03-1.34111E-13
 -1      3344 1.26322E-02 1.36137E-03-1.35415E-13
 -1      3345 1.15902E-02-5.93677E-04-1.23615E-13
 -1      3346 1.11099E-02 5.22281E-04-1.17731E-13
 -1      3347 1.11405E-02 5.74739E-04-1.16968E-13
 -1      3348 1.09884E-02 5.12155E-04-1.15017E-13
 -1      3349 1.09886E-02 4.64994E-04-1.16482E-13
 -1      3350 1.27429E-02 1.36528E-03-1.37048E-13
 -1      3351 1.11951E-02-4.73190E-04-1.18112E-13
 -1      3352 1.43234E-02 6.16046E-04-1.56337E-13
 -1      3353 2.15035E-03-2.93441E-04-5.92240E-15
 -1      3354 2.29470E-03-2.98358E-04-6.66303E-15
 -1      3355 2.43904E-03-3.02322E-04-7.44618E-15
 -1      3356 2.58336E-03-3.05431E-04-8.27123E-15
 -1      3357 2.36213E-03-2.63661E-04-7.07882E-15
 -1      3358 2.72762E-03-3.07847E-04-9.13729E-15
 -1      3359 2.87181E-03-3.09646E-04-1.00444E-14
 -1      3360 2.65138E-03-2.69379E-04-8.72894E-15
 -1      3361 3.01593E-03-3.10958E-04-1.09924E-14
 -1      3362 3.15997E-03-3.11836E-04-1.19810E-14
 -1      3363 2.94042E-03-2.72706E-04-1.05433E-14
 -1      3364 3.30392E-03-3.12380E-04-1.30093E-14
 -1      3365 3.44779E-03-3.12629E-04-1.40765E-14
 -1      3366 3.22913E-03-2.74345E-04-1.25191E-14
 -1      3367 3.59157E-03-3.12655E-04-1.51828E-14
 -1      3368 3.73527E-03-3.12486E-04-1.63291E-14
 -1      3369 3.51744E-03-2.74826E-04-1.46528E-14
 -1      3370 3.87890E-03-3.12172E-04-1.75139E-14
 -1      3371 4.02245E-03-3.11729E-04-1.87361E-14
 -1      3372 3.80535E-03-2.74535E-04-1.69430E-14
 -1      3373 4.16593E-03-3.11194E-04-1.99975E-14
 -1      3374 4.30934E-03-3.10573E-04-2.12959E-14
 -1      3375 4.09288E-03-2.73738E-04-1.93873E-14
 -1      3376 4.45270E-03-3.09889E-04-2.26302E-14
 -1      3377 4.59599E-03-3.09145E-04-2.40019E-14
 -1      3378 4.38006E-03-2.72611E-04-2.19813E-14
 -1      3379 4.73922E-03-3.08351E-04-2.54111E-14
 -1      3380 4.88240E-03-3.07506E-04-2.68563E-14
 -1      3381 4.66692E-03-2.71253E-04-2.47232E-14
 -1      3382 5.02553E-03-3.06614E-04-2.83370E-14
 -1      3383 5.16861E-03-3.05668E-04-2.98539E-14
 -1      3384 4.95349E-03-2.69709E-04-2.76108E-14
 -1      3385 5.31164E-03-3.04666E-04-3.14070E-14
 -1      3386 5.45462E-03-3.03600E-04-3.29965E-14
 -1      3387 5.23978E-03-2.67978E-04-3.06434E-14
 -1      3388 5.59754E-03-3.02462E-04-3.46206E-14
 -1      3389 5.74041E-03-3.01242E-04-3.62806E-14
 -1      3390 5.52579E-03-2.66024E-04-3.38200E-14
 -1      3391 5.88322E-03-2.99931E-04-3.79756E-14
 -1      3392 6.02597E-03-2.98514E-04-3.97058E-14
 -1      3393 5.81150E-03-2.63789E-04-3.71390E-14
 -1      3394 6.16865E-03-2.96982E-04-4.14709E-14
 -1      3395 6.31126E-03-2.95319E-04-4.32701E-14
 -1      3396 6.09688E-03-2.61193E-04-4.05979E-14
 -1      3397 6.45377E-03-2.93515E-04-4.51025E-14
 -1      3398 6.59620E-03-2.91555E-04-4.69687E-14
 -1      3399 6.38185E-03-2.58143E-04-4.41936E-14
 -1      3400 6.73852E-03-2.89430E-04-4.88671E-14
 -1      3401 6.88073E-03-2.87126E-04-5.07975E-14
 -1      3402 6.66633E-03-2.54547E-04-4.79230E-14
 -1      3403 7.02280E-03-2.84640E-04-5.27605E-14
 -1      3404 7.16473E-03-2.81957E-04-5.47530E-14
 -1      3405 6.95020E-03-2.50314E-04-5.17820E-14
 -1      3406 7.30650E-03-2.79085E-04-5.67756E-14
 -1      3407 7.44810E-03-2.76012E-04-5.88303E-14
 -1      3408 7.23330E-03-2.45377E-04-5.57645E-14
 -1      3409 7.58951E-03-2.72759E-04-6.09129E-14
 -1      3410 7.73072E-03-2.69320E-04-6.30233E-14
 -1      3411 7.51549E-03-2.39702E-04-5.98699E-14
 -1      3412 7.87171E-03-2.65735E-04-6.51611E-14
 -1      3413 8.01249E-03-2.62007E-04-6.73247E-14
 -1      3414 7.79657E-03-2.33317E-04-6.40889E-14
 -1      3415 8.15303E-03-2.58202E-04-6.95160E-14
 -1      3416 8.29336E-03-2.54337E-04-7.17323E-14
 -1      3417 8.07639E-03-2.26333E-04-6.84151E-14
 -1      3418 8.43345E-03-2.50507E-04-7.39710E-14
 -1      3419 8.57339E-03-2.46756E-04-7.62348E-14
 -1      3420 8.35485E-03-2.18980E-04-7.28438E-14
 -1      3421 8.71314E-03-2.43209E-04-7.85215E-14
 -1      3422 8.85285E-03-2.39951E-04-8.08314E-14
 -1      3423 8.63193E-03-2.11638E-04-7.73689E-14
 -1      3424 8.99252E-03-2.37136E-04-8.31592E-14
 -1      3425 9.13238E-03-2.34916E-04-8.55081E-14
 -1      3426 8.90788E-03-2.04884E-04-8.19827E-14
 -1      3427 9.27248E-03-2.33467E-04-8.78787E-14
 -1      3428 9.41317E-03-2.33056E-04-9.02668E-14
 -1      3429 9.18331E-03-1.99543E-04-8.66796E-14
 -1      3430 9.55462E-03-2.33862E-04-9.26716E-14
 -1      3431 9.69733E-03-2.36355E-04-9.50953E-14
 -1      3432 9.45944E-03-1.96780E-04-9.14544E-14
 -1      3433 9.84165E-03-2.40697E-04-9.75384E-14
 -1      3434 9.98831E-03-2.47740E-04-9.99984E-14
 -1      3435 9.73852E-03-1.98291E-04-9.63015E-14
 -1      3436 1.01379E-02-2.57642E-04-1.02475E-13
 -1      3437 1.02913E-02-2.71800E-04-1.04970E-13
 -1      3438 1.00244E-02-2.06804E-04-1.01220E-13
 -1      3439 1.04495E-02-2.90313E-04-1.07478E-13
 -1      3440 1.06135E-02-3.15770E-04-1.10000E-13
 -1      3441 1.03231E-02-2.26939E-04-1.06206E-13
 -1      3442 1.08058E-02-3.59042E-04-1.12761E-13
 -1      3443 1.09848E-02-4.03639E-04-1.15316E-13
 -1      3444 1.10674E-02-3.82908E-04-1.17031E-13
 -1      3445 1.06648E-02-2.76945E-04-1.11472E-13
 -1      3446 4.25217E-03 3.48288E-04-2.01075E-14
 -1      3447 4.10891E-03 3.48850E-04-1.88417E-14
 -1      3448 3.96560E-03 3.49315E-04-1.76146E-14
 -1      3449 3.82225E-03 3.49671E-04-1.64265E-14
 -1      3450 4.03573E-03 3.11429E-04-1.83222E-14
 -1      3451 4.82478E-03 3.45378E-04-2.55544E-14
 -1      3452 4.68169E-03 3.46191E-04-2.41355E-14
 -1      3453 5.11087E-03 3.43594E-04-2.85040E-14
 -1      3454 4.96785E-03 3.44513E-04-2.70103E-14
 -1      3455 4.89574E-03 3.07601E-04-2.63806E-14
 -1      3456 5.39684E-03 3.41572E-04-3.15999E-14
 -1      3457 5.25387E-03 3.42616E-04-3.00337E-14
 -1      3458 5.18196E-03 3.05897E-04-2.93679E-14
 -1      3459 5.68266E-03 3.39255E-04-3.48416E-14
 -1      3460 5.53977E-03 3.40455E-04-3.32038E-14
 -1      3461 5.46797E-03 3.03961E-04-3.25018E-14
 -1      3462 5.96835E-03 3.36557E-04-3.82212E-14
 -1      3463 5.82553E-03 3.37959E-04-3.65141E-14
 -1      3464 5.75376E-03 3.01733E-04-3.57781E-14
 -1      3465 6.25386E-03 3.33376E-04-4.17351E-14
 -1      3466 6.11113E-03 3.35034E-04-3.99615E-14
 -1      3467 6.03931E-03 2.99131E-04-3.91919E-14
 -1      3468 6.53915E-03 3.29603E-04-4.53795E-14
 -1      3469 6.39653E-03 3.31571E-04-4.35417E-14
 -1      3470 6.32455E-03 2.96058E-04-4.27388E-14
 -1      3471 6.82414E-03 3.25133E-04-4.91519E-14
 -1      3472 6.68168E-03 3.27462E-04-4.72495E-14
 -1      3473 6.60942E-03 2.92413E-04-4.64148E-14
 -1      3474 7.10876E-03 3.19880E-04-5.30530E-14
 -1      3475 6.96650E-03 3.22610E-04-5.10862E-14
 -1      3476 6.89379E-03 2.88106E-04-5.02193E-14
 -1      3477 7.39287E-03 3.13800E-04-5.70757E-14
 -1      3478 7.25088E-03 3.16947E-04-5.50488E-14
 -1      3479 7.17754E-03 2.83066E-04-5.41509E-14
 -1      3480 7.67631E-03 3.06919E-04-6.12168E-14
 -1      3481 7.53467E-03 3.10459E-04-5.91316E-14
 -1      3482 7.46045E-03 2.77270E-04-5.82053E-14
 -1      3483 7.95890E-03 2.99374E-04-6.54745E-14
 -1      3484 7.81771E-03 3.03223E-04-6.33314E-14
 -1      3485 7.74231E-03 2.70767E-04-6.23774E-14
 -1      3486 8.24041E-03 2.91458E-04-6.98435E-14
 -1      3487 8.09979E-03 2.95447E-04-6.76449E-14
 -1      3488 8.02283E-03 2.63717E-04-6.66618E-14
 -1      3489 8.52062E-03 2.83681E-04-7.43184E-14
 -1      3490 8.38067E-03 2.87524E-04-7.20687E-14
 -1      3491 8.30167E-03 2.56429E-04-7.10566E-14
 -1      3492 8.79935E-03 2.76836E-04-7.88947E-14
 -1      3493 8.66015E-03 2.80097E-04-7.65944E-14
 -1      3494 8.57850E-03 2.49412E-04-7.55575E-14
 -1      3495 9.07657E-03 2.72068E-04-8.35616E-14
 -1      3496 8.93811E-03 2.74124E-04-8.12159E-14
 -1      3497 8.85301E-03 2.43422E-04-8.01554E-14
 -1      3498 9.35256E-03 2.70950E-04-8.83116E-14
 -1      3499 9.21463E-03 2.70951E-04-8.59279E-14
 -1      3500 9.12501E-03 2.39498E-04-8.48423E-14
 -1      3501 9.62830E-03 2.75576E-04-9.31389E-14
 -1      3502 9.49030E-03 2.72388E-04-9.07163E-14
 -1      3503 9.39466E-03 2.38997E-04-8.96106E-14
 -1      3504 9.90598E-03 2.88754E-04-9.80363E-14
 -1      3505 9.76661E-03 2.80837E-04-9.55790E-14
 -1      3506 9.66274E-03 2.43634E-04-9.44556E-14
 -1      3507 1.01899E-02 3.14488E-04-1.03000E-13
 -1      3508 1.00467E-02 2.99582E-04-1.00510E-13
 -1      3509 9.93132E-03 2.55649E-04-9.93682E-14
 -1      3510 1.04878E-02 3.59408E-04-1.08024E-13
 -1      3511 1.03363E-02 3.33611E-04-1.05506E-13
 -1      3512 1.02048E-02 2.78335E-04-1.04345E-13
 -1      3513 1.08119E-02 4.45944E-04-1.12782E-13
 -1      3514 1.06446E-02 4.01848E-04-1.10238E-13
 -1      3515 1.04921E-02 3.28120E-04-1.09065E-13
 -1      3516 1.08137E-02 4.22520E-04-1.13512E-13
 -1      3517 1.26082E-02 1.39365E-03-1.35178E-13
 -1      3518 4.53855E-03 3.46949E-04-2.27540E-14
 -1      3519 4.39538E-03 3.47653E-04-2.14112E-14
 -1      3520 4.32265E-03 3.10400E-04-2.08557E-14
 -1      3521 4.60931E-03 3.09104E-04-2.35424E-14
 -1      3522 3.10456E-03 3.48493E-04-1.10839E-14
 -1      3523 2.96083E-03 3.47318E-04-1.01365E-14
 -1      3524 1.01632E-03-6.57688E-05-1.67288E-15
 -1      3525 1.13783E-03-8.59714E-05-2.02255E-15
 -1      3526 1.01523E-03-3.89292E-05-1.67211E-15
 -1      3527 1.01278E-02 6.50323E-05-1.09829E-13
 -1      3528 1.01327E-02 8.53862E-05-1.10644E-13
 -1      3529 1.00956E-02 9.25146E-05-1.09394E-13
 -1      3530 1.57399E-03-2.60696E-04-3.38843E-15
 -1      3531 1.71779E-03-2.71194E-04-3.95719E-15
 -1      3532 1.07913E-03-2.16778E-04-1.74470E-15
 -1      3533 1.08556E-02-2.73135E-04-1.14962E-13
 -1      3534 1.05882E-02 2.79840E-04-1.13320E-13
 -1      3535 1.07826E-02 3.62304E-04-1.14900E-13
 -1      3536 1.07914E-02 3.87877E-04-1.14173E-13
 -1      3537 1.86182E-03-2.80036E-04-4.56918E-15
 -1      3538 2.00604E-03-2.87374E-04-5.22443E-15
 -1      3539 2.07292E-03-2.54662E-04-5.59616E-15
 -1      3540 1.32610E-03 2.85644E-04-2.27189E-15
 -1      3541 1.28389E-03 2.56954E-04-2.19365E-15
 -1      3542 1.45111E-03 2.95984E-04-2.68206E-15
 -1      3543 1.06770E-02-1.91160E-04-1.13256E-13
 -1      3544 1.05111E-02-1.16574E-04-1.11853E-13
 -1      3545 1.39982E-02-3.28133E-04-1.56716E-13
 -1      3546 1.27727E-03 2.22390E-04-2.23777E-15
 -1      3547 1.95313E-03 3.19051E-04-4.66708E-15
 -1      3548 1.80915E-03 3.10454E-04-4.05489E-15
 -1      3549 1.14369E-03 1.48696E-04-1.92923E-15
 -1      3550 2.88496E-03 3.09006E-04-9.76071E-15
 -1      3551 2.81702E-03 3.45645E-04-9.22991E-15
 -1      3552 2.67315E-03 3.43410E-04-8.36518E-15
 -1      3553 1.44635E-02 5.39900E-04-1.56539E-13
 -1      3554 3.39183E-03 3.49728E-04-1.31002E-14
 -1      3555 3.24823E-03 3.49281E-04-1.20715E-14
 -1      3556 3.17315E-03 3.11240E-04-1.16603E-14
 -1      3557 1.03663E-02-7.54088E-05-1.10122E-13
 -1      3558 1.02344E-02-4.54729E-05-1.08396E-13
 -1      3559 1.03769E-02-1.24952E-04-1.09120E-13
 -1      3560 1.38115E-02-4.20339E-04-1.53988E-13
 -1      3561 2.46280E-03 3.75722E-04-7.06473E-15
 -1      3562 1.04619E-02 2.43820E-04-1.11712E-13
 -1      3563 2.09716E-03 3.26190E-04-5.32201E-15
 -1      3564 2.01905E-03 2.86952E-04-5.05203E-15
 -1      3565 2.24120E-03 3.32004E-04-6.01982E-15
 -1      3566 3.74853E-03 3.12069E-04-1.59427E-14
 -1      3567 3.67883E-03 3.49879E-04-1.52779E-14
 -1      3568 3.53537E-03 3.49917E-04-1.41691E-14
 -1      3569 1.26108E-03 1.10553E-04-2.34043E-15
 -1      3570 1.25887E-03 7.90677E-05-2.36165E-15
 -1      3571 1.78419E-03-2.41321E-04-4.28414E-15
 -1      3572 1.06888E-02-2.39996E-04-1.12541E-13
 -1      3573 1.25740E-03 4.77860E-05-2.37893E-15
 -1      3574 1.25667E-03 1.67227E-05-2.39198E-15
 -1      3575 1.38057E-03 6.70934E-05-2.78246E-15
 -1      3576 1.13534E-03-2.76924E-05-2.02078E-15
 -1      3577 1.25865E-03-7.63315E-05-2.40747E-15
 -1      3578 1.26077E-03-1.07789E-04-2.40438E-15
 -1      3579 1.01346E-02 1.41423E-05-1.08151E-13
 -1      3580 1.01287E-02 4.17062E-05-1.08991E-13
 -1      3581 1.00625E-02 5.23228E-05-1.07750E-13
 -1      3582 1.01480E-02 1.28149E-04-1.09567E-13
 -1      3583 1.02140E-02 1.44823E-04-1.10519E-13
 -1      3584 1.02467E-02 1.69385E-04-1.09878E-13
 -1      3585 1.44538E-03-2.48423E-04-2.91741E-15
 -1      3586 1.51154E-03-2.22135E-04-3.20000E-15
 -1      3587 1.31719E-03-2.34664E-04-2.48095E-15
 -1      3588 1.38145E-03-1.53369E-04-2.78996E-15
 -1      3589 1.26042E-03-1.61095E-04-2.36997E-15
 -1      3590 1.14357E-02-5.46046E-04-1.21459E-13
 -1      3591 1.37114E-02-4.72454E-04-1.52507E-13
 -1      3592 2.28556E-03-2.25247E-04-6.71492E-15
 -1      3593 2.43044E-03-2.28440E-04-7.49874E-15
 -1      3594 1.73072E-03 2.70998E-04-3.81935E-15
 -1      3595 1.66530E-03 3.00125E-04-3.48533E-15
 -1      3596 1.26810E-03 1.75371E-04-2.28379E-15
 -1      3597 1.26414E-03 1.42657E-04-2.31472E-15
 -1      3598 1.38535E-03 1.33988E-04-2.73448E-15
 -1      3599 2.57533E-03-2.30979E-04-8.32400E-15
 -1      3600 2.72018E-03-2.32931E-04-9.19012E-15
 -1      3601 2.49954E-03-1.92737E-04-7.92255E-15
 -1      3602 2.86498E-03-2.34412E-04-1.00970E-14
 -1      3603 3.00970E-03-2.35472E-04-1.10446E-14
 -1      3604 2.78968E-03-1.96140E-04-9.65459E-15
 -1      3605 3.15432E-03-2.36203E-04-1.20324E-14
 -1      3606 3.29884E-03-2.36640E-04-1.30598E-14
 -1      3607 3.07958E-03-1.97998E-04-1.15484E-14
 -1      3608 3.44325E-03-2.36856E-04-1.41258E-14
 -1      3609 3.58754E-03-2.36873E-04-1.52306E-14
 -1      3610 3.36906E-03-1.98774E-04-1.36017E-14
 -1      3611 3.73172E-03-2.36744E-04-1.63751E-14
 -1      3612 3.87578E-03-2.36484E-04-1.75581E-14
 -1      3613 3.65805E-03-1.98818E-04-1.58108E-14
 -1      3614 4.01974E-03-2.36130E-04-1.87795E-14
 -1      3615 4.16359E-03-2.35688E-04-2.00391E-14
 -1      3616 3.94654E-03-1.98376E-04-1.81752E-14
 -1      3617 4.30734E-03-2.35186E-04-2.13356E-14
 -1      3618 4.45098E-03-2.34624E-04-2.26680E-14
 -1      3619 4.23454E-03-1.97617E-04-2.06914E-14
 -1      3620 4.59454E-03-2.34019E-04-2.40374E-14
 -1      3621 4.73800E-03-2.33368E-04-2.54446E-14
 -1      3622 4.52208E-03-1.96646E-04-2.33566E-14
 -1      3623 4.88137E-03-2.32679E-04-2.68880E-14
 -1      3624 5.02466E-03-2.31947E-04-2.83672E-14
 -1      3625 4.80919E-03-1.95517E-04-2.61676E-14
 -1      3626 5.16786E-03-2.31174E-04-2.98827E-14
 -1      3627 5.31098E-03-2.30353E-04-3.14339E-14
 -1      3628 5.09590E-03-1.94246E-04-2.91248E-14
 -1      3629 5.45401E-03-2.29481E-04-3.30221E-14
 -1      3630 5.59694E-03-2.28549E-04-3.46454E-14
 -1      3631 5.38220E-03-1.92819E-04-3.22260E-14
 -1      3632 5.73979E-03-2.27552E-04-3.63038E-14
 -1      3633 5.88253E-03-2.26476E-04-3.79976E-14
 -1      3634 5.66808E-03-1.91198E-04-3.54714E-14
 -1      3635 6.02516E-03-2.25317E-04-3.97263E-14
 -1      3636 6.16767E-03-2.24059E-04-4.14903E-14
 -1      3637 5.95349E-03-1.89329E-04-3.88580E-14
 -1      3638 6.31004E-03-2.22697E-04-4.32871E-14
 -1      3639 6.45228E-03-2.21214E-04-4.51170E-14
 -1      3640 6.23835E-03-1.87141E-04-4.23821E-14
 -1      3641 6.59434E-03-2.19606E-04-4.69809E-14
 -1      3642 6.73623E-03-2.17854E-04-4.88772E-14
 -1      3643 6.52255E-03-1.84559E-04-4.60409E-14
 -1      3644 6.87791E-03-2.15958E-04-5.08054E-14
 -1      3645 7.01938E-03-2.13897E-04-5.27648E-14
 -1      3646 6.80594E-03-1.81506E-04-4.98309E-14
 -1      3647 7.16058E-03-2.11679E-04-5.47562E-14
 -1      3648 7.30152E-03-2.09281E-04-5.67768E-14
 -1      3649 7.08831E-03-1.77907E-04-5.37480E-14
 -1      3650 7.44213E-03-2.06721E-04-5.88281E-14
 -1      3651 7.58243E-03-2.03975E-04-6.09096E-14
 -1      3652 7.36942E-03-1.73704E-04-5.77886E-14
 -1      3653 7.72235E-03-2.01074E-04-6.30172E-14
 -1      3654 7.86189E-03-1.97996E-04-6.51525E-14
 -1      3655 7.64901E-03-1.68863E-04-6.19474E-14
 -1      3656 8.00099E-03-1.94789E-04-6.73148E-14
 -1      3657 8.13966E-03-1.91434E-04-6.95032E-14
 -1      3658 7.92676E-03-1.63388E-04-6.62156E-14
 -1      3659 8.27784E-03-1.87998E-04-7.17168E-14
 -1      3660 8.41556E-03-1.84471E-04-7.39542E-14
 -1      3661 8.20239E-03-1.57337E-04-7.05896E-14
 -1      3662 8.55276E-03-1.80938E-04-7.62154E-14
 -1      3663 8.68953E-03-1.77405E-04-7.85008E-14
 -1      3664 8.47564E-03-1.50831E-04-7.50641E-14
 -1      3665 8.82579E-03-1.73976E-04-8.08076E-14
 -1      3666 8.96171E-03-1.70681E-04-8.31337E-14
 -1      3667 8.74632E-03-1.44071E-04-7.96317E-14
 -1      3668 9.09723E-03-1.67638E-04-8.54818E-14
 -1      3669 9.23262E-03-1.64926E-04-8.78506E-14
 -1      3670 9.01447E-03-1.37344E-04-8.42854E-14
 -1      3671 9.36788E-03-1.62665E-04-9.02370E-14
 -1      3672 9.50343E-03-1.61034E-04-9.26418E-14
 -1      3673 9.28044E-03-1.31048E-04-8.90189E-14
 -1      3674 9.63933E-03-1.60135E-04-9.50652E-14
 -1      3675 9.77632E-03-1.60365E-04-9.75059E-14
 -1      3676 9.54516E-03-1.25758E-04-9.38296E-14
 -1      3677 9.91453E-03-1.61812E-04-9.99640E-14
 -1      3678 1.00552E-02-1.65345E-04-1.02440E-13
 -1      3679 9.81056E-03-1.22413E-04-9.87089E-14
 -1      3680 1.05041E-02-2.07344E-04-1.09782E-13
 -1      3681 4.10614E-03 2.73460E-04-1.90327E-14
 -1      3682 3.96241E-03 2.73848E-04-1.78026E-14
 -1      3683 5.25307E-03 2.68244E-04-3.02334E-14
 -1      3684 5.10996E-03 2.69067E-04-2.87033E-14
 -1      3685 4.96678E-03 2.69837E-04-2.72092E-14
 -1      3686 4.82353E-03 2.70564E-04-2.57524E-14
 -1      3687 5.03790E-03 2.32117E-04-2.80395E-14
 -1      3688 5.82479E-03 2.64331E-04-3.67151E-14
 -1      3689 5.68197E-03 2.65421E-04-3.50423E-14
 -1      3690 6.11013E-03 2.61873E-04-4.01630E-14
 -1      3691 5.96751E-03 2.63154E-04-3.84223E-14
 -1      3692 5.89573E-03 2.27076E-04-3.76536E-14
 -1      3693 6.39505E-03 2.58967E-04-4.37427E-14
 -1      3694 6.25265E-03 2.60483E-04-4.19369E-14
 -1      3695 6.18084E-03 2.24812E-04-4.11354E-14
 -1      3696 6.67942E-03 2.55525E-04-4.74504E-14
 -1      3697 6.53731E-03 2.57320E-04-4.55800E-14
 -1      3698 6.46537E-03 2.22135E-04-4.47467E-14
 -1      3699 6.96310E-03 2.51469E-04-5.12887E-14
 -1      3700 6.82136E-03 2.53580E-04-4.93540E-14
 -1      3701 6.74919E-03 2.18970E-04-4.84891E-14
 -1      3702 7.24589E-03 2.46749E-04-5.52522E-14
 -1      3703 7.10462E-03 2.49197E-04-5.32551E-14
 -1      3704 7.03211E-03 2.15258E-04-5.23599E-14
 -1      3705 7.52752E-03 2.41363E-04-5.93360E-14
 -1      3706 7.38686E-03 2.44143E-04-5.72791E-14
 -1      3707 7.31386E-03 2.10967E-04-5.63543E-14
 -1      3708 7.80768E-03 2.35382E-04-6.35376E-14
 -1      3709 7.66780E-03 2.38447E-04-6.14225E-14
 -1      3710 7.59413E-03 2.06117E-04-6.04694E-14
 -1      3711 8.08601E-03 2.28985E-04-6.78515E-14
 -1      3712 7.94709E-03 2.32231E-04-6.56813E-14
 -1      3713 7.87253E-03 2.00800E-04-6.47004E-14
 -1      3714 8.36207E-03 2.22491E-04-7.22725E-14
 -1      3715 8.22434E-03 2.25739E-04-7.00484E-14
 -1      3716 8.14860E-03 1.95210E-04-6.90416E-14
 -1      3717 8.63539E-03 2.16397E-04-7.67973E-14
 -1      3718 8.49908E-03 2.19375E-04-7.45223E-14
 -1      3719 8.42179E-03 1.89669E-04-7.34892E-14
 -1      3720 8.90552E-03 2.11404E-04-8.14163E-14
 -1      3721 8.77085E-03 2.13736E-04-7.90953E-14
 -1      3722 8.69153E-03 1.84651E-04-7.80380E-14
 -1      3723 9.17208E-03 2.08423E-04-8.61223E-14
 -1      3724 9.03922E-03 2.09626E-04-8.37581E-14
 -1      3725 8.95717E-03 1.80786E-04-8.26762E-14
 -1      3726 9.43496E-03 2.08570E-04-9.09091E-14
 -1      3727 9.30391E-03 2.08059E-04-8.85060E-14
 -1      3728 9.21810E-03 1.78838E-04-8.74007E-14
 -1      3729 9.69460E-03 2.13151E-04-9.57703E-14
 -1      3730 9.56502E-03 2.10235E-04-9.33313E-14
 -1      3731 9.47383E-03 1.79649E-04-9.22059E-14
 -1      3732 9.95254E-03 2.23808E-04-1.00699E-13
 -1      3733 9.82343E-03 2.17576E-04-9.82265E-14
 -1      3734 9.72418E-03 1.84066E-04-9.70840E-14
 -1      3735 1.02124E-02 2.43061E-04-1.05688E-13
 -1      3736 1.00816E-02 2.32076E-04-1.03184E-13
 -1      3737 9.96971E-03 1.93082E-04-1.02026E-13
 -1      3738 1.06274E-02 3.36727E-04-1.11942E-13
 -1      3739 1.53986E-03 2.93387E-04-3.01460E-15
 -1      3740 1.03611E-02 2.20743E-04-1.10178E-13
 -1      3741 1.04897E-02 2.72695E-04-1.11060E-13
 -1      3742 1.05122E-02 3.03559E-04-1.10407E-13
 -1      3743 1.39781E-03 2.16853E-04-2.65582E-15
 -1      3744 1.00212E-02 8.51306E-05-1.07119E-13
 -1      3745 1.00598E-02 1.04214E-04-1.07922E-13
 -1      3746 1.19872E-03-2.15945E-04-2.11334E-15
 -1      3747 1.26488E-03-1.93974E-04-2.35414E-15
 -1      3748 1.25662E-03-1.41771E-05-2.40110E-15
 -1      3749 1.25727E-03-4.51601E-05-2.40632E-15
 -1      3750 1.38040E-03-6.43158E-05-2.82390E-15
 -1      3751 1.37897E-03 1.33494E-06-2.81219E-15
 -1      3752 1.70741E-03-2.03523E-04-4.00244E-15
 -1      3753 1.85160E-03-2.10515E-04-4.61686E-15
 -1      3754 5.53908E-03 2.66429E-04-3.34042E-14
 -1      3755 5.39612E-03 2.67369E-04-3.18005E-14
 -1      3756 5.61017E-03 2.29003E-04-3.43070E-14
 -1      3757 1.49773E-03 2.64528E-04-2.92251E-15
 -1      3758 1.99607E-03-2.16400E-04-5.27363E-15
 -1      3759 2.14075E-03-2.21264E-04-5.97315E-15
 -1      3760 2.20943E-03-1.87199E-04-6.35505E-15
 -1      3761 2.52921E-03 3.40465E-04-7.54187E-15
 -1      3762 2.38523E-03 3.36726E-04-6.75978E-15
 -1      3763 2.59646E-03 3.04795E-04-8.02490E-15
 -1      3764 1.03442E-02-1.94695E-04-1.07133E-13
 -1      3765 1.03658E-02-1.58745E-04-1.08189E-13
 -1      3766 1.02302E-02-1.21067E-04-1.06475E-13
 -1      3767 1.01947E-02-1.84286E-04-1.04628E-13
 -1      3768 1.51073E-03 1.58302E-04-3.15668E-15
 -1      3769 1.50732E-03 1.22883E-04-3.18863E-15
 -1      3770 2.95359E-03 2.72046E-04-1.02963E-14
 -1      3771 2.80909E-03 2.70627E-04-9.38438E-15
 -1      3772 5.32421E-03 2.30664E-04-3.11010E-14
 -1      3773 1.63000E-03 1.09735E-04-3.67604E-15
 -1      3774 1.50481E-03 8.78532E-05-3.21509E-15
 -1      3775 1.50316E-03 5.31050E-05-3.23661E-15
 -1      3776 4.24978E-03 2.72997E-04-2.03000E-14
 -1      3777 4.17681E-03 2.35446E-04-1.97451E-14
 -1      3778 4.39333E-03 2.72464E-04-2.16057E-14
 -1      3779 1.48711E-03 2.13282E-04-2.98292E-15
 -1      3780 3.46101E-03 3.12110E-04-1.37215E-14
 -1      3781 2.30775E-03 2.97789E-04-6.45446E-15
 -1      3782 1.03680E-02 2.71504E-04-1.08192E-13
 -1      3783 1.02334E-02 2.20195E-04-1.07016E-13
 -1      3784 4.68021E-03 2.71243E-04-2.43324E-14
 -1      3785 4.53681E-03 2.71880E-04-2.29496E-14
 -1      3786 4.46421E-03 2.34516E-04-2.23592E-14
 -1      3787 1.00635E-02 1.20499E-04-1.07292E-13
 -1      3788 1.02344E-02 1.82529E-04-1.08770E-13
 -1      3789 1.02525E-02 2.05460E-04-1.08125E-13
 -1      3790 1.01148E-02 1.85967E-04-1.05620E-13
 -1      3791 1.01536E-02 1.59722E-04-1.07826E-13
 -1      3792 9.99482E-03 6.58229E-05-1.06292E-13
 -1      3793 9.93935E-03 7.82662E-05-1.04835E-13
 -1      3794 9.97778E-03 4.47406E-05-1.05463E-13
 -1      3795 1.01399E-02-2.16911E-05-1.07163E-13
 -1      3796 1.00545E-02-3.37863E-06-1.05931E-13
 -1      3797 1.01430E-02-6.16419E-05-1.06172E-13
 -1      3798 1.91988E-03-1.78807E-04-4.95550E-15
 -1      3799 3.81859E-03 2.74132E-04-1.66111E-14
 -1      3800 3.67467E-03 2.74302E-04-1.54591E-14
 -1      3801 3.88899E-03 2.36115E-04-1.72833E-14
 -1      3802 1.57778E-03-1.34332E-04-3.53444E-15
 -1      3803 1.57857E-03-1.94731E-04-3.48963E-15
 -1      3804 2.08599E-03 2.54158E-04-5.44466E-15
 -1      3805 1.94150E-03 2.48204E-04-4.78220E-15
 -1      3806 1.57322E-03-6.30411E-05-3.53945E-15
 -1      3807 1.57507E-03-9.85420E-05-3.53968E-15
 -1      3808 1.77190E-03-1.35289E-04-4.32999E-15
 -1      3809 3.24232E-03 2.73743E-04-1.22413E-14
 -1      3810 3.09800E-03 2.73071E-04-1.12487E-14
 -1      3811 3.02286E-03 2.34821E-04-1.08372E-14
 -1      3812 1.00769E-02-1.35549E-04-1.03356E-13
 -1      3813 4.75123E-03 2.33398E-04-2.51244E-14
 -1      3814 1.82054E-03 1.80820E-04-4.37123E-15
 -1      3815 1.75255E-03 2.11472E-04-4.02982E-15
 -1      3816 1.60867E-03 2.03391E-04-3.46138E-15
 -1      3817 1.97111E-03 1.69781E-04-5.06145E-15
 -1      3818 1.78332E-03 1.36359E-04-4.27600E-15
 -1      3819 2.73332E-03 2.32247E-04-9.00896E-15
 -1      3820 2.66452E-03 2.68704E-04-8.51390E-15
 -1      3821 2.51989E-03 2.66218E-04-7.68435E-15
 -1      3822 5.10909E-03 1.94457E-04-2.88715E-14
 -1      3823 4.96579E-03 1.95039E-04-2.73775E-14
 -1      3824 2.71466E-03-1.57971E-04-9.21516E-15
 -1      3825 2.85987E-03-1.59018E-04-1.01212E-14
 -1      3826 3.00501E-03-1.59785E-04-1.10681E-14
 -1      3827 3.15004E-03-1.60297E-04-1.20546E-14
 -1      3828 2.93066E-03-1.21619E-04-1.05913E-14
 -1      3829 3.29497E-03-1.60617E-04-1.30808E-14
 -1      3830 3.43976E-03-1.60761E-04-1.41460E-14
 -1      3831 3.22103E-03-1.22422E-04-1.25632E-14
 -1      3832 3.58443E-03-1.60778E-04-1.52496E-14
 -1      3833 3.72896E-03-1.60676E-04-1.63925E-14
 -1      3834 3.51090E-03-1.22649E-04-1.46918E-14
 -1      3835 3.87335E-03-1.60491E-04-1.75737E-14
 -1      3836 4.01761E-03-1.60227E-04-1.87938E-14
 -1      3837 3.80021E-03-1.22490E-04-1.69756E-14
 -1      3838 4.16173E-03-1.59910E-04-2.00510E-14
 -1      3839 4.30573E-03-1.59540E-04-2.13457E-14
 -1      3840 4.08895E-03-1.22074E-04-1.94132E-14
 -1      3841 4.44960E-03-1.59135E-04-2.26777E-14
 -1      3842 4.59335E-03-1.58692E-04-2.40454E-14
 -1      3843 4.37712E-03-1.21491E-04-2.20008E-14
 -1      3844 4.73699E-03-1.58221E-04-2.54495E-14
 -1      3845 4.88051E-03-1.57718E-04-2.68915E-14
 -1      3846 4.66477E-03-1.20791E-04-2.47357E-14
 -1      3847 5.02391E-03-1.57188E-04-2.83695E-14
 -1      3848 5.16720E-03-1.56624E-04-2.98829E-14
 -1      3849 4.95192E-03-1.19995E-04-2.76161E-14
 -1      3850 5.31038E-03-1.56030E-04-3.14333E-14
 -1      3851 5.45344E-03-1.55395E-04-3.30196E-14
 -1      3852 5.23857E-03-1.19105E-04-3.06424E-14
 -1      3853 5.59638E-03-1.54719E-04-3.46411E-14
 -1      3854 5.73920E-03-1.53993E-04-3.62985E-14
 -1      3855 5.52471E-03-1.18101E-04-3.38136E-14
 -1      3856 5.88187E-03-1.53214E-04-3.79917E-14
 -1      3857 6.02440E-03-1.52369E-04-3.97193E-14
 -1      3858 5.81031E-03-1.16953E-04-3.71276E-14
 -1      3859 6.16677E-03-1.51457E-04-4.14805E-14
 -1      3860 6.30896E-03-1.50463E-04-4.32758E-14
 -1      3861 6.09528E-03-1.15619E-04-4.05809E-14
 -1      3862 6.45095E-03-1.49386E-04-4.51039E-14
 -1      3863 6.59272E-03-1.48208E-04-4.69647E-14
 -1      3864 6.37950E-03-1.14047E-04-4.41693E-14
 -1      3865 6.73425E-03-1.46931E-04-4.88589E-14
 -1      3866 6.87551E-03-1.45534E-04-5.07850E-14
 -1      3867 6.66281E-03-1.12181E-04-4.78888E-14
 -1      3868 7.01646E-03-1.44024E-04-5.27422E-14
 -1      3869 7.15708E-03-1.42377E-04-5.47314E-14
 -1      3870 6.94499E-03-1.09961E-04-5.17383E-14
 -1      3871 7.29731E-03-1.40604E-04-5.67508E-14
 -1      3872 7.43714E-03-1.38679E-04-5.87994E-14
 -1      3873 7.22574E-03-1.07329E-04-5.57133E-14
 -1      3874 7.57650E-03-1.36622E-04-6.08785E-14
 -1      3875 7.71537E-03-1.34401E-04-6.29835E-14
 -1      3876 7.50475E-03-1.04228E-04-5.98097E-14
 -1      3877 7.85368E-03-1.32050E-04-6.51174E-14
 -1      3878 7.99141E-03-1.29529E-04-6.72782E-14
 -1      3879 7.78163E-03-1.00610E-04-6.40198E-14
 -1      3880 8.12847E-03-1.26887E-04-6.94645E-14
 -1      3881 8.26487E-03-1.24081E-04-7.16766E-14
 -1      3882 8.05595E-03-9.64370E-05-6.83393E-14
 -1      3883 8.40050E-03-1.21172E-04-7.39120E-14
 -1      3884 8.53539E-03-1.18110E-04-7.61724E-14
 -1      3885 8.32724E-03-9.16810E-05-7.27610E-14
 -1      3886 8.66944E-03-1.14976E-04-7.84556E-14
 -1      3887 8.80269E-03-1.11711E-04-8.07604E-14
 -1      3888 8.59503E-03-8.63229E-05-7.72807E-14
 -1      3889 8.93504E-03-1.08409E-04-8.30875E-14
 -1      3890 9.06660E-03-1.05011E-04-8.54340E-14
 -1      3891 8.85887E-03-8.03424E-05-8.18891E-14
 -1      3892 9.19724E-03-1.01617E-04-8.78010E-14
 -1      3893 9.32721E-03-9.81771E-05-9.01871E-14
 -1      3894 9.11835E-03-7.37021E-05-8.65824E-14
 -1      3895 9.45632E-03-9.47974E-05-9.25906E-14
 -1      3896 9.58505E-03-9.14680E-05-9.50140E-14
 -1      3897 9.37317E-03-6.63364E-05-9.13523E-14
 -1      3898 9.71314E-03-8.83133E-05-9.74552E-14
 -1      3899 9.84144E-03-8.53753E-05-9.99113E-14
 -1      3900 9.62325E-03-5.81871E-05-9.61984E-14
 -1      3901 6.53555E-03 1.85596E-04-4.57537E-14
 -1      3902 6.39359E-03 1.86839E-04-4.39155E-14
 -1      3903 6.25144E-03 1.87978E-04-4.21083E-14
 -1      3904 6.10911E-03 1.89029E-04-4.03340E-14
 -1      3905 6.32195E-03 1.51394E-04-4.30834E-14
 -1      3906 5.96662E-03 1.89993E-04-3.85931E-14
 -1      3907 5.82400E-03 1.90884E-04-3.68853E-14
 -1      3908 6.03746E-03 1.53106E-04-3.95340E-14
 -1      3909 6.81878E-03 1.82788E-04-4.95290E-14
 -1      3910 6.67729E-03 1.84251E-04-4.76245E-14
 -1      3911 6.60562E-03 1.49374E-04-4.67622E-14
 -1      3912 7.10090E-03 1.79514E-04-5.34322E-14
 -1      3913 6.95999E-03 1.81216E-04-5.14649E-14
 -1      3914 6.88824E-03 1.47004E-04-5.05703E-14
 -1      3915 7.38158E-03 1.75764E-04-5.74583E-14
 -1      3916 7.24143E-03 1.77704E-04-5.54309E-14
 -1      3917 7.16953E-03 1.44264E-04-5.45070E-14
 -1      3918 7.66047E-03 1.71575E-04-6.16035E-14
 -1      3919 7.52127E-03 1.73728E-04-5.95155E-14
 -1      3920 7.44914E-03 1.41161E-04-5.85643E-14
 -1      3921 7.93708E-03 1.67060E-04-6.58648E-14
 -1      3922 7.79908E-03 1.69360E-04-6.37203E-14
 -1      3923 7.72664E-03 1.37756E-04-6.27402E-14
 -1      3924 8.21089E-03 1.62423E-04-7.02328E-14
 -1      3925 8.07437E-03 1.64756E-04-6.80353E-14
 -1      3926 8.00151E-03 1.34173E-04-6.70288E-14
 -1      3927 8.48126E-03 1.57984E-04-7.47052E-14
 -1      3928 8.34654E-03 1.60175E-04-7.24557E-14
 -1      3929 8.27312E-03 1.30626E-04-7.14245E-14
 -1      3930 8.74745E-03 1.54188E-04-7.92760E-14
 -1      3931 8.61491E-03 1.56002E-04-7.69796E-14
 -1      3932 8.54074E-03 1.27427E-04-7.59224E-14
 -1      3933 9.00866E-03 1.51595E-04-8.39353E-14
 -1      3934 8.87871E-03 1.52741E-04-8.15960E-14
 -1      3935 8.80352E-03 1.24991E-04-8.05154E-14
 -1      3936 9.26396E-03 1.50826E-04-8.86793E-14
 -1      3937 9.13707E-03 1.50994E-04-8.62964E-14
 -1      3938 9.06042E-03 1.23810E-04-8.51945E-14
 -1      3939 9.51238E-03 1.52490E-04-9.35001E-14
 -1      3940 9.38903E-03 1.51391E-04-9.10804E-14
 -1      3941 9.31020E-03 1.24379E-04-8.99553E-14
 -1      3942 9.75289E-03 1.57022E-04-9.83944E-14
 -1      3943 9.63355E-03 1.54462E-04-9.59392E-14
 -1      3944 9.55126E-03 1.27086E-04-9.47933E-14
 -1      3945 9.98451E-03 1.64881E-04-1.03349E-13
 -1      3946 9.86960E-03 1.60700E-04-1.00865E-13
 -1      3947 9.78138E-03 1.32041E-04-9.97017E-14
 -1      3948 3.53065E-03 2.74313E-04-1.43469E-14
 -1      3949 3.38654E-03 2.74148E-04-1.32743E-14
 -1      3950 3.31202E-03 2.36060E-04-1.28273E-14
 -1      3951 3.60074E-03 2.36388E-04-1.49765E-14
 -1      3952 2.13387E-03-1.49671E-04-5.99957E-15
 -1      3953 2.27895E-03-1.52489E-04-6.74133E-15
 -1      3954 1.50231E-03 1.86365E-05-3.25312E-15
 -1      3955 1.50226E-03-1.57819E-05-3.26474E-15
 -1      3956 1.62656E-03 3.74381E-05-3.72306E-15
 -1      3957 5.68124E-03 1.91705E-04-3.52119E-14
 -1      3958 5.53837E-03 1.92468E-04-3.35735E-14
 -1      3959 5.75229E-03 1.54559E-04-3.61179E-14
 -1      3960 5.39538E-03 1.93176E-04-3.19702E-14
 -1      3961 5.25228E-03 1.93839E-04-3.04025E-14
 -1      3962 5.18033E-03 1.56882E-04-2.97054E-14
 -1      3963 2.37523E-03 2.63032E-04-6.89581E-15
 -1      3964 2.23058E-03 2.59064E-04-6.14903E-15
 -1      3965 2.15382E-03 2.20681E-04-5.84496E-15
 -1      3966 1.88034E-03-1.40929E-04-4.80295E-15
 -1      3967 2.02500E-03-1.44835E-04-5.47111E-15
 -1      3968 2.09504E-03-1.11102E-04-5.82551E-15
 -1      3969 1.87761E-03-1.02297E-04-4.80788E-15
 -1      3970 1.01052E-02-1.13720E-04-1.04305E-13
 -1      3971 1.01205E-02-8.36120E-05-1.05225E-13
 -1      3972 1.00282E-02-5.94481E-05-1.04002E-13
 -1      3973 9.97452E-03-1.01255E-04-1.02118E-13
 -1      3974 2.42415E-03-1.54769E-04-7.52503E-15
 -1      3975 2.56940E-03-1.56566E-04-8.34985E-15
 -1      3976 2.34923E-03-1.17169E-04-7.13188E-15
 -1      3977 4.82239E-03 1.95584E-04-2.59192E-14
 -1      3978 4.67888E-03 1.96097E-04-2.44985E-14
 -1      3979 4.89364E-03 1.57829E-04-2.67161E-14
 -1      3980 2.44354E-03 2.27774E-04-7.34416E-15
 -1      3981 2.26091E-03 1.77254E-04-6.46510E-15
 -1      3982 2.11592E-03 1.73893E-04-5.74244E-15
 -1      3983 2.07907E-03 1.27658E-04-5.63080E-15
 -1      3984 9.87172E-03-6.57004E-05-1.00847E-13
 -1      3985 1.78061E-03 9.84281E-05-4.30839E-15
 -1      3986 9.98066E-03 1.17307E-04-1.05099E-13
 -1      3987 1.00829E-02 1.43582E-04-1.06728E-13
 -1      3988 4.53527E-03 1.96571E-04-2.31154E-14
 -1      3989 4.39156E-03 1.97011E-04-2.17696E-14
 -1      3990 4.60650E-03 1.58659E-04-2.38741E-14
 -1      3991 1.00619E-02 1.55180E-04-1.05629E-13
 -1      3992 1.69683E-03-4.69910E-05-4.03571E-15
 -1      3993 4.24773E-03 1.97404E-04-2.04616E-14
 -1      3994 4.10379E-03 1.97750E-04-1.91917E-14
 -1      3995 4.31888E-03 1.59368E-04-2.11816E-14
 -1      3996 9.95182E-03-1.44569E-05-1.03510E-13
 -1      3997 9.96283E-03 1.69765E-05-1.04488E-13
 -1      3998 9.88334E-03 3.34106E-05-1.03045E-13
 -1      3999 1.00384E-02 1.67799E-04-1.04531E-13
 -1      4000 9.84668E-03 7.30398E-05-1.02445E-13
 -1      4001 9.88673E-03 9.24354E-05-1.03261E-13
 -1      4002 4.03076E-03 1.59919E-04-1.86379E-14
 -1      4003 3.95973E-03 1.98030E-04-1.79588E-14
 -1      4004 3.81555E-03 1.98241E-04-1.67644E-14
 -1      4005 3.09275E-03 1.97339E-04-1.13838E-14
 -1      4006 2.94784E-03 1.96547E-04-1.04263E-14
 -1      4007 5.46656E-03 1.55803E-04-3.28410E-14
 -1      4008 2.63997E-03-1.19978E-04-8.78011E-15
 -1      4009 9.88478E-03 1.12900E-04-1.02707E-13
 -1      4010 2.80284E-03 1.95431E-04-9.50959E-15
 -1      4011 2.65777E-03 1.93954E-04-8.63406E-15
 -1      4012 2.87301E-03 1.58309E-04-1.00165E-14
 -1      4013 3.14734E-03-8.42398E-05-1.20489E-14
 -1      4014 3.29251E-03-8.43959E-05-1.30733E-14
 -1      4015 3.43755E-03-8.44684E-05-1.41369E-14
 -1      4016 3.58244E-03-8.44592E-05-1.52391E-14
 -1      4017 3.36442E-03-4.62619E-05-1.35851E-14
 -1      4018 3.72719E-03-8.43976E-05-1.63803E-14
 -1      4019 3.87178E-03-8.42785E-05-1.75601E-14
 -1      4020 3.65433E-03-4.62366E-05-1.57882E-14
 -1      4021 4.01624E-03-8.41244E-05-1.87779E-14
 -1      4022 4.16054E-03-8.39334E-05-2.00336E-14
 -1      4023 3.94364E-03-4.60734E-05-1.81457E-14
 -1      4024 4.30469E-03-8.37220E-05-2.13270E-14
 -1      4025 4.44871E-03-8.34837E-05-2.26572E-14
 -1      4026 4.23233E-03-4.58367E-05-2.06552E-14
 -1      4027 4.59258E-03-8.32306E-05-2.40234E-14
 -1      4028 4.73632E-03-8.29566E-05-2.54267E-14
 -1      4029 4.52044E-03-4.55448E-05-2.33138E-14
 -1      4030 4.87994E-03-8.26697E-05-2.68661E-14
 -1      4031 5.02341E-03-8.23634E-05-2.83419E-14
 -1      4032 4.80799E-03-4.52116E-05-2.61192E-14
 -1      4033 5.16676E-03-8.20428E-05-2.98551E-14
 -1      4034 5.30998E-03-8.17007E-05-3.14044E-14
 -1      4035 5.09499E-03-4.48412E-05-2.90696E-14
 -1      4036 5.45306E-03-8.13400E-05-3.29893E-14
 -1      4037 5.59600E-03-8.09528E-05-3.46094E-14
 -1      4038 5.38144E-03-4.44292E-05-3.21667E-14
 -1      4039 5.73879E-03-8.05406E-05-3.62656E-14
 -1      4040 5.88142E-03-8.00945E-05-3.79574E-14
 -1      4041 5.66731E-03-4.39647E-05-3.54061E-14
 -1      4042 6.02388E-03-7.96153E-05-3.96831E-14
 -1      4043 6.16614E-03-7.90927E-05-4.14428E-14
 -1      4044 5.95254E-03-4.34307E-05-3.87877E-14
 -1      4045 6.30820E-03-7.85276E-05-4.32364E-14
 -1      4046 6.45003E-03-7.79075E-05-4.50621E-14
 -1      4047 6.23702E-03-4.28047E-05-4.23050E-14
 -1      4048 6.59160E-03-7.72346E-05-4.69227E-14
 -1      4049 6.73289E-03-7.64934E-05-4.88136E-14
 -1      4050 6.52057E-03-4.20588E-05-4.59570E-14
 -1      4051 6.87385E-03-7.56885E-05-5.07365E-14
 -1      4052 7.01446E-03-7.48006E-05-5.26926E-14
 -1      4053 6.80299E-03-4.11592E-05-4.97372E-14
 -1      4054 7.15466E-03-7.38376E-05-5.46785E-14
 -1      4055 7.29443E-03-7.27751E-05-5.66956E-14
 -1      4056 7.08399E-03-4.00651E-05-5.36466E-14
 -1      4057 7.43369E-03-7.16262E-05-5.87434E-14
 -1      4058 7.57242E-03-7.03599E-05-6.08189E-14
 -1      4059 7.36321E-03-3.87271E-05-5.76781E-14
 -1      4060 7.71054E-03-6.89957E-05-6.29225E-14
 -1      4061 7.84800E-03-6.74943E-05-6.50547E-14
 -1      4062 7.64025E-03-3.70846E-05-6.18268E-14
 -1      4063 7.98472E-03-6.58832E-05-6.72142E-14
 -1      4064 8.12066E-03-6.41125E-05-6.93998E-14
 -1      4065 7.91460E-03-3.50619E-05-6.60891E-14
 -1      4066 8.25571E-03-6.22188E-05-7.16099E-14
 -1      4067 8.38985E-03-6.01390E-05-7.38452E-14
 -1      4068 8.18571E-03-3.25624E-05-7.04583E-14
 -1      4069 8.52294E-03-5.79196E-05-7.61048E-14
 -1      4070 8.65497E-03-5.54802E-05-7.83866E-14
 -1      4071 8.45292E-03-2.94605E-05-7.49287E-14
 -1      4072 8.78579E-03-5.28783E-05-8.06918E-14
 -1      4073 8.91539E-03-5.00099E-05-8.30173E-14
 -1      4074 8.71550E-03-2.55900E-05-7.94933E-14
 -1      4075 9.04358E-03-4.69459E-05-8.53625E-14
 -1      4076 9.17041E-03-4.35469E-05-8.77289E-14
 -1      4077 8.97261E-03-2.07293E-05-8.41427E-14
 -1      4078 9.29556E-03-3.99079E-05-9.01154E-14
 -1      4079 9.41922E-03-3.58356E-05-9.25183E-14
 -1      4080 9.22320E-03-1.45814E-05-8.88755E-14
 -1      4081 9.54089E-03-3.15158E-05-9.49421E-14
 -1      4082 9.66097E-03-2.65446E-05-9.73829E-14
 -1      4083 9.46581E-03-6.76074E-06-9.36853E-14
 -1      4084 6.39242E-03 1.15080E-04-4.40594E-14
 -1      4085 6.25045E-03 1.15787E-04-4.22508E-14
 -1      4086 6.67563E-03 1.13489E-04-4.77717E-14
 -1      4087 6.53416E-03 1.14319E-04-4.58999E-14
 -1      4088 6.46287E-03 7.90523E-05-4.50370E-14
 -1      4089 9.77830E-03-3.58884E-05-9.95791E-14
 -1      4090 9.90039E-03-4.65445E-05-1.01786E-13
 -1      4091 9.92742E-03-2.72943E-05-1.02723E-13
 -1      4092 9.69490E-03-9.84457E-06-9.83087E-14
 -1      4093 6.10826E-03 1.16433E-04-4.04758E-14
 -1      4094 5.96588E-03 1.17033E-04-3.87335E-14
 -1      4095 6.17905E-03 7.99916E-05-4.14197E-14
 -1      4096 7.23812E-03 1.09520E-04-5.55843E-14
 -1      4097 7.09808E-03 1.10617E-04-5.35835E-14
 -1      4098 7.51669E-03 1.07168E-04-5.96722E-14
 -1      4099 7.37767E-03 1.08379E-04-5.76141E-14
 -1      4100 7.30675E-03 7.52955E-05-5.66630E-14
 -1      4101 7.79287E-03 1.04655E-04-6.38779E-14
 -1      4102 7.65511E-03 1.05937E-04-6.17597E-14
 -1      4103 7.58435E-03 7.37906E-05-6.07821E-14
 -1      4104 8.06609E-03 1.02120E-04-6.81954E-14
 -1      4105 7.92988E-03 1.03394E-04-6.60237E-14
 -1      4106 7.85931E-03 7.22728E-05-6.50168E-14
 -1      4107 8.33565E-03 9.97760E-05-7.26177E-14
 -1      4108 8.20136E-03 1.00928E-04-7.03936E-14
 -1      4109 8.13102E-03 7.08872E-05-6.93621E-14
 -1      4110 8.60074E-03 9.79276E-05-7.71383E-14
 -1      4111 8.46879E-03 9.87955E-05-7.48653E-14
 -1      4112 8.39874E-03 6.98483E-05-7.38099E-14
 -1      4113 8.86039E-03 9.69607E-05-8.17525E-14
 -1      4114 8.73130E-03 9.73457E-05-7.94345E-14
 -1      4115 8.66159E-03 6.94470E-05-7.83542E-14
 -1      4116 9.11337E-03 9.73153E-05-8.64514E-14
 -1      4117 8.98778E-03 9.70009E-05-8.40922E-14
 -1      4118 8.91850E-03 7.00475E-05-8.29885E-14
 -1      4119 9.35807E-03 9.94008E-05-9.12304E-14
 -1      4120 9.23684E-03 9.82100E-05-8.88313E-14
 -1      4121 9.16809E-03 7.20643E-05-8.77075E-14
 -1      4122 9.59228E-03 1.03528E-04-9.60857E-14
 -1      4123 9.47658E-03 1.01311E-04-9.36480E-14
 -1      4124 9.40836E-03 7.58849E-05-9.25041E-14
 -1      4125 9.94283E-03 1.37658E-04-1.03356E-13
 -1      4126 1.77878E-03 6.08374E-05-4.33483E-15
 -1      4127 1.77782E-03 2.33731E-05-4.35557E-15
 -1      4128 1.93195E-03 8.55116E-05-4.98877E-15
 -1      4129 2.85666E-03-8.35678E-05-1.01182E-14
 -1      4130 3.00204E-03-8.39648E-05-1.10639E-14
 -1      4131 3.07394E-03-4.61072E-05-1.15384E-14
 -1      4132 2.27488E-03-8.00577E-05-6.74421E-15
 -1      4133 2.42025E-03-8.12740E-05-7.52653E-15
 -1      4134 2.53191E-03 1.87108E-04-7.91690E-15
 -1      4135 2.38678E-03 1.84806E-04-7.11678E-15
 -1      4136 2.35001E-03 1.37372E-04-6.99493E-15
 -1      4137 2.60189E-03 1.50815E-04-8.38026E-15
 -1      4138 3.23755E-03 1.97882E-04-1.23809E-14
 -1      4139 3.16319E-03 1.59655E-04-1.19351E-14
 -1      4140 3.38224E-03 1.98199E-04-1.34178E-14
 -1      4141 5.53776E-03 1.18563E-04-3.37124E-14
 -1      4142 5.39477E-03 1.19002E-04-3.21088E-14
 -1      4143 5.25164E-03 1.19409E-04-3.05410E-14
 -1      4144 5.10838E-03 1.19793E-04-2.90099E-14
 -1      4145 5.32299E-03 8.20572E-05-3.13781E-14
 -1      4146 5.82333E-03 1.17582E-04-3.70256E-14
 -1      4147 5.68062E-03 1.18092E-04-3.53518E-14
 -1      4148 5.60899E-03 8.14720E-05-3.45855E-14
 -1      4149 6.95763E-03 1.11636E-04-5.16149E-14
 -1      4150 6.81680E-03 1.12601E-04-4.96774E-14
 -1      4151 6.74562E-03 7.79566E-05-4.87846E-14
 -1      4152 7.02703E-03 7.66993E-05-5.26614E-14
 -1      4153 2.56572E-03-8.22550E-05-8.34985E-15
 -1      4154 2.71121E-03-8.30011E-05-9.21393E-15
 -1      4155 2.78304E-03-4.56934E-05-9.65052E-15
 -1      4156 4.96500E-03 1.20149E-04-2.75147E-14
 -1      4157 4.82150E-03 1.20486E-04-2.60558E-14
 -1      4158 5.03644E-03 8.25652E-05-2.83147E-14
 -1      4159 1.79095E-03-1.34203E-05-4.42734E-15
 -1      4160 1.86251E-03-6.43391E-05-4.74691E-15
 -1      4161 1.97105E-03-6.80501E-05-5.24109E-15
 -1      4162 1.94317E-03 8.65541E-06-5.09580E-15
 -1      4163 4.67787E-03 1.20797E-04-2.46349E-14
 -1      4164 4.53412E-03 1.21089E-04-2.32504E-14
 -1      4165 4.74937E-03 8.30084E-05-2.53977E-14
 -1      4166 5.89437E-03 8.07909E-05-3.79347E-14
 -1      4167 3.23417E-03 1.21786E-04-1.24907E-14
 -1      4168 3.08905E-03 1.21431E-04-1.14896E-14
 -1      4169 9.72792E-03 1.07783E-04-9.90593E-14
 -1      4170 9.65999E-03 8.29408E-05-9.78926E-14
 -1      4171 2.07678E-03 8.77473E-05-5.66592E-15
 -1      4172 3.67123E-03 1.98348E-04-1.56091E-14
 -1      4173 3.52680E-03 1.98349E-04-1.44934E-14
 -1      4174 3.45291E-03 1.60214E-04-1.40119E-14
 -1      4175 3.74211E-03 1.60236E-04-1.62463E-14
 -1      4176 4.39023E-03 1.21353E-04-2.19029E-14
 -1      4177 4.24622E-03 1.21594E-04-2.05928E-14
 -1      4178 4.46177E-03 8.33890E-05-2.26273E-14
 -1      4179 2.06839E-03-7.23469E-05-5.70332E-15
 -1      4180 2.17730E-03-7.58855E-05-6.24191E-15
 -1      4181 2.24889E-03-4.05866E-05-6.60630E-15
 -1      4182 2.05396E-03-3.32027E-05-5.63089E-15
 -1      4183 4.10206E-03 1.21796E-04-1.93204E-14
 -1      4184 3.95777E-03 1.21967E-04-1.80850E-14
 -1      4185 4.17361E-03 8.36961E-05-2.00050E-14
 -1      4186 9.81393E-03 4.78235E-05-1.01605E-13
 -1      4187 9.74674E-03 6.31689E-05-1.00047E-13
 -1      4188 9.61560E-03 5.74559E-05-9.70685E-14
 -1      4189 3.01516E-03 8.32464E-05-1.10459E-14
 -1      4190 2.94381E-03 1.20895E-04-1.05286E-14
 -1      4191 2.79848E-03 1.20181E-04-9.60751E-15
 -1      4192 2.49196E-03-4.48531E-05-7.92404E-15
 -1      4193 9.78419E-03 2.21935E-05-1.00642E-13
 -1      4194 9.83531E-03 1.10816E-04-1.01531E-13
 -1      4195 3.37918E-03 1.22015E-04-1.35312E-14
 -1      4196 3.30563E-03 8.37778E-05-1.30507E-14
 -1      4197 3.52404E-03 1.22120E-04-1.46102E-14
 -1      4198 3.58169E-03-8.03848E-06-1.51992E-14
 -1      4199 3.72653E-03-7.99749E-06-1.63384E-14
 -1      4200 3.91391E-03 1.89025E-05-1.78489E-14
 -1      4201 4.05838E-03 1.89113E-05-1.90759E-14
 -1      4202 4.20270E-03 1.89053E-05-2.03399E-14
 -1      4203 4.34687E-03 1.89042E-05-2.16424E-14
 -1      4204 4.49089E-03 1.88903E-05-2.29814E-14
 -1      4205 4.63477E-03 1.88804E-05-2.43564E-14
 -1      4206 4.77851E-03 1.88601E-05-2.57685E-14
 -1      4207 4.92212E-03 1.88430E-05-2.72173E-14
 -1      4208 5.06559E-03 1.88169E-05-2.87021E-14
 -1      4209 5.20892E-03 1.87931E-05-3.02247E-14
 -1      4210 5.35210E-03 1.87608E-05-3.17816E-14
 -1      4211 5.49515E-03 1.87300E-05-3.33755E-14
 -1      4212 5.63804E-03 1.86905E-05-3.50056E-14
 -1      4213 5.78077E-03 1.86523E-05-3.66705E-14
 -1      4214 5.92333E-03 1.86045E-05-3.83703E-14
 -1      4215 6.06570E-03 1.85590E-05-4.01042E-14
 -1      4216 6.20787E-03 1.85028E-05-4.18720E-14
 -1      4217 6.34980E-03 1.84515E-05-4.36723E-14
 -1      4218 6.49148E-03 1.83887E-05-4.55060E-14
 -1      4219 6.63288E-03 1.83358E-05-4.73725E-14
 -1      4220 6.77396E-03 1.82716E-05-4.92705E-14
 -1      4221 6.91469E-03 1.82259E-05-5.12008E-14
 -1      4222 7.05501E-03 1.81708E-05-5.31635E-14
 -1      4223 7.19490E-03 1.81480E-05-5.51565E-14
 -1      4224 7.33429E-03 1.81208E-05-5.71794E-14
 -1      4225 7.47312E-03 1.81468E-05-5.92321E-14
 -1      4226 7.61133E-03 1.81780E-05-6.13131E-14
 -1      4227 7.74887E-03 1.82932E-05-6.34223E-14
 -1      4228 7.88563E-03 1.84295E-05-6.55618E-14
 -1      4229 8.02157E-03 1.86932E-05-6.77275E-14
 -1      4230 8.15657E-03 1.90024E-05-6.99194E-14
 -1      4231 8.29057E-03 1.94986E-05-7.21374E-14
 -1      4232 8.42342E-03 2.00743E-05-7.43784E-14
 -1      4233 8.55506E-03 2.09173E-05-7.66431E-14
 -1      4234 8.68532E-03 2.18827E-05-7.89324E-14
 -1      4235 8.81412E-03 2.32211E-05-8.12432E-14
 -1      4236 8.94123E-03 2.47300E-05-8.35743E-14
 -1      4237 9.06658E-03 2.67512E-05-8.59264E-14
 -1      4238 9.18981E-03 2.89853E-05-8.82984E-14
 -1      4239 9.31088E-03 3.19237E-05-9.06919E-14
 -1      4240 9.83606E-03-6.15721E-06-1.01293E-13
 -1      4241 9.42927E-03 3.50879E-05-9.31020E-14
 -1      4242 2.23710E-03 8.44766E-05-6.46836E-15
 -1      4243 2.09059E-03 4.28507E-05-5.77233E-15
 -1      4244 2.70991E-03-8.06600E-06-9.18699E-15
 -1      4245 2.85546E-03-8.08155E-06-1.00896E-14
 -1      4246 3.04390E-03 1.86185E-05-1.13006E-14
 -1      4247 3.18924E-03 1.87181E-05-1.22941E-14
 -1      4248 3.33446E-03 1.87759E-05-1.33269E-14
 -1      4249 3.47954E-03 1.88309E-05-1.43990E-14
 -1      4250 3.55239E-03 5.70771E-05-1.49141E-14
 -1      4251 2.97165E-03 5.64711E-05-1.07887E-14
 -1      4252 2.44384E-03-2.67952E-06-7.63934E-15
 -1      4253 2.51688E-03 3.42935E-05-8.02635E-15
 -1      4254 9.54487E-03 3.93284E-05-9.55311E-14
 -1      4255 9.64856E-03 1.80093E-05-9.76612E-14
 -1      4256 9.75518E-03 1.11510E-05-9.98648E-14
 -1      4257 2.36294E-03 9.08195E-05-7.12310E-15
 -1      4258 3.84188E-03 5.70756E-05-1.72119E-14
 -1      4259 3.77014E-03 9.52573E-05-1.65780E-14
 -1      4260 2.10345E-03 3.69251E-06-5.85850E-15
 -1      4261 2.29840E-03-2.68200E-06-6.85262E-15
 -1      4262 3.62547E-03 9.52892E-05-1.54299E-14
 -1      4263 2.72433E-03 8.22312E-05-9.20046E-15
 -1      4264 2.65311E-03 1.19212E-04-8.72722E-15
 -1      4265 2.52715E-03 1.12960E-04-8.00433E-15
 -1      4266 2.20087E-03 5.41034E-07-6.34594E-15
 -1      4267 2.41486E-03 5.97558E-05-7.43597E-15
 -1      4268 2.82621E-03 5.61442E-05-9.85656E-15
 -1      4269 2.68069E-03 5.57098E-05-8.96429E-15
 -3
    1PSTEP                         2           1           1          
  100CL  101 1.000000000        4269                     0    1           1
 -4  STRESS      6    1
 -5  SXX         1    4    1    1
 -5  SYY         1    4    2    2
 -5  SZZ         1    4    3    3
 -5  SXY         1    4    1    2
 -5  SYZ         1    4    2    3
 -5  SZX         1    4    3    1
 -1         1 4.81987E+01 7.84208E+00 2.54485E+00 1.86278E+01-8.44547E-13-1.85735E-12
 -1         2-9.06306E-01-3.00646E+01-4.20906E+00 1.74579E-01-3.53237E-13-4.13905E-14
 -1         3 1.99949E+01-3.56849E-03 7.20014E-02-5.32486E-03-6.43746E-13-6.79199E-13
 -1         4 2.00290E+01 3.10818E-02 3.94572E-02-2.93683E-02 1.96467E-13-2.04887E-15
 -1         5 3.27688E+01 6.14289E+00 2.74238E+00 6.22426E+00-5.58165E-14 4.25320E-12
 -1         6 3.57527E+01 1.22635E+01 5.12533E+00-8.64660E+00-2.56517E-13 4.04154E-12
 -1         7 2.08199E+01 6.10002E+00-1.28576E-01-4.72522E+00-3.83860E-14 6.98580E-13
 -1         8 1.96728E+01 5.93524E+00 5.10088E-02-3.27423E+00-4.61020E-14-3.31843E-13
 -1         9 1.91375E+01 5.77204E+00 4.91086E-02-2.52593E+00-4.25424E-14-8.86895E-13
 -1        10 1.88954E+01 5.69216E+00 5.10596E-02-1.95077E+00-2.99153E-14-1.14627E-12
 -1        11 1.87736E+01 5.65117E+00 5.02521E-02-1.45558E+00-1.93695E-14-1.26301E-12
 -1        12 1.87096E+01 5.62943E+00 4.87259E-02-1.01477E+00-1.01538E-14-1.30668E-12
 -1        13 1.86758E+01 5.61794E+00 4.73979E-02-5.95137E-01-3.59272E-15-1.31059E-12
 -1        14 1.86616E+01 5.61308E+00 4.66788E-02-1.91141E-01 1.52732E-15-1.30456E-12
 -1        15 1.86621E+01 5.61324E+00 4.67215E-02 2.08119E-01 1.05302E-14-1.28485E-12
 -1        16 1.86774E+01 5.61843E+00 4.75433E-02 6.12955E-01 1.48890E-14-1.24626E-12
 -1        17 1.87124E+01 5.63020E+00 4.90616E-02 1.03459E+00 2.03524E-14-1.19075E-12
 -1        18 1.87775E+01 5.65232E+00 5.08173E-02 1.47858E+00 2.87244E-14-1.09283E-12
 -1        19 1.89011E+01 5.69380E+00 5.15356E-02 1.97965E+00 4.16420E-14-9.15492E-13
 -1        20 1.91429E+01 5.77463E+00 4.87995E-02 2.56326E+00 4.99600E-14-5.83362E-13
 -1        21 1.96683E+01 5.94984E+00 4.59587E-02 3.30831E+00 5.72251E-14 6.40659E-14
 -1        22 2.12027E+01 6.38175E+00 1.39747E-01 4.52275E+00 1.19210E-14 1.36078E-12
 -1        23 2.30309E+01-1.37928E+00-9.38381E-01-7.11069E-01-1.70454E-13 3.13378E-12
 -1        24 1.93688E+01-9.94936E-02-3.09832E-01 6.32453E-02-4.49337E-14 2.34919E-12
 -1        25 1.86810E+01-5.63223E-02-6.87742E-02 6.07334E-02-2.46322E-14 1.55372E-12
 -1        26 1.84788E+01-2.20867E-02-6.47289E-03 3.29779E-02-2.31900E-15 9.91080E-13
 -1        27 1.84906E+01-1.17992E-02 1.58467E-03 2.26214E-02-2.72241E-14 6.35426E-13
 -1        28 1.86052E+01-6.23249E-03 1.79520E-03 1.63250E-02-4.98158E-15 3.50035E-13
 -1        29 1.87654E+01-3.07435E-03 1.73606E-03 1.21769E-02 2.62210E-14 1.46202E-13
 -1        30 1.89399E+01-1.21540E-03 1.92153E-03 9.22296E-03-1.88000E-15-3.13772E-14
 -1        31 1.91109E+01-1.15689E-04 2.08846E-03 7.00264E-03-3.27738E-15-2.39330E-13
 -1        32 1.92685E+01 5.14958E-04 2.12711E-03 5.28184E-03-2.37624E-14-4.18726E-13
 -1        33 1.94079E+01 8.45401E-04 2.04380E-03 3.92974E-03 5.46649E-14-5.59594E-13
 -1        34 1.95272E+01 9.80674E-04 1.87611E-03 2.86305E-03-4.12602E-15-4.63631E-13
 -1        35 1.96266E+01 9.88915E-04 1.65911E-03 2.02245E-03-4.95728E-15-4.97372E-13
 -1        36 1.97076E+01 9.14896E-04 1.41785E-03 1.36239E-03-4.91570E-16-4.76314E-13
 -1        37 1.97723E+01 7.87479E-04 1.16761E-03 8.46584E-04-2.99928E-14-5.81952E-13
 -1        38 1.98233E+01 6.24105E-04 9.15501E-04 4.46000E-04 2.30443E-15-7.31117E-13
 -1        39 1.98637E+01 4.33720E-04 6.62015E-04 1.38070E-04-3.96537E-15-8.34587E-13
 -1        40 1.98964E+01 2.18859E-04 4.02204E-04-9.34708E-05 1.95844E-14-8.99932E-13
 -1        41 1.99248E+01-2.27602E-05 1.26660E-04-2.58357E-04 1.77967E-14-1.06248E-12
 -1        42 1.99525E+01-2.96894E-04-1.77694E-04-3.59256E-04-9.00987E-15-9.46383E-13
 -1        43 1.99835E+01-6.11455E-04-5.26844E-04-3.90926E-04-1.84633E-14-8.51225E-13
 -1        44 2.00225E+01-9.75005E-04-9.38769E-04-3.39034E-04-3.61115E-14-8.45963E-13
 -1        45 2.00748E+01-1.39475E-03-1.43203E-03-1.78658E-04-1.15218E-14-8.50283E-13
 -1        46 2.01468E+01-1.87363E-03-2.02339E-03 1.27454E-04 2.71888E-14-8.41153E-13
 -1        47 2.02460E+01-2.40597E-03-2.72361E-03 6.30580E-04 4.88742E-15-7.48093E-13
 -1        48 2.03809E+01-2.97091E-03-3.53013E-03 1.39701E-03 2.02816E-14-5.50177E-13
 -1        49 2.05609E+01-3.52260E-03-4.41444E-03 2.50683E-03-5.52152E-15-5.21216E-13
 -1        50 2.07959E+01-3.97622E-03-5.30092E-03 4.04770E-03-3.86185E-14-6.91803E-13
 -1        51 2.10951E+01-4.18933E-03-6.03262E-03 6.09776E-03 4.16535E-14-4.55637E-13
 -1        52 2.14645E+01-3.93974E-03-6.31977E-03 8.68808E-03 2.42590E-14-3.27514E-13
 -1        53 2.19040E+01-2.90666E-03-5.67111E-03 1.17283E-02-8.63776E-15-3.86725E-13
 -1        54 2.24014E+01-6.72204E-04-3.32583E-03 1.48743E-02-4.36611E-14-5.59907E-13
 -1        55 2.29241E+01 3.22063E-03 1.75324E-03 1.73199E-02-5.51138E-14-8.76933E-13
 -1        56 2.34100E+01 9.09140E-03 1.06810E-02 1.75318E-02 1.61108E-14-1.07830E-12
 -1        57 2.37569E+01 1.67579E-02 2.40175E-02 1.30572E-02 6.22223E-14-1.06654E-12
 -1        58 2.38209E+01 2.49900E-02 4.04795E-02 7.72631E-04 5.99219E-14-1.21350E-12
 -1        59 2.34330E+01 3.09717E-02 5.52211E-02-2.17976E-02-3.23370E-14-9.55290E-13
 -1        60 2.24511E+01 3.05601E-02 5.93473E-02-5.36530E-02-1.55681E-14-5.25541E-13
 -1        61 2.08497E+01 1.99007E-02 4.21473E-02-8.65981E-02 2.69641E-14-5.12292E-13
 -1        62 1.88201E+01-1.06679E-03 3.57277E-04-1.04550E-01-7.24150E-14-3.68372E-13
 -1        63 1.67976E+01-2.59267E-02-5.32645E-02-9.11798E-02-8.03962E-14-4.93900E-13
 -1        64 1.53297E+01-4.34756E-02-9.19837E-02-4.41132E-02-5.18899E-14-1.11157E-12
 -1        65 1.48108E+01-4.48571E-02-9.29365E-02 1.75442E-02 7.05933E-14-1.22057E-12
 -1        66 1.52582E+01-3.05804E-02-5.76017E-02 6.41485E-02-2.28823E-14-6.82100E-13
 -1        67 1.63238E+01-1.01238E-02-1.10355E-02 7.82603E-02 1.46834E-14-2.05926E-13
 -1        68 1.75375E+01 5.62270E-03 2.00025E-02 6.54827E-02 4.66251E-14 5.62675E-14
 -1        69 1.85726E+01 1.23049E-02 2.76418E-02 4.54003E-02 2.65741E-14 2.60608E-13
 -1        70 1.93416E+01 1.37414E-02 2.73501E-02 3.46489E-02-1.20804E-14 1.79714E-13
 -1        71 1.98728E+01 8.19751E-03 4.05705E-02 2.72076E-02-3.86251E-14-6.52863E-15
 -1        72 2.10435E+01-4.04900E-01-9.80433E-01-3.11652E-01 5.54244E-14 3.86555E-12
 -1        73 1.93333E+01-6.58830E-02-2.91123E-01-5.38410E-02 3.73954E-14 2.90279E-12
 -1        74 1.86904E+01-2.05064E-02-6.42680E-02-2.03497E-02 2.30891E-14 2.16098E-12
 -1        75 1.84880E+01-9.87901E-03-9.31255E-03-1.54506E-02 1.22513E-14 1.70775E-12
 -1        76 1.84996E+01-5.16448E-03 6.77625E-04-1.23862E-02-2.27997E-15 1.38297E-12
 -1        77 1.86134E+01-2.61207E-03 1.74380E-03-1.01182E-02 1.72067E-14 1.09905E-12
 -1        78 1.87726E+01-1.13982E-03 1.88151E-03-8.38108E-03 1.32471E-14 9.16251E-13
 -1        79 1.89461E+01-2.73334E-04 2.07767E-03-6.95235E-03-3.12526E-15 7.98634E-13
 -1        80 1.91161E+01 2.28842E-04 2.22325E-03-5.72443E-03-1.06745E-14 7.40594E-13
 -1        81 1.92729E+01 5.01715E-04 2.23955E-03-4.65471E-03 2.36440E-14 5.93376E-13
 -1        82 1.94114E+01 6.26995E-04 2.13676E-03-3.72438E-03 2.26660E-14 3.77138E-13
 -1        83 1.95300E+01 6.56573E-04 1.95214E-03-2.92106E-03 1.44414E-14 1.83651E-13
 -1        84 1.96288E+01 6.24281E-04 1.72043E-03-2.23277E-03 1.27173E-14 1.38228E-13
 -1        85 1.97091E+01 5.52048E-04 1.46650E-03-1.64632E-03 1.50260E-14 6.66826E-14
 -1        86 1.97733E+01 4.53429E-04 1.20547E-03-1.14722E-03-1.16318E-14-3.82087E-14
 -1        87 1.98239E+01 3.35784E-04 9.44205E-04-7.20307E-04-7.97705E-15-1.37429E-13
 -1        88 1.98637E+01 2.01729E-04 6.82826E-04-3.50584E-04-6.65948E-15-4.86303E-14
 -1        89 1.98958E+01 5.01451E-05 4.15834E-04-2.39931E-05 7.91831E-14-3.14200E-13
 -1        90 1.99236E+01-1.23095E-04 1.32904E-04 2.71743E-04-3.95715E-15-6.52795E-13
 -1        91 1.99505E+01-3.24557E-04-1.80611E-04 5.46226E-04 1.08599E-14-5.64200E-13
 -1        92 1.99808E+01-5.62745E-04-5.43426E-04 8.05300E-04-5.11258E-14-3.64379E-13
 -1        93 2.00190E+01-8.47543E-04-9.78229E-04 1.04961E-03 2.68569E-14-2.83321E-13
 -1        94 2.00709E+01-1.18940E-03-1.51162E-03 1.27249E-03-3.35894E-15-4.33666E-13
 -1        95 2.01433E+01-1.59797E-03-2.17382E-03 1.45682E-03 3.25162E-15-4.14395E-13
 -1        96 2.02445E+01-2.07960E-03-2.99752E-03 1.57014E-03 9.42313E-15-3.45086E-13
 -1        97 2.03846E+01-2.63282E-03-4.01485E-03 1.55714E-03-5.49483E-14-2.35435E-13
 -1        98 2.05759E+01-3.24032E-03-5.24995E-03 1.32830E-03 8.07442E-14-4.45214E-13
 -1        99 2.08327E+01-3.85487E-03-6.70262E-03 7.43280E-04 1.48522E-14-8.38560E-13
 -1       100 2.11711E+01-4.37623E-03-8.31409E-03-4.11400E-04-6.06976E-14-5.81318E-13
 -1       101 2.16080E+01-4.61536E-03-9.89952E-03-2.44722E-03 6.23676E-14-7.58907E-13
 -1       102 2.21583E+01-4.24588E-03-1.10236E-02-5.78752E-03-2.66553E-14-8.59763E-13
 -1       103 2.28295E+01-2.75404E-03-1.07946E-02-1.09317E-02 4.68229E-15-6.66045E-13
 -1       104 2.36119E+01 5.69678E-04-7.58620E-03-1.82803E-02-2.92950E-14-4.40814E-13
 -1       105 2.44620E+01 6.49014E-03 1.16852E-03-2.76518E-02 1.17114E-13-3.47992E-13
 -1       106 2.52785E+01 1.53407E-02 1.86282E-02-3.72644E-02-5.69068E-14-3.98221E-13
 -1       107 2.58756E+01 2.59761E-02 4.66306E-02-4.21565E-02-1.17493E-14-3.29826E-13
 -1       108 2.59704E+01 3.43910E-02 8.11841E-02-3.29949E-02-8.83898E-14-5.77580E-13
 -1       109 2.52262E+01 3.35107E-02 1.06709E-01 1.69077E-03 5.05212E-14-4.63560E-13
 -1       110 2.34010E+01 1.68870E-02 9.60110E-02 6.55461E-02-5.59925E-14-4.71241E-13
 -1       111 2.06042E+01-1.32341E-02 2.72684E-02 1.38263E-01 1.21739E-13-4.75363E-13
 -1       112 1.75074E+01-4.04165E-02-8.28592E-02 1.71274E-01-9.61872E-14-3.98521E-13
 -1       113 1.51959E+01-4.82556E-02-1.68628E-01 1.24018E-01 9.37553E-14-1.11345E-13
 -1       114 1.45149E+01-3.15865E-02-1.65776E-01 1.66752E-02-8.75333E-14 5.51711E-14
 -1       115 1.54670E+01-5.89595E-03-7.70988E-02-8.49030E-02 1.67862E-14 6.13815E-14
 -1       116 1.72157E+01 1.26929E-02 2.47763E-02-1.19523E-01 1.27310E-13-5.96412E-13
 -1       117 1.87595E+01 1.66434E-02 7.49333E-02-8.83361E-02 2.05058E-14-1.35144E-12
 -1       118 1.95879E+01 1.01254E-02 6.28873E-02-3.47455E-02 5.07999E-14-1.16303E-12
 -1       119 1.98202E+01 3.56126E-03 2.56392E-02-1.71651E-03 8.87322E-14-1.66697E-12
 -1       120 1.99043E+01 1.63438E-02 2.92941E-02-1.97138E-02 2.45432E-13-1.71307E-12
 -1       121 1.99924E+01-8.98712E-02-7.23650E-03-4.63324E-02-1.52832E-12 9.18048E-14
 -1       122 1.99584E+01-3.24490E-02-7.55052E-02-2.79021E-02-6.58024E-13 3.03089E-13
 -1       123 1.99419E+01 8.14418E-01-1.25349E-01 2.78794E-02 3.61839E-13 2.07762E-13
 -1       124 1.99454E+01 2.88029E+00-1.34453E-01 1.15234E-01 6.30149E-13 1.09330E-13
 -1       125 1.99819E+01 6.20541E+00-6.68753E-02 2.02434E-01 7.05956E-13-4.60192E-14
 -1       126 2.00461E+01 1.00574E+01 7.36065E-02 2.27213E-01-5.75935E-13-1.03308E-13
 -1       127 2.01062E+01 1.31895E+01 2.20762E-01 1.42588E-01-7.10397E-13 1.95898E-13
 -1       128 2.01267E+01 1.41235E+01 2.72588E-01-2.53977E-02-1.26254E-13-4.78003E-15
 -1       129 2.00927E+01 1.23629E+01 1.87941E-01-1.80092E-01 5.06373E-13-2.66445E-14
 -1       130 2.00272E+01 8.70944E+00 3.16089E-02-2.36513E-01 8.37469E-13-7.95070E-14
 -1       131 1.99688E+01 4.67907E+00-9.37160E-02-1.88264E-01 1.87059E-13-2.52365E-13
 -1       132 1.99365E+01 1.55217E+00-1.43012E-01-9.94596E-02 5.88973E-14 2.58520E-13
 -1       133 1.99380E+01-2.63542E-01-1.25995E-01-1.50927E-02-3.49876E-13-1.11677E-13
 -1       134 1.99569E+01-8.27737E-01-7.66996E-02 3.97087E-02 5.42533E-13 2.08869E-13
 -1       135 1.99896E+01-5.98850E-01-1.73535E-02 6.52312E-02 2.08056E-13-2.54714E-13
 -1       136 1.99955E+01-1.53614E-01 1.89586E-02 5.76145E-02-2.36273E-13-1.98367E-14
 -1       137-1.73936E+00-2.44168E+01-3.80113E+00-4.69976E+00-3.61988E-13-2.69097E-13
 -1       138-1.60232E+00-9.30828E+00-2.53634E+00-3.10194E+00 1.11577E-13 1.09690E-13
 -1       139 5.70889E+00 5.96571E+00-7.40878E-01 6.14037E+00 4.83391E-13 3.52662E-13
 -1       140 2.07288E+01 1.28119E+01 9.81841E-01 1.61235E+01 4.33820E-13 3.28737E-13
 -1       141 4.27926E+01 1.10756E+01 2.56680E+00 2.10322E+01 4.08396E-13 8.98448E-13
 -1       142 6.32198E+01 4.97532E+00 3.67284E+00 1.59969E+01 9.36820E-14 4.23273E-13
 -1       143 7.22145E+01 1.01372E+00 4.02056E+00 2.79777E+00 3.87641E-14-1.09329E-12
 -1       144 6.57759E+01 2.72768E+00 3.57590E+00-1.09751E+01 5.40967E-13-2.04003E-12
 -1       145 4.63007E+01 7.90437E+00 2.41813E+00-1.82402E+01 9.85295E-13-2.58776E-12
 -1       146 2.46280E+01 1.08422E+01 9.62485E-01-1.61040E+01 1.45040E-12-2.23754E-12
 -1       147 7.53958E+00 6.68813E+00-6.03828E-01-7.30491E+00 1.47532E-12-1.16124E-12
 -1       148-8.02020E-01-4.84006E+00-1.97689E+00 1.46732E+00 1.05210E-12-8.88567E-13
 -1       149-2.20357E+00-1.75994E+01-2.94128E+00 5.19949E+00 3.91520E-13 1.45856E-14
 -1       150-9.82381E-01-2.64293E+01-3.46945E+00 2.65770E+00 1.49561E-13-1.14351E-13
 -1       151-1.00587E+00-2.59459E+01-3.42882E+00-2.57878E+00-5.30381E-13-1.52425E-13
 -1       152-2.04190E+00-1.60080E+01-2.80422E+00-4.69851E+00-1.61648E-12-6.62040E-13
 -1       153-2.64103E-02-2.33560E+00-1.72270E+00-3.03573E-01-1.54943E-12-7.08211E-13
 -1       154 9.14719E+00 8.13751E+00-3.33336E-01 8.70757E+00-1.16812E-12-9.36307E-13
 -1       155 2.63903E+01 1.12695E+01 1.15607E+00 1.69419E+01-1.18067E-12-1.81477E-12
 -1       156 6.60113E+01 2.47661E+00 3.52574E+00 1.06463E+01-2.04059E-13-1.24051E-12
 -1       157 7.13141E+01 1.04421E+00 3.87044E+00-3.50527E+00 4.53249E-14-7.50205E-13
 -1       158 6.16691E+01 5.12174E+00 3.49109E+00-1.61495E+01 8.19345E-14-1.04805E-13
 -1       159 4.17765E+01 1.10639E+01 2.46700E+00-2.07857E+01-1.13937E-13 4.85112E-13
 -1       160 1.95354E+01 1.23757E+01 8.55864E-01-1.54385E+01-1.03106E-12 1.18594E-12
 -1       161 4.49376E+00 4.84821E+00-8.76599E-01-4.88824E+00-2.32503E-12 1.49086E-12
 -1       162-1.63331E+00-9.06641E+00-2.50003E+00 3.27093E+00-2.51588E-12 1.26940E-12
 -1       163-1.72334E+00-2.34143E+01-3.70872E+00 4.58287E+00-2.50133E-13 2.75155E-13
 -1       164 2.10146E+01 3.69402E+00-5.73677E-02-3.61002E+00-5.92679E-13 1.59858E-13
 -1       165 1.99918E+01 4.20742E+00-4.57993E-02-2.80872E+00-5.49199E-13-4.90507E-13
 -1       166 1.95071E+01 4.47804E+00-3.17242E-02-2.19461E+00-4.49622E-13-8.33743E-13
 -1       167 1.92680E+01 4.61457E+00-2.38245E-02-1.67430E+00-3.29632E-13-1.01251E-12
 -1       168 1.91365E+01 4.69721E+00-1.95859E-02-1.21868E+00-2.21564E-13-1.07497E-12
 -1       169 1.90625E+01 4.74794E+00-1.74490E-02-7.91901E-01-1.19708E-13-1.09575E-12
 -1       170 1.90252E+01 4.77575E+00-1.64257E-02-3.86791E-01-1.58122E-14-1.09981E-12
 -1       171 1.90143E+01 4.78428E+00-1.61317E-02 8.25992E-03 6.61281E-14-1.08932E-12
 -1       172 1.90269E+01 4.77448E+00-1.64643E-02 4.03645E-01 1.48373E-13-1.06161E-12
 -1       173 1.90663E+01 4.74496E+00-1.75185E-02 8.09792E-01 2.38652E-13-1.02092E-12
 -1       174 1.91411E+01 4.69254E+00-1.96870E-02 1.23119E+00 3.34376E-13-9.38267E-13
 -1       175 1.92770E+01 4.60540E+00-2.40071E-02 1.69783E+00 4.46633E-13-8.12119E-13
 -1       176 1.95242E+01 4.45961E+00-3.28511E-02 2.22616E+00 5.43706E-13-5.91433E-13
 -1       177 2.00141E+01 4.18388E+00-4.72109E-02 2.84641E+00 6.11754E-13-1.60243E-13
 -1       178 2.11361E+01 3.46367E+00-5.97753E-02 3.53640E+00 5.87792E-13 6.20295E-13
 -1       179 2.24206E+01 1.14332E+00-3.36467E-01 3.01459E+00 4.39701E-13 1.64979E-12
 -1       180 2.19729E+01 8.58285E-01 6.08733E-04-1.95860E+00-5.25507E-13 9.12596E-13
 -1       181 2.04489E+01 1.90049E-01-9.98724E-03-7.63859E-01-4.61547E-13 6.55490E-13
 -1       182 1.96735E+01 1.01669E-01 1.35724E-02-2.85473E-01-3.52334E-13 4.26686E-13
 -1       183 1.93340E+01 4.72285E-02 1.00108E-02-6.76905E-02-2.30268E-13 2.01816E-13
 -1       184 1.92046E+01 2.25672E-02 5.16914E-03 3.96338E-02-1.68972E-13 8.00451E-14
 -1       185 1.91914E+01 9.51202E-03 2.43301E-03 9.22360E-02-1.49955E-13-1.63696E-14
 -1       186 1.92402E+01 2.11209E-03 1.12651E-03 1.14588E-01-1.11182E-13-1.30902E-13
 -1       187 1.93195E+01-2.13272E-03 4.91081E-04 1.19463E-01-1.08494E-13-1.70140E-13
 -1       188 1.94104E+01-4.45227E-03 1.54932E-04 1.14261E-01-1.31250E-13-2.09340E-13
 -1       189 1.95019E+01-5.54355E-03-3.25794E-05 1.03576E-01-9.84595E-14-2.61927E-13
 -1       190 1.95875E+01-5.84403E-03-1.34611E-04 9.03552E-02 3.54995E-16-4.48653E-13
 -1       191 1.96639E+01-5.64163E-03-1.82501E-04 7.65013E-02-1.82973E-14-4.76861E-13
 -1       192 1.97299E+01-5.12760E-03-1.94696E-04 6.32298E-02-2.82927E-14-4.79015E-13
 -1       193 1.97856E+01-4.42609E-03-1.82969E-04 5.13036E-02-4.80379E-14-3.91778E-13
 -1       194 1.98318E+01-3.61210E-03-1.54857E-04 4.11971E-02-1.06558E-13-3.64319E-13
 -1       195 1.98703E+01-2.72340E-03-1.14928E-04 3.32169E-02-6.43735E-14-4.27375E-13
 -1       196 1.99029E+01-1.76893E-03-6.55937E-05 2.75929E-02-5.04132E-14-4.66932E-13
 -1       197 1.99320E+01-7.35254E-04-7.68981E-06 2.45486E-02-3.74870E-14-5.84969E-13
 -1       198 1.99601E+01 4.08413E-04 5.90517E-05 2.43549E-02-3.07986E-14-5.83373E-13
 -1       199 1.99903E+01 1.70564E-03 1.35565E-04 2.73702E-02 6.92757E-14-6.09251E-13
 -1       200 2.00260E+01 3.20796E-03 2.22978E-04 3.40671E-02-3.37743E-15-5.15954E-13
 -1       201 2.00711E+01 4.96873E-03 3.22013E-04 4.50436E-02-2.83301E-14-5.10670E-13
 -1       202 2.01302E+01 7.03396E-03 4.32171E-04 6.10137E-02 7.12635E-14-4.67644E-13
 -1       203 2.02084E+01 9.42811E-03 5.50553E-04 8.27661E-02 8.27449E-14-4.48901E-13
 -1       204 2.03116E+01 1.21311E-02 6.70166E-04 1.11074E-01 5.65396E-14-3.98058E-13
 -1       205 2.04460E+01 1.50418E-02 7.77573E-04 1.46527E-01-3.27440E-14-3.93533E-13
 -1       206 2.06180E+01 1.79207E-02 8.49837E-04 1.89249E-01 2.88495E-15-3.80443E-13
 -1       207 2.08333E+01 2.03038E-02 8.51124E-04 2.38430E-01 8.75335E-14-3.64000E-13
 -1       208 2.10958E+01 2.13790E-02 7.30204E-04 2.91615E-01 3.70273E-14-3.40334E-13
 -1       209 2.14054E+01 1.98302E-02 4.21733E-04 3.43651E-01-8.73626E-14-3.59260E-13
 -1       210 2.17554E+01 1.36808E-02-1.43238E-04 3.85296E-01-4.27831E-14-3.18981E-13
 -1       211 2.21287E+01 2.50016E-04-1.01003E-03 4.01625E-01-1.76705E-13-3.06559E-13
 -1       212 2.24928E+01-2.35147E-02-2.14976E-03 3.70854E-01-5.92788E-14-3.36815E-13
 -1       213 2.27957E+01-5.98488E-02-3.39581E-03 2.65066E-01 4.08150E-14-3.35089E-13
 -1       214 2.29641E+01-1.07485E-01-4.39118E-03 5.55640E-02-4.80982E-14-4.44453E-13
 -1       215 2.29084E+01-1.57305E-01-4.63064E-03-2.73479E-01 1.34096E-13-5.12077E-13
 -1       216 2.25415E+01-1.88451E-01-3.76873E-03-7.01515E-01 1.57031E-13-6.59705E-13
 -1       217 2.18151E+01-1.69893E-01-1.62195E-03-1.14556E+00 7.59336E-14-3.34462E-13
 -1       218 2.07696E+01-7.63659E-02 6.62747E-04-1.45383E+00-1.84449E-14-2.84724E-13
 -1       219 1.95758E+01 8.09655E-02 2.12471E-03-1.45484E+00-1.02454E-13-4.79439E-13
 -1       220 1.85147E+01 2.37659E-01 2.57079E-03-1.06864E+00-2.83391E-13-6.16387E-13
 -1       221 1.78671E+01 3.06944E-01 3.00047E-03-4.01451E-01 8.65480E-14-4.55953E-13
 -1       222 1.77612E+01 2.48545E-01 3.98183E-03 2.79975E-01 2.06041E-13-3.75928E-13
 -1       223 1.80998E+01 1.09250E-01 4.39544E-03 7.16833E-01 3.98441E-13-3.67257E-13
 -1       224 1.86418E+01-2.01030E-02 3.31684E-03 8.22908E-01 2.15787E-13-1.07351E-13
 -1       225 1.91595E+01-7.97942E-02 9.52740E-04 6.97351E-01 1.20122E-13-1.60510E-13
 -1       226 1.95360E+01-7.36102E-02-2.85872E-04 5.07401E-01 3.10030E-14-1.43156E-13
 -1       227 1.97806E+01-6.88031E-02 1.72562E-03 3.43816E-01-2.78983E-14 6.39430E-14
 -1       228 2.09649E+01 2.77013E-01-5.13300E-02 1.16463E+00 4.65322E-13 1.39341E-12
 -1       229 1.98704E+01 1.26843E-01 8.31159E-03 4.42940E-01 3.55584E-13 1.05884E-12
 -1       230 1.93643E+01 5.80703E-02 1.27340E-02 1.49886E-01 2.32181E-13 7.92050E-13
 -1       231 1.91549E+01 2.77273E-02 7.62627E-03 1.05916E-02 1.84496E-13 5.97204E-13
 -1       232 1.91054E+01 1.30715E-02 3.82018E-03-5.85463E-02 1.49430E-13 4.68616E-13
 -1       233 1.91414E+01 5.12412E-03 1.90295E-03-9.09670E-02 8.61265E-14 3.44901E-13
 -1       234 1.92207E+01 5.78661E-04 1.00037E-03-1.02714E-01 5.89084E-14 2.61122E-13
 -1       235 1.93185E+01-2.01392E-03 5.40532E-04-1.02493E-01 6.41760E-14 1.66736E-13
 -1       236 1.94201E+01-3.39621E-03 2.77566E-04-9.54998E-02 1.04089E-13 8.27721E-14
 -1       237 1.95170E+01-4.00328E-03 1.17392E-04-8.50080E-02 7.28207E-14 1.15209E-13
 -1       238 1.96046E+01-4.11191E-03 2.01574E-05-7.31216E-02 8.61673E-14 1.13846E-13
 -1       239 1.96810E+01-3.90510E-03-3.50997E-05-6.11926E-02 1.03139E-14 2.87152E-14
 -1       240 1.97456E+01-3.50423E-03-6.14056E-05-5.00760E-02 6.73281E-14-1.43095E-14
 -1       241 1.97993E+01-2.98702E-03-6.74089E-05-4.03015E-02 3.39126E-14-7.62961E-14
 -1       242 1.98435E+01-2.39865E-03-5.88735E-05-3.21974E-02 4.32396E-14-5.08320E-14
 -1       243 1.98800E+01-1.75928E-03-3.95126E-05-2.59829E-02 7.41267E-15-2.28114E-13
 -1       244 1.99111E+01-1.06939E-03-1.15364E-05-2.18394E-02 1.92347E-13-2.33312E-13
 -1       245 1.99393E+01-3.13360E-04 2.39376E-05-1.99673E-02 9.94992E-14-2.35871E-13
 -1       246 1.99677E+01 5.37838E-04 6.65680E-05-2.06324E-02-8.11638E-14-2.54360E-13
 -1       247 1.99995E+01 1.52481E-03 1.16500E-04-2.42037E-02-1.42253E-13-2.01918E-13
 -1       248 2.00388E+01 2.69825E-03 1.74046E-04-3.11862E-02-5.06649E-15-1.11658E-13
 -1       249 2.00900E+01 4.11729E-03 2.39274E-04-4.22470E-02 7.65478E-14-2.46342E-13
 -1       250 2.01588E+01 5.84698E-03 3.11403E-04-5.82335E-02 1.05024E-13-3.89896E-13
 -1       251 2.02517E+01 7.95325E-03 3.87857E-04-8.01773E-02-6.28894E-14-4.77682E-13
 -1       252 2.03765E+01 1.04927E-02 4.62777E-04-1.09272E-01-3.43314E-14-3.98089E-13
 -1       253 2.05422E+01 1.34920E-02 5.24738E-04-1.46802E-01 1.11727E-13-4.67650E-13
 -1       254 2.07591E+01 1.69082E-02 5.53516E-04-1.93967E-01 2.13591E-14-3.09905E-13
 -1       255 2.10380E+01 2.05538E-02 5.16271E-04-2.51543E-01-1.42966E-13-3.13958E-13
 -1       256 2.13894E+01 2.39617E-02 3.65064E-04-3.19212E-01 4.31424E-14-2.79367E-13
 -1       257 2.18210E+01 2.61570E-02 4.12352E-05-3.94377E-01-7.04818E-15-1.37583E-13
 -1       258 2.23343E+01 2.53049E-02-5.01536E-04-4.70151E-01-4.75396E-14-1.52977E-13
 -1       259 2.29182E+01 1.82581E-02-1.23710E-03-5.32262E-01-9.33094E-14-1.30004E-13
 -1       260 2.35392E+01 2.16837E-04-1.95831E-03-5.55000E-01 4.09242E-14-2.23987E-13
 -1       261 2.41298E+01-3.48017E-02-2.15170E-03-4.97601E-01 2.61683E-15-2.66740E-14
 -1       262 2.45772E+01-9.11261E-02-1.02586E-03-3.05565E-01 5.05689E-14-1.01437E-13
 -1       263 2.47205E+01-1.64036E-01 1.95146E-03 7.37120E-02-3.54864E-14-1.30917E-13
 -1       264 2.43769E+01-2.27928E-01 5.87714E-03 6.48704E-01-3.51030E-14 1.30420E-13
 -1       265 2.34142E+01-2.29848E-01 7.61130E-03 1.31607E+00 3.02163E-14 1.17835E-13
 -1       266 2.18758E+01-1.12341E-01 2.78415E-03 1.81384E+00-1.77386E-14 2.79896E-13
 -1       267 2.00948E+01 1.18719E-01-9.78871E-03 1.80227E+00-1.20586E-13 4.56059E-13
 -1       268 1.86518E+01 3.30387E-01-2.30766E-02 1.12876E+00-3.88942E-14 3.09083E-13
 -1       269 1.80511E+01 3.73921E-01-2.17463E-02 9.13632E-02-1.08295E-13 2.45673E-13
 -1       270 1.83563E+01 2.10080E-01-6.09306E-03-7.54637E-01 3.23440E-13-1.65076E-13
 -1       271 1.91326E+01-1.75580E-02 7.65022E-03-1.01142E+00 4.67799E-13-4.70889E-13
 -1       272 1.98373E+01-1.50823E-01 1.10427E-02-7.43297E-01 1.51517E-13-3.05345E-13
 -1       273 2.01759E+01-1.43439E-01 6.46729E-03-3.06641E-01-5.62506E-14-3.38673E-13
 -1       274 2.01730E+01-4.60848E-02 1.24643E-03-3.47683E-02 2.30953E-13-1.98720E-13
 -1       275 2.00475E+01 2.98181E-02 4.49925E-03-1.93038E-02-1.13968E-13-4.04008E-13
 -1       276 2.01432E+01 1.46839E-01 5.15353E-03 1.24426E-01-1.05159E-14 6.30100E-13
 -1       277 2.03137E+01 5.54569E-01 5.83430E-03 6.75883E-01-1.00081E-13 3.94211E-13
 -1       278 2.04090E+01 1.48500E+00 7.17127E-04 1.54057E+00 1.69875E-14 4.28887E-13
 -1       279 2.03309E+01 3.08147E+00-2.53353E-03 2.42563E+00-8.43796E-14 4.94396E-17
 -1       280 2.00092E+01 5.14421E+00-4.54800E-03 2.82696E+00-2.07914E-13-5.91372E-13
 -1       281 1.95193E+01 7.20331E+00-1.52965E-03 2.25773E+00-1.74014E-13-1.74111E-13
 -1       282 1.91748E+01 8.39855E+00 1.92066E-03 6.71161E-01-1.13222E-13 3.72660E-13
 -1       283 1.92305E+01 8.14790E+00 1.26327E-04-1.27379E+00 2.68519E-13 3.47928E-13
 -1       284 1.96446E+01 6.54588E+00-3.81295E-03-2.64091E+00 3.25774E-13 3.75221E-15
 -1       285 2.01188E+01 4.29990E+00-3.43647E-03-2.92181E+00 1.48338E-13-3.90976E-13
 -1       286 2.03841E+01 2.23685E+00-3.18485E-04-2.33059E+00 7.54197E-14-9.04398E-14
 -1       287 2.04241E+01 7.38736E-01 4.32222E-03-1.36592E+00 2.49576E-13-1.14357E-13
 -1       288 2.03200E+01-5.56260E-02 6.43315E-03-4.76121E-01 2.65566E-13 2.82399E-13
 -1       289 2.01383E+01-2.84313E-01 3.44948E-03 9.97958E-02-9.52788E-14-1.19739E-15
 -1       290 2.00398E+01-1.99197E-01 5.08483E-03 3.44741E-01-1.80375E-13-4.96888E-13
 -1       291-1.00317E+00-1.31083E+01-1.23210E+00 1.32414E+00-3.37078E-13 3.81362E-14
 -1       292 3.81216E+00-9.78731E+00-8.20344E-01 4.83072E+00 1.31201E-13 1.39291E-13
 -1       293 1.40175E+01-6.29090E+00-3.28860E-01 7.62300E+00 1.15741E-13 3.81056E-13
 -1       294 2.28063E+01-4.78081E-01 2.71213E-02 8.47439E+00 1.95066E-13 1.78274E-13
 -1       295 3.39371E+01 3.64713E+00 5.58701E-01 8.89576E+00-2.94625E-14 1.08913E-13
 -1       296 4.34799E+01 6.07500E+00 8.95059E-01 6.68368E+00 1.56937E-13-4.19637E-13
 -1       297 4.89640E+01 7.43325E+00 1.09601E+00 3.51500E+00 5.47784E-13-9.89417E-13
 -1       298 5.01379E+01 6.96617E+00 1.15211E+00-3.36269E-01 5.89723E-13-1.30848E-12
 -1       299 4.31800E+01 5.47665E+00 6.75053E-01-2.69667E+00 8.30655E-13-1.37035E-12
 -1       300 3.53568E+01 3.08638E+00 5.10826E-01-6.69886E+00 6.99135E-13-1.61926E-12
 -1       301 2.41392E+01-3.01109E-01 3.71809E-02-7.04038E+00 5.61357E-13-1.46655E-12
 -1       302 1.42476E+01-5.13051E+00-3.42217E-01-6.00686E+00 3.25268E-13-7.14387E-13
 -1       303 6.53892E+00-8.37851E+00-4.60065E-01-5.05907E+00 2.84966E-13-6.60371E-13
 -1       304 7.48485E-03-1.20023E+01-9.67197E-01-1.77134E+00 2.22711E-13-3.38909E-13
 -1       305-1.60534E+00-1.26250E+01-9.69190E-01 2.30336E-01 2.48065E-15-3.68205E-13
 -1       306 4.87891E-01-1.12384E+01-8.64814E-01 2.52664E+00-2.40225E-13-5.15227E-13
 -1       307 6.57143E+00-7.88031E+00-5.71683E-01 4.99353E+00-3.79502E-13-3.75371E-13
 -1       308 1.50129E+01-3.86629E+00-2.91225E-01 6.53767E+00-7.32636E-13-5.73125E-13
 -1       309 2.54657E+01 1.36021E-01 9.82763E-02 7.29996E+00-6.75404E-13-1.18580E-12
 -1       310 3.60822E+01 3.53005E+00 5.06143E-01 6.57106E+00-6.40987E-13-1.05865E-12
 -1       311 4.53696E+01 5.94800E+00 9.35919E-01 4.58843E+00-5.08857E-13-1.09715E-12
 -1       312 5.02175E+01 7.02759E+00 1.14796E+00 5.55060E-01-3.34538E-13-8.67847E-13
 -1       313 4.85119E+01 7.34035E+00 1.04053E+00-3.58871E+00-4.57967E-14-7.36078E-13
 -1       314 4.27847E+01 6.05778E+00 8.46578E-01-6.77355E+00-1.68435E-13-3.93019E-13
 -1       315 3.31448E+01 3.55297E+00 5.06888E-01-8.82707E+00-5.94691E-13-1.98563E-13
 -1       316 2.35388E+01-2.49249E+00 3.16813E-03-8.00136E+00-7.08295E-13-1.83742E-13
 -1       317 1.13563E+01-5.64230E+00-5.07089E-01-6.75629E+00-9.81992E-13 5.71806E-13
 -1       318 3.50306E+00-1.01854E+01-9.73498E-01-4.27354E+00-7.44016E-13 1.26637E-12
 -1       319-6.58087E-01-1.18710E+01-1.04740E+00-1.88825E+00-8.55940E-13 1.84297E-13
 -1       320 2.01465E+01 3.01502E+00-1.78015E-02-2.10978E+00-5.77151E-13-4.71606E-13
 -1       321 2.07559E+01 2.20991E+00-1.78571E-02-2.36301E+00-6.33194E-13-9.19820E-14
 -1       322 1.95823E+01 3.69223E+00-1.56054E-02-1.31820E+00-3.37073E-13-7.90744E-13
 -1       323 1.94597E+01 3.84844E+00-1.36941E-02-9.23565E-01-2.17967E-13-8.48640E-13
 -1       324 1.93904E+01 3.93953E+00-1.27044E-02-5.43711E-01-9.05298E-14-8.52870E-13
 -1       325 1.93598E+01 3.98089E+00-1.22898E-02-1.73196E-01 2.24073E-14-8.57658E-13
 -1       326 1.93611E+01 3.97929E+00-1.23084E-02 1.94338E-01 1.29395E-13-8.31970E-13
 -1       327 1.93946E+01 3.93440E+00-1.27555E-02 5.65204E-01 2.41359E-13-8.10262E-13
 -1       328 1.94656E+01 3.84112E+00-1.37661E-02 9.39032E-01 3.51908E-13-7.49087E-13
 -1       329 1.95929E+01 3.67882E+00-1.56549E-02 1.33297E+00 4.86305E-13-6.49739E-13
 -1       330 1.98088E+01 3.41008E+00-1.88335E-02 1.73822E+00 5.89291E-13-5.03168E-13
 -1       331 2.01798E+01 2.95527E+00-2.29394E-02 2.12676E+00 6.61671E-13-2.43343E-13
 -1       332 2.07499E+01 2.12943E+00-3.04676E-02 2.32176E+00 6.75316E-13 2.56396E-13
 -1       333 2.10967E+01 1.18770E+00-2.49200E-02 1.92158E+00 6.09566E-13 7.05581E-13
 -1       334 2.03931E+01 4.89278E-01 8.33552E-03 9.26985E-01 5.04003E-13 5.47261E-13
 -1       335 2.04598E+01 6.75140E-01 1.25591E-02-1.02537E+00-5.09170E-13 2.26565E-14
 -1       336 2.00378E+01 3.37263E-01 7.18547E-03-4.57515E-01-4.01803E-13-2.48356E-14
 -1       337 1.97840E+01 1.76544E-01 4.16750E-03-1.48323E-01-2.91781E-13-9.75482E-14
 -1       338 1.96487E+01 9.04336E-02 1.90507E-03 2.27849E-02-1.79376E-13-1.44078E-13
 -1       339 1.95933E+01 4.13016E-02 7.89774E-04 1.13885E-01-1.80061E-13-1.56041E-13
 -1       340 1.95880E+01 1.23044E-02 2.70134E-04 1.56982E-01-1.25035E-13-1.84499E-13
 -1       341 1.96119E+01-4.73620E-03 1.23652E-05 1.70934E-01-1.05771E-13-2.20636E-13
 -1       342 1.96512E+01-1.42538E-02-1.22465E-04 1.67484E-01-1.25818E-13-2.35321E-13
 -1       343 1.96967E+01-1.89074E-02-1.90120E-04 1.54215E-01-1.56888E-13-2.65193E-13
 -1       344 1.97430E+01-2.03977E-02-2.16474E-04 1.36106E-01-5.32291E-14-3.51395E-13
 -1       345 1.97866E+01-1.98470E-02-2.16330E-04 1.16435E-01-6.54046E-14-3.46945E-13
 -1       346 1.98261E+01-1.79984E-02-1.99116E-04 9.73488E-02 3.30740E-14-3.29608E-13
 -1       347 1.98609E+01-1.53290E-02-1.70866E-04 8.02435E-02-6.87135E-14-3.28976E-13
 -1       348 1.98913E+01-1.21208E-02-1.35206E-04 6.60414E-02-6.60705E-14-2.99881E-13
 -1       349 1.99182E+01-8.50892E-03-9.39697E-05 5.53918E-02-1.04729E-13-3.68953E-13
 -1       350 1.99427E+01-4.51560E-03-4.76397E-05 4.88236E-02-1.32944E-13-3.88460E-13
 -1       351 1.99664E+01-7.73895E-05 4.30852E-06 4.68608E-02-4.96622E-14-4.20354E-13
 -1       352 1.99914E+01 4.93259E-03 6.31126E-05 5.01075E-02 1.93422E-14-5.03464E-13
 -1       353 2.00197E+01 1.06830E-02 1.30430E-04 5.93073E-02 4.76068E-14-5.73063E-13
 -1       354 2.00540E+01 1.73596E-02 2.07990E-04 7.53739E-02 5.48833E-14-4.20959E-13
 -1       355 2.00971E+01 2.51318E-02 2.97110E-04 9.93894E-02 6.59737E-14-2.68913E-13
 -1       356 2.01525E+01 3.41043E-02 3.97992E-04 1.32555E-01 1.09246E-13-2.56815E-13
 -1       357 2.02238E+01 4.42418E-02 5.08636E-04 1.76077E-01 8.61472E-14-3.00566E-13
 -1       358 2.03149E+01 5.52540E-02 6.23208E-04 2.30950E-01 8.99991E-14-3.28514E-13
 -1       359 2.04301E+01 6.64187E-02 7.29633E-04 2.97593E-01 9.99472E-16-2.88471E-13
 -1       360 2.05731E+01 7.63212E-02 8.06276E-04 3.75270E-01-3.68702E-14-2.19653E-13
 -1       361 2.07474E+01 8.24838E-02 8.17813E-04 4.61211E-01 9.11786E-14-1.63347E-13
 -1       362 2.09549E+01 8.08885E-02 7.11169E-04 5.49328E-01 5.80180E-14-2.33834E-13
 -1       363 2.11954E+01 6.54614E-02 4.13918E-04 6.28499E-01-1.04021E-13-1.82619E-13
 -1       364 2.14653E+01 2.77704E-02-1.59733E-04 6.80473E-01-6.13723E-14-9.63851E-14
 -1       365 2.17564E+01-4.24503E-02-1.08652E-03 6.77886E-01-5.03930E-14 1.10929E-13
 -1       366 2.20529E+01-1.54730E-01-2.38096E-03 5.83588E-01-4.86972E-14-7.86511E-14
 -1       367 2.23295E+01-3.11373E-01-3.92320E-03 3.53880E-01-6.79589E-14-1.99662E-13
 -1       368 2.25457E+01-4.95321E-01-5.32681E-03-4.99410E-02 2.98843E-14-1.05838E-13
 -1       369 2.26422E+01-6.54202E-01-5.90851E-03-6.36147E-01-5.00901E-15-8.66042E-14
 -1       370 2.25426E+01-6.93485E-01-5.24203E-03-1.34227E+00 1.69438E-13-1.40879E-13
 -1       371 2.21784E+01-5.00843E-01-1.91366E-03-1.99772E+00 1.74521E-13-2.39069E-13
 -1       372 2.15433E+01-2.89351E-02 1.18865E-03-2.32899E+00 2.30501E-15 2.26819E-14
 -1       373 2.07774E+01 5.84826E-01 2.43122E-03-2.08174E+00-3.15234E-13 1.51473E-13
 -1       374 2.01450E+01 1.04154E+00 3.24548E-03-1.23537E+00-1.48715E-13 1.90567E-13
 -1       375 1.98835E+01 1.06233E+00 4.26419E-03-1.16181E-01 1.83657E-13-3.57542E-14
 -1       376 1.99963E+01 6.59956E-01 4.94592E-03 7.78406E-01 1.82933E-13 1.94395E-14
 -1       377 2.02588E+01 1.29521E-01 3.78340E-03 1.14255E+00 2.96885E-13-2.40847E-13
 -1       378 2.04247E+01-2.25160E-01 8.91371E-04 1.03075E+00-2.20890E-14-2.88034E-13
 -1       379 2.03812E+01-3.02550E-01-2.79273E-03 7.15478E-01 5.93858E-14-4.27900E-13
 -1       380 2.01944E+01-2.24521E-01 2.16917E-04 4.83180E-01-3.11823E-14-5.05042E-13
 -1       381 1.98917E+01 2.28490E-01 1.07961E-02 3.98332E-01 3.81770E-13 3.85042E-13
 -1       382 1.96033E+01 1.15354E-01 6.17211E-03 1.19635E-01 2.67649E-13 2.27638E-13
 -1       383 1.94688E+01 5.76173E-02 2.80163E-03-2.91668E-02 2.11522E-13 1.41719E-13
 -1       384 1.94291E+01 2.57134E-02 1.17246E-03-1.05958E-01 1.43444E-13 8.13590E-14
 -1       385 1.94449E+01 7.23548E-03 4.45096E-04-1.41059E-01 1.11419E-13-9.13223E-16
 -1       386 1.94910E+01-3.50584E-03 9.82707E-05-1.51381E-01 1.06929E-13-6.44455E-14
 -1       387 1.95511E+01-9.46349E-03-8.39209E-05-1.47127E-01 1.09846E-13-4.75535E-14
 -1       388 1.96154E+01-1.23573E-02-1.80067E-04-1.34749E-01 4.49667E-14-5.00089E-14
 -1       389 1.96778E+01-1.32700E-02-2.23882E-04-1.18434E-01 8.89275E-14-5.25606E-14
 -1       390 1.97349E+01-1.29123E-02-2.33788E-04-1.00913E-01 6.81865E-14-7.23495E-14
 -1       391 1.97854E+01-1.17552E-02-2.21523E-04-8.39545E-02 8.47420E-14-3.03443E-14
 -1       392 1.98288E+01-1.01026E-02-1.94772E-04-6.86942E-02 6.37079E-14-3.84585E-14
 -1       393 1.98658E+01-8.13584E-03-1.58327E-04-5.58641E-02 7.07010E-14-1.78524E-13
 -1       394 1.98975E+01-5.94311E-03-1.14794E-04-4.59646E-02 6.10288E-14-1.71964E-13
 -1       395 1.99254E+01-3.53992E-03-6.50854E-05-3.93954E-02 1.54162E-13-2.42891E-13
 -1       396 1.99516E+01-8.83575E-04-8.80275E-06-3.65566E-02 1.12689E-13-1.39420E-13
 -1       397 1.99783E+01 2.11631E-03 5.54994E-05-3.79309E-02-4.70826E-14-1.89022E-13
 -1       398 2.00081E+01 5.58987E-03 1.30089E-04-4.41484E-02-1.14972E-13-2.27125E-13
 -1       399 2.00441E+01 9.70017E-03 2.17839E-04-5.60401E-02-8.88011E-14-2.65714E-13
 -1       400 2.00901E+01 1.46356E-02 3.21942E-04-7.46770E-02 1.73252E-13-3.19563E-13
 -1       401 2.01504E+01 2.05983E-02 4.45468E-04-1.01393E-01 2.05804E-13-4.13951E-13
 -1       402 2.02298E+01 2.77841E-02 5.90587E-04-1.37782E-01-6.78608E-14-4.52956E-13
 -1       403 2.03343E+01 3.63433E-02 7.57168E-04-1.85646E-01-9.09053E-14-4.83043E-13
 -1       404 2.04704E+01 4.63074E-02 9.40292E-04-2.46861E-01-1.76028E-14-3.17892E-13
 -1       405 2.06453E+01 5.74535E-02 1.12602E-03-3.23093E-01-3.08811E-14-1.18782E-13
 -1       406 2.08664E+01 6.90586E-02 1.28465E-03-4.15245E-01-3.89296E-14-1.60869E-13
 -1       407 2.11406E+01 7.94760E-02 1.36106E-03-5.22462E-01-4.08328E-14-1.48680E-14
 -1       408 2.14733E+01 8.54460E-02 1.26365E-03-6.40409E-01-2.35431E-14-2.87194E-14
 -1       409 2.18659E+01 8.10830E-02 8.57601E-04-7.58475E-01-3.51015E-14-8.04944E-14
 -1       410 2.23136E+01 5.66563E-02-2.26351E-05-8.55633E-01 3.16007E-14-2.12556E-13
 -1       411 2.28007E+01-2.16240E-03-1.51706E-03-8.95140E-01-1.37656E-13-1.73963E-13
 -1       412 2.32960E+01-1.12617E-01-3.61488E-03-8.19880E-01-4.62136E-14 1.60372E-13
 -1       413 2.37457E+01-2.86541E-01-5.94130E-03-5.53703E-01 9.16129E-14 3.38928E-13
 -1       414 2.40661E+01-5.09666E-01-7.68671E-03-2.02054E-02-5.00646E-14 5.32013E-13
 -1       415 2.41385E+01-7.08196E-01-8.03475E-03 8.04184E-01-1.00178E-13 5.93946E-13
 -1       416 2.38255E+01-7.28466E-01-6.72511E-03 1.79711E+00 8.88916E-15 5.25148E-13
 -1       417 2.30408E+01-3.93179E-01-3.94999E-03 2.60772E+00-1.98295E-13 5.10106E-13
 -1       418 2.18939E+01 3.03196E-01-3.07914E-03 2.72654E+00-1.71748E-15 6.37828E-13
 -1       419 2.07809E+01 1.01359E+00-8.31473E-03 1.83995E+00 1.39767E-14 4.01984E-13
 -1       420 2.02325E+01 1.19131E+00-9.23393E-03 3.35175E-01 1.61322E-13 1.55719E-13
 -1       421 2.03778E+01 7.05083E-01-5.69014E-04-9.66739E-01 3.71858E-13-1.86368E-13
 -1       422 2.08253E+01-1.50167E-02 1.71479E-03-1.38891E+00 4.19413E-13 9.90310E-14
 -1       423 2.11005E+01-4.60032E-01-2.13224E-03-1.00451E+00 1.17743E-13 4.47242E-13
 -1       424 2.10138E+01-4.62954E-01-3.09237E-03-3.45960E-01 1.74337E-13 3.79169E-13
 -1       425 2.06538E+01-1.88355E-01-1.65845E-03 9.08193E-02 9.46404E-14 3.39886E-13
 -1       426 2.04047E+01 9.80136E-03 1.58302E-03 1.91833E-01 1.43221E-13 5.67760E-13
 -1       427 2.14258E+01 5.38267E-01 9.18392E-03 3.04015E+00-2.28404E-13 2.93729E-13
 -1       428 2.13358E+01 5.02085E-02 5.87925E-03 1.62718E+00-1.84487E-13 3.49737E-13
 -1       429 2.08493E+01 2.90614E-02 5.55879E-03 7.20272E-01-2.28489E-14 2.98674E-13
 -1       430 2.07386E+01 1.56973E+00 7.74040E-03 4.21929E+00-4.16776E-13-5.28789E-13
 -1       431 1.91749E+01 3.14313E+00 1.09637E-02 4.30899E+00-1.75352E-13-2.82951E-13
 -1       432 1.74595E+01 4.65909E+00 1.85763E-02 2.55577E+00 2.68546E-13 4.52005E-13
 -1       433 1.68210E+01 5.16501E+00 1.19897E-02-5.21365E-01 9.37884E-14 4.69142E-13
 -1       434 1.78213E+01 4.26907E+00 8.56895E-03-3.37370E+00-1.22915E-13 1.17103E-13
 -1       435 1.96468E+01 2.59185E+00 1.23957E-02-4.63921E+00 9.53859E-15-1.88791E-13
 -1       436 2.10101E+01 1.08945E+00 7.36444E-03-4.17973E+00 2.20223E-13-1.94248E-13
 -1       437 2.15338E+01 1.36135E-01 1.11616E-02-2.80906E+00 3.29645E-13 2.77081E-13
 -1       438 2.13803E+01-2.83409E-01 1.22628E-02-1.34248E+00 3.62166E-13 3.14796E-14
 -1       439 2.08706E+01-3.52306E-01 8.08537E-03-2.15186E-01 6.78844E-14-2.95968E-13
 -1       440 1.29759E+01-6.27867E+00 2.74845E-02 8.46816E+00 2.52742E-13 3.07587E-13
 -1       441 2.00120E+00-4.44761E+00-6.41001E-02 1.20290E-01-3.42534E-13 3.92630E-13
 -1       442 4.34953E+00-5.19208E+00-8.69868E-02 5.13827E+00-5.80924E-14 5.29132E-13
 -1       443 2.38925E+01-5.98664E+00-3.98067E-03 7.43909E+00 1.53613E-13 2.05655E-13
 -1       444 3.06518E+01-2.77172E+00 3.97253E-02 5.20577E+00 5.58581E-14 2.99760E-14
 -1       445 1.98031E+01 3.43127E+00-1.76702E-02-1.73769E+00-4.72707E-13-6.83974E-13
 -1       446 3.63434E+01 6.37230E+00-2.30646E-02 1.76361E-01 6.94278E-13-8.38912E-13
 -1       447 3.80385E+01 8.62065E+00 6.53248E-02 1.15956E+00 7.27612E-13-9.13238E-13
 -1       448 3.72938E+01 7.23041E+00 3.61877E-02 1.67061E+00 7.26919E-13-6.50813E-13
 -1       449 3.54349E+01 1.92719E+00 3.30003E-02 2.61545E-01 1.74472E-13-6.32217E-13
 -1       450 3.09504E+01-2.53118E+00 7.03572E-03-2.37002E+00 6.45317E-15-7.91034E-13
 -1       451 2.43038E+01-6.08093E+00-1.17625E-02-4.92290E+00-2.14356E-13-7.94129E-13
 -1       452 1.56207E+01-7.08416E+00 1.08540E-02-6.74708E+00-1.55709E-14-2.96220E-13
 -1       453 5.44419E+00-6.34029E+00-5.17778E-02-5.23366E+00 2.87673E-13-3.18592E-13
 -1       454 1.31992E+00-5.99895E+00-6.21449E-02-2.03009E+00 2.40571E-13-5.34767E-13
 -1       455 2.26329E+00-4.90615E+00 6.47877E-02 2.81484E+00 3.36814E-14-5.44037E-13
 -1       456 6.55320E+00-6.60958E+00-7.02628E-02 6.12580E+00 1.61496E-13-5.08441E-13
 -1       457 1.62024E+01-6.76624E+00 9.47855E-03 7.22245E+00-1.29452E-13-3.11265E-13
 -1       458 2.46714E+01-5.69534E+00-1.17827E-02 5.22390E+00 1.23096E-14-5.74388E-13
 -1       459 3.13451E+01-1.93093E+00-8.30327E-03 2.31964E+00-1.94310E-13-4.62130E-13
 -1       460 3.55379E+01 3.20506E+00 1.39823E-02-4.00294E-01-4.11324E-13-2.50758E-13
 -1       461 3.78109E+01 7.37398E+00 6.14794E-02-1.08038E+00-3.37758E-13-2.69243E-13
 -1       462 3.86282E+01 8.76753E+00 9.84146E-02-8.94894E-01-2.35534E-13-4.34049E-13
 -1       463 3.73939E+01 6.53762E+00 5.55049E-02-7.11451E-01-1.64826E-13-2.05419E-13
 -1       464 3.51265E+01 1.62274E+00 3.78228E-02-2.27149E+00-1.13503E-13-3.07560E-13
 -1       465 3.06890E+01-2.94720E+00 8.31646E-03-4.60380E+00-3.34135E-13-1.06185E-12
 -1       466 2.11416E+01-6.26642E+00-4.49547E-03-8.18818E+00-2.81802E-13-4.26603E-13
 -1       467 1.30982E+01-6.56486E+00-3.84922E-02-8.54191E+00-9.86156E-14 3.22496E-13
 -1       468 5.01838E+00-5.68578E+00-1.20113E-01-6.01086E+00-2.95125E-13 5.25802E-13
 -1       469 3.58749E+01 1.90927E+00 9.59783E-02 2.52773E+00 2.97890E-13-2.15994E-13
 -1       470 2.05190E+01-6.32804E+00 7.60258E-02 8.32163E+00-4.58661E-14 1.24484E-14
 -1       471 2.73293E+01-5.78155E+00 1.57417E-02-5.75145E+00-1.09739E-13-1.10195E-12
 -1       472 1.24258E+01-5.75731E+00 1.23915E-01-6.73653E+00 1.53835E-13-2.42466E-13
 -1       473 3.33154E+01 4.27894E+00-1.11331E-01 2.91134E+00 3.71259E-13-6.35741E-14
 -1       474 2.03742E+01 8.31984E-01 4.02883E-03 9.71509E-01 5.24138E-13 3.26290E-14
 -1       475 1.97319E+01 3.10419E+00-5.35093E-03-6.33510E-01-1.60928E-13-7.69606E-13
 -1       476 1.98292E+01 2.93033E+00-5.72229E-03-9.49285E-01-2.67015E-13-7.27383E-13
 -1       477 1.96641E+01 3.22683E+00-5.01863E-03 8.82035E-03 5.85699E-14-7.55508E-13
 -1       478 1.96827E+01 3.19382E+00-5.10070E-03 3.30339E-01 1.69555E-13-7.36226E-13
 -1       479 1.97366E+01 3.09702E+00-5.41293E-03 6.45653E-01 2.84278E-13-6.83233E-13
 -1       480 1.98354E+01 2.91917E+00-5.96540E-03 9.61083E-01 4.24569E-13-6.09084E-13
 -1       481 1.99913E+01 2.63397E+00-6.53152E-03 1.25632E+00 5.09865E-13-5.08215E-13
 -1       482 2.02337E+01 2.18793E+00-5.70000E-03 1.50103E+00 5.82095E-13-3.61077E-13
 -1       483 2.01125E+01 4.53661E-01 5.07284E-03 4.63668E-01 4.08444E-13-8.17098E-15
 -1       484 2.03446E+01 9.72935E-01 2.77839E-03-9.39548E-01-4.49122E-13-2.70766E-13
 -1       485 3.21902E+01 2.08847E+00-1.46327E-01-9.51058E-01 4.41744E-13-4.70450E-13
 -1       486 2.01725E+01 5.45470E-01 2.33827E-03-4.67220E-01-3.66150E-13-2.24406E-13
 -1       487 2.00251E+01 3.03593E-01 1.11634E-03-1.66008E-01-2.70500E-13-1.96027E-13
 -1       488 1.99242E+01 1.61555E-01 4.65169E-04 1.53546E-02-1.94172E-13-2.23226E-13
 -1       489 1.98654E+01 7.52539E-02 1.59329E-04 1.17892E-01-1.79800E-13-2.34459E-13
 -1       490 1.98379E+01 2.24363E-02 2.06609E-05 1.69108E-01-1.57396E-13-2.80493E-13
 -1       491 1.98316E+01-9.15565E-03-4.78338E-05 1.87559E-01-1.13177E-13-3.21433E-13
 -1       492 1.98386E+01-2.69029E-02-8.29063E-05 1.85828E-01-1.35423E-13-2.74315E-13
 -1       493 1.98531E+01-3.55120E-02-9.81509E-05 1.72452E-01-1.30713E-13-2.00809E-13
 -1       494 1.98712E+01-3.80924E-02-1.00547E-04 1.53221E-01-4.08448E-14-1.85530E-13
 -1       495 1.98904E+01-3.67290E-02-9.46105E-05 1.32043E-01-6.07654E-14-1.43553E-13
 -1       496 1.99094E+01-3.28048E-02-8.33333E-05 1.11538E-01-4.48405E-14-2.92735E-13
 -1       497 1.99274E+01-2.71975E-02-6.86165E-05 9.34671E-02-8.33292E-14-2.88455E-13
 -1       498 1.99443E+01-2.04078E-02-5.15201E-05 7.90479E-02-1.72442E-13-2.39509E-13
 -1       499 1.99605E+01-1.26517E-02-3.24405E-05 6.91935E-02-1.51572E-13-2.80538E-13
 -1       500 1.99766E+01-3.92887E-03-1.12877E-05 6.46918E-02-7.94392E-14-3.09453E-13
 -1       501 1.99934E+01 5.92246E-03 1.23957E-05 6.63403E-02-1.05802E-13-3.44805E-13
 -1       502 2.00121E+01 1.71761E-02 3.93178E-05 7.50416E-02 3.84535E-14-3.44888E-13
 -1       503 2.00341E+01 3.01672E-02 7.03084E-05 9.18623E-02 9.19331E-14-3.63566E-13
 -1       504 2.00608E+01 4.52304E-02 1.06156E-04 1.18053E-01 1.43030E-13-3.62740E-13
 -1       505 2.00940E+01 6.26153E-02 1.47371E-04 1.55019E-01 1.00878E-13-2.76568E-13
 -1       506 2.01357E+01 8.23629E-02 1.93828E-04 2.04226E-01 1.28422E-13-2.73262E-13
 -1       507 2.01881E+01 1.04121E-01 2.44209E-04 2.67011E-01-5.87411E-14-2.34624E-13
 -1       508 2.02534E+01 1.26866E-01 2.95162E-04 3.44265E-01-1.68946E-14-4.84378E-13
 -1       509 2.03342E+01 1.48501E-01 3.40060E-04 4.35932E-01 4.30414E-14-4.04967E-13
 -1       510 2.04334E+01 1.65277E-01 3.67296E-04 5.40254E-01 4.54739E-14-2.91588E-13
 -1       511 2.05542E+01 1.71027E-01 3.58156E-04 6.52687E-01 3.16958E-14-2.76186E-13
 -1       512 2.07005E+01 1.56264E-01 2.84643E-04 7.64402E-01-6.39817E-14-3.30067E-13
 -1       513 2.08779E+01 1.07373E-01 1.08250E-04 8.60349E-01 1.99269E-14-1.55694E-13
 -1       514 2.10938E+01 6.55600E-03-2.17921E-04 9.16950E-01-1.24409E-14-2.22723E-13
 -1       515 2.13584E+01-1.66019E-01-7.37615E-04 8.99849E-01-2.13313E-13-2.59909E-13
 -1       516 2.16826E+01-4.25192E-01-1.44851E-03 7.62851E-01-5.02923E-14-1.46593E-13
 -1       517 2.20718E+01-7.65160E-01-2.30783E-03 4.50831E-01 1.05665E-13-7.49436E-14
 -1       518 2.25098E+01-1.13202E+00-3.02552E-03-8.75162E-02 4.29465E-14 2.44820E-13
 -1       519 2.29318E+01-1.39031E+00-3.23353E-03-8.65282E-01 5.79688E-14 1.03484E-13
 -1       520 2.32071E+01-1.32317E+00-4.49695E-03-1.79109E+00-5.10313E-14-1.17940E-13
 -1       521 2.31795E+01-7.12105E-01-1.64934E-03-2.60363E+00 7.58746E-14-5.54193E-13
 -1       522 2.27588E+01 4.53447E-01-5.47346E-03-2.85884E+00 1.38880E-13-2.90217E-13
 -1       523 2.21465E+01 1.70433E+00-9.99969E-03-2.23120E+00-1.38587E-13 3.05794E-13
 -1       524 2.17661E+01 2.27450E+00-9.78751E-03-8.59771E-01-2.30533E-13 3.48002E-13
 -1       525 2.18242E+01 1.79206E+00-8.12233E-03 5.29850E-01-2.04858E-14 8.23450E-14
 -1       526 2.21002E+01 6.69374E-01-2.65324E-03 1.23676E+00 1.80521E-13 6.27280E-14
 -1       527 2.21583E+01-2.91735E-01-1.10249E-03 1.14970E+00 1.00244E-13-8.78532E-14
 -1       528 2.18099E+01-6.60188E-01 5.75499E-05 6.42343E-01-1.86812E-13-1.49863E-13
 -1       529 1.98104E+01 1.28857E-01 9.89023E-04-2.00409E-02 2.55220E-13-1.33399E-13
 -1       530 1.97524E+01 5.94395E-02 3.59521E-04-1.18472E-01 1.77180E-13-1.82720E-13
 -1       531 1.97335E+01 1.76423E-02 8.28210E-05-1.66499E-01 1.40017E-13-1.83695E-13
 -1       532 1.97393E+01-7.15406E-03-5.33241E-05-1.83009E-01 9.76486E-14-1.95612E-13
 -1       533 1.97595E+01-2.10465E-02-1.23180E-04-1.80348E-01 5.72240E-14-1.73023E-13
 -1       534 1.97868E+01-2.78094E-02-1.55354E-04-1.66723E-01 6.79603E-14-1.57839E-13
 -1       535 1.98166E+01-2.98991E-02-1.63778E-04-1.47631E-01 1.11527E-13-2.03542E-13
 -1       536 1.98461E+01-2.89522E-02-1.56894E-04-1.26741E-01 3.52371E-14-1.46424E-13
 -1       537 1.98738E+01-2.60533E-02-1.40252E-04-1.06489E-01 1.02270E-13-1.58330E-13
 -1       538 1.98989E+01-2.18931E-02-1.17415E-04-8.84900E-02 1.18643E-13-1.89270E-13
 -1       539 1.99217E+01-1.68690E-02-9.04452E-05-7.38408E-02 5.13936E-14-1.25347E-13
 -1       540 1.99426E+01-1.11553E-02-6.02070E-05-6.33504E-02 8.76482E-14-1.72096E-13
 -1       541 1.99627E+01-4.75142E-03-2.67065E-05-5.77129E-02 9.92594E-14-9.21135E-15
 -1       542 1.99830E+01 2.48263E-03 1.07553E-05-5.76433E-02 1.55333E-14-2.83848E-15
 -1       543 2.00052E+01 1.07989E-02 5.34307E-05-6.39848E-02-4.44444E-14-8.26454E-15
 -1       544 2.00311E+01 2.05393E-02 1.03006E-04-7.77902E-02-2.04849E-14-6.44184E-14
 -1       545 2.00627E+01 3.21126E-02 1.61464E-04-1.00382E-01 8.77673E-14-3.00855E-13
 -1       546 2.01026E+01 4.59664E-02 2.30899E-04-1.33387E-01 1.87436E-13-2.48440E-13
 -1       547 2.01535E+01 6.25421E-02 3.13196E-04-1.78737E-01 7.11152E-14-1.56329E-13
 -1       548 2.02185E+01 8.21972E-02 4.09469E-04-2.38617E-01-2.66625E-14-2.69776E-13
 -1       549 2.03010E+01 1.05067E-01 5.19034E-04-3.15328E-01-9.27336E-14-3.15198E-13
 -1       550 2.04046E+01 1.30819E-01 6.37594E-04-4.11009E-01-9.27693E-14-3.42120E-13
 -1       551 2.05331E+01 1.58219E-01 7.54159E-04-5.27129E-01-3.06718E-14-2.98525E-13
 -1       552 2.06901E+01 1.84401E-01 8.46134E-04-6.63601E-01-1.36986E-13-2.58060E-13
 -1       553 2.08792E+01 2.03681E-01 8.72271E-04-8.17307E-01-1.35408E-13-1.09371E-13
 -1       554 2.11046E+01 2.05770E-01 7.64187E-04-9.79750E-01-4.16431E-15 1.79766E-13
 -1       555 2.13712E+01 1.73438E-01 4.19372E-04-1.13352E+00 1.14074E-13-3.50131E-15
 -1       556 2.16872E+01 8.03028E-02-2.93445E-04-1.24734E+00-1.12741E-13 1.21630E-13
 -1       557 2.20656E+01-1.08918E-01-1.49725E-03-1.27009E+00-1.51149E-13 1.53730E-13
 -1       558 2.25248E+01-4.29927E-01-3.20496E-03-1.12554E+00-1.02681E-13 2.74890E-13
 -1       559 2.30805E+01-8.91289E-01-5.03027E-03-7.14009E-01-9.79117E-14 3.62348E-13
 -1       560 2.37165E+01-1.41600E+00-6.36900E-03 6.44961E-02-1.04994E-13 4.12498E-13
 -1       561 2.43238E+01-1.75938E+00-8.02680E-03 1.23361E+00-8.99114E-14 4.71573E-13
 -1       562 2.46613E+01-1.50504E+00-1.22492E-02 2.58415E+00-1.13245E-13 8.90250E-13
 -1       563 2.44550E+01-2.97746E-01-1.37692E-02 3.51348E+00-1.49538E-13 7.73022E-13
 -1       564 2.37126E+01 1.51631E+00-1.11978E-02 3.22737E+00 1.18124E-13 6.33790E-13
 -1       565 2.26478E+01 2.74679E+00-1.20972E-01 1.52415E+00 2.71989E-13 4.96152E-13
 -1       566 2.28781E+01 2.22207E+00-4.05318E-02-5.79520E-01 4.36445E-13 1.72128E-13
 -1       567 2.33555E+01 5.81488E-01-7.96070E-03-1.59715E+00 3.22643E-13-2.63522E-14
 -1       568 2.33962E+01-8.15574E-01-1.40033E-02-1.27896E+00 4.41570E-14 9.88109E-14
 -1       569 2.28315E+01-1.21923E+00-1.06946E-02-3.09957E-01 1.60072E-13 1.91078E-13
 -1       570 2.19118E+01-7.77046E-01-4.37090E-04 5.08294E-01 1.34044E-13 4.50185E-13
 -1       571 2.03735E+01-5.10863E-01 3.17084E-02 5.74737E+00-2.09845E-13-1.82954E-13
 -1       572 1.65431E+01 1.23102E+00 4.54329E-02 5.16702E+00 7.34933E-14 3.64170E-13
 -1       573 2.29338E+01-1.29665E+00 1.06196E-02 2.36199E+00-7.50759E-14 1.16941E-13
 -1       574 2.25756E+01-1.34120E+00 1.04146E-02 4.29809E+00-4.80207E-13-1.59821E-13
 -1       575 1.36309E+01 2.83273E+00 1.23861E-01 1.75956E+00 2.00229E-13 6.12326E-13
 -1       576 1.40404E+01 2.45950E+00 1.09682E-01-3.02283E+00 1.32603E-13 5.93102E-14
 -1       577 1.75458E+01 6.77656E-01 5.23451E-02-5.88537E+00 1.46907E-13 9.36022E-14
 -1       578 2.11608E+01-8.29734E-01 2.42094E-02-5.71985E+00 2.12806E-13-3.74948E-13
 -1       579 2.29037E+01-1.47354E+00 1.41267E-02-4.04992E+00-3.45193E-14 1.58657E-14
 -1       580 2.29876E+01-1.32016E+00 4.67202E-03-2.08160E+00-1.52438E-13 1.37884E-13
 -1       581 2.21658E+01-8.94106E-01-6.49199E-04-5.60638E-01-2.68966E-13-1.75843E-13
 -1       582 7.02838E+00-1.17263E+00 1.31373E-01-3.78322E+00 7.15053E-14 2.87131E-14
 -1       583 1.99252E+01 2.46286E-01 2.43737E-03 1.58225E-01 2.98570E-13-7.26376E-14
 -1       584 7.80255E+00-6.98583E-01 2.01965E-01 3.32600E+00-2.31898E-14 7.33594E-13
 -1       585 1.29967E+01-3.62262E+00 2.34995E-01-7.76706E+00 4.24688E-13 3.50553E-13
 -1       586 2.03978E+01 1.75576E+00-5.96392E-03-1.53656E+00-5.34951E-13-3.77408E-13
 -1       587 3.24125E+01 2.87182E+00-1.45926E-01 8.59560E-01-4.95784E-14-4.41550E-13
 -1       588 1.96798E+01 3.19821E+00-5.09843E-03-3.12764E-01-4.98230E-14-7.70314E-13
 -1       589 3.02663E+01 6.80538E+00-1.93137E-01-4.57447E-02 7.33816E-13-1.01166E-13
 -1       590 3.14146E+01-1.76973E+00-1.10882E-01 1.39704E+00-5.19480E-14-2.85119E-13
 -1       591 3.08147E+01 7.23673E+00-2.03856E-01 1.69299E+00 5.15268E-13-2.73758E-13
 -1       592 7.96565E+00-3.42613E+00 1.68922E-01 5.33961E+00 1.33782E-13-2.84550E-13
 -1       593 2.85284E+01-5.38160E+00-2.69210E-02-1.49810E+00-1.84928E-13-7.98306E-13
 -1       594 2.22253E+01-6.90073E+00 4.49913E-02-5.02840E+00-4.02844E-13-7.34002E-13
 -1       595 6.10088E+00-3.33827E+00 1.75790E-01-4.02030E+00 9.53161E-14-5.26842E-13
 -1       596 4.35974E+00-2.26014E+00 2.01378E-01 2.47337E-01 7.95742E-14-6.94084E-13
 -1       597 1.43782E+01-5.45882E+00 1.22236E-01 7.03599E+00 3.27814E-13-5.38417E-13
 -1       598 2.23268E+01-6.66631E+00 4.49504E-02 5.50088E+00 1.30070E-13-2.86848E-13
 -1       599 2.85447E+01-5.00452E+00-3.00898E-02 1.67074E+00-2.99760E-15-1.00656E-13
 -1       600 3.12345E+01-8.32112E-01-1.15427E-01-1.61898E+00-1.43024E-13 2.77653E-13
 -1       601 3.16716E+01 4.63967E+00-1.59542E-01-2.87703E+00-2.58724E-13-3.02744E-14
 -1       602 3.17890E+01 7.73661E+00-1.87004E-01-1.62826E+00-1.00198E-13-2.48936E-13
 -1       603 3.17095E+01 7.26459E+00-1.75304E-01 3.31069E-01-1.22458E-13-3.13114E-13
 -1       604 3.14436E+01-1.99406E+00-1.09353E-01-1.03902E+00-3.42401E-13-4.15487E-13
 -1       605 1.83293E+01-5.34469E+00 1.13978E-01-8.67030E+00 3.45710E-13-1.22919E-13
 -1       606 2.86741E+01-5.50863E+00-1.73543E-02 4.46136E+00-7.15678E-14-4.42771E-14
 -1       607 1.21191E+01-2.91533E+00 2.29515E-01 7.00226E+00-7.32400E-14 6.83634E-13
 -1       608 2.05860E+01 1.30524E+00-9.98371E-04 1.54744E+00 6.01511E-13 1.21832E-13
 -1       609 3.19309E+01-2.44010E+00-8.37336E-02 1.41688E+00 6.78112E-14-2.47816E-13
 -1       610 2.87715E+01 3.68839E+00-1.43666E-01-1.58033E+00 8.45907E-13-1.84040E-13
 -1       611 1.99726E+01 2.64937E+00-9.81617E-03-1.23877E+00-3.80113E-13-6.67327E-13
 -1       612 1.74910E+01-3.70286E+00 2.02607E-01 8.09212E+00 1.09045E-13-1.21594E-13
 -1       613 2.93292E+01-4.32081E+00-2.50860E-02-2.67432E+00-2.11272E-13-2.63796E-13
 -1       614 2.52626E+01-5.83630E+00 3.85466E-02 6.06514E+00-1.82618E-13-1.27264E-13
 -1       615 2.13788E+01-6.01801E-01 2.93384E-04 3.14948E-01-2.22633E-13-1.77514E-13
 -1       616 2.37367E+01-5.64164E+00 9.15146E-02-7.02869E+00 1.40471E-13-8.55293E-13
 -1       617 7.78116E+00-1.52088E+00 1.64020E-01 3.10857E+00 1.62417E-13-4.91572E-13
 -1       618 1.85789E+01-5.90353E+00 9.75277E-02-5.88864E+00 8.02691E-14-2.85532E-13
 -1       619 2.91731E+01 5.34056E+00-1.72767E-01 3.21514E+00 4.24022E-13 1.51733E-13
 -1       620 3.06296E+01 7.30000E-01-1.34893E-01 3.64709E+00 1.59352E-13-1.34108E-13
 -1       621 1.99593E+01 2.44939E+00-1.58077E-03 3.94060E-01 2.07957E-13-5.94695E-13
 -1       622 1.99274E+01 2.52427E+00-1.51248E-03 1.35724E-01 8.25553E-14-6.75533E-13
 -1       623 2.01203E+01 2.04593E+00-1.57199E-03 8.49647E-01 4.14035E-13-4.99262E-13
 -1       624 2.02387E+01 1.67601E+00-2.25165E-03 9.91749E-01 4.73129E-13-3.66723E-13
 -1       625 2.03196E+01 1.03667E+00 2.90485E-03 8.30968E-01 4.62071E-13-2.52607E-13
 -1       626 2.81423E+01 5.32194E+00-1.56410E-01-2.73880E+00 7.27821E-14-5.59344E-14
 -1       627 2.02057E+01 6.14796E-01 1.11082E-03 4.20087E-01 3.69477E-13-2.35356E-13
 -1       628 1.77543E+01-2.88134E+00 1.55178E-01-8.02282E+00 5.45272E-13 2.87548E-14
 -1       629 2.02395E+01 6.74881E-01 6.02266E-04-3.94006E-01-2.88136E-13-3.52341E-13
 -1       630 2.01673E+01 3.91454E-01 1.95638E-04-1.39743E-01-2.35677E-13-3.29203E-13
 -1       631 2.01017E+01 2.12239E-01 6.28675E-05 2.21478E-02-1.77880E-13-3.22678E-13
 -1       632 2.00514E+01 9.77803E-02 3.52556E-06 1.17052E-01-2.03292E-13-3.09365E-13
 -1       633 2.00163E+01 2.59584E-02-1.62141E-05 1.65560E-01-1.37013E-13-2.97818E-13
 -1       634 1.99937E+01-1.74211E-02-2.65127E-05 1.83393E-01-6.61645E-14-3.17703E-13
 -1       635 1.99806E+01-4.16598E-02-3.17846E-05 1.81898E-01-7.24267E-14-2.46795E-13
 -1       636 1.99742E+01-5.30072E-02-3.32379E-05 1.69138E-01-5.77917E-14-1.80706E-13
 -1       637 1.99724E+01-5.57283E-02-3.19665E-05 1.50762E-01-7.56175E-14-2.52341E-13
 -1       638 1.99736E+01-5.27280E-02-2.88297E-05 1.30674E-01-1.61968E-13-2.73947E-13
 -1       639 1.99768E+01-4.59331E-02-2.44963E-05 1.11550E-01-5.77031E-14-2.61096E-13
 -1       640 1.99814E+01-3.65420E-02-1.93917E-05 9.52422E-02-3.17829E-14-3.04814E-13
 -1       641 1.99869E+01-2.52039E-02-1.36866E-05 8.30875E-02-1.44290E-13-1.32365E-13
 -1       642 1.99932E+01-1.21514E-02-7.42868E-06 7.61450E-02-2.52242E-13-1.44648E-13
 -1       643 2.00004E+01 2.69574E-03-5.21239E-07 7.53742E-02-1.07324E-13-2.09220E-13
 -1       644 2.00087E+01 1.96441E-02 7.24256E-06 8.17666E-02-1.94490E-14-2.06144E-13
 -1       645 2.00182E+01 3.91435E-02 1.61339E-05 9.64351E-02 2.29325E-14-2.22377E-13
 -1       646 2.00295E+01 6.16963E-02 2.64489E-05 1.20662E-01 8.44302E-14-2.86748E-13
 -1       647 2.00429E+01 8.77429E-02 3.84569E-05 1.55904E-01 1.82329E-13-4.22884E-13
 -1       648 2.00589E+01 1.17503E-01 5.23242E-05 2.03733E-01 1.24239E-13-2.45900E-13
 -1       649 2.00782E+01 1.50751E-01 6.79967E-05 2.65720E-01 1.24534E-14-3.28675E-13
 -1       650 2.01015E+01 1.86479E-01 8.50163E-05 3.43210E-01-1.11867E-13-3.74904E-13
 -1       651 2.01299E+01 2.22426E-01 1.02242E-04 4.36981E-01 5.63901E-15-2.49039E-13
 -1       652 2.01653E+01 2.54391E-01 1.17436E-04 5.46738E-01 7.94619E-14-3.72243E-13
 -1       653 2.02105E+01 2.75324E-01 1.26655E-04 6.70402E-01 5.88866E-14-3.85820E-13
 -1       654 2.02706E+01 2.74154E-01 1.23324E-04 8.03132E-01-1.30608E-14-2.80988E-13
 -1       655 2.03547E+01 2.34516E-01 9.66436E-05 9.36004E-01 1.33618E-13-1.76142E-13
 -1       656 2.04774E+01 1.33783E-01 2.87463E-05 1.05421E+00 7.20229E-15-1.38058E-13
 -1       657 2.06624E+01-5.64960E-02-1.08510E-04 1.13455E+00-1.75197E-13-9.44215E-14
 -1       658 2.09438E+01-3.66425E-01-3.46377E-04 1.14188E+00-9.91300E-14 3.16532E-14
 -1       659 2.13654E+01-8.15340E-01-6.43692E-04 1.02450E+00 3.13106E-14 8.64469E-14
 -1       660 2.19684E+01-1.38472E+00-1.14999E-03 7.10367E-01 1.52720E-13-6.07497E-14
 -1       661 2.27614E+01-1.96818E+00-1.61041E-03 1.12392E-01-3.11602E-14-1.90824E-13
 -1       662 2.36617E+01-2.30306E+00-1.06927E-03-8.33706E-01-1.61298E-13-2.36039E-13
 -1       663 2.44356E+01-1.92287E+00-5.42222E-03-2.07704E+00-2.70191E-13-2.34341E-13
 -1       664 2.47184E+01-6.02206E-01-1.39498E-02-3.13216E+00 1.61063E-13-2.41514E-13
 -1       665 2.42193E+01 1.63216E+00-4.03146E-02-3.20863E+00 3.74581E-13-5.70567E-13
 -1       666 2.37260E+01 3.45398E+00-5.33463E-02-1.94175E+00-4.43100E-14-1.20867E-13
 -1       667 2.36615E+01 3.54749E+00-5.98199E-02 3.43198E-02-7.99794E-14 4.08572E-13
 -1       668 2.40456E+01 1.86651E+00-5.22257E-02 1.32072E+00-9.19750E-15 5.36063E-13
 -1       669 2.43046E+01-1.48762E-01-8.63272E-03 1.27661E+00-1.31747E-13 3.61169E-13
 -1       670 2.37743E+01-1.19313E+00-9.75454E-03 4.47549E-01-2.87994E-13 1.00619E-13
 -1       671 1.99731E+01 8.75779E-02 6.06199E-05-1.19467E-01 1.70534E-13-2.13655E-13
 -1       672 2.75996E+01 6.35186E+00-1.72268E-01-6.85151E-01-3.46667E-14-9.65747E-14
 -1       673 2.00269E+01 1.89109E-01 1.70338E-04-2.11412E-02 2.16005E-13-2.27269E-13
 -1       674 1.99253E+01-1.35960E-02-2.83453E-05-1.87290E-01 7.64856E-14-2.12258E-13
 -1       675 1.99205E+01-3.49132E-02-4.48869E-05-1.85528E-01 6.58425E-14-2.55944E-13
 -1       676 1.99229E+01-4.50592E-02-5.19448E-05-1.72264E-01 1.09565E-13-2.33014E-13
 -1       677 1.99295E+01-4.77750E-02-5.25756E-05-1.53246E-01 8.99371E-14-2.35220E-13
 -1       678 1.99384E+01-4.55924E-02-4.89381E-05-1.32406E-01 5.47795E-14-2.59299E-13
 -1       679 1.99483E+01-4.01921E-02-4.26157E-05-1.12416E-01 6.58114E-14-1.34784E-13
 -1       680 1.99587E+01-3.26238E-02-3.45998E-05-9.51040E-02 4.22167E-14-1.09860E-13
 -1       681 1.99693E+01-2.34626E-02-2.52695E-05-8.17709E-02 4.91642E-14-6.64786E-14
 -1       682 1.99802E+01-1.29193E-02-1.47834E-05-7.34342E-02-4.73299E-14 4.99505E-15
 -1       683 1.99917E+01-9.17158E-04-3.00041E-06-7.10144E-02-7.33118E-16 1.30630E-13
 -1       684 2.00043E+01 1.28467E-02 1.04194E-05-7.54800E-02 3.39393E-14 1.04672E-13
 -1       685 2.00187E+01 2.88524E-02 2.60032E-05-8.79567E-02-1.48811E-14-3.17289E-15
 -1       686 2.00356E+01 4.77130E-02 4.44231E-05-1.09806E-01 1.09356E-13-6.44886E-14
 -1       687 2.00561E+01 7.01247E-02 6.64494E-05-1.42674E-01 2.17434E-13-1.36922E-13
 -1       688 2.00811E+01 9.67993E-02 9.28824E-05-1.88501E-01 1.31005E-13-9.50668E-14
 -1       689 2.01114E+01 1.28358E-01 1.24434E-04-2.49488E-01 1.17738E-14-2.45848E-14
 -1       690 2.01482E+01 1.65156E-01 1.61515E-04-3.27992E-01-9.07605E-15-1.25330E-13
 -1       691 2.01921E+01 2.06979E-01 2.03845E-04-4.26323E-01-9.18475E-14-1.14207E-13
 -1       692 2.02441E+01 2.52541E-01 2.49761E-04-5.46389E-01-1.07303E-13-1.19307E-13
 -1       693 2.03050E+01 2.98636E-01 2.95047E-04-6.89139E-01-1.01452E-13 2.45686E-14
 -1       694 2.03761E+01 3.38774E-01 3.31020E-04-8.53678E-01-7.54496E-14-1.42495E-13
 -1       695 2.04608E+01 3.61092E-01 3.41537E-04-1.03596E+00-1.87457E-13-1.44242E-13
 -1       696 2.05666E+01 3.45395E-01 2.98437E-04-1.22683E+00 3.48530E-14-2.59019E-14
 -1       697 2.07093E+01 2.59586E-01 1.53335E-04-1.40918E+00-8.74385E-14 1.77972E-13
 -1       698 2.09204E+01 5.68833E-02-1.59687E-04-1.55358E+00-6.23434E-14-1.11651E-13
 -1       699 2.12547E+01-3.21977E-01-6.89974E-04-1.61133E+00-1.36056E-13-5.25057E-14
 -1       700 2.17957E+01-9.31467E-01-1.34743E-03-1.50319E+00-6.07298E-14-1.99171E-14
 -1       701 2.26414E+01-1.76733E+00-1.33268E-03-1.10561E+00-1.70405E-13-7.21562E-14
 -1       702 2.38453E+01-2.65635E+00-1.35170E-03-2.51655E-01-2.48443E-13 2.04450E-13
 -1       703 2.52718E+01-3.05621E+00-3.37167E-03 1.17368E+00-4.25949E-13 4.83702E-13
 -1       704 2.64477E+01-2.12874E+00-2.72999E-02 2.97542E+00-9.80188E-14 5.79125E-13
 -1       705 2.66069E+01 6.72432E-01-9.89460E-02 4.07805E+00 4.41036E-14 6.49738E-13
 -1       706 2.62625E+01-8.52312E-01-4.99710E-02-1.42546E+00 1.52883E-13-2.37532E-13
 -1       707 2.52588E+01-2.18371E+00 2.01101E-04 1.53289E-02-1.49646E-13 3.36536E-16
 -1       708 2.42415E+01-2.23577E+00 9.41890E-04 1.42338E+00-3.24330E-13 1.49838E-13
 -1       709 2.30352E+01-1.19744E+00-1.59697E-03-1.33824E-01-3.82847E-13-1.53507E-13
 -1       710 1.84639E+01-2.09810E+00 1.03966E-01 7.20985E+00-1.90029E-13-5.52128E-14
 -1       711 2.41124E+01-3.39559E+00 1.36531E-02-5.18406E+00-4.19376E-14-4.82754E-13
 -1       712 2.49382E+01-2.73953E+00-2.68447E-03-2.49615E+00-2.80784E-13-6.28959E-14
 -1       713 2.01054E+01 3.52658E-01 5.36131E-04 1.48838E-01 3.29213E-13-2.41935E-13
 -1       714 2.91598E+01-1.11465E-01-1.08032E-01 1.02591E+00-1.85026E-13-4.83953E-13
 -1       715 2.94631E+01-1.57294E+00-1.30353E-01-7.96070E-01 2.08696E-13-1.44142E-13
 -1       716 2.85297E+01 4.11033E+00-1.44627E-01 1.41777E+00 2.56115E-14-2.23849E-13
 -1       717 2.02808E+01 1.67906E+00 7.28716E-05-1.14014E+00-4.13932E-13-4.75032E-13
 -1       718 1.36076E+01-2.96475E+00 1.28118E-01 5.59160E+00 1.51656E-13-1.83926E-13
 -1       719 1.99411E+01 2.44309E-02 2.62813E-06-1.69233E-01 1.22950E-13-2.03443E-13
 -1       720 2.57837E+01-5.90376E+00-9.99139E-03-1.88149E+00-4.21866E-13-8.00465E-13
 -1       721 2.02909E+01 1.07644E+00-1.39166E-04-7.22722E-01-3.44090E-13-4.11752E-13
 -1       722 2.00233E+01 2.29482E+00-1.65139E-03 6.37802E-01 3.25030E-13-5.39221E-13
 -1       723 1.20945E+01-3.17337E+00 1.50567E-01-5.35333E+00-1.40356E-13-2.35964E-13
 -1       724 2.00182E+01 2.30515E+00-1.53268E-03-6.28827E-01-2.03398E-13-6.44523E-13
 -1       725 2.86886E+01-3.83137E+00-6.97884E-02 1.61553E+00-2.05998E-13-1.46633E-13
 -1       726 1.95434E+01-5.40902E+00 6.28294E-02 5.60674E+00 4.28543E-13-3.77516E-13
 -1       727 7.54397E+00-1.25785E+00 1.70230E-01-2.00732E+00-8.32980E-14-5.52447E-13
 -1       728 2.89278E+01-4.04416E+00-7.23606E-02 1.48514E+00-6.69300E-15-1.00878E-13
 -1       729 2.56751E+01-5.84982E+00 5.30692E-03 2.52371E+00 2.52855E-13-1.96980E-13
 -1       730 2.89468E+01 1.11744E+00-1.24887E-01-3.36673E+00 1.69656E-14 4.51666E-13
 -1       731 2.85924E+01-3.36906E+00-7.07760E-02-1.19692E+00-5.93002E-14 4.44221E-13
 -1       732 2.01186E+01 2.06346E+00-1.14098E-03-8.54200E-01-2.93426E-13-6.24778E-13
 -1       733 1.99264E+01 2.52595E+00-1.50879E-03-1.26478E-01-1.35227E-14-6.77532E-13
 -1       734 2.19114E+01-4.37569E+00 5.70041E-02 6.95000E+00-7.00273E-14-1.90467E-13
 -1       735 2.65688E+01-4.94862E+00 1.63823E-03-4.58677E+00-1.56887E-13-3.28067E-13
 -1       736 2.71533E+01-4.77856E+00 1.26254E-02 3.36601E+00-2.73746E-13-2.30024E-14
 -1       737 2.31928E+01-5.68493E+00 4.60645E-02-3.43176E+00-1.90488E-13-7.54765E-13
 -1       738 2.45735E+01-3.25935E+00 1.51645E-04 3.72374E+00-2.97458E-13-9.53942E-14
 -1       739 1.99563E+01 2.45494E+00-1.53374E-03-3.84482E-01-1.12237E-13-6.85460E-13
 -1       740 2.27390E+01-3.26788E+00 5.55217E-02 5.93449E+00-2.02103E-13-2.97486E-13
 -1       741 2.85241E+01-2.36012E+00-7.36740E-02-2.28510E-01-4.87407E-13-5.93674E-13
 -1       742 8.78713E+00-4.21059E-01 1.24804E-01 7.24462E-01 4.46075E-14-5.11723E-13
 -1       743 2.63077E+01-4.28416E+00-2.07161E-02-2.26532E-01 1.76007E-13 5.50735E-13
 -1       744 2.02644E+01 1.30818E+00 1.85202E-04 6.31606E-01 3.68085E-13-3.82866E-13
 -1       745 2.02612E+01 4.33070E-01 2.94326E-06-9.39536E-02-1.67731E-13-3.86334E-13
 -1       746 2.02215E+01 2.33731E-01-1.66902E-05 3.58348E-02-1.70072E-13-3.56120E-13
 -1       747 2.01800E+01 1.03072E-01-1.36875E-05 1.12649E-01-1.58946E-13-3.03285E-13
 -1       748 2.01423E+01 1.99533E-02-1.01258E-05 1.51960E-01-1.22367E-13-3.40427E-13
 -1       749 2.01104E+01-3.02644E-02-9.38206E-06 1.65765E-01-3.98557E-14-3.34330E-13
 -1       750 2.00844E+01-5.77685E-02-8.99895E-06 1.63321E-01 1.23862E-15-2.85856E-13
 -1       751 2.00638E+01-6.97249E-02-8.48741E-06 1.51466E-01-8.43099E-14-2.74343E-13
 -1       752 2.00480E+01-7.11545E-02-7.62402E-06 1.35106E-01-7.58971E-14-2.61034E-13
 -1       753 2.00361E+01-6.55121E-02-6.64354E-06 1.17696E-01-7.69208E-14-1.76494E-13
 -1       754 2.00274E+01-5.50666E-02-5.56179E-06 1.01650E-01-8.67083E-14-1.79101E-13
 -1       755 2.00212E+01-4.11852E-02-4.24989E-06 8.86877E-02-7.42697E-14-1.97720E-13
 -1       756 2.00169E+01-2.45513E-02-2.82827E-06 8.01074E-02-1.98889E-13-2.46999E-13
 -1       757 2.00140E+01-5.32922E-03-1.33426E-06 7.69905E-02-2.05910E-13-9.57014E-14
 -1       758 2.00119E+01 1.67019E-02 2.83861E-07 8.03612E-02-8.49277E-14-1.75416E-13
 -1       759 2.00101E+01 4.20278E-02 2.10045E-06 9.13008E-02 3.68522E-14-1.81389E-13
 -1       760 2.00078E+01 7.12790E-02 4.20265E-06 1.11022E-01 3.21521E-14-2.45797E-13
 -1       761 2.00047E+01 1.05092E-01 6.68814E-06 1.40906E-01 8.55201E-14-1.81734E-13
 -1       762 1.99998E+01 1.43933E-01 9.66186E-06 1.82488E-01 2.37479E-13-2.47372E-13
 -1       763 1.99926E+01 1.87853E-01 1.32304E-05 2.37409E-01 3.23615E-14-2.99632E-13
 -1       764 1.99824E+01 2.36145E-01 1.74942E-05 3.07292E-01-1.02008E-13-3.34289E-13
 -1       765 1.99688E+01 2.86861E-01 2.25376E-05 3.93566E-01 4.02439E-15-3.78462E-13
 -1       766 1.99519E+01 3.36134E-01 2.84208E-05 4.97208E-01 1.04494E-14-2.87179E-13
 -1       767 1.99333E+01 3.77259E-01 3.51713E-05 6.18410E-01 5.53640E-14-2.48861E-13
 -1       768 1.99165E+01 3.99490E-01 4.26961E-05 7.56157E-01 7.30564E-14-1.87307E-13
 -1       769 1.99094E+01 3.86570E-01 5.02027E-05 9.07701E-01 2.31587E-14-1.72963E-13
 -1       770 1.99261E+01 3.15142E-01 5.39031E-05 1.06779E+00 4.88476E-14-2.44271E-13
 -1       771 1.99916E+01 1.53568E-01 4.18175E-05 1.22728E+00-2.59757E-14-2.57661E-13
 -1       772 2.01461E+01-1.37645E-01-7.54440E-06 1.37037E+00-1.13348E-13-3.88434E-13
 -1       773 2.04507E+01-6.00953E-01-6.40808E-05 1.46824E+00 2.37590E-14-2.57417E-13
 -1       774 2.09890E+01-1.26485E+00 2.68092E-04 1.46674E+00-1.77273E-14-2.83359E-13
 -1       775 2.18567E+01-2.10682E+00 2.80334E-04 1.26702E+00-1.07303E-15-1.34619E-13
 -1       776 2.31122E+01-2.96594E+00 5.13344E-04 7.08518E-01-1.10412E-14-8.75353E-14
 -1       777 2.46437E+01-3.39489E+00-8.60477E-03-3.37927E-01 3.55532E-15 2.72790E-13
 -1       778 2.00406E+01-5.06241E-02-1.42169E-05-1.73023E-01 6.94433E-14-2.24321E-13
 -1       779 2.00611E+01-2.45498E-02-1.08490E-05-1.75277E-01 9.86055E-14-1.69279E-13
 -1       780 2.00162E+01-6.44311E-02-1.35960E-05-1.43067E-01 5.55546E-14-1.56988E-13
 -1       781 2.00100E+01-6.00459E-02-1.19441E-05-1.24281E-01-1.79613E-14-2.29542E-13
 -1       782 2.00064E+01-5.13207E-02-1.02819E-05-1.06719E-01 3.15241E-14-1.38011E-13
 -1       783 2.00050E+01-3.95343E-02-8.09368E-06-9.21778E-02-1.85640E-14-1.20444E-13
 -1       784 2.00052E+01-2.53429E-02-5.59933E-06-8.19911E-02-6.28486E-14-5.52355E-14
 -1       785 2.00066E+01-8.90709E-03-2.73007E-06-7.72567E-02-6.07251E-14-8.57750E-14
 -1       786 2.00090E+01 9.99634E-03 5.25501E-07-7.90130E-02-5.35018E-14-9.54488E-14
 -1       787 2.00121E+01 3.18876E-02 4.26756E-06-8.83693E-02 7.12710E-14-3.81323E-14
 -1       788 2.00156E+01 5.75099E-02 8.65958E-06-1.06600E-01 1.01403E-13-7.31277E-14
 -1       789 2.00192E+01 8.77557E-02 1.39099E-05-1.35203E-01 9.76565E-14 3.54913E-14
 -1       790 2.00225E+01 1.23577E-01 2.02616E-05-1.75927E-01 1.18466E-13 1.31887E-13
 -1       791 2.00248E+01 1.65862E-01 2.79852E-05-2.30752E-01 1.46995E-13 5.36264E-14
 -1       792 2.00252E+01 2.15243E-01 3.73703E-05-3.01820E-01 6.56908E-14-5.08990E-15
 -1       793 2.00224E+01 2.71796E-01 4.87112E-05-3.91307E-01-9.34403E-14 2.51919E-14
 -1       794 2.00149E+01 3.34551E-01 6.22809E-05-5.01222E-01-1.62662E-13 4.14794E-14
 -1       795 2.00008E+01 4.00710E-01 7.82853E-05-6.33129E-01-1.24236E-13-5.29189E-14
 -1       796 1.99788E+01 4.64404E-01 9.67776E-05-7.87803E-01-1.02981E-13 6.95821E-14
 -1       797 1.99489E+01 5.14797E-01 1.17407E-04-9.64849E-01-9.52798E-14 1.32099E-13
 -1       798 1.99148E+01 5.33283E-01 1.38402E-04-1.16232E+00-1.42862E-13-2.72067E-14
 -1       799 1.98883E+01 4.89666E-01 1.52972E-04-1.37628E+00-7.37102E-14-7.87077E-14
 -1       800 1.98963E+01 3.37639E-01 1.36075E-04-1.60002E+00 1.34731E-13-7.82536E-14
 -1       801 1.99923E+01 1.10022E-02 9.30060E-05-1.82138E+00-9.84824E-14-1.74868E-13
 -1       802 2.02730E+01-5.74645E-01 2.48693E-04-2.01411E+00-1.56250E-13-3.51744E-13
 -1       803 2.08947E+01-1.50148E+00 1.08375E-03-2.11399E+00-2.00278E-13-2.02377E-13
 -1       804 2.20719E+01-2.76774E+00 1.00602E-02-1.97691E+00-2.69764E-13 6.45068E-14
 -1       805 2.40002E+01-4.09736E+00 1.42309E-02-1.25906E+00-4.47638E-13 8.08510E-14
 -1       806 2.01380E+01 1.88877E+00-3.03050E-04 1.99193E-01 1.23112E-13-5.51815E-13
 -1       807 1.79281E+01-3.48974E+00 4.03482E-02 4.81167E+00 2.61570E-13-2.57867E-13
 -1       808 1.14062E+01-1.15370E+00 9.78718E-02-3.33925E+00-2.39447E-13-2.92179E-13
 -1       809 2.66676E+01-3.26436E+00-1.13774E-02 9.22838E-01-2.47284E-13-5.34898E-14
 -1       810 2.00261E+01-6.23593E-02-1.46706E-05-1.60539E-01 8.58138E-14-1.69817E-13
 -1       811 2.01703E+01 2.23569E-01 6.01346E-05-3.22216E-02 2.06916E-13-2.12369E-13
 -1       812 1.19023E+01-7.83470E-01 9.09779E-02 3.29216E+00 8.57712E-14-3.12229E-13
 -1       813 2.02891E+01 7.29132E-01-2.27196E-04-2.90771E-01-2.24281E-13-4.64710E-13
 -1       814 1.72906E+01-3.90437E+00 6.95382E-02-5.02300E+00-5.76483E-14-3.32300E-13
 -1       815 2.02777E+01 9.43148E-01 6.08543E-05 5.53004E-01 3.70343E-13-3.08283E-13
 -1       816 2.28104E+01-4.97856E+00 1.67326E-02 3.26754E+00 4.59926E-13-2.90995E-13
 -1       817 2.59481E+01-4.43785E+00-6.31184E-03 1.48044E-01-5.71263E-13 1.22511E-13
 -1       818 2.01265E+01 1.92676E+00-3.03311E-04 3.15641E-03 3.60485E-14-6.01778E-13
 -1       819 2.02216E+01 1.58136E+00 1.34189E-04 5.34690E-01 3.02617E-13-4.59215E-13
 -1       820 2.01703E+01 1.77580E+00-2.60242E-04 3.81133E-01 2.20055E-13-4.83082E-13
 -1       821 1.53056E+01-1.49355E+00 3.74637E-02 3.90609E+00 1.81417E-13 6.15740E-15
 -1       822 2.72177E+01-3.00585E+00-2.38432E-02-1.17853E+00-1.55761E-13-2.95194E-13
 -1       823 2.64521E+01-2.21184E+00 1.05543E-02-2.34078E-01-4.42145E-13-5.55349E-13
 -1       824 2.02209E+01 4.12565E-01-1.24667E-04 1.11000E-01 2.44058E-13-2.02180E-13
 -1       825 2.00890E+01 2.26181E-02-5.03370E-06-1.59908E-01 8.24085E-14-2.09076E-13
 -1       826 1.09522E+01-9.08827E-02 7.30904E-02-1.30177E+00-6.59321E-14-3.52159E-13
 -1       827 2.02491E+01 6.37703E-01 9.43757E-05 2.95163E-01 2.98919E-13-2.56765E-13
 -1       828 1.52598E+01-1.98707E+00 4.74850E-02-4.14006E+00-7.18470E-14-4.66203E-13
 -1       829 2.02877E+01 1.12399E+00 2.03148E-04-5.35392E-01-2.74305E-13-5.38954E-13
 -1       830 2.01694E+01 1.78180E+00-3.76706E-04-3.77677E-01-1.60563E-13-6.01243E-13
 -1       831 2.01253E+01 1.00593E-01 7.72373E-06-1.16716E-01 1.21413E-13-2.12334E-13
 -1       832 2.02150E+01 1.59540E+00 1.14197E-04-5.32028E-01-2.44997E-13-5.43655E-13
 -1       833 2.69063E+01-2.24479E+00 3.00692E-02-2.28432E+00 6.08298E-14 5.93234E-13
 -1       834 2.67213E+01 4.89315E+00-1.81698E-01 1.64550E+00 5.73680E-13 4.07669E-13
 -1       835 2.38086E+01-4.91013E+00 2.97312E-02-2.22606E+00-3.85476E-13-3.36080E-13
 -1       836 2.03038E+01 2.26590E-01-3.18055E-05 4.71233E-02-1.16185E-13-3.66366E-13
 -1       837 2.02676E+01 9.11874E-02-5.09425E-06 1.02669E-01-1.29434E-13-2.96469E-13
 -1       838 2.02284E+01 4.76551E-03-3.56250E-06 1.30216E-01-8.27666E-14-2.59525E-13
 -1       839 2.01904E+01-4.68071E-02-3.51543E-06 1.38647E-01-5.56186E-14-3.51280E-13
 -1       840 2.01558E+01-7.39228E-02-2.88013E-06 1.34952E-01-3.73806E-14-4.00753E-13
 -1       841 2.01256E+01-8.41147E-02-1.72552E-06 1.24411E-01-4.93716E-14-3.97685E-13
 -1       842 2.01000E+01-8.27579E-02-1.43840E-06 1.10882E-01-5.23814E-14-3.53831E-13
 -1       843 2.00787E+01-7.35423E-02-1.63645E-06 9.70934E-02-4.49821E-14-3.65877E-13
 -1       844 2.00611E+01-5.88306E-02-1.35442E-06 8.49969E-02-3.29470E-14-3.15299E-13
 -1       845 2.00465E+01-3.99859E-02-9.94662E-07 7.60322E-02-1.46475E-13-1.99057E-13
 -1       846 2.00339E+01-1.76029E-02-7.87039E-07 7.13307E-02-1.00429E-13-1.32589E-13
 -1       847 2.00224E+01 8.30755E-03-6.90453E-07 7.18853E-02-1.90418E-13-1.06294E-14
 -1       848 2.00107E+01 3.81560E-02-6.68205E-07 7.86789E-02-3.15549E-14-4.27211E-14
 -1       849 1.99976E+01 7.26236E-02-6.99918E-07 9.27745E-02-9.28908E-15-7.84464E-14
 -1       850 1.99817E+01 1.12504E-01-7.69233E-07 1.15374E-01 1.05662E-13-1.83098E-13
 -1       851 1.99612E+01 1.58516E-01-8.54202E-07 1.47843E-01 1.09748E-13-1.16645E-13
 -1       852 1.99345E+01 2.11063E-01-9.19435E-07 1.91712E-01 3.49357E-14-2.14752E-13
 -1       853 1.98997E+01 2.69909E-01-9.06019E-07 2.48638E-01-8.40819E-14-3.07943E-13
 -1       854 1.98550E+01 3.33727E-01-7.13918E-07 3.20350E-01-7.63726E-14-2.65076E-13
 -1       855 1.97987E+01 3.99499E-01-1.64467E-07 4.08578E-01 6.10383E-14-3.05666E-13
 -1       856 1.97303E+01 4.61703E-01 1.08340E-06 5.14996E-01 7.20459E-14-3.61546E-13
 -1       857 1.96505E+01 5.11251E-01 3.67985E-06 6.41217E-01 6.31788E-14-3.60359E-13
 -1       858 1.95632E+01 5.34151E-01 8.60675E-06 7.88898E-01 1.07833E-13-4.07091E-13
 -1       859 1.94772E+01 5.09873E-01 1.60317E-05 9.59953E-01 2.82799E-14-2.50737E-13
 -1       860 1.94096E+01 4.09508E-01 2.04591E-05 1.15675E+00-1.00186E-13-3.31741E-13
 -1       861 1.93911E+01 1.93991E-01 5.05785E-06 1.38175E+00-2.73915E-13-5.93602E-13
 -1       862 1.94738E+01-1.86825E-01-1.25446E-05 1.63497E+00 1.88301E-13-4.42250E-13
 -1       863 1.97425E+01-7.92203E-01 6.15139E-05 1.90573E+00 6.12668E-14-4.52172E-13
 -1       864 2.03295E+01-1.67209E+00 4.65911E-03 2.15301E+00 2.12791E-13-2.80197E-13
 -1       865 2.14127E+01-2.83276E+00 6.13932E-03 2.23465E+00 6.82564E-14-2.38055E-13
 -1       866 2.35295E+01-4.09727E+00 9.96222E-03 1.60158E+00 1.79792E-13 3.16871E-14
 -1       867 2.00613E+01-7.03398E-02 1.15187E-07-1.06902E-01-2.76911E-14-1.40472E-13
 -1       868 2.00785E+01-7.79066E-02 2.65616E-06-1.22412E-01 6.51093E-14-1.57832E-13
 -1       869 2.00368E+01-4.09542E-02-4.08460E-07-8.22875E-02-6.81469E-14-2.15615E-13
 -1       870 2.00280E+01-2.11119E-02-2.88474E-07-7.59800E-02-9.16189E-15-2.18772E-13
 -1       871 2.00205E+01 1.94324E-03-1.62782E-08-7.51319E-02-4.10731E-14-2.59037E-13
 -1       872 2.00133E+01 2.86380E-02 3.59949E-07-8.07737E-02-6.63662E-15-2.89653E-13
 -1       873 2.00053E+01 5.97373E-02 8.53192E-07-9.40152E-02 6.54091E-14-1.55558E-13
 -1       874 1.99955E+01 9.62408E-02 1.50490E-06-1.16113E-01 4.18133E-14-1.10050E-13
 -1       875 1.99821E+01 1.39273E-01 2.37536E-06-1.48504E-01 1.05116E-13-2.10916E-13
 -1       876 1.99635E+01 1.89943E-01 3.54911E-06-1.92800E-01 1.29971E-13-1.69935E-13
 -1       877 1.99374E+01 2.49157E-01 5.14970E-06-2.50744E-01 1.23109E-13-3.94766E-14
 -1       878 1.99009E+01 3.17333E-01 7.36557E-06-3.24131E-01-5.43059E-14-2.72680E-14
 -1       879 1.98509E+01 3.93979E-01 1.04940E-05-4.14699E-01-1.19999E-13 1.36580E-14
 -1       880 1.97833E+01 4.77052E-01 1.50171E-05-5.24011E-01-1.18259E-13-1.09232E-13
 -1       881 1.96941E+01 5.61994E-01 2.17483E-05-6.53414E-01-2.44255E-13-3.87662E-14
 -1       882 1.95794E+01 6.40300E-01 3.21301E-05-8.04178E-01-9.89637E-14-6.40789E-14
 -1       883 1.94371E+01 6.97425E-01 4.86861E-05-9.78026E-01 3.69627E-14-2.50076E-14
 -1       884 1.92690E+01 7.09798E-01 7.47958E-05-1.17833E+00-1.80528E-14-1.30714E-13
 -1       885 1.90856E+01 6.40753E-01 1.08885E-04-1.41211E+00-4.75841E-14-1.99688E-13
 -1       886 1.89142E+01 4.35332E-01 1.18512E-04-1.69274E+00-1.45366E-14 4.07399E-14
 -1       887 1.88138E+01 1.39221E-02 3.34855E-04-2.04115E+00-7.57024E-15-1.38307E-13
 -1       888 1.88996E+01-7.33019E-01 1.76299E-03-2.48120E+00-1.52540E-13-1.63098E-13
 -1       889 1.93964E+01-1.94549E+00 9.03735E-03-2.99009E+00-2.33617E-13-1.14922E-13
 -1       890 2.11094E+01-3.48565E+00 2.02485E-02-3.03905E+00-2.57178E-13-2.71597E-13
 -1       891 2.00476E+01-5.75634E-02-2.13940E-07-9.29991E-02-1.93808E-14-2.36552E-13
 -1       892 2.01568E+01-3.96928E-02-1.15432E-06-1.52158E-01 8.80875E-14-1.60329E-13
 -1       893 2.01367E+01 1.89184E+00-2.73344E-04-1.91919E-01-6.73659E-14-5.78772E-13
 -1       894 1.18590E+01 1.79080E-01 5.26573E-02 1.29339E+00-3.94102E-14-4.40904E-13
 -1       895 2.03317E+01 7.29613E-01 8.79715E-04-1.90930E-01-1.41165E-13-4.68705E-13
 -1       896 1.93527E+01-3.77783E+00 3.69497E-02-4.15935E+00 2.80088E-14-3.24446E-13
 -1       897 2.03309E+01 4.29502E-01 1.13190E-04-4.58222E-02-1.13422E-13-4.00755E-13
 -1       898 2.02972E+01 9.03131E-01-3.09757E-04 3.77433E-01 2.96148E-13-3.47029E-13
 -1       899 2.05971E+01-3.36950E+00 8.55492E-03 3.28567E+00 2.25344E-13-3.87333E-13
 -1       900 2.03030E+01 4.26637E-01-1.75793E-04 6.52781E-02 2.25715E-13-3.12925E-13
 -1       901 2.01921E+01 1.12375E-02 8.65583E-07-1.41724E-01 6.76797E-14-2.16171E-13
 -1       902 2.01260E+01-6.69834E-02-3.41695E-06-1.48741E-01 3.01196E-14-1.75910E-13
 -1       903 1.82373E+01-1.94096E+00 1.49911E-02 3.42561E+00 2.41088E-13-4.26633E-13
 -1       904 2.02682E+01 2.29142E-01 2.12186E-05-4.49828E-02 1.23316E-13-2.88509E-13
 -1       905 2.01000E+01-7.80034E-02-3.42492E-07-1.37386E-01 7.11723E-14-1.60642E-13
 -1       906 2.02849E+01 1.33735E+00 3.81023E-05 1.96978E-01 1.44905E-13-4.55453E-13
 -1       907 2.02741E+01 1.40621E+00-4.83187E-06 6.89420E-02 7.02374E-14-5.32825E-13
 -1       908 2.02856E+01 1.33822E+00-4.85286E-04-1.96782E-01-7.48939E-14-5.08064E-13
 -1       909 1.40884E+01-2.61411E-01 2.44536E-02 2.62134E+00 2.36856E-13-3.93782E-14
 -1       910 1.34672E+01-5.99246E-01 5.25095E-02-2.88380E+00-7.56006E-14-4.41432E-13
 -1       911 2.03019E+01 1.10157E+00-9.36735E-04-3.59757E-01-1.79928E-13-5.07239E-13
 -1       912 2.03587E+01 1.96098E-01-1.45526E-05 5.03321E-02-9.15828E-14-3.75576E-13
 -1       913 2.03133E+01 7.28554E-01-1.17940E-04 2.32998E-01 2.42591E-13-3.72908E-13
 -1       914 2.03005E+01 1.20467E+00 2.25842E-04 3.04667E-01 2.17483E-13-4.09282E-13
 -1       915 2.03236E+01 6.54861E-02 6.09082E-06 8.49812E-02-7.57958E-14-3.68183E-13
 -1       916 2.02821E+01-1.70550E-02-1.70619E-07 1.01128E-01-5.12062E-14-3.69164E-13
 -1       917 2.02396E+01-6.49639E-02-2.43590E-06 1.04606E-01-1.02061E-13-2.97039E-13
 -1       918 2.01993E+01-8.83793E-02-1.92803E-07 1.00228E-01-4.05301E-14-3.01495E-13
 -1       919 2.01628E+01-9.47067E-02 2.61648E-06 9.16794E-02-2.07715E-14-2.87758E-13
 -1       920 2.01308E+01-8.93895E-02 5.30444E-07 8.15950E-02 9.90941E-15-2.46165E-13
 -1       921 2.01032E+01-7.59655E-02 6.82429E-07 7.18753E-02-3.00046E-14-1.96137E-13
 -1       922 2.00793E+01-5.66802E-02 6.66841E-07 6.39374E-02-3.10601E-14-1.89629E-13
 -1       923 2.00582E+01-3.27383E-02 2.01606E-07 5.88426E-02-6.14898E-14-1.65959E-13
 -1       924 2.00387E+01-4.53171E-03-6.17937E-07 5.74661E-02-1.14238E-13-9.89158E-14
 -1       925 2.00193E+01 2.81498E-02-1.74377E-06 6.06241E-02-7.15615E-14-3.26900E-14
 -1       926 1.99982E+01 6.59348E-02-3.19991E-06 6.91635E-02-1.42387E-14 6.17543E-14
 -1       927 1.99734E+01 1.09696E-01-5.05314E-06 8.40276E-02 9.68415E-15 8.13900E-14
 -1       928 1.99427E+01 1.60357E-01-7.39315E-06 1.06304E-01 1.12401E-13 8.51225E-14
 -1       929 1.99035E+01 2.18666E-01-1.03274E-05 1.37252E-01 3.45529E-15-3.64521E-14
 -1       930 1.98530E+01 2.84897E-01-1.39847E-05 1.78325E-01-8.17046E-14-4.84314E-14
 -1       931 1.97882E+01 3.58465E-01-1.85280E-05 2.31187E-01-5.80999E-14-6.08316E-14
 -1       932 1.97061E+01 4.37410E-01-2.41781E-05 2.97748E-01 3.98096E-14 2.32433E-14
 -1       933 1.96038E+01 5.17741E-01-3.12469E-05 3.80254E-01-1.33627E-13-1.20810E-13
 -1       934 1.94792E+01 5.92596E-01-4.01806E-05 4.81487E-01-3.08941E-14-3.16424E-13
 -1       935 1.93317E+01 6.51209E-01-5.17065E-05 6.05178E-01-3.17256E-14-4.30083E-13
 -1       936 1.91629E+01 6.77654E-01-6.77793E-05 7.56741E-01 1.61986E-13-3.66001E-13
 -1       937 1.89789E+01 6.49296E-01-9.58172E-05 9.44474E-01-1.04553E-13-3.24314E-13
 -1       938 1.87930E+01 5.34785E-01-1.57111E-04 1.18117E+00-2.22104E-13-2.91218E-13
 -1       939 1.86313E+01 2.91484E-01-2.71369E-04 1.48567E+00-9.92350E-14-2.39112E-13
 -1       940 1.85425E+01-1.38915E-01-3.16348E-04 1.88414E+00 1.26871E-13-4.72397E-13
 -1       941 1.86135E+01-8.34944E-01 2.46601E-03 2.39675E+00 2.15847E-13-5.08660E-13
 -1       942 2.01186E+01-8.69142E-02 8.80351E-06-9.52440E-02 3.88690E-14-1.56647E-13
 -1       943 2.00380E+01-1.05075E-02 2.22171E-06-6.45778E-02 4.33323E-14-2.33431E-13
 -1       944 2.00544E+01-3.62695E-02 3.52785E-06-6.72214E-02-2.85067E-14-2.06786E-13
 -1       945 2.00052E+01 5.43104E-02-2.99462E-07-7.50145E-02-1.17506E-14-2.10904E-13
 -1       946 1.99853E+01 9.50264E-02-1.60110E-06-8.99543E-02 4.48958E-14-2.55264E-13
 -1       947 1.99605E+01 1.42817E-01-2.97379E-06-1.12764E-01 1.20450E-13-1.68285E-13
 -1       948 1.99279E+01 1.98937E-01-4.44621E-06-1.44617E-01 6.42188E-14-6.47229E-14
 -1       949 1.98847E+01 2.64503E-01-6.03808E-06-1.86761E-01 7.97777E-14-1.42993E-13
 -1       950 1.98269E+01 3.40235E-01-7.75874E-06-2.40461E-01-7.38104E-15-5.67573E-14
 -1       951 1.97503E+01 4.26098E-01-9.61786E-06-3.06925E-01 2.19232E-14-2.57081E-13
 -1       952 1.96496E+01 5.20798E-01-1.16665E-05-3.87239E-01-1.78715E-13-3.07657E-13
 -1       953 1.95188E+01 6.21091E-01-1.40972E-05-4.82399E-01-1.41307E-13-2.59167E-13
 -1       954 1.93511E+01 7.20829E-01-1.73984E-05-5.93550E-01-2.42404E-13-2.75793E-13
 -1       955 1.91394E+01 8.09684E-01-2.23183E-05-7.22689E-01-1.77151E-13-3.09205E-14
 -1       956 1.88764E+01 8.71421E-01-2.89902E-05-8.74213E-01 3.73959E-14 5.93708E-14
 -1       957 1.85563E+01 8.81465E-01-3.23921E-05-1.05785E+00 1.41067E-13 7.56284E-14
 -1       958 1.81765E+01 8.03440E-01-1.03390E-05-1.29321E+00-1.51847E-13-6.87344E-14
 -1       959 1.77419E+01 5.84381E-01-3.71394E-05-1.61732E+00 1.08520E-13-4.66814E-14
 -1       960 1.72766E+01 1.43983E-01 9.33610E-04-2.09265E+00-2.22635E-14-1.41761E-14
 -1       961 1.68291E+01-6.39634E-01 9.82481E-03-2.81991E+00-2.41187E-13-2.98981E-13
 -1       962 1.76972E+01-2.30393E+00 1.64672E-02-3.79181E+00-7.04801E-14-2.44947E-13
 -1       963 1.31684E+01 5.38601E-01 2.63025E-02-5.95438E-01 8.88623E-14-3.20979E-13
 -1       964 2.02763E+01 1.40494E+00 3.23259E-04-6.82230E-02 1.60114E-14-5.19731E-13
 -1       965 2.03781E+01 6.69845E-01 5.35548E-04-9.94810E-02-5.73224E-14-4.21094E-13
 -1       966 2.00221E+01 1.94654E-02 9.63605E-07-6.68771E-02-1.69304E-14-2.60553E-13
 -1       967 2.03787E+01 3.93335E-01 4.94960E-05-9.68391E-03-7.69634E-14-3.70591E-13
 -1       968 2.02304E+01 9.61016E-02 2.50887E-07-1.09425E-01 1.00614E-13-2.20403E-13
 -1       969 1.95030E+01-1.87845E+00 7.53019E-03 2.76567E+00 1.15204E-13-4.97166E-13
 -1       970 2.03660E+01 8.82355E-01-3.40771E-05 1.48372E-01 1.46991E-13-3.47504E-13
 -1       971 2.02599E+01-7.97808E-03-7.15415E-07-1.15727E-01 7.61539E-14-2.76667E-13
 -1       972 2.03681E+01 9.66663E-01 4.35884E-05 7.97569E-02 1.00943E-13-4.27620E-13
 -1       973 2.00937E+01-7.52834E-02 5.38734E-06-8.36507E-02 1.99084E-15-8.73804E-14
 -1       974 2.00726E+01-5.80072E-02 4.99328E-06-7.39139E-02-4.26818E-14-9.98619E-14
 -1       975 1.53562E+01-6.51364E-01 1.91897E-02-2.94815E+00-5.96845E-14-5.44275E-13
 -1       976 1.39486E+01 5.83485E-01 1.35550E-02 9.16983E-01 1.66981E-13-3.15109E-13
 -1       977 1.66544E+01-8.17003E-01 1.00841E-02 2.97257E+00 3.75491E-13-5.72177E-15
 -1       978 2.01479E+01-9.04762E-02 7.47229E-06-1.06935E-01 2.80917E-14-1.79546E-13
 -1       979 2.03619E+01 4.05692E-01 3.74440E-04 2.41014E-02 1.31166E-13-2.67097E-13
 -1       980 2.03965E+01 7.57506E-01 1.31123E-04-6.94216E-02-2.16899E-14-4.18622E-13
 -1       981 2.02194E+01-5.73792E-02 2.82464E-06-1.21003E-01 7.80281E-14-2.90360E-13
 -1       982 2.04052E+01 5.56532E-01-5.21432E-05 3.77699E-02 1.26183E-13-3.41942E-13
 -1       983 2.03005E+01 7.64710E-02 5.49606E-05-9.51292E-02 7.30274E-14-2.76646E-13
 -1       984 2.00593E+01-2.58033E-02 4.45853E-06-4.82285E-02-8.85560E-15-6.42650E-14
 -1       985 2.03523E+01 3.12128E-02 2.61288E-05 5.86532E-02-5.60439E-14-3.64720E-13
 -1       986 2.03080E+01-4.18857E-02-2.03677E-05 6.56815E-02 1.87957E-15-3.35154E-13
 -1       987 2.02622E+01-8.21294E-02-1.56674E-05 6.59327E-02-1.81513E-14-1.99045E-13
 -1       988 2.02184E+01-9.92743E-02 7.67002E-06 6.20297E-02-3.13143E-14-1.77283E-13
 -1       989 2.01785E+01-1.00385E-01-1.34467E-06 5.63377E-02-1.18595E-14-2.27561E-13
 -1       990 2.01430E+01-9.04731E-02 5.32208E-06 5.00206E-02-3.88085E-14-3.77226E-13
 -1       991 2.01117E+01-7.26267E-02 3.09575E-06 4.44018E-02-2.35228E-14-3.14164E-13
 -1       992 2.00839E+01-4.88801E-02 1.45267E-06 4.02667E-02-4.46063E-14-2.44456E-13
 -1       993 2.00583E+01-2.01203E-02-1.55736E-06 3.82545E-02-8.32784E-14-2.12073E-13
 -1       994 2.00334E+01 1.35466E-02-5.63796E-06 3.89434E-02 2.97380E-15-9.42086E-14
 -1       995 2.00072E+01 5.25879E-02-1.07353E-05 4.29076E-02 3.86309E-14-3.07924E-14
 -1       996 1.99774E+01 9.78547E-02-1.69063E-05 5.07757E-02 4.46688E-14 3.32259E-15
 -1       997 1.99413E+01 1.50389E-01-2.42611E-05 6.32801E-02 1.24036E-13 8.19583E-14
 -1       998 1.98961E+01 2.11210E-01-3.29367E-05 8.12996E-02 9.50136E-15 5.23662E-14
 -1       999 1.98382E+01 2.81049E-01-4.30901E-05 1.05902E-01-1.20426E-13 1.08581E-14
 -1      1000 1.97639E+01 3.60019E-01-5.49210E-05 1.38396E-01-5.30776E-14-1.13158E-13
 -1      1001 1.96691E+01 4.47199E-01-6.87429E-05 1.80412E-01-4.26272E-14-6.30388E-14
 -1      1002 1.95494E+01 5.40103E-01-8.51496E-05 2.34035E-01-1.87464E-13-2.53368E-13
 -1      1003 1.94003E+01 6.34044E-01-1.05363E-04 3.02041E-01-2.06386E-13-2.56828E-13
 -1      1004 1.92173E+01 7.21407E-01-1.31997E-04 3.88318E-01-1.02752E-13-1.81585E-13
 -1      1005 1.89965E+01 7.90834E-01-1.70985E-04 4.98600E-01 2.43367E-13-1.93146E-13
 -1      1006 1.87343E+01 8.26351E-01-2.37208E-04 6.41730E-01 1.66362E-14-2.40108E-13
 -1      1007 1.84279E+01 8.06293E-01-3.72669E-04 8.31805E-01-1.49252E-13-1.71532E-13
 -1      1008 1.80763E+01 7.01379E-01-6.50158E-04 1.09151E+00-4.61005E-14-1.34060E-13
 -1      1009 1.76841E+01 4.72040E-01-6.97647E-04 1.45551E+00-1.52880E-13-4.50796E-14
 -1      1010 1.72512E+01 6.15686E-02 4.48289E-04 1.97753E+00 4.96511E-14-1.46874E-13
 -1      1011 1.99153E+01 1.93516E-01-2.26912E-05-9.34740E-02 4.77335E-14-1.75110E-13
 -1      1012 1.99554E+01 1.35033E-01-1.59039E-05-7.40208E-02 5.12881E-14-2.34635E-13
 -1      1013 1.99871E+01 8.50898E-02-9.87027E-06-6.04717E-02 8.81662E-14-2.21665E-13
 -1      1014 1.98633E+01 2.61781E-01-3.03327E-05-1.19563E-01 1.21007E-13-7.40835E-14
 -1      1015 1.97952E+01 3.40762E-01-3.89529E-05-1.52980E-01 2.70889E-14-2.70797E-13
 -1      1016 1.97060E+01 4.30767E-01-4.87575E-05-1.94307E-01-2.30693E-14-1.33945E-13
 -1      1017 1.95901E+01 5.31072E-01-6.01937E-05-2.43943E-01-9.73200E-14-4.99071E-15
 -1      1018 1.94405E+01 6.39401E-01-7.43280E-05-3.02086E-01-1.00081E-13-8.99900E-14
 -1      1019 1.92493E+01 7.51304E-01-9.36575E-05-3.68838E-01-1.98346E-13-1.56586E-13
 -1      1020 1.90069E+01 8.59431E-01-1.23559E-04-4.44607E-01-3.93074E-13-1.24540E-13
 -1      1021 1.87014E+01 9.52776E-01-1.73426E-04-5.31077E-01-1.16212E-13-3.10723E-14
 -1      1022 1.83174E+01 1.01595E+00-2.52403E-04-6.33214E-01 9.83044E-14 3.04798E-14
 -1      1023 1.78328E+01 1.02811E+00-3.96413E-04-7.63522E-01 5.72334E-14 8.40226E-14
 -1      1024 1.72206E+01 9.58781E-01-9.11725E-05-9.47285E-01-2.57494E-14-6.62541E-14
 -1      1025 1.64280E+01 7.79261E-01 8.64353E-04-1.23472E+00 4.21474E-14-2.47064E-14
 -1      1026 1.54284E+01 4.09119E-01 2.20068E-02-1.69828E+00 1.06674E-13-5.77489E-15
 -1      1027 2.01817E+01-8.24299E-02 5.34515E-06-1.16675E-01 3.08520E-14-2.60513E-13
 -1      1028 2.04118E+01 3.29797E-01 2.20220E-05 9.91205E-03-6.74849E-14-3.78701E-13
 -1      1029 2.03680E+01 9.93635E-01-7.09091E-04 2.42673E-03 3.75225E-14-4.96120E-13
 -1      1030 2.00134E+01 4.23750E-02-4.50115E-06-5.21061E-02 3.43529E-14-3.09188E-14
 -1      1031 2.00367E+01 5.70690E-03 2.69441E-07-4.82410E-02 2.44833E-14 3.82634E-14
 -1      1032 2.03361E+01 2.09331E-01 2.85680E-05-5.21064E-02 9.03071E-14-2.94308E-13
 -1      1033 2.04140E+01 5.19046E-01 3.16119E-05-2.41659E-02-1.84503E-14-4.08834E-13
 -1      1034 1.77563E+01-8.62361E-01 3.68759E-03 2.70780E+00 1.71036E-13-6.16232E-13
 -1      1035 2.03899E+01 1.48771E-01-6.68941E-05 4.13495E-02-1.11896E-13-3.69328E-13
 -1      1036 2.00830E+01-5.25932E-02 8.02092E-06-5.14290E-02-1.50660E-14-7.38119E-14
 -1      1037 2.04070E+01 3.07600E-01-2.03500E-04-1.33004E-02 1.01611E-13-3.28107E-13
 -1      1038 1.47889E+01 1.22421E-01 1.14066E-02-2.03599E+00 2.82890E-14-2.38089E-13
 -1      1039 2.01091E+01-7.44772E-02 1.08644E-05-5.71605E-02-4.43240E-14-9.82393E-14
 -1      1040 2.01388E+01-9.03971E-02 1.47278E-05-6.46164E-02-4.14556E-14-1.38385E-13
 -1      1041 1.56019E+01 2.24531E-01 6.73346E-03 1.91778E+00 2.79795E-13 2.56614E-13
 -1      1042 1.48908E+01 8.38398E-01 5.60832E-04-4.05269E-01 2.07885E-13-2.71511E-13
 -1      1043 2.01734E+01-9.88372E-02-4.02214E-05-7.28964E-02-2.87335E-14-2.70629E-13
 -1      1044 2.02982E+01-3.19840E-02-3.85670E-05-8.28796E-02 7.31744E-14-2.77428E-13
 -1      1045 2.03408E+01 4.56842E-02-2.52222E-05-7.20864E-02 7.12036E-14-3.11079E-13
 -1      1046 2.03104E+01-6.49329E-02 6.40719E-05 2.57598E-02 5.14960E-14-2.10677E-13
 -1      1047 2.02616E+01-9.47789E-02-4.30122E-05 2.51384E-02-5.64258E-14-1.68901E-13
 -1      1048 2.02174E+01-1.05226E-01 1.73421E-05 2.30115E-02-8.74823E-14-2.50730E-13
 -1      1049 2.01769E+01-1.00571E-01 1.16945E-06 2.04853E-02-7.26793E-14-3.47272E-13
 -1      1050 2.01404E+01-8.58416E-02 2.64784E-05 1.83937E-02 4.44885E-15-3.34278E-13
 -1      1051 2.01078E+01-6.39701E-02 2.02590E-05 1.65580E-02 5.44669E-15-4.07542E-13
 -1      1052 2.00782E+01-3.63011E-02 1.63827E-05 1.54253E-02 1.34419E-14-3.65342E-13
 -1      1053 2.00499E+01-3.36308E-03 1.43113E-05 1.52687E-02 1.96772E-14-2.53317E-13
 -1      1054 2.00211E+01 3.50472E-02 1.39968E-05 1.63439E-02 7.58631E-14-1.34331E-13
 -1      1055 1.99894E+01 7.96547E-02 1.54610E-05 1.89333E-02 7.14124E-14-2.01976E-15
 -1      1056 1.99521E+01 1.31512E-01 1.88108E-05 2.33806E-02 7.03798E-14-4.30510E-15
 -1      1057 1.99061E+01 1.91795E-01 2.42772E-05 3.01281E-02 2.59580E-14-1.49760E-13
 -1      1058 1.98476E+01 2.61572E-01 3.22667E-05 3.97615E-02-9.60315E-14-1.91603E-13
 -1      1059 1.97726E+01 3.41526E-01 4.34433E-05 5.30698E-02-9.45017E-14-4.64558E-14
 -1      1060 1.96762E+01 4.31600E-01 5.88771E-05 7.11315E-02-6.42565E-14-3.67631E-14
 -1      1061 1.95533E+01 5.30583E-01 8.03084E-05 9.54423E-02-1.28004E-13-1.92794E-13
 -1      1062 1.93979E+01 6.35609E-01 1.10589E-04 1.28110E-01-2.52345E-13-1.62139E-13
 -1      1063 1.92035E+01 7.41625E-01 1.54256E-04 1.72155E-01-1.19112E-13-2.82591E-13
 -1      1064 1.89623E+01 8.40859E-01 2.17579E-04 2.31987E-01 2.49527E-14-2.05420E-13
 -1      1065 1.86652E+01 9.22403E-01 3.04941E-04 3.14157E-01 4.26117E-14-3.97885E-13
 -1      1066 1.83000E+01 9.71968E-01 4.00134E-04 4.28542E-01-9.53542E-14-3.53817E-13
 -1      1067 1.78485E+01 9.71795E-01 3.94086E-04 5.90188E-01-8.02426E-14-3.49883E-13
 -1      1068 1.72824E+01 8.97795E-01-7.21292E-04 8.23468E-01 4.03182E-14-3.00722E-13
 -1      1069 1.65860E+01 7.23518E-01 3.97337E-03 1.15955E+00 2.07102E-14-1.22784E-13
 -1      1070 1.99201E+01 1.76577E-01-6.36918E-06-4.46618E-02-1.18709E-14-3.22767E-13
 -1      1071 1.98659E+01 2.44263E-01-1.18378E-05-5.61249E-02 6.21265E-15-2.15274E-13
 -1      1072 1.63279E+01 1.73219E-01 2.56636E-03 1.97160E+00 1.32524E-13 2.81618E-13
 -1      1073 1.99627E+01 1.18502E-01-3.51522E-06-3.62215E-02 6.71963E-14-2.57732E-13
 -1      1074 1.97050E+01 4.12145E-01-3.41715E-05-8.85488E-02-8.66419E-14-2.16615E-14
 -1      1075 1.95877E+01 5.12505E-01-5.34480E-05-1.09216E-01-1.21354E-13 9.75940E-15
 -1      1076 1.94371E+01 6.22008E-01-8.04209E-05-1.32134E-01-1.51353E-13 1.83742E-14
 -1      1077 1.92455E+01 7.37168E-01-1.17909E-04-1.56253E-01-1.38561E-13 6.70178E-14
 -1      1078 1.90030E+01 8.52212E-01-1.71060E-04-1.80118E-01-2.19398E-13 6.95659E-14
 -1      1079 1.86976E+01 9.58700E-01-2.50354E-04-2.02058E-01-1.86964E-13-1.86991E-13
 -1      1080 1.83125E+01 1.04540E+00-3.73799E-04-2.20634E-01-2.83893E-14-1.60733E-13
 -1      1081 1.78229E+01 1.09878E+00-5.31025E-04-2.35372E-01 1.06671E-13-4.38869E-14
 -1      1082 1.71877E+01 1.10642E+00-1.78838E-04-2.47021E-01-5.87030E-15 5.80021E-14
 -1      1083 1.63303E+01 1.05235E+00-2.07089E-03-2.81856E-01-8.79716E-15-2.55752E-14
 -1      1084 2.04242E+01 5.98677E-01 2.27990E-04 1.72737E-02 6.49210E-14-3.93326E-13
 -1      1085 2.03565E+01-6.16339E-03-5.89112E-05 2.41945E-02 3.36865E-14-2.20333E-13
 -1      1086 2.04235E+01 2.52549E-01 8.78449E-05 1.06421E-02-6.97976E-14-4.01390E-13
 -1      1087 2.03803E+01 1.51178E-01-3.67127E-04-4.80183E-02 5.51633E-14-3.02848E-13
 -1      1088 2.02538E+01-7.52255E-02 9.77515E-06-8.40719E-02 5.26938E-14-2.28759E-13
 -1      1089 2.00270E+01 2.60743E-02-3.16839E-06-2.73924E-02 1.27132E-13-1.73819E-13
 -1      1090 2.00544E+01-1.06167E-02-4.72915E-06-2.64078E-02 4.11001E-14-6.32932E-14
 -1      1091 1.99973E+01 6.87590E-02-2.62113E-06-3.05610E-02 1.77970E-13-2.90053E-13
 -1      1092 1.97958E+01 3.22610E-01-2.07534E-05-7.07598E-02 8.27371E-14-1.42722E-13
 -1      1093 2.03979E+01 9.12145E-02-2.78911E-04 1.81395E-02-6.21485E-14-3.01477E-13
 -1      1094 2.00817E+01-4.19910E-02-6.90989E-06-2.72835E-02-8.05255E-14-6.02413E-14
 -1      1095 2.04279E+01 5.77471E-01 3.22597E-04-8.27014E-03-1.97949E-14-4.35681E-13
 -1      1096 2.01108E+01-6.81585E-02-9.18354E-06-2.96599E-02-5.74188E-14-1.19725E-13
 -1      1097 2.03116E+01-5.74101E-02-1.53498E-04-4.44081E-02 7.62141E-14-2.31334E-13
 -1      1098 2.02116E+01-9.48879E-02-5.00369E-05-8.00189E-02-1.78284E-14-2.58973E-13
 -1      1099 2.01431E+01-8.84658E-02-4.11453E-06-3.31038E-02-5.71382E-14-1.37931E-13
 -1      1100 2.04322E+01 3.96583E-01-1.64385E-05-1.67468E-03-4.79028E-14-4.09267E-13
 -1      1101 2.01794E+01-1.01242E-01 2.35436E-05-3.70518E-02-9.30506E-14-1.53980E-13
 -1      1102 1.54889E+01 7.93823E-01-5.43819E-03 8.18149E-01 2.54202E-13-2.32050E-13
 -1      1103 2.03548E+01 9.92199E-03 1.28832E-05-4.23690E-02 2.42217E-14-2.35242E-13
 -1      1104 2.02659E+01-9.08802E-02 5.07838E-05-4.40601E-02 2.25102E-14-2.45246E-13
 -1      1105 2.02431E+01-1.03082E-01 7.48027E-05-1.53938E-02-8.05332E-14-1.99409E-13
 -1      1106 2.04349E+01 3.10937E-01 1.26495E-04-4.56796E-03 3.13579E-14-2.78724E-13
 -1      1107 2.03821E+01 3.60905E-02 4.94793E-04-1.37852E-02-4.86684E-15-2.10883E-13
 -1      1108 2.03955E+01 1.15650E-01 4.56132E-05-2.96760E-02 4.34714E-14-2.43363E-13
 -1      1109 2.79642E+01 9.08690E+00 2.32534E+00-6.69823E+00-7.26641E-14 2.32550E-12
 -1      1110 2.05486E+01 6.22755E+00 2.09810E-01-3.90373E+00-3.96072E-14 2.91184E-13
 -1      1111 1.94351E+01 5.85313E+00 7.53250E-02-2.88751E+00-2.70756E-14-5.84973E-13
 -1      1112 1.90263E+01 5.72603E+00 6.04065E-02-2.23470E+00-1.85338E-14-9.93645E-13
 -1      1113 1.88396E+01 5.66915E+00 5.75398E-02-1.70113E+00-1.23113E-14-1.18109E-12
 -1      1114 1.87457E+01 5.64036E+00 5.54981E-02-1.23379E+00-7.52089E-15-1.26250E-12
 -1      1115 1.86963E+01 5.62502E+00 5.37226E-02-8.04115E-01-3.94910E-15-1.28786E-12
 -1      1116 1.86722E+01 5.61740E+00 5.24966E-02-3.92745E-01 3.15503E-16-1.28486E-12
 -1      1117 1.86653E+01 5.61522E+00 5.21053E-02 8.46857E-03 2.90610E-15-1.26985E-12
 -1      1118 1.86732E+01 5.61776E+00 5.26198E-02 4.10095E-01 5.30045E-15-1.24474E-12
 -1      1119 1.86985E+01 5.62577E+00 5.40117E-02 8.22836E-01 8.01269E-15-1.19690E-12
 -1      1120 1.87495E+01 5.64171E+00 5.62256E-02 1.25518E+00 1.30417E-14-1.11758E-12
 -1      1121 1.88450E+01 5.67104E+00 5.84450E-02 1.72692E+00 1.72085E-14-9.80788E-13
 -1      1122 1.90318E+01 5.72767E+00 6.04085E-02 2.26796E+00 2.16112E-14-7.24526E-13
 -1      1123 1.94318E+01 5.85033E+00 6.92428E-02 2.92815E+00 3.03646E-14-2.35660E-13
 -1      1124 2.04546E+01 6.18240E+00 1.53336E-01 3.87830E+00 3.40006E-14 7.22158E-13
 -1      1125 2.52185E+01 7.99473E+00 1.43047E+00 5.84633E+00 7.43849E-14 2.68977E-12
 -1      1126 2.88138E+01 3.61633E+00 1.27116E+00-4.21706E+00-2.90601E-13 3.60911E-12
 -1      1127 2.02293E+01-1.77775E-01-6.16371E-01-1.09842E-01-9.54237E-14 2.92188E-12
 -1      1128 1.88357E+01-9.63575E-02-2.36342E-01 6.25434E-02-3.81188E-14 1.95663E-12
 -1      1129 1.85022E+01-4.80645E-02-5.95866E-02 4.05165E-02-2.41248E-14 1.26362E-12
 -1      1130 1.84474E+01-2.46267E-02-1.52059E-02 2.68062E-02-1.77111E-14 8.24247E-13
 -1      1131 1.85296E+01-1.30511E-02-4.97408E-03 1.90881E-02-1.71343E-14 5.06168E-13
 -1      1132 1.86770E+01-6.60379E-03-1.46524E-03 1.41457E-02-3.36677E-15 2.38181E-13
 -1      1133 1.88499E+01-2.82900E-03 5.75251E-04 1.07183E-02-9.37618E-16 8.57994E-14
 -1      1134 1.90259E+01-5.88430E-04 1.90132E-03 8.18455E-03-3.04550E-15-1.51088E-13
 -1      1135 1.91920E+01 7.14827E-04 2.65772E-03 6.23323E-03 5.38592E-15-3.35901E-13
 -1      1136 1.93414E+01 1.42150E-03 2.97785E-03 4.69923E-03-5.80292E-16-5.21986E-13
 -1      1137 1.94711E+01 1.74121E-03 2.99501E-03 3.48409E-03 2.52825E-14-5.04873E-13
 -1      1138 1.95804E+01 1.80935E-03 2.81659E-03 2.52102E-03-8.10132E-15-4.84074E-13
 -1      1139 1.96703E+01 1.71526E-03 2.51926E-03 1.76011E-03 3.00747E-15-5.10669E-13
 -1      1140 1.97427E+01 1.51742E-03 2.15357E-03 1.16193E-03-4.03753E-15-5.38544E-13
 -1      1141 1.98001E+01 1.25241E-03 1.74950E-03 6.94759E-04-1.73430E-14-6.48331E-13
 -1      1142 1.98453E+01 9.40599E-04 1.32109E-03 3.33401E-04-5.20146E-17-7.89418E-13
 -1      1143 1.98812E+01 5.90059E-04 8.69775E-04 5.88921E-05 1.25427E-14-8.64223E-13
 -1      1144 1.99110E+01 1.99540E-04 3.87071E-04-1.41383E-04 8.29573E-15-9.99809E-13
 -1      1145 1.99383E+01-2.39202E-04-1.43353E-04-2.73251E-04 1.83407E-14-1.04776E-12
 -1      1146 1.99668E+01-7.39302E-04-7.43792E-04-3.35029E-04 3.32125E-15-9.14658E-13
 -1      1147 2.00008E+01-1.31657E-03-1.44051E-03-3.16512E-04-2.05794E-14-8.59105E-13
 -1      1148 2.00453E+01-1.98673E-03-2.26113E-03-1.97674E-04-2.41840E-14-7.98712E-13
 -1      1149 2.01061E+01-2.76158E-03-3.23066E-03 5.28613E-05 4.92843E-15-9.11128E-13
 -1      1150 2.01902E+01-3.64321E-03-4.36507E-03 4.79354E-04-9.18552E-15-8.44515E-13
 -1      1151 2.03055E+01-4.61519E-03-5.66068E-03 1.13997E-03 6.16602E-15-5.91800E-13
 -1      1152 2.04611E+01-5.62917E-03-7.07674E-03 2.10621E-03 1.14753E-14-5.06962E-13
 -1      1153 2.06668E+01-6.58495E-03-8.50721E-03 3.45838E-03-1.91949E-14-6.74240E-13
 -1      1154 2.09325E+01-7.30202E-03-9.73681E-03 5.27305E-03 2.13709E-14-5.85200E-13
 -1      1155 2.12664E+01-7.48187E-03-1.03760E-02 7.59454E-03 3.41263E-14-4.42205E-13
 -1      1156 2.16722E+01-6.66447E-03-9.77473E-03 1.03783E-02 5.91730E-15-2.96201E-13
 -1      1157 2.21449E+01-4.19420E-03-6.93191E-03 1.33882E-02-2.35284E-14-4.74017E-13
 -1      1158 2.26640E+01 7.65842E-04-4.61450E-04 1.60308E-02-1.99495E-15-7.66982E-13
 -1      1159 2.31838E+01 9.09042E-03 1.12351E-02 1.71289E-02-1.44370E-14-9.36065E-13
 -1      1160 2.36231E+01 2.12813E-02 2.93207E-02 1.47104E-02 2.90239E-14-1.07944E-12
 -1      1161 2.38576E+01 3.66398E-02 5.30808E-02 6.04991E-03 4.96391E-14-1.13532E-12
 -1      1162 2.37246E+01 5.20472E-02 7.76750E-02-1.15468E-02 2.93593E-14-1.16521E-12
 -1      1163 2.30557E+01 6.08724E-02 9.23950E-02-3.87413E-02-2.57867E-14-7.59039E-13
 -1      1164 2.17494E+01 5.40647E-02 8.20347E-02-7.09563E-02-2.34535E-15-5.31977E-13
 -1      1165 1.98763E+01 2.42545E-02 3.52123E-02-9.62055E-02 3.29660E-14-4.29060E-13
 -1      1166 1.77586E+01-2.45970E-02-4.10260E-02-9.83541E-02-6.24507E-14-3.36314E-13
 -1      1167 1.59247E+01-7.29518E-02-1.15449E-01-6.80351E-02-6.99701E-14-8.18061E-13
 -1      1168 1.48922E+01-9.45985E-02-1.47861E-01-1.34940E-02 2.21715E-14-1.25558E-12
 -1      1169 1.48877E+01-7.73340E-02-1.20450E-01 4.08600E-02 2.63886E-14-9.49688E-13
 -1      1170 1.57213E+01-3.53200E-02-5.47804E-02 7.14205E-02-4.04832E-14-4.15376E-13
 -1      1171 1.69354E+01 4.44003E-03 7.32670E-03 7.23438E-02-2.97113E-15 1.83326E-14
 -1      1172 1.80976E+01 2.38471E-02 3.77952E-02 5.61010E-02 3.16307E-14 3.11487E-14
 -1      1173 1.90030E+01 2.42632E-02 4.11228E-02 4.06284E-02 3.68679E-14 4.14321E-13
 -1      1174 1.96572E+01 2.17385E-02 5.00437E-02 3.36608E-02-4.38772E-14-1.64070E-13
 -1      1175 1.99753E+01 1.47882E-02 4.20320E-02 5.94433E-03 9.07005E-14 5.33089E-14
 -1      1176 2.77935E+01 5.25750E-01 3.76947E-01 1.96666E+00-4.81559E-14 4.31055E-12
 -1      1177 2.00870E+01-6.62505E-02-5.73636E-01 1.29451E-01 2.79360E-14 3.43578E-12
 -1      1178 1.89103E+01-4.06174E-02-1.93235E-01 1.94063E-02 2.57502E-14 2.55069E-12
 -1      1179 1.85310E+01-2.14337E-02-5.05754E-02 1.45323E-03 1.80346E-14 1.94126E-12
 -1      1180 1.84601E+01-1.24219E-02-1.34318E-02-4.08661E-03 5.94230E-15 1.57281E-12
 -1      1181 1.85360E+01-7.41486E-03-4.68641E-03-5.54775E-03 1.01907E-14 1.24967E-12
 -1      1182 1.86802E+01-4.33559E-03-1.95411E-03-5.74213E-03 1.72779E-14 1.01224E-12
 -1      1183 1.88515E+01-2.35845E-03-3.62912E-04-5.46892E-03 4.15778E-15 8.78591E-13
 -1      1184 1.90265E+01-1.07776E-03 7.65111E-04-4.98065E-03-1.54285E-15 7.88718E-13
 -1      1185 1.91921E+01-2.61522E-04 1.48914E-03-4.39095E-03 5.13212E-15 6.80150E-13
 -1      1186 1.93412E+01 2.37497E-04 1.87287E-03-3.76677E-03 1.57603E-14 4.84996E-13
 -1      1187 1.94707E+01 5.17654E-04 2.00444E-03-3.15038E-03 2.33317E-14 2.72492E-13
 -1      1188 1.95799E+01 6.46330E-04 1.96365E-03-2.56704E-03 1.38875E-14 1.59317E-13
 -1      1189 1.96698E+01 6.69611E-04 1.81069E-03-2.02972E-03-7.13462E-15 1.18688E-13
 -1      1190 1.97422E+01 6.18059E-04 1.58651E-03-1.54244E-03 1.78167E-14 2.82066E-14
 -1      1191 1.97995E+01 5.10378E-04 1.31583E-03-1.10275E-03-1.38256E-15-1.09170E-13
 -1      1192 1.98446E+01 3.55853E-04 1.01010E-03-7.03778E-04 1.09808E-14-1.11256E-13
 -1      1193 1.98803E+01 1.55997E-04 6.69660E-04-3.35799E-04 1.56745E-14-1.57658E-13
 -1      1194 1.99099E+01-9.43518E-05 2.85367E-04 1.24278E-05 5.22454E-14-5.01319E-13
 -1      1195 1.99369E+01-4.06276E-04-1.60491E-04 3.52514E-04-2.08573E-16-6.04995E-13
 -1      1196 1.99649E+01-7.96272E-04-6.93631E-04 6.95311E-04-1.03219E-14-5.04054E-13
 -1      1197 1.99984E+01-1.28581E-03-1.34755E-03 1.04965E-03 2.06251E-14-3.03916E-13
 -1      1198 2.00425E+01-1.90074E-03-2.16342E-03 1.42067E-03-1.72524E-14-3.57380E-13
 -1      1199 2.01034E+01-2.67008E-03-3.18968E-03 1.80738E-03 1.25654E-14-4.39928E-13
 -1      1200 2.01885E+01-3.62350E-03-4.48064E-03 2.19883E-03 1.03771E-14-4.13196E-13
 -1      1201 2.03070E+01-4.78595E-03-6.09243E-03 2.56793E-03-1.10747E-14-3.16241E-13
 -1      1202 2.04700E+01-6.16698E-03-8.07332E-03 2.86152E-03-9.53561E-15-2.44898E-13
 -1      1203 2.06908E+01-7.74029E-03-1.04425E-02 2.98455E-03 6.21480E-14-7.61454E-13
 -1      1204 2.09845E+01-9.40618E-03-1.31466E-02 2.77581E-03-1.80031E-14-6.74459E-13
 -1      1205 2.13680E+01-1.09267E-02-1.59744E-02 1.97360E-03-6.53774E-17-6.35378E-13
 -1      1206 2.18575E+01-1.18217E-02-1.84032E-02 1.74107E-04 1.68344E-14-9.03021E-13
 -1      1207 2.24655E+01-1.12225E-02-1.93418E-02-3.19961E-03-4.09069E-16-7.52752E-13
 -1      1208 2.31931E+01-7.71614E-03-1.67704E-02-8.86422E-03 1.36534E-14-6.82468E-13
 -1      1209 2.40177E+01 6.85672E-04-7.39977E-03-1.74517E-02-1.30424E-14-3.22395E-13
 -1      1210 2.48721E+01 1.61153E-02 1.31803E-02-2.88638E-02 4.94093E-14-3.87735E-13
 -1      1211 2.56184E+01 3.93585E-02 4.87969E-02-4.09496E-02-3.51138E-14-3.21500E-13
 -1      1212 2.60231E+01 6.67858E-02 9.79620E-02-4.76710E-02-2.88866E-14-4.91854E-13
 -1      1213 2.57648E+01 8.67777E-02 1.46290E-01-3.83653E-02-1.73620E-14-4.32057E-13
 -1      1214 2.45219E+01 8.04986E-02 1.62063E-01-1.85699E-03 1.13911E-14-4.44061E-13
 -1      1215 2.21829E+01 3.40030E-02 1.08276E-01 6.13569E-02 1.90429E-14-4.02872E-13
 -1      1216 1.91156E+01-4.01893E-02-2.07423E-02 1.25342E-01 5.61161E-15-5.30853E-13
 -1      1217 1.62451E+01-9.57134E-02-1.65189E-01 1.45581E-01-3.91250E-14-1.84991E-13
 -1      1218 1.46397E+01-9.67629E-02-2.30454E-01 9.78486E-02 4.78333E-14-8.54143E-14
 -1      1219 1.47857E+01-4.76222E-02-1.72868E-01 7.65632E-03-8.87138E-15 6.58223E-14
 -1      1220 1.62407E+01 5.25915E-03-4.54401E-02-6.86942E-02-1.55863E-14-1.42580E-13
 -1      1221 1.79933E+01 2.87520E-02 5.61691E-02-9.09897E-02 1.38609E-13-1.01726E-12
 -1      1222 1.92215E+01 1.96882E-02 8.08332E-02-6.50761E-02-2.17231E-15-1.29961E-12
 -1      1223 1.97285E+01-2.05481E-03 4.62739E-02-2.60270E-02 8.36566E-14-1.38727E-12
 -1      1224 1.98426E+01-5.72325E-03 1.78044E-02-1.24551E-02 9.83190E-14-1.80514E-12
 -1      1225 1.99563E+01 1.93159E-02 5.46700E-02-1.42015E-02 1.55952E-15-1.26512E-12
 -1      1226 2.00113E+01-5.00916E-02 3.14561E-02-1.92856E-02-1.25103E-12-8.51882E-14
 -1      1227 1.99540E+01-1.66598E-01-7.10569E-02-3.53800E-02-1.19637E-12 1.15402E-13
 -1      1228 1.99032E+01 2.04448E-01-1.56863E-01 1.21859E-03-6.56072E-15 2.69017E-13
 -1      1229 1.98766E+01 1.61369E+00-2.02644E-01 7.24294E-02 5.26398E-13 1.26248E-13
 -1      1230 1.99057E+01 4.36827E+00-1.57150E-01 1.58670E-01 8.88012E-13 3.34567E-14
 -1      1231 2.00046E+01 8.15010E+00 6.25470E-03 2.14203E-01 6.05072E-14-8.02854E-14
 -1      1232 2.01532E+01 1.19074E+01 2.35837E-01 1.85819E-01-8.52346E-13-5.63993E-14
 -1      1233 2.02571E+01 1.41271E+01 3.96833E-01 5.87768E-02-3.33962E-13 6.54893E-14
 -1      1234 2.02400E+01 1.36838E+01 3.70420E-01-1.03199E-01 1.34642E-13-6.21447E-14
 -1      1235 2.01148E+01 1.07529E+01 1.76265E-01-2.08951E-01 6.37129E-13 1.90629E-14
 -1      1236 1.99711E+01 6.64409E+00-4.91323E-02-2.12752E-01 5.66547E-13-2.00128E-13
 -1      1237 1.98855E+01 2.90398E+00-1.86463E-01-1.42467E-01 1.30285E-13 6.86656E-14
 -1      1238 1.98698E+01 3.97486E-01-2.10550E-01-5.82253E-02-2.89643E-13-1.06399E-13
 -1      1239 1.98988E+01-7.38010E-01-1.59994E-01 1.09754E-02 1.58075E-13 8.18720E-14
 -1      1240 1.99586E+01-8.12049E-01-7.46918E-02 4.76317E-02 4.08611E-13-5.93926E-14
 -1      1241 1.99831E+01-3.63341E-01 4.88241E-03 5.94176E-02 5.96051E-15-1.65520E-13
 -1      1242 2.00009E+01-3.72441E-02 2.69892E-02 1.84797E-02-6.72379E-14 5.77997E-14
 -1      1243-1.29474E+00-2.96191E+01-4.64945E+00-2.64758E+00-5.13534E-13-9.11354E-14
 -1      1244-2.06758E+00-1.82760E+01-3.63388E+00-4.81559E+00-1.52767E-13-8.91509E-14
 -1      1245 1.27815E+00-1.73519E+00-1.86115E+00 9.09504E-01 4.07230E-13 3.07088E-13
 -1      1246 1.27386E+01 1.00805E+01 1.67070E-01 1.12297E+01 3.97460E-13 3.34843E-13
 -1      1247 3.22284E+01 1.28699E+01 2.16568E+00 1.93971E+01 3.94351E-13 6.53699E-13
 -1      1248 5.47411E+01 8.65275E+00 3.77235E+00 1.95000E+01 3.68261E-13 7.50511E-13
 -1      1249 7.03424E+01 3.18264E+00 4.61590E+00 9.89449E+00 1.40443E-14-2.59848E-13
 -1      1250 7.18534E+01 1.92055E+00 4.61225E+00-4.41933E+00 2.37386E-13-1.58007E-12
 -1      1251 5.77973E+01 5.86262E+00 3.61985E+00-1.54178E+01 8.00027E-13-2.48956E-12
 -1      1252 3.62096E+01 1.01877E+01 2.14326E+00-1.80333E+01 1.35036E-12-2.42961E-12
 -1      1253 1.57175E+01 9.45502E+00 2.66987E-01-1.19508E+01 1.43885E-12-1.72329E-12
 -1      1254 2.56048E+00 8.94962E-01-1.52017E+00-2.36713E+00 1.32228E-12-1.08602E-12
 -1      1255-2.09132E+00-1.20083E+01-2.82569E+00 4.01756E+00 5.51115E-13-4.91163E-13
 -1      1256-1.70850E+00-2.37219E+01-3.70146E+00 4.56490E+00 3.58824E-13 6.88338E-15
 -1      1257-9.70218E-01-2.81239E+01-3.95509E+00 3.29646E-02-1.53461E-13-1.59962E-13
 -1      1258-1.68895E+00-2.26084E+01-3.59886E+00-4.25722E+00-1.01896E-12-2.84273E-13
 -1      1259-1.57983E+00-9.83900E+00-2.58633E+00-3.23081E+00-1.88649E-12-8.81850E-13
 -1      1260 3.90311E+00 3.14411E+00-1.13781E+00 3.83759E+00-1.21014E-12-7.39631E-13
 -1      1261 1.75606E+01 1.04947E+01 5.80922E-01 1.31356E+01-1.17728E-12-1.48881E-12
 -1      1262 3.79773E+01 1.03407E+01 2.25826E+00 1.85890E+01-1.16007E-12-2.03149E-12
 -1      1263 5.89296E+01 5.48471E+00 3.62533E+00 1.54805E+01-5.00655E-13-1.45572E-12
 -1      1264 7.12394E+01 1.79080E+00 4.41652E+00 3.81286E+00-5.79814E-14-1.05382E-12
 -1      1265 6.89589E+01 3.30564E+00 4.42047E+00-1.03561E+01 8.73954E-14-2.77667E-13
 -1      1266 5.33721E+01 8.72425E+00 3.61242E+00-1.94082E+01 1.27121E-14 5.86198E-14
 -1      1267 3.10233E+01 1.26328E+01 2.00481E+00-1.90101E+01-5.87752E-13 9.15046E-13
 -1      1268 1.16014E+01 9.33846E+00 8.62435E-02-1.01700E+01-1.72085E-12 1.30074E-12
 -1      1269 8.32917E-01-2.08579E+00-1.82356E+00-2.31328E-01-2.66498E-12 1.58429E-12
 -1      1270-2.05977E+00-1.75245E+01-3.56156E+00 4.76568E+00-1.35403E-12 8.37330E-13
 -1      1271-1.43501E+00-2.88399E+01-4.54188E+00 2.75434E+00-1.17129E-13-5.92582E-14
 -1      1272 2.22680E+01 1.83826E+00-7.25890E-01-2.79051E+00-1.09329E-13 1.87877E-12
 -1      1273 2.03605E+01 4.69031E+00-4.86387E-02-3.30675E+00-3.00732E-13-1.19668E-13
 -1      1274 2.08680E+01 4.81081E+00-1.13354E-01-4.16103E+00-3.92020E-13 3.42455E-13
 -1      1275 1.95321E+01 4.99328E+00-1.96957E-02-2.65407E+00-3.03202E-13-7.70217E-13
 -1      1276 1.98306E+01 5.09025E+00 2.62277E-04-3.04520E+00-3.40818E-13-4.94896E-13
 -1      1277 2.05271E+01 3.95277E+00-2.58946E-02-3.07474E+00-5.27148E-13-1.17309E-13
 -1      1278 1.91842E+01 5.08444E+00-3.55330E-03-2.07040E+00-2.44894E-13-1.07589E-12
 -1      1279 1.93330E+01 5.13969E+00 1.05601E-02-2.36321E+00-2.82135E-13-9.39339E-13
 -1      1280 1.97537E+01 4.36591E+00-2.45167E-02-2.48895E+00-4.80838E-13-6.45768E-13
 -1      1281 1.90091E+01 5.13080E+00 3.27170E-03-1.56426E+00-1.78659E-13-1.22472E-12
 -1      1282 1.90869E+01 5.16042E+00 1.25481E-02-1.81429E+00-2.05894E-13-1.16070E-12
 -1      1283 1.93917E+01 4.55490E+00-2.00462E-02-1.93164E+00-3.68748E-13-9.13485E-13
 -1      1284 1.89150E+01 5.16067E+00 6.50875E-03-1.11673E+00-1.15724E-13-1.28292E-12
 -1      1285 1.89576E+01 5.17703E+00 1.26738E-02-1.33812E+00-1.38863E-13-1.25357E-12
 -1      1286 1.92055E+01 4.66157E+00-1.61251E-02-1.44417E+00-2.64917E-13-1.03090E-12
 -1      1287 1.88634E+01 5.18036E+00 8.17562E-03-6.93657E-01-5.93609E-14-1.29543E-12
 -1      1288 1.88864E+01 5.18922E+00 1.19555E-02-9.03814E-01-7.57996E-14-1.29319E-12
 -1      1289 1.91021E+01 4.72690E+00-1.40398E-02-1.00406E+00-1.61304E-13-1.08246E-12
 -1      1290 1.88393E+01 5.19224E+00 9.27787E-03-2.89097E-01 2.97695E-16-1.29399E-12
 -1      1291 1.88492E+01 5.19608E+00 1.10529E-02-4.91146E-01-1.75771E-14-1.29316E-12
 -1      1292 1.90463E+01 4.76573E+00-1.29358E-02-5.88668E-01-6.87314E-14-1.08680E-12
 -1      1293 1.88356E+01 5.19718E+00 1.02120E-02 1.08173E-01 4.82483E-14-1.27583E-12
 -1      1294 1.88353E+01 5.19705E+00 1.01396E-02-9.14283E-02 2.98320E-14-1.28947E-12
 -1      1295 1.90221E+01 4.78372E+00-1.24798E-02-1.89062E-01 2.42920E-14-1.08882E-12
 -1      1296 1.88510E+01 5.19572E+00 1.11518E-02 5.08479E-01 9.42783E-14-1.24125E-12
 -1      1297 1.88403E+01 5.19160E+00 9.21599E-03 3.06007E-01 7.97111E-14-1.26352E-12
 -1      1298 1.90229E+01 4.78309E+00-1.24957E-02 2.05713E-01 1.00903E-13-1.06718E-12
 -1      1299 1.88897E+01 5.18808E+00 1.20878E-02 9.22633E-01 1.46423E-13-1.19130E-12
 -1      1300 1.88659E+01 5.17902E+00 8.12426E-03 7.11511E-01 1.30554E-13-1.22245E-12
 -1      1301 1.90490E+01 4.76367E+00-1.29813E-02 6.05997E-01 1.83509E-13-1.03346E-12
 -1      1302 1.89619E+01 5.17513E+00 1.28971E-02 1.35577E+00 2.04421E-13-1.10163E-12
 -1      1303 1.89185E+01 5.15836E+00 6.43885E-03 1.13291E+00 1.83857E-13-1.15679E-12
 -1      1304 1.91066E+01 4.72326E+00-1.40028E-02 1.01922E+00 2.73143E-13-9.71733E-13
 -1      1305 1.90949E+01 5.15673E+00 1.28290E-02 1.84038E+00 2.75818E-13-9.42593E-13
 -1      1306 1.90152E+01 5.12634E+00 3.13455E-03 1.58759E+00 2.45146E-13-1.03798E-12
 -1      1307 1.92123E+01 4.65491E+00-1.61475E-02 1.46226E+00 3.69641E-13-8.65249E-13
 -1      1308 1.93439E+01 5.13354E+00 1.01785E-02 2.39748E+00 3.36686E-13-6.63362E-13
 -1      1309 1.91936E+01 5.07637E+00-4.38384E-03 2.10019E+00 3.06546E-13-8.37160E-13
 -1      1310 1.94053E+01 4.54249E+00-1.99845E-02 1.95792E+00 4.75894E-13-6.89511E-13
 -1      1311 1.98559E+01 5.09952E+00 6.06565E-03 3.08363E+00 3.83901E-13-1.22714E-13
 -1      1312 1.95437E+01 4.98448E+00-2.05450E-02 2.69622E+00 3.42129E-13-4.46147E-13
 -1      1313 1.97750E+01 4.34648E+00-2.45584E-02 2.52778E+00 5.46325E-13-3.59948E-13
 -1      1314 2.11040E+01 4.90707E+00 8.32923E-03 4.05379E+00 3.33455E-13 8.98129E-13
 -1      1315 2.03349E+01 4.73392E+00-4.79635E-02 3.41607E+00 3.24324E-13 2.75550E-13
 -1      1316 2.05652E+01 3.91598E+00-2.24047E-02 3.17817E+00 5.77982E-13 2.44471E-13
 -1      1317 2.72036E+01 3.20542E+00 9.29020E-01 4.58223E+00 1.66145E-13 2.82835E-12
 -1      1318 2.20208E+01 3.52224E+00-1.81995E-01 3.88489E+00 1.68282E-13 1.48834E-12
 -1      1319 2.21132E+01 2.56180E+00-3.25392E-02 3.45642E+00 5.39902E-13 1.16979E-12
 -1      1320 2.14278E+01 3.59569E-01-7.63534E-01 1.18376E+00 2.93439E-13 2.71216E-12
 -1      1321 2.20022E+01 1.31408E-01-4.00895E-01-1.28555E+00-3.24601E-13 1.98810E-12
 -1      1322 2.06797E+01 3.06699E-01-1.64839E-01-8.05609E-01-3.01613E-13 1.61055E-12
 -1      1323 2.00822E+01 1.53473E-01-7.35234E-02-4.02012E-01-2.40728E-13 1.44955E-12
 -1      1324 1.96125E+01 9.11684E-02-1.49263E-02-3.29865E-01-2.32876E-13 1.09783E-12
 -1      1325 2.09735E+01 3.69030E-01-1.04292E-01-1.27362E+00-5.24511E-13 7.98597E-13
 -1      1326 1.92551E+01 6.45032E-02 3.03953E-03-1.35267E-01-1.99235E-13 9.66768E-13
 -1      1327 1.91009E+01 4.12736E-02 1.32219E-02-1.17466E-01-1.74310E-13 7.00526E-13
 -1      1328 1.99229E+01 1.33897E-01-3.51427E-02-5.03797E-01-4.16812E-13 5.67251E-13
 -1      1329 1.89406E+01 3.15448E-02 1.32410E-02-2.79238E-02-1.20584E-13 5.78305E-13
 -1      1330 1.89213E+01 1.93982E-02 1.10574E-02-1.85334E-02-1.27985E-13 4.01488E-13
 -1      1331 1.94458E+01 5.54668E-02-8.51767E-03-1.69843E-01-2.94906E-13 3.21137E-13
 -1      1332 1.88653E+01 1.60151E-02 8.77763E-03 2.51252E-02-9.76370E-14 3.47155E-13
 -1      1333 1.89079E+01 9.07090E-03 6.43881E-03 2.97541E-02-7.69359E-14 2.17746E-13
 -1      1334 1.92371E+01 2.44305E-02-3.49617E-03-1.09565E-02-2.04161E-13 1.45310E-13
 -1      1335 1.89079E+01 7.85027E-03 4.67277E-03 5.09046E-02-8.31700E-14 1.52421E-13
 -1      1336 1.89784E+01 3.49378E-03 3.64181E-03 5.27911E-02-5.57428E-14 5.97994E-14
 -1      1337 1.91804E+01 1.01901E-02-2.21068E-03 6.77171E-02-1.66394E-13 3.19337E-14
 -1      1338 1.90079E+01 3.17971E-03 2.44112E-03 6.15670E-02-3.55915E-14-4.98906E-15
 -1      1339 1.90885E+01 3.18317E-04 2.20944E-03 6.18302E-02-5.92659E-14-7.49930E-14
 -1      1340 1.92066E+01 2.76446E-03-1.31868E-03 1.04507E-01-1.21369E-13-7.83774E-14
 -1      1341 1.91320E+01 4.30120E-04 1.33037E-03 6.34849E-02-5.36734E-14-1.14394E-13
 -1      1342 1.92129E+01-1.48285E-03 1.43754E-03 6.27946E-02-6.05267E-14-2.04073E-13
 -1      1343 1.92756E+01-1.32237E-03-5.53795E-04 1.17718E-01-1.18011E-13-1.39412E-13
 -1      1344 1.92614E+01-1.16184E-03 7.45674E-04 6.03645E-02-7.79770E-14-2.22586E-13
 -1      1345 1.93369E+01-2.43406E-03 9.69022E-04 5.91518E-02-7.64594E-14-3.10089E-13
 -1      1346 1.93638E+01-3.53596E-03 7.27319E-06 1.17296E-01-1.23916E-13-1.96698E-13
 -1      1347 1.93849E+01-2.01796E-03 4.09593E-04 5.45184E-02-7.60987E-14-3.43961E-13
 -1      1348 1.94523E+01-2.84170E-03 6.57812E-04 5.30669E-02-3.12315E-14-4.20983E-13
 -1      1349 1.94568E+01-4.60779E-03 3.61890E-04 1.09178E-01-1.19535E-13-2.51276E-13
 -1      1350 1.94968E+01-2.39645E-03 2.06089E-04 4.74349E-02 3.31465E-14-5.00322E-13
 -1      1351 1.95549E+01-2.90120E-03 4.42944E-04 4.59300E-02 6.73466E-15-4.81551E-13
 -1      1352 1.95463E+01-4.95891E-03 5.54060E-04 9.71052E-02-5.10535E-14-3.49896E-13
 -1      1353 1.95944E+01-2.46503E-03 8.28514E-05 4.00749E-02-6.80681E-15-4.48125E-13
 -1      1354 1.96431E+01-2.74157E-03 2.94315E-04 3.86351E-02-1.17884E-14-4.75616E-13
 -1      1355 1.96278E+01-4.85572E-03 6.31683E-04 8.34859E-02 6.41197E-16-4.81478E-13
 -1      1356 1.96770E+01-2.33511E-03 1.21631E-05 3.30507E-02-1.55845E-14-4.81434E-13
 -1      1357 1.97169E+01-2.44803E-03 1.93983E-04 3.17491E-02-1.66973E-14-4.66694E-13
 -1      1358 1.96991E+01-4.47294E-03 6.32503E-04 6.98673E-02-3.25393E-14-5.02285E-13
 -1      1359 1.97454E+01-2.08019E-03-2.28547E-05 2.67438E-02-2.62862E-14-4.27114E-13
 -1      1360 1.97774E+01-2.07508E-03 1.30005E-04 2.56238E-02-3.86463E-14-4.90287E-13
 -1      1361 1.97598E+01-3.92451E-03 5.83144E-04 5.72306E-02-3.99206E-14-4.39246E-13
 -1      1362 1.98010E+01-1.74651E-03-3.32962E-05 2.13884E-02-7.43138E-14-4.76656E-13
 -1      1363 1.98265E+01-1.65462E-03 9.40626E-05 2.04756E-02-5.82242E-14-5.58159E-13
 -1      1364 1.98105E+01-3.28125E-03 5.01226E-04 4.61882E-02-7.48711E-14-3.84074E-13
 -1      1365 1.98459E+01-1.35996E-03-2.67336E-05 1.71326E-02-3.80451E-14-5.89891E-13
 -1      1366 1.98662E+01-1.20154E-03 8.02835E-05 1.64438E-02-4.32241E-14-6.44135E-13
 -1      1367 1.98525E+01-2.58184E-03 3.97477E-04 3.71259E-02-9.56282E-14-4.03063E-13
 -1      1368 1.98826E+01-9.30785E-04-8.48464E-06 1.40850E-02-1.69497E-14-6.44534E-13
 -1      1369 1.98993E+01-7.17602E-04 8.45100E-05 1.36352E-02-1.97538E-14-6.63792E-13
 -1      1370 1.98876E+01-1.84031E-03 2.77369E-04 3.03084E-02-3.93079E-14-4.62195E-13
 -1      1371 1.99138E+01-4.56983E-04 1.75475E-05 1.23509E-02-4.39390E-16-7.47581E-13
 -1      1372 1.99284E+01-1.94602E-04 1.03776E-04 1.21588E-02-1.70748E-14-7.89279E-13
 -1      1373 1.99179E+01-1.05139E-03 1.42340E-04 2.59595E-02-5.32613E-14-5.39530E-13
 -1      1374 1.99424E+01 7.29528E-05 4.82334E-05 1.20598E-02-3.93633E-15-8.15208E-13
 -1      1375 1.99567E+01 3.83164E-04 1.35853E-04 1.21521E-02-1.88339E-14-7.81642E-13
 -1      1376 1.99459E+01-1.94725E-04-9.24233E-06 2.43243E-02-5.24686E-14-5.91472E-13
 -1      1377 1.99717E+01 6.77763E-04 8.06592E-05 1.33863E-02 3.18826E-14-7.96182E-13
 -1      1378 1.99878E+01 1.03651E-03 1.78792E-04 1.38011E-02 1.61073E-14-7.57352E-13
 -1      1379 1.99744E+01 7.61657E-04-1.81283E-04 2.57161E-02 3.38723E-14-6.21545E-13
 -1      1380 2.00055E+01 1.38110E-03 1.11577E-04 1.65647E-02-7.07865E-15-6.79537E-13
 -1      1381 2.00256E+01 1.78875E-03 2.30390E-04 1.73535E-02-1.01088E-14-6.64197E-13
 -1      1382 2.00066E+01 1.85791E-03-3.79206E-04 3.05497E-02 3.12336E-14-5.90645E-13
 -1      1383 2.00481E+01 2.20871E-03 1.36814E-04 2.18956E-02-1.55362E-14-6.85925E-13
 -1      1384 2.00749E+01 2.66221E-03 2.87510E-04 2.31239E-02 4.71723E-15-6.60706E-13
 -1      1385 2.00461E+01 3.13831E-03-6.09118E-04 3.93604E-02-2.23605E-14-4.99924E-13
 -1      1386 2.01045E+01 3.18441E-03 1.50613E-04 2.97428E-02 2.46055E-14-6.85185E-13
 -1      1387 2.01412E+01 3.67312E-03 3.45207E-04 3.14888E-02 5.54192E-14-6.60328E-13
 -1      1388 2.00972E+01 4.64541E-03-8.76746E-04 5.28059E-02 2.47257E-14-4.62905E-13
 -1      1389 2.01804E+01 4.32388E-03 1.44897E-04 4.05148E-02 3.54525E-14-6.42350E-13
 -1      1390 2.02306E+01 4.82371E-03 3.95606E-04 4.28643E-02 3.88916E-14-6.14717E-13
 -1      1391 2.01648E+01 6.41094E-03-1.18593E-03 7.16406E-02 7.13055E-14-4.83974E-13
 -1      1392 2.02825E+01 5.62474E-03 1.08556E-04 5.46224E-02 2.92990E-14-5.62184E-13
 -1      1393 2.03503E+01 6.08971E-03 4.26567E-04 5.76588E-02 4.21264E-14-4.92497E-13
 -1      1394 2.02542E+01 8.44096E-03-1.53639E-03 9.66514E-02 6.02888E-14-4.15158E-13
 -1      1395 2.04182E+01 7.05072E-03 2.69971E-05 7.23992E-02 1.51441E-14-5.07986E-13
 -1      1396 2.05082E+01 7.40098E-03 4.20377E-04 7.61841E-02-1.89614E-14-4.46846E-13
 -1      1397 2.03717E+01 1.06917E-02-1.92029E-03 1.28530E-01 3.27917E-14-4.04877E-13
 -1      1398 2.05954E+01 8.50677E-03-1.17404E-04 9.39624E-02-1.42657E-14-4.69451E-13
 -1      1399 2.07122E+01 8.61203E-03 3.53147E-04 9.85032E-02-2.18870E-14-5.43315E-13
 -1      1400 2.05237E+01 1.30310E-02-2.31703E-03 1.67650E-01-3.58567E-14-3.85560E-13
 -1      1401 2.08217E+01 9.80125E-03-3.42640E-04 1.18986E-01 2.76755E-14-4.78474E-13
 -1      1402 2.09695E+01 9.45907E-03 1.96522E-04 1.24181E-01 7.10057E-14-3.85496E-13
 -1      1403 2.07163E+01 1.51783E-02-2.68531E-03 2.13694E-01 6.46759E-14-3.86176E-13
 -1      1404 2.11033E+01 1.05912E-02-6.59715E-04 1.46344E-01-9.57752E-15-3.53215E-13
 -1      1405 2.12848E+01 9.50203E-03-7.52709E-05 1.51896E-01 1.94552E-14-3.68698E-13
 -1      1406 2.09547E+01 1.66159E-02-2.95135E-03 2.65067E-01 2.11972E-14-3.58673E-13
 -1      1407 2.14432E+01 1.03104E-02-1.05666E-03 1.73584E-01-2.95144E-14-3.38301E-13
 -1      1408 2.16574E+01 8.05730E-03-4.68274E-04 1.78874E-01-6.41883E-14-3.78653E-13
 -1      1409 2.12414E+01 1.64697E-02-2.99213E-03 3.18021E-01 9.08713E-15-3.91322E-13
 -1      1410 2.18371E+01 8.09120E-03-1.46927E-03 1.96207E-01-7.58161E-15-3.41085E-13
 -1      1411 2.20773E+01 4.14605E-03-9.36470E-04 2.00116E-01-5.59893E-14-3.99421E-13
 -1      1412 2.15736E+01 1.33734E-02-2.61418E-03 3.65427E-01-6.94907E-14-2.87148E-13
 -1      1413 2.22695E+01 2.72233E-03-1.73730E-03 2.06819E-01-1.01429E-13-4.13640E-13
 -1      1414 2.25189E+01-3.47449E-03-1.33451E-03 2.07528E-01-1.01595E-13-6.07155E-13
 -1      1415 2.19403E+01 5.38001E-03-1.53297E-03 3.95270E-01-1.15200E-13-2.76799E-13
 -1      1416 2.27071E+01-7.25461E-03-1.55900E-03 1.94433E-01-7.52478E-14-5.84793E-13
 -1      1417 2.29345E+01-1.60552E-02-1.37607E-03 1.89278E-01-2.45806E-14-6.94099E-13
 -1      1418 2.23177E+01-9.91718E-03 6.28517E-04 3.89225E-01-1.17923E-13-3.38508E-13
 -1      1419 2.30916E+01-2.31084E-02-4.93622E-04 1.44641E-01-2.13284E-15-7.09668E-13
 -1      1420 2.32475E+01-3.41440E-02-6.52733E-04 1.30236E-01 5.53620E-14-7.00480E-13
 -1      1421 2.26642E+01-3.47288E-02 4.27809E-03 3.22332E-01-3.13373E-14-3.67287E-13
 -1      1422 2.33350E+01-4.48436E-02 1.89814E-03 4.20303E-02-9.92609E-15-7.92543E-13
 -1      1423 2.33516E+01-5.61819E-02 1.18588E-03 1.50792E-02-3.78864E-15-8.46494E-13
 -1      1424 2.29167E+01-6.94004E-02 9.65020E-03 1.65867E-01 1.44763E-15-3.95078E-13
 -1      1425 2.33219E+01-6.92996E-02 5.65279E-03-1.23194E-01 1.19462E-13-8.71473E-13
 -1      1426 2.31226E+01-7.65587E-02 3.98114E-03-1.63867E-01 7.31542E-14-7.09776E-13
 -1      1427 2.29915E+01-1.09405E-01 1.63708E-02-1.03356E-01 3.19154E-14-5.30020E-13
 -1      1428 2.29289E+01-8.81138E-02 9.75342E-03-3.43266E-01 7.43771E-14-8.09857E-13
 -1      1429 2.24530E+01-8.44570E-02 6.60992E-03-3.93427E-01 9.19386E-14-6.43978E-13
 -1      1430 2.27943E+01-1.41913E-01 2.27670E-02-4.84373E-01 1.58751E-13-5.96620E-13
 -1      1431 2.20688E+01-8.74592E-02 1.19607E-02-5.78720E-01 6.77496E-15-3.81563E-13
 -1      1432 2.13124E+01-6.60783E-02 6.69004E-03-6.25417E-01 1.51658E-14-4.54137E-13
 -1      1433 2.22486E+01-1.45466E-01 2.54025E-02-9.26653E-01 1.11564E-13-5.25573E-13
 -1      1434 2.07580E+01-5.37331E-02 9.01790E-03-7.52870E-01-3.45470E-15-3.75318E-13
 -1      1435 1.98152E+01-1.38032E-02 1.86328E-03-7.75346E-01-7.50372E-14-4.20407E-13
 -1      1436 2.13410E+01-9.69605E-02 1.98993E-02-1.31226E+00 4.23619E-14-2.95253E-13
 -1      1437 1.91815E+01 1.34340E-02 1.22664E-04-7.73995E-01-4.80839E-14-4.27804E-13
 -1      1438 1.82505E+01 6.07176E-02-7.36089E-03-7.53525E-01-7.39608E-14-5.52794E-13
 -1      1439 2.01747E+01 6.56945E-03 3.20679E-03-1.47505E+00-4.79022E-14-3.78333E-13
 -1      1440 1.76882E+01 8.99990E-02-1.09465E-02-5.91087E-01-2.01093E-13-6.48315E-13
 -1      1441 1.70107E+01 1.23805E-01-1.61371E-02-5.26868E-01-1.58930E-13-8.56353E-13
 -1      1442 1.89893E+01 1.33300E-01-1.99254E-02-1.28239E+00-2.50752E-13-5.85657E-13
 -1      1443 1.66712E+01 1.36275E-01-1.71792E-02-2.48232E-01-3.21826E-14-7.46170E-13
 -1      1444 1.64190E+01 1.39271E-01-1.79300E-02-1.64657E-01 8.48453E-14-8.47806E-13
 -1      1445 1.80926E+01 2.22783E-01-3.75245E-02-7.44324E-01-1.23401E-13-5.14514E-13
 -1      1446 1.63711E+01 1.25927E-01-1.42850E-02 1.19964E-01 1.31655E-13-8.10673E-13
 -1      1447 1.65538E+01 9.88416E-02-1.07304E-02 1.86557E-01 1.36403E-13-5.89535E-13
 -1      1448 1.77127E+01 2.27258E-01-3.78750E-02-5.32635E-02 1.58517E-13-4.34374E-13
 -1      1449 1.67443E+01 7.03229E-02-5.31713E-03 3.70263E-01 1.65260E-13-5.53359E-13
 -1      1450 1.72142E+01 3.15520E-02 2.85187E-04 3.97306E-01 1.71087E-13-3.44856E-13
 -1      1451 1.78640E+01 1.49261E-01-2.17628E-02 5.16492E-01 3.47377E-13-4.00981E-13
 -1      1452 1.75123E+01 8.04518E-03 2.61728E-03 4.43696E-01 1.50268E-13-1.23734E-13
 -1      1453 1.80650E+01-2.20180E-02 7.79772E-03 4.35165E-01 1.52378E-13 5.55389E-14
 -1      1454 1.83526E+01 4.12720E-02-1.62966E-03 7.86770E-01 2.77180E-13-2.64315E-13
 -1      1455 1.83481E+01-2.83140E-02 4.78535E-03 3.84466E-01 8.55245E-14-2.26208E-15
 -1      1456 1.88342E+01-4.12059E-02 9.04599E-03 3.61126E-01 6.22865E-14 4.31877E-14
 -1      1457 1.89175E+01-3.70125E-02 1.05388E-02 7.68359E-01 1.64970E-13-9.76441E-14
 -1      1458 1.90416E+01-3.27900E-02 2.83353E-03 2.82418E-01 4.53773E-14 8.65419E-14
 -1      1459 1.94099E+01-3.55778E-02 8.05573E-03 2.63275E-01 1.04326E-14 1.02855E-13
 -1      1460 1.93774E+01-6.14050E-02 1.22726E-02 6.01778E-01 6.86105E-14-2.42723E-13
 -1      1461 1.95433E+01-2.82352E-02 4.23564E-03 1.92653E-01-4.26013E-14 7.79654E-14
 -1      1462 1.98008E+01-3.72978E-02 1.39154E-02 1.79055E-01-4.35364E-14 7.22998E-14
 -1      1463 1.96868E+01-5.51714E-02 1.29322E-02 4.21167E-01 1.32871E-14-1.81201E-14
 -1      1464 1.99345E+01-5.45112E-02 2.64747E-02 5.09059E-02-1.32231E-13 1.11038E-13
 -1      1465 1.99214E+01-1.20246E-01 1.45591E-02 2.04223E-01-8.46007E-14 2.45015E-14
 -1      1466 2.02607E+01 7.54735E-02-1.52088E-01 4.83785E-01 2.67432E-13 2.12404E-12
 -1      1467 2.15309E+01 2.16135E-01-2.29285E-01 7.20772E-01 2.29539E-13 2.53687E-12
 -1      1468 2.17295E+01 8.81744E-01-8.54757E-02 2.06470E+00 4.54733E-13 1.63355E-12
 -1      1469 1.93326E+01 3.23816E-02-2.13299E-02 1.85950E-01 1.99524E-13 1.58798E-12
 -1      1470 1.97532E+01 1.13621E-01-6.26969E-02 2.37961E-01 1.95986E-13 1.91540E-12
 -1      1471 2.03044E+01 1.87670E-01-5.51929E-02 7.86054E-01 4.02928E-13 1.25793E-12
 -1      1472 1.89510E+01 1.51076E-02 5.66639E-03 5.34431E-02 1.23394E-13 1.22998E-12
 -1      1473 1.90895E+01 5.16311E-02 9.79178E-04 7.97609E-02 1.29688E-13 1.44347E-12
 -1      1474 1.95594E+01 7.18383E-02-1.21585E-02 2.98865E-01 2.98581E-13 9.51609E-13
 -1      1475 1.88407E+01 7.12245E-03 6.97427E-03-9.06250E-03 9.39878E-14 9.72928E-13
 -1      1476 1.88552E+01 2.58660E-02 1.10883E-02 5.34329E-03 9.49024E-14 1.13376E-12
 -1      1477 1.92242E+01 3.10388E-02-2.46771E-03 8.33586E-02 2.00562E-13 7.12394E-13
 -1      1478 1.88669E+01 3.20746E-03 4.78134E-03-3.93142E-02 8.95434E-14 7.72670E-13
 -1      1479 1.88230E+01 1.38111E-02 8.51886E-03-3.11914E-02 7.76432E-14 9.04341E-13
 -1      1480 1.91077E+01 1.32635E-02-1.62301E-03-2.16286E-02 1.65702E-13 5.45721E-13
 -1      1481 1.89612E+01 1.04925E-03 3.29306E-03-5.27303E-02 5.81178E-14 6.12770E-13
 -1      1482 1.88906E+01 7.27905E-03 5.36572E-03-4.82560E-02 5.74218E-14 7.01605E-13
 -1      1483 1.91090E+01 4.53158E-03-1.63826E-03-7.30989E-02 1.18715E-13 4.15897E-13
 -1      1484 1.90855E+01-2.00825E-04 2.51122E-03-5.66571E-02 1.90795E-14 5.21485E-13
 -1      1485 1.90053E+01 3.44242E-03 3.42904E-03-5.44423E-02 3.22227E-14 5.75477E-13
 -1      1486 1.91718E+01-1.24170E-04-1.38192E-03-9.56987E-02 7.50309E-14 3.10923E-13
 -1      1487 1.92181E+01-9.10142E-04 2.04759E-03-5.51221E-02 2.77975E-14 4.47440E-13
 -1      1488 1.91380E+01 1.10689E-03 2.32694E-03-5.43297E-02 3.05333E-14 4.74364E-13
 -1      1489 1.92637E+01-2.64653E-03-1.00503E-03-1.01828E-01 5.71262E-14 2.29407E-13
 -1      1490 1.93466E+01-1.27426E-03 1.70423E-03-5.05570E-02 6.49141E-14 3.36896E-13
 -1      1491 1.92718E+01-3.04259E-04 1.64913E-03-5.06455E-02 3.68331E-14 3.95249E-13
 -1      1492 1.93656E+01-3.92085E-03-6.61134E-04-9.84807E-02 8.15719E-14 1.22190E-13
 -1      1493 1.94638E+01-1.41334E-03 1.41478E-03-4.45009E-02 5.32654E-14 2.43176E-13
 -1      1494 1.93972E+01-1.11475E-03 1.18921E-03-4.51092E-02 5.13930E-14 3.26519E-13
 -1      1495 1.94664E+01-4.42511E-03-3.96085E-04-8.99215E-02 9.51038E-14 1.03531E-13
 -1      1496 1.95667E+01-1.40686E-03 1.16148E-03-3.79430E-02 5.85911E-14 1.25121E-13
 -1      1497 1.95093E+01-1.52629E-03 8.58096E-04-3.88272E-02 5.95774E-14 2.39120E-13
 -1      1498 1.95597E+01-4.44884E-03-2.06401E-04-7.88604E-02 7.60428E-14 1.43349E-13
 -1      1499 1.96542E+01-1.30837E-03 9.39790E-04-3.15146E-02 2.23012E-14 8.84696E-14
 -1      1500 1.96061E+01-1.67195E-03 6.14249E-04-3.25099E-02 9.23472E-15 1.08561E-13
 -1      1501 1.96424E+01-4.17819E-03-7.70905E-05-6.70403E-02 4.13230E-14 6.09192E-14
 -1      1502 1.97267E+01-1.15348E-03 7.47613E-04-2.56097E-02 2.60095E-14 3.69422E-14
 -1      1503 1.96873E+01-1.64139E-03 4.34519E-04-2.66056E-02 3.03265E-14 6.69204E-14
 -1      1504 1.97133E+01-3.73525E-03 5.99681E-06-5.55746E-02 5.13413E-14 7.52810E-15
 -1      1505 1.97856E+01-9.64570E-04 5.82563E-04-2.04683E-02 3.14381E-15-6.17206E-14
 -1      1506 1.97541E+01-1.49423E-03 3.03795E-04-2.13903E-02 3.74346E-14-1.65738E-14
 -1      1507 1.97727E+01-3.19869E-03 5.36423E-05-4.51629E-02 5.69246E-14-4.55535E-14
 -1      1508 1.98331E+01-7.53905E-04 4.41482E-04-1.62355E-02 1.02799E-14-8.44693E-14
 -1      1509 1.98081E+01-1.26798E-03 2.11328E-04-1.70323E-02 2.21447E-14-5.63216E-14
 -1      1510 1.98217E+01-2.61585E-03 7.32686E-05-3.62387E-02 2.73399E-14-7.18529E-14
 -1      1511 1.98714E+01-5.25868E-04 3.20467E-04-1.30073E-02 3.00695E-15-1.20971E-13
 -1      1512 1.98515E+01-9.83189E-04 1.49193E-04-1.36403E-02-3.53015E-15-1.55274E-13
 -1      1513 1.98620E+01-2.01057E-03 6.93209E-05-2.90783E-02 3.00909E-14-1.38542E-13
 -1      1514 1.99032E+01-2.78516E-04 2.15007E-04-1.08658E-02 1.26662E-13-2.67067E-13
 -1      1515 1.98870E+01-6.46879E-04 1.11515E-04-1.13002E-02 8.21440E-14-1.38933E-13
 -1      1516 1.98957E+01-1.38870E-03 4.35692E-05-2.38832E-02 8.71646E-14-2.32530E-13
 -1      1517 1.99314E+01-4.69396E-06 1.20092E-04-9.90755E-03 4.53261E-14-4.36549E-13
 -1      1518 1.99173E+01-2.54907E-04 9.39998E-05-1.01054E-02 1.10360E-13-3.07564E-13
 -1      1519 1.99252E+01-7.41943E-04-4.72682E-06-2.08439E-02 1.87785E-13-2.74885E-13
 -1      1520 1.99594E+01 3.07174E-04 3.02820E-05-1.02663E-02-4.12705E-14-3.73572E-13
 -1      1521 1.99455E+01 2.06442E-04 9.36011E-05-1.01797E-02-5.67059E-14-4.28538E-13
 -1      1522 1.99532E+01-5.06702E-05-7.87573E-05-2.01917E-02-1.52347E-14-2.30834E-13
 -1      1523 1.99907E+01 6.72484E-04-6.02889E-05-1.21328E-02-1.00602E-13-2.84678E-13
 -1      1524 1.99752E+01 7.59374E-04 1.08259E-04-1.16982E-02-5.04515E-14-3.66899E-13
 -1      1525 1.99829E+01 7.14109E-04-1.84193E-04-2.22411E-02-8.67247E-14-2.05242E-13
 -1      1526 2.00299E+01 1.10993E-03-1.57982E-04-1.57716E-02 1.99374E-14-1.90238E-13
 -1      1527 2.00103E+01 1.43383E-03 1.36633E-04-1.49038E-02-2.82343E-14-2.36879E-13
 -1      1528 2.00179E+01 1.58920E-03-3.29300E-04-2.74248E-02-8.79608E-14-1.91219E-13
 -1      1529 2.00819E+01 1.64084E-03-2.69819E-04-2.15345E-02 3.56994E-14-3.49838E-13
 -1      1530 2.00555E+01 2.26676E-03 1.77765E-04-2.01212E-02 4.04211E-14-2.34121E-13
 -1      1531 2.00624E+01 2.61788E-03-5.25109E-04-3.63233E-02 4.00617E-14-1.07567E-13
 -1      1532 2.01531E+01 2.28803E-03-4.03719E-04-2.98713E-02 2.91516E-14-3.64341E-13
 -1      1533 2.01165E+01 3.30107E-03 2.30598E-04-2.77674E-02 5.03342E-14-3.79173E-13
 -1      1534 2.01214E+01 3.84812E-03-7.85573E-04-4.96874E-02 1.02829E-13-3.66569E-13
 -1      1535 2.02509E+01 3.07353E-03-5.68789E-04-4.13323E-02-3.60588E-14-3.68277E-13
 -1      1536 2.02000E+01 4.58326E-03 2.93228E-04-3.83556E-02-4.47182E-14-4.41541E-13
 -1      1537 2.02011E+01 5.32967E-03-1.12757E-03-6.84495E-02 1.18811E-14-4.77683E-13
 -1      1538 2.03843E+01 4.01404E-03-7.75509E-04-5.65586E-02-3.73096E-14-3.32814E-13
 -1      1539 2.03141E+01 6.15843E-03 3.61735E-04-5.24875E-02-9.67520E-15-3.51746E-13
 -1      1540 2.03084E+01 7.10818E-03-1.57046E-03-9.37154E-02-4.20785E-14-3.90826E-13
 -1      1541 2.05639E+01 5.11199E-03-1.03539E-03-7.62448E-02 1.05755E-13-3.89038E-13
 -1      1542 2.04685E+01 8.05978E-03 4.28411E-04-7.08223E-02 7.54995E-15-2.95192E-13
 -1      1543 2.04518E+01 9.21364E-03-2.13452E-03-1.26719E-01 1.25913E-14-4.16074E-13
 -1      1544 2.08021E+01 6.33863E-03-1.35895E-03-1.01051E-01 1.85821E-14-6.02594E-13
 -1      1545 2.06745E+01 1.02875E-02 4.79302E-04-9.40012E-02 1.05482E-13-4.46197E-13
 -1      1546 2.06409E+01 1.16376E-02-2.83702E-03-1.68705E-01 1.36114E-13-4.10818E-13
 -1      1547 2.11121E+01 7.60291E-03-1.74931E-03-1.31420E-01-1.08042E-13-4.31784E-13
 -1      1548 2.09447E+01 1.27680E-02 4.91484E-04-1.22490E-01-8.43730E-14-5.41180E-13
 -1      1549 2.08863E+01 1.42894E-02-3.68324E-03-2.20678E-01-1.19435E-13-3.19699E-13
 -1      1550 2.15074E+01 8.69708E-03-2.18537E-03-1.67218E-01 6.55207E-14-4.72429E-13
 -1      1551 2.12923E+01 1.52798E-02 4.31852E-04-1.56274E-01 2.27589E-14-4.43826E-13
 -1      1552 2.11987E+01 1.69164E-02-4.64759E-03-2.82911E-01-1.72492E-14-3.05331E-13
 -1      1553 2.19991E+01 9.20783E-03-2.58346E-03-2.07090E-01-3.33722E-14-4.76266E-13
 -1      1554 2.17296E+01 1.73245E-02 2.62492E-04-1.94300E-01 1.90013E-14-4.69262E-13
 -1      1555 2.15877E+01 1.89632E-02-5.63643E-03-3.54044E-01-1.16153E-14-2.30401E-13
 -1      1556 2.25910E+01 8.38644E-03-2.72038E-03-2.47352E-01-4.15763E-14-3.84351E-13
 -1      1557 2.22644E+01 1.79232E-02-3.64818E-05-2.33524E-01-3.53359E-14-5.06244E-13
 -1      1558 2.20587E+01 1.93433E-02-6.42020E-03-4.29517E-01-6.37229E-15-1.78223E-13
 -1      1559 2.32714E+01 4.99948E-03-2.10508E-03-2.80262E-01-6.83485E-14-3.25299E-13
 -1      1560 2.28937E+01 1.53433E-02-4.08846E-04-2.67414E-01-5.39153E-14-3.57500E-13
 -1      1561 2.26081E+01 1.61157E-02-6.52441E-03-4.99062E-01-6.56356E-14-6.73211E-14
 -1      1562 2.40004E+01-2.73448E-03 1.70583E-04-2.91737E-01 1.07389E-13-3.15210E-13
 -1      1563 2.35944E+01 6.85112E-03-6.14053E-04-2.83909E-01 9.97943E-15-3.08129E-13
 -1      1564 2.32159E+01 6.14652E-03-5.09352E-03-5.43148E-01-5.19555E-14-2.36755E-13
 -1      1565 2.46918E+01-1.68221E-02 5.43375E-03-2.59286E-01-4.20688E-14-1.98355E-13
 -1      1566 2.43080E+01-1.11614E-02-9.37548E-05-2.63412E-01 6.79300E-14-1.97280E-13
 -1      1567 2.38345E+01-1.49048E-02-8.25912E-04-5.29073E-01 3.83326E-14-1.37741E-13
 -1      1568 2.51956E+01-3.81901E-02 1.48459E-02-1.52735E-01 1.17640E-14-1.62780E-13
 -1      1569 2.49236E+01-4.18840E-02 2.03031E-03-1.78773E-01-4.74430E-14-2.05516E-13
 -1      1570 2.43764E+01-5.13837E-02 7.74660E-03-4.09480E-01-1.09036E-14-3.83192E-14
 -1      1571 2.52929E+01-6.37155E-02 2.76105E-02 5.68364E-02-4.01328E-14-3.69452E-13
 -1      1572 2.52645E+01-8.44392E-02 6.44686E-03-1.65193E-03 3.01859E-14-2.81261E-13
 -1      1573 2.47052E+01-1.03687E-01 2.11266E-02-1.30098E-01 6.82822E-14-1.24128E-13
 -1      1574 2.47330E+01-8.22307E-02 3.81464E-02 3.73023E-01 1.44173E-14-1.73639E-13
 -1      1575 2.50992E+01-1.27627E-01 1.22667E-02 2.78502E-01-8.45348E-14-2.43056E-13
 -1      1576 2.46428E+01-1.60424E-01 3.65950E-02 3.42329E-01-5.09853E-14-4.63301E-15
 -1      1577 2.33430E+01-7.39840E-02 3.49500E-02 7.36017E-01-3.91891E-14-1.74055E-13
 -1      1578 2.42049E+01-1.45200E-01 1.53568E-02 6.21430E-01 2.07161E-14-2.01832E-13
 -1      1579 2.40159E+01-1.89944E-01 4.62396E-02 9.65103E-01 1.71980E-14 1.52586E-13
 -1      1580 2.12096E+01-2.23095E-02 6.44382E-03 9.98209E-01 1.00195E-13-1.38958E-13
 -1      1581 2.25059E+01-1.04033E-01 8.61611E-03 9.07618E-01-3.08026E-14-1.53266E-13
 -1      1582 2.27577E+01-1.44244E-01 3.91111E-02 1.55935E+00-3.13725E-14 2.00111E-13
 -1      1583 1.88267E+01 6.16641E-02-4.36540E-02 9.72794E-01-1.28278E-13-4.84057E-14
 -1      1584 2.02481E+01 5.29523E-03-1.23417E-02 9.63500E-01-2.68899E-14-1.19585E-13
 -1      1585 2.10444E+01 5.18988E-03 1.03046E-02 1.81996E+00-2.63587E-14 3.70821E-13
 -1      1586 1.69974E+01 1.24811E-01-8.52135E-02 5.85156E-01-2.72352E-15 8.53484E-14
 -1      1587 1.80574E+01 1.33280E-01-3.94607E-02 6.79513E-01-1.25115E-13-4.78229E-14
 -1      1588 1.93506E+01 2.07981E-01-2.83806E-02 1.48648E+00-1.30507E-13 3.29573E-13
 -1      1589 1.63649E+01 1.21192E-01-8.31076E-02 9.31491E-03-1.09333E-13 1.51865E-13
 -1      1590 1.66916E+01 1.95134E-01-5.13094E-02 1.59610E-01 3.29459E-14 8.68368E-14
 -1      1591 1.82684E+01 3.28642E-01-5.10162E-02 6.23308E-01-1.67297E-14 3.32341E-13
 -1      1592 1.69615E+01 5.38520E-02-3.47083E-02-4.47385E-01 1.79278E-13-2.49453E-14
 -1      1593 1.65525E+01 1.51768E-01-3.42125E-02-3.25194E-01 8.60249E-14 6.31370E-14
 -1      1594 1.81103E+01 2.80897E-01-4.10328E-02-3.35845E-01 7.84338E-14 9.36855E-14
 -1      1595 1.81803E+01-2.09849E-02 2.00743E-02-5.71617E-01 2.56034E-13-5.68101E-13
 -1      1596 1.74041E+01 4.42028E-02-1.24628E-03-5.32450E-01 1.94776E-13-3.16080E-13
 -1      1597 1.86803E+01 8.98421E-02-1.67241E-02-8.94413E-01 3.93770E-13-4.35142E-13
 -1      1598 1.92780E+01-5.54369E-02 4.59886E-02-4.09973E-01 8.79904E-14-8.32945E-13
 -1      1599 1.85796E+01-4.42177E-02 2.33224E-02-4.41487E-01 1.71810E-13-5.29798E-13
 -1      1600 1.94590E+01-9.15878E-02 1.67775E-03-8.83712E-01 3.40097E-13-3.19210E-13
 -1      1601 1.98622E+01-4.26284E-02 3.88819E-02-1.65703E-01-1.25516E-14-8.20025E-13
 -1      1602 1.94737E+01-6.68569E-02 2.81021E-02-2.16728E-01-7.01175E-14-9.04707E-13
 -1      1603 2.00027E+01-1.55829E-01 6.56400E-03-5.21543E-01 1.38466E-14-3.53387E-13
 -1      1604 1.99955E+01-1.00510E-02 1.76664E-02-1.79038E-02 1.39990E-13-8.86905E-13
 -1      1605 1.98724E+01-3.43783E-02 1.78281E-02-4.55723E-02 1.31540E-13-6.68691E-13
 -1      1606 2.01726E+01-1.02539E-01 2.23404E-03-1.58833E-01 6.69282E-14-2.59414E-13
 -1      1607 1.99826E+01 1.27440E-02 1.60769E-02-1.82372E-02-1.16133E-13-1.07832E-12
 -1      1608 1.99373E+01 1.01279E-02 1.00625E-02-7.42379E-03 8.49407E-15-1.05208E-12
 -1      1609 2.01056E+01-4.67523E-03 3.17366E-03-1.56659E-02 2.05991E-13-2.96090E-13
 -1      1610 1.99670E+01-1.65776E-02 1.59685E-02-2.93128E-02-6.27321E-13-7.10577E-13
 -1      1611 2.00836E+01 1.22521E-01-7.88266E-03 7.34958E-02-3.60885E-13 4.22365E-13
 -1      1612 2.00563E+01 4.03714E-02 4.06856E-03 3.98438E-02-7.40026E-13 2.97678E-13
 -1      1613 2.01561E+01 7.80214E-01-1.82018E-02 3.86893E-01 9.86693E-14 2.55608E-13
 -1      1614 2.01294E+01 3.29555E-01-1.60589E-02 3.06448E-01-3.70567E-13 4.16254E-13
 -1      1615 2.01916E+01 2.55485E-01-3.03944E-02 3.78332E-01-6.06667E-14 5.61098E-13
 -1      1616 2.01802E+01 2.26745E+00-2.69060E-02 8.59531E-01 2.57891E-13 1.36608E-13
 -1      1617 2.01863E+01 1.26553E+00-3.08640E-02 7.49782E-01 1.50820E-13 3.16219E-13
 -1      1618 2.03065E+01 8.93123E-01-4.61128E-02 1.09768E+00 7.00195E-14 3.86514E-13
 -1      1619 2.01146E+01 4.65245E+00-2.24674E-02 1.32320E+00 2.70395E-13-3.35981E-14
 -1      1620 2.01742E+01 3.10712E+00-3.49371E-02 1.22932E+00 2.22544E-13 8.98344E-14
 -1      1621 2.03037E+01 2.16006E+00-5.32171E-02 1.99352E+00-4.80727E-14 9.53751E-14
 -1      1622 1.99419E+01 7.48758E+00-1.13332E-04 1.49603E+00-3.45404E-13-3.04198E-13
 -1      1623 2.00520E+01 5.74851E+00-1.78546E-02 1.48728E+00 1.53710E-13-3.44305E-13
 -1      1624 2.01303E+01 4.06666E+00-2.78216E-02 2.66581E+00-1.45686E-13-4.02779E-13
 -1      1625 1.97237E+01 9.98061E+00 3.45469E-02 1.12828E+00-4.41369E-13 1.01866E-13
 -1      1626 1.98365E+01 8.59088E+00 1.81861E-02 1.25442E+00-3.83971E-13-1.45640E-13
 -1      1627 1.98009E+01 6.27007E+00 3.25357E-02 2.60571E+00-2.07417E-13-4.37459E-13
 -1      1628 1.96092E+01 1.10314E+01 5.55478E-02 2.42308E-01-1.14216E-13 1.17802E-13
 -1      1629 1.96480E+01 1.06229E+01 5.01419E-02 4.65687E-01-3.95552E-13 2.87236E-13
 -1      1630 1.94710E+01 8.04526E+00 1.01153E-01 1.50883E+00-1.81008E-13 2.61832E-13
 -1      1631 1.96848E+01 1.01164E+01 4.31333E-02-7.74644E-01 4.22176E-13 8.96921E-14
 -1      1632 1.96210E+01 1.08978E+01 5.27960E-02-5.66996E-01 2.12851E-14 1.46719E-13
 -1      1633 1.93594E+01 8.57099E+00 1.25658E-01-3.08917E-01 7.94417E-15 3.56291E-13
 -1      1634 1.98963E+01 7.62459E+00 7.45195E-03-1.43753E+00 4.69139E-13-4.33334E-15
 -1      1635 1.97746E+01 9.25818E+00 2.53950E-02-1.34632E+00 4.43812E-13 5.85903E-14
 -1      1636 1.95415E+01 7.55968E+00 8.46493E-02-2.01081E+00 4.04284E-13 1.94518E-13
 -1      1637 2.00991E+01 4.58878E+00-2.32617E-02-1.52122E+00 1.47535E-13-3.55476E-13
 -1      1638 1.99948E+01 6.42424E+00-7.27823E-03-1.56046E+00 5.26662E-13-2.39876E-13
 -1      1639 1.98940E+01 5.47505E+00 1.36881E-02-2.84235E+00 2.16029E-13-1.99679E-13
 -1      1640 2.01938E+01 2.03185E+00-3.41991E-02-1.17165E+00 6.88061E-14 1.59889E-13
 -1      1641 2.01468E+01 3.49651E+00-2.38251E-02-1.27625E+00 2.27915E-13-2.00229E-13
 -1      1642 2.02008E+01 3.18896E+00-3.84987E-02-2.65856E+00 1.11199E-13-3.48792E-13
 -1      1643 2.01915E+01 3.54668E-01-2.77560E-02-6.54599E-01-6.13988E-14-2.07313E-13
 -1      1644 2.01919E+01 1.24394E+00-2.46337E-02-7.67472E-01 1.28814E-13 5.15820E-14
 -1      1645 2.03327E+01 1.34802E+00-5.56895E-02-1.85405E+00 4.47593E-14 6.79214E-14
 -1      1646 2.01333E+01-3.72169E-01-1.45051E-02-1.97535E-01 3.24378E-13 2.40951E-13
 -1      1647 2.01618E+01-5.32612E-02-1.56462E-02-2.79615E-01 4.51054E-14 1.70615E-13
 -1      1648 2.03093E+01 2.06724E-01-4.82972E-02-9.08658E-01 2.99219E-13-7.68136E-15
 -1      1649 2.00659E+01-4.15165E-01 3.89870E-03 7.22489E-02 2.03934E-14-1.02593E-13
 -1      1650 2.00828E+01-4.81618E-01-8.06096E-03 4.55971E-02 2.04350E-13 1.31845E-13
 -1      1651 2.02019E+01-2.63054E-01-2.79011E-02-1.64885E-01 2.38316E-14 1.04841E-13
 -1      1652 2.00014E+01-1.97889E-01 8.95726E-03 1.86666E-01-2.12632E-13-4.03211E-13
 -1      1653 2.00318E+01-3.76571E-01-1.62903E-03 1.99585E-01 3.15269E-14-3.70777E-13
 -1      1654 2.01070E+01-2.52290E-01 4.05984E-03 2.30683E-01-9.30350E-14-1.63354E-13
 -1      1655 1.98957E+01-1.39780E-01-3.72769E-03 3.46173E-01-1.03684E-13-3.02013E-13
 -1      1656-7.98497E-01-1.81345E+01-2.13438E+00-1.31557E+00-3.36953E-13-1.25872E-13
 -1      1657-7.45242E-01-2.05993E+01-2.36352E+00 3.63954E-01-4.08173E-13 6.46150E-14
 -1      1658 1.86286E+00-9.37746E+00-1.34257E+00 9.93287E-01 9.90319E-14 1.45245E-13
 -1      1659 8.56872E-01-1.60035E+01-2.06505E+00 8.77484E-02-1.29119E-13-6.45387E-14
 -1      1660 1.04041E+01-3.49744E-01-3.39336E-01 6.52314E+00 2.98650E-13 3.31624E-13
 -1      1661 6.11048E+00-6.97583E+00-1.28361E+00 2.81768E+00 1.01918E-13 2.63733E-13
 -1      1662 2.16046E+01 6.37712E+00 5.69615E-01 1.18288E+01 3.42837E-13 1.92735E-13
 -1      1663 1.40881E+01 2.83105E+00-4.43589E-01 7.75024E+00 3.54383E-13 2.05613E-13
 -1      1664 3.74287E+01 7.53201E+00 1.38404E+00 1.46046E+01 1.33449E-13 4.60743E-13
 -1      1665 2.71990E+01 7.54746E+00 4.71087E-01 1.27066E+01 1.92846E-13 3.19744E-13
 -1      1666 5.19242E+01 5.62051E+00 1.92105E+00 1.14140E+01 1.66624E-13-2.26485E-14
 -1      1667 4.28518E+01 7.57246E+00 1.29839E+00 1.36553E+01 2.89435E-13 2.22489E-13
 -1      1668 5.93956E+01 3.95912E+00 2.12191E+00 3.56326E+00 2.86160E-13-1.00447E-12
 -1      1669 5.53372E+01 5.35825E+00 1.87583E+00 9.15725E+00 2.74031E-13-3.66152E-13
 -1      1670 5.70437E+01 4.16118E+00 1.86627E+00-5.21036E+00 4.95270E-13-1.69798E-12
 -1      1671 6.00155E+01 3.68366E+00 2.14851E+00 7.31039E-01 2.80498E-13-1.32522E-12
 -1      1672 4.45494E+01 5.73989E+00 1.13555E+00-1.01569E+01 7.93268E-13-2.03371E-12
 -1      1673 5.30674E+01 4.19429E+00 1.75409E+00-6.93273E+00 7.21381E-13-1.71074E-12
 -1      1674 2.97899E+01 6.25293E+00 4.14969E-01-1.15110E+01 1.13543E-12-1.93179E-12
 -1      1675 3.97472E+01 5.62593E+00 1.22823E+00-1.22084E+01 8.96339E-13-2.04059E-12
 -1      1676 1.56768E+01 3.06287E+00-4.28134E-01-7.58499E+00 1.03340E-12-1.26921E-12
 -1      1677 2.41082E+01 5.50954E+00 5.38913E-01-1.11573E+01 9.81659E-13-1.82876E-12
 -1      1678 6.65947E+00-4.46861E+00-1.07752E+00-2.72038E+00 7.64278E-13-7.86704E-13
 -1      1679 1.13600E+01 8.51088E-01-2.47280E-01-6.31759E+00 9.43468E-13-9.04610E-13
 -1      1680 2.06125E+00-1.20248E+01-1.47818E+00-2.76275E-01 3.87690E-13-3.99139E-13
 -1      1681 3.64582E+00-6.58966E+00-9.09735E-01-1.84364E+00 6.47482E-13-7.92699E-13
 -1      1682-5.30405E-01-1.83263E+01-1.97442E+00 6.71166E-01 1.38500E-13-2.27096E-13
 -1      1683-5.39371E-01-1.43553E+01-1.62799E+00 1.51713E+00 3.66152E-13-8.59313E-14
 -1      1684-9.11284E-01-1.85659E+01-1.85241E+00-7.65820E-01-2.81802E-13-3.00315E-13
 -1      1685-9.34746E-01-1.88351E+01-1.89354E+00 1.09303E+00 4.76841E-14-2.39087E-13
 -1      1686-1.09609E-01-1.32520E+01-1.49148E+00-8.60298E-01-8.50875E-13-5.15657E-13
 -1      1687-2.87048E-01-1.76299E+01-1.88408E+00-2.42715E-01-3.78031E-13-3.26267E-13
 -1      1688 3.99597E+00-5.05787E+00-8.60184E-01 2.33171E+00-9.98090E-13-4.32487E-13
 -1      1689 2.12120E+00-1.11166E+01-1.52416E+00 4.19230E-01-9.56568E-13-5.47506E-13
 -1      1690 1.23353E+01 2.23109E+00-1.49929E-01 7.25940E+00-9.52127E-13-7.13651E-13
 -1      1691 7.28615E+00-2.76405E+00-1.01921E+00 3.52838E+00-1.07980E-12-5.93414E-13
 -1      1692 2.55684E+01 5.83533E+00 6.14817E-01 1.16521E+01-9.28813E-13-1.43374E-12
 -1      1693 1.72003E+01 3.78897E+00-3.12338E-01 8.37911E+00-9.63563E-13-1.09157E-12
 -1      1694 4.12080E+01 5.91876E+00 1.36333E+00 1.23508E+01-7.75935E-13-1.46549E-12
 -1      1695 3.11415E+01 6.57764E+00 5.01530E-01 1.18453E+01-9.18043E-13-1.46771E-12
 -1      1696 5.45527E+01 4.28180E+00 1.93262E+00 7.83183E+00-3.81792E-13-1.23945E-12
 -1      1697 4.64020E+01 5.98904E+00 1.31464E+00 1.13423E+01-6.44276E-13-1.40721E-12
 -1      1698 5.96880E+01 3.64570E+00 2.07009E+00-9.90359E-01-1.49325E-13-9.11056E-13
 -1      1699 5.73388E+01 4.11985E+00 1.89702E+00 5.08330E+00-2.59903E-13-1.09013E-12
 -1      1700 5.43532E+01 5.41172E+00 1.77364E+00-9.31901E+00-1.58762E-14-4.53304E-13
 -1      1701 5.86906E+01 4.00456E+00 2.03972E+00-3.93403E+00-4.14113E-14-7.55757E-13
 -1      1702 4.20048E+01 7.53777E+00 1.22003E+00-1.35445E+01-1.89015E-13-3.99680E-14
 -1      1703 5.08997E+01 5.65553E+00 1.82519E+00-1.14556E+01-5.96259E-14-2.64566E-13
 -1      1704 2.60949E+01 7.49786E+00 4.11050E-01-1.24100E+01-7.65055E-13 5.18030E-13
 -1      1705 3.65942E+01 7.66261E+00 1.37358E+00-1.45335E+01-3.52052E-13 2.19824E-13
 -1      1706 1.41713E+01 1.05821E+00-5.09642E-01-7.07219E+00-1.43352E-12 6.32161E-13
 -1      1707 2.14670E+01 4.74930E+00 4.36625E-01-1.10484E+01-8.92730E-13 5.04485E-13
 -1      1708 4.47195E+00-6.80263E+00-1.49490E+00-1.99238E+00-1.75127E-12 1.03362E-12
 -1      1709 8.15324E+00-3.71487E-01-5.57709E-01-5.48760E+00-1.65934E-12 9.94205E-13
 -1      1710 7.74332E-01-1.57317E+01-2.08716E+00 1.89232E-01-5.40235E-13 8.78742E-13
 -1      1711 1.65644E+00-9.40405E+00-1.41169E+00-5.94344E-01-1.57274E-12 1.18555E-12
 -1      1712-5.98292E-01-1.98705E+01-2.24884E+00-5.01873E-01-5.50393E-13-1.86517E-14
 -1      1713-5.59065E-01-1.70328E+01-1.97458E+00 8.97171E-01-6.06182E-13 1.19182E-13
 -1      1714 2.87159E+01 1.90409E+00 4.73822E-01 8.83815E+00 6.12843E-14 2.27374E-13
 -1      1715 1.80538E+01-3.86064E+00-3.37540E-01 7.70954E+00 1.88738E-13 2.42251E-13
 -1      1716 2.00274E+01-4.99621E-03 7.00634E-03-3.41640E-02-7.88619E-13-2.89114E-13
 -1      1717 2.00747E+01 5.89583E-02-9.51041E-03 4.30739E-02-1.07376E-13 2.15355E-13
 -1      1718 7.72924E-01-1.23524E+01-1.43793E+00 3.02151E+00-1.23457E-13 2.22045E-14
 -1      1719 8.57002E+00-8.35994E+00-7.49288E-01 6.31771E+00 1.38112E-13 3.30361E-13
 -1      1720-1.49784E+00-1.36124E+01-1.61871E+00-2.73848E-01-5.30562E-13 1.45106E-13
 -1      1721 3.97858E+01 5.43863E+00 1.17966E+00 8.06169E+00 6.61693E-14-2.43139E-13
 -1      1722 4.75596E+01 7.57959E+00 1.59308E+00 5.20207E+00 3.83082E-13-7.61724E-13
 -1      1723 5.11855E+01 7.95572E+00 1.78108E+00 1.67183E+00 5.50171E-13-1.08401E-12
 -1      1724 4.77578E+01 6.90084E+00 1.39997E+00-1.66606E+00 7.47513E-13-1.36346E-12
 -1      1725 4.05844E+01 4.76895E+00 1.05916E+00-5.04036E+00 6.62623E-13-1.58629E-12
 -1      1726 3.01861E+01 1.75836E+00 5.00243E-01-7.04736E+00 6.36990E-13-1.66755E-12
 -1      1727 1.90218E+01-2.87616E+00-2.25388E-01-6.40945E+00 4.85167E-13-1.07137E-12
 -1      1728 9.93292E+00-7.45734E+00-6.95027E-01-5.31373E+00 2.27263E-13-6.99912E-13
 -1      1729 2.76427E+00-1.05400E+01-9.50113E-01-3.40664E+00 3.70481E-13-4.55913E-13
 -1      1730-1.31193E+00-1.33712E+01-1.38065E+00-7.13907E-01 9.13158E-14-3.57769E-13
 -1      1731-1.12398E+00-1.28758E+01-1.31842E+00 1.34355E+00-1.23984E-13-4.77285E-13
 -1      1732 3.08353E+00-1.02330E+01-1.02048E+00 3.68203E+00-3.19744E-13-5.72681E-13
 -1      1733 1.05177E+01-6.30175E+00-6.07454E-01 5.64518E+00-6.59139E-13-3.42532E-13
 -1      1734 2.03155E+01-1.79942E+00-5.16772E-02 6.96511E+00-6.97997E-13-9.47242E-13
 -1      1735 3.13089E+01 2.20547E+00 5.56792E-01 7.10125E+00-6.55143E-13-1.18527E-12
 -1      1736 4.16327E+01 5.34538E+00 1.14522E+00 5.73173E+00-5.97987E-13-9.77218E-13
 -1      1737 4.92053E+01 7.17824E+00 1.61793E+00 2.70137E+00-4.29212E-13-1.05743E-12
 -1      1738 5.08543E+01 7.91353E+00 1.70431E+00-1.58430E+00-1.91736E-13-8.12003E-13
 -1      1739 4.69401E+01 7.44180E+00 1.50730E+00-5.32226E+00-5.60108E-14-5.00933E-13
 -1      1740 3.89987E+01 5.40904E+00 1.11441E+00-8.09602E+00-3.85997E-13-2.71672E-13
 -1      1741 2.82018E+01 5.66592E-01 2.64240E-01-8.18677E+00-7.56617E-13-1.21791E-13
 -1      1742 1.76087E+01-3.70874E+00-1.30116E-01-7.76601E+00-8.81739E-13 9.63674E-14
 -1      1743 7.02688E+00-8.45585E+00-9.86591E-01-5.38306E+00-9.30811E-13 1.00407E-12
 -1      1744 9.06596E-01-1.21175E+01-1.42736E+00-2.99203E+00-8.45546E-13 7.97029E-13
 -1      1745 2.28609E+01 1.98499E+00-2.35773E-02-2.72226E+00-3.91437E-13 1.52295E-12
 -1      1746 1.98238E+01 3.71445E+00-3.55636E-02-2.15168E+00-5.03677E-13-5.80470E-13
 -1      1747 2.00592E+01 3.56222E+00-4.02555E-02-2.44468E+00-5.77286E-13-4.15792E-13
 -1      1748 2.03648E+01 3.18184E+00-4.57200E-02-2.58463E+00-5.71847E-13-1.95816E-13
 -1      1749 2.05849E+01 2.81006E+00-1.42520E-01-2.85306E+00-6.11740E-13 1.11210E-13
 -1      1750 2.04246E+01 2.69347E+00-4.43928E-03-2.22563E+00-6.00207E-13-2.76505E-13
 -1      1751 1.93539E+01 4.18959E+00-2.02076E-02-1.27045E+00-2.79947E-13-8.44502E-13
 -1      1752 1.94274E+01 4.14927E+00-1.75073E-02-1.49468E+00-3.42365E-13-8.16317E-13
 -1      1753 1.92574E+01 4.29474E+00-1.68002E-02-8.59495E-01-1.67146E-13-8.80119E-13
 -1      1754 1.93002E+01 4.27101E+00-1.43347E-02-1.07019E+00-2.23114E-13-8.73288E-13
 -1      1755 1.95261E+01 3.78296E+00-9.21952E-03-1.11993E+00-2.72655E-13-8.24858E-13
 -1      1756 1.92057E+01 4.35517E+00-1.48050E-02-4.66634E-01-5.35264E-14-8.86373E-13
 -1      1757 1.92277E+01 4.34238E+00-1.33104E-02-6.66880E-01-1.06760E-13-8.84199E-13
 -1      1758 1.94288E+01 3.90331E+00-9.19532E-03-7.33020E-01-1.51269E-13-8.54716E-13
 -1      1759 1.91862E+01 4.38080E+00-1.36674E-02-8.35968E-02 4.68384E-14-8.83977E-13
 -1      1760 1.91927E+01 4.37688E+00-1.32159E-02-2.78984E-01 2.76461E-15-8.89486E-13
 -1      1761 1.93782E+01 3.96789E+00-9.15768E-03-3.58168E-01-3.47615E-14-8.56785E-13
 -1      1762 1.91943E+01 4.37551E+00-1.31679E-02 2.98027E-01 1.42809E-13-8.56188E-13
 -1      1763 1.91867E+01 4.37997E+00-1.37505E-02 1.02480E-01 9.68764E-14-8.68888E-13
 -1      1764 1.93634E+01 3.98731E+00-9.14430E-03 1.05581E-02 7.05628E-14-8.51414E-13
 -1      1765 1.92318E+01 4.33834E+00-1.33272E-02 6.86637E-01 2.43674E-13-8.27964E-13
 -1      1766 1.92085E+01 4.35202E+00-1.49149E-02 4.85891E-01 1.94924E-13-8.50282E-13
 -1      1767 1.93809E+01 3.96461E+00-9.18682E-03 3.79475E-01 1.83117E-13-8.27782E-13
 -1      1768 1.93056E+01 4.26495E+00-1.44079E-02 1.08417E+00 3.49633E-13-7.51116E-13
 -1      1769 1.92621E+01 4.28941E+00-1.69731E-02 8.76258E-01 2.91960E-13-8.00309E-13
 -1      1770 1.94339E+01 3.89713E+00-9.19297E-03 7.51511E-01 2.87424E-13-7.85160E-13
 -1      1771 1.94377E+01 4.13774E+00-1.74020E-02 1.51409E+00 4.71424E-13-6.52457E-13
 -1      1772 1.93610E+01 4.18031E+00-2.05050E-02 1.28459E+00 4.09130E-13-7.10199E-13
 -1      1773 1.95340E+01 3.77321E+00-9.23920E-03 1.13514E+00 4.15420E-13-6.99479E-13
 -1      1774 1.96674E+01 3.92119E+00-2.51937E-02 1.97911E+00 5.73869E-13-4.73586E-13
 -1      1775 1.95343E+01 3.99794E+00-2.69062E-02 1.72179E+00 5.14296E-13-5.82208E-13
 -1      1776 1.97078E+01 3.56610E+00-8.70285E-03 1.53477E+00 5.27353E-13-5.79660E-13
 -1      1777 2.00766E+01 3.52284E+00-4.51821E-02 2.47153E+00 6.45168E-13-1.38865E-13
 -1      1778 1.98363E+01 3.68330E+00-3.97262E-02 2.18243E+00 5.92255E-13-3.38365E-13
 -1      1779 2.00048E+01 3.22296E+00-5.26885E-03 1.93405E+00 6.16061E-13-3.63154E-13
 -1      1780 2.09225E+01 2.68182E+00-5.76444E-02 2.85729E+00 6.31334E-13 4.83599E-13
 -1      1781 2.04148E+01 3.09696E+00-5.04307E-02 2.61547E+00 6.29282E-13 1.10273E-13
 -1      1782 2.05185E+01 2.60997E+00 3.18735E-03 2.24402E+00 6.60761E-13 4.83641E-15
 -1      1783 2.17331E+01 1.21296E+00-1.22091E-01 2.32947E+00 5.35669E-13 1.23597E-12
 -1      1784 2.12764E+01 2.26304E+00 1.16944E-04 2.74000E+00 5.85962E-13 7.43641E-13
 -1      1785 2.09392E+01 1.68503E+00-2.29542E-02 2.13971E+00 6.41754E-13 4.83856E-13
 -1      1786 2.09545E+01 7.78669E-01-6.24424E-02 1.52377E+00 5.52482E-13 1.05958E-12
 -1      1787 2.17988E+01 2.45827E+00 9.08504E-02-3.04780E+00-5.30399E-13 6.26804E-13
 -1      1788 2.01040E+01 2.97948E-01-8.90994E-03 6.56620E-01 4.29476E-13 8.08378E-13
 -1      1789 2.06559E+01 4.40410E-01-1.24637E-02 1.03366E+00 4.67577E-13 9.68201E-13
 -1      1790 2.07469E+01 8.45119E-01 2.24731E-03 1.41466E+00 5.53526E-13 6.40793E-13
 -1      1791 2.15090E+01 1.74277E+00 7.94475E-02-2.33669E+00-5.74027E-13 4.06800E-13
 -1      1792 2.05235E+01 5.00465E-01 3.25310E-02-9.21166E-01-4.72834E-13 3.39533E-13
 -1      1793 2.00916E+01 3.51869E-01 7.58377E-03-6.29380E-01-4.16325E-13 2.20787E-13
 -1      1794 1.98971E+01 2.57398E-01 2.74153E-02-3.90983E-01-3.76439E-13 2.00699E-13
 -1      1795 1.97062E+01 1.78151E-01 1.04074E-02-2.53102E-01-3.08417E-13 9.47107E-14
 -1      1796 2.02013E+01 4.83849E-01-5.72666E-03-7.22499E-01-4.67254E-13 1.24414E-14
 -1      1797 1.95844E+01 1.32752E-01 1.66794E-02-1.19512E-01-2.52661E-13 6.24804E-14
 -1      1798 1.95063E+01 9.30225E-02 6.97737E-03-4.87509E-02-2.20275E-13-1.14253E-14
 -1      1799 1.98752E+01 2.44134E-01-5.70435E-03-2.95184E-01-3.49224E-13-6.03736E-14
 -1      1800 1.94415E+01 6.83076E-02 8.68987E-03 2.46863E-02-1.87521E-13-2.81828E-14
 -1      1801 1.94270E+01 4.65877E-02 4.10984E-03 6.07906E-02-1.63826E-13-8.11081E-14
 -1      1802 1.96927E+01 1.25124E-01-4.60568E-03-5.84627E-02-2.49678E-13-1.17186E-13
 -1      1803 1.94009E+01 3.22307E-02 4.22997E-03 9.93829E-02-1.71359E-13-7.90349E-14
 -1      1804 1.94206E+01 1.97673E-02 2.42306E-03 1.16055E-01-1.40521E-13-1.51944E-13
 -1      1805 1.96061E+01 6.07202E-02-3.44690E-03 7.08841E-02-1.78942E-13-1.52993E-13
 -1      1806 1.94188E+01 1.11048E-02 1.84554E-03 1.33823E-01-1.20565E-13-1.51875E-13
 -1      1807 1.94557E+01 3.89107E-03 1.43414E-03 1.39113E-01-9.85920E-14-1.70811E-13
 -1      1808 1.95817E+01 2.37662E-02-2.32869E-03 1.36988E-01-1.60293E-13-1.82735E-13
 -1      1809 1.94680E+01-1.33528E-03 5.43139E-04 1.44298E-01-1.08850E-13-1.87500E-13
 -1      1810 1.95120E+01-5.35753E-03 8.16957E-04 1.42906E-01-9.91309E-14-1.94403E-13
 -1      1811 1.95949E+01 2.14621E-03-1.42698E-03 1.64908E-01-1.15720E-13-2.01372E-13
 -1      1812 1.95317E+01-8.38181E-03-1.79812E-04 1.40625E-01-1.25978E-13-2.08945E-13
 -1      1813 1.95766E+01-1.03856E-02 4.17593E-04 1.35484E-01-1.08445E-13-2.31711E-13
 -1      1814 1.96291E+01-1.02222E-02-7.79753E-04 1.69769E-01-1.18584E-13-2.33912E-13
 -1      1815 1.95993E+01-1.19602E-02-5.67363E-04 1.29038E-01-1.24602E-13-2.55930E-13
 -1      1816 1.96418E+01-1.26717E-02 1.61396E-04 1.22039E-01-8.11807E-14-3.37554E-13
 -1      1817 1.96731E+01-1.67317E-02-3.45834E-04 1.61152E-01-1.54332E-13-2.44463E-13
 -1      1818 1.96647E+01-1.32860E-02-7.48965E-04 1.13589E-01-3.94943E-14-3.81908E-13
 -1      1819 1.97029E+01-1.31751E-02 5.94075E-06 1.05962E-01-2.97992E-14-4.35112E-13
 -1      1820 1.97200E+01-1.94598E-02-7.12724E-05 1.45292E-01-1.00634E-13-3.18613E-13
 -1      1821 1.97245E+01-1.31574E-02-8.01005E-04 9.69260E-02-5.03655E-14-4.25957E-13
 -1      1822 1.97576E+01-1.25327E-02-7.63672E-05 8.94652E-02-3.59932E-14-4.14639E-13
 -1      1823 1.97655E+01-1.97469E-02 8.91281E-05 1.26289E-01-5.70053E-14-3.80811E-13
 -1      1824 1.97771E+01-1.21033E-02-7.71983E-04 8.07683E-02-7.45896E-15-4.06749E-13
 -1      1825 1.98053E+01-1.11643E-02-1.04164E-04 7.39820E-02-1.08234E-14-3.56638E-13
 -1      1826 1.98073E+01-1.84761E-02 1.68933E-04 1.06836E-01-1.87508E-14-3.39587E-13
 -1      1827 1.98224E+01-1.04673E-02-6.93608E-04 6.62222E-02-5.03519E-14-3.59947E-13
 -1      1828 1.98459E+01-9.33540E-03-8.95647E-05 6.04331E-02-6.33248E-14-3.27055E-13
 -1      1829 1.98445E+01-1.62229E-02 1.92006E-04 8.86911E-02-1.76935E-14-3.51368E-13
 -1      1830 1.98609E+01-8.45822E-03-5.86505E-04 5.40031E-02-7.60804E-14-3.06646E-13
 -1      1831 1.98805E+01-7.19656E-03-3.96114E-05 4.94242E-02-4.42587E-14-3.34802E-13
 -1      1832 1.98770E+01-1.33437E-02 1.74763E-04 7.30041E-02-7.72891E-14-3.26393E-13
 -1      1833 1.98937E+01-6.18339E-03-4.63612E-04 4.45997E-02-6.70505E-14-3.66821E-13
 -1      1834 1.99104E+01-4.81112E-03 4.26799E-05 4.13908E-02-6.59028E-14-4.03214E-13
 -1      1835 1.99054E+01-1.00324E-02 1.28004E-04 6.05532E-02-7.74883E-14-3.62559E-13
 -1      1836 1.99224E+01-3.67313E-03-3.32446E-04 3.83972E-02-1.00223E-13-4.28553E-13
 -1      1837 1.99374E+01-2.17545E-03 1.57507E-04 3.67080E-02-8.21840E-14-4.69792E-13
 -1      1838 1.99307E+01-6.35938E-03 5.83395E-05 5.19219E-02-1.24133E-13-3.78751E-13
 -1      1839 1.99490E+01-8.98607E-04-1.96754E-04 3.57715E-02-3.95440E-14-5.14933E-13
 -1      1840 1.99636E+01 7.65045E-04 3.07567E-04 3.57747E-02-3.59279E-14-4.98105E-13
 -1      1841 1.99545E+01-2.30036E-03-3.07045E-05 4.76323E-02-9.39272E-14-4.05941E-13
 -1      1842 1.99758E+01 2.21326E-03-5.77820E-05 3.71599E-02-1.29421E-14-4.81339E-13
 -1      1843 1.99916E+01 4.10211E-03 4.97313E-04 3.90751E-02 4.07918E-14-5.09321E-13
 -1      1844 1.99784E+01 2.24000E-03-1.37794E-04 4.82453E-02-2.88630E-14-4.33362E-13
 -1      1845 2.00054E+01 5.76614E-03 8.46702E-05 4.31113E-02 5.97483E-14-5.51824E-13
 -1      1846 2.00240E+01 7.95057E-03 7.32046E-04 4.72209E-02 2.94466E-14-5.48248E-13
 -1      1847 2.00045E+01 7.40750E-03-2.62986E-04 5.44327E-02 1.93158E-14-5.95082E-13
 -1      1848 2.00407E+01 9.87924E-03 2.31293E-04 5.43160E-02 2.75748E-15-4.58068E-13
 -1      1849 2.00641E+01 1.24315E-02 1.01663E-03 6.09713E-02-2.19445E-14-4.26506E-13
 -1      1850 2.00352E+01 1.33763E-02-4.06962E-04 6.70227E-02 6.52390E-14-5.03415E-13
 -1      1851 2.00852E+01 1.46680E-02 3.82314E-04 7.16115E-02-5.59177E-15-3.87525E-13
 -1      1852 2.01157E+01 1.76486E-02 1.35359E-03 8.12256E-02 8.48265E-14-3.67675E-13
 -1      1853 2.00732E+01 2.03214E-02-5.70213E-04 8.70141E-02 4.22479E-14-3.12875E-13
 -1      1854 2.01429E+01 2.02162E-02 5.36462E-04 9.59540E-02 8.52880E-14-3.77287E-13
 -1      1855 2.01831E+01 2.36533E-02 1.74016E-03 1.08976E-01 1.13585E-13-3.68384E-13
 -1      1856 2.01217E+01 2.83792E-02-7.52140E-04 1.15552E-01 8.41110E-14-2.59905E-13
 -1      1857 2.02181E+01 2.65329E-02 6.89789E-04 1.28342E-01 8.20549E-14-3.74888E-13
 -1      1858 2.02709E+01 3.03903E-02 2.16388E-03 1.45203E-01 7.17181E-14-3.36267E-13
 -1      1859 2.01842E+01 3.75880E-02-9.50033E-04 1.53847E-01 1.04329E-13-2.87600E-13
 -1      1860 2.03158E+01 3.34865E-02 8.34341E-04 1.69666E-01 6.23559E-14-3.63551E-13
 -1      1861 2.03843E+01 3.76133E-02 2.59599E-03 1.90678E-01 2.52335E-14-3.58364E-13
 -1      1862 2.02646E+01 4.77958E-02-1.15796E-03 2.03011E-01 8.34000E-14-3.19723E-13
 -1      1863 2.04410E+01 4.07030E-02 9.56760E-04 2.20445E-01-3.91322E-14-3.39936E-13
 -1      1864 2.05283E+01 4.47570E-02 2.98205E-03 2.45634E-01-1.95059E-15-2.95284E-13
 -1      1865 2.03669E+01 5.85178E-02-1.36565E-03 2.63771E-01 4.54514E-14-3.19193E-13
 -1      1866 2.05990E+01 4.74129E-02 1.03714E-03 2.80398E-01-4.00003E-14-3.27838E-13
 -1      1867 2.07077E+01 5.07485E-02 3.22946E-03 3.09237E-01 2.34642E-14-3.45754E-13
 -1      1868 2.04953E+01 6.87225E-02-1.55760E-03 3.36000E-01-2.21632E-14-2.44363E-13
 -1      1869 2.07940E+01 5.22306E-02 1.04881E-03 3.47777E-01 7.66337E-14-3.29611E-13
 -1      1870 2.09259E+01 5.37451E-02 3.19274E-03 3.78777E-01 1.02371E-13-2.97614E-13
 -1      1871 2.06536E+01 7.65212E-02-1.71260E-03 4.17993E-01 3.26603E-14-2.21286E-13
 -1      1872 2.10290E+01 5.28598E-02 9.60196E-04 4.18373E-01 6.32282E-14-2.70264E-13
 -1      1873 2.11835E+01 5.08051E-02 2.66044E-03 4.48499E-01-7.39925E-15-2.87872E-13
 -1      1874 2.08445E+01 7.87494E-02-1.80387E-03 5.05387E-01 7.34198E-14-1.99741E-13
 -1      1875 2.13036E+01 4.57530E-02 7.40206E-04 4.84136E-01-1.01175E-13-2.73780E-13
 -1      1876 2.14769E+01 3.75635E-02 1.35356E-03 5.08041E-01-9.65338E-14-2.71483E-13
 -1      1877 2.10693E+01 7.04732E-02-1.79896E-03 5.89667E-01-6.82711E-15-2.16162E-13
 -1      1878 2.16126E+01 2.58470E-02 3.67819E-04 5.31433E-01-7.24965E-14-3.01153E-13
 -1      1879 2.17951E+01 8.12592E-03-1.04439E-03 5.40608E-01-1.19161E-13-1.98131E-13
 -1      1880 2.13264E+01 4.45797E-02-1.65708E-03 6.56249E-01-9.12376E-14-1.53037E-13
 -1      1881 2.19429E+01-1.32981E-02-1.57736E-04 5.39258E-01-1.19846E-13-1.74497E-13
 -1      1882 2.21176E+01-4.43163E-02-4.79052E-03 5.21439E-01-1.29276E-14-1.00815E-13
 -1      1883 2.16102E+01-8.12133E-03-1.31734E-03 6.82414E-01-6.96875E-14 3.71187E-15
 -1      1884 2.22703E+01-7.82708E-02-8.17320E-04 4.78302E-01-4.70836E-14-1.75034E-13
 -1      1885 2.24106E+01-1.25217E-01-9.87751E-03 4.17939E-01 2.44891E-14-1.69800E-13
 -1      1886 2.19089E+01-9.73697E-02-6.66749E-04 6.35897E-01-5.56857E-14 4.90697E-14
 -1      1887 2.25559E+01-1.72355E-01-1.61667E-03 3.12916E-01-6.13745E-15-2.81886E-13
 -1      1888 2.26253E+01-2.33458E-01-1.56864E-02 1.94152E-01-1.56160E-14-2.59038E-13
 -1      1889 2.22022E+01-2.28947E-01 5.13693E-04 4.76017E-01-5.41941E-14-2.28508E-13
 -1      1890 2.27429E+01-2.88568E-01-2.65961E-03 9.52616E-03 1.30729E-14-2.39236E-13
 -1      1891 2.26990E+01-3.52429E-01-2.05460E-02-1.76400E-01 8.60249E-14-2.57398E-13
 -1      1892 2.24573E+01-3.95409E-01 2.60041E-03 1.60810E-01-1.12475E-14-1.69779E-13
 -1      1893 2.27570E+01-3.99517E-01-4.20515E-03-4.43990E-01 3.05554E-14-2.55281E-13
 -1      1894 2.25616E+01-4.40361E-01-2.17165E-02-6.85900E-01 4.00522E-14-3.15235E-13
 -1      1895 2.26237E+01-5.62103E-01 6.04611E-03-3.34822E-01 3.90287E-14-9.28825E-14
 -1      1896 2.25179E+01-4.50461E-01-6.65115E-03-1.00685E+00 1.71737E-13-3.51883E-13
 -1      1897 2.21553E+01-4.30235E-01-1.61239E-02-1.25925E+00 1.70148E-13-2.60583E-13
 -1      1898 2.26312E+01-6.56040E-01 1.06020E-02-9.86033E-01 7.53451E-14-1.12297E-13
 -1      1899 2.19702E+01-3.68612E-01-8.90039E-03-1.55439E+00 1.35359E-13-2.59956E-13
 -1      1900 2.14680E+01-2.55597E-01-2.88765E-03-1.73298E+00 9.03392E-14-2.21431E-13
 -1      1901 2.24023E+01-5.77313E-01 1.44002E-02-1.67793E+00 1.49480E-13-2.54994E-13
 -1      1902 2.11353E+01-1.07669E-01-9.79403E-03-1.87762E+00-2.88680E-15-5.95218E-14
 -1      1903 2.05780E+01 8.56267E-02 1.23232E-02-1.88421E+00-6.39404E-14-1.13191E-13
 -1      1904 2.18919E+01-2.46880E-01 1.41133E-02-2.18705E+00 9.64524E-14-1.06320E-13
 -1      1905 2.01722E+01 2.77688E-01-5.37498E-03-1.76654E+00-2.58023E-13-1.19975E-13
 -1      1906 1.96832E+01 4.71806E-01 2.05381E-02-1.55298E+00-2.80101E-13-1.33184E-13
 -1      1907 2.11611E+01 2.80136E-01 2.28636E-03-2.23846E+00-1.66037E-13 8.79071E-14
 -1      1908 1.93497E+01 6.14572E-01 6.09984E-03-1.16767E+00-1.89199E-13-1.17729E-13
 -1      1909 1.90445E+01 7.00940E-01 1.68842E-02-7.91778E-01 2.96985E-15-7.54187E-14
 -1      1910 2.04246E+01 7.92907E-01-1.47717E-02-1.68471E+00-1.91184E-13 2.09783E-13
 -1      1911 1.89139E+01 7.07814E-01 1.95672E-02-2.85476E-01 1.53735E-13-2.14365E-13
 -1      1912 1.88450E+01 6.35572E-01 6.10748E-03 9.88256E-02 2.01809E-13-1.30394E-13
 -1      1913 1.99593E+01 1.02091E+00-2.25246E-02-6.76640E-01-2.22981E-14 2.16503E-14
 -1      1914 1.89184E+01 5.10335E-01 2.47503E-02 5.05831E-01 1.70039E-13-8.53150E-14
 -1      1915 1.90503E+01 3.38152E-01-2.28965E-03 7.49143E-01 3.56744E-13-3.14609E-14
 -1      1916 1.98996E+01 8.39585E-01-1.41333E-02 3.54737E-01 1.99538E-13-8.81153E-15
 -1      1917 1.92024E+01 1.72651E-01 1.67323E-02 9.19831E-01 3.23863E-13-1.48085E-13
 -1      1918 1.94407E+01 1.38098E-02-3.45255E-03 9.74741E-01 1.97864E-13-1.93969E-13
 -1      1919 2.01203E+01 3.94277E-01 2.39761E-03 9.89780E-01 2.41557E-13-1.64578E-14
 -1      1920 1.95354E+01-9.73312E-02 1.62778E-03 9.30011E-01 3.63470E-14-2.55958E-13
 -1      1921 1.97815E+01-1.69498E-01 1.62073E-04 8.55414E-01 7.50797E-14-2.64814E-13
 -1      1922 2.03597E+01-3.64243E-02 1.16034E-02 1.10439E+00 1.38610E-13-3.62635E-13
 -1      1923 1.97649E+01-1.95450E-01-1.04892E-02 7.15691E-01 9.70821E-14-4.04091E-13
 -1      1924 1.99560E+01-1.83206E-01 4.70237E-03 6.04664E-01 9.67516E-14-3.49067E-13
 -1      1925 2.04308E+01-2.54373E-01 9.76720E-03 8.75267E-01 7.97366E-15-3.43104E-13
 -1      1926 1.98515E+01-1.67828E-01-1.31986E-02 5.00258E-01 4.30688E-14-3.47818E-13
 -1      1927 1.99868E+01-1.45883E-01 6.72928E-03 3.99307E-01-7.42809E-15-2.88344E-13
 -1      1928 2.01285E+01-2.04723E-01 7.08013E-03 4.06157E-01-1.35637E-13-4.33186E-13
 -1      1929 2.03168E+01-2.40224E-01 1.40301E-02 5.90922E-01 6.60127E-14-5.37198E-13
 -1      1930 1.96215E+01 1.42052E-01 7.88598E-03 2.58977E-01 3.12972E-13 5.87431E-13
 -1      1931 1.98935E+01 2.04109E-01 1.64355E-02 4.31991E-01 3.56626E-13 7.26960E-13
 -1      1932 2.01048E+01 3.50567E-01-1.53038E-03 6.54472E-01 4.45317E-13 4.77764E-13
 -1      1933 1.93795E+01 7.19330E-02 6.94741E-03 5.59698E-02 2.34012E-13 4.08708E-13
 -1      1934 1.94943E+01 1.01820E-01 1.41949E-02 1.44510E-01 2.37409E-13 5.06056E-13
 -1      1935 1.97123E+01 1.65208E-01-1.94746E-03 2.55688E-01 3.22787E-13 3.16906E-13
 -1      1936 1.92893E+01 3.61491E-02 4.42857E-03-4.95044E-02 1.73735E-13 3.00547E-13
 -1      1937 1.93193E+01 5.19706E-02 8.33361E-03-2.28512E-03 1.96799E-13 3.73289E-13
 -1      1938 1.95123E+01 8.06942E-02-2.82796E-03 4.36682E-02 2.53304E-13 1.94874E-13
 -1      1939 1.92879E+01 1.62054E-02 2.86064E-03-1.01991E-01 1.09293E-13 2.15981E-13
 -1      1940 1.92725E+01 2.50693E-02 4.34742E-03-7.73605E-02 1.43586E-13 2.77894E-13
 -1      1941 1.94335E+01 3.74775E-02-2.84380E-03-6.82278E-02 1.77789E-13 1.13210E-13
 -1      1942 1.93353E+01 4.56278E-03 1.98588E-03-1.24064E-01 9.38783E-14 1.30937E-13
 -1      1943 1.92968E+01 9.60145E-03 2.14291E-03-1.12633E-01 8.09759E-14 1.83593E-13
 -1      1944 1.94271E+01 1.36361E-02-2.31345E-03-1.23758E-01 1.15750E-13 4.92633E-14
 -1      1945 1.94069E+01-2.24240E-03 1.44342E-03-1.28232E-01 8.22756E-14 5.27413E-14
 -1      1946 1.93583E+01 5.10732E-04 9.44579E-04-1.24741E-01 8.13842E-14 9.81402E-14
 -1      1947 1.94618E+01 3.58477E-05-1.69139E-03-1.46260E-01 1.16146E-13-4.34665E-14
 -1      1948 1.94875E+01-6.03074E-03 1.06147E-03-1.22023E-01 1.08698E-13-4.99655E-15
 -1      1949 1.94365E+01-4.70133E-03 2.71488E-04-1.23268E-01 8.51293E-14 4.20653E-14
 -1      1950 1.95174E+01-7.59205E-03-1.16828E-03-1.49187E-01 1.09310E-13-3.92976E-14
 -1      1951 1.95677E+01-7.87477E-03 7.76160E-04-1.10204E-01 5.73467E-14 3.68822E-14
 -1      1952 1.95188E+01-7.44348E-03-1.11826E-04-1.14126E-01 7.95162E-14 6.95770E-15
 -1      1953 1.95813E+01-1.15176E-02-7.75915E-04-1.40817E-01 7.31003E-14-5.00101E-14
 -1      1954 1.96425E+01-8.45592E-03 5.60808E-04-9.58578E-02 8.30051E-14 4.93643E-14
 -1      1955 1.95980E+01-8.58431E-03-3.20179E-04-1.01106E-01 7.83459E-14 5.44455E-14
 -1      1956 1.96457E+01-1.30865E-02-4.95210E-04-1.26448E-01 7.76737E-14-2.36288E-14
 -1      1957 1.97090E+01-8.22389E-03 4.00467E-04-8.09846E-02 3.68852E-14-4.28679E-15
 -1      1958 1.96701E+01-8.68878E-03-4.16671E-04-8.66678E-02 6.25806E-14 3.73968E-14
 -1      1959 1.97061E+01-1.31513E-02-3.00366E-04-1.09523E-01 6.58217E-14-8.23311E-14
 -1      1960 1.97663E+01-7.47720E-03 2.84859E-04-6.68688E-02 9.64615E-14-2.92273E-14
 -1      1961 1.97333E+01-8.13192E-03-4.40087E-04-7.24012E-02 5.21172E-14-3.20677E-14
 -1      1962 1.97603E+01-1.22700E-02-1.69896E-04-9.22850E-02 8.67085E-14-5.07108E-14
 -1      1963 1.98147E+01-6.40813E-03 2.06613E-04-5.43236E-02 5.68826E-14-5.61524E-14
 -1      1964 1.97872E+01-7.15961E-03-4.15607E-04-5.93232E-02 6.68112E-14-1.58775E-14
 -1      1965 1.98074E+01-1.08061E-02-8.77802E-05-7.61808E-02 7.01671E-14 4.02932E-15
 -1      1966 1.98551E+01-5.13041E-03 1.60697E-04-4.38667E-02 2.95616E-14-1.10146E-13
 -1      1967 1.98325E+01-5.92438E-03-3.59579E-04-4.80798E-02 2.57883E-14-1.15366E-13
 -1      1968 1.98477E+01-8.98573E-03-4.25485E-05-6.21397E-02 6.93102E-14-1.23197E-13
 -1      1969 1.98891E+01-3.69779E-03 1.44148E-04-3.58506E-02 3.10208E-14-2.07936E-13
 -1      1970 1.98704E+01-4.50854E-03-2.82109E-04-3.90953E-02 5.48903E-14-1.32668E-13
 -1      1971 1.98820E+01-6.93270E-03-2.63216E-05-5.07744E-02 7.44891E-14-2.04355E-13
 -1      1972 1.99186E+01-2.11701E-03 1.55934E-04-3.05623E-02 1.50729E-13-2.39079E-13
 -1      1973 1.99026E+01-2.94005E-03-1.88726E-04-3.26846E-02 6.46429E-14-2.68152E-13
 -1      1974 1.99116E+01-4.69270E-03-3.40150E-05-4.25322E-02 1.01324E-13-1.89487E-13
 -1      1975 1.99459E+01-3.56872E-04 1.96850E-04-2.83022E-02 1.07293E-13-1.62840E-13
 -1      1976 1.99313E+01-1.20361E-03-8.15383E-05-2.91407E-02 1.91140E-13-1.98869E-13
 -1      1977 1.99384E+01-2.24977E-03-6.28295E-05-3.78100E-02 1.48618E-13-2.14293E-13
 -1      1978 1.99734E+01 1.64510E-03 2.69478E-04-2.94475E-02-6.60909E-14-2.58758E-13
 -1      1979 1.99588E+01 7.51331E-04 3.99172E-05-2.88037E-02-7.47712E-15-1.84313E-13
 -1      1980 1.99645E+01 4.61844E-04-1.11846E-04-3.70463E-02 1.91626E-14-1.29563E-13
 -1      1981 2.00044E+01 3.97762E-03 3.78133E-04-3.45036E-02-1.31099E-13-2.25443E-13
 -1      1982 1.99880E+01 3.00471E-03 1.78011E-04-3.21175E-02-8.89296E-14-2.53653E-13
 -1      1983 1.99923E+01 3.54903E-03-1.81686E-04-4.07943E-02-7.19885E-14-2.30279E-13
 -1      1984 2.00423E+01 6.75121E-03 5.28745E-04-4.41465E-02-4.87061E-14-2.07968E-13
 -1      1985 2.00222E+01 5.66103E-03 3.36422E-04-3.96748E-02-1.27014E-13-2.62557E-13
 -1      1986 2.00248E+01 7.15282E-03-2.74228E-04-4.97811E-02-1.10063E-13-2.74852E-13
 -1      1987 2.00912E+01 1.00931E-02 7.28555E-04-5.92554E-02 1.17305E-13-2.48347E-13
 -1      1988 2.00650E+01 8.84451E-03 5.19516E-04-5.22538E-02 8.03185E-14-1.88749E-13
 -1      1989 2.00652E+01 1.14417E-02-3.92329E-04-6.49540E-02 5.04224E-14-2.72615E-13
 -1      1990 2.01561E+01 1.41396E-02 9.85405E-04-8.09327E-02 1.72956E-13-4.28273E-13
 -1      1991 2.01210E+01 1.26925E-02 7.31545E-04-7.08429E-02 1.48947E-13-3.63971E-13
 -1      1992 2.01175E+01 1.66025E-02-5.39533E-04-8.75117E-02 2.05728E-13-3.70022E-13
 -1      1993 2.02429E+01 1.90210E-02 1.30626E-03-1.10503E-01-6.48742E-14-4.99308E-13
 -1      1994 2.01956E+01 1.73439E-02 9.75477E-04-9.66484E-02 1.16902E-14-4.70658E-13
 -1      1995 2.01864E+01 2.28257E-02-7.19717E-04-1.18915E-01 5.54350E-14-4.44522E-13
 -1      1996 2.03582E+01 2.48349E-02 1.69425E-03-1.49477E-01-7.44282E-14-4.46293E-13
 -1      1997 2.02948E+01 2.29180E-02 1.25112E-03-1.31072E-01-6.91305E-14-4.73651E-13
 -1      1998 2.02772E+01 3.02768E-02-9.36680E-04-1.60859E-01-6.42990E-14-4.36407E-13
 -1      1999 2.05100E+01 3.15937E-02 2.14321E-03-1.99438E-01 4.92028E-14-4.50438E-13
 -1      2000 2.04259E+01 2.94730E-02 1.55210E-03-1.75637E-01-1.46775E-14-4.04553E-13
 -1      2001 2.03963E+01 3.90427E-02-1.19368E-03-2.15186E-01-5.52537E-14-4.19692E-13
 -1      2002 2.07070E+01 3.91278E-02 2.62792E-03-2.61815E-01-2.75806E-14-2.07558E-13
 -1      2003 2.05971E+01 3.69302E-02 1.86095E-03-2.31810E-01 3.47973E-14-3.27546E-13
 -1      2004 2.05503E+01 4.90311E-02-1.49293E-03-2.83678E-01-2.08115E-14-1.90359E-13
 -1      2005 2.09581E+01 4.69113E-02 3.08807E-03-3.37417E-01-1.14065E-13-2.41771E-13
 -1      2006 2.08171E+01 4.49340E-02 2.14171E-03-3.00653E-01-8.05645E-14-2.07838E-13
 -1      2007 2.07469E+01 5.97863E-02-1.83506E-03-3.67647E-01-5.40197E-14-2.04219E-13
 -1      2008 2.12719E+01 5.37621E-02 3.40425E-03-4.25584E-01 7.38147E-15-1.50318E-13
 -1      2009 2.10949E+01 5.26078E-02 2.32953E-03-3.82166E-01-5.38031E-14-1.62671E-13
 -1      2010 2.09931E+01 7.01652E-02-2.21816E-03-4.67173E-01-5.53238E-14-9.61282E-14
 -1      2011 2.16546E+01 5.73573E-02 3.36785E-03-5.22696E-01 8.95768E-15-1.23305E-13
 -1      2012 2.14381E+01 5.81463E-02 2.31867E-03-4.74123E-01-2.96794E-14-1.40311E-13
 -1      2013 2.12956E+01 7.77983E-02-2.63501E-03-5.79771E-01-2.66124E-14 1.51042E-14
 -1      2014 2.21072E+01 5.35306E-02 2.65673E-03-6.19723E-01-5.45052E-14-1.20600E-13
 -1      2015 2.18512E+01 5.81947E-02 1.95441E-03-5.70122E-01-1.39431E-14-1.04948E-13
 -1      2016 2.16580E+01 7.82631E-02-3.06466E-03-6.98157E-01 3.13703E-15-1.19440E-13
 -1      2017 2.26205E+01 3.54596E-02 8.50714E-04-6.98547E-01-4.44692E-14-1.78755E-13
 -1      2018 2.23320E+01 4.70367E-02 1.04210E-03-6.56569E-01-5.29936E-14-1.50645E-13
 -1      2019 2.20794E+01 6.40022E-02-3.44946E-03-8.06817E-01-3.51749E-14-1.21754E-13
 -1      2020 2.31689E+01-6.73255E-03-2.44474E-03-7.27240E-01-5.32822E-14-2.23972E-13
 -1      2021 2.28662E+01 1.58921E-02-6.04317E-04-7.08567E-01-5.53241E-14-2.02376E-13
 -1      2022 2.25504E+01 2.33732E-02-3.64263E-03-8.77281E-01 1.22351E-14-2.01342E-13
 -1      2023 2.37020E+01-8.44830E-02-7.26394E-03-6.55986E-01-2.90432E-14 1.15749E-13
 -1      2024 2.34202E+01-4.66806E-02-3.05500E-03-6.85604E-01-4.06207E-14 5.44304E-14
 -1      2025 2.30486E+01-5.88667E-02-3.31204E-03-8.63051E-01-1.34096E-13 8.66104E-15
 -1      2026 2.41367E+01-2.04402E-01-1.26852E-02-4.18734E-01 3.66157E-14 7.94018E-14
 -1      2027 2.39321E+01-1.50928E-01-6.09938E-03-5.30342E-01 3.09423E-14 1.29551E-13
 -1      2028 2.35323E+01-1.96613E-01-1.81142E-03-6.97574E-01 4.01797E-14 2.03422E-13
 -1      2029 2.43547E+01-3.53317E-01-1.62983E-02 4.87220E-02-8.20576E-14 2.01944E-13
 -1      2030 2.43028E+01-2.94827E-01-9.16927E-03-1.78180E-01 5.27980E-14 1.32979E-13
 -1      2031 2.39331E+01-3.88082E-01 1.82219E-03-3.03452E-01 2.42315E-14 4.49309E-13
 -1      2032 2.42135E+01-4.76183E-01-1.47736E-02 7.59460E-01-7.95995E-14 3.20864E-13
 -1      2033 2.43943E+01-4.43500E-01-1.15616E-02 4.09775E-01-1.31700E-13 2.36432E-13
 -1      2034 2.41482E+01-5.89116E-01 8.26110E-03 3.72987E-01-6.33590E-14 6.20132E-13
 -1      2035 2.35880E+01-4.67186E-01-6.52567E-03 1.59393E+00 2.99205E-14 3.93355E-13
 -1      2036 2.40521E+01-5.09724E-01-1.26536E-02 1.18146E+00-5.48259E-14 3.75444E-13
 -1      2037 2.40437E+01-6.88223E-01 1.60442E-02 1.28878E+00-8.26006E-14 5.01437E-13
 -1      2038 2.24550E+01-2.18094E-01 3.47108E-03 2.23730E+00-1.53945E-13 4.20365E-13
 -1      2039 2.31768E+01-3.71170E-01-1.13530E-02 1.91979E+00-7.64493E-14 2.85705E-13
 -1      2040 2.34969E+01-5.26758E-01 2.01122E-02 2.21237E+00-8.47725E-14 5.32551E-13
 -1      2041 2.10157E+01 2.48897E-01 2.39156E-03 2.26527E+00-2.97930E-14 6.62262E-13
 -1      2042 2.18524E+01 2.68792E-02-7.05330E-03 2.24815E+00-3.65280E-14 5.29885E-13
 -1      2043 2.25076E+01-2.35326E-02 1.23639E-02 2.70506E+00-1.25281E-13 5.38264E-13
 -1      2044 1.97359E+01 6.76072E-01-1.69487E-02 1.46002E+00-2.31759E-14 3.64034E-13
 -1      2045 2.04421E+01 5.29701E-01-1.36712E-03 1.83626E+00-7.20604E-14 4.55068E-13
 -1      2046 2.13369E+01 6.50068E-01-9.38313E-03 2.33225E+00 2.10509E-14 5.17763E-13
 -1      2047 1.91316E+01 7.49583E-01-3.30172E-02 1.81252E-01 3.93782E-15 1.21224E-13
 -1      2048 1.94785E+01 7.83317E-01 4.47301E-03 7.64188E-01 1.04680E-13 2.77246E-13
 -1      2049 2.04802E+01 1.06360E+00-2.69233E-02 1.09777E+00 7.40519E-14 3.08778E-13
 -1      2050 1.93429E+01 4.11173E-01-2.44415E-02-8.79939E-01 3.40061E-13-2.79329E-13
 -1      2051 1.92598E+01 6.12472E-01 1.15390E-02-4.16922E-01 1.15217E-13-4.34479E-14
 -1      2052 2.02779E+01 9.31904E-01-1.64089E-02-3.51774E-01 2.68209E-13-5.61183E-16
 -1      2053 1.99682E+01-4.08000E-02-2.04542E-03-1.20569E+00 5.01658E-13-2.01981E-13
 -1      2054 1.96213E+01 1.60100E-01 6.95481E-03-1.06778E+00 4.69959E-13-1.38656E-13
 -1      2055 2.05961E+01 3.52144E-01 2.36178E-03-1.22169E+00 4.42642E-13-5.55615E-14
 -1      2056 2.04870E+01-3.00535E-01 1.63287E-02-8.72640E-01 1.60430E-13 4.39856E-14
 -1      2057 2.01278E+01-2.21308E-01-3.88401E-03-1.01166E+00 3.19290E-13 1.46955E-13
 -1      2058 2.09690E+01-2.17558E-01 8.65294E-03-1.21605E+00 1.96414E-13 3.11815E-13
 -1      2059 2.06317E+01-2.79859E-01 2.34386E-02-3.25533E-01 4.68731E-14 8.90106E-14
 -1      2060 2.04255E+01-3.25712E-01-9.74991E-03-5.44275E-01 1.07926E-13 1.15250E-13
 -1      2061 2.10602E+01-4.50110E-01 2.36728E-03-6.67170E-01 1.50114E-13 3.58331E-13
 -1      2062 2.04455E+01-8.86006E-02 2.01715E-02 2.46327E-02 1.45824E-13 3.78898E-14
 -1      2063 2.04144E+01-1.92650E-01-8.45362E-03-9.63050E-02 2.27891E-14 1.38858E-13
 -1      2064 2.08258E+01-3.27050E-01-4.91544E-03-1.03095E-01 1.15346E-13 3.66340E-13
 -1      2065 2.02206E+01 4.73349E-02 1.28964E-02 8.65300E-02 6.49029E-14 2.28838E-13
 -1      2066 2.02788E+01-4.19285E-02-7.97683E-03 8.07434E-02 2.20332E-13 2.19528E-13
 -1      2067 2.05272E+01-1.21969E-01-9.77072E-03 1.45330E-01 1.57313E-13 3.98969E-13
 -1      2068 2.02967E+01 1.06663E-01 1.63470E-02 1.62786E-01 4.18754E-14 6.35962E-13
 -1      2069 2.08505E+01 1.83536E+00 1.68110E-02 2.75600E+00 9.87231E-15 7.98129E-14
 -1      2070 2.09400E+01 1.04995E+00 9.75810E-03 2.26127E+00-1.78088E-13 4.83811E-13
 -1      2071 2.09048E+01 8.18090E-01 3.18953E-02 1.61533E+00-6.35681E-14 4.10486E-13
 -1      2072 2.08003E+01 3.34413E-01 2.17064E-03 1.14502E+00-1.47678E-13 3.57004E-13
 -1      2073 2.13452E+01 2.36157E-01-2.14306E-02 2.31828E+00-2.92070E-13 3.63366E-13
 -1      2074 2.06296E+01 3.42595E-01 3.12163E-02 7.07851E-01-8.12154E-14 3.23724E-13
 -1      2075 2.04666E+01 1.17200E-01 6.35386E-03 4.06088E-01 1.65458E-14 4.68228E-13
 -1      2076 2.06122E+01 1.84798E-02 1.05694E-04 4.33296E-01 7.51205E-14 3.58579E-13
 -1      2077 2.11094E+01 1.80051E-02 2.15603E-03 1.15284E+00-1.25886E-13 3.77037E-13
 -1      2078 2.02423E+01 3.32513E+00-2.23797E-02 3.51898E+00-2.57464E-13-5.68010E-13
 -1      2079 2.06304E+01 2.37141E+00 2.53502E-02 3.28715E+00-2.53467E-13-1.58616E-13
 -1      2080 2.10444E+01 9.90131E-01-2.45514E-02 3.65724E+00-2.80803E-13-2.42776E-13
 -1      2081 1.91463E+01 5.07590E+00-5.60788E-02 3.23087E+00-1.48570E-13-3.93512E-13
 -1      2082 1.97465E+01 4.17261E+00 3.50036E-02 3.54367E+00-2.21285E-13-2.87135E-13
 -1      2083 1.99372E+01 2.33917E+00-4.16180E-03 4.34434E+00-2.92820E-13-3.41742E-13
 -1      2084 1.81874E+01 6.40080E+00-5.01671E-02 1.53446E+00 6.99571E-14 4.37830E-13
 -1      2085 1.86111E+01 5.89666E+00 1.98432E-02 2.43410E+00 1.82632E-14 1.73500E-13
 -1      2086 1.83637E+01 3.99384E+00 5.69577E-02 3.53597E+00 1.10410E-13-3.61308E-14
 -1      2087 1.80578E+01 6.57145E+00-1.26394E-02-9.62885E-01 1.01957E-13 3.87572E-13
 -1      2088 1.79874E+01 6.67854E+00-2.38007E-02 1.54024E-01 2.76827E-14 3.74978E-13
 -1      2089 1.72429E+01 5.07882E+00 9.67510E-02 1.05852E+00 2.02744E-13 4.16903E-13
 -1      2090 1.88783E+01 5.39581E+00 2.39119E-02-3.02352E+00 1.47705E-13-6.06459E-14
 -1      2091 1.83680E+01 6.08297E+00-5.89430E-02-2.24760E+00 1.63402E-13 2.48229E-13
 -1      2092 1.73938E+01 4.86740E+00 7.73321E-02-2.01420E+00-4.43660E-14 3.89067E-13
 -1      2093 2.00301E+01 3.48107E+00 3.51804E-02-3.74975E+00 9.29118E-14-2.73053E-13
 -1      2094 1.94520E+01 4.48215E+00-5.01584E-02-3.60558E+00 1.42584E-13-1.28512E-13
 -1      2095 1.87553E+01 3.48775E+00 3.48069E-02-4.11511E+00-1.50446E-13-9.65547E-14
 -1      2096 2.07781E+01 1.71428E+00 2.31859E-02-3.21867E+00 1.09704E-13-2.18959E-13
 -1      2097 2.04584E+01 2.68498E+00-1.02014E-02-3.55319E+00 1.56545E-13-2.90541E-13
 -1      2098 2.03042E+01 1.80371E+00-1.11763E-02-4.47499E+00 1.91853E-13-1.95071E-13
 -1      2099 2.09933E+01 4.80454E-01 1.23805E-02-2.06086E+00 2.91388E-13 1.86354E-13
 -1      2100 2.09474E+01 1.22204E+00 2.45143E-02-2.59986E+00 2.16379E-13 1.24883E-13
 -1      2101 2.12306E+01 5.41477E-01-2.64373E-02-3.51460E+00 2.72866E-13 1.31934E-14
 -1      2102 2.08206E+01-1.42613E-01 3.91528E-03-8.91815E-01 4.01908E-13 7.99170E-14
 -1      2103 2.09482E+01 2.83913E-01 4.05390E-02-1.38767E+00 4.26176E-13-8.70189E-14
 -1      2104 2.14275E+01-1.36562E-01-1.67676E-02-2.06479E+00 3.21717E-13 1.66251E-13
 -1      2105 2.04601E+01-3.03561E-01-4.30128E-05-4.41442E-02 5.90240E-15-1.57506E-13
 -1      2106 2.06662E+01-1.54832E-01 3.72938E-02-3.83203E-01 2.28355E-13 2.60243E-14
 -1      2107 2.11119E+01-3.63391E-01-8.48528E-03-7.64805E-01 1.77725E-13-1.06909E-13
 -1      2108 1.33276E+01-6.40783E+00-1.84482E-01 8.02329E+00 1.64424E-13 3.90604E-13
 -1      2109 8.39171E+00-7.95542E+00-4.35804E-01 6.48070E+00 1.93068E-13 2.82080E-13
 -1      2110 7.01477E-01-8.41931E+00-5.14112E-01 1.03899E+00-3.21465E-13 1.66533E-13
 -1      2111 7.93861E-01-7.76684E+00-4.12180E-01-1.11385E+00-5.65575E-13 3.30125E-13
 -1      2112 4.18542E+00-7.30518E+00-3.32301E-01 5.16445E+00 4.93494E-14 2.35756E-13
 -1      2113 1.77811E+00-8.75743E+00-5.65053E-01 3.03565E+00-1.66339E-13 1.80855E-13
 -1      2114 2.98521E+00-5.25003E+00-2.48001E-01 2.62419E+00-1.55931E-13 3.96905E-13
 -1      2115 2.35432E+01-3.24498E+00 1.32282E-01 8.05495E+00 1.84963E-13 1.96509E-13
 -1      2116 1.90215E+01-5.73152E+00-1.04528E-01 7.66476E+00 2.12830E-13 3.07948E-13
 -1      2117 3.20526E+01 5.01068E-01 3.11363E-01 7.03600E+00 7.53841E-14 3.87468E-14
 -1      2118 2.67127E+01-1.82678E+00-9.60222E-02 6.82443E+00 7.93809E-14 1.78968E-13
 -1      2119 1.95240E+01 4.01768E+00-2.49881E-02-1.69944E+00-3.92955E-13-7.66661E-13
 -1      2120 1.96482E+01 3.94395E+00-2.46549E-02-1.95576E+00-4.69782E-13-6.79994E-13
 -1      2121 1.99644E+01 3.23750E+00-1.87405E-02-1.92526E+00-5.09105E-13-5.88318E-13
 -1      2122 1.96950E+01 3.58960E+00-6.67636E-03-1.51977E+00-3.95737E-13-7.36924E-13
 -1      2123 4.18959E+01 6.87348E+00 3.52207E-01 2.10452E+00 6.00853E-13-8.70498E-13
 -1      2124 3.96974E+01 5.82875E+00 2.23761E-01 2.93033E+00 3.66929E-13-5.66103E-13
 -1      2125 4.35762E+01 7.62307E+00 4.20291E-01 8.02711E-01 6.16174E-13-9.72486E-13
 -1      2126 4.28628E+01 7.79157E+00 3.28583E-01 1.98516E+00 6.03351E-13-9.79494E-13
 -1      2127 4.00983E+01 6.16235E+00 2.25840E-01-3.10451E-01 7.51732E-13-9.56957E-13
 -1      2128 4.34592E+01 7.13039E+00 5.58608E-01 3.20138E-01 6.56364E-13-9.77385E-13
 -1      2129 3.84470E+01 8.37129E+00 3.65170E-01 1.46674E+00 6.96665E-13-7.49692E-13
 -1      2130 3.54981E+01 2.23468E+00 1.74008E-01-2.95441E+00 3.35884E-13-1.19238E-12
 -1      2131 3.86077E+01 3.65273E+00 1.83623E-01-1.34651E+00 5.07677E-13-1.01918E-12
 -1      2132 2.75260E+01-1.71085E+00-1.28613E-01-4.64315E+00 2.44027E-13-1.07803E-12
 -1      2133 3.28548E+01 2.97850E-01 2.44220E-01-4.52705E+00 3.39839E-13-1.11300E-12
 -1      2134 1.93050E+01-5.58618E+00-2.42597E-01-5.51825E+00 3.94129E-15-8.10185E-13
 -1      2135 2.44031E+01-3.27338E+00 1.04365E-01-5.93724E+00 1.93789E-13-1.02551E-12
 -1      2136 1.10637E+01-7.36319E+00-1.78052E-01-5.93299E+00 9.45910E-14-4.75384E-13
 -1      2137 1.51168E+01-6.03184E+00-4.06771E-02-6.53301E+00 9.93650E-14-5.32102E-13
 -1      2138 2.75428E+00-9.11043E+00-5.32696E-01-3.40802E+00 2.86438E-13-3.67928E-13
 -1      2139 5.96496E+00-7.38699E+00-2.47266E-01-5.10166E+00 2.98372E-13-4.04787E-13
 -1      2140-1.06207E-01-8.90629E+00-4.08350E-01-7.32308E-01 1.47472E-13-3.67928E-13
 -1      2141 8.66940E-01-8.83826E+00-4.09022E-01-2.16631E+00 2.40030E-13-4.34264E-13
 -1      2142 3.27994E+00-6.51234E+00-1.64864E-01-3.68635E+00 2.73753E-13-4.43257E-13
 -1      2143 1.55260E+00-7.79163E+00-2.53505E-01 2.97583E+00-5.74540E-14-4.85112E-13
 -1      2144 3.78909E-01-8.30874E+00-3.29409E-01 1.30589E+00 3.80598E-14-4.92106E-13
 -1      2145 6.67290E+00-7.08463E+00-2.16175E-01 5.66609E+00-1.04361E-13-5.12840E-13
 -1      2146 3.47229E+00-8.64743E+00-4.40504E-01 4.19821E+00-6.47260E-14-4.97935E-13
 -1      2147 1.58055E+01-5.37414E+00-5.31789E-02 6.94812E+00-4.44755E-13-3.65957E-13
 -1      2148 1.13726E+01-7.19904E+00-3.16024E-01 6.09078E+00-2.67453E-13-2.88596E-13
 -1      2149 2.50656E+01-2.84555E+00 9.30957E-02 6.21169E+00-3.11196E-13-8.91676E-13
 -1      2150 1.99324E+01-4.93288E+00-2.45070E-01 5.91251E+00-3.42837E-13-6.32716E-13
 -1      2151 3.33865E+01 8.32017E-01 2.24535E-01 4.43378E+00-4.26881E-13-7.94365E-13
 -1      2152 2.83260E+01-1.19184E+00-1.16482E-01 4.69810E+00-4.41258E-13-8.00471E-13
 -1      2153 3.98721E+01 4.59062E+00 3.74468E-01 2.14434E+00-4.13863E-13-6.78846E-13
 -1      2154 3.56388E+01 2.95094E+00 4.30561E-02 2.78690E+00-4.89844E-13-6.55143E-13
 -1      2155 4.33488E+01 7.12333E+00 4.23735E-01 2.59429E-02-3.36564E-13-5.73264E-13
 -1      2156 4.11532E+01 6.30345E+00 2.52201E-01 1.33246E+00-4.01068E-13-5.92193E-13
 -1      2157 4.30491E+01 7.77984E+00 3.42838E-01-1.87698E+00-1.11855E-13-6.07181E-13
 -1      2158 4.38678E+01 7.75191E+00 4.37457E-01-5.48372E-01-2.73115E-13-6.31495E-13
 -1      2159 3.98075E+01 5.90235E+00 2.39490E-01-3.34561E+00-1.65645E-13-3.81639E-13
 -1      2160 4.23284E+01 6.91830E+00 4.08363E-01-2.38921E+00-7.77711E-14-4.12781E-13
 -1      2161 3.41694E+01 2.10630E+00 9.20978E-02-5.32193E+00-3.22714E-13-3.10751E-13
 -1      2162 3.83940E+01 3.87921E+00 3.48765E-01-4.57011E+00-9.89764E-14-2.80220E-13
 -1      2163 2.71762E+01-2.51314E+00 1.13132E-02-6.41814E+00-4.63518E-13-6.16673E-13
 -1      2164 3.19294E+01 3.12086E-01 3.37103E-01-6.72329E+00-5.30520E-13-6.93556E-13
 -1      2165 3.32187E+01-5.87233E-01 1.33211E-01-3.45348E+00-3.30347E-13-5.97855E-13
 -1      2166 1.63937E+01-6.11019E+00-3.31457E-01-7.45013E+00-5.85310E-13 4.89331E-14
 -1      2167 2.19021E+01-4.51771E+00-1.01204E-01-7.94198E+00-4.80727E-13-3.07643E-13
 -1      2168 8.25823E+00-8.07099E+00-5.00276E-01-6.39351E+00-4.20108E-13 6.84647E-13
 -1      2169 1.24576E+01-6.10889E+00-1.69519E-01-7.76754E+00-4.84057E-13 3.84887E-13
 -1      2170 1.72258E+01-6.46853E+00-6.21937E-03-8.44108E+00-1.53488E-13-2.42480E-14
 -1      2171 2.25669E+00-8.38417E+00-4.85242E-01-3.77254E+00-6.98275E-13 4.16833E-13
 -1      2172 4.55432E+00-7.81106E+00-4.16231E-01-5.42241E+00-5.69544E-13 8.13349E-13
 -1      2173 3.90303E+01 3.96134E+00 3.48499E-01 4.64900E+00 2.23058E-13-2.16049E-13
 -1      2174 3.48371E+01 2.38619E+00 1.54699E-01 5.47139E+00 1.80217E-13-9.74776E-14
 -1      2175 3.37437E+01-2.30517E-01 2.49948E-01 3.94301E+00 1.83450E-13-6.32827E-14
 -1      2176 2.07370E+01 1.10846E+00-2.09077E-02-1.61527E+00-5.49970E-13 2.71436E-13
 -1      2177 3.69599E+01 4.51752E+00 3.06909E-01 1.40259E+00 4.42646E-13-5.74762E-13
 -1      2178 2.06283E+01 1.33220E+00-1.78614E-02-1.67689E+00-5.75822E-13-1.31978E-14
 -1      2179 8.41375E+00-6.04623E+00-1.24247E-01 6.91273E+00 9.53126E-14 4.60076E-13
 -1      2180 2.18052E+01-6.58112E+00-1.60469E-01 7.77676E+00 1.01363E-13 2.29899E-13
 -1      2181 1.77414E+01-6.39291E+00-6.19284E-02 8.07031E+00 4.91829E-14 2.03226E-13
 -1      2182 1.71271E+01-6.07775E+00 1.84587E-01 8.56187E+00 6.36158E-14 1.42983E-13
 -1      2183 2.04121E+01-2.75124E-01 3.90631E-03 1.09877E-01-4.88108E-14-2.74500E-13
 -1      2184 3.13336E+00-5.54886E+00-2.51963E-01-2.96909E+00-3.62876E-13 5.20362E-13
 -1      2185 2.72749E+01-4.54180E+00-5.10746E-03 6.30472E+00 4.70179E-14 9.24816E-14
 -1      2186 8.82739E+00-6.50411E+00-2.25598E-01-7.29833E+00-2.22933E-13 4.40398E-13
 -1      2187 2.57787E+01-4.37225E+00 3.77304E-02-6.77072E+00-3.36786E-13-6.20837E-13
 -1      2188 2.86372E+01-4.77428E+00-1.75978E-01-5.06844E+00-1.48742E-13-1.15949E-12
 -1      2189 2.46829E+01-5.72772E+00 1.77601E-01-7.11876E+00-2.04337E-13-7.85885E-13
 -1      2190 3.69377E+01 4.38078E+00 2.87808E-01-1.52851E+00-1.25261E-13-3.28126E-13
 -1      2191 3.87008E+01 8.08762E+00 3.58515E-01-8.01042E-01-2.03948E-13-2.38282E-13
 -1      2192 3.89849E+01 8.53918E+00 3.98448E-01-9.90354E-01-2.84328E-13-4.27353E-13
 -1      2193 3.72914E+01 5.67176E+00 3.04953E-01-7.64015E-01-3.66540E-13-2.39475E-13
 -1      2194 3.40160E+01 8.18425E-01 1.89072E-01 1.00249E+00-3.14054E-13-3.45557E-13
 -1      2195 2.82642E+01-3.79780E+00 8.39919E-02 3.75593E+00-6.62803E-14-5.35350E-13
 -1      2196 2.05713E+01-6.34598E+00 9.79722E-03 6.28156E+00-1.11300E-13-4.43867E-13
 -1      2197 1.12900E+01-6.85990E+00-8.46415E-02 6.81704E+00 5.22915E-14-3.59532E-13
 -1      2198 1.42607E+00-5.82818E+00-1.49505E-01 3.95098E-01 1.02453E-13-5.83145E-13
 -1      2199 9.87616E+00-7.01277E+00-1.08105E-01-6.00993E+00 1.59761E-13-4.63851E-13
 -1      2200 1.37461E+01-6.64980E+00-7.02863E-02-6.63039E+00 7.94920E-14-2.56670E-13
 -1      2201 9.16394E+00-5.87805E+00 1.26754E-01-6.09918E+00 2.08167E-13-2.58460E-13
 -1      2202 1.98785E+01-6.85115E+00-7.31983E-02-5.91361E+00-1.89404E-13-6.77208E-13
 -1      2203 2.77692E+01-4.33472E+00 4.65753E-02-3.60033E+00-3.48055E-14-7.12819E-13
 -1      2204 3.79860E+01 4.84451E+00 2.72293E-01 4.45106E-01 6.56419E-13-6.18949E-13
 -1      2205 3.51698E+01 5.65130E+00-8.18780E-02 2.36549E+00 5.40068E-13-2.92655E-13
 -1      2206 3.47470E+01 3.26318E+00 8.99651E-02 1.56866E+00 3.18912E-13-3.26184E-13
 -1      2207 3.79177E+01 7.96040E+00 3.08885E-01 6.86191E-01 7.45959E-13-9.76497E-13
 -1      2208 3.37524E+01-1.00328E-02 2.36026E-01-1.12122E+00 7.11271E-14-8.39995E-13
 -1      2209 4.07335E+00-6.20465E+00-1.58369E-01 4.45166E+00 7.59670E-14-5.51004E-13
 -1      2210 2.01493E+01 5.06472E-01 3.73829E-03 6.77493E-01 4.53762E-13 2.10346E-13
 -1      2211 2.04171E+01 7.00000E-01 2.07901E-02 9.69112E-01 5.09542E-13 2.94122E-13
 -1      2212 1.95590E+01 3.51619E+00-1.11162E-02-5.91256E-01-1.23280E-13-8.14794E-13
 -1      2213 1.95947E+01 3.47013E+00-1.05066E-02-7.75644E-01-1.93655E-13-8.18543E-13
 -1      2214 1.96418E+01 3.38153E+00-1.27983E-02-9.39867E-01-2.37234E-13-7.95335E-13
 -1      2215 1.97029E+01 3.30091E+00-1.27720E-02-1.12977E+00-3.06335E-13-7.65682E-13
 -1      2216 1.97861E+01 3.03339E+00 2.92118E-04-7.91551E-01-2.08645E-13-7.53261E-13
 -1      2217 1.95115E+01 3.59878E+00-9.61511E-03 9.94369E-02 9.99852E-14-8.02100E-13
 -1      2218 1.95108E+01 3.59960E+00-9.62283E-03-8.00311E-02 3.42552E-14-8.14024E-13
 -1      2219 1.95377E+01 3.55938E+00-9.71835E-03 4.45461E-01 2.12322E-13-7.74759E-13
 -1      2220 1.95202E+01 3.58194E+00-1.01359E-02 2.64639E-01 1.47827E-13-7.95157E-13
 -1      2221 1.96777E+01 3.22152E+00-8.98513E-04 1.69568E-01 1.13522E-13-7.54298E-13
 -1      2222 1.95998E+01 3.46286E+00-1.06098E-02 7.89406E-01 3.21827E-13-7.26768E-13
 -1      2223 1.95634E+01 3.50986E+00-1.12069E-02 6.07981E-01 2.58891E-13-7.52794E-13
 -1      2224 1.97146E+01 3.15801E+00-4.99497E-04 4.87990E-01 2.25359E-13-7.06847E-13
 -1      2225 1.97109E+01 3.28910E+00-1.29489E-02 1.14268E+00 4.61273E-13-6.33272E-13
 -1      2226 1.96480E+01 3.37244E+00-1.28824E-02 9.53439E-01 3.84261E-13-6.86372E-13
 -1      2227 1.97919E+01 3.02435E+00 2.65577E-04 8.03615E-01 3.49650E-13-6.50771E-13
 -1      2228 1.98906E+01 3.00347E+00-1.81720E-02 1.48975E+00 5.58189E-13-5.13198E-13
 -1      2229 1.97908E+01 3.14475E+00-1.51859E-02 1.29932E+00 4.92045E-13-5.84669E-13
 -1      2230 1.99215E+01 2.79914E+00 1.92953E-03 1.10979E+00 4.61948E-13-5.58513E-13
 -1      2231 2.01695E+01 2.54394E+00-2.83941E-02 1.79408E+00 6.34737E-13-3.06598E-13
 -1      2232 2.00180E+01 2.78331E+00-1.70947E-02 1.61962E+00 5.78961E-13-4.22972E-13
 -1      2233 2.01168E+01 2.44852E+00 5.85253E-03 1.37560E+00 5.39513E-13-4.25670E-13
 -1      2234 1.98722E+01 2.68271E-01 4.72688E-03 2.84929E-01 3.40928E-13 1.07418E-13
 -1      2235 2.00329E+01 3.68028E-01 2.01681E-02 4.42102E-01 3.97151E-13 1.88478E-13
 -1      2236 2.02116E+01 6.34678E-01-2.22218E-03 7.04344E-01 4.73704E-13 2.50286E-14
 -1      2237 2.04028E+01 8.55668E-01 1.35229E-02-9.99101E-01-4.70181E-13-1.36517E-13
 -1      2238 2.01904E+01 6.26995E-01-4.67952E-03-6.91249E-01-4.21656E-13-1.56150E-13
 -1      2239 3.39516E+01 4.14736E+00-1.54551E-01-3.83279E-01 6.30163E-13-7.28972E-13
 -1      2240 3.42032E+01 1.95068E+00-9.05469E-03 5.47820E-01 3.62876E-13-5.09426E-13
 -1      2241 2.01253E+01 4.69863E-01 1.62012E-02-4.74330E-01-3.82062E-13-1.24122E-13
 -1      2242 1.99846E+01 3.44445E-01 8.52757E-05-3.02926E-01-3.26964E-13-1.62082E-13
 -1      2243 2.02458E+01 7.49406E-01-6.71871E-04-6.93393E-01-4.22957E-13-2.29129E-13
 -1      2244 1.99210E+01 2.59403E-01 1.08805E-02-1.65673E-01-2.89542E-13-1.41812E-13
 -1      2245 1.98424E+01 1.87890E-01 7.25720E-04-6.85295E-02-2.17607E-13-1.70030E-13
 -1      2246 2.00812E+01 4.16039E-01-3.62473E-03-3.10047E-01-3.21237E-13-2.10689E-13
 -1      2247 1.97979E+01 1.38378E-01 6.40218E-03 1.34411E-02-1.74954E-13-1.75504E-13
 -1      2248 1.97628E+01 9.60162E-02 7.16892E-04 6.66552E-02-1.80461E-13-1.76182E-13
 -1      2249 1.99602E+01 2.27039E-01-3.60509E-03-7.11877E-02-2.29755E-13-2.06583E-13
 -1      2250 1.97368E+01 6.60841E-02 3.57845E-03 1.12255E-01-1.74225E-13-1.84717E-13
 -1      2251 1.97294E+01 4.05008E-02 6.08900E-04 1.38698E-01-1.42623E-13-2.04366E-13
 -1      2252 1.98843E+01 1.14542E-01-2.92516E-03 6.92878E-02-2.05364E-13-2.41448E-13
 -1      2253 1.97176E+01 2.21861E-02 1.85587E-03 1.60785E-01-1.50991E-13-2.16781E-13
 -1      2254 1.97266E+01 6.86694E-03 4.84546E-04 1.70744E-01-1.20841E-13-2.56663E-13
 -1      2255 1.98445E+01 4.62917E-02-2.11504E-03 1.45218E-01-1.68785E-13-2.46952E-13
 -1      2256 1.97245E+01-4.11077E-03 7.92991E-04 1.77913E-01-1.11566E-13-2.76075E-13
 -1      2257 1.97424E+01-1.28664E-02 3.66844E-04 1.77884E-01-9.91764E-14-2.78936E-13
 -1      2258 1.98301E+01 5.02845E-03-1.42796E-03 1.79411E-01-1.37623E-13-3.26649E-13
 -1      2259 1.97463E+01-1.90543E-02 1.43101E-04 1.75941E-01-1.30062E-13-2.53004E-13
 -1      2260 1.97682E+01-2.35295E-02 2.68010E-04 1.70153E-01-1.46623E-13-2.43267E-13
 -1      2261 1.98323E+01-1.89764E-02-9.08564E-04 1.87339E-01-1.15973E-13-2.94662E-13
 -1      2262 1.97755E+01-2.65472E-02-2.39803E-04 1.63023E-01-1.35077E-13-2.52094E-13
 -1      2263 1.97982E+01-2.82189E-02 1.94087E-04 1.54272E-01-7.75887E-14-2.60484E-13
 -1      2264 1.98442E+01-3.17019E-02-5.39578E-04 1.79493E-01-1.42950E-13-2.53447E-13
 -1      2265 1.98071E+01-2.91384E-02-4.46822E-04 1.44608E-01-3.68370E-14-2.70034E-13
 -1      2266 1.98290E+01-2.89868E-02 1.45891E-04 1.34750E-01-4.67583E-14-2.47726E-13
 -1      2267 1.98614E+01-3.70024E-02-2.89817E-04 1.62990E-01-8.24878E-14-2.15604E-13
 -1      2268 1.98383E+01-2.85288E-02-5.38303E-04 1.24332E-01-6.69435E-14-2.41949E-13
 -1      2269 1.98583E+01-2.72056E-02 1.22128E-04 1.14593E-01 3.28532E-15-2.22054E-13
 -1      2270 1.98806E+01-3.74330E-02-1.30282E-04 1.42651E-01-5.58395E-14-1.69164E-13
 -1      2271 1.98674E+01-2.58497E-02-5.55519E-04 1.04611E-01 2.98890E-15-2.96739E-13
 -1      2272 1.98851E+01-2.37762E-02 1.21588E-04 9.57977E-02-5.70197E-14-2.88215E-13
 -1      2273 1.99000E+01-3.46957E-02-3.76262E-05 1.21720E-01-4.96471E-14-2.12956E-13
 -1      2274 1.98937E+01-2.18276E-02-5.27003E-04 8.70471E-02-9.82048E-14-3.09518E-13
 -1      2275 1.99094E+01-1.92562E-02 1.44055E-04 7.96974E-02-8.44663E-14-2.83539E-13
 -1      2276 1.99185E+01-2.98976E-02 5.80303E-06 1.02371E-01-7.45690E-14-3.19294E-13
 -1      2277 1.99174E+01-1.68898E-02-4.72365E-04 7.27243E-02-1.27433E-13-2.79110E-13
 -1      2278 1.99314E+01-1.39462E-02 1.90565E-04 6.72202E-02-1.37798E-13-3.13976E-13
 -1      2279 1.99360E+01-2.37118E-02 1.27581E-05 8.60821E-02-1.12366E-13-2.55336E-13
 -1      2280 1.99390E+01-1.12377E-02-4.04844E-04 6.24346E-02-1.39255E-13-3.28451E-13
 -1      2281 1.99518E+01-7.95114E-03 2.63371E-04 5.90846E-02-1.27445E-13-3.35308E-13
 -1      2282 1.99525E+01-1.64856E-02-7.81967E-06 7.39103E-02-1.76503E-13-2.80207E-13
 -1      2283 1.99594E+01-4.90111E-03-3.33147E-04 5.68431E-02-9.06914E-14-3.61108E-13
 -1      2284 1.99719E+01-1.22766E-03 3.65761E-04 5.59457E-02-5.13224E-14-3.42871E-13
 -1      2285 1.99684E+01-8.31975E-03-4.98708E-05 6.66993E-02-1.07919E-13-3.20303E-13
 -1      2286 1.99798E+01 2.21973E-03-2.62781E-04 5.66143E-02-9.61330E-14-3.73755E-13
 -1      2287 1.99930E+01 6.37736E-03 5.01739E-04 5.85047E-02-5.51874E-14-4.14466E-13
 -1      2288 1.99846E+01 8.70959E-04-1.09439E-04 6.52372E-02-9.31474E-14-3.04537E-13
 -1      2289 2.00018E+01 1.03170E-02-1.97027E-04 6.25035E-02 4.26388E-14-4.76785E-13
 -1      2290 2.00168E+01 1.50910E-02 6.75502E-04 6.75849E-02 3.82863E-14-4.51032E-13
 -1      2291 2.00021E+01 1.13065E-02-1.83975E-04 7.03706E-02-4.75210E-14-3.72357E-13
 -1      2292 2.00271E+01 1.96389E-02-1.37623E-04 7.54163E-02 6.97568E-14-4.56841E-13
 -1      2293 2.00452E+01 2.51753E-02 8.90620E-04 8.41767E-02 1.16292E-13-4.14526E-13
 -1      2294 2.00221E+01 2.32924E-02-2.71708E-04 8.30822E-02 4.39398E-14-3.49784E-13
 -1      2295 2.00578E+01 3.04468E-02-8.52185E-05 9.64350E-02 1.02061E-13-3.99105E-13
 -1      2296 2.00805E+01 3.68781E-02 1.14877E-03 1.09445E-01 1.16635E-13-2.83222E-13
 -1      2297 2.00461E+01 3.71647E-02-3.71075E-04 1.04531E-01 1.33074E-13-3.99259E-13
 -1      2298 2.00962E+01 4.29579E-02-3.95452E-05 1.26803E-01 9.76987E-14-2.79677E-13
 -1      2299 2.01252E+01 5.03630E-02 1.44779E-03 1.44689E-01 1.05743E-13-2.39636E-13
 -1      2300 2.00756E+01 5.32171E-02-4.80241E-04 1.36048E-01 1.48296E-13-2.85008E-13
 -1      2301 2.01449E+01 5.72608E-02 7.40178E-07 1.67854E-01 1.10554E-13-2.75435E-13
 -1      2302 2.01821E+01 6.56058E-02 1.77884E-03 1.91235E-01 1.19843E-13-2.43735E-13
 -1      2303 2.01127E+01 7.15984E-02-5.96764E-04 1.79073E-01 8.43446E-14-3.17870E-13
 -1      2304 2.02070E+01 7.31900E-02 3.87105E-05 2.20861E-01 3.77237E-15-2.50667E-13
 -1      2305 2.02542E+01 8.22380E-02 2.12227E-03 2.50236E-01 2.34050E-14-2.83845E-13
 -1      2306 2.01592E+01 9.21587E-02-7.17618E-04 2.35018E-01 4.91229E-14-1.90686E-13
 -1      2307 2.02854E+01 9.01357E-02 8.05624E-05 2.86768E-01 7.92884E-14-3.94894E-13
 -1      2308 2.03447E+01 9.93116E-02 2.44181E-03 3.22322E-01 5.99825E-14-3.67990E-13
 -1      2309 2.02177E+01 1.14219E-01-8.39881E-04 3.05015E-01-4.82971E-14-3.88599E-13
 -1      2310 2.03837E+01 1.06761E-01 1.38117E-04 3.65762E-01 1.06296E-14-3.61607E-13
 -1      2311 2.04569E+01 1.14954E-01 2.67703E-03 4.07065E-01 8.82091E-15-2.41470E-13
 -1      2312 2.02904E+01 1.36231E-01-9.62644E-04 3.89508E-01 3.10578E-14-4.99315E-13
 -1      2313 2.05051E+01 1.20595E-01 2.32829E-04 4.56596E-01 1.94546E-14-2.03348E-13
 -1      2314 2.05935E+01 1.25886E-01 2.73394E-03 5.02156E-01 7.60761E-14-1.79225E-13
 -1      2315 2.03801E+01 1.55282E-01-1.09085E-03 4.87629E-01 1.75046E-14-3.11151E-13
 -1      2316 2.06528E+01 1.27475E-01 4.01449E-04 5.55612E-01 7.61288E-14-2.03274E-13
 -1      2317 2.07573E+01 1.26786E-01 2.47514E-03 6.02226E-01 7.41156E-14-2.74584E-13
 -1      2318 2.04898E+01 1.66425E-01-1.24172E-03 5.96282E-01 7.49463E-14-3.42188E-13
 -1      2319 2.08301E+01 1.20867E-01 7.02417E-04 6.55342E-01-6.63841E-15-2.99202E-13
 -1      2320 2.09498E+01 1.09584E-01 1.71257E-03 6.97245E-01-4.38793E-14-2.24782E-13
 -1      2321 2.06231E+01 1.61828E-01-1.45343E-03 7.08856E-01-5.84409E-14-3.05695E-13
 -1      2322 2.10396E+01 9.11875E-02 1.21904E-03 7.42674E-01-5.87467E-14-1.64929E-13
 -1      2323 2.11720E+01 6.29354E-02 2.10007E-04 7.70516E-01-1.32732E-14-9.48939E-14
 -1      2324 2.07847E+01 1.29913E-01-1.79308E-03 8.13508E-01-3.38894E-15-2.50059E-13
 -1      2325 2.12834E+01 2.55756E-02 2.04897E-03 7.96653E-01-3.57715E-14-1.34806E-13
 -1      2326 2.14233E+01-2.74538E-02-2.29036E-03 7.96551E-01-4.45312E-14-3.11269E-15
 -1      2327 2.09809E+01 5.49057E-02-2.35358E-03 8.91033E-01 1.57935E-14-1.81520E-13
 -1      2328 2.15624E+01-9.09376E-02 3.25757E-03 7.86388E-01-1.25385E-13 2.01369E-15
 -1      2329 2.17008E+01-1.76242E-01-5.98412E-03 7.39621E-01-1.23583E-13-1.25445E-13
 -1      2330 2.12203E+01-8.21034E-02-3.21532E-03 9.12564E-01-1.20075E-13-2.54210E-13
 -1      2331 2.18741E+01-2.70981E-01 4.76547E-03 6.70264E-01-5.69750E-14-1.56697E-13
 -1      2332 2.19973E+01-3.91250E-01-1.08263E-02 5.54847E-01-6.60604E-14-1.71570E-13
 -1      2333 2.15133E+01-2.98525E-01-4.32508E-03 8.37846E-01-1.38684E-13-2.42661E-13
 -1      2334 2.22075E+01-5.14427E-01 6.08485E-03 3.99223E-01-3.40687E-14-1.33116E-13
 -1      2335 2.22955E+01-6.58751E-01-1.61533E-02 1.95364E-01 2.20193E-14-1.32858E-13
 -1      2336 2.18690E+01-5.98721E-01-5.27031E-03 6.16010E-01 3.15362E-15-8.74197E-14
 -1      2337 2.25328E+01-7.89515E-01 6.07048E-03-7.07541E-02-1.68862E-14 4.63794E-14
 -1      2338 2.25586E+01-9.20650E-01-1.99666E-02-3.68627E-01 3.52513E-14 4.49905E-14
 -1      2339 2.22841E+01-9.52187E-01-4.95929E-03 1.93050E-01 7.43534E-14 1.16925E-13
 -1      2340 2.27853E+01-1.00857E+00 2.83561E-03-7.48621E-01-2.23996E-15 8.63459E-15
 -1      2341 2.27188E+01-1.05459E+00-1.89820E-02-1.11172E+00 5.68807E-14 4.38139E-14
 -1      2342 2.27219E+01-1.26252E+00-1.48898E-03-4.65555E-01 3.72007E-14 1.23963E-13
 -1      2343 2.28596E+01-1.02051E+00-6.02653E-03-1.55578E+00 5.97519E-14-8.88535E-14
 -1      2344 2.26806E+01-8.90578E-01-9.64045E-03-1.90055E+00 9.35077E-14-1.54220E-13
 -1      2345 2.30853E+01-1.34957E+00 5.41978E-03-1.32406E+00 2.74178E-14-1.13749E-14
 -1      2346 2.26486E+01-6.58184E-01-1.62131E-02-2.27951E+00 1.89119E-13-3.81169E-13
 -1      2347 2.23651E+01-2.99860E-01 9.26089E-03-2.46838E+00 1.06598E-13-3.11364E-13
 -1      2348 2.32241E+01-1.01002E+00 1.03865E-02-2.20832E+00-8.11916E-15-3.48372E-13
 -1      2349 2.21124E+01 1.25881E-01-2.68972E-02-2.57092E+00 2.25298E-14-2.82414E-13
 -1      2350 2.17936E+01 6.12433E-01 2.20598E-02-2.46019E+00-1.28954E-13-1.63368E-13
 -1      2351 2.30039E+01-1.01780E-01 1.43779E-02-2.77005E+00 7.70191E-14-4.54432E-13
 -1      2352 2.14411E+01 1.06014E+00-2.38025E-02-2.14728E+00-2.16444E-13 1.05282E-13
 -1      2353 2.11765E+01 1.43204E+00 1.73596E-02-1.71318E+00-1.55554E-13 1.39940E-13
 -1      2354 2.24722E+01 1.08565E+00-3.81371E-03-2.59830E+00 2.01852E-14 1.03641E-13
 -1      2355 2.09651E+01 1.63654E+00-1.75776E-03-1.05909E+00-2.10408E-13 1.78047E-13
 -1      2356 2.08345E+01 1.65106E+00-3.04611E-03-4.76068E-01-1.90611E-14 7.41131E-14
 -1      2357 2.19510E+01 1.98016E+00-2.05928E-02-1.56941E+00-1.99656E-13 2.95487E-13
 -1      2358 2.08853E+01 1.48093E+00 2.02349E-02 1.87290E-01 7.72316E-14-1.34312E-14
 -1      2359 2.08909E+01 1.14870E+00-2.22527E-02 6.46618E-01 9.59736E-14-5.07771E-14
 -1      2360 2.17905E+01 2.02343E+00-1.95822E-02-1.41561E-01-1.44808E-13 2.23971E-13
 -1      2361 2.10730E+01 7.50178E-01 2.46982E-02 9.98206E-01 1.28643E-13-1.32193E-13
 -1      2362 2.11461E+01 3.24888E-01-2.27660E-02 1.16982E+00 2.44875E-13-2.07928E-13
 -1      2363 2.19814E+01 1.24214E+00 1.60235E-04 9.34302E-01 8.41952E-14 7.05976E-14
 -1      2364 2.12125E+01-2.55618E-02 9.26076E-03 1.14841E+00 2.32943E-13-2.19803E-13
 -1      2365 2.12685E+01-2.95941E-01-1.07054E-02 1.07382E+00 3.52218E-14-2.02607E-13
 -1      2366 2.21655E+01 2.12643E-01 1.59055E-02 1.22546E+00 1.43893E-13 4.22310E-14
 -1      2367 2.11120E+01-4.36130E-01-6.74849E-03 8.44370E-01-6.55847E-14-1.90337E-13
 -1      2368 2.10800E+01-4.83436E-01-1.86721E-03 6.75033E-01-7.27765E-14-1.86398E-13
 -1      2369 2.20245E+01-4.70681E-01 1.49004E-02 9.00430E-01-3.53847E-14-1.96428E-13
 -1      2370 1.96250E+01 7.25273E-02 2.06098E-03-6.64947E-02 1.86528E-13-2.70019E-14
 -1      2371 1.96523E+01 1.04260E-01 6.90294E-03-2.03672E-02 2.29020E-13 7.79325E-15
 -1      2372 1.96014E+01 3.06580E-02 1.33043E-03-1.32119E-01 1.41705E-13-1.03898E-13
 -1      2373 1.95983E+01 4.95903E-02 3.67600E-03-1.09637E-01 1.59143E-13-4.61737E-14
 -1      2374 1.97692E+01 8.97829E-02-3.17749E-03-7.18686E-02 2.10363E-13-1.44017E-13
 -1      2375 1.96134E+01 5.57531E-03 8.64717E-04-1.60472E-01 1.22200E-13-1.29016E-13
 -1      2376 1.95934E+01 1.68500E-02 1.81294E-03-1.52277E-01 1.32896E-13-9.79758E-14
 -1      2377 1.97350E+01 3.57700E-02-2.28151E-03-1.44129E-01 1.67371E-13-1.94438E-13
 -1      2378 1.96455E+01-9.08497E-03 5.43302E-04-1.66019E-01 1.07933E-13-1.25904E-13
 -1      2379 1.96172E+01-2.62534E-03 7.14823E-04-1.66392E-01 1.05764E-13-1.17549E-13
 -1      2380 1.97315E+01 3.58288E-03-1.50935E-03-1.75781E-01 1.21760E-13-1.85289E-13
 -1      2381 1.96871E+01-1.70301E-02 3.19151E-04-1.58098E-01 4.91108E-14-1.23566E-13
 -1      2382 1.96560E+01-1.36850E-02 6.19048E-05-1.63382E-01 9.44819E-14-1.07175E-13
 -1      2383 1.97466E+01-1.50000E-02-9.31827E-04-1.82296E-01 8.35920E-14-1.85776E-13
 -1      2384 1.97317E+01-2.05827E-02 1.68339E-04-1.42861E-01 7.85869E-14-1.16495E-13
 -1      2385 1.97009E+01-1.92698E-02-3.13361E-04-1.50661E-01 6.67788E-14-9.10628E-14
 -1      2386 1.97718E+01-2.48234E-02-5.27938E-04-1.73876E-01 6.46434E-14-1.57277E-13
 -1      2387 1.97751E+01-2.12650E-02 7.46402E-05-1.24386E-01 7.95271E-14-1.68594E-13
 -1      2388 1.97466E+01-2.12709E-02-5.08988E-04-1.33123E-01 9.52625E-14-1.43861E-13
 -1      2389 1.98012E+01-2.89318E-02-2.58964E-04-1.57331E-01 1.00005E-13-1.95771E-13
 -1      2390 1.98150E+01-2.00920E-02 2.59227E-05-1.05365E-01 5.63669E-14-9.00101E-14
 -1      2391 1.97897E+01-2.09424E-02-5.87462E-04-1.14005E-01 5.85049E-14-1.17998E-13
 -1      2392 1.98314E+01-2.93187E-02-9.00638E-05-1.37214E-01 7.05896E-14-1.80919E-13
 -1      2393 1.98506E+01-1.77313E-02 1.36100E-05-8.75679E-02 8.65713E-14-9.71680E-14
 -1      2394 1.98287E+01-1.91182E-02-5.90557E-04-9.54346E-02 9.20272E-14-5.70032E-14
 -1      2395 1.98603E+01-2.73068E-02 5.67796E-06-1.16560E-01 6.55486E-14-1.35530E-13
 -1      2396 1.98819E+01-1.45988E-02 3.24568E-05-7.21546E-02 1.16131E-13-1.78229E-13
 -1      2397 1.98630E+01-1.63358E-02-5.46566E-04-7.88040E-02 1.02919E-13-1.16233E-13
 -1      2398 1.98868E+01-2.37564E-02 4.81082E-05-9.73775E-02 1.11476E-13-1.84274E-13
 -1      2399 1.99093E+01-1.09217E-02 8.01680E-05-5.99177E-02 3.15625E-14-1.31712E-13
 -1      2400 1.98930E+01-1.29143E-02-4.74436E-04-6.50397E-02 7.18288E-14-1.55060E-13
 -1      2401 1.99107E+01-1.91928E-02 5.11617E-05-8.10131E-02 9.74777E-14-1.82725E-13
 -1      2402 1.99340E+01-6.78187E-03 1.57106E-04-5.14578E-02 1.42668E-13-1.74687E-13
 -1      2403 1.99195E+01-9.00653E-03-3.86435E-04-5.48043E-02 7.66782E-14-1.27769E-13
 -1      2404 1.99324E+01-1.38897E-02 2.43520E-05-6.84117E-02 5.42464E-14-1.29134E-13
 -1      2405 1.99574E+01-2.14665E-03 2.65948E-04-4.73221E-02 7.78921E-14-1.10109E-13
 -1      2406 1.99437E+01-4.63626E-03-2.90096E-04-4.86493E-02 1.51607E-13-9.56291E-14
 -1      2407 1.99527E+01-7.92683E-03-2.62076E-05-6.03180E-02 1.13179E-13-8.24502E-14
 -1      2408 1.99812E+01 3.10891E-03 4.11419E-04-4.81118E-02 1.19530E-14-8.44852E-14
 -1      2409 1.99673E+01 2.75713E-04-1.89588E-04-4.71353E-02 6.52949E-14-6.23609E-14
 -1      2410 1.99725E+01-1.23046E-03-9.69949E-05-5.74317E-02 3.66706E-14-1.78971E-14
 -1      2411 2.00076E+01 9.18451E-03 5.99996E-04-5.45684E-02-8.20949E-14-1.08558E-13
 -1      2412 1.99920E+01 5.89172E-03-8.67632E-05-5.09267E-02-3.85157E-14-8.96362E-14
 -1      2413 1.99934E+01 6.39607E-03-1.86271E-04-6.05280E-02-1.50833E-14-1.75296E-14
 -1      2414 2.00390E+01 1.63397E-02 8.39524E-04-6.76399E-02-7.17971E-14-1.90097E-13
 -1      2415 2.00201E+01 1.24414E-02 1.79836E-05-6.08658E-02-5.76408E-14-1.33236E-13
 -1      2416 2.00170E+01 1.52485E-02-2.93388E-04-7.05519E-02-1.98998E-14-2.09877E-14
 -1      2417 2.00783E+01 2.48784E-02 1.13859E-03-8.85304E-02 1.37379E-13-3.57661E-13
 -1      2418 2.00543E+01 2.02066E-02 1.24992E-04-7.80295E-02 1.82375E-14-3.03177E-13
 -1      2419 2.00453E+01 2.57001E-02-4.18106E-04-8.86892E-02 2.33693E-14-2.15464E-13
 -1      2420 2.01289E+01 3.51267E-02 1.50543E-03-1.18727E-01 1.86926E-13-3.14782E-13
 -1      2421 2.00977E+01 2.95042E-02 2.34675E-04-1.03767E-01 1.91444E-13-3.58194E-13
 -1      2422 2.00805E+01 3.81773E-02-5.59873E-04-1.16414E-01 1.44343E-13-3.27332E-13
 -1      2423 2.01946E+01 4.73977E-02 1.94604E-03-1.59999E-01 1.11945E-14-2.99943E-13
 -1      2424 2.01537E+01 4.06581E-02 3.46891E-04-1.39714E-01 1.32237E-13-3.09922E-13
 -1      2425 2.01252E+01 5.31237E-02-7.17052E-04-1.55506E-01 1.32870E-13-1.62890E-13
 -1      2426 2.02800E+01 6.19282E-02 2.46077E-03-2.14340E-01-6.67201E-14-3.65398E-13
 -1      2427 2.02264E+01 5.39537E-02 4.60345E-04-1.87761E-01-3.62400E-14-3.37295E-13
 -1      2428 2.01824E+01 7.09411E-02-8.86166E-04-2.08026E-01 5.69699E-15-2.24446E-13
 -1      2429 2.03900E+01 7.87636E-02 3.03869E-03-2.83832E-01-1.03115E-13-3.01106E-13
 -1      2430 2.03204E+01 6.95528E-02 5.72089E-04-2.49964E-01-9.65543E-14-4.07522E-13
 -1      2431 2.02554E+01 9.18828E-02-1.06136E-03-2.76228E-01-3.68053E-14-2.82679E-13
 -1      2432 2.05298E+01 9.75523E-02 3.64799E-03-3.70355E-01-4.45345E-14-1.96628E-13
 -1      2433 2.04408E+01 8.73431E-02 6.77377E-04-3.28340E-01-7.48065E-14-2.53006E-13
 -1      2434 2.03477E+01 1.15863E-01-1.23459E-03-3.62345E-01-9.71935E-14-3.37426E-13
 -1      2435 2.07050E+01 1.17185E-01 4.22094E-03-4.75048E-01-2.35734E-14-2.41326E-13
 -1      2436 2.05930E+01 1.06667E-01 7.70399E-04-4.24463E-01-1.46040E-14-2.30179E-13
 -1      2437 2.04631E+01 1.42122E-01-1.39758E-03-4.68211E-01-5.24137E-14-3.57376E-13
 -1      2438 2.09206E+01 1.35183E-01 4.63139E-03-5.97349E-01-1.29055E-13-1.30655E-13
 -1      2439 2.07824E+01 1.25859E-01 8.46984E-04-5.38747E-01-3.84172E-14-1.60705E-13
 -1      2440 2.06052E+01 1.68638E-01-1.54724E-03-5.94565E-01-8.57499E-14-2.76680E-13
 -1      2441 2.11810E+01 1.46717E-01 4.66468E-03-7.33382E-01-9.10042E-14 1.56868E-14
 -1      2442 2.10143E+01 1.41468E-01 9.11177E-04-6.69202E-01-9.73735E-14-3.49516E-14
 -1      2443 2.07780E+01 1.91175E-01-1.69718E-03-7.39883E-01-1.50843E-13-2.32675E-13
 -1      2444 2.14885E+01 1.43169E-01 3.98473E-03-8.73365E-01 1.18135E-15 2.19153E-14
 -1      2445 2.12933E+01 1.47068E-01 9.88327E-04-8.09381E-01-3.37222E-14 8.60989E-14
 -1      2446 2.09852E+01 2.01775E-01-1.89791E-03-8.98483E-01-6.61767E-14 8.48781E-14
 -1      2447 2.18429E+01 1.10349E-01 2.11434E-03-9.97751E-01 7.53216E-14-1.18216E-13
 -1      2448 2.16225E+01 1.31613E-01 1.14593E-03-9.45185E-01 5.11967E-14-3.22435E-14
 -1      2449 2.12313E+01 1.86681E-01-2.26517E-03-1.05760E+00 4.75589E-14 1.17384E-13
 -1      2450 2.22403E+01 2.71432E-02-1.53256E-03-1.07214E+00-1.68625E-13 7.38320E-15
 -1      2451 2.20035E+01 7.76861E-02 1.51654E-03-1.05028E+00-7.80382E-16-7.32292E-14
 -1      2452 2.15226E+01 1.24011E-01-3.00304E-03-1.19314E+00-2.31225E-15-5.28645E-14
 -1      2453 2.26713E+01-1.33047E-01-7.49120E-03-1.04200E+00-1.02148E-13 5.50491E-14
 -1      2454 2.24352E+01-3.89690E-02 2.28932E-03-1.08044E+00-2.11849E-13-1.27188E-14
 -1      2455 2.18693E+01-1.72621E-02-4.37248E-03-1.26421E+00-1.49191E-13 2.26375E-13
 -1      2456 2.31188E+01-3.92716E-01-1.57838E-02-8.30931E-01 7.62194E-15 3.26655E-13
 -1      2457 2.29110E+01-2.45057E-01 3.57759E-03-9.68678E-01-3.64643E-14 1.50352E-13
 -1      2458 2.22864E+01-2.72930E-01-6.48959E-03-1.20735E+00-1.16088E-13 2.04965E-13
 -1      2459 2.35494E+01-7.43937E-01-2.50377E-02-3.51136E-01-1.01920E-13 4.96458E-13
 -1      2460 2.34113E+01-5.53285E-01 5.05539E-03-6.27224E-01 1.07735E-14 4.65520E-13
 -1      2461 2.27918E+01-6.65258E-01-8.73819E-03-9.34386E-01-1.18288E-13 3.03241E-13
 -1      2462 2.38983E+01-1.09938E+00-3.12680E-02 4.58024E-01-1.08412E-13 5.37616E-13
 -1      2463 2.38840E+01-9.25140E-01 4.98244E-03 3.04054E-02-1.16483E-13 4.99133E-13
 -1      2464 2.33886E+01-1.15914E+00-8.98059E-03-3.43988E-01-1.14976E-13 3.68855E-13
 -1      2465 2.40487E+01-1.24349E+00-2.80724E-02 1.54295E+00-2.50407E-14 4.24643E-13
 -1      2466 2.42132E+01-1.21441E+00-8.27167E-04 1.02327E+00-3.52218E-14 5.43616E-13
 -1      2467 2.40221E+01-1.58951E+00-3.89207E-03 6.31216E-01-3.59461E-14 4.55872E-13
 -1      2468 2.38460E+01-8.73516E-01-9.69383E-03 2.61734E+00-1.52857E-13 7.29705E-13
 -1      2469 2.42110E+01-1.14643E+00-1.61064E-02 2.18106E+00-4.59572E-15 6.54815E-13
 -1      2470 2.45203E+01-1.62342E+00 4.96654E-03 1.90677E+00-1.20069E-13 6.35016E-13
 -1      2471 2.32031E+01 1.45625E-01 1.57200E-02 3.11797E+00-8.26943E-14 6.43052E-13
 -1      2472 2.37067E+01-4.43312E-01-3.40896E-02 3.03546E+00-2.15228E-13 6.91388E-13
 -1      2473 2.46082E+01-8.76936E-01 1.08139E-02 3.08721E+00-1.78688E-13 8.91263E-13
 -1      2474 2.23031E+01 1.40790E+00 1.34802E-02 2.51911E+00 1.21587E-13 5.01868E-13
 -1      2475 2.27900E+01 7.89238E-01-4.48831E-02 2.95637E+00 7.34222E-14 6.56702E-13
 -1      2476 2.41412E+01 6.49269E-01-1.92310E-03 3.45344E+00-9.67802E-15 7.14778E-13
 -1      2477 2.16196E+01 1.92558E+00-4.91860E-02 9.32297E-01 2.34181E-13 3.05311E-13
 -1      2478 2.19194E+01 1.78424E+00-4.56454E-02 1.66343E+00 1.75297E-13 3.97868E-13
 -1      2479 2.34135E+01 2.19583E+00 4.74357E-03 2.42655E+00 2.06314E-13 5.56926E-13
 -1      2480 2.16759E+01 1.34700E+00-5.26489E-02-7.73492E-01 4.32310E-13 2.05998E-14
 -1      2481 2.16738E+01 1.81532E+00 5.85550E-03-1.44806E-01 3.89529E-13 1.70866E-13
 -1      2482 2.29800E+01 2.61007E+00-1.69705E-03 4.22077E-01 3.96166E-13 3.39674E-13
 -1      2483 2.20448E+01 1.78569E-01-4.24302E-02-1.46235E+00 3.41442E-13 1.16171E-13
 -1      2484 2.19116E+01 7.88922E-01 2.35162E-02-1.27608E+00 3.41591E-13-4.18762E-15
 -1      2485 2.32273E+01 1.40470E+00-5.98165E-03-1.17430E+00 3.46650E-13 5.63417E-15
 -1      2486 2.22089E+01-6.79142E-01-1.76105E-02-1.12024E+00 6.11802E-14 3.43155E-13
 -1      2487 2.21052E+01-3.31146E-01 3.34380E-03-1.33732E+00 1.53877E-13 2.94058E-13
 -1      2488 2.34204E+01-6.55836E-02 4.15250E-03-1.50132E+00 1.68841E-13 2.88662E-14
 -1      2489 2.19134E+01-8.10596E-01 8.00050E-03-3.23690E-01 2.26564E-13 2.57787E-13
 -1      2490 2.19378E+01-8.37082E-01-2.07521E-02-6.59108E-01 1.44535E-13 3.27681E-13
 -1      2491 2.31504E+01-1.01600E+00 5.04221E-03-7.97127E-01 8.81985E-14 7.37774E-14
 -1      2492 2.12700E+01-4.14653E-01 1.89320E-02 2.82431E-01 5.95426E-14 2.97333E-13
 -1      2493 2.14228E+01-6.51024E-01-2.37831E-02 7.52778E-02 1.69756E-13 3.28256E-13
 -1      2494 2.23833E+01-9.78818E-01 9.00105E-03 1.15303E-01 1.30234E-13 4.04753E-13
 -1      2495 2.07514E+01-1.21625E-01-9.27727E-03 4.08010E-01 6.46349E-14 2.83884E-13
 -1      2496 1.95246E+01 1.23465E+00-4.52323E-02 5.01704E+00-2.09846E-13-1.87138E-13
 -1      2497 2.07420E+01 6.00266E-01 7.68046E-02 4.94204E+00-2.80627E-13-3.30569E-13
 -1      2498 1.66997E+01 2.84213E+00-5.37002E-02 3.76631E+00 2.02411E-13 3.76900E-13
 -1      2499 1.81017E+01 2.26492E+00 1.05994E-01 4.69249E+00-3.25621E-14 2.05391E-14
 -1      2500 1.84039E+01 3.03943E-01 1.93943E-02 5.61042E+00-8.51784E-14 4.00860E-14
 -1      2501 2.22010E+01-3.75966E-01 3.16529E-02 2.72279E+00-2.58908E-13 2.35303E-13
 -1      2502 2.20982E+01-6.38112E-01-6.14516E-03 1.98543E+00-6.90294E-14 2.03991E-13
 -1      2503 2.15541E+01 9.31146E-02-2.44743E-03 4.26965E+00-4.67539E-13-4.24494E-13
 -1      2504 2.20428E+01-3.60583E-01 2.89146E-02 3.65490E+00-3.49036E-13 4.04976E-14
 -1      2505 2.27525E+01-1.36492E+00-1.26224E-02 3.33841E+00-3.20189E-13 2.85019E-14
 -1      2506 2.14950E+01-1.01720E+00-1.29925E-02 5.07966E+00-3.41679E-13-2.14127E-13
 -1      2507 1.51770E+01 3.93240E+00 3.97730E-02 5.64631E-01 2.14407E-13 5.51954E-13
 -1      2508 1.57236E+01 3.65348E+00 8.08038E-02 2.14304E+00 1.58184E-13 5.64861E-13
 -1      2509 1.52763E+01 2.02859E+00 1.38057E-01 3.48966E+00 8.46146E-14 5.16705E-13
 -1      2510 1.62227E+01 3.40135E+00 1.11290E-01-3.14015E+00-6.20684E-15 1.67026E-13
 -1      2511 1.53521E+01 3.68348E+00-1.43314E-02-1.73903E+00 6.07119E-14 4.03275E-13
 -1      2512 1.36784E+01 2.68862E+00 9.52054E-02-7.62496E-01 1.98740E-13 3.51330E-13
 -1      2513 1.88828E+01 1.71874E+00 1.05959E-01-5.21543E+00 1.06234E-14 2.18020E-14
 -1      2514 1.73678E+01 2.40519E+00-6.02590E-02-4.59092E+00-6.57183E-14 9.15101E-14
 -1      2515 1.54873E+01 1.57209E+00 3.87557E-02-4.54308E+00 1.88162E-13-3.41394E-14
 -1      2516 2.11968E+01 2.06216E-01 6.41480E-02-4.90609E+00 2.13266E-13-3.24326E-13
 -1      2517 2.01712E+01 8.17209E-01-3.15475E-02-5.15338E+00 1.78510E-13-2.99122E-13
 -1      2518 1.95707E+01-1.24220E-01 6.26701E-02-5.88294E+00 2.37810E-13 1.48839E-15
 -1      2519 2.22401E+01-6.39552E-01 1.95385E-02-3.41053E+00 1.59687E-13 1.37735E-13
 -1      2520 2.18783E+01-1.95858E-01 7.27600E-03-4.13222E+00 1.16466E-13-1.01799E-13
 -1      2521 2.19545E+01-1.19782E+00-1.58387E-02-4.94966E+00 4.12188E-14-2.95708E-13
 -1      2522 2.21309E+01-8.09819E-01-9.72961E-03-1.72970E+00 3.27655E-14 1.18053E-13
 -1      2523 2.22765E+01-5.62261E-01 3.33521E-02-2.45848E+00 7.88349E-14 1.72768E-13
 -1      2524 2.29196E+01-1.41025E+00-9.34064E-03-3.03954E+00-6.14361E-14 6.50970E-14
 -1      2525 2.14732E+01-6.32505E-01-1.09169E-02-4.13985E-01-1.85750E-13-3.28254E-13
 -1      2526 2.18549E+01-5.67954E-01 3.73637E-02-9.49654E-01 2.28437E-14-9.81142E-14
 -1      2527 2.26413E+01-1.09525E+00 1.54640E-02-1.28228E+00-1.57967E-13 2.93689E-15
 -1      2528 2.05383E+01-3.26152E-01-7.25048E-03 1.75567E-01 2.68145E-14-2.91950E-13
 -1      2529 4.65145E+00-2.61128E+00 1.24607E-01-1.67028E+00-1.80606E-13 2.59015E-13
 -1      2530 6.18016E+00-3.32508E+00 9.12818E-02-5.06644E+00-3.23075E-14 2.08833E-13
 -1      2531 1.97059E+01 1.43315E-01 3.25496E-03 5.95411E-02 2.48621E-13 3.32580E-14
 -1      2532 1.97844E+01 1.98175E-01 1.23777E-02 1.45753E-01 2.74228E-13 7.83874E-14
 -1      2533 1.98501E+01 1.80932E-01-3.85900E-03 6.49408E-02 2.85375E-13-1.09268E-13
 -1      2534 6.19557E+00-2.76518E+00 1.43434E-01 4.28635E+00-9.28146E-14 5.71765E-13
 -1      2535 5.06512E+00-2.43976E+00 1.35177E-01 1.37931E+00-1.64868E-13 4.99378E-13
 -1      2536 8.94519E+00-4.48164E+00 2.53555E-02-6.77608E+00 1.57763E-13 4.16500E-13
 -1      2537 1.29470E+01-5.14128E+00 8.53642E-02-8.24125E+00 8.93730E-14 3.54605E-13
 -1      2538 2.05482E+01 1.95516E+00-1.37175E-02-1.89525E+00-5.67664E-13-2.50407E-13
 -1      2539 2.04103E+01 1.20904E+00-8.81587E-03-1.28890E+00-5.23476E-13-1.85722E-13
 -1      2540 2.03828E+01 1.38503E+00 9.18751E-03-1.23774E+00-4.87160E-13-3.14426E-13
 -1      2541 2.02956E+01 2.39761E+00 7.01944E-04-1.83548E+00-5.58202E-13-4.11329E-13
 -1      2542 3.37953E+01 2.25760E+00-6.91736E-02-5.62945E-01-1.21902E-13-4.93494E-13
 -1      2543 3.45698E+01 4.55652E+00-1.41555E-01-3.63357E-02-5.55667E-14-3.18329E-13
 -1      2544 1.95182E+01 3.58495E+00-1.00917E-02-2.45226E-01-1.01175E-14-8.18848E-13
 -1      2545 1.95342E+01 3.56424E+00-9.67005E-03-4.25938E-01-7.62720E-14-8.19331E-13
 -1      2546 1.97106E+01 3.16372E+00-5.72006E-04-4.73173E-01-1.06749E-13-7.67997E-13
 -1      2547 1.96762E+01 3.22362E+00-9.10975E-04-1.51963E-01 2.33442E-17-7.67045E-13
 -1      2548 3.40165E+01 7.61715E+00-1.35651E-01 7.47127E-01 6.71019E-13-6.29337E-13
 -1      2549 3.32138E+01 6.57521E+00-1.84978E-01-2.23332E-03 6.53200E-13-6.61582E-13
 -1      2550 3.12384E+01-2.12625E+00-7.58686E-02-2.97368E-01-5.04180E-14-6.11899E-13
 -1      2551 3.30517E+01-5.09784E-03-1.25974E-01 7.94557E-01 5.33601E-14-3.69593E-13
 -1      2552 3.38829E+01 7.22121E+00-1.49446E-01 1.86155E+00 6.91447E-13-4.29892E-13
 -1      2553 3.41799E+01 7.83670E+00-1.28742E-01 1.27753E+00 6.92946E-13-5.38973E-13
 -1      2554 3.09327E+01 7.29854E+00-5.99834E-02 8.27912E-01 5.91749E-13-1.62613E-13
 -1      2555 7.26042E+00-5.01326E+00 5.44338E-02 5.84984E+00 1.25455E-13-4.44644E-13
 -1      2556 5.13464E+00-4.01822E+00 1.35512E-01 4.12126E+00 8.25728E-14-4.36151E-13
 -1      2557 2.64653E+01-5.59711E+00-1.54254E-02-3.11315E+00-1.60205E-13-7.02827E-13
 -1      2558 2.95458E+01-4.10585E+00-6.42102E-02-2.01474E+00-7.80209E-14-7.59004E-13
 -1      2559 1.90124E+01-6.82756E+00 5.75549E-02-5.87594E+00-1.85629E-13-4.97682E-13
 -1      2560 2.30810E+01-6.56676E+00-4.44109E-03-5.10848E+00-3.35204E-13-7.45931E-13
 -1      2561 3.81734E+00-4.55020E+00 7.40049E-02-2.94588E+00 1.56056E-13-5.74318E-13
 -1      2562 5.76871E+00-4.81875E+00 7.35953E-02-4.74643E+00 2.25070E-13-4.23994E-13
 -1      2563 3.24355E+00-3.54878E+00 1.15492E-01 1.50773E+00 1.02626E-14-6.36602E-13
 -1      2564 2.84112E+00-4.09172E+00 8.15882E-02-9.56822E-01 1.38958E-13-7.13374E-13
 -1      2565 5.10997E+00-2.89293E+00 1.73822E-01-1.90284E+00 5.44217E-14-6.40432E-13
 -1      2566 1.50543E+01-6.18770E+00 8.76996E-03 7.19100E+00 1.26565E-13-4.78922E-13
 -1      2567 1.06626E+01-5.86679E+00 6.28354E-02 6.57595E+00 3.06977E-13-5.23193E-13
 -1      2568 1.12049E+01-4.54204E+00 1.53754E-01 6.23442E+00 2.27429E-13-4.12698E-13
 -1      2569 2.32159E+01-6.30961E+00-6.34939E-02 5.45867E+00 2.57294E-14-3.77282E-13
 -1      2570 1.94361E+01-6.59502E+00 5.87413E-02 6.22905E+00-6.05072E-15-4.17121E-13
 -1      2571 2.96736E+01-3.65475E+00-9.69134E-02 2.08138E+00-5.42760E-14-2.97234E-13
 -1      2572 2.67199E+01-5.21152E+00 5.79591E-04 3.32482E+00 7.58282E-14-3.99042E-13
 -1      2573 3.30465E+01 9.89925E-01-1.51011E-01-9.03362E-01-2.50022E-13 4.62408E-14
 -1      2574 3.13622E+01-1.32400E+00-6.27885E-02 1.85736E-01-1.11272E-13-5.94524E-14
 -1      2575 3.44240E+01 5.83711E+00-1.35724E-01-1.84243E+00-2.79277E-13-2.22350E-13
 -1      2576 3.35076E+01 3.96472E+00-1.03797E-01-1.81588E+00-3.27238E-13-1.26565E-13
 -1      2577 3.49117E+01 8.15217E+00-1.30485E-01-1.09110E+00-2.03615E-13-4.26898E-13
 -1      2578 3.45918E+01 7.51094E+00-1.31255E-01-1.51056E+00-2.21156E-13-3.13083E-13
 -1      2579 3.43971E+01 6.89714E+00-1.07930E-01-5.60607E-03-8.56537E-14-8.69860E-14
 -1      2580 3.48632E+01 7.90363E+00-1.19713E-01-4.40521E-01-1.80744E-13-2.90483E-13
 -1      2581 3.11798E+01-2.40582E+00-4.63761E-02-2.77240E+00-2.49564E-13-5.97633E-13
 -1      2582 3.30934E+01-3.16898E-01-6.95995E-02-1.78832E+00-1.91909E-13-3.32123E-13
 -1      2583 1.59293E+01-5.96041E+00 5.29027E-02-8.46029E+00 1.66978E-13 1.24442E-13
 -1      2584 1.94657E+01-5.89897E+00 5.88361E-03-8.40100E+00 4.45199E-14-2.67251E-13
 -1      2585 1.58882E+01-4.64126E+00 2.02725E-01-8.31266E+00 3.86247E-13 1.55570E-13
 -1      2586 2.95412E+01-4.23841E+00 3.57409E-03 4.94764E+00 6.70852E-14 1.74305E-14
 -1      2587 2.64241E+01-5.56485E+00 2.56167E-02 5.96730E+00-5.49560E-15 8.46545E-14
 -1      2588 1.23093E+01-4.72100E+00 7.74965E-02 7.76632E+00 1.50269E-13 3.65263E-13
 -1      2589 8.08201E+00-3.96771E+00 1.20798E-02 5.99653E+00-1.18988E-13 6.80067E-13
 -1      2590 9.28725E+00-2.05571E+00-4.32444E-03 5.31234E+00-1.56999E-13 7.53453E-13
 -1      2591 2.04915E+01 8.74942E-01-7.31101E-03 1.22636E+00 5.52667E-13 3.36041E-13
 -1      2592 2.08420E+01 1.25694E+00-6.05021E-03 1.72707E+00 5.91627E-13 3.99984E-13
 -1      2593 2.06477E+01 1.71564E+00-1.57900E-02 1.92119E+00 6.41139E-13 1.91680E-13
 -1      2594 2.04500E+01 1.05803E+00-9.39186E-03 1.24106E+00 5.73338E-13 9.11351E-14
 -1      2595 3.35210E+01-4.34325E-01-9.13616E-02 2.03733E+00 1.42282E-13-2.84828E-13
 -1      2596 3.13645E+01-2.58740E+00-4.07313E-02 3.18388E+00 3.42781E-14-9.12048E-14
 -1      2597 3.05063E+01-4.04214E+00-6.18749E-03 2.94283E+00 3.29459E-14-8.00471E-14
 -1      2598 2.96359E+01 5.27699E+00-1.40074E-01-8.88714E-01 8.12045E-13-1.71391E-13
 -1      2599 3.22821E+01 4.85956E+00-1.36822E-01-7.12511E-01 8.74689E-13-4.77840E-13
 -1      2600 3.06142E+01 3.15316E+00-7.33045E-02-1.28000E+00 6.59917E-13-3.86580E-13
 -1      2601 1.99129E+01 2.81063E+00 1.15063E-03-1.09712E+00-3.20102E-13-6.99166E-13
 -1      2602 1.97800E+01 3.15641E+00-1.61759E-02-1.28680E+00-3.51764E-13-7.33065E-13
 -1      2603 1.98830E+01 3.01297E+00-1.85380E-02-1.47671E+00-4.33038E-13-6.76765E-13
 -1      2604 1.99957E+01 3.40213E-01-3.57173E-03 3.04098E-01 3.59796E-13-3.68204E-14
 -1      2605 2.04231E+01 2.11580E+00-1.27817E-02 1.87417E+00 6.24915E-13-7.38819E-14
 -1      2606 3.24559E+01-1.22179E-01-2.47528E-02 2.49680E-01 2.40558E-13-3.45890E-13
 -1      2607 1.56233E+01-5.00048E+00 1.77628E-01 8.27232E+00 1.87905E-13-1.38778E-15
 -1      2608 1.51772E+01-3.31849E+00 3.07235E-01 7.66751E+00 7.63278E-14 3.15928E-13
 -1      2609 1.86221E+01-5.15462E+00 3.32853E-02 8.08116E+00 1.08802E-14-2.20907E-13
 -1      2610 3.22482E+01 4.26918E-01-4.87280E-02-5.92344E-02-2.69174E-13-4.69874E-13
 -1      2611 3.01008E+01-3.86234E+00-1.18110E-02-3.56495E+00-2.42112E-13-6.89115E-13
 -1      2612 3.02945E+01-3.30168E+00-1.05864E-01-1.81912E+00-2.61483E-13-3.07476E-13
 -1      2613 2.84354E+01-4.79627E+00 6.75520E-02-4.32764E+00-1.50796E-13-7.09446E-13
 -1      2614 9.42629E+00-2.70640E+00-3.23302E-02-6.04061E+00 2.95625E-13 1.80966E-13
 -1      2615 2.48149E+01-6.11512E+00 2.45710E-02 6.71539E+00-8.65974E-15 6.62526E-14
 -1      2616 2.30260E+01-5.83907E+00 1.34533E-01 7.33649E+00-7.30804E-14-1.18881E-14
 -1      2617 2.68380E+01-5.84704E+00-4.77237E-02 5.17538E+00-1.81924E-13-9.50212E-14
 -1      2618 2.13565E+01-4.00553E-01-8.37113E-03 6.56473E-01 8.23282E-14 3.78312E-13
 -1      2619 2.16946E+01-3.91458E-01 1.69506E-02 1.08859E+00 9.23298E-14 4.05048E-13
 -1      2620 3.24121E+01 5.24092E+00-6.61251E-02 6.57035E-01 2.65898E-14-3.58380E-13
 -1      2621 2.07548E+01-4.01162E-01 8.19847E-04 3.94242E-01-5.74124E-14-3.33080E-13
 -1      2622 2.11966E+01-4.77234E-01 2.06987E-02 2.75536E-02-4.91276E-14-2.78031E-13
 -1      2623 2.17469E+01-7.68131E-01-1.62933E-02-1.17217E-01-3.60929E-13-8.50203E-14
 -1      2624 2.08354E+01-4.67116E-01-1.96114E-02 5.16740E-01-7.07410E-14-3.32568E-13
 -1      2625 3.20551E+01 7.71423E+00-6.21655E-02-6.42720E-01-2.00895E-13-3.82749E-13
 -1      2626 7.12834E+00-9.82383E-01 1.50529E-01-3.09452E-01 2.07057E-14 3.87634E-13
 -1      2627 2.04370E+01 1.80811E+00 1.25447E-02 1.56189E+00 5.88626E-13-1.29828E-13
 -1      2628 3.20220E+01 6.38352E+00-6.13593E-02-2.30376E+00-1.83298E-13-7.23033E-14
 -1      2629 3.17842E+01 1.98375E+00-5.42669E-02-2.30935E+00-1.74499E-13 1.13326E-13
 -1      2630 2.26826E+01-5.99391E+00 8.55427E-02-7.60198E+00-1.49603E-14-7.03770E-13
 -1      2631 2.51570E+01-5.92600E+00-7.57976E-02-6.29119E+00 4.27436E-15-9.94552E-13
 -1      2632 2.10136E+01-5.36990E+00 1.24879E-01-7.90932E+00 2.25958E-13-5.46931E-13
 -1      2633 3.01516E+01-2.91151E+00-2.45116E-03-6.17371E-03-1.43007E-13 1.85074E-13
 -1      2634 5.39896E+00-3.04485E+00 1.79724E-01 2.94191E+00 7.44682E-14-4.69541E-13
 -1      2635 6.09952E+00-1.84739E+00 1.90006E-01 1.77682E+00 1.20334E-13-5.46452E-13
 -1      2636 7.63626E+00-2.57406E+00 7.02395E-02 4.17964E+00 1.54182E-13-3.89744E-13
 -1      2637 1.73398E+01-6.57952E+00 6.21033E-02-6.28892E+00 2.16493E-14-2.80852E-13
 -1      2638 2.02347E+01-6.42127E+00 2.29793E-02-5.36550E+00-1.11508E-13-5.33917E-13
 -1      2639 1.55985E+01-5.66909E+00 1.55889E-01-6.33909E+00 9.99478E-14-2.79415E-13
 -1      2640 2.55131E+01-6.33372E+00 2.24832E-02-3.35339E+00-3.17746E-13-7.39922E-13
 -1      2641 3.30539E+01 6.09856E+00-1.22482E-01 2.49709E+00 5.70821E-13-2.13690E-13
 -1      2642 2.99999E+01 6.34794E+00-1.85172E-01 2.43488E+00 4.09783E-13-1.26482E-13
 -1      2643 3.13668E+01 4.95465E+00-1.23184E-01 3.06219E+00 3.63043E-13 6.80012E-15
 -1      2644 2.01192E+01 2.61306E+00-9.99540E-03-1.67579E+00-5.05936E-13-5.35624E-13
 -1      2645 9.13249E+00-4.70528E+00 1.32257E-01-5.40156E+00 1.61204E-13-3.32595E-13
 -1      2646 3.29983E+01 1.28248E+00-3.27754E-02 2.06498E+00 1.42136E-13-2.78888E-13
 -1      2647 3.16549E+01 2.33359E+00-2.57698E-01 3.20257E+00 2.39725E-13-1.74194E-13
 -1      2648 3.11586E+01-3.02840E-01-2.39913E-02 2.49847E+00 3.97460E-14-1.51990E-13
 -1      2649 3.02302E+01-3.56370E+00-5.66516E-03 2.35373E-02-1.02009E-13-5.95857E-13
 -1      2650 1.84584E+01-6.14484E+00 1.13979E-01 6.38871E+00 1.89598E-13-3.64334E-13
 -1      2651 2.56716E+01-5.93485E+00 5.33016E-02 3.62289E+00 1.19640E-13-2.41404E-13
 -1      2652 2.24255E+01-1.05561E+00-7.78821E-03 1.39300E+00 1.13899E-13 2.92101E-13
 -1      2653 2.16227E+01-6.05277E-01 1.73645E-02 4.71732E-01-2.28808E-13-1.23024E-13
 -1      2654 1.98442E+01 2.76512E+00-6.29311E-03 5.16142E-01 2.54222E-13-6.33285E-13
 -1      2655 1.98193E+01 2.81487E+00-5.69441E-03 3.65306E-01 1.83328E-13-6.57381E-13
 -1      2656 1.98023E+01 2.85238E+00-5.61276E-03 2.29821E-01 1.28189E-13-7.06879E-13
 -1      2657 1.97938E+01 2.86927E+00-5.43224E-03 7.52220E-02 7.30645E-14-7.12653E-13
 -1      2658 1.99488E+01 2.50109E+00 3.65188E-03 2.65185E-01 1.37697E-13-6.34855E-13
 -1      2659 2.00437E+01 2.32391E+00-1.07243E-02 1.04561E+00 4.64841E-13-5.08448E-13
 -1      2660 1.99790E+01 2.47295E+00-6.34349E-03 9.09941E-01 4.16182E-13-5.53741E-13
 -1      2661 2.02169E+01 1.90867E+00-1.19409E-02 1.22703E+00 5.23668E-13-3.74803E-13
 -1      2662 2.01244E+01 2.14639E+00-4.81998E-03 1.13378E+00 4.87046E-13-4.33313E-13
 -1      2663 2.01896E+01 1.88657E+00 6.46861E-03 9.26249E-01 4.42847E-13-4.27771E-13
 -1      2664 2.02133E+01 7.26844E-01-3.48782E-03 6.42407E-01 4.27654E-13-1.29089E-13
 -1      2665 2.03553E+01 9.51701E-01 9.17215E-03 9.06120E-01 4.78953E-13-1.12415E-13
 -1      2666 2.98700E+01 6.41883E+00-2.19252E-01-2.07787E+00-2.92266E-14-9.69363E-14
 -1      2667 2.99473E+01 5.15194E+00-1.21470E-01-2.89943E+00-1.23679E-13-7.38715E-14
 -1      2668 2.00703E+01 4.15630E-01-1.61984E-03 2.87379E-01 3.43084E-13-1.40405E-13
 -1      2669 2.01717E+01 5.54072E-01 1.04802E-02 4.50306E-01 3.79335E-13-1.14082E-13
 -1      2670 2.02542E+01 8.21973E-01 8.38530E-04 6.17011E-01 4.19602E-13-2.44470E-13
 -1      2671 1.58834E+01-2.95373E+00 4.03116E-01-7.92017E+00 5.11424E-13 2.00270E-13
 -1      2672 1.79049E+01-4.17610E+00 8.58706E-02-8.37669E+00 4.39732E-13-9.69502E-14
 -1      2673 2.02158E+01 6.27123E-01 7.82734E-03-4.36932E-01-3.19822E-13-2.91021E-13
 -1      2674 2.01328E+01 4.75852E-01-3.11014E-03-2.77836E-01-2.75128E-13-2.78915E-13
 -1      2675 2.01066E+01 3.62301E-01 6.61862E-03-1.58371E-01-2.46300E-13-2.56927E-13
 -1      2676 2.00474E+01 2.67656E-01-1.74408E-03-6.07369E-02-2.05697E-13-2.81883E-13
 -1      2677 2.01958E+01 5.28637E-01-1.45487E-03-2.61692E-01-2.66323E-13-3.35386E-13
 -1      2678 2.00212E+01 1.97490E-01 4.53390E-03 1.45686E-02-1.85560E-13-2.80002E-13
 -1      2679 1.99853E+01 1.37952E-01-8.35003E-04 7.11479E-02-1.84766E-13-2.81520E-13
 -1      2680 2.01264E+01 2.98516E-01-2.09010E-03-5.53791E-02-2.08386E-13-3.30379E-13
 -1      2681 1.99643E+01 9.37600E-02 2.90641E-03 1.14520E-01-1.95626E-13-2.66190E-13
 -1      2682 1.99462E+01 5.64250E-02-3.01781E-04 1.43910E-01-1.76493E-13-2.90688E-13
 -1      2683 2.00698E+01 1.52443E-01-1.88655E-03 7.19913E-02-1.93851E-13-3.04946E-13
 -1      2684 1.99311E+01 2.89355E-02 1.73516E-03 1.65316E-01-1.49703E-13-2.79052E-13
 -1      2685 1.99251E+01 6.15450E-03-7.13947E-07 1.77145E-01-1.29188E-13-3.08977E-13
 -1      2686 2.00286E+01 5.99312E-02-1.51811E-03 1.42897E-01-1.76712E-13-2.99474E-13
 -1      2687 1.99153E+01-1.03310E-02 9.30649E-04 1.84151E-01-9.02090E-14-3.11724E-13
 -1      2688 1.99170E+01-2.34406E-02 1.57780E-04 1.85010E-01-8.50888E-14-2.94809E-13
 -1      2689 2.00012E+01 2.87779E-03-1.13890E-03 1.75501E-01-9.91042E-14-3.16984E-13
 -1      2690 1.99112E+01-3.25691E-02 3.92526E-04 1.83034E-01-1.10883E-13-2.67253E-13
 -1      2691 1.99175E+01-3.92098E-02 2.36233E-04 1.77441E-01-1.00201E-13-2.19893E-13
 -1      2692 1.99844E+01-3.05048E-02-8.18918E-04 1.83268E-01-7.72923E-14-2.85012E-13
 -1      2693 1.99145E+01-4.34039E-02 4.61674E-05 1.70313E-01-1.06163E-13-1.70500E-13
 -1      2694 1.99232E+01-4.57307E-02 2.71728E-04 1.61356E-01-6.70129E-14-1.94514E-13
 -1      2695 1.99755E+01-4.79813E-02-5.70789E-04 1.75857E-01-5.65958E-14-1.97688E-13
 -1      2696 1.99222E+01-4.66330E-02-1.65017E-04 1.51743E-01-5.84431E-14-1.90762E-13
 -1      2697 1.99318E+01-4.61091E-02 2.86068E-04 1.41525E-01-6.78843E-14-1.96693E-13
 -1      2698 1.99720E+01-5.47902E-02-3.88367E-04 1.60093E-01-6.60300E-14-2.35684E-13
 -1      2699 1.99321E+01-4.48335E-02-2.83591E-04 1.31262E-01-1.17279E-13-1.97988E-13
 -1      2700 1.99418E+01-4.24395E-02 2.93036E-04 1.21203E-01-1.00588E-13-2.79969E-13
 -1      2701 1.99722E+01-5.44974E-02-2.60382E-04 1.40726E-01-1.21605E-13-2.86576E-13
 -1      2702 1.99431E+01-3.97227E-02-3.41315E-04 1.11539E-01-5.67912E-14-2.97732E-13
 -1      2703 1.99524E+01-3.60871E-02 3.02198E-04 1.02602E-01-6.37729E-14-3.06891E-13
 -1      2704 1.99747E+01-4.95020E-02-1.75314E-04 1.21027E-01-1.09904E-13-2.59848E-13
 -1      2705 1.99542E+01-3.23856E-02-3.61681E-04 9.43995E-02-7.21172E-14-2.81243E-13
 -1      2706 1.99632E+01-2.78737E-02 3.20748E-04 8.72533E-02-1.11482E-13-2.64882E-13
 -1      2707 1.99787E+01-4.13535E-02-1.23502E-04 1.03246E-01-4.08474E-14-2.88649E-13
 -1      2708 1.99654E+01-2.34328E-02-3.61847E-04 8.11320E-02-1.76507E-13-1.91055E-13
 -1      2709 1.99741E+01-1.82103E-02 3.54484E-04 7.62800E-02-1.65860E-13-1.74375E-13
 -1      2710 1.99838E+01-3.09658E-02-9.71970E-05 8.89661E-02-8.46755E-14-2.52750E-13
 -1      2711 1.99767E+01-1.31150E-02-3.54327E-04 7.27321E-02-1.96126E-13-2.02972E-13
 -1      2712 1.99854E+01-7.19675E-03 4.08318E-04 7.06040E-02-1.67784E-13-2.50645E-13
 -1      2713 1.99898E+01-1.87721E-02-9.02826E-05 7.93762E-02-2.00152E-13-1.09196E-13
 -1      2714 1.99883E+01-1.41161E-03-3.48250E-04 7.00801E-02-1.09990E-13-2.67200E-13
 -1      2715 1.99975E+01 5.29997E-03 4.86536E-04 7.11028E-02-9.39355E-14-2.76944E-13
 -1      2716 1.99965E+01-4.84264E-03-9.79976E-05 7.54793E-02-1.70216E-13-1.86981E-13
 -1      2717 2.00009E+01 1.18979E-02-3.50214E-04 7.40751E-02-4.84646E-14-2.75866E-13
 -1      2718 2.00111E+01 1.95780E-02 5.92754E-04 7.87222E-02 1.31781E-14-2.71358E-13
 -1      2719 2.00041E+01 1.10204E-02-1.16560E-04 7.82463E-02-6.96457E-14-1.97140E-13
 -1      2720 2.00151E+01 2.71667E-02-3.64849E-04 8.57281E-02 2.19398E-14-2.70767E-13
 -1      2721 2.00271E+01 3.60334E-02 7.29626E-04 9.45507E-02 2.93524E-14-2.68222E-13
 -1      2722 2.00129E+01 2.91990E-02-1.42816E-04 8.87265E-02 1.55870E-15-2.70327E-13
 -1      2723 2.00317E+01 4.48106E-02-3.95033E-04 1.06216E-01 9.20581E-14-3.21439E-13
 -1      2724 2.00463E+01 5.50822E-02 8.98266E-04 1.19852E-01 1.26056E-13-3.56101E-13
 -1      2725 2.00232E+01 5.01727E-02-1.73982E-04 1.08116E-01 6.01197E-14-2.36393E-13
 -1      2726 2.00518E+01 6.52202E-02-4.41740E-04 1.36893E-01 1.52644E-13-3.78709E-13
 -1      2727 2.00698E+01 7.70596E-02 1.09734E-03 1.56054E-01 1.47420E-13-3.44904E-13
 -1      2728 2.00354E+01 7.44162E-02-2.07546E-04 1.37786E-01 1.22870E-13-3.55035E-13
 -1      2729 2.00765E+01 8.86420E-02-5.03365E-04 1.79251E-01 1.06415E-13-3.11246E-13
 -1      2730 2.00989E+01 1.02076E-01 1.32174E-03 2.04667E-01 1.37017E-13-2.47022E-13
 -1      2731 2.00500E+01 1.02263E-01-2.41440E-04 1.79254E-01 1.70943E-13-3.77006E-13
 -1      2732 2.01070E+01 1.15006E-01-5.74369E-04 2.34805E-01 8.26157E-14-3.11938E-13
 -1      2733 2.01349E+01 1.29807E-01 1.56086E-03 2.67138E-01-3.33923E-15-3.27745E-13
 -1      2734 2.00675E+01 1.33715E-01-2.74733E-04 2.34099E-01 4.41745E-14-1.95876E-13
 -1      2735 2.01448E+01 1.43674E-01-6.42930E-04 3.04895E-01-9.93833E-14-3.25321E-13
 -1      2736 2.01794E+01 1.59187E-01 1.79637E-03 3.44571E-01-1.27696E-13-4.13029E-13
 -1      2737 2.00887E+01 1.68156E-01-3.09207E-04 3.03791E-01-5.09245E-14-4.14492E-13
 -1      2738 2.01918E+01 1.73064E-01-6.87201E-04 3.90348E-01-6.43124E-14-3.76086E-13
 -1      2739 2.02342E+01 1.87955E-01 1.99974E-03 4.37314E-01 5.51638E-14-3.68006E-13
 -1      2740 2.01145E+01 2.03951E-01-3.52457E-04 3.89408E-01-5.86710E-14-2.82079E-13
 -1      2741 2.02501E+01 2.00126E-01-6.69653E-04 4.90975E-01 7.63795E-14-3.65171E-13
 -1      2742 2.03015E+01 2.12033E-01 2.12935E-03 5.44329E-01 3.55616E-14-3.51530E-13
 -1      2743 2.01463E+01 2.37860E-01-4.23343E-04 4.91218E-01 5.52490E-14-3.19356E-13
 -1      2744 2.03225E+01 2.19602E-01-5.29064E-04 6.04827E-01 9.62365E-14-3.45039E-13
 -1      2745 2.03844E+01 2.24666E-01 2.12742E-03 6.62299E-01 6.75460E-14-3.10249E-13
 -1      2746 2.01864E+01 2.64231E-01-5.60828E-04 6.08069E-01 7.10745E-14-4.12284E-13
 -1      2747 2.04136E+01 2.23076E-01-1.70243E-04 7.27154E-01-4.65195E-14-2.75146E-13
 -1      2748 2.04876E+01 2.15394E-01 1.91588E-03 7.84401E-01-7.43288E-14-3.10351E-13
 -1      2749 2.02385E+01 2.73946E-01-8.36885E-04 7.36551E-01 1.30071E-14-3.42471E-13
 -1      2750 2.05299E+01 1.97903E-01 5.46621E-04 8.48986E-01 2.50635E-14-2.05920E-13
 -1      2751 2.06181E+01 1.68998E-01 1.38897E-03 8.98694E-01 9.28919E-14-1.58504E-13
 -1      2752 2.03096E+01 2.53180E-01-1.37254E-03 8.69844E-01 6.45354E-14-2.27480E-13
 -1      2753 2.06819E+01 1.26321E-01 1.81059E-03 9.55242E-01 6.27570E-15-1.55679E-13
 -1      2754 2.07874E+01 6.49899E-02 3.97440E-04 9.86069E-01 8.43535E-15-1.92692E-13
 -1      2755 2.04108E+01 1.82254E-01-2.35145E-03 9.96171E-01 4.87417E-14-1.77553E-13
 -1      2756 2.08854E+01-1.43698E-02 3.84272E-03 1.02233E+00-9.35247E-14-2.12384E-13
 -1      2757 2.10121E+01-1.21077E-01-1.28022E-03 1.01787E+00-2.17514E-13-2.32205E-13
 -1      2758 2.05608E+01 3.53583E-02-4.01380E-03 1.09665E+00-6.13107E-14-1.45772E-13
 -1      2759 2.11630E+01-2.48783E-01 6.82150E-03 1.01529E+00-1.80044E-13-1.17101E-13
 -1      2760 2.13148E+01-4.11910E-01-3.94294E-03 9.53523E-01-3.51645E-14-8.18319E-14
 -1      2761 2.07877E+01-2.17129E-01-6.58492E-03 1.14231E+00-1.63955E-13 1.45537E-14
 -1      2762 2.15415E+01-5.94102E-01 1.07076E-02 8.85153E-01-1.19703E-14 3.53396E-15
 -1      2763 2.17192E+01-8.14084E-01-7.94849E-03 7.39533E-01 9.58086E-14 3.08851E-14
 -1      2764 2.11303E+01-6.00220E-01-1.00302E-02 1.08996E+00 9.44064E-15-2.59061E-14
 -1      2765 2.20426E+01-1.03970E+00 1.46227E-02 5.68989E-01 1.87926E-13-2.66112E-14
 -1      2766 2.22367E+01-1.28949E+00-1.33435E-02 3.13648E-01 1.34798E-13 1.17909E-13
 -1      2767 2.16325E+01-1.11403E+00-1.36617E-02 8.78009E-01 1.00779E-13 4.92704E-14
 -1      2768 2.26580E+01-1.51058E+00 1.62978E-02-3.21153E-04-1.30888E-14 3.05268E-14
 -1      2769 2.28381E+01-1.71099E+00-1.85559E-02-3.75900E-01 1.50396E-14-1.34830E-14
 -1      2770 2.23243E+01-1.69490E+00-1.54719E-02 4.26507E-01 3.81622E-14-1.89832E-13
 -1      2771 2.33048E+01-1.81769E+00 1.14721E-02-8.56240E-01 4.49493E-14-4.81173E-14
 -1      2772 2.34187E+01-1.82347E+00-1.90981E-02-1.31366E+00-7.94891E-14-1.85368E-13
 -1      2773 2.31775E+01-2.15474E+00-1.12327E-02-3.43076E-01-6.76725E-14-2.11615E-13
 -1      2774 2.37803E+01-1.64178E+00-6.45376E-03-1.89564E+00-2.10110E-13-2.87927E-13
 -1      2775 2.37620E+01-1.30127E+00-1.46511E-02-2.29236E+00-1.52461E-13-4.00158E-13
 -1      2776 2.40022E+01-2.15056E+00-1.36517E-02-1.44731E+00-2.16251E-13-2.61937E-13
 -1      2777 2.39214E+01-7.18906E-01-1.71698E-02-2.81630E+00 9.75296E-14-4.71304E-13
 -1      2778 2.37358E+01 6.27711E-02 1.76573E-02-2.95694E+00 2.55542E-13-3.71725E-13
 -1      2779 2.45965E+01-1.30197E+00-2.69516E-02-2.61607E+00-9.17200E-14-1.73517E-13
 -1      2780 2.34758E+01 8.94510E-01-6.75025E-02-2.97809E+00 3.42504E-13-3.09077E-13
 -1      2781 2.32615E+01 1.79592E+00 8.76937E-03-2.69332E+00 1.46994E-13-4.32731E-14
 -1      2782 2.45401E+01 4.98709E-01 1.82812E-03-3.21104E+00 3.15733E-13-4.61168E-13
 -1      2783 2.29506E+01 2.48372E+00-5.29893E-02-2.05594E+00-1.16830E-13 1.18820E-13
 -1      2784 2.27876E+01 2.89544E+00-2.19845E-02-1.39094E+00-1.36606E-13 1.71091E-13
 -1      2785 2.41327E+01 2.56437E+00-7.49411E-03-2.61411E+00 1.43566E-13-4.83445E-13
 -1      2786 2.27772E+01 2.92256E+00-1.38002E-02-4.25772E-01-1.93862E-13 4.25650E-13
 -1      2787 2.27316E+01 2.54597E+00-6.69203E-02 2.42326E-01-6.49966E-14 3.73653E-13
 -1      2788 2.38434E+01 3.56655E+00-1.38848E-02-9.32735E-01-4.51618E-14 8.51138E-14
 -1      2789 2.30127E+01 1.93793E+00 1.67462E-02 9.02828E-01 4.03878E-14 3.45927E-13
 -1      2790 2.30365E+01 1.10450E+00-6.98353E-02 1.21637E+00 1.80975E-13 4.82673E-13
 -1      2791 2.40271E+01 2.79594E+00 1.01158E-02 7.71732E-01-4.16785E-14 4.70528E-13
 -1      2792 2.31950E+01 3.71085E-01 1.07374E-02 1.24730E+00 5.72606E-14 3.01757E-13
 -1      2793 2.31783E+01-2.82399E-01-3.07102E-02 1.17288E+00-1.98111E-14 1.47755E-13
 -1      2794 2.42653E+01 9.30875E-01 1.14056E-02 1.38114E+00-8.99524E-14 4.77828E-13
 -1      2795 2.29296E+01-7.11805E-01-1.13978E-02 7.95087E-01-5.56014E-14-3.93368E-14
 -1      2796 2.27733E+01-9.24921E-01 7.93487E-04 5.29250E-01-2.08358E-13-1.11613E-13
 -1      2797 2.40601E+01-6.46583E-01 7.42583E-03 8.68497E-01-2.35413E-13 2.25472E-13
 -1      2798 1.98553E+01 4.91024E-02 4.43844E-05-1.43968E-01 1.51462E-13-1.94749E-13
 -1      2799 1.98693E+01 8.10240E-02 3.16159E-03-1.15716E-01 1.83029E-13-1.91650E-13
 -1      2800 2.96277E+01 6.84874E+00-1.68026E-01-7.03246E-02-2.20629E-13-2.44790E-13
 -1      2801 2.96223E+01 6.99980E+00-2.04138E-01-1.24383E+00-1.08469E-13-1.06980E-13
 -1      2802 1.98923E+01 1.18637E-01-2.65614E-04-7.12592E-02 1.91351E-13-2.11333E-13
 -1      2803 1.99280E+01 1.70265E-01 5.19311E-03-1.58018E-02 2.44080E-13-1.86819E-13
 -1      2804 1.99917E+01 1.35267E-01-2.33243E-03-7.28069E-02 2.05646E-13-2.26495E-13
 -1      2805 1.98433E+01-1.85206E-02 2.37615E-04-1.84193E-01 5.79246E-14-1.92181E-13
 -1      2806 1.98350E+01-7.40413E-03 8.81841E-04-1.83821E-01 8.24094E-14-1.99550E-13
 -1      2807 1.98543E+01-3.19506E-02 2.46855E-04-1.76328E-01 5.36055E-14-1.90204E-13
 -1      2808 1.98415E+01-2.62871E-02 2.97416E-04-1.82162E-01 4.97491E-14-2.07117E-13
 -1      2809 1.99201E+01-2.52105E-02-8.48758E-04-1.87046E-01 7.00663E-14-2.62132E-13
 -1      2810 1.98701E+01-3.76602E-02 2.39348E-04-1.60042E-01 1.14999E-13-2.11313E-13
 -1      2811 1.98556E+01-3.56081E-02-6.51138E-05-1.69090E-01 8.91718E-14-2.11260E-13
 -1      2812 1.99200E+01-4.05699E-02-5.50113E-04-1.79244E-01 8.89524E-14-2.40731E-13
 -1      2813 1.98880E+01-3.82689E-02 2.29198E-04-1.40029E-01 6.04481E-14-1.80712E-13
 -1      2814 1.98733E+01-3.85875E-02-2.75410E-04-1.50278E-01 1.08634E-13-1.79481E-13
 -1      2815 1.99251E+01-4.67468E-02-3.39828E-04-1.62903E-01 1.10785E-13-2.15807E-13
 -1      2816 1.99062E+01-3.55379E-02 2.24398E-04-1.19459E-01 8.09927E-14-2.31584E-13
 -1      2817 1.98922E+01-3.73977E-02-3.83206E-04-1.29563E-01 5.23929E-14-1.97560E-13
 -1      2818 1.99333E+01-4.68505E-02-1.99690E-04-1.42838E-01 6.68095E-14-2.75125E-13
 -1      2819 1.99238E+01-3.06178E-02 2.30385E-04-1.00469E-01 8.00776E-14-1.88379E-13
 -1      2820 1.99108E+01-3.34859E-02-4.24158E-04-1.09526E-01 8.20366E-14-1.64960E-13
 -1      2821 1.99430E+01-4.29644E-02-1.13329E-04-1.22332E-01 5.95643E-14-1.84687E-13
 -1      2822 1.99404E+01-2.42059E-02 2.51600E-04-8.45148E-02 5.64543E-14-1.40351E-13
 -1      2823 1.99286E+01-2.77706E-02-4.23974E-04-9.19072E-02 8.62433E-14-1.47930E-13
 -1      2824 1.99534E+01-3.64361E-02-6.75692E-05-1.03617E-01 8.12124E-14-1.46997E-13
 -1      2825 1.99562E+01-1.66565E-02 2.92312E-04-7.26485E-02 6.41868E-14-1.39708E-13
 -1      2826 1.99452E+01-2.07739E-02-4.00858E-04-7.79197E-02 5.79482E-14-7.66078E-14
 -1      2827 1.99639E+01-2.80658E-02-5.26886E-05-8.82468E-02 2.33029E-14-7.68259E-14
 -1      2828 1.99718E+01-8.05768E-03 3.56951E-04-6.57242E-02 2.87985E-14-2.38776E-14
 -1      2829 1.99612E+01-1.27150E-02-3.67790E-04-6.84866E-02 1.26494E-14-1.13142E-13
 -1      2830 1.99746E+01-1.82372E-02-6.12319E-05-7.73723E-02 1.06922E-14-3.95187E-14
 -1      2831 1.99879E+01 1.71238E-03 4.50312E-04-6.45594E-02-1.20409E-14 5.42428E-14
 -1      2832 1.99770E+01-3.57604E-03-3.34103E-04-6.44214E-02 6.72123E-14 5.64933E-14
 -1      2833 1.99856E+01-7.01139E-03-8.79745E-05-7.19552E-02-1.11540E-14 7.17240E-14
 -1      2834 2.00055E+01 1.29422E-02 5.77536E-04-7.00601E-02-1.16227E-14 2.74635E-14
 -1      2835 1.99935E+01 6.84926E-03-3.06558E-04-6.65704E-02 4.60054E-15 3.30608E-14
 -1      2836 1.99975E+01 5.80572E-03-1.29007E-04-7.29347E-02-9.15404E-15 1.05109E-13
 -1      2837 2.00258E+01 2.60513E-02 7.43987E-04-8.33160E-02-3.80140E-14-2.11045E-14
 -1      2838 2.00119E+01 1.89156E-02-2.90296E-04-7.59208E-02-3.37911E-14-3.56781E-14
 -1      2839 2.00108E+01 2.06087E-02-1.81153E-04-8.13539E-02 3.75967E-14 5.37682E-14
 -1      2840 2.00504E+01 4.15558E-02 9.54886E-04-1.05669E-01 7.75086E-14-1.15837E-13
 -1      2841 2.00335E+01 3.30925E-02-2.89507E-04-9.36816E-02 3.13617E-14-5.41989E-14
 -1      2842 2.00263E+01 3.79469E-02-2.41368E-04-9.84538E-02 2.15301E-14-5.46673E-14
 -1      2843 2.00809E+01 6.00287E-02 1.21462E-03-1.38753E-01 1.92890E-13-1.78215E-13
 -1      2844 2.00596E+01 4.99278E-02-3.07893E-04-1.21339E-01 1.64319E-13-1.59150E-13
 -1      2845 2.00448E+01 5.84782E-02-3.06111E-04-1.25737E-01 1.93058E-13-1.04944E-13
 -1      2846 2.01192E+01 8.20407E-02 1.52562E-03-1.84501E-01 1.10164E-13-1.23529E-13
 -1      2847 2.00921E+01 7.00011E-02-3.48852E-04-1.60677E-01 1.63016E-13-1.33317E-13
 -1      2848 2.00672E+01 8.29110E-02-3.70760E-04-1.64996E-01 1.51940E-13-1.19018E-13
 -1      2849 2.01673E+01 1.08065E-01 1.88656E-03-2.45097E-01-1.80723E-14-1.54777E-13
 -1      2850 2.01329E+01 9.38495E-02-4.15238E-04-2.13767E-01 3.56055E-14-8.07798E-14
 -1      2851 2.00946E+01 1.11919E-01-4.29160E-04-2.18307E-01 7.56054E-14-5.92140E-14
 -1      2852 2.02273E+01 1.38315E-01 2.28963E-03-3.22856E-01-1.73972E-14-2.56478E-13
 -1      2853 2.01838E+01 1.21845E-01-5.08393E-04-2.82881E-01 2.94608E-14-2.09568E-13
 -1      2854 2.01280E+01 1.45999E-01-4.73648E-04-2.87953E-01 4.56568E-15-7.05291E-14
 -1      2855 2.03014E+01 1.72460E-01 2.71662E-03-4.19983E-01-1.11618E-13-2.56988E-13
 -1      2856 2.02471E+01 1.53982E-01-6.25848E-04-3.70328E-01-7.10360E-14-2.37180E-13
 -1      2857 2.01682E+01 1.85236E-01-4.96166E-04-3.76278E-01-5.33533E-14-1.47984E-13
 -1      2858 2.03918E+01 2.09148E-01 3.13347E-03-5.38140E-01-3.28833E-14-2.03237E-13
 -1      2859 2.03249E+01 1.89511E-01-7.56688E-04-4.78138E-01-4.92077E-14-2.42208E-13
 -1      2860 2.02161E+01 2.28893E-01-4.91729E-04-4.85413E-01-7.37860E-14-9.01586E-14
 -1      2861 2.05008E+01 2.45197E-01 3.48303E-03-6.77723E-01-1.38269E-13-9.86474E-14
 -1      2862 2.04196E+01 2.26320E-01-8.72947E-04-6.07513E-01-7.92425E-14-8.04886E-14
 -1      2863 2.02726E+01 2.74735E-01-4.66406E-04-6.16815E-01-1.44587E-13-6.74937E-14
 -1      2864 2.06309E+01 2.74302E-01 3.67620E-03-8.36698E-01-1.03747E-13-1.86917E-13
 -1      2865 2.05337E+01 2.59914E-01-9.14666E-04-7.57943E-01-8.74974E-14-1.90064E-13
 -1      2866 2.03387E+01 3.17908E-01-4.53274E-04-7.70556E-01-4.84201E-14-6.36066E-14
 -1      2867 2.07857E+01 2.85072E-01 3.58146E-03-1.00879E+00-1.04444E-13-5.44482E-14
 -1      2868 2.06710E+01 2.81818E-01-7.65886E-04-9.25786E-01-1.62539E-13-1.63021E-13
 -1      2869 2.04167E+01 3.49189E-01-5.41002E-04-9.44234E-01-1.49541E-13-1.34876E-13
 -1      2870 2.09716E+01 2.58361E-01 3.01068E-03-1.18077E+00 7.91417E-14-2.16524E-14
 -1      2871 2.08375E+01 2.77259E-01-2.20104E-04-1.10209E+00 1.10211E-14 3.63480E-14
 -1      2872 2.05114E+01 3.52416E-01-9.19374E-04-1.13135E+00-8.17507E-14-9.17709E-14
 -1      2873 2.12008E+01 1.64348E-01 1.69439E-03-1.32861E+00-7.52175E-14 6.93521E-14
 -1      2874 2.10443E+01 2.22273E-01 1.05924E-03-1.26931E+00 5.92004E-14 1.14425E-13
 -1      2875 2.06337E+01 3.01156E-01-1.94089E-03-1.31892E+00 1.73551E-15 1.16359E-13
 -1      2876 2.14958E+01-3.87398E-02-7.65416E-04-1.41237E+00-8.07110E-14-3.91299E-15
 -1      2877 2.13120E+01 8.12377E-02 3.56576E-03-1.39666E+00-5.71815E-14 9.47522E-14
 -1      2878 2.08058E+01 1.55424E-01-4.17346E-03-1.48388E+00-9.42824E-14 6.13084E-14
 -1      2879 2.18934E+01-3.99186E-01-4.97308E-03-1.37003E+00-1.14511E-13 1.21602E-13
 -1      2880 2.16756E+01-1.92008E-01 7.89350E-03-1.43355E+00-9.00447E-14 1.01206E-13
 -1      2881 2.10685E+01-1.38688E-01-8.34249E-03-1.58756E+00-9.95905E-14-1.32946E-13
 -1      2882 2.24419E+01-9.48473E-01-1.15141E-02-1.11222E+00-9.79100E-14 6.17182E-14
 -1      2883 2.21860E+01-6.41968E-01 1.43895E-02-1.30174E+00-9.33590E-14 1.77180E-13
 -1      2884 2.14893E+01-6.39192E-01-1.49285E-02-1.56672E+00-1.00664E-13 2.29873E-15
 -1      2885 2.31797E+01-1.64272E+00-2.03343E-02-5.26281E-01-1.30586E-13 1.03600E-13
 -1      2886 2.28975E+01-1.27331E+00 2.23074E-02-8.90274E-01-1.17217E-13 8.36748E-14
 -1      2887 2.21603E+01-1.37215E+00-2.28094E-02-1.32069E+00-1.28540E-13-1.36798E-13
 -1      2888 2.40770E+01-2.25656E+00-2.91435E-02 4.87471E-01-1.26709E-13 3.26837E-13
 -1      2889 2.38187E+01-1.97105E+00 2.63663E-02-7.01741E-02-6.09936E-14 2.76861E-13
 -1      2890 2.31664E+01-2.24598E+00-2.76878E-02-7.04913E-01-2.10503E-13 3.71868E-14
 -1      2891 2.49376E+01-2.28936E+00-3.45957E-02 1.87785E+00-2.59860E-13 6.81267E-13
 -1      2892 2.48080E+01-2.37070E+00 1.45019E-02 1.21896E+00-2.91531E-13 5.31725E-13
 -1      2893 2.44887E+01-2.89847E+00-2.22668E-02 4.33553E-01-3.65017E-13 3.72531E-13
 -1      2894 2.54053E+01-1.08923E+00-1.76697E-02 3.22272E+00-7.68621E-14 6.59948E-13
 -1      2895 2.55028E+01-1.85816E+00-2.47705E-02 2.74879E+00-1.04703E-13 7.54938E-13
 -1      2896 2.58051E+01-2.68123E+00-3.54146E-02 2.04720E+00-2.68018E-13 5.05351E-13
 -1      2897 2.51025E+01 1.24313E+00-1.94319E-02 3.55378E+00 8.06508E-14 5.85785E-13
 -1      2898 2.55047E+01 4.98605E-03-7.80612E-02 3.70121E+00-1.63237E-14 6.53937E-13
 -1      2899 2.65920E+01-7.46446E-01-5.61970E-02 3.56427E+00-4.30073E-14 6.53332E-13
 -1      2900 2.57147E+01 4.15005E+00-1.30677E-01 2.30701E+00 3.45182E-13 4.01295E-13
 -1      2901 2.60726E+01 3.14471E+00-1.44141E-01 3.23330E+00 2.87589E-13 4.20702E-13
 -1      2902 2.62014E+01 4.22745E+00-1.66651E-01-2.80580E-01 6.31051E-13 1.72427E-13
 -1      2903 2.61302E+01 4.72326E+00-1.64792E-01 7.73508E-01 5.99076E-13 3.30833E-13
 -1      2904 2.48052E+01-9.10637E-01-5.32497E-02-1.31013E+00 9.38589E-14-1.76302E-13
 -1      2905 2.47568E+01 1.08117E-02-1.25655E-02-1.47570E+00 2.80113E-13-1.55636E-13
 -1      2906 2.40239E+01-1.72080E+00-1.66773E-02-1.47664E-01-2.19390E-14 9.51279E-14
 -1      2907 2.43101E+01-1.49477E+00-2.86045E-02-6.18844E-01 2.74954E-15-5.05520E-15
 -1      2908 2.58023E+01-1.61543E+00-3.21626E-02-6.78006E-01-2.66939E-14-1.28720E-13
 -1      2909 2.30693E+01-1.46587E+00 5.13725E-03 9.29348E-01-6.21560E-14 3.58597E-13
 -1      2910 2.35425E+01-1.74530E+00-2.47949E-02 5.38022E-01-6.83975E-14 2.53231E-13
 -1      2911 2.47994E+01-2.26249E+00 1.36658E-02 7.37493E-01-2.78138E-13 9.62746E-14
 -1      2912 2.35919E+01-1.69254E+00 3.09446E-02 1.86915E+00-1.40873E-13 1.55866E-13
 -1      2913 1.10591E+01 8.73870E-01 2.52979E-01-3.32731E+00 1.24168E-13 1.14353E-14
 -1      2914 1.01972E+01 1.05584E+00 1.28814E-01-6.03796E-01 1.71100E-13 3.19134E-13
 -1      2915 2.23648E+01-9.33321E-01-1.65200E-02 2.29551E-01-2.46077E-13-1.05074E-13
 -1      2916 2.21744E+01-8.85925E-01 2.26753E-03 8.81763E-02-2.79300E-13-5.40349E-14
 -1      2917 2.33978E+01-1.21353E+00-1.15360E-02 1.24980E-01-3.23230E-13-1.01376E-13
 -1      2918 1.71360E+01-5.24835E-01-2.59163E-02 6.26622E+00-5.80230E-14 2.20504E-13
 -1      2919 1.98159E+01-1.20770E+00 1.97047E-01 6.32078E+00-2.39898E-13-5.50324E-14
 -1      2920 1.75603E+01-9.67298E-01 1.45235E-01-6.84428E+00 3.72591E-13 1.05568E-13
 -1      2921 1.51226E+01-1.70380E-01 7.56407E-02-5.62600E+00 3.59369E-13 1.14797E-13
 -1      2922 1.99525E+01-1.82129E+00 1.20620E-01-6.71150E+00 3.59629E-13-7.61405E-14
 -1      2923 2.35750E+01-2.38061E+00 6.11487E-02-4.61032E+00-2.90393E-14-2.48987E-13
 -1      2924 2.24615E+01-2.18071E+00-2.34308E-02-5.48458E+00 7.52922E-14-5.19553E-13
 -1      2925 2.38359E+01-2.02904E+00-2.84857E-02-2.31775E+00-2.49387E-13 1.60204E-14
 -1      2926 2.39136E+01-2.09913E+00 2.49593E-02-3.28094E+00-1.39483E-13 3.79557E-15
 -1      2927 2.45653E+01-3.01626E+00 2.01694E-02-3.85191E+00-8.46033E-14-2.07345E-13
 -1      2928 1.99617E+01 2.30970E-01-8.36256E-04 6.22997E-02 2.92393E-13-2.01386E-13
 -1      2929 2.00274E+01 3.14913E-01 7.83643E-03 1.59926E-01 3.12411E-13-1.58062E-13
 -1      2930 2.01463E+01 4.77741E-01-1.91562E-03 2.79930E-01 3.51637E-13-2.32465E-13
 -1      2931 2.00565E+01 2.65778E-01-2.71791E-03 6.02439E-02 2.77508E-13-2.31865E-13
 -1      2932 3.04174E+01-9.58729E-01-9.09653E-02 5.50504E-03-3.71217E-13-5.00835E-13
 -1      2933 3.05615E+01 1.14486E+00-2.17713E-01 8.02910E-01-9.72000E-14-3.72605E-13
 -1      2934 3.06627E+01 7.24874E-02-2.18626E-01-7.81052E-01 2.79832E-13-2.05225E-13
 -1      2935 3.07847E+01-1.85231E+00-5.99135E-02 2.06226E-01 1.93429E-13-1.89737E-13
 -1      2936 3.05424E+01 3.61010E+00-1.07003E-01 1.25994E+00 1.18794E-14-2.15827E-13
 -1      2937 2.99507E+01 5.52700E+00-2.35225E-01 8.01251E-01-5.56222E-14-2.62346E-13
 -1      2938 2.03203E+01 1.70982E+00-9.82661E-03-1.33135E+00-4.68990E-13-4.33757E-13
 -1      2939 2.02877E+01 1.32821E+00-7.05587E-03-1.03421E+00-4.34852E-13-3.82277E-13
 -1      2940 1.37474E+01-4.25575E+00 5.29711E-02 6.34451E+00 2.29566E-13-4.39607E-13
 -1      2941 1.10457E+01-3.10007E+00 2.15505E-01 5.42742E+00 1.26663E-13-1.88183E-13
 -1      2942 1.98416E+01 6.52275E-03 1.85682E-04-1.76750E-01 1.11384E-13-2.00844E-13
 -1      2943 1.98416E+01 2.58678E-02 1.78736E-03-1.65739E-01 1.34090E-13-1.88298E-13
 -1      2944 1.99511E+01 5.38107E-02-1.76550E-03-1.46000E-01 1.35685E-13-2.21661E-13
 -1      2945 1.99290E+01 3.93659E-03-1.25350E-03-1.79316E-01 1.11388E-13-1.96565E-13
 -1      2946 2.41970E+01-6.30154E+00 4.98028E-02-3.41235E+00-4.08742E-13-8.83075E-13
 -1      2947 2.69748E+01-5.80713E+00-7.64102E-02-1.77581E+00-3.17898E-13-8.11184E-13
 -1      2948 2.03191E+01 1.03597E+00 5.04058E-03-8.33116E-01-3.86206E-13-3.35639E-13
 -1      2949 2.02254E+01 7.98876E-01-5.16764E-03-5.92769E-01-3.47610E-13-3.16914E-13
 -1      2950 2.02617E+01 8.78688E-01 2.18008E-03-5.53631E-01-3.25467E-13-3.66484E-13
 -1      2951 2.02796E+01 1.38619E+00 1.93232E-03-9.19362E-01-3.87742E-13-4.33563E-13
 -1      2952 1.99228E+01 2.59607E+00-7.90455E-03 7.94281E-01 3.86581E-13-5.74213E-13
 -1      2953 1.98790E+01 2.68819E+00-6.13141E-03 6.45343E-01 3.04510E-13-6.09845E-13
 -1      2954 1.99976E+01 2.38854E+00 4.35097E-03 5.16658E-01 2.65532E-13-5.73673E-13
 -1      2955 2.00795E+01 2.19082E+00 5.68081E-03 7.45417E-01 3.69272E-13-5.17214E-13
 -1      2956 2.25592E+01-1.09446E+00-2.05165E-02-3.64347E-01-3.28612E-13-9.88437E-14
 -1      2957 9.13245E+00-3.17967E+00 1.70582E-01-4.71282E+00-7.07767E-16-3.03341E-13
 -1      2958 1.21034E+01-4.47508E+00 1.09884E-01-6.06350E+00 3.36120E-14-1.93873E-13
 -1      2959 1.98740E+01 2.69706E+00-6.01031E-03-6.34843E-01-1.73079E-13-7.10175E-13
 -1      2960 1.99173E+01 2.60733E+00-7.56361E-03-7.83953E-01-2.38129E-13-6.87679E-13
 -1      2961 2.86903E+01-4.40559E+00 2.73007E-03 1.55437E-01-1.71849E-13-5.59025E-13
 -1      2962 2.99226E+01-3.05434E+00-1.47924E-01 1.39584E+00-9.52467E-14-2.60153E-13
 -1      2963 2.05833E+01-6.20053E+00-6.89000E-02 5.65124E+00 2.49953E-13-2.48510E-13
 -1      2964 1.71354E+01-5.30122E+00 1.44232E-01 6.22426E+00 3.66110E-13-3.11591E-13
 -1      2965 2.00855E+01 2.52684E+00-2.10757E-03-1.45719E+00-4.52371E-13-5.65509E-13
 -1      2966 5.90419E+00-1.76887E+00 1.64146E-01-8.75371E-01 1.46064E-15-5.71876E-13
 -1      2967 6.76297E+00-2.31558E+00 1.49487E-01-3.03510E+00-2.38976E-14-5.18169E-13
 -1      2968 2.03385E+01 1.50032E+00-1.90526E-03 1.26663E+00 5.51601E-13-1.80293E-13
 -1      2969 3.02569E+01-3.34554E+00-1.11701E-01 1.55380E+00 2.53339E-14-1.59206E-13
 -1      2970 2.89122E+01-4.66665E+00-3.05528E-02 2.90455E+00-4.22093E-14-8.35443E-14
 -1      2971 2.92945E+01-2.83176E+00-7.50215E-02 4.16643E-01 9.53734E-14-1.15227E-13
 -1      2972 2.67585E+01-5.65052E+00-1.40502E-01 2.21264E+00 1.20223E-13-1.35891E-13
 -1      2973 2.42441E+01-6.05501E+00 1.13939E-01 3.87815E+00 2.10346E-13-2.91780E-13
 -1      2974 1.07800E+01 1.12451E+00 1.39470E-01 2.50314E+00 1.76109E-13 6.25749E-13
 -1      2975 3.01335E+01 2.71070E+00-2.33509E-01-2.98508E+00-1.25705E-13 1.60233E-13
 -1      2976 3.02175E+01 4.08813E-01-5.40476E-02-2.56646E+00-1.21486E-13 2.81469E-13
 -1      2977 2.96492E+01-2.33237E+00-1.98721E-01-1.28123E+00-1.31121E-13 3.28862E-13
 -1      2978 2.87163E+01-3.93752E+00 2.81536E-02 7.26832E-02-9.38190E-14 2.44901E-13
 -1      2979 1.27296E+01 4.51226E-01 2.15040E-01 4.43214E+00 4.69624E-14 6.93418E-13
 -1      2980 1.99720E+01 2.48966E+00-5.42378E-03-9.01588E-01-2.73896E-13-6.67998E-13
 -1      2981 2.00330E+01 2.36021E+00-6.72748E-03-1.03586E+00-3.40678E-13-6.45103E-13
 -1      2982 2.00728E+01 2.20499E+00 5.97914E-03-7.39297E-01-2.45931E-13-6.29115E-13
 -1      2983 1.99321E+01 2.53862E+00 3.43565E-03 4.61165E-03 3.94423E-14-6.72737E-13
 -1      2984 1.97931E+01 2.87011E+00-5.48311E-03-6.18580E-02 2.37540E-14-7.14038E-13
 -1      2985 1.98006E+01 2.85548E+00-5.53163E-03-2.16512E-01-3.62245E-14-7.29427E-13
 -1      2986 2.05112E+01-4.54303E+00 7.23326E-03-7.49133E+00 3.39603E-13-5.05523E-13
 -1      2987 2.87664E+01 3.35572E+00-9.62106E-02-3.17566E+00 2.27041E-14 1.55181E-13
 -1      2988 2.13486E+01-5.25283E+00 1.19988E-01 7.56031E+00-2.90601E-14-1.28349E-13
 -1      2989 1.96306E+01-3.84131E+00 1.55087E-01 7.51253E+00 1.32255E-14-1.05971E-13
 -1      2990 2.33283E+01-5.30926E+00-6.43378E-02 6.56258E+00-1.34240E-13-1.80436E-13
 -1      2991 2.69986E+01-5.33829E+00 4.99675E-02-5.21187E+00-1.94261E-13-7.14526E-13
 -1      2992 2.77435E+01-4.79159E+00-9.00349E-02-3.58451E+00-1.56042E-13-2.71227E-13
 -1      2993 2.52757E+01-5.17260E+00 9.54730E-02-5.95998E+00-5.75096E-14-5.93029E-13
 -1      2994 2.31363E+01-1.28067E+00 2.31752E-02-1.06005E+00-3.55008E-13 1.70523E-15
 -1      2995 2.74184E+01-4.98225E+00-7.78650E-03-2.13906E-01-3.62141E-13-4.13183E-13
 -1      2996 2.89881E+01-1.15445E+00-7.68973E-02-2.31028E+00-3.85872E-14 3.49623E-13
 -1      2997 2.78953E+01-5.23725E+00-3.09982E-02 3.86733E+00-2.51354E-13-1.25178E-14
 -1      2998 2.64918E+01-5.10900E+00 1.27899E-01 4.64923E+00-2.26277E-13-5.61495E-14
 -1      2999 2.79340E+01-4.34131E+00-3.99583E-02 2.30720E+00-1.52258E-13-5.21944E-14
 -1      3000 2.28714E+01-6.30774E+00 5.16932E-02-4.16339E+00-3.04784E-13-7.98479E-13
 -1      3001 2.44571E+01-5.78833E+00 7.94135E-03-2.59412E+00-2.66329E-13-8.79817E-13
 -1      3002 2.10078E+01-5.70317E+00 9.11514E-02-4.64026E+00-4.24938E-14-5.10730E-13
 -1      3003 2.80412E+01 5.97442E+00-1.12224E-01-1.71296E+00 2.68119E-14-7.24108E-14
 -1      3004 2.91722E+01 2.10866E+00-3.05714E-02 1.41655E+00-2.21767E-14-3.32401E-13
 -1      3005 2.77243E+01 2.91291E+00-1.50736E-01 3.75383E+00 2.82344E-13 4.21010E-13
 -1      3006 2.74379E+01 1.25478E+00-1.16707E-01-1.58224E+00 4.97685E-13-2.57336E-13
 -1      3007 2.58246E+01 1.88792E+00-1.03695E-01-1.53323E+00 5.88744E-13-1.14058E-13
 -1      3008 2.55171E+01 3.11881E+00-9.29828E-02-9.49705E-01 5.74540E-13 9.97726E-14
 -1      3009 2.37838E+01-2.23394E+00 9.15916E-03 3.01202E+00-1.55815E-13-2.59124E-15
 -1      3010 2.44906E+01-2.71362E+00 1.08908E-02 2.52597E+00-3.10472E-13 5.03590E-15
 -1      3011 2.34723E+01-2.23425E+00 2.91821E-03 3.99350E+00-3.85236E-13-7.64241E-14
 -1      3012 1.65820E+01-4.21481E+00 1.25757E-01 5.66546E+00 3.43753E-13-3.16580E-13
 -1      3013 1.52374E+01-4.68024E+00 1.15536E-01-5.70283E+00-2.31898E-14-2.44540E-13
 -1      3014 2.14095E+01-3.38766E+00 3.76776E-02-6.64879E+00 2.12302E-13-3.67185E-13
 -1      3015 9.64798E+00-2.19240E+00 1.70592E-01-3.76862E+00-9.43690E-14-3.72063E-13
 -1      3016 2.40441E+01-1.83956E+00 1.80360E-02-1.20504E+00-4.77415E-13-8.68767E-14
 -1      3017 2.93874E+01 1.05920E+00-1.42146E-01-1.29658E+00 5.06414E-13-2.65815E-13
 -1      3018 2.27949E+01-5.70756E+00 7.65468E-02 4.17029E+00 2.93418E-13-3.37574E-13
 -1      3019 1.21665E+01-2.11723E+00 8.22639E-02-6.45402E+00 3.40811E-13 1.08941E-13
 -1      3020 2.82829E+01 5.43173E+00-9.23751E-02 4.51890E-01-5.97300E-14-1.88877E-13
 -1      3021 1.06251E+01-2.26404E+00 1.47018E-01 4.50621E+00 1.28286E-13-2.48773E-13
 -1      3022 1.98162E+01 2.81994E+00-5.69295E-03-3.51686E-01-7.70076E-14-7.22226E-13
 -1      3023 1.98403E+01 2.77176E+00-6.17911E-03-5.05252E-01-1.41347E-13-7.24376E-13
 -1      3024 1.99936E+01 2.39637E+00 4.44480E-03-5.07445E-01-1.56082E-13-6.68103E-13
 -1      3025 1.99469E+01 2.50455E+00 3.66707E-03-2.55680E-01-6.28352E-14-6.83535E-13
 -1      3026 3.02848E+01 3.14257E+00-1.15267E-01 3.39928E+00 3.65985E-13-1.84852E-14
 -1      3027 2.13329E+01-1.90198E+00-9.32592E-03 5.84620E+00-2.14832E-13-2.00872E-13
 -1      3028 2.28158E+01-2.24404E+00 6.93962E-02 5.03529E+00-3.85090E-13-2.24828E-13
 -1      3029 2.36536E+01-3.25941E+00 1.61241E-02 4.81054E+00-2.81147E-13-1.88596E-13
 -1      3030 2.05984E+01-2.82474E+00 2.84426E-02 6.52980E+00-2.36942E-13-1.48784E-13
 -1      3031 2.96286E+01-1.60618E+00-1.06091E-01 2.69124E+00-7.82707E-15-1.51851E-13
 -1      3032 2.01443E+01 2.17326E+00 5.10692E-04-1.20642E+00-3.90560E-13-5.70499E-13
 -1      3033 2.99805E+01-2.26276E+00-9.62560E-02-6.63514E-01-4.62748E-13-5.00794E-13
 -1      3034 2.89426E+01-1.35270E+00-8.13281E-02 3.44717E-01-3.93900E-13-6.15022E-13
 -1      3035 2.90060E+01-3.20765E+00-2.92072E-02-1.46601E+00-3.69215E-13-3.40478E-13
 -1      3036 6.86274E+00-1.28818E+00 2.08217E-01 5.00943E-01 9.05630E-14-5.27883E-13
 -1      3037 8.14495E+00-8.30952E-01 1.43767E-01-5.35262E-01-1.14455E-14-5.25135E-13
 -1      3038 8.06125E+00-1.04227E+00 6.67512E-02 1.80808E+00 1.12126E-13-5.52086E-13
 -1      3039 2.02907E+01 1.58771E+00-1.21622E-03 1.16544E+00 5.25471E-13-2.95753E-13
 -1      3040 2.73390E+01-4.65493E+00 3.98349E-03 6.25054E-01 1.08295E-13 1.68393E-13
 -1      3041 2.02795E+01 1.36644E+00 2.01348E-03 9.19182E-01 4.75236E-13-3.18754E-13
 -1      3042 1.31425E+01-1.32683E+00 1.64740E-01 5.80191E+00-1.19377E-13 5.48117E-13
 -1      3043 2.71475E+01-3.98084E+00-1.28300E-01-5.62178E-01 5.71366E-14 5.42396E-13
 -1      3044 2.61457E+01-4.85360E+00 8.10999E-02 1.05687E+00 2.27400E-13 1.75006E-13
 -1      3045 2.02400E+01 1.48159E+00-6.08462E-03 8.02876E-01 4.20580E-13-3.70937E-13
 -1      3046 2.02013E+01 1.66954E+00-2.45096E-04 7.46920E-01 3.84285E-13-4.36021E-13
 -1      3047 2.02205E+01 4.22681E-01 4.02195E-03-1.20426E-01-2.08000E-13-3.58459E-13
 -1      3048 2.01812E+01 3.15146E-01-2.30338E-03-3.54443E-02-1.82481E-13-3.66486E-13
 -1      3049 2.01672E+01 2.31347E-01 3.20780E-03 2.61423E-02-1.75788E-13-3.38897E-13
 -1      3050 2.01369E+01 1.60539E-01-1.32198E-03 7.69566E-02-1.83064E-13-3.46652E-13
 -1      3051 2.02371E+01 3.31833E-01-7.97285E-04-2.62684E-02-1.76733E-13-3.74376E-13
 -1      3052 2.01201E+01 1.06391E-01 2.23237E-03 1.12616E-01-1.81224E-13-3.02051E-13
 -1      3053 2.00989E+01 6.11138E-02-6.34414E-04 1.39626E-01-1.48416E-13-3.09203E-13
 -1      3054 2.01965E+01 1.66742E-01-1.01916E-03 7.61264E-02-1.62871E-13-3.11090E-13
 -1      3055 2.00826E+01 2.70414E-02 1.46954E-03 1.57108E-01-1.24650E-13-3.21621E-13
 -1      3056 2.00688E+01-8.23138E-04-1.98875E-04 1.68145E-01-9.68133E-14-3.26748E-13
 -1      3057 2.01574E+01 6.01174E-02-9.70655E-04 1.33620E-01-1.49406E-13-3.29253E-13
 -1      3058 2.00544E+01-2.11910E-02 8.87821E-04 1.73399E-01-7.15959E-14-3.18070E-13
 -1      3059 2.00463E+01-3.71179E-02 6.74036E-05 1.74236E-01-5.76673E-14-2.95273E-13
 -1      3060 2.01233E+01-6.29599E-03-8.42837E-04 1.59724E-01-9.11533E-14-3.37323E-13
 -1      3061 2.00341E+01-4.81163E-02 4.68898E-04 1.71794E-01-4.33497E-14-2.69470E-13
 -1      3062 2.00300E+01-5.58940E-02 2.23941E-04 1.66574E-01-2.11600E-14-2.33062E-13
 -1      3063 2.00950E+01-4.49210E-02-6.97625E-04 1.65066E-01-1.26048E-14-3.14175E-13
 -1      3064 2.00200E+01-6.05219E-02 1.79916E-04 1.59758E-01-6.25463E-14-2.25159E-13
 -1      3065 2.00188E+01-6.27884E-02 3.10675E-04 1.51407E-01-8.57498E-14-2.43272E-13
 -1      3066 2.00722E+01-6.44507E-02-5.61352E-04 1.57673E-01-4.56472E-14-2.86022E-13
 -1      3067 2.00108E+01-6.31253E-02-1.20235E-05 1.42587E-01-8.74096E-14-2.64967E-13
 -1      3068 2.00114E+01-6.17024E-02 3.54902E-04 1.33144E-01-1.06181E-13-2.45271E-13
 -1      3069 2.00544E+01-7.09818E-02-4.44165E-04 1.43392E-01-8.87669E-14-2.85110E-13
 -1      3070 2.00052E+01-5.91687E-02-1.35490E-04 1.23978E-01-1.35498E-13-2.10504E-13
 -1      3071 2.00070E+01-5.52782E-02 3.76035E-04 1.14850E-01-9.44808E-14-1.95491E-13
 -1      3072 2.00409E+01-6.87480E-02-3.47452E-04 1.26388E-01-6.95275E-14-1.89374E-13
 -1      3073 2.00022E+01-5.08018E-02-2.13972E-04 1.06490E-01-8.07954E-14-1.98742E-13
 -1      3074 2.00049E+01-4.52118E-02 3.88268E-04 9.86567E-02-4.34595E-14-2.45383E-13
 -1      3075 2.00309E+01-6.06060E-02-2.69512E-04 1.09575E-01-8.73645E-14-1.97079E-13
 -1      3076 2.00013E+01-3.93478E-02-2.65759E-04 9.19212E-02-2.54410E-14-2.61149E-13
 -1      3077 2.00045E+01-3.24829E-02 4.01950E-04 8.60934E-02-7.76132E-14-2.04100E-13
 -1      3078 2.00236E+01-4.83691E-02-2.07682E-04 9.50094E-02-7.67361E-14-1.81577E-13
 -1      3079 2.00018E+01-2.55045E-02-3.05063E-04 8.15983E-02-1.56414E-13-1.96573E-13
 -1      3080 2.00056E+01-1.75283E-02 4.24615E-04 7.83376E-02-2.42225E-13-1.84480E-13
 -1      3081 2.00186E+01-3.30567E-02-1.58412E-04 8.41897E-02-1.17599E-13-2.52085E-13
 -1      3082 2.00035E+01-9.49440E-03-3.43045E-04 7.65996E-02-2.28293E-13-1.20031E-13
 -1      3083 2.00078E+01-3.74045E-04 4.61916E-04 7.64087E-02-1.51342E-13-1.47660E-13
 -1      3084 2.00151E+01-1.50876E-02-1.18091E-04 7.82981E-02-2.09535E-13-1.60652E-13
 -1      3085 2.00060E+01 8.81484E-03-3.88385E-04 7.79229E-02-9.53789E-14-1.89161E-13
 -1      3086 2.00109E+01 1.92542E-02 5.18003E-04 8.13130E-02-3.42789E-14-2.07787E-13
 -1      3087 2.00127E+01 5.57152E-03-8.31144E-05 7.83816E-02-1.56052E-13-1.09293E-13
 -1      3088 2.00091E+01 2.98067E-02-4.47752E-04 8.66097E-02-3.78026E-15-1.76608E-13
 -1      3089 2.00148E+01 4.18304E-02 5.95645E-04 9.41456E-02 4.31771E-14-2.17495E-13
 -1      3090 2.00108E+01 2.92788E-02-4.98609E-05 8.54890E-02-3.10398E-14-1.88298E-13
 -1      3091 2.00127E+01 5.40138E-02-5.26014E-04 1.03827E-01 3.76691E-14-1.94011E-13
 -1      3092 2.00194E+01 6.79217E-02 6.96207E-04 1.16152E-01 3.17969E-14-2.65259E-13
 -1      3093 2.00088E+01 5.65972E-02-1.47771E-05 1.00765E-01 5.78619E-14-2.12665E-13
 -1      3094 2.00166E+01 8.20038E-02-6.26086E-04 1.30909E-01 6.52118E-14-2.34205E-13
 -1      3095 2.00246E+01 9.80619E-02 8.19457E-04 1.48744E-01 1.58484E-13-3.30620E-13
 -1      3096 2.00062E+01 8.81653E-02 2.54083E-05 1.25507E-01 1.85886E-14-2.28688E-13
 -1      3097 2.00208E+01 1.14234E-01-7.48324E-04 1.69355E-01 2.03794E-13-3.12201E-13
 -1      3098 2.00303E+01 1.32582E-01 9.63285E-04 1.93474E-01 1.88007E-13-3.20573E-13
 -1      3099 2.00023E+01 1.24539E-01 7.32101E-05 1.61172E-01 1.65456E-13-1.95774E-13
 -1      3100 2.00251E+01 1.50855E-01-8.89358E-04 2.20772E-01 4.62832E-14-2.66578E-13
 -1      3101 2.00364E+01 1.71374E-01 1.12346E-03 2.51940E-01-1.36353E-14-2.25449E-13
 -1      3102 1.99964E+01 1.65980E-01 1.29434E-04 2.09355E-01 1.63377E-13-3.32430E-13
 -1      3103 2.00295E+01 1.91424E-01-1.04015E-03 2.86753E-01-4.76191E-14-3.20960E-13
 -1      3104 2.00430E+01 2.13551E-01 1.29364E-03 3.25621E-01-6.90539E-14-3.15709E-13
 -1      3105 1.99879E+01 2.12161E-01 1.91409E-04 2.71692E-01-5.96844E-14-3.19055E-13
 -1      3106 2.00342E+01 2.34506E-01-1.18300E-03 3.68679E-01-5.10417E-14-3.63594E-13
 -1      3107 2.00505E+01 2.56968E-01 1.46603E-03 4.15617E-01-4.09582E-15-2.77611E-13
 -1      3108 1.99762E+01 2.61753E-01 2.49881E-04 3.49720E-01-3.06323E-14-3.51263E-13
 -1      3109 2.00399E+01 2.77098E-01-1.28702E-03 4.67409E-01-5.66763E-15-3.07941E-13
 -1      3110 2.00597E+01 2.97542E-01 1.63297E-03 5.22274E-01 5.50900E-14-3.01037E-13
 -1      3111 1.99612E+01 3.11831E-01 2.83808E-04 4.44654E-01-2.50924E-14-3.63672E-13
 -1      3112 2.00484E+01 3.13843E-01-1.30145E-03 5.82859E-01 7.63625E-14-2.93977E-13
 -1      3113 2.00731E+01 3.28333E-01 1.78968E-03 6.44666E-01 1.45918E-14-3.51701E-13
 -1      3114 1.99435E+01 3.57079E-01 2.51969E-04 5.57093E-01 5.62789E-14-2.59559E-13
 -1      3115 2.00630E+01 3.35974E-01-1.14589E-03 7.13422E-01 8.39116E-15-2.89466E-13
 -1      3116 2.00951E+01 3.38368E-01 1.93702E-03 7.79912E-01 5.00873E-14-2.21534E-13
 -1      3117 1.99256E+01 3.88705E-01 8.00378E-05 6.86648E-01 6.33354E-14-2.35639E-13
 -1      3118 2.00904E+01 3.30028E-01-6.96111E-04 8.55197E-01 3.55468E-14-2.12772E-13
 -1      3119 2.01340E+01 3.11245E-01 2.08013E-03 9.22262E-01 1.09754E-13-2.02705E-13
 -1      3120 1.99128E+01 3.93092E-01-3.58312E-04 8.31459E-01 4.49064E-14-1.81522E-13
 -1      3121 2.01426E+01 2.76443E-01 2.35370E-04 1.00092E+00 8.99000E-14-2.22564E-13
 -1      3122 2.02049E+01 2.23834E-01 2.21211E-03 1.06183E+00 4.61008E-14-1.92039E-13
 -1      3123 1.99155E+01 3.50232E-01-1.26681E-03 9.87561E-01 5.56702E-14-2.29560E-13
 -1      3124 2.02400E+01 1.48559E-01 1.92360E-03 1.13834E+00-2.01297E-15-1.73988E-13
 -1      3125 2.03321E+01 4.58028E-02 2.26139E-03 1.18268E+00-9.13453E-14-1.86873E-13
 -1      3126 1.99525E+01 2.32310E-01-2.95488E-03 1.14783E+00 7.36043E-15-2.35439E-13
 -1      3127 2.04151E+01-8.68388E-02 4.75618E-03 1.24755E+00-1.42276E-13-1.79716E-13
 -1      3128 2.05531E+01-2.58275E-01 1.96859E-03 1.25958E+00-1.28422E-13-1.88679E-13
 -1      3129 2.00550E+01 3.27947E-03-5.85122E-03 1.29994E+00-7.34838E-14-3.38657E-13
 -1      3130 2.07164E+01-4.64902E-01 9.23060E-03 1.29604E+00-8.03797E-14-1.21674E-13
 -1      3131 2.09201E+01-7.20431E-01 7.86895E-04 1.25241E+00 2.76506E-14-1.10005E-13
 -1      3132 2.02722E+01-3.78495E-01-1.04288E-02 1.42197E+00-6.83591E-14-3.55583E-13
 -1      3133 2.12077E+01-1.00852E+00 1.59013E-02 1.23048E+00-1.55466E-14-2.05499E-14
 -1      3134 2.14939E+01-1.34740E+00-2.44749E-03 1.09791E+00 5.52735E-14-1.48690E-13
 -1      3135 2.06755E+01-9.49548E-01-1.67729E-02 1.47307E+00 4.28407E-14-2.69273E-13
 -1      3136 2.19551E+01-1.69694E+00 2.38362E-02 9.66119E-01 4.80844E-14-1.68887E-13
 -1      3137 2.23232E+01-2.07404E+00-9.22824E-03 7.01842E-01 3.09217E-14-2.14855E-13
 -1      3138 2.13553E+01-1.71193E+00-2.40118E-02 1.37852E+00-1.35872E-14-3.25504E-13
 -1      3139 2.29887E+01-2.40486E+00 2.96846E-02 3.82308E-01-1.29029E-14-1.63247E-13
 -1      3140 2.34069E+01-2.67364E+00-1.28470E-02-5.85544E-02-1.47547E-13-2.28259E-13
 -1      3141 2.24003E+01-2.57473E+00-2.95262E-02 1.01161E+00 7.09231E-15-6.16495E-14
 -1      3142 2.42274E+01-2.80542E+00 2.84320E-02-6.09069E-01-1.66043E-13 1.45721E-14
 -1      3143 2.46614E+01-2.66317E+00 5.43990E-03-1.26635E+00-1.11104E-13-4.62304E-14
 -1      3144 2.38046E+01-3.20150E+00-1.95591E-02 2.04157E-01-1.53263E-14 1.51424E-13
 -1      3145 2.54409E+01-2.94134E+00 3.76541E-03-1.31837E+00-1.17961E-16 2.51936E-13
 -1      3146 2.58027E+01-2.29080E+00-1.03899E-02-1.93325E+00 9.82721E-14 3.83799E-13
 -1      3147 2.65456E+01 2.89591E-02-8.93154E-02-3.17681E+00 1.15151E-13 2.14061E-13
 -1      3148 2.64217E+01 1.58257E+00-6.33344E-02-3.35107E+00 1.71044E-13 5.04735E-14
 -1      3149 2.59042E+01 3.27686E+00-1.48989E-01-2.96360E+00 2.15744E-13-2.35859E-13
 -1      3150 2.57228E+01 4.39211E+00-1.14337E-01-2.36616E+00 8.56537E-14 2.51535E-15
 -1      3151 2.54274E+01 4.88050E+00-1.32988E-01-1.33907E+00 4.97380E-14-8.08008E-14
 -1      3152 2.53992E+01 4.82590E+00-1.67049E-01-3.60934E-01 3.84831E-14 3.58359E-14
 -1      3153 2.58723E+01 3.99515E+00-1.13840E-01 6.82236E-01-2.72837E-14 4.70110E-15
 -1      3154 2.60249E+01 2.73909E+00-1.85971E-01 1.27295E+00-1.64382E-14-6.69430E-15
 -1      3155 2.65464E+01 1.15286E+00-7.45225E-02 1.27360E+00-1.30007E-13-5.08985E-14
 -1      3156 2.65824E+01-2.07446E-01-8.16355E-02 1.15729E+00-1.42490E-13-6.39766E-14
 -1      3157 1.99825E+01-4.84049E-02 2.31700E-04-1.72954E-01 7.92974E-14-2.48369E-13
 -1      3158 1.99821E+01-4.11176E-02 4.45811E-04-1.78454E-01 8.00557E-14-2.34222E-13
 -1      3159 1.99916E+01-3.09525E-02 1.05036E-04-1.80801E-01 8.12489E-14-2.23339E-13
 -1      3160 1.99956E+01-1.62822E-02 9.16669E-04-1.80044E-01 8.45537E-14-1.84010E-13
 -1      3161 2.00483E+01-3.85140E-02-7.40961E-04-1.74717E-01 8.58318E-14-1.98252E-13
 -1      3162 1.99778E+01-5.48224E-02 3.32397E-04-1.37937E-01 3.55440E-14-1.92858E-13
 -1      3163 1.99734E+01-5.58040E-02-6.94358E-05-1.47850E-01 7.20662E-14-2.10788E-13
 -1      3164 1.99796E+01-4.97205E-02 3.48600E-04-1.18524E-01-1.61534E-15-1.59975E-13
 -1      3165 1.99744E+01-5.28936E-02-1.91609E-04-1.28181E-01-4.28927E-15-1.96528E-13
 -1      3166 2.00121E+01-6.25945E-02-3.09040E-04-1.33668E-01 1.47189E-14-1.82114E-13
 -1      3167 1.99830E+01-4.14207E-02 3.60373E-04-1.01078E-01 6.31862E-14-1.17545E-13
 -1      3168 1.99774E+01-4.60830E-02-2.62019E-04-1.09500E-01 8.55765E-14-1.17425E-13
 -1      3169 2.00075E+01-5.59428E-02-2.30081E-04-1.15406E-01 1.23930E-14-2.27802E-13
 -1      3170 1.99876E+01-3.08224E-02 3.77210E-04-8.71460E-02 2.11026E-14-1.04280E-13
 -1      3171 1.99818E+01-3.65805E-02-3.01269E-04-9.36306E-02 1.96934E-15-1.09184E-13
 -1      3172 2.00052E+01-4.56237E-02-1.75229E-04-9.92905E-02-5.16103E-15-1.14226E-13
 -1      3173 1.99932E+01-1.83362E-02 4.06329E-04-7.79034E-02-6.26255E-14-7.76925E-15
 -1      3174 1.99871E+01-2.50350E-02-3.24813E-04-8.19034E-02-8.89076E-15-5.54568E-14
 -1      3175 2.00046E+01-3.25954E-02-1.38222E-04-8.68772E-02-3.46976E-14-8.42417E-14
 -1      3176 1.99997E+01-3.98688E-03 4.53622E-04-7.43579E-02-4.55088E-14 8.23673E-16
 -1      3177 1.99932E+01-1.16585E-02-3.44976E-04-7.53836E-02-5.31599E-14-1.10784E-14
 -1      3178 2.00055E+01-1.72614E-02-1.14653E-04-7.93730E-02-5.24728E-14-7.21452E-14
 -1      3179 2.00072E+01 1.25014E-02 5.23829E-04-7.75119E-02-3.04228E-14 4.70011E-15
 -1      3180 2.00001E+01 3.67854E-03-3.71309E-04-7.50571E-02-2.03954E-14 2.65343E-14
 -1      3181 2.00074E+01 4.15619E-04-1.00055E-04-7.78397E-02-4.39637E-14-9.81778E-14
 -1      3182 2.00161E+01 3.16378E-02 6.20833E-04-8.84813E-02 6.09168E-14 3.19239E-14
 -1      3183 2.00079E+01 2.13724E-02-4.11692E-04-8.19681E-02 6.96015E-14 8.11894E-14
 -1      3184 2.00102E+01 2.08126E-02-9.00129E-05-8.33466E-02-3.01241E-14-7.74628E-14
 -1      3185 2.00265E+01 5.41055E-02 7.47563E-04-1.08581E-01 9.74887E-14-6.39602E-14
 -1      3186 2.00169E+01 4.20232E-02-4.72887E-04-9.73211E-02 5.42449E-14 4.57297E-15
 -1      3187 2.00135E+01 4.45667E-02-7.97866E-05-9.70820E-02 1.02181E-13-5.76607E-14
 -1      3188 2.00387E+01 8.06990E-02 9.05691E-04-1.39381E-01 1.60535E-13-6.01935E-14
 -1      3189 2.00272E+01 6.63759E-02-5.60912E-04-1.22551E-01 1.37234E-13-2.42387E-14
 -1      3190 2.00171E+01 7.25021E-02-6.39045E-05-1.20431E-01 1.00423E-13-3.30788E-14
 -1      3191 2.00530E+01 1.12244E-01 1.09512E-03-1.82717E-01 1.41929E-13 2.74427E-14
 -1      3192 2.00390E+01 9.52510E-02-6.81162E-04-1.59359E-01 1.83622E-13-9.00115E-15
 -1      3193 2.00206E+01 1.05549E-01-3.58008E-05-1.55016E-01 1.10503E-13 9.71392E-14
 -1      3194 2.00695E+01 1.49483E-01 1.31328E-03-2.40673E-01 4.96925E-14 1.08806E-14
 -1      3195 2.00525E+01 1.29450E-01-8.38132E-04-2.09710E-01 1.19919E-13-5.96588E-15
 -1      3196 2.00235E+01 1.44636E-01 1.23955E-05-2.02704E-01 1.51288E-13 8.85355E-14
 -1      3197 2.00881E+01 1.92884E-01 1.55449E-03-3.15484E-01 9.36872E-15-5.23982E-14
 -1      3198 2.00677E+01 1.69608E-01-1.03454E-03-2.75782E-01 6.69584E-14-3.04465E-14
 -1      3199 2.00250E+01 1.90537E-01 8.96520E-05-2.65559E-01 9.85666E-14-1.77494E-14
 -1      3200 2.01088E+01 2.42342E-01 1.80957E-03-4.09378E-01-1.03879E-13-5.56446E-14
 -1      3201 2.00845E+01 2.15960E-01-1.26949E-03-3.59847E-01-4.93123E-14-3.25665E-14
 -1      3202 2.00241E+01 2.43619E-01 2.04878E-04-3.45748E-01-2.32297E-14 3.29029E-14
 -1      3203 2.01310E+01 2.96678E-01 2.06654E-03-5.24297E-01-1.56821E-13-1.77047E-14
 -1      3204 2.01024E+01 2.67949E-01-1.53492E-03-4.64067E-01-8.79301E-14-2.88125E-14
 -1      3205 2.00194E+01 3.03448E-01 3.63842E-04-4.45374E-01-1.20649E-13-2.94643E-14
 -1      3206 2.01543E+01 3.52824E-01 2.31357E-03-6.61486E-01-1.49362E-13-6.57489E-14
 -1      3207 2.01210E+01 3.23593E-01-1.80942E-03-5.90175E-01-1.95360E-13-8.67163E-14
 -1      3208 2.00093E+01 3.68148E-01 5.62450E-04-5.66237E-01-1.48685E-13 3.33610E-14
 -1      3209 2.01787E+01 4.04524E-01 2.54559E-03-8.20888E-01-1.02905E-13-6.32762E-14
 -1      3210 2.01402E+01 3.78450E-01-2.04750E-03-7.39012E-01-5.48095E-14-6.56100E-14
 -1      3211 1.99920E+01 4.33375E-01 7.73536E-04-7.09525E-01-1.02102E-13-8.31512E-14
 -1      3212 2.02060E+01 4.40351E-01 2.77557E-03-1.00033E+00-1.22647E-13-9.85392E-15
 -1      3213 2.01608E+01 4.24010E-01-2.16158E-03-9.09876E-01-1.00038E-13-1.34806E-14
 -1      3214 1.99667E+01 4.90732E-01 9.22746E-04-8.75442E-01-1.29832E-13 1.50507E-13
 -1      3215 2.02422E+01 4.40819E-01 3.04752E-03-1.19439E+00-1.16239E-13-3.00433E-14
 -1      3216 2.01866E+01 4.45283E-01-1.99268E-03-1.09964E+00-1.99189E-13-6.88164E-14
 -1      3217 1.99349E+01 5.25368E-01 8.47288E-04-1.06283E+00-9.74177E-14 3.30352E-14
 -1      3218 2.03016E+01 3.74670E-01 3.43530E-03-1.39282E+00-8.08752E-14 7.74444E-14
 -1      3219 2.02278E+01 4.17486E-01-1.26351E-03-1.30150E+00 1.05407E-14 1.05481E-14
 -1      3220 1.99034E+01 5.12610E-01 2.30621E-04-1.26877E+00-1.07438E-13-3.41571E-14
 -1      3221 2.04144E+01 1.95051E-01 3.98798E-03-1.57804E+00 4.60027E-14-7.67952E-14
 -1      3222 2.03070E+01 3.02139E-01 4.93276E-04-1.50303E+00 1.73034E-14 8.51764E-14
 -1      3223 1.98901E+01 4.13694E-01-1.49219E-03-1.48796E+00 2.71698E-14-5.68313E-14
 -1      3224 2.06356E+01-1.61722E-01 4.55800E-03-1.72037E+00-1.18488E-13-1.14505E-13
 -1      3225 2.04684E+01 4.41052E-02 4.07862E-03-1.68256E+00-3.75399E-14-1.56607E-13
 -1      3226 1.99325E+01 1.71436E-01-5.23807E-03-1.71110E+00 3.61820E-14-1.58732E-13
 -1      3227 2.10560E+01-7.67565E-01 4.36711E-03-1.76808E+00-1.02675E-13-1.68886E-13
 -1      3228 2.07897E+01-4.25911E-01 1.08380E-02-1.80121E+00-1.62899E-13-2.31806E-13
 -1      3229 2.01015E+01-2.90975E-01-1.22143E-02-1.91952E+00-1.50248E-13-2.28583E-13
 -1      3230 2.18008E+01-1.66625E+00 1.54558E-03-1.62685E+00-1.65683E-13-2.93126E-14
 -1      3231 2.13934E+01-1.17294E+00 2.25069E-02-1.78533E+00-1.13432E-13-9.60830E-14
 -1      3232 2.05190E+01-1.05941E+00-2.35142E-02-2.06954E+00-1.78045E-13-3.44232E-13
 -1      3233 2.29969E+01-2.77564E+00-7.25563E-03-1.13205E+00-2.99353E-13 2.01083E-13
 -1      3234 2.24352E+01-2.19428E+00 4.08396E-02-1.49398E+00-1.79058E-13 7.47718E-14
 -1      3235 2.13758E+01-2.17714E+00-3.49640E-02-2.05951E+00-1.97588E-13-8.92290E-14
 -1      3236 2.47073E+01-3.64117E+00-1.16591E-02-3.79257E-02-4.45951E-13 2.65179E-13
 -1      3237 2.40161E+01-3.28425E+00 5.16789E-02-6.93702E-01-4.08334E-13 2.03413E-13
 -1      3238 2.28876E+01-3.49460E+00-3.47312E-02-1.66233E+00-3.94980E-13 8.26700E-14
 -1      3239 2.79496E+01-1.37684E+00-5.78821E-02 3.02162E+00-9.87196E-14 3.30611E-13
 -1      3240 2.76373E+01-2.85547E+00-1.76382E-02 2.40060E+00-1.89404E-13 2.98928E-13
 -1      3241 2.79088E+01-1.11132E+00-4.74318E-02-1.17836E+00 1.79294E-13-2.35756E-13
 -1      3242 2.00441E+01 2.16064E+00-4.28499E-03 2.92624E-01 1.70437E-13-5.70738E-13
 -1      3243 2.00309E+01 2.19943E+00-3.30612E-03 1.70908E-01 9.05534E-14-6.12587E-13
 -1      3244 1.85124E+01-4.52603E+00-2.14532E-02 5.26096E+00 3.90007E-13-4.54206E-13
 -1      3245 1.58164E+01-3.23788E+00 7.43398E-02 5.16249E+00 2.15536E-13-2.31662E-13
 -1      3246 2.58417E+01-3.75200E+00 2.21368E-02-3.44797E+00-1.13628E-13-1.81371E-13
 -1      3247 2.50176E+01-4.19149E+00-6.09837E-02-4.79633E+00-8.87432E-14-3.52846E-13
 -1      3248 9.50897E+00-1.21108E+00 1.34337E-01-2.72533E+00-1.66214E-13-4.28838E-13
 -1      3249 1.16034E+01-2.14955E+00 9.34130E-02-4.29672E+00-2.09451E-13-2.91711E-13
 -1      3250 2.53425E+01-2.81151E+00-3.77729E-02 1.26083E+00-3.58146E-13 5.13166E-14
 -1      3251 2.59705E+01-2.62305E+00 1.45102E-02 4.47124E-01-1.80238E-13-1.16332E-13
 -1      3252 2.65773E+01-2.12780E+00-4.18872E-02-2.82481E-01-3.82524E-14-1.68927E-13
 -1      3253 2.57234E+01-3.36136E+00 5.60665E-03 2.34596E+00-2.94669E-13 1.67574E-15
 -1      3254 1.99784E+01-5.51822E-02 2.99030E-04-1.57137E-01 8.48657E-14-2.07559E-13
 -1      3255 1.99754E+01-5.28584E-02 1.31670E-04-1.65883E-01 9.10823E-14-2.13326E-13
 -1      3256 2.00315E+01-5.71721E-02-5.60826E-04-1.67086E-01 7.30577E-14-2.34359E-13
 -1      3257 2.00198E+01-6.38863E-02-4.16652E-04-1.51925E-01 7.84611E-14-1.41384E-13
 -1      3258 2.00726E+01 1.50148E-01-1.11737E-03-7.65960E-02 1.91424E-13-2.02938E-13
 -1      3259 2.01053E+01 2.15622E-01 3.73823E-03-2.32514E-02 2.09145E-13-2.01584E-13
 -1      3260 1.24898E+01-1.89061E+00 5.22407E-02 4.37104E+00 8.41063E-14-1.73042E-13
 -1      3261 1.00843E+01-1.04625E+00 2.07999E-01 3.20897E+00 1.13284E-13-4.35874E-13
 -1      3262 2.02682E+01 7.12456E-01 3.58919E-03-3.45577E-01-2.56552E-13-4.18927E-13
 -1      3263 2.02266E+01 5.50617E-01-3.53286E-03-2.14959E-01-2.32860E-13-4.13001E-13
 -1      3264 2.02720E+01 5.78239E-01-5.65416E-04-1.89138E-01-1.89906E-13-4.12076E-13
 -1      3265 2.01966E+01 1.89144E+00 1.11030E-03-1.00661E+00-3.44916E-13-5.62115E-13
 -1      3266 1.47761E+01-3.52807E+00 1.07435E-01-5.20350E+00-9.72902E-14-3.27433E-13
 -1      3267 1.78162E+01-4.93549E+00 5.78709E-02-5.47705E+00 4.30211E-14-2.57377E-13
 -1      3268 2.79025E+01-2.54275E+00-8.79913E-02 1.47822E-01-5.15525E-14-9.93025E-14
 -1      3269 2.78288E+01-3.66169E+00-2.43464E-02 1.18283E+00-1.46701E-13-3.45488E-14
 -1      3270 2.02913E+01 9.89123E-01-4.26451E-04 6.89853E-01 4.12511E-13-2.97393E-13
 -1      3271 2.02671E+01 1.30679E+00 2.87070E-03 7.70934E-01 4.19913E-13-3.27213E-13
 -1      3272 2.02708E+01 1.12753E+00 9.80797E-05 5.93610E-01 3.78453E-13-3.40581E-13
 -1      3273 2.02319E+01 7.75930E-01-3.88066E-03 4.84513E-01 3.67575E-13-2.93894E-13
 -1      3274 2.39331E+01-5.60441E+00-1.08347E-01 2.98963E+00 3.61169E-13-2.23994E-13
 -1      3275 2.14081E+01-5.03776E+00 1.13967E-01 4.32734E+00 4.67886E-13-4.34161E-13
 -1      3276 2.70913E+01-4.25452E+00-8.01051E-02 7.73191E-01-4.05465E-13-3.14939E-14
 -1      3277 2.63482E+01-3.37918E+00-2.34966E-02 1.56079E+00-3.47480E-13 3.26739E-13
 -1      3278 2.57380E+01-3.65083E+00 4.79014E-02 6.96212E-01-4.87061E-13 3.15683E-13
 -1      3279 2.59868E+01-5.02649E+00 5.50817E-02-7.71331E-01-5.31572E-13-3.13360E-13
 -1      3280 2.00238E+01 2.21819E+00-3.66871E-03 6.59883E-02 6.29595E-14-6.34163E-13
 -1      3281 2.00233E+01 2.21905E+00-3.65792E-03-5.80806E-02 7.56606E-15-6.31138E-13
 -1      3282 2.01379E+01 1.92248E+00 5.01983E-03 1.01550E-01 7.48752E-14-5.84570E-13
 -1      3283 2.02553E+01 1.46131E+00 7.24032E-03 5.87698E-01 3.37399E-13-4.20991E-13
 -1      3284 2.01577E+01 1.80034E+00-7.40120E-03 6.84063E-01 3.63645E-13-4.85176E-13
 -1      3285 2.01218E+01 1.93060E+00-2.84436E-03 5.89910E-01 3.06056E-13-5.01408E-13
 -1      3286 2.47220E+01-4.75969E+00 2.62183E-02 5.30494E+00-1.51976E-13-1.19085E-13
 -1      3287 2.04913E+01-4.25117E+00 7.04144E-02 4.12504E+00 3.84262E-13-3.94093E-13
 -1      3288 2.41677E+01-4.43473E+00 1.07740E-01-6.09397E+00 1.60982E-14-5.86465E-13
 -1      3289 1.76947E+01-2.95018E+00 4.01917E-02 7.59430E+00-2.70339E-14-1.07220E-13
 -1      3290 1.59419E+01-2.23428E+00 3.80008E-01 7.32036E+00-1.06207E-13 3.42032E-13
 -1      3291 2.69144E+01-3.77236E+00 4.05999E-02 2.04923E+00-2.82256E-13-5.60108E-14
 -1      3292 2.02303E+01-4.92966E+00 4.67383E-02-4.35881E+00-1.20376E-13-5.14519E-13
 -1      3293 2.85942E+01 6.93297E-01-1.28192E-01 3.91616E+00 1.43871E-13 2.85522E-13
 -1      3294 2.00644E+01 2.10520E+00-3.06095E-03 3.91115E-01 2.11127E-13-5.43168E-13
 -1      3295 2.01603E+01 1.84767E+00 5.32011E-03 2.91051E-01 1.75133E-13-5.15918E-13
 -1      3296 2.00899E+01 2.02495E+00-5.34236E-03 5.04362E-01 2.76468E-13-5.15608E-13
 -1      3297 1.65683E+01-2.42525E+00 6.09218E-02 4.31561E+00 2.15139E-13-7.51725E-14
 -1      3298 1.45887E+01-2.19632E+00 1.03887E-01 4.68000E+00 1.37362E-13-1.44190E-13
 -1      3299 1.35144E+01-1.19253E+00 1.98929E-02 3.64556E+00 8.42867E-14-1.15685E-13
 -1      3300 2.59028E+01-3.02850E+00-7.28085E-02-1.91563E+00-1.41492E-13-1.75259E-13
 -1      3301 2.70698E+01-3.96466E+00-3.41181E-03-2.87764E+00-9.44089E-14-2.57145E-13
 -1      3302 2.77693E+01-1.34167E+00-3.57741E-02 3.69474E-01-4.13967E-13-5.22884E-13
 -1      3303 2.53745E+01-1.18115E+00-2.98855E-02 5.11587E-01-2.90293E-13-4.60244E-14
 -1      3304 2.01893E+01 3.15775E-01-1.45729E-03 3.60907E-02 2.28537E-13-2.13312E-13
 -1      3305 2.01241E+01 2.93303E-01-2.03305E-03 4.41027E-02 2.22200E-13-1.97458E-13
 -1      3306 2.01701E+01 3.94512E-01 4.57555E-03 1.34487E-01 2.90497E-13-2.09665E-13
 -1      3307 2.51206E+01-1.70318E+00-1.58183E-02 1.15239E-01-3.61539E-13-4.33889E-14
 -1      3308 2.00081E+01 2.33279E-03-1.20570E-04-1.74110E-01 8.50278E-14-1.91833E-13
 -1      3309 2.00186E+01 2.78988E-02 1.59309E-03-1.62769E-01 1.04177E-13-2.04988E-13
 -1      3310 2.00717E+01-2.20486E-03-9.54339E-04-1.68528E-01 9.84587E-14-1.77944E-13
 -1      3311 2.48290E+01-4.32338E+00-4.55742E-02-6.00820E-01-4.87799E-13 1.48020E-13
 -1      3312 2.44887E+01-1.95084E+00 3.66538E-03-9.32027E-01-4.18615E-13 4.88394E-14
 -1      3313 2.47091E+01-4.74708E+00 2.27937E-02 1.61066E+00 2.96201E-13 1.06543E-13
 -1      3314 1.97648E+01-3.33212E+00-4.83680E-02 6.86703E+00-1.34656E-13-2.24321E-13
 -1      3315 2.83697E+01-3.60811E+00 2.03416E-03-1.88114E+00-1.77040E-13-2.54137E-13
 -1      3316 9.47374E+00-6.33345E-01 1.54990E-01-1.64671E+00-9.60065E-14-4.73677E-13
 -1      3317 1.11226E+01-6.33510E-01 7.30104E-02-2.27295E+00-1.44870E-13-2.96235E-13
 -1      3318 9.71779E+00-3.19077E-01 3.84328E-02-3.59436E-01-2.31412E-15-3.94587E-13
 -1      3319 2.01755E+01 4.86436E-01-2.92760E-03 2.20366E-01 3.18104E-13-2.55567E-13
 -1      3320 2.02313E+01 6.35572E-01 3.95995E-03 3.60319E-01 3.31970E-13-2.61002E-13
 -1      3321 2.02600E+01 7.94531E-01 1.14321E-03 4.21711E-01 3.36295E-13-2.76290E-13
 -1      3322 2.02295E+01 5.22192E-01-1.70919E-03 1.99389E-01 2.74850E-13-2.17274E-13
 -1      3323 1.33793E+01-1.60815E+00 6.44205E-02-3.83125E+00-1.39354E-13-3.75942E-13
 -1      3324 1.39376E+01-2.55540E+00 1.19774E-01-4.64740E+00-1.54377E-13-3.83110E-13
 -1      3325 1.60896E+01-2.95165E+00 2.08384E-03-4.55954E+00-1.00198E-13-3.87523E-13
 -1      3326 2.02554E+01 8.92668E-01-4.72574E-03-4.63038E-01-2.84346E-13-4.52592E-13
 -1      3327 2.02865E+01 9.28837E-01 1.36163E-03-4.08292E-01-2.57004E-13-4.99580E-13
 -1      3328 2.02863E+01 1.10394E+00-2.65238E-04-6.31362E-01-3.07079E-13-4.83480E-13
 -1      3329 2.00604E+01 2.11064E+00-3.52970E-03-3.84097E-01-1.30920E-13-6.43425E-13
 -1      3330 2.00851E+01 2.03278E+00-5.67639E-03-4.96820E-01-1.85317E-13-6.25536E-13
 -1      3331 2.00542E+01 1.00583E-01 2.52133E-03-1.15563E-01 1.32637E-13-2.09488E-13
 -1      3332 2.01425E+01 1.60071E-01-1.35007E-03-7.65544E-02 1.64279E-13-2.15553E-13
 -1      3333 2.00342E+01 5.89651E-02-5.02670E-04-1.43616E-01 1.05959E-13-2.10663E-13
 -1      3334 2.24557E+01-3.69870E+00 1.26798E-01 6.44517E+00-1.41692E-13-3.07726E-13
 -1      3335 1.03171E+01-6.12664E-01 1.10428E-01 2.13686E+00 5.98098E-14-5.61301E-13
 -1      3336 2.02168E+01 1.56820E+00-2.14050E-03-8.07318E-01-3.21896E-13-5.32298E-13
 -1      3337 2.01991E+01 1.70159E+00 4.80696E-03-4.57382E-01-1.96244E-13-5.72990E-13
 -1      3338 2.01205E+01 1.93973E+00-2.32224E-03-5.84187E-01-2.20576E-13-5.91741E-13
 -1      3339 2.01570E+01 1.81175E+00-6.32437E-03-6.83304E-01-2.72759E-13-5.91790E-13
 -1      3340 2.77541E+01-2.68689E+00-7.59144E-02-6.54959E-01-3.63994E-13-4.15071E-13
 -1      3341 2.58110E+01-1.33857E+00 1.09586E-02-2.71203E+00 5.16046E-14 2.60042E-13
 -1      3342 2.78696E+01-8.17213E-01-7.38472E-02-2.83944E+00 8.72288E-14 5.01765E-13
 -1      3343 2.80682E+01 5.30989E+00-1.16176E-01 2.38479E+00 4.84557E-13 2.63629E-13
 -1      3344 2.88902E+01 5.97420E+00-1.68632E-01 1.73267E+00 5.24164E-13 8.32945E-14
 -1      3345 2.77377E+01-2.70466E+00 1.08212E-02-1.79599E+00 4.45199E-14 5.19515E-13
 -1      3346 2.46361E+01-5.42823E+00-2.83275E-02-2.08712E+00-4.14741E-13-5.31590E-13
 -1      3347 2.49201E+01-4.70409E+00 3.15702E-03-1.03667E+00-4.65461E-13-5.10364E-14
 -1      3348 2.40445E+01-4.37049E+00 9.56894E-02-1.68137E+00-3.68464E-13-1.16551E-13
 -1      3349 2.35554E+01-5.14452E+00 9.94911E-02-2.74125E+00-3.14537E-13-5.44135E-13
 -1      3350 2.86013E+01 5.98646E+00-1.29795E-01 7.21450E-01 7.41462E-13 2.45527E-13
 -1      3351 2.53637E+01-3.77827E+00-6.07649E-03-2.92612E-01 1.53088E-13 2.75962E-13
 -1      3352 2.57137E+01-4.08598E+00-1.92604E-02 3.60842E+00-3.24941E-13-3.27125E-15
 -1      3353 2.02663E+01 2.36126E-01 2.09889E-03 3.95015E-02-1.38851E-13-3.53967E-13
 -1      3354 2.02418E+01 1.60667E-01-1.28602E-03 8.01105E-02-1.29246E-13-3.37229E-13
 -1      3355 2.02269E+01 1.01674E-01 1.62303E-03 1.06033E-01-1.49981E-13-3.21801E-13
 -1      3356 2.02053E+01 5.28116E-02-6.56448E-04 1.27662E-01-1.24904E-13-3.17531E-13
 -1      3357 2.02831E+01 1.57897E-01-4.46138E-04 7.63272E-02-1.29315E-13-3.27510E-13
 -1      3358 2.01879E+01 1.55689E-02 1.13525E-03 1.39792E-01-1.00971E-13-3.08445E-13
 -1      3359 2.01700E+01-1.44170E-02-2.24541E-04 1.48395E-01-4.99641E-14-2.93576E-13
 -1      3360 2.02453E+01 4.69683E-02-5.88386E-04 1.17427E-01-1.04381E-13-2.71815E-13
 -1      3361 2.01523E+01-3.63958E-02 7.38807E-04 1.51207E-01-3.12897E-14-3.45537E-13
 -1      3362 2.01381E+01-5.31559E-02 5.59899E-05 1.51397E-01-1.25451E-14-3.25739E-13
 -1      3363 2.02069E+01-2.19629E-02-6.27878E-04 1.35078E-01-6.73897E-14-2.96310E-13
 -1      3364 2.01215E+01-6.45230E-02 4.36527E-04 1.48388E-01-2.02171E-14-3.52670E-13
 -1      3365 2.01106E+01-7.21281E-02 2.28592E-04 1.43605E-01-5.62430E-14-3.50026E-13
 -1      3366 2.01709E+01-6.12012E-02-6.03157E-04 1.37187E-01-4.71463E-14-4.00277E-13
 -1      3367 2.00957E+01-7.62022E-02 2.15277E-04 1.37391E-01-7.61703E-14-3.36482E-13
 -1      3368 2.00876E+01-7.75530E-02 3.26971E-04 1.30127E-01-7.05529E-14-3.39249E-13
 -1      3369 2.01388E+01-7.97357E-02-5.44729E-04 1.29877E-01-4.88802E-14-3.78717E-13
 -1      3370 2.00747E+01-7.66756E-02 5.72468E-05 1.22606E-01-7.55591E-14-3.11528E-13
 -1      3371 2.00688E+01-7.37956E-02 3.76447E-04 1.14623E-01-4.12200E-14-2.54093E-13
 -1      3372 2.01112E+01-8.40382E-02-4.73420E-04 1.17707E-01-5.36581E-14-3.86198E-13
 -1      3373 2.00578E+01-6.95621E-02-5.64453E-05 1.07131E-01-3.59393E-14-3.08841E-13
 -1      3374 2.00537E+01-6.37904E-02 3.97732E-04 9.96718E-02-5.40817E-14-2.72607E-13
 -1      3375 2.00881E+01-7.86396E-02-3.95452E-04 1.03953E-01-4.33335E-14-3.85954E-13
 -1      3376 2.00445E+01-5.72175E-02-1.41713E-04 9.31573E-02-6.54923E-14-2.55198E-13
 -1      3377 2.00418E+01-4.93695E-02 4.05815E-04 8.71124E-02-9.05636E-14-2.42029E-13
 -1      3378 2.00689E+01-6.65754E-02-3.18094E-04 9.09405E-02-1.66076E-14-3.42150E-13
 -1      3379 2.00339E+01-4.10380E-02-2.11538E-04 8.22723E-02-1.38183E-13-2.02882E-13
 -1      3380 2.00323E+01-3.15313E-02 4.10864E-04 7.83142E-02-1.60874E-13-2.36573E-13
 -1      3381 2.00530E+01-4.97056E-02-2.41971E-04 8.03576E-02-1.12309E-13-2.66420E-13
 -1      3382 2.00254E+01-2.16881E-02-2.77319E-04 7.56978E-02-1.65248E-13-2.02430E-13
 -1      3383 2.00245E+01-1.06363E-02 4.20308E-04 7.43838E-02-1.65927E-13-1.35340E-13
 -1      3384 2.00397E+01-2.90063E-02-1.66456E-04 7.34813E-02-1.11049E-13-1.64200E-13
 -1      3385 2.00180E+01 7.24152E-04-3.48384E-04 7.44773E-02-1.99187E-13-6.47917E-14
 -1      3386 2.00176E+01 1.34336E-02 4.39388E-04 7.63284E-02-1.41589E-13-9.59315E-14
 -1      3387 2.00278E+01-4.77674E-03-8.97299E-05 7.13675E-02-1.53325E-13-7.41787E-14
 -1      3388 2.00110E+01 2.64991E-02-4.32299E-04 7.96200E-02-5.82518E-14-1.28114E-13
 -1      3389 2.00109E+01 4.11350E-02 4.71488E-04 8.51780E-02 4.54234E-14-1.55062E-13
 -1      3390 2.00164E+01 2.31875E-02-8.75969E-06 7.49994E-02-1.33007E-13-2.47566E-14
 -1      3391 2.00034E+01 5.62092E-02-5.35183E-04 9.22035E-02 4.08466E-14-1.28383E-13
 -1      3392 2.00032E+01 7.31276E-02 5.18513E-04 1.02068E-01 4.17332E-14-1.86230E-13
 -1      3393 2.00043E+01 5.54377E-02 8.01582E-05 8.53970E-02 2.18198E-14-6.35401E-14
 -1      3394 1.99941E+01 9.05600E-02-6.61646E-04 1.13440E-01 7.13429E-14-2.12858E-13
 -1      3395 1.99936E+01 1.10126E-01 5.81173E-04 1.28284E-01 7.98963E-14-1.52150E-13
 -1      3396 1.99900E+01 9.27170E-02 1.80912E-04 1.03691E-01 3.01465E-14-1.40524E-13
 -1      3397 1.99821E+01 1.30228E-01-8.14431E-04 1.44705E-01 8.38942E-14-1.22843E-13
 -1      3398 1.99809E+01 1.52718E-01 6.59292E-04 1.65275E-01 1.65909E-13-1.56924E-13
 -1      3399 1.99721E+01 1.35788E-01 2.96967E-04 1.31165E-01 1.12288E-13-1.41454E-13
 -1      3400 1.99661E+01 1.75651E-01-9.93701E-04 1.87536E-01 1.57895E-13-1.90900E-13
 -1      3401 1.99639E+01 2.01121E-01 7.52332E-04 2.14620E-01 6.56923E-14-2.52702E-13
 -1      3402 1.99489E+01 1.85216E-01 4.30425E-04 1.69268E-01 8.91742E-14-1.43547E-13
 -1      3403 1.99448E+01 2.26746E-01-1.19594E-03 2.43581E-01-4.14721E-14-2.92631E-13
 -1      3404 1.99413E+01 2.54852E-01 8.60441E-04 2.77956E-01-1.10633E-13-3.42420E-13
 -1      3405 1.99186E+01 2.41088E-01 5.80529E-04 2.19595E-01-5.26208E-14-2.34997E-13
 -1      3406 1.99170E+01 2.82518E-01-1.41232E-03 3.14512E-01-1.03574E-13-2.90862E-13
 -1      3407 1.99121E+01 3.12259E-01 9.86490E-04 3.56864E-01-1.41746E-14-3.47053E-13
 -1      3408 1.98794E+01 3.02620E-01 7.41266E-04 2.83843E-01-5.99411E-14-2.71877E-13
 -1      3409 1.98818E+01 3.40510E-01-1.62644E-03 4.01898E-01 2.74715E-14-3.59450E-13
 -1      3410 1.98755E+01 3.69892E-01 1.13973E-03 4.52705E-01 2.73159E-14-3.02881E-13
 -1      3411 1.98294E+01 3.67632E-01 8.97575E-04 3.63744E-01-1.64731E-14-2.99343E-13
 -1      3412 1.98389E+01 3.96067E-01-1.81098E-03 5.07042E-01 6.07765E-14-3.07273E-13
 -1      3413 1.98319E+01 4.21636E-01 1.34169E-03 5.66434E-01 6.55736E-14-2.68720E-13
 -1      3414 1.97676E+01 4.31831E-01 1.01942E-03 4.61003E-01 6.79982E-14-3.63310E-13
 -1      3415 1.97897E+01 4.41347E-01-1.92239E-03 6.30803E-01 6.61949E-14-2.57649E-13
 -1      3416 1.97839E+01 4.57595E-01 1.63461E-03 6.98400E-01 6.91662E-14-2.49725E-13
 -1      3417 1.96938E+01 4.87864E-01 1.05247E-03 5.77262E-01 7.19705E-14-3.39817E-13
 -1      3418 1.97380E+01 4.64060E-01-1.89141E-03 7.73427E-01 1.15079E-13-2.75705E-13
 -1      3419 1.97373E+01 4.62690E-01 2.09034E-03 8.48146E-01 8.13704E-14-2.25146E-13
 -1      3420 1.96102E+01 5.24109E-01 9.03420E-04 7.14147E-01 7.92538E-14-4.17001E-13
 -1      3421 1.96923E+01 4.45946E-01-1.60500E-03 9.34363E-01 1.45257E-14-2.16812E-13
 -1      3422 1.97039E+01 4.15031E-01 2.81269E-03 1.01416E+00 4.81819E-14-2.13689E-13
 -1      3423 1.95226E+01 5.23159E-01 4.15768E-04 8.73427E-01 6.61841E-14-3.17804E-13
 -1      3424 1.96690E+01 3.61138E-01-8.71339E-04 1.11194E+00-3.38718E-14-2.66399E-13
 -1      3425 1.97054E+01 2.84330E-01 3.91716E-03 1.19330E+00-4.77054E-14-2.63157E-13
 -1      3426 1.94433E+01 4.60047E-01-6.70134E-04 1.05723E+00-3.82813E-14-2.53072E-13
 -1      3427 1.96966E+01 1.74849E-01 6.51474E-04 1.30242E+00-1.73911E-13-4.82959E-13
 -1      3428 1.97778E+01 3.10165E-02 5.45786E-03 1.37923E+00-1.70568E-13-4.99872E-13
 -1      3429 1.93950E+01 3.00381E-01-2.77717E-03 1.26799E+00-2.44369E-13-5.28902E-13
 -1      3430 1.98225E+01-1.56511E-01 3.61863E-03 1.49723E+00 5.47772E-14-4.13576E-13
 -1      3431 1.99785E+01-3.92270E-01 7.27030E-03 1.55811E+00 1.34932E-13-3.54274E-13
 -1      3432 1.94171E+01-1.11895E-03-6.56042E-03 1.50709E+00 1.48739E-15-4.77992E-13
 -1      3433 2.01223E+01-6.81540E-01 9.27357E-03 1.67544E+00 8.15873E-14-3.27345E-13
 -1      3434 2.03917E+01-1.03271E+00 8.51096E-03 1.69772E+00 4.49934E-14-3.54989E-13
 -1      3435 1.95752E+01-5.00289E-01-1.29149E-02 1.76962E+00 1.36631E-13-4.33671E-13
 -1      3436 2.07077E+01-1.43702E+00 2.05358E-02 1.78422E+00 7.65276E-14-3.13531E-13
 -1      3437 2.11290E+01-1.91066E+00 6.77557E-03 1.72441E+00 1.46592E-13-1.30941E-13
 -1      3438 1.99789E+01-1.25602E+00-2.09484E-02 2.03123E+00 1.03836E-13-4.32442E-13
 -1      3439 2.17120E+01-2.40487E+00 3.57349E-02 1.71131E+00 4.69061E-14-5.66134E-14
 -1      3440 2.22921E+01-2.95856E+00-7.59975E-03 1.50661E+00 8.19609E-14-5.60559E-14
 -1      3441 2.07818E+01-2.27498E+00-2.42900E-02 2.20205E+00 1.68211E-13-2.83352E-13
 -1      3442 2.33883E+01-3.43422E+00 4.54473E-02 1.10606E+00 8.40014E-14 2.71354E-14
 -1      3443 2.40417E+01-3.79088E+00-2.79606E-02 6.51302E-01 7.84511E-14 2.39333E-13
 -1      3444 2.47963E+01-4.33001E+00-3.08093E-02 7.90314E-01 1.63089E-13 2.06409E-13
 -1      3445 2.23470E+01-3.52116E+00-3.09756E-02 1.95986E+00 1.39914E-13-7.34898E-14
 -1      3446 2.00345E+01-6.03361E-02 3.96600E-04-1.07084E-01-4.30493E-14-1.67325E-13
 -1      3447 2.00360E+01-6.52360E-02-8.63078E-05-1.15351E-01-2.01878E-14-1.99314E-13
 -1      3448 2.00449E+01-6.86761E-02 3.74853E-04-1.23650E-01 2.50707E-14-1.93336E-13
 -1      3449 2.00480E+01-7.08797E-02 3.18553E-05-1.32368E-01 6.31393E-14-1.61094E-13
 -1      3450 2.00687E+01-7.45837E-02-3.72151E-04-1.14632E-01 1.29281E-14-1.36247E-13
 -1      3451 2.00215E+01-3.24065E-02 4.17228E-04-8.23751E-02-6.87859E-14-1.31861E-13
 -1      3452 2.00209E+01-4.07166E-02-2.32826E-04-8.71601E-02-5.03154E-14-1.60126E-13
 -1      3453 2.00178E+01-1.41620E-02 4.34048E-04-7.68465E-02-3.03649E-14-1.59426E-13
 -1      3454 2.00165E+01-2.38541E-02-2.88864E-04-7.89691E-02-1.79607E-14-1.52062E-13
 -1      3455 2.00318E+01-3.12432E-02-1.68114E-04-7.89261E-02-4.07546E-14-2.07619E-13
 -1      3456 2.00153E+01 6.93147E-03 4.63108E-04-7.72988E-02-5.74566E-14-1.92656E-13
 -1      3457 2.00134E+01-4.25555E-03-3.48245E-04-7.62250E-02-5.42301E-14-1.34980E-13
 -1      3458 2.00239E+01-9.73074E-03-1.07845E-04-7.53056E-02-1.62349E-14-2.30675E-13
 -1      3459 2.00132E+01 3.13574E-02 5.07955E-04-8.47996E-02 8.20964E-15-2.09514E-13
 -1      3460 2.00109E+01 1.83864E-02-4.20012E-04-7.99688E-02-3.35851E-14-2.08054E-13
 -1      3461 2.00167E+01 1.52066E-02-4.56697E-05-7.76582E-02-3.08344E-14-2.91078E-13
 -1      3462 2.00110E+01 5.98748E-02 5.70516E-04-1.00537E-01 6.23284E-14-1.26735E-13
 -1      3463 2.00083E+01 4.47005E-02-5.12027E-04-9.13160E-02 7.24993E-14-1.43663E-13
 -1      3464 2.00093E+01 4.41711E-02 2.35226E-05-8.70507E-02 3.05874E-14-2.62885E-13
 -1      3465 2.00079E+01 9.34302E-02 6.51042E-04-1.25885E-01 2.87060E-14-2.97444E-14
 -1      3466 2.00050E+01 7.55484E-02-6.31306E-04-1.11538E-01 3.78582E-14-1.18318E-13
 -1      3467 2.00006E+01 7.80528E-02 1.06027E-04-1.04664E-01 2.54954E-14-1.19486E-13
 -1      3468 2.00029E+01 1.33056E-01 7.47957E-04-1.62427E-01 7.92985E-14-4.51757E-14
 -1      3469 1.99999E+01 1.11932E-01-7.84189E-04-1.42109E-01 1.12360E-13-9.40000E-14
 -1      3470 1.99892E+01 1.17923E-01 2.09447E-04-1.31845E-01 9.02704E-14-1.34815E-13
 -1      3471 1.99947E+01 1.79741E-01 8.57725E-04-2.11950E-01 1.84858E-13-2.58156E-14
 -1      3472 1.99920E+01 1.54881E-01-9.76243E-04-1.84716E-01 1.10769E-13-1.40051E-14
 -1      3473 1.99736E+01 1.64910E-01 3.42763E-04-1.70118E-01 1.03905E-13-2.09426E-13
 -1      3474 1.99817E+01 2.34236E-01 9.75011E-04-2.76384E-01 5.51820E-14 8.46071E-15
 -1      3475 1.99798E+01 2.05294E-01-1.21189E-03-2.41227E-01 1.30647E-13-3.72773E-15
 -1      3476 1.99517E+01 2.20035E-01 5.16181E-04-2.21163E-01 1.49521E-13-1.34036E-13
 -1      3477 1.99620E+01 2.96765E-01 1.09369E-03-3.57702E-01-8.38259E-14 3.60971E-14
 -1      3478 1.99614E+01 2.63705E-01-1.49363E-03-3.13619E-01 1.89320E-14-1.15064E-15
 -1      3479 1.99210E+01 2.83974E-01 7.40451E-04-2.86756E-01 3.05670E-14-1.61159E-15
 -1      3480 1.99329E+01 3.66572E-01 1.20970E-03-4.57762E-01-1.69672E-13 1.38670E-14
 -1      3481 1.99345E+01 3.29920E-01-1.82082E-03-4.03856E-01-1.03449E-13 2.16478E-14
 -1      3482 1.98786E+01 3.56707E-01 1.02512E-03-3.68666E-01-8.21503E-14 7.53209E-16
 -1      3483 1.98917E+01 4.41216E-01 1.32732E-03-5.78120E-01-9.40141E-14-5.33358E-14
 -1      3484 1.98964E+01 4.02451E-01-2.18774E-03-5.13729E-01-1.71166E-13-1.97894E-14
 -1      3485 1.98209E+01 4.36979E-01 1.37477E-03-4.68550E-01-1.33492E-13-7.88625E-14
 -1      3486 1.98357E+01 5.15494E-01 1.47154E-03-7.19843E-01-1.92494E-13 8.54661E-14
 -1      3487 1.98441E+01 4.77641E-01-2.58052E-03-6.44688E-01-1.41006E-13-1.97575E-14
 -1      3488 1.97438E+01 5.21496E-01 1.78181E-03-5.87864E-01-1.44714E-13-1.13112E-13
 -1      3489 1.97631E+01 5.79795E-01 1.70921E-03-8.83411E-01-1.11352E-13 9.52313E-14
 -1      3490 1.97752E+01 5.48322E-01-2.97181E-03-7.97732E-01-1.05509E-13 1.37069E-13
 -1      3491 1.96433E+01 6.03710E-01 2.21315E-03-7.27905E-01-2.16060E-13-2.88897E-14
 -1      3492 1.96749E+01 6.17696E-01 2.18023E-03-1.06882E+00 8.80424E-15 3.57429E-15
 -1      3493 1.96886E+01 6.01820E-01-3.30992E-03-9.73462E-01-3.84388E-14 6.15757E-14
 -1      3494 1.95162E+01 6.72039E-01 2.58649E-03-8.90134E-01-4.17555E-14-9.94417E-14
 -1      3495 1.95786E+01 6.02588E-01 3.13361E-03-1.27604E+00-1.02611E-13-1.96819E-13
 -1      3496 1.95877E+01 6.17078E-01-3.49482E-03-1.17244E+00-5.02083E-14-1.04972E-13
 -1      3497 1.93619E+01 7.07286E-01 2.72782E-03-1.07703E+00 4.30292E-14-2.94367E-14
 -1      3498 1.94938E+01 4.93338E-01 4.95037E-03-1.50563E+00 4.94781E-14-9.54024E-14
 -1      3499 1.94842E+01 5.60797E-01-3.32372E-03-1.39592E+00-6.06630E-14-1.41034E-13
 -1      3500 1.91856E+01 6.79032E-01 2.29744E-03-1.29366E+00-6.69952E-14-1.98667E-13
 -1      3501 1.94627E+01 2.29460E-01 8.11257E-03-1.75897E+00-8.55386E-14-5.61313E-14
 -1      3502 1.94066E+01 3.82843E-01-2.36223E-03-1.64661E+00 6.79761E-14-1.70298E-14
 -1      3503 1.90046E+01 5.40974E-01 6.72776E-04-1.55005E+00-5.96017E-15-6.26356E-14
 -1      3504 1.95655E+01-2.72067E-01 1.32463E-02-2.03460E+00-9.97345E-14-1.82372E-13
 -1      3505 1.94139E+01 1.19441E-02 5.56887E-04-1.92768E+00-8.37152E-14-1.65265E-13
 -1      3506 1.88582E+01 2.24666E-01-3.24253E-03-1.86332E+00-5.03457E-15-4.88343E-14
 -1      3507 1.99376E+01-1.11505E+00 1.84369E-02-2.31521E+00-1.79135E-13-2.55518E-13
 -1      3508 1.96177E+01-6.44234E-01 8.46724E-03-2.23489E+00-1.30688E-13-2.58418E-13
 -1      3509 1.88272E+01-3.66019E-01-1.08831E-02-2.25532E+00-1.02613E-13-1.63472E-13
 -1      3510 2.07673E+01-2.38524E+00 1.46248E-02-2.52115E+00-2.55154E-13-9.67707E-14
 -1      3511 2.02136E+01-1.68214E+00 2.71867E-02-2.51673E+00-2.41050E-13-2.18986E-13
 -1      3512 1.90773E+01-1.36620E+00-2.39439E-02-2.73360E+00-2.26862E-13-1.44420E-13
 -1      3513 2.25450E+01-3.88056E+00-2.87895E-03-2.21052E+00-3.76772E-13-9.85158E-14
 -1      3514 2.17020E+01-3.03268E+00 6.71346E-02-2.45759E+00-3.03003E-13-8.01182E-14
 -1      3515 2.01151E+01-2.76759E+00-3.66007E-02-3.03288E+00-2.24229E-13-1.61961E-13
 -1      3516 2.22725E+01-4.31117E+00-4.52714E-02-2.69289E+00-2.96308E-13-3.24902E-13
 -1      3517 2.41827E+01 3.69999E+00-2.97547E-01 1.57470E+00 3.86420E-13 4.46053E-13
 -1      3518 2.00269E+01-4.79178E-02 4.07388E-04-9.28394E-02-3.10047E-14-1.67196E-13
 -1      3519 2.00272E+01-5.47309E-02-1.69938E-04-9.97140E-02-3.72610E-14-1.63561E-13
 -1      3520 2.00535E+01-6.43160E-02-2.98921E-04-9.98446E-02-3.24031E-14-2.02416E-13
 -1      3521 2.00415E+01-4.95393E-02-2.30586E-04-8.74821E-02-2.85828E-14-2.33023E-13
 -1      3522 2.00995E+01-4.61527E-02 6.11035E-05-1.62996E-01 8.12206E-14-1.64673E-13
 -1      3523 2.01110E+01-2.97650E-02 8.05772E-04-1.62645E-01 9.41288E-14-1.55293E-13
 -1      3524 2.00424E+01 2.16492E+00-4.13323E-03-2.84168E-01-9.13255E-14-6.33318E-13
 -1      3525 2.01598E+01 1.85250E+00 5.83038E-03-2.85480E-01-1.17835E-13-5.86336E-13
 -1      3526 2.00296E+01 2.20166E+00-3.37144E-03-1.62675E-01-3.33821E-14-6.25254E-13
 -1      3527 1.17175E+01-3.78706E-01 1.15175E-02 2.25156E+00 6.71869E-14-4.09776E-13
 -1      3528 1.05130E+01-2.64888E-02 1.56028E-01 1.03545E+00-2.35055E-15-4.76334E-13
 -1      3529 1.13388E+01 6.61798E-02 6.72150E-02 8.16300E-02-6.95694E-14-4.27006E-13
 -1      3530 2.03120E+01 7.32779E-01 1.07275E-03-2.44071E-01-1.74586E-13-4.61149E-13
 -1      3531 2.02943E+01 5.73729E-01-2.79317E-03-1.42543E-01-1.42336E-13-4.29805E-13
 -1      3532 2.02174E+01 1.58129E+00 1.27236E-03-6.99001E-01-2.88160E-13-5.66037E-13
 -1      3533 2.33189E+01-4.41911E+00 7.79223E-02 2.36512E+00 3.15734E-13-1.30100E-13
 -1      3534 1.84928E+01-3.74727E+00 1.24243E-01-4.53918E+00-3.71994E-14-3.57776E-13
 -1      3535 2.09695E+01-4.82633E+00-3.22616E-02-3.88928E+00-9.08162E-14-5.08524E-13
 -1      3536 2.15649E+01-4.45461E+00 8.94227E-03-3.27396E+00-1.79370E-13-3.75037E-13
 -1      3537 2.02999E+01 4.39487E-01 2.84250E-03-7.17066E-02-1.37864E-13-3.99892E-13
 -1      3538 2.02749E+01 3.25934E-01-2.12407E-03-5.15247E-03-1.43441E-13-3.82170E-13
 -1      3539 2.03149E+01 3.27071E-01-1.58166E-04 2.17868E-03-1.17465E-13-3.73761E-13
 -1      3540 2.02873E+01 9.27701E-01 9.05140E-04 4.63677E-01 3.33143E-13-3.16237E-13
 -1      3541 2.02750E+01 1.10007E+00-2.27897E-03 4.99974E-01 3.38819E-13-3.63193E-13
 -1      3542 2.02707E+01 7.68858E-01-1.46332E-03 3.34929E-01 2.90535E-13-2.96336E-13
 -1      3543 2.14863E+01-4.25662E+00-6.01130E-02 3.32520E+00 3.41839E-13-3.42393E-13
 -1      3544 1.94018E+01-3.40730E+00 4.68230E-02 4.01479E+00 2.63048E-13-3.43921E-13
 -1      3545 2.57210E+01-2.56869E+00 4.51962E-03-1.40983E+00-3.18471E-13-3.21420E-13
 -1      3546 2.02680E+01 1.23609E+00 2.38873E-04 4.64482E-01 3.01344E-13-4.02014E-13
 -1      3547 2.02344E+01 3.20190E-01-2.02499E-03 1.61080E-02 2.12563E-13-2.67031E-13
 -1      3548 2.02684E+01 4.29508E-01 4.13913E-03 9.06299E-02 2.32251E-13-2.69378E-13
 -1      3549 2.02022E+01 1.69684E+00 6.37102E-03 4.59746E-01 2.62864E-13-4.71904E-13
 -1      3550 2.01717E+01-1.52543E-02-7.08432E-04-1.47675E-01 7.25303E-14-2.10634E-13
 -1      3551 2.01273E+01-8.50995E-03-2.14292E-04-1.58920E-01 7.86094E-14-2.00434E-13
 -1      3552 2.01433E+01 2.05146E-02 1.28151E-03-1.49374E-01 7.33151E-14-1.97602E-13
 -1      3553 2.47996E+01-4.26792E+00-2.38595E-02 4.74706E+00-1.88356E-13-2.39886E-13
 -1      3554 2.00768E+01-6.50640E-02 2.27718E-04-1.55013E-01 4.82693E-14-1.68964E-13
 -1      3555 2.00848E+01-5.73640E-02 4.53427E-04-1.60106E-01 4.61813E-14-1.71227E-13
 -1      3556 2.01391E+01-5.41981E-02-6.36406E-04-1.50894E-01 7.51390E-14-1.70564E-13
 -1      3557 1.80852E+01-2.69519E+00 2.14011E-02 4.09203E+00 2.43770E-13-2.70516E-13
 -1      3558 1.67748E+01-1.76480E+00 4.06449E-03 3.69343E+00 2.77932E-13-1.90150E-13
 -1      3559 1.94503E+01-2.62063E+00 3.81233E-02 3.34051E+00 2.12933E-13-3.96432E-13
 -1      3560 2.68332E+01-2.51781E+00 2.88550E-02-7.11112E-01-3.12632E-13-5.30012E-13
 -1      3561 2.01028E+01 5.99961E-02-1.17972E-03-1.39753E-01 9.90642E-14-2.28799E-13
 -1      3562 1.73007E+01-2.86378E+00 6.12704E-02-4.19511E+00-6.87991E-15-4.05002E-13
 -1      3563 2.02239E+01 2.33412E-01 2.70107E-03-3.63191E-02 1.60837E-13-2.47167E-13
 -1      3564 2.02804E+01 3.28500E-01-3.31928E-04 7.43182E-03 1.78663E-13-2.96883E-13
 -1      3565 2.01969E+01 1.60211E-01-1.28102E-03-8.11631E-02 1.30591E-13-2.43500E-13
 -1      3566 2.00877E+01-7.85265E-02-4.52420E-04-1.29974E-01 8.80639E-14-1.58483E-13
 -1      3567 2.00588E+01-7.11939E-02 3.24968E-04-1.40561E-01 8.15823E-14-1.36199E-13
 -1      3568 2.00640E+01-6.94101E-02 2.04527E-04-1.48417E-01 8.77921E-14-1.30094E-13
 -1      3569 2.02215E+01 1.54758E+00-4.07170E-03 2.84745E-01 1.85677E-13-4.71308E-13
 -1      3570 2.02107E+01 1.60636E+00-2.04105E-03 2.01442E-01 1.38762E-13-5.08663E-13
 -1      3571 2.03304E+01 5.79418E-01 1.01455E-03-1.14216E-01-1.34051E-13-4.36957E-13
 -1      3572 2.21321E+01-3.80770E+00 1.30877E-02 2.50398E+00 2.12487E-13-2.20162E-13
 -1      3573 2.02019E+01 1.63960E+00-3.31471E-03 1.30226E-01 1.02407E-13-5.43079E-13
 -1      3574 2.01980E+01 1.65917E+00-2.69053E-03 3.97652E-02 5.50345E-14-5.78319E-13
 -1      3575 2.02853E+01 1.38590E+00 5.13272E-03 1.33510E-01 1.09477E-13-4.94409E-13
 -1      3576 2.01374E+01 1.92408E+00 5.11233E-03-9.48849E-02-1.74643E-14-5.86377E-13
 -1      3577 2.02097E+01 1.60911E+00-2.31792E-03-1.96325E-01-6.99794E-14-5.47512E-13
 -1      3578 2.02219E+01 1.55507E+00-3.73980E-03-2.81189E-01-1.29568E-13-5.59041E-13
 -1      3579 1.46181E+01-8.83082E-01 1.68832E-02 3.24017E+00 1.99959E-13 1.88044E-15
 -1      3580 1.31782E+01-4.83583E-01 1.06874E-01 2.92941E+00 1.65912E-13-1.76806E-13
 -1      3581 1.28937E+01-8.66179E-02 5.03500E-03 2.01272E+00 1.15578E-13-2.66683E-13
 -1      3582 1.20776E+01-3.98632E-01 1.94832E-02-2.17292E+00-2.17309E-14-3.46799E-13
 -1      3583 1.26204E+01-8.24169E-01 1.32886E-01-3.10785E+00-1.36807E-13-3.94060E-13
 -1      3584 1.43243E+01-1.32604E+00 3.93469E-02-3.49704E+00-8.00332E-14-4.91551E-13
 -1      3585 2.02940E+01 9.12545E-01-2.26203E-03-3.24152E-01-1.95710E-13-4.95682E-13
 -1      3586 2.03159E+01 9.04227E-01-2.05317E-03-2.69408E-01-1.49131E-13-4.81992E-13
 -1      3587 2.02925E+01 1.11665E+00-1.52680E-04-4.47820E-01-2.20798E-13-5.36574E-13
 -1      3588 2.02983E+01 1.24610E+00 5.22672E-03-2.83777E-01-1.35372E-13-5.14748E-13
 -1      3589 2.02408E+01 1.44151E+00-8.00787E-04-3.83045E-01-1.70896E-13-5.47960E-13
 -1      3590 2.66618E+01-3.34558E+00-2.46522E-02-1.23079E+00 8.60770E-14 6.66450E-13
 -1      3591 2.74479E+01-2.30200E+00-2.11698E-02-2.30451E-01-5.14082E-13-6.79956E-13
 -1      3592 2.03336E+01 2.15417E-01 1.30271E-03 4.74367E-02-9.93570E-14-3.62873E-13
 -1      3593 2.03129E+01 1.40637E-01-1.03705E-03 7.66043E-02-1.05566E-13-3.42382E-13
 -1      3594 2.03037E+01 5.73115E-01-1.67857E-03 1.43193E-01 2.38882E-13-3.42182E-13
 -1      3595 2.02648E+01 5.61983E-01-2.96326E-03 1.70278E-01 2.33140E-13-3.01028E-13
 -1      3596 2.02508E+01 1.38173E+00-5.36432E-03 4.13429E-01 2.63393E-13-4.40600E-13
 -1      3597 2.02351E+01 1.48188E+00-1.67959E-03 3.45392E-01 2.14116E-13-4.41807E-13
 -1      3598 2.02986E+01 1.28394E+00 5.39249E-03 2.51296E-01 1.78889E-13-4.18672E-13
 -1      3599 2.02978E+01 8.15185E-02 1.08208E-03 9.26701E-02-9.34456E-14-3.23706E-13
 -1      3600 2.02762E+01 3.31749E-02-5.14078E-04 1.07904E-01-8.41452E-14-3.03329E-13
 -1      3601 2.03394E+01 1.30172E-01-1.14932E-04 6.86210E-02-7.86533E-14-3.70939E-13
 -1      3602 2.02571E+01-3.83686E-03 8.03706E-04 1.14664E-01-6.36880E-14-2.97057E-13
 -1      3603 2.02368E+01-3.30501E-02-1.45799E-04 1.20283E-01-5.88199E-14-3.33560E-13
 -1      3604 2.03007E+01 2.34268E-02-3.79138E-04 9.37103E-02-6.68880E-14-3.69931E-13
 -1      3605 2.02165E+01-5.43147E-02 5.60490E-04 1.20794E-01-8.94786E-14-3.14505E-13
 -1      3606 2.01985E+01-6.99525E-02 9.79116E-05 1.20217E-01-6.59777E-14-3.32059E-13
 -1      3607 2.02587E+01-4.18176E-02-5.01113E-04 1.03288E-01-8.06225E-14-3.31163E-13
 -1      3608 2.01788E+01-8.01565E-02 3.63880E-04 1.16922E-01-3.61567E-14-3.34173E-13
 -1      3609 2.01633E+01-8.63171E-02 2.50331E-04 1.12757E-01-2.19236E-14-3.43339E-13
 -1      3610 2.02174E+01-7.74582E-02-5.45196E-04 1.02666E-01-8.53676E-14-3.06742E-13
 -1      3611 2.01451E+01-8.88617E-02 2.10569E-04 1.07518E-01-3.34729E-14-3.49998E-13
 -1      3612 2.01322E+01-8.85195E-02 3.32006E-04 1.01693E-01-4.11605E-14-3.18281E-13
 -1      3613 2.01792E+01-9.22625E-02-5.31677E-04 9.60615E-02-1.95433E-14-2.85885E-13
 -1      3614 2.01161E+01-8.58522E-02 9.03271E-05 9.58429E-02-3.18360E-14-3.02886E-13
 -1      3615 2.01055E+01-8.10644E-02 3.68029E-04 8.97168E-02-4.38391E-14-2.82667E-13
 -1      3616 2.01452E+01-9.26650E-02-4.77411E-04 8.66581E-02-4.24163E-15-2.90354E-13
 -1      3617 2.00914E+01-7.47860E-02-8.63555E-06 8.41991E-02-4.34419E-14-2.29254E-13
 -1      3618 2.00828E+01-6.68714E-02 3.78403E-04 7.87646E-02-2.13328E-15-2.31282E-13
 -1      3619 2.01156E+01-8.31914E-02-4.06825E-04 7.66863E-02-4.98054E-15-2.03011E-13
 -1      3620 2.00705E+01-5.79882E-02-9.29598E-05 7.42790E-02-2.97996E-14-2.41294E-13
 -1      3621 2.00635E+01-4.77218E-02 3.74128E-04 7.02661E-02-8.93294E-14-1.87828E-13
 -1      3622 2.00902E+01-6.67294E-02-3.23326E-04 6.78069E-02-3.30908E-14-2.09030E-13
 -1      3623 2.00525E+01-3.67658E-02-1.72753E-04 6.73384E-02-1.08904E-13-1.28387E-13
 -1      3624 2.00466E+01-2.44941E-02 3.64266E-04 6.53198E-02-8.65541E-14-9.36066E-14
 -1      3625 2.00680E+01-4.50034E-02-2.29405E-04 6.12515E-02-5.02863E-14-1.69594E-13
 -1      3626 2.00363E+01-1.16322E-02-2.56651E-04 6.43850E-02-8.14247E-14-6.58398E-14
 -1      3627 2.00310E+01 2.62507E-03 3.55178E-04 6.48596E-02-1.34163E-13-1.90941E-14
 -1      3628 2.00480E+01-1.88136E-02-1.27125E-04 5.79814E-02-8.56355E-14-1.58030E-13
 -1      3629 2.00206E+01 1.74966E-02-3.51675E-04 6.63290E-02-1.39155E-13-1.43958E-14
 -1      3630 2.00153E+01 3.39557E-02 3.50816E-04 6.97833E-02-1.00697E-13 6.70549E-15
 -1      3631 2.00289E+01 1.17530E-02-1.50087E-05 5.88380E-02-8.24292E-14-7.81496E-14
 -1      3632 2.00040E+01 5.11279E-02-4.64160E-04 7.40904E-02-4.22747E-14 5.08670E-14
 -1      3633 1.99981E+01 7.01584E-02 3.53454E-04 8.10428E-02-1.41328E-14-1.91627E-14
 -1      3634 2.00089E+01 4.71209E-02 1.10083E-04 6.46497E-02-6.39257E-14 7.49820E-15
 -1      3635 1.99848E+01 9.00290E-02-5.99672E-04 8.86783E-02-3.33808E-14 8.22322E-15
 -1      3636 1.99776E+01 1.12068E-01 3.64254E-04 9.97067E-02 4.27259E-14-8.45928E-14
 -1      3637 1.99863E+01 8.80468E-02 2.52192E-04 7.63094E-02 1.23104E-14 7.13276E-14
 -1      3638 1.99612E+01 1.35052E-01-7.62801E-04 1.11242E-01 1.11288E-13-7.01380E-14
 -1      3639 1.99519E+01 1.60507E-01 3.83851E-04 1.26997E-01 1.16599E-13-8.24443E-14
 -1      3640 1.99590E+01 1.35436E-01 4.15623E-04 9.48308E-02 5.82060E-14 9.98686E-14
 -1      3641 1.99311E+01 1.86928E-01-9.56847E-04 1.43100E-01 7.56304E-14-1.18667E-13
 -1      3642 1.99188E+01 2.16048E-01 4.13148E-04 1.64305E-01 1.85996E-14-1.52411E-13
 -1      3643 1.99246E+01 1.90131E-01 6.04138E-04 1.21387E-01 6.09017E-14 2.78114E-14
 -1      3644 1.98921E+01 2.45993E-01-1.18342E-03 1.85746E-01-5.74124E-14-2.00772E-13
 -1      3645 1.98760E+01 2.78708E-01 4.54594E-04 2.13182E-01-5.34911E-14-1.38793E-13
 -1      3646 1.98804E+01 2.52648E-01 8.19873E-04 1.57334E-01-7.26961E-14-9.57794E-14
 -1      3647 1.98419E+01 3.11838E-01-1.44198E-03 2.40842E-01-2.49476E-14-2.38474E-13
 -1      3648 1.98210E+01 3.47532E-01 5.14344E-04 2.75324E-01-3.76316E-14-1.64322E-13
 -1      3649 1.98235E+01 3.22835E-01 1.06182E-03 2.04229E-01-4.39093E-14-5.01933E-14
 -1      3650 1.97780E+01 3.82823E-01-1.72956E-03 3.10205E-01-3.10128E-14-1.75002E-13
 -1      3651 1.97516E+01 4.20044E-01 6.05927E-04 3.52557E-01 7.10441E-14-1.08964E-13
 -1      3652 1.97508E+01 3.99419E-01 1.32373E-03 2.63857E-01-1.84986E-14-3.11741E-14
 -1      3653 1.96982E+01 4.55445E-01-2.04058E-03 3.95814E-01-1.51380E-14-1.76077E-13
 -1      3654 1.96661E+01 4.91514E-01 7.56251E-04 4.46856E-01-3.37070E-14-2.31901E-13
 -1      3655 1.96595E+01 4.79416E-01 1.59113E-03 3.38291E-01-3.78717E-14-3.52451E-15
 -1      3656 1.96013E+01 5.23502E-01-2.36687E-03 4.99880E-01 9.89539E-15-3.59574E-13
 -1      3657 1.95639E+01 5.54033E-01 1.01504E-03 5.60453E-01 3.46588E-14-3.51781E-13
 -1      3658 1.95471E+01 5.57379E-01 1.83703E-03 4.30034E-01-1.07084E-13-2.60795E-13
 -1      3659 1.94872E+01 5.77050E-01-2.69677E-03 6.25041E-01 1.79240E-14-4.27197E-13
 -1      3660 1.94466E+01 5.95335E-01 1.46861E-03 6.96104E-01 3.08377E-14-4.74999E-13
 -1      3661 1.94118E+01 6.24456E-01 2.01519E-03 5.42319E-01 2.05799E-15-3.32392E-13
 -1      3662 1.93591E+01 6.01101E-01-3.01031E-03 7.74769E-01 1.08851E-13-4.64033E-13
 -1      3663 1.93200E+01 5.97375E-01 2.25694E-03 8.57583E-01 1.29105E-13-3.71009E-13
 -1      3664 1.92542E+01 6.67236E-01 2.04798E-03 6.79676E-01 5.11583E-14-4.23536E-13
 -1      3665 1.92244E+01 5.74061E-01-3.26240E-03 9.54054E-01-2.66518E-14-3.69528E-13
 -1      3666 1.91960E+01 5.34618E-01 3.58585E-03 1.05041E+00-7.27444E-14-3.38933E-13
 -1      3667 1.90777E+01 6.66330E-01 1.80055E-03 8.48892E-01 4.37402E-14-3.35534E-13
 -1      3668 1.90992E+01 4.65911E-01-3.33556E-03 1.17025E+00-1.83878E-13-3.80588E-13
 -1      3669 1.90973E+01 3.72076E-01 5.72835E-03 1.28251E+00-2.58526E-13-4.01496E-13
 -1      3670 1.88914E+01 5.94536E-01 1.02375E-03 1.06042E+00-1.81705E-13-3.44118E-13
 -1      3671 1.90127E+01 2.36270E-01-2.89558E-03 1.43360E+00-1.30541E-13-3.47120E-13
 -1      3672 1.90642E+01 6.33320E-02 9.04969E-03 1.56385E+00 5.34397E-14-3.50333E-13
 -1      3673 1.87137E+01 4.14451E-01-7.38549E-04 1.33001E+00-1.44433E-13-1.80668E-13
 -1      3674 1.90177E+01-1.67334E-01-8.91005E-04 1.75601E+00 1.30362E-13-4.31055E-13
 -1      3675 1.91637E+01-4.52877E-01 1.29966E-02 1.90346E+00 8.90511E-14-4.62333E-13
 -1      3676 1.85792E+01 7.49324E-02-4.32706E-03 1.67975E+00-6.94364E-15-3.59815E-13
 -1      3677 1.92064E+01-8.07210E-01 5.96303E-03 2.13884E+00 9.68958E-14-5.00823E-13
 -1      3678 1.94861E+01-1.25251E+00 1.21009E-02 2.29676E+00 1.99376E-13-3.89522E-13
 -1      3679 1.85567E+01-5.00043E-01-1.14837E-02 2.13402E+00 1.69728E-13-5.08638E-13
 -1      3680 2.10822E+01-3.03182E+00 4.38583E-02 2.73105E+00 9.27028E-14-3.15967E-13
 -1      3681 2.00907E+01-7.82203E-02 3.82045E-04-1.01421E-01 1.36716E-14-1.37665E-13
 -1      3682 2.00993E+01-8.21368E-02 8.47411E-05-1.08429E-01 5.18018E-14-1.39970E-13
 -1      3683 2.00297E+01-3.48762E-03 3.93924E-04-7.00634E-02-1.06496E-14-2.31795E-13
 -1      3684 2.00330E+01-1.64057E-02-2.67299E-04-7.02590E-02 4.39988E-15-2.27979E-13
 -1      3685 2.00418E+01-2.79723E-02 3.94982E-04-7.18459E-02-3.70905E-14-2.17543E-13
 -1      3686 2.00457E+01-3.90459E-02-1.89259E-04-7.46576E-02-4.78040E-14-2.18348E-13
 -1      3687 2.00457E+01-2.35875E-02-1.44675E-04-6.57107E-02 6.90384E-15-2.39272E-13
 -1      3688 2.00056E+01 5.79891E-02 4.11011E-04-8.46425E-02 1.49774E-14-1.98978E-13
 -1      3689 2.00088E+01 4.05342E-02-4.59476E-04-7.80322E-02-1.70128E-14-2.54843E-13
 -1      3690 1.99906E+01 9.66993E-02 4.30394E-04-1.03108E-01 3.47461E-14-1.75234E-13
 -1      3691 1.99947E+01 7.62350E-02-5.88292E-04-9.22168E-02 4.24460E-14-1.80648E-13
 -1      3692 1.99956E+01 7.48259E-02 1.91263E-04-8.21780E-02 1.31856E-14-2.41527E-13
 -1      3693 1.99714E+01 1.42216E-01 4.54455E-04-1.30636E-01 1.09073E-13-1.61790E-13
 -1      3694 1.99771E+01 1.18141E-01-7.47620E-04-1.14784E-01 1.43033E-13-1.55091E-13
 -1      3695 1.99737E+01 1.19241E-01 3.45309E-04-1.01006E-01 9.33076E-14-2.34677E-13
 -1      3696 1.99457E+01 1.95713E-01 4.78842E-04-1.68610E-01 6.33147E-14-1.12480E-13
 -1      3697 1.99538E+01 1.67438E-01-9.43259E-04-1.47046E-01 8.63747E-14-1.55463E-13
 -1      3698 1.99455E+01 1.71396E-01 5.34305E-04-1.28286E-01 8.92833E-14-1.00313E-13
 -1      3699 1.99107E+01 2.58187E-01 4.97566E-04-2.18515E-01 1.02347E-13-1.30521E-13
 -1      3700 1.99225E+01 2.25239E-01-1.18038E-03-1.90442E-01 9.39450E-14-1.89435E-13
 -1      3701 1.99083E+01 2.32493E-01 7.68855E-04-1.65232E-01 9.84565E-14-9.99859E-14
 -1      3702 1.98633E+01 3.30188E-01 5.04006E-04-2.81865E-01-2.84450E-14-5.06189E-14
 -1      3703 1.98801E+01 2.92358E-01-1.46354E-03-2.46484E-01 8.04564E-14-4.39113E-14
 -1      3704 1.98586E+01 3.03464E-01 1.06082E-03-2.13103E-01-3.49682E-16-7.50185E-14
 -1      3705 1.97995E+01 4.11436E-01 4.93416E-04-3.60118E-01-7.17504E-14-1.48264E-13
 -1      3706 1.98230E+01 3.68989E-01-1.79700E-03-3.16686E-01-3.89338E-14-1.16695E-13
 -1      3707 1.97925E+01 3.84670E-01 1.42284E-03-2.73139E-01 4.58185E-14-1.19808E-13
 -1      3708 1.97148E+01 5.00260E-01 4.68245E-04-4.54588E-01-1.30743E-13-2.13047E-13
 -1      3709 1.97468E+01 4.54237E-01-2.18588E-03-4.02468E-01-1.12789E-13-1.78274E-13
 -1      3710 1.97051E+01 4.75465E-01 1.86734E-03-3.46490E-01-9.55696E-14-3.43055E-13
 -1      3711 1.96040E+01 5.92787E-01 4.48409E-04-5.66441E-01-2.00155E-13-1.34536E-13
 -1      3712 1.96468E+01 5.45442E-01-2.63873E-03-5.05123E-01-1.33117E-13-1.18413E-13
 -1      3713 1.95910E+01 5.73600E-01 2.40481E-03-4.34193E-01-1.66362E-13-2.83281E-13
 -1      3714 1.94621E+01 6.81783E-01 4.89815E-04-6.96897E-01-1.54494E-13-2.00464E-13
 -1      3715 1.95173E+01 6.37199E-01-3.17268E-03-6.25906E-01-2.28350E-13-1.32527E-13
 -1      3716 1.94438E+01 6.74395E-01 3.04099E-03-5.37303E-01-2.02995E-13-2.49136E-13
 -1      3717 1.92843E+01 7.55029E-01 7.15949E-04-8.47867E-01-8.56272E-14-4.77602E-14
 -1      3718 1.93530E+01 7.19978E-01-3.82128E-03-7.66454E-01-1.20562E-13-9.61739E-14
 -1      3719 1.92565E+01 7.69624E-01 3.77235E-03-6.57350E-01-2.05037E-13-1.61816E-13
 -1      3720 1.90685E+01 7.93027E-01 1.36501E-03-1.02335E+00 3.76908E-14 1.26213E-14
 -1      3721 1.91491E+01 7.78170E-01-4.64180E-03-9.29819E-01 2.62984E-14 2.84402E-14
 -1      3722 1.90219E+01 8.46006E-01 4.57805E-03-7.97439E-01-7.51328E-14 2.40062E-14
 -1      3723 1.88174E+01 7.65788E-01 2.83705E-03-1.23196E+00-1.43851E-14-1.32519E-13
 -1      3724 1.89038E+01 7.87380E-01-5.70950E-03-1.12249E+00 5.83406E-14 1.84178E-14
 -1      3725 1.87335E+01 8.83120E-01 5.39859E-03-9.64461E-01 1.01645E-13 7.66277E-14
 -1      3726 1.85447E+01 6.28655E-01 5.80998E-03-1.49056E+00-9.38130E-14-1.01466E-13
 -1      3727 1.86215E+01 7.10670E-01-7.07823E-03-1.35763E+00-8.45185E-14-1.95414E-13
 -1      3728 1.83864E+01 8.50292E-01 6.07685E-03-1.17286E+00-6.27287E-15-2.91427E-14
 -1      3729 1.82841E+01 3.16036E-01 1.13404E-02-1.82910E+00 6.80943E-14-1.19591E-13
 -1      3730 1.83197E+01 4.93880E-01-8.63583E-03-1.66006E+00 6.21435E-14-7.80346E-14
 -1      3731 1.79811E+01 7.03068E-01 6.39690E-03-1.45035E+00-2.95519E-14-2.90890E-14
 -1      3732 1.81090E+01-2.67412E-01 2.15417E-02-2.29167E+00-1.09132E-13-1.12528E-13
 -1      3733 1.80438E+01 5.82394E-02-8.66348E-03-2.07039E+00-1.38781E-14-9.84297E-14
 -1      3734 1.75293E+01 3.72270E-01 5.30875E-03-1.84637E+00 5.60807E-14-1.60676E-14
 -1      3735 1.81360E+01-1.27435E+00 3.00760E-02-2.93818E+00-1.96397E-13-2.14934E-13
 -1      3736 1.78948E+01-6.94325E-01 2.88308E-03-2.64604E+00-1.75336E-13-1.54952E-13
 -1      3737 1.70707E+01-2.48130E-01 2.69695E-03-2.43870E+00-1.60271E-13-1.19414E-13
 -1      3738 2.04124E+01-3.50176E+00 1.03821E-01-3.52874E+00-7.96516E-14-3.19814E-13
 -1      3739 2.02847E+01 6.92620E-01 3.07580E-03 2.66575E-01 2.57732E-13-3.15411E-13
 -1      3740 1.65458E+01-2.10705E+00 6.17038E-02-3.94224E+00-2.48117E-14-4.32557E-13
 -1      3741 1.83955E+01-3.11865E+00-3.64083E-02-3.98497E+00 1.39819E-15-2.68605E-13
 -1      3742 1.94728E+01-2.92350E+00 3.01783E-02-3.45941E+00-1.46020E-13-2.56033E-13
 -1      3743 2.03074E+01 1.07119E+00 5.07467E-03 3.48367E-01 2.58969E-13-3.90164E-13
 -1      3744 1.24017E+01 3.04190E-01-5.35221E-03 2.78199E-01 7.96238E-16-3.49408E-13
 -1      3745 1.22278E+01 3.24787E-01 1.16973E-01-9.18659E-01-1.15108E-14-3.56687E-13
 -1      3746 2.02539E+01 1.36672E+00 1.80187E-03-5.38166E-01-2.61546E-13-5.46683E-13
 -1      3747 2.02575E+01 1.35066E+00 2.84510E-04-4.48642E-01-2.19186E-13-5.13343E-13
 -1      3748 2.01969E+01 1.66069E+00-2.68027E-03-3.43260E-02 2.75393E-14-5.61601E-13
 -1      3749 2.01999E+01 1.64014E+00-4.12502E-03-1.23504E-01-3.50851E-14-5.48687E-13
 -1      3750 2.02912E+01 1.38786E+00 7.32657E-03-1.33216E-01-2.89653E-14-5.07194E-13
 -1      3751 2.02804E+01 1.42366E+00 6.18788E-03 3.14383E-04 4.28805E-14-5.28790E-13
 -1      3752 2.03569E+01 7.12494E-01 4.77513E-03-1.44576E-01-1.08721E-13-4.39404E-13
 -1      3753 2.03510E+01 5.46034E-01-2.31034E-03-7.51469E-02-7.96253E-14-4.10895E-13
 -1      3754 2.00181E+01 2.49267E-02 3.98717E-04-7.39960E-02-3.54341E-15-2.39615E-13
 -1      3755 2.00211E+01 9.94444E-03-3.54796E-04-7.10607E-02-4.99400E-15-2.51974E-13
 -1      3756 2.00137E+01 3.69113E-02 6.30330E-05-7.06817E-02-2.66632E-14-2.57041E-13
 -1      3757 2.02969E+01 8.13440E-01-3.09989E-03 3.00826E-01 2.72504E-13-3.63704E-13
 -1      3758 2.03570E+01 4.15783E-01 1.51416E-03-2.97167E-02-8.88082E-14-3.76882E-13
 -1      3759 2.03406E+01 3.05587E-01-1.57149E-03 1.85230E-02-9.84538E-14-3.79311E-13
 -1      3760 2.03680E+01 2.93189E-01 9.10449E-05 2.16753E-02-9.30131E-14-3.58297E-13
 -1      3761 2.01601E+01 5.63168E-02-6.46296E-04-1.35066E-01 9.18200E-14-2.20813E-13
 -1      3762 2.01814E+01 1.03505E-01 1.88966E-03-1.11203E-01 1.22062E-13-2.07354E-13
 -1      3763 2.02081E+01 5.24743E-02-7.43382E-04-1.26691E-01 9.77473E-14-2.09923E-13
 -1      3764 2.04852E+01-2.36467E+00 1.61154E-02 2.51306E+00 6.06338E-14-4.17837E-13
 -1      3765 1.99619E+01-2.62070E+00-1.32015E-02 3.03248E+00 1.49906E-13-4.22769E-13
 -1      3766 1.88863E+01-1.89969E+00 1.67467E-02 3.06871E+00 1.40917E-13-4.83185E-13
 -1      3767 1.99617E+01-1.74392E+00 2.54172E-02 2.43871E+00 1.46198E-13-4.13474E-13
 -1      3768 2.03224E+01 1.03824E+00-4.19402E-03 2.19375E-01 1.87044E-13-3.79814E-13
 -1      3769 2.03230E+01 1.10574E+00-1.16905E-03 1.74022E-01 1.37739E-13-4.02135E-13
 -1      3770 2.02090E+01-2.51841E-02-1.75721E-04-1.34337E-01 7.00308E-14-2.12647E-13
 -1      3771 2.02281E+01 4.28338E-03 9.34904E-04-1.27584E-01 6.36972E-14-2.38420E-13
 -1      3772 2.00298E+01 4.38616E-03-4.69645E-05-6.55018E-02 1.10316E-14-2.37475E-13
 -1      3773 2.03716E+01 9.40448E-01 5.68907E-03 1.13939E-01 1.32581E-13-3.87841E-13
 -1      3774 2.03211E+01 1.14496E+00-3.41417E-03 1.34313E-01 1.26116E-13-4.39822E-13
 -1      3775 2.03192E+01 1.18084E+00-1.97051E-03 7.73629E-02 7.61154E-14-4.77742E-13
 -1      3776 2.00780E+01-7.28575E-02-2.69436E-05-9.49967E-02 3.18391E-15-1.16685E-13
 -1      3777 2.01048E+01-8.15946E-02-4.01740E-04-8.93801E-02 2.08302E-14-1.36305E-13
 -1      3778 2.00713E+01-6.58924E-02 3.96781E-04-8.86465E-02-1.29833E-14-1.92369E-13
 -1      3779 2.03139E+01 9.64652E-01 3.87762E-04 2.76347E-01 2.35806E-13-3.89659E-13
 -1      3780 2.01111E+01-7.32069E-02-5.48562E-04-1.43296E-01 3.31118E-14-1.73582E-13
 -1      3781 2.02461E+01 1.61285E-01-6.69131E-04-7.88012E-02 1.07632E-13-2.48937E-13
 -1      3782 1.86482E+01-2.07132E+00 4.70469E-02-3.35863E+00-1.48895E-13-9.07746E-14
 -1      3783 1.71519E+01-1.45103E+00-1.03171E-02-3.29975E+00-1.73259E-13-2.59581E-13
 -1      3784 2.00553E+01-4.88448E-02 3.98019E-04-7.83829E-02-5.35999E-14-1.93305E-13
 -1      3785 2.00604E+01-5.80409E-02-1.11465E-04-8.32763E-02-2.38532E-14-1.78780E-13
 -1      3786 2.00821E+01-6.70466E-02-3.17958E-04-7.86798E-02-2.44196E-14-8.87178E-14
 -1      3787 1.31753E+01-1.39212E-02 1.97440E-02-1.71340E+00-1.36087E-14-3.38649E-13
 -1      3788 1.52690E+01-1.31466E+00 2.34385E-02-3.52809E+00-4.45928E-14-5.41067E-13
 -1      3789 1.65193E+01-1.44852E+00 3.83979E-02-3.38941E+00-6.50521E-14-4.28206E-13
 -1      3790 1.61505E+01-6.23554E-01 3.51687E-02-2.86739E+00-1.77037E-13-3.97404E-13
 -1      3791 1.43949E+01-6.60524E-01 9.08802E-03-2.91227E+00-6.26777E-14-5.39395E-13
 -1      3792 1.30701E+01 4.36021E-01 8.40740E-02 1.08240E+00 4.92427E-14-3.24466E-13
 -1      3793 1.34978E+01 5.29865E-01-3.15676E-03 1.98292E-01 1.33006E-13-2.89645E-13
 -1      3794 1.39268E+01 1.54394E-01 7.38064E-04 1.73068E+00 1.88806E-13-1.57815E-13
 -1      3795 1.60836E+01-1.14913E+00 4.26106E-02 3.41566E+00 3.04707E-13-3.00307E-14
 -1      3796 1.53532E+01-5.92429E-01-8.91871E-03 2.85045E+00 3.26810E-13 2.62568E-14
 -1      3797 1.74464E+01-1.37209E+00 1.92316E-02 3.19125E+00 2.98609E-13-2.80189E-13
 -1      3798 2.03733E+01 5.31731E-01-6.20287E-04-5.38336E-02-6.23999E-14-3.83950E-13
 -1      3799 2.01140E+01-8.40258E-02 3.41807E-04-1.15068E-01 5.22168E-14-1.77926E-13
 -1      3800 2.01249E+01-8.36357E-02 2.19114E-04-1.21641E-01 4.53722E-14-1.86051E-13
 -1      3801 2.01316E+01-8.93262E-02-4.85761E-04-1.01154E-01 3.53553E-14-1.67765E-13
 -1      3802 2.03358E+01 9.87098E-01-2.50311E-03-1.53930E-01-5.97076E-14-4.64328E-13
 -1      3803 2.03347E+01 8.76059E-01-2.77625E-03-2.17883E-01-1.30462E-13-4.68165E-13
 -1      3804 2.03126E+01 3.13153E-01-1.76531E-03-1.20753E-02 1.23423E-13-2.81192E-13
 -1      3805 2.03332E+01 4.18814E-01 5.81756E-04 4.67483E-02 1.74051E-13-2.83734E-13
 -1      3806 2.03382E+01 1.06629E+00-2.31665E-03-7.40162E-02 3.87087E-15-4.62372E-13
 -1      3807 2.03366E+01 1.02689E+00-5.20723E-03-1.28153E-01-5.07697E-14-4.57265E-13
 -1      3808 2.03962E+01 7.27544E-01 6.10289E-03-8.56282E-02-3.72307E-14-4.28035E-13
 -1      3809 2.01735E+01-6.28465E-02 8.28169E-05-1.35299E-01 5.29561E-14-2.44372E-13
 -1      3810 2.01898E+01-4.67341E-02 6.39160E-04-1.35684E-01 7.67694E-14-2.38989E-13
 -1      3811 2.02374E+01-3.35221E-02-5.38880E-04-1.18890E-01 8.14323E-14-2.98407E-13
 -1      3812 1.89890E+01-1.38004E+00-1.97791E-02 2.58987E+00 1.97679E-13-4.88174E-13
 -1      3813 2.00627E+01-4.74394E-02-2.34195E-04-7.04172E-02-2.90896E-14-1.63869E-13
 -1      3814 2.03668E+01 6.33318E-01-3.35669E-04 8.74843E-02 1.39365E-13-2.99324E-13
 -1      3815 2.03432E+01 6.50254E-01-6.42009E-04 1.14304E-01 1.79140E-13-3.23815E-13
 -1      3816 2.03473E+01 8.22164E-01 4.11514E-03 1.97141E-01 1.95268E-13-3.50797E-13
 -1      3817 2.03856E+01 4.87303E-01 1.78245E-03 3.19390E-02 1.34350E-13-3.11532E-13
 -1      3818 2.03809E+01 7.07202E-01-3.49987E-03 8.77836E-02 1.40262E-13-3.42149E-13
 -1      3819 2.02777E+01 3.29944E-02-5.21446E-04-1.06243E-01 7.64171E-14-2.60026E-13
 -1      3820 2.02465E+01 4.14634E-02-5.29305E-04-1.18762E-01 6.85863E-14-2.31913E-13
 -1      3821 2.02677E+01 8.98036E-02 1.25189E-03-1.00840E-01 8.13149E-14-2.58049E-13
 -1      3822 2.00491E+01-1.75388E-02 3.22414E-04-5.66081E-02 3.39933E-14-1.47524E-13
 -1      3823 2.00570E+01-3.13925E-02-1.49549E-04-5.76311E-02-1.94283E-14-1.25179E-13
 -1      3824 2.03394E+01 5.04100E-02 6.61587E-04 7.09636E-02-6.63772E-14-3.87536E-13
 -1      3825 2.03175E+01 6.00460E-03-2.86950E-04 8.02254E-02-5.39002E-14-3.83572E-13
 -1      3826 2.02964E+01-2.79313E-02 5.26650E-04 8.26459E-02-3.75604E-14-3.84677E-13
 -1      3827 2.02745E+01-5.39288E-02-1.14674E-05 8.55720E-02-4.82759E-14-3.32594E-13
 -1      3828 2.03282E+01-5.98258E-03-3.23497E-04 6.25228E-02-3.28096E-14-3.48559E-13
 -1      3829 2.02521E+01-7.24736E-02 3.98871E-04 8.45614E-02-5.37502E-14-2.68749E-13
 -1      3830 2.02316E+01-8.53837E-02 1.69450E-04 8.35334E-02-4.37257E-14-2.43856E-13
 -1      3831 2.02831E+01-6.28270E-02-5.15848E-04 6.59949E-02-4.69314E-15-2.66936E-13
 -1      3832 2.02099E+01-9.31099E-02 2.97120E-04 8.05267E-02-4.23335E-14-2.22866E-13
 -1      3833 2.01914E+01-9.68056E-02 2.79608E-04 7.73240E-02-1.60571E-14-2.16145E-13
 -1      3834 2.02383E+01-9.15162E-02-5.60414E-04 6.41117E-02-3.72562E-14-1.68459E-13
 -1      3835 2.01715E+01-9.71251E-02 2.05836E-04 7.35229E-02 1.79868E-15-2.66024E-13
 -1      3836 2.01555E+01-9.45786E-02 3.25464E-04 6.93834E-02 2.91624E-14-2.38967E-13
 -1      3837 2.01966E+01-1.00517E-01-5.37594E-04 5.92037E-02-9.38265E-15-2.19663E-13
 -1      3838 2.01376E+01-8.97341E-02 1.15023E-04 6.54254E-02 6.56340E-15-2.97958E-13
 -1      3839 2.01238E+01-8.27808E-02 3.39759E-04 6.13213E-02-3.18071E-14-3.03088E-13
 -1      3840 2.01592E+01-9.60841E-02-4.87664E-04 5.31753E-02-2.30536E-14-2.60535E-13
 -1      3841 2.01079E+01-7.42919E-02 3.30399E-05 5.78536E-02-4.28645E-14-2.83443E-13
 -1      3842 2.00961E+01-6.41611E-02 3.28407E-04 5.44826E-02-1.85551E-14-2.51960E-13
 -1      3843 2.01260E+01-8.20737E-02-4.11285E-04 4.71557E-02-4.03366E-14-3.75477E-13
 -1      3844 2.00819E+01-5.29382E-02-4.74912E-05 5.19159E-02-3.97311E-14-2.51023E-13
 -1      3845 2.00716E+01-4.02859E-02 3.03714E-04 4.98021E-02-5.55340E-14-2.59339E-13
 -1      3846 2.00968E+01-6.11483E-02-3.10000E-04 4.22528E-02-1.44383E-14-2.63815E-13
 -1      3847 2.00584E+01-2.67406E-02-1.34105E-04 4.84606E-02-5.41264E-14-2.74663E-13
 -1      3848 2.00489E+01-1.17826E-02 2.72473E-04 4.80377E-02-1.14858E-13-2.49832E-13
 -1      3849 2.00705E+01-3.47591E-02-1.95001E-04 3.91541E-02-8.71122E-14-2.11947E-13
 -1      3850 2.00360E+01 4.04054E-03-2.31002E-04 4.82185E-02-7.65452E-14-1.30874E-13
 -1      3851 2.00266E+01 2.14090E-02 2.38618E-04 4.98849E-02-1.18489E-14-8.57127E-14
 -1      3852 2.00456E+01-3.39901E-03-6.66480E-05 3.84685E-02-3.16157E-14-1.63939E-13
 -1      3853 2.00129E+01 3.97323E-02-3.43603E-04 5.18899E-02-1.00742E-15-4.64935E-14
 -1      3854 2.00028E+01 5.98424E-02 2.04303E-04 5.60515E-02 8.17622E-15 2.71514E-14
 -1      3855 2.00204E+01 3.31166E-02 7.75827E-05 4.07691E-02 2.43221E-14-7.98700E-14
 -1      3856 1.99872E+01 8.10641E-02-4.77446E-04 6.02180E-02 9.38693E-15 3.69348E-14
 -1      3857 1.99753E+01 1.04382E-01 1.70519E-04 6.73195E-02 4.45819E-14 4.22241E-14
 -1      3858 1.99928E+01 7.54532E-02 2.41843E-04 4.66553E-02 1.25980E-14-2.82500E-14
 -1      3859 1.99564E+01 1.28984E-01-6.37998E-04 7.40468E-02 7.28547E-14 9.79635E-14
 -1      3860 1.99417E+01 1.56013E-01 1.37746E-04 8.45940E-02 1.27168E-13 1.03931E-13
 -1      3861 1.99604E+01 1.24565E-01 4.31360E-04 5.68057E-02 8.84264E-14 4.80435E-14
 -1      3862 1.99181E+01 1.84454E-01-8.30553E-04 9.43651E-02 2.89916E-14 1.15560E-13
 -1      3863 1.98992E+01 2.15618E-01 1.06735E-04 1.08940E-01-2.22905E-14 5.60241E-14
 -1      3864 1.99204E+01 1.81492E-01 6.51807E-04 7.20241E-02 6.80314E-14 7.32406E-14
 -1      3865 1.98691E+01 2.48207E-01-1.06021E-03 1.22343E-01-5.23058E-14-1.56288E-14
 -1      3866 1.98448E+01 2.83703E-01 7.96033E-05 1.41613E-01-9.18882E-14-6.16731E-16
 -1      3867 1.98696E+01 2.47116E-01 9.08598E-04 9.32818E-02-4.64611E-14 2.25810E-14
 -1      3868 1.98062E+01 3.20426E-01-1.33210E-03 1.59366E-01-6.27771E-14-1.51619E-14
 -1      3869 1.97749E+01 3.60038E-01 6.14699E-05 1.84096E-01-6.54201E-14-6.29300E-14
 -1      3870 1.98044E+01 3.21870E-01 1.20610E-03 1.21765E-01-9.08402E-14-7.07532E-14
 -1      3871 1.97259E+01 4.00345E-01-1.65208E-03 2.07087E-01-9.10110E-14 1.07003E-14
 -1      3872 1.96861E+01 4.43198E-01 6.30081E-05 2.38161E-01 1.95896E-15-2.59354E-14
 -1      3873 1.97209E+01 4.05356E-01 1.54684E-03 1.58939E-01-5.74214E-14-5.29386E-14
 -1      3874 1.96242E+01 4.85719E-01-2.02846E-03 2.67504E-01-6.50116E-14-9.13829E-14
 -1      3875 1.95747E+01 5.29974E-01 1.04479E-04 3.05977E-01-1.46049E-13-1.71633E-13
 -1      3876 1.96148E+01 4.95876E-01 1.93082E-03 2.06654E-01-1.10704E-13-1.79949E-13
 -1      3877 1.94978E+01 5.72174E-01-2.47531E-03 3.43131E-01-1.88966E-13-2.34632E-13
 -1      3878 1.94375E+01 6.14657E-01 2.22118E-04 3.90337E-01-1.20560E-13-2.42804E-13
 -1      3879 1.94818E+01 5.89846E-01 2.35524E-03 2.67327E-01-2.05579E-13-3.29765E-13
 -1      3880 1.93432E+01 6.52403E-01-3.01810E-03 4.37304E-01-4.30515E-14-2.36374E-13
 -1      3881 1.92720E+01 6.88166E-01 4.78261E-04 4.95077E-01-3.23831E-14-3.02097E-13
 -1      3882 1.93173E+01 6.81119E-01 2.81478E-03 3.44266E-01-1.39896E-13-1.76589E-13
 -1      3883 1.91580E+01 7.15230E-01-3.70222E-03 5.54753E-01 6.94357E-14-3.21744E-13
 -1      3884 1.90771E+01 7.37052E-01 9.77572E-04 6.25816E-01 1.97084E-13-2.31429E-13
 -1      3885 1.91172E+01 7.60211E-01 3.30225E-03 4.42241E-01 4.62539E-14-2.20771E-13
 -1      3886 1.89414E+01 7.44518E-01-4.60329E-03 7.02604E-01 1.15866E-13-2.84995E-13
 -1      3887 1.88544E+01 7.42318E-01 1.89319E-03 7.91199E-01-2.18011E-14-2.10237E-13
 -1      3888 1.88777E+01 8.13466E-01 3.80681E-03 5.68467E-01 1.61469E-13-2.62181E-13
 -1      3889 1.86952E+01 7.17859E-01-5.83027E-03 8.92027E-01-1.82234E-13-2.21362E-13
 -1      3890 1.86095E+01 6.77896E-01 3.49446E-03 1.00482E+00-1.81835E-13-2.58784E-13
 -1      3891 1.85956E+01 8.22091E-01 4.29754E-03 7.34281E-01-1.07738E-13-1.38570E-13
 -1      3892 1.84258E+01 6.04764E-01-7.47453E-03 1.14065E+00-1.06755E-13-1.63672E-13
 -1      3893 1.83558E+01 5.08359E-01 6.18102E-03 1.28774E+00-1.13863E-13-1.66171E-13
 -1      3894 1.82689E+01 7.60631E-01 4.64716E-03 9.57896E-01-5.56374E-14-1.78408E-13
 -1      3895 1.81492E+01 3.64628E-01-9.14452E-03 1.47530E+00-1.40372E-13-1.81311E-13
 -1      3896 1.81204E+01 1.85535E-01 1.07935E-02 1.67136E+00-4.25024E-15-2.68156E-13
 -1      3897 1.78980E+01 5.93879E-01 4.41379E-03 1.26785E+00-1.25474E-13-8.83200E-14
 -1      3898 1.79006E+01-5.16889E-02-6.62315E-03 1.93745E+00 1.15806E-13-3.42996E-13
 -1      3899 1.79333E+01-3.69887E-01 1.21258E-02 2.20454E+00 1.47586E-13-3.80363E-13
 -1      3900 1.74857E+01 2.65883E-01 3.49773E-04 1.70584E+00-5.00157E-14-4.62297E-14
 -1      3901 1.99212E+01 1.96951E-01 1.57401E-04-1.18772E-01 4.41640E-14-1.39987E-13
 -1      3902 1.99367E+01 1.66848E-01-8.09766E-04-1.03627E-01 6.82698E-14-1.48019E-13
 -1      3903 1.99577E+01 1.39646E-01 2.02097E-04-9.32592E-02 5.45430E-14-1.91041E-13
 -1      3904 1.99695E+01 1.13954E-01-6.26999E-04-8.23357E-02 8.93900E-14-2.56790E-13
 -1      3905 1.99369E+01 1.64872E-01 5.91099E-04-8.34855E-02 3.58593E-14-1.89401E-13
 -1      3906 1.99862E+01 9.07591E-02 2.37044E-04-7.51894E-02 7.57489E-14-2.36352E-13
 -1      3907 1.99956E+01 6.88350E-02-4.75115E-04-6.79583E-02 6.49094E-14-1.98599E-13
 -1      3908 1.99722E+01 1.10421E-01 3.73670E-04-6.70145E-02 8.87534E-14-2.64116E-13
 -1      3909 1.98732E+01 2.63840E-01 9.61232E-05-1.52706E-01 1.15662E-13-1.33640E-13
 -1      3910 1.98940E+01 2.28765E-01-1.02837E-03-1.32793E-01 1.17134E-13-1.15215E-13
 -1      3911 1.98916E+01 2.28538E-01 8.55413E-04-1.06227E-01 7.91567E-14-1.38386E-13
 -1      3912 1.98098E+01 3.41124E-01 1.00245E-05-1.96027E-01-3.16648E-14-1.82703E-13
 -1      3913 1.98378E+01 3.00729E-01-1.28760E-03-1.70814E-01 3.93560E-14-1.90063E-13
 -1      3914 1.98324E+01 3.02523E-01 1.17874E-03-1.35953E-01 6.86158E-14-1.38540E-13
 -1      3915 1.97264E+01 4.28920E-01-1.09310E-04-2.49613E-01 3.68409E-14-1.88516E-13
 -1      3916 1.97637E+01 3.83253E-01-1.59287E-03-2.18624E-01-4.02274E-15-1.40305E-13
 -1      3917 1.97549E+01 3.87466E-01 1.57502E-03-1.73304E-01 4.68377E-15-2.51316E-13
 -1      3918 1.96173E+01 5.26209E-01-2.67826E-04-3.14191E-01-1.41990E-13-1.55640E-13
 -1      3919 1.96667E+01 4.75950E-01-1.95234E-03-2.77039E-01-8.60779E-15-1.31525E-13
 -1      3920 1.96538E+01 4.83181E-01 2.06057E-03-2.18774E-01-5.56205E-14-3.16412E-15
 -1      3921 1.94762E+01 6.30242E-01-4.63969E-04-3.90341E-01-1.19828E-13-2.24735E-13
 -1      3922 1.95406E+01 5.77014E-01-2.38145E-03-3.46721E-01-1.66816E-13-1.60516E-13
 -1      3923 1.95229E+01 5.88193E-01 2.65544E-03-2.72662E-01-1.09099E-13-7.95162E-14
 -1      3924 1.92956E+01 7.35774E-01-6.79793E-04-4.78672E-01-2.67067E-13-2.91668E-13
 -1      3925 1.93784E+01 6.82538E-01-2.91197E-03-4.28244E-01-1.48232E-13-2.61404E-13
 -1      3926 1.93548E+01 6.99175E-01 3.38649E-03-3.35109E-01-1.20223E-13-1.06659E-13
 -1      3927 1.90671E+01 8.34105E-01-8.65523E-04-5.80378E-01-2.63355E-13-9.98266E-14
 -1      3928 1.91719E+01 7.85644E-01-3.60842E-03-5.22426E-01-3.16565E-13-1.70897E-13
 -1      3929 1.91409E+01 8.10272E-01 4.29385E-03-4.06347E-01-3.40031E-13-1.00360E-13
 -1      3930 1.87814E+01 9.11914E-01-9.09522E-04-6.98490E-01-3.51206E-14 3.21142E-14
 -1      3931 1.89113E+01 8.75405E-01-4.59562E-03-6.31176E-01-1.55149E-13-1.64094E-14
 -1      3932 1.88707E+01 9.12383E-01 5.44466E-03-4.87367E-01-2.52202E-13-1.22459E-13
 -1      3933 1.84276E+01 9.49792E-01-5.65693E-04-8.40359E-01 1.17825E-13 1.16768E-13
 -1      3934 1.85851E+01 9.35524E-01-6.09553E-03-7.59304E-01 3.99205E-14 5.73842E-14
 -1      3935 1.85310E+01 9.92431E-01 6.96208E-03-5.81381E-01-1.05937E-14-1.33393E-14
 -1      3936 1.79938E+01 9.19737E-01 4.89862E-04-1.02217E+00-6.45346E-14 1.89225E-14
 -1      3937 1.81792E+01 9.42524E-01-8.44811E-03-9.18074E-01 1.31721E-13 1.20443E-13
 -1      3938 1.81038E+01 1.03261E+00 9.06122E-03-6.96816E-01 1.17332E-13 9.72637E-14
 -1      3939 1.74690E+01 7.82680E-01 3.41134E-03-1.27452E+00 2.24629E-14-3.32998E-14
 -1      3940 1.76771E+01 8.62500E-01-1.20544E-02-1.13005E+00-9.28660E-14-8.09501E-15
 -1      3941 1.75645E+01 1.00759E+00 1.20205E-02-8.52951E-01-1.55056E-14-4.48590E-14
 -1      3942 1.68367E+01 4.76809E-01 7.41511E-03-1.65696E+00 5.85680E-14 1.69873E-14
 -1      3943 1.70567E+01 6.50090E-01-1.71365E-02-1.43896E+00 9.49263E-14-4.57224E-15
 -1      3944 1.68768E+01 8.88232E-01 1.77456E-02-1.08235E+00-1.02305E-15-8.28014E-14
 -1      3945 1.60833E+01-8.25052E-02 2.28343E-02-2.26207E+00-1.14993E-13-1.95643E-13
 -1      3946 1.63068E+01 2.47203E-01-1.44846E-02-1.91449E+00 4.34389E-14-2.72562E-14
 -1      3947 1.59781E+01 5.91215E-01 1.65713E-02-1.46594E+00 1.06036E-13-2.47786E-14
 -1      3948 2.01416E+01-8.03830E-02 2.44509E-04-1.27453E-01 2.25027E-14-2.36050E-13
 -1      3949 2.01551E+01-7.35642E-02 3.95315E-04-1.32004E-01 2.58287E-14-2.37415E-13
 -1      3950 2.01984E+01-7.06835E-02-5.58238E-04-1.19151E-01 5.18232E-14-2.62994E-13
 -1      3951 2.01629E+01-8.72087E-02-5.34812E-04-1.11940E-01 2.88018E-14-2.21188E-13
 -1      3952 2.03959E+01 3.63031E-01 1.98011E-04-5.01479E-04-7.17903E-14-3.86833E-13
 -1      3953 2.03848E+01 2.60189E-01-9.81519E-04 3.00797E-02-8.90211E-14-3.78540E-13
 -1      3954 2.03184E+01 1.19269E+00-2.97595E-03 3.17784E-02 5.41626E-14-5.08566E-13
 -1      3955 2.03187E+01 1.18848E+00-4.09933E-03-3.21896E-02 2.34544E-14-5.08069E-13
 -1      3956 2.03742E+01 9.94874E-01 5.05426E-03 4.20773E-02 6.84079E-14-4.63923E-13
 -1      3957 2.00095E+01 4.90173E-02 2.67180E-04-6.36252E-02 8.26051E-15-1.45098E-13
 -1      3958 2.00174E+01 3.02402E-02-3.48768E-04-5.95933E-02-5.79333E-15-1.56407E-13
 -1      3959 2.00007E+01 6.38953E-02 1.92627E-04-5.60858E-02 5.15207E-14-1.58792E-13
 -1      3960 2.00298E+01 1.32326E-02 2.95390E-04-5.76983E-02-4.49725E-15-1.15131E-13
 -1      3961 2.00373E+01-2.91405E-03-2.42236E-04-5.64101E-02 5.21854E-14-9.71322E-14
 -1      3962 2.00476E+01-1.01995E-02-9.40920E-05-4.80838E-02 1.29978E-14-4.31177E-14
 -1      3963 2.02830E+01 1.49031E-01-1.00448E-03-8.09595E-02 8.34783E-14-2.64136E-13
 -1      3964 2.03043E+01 2.23546E-01 1.46307E-03-4.67919E-02 1.00908E-13-2.80012E-13
 -1      3965 2.03463E+01 3.07063E-01 2.98055E-05-1.64791E-02 1.10704E-13-2.65643E-13
 -1      3966 2.03936E+01 5.94786E-01-1.06928E-03-5.89343E-02-2.56121E-14-4.15133E-13
 -1      3967 2.03966E+01 4.56373E-01-2.45522E-04-1.68164E-02-3.96189E-14-3.98073E-13
 -1      3968 2.04123E+01 4.25092E-01 4.89492E-04-7.68611E-03-3.69804E-14-3.90419E-13
 -1      3969 2.04037E+01 6.41167E-01 5.09359E-04-4.87152E-02-2.04015E-14-4.19591E-13
 -1      3970 1.86487E+01-1.36834E+00 1.43103E-02 2.75282E+00 1.76051E-13-5.36916E-13
 -1      3971 1.79533E+01-1.41587E+00-6.00549E-03 3.06491E+00 1.90897E-13-5.21504E-13
 -1      3972 1.72202E+01-8.44728E-01 8.29290E-03 2.81444E+00 2.13299E-13-2.96849E-13
 -1      3973 1.82206E+01-8.33834E-01 1.55644E-02 2.53596E+00 2.12698E-13-5.93642E-13
 -1      3974 2.03758E+01 1.74999E-01 7.12013E-04 4.50559E-02-9.32699E-14-3.87950E-13
 -1      3975 2.03566E+01 1.05404E-01-6.99084E-04 6.32643E-02-8.98726E-14-3.79386E-13
 -1      3976 2.04002E+01 2.37654E-01 7.89959E-05 2.66730E-02-8.80518E-14-3.62004E-13
 -1      3977 2.00692E+01-4.38505E-02 3.46612E-04-5.95905E-02-2.24336E-14-1.16136E-13
 -1      3978 2.00781E+01-5.54945E-02-6.47165E-05-6.24842E-02-2.06328E-14-7.11625E-14
 -1      3979 2.00704E+01-3.94833E-02-2.12155E-04-4.97038E-02-2.51539E-14-5.93743E-14
 -1      3980 2.03161E+01 1.41587E-01-2.92606E-04-7.46194E-02 8.42775E-14-3.09899E-13
 -1      3981 2.03706E+01 2.60105E-01-6.86024E-04-3.40999E-02 1.04198E-13-3.23041E-13
 -1      3982 2.03857E+01 3.58704E-01 9.91223E-05 3.72118E-03 1.28525E-13-3.05225E-13
 -1      3983 2.04038E+01 4.30031E-01-9.20538E-04 1.09907E-02 1.20549E-13-3.27921E-13
 -1      3984 1.74473E+01-4.05031E-01-1.28994E-02 2.34568E+00 1.01187E-13-4.36606E-13
 -1      3985 2.03876E+01 7.51615E-01-1.88983E-03 6.19403E-02 1.06806E-13-3.84261E-13
 -1      3986 1.38740E+01 2.89979E-01-1.62043E-02-1.35734E+00 4.84560E-14-2.91633E-13
 -1      3987 1.42458E+01-1.80560E-01 6.93136E-02-2.42420E+00-6.10428E-14-3.62859E-13
 -1      3988 2.00915E+01-6.57135E-02 3.63122E-04-6.58587E-02-3.84197E-14-4.58790E-14
 -1      3989 2.01019E+01-7.48919E-02 1.78998E-05-7.01249E-02-3.11563E-14-4.76441E-14
 -1      3990 2.00950E+01-6.39461E-02-3.17852E-04-5.41993E-02-1.18899E-14-1.00661E-13
 -1      3991 1.50669E+01-2.81427E-01 5.02830E-03-2.47215E+00-3.52125E-14-4.11329E-13
 -1      3992 2.03879E+01 8.89535E-01 4.05160E-03-3.63314E-02 1.02402E-14-4.46656E-13
 -1      3993 2.01170E+01-8.24035E-02 3.63746E-04-7.45018E-02-3.06148E-14-8.40165E-14
 -1      3994 2.01295E+01-8.84372E-02 1.32570E-04-7.95153E-02 4.14087E-16-1.43424E-13
 -1      3995 2.01226E+01-8.29891E-02-4.12576E-04-6.08373E-02-6.06815E-14-1.10456E-13
 -1      3996 1.60829E+01-2.83296E-01 7.28551E-03 2.44391E+00 3.69617E-13 2.19239E-13
 -1      3997 1.49456E+01 1.99732E-02 4.51728E-02 2.25154E+00 2.46815E-13 1.48985E-13
 -1      3998 1.47290E+01 3.77217E-01-9.97831E-03 1.46961E+00 2.21912E-13-8.16621E-14
 -1      3999 1.57781E+01-3.13313E-01-9.68048E-03-2.46136E+00-1.32176E-13-3.10626E-13
 -1      4000 1.43531E+01 6.70423E-01-2.26087E-02 2.16925E-01 2.07423E-13-3.66561E-13
 -1      4001 1.42038E+01 7.38963E-01 6.76777E-02-4.85417E-01 2.31880E-13-3.25553E-13
 -1      4002 2.01537E+01-9.50808E-02-6.51150E-04-6.88140E-02-2.59485E-14-2.10870E-13
 -1      4003 2.01464E+01-9.22459E-02 3.32773E-04-8.42341E-02 5.84161E-15-2.07251E-13
 -1      4004 2.01616E+01-9.38364E-02 3.43385E-04-8.89435E-02-3.89861E-15-2.05138E-13
 -1      4005 2.02594E+01-4.54071E-02-8.47568E-05-1.02344E-01 8.25496E-14-2.86639E-13
 -1      4006 2.02807E+01-1.80674E-02 6.52265E-04-9.84871E-02 7.62309E-14-2.84219E-13
 -1      4007 2.00250E+01 2.40367E-02 3.90922E-05-4.99971E-02 3.58686E-14 2.75627E-14
 -1      4008 2.03696E+01 8.96373E-02-5.31906E-05 5.05367E-02-8.19393E-14-3.80455E-13
 -1      4009 1.47511E+01 5.16534E-01 3.78955E-04-1.17915E+00 1.51868E-13-1.69528E-13
 -1      4010 2.03008E+01 1.73642E-02-3.55105E-04-9.43750E-02 8.20970E-14-2.89059E-13
 -1      4011 2.03225E+01 6.29561E-02 6.52097E-04-8.26495E-02 7.81841E-14-2.76319E-13
 -1      4012 2.03176E+01 5.95106E-03-3.86372E-04-7.82366E-02 6.90151E-14-2.87361E-13
 -1      4013 2.03094E+01-5.25997E-02 3.15797E-04 4.47921E-02 3.45288E-14-2.53220E-13
 -1      4014 2.02867E+01-7.33805E-02 3.06693E-04 4.65675E-02 1.55208E-14-2.16921E-13
 -1      4015 2.02629E+01-8.81234E-02 2.86495E-04 4.45119E-02-4.64038E-14-1.78388E-13
 -1      4016 2.02407E+01-9.69825E-02 2.32362E-04 4.39048E-02-6.43613E-14-1.97873E-13
 -1      4017 2.02834E+01-8.16244E-02-8.49486E-04 2.53159E-02 5.06461E-15-1.89890E-13
 -1      4018 2.02184E+01-1.01386E-01 2.93680E-04 4.22651E-02-4.42002E-14-2.20642E-13
 -1      4019 2.01988E+01-1.02171E-01 4.47366E-04 4.06509E-02-4.49415E-14-2.76565E-13
 -1      4020 2.02361E+01-1.00659E-01-7.84672E-04 2.41659E-02-8.16795E-14-1.88149E-13
 -1      4021 2.01780E+01-1.00111E-01 2.01732E-04 3.79549E-02-7.41224E-14-2.86778E-13
 -1      4022 2.01604E+01-9.49787E-02 3.72719E-04 3.59227E-02-7.56384E-14-3.71004E-13
 -1      4023 2.01949E+01-1.04344E-01-8.69183E-04 2.14562E-02-6.64295E-14-3.15020E-13
 -1      4024 2.01420E+01-8.78457E-02 1.86140E-04 3.37832E-02-3.13038E-14-3.62811E-13
 -1      4025 2.01264E+01-7.86958E-02 3.43134E-04 3.18968E-02-1.23913E-14-3.19621E-13
 -1      4026 2.01559E+01-9.43459E-02-8.76661E-04 1.92792E-02-3.75719E-14-3.43849E-13
 -1      4027 2.01099E+01-6.81545E-02 1.02009E-04 3.01483E-02-6.82430E-15-3.47033E-13
 -1      4028 2.00962E+01-5.59322E-02 2.94278E-04 2.87829E-02-3.46240E-16-2.90771E-13
 -1      4029 2.01220E+01-7.58471E-02-7.00740E-04 1.73134E-02 4.51101E-15-3.77896E-13
 -1      4030 2.00811E+01-4.26243E-02 1.24636E-05 2.75984E-02-1.37684E-14-2.50859E-13
 -1      4031 2.00685E+01-2.77888E-02 2.39731E-04 2.70742E-02-4.59748E-14-1.74645E-13
 -1      4032 2.00915E+01-5.07918E-02-4.81434E-04 1.58438E-02 1.01931E-14-4.03215E-13
 -1      4033 2.00541E+01-1.19701E-02-8.94264E-05 2.65923E-02-1.52882E-14-1.67061E-13
 -1      4034 2.00418E+01 5.42769E-03 1.81378E-04 2.71930E-02 2.19075E-14-1.21588E-13
 -1      4035 2.00632E+01-2.01947E-02-2.34272E-04 1.52061E-02 1.15581E-14-3.21403E-13
 -1      4036 2.00271E+01 2.38474E-02-2.07877E-04 2.75513E-02 2.40341E-14-7.40463E-14
 -1      4037 2.00143E+01 4.40558E-02 1.19766E-04 2.95486E-02 4.08007E-14-5.29628E-14
 -1      4038 2.00354E+01 1.57904E-02 4.32552E-05 1.56667E-02 3.27800E-14-1.69442E-13
 -1      4039 1.99979E+01 6.54141E-02-3.47819E-04 3.09090E-02 9.46092E-15 1.29786E-14
 -1      4040 1.99834E+01 8.88839E-02 5.42913E-05 3.45890E-02 3.38434E-14 1.60441E-14
 -1      4041 2.00060E+01 5.76421E-02 3.60000E-04 1.74967E-02 7.84002E-14-6.10815E-14
 -1      4042 1.99642E+01 1.13670E-01-5.15108E-04 3.71580E-02 7.24037E-14 4.57945E-14
 -1      4043 1.99467E+01 1.40958E-01-1.62089E-05 4.28432E-02 9.80959E-14 3.32717E-14
 -1      4044 1.99725E+01 1.06267E-01 7.28507E-04 2.10115E-02 7.14332E-14-4.45627E-16
 -1      4045 1.99229E+01 1.69711E-01-7.16502E-04 4.68925E-02 8.65971E-14-1.62847E-14
 -1      4046 1.99010E+01 2.01374E-01-9.27760E-05 5.49611E-02 5.67735E-14-7.59689E-14
 -1      4047 1.99320E+01 1.62799E-01 1.16393E-03 2.66068E-02 5.28230E-14-7.67343E-14
 -1      4048 1.98708E+01 2.34566E-01-9.59753E-04 6.08517E-02-1.73538E-14-1.19596E-13
 -1      4049 1.98427E+01 2.71031E-01-1.75499E-04 7.17575E-02-1.25734E-13-1.00900E-13
 -1      4050 1.98811E+01 2.28383E-01 1.68339E-03 3.47991E-02-3.76829E-14-2.23432E-13
 -1      4051 1.98040E+01 3.08924E-01-1.25402E-03 7.99705E-02-1.31445E-13-4.77485E-14
 -1      4052 1.97680E+01 3.50331E-01-2.62422E-04 9.42682E-02-7.04518E-14-1.00713E-13
 -1      4053 1.98160E+01 3.03920E-01 2.30565E-03 4.62779E-02-9.40710E-14-1.25704E-13
 -1      4054 1.97184E+01 3.92791E-01-1.61087E-03 1.05448E-01-1.40104E-14-1.10568E-13
 -1      4055 1.96723E+01 4.38795E-01-3.48050E-04 1.23832E-01-8.27673E-15-4.88882E-14
 -1      4056 1.97324E+01 3.89749E-01 3.05166E-03 6.19784E-02-6.56326E-14-7.30371E-14
 -1      4057 1.96091E+01 4.85065E-01-2.04655E-03 1.38851E-01-9.99026E-14-1.97931E-13
 -1      4058 1.95509E+01 5.34590E-01-4.21244E-04 1.62219E-01-1.88813E-13-2.02621E-13
 -1      4059 1.96252E+01 4.85268E-01 3.94655E-03 8.31874E-02-1.25434E-13-9.31431E-14
 -1      4060 1.94711E+01 5.83015E-01-2.58628E-03 1.82273E-01-2.63948E-13-2.23374E-13
 -1      4061 1.93986E+01 6.33976E-01-4.62260E-04 2.11845E-01-2.38495E-13-2.30951E-13
 -1      4062 1.94891E+01 5.88480E-01 5.02477E-03 1.11703E-01-1.89034E-13-1.97460E-13
 -1      4063 1.92987E+01 6.81678E-01-3.27246E-03 2.38603E-01-1.73021E-13-2.65865E-13
 -1      4064 1.92101E+01 7.30671E-01-4.38543E-04 2.76120E-01-1.30459E-13-2.43881E-13
 -1      4065 1.93179E+01 6.95486E-01 6.34077E-03 1.50080E-01-1.92577E-13-2.39150E-13
 -1      4066 1.90859E+01 7.73198E-01-4.17939E-03 3.11971E-01-9.50666E-14-1.91947E-13
 -1      4067 1.89794E+01 8.15199E-01-2.99179E-04 3.60043E-01 1.05432E-13-1.96780E-13
 -1      4068 1.91048E+01 7.99973E-01 7.98842E-03 2.02015E-01-3.33869E-14-2.87317E-13
 -1      4069 1.88260E+01 8.46166E-01-5.43967E-03 4.08488E-01 1.65063E-13-2.72049E-13
 -1      4070 1.87003E+01 8.74258E-01 3.11902E-05 4.71184E-01 1.93866E-14-3.29522E-13
 -1      4071 1.88417E+01 8.92774E-01 1.01316E-02 2.72954E-01 4.25479E-14-2.83098E-13
 -1      4072 1.85109E+01 8.85001E-01-7.28988E-03 5.37495E-01-8.94763E-14-2.41535E-13
 -1      4073 1.83654E+01 8.90135E-01 6.61222E-04 6.21347E-01-1.21225E-13-1.99906E-13
 -1      4074 1.85188E+01 9.61572E-01 1.30353E-02 3.71053E-01-1.22183E-14-3.83109E-13
 -1      4075 1.81299E+01 8.69428E-01-1.01214E-02 7.13763E-01-1.05261E-13-2.22223E-13
 -1      4076 1.79657E+01 8.40002E-01 1.86555E-03 8.29414E-01-5.02467E-14-2.26478E-13
 -1      4077 1.81219E+01 9.90681E-01 1.70003E-02 5.08668E-01-1.19472E-13-3.71029E-13
 -1      4078 1.76680E+01 7.73534E-01-1.43543E-02 9.62016E-01-2.08450E-14-1.93648E-13
 -1      4079 1.74905E+01 6.93211E-01 4.39544E-03 1.12677E+00-8.57114E-14-1.76537E-13
 -1      4080 1.76273E+01 9.59675E-01 2.14213E-02 7.04637E-01 1.62825E-15-3.28859E-13
 -1      4081 1.71126E+01 5.74938E-01-1.45819E-02 1.32435E+00-1.11539E-13-2.84373E-14
 -1      4082 1.69227E+01 4.11864E-01 1.20595E-02 1.56790E+00 3.97403E-15-1.95111E-14
 -1      4083 1.69880E+01 8.25181E-01 1.70064E-02 9.84632E-01 2.02988E-14-2.44200E-13
 -1      4084 1.99173E+01 1.84954E-01-1.42683E-04-6.87624E-02 4.35794E-14-2.44484E-13
 -1      4085 1.99372E+01 1.54614E-01-6.09877E-04-5.98637E-02 4.28512E-14-2.51399E-13
 -1      4086 1.98640E+01 2.52692E-01-2.86111E-04-8.73638E-02 6.75877E-14-1.10558E-13
 -1      4087 1.98898E+01 2.17369E-01-8.04704E-04-7.55947E-02 4.94972E-14-1.67176E-13
 -1      4088 1.98967E+01 2.11763E-01 1.38978E-03-5.02831E-02-1.86979E-14-3.00817E-13
 -1      4089 1.68066E+01 1.11978E-01 2.24691E-03 1.96147E+00 7.65461E-14 1.04072E-13
 -1      4090 1.70277E+01-3.27893E-01 1.01021E-02 2.35629E+00 1.63126E-13-1.49068E-13
 -1      4091 1.64346E+01-3.11217E-01-2.76651E-03 2.46784E+00 2.56404E-13 1.54391E-13
 -1      4092 1.64446E+01 4.39695E-01-6.29939E-03 1.56058E+00 7.73895E-14 6.73903E-14
 -1      4093 1.99589E+01 1.26861E-01-2.72043E-05-5.49504E-02 5.50041E-14-2.29778E-13
 -1      4094 1.99745E+01 1.00895E-01-4.46643E-04-4.86432E-02 1.00266E-13-2.24935E-13
 -1      4095 1.99438E+01 1.48378E-01 9.18672E-04-4.03583E-02 2.21597E-14-2.86968E-13
 -1      4096 1.97043E+01 4.20419E-01-7.00890E-04-1.40426E-01-7.82516E-14-1.20656E-13
 -1      4097 1.97488E+01 3.74143E-01-1.31038E-03-1.22310E-01-1.01221E-14-2.03554E-13
 -1      4098 1.95872E+01 5.20236E-01-9.99928E-04-1.75200E-01-1.11818E-13-1.68345E-14
 -1      4099 1.96452E+01 4.68861E-01-1.63415E-03-1.53823E-01-8.68037E-14-4.23343E-14
 -1      4100 1.96560E+01 4.65986E-01 3.45400E-03-9.86719E-02-1.12323E-13 3.12608E-15
 -1      4101 1.94365E+01 6.28500E-01-1.38203E-03-2.15251E-01-1.23602E-13-8.60445E-14
 -1      4102 1.95116E+01 5.73236E-01-2.02037E-03-1.90748E-01-1.31137E-13-4.01988E-14
 -1      4103 1.95250E+01 5.72073E-01 4.44701E-03-1.20421E-01-1.23104E-13-7.29779E-15
 -1      4104 1.92443E+01 7.41231E-01-1.86648E-03-2.60081E-01-1.51643E-13-1.10669E-14
 -1      4105 1.93404E+01 6.84349E-01-2.49439E-03-2.32700E-01-9.23073E-14 1.05359E-14
 -1      4106 1.93575E+01 6.85830E-01 5.66056E-03-1.43884E-01-1.47142E-13 3.71152E-14
 -1      4107 1.90009E+01 8.51873E-01-2.47682E-03-3.09138E-01-3.27343E-13-7.69050E-14
 -1      4108 1.91230E+01 7.96993E-01-3.10818E-03-2.79071E-01-2.04978E-13 4.74124E-14
 -1      4109 1.91451E+01 8.02711E-01 7.17221E-03-1.67799E-01-1.90343E-13 9.09748E-14
 -1      4110 1.86941E+01 9.50732E-01-3.24801E-03-3.62380E-01-1.77925E-13-1.56498E-13
 -1      4111 1.88481E+01 9.03082E-01-3.96571E-03-3.29345E-01-3.06354E-13-1.72078E-13
 -1      4112 1.88773E+01 9.15742E-01 9.11671E-03-1.90579E-01-1.96283E-13-9.37707E-14
 -1      4113 1.83075E+01 1.02458E+00-4.24294E-03-4.21499E-01 8.47295E-14-9.72028E-14
 -1      4114 1.85013E+01 9.91144E-01-5.26695E-03-3.83859E-01-1.51812E-14-7.94847E-14
 -1      4115 1.85404E+01 1.01531E+00 1.17320E-02-2.10633E-01-1.19041E-13-1.63330E-13
 -1      4116 1.78171E+01 1.05652E+00-5.55809E-03-4.92371E-01 8.21986E-14 5.26669E-14
 -1      4117 1.80618E+01 1.04610E+00-7.37194E-03-4.45319E-01 1.37464E-13 2.24579E-14
 -1      4118 1.81149E+01 1.08936E+00 1.54277E-02-2.26964E-01 3.24028E-14-1.32377E-13
 -1      4119 1.71881E+01 1.02723E+00-5.87570E-03-5.89727E-01-1.12037E-14 2.03519E-14
 -1      4120 1.74967E+01 1.05027E+00-1.07270E-02-5.22325E-01 3.41977E-14 6.85210E-14
 -1      4121 1.75702E+01 1.12427E+00 2.07634E-02-2.40036E-01 7.04353E-14 9.92912E-15
 -1      4122 1.63797E+01 9.06777E-01-2.46463E-03-7.43331E-01-4.97970E-14-2.34522E-14
 -1      4123 1.67555E+01 9.68700E-01-1.86823E-02-6.41255E-01-3.20152E-14-1.00725E-14
 -1      4124 1.68419E+01 1.10526E+00 2.53660E-02-2.57618E-01-2.24308E-14 5.05251E-14
 -1      4125 1.51456E+01 3.05934E-01 4.18853E-02-1.85673E+00 8.90928E-14-6.13841E-14
 -1      4126 2.03922E+01 7.73201E-01-3.08432E-03 4.47740E-02 8.04179E-14-4.06589E-13
 -1      4127 2.03925E+01 7.88091E-01-3.02119E-03 1.35282E-02 4.38263E-14-4.55978E-13
 -1      4128 2.04203E+01 5.89459E-01 4.42959E-03 2.95003E-02 9.18569E-14-3.67805E-13
 -1      4129 2.03551E+01 1.41131E-02 4.32866E-04 4.11003E-02-3.04735E-14-2.87964E-13
 -1      4130 2.03329E+01-2.40678E-02 9.84357E-05 4.58811E-02 1.88452E-14-2.68834E-13
 -1      4131 2.03306E+01-3.69568E-02-8.48876E-04 2.43883E-02 4.52025E-14-1.96823E-13
 -1      4132 2.04185E+01 2.91684E-01 8.62414E-05 1.02679E-02-6.98476E-14-3.81516E-13
 -1      4133 2.04066E+01 1.97982E-01-9.21830E-04 2.66638E-02-1.00920E-13-3.63997E-13
 -1      4134 2.03404E+01 1.13665E-01-4.92014E-04-7.19509E-02 6.78955E-14-2.99257E-13
 -1      4135 2.03606E+01 1.82357E-01 5.20981E-04-4.94820E-02 7.24189E-14-2.99839E-13
 -1      4136 2.03909E+01 2.29880E-01-6.24288E-04-3.23098E-02 7.29777E-14-3.01803E-13
 -1      4137 2.03582E+01 9.91339E-02-1.73601E-04-6.04473E-02 7.26880E-14-3.07604E-13
 -1      4138 2.02380E+01-6.50086E-02 4.76302E-04-1.01810E-01 6.74651E-14-2.62220E-13
 -1      4139 2.02739E+01-5.44131E-02-5.23044E-04-8.37911E-02 6.47418E-14-2.58469E-13
 -1      4140 2.02185E+01-7.90226E-02 1.84762E-04-1.00813E-01 3.95852E-14-2.44574E-13
 -1      4141 2.00202E+01 3.45897E-02 1.50238E-04-3.97710E-02 8.66296E-14-7.20309E-14
 -1      4142 2.00317E+01 1.54717E-02-1.92962E-04-3.77549E-02 7.42222E-14-2.29774E-14
 -1      4143 2.00457E+01-1.98630E-03 2.21712E-04-3.74220E-02 1.86180E-14 1.40312E-14
 -1      4144 2.00568E+01-1.84220E-02-9.09229E-05-3.71047E-02 2.48128E-14-1.90062E-14
 -1      4145 2.00403E+01 7.48780E-03-1.14790E-04-2.69003E-02 8.47169E-14-1.11517E-13
 -1      4146 1.99921E+01 7.71663E-02 6.84735E-05-4.54515E-02 1.09650E-13-2.20958E-13
 -1      4147 2.00050E+01 5.49214E-02-3.09571E-04-4.14390E-02 1.14196E-13-1.49856E-13
 -1      4148 2.00125E+01 4.74845E-02 1.82168E-04-2.89459E-02 1.49274E-13-2.59318E-13
 -1      4149 1.97946E+01 3.31049E-01-4.67932E-04-1.11163E-01 5.95036E-14-1.76497E-13
 -1      4150 1.98286E+01 2.90302E-01-1.03636E-03-9.62917E-02 1.09936E-13-9.19954E-14
 -1      4151 1.98361E+01 2.85399E-01 1.95435E-03-6.33025E-02 6.75890E-14-2.15533E-13
 -1      4152 1.97576E+01 3.70101E-01 2.63398E-03-7.94812E-02-2.61947E-14-8.11174E-14
 -1      4153 2.03959E+01 1.22930E-01 8.01702E-04 2.89469E-02-9.81293E-14-3.11106E-13
 -1      4154 2.03747E+01 6.22630E-02-2.78452E-04 3.89178E-02-5.84091E-14-3.10833E-13
 -1      4155 2.03740E+01 4.48128E-02-5.67164E-05 2.19498E-02-1.46303E-14-2.72106E-13
 -1      4156 2.00707E+01-3.33435E-02 2.84153E-04-3.79265E-02-4.67944E-14-4.22973E-14
 -1      4157 2.00824E+01-4.73077E-02 2.58187E-06-3.90006E-02-6.67103E-14-5.35898E-14
 -1      4158 2.00669E+01-2.68253E-02-3.80369E-04-2.68853E-02 2.06061E-15-3.34002E-14
 -1      4159 2.03986E+01 7.82828E-01 3.40614E-06-7.99650E-03 1.85256E-14-4.63631E-13
 -1      4160 2.04074E+01 6.66138E-01-2.39664E-03-3.85237E-02-2.14347E-14-4.13151E-13
 -1      4161 2.04207E+01 5.54610E-01 1.29789E-03-1.45230E-02-3.47663E-14-4.14854E-13
 -1      4162 2.04317E+01 5.98144E-01 4.45914E-03 4.21331E-03 2.51972E-14-4.35857E-13
 -1      4163 2.00972E+01-5.97610E-02 3.36143E-04-4.07943E-02-3.40359E-14-1.12931E-13
 -1      4164 2.01101E+01-7.11400E-02 9.30926E-05-4.29216E-02-3.60903E-14-1.44683E-13
 -1      4165 2.00944E+01-5.58581E-02-6.20963E-04-2.85645E-02-8.21885E-14-8.53509E-14
 -1      4166 1.99813E+01 9.40518E-02 5.21811E-04-3.33337E-02 1.35674E-13-2.57175E-13
 -1      4167 2.02828E+01-6.57236E-02 1.39534E-04-6.51213E-02 6.10377E-14-2.50230E-13
 -1      4168 2.03060E+01-4.25551E-02 6.62598E-04-6.27377E-02 7.44703E-14-2.73364E-13
 -1      4169 1.56374E+01 7.91715E-01-1.38458E-02-8.55880E-01 8.62960E-14-1.13990E-13
 -1      4170 1.57565E+01 9.58205E-01 3.04668E-02-3.57593E-01 9.05699E-14-1.55843E-13
 -1      4171 2.04165E+01 4.47821E-01-1.03304E-03 5.63966E-03 7.77400E-14-3.53585E-13
 -1      4172 2.01806E+01-9.28617E-02 2.82846E-04-9.41023E-02 1.32235E-15-2.15422E-13
 -1      4173 2.01975E+01-8.79635E-02 2.70576E-04-9.78239E-02 1.44993E-14-2.53364E-13
 -1      4174 2.02301E+01-8.57693E-02-6.17747E-04-8.21252E-02 1.23334E-14-2.34409E-13
 -1      4175 2.01910E+01-9.81485E-02-6.81505E-04-7.67241E-02-2.72785E-14-2.62192E-13
 -1      4176 2.01264E+01-8.08374E-02 3.73222E-04-4.54872E-02-5.19087E-14-1.48699E-13
 -1      4177 2.01413E+01-8.90535E-02 1.96305E-04-4.82971E-02-5.51370E-14-1.60236E-13
 -1      4178 2.01245E+01-7.93354E-02-8.29766E-04-3.15437E-02-4.08433E-14-1.37467E-13
 -1      4179 2.04222E+01 4.55741E-01-1.13828E-03-1.20346E-02-3.50074E-14-3.93127E-13
 -1      4180 2.04223E+01 3.64975E-01 3.50467E-05 4.70672E-03-5.23185E-14-3.90787E-13
 -1      4181 2.04272E+01 3.27131E-01 6.98112E-04 3.44346E-03-5.74396E-14-4.17611E-13
 -1      4182 2.04289E+01 4.83964E-01-6.62005E-04-4.69542E-03-3.77004E-14-4.25241E-13
 -1      4183 2.01597E+01-9.54030E-02 3.89005E-04-5.13546E-02-6.83598E-14-1.67199E-13
 -1      4184 2.01778E+01-9.95394E-02 5.07584E-04-5.46963E-02-5.36980E-14-2.29773E-13
 -1      4185 2.01586E+01-9.60153E-02-9.22844E-04-3.52308E-02-7.24922E-14-1.31736E-13
 -1      4186 1.48442E+01 7.22342E-01 3.91462E-02 8.62454E-01 2.57929E-13-2.70335E-13
 -1      4187 1.51806E+01 8.08553E-01-5.56032E-03 2.42286E-01 2.20431E-13-3.09718E-13
 -1      4188 1.58672E+01 9.24179E-01-1.57976E-02 2.45958E-01 1.39535E-13-1.56031E-13
 -1      4189 2.03309E+01-2.66235E-02-8.83488E-04-4.38252E-02 5.98060E-14-2.34807E-13
 -1      4190 2.03273E+01-1.24020E-02-3.84207E-04-6.31047E-02 5.84258E-14-2.66134E-13
 -1      4191 2.03494E+01 2.93571E-02 5.08995E-04-5.66795E-02 4.61485E-14-2.85108E-13
 -1      4192 2.04104E+01 1.67154E-01-9.11128E-04 1.55549E-02-7.05491E-14-3.50287E-13
 -1      4193 1.54817E+01 4.88622E-01-2.01148E-02 1.35814E+00 2.89042E-13-1.60067E-14
 -1      4194 1.50704E+01 5.99289E-01-1.21984E-02-1.04899E+00 1.29520E-13-7.05052E-14
 -1      4195 2.02603E+01-8.19747E-02 5.40524E-04-6.28299E-02 5.21605E-14-2.24348E-13
 -1      4196 2.02851E+01-7.51521E-02-1.04031E-03-4.51332E-02 3.97496E-14-2.27597E-13
 -1      4197 2.02391E+01-9.20987E-02 4.29264E-04-6.18312E-02 6.36204E-15-2.57530E-13
 -1      4198 2.02539E+01-9.83249E-02 4.95800E-04 5.25132E-03-5.12229E-14-1.78981E-13
 -1      4199 2.02320E+01-1.03808E-01 7.41424E-04 4.38808E-03-9.68681E-14-1.98163E-13
 -1      4200 2.02005E+01-1.03430E-01 2.40765E-04-7.92004E-03-1.09466E-13-2.18223E-13
 -1      4201 2.01811E+01-1.00003E-01 6.17865E-04-7.67645E-03-6.58968E-14-2.34837E-13
 -1      4202 2.01628E+01-9.41972E-02 5.84950E-04-6.72535E-03-5.15967E-14-2.17701E-13
 -1      4203 2.01444E+01-8.66568E-02 5.34847E-04-6.93025E-03-1.53074E-14-2.29134E-13
 -1      4204 2.01280E+01-7.67084E-02 5.35767E-04-5.99827E-03-2.86080E-14-2.19820E-13
 -1      4205 2.01114E+01-6.56929E-02 4.14485E-04-6.25698E-03-3.38054E-14-2.45619E-13
 -1      4206 2.00965E+01-5.27578E-02 3.89730E-04-5.62026E-03-4.17232E-14-2.48939E-13
 -1      4207 2.00814E+01-3.88474E-02 2.71962E-04-5.72921E-03-2.05316E-14-2.65965E-13
 -1      4208 2.00674E+01-2.33348E-02 2.11683E-04-5.59593E-03 2.64678E-14-2.78868E-13
 -1      4209 2.00528E+01-6.72069E-03 1.18449E-04-5.45440E-03 3.35231E-14-2.54601E-13
 -1      4210 2.00388E+01 1.13572E-02 7.39160E-06-5.97383E-03 7.00356E-14-2.44818E-13
 -1      4211 2.00239E+01 3.08306E-02-4.91310E-05-5.49266E-03 1.05033E-13-2.03122E-13
 -1      4212 2.00087E+01 5.17566E-02-2.27028E-04-6.78871E-03 1.51057E-13-2.47201E-13
 -1      4213 1.99924E+01 7.44967E-02-2.37567E-04-5.87197E-03 1.68722E-13-1.70653E-13
 -1      4214 1.99746E+01 9.87531E-02-4.99605E-04-8.05007E-03 9.32865E-14-1.45542E-13
 -1      4215 1.99554E+01 1.25326E-01-4.55374E-04-6.58126E-03 6.15024E-14-1.57862E-13
 -1      4216 1.99335E+01 1.53501E-01-8.21135E-04-9.72364E-03 1.89154E-14-1.54568E-13
 -1      4217 1.99098E+01 1.84534E-01-7.12087E-04-7.55024E-03-1.82757E-14-2.16797E-13
 -1      4218 1.98820E+01 2.17216E-01-1.20469E-03-1.17007E-02-1.71052E-14-1.73460E-13
 -1      4219 1.98519E+01 2.53287E-01-1.01789E-03-8.61383E-03-4.53953E-14-1.60377E-13
 -1      4220 1.98160E+01 2.90944E-01-1.66559E-03-1.37509E-02 9.55831E-15-1.14792E-13
 -1      4221 1.97775E+01 3.32438E-01-1.38350E-03-9.45710E-03-1.65151E-14-6.47435E-14
 -1      4222 1.97310E+01 3.75269E-01-2.22214E-03-1.54558E-02-9.40606E-14 7.28924E-15
 -1      4223 1.96817E+01 4.22216E-01-1.82070E-03-9.53520E-03-9.31727E-14 1.01974E-14
 -1      4224 1.96216E+01 4.69956E-01-2.89755E-03-1.61172E-02-1.40645E-13 6.40058E-14
 -1      4225 1.95587E+01 5.21825E-01-2.34401E-03-7.96307E-03-1.08051E-13-1.27330E-14
 -1      4226 1.94816E+01 5.73525E-01-3.72443E-03-1.46412E-02-1.17302E-13-2.76100E-14
 -1      4227 1.94022E+01 6.28983E-01-2.97469E-03-3.36973E-03-1.68901E-13-9.85583E-15
 -1      4228 1.93041E+01 6.82753E-01-4.75373E-03-9.39711E-03-1.75308E-13-2.78087E-14
 -1      4229 1.92047E+01 7.39421E-01-3.74903E-03 6.28665E-03-1.27791E-13-7.24168E-14
 -1      4230 1.90806E+01 7.92152E-01-6.07145E-03 1.94440E-03-1.52489E-13-8.72391E-14
 -1      4231 1.89571E+01 8.46378E-01-4.73323E-03 2.39465E-02-7.17011E-14-8.70352E-14
 -1      4232 1.88006E+01 8.93506E-01-7.82748E-03 2.25899E-02-4.33301E-14-1.67526E-13
 -1      4233 1.86481E+01 9.40213E-01-6.04664E-03 5.37269E-02-6.64473E-14-2.95207E-13
 -1      4234 1.84504E+01 9.75556E-01-1.02752E-02 5.68396E-02-5.49531E-14-2.81299E-13
 -1      4235 1.82620E+01 1.00825E+00-7.87762E-03 1.01274E-01-6.93497E-14-2.93337E-13
 -1      4236 1.80104E+01 1.02407E+00-1.37628E-02 1.10467E-01-1.19641E-14-2.62985E-13
 -1      4237 1.77765E+01 1.03507E+00-1.03369E-02 1.74264E-01 2.40784E-14-2.20324E-13
 -1      4238 1.74515E+01 1.02305E+00-1.82044E-02 1.91939E-01-4.70426E-14-1.75507E-13
 -1      4239 1.71600E+01 1.00374E+00-1.22697E-02 2.84573E-01 2.48402E-14-1.67311E-13
 -1      4240 1.59872E+01 1.96345E-01 1.21181E-02 1.93393E+00 1.96166E-13 2.78736E-13
 -1      4241 1.67314E+01 9.69775E-01-1.68430E-02 3.19310E-01 3.91787E-14-1.83243E-13
 -1      4242 2.04238E+01 3.19495E-01 2.70615E-03-6.24418E-03 7.26724E-14-3.17922E-13
 -1      4243 2.04253E+01 4.51831E-01-1.50451E-03 4.01612E-03 5.73949E-14-3.41592E-13
 -1      4244 2.03912E+01 6.48781E-02 6.04462E-04 1.74314E-03-3.34254E-14-2.80100E-13
 -1      4245 2.03702E+01 1.50339E-02-1.76097E-04 5.95545E-03 2.52543E-14-2.37591E-13
 -1      4246 2.03381E+01-3.11826E-02 4.56312E-04-1.00951E-02 7.04598E-14-2.11258E-13
 -1      4247 2.03150E+01-5.88435E-02 6.94388E-04-8.22677E-03 5.72042E-14-2.06878E-13
 -1      4248 2.02915E+01-7.80187E-02 4.41761E-04-9.60678E-03 3.27390E-14-2.27926E-13
 -1      4249 2.02669E+01-9.18991E-02 3.87515E-04-8.94741E-03-6.85141E-15-2.06450E-13
 -1      4250 2.02526E+01-9.75252E-02-6.83326E-04-3.00311E-02-2.39300E-14-2.30283E-13
 -1      4251 2.03446E+01-1.21219E-02-4.55424E-04-2.84699E-02 5.71268E-14-2.14028E-13
 -1      4252 2.04173E+01 1.95908E-01-5.24526E-04 3.52009E-03-1.58747E-14-2.98708E-13
 -1      4253 2.04082E+01 1.63082E-01-2.61558E-04-1.08846E-02 5.12259E-15-2.33068E-13
 -1      4254 1.63694E+01 9.07924E-01-4.31778E-03 4.34574E-01 6.83852E-14-1.51470E-13
 -1      4255 1.60559E+01 7.50727E-01 1.74800E-03 9.82186E-01 1.38539E-13-2.16320E-13
 -1      4256 1.59028E+01 4.87767E-01 5.81071E-03 1.39728E+00 1.71727E-13 1.16306E-14
 -1      4257 2.04096E+01 2.32581E-01 6.26229E-05-2.44897E-02 5.80344E-14-3.03676E-13
 -1      4258 2.02078E+01-1.03699E-01-8.24092E-04-2.64914E-02-9.31282E-14-1.84649E-13
 -1      4259 2.02092E+01-1.01337E-01 4.31968E-06-4.53844E-02-6.24983E-14-2.61400E-13
 -1      4260 2.04278E+01 4.39190E-01-2.14551E-03-2.41715E-03-1.88717E-14-3.73635E-13
 -1      4261 2.04313E+01 2.87436E-01 1.49446E-03 6.46834E-04-1.80336E-14-3.34699E-13
 -1      4262 2.02295E+01-9.78481E-02 3.01779E-04-4.72921E-02-4.61421E-14-2.32518E-13
 -1      4263 2.03745E+01 6.41265E-02 5.46975E-04-3.62520E-02 3.35849E-14-2.26736E-13
 -1      4264 2.03685E+01 8.00127E-02-4.10515E-04-5.12342E-02 5.57451E-14-2.93083E-13
 -1      4265 2.03890E+01 1.33955E-01-2.49561E-05-3.80414E-02 5.40203E-14-2.93804E-13
 -1      4266 2.04350E+01 3.58688E-01 1.16545E-03-1.27535E-03-3.37927E-14-3.44191E-13
 -1      4267 2.04144E+01 2.07737E-01-8.27087E-04-1.66386E-02 4.67367E-14-2.59982E-13
 -1      4268 2.03674E+01 2.45290E-02 1.47466E-04-2.78211E-02 7.95312E-15-2.15230E-13
 -1      4269 2.03887E+01 7.60052E-02 6.12515E-04-2.27658E-02 1.72411E-14-2.14147E-13
 -3
    1PSTEP                         3           1           1          
  100CL  101 1.000000000        4269                     0    1           1
 -4  TOSTRAIN    6    1
 -5  EXX         1    4    1    1
 -5  EYY         1    4    2    2
 -5  EZZ         1    4    3    3
 -5  EXY         1    4    1    2
 -5  EYZ         1    4    2    3
 -5  EZX         1    4    3    1
 -1         1 2.14679E-04-3.51475E-05-6.79398E-05 1.15315E-04-5.22810E-18-1.14997E-17
 -1         2 4.46466E-05-1.35857E-04 2.42010E-05 1.08073E-06-2.18667E-18-2.56148E-19
 -1         3 9.51158E-05-2.86839E-05-2.82161E-05-3.29634E-08-3.98509E-18-4.20457E-18
 -1         4 9.52754E-05-2.85212E-05-2.84694E-05-1.81804E-07 1.21623E-18-1.26856E-20
 -1         5 1.43349E-04-2.14784E-05-4.25292E-05 3.85311E-05-3.45431E-19 2.63293E-17
 -1         6 1.45410E-04 2.57580E-10-4.41883E-05-5.35266E-05-1.58766E-18 2.50197E-17
 -1         7 9.06119E-05-5.11357E-07-3.90694E-05-2.92514E-05-2.37910E-19 4.32458E-18
 -1         8 8.51282E-05 8.61864E-08-3.63400E-05-2.02691E-05-2.85344E-19-2.05427E-18
 -1         9 8.28150E-05 7.64641E-08-3.53512E-05-1.56367E-05-2.63414E-19-5.49029E-18
 -1        10 8.17736E-05 3.91411E-08-3.48820E-05-1.20762E-05-1.85209E-19-7.09597E-18
 -1        11 8.12530E-05 1.91732E-08-3.46532E-05-9.01073E-06-1.19908E-19-7.81861E-18
 -1        12 8.09816E-05 9.21686E-09-3.45380E-05-6.28191E-06-6.28674E-20-8.08896E-18
 -1        13 8.08391E-05 4.67226E-09-3.44796E-05-3.68418E-06-2.22445E-20-8.11316E-18
 -1        14 8.07795E-05 2.79348E-09-3.44559E-05-1.18325E-06 9.45467E-21-8.07585E-18
 -1        15 8.07816E-05 2.77422E-09-3.44566E-05 1.28835E-06 6.51872E-20-7.95381E-18
 -1        16 8.08456E-05 4.55895E-09-3.44819E-05 3.79448E-06 9.21686E-20-7.71496E-18
 -1        17 8.09933E-05 8.43488E-09-3.45415E-05 6.40463E-06 1.25988E-19-7.37130E-18
 -1        18 8.12694E-05 1.81857E-08-3.46578E-05 9.15312E-06 1.77814E-19-6.76516E-18
 -1        19 8.17975E-05 3.81896E-08-3.48901E-05 1.22550E-05 2.57723E-19-5.66734E-18
 -1        20 8.28377E-05 8.14916E-08-3.53642E-05 1.58678E-05 3.09313E-19-3.61131E-18
 -1        21 8.50930E-05 1.69375E-07-3.63785E-05 2.04800E-05 3.54272E-19 3.96583E-19
 -1        22 9.16486E-05-9.98477E-08-3.87408E-05 2.79980E-05 7.42213E-20 8.42398E-18
 -1        23 1.12982E-04-3.81287E-05-3.53993E-05-4.40185E-06-1.05522E-18 1.94000E-17
 -1        24 9.28172E-05-2.77009E-05-2.90030E-05 3.91518E-07-2.78115E-19 1.45426E-17
 -1        25 8.91357E-05-2.68570E-05-2.69341E-05 3.75969E-07-1.52484E-19 9.61830E-18
 -1        26 8.80353E-05-2.64943E-05-2.63976E-05 2.04149E-07-1.43541E-20 6.13524E-18
 -1        27 8.80650E-05-2.64736E-05-2.63907E-05 1.40037E-07-1.68534E-19 3.93357E-18
 -1        28 8.86024E-05-2.66111E-05-2.65614E-05 1.01059E-07-3.08402E-20 2.16688E-18
 -1        29 8.93608E-05-2.68248E-05-2.67950E-05 7.53805E-08 1.62320E-19 9.05065E-19
 -1        30 9.01888E-05-2.70655E-05-2.70460E-05 5.70945E-08-1.16380E-20-1.94245E-19
 -1        31 9.10013E-05-2.73048E-05-2.72911E-05 4.33497E-08-2.02884E-20-1.48156E-18
 -1        32 9.17511E-05-2.75270E-05-2.75171E-05 3.26971E-08-1.47101E-19-2.59211E-18
 -1        33 9.24144E-05-2.77245E-05-2.77170E-05 2.43269E-08 3.38402E-19-3.46415E-18
 -1        34 9.29825E-05-2.78940E-05-2.78884E-05 1.77237E-08-2.55420E-20-2.87009E-18
 -1        35 9.34562E-05-2.80357E-05-2.80315E-05 1.25200E-08-3.06881E-20-3.07897E-18
 -1        36 9.38422E-05-2.81513E-05-2.81482E-05 8.43385E-09-3.04330E-21-2.94861E-18
 -1        37 9.41508E-05-2.82440E-05-2.82416E-05 5.24076E-09-1.85669E-19-3.60256E-18
 -1        38 9.43947E-05-2.83174E-05-2.83156E-05 2.76095E-09 1.42656E-20-4.52596E-18
 -1        39 9.45874E-05-2.83756E-05-2.83742E-05 8.54721E-10-2.45475E-20-5.16649E-18
 -1        40 9.47439E-05-2.84230E-05-2.84218E-05-5.78629E-10 1.21237E-19-5.57101E-18
 -1        41 9.48799E-05-2.84643E-05-2.84634E-05-1.59935E-09 1.10170E-19-6.57727E-18
 -1        42 9.50126E-05-2.85047E-05-2.85040E-05-2.22397E-09-5.57754E-20-5.85856E-18
 -1        43 9.51612E-05-2.85500E-05-2.85495E-05-2.42002E-09-1.14297E-19-5.26949E-18
 -1        44 9.53478E-05-2.86068E-05-2.86066E-05-2.09878E-09-2.23548E-19-5.23691E-18
 -1        45 9.55983E-05-2.86829E-05-2.86831E-05-1.10598E-09-7.13255E-20-5.26365E-18
 -1        46 9.59428E-05-2.87872E-05-2.87881E-05 7.89002E-10 1.68312E-19-5.20714E-18
 -1        47 9.64168E-05-2.89304E-05-2.89324E-05 3.90359E-09 3.02546E-20-4.63105E-18
 -1        48 9.70610E-05-2.91246E-05-2.91281E-05 8.64813E-09 1.25553E-19-3.40586E-18
 -1        49 9.79203E-05-2.93832E-05-2.93887E-05 1.55185E-08-3.41808E-20-3.22657E-18
 -1        50 9.90415E-05-2.97198E-05-2.97280E-05 2.50572E-08-2.39067E-19-4.28259E-18
 -1        51 1.00467E-04-3.01471E-05-3.01585E-05 3.77480E-08 2.57855E-19-2.82062E-18
 -1        52 1.02227E-04-3.06733E-05-3.06881E-05 5.37833E-08 1.50175E-19-2.02745E-18
 -1        53 1.04317E-04-3.12972E-05-3.13143E-05 7.26038E-08-5.34723E-20-2.39401E-18
 -1        54 1.06679E-04-3.20004E-05-3.20168E-05 9.20789E-08-2.70283E-19-3.46610E-18
 -1        55 1.09155E-04-3.27359E-05-3.27450E-05 1.07218E-07-3.41181E-19-5.42864E-18
 -1        56 1.11448E-04-3.34148E-05-3.34050E-05 1.08530E-07 9.97290E-20-6.67518E-18
 -1        57 1.13070E-04-3.38929E-05-3.38480E-05 8.08304E-08 3.85185E-19-6.60239E-18
 -1        58 1.13339E-04-3.39686E-05-3.38727E-05 4.78296E-09 3.70944E-19-7.51214E-18
 -1        59 1.11463E-04-3.34072E-05-3.32571E-05-1.34937E-07-2.00178E-19-5.91367E-18
 -1        60 1.06782E-04-3.20123E-05-3.18341E-05-3.32137E-07-9.63665E-20-3.25343E-18
 -1        61 9.91954E-05-2.97507E-05-2.96130E-05-5.36083E-07 1.66923E-19-3.17140E-18
 -1        62 8.96205E-05-2.68914E-05-2.68826E-05-6.47212E-07-4.48284E-19-2.28042E-18
 -1        63 8.01017E-05-2.40439E-05-2.42132E-05-5.64446E-07-4.97681E-19-3.05739E-18
 -1        64 7.31919E-05-2.19751E-05-2.22754E-05-2.73081E-07-3.21226E-19-6.88120E-18
 -1        65 7.07243E-05-2.12391E-05-2.15367E-05 1.08607E-07 4.36996E-19-7.55590E-18
 -1        66 7.27839E-05-2.18607E-05-2.20280E-05 3.97110E-07-1.41646E-19-4.22254E-18
 -1        67 7.77627E-05-2.33522E-05-2.33578E-05 4.84469E-07 9.08981E-20-1.27476E-18
 -1        68 8.34753E-05-2.50554E-05-2.49664E-05 4.05369E-07 2.88633E-19 3.48342E-19
 -1        69 8.83839E-05-2.65132E-05-2.64182E-05 2.81050E-07 1.64506E-19 1.61325E-18
 -1        70 9.20442E-05-2.76045E-05-2.75203E-05 2.14493E-07-7.47862E-20 1.11247E-18
 -1        71 9.45625E-05-2.84086E-05-2.82082E-05 1.68428E-07-2.39108E-19-4.04392E-20
 -1        72 1.02186E-04-3.05896E-05-3.41524E-05-1.92927E-06 3.43128E-19 2.39291E-17
 -1        73 9.25734E-05-2.75169E-05-2.89112E-05-3.33302E-07 2.31505E-19 1.79697E-17
 -1        74 8.91228E-05-2.67063E-05-2.69773E-05-1.25975E-07 1.42933E-19 1.33775E-17
 -1        75 8.80653E-05-2.64451E-05-2.64416E-05-9.56469E-08 7.58396E-20 1.05718E-17
 -1        76 8.80999E-05-2.64536E-05-2.64175E-05-7.66767E-08-1.41146E-20 8.56125E-18
 -1        77 8.86365E-05-2.66055E-05-2.65785E-05-6.26368E-08 1.06518E-19 6.80365E-18
 -1        78 8.93922E-05-2.68261E-05-2.68074E-05-5.18829E-08 8.20060E-20 5.67203E-18
 -1        79 9.02167E-05-2.70701E-05-2.70555E-05-4.30384E-08-1.93469E-20 4.94394E-18
 -1        80 9.10255E-05-2.73108E-05-2.72984E-05-3.54369E-08-6.60804E-20 4.58463E-18
 -1        81 9.17716E-05-2.75335E-05-2.75227E-05-2.88149E-08 1.46367E-19 3.67328E-18
 -1        82 9.24315E-05-2.77307E-05-2.77213E-05-2.30557E-08 1.40313E-19 2.33466E-18
 -1        83 9.29963E-05-2.78997E-05-2.78917E-05-1.80827E-08 8.93992E-20 1.13688E-18
 -1        84 9.34670E-05-2.80406E-05-2.80338E-05-1.38219E-08 7.87264E-20 8.55698E-19
 -1        85 9.38502E-05-2.81554E-05-2.81497E-05-1.01915E-08 9.30180E-20 4.12796E-19
 -1        86 9.41562E-05-2.82471E-05-2.82425E-05-7.10181E-09-7.20065E-20-2.36530E-19
 -1        87 9.43975E-05-2.83195E-05-2.83158E-05-4.45904E-09-4.93817E-20-8.50751E-19
 -1        88 9.45876E-05-2.83767E-05-2.83737E-05-2.17028E-09-4.12254E-20-3.01045E-19
 -1        89 9.47413E-05-2.84229E-05-2.84207E-05-1.48528E-10 4.90181E-19-1.94505E-18
 -1        90 9.48741E-05-2.84630E-05-2.84614E-05 1.68222E-09-2.44966E-20-4.04111E-18
 -1        91 9.50033E-05-2.85021E-05-2.85012E-05 3.38140E-09 6.72277E-20-3.49267E-18
 -1        92 9.51482E-05-2.85459E-05-2.85458E-05 4.98519E-09-3.16493E-19-2.25568E-18
 -1        93 9.53314E-05-2.86013E-05-2.86021E-05 6.49757E-09 1.66257E-19-1.75389E-18
 -1        94 9.55798E-05-2.86763E-05-2.86783E-05 7.87731E-09-2.07930E-20-2.68460E-18
 -1        95 9.59259E-05-2.87806E-05-2.87842E-05 9.01841E-09 2.01288E-20-2.56530E-18
 -1        96 9.64095E-05-2.89263E-05-2.89320E-05 9.71992E-09 5.83335E-20-2.13625E-18
 -1        97 9.70790E-05-2.91277E-05-2.91362E-05 9.63946E-09-3.40156E-19-1.45746E-18
 -1        98 9.79926E-05-2.94021E-05-2.94145E-05 8.22284E-09 4.99845E-19-2.75609E-18
 -1        99 9.92183E-05-2.97698E-05-2.97874E-05 4.60126E-09 9.19413E-20-5.19108E-18
 -1       100 1.00833E-04-3.02534E-05-3.02778E-05-2.54676E-09-3.75747E-19-3.59864E-18
 -1       101 1.02916E-04-3.08764E-05-3.09092E-05-1.51494E-08 3.86087E-19-4.69800E-18
 -1       102 1.05538E-04-3.16592E-05-3.17011E-05-3.58275E-08-1.65008E-19-5.32233E-18
 -1       103 1.08731E-04-3.26113E-05-3.26610E-05-6.76724E-08 2.89863E-20-4.12312E-18
 -1       104 1.12448E-04-3.37177E-05-3.37682E-05-1.13164E-07-1.81350E-19-2.72885E-18
 -1       105 1.16475E-04-3.49164E-05-3.49494E-05-1.71178E-07 7.24991E-19-2.15423E-18
 -1       106 1.20325E-04-3.60657E-05-3.60454E-05-2.30684E-07-3.52281E-19-2.46516E-18
 -1       107 1.23113E-04-3.69080E-05-3.67802E-05-2.60969E-07-7.27365E-20-2.04177E-18
 -1       108 1.23503E-04-3.70527E-05-3.67631E-05-2.04254E-07-5.47173E-19-3.57551E-18
 -1       109 1.19924E-04-3.60303E-05-3.55771E-05 1.04667E-08 3.12749E-19-2.86967E-18
 -1       110 1.11272E-04-3.34868E-05-3.29970E-05 4.05762E-07-3.46600E-19-2.91729E-18
 -1       111 9.80951E-05-2.95365E-05-2.92858E-05 8.55916E-07 7.53622E-19-2.94254E-18
 -1       112 8.35449E-05-2.50847E-05-2.53475E-05 1.06027E-06-5.95454E-19-2.46704E-18
 -1       113 7.26715E-05-2.16974E-05-2.24425E-05 7.67733E-07 5.80390E-19-6.89300E-19
 -1       114 6.94005E-05-2.06491E-05-2.14798E-05 1.03228E-07-5.41873E-19 3.41500E-19
 -1       115 7.37710E-05-2.20137E-05-2.24544E-05-5.25590E-07 1.03911E-19 3.80265E-19
 -1       116 8.19258E-05-2.45688E-05-2.44940E-05-7.39904E-07 7.88113E-19-3.69203E-18
 -1       117 8.91999E-05-2.68270E-05-2.64662E-05-5.46842E-07 1.26946E-19-8.36601E-18
 -1       118 9.31716E-05-2.80244E-05-2.76978E-05-2.15091E-07 3.14475E-19-7.19967E-18
 -1       119 9.43400E-05-2.83342E-05-2.81975E-05-1.06260E-08 5.49294E-19-1.03194E-17
 -1       120 9.47171E-05-2.83987E-05-2.83185E-05-1.22038E-07 1.51934E-18-1.06047E-17
 -1       121 9.53404E-05-2.89781E-05-2.84666E-05-2.86820E-07-9.46104E-18 5.68319E-19
 -1       122 9.51944E-05-2.85587E-05-2.88252E-05-1.72728E-07-4.07351E-18 1.87626E-18
 -1       123 9.39771E-05-2.44312E-05-3.02488E-05 1.72587E-07 2.23995E-18 1.28614E-18
 -1       124 9.10555E-05-1.45857E-05-3.32484E-05 7.13350E-07 3.90067E-18 6.76812E-19
 -1       125 8.63828E-05 1.09946E-06-3.77290E-05 1.25316E-06 4.37021E-18-2.84884E-19
 -1       126 8.09847E-05 1.91499E-05-4.26544E-05 1.40656E-06-3.56532E-18-6.39526E-19
 -1       127 7.65861E-05 3.37687E-05-4.65140E-05 8.82689E-07-4.39761E-18 1.21268E-18
 -1       128 7.52754E-05 3.81130E-05-4.76308E-05-1.57224E-07-7.81573E-19-2.95734E-20
 -1       129 7.77497E-05 2.98986E-05-4.54702E-05-1.11485E-06 3.13466E-18-1.64940E-19
 -1       130 8.28803E-05 1.28181E-05-4.09018E-05-1.46413E-06 5.18427E-18-4.92183E-19
 -1       131 8.85390E-05-6.11169E-06-3.56575E-05-1.16545E-06 1.15805E-18-1.56226E-18
 -1       132 9.29227E-05-2.08852E-05-3.13791E-05-6.15702E-07 3.64701E-19 1.60035E-18
 -1       133 9.54995E-05-2.95579E-05-2.87064E-05-9.34313E-08-2.16593E-18-6.91331E-19
 -1       134 9.63249E-05-3.23419E-05-2.76926E-05 2.45816E-07 3.35852E-18 1.29298E-18
 -1       135 9.60690E-05-3.13835E-05-2.77837E-05 4.03812E-07 1.28798E-18-1.57680E-18
 -1       136 9.54090E-05-2.93236E-05-2.82553E-05 3.56661E-07-1.46261E-18-1.22798E-19
 -1       137 3.20286E-05-1.08355E-04 1.92653E-05-2.90938E-05-2.23977E-18-1.66590E-18
 -1       138 9.29079E-06-3.84128E-05 3.50878E-06-1.92025E-05 6.89061E-19 6.78473E-19
 -1       139 1.97211E-05 2.13110E-05-2.02060E-05 3.80118E-05 2.99045E-18 2.18280E-18
 -1       140 7.90030E-05 2.99941E-05-4.32398E-05 9.98121E-05 2.68679E-18 2.03627E-18
 -1       141 1.84285E-04-1.20580E-05-6.47317E-05 1.30199E-04 2.52966E-18 5.56077E-18
 -1       142 2.88692E-04-7.18689E-05-7.99319E-05 9.90281E-05 5.80059E-19 2.62136E-18
 -1       143 3.36687E-04-1.04080E-04-8.54663E-05 1.73195E-05 2.39816E-19-6.76816E-18
 -1       144 3.04214E-04-8.60851E-05-8.08342E-05-6.79413E-05 3.34882E-18-1.26271E-17
 -1       145 2.05733E-04-3.19585E-05-6.59209E-05-1.12915E-04 6.09991E-18-1.60204E-17
 -1       146 1.00412E-04 1.50719E-05-4.60885E-05-9.96913E-05 8.97940E-18-1.38494E-17
 -1       147 2.72109E-05 2.19400E-05-2.32007E-05-4.52208E-05 9.13356E-18-7.18919E-18
 -1       148 5.91936E-06-1.90780E-05-1.35366E-06 9.08339E-06 6.51199E-18-5.50042E-18
 -1       149 1.88506E-05-7.64569E-05 1.42839E-05 3.21873E-05 2.42336E-18 9.04208E-20
 -1       150 3.80344E-05-1.19494E-04 2.26383E-05 1.64524E-05 9.25913E-19-7.07855E-19
 -1       151 3.71740E-05-1.17217E-04 2.21748E-05-1.59639E-05-3.28352E-18-9.43396E-19
 -1       152 1.71512E-05-6.93055E-05 1.24321E-05-2.90860E-05-1.00060E-17-4.09805E-18
 -1       153 5.67180E-06-8.62318E-06-4.82902E-06-1.87926E-06-9.59307E-18-4.38530E-18
 -1       154 3.24092E-05 2.61588E-05-2.62797E-05 5.39040E-05-7.23070E-18-5.79540E-18
 -1       155 1.07917E-04 1.43122E-05-4.82946E-05 1.04878E-04-7.30947E-18-1.12287E-17
 -1       156 3.05765E-04-8.75452E-05-8.10506E-05 6.59054E-05-1.26334E-18-7.67857E-18
 -1       157 3.32570E-04-1.02434E-04-8.49384E-05-2.16993E-05 2.80580E-19-4.64399E-18
 -1       158 2.81358E-04-6.86968E-05-7.87913E-05-9.99733E-05 5.07532E-19-6.49251E-19
 -1       159 1.79606E-04-1.05198E-05-6.37385E-05-1.28673E-04-7.05790E-19 3.00316E-18
 -1       160 7.41235E-05 2.98014E-05-4.15117E-05-9.55714E-05-6.38282E-18 7.34123E-18
 -1       161 1.57251E-05 1.79193E-05-1.75200E-05-3.02605E-05-1.43941E-17 9.23012E-18
 -1       162 8.74582E-06-3.72686E-05 3.38039E-06 2.02486E-05-1.55748E-17 7.85814E-18
 -1       163 3.05408E-05-1.03737E-04 1.82504E-05 2.83702E-05-1.54880E-18 1.70338E-18
 -1       164 9.48743E-05-1.23483E-05-3.55712E-05-2.23477E-05-3.66898E-18 9.89732E-19
 -1       165 8.92539E-05-8.45897E-06-3.47884E-05-1.73873E-05-3.39979E-18-3.03652E-18
 -1       166 8.65393E-05-6.49800E-06-3.44156E-05-1.35857E-05-2.78339E-18-5.16128E-18
 -1       167 8.51942E-05-5.51753E-06-3.42314E-05-1.03647E-05-2.04059E-18-6.26788E-18
 -1       168 8.44440E-05-4.94228E-06-3.41415E-05-7.54418E-06-1.37159E-18-6.65456E-18
 -1       169 8.40161E-05-4.59801E-06-3.40981E-05-4.90224E-06-7.41049E-19-6.78323E-18
 -1       170 8.37972E-05-4.41373E-06-3.40796E-05-2.39442E-06-9.78848E-20-6.80839E-18
 -1       171 8.37327E-05-4.35795E-06-3.40748E-05 5.11329E-08 4.09365E-19-6.74341E-18
 -1       172 8.38073E-05-4.42219E-06-3.40804E-05 2.49875E-06 9.18499E-19-6.57189E-18
 -1       173 8.40383E-05-4.61748E-06-3.40995E-05 5.01300E-06 1.47737E-18-6.31997E-18
 -1       174 8.44725E-05-4.97085E-06-3.41418E-05 7.62165E-06 2.06995E-18-5.80832E-18
 -1       175 8.52503E-05-5.57376E-06-3.42320E-05 1.05104E-05 2.76487E-18-5.02739E-18
 -1       176 8.66484E-05-6.60853E-06-3.44190E-05 1.37810E-05 3.36580E-18-3.66131E-18
 -1       177 8.93957E-05-8.60087E-06-3.47934E-05 1.76207E-05 3.78706E-18-9.92021E-19
 -1       178 9.57856E-05-1.36154E-05-3.54272E-05 2.18920E-05 3.63872E-18 3.83992E-18
 -1       179 1.05612E-04-2.61044E-05-3.52650E-05 1.86617E-05 2.72195E-18 1.02130E-17
 -1       180 1.03406E-04-2.73037E-05-3.26131E-05-1.21247E-05-3.25322E-18 5.64939E-18
 -1       181 9.71187E-05-2.82935E-05-2.95318E-05-4.72865E-06-2.85720E-18 4.05782E-18
 -1       182 9.35189E-05-2.76403E-05-2.81857E-05-1.76721E-06-2.18112E-18 2.64139E-18
 -1       183 9.19850E-05-2.74094E-05-2.76398E-05-4.19036E-07-1.42547E-18 1.24934E-18
 -1       184 9.14108E-05-2.73351E-05-2.74428E-05 2.45352E-07-1.04602E-18 4.95513E-19
 -1       185 9.13706E-05-2.73745E-05-2.74183E-05 5.70985E-07-9.28292E-19-1.01336E-19
 -1       186 9.16154E-05-2.74776E-05-2.74837E-05 7.09353E-07-6.88269E-19-8.10343E-19
 -1       187 9.19999E-05-2.76101E-05-2.75939E-05 7.39534E-07-6.71629E-19-1.05325E-18
 -1       188 9.24369E-05-2.77506E-05-2.77221E-05 7.07331E-07-8.12500E-19-1.29591E-18
 -1       189 9.28743E-05-2.78862E-05-2.78521E-05 6.41184E-07-6.09511E-19-1.62146E-18
 -1       190 9.32824E-05-2.80098E-05-2.79745E-05 5.59342E-07 2.19772E-21-2.77738E-18
 -1       191 9.36461E-05-2.81179E-05-2.80841E-05 4.73579E-07-1.13269E-19-2.95200E-18
 -1       192 9.39596E-05-2.82097E-05-2.81792E-05 3.91422E-07-1.75145E-19-2.96533E-18
 -1       193 9.42236E-05-2.82859E-05-2.82596E-05 3.17594E-07-2.97378E-19-2.42529E-18
 -1       194 9.44427E-05-2.83482E-05-2.83268E-05 2.55030E-07-6.59642E-19-2.25531E-18
 -1       195 9.46245E-05-2.83989E-05-2.83828E-05 2.05629E-07-3.98503E-19-2.64566E-18
 -1       196 9.47783E-05-2.84410E-05-2.84305E-05 1.70813E-07-3.12082E-19-2.89053E-18
 -1       197 9.49151E-05-2.84777E-05-2.84732E-05 1.51968E-07-2.32063E-19-3.62123E-18
 -1       198 9.50474E-05-2.85126E-05-2.85147E-05 1.50769E-07-1.90658E-19-3.61136E-18
 -1       199 9.51892E-05-2.85496E-05-2.85594E-05 1.69435E-07 4.28850E-19-3.77155E-18
 -1       200 9.53569E-05-2.85936E-05-2.86121E-05 2.10891E-07-2.09075E-20-3.19400E-18
 -1       201 9.55692E-05-2.86498E-05-2.86786E-05 2.78841E-07-1.75377E-19-3.16129E-18
 -1       202 9.58474E-05-2.87245E-05-2.87654E-05 3.77704E-07 4.41155E-19-2.89494E-18
 -1       203 9.62164E-05-2.88251E-05-2.88800E-05 5.12362E-07 5.12230E-19-2.77891E-18
 -1       204 9.67037E-05-2.89598E-05-2.90307E-05 6.87599E-07 3.50008E-19-2.46417E-18
 -1       205 9.73395E-05-2.91381E-05-2.92264E-05 9.07073E-07-2.02701E-19-2.43616E-18
 -1       206 9.81543E-05-2.93702E-05-2.94759E-05 1.17154E-06 1.78597E-20-2.35513E-18
 -1       207 9.91762E-05-2.96664E-05-2.97869E-05 1.47600E-06 5.41872E-19-2.25333E-18
 -1       208 1.00424E-04-3.00361E-05-3.01639E-05 1.80523E-06 2.29216E-19-2.10683E-18
 -1       209 1.01901E-04-3.04853E-05-3.06054E-05 2.12736E-06-5.40817E-19-2.22400E-18
 -1       210 1.03578E-04-3.10138E-05-3.10994E-05 2.38517E-06-2.64847E-19-1.97464E-18
 -1       211 1.05376E-04-3.16098E-05-3.16176E-05 2.48625E-06-1.09388E-18-1.89774E-18
 -1       212 1.07145E-04-3.22415E-05-3.21093E-05 2.29576E-06-3.66963E-19-2.08504E-18
 -1       213 1.08641E-04-3.28455E-05-3.24960E-05 1.64088E-06 2.52661E-19-2.07436E-18
 -1       214 1.09513E-04-3.33114E-05-3.26732E-05 3.43967E-07-2.97755E-19-2.75137E-18
 -1       215 1.09319E-04-3.34687E-05-3.25236E-05-1.69297E-06 8.30119E-19-3.17000E-18
 -1       216 1.07615E-04-3.30941E-05-3.19509E-05-4.34271E-06 9.72096E-19-4.08389E-18
 -1       217 1.04126E-04-3.19711E-05-3.09294E-05-7.09158E-06 4.70070E-19-2.07049E-18
 -1       218 9.90110E-05-3.00354E-05-2.95586E-05-8.99988E-06-1.14186E-19-1.76257E-18
 -1       219 9.30995E-05-2.75829E-05-2.80710E-05-9.00616E-06-6.34237E-19-2.96798E-18
 -1       220 8.78220E-05-2.53215E-05-2.67768E-05-6.61539E-06-1.75432E-18-3.81573E-18
 -1       221 8.46384E-05-2.40670E-05-2.59486E-05-2.48518E-06 5.35781E-19-2.82257E-18
 -1       222 8.42166E-05-2.41953E-05-2.57093E-05 1.73318E-06 1.27549E-18-2.32717E-18
 -1       223 8.60269E-05-2.53428E-05-2.59919E-05 4.43754E-06 2.46654E-18-2.27348E-18
 -1       224 8.87942E-05-2.67315E-05-2.65866E-05 5.09419E-06 1.33582E-18-6.64544E-19
 -1       225 9.13483E-05-2.77520E-05-2.72522E-05 4.31693E-06 7.43609E-19-9.93628E-19
 -1       226 9.31343E-05-2.82587E-05-2.78048E-05 3.14105E-06 1.91926E-19-8.86207E-19
 -1       227 9.42893E-05-2.85882E-05-2.81515E-05 2.12839E-06-1.72702E-19 3.95831E-19
 -1       228 9.95103E-05-2.85574E-05-3.05900E-05 7.20963E-06 2.88059E-18 8.62590E-18
 -1       229 9.44278E-05-2.77941E-05-2.85279E-05 2.74201E-06 2.20122E-18 6.55480E-18
 -1       230 9.21097E-05-2.74049E-05-2.76856E-05 9.27865E-07 1.43732E-18 4.90317E-18
 -1       231 9.11632E-05-2.72430E-05-2.73674E-05 6.55669E-08 1.14212E-18 3.69698E-18
 -1       232 9.09538E-05-2.72366E-05-2.72939E-05-3.62429E-07 9.25044E-19 2.90096E-18
 -1       233 9.11395E-05-2.73232E-05-2.73431E-05-5.63129E-07 5.33164E-19 2.13510E-18
 -1       234 9.15248E-05-2.74568E-05-2.74542E-05-6.35849E-07 3.64671E-19 1.61647E-18
 -1       235 9.19948E-05-2.76082E-05-2.75924E-05-6.34478E-07 3.97280E-19 1.03218E-18
 -1       236 9.24809E-05-2.77595E-05-2.77368E-05-5.91189E-07 6.44361E-19 5.12399E-19
 -1       237 9.29435E-05-2.79006E-05-2.78751E-05-5.26240E-07 4.50795E-19 7.13200E-19
 -1       238 9.33612E-05-2.80262E-05-2.80006E-05-4.52658E-07 5.33417E-19 7.04762E-19
 -1       239 9.37245E-05-2.81342E-05-2.81102E-05-3.78812E-07 6.38482E-20 1.77761E-19
 -1       240 9.40318E-05-2.82246E-05-2.82033E-05-3.09994E-07 4.16793E-19-8.85828E-20
 -1       241 9.42868E-05-2.82989E-05-2.82808E-05-2.49485E-07 2.09935E-19-4.72309E-19
 -1       242 9.44962E-05-2.83591E-05-2.83447E-05-1.99317E-07 2.67674E-19-3.14674E-19
 -1       243 9.46690E-05-2.84083E-05-2.83976E-05-1.60847E-07 4.58881E-20-1.41213E-18
 -1       244 9.48161E-05-2.84494E-05-2.84429E-05-1.35196E-07 1.19072E-18-1.44431E-18
 -1       245 9.49496E-05-2.84863E-05-2.84842E-05-1.23607E-07 6.15948E-19-1.46015E-18
 -1       246 9.50834E-05-2.85228E-05-2.85257E-05-1.27724E-07-5.02442E-19-1.57461E-18
 -1       247 9.52336E-05-2.85637E-05-2.85724E-05-1.49832E-07-8.80613E-19-1.24997E-18
 -1       248 9.54186E-05-2.86142E-05-2.86298E-05-1.93057E-07-3.13638E-20-6.91217E-19
 -1       249 9.56605E-05-2.86807E-05-2.87047E-05-2.61529E-07 4.73867E-19-1.52497E-18
 -1       250 9.59854E-05-2.87709E-05-2.88051E-05-3.60493E-07 6.50150E-19-2.41364E-18
 -1       251 9.64246E-05-2.88936E-05-2.89405E-05-4.96336E-07-3.89316E-19-2.95708E-18
 -1       252 9.70152E-05-2.90599E-05-2.91220E-05-6.76449E-07-2.12527E-19-2.46436E-18
 -1       253 9.78001E-05-2.92825E-05-2.93628E-05-9.08773E-07 6.91644E-19-2.89498E-18
 -1       254 9.88281E-05-2.95762E-05-2.96774E-05-1.20075E-06 1.32224E-19-1.91846E-18
 -1       255 1.00151E-04-2.99572E-05-3.00812E-05-1.55717E-06-8.85030E-19-1.94355E-18
 -1       256 1.01819E-04-3.04426E-05-3.05887E-05-1.97607E-06 2.67074E-19-1.72942E-18
 -1       257 1.03872E-04-3.10483E-05-3.12100E-05-2.44138E-06-4.36305E-20-8.51705E-19
 -1       258 1.06319E-04-3.17850E-05-3.19447E-05-2.91046E-06-2.94292E-19-9.47001E-19
 -1       259 1.09110E-04-3.26515E-05-3.27722E-05-3.29496E-06-5.77629E-19-8.04782E-19
 -1       260 1.12094E-04-3.36235E-05-3.36370E-05-3.43571E-06 2.53340E-19-1.38659E-18
 -1       261 1.14957E-04-3.46338E-05-3.44317E-05-3.08039E-06 1.61995E-20-1.65125E-19
 -1       262 1.17166E-04-3.55427E-05-3.49849E-05-1.89159E-06 3.13042E-19-6.27949E-19
 -1       263 1.17948E-04-3.60990E-05-3.50714E-05 4.56312E-07-2.19676E-19-8.10442E-19
 -1       264 1.16398E-04-3.59179E-05-3.44705E-05 4.01579E-06-2.17304E-19 8.07371E-19
 -1       265 1.11814E-04-3.45543E-05-3.30843E-05 8.14707E-06 1.87052E-19 7.29454E-19
 -1       266 1.04327E-04-3.17900E-05-3.10774E-05 1.12286E-05-1.09803E-19 1.73274E-18
 -1       267 9.55337E-05-2.81275E-05-2.89230E-05 1.11569E-05-7.46497E-19 2.82329E-18
 -1       268 8.83789E-05-2.50391E-05-2.72272E-05 6.98759E-06-2.40796E-19 1.91334E-18
 -1       269 8.54545E-05-2.39756E-05-2.64250E-05 5.65582E-07-6.70413E-19 1.52084E-18
 -1       270 8.71194E-05-2.52142E-05-2.65524E-05-4.67156E-06 2.00226E-18-1.02190E-18
 -1       271 9.11216E-05-2.74268E-05-2.72707E-05-6.26118E-06 2.89590E-18-2.91504E-18
 -1       272 9.46629E-05-2.90729E-05-2.80709E-05-4.60136E-06 9.37957E-19-1.89023E-18
 -1       273 9.62715E-05-2.95150E-05-2.85870E-05-1.89826E-06-3.48220E-19-2.09655E-18
 -1       274 9.61261E-05-2.90398E-05-2.87468E-05-2.15232E-07 1.42971E-18-1.23017E-18
 -1       275 9.54151E-05-2.85037E-05-2.86604E-05-1.19500E-07-7.05519E-19-2.50100E-18
 -1       276 9.57027E-05-2.80841E-05-2.89612E-05 7.70258E-07-6.51057E-20 3.90062E-18
 -1       277 9.59312E-05-2.63871E-05-2.97840E-05 4.18404E-06-6.19560E-19 2.44037E-18
 -1       278 9.50634E-05-2.20853E-05-3.12738E-05 9.53685E-06 1.05146E-19 2.65500E-18
 -1       279 9.24153E-05-1.43669E-05-3.34583E-05 1.50158E-05-5.22394E-19 3.11020E-22
 -1       280 8.79396E-05-4.08186E-06-3.59551E-05 1.75002E-05-1.28712E-18-3.66088E-18
 -1       281 8.26610E-05 6.41888E-06-3.81825E-05 1.39764E-05-1.07727E-18-1.07783E-18
 -1       282 7.93079E-05 1.25978E-05-3.93814E-05 4.15481E-06-7.00887E-19 2.30695E-18
 -1       283 7.99339E-05 1.13272E-05-3.91115E-05-7.88538E-06 1.66224E-18 2.15379E-18
 -1       284 8.41999E-05 3.11259E-06-3.74331E-05-1.63485E-05 2.01671E-18 2.32338E-20
 -1       285 8.96658E-05-8.26046E-06-3.49002E-05-1.80874E-05 9.18250E-19-2.42033E-18
 -1       286 9.38720E-05-1.84680E-05-3.23171E-05-1.44275E-05 4.66881E-19-5.59882E-19
 -1       287 9.61960E-05-2.56656E-05-3.02120E-05-8.45572E-06 1.54500E-18-7.07934E-19
 -1       288 9.68323E-05-2.93027E-05-2.89185E-05-2.94741E-06 1.64398E-18 1.74818E-18
 -1       289 9.62980E-05-3.01278E-05-2.83465E-05 6.17784E-07-5.89813E-19-7.41816E-21
 -1       290 9.57047E-05-2.95840E-05-2.83194E-05 2.13411E-06-1.11662E-18-3.07598E-18
 -1       291 1.57093E-05-5.92274E-05 1.42922E-05 8.19708E-06-2.08656E-18 2.35581E-19
 -1       292 3.33069E-05-5.08803E-05 4.62953E-06 2.99044E-05 8.11881E-19 8.62385E-19
 -1       293 7.62070E-05-4.95119E-05-1.26040E-05 4.71900E-05 7.17225E-19 2.35867E-18
 -1       294 1.09246E-04-3.48958E-05-3.17683E-05 5.24605E-05 1.20787E-18 1.10326E-18
 -1       295 1.55597E-04-3.19124E-05-5.10312E-05 5.50690E-05-1.82218E-19 6.74874E-19
 -1       296 1.97090E-04-3.44643E-05-6.65305E-05 4.13751E-05 9.71388E-19-2.59679E-18
 -1       297 2.20977E-04-3.61179E-05-7.53484E-05 2.17595E-05 3.39120E-18-6.12511E-18
 -1       298 2.27155E-04-4.00992E-05-7.60910E-05-2.08166E-06 3.65082E-18-8.09986E-18
 -1       299 1.96831E-04-3.65708E-05-6.62949E-05-1.66937E-05 5.14218E-18-8.48282E-18
 -1       300 1.63227E-04-3.65423E-05-5.24863E-05-4.14691E-05 4.32791E-18-1.00236E-17
 -1       301 1.15326E-04-3.59716E-05-3.38774E-05-4.35833E-05 3.47495E-18-9.07786E-18
 -1       302 7.56641E-05-4.42959E-05-1.46541E-05-3.71853E-05 2.01319E-18-4.42246E-18
 -1       303 4.37643E-05-4.85818E-05 4.37203E-07-3.13180E-05 1.76522E-18-4.08799E-18
 -1       304 1.85635E-05-5.57827E-05 1.25297E-05-1.09654E-05 1.37855E-18-2.09768E-18
 -1       305 1.17757E-05-5.64410E-05 1.57138E-05 1.42589E-06 1.53194E-20-2.27905E-18
 -1       306 1.96135E-05-5.29776E-05 1.12397E-05 1.56411E-05-1.48697E-18-3.18961E-18
 -1       307 4.33668E-05-4.60963E-05-8.52485E-07 3.09123E-05-2.34925E-18-2.32366E-18
 -1       308 7.74293E-05-3.94418E-05-1.73105E-05 4.04713E-05-4.53480E-18-3.54790E-18
 -1       309 1.20931E-04-3.58723E-05-3.61059E-05 4.51902E-05-4.18159E-18-7.33996E-18
 -1       310 1.66054E-04-3.54593E-05-5.41787E-05 4.06780E-05-3.96782E-18-6.55307E-18
 -1       311 2.06211E-04-3.78269E-05-6.88541E-05 2.84046E-05-3.14980E-18-6.79236E-18
 -1       312 2.27452E-04-3.99146E-05-7.63123E-05 3.43608E-06-2.07100E-18-5.37257E-18
 -1       313 2.19036E-04-3.58351E-05-7.48340E-05-2.22159E-05-2.83544E-19-4.55714E-18
 -1       314 1.93874E-04-3.34839E-05-6.57437E-05-4.19315E-05-1.04243E-18-2.43310E-18
 -1       315 1.52032E-04-3.11549E-05-5.00116E-05-5.46438E-05-3.68205E-18-1.22883E-18
 -1       316 1.15646E-04-4.55004E-05-3.00511E-05-4.95322E-05-4.38551E-18-1.13757E-18
 -1       317 6.28624E-05-4.23669E-05-1.05775E-05-4.18246E-05-6.07852E-18 3.53954E-18
 -1       318 3.26225E-05-5.21157E-05 4.91054E-06-2.64553E-05-4.60659E-18 7.83940E-18
 -1       319 1.53211E-05-5.40920E-05 1.29110E-05-1.16892E-05-5.29872E-18 1.14117E-18
 -1       320 9.16538E-05-1.43980E-05-3.31726E-05-1.30606E-05-3.57284E-18-2.91947E-18
 -1       321 9.57061E-05-1.91024E-05-3.28933E-05-1.46281E-05-3.91976E-18-5.69385E-19
 -1       322 8.79966E-05-1.03703E-05-3.33236E-05-8.16026E-06-2.08664E-18-4.89509E-18
 -1       323 8.71871E-05-9.45412E-06-3.33626E-05-5.71731E-06-1.34932E-18-5.25348E-18
 -1       324 8.67256E-05-8.92279E-06-3.33890E-05-3.36583E-06-5.60423E-19-5.27967E-18
 -1       325 8.65199E-05-8.68261E-06-3.34023E-05-1.07217E-06 1.38712E-19-5.30931E-18
 -1       326 8.65286E-05-8.69211E-06-3.34020E-05 1.20305E-06 8.01019E-19-5.15029E-18
 -1       327 8.67529E-05-8.95312E-06-3.33879E-05 3.49888E-06 1.49413E-18-5.01590E-18
 -1       328 8.72258E-05-9.49735E-06-3.33609E-05 5.81305E-06 2.17848E-18-4.63720E-18
 -1       329 8.80664E-05-1.04493E-05-3.33199E-05 8.25170E-06 3.01046E-18-4.02218E-18
 -1       330 8.94831E-05-1.20329E-05-3.32596E-05 1.07604E-05 3.64799E-18-3.11484E-18
 -1       331 9.19051E-05-1.47228E-05-3.31593E-05 1.31657E-05 4.09606E-18-1.50638E-18
 -1       332 9.58107E-05-1.94591E-05-3.28299E-05 1.43728E-05 4.18054E-18 1.58721E-18
 -1       333 9.87993E-05-2.44468E-05-3.19535E-05 1.18955E-05 3.77351E-18 4.36790E-18
 -1       334 9.63993E-05-2.68151E-05-2.97923E-05 5.73848E-06 3.12003E-18 3.38780E-18
 -1       335 9.64453E-05-2.60313E-05-3.01330E-05-6.34753E-06-3.15201E-18 1.40258E-19
 -1       336 9.49261E-05-2.70297E-05-2.90731E-05-2.83224E-06-2.48735E-18-1.53746E-19
 -1       337 9.39513E-05-2.74281E-05-2.84952E-05-9.18188E-07-1.80626E-18-6.03870E-19
 -1       338 9.34331E-05-2.76416E-05-2.81896E-05 1.41049E-07-1.11043E-18-8.91914E-19
 -1       339 9.32413E-05-2.77949E-05-2.80457E-05 7.05000E-07-1.11467E-18-9.65970E-19
 -1       340 9.32582E-05-2.79246E-05-2.79991E-05 9.71795E-07-7.74029E-19-1.14214E-18
 -1       341 9.33968E-05-2.80396E-05-2.80102E-05 1.05816E-06-6.54772E-19-1.36584E-18
 -1       342 9.35975E-05-2.81408E-05-2.80533E-05 1.03680E-06-7.78875E-19-1.45675E-18
 -1       343 9.38212E-05-2.82279E-05-2.81121E-05 9.54661E-07-9.71215E-19-1.64167E-18
 -1       344 9.40435E-05-2.83010E-05-2.81761E-05 8.42559E-07-3.29513E-19-2.17530E-18
 -1       345 9.42507E-05-2.83608E-05-2.82393E-05 7.20790E-07-4.04886E-19-2.14776E-18
 -1       346 9.44362E-05-2.84085E-05-2.82983E-05 6.02635E-07 2.04744E-19-2.04043E-18
 -1       347 9.45981E-05-2.84455E-05-2.83517E-05 4.96745E-07-4.25370E-19-2.03652E-18
 -1       348 9.47382E-05-2.84737E-05-2.83995E-05 4.08828E-07-4.09008E-19-1.85641E-18
 -1       349 9.48607E-05-2.84949E-05-2.84428E-05 3.42901E-07-6.48322E-19-2.28400E-18
 -1       350 9.49716E-05-2.85110E-05-2.84833E-05 3.02242E-07-8.22988E-19-2.40475E-18
 -1       351 9.50784E-05-2.85239E-05-2.85233E-05 2.90091E-07-3.07433E-19-2.60219E-18
 -1       352 9.51898E-05-2.85357E-05-2.85658E-05 3.10190E-07 1.19738E-19-3.11668E-18
 -1       353 9.53164E-05-2.85489E-05-2.86142E-05 3.67140E-07 2.94709E-19-3.54754E-18
 -1       354 9.54700E-05-2.85661E-05-2.86723E-05 4.66600E-07 3.39754E-19-2.60594E-18
 -1       355 9.56643E-05-2.85909E-05-2.87447E-05 6.15268E-07 4.08409E-19-1.66470E-18
 -1       356 9.59150E-05-2.86275E-05-2.88361E-05 8.20580E-07 6.76282E-19-1.58981E-18
 -1       357 9.62398E-05-2.86812E-05-2.89519E-05 1.09000E-06 5.33293E-19-1.86065E-18
 -1       358 9.66580E-05-2.87591E-05-2.90973E-05 1.42969E-06 5.57138E-19-2.03366E-18
 -1       359 9.71902E-05-2.88706E-05-2.92772E-05 1.84224E-06 6.18710E-21-1.78577E-18
 -1       360 9.78571E-05-2.90279E-05-2.94954E-05 2.32310E-06-2.28244E-19-1.35976E-18
 -1       361 9.86780E-05-2.92475E-05-2.97531E-05 2.85511E-06 5.64439E-19-1.01120E-18
 -1       362 9.96684E-05-2.95513E-05-3.00477E-05 3.40060E-06 3.59160E-19-1.44754E-18
 -1       363 1.00836E-04-2.99680E-05-3.03706E-05 3.89071E-06-6.43938E-19-1.13050E-18
 -1       364 1.02177E-04-3.05323E-05-3.07052E-05 4.21245E-06-3.79924E-19-5.96670E-19
 -1       365 1.03664E-04-3.12811E-05-3.10250E-05 4.19644E-06-3.11956E-19 6.86702E-19
 -1       366 1.05238E-04-3.22376E-05-3.12945E-05 3.61269E-06-3.01459E-19-4.86886E-19
 -1       367 1.06781E-04-3.33763E-05-3.14731E-05 2.19069E-06-4.20702E-19-1.23600E-18
 -1       368 1.08076E-04-3.45593E-05-3.15260E-05-3.09159E-07 1.85002E-19-6.55189E-19
 -1       369 1.08763E-04-3.54529E-05-3.14396E-05-3.93805E-06-3.10077E-20-5.36120E-19
 -1       370 1.08344E-04-3.54985E-05-3.12380E-05-8.30926E-06 1.04890E-18-8.72110E-19
 -1       371 1.06330E-04-3.40657E-05-3.09771E-05-1.23668E-05 1.08037E-18-1.47995E-18
 -1       372 1.02627E-04-3.09156E-05-3.07291E-05-1.44176E-05 1.42676E-20 1.40411E-19
 -1       373 9.81010E-05-2.69006E-05-3.05059E-05-1.28870E-05-1.95145E-18 9.37692E-19
 -1       374 9.44361E-05-2.38235E-05-3.02511E-05-7.64755E-06-9.20619E-19 1.17970E-18
 -1       375 9.31597E-05-2.33524E-05-2.99023E-05-7.19215E-07 1.13693E-18-2.21334E-19
 -1       376 9.42705E-05-2.54305E-05-2.94853E-05 4.81870E-06 1.13244E-18 1.20342E-19
 -1       377 9.62801E-05-2.83298E-05-2.91082E-05 7.07295E-06 1.83786E-18-1.49096E-18
 -1       378 9.75811E-05-3.02517E-05-2.88523E-05 6.38083E-06-1.36742E-19-1.78307E-18
 -1       379 9.74895E-05-3.05527E-05-2.86971E-05 4.42915E-06 3.67628E-19-2.64891E-18
 -1       380 9.64842E-05-2.99186E-05-2.85274E-05 2.99111E-06-1.93033E-19-3.12645E-18
 -1       381 9.43805E-05-2.73441E-05-2.86917E-05 2.46586E-06 2.36333E-18 2.38360E-18
 -1       382 9.31753E-05-2.74642E-05-2.81401E-05 7.40597E-07 1.65687E-18 1.40919E-18
 -1       383 9.26224E-05-2.75422E-05-2.78816E-05-1.80556E-07 1.30942E-18 8.77305E-19
 -1       384 9.24813E-05-2.76351E-05-2.77870E-05-6.55930E-07 8.87987E-19 5.03651E-19
 -1       385 9.25840E-05-2.77447E-05-2.77867E-05-8.73221E-07 6.89737E-19-5.65316E-21
 -1       386 9.28190E-05-2.78611E-05-2.78388E-05-9.37123E-07 6.61939E-19-3.98948E-19
 -1       387 9.31143E-05-2.79751E-05-2.79171E-05-9.10785E-07 6.79997E-19-2.94379E-19
 -1       388 9.34247E-05-2.80806E-05-2.80052E-05-8.34161E-07 2.78365E-19-3.09579E-19
 -1       389 9.37231E-05-2.81740E-05-2.80932E-05-7.33163E-07 5.50504E-19-3.25375E-19
 -1       390 9.39947E-05-2.82539E-05-2.81754E-05-6.24698E-07 4.22107E-19-4.47878E-19
 -1       391 9.42332E-05-2.83205E-05-2.82491E-05-5.19718E-07 5.24594E-19-1.87846E-19
 -1       392 9.44375E-05-2.83747E-05-2.83133E-05-4.25250E-07 3.94382E-19-2.38077E-19
 -1       393 9.46108E-05-2.84182E-05-2.83688E-05-3.45825E-07 4.37673E-19-1.10515E-18
 -1       394 9.47585E-05-2.84531E-05-2.84170E-05-2.84543E-07 3.77797E-19-1.06454E-18
 -1       395 9.48881E-05-2.84817E-05-2.84602E-05-2.43876E-07 9.54335E-19-1.50361E-18
 -1       396 9.50089E-05-2.85065E-05-2.85011E-05-2.26303E-07 6.97596E-19-8.63078E-19
 -1       397 9.51315E-05-2.85304E-05-2.85431E-05-2.34810E-07-2.91463E-19-1.17014E-18
 -1       398 9.52684E-05-2.85565E-05-2.85903E-05-2.73300E-07-7.11733E-19-1.40601E-18
 -1       399 9.54342E-05-2.85886E-05-2.86473E-05-3.46915E-07-5.49721E-19-1.64489E-18
 -1       400 9.56460E-05-2.86310E-05-2.87196E-05-4.62286E-07 1.07251E-18-1.97825E-18
 -1       401 9.59240E-05-2.86888E-05-2.88135E-05-6.27672E-07 1.27403E-18-2.56255E-18
 -1       402 9.62919E-05-2.87683E-05-2.89366E-05-8.52938E-07-4.20091E-19-2.80401E-18
 -1       403 9.67770E-05-2.88770E-05-2.90973E-05-1.14924E-06-5.62747E-19-2.99027E-18
 -1       404 9.74105E-05-2.90242E-05-2.93051E-05-1.52819E-06-1.08970E-19-1.96791E-18
 -1       405 9.82271E-05-2.92213E-05-2.95700E-05-2.00010E-06-1.91168E-19-7.35319E-19
 -1       406 9.92632E-05-2.94821E-05-2.99016E-05-2.57056E-06-2.40993E-19-9.95853E-19
 -1       407 1.00554E-04-2.98244E-05-3.03079E-05-3.23429E-06-2.52774E-19-9.20401E-20
 -1       408 1.02130E-04-3.02710E-05-3.07922E-05-3.96443E-06-1.45742E-19-1.77787E-19
 -1       409 1.04006E-04-3.08522E-05-3.13488E-05-4.69532E-06-2.17293E-19-4.98298E-19
 -1       410 1.06174E-04-3.16067E-05-3.19576E-05-5.29678E-06 1.95623E-19-1.31582E-18
 -1       411 1.08580E-04-3.25806E-05-3.25766E-05-5.54134E-06-8.52156E-19-1.07692E-18
 -1       412 1.11099E-04-3.38111E-05-3.31364E-05-5.07545E-06-2.86083E-19 9.92776E-19
 -1       413 1.13493E-04-3.52784E-05-3.35414E-05-3.42769E-06 5.67120E-19 2.09813E-18
 -1       414 1.15339E-04-3.67961E-05-3.36886E-05-1.25081E-07-3.09921E-19 3.29341E-18
 -1       415 1.15968E-04-3.78444E-05-3.35101E-05 4.97828E-06-6.20154E-19 3.67681E-18
 -1       416 1.14505E-04-3.74957E-05-3.30278E-05 1.11249E-05 5.50340E-20 3.25092E-18
 -1       417 1.10286E-04-3.47821E-05-3.23726E-05 1.61430E-05-1.22754E-18 3.15779E-18
 -1       418 1.03828E-04-2.98288E-05-3.17247E-05 1.68786E-05-1.06342E-20 3.94844E-18
 -1       419 9.75205E-05-2.48485E-05-3.11746E-05 1.13902E-05 8.65165E-20 2.48846E-18
 -1       420 9.46565E-05-2.32174E-05-3.06494E-05 2.07489E-06 9.98665E-19 9.63981E-19
 -1       421 9.60308E-05-2.57528E-05-3.01211E-05-5.98457E-06 2.30199E-18-1.15370E-18
 -1       422 9.91872E-05-2.98244E-05-2.97208E-05-8.59801E-06 2.59637E-18 6.13047E-19
 -1       423 1.01139E-04-3.23311E-05-2.94965E-05-6.21837E-06 7.28880E-19 2.76865E-18
 -1       424 1.00731E-04-3.22198E-05-2.93731E-05-2.14166E-06 1.07923E-18 2.34724E-18
 -1       425 9.86229E-05-3.04000E-05-2.92442E-05 5.62215E-07 5.85871E-19 2.10406E-18
 -1       426 9.71492E-05-2.91052E-05-2.91561E-05 1.18753E-06 8.86599E-19 3.51471E-18
 -1       427 1.01245E-04-2.80582E-05-3.13334E-05 1.88200E-05-1.41393E-18 1.81833E-18
 -1       428 1.01519E-04-3.02490E-05-3.05234E-05 1.00730E-05-1.14206E-18 2.16504E-18
 -1       429 9.92327E-05-2.96542E-05-2.97997E-05 4.45883E-06-1.41443E-19 1.84893E-18
 -1       430 9.65018E-05-2.21628E-05-3.18322E-05 2.61194E-05-2.58004E-18-3.27345E-18
 -1       431 8.68031E-05-1.24411E-05-3.18307E-05 2.66747E-05-1.08552E-18-1.75159E-18
 -1       432 7.64581E-05-2.78253E-06-3.15095E-05 1.58214E-05 1.66242E-18 2.79815E-18
 -1       433 7.27045E-05 5.48076E-07-3.13516E-05-3.22750E-06 5.80584E-19 2.90425E-18
 -1       434 7.87525E-05-5.14235E-06-3.15169E-05-2.08848E-05-7.60880E-19 7.24934E-19
 -1       435 8.98357E-05-1.57424E-05-3.17104E-05-2.87190E-05 5.90400E-20-1.16870E-18
 -1       436 9.84812E-05-2.48371E-05-3.15357E-05-2.58745E-05 1.36329E-18-1.20250E-18
 -1       437 1.02331E-04-3.01302E-05-3.09039E-05-1.73894E-05 2.04066E-18 1.71525E-18
 -1       438 1.02198E-04-3.19103E-05-3.00800E-05-8.31062E-06 2.24198E-18 1.94867E-19
 -1       439 9.98758E-05-3.15044E-05-2.92734E-05-1.33210E-06 4.20237E-19-1.83218E-18
 -1       440 7.07205E-05-4.84748E-05-9.43666E-06 5.24220E-05 1.56458E-18 1.90424E-18
 -1       441 1.59748E-05-2.39464E-05 3.18963E-06 7.44654E-07-2.12038E-18 2.43035E-18
 -1       442 2.82536E-05-3.08135E-05 7.89430E-07 3.18083E-05-3.59354E-19 3.27537E-18
 -1       443 1.22332E-04-6.26343E-05-2.55988E-05 4.60515E-05 9.50583E-19 1.27309E-18
 -1       444 1.49864E-04-5.70437E-05-3.96396E-05 3.22262E-05 3.45642E-19 1.85394E-19
 -1       445 8.94240E-05-1.19256E-05-3.32761E-05-1.07571E-05-2.92628E-18-4.23412E-18
 -1       446 1.63993E-04-2.15419E-05-6.11322E-05 1.09176E-06 4.29795E-18-5.19348E-18
 -1       447 1.68727E-04-1.33833E-05-6.63448E-05 7.17822E-06 4.50505E-18-5.65336E-18
 -1       448 1.67209E-04-1.88981E-05-6.34338E-05 1.03419E-05 4.50007E-18-4.02881E-18
 -1       449 1.65937E-04-4.14913E-05-5.32173E-05 1.61909E-06 1.08023E-18-3.91414E-18
 -1       450 1.50989E-04-5.62782E-05-4.05655E-05-1.46715E-05 4.00223E-20-4.89670E-18
 -1       451 1.24436E-04-6.36597E-05-2.60886E-05-3.04751E-05-1.32698E-18-4.91597E-18
 -1       452 8.44892E-05-5.60649E-05-1.21434E-05-4.17676E-05-9.65618E-20-1.83375E-18
 -1       453 3.50562E-05-3.78953E-05 1.03358E-06-3.23989E-05 1.78057E-18-1.97221E-18
 -1       454 1.49440E-05-3.03633E-05 6.38841E-06-1.25672E-05 1.48916E-18-3.31052E-18
 -1       455 1.76938E-05-2.66884E-05 4.08403E-06 1.74252E-05 2.08608E-19-3.36770E-18
 -1       456 4.07483E-05-4.07355E-05-2.54041E-07 3.79216E-05 1.00024E-18-3.14747E-18
 -1       457 8.68069E-05-5.53801E-05-1.34351E-05 4.47104E-05-8.01399E-19-1.92689E-18
 -1       458 1.25636E-04-6.23488E-05-2.71648E-05 3.23385E-05 7.60212E-20-3.55553E-18
 -1       459 1.52033E-04-5.39618E-05-4.20598E-05 1.43597E-05-1.20284E-18-2.86064E-18
 -1       460 1.64629E-04-3.55262E-05-5.52805E-05-2.47801E-06-2.54602E-18-1.55251E-18
 -1       461 1.69430E-04-1.89893E-05-6.42571E-05-6.68804E-06-2.09090E-18-1.66691E-18
 -1       462 1.71278E-04-1.35736E-05-6.72396E-05-5.53982E-06-1.45774E-18-2.68701E-18
 -1       463 1.68647E-04-2.23676E-05-6.24950E-05-4.40422E-06-1.02036E-18-1.27118E-18
 -1       464 1.64897E-04-4.25074E-05-5.23188E-05-1.40616E-05-7.02773E-19-1.90402E-18
 -1       465 1.50336E-04-5.78876E-05-3.95915E-05-2.84997E-05-2.06840E-18-6.57287E-18
 -1       466 1.09633E-04-6.00359E-05-2.12716E-05-5.06887E-05-1.74446E-18-2.64094E-18
 -1       467 7.18057E-05-4.99179E-05-9.51662E-06-5.28785E-05-6.10923E-19 1.99635E-18
 -1       468 3.21912E-05-3.40727E-05 3.81469E-07-3.72101E-05-1.82694E-18 3.25525E-18
 -1       469 1.67968E-04-4.22953E-05-5.35204E-05 1.56478E-05 1.84415E-18-1.33704E-18
 -1       470 1.06641E-04-5.95549E-05-1.99107E-05 5.15148E-05-2.84021E-19 7.70271E-20
 -1       471 1.38376E-04-6.65955E-05-3.07075E-05-3.56042E-05-6.79320E-19-6.82147E-18
 -1       472 6.72184E-05-4.53440E-05-8.93641E-06-4.17024E-05 9.52171E-19-1.50084E-18
 -1       473 1.52691E-04-2.70585E-05-5.42364E-05 1.80226E-05 2.29821E-18-3.93553E-19
 -1       474 9.58255E-05-2.51499E-05-3.02753E-05 6.01410E-06 3.24467E-18 2.01988E-19
 -1       475 8.95346E-05-1.33990E-05-3.26485E-05-3.92173E-06-9.96223E-19-4.76423E-18
 -1       476 9.02465E-05-1.43652E-05-3.25408E-05-5.87652E-06-1.65295E-18-4.50284E-18
 -1       477 8.90362E-05-1.27186E-05-3.27253E-05 5.46022E-08 3.62576E-19-4.67695E-18
 -1       478 8.91718E-05-1.29022E-05-3.27050E-05 2.04496E-06 1.04963E-18-4.55759E-18
 -1       479 8.95672E-05-1.34397E-05-3.26452E-05 3.99690E-06 1.75981E-18-4.22953E-18
 -1       480 9.02925E-05-1.44269E-05-3.25349E-05 5.94956E-06 2.62828E-18-3.77052E-18
 -1       481 9.14433E-05-1.60070E-05-3.23529E-05 7.77723E-06 3.15631E-18-3.14609E-18
 -1       482 9.32334E-05-1.84784E-05-3.20580E-05 9.29207E-06 3.60344E-18-2.23524E-18
 -1       483 9.51183E-05-2.65790E-05-2.93560E-05 2.87033E-06 2.52846E-18-5.05821E-20
 -1       484 9.54853E-05-2.44347E-05-3.04404E-05-5.81625E-06-2.78028E-18-1.67617E-18
 -1       485 1.50512E-04-3.58319E-05-4.96664E-05-5.88750E-06 2.73454E-18-2.91231E-18
 -1       486 9.52771E-05-2.62238E-05-2.95860E-05-2.89231E-06-2.26664E-18-1.38918E-18
 -1       487 9.49221E-05-2.71631E-05-2.90356E-05-1.02767E-06-1.67452E-18-1.21350E-18
 -1       488 9.46459E-05-2.76946E-05-2.86918E-05 9.50522E-08-1.20202E-18-1.38188E-18
 -1       489 9.44892E-05-2.80210E-05-2.84858E-05 7.29808E-07-1.11305E-18-1.45141E-18
 -1       490 9.44340E-05-2.82330E-05-2.83718E-05 1.04686E-06-9.74358E-19-1.73639E-18
 -1       491 9.44493E-05-2.83744E-05-2.83180E-05 1.16108E-06-7.00619E-19-1.98982E-18
 -1       492 9.45079E-05-2.84688E-05-2.83028E-05 1.15036E-06-8.38331E-19-1.69814E-18
 -1       493 9.45893E-05-2.85305E-05-2.83113E-05 1.06756E-06-8.09173E-19-1.24310E-18
 -1       494 9.46792E-05-2.85687E-05-2.83335E-05 9.48512E-07-2.52849E-19-1.14852E-18
 -1       495 9.47690E-05-2.85897E-05-2.83629E-05 8.17408E-07-3.76167E-19-8.88664E-19
 -1       496 9.48536E-05-2.85981E-05-2.83955E-05 6.90473E-07-2.77584E-19-1.81217E-18
 -1       497 9.49313E-05-2.85971E-05-2.84292E-05 5.78606E-07-5.15848E-19-1.78567E-18
 -1       498 9.50022E-05-2.85890E-05-2.84630E-05 4.89344E-07-1.06750E-18-1.48267E-18
 -1       499 9.50682E-05-2.85752E-05-2.84971E-05 4.28340E-07-9.38303E-19-1.73666E-18
 -1       500 9.51322E-05-2.85567E-05-2.85324E-05 4.00473E-07-4.91767E-19-1.91566E-18
 -1       501 9.51982E-05-2.85338E-05-2.85704E-05 4.10678E-07-6.54965E-19-2.13451E-18
 -1       502 9.52713E-05-2.85070E-05-2.86131E-05 4.64543E-07 2.38046E-19-2.13502E-18
 -1       503 9.53572E-05-2.84766E-05-2.86629E-05 5.68671E-07 5.69110E-19-2.25065E-18
 -1       504 9.54628E-05-2.84430E-05-2.87224E-05 7.30804E-07 8.85425E-19-2.24554E-18
 -1       505 9.55961E-05-2.84078E-05-2.87945E-05 9.59643E-07 6.24481E-19-1.71209E-18
 -1       506 9.57664E-05-2.83734E-05-2.88820E-05 1.26426E-06 7.94996E-19-1.69162E-18
 -1       507 9.59845E-05-2.83446E-05-2.89877E-05 1.65292E-06-3.63636E-19-1.45243E-18
 -1       508 9.62631E-05-2.83297E-05-2.91132E-05 2.13116E-06-1.04586E-19-2.99853E-18
 -1       509 9.66171E-05-2.83423E-05-2.92595E-05 2.69863E-06 2.66446E-19-2.50694E-18
 -1       510 9.70655E-05-2.84041E-05-2.94250E-05 3.34443E-06 2.81505E-19-1.80507E-18
 -1       511 9.76323E-05-2.85492E-05-2.96058E-05 4.04044E-06 1.96212E-19-1.70972E-18
 -1       512 9.83503E-05-2.88285E-05-2.97941E-05 4.73201E-06-3.96077E-19-2.04327E-18
 -1       513 9.92650E-05-2.93144E-05-2.99784E-05 5.32597E-06 1.23357E-19-9.63818E-19
 -1       514 1.00438E-04-3.01025E-05-3.01444E-05 5.67636E-06-7.70153E-20-1.37876E-18
 -1       515 1.01945E-04-3.13015E-05-3.02783E-05 5.57049E-06-1.32051E-18-1.60896E-18
 -1       516 1.03860E-04-3.29978E-05-3.03747E-05 4.72241E-06-3.11333E-19-9.07478E-19
 -1       517 1.06200E-04-3.51715E-05-3.04490E-05 2.79086E-06 6.54116E-19-4.63937E-19
 -1       518 1.08811E-04-3.75431E-05-3.05541E-05-5.41767E-07 2.65858E-19 1.51555E-18
 -1       519 1.11190E-04-3.93756E-05-3.07890E-05-5.35651E-06 3.58857E-19 6.40613E-19
 -1       520 1.12407E-04-3.94473E-05-3.12841E-05-1.10877E-05-3.15909E-19-7.30102E-19
 -1       521 1.11398E-04-3.65022E-05-3.21042E-05-1.61177E-05 4.69705E-19-3.43071E-18
 -1       522 1.07735E-04-3.03455E-05-3.31864E-05-1.76976E-05 8.59732E-19-1.79658E-18
 -1       523 1.03039E-04-2.35078E-05-3.41203E-05-1.38122E-05-8.57935E-19 1.89301E-18
 -1       524 1.00413E-04-2.02496E-05-3.43904E-05-5.32239E-06-1.42711E-18 2.15430E-18
 -1       525 1.01376E-04-2.26322E-05-3.37762E-05 3.28003E-06-1.26810E-19 5.09758E-19
 -1       526 1.04287E-04-2.83804E-05-3.25406E-05 7.65615E-06 1.11751E-18 3.88316E-19
 -1       527 1.05934E-04-3.30423E-05-3.12432E-05 7.11719E-06 6.20560E-19-5.43855E-19
 -1       528 1.04800E-04-3.43008E-05-3.02136E-05 3.97641E-06-1.15645E-18-9.27724E-19
 -1       529 9.41495E-05-2.76883E-05-2.84799E-05-1.24063E-07 1.57993E-18-8.25802E-19
 -1       530 9.39735E-05-2.79351E-05-2.83009E-05-7.33399E-07 1.09683E-18-1.13112E-18
 -1       531 9.39436E-05-2.81068E-05-2.82155E-05-1.03071E-06 8.66769E-19-1.13716E-18
 -1       532 9.40070E-05-2.82330E-05-2.81890E-05-1.13292E-06 6.04492E-19-1.21093E-18
 -1       533 9.41229E-05-2.83279E-05-2.81983E-05-1.11644E-06 3.54244E-19-1.07109E-18
 -1       534 9.42628E-05-2.83991E-05-2.82279E-05-1.03210E-06 4.20706E-19-9.77099E-19
 -1       535 9.44078E-05-2.84516E-05-2.82675E-05-9.13905E-07 6.90404E-19-1.26002E-18
 -1       536 9.45469E-05-2.84893E-05-2.83110E-05-7.84588E-07 2.18134E-19-9.06435E-19
 -1       537 9.46744E-05-2.85150E-05-2.83545E-05-6.59220E-07 6.33099E-19-9.80139E-19
 -1       538 9.47883E-05-2.85311E-05-2.83963E-05-5.47795E-07 7.34454E-19-1.17167E-18
 -1       539 9.48895E-05-2.85398E-05-2.84359E-05-4.57110E-07 3.18151E-19-7.75960E-19
 -1       540 9.49810E-05-2.85425E-05-2.84738E-05-3.92169E-07 5.42584E-19-1.06536E-18
 -1       541 9.50671E-05-2.85407E-05-2.85114E-05-3.57270E-07 6.14463E-19-5.70227E-20
 -1       542 9.51536E-05-2.85353E-05-2.85506E-05-3.56839E-07 9.61586E-20-1.75716E-20
 -1       543 9.52473E-05-2.85275E-05-2.85940E-05-3.96096E-07-2.75132E-19-5.11615E-20
 -1       544 9.53565E-05-2.85181E-05-2.86447E-05-4.81558E-07-1.26811E-19-3.98781E-19
 -1       545 9.54906E-05-2.85083E-05-2.87061E-05-6.21413E-07 5.43322E-19-1.86244E-18
 -1       546 9.56606E-05-2.84994E-05-2.87825E-05-8.25731E-07 1.16032E-18-1.53796E-18
 -1       547 9.58791E-05-2.84933E-05-2.88785E-05-1.10647E-06 4.40237E-19-9.67750E-19
 -1       548 9.61605E-05-2.84927E-05-2.89990E-05-1.47715E-06-1.65054E-19-1.67004E-18
 -1       549 9.65206E-05-2.85018E-05-2.91491E-05-1.95203E-06-5.74065E-19-1.95123E-18
 -1       550 9.69771E-05-2.85274E-05-2.93333E-05-2.54434E-06-5.74286E-19-2.11789E-18
 -1       551 9.75495E-05-2.85806E-05-2.95554E-05-3.26318E-06-1.89873E-19-1.84801E-18
 -1       552 9.82594E-05-2.86803E-05-2.98166E-05-4.10801E-06-8.48012E-19-1.59751E-18
 -1       553 9.91327E-05-2.88588E-05-3.01143E-05-5.05952E-06-8.38240E-19-6.77058E-19
 -1       554 1.00203E-04-2.91706E-05-3.04397E-05-6.06512E-06-2.57793E-20 1.11284E-18
 -1       555 1.01519E-04-2.97050E-05-3.07761E-05-7.01702E-06 7.06173E-19-2.16747E-20
 -1       556 1.03158E-04-3.05989E-05-3.10978E-05-7.72165E-06-6.97919E-19 7.52947E-19
 -1       557 1.05232E-04-3.20387E-05-3.13738E-05-7.86245E-06-9.35686E-19 9.51660E-19
 -1       558 1.07880E-04-3.42209E-05-3.15793E-05-6.96766E-06-6.35644E-19 1.70170E-18
 -1       559 1.11188E-04-3.72092E-05-3.17228E-05-4.42006E-06-6.06118E-19 2.24311E-18
 -1       560 1.14968E-04-4.06145E-05-3.18882E-05 3.99262E-07-6.49972E-19 2.55356E-18
 -1       561 1.18353E-04-4.31149E-05-3.22732E-05 7.63661E-06-5.56594E-19 2.91926E-18
 -1       562 1.19602E-04-4.23797E-05-3.31387E-05 1.59971E-05-7.01042E-19 5.51107E-18
 -1       563 1.16897E-04-3.63339E-05-3.45760E-05 2.17501E-05-9.25706E-19 4.78537E-18
 -1       564 1.10767E-04-2.66386E-05-3.60946E-05 1.99790E-05 7.31228E-19 3.92346E-18
 -1       565 1.04096E-04-1.91013E-05-3.68541E-05 9.43524E-06 1.68372E-18 3.07142E-18
 -1       566 1.05827E-04-2.20439E-05-3.60505E-05-3.58750E-06 2.70179E-18 1.06554E-18
 -1       567 1.10398E-04-3.05847E-05-3.42337E-05-9.88711E-06 1.99730E-18-1.63110E-19
 -1       568 1.12596E-04-3.72869E-05-3.23248E-05-7.91740E-06 2.73353E-19 6.11687E-19
 -1       569 1.10479E-04-3.84070E-05-3.09256E-05-1.91878E-06 9.90923E-19 1.18286E-18
 -1       570 1.05453E-04-3.50021E-05-3.01946E-05 3.14658E-06 8.29798E-19 2.78685E-18
 -1       571 9.77012E-05-3.15830E-05-2.82242E-05 3.55790E-05-1.29905E-18-1.13256E-18
 -1       572 7.69531E-05-1.78359E-05-2.51752E-05 3.19863E-05 4.54963E-19 2.25443E-18
 -1       573 1.11046E-04-3.89523E-05-3.08596E-05 1.46218E-05-4.64752E-19 7.23920E-19
 -1       574 1.09404E-04-3.86525E-05-3.02853E-05 2.66072E-05-2.97271E-18-9.89375E-19
 -1       575 6.06852E-05-6.16043E-06-2.29296E-05 1.08925E-05 1.23949E-18 3.79042E-18
 -1       576 6.31888E-05-8.50250E-06-2.30490E-05-1.87127E-05 8.20868E-19 3.67202E-19
 -1       577 8.25087E-05-2.19133E-05-2.57843E-05-3.64333E-05 9.09422E-19 5.79450E-19
 -1       578 1.01917E-04-3.42154E-05-2.89291E-05-3.54086E-05 1.31736E-18-2.32109E-18
 -1       579 1.11150E-04-3.97566E-05-3.05472E-05-2.50710E-05-2.13687E-19 9.82174E-20
 -1       580 1.11344E-04-3.91326E-05-3.09313E-05-1.28861E-05-9.43684E-19 8.53562E-19
 -1       581 1.06830E-04-3.59221E-05-3.03912E-05-3.47062E-06-1.66503E-18-1.08855E-18
 -1       582 3.49560E-05-1.58122E-05-7.73977E-06-2.34199E-05 4.42548E-19 1.77983E-19
 -1       583 9.45265E-05-2.72952E-05-2.88048E-05 9.79487E-07 1.84829E-18-4.49662E-19
 -1       584 3.78645E-05-1.47616E-05-9.18678E-06 2.05895E-05-1.43546E-19 4.54137E-18
 -1       585 6.67286E-05-3.61530E-05-1.22725E-05-4.80818E-05 2.62887E-18 2.17026E-18
 -1       586 9.46326E-05-2.07704E-05-3.16763E-05-9.51202E-06-3.31160E-18-2.33633E-18
 -1       587 1.50451E-04-3.24197E-05-5.11010E-05 5.32108E-06-3.06838E-19-2.73359E-18
 -1       588 8.91517E-05-1.28771E-05-3.27071E-05-1.93616E-06-3.08428E-19-4.76861E-18
 -1       589 1.34679E-04-1.05552E-05-5.38793E-05-2.83181E-07 4.54285E-18-6.26222E-19
 -1       590 1.52280E-04-5.31469E-05-4.28778E-05 8.64835E-06-3.21581E-19-1.76506E-18
 -1       591 1.36690E-04-9.26920E-06-5.53300E-05 1.04804E-05 3.18961E-18-1.69472E-18
 -1       592 4.25848E-05-2.79357E-05-5.68064E-06 3.30547E-05 8.28134E-19-1.76156E-18
 -1       593 1.43576E-04-6.63431E-05-3.31951E-05-9.27394E-06-1.14487E-18-4.94185E-18
 -1       594 1.15629E-04-6.46754E-05-2.16780E-05-3.11282E-05-2.49372E-18-4.54380E-18
 -1       595 3.35696E-05-2.48632E-05-3.10950E-06-2.48876E-05 5.89879E-19-3.26097E-18
 -1       596 2.37017E-05-1.72784E-05-2.04049E-06 1.53114E-06 4.92583E-19-4.29689E-18
 -1       597 7.60911E-05-4.67092E-05-1.21598E-05 4.35561E-05 2.02912E-18-3.33313E-18
 -1       598 1.15777E-04-6.37040E-05-2.21581E-05 3.40531E-05 8.04999E-19-1.77576E-18
 -1       599 1.43119E-04-6.45662E-05-3.37721E-05 1.03427E-05-1.85553E-20-6.23152E-19
 -1       600 1.50090E-04-4.84183E-05-4.39817E-05-1.00223E-05-8.85414E-19 1.71868E-18
 -1       601 1.44417E-04-2.29236E-05-5.26330E-05-1.78102E-05-1.60147E-18-1.87247E-19
 -1       602 1.40591E-04-8.30466E-06-5.73556E-05-1.00797E-05-6.20346E-19-1.54102E-18
 -1       603 1.40870E-04-1.04555E-05-5.65120E-05 2.04948E-06-7.57777E-19-1.93825E-18
 -1       604 1.52737E-04-5.42588E-05-4.25916E-05-6.43205E-06-2.11965E-18-2.57217E-18
 -1       605 9.47550E-05-5.17985E-05-1.80067E-05-5.36733E-05 2.13998E-18-7.60847E-19
 -1       606 1.44438E-04-6.71697E-05-3.31761E-05 2.76180E-05-4.43051E-19-2.74015E-19
 -1       607 6.15469E-05-3.15234E-05-1.20553E-05 4.33473E-05-4.53374E-19 4.23225E-18
 -1       608 9.61655E-05-2.31917E-05-3.12780E-05 9.57942E-06 3.72364E-18 7.54192E-19
 -1       609 1.55657E-04-5.71154E-05-4.25284E-05 8.77118E-06 4.19837E-19-1.53403E-18
 -1       610 1.31943E-04-2.33332E-05-4.70554E-05-9.78300E-06 5.23668E-18-1.13910E-18
 -1       611 9.13370E-05-1.59023E-05-3.23639E-05-7.66857E-06-2.35308E-18-4.13107E-18
 -1       612 8.82908E-05-4.29092E-05-1.87325E-05 5.00941E-05 6.75085E-19-7.52774E-19
 -1       613 1.45871E-04-6.24384E-05-3.58458E-05-1.65553E-05-1.30784E-18-1.63313E-18
 -1       614 1.28581E-04-6.39364E-05-2.75683E-05 3.75461E-05-1.13042E-18-7.87807E-19
 -1       615 1.02663E-04-3.34073E-05-2.96800E-05 1.94968E-06-1.37821E-18-1.09889E-18
 -1       616 1.20961E-04-6.09053E-05-2.54144E-05-4.35109E-05 8.69638E-19-5.29470E-18
 -1       617 3.89915E-05-1.85926E-05-8.16221E-06 1.92435E-05 1.00547E-18-3.04323E-18
 -1       618 9.67655E-05-5.47927E-05-1.76433E-05-3.64535E-05 4.96944E-19-1.76763E-18
 -1       619 1.31537E-04-1.59979E-05-5.01280E-05 1.99033E-05 2.62490E-18 9.39360E-19
 -1       620 1.45005E-04-4.00876E-05-4.54417E-05 2.25772E-05 9.86396E-19-8.30198E-19
 -1       621 9.15476E-05-1.68473E-05-3.20200E-05 2.43942E-06 1.28735E-18-3.68145E-18
 -1       622 9.12886E-05-1.64452E-05-3.20811E-05 8.40196E-07 5.11057E-19-4.18187E-18
 -1       623 9.28904E-05-1.89985E-05-3.16735E-05 5.25972E-06 2.56307E-18-3.09067E-18
 -1       624 9.39836E-05-2.09282E-05-3.13174E-05 6.13940E-06 2.92889E-18-2.27019E-18
 -1       625 9.52749E-05-2.40956E-05-3.04951E-05 5.14409E-06 2.86044E-18-1.56376E-18
 -1       626 1.26632E-04-1.46373E-05-4.85509E-05-1.69545E-05 4.50622E-19-3.46291E-19
 -1       627 9.53379E-05-2.59393E-05-2.97383E-05 2.60054E-06 2.28724E-18-1.45697E-18
 -1       628 8.84389E-05-3.93057E-05-2.05082E-05-4.96651E-05 3.37548E-18 1.78009E-19
 -1       629 9.54136E-05-2.57007E-05-2.98748E-05-2.43909E-06-1.78370E-18-2.18116E-18
 -1       630 9.54755E-05-2.69467E-05-2.93688E-05-8.65078E-07-1.45895E-18-2.03793E-18
 -1       631 9.54192E-05-2.77062E-05-2.90196E-05 1.37106E-07-1.10116E-18-1.99753E-18
 -1       632 9.53433E-05-2.81793E-05-2.87846E-05 7.24609E-07-1.25847E-18-1.91512E-18
 -1       633 9.52787E-05-2.84711E-05-2.86319E-05 1.02489E-06-8.48175E-19-1.84363E-18
 -1       634 9.52331E-05-2.86454E-05-2.85377E-05 1.13529E-06-4.09590E-19-1.96673E-18
 -1       635 9.52052E-05-2.87420E-05-2.84843E-05 1.12604E-06-4.48356E-19-1.52778E-18
 -1       636 9.51909E-05-2.87869E-05-2.84590E-05 1.04704E-06-3.57758E-19-1.11866E-18
 -1       637 9.51862E-05-2.87973E-05-2.84525E-05 9.33289E-07-4.68108E-19-1.56211E-18
 -1       638 9.51878E-05-2.87848E-05-2.84585E-05 8.08933E-07-1.00266E-18-1.69586E-18
 -1       639 9.51934E-05-2.87570E-05-2.84728E-05 6.90548E-07-3.57210E-19-1.61631E-18
 -1       640 9.52017E-05-2.87188E-05-2.84927E-05 5.89594E-07-1.96751E-19-1.88694E-18
 -1       641 9.52117E-05-2.86727E-05-2.85168E-05 5.14351E-07-8.93223E-19-8.19405E-19
 -1       642 9.52232E-05-2.86196E-05-2.85444E-05 4.71374E-07-1.56150E-18-8.95443E-19
 -1       643 9.52362E-05-2.85592E-05-2.85759E-05 4.66602E-07-6.64389E-19-1.29517E-18
 -1       644 9.52513E-05-2.84903E-05-2.86118E-05 5.06174E-07-1.20398E-19-1.27613E-18
 -1       645 9.52689E-05-2.84111E-05-2.86533E-05 5.96979E-07 1.41963E-19-1.37662E-18
 -1       646 9.52903E-05-2.83198E-05-2.87016E-05 7.46958E-07 5.22663E-19-1.77511E-18
 -1       647 9.53168E-05-2.82149E-05-2.87578E-05 9.65117E-07 1.12870E-18-2.61785E-18
 -1       648 9.53505E-05-2.80961E-05-2.88232E-05 1.26120E-06 7.69100E-19-1.52224E-18
 -1       649 9.53948E-05-2.79653E-05-2.88981E-05 1.64493E-06 7.70923E-20-2.03465E-18
 -1       650 9.54547E-05-2.78285E-05-2.89824E-05 2.12463E-06-6.92510E-19-2.32084E-18
 -1       651 9.55389E-05-2.76980E-05-2.90743E-05 2.70512E-06 3.49082E-20-1.54167E-18
 -1       652 9.56615E-05-2.75963E-05-2.91704E-05 3.38457E-06 4.91907E-19-2.30436E-18
 -1       653 9.58468E-05-2.75612E-05-2.92648E-05 4.15011E-06 3.64536E-19-2.38841E-18
 -1       654 9.61350E-05-2.76527E-05-2.93491E-05 4.97177E-06-8.08525E-20-1.73945E-18
 -1       655 9.65919E-05-2.79615E-05-2.94127E-05 5.79431E-06 8.27159E-19-1.09040E-18
 -1       656 9.73204E-05-2.86164E-05-2.94445E-05 6.52606E-06 4.45859E-20-8.54644E-19
 -1       657 9.84732E-05-2.97866E-05-2.94375E-05 7.02341E-06-1.08455E-18-5.84514E-19
 -1       658 1.00257E-04-3.16642E-05-2.93980E-05 7.06878E-06-6.13661E-19 1.95949E-19
 -1       659 1.02905E-04-3.44036E-05-2.93602E-05 6.34212E-06 1.93827E-19 5.35148E-19
 -1       660 1.06591E-04-3.79757E-05-2.94108E-05 4.39751E-06 9.45412E-19-3.76070E-19
 -1       661 1.11202E-04-4.18863E-05-2.97123E-05 6.95762E-07-1.92895E-19-1.18129E-18
 -1       662 1.15966E-04-4.47678E-05-3.05174E-05-5.16104E-06-9.98514E-19-1.46119E-18
 -1       663 1.19115E-04-4.40568E-05-3.21869E-05-1.28579E-05-1.67260E-18-1.45068E-18
 -1       664 1.18587E-04-3.81597E-05-3.45181E-05-1.93895E-05 9.97063E-19-1.49508E-18
 -1       665 1.13056E-04-2.67692E-05-3.71226E-05-1.98629E-05 2.31887E-18-3.53209E-18
 -1       666 1.08123E-04-1.73706E-05-3.90826E-05-1.20204E-05-2.74293E-19-7.48225E-19
 -1       667 1.07691E-04-1.68238E-05-3.91548E-05 2.12456E-07-4.95091E-19 2.52926E-18
 -1       668 1.11911E-04-2.53881E-05-3.72660E-05 8.17588E-06-5.69497E-20 3.31849E-18
 -1       669 1.15961E-04-3.54169E-05-3.45494E-05 7.90283E-06-8.15564E-19 2.23581E-18
 -1       670 1.14930E-04-3.96310E-05-3.23053E-05 2.77054E-06-1.78283E-18 6.22882E-19
 -1       671 9.49849E-05-2.81161E-05-2.86578E-05-7.39559E-07 1.05568E-18-1.32262E-18
 -1       672 1.22599E-04-8.93494E-06-4.93224E-05-4.24141E-06-2.14723E-19-5.97853E-19
 -1       673 9.50960E-05-2.77096E-05-2.88793E-05-1.30874E-07 1.33718E-18-1.40690E-18
 -1       674 9.49017E-05-2.85294E-05-2.84454E-05-1.15942E-06 4.73482E-19-1.31398E-18
 -1       675 9.49096E-05-2.86241E-05-2.84082E-05-1.14851E-06 4.07597E-19-1.58442E-18
 -1       676 9.49353E-05-2.86758E-05-2.83971E-05-1.06640E-06 6.78262E-19-1.44247E-18
 -1       677 9.49706E-05-2.86981E-05-2.84027E-05-9.48663E-07 5.56753E-19-1.45613E-18
 -1       678 9.50098E-05-2.87004E-05-2.84185E-05-8.19655E-07 3.39111E-19-1.60518E-18
 -1       679 9.50495E-05-2.86889E-05-2.84404E-05-6.95910E-07 4.07404E-19-8.34376E-19
 -1       680 9.50882E-05-2.86678E-05-2.84660E-05-5.88739E-07 2.61342E-19-6.80087E-19
 -1       681 9.51255E-05-2.86393E-05-2.84942E-05-5.06201E-07 3.04350E-19-4.11534E-19
 -1       682 9.51622E-05-2.86046E-05-2.85247E-05-4.54593E-07-2.92995E-19 3.09217E-20
 -1       683 9.51997E-05-2.85639E-05-2.85582E-05-4.39613E-07-4.53833E-21 8.08662E-19
 -1       684 9.52400E-05-2.85163E-05-2.85958E-05-4.67257E-07 2.10100E-19 6.47969E-19
 -1       685 9.52857E-05-2.84607E-05-2.86392E-05-5.44494E-07-9.21212E-20-1.96417E-20
 -1       686 9.53396E-05-2.83952E-05-2.86903E-05-6.79752E-07 6.76965E-19-3.99215E-19
 -1       687 9.54051E-05-2.83178E-05-2.87515E-05-8.83218E-07 1.34602E-18-8.47615E-19
 -1       688 9.54857E-05-2.82264E-05-2.88251E-05-1.16691E-06 8.10982E-19-5.88509E-19
 -1       689 9.55852E-05-2.81196E-05-2.89134E-05-1.54445E-06 7.28854E-20-1.52192E-19
 -1       690 9.57075E-05-2.79969E-05-2.90183E-05-2.03043E-06-5.61849E-20-7.75854E-19
 -1       691 9.58571E-05-2.78606E-05-2.91406E-05-2.63914E-06-5.68580E-19-7.06993E-19
 -1       692 9.60394E-05-2.77179E-05-2.92798E-05-3.38241E-06-6.64257E-19-7.38565E-19
 -1       693 9.62632E-05-2.75854E-05-2.94323E-05-4.26610E-06-6.28037E-19 1.52092E-19
 -1       694 9.65446E-05-2.74960E-05-2.95911E-05-5.28468E-06-4.67069E-19-8.82114E-19
 -1       695 9.69162E-05-2.75108E-05-2.97440E-05-6.41307E-06-1.16045E-18-8.92929E-19
 -1       696 9.74422E-05-2.77365E-05-2.98728E-05-7.59467E-06 2.15757E-19-1.60345E-19
 -1       697 9.82449E-05-2.83489E-05-2.99549E-05-8.72351E-06-5.41286E-19 1.10173E-18
 -1       698 9.95400E-05-2.96152E-05-2.99683E-05-9.61741E-06-3.85935E-19-6.91171E-19
 -1       699 1.01674E-04-3.18960E-05-2.99071E-05-9.97489E-06-8.42251E-19-3.25036E-19
 -1       700 1.05121E-04-3.55703E-05-2.98124E-05-9.30548E-06-3.75947E-19-1.23295E-19
 -1       701 1.10343E-04-4.07588E-05-2.98265E-05-6.84423E-06-1.05489E-18-4.46680E-19
 -1       702 1.17346E-04-4.67121E-05-3.02764E-05-1.55786E-06-1.53799E-18 1.26565E-18
 -1       703 1.24713E-04-5.06511E-05-3.17526E-05 7.26563E-06-2.63683E-18 2.99435E-18
 -1       704 1.29021E-04-4.78802E-05-3.48713E-05 1.84193E-05-6.06793E-19 3.58507E-18
 -1       705 1.25880E-04-3.46665E-05-3.94417E-05 2.52450E-05 2.73062E-19 4.02217E-18
 -1       706 1.26348E-04-4.15051E-05-3.65382E-05-8.82426E-06 9.46387E-19-1.47044E-18
 -1       707 1.23399E-04-4.64829E-05-3.29635E-05 9.48932E-08-9.26369E-19 2.07126E-21
 -1       708 1.18628E-04-4.52785E-05-3.14322E-05 8.81140E-06-2.00776E-18 9.27571E-19
 -1       709 1.11404E-04-3.86072E-05-3.12043E-05-8.28432E-07-2.37001E-18-9.50283E-19
 -1       710 9.07723E-05-3.65165E-05-2.28847E-05 4.46324E-05-1.17626E-18-3.41857E-19
 -1       711 1.19652E-04-5.06352E-05-2.95304E-05-3.20918E-05-2.59602E-19-2.98850E-18
 -1       712 1.22671E-04-4.86675E-05-3.17251E-05-1.54524E-05-1.73819E-18-3.89357E-19
 -1       713 9.52356E-05-2.70435E-05-2.92233E-05 9.21378E-07 2.03798E-18-1.49769E-18
 -1       714 1.39170E-04-4.20333E-05-4.20121E-05 6.35086E-06-1.14540E-18-2.99590E-18
 -1       715 1.42734E-04-4.93941E-05-4.04638E-05-4.92805E-06 1.29190E-18-8.92296E-19
 -1       716 1.30191E-04-2.09772E-05-4.73174E-05 8.77666E-06 1.58660E-19-1.38572E-18
 -1       717 9.41763E-05-2.09771E-05-3.13708E-05-7.05802E-06-2.56243E-18-2.94067E-18
 -1       718 6.88503E-05-3.37403E-05-1.45940E-05 3.46147E-05 9.38804E-19-1.13857E-18
 -1       719 9.49227E-05-2.83709E-05-2.85222E-05-1.04763E-06 7.61118E-19-1.25941E-18
 -1       720 1.31228E-04-6.49327E-05-2.84475E-05-1.16473E-05-2.61155E-18-4.95526E-18
 -1       721 9.50859E-05-2.38609E-05-3.05255E-05-4.47399E-06-2.13008E-18-2.54894E-18
 -1       722 9.20731E-05-1.76747E-05-3.18909E-05 3.94830E-06 2.01209E-18-3.33803E-18
 -1       723 6.19112E-05-3.26043E-05-1.20275E-05-3.31397E-05-8.68897E-19-1.46060E-18
 -1       724 9.20339E-05-1.76183E-05-3.18978E-05-3.89274E-06-1.25913E-18-3.98990E-18
 -1       725 1.42185E-04-5.91286E-05-3.58426E-05 1.00009E-05-1.27523E-18-9.07702E-19
 -1       726 1.00701E-04-5.37662E-05-1.98928E-05 3.47084E-05 2.65288E-18-2.33700E-18
 -1       727 3.74774E-05-1.70101E-05-8.16954E-06-1.24263E-05-5.15658E-19-3.42016E-18
 -1       728 1.43632E-04-6.04799E-05-3.58926E-05 9.19373E-06-4.14649E-20-6.24449E-19
 -1       729 1.30612E-04-6.45426E-05-2.82966E-05 1.56230E-05 1.56522E-18-1.21942E-18
 -1       730 1.36424E-04-3.58531E-05-4.35436E-05-2.08416E-05 1.05059E-19 2.79611E-18
 -1       731 1.41068E-04-5.67882E-05-3.63703E-05-7.40949E-06-3.67061E-19 2.74992E-18
 -1       732 9.28567E-05-1.89132E-05-3.16941E-05-5.28791E-06-1.81645E-18-3.86767E-18
 -1       733 9.12812E-05-1.64358E-05-3.20820E-05-7.82957E-07-8.37122E-20-4.19425E-18
 -1       734 1.10510E-04-5.22201E-05-2.47796E-05 4.30238E-05-4.33496E-19-1.17907E-18
 -1       735 1.33585E-04-6.15227E-05-3.08782E-05-2.83943E-05-9.71216E-19-2.03089E-18
 -1       736 1.36110E-04-6.15635E-05-3.19038E-05 2.08372E-05-1.69458E-18-1.42434E-19
 -1       737 1.18497E-04-6.02695E-05-2.47919E-05-2.12442E-05-1.17920E-18-4.67235E-18
 -1       738 1.21673E-04-5.06260E-05-3.04481E-05 2.30517E-05-1.84141E-18-5.90528E-19
 -1       739 9.15253E-05-1.68167E-05-3.20234E-05-2.38012E-06-6.94800E-19-4.24332E-18
 -1       740 1.12870E-04-4.81249E-05-2.75515E-05 3.67373E-05-1.25112E-18-1.84159E-18
 -1       741 1.39306E-04-5.18822E-05-3.77280E-05-1.41459E-06-3.01729E-18-3.67513E-18
 -1       742 4.22667E-05-1.47364E-05-1.13572E-05 4.48476E-06 2.76139E-19-3.16780E-18
 -1       743 1.31425E-04-5.79536E-05-3.15609E-05-1.40234E-06 1.08956E-18 3.40931E-18
 -1       744 9.46282E-05-2.27200E-05-3.08171E-05 3.90994E-06 2.27862E-18-2.37012E-18
 -1       745 9.58631E-05-2.68823E-05-2.95632E-05-5.81618E-07-1.03833E-18-2.39159E-18
 -1       746 9.59589E-05-2.77748E-05-2.92218E-05 2.21834E-07-1.05283E-18-2.20455E-18
 -1       747 9.59479E-05-2.83377E-05-2.89758E-05 6.97350E-07-9.83950E-19-1.87748E-18
 -1       748 9.58874E-05-2.86797E-05-2.88033E-05 9.40708E-07-7.57510E-19-2.10740E-18
 -1       749 9.58071E-05-2.88733E-05-2.86860E-05 1.02616E-06-2.46726E-19-2.06966E-18
 -1       750 9.57226E-05-2.89671E-05-2.86095E-05 1.01104E-06 7.66760E-21-1.76959E-18
 -1       751 9.56417E-05-2.89946E-05-2.85631E-05 9.37644E-07-5.21919E-19-1.69831E-18
 -1       752 9.55683E-05-2.89788E-05-2.85384E-05 8.36370E-07-4.69839E-19-1.61592E-18
 -1       753 9.55035E-05-2.89349E-05-2.85294E-05 7.28596E-07-4.76176E-19-1.09258E-18
 -1       754 9.54471E-05-2.88727E-05-2.85319E-05 6.29261E-07-5.36765E-19-1.10872E-18
 -1       755 9.53979E-05-2.87978E-05-2.85429E-05 5.49019E-07-4.59765E-19-1.22398E-18
 -1       756 9.53538E-05-2.87125E-05-2.85606E-05 4.95903E-07-1.23122E-18-1.52904E-18
 -1       757 9.53125E-05-2.86169E-05-2.85839E-05 4.76608E-07-1.27468E-18-5.92437E-19
 -1       758 9.52710E-05-2.85089E-05-2.86123E-05 4.97474E-07-5.25743E-19-1.08591E-18
 -1       759 9.52260E-05-2.83857E-05-2.86458E-05 5.65195E-07 2.28133E-19-1.12288E-18
 -1       760 9.51736E-05-2.82432E-05-2.86844E-05 6.87282E-07 1.99037E-19-1.52160E-18
 -1       761 9.51102E-05-2.80777E-05-2.87282E-05 8.72274E-07 5.29410E-19-1.12502E-18
 -1       762 9.50316E-05-2.78858E-05-2.87767E-05 1.12969E-06 1.47011E-18-1.53135E-18
 -1       763 9.49345E-05-2.76664E-05-2.88292E-05 1.46967E-06 2.00333E-19-1.85487E-18
 -1       764 9.48169E-05-2.74218E-05-2.88835E-05 1.90228E-06-6.31479E-19-2.06941E-18
 -1       765 9.46795E-05-2.71608E-05-2.89365E-05 2.43636E-06 2.49128E-20-2.34286E-18
 -1       766 9.45289E-05-2.69021E-05-2.89828E-05 3.07796E-06 6.46870E-20-1.77778E-18
 -1       767 9.43814E-05-2.66797E-05-2.90149E-05 3.82825E-06 3.42729E-19-1.54057E-18
 -1       768 9.42699E-05-2.65499E-05-2.90227E-05 4.68097E-06 4.52254E-19-1.15952E-18
 -1       769 9.42543E-05-2.66012E-05-2.89940E-05 5.61910E-06 1.43364E-19-1.07072E-18
 -1       770 9.44361E-05-2.69653E-05-2.89159E-05 6.61010E-06 3.02390E-19-1.51216E-18
 -1       771 9.49787E-05-2.78282E-05-2.87786E-05 7.59747E-06-1.60802E-19-1.59505E-18
 -1       772 9.61302E-05-2.94355E-05-2.85835E-05 8.48324E-06-7.01681E-19-2.40459E-18
 -1       773 9.82428E-05-3.20769E-05-2.83571E-05 9.08910E-06 1.47079E-19-1.59353E-18
 -1       774 1.01754E-04-3.60078E-05-2.81761E-05 9.07980E-06-1.09744E-19-1.75413E-18
 -1       775 1.07089E-04-4.12568E-05-2.82128E-05 7.84343E-06-6.64185E-21-8.33357E-19
 -1       776 1.14295E-04-4.71418E-05-2.87780E-05 4.38606E-06-6.83522E-20-5.41881E-19
 -1       777 1.22213E-04-5.13591E-05-3.03964E-05-2.09193E-06 2.19964E-20 1.68869E-18
 -1       778 9.55038E-05-2.88705E-05-2.85572E-05-1.07109E-06 4.29887E-19-1.38865E-18
 -1       779 9.55642E-05-2.87756E-05-2.86237E-05-1.08505E-06 6.10415E-19-1.04792E-18
 -1       780 9.54074E-05-2.89014E-05-2.85026E-05-8.85652E-07 3.43909E-19-9.71831E-19
 -1       781 9.53713E-05-2.88716E-05-2.84999E-05-7.69358E-07-1.11189E-19-1.42097E-18
 -1       782 9.53420E-05-2.88250E-05-2.85073E-05-6.60642E-07 1.95149E-19-8.54356E-19
 -1       783 9.53184E-05-2.87668E-05-2.85221E-05-5.70624E-07-1.14920E-19-7.45608E-19
 -1       784 9.52990E-05-2.86995E-05-2.85426E-05-5.07564E-07-3.89062E-19-3.41934E-19
 -1       785 9.52822E-05-2.86233E-05-2.85681E-05-4.78256E-07-3.75917E-19-5.30988E-19
 -1       786 9.52665E-05-2.85366E-05-2.85985E-05-4.89128E-07-3.31201E-19-5.90873E-19
 -1       787 9.52499E-05-2.84368E-05-2.86342E-05-5.47048E-07 4.41201E-19-2.36057E-19
 -1       788 9.52301E-05-2.83198E-05-2.86758E-05-6.59902E-07 6.27735E-19-4.52695E-19
 -1       789 9.52042E-05-2.81810E-05-2.87242E-05-8.36970E-07 6.04541E-19 2.19708E-19
 -1       790 9.51687E-05-2.80152E-05-2.87800E-05-1.08907E-06 7.33358E-19 8.16446E-19
 -1       791 9.51193E-05-2.78171E-05-2.88437E-05-1.42847E-06 9.09969E-19 3.31973E-19
 -1       792 9.50506E-05-2.75825E-05-2.89148E-05-1.86841E-06 4.06658E-19-3.15089E-20
 -1       793 9.49565E-05-2.73093E-05-2.89915E-05-2.42237E-06-5.78440E-19 1.55950E-19
 -1       794 9.48309E-05-2.69997E-05-2.90703E-05-3.10280E-06-1.00696E-18 2.56778E-19
 -1       795 9.46694E-05-2.66646E-05-2.91447E-05-3.91937E-06-7.69077E-19-3.27593E-19
 -1       796 9.44736E-05-2.63299E-05-2.92041E-05-4.87688E-06-6.37503E-19 4.30746E-19
 -1       797 9.42592E-05-2.60472E-05-2.92333E-05-5.97287E-06-5.89827E-19 8.17756E-19
 -1       798 9.40705E-05-2.59105E-05-2.92109E-05-7.19530E-06-8.84382E-19-1.68423E-19
 -1       799 9.40065E-05-2.60804E-05-2.91107E-05-8.51984E-06-4.56301E-19-4.87238E-19
 -1       800 9.42616E-05-2.68156E-05-2.89049E-05-9.90489E-06 8.34050E-19-4.84427E-19
 -1       801 9.51855E-05-2.85081E-05-2.85757E-05-1.12752E-05-6.09653E-19-1.08252E-18
 -1       802 9.73589E-05-3.16983E-05-2.81394E-05-1.24683E-05-9.67263E-19-2.17746E-18
 -1       803 1.01642E-04-3.70010E-05-2.76994E-05-1.30866E-05-1.23982E-18-1.25282E-18
 -1       804 1.09044E-04-4.47253E-05-2.75294E-05-1.22380E-05-1.66996E-18 3.99325E-19
 -1       805 1.20120E-04-5.38176E-05-2.83649E-05-7.79420E-06-2.77110E-18 5.00514E-19
 -1       806 9.31973E-05-1.97740E-05-3.14682E-05 1.23310E-06 7.62125E-19-3.41599E-18
 -1       807 9.02996E-05-4.22870E-05-2.04341E-05 2.97866E-05 1.61926E-18-1.59631E-18
 -1       808 5.58236E-05-2.19282E-05-1.41804E-05-2.06715E-05-1.48235E-18-1.80868E-18
 -1       809 1.31668E-04-5.36250E-05-3.34874E-05 5.71281E-06-1.53082E-18-3.31137E-19
 -1       810 9.54514E-05-2.89056E-05-2.85197E-05-9.93811E-07 5.31228E-19-1.05125E-18
 -1       811 9.57298E-05-2.77503E-05-2.91339E-05-1.99467E-07 1.28091E-18-1.31466E-18
 -1       812 5.76669E-05-2.08641E-05-1.54508E-05 2.03801E-05 5.30974E-19-1.93282E-18
 -1       813 9.55733E-05-2.55120E-05-3.00271E-05-1.80001E-06-1.38841E-18-2.87678E-18
 -1       814 8.78146E-05-4.33924E-05-1.87921E-05-3.10948E-05-3.56852E-19-2.05709E-18
 -1       815 9.52132E-05-2.44771E-05-3.03153E-05 3.42336E-06 2.29260E-18-1.90842E-18
 -1       816 1.15709E-04-5.63177E-05-2.53944E-05 2.02276E-05 2.84714E-18-1.80138E-18
 -1       817 1.29911E-04-5.81923E-05-3.07590E-05 9.16460E-07-3.53638E-18 7.58407E-19
 -1       818 9.30885E-05-1.95767E-05-3.15061E-05 1.95397E-08 2.23158E-19-3.72529E-18
 -1       819 9.40339E-05-2.13579E-05-3.11464E-05 3.30999E-06 1.87334E-18-2.84276E-18
 -1       820 9.35127E-05-2.03582E-05-3.13529E-05 2.35940E-06 1.36225E-18-2.99051E-18
 -1       821 7.49638E-05-2.90307E-05-1.95531E-05 2.41806E-05 1.12305E-18 3.81231E-20
 -1       822 1.33936E-04-5.31618E-05-3.47018E-05-7.29568E-06-9.64248E-19-1.82738E-18
 -1       823 1.29107E-04-4.83364E-05-3.45787E-05-1.44906E-06-2.73708E-18-3.43788E-18
 -1       824 9.57009E-05-2.69223E-05-2.94770E-05 6.87141E-07 1.51083E-18-1.25159E-18
 -1       825 9.56294E-05-2.85908E-05-2.87308E-05-9.89909E-07 5.10148E-19-1.29428E-18
 -1       826 5.21788E-05-1.61832E-05-1.51681E-05-8.05859E-06-4.08156E-19-2.18008E-18
 -1       827 9.55131E-05-2.58907E-05-2.98378E-05 1.82720E-06 1.85045E-18-1.58950E-18
 -1       828 7.54367E-05-3.13298E-05-1.87350E-05-2.56290E-05-4.44778E-19-2.88601E-18
 -1       829 9.50020E-05-2.36304E-05-3.05871E-05-3.31433E-06-1.69808E-18-3.33638E-18
 -1       830 9.35000E-05-2.03282E-05-3.13607E-05-2.33800E-06-9.93961E-19-3.72198E-18
 -1       831 9.56911E-05-2.82714E-05-2.88941E-05-7.22527E-07 7.51606E-19-1.31445E-18
 -1       832 9.39825E-05-2.12816E-05-3.11571E-05-3.29351E-06-1.51665E-18-3.36548E-18
 -1       833 1.31289E-04-4.91700E-05-3.50875E-05-1.41410E-05 3.76599E-19 3.67236E-18
 -1       834 1.20514E-04-1.46130E-05-4.60288E-05 1.01864E-05 3.55145E-18 2.52368E-18
 -1       835 1.20346E-04-5.74363E-05-2.68563E-05-1.37803E-05-2.38628E-18-2.08049E-18
 -1       836 9.63613E-05-2.79264E-05-2.93293E-05 2.91716E-07-7.19242E-19-2.26798E-18
 -1       837 9.63822E-05-2.85195E-05-2.90840E-05 6.35568E-07-8.01259E-19-1.83528E-18
 -1       838 9.63188E-05-2.88750E-05-2.89045E-05 8.06100E-07-5.12365E-19-1.60658E-18
 -1       839 9.62116E-05-2.90663E-05-2.87766E-05 8.58292E-07-3.44306E-19-2.17459E-18
 -1       840 9.60857E-05-2.91460E-05-2.86884E-05 8.35414E-07-2.31404E-19-2.48085E-18
 -1       841 9.59565E-05-2.91514E-05-2.86307E-05 7.70163E-07-3.05634E-19-2.46186E-18
 -1       842 9.58326E-05-2.91084E-05-2.85961E-05 6.86415E-07-3.24266E-19-2.19039E-18
 -1       843 9.57180E-05-2.90341E-05-2.85788E-05 6.01054E-07-2.78461E-19-2.26495E-18
 -1       844 9.56132E-05-2.89389E-05-2.85747E-05 5.26171E-07-2.03957E-19-1.95185E-18
 -1       845 9.55167E-05-2.88283E-05-2.85808E-05 4.70675E-07-9.06747E-19-1.23226E-18
 -1       846 9.54248E-05-2.87037E-05-2.85948E-05 4.41571E-07-6.21705E-19-8.20790E-19
 -1       847 9.53328E-05-2.85638E-05-2.86153E-05 4.45004E-07-1.17878E-18-6.58009E-20
 -1       848 9.52346E-05-2.84050E-05-2.86412E-05 4.87060E-07-1.95340E-19-2.64464E-19
 -1       849 9.51230E-05-2.82222E-05-2.86718E-05 5.74318E-07-5.75038E-20-4.85620E-19
 -1       850 9.49900E-05-2.80095E-05-2.87059E-05 7.14218E-07 6.54096E-19-1.13346E-18
 -1       851 9.48270E-05-2.77612E-05-2.87425E-05 9.15220E-07 6.79392E-19-7.22089E-19
 -1       852 9.46248E-05-2.74728E-05-2.87794E-05 1.18679E-06 2.16269E-19-1.32942E-18
 -1       853 9.43750E-05-2.71429E-05-2.88138E-05 1.53919E-06-5.20507E-19-1.90631E-18
 -1       854 9.40707E-05-2.67751E-05-2.88410E-05 1.98312E-06-4.72783E-19-1.64095E-18
 -1       855 9.37090E-05-2.63815E-05-2.88546E-05 2.52929E-06 3.77856E-19-1.89222E-18
 -1       856 9.32942E-05-2.59876E-05-2.88457E-05 3.18807E-06 4.45998E-19-2.23814E-18
 -1       857 9.28436E-05-2.56377E-05-2.88025E-05 3.96944E-06 3.91107E-19-2.23079E-18
 -1       858 9.23952E-05-2.54039E-05-2.87105E-05 4.88365E-06 6.67538E-19-2.52009E-18
 -1       859 9.20202E-05-2.53966E-05-2.85529E-05 5.94256E-06 1.75066E-19-1.55218E-18
 -1       860 9.18417E-05-2.57780E-05-2.83129E-05 7.16086E-06-6.20196E-19-2.05364E-18
 -1       861 9.20614E-05-2.67778E-05-2.79787E-05 8.55369E-06-1.69566E-18-3.67468E-18
 -1       862 9.29993E-05-2.87093E-05-2.75529E-05 1.01212E-05 1.16567E-18-2.73773E-18
 -1       863 9.51436E-05-3.19761E-05-2.70716E-05 1.17974E-05 3.79272E-19-2.79916E-18
 -1       864 9.91892E-05-3.70111E-05-2.66313E-05 1.33282E-05 1.31728E-18-1.73456E-18
 -1       865 1.06003E-04-4.40876E-05-2.65135E-05 1.38336E-05 4.22541E-19-1.47368E-18
 -1       866 1.17884E-04-5.31386E-05-2.77129E-05 9.91453E-06 1.11300E-18 1.96153E-19
 -1       867 9.56305E-05-2.89940E-05-2.85585E-05-6.61774E-07-1.71421E-19-8.69590E-19
 -1       868 9.57234E-05-2.90546E-05-2.85723E-05-7.57789E-07 4.03058E-19-9.77058E-19
 -1       869 9.54718E-05-2.88190E-05-2.85655E-05-5.09399E-07-4.21862E-19-1.33476E-18
 -1       870 9.54017E-05-2.87120E-05-2.85813E-05-4.70353E-07-5.67165E-20-1.35430E-18
 -1       871 9.53329E-05-2.85914E-05-2.86035E-05-4.65102E-07-2.54262E-19-1.60356E-18
 -1       872 9.52604E-05-2.84540E-05-2.86313E-05-5.00028E-07-4.10838E-20-1.79309E-18
 -1       873 9.51782E-05-2.82946E-05-2.86644E-05-5.81999E-07 4.04913E-19-9.62981E-19
 -1       874 9.50789E-05-2.81066E-05-2.87024E-05-7.18797E-07 2.58844E-19-6.81261E-19
 -1       875 9.49540E-05-2.78827E-05-2.87448E-05-9.19313E-07 6.50720E-19-1.30567E-18
 -1       876 9.47930E-05-2.76148E-05-2.87906E-05-1.19352E-06 8.04584E-19-1.05198E-18
 -1       877 9.45839E-05-2.72955E-05-2.88379E-05-1.55222E-06 7.62104E-19-2.44379E-19
 -1       878 9.43130E-05-2.69188E-05-2.88832E-05-2.00653E-06-3.36179E-19-1.68802E-19
 -1       879 9.39651E-05-2.64823E-05-2.89212E-05-2.56718E-06-7.42849E-19 8.45494E-20
 -1       880 9.35247E-05-2.59902E-05-2.89433E-05-3.24388E-06-7.32078E-19-6.76198E-19
 -1       881 9.29785E-05-2.54583E-05-2.89372E-05-4.04495E-06-1.51205E-18-2.39981E-19
 -1       882 9.23207E-05-2.49216E-05-2.88852E-05-4.97824E-06-6.12632E-19-3.96679E-19
 -1       883 9.15613E-05-2.44463E-05-2.87634E-05-6.05445E-06 2.28816E-19-1.54809E-19
 -1       884 9.07429E-05-2.41472E-05-2.85407E-05-7.29443E-06-1.11755E-19-8.09180E-19
 -1       885 8.99682E-05-2.42141E-05-2.81800E-05-8.74165E-06-2.94568E-19-1.23616E-18
 -1       886 8.94457E-05-2.49475E-05-2.76417E-05-1.04789E-05-8.99886E-20 2.52200E-19
 -1       887 8.95691E-05-2.68110E-05-2.68951E-05-1.26357E-05-4.68630E-20-8.56185E-19
 -1       888 9.10429E-05-3.04925E-05-2.59439E-05-1.53598E-05-9.44299E-19-1.00965E-18
 -1       889 9.51304E-05-3.69864E-05-2.48869E-05-1.85101E-05-1.44620E-18-7.11416E-19
 -1       890 1.05471E-04-4.67835E-05-2.50803E-05-1.88132E-05-1.59205E-18-1.68131E-18
 -1       891 9.55471E-05-2.89136E-05-2.85572E-05-5.75709E-07-1.19976E-19-1.46437E-18
 -1       892 9.60416E-05-2.89845E-05-2.87388E-05-9.41933E-07 5.45303E-19-9.92512E-19
 -1       893 9.31868E-05-1.97576E-05-3.14706E-05-1.18807E-06-4.17027E-19-3.58287E-18
 -1       894 5.61406E-05-1.61640E-05-1.69466E-05 8.00671E-06-2.43965E-19-2.72940E-18
 -1       895 9.57740E-05-2.55722E-05-3.00834E-05-1.18195E-06-8.73877E-19-2.90151E-18
 -1       896 9.74997E-05-4.56891E-05-2.20738E-05-2.57483E-05 1.73344E-19-2.00848E-18
 -1       897 9.62003E-05-2.69991E-05-2.96572E-05-2.83661E-07-7.02138E-19-2.48086E-18
 -1       898 9.53634E-05-2.46949E-05-3.02876E-05 2.33649E-06 1.83330E-18-2.14827E-18
 -1       899 1.02883E-04-4.54819E-05-2.45701E-05 2.03399E-05 1.39498E-18-2.39776E-18
 -1       900 9.60718E-05-2.69725E-05-2.96146E-05 4.04103E-07 1.39728E-18-1.93716E-18
 -1       901 9.61368E-05-2.87923E-05-2.88619E-05-8.77337E-07 4.18969E-19-1.33820E-18
 -1       902 9.59338E-05-2.90704E-05-2.86557E-05-9.20776E-07 1.86455E-19-1.08897E-18
 -1       903 8.95956E-05-3.53174E-05-2.32091E-05 2.12062E-05 1.49245E-18-2.64106E-18
 -1       904 9.61879E-05-2.78634E-05-2.92818E-05-2.78465E-07 7.63383E-19-1.78601E-18
 -1       905 9.58256E-05-2.90857E-05-2.86028E-05-8.50483E-07 4.40590E-19-9.94449E-19
 -1       906 9.46844E-05-2.26102E-05-3.08888E-05 1.21939E-06 8.97032E-19-2.81947E-18
 -1       907 9.45346E-05-2.22668E-05-3.09719E-05 4.26784E-07 4.34803E-19-3.29844E-18
 -1       908 9.46872E-05-2.26063E-05-3.08935E-05-1.21817E-06-4.63629E-19-3.14516E-18
 -1       909 6.74263E-05-2.14061E-05-1.96364E-05 1.62273E-05 1.46625E-18-2.43777E-19
 -1       910 6.49104E-05-2.21674E-05-1.81327E-05-1.78521E-05-4.68006E-19-2.73265E-18
 -1       911 9.51035E-05-2.37558E-05-3.05809E-05-2.22707E-06-1.11384E-18-3.14005E-18
 -1       912 9.66661E-05-2.81500E-05-2.93641E-05 3.11579E-07-5.66941E-19-2.32500E-18
 -1       913 9.56895E-05-2.55495E-05-3.00604E-05 1.44237E-06 1.50175E-18-2.30848E-18
 -1       914 9.49479E-05-2.32646E-05-3.07206E-05 1.88603E-06 1.34632E-18-2.53365E-18
 -1       915 9.66854E-05-2.87218E-05-2.91272E-05 5.26074E-07-4.69212E-19-2.27923E-18
 -1       916 9.66057E-05-2.90556E-05-2.89500E-05 6.26029E-07-3.16991E-19-2.28530E-18
 -1       917 9.64718E-05-2.92230E-05-2.88209E-05 6.47559E-07-6.31804E-19-1.83882E-18
 -1       918 9.63133E-05-2.92770E-05-2.87298E-05 6.20459E-07-2.50901E-19-1.86640E-18
 -1       919 9.61485E-05-2.92550E-05-2.86687E-05 5.67539E-07-1.28585E-19-1.78136E-18
 -1       920 9.59886E-05-2.91839E-05-2.86306E-05 5.05112E-07 6.13440E-20-1.52388E-18
 -1       921 9.58378E-05-2.90805E-05-2.86103E-05 4.44942E-07-1.85743E-19-1.21418E-18
 -1       922 9.56966E-05-2.89546E-05-2.86037E-05 3.95803E-07-1.92277E-19-1.17389E-18
 -1       923 9.55622E-05-2.88105E-05-2.86078E-05 3.64264E-07-3.80651E-19-1.02737E-18
 -1       924 9.54290E-05-2.86483E-05-2.86203E-05 3.55742E-07-7.07186E-19-6.12336E-19
 -1       925 9.52897E-05-2.84649E-05-2.86392E-05 3.75292E-07-4.43000E-19-2.02367E-19
 -1       926 9.51352E-05-2.82548E-05-2.86630E-05 4.28155E-07-8.81445E-20 3.82289E-19
 -1       927 9.49546E-05-2.80110E-05-2.86901E-05 5.20171E-07 5.99495E-20 5.03843E-19
 -1       928 9.47360E-05-2.77259E-05-2.87186E-05 6.58070E-07 6.95817E-19 5.26949E-19
 -1       929 9.44660E-05-2.73922E-05-2.87460E-05 8.49654E-07 2.13899E-20-2.25656E-19
 -1       930 9.41310E-05-2.70047E-05-2.87685E-05 1.10392E-06-5.05790E-19-2.99814E-19
 -1       931 9.37174E-05-2.65618E-05-2.87810E-05 1.43116E-06-3.59666E-19-3.76576E-19
 -1       932 9.32136E-05-2.60686E-05-2.87765E-05 1.84320E-06 2.46440E-19 1.43887E-19
 -1       933 9.26119E-05-2.55400E-05-2.87452E-05 2.35395E-06-8.27212E-19-7.47873E-19
 -1       934 9.19118E-05-2.50056E-05-2.86743E-05 2.98064E-06-1.91249E-19-1.95882E-18
 -1       935 9.11254E-05-2.45156E-05-2.85472E-05 3.74634E-06-1.96397E-19-2.66242E-18
 -1       936 9.02838E-05-2.41485E-05-2.83439E-05 4.68459E-06 1.00277E-18-2.26572E-18
 -1       937 8.94480E-05-2.40206E-05-2.80407E-05 5.84674E-06-6.47234E-19-2.00766E-18
 -1       938 8.87267E-05-2.43003E-05-2.76119E-05 7.31199E-06-1.37493E-18-1.80278E-18
 -1       939 8.83046E-05-2.52278E-05-2.70339E-05 9.19700E-06-6.14312E-19-1.48022E-18
 -1       940 8.84967E-05-2.71504E-05-2.62924E-05 1.16637E-05 7.85394E-19-2.92436E-18
 -1       941 8.98252E-05-3.05702E-05-2.53863E-05 1.48370E-05 1.33619E-18-3.14885E-18
 -1       942 9.59272E-05-2.91548E-05-2.86167E-05-5.89606E-07 2.40617E-19-9.69719E-19
 -1       943 9.54341E-05-2.86758E-05-2.86107E-05-3.99767E-07 2.68248E-19-1.44505E-18
 -1       944 9.55489E-05-2.88219E-05-2.85973E-05-4.16133E-07-1.76470E-19-1.28011E-18
 -1       945 9.51852E-05-2.83202E-05-2.86564E-05-4.64376E-07-7.27415E-20-1.30560E-18
 -1       946 9.50325E-05-2.80980E-05-2.86862E-05-5.56860E-07 2.77926E-19-1.58020E-18
 -1       947 9.48458E-05-2.78348E-05-2.87190E-05-6.98063E-07 7.45644E-19-1.04177E-18
 -1       948 9.46107E-05-2.75211E-05-2.87527E-05-8.95246E-07 3.97545E-19-4.00666E-19
 -1       949 9.43110E-05-2.71471E-05-2.87846E-05-1.15614E-06 4.93862E-19-8.85196E-19
 -1       950 9.39280E-05-2.67040E-05-2.88103E-05-1.48857E-06-4.56922E-20-3.51355E-19
 -1       951 9.34405E-05-2.61857E-05-2.88235E-05-1.90001E-06 1.35715E-19-1.59146E-18
 -1       952 9.28255E-05-2.55908E-05-2.88149E-05-2.39719E-06-1.10633E-18-1.90454E-18
 -1       953 9.20592E-05-2.49263E-05-2.87713E-05-2.98628E-06-8.74759E-19-1.60437E-18
 -1       954 9.11183E-05-2.42119E-05-2.86742E-05-3.67436E-06-1.50060E-18-1.70729E-18
 -1       955 8.99832E-05-2.34863E-05-2.84987E-05-4.47379E-06-1.09665E-18-1.91413E-19
 -1       956 8.86430E-05-2.28167E-05-2.82114E-05-5.41179E-06 2.31499E-19 3.67534E-19
 -1       957 8.71042E-05-2.23115E-05-2.77684E-05-6.54861E-06 8.73274E-19 4.68175E-19
 -1       958 8.54070E-05-2.21405E-05-2.71143E-05-8.00557E-06-9.40006E-19-4.25498E-19
 -1       959 8.36505E-05-2.25628E-05-2.61806E-05-1.00120E-05 6.71790E-19-2.88981E-19
 -1       960 8.20626E-05-2.39966E-05-2.48821E-05-1.29545E-05-1.37821E-19-8.77564E-20
 -1       961 8.10382E-05-2.71014E-05-2.30810E-05-1.74566E-05-1.49307E-18-1.85084E-18
 -1       962 8.75403E-05-3.62764E-05-2.19120E-05-2.34731E-05-4.36305E-19-1.51633E-18
 -1       963 6.18995E-05-1.62847E-05-1.94561E-05-3.68605E-06 5.50097E-19-1.98702E-18
 -1       964 9.45463E-05-2.22764E-05-3.09717E-05-4.22333E-07 9.91183E-20-3.21738E-18
 -1       965 9.60810E-05-2.59226E-05-3.00660E-05-6.15834E-07-3.54853E-19-2.60677E-18
 -1       966 9.53157E-05-2.85104E-05-2.86308E-05-4.14001E-07-1.04807E-19-1.61295E-18
 -1       967 9.64796E-05-2.72395E-05-2.96742E-05-5.99480E-08-4.76440E-19-2.29414E-18
 -1       968 9.61977E-05-2.84429E-05-2.90378E-05-6.77391E-07 6.22848E-19-1.36440E-18
 -1       969 9.55440E-05-3.68172E-05-2.51420E-05 1.71208E-05 7.13169E-19-3.07770E-18
 -1       970 9.57207E-05-2.48926E-05-3.03550E-05 9.18496E-07 9.09943E-19-2.15121E-18
 -1       971 9.64871E-05-2.89807E-05-2.89313E-05-7.16406E-07 4.71429E-19-1.71270E-18
 -1       972 9.56099E-05-2.44942E-05-3.04780E-05 4.93733E-07 6.24887E-19-2.64717E-18
 -1       973 9.57917E-05-2.90638E-05-2.85977E-05-5.17838E-07 1.23242E-20-5.40926E-19
 -1       974 9.56666E-05-2.89514E-05-2.85922E-05-4.57562E-07-2.64220E-19-6.18193E-19
 -1       975 7.40280E-05-2.50666E-05-2.09156E-05-1.82505E-05-3.69477E-19-3.36934E-18
 -1       976 6.55691E-05-1.71675E-05-2.06956E-05 5.67656E-06 1.03369E-18-1.95068E-18
 -1       977 8.04596E-05-2.76970E-05-2.25769E-05 1.84016E-05 2.32446E-18-3.54199E-20
 -1       978 9.60715E-05-2.92135E-05-2.86534E-05-6.61976E-07 1.73901E-19-1.11147E-18
 -1       979 9.63816E-05-2.71572E-05-2.96663E-05 1.49199E-07 8.11980E-19-1.65346E-18
 -1       980 9.60441E-05-2.55309E-05-3.02194E-05-4.29753E-07-1.34271E-19-2.59147E-18
 -1       981 9.63650E-05-2.91581E-05-2.88029E-05-7.49067E-07 4.83031E-19-1.79747E-18
 -1       982 9.63725E-05-2.65000E-05-2.99455E-05 2.33814E-07 7.81132E-19-2.11678E-18
 -1       983 9.65595E-05-2.86366E-05-2.91096E-05-5.88895E-07 4.52074E-19-1.71257E-18
 -1       984 9.55575E-05-2.87791E-05-2.86193E-05-2.98558E-07-5.48204E-20-3.97831E-19
 -1       985 9.68712E-05-2.89261E-05-2.91192E-05 3.63091E-07-3.46939E-19-2.25779E-18
 -1       986 9.67646E-05-2.92108E-05-2.89517E-05 4.06600E-07 1.16355E-20-2.07477E-18
 -1       987 9.66040E-05-2.93371E-05-2.88287E-05 4.08155E-07-1.12365E-19-1.23219E-18
 -1       988 9.64201E-05-2.93562E-05-2.87416E-05 3.83993E-07-1.93850E-19-1.09747E-18
 -1       989 9.62314E-05-2.93044E-05-2.86830E-05 3.48757E-07-7.34158E-20-1.40871E-18
 -1       990 9.60484E-05-2.92066E-05-2.86465E-05 3.09651E-07-2.40243E-19-2.33521E-18
 -1       991 9.58738E-05-2.90769E-05-2.86272E-05 2.74868E-07-1.45617E-19-1.94483E-18
 -1       992 9.57075E-05-2.89241E-05-2.86215E-05 2.49270E-07-2.76134E-19-1.51330E-18
 -1       993 9.55447E-05-2.87506E-05-2.86260E-05 2.36813E-07-5.15533E-19-1.31283E-18
 -1       994 9.53779E-05-2.85547E-05-2.86385E-05 2.41078E-07 1.84093E-20-5.83196E-19
 -1       995 9.51972E-05-2.83313E-05-2.86569E-05 2.65618E-07 2.39144E-19-1.90620E-19
 -1       996 9.49905E-05-2.80731E-05-2.86790E-05 3.14326E-07 2.76521E-19 2.05685E-20
 -1       997 9.47439E-05-2.77714E-05-2.87026E-05 3.91734E-07 7.67839E-19 5.07361E-19
 -1       998 9.44416E-05-2.74172E-05-2.87249E-05 5.03283E-07 5.88180E-20 3.24172E-19
 -1       999 9.40663E-05-2.70019E-05-2.87420E-05 6.55582E-07-7.45496E-19 6.72172E-20
 -1      1000 9.35998E-05-2.65197E-05-2.87488E-05 8.56737E-07-3.28575E-19-7.00500E-19
 -1      1001 9.30238E-05-2.59691E-05-2.87379E-05 1.11684E-06-2.63883E-19-3.90240E-19
 -1      1002 9.23209E-05-2.53557E-05-2.86997E-05 1.44879E-06-1.16049E-18-1.56847E-18
 -1      1003 9.14765E-05-2.46952E-05-2.86209E-05 1.86978E-06-1.27763E-18-1.58989E-18
 -1      1004 9.04806E-05-2.40178E-05-2.84845E-05 2.40387E-06-6.36083E-19-1.12410E-18
 -1      1005 8.93300E-05-2.33717E-05-2.82684E-05 3.08657E-06 1.50656E-18-1.19566E-18
 -1      1006 8.80307E-05-2.28279E-05-2.79449E-05 3.97262E-06 1.02986E-19-1.48638E-18
 -1      1007 8.66004E-05-2.24855E-05-2.74791E-05 5.14927E-06-9.23939E-19-1.06186E-18
 -1      1008 8.50768E-05-2.24825E-05-2.68284E-05 6.75694E-06-2.85384E-19-8.29898E-19
 -1      1009 8.35365E-05-2.30142E-05-2.59406E-05 9.01028E-06-9.46403E-19-2.79066E-19
 -1      1010 8.20598E-05-2.43520E-05-2.47303E-05 1.22419E-05 3.07364E-19-9.09217E-19
 -1      1011 9.45584E-05-2.75289E-05-2.87270E-05-5.78648E-07 2.95493E-19-1.08401E-18
 -1      1012 9.48329E-05-2.78647E-05-2.87007E-05-4.58224E-07 3.17498E-19-1.45250E-18
 -1      1013 9.50552E-05-2.81478E-05-2.86746E-05-3.74348E-07 5.45791E-19-1.37221E-18
 -1      1014 9.42132E-05-2.71295E-05-2.87502E-05-7.40153E-07 7.49090E-19-4.58612E-19
 -1      1015 9.37759E-05-2.66561E-05-2.87658E-05-9.47022E-07 1.67693E-19-1.67636E-18
 -1      1016 9.32228E-05-2.61001E-05-2.87671E-05-1.20285E-06-1.42810E-19-8.29181E-19
 -1      1017 9.25274E-05-2.54568E-05-2.87448E-05-1.51013E-06-6.02457E-19-3.08946E-20
 -1      1018 9.16605E-05-2.47273E-05-2.86859E-05-1.87006E-06-6.19551E-19-5.57081E-19
 -1      1019 9.05902E-05-2.39212E-05-2.85728E-05-2.28328E-06-1.22786E-18-9.69342E-19
 -1      1020 8.92815E-05-2.30600E-05-2.83811E-05-2.75233E-06-2.43332E-18-7.70962E-19
 -1      1021 8.76936E-05-2.21791E-05-2.80783E-05-3.28762E-06-7.19408E-19-1.92352E-19
 -1      1022 8.57745E-05-2.13294E-05-2.76202E-05-3.91990E-06 6.08552E-19 1.88685E-19
 -1      1023 8.34500E-05-2.05791E-05-2.69461E-05-4.72657E-06 3.54302E-19 5.20140E-19
 -1      1024 8.06331E-05-2.00350E-05-2.59709E-05-5.86415E-06-1.59400E-19-4.10146E-19
 -1      1025 7.71139E-05-1.97590E-05-2.45776E-05-7.64349E-06 2.60913E-19-1.52945E-19
 -1      1026 7.28527E-05-2.01238E-05-2.25202E-05-1.05132E-05 6.60359E-19-3.57479E-20
 -1      1027 9.62209E-05-2.92235E-05-2.87132E-05-7.22275E-07 1.90988E-19-1.61270E-18
 -1      1028 9.67281E-05-2.75893E-05-2.96308E-05 6.13603E-08-4.17764E-19-2.34434E-18
 -1      1029 9.55722E-05-2.43646E-05-3.05201E-05 1.50226E-08 2.32283E-19-3.07122E-18
 -1      1030 9.52413E-05-2.83887E-05-2.86511E-05-3.22562E-07 2.12661E-19-1.91402E-19
 -1      1031 9.54049E-05-2.85967E-05-2.86321E-05-2.98635E-07 1.51564E-19 2.36869E-19
 -1      1032 9.65393E-05-2.80547E-05-2.93504E-05-3.22563E-07 5.59044E-19-1.82191E-18
 -1      1033 9.64681E-05-2.66913E-05-2.99042E-05-1.49598E-07-1.14216E-19-2.53088E-18
 -1      1034 8.57804E-05-2.94779E-05-2.41166E-05 1.67626E-05 1.05880E-18-3.81477E-18
 -1      1035 9.68823E-05-2.84199E-05-2.93413E-05 2.55973E-07-6.92689E-19-2.28632E-18
 -1      1036 9.57083E-05-2.89404E-05-2.86148E-05-3.18370E-07-9.32656E-20-4.56931E-19
 -1      1037 9.67369E-05-2.76878E-05-2.95932E-05-8.23357E-08 6.29021E-19-2.03114E-18
 -1      1038 7.02320E-05-2.05603E-05-2.12475E-05-1.26037E-05 1.75121E-19-1.47389E-18
 -1      1039 9.58641E-05-2.90820E-05-2.86209E-05-3.53851E-07-2.74387E-19-6.08148E-19
 -1      1040 9.60283E-05-2.92002E-05-2.86405E-05-4.00006E-07-2.56630E-19-8.56669E-19
 -1      1041 7.39643E-05-2.12288E-05-2.25771E-05 1.18720E-05 1.73206E-18 1.58856E-18
 -1      1042 6.97103E-05-1.72811E-05-2.24677E-05-2.50881E-06 1.28690E-18-1.68078E-18
 -1      1043 9.62052E-05-2.92898E-05-2.86782E-05-4.51263E-07-1.77874E-19-1.67532E-18
 -1      1044 9.67040E-05-2.91497E-05-2.89520E-05-5.13064E-07 4.52984E-19-1.71741E-18
 -1      1045 9.67959E-05-2.88407E-05-2.91237E-05-4.46249E-07 4.40784E-19-1.92573E-18
 -1      1046 9.68087E-05-2.93241E-05-2.89217E-05 1.59465E-07 3.18785E-19-1.30419E-18
 -1      1047 9.66194E-05-2.93964E-05-2.88100E-05 1.55619E-07-3.49303E-19-1.04558E-18
 -1      1048 9.64234E-05-2.93830E-05-2.87315E-05 1.42452E-07-5.41557E-19-1.55214E-18
 -1      1049 9.62240E-05-2.93030E-05-2.86804E-05 1.26814E-07-4.49919E-19-2.14978E-18
 -1      1050 9.60291E-05-2.91808E-05-2.86492E-05 1.13866E-07 2.75404E-20-2.06934E-18
 -1      1051 9.58429E-05-2.90301E-05-2.86340E-05 1.02502E-07 3.37176E-20-2.52288E-18
 -1      1052 9.56622E-05-2.88560E-05-2.86312E-05 9.54902E-08 8.32116E-20-2.26164E-18
 -1      1053 9.54805E-05-2.86588E-05-2.86379E-05 9.45204E-08 1.21811E-19-1.56815E-18
 -1      1054 9.52885E-05-2.84347E-05-2.86516E-05 1.01177E-07 4.69629E-19-8.31570E-19
 -1      1055 9.50739E-05-2.81770E-05-2.86700E-05 1.17206E-07 4.42077E-19-1.25032E-20
 -1      1056 9.48223E-05-2.78768E-05-2.86908E-05 1.44737E-07 4.35685E-19-2.66506E-20
 -1      1057 9.45169E-05-2.75240E-05-2.87112E-05 1.86507E-07 1.60692E-19-9.27087E-19
 -1      1058 9.41388E-05-2.71082E-05-2.87273E-05 2.46142E-07-5.94480E-19-1.18611E-18
 -1      1059 9.36672E-05-2.66203E-05-2.87342E-05 3.28527E-07-5.85010E-19-2.87583E-19
 -1      1060 9.30797E-05-2.60538E-05-2.87252E-05 4.40338E-07-3.97778E-19-2.27581E-19
 -1      1061 9.23530E-05-2.54069E-05-2.86909E-05 5.90833E-07-7.92407E-19-1.19349E-18
 -1      1062 9.14630E-05-2.46848E-05-2.86188E-05 7.93059E-07-1.56213E-18-1.00372E-18
 -1      1063 9.03854E-05-2.39022E-05-2.84923E-05 1.06572E-06-7.37360E-19-1.74937E-18
 -1      1064 8.90953E-05-2.30853E-05-2.82892E-05 1.43611E-06 1.54469E-19-1.27164E-18
 -1      1065 8.75640E-05-2.22727E-05-2.79809E-05 1.94478E-06 2.63787E-19-2.46310E-18
 -1      1066 8.57535E-05-2.15149E-05-2.75294E-05 2.65288E-06-5.90288E-19-2.19029E-18
 -1      1067 8.36039E-05-2.08708E-05-2.68842E-05 3.65354E-06-4.96742E-19-2.16594E-18
 -1      1068 8.10158E-05-2.04130E-05-2.59752E-05 5.09766E-06 2.49589E-19-1.86161E-18
 -1      1069 7.79415E-05-2.02546E-05-2.47089E-05 7.17816E-06 1.28206E-19-7.60094E-19
 -1      1070 9.46054E-05-2.76164E-05-2.87096E-05-2.76478E-07-7.34867E-20-1.99808E-18
 -1      1071 9.42506E-05-2.72167E-05-2.87289E-05-3.47440E-07 3.84592E-20-1.33265E-18
 -1      1072 7.75008E-05-2.25044E-05-2.35608E-05 1.22051E-05 8.20389E-19 1.74335E-18
 -1      1073 9.48912E-05-2.79538E-05-2.86874E-05-2.24228E-07 4.15977E-19-1.59548E-18
 -1      1074 9.32447E-05-2.61874E-05-2.87390E-05-5.48159E-07-5.36355E-19-1.34095E-19
 -1      1075 9.25426E-05-2.55418E-05-2.87148E-05-6.76102E-07-7.51238E-19 6.04152E-20
 -1      1076 9.16693E-05-2.48053E-05-2.86563E-05-8.17974E-07-9.36948E-19 1.13745E-19
 -1      1077 9.05921E-05-2.39830E-05-2.85472E-05-9.67279E-07-8.57758E-19 4.14872E-19
 -1      1078 8.92735E-05-2.30888E-05-2.83655E-05-1.11502E-06-1.35818E-18 4.30646E-19
 -1      1079 8.76671E-05-2.21453E-05-2.80817E-05-1.25083E-06-1.15739E-18-1.15756E-18
 -1      1080 8.57096E-05-2.11821E-05-2.76560E-05-1.36583E-06-1.75743E-19-9.95010E-19
 -1      1081 8.33020E-05-2.02282E-05-2.70335E-05-1.45707E-06 6.60347E-19-2.71681E-19
 -1      1082 8.02656E-05-1.92849E-05-2.61353E-05-1.52918E-06-3.63410E-20 3.59059E-19
 -1      1083 7.62628E-05-1.83148E-05-2.48422E-05-1.74482E-06-5.44570E-20-1.58323E-19
 -1      1084 9.64027E-05-2.63270E-05-3.00316E-05 1.06933E-07 4.01892E-19-2.43488E-18
 -1      1085 9.69447E-05-2.91100E-05-2.90722E-05 1.49775E-07 2.08535E-19-1.36397E-18
 -1      1086 9.68941E-05-2.79740E-05-2.95369E-05 6.58797E-08-4.32081E-19-2.48479E-18
 -1      1087 9.68338E-05-2.83943E-05-2.93325E-05-2.97256E-07 3.41487E-19-1.87478E-18
 -1      1088 9.65541E-05-2.92922E-05-2.88265E-05-5.20445E-07 3.26200E-19-1.41613E-18
 -1      1089 9.53293E-05-2.84858E-05-2.86472E-05-1.69572E-07 7.87007E-19-1.07602E-18
 -1      1090 9.55122E-05-2.86996E-05-2.86340E-05-1.63477E-07 2.54429E-19-3.91815E-19
 -1      1091 9.51270E-05-2.82401E-05-2.86658E-05-1.89187E-07 1.10172E-18-1.79557E-18
 -1      1092 9.38051E-05-2.67435E-05-2.87407E-05-4.38037E-07 5.12182E-19-8.83519E-19
 -1      1093 9.70027E-05-2.87050E-05-2.92714E-05 1.12292E-07-3.84729E-19-1.86628E-18
 -1      1094 9.56871E-05-2.88881E-05-2.86282E-05-1.68898E-07-4.98491E-19-3.72923E-19
 -1      1095 9.64502E-05-2.64333E-05-3.00061E-05-5.11961E-08-1.22540E-19-2.69707E-18
 -1      1096 9.58630E-05-2.90542E-05-2.86324E-05-1.83609E-07-3.55450E-19-7.41156E-19
 -1      1097 9.68041E-05-2.92897E-05-2.89353E-05-2.74907E-07 4.71801E-19-1.43207E-18
 -1      1098 9.63814E-05-2.93255E-05-2.87384E-05-4.95355E-07-1.10367E-19-1.60317E-18
 -1      1099 9.60459E-05-2.91971E-05-2.86495E-05-2.04928E-07-3.53713E-19-8.53861E-19
 -1      1100 9.67297E-05-2.73003E-05-2.97555E-05-1.03671E-08-2.96541E-19-2.53356E-18
 -1      1101 9.62371E-05-2.93099E-05-2.86830E-05-2.29368E-07-5.76028E-19-9.53213E-19
 -1      1102 7.26303E-05-1.83391E-05-2.32869E-05 5.06473E-06 1.57363E-18-1.43650E-18
 -1      1103 9.69136E-05-2.90311E-05-2.90924E-05-2.62284E-07 1.49944E-19-1.45626E-18
 -1      1104 9.66340E-05-2.93841E-05-2.88212E-05-2.72753E-07 1.39349E-19-1.51819E-18
 -1      1105 9.65430E-05-2.94097E-05-2.87711E-05-9.52951E-08-4.98539E-19-1.23444E-18
 -1      1106 9.68648E-05-2.77123E-05-2.96364E-05-2.82779E-08 1.94120E-19-1.72543E-18
 -1      1107 9.70055E-05-2.89462E-05-2.91665E-05-8.53369E-08-3.01281E-20-1.30546E-18
 -1      1108 9.69562E-05-2.85858E-05-2.93014E-05-1.83708E-07 2.69109E-19-1.50653E-18
 -1      1109 1.16859E-04 2.57580E-10-4.18570E-05-4.14652E-05-4.49774E-19 1.43962E-17
 -1      1110 8.86544E-05 7.19284E-11-3.72526E-05-2.41660E-05-2.45322E-19 1.80270E-18
 -1      1111 8.40788E-05 4.14614E-11-3.57673E-05-1.78750E-05-1.67713E-19-3.62128E-18
 -1      1112 8.23353E-05 3.20117E-11-3.50729E-05-1.38338E-05-1.14746E-19-6.15111E-18
 -1      1113 8.15314E-05 2.73400E-11-3.47385E-05-1.05308E-05-7.62065E-20-7.31152E-18
 -1      1114 8.11282E-05 2.45991E-11-3.45729E-05-7.63773E-06-4.65603E-20-7.81545E-18
 -1      1115 8.09177E-05 2.29437E-11-3.44890E-05-4.97786E-06-2.44548E-20-7.97250E-18
 -1      1116 8.08152E-05 2.20503E-11-3.44494E-05-2.43128E-06 1.95049E-21-7.95392E-18
 -1      1117 8.07861E-05 2.17800E-11-3.44383E-05 5.24245E-08 1.79912E-20-7.86100E-18
 -1      1118 8.08196E-05 2.20947E-11-3.44509E-05 2.53868E-06 3.28093E-20-7.70552E-18
 -1      1119 8.09267E-05 2.30454E-11-3.44918E-05 5.09375E-06 4.96077E-20-7.40939E-18
 -1      1120 8.11433E-05 2.47633E-11-3.45768E-05 7.77014E-06 8.07328E-20-6.91833E-18
 -1      1121 8.15531E-05 2.76386E-11-3.47446E-05 1.06904E-05 1.06501E-19-6.07155E-18
 -1      1122 8.23590E-05 3.25002E-11-3.50830E-05 1.40398E-05 1.33725E-19-4.48519E-18
 -1      1123 8.40760E-05 4.19283E-11-3.57876E-05 1.81267E-05 1.87988E-19-1.45887E-18
 -1      1124 8.83519E-05 6.67519E-11-3.73227E-05 2.40085E-05 2.10488E-19 4.47045E-18
 -1      1125 1.06624E-04 1.63936E-10-4.06357E-05 3.61915E-05 4.60786E-19 1.66511E-17
 -1      1126 1.30226E-04-2.57579E-05-4.02756E-05-2.61056E-05-1.79878E-18 2.23426E-17
 -1      1127 9.74646E-05-2.88650E-05-3.15802E-05-6.79976E-07-5.90647E-19 1.80882E-17
 -1      1128 9.01693E-05-2.70294E-05-2.78960E-05 3.87173E-07-2.35952E-19 1.21125E-17
 -1      1129 8.82594E-05-2.65754E-05-2.66468E-05 2.50816E-07-1.49346E-19 7.82243E-18
 -1      1130 8.79018E-05-2.64490E-05-2.63907E-05 1.65943E-07-1.09641E-19 5.10245E-18
 -1      1131 8.82621E-05-2.65260E-05-2.64760E-05 1.18164E-07-1.06072E-19 3.13339E-18
 -1      1132 8.89495E-05-2.67108E-05-2.66789E-05 8.75683E-08-2.08421E-20 1.47446E-18
 -1      1133 8.97648E-05-2.69428E-05-2.69217E-05 6.63517E-08-5.80412E-21 5.31129E-19
 -1      1134 9.05976E-05-2.71854E-05-2.71699E-05 5.06663E-08-1.88530E-20-9.35310E-19
 -1      1135 9.13857E-05-2.74176E-05-2.74055E-05 3.85867E-08 3.33415E-20-2.07938E-18
 -1      1136 9.20958E-05-2.76281E-05-2.76185E-05 2.90905E-08-3.59245E-21-3.23134E-18
 -1      1137 9.27127E-05-2.78118E-05-2.78041E-05 2.15682E-08 1.56511E-19-3.12541E-18
 -1      1138 9.32334E-05-2.79674E-05-2.79612E-05 1.56063E-08-5.01510E-20-2.99664E-18
 -1      1139 9.36621E-05-2.80959E-05-2.80909E-05 1.08959E-08 1.86174E-20-3.16129E-18
 -1      1140 9.40077E-05-2.81997E-05-2.81958E-05 7.19292E-09-2.49943E-20-3.33384E-18
 -1      1141 9.42819E-05-2.82824E-05-2.82793E-05 4.30089E-09-1.07361E-19-4.01348E-18
 -1      1142 9.44980E-05-2.83478E-05-2.83454E-05 2.06391E-09-3.22032E-22-4.88687E-18
 -1      1143 9.46701E-05-2.84001E-05-2.83984E-05 3.64570E-10 7.76453E-20-5.34995E-18
 -1      1144 9.48137E-05-2.84440E-05-2.84428E-05-8.75228E-10 5.13545E-20-6.18929E-18
 -1      1145 9.49450E-05-2.84843E-05-2.84837E-05-1.69155E-09 1.13538E-19-6.48611E-18
 -1      1146 9.50822E-05-2.85265E-05-2.85265E-05-2.07399E-09 2.05601E-20-5.66217E-18
 -1      1147 9.52459E-05-2.85768E-05-2.85776E-05-1.95936E-09-1.27396E-19-5.31827E-18
 -1      1148 9.54599E-05-2.86424E-05-2.86441E-05-1.22370E-09-1.49711E-19-4.94441E-18
 -1      1149 9.57520E-05-2.87316E-05-2.87345E-05 3.27237E-10 3.05097E-20-5.64032E-18
 -1      1150 9.61551E-05-2.88542E-05-2.88587E-05 2.96743E-09-5.68629E-20-5.22795E-18
 -1      1151 9.67074E-05-2.90217E-05-2.90282E-05 7.05698E-09 3.81694E-20-3.66353E-18
 -1      1152 9.74518E-05-2.92468E-05-2.92558E-05 1.30384E-08 7.10374E-20-3.13833E-18
 -1      1153 9.84350E-05-2.95432E-05-2.95551E-05 2.14090E-08-1.18825E-19-4.17387E-18
 -1      1154 9.97030E-05-2.99245E-05-2.99395E-05 3.26427E-08 1.32295E-19-3.62267E-18
 -1      1155 1.01294E-04-3.04013E-05-3.04192E-05 4.70138E-08 2.11258E-19-2.73745E-18
 -1      1156 1.03224E-04-3.09780E-05-3.09973E-05 6.42466E-08 3.66313E-20-1.83360E-18
 -1      1157 1.05468E-04-3.16457E-05-3.16626E-05 8.28796E-08-1.45652E-19-2.93440E-18
 -1      1158 1.07924E-04-3.23729E-05-3.23805E-05 9.92384E-08-1.23497E-20-4.74799E-18
 -1      1159 1.10370E-04-3.30925E-05-3.30792E-05 1.06036E-07-8.93711E-20-5.79470E-18
 -1      1160 1.12419E-04-3.36878E-05-3.36381E-05 9.10642E-08 1.79665E-19-6.68220E-18
 -1      1161 1.13479E-04-3.39836E-05-3.38818E-05 3.74518E-08 3.07294E-19-7.02819E-18
 -1      1162 1.12789E-04-3.37554E-05-3.35967E-05-7.14802E-08 1.81738E-19-7.21316E-18
 -1      1163 1.09570E-04-3.27788E-05-3.25836E-05-2.39827E-07-1.59619E-19-4.69876E-18
 -1      1164 1.03374E-04-3.09302E-05-3.07571E-05-4.39253E-07-1.45121E-20-3.29332E-18
 -1      1165 9.45641E-05-2.83295E-05-2.82617E-05-5.95558E-07 2.04072E-19-2.65619E-18
 -1      1166 8.46587E-05-2.54280E-05-2.55297E-05-6.08859E-07-3.86599E-19-2.08190E-18
 -1      1167 7.61010E-05-2.29320E-05-2.31951E-05-4.21169E-07-4.33151E-19-5.06430E-18
 -1      1168 7.12614E-05-2.15138E-05-2.18435E-05-8.35345E-08 1.37246E-19-7.77263E-18
 -1      1169 7.11762E-05-2.14643E-05-2.17312E-05 2.52943E-07 1.63358E-19-5.87899E-18
 -1      1170 7.49920E-05-2.25489E-05-2.26694E-05 4.42127E-07-2.50609E-19-2.57133E-18
 -1      1171 8.06279E-05-2.41827E-05-2.41649E-05 4.47842E-07-1.83929E-20 1.13502E-19
 -1      1172 8.60912E-05-2.57942E-05-2.57079E-05 3.47292E-07 1.95810E-19 1.92700E-19
 -1      1173 9.03970E-05-2.70903E-05-2.69860E-05 2.51509E-07 2.28231E-19 2.56482E-18
 -1      1174 9.35034E-05-2.80497E-05-2.78745E-05 2.08377E-07-2.71626E-19-1.01565E-18
 -1      1175 9.50394E-05-2.85258E-05-2.83571E-05 3.67983E-08 5.61485E-19 3.29989E-19
 -1      1176 1.31060E-04-3.77399E-05-3.86611E-05 1.21745E-05-2.98129E-19 2.66837E-17
 -1      1177 9.65663E-05-2.81917E-05-3.13326E-05 8.01365E-07 1.72980E-19 2.12690E-17
 -1      1178 9.03830E-05-2.69321E-05-2.78768E-05 1.20134E-07 1.59414E-19 1.57900E-17
 -1      1179 8.83458E-05-2.65027E-05-2.66831E-05 8.99617E-09 1.11643E-19 1.20173E-17
 -1      1180 8.79423E-05-2.64116E-05-2.64178E-05-2.52980E-08 3.67831E-20 9.73643E-18
 -1      1181 8.82841E-05-2.65086E-05-2.64918E-05-3.43432E-08 6.30866E-20 7.73608E-18
 -1      1182 8.89625E-05-2.67039E-05-2.66892E-05-3.55465E-08 1.06957E-19 6.26624E-18
 -1      1183 8.97729E-05-2.69414E-05-2.69291E-05-3.38552E-08 2.57383E-20 5.43892E-18
 -1      1184 9.06028E-05-2.71869E-05-2.71755E-05-3.08326E-08-9.55104E-21 4.88254E-18
 -1      1185 9.13891E-05-2.74206E-05-2.74098E-05-2.71821E-08 3.17703E-20 4.21045E-18
 -1      1186 9.20979E-05-2.76318E-05-2.76217E-05-2.33181E-08 9.75637E-20 3.00235E-18
 -1      1187 9.27140E-05-2.78157E-05-2.78065E-05-1.95024E-08 1.44435E-19 1.68685E-18
 -1      1188 9.32340E-05-2.79710E-05-2.79629E-05-1.58912E-08 8.59702E-20 9.86247E-19
 -1      1189 9.36621E-05-2.80991E-05-2.80920E-05-1.25649E-08-4.41667E-20 7.34735E-19
 -1      1190 9.40072E-05-2.82024E-05-2.81964E-05-9.54841E-09 1.10294E-19 1.74612E-19
 -1      1191 9.42808E-05-2.82845E-05-2.82795E-05-6.82655E-09-8.55853E-21-6.75813E-19
 -1      1192 9.44960E-05-2.83491E-05-2.83451E-05-4.35672E-09 6.79763E-20-6.88730E-19
 -1      1193 9.46670E-05-2.84007E-05-2.83975E-05-2.07876E-09 9.70329E-20-9.75976E-19
 -1      1194 9.48090E-05-2.84436E-05-2.84413E-05 7.69340E-11 3.23424E-19-3.10341E-18
 -1      1195 9.49383E-05-2.84830E-05-2.84814E-05 2.18223E-09-1.29119E-21-3.74521E-18
 -1      1196 9.50732E-05-2.85241E-05-2.85235E-05 4.30431E-09-6.38976E-20-3.12033E-18
 -1      1197 9.52343E-05-2.85734E-05-2.85738E-05 6.49783E-09 1.27679E-19-1.88139E-18
 -1      1198 9.54463E-05-2.86381E-05-2.86397E-05 8.79463E-09-1.06800E-19-2.21235E-18
 -1      1199 9.57386E-05-2.87272E-05-2.87305E-05 1.11886E-08 7.77862E-20-2.72336E-18
 -1      1200 9.61471E-05-2.88515E-05-2.88568E-05 1.36118E-08 6.42386E-20-2.55788E-18
 -1      1201 9.67155E-05-2.90241E-05-2.90322E-05 1.58967E-08-6.85576E-20-1.95768E-18
 -1      1202 9.74967E-05-2.92607E-05-2.92725E-05 1.77142E-08-5.90301E-20-1.51604E-18
 -1      1203 9.85536E-05-2.95802E-05-2.95970E-05 1.84758E-08 3.84725E-19-4.71376E-18
 -1      1204 9.99586E-05-3.00039E-05-3.00271E-05 1.71836E-08-1.11449E-19-4.17522E-18
 -1      1205 1.01791E-04-3.05549E-05-3.05861E-05 1.22175E-08-4.02010E-22-3.93329E-18
 -1      1206 1.04126E-04-3.12550E-05-3.12957E-05 1.07781E-09 1.04214E-19-5.59014E-18
 -1      1207 1.07022E-04-3.21193E-05-3.21696E-05-1.98071E-08-2.53117E-21-4.65985E-18
 -1      1208 1.10479E-04-3.31458E-05-3.32019E-05-5.48737E-08 8.45221E-20-4.22482E-18
 -1      1209 1.14380E-04-3.42971E-05-3.43472E-05-1.08034E-07-8.07384E-20-1.99574E-18
 -1      1210 1.18397E-04-3.54737E-05-3.54919E-05-1.78681E-07 3.05867E-19-2.40028E-18
 -1      1211 1.21866E-04-3.64799E-05-3.64215E-05-2.53498E-07-2.17370E-19-1.99026E-18
 -1      1212 1.23684E-04-3.69978E-05-3.68048E-05-2.95106E-07-1.78823E-19-3.04481E-18
 -1      1213 1.22356E-04-3.66026E-05-3.62342E-05-2.37499E-07-1.07467E-19-2.67469E-18
 -1      1214 1.16425E-04-3.48795E-05-3.43746E-05-1.14956E-08 7.05155E-20-2.74894E-18
 -1      1215 1.05430E-04-3.16827E-05-3.12229E-05 3.79828E-07 1.17896E-19-2.49388E-18
 -1      1216 9.11139E-05-2.74698E-05-2.73494E-05 7.75929E-07 3.47391E-20-3.28617E-18
 -1      1217 7.77305E-05-2.34271E-05-2.38572E-05 9.01213E-07-2.42212E-19-1.14529E-18
 -1      1218 7.01803E-05-2.10454E-05-2.18730E-05 6.05729E-07 2.96117E-19-5.28734E-19
 -1      1219 7.07232E-05-2.11023E-05-2.18776E-05 4.73962E-08-5.49116E-20 4.07423E-19
 -1      1220 7.73942E-05-2.31111E-05-2.34249E-05-4.25250E-07-9.64873E-20-8.82291E-19
 -1      1221 8.55609E-05-2.56480E-05-2.54783E-05-5.63270E-07 8.58058E-19-6.29716E-18
 -1      1222 9.13874E-05-2.74810E-05-2.71025E-05-4.02852E-07-1.34400E-20-8.04512E-18
 -1      1223 9.38821E-05-2.82595E-05-2.79603E-05-1.61120E-07 5.17875E-19-8.58788E-18
 -1      1224 9.44712E-05-2.83992E-05-2.82536E-05-7.71033E-08 6.08642E-19-1.11747E-17
 -1      1225 9.49245E-05-2.84952E-05-2.82763E-05-8.79143E-08 9.65816E-21-7.83168E-18
 -1      1226 9.53185E-05-2.88710E-05-2.83662E-05-1.19387E-07-7.74450E-18-5.27356E-19
 -1      1227 9.53584E-05-2.91975E-05-2.86060E-05-2.19019E-07-7.40611E-18 7.14403E-19
 -1      1228 9.47092E-05-2.72355E-05-2.94722E-05 7.54362E-09-4.05649E-20 1.66534E-18
 -1      1229 9.26346E-05-2.04214E-05-3.16653E-05 4.48372E-07 3.25854E-18 7.81547E-19
 -1      1230 8.87734E-05-7.41099E-06-3.54255E-05 9.82241E-07 5.49693E-18 2.07119E-19
 -1      1231 8.36082E-05 1.02230E-05-4.01913E-05 1.32602E-06 3.74600E-19-4.97007E-19
 -1      1232 7.86202E-05 2.75747E-05-4.46779E-05 1.15031E-06-5.27649E-18-3.49150E-19
 -1      1233 7.57140E-05 3.77664E-05-4.72307E-05 3.63856E-07-2.06724E-18 4.05411E-19
 -1      1234 7.63035E-05 3.57173E-05-4.66986E-05-6.38849E-07 8.33375E-19-3.84685E-19
 -1      1235 8.01716E-05 2.22169E-05-4.32573E-05-1.29351E-06 3.94400E-18 1.18016E-19
 -1      1236 8.56792E-05 3.17856E-06-3.82557E-05-1.31704E-06 3.50714E-18-1.23889E-18
 -1      1237 9.08105E-05-1.43130E-05-3.34443E-05-8.81939E-07 8.06693E-19 4.25078E-19
 -1      1238 9.43510E-05-2.61918E-05-2.99559E-05-3.60442E-07-1.79301E-18-6.58674E-19
 -1      1239 9.60389E-05-3.17126E-05-2.81344E-05 6.79432E-08 9.78535E-19 5.06837E-19
 -1      1240 9.63080E-05-3.22726E-05-2.77080E-05 2.94863E-07 2.52948E-18-3.67675E-19
 -1      1241 9.56699E-05-3.02845E-05-2.80050E-05 3.67823E-07 3.69783E-20-1.02465E-18
 -1      1242 9.52572E-05-2.87887E-05-2.83910E-05 1.14398E-07-4.16211E-19 3.57807E-19
 -1      1243 4.27897E-05-1.32552E-04 2.20224E-05-1.63898E-05-3.17807E-18-5.64177E-19
 -1      1244 2.14542E-05-7.88835E-05 1.17580E-05-2.98108E-05-9.46983E-19-5.52265E-19
 -1      1245 1.12241E-05-7.42997E-06-8.20971E-06 5.63026E-06 2.52077E-18 1.90159E-18
 -1      1246 4.60206E-05 2.95655E-05-3.18031E-05 6.95169E-05 2.45978E-18 2.07354E-18
 -1      1247 1.31989E-04 1.21510E-05-5.41135E-05 1.20077E-04 2.44454E-18 4.04712E-18
 -1      1248 2.42922E-04-4.23870E-05-7.25990E-05 1.20714E-04 2.27979E-18 4.64513E-18
 -1      1249 3.23823E-04-9.19279E-05-8.30553E-05 6.12516E-05 8.68738E-20-1.60767E-18
 -1      1250 3.32827E-04-1.00091E-04-8.34283E-05-2.73578E-05 1.46952E-18-9.78027E-18
 -1      1251 2.61679E-04-5.98215E-05-7.37053E-05-9.54436E-05 4.95260E-18-1.54092E-17
 -1      1252 1.54811E-04-6.27702E-06-5.60759E-05-1.11635E-04 8.35937E-18-1.50399E-17
 -1      1253 6.09567E-05 2.21889E-05-3.46894E-05-7.39809E-05 8.90570E-18-1.06658E-17
 -1      1254 1.30859E-05 2.77556E-06-1.21752E-05-1.46536E-05 8.18573E-18-6.72459E-18
 -1      1255 1.12327E-05-5.01580E-05 6.68662E-06 2.48706E-05 3.41015E-18-3.04000E-18
 -1      1256 3.10405E-05-1.05233E-04 1.87031E-05 2.82589E-05 2.22177E-18 4.24575E-20
 -1      1257 4.12071E-05-1.26887E-04 2.27293E-05 2.04067E-07-9.50583E-19-9.90076E-19
 -1      1258 2.93963E-05-1.00105E-04 1.75731E-05-2.63542E-05-6.30701E-18-1.75971E-18
 -1      1259 1.02275E-05-4.09007E-05 3.99674E-06-2.00002E-05-1.16789E-17-5.45955E-18
 -1      1260 1.57201E-05 1.10215E-05-1.54856E-05 2.37565E-05-7.48947E-18-4.57906E-18
 -1      1261 6.77994E-05 2.40583E-05-3.73126E-05 8.13159E-05-7.28787E-18-9.21233E-18
 -1      1262 1.62846E-04-8.23806E-06-5.82720E-05 1.15075E-04-7.18199E-18-1.25734E-17
 -1      1263 2.67603E-04-6.32465E-05-7.47570E-05 9.58319E-05-3.09908E-18-9.01158E-18
 -1      1264 3.30368E-04-9.95523E-05-8.32979E-05 2.36034E-05-3.59036E-19-6.52300E-18
 -1      1265 3.17339E-04-8.90866E-05-8.21853E-05-6.41092E-05 5.41069E-19-1.71778E-18
 -1      1266 2.36529E-04-3.98624E-05-7.15070E-05-1.20146E-04 7.87741E-20 3.62530E-19
 -1      1267 1.26819E-04 1.29731E-05-5.28192E-05-1.17681E-04-3.64055E-18 5.65987E-18
 -1      1268 4.17809E-05 2.77722E-05-2.95034E-05-6.29574E-05-1.06523E-17 8.05359E-18
 -1      1269 9.55106E-06-8.51714E-06-6.89380E-06-1.43203E-06-1.64985E-17 9.80949E-18
 -1      1270 2.03145E-05-7.54194E-05 1.10177E-05 2.95019E-05-8.38224E-18 5.18427E-18
 -1      1271 4.08548E-05-1.28794E-04 2.16218E-05 1.70507E-05-7.25060E-19-3.66765E-19
 -1      1272 1.04449E-04-2.20208E-05-3.78941E-05-1.72746E-05-6.76991E-19 1.16302E-17
 -1      1273 9.03236E-05-6.68207E-06-3.60184E-05-2.04703E-05-1.86162E-18-7.40730E-19
 -1      1274 9.26606E-05-6.74085E-06-3.72237E-05-2.57588E-05-2.42696E-18 2.12007E-18
 -1      1275 8.59047E-05-4.09729E-06-3.51300E-05-1.64299E-05-1.87703E-18-4.76803E-18
 -1      1276 8.71594E-05-4.09055E-06-3.56000E-05-1.88512E-05-2.10975E-18-3.06364E-18
 -1      1277 9.21382E-05-1.04647E-05-3.50945E-05-1.90341E-05-3.26325E-18-7.26066E-19
 -1      1278 8.40950E-05-3.18932E-06-3.46864E-05-1.28168E-05-1.51603E-18-6.66030E-18
 -1      1279 8.47046E-05-3.15897E-06-3.49108E-05-1.46294E-05-1.74658E-18-5.81496E-18
 -1      1280 8.78633E-05-7.39452E-06-3.45733E-05-1.54078E-05-2.97663E-18-3.99762E-18
 -1      1281 8.31849E-05-2.72809E-06-3.44699E-05-9.68351E-06-1.10599E-18-7.58162E-18
 -1      1282 8.35001E-05-2.71149E-06-3.45793E-05-1.12313E-05-1.27459E-18-7.18527E-18
 -1      1283 8.58631E-05-5.98380E-06-3.43049E-05-1.19577E-05-2.28273E-18-5.65490E-18
 -1      1284 8.26898E-05-2.45614E-06-3.43628E-05-6.91307E-06-7.16398E-19-7.94187E-18
 -1      1285 8.28604E-05-2.44787E-06-3.44177E-05-8.28358E-06-8.59626E-19-7.76020E-18
 -1      1286 8.48186E-05-5.21548E-06-3.41727E-05-8.94011E-06-1.63997E-18-6.38184E-18
 -1      1287 8.24134E-05-2.29095E-06-3.43093E-05-4.29406E-06-3.67473E-19-8.01934E-18
 -1      1288 8.25049E-05-2.28703E-06-3.43368E-05-5.59504E-06-4.69243E-19-8.00549E-18
 -1      1289 8.42299E-05-4.75967E-06-3.41083E-05-6.21561E-06-9.98551E-19-6.70093E-18
 -1      1290 8.22804E-05-2.20163E-06-3.42866E-05-1.78965E-06 1.84379E-21-8.01044E-18
 -1      1291 8.23196E-05-2.20004E-06-3.42978E-05-3.04042E-06-1.08812E-19-8.00528E-18
 -1      1292 8.39069E-05-4.49656E-06-3.40788E-05-3.64413E-06-4.25479E-19-6.72782E-18
 -1      1293 8.22543E-05-2.17412E-06-3.42839E-05 6.69644E-07 2.98681E-19-7.89803E-18
 -1      1294 8.22529E-05-2.17416E-06-3.42836E-05-5.65985E-07 1.84675E-19-7.98244E-18
 -1      1295 8.37651E-05-4.37690E-06-3.40677E-05-1.17039E-06 1.50380E-19-6.74034E-18
 -1      1296 8.23283E-05-2.20440E-06-3.42994E-05 3.14772E-06 5.83627E-19-7.68394E-18
 -1      1297 8.22862E-05-2.20602E-06-3.42875E-05 1.89433E-06 4.93450E-19-7.82178E-18
 -1      1298 8.37701E-05-4.38111E-06-3.40681E-05 1.27346E-06 6.24637E-19-6.60629E-18
 -1      1299 8.25224E-05-2.29749E-06-3.43393E-05 5.71154E-06 9.06421E-19-7.37471E-18
 -1      1300 8.24273E-05-2.30085E-06-3.43112E-05 4.40459E-06 8.08192E-19-7.56755E-18
 -1      1301 8.39226E-05-4.51011E-06-3.40799E-05 3.75141E-06 1.13601E-18-6.39767E-18
 -1      1302 8.28832E-05-2.46334E-06-3.44200E-05 8.39284E-06 1.26545E-18-6.81962E-18
 -1      1303 8.27098E-05-2.47201E-06-3.43648E-05 7.01326E-06 1.13817E-18-7.16108E-18
 -1      1304 8.42562E-05-4.78338E-06-3.41093E-05 6.30946E-06 1.69089E-18-6.01547E-18
 -1      1305 8.35430E-05-2.74087E-06-3.45841E-05 1.13928E-05 1.70739E-18-5.83510E-18
 -1      1306 8.32208E-05-2.75795E-06-3.44730E-05 9.82796E-06 1.51757E-18-6.42561E-18
 -1      1307 8.48605E-05-5.25689E-06-3.41730E-05 9.05212E-06 2.28825E-18-5.35632E-18
 -1      1308 8.47659E-05-3.20333E-06-3.49194E-05 1.48415E-05 2.08423E-18-4.10657E-18
 -1      1309 8.41526E-05-3.24004E-06-3.46923E-05 1.30012E-05 1.89762E-18-5.18245E-18
 -1      1310 8.59456E-05-6.06245E-06-3.43063E-05 1.21204E-05 2.94601E-18-4.26841E-18
 -1      1311 8.72582E-05-4.09079E-06-3.56217E-05 1.90892E-05 2.37667E-18-7.59683E-19
 -1      1312 8.59740E-05-4.15461E-06-3.51381E-05 1.66909E-05 2.11798E-18-2.76186E-18
 -1      1313 8.79927E-05-7.51744E-06-3.45762E-05 1.56482E-05 3.38202E-18-2.22828E-18
 -1      1314 9.34732E-05-6.79345E-06-3.71190E-05 2.50949E-05 2.06454E-18 5.55992E-18
 -1      1315 9.01386E-05-6.43885E-06-3.60410E-05 2.11471E-05 2.00773E-18 1.70592E-18
 -1      1316 9.23671E-05-1.06993E-05-3.50797E-05 1.96744E-05 3.57803E-18 1.51344E-18
 -1      1317 1.23635E-04-2.49255E-05-3.90175E-05 2.83662E-05 1.02851E-18 1.75090E-17
 -1      1318 1.00089E-04-1.44258E-05-3.73568E-05 2.40493E-05 1.04206E-18 9.21371E-18
 -1      1319 1.01688E-04-1.93447E-05-3.54049E-05 2.13969E-05 3.34219E-18 7.24128E-18
 -1      1320 1.02614E-04-2.78082E-05-3.47607E-05 7.32804E-06 1.81657E-18 1.67895E-17
 -1      1321 1.05157E-04-3.02333E-05-3.35285E-05-7.95818E-06-2.00948E-18 1.23076E-17
 -1      1322 9.82720E-05-2.78465E-05-3.07655E-05-4.98710E-06-1.86713E-18 9.97016E-18
 -1      1323 9.55151E-05-2.78529E-05-2.92582E-05-2.48865E-06-1.49020E-18 8.97342E-18
 -1      1324 9.32837E-05-2.75623E-05-2.82191E-05-2.04202E-06-1.44162E-18 6.79612E-18
 -1      1325 9.94955E-05-2.80559E-05-3.09859E-05-7.88429E-06-3.24699E-18 4.94376E-18
 -1      1326 9.15947E-05-2.72045E-05-2.75850E-05-8.37364E-07-1.23336E-18 5.98476E-18
 -1      1327 9.08790E-05-2.71094E-05-2.72830E-05-7.27168E-07-1.07906E-18 4.33657E-18
 -1      1328 9.47300E-05-2.77735E-05-2.88200E-05-3.11874E-06-2.58030E-18 3.51156E-18
 -1      1329 9.01295E-05-2.69268E-05-2.70401E-05-1.72862E-07-7.46464E-19 3.57998E-18
 -1      1330 9.00580E-05-2.69539E-05-2.70055E-05-1.14730E-07-7.92290E-19 2.48541E-18
 -1      1331 9.25320E-05-2.75034E-05-2.78995E-05-1.05141E-06-1.82561E-18 1.98800E-18
 -1      1332 8.97996E-05-2.68868E-05-2.69316E-05 1.55537E-07-6.04418E-19 2.14903E-18
 -1      1333 9.00152E-05-2.69772E-05-2.69935E-05 1.84192E-07-4.76269E-19 1.34795E-18
 -1      1334 9.15751E-05-2.73602E-05-2.75331E-05-6.78259E-08-1.26385E-18 8.99529E-19
 -1      1335 9.00199E-05-2.69806E-05-2.70003E-05 3.15124E-07-5.14862E-19 9.43555E-19
 -1      1336 9.03631E-05-2.71006E-05-2.70996E-05 3.26802E-07-3.45073E-19 3.70193E-19
 -1      1337 9.13237E-05-2.73489E-05-2.74256E-05 4.19201E-07-1.03005E-18 1.97683E-19
 -1      1338 9.05057E-05-2.71425E-05-2.71470E-05 3.81129E-07-2.20328E-19-3.08902E-20
 -1      1339 9.08940E-05-2.72709E-05-2.72592E-05 3.82758E-07-3.66884E-19-4.64240E-19
 -1      1340 9.14579E-05-2.74229E-05-2.74482E-05 6.46948E-07-7.51335E-19-4.85194E-19
 -1      1341 9.11025E-05-2.73313E-05-2.73258E-05 3.93002E-07-3.32264E-19-7.08159E-19
 -1      1342 9.14900E-05-2.74561E-05-2.74380E-05 3.88729E-07-3.74689E-19-1.26331E-18
 -1      1343 9.17915E-05-2.75421E-05-2.75374E-05 7.28730E-07-7.30543E-19-8.63026E-19
 -1      1344 9.17214E-05-2.75228E-05-2.75110E-05 3.73685E-07-4.82715E-19-1.37790E-18
 -1      1345 9.20826E-05-2.76371E-05-2.76161E-05 3.66178E-07-4.73320E-19-1.91960E-18
 -1      1346 9.22135E-05-2.76794E-05-2.76575E-05 7.26117E-07-7.67098E-19-1.21765E-18
 -1      1347 9.23114E-05-2.77029E-05-2.76879E-05 3.37495E-07-4.71088E-19-2.12928E-18
 -1      1348 9.26333E-05-2.78035E-05-2.77819E-05 3.28509E-07-1.93338E-19-2.60609E-18
 -1      1349 9.26574E-05-2.78179E-05-2.77871E-05 6.75862E-07-7.39979E-19-1.55552E-18
 -1      1350 9.28452E-05-2.78643E-05-2.78482E-05 2.93645E-07 2.05193E-19-3.09724E-18
 -1      1351 9.31223E-05-2.79501E-05-2.79294E-05 2.84329E-07 4.16907E-20-2.98103E-18
 -1      1352 9.30839E-05-2.79477E-05-2.79135E-05 6.01128E-07-3.16046E-19-2.16603E-18
 -1      1353 9.33101E-05-2.80039E-05-2.79881E-05 2.48083E-07-4.21372E-20-2.77411E-18
 -1      1354 9.35421E-05-2.80751E-05-2.80563E-05 2.39170E-07-7.29761E-20-2.94429E-18
 -1      1355 9.34715E-05-2.80637E-05-2.80297E-05 5.16818E-07 3.96923E-21-2.98058E-18
 -1      1356 9.37034E-05-2.81211E-05-2.81066E-05 2.04600E-07-9.64757E-20-2.98030E-18
 -1      1357 9.38933E-05-2.81789E-05-2.81626E-05 1.96542E-07-1.03364E-19-2.88906E-18
 -1      1358 9.38106E-05-2.81637E-05-2.81321E-05 4.32512E-07-2.01434E-19-3.10938E-18
 -1      1359 9.40285E-05-2.82175E-05-2.82048E-05 1.65557E-07-1.62724E-19-2.64404E-18
 -1      1360 9.41810E-05-2.82635E-05-2.82499E-05 1.58624E-07-2.39239E-19-3.03511E-18
 -1      1361 9.40990E-05-2.82478E-05-2.82199E-05 3.54284E-07-2.47127E-19-2.71914E-18
 -1      1362 9.42929E-05-2.82954E-05-2.82848E-05 1.32404E-07-4.60038E-19-2.95073E-18
 -1      1363 9.44140E-05-2.83315E-05-2.83207E-05 1.26754E-07-3.60435E-19-3.45527E-18
 -1      1364 9.43396E-05-2.83170E-05-2.82936E-05 2.85927E-07-4.63488E-19-2.37760E-18
 -1      1365 9.45064E-05-2.83578E-05-2.83495E-05 1.06059E-07-2.35517E-19-3.65171E-18
 -1      1366 9.46027E-05-2.83862E-05-2.83782E-05 1.01795E-07-2.67578E-19-3.98750E-18
 -1      1367 9.45388E-05-2.83736E-05-2.83551E-05 2.29827E-07-5.91984E-19-2.49515E-18
 -1      1368 9.46805E-05-2.84082E-05-2.84025E-05 8.71930E-08-1.04927E-19-3.98997E-18
 -1      1369 9.47593E-05-2.84311E-05-2.84261E-05 8.44082E-08-1.22285E-19-4.10919E-18
 -1      1370 9.47050E-05-2.84200E-05-2.84069E-05 1.87623E-07-2.43335E-19-2.86120E-18
 -1      1371 9.48282E-05-2.84505E-05-2.84475E-05 7.64582E-08-2.72000E-21-4.62788E-18
 -1      1372 9.48972E-05-2.84702E-05-2.84684E-05 7.52685E-08-1.05701E-19-4.88601E-18
 -1      1373 9.48484E-05-2.84593E-05-2.84519E-05 1.60701E-07-3.29713E-19-3.33995E-18
 -1      1374 9.49636E-05-2.84888E-05-2.84890E-05 7.46561E-08-2.43678E-20-5.04652E-18
 -1      1375 9.50312E-05-2.85080E-05-2.85095E-05 7.52273E-08-1.16591E-19-4.83874E-18
 -1      1376 9.49808E-05-2.84951E-05-2.84939E-05 1.50579E-07-3.24806E-19-3.66150E-18
 -1      1377 9.51023E-05-2.85279E-05-2.85316E-05 8.28678E-08 1.97369E-19-4.92874E-18
 -1      1378 9.51782E-05-2.85493E-05-2.85546E-05 8.54356E-08 9.97116E-20-4.68837E-18
 -1      1379 9.51154E-05-2.85310E-05-2.85368E-05 1.59195E-07 2.09685E-19-3.84766E-18
 -1      1380 9.52623E-05-2.85729E-05-2.85808E-05 1.02543E-07-4.38203E-20-4.20666E-18
 -1      1381 9.53573E-05-2.85999E-05-2.86095E-05 1.07427E-07-6.25783E-20-4.11169E-18
 -1      1382 9.52674E-05-2.85715E-05-2.85853E-05 1.89117E-07 1.93351E-19-3.65637E-18
 -1      1383 9.54639E-05-2.86298E-05-2.86427E-05 1.35544E-07-9.61765E-20-4.24620E-18
 -1      1384 9.55908E-05-2.86662E-05-2.86809E-05 1.43148E-07 2.92020E-20-4.09009E-18
 -1      1385 9.54542E-05-2.86215E-05-2.86447E-05 2.43660E-07-1.38423E-19-3.09477E-18
 -1      1386 9.57309E-05-2.87057E-05-2.87245E-05 1.84122E-07 1.52320E-19-4.24162E-18
 -1      1387 9.59045E-05-2.87561E-05-2.87767E-05 1.94930E-07 3.43072E-19-4.08774E-18
 -1      1388 9.56957E-05-2.86870E-05-2.87212E-05 3.26894E-07 1.53064E-19-2.86561E-18
 -1      1389 9.60908E-05-2.88088E-05-2.88346E-05 2.50806E-07 2.19468E-19-3.97645E-18
 -1      1390 9.63286E-05-2.88784E-05-2.89058E-05 2.65350E-07 2.40758E-19-3.80539E-18
 -1      1391 9.60152E-05-2.87746E-05-2.88216E-05 4.43490E-07 4.41415E-19-2.99603E-18
 -1      1392 9.65753E-05-2.89484E-05-2.89826E-05 3.38139E-07 1.81375E-19-3.48019E-18
 -1      1393 9.68970E-05-2.90435E-05-2.90786E-05 3.56935E-07 2.60782E-19-3.04879E-18
 -1      1394 9.64388E-05-2.88922E-05-2.89540E-05 5.98318E-07 3.73217E-19-2.57003E-18
 -1      1395 9.72196E-05-2.91354E-05-2.91789E-05 4.48185E-07 9.37510E-20-3.14468E-18
 -1      1396 9.76470E-05-2.92628E-05-2.93060E-05 4.71616E-07-1.17380E-19-2.76618E-18
 -1      1397 9.69956E-05-2.90488E-05-2.91269E-05 7.95662E-07 2.02997E-19-2.50638E-18
 -1      1398 9.80613E-05-2.93813E-05-2.94347E-05 5.81672E-07-8.83115E-20-2.90612E-18
 -1      1399 9.86168E-05-2.95484E-05-2.95995E-05 6.09782E-07-1.35491E-19-3.36338E-18
 -1      1400 9.77164E-05-2.92542E-05-2.93492E-05 1.03783E-06-2.21968E-19-2.38680E-18
 -1      1401 9.91373E-05-2.96981E-05-2.97609E-05 7.36580E-07 1.71323E-19-2.96199E-18
 -1      1402 9.98410E-05-2.99117E-05-2.99690E-05 7.68739E-07 4.39558E-19-2.38641E-18
 -1      1403 9.86312E-05-2.95186E-05-2.96292E-05 1.32286E-06 4.00374E-19-2.39061E-18
 -1      1404 1.00478E-04-3.00963E-05-3.01659E-05 9.05941E-07-5.92898E-20-2.18657E-18
 -1      1405 1.01343E-04-3.03615E-05-3.04207E-05 9.40311E-07 1.20435E-19-2.28241E-18
 -1      1406 9.97649E-05-2.98520E-05-2.99731E-05 1.64089E-06 1.31222E-19-2.22035E-18
 -1      1407 1.02097E-04-3.05825E-05-3.06528E-05 1.07457E-06-1.82708E-19-2.09424E-18
 -1      1408 1.03120E-04-3.09001E-05-3.09529E-05 1.10732E-06-3.97356E-19-2.34404E-18
 -1      1409 1.01130E-04-3.02621E-05-3.03826E-05 1.96870E-06 5.62524E-20-2.42247E-18
 -1      1410 1.03977E-04-3.11552E-05-3.12144E-05 1.21462E-06-4.69338E-20-2.11148E-18
 -1      1411 1.05125E-04-3.15179E-05-3.15493E-05 1.23881E-06-3.46601E-19-2.47261E-18
 -1      1412 1.02716E-04-3.07520E-05-3.08510E-05 2.26216E-06-4.30180E-19-1.77759E-18
 -1      1413 1.06044E-04-3.17982E-05-3.18258E-05 1.28031E-06-6.27893E-19-2.56062E-18
 -1      1414 1.07240E-04-3.21845E-05-3.21713E-05 1.28470E-06-6.28919E-19-3.75858E-18
 -1      1415 1.04472E-04-3.13155E-05-3.13583E-05 2.44691E-06-7.13143E-19-1.71351E-18
 -1      1416 1.08142E-04-3.24711E-05-3.24358E-05 1.20363E-06-4.65820E-19-3.62014E-18
 -1      1417 1.09237E-04-3.28381E-05-3.27472E-05 1.17172E-06-1.52168E-19-4.29680E-18
 -1      1418 1.06288E-04-3.19306E-05-3.18653E-05 2.40949E-06-7.29998E-19-2.09552E-18
 -1      1419 1.09994E-04-3.30974E-05-3.29574E-05 8.95397E-07-1.32051E-20-4.39318E-18
 -1      1420 1.10752E-04-3.33724E-05-3.31651E-05 8.06224E-07 3.42714E-19-4.33631E-18
 -1      1421 1.07968E-04-3.25489E-05-3.23074E-05 1.99539E-06-1.94000E-19-2.27369E-18
 -1      1422 1.11180E-04-3.35520E-05-3.32626E-05 2.60187E-07-6.14364E-20-4.90622E-18
 -1      1423 1.11277E-04-3.36287E-05-3.32735E-05 9.33473E-08-2.34555E-20-5.24019E-18
 -1      1424 1.09213E-04-3.30824E-05-3.25931E-05 1.02679E-06 8.96002E-21-2.44572E-18
 -1      1425 1.11148E-04-3.36551E-05-3.31911E-05-7.62629E-07 7.39533E-19-5.39483E-18
 -1      1426 1.10211E-04-3.34025E-05-3.29039E-05-1.01441E-06 4.52858E-19-4.39385E-18
 -1      1427 1.09616E-04-3.33893E-05-3.26107E-05-6.39823E-07 1.97564E-19-3.28107E-18
 -1      1428 1.09297E-04-3.31891E-05-3.25833E-05-2.12498E-06 4.60429E-19-5.01340E-18
 -1      1429 1.07030E-04-3.24874E-05-3.19236E-05-2.43550E-06 5.69140E-19-3.98656E-18
 -1      1430 1.08715E-04-3.32716E-05-3.22522E-05-2.99850E-06 9.82757E-19-3.69336E-18
 -1      1431 1.05197E-04-3.19603E-05-3.13449E-05-3.58255E-06 4.19414E-20-2.36211E-18
 -1      1432 1.01572E-04-3.07704E-05-3.03200E-05-3.87163E-06 9.38949E-20-2.81136E-18
 -1      1433 1.06117E-04-3.25126E-05-3.14549E-05-5.73643E-06 6.90630E-19-3.25355E-18
 -1      1434 9.89117E-05-2.99231E-05-2.95346E-05-4.66063E-06-2.13942E-20-2.32341E-18
 -1      1435 9.43753E-05-2.83759E-05-2.82789E-05-4.79976E-06-4.64521E-19-2.60251E-18
 -1      1436 1.01734E-04-3.09772E-05-3.02538E-05-8.12351E-06 2.62236E-19-1.82774E-18
 -1      1437 9.13212E-05-2.73384E-05-2.74208E-05-4.79139E-06-2.97663E-19-2.64835E-18
 -1      1438 8.68310E-05-2.57725E-05-2.61940E-05-4.66468E-06-4.57848E-19-3.42196E-18
 -1      1439 9.60562E-05-2.87943E-05-2.88152E-05-9.13123E-06-2.96538E-19-2.34206E-18
 -1      1440 8.41168E-05-2.48247E-05-2.54496E-05-3.65911E-06-1.24486E-18-4.01340E-18
 -1      1441 8.08496E-05-2.36884E-05-2.45547E-05-3.26156E-06-9.83855E-19-5.30131E-18
 -1      1442 9.02632E-05-2.64643E-05-2.74129E-05-7.93862E-06-1.55227E-18-3.62550E-18
 -1      1443 7.92164E-05-2.31425E-05-2.40924E-05-1.53668E-06-1.99212E-19-4.61916E-18
 -1      1444 7.80124E-05-2.27669E-05-2.37401E-05-1.01931E-06 5.25227E-19-5.24832E-18
 -1      1445 8.58904E-05-2.47320E-05-2.63435E-05-4.60772E-06-7.63891E-19-3.18509E-18
 -1      1446 7.77981E-05-2.27672E-05-2.36352E-05 7.42635E-07 8.15005E-19-5.01845E-18
 -1      1447 7.87018E-05-2.31623E-05-2.38406E-05 1.15488E-06 8.44419E-19-3.64949E-18
 -1      1448 8.40754E-05-2.41675E-05-2.58088E-05-3.29726E-07 9.81301E-19-2.68899E-18
 -1      1449 7.96417E-05-2.35779E-05-2.40462E-05 2.29211E-06 1.02305E-18-3.42553E-18
 -1      1450 8.19270E-05-2.44419E-05-2.46355E-05 2.45951E-06 1.05910E-18-2.13479E-18
 -1      1451 8.48845E-05-2.47781E-05-2.58368E-05 3.19733E-06 2.15042E-18-2.48226E-18
 -1      1452 8.33767E-05-2.49830E-05-2.50166E-05 2.74669E-06 9.30230E-19-7.65956E-19
 -1      1453 8.60440E-05-2.59231E-05-2.57385E-05 2.69388E-06 9.43295E-19 3.43869E-19
 -1      1454 8.73366E-05-2.60191E-05-2.62847E-05 4.87048E-06 1.71587E-18-1.63623E-18
 -1      1455 8.74053E-05-2.63532E-05-2.61483E-05 2.38003E-06 5.29442E-19-1.39760E-20
 -1      1456 8.97328E-05-2.71152E-05-2.68041E-05 2.23554E-06 3.85582E-19 2.67371E-19
 -1      1457 9.01212E-05-2.72163E-05-2.69219E-05 4.75650E-06 1.02124E-18-6.04457E-19
 -1      1458 9.07172E-05-2.73625E-05-2.71420E-05 1.74830E-06 2.80911E-19 5.35695E-19
 -1      1459 9.24674E-05-2.79094E-05-2.76393E-05 1.62980E-06 6.45830E-20 6.36678E-19
 -1      1460 9.23437E-05-2.79920E-05-2.75359E-05 3.72529E-06 4.24727E-19-1.50257E-18
 -1      1461 9.30977E-05-2.80595E-05-2.78585E-05 1.19261E-06-2.63722E-19 4.82623E-19
 -1      1462 9.43230E-05-2.84844E-05-2.81673E-05 1.10843E-06-2.69519E-19 4.47564E-19
 -1      1463 9.38072E-05-2.84052E-05-2.79837E-05 2.60723E-06 8.22482E-20-1.12174E-19
 -1      1464 9.49662E-05-2.87753E-05-2.82739E-05 3.15132E-07-8.18538E-19 6.87367E-19
 -1      1465 9.50147E-05-2.90525E-05-2.82180E-05 1.26424E-06-5.23705E-19 1.51675E-19
 -1      1466 9.65891E-05-2.83672E-05-2.97759E-05 2.99486E-06 1.65555E-18 1.31489E-17
 -1      1467 1.02547E-04-2.94017E-05-3.21590E-05 4.46192E-06 1.42090E-18 1.57046E-17
 -1      1468 1.02336E-04-2.67212E-05-3.27087E-05 1.27815E-05 2.81501E-18 1.01125E-17
 -1      1469 9.20442E-05-2.74333E-05-2.77658E-05 1.15112E-06 1.23516E-18 9.83040E-18
 -1      1470 9.39899E-05-2.75882E-05-2.86797E-05 1.47309E-06 1.21326E-18 1.18572E-17
 -1      1471 9.64982E-05-2.80337E-05-2.95372E-05 4.86605E-06 2.49435E-18 7.78721E-18
 -1      1472 9.02132E-05-2.70090E-05-2.70675E-05 3.30838E-07 7.63865E-19 7.61419E-18
 -1      1473 9.08272E-05-2.70262E-05-2.73398E-05 4.93758E-07 8.02815E-19 8.93577E-18
 -1      1474 9.30549E-05-2.75826E-05-2.81026E-05 1.85012E-06 1.84836E-18 5.89094E-18
 -1      1475 8.96975E-05-2.68913E-05-2.68923E-05-5.61012E-08 5.81832E-19 6.02288E-18
 -1      1476 8.97339E-05-2.68287E-05-2.69202E-05 3.30775E-08 5.87492E-19 7.01849E-18
 -1      1477 9.15030E-05-2.73118E-05-2.75192E-05 5.16030E-07 1.24158E-18 4.41006E-18
 -1      1478 8.98310E-05-2.69443E-05-2.69346E-05-2.43374E-07 5.54315E-19 4.78320E-18
 -1      1479 8.96015E-05-2.68364E-05-2.68692E-05-1.93090E-07 4.80649E-19 5.59831E-18
 -1      1480 9.09726E-05-2.72313E-05-2.73234E-05-1.33891E-07 1.02578E-18 3.37827E-18
 -1      1481 9.02850E-05-2.70871E-05-2.70732E-05-3.26425E-07 3.59776E-19 3.79334E-18
 -1      1482 8.99372E-05-2.69596E-05-2.69714E-05-2.98727E-07 3.55468E-19 4.34327E-18
 -1      1483 9.09912E-05-2.72747E-05-2.73129E-05-4.52517E-07 7.34905E-19 2.57460E-18
 -1      1484 9.08800E-05-2.72695E-05-2.72527E-05-3.50734E-07 1.18111E-19 3.22825E-18
 -1      1485 9.04918E-05-2.71390E-05-2.71391E-05-3.37024E-07 1.99474E-19 3.56248E-18
 -1      1486 9.12963E-05-2.73869E-05-2.73947E-05-5.92421E-07 4.64477E-19 1.92476E-18
 -1      1487 9.15133E-05-2.74618E-05-2.74434E-05-3.41232E-07 1.72079E-19 2.76986E-18
 -1      1488 9.11284E-05-2.73380E-05-2.73305E-05-3.36327E-07 1.89016E-19 2.93653E-18
 -1      1489 9.17369E-05-2.75307E-05-2.75205E-05-6.30366E-07 3.53638E-19 1.42014E-18
 -1      1490 9.21258E-05-2.76464E-05-2.76280E-05-3.12972E-07 4.01849E-19 2.08554E-18
 -1      1491 9.17684E-05-2.75349E-05-2.75228E-05-3.13520E-07 2.28014E-19 2.44678E-18
 -1      1492 9.22237E-05-2.76829E-05-2.76627E-05-6.09642E-07 5.04969E-19 7.56418E-19
 -1      1493 9.26850E-05-2.78142E-05-2.77967E-05-2.75482E-07 3.29738E-19 1.50537E-18
 -1      1494 9.23674E-05-2.77173E-05-2.77030E-05-2.79248E-07 3.18147E-19 2.02131E-18
 -1      1495 9.27040E-05-2.78296E-05-2.78047E-05-5.56657E-07 5.88738E-19 6.40904E-19
 -1      1496 9.31751E-05-2.79608E-05-2.79449E-05-2.34885E-07 3.62707E-19 7.74559E-19
 -1      1497 9.29024E-05-2.78789E-05-2.78642E-05-2.40359E-07 3.68813E-19 1.48026E-18
 -1      1498 9.31482E-05-2.79633E-05-2.79371E-05-4.88183E-07 4.70741E-19 8.87399E-19
 -1      1499 9.35917E-05-2.80849E-05-2.80710E-05-1.95090E-07 1.38055E-19 5.47671E-19
 -1      1500 9.33638E-05-2.80175E-05-2.80034E-05-2.01252E-07 5.71671E-20 6.72045E-19
 -1      1501 9.35413E-05-2.80803E-05-2.80550E-05-4.15011E-07 2.55808E-19 3.77119E-19
 -1      1502 9.39371E-05-2.81875E-05-2.81757E-05-1.58537E-07 1.61011E-19 2.28689E-19
 -1      1503 9.37509E-05-2.81332E-05-2.81204E-05-1.64701E-07 1.87735E-19 4.14270E-19
 -1      1504 9.38783E-05-2.81797E-05-2.81565E-05-3.44033E-07 3.17827E-19 4.66023E-20
 -1      1505 9.42179E-05-2.82706E-05-2.82611E-05-1.26709E-07 1.94619E-20-3.82080E-19
 -1      1506 9.40688E-05-2.82277E-05-2.82165E-05-1.32416E-07 2.31738E-19-1.02602E-19
 -1      1507 9.41604E-05-2.82621E-05-2.82419E-05-2.79580E-07 3.52390E-19-2.81998E-19
 -1      1508 9.44438E-05-2.83372E-05-2.83298E-05-1.00505E-07 6.36376E-20-5.22906E-19
 -1      1509 9.43257E-05-2.83036E-05-2.82944E-05-1.05438E-07 1.37086E-19-3.48657E-19
 -1      1510 9.43929E-05-2.83293E-05-2.83127E-05-2.24335E-07 1.69247E-19-4.44804E-19
 -1      1511 9.46260E-05-2.83907E-05-2.83854E-05-8.05212E-08 1.86145E-20-7.48868E-19
 -1      1512 9.45324E-05-2.83642E-05-2.83572E-05-8.44398E-08-2.18532E-20-9.61221E-19
 -1      1513 9.45840E-05-2.83840E-05-2.83712E-05-1.80009E-07 1.86277E-19-8.57641E-19
 -1      1514 9.47772E-05-2.84348E-05-2.84317E-05-6.72646E-08 7.84097E-19-1.65327E-18
 -1      1515 9.47009E-05-2.84133E-05-2.84086E-05-6.99539E-08 5.08511E-19-8.60063E-19
 -1      1516 9.47435E-05-2.84291E-05-2.84203E-05-1.47849E-07 5.39590E-19-1.43947E-18
 -1      1517 9.49114E-05-2.84737E-05-2.84729E-05-6.13325E-08 2.80590E-19-2.70245E-18
 -1      1518 9.48446E-05-2.84547E-05-2.84525E-05-6.25569E-08 6.83183E-19-1.90397E-18
 -1      1519 9.48830E-05-2.84681E-05-2.84635E-05-1.29034E-07 1.16248E-18-1.70167E-18
 -1      1520 9.50442E-05-2.85120E-05-2.85137E-05-6.35532E-08-2.55484E-19-2.31259E-18
 -1      1521 9.49784E-05-2.84928E-05-2.84935E-05-6.30169E-08-3.51036E-19-2.65286E-18
 -1      1522 9.50155E-05-2.85047E-05-2.85049E-05-1.24997E-07-9.43099E-20-1.42897E-18
 -1      1523 9.51931E-05-2.85549E-05-2.85595E-05-7.51079E-08-6.22772E-19-1.76229E-18
 -1      1524 9.51188E-05-2.85325E-05-2.85366E-05-7.24174E-08-3.12319E-19-2.27128E-18
 -1      1525 9.51559E-05-2.85433E-05-2.85489E-05-1.37683E-07-5.36867E-19-1.27055E-18
 -1      1526 9.53790E-05-2.86086E-05-2.86165E-05-9.76335E-08 1.23422E-19-1.17766E-18
 -1      1527 9.52848E-05-2.85795E-05-2.85875E-05-9.22616E-08-1.74784E-19-1.46639E-18
 -1      1528 9.53214E-05-2.85889E-05-2.86008E-05-1.69772E-07-5.44519E-19-1.18373E-18
 -1      1529 9.56263E-05-2.86803E-05-2.86921E-05-1.33309E-07 2.20997E-19-2.16566E-18
 -1      1530 9.54989E-05-2.86402E-05-2.86531E-05-1.24560E-07 2.50226E-19-1.44932E-18
 -1      1531 9.55322E-05-2.86473E-05-2.86668E-05-2.24859E-07 2.48001E-19-6.65889E-19
 -1      1532 9.59646E-05-2.87787E-05-2.87954E-05-1.84917E-07 1.80461E-19-2.25544E-18
 -1      1533 9.57878E-05-2.87225E-05-2.87415E-05-1.71894E-07 3.11593E-19-2.34726E-18
 -1      1534 9.58120E-05-2.87255E-05-2.87542E-05-3.07589E-07 6.36558E-19-2.26924E-18
 -1      1535 9.64294E-05-2.89144E-05-2.89370E-05-2.55867E-07-2.23223E-19-2.27981E-18
 -1      1536 9.61834E-05-2.88357E-05-2.88623E-05-2.37440E-07-2.76828E-19-2.73335E-18
 -1      1537 9.61896E-05-2.88317E-05-2.88717E-05-4.23735E-07 7.35496E-20-2.95709E-18
 -1      1538 9.70636E-05-2.91002E-05-2.91299E-05-3.50125E-07-2.30965E-19-2.06027E-18
 -1      1539 9.67245E-05-2.89913E-05-2.90272E-05-3.24923E-07-5.98912E-20-2.17748E-18
 -1      1540 9.66988E-05-2.89759E-05-2.90296E-05-5.80143E-07-2.60487E-19-2.41940E-18
 -1      1541 9.79177E-05-2.93512E-05-2.93893E-05-4.71992E-07 6.54676E-19-2.40833E-18
 -1      1542 9.74570E-05-2.92030E-05-2.92502E-05-4.38424E-07 4.67374E-20-1.82738E-18
 -1      1543 9.73795E-05-2.91700E-05-2.92402E-05-7.84452E-07 7.79427E-20-2.57570E-18
 -1      1544 9.90503E-05-2.96851E-05-2.97327E-05-6.25555E-07 1.15032E-19-3.73034E-18
 -1      1545 9.84345E-05-2.94867E-05-2.95474E-05-5.81912E-07 6.52983E-19-2.76217E-18
 -1      1546 9.82776E-05-2.94276E-05-2.95172E-05-1.04437E-06 8.42611E-19-2.54316E-18
 -1      1547 1.00525E-04-3.01214E-05-3.01793E-05-8.13549E-07-6.68825E-19-2.67295E-18
 -1      1548 9.97175E-05-2.98608E-05-2.99368E-05-7.58272E-07-5.22308E-19-3.35016E-18
 -1      1549 9.94433E-05-2.97642E-05-2.98755E-05-1.36610E-06-7.39365E-19-1.97909E-18
 -1      1550 1.02407E-04-3.06804E-05-3.07477E-05-1.03516E-06 4.05605E-19-2.92457E-18
 -1      1551 1.01369E-04-3.03454E-05-3.04373E-05-9.67410E-07 1.40890E-19-2.74749E-18
 -1      1552 1.00929E-04-3.01966E-05-3.03301E-05-1.75135E-06-1.06777E-19-1.89014E-18
 -1      1553 1.04748E-04-3.13798E-05-3.14528E-05-1.28199E-06-2.06590E-19-2.94831E-18
 -1      1554 1.03449E-04-3.09602E-05-3.10658E-05-1.20281E-06 1.17627E-19-2.90496E-18
 -1      1555 1.02779E-04-3.07412E-05-3.08935E-05-2.19170E-06-7.19052E-20-1.42629E-18
 -1      1556 1.07568E-04-3.22291E-05-3.22978E-05-1.53123E-06-2.57376E-19-2.37929E-18
 -1      1557 1.05995E-04-3.17209E-05-3.18320E-05-1.44563E-06-2.18746E-19-3.13387E-18
 -1      1558 1.05023E-04-3.14111E-05-3.15706E-05-2.65891E-06-3.94466E-20-1.10328E-18
 -1      1559 1.10812E-04-3.32181E-05-3.32621E-05-1.73496E-06-4.23110E-19-2.01375E-18
 -1      1560 1.08997E-04-3.26317E-05-3.27292E-05-1.65542E-06-3.33761E-19-2.21310E-18
 -1      1561 1.07644E-04-3.22113E-05-3.23514E-05-3.08943E-06-4.06314E-19-4.16747E-19
 -1      1562 1.14291E-04-3.42995E-05-3.42815E-05-1.80599E-06 6.64791E-19-1.95131E-18
 -1      1563 1.12346E-04-3.36728E-05-3.37190E-05-1.75753E-06 6.17788E-20-1.90747E-18
 -1      1564 1.10551E-04-3.31291E-05-3.31986E-05-3.36235E-06-3.21628E-19-1.46563E-18
 -1      1565 1.17596E-04-3.53618E-05-3.52241E-05-1.60511E-06-2.60430E-19-1.22791E-18
 -1      1566 1.15769E-04-3.47788E-05-3.47103E-05-1.63064E-06 4.20519E-19-1.22124E-18
 -1      1567 1.13520E-04-3.41191E-05-3.40320E-05-3.27521E-06 2.37292E-19-8.52671E-19
 -1      1568 1.20012E-04-3.61967E-05-3.58684E-05-9.45504E-07 7.28217E-20-1.00768E-18
 -1      1569 1.18741E-04-3.58074E-05-3.55356E-05-1.10669E-06-2.93689E-19-1.27223E-18
 -1      1570 1.16141E-04-3.50792E-05-3.47132E-05-2.53488E-06-6.74979E-20-2.37222E-19
 -1      1571 1.20494E-04-3.64756E-05-3.59103E-05 3.51844E-07-2.48445E-19-2.28708E-18
 -1      1572 1.20418E-04-3.65034E-05-3.59408E-05-1.02263E-08 1.86850E-19-1.74114E-18
 -1      1573 1.17762E-04-3.58170E-05-3.50444E-05-8.05369E-07 4.22696E-19-7.68411E-19
 -1      1574 1.17839E-04-3.57790E-05-3.50338E-05 2.30919E-06 8.92561E-20-1.07494E-18
 -1      1575 1.19685E-04-3.64813E-05-3.56153E-05 1.72406E-06-5.23294E-19-1.50462E-18
 -1      1576 1.17524E-04-3.60203E-05-3.48006E-05 2.11918E-06-3.15626E-19-2.86734E-20
 -1      1577 1.11213E-04-3.37493E-05-3.30750E-05 4.55630E-06-2.42596E-19-1.07743E-18
 -1      1578 1.15447E-04-3.52918E-05-3.42978E-05 3.84695E-06 1.28233E-19-1.24943E-18
 -1      1579 1.14567E-04-3.52790E-05-3.38169E-05 5.97445E-06 1.06461E-19 9.44574E-19
 -1      1580 1.01021E-04-3.04148E-05-3.02368E-05 6.17939E-06 6.20263E-19-8.60056E-19
 -1      1581 1.07307E-04-3.26590E-05-3.19616E-05 5.61859E-06-1.90668E-19-9.48783E-19
 -1      1582 1.08520E-04-3.32538E-05-3.21188E-05 9.65309E-06-1.94196E-19 1.23876E-18
 -1      1583 8.96250E-05-2.65392E-05-2.71912E-05 6.02206E-06-7.94110E-19-2.99638E-19
 -1      1584 9.64294E-05-2.88829E-05-2.89921E-05 5.96453E-06-1.66459E-19-7.40095E-19
 -1      1585 1.00189E-04-3.00535E-05-3.00218E-05 1.12664E-05-1.63173E-19 2.29559E-18
 -1      1586 8.08833E-05-2.35659E-05-2.48660E-05 3.62239E-06-1.68612E-20 5.28231E-19
 -1      1587 8.58537E-05-2.51053E-05-2.61746E-05 4.20651E-06-7.74532E-19-2.96091E-19
 -1      1588 9.18892E-05-2.66128E-05-2.80760E-05 9.20202E-06-8.07911E-19 2.04021E-18
 -1      1589 7.78736E-05-2.26826E-05-2.39473E-05 5.76638E-08-6.76832E-19 9.40114E-19
 -1      1590 7.92785E-05-2.28427E-05-2.43683E-05 9.88060E-07 2.03950E-19 5.37601E-19
 -1      1591 8.65959E-05-2.44599E-05-2.68102E-05 3.85857E-06-1.03576E-19 2.05735E-18
 -1      1592 8.07418E-05-2.39247E-05-2.44730E-05-2.76953E-06 1.10981E-18-1.54319E-19
 -1      1593 7.86533E-05-2.28748E-05-2.40261E-05-2.01311E-06 5.32545E-19 3.90800E-19
 -1      1594 8.58967E-05-2.44756E-05-2.64685E-05-2.07904E-06 4.85562E-19 5.79953E-19
 -1      1595 8.65740E-05-2.61004E-05-2.58462E-05-3.53858E-06 1.58498E-18-3.51683E-18
 -1      1596 8.28152E-05-2.46507E-05-2.49321E-05-3.29612E-06 1.20575E-18-1.95649E-18
 -1      1597 8.88493E-05-2.62344E-05-2.68941E-05-5.53684E-06 2.43762E-18-2.69364E-18
 -1      1598 9.18133E-05-2.78696E-05-2.72418E-05-2.53793E-06 5.44702E-19-5.15631E-18
 -1      1599 8.85040E-05-2.67861E-05-2.63680E-05-2.73301E-06 1.06359E-18-3.27971E-18
 -1      1600 9.27901E-05-2.82370E-05-2.76597E-05-5.47060E-06 2.10535E-18-1.97610E-18
 -1      1601 9.45872E-05-2.86331E-05-2.81285E-05-1.02578E-06-7.76987E-20-5.07635E-18
 -1      1602 9.27874E-05-2.81781E-05-2.75903E-05-1.34165E-06-4.34051E-19-5.60058E-18
 -1      1603 9.54640E-05-2.93267E-05-2.83214E-05-3.22860E-06 8.57224E-20-2.18765E-18
 -1      1604 9.52058E-05-2.86381E-05-2.84665E-05-1.10833E-07 8.66604E-19-5.49037E-18
 -1      1605 9.46543E-05-2.85784E-05-2.82552E-05-2.82114E-07 8.14293E-19-4.13950E-18
 -1      1606 9.62033E-05-2.93095E-05-2.86609E-05-9.83250E-07 4.14325E-19-1.60590E-18
 -1      1607 9.51142E-05-2.85089E-05-2.84882E-05-1.12897E-07-7.18919E-19-6.67534E-18
 -1      1608 9.49107E-05-2.84480E-05-2.84484E-05-4.59568E-08 5.25888E-20-6.51290E-18
 -1      1609 9.57433E-05-2.87491E-05-2.87006E-05-9.69793E-08 1.27519E-18-1.83294E-18
 -1      1610 9.50816E-05-2.86260E-05-2.84245E-05-1.81460E-07-3.88342E-18-4.39881E-18
 -1      1611 9.54723E-05-2.80961E-05-2.89034E-05 4.54974E-07-2.23405E-18 2.61463E-18
 -1      1612 9.54429E-05-2.84655E-05-2.86902E-05 2.46652E-07-4.58112E-18 1.84277E-18
 -1      1613 9.48928E-05-2.50531E-05-2.99957E-05 2.39505E-06 6.10817E-19 1.58234E-18
 -1      1614 9.54065E-05-2.71640E-05-2.93036E-05 1.89706E-06-2.29400E-18 2.57682E-18
 -1      1615 9.58291E-05-2.75852E-05-2.93549E-05 2.34205E-06-3.75566E-19 3.47348E-18
 -1      1616 9.28955E-05-1.79931E-05-3.21962E-05 5.32091E-06 1.59634E-18 8.45696E-19
 -1      1617 9.43615E-05-2.27672E-05-3.07925E-05 4.64151E-06 9.33589E-19 1.95755E-18
 -1      1618 9.54877E-05-2.46905E-05-3.05048E-05 6.79514E-06 4.33449E-19 2.39272E-18
 -1      1619 8.91698E-05-6.54858E-06-3.54886E-05 8.19122E-06 1.67395E-18-2.07973E-19
 -1      1620 9.16787E-05-1.39746E-05-3.34254E-05 7.61009E-06 1.37743E-18 5.56104E-19
 -1      1621 9.36747E-05-1.86433E-05-3.23446E-05 1.23409E-05-2.97600E-19 5.90435E-19
 -1      1622 8.42650E-05 7.16691E-06-3.91855E-05 9.26113E-06-2.13812E-18-1.88313E-18
 -1      1623 8.72992E-05-1.24639E-06-3.69429E-05 9.20699E-06 9.51430E-19-2.13141E-18
 -1      1624 9.00886E-05-9.35271E-06-3.46995E-05 1.65027E-05-9.01905E-19-2.49339E-18
 -1      1625 7.96151E-05 1.93006E-05-4.22703E-05 6.98459E-06-2.73221E-18 6.30616E-19
 -1      1626 8.21608E-05 1.25451E-05-4.05239E-05 7.76544E-06-2.37709E-18-9.01600E-19
 -1      1627 8.52861E-05 1.52405E-06-3.70892E-05 1.61306E-05-1.28400E-18-2.70810E-18
 -1      1628 7.75384E-05 2.44382E-05-4.35078E-05 1.50000E-06-7.07048E-19 7.29242E-19
 -1      1629 7.83146E-05 2.24449E-05-4.30052E-05 2.88283E-06-2.44856E-18 1.77813E-18
 -1      1630 8.10811E-05 1.03506E-05-3.88272E-05 9.34040E-06-1.12055E-18 1.62090E-18
 -1      1631 7.92236E-05 1.99907E-05-4.23678E-05-4.79542E-06 2.61347E-18 5.55230E-19
 -1      1632 7.77895E-05 2.37888E-05-4.33468E-05-3.50997E-06 1.31793E-19 9.08284E-19
 -1      1633 7.97639E-05 1.29784E-05-3.93022E-05-1.91234E-06 4.91742E-20 2.20557E-18
 -1      1634 8.38416E-05 7.87358E-06-3.92801E-05-8.89900E-06 2.90426E-18-2.68139E-20
 -1      1635 8.09027E-05 1.58008E-05-4.13545E-05-8.33439E-06 2.74735E-18 3.62715E-19
 -1      1636 8.21345E-05 7.96106E-06-3.83129E-05-1.24479E-05 2.50272E-18 1.20408E-18
 -1      1637 8.91877E-05-6.82838E-06-3.53791E-05-9.41705E-06 9.13313E-19-2.20058E-18
 -1      1638 8.60460E-05 2.03806E-06-3.77761E-05-9.65999E-06 3.26044E-18-1.48494E-18
 -1      1639 8.68923E-05-2.36789E-06-3.61763E-05-1.75955E-05 1.33733E-18-1.23609E-18
 -1      1640 9.33071E-05-1.91239E-05-3.19138E-05-7.25306E-06 4.26005E-19 9.89784E-19
 -1      1641 9.09760E-05-1.20970E-05-3.38895E-05-7.90059E-06 1.41095E-18-1.23951E-18
 -1      1642 9.16936E-05-1.36178E-05-3.35973E-05-1.64577E-05 6.88373E-19-2.15918E-18
 -1      1643 9.56830E-05-2.71165E-05-2.94839E-05-4.05228E-06-3.80106E-19-1.28336E-18
 -1      1644 9.44103E-05-2.28869E-05-3.07400E-05-4.75102E-06 7.97482E-19 3.19292E-19
 -1      1645 9.49759E-05-2.25479E-05-3.12376E-05-1.14774E-05 2.77072E-19 4.20459E-19
 -1      1646 9.64255E-05-3.05134E-05-2.82993E-05-1.22284E-06 2.00804E-18 1.49160E-18
 -1      1647 9.61069E-05-2.90338E-05-2.88010E-05-1.73095E-06 2.79210E-19 1.05620E-18
 -1      1648 9.64848E-05-2.79599E-05-2.95386E-05-5.62502E-06 1.85232E-18-4.75530E-20
 -1      1649 9.61393E-05-3.06481E-05-2.80539E-05 4.47255E-07 1.26155E-19-6.35109E-19
 -1      1650 9.63319E-05-3.09716E-05-2.80401E-05 2.82267E-07 1.26502E-18 8.16169E-19
 -1      1651 9.66149E-05-3.00726E-05-2.86169E-05-1.02072E-06 1.47543E-19 6.49026E-19
 -1      1652 9.55144E-05-2.95285E-05-2.82480E-05 1.15555E-06-1.31626E-18-2.49606E-18
 -1      1653 9.59297E-05-3.04077E-05-2.80866E-05 1.23553E-06 1.95241E-19-2.29529E-18
 -1      1654 9.61024E-05-2.99315E-05-2.83446E-05 1.42804E-06-5.75943E-19-1.01124E-18
 -1      1655 9.49466E-05-2.90828E-05-2.82405E-05 2.14297E-06-6.41856E-19-1.86960E-18
 -1      1656 2.51532E-05-8.21652E-05 1.68835E-05-8.14399E-06-2.08540E-18-7.79270E-19
 -1      1657 2.92553E-05-9.36510E-05 1.92374E-05 2.25305E-06-2.52691E-18 4.00011E-19
 -1      1658 2.41851E-05-4.53978E-05 4.34194E-06 6.14892E-06 6.09864E-19 8.99125E-19
 -1      1659 2.98926E-05-7.44814E-05 1.18045E-05 5.43204E-07-7.98752E-19-3.99535E-19
 -1      1660 5.05277E-05-1.60437E-05-1.59793E-05 4.03813E-05 1.84823E-18 2.05321E-18
 -1      1661 4.08967E-05-4.01138E-05-4.87621E-06 1.74428E-05 6.30193E-19 1.63266E-18
 -1      1662 9.29550E-05-1.31017E-06-3.72614E-05 7.32259E-05 2.12182E-18 1.19432E-18
 -1      1663 6.36755E-05-6.01097E-06-2.62825E-05 4.79777E-05 2.19382E-18 1.27224E-18
 -1      1664 1.65495E-04-1.95801E-05-5.76389E-05 9.04091E-05 8.26281E-19 2.85196E-18
 -1      1665 1.18064E-04-3.58844E-06-4.73946E-05 7.86600E-05 1.19347E-18 1.97867E-18
 -1      1666 2.36484E-04-5.01575E-05-7.30589E-05 7.06580E-05 1.03166E-18-1.38913E-19
 -1      1667 1.91384E-04-2.70124E-05-6.58518E-05 8.45326E-05 1.79190E-18 1.37558E-18
 -1      1668 2.74149E-04-6.90292E-05-8.04024E-05 2.20583E-05 1.77178E-18-6.21849E-18
 -1      1669 2.53176E-04-5.62174E-05-7.77753E-05 5.66877E-05 1.69618E-18-2.26666E-18
 -1      1670 2.63026E-04-6.43420E-05-7.85486E-05-3.22546E-05 3.06584E-18-1.05108E-17
 -1      1671 2.77457E-04-7.12645E-05-8.07678E-05 4.52548E-06 1.73642E-18-8.20373E-18
 -1      1672 2.02318E-04-3.79314E-05-6.64345E-05-6.28762E-05 4.91067E-18-1.25886E-17
 -1      1673 2.44204E-04-5.83435E-05-7.34496E-05-4.29169E-05 4.46545E-18-1.05879E-17
 -1      1674 1.32331E-04-1.33740E-05-4.95138E-05-7.12589E-05 7.03037E-18-1.19567E-17
 -1      1675 1.79481E-04-3.17461E-05-5.89700E-05-7.55759E-05 5.54891E-18-1.26326E-17
 -1      1676 7.08876E-05-7.19872E-06-2.88097E-05-4.69547E-05 6.39764E-18-7.85454E-18
 -1      1677 1.06161E-04-8.97432E-06-3.97449E-05-6.90690E-05 6.07831E-18-1.13214E-17
 -1      1678 3.96348E-05-2.92533E-05-8.26087E-06-1.68404E-05 4.72898E-18-4.86917E-18
 -1      1679 5.32328E-05-1.18226E-05-1.86220E-05-3.91089E-05 5.84199E-18-5.60058E-18
 -1      1680 2.91055E-05-5.80940E-05 7.19471E-06-1.71027E-06 2.40049E-18-2.47058E-18
 -1      1681 2.80745E-05-3.52880E-05-1.26582E-07-1.14130E-05 4.00901E-18-4.90644E-18
 -1      1682 2.64753E-05-8.36896E-05 1.75361E-05 4.15484E-06 8.57621E-19-1.40565E-18
 -1      1683 2.02648E-05-6.52623E-05 1.35257E-05 9.39174E-06 2.26581E-18-5.31884E-19
 -1      1684 2.48296E-05-8.44608E-05 1.90035E-05-4.74079E-06-1.74468E-18-1.85839E-18
 -1      1685 2.51611E-05-8.56503E-05 1.92257E-05 6.76636E-06 2.94979E-19-1.47977E-18
 -1      1686 2.05401E-05-6.08173E-05 1.19857E-05-5.32565E-06-5.26685E-18-3.19204E-18
 -1      1687 2.65102E-05-8.08502E-05 1.66238E-05-1.50252E-06-2.34035E-18-2.01975E-18
 -1      1688 2.74828E-05-2.85648E-05-2.57911E-06 1.44344E-05-6.17911E-18-2.67747E-18
 -1      1689 2.81592E-05-5.37891E-05 5.59266E-06 2.59523E-06-5.92245E-18-3.38919E-18
 -1      1690 5.57663E-05-6.78339E-06-2.15231E-05 4.49391E-05-5.89196E-18-4.41728E-18
 -1      1691 4.01006E-05-2.21149E-05-1.13135E-05 2.18423E-05-6.68563E-18-3.67358E-18
 -1      1692 1.12540E-04-9.61727E-06-4.19347E-05 7.21320E-05-5.74966E-18-8.87352E-18
 -1      1693 7.69395E-05-6.08294E-06-3.14720E-05 5.18707E-05-5.96481E-18-6.75763E-18
 -1      1694 1.85826E-04-3.26316E-05-6.08319E-05 7.64575E-05-4.80310E-18-9.07257E-18
 -1      1695 1.38180E-04-1.38822E-05-5.14962E-05 7.33279E-05-5.68359E-18-9.08358E-18
 -1      1696 2.50897E-04-6.03038E-05-7.48463E-05 4.84827E-05-2.36359E-18-7.67242E-18
 -1      1697 2.10528E-04-3.96473E-05-6.85841E-05 7.02144E-05-3.98847E-18-8.71089E-18
 -1      1698 2.76063E-04-7.08653E-05-8.06191E-05-6.13079E-06-9.24325E-19-5.63986E-18
 -1      1699 2.64446E-04-6.50042E-05-7.87646E-05 3.14681E-05-1.60915E-18-6.74831E-18
 -1      1700 2.48560E-04-5.44111E-05-7.69325E-05-5.76891E-05-9.83617E-20-2.80580E-18
 -1      1701 2.70844E-04-6.76883E-05-7.98516E-05-2.43535E-05-2.56227E-19-4.67901E-18
 -1      1702 1.87512E-04-2.58556E-05-6.49654E-05-8.38467E-05-1.17018E-18-2.48181E-19
 -1      1703 2.31693E-04-4.83901E-05-7.21017E-05-7.09156E-05-3.68777E-19-1.63816E-18
 -1      1704 1.12963E-04-2.16149E-06-4.60322E-05-7.68236E-05-4.73661E-18 3.20602E-18
 -1      1705 1.61349E-04-1.77510E-05-5.66831E-05-8.99694E-05-2.18026E-18 1.36033E-18
 -1      1706 6.66986E-05-1.44775E-05-2.41833E-05-4.37802E-05-8.87352E-18 3.91245E-18
 -1      1707 9.48153E-05-8.67518E-06-3.53727E-05-6.83948E-05-5.52604E-18 3.12470E-18
 -1      1708 3.31486E-05-3.66464E-05-3.78903E-06-1.23338E-05-1.08403E-17 6.39806E-18
 -1      1709 4.01524E-05-1.26197E-05-1.37725E-05-3.39708E-05-1.02728E-17 6.15454E-18
 -1      1710 2.91429E-05-7.30376E-05 1.14289E-05 1.17143E-06-3.34409E-18 5.43983E-18
 -1      1711 2.33389E-05-4.51308E-05 4.34569E-06-3.67927E-06-9.73664E-18 7.33869E-18
 -1      1712 2.87501E-05-9.05543E-05 1.85324E-05-3.10683E-06-3.40698E-18-1.15196E-19
 -1      1713 2.44912E-05-7.74891E-05 1.57285E-05 5.55392E-06-3.75236E-18 7.38189E-19
 -1      1714 1.33345E-04-3.26325E-05-4.14865E-05 5.47123E-05 3.79047E-19 1.40607E-18
 -1      1715 9.19678E-05-4.36929E-05-2.18832E-05 4.77257E-05 1.16891E-18 1.49967E-18
 -1      1716 9.53658E-05-2.86444E-05-2.85701E-05-2.11492E-07-4.88195E-18-1.78975E-18
 -1      1717 9.55230E-05-2.83837E-05-2.88076E-05 2.66648E-07-6.64709E-19 1.33315E-18
 -1      1718 2.33811E-05-5.78711E-05 9.69486E-06 1.87046E-05-7.64024E-19 1.37008E-19
 -1      1719 5.38228E-05-5.09817E-05-3.86816E-06 3.91096E-05 8.55503E-19 2.04500E-18
 -1      1720 1.46261E-05-6.03685E-05 1.38779E-05-1.69525E-06-3.28437E-18 8.98702E-19
 -1      1721 1.80002E-04-3.26239E-05-5.89889E-05 4.99057E-05 4.09329E-19-1.50348E-18
 -1      1722 2.13370E-04-3.41249E-05-7.11841E-05 3.22033E-05 2.37127E-18-4.71586E-18
 -1      1723 2.29831E-04-3.77821E-05-7.60061E-05 1.03494E-05 3.40592E-18-6.71046E-18
 -1      1724 2.15560E-04-3.73642E-05-7.14172E-05-1.03137E-05 4.62819E-18-8.44068E-18
 -1      1725 1.84933E-04-3.67815E-05-5.97469E-05-3.12022E-05 4.10213E-18-9.82050E-18
 -1      1726 1.40517E-04-3.54645E-05-4.32528E-05-4.36265E-05 3.94379E-18-1.03228E-17
 -1      1727 9.50109E-05-4.05481E-05-2.41385E-05-3.96776E-05 3.00273E-18-6.63142E-18
 -1      1728 5.89459E-05-4.87082E-05-6.84619E-06-3.28945E-05 1.40692E-18-4.33257E-18
 -1      1729 2.95777E-05-5.27823E-05 6.58388E-06-2.10887E-05 2.29334E-18-2.82189E-18
 -1      1730 1.48268E-05-5.98259E-05 1.44014E-05-4.41942E-06 5.65394E-19-2.21499E-18
 -1      1731 1.49252E-05-5.78243E-05 1.37215E-05 8.31720E-06-7.67412E-19-2.95487E-18
 -1      1732 3.07599E-05-5.16760E-05 5.35419E-06 2.27935E-05-1.97994E-18-3.54494E-18
 -1      1733 5.99547E-05-4.41658E-05-8.91546E-06 3.49464E-05-4.08016E-18-2.12012E-18
 -1      1734 9.93850E-05-3.75170E-05-2.66976E-05 4.31173E-05-4.32072E-18-5.86316E-18
 -1      1735 1.45144E-04-3.50202E-05-4.52263E-05 4.39601E-05-4.05559E-18-7.33700E-18
 -1      1736 1.88979E-04-3.56571E-05-6.16581E-05 3.54821E-05-3.70175E-18-6.05036E-18
 -1      1737 2.21745E-04-3.84226E-05-7.28435E-05 1.67227E-05-2.65714E-18-6.54587E-18
 -1      1738 2.28424E-04-3.74002E-05-7.58382E-05-9.80758E-06-1.18754E-18-5.02693E-18
 -1      1739 2.10740E-04-3.37735E-05-7.05108E-05-3.29473E-05-3.46648E-19-3.10099E-18
 -1      1740 1.76389E-04-3.15472E-05-5.81330E-05-5.01182E-05-2.38969E-18-1.67967E-18
 -1      1741 1.33107E-04-3.79677E-05-3.98394E-05-5.06800E-05-4.68494E-18-7.53859E-19
 -1      1742 8.93350E-05-4.26301E-05-2.04767E-05-4.80753E-05-5.45828E-18 5.96735E-19
 -1      1743 4.69506E-05-4.88949E-05-2.65667E-06-3.33237E-05-5.76321E-18 6.21574E-18
 -1      1744 2.36669E-05-5.69584E-05 9.21861E-06-1.85221E-05-5.23466E-18 4.93460E-18
 -1      1745 1.06060E-04-2.31725E-05-3.56064E-05-1.68521E-05-2.42326E-18 9.42769E-18
 -1      1746 8.91433E-05-1.05810E-05-3.37954E-05-1.33200E-05-3.11801E-18-3.59335E-18
 -1      1747 9.04884E-05-1.16355E-05-3.39365E-05-1.51338E-05-3.57368E-18-2.57403E-18
 -1      1748 9.24949E-05-1.38756E-05-3.38557E-05-1.60001E-05-3.54001E-18-1.21221E-18
 -1      1749 9.42126E-05-1.58222E-05-3.41000E-05-1.76618E-05-3.78697E-18 6.88532E-19
 -1      1750 9.34184E-05-1.63456E-05-3.30469E-05-1.37777E-05-3.71556E-18-1.71169E-18
 -1      1751 8.62051E-05-7.66909E-06-3.37298E-05-7.86469E-06-1.73300E-18-5.22786E-18
 -1      1752 8.66087E-05-7.96992E-06-3.37643E-05-9.25280E-06-2.11941E-18-5.05339E-18
 -1      1753 8.55906E-05-7.03542E-06-3.37259E-05-5.32069E-06-1.03472E-18-5.44837E-18
 -1      1754 8.58249E-05-7.21315E-06-3.37415E-05-6.62500E-06-1.38118E-18-5.40603E-18
 -1      1755 8.75903E-05-9.86714E-06-3.33425E-05-6.93288E-06-1.68786E-18-5.10626E-18
 -1      1756 8.52551E-05-6.67662E-06-3.37289E-05-2.88869E-06-3.31354E-19-5.48707E-18
 -1      1757 8.53762E-05-6.77116E-06-3.37350E-05-4.12830E-06-6.60895E-19-5.47365E-18
 -1      1758 8.69549E-05-9.15505E-06-3.33753E-05-4.53774E-06-9.36429E-19-5.29108E-18
 -1      1759 8.51241E-05-6.52839E-06-3.37322E-05-5.17504E-07 2.89953E-19-5.47223E-18
 -1      1760 8.51598E-05-6.55691E-06-3.37337E-05-1.72704E-06 1.71142E-20-5.50634E-18
 -1      1761 8.66218E-05-8.77537E-06-3.33952E-05-2.21723E-06-2.15190E-19-5.30390E-18
 -1      1762 8.51697E-05-6.56588E-06-3.37339E-05 1.84493E-06 8.84053E-19-5.30020E-18
 -1      1763 8.51278E-05-6.53293E-06-3.37322E-05 6.34401E-07 5.99711E-19-5.37884E-18
 -1      1764 8.65235E-05-8.66171E-06-3.34017E-05 6.53597E-08 4.36817E-19-5.27066E-18
 -1      1765 8.54014E-05-6.79617E-06-3.37351E-05 4.25061E-06 1.50846E-18-5.12549E-18
 -1      1766 8.52730E-05-6.69544E-06-3.37289E-05 3.00790E-06 1.20667E-18-5.26365E-18
 -1      1767 8.66395E-05-8.79480E-06-3.33945E-05 2.34913E-06 1.13358E-18-5.12437E-18
 -1      1768 8.58593E-05-7.24957E-06-3.37408E-05 6.71155E-06 2.16439E-18-4.64975E-18
 -1      1769 8.56207E-05-7.06725E-06-3.37258E-05 5.42445E-06 1.80737E-18-4.95431E-18
 -1      1770 8.69883E-05-9.19187E-06-3.33739E-05 4.65221E-06 1.77929E-18-4.86050E-18
 -1      1771 8.66742E-05-8.03975E-06-3.37620E-05 9.37292E-06 2.91834E-18-4.03897E-18
 -1      1772 8.62525E-05-7.72301E-06-3.37280E-05 7.95220E-06 2.53271E-18-4.39647E-18
 -1      1773 8.76417E-05-9.92476E-06-3.33400E-05 7.02703E-06 2.57165E-18-4.33010E-18
 -1      1774 8.80886E-05-9.38800E-06-3.38180E-05 1.22517E-05 3.55254E-18-2.93171E-18
 -1      1775 8.73476E-05-8.82988E-06-3.37456E-05 1.06587E-05 3.18374E-18-3.60413E-18
 -1      1776 8.87647E-05-1.11601E-05-3.32899E-05 9.50097E-06 3.26457E-18-3.58836E-18
 -1      1777 9.06349E-05-1.18409E-05-3.39287E-05 1.53000E-05 3.99388E-18-8.59633E-19
 -1      1778 8.92534E-05-1.07413E-05-3.37886E-05 1.35103E-05 3.66635E-18-2.09463E-18
 -1      1779 9.06643E-05-1.32234E-05-3.32076E-05 1.19727E-05 3.81371E-18-2.24808E-18
 -1      1780 9.58821E-05-1.70363E-05-3.39949E-05 1.76880E-05 3.90827E-18 2.99373E-18
 -1      1781 9.28614E-05-1.43446E-05-3.38284E-05 1.61910E-05 3.89556E-18 6.82656E-19
 -1      1782 9.39742E-05-1.68883E-05-3.30255E-05 1.38916E-05 4.09043E-18 2.99373E-20
 -1      1783 1.01932E-04-2.50968E-05-3.33614E-05 1.44205E-05 3.31603E-18 7.65125E-18
 -1      1784 9.80833E-05-1.96187E-05-3.36273E-05 1.69619E-05 3.62738E-18 4.60341E-18
 -1      1785 9.73359E-05-2.18564E-05-3.24296E-05 1.32458E-05 3.97273E-18 2.99532E-18
 -1      1786 9.87603E-05-2.61379E-05-3.13448E-05 9.43286E-06 3.42011E-18 6.55929E-18
 -1      1787 1.00162E-04-1.95649E-05-3.42203E-05-1.88674E-05-3.28352E-18 3.88026E-18
 -1      1788 9.53203E-05-2.72884E-05-2.91880E-05 4.06479E-06 2.65865E-18 5.00427E-18
 -1      1789 9.77501E-05-2.73934E-05-3.01969E-05 6.39886E-06 2.89452E-18 5.99363E-18
 -1      1790 9.75842E-05-2.56173E-05-3.08350E-05 8.75744E-06 3.42662E-18 3.96682E-18
 -1      1791 9.98208E-05-2.25418E-05-3.28385E-05-1.44652E-05-3.55354E-18 2.51823E-18
 -1      1792 9.69696E-05-2.69826E-05-2.98794E-05-5.70246E-06-2.92708E-18 2.10187E-18
 -1      1793 9.51610E-05-2.70376E-05-2.91689E-05-3.89616E-06-2.57723E-18 1.36678E-18
 -1      1794 9.43412E-05-2.72379E-05-2.86616E-05-2.42037E-06-2.33034E-18 1.24242E-18
 -1      1795 9.35697E-05-2.73183E-05-2.83567E-05-1.56682E-06-1.90925E-18 5.86296E-19
 -1      1796 9.55134E-05-2.65467E-05-2.95774E-05-4.47261E-06-2.89251E-18 7.70188E-20
 -1      1797 9.30454E-05-2.73693E-05-2.80879E-05-7.39835E-07-1.56409E-18 3.86780E-19
 -1      1798 9.27444E-05-2.74332E-05-2.79658E-05-3.01791E-07-1.36360E-18-7.07273E-20
 -1      1799 9.43031E-05-2.72224E-05-2.87690E-05-1.82733E-06-2.16186E-18-3.73740E-19
 -1      1800 9.24685E-05-2.74607E-05-2.78298E-05 1.52820E-07-1.16084E-18-1.74466E-19
 -1      1801 9.24372E-05-2.75369E-05-2.77999E-05 3.76323E-07-1.01416E-18-5.02096E-19
 -1      1802 9.36025E-05-2.75300E-05-2.83331E-05-3.61912E-07-1.54562E-18-7.25437E-19
 -1      1803 9.23332E-05-2.75681E-05-2.77415E-05 6.15227E-07-1.06079E-18-4.89263E-19
 -1      1804 9.24476E-05-2.76531E-05-2.77605E-05 7.18435E-07-8.69891E-19-9.40607E-19
 -1      1805 9.32806E-05-2.77147E-05-2.81119E-05 4.38807E-07-1.10773E-18-9.47103E-19
 -1      1806 9.24520E-05-2.76909E-05-2.77482E-05 8.28429E-07-7.46358E-19-9.40178E-19
 -1      1807 9.26387E-05-2.77774E-05-2.77926E-05 8.61178E-07-6.10331E-19-1.05740E-18
 -1      1808 9.32156E-05-2.78574E-05-2.80189E-05 8.48023E-07-9.92288E-19-1.13122E-18
 -1      1809 9.27060E-05-2.78186E-05-2.78070E-05 8.93273E-07-6.73831E-19-1.16071E-18
 -1      1810 9.29206E-05-2.79009E-05-2.78627E-05 8.84655E-07-6.13667E-19-1.20344E-18
 -1      1811 9.33082E-05-2.79805E-05-2.80026E-05 1.02086E-06-7.16364E-19-1.24659E-18
 -1      1812 9.30201E-05-2.79420E-05-2.78913E-05 8.70538E-07-7.79866E-19-1.29347E-18
 -1      1813 9.32362E-05-2.80166E-05-2.79498E-05 8.38711E-07-6.71328E-19-1.43440E-18
 -1      1814 9.34876E-05-2.80891E-05-2.80307E-05 1.05095E-06-7.34093E-19-1.44803E-18
 -1      1815 9.33478E-05-2.80551E-05-2.79846E-05 7.98810E-07-7.71348E-19-1.58433E-18
 -1      1816 9.35501E-05-2.81202E-05-2.80408E-05 7.55479E-07-5.02547E-19-2.08962E-18
 -1      1817 9.37059E-05-2.81836E-05-2.80822E-05 9.97606E-07-9.55386E-19-1.51334E-18
 -1      1818 9.36614E-05-2.81546E-05-2.80770E-05 7.03172E-07-2.44489E-19-2.36419E-18
 -1      1819 9.38420E-05-2.82097E-05-2.81281E-05 6.55952E-07-1.84472E-19-2.69355E-18
 -1      1820 9.39326E-05-2.82640E-05-2.81440E-05 8.99426E-07-6.22970E-19-1.97237E-18
 -1      1821 9.39460E-05-2.82393E-05-2.81628E-05 6.00018E-07-3.11786E-19-2.63688E-18
 -1      1822 9.41021E-05-2.82848E-05-2.82077E-05 5.53832E-07-2.22815E-19-2.56681E-18
 -1      1823 9.41495E-05-2.83306E-05-2.82078E-05 7.81789E-07-3.52890E-19-2.35740E-18
 -1      1824 9.41953E-05-2.83096E-05-2.82394E-05 4.99994E-07-4.61743E-20-2.51797E-18
 -1      1825 9.43268E-05-2.83462E-05-2.82778E-05 4.57984E-07-6.70018E-20-2.20776E-18
 -1      1826 9.43468E-05-2.83844E-05-2.82690E-05 6.61366E-07-1.16077E-19-2.10221E-18
 -1      1827 9.44084E-05-2.83666E-05-2.83061E-05 4.09947E-07-3.11702E-19-2.22825E-18
 -1      1828 9.45177E-05-2.83956E-05-2.83384E-05 3.74110E-07-3.92011E-19-2.02463E-18
 -1      1829 9.45206E-05-2.84268E-05-2.83252E-05 5.49040E-07-1.09531E-19-2.17514E-18
 -1      1830 9.45884E-05-2.84121E-05-2.83634E-05 3.34305E-07-4.70974E-19-1.89829E-18
 -1      1831 9.46793E-05-2.84349E-05-2.83906E-05 3.05960E-07-2.73983E-19-2.07259E-18
 -1      1832 9.46712E-05-2.84595E-05-2.83758E-05 4.51930E-07-4.78456E-19-2.02053E-18
 -1      1833 9.47412E-05-2.84483E-05-2.84129E-05 2.76093E-07-4.15074E-19-2.27080E-18
 -1      1834 9.48182E-05-2.84664E-05-2.84363E-05 2.56229E-07-4.07970E-19-2.49609E-18
 -1      1835 9.48017E-05-2.84842E-05-2.84213E-05 3.74853E-07-4.79689E-19-2.24441E-18
 -1      1836 9.48743E-05-2.84776E-05-2.84569E-05 2.37697E-07-6.20430E-19-2.65294E-18
 -1      1837 9.49430E-05-2.84926E-05-2.84782E-05 2.27240E-07-5.08758E-19-2.90824E-18
 -1      1838 9.49173E-05-2.85029E-05-2.84631E-05 3.21421E-07-7.68440E-19-2.34465E-18
 -1      1839 9.49970E-05-2.85026E-05-2.84983E-05 2.21442E-07-2.44796E-19-3.18768E-18
 -1      1840 9.50635E-05-2.85163E-05-2.85191E-05 2.21462E-07-2.22411E-19-3.08351E-18
 -1      1841 9.50247E-05-2.85173E-05-2.85033E-05 2.94866E-07-5.81454E-19-2.51297E-18
 -1      1842 9.51200E-05-2.85263E-05-2.85404E-05 2.30037E-07-8.01179E-20-2.97972E-18
 -1      1843 9.51913E-05-2.85405E-05-2.85629E-05 2.41893E-07 2.52521E-19-3.15294E-18
 -1      1844 9.51322E-05-2.85297E-05-2.85444E-05 2.98661E-07-1.78676E-19-2.68272E-18
 -1      1845 9.52555E-05-2.85518E-05-2.85870E-05 2.66879E-07 3.69871E-19-3.41605E-18
 -1      1846 9.53398E-05-2.85688E-05-2.86135E-05 2.92320E-07 1.82289E-19-3.39392E-18
 -1      1847 9.52493E-05-2.85422E-05-2.85897E-05 3.36965E-07 1.19574E-19-3.68384E-18
 -1      1848 9.54176E-05-2.85829E-05-2.86426E-05 3.36242E-07 1.70701E-20-2.83566E-18
 -1      1849 9.55241E-05-2.86053E-05-2.86759E-05 3.77441E-07-1.35847E-19-2.64028E-18
 -1      1850 9.53871E-05-2.85574E-05-2.86427E-05 4.14903E-07 4.03860E-19-3.11638E-18
 -1      1851 9.56225E-05-2.86239E-05-2.87123E-05 4.43309E-07-3.46156E-20-2.39897E-18
 -1      1852 9.57621E-05-2.86547E-05-2.87555E-05 5.02825E-07 5.25116E-19-2.27608E-18
 -1      1853 9.55586E-05-2.85785E-05-2.87078E-05 5.38659E-07 2.61535E-19-1.93685E-18
 -1      1854 9.58889E-05-2.86801E-05-2.88019E-05 5.94001E-07 5.27974E-19-2.33559E-18
 -1      1855 9.60738E-05-2.87229E-05-2.88585E-05 6.74615E-07 7.03147E-19-2.28047E-18
 -1      1856 9.57783E-05-2.86091E-05-2.87895E-05 7.15321E-07 5.20687E-19-1.60894E-18
 -1      1857 9.62378E-05-2.87577E-05-2.89176E-05 7.94498E-07 5.07958E-19-2.32074E-18
 -1      1858 9.64818E-05-2.88169E-05-2.89916E-05 8.98876E-07 4.43970E-19-2.08165E-18
 -1      1859 9.60631E-05-2.86543E-05-2.88929E-05 9.52384E-07 6.45845E-19-1.78038E-18
 -1      1860 9.66927E-05-2.88643E-05-2.90664E-05 1.05031E-06 3.86013E-19-2.25056E-18
 -1      1861 9.70106E-05-2.89450E-05-2.91618E-05 1.18039E-06 1.56206E-19-2.21844E-18
 -1      1862 9.64315E-05-2.87202E-05-2.90232E-05 1.25673E-06 5.16286E-19-1.97924E-18
 -1      1863 9.72787E-05-2.90090E-05-2.92550E-05 1.36466E-06-2.42246E-19-2.10437E-18
 -1      1864 9.76858E-05-2.91173E-05-2.93759E-05 1.52059E-06-1.20744E-20-1.82795E-18
 -1      1865 9.69038E-05-2.88150E-05-2.91857E-05 1.63287E-06 2.81366E-19-1.97596E-18
 -1      1866 9.80211E-05-2.92028E-05-2.94899E-05 1.73580E-06-2.47621E-19-2.02948E-18
 -1      1867 9.85312E-05-2.93454E-05-2.96396E-05 1.91432E-06 1.45254E-19-2.14038E-18
 -1      1868 9.75009E-05-2.89496E-05-2.93846E-05 2.08000E-06-1.37200E-19-1.51273E-18
 -1      1869 9.89430E-05-2.94585E-05-2.97753E-05 2.15291E-06 4.74398E-19-2.04045E-18
 -1      1870 9.95658E-05-2.96428E-05-2.99557E-05 2.34481E-06 6.33728E-19-1.84237E-18
 -1      1871 9.82435E-05-2.91383E-05-2.96226E-05 2.58758E-06 2.02183E-19-1.36986E-18
 -1      1872 1.00061E-04-2.97911E-05-3.01123E-05 2.58993E-06 3.91414E-19-1.67306E-18
 -1      1873 1.00798E-04-3.00240E-05-3.03221E-05 2.77642E-06-4.58035E-20-1.78207E-18
 -1      1874 9.91497E-05-2.94003E-05-2.98990E-05 3.12859E-06 4.54504E-19-1.23649E-18
 -1      1875 1.01379E-04-3.02169E-05-3.04956E-05 2.99703E-06-6.26323E-19-1.69483E-18
 -1      1876 1.02215E-04-3.05043E-05-3.07284E-05 3.14501E-06-5.97590E-19-1.68061E-18
 -1      1877 1.00232E-04-2.97609E-05-3.02083E-05 3.65032E-06-4.22640E-20-1.33815E-18
 -1      1878 1.02880E-04-3.07526E-05-3.09103E-05 3.28982E-06-4.48788E-19-1.86428E-18
 -1      1879 1.03776E-04-3.10957E-05-3.11525E-05 3.34662E-06-7.37664E-19-1.22653E-18
 -1      1880 1.01493E-04-3.02517E-05-3.05379E-05 4.06249E-06-5.64805E-19-9.47375E-19
 -1      1881 1.04509E-04-3.14101E-05-3.13288E-05 3.33827E-06-7.41903E-19-1.08022E-18
 -1      1882 1.05392E-04-3.18007E-05-3.15561E-05 3.22795E-06-8.00264E-20-6.24098E-19
 -1      1883 1.02919E-04-3.09085E-05-3.08664E-05 4.22447E-06-4.31399E-19 2.29774E-20
 -1      1884 1.06162E-04-3.21863E-05-3.17068E-05 2.96092E-06-2.91469E-19-1.08355E-18
 -1      1885 1.06910E-04-3.25973E-05-3.18832E-05 2.58724E-06 1.51599E-19-1.05114E-18
 -1      1886 1.04468E-04-3.17611E-05-3.11625E-05 3.93650E-06-3.44723E-19 3.03766E-19
 -1      1887 1.07658E-04-3.30412E-05-3.19842E-05 1.93710E-06-3.79974E-20-1.74501E-18
 -1      1888 1.08095E-04-3.34112E-05-3.20631E-05 1.20189E-06-9.66776E-20-1.60357E-18
 -1      1889 1.06051E-04-3.28084E-05-3.13879E-05 2.94677E-06-3.35488E-19-1.41457E-18
 -1      1890 1.08715E-04-3.38601E-05-3.20902E-05 5.89715E-08 8.09247E-20-1.48099E-18
 -1      1891 1.08623E-04-3.40760E-05-3.20214E-05-1.09200E-06 5.32532E-19-1.59341E-18
 -1      1892 1.07501E-04-3.39685E-05-3.15046E-05 9.95492E-07-6.96221E-20-1.05101E-18
 -1      1893 1.08944E-04-3.44065E-05-3.19593E-05-2.74851E-06 1.89166E-19-1.58031E-18
 -1      1894 1.08096E-04-3.42968E-05-3.17052E-05-4.24605E-06 2.47942E-19-1.95145E-18
 -1      1895 1.08526E-04-3.50049E-05-3.14878E-05-2.07271E-06 2.41610E-19-5.74986E-19
 -1      1896 1.07881E-04-3.43040E-05-3.15566E-05-6.23286E-06 1.06313E-18-2.17833E-18
 -1      1897 1.06139E-04-3.36762E-05-3.11126E-05-7.79534E-06 1.05330E-18-1.61313E-18
 -1      1898 1.08690E-04-3.54694E-05-3.13426E-05-6.10401E-06 4.66421E-19-6.95175E-19
 -1      1899 1.05159E-04-3.31286E-05-3.09018E-05-9.62240E-06 8.37927E-19-1.60926E-18
 -1      1900 1.02598E-04-3.18815E-05-3.03171E-05-1.07280E-05 5.59247E-19-1.37076E-18
 -1      1901 1.07482E-04-3.47729E-05-3.11099E-05-1.03872E-05 9.25360E-19-1.57854E-18
 -1      1902 1.00812E-04-3.06920E-05-3.00861E-05-1.16234E-05-1.78704E-20-3.68473E-19
 -1      1903 9.78507E-05-2.90070E-05-2.94608E-05-1.16642E-05-3.95822E-19-7.00715E-19
 -1      1904 1.04580E-04-3.24699E-05-3.08542E-05-1.35389E-05 5.97080E-19-6.58178E-19
 -1      1905 9.56692E-05-2.74875E-05-2.92398E-05-1.09357E-05-1.59728E-18-7.42729E-19
 -1      1906 9.30262E-05-2.59015E-05-2.86951E-05-9.61368E-06-1.73394E-18-8.24467E-19
 -1      1907 1.00364E-04-2.88995E-05-3.06195E-05-1.38571E-05-1.02785E-18 5.44186E-19
 -1      1908 9.12547E-05-2.47246E-05-2.84913E-05-7.22843E-06-1.17123E-18-7.28792E-19
 -1      1909 8.96627E-05-2.38927E-05-2.81274E-05-4.90148E-06 1.83833E-20-4.66878E-19
 -1      1910 9.61483E-05-2.53811E-05-3.03810E-05-1.04292E-05-1.18352E-18 1.29866E-18
 -1      1911 8.90269E-05-2.36772E-05-2.79378E-05-1.76723E-06 9.51681E-19-1.32702E-18
 -1      1912 8.88214E-05-2.39036E-05-2.78003E-05 6.11778E-07 1.24929E-18-8.07209E-19
 -1      1913 9.36180E-05-2.36196E-05-3.00790E-05-4.18872E-06-1.38027E-19 1.34024E-19
 -1      1914 8.93230E-05-2.46314E-05-2.76374E-05 3.13133E-06 1.05263E-18-5.28138E-19
 -1      1915 9.02361E-05-2.56012E-05-2.77087E-05 4.63755E-06 2.20841E-18-1.94758E-19
 -1      1916 9.35806E-05-2.44097E-05-2.96946E-05 2.19599E-06 1.23523E-18-5.45468E-20
 -1      1917 9.11695E-05-2.66338E-05-2.75990E-05 5.69419E-06 2.00486E-18-9.16721E-19
 -1      1918 9.25601E-05-2.77018E-05-2.78086E-05 6.03411E-06 1.22487E-18-1.20076E-18
 -1      1919 9.52445E-05-2.68693E-05-2.92952E-05 6.12721E-06 1.49535E-18-1.01882E-19
 -1      1920 9.31624E-05-2.83735E-05-2.77609E-05 5.75721E-06 2.25001E-19-1.58451E-18
 -1      1921 9.44395E-05-2.90666E-05-2.80164E-05 5.29542E-06 4.64778E-19-1.63933E-18
 -1      1922 9.69864E-05-2.92753E-05-2.89780E-05 6.83670E-06 8.58061E-19-2.24488E-18
 -1      1923 9.44130E-05-2.91514E-05-2.80064E-05 4.43047E-06 6.00983E-19-2.50151E-18
 -1      1924 9.52837E-05-2.93877E-05-2.82245E-05 3.74316E-06 5.98942E-19-2.16089E-18
 -1      1925 9.76391E-05-3.04122E-05-2.87770E-05 5.41832E-06 4.93628E-20-2.12398E-18
 -1      1926 9.47895E-05-2.91396E-05-2.81824E-05 3.09684E-06 2.66623E-19-2.15316E-18
 -1      1927 9.53740E-05-2.92569E-05-2.83121E-05 2.47190E-06-4.59912E-20-1.78499E-18
 -1      1928 9.61322E-05-2.97399E-05-2.84288E-05 2.51431E-06-8.39661E-19-2.68162E-18
 -1      1929 9.70699E-05-3.01880E-05-2.86141E-05 3.65809E-06 4.08654E-19-3.32551E-18
 -1      1930 9.32218E-05-2.73656E-05-2.81962E-05 1.60319E-06 1.93744E-18 3.63650E-18
 -1      1931 9.44157E-05-2.74708E-05-2.86326E-05 2.67423E-06 2.20766E-18 4.50025E-18
 -1      1932 9.52385E-05-2.70496E-05-2.92292E-05 4.05149E-06 2.75672E-18 2.95758E-18
 -1      1933 9.21706E-05-2.73524E-05-2.77547E-05 3.46480E-07 1.44865E-18 2.53009E-18
 -1      1934 9.26644E-05-2.73845E-05-2.79269E-05 8.94586E-07 1.46967E-18 3.13274E-18
 -1      1935 9.36348E-05-2.73709E-05-2.84057E-05 1.58283E-06 1.99821E-18 1.96179E-18
 -1      1936 9.17960E-05-2.73904E-05-2.75868E-05-3.06456E-07 1.07550E-18 1.86053E-18
 -1      1937 9.19106E-05-2.73634E-05-2.76336E-05-1.41460E-08 1.21828E-18 2.31083E-18
 -1      1938 9.28044E-05-2.74864E-05-2.80034E-05 2.70327E-07 1.56807E-18 1.20636E-18
 -1      1939 9.18198E-05-2.74810E-05-2.75637E-05-6.31370E-07 6.76577E-19 1.33703E-18
 -1      1940 9.17318E-05-2.74190E-05-2.75473E-05-4.78898E-07 8.88867E-19 1.72030E-18
 -1      1941 9.24908E-05-2.75795E-05-2.78292E-05-4.22362E-07 1.10060E-18 7.00827E-19
 -1      1942 9.20636E-05-2.76030E-05-2.76189E-05-7.68018E-07 5.81151E-19 8.10566E-19
 -1      1943 9.18729E-05-2.75242E-05-2.75704E-05-6.97254E-07 5.01279E-19 1.13653E-18
 -1      1944 9.24938E-05-2.76848E-05-2.77835E-05-7.66124E-07 7.16549E-19 3.04963E-19
 -1      1945 9.24151E-05-2.77369E-05-2.77141E-05-7.93815E-07 5.09325E-19 3.26493E-19
 -1      1946 9.21805E-05-2.76537E-05-2.76510E-05-7.72208E-07 5.03807E-19 6.07537E-19
 -1      1947 9.26774E-05-2.77999E-05-2.78106E-05-9.05422E-07 7.18999E-19-2.69078E-19
 -1      1948 9.28046E-05-2.78695E-05-2.78256E-05-7.55382E-07 6.72893E-19-3.09316E-20
 -1      1949 9.25610E-05-2.77892E-05-2.77584E-05-7.63086E-07 5.26991E-19 2.60404E-19
 -1      1950 9.29523E-05-2.79164E-05-2.78767E-05-9.23539E-07 6.76679E-19-2.43271E-19
 -1      1951 9.31899E-05-2.79925E-05-2.79390E-05-6.82216E-07 3.55004E-19 2.28318E-19
 -1      1952 9.29575E-05-2.79193E-05-2.78739E-05-7.06496E-07 4.92243E-19 4.30725E-20
 -1      1953 9.32616E-05-2.80270E-05-2.79605E-05-8.71727E-07 4.52525E-19-3.09586E-19
 -1      1954 9.35468E-05-2.81017E-05-2.80459E-05-5.93406E-07 5.13841E-19 3.05588E-19
 -1      1955 9.33367E-05-2.80376E-05-2.79865E-05-6.25897E-07 4.84997E-19 3.37044E-19
 -1      1956 9.35702E-05-2.81269E-05-2.80489E-05-7.82771E-07 4.80837E-19-1.46274E-19
 -1      1957 9.38633E-05-2.81954E-05-2.81420E-05-5.01333E-07 2.28337E-19-2.65374E-20
 -1      1958 9.36804E-05-2.81410E-05-2.80898E-05-5.36515E-07 3.87404E-19 2.31504E-19
 -1      1959 9.38579E-05-2.82138E-05-2.81343E-05-6.77998E-07 4.07468E-19-5.09669E-19
 -1      1960 9.41354E-05-2.82736E-05-2.82255E-05-4.13949E-07 5.97143E-19-1.80931E-19
 -1      1961 9.39805E-05-2.82286E-05-2.81809E-05-4.48198E-07 3.22631E-19-1.98515E-19
 -1      1962 9.41145E-05-2.82872E-05-2.82123E-05-5.71288E-07 5.36767E-19-3.13924E-19
 -1      1963 9.43644E-05-2.83375E-05-2.82965E-05-3.36289E-07 3.52130E-19-3.47610E-19
 -1      1964 9.42358E-05-2.83010E-05-2.82592E-05-3.67239E-07 4.13594E-19-9.82895E-20
 -1      1965 9.43367E-05-2.83477E-05-2.82813E-05-4.71596E-07 4.34368E-19 2.49434E-20
 -1      1966 9.45553E-05-2.83891E-05-2.83564E-05-2.71556E-07 1.83000E-19-6.81858E-19
 -1      1967 9.44495E-05-2.83598E-05-2.83254E-05-2.97637E-07 1.59642E-19-7.14173E-19
 -1      1968 9.45257E-05-2.83966E-05-2.83412E-05-3.84674E-07 4.29063E-19-7.62649E-19
 -1      1969 9.47152E-05-2.84308E-05-2.84071E-05-2.21932E-07 1.92034E-19-1.28722E-18
 -1      1970 9.46277E-05-2.84073E-05-2.83812E-05-2.42018E-07 3.39797E-19-8.21276E-19
 -1      1971 9.46860E-05-2.84358E-05-2.83930E-05-3.14318E-07 4.61123E-19-1.26506E-18
 -1      1972 9.48534E-05-2.84655E-05-2.84514E-05-1.89195E-07 9.33084E-19-1.48001E-18
 -1      1973 9.47789E-05-2.84460E-05-2.84290E-05-2.02333E-07 4.00170E-19-1.65999E-18
 -1      1974 9.48240E-05-2.84675E-05-2.84386E-05-2.63295E-07 6.27247E-19-1.17302E-18
 -1      1975 9.49805E-05-2.84961E-05-2.84926E-05-1.75204E-07 6.64193E-19-1.00806E-18
 -1      1976 9.49128E-05-2.84789E-05-2.84719E-05-1.80395E-07 1.18324E-18-1.23110E-18
 -1      1977 9.49483E-05-2.84941E-05-2.84806E-05-2.34062E-07 9.20019E-19-1.32657E-18
 -1      1978 9.51089E-05-2.85260E-05-2.85346E-05-1.82294E-07-4.09134E-19-1.60184E-18
 -1      1979 9.50410E-05-2.85091E-05-2.85135E-05-1.78309E-07-4.62869E-20-1.14098E-18
 -1      1980 9.50687E-05-2.85184E-05-2.85220E-05-2.29334E-07 1.18626E-19-8.02057E-19
 -1      1981 9.52529E-05-2.85593E-05-2.85816E-05-2.13594E-07-8.11565E-19-1.39560E-18
 -1      1982 9.51766E-05-2.85403E-05-2.85578E-05-1.98822E-07-5.50516E-19-1.57024E-18
 -1      1983 9.51968E-05-2.85433E-05-2.85664E-05-2.52536E-07-4.45643E-19-1.42554E-18
 -1      1984 9.54290E-05-2.86004E-05-2.86390E-05-2.73288E-07-3.01514E-19-1.28742E-18
 -1      1985 9.53351E-05-2.85766E-05-2.86096E-05-2.45606E-07-7.86279E-19-1.62535E-18
 -1      1986 9.53462E-05-2.85724E-05-2.86183E-05-3.08169E-07-6.81343E-19-1.70146E-18
 -1      1987 9.56570E-05-2.86547E-05-2.87127E-05-3.66819E-07 7.26176E-19-1.53739E-18
 -1      1988 9.55343E-05-2.86229E-05-2.86745E-05-3.23476E-07 4.97210E-19-1.16845E-18
 -1      1989 9.55326E-05-2.86095E-05-2.86827E-05-4.02096E-07 3.12139E-19-1.68762E-18
 -1      1990 9.59600E-05-2.87286E-05-2.88100E-05-5.01012E-07 1.07068E-18-2.65121E-18
 -1      1991 9.57953E-05-2.86850E-05-2.87590E-05-4.38551E-07 9.22051E-19-2.25315E-18
 -1      1992 9.57746E-05-2.86594E-05-2.87656E-05-5.41739E-07 1.27355E-18-2.29061E-18
 -1      1993 9.63656E-05-2.88297E-05-2.89393E-05-6.84069E-07-4.01602E-19-3.09095E-18
 -1      1994 9.61432E-05-2.87696E-05-2.88709E-05-5.98300E-07 7.23680E-20-2.91360E-18
 -1      1995 9.60940E-05-2.87280E-05-2.88737E-05-7.36139E-07 3.43170E-19-2.75180E-18
 -1      1996 9.69060E-05-2.89673E-05-2.91106E-05-9.25331E-07-4.60747E-19-2.76277E-18
 -1      1997 9.66073E-05-2.88852E-05-2.90193E-05-8.11401E-07-4.27952E-19-2.93212E-18
 -1      1998 9.65164E-05-2.88220E-05-2.90152E-05-9.95794E-07-3.98042E-19-2.70157E-18
 -1      1999 9.76186E-05-2.91527E-05-2.93350E-05-1.23461E-06 3.04589E-19-2.78843E-18
 -1      2000 9.72220E-05-2.90418E-05-2.92146E-05-1.08728E-06-9.08608E-20-2.50438E-18
 -1      2001 9.70710E-05-2.89499E-05-2.91990E-05-1.33211E-06-3.42047E-19-2.59809E-18
 -1      2002 9.85449E-05-2.93988E-05-2.96247E-05-1.62076E-06-1.70735E-19-1.28489E-18
 -1      2003 9.80260E-05-2.92512E-05-2.94683E-05-1.43501E-06 2.15411E-19-2.02766E-18
 -1      2004 9.77908E-05-2.91220E-05-2.94348E-05-1.75610E-06-1.28833E-19-1.17841E-18
 -1      2005 9.97289E-05-2.97211E-05-2.99924E-05-2.08877E-06-7.06121E-19-1.49668E-18
 -1      2006 9.90619E-05-2.95278E-05-2.97927E-05-1.86118E-06-4.98732E-19-1.28661E-18
 -1      2007 9.87117E-05-2.93510E-05-2.97325E-05-2.27591E-06-3.34408E-19-1.26421E-18
 -1      2008 1.01213E-04-3.01372E-05-3.04490E-05-2.63457E-06 4.56935E-20-9.30543E-19
 -1      2009 1.00373E-04-2.98884E-05-3.01996E-05-2.36579E-06-3.33066E-19-1.00701E-18
 -1      2010 9.98703E-05-2.96529E-05-3.01010E-05-2.89202E-06-3.42479E-19-5.95080E-19
 -1      2011 1.03030E-04-3.06668E-05-3.10011E-05-3.23573E-06 5.54542E-20-7.63316E-19
 -1      2012 1.02000E-04-3.03523E-05-3.06979E-05-2.93505E-06-1.83730E-19-8.68596E-19
 -1      2013 1.01300E-04-3.00480E-05-3.05460E-05-3.58906E-06-1.64745E-19 9.35024E-20
 -1      2014 1.05192E-04-3.13305E-05-3.16455E-05-3.83638E-06-3.37412E-19-7.46570E-19
 -1      2015 1.03967E-04-3.09417E-05-3.12898E-05-3.52933E-06-8.63113E-20-6.49676E-19
 -1      2016 1.03026E-04-3.05630E-05-3.10665E-05-4.32193E-06 1.94205E-20-7.39387E-19
 -1      2017 1.07665E-04-3.21473E-05-3.23616E-05-4.32434E-06-2.75285E-19-1.10658E-18
 -1      2018 1.06274E-04-3.16803E-05-3.19650E-05-4.06448E-06-3.28055E-19-9.32560E-19
 -1      2019 1.05054E-04-3.12324E-05-3.16499E-05-4.99458E-06-2.17749E-19-7.53714E-19
 -1      2020 1.10341E-04-3.31270E-05-3.31004E-05-4.50196E-06-3.29843E-19-1.38650E-18
 -1      2021 1.08865E-04-3.25894E-05-3.26915E-05-4.38637E-06-3.42482E-19-1.25279E-18
 -1      2022 1.07355E-04-3.20984E-05-3.22656E-05-5.43078E-06 7.57408E-20-1.24640E-18
 -1      2023 1.12998E-04-3.42519E-05-3.37739E-05-4.06086E-06-1.79799E-19 7.16530E-19
 -1      2024 1.11596E-04-3.36753E-05-3.34053E-05-4.24422E-06-2.51463E-19 3.36947E-19
 -1      2025 1.09844E-04-3.32021E-05-3.28582E-05-5.34270E-06-8.30114E-19 5.36212E-20
 -1      2026 1.15247E-04-3.54362E-05-3.42494E-05-2.59217E-06 2.26661E-19 4.91531E-19
 -1      2027 1.14187E-04-3.48987E-05-3.40021E-05-3.28307E-06 1.91542E-19 8.01981E-19
 -1      2028 1.12342E-04-3.45513E-05-3.33453E-05-4.31831E-06 2.48720E-19 1.25928E-18
 -1      2029 1.16503E-04-3.64516E-05-3.43653E-05 3.01613E-07-5.07968E-19 1.25012E-18
 -1      2030 1.16162E-04-3.61091E-05-3.43407E-05-1.10302E-06 3.26836E-19 8.23197E-19
 -1      2031 1.14519E-04-3.60408E-05-3.36271E-05-1.87851E-06 1.50004E-19 2.78144E-18
 -1      2032 1.16004E-04-3.68372E-05-3.39808E-05 4.70142E-06-4.92755E-19 1.98631E-18
 -1      2033 1.16813E-04-3.69444E-05-3.42705E-05 2.53670E-06-8.15282E-19 1.46362E-18
 -1      2034 1.15821E-04-3.73146E-05-3.36165E-05 2.30896E-06-3.92229E-19 3.83891E-18
 -1      2035 1.13001E-04-3.59125E-05-3.30608E-05 9.86718E-06 1.85229E-19 2.43506E-18
 -1      2036 1.15280E-04-3.67694E-05-3.36922E-05 7.31378E-06-3.39382E-19 2.32417E-18
 -1      2037 1.15454E-04-3.76484E-05-3.32886E-05 7.97816E-06-5.11330E-19 3.10414E-18
 -1      2038 1.07235E-04-3.31220E-05-3.17504E-05 1.38499E-05-9.52991E-19 2.60227E-18
 -1      2039 1.10912E-04-3.48610E-05-3.26336E-05 1.18844E-05-4.73253E-19 1.76863E-18
 -1      2040 1.12614E-04-3.61041E-05-3.27187E-05 1.36956E-05-5.24783E-19 3.29676E-18
 -1      2041 9.97160E-05-2.88407E-05-3.03667E-05 1.40231E-05-1.84431E-19 4.09972E-18
 -1      2042 1.04031E-04-3.10797E-05-3.12897E-05 1.39171E-05-2.26126E-19 3.28024E-18
 -1      2043 1.07195E-04-3.22834E-05-3.20612E-05 1.67456E-05-7.75559E-19 3.33210E-18
 -1      2044 9.30390E-05-2.49506E-05-2.92407E-05 9.03823E-06-1.43466E-19 2.25354E-18
 -1      2045 9.65884E-05-2.66786E-05-2.99662E-05 1.13673E-05-4.46095E-19 2.81707E-18
 -1      2046 1.00689E-04-2.73723E-05-3.14546E-05 1.44377E-05 1.30324E-19 3.20522E-18
 -1      2047 9.00791E-05-2.37142E-05-2.85589E-05 1.12203E-06 2.44051E-20 7.50458E-19
 -1      2048 9.16292E-05-2.41027E-05-2.89241E-05 4.73069E-06 6.47980E-19 1.71629E-18
 -1      2049 9.60438E-05-2.41542E-05-3.09051E-05 6.79574E-06 4.58430E-19 1.91147E-18
 -1      2050 9.15567E-05-2.56399E-05-2.83365E-05-5.44724E-06 2.10514E-18-1.72919E-18
 -1      2051 9.08219E-05-2.46139E-05-2.83340E-05-2.58095E-06 7.13255E-19-2.68959E-19
 -1      2052 9.52534E-05-2.45073E-05-3.03778E-05-2.17765E-06 1.66034E-18-3.48408E-21
 -1      2053 9.51481E-05-2.87174E-05-2.84775E-05-7.46377E-06 3.10550E-18-1.25038E-18
 -1      2054 9.31959E-05-2.72779E-05-2.82260E-05-6.61005E-06 2.90927E-18-8.58362E-19
 -1      2055 9.75705E-05-2.77496E-05-2.99149E-05-7.56282E-06 2.74016E-18-3.43948E-19
 -1      2056 9.79633E-05-3.07216E-05-2.87601E-05-5.40206E-06 9.93133E-19 2.72301E-19
 -1      2057 9.61683E-05-2.98023E-05-2.84563E-05-6.26263E-06 1.97656E-18 9.09700E-19
 -1      2058 1.00151E-04-3.10041E-05-2.96037E-05-7.52793E-06 1.21590E-18 1.93028E-18
 -1      2059 9.86125E-05-3.08400E-05-2.89625E-05-2.01521E-06 2.90168E-19 5.51016E-19
 -1      2060 9.77437E-05-3.07164E-05-2.87605E-05-3.36932E-06 6.68137E-19 7.13450E-19
 -1      2061 1.00926E-04-3.22328E-05-2.94317E-05-4.13010E-06 9.29268E-19 2.21823E-18
 -1      2062 9.74574E-05-2.96586E-05-2.89853E-05 1.52488E-07 9.02725E-19 2.34549E-19
 -1      2063 9.74989E-05-3.00688E-05-2.89285E-05-5.96174E-07 1.41084E-19 8.59596E-19
 -1      2064 9.96446E-05-3.13015E-05-2.93073E-05-6.38208E-07 7.14049E-19 2.26782E-18
 -1      2065 9.62027E-05-2.86796E-05-2.88928E-05 5.35662E-07 4.01765E-19 1.41663E-18
 -1      2066 9.66370E-05-2.91580E-05-2.89478E-05 4.99840E-07 1.36396E-18 1.35898E-18
 -1      2067 9.79368E-05-2.98914E-05-2.91969E-05 8.99659E-07 9.73843E-19 2.46981E-18
 -1      2068 9.64753E-05-2.85108E-05-2.90699E-05 1.00772E-06 2.59219E-19 3.93690E-18
 -1      2069 9.66419E-05-2.10706E-05-3.23283E-05 1.70609E-05 6.11320E-20 4.94085E-19
 -1      2070 9.82005E-05-2.49285E-05-3.13678E-05 1.39983E-05-1.10245E-18 2.99500E-18
 -1      2071 9.83323E-05-2.60139E-05-3.08808E-05 9.99964E-06-3.93520E-19 2.54113E-18
 -1      2072 9.85683E-05-2.81254E-05-3.01821E-05 7.08820E-06-9.14193E-19 2.21003E-18
 -1      2073 1.01337E-04-2.93379E-05-3.09325E-05 1.43513E-05-1.80806E-18 2.24942E-18
 -1      2074 9.77021E-05-2.78840E-05-2.98116E-05 4.38194E-06-5.02762E-19 2.00401E-18
 -1      2075 9.72834E-05-2.86890E-05-2.93751E-05 2.51388E-06 1.02412E-19 2.89857E-18
 -1      2076 9.81270E-05-2.93582E-05-2.94720E-05 2.68231E-06 4.65031E-19 2.21978E-18
 -1      2077 1.00492E-04-3.00737E-05-3.01718E-05 7.13662E-06-7.79297E-19 2.33403E-18
 -1      2078 9.16736E-05-1.30516E-05-3.37743E-05 2.17842E-05-1.59380E-18-3.51625E-18
 -1      2079 9.48162E-05-1.82158E-05-3.27390E-05 2.03490E-05-1.56906E-18-9.81910E-19
 -1      2080 9.88320E-05-2.53134E-05-3.15948E-05 2.26401E-05-1.73830E-18-1.50289E-18
 -1      2081 8.40018E-05-3.10082E-06-3.48702E-05 2.00006E-05-9.19692E-19-2.43601E-18
 -1      2082 8.80203E-05-8.38978E-06-3.40035E-05 2.19370E-05-1.36986E-18-1.77750E-18
 -1      2083 9.16032E-05-1.73368E-05-3.18432E-05 2.68935E-05-1.81268E-18-2.11553E-18
 -1      2084 7.75342E-05 4.56971E-06-3.53649E-05 9.49902E-06 4.33079E-19 2.71040E-18
 -1      2085 8.01722E-05 1.46368E-06-3.49166E-05 1.50682E-05 1.13079E-19 1.07406E-18
 -1      2086 8.16593E-05-7.29694E-06-3.16681E-05 2.18894E-05 6.83486E-19-2.23696E-19
 -1      2087 7.66197E-05 5.51384E-06-3.52448E-05-5.96072E-06 6.31145E-19 2.39914E-18
 -1      2088 7.61474E-05 6.14034E-06-3.53504E-05 9.53484E-07 1.71372E-19 2.32129E-18
 -1      2089 7.47153E-05-5.86025E-07-3.14274E-05 6.55275E-06 1.25507E-18 2.58080E-18
 -1      2090 8.21543E-05-1.30884E-06-3.45635E-05-1.87170E-05 9.14399E-19-3.75421E-19
 -1      2091 7.88608E-05 2.81076E-06-3.52106E-05-1.39137E-05 1.01153E-18 1.53654E-18
 -1      2092 7.57635E-05-1.78060E-06-3.14334E-05-1.24689E-05-2.74660E-19 2.40854E-18
 -1      2093 9.03582E-05-1.20882E-05-3.34198E-05-2.32128E-05 5.75175E-19-1.69035E-18
 -1      2094 8.62973E-05-6.37338E-06-3.44305E-05-2.23202E-05 8.82661E-19-7.95549E-19
 -1      2095 8.42787E-05-1.02347E-05-3.16100E-05-2.54745E-05-9.31333E-19-5.97688E-19
 -1      2096 9.64613E-05-2.15529E-05-3.20216E-05-1.99251E-05 6.79095E-19-1.35546E-18
 -1      2097 9.36000E-05-1.64261E-05-3.31106E-05-2.19959E-05 9.69098E-19-1.79859E-18
 -1      2098 9.41259E-05-2.04009E-05-3.16359E-05-2.77023E-05 1.18767E-18-1.20759E-18
 -1      2099 9.92640E-05-2.77202E-05-3.06178E-05-1.27577E-05 1.80383E-18 1.15362E-18
 -1      2100 9.79689E-05-2.41407E-05-3.15539E-05-1.60943E-05 1.33948E-18 7.73063E-19
 -1      2101 1.00362E-04-2.77132E-05-3.12288E-05-2.17571E-05 1.68917E-18 8.16593E-20
 -1      2102 9.93437E-05-3.04284E-05-2.95213E-05-5.52076E-06 2.48799E-18 4.94720E-19
 -1      2103 9.92900E-05-2.86320E-05-3.01386E-05-8.59033E-06 2.63824E-18-5.38686E-19
 -1      2104 1.02255E-04-3.12370E-05-3.04954E-05-1.27820E-05 1.99158E-18 1.02917E-18
 -1      2105 9.78627E-05-3.06741E-05-2.87952E-05-2.73274E-07 3.65415E-20-9.75034E-19
 -1      2106 9.85785E-05-3.03138E-05-2.91244E-05-2.37221E-06 1.41362E-18 1.61108E-19
 -1      2107 1.01064E-04-3.18781E-05-2.96811E-05-4.73451E-06 1.10020E-18-6.61824E-19
 -1      2108 7.28825E-05-4.92894E-05-1.07639E-05 4.96680E-05 1.01813E-18 2.41796E-18
 -1      2109 5.19480E-05-4.92485E-05-2.69853E-06 4.01186E-05 1.19516E-18 1.74605E-18
 -1      2110 1.61024E-05-4.03596E-05 8.57732E-06 6.43187E-06-1.98989E-18 1.03042E-18
 -1      2111 1.54646E-05-3.75302E-05 7.99864E-06-6.89526E-06-3.50110E-18 2.04262E-18
 -1      2112 3.08413E-05-4.02910E-05 2.87442E-06 3.19704E-05 3.05779E-19 1.45859E-18
 -1      2113 2.17850E-05-4.34350E-05 7.27974E-06 1.87921E-05-1.02957E-18 1.11893E-18
 -1      2114 2.20696E-05-2.89105E-05 2.05450E-06 1.62450E-05-9.65194E-19 2.45809E-18
 -1      2115 1.16557E-04-4.92744E-05-2.83675E-05 4.98640E-05 1.14392E-18 1.21719E-18
 -1      2116 9.89159E-05-5.43172E-05-1.94835E-05 4.74485E-05 1.31671E-18 1.90625E-18
 -1      2117 1.51471E-04-4.38482E-05-4.50226E-05 4.35562E-05 4.67562E-19 2.38863E-19
 -1      2118 1.29950E-04-4.67228E-05-3.60085E-05 4.22464E-05 4.91279E-19 1.10792E-18
 -1      2119 8.72674E-05-8.72386E-06-3.37499E-05-1.05203E-05-2.43258E-18-4.74597E-18
 -1      2120 8.79641E-05-9.25301E-06-3.38205E-05-1.21071E-05-2.90818E-18-4.20949E-18
 -1      2121 9.04702E-05-1.30771E-05-3.32348E-05-1.19183E-05-3.15160E-18-3.64195E-18
 -1      2122 8.86675E-05-1.10329E-05-3.32956E-05-9.40811E-06-2.44980E-18-4.56191E-18
 -1      2123 1.89182E-04-2.76236E-05-6.79934E-05 1.30280E-05 3.71932E-18-5.38882E-18
 -1      2124 1.80389E-04-2.92743E-05-6.39719E-05 1.81401E-05 2.27090E-18-3.50418E-18
 -1      2125 1.96015E-04-2.65518E-05-7.11405E-05 4.96917E-06 3.81461E-18-6.01997E-18
 -1      2126 1.92508E-04-2.45992E-05-7.07986E-05 1.22891E-05 3.73499E-18-6.06349E-18
 -1      2127 1.81818E-04-2.82614E-05-6.50113E-05-1.92184E-06 4.65360E-18-5.92415E-18
 -1      2128 1.95964E-04-2.89283E-05-6.96107E-05 1.98181E-06 4.06364E-18-6.05036E-18
 -1      2129 1.70600E-04-1.55827E-05-6.51444E-05 9.07979E-06 4.31352E-18-4.64111E-18
 -1      2130 1.65598E-04-4.03188E-05-5.30753E-05-1.82892E-05 2.07952E-18-7.38105E-18
 -1      2131 1.78365E-04-3.80222E-05-5.94976E-05-8.33553E-06 3.14292E-18-6.30870E-18
 -1      2132 1.33704E-04-4.72861E-05-3.74912E-05-2.87433E-05 1.51111E-18-6.67293E-18
 -1      2133 1.55677E-04-4.58659E-05-4.61979E-05-2.80246E-05 2.10403E-18-6.88977E-18
 -1      2134 1.00255E-04-5.38328E-05-2.07535E-05-3.41606E-05 2.49875E-20-5.01571E-18
 -1      2135 1.20733E-04-5.05982E-05-2.96884E-05-3.67543E-05 1.19940E-18-6.34851E-18
 -1      2136 6.34577E-05-5.06138E-05-6.13436E-06-3.67280E-05 5.86147E-19-2.94286E-18
 -1      2137 8.06600E-05-5.02604E-05-1.31723E-05-4.04425E-05 6.16640E-19-3.29369E-18
 -1      2138 2.68915E-05-4.65567E-05 6.54357E-06-2.10973E-05 1.77326E-18-2.27767E-18
 -1      2139 3.93106E-05-4.33443E-05 8.54019E-07-3.15817E-05 1.84738E-18-2.50574E-18
 -1      2140 1.28009E-05-4.16758E-05 1.09305E-05-4.53333E-06 9.12943E-19-2.27767E-18
 -1      2141 1.73387E-05-4.27411E-05 9.43987E-06-1.34105E-05 1.48570E-18-2.68806E-18
 -1      2142 2.51576E-05-3.54612E-05 3.83265E-06-2.28203E-05 1.69449E-18-2.74354E-18
 -1      2143 1.88864E-05-3.89588E-05 7.70572E-06 1.84218E-05-3.55330E-19-3.00273E-18
 -1      2144 1.41445E-05-3.96362E-05 9.75972E-06 8.08408E-06 2.35581E-19-3.04678E-18
 -1      2145 4.22054E-05-4.29602E-05-4.41220E-07 3.50758E-05-6.45863E-19-3.17510E-18
 -1      2146 2.95175E-05-4.55094E-05 5.29542E-06 2.59889E-05-4.00223E-19-3.08214E-18
 -1      2147 8.30178E-05-4.80945E-05-1.51552E-05 4.30122E-05-2.75370E-18-2.26560E-18
 -1      2148 6.48909E-05-5.00762E-05-7.46707E-06 3.77048E-05-1.65595E-18-1.78645E-18
 -1      2149 1.23292E-04-4.94912E-05-3.12996E-05 3.84533E-05-1.92700E-18-5.52011E-18
 -1      2150 1.02313E-04-5.16147E-05-2.25949E-05 3.66013E-05-2.12266E-18-3.91668E-18
 -1      2151 1.57474E-04-4.40537E-05-4.78143E-05 2.74472E-05-2.64264E-18-4.91787E-18
 -1      2152 1.36755E-04-4.59747E-05-3.93177E-05 2.90834E-05-2.73168E-18-4.95514E-18
 -1      2153 1.82774E-04-3.56349E-05-6.17350E-05 1.32745E-05-2.56185E-18-4.20298E-18
 -1      2154 1.65432E-04-3.69220E-05-5.49232E-05 1.72523E-05-3.03227E-18-4.05517E-18
 -1      2155 1.95641E-04-2.86116E-05-7.00853E-05 1.60599E-07-2.08328E-18-3.54949E-18
 -1      2156 1.86602E-04-2.91341E-05-6.65942E-05 8.24854E-06-2.48223E-18-3.66596E-18
 -1      2157 1.93392E-04-2.49416E-05-7.09802E-05-1.16194E-05-6.92449E-19-3.75871E-18
 -1      2158 1.97195E-04-2.63793E-05-7.16593E-05-3.39468E-06-1.69068E-18-3.90927E-18
 -1      2159 1.80785E-04-2.91035E-05-6.41593E-05-2.07109E-05-1.02491E-18-2.36195E-18
 -1      2160 1.91097E-04-2.81082E-05-6.84078E-05-1.47903E-05-4.80691E-19-2.55507E-18
 -1      2161 1.59571E-04-3.89150E-05-5.13839E-05-3.29453E-05-1.99794E-18-1.92446E-18
 -1      2162 1.76789E-04-3.68744E-05-5.87296E-05-2.82912E-05-6.12881E-19-1.73472E-18
 -1      2163 1.32984E-04-5.08066E-05-3.51790E-05-3.97314E-05-2.86932E-18-3.81800E-18
 -1      2164 1.51117E-04-4.46088E-05-4.44539E-05-4.16204E-05-3.28522E-18-4.29361E-18
 -1      2165 1.58833E-04-5.04420E-05-4.59821E-05-2.13787E-05-2.04506E-18-3.70026E-18
 -1      2166 8.72676E-05-5.20422E-05-1.62691E-05-4.61198E-05-3.62445E-18 3.02814E-19
 -1      2167 1.10894E-04-5.26570E-05-2.53168E-05-4.91646E-05-2.97647E-18-1.90477E-18
 -1      2168 5.15696E-05-4.95161E-05-2.64976E-06-3.95789E-05-2.60081E-18 4.23845E-18
 -1      2169 6.82912E-05-4.66444E-05-9.87685E-06-4.80848E-05-2.99765E-18 2.38249E-18
 -1      2170 9.12771E-05-5.54019E-05-1.53971E-05-5.22543E-05-9.50371E-19-1.50137E-19
 -1      2171 2.34167E-05-4.24553E-05 6.44287E-06-2.33538E-05-4.32262E-18 2.58049E-18
 -1      2172 3.34405E-05-4.31071E-05 2.67042E-06-3.35673E-05-3.52577E-18 5.03476E-18
 -1      2173 1.79702E-04-3.73920E-05-5.97571E-05 2.87795E-05 1.38088E-18-1.33662E-18
 -1      2174 1.62261E-04-3.86255E-05-5.24395E-05 3.38705E-05 1.11565E-18-6.02240E-19
 -1      2175 1.60657E-04-4.96601E-05-4.66858E-05 2.44091E-05 1.13577E-18-3.91329E-19
 -1      2176 9.71938E-05-2.43160E-05-3.13073E-05-9.99929E-06-3.40454E-18 1.68033E-18
 -1      2177 1.69107E-04-3.17262E-05-5.77920E-05 8.68268E-06 2.74015E-18-3.55839E-18
 -1      2178 9.63524E-05-2.30997E-05-3.14572E-05-1.03808E-05-3.56463E-18-8.16990E-20
 -1      2179 4.88805E-05-4.06337E-05-3.97382E-06 4.27931E-05 5.90805E-19 2.84730E-18
 -1      2180 1.13465E-04-6.22596E-05-2.25128E-05 4.81418E-05 6.27228E-19 1.42302E-18
 -1      2181 9.37042E-05-5.56989E-05-1.65071E-05 4.99591E-05 3.04932E-19 1.25806E-18
 -1      2182 8.99764E-05-5.36726E-05-1.49058E-05 5.30020E-05 3.93870E-19 8.85149E-19
 -1      2183 9.75879E-05-3.04758E-05-2.87485E-05 6.80191E-07-3.02162E-19-1.69928E-18
 -1      2184 2.32077E-05-3.05394E-05 2.25089E-06-1.83801E-05-2.24654E-18 3.22127E-18
 -1      2185 1.36376E-04-6.05844E-05-3.25001E-05 3.90292E-05 2.90109E-19 5.72594E-19
 -1      2186 5.16491E-05-4.32602E-05-4.39324E-06-4.51801E-05-1.38024E-18 2.72639E-18
 -1      2187 1.28948E-04-5.77008E-05-3.04009E-05-4.19140E-05-2.08497E-18-3.84384E-18
 -1      2188 1.43439E-04-6.33935E-05-3.49279E-05-3.13761E-05-9.20725E-19-7.17755E-18
 -1      2189 1.25467E-04-6.27899E-05-2.62332E-05-4.40685E-05-1.26504E-18-4.86504E-18
 -1      2190 1.69224E-04-3.23184E-05-5.76559E-05-9.46220E-06-7.75247E-19-2.03119E-18
 -1      2191 1.72224E-04-1.72865E-05-6.51334E-05-4.95883E-06-1.26166E-18-1.47532E-18
 -1      2192 1.72874E-04-1.55992E-05-6.59942E-05-6.13076E-06-1.76013E-18-2.64560E-18
 -1      2193 1.69040E-04-2.67007E-05-5.99237E-05-4.72962E-06-2.26857E-18-1.48273E-18
 -1      2194 1.60542E-04-4.49671E-05-4.88631E-05 6.20590E-06-1.94421E-18-2.13876E-18
 -1      2195 1.39897E-04-5.85822E-05-3.45521E-05 2.32510E-05-4.10599E-19-3.31402E-18
 -1      2196 1.07010E-04-5.96206E-05-2.02753E-05 3.88858E-05-6.89485E-19-2.74756E-18
 -1      2197 6.36827E-05-4.86739E-05-6.73178E-06 4.22007E-05 3.23990E-19-2.22590E-18
 -1      2198 1.53303E-05-2.95769E-05 5.57681E-06 2.44584E-06 6.34295E-19-3.61005E-18
 -1      2199 5.72020E-05-4.73485E-05-4.60534E-06-3.72043E-05 9.89758E-19-2.87155E-18
 -1      2200 7.50576E-05-5.12026E-05-1.04722E-05-4.10453E-05 4.92126E-19-1.58882E-18
 -1      2201 5.18540E-05-4.12632E-05-4.09054E-06-3.77568E-05 1.28855E-18-1.60005E-18
 -1      2202 1.04551E-04-6.09178E-05-1.89591E-05-3.66080E-05-1.17187E-18-4.19207E-18
 -1      2203 1.38360E-04-6.03784E-05-3.32561E-05-2.22878E-05-2.15570E-19-4.41304E-18
 -1      2204 1.73576E-04-3.15857E-05-5.98899E-05 2.75542E-06 4.06322E-18-3.83198E-18
 -1      2205 1.59519E-04-2.32147E-05-5.87058E-05 1.46435E-05 3.34282E-18-1.81138E-18
 -1      2206 1.60672E-04-3.42281E-05-5.38718E-05 9.71076E-06 1.97422E-18-2.01933E-18
 -1      2207 1.68747E-04-1.67027E-05-6.40692E-05 4.24785E-06 4.61845E-18-6.04506E-18
 -1      2208 1.60403E-04-4.86027E-05-4.70795E-05-6.94088E-06 4.40325E-19-5.19994E-18
 -1      2209 2.84869E-05-3.51388E-05 2.29058E-06 2.75579E-05 4.70739E-19-3.41100E-18
 -1      2210 9.52200E-05-2.63782E-05-2.94904E-05 4.19401E-06 2.80901E-18 1.30214E-18
 -1      2211 9.61944E-05-2.58636E-05-3.00682E-05 5.99926E-06 3.15431E-18 1.82076E-18
 -1      2212 8.81307E-05-1.11818E-05-3.30174E-05-3.66015E-06-7.63161E-19-5.04396E-18
 -1      2213 8.83657E-05-1.14529E-05-3.29998E-05-4.80161E-06-1.19881E-18-5.06716E-18
 -1      2214 8.87198E-05-1.19389E-05-3.29514E-05-5.81823E-06-1.46859E-18-4.92350E-18
 -1      2215 8.91260E-05-1.24101E-05-3.29234E-05-6.99381E-06-1.89636E-18-4.73994E-18
 -1      2216 8.98859E-05-1.38216E-05-3.25979E-05-4.90008E-06-1.29161E-18-4.66305E-18
 -1      2217 8.77847E-05-1.07228E-05-3.30605E-05 6.15562E-07 6.18956E-19-4.96537E-18
 -1      2218 8.77802E-05-1.07179E-05-3.30607E-05-4.95431E-07 2.12056E-19-5.03921E-18
 -1      2219 8.79659E-05-1.09478E-05-3.30422E-05 2.75762E-06 1.31437E-18-4.79612E-18
 -1      2220 8.78509E-05-1.08147E-05-3.30514E-05 1.63824E-06 9.15118E-19-4.92240E-18
 -1      2221 8.91023E-05-1.27691E-05-3.27174E-05 1.04971E-06 7.02758E-19-4.66946E-18
 -1      2222 8.84006E-05-1.14948E-05-3.29972E-05 4.88680E-06 1.99226E-18-4.49904E-18
 -1      2223 8.81609E-05-1.12181E-05-3.30152E-05 3.76369E-06 1.60266E-18-4.66016E-18
 -1      2224 8.93684E-05-1.31249E-05-3.26775E-05 3.02089E-06 1.39508E-18-4.37572E-18
 -1      2225 8.91811E-05-1.24775E-05-3.29188E-05 7.07375E-06 2.85550E-18-3.92025E-18
 -1      2226 8.87624E-05-1.19909E-05-3.29477E-05 5.90224E-06 2.37876E-18-4.24896E-18
 -1      2227 8.99261E-05-1.38728E-05-3.25934E-05 4.97476E-06 2.16450E-18-4.02857E-18
 -1      2228 9.04524E-05-1.40869E-05-3.27923E-05 9.22226E-06 3.45546E-18-3.17693E-18
 -1      2229 8.97712E-05-1.32759E-05-3.28374E-05 8.04344E-06 3.04599E-18-3.61939E-18
 -1      2230 9.08627E-05-1.51328E-05-3.24489E-05 6.87015E-06 2.85968E-18-3.45747E-18
 -1      2231 9.24515E-05-1.66590E-05-3.25830E-05 1.11062E-05 3.92932E-18-1.89796E-18
 -1      2232 9.13721E-05-1.53189E-05-3.26547E-05 1.00262E-05 3.58404E-18-2.61840E-18
 -1      2233 9.22879E-05-1.70870E-05-3.22082E-05 8.51562E-06 3.33984E-18-2.63510E-18
 -1      2234 9.42397E-05-2.71182E-05-2.87496E-05 1.76385E-06 2.11051E-18 6.64969E-19
 -1      2235 9.48401E-05-2.68947E-05-2.90481E-05 2.73682E-06 2.45855E-18 1.16677E-18
 -1      2236 9.53423E-05-2.58483E-05-2.97910E-05 4.36022E-06 2.93245E-18 1.54934E-19
 -1      2237 9.59147E-05-2.50916E-05-3.03049E-05-6.18491E-06-2.91065E-18-8.45102E-19
 -1      2238 9.52556E-05-2.58510E-05-2.97614E-05-4.27916E-06-2.61025E-18-9.66645E-19
 -1      2239 1.55970E-04-2.85322E-05-5.51631E-05-2.37268E-06 3.90080E-18-4.51257E-18
 -1      2240 1.60099E-04-3.95599E-05-5.16915E-05 3.39127E-06 2.24675E-18-3.15393E-18
 -1      2241 9.51402E-05-2.65361E-05-2.93445E-05-2.93633E-06-2.36515E-18-7.68377E-19
 -1      2242 9.46725E-05-2.69093E-05-2.90411E-05-1.87525E-06-2.02406E-18-1.00336E-18
 -1      2243 9.53388E-05-2.53530E-05-2.99963E-05-4.29244E-06-2.61831E-18-1.41842E-18
 -1      2244 9.44760E-05-2.72389E-05-2.87774E-05-1.02559E-06-1.79240E-18-8.77885E-19
 -1      2245 9.42180E-05-2.74526E-05-2.86112E-05-4.24230E-07-1.34709E-18-1.05256E-18
 -1      2246 9.50358E-05-2.67012E-05-2.92991E-05-1.91934E-06-1.98861E-18-1.30426E-18
 -1      2247 9.40690E-05-2.76329E-05-2.84499E-05 8.32065E-08-1.08305E-18-1.08645E-18
 -1      2248 9.39704E-05-2.77764E-05-2.83663E-05 4.12628E-07-1.11714E-18-1.09065E-18
 -1      2249 9.47294E-05-2.74283E-05-2.88561E-05-4.40686E-07-1.42229E-18-1.27885E-18
 -1      2250 9.38854E-05-2.78859E-05-2.82728E-05 6.94912E-07-1.07853E-18-1.14349E-18
 -1      2251 9.38908E-05-2.79929E-05-2.82398E-05 8.58606E-07-8.82904E-19-1.26512E-18
 -1      2252 9.45277E-05-2.78565E-05-2.85837E-05 4.28925E-07-1.27130E-18-1.49468E-18
 -1      2253 9.38590E-05-2.80650E-05-2.81909E-05 9.95338E-07-9.34704E-19-1.34198E-18
 -1      2254 9.39258E-05-2.81489E-05-2.81884E-05 1.05698E-06-7.48064E-19-1.58887E-18
 -1      2255 9.44343E-05-2.81258E-05-2.84254E-05 8.98967E-07-1.04486E-18-1.52875E-18
 -1      2256 9.39309E-05-2.81986E-05-2.81682E-05 1.10137E-06-6.90647E-19-1.70904E-18
 -1      2257 9.40292E-05-2.82652E-05-2.81833E-05 1.10118E-06-6.13949E-19-1.72675E-18
 -1      2258 9.44239E-05-2.83027E-05-2.83427E-05 1.11064E-06-8.51954E-19-2.02212E-18
 -1      2259 9.40571E-05-2.83000E-05-2.81811E-05 1.08916E-06-8.05145E-19-1.56622E-18
 -1      2260 9.41674E-05-2.83527E-05-2.82054E-05 1.05333E-06-9.07665E-19-1.50594E-18
 -1      2261 9.44677E-05-2.84209E-05-2.83090E-05 1.15972E-06-7.17929E-19-1.82410E-18
 -1      2262 9.42073E-05-2.83768E-05-2.82139E-05 1.00919E-06-8.36194E-19-1.56058E-18
 -1      2263 9.43174E-05-2.84179E-05-2.82420E-05 9.55020E-07-4.80311E-19-1.61252E-18
 -1      2264 9.45425E-05-2.84991E-05-2.83062E-05 1.11114E-06-8.84927E-19-1.56896E-18
 -1      2265 9.43620E-05-2.84340E-05-2.82564E-05 8.95190E-07-2.28038E-19-1.67164E-18
 -1      2266 9.44648E-05-2.84653E-05-2.82850E-05 8.34165E-07-2.89456E-19-1.53354E-18
 -1      2267 9.46312E-05-2.85492E-05-2.83219E-05 1.00899E-06-5.10639E-19-1.33469E-18
 -1      2268 9.45096E-05-2.84755E-05-2.83022E-05 7.69674E-07-4.14412E-19-1.49778E-18
 -1      2269 9.46018E-05-2.84987E-05-2.83295E-05 7.09384E-07 2.03377E-20-1.37462E-18
 -1      2270 9.47230E-05-2.85789E-05-2.83480E-05 8.83080E-07-3.45673E-19-1.04721E-18
 -1      2271 9.46443E-05-2.85043E-05-2.83477E-05 6.47594E-07 1.85028E-20-1.83695E-18
 -1      2272 9.47249E-05-2.85207E-05-2.83728E-05 5.93033E-07-3.52979E-19-1.78419E-18
 -1      2273 9.48113E-05-2.85937E-05-2.83791E-05 7.53503E-07-3.07339E-19-1.31830E-18
 -1      2274 9.47640E-05-2.85228E-05-2.83909E-05 5.38863E-07-6.07934E-19-1.91606E-18
 -1      2275 9.48339E-05-2.85339E-05-2.84138E-05 4.93365E-07-5.22887E-19-1.75524E-18
 -1      2276 9.48929E-05-2.85974E-05-2.84123E-05 6.33724E-07-4.61618E-19-1.97658E-18
 -1      2277 9.48697E-05-2.85332E-05-2.84316E-05 4.50198E-07-7.88873E-19-1.72782E-18
 -1      2278 9.49309E-05-2.85401E-05-2.84525E-05 4.16125E-07-8.53034E-19-1.94366E-18
 -1      2279 9.49672E-05-2.85929E-05-2.84461E-05 5.32889E-07-6.95597E-19-1.58065E-18
 -1      2280 9.49643E-05-2.85372E-05-2.84702E-05 3.86500E-07-8.62057E-19-2.03327E-18
 -1      2281 9.50197E-05-2.85409E-05-2.84900E-05 3.65762E-07-7.88948E-19-2.07572E-18
 -1      2282 9.50353E-05-2.85820E-05-2.84800E-05 4.57540E-07-1.09264E-18-1.73462E-18
 -1      2283 9.50522E-05-2.85363E-05-2.85080E-05 3.51886E-07-5.61423E-19-2.23543E-18
 -1      2284 9.51057E-05-2.85377E-05-2.85278E-05 3.46331E-07-3.17710E-19-2.12253E-18
 -1      2285 9.50997E-05-2.85659E-05-2.85147E-05 4.12901E-07-6.68072E-19-1.98283E-18
 -1      2286 9.51393E-05-2.85317E-05-2.85470E-05 3.50470E-07-5.95109E-19-2.31372E-18
 -1      2287 9.51951E-05-2.85318E-05-2.85682E-05 3.62172E-07-3.41636E-19-2.56574E-18
 -1      2288 9.51639E-05-2.85452E-05-2.85513E-05 4.03849E-07-5.76627E-19-1.88523E-18
 -1      2289 9.52323E-05-2.85246E-05-2.85897E-05 3.86926E-07 2.63954E-19-2.95153E-18
 -1      2290 9.52957E-05-2.85246E-05-2.86138E-05 4.18383E-07 2.37010E-19-2.79210E-18
 -1      2291 9.52324E-05-2.85204E-05-2.85915E-05 4.35627E-07-2.94178E-19-2.30507E-18
 -1      2292 9.53393E-05-2.85164E-05-2.86389E-05 4.66863E-07 4.31827E-19-2.82806E-18
 -1      2293 9.54163E-05-2.85174E-05-2.86678E-05 5.21094E-07 7.19905E-19-2.56611E-18
 -1      2294 9.53106E-05-2.84917E-05-2.86376E-05 5.14319E-07 2.72009E-19-2.16533E-18
 -1      2295 9.54699E-05-2.85089E-05-2.86979E-05 5.96979E-07 6.31806E-19-2.47065E-18
 -1      2296 9.55672E-05-2.85125E-05-2.87337E-05 6.77517E-07 7.22024E-19-1.75328E-18
 -1      2297 9.54050E-05-2.84598E-05-2.86921E-05 6.47097E-07 8.23790E-19-2.47160E-18
 -1      2298 9.56348E-05-2.85042E-05-2.87704E-05 7.84971E-07 6.04801E-19-1.73133E-18
 -1      2299 9.57602E-05-2.85125E-05-2.88153E-05 8.95694E-07 6.54598E-19-1.48346E-18
 -1      2300 9.55229E-05-2.84254E-05-2.87578E-05 8.42199E-07 9.18026E-19-1.76434E-18
 -1      2301 9.58465E-05-2.85058E-05-2.88603E-05 1.03910E-06 6.84385E-19-1.70507E-18
 -1      2302 9.60089E-05-2.85217E-05-2.89168E-05 1.18384E-06 7.41886E-19-1.50883E-18
 -1      2303 9.56732E-05-2.83906E-05-2.88375E-05 1.10854E-06 5.22133E-19-1.96776E-18
 -1      2304 9.61191E-05-2.85186E-05-2.89715E-05 1.36723E-06 2.33534E-20-1.55175E-18
 -1      2305 9.63281E-05-2.85460E-05-2.90419E-05 1.54908E-06 1.44888E-19-1.75713E-18
 -1      2306 9.58658E-05-2.83590E-05-2.89340E-05 1.45487E-06 3.04094E-19-1.18044E-18
 -1      2307 9.64685E-05-2.85501E-05-2.91076E-05 1.77523E-06 4.90833E-19-2.44458E-18
 -1      2308 9.67344E-05-2.85945E-05-2.91942E-05 1.99533E-06 3.71320E-19-2.27803E-18
 -1      2309 9.61126E-05-2.83373E-05-2.90495E-05 1.88819E-06-2.98982E-19-2.40561E-18
 -1      2310 9.69124E-05-2.86114E-05-2.92714E-05 2.26424E-06 6.58018E-20-2.23852E-18
 -1      2311 9.72456E-05-2.86805E-05-2.93756E-05 2.51993E-06 5.46055E-20-1.49482E-18
 -1      2312 9.64275E-05-2.83361E-05-2.91854E-05 2.41124E-06 1.92263E-19-3.09100E-18
 -1      2313 9.74705E-05-2.87190E-05-2.94641E-05 2.82655E-06 1.20433E-19-1.25882E-18
 -1      2314 9.78807E-05-2.88238E-05-2.95862E-05 3.10858E-06 4.70948E-19-1.10949E-18
 -1      2315 9.68276E-05-2.83734E-05-2.93414E-05 3.01866E-06 1.08362E-19-1.92617E-18
 -1      2316 9.81642E-05-2.88976E-05-2.96843E-05 3.43950E-06 4.71274E-19-1.25837E-18
 -1      2317 9.86594E-05-2.90530E-05-2.98226E-05 3.72807E-06 4.58811E-19-1.69981E-18
 -1      2318 9.73345E-05-2.84769E-05-2.95148E-05 3.69127E-06 4.63953E-19-2.11830E-18
 -1      2319 9.90175E-05-2.91828E-05-2.99267E-05 4.05688E-06-4.10947E-20-1.85220E-18
 -1      2320 9.96020E-05-2.94089E-05-3.00767E-05 4.31628E-06-2.71633E-19-1.39151E-18
 -1      2321 9.79763E-05-2.86889E-05-2.96997E-05 4.38816E-06-3.61777E-19-1.89240E-18
 -1      2322 1.00057E-04-2.96241E-05-3.01811E-05 4.59751E-06-3.63670E-19-1.02099E-18
 -1      2323 1.00729E-04-2.99463E-05-3.03346E-05 4.76986E-06-8.21672E-20-5.87439E-19
 -1      2324 9.87919E-05-2.90713E-05-2.98866E-05 5.03600E-06-2.09794E-20-1.54799E-18
 -1      2325 1.01310E-04-3.02860E-05-3.04317E-05 4.93166E-06-2.21443E-19-8.34516E-19
 -1      2326 1.02058E-04-3.07321E-05-3.05764E-05 4.93103E-06-2.75669E-19-1.92688E-20
 -1      2327 9.98340E-05-2.97079E-05-3.00624E-05 5.51592E-06 9.77695E-20-1.12370E-18
 -1      2328 1.02803E-04-3.12411E-05-3.06580E-05 4.86811E-06-7.76194E-19 1.24644E-20
 -1      2329 1.03598E-04-3.18319E-05-3.07779E-05 4.57860E-06-7.65039E-19-7.76560E-19
 -1      2330 1.01171E-04-3.07010E-05-3.02127E-05 5.64921E-06-7.43322E-19-1.57368E-18
 -1      2331 1.04543E-04-3.25459E-05-3.08389E-05 4.14925E-06-3.52702E-19-9.70026E-19
 -1      2332 1.05323E-04-3.32723E-05-3.09173E-05 3.43477E-06-4.08947E-19-1.06210E-18
 -1      2333 1.02877E-04-3.21487E-05-3.03275E-05 5.18667E-06-8.58520E-19-1.50219E-18
 -1      2334 1.06476E-04-3.41834E-05-3.09612E-05 2.47138E-06-2.10905E-19-8.24050E-19
 -1      2335 1.07133E-04-3.49645E-05-3.09865E-05 1.20940E-06 1.36313E-19-8.22456E-19
 -1      2336 1.05001E-04-3.40850E-05-3.04112E-05 3.81339E-06 1.95239E-20-5.41169E-19
 -1      2337 1.08418E-04-3.59579E-05-3.10329E-05-4.38001E-07-1.04534E-19 2.87110E-19
 -1      2338 1.08765E-04-3.65820E-05-3.10064E-05-2.28198E-06 2.18230E-19 2.78514E-19
 -1      2339 1.07482E-04-3.63615E-05-3.04977E-05 1.19507E-06 4.60281E-19 7.23821E-19
 -1      2340 1.09938E-04-3.73571E-05-3.10960E-05-4.63432E-06-1.38569E-20 5.34541E-20
 -1      2341 1.09719E-04-3.74502E-05-3.10393E-05-6.88207E-06 3.52118E-19 2.71228E-19
 -1      2342 1.10005E-04-3.84697E-05-3.06633E-05-2.88201E-06 2.30292E-19 7.67387E-19
 -1      2343 1.10322E-04-3.75075E-05-3.12273E-05-9.63103E-06 3.69894E-19-5.50045E-19
 -1      2344 1.09289E-04-3.66279E-05-3.11745E-05-1.17653E-05 5.78858E-19-9.54697E-19
 -1      2345 1.11850E-04-3.94133E-05-3.10253E-05-8.19655E-06 1.69729E-19-7.04163E-20
 -1      2346 1.08814E-04-3.54662E-05-3.14921E-05-1.41112E-05 1.17073E-18-2.35962E-18
 -1      2347 1.06916E-04-3.33913E-05-3.14776E-05-1.52805E-05 6.59892E-19-1.92749E-18
 -1      2348 1.12019E-04-3.80017E-05-3.16849E-05-1.36705E-05-5.02611E-20-2.15659E-18
 -1      2349 1.05156E-04-3.09513E-05-3.18971E-05-1.59152E-05 1.39469E-19-1.74827E-18
 -1      2350 1.02872E-04-2.82488E-05-3.19035E-05-1.52297E-05-7.98289E-19-1.01133E-18
 -1      2351 1.09667E-04-3.33680E-05-3.26489E-05-1.71479E-05 4.76789E-19-2.81315E-18
 -1      2352 1.00620E-04-2.55479E-05-3.22580E-05-1.32927E-05-1.33989E-18 6.51742E-19
 -1      2353 9.87698E-05-2.34577E-05-3.22152E-05-1.06054E-05-9.62957E-19 8.66298E-19
 -1      2354 1.05465E-04-2.69279E-05-3.36722E-05-1.60847E-05 1.24951E-19 6.41588E-19
 -1      2355 9.74986E-05-2.21546E-05-3.22965E-05-6.55630E-06-1.30252E-18 1.10219E-18
 -1      2356 9.68574E-05-2.18969E-05-3.21367E-05-2.94709E-06-1.17989E-19 4.58797E-19
 -1      2357 1.01729E-04-2.18999E-05-3.42855E-05-9.71540E-06-1.23596E-18 1.82920E-18
 -1      2358 9.73095E-05-2.28130E-05-3.18555E-05 1.15941E-06 4.78097E-19-8.31416E-20
 -1      2359 9.78713E-05-2.43424E-05-3.15911E-05 4.00288E-06 5.94127E-19-3.14332E-19
 -1      2360 1.00902E-04-2.14660E-05-3.41132E-05-8.76330E-07-8.96426E-19 1.38649E-18
 -1      2361 9.92405E-05-2.65672E-05-3.10583E-05 6.17937E-06 7.96360E-19-8.18340E-19
 -1      2362 1.00264E-04-2.86291E-05-3.07812E-05 7.24174E-06 1.51589E-18-1.28717E-18
 -1      2363 1.02899E-04-2.54873E-05-3.31758E-05 5.78378E-06 5.21210E-19 4.37033E-19
 -1      2364 1.01035E-04-3.04385E-05-3.02229E-05 7.10923E-06 1.44203E-18-1.36068E-18
 -1      2365 1.01717E-04-3.17775E-05-3.00118E-05 6.64748E-06 2.18040E-19-1.25423E-18
 -1      2366 1.05223E-04-3.06751E-05-3.18930E-05 7.58617E-06 8.90768E-19 2.61430E-19
 -1      2367 1.01166E-04-3.22272E-05-2.95691E-05 5.22705E-06-4.06002E-19-1.17828E-18
 -1      2368 1.01074E-04-3.24137E-05-2.94326E-05 4.17878E-06-4.50519E-19-1.15389E-18
 -1      2369 1.05530E-04-3.37261E-05-3.07202E-05 5.57409E-06-2.19047E-19-1.21598E-18
 -1      2370 9.33456E-05-2.76932E-05-2.81295E-05-4.11634E-07 1.15470E-18-1.67155E-19
 -1      2371 9.34235E-05-2.75881E-05-2.81908E-05-1.26083E-07 1.41774E-18 4.82428E-20
 -1      2372 9.32944E-05-2.78580E-05-2.80395E-05-8.17881E-07 8.77220E-19-6.43179E-19
 -1      2373 9.32492E-05-2.77667E-05-2.80509E-05-6.78707E-07 9.85169E-19-2.85838E-19
 -1      2374 9.40152E-05-2.78096E-05-2.83851E-05-4.44901E-07 1.30225E-18-8.91531E-19
 -1      2375 9.33881E-05-2.79939E-05-2.80230E-05-9.93396E-07 7.56476E-19-7.98672E-19
 -1      2376 9.32752E-05-2.79129E-05-2.80060E-05-9.42668E-07 8.22688E-19-6.06517E-19
 -1      2377 9.39282E-05-2.80192E-05-2.82548E-05-8.92225E-07 1.03611E-18-1.20366E-18
 -1      2378 9.35620E-05-2.81090E-05-2.80494E-05-1.02773E-06 6.68156E-19-7.79408E-19
 -1      2379 9.34178E-05-2.80380E-05-2.80174E-05-1.03005E-06 6.54730E-19-7.27687E-19
 -1      2380 9.39565E-05-2.81686E-05-2.82002E-05-1.08817E-06 7.53754E-19-1.14703E-18
 -1      2381 9.37721E-05-2.82060E-05-2.80986E-05-9.78705E-07 3.04019E-19-7.64929E-19
 -1      2382 9.36192E-05-2.81452E-05-2.80601E-05-1.01141E-06 5.84888E-19-6.63464E-19
 -1      2383 9.40542E-05-2.82795E-05-2.81924E-05-1.12850E-06 5.17474E-19-1.15004E-18
 -1      2384 9.39895E-05-2.82864E-05-2.81579E-05-8.84380E-07 4.86490E-19-7.21157E-19
 -1      2385 9.38419E-05-2.82355E-05-2.81181E-05-9.32661E-07 4.13393E-19-5.63722E-19
 -1      2386 9.41875E-05-2.83628E-05-2.82124E-05-1.07638E-06 4.00173E-19-9.73618E-19
 -1      2387 9.41972E-05-2.83514E-05-2.82193E-05-7.70007E-07 4.92311E-19-1.04368E-18
 -1      2388 9.40624E-05-2.83100E-05-2.81814E-05-8.24092E-07 5.89720E-19-8.90570E-19
 -1      2389 9.43333E-05-2.84249E-05-2.82474E-05-9.73952E-07 6.19077E-19-1.21192E-18
 -1      2390 9.43859E-05-2.84029E-05-2.82783E-05-6.52262E-07 3.48937E-19-5.57205E-19
 -1      2391 9.42674E-05-2.83699E-05-2.82439E-05-7.05744E-07 3.62173E-19-7.30462E-19
 -1      2392 9.44775E-05-2.84701E-05-2.82892E-05-8.49422E-07 4.36983E-19-1.11997E-18
 -1      2393 9.45522E-05-2.84425E-05-2.83327E-05-5.42087E-07 5.35918E-19-6.01516E-19
 -1      2394 9.44504E-05-2.84169E-05-2.83022E-05-5.90785E-07 5.69692E-19-3.52877E-19
 -1      2395 9.46118E-05-2.85019E-05-2.83328E-05-7.21560E-07 4.05777E-19-8.38994E-19
 -1      2396 9.46964E-05-2.84723E-05-2.83817E-05-4.46672E-07 7.18904E-19-1.10332E-18
 -1      2397 9.46099E-05-2.84528E-05-2.83550E-05-4.87834E-07 6.37116E-19-7.19535E-19
 -1      2398 9.47328E-05-2.85229E-05-2.83755E-05-6.02813E-07 6.90088E-19-1.14075E-18
 -1      2399 9.48217E-05-2.84940E-05-2.84259E-05-3.70919E-07 1.95387E-19-8.15357E-19
 -1      2400 9.47479E-05-2.84794E-05-2.84024E-05-4.02627E-07 4.44654E-19-9.59894E-19
 -1      2401 9.48403E-05-2.85353E-05-2.84162E-05-5.01510E-07 6.03434E-19-1.13115E-18
 -1      2402 9.49333E-05-2.85097E-05-2.84667E-05-3.18548E-07 8.83181E-19-1.08140E-18
 -1      2403 9.48683E-05-2.84988E-05-2.84454E-05-3.39265E-07 4.74675E-19-7.90948E-19
 -1      2404 9.49361E-05-2.85411E-05-2.84549E-05-4.23501E-07 3.35811E-19-7.99403E-19
 -1      2405 9.50378E-05-2.85211E-05-2.85062E-05-2.92946E-07 4.82189E-19-6.81628E-19
 -1      2406 9.49772E-05-2.85127E-05-2.84858E-05-3.01162E-07 9.38521E-19-5.91990E-19
 -1      2407 9.50240E-05-2.85415E-05-2.84926E-05-3.73397E-07 7.00633E-19-5.10406E-19
 -1      2408 9.51435E-05-2.85303E-05-2.85470E-05-2.97835E-07 7.39950E-20-5.23003E-19
 -1      2409 9.50820E-05-2.85231E-05-2.85259E-05-2.91790E-07 4.04206E-19-3.86044E-19
 -1      2410 9.51092E-05-2.85379E-05-2.85309E-05-3.55530E-07 2.27009E-19-1.10792E-19
 -1      2411 9.52601E-05-2.85394E-05-2.85925E-05-3.37804E-07-5.08206E-19-6.72029E-19
 -1      2412 9.51915E-05-2.85318E-05-2.85688E-05-3.15261E-07-2.38430E-19-5.54890E-19
 -1      2413 9.51980E-05-2.85313E-05-2.85721E-05-3.74697E-07-9.33726E-20-1.08516E-19
 -1      2414 9.53991E-05-2.85505E-05-2.86464E-05-4.18723E-07-4.44459E-19-1.17679E-18
 -1      2415 9.53161E-05-2.85410E-05-2.86179E-05-3.76788E-07-3.56824E-19-8.24792E-19
 -1      2416 9.52978E-05-2.85227E-05-2.86189E-05-4.36750E-07-1.23189E-19-1.29924E-19
 -1      2417 9.55736E-05-2.85664E-05-2.87134E-05-5.48045E-07 8.50440E-19-2.21409E-18
 -1      2418 9.54678E-05-2.85530E-05-2.86773E-05-4.83040E-07 1.12899E-19-1.87681E-18
 -1      2419 9.54176E-05-2.85131E-05-2.86748E-05-5.49029E-07 1.44667E-19-1.33382E-18
 -1      2420 9.57994E-05-2.85904E-05-2.87985E-05-7.34979E-07 1.15716E-18-1.94865E-18
 -1      2421 9.56608E-05-2.85708E-05-2.87520E-05-6.42369E-07 1.18513E-18-2.21739E-18
 -1      2422 9.55675E-05-2.85038E-05-2.87436E-05-7.20657E-07 8.93550E-19-2.02634E-18
 -1      2423 9.60945E-05-2.86266E-05-2.89079E-05-9.90471E-07 6.92995E-20-1.85679E-18
 -1      2424 9.59114E-05-2.85979E-05-2.88474E-05-8.64895E-07 8.18613E-19-1.91856E-18
 -1      2425 9.57593E-05-2.84963E-05-2.88296E-05-9.62653E-07 8.22528E-19-1.00836E-18
 -1      2426 9.64796E-05-2.86801E-05-2.90482E-05-1.32687E-06-4.13029E-19-2.26199E-18
 -1      2427 9.62385E-05-2.86386E-05-2.89697E-05-1.16233E-06-2.24342E-19-2.08802E-18
 -1      2428 9.60066E-05-2.84929E-05-2.89376E-05-1.28778E-06 3.52673E-20-1.38943E-18
 -1      2429 9.69784E-05-2.87578E-05-2.92266E-05-1.75706E-06-6.38334E-19-1.86399E-18
 -1      2430 9.66638E-05-2.86988E-05-2.91258E-05-1.54740E-06-5.97717E-19-2.52276E-18
 -1      2431 9.63246E-05-2.84972E-05-2.90726E-05-1.70998E-06-2.27842E-19-1.74992E-18
 -1      2432 9.76165E-05-2.88690E-05-2.94503E-05-2.29268E-06-2.75689E-19-1.21722E-18
 -1      2433 9.72115E-05-2.87862E-05-2.93227E-05-2.03258E-06-4.63087E-19-1.56623E-18
 -1      2434 9.67302E-05-2.85147E-05-2.92396E-05-2.24309E-06-6.01675E-19-2.08883E-18
 -1      2435 9.84217E-05-2.90266E-05-2.97259E-05-2.94077E-06-1.45930E-19-1.49392E-18
 -1      2436 9.79083E-05-2.89117E-05-2.95673E-05-2.62763E-06-9.04051E-20-1.42492E-18
 -1      2437 9.72422E-05-2.85542E-05-2.94426E-05-2.89845E-06-3.24467E-19-2.21233E-18
 -1      2438 9.94223E-05-2.92495E-05-3.00577E-05-3.69787E-06-7.98911E-19-8.08816E-19
 -1      2439 9.87828E-05-2.90910E-05-2.98649E-05-3.33510E-06-2.37819E-19-9.94842E-19
 -1      2440 9.78814E-05-2.86308E-05-2.96843E-05-3.68064E-06-5.30833E-19-1.71278E-18
 -1      2441 1.00645E-04-2.95665E-05-3.04459E-05-4.53998E-06-5.63360E-19 9.71091E-20
 -1      2442 9.98648E-05-2.93481E-05-3.02182E-05-4.14268E-06-6.02788E-19-2.16367E-19
 -1      2443 9.86720E-05-2.87700E-05-2.99640E-05-4.58023E-06-9.33786E-19-1.44037E-18
 -1      2444 1.02116E-04-3.00217E-05-3.08834E-05-5.40654E-06 7.31310E-21 1.35666E-19
 -1      2445 1.01185E-04-2.97200E-05-3.06243E-05-5.01045E-06-2.08756E-19 5.32993E-19
 -1      2446 9.96438E-05-2.90152E-05-3.02761E-05-5.56204E-06-4.09665E-19 5.25436E-19
 -1      2447 1.03853E-04-3.06817E-05-3.13517E-05-6.17656E-06 4.66275E-19-7.31815E-19
 -1      2448 1.02775E-04-3.02642E-05-3.10719E-05-5.85115E-06 3.16931E-19-1.99603E-19
 -1      2449 1.00838E-04-2.94382E-05-3.06079E-05-6.54704E-06 2.94411E-19 7.26666E-19
 -1      2450 1.05869E-04-3.16404E-05-3.18179E-05-6.63703E-06-1.04387E-18 4.57067E-20
 -1      2451 1.04666E-04-3.10659E-05-3.15374E-05-6.50176E-06-4.83094E-21-4.53324E-19
 -1      2452 1.02316E-04-3.01518E-05-3.09381E-05-7.38612E-06-1.43139E-20-3.27257E-19
 -1      2453 1.08160E-04-3.30105E-05-3.22332E-05-6.45048E-06-6.32342E-19 3.40784E-19
 -1      2454 1.06887E-04-3.22391E-05-3.19837E-05-6.68842E-06-1.31144E-18-7.87344E-20
 -1      2455 1.04170E-04-3.13178E-05-3.12380E-05-7.82605E-06-9.23565E-19 1.40137E-18
 -1      2456 1.10673E-04-3.48744E-05-3.25410E-05-5.14386E-06 4.71824E-20 2.02215E-18
 -1      2457 1.09445E-04-3.39021E-05-3.23629E-05-5.99658E-06-2.25734E-19 9.30749E-19
 -1      2458 1.06525E-04-3.31281E-05-3.14788E-05-7.47405E-06-7.18640E-19 1.26883E-18
 -1      2459 1.13238E-04-3.71488E-05-3.26984E-05-2.17370E-06-6.30927E-19 3.07331E-18
 -1      2460 1.12266E-04-3.60866E-05-3.26303E-05-3.88281E-06 6.66873E-20 2.88178E-18
 -1      2461 1.09495E-04-3.57151E-05-3.16509E-05-5.78429E-06-7.32257E-19 1.87720E-18
 -1      2462 1.15417E-04-3.93309E-05-3.27188E-05 2.83538E-06-6.71135E-19 3.32810E-18
 -1      2463 1.15048E-04-3.85326E-05-3.27747E-05 1.88224E-07-7.21090E-19 3.08986E-18
 -1      2464 1.13043E-04-3.89191E-05-3.17991E-05-2.12945E-06-7.11762E-19 2.28339E-18
 -1      2465 1.16334E-04-4.02365E-05-3.27125E-05 9.55161E-06-1.55020E-19 2.62874E-18
 -1      2466 1.17037E-04-4.03720E-05-3.28594E-05 6.33456E-06-2.18032E-19 3.36524E-18
 -1      2467 1.16667E-04-4.18808E-05-3.20651E-05 3.90753E-06-2.22518E-19 2.82206E-18
 -1      2468 1.14814E-04-3.82114E-05-3.28639E-05 1.62026E-05-9.46257E-19 4.51723E-18
 -1      2469 1.16951E-04-4.00233E-05-3.30260E-05 1.35018E-05-2.84517E-20 4.05362E-18
 -1      2470 1.19075E-04-4.27667E-05-3.26862E-05 1.18038E-05-7.43284E-19 3.93105E-18
 -1      2471 1.10260E-04-3.24762E-05-3.32804E-05 1.93017E-05-5.11926E-19 3.98079E-18
 -1      2472 1.13571E-04-3.59291E-05-3.33958E-05 1.87909E-05-1.33237E-18 4.28000E-18
 -1      2473 1.18419E-04-3.93459E-05-3.38503E-05 1.91113E-05-1.10616E-18 5.51735E-18
 -1      2474 1.04175E-04-2.51765E-05-3.38086E-05 1.55945E-05 7.52695E-19 3.10681E-18
 -1      2475 1.07461E-04-2.87348E-05-3.38984E-05 1.83014E-05 4.54526E-19 4.06531E-18
 -1      2476 1.14033E-04-3.13929E-05-3.54241E-05 2.13784E-05-5.99011E-20 4.42481E-18
 -1      2477 1.00270E-04-2.16455E-05-3.38702E-05 5.77137E-06 1.44970E-18 1.89002E-18
 -1      2478 1.01895E-04-2.27519E-05-3.40798E-05 1.02974E-05 1.08518E-18 2.46299E-18
 -1      2479 1.08349E-04-2.29983E-05-3.65621E-05 1.50215E-05 1.27713E-18 3.44764E-18
 -1      2480 1.01370E-04-2.44761E-05-3.31406E-05-4.78828E-06 2.67617E-18 1.27531E-19
 -1      2481 1.00607E-04-2.23265E-05-3.35279E-05-8.96421E-07 2.41140E-18 1.05775E-18
 -1      2482 1.05702E-04-2.03973E-05-3.65654E-05 2.61286E-06 2.45243E-18 2.10274E-18
 -1      2483 1.04781E-04-3.05816E-05-3.19497E-05-9.05262E-06 2.11369E-18 7.19171E-19
 -1      2484 1.03180E-04-2.75792E-05-3.23174E-05-7.89955E-06 2.11463E-18-2.59271E-20
 -1      2485 1.08608E-04-2.64842E-05-3.52171E-05-7.26945E-06 2.14594E-18 3.48748E-20
 -1      2486 1.06752E-04-3.49358E-05-3.08406E-05-6.93480E-06 3.78738E-19 2.12430E-18
 -1      2487 1.05731E-04-3.31605E-05-3.10898E-05-8.27866E-06 9.52575E-19 1.82035E-18
 -1      2488 1.11614E-04-3.37760E-05-3.33443E-05-9.29391E-06 1.04523E-18 1.78697E-19
 -1      2489 1.05496E-04-3.51763E-05-3.01088E-05-2.00380E-06 1.40254E-18 1.59582E-18
 -1      2490 1.05691E-04-3.52962E-05-3.02428E-05-4.08019E-06 8.94738E-19 2.02850E-18
 -1      2491 1.11684E-04-3.79174E-05-3.15966E-05-4.93460E-06 5.45992E-19 4.56718E-19
 -1      2492 1.01851E-04-3.23873E-05-2.97032E-05 1.74838E-06 3.68605E-19 1.84063E-18
 -1      2493 1.02977E-04-3.36702E-05-2.97873E-05 4.66005E-07 1.05087E-18 2.03206E-18
 -1      2494 1.07973E-04-3.66500E-05-3.05350E-05 7.13782E-07 8.06217E-19 2.50562E-18
 -1      2495 9.90031E-05-3.02108E-05-2.95153E-05 2.52578E-06 4.00124E-19 1.75737E-18
 -1      2496 9.12753E-05-2.19484E-05-2.98715E-05 3.10579E-05-1.29907E-18-1.15845E-18
 -1      2497 9.78042E-05-2.68828E-05-3.01232E-05 3.05936E-05-1.73722E-18-2.04637E-18
 -1      2498 7.55387E-05-1.02460E-05-2.81726E-05 2.33152E-05 1.25303E-18 2.33326E-18
 -1      2499 8.28117E-05-1.52257E-05-2.85905E-05 2.90487E-05-2.01584E-19 1.27108E-19
 -1      2500 8.71758E-05-2.48717E-05-2.66332E-05 3.47312E-05-5.27357E-19 2.48287E-19
 -1      2501 1.06211E-04-3.35513E-05-3.10280E-05 1.68554E-05-1.60277E-18 1.45664E-18
 -1      2502 1.06150E-04-3.45986E-05-3.06865E-05 1.22908E-05-4.27322E-19 1.26280E-18
 -1      2503 1.02509E-04-3.03446E-05-3.09362E-05 2.64312E-05-2.89429E-18-2.62782E-18
 -1      2504 1.05439E-04-3.32480E-05-3.08369E-05 2.26256E-05-2.16070E-18 2.50702E-19
 -1      2505 1.10313E-04-3.89851E-05-3.06138E-05 2.06664E-05-1.98212E-18 1.76431E-19
 -1      2506 1.03829E-04-3.55324E-05-2.93159E-05 3.14455E-05-2.11516E-18-1.32555E-18
 -1      2507 6.65971E-05-3.01261E-06-2.71098E-05 3.49534E-06 1.32725E-18 3.41688E-18
 -1      2508 6.95394E-05-5.18013E-06-2.72967E-05 1.32665E-05 9.79236E-19 3.49671E-18
 -1      2509 6.96489E-05-1.23605E-05-2.40638E-05 2.16027E-05 5.23824E-19 3.19856E-18
 -1      2510 7.22327E-05-7.13733E-06-2.75043E-05-1.94390E-05-3.84209E-20 1.03402E-18
 -1      2511 6.78638E-05-4.37078E-06-2.72620E-05-1.07654E-05 3.75805E-19 2.49647E-18
 -1      2512 6.11584E-05-6.87364E-06-2.29281E-05-4.72022E-06 1.23026E-18 2.17497E-18
 -1      2513 8.73114E-05-1.89423E-05-2.89262E-05-3.22860E-05 6.57377E-20 1.34969E-19
 -1      2514 7.93539E-05-1.32718E-05-2.85341E-05-2.84200E-05-4.06827E-19 5.66453E-19
 -1      2515 7.14477E-05-1.46939E-05-2.41860E-05-2.81239E-05 1.16478E-18-2.11123E-19
 -1      2516 1.00551E-04-2.93907E-05-3.02702E-05-3.03710E-05 1.32021E-18-2.00774E-18
 -1      2517 9.49309E-05-2.48794E-05-3.01337E-05-3.19019E-05 1.10503E-18-1.85168E-18
 -1      2518 9.32819E-05-2.86392E-05-2.74823E-05-3.64182E-05 1.47214E-18 9.25119E-21
 -1      2519 1.06791E-04-3.48450E-05-3.07649E-05-2.11128E-05 9.88540E-19 8.52648E-19
 -1      2520 1.04452E-04-3.21977E-05-3.09402E-05-2.55804E-05 7.20981E-19-6.30183E-19
 -1      2521 1.06279E-04-3.70448E-05-2.97278E-05-3.06408E-05 2.55169E-19-1.83056E-18
 -1      2522 1.06556E-04-3.54580E-05-3.05051E-05-1.07077E-05 2.02831E-19 7.30798E-19
 -1      2523 1.06834E-04-3.45486E-05-3.08615E-05-1.52192E-05 4.88030E-19 1.06951E-18
 -1      2524 1.11169E-04-3.94444E-05-3.07721E-05-1.88162E-05-3.80318E-19 4.02978E-19
 -1      2525 1.03172E-04-3.36723E-05-2.98244E-05-2.56276E-06-1.14988E-18-2.03204E-18
 -1      2526 1.04829E-04-3.39792E-05-3.02320E-05-5.87881E-06 1.41405E-19-6.07382E-19
 -1      2527 1.09358E-04-3.75823E-05-3.07065E-05-7.93794E-06-9.77908E-19 1.81715E-20
 -1      2528 9.82775E-05-3.08831E-05-2.89090E-05 1.08684E-06 1.65992E-19-1.80732E-18
 -1      2529 2.57022E-05-1.92576E-05-2.32116E-06-1.03398E-05-1.11798E-18 1.60343E-18
 -1      2530 3.40491E-05-2.47929E-05-3.64402E-06-3.13637E-05-2.00112E-19 1.29257E-18
 -1      2531 9.36283E-05-2.74735E-05-2.83405E-05 3.68587E-07 1.53909E-18 2.05883E-19
 -1      2532 9.39106E-05-2.73374E-05-2.84876E-05 9.02278E-07 1.69760E-18 4.85256E-19
 -1      2533 9.42713E-05-2.74902E-05-2.86341E-05 4.02014E-07 1.76661E-18-6.76422E-19
 -1      2534 3.32481E-05-2.22233E-05-4.21754E-06 2.65345E-05-5.74606E-19 3.53975E-18
 -1      2535 2.74119E-05-1.90469E-05-3.10682E-06 8.53861E-06-1.02062E-18 3.09125E-18
 -1      2536 4.89623E-05-3.41562E-05-6.25576E-06-4.19471E-05 9.76417E-19 2.57879E-18
 -1      2537 6.88753E-05-4.31000E-05-1.07446E-05-5.10173E-05 5.52689E-19 2.19551E-18
 -1      2538 9.50749E-05-2.00246E-05-3.22129E-05-1.17325E-05-3.51410E-18-1.55015E-18
 -1      2539 9.54771E-05-2.33876E-05-3.09267E-05-7.97891E-06-3.24058E-18-1.14970E-18
 -1      2540 9.50692E-05-2.25360E-05-3.10532E-05-7.66221E-06-3.01575E-18-1.94645E-18
 -1      2541 9.32195E-05-1.75775E-05-3.24155E-05-1.13625E-05-3.45554E-18-2.54634E-18
 -1      2542 1.57804E-04-3.74298E-05-5.18336E-05-3.48489E-06-7.54812E-19-3.05525E-18
 -1      2543 1.58311E-04-2.74855E-05-5.65688E-05-2.24935E-07-3.44107E-19-1.97020E-18
 -1      2544 8.78367E-05-1.07975E-05-3.30525E-05-1.51807E-06-6.26317E-20-5.06906E-18
 -1      2545 8.79422E-05-1.09197E-05-3.30439E-05-2.63676E-06-4.72160E-19-5.07205E-18
 -1      2546 8.93410E-05-1.30918E-05-3.26803E-05-2.92916E-06-6.60824E-19-4.75427E-18
 -1      2547 8.90925E-05-1.27570E-05-3.27184E-05-9.40722E-07 1.44550E-22-4.74838E-18
 -1      2548 1.51295E-04-1.21290E-05-6.01225E-05 4.62507E-06 4.15427E-18-3.89588E-18
 -1      2549 1.49032E-04-1.58735E-05-5.77223E-05-1.38253E-08 4.04374E-18-4.09562E-18
 -1      2550 1.51900E-04-5.46429E-05-4.19501E-05-1.84085E-06-3.12132E-19-3.78835E-18
 -1      2551 1.57576E-04-4.70610E-05-4.78093E-05 4.91869E-06 3.30343E-19-2.28805E-18
 -1      2552 1.51244E-04-1.38039E-05-5.94318E-05 1.15239E-05 4.28006E-18-2.66127E-18
 -1      2553 1.51750E-04-1.13269E-05-6.06368E-05 7.90849E-06 4.28980E-18-3.33649E-18
 -1      2554 1.36958E-04-9.34893E-06-5.49017E-05 5.12517E-06 3.66278E-18-1.00670E-18
 -1      2555 4.16575E-05-3.43225E-05-2.95101E-06 3.62133E-05 7.76517E-19-2.75286E-18
 -1      2556 2.99974E-05-2.66631E-05-9.49593E-07 2.55126E-05 5.11396E-19-2.69971E-18
 -1      2557 1.34043E-04-6.44385E-05-2.98852E-05-1.92719E-05-9.91876E-19-4.35057E-18
 -1      2558 1.46651E-04-6.16682E-05-3.66485E-05-1.24722E-05-4.82915E-19-4.69892E-18
 -1      2559 1.00207E-04-5.97550E-05-1.71329E-05-3.63748E-05-1.14921E-18-3.08090E-18
 -1      2560 1.19297E-04-6.42368E-05-2.36129E-05-3.16239E-05-2.07502E-18-4.61771E-18
 -1      2561 2.45724E-05-2.72267E-05 1.39934E-06-1.82364E-05 9.65829E-19-3.55500E-18
 -1      2562 3.42489E-05-3.12926E-05-1.00663E-06-2.93827E-05 1.39337E-18-2.62517E-18
 -1      2563 2.03502E-05-2.16976E-05 9.85993E-07 9.33357E-06 6.35275E-20-3.94082E-18
 -1      2564 1.92579E-05-2.36597E-05 2.17509E-06-5.92318E-06 8.60109E-19-4.41643E-18
 -1      2565 2.82176E-05-2.13241E-05-2.33946E-06-1.17795E-05 3.36801E-19-3.96475E-18
 -1      2566 8.05140E-05-5.09839E-05-1.26248E-05 4.45157E-05 7.83717E-19-2.96493E-18
 -1      2567 5.90654E-05-4.32591E-05-6.55188E-06 4.07083E-05 1.89989E-18-3.23905E-18
 -1      2568 5.96256E-05-3.78554E-05-8.78621E-06 3.85940E-05 1.40777E-18-2.55507E-18
 -1      2569 1.19656E-04-6.31207E-05-2.44542E-05 3.37918E-05 1.59242E-19-2.33569E-18
 -1      2570 1.01891E-04-5.92547E-05-1.80647E-05 3.85608E-05-3.76930E-20-2.58215E-18
 -1      2571 1.46663E-04-5.96560E-05-3.76313E-05 1.28847E-05-3.36060E-19-1.83997E-18
 -1      2572 1.34682E-04-6.29888E-05-3.07234E-05 2.05822E-05 4.69468E-19-2.46995E-18
 -1      2573 1.56166E-04-4.22796E-05-4.93426E-05-5.59224E-06-1.54785E-18 2.86297E-19
 -1      2574 1.51325E-04-5.10182E-05-4.32107E-05 1.14980E-06-6.88770E-19-3.67401E-19
 -1      2575 1.55779E-04-2.11875E-05-5.81622E-05-1.14055E-05-1.72879E-18-1.37664E-18
 -1      2576 1.54044E-04-2.88400E-05-5.40261E-05-1.12412E-05-2.02526E-18-7.82870E-19
 -1      2577 1.54786E-04-1.08675E-05-6.21411E-05-6.75443E-06-1.26081E-18-2.64272E-18
 -1      2578 1.54181E-04-1.34630E-05-6.07719E-05-9.35106E-06-1.36881E-18-1.93801E-18
 -1      2579 1.54097E-04-1.61410E-05-5.95057E-05-3.47042E-08-5.29396E-19-5.38289E-19
 -1      2580 1.54896E-04-1.19973E-05-6.16656E-05-2.72703E-06-1.11935E-18-1.79830E-18
 -1      2581 1.51978E-04-5.59326E-05-4.13265E-05-1.71625E-05-1.54488E-18-3.69963E-18
 -1      2582 1.58140E-04-4.86859E-05-4.71550E-05-1.10705E-05-1.18804E-18-2.05575E-18
 -1      2583 8.42930E-05-5.12146E-05-1.39893E-05-5.23732E-05 1.03338E-18 7.70429E-19
 -1      2584 1.01113E-04-5.59070E-05-1.93531E-05-5.20062E-05 2.75921E-19-1.65435E-18
 -1      2585 8.19986E-05-4.50882E-05-1.51016E-05-5.14593E-05 2.39096E-18 9.63076E-19
 -1      2586 1.46722E-04-6.23896E-05-3.61298E-05 3.06283E-05 4.15258E-19 1.07150E-19
 -1      2587 1.33742E-04-6.42846E-05-2.96770E-05 3.69404E-05-3.45166E-20 5.24102E-19
 -1      2588 6.52493E-05-4.01764E-05-1.04714E-05 4.80772E-05 9.30677E-19 2.26137E-18
 -1      2589 4.41367E-05-3.04569E-05-5.82005E-06 3.71214E-05-7.36495E-19 4.20933E-18
 -1      2590 4.71679E-05-2.30504E-05-1.03514E-05 3.28859E-05-9.71759E-19 4.66440E-18
 -1      2591 9.63392E-05-2.50968E-05-3.05583E-05 7.59172E-06 3.42127E-18 2.08025E-18
 -1      2592 9.74605E-05-2.37802E-05-3.15987E-05 1.06914E-05 3.66246E-18 2.47608E-18
 -1      2593 9.58941E-05-2.13045E-05-3.20229E-05 1.18931E-05 3.96895E-18 1.18660E-18
 -1      2594 9.58827E-05-2.41626E-05-3.07704E-05 7.68275E-06 3.54925E-18 5.64169E-19
 -1      2595 1.60375E-04-4.98248E-05-4.77017E-05 1.26121E-05 8.80755E-19-1.76310E-18
 -1      2596 1.53109E-04-5.70693E-05-4.13042E-05 1.97097E-05 2.12076E-19-5.64547E-19
 -1      2597 1.51052E-04-6.28199E-05-3.78355E-05 1.82175E-05 2.04082E-19-4.95303E-19
 -1      2598 1.33785E-04-1.70083E-05-5.05426E-05-5.50156E-06 5.02714E-18-1.06101E-18
 -1      2599 1.46977E-04-2.27810E-05-5.37110E-05-4.41078E-06 5.41551E-18-2.95805E-18
 -1      2600 1.41382E-04-2.86149E-05-4.85882E-05-7.92378E-06 4.08524E-18-2.39329E-18
 -1      2601 9.08065E-05-1.50647E-05-3.24567E-05-6.79167E-06-1.98159E-18-4.32817E-18
 -1      2602 8.97042E-05-1.32035E-05-3.28433E-05-7.96591E-06-2.17759E-18-4.53803E-18
 -1      2603 9.04033E-05-1.40303E-05-3.27968E-05-9.14151E-06-2.68071E-18-4.18950E-18
 -1      2604 9.47365E-05-2.69401E-05-2.90683E-05 1.88251E-06 2.22731E-18-2.27931E-19
 -1      2605 9.42487E-05-1.90824E-05-3.22594E-05 1.16020E-05 3.86853E-18-4.57371E-19
 -1      2606 1.54762E-04-4.69120E-05-4.63088E-05 1.54564E-06 1.48940E-18-2.14130E-18
 -1      2607 8.12864E-05-4.63845E-05-1.43296E-05 5.12096E-05 1.16340E-18-8.68209E-21
 -1      2608 7.65741E-05-3.79229E-05-1.54780E-05 4.74655E-05 4.72433E-19 1.95569E-18
 -1      2609 9.59931E-05-5.11964E-05-1.90808E-05 5.00262E-05 6.73391E-20-1.36748E-18
 -1      2610 1.53023E-04-4.39663E-05-4.69108E-05-3.66689E-07-1.66633E-18-2.90871E-18
 -1      2611 1.48872E-04-6.13764E-05-3.75398E-05-2.20687E-05-1.49882E-18-4.26566E-18
 -1      2612 1.49127E-04-5.88488E-05-3.90652E-05-1.12612E-05-1.61872E-18-1.90371E-18
 -1      2613 1.42162E-04-6.35579E-05-3.34485E-05-2.67902E-05-9.33430E-19-4.39187E-18
 -1      2614 4.87996E-05-2.63076E-05-9.75379E-06-3.73943E-05 1.83001E-18 1.11978E-18
 -1      2615 1.26867E-04-6.46045E-05-2.65969E-05 4.15715E-05-5.35748E-20 4.10070E-19
 -1      2616 1.17797E-04-6.08916E-05-2.39122E-05 4.54164E-05-4.52527E-19-7.35794E-20
 -1      2617 1.36221E-04-6.61148E-05-3.02143E-05 3.20381E-05-1.12613E-18-5.88264E-19
 -1      2618 1.02282E-04-3.24048E-05-2.99770E-05 4.06388E-06 5.09643E-19 2.34193E-18
 -1      2619 1.03842E-04-3.28805E-05-3.03523E-05 6.73890E-06 5.71562E-19 2.50742E-18
 -1      2620 1.46951E-04-2.12517E-05-5.41049E-05 4.06736E-06 1.64960E-19-2.21838E-18
 -1      2621 9.94045E-05-3.15612E-05-2.90728E-05 2.44054E-06-3.55413E-19-2.06193E-18
 -1      2622 1.01588E-04-3.25829E-05-2.95005E-05 1.70570E-07-3.04125E-19-1.72114E-18
 -1      2623 1.04677E-04-3.47014E-05-3.00472E-05-7.25630E-07-2.23433E-18-5.26312E-19
 -1      2624 9.99114E-05-3.19612E-05-2.91909E-05 3.19887E-06-4.37919E-19-2.05876E-18
 -1      2625 1.41712E-04-8.96977E-06-5.71094E-05-3.97874E-06-1.24366E-18-2.36947E-18
 -1      2626 3.51328E-05-1.50764E-05-8.06314E-06-1.91566E-06 1.28193E-19 2.39964E-18
 -1      2627 9.47182E-05-2.06036E-05-3.17190E-05 9.66885E-06 3.64388E-18-8.03702E-19
 -1      2628 1.43454E-04-1.52603E-05-5.51572E-05-1.42613E-05-1.13481E-18-4.47551E-19
 -1      2629 1.48597E-04-3.58820E-05-4.84983E-05-1.42960E-05-1.08018E-18 7.01767E-19
 -1      2630 1.16453E-04-6.10683E-05-2.34336E-05-4.70599E-05-9.23266E-20-4.35671E-18
 -1      2631 1.28369E-04-6.40494E-05-2.78339E-05-3.89454E-05 2.64698E-20-6.15676E-18
 -1      2632 1.07558E-04-5.57688E-05-2.17535E-05-4.89625E-05 1.39930E-18-3.38580E-18
 -1      2633 1.47742E-04-5.69346E-05-3.89261E-05-3.82182E-08-8.85255E-19 1.14561E-18
 -1      2634 2.98024E-05-2.24688E-05-2.50719E-06 1.82118E-05 4.61262E-19-2.90638E-18
 -1      2635 3.14130E-05-1.77821E-05-5.16968E-06 1.09994E-05 7.44913E-19-3.38284E-18
 -1      2636 3.99400E-05-2.32667E-05-6.89724E-06 2.58740E-05 9.54500E-19-2.41277E-18
 -1      2637 9.18811E-05-5.61909E-05-1.50761E-05-3.89314E-05 1.33831E-19-1.73867E-18
 -1      2638 1.05496E-04-5.95171E-05-1.96241E-05-3.32150E-05-6.90332E-19-3.30522E-18
 -1      2639 8.21546E-05-4.95019E-05-1.34425E-05-3.92420E-05 6.18758E-19-1.72985E-18
 -1      2640 1.30507E-04-6.66400E-05-2.72920E-05-2.07591E-05-1.96692E-18-4.58033E-18
 -1      2641 1.48862E-04-1.80041E-05-5.65153E-05 1.54582E-05 3.53340E-18-1.32243E-18
 -1      2642 1.34053E-04-1.23642E-05-5.28073E-05 1.50731E-05 2.53686E-18-7.82923E-19
 -1      2643 1.42464E-04-2.10402E-05-5.24744E-05 1.89564E-05 2.24760E-18 4.22458E-20
 -1      2644 9.20871E-05-1.62843E-05-3.25223E-05-1.03740E-05-3.13197E-18-3.31578E-18
 -1      2645 5.00210E-05-3.56415E-05-5.69480E-06-3.34382E-05 9.97593E-19-2.05871E-18
 -1      2646 1.55349E-04-4.09865E-05-4.91286E-05 1.27832E-05 8.79855E-19-1.72646E-18
 -1      2647 1.47772E-04-3.37407E-05-4.97821E-05 1.98254E-05 1.48379E-18-1.07806E-18
 -1      2648 1.48841E-04-4.59201E-05-4.41939E-05 1.54667E-05 2.45904E-19-9.41054E-19
 -1      2649 1.49052E-04-6.01479E-05-3.81220E-05 1.45707E-07-6.31516E-19-3.68883E-18
 -1      2650 9.65127E-05-5.57931E-05-1.70480E-05 3.95492E-05 1.17399E-18-2.25541E-18
 -1      2651 1.30648E-04-6.50110E-05-2.79415E-05 2.24274E-05 7.40413E-19-1.49438E-18
 -1      2652 1.08307E-04-3.70520E-05-3.05655E-05 8.62332E-06 7.05088E-19 1.80824E-18
 -1      2653 1.03805E-04-3.37966E-05-2.99421E-05 2.92024E-06-1.41643E-18-7.61574E-19
 -1      2654 9.05550E-05-1.51726E-05-3.23290E-05 3.19516E-06 1.57375E-18-3.92034E-18
 -1      2655 9.03646E-05-1.49010E-05-3.23617E-05 2.26142E-06 1.13489E-18-4.06950E-18
 -1      2656 9.02301E-05-1.46983E-05-3.23906E-05 1.42270E-06 7.93549E-19-4.37592E-18
 -1      2657 9.01648E-05-1.46059E-05-3.24016E-05 4.65660E-07 4.52304E-19-4.41166E-18
 -1      2658 9.14161E-05-1.65936E-05-3.20539E-05 1.64162E-06 8.52412E-19-3.93006E-18
 -1      2659 9.21415E-05-1.75523E-05-3.20047E-05 6.47282E-06 2.87759E-18-3.14754E-18
 -1      2660 9.16146E-05-1.67565E-05-3.21045E-05 5.63297E-06 2.57637E-18-3.42792E-18
 -1      2661 9.35613E-05-1.97753E-05-3.16648E-05 7.59591E-06 3.24176E-18-2.32020E-18
 -1      2662 9.27709E-05-1.85213E-05-3.18383E-05 7.01864E-06 3.01504E-18-2.68241E-18
 -1      2663 9.34364E-05-1.98678E-05-3.15065E-05 5.73392E-06 2.74144E-18-2.64811E-18
 -1      2664 9.52206E-05-2.54101E-05-2.99312E-05 3.97681E-06 2.64738E-18-7.99121E-19
 -1      2665 9.55575E-05-2.45602E-05-3.03950E-05 5.60931E-06 2.96495E-18-6.95901E-19
 -1      2666 1.33382E-04-1.17924E-05-5.28852E-05-1.28630E-05-1.81053E-19-6.00070E-19
 -1      2667 1.35420E-04-1.80753E-05-5.07202E-05-1.79489E-05-7.65506E-19-4.57292E-19
 -1      2668 9.49813E-05-2.66903E-05-2.92733E-05 1.77901E-06 2.12385E-18-8.69173E-19
 -1      2669 9.52490E-05-2.61932E-05-2.95583E-05 2.78761E-06 2.34826E-18-7.06220E-19
 -1      2670 9.52730E-05-2.50216E-05-3.01048E-05 3.81959E-06 2.59754E-18-1.51339E-18
 -1      2671 7.92788E-05-3.73318E-05-1.65513E-05-4.90296E-05 3.16610E-18 1.23984E-18
 -1      2672 9.11048E-05-4.55874E-05-1.92037E-05-5.18557E-05 2.72215E-18-6.00017E-19
 -1      2673 9.53585E-05-2.59046E-05-2.97383E-05-2.70482E-06-1.97985E-18-1.80156E-18
 -1      2674 9.51949E-05-2.64907E-05-2.94557E-05-1.71994E-06-1.70317E-18-1.72662E-18
 -1      2675 9.52186E-05-2.70079E-05-2.92098E-05-9.80392E-07-1.52471E-18-1.59050E-18
 -1      2676 9.50840E-05-2.73621E-05-2.90298E-05-3.75990E-07-1.27336E-18-1.74499E-18
 -1      2677 9.54174E-05-2.63318E-05-2.96133E-05-1.62000E-06-1.64867E-18-2.07620E-18
 -1      2678 9.50503E-05-2.76677E-05-2.88622E-05 9.01864E-08-1.14870E-18-1.73335E-18
 -1      2679 9.49721E-05-2.78923E-05-2.87515E-05 4.40439E-07-1.14379E-18-1.74274E-18
 -1      2680 9.54163E-05-2.73274E-05-2.91883E-05-3.42823E-07-1.29001E-18-2.04520E-18
 -1      2681 9.49302E-05-2.80782E-05-2.86406E-05 7.08935E-07-1.21102E-18-1.64784E-18
 -1      2682 9.49016E-05-2.82254E-05-2.85766E-05 8.90870E-07-1.09257E-18-1.79950E-18
 -1      2683 9.53552E-05-2.79425E-05-2.88978E-05 4.45661E-07-1.20003E-18-1.88776E-18
 -1      2684 9.48664E-05-2.83378E-05-2.85061E-05 1.02339E-06-9.26731E-19-1.72747E-18
 -1      2685 9.48729E-05-2.84352E-05-2.84733E-05 1.09661E-06-7.99735E-19-1.91272E-18
 -1      2686 9.52910E-05-2.83248E-05-2.87052E-05 8.84599E-07-1.09393E-18-1.85389E-18
 -1      2687 9.48482E-05-2.85009E-05-2.84312E-05 1.13998E-06-5.58437E-19-1.92972E-18
 -1      2688 9.48763E-05-2.85648E-05-2.84187E-05 1.14530E-06-5.26740E-19-1.82501E-18
 -1      2689 9.52412E-05-2.85578E-05-2.85826E-05 1.08644E-06-6.13502E-19-1.96228E-18
 -1      2690 9.48612E-05-2.86002E-05-2.83962E-05 1.13307E-06-6.86416E-19-1.65443E-18
 -1      2691 9.49009E-05-2.86406E-05-2.83964E-05 1.09844E-06-6.20292E-19-1.36124E-18
 -1      2692 9.52087E-05-2.86933E-05-2.85095E-05 1.13452E-06-4.78476E-19-1.76436E-18
 -1      2693 9.48930E-05-2.86561E-05-2.83871E-05 1.05432E-06-6.57201E-19-1.05547E-18
 -1      2694 9.49373E-05-2.86798E-05-2.83951E-05 9.98872E-07-4.14842E-19-1.20413E-18
 -1      2695 9.51909E-05-2.87641E-05-2.84706E-05 1.08864E-06-3.50355E-19-1.22378E-18
 -1      2696 9.49345E-05-2.86821E-05-2.83945E-05 9.39363E-07-3.61790E-19-1.18091E-18
 -1      2697 9.49788E-05-2.86940E-05-2.84068E-05 8.76109E-07-4.20236E-19-1.21762E-18
 -1      2698 9.51838E-05-2.87918E-05-2.84551E-05 9.91050E-07-4.08757E-19-1.45900E-18
 -1      2699 9.49794E-05-2.86876E-05-2.84118E-05 8.12572E-07-7.26012E-19-1.22564E-18
 -1      2700 9.50213E-05-2.86908E-05-2.84263E-05 7.50303E-07-6.22688E-19-1.73314E-18
 -1      2701 9.51839E-05-2.87908E-05-2.84551E-05 8.71159E-07-7.52794E-19-1.77404E-18
 -1      2702 9.50241E-05-2.86787E-05-2.84350E-05 6.90481E-07-3.51565E-19-1.84310E-18
 -1      2703 9.50627E-05-2.86757E-05-2.84505E-05 6.35154E-07-3.94785E-19-1.89980E-18
 -1      2704 9.51885E-05-2.87707E-05-2.84654E-05 7.49216E-07-6.80361E-19-1.60859E-18
 -1      2705 9.50669E-05-2.86597E-05-2.84615E-05 5.84378E-07-4.46440E-19-1.74103E-18
 -1      2706 9.51021E-05-2.86520E-05-2.84775E-05 5.40140E-07-6.90127E-19-1.63974E-18
 -1      2707 9.51961E-05-2.87378E-05-2.84826E-05 6.39144E-07-2.52865E-19-1.78687E-18
 -1      2708 9.51074E-05-2.86331E-05-2.84903E-05 5.02246E-07-1.09266E-18-1.18272E-18
 -1      2709 9.51402E-05-2.86216E-05-2.85067E-05 4.72210E-07-1.02675E-18-1.07947E-18
 -1      2710 9.52055E-05-2.86957E-05-2.85046E-05 5.50743E-07-5.24182E-19-1.56464E-18
 -1      2711 9.51462E-05-2.86000E-05-2.85210E-05 4.50246E-07-1.21411E-18-1.25650E-18
 -1      2712 9.51781E-05-2.85854E-05-2.85383E-05 4.37073E-07-1.03866E-18-1.55161E-18
 -1      2713 9.52163E-05-2.86461E-05-2.85304E-05 4.91377E-07-1.23904E-18-6.75975E-19
 -1      2714 9.51850E-05-2.85610E-05-2.85544E-05 4.33829E-07-6.80888E-19-1.65410E-18
 -1      2715 9.52179E-05-2.85433E-05-2.85731E-05 4.40160E-07-5.81505E-19-1.71441E-18
 -1      2716 9.52285E-05-2.85893E-05-2.85600E-05 4.67253E-07-1.05372E-18-1.15750E-18
 -1      2717 9.52258E-05-2.85155E-05-2.85914E-05 4.58560E-07-3.00019E-19-1.70774E-18
 -1      2718 9.52623E-05-2.84950E-05-2.86125E-05 4.87328E-07 8.15788E-20-1.67983E-18
 -1      2719 9.52422E-05-2.85247E-05-2.85936E-05 4.84382E-07-4.31140E-19-1.22039E-18
 -1      2720 9.52716E-05-2.84631E-05-2.86335E-05 5.30698E-07 1.35818E-19-1.67618E-18
 -1      2721 9.53145E-05-2.84396E-05-2.86581E-05 5.85314E-07 1.81705E-19-1.66042E-18
 -1      2722 9.52582E-05-2.84507E-05-2.86323E-05 5.49259E-07 9.64913E-21-1.67346E-18
 -1      2723 9.53257E-05-2.84028E-05-2.86826E-05 6.57528E-07 5.69883E-19-1.98986E-18
 -1      2724 9.53784E-05-2.83765E-05-2.87119E-05 7.41944E-07 7.80345E-19-2.20443E-18
 -1      2725 9.52772E-05-2.83654E-05-2.86771E-05 6.69292E-07 3.72170E-19-1.46339E-18
 -1      2726 9.53922E-05-2.83342E-05-2.87407E-05 8.47435E-07 9.44939E-19-2.34439E-18
 -1      2727 9.54587E-05-2.83057E-05-2.87760E-05 9.66046E-07 9.12599E-19-2.13512E-18
 -1      2728 9.53007E-05-2.82673E-05-2.87293E-05 8.52963E-07 7.60621E-19-2.19784E-18
 -1      2729 9.54763E-05-2.82578E-05-2.88097E-05 1.10965E-06 6.58757E-19-1.92676E-18
 -1      2730 9.55612E-05-2.82285E-05-2.88522E-05 1.26699E-06 8.48201E-19-1.52918E-18
 -1      2731 9.53304E-05-2.81555E-05-2.87901E-05 1.10967E-06 1.05822E-18-2.33385E-18
 -1      2732 9.55841E-05-2.81758E-05-2.88913E-05 1.45355E-06 5.11431E-19-1.93104E-18
 -1      2733 9.56928E-05-2.81482E-05-2.89422E-05 1.65371E-06-2.06715E-20-2.02890E-18
 -1      2734 9.53690E-05-2.80308E-05-2.88602E-05 1.44919E-06 2.73461E-19-1.21257E-18
 -1      2735 9.57235E-05-2.80933E-05-2.89867E-05 1.88744E-06-6.15230E-19-2.01389E-18
 -1      2736 9.58624E-05-2.80723E-05-2.90466E-05 2.13306E-06-7.90502E-19-2.55684E-18
 -1      2737 9.54207E-05-2.78970E-05-2.89399E-05 1.88061E-06-3.15247E-19-2.56590E-18
 -1      2738 9.59052E-05-2.80203E-05-2.90959E-05 2.41644E-06-3.98125E-19-2.32815E-18
 -1      2739 9.60819E-05-2.80138E-05-2.91650E-05 2.70718E-06 3.41490E-19-2.27813E-18
 -1      2740 9.54925E-05-2.77633E-05-2.90280E-05 2.41062E-06-3.63201E-19-1.74621E-18
 -1      2741 9.61439E-05-2.79747E-05-2.92177E-05 3.03937E-06 4.72825E-19-2.26058E-18
 -1      2742 9.63679E-05-2.79955E-05-2.92949E-05 3.36966E-06 2.20143E-19-2.17614E-18
 -1      2743 9.55956E-05-2.76472E-05-2.91222E-05 3.04087E-06 3.42018E-19-1.97697E-18
 -1      2744 9.64610E-05-2.79857E-05-2.93484E-05 3.74416E-06 5.95749E-19-2.13595E-18
 -1      2745 9.67447E-05-2.80538E-05-2.94314E-05 4.09994E-06 4.18141E-19-1.92059E-18
 -1      2746 9.57488E-05-2.75786E-05-2.92178E-05 3.76424E-06 4.39985E-19-2.55223E-18
 -1      2747 9.68892E-05-2.80998E-05-2.94818E-05 4.50143E-06-2.87978E-19-1.70329E-18
 -1      2748 9.72494E-05-2.82450E-05-2.95665E-05 4.85582E-06-4.60130E-19-1.92122E-18
 -1      2749 9.59839E-05-2.76065E-05-2.93075E-05 4.55960E-06 8.05204E-20-2.12006E-18
 -1      2750 9.74779E-05-2.83868E-05-2.96085E-05 5.25563E-06 1.55155E-19-1.27474E-18
 -1      2751 9.79381E-05-2.86517E-05-2.96893E-05 5.56334E-06 5.75045E-19-9.81214E-19
 -1      2752 9.63526E-05-2.78061E-05-2.93819E-05 5.38475E-06 3.99505E-19-1.40821E-18
 -1      2753 9.83020E-05-2.89466E-05-2.97174E-05 5.91340E-06 3.88495E-20-9.63727E-19
 -1      2754 9.88940E-05-2.93873E-05-2.97872E-05 6.10424E-06 5.22189E-20-1.19285E-18
 -1      2755 9.69375E-05-2.82871E-05-2.94299E-05 6.16677E-06 3.01735E-19-1.09914E-18
 -1      2756 9.94694E-05-2.99102E-05-2.97975E-05 6.32870E-06-5.78963E-19-1.31476E-18
 -1      2757 1.00232E-04-3.05920E-05-2.98504E-05 6.30112E-06-1.34651E-18-1.43746E-18
 -1      2758 9.78639E-05-2.91985E-05-2.94422E-05 6.78880E-06-3.79543E-19-9.02396E-19
 -1      2759 1.01122E-04-3.14272E-05-2.98449E-05 6.28512E-06-1.11456E-18-7.24913E-19
 -1      2760 1.02093E-04-3.24056E-05-2.98801E-05 5.90276E-06-2.17685E-19-5.06579E-19
 -1      2761 9.93088E-05-3.07213E-05-2.94179E-05 7.07143E-06-1.01496E-18 9.00942E-20
 -1      2762 1.03412E-04-3.36179E-05-2.98739E-05 5.47952E-06-7.41021E-20 2.18764E-20
 -1      2763 1.04599E-04-3.48927E-05-2.99023E-05 4.57806E-06 5.93100E-19 1.91194E-19
 -1      2764 1.01492E-04-3.30300E-05-2.93765E-05 6.74737E-06 5.84424E-20-1.60371E-19
 -1      2765 1.06429E-04-3.64613E-05-2.99345E-05 3.52231E-06 1.16335E-18-1.64736E-19
 -1      2766 1.07750E-04-3.78882E-05-2.99882E-05 1.94163E-06 8.34460E-19 7.29909E-19
 -1      2767 1.04623E-04-3.61890E-05-2.93772E-05 5.43530E-06 6.23870E-19 3.05007E-19
 -1      2768 1.10030E-04-3.95851E-05-3.01330E-05-1.98809E-09-8.10261E-20 1.88978E-19
 -1      2769 1.11224E-04-4.07470E-05-3.02700E-05-2.32700E-06 9.31058E-20-8.34667E-20
 -1      2770 1.08749E-04-3.99406E-05-2.95442E-05 2.64028E-06 2.36241E-19-1.17515E-18
 -1      2771 1.13556E-04-4.19646E-05-3.06413E-05-5.30053E-06 2.78258E-19-2.97869E-19
 -1      2772 1.14150E-04-4.21112E-05-3.09413E-05-8.13220E-06-4.92075E-19-1.14751E-18
 -1      2773 1.13463E-04-4.33554E-05-3.00860E-05-2.12380E-06-4.18925E-19-1.31000E-18
 -1      2774 1.15594E-04-4.17806E-05-3.16571E-05-1.17349E-05-1.30068E-18-1.78240E-18
 -1      2775 1.15032E-04-4.01213E-05-3.21565E-05-1.41908E-05-9.43810E-19-2.47717E-18
 -1      2776 1.17388E-04-4.45101E-05-3.12816E-05-8.95956E-06-1.33870E-18-1.62151E-18
 -1      2777 1.14963E-04-3.75722E-05-3.32281E-05-1.74342E-05 6.03766E-19-2.91759E-18
 -1      2778 1.12913E-04-3.36347E-05-3.39139E-05-1.83049E-05 1.58192E-18-2.30116E-18
 -1      2779 1.19025E-04-4.12993E-05-3.34063E-05-1.61947E-05-5.67790E-19-1.07415E-18
 -1      2780 1.10608E-04-2.91808E-05-3.51361E-05-1.84358E-05 2.12027E-18-1.91334E-18
 -1      2781 1.08191E-04-2.46912E-05-3.57545E-05-1.66729E-05 9.09925E-19-2.67882E-19
 -1      2782 1.16143E-04-3.26851E-05-3.57611E-05-1.98779E-05 1.95455E-18-2.85485E-18
 -1      2783 1.05816E-04-2.08836E-05-3.65870E-05-1.27273E-05-7.23234E-19 7.35552E-19
 -1      2784 1.04408E-04-1.87346E-05-3.67948E-05-8.61061E-06-8.45657E-19 1.05913E-18
 -1      2785 1.11265E-04-2.22533E-05-3.81744E-05-1.61826E-05 8.88749E-19-2.99277E-18
 -1      2786 1.04308E-04-1.86022E-05-3.67797E-05-2.63573E-06-1.20009E-18 2.63498E-18
 -1      2787 1.04704E-04-2.02544E-05-3.64295E-05 1.50012E-06-4.02327E-19 2.31309E-18
 -1      2788 1.08465E-04-1.70587E-05-3.92233E-05-5.77407E-06-2.79574E-19 5.26901E-19
 -1      2789 1.06792E-04-2.36710E-05-3.55640E-05 5.58893E-06 2.50020E-19 2.14146E-18
 -1      2790 1.08220E-04-2.75500E-05-3.48198E-05 7.52994E-06 1.12033E-18 2.98797E-18
 -1      2791 1.10406E-04-2.10249E-05-3.82704E-05 4.77739E-06-2.58027E-19 2.91280E-18
 -1      2792 1.09907E-04-3.13840E-05-3.36147E-05 7.72138E-06 3.54483E-19 1.86803E-18
 -1      2793 1.10820E-04-3.44128E-05-3.28547E-05 7.26069E-06-1.22637E-19 9.14680E-19
 -1      2794 1.14203E-04-3.02483E-05-3.59402E-05 8.54990E-06-5.56832E-19 2.95797E-18
 -1      2795 1.10222E-04-3.61299E-05-3.17940E-05 4.92197E-06-3.44200E-19-2.43517E-19
 -1      2796 1.09764E-04-3.69387E-05-3.12081E-05 3.27631E-06-1.28983E-18-6.90937E-19
 -1      2797 1.15485E-04-3.74612E-05-3.34126E-05 5.37641E-06-1.45732E-18 1.39579E-18
 -1      2798 9.44787E-05-2.81309E-05-2.84346E-05-8.91231E-07 9.37623E-19-1.20559E-18
 -1      2799 9.44954E-05-2.80034E-05-2.84854E-05-7.16335E-07 1.13304E-18-1.18641E-18
 -1      2800 1.31540E-04-9.47222E-06-5.29093E-05-4.35343E-07-1.36542E-18-1.51539E-18
 -1      2801 1.31350E-04-8.69354E-06-5.32894E-05-7.69988E-06-6.71274E-19-6.62261E-19
 -1      2802 9.45561E-05-2.78522E-05-2.85883E-05-4.41129E-07 1.18455E-18-1.30825E-18
 -1      2803 9.46446E-05-2.76652E-05-2.86871E-05-9.78206E-08 1.51097E-18-1.15650E-18
 -1      2804 9.50088E-05-2.79121E-05-2.87640E-05-4.50709E-07 1.27304E-18-1.40211E-18
 -1      2805 9.45180E-05-2.84361E-05-2.83200E-05-1.14024E-06 3.58581E-19-1.18969E-18
 -1      2806 9.44615E-05-2.83722E-05-2.83209E-05-1.13794E-06 5.10154E-19-1.23531E-18
 -1      2807 9.45893E-05-2.85157E-05-2.83164E-05-1.09155E-06 3.31844E-19-1.17745E-18
 -1      2808 9.45206E-05-2.84707E-05-2.83061E-05-1.12767E-06 3.07971E-19-1.28215E-18
 -1      2809 9.48950E-05-2.85762E-05-2.84254E-05-1.15791E-06 4.33744E-19-1.62272E-18
 -1      2810 9.46731E-05-2.85656E-05-2.83310E-05-9.90736E-07 7.11901E-19-1.30813E-18
 -1      2811 9.46015E-05-2.85346E-05-2.83146E-05-1.04675E-06 5.52016E-19-1.30780E-18
 -1      2812 9.49157E-05-2.86495E-05-2.84018E-05-1.10960E-06 5.50657E-19-1.49024E-18
 -1      2813 9.47593E-05-2.85940E-05-2.83557E-05-8.66843E-07 3.74203E-19-1.11869E-18
 -1      2814 9.46904E-05-2.85738E-05-2.83367E-05-9.30291E-07 6.72496E-19-1.11107E-18
 -1      2815 9.49489E-05-2.86866E-05-2.83993E-05-1.00845E-06 6.85812E-19-1.33595E-18
 -1      2816 9.48420E-05-2.86070E-05-2.83856E-05-7.39510E-07 5.01383E-19-1.43362E-18
 -1      2817 9.47788E-05-2.85950E-05-2.83658E-05-8.02058E-07 3.24337E-19-1.22299E-18
 -1      2818 9.49879E-05-2.86990E-05-2.84102E-05-8.84238E-07 4.13583E-19-1.70315E-18
 -1      2819 9.49186E-05-2.86087E-05-2.84177E-05-6.21952E-07 4.95719E-19-1.16615E-18
 -1      2820 9.48620E-05-2.86029E-05-2.83982E-05-6.78019E-07 5.07846E-19-1.02118E-18
 -1      2821 9.50284E-05-2.86945E-05-2.84292E-05-7.57292E-07 3.68732E-19-1.14330E-18
 -1      2822 9.49885E-05-2.86019E-05-2.84505E-05-5.23187E-07 3.49479E-19-8.68837E-19
 -1      2823 9.49381E-05-2.86010E-05-2.84317E-05-5.68949E-07 5.33887E-19-9.15759E-19
 -1      2824 9.50681E-05-2.86782E-05-2.84531E-05-6.41438E-07 5.02743E-19-9.09980E-19
 -1      2825 9.50531E-05-2.85887E-05-2.84837E-05-4.49729E-07 3.97347E-19-8.64861E-19
 -1      2826 9.50075E-05-2.85915E-05-2.84654E-05-4.82360E-07 3.58727E-19-4.74238E-19
 -1      2827 9.51063E-05-2.86534E-05-2.84800E-05-5.46290E-07 1.44256E-19-4.75589E-19
 -1      2828 9.51149E-05-2.85700E-05-2.85179E-05-4.06864E-07 1.78277E-19-1.47814E-19
 -1      2829 9.50719E-05-2.85760E-05-2.84995E-05-4.23964E-07 7.83058E-20-7.00404E-19
 -1      2830 9.51432E-05-2.86219E-05-2.85093E-05-4.78972E-07 6.61900E-20-2.44639E-19
 -1      2831 9.51773E-05-2.85466E-05-2.85544E-05-3.99653E-07-7.45387E-20 3.35789E-19
 -1      2832 9.51341E-05-2.85551E-05-2.85350E-05-3.98799E-07 4.16076E-19 3.49720E-19
 -1      2833 9.51799E-05-2.85842E-05-2.85413E-05-4.45437E-07-6.90487E-20 4.44006E-19
 -1      2834 9.52448E-05-2.85184E-05-2.85950E-05-4.33705E-07-7.19500E-20 1.70012E-19
 -1      2835 9.51980E-05-2.85291E-05-2.85734E-05-4.12102E-07 2.84795E-20 2.04662E-19
 -1      2836 9.52182E-05-2.85401E-05-2.85768E-05-4.51500E-07-5.66678E-20 6.50677E-19
 -1      2837 9.53229E-05-2.84853E-05-2.86420E-05-5.15766E-07-2.35325E-19-1.30647E-19
 -1      2838 9.52683E-05-2.84980E-05-2.86169E-05-4.69986E-07-2.09183E-19-2.20864E-19
 -1      2839 9.52604E-05-2.84885E-05-2.86172E-05-5.03619E-07 2.32742E-19 3.32851E-19
 -1      2840 9.54175E-05-2.84470E-05-2.86983E-05-6.54140E-07 4.79816E-19-7.17089E-19
 -1      2841 9.53505E-05-2.84612E-05-2.86679E-05-5.79934E-07 1.94144E-19-3.35517E-19
 -1      2842 9.53094E-05-2.84279E-05-2.86643E-05-6.09476E-07 1.33282E-19-3.38417E-19
 -1      2843 9.55360E-05-2.84029E-05-2.87670E-05-8.58948E-07 1.19408E-18-1.10324E-18
 -1      2844 9.54511E-05-2.84184E-05-2.87294E-05-7.51143E-07 1.01721E-18-9.85215E-19
 -1      2845 9.53682E-05-2.83565E-05-2.87204E-05-7.78371E-07 1.19512E-18-6.49654E-19
 -1      2846 9.56864E-05-2.83532E-05-2.88517E-05-1.14215E-06 6.81966E-19-7.64704E-19
 -1      2847 9.55773E-05-2.83692E-05-2.88047E-05-9.94669E-07 1.00915E-18-8.25293E-19
 -1      2848 9.54403E-05-2.82721E-05-2.87877E-05-1.02141E-06 9.40579E-19-7.36780E-19
 -1      2849 9.58775E-05-2.82985E-05-2.89558E-05-1.51727E-06-1.11876E-19-9.58143E-19
 -1      2850 9.57372E-05-2.83137E-05-2.88973E-05-1.32332E-06 2.20415E-19-5.00066E-19
 -1      2851 9.55294E-05-2.81730E-05-2.88685E-05-1.35142E-06 4.68034E-19-3.66563E-19
 -1      2852 9.61194E-05-2.82407E-05-2.90828E-05-1.99863E-06-1.07696E-19-1.58772E-18
 -1      2853 9.59400E-05-2.82530E-05-2.90105E-05-1.75117E-06 1.82376E-19-1.29733E-18
 -1      2854 9.56396E-05-2.80583E-05-2.89651E-05-1.78256E-06 2.82638E-20-4.36609E-19
 -1      2855 9.64230E-05-2.81846E-05-2.92354E-05-2.59990E-06-6.90968E-19-1.59088E-18
 -1      2856 9.61956E-05-2.81903E-05-2.91473E-05-2.29251E-06-4.39747E-19-1.46826E-18
 -1      2857 9.57751E-05-2.79289E-05-2.90787E-05-2.32934E-06-3.30282E-19-9.16092E-19
 -1      2858 9.68006E-05-2.81397E-05-2.94150E-05-3.33134E-06-2.03563E-19-1.25814E-18
 -1      2859 9.65156E-05-2.81321E-05-2.93099E-05-2.95990E-06-3.04619E-19-1.49939E-18
 -1      2860 9.59409E-05-2.77895E-05-2.92095E-05-3.00494E-06-4.56771E-19-5.58124E-19
 -1      2861 9.72677E-05-2.81243E-05-2.96206E-05-4.19543E-06-8.55952E-19-6.10675E-19
 -1      2862 9.69140E-05-2.80918E-05-2.94983E-05-3.76080E-06-4.90549E-19-4.98263E-19
 -1      2863 9.61443E-05-2.76519E-05-2.93555E-05-3.81838E-06-8.95064E-19-4.17818E-19
 -1      2864 9.78452E-05-2.81718E-05-2.98471E-05-5.17956E-06-6.42246E-19-1.15711E-18
 -1      2865 9.74096E-05-2.80949E-05-2.97096E-05-4.69203E-06-5.41651E-19-1.17658E-18
 -1      2866 9.63976E-05-2.75408E-05-2.95116E-05-4.77011E-06-2.99744E-19-3.93755E-19
 -1      2867 9.85670E-05-2.83414E-05-3.00840E-05-6.24488E-06-6.46559E-19-3.37060E-19
 -1      2868 9.80319E-05-2.81869E-05-2.99363E-05-5.73105E-06-1.00619E-18-1.00918E-18
 -1      2869 9.67242E-05-2.75031E-05-2.96681E-05-5.84526E-06-9.25732E-19-8.34947E-19
 -1      2870 9.94912E-05-2.87334E-05-3.03141E-05-7.30951E-06 4.89923E-19-1.34039E-19
 -1      2871 9.88304E-05-2.84472E-05-3.01650E-05-6.82243E-06 6.82254E-20 2.25012E-19
 -1      2872 9.71711E-05-2.76225E-05-2.98098E-05-7.00359E-06-5.06076E-19-5.68105E-19
 -1      2873 1.00719E-04-2.95066E-05-3.05136E-05-8.22475E-06-4.65632E-19 4.29323E-19
 -1      2874 9.98920E-05-2.90064E-05-3.03758E-05-7.85766E-06 3.66479E-19 7.08342E-19
 -1      2875 9.78283E-05-2.80399E-05-2.99162E-05-8.16472E-06 1.07440E-20 7.20320E-19
 -1      2876 1.02418E-04-3.08917E-05-3.06566E-05-8.74325E-06-4.99640E-19-2.42238E-20
 -1      2877 1.01365E-04-3.00640E-05-3.05449E-05-8.64599E-06-3.53981E-19 5.86562E-19
 -1      2878 9.88590E-05-2.89764E-05-2.99644E-05-9.18594E-06-5.83652E-19 3.79528E-19
 -1      2879 1.04831E-04-3.31700E-05-3.07296E-05-8.48113E-06-7.08881E-19 7.52773E-19
 -1      2880 1.03480E-04-3.18907E-05-3.06532E-05-8.87436E-06-5.57419E-19 6.26517E-19
 -1      2881 1.00536E-04-3.07464E-05-2.99395E-05-9.82777E-06-6.16513E-19-8.22999E-19
 -1      2882 1.08238E-04-3.65600E-05-3.07598E-05-6.88520E-06-6.06112E-19 3.82063E-19
 -1      2883 1.06544E-04-3.47718E-05-3.07087E-05-8.05840E-06-5.77937E-19 1.09683E-18
 -1      2884 1.03264E-04-3.37214E-05-2.98570E-05-9.69874E-06-6.23160E-19 1.42292E-20
 -1      2885 1.12755E-04-4.09072E-05-3.08639E-05-3.25793E-06-8.08390E-19 6.41338E-19
 -1      2886 1.10823E-04-3.88059E-05-3.07854E-05-5.51122E-06-7.25630E-19 5.17985E-19
 -1      2887 1.07518E-04-3.81590E-05-2.98059E-05-8.17571E-06-7.95724E-19-8.46841E-19
 -1      2888 1.17918E-04-4.50996E-05-3.13108E-05 3.01768E-06-7.84386E-19 2.02328E-18
 -1      2889 1.16201E-04-4.34504E-05-3.10854E-05-4.34411E-07-3.77581E-19 1.71391E-18
 -1      2890 1.13564E-04-4.37505E-05-3.00182E-05-4.36375E-06-1.30312E-18 2.30201E-19
 -1      2891 1.22070E-04-4.64775E-05-3.25194E-05 1.16248E-05-1.60866E-18 4.21737E-18
 -1      2892 1.21500E-04-4.67498E-05-3.19843E-05 7.54597E-06-1.80472E-18 3.29163E-18
 -1      2893 1.20786E-04-4.87544E-05-3.09493E-05 2.68390E-06-2.25963E-18 2.30615E-18
 -1      2894 1.22559E-04-4.14549E-05-3.48215E-05 1.99502E-05-4.75847E-19 4.08537E-18
 -1      2895 1.24132E-04-4.52456E-05-3.38960E-05 1.70163E-05-6.48159E-19 4.67341E-18
 -1      2896 1.26762E-04-4.95816E-05-3.32027E-05 1.26732E-05-1.65915E-18 3.12833E-18
 -1      2897 1.17787E-04-2.99132E-05-3.77291E-05 2.19996E-05 4.99273E-19 3.62628E-18
 -1      2898 1.21555E-04-3.63000E-05-3.68141E-05 2.29123E-05-1.01062E-19 4.04816E-18
 -1      2899 1.27775E-04-4.14628E-05-3.71898E-05 2.20645E-05-2.66286E-19 4.04440E-18
 -1      2900 1.16709E-04-1.67865E-05-4.32862E-05 1.42815E-05 2.13685E-18 2.48420E-18
 -1      2901 1.19869E-04-2.20658E-05-4.24254E-05 2.00156E-05 1.78036E-18 2.60432E-18
 -1      2902 1.18968E-04-1.70618E-05-4.42634E-05-1.73693E-06 3.90652E-18 1.06739E-18
 -1      2903 1.17917E-04-1.46017E-05-4.48610E-05 4.78839E-06 3.70842E-18 2.04804E-18
 -1      2904 1.19497E-04-3.96964E-05-3.43887E-05-8.11033E-06 5.81012E-19-1.09136E-18
 -1      2905 1.17892E-04-3.52974E-05-3.54421E-05-9.13526E-06 1.73398E-18-9.63434E-19
 -1      2906 1.16882E-04-4.24903E-05-3.19410E-05-9.14111E-07-1.35816E-19 5.88873E-19
 -1      2907 1.17939E-04-4.18058E-05-3.27295E-05-3.83094E-06 1.70068E-20-3.12873E-20
 -1      2908 1.25222E-04-4.45069E-05-3.47058E-05-4.19718E-06-1.65224E-19-7.96807E-19
 -1      2909 1.11941E-04-3.99438E-05-3.08376E-05 5.75311E-06-3.84775E-19 2.21988E-18
 -1      2910 1.14636E-04-4.19077E-05-3.12570E-05 3.33061E-06-4.23416E-19 1.56761E-18
 -1      2911 1.21305E-04-4.62209E-05-3.21305E-05 4.56543E-06-1.72179E-18 5.95974E-19
 -1      2912 1.14716E-04-4.18066E-05-3.11374E-05 1.15709E-05-8.72070E-19 9.64888E-19
 -1      2913 5.10524E-05-1.19988E-05-1.58424E-05-2.05977E-05 7.68524E-19 7.09390E-20
 -1      2914 4.68658E-05-9.72364E-06-1.54624E-05-3.73778E-06 1.05916E-18 1.97570E-18
 -1      2915 1.07856E-04-3.63706E-05-3.06951E-05 1.42103E-06-1.52333E-18-6.50460E-19
 -1      2916 1.06855E-04-3.58996E-05-3.04013E-05 5.45853E-07-1.72900E-18-3.34502E-19
 -1      2917 1.13168E-04-3.91877E-05-3.17468E-05 7.73684E-07-2.00095E-18-6.27565E-19
 -1      2918 8.23866E-05-2.69421E-05-2.38536E-05 3.87909E-05-3.59168E-19 1.36510E-18
 -1      2919 9.58052E-05-3.43409E-05-2.56448E-05 3.91286E-05-1.48511E-18-3.40719E-19
 -1      2920 8.47949E-05-2.98998E-05-2.30127E-05-4.23694E-05 2.30647E-18 6.53592E-19
 -1      2921 7.21476E-05-2.25231E-05-2.10001E-05-3.48276E-05 2.22463E-18 7.10661E-19
 -1      2922 9.74416E-05-3.73488E-05-2.53274E-05-4.15474E-05 2.22632E-18-4.71347E-19
 -1      2923 1.15576E-04-4.51022E-05-2.99866E-05-2.85401E-05-1.79743E-19-1.54136E-18
 -1      2924 1.10108E-04-4.24387E-05-2.90841E-05-3.39522E-05 4.66106E-19-3.21630E-18
 -1      2925 1.16443E-04-4.36726E-05-3.12882E-05-1.43480E-05-1.54384E-18 9.91723E-20
 -1      2926 1.16837E-04-4.41937E-05-3.10446E-05-2.03106E-05-8.63457E-19 2.35052E-20
 -1      2927 1.21258E-04-4.94852E-05-3.06883E-05-2.38452E-05-5.23738E-19-1.28360E-18
 -1      2928 9.47267E-05-2.74156E-05-2.88506E-05 3.85665E-07 1.81005E-18-1.24668E-18
 -1      2929 9.49074E-05-2.71222E-05-2.90231E-05 9.90020E-07 1.93397E-18-9.78481E-19
 -1      2930 9.52549E-05-2.65027E-05-2.94720E-05 1.73290E-06 2.17680E-18-1.43907E-18
 -1      2931 9.51312E-05-2.73826E-05-2.90447E-05 3.72939E-07 1.71790E-18-1.43536E-18
 -1      2932 1.46344E-04-4.78889E-05-4.25170E-05 3.40788E-08-2.29811E-18-3.10046E-18
 -1      2933 1.44206E-04-3.78965E-05-4.63315E-05 4.97040E-06-6.01711E-19-2.30658E-18
 -1      2934 1.46221E-04-4.31463E-05-4.49484E-05-4.83508E-06 1.73229E-18-1.27044E-18
 -1      2935 1.49326E-04-5.27131E-05-4.16173E-05 1.27664E-06 1.19744E-18-1.17462E-18
 -1      2936 1.40436E-04-2.62883E-05-4.92989E-05 7.79966E-06 7.36919E-20-1.33630E-18
 -1      2937 1.35063E-04-1.61316E-05-5.18026E-05 4.96013E-06-3.44107E-19-1.62397E-18
 -1      2938 9.43346E-05-2.08729E-05-3.15183E-05-8.24171E-06-2.90327E-18-2.68517E-18
 -1      2939 9.47207E-05-2.26475E-05-3.09135E-05-6.40223E-06-2.69194E-18-2.36648E-18
 -1      2940 7.14679E-05-3.99803E-05-1.33073E-05 3.92755E-05 1.42100E-18-2.72152E-18
 -1      2941 5.67195E-05-3.08497E-05-1.03247E-05 3.35983E-05 7.84141E-19-1.16488E-18
 -1      2942 9.44742E-05-2.83143E-05-2.83536E-05-1.09417E-06 6.89522E-19-1.24332E-18
 -1      2943 9.44442E-05-2.82245E-05-2.83736E-05-1.02600E-06 8.30084E-19-1.16565E-18
 -1      2944 9.49308E-05-2.82428E-05-2.85868E-05-9.03812E-07 8.39955E-19-1.37218E-18
 -1      2945 9.48963E-05-2.84495E-05-2.84816E-05-1.11005E-06 6.89545E-19-1.21683E-18
 -1      2946 1.24155E-04-6.46456E-05-2.53278E-05-2.11241E-05-2.53030E-18-5.46664E-18
 -1      2947 1.36856E-04-6.60792E-05-3.06034E-05-1.09931E-05-1.96798E-18-5.02174E-18
 -1      2948 9.52705E-05-2.41013E-05-3.04833E-05-5.15738E-06-2.39080E-18-2.07777E-18
 -1      2949 9.51775E-05-2.50819E-05-3.00593E-05-3.66952E-06-2.15187E-18-1.96185E-18
 -1      2950 9.52261E-05-2.47642E-05-3.01902E-05-3.42724E-06-2.01480E-18-2.26871E-18
 -1      2951 9.45867E-05-2.23728E-05-3.09420E-05-5.69129E-06-2.40031E-18-2.68396E-18
 -1      2952 9.11731E-05-1.60876E-05-3.22075E-05 4.91698E-06 2.39312E-18-3.55465E-18
 -1      2953 9.08302E-05-1.55889E-05-3.22680E-05 3.99498E-06 1.88506E-18-3.77523E-18
 -1      2954 9.18083E-05-1.72002E-05-3.19595E-05 3.19836E-06 1.64377E-18-3.55131E-18
 -1      2955 9.24786E-05-1.82606E-05-3.17876E-05 4.61449E-06 2.28597E-18-3.20180E-18
 -1      2956 1.09018E-04-3.74098E-05-3.07616E-05-2.25548E-06-2.03428E-18-6.11882E-19
 -1      2957 4.77866E-05-2.84314E-05-7.69168E-06-2.91746E-05-4.44692E-21-1.87787E-18
 -1      2958 6.38711E-05-3.87574E-05-1.03743E-05-3.75359E-05 2.07947E-19-1.20014E-18
 -1      2959 9.07938E-05-1.55397E-05-3.22730E-05-3.92998E-06-1.07144E-18-4.39632E-18
 -1      2960 9.11305E-05-1.60267E-05-3.22141E-05-4.85304E-06-1.47413E-18-4.25707E-18
 -1      2961 1.42910E-04-6.19690E-05-3.46794E-05 9.62231E-07-1.06386E-18-3.46066E-18
 -1      2962 1.47063E-04-5.70798E-05-3.90877E-05 8.64094E-06-5.89641E-19-1.61063E-18
 -1      2963 1.06972E-04-5.88327E-05-2.08750E-05 3.49839E-05 1.54742E-18-1.53837E-18
 -1      2964 8.89641E-05-4.99290E-05-1.62191E-05 3.85311E-05 2.26645E-18-1.92891E-18
 -1      2965 9.20384E-05-1.66580E-05-3.23133E-05-9.02070E-06-2.80039E-18-3.50076E-18
 -1      2966 3.04077E-05-1.70923E-05-5.12595E-06-5.41896E-06 9.02619E-21-3.54039E-18
 -1      2967 3.52990E-05-2.09015E-05-5.64157E-06-1.87887E-05-1.48019E-19-3.20771E-18
 -1      2968 9.47093E-05-2.19079E-05-3.12074E-05 7.84102E-06 3.41467E-18-1.11611E-18
 -1      2969 1.49019E-04-5.89957E-05-3.89767E-05 9.61876E-06 1.56820E-19-9.85417E-19
 -1      2970 1.44387E-04-6.34816E-05-3.47819E-05 1.79806E-05-2.61204E-19-5.17114E-19
 -1      2971 1.43650E-04-5.52267E-05-3.81612E-05 2.57922E-06 5.90402E-19-7.12990E-19
 -1      2972 1.35694E-04-6.49329E-05-3.08233E-05 1.36973E-05 7.44171E-19-8.41263E-19
 -1      2973 1.23935E-04-6.36306E-05-2.54419E-05 2.40076E-05 1.30210E-18-1.80632E-18
 -1      2974 4.95277E-05-1.02444E-05-1.63423E-05 1.54956E-05 1.09029E-18 3.87338E-18
 -1      2975 1.39954E-04-2.98062E-05-4.80323E-05-1.84791E-05-7.77894E-19 9.92087E-19
 -1      2976 1.43386E-04-4.11439E-05-4.40092E-05-1.58876E-05-7.52165E-19 1.74277E-18
 -1      2977 1.44802E-04-5.31786E-05-3.99703E-05-7.93142E-06-8.11669E-19 2.03574E-18
 -1      2978 1.42329E-04-5.98137E-05-3.52643E-05 4.49943E-07-5.80760E-19 1.51598E-18
 -1      2979 5.96654E-05-1.63437E-05-1.78058E-05 2.74371E-05 2.90744E-19 4.29234E-18
 -1      2980 9.15558E-05-1.66681E-05-3.21139E-05-5.58126E-06-1.69555E-18-4.13523E-18
 -1      2981 9.20329E-05-1.73698E-05-3.20223E-05-6.41246E-06-2.10896E-18-3.99349E-18
 -1      2982 9.24265E-05-1.81841E-05-3.17970E-05-4.57660E-06-1.52243E-18-3.89452E-18
 -1      2983 9.12833E-05-1.63907E-05-3.20847E-05 2.85483E-08 2.44166E-19-4.16456E-18
 -1      2984 9.01605E-05-1.46008E-05-3.24021E-05-3.82931E-07 1.47049E-19-4.42023E-18
 -1      2985 9.02172E-05-1.46811E-05-3.23922E-05-1.34031E-06-2.24247E-19-4.51550E-18
 -1      2986 1.04152E-04-5.09456E-05-2.27773E-05-4.63749E-05 2.10223E-18-3.12936E-18
 -1      2987 1.32326E-04-2.49778E-05-4.63469E-05-1.96589E-05 1.40607E-19 9.60535E-19
 -1      2988 1.08993E-04-5.56829E-05-2.24226E-05 4.68019E-05-1.79783E-19-7.94517E-19
 -1      2989 9.87452E-05-4.65572E-05-2.18177E-05 4.65061E-05 8.19504E-20-6.55921E-19
 -1      2990 1.18764E-04-5.85164E-05-2.60478E-05 4.06255E-05-8.31151E-19-1.11698E-18
 -1      2991 1.36120E-04-6.40613E-05-3.07054E-05-3.22639E-05-1.20258E-18-4.42321E-18
 -1      2992 1.39086E-04-6.23221E-05-3.32172E-05-2.21898E-05-9.65935E-19-1.67908E-18
 -1      2993 1.27613E-04-6.08759E-05-2.82640E-05-3.68951E-05-3.56071E-19-3.67112E-18
 -1      2994 1.11969E-04-3.91834E-05-3.11120E-05-6.56219E-06-2.19769E-18 1.05482E-20
 -1      2995 1.37692E-04-6.28830E-05-3.20887E-05-1.32418E-06-2.24186E-18-2.55772E-18
 -1      2996 1.39797E-04-4.67991E-05-4.01285E-05-1.43017E-05-2.38916E-19 2.16438E-18
 -1      2997 1.40361E-04-6.47454E-05-3.25162E-05 2.39406E-05-1.55605E-18-7.75565E-20
 -1      2998 1.33267E-04-6.23568E-05-2.99379E-05 2.87810E-05-1.40067E-18-3.47575E-19
 -1      2999 1.39278E-04-6.05216E-05-3.38941E-05 1.42827E-05-9.42576E-19-3.23143E-19
 -1      3000 1.17848E-04-6.27841E-05-2.34162E-05-2.57733E-05-1.88698E-18-4.94297E-18
 -1      3001 1.24720E-04-6.25136E-05-2.66319E-05-1.60588E-05-1.64867E-18-5.44646E-18
 -1      3002 1.08054E-04-5.72993E-05-2.14296E-05-2.87254E-05-2.63163E-19-3.16166E-18
 -1      3003 1.25155E-04-1.14490E-05-4.91282E-05-1.06041E-05 1.66018E-19-4.48252E-19
 -1      3004 1.35946E-04-3.15896E-05-4.48325E-05 8.76913E-06-1.37325E-19-2.05776E-18
 -1      3005 1.28074E-04-2.55197E-05-4.44852E-05 2.32380E-05 1.74785E-18 2.60616E-18
 -1      3006 1.29031E-04-3.30551E-05-4.15452E-05-9.79481E-06 3.08087E-18-1.59295E-18
 -1      3007 1.20425E-04-2.77540E-05-4.00831E-05-9.49140E-06 3.64462E-18-7.06002E-19
 -1      3008 1.17187E-04-2.14687E-05-4.13512E-05-5.87913E-06 3.55669E-18 6.17633E-19
 -1      3009 1.16435E-04-4.46278E-05-3.07419E-05 1.86458E-05-9.64575E-19-1.60440E-20
 -1      3010 1.20483E-04-4.79241E-05-3.10581E-05 1.56369E-05-1.92198E-18 3.11715E-20
 -1      3011 1.14961E-04-4.41753E-05-3.03262E-05 2.47217E-05-2.38479E-18-4.73108E-19
 -1      3012 8.48036E-05-4.39388E-05-1.70686E-05 3.50719E-05 2.12796E-18-1.95972E-18
 -1      3013 7.90802E-05-4.42196E-05-1.45315E-05-3.53032E-05-1.43360E-19-1.51386E-18
 -1      3014 1.06736E-04-4.67705E-05-2.55660E-05-4.11592E-05 1.31417E-18-2.27301E-18
 -1      3015 4.88311E-05-2.44665E-05-9.83848E-06-2.33296E-05-5.84241E-19-2.30319E-18
 -1      3016 1.17098E-04-4.31343E-05-3.16349E-05-7.45974E-06-2.95544E-18-5.37826E-19
 -1      3017 1.38630E-04-3.67351E-05-4.41720E-05-8.02647E-06 3.13487E-18-1.64547E-18
 -1      3018 1.16592E-04-5.98524E-05-2.40460E-05 2.58161E-05 1.81641E-18-2.08974E-18
 -1      3019 6.08427E-05-2.75802E-05-1.39643E-05-3.99534E-05 2.10954E-18 6.74450E-19
 -1      3020 1.27053E-04-1.44067E-05-4.86036E-05 2.79742E-06-3.69624E-19-1.16922E-18
 -1      3021 5.36201E-05-2.61699E-05-1.12443E-05 2.78956E-05 7.94199E-19-1.54033E-18
 -1      3022 9.03426E-05-1.48725E-05-3.23645E-05-2.17711E-06-4.76714E-19-4.47092E-18
 -1      3023 9.05269E-05-1.51357E-05-3.23324E-05-3.12775E-06-8.75007E-19-4.48423E-18
 -1      3024 9.17780E-05-1.71574E-05-3.19645E-05-3.14133E-06-9.66223E-19-4.13588E-18
 -1      3025 9.14020E-05-1.65743E-05-3.20560E-05-1.58278E-06-3.88980E-19-4.23140E-18
 -1      3026 1.39888E-04-2.81346E-05-4.83022E-05 2.10431E-05 2.26550E-18-1.14455E-19
 -1      3027 1.04316E-04-3.95193E-05-2.78029E-05 3.61908E-05-1.32988E-18-1.24348E-18
 -1      3028 1.11753E-04-4.33790E-05-2.90577E-05 3.11709E-05-2.38389E-18-1.39179E-18
 -1      3029 1.17270E-04-4.93350E-05-2.90578E-05 2.97796E-05-1.74044E-18-1.16752E-18
 -1      3030 1.02083E-04-4.29181E-05-2.52556E-05 4.04226E-05-1.46685E-18-9.21122E-19
 -1      3031 1.43534E-04-4.98234E-05-4.05372E-05 1.66601E-05-4.85985E-20-9.39995E-19
 -1      3032 9.28199E-05-1.84295E-05-3.18798E-05-7.46834E-06-2.41775E-18-3.53166E-18
 -1      3033 1.46134E-04-5.34668E-05-4.00551E-05-4.10747E-06-2.86465E-18-3.10035E-18
 -1      3034 1.39871E-04-4.76718E-05-3.98014E-05 2.13396E-06-2.43842E-18-3.80725E-18
 -1      3035 1.42748E-04-5.66700E-05-3.69939E-05-9.07531E-06-2.28561E-18-2.10784E-18
 -1      3036 3.42225E-05-1.62356E-05-6.97215E-06 3.10107E-06 5.60623E-19-3.26785E-18
 -1      3037 3.97672E-05-1.57979E-05-9.76396E-06-3.31353E-06-7.08546E-20-3.25102E-18
 -1      3038 3.97805E-05-1.65746E-05-9.70924E-06 1.11928E-05 6.94091E-19-3.41778E-18
 -1      3039 9.43557E-05-2.14244E-05-3.12606E-05 7.21461E-06 3.25291E-18-1.83086E-18
 -1      3040 1.36830E-04-6.12277E-05-3.23868E-05 3.86938E-06 6.70347E-19 1.04233E-18
 -1      3041 9.46139E-05-2.24667E-05-3.09131E-05 5.69017E-06 2.94194E-18-1.97324E-18
 -1      3042 6.42436E-05-2.53286E-05-1.60951E-05 3.59166E-05-7.38930E-19 3.39290E-18
 -1      3043 1.35144E-04-5.75553E-05-3.37062E-05-3.48015E-06 3.53709E-19 3.35764E-18
 -1      3044 1.31321E-04-6.05792E-05-3.00310E-05 6.54255E-06 1.40770E-18 1.08338E-18
 -1      3045 9.42730E-05-2.18504E-05-3.10598E-05 4.97018E-06 2.60359E-18-2.29627E-18
 -1      3046 9.38121E-05-2.09085E-05-3.12453E-05 4.62379E-06 2.37891E-18-2.69918E-18
 -1      3047 9.56785E-05-2.68794E-05-2.94711E-05-7.45495E-07-1.28762E-18-2.21903E-18
 -1      3048 9.56539E-05-2.73263E-05-2.92914E-05-2.19417E-07-1.12965E-18-2.26872E-18
 -1      3049 9.56993E-05-2.77132E-05-2.91255E-05 1.61834E-07-1.08821E-18-2.09793E-18
 -1      3050 9.56624E-05-2.80006E-05-2.90026E-05 4.76398E-07-1.13325E-18-2.14594E-18
 -1      3051 9.58941E-05-2.73288E-05-2.93879E-05-1.62614E-07-1.09406E-18-2.31757E-18
 -1      3052 9.56548E-05-2.82395E-05-2.88843E-05 6.97145E-07-1.12187E-18-1.86984E-18
 -1      3053 9.56225E-05-2.84207E-05-2.88030E-05 8.64354E-07-9.18763E-19-1.91412E-18
 -1      3054 9.59370E-05-2.80567E-05-2.90952E-05 4.71258E-07-1.00825E-18-1.92580E-18
 -1      3055 9.55906E-05-2.85627E-05-2.87210E-05 9.72571E-07-7.71644E-19-1.99099E-18
 -1      3056 9.55674E-05-2.86734E-05-2.86695E-05 1.04090E-06-5.99320E-19-2.02273E-18
 -1      3057 9.59032E-05-2.85087E-05-2.88868E-05 8.27174E-07-9.24894E-19-2.03824E-18
 -1      3058 9.55260E-05-2.87513E-05-2.86146E-05 1.07342E-06-4.43213E-19-1.96900E-18
 -1      3059 9.55115E-05-2.88144E-05-2.85842E-05 1.07860E-06-3.56988E-19-1.82788E-18
 -1      3060 9.58354E-05-2.87763E-05-2.87426E-05 9.88767E-07-5.64282E-19-2.08819E-18
 -1      3061 9.54683E-05-2.88499E-05-2.85491E-05 1.06349E-06-2.68355E-19-1.66815E-18
 -1      3062 9.54606E-05-2.88808E-05-2.85334E-05 1.03117E-06-1.30991E-19-1.44276E-18
 -1      3063 9.57554E-05-2.89200E-05-2.86462E-05 1.02184E-06-7.80299E-20-1.94489E-18
 -1      3064 9.54196E-05-2.88885E-05-2.85127E-05 9.88979E-07-3.87192E-19-1.39384E-18
 -1      3065 9.54168E-05-2.88977E-05-2.85071E-05 9.37284E-07-5.30832E-19-1.50597E-18
 -1      3066 9.56748E-05-2.89807E-05-2.85852E-05 9.76069E-07-2.82578E-19-1.77061E-18
 -1      3067 9.53797E-05-2.88874E-05-2.84967E-05 8.82683E-07-5.41107E-19-1.64027E-18
 -1      3068 9.53800E-05-2.88820E-05-2.84979E-05 8.24226E-07-6.57312E-19-1.51835E-18
 -1      3069 9.55994E-05-2.89866E-05-2.85499E-05 8.87666E-07-5.49509E-19-1.76496E-18
 -1      3070 9.53474E-05-2.88604E-05-2.84949E-05 7.67484E-07-8.38798E-19-1.30312E-18
 -1      3071 9.53499E-05-2.88452E-05-2.85007E-05 7.10975E-07-5.84881E-19-1.21018E-18
 -1      3072 9.55315E-05-2.89567E-05-2.85333E-05 7.82399E-07-4.30408E-19-1.17231E-18
 -1      3073 9.53216E-05-2.88162E-05-2.85031E-05 6.59225E-07-5.00162E-19-1.23031E-18
 -1      3074 9.53254E-05-2.87943E-05-2.85120E-05 6.10732E-07-2.69035E-19-1.51904E-18
 -1      3075 9.54720E-05-2.89037E-05-2.85302E-05 6.78323E-07-5.40828E-19-1.22001E-18
 -1      3076 9.53008E-05-2.87603E-05-2.85183E-05 5.69036E-07-1.57492E-19-1.61664E-18
 -1      3077 9.53056E-05-2.87332E-05-2.85296E-05 5.32959E-07-4.80463E-19-1.26348E-18
 -1      3078 9.54199E-05-2.88352E-05-2.85371E-05 5.88154E-07-4.75033E-19-1.12405E-18
 -1      3079 9.52837E-05-2.86950E-05-2.85391E-05 5.05133E-07-9.68278E-19-1.21688E-18
 -1      3080 9.52892E-05-2.86635E-05-2.85524E-05 4.84947E-07-1.49949E-18-1.14202E-18
 -1      3081 9.53739E-05-2.87551E-05-2.85515E-05 5.21175E-07-7.27994E-19-1.56052E-18
 -1      3082 9.52687E-05-2.86211E-05-2.85645E-05 4.74188E-07-1.41324E-18-7.43046E-19
 -1      3083 9.52750E-05-2.85850E-05-2.85798E-05 4.73006E-07-9.36879E-19-9.14088E-19
 -1      3084 9.53317E-05-2.86647E-05-2.85720E-05 4.84702E-07-1.29712E-18-9.94515E-19
 -1      3085 9.52544E-05-2.85374E-05-2.85944E-05 4.82380E-07-5.90441E-19-1.17099E-18
 -1      3086 9.52617E-05-2.84960E-05-2.86120E-05 5.03366E-07-2.12203E-19-1.28630E-18
 -1      3087 9.52906E-05-2.85629E-05-2.85979E-05 4.85219E-07-9.66038E-19-6.76574E-19
 -1      3088 9.52394E-05-2.84418E-05-2.86291E-05 5.36155E-07-2.34016E-20-1.09329E-18
 -1      3089 9.52480E-05-2.83942E-05-2.86495E-05 5.82806E-07 2.67287E-19-1.34640E-18
 -1      3090 9.52476E-05-2.84473E-05-2.86289E-05 5.29218E-07-1.92151E-19-1.16566E-18
 -1      3091 9.52221E-05-2.83316E-05-2.86692E-05 6.42739E-07 2.33190E-19-1.20102E-18
 -1      3092 9.52325E-05-2.82767E-05-2.86929E-05 7.19033E-07 1.96838E-19-1.64208E-18
 -1      3093 9.51992E-05-2.83145E-05-2.86649E-05 6.23786E-07 3.58193E-19-1.31650E-18
 -1      3094 9.52011E-05-2.82038E-05-2.87153E-05 8.10392E-07 4.03692E-19-1.44984E-18
 -1      3095 9.52140E-05-2.81408E-05-2.87428E-05 9.20796E-07 9.81092E-19-2.04669E-18
 -1      3096 9.51416E-05-2.81605E-05-2.87061E-05 7.76945E-07 1.15072E-19-1.41569E-18
 -1      3097 9.51750E-05-2.80561E-05-2.87679E-05 1.04839E-06 1.26158E-18-1.93267E-18
 -1      3098 9.51915E-05-2.79847E-05-2.87995E-05 1.19770E-06 1.16386E-18-1.98450E-18
 -1      3099 9.50711E-05-2.79818E-05-2.87523E-05 9.97734E-07 1.02425E-18-1.21193E-18
 -1      3100 9.51433E-05-2.78876E-05-2.88270E-05 1.36668E-06 2.86515E-19-1.65025E-18
 -1      3101 9.51649E-05-2.78090E-05-2.88629E-05 1.55963E-06-8.44092E-20-1.39564E-18
 -1      3102 9.49838E-05-2.77761E-05-2.88028E-05 1.29601E-06 1.01138E-18-2.05790E-18
 -1      3103 9.51065E-05-2.77005E-05-2.88920E-05 1.77514E-06-2.94785E-19-1.98689E-18
 -1      3104 9.51359E-05-2.76178E-05-2.89318E-05 2.01575E-06-4.27477E-19-1.95439E-18
 -1      3105 9.48772E-05-2.75442E-05-2.88564E-05 1.68190E-06-3.69475E-19-1.97510E-18
 -1      3106 9.50676E-05-2.75019E-05-2.89609E-05 2.28230E-06-3.15973E-19-2.25082E-18
 -1      3107 9.51091E-05-2.74219E-05-2.90036E-05 2.57287E-06-2.53550E-20-1.71854E-18
 -1      3108 9.47506E-05-2.72914E-05-2.89102E-05 2.16493E-06-1.89628E-19-2.17448E-18
 -1      3109 9.50343E-05-2.73071E-05-2.90305E-05 2.89348E-06-3.50853E-20-1.90630E-18
 -1      3110 9.50952E-05-2.72422E-05-2.90741E-05 3.23313E-06 3.41033E-19-1.86356E-18
 -1      3111 9.46074E-05-2.70315E-05-2.89601E-05 2.75262E-06-1.55334E-19-2.25131E-18
 -1      3112 9.50220E-05-2.71442E-05-2.90951E-05 3.60817E-06 4.72721E-19-1.81986E-18
 -1      3113 9.51146E-05-2.71149E-05-2.91364E-05 3.99079E-06 9.03304E-20-2.17720E-18
 -1      3114 9.44587E-05-2.67907E-05-2.89997E-05 3.44867E-06 3.48393E-19-1.60679E-18
 -1      3115 9.50597E-05-2.70599E-05-2.91468E-05 4.41642E-06 5.19452E-20-1.79193E-18
 -1      3116 9.52046E-05-2.70987E-05-2.91814E-05 4.82802E-06 3.10064E-19-1.37140E-18
 -1      3117 9.43285E-05-2.66143E-05-2.90201E-05 4.25068E-06 3.92076E-19-1.45872E-18
 -1      3118 9.51981E-05-2.71280E-05-2.91754E-05 5.29408E-06 2.20052E-19-1.31716E-18
 -1      3119 9.54287E-05-2.72838E-05-2.91976E-05 5.70924E-06 6.79428E-19-1.25484E-18
 -1      3120 9.42618E-05-2.65745E-05-2.90101E-05 5.14713E-06 2.77992E-19-1.12370E-18
 -1      3121 9.55220E-05-2.74591E-05-2.91690E-05 6.19617E-06 5.56524E-19-1.37778E-18
 -1      3122 9.58909E-05-2.78014E-05-2.91734E-05 6.57326E-06 2.85386E-19-1.18882E-18
 -1      3123 9.43374E-05-2.67812E-05-2.89571E-05 6.11347E-06 3.44625E-19-1.42109E-18
 -1      3124 9.61659E-05-2.82096E-05-2.91173E-05 7.04689E-06-1.24612E-20-1.07707E-18
 -1      3125 9.67509E-05-2.88310E-05-2.91005E-05 7.32136E-06-5.65471E-19-1.15683E-18
 -1      3126 9.46843E-05-2.73931E-05-2.88495E-05 7.10561E-06 4.55645E-20-1.45748E-18
 -1      3127 9.73321E-05-2.95848E-05-2.90178E-05 7.72290E-06-8.80759E-19-1.11253E-18
 -1      3128 9.82383E-05-3.05943E-05-2.89833E-05 7.79740E-06-7.94996E-19-1.16801E-18
 -1      3129 9.55037E-05-2.86260E-05-2.86826E-05 8.04725E-06-4.54899E-19-2.09645E-18
 -1      3130 9.93007E-05-3.18219E-05-2.88868E-05 8.02312E-06-4.97588E-19-7.53219E-19
 -1      3131 1.00647E-04-3.33176E-05-2.88529E-05 7.75300E-06 1.71170E-19-6.80982E-19
 -1      3132 9.70898E-05-3.07477E-05-2.84692E-05 8.80270E-06-4.23176E-19-2.20122E-18
 -1      3133 1.02407E-04-3.51220E-05-2.87803E-05 7.61723E-06-9.62408E-20-1.27215E-19
 -1      3134 1.04280E-04-3.71182E-05-2.87923E-05 6.79656E-06 3.42167E-19-9.20461E-19
 -1      3135 9.98353E-05-3.40341E-05-2.82598E-05 9.11903E-06 2.65204E-19-1.66693E-18
 -1      3136 1.06938E-04-3.94792E-05-2.88268E-05 5.98074E-06 2.97664E-19-1.04550E-18
 -1      3137 1.09277E-04-4.17535E-05-2.89714E-05 4.34474E-06 1.91421E-19-1.33006E-18
 -1      3138 1.04172E-04-3.86253E-05-2.81763E-05 8.53367E-06-8.41160E-20-2.01502E-18
 -1      3139 1.12863E-04-4.43351E-05-2.92641E-05 2.36667E-06-7.98726E-20-1.01058E-18
 -1      3140 1.15299E-04-4.61516E-05-2.96801E-05-3.62480E-07-9.13393E-19-1.41304E-18
 -1      3141 1.10388E-04-4.42188E-05-2.84628E-05 6.26232E-06 4.39043E-20-3.81641E-19
 -1      3142 1.19335E-04-4.80103E-05-3.04674E-05-3.77043E-06-1.02789E-18 9.02123E-20
 -1      3143 1.21232E-04-4.79201E-05-3.14001E-05-7.83928E-06-6.87781E-19-2.86178E-19
 -1      3144 1.17957E-04-4.92239E-05-2.95261E-05 1.26383E-06-9.48875E-20 9.37388E-19
 -1      3145 1.25344E-04-5.03560E-05-3.21243E-05-8.16134E-06-7.14684E-22 1.55960E-18
 -1      3146 1.26158E-04-4.77548E-05-3.36379E-05-1.19678E-05 6.08355E-19 2.37587E-18
 -1      3147 1.26494E-04-3.76567E-05-3.83889E-05-1.96660E-05 7.12844E-19 1.32517E-18
 -1      3148 1.23648E-04-3.01188E-05-4.03078E-05-2.07447E-05 1.05879E-18 3.12555E-19
 -1      3149 1.18885E-04-2.11891E-05-4.23967E-05-1.83461E-05 1.33567E-18-1.46006E-18
 -1      3150 1.16379E-04-1.56687E-05-4.35658E-05-1.46476E-05 5.30190E-19 1.55642E-20
 -1      3151 1.14301E-04-1.28945E-05-4.39303E-05-8.28947E-06 3.07896E-19-5.00196E-19
 -1      3152 1.14293E-04-1.30655E-05-4.39743E-05-2.23435E-06 2.38228E-19 2.21843E-19
 -1      3153 1.17657E-04-1.77733E-05-4.32099E-05 4.22336E-06-1.68877E-19 2.90704E-20
 -1      3154 1.20281E-04-2.38694E-05-4.19770E-05 7.88016E-06-1.01750E-19-4.13987E-20
 -1      3155 1.24871E-04-3.23272E-05-3.99253E-05 7.88418E-06-8.04787E-19-3.15109E-19
 -1      3156 1.26996E-04-3.88461E-05-3.80672E-05 7.16416E-06-8.82079E-19-3.96028E-19
 -1      3157 9.52234E-05-2.87772E-05-2.84761E-05-1.07067E-06 4.90889E-19-1.53753E-18
 -1      3158 9.52112E-05-2.87424E-05-2.84851E-05-1.10472E-06 4.95583E-19-1.44995E-18
 -1      3159 9.52424E-05-2.87070E-05-2.85148E-05-1.11925E-06 5.02970E-19-1.38257E-18
 -1      3160 9.52392E-05-2.86440E-05-2.85376E-05-1.11456E-06 5.23427E-19-1.13911E-18
 -1      3161 9.55242E-05-2.88228E-05-2.85889E-05-1.08158E-06 5.31340E-19-1.22727E-18
 -1      3162 9.52102E-05-2.88013E-05-2.84598E-05-8.53897E-07 2.20034E-19-1.19388E-18
 -1      3163 9.51912E-05-2.87990E-05-2.84540E-05-9.15263E-07 4.46124E-19-1.30488E-18
 -1      3164 9.52115E-05-2.87795E-05-2.84696E-05-7.33719E-07-9.99973E-21-9.90322E-19
 -1      3165 9.51920E-05-2.87865E-05-2.84602E-05-7.93501E-07-2.65527E-20-1.21660E-18
 -1      3166 9.53855E-05-2.88863E-05-2.85007E-05-8.27469E-07 9.11167E-20-1.12737E-18
 -1      3167 9.52159E-05-2.87449E-05-2.84863E-05-6.25719E-07 3.91153E-19-7.27657E-19
 -1      3168 9.51968E-05-2.87583E-05-2.84746E-05-6.77855E-07 5.29759E-19-7.26917E-19
 -1      3169 9.53538E-05-2.88481E-05-2.85033E-05-7.14420E-07 7.67187E-20-1.41020E-18
 -1      3170 9.52225E-05-2.87010E-05-2.85079E-05-5.39475E-07 1.30635E-19-6.45542E-19
 -1      3171 9.52041E-05-2.87192E-05-2.84946E-05-5.79618E-07 1.21912E-20-6.75900E-19
 -1      3172 9.53281E-05-2.87958E-05-2.85145E-05-6.14656E-07-3.19492E-20-7.07111E-19
 -1      3173 9.52311E-05-2.86495E-05-2.85335E-05-4.82259E-07-3.87682E-19-4.80953E-20
 -1      3174 9.52130E-05-2.86718E-05-2.85188E-05-5.07021E-07-5.50380E-20-3.43304E-19
 -1      3175 9.53070E-05-2.87331E-05-2.85322E-05-5.37811E-07-2.14795E-19-5.21496E-19
 -1      3176 9.52416E-05-2.85906E-05-2.85631E-05-4.60311E-07-2.81721E-19 5.09892E-21
 -1      3177 9.52230E-05-2.86168E-05-2.85467E-05-4.66660E-07-3.29085E-19-6.85808E-20
 -1      3178 9.52891E-05-2.86613E-05-2.85552E-05-4.91357E-07-3.24832E-19-4.46613E-19
 -1      3179 9.52540E-05-2.85230E-05-2.85971E-05-4.79836E-07-1.88332E-19 2.90959E-20
 -1      3180 9.52340E-05-2.85536E-05-2.85786E-05-4.64639E-07-1.26257E-19 1.64260E-19
 -1      3181 9.52730E-05-2.85799E-05-2.85831E-05-4.81865E-07-2.72156E-19-6.07768E-19
 -1      3182 9.52687E-05-2.84447E-05-2.86367E-05-5.47741E-07 3.77104E-19 1.97624E-19
 -1      3183 9.52460E-05-2.84804E-05-2.86153E-05-5.07421E-07 4.30866E-19 5.02601E-19
 -1      3184 9.52569E-05-2.84867E-05-2.86161E-05-5.15955E-07-1.86483E-19-4.79531E-19
 -1      3185 9.52859E-05-2.83527E-05-2.86830E-05-6.72171E-07 6.03501E-19-3.95944E-19
 -1      3186 9.52591E-05-2.83948E-05-2.86578E-05-6.02464E-07 3.35802E-19 2.83089E-20
 -1      3187 9.52387E-05-2.83783E-05-2.86547E-05-6.00984E-07 6.32549E-19-3.56947E-19
 -1      3188 9.53058E-05-2.82437E-05-2.87377E-05-8.62833E-07 9.93789E-19-3.72626E-19
 -1      3189 9.52734E-05-2.82933E-05-2.87077E-05-7.58648E-07 8.49547E-19-1.50049E-19
 -1      3190 9.52159E-05-2.82505E-05-2.86997E-05-7.45523E-07 6.21664E-19-2.04774E-19
 -1      3191 9.53285E-05-2.81142E-05-2.88022E-05-1.13111E-06 8.78608E-19 1.69883E-19
 -1      3192 9.52886E-05-2.81726E-05-2.87664E-05-9.86507E-07 1.13671E-18-5.57214E-20
 -1      3193 9.51854E-05-2.80982E-05-2.87518E-05-9.59624E-07 6.84065E-19 6.01338E-19
 -1      3194 9.53534E-05-2.79607E-05-2.88780E-05-1.48988E-06 3.07620E-19 6.73562E-20
 -1      3195 9.53043E-05-2.80288E-05-2.88353E-05-1.29821E-06 7.42357E-19-3.69316E-20
 -1      3196 9.51433E-05-2.79163E-05-2.88115E-05-1.25483E-06 9.36544E-19 5.48077E-19
 -1      3197 9.53800E-05-2.77811E-05-2.89655E-05-1.95300E-06 5.79969E-20-3.24370E-19
 -1      3198 9.53197E-05-2.78590E-05-2.89154E-05-1.70722E-06 4.14504E-19-1.88478E-19
 -1      3199 9.50850E-05-2.77000E-05-2.88790E-05-1.64393E-06 6.10174E-19-1.09877E-19
 -1      3200 9.54073E-05-2.75754E-05-2.90644E-05-2.53424E-06-6.43060E-19-3.44466E-19
 -1      3201 9.53336E-05-2.76619E-05-2.90066E-05-2.22762E-06-3.05267E-19-2.01602E-19
 -1      3202 9.50048E-05-2.74461E-05-2.89530E-05-2.14034E-06-1.43803E-19 2.03685E-19
 -1      3203 9.54350E-05-2.73487E-05-2.91725E-05-3.24565E-06-9.70796E-19-1.09601E-19
 -1      3204 9.53451E-05-2.74396E-05-2.91078E-05-2.87279E-06-5.44330E-19-1.78363E-19
 -1      3205 9.48967E-05-2.71547E-05-2.90310E-05-2.75707E-06-7.46873E-19-1.82398E-19
 -1      3206 9.54653E-05-2.71150E-05-2.92848E-05-4.09491E-06-9.24621E-19-4.07017E-19
 -1      3207 9.53548E-05-2.72009E-05-2.92152E-05-3.65347E-06-1.20937E-18-5.36815E-19
 -1      3208 9.47555E-05-2.68324E-05-2.91079E-05-3.50528E-06-9.20434E-19 2.06521E-19
 -1      3209 9.55074E-05-2.69040E-05-2.93925E-05-5.08169E-06-6.37029E-19-3.91710E-19
 -1      3210 9.53680E-05-2.69667E-05-2.93221E-05-4.57484E-06-3.39297E-19-4.06157E-19
 -1      3211 9.45797E-05-2.64974E-05-2.91754E-05-4.39230E-06-6.32061E-19-5.14745E-19
 -1      3212 9.55861E-05-2.67728E-05-2.94816E-05-6.19251E-06-7.59244E-19-6.10003E-20
 -1      3213 9.54010E-05-2.67789E-05-2.94171E-05-5.63256E-06-6.19282E-19-8.34516E-20
 -1      3214 9.43771E-05-2.61883E-05-2.92205E-05-5.41940E-06-8.03722E-19 9.31710E-19
 -1      3215 9.57573E-05-2.68226E-05-2.95326E-05-7.39384E-06-7.19574E-19-1.85983E-19
 -1      3216 9.54932E-05-2.67147E-05-2.94836E-05-6.80728E-06-1.23307E-18-4.26006E-19
 -1      3217 9.41762E-05-2.59778E-05-2.92249E-05-6.57944E-06-6.03062E-19 2.04504E-19
 -1      3218 9.61343E-05-2.72231E-05-2.95212E-05-8.62222E-06-5.00656E-19 4.79418E-19
 -1      3219 9.57283E-05-2.69070E-05-2.94993E-05-8.05688E-06 6.52522E-20 6.52976E-20
 -1      3220 9.40457E-05-2.59928E-05-2.91647E-05-7.85429E-06-6.65093E-19-2.11449E-19
 -1      3221 9.69269E-05-2.82402E-05-2.94230E-05-9.76881E-06 2.84779E-19-4.75399E-19
 -1      3222 9.62679E-05-2.75720E-05-2.94393E-05-9.30448E-06 1.07116E-19 5.27283E-19
 -1      3223 9.41261E-05-2.64424E-05-2.90126E-05-9.21118E-06 1.68194E-19-3.51813E-19
 -1      3224 9.84894E-05-3.02561E-05-2.92267E-05-1.06499E-05-7.33498E-19-7.08841E-19
 -1      3225 9.73995E-05-2.90363E-05-2.92841E-05-1.04159E-05-2.32390E-19-9.69472E-19
 -1      3226 9.46793E-05-2.76512E-05-2.87449E-05-1.05925E-05 2.23984E-19-9.82624E-19
 -1      3227 1.01357E-04-3.37413E-05-2.89627E-05-1.09452E-05-6.35604E-19-1.04548E-18
 -1      3228 9.95917E-05-3.17433E-05-2.90396E-05-1.11503E-05-1.00842E-18-1.43499E-18
 -1      3229 9.61547E-05-3.00846E-05-2.83590E-05-1.18828E-05-9.30106E-19-1.41504E-18
 -1      3230 1.06192E-04-3.90808E-05-2.87563E-05-1.00709E-05-1.02566E-18-1.81462E-19
 -1      3231 1.03517E-04-3.61796E-05-2.87792E-05-1.10521E-05-7.02202E-19-5.94798E-19
 -1      3232 9.92565E-05-3.43241E-05-2.79114E-05-1.28115E-05-1.10218E-18-2.13097E-18
 -1      3233 1.13485E-04-4.60597E-05-2.89221E-05-7.00795E-06-1.85314E-18 1.24480E-18
 -1      3234 1.09910E-04-4.25575E-05-2.87211E-05-9.24846E-06-1.10846E-18 4.62876E-19
 -1      3235 1.04950E-04-4.08543E-05-2.75932E-05-1.27494E-05-1.22316E-18-5.52378E-19
 -1      3236 1.22872E-04-5.26184E-05-3.01500E-05-2.34778E-07-2.76064E-18 1.64158E-18
 -1      3237 1.18980E-04-5.00218E-05-2.93708E-05-4.29435E-06-2.52778E-18 1.25923E-18
 -1      3238 1.14031E-04-4.92880E-05-2.78697E-05-1.02906E-05-2.44513E-18 5.11767E-19
 -1      3239 1.35143E-04-4.64016E-05-3.82367E-05 1.87053E-05-6.11028E-19 2.04664E-18
 -1      3240 1.35711E-04-5.30542E-05-3.54867E-05 1.48608E-05-1.17251E-18 1.85056E-18
 -1      3241 1.34555E-04-4.50940E-05-3.85080E-05-7.29462E-06 1.10982E-18-1.45944E-18
 -1      3242 9.23675E-05-1.83395E-05-3.17414E-05 1.81148E-06 1.05509E-18-3.53314E-18
 -1      3243 9.22479E-05-1.81374E-05-3.17734E-05 1.05800E-06 5.60569E-19-3.79220E-18
 -1      3244 9.46508E-05-4.79682E-05-2.00827E-05 3.25679E-05 2.41441E-18-2.81178E-18
 -1      3245 7.98355E-05-3.81195E-05-1.76153E-05 3.19583E-05 1.33429E-18-1.43413E-18
 -1      3246 1.28384E-04-5.48150E-05-3.14513E-05-2.13445E-05-7.03421E-19-1.12276E-18
 -1      3247 1.25207E-04-5.56118E-05-3.00420E-05-2.96915E-05-5.49314E-19-2.18429E-18
 -1      3248 4.68190E-05-1.95432E-05-1.12144E-05-1.68711E-05-1.02891E-18-2.65481E-18
 -1      3249 5.81914E-05-2.69456E-05-1.30606E-05-2.65987E-05-1.29660E-18-1.80598E-18
 -1      3250 1.24749E-04-4.95378E-05-3.23670E-05 7.80515E-06-2.21708E-18 3.17684E-19
 -1      3251 1.27396E-04-4.96121E-05-3.32844E-05 2.76791E-06-1.11573E-18-7.20163E-19
 -1      3252 1.29658E-04-4.80402E-05-3.51273E-05-1.74869E-06-2.36812E-19-1.04579E-18
 -1      3253 1.27286E-04-5.27621E-05-3.19190E-05 1.45226E-05-1.82413E-18 1.03762E-20
 -1      3254 9.52135E-05-2.88037E-05-2.84603E-05-9.72751E-07 5.25359E-19-1.28489E-18
 -1      3255 9.51965E-05-2.87882E-05-2.84602E-05-1.02689E-06 5.63843E-19-1.32059E-18
 -1      3256 9.54703E-05-2.88878E-05-2.85374E-05-1.03434E-06 4.52262E-19-1.45080E-18
 -1      3257 9.54241E-05-2.89033E-05-2.85104E-05-9.40485E-07 4.85712E-19-8.75235E-19
 -1      3258 9.53710E-05-2.79586E-05-2.88950E-05-4.74166E-07 1.18501E-18-1.25628E-18
 -1      3259 9.54260E-05-2.77004E-05-2.90120E-05-1.43938E-07 1.29471E-18-1.24790E-18
 -1      3260 6.21017E-05-2.69201E-05-1.48930E-05 2.70588E-05 5.20687E-19-1.07128E-18
 -1      3261 4.92179E-05-1.96854E-05-1.19210E-05 1.98651E-05 7.01290E-19-2.69822E-18
 -1      3262 9.54924E-05-2.55671E-05-2.99553E-05-2.13929E-06-1.58818E-18-2.59335E-18
 -1      3263 9.55354E-05-2.62680E-05-2.96985E-05-1.33070E-06-1.44151E-18-2.55668E-18
 -1      3264 9.57079E-05-2.62056E-05-2.97887E-05-1.17086E-06-1.17561E-18-2.55095E-18
 -1      3265 9.34706E-05-1.98470E-05-3.15490E-05-6.23139E-06-2.13519E-18-3.47976E-18
 -1      3266 7.52488E-05-3.80624E-05-1.55570E-05-3.22122E-05-6.02293E-19-2.02695E-18
 -1      3267 9.18069E-05-4.90367E-05-1.81254E-05-3.39056E-05 2.66392E-19-1.59332E-18
 -1      3268 1.36627E-04-5.18434E-05-3.66473E-05 9.15087E-07-3.19146E-19-6.14681E-19
 -1      3269 1.37784E-04-5.71573E-05-3.46404E-05 7.32226E-06-9.08148E-19-2.13823E-19
 -1      3270 9.52129E-05-2.42769E-05-3.04027E-05 4.27052E-06 2.55364E-18-1.84100E-18
 -1      3271 9.46392E-05-2.27343E-05-3.08062E-05 4.77245E-06 2.59946E-18-2.02560E-18
 -1      3272 9.49165E-05-2.35892E-05-3.05685E-05 3.67473E-06 2.34280E-18-2.10836E-18
 -1      3273 9.52395E-05-2.52023E-05-3.00297E-05 2.99937E-06 2.27546E-18-1.81934E-18
 -1      3274 1.22128E-04-6.07230E-05-2.66997E-05 1.85072E-05 2.23574E-18-1.38662E-18
 -1      3275 1.08977E-04-5.47351E-05-2.28435E-05 2.67883E-05 2.89646E-18-2.68764E-18
 -1      3276 1.35198E-04-5.88470E-05-3.30054E-05 4.78642E-06-2.51001E-18-1.94923E-19
 -1      3277 1.30329E-04-5.36981E-05-3.29248E-05 9.66201E-06-2.15107E-18 2.02269E-18
 -1      3278 1.27709E-04-5.42220E-05-3.13250E-05 4.30988E-06-3.01514E-18 1.95422E-18
 -1      3279 1.30849E-04-6.11384E-05-2.96810E-05-4.77491E-06-3.29067E-18-1.93984E-18
 -1      3280 9.21877E-05-1.80373E-05-3.17917E-05 4.08499E-07 3.89750E-19-3.92577E-18
 -1      3281 9.21840E-05-1.80325E-05-3.17921E-05-3.59547E-07 4.68376E-20-3.90704E-18
 -1      3282 9.31412E-05-1.96209E-05-3.14909E-05 6.28645E-07 4.63513E-19-3.61877E-18
 -1      3283 9.43561E-05-2.19879E-05-3.09893E-05 3.63813E-06 2.08866E-18-2.60614E-18
 -1      3284 9.34275E-05-2.02130E-05-3.14038E-05 4.23468E-06 2.25114E-18-3.00347E-18
 -1      3285 9.30643E-05-1.95481E-05-3.15170E-05 3.65182E-06 1.89463E-18-3.10396E-18
 -1      3286 1.24486E-04-5.80198E-05-2.83928E-05 3.28401E-05-9.40736E-19-7.37197E-19
 -1      3287 1.03550E-04-4.96175E-05-2.28648E-05 2.55360E-05 2.37876E-18-2.43962E-18
 -1      3288 1.21266E-04-5.57969E-05-2.76769E-05-3.77246E-05 9.96323E-20-3.63052E-18
 -1      3289 8.84176E-05-3.93840E-05-2.08722E-05 4.70123E-05-1.67501E-19-6.63650E-19
 -1      3290 7.85629E-05-3.39565E-05-1.77728E-05 4.53165E-05-6.57298E-19 2.11737E-18
 -1      3291 1.33495E-04-5.64708E-05-3.28667E-05 1.26857E-05-1.74730E-18-3.46701E-19
 -1      3292 1.03310E-04-5.24418E-05-2.16355E-05-2.69831E-05-7.45124E-19-3.18510E-18
 -1      3293 1.35355E-04-3.73642E-05-4.24497E-05 2.42429E-05 8.90602E-19 1.76755E-18
 -1      3294 9.25419E-05-1.86344E-05-3.16855E-05 2.42119E-06 1.30698E-18-3.36247E-18
 -1      3295 9.33543E-05-2.00096E-05-3.14146E-05 1.80174E-06 1.08416E-18-3.19378E-18
 -1      3296 9.27811E-05-1.90497E-05-3.16181E-05 3.12224E-06 1.71147E-18-3.19186E-18
 -1      3297 8.22744E-05-3.53049E-05-1.99143E-05 2.67157E-05 1.33180E-18-4.65365E-19
 -1      3298 7.24590E-05-3.14480E-05-1.72086E-05 2.89714E-05 8.50368E-19-8.92667E-19
 -1      3299 6.60294E-05-2.50134E-05-1.75079E-05 2.25678E-05 5.21772E-19-7.16113E-19
 -1      3300 1.27777E-04-5.13215E-05-3.30244E-05-1.18587E-05-8.75905E-19-1.08493E-18
 -1      3301 1.34573E-04-5.75457E-05-3.30236E-05-1.78140E-05-5.84453E-19-1.59183E-18
 -1      3302 1.34203E-04-4.60083E-05-3.79241E-05 2.28722E-06-2.56265E-18-3.23688E-18
 -1      3303 1.22561E-04-4.18311E-05-3.47042E-05 3.16697E-06-1.79703E-18-2.84911E-19
 -1      3304 9.56906E-05-2.73361E-05-2.92999E-05 2.23419E-07 1.41476E-18-1.32050E-18
 -1      3305 9.54131E-05-2.73492E-05-2.91774E-05 2.73017E-07 1.37553E-18-1.22236E-18
 -1      3306 9.54781E-05-2.69424E-05-2.93563E-05 8.32539E-07 1.79832E-18-1.29792E-18
 -1      3307 1.22077E-04-4.39743E-05-3.35287E-05 7.13382E-07-2.23810E-18-2.68602E-19
 -1      3308 9.52734E-05-2.85717E-05-2.85869E-05-1.07782E-06 5.26362E-19-1.18754E-18
 -1      3309 9.52846E-05-2.84674E-05-2.86303E-05-1.00762E-06 6.44906E-19-1.26897E-18
 -1      3310 9.55838E-05-2.86829E-05-2.86752E-05-1.04327E-06 6.09506E-19-1.10156E-18
 -1      3311 1.24475E-04-5.59924E-05-2.95108E-05-3.71936E-06-3.01971E-18 9.16321E-19
 -1      3312 1.19394E-04-4.42788E-05-3.21794E-05-5.76969E-06-2.59143E-18 3.02344E-19
 -1      3313 1.24411E-04-5.79364E-05-2.84086E-05 9.97074E-06 1.83359E-18 6.59574E-19
 -1      3314 9.89472E-05-4.40335E-05-2.37055E-05 4.25102E-05-8.33533E-19-1.38866E-18
 -1      3315 1.40245E-04-5.77126E-05-3.53640E-05-1.16451E-05-1.09596E-18-1.57326E-18
 -1      3316 4.57964E-05-1.67713E-05-1.18911E-05-1.01939E-05-5.94313E-19-2.93243E-18
 -1      3317 5.37653E-05-1.90104E-05-1.46367E-05-1.40706E-05-8.96809E-19-1.83372E-18
 -1      3318 4.66761E-05-1.54569E-05-1.32437E-05-2.22508E-06-1.43202E-20-2.44274E-18
 -1      3319 9.53833E-05-2.65017E-05-2.95310E-05 1.36417E-06 1.96921E-18-1.58208E-18
 -1      3320 9.54260E-05-2.58810E-05-2.97910E-05 2.23055E-06 2.05505E-18-1.61573E-18
 -1      3321 9.53394E-05-2.51610E-05-3.00724E-05 2.61059E-06 2.08182E-18-1.71037E-18
 -1      3322 9.55873E-05-2.64102E-05-2.96534E-05 1.23431E-06 1.70145E-18-1.34503E-18
 -1      3323 6.59163E-05-2.68632E-05-1.65092E-05-2.37172E-05-8.62730E-19-2.32733E-18
 -1      3324 6.98491E-05-3.22506E-05-1.56900E-05-2.87696E-05-9.55691E-19-2.37164E-18
 -1      3325 8.08309E-05-3.70436E-05-1.87586E-05-2.82257E-05-6.20266E-19-2.39890E-18
 -1      3326 9.51857E-05-2.46787E-05-3.02340E-05-2.86642E-06-1.76024E-18-2.80176E-18
 -1      3327 9.52737E-05-2.45597E-05-3.03012E-05-2.52752E-06-1.59098E-18-3.09264E-18
 -1      3328 9.50245E-05-2.37231E-05-3.05587E-05-3.90843E-06-1.90097E-18-2.99297E-18
 -1      3329 9.25154E-05-1.86019E-05-3.16897E-05-2.37774E-06-8.10456E-19-3.98311E-18
 -1      3330 9.27473E-05-1.90049E-05-3.16240E-05-3.07556E-06-1.14720E-18-3.87236E-18
 -1      3331 9.53490E-05-2.81735E-05-2.87806E-05-7.15393E-07 8.21087E-19-1.29683E-18
 -1      3332 9.56899E-05-2.80108E-05-2.90101E-05-4.73908E-07 1.01697E-18-1.33438E-18
 -1      3333 9.53176E-05-2.83388E-05-2.87070E-05-8.89053E-07 6.55934E-19-1.30410E-18
 -1      3334 1.12035E-04-4.98736E-05-2.61919E-05 3.98987E-05-8.77103E-19-1.90499E-18
 -1      3335 4.98467E-05-1.78140E-05-1.33377E-05 1.32282E-05 3.70180E-19-3.47474E-18
 -1      3336 9.40334E-05-2.14105E-05-3.11317E-05-4.99769E-06-1.99269E-18-3.29518E-18
 -1      3337 9.37483E-05-2.07599E-05-3.12637E-05-2.83141E-06-1.21485E-18-3.54708E-18
 -1      3338 9.30443E-05-1.95034E-05-3.15257E-05-3.61639E-06-1.36547E-18-3.66316E-18
 -1      3339 9.34065E-05-2.01593E-05-3.14140E-05-4.22997E-06-1.68851E-18-3.66346E-18
 -1      3340 1.36109E-04-5.23350E-05-3.61718E-05-4.05451E-06-2.25328E-18-2.56953E-18
 -1      3341 1.24806E-04-4.32626E-05-3.49084E-05-1.67888E-05 3.19464E-19 1.60977E-18
 -1      3342 1.33985E-04-4.35997E-05-3.89979E-05-1.75775E-05 5.40036E-19 3.10618E-18
 -1      3343 1.26238E-04-1.46462E-05-4.82362E-05 1.47630E-05 2.99977E-18 1.63191E-18
 -1      3344 1.29278E-04-1.25822E-05-5.06092E-05 1.07260E-05 3.24477E-18 5.15578E-19
 -1      3345 1.35932E-04-5.25200E-05-3.57099E-05-1.11180E-05 2.75630E-19 3.21608E-18
 -1      3346 1.25110E-04-6.10026E-05-2.75747E-05-1.29203E-05-2.56741E-18-3.29079E-18
 -1      3347 1.25383E-04-5.80051E-05-2.88650E-05-6.41748E-06-2.88142E-18-3.15930E-19
 -1      3348 1.20604E-04-5.52978E-05-2.76500E-05-1.04085E-05-2.28097E-18-7.21500E-19
 -1      3349 1.19376E-04-5.82904E-05-2.58275E-05-1.69697E-05-1.94713E-18-3.36845E-18
 -1      3350 1.27830E-04-1.21666E-05-5.00291E-05 4.46612E-06 4.59007E-18 1.51995E-18
 -1      3351 1.26186E-04-5.42169E-05-3.08653E-05-1.81141E-06 9.47671E-19 1.70834E-18
 -1      3352 1.28311E-04-5.61633E-05-3.09884E-05 2.23378E-05-2.01149E-18-2.02395E-20
 -1      3353 9.61659E-05-2.78305E-05-2.92792E-05 2.44533E-07-8.59552E-19-2.19123E-18
 -1      3354 9.61618E-05-2.81499E-05-2.91525E-05 4.95922E-07-8.00093E-19-2.08761E-18
 -1      3355 9.61712E-05-2.84138E-05-2.90331E-05 6.56395E-07-9.28453E-19-1.99210E-18
 -1      3356 9.61413E-05-2.86123E-05-2.89433E-05 7.90291E-07-7.73217E-19-1.96567E-18
 -1      3357 9.63613E-05-2.82233E-05-2.92036E-05 4.72502E-07-8.00521E-19-2.02744E-18
 -1      3358 9.61088E-05-2.87673E-05-2.88566E-05 8.65379E-07-6.25059E-19-1.90942E-18
 -1      3359 9.60686E-05-2.88826E-05-2.87948E-05 9.18635E-07-3.09302E-19-1.81737E-18
 -1      3360 9.63400E-05-2.86974E-05-2.89918E-05 7.26932E-07-6.46168E-19-1.68266E-18
 -1      3361 9.60143E-05-2.89634E-05-2.87335E-05 9.36041E-07-1.93698E-19-2.13904E-18
 -1      3362 9.59718E-05-2.90220E-05-2.86926E-05 9.37221E-07-7.76601E-20-2.01648E-18
 -1      3363 9.62555E-05-2.89707E-05-2.88386E-05 8.36198E-07-4.17175E-19-1.83430E-18
 -1      3364 9.59083E-05-2.90529E-05-2.86508E-05 9.18590E-07-1.25153E-19-2.18319E-18
 -1      3365 9.58675E-05-2.90732E-05-2.86253E-05 8.88983E-07-3.48171E-19-2.16683E-18
 -1      3366 9.61401E-05-2.91061E-05-2.87310E-05 8.49251E-07-2.91858E-19-2.47790E-18
 -1      3367 9.58025E-05-2.90714E-05-2.85983E-05 8.50518E-07-4.71531E-19-2.08298E-18
 -1      3368 9.57654E-05-2.90663E-05-2.85842E-05 8.05546E-07-4.36756E-19-2.10011E-18
 -1      3369 9.60138E-05-2.91487E-05-2.86584E-05 8.04002E-07-3.02592E-19-2.34444E-18
 -1      3370 9.57032E-05-2.90433E-05-2.85683E-05 7.58987E-07-4.67747E-19-1.92851E-18
 -1      3371 9.56704E-05-2.90216E-05-2.85624E-05 7.09572E-07-2.55172E-19-1.57296E-18
 -1      3372 9.58885E-05-2.91298E-05-2.86125E-05 7.28661E-07-3.32169E-19-2.39075E-18
 -1      3373 9.56129E-05-2.89852E-05-2.85549E-05 6.63193E-07-2.22481E-19-1.91187E-18
 -1      3374 9.55844E-05-2.89525E-05-2.85551E-05 6.17016E-07-3.34792E-19-1.68757E-18
 -1      3375 9.57704E-05-2.90712E-05-2.85868E-05 6.43517E-07-2.68255E-19-2.38924E-18
 -1      3376 9.55319E-05-2.89072E-05-2.85539E-05 5.76688E-07-4.05429E-19-1.57979E-18
 -1      3377 9.55070E-05-2.88668E-05-2.85586E-05 5.39267E-07-5.60632E-19-1.49827E-18
 -1      3378 9.56617E-05-2.89864E-05-2.85763E-05 5.62965E-07-1.02809E-19-2.11807E-18
 -1      3379 9.54586E-05-2.88150E-05-2.85623E-05 5.09305E-07-8.55416E-19-1.25594E-18
 -1      3380 9.54363E-05-2.87683E-05-2.85706E-05 4.84802E-07-9.95887E-19-1.46450E-18
 -1      3381 9.55620E-05-2.88835E-05-2.85773E-05 4.97452E-07-6.95249E-19-1.64926E-18
 -1      3382 9.53904E-05-2.87106E-05-2.85780E-05 4.68605E-07-1.02296E-18-1.25314E-18
 -1      3383 9.53694E-05-2.86577E-05-2.85892E-05 4.60471E-07-1.02717E-18-8.37818E-19
 -1      3384 9.54686E-05-2.87660E-05-2.85874E-05 4.54884E-07-6.87448E-19-1.01648E-18
 -1      3385 9.53234E-05-2.85932E-05-2.85999E-05 4.61050E-07-1.23306E-18-4.01092E-19
 -1      3386 9.53023E-05-2.85333E-05-2.86137E-05 4.72509E-07-8.76504E-19-5.93862E-19
 -1      3387 9.53775E-05-2.86338E-05-2.86048E-05 4.41799E-07-9.49155E-19-4.59202E-19
 -1      3388 9.52532E-05-2.84603E-05-2.86271E-05 4.92886E-07-3.60606E-19-7.93084E-19
 -1      3389 9.52303E-05-2.83917E-05-2.86435E-05 5.27293E-07 2.81192E-19-9.59905E-19
 -1      3390 9.52832E-05-2.84845E-05-2.86281E-05 4.64282E-07-8.23377E-19-1.53255E-19
 -1      3391 9.51746E-05-2.83078E-05-2.86591E-05 5.70784E-07 2.52860E-19-7.94752E-19
 -1      3392 9.51480E-05-2.82285E-05-2.86780E-05 6.31848E-07 2.58348E-19-1.15285E-18
 -1      3393 9.51791E-05-2.83136E-05-2.86563E-05 5.28648E-07 1.35075E-19-3.93343E-19
 -1      3394 9.50816E-05-2.81308E-05-2.86955E-05 7.02245E-07 4.41647E-19-1.31769E-18
 -1      3395 9.50494E-05-2.80387E-05-2.87168E-05 7.94140E-07 4.94596E-19-9.41881E-19
 -1      3396 9.50578E-05-2.81159E-05-2.86887E-05 6.41896E-07 1.86621E-19-8.69910E-19
 -1      3397 9.49679E-05-2.79245E-05-2.87358E-05 8.95794E-07 5.19345E-19-7.60456E-19
 -1      3398 9.49281E-05-2.78179E-05-2.87592E-05 1.02313E-06 1.02706E-18-9.71434E-19
 -1      3399 9.49110E-05-2.78854E-05-2.87242E-05 8.11973E-07 6.95118E-19-8.75665E-19
 -1      3400 9.48271E-05-2.76851E-05-2.87786E-05 1.16094E-06 9.77447E-19-1.18176E-18
 -1      3401 9.47779E-05-2.75632E-05-2.88036E-05 1.32860E-06 4.06667E-19-1.56435E-18
 -1      3402 9.47298E-05-2.76171E-05-2.87610E-05 1.04785E-06 5.52031E-19-8.88622E-19
 -1      3403 9.46530E-05-2.74111E-05-2.88222E-05 1.50788E-06-2.56732E-19-1.81152E-18
 -1      3404 9.45934E-05-2.72753E-05-2.88476E-05 1.72068E-06-6.84872E-19-2.11974E-18
 -1      3405 9.45054E-05-2.73080E-05-2.87968E-05 1.35940E-06-3.25748E-19-1.45475E-18
 -1      3406 9.44413E-05-2.71055E-05-2.88632E-05 1.94698E-06-6.41173E-19-1.80058E-18
 -1      3407 9.43719E-05-2.69603E-05-2.88872E-05 2.20916E-06-8.77477E-20-2.14842E-18
 -1      3408 9.42303E-05-2.69591E-05-2.88279E-05 1.75712E-06-3.71064E-19-1.68305E-18
 -1      3409 9.41911E-05-2.67788E-05-2.88968E-05 2.48794E-06 1.70062E-19-2.22517E-18
 -1      3410 9.41150E-05-2.66338E-05-2.89165E-05 2.80246E-06 1.69098E-19-1.87498E-18
 -1      3411 9.38993E-05-2.65784E-05-2.88486E-05 2.25175E-06-1.01976E-19-1.85308E-18
 -1      3412 9.39080E-05-2.64527E-05-2.89158E-05 3.13883E-06 3.76236E-19-1.90217E-18
 -1      3413 9.38335E-05-2.63255E-05-2.89273E-05 3.50649E-06 4.05932E-19-1.66350E-18
 -1      3414 9.35129E-05-2.61845E-05-2.88514E-05 2.85383E-06 4.20941E-19-2.24906E-18
 -1      3415 9.36089E-05-2.61666E-05-2.89107E-05 3.90497E-06 4.09778E-19-1.59497E-18
 -1      3416 9.35529E-05-2.60860E-05-2.89086E-05 4.32343E-06 4.28171E-19-1.54591E-18
 -1      3417 9.30816E-05-2.58123E-05-2.88259E-05 3.57353E-06 4.45532E-19-2.10363E-18
 -1      3418 9.33302E-05-2.59846E-05-2.88691E-05 4.78788E-06 7.12395E-19-1.70674E-18
 -1      3419 9.33229E-05-2.59958E-05-2.88471E-05 5.25043E-06 5.03722E-19-1.39376E-18
 -1      3420 9.26319E-05-2.55201E-05-2.87590E-05 4.42091E-06 4.90618E-19-2.58144E-18
 -1      3421 9.31383E-05-2.60061E-05-2.87766E-05 5.78415E-06 8.99212E-20-1.34217E-18
 -1      3422 9.32314E-05-2.61762E-05-2.87280E-05 6.27811E-06 2.98269E-19-1.32284E-18
 -1      3423 9.22169E-05-2.53988E-05-2.86348E-05 5.40693E-06 4.09711E-19-1.96736E-18
 -1      3424 9.31474E-05-2.63777E-05-2.86187E-05 6.88343E-06-2.09683E-19-1.64914E-18
 -1      3425 9.34236E-05-2.68023E-05-2.85381E-05 7.38707E-06-2.95319E-19-1.62907E-18
 -1      3426 9.19311E-05-2.55845E-05-2.84366E-05 6.54477E-06-2.36980E-19-1.56664E-18
 -1      3427 9.35425E-05-2.73063E-05-2.83846E-05 8.06259E-06-1.07659E-18-2.98974E-18
 -1      3428 9.41281E-05-2.81141E-05-2.82724E-05 8.53809E-06-1.05590E-18-3.09444E-18
 -1      3429 9.19322E-05-2.62728E-05-2.81495E-05 7.84948E-06-1.51276E-18-3.27415E-18
 -1      3430 9.46114E-05-2.90684E-05-2.80771E-05 9.26857E-06 3.39097E-19-2.56023E-18
 -1      3431 9.56859E-05-3.04191E-05-2.79458E-05 9.64545E-06 8.35297E-19-2.19313E-18
 -1      3432 9.24735E-05-2.77347E-05-2.77684E-05 9.32960E-06 9.20652E-21-2.95900E-18
 -1      3433 9.67807E-05-3.20048E-05-2.77283E-05 1.03718E-05 5.05066E-19-2.02643E-18
 -1      3434 9.85666E-05-3.40608E-05-2.76152E-05 1.05097E-05 2.78532E-19-2.19755E-18
 -1      3435 9.39483E-05-3.03284E-05-2.73113E-05 1.09548E-05 8.45814E-19-2.68463E-18
 -1      3436 1.00632E-04-3.64548E-05-2.74318E-05 1.10452E-05 4.73741E-19-1.94090E-18
 -1      3437 1.03334E-04-3.92924E-05-2.74225E-05 1.06749E-05 9.07470E-19-8.10588E-19
 -1      3438 9.69620E-05-3.44924E-05-2.68468E-05 1.25743E-05 6.42794E-19-2.67702E-18
 -1      3439 1.06775E-04-4.25199E-05-2.74114E-05 1.05938E-05 2.90370E-19-3.50465E-19
 -1      3440 1.10390E-04-4.59233E-05-2.76555E-05 9.32662E-06 5.07379E-19-3.47011E-19
 -1      3441 1.02246E-04-4.04869E-05-2.65540E-05 1.36317E-05 1.04130E-18-1.75408E-18
 -1      3442 1.16214E-04-4.98302E-05-2.82895E-05 6.84702E-06 5.20005E-19 1.67989E-19
 -1      3443 1.19940E-04-5.23572E-05-2.90630E-05 4.03187E-06 4.85648E-19 1.48158E-18
 -1      3444 1.24307E-04-5.59984E-05-2.93843E-05 4.89242E-06 1.00960E-18 1.27776E-18
 -1      3445 1.11489E-04-4.86474E-05-2.70415E-05 1.21324E-05 8.66141E-19-4.54936E-19
 -1      3446 9.54880E-05-2.89086E-05-2.85326E-05-6.62899E-07-2.66496E-19-1.03582E-18
 -1      3447 9.55029E-05-2.89334E-05-2.85301E-05-7.14078E-07-1.24972E-19-1.23385E-18
 -1      3448 9.55496E-05-2.89632E-05-2.85357E-05-7.65455E-07 1.55199E-19-1.19684E-18
 -1      3449 9.55680E-05-2.89776E-05-2.85386E-05-8.19424E-07 3.90862E-19-9.97250E-19
 -1      3450 9.56723E-05-2.90242E-05-2.85648E-05-7.09627E-07 8.00311E-20-8.43432E-19
 -1      3451 9.53863E-05-2.87571E-05-2.85539E-05-5.09941E-07-4.25817E-19-8.16280E-19
 -1      3452 9.53963E-05-2.87949E-05-2.85443E-05-5.39562E-07-3.11476E-19-9.91259E-19
 -1      3453 9.53427E-05-2.86650E-05-2.85746E-05-4.75717E-07-1.87973E-19-9.86924E-19
 -1      3454 9.53513E-05-2.87082E-05-2.85623E-05-4.88856E-07-1.11186E-19-9.41337E-19
 -1      3455 9.54346E-05-2.87654E-05-2.85731E-05-4.88590E-07-2.52291E-19-1.28526E-18
 -1      3456 9.53002E-05-2.85609E-05-2.86009E-05-4.78516E-07-3.55684E-19-1.19263E-18
 -1      3457 9.53084E-05-2.86103E-05-2.85861E-05-4.71869E-07-3.35710E-19-8.35590E-19
 -1      3458 9.53658E-05-2.86517E-05-2.85921E-05-4.66177E-07-1.00502E-19-1.42799E-18
 -1      3459 9.52555E-05-2.84417E-05-2.86327E-05-5.24950E-07 5.08216E-20-1.29699E-18
 -1      3460 9.52641E-05-2.84988E-05-2.86152E-05-4.95045E-07-2.07907E-19-1.28796E-18
 -1      3461 9.52957E-05-2.85227E-05-2.86172E-05-4.80742E-07-1.90879E-19-1.80191E-18
 -1      3462 9.52043E-05-2.83029E-05-2.86700E-05-6.22375E-07 3.85842E-19-7.84549E-19
 -1      3463 9.52145E-05-2.83697E-05-2.86496E-05-5.65290E-07 4.48805E-19-8.89342E-19
 -1      3464 9.52190E-05-2.83743E-05-2.86476E-05-5.38885E-07 1.89350E-19-1.62738E-18
 -1      3465 9.51414E-05-2.81388E-05-2.87131E-05-7.79288E-07 1.77704E-19-1.84132E-19
 -1      3466 9.51548E-05-2.82179E-05-2.86895E-05-6.90474E-07 2.34360E-19-7.32443E-19
 -1      3467 9.51291E-05-2.82007E-05-2.86832E-05-6.47922E-07 1.57828E-19-7.39673E-19
 -1      3468 9.50607E-05-2.79430E-05-2.87621E-05-1.00550E-06 4.90895E-19-2.79659E-19
 -1      3469 9.50790E-05-2.80372E-05-2.87350E-05-8.79724E-07 6.95559E-19-5.81905E-19
 -1      3470 9.50179E-05-2.79948E-05-2.87235E-05-8.16183E-07 5.58817E-19-8.34570E-19
 -1      3471 9.49549E-05-2.77092E-05-2.88166E-05-1.31207E-06 1.14436E-18-1.59811E-19
 -1      3472 9.49804E-05-2.78211E-05-2.87860E-05-1.14348E-06 6.85713E-19-8.66979E-20
 -1      3473 9.48763E-05-2.77489E-05-2.87677E-05-1.05311E-06 6.43219E-19-1.29645E-18
 -1      3474 9.48152E-05-2.74313E-05-2.88753E-05-1.71095E-06 3.41603E-19 5.23758E-20
 -1      3475 9.48505E-05-2.75633E-05-2.88417E-05-1.49331E-06 8.08766E-19-2.30764E-20
 -1      3476 9.46930E-05-2.74554E-05-2.88143E-05-1.36911E-06 9.25605E-19-8.29750E-19
 -1      3477 9.46315E-05-2.71055E-05-2.89358E-05-2.21435E-06-5.18923E-19 2.23458E-19
 -1      3478 9.46797E-05-2.72584E-05-2.89001E-05-1.94145E-06 1.17198E-19-7.12298E-21
 -1      3479 9.44554E-05-2.71074E-05-2.88608E-05-1.77515E-06 1.89224E-19-9.97652E-21
 -1      3480 9.43931E-05-2.67317E-05-2.89935E-05-2.83376E-06-1.05035E-18 8.58431E-20
 -1      3481 9.44575E-05-2.69042E-05-2.89578E-05-2.50006E-06-6.40398E-19 1.34010E-19
 -1      3482 9.41491E-05-2.67009E-05-2.89027E-05-2.28222E-06-5.08549E-19 4.66266E-21
 -1      3483 9.40903E-05-2.63176E-05-2.90407E-05-3.57884E-06-5.81992E-19-3.30174E-19
 -1      3484 9.41728E-05-2.65038E-05-2.90087E-05-3.18023E-06-1.05960E-18-1.22506E-19
 -1      3485 9.37589E-05-2.62366E-05-2.89332E-05-2.90055E-06-8.26381E-19-4.88196E-19
 -1      3486 9.37172E-05-2.58841E-05-2.90661E-05-4.45617E-06-1.19163E-18 5.29076E-19
 -1      3487 9.38171E-05-2.60706E-05-2.90434E-05-3.99093E-06-8.72894E-19-1.22308E-19
 -1      3488 9.32704E-05-2.57246E-05-2.89419E-05-3.63916E-06-8.95851E-19-7.00217E-19
 -1      3489 9.32792E-05-2.54745E-05-2.90531E-05-5.46874E-06-6.89324E-19 5.89527E-19
 -1      3490 9.33885E-05-2.56350E-05-2.90477E-05-4.93834E-06-6.53150E-19 8.48525E-19
 -1      3491 9.26739E-05-2.51902E-05-2.89138E-05-4.50608E-06-1.33752E-18-1.78841E-19
 -1      3492 9.28046E-05-2.51687E-05-2.89791E-05-6.61653E-06 5.45025E-20 2.21263E-20
 -1      3493 9.29004E-05-2.52561E-05-2.90021E-05-6.02619E-06-2.37954E-19 3.81183E-19
 -1      3494 9.19706E-05-2.46838E-05-2.88281E-05-5.51035E-06-2.58486E-19-6.15592E-19
 -1      3495 9.23660E-05-2.51044E-05-2.88153E-05-7.89930E-06-6.35208E-19-1.21840E-18
 -1      3496 9.23982E-05-2.50390E-05-2.88806E-05-7.25799E-06-3.10813E-19-6.49827E-19
 -1      3497 9.11852E-05-2.42957E-05-2.86573E-05-6.66732E-06 2.66371E-19-1.82227E-19
 -1      3498 9.21157E-05-2.55061E-05-2.85295E-05-9.32059E-06 3.06293E-19-5.90587E-19
 -1      3499 9.19854E-05-2.51593E-05-2.86515E-05-8.64143E-06-3.75533E-19-8.73071E-19
 -1      3500 9.03869E-05-2.41779E-05-2.83672E-05-8.00839E-06-4.14731E-19-1.22985E-18
 -1      3501 9.23399E-05-2.67227E-05-2.80930E-05-1.08888E-05-5.29524E-19-3.47480E-19
 -1      3502 9.18688E-05-2.58973E-05-2.82819E-05-1.01933E-05 4.20804E-19-1.05423E-19
 -1      3503 8.97241E-05-2.45743E-05-2.79190E-05-9.59557E-06-3.68959E-20-3.87744E-19
 -1      3504 9.35388E-05-2.92652E-05-2.74990E-05-1.25952E-05-6.17403E-19-1.12897E-18
 -1      3505 9.24292E-05-2.76780E-05-2.77485E-05-1.19333E-05-5.18238E-19-1.02307E-18
 -1      3506 8.94848E-05-2.58659E-05-2.72767E-05-1.15348E-05-3.11663E-20-3.02308E-19
 -1      3507 9.65078E-05-3.38185E-05-2.68016E-05-1.43323E-05-1.10893E-18-1.58178E-18
 -1      3508 9.43257E-05-3.11051E-05-2.70646E-05-1.38350E-05-8.09023E-19-1.59973E-18
 -1      3509 9.01915E-05-2.86233E-05-2.64249E-05-1.39615E-05-6.35220E-19-1.01197E-18
 -1      3510 1.02279E-04-4.10468E-05-2.61905E-05-1.56071E-05-1.57952E-18-5.99051E-19
 -1      3511 9.86194E-05-3.69256E-05-2.63440E-05-1.55798E-05-1.49221E-18-1.35563E-18
 -1      3512 9.28300E-05-3.37247E-05-2.54155E-05-1.69223E-05-1.40439E-18-8.94027E-19
 -1      3513 1.12905E-04-5.06819E-05-2.66772E-05-1.36842E-05-2.33241E-18-6.09864E-19
 -1      3514 1.07579E-04-4.55401E-05-2.63508E-05-1.52137E-05-1.87573E-18-4.95971E-19
 -1      3515 9.97924E-05-4.18626E-05-2.49565E-05-1.87750E-05-1.38807E-18-1.00261E-18
 -1      3516 1.12283E-04-5.22826E-05-2.58746E-05-1.66703E-05-1.83428E-18-2.01129E-18
 -1      3517 1.10295E-04-1.65027E-05-4.12493E-05 9.74813E-06 2.39207E-18 2.76129E-18
 -1      3518 9.54340E-05-2.88386E-05-2.85395E-05-5.74720E-07-1.91934E-19-1.03502E-18
 -1      3519 9.54462E-05-2.88707E-05-2.85329E-05-6.17277E-07-2.30663E-19-1.01252E-18
 -1      3520 9.55852E-05-2.89537E-05-2.85574E-05-6.18085E-07-2.00591E-19-1.25305E-18
 -1      3521 9.55066E-05-2.88662E-05-2.85610E-05-5.41556E-07-1.76941E-19-1.44252E-18
 -1      3522 9.57777E-05-2.89334E-05-2.86473E-05-1.00903E-06 5.02794E-19-1.01941E-18
 -1      3523 9.58082E-05-2.88729E-05-2.86837E-05-1.00685E-06 5.82702E-19-9.61336E-19
 -1      3524 9.23532E-05-1.83170E-05-3.17444E-05-1.75914E-06-5.65349E-19-3.92054E-18
 -1      3525 9.33444E-05-1.99866E-05-3.14184E-05-1.76725E-06-7.29457E-19-3.62970E-18
 -1      3526 9.22385E-05-1.81247E-05-3.17750E-05-1.00704E-06-2.06651E-19-3.87062E-18
 -1      3527 5.63222E-05-1.85591E-05-1.61434E-05 1.39382E-05 4.15921E-19-2.53670E-18
 -1      3528 4.98769E-05-1.53676E-05-1.42378E-05 6.40995E-06-1.45485E-20-2.94879E-18
 -1      3529 5.38039E-05-1.59792E-05-1.59728E-05 5.05329E-07-4.30663E-19-2.64338E-18
 -1      3530 9.56754E-05-2.55292E-05-3.00588E-05-1.51092E-06-1.08077E-18-2.85473E-18
 -1      3531 9.58237E-05-2.62558E-05-2.98247E-05-8.82409E-07-8.81130E-19-2.66069E-18
 -1      3532 9.40127E-05-2.13539E-05-3.11350E-05-4.32715E-06-1.78385E-18-3.50404E-18
 -1      3533 1.17244E-04-5.44675E-05-2.66287E-05 1.46412E-05 1.95455E-18-8.05376E-19
 -1      3534 9.32368E-05-4.44400E-05-2.04734E-05-2.80997E-05-2.30287E-19-2.21478E-18
 -1      3535 1.06796E-04-5.28929E-05-2.32154E-05-2.40765E-05-5.62165E-19-3.14802E-18
 -1      3536 1.09041E-04-5.20322E-05-2.44007E-05-2.02674E-05-1.11043E-18-2.32166E-18
 -1      3537 9.60344E-05-2.69112E-05-2.96142E-05-4.43898E-07-8.53441E-19-2.47552E-18
 -1      3538 9.60845E-05-2.74090E-05-2.94398E-05-3.18963E-08-8.87967E-19-2.36582E-18
 -1      3539 9.62708E-05-2.74636E-05-2.94894E-05 1.34870E-08-7.27164E-19-2.31376E-18
 -1      3540 9.52796E-05-2.45655E-05-3.03028E-05 2.87038E-06 2.06232E-18-1.95766E-18
 -1      3541 9.49796E-05-2.37227E-05-3.05467E-05 3.09507E-06 2.09745E-18-2.24834E-18
 -1      3542 9.54310E-05-2.52949E-05-3.00635E-05 2.07337E-06 1.79855E-18-1.83446E-18
 -1      3543 1.08483E-04-5.08785E-05-2.49002E-05 2.05846E-05 2.11613E-18-2.11955E-18
 -1      3544 9.71900E-05-4.40089E-05-2.26263E-05 2.48534E-05 1.62838E-18-2.12903E-18
 -1      3545 1.26144E-04-4.89826E-05-3.30532E-05-8.72749E-06-1.97147E-18-1.98975E-18
 -1      3546 9.47479E-05-2.30684E-05-3.07189E-05 2.87537E-06 1.86546E-18-2.48866E-18
 -1      3547 9.58997E-05-2.73787E-05-2.93733E-05 9.97161E-08 1.31586E-18-1.65305E-18
 -1      3548 9.58965E-05-2.69154E-05-2.95487E-05 5.61042E-07 1.43774E-18-1.66758E-18
 -1      3549 9.37677E-05-2.07892E-05-3.12540E-05 2.84605E-06 1.62725E-18-2.92131E-18
 -1      3550 9.60787E-05-2.88884E-05-2.87984E-05-9.14179E-07 4.48997E-19-1.30392E-18
 -1      3551 9.58567E-05-2.87935E-05-2.87421E-05-9.83788E-07 4.86630E-19-1.24078E-18
 -1      3552 9.58894E-05-2.86803E-05-2.87994E-05-9.24693E-07 4.53855E-19-1.22325E-18
 -1      3553 1.24224E-04-5.57173E-05-2.94445E-05 2.93866E-05-1.16594E-18-1.48503E-18
 -1      3554 9.56964E-05-2.89913E-05-2.85871E-05-9.59605E-07 2.98810E-19-1.04597E-18
 -1      3555 9.57230E-05-2.89663E-05-2.86084E-05-9.91135E-07 2.85884E-19-1.05998E-18
 -1      3556 9.59788E-05-2.90273E-05-2.86958E-05-9.34107E-07 4.65146E-19-1.05587E-18
 -1      3557 8.99396E-05-3.87008E-05-2.18838E-05 2.53316E-05 1.50907E-18-1.67461E-18
 -1      3558 8.23955E-05-3.23737E-05-2.14235E-05 2.28641E-05 1.72052E-18-1.17710E-18
 -1      3559 9.63098E-05-4.03198E-05-2.38609E-05 2.06794E-05 1.31816E-18-2.45409E-18
 -1      3560 1.31333E-04-5.03639E-05-3.45988E-05-4.40212E-06-1.93531E-18-3.28102E-18
 -1      3561 9.56436E-05-2.84309E-05-2.88096E-05-8.65139E-07 6.13255E-19-1.41638E-18
 -1      3562 8.63877E-05-3.84398E-05-2.03323E-05-2.59697E-05-4.26163E-20-2.50716E-18
 -1      3563 9.59672E-05-2.77837E-05-2.92119E-05-2.24833E-07 9.95656E-19-1.53008E-18
 -1      3564 9.61043E-05-2.74072E-05-2.94428E-05 4.60065E-08 1.10601E-18-1.83785E-18
 -1      3565 9.59485E-05-2.80879E-05-2.90877E-05-5.02438E-07 8.08420E-19-1.50738E-18
 -1      3566 9.57686E-05-2.90700E-05-2.85867E-05-8.04602E-07 5.45158E-19-9.81087E-19
 -1      3567 9.56194E-05-2.89949E-05-2.85522E-05-8.70140E-07 5.05034E-19-8.43139E-19
 -1      3568 9.56418E-05-2.89937E-05-2.85628E-05-9.18773E-07 5.43475E-19-8.05343E-19
 -1      3569 9.40876E-05-2.15126E-05-3.11180E-05 1.76270E-06 1.14943E-18-2.91762E-18
 -1      3570 9.39494E-05-2.12201E-05-3.11769E-05 1.24702E-06 8.59005E-19-3.14887E-18
 -1      3571 9.59824E-05-2.62858E-05-2.98664E-05-7.07050E-07-8.29840E-19-2.70497E-18
 -1      3572 1.10812E-04-4.97679E-05-2.61154E-05 1.55008E-05 1.31540E-18-1.36291E-18
 -1      3573 9.38620E-05-2.10475E-05-3.12179E-05 8.06163E-07 6.33947E-19-3.36192E-18
 -1      3574 9.38146E-05-2.09496E-05-3.12374E-05 2.46165E-07 3.40690E-19-3.58007E-18
 -1      3575 9.46094E-05-2.23868E-05-3.09344E-05 8.26489E-07 6.77714E-19-3.06063E-18
 -1      3576 9.31363E-05-1.96127E-05-3.14920E-05-5.87383E-07-1.08112E-19-3.62995E-18
 -1      3577 9.39412E-05-2.12052E-05-3.11808E-05-1.21534E-06-4.33206E-19-3.38936E-18
 -1      3578 9.40787E-05-2.14780E-05-3.11278E-05-1.74070E-06-8.02086E-19-3.46073E-18
 -1      3579 7.08475E-05-2.51123E-05-1.95411E-05 2.00582E-05 1.23784E-18 1.16467E-20
 -1      3580 6.32916E-05-2.12815E-05-1.76263E-05 1.81344E-05 1.02708E-18-1.09453E-18
 -1      3581 6.15152E-05-1.88392E-05-1.82719E-05 1.24597E-05 7.15472E-19-1.65084E-18
 -1      3582 5.80539E-05-1.91798E-05-1.65914E-05-1.34514E-05-1.34519E-19-2.14686E-18
 -1      3583 6.10848E-05-2.21436E-05-1.62190E-05-1.92391E-05-8.46927E-19-2.43940E-18
 -1      3584 7.00492E-05-2.68340E-05-1.83816E-05-2.16483E-05-4.95448E-19-3.04294E-18
 -1      3585 9.53375E-05-2.46427E-05-3.03058E-05-2.00665E-06-1.21154E-18-3.06851E-18
 -1      3586 9.54535E-05-2.47139E-05-3.03242E-05-1.66776E-06-9.23189E-19-2.98376E-18
 -1      3587 9.50357E-05-2.36716E-05-3.05852E-05-2.77222E-06-1.36685E-18-3.32165E-18
 -1      3588 9.48711E-05-2.30713E-05-3.07529E-05-1.75671E-06-8.38019E-19-3.18654E-18
 -1      3589 9.43268E-05-2.20500E-05-3.09786E-05-2.37123E-06-1.05793E-18-3.39214E-18
 -1      3590 1.31776E-04-5.39845E-05-3.34263E-05-7.61915E-06 5.32837E-19 4.12558E-18
 -1      3591 1.34023E-04-5.01430E-05-3.60236E-05-1.42660E-06-3.18242E-18-4.20930E-18
 -1      3592 9.65169E-05-2.80240E-05-2.93495E-05 2.93656E-07-6.15067E-19-2.24636E-18
 -1      3593 9.65287E-05-2.83473E-05-2.92243E-05 4.74217E-07-6.53506E-19-2.11951E-18
 -1      3594 9.58677E-05-2.62737E-05-2.98320E-05 8.86433E-07 1.47879E-18-2.11827E-18
 -1      3595 9.57004E-05-2.62694E-05-2.97666E-05 1.05410E-06 1.44325E-18-1.86351E-18
 -1      3596 9.44661E-05-2.23424E-05-3.09291E-05 2.55933E-06 1.63053E-18-2.72752E-18
 -1      3597 9.42433E-05-2.18484E-05-3.10323E-05 2.13814E-06 1.32548E-18-2.73500E-18
 -1      3598 9.48181E-05-2.28917E-05-3.08065E-05 1.55564E-06 1.10741E-18-2.59178E-18
 -1      3599 9.65380E-05-2.86102E-05-2.91081E-05 5.73672E-07-5.78473E-19-2.00389E-18
 -1      3600 9.65069E-05-2.88074E-05-2.90159E-05 6.67980E-07-5.20899E-19-1.87775E-18
 -1      3601 9.66687E-05-2.84363E-05-2.92429E-05 4.24797E-07-4.86901E-19-2.29629E-18
 -1      3602 9.64667E-05-2.89581E-05-2.89294E-05 7.09828E-07-3.94259E-19-1.83892E-18
 -1      3603 9.64133E-05-2.90669E-05-2.88632E-05 7.44611E-07-3.64123E-19-2.06489E-18
 -1      3604 9.66373E-05-2.88890E-05-2.90363E-05 5.80111E-07-4.14069E-19-2.29005E-18
 -1      3605 9.63460E-05-2.91402E-05-2.88005E-05 7.47772E-07-5.53915E-19-1.94694E-18
 -1      3606 9.62830E-05-2.91882E-05-2.87546E-05 7.44202E-07-4.08433E-19-2.05560E-18
 -1      3607 9.65304E-05-2.91394E-05-2.88836E-05 6.39403E-07-4.99092E-19-2.05005E-18
 -1      3608 9.62034E-05-2.92090E-05-2.87106E-05 7.23801E-07-2.23827E-19-2.06869E-18
 -1      3609 9.61386E-05-2.92161E-05-2.86802E-05 6.98019E-07-1.35718E-19-2.12543E-18
 -1      3610 9.63847E-05-2.92500E-05-2.87739E-05 6.35550E-07-5.28466E-19-1.89888E-18
 -1      3611 9.60559E-05-2.92022E-05-2.86508E-05 6.65587E-07-2.07213E-19-2.16666E-18
 -1      3612 9.59937E-05-2.91823E-05-2.86323E-05 6.29529E-07-2.54803E-19-1.97031E-18
 -1      3613 9.62238E-05-2.92660E-05-2.86981E-05 5.94666E-07-1.20982E-19-1.76976E-18
 -1      3614 9.59134E-05-2.91462E-05-2.86142E-05 5.93313E-07-1.97080E-19-1.87501E-18
 -1      3615 9.58558E-05-2.91087E-05-2.86046E-05 5.55390E-07-2.71385E-19-1.74985E-18
 -1      3616 9.60625E-05-2.92194E-05-2.86487E-05 5.36455E-07-2.62577E-20-1.79743E-18
 -1      3617 9.57802E-05-2.90581E-05-2.85952E-05 5.21233E-07-2.68926E-19-1.41919E-18
 -1      3618 9.57275E-05-2.90087E-05-2.85924E-05 4.87591E-07-1.32060E-20-1.43175E-18
 -1      3619 9.59082E-05-2.91322E-05-2.86197E-05 4.74725E-07-3.08318E-20-1.25673E-18
 -1      3620 9.56568E-05-2.89481E-05-2.85897E-05 4.59822E-07-1.84474E-19-1.49372E-18
 -1      3621 9.56081E-05-2.88899E-05-2.85922E-05 4.34981E-07-5.52991E-19-1.16274E-18
 -1      3622 9.57633E-05-2.90176E-05-2.86065E-05 4.19757E-07-2.04848E-19-1.29400E-18
 -1      3623 9.55408E-05-2.88212E-05-2.85947E-05 4.16857E-07-6.74170E-19-7.94775E-19
 -1      3624 9.54945E-05-2.87552E-05-2.86013E-05 4.04361E-07-5.35811E-19-5.79470E-19
 -1      3625 9.56265E-05-2.88825E-05-2.86054E-05 3.79176E-07-3.11296E-19-1.04987E-18
 -1      3626 9.54278E-05-2.86783E-05-2.86078E-05 3.98574E-07-5.04058E-19-4.07580E-19
 -1      3627 9.53814E-05-2.86037E-05-2.86177E-05 4.01512E-07-8.30534E-19-1.18202E-19
 -1      3628 9.54938E-05-2.87294E-05-2.86137E-05 3.58932E-07-5.30124E-19-9.78279E-19
 -1      3629 9.53116E-05-2.85170E-05-2.86275E-05 4.10608E-07-8.61434E-19-8.91168E-20
 -1      3630 9.52621E-05-2.84321E-05-2.86402E-05 4.31992E-07-6.23362E-19 4.15102E-20
 -1      3631 9.53587E-05-2.85567E-05-2.86295E-05 3.64235E-07-5.10276E-19-4.83783E-19
 -1      3632 9.51847E-05-2.83330E-05-2.86524E-05 4.58655E-07-2.61700E-19 3.14891E-19
 -1      3633 9.51284E-05-2.82352E-05-2.86673E-05 5.01694E-07-8.74890E-20-1.18626E-19
 -1      3634 9.52131E-05-2.83599E-05-2.86509E-05 4.00213E-07-3.95731E-19 4.64174E-20
 -1      3635 9.50380E-05-2.81202E-05-2.86812E-05 5.48961E-07-2.06643E-19 5.09056E-20
 -1      3636 9.49710E-05-2.80063E-05-2.86978E-05 6.17232E-07 2.64494E-19-5.23669E-19
 -1      3637 9.50469E-05-2.81330E-05-2.86765E-05 4.72392E-07 7.62073E-20 4.41552E-19
 -1      3638 9.48615E-05-2.78718E-05-2.87126E-05 6.88641E-07 6.88923E-19-4.34187E-19
 -1      3639 9.47793E-05-2.77390E-05-2.87302E-05 7.86174E-07 7.21802E-19-5.10369E-19
 -1      3640 9.48490E-05-2.78686E-05-2.87044E-05 5.87048E-07 3.60323E-19 6.18234E-19
 -1      3641 9.46441E-05-2.75814E-05-2.87445E-05 8.85856E-07 4.68188E-19-7.34604E-19
 -1      3642 9.45423E-05-2.74272E-05-2.87621E-05 1.01713E-06 1.15141E-19-9.43499E-19
 -1      3643 9.46066E-05-2.75592E-05-2.87325E-05 7.51442E-07 3.77011E-19 1.72166E-19
 -1      3644 9.43745E-05-2.72442E-05-2.87743E-05 1.14986E-06-3.55410E-19-1.24288E-18
 -1      3645 9.42487E-05-2.70677E-05-2.87902E-05 1.31970E-06-3.31135E-19-8.59198E-19
 -1      3646 9.43064E-05-2.71986E-05-2.87576E-05 9.73970E-07-4.50024E-19-5.92920E-19
 -1      3647 9.40417E-05-2.68585E-05-2.87979E-05 1.49093E-06-1.54438E-19-1.47627E-18
 -1      3648 9.38885E-05-2.66615E-05-2.88097E-05 1.70439E-06-2.32957E-19-1.01723E-18
 -1      3649 9.39348E-05-2.67835E-05-2.87754E-05 1.26427E-06-2.71820E-19-3.10720E-19
 -1      3650 9.36363E-05-2.64288E-05-2.88094E-05 1.92032E-06-1.91984E-19-1.08335E-18
 -1      3651 9.34543E-05-2.62172E-05-2.88138E-05 2.18250E-06 4.39797E-19-6.74542E-19
 -1      3652 9.34792E-05-2.63154E-05-2.87798E-05 1.63340E-06-1.14515E-19-1.92983E-19
 -1      3653 9.31533E-05-2.59686E-05-2.88007E-05 2.45028E-06-9.37116E-20-1.09000E-18
 -1      3654 9.29447E-05-2.57549E-05-2.87929E-05 2.76625E-06-2.08662E-19-1.43558E-18
 -1      3655 9.29298E-05-2.58044E-05-2.87624E-05 2.09418E-06-2.34444E-19-2.18183E-20
 -1      3656 9.25948E-05-2.55055E-05-2.87609E-05 3.09450E-06 6.12571E-20-2.22593E-18
 -1      3657 9.23683E-05-2.53116E-05-2.87350E-05 3.46947E-06 2.14554E-19-2.17769E-18
 -1      3658 9.22823E-05-2.52728E-05-2.87119E-05 2.66212E-06-6.62904E-19-1.61445E-18
 -1      3659 9.19758E-05-2.50872E-05-2.86761E-05 3.86930E-06 1.10957E-19-2.64455E-18
 -1      3660 9.17505E-05-2.49481E-05-2.86244E-05 4.30921E-06 1.90900E-19-2.94047E-18
 -1      3661 9.15423E-05-2.47605E-05-2.86137E-05 3.35721E-06 1.27400E-20-2.05766E-18
 -1      3662 9.13315E-05-2.47891E-05-2.85288E-05 4.79619E-06 6.73836E-19-2.87258E-18
 -1      3663 9.11434E-05-2.47586E-05-2.84426E-05 5.30885E-06 7.99222E-19-2.29672E-18
 -1      3664 9.07305E-05-2.43316E-05-2.84494E-05 4.20752E-06 3.16694E-19-2.62189E-18
 -1      3665 9.07295E-05-2.47252E-05-2.82991E-05 5.90605E-06-1.64987E-19-2.28755E-18
 -1      3666 9.06405E-05-2.48821E-05-2.81695E-05 6.50254E-06-4.50323E-19-2.09816E-18
 -1      3667 8.98917E-05-2.40834E-05-2.81972E-05 5.25505E-06 2.70773E-19-2.07711E-18
 -1      3668 9.02876E-05-2.50612E-05-2.79660E-05 7.24442E-06-1.13830E-18-2.35602E-18
 -1      3669 9.03996E-05-2.55182E-05-2.77861E-05 7.93936E-06-1.60040E-18-2.48545E-18
 -1      3670 8.91081E-05-2.41580E-05-2.78321E-05 6.56453E-06-1.12484E-18-2.13025E-18
 -1      3671 9.02032E-05-2.60317E-05-2.75123E-05 8.87464E-06-8.08114E-19-2.14884E-18
 -1      3672 9.06784E-05-2.69459E-05-2.72819E-05 9.68097E-06 3.30817E-19-2.16873E-18
 -1      3673 8.85217E-05-2.47592E-05-2.73294E-05 8.23339E-06-8.94111E-19-1.11842E-18
 -1      3674 9.08009E-05-2.79637E-05-2.69334E-05 1.08705E-05 8.07006E-19-2.66844E-18
 -1      3675 9.18839E-05-2.95518E-05-2.66678E-05 1.17833E-05 5.51270E-19-2.86206E-18
 -1      3676 8.83714E-05-2.61787E-05-2.66693E-05 1.03984E-05-4.29846E-20-2.22742E-18
 -1      3677 9.26036E-05-3.12901E-05-2.62561E-05 1.32404E-05 5.99832E-19-3.10033E-18
 -1      3678 9.45631E-05-3.38190E-05-2.59904E-05 1.42181E-05 1.23423E-18-2.41132E-18
 -1      3679 8.90958E-05-2.88743E-05-2.58498E-05 1.32106E-05 1.05070E-18-3.14871E-18
 -1      3680 1.04660E-04-4.46173E-05-2.55774E-05 1.69065E-05 5.73878E-19-1.95599E-18
 -1      3681 9.57812E-05-2.90740E-05-2.85874E-05-6.27847E-07 8.46339E-20-8.52210E-19
 -1      3682 9.58280E-05-2.91045E-05-2.85955E-05-6.71228E-07 3.20678E-19-8.66481E-19
 -1      3683 9.53841E-05-2.86311E-05-2.86070E-05-4.33726E-07-6.59259E-20-1.43492E-18
 -1      3684 9.54189E-05-2.86962E-05-2.85963E-05-4.34936E-07 2.72374E-20-1.41130E-18
 -1      3685 9.54763E-05-2.87648E-05-2.85892E-05-4.44760E-07-2.29608E-19-1.34670E-18
 -1      3686 9.55117E-05-2.88224E-05-2.85818E-05-4.62166E-07-2.95930E-19-1.35168E-18
 -1      3687 9.54896E-05-2.87488E-05-2.86037E-05-4.06781E-07 4.27381E-20-1.48121E-18
 -1      3688 9.51813E-05-2.83039E-05-2.86603E-05-5.23977E-07 9.27172E-20-1.23177E-18
 -1      3689 9.52229E-05-2.83904E-05-2.86441E-05-4.83056E-07-1.05318E-19-1.57760E-18
 -1      3690 9.50548E-05-2.80982E-05-2.86941E-05-6.38286E-07 2.15095E-19-1.08478E-18
 -1      3691 9.51049E-05-2.82000E-05-2.86756E-05-5.70866E-07 2.62761E-19-1.11830E-18
 -1      3692 9.51102E-05-2.82092E-05-2.86712E-05-5.08721E-07 8.16252E-20-1.49516E-18
 -1      3693 9.48981E-05-2.78540E-05-2.87316E-05-8.08700E-07 6.75212E-19-1.00156E-18
 -1      3694 9.49613E-05-2.79750E-05-2.87110E-05-7.10568E-07 8.85442E-19-9.60090E-19
 -1      3695 9.49420E-05-2.79665E-05-2.87026E-05-6.25275E-07 5.77618E-19-1.45276E-18
 -1      3696 9.46991E-05-2.75625E-05-2.87711E-05-1.04378E-06 3.91948E-19-6.96307E-19
 -1      3697 9.47804E-05-2.77068E-05-2.87492E-05-9.10286E-07 5.34701E-19-9.62393E-19
 -1      3698 9.47330E-05-2.76782E-05-2.87359E-05-7.94153E-07 5.52706E-19-6.20987E-19
 -1      3699 9.44434E-05-2.72151E-05-2.88104E-05-1.35271E-06 6.33574E-19-8.07985E-19
 -1      3700 9.45490E-05-2.73865E-05-2.87881E-05-1.17892E-06 5.81564E-19-1.17269E-18
 -1      3701 9.44680E-05-2.73344E-05-2.87688E-05-1.02287E-06 6.09493E-19-6.18960E-19
 -1      3702 9.41148E-05-2.68046E-05-2.88455E-05-1.74488E-06-1.76088E-19-3.13355E-19
 -1      3703 9.42515E-05-2.70059E-05-2.88248E-05-1.52586E-06 4.98064E-19-2.71832E-19
 -1      3704 9.41297E-05-2.69259E-05-2.87979E-05-1.31921E-06-2.16473E-21-4.64400E-19
 -1      3705 9.36949E-05-2.63265E-05-2.88704E-05-2.22930E-06-4.44169E-19-9.17823E-19
 -1      3706 9.38705E-05-2.65589E-05-2.88542E-05-1.96043E-06-2.41019E-19-7.22400E-19
 -1      3707 9.36983E-05-2.64452E-05-2.88177E-05-1.69086E-06 2.83638E-19-7.41669E-19
 -1      3708 9.31646E-05-2.57824E-05-2.88764E-05-2.81412E-06-8.09361E-19-1.31886E-18
 -1      3709 9.33868E-05-2.60436E-05-2.88691E-05-2.49147E-06-6.98215E-19-1.10360E-18
 -1      3710 9.31521E-05-2.58887E-05-2.88205E-05-2.14494E-06-5.91621E-19-2.12367E-18
 -1      3711 9.25051E-05-2.51836E-05-2.88505E-05-3.50654E-06-1.23905E-18-8.32845E-19
 -1      3712 9.27806E-05-2.54657E-05-2.88586E-05-3.12695E-06-8.24059E-19-7.33030E-19
 -1      3713 9.24676E-05-2.52592E-05-2.87951E-05-2.68786E-06-1.02986E-18-1.75364E-18
 -1      3714 9.17019E-05-2.45571E-05-2.87746E-05-4.31413E-06-9.56395E-19-1.24097E-18
 -1      3715 9.20338E-05-2.48431E-05-2.88073E-05-3.87465E-06-1.41359E-18-8.20406E-19
 -1      3716 9.16216E-05-2.45697E-05-2.87257E-05-3.32616E-06-1.25663E-18-1.54227E-18
 -1      3717 9.07506E-05-2.39547E-05-2.86243E-05-5.24870E-06-5.30073E-19-2.95658E-19
 -1      3718 9.11338E-05-2.42132E-05-2.86938E-05-4.74472E-06-7.46338E-19-5.95362E-19
 -1      3719 9.05926E-05-2.38498E-05-2.85907E-05-4.06931E-06-1.26928E-18-1.00172E-18
 -1      3720 8.96676E-05-2.34664E-05-2.83671E-05-6.33503E-06 2.33324E-19 7.81326E-20
 -1      3721 9.00810E-05-2.36436E-05-2.84896E-05-5.75602E-06 1.62799E-19 1.76058E-19
 -1      3722 8.93656E-05-2.31522E-05-2.83610E-05-4.93652E-06-4.65108E-19 1.48610E-19
 -1      3723 8.85088E-05-2.32395E-05-2.79625E-05-7.62645E-06-8.90505E-20-8.20358E-19
 -1      3724 8.89012E-05-2.32478E-05-2.81574E-05-6.94876E-06 3.61157E-19 1.14015E-19
 -1      3725 8.79376E-05-2.25645E-05-2.79980E-05-5.97047E-06 6.29232E-19 4.74362E-19
 -1      3726 8.74015E-05-2.35071E-05-2.73628E-05-9.22725E-06-5.80748E-19-6.28120E-19
 -1      3727 8.76687E-05-2.32079E-05-2.76511E-05-8.40437E-06-5.23210E-19-1.20970E-18
 -1      3728 8.63309E-05-2.22259E-05-2.74520E-05-7.26055E-06-3.88320E-20-1.80407E-19
 -1      3729 8.65995E-05-2.46314E-05-2.65176E-05-1.13230E-05 4.21536E-19-7.40330E-19
 -1      3730 8.65432E-05-2.38068E-05-2.69176E-05-1.02765E-05 3.84698E-19-4.83071E-19
 -1      3731 8.46106E-05-2.23484E-05-2.66612E-05-8.97834E-06-1.82941E-19-1.80075E-19
 -1      3732 8.65846E-05-2.71742E-05-2.53854E-05-1.41865E-05-6.75578E-19-6.96599E-19
 -1      3733 8.58519E-05-2.54871E-05-2.59013E-05-1.28167E-05-8.59122E-20-6.09328E-19
 -1      3734 8.29333E-05-2.32767E-05-2.55483E-05-1.14299E-05 3.47165E-19-9.94660E-20
 -1      3735 8.81394E-05-3.20198E-05-2.39448E-05-1.81887E-05-1.21579E-18-1.33054E-18
 -1      3736 8.62010E-05-2.88744E-05-2.45584E-05-1.63803E-05-1.08541E-18-9.59225E-19
 -1      3737 8.16398E-05-2.55722E-05-2.40194E-05-1.50967E-05-9.92150E-19-7.39235E-19
 -1      3738 1.02056E-04-4.59840E-05-2.36637E-05-2.18446E-05-4.93119E-19-1.97979E-18
 -1      3739 9.56001E-05-2.56844E-05-2.99530E-05 1.65023E-06 1.59548E-18-1.95254E-18
 -1      3740 8.17113E-05-3.37585E-05-2.03329E-05-2.44043E-05-1.53604E-19-2.67774E-18
 -1      3741 9.21047E-05-4.10779E-05-2.19974E-05-2.46689E-05 8.62915E-21-1.66275E-18
 -1      3742 9.68608E-05-4.17828E-05-2.34981E-05-2.14154E-05-9.03930E-19-1.58495E-18
 -1      3743 9.51645E-05-2.39169E-05-3.05167E-05 2.15656E-06 1.60314E-18-2.41530E-18
 -1      3744 5.86289E-05-1.62606E-05-1.81768E-05 1.72218E-06 4.93000E-21-2.16298E-18
 -1      3745 5.75966E-05-1.60888E-05-1.73753E-05-5.68694E-06-7.12699E-20-2.20808E-18
 -1      3746 9.44923E-05-2.24286E-05-3.08781E-05-3.33150E-06-1.61910E-18-3.38423E-18
 -1      3747 9.45345E-05-2.25080E-05-3.08675E-05-2.77731E-06-1.35687E-18-3.17784E-18
 -1      3748 9.38072E-05-2.09409E-05-3.12379E-05-2.12494E-07 1.70482E-19-3.47658E-18
 -1      3749 9.38531E-05-2.10410E-05-3.12198E-05-7.64549E-07-2.17193E-19-3.39663E-18
 -1      3750 9.46315E-05-2.23890E-05-3.09351E-05-8.24669E-07-1.79309E-19-3.13977E-18
 -1      3751 9.45308E-05-2.22016E-05-3.09764E-05 1.94618E-09 2.65451E-19-3.27346E-18
 -1      3752 9.59128E-05-2.56952E-05-3.00763E-05-8.94992E-07-6.73034E-19-2.72012E-18
 -1      3753 9.61326E-05-2.64693E-05-2.98638E-05-4.65195E-07-4.92919E-19-2.54364E-18
 -1      3754 9.52882E-05-2.84792E-05-2.86310E-05-4.58071E-07-2.19354E-20-1.48333E-18
 -1      3755 9.53248E-05-2.85537E-05-2.86174E-05-4.39900E-07-3.09152E-20-1.55984E-18
 -1      3756 9.52505E-05-2.84153E-05-2.86434E-05-4.37554E-07-1.65058E-19-1.59121E-18
 -1      3757 9.54944E-05-2.51177E-05-3.01724E-05 1.86226E-06 1.68693E-18-2.25150E-18
 -1      3758 9.63419E-05-2.71037E-05-2.96682E-05-1.83961E-07-5.49765E-19-2.33308E-18
 -1      3759 9.64256E-05-2.76005E-05-2.95020E-05 1.14666E-07-6.09476E-19-2.34811E-18
 -1      3760 9.65714E-05-2.77011E-05-2.95155E-05 1.34181E-07-5.75796E-19-2.21803E-18
 -1      3761 9.59211E-05-2.85311E-05-2.88837E-05-8.36124E-07 5.68410E-19-1.36694E-18
 -1      3762 9.59516E-05-2.83405E-05-2.89695E-05-6.88399E-07 7.55621E-19-1.28362E-18
 -1      3763 9.61553E-05-2.86178E-05-2.89473E-05-7.84280E-07 6.05103E-19-1.29952E-18
 -1      3764 1.00903E-04-4.05479E-05-2.58097E-05 1.55571E-05 3.75355E-19-2.58661E-18
 -1      3765 9.88193E-05-4.09776E-05-2.48360E-05 1.87725E-05 9.27994E-19-2.61713E-18
 -1      3766 9.26245E-05-3.60505E-05-2.41868E-05 1.89968E-05 8.72338E-19-2.99114E-18
 -1      3767 9.75107E-05-3.68574E-05-2.59044E-05 1.50968E-05 9.05037E-19-2.55960E-18
 -1      3768 9.52961E-05-2.40820E-05-3.05351E-05 1.35804E-06 1.15789E-18-2.35123E-18
 -1      3769 9.51984E-05-2.37658E-05-3.06181E-05 1.07728E-06 8.52670E-19-2.48941E-18
 -1      3770 9.62694E-05-2.89896E-05-2.88348E-05-8.31607E-07 4.33524E-19-1.31639E-18
 -1      3771 9.63169E-05-2.88782E-05-2.88990E-05-7.89803E-07 3.94316E-19-1.47593E-18
 -1      3772 9.53739E-05-2.85931E-05-2.86205E-05-4.05488E-07 6.82909E-20-1.47008E-18
 -1      3773 9.56560E-05-2.46321E-05-3.04187E-05 7.05336E-07 8.20738E-19-2.40092E-18
 -1      3774 9.51362E-05-2.35730E-05-3.06820E-05 8.31463E-07 7.80716E-19-2.72271E-18
 -1      3775 9.50741E-05-2.34016E-05-3.07238E-05 4.78913E-07 4.71190E-19-2.95745E-18
 -1      3776 9.57134E-05-2.90297E-05-2.85788E-05-5.88075E-07 1.97099E-20-7.22337E-19
 -1      3777 9.58543E-05-2.91091E-05-2.86065E-05-5.53305E-07 1.28949E-19-8.43790E-19
 -1      3778 9.56714E-05-2.89877E-05-2.85773E-05-5.48764E-07-8.03730E-20-1.19086E-18
 -1      3779 9.53543E-05-2.44268E-05-3.03961E-05 1.71072E-06 1.45975E-18-2.41218E-18
 -1      3780 9.58724E-05-2.90779E-05-2.86281E-05-8.87070E-07 2.04978E-19-1.07456E-18
 -1      3781 9.61804E-05-2.81540E-05-2.91566E-05-4.87817E-07 6.66295E-19-1.54104E-18
 -1      3782 9.16926E-05-3.65709E-05-2.34572E-05-2.07915E-05-9.21727E-19-5.61927E-19
 -1      3783 8.37635E-05-3.13977E-05-2.24790E-05-2.04270E-05-1.07255E-18-1.60691E-18
 -1      3784 9.55706E-05-2.88836E-05-2.85788E-05-4.85227E-07-3.31809E-19-1.19665E-18
 -1      3785 9.56087E-05-2.89339E-05-2.85753E-05-5.15520E-07-1.47663E-19-1.10673E-18
 -1      3786 9.57252E-05-2.90075E-05-2.85944E-05-4.87065E-07-1.51169E-19-5.49205E-19
 -1      3787 6.27311E-05-1.89163E-05-1.87079E-05-1.06067E-05-8.42550E-20-2.09638E-18
 -1      3788 7.45541E-05-2.81066E-05-1.98232E-05-2.18406E-05-2.76067E-19-3.34949E-18
 -1      3789 8.06779E-05-3.05516E-05-2.13469E-05-2.09820E-05-4.02708E-19-2.65079E-18
 -1      3790 7.77479E-05-2.60918E-05-2.20139E-05-1.77505E-05-1.09594E-18-2.46012E-18
 -1      3791 6.94775E-05-2.37224E-05-1.95772E-05-1.80283E-05-3.88006E-19-3.33911E-18
 -1      3792 6.14955E-05-1.67154E-05-1.88941E-05 6.70058E-06 3.04833E-19-2.00858E-18
 -1      3793 6.35229E-05-1.67549E-05-2.00546E-05 1.22752E-06 8.23367E-19-1.79305E-18
 -1      3794 6.60964E-05-1.91613E-05-2.01125E-05 1.07138E-05 1.16880E-18-9.76947E-19
 -1      3795 7.81695E-05-2.85095E-05-2.11321E-05 2.11445E-05 1.88628E-18-1.85904E-19
 -1      3796 7.39695E-05-2.47415E-05-2.11293E-05 1.76456E-05 2.02311E-18 1.62538E-19
 -1      3797 8.50105E-05-3.14846E-05-2.28717E-05 1.97553E-05 1.84853E-18-1.73451E-18
 -1      3798 9.62569E-05-2.65718E-05-2.98673E-05-3.33256E-07-3.86285E-19-2.37683E-18
 -1      3799 9.59006E-05-2.91349E-05-2.86126E-05-7.12329E-07 3.23247E-19-1.10145E-18
 -1      3800 9.59520E-05-2.91484E-05-2.86293E-05-7.53018E-07 2.80875E-19-1.15174E-18
 -1      3801 9.59932E-05-2.91841E-05-2.86342E-05-6.26192E-07 2.18866E-19-1.03855E-18
 -1      3802 9.54307E-05-2.43471E-05-3.04732E-05-9.52897E-07-3.69619E-19-2.87441E-18
 -1      3803 9.55843E-05-2.48739E-05-3.03143E-05-1.34880E-06-8.07619E-19-2.89816E-18
 -1      3804 9.62820E-05-2.75243E-05-2.94738E-05-7.47518E-08 7.64046E-19-1.74071E-18
 -1      3805 9.62256E-05-2.70539E-05-2.96430E-05 2.89394E-07 1.07746E-18-1.75645E-18
 -1      3806 9.53287E-05-2.39737E-05-3.05889E-05-4.58196E-07 2.39622E-20-2.86230E-18
 -1      3807 9.53812E-05-2.41548E-05-3.05440E-05-7.93330E-07-3.14289E-19-2.83069E-18
 -1      3808 9.60768E-05-2.56817E-05-3.01477E-05-5.30079E-07-2.30476E-19-2.64974E-18
 -1      3809 9.61538E-05-2.91186E-05-2.87291E-05-8.37563E-07 3.27823E-19-1.51278E-18
 -1      3810 9.62079E-05-2.90661E-05-2.87728E-05-8.39949E-07 4.75239E-19-1.47946E-18
 -1      3811 9.64172E-05-2.90694E-05-2.88652E-05-7.35986E-07 5.04104E-19-1.84728E-18
 -1      3812 9.24235E-05-3.36705E-05-2.52498E-05 1.60325E-05 1.22372E-18-3.02203E-18
 -1      3813 9.56048E-05-2.88866E-05-2.85944E-05-4.35916E-07-1.80079E-19-1.01443E-18
 -1      3814 9.60805E-05-2.60792E-05-3.00018E-05 5.41570E-07 8.62736E-19-1.85296E-18
 -1      3815 9.59446E-05-2.59644E-05-2.99938E-05 7.07596E-07 1.10896E-18-2.00457E-18
 -1      3816 9.57116E-05-2.51584E-05-3.02225E-05 1.22040E-06 1.20880E-18-2.17160E-18
 -1      3817 9.63755E-05-2.68043E-05-2.98099E-05 1.97717E-07 8.31688E-19-1.92853E-18
 -1      3818 9.60469E-05-2.57430E-05-3.01426E-05 5.43423E-07 8.68286E-19-2.11806E-18
 -1      3819 9.65143E-05-2.88103E-05-2.90178E-05-6.57697E-07 4.73058E-19-1.60969E-18
 -1      3820 9.63536E-05-2.87254E-05-2.89854E-05-7.35193E-07 4.24582E-19-1.43565E-18
 -1      3821 9.63829E-05-2.85280E-05-2.90762E-05-6.24247E-07 5.03378E-19-1.59744E-18
 -1      3822 9.54966E-05-2.87256E-05-2.86150E-05-3.50431E-07 2.10435E-19-9.13243E-19
 -1      3823 9.55544E-05-2.88021E-05-2.86087E-05-3.56764E-07-1.20270E-19-7.74917E-19
 -1      3824 9.67813E-05-2.88172E-05-2.91251E-05 4.39298E-07-4.10906E-19-2.39903E-18
 -1      3825 9.67420E-05-2.89960E-05-2.90350E-05 4.96633E-07-3.33668E-19-2.37450E-18
 -1      3826 9.66888E-05-2.91287E-05-2.89525E-05 5.11617E-07-2.32517E-19-2.38134E-18
 -1      3827 9.66222E-05-2.92203E-05-2.88866E-05 5.29731E-07-2.98851E-19-2.05891E-18
 -1      3828 9.68102E-05-2.90684E-05-2.90333E-05 3.87046E-07-2.03107E-19-2.15775E-18
 -1      3829 9.65417E-05-2.92773E-05-2.88262E-05 5.23475E-07-3.32740E-19-1.66369E-18
 -1      3830 9.64626E-05-2.93091E-05-2.87795E-05 5.17112E-07-2.70683E-19-1.50958E-18
 -1      3831 9.66765E-05-2.92742E-05-2.88885E-05 4.08540E-07-2.90526E-20-1.65246E-18
 -1      3832 9.63702E-05-2.93151E-05-2.87368E-05 4.98499E-07-2.62064E-19-1.37965E-18
 -1      3833 9.62876E-05-2.93063E-05-2.87053E-05 4.78673E-07-9.94012E-20-1.33804E-18
 -1      3834 9.65044E-05-2.93468E-05-2.87838E-05 3.96882E-07-2.30634E-19-1.04284E-18
 -1      3835 9.61932E-05-2.92792E-05-2.86767E-05 4.55142E-07 1.11346E-20-1.64681E-18
 -1      3836 9.61131E-05-2.92444E-05-2.86569E-05 4.29516E-07 1.80529E-19-1.47932E-18
 -1      3837 9.63186E-05-2.93301E-05-2.87112E-05 3.66499E-07-5.80832E-20-1.35982E-18
 -1      3838 9.60212E-05-2.91954E-05-2.86392E-05 4.05014E-07 4.06306E-20-1.84450E-18
 -1      3839 9.59455E-05-2.91430E-05-2.86284E-05 3.79608E-07-1.96901E-19-1.87626E-18
 -1      3840 9.61340E-05-2.92557E-05-2.86639E-05 3.29181E-07-1.42713E-19-1.61283E-18
 -1      3841 9.58580E-05-2.90794E-05-2.86193E-05 3.58141E-07-2.65352E-19-1.75465E-18
 -1      3842 9.57871E-05-2.90148E-05-2.86156E-05 3.37273E-07-1.14865E-19-1.55975E-18
 -1      3843 9.59561E-05-2.91417E-05-2.86362E-05 2.91916E-07-2.49703E-19-2.32438E-18
 -1      3844 9.57037E-05-2.89404E-05-2.86130E-05 3.21384E-07-2.45954E-19-1.55395E-18
 -1      3845 9.56361E-05-2.88660E-05-2.86147E-05 3.08299E-07-3.43782E-19-1.60543E-18
 -1      3846 9.57868E-05-2.90005E-05-2.86238E-05 2.61565E-07-8.93801E-20-1.63314E-18
 -1      3847 9.55545E-05-2.87820E-05-2.86173E-05 2.99994E-07-3.35068E-19-1.70030E-18
 -1      3848 9.54875E-05-2.86978E-05-2.86232E-05 2.97376E-07-7.11025E-19-1.54658E-18
 -1      3849 9.56236E-05-2.88373E-05-2.86234E-05 2.42382E-07-5.39266E-19-1.31205E-18
 -1      3850 9.54039E-05-2.86032E-05-2.86297E-05 2.98496E-07-4.73851E-19-8.10174E-19
 -1      3851 9.53338E-05-2.85078E-05-2.86389E-05 3.08812E-07-7.33503E-20-5.30603E-19
 -1      3852 9.54601E-05-2.86526E-05-2.86320E-05 2.38138E-07-1.95717E-19-1.01486E-18
 -1      3853 9.52432E-05-2.84001E-05-2.86482E-05 3.21223E-07-6.23641E-21-2.87817E-19
 -1      3854 9.51655E-05-2.82907E-05-2.86599E-05 3.46985E-07 5.06147E-20 1.68080E-19
 -1      3855 9.52878E-05-2.84430E-05-2.86475E-05 2.52380E-07 1.50566E-19-4.94433E-19
 -1      3856 9.50618E-05-2.81664E-05-2.86712E-05 3.72778E-07 5.81095E-20 2.28644E-19
 -1      3857 9.49710E-05-2.80393E-05-2.86844E-05 4.16740E-07 2.75983E-19 2.61387E-19
 -1      3858 9.50958E-05-2.82022E-05-2.86678E-05 2.88818E-07 7.79873E-20-1.74881E-19
 -1      3859 9.48473E-05-2.78941E-05-2.86965E-05 4.58385E-07 4.51005E-19 6.06441E-19
 -1      3860 9.47374E-05-2.77454E-05-2.87103E-05 5.23677E-07 7.87233E-19 6.43380E-19
 -1      3861 9.48711E-05-2.79223E-05-2.86908E-05 3.51654E-07 5.47402E-19 2.97412E-19
 -1      3862 9.45857E-05-2.75749E-05-2.87219E-05 5.84165E-07 1.79472E-19 7.15372E-19
 -1      3863 9.44500E-05-2.74009E-05-2.87350E-05 6.74389E-07-1.37989E-19 3.46816E-19
 -1      3864 9.45989E-05-2.75944E-05-2.87139E-05 4.45863E-07 4.21147E-19 4.53394E-19
 -1      3865 9.42618E-05-2.72010E-05-2.87441E-05 7.57361E-07-3.23798E-19-9.67499E-20
 -1      3866 9.40935E-05-2.69988E-05-2.87546E-05 8.76650E-07-5.68831E-19-3.81777E-21
 -1      3867 9.42628E-05-2.72097E-05-2.87338E-05 5.77459E-07-2.87617E-19 1.39787E-19
 -1      3868 9.38596E-05-2.67669E-05-2.87587E-05 9.86554E-07-3.88620E-19-9.38591E-20
 -1      3869 9.36518E-05-2.65355E-05-2.87639E-05 1.13964E-06-4.04982E-19-3.89566E-19
 -1      3870 9.38451E-05-2.67610E-05-2.87461E-05 7.53783E-07-5.62344E-19-4.37996E-19
 -1      3871 9.33631E-05-2.62710E-05-2.87596E-05 1.28197E-06-5.63401E-19 6.62400E-20
 -1      3872 9.31100E-05-2.60126E-05-2.87558E-05 1.47433E-06 1.21271E-20-1.60552E-19
 -1      3873 9.33277E-05-2.62446E-05-2.87444E-05 9.83907E-07-3.55466E-19-3.27715E-19
 -1      3874 9.27578E-05-2.57188E-05-2.87382E-05 1.65598E-06-4.02453E-19-5.65704E-19
 -1      3875 9.24556E-05-2.54403E-05-2.87205E-05 1.89414E-06-9.04112E-19-1.06249E-18
 -1      3876 9.26928E-05-2.56626E-05-2.87204E-05 1.27929E-06-6.85308E-19-1.11397E-18
 -1      3877 9.20327E-05-2.51258E-05-2.86831E-05 2.12415E-06-1.16979E-18-1.45249E-18
 -1      3878 9.16811E-05-2.48412E-05-2.86449E-05 2.41637E-06-7.46324E-19-1.50307E-18
 -1      3879 9.19243E-05-2.50257E-05-2.86625E-05 1.65488E-06-1.27263E-18-2.04140E-18
 -1      3880 9.11826E-05-2.45221E-05-2.85795E-05 2.70712E-06-2.66509E-19-1.46327E-18
 -1      3881 9.07875E-05-2.42551E-05-2.85122E-05 3.06476E-06-2.00466E-19-1.87013E-18
 -1      3882 9.10102E-05-2.43568E-05-2.85558E-05 2.13117E-06-8.66021E-19-1.09317E-18
 -1      3883 9.02121E-05-2.39574E-05-2.84080E-05 3.43418E-06 4.29840E-19-1.99175E-18
 -1      3884 8.97890E-05-2.37446E-05-2.83013E-05 3.87410E-06 1.22005E-18-1.43266E-18
 -1      3885 8.99437E-05-2.36950E-05-2.83806E-05 2.73768E-06 2.86334E-19-1.36668E-18
 -1      3886 8.91403E-05-2.35073E-05-2.81447E-05 4.34945E-06 7.17265E-19-1.76426E-18
 -1      3887 8.87195E-05-2.34027E-05-2.79862E-05 4.89790E-06-1.34959E-19-1.30147E-18
 -1      3888 8.87264E-05-2.31000E-05-2.81121E-05 3.51908E-06 9.99568E-19-1.62302E-18
 -1      3889 8.80076E-05-2.32807E-05-2.77607E-05 5.52207E-06-1.12811E-18-1.37034E-18
 -1      3890 8.76432E-05-2.33619E-05-2.75368E-05 6.22031E-06-1.12564E-18-1.60199E-18
 -1      3891 8.73701E-05-2.26566E-05-2.77192E-05 4.54555E-06-6.66951E-19-8.57812E-19
 -1      3892 8.68888E-05-2.34321E-05-2.72222E-05 7.06115E-06-6.60865E-19-1.01321E-18
 -1      3893 8.66733E-05-2.38106E-05-2.69193E-05 7.97175E-06-7.04869E-19-1.02868E-18
 -1      3894 8.59015E-05-2.24830E-05-2.71629E-05 5.92983E-06-3.44422E-19-1.10443E-18
 -1      3895 8.59169E-05-2.41780E-05-2.64919E-05 9.13279E-06-8.68966E-19-1.12240E-18
 -1      3896 8.60073E-05-2.50182E-05-2.61000E-05 1.03465E-05-2.63110E-20-1.66002E-18
 -1      3897 8.43739E-05-2.27469E-05-2.63960E-05 7.84859E-06-7.76745E-19-5.46743E-19
 -1      3898 8.53244E-05-2.58090E-05-2.55300E-05 1.19938E-05 7.16892E-19-2.12331E-18
 -1      3899 8.59079E-05-2.73977E-05-2.50329E-05 1.36472E-05 9.13626E-19-2.35462E-18
 -1      3900 8.28849E-05-2.37140E-05-2.53577E-05 1.05600E-05-3.09621E-19-2.86183E-19
 -1      3901 9.45811E-05-2.75212E-05-2.87394E-05-7.35254E-07 2.73396E-19-8.66584E-19
 -1      3902 9.46995E-05-2.76853E-05-2.87232E-05-6.41500E-07 4.22623E-19-9.16309E-19
 -1      3903 9.48371E-05-2.78464E-05-2.87096E-05-5.77319E-07 3.37647E-19-1.18264E-18
 -1      3904 9.49312E-05-2.79844E-05-2.86937E-05-5.09697E-07 5.53366E-19-1.58965E-18
 -1      3905 9.47012E-05-2.76970E-05-2.87140E-05-5.16815E-07 2.21986E-19-1.17248E-18
 -1      3906 9.50426E-05-2.81199E-05-2.86803E-05-4.65458E-07 4.68922E-19-1.46313E-18
 -1      3907 9.51195E-05-2.82367E-05-2.86657E-05-4.20694E-07 4.01820E-19-1.22942E-18
 -1      3908 9.49473E-05-2.80064E-05-2.86876E-05-4.14852E-07 5.49426E-19-1.63500E-18
 -1      3909 9.42571E-05-2.71340E-05-2.87667E-05-9.45323E-07 7.16006E-19-8.27295E-19
 -1      3910 9.44080E-05-2.73292E-05-2.87517E-05-8.22053E-07 7.25117E-19-7.13233E-19
 -1      3911 9.43940E-05-2.73295E-05-2.87389E-05-6.57594E-07 4.90018E-19-8.56674E-19
 -1      3912 9.38451E-05-2.66753E-05-2.87870E-05-1.21350E-06-1.96020E-19-1.13102E-18
 -1      3913 9.40379E-05-2.69058E-05-2.87755E-05-1.05742E-06 2.43632E-19-1.17658E-18
 -1      3914 9.40061E-05-2.68931E-05-2.87586E-05-8.41613E-07 4.24764E-19-8.57627E-19
 -1      3915 9.33224E-05-2.61379E-05-2.87938E-05-1.54522E-06 2.28063E-19-1.16701E-18
 -1      3916 9.35678E-05-2.64066E-05-2.87890E-05-1.35338E-06-2.49029E-20-8.68554E-19
 -1      3917 9.35152E-05-2.63785E-05-2.87673E-05-1.07284E-06 2.89946E-20-1.55576E-18
 -1      3918 9.26643E-05-2.55185E-05-2.87777E-05-1.94499E-06-8.78988E-19-9.63485E-19
 -1      3919 9.29737E-05-2.58260E-05-2.87845E-05-1.71501E-06-5.32860E-20-8.14201E-19
 -1      3920 9.28964E-05-2.57790E-05-2.87573E-05-1.35432E-06-3.44317E-19-1.95874E-20
 -1      3921 9.18439E-05-2.48213E-05-2.87256E-05-2.41640E-06-7.41793E-19-1.39122E-18
 -1      3922 9.22296E-05-2.51641E-05-2.87508E-05-2.14637E-06-1.03267E-18-9.93672E-19
 -1      3923 9.21219E-05-2.50927E-05-2.87174E-05-1.68791E-06-6.75376E-19-4.92243E-19
 -1      3924 9.08336E-05-2.40605E-05-2.86195E-05-2.96321E-06-1.65327E-18-1.80556E-18
 -1      3925 9.13073E-05-2.44291E-05-2.86724E-05-2.65103E-06-9.17625E-19-1.61821E-18
 -1      3926 9.11619E-05-2.43251E-05-2.86324E-05-2.07449E-06-7.44240E-19-6.60268E-19
 -1      3927 8.96056E-05-2.32656E-05-2.84345E-05-3.59281E-06-1.63029E-18-6.17975E-19
 -1      3928 9.01775E-05-2.36421E-05-2.85279E-05-3.23406E-06-1.95969E-18-1.05793E-18
 -1      3929 8.99834E-05-2.34918E-05-2.84812E-05-2.51548E-06-2.10495E-18-6.21278E-19
 -1      3930 8.81336E-05-2.24868E-05-2.81376E-05-4.32398E-06-2.17414E-19 1.98801E-19
 -1      3931 8.88098E-05-2.28410E-05-2.82886E-05-3.90728E-06-9.60448E-19-1.01582E-19
 -1      3932 8.85493E-05-2.26212E-05-2.82356E-05-3.01704E-06-1.56125E-18-7.58080E-19
 -1      3933 8.63943E-05-2.18015E-05-2.76847E-05-5.20222E-06 7.29392E-19 7.22847E-19
 -1      3934 8.71728E-05-2.20866E-05-2.79156E-05-4.70045E-06 2.47127E-19 3.55236E-19
 -1      3935 8.68152E-05-2.17570E-05-2.78575E-05-3.59903E-06-6.55795E-20-8.25762E-20
 -1      3936 8.43701E-05-2.13264E-05-2.70170E-05-6.32773E-06-3.99500E-19 1.17139E-19
 -1      3937 8.52331E-05-2.14700E-05-2.73569E-05-5.68332E-06 8.15419E-19 7.45597E-19
 -1      3938 8.47206E-05-2.09584E-05-2.72946E-05-4.31362E-06 7.26342E-19 6.02109E-19
 -1      3939 8.20628E-05-2.12336E-05-2.60576E-05-7.88988E-06 1.39056E-19-2.06144E-19
 -1      3940 8.29619E-05-2.11287E-05-2.65426E-05-6.99557E-06-5.74886E-19-5.01118E-20
 -1      3941 8.21840E-05-2.03113E-05-2.64744E-05-5.28018E-06-9.59869E-20-2.77698E-19
 -1      3942 7.94831E-05-2.17925E-05-2.46983E-05-1.02573E-05 3.62563E-19 1.05158E-19
 -1      3943 8.03184E-05-2.12466E-05-2.53771E-05-8.90782E-06 5.87639E-19-2.83061E-20
 -1      3944 7.90716E-05-1.99054E-05-2.52942E-05-6.70026E-06-6.33000E-21-5.12581E-19
 -1      3945 7.66725E-05-2.34017E-05-2.27496E-05-1.40033E-05-7.11863E-19-1.21112E-18
 -1      3946 7.73188E-05-2.20975E-05-2.37175E-05-1.18516E-05 2.68908E-19-1.68728E-19
 -1      3947 7.52179E-05-2.00342E-05-2.35915E-05-9.07489E-06 6.56414E-19-1.53392E-19
 -1      3948 9.60269E-05-2.91569E-05-2.86577E-05-7.88993E-07 1.39302E-19-1.46126E-18
 -1      3949 9.60812E-05-2.91439E-05-2.86860E-05-8.17170E-07 1.59892E-19-1.46971E-18
 -1      3950 9.62847E-05-2.91907E-05-2.87566E-05-7.37604E-07 3.20810E-19-1.62806E-18
 -1      3951 9.61392E-05-2.92187E-05-2.86821E-05-6.92961E-07 1.78297E-19-1.36926E-18
 -1      3952 9.66046E-05-2.74086E-05-2.96547E-05-3.10439E-09-4.44416E-19-2.39468E-18
 -1      3953 9.67001E-05-2.78807E-05-2.94975E-05 1.86208E-07-5.51083E-19-2.34334E-18
 -1      3954 9.50548E-05-2.33426E-05-3.07443E-05 1.96724E-07 3.35292E-19-3.14827E-18
 -1      3955 9.50636E-05-2.33614E-05-3.07440E-05-1.99269E-07 1.45194E-19-3.14519E-18
 -1      3956 9.55917E-05-2.43758E-05-3.05032E-05 2.60479E-07 4.23477E-19-2.87191E-18
 -1      3957 9.52127E-05-2.83519E-05-2.86537E-05-3.93870E-07 5.11365E-20-8.98228E-19
 -1      3958 9.52785E-05-2.84518E-05-2.86412E-05-3.68911E-07-3.58635E-20-9.68233E-19
 -1      3959 9.51496E-05-2.82684E-05-2.86627E-05-3.47198E-07 3.18938E-19-9.83001E-19
 -1      3960 9.53605E-05-2.85513E-05-2.86314E-05-3.57180E-07-2.78401E-20-7.12717E-19
 -1      3961 9.54201E-05-2.86382E-05-2.86217E-05-3.49205E-07 3.23052E-19-6.01295E-19
 -1      3962 9.54797E-05-2.86879E-05-2.86254E-05-2.97662E-07 8.04628E-20-2.66919E-19
 -1      3963 9.63743E-05-2.82646E-05-2.91934E-05-5.01178E-07 5.16770E-19-1.63512E-18
 -1      3964 9.63655E-05-2.79437E-05-2.93185E-05-2.89664E-07 6.24669E-19-1.73341E-18
 -1      3965 9.64485E-05-2.76040E-05-2.95047E-05-1.02013E-07 6.85309E-19-1.64445E-18
 -1      3966 9.62641E-05-2.62998E-05-2.99885E-05-3.64831E-07-1.58551E-19-2.56987E-18
 -1      3967 9.64751E-05-2.69645E-05-2.97911E-05-1.04101E-07-2.45260E-19-2.46426E-18
 -1      3968 9.65935E-05-2.71369E-05-2.97654E-05-4.75807E-08-2.28926E-19-2.41688E-18
 -1      3969 9.62439E-05-2.60957E-05-3.00617E-05-3.01571E-07-1.26295E-19-2.59747E-18
 -1      3970 9.07375E-05-3.31773E-05-2.46180E-05 1.70413E-05 1.08983E-18-3.32377E-18
 -1      3971 8.75229E-05-3.23812E-05-2.36534E-05 1.89733E-05 1.18174E-18-3.22835E-18
 -1      3972 8.31959E-05-2.86347E-05-2.33540E-05 1.74227E-05 1.32042E-18-1.83764E-18
 -1      3973 8.79339E-05-3.00223E-05-2.47642E-05 1.56988E-05 1.31670E-18-3.67493E-18
 -1      3974 9.67765E-05-2.82759E-05-2.93549E-05 2.78918E-07-5.77385E-19-2.40159E-18
 -1      3975 9.67867E-05-2.85780E-05-2.92348E-05 3.91636E-07-5.56354E-19-2.34858E-18
 -1      3976 9.68044E-05-2.80116E-05-2.94823E-05 1.65118E-07-5.45082E-19-2.24098E-18
 -1      3977 9.56300E-05-2.88797E-05-2.86061E-05-3.68894E-07-1.38875E-19-7.18938E-19
 -1      3978 9.56892E-05-2.89471E-05-2.86040E-05-3.86807E-07-1.27727E-19-4.40530E-19
 -1      3979 9.56302E-05-2.88597E-05-2.86166E-05-3.07690E-07-1.55715E-19-3.67555E-19
 -1      3980 9.65413E-05-2.83483E-05-2.92266E-05-4.61929E-07 5.21718E-19-1.91842E-18
 -1      3981 9.66321E-05-2.78612E-05-2.94757E-05-2.11095E-07 6.45036E-19-1.99978E-18
 -1      3982 9.65620E-05-2.74144E-05-2.96343E-05 2.30359E-08 7.95633E-19-1.88949E-18
 -1      3983 9.65479E-05-2.70992E-05-2.97670E-05 6.80376E-08 7.46257E-19-2.02998E-18
 -1      3984 8.36793E-05-2.68350E-05-2.44075E-05 1.45209E-05 6.26396E-19-2.70280E-18
 -1      3985 9.60126E-05-2.55433E-05-3.02078E-05 3.83440E-07 6.61181E-19-2.37876E-18
 -1      3986 6.56755E-05-1.84160E-05-2.03114E-05-8.40261E-06 2.99969E-19-1.80534E-18
 -1      3987 6.79960E-05-2.13099E-05-1.97631E-05-1.50070E-05-3.77883E-19-2.24628E-18
 -1      3988 9.57672E-05-2.90156E-05-2.86066E-05-4.07697E-07-2.37836E-19-2.84013E-19
 -1      3989 9.58301E-05-2.90736E-05-2.86099E-05-4.34107E-07-1.92872E-19-2.94939E-19
 -1      3990 9.57822E-05-2.90112E-05-2.86173E-05-3.35520E-07-7.36041E-20-6.23140E-19
 -1      3991 7.21421E-05-2.28715E-05-2.10982E-05-1.53038E-05-2.17980E-19-2.54633E-18
 -1      3992 9.58088E-05-2.48955E-05-3.03771E-05-2.24908E-07 6.33915E-20-2.76501E-18
 -1      3993 9.59125E-05-2.91315E-05-2.86191E-05-4.61201E-07-1.89520E-19-5.20102E-19
 -1      3994 9.59807E-05-2.91777E-05-2.86294E-05-4.92238E-07 2.56341E-21-8.87865E-19
 -1      3995 9.59412E-05-2.91412E-05-2.86300E-05-3.76612E-07-3.75648E-19-6.83777E-19
 -1      3996 7.69797E-05-2.43350E-05-2.25362E-05 1.51290E-05 2.28810E-18 1.35719E-18
 -1      3997 7.10765E-05-2.13203E-05-2.11643E-05 1.39381E-05 1.52790E-18 9.22293E-19
 -1      3998 6.96134E-05-1.92309E-05-2.16278E-05 9.09757E-06 1.37374E-18-5.05526E-19
 -1      3999 7.55952E-05-2.40183E-05-2.21386E-05-1.52370E-05-8.18234E-19-1.92292E-18
 -1      4000 6.74228E-05-1.72797E-05-2.15699E-05 1.34287E-06 1.28405E-18-2.26919E-18
 -1      4001 6.64846E-05-1.68689E-05-2.10245E-05-3.00496E-06 1.43545E-18-2.01533E-18
 -1      4002 9.61069E-05-2.92429E-05-2.86583E-05-4.25992E-07-1.60634E-19-1.30539E-18
 -1      4003 9.60667E-05-2.92204E-05-2.86473E-05-5.21449E-07 3.61623E-20-1.28298E-18
 -1      4004 9.61411E-05-2.92496E-05-2.86666E-05-5.50603E-07-2.41342E-20-1.26990E-18
 -1      4005 9.65384E-05-2.91581E-05-2.88776E-05-6.33560E-07 5.11021E-19-1.77443E-18
 -1      4006 9.65996E-05-2.90594E-05-2.89435E-05-6.09682E-07 4.71905E-19-1.75945E-18
 -1      4007 9.53230E-05-2.84928E-05-2.86414E-05-3.09506E-07 2.22043E-19 1.70626E-19
 -1      4008 9.68701E-05-2.86725E-05-2.92277E-05 3.12846E-07-5.07243E-19-2.35520E-18
 -1      4009 6.95050E-05-1.86139E-05-2.18091E-05-7.29953E-06 9.40132E-19-1.04947E-18
 -1      4010 9.66460E-05-2.89179E-05-2.90276E-05-5.84226E-07 5.08220E-19-1.78942E-18
 -1      4011 9.66829E-05-2.87333E-05-2.91190E-05-5.11640E-07 4.83997E-19-1.71055E-18
 -1      4012 9.67427E-05-2.89963E-05-2.90355E-05-4.84322E-07 4.27237E-19-1.77890E-18
 -1      4013 9.67862E-05-2.92644E-05-2.89368E-05 2.77284E-07 2.13750E-19-1.56755E-18
 -1      4014 9.67075E-05-2.93308E-05-2.88746E-05 2.88275E-07 9.60809E-20-1.34284E-18
 -1      4015 9.66154E-05-2.93670E-05-2.88197E-05 2.75550E-07-2.87261E-19-1.10431E-18
 -1      4016 9.65223E-05-2.93774E-05-2.87756E-05 2.71792E-07-3.98427E-19-1.22493E-18
 -1      4017 9.67057E-05-2.93638E-05-2.88638E-05 1.56718E-07 3.13525E-20-1.17551E-18
 -1      4018 9.64225E-05-2.93666E-05-2.87372E-05 2.61641E-07-2.73620E-19-1.36588E-18
 -1      4019 9.63301E-05-2.93426E-05-2.87073E-05 2.51649E-07-2.78209E-19-1.71207E-18
 -1      4020 9.65075E-05-2.93870E-05-2.87687E-05 1.49598E-07-5.05635E-19-1.16473E-18
 -1      4021 9.62285E-05-2.93027E-05-2.86818E-05 2.34959E-07-4.58853E-19-1.77529E-18
 -1      4022 9.61371E-05-2.92534E-05-2.86631E-05 2.22379E-07-4.68238E-19-2.29669E-18
 -1      4023 9.63163E-05-2.93454E-05-2.87049E-05 1.32824E-07-4.11230E-19-1.95012E-18
 -1      4024 9.60393E-05-2.91928E-05-2.86478E-05 2.09134E-07-1.93786E-19-2.24597E-18
 -1      4025 9.59519E-05-2.91272E-05-2.86379E-05 1.97457E-07-7.67078E-20-1.97861E-18
 -1      4026 9.61167E-05-2.92422E-05-2.86636E-05 1.19347E-07-2.32588E-19-2.12859E-18
 -1      4027 9.58588E-05-2.90532E-05-2.86306E-05 1.86633E-07-4.22456E-20-2.14830E-18
 -1      4028 9.57755E-05-2.89756E-05-2.86275E-05 1.78180E-07-2.14339E-21-1.80001E-18
 -1      4029 9.59282E-05-2.91058E-05-2.86406E-05 1.07178E-07 2.79253E-20-2.33936E-18
 -1      4030 9.56851E-05-2.88903E-05-2.86263E-05 1.70847E-07-8.52330E-20-1.55294E-18
 -1      4031 9.56036E-05-2.88020E-05-2.86284E-05 1.67602E-07-2.84606E-19-1.08114E-18
 -1      4032 9.57469E-05-2.89433E-05-2.86318E-05 9.80809E-08 6.30999E-20-2.49609E-18
 -1      4033 9.55128E-05-2.87055E-05-2.86320E-05 1.64619E-07-9.46412E-20-1.03419E-18
 -1      4034 9.54293E-05-2.86056E-05-2.86381E-05 1.68338E-07 1.35618E-19-7.52686E-19
 -1      4035 9.55682E-05-2.87575E-05-2.86340E-05 9.41331E-08 7.15501E-20-1.98964E-18
 -1      4036 9.53331E-05-2.84962E-05-2.86451E-05 1.70556E-07 1.48783E-19-4.58382E-19
 -1      4037 9.52429E-05-2.83822E-05-2.86542E-05 1.82920E-07 2.52576E-19-3.27865E-19
 -1      4038 9.53841E-05-2.85469E-05-2.86444E-05 9.69843E-08 2.02924E-19-1.04893E-18
 -1      4039 9.51353E-05-2.82565E-05-2.86636E-05 1.91342E-07 5.85676E-20 8.03438E-20
 -1      4040 9.50321E-05-2.81246E-05-2.86745E-05 2.14122E-07 2.09507E-19 9.93204E-20
 -1      4041 9.51838E-05-2.83060E-05-2.86606E-05 1.08313E-07 4.85335E-19-3.78123E-19
 -1      4042 9.49059E-05-2.79782E-05-2.86851E-05 2.30026E-07 4.48214E-19 2.83490E-19
 -1      4043 9.47829E-05-2.78240E-05-2.86967E-05 2.65220E-07 6.07260E-19 2.05967E-19
 -1      4044 9.49543E-05-2.80272E-05-2.86805E-05 1.30071E-07 4.42206E-19-2.75865E-21
 -1      4045 9.46296E-05-2.76521E-05-2.87072E-05 2.90287E-07 5.36077E-19-1.00810E-19
 -1      4046 9.44789E-05-2.74709E-05-2.87181E-05 3.40235E-07 3.51455E-19-4.70284E-19
 -1      4047 9.46800E-05-2.77007E-05-2.87013E-05 1.64709E-07 3.26999E-19-4.75022E-19
 -1      4048 9.42891E-05-2.72685E-05-2.87265E-05 3.76701E-07-1.07428E-19-7.40357E-19
 -1      4049 9.41021E-05-2.70559E-05-2.87347E-05 4.44213E-07-7.78351E-19-6.24618E-19
 -1      4050 9.43434E-05-2.73165E-05-2.87199E-05 2.15423E-07-2.33275E-19-1.38315E-18
 -1      4051 9.38654E-05-2.68186E-05-2.87388E-05 4.95056E-07-8.13707E-19-2.95586E-19
 -1      4052 9.36330E-05-2.65713E-05-2.87417E-05 5.83565E-07-4.36131E-19-6.23464E-19
 -1      4053 9.39247E-05-2.68647E-05-2.87318E-05 2.86482E-07-5.82344E-19-7.78169E-19
 -1      4054 9.33382E-05-2.62964E-05-2.87379E-05 6.52776E-07-8.67314E-20-6.84471E-19
 -1      4055 9.30513E-05-2.60133E-05-2.87318E-05 7.66579E-07-5.12369E-20-3.02642E-19
 -1      4056 9.34026E-05-2.63375E-05-2.87314E-05 3.83676E-07-4.06297E-19-4.52135E-19
 -1      4057 9.26866E-05-2.57002E-05-2.87157E-05 8.59554E-07-6.18445E-19-1.22529E-18
 -1      4058 9.23365E-05-2.53836E-05-2.86956E-05 1.00422E-06-1.16884E-18-1.25432E-18
 -1      4059 9.27547E-05-2.57309E-05-2.87105E-05 5.14970E-07-7.76493E-19-5.76600E-19
 -1      4060 9.18901E-05-2.50358E-05-2.86610E-05 1.12836E-06-1.63397E-18-1.38279E-18
 -1      4061 9.14695E-05-2.46928E-05-2.86202E-05 1.31142E-06-1.47640E-18-1.42970E-18
 -1      4062 9.19574E-05-2.50465E-05-2.86584E-05 6.91494E-07-1.17021E-18-1.22237E-18
 -1      4063 9.09293E-05-2.43188E-05-2.85589E-05 1.47707E-06-1.07108E-18-1.64583E-18
 -1      4064 9.04332E-05-2.39629E-05-2.84888E-05 1.70931E-06-8.07602E-19-1.50974E-18
 -1      4065 9.09874E-05-2.42942E-05-2.85604E-05 9.29065E-07-1.19215E-18-1.48045E-18
 -1      4066 8.97867E-05-2.35777E-05-2.83900E-05 1.93125E-06-5.88507E-19-1.18824E-18
 -1      4067 8.92137E-05-2.32310E-05-2.82794E-05 2.22884E-06 6.52672E-19-1.21816E-18
 -1      4068 8.98209E-05-2.34945E-05-2.83973E-05 1.25057E-06-2.06682E-19-1.77863E-18
 -1      4069 8.84466E-05-2.28572E-05-2.81290E-05 2.52874E-06 1.02182E-18-1.68411E-18
 -1      4070 8.78000E-05-2.25516E-05-2.79635E-05 2.91685E-06 1.20011E-19-2.03990E-18
 -1      4071 8.84326E-05-2.26799E-05-2.81439E-05 1.68971E-06 2.63392E-19-1.75251E-18
 -1      4072 8.68933E-05-2.22195E-05-2.77432E-05 3.32735E-06-5.53901E-19-1.49522E-18
 -1      4073 8.61819E-05-2.19985E-05-2.75048E-05 3.84643E-06-7.50439E-19-1.23751E-18
 -1      4074 8.67923E-05-2.18951E-05-2.77670E-05 2.29699E-06-7.56370E-20-2.37163E-18
 -1      4075 8.51053E-05-2.17453E-05-2.71901E-05 4.41853E-06-6.51615E-19-1.37566E-18
 -1      4076 8.43483E-05-2.16679E-05-2.68564E-05 5.13447E-06-3.11051E-19-1.40201E-18
 -1      4077 8.48550E-05-2.11951E-05-2.72227E-05 3.14890E-06-7.39588E-19-2.29685E-18
 -1      4078 8.30490E-05-2.15361E-05-2.64135E-05 5.95534E-06-1.29040E-19-1.19877E-18
 -1      4079 8.22914E-05-2.16917E-05-2.59558E-05 6.97522E-06-5.30593E-19-1.09285E-18
 -1      4080 8.25379E-05-2.06426E-05-2.64508E-05 4.36204E-06 1.00784E-20-2.03579E-18
 -1      4081 8.06883E-05-2.16880E-05-2.53374E-05 8.19834E-06-6.90480E-19-1.76041E-19
 -1      4082 7.99787E-05-2.22313E-05-2.47063E-05 9.70608E-06 2.46012E-20-1.20783E-19
 -1      4083 7.96921E-05-2.03634E-05-2.53664E-05 6.09534E-06 1.25659E-19-1.51172E-18
 -1      4084 9.45804E-05-2.75724E-05-2.87182E-05-4.25672E-07 2.69777E-19-1.51347E-18
 -1      4085 9.47189E-05-2.77446E-05-2.87055E-05-3.70585E-07 2.65269E-19-1.55628E-18
 -1      4086 9.42299E-05-2.71734E-05-2.87395E-05-5.40824E-07 4.18400E-19-6.84404E-19
 -1      4087 9.44041E-05-2.73778E-05-2.87284E-05-4.67967E-07 3.06411E-19-1.03490E-18
 -1      4088 9.44417E-05-2.74174E-05-2.87198E-05-3.11276E-07-1.15749E-19-1.86220E-18
 -1      4089 7.98684E-05-2.34795E-05-2.41587E-05 1.21424E-05 4.73857E-19 6.44260E-19
 -1      4090 8.15381E-05-2.59010E-05-2.38087E-05 1.45865E-05 1.00983E-18-9.22799E-19
 -1      4091 7.87084E-05-2.49560E-05-2.30465E-05 1.52771E-05 1.58726E-18 9.55749E-19
 -1      4092 7.76887E-05-2.13896E-05-2.41505E-05 9.66072E-06 4.79080E-19 4.17179E-19
 -1      4093 9.48610E-05-2.79085E-05-2.86940E-05-3.40169E-07 3.40502E-19-1.42243E-18
 -1      4094 9.49731E-05-2.80539E-05-2.86812E-05-3.01124E-07 6.20693E-19-1.39245E-18
 -1      4095 9.47572E-05-2.77859E-05-2.86987E-05-2.49837E-07 1.37179E-19-1.77647E-18
 -1      4096 9.32303E-05-2.61460E-05-2.87529E-05-8.69303E-07-4.84415E-19-7.46916E-19
 -1      4097 9.35093E-05-2.64291E-05-2.87533E-05-7.57154E-07-6.26606E-20-1.26009E-18
 -1      4098 9.25305E-05-2.55029E-05-2.87296E-05-1.08457E-06-6.92209E-19-1.04214E-19
 -1      4099 9.28813E-05-2.58296E-05-2.87422E-05-9.52238E-07-5.37356E-19-2.62070E-19
 -1      4100 9.29291E-05-2.58659E-05-2.87292E-05-6.10826E-07-6.95334E-19 1.93521E-20
 -1      4101 9.16590E-05-2.47716E-05-2.86709E-05-1.33251E-06-7.65158E-19-5.32657E-19
 -1      4102 9.20962E-05-2.51411E-05-2.87022E-05-1.18082E-06-8.11801E-19-2.48849E-19
 -1      4103 9.21524E-05-2.51750E-05-2.86889E-05-7.45462E-07-7.62072E-19-4.51775E-20
 -1      4104 9.05835E-05-2.39596E-05-2.85597E-05-1.61003E-06-9.38740E-19-6.85093E-20
 -1      4105 9.11233E-05-2.43668E-05-2.86187E-05-1.44052E-06-5.71426E-19 6.52222E-20
 -1      4106 9.11908E-05-2.43958E-05-2.86064E-05-8.90711E-07-9.10879E-19 2.29760E-19
 -1      4107 8.92672E-05-2.30841E-05-2.83729E-05-1.91371E-06-2.02641E-18-4.76078E-19
 -1      4108 8.99276E-05-2.35189E-05-2.84719E-05-1.72758E-06-1.26891E-18 2.93505E-19
 -1      4109 9.00103E-05-2.35380E-05-2.84628E-05-1.03875E-06-1.17831E-18 5.63178E-19
 -1      4110 8.76660E-05-2.21739E-05-2.80795E-05-2.24331E-06-1.10144E-18-9.68795E-19
 -1      4111 8.84684E-05-2.26198E-05-2.82349E-05-2.03880E-06-1.89648E-18-1.06525E-18
 -1      4112 8.85707E-05-2.26199E-05-2.82324E-05-1.17978E-06-1.21509E-18-5.80485E-19
 -1      4113 8.57210E-05-2.12686E-05-2.76375E-05-2.60928E-06 5.24515E-19-6.01731E-19
 -1      4114 8.66931E-05-2.17032E-05-2.78715E-05-2.37627E-06-9.39791E-20-4.92047E-19
 -1      4115 8.68203E-05-2.16682E-05-2.78808E-05-1.30392E-06-7.36919E-19-1.01109E-18
 -1      4116 8.33418E-05-2.04139E-05-2.69887E-05-3.04801E-06 5.08848E-19 3.26034E-19
 -1      4117 8.45249E-05-2.08107E-05-2.73322E-05-2.75673E-06 8.50968E-19 1.39026E-19
 -1      4118 8.46833E-05-2.07131E-05-2.73612E-05-1.40501E-06 2.00590E-19-8.19477E-19
 -1      4119 8.03891E-05-1.96545E-05-2.60499E-05-3.65069E-06-6.93583E-20 1.25986E-19
 -1      4120 8.18324E-05-1.99787E-05-2.65467E-05-3.23344E-06 2.11700E-19 4.24178E-19
 -1      4121 8.20317E-05-1.97762E-05-2.66075E-05-1.48594E-06 4.36033E-19 6.14694E-20
 -1      4122 7.67065E-05-1.90780E-05-2.47067E-05-4.60157E-06-3.08267E-19-1.45182E-19
 -1      4123 7.84311E-05-1.92969E-05-2.54093E-05-3.96967E-06-1.98189E-19-6.23549E-20
 -1      4124 7.85842E-05-1.88329E-05-2.55180E-05-1.59478E-06-1.38860E-19 3.12775E-19
 -1      4125 7.16251E-05-2.02396E-05-2.18742E-05-1.14940E-05 5.51518E-19-3.79994E-19
 -1      4126 9.60055E-05-2.54454E-05-3.02510E-05 2.77172E-07 4.97825E-19-2.51698E-18
 -1      4127 9.59854E-05-2.53750E-05-3.02723E-05 8.37461E-08 2.71306E-19-2.82272E-18
 -1      4128 9.63913E-05-2.63713E-05-2.99929E-05 1.82621E-07 5.68638E-19-2.27689E-18
 -1      4129 9.69082E-05-2.90121E-05-2.90968E-05 2.54431E-07-1.88646E-19-1.78263E-18
 -1      4130 9.68576E-05-2.91617E-05-2.90121E-05 2.84026E-07 1.16660E-19-1.66421E-18
 -1      4131 9.68664E-05-2.92185E-05-2.89950E-05 1.50975E-07 2.79825E-19-1.21843E-18
 -1      4132 9.68141E-05-2.77804E-05-2.95856E-05 6.35634E-08-4.32390E-19-2.36177E-18
 -1      4133 9.68926E-05-2.82081E-05-2.94395E-05 1.65062E-07-6.24741E-19-2.25332E-18
 -1      4134 9.66976E-05-2.85158E-05-2.92225E-05-4.45410E-07 4.20305E-19-1.85254E-18
 -1      4135 9.66941E-05-2.82190E-05-2.93446E-05-3.06317E-07 4.48307E-19-1.85615E-18
 -1      4136 9.67720E-05-2.80343E-05-2.94612E-05-2.00013E-07 4.51767E-19-1.86831E-18
 -1      4137 9.68023E-05-2.86108E-05-2.92256E-05-3.74198E-07 4.49973E-19-1.90422E-18
 -1      4138 9.64634E-05-2.92216E-05-2.88162E-05-6.30250E-07 4.17641E-19-1.62327E-18
 -1      4139 9.66209E-05-2.92211E-05-2.88875E-05-5.18707E-07 4.00783E-19-1.60005E-18
 -1      4140 9.63914E-05-2.92602E-05-2.87699E-05-6.24083E-07 2.45051E-19-1.51403E-18
 -1      4141 9.52848E-05-2.84358E-05-2.86490E-05-2.46201E-07 5.36278E-19-4.45905E-19
 -1      4142 9.53671E-05-2.85427E-05-2.86397E-05-2.33721E-07 4.59471E-19-1.42241E-19
 -1      4143 9.54583E-05-2.86465E-05-2.86328E-05-2.31660E-07 1.15254E-19 8.68597E-20
 -1      4144 9.55350E-05-2.87401E-05-2.86267E-05-2.29696E-07 1.53603E-19-1.17657E-19
 -1      4145 9.54193E-05-2.85931E-05-2.86402E-05-1.66526E-07 5.24438E-19-6.90340E-19
 -1      4146 9.50903E-05-2.81928E-05-2.86701E-05-2.81366E-07 6.78786E-19-1.36783E-18
 -1      4147 9.51841E-05-2.83167E-05-2.86586E-05-2.56527E-07 7.06926E-19-9.27681E-19
 -1      4148 9.52297E-05-2.83635E-05-2.86563E-05-1.79189E-07 9.24076E-19-1.60530E-18
 -1      4149 9.37878E-05-2.67009E-05-2.87532E-05-6.88149E-07 3.68355E-19-1.09260E-18
 -1      4150 9.40085E-05-2.69426E-05-2.87462E-05-5.96092E-07 6.80557E-19-5.69495E-19
 -1      4151 9.40473E-05-2.69811E-05-2.87358E-05-3.91872E-07 4.18408E-19-1.33425E-18
 -1      4152 9.35515E-05-2.64666E-05-2.87414E-05-4.92026E-07-1.62158E-19-5.02155E-19
 -1      4153 9.69468E-05-2.85528E-05-2.93089E-05 1.79195E-07-6.07467E-19-1.92590E-18
 -1      4154 9.69339E-05-2.88098E-05-2.91970E-05 2.40920E-07-3.61580E-19-1.92420E-18
 -1      4155 9.69550E-05-2.88922E-05-2.91700E-05 1.35880E-07-9.05683E-20-1.68447E-18
 -1      4156 9.56222E-05-2.88317E-05-2.86235E-05-2.34783E-07-2.89680E-19-2.61840E-19
 -1      4157 9.56979E-05-2.89144E-05-2.86215E-05-2.41432E-07-4.12968E-19-3.31746E-19
 -1      4158 9.55956E-05-2.87942E-05-2.86305E-05-1.66433E-07 1.27562E-20-2.06763E-19
 -1      4159 9.60178E-05-2.54131E-05-3.02592E-05-4.95021E-08 1.14683E-19-2.87010E-18
 -1      4160 9.62300E-05-2.59779E-05-3.01165E-05-2.38480E-07-1.32691E-19-2.55760E-18
 -1      4161 9.64473E-05-2.65333E-05-2.99586E-05-8.99045E-08-2.15220E-19-2.56814E-18
 -1      4162 9.64330E-05-2.63462E-05-3.00214E-05 2.60824E-08 1.55983E-19-2.69816E-18
 -1      4163 9.57857E-05-2.89953E-05-2.86233E-05-2.52536E-07-2.10698E-19-6.99097E-19
 -1      4164 9.58638E-05-2.90676E-05-2.86266E-05-2.65705E-07-2.23416E-19-8.95655E-19
 -1      4165 9.57685E-05-2.89715E-05-2.86295E-05-1.76828E-07-5.08786E-19-5.28363E-19
 -1      4166 9.50140E-05-2.80976E-05-2.86766E-05-2.06351E-07 8.39885E-19-1.59203E-18
 -1      4167 9.66785E-05-2.92886E-05-2.88809E-05-4.03132E-07 3.77853E-19-1.54904E-18
 -1      4168 9.67552E-05-2.92122E-05-2.89447E-05-3.88376E-07 4.61006E-19-1.69225E-18
 -1      4169 7.33525E-05-1.85493E-05-2.35361E-05-5.29831E-06 5.34214E-19-7.05661E-19
 -1      4170 7.36184E-05-1.79899E-05-2.37330E-05-2.21367E-06 5.60675E-19-9.64747E-19
 -1      4171 9.65831E-05-2.70324E-05-2.98111E-05 3.49122E-08 4.81248E-19-2.18886E-18
 -1      4172 9.62305E-05-2.92721E-05-2.86955E-05-5.82538E-07 8.18599E-21-1.33356E-18
 -1      4173 9.63038E-05-2.92728E-05-2.87266E-05-6.05577E-07 8.97579E-20-1.56844E-18
 -1      4174 9.64574E-05-2.93077E-05-2.87806E-05-5.08394E-07 7.63494E-20-1.45110E-18
 -1      4175 9.62889E-05-2.93107E-05-2.87073E-05-4.74959E-07-1.68866E-19-1.62310E-18
 -1      4176 9.59551E-05-2.91375E-05-2.86348E-05-2.81587E-07-3.21339E-19-9.20520E-19
 -1      4177 9.60377E-05-2.91976E-05-2.86451E-05-2.98982E-07-3.41324E-19-9.91936E-19
 -1      4178 9.59456E-05-2.91259E-05-2.86399E-05-1.95271E-07-2.52839E-19-8.50986E-19
 -1      4179 9.65991E-05-2.70028E-05-2.98310E-05-7.45000E-08-2.16712E-19-2.43365E-18
 -1      4180 9.67274E-05-2.74367E-05-2.96959E-05 2.91369E-08-3.23876E-19-2.41916E-18
 -1      4181 9.68039E-05-2.76249E-05-2.96457E-05 2.13166E-08-3.55578E-19-2.58521E-18
 -1      4182 9.65901E-05-2.68786E-05-2.98787E-05-2.90669E-08-2.33383E-19-2.63245E-18
 -1      4183 9.61345E-05-2.92545E-05-2.86615E-05-3.17910E-07-4.23180E-19-1.03504E-18
 -1      4184 9.62262E-05-2.93002E-05-2.86808E-05-3.38596E-07-3.32416E-19-1.42240E-18
 -1      4185 9.61316E-05-2.92538E-05-2.86652E-05-2.18095E-07-4.48761E-19-8.15507E-19
 -1      4186 6.95986E-05-1.78221E-05-2.20514E-05 5.33900E-06 1.59671E-18-1.67350E-18
 -1      4187 7.11413E-05-1.78283E-05-2.28681E-05 1.49987E-06 1.36457E-18-1.91730E-18
 -1      4188 7.42606E-05-1.82441E-05-2.40630E-05 1.52260E-06 8.63788E-19-9.65906E-19
 -1      4189 9.68531E-05-2.91697E-05-2.90103E-05-2.71299E-07 3.70228E-19-1.45356E-18
 -1      4190 9.68149E-05-2.90975E-05-2.90231E-05-3.90648E-07 3.61683E-19-1.64750E-18
 -1      4191 9.68592E-05-2.89315E-05-2.91101E-05-3.50873E-07 2.85681E-19-1.76495E-18
 -1      4192 9.69551E-05-2.83605E-05-2.94009E-05 9.62923E-08-4.36732E-19-2.16844E-18
 -1      4193 7.30530E-05-1.97612E-05-2.29105E-05 8.40752E-06 1.78931E-18-9.90896E-20
 -1      4194 7.09250E-05-1.86579E-05-2.24433E-05-6.49378E-06 8.01789E-19-4.36460E-19
 -1      4195 9.65940E-05-2.93344E-05-2.88236E-05-3.88947E-07 3.22898E-19-1.38882E-18
 -1      4196 9.67046E-05-2.93351E-05-2.88763E-05-2.79396E-07 2.46069E-19-1.40893E-18
 -1      4197 9.65075E-05-2.93521E-05-2.87794E-05-3.82764E-07 3.93840E-20-1.59423E-18
 -1      4198 9.65868E-05-2.94030E-05-2.87913E-05 3.25081E-08-3.17094E-19-1.10798E-18
 -1      4199 9.64903E-05-2.93983E-05-2.87511E-05 2.71643E-08-5.99660E-19-1.22673E-18
 -1      4200 9.63401E-05-2.93507E-05-2.87089E-05-4.90288E-08-6.77649E-19-1.35090E-18
 -1      4201 9.62424E-05-2.93072E-05-2.86843E-05-4.75209E-08-4.07933E-19-1.45375E-18
 -1      4202 9.61471E-05-2.92534E-05-2.86667E-05-4.16331E-08-3.19408E-19-1.34767E-18
 -1      4203 9.60488E-05-2.91911E-05-2.86514E-05-4.29015E-08-9.47597E-20-1.41845E-18
 -1      4204 9.59564E-05-2.91203E-05-2.86421E-05-3.71322E-08-1.77097E-19-1.36079E-18
 -1      4205 9.58618E-05-2.90440E-05-2.86348E-05-3.87337E-08-2.09272E-19-1.52050E-18
 -1      4206 9.57726E-05-2.89611E-05-2.86321E-05-3.47921E-08-2.58287E-19-1.54105E-18
 -1      4207 9.56806E-05-2.88730E-05-2.86309E-05-3.54665E-08-1.27101E-19-1.64645E-18
 -1      4208 9.55918E-05-2.87791E-05-2.86333E-05-3.46415E-08 1.63848E-19-1.72632E-18
 -1      4209 9.54991E-05-2.86791E-05-2.86367E-05-3.37653E-08 2.07524E-19-1.57610E-18
 -1      4210 9.54065E-05-2.85727E-05-2.86430E-05-3.69808E-08 4.33554E-19-1.51554E-18
 -1      4211 9.53081E-05-2.84587E-05-2.86499E-05-3.40022E-08 6.50203E-19-1.25742E-18
 -1      4212 9.52058E-05-2.83370E-05-2.86588E-05-4.20253E-08 9.35118E-19-1.53029E-18
 -1      4213 9.50956E-05-2.82054E-05-2.86681E-05-3.63503E-08 1.04447E-18-1.05642E-18
 -1      4214 9.49766E-05-2.80641E-05-2.86786E-05-4.98338E-08 5.77488E-19-9.00975E-19
 -1      4215 9.48472E-05-2.79102E-05-2.86889E-05-4.07411E-08 3.80729E-19-9.77242E-19
 -1      4216 9.47032E-05-2.77443E-05-2.86996E-05-6.01940E-08 1.17095E-19-9.56847E-19
 -1      4217 9.45459E-05-2.75628E-05-2.87096E-05-4.67396E-08-1.13135E-19-1.34208E-18
 -1      4218 9.43674E-05-2.73667E-05-2.87188E-05-7.24326E-08-1.05890E-19-1.07380E-18
 -1      4219 9.41726E-05-2.71523E-05-2.87266E-05-5.33237E-08-2.81019E-19-9.92810E-19
 -1      4220 9.39486E-05-2.69207E-05-2.87321E-05-8.51248E-08 5.91704E-20-7.10617E-19
 -1      4221 9.37057E-05-2.66686E-05-2.87351E-05-5.85439E-08-1.02236E-19-4.00793E-19
 -1      4222 9.34241E-05-2.63969E-05-2.87338E-05-9.56787E-08-5.82280E-19 4.51237E-20
 -1      4223 9.31216E-05-2.61035E-05-2.87285E-05-5.90274E-08-5.76783E-19 6.31267E-20
 -1      4224 9.27688E-05-2.57888E-05-2.87160E-05-9.97731E-08-8.70657E-19 3.96227E-19
 -1      4225 9.23946E-05-2.54528E-05-2.86976E-05-4.92952E-08-6.68887E-19-7.88236E-20
 -1      4226 9.19557E-05-2.50945E-05-2.86680E-05-9.06363E-08-7.26157E-19-1.70920E-19
 -1      4227 9.14973E-05-2.47181E-05-2.86302E-05-2.08602E-08-1.04558E-18-6.10126E-20
 -1      4228 9.09558E-05-2.43193E-05-2.85753E-05-5.81726E-08-1.08524E-18-1.72149E-19
 -1      4229 9.04001E-05-2.39089E-05-2.85095E-05 3.89174E-08-7.91089E-19-4.48294E-19
 -1      4230 8.97370E-05-2.34772E-05-2.84185E-05 1.20368E-08-9.43977E-19-5.40051E-19
 -1      4231 8.90698E-05-2.30445E-05-2.83133E-05 1.48240E-07-4.43864E-19-5.38789E-19
 -1      4232 8.82615E-05-2.25921E-05-2.81717E-05 1.39842E-07-2.68234E-19-1.03707E-18
 -1      4233 8.74659E-05-2.21543E-05-2.80121E-05 3.32595E-07-4.11339E-19-1.82747E-18
 -1      4234 8.64802E-05-2.16976E-05-2.78003E-05 3.51864E-07-3.40184E-19-1.74137E-18
 -1      4235 8.55329E-05-2.12761E-05-2.75665E-05 6.26937E-07-4.29307E-19-1.81589E-18
 -1      4236 8.43205E-05-2.08330E-05-2.72577E-05 6.83844E-07-7.40629E-20-1.62800E-18
 -1      4237 8.31861E-05-2.04513E-05-2.69229E-05 1.07878E-06 1.49060E-19-1.36391E-18
 -1      4238 8.16670E-05-2.00331E-05-2.64789E-05 1.18819E-06-2.91217E-19-1.08647E-18
 -1      4239 8.02977E-05-1.97170E-05-2.60066E-05 1.76164E-06 1.53773E-19-1.03574E-18
 -1      4240 7.58319E-05-2.19213E-05-2.30617E-05 1.19719E-05 1.21436E-18 1.72551E-18
 -1      4241 7.83121E-05-1.92600E-05-2.53676E-05 1.97668E-06 2.42534E-19-1.13436E-18
 -1      4242 9.67960E-05-2.76593E-05-2.96204E-05-3.86545E-08 4.49877E-19-1.96809E-18
 -1      4243 9.66202E-05-2.70253E-05-2.98317E-05 2.48617E-08 3.55302E-19-2.11462E-18
 -1      4244 9.70074E-05-2.88222E-05-2.92201E-05 1.07909E-08-2.06919E-19-1.73395E-18
 -1      4245 9.69799E-05-2.90285E-05-2.91226E-05 3.68671E-08 1.56336E-19-1.47080E-18
 -1      4246 9.68918E-05-2.92035E-05-2.90077E-05-6.24935E-08 4.36179E-19-1.30779E-18
 -1      4247 9.68213E-05-2.93027E-05-2.89341E-05-5.09276E-08 3.54121E-19-1.28067E-18
 -1      4248 9.67370E-05-2.93600E-05-2.88743E-05-5.94705E-08 2.02670E-19-1.41097E-18
 -1      4249 9.66396E-05-2.93908E-05-2.88195E-05-5.53887E-08-4.24134E-20-1.27802E-18
 -1      4250 9.65814E-05-2.93957E-05-2.87962E-05-1.85907E-07-1.48138E-19-1.42556E-18
 -1      4251 9.68970E-05-2.91208E-05-2.90486E-05-1.76243E-07 3.53642E-19-1.32494E-18
 -1      4252 9.69463E-05-2.82340E-05-2.94500E-05 2.17910E-08-9.82716E-20-1.84914E-18
 -1      4253 9.69491E-05-2.83776E-05-2.93887E-05-6.73811E-08 3.17111E-20-1.44280E-18
 -1      4254 7.66587E-05-1.90552E-05-2.47025E-05 2.69022E-06 4.23336E-19-9.37670E-19
 -1      4255 7.53816E-05-1.93646E-05-2.40011E-05 6.08020E-06 8.57623E-19-1.33912E-18
 -1      4256 7.50227E-05-2.04039E-05-2.33875E-05 8.64980E-06 1.06307E-18 7.20015E-20
 -1      4257 9.68563E-05-2.80492E-05-2.94886E-05-1.51603E-07 3.59260E-19-1.87990E-18
 -1      4258 9.63772E-05-2.93610E-05-2.87241E-05-1.63995E-07-5.76508E-19-1.14307E-18
 -1      4259 9.63791E-05-2.93529E-05-2.87255E-05-2.80951E-07-3.86894E-19-1.61819E-18
 -1      4260 9.66511E-05-2.70882E-05-2.98203E-05-1.49633E-08-1.16824E-19-2.31298E-18
 -1      4261 9.68790E-05-2.78209E-05-2.95910E-05 4.00421E-09-1.11637E-19-2.07195E-18
 -1      4262 9.64704E-05-2.93657E-05-2.87581E-05-2.92761E-07-2.85642E-19-1.43940E-18
 -1      4263 9.69289E-05-2.88018E-05-2.91954E-05-2.24417E-07 2.07907E-19-1.40361E-18
 -1      4264 9.68794E-05-2.87163E-05-2.92142E-05-3.17164E-07 3.45089E-19-1.81432E-18
 -1      4265 9.68990E-05-2.84892E-05-2.93186E-05-2.35494E-07 3.34411E-19-1.81879E-18
 -1      4266 9.67953E-05-2.74864E-05-2.96997E-05-7.89504E-09-2.09193E-19-2.13071E-18
 -1      4267 9.69156E-05-2.81730E-05-2.94641E-05-1.03001E-07 2.89322E-19-1.60941E-18
 -1      4268 9.69526E-05-2.89798E-05-2.91307E-05-1.72226E-07 4.92336E-20-1.33237E-18
 -1      4269 9.69795E-05-2.87656E-05-2.92323E-05-1.40931E-07 1.06731E-19-1.32567E-18
 -3
    1PSTEP                         4           1           1          
  100CL  101 1.000000000        4269                     0    1           1
 -4  ERROR       1    1
 -5  STR(%)      1    1    0    0
 -1         1 1.20724E+01
 -1         2 2.51921E+01
 -1         3 1.47769E-01
 -1         4 1.69081E-01
 -1         5 1.40389E+01
 -1         6 1.31432E+01
 -1         7 1.31432E+01
 -1         8 3.66368E+00
 -1         9 1.82521E+00
 -1        10 1.28931E+00
 -1        11 1.04645E+00
 -1        12 9.00038E-01
 -1        13 8.08902E-01
 -1        14 7.53826E-01
 -1        15 7.55798E-01
 -1        16 8.13168E-01
 -1        17 9.00891E-01
 -1        18 1.05271E+00
 -1        19 1.30789E+00
 -1        20 1.83591E+00
 -1        21 3.50549E+00
 -1        22 8.64110E+00
 -1        23 1.31432E+01
 -1        24 4.31753E+00
 -1        25 3.34042E+00
 -1        26 2.11093E+00
 -1        27 1.36220E+00
 -1        28 1.01384E+00
 -1        29 7.74796E-01
 -1        30 5.94922E-01
 -1        31 4.54623E-01
 -1        32 3.47058E-01
 -1        33 2.68126E-01
 -1        34 2.04681E-01
 -1        35 1.54668E-01
 -1        36 1.16118E-01
 -1        37 8.72412E-02
 -1        38 6.64656E-02
 -1        39 5.24502E-02
 -1        40 4.40700E-02
 -1        41 4.31376E-02
 -1        42 5.11348E-02
 -1        43 6.22904E-02
 -1        44 7.59147E-02
 -1        45 9.36614E-02
 -1        46 1.27032E-01
 -1        47 1.69415E-01
 -1        48 2.21046E-01
 -1        49 2.81129E-01
 -1        50 3.47113E-01
 -1        51 4.13743E-01
 -1        52 5.02807E-01
 -1        53 6.43969E-01
 -1        54 8.11277E-01
 -1        55 9.95135E-01
 -1        56 1.13569E+00
 -1        57 1.16394E+00
 -1        58 1.30653E+00
 -1        59 1.33104E+00
 -1        60 1.71191E+00
 -1        61 2.20259E+00
 -1        62 3.69970E+00
 -1        63 4.91382E+00
 -1        64 5.13584E+00
 -1        65 5.13584E+00
 -1        66 4.85990E+00
 -1        67 4.20346E+00
 -1        68 2.98015E+00
 -1        69 1.86974E+00
 -1        70 1.06008E+00
 -1        71 6.50979E-01
 -1        72 1.40389E+01
 -1        73 3.39458E+00
 -1        74 2.41290E+00
 -1        75 1.66565E+00
 -1        76 1.14450E+00
 -1        77 9.05869E-01
 -1        78 7.31141E-01
 -1        79 5.87620E-01
 -1        80 4.67966E-01
 -1        81 3.68329E-01
 -1        82 2.93977E-01
 -1        83 2.32030E-01
 -1        84 1.80850E-01
 -1        85 1.39654E-01
 -1        86 1.07469E-01
 -1        87 8.33026E-02
 -1        88 6.62421E-02
 -1        89 5.55110E-02
 -1        90 5.30451E-02
 -1        91 6.28609E-02
 -1        92 7.82782E-02
 -1        93 9.93766E-02
 -1        94 1.26207E-01
 -1        95 1.58625E-01
 -1        96 1.96035E-01
 -1        97 2.37695E-01
 -1        98 3.10864E-01
 -1        99 3.97491E-01
 -1       100 4.95177E-01
 -1       101 5.97664E-01
 -1       102 6.92607E-01
 -1       103 7.58865E-01
 -1       104 8.08901E-01
 -1       105 1.10094E+00
 -1       106 1.38844E+00
 -1       107 1.57041E+00
 -1       108 2.03190E+00
 -1       109 2.31075E+00
 -1       110 2.71065E+00
 -1       111 3.41541E+00
 -1       112 5.09123E+00
 -1       113 5.93345E+00
 -1       114 6.10028E+00
 -1       115 6.10028E+00
 -1       116 5.06002E+00
 -1       117 3.12041E+00
 -1       118 1.59249E+00
 -1       119 7.00096E-01
 -1       120 3.61718E-01
 -1       121 3.06275E-01
 -1       122 7.11829E-01
 -1       123 1.01021E+00
 -1       124 1.09917E+00
 -1       125 1.09917E+00
 -1       126 6.75626E-01
 -1       127 1.75831E+00
 -1       128 1.75831E+00
 -1       129 1.54515E+00
 -1       130 8.90186E-01
 -1       131 1.15911E+00
 -1       132 1.15911E+00
 -1       133 1.01422E+00
 -1       134 7.15643E-01
 -1       135 2.96689E-01
 -1       136 3.36626E-01
 -1       137 2.47051E+01
 -1       138 4.50433E+01
 -1       139 4.50433E+01
 -1       140 1.71643E+01
 -1       141 1.26304E+01
 -1       142 1.26304E+01
 -1       143 1.24266E+01
 -1       144 1.32141E+01
 -1       145 1.32141E+01
 -1       146 1.53042E+01
 -1       147 4.12066E+01
 -1       148 4.12066E+01
 -1       149 2.35591E+01
 -1       150 2.35591E+01
 -1       151 2.41241E+01
 -1       152 2.59660E+01
 -1       153 3.50875E+01
 -1       154 3.50875E+01
 -1       155 1.36448E+01
 -1       156 1.20724E+01
 -1       157 1.23153E+01
 -1       158 1.24597E+01
 -1       159 1.24597E+01
 -1       160 1.88754E+01
 -1       161 4.72442E+01
 -1       162 4.72442E+01
 -1       163 2.51921E+01
 -1       164 6.07769E+00
 -1       165 2.29897E+00
 -1       166 1.50780E+00
 -1       167 1.15807E+00
 -1       168 9.73639E-01
 -1       169 8.64619E-01
 -1       170 7.96018E-01
 -1       171 7.55798E-01
 -1       172 7.99448E-01
 -1       173 8.67259E-01
 -1       174 9.81086E-01
 -1       175 1.17261E+00
 -1       176 1.52771E+00
 -1       177 2.26094E+00
 -1       178 3.93111E+00
 -1       179 1.40389E+01
 -1       180 4.31753E+00
 -1       181 3.34042E+00
 -1       182 2.11093E+00
 -1       183 1.44681E+00
 -1       184 1.02506E+00
 -1       185 7.74796E-01
 -1       186 5.94922E-01
 -1       187 4.67450E-01
 -1       188 3.67325E-01
 -1       189 2.89344E-01
 -1       190 2.32587E-01
 -1       191 1.84459E-01
 -1       192 1.44794E-01
 -1       193 1.12969E-01
 -1       194 8.81411E-02
 -1       195 6.93892E-02
 -1       196 5.57856E-02
 -1       197 4.64292E-02
 -1       198 4.31376E-02
 -1       199 5.11348E-02
 -1       200 6.22904E-02
 -1       201 7.76641E-02
 -1       202 1.02806E-01
 -1       203 1.34725E-01
 -1       204 1.73584E-01
 -1       205 2.21046E-01
 -1       206 2.83320E-01
 -1       207 3.75208E-01
 -1       208 4.78459E-01
 -1       209 5.85021E-01
 -1       210 6.80272E-01
 -1       211 8.12437E-01
 -1       212 9.95135E-01
 -1       213 1.13569E+00
 -1       214 1.16394E+00
 -1       215 1.30653E+00
 -1       216 1.33104E+00
 -1       217 1.71191E+00
 -1       218 2.44788E+00
 -1       219 3.69970E+00
 -1       220 4.91382E+00
 -1       221 5.13584E+00
 -1       222 4.85990E+00
 -1       223 4.20346E+00
 -1       224 3.05137E+00
 -1       225 2.15157E+00
 -1       226 1.39091E+00
 -1       227 7.65459E-01
 -1       228 3.39458E+00
 -1       229 2.41290E+00
 -1       230 1.66565E+00
 -1       231 1.14450E+00
 -1       232 9.05869E-01
 -1       233 7.31141E-01
 -1       234 5.87620E-01
 -1       235 4.67966E-01
 -1       236 3.68329E-01
 -1       237 2.93977E-01
 -1       238 2.32030E-01
 -1       239 1.83801E-01
 -1       240 1.44594E-01
 -1       241 1.13147E-01
 -1       242 8.88089E-02
 -1       243 7.08738E-02
 -1       244 5.86644E-02
 -1       245 5.19607E-02
 -1       246 5.81505E-02
 -1       247 6.89202E-02
 -1       248 8.40755E-02
 -1       249 1.03343E-01
 -1       250 1.26223E-01
 -1       251 1.62822E-01
 -1       252 2.13382E-01
 -1       253 2.74479E-01
 -1       254 3.45491E-01
 -1       255 4.24226E-01
 -1       256 5.06539E-01
 -1       257 5.97664E-01
 -1       258 6.92607E-01
 -1       259 7.58865E-01
 -1       260 9.57103E-01
 -1       261 1.13667E+00
 -1       262 1.38844E+00
 -1       263 1.57041E+00
 -1       264 2.03190E+00
 -1       265 2.31075E+00
 -1       266 2.71065E+00
 -1       267 3.53199E+00
 -1       268 5.09123E+00
 -1       269 5.93345E+00
 -1       270 6.10028E+00
 -1       271 5.06002E+00
 -1       272 3.12041E+00
 -1       273 1.75822E+00
 -1       274 8.59933E-01
 -1       275 5.16672E-01
 -1       276 1.02430E+00
 -1       277 1.54149E+00
 -1       278 1.88146E+00
 -1       279 1.88146E+00
 -1       280 1.87508E+00
 -1       281 3.09437E+00
 -1       282 3.92965E+00
 -1       283 3.92965E+00
 -1       284 2.51472E+00
 -1       285 1.96071E+00
 -1       286 1.96071E+00
 -1       287 1.94344E+00
 -1       288 1.62852E+00
 -1       289 1.05999E+00
 -1       290 9.30478E-01
 -1       291 3.17024E+01
 -1       292 3.89696E+01
 -1       293 4.50433E+01
 -1       294 1.76324E+01
 -1       295 1.11893E+01
 -1       296 1.26304E+01
 -1       297 1.24266E+01
 -1       298 1.21585E+01
 -1       299 1.32141E+01
 -1       300 1.14826E+01
 -1       301 1.53042E+01
 -1       302 4.12066E+01
 -1       303 3.45145E+01
 -1       304 2.53332E+01
 -1       305 2.64412E+01
 -1       306 2.64412E+01
 -1       307 3.30152E+01
 -1       308 3.50875E+01
 -1       309 1.36448E+01
 -1       310 1.15738E+01
 -1       311 1.20724E+01
 -1       312 1.18081E+01
 -1       313 1.23153E+01
 -1       314 1.24597E+01
 -1       315 1.10734E+01
 -1       316 2.22331E+01
 -1       317 4.72442E+01
 -1       318 2.90294E+01
 -1       319 3.17024E+01
 -1       320 1.04841E+00
 -1       321 2.48006E+00
 -1       322 7.95346E-01
 -1       323 6.95076E-01
 -1       324 6.31918E-01
 -1       325 5.87644E-01
 -1       326 5.90857E-01
 -1       327 6.34559E-01
 -1       328 7.01322E-01
 -1       329 7.96548E-01
 -1       330 9.31980E-01
 -1       331 1.16033E+00
 -1       332 1.32927E+00
 -1       333 2.20053E+00
 -1       334 1.91399E+00
 -1       335 1.72897E+00
 -1       336 1.26700E+00
 -1       337 9.06654E-01
 -1       338 6.55519E-01
 -1       339 5.38078E-01
 -1       340 4.40873E-01
 -1       341 3.55222E-01
 -1       342 2.89777E-01
 -1       343 2.34490E-01
 -1       344 1.87028E-01
 -1       345 1.51641E-01
 -1       346 1.22429E-01
 -1       347 9.80020E-02
 -1       348 7.81194E-02
 -1       349 6.22906E-02
 -1       350 4.98730E-02
 -1       351 4.07030E-02
 -1       352 4.10418E-02
 -1       353 4.54187E-02
 -1       354 5.87631E-02
 -1       355 7.76641E-02
 -1       356 1.02806E-01
 -1       357 1.43542E-01
 -1       358 1.98705E-01
 -1       359 2.66394E-01
 -1       360 3.46158E-01
 -1       361 4.35257E-01
 -1       362 5.27391E-01
 -1       363 6.11246E-01
 -1       364 6.95021E-01
 -1       365 7.88348E-01
 -1       366 8.56353E-01
 -1       367 8.33671E-01
 -1       368 7.17443E-01
 -1       369 6.12800E-01
 -1       370 9.77837E-01
 -1       371 1.77336E+00
 -1       372 2.39648E+00
 -1       373 3.08171E+00
 -1       374 3.35832E+00
 -1       375 3.16207E+00
 -1       376 3.10692E+00
 -1       377 2.71488E+00
 -1       378 2.21753E+00
 -1       379 1.79595E+00
 -1       380 1.50993E+00
 -1       381 1.13021E+00
 -1       382 8.90829E-01
 -1       383 7.03255E-01
 -1       384 5.44427E-01
 -1       385 4.37178E-01
 -1       386 3.70561E-01
 -1       387 3.06679E-01
 -1       388 2.51142E-01
 -1       389 2.05759E-01
 -1       390 1.66043E-01
 -1       391 1.32493E-01
 -1       392 1.04991E-01
 -1       393 8.33385E-02
 -1       394 6.72087E-02
 -1       395 5.58433E-02
 -1       396 4.88285E-02
 -1       397 4.71676E-02
 -1       398 5.19228E-02
 -1       399 6.07264E-02
 -1       400 7.89697E-02
 -1       401 1.04163E-01
 -1       402 1.36343E-01
 -1       403 1.88865E-01
 -1       404 2.66325E-01
 -1       405 3.65011E-01
 -1       406 4.86600E-01
 -1       407 6.30037E-01
 -1       408 7.89184E-01
 -1       409 9.49540E-01
 -1       410 1.08441E+00
 -1       411 1.21871E+00
 -1       412 1.25847E+00
 -1       413 1.25847E+00
 -1       414 1.11675E+00
 -1       415 9.98108E-01
 -1       416 1.27302E+00
 -1       417 2.51301E+00
 -1       418 3.36170E+00
 -1       419 3.73598E+00
 -1       420 3.59730E+00
 -1       421 3.48250E+00
 -1       422 3.16104E+00
 -1       423 2.73106E+00
 -1       424 2.22570E+00
 -1       425 1.45635E+00
 -1       426 6.57223E-01
 -1       427 2.61348E+00
 -1       428 2.32393E+00
 -1       429 1.45635E+00
 -1       430 2.93308E+00
 -1       431 4.12894E+00
 -1       432 6.49765E+00
 -1       433 6.49765E+00
 -1       434 5.82566E+00
 -1       435 4.08199E+00
 -1       436 2.72445E+00
 -1       437 2.53985E+00
 -1       438 2.14823E+00
 -1       439 1.67559E+00
 -1       440 2.60818E+01
 -1       441 3.17024E+01
 -1       442 2.87390E+01
 -1       443 1.43975E+01
 -1       444 8.29869E+00
 -1       445 9.11028E-01
 -1       446 1.11623E+01
 -1       447 1.11253E+01
 -1       448 1.05584E+01
 -1       449 7.56857E+00
 -1       450 7.67106E+00
 -1       451 1.38680E+01
 -1       452 2.28129E+01
 -1       453 2.06250E+01
 -1       454 3.25534E+01
 -1       455 3.25534E+01
 -1       456 2.65389E+01
 -1       457 2.19700E+01
 -1       458 1.27258E+01
 -1       459 7.30748E+00
 -1       460 9.12736E+00
 -1       461 1.08001E+01
 -1       462 1.07426E+01
 -1       463 1.02683E+01
 -1       464 7.99167E+00
 -1       465 8.66822E+00
 -1       466 1.56266E+01
 -1       467 2.90294E+01
 -1       468 3.16951E+01
 -1       469 8.11426E+00
 -1       470 1.37840E+01
 -1       471 8.71854E+00
 -1       472 2.06250E+01
 -1       473 7.96570E+00
 -1       474 1.04746E+00
 -1       475 4.86670E-01
 -1       476 5.14666E-01
 -1       477 4.31626E-01
 -1       478 4.57555E-01
 -1       479 4.87160E-01
 -1       480 5.11369E-01
 -1       481 5.11369E-01
 -1       482 6.09422E-01
 -1       483 8.90829E-01
 -1       484 8.03031E-01
 -1       485 5.61592E+00
 -1       486 7.01748E-01
 -1       487 5.88458E-01
 -1       488 4.76007E-01
 -1       489 3.77268E-01
 -1       490 3.22413E-01
 -1       491 2.72319E-01
 -1       492 2.24941E-01
 -1       493 1.86429E-01
 -1       494 1.52805E-01
 -1       495 1.23552E-01
 -1       496 9.89160E-02
 -1       497 7.94482E-02
 -1       498 6.37070E-02
 -1       499 5.03397E-02
 -1       500 4.01238E-02
 -1       501 3.47052E-02
 -1       502 3.63831E-02
 -1       503 4.51031E-02
 -1       504 6.04338E-02
 -1       505 9.02186E-02
 -1       506 1.28263E-01
 -1       507 1.76074E-01
 -1       508 2.34788E-01
 -1       509 3.04756E-01
 -1       510 3.84936E-01
 -1       511 4.72040E-01
 -1       512 5.59482E-01
 -1       513 6.40911E-01
 -1       514 7.11058E-01
 -1       515 7.74410E-01
 -1       516 8.41001E-01
 -1       517 8.54199E-01
 -1       518 9.70998E-01
 -1       519 1.20725E+00
 -1       520 1.41766E+00
 -1       521 2.09681E+00
 -1       522 2.36250E+00
 -1       523 2.95025E+00
 -1       524 2.94227E+00
 -1       525 3.07616E+00
 -1       526 2.48791E+00
 -1       527 2.40665E+00
 -1       528 2.42690E+00
 -1       529 5.44427E-01
 -1       530 4.37178E-01
 -1       531 3.70561E-01
 -1       532 3.06679E-01
 -1       533 2.51142E-01
 -1       534 2.06480E-01
 -1       535 1.67321E-01
 -1       536 1.33939E-01
 -1       537 1.08600E-01
 -1       538 8.77716E-02
 -1       539 7.04022E-02
 -1       540 5.61320E-02
 -1       541 4.44044E-02
 -1       542 3.87939E-02
 -1       543 3.70482E-02
 -1       544 4.62169E-02
 -1       545 5.99340E-02
 -1       546 8.42663E-02
 -1       547 1.24199E-01
 -1       548 1.76627E-01
 -1       549 2.44309E-01
 -1       550 3.29870E-01
 -1       551 4.35276E-01
 -1       552 5.60904E-01
 -1       553 7.04063E-01
 -1       554 8.56813E-01
 -1       555 1.00319E+00
 -1       556 1.12695E+00
 -1       557 1.22159E+00
 -1       558 1.35931E+00
 -1       559 1.45274E+00
 -1       560 1.43373E+00
 -1       561 1.88612E+00
 -1       562 2.15019E+00
 -1       563 2.89948E+00
 -1       564 4.89420E+00
 -1       565 9.11137E+00
 -1       566 8.10124E+00
 -1       567 4.64877E+00
 -1       568 3.23087E+00
 -1       569 2.85881E+00
 -1       570 2.93154E+00
 -1       571 6.37295E+00
 -1       572 1.42250E+01
 -1       573 2.93154E+00
 -1       574 3.48344E+00
 -1       575 1.54307E+01
 -1       576 1.39153E+01
 -1       577 9.73863E+00
 -1       578 5.21845E+00
 -1       579 4.02839E+00
 -1       580 2.53811E+00
 -1       581 1.91310E+00
 -1       582 3.16951E+01
 -1       583 7.03255E-01
 -1       584 2.87390E+01
 -1       585 2.05713E+01
 -1       586 8.71990E-01
 -1       587 5.77178E+00
 -1       588 4.57435E-01
 -1       589 9.11137E+00
 -1       590 3.85786E+00
 -1       591 8.73701E+00
 -1       592 2.65389E+01
 -1       593 7.15502E+00
 -1       594 1.09090E+01
 -1       595 2.53142E+01
 -1       596 3.25534E+01
 -1       597 1.73235E+01
 -1       598 1.06766E+01
 -1       599 7.18229E+00
 -1       600 4.06831E+00
 -1       601 6.83148E+00
 -1       602 8.52153E+00
 -1       603 8.44053E+00
 -1       604 3.21077E+00
 -1       605 1.08592E+01
 -1       606 6.69484E+00
 -1       607 2.10515E+01
 -1       608 1.32791E+00
 -1       609 3.73440E+00
 -1       610 8.10124E+00
 -1       611 5.31265E-01
 -1       612 1.16483E+01
 -1       613 4.13678E+00
 -1       614 7.48939E+00
 -1       615 1.91310E+00
 -1       616 8.05077E+00
 -1       617 1.97602E+01
 -1       618 1.16098E+01
 -1       619 8.59376E+00
 -1       620 5.15986E+00
 -1       621 3.58471E-01
 -1       622 3.42851E-01
 -1       623 3.61898E-01
 -1       624 3.38056E-01
 -1       625 5.43909E-01
 -1       626 6.08184E+00
 -1       627 5.14834E-01
 -1       628 2.05713E+01
 -1       629 3.96793E-01
 -1       630 3.83939E-01
 -1       631 3.42837E-01
 -1       632 2.93228E-01
 -1       633 2.43621E-01
 -1       634 2.12425E-01
 -1       635 1.79979E-01
 -1       636 1.49056E-01
 -1       637 1.21187E-01
 -1       638 9.81522E-02
 -1       639 7.94482E-02
 -1       640 6.37070E-02
 -1       641 5.03397E-02
 -1       642 3.93699E-02
 -1       643 3.05282E-02
 -1       644 2.51281E-02
 -1       645 3.01929E-02
 -1       646 4.73794E-02
 -1       647 7.23143E-02
 -1       648 1.03754E-01
 -1       649 1.43210E-01
 -1       650 1.92141E-01
 -1       651 2.51791E-01
 -1       652 3.22929E-01
 -1       653 4.05468E-01
 -1       654 4.99165E-01
 -1       655 6.01353E-01
 -1       656 6.99597E-01
 -1       657 7.90015E-01
 -1       658 9.31068E-01
 -1       659 1.10285E+00
 -1       660 1.25098E+00
 -1       661 1.52944E+00
 -1       662 1.97020E+00
 -1       663 2.09681E+00
 -1       664 4.17723E+00
 -1       665 5.41299E+00
 -1       666 6.08184E+00
 -1       667 6.39149E+00
 -1       668 5.66542E+00
 -1       669 4.50252E+00
 -1       670 3.12565E+00
 -1       671 3.27345E-01
 -1       672 6.39149E+00
 -1       673 3.95959E-01
 -1       674 2.33007E-01
 -1       675 1.95834E-01
 -1       676 1.61814E-01
 -1       677 1.33985E-01
 -1       678 1.09299E-01
 -1       679 8.81290E-02
 -1       680 7.04022E-02
 -1       681 5.61320E-02
 -1       682 4.44044E-02
 -1       683 3.58613E-02
 -1       684 2.91773E-02
 -1       685 3.44536E-02
 -1       686 4.53095E-02
 -1       687 7.12116E-02
 -1       688 1.04737E-01
 -1       689 1.48037E-01
 -1       690 2.03478E-01
 -1       691 2.73558E-01
 -1       692 3.60743E-01
 -1       693 4.67174E-01
 -1       694 5.94185E-01
 -1       695 7.41542E-01
 -1       696 9.06255E-01
 -1       697 1.08221E+00
 -1       698 1.25002E+00
 -1       699 1.43047E+00
 -1       700 1.75296E+00
 -1       701 2.13018E+00
 -1       702 2.46125E+00
 -1       703 2.55824E+00
 -1       704 3.05368E+00
 -1       705 4.89420E+00
 -1       706 4.64877E+00
 -1       707 3.23087E+00
 -1       708 2.93154E+00
 -1       709 2.42690E+00
 -1       710 2.06287E+01
 -1       711 7.33134E+00
 -1       712 3.12565E+00
 -1       713 4.63595E-01
 -1       714 5.66542E+00
 -1       715 3.57938E+00
 -1       716 6.39149E+00
 -1       717 5.31265E-01
 -1       718 1.46606E+01
 -1       719 2.72824E-01
 -1       720 6.10210E+00
 -1       721 4.02402E-01
 -1       722 3.61898E-01
 -1       723 1.58133E+01
 -1       724 3.58963E-01
 -1       725 3.98394E+00
 -1       726 8.70065E+00
 -1       727 1.59986E+01
 -1       728 3.43997E+00
 -1       729 7.26803E+00
 -1       730 5.41299E+00
 -1       731 4.33277E+00
 -1       732 3.78786E-01
 -1       733 3.42333E-01
 -1       734 7.14226E+00
 -1       735 4.92391E+00
 -1       736 6.12052E+00
 -1       737 6.88816E+00
 -1       738 4.20976E+00
 -1       739 3.57452E-01
 -1       740 6.05405E+00
 -1       741 3.21077E+00
 -1       742 1.38878E+01
 -1       743 4.48679E+00
 -1       744 2.43261E-01
 -1       745 2.55161E-01
 -1       746 2.48237E-01
 -1       747 2.26547E-01
 -1       748 1.98244E-01
 -1       749 1.71628E-01
 -1       750 1.50463E-01
 -1       751 1.28225E-01
 -1       752 1.06777E-01
 -1       753 8.71200E-02
 -1       754 6.96523E-02
 -1       755 5.43404E-02
 -1       756 4.08555E-02
 -1       757 2.86574E-02
 -1       758 1.70396E-02
 -1       759 1.79257E-02
 -1       760 3.18506E-02
 -1       761 5.23063E-02
 -1       762 7.80282E-02
 -1       763 1.12018E-01
 -1       764 1.54877E-01
 -1       765 2.07436E-01
 -1       766 2.70151E-01
 -1       767 3.42288E-01
 -1       768 4.23525E-01
 -1       769 5.35578E-01
 -1       770 6.65359E-01
 -1       771 8.08175E-01
 -1       772 9.85987E-01
 -1       773 1.17332E+00
 -1       774 1.52672E+00
 -1       775 1.94458E+00
 -1       776 2.54171E+00
 -1       777 3.41042E+00
 -1       778 1.62934E-01
 -1       779 1.88562E-01
 -1       780 1.13138E-01
 -1       781 9.15977E-02
 -1       782 7.28267E-02
 -1       783 5.66685E-02
 -1       784 4.33850E-02
 -1       785 3.31751E-02
 -1       786 2.37317E-02
 -1       787 2.08873E-02
 -1       788 3.14614E-02
 -1       789 5.21109E-02
 -1       790 7.81002E-02
 -1       791 1.11083E-01
 -1       792 1.52945E-01
 -1       793 2.05840E-01
 -1       794 2.78418E-01
 -1       795 3.71411E-01
 -1       796 4.84868E-01
 -1       797 6.18669E-01
 -1       798 7.72548E-01
 -1       799 9.80142E-01
 -1       800 1.22741E+00
 -1       801 1.55253E+00
 -1       802 1.95210E+00
 -1       803 2.40719E+00
 -1       804 3.36579E+00
 -1       805 3.74758E+00
 -1       806 2.88549E-01
 -1       807 7.57892E+00
 -1       808 1.11885E+01
 -1       809 3.04620E+00
 -1       810 1.37201E-01
 -1       811 2.86269E-01
 -1       812 1.03686E+01
 -1       813 2.32354E-01
 -1       814 9.70403E+00
 -1       815 2.82721E-01
 -1       816 5.83364E+00
 -1       817 3.19041E+00
 -1       818 2.81714E-01
 -1       819 2.79420E-01
 -1       820 2.88549E-01
 -1       821 6.82653E+00
 -1       822 3.29687E+00
 -1       823 4.50252E+00
 -1       824 3.05479E-01
 -1       825 2.17018E-01
 -1       826 8.34756E+00
 -1       827 2.69800E-01
 -1       828 7.47999E+00
 -1       829 2.60245E-01
 -1       830 2.87880E-01
 -1       831 2.53725E-01
 -1       832 2.84765E-01
 -1       833 4.17723E+00
 -1       834 9.11137E+00
 -1       835 5.52884E+00
 -1       836 1.82422E-01
 -1       837 1.75155E-01
 -1       838 1.59464E-01
 -1       839 1.39837E-01
 -1       840 1.23248E-01
 -1       841 1.06848E-01
 -1       842 9.02019E-02
 -1       843 7.43853E-02
 -1       844 5.99098E-02
 -1       845 4.68768E-02
 -1       846 3.51096E-02
 -1       847 2.51570E-02
 -1       848 2.66792E-02
 -1       849 3.12155E-02
 -1       850 4.97309E-02
 -1       851 7.49347E-02
 -1       852 1.07051E-01
 -1       853 1.47578E-01
 -1       854 1.98058E-01
 -1       855 2.59896E-01
 -1       856 3.34145E-01
 -1       857 4.21126E-01
 -1       858 5.19776E-01
 -1       859 6.26434E-01
 -1       860 7.76239E-01
 -1       861 9.74647E-01
 -1       862 1.31833E+00
 -1       863 1.77083E+00
 -1       864 2.19959E+00
 -1       865 2.54171E+00
 -1       866 3.59310E+00
 -1       867 8.00374E-02
 -1       868 9.74925E-02
 -1       869 5.01677E-02
 -1       870 3.75707E-02
 -1       871 2.59869E-02
 -1       872 2.22845E-02
 -1       873 2.55177E-02
 -1       874 4.41042E-02
 -1       875 6.78488E-02
 -1       876 1.00208E-01
 -1       877 1.42438E-01
 -1       878 1.96846E-01
 -1       879 2.66304E-01
 -1       880 3.54054E-01
 -1       881 4.63690E-01
 -1       882 5.99055E-01
 -1       883 7.63859E-01
 -1       884 9.60558E-01
 -1       885 1.18809E+00
 -1       886 1.51714E+00
 -1       887 2.02223E+00
 -1       888 2.97650E+00
 -1       889 3.50239E+00
 -1       890 4.45036E+00
 -1       891 6.42466E-02
 -1       892 1.52068E-01
 -1       893 2.87880E-01
 -1       894 8.34756E+00
 -1       895 1.42278E-01
 -1       896 6.23760E+00
 -1       897 1.74450E-01
 -1       898 1.63640E-01
 -1       899 4.37738E+00
 -1       900 2.08761E-01
 -1       901 1.75707E-01
 -1       902 1.34909E-01
 -1       903 4.29792E+00
 -1       904 2.09162E-01
 -1       905 1.16128E-01
 -1       906 2.17452E-01
 -1       907 2.17452E-01
 -1       908 2.20847E-01
 -1       909 5.43985E+00
 -1       910 6.42144E+00
 -1       911 2.03125E-01
 -1       912 1.35990E-01
 -1       913 1.80444E-01
 -1       914 2.04874E-01
 -1       915 1.35317E-01
 -1       916 1.26512E-01
 -1       917 1.13260E-01
 -1       918 9.81190E-02
 -1       919 8.56252E-02
 -1       920 7.27312E-02
 -1       921 6.03267E-02
 -1       922 4.88329E-02
 -1       923 3.84230E-02
 -1       924 3.13008E-02
 -1       925 3.22593E-02
 -1       926 3.58095E-02
 -1       927 4.32720E-02
 -1       928 6.46751E-02
 -1       929 9.21875E-02
 -1       930 1.27358E-01
 -1       931 1.71948E-01
 -1       932 2.27961E-01
 -1       933 2.97700E-01
 -1       934 3.83873E-01
 -1       935 4.89728E-01
 -1       936 6.19144E-01
 -1       937 7.76239E-01
 -1       938 9.63705E-01
 -1       939 1.25566E+00
 -1       940 1.73749E+00
 -1       941 2.19959E+00
 -1       942 8.04894E-02
 -1       943 3.14328E-02
 -1       944 4.19920E-02
 -1       945 3.20836E-02
 -1       946 3.95081E-02
 -1       947 6.05469E-02
 -1       948 8.85664E-02
 -1       949 1.24767E-01
 -1       950 1.71304E-01
 -1       951 2.30768E-01
 -1       952 3.06353E-01
 -1       953 4.02186E-01
 -1       954 5.23932E-01
 -1       955 6.79912E-01
 -1       956 8.82867E-01
 -1       957 1.15181E+00
 -1       958 1.51714E+00
 -1       959 2.00837E+00
 -1       960 2.72271E+00
 -1       961 3.60932E+00
 -1       962 4.76086E+00
 -1       963 4.80872E+00
 -1       964 2.20847E-01
 -1       965 1.91768E-01
 -1       966 2.92847E-02
 -1       967 1.22889E-01
 -1       968 1.96361E-01
 -1       969 2.80206E+00
 -1       970 1.41429E-01
 -1       971 1.40615E-01
 -1       972 1.53686E-01
 -1       973 6.64653E-02
 -1       974 5.36184E-02
 -1       975 3.60932E+00
 -1       976 4.05911E+00
 -1       977 4.25401E+00
 -1       978 9.49676E-02
 -1       979 1.45666E-01
 -1       980 1.95862E-01
 -1       981 1.24713E-01
 -1       982 1.08567E-01
 -1       983 1.52300E-01
 -1       984 3.41600E-02
 -1       985 1.03176E-01
 -1       986 9.78039E-02
 -1       987 8.85036E-02
 -1       988 7.72944E-02
 -1       989 6.55907E-02
 -1       990 5.52955E-02
 -1       991 4.60430E-02
 -1       992 3.76370E-02
 -1       993 3.51999E-02
 -1       994 3.52843E-02
 -1       995 3.80942E-02
 -1       996 4.40090E-02
 -1       997 5.51596E-02
 -1       998 7.16591E-02
 -1       999 9.91863E-02
 -1      1000 1.34742E-01
 -1      1001 1.80403E-01
 -1      1002 2.38858E-01
 -1      1003 3.13768E-01
 -1      1004 4.10407E-01
 -1      1005 5.36780E-01
 -1      1006 7.05480E-01
 -1      1007 9.36004E-01
 -1      1008 1.25566E+00
 -1      1009 1.69827E+00
 -1      1010 2.03054E+00
 -1      1011 7.06976E-02
 -1      1012 4.90479E-02
 -1      1013 3.99166E-02
 -1      1014 9.88589E-02
 -1      1015 1.35016E-01
 -1      1016 1.81133E-01
 -1      1017 2.39680E-01
 -1      1018 3.13981E-01
 -1      1019 4.08913E-01
 -1      1020 5.32324E-01
 -1      1021 6.97950E-01
 -1      1022 9.31597E-01
 -1      1023 1.27628E+00
 -1      1024 1.82747E+00
 -1      1025 2.76220E+00
 -1      1026 3.03960E+00
 -1      1027 1.08943E-01
 -1      1028 9.01532E-02
 -1      1029 1.95862E-01
 -1      1030 3.52286E-02
 -1      1031 3.34410E-02
 -1      1032 1.55843E-01
 -1      1033 8.11541E-02
 -1      1034 2.37371E+00
 -1      1035 1.01908E-01
 -1      1036 4.24499E-02
 -1      1037 1.11524E-01
 -1      1038 4.26333E+00
 -1      1039 5.23528E-02
 -1      1040 6.13921E-02
 -1      1041 3.59331E+00
 -1      1042 3.07385E+00
 -1      1043 9.59813E-02
 -1      1044 1.10380E-01
 -1      1045 1.17288E-01
 -1      1046 8.00094E-02
 -1      1047 6.56086E-02
 -1      1048 8.69336E-02
 -1      1049 5.75364E-02
 -1      1050 4.97664E-02
 -1      1051 4.19055E-02
 -1      1052 3.74711E-02
 -1      1053 3.52843E-02
 -1      1054 3.80942E-02
 -1      1055 4.40090E-02
 -1      1056 5.51596E-02
 -1      1057 7.14113E-02
 -1      1058 9.31813E-02
 -1      1059 1.24409E-01
 -1      1060 1.65569E-01
 -1      1061 2.19397E-01
 -1      1062 2.90219E-01
 -1      1063 3.84756E-01
 -1      1064 5.13951E-01
 -1      1065 6.96236E-01
 -1      1066 9.62823E-01
 -1      1067 1.36139E+00
 -1      1068 1.93460E+00
 -1      1069 1.93460E+00
 -1      1070 6.35255E-02
 -1      1071 8.33652E-02
 -1      1072 2.37371E+00
 -1      1073 4.90479E-02
 -1      1074 1.43646E-01
 -1      1075 1.87636E-01
 -1      1076 2.43581E-01
 -1      1077 3.14569E-01
 -1      1078 4.05469E-01
 -1      1079 5.24445E-01
 -1      1080 6.96236E-01
 -1      1081 9.62823E-01
 -1      1082 1.36139E+00
 -1      1083 2.35681E+00
 -1      1084 1.19336E-01
 -1      1085 9.44325E-02
 -1      1086 7.01126E-02
 -1      1087 1.20037E-01
 -1      1088 9.92915E-02
 -1      1089 3.52286E-02
 -1      1090 3.51765E-02
 -1      1091 3.99166E-02
 -1      1092 1.09639E-01
 -1      1093 7.73031E-02
 -1      1094 4.19055E-02
 -1      1095 1.19336E-01
 -1      1096 4.97664E-02
 -1      1097 9.77753E-02
 -1      1098 9.59813E-02
 -1      1099 5.75364E-02
 -1      1100 5.11917E-02
 -1      1101 8.69336E-02
 -1      1102 2.88943E+00
 -1      1103 9.77753E-02
 -1      1104 8.00094E-02
 -1      1105 9.59813E-02
 -1      1106 9.35885E-02
 -1      1107 9.77753E-02
 -1      1108 8.76758E-02
 -1      1109 1.31432E+01
 -1      1110 8.40345E+00
 -1      1111 2.74444E+00
 -1      1112 1.55726E+00
 -1      1113 1.16788E+00
 -1      1114 9.73245E-01
 -1      1115 8.54470E-01
 -1      1116 7.81364E-01
 -1      1117 7.54812E-01
 -1      1118 7.84483E-01
 -1      1119 8.57030E-01
 -1      1120 9.76799E-01
 -1      1121 1.18030E+00
 -1      1122 1.57190E+00
 -1      1123 2.67070E+00
 -1      1124 6.07330E+00
 -1      1125 1.13400E+01
 -1      1126 1.31432E+01
 -1      1127 8.73037E+00
 -1      1128 3.82897E+00
 -1      1129 2.72567E+00
 -1      1130 1.73657E+00
 -1      1131 1.18802E+00
 -1      1132 8.94318E-01
 -1      1133 6.84859E-01
 -1      1134 5.24773E-01
 -1      1135 4.00841E-01
 -1      1136 3.07592E-01
 -1      1137 2.36404E-01
 -1      1138 1.79674E-01
 -1      1139 1.35393E-01
 -1      1140 1.01680E-01
 -1      1141 7.68534E-02
 -1      1142 5.94579E-02
 -1      1143 4.82601E-02
 -1      1144 4.36038E-02
 -1      1145 4.71362E-02
 -1      1146 5.67126E-02
 -1      1147 6.91025E-02
 -1      1148 8.47881E-02
 -1      1149 1.10347E-01
 -1      1150 1.48223E-01
 -1      1151 1.95230E-01
 -1      1152 2.51088E-01
 -1      1153 3.14121E-01
 -1      1154 3.80428E-01
 -1      1155 4.58275E-01
 -1      1156 5.73388E-01
 -1      1157 7.27623E-01
 -1      1158 9.03206E-01
 -1      1159 1.06541E+00
 -1      1160 1.14981E+00
 -1      1161 1.23524E+00
 -1      1162 1.31878E+00
 -1      1163 1.52147E+00
 -1      1164 1.95725E+00
 -1      1165 2.95114E+00
 -1      1166 4.30676E+00
 -1      1167 5.02483E+00
 -1      1168 5.13584E+00
 -1      1169 4.99787E+00
 -1      1170 4.53168E+00
 -1      1171 3.59180E+00
 -1      1172 2.42494E+00
 -1      1173 1.46491E+00
 -1      1174 8.55528E-01
 -1      1175 4.10030E-01
 -1      1176 1.40389E+01
 -1      1177 8.71675E+00
 -1      1178 2.90374E+00
 -1      1179 2.03927E+00
 -1      1180 1.40507E+00
 -1      1181 1.02518E+00
 -1      1182 8.18505E-01
 -1      1183 6.59380E-01
 -1      1184 5.27793E-01
 -1      1185 4.18148E-01
 -1      1186 3.31153E-01
 -1      1187 2.63004E-01
 -1      1188 2.06440E-01
 -1      1189 1.60252E-01
 -1      1190 1.23561E-01
 -1      1191 9.53857E-02
 -1      1192 7.47723E-02
 -1      1193 6.08766E-02
 -1      1194 5.42780E-02
 -1      1195 5.79530E-02
 -1      1196 7.05695E-02
 -1      1197 8.88274E-02
 -1      1198 1.12792E-01
 -1      1199 1.42416E-01
 -1      1200 1.77330E-01
 -1      1201 2.16865E-01
 -1      1202 2.74279E-01
 -1      1203 3.54178E-01
 -1      1204 4.46334E-01
 -1      1205 5.46421E-01
 -1      1206 6.45136E-01
 -1      1207 7.25736E-01
 -1      1208 7.83883E-01
 -1      1209 9.54919E-01
 -1      1210 1.24469E+00
 -1      1211 1.47943E+00
 -1      1212 1.80116E+00
 -1      1213 2.17133E+00
 -1      1214 2.51070E+00
 -1      1215 3.06303E+00
 -1      1216 4.25332E+00
 -1      1217 5.51234E+00
 -1      1218 6.01686E+00
 -1      1219 6.10028E+00
 -1      1220 5.58015E+00
 -1      1221 4.09022E+00
 -1      1222 2.35645E+00
 -1      1223 1.14629E+00
 -1      1224 5.30907E-01
 -1      1225 2.54744E-01
 -1      1226 2.27022E-01
 -1      1227 5.09052E-01
 -1      1228 8.61021E-01
 -1      1229 1.05469E+00
 -1      1230 1.09917E+00
 -1      1231 8.87397E-01
 -1      1232 1.21697E+00
 -1      1233 1.75831E+00
 -1      1234 1.65173E+00
 -1      1235 1.21767E+00
 -1      1236 1.02465E+00
 -1      1237 1.15911E+00
 -1      1238 1.08666E+00
 -1      1239 8.64932E-01
 -1      1240 5.06166E-01
 -1      1241 3.16658E-01
 -1      1242 2.52853E-01
 -1      1243 2.49486E+01
 -1      1244 3.48742E+01
 -1      1245 4.50433E+01
 -1      1246 3.11038E+01
 -1      1247 1.48973E+01
 -1      1248 1.26304E+01
 -1      1249 1.25285E+01
 -1      1250 1.28203E+01
 -1      1251 1.32141E+01
 -1      1252 1.42591E+01
 -1      1253 2.82554E+01
 -1      1254 4.12066E+01
 -1      1255 3.23829E+01
 -1      1256 2.35591E+01
 -1      1257 2.38416E+01
 -1      1258 2.50451E+01
 -1      1259 3.05268E+01
 -1      1260 3.50875E+01
 -1      1261 2.43662E+01
 -1      1262 1.28586E+01
 -1      1263 1.20724E+01
 -1      1264 1.21939E+01
 -1      1265 1.23875E+01
 -1      1266 1.24597E+01
 -1      1267 1.56676E+01
 -1      1268 3.30598E+01
 -1      1269 4.72442E+01
 -1      1270 3.62181E+01
 -1      1271 2.51921E+01
 -1      1272 1.31432E+01
 -1      1273 4.87069E+00
 -1      1274 9.61045E+00
 -1      1275 2.06209E+00
 -1      1276 2.98133E+00
 -1      1277 4.18833E+00
 -1      1278 1.39856E+00
 -1      1279 1.66650E+00
 -1      1280 1.90339E+00
 -1      1281 1.10226E+00
 -1      1282 1.22369E+00
 -1      1283 1.33293E+00
 -1      1284 9.36839E-01
 -1      1285 1.01005E+00
 -1      1286 1.06585E+00
 -1      1287 8.36760E-01
 -1      1288 8.82329E-01
 -1      1289 9.19129E-01
 -1      1290 7.74922E-01
 -1      1291 8.02460E-01
 -1      1292 8.30318E-01
 -1      1293 7.55798E-01
 -1      1294 7.54812E-01
 -1      1295 7.75908E-01
 -1      1296 8.06308E-01
 -1      1297 7.77623E-01
 -1      1298 7.77623E-01
 -1      1299 8.84075E-01
 -1      1300 8.40214E-01
 -1      1301 8.33353E-01
 -1      1302 1.01690E+00
 -1      1303 9.40989E-01
 -1      1304 9.24173E-01
 -1      1305 1.24025E+00
 -1      1306 1.11266E+00
 -1      1307 1.07685E+00
 -1      1308 1.68181E+00
 -1      1309 1.41780E+00
 -1      1310 1.35016E+00
 -1      1311 2.88322E+00
 -1      1312 2.04842E+00
 -1      1313 1.89432E+00
 -1      1314 6.28611E+00
 -1      1315 3.71830E+00
 -1      1316 3.09602E+00
 -1      1317 1.40389E+01
 -1      1318 1.13400E+01
 -1      1319 8.98501E+00
 -1      1320 1.40389E+01
 -1      1321 8.73037E+00
 -1      1322 4.31753E+00
 -1      1323 3.82897E+00
 -1      1324 3.34042E+00
 -1      1325 3.82897E+00
 -1      1326 2.72567E+00
 -1      1327 2.11093E+00
 -1      1328 2.72567E+00
 -1      1329 1.77887E+00
 -1      1330 1.40450E+00
 -1      1331 1.77887E+00
 -1      1332 1.19363E+00
 -1      1333 1.01945E+00
 -1      1334 1.23593E+00
 -1      1335 8.94318E-01
 -1      1336 7.74796E-01
 -1      1337 8.99929E-01
 -1      1338 6.84859E-01
 -1      1339 5.94922E-01
 -1      1340 6.84859E-01
 -1      1341 5.31186E-01
 -1      1342 4.61036E-01
 -1      1343 5.31186E-01
 -1      1344 4.10974E-01
 -1      1345 3.57192E-01
 -1      1346 4.17388E-01
 -1      1347 3.18201E-01
 -1      1348 2.78735E-01
 -1      1349 3.28335E-01
 -1      1350 2.50357E-01
 -1      1351 2.18634E-01
 -1      1352 2.60966E-01
 -1      1353 1.94570E-01
 -1      1354 1.69564E-01
 -1      1355 2.08523E-01
 -1      1356 1.49731E-01
 -1      1357 1.30456E-01
 -1      1358 1.64626E-01
 -1      1359 1.14544E-01
 -1      1360 1.00105E-01
 -1      1361 1.28881E-01
 -1      1362 8.76911E-02
 -1      1363 7.73034E-02
 -1      1364 1.00555E-01
 -1      1365 6.79274E-02
 -1      1366 6.09197E-02
 -1      1367 7.87652E-02
 -1      1368 5.41179E-02
 -1      1369 4.99278E-02
 -1      1370 6.25874E-02
 -1      1371 4.52496E-02
 -1      1372 4.47834E-02
 -1      1373 5.11074E-02
 -1      1374 4.31376E-02
 -1      1375 4.71362E-02
 -1      1376 4.47834E-02
 -1      1377 5.11348E-02
 -1      1378 5.67126E-02
 -1      1379 4.71362E-02
 -1      1380 6.22904E-02
 -1      1381 6.91025E-02
 -1      1382 5.67126E-02
 -1      1383 7.67894E-02
 -1      1384 8.56628E-02
 -1      1385 6.99773E-02
 -1      1386 9.82337E-02
 -1      1387 1.14919E-01
 -1      1388 9.02351E-02
 -1      1389 1.30879E-01
 -1      1390 1.52070E-01
 -1      1391 1.18766E-01
 -1      1392 1.71500E-01
 -1      1393 1.97315E-01
 -1      1394 1.54155E-01
 -1      1395 2.21046E-01
 -1      1396 2.51088E-01
 -1      1397 1.97315E-01
 -1      1398 2.82224E-01
 -1      1399 3.15216E-01
 -1      1400 2.52183E-01
 -1      1401 3.61161E-01
 -1      1402 3.94476E-01
 -1      1403 3.29264E-01
 -1      1404 4.46101E-01
 -1      1405 4.90633E-01
 -1      1406 4.26834E-01
 -1      1407 5.43914E-01
 -1      1408 6.14495E-01
 -1      1409 5.31740E-01
 -1      1410 6.62121E-01
 -1      1411 7.45775E-01
 -1      1412 6.32647E-01
 -1      1413 8.11857E-01
 -1      1414 9.03786E-01
 -1      1415 7.46355E-01
 -1      1416 9.95135E-01
 -1      1417 1.06541E+00
 -1      1418 9.03786E-01
 -1      1419 1.13569E+00
 -1      1420 1.14981E+00
 -1      1421 1.06541E+00
 -1      1422 1.16394E+00
 -1      1423 1.23524E+00
 -1      1424 1.14981E+00
 -1      1425 1.30653E+00
 -1      1426 1.31878E+00
 -1      1427 1.23524E+00
 -1      1428 1.33104E+00
 -1      1429 1.52147E+00
 -1      1430 1.31878E+00
 -1      1431 1.71191E+00
 -1      1432 1.95725E+00
 -1      1433 1.52147E+00
 -1      1434 2.32524E+00
 -1      1435 3.07379E+00
 -1      1436 2.07990E+00
 -1      1437 3.69970E+00
 -1      1438 4.30676E+00
 -1      1439 3.07379E+00
 -1      1440 4.91382E+00
 -1      1441 5.02483E+00
 -1      1442 4.30676E+00
 -1      1443 5.13584E+00
 -1      1444 5.13584E+00
 -1      1445 5.02483E+00
 -1      1446 4.99787E+00
 -1      1447 4.85990E+00
 -1      1448 4.99787E+00
 -1      1449 4.53168E+00
 -1      1450 4.20346E+00
 -1      1451 4.53168E+00
 -1      1452 3.62742E+00
 -1      1453 3.01576E+00
 -1      1454 3.62742E+00
 -1      1455 2.56586E+00
 -1      1456 2.01066E+00
 -1      1457 2.60147E+00
 -1      1458 1.63033E+00
 -1      1459 1.22549E+00
 -1      1460 1.77124E+00
 -1      1461 9.12768E-01
 -1      1462 7.08219E-01
 -1      1463 1.07818E+00
 -1      1464 4.93803E-01
 -1      1465 5.51042E-01
 -1      1466 3.39458E+00
 -1      1467 8.71675E+00
 -1      1468 8.71675E+00
 -1      1469 2.41290E+00
 -1      1470 2.90374E+00
 -1      1471 2.90374E+00
 -1      1472 1.66565E+00
 -1      1473 2.03927E+00
 -1      1474 2.03927E+00
 -1      1475 1.14450E+00
 -1      1476 1.40507E+00
 -1      1477 1.40507E+00
 -1      1478 9.05869E-01
 -1      1479 1.02518E+00
 -1      1480 1.02518E+00
 -1      1481 7.31141E-01
 -1      1482 8.18505E-01
 -1      1483 8.18505E-01
 -1      1484 5.87620E-01
 -1      1485 6.59380E-01
 -1      1486 6.59380E-01
 -1      1487 4.67966E-01
 -1      1488 5.27793E-01
 -1      1489 5.27793E-01
 -1      1490 3.68329E-01
 -1      1491 4.18148E-01
 -1      1492 4.18148E-01
 -1      1493 2.93977E-01
 -1      1494 3.31153E-01
 -1      1495 3.31153E-01
 -1      1496 2.32030E-01
 -1      1497 2.63004E-01
 -1      1498 2.63004E-01
 -1      1499 1.82326E-01
 -1      1500 2.07915E-01
 -1      1501 2.07915E-01
 -1      1502 1.42124E-01
 -1      1503 1.62722E-01
 -1      1504 1.64197E-01
 -1      1505 1.10308E-01
 -1      1506 1.26400E-01
 -1      1507 1.28870E-01
 -1      1508 8.60557E-02
 -1      1509 9.81388E-02
 -1      1510 1.00978E-01
 -1      1511 6.85580E-02
 -1      1512 7.70882E-02
 -1      1513 7.98414E-02
 -1      1514 5.70877E-02
 -1      1515 6.24533E-02
 -1      1516 6.47691E-02
 -1      1517 5.25029E-02
 -1      1518 5.37359E-02
 -1      1519 5.53126E-02
 -1      1520 6.05057E-02
 -1      1521 5.55978E-02
 -1      1522 5.50556E-02
 -1      1523 7.35992E-02
 -1      1524 6.58905E-02
 -1      1525 6.35353E-02
 -1      1526 9.17260E-02
 -1      1527 8.11769E-02
 -1      1528 7.64978E-02
 -1      1529 1.14775E-01
 -1      1530 1.01360E-01
 -1      1531 9.37094E-02
 -1      1532 1.42424E-01
 -1      1533 1.26215E-01
 -1      1534 1.14783E-01
 -1      1535 1.79428E-01
 -1      1536 1.60723E-01
 -1      1537 1.44522E-01
 -1      1538 2.25538E-01
 -1      1539 2.04708E-01
 -1      1540 1.88102E-01
 -1      1541 2.92671E-01
 -1      1542 2.56087E-01
 -1      1543 2.43930E-01
 -1      1544 3.71491E-01
 -1      1545 3.28177E-01
 -1      1546 3.09985E-01
 -1      1547 4.59702E-01
 -1      1548 4.10859E-01
 -1      1549 3.84859E-01
 -1      1550 5.52101E-01
 -1      1551 5.00858E-01
 -1      1552 4.65383E-01
 -1      1553 6.45136E-01
 -1      1554 5.97664E-01
 -1      1555 5.52101E-01
 -1      1556 7.25736E-01
 -1      1557 6.92607E-01
 -1      1558 6.45136E-01
 -1      1559 7.83883E-01
 -1      1560 7.58865E-01
 -1      1561 7.25736E-01
 -1      1562 1.02902E+00
 -1      1563 8.83002E-01
 -1      1564 8.57984E-01
 -1      1565 1.26256E+00
 -1      1566 1.11880E+00
 -1      1567 1.04689E+00
 -1      1568 1.47943E+00
 -1      1569 1.38844E+00
 -1      1570 1.26256E+00
 -1      1571 1.80116E+00
 -1      1572 1.57041E+00
 -1      1573 1.47943E+00
 -1      1574 2.17133E+00
 -1      1575 2.03190E+00
 -1      1576 1.80116E+00
 -1      1577 2.51070E+00
 -1      1578 2.31075E+00
 -1      1579 2.17133E+00
 -1      1580 3.06303E+00
 -1      1581 2.71065E+00
 -1      1582 2.51070E+00
 -1      1583 4.31161E+00
 -1      1584 3.47370E+00
 -1      1585 3.12132E+00
 -1      1586 5.51234E+00
 -1      1587 5.09123E+00
 -1      1588 4.31161E+00
 -1      1589 6.01686E+00
 -1      1590 5.93345E+00
 -1      1591 5.51234E+00
 -1      1592 6.10028E+00
 -1      1593 6.10028E+00
 -1      1594 6.01686E+00
 -1      1595 5.06002E+00
 -1      1596 5.58015E+00
 -1      1597 5.58015E+00
 -1      1598 3.12041E+00
 -1      1599 4.09022E+00
 -1      1600 4.09022E+00
 -1      1601 1.67536E+00
 -1      1602 2.43932E+00
 -1      1603 2.43932E+00
 -1      1604 7.80015E-01
 -1      1605 1.22621E+00
 -1      1606 1.30908E+00
 -1      1607 4.39195E-01
 -1      1608 6.08384E-01
 -1      1609 6.88303E-01
 -1      1610 3.33997E-01
 -1      1611 8.68065E-01
 -1      1612 6.65288E-01
 -1      1613 1.27585E+00
 -1      1614 1.12666E+00
 -1      1615 1.28289E+00
 -1      1616 1.49031E+00
 -1      1617 1.44584E+00
 -1      1618 1.71147E+00
 -1      1619 1.49031E+00
 -1      1620 1.49031E+00
 -1      1621 1.88146E+00
 -1      1622 1.27535E+00
 -1      1623 1.48712E+00
 -1      1624 1.87827E+00
 -1      1625 2.42634E+00
 -1      1626 1.88500E+00
 -1      1627 2.48472E+00
 -1      1628 2.84398E+00
 -1      1629 2.84398E+00
 -1      1630 3.51201E+00
 -1      1631 2.73740E+00
 -1      1632 2.84398E+00
 -1      1633 3.92965E+00
 -1      1634 1.70246E+00
 -1      1635 2.02994E+00
 -1      1636 3.22219E+00
 -1      1637 1.55991E+00
 -1      1638 1.42545E+00
 -1      1639 2.23772E+00
 -1      1640 1.55991E+00
 -1      1641 1.55991E+00
 -1      1642 1.96071E+00
 -1      1643 1.47883E+00
 -1      1644 1.55128E+00
 -1      1645 1.95208E+00
 -1      1646 1.17208E+00
 -1      1647 1.32137E+00
 -1      1648 1.78598E+00
 -1      1649 6.78342E-01
 -1      1650 8.87819E-01
 -1      1651 1.34426E+00
 -1      1652 6.33552E-01
 -1      1653 6.13584E-01
 -1      1654 9.95236E-01
 -1      1655 8.47968E-01
 -1      1656 2.82037E+01
 -1      1657 2.84472E+01
 -1      1658 4.20065E+01
 -1      1659 3.18373E+01
 -1      1660 4.50433E+01
 -1      1661 4.50433E+01
 -1      1662 1.73984E+01
 -1      1663 3.13379E+01
 -1      1664 1.19098E+01
 -1      1665 1.41768E+01
 -1      1666 1.26304E+01
 -1      1667 1.26304E+01
 -1      1668 1.24266E+01
 -1      1669 1.25285E+01
 -1      1670 1.26863E+01
 -1      1671 1.22925E+01
 -1      1672 1.32141E+01
 -1      1673 1.32141E+01
 -1      1674 1.33934E+01
 -1      1675 1.23484E+01
 -1      1676 2.82554E+01
 -1      1677 1.53042E+01
 -1      1678 4.12066E+01
 -1      1679 4.12066E+01
 -1      1680 2.90368E+01
 -1      1681 3.78606E+01
 -1      1682 2.44461E+01
 -1      1683 2.44461E+01
 -1      1684 2.52827E+01
 -1      1685 2.50002E+01
 -1      1686 2.62036E+01
 -1      1687 2.52827E+01
 -1      1688 3.40514E+01
 -1      1689 2.94906E+01
 -1      1690 3.50875E+01
 -1      1691 3.50875E+01
 -1      1692 1.36448E+01
 -1      1693 2.43662E+01
 -1      1694 1.18231E+01
 -1      1695 1.26093E+01
 -1      1696 1.20724E+01
 -1      1697 1.20724E+01
 -1      1698 1.20617E+01
 -1      1699 1.19403E+01
 -1      1700 1.23875E+01
 -1      1701 1.23153E+01
 -1      1702 1.24597E+01
 -1      1703 1.24597E+01
 -1      1704 1.49744E+01
 -1      1705 1.17665E+01
 -1      1706 3.47386E+01
 -1      1707 2.05542E+01
 -1      1708 4.72442E+01
 -1      1709 4.72442E+01
 -1      1710 2.71107E+01
 -1      1711 3.81368E+01
 -1      1712 2.84472E+01
 -1      1713 2.84472E+01
 -1      1714 1.44109E+01
 -1      1715 3.13379E+01
 -1      1716 4.11474E-01
 -1      1717 7.70486E-01
 -1      1718 3.53360E+01
 -1      1719 4.20065E+01
 -1      1720 3.17024E+01
 -1      1721 1.19098E+01
 -1      1722 1.25285E+01
 -1      1723 1.22925E+01
 -1      1724 1.26863E+01
 -1      1725 1.23484E+01
 -1      1726 1.33934E+01
 -1      1727 2.82554E+01
 -1      1728 3.78606E+01
 -1      1729 2.99238E+01
 -1      1730 2.58872E+01
 -1      1731 2.64412E+01
 -1      1732 2.97282E+01
 -1      1733 3.40514E+01
 -1      1734 2.43662E+01
 -1      1735 1.26093E+01
 -1      1736 1.18231E+01
 -1      1737 1.19403E+01
 -1      1738 1.20617E+01
 -1      1739 1.23875E+01
 -1      1740 1.17665E+01
 -1      1741 1.66532E+01
 -1      1742 3.47386E+01
 -1      1743 3.81368E+01
 -1      1744 3.03659E+01
 -1      1745 9.61045E+00
 -1      1746 1.27811E+00
 -1      1747 1.67369E+00
 -1      1748 2.38952E+00
 -1      1749 4.27887E+00
 -1      1750 1.76424E+00
 -1      1751 8.84493E-01
 -1      1752 9.76706E-01
 -1      1753 7.79847E-01
 -1      1754 8.34357E-01
 -1      1755 7.45211E-01
 -1      1756 7.13968E-01
 -1      1757 7.48268E-01
 -1      1758 6.63497E-01
 -1      1759 6.71721E-01
 -1      1760 6.91831E-01
 -1      1761 6.09781E-01
 -1      1762 6.95152E-01
 -1      1763 6.73328E-01
 -1      1764 5.89251E-01
 -1      1765 7.50909E-01
 -1      1766 7.17003E-01
 -1      1767 6.12708E-01
 -1      1768 8.41204E-01
 -1      1769 7.84291E-01
 -1      1770 6.67940E-01
 -1      1771 9.84581E-01
 -1      1772 8.88817E-01
 -1      1773 7.48935E-01
 -1      1774 1.22984E+00
 -1      1775 1.05230E+00
 -1      1776 8.64264E-01
 -1      1777 1.71063E+00
 -1      1778 1.34402E+00
 -1      1779 1.04615E+00
 -1      1780 2.63019E+00
 -1      1781 1.79510E+00
 -1      1782 1.24480E+00
 -1      1783 8.11972E+00
 -1      1784 3.06582E+00
 -1      1785 1.76490E+00
 -1      1786 2.79756E+00
 -1      1787 5.19761E+00
 -1      1788 2.16344E+00
 -1      1789 2.65429E+00
 -1      1790 2.05726E+00
 -1      1791 3.39879E+00
 -1      1792 2.53469E+00
 -1      1793 1.91995E+00
 -1      1794 1.68896E+00
 -1      1795 1.35690E+00
 -1      1796 1.49799E+00
 -1      1797 1.17673E+00
 -1      1798 9.65858E-01
 -1      1799 1.08683E+00
 -1      1800 8.40290E-01
 -1      1801 7.15157E-01
 -1      1802 7.81086E-01
 -1      1803 6.56437E-01
 -1      1804 5.66500E-01
 -1      1805 5.96799E-01
 -1      1806 5.17897E-01
 -1      1807 4.54161E-01
 -1      1808 4.89476E-01
 -1      1809 4.11336E-01
 -1      1810 3.61273E-01
 -1      1811 3.98047E-01
 -1      1812 3.28551E-01
 -1      1813 2.89561E-01
 -1      1814 3.22500E-01
 -1      1815 2.61917E-01
 -1      1816 2.33539E-01
 -1      1817 2.62134E-01
 -1      1818 2.09808E-01
 -1      1819 1.85743E-01
 -1      1820 2.10759E-01
 -1      1821 1.68050E-01
 -1      1822 1.48217E-01
 -1      1823 1.69335E-01
 -1      1824 1.33612E-01
 -1      1825 1.17699E-01
 -1      1826 1.37035E-01
 -1      1827 1.05485E-01
 -1      1828 9.30716E-02
 -1      1829 1.10216E-01
 -1      1830 8.31302E-02
 -1      1831 7.37543E-02
 -1      1832 8.80607E-02
 -1      1833 6.58399E-02
 -1      1834 5.90381E-02
 -1      1835 7.02050E-02
 -1      1836 5.28293E-02
 -1      1837 4.81511E-02
 -1      1838 5.60818E-02
 -1      1839 4.35661E-02
 -1      1840 4.19203E-02
 -1      1841 4.52880E-02
 -1      1842 4.20897E-02
 -1      1843 4.60883E-02
 -1      1844 4.08724E-02
 -1      1845 4.82768E-02
 -1      1846 5.38546E-02
 -1      1847 4.32303E-02
 -1      1848 6.05267E-02
 -1      1849 6.82136E-02
 -1      1850 5.20909E-02
 -1      1851 7.76641E-02
 -1      1852 9.02351E-02
 -1      1853 6.82136E-02
 -1      1854 1.02806E-01
 -1      1855 1.18766E-01
 -1      1856 9.02351E-02
 -1      1857 1.39133E-01
 -1      1858 1.58563E-01
 -1      1859 1.23174E-01
 -1      1860 1.86145E-01
 -1      1861 2.09876E-01
 -1      1862 1.71123E-01
 -1      1863 2.43720E-01
 -1      1864 2.74857E-01
 -1      1865 2.32549E-01
 -1      1866 3.14739E-01
 -1      1867 3.60683E-01
 -1      1868 3.06276E-01
 -1      1869 4.05232E-01
 -1      1870 4.56858E-01
 -1      1871 3.90707E-01
 -1      1872 5.02925E-01
 -1      1873 5.56206E-01
 -1      1874 4.81324E-01
 -1      1875 5.98134E-01
 -1      1876 6.45759E-01
 -1      1877 5.69319E-01
 -1      1878 6.87647E-01
 -1      1879 7.53729E-01
 -1      1880 6.53134E-01
 -1      1881 8.00392E-01
 -1      1882 8.91741E-01
 -1      1883 7.41684E-01
 -1      1884 9.25744E-01
 -1      1885 9.96021E-01
 -1      1886 8.22350E-01
 -1      1887 9.84679E-01
 -1      1888 9.98806E-01
 -1      1889 8.45012E-01
 -1      1890 9.40692E-01
 -1      1891 1.01199E+00
 -1      1892 7.75557E-01
 -1      1893 9.59666E-01
 -1      1894 9.71918E-01
 -1      1895 6.65122E-01
 -1      1896 1.15444E+00
 -1      1897 1.34487E+00
 -1      1898 7.95319E-01
 -1      1899 1.74263E+00
 -1      1900 2.11062E+00
 -1      1901 1.37560E+00
 -1      1902 2.42218E+00
 -1      1903 3.04809E+00
 -1      1904 2.08492E+00
 -1      1905 3.39071E+00
 -1      1906 3.99777E+00
 -1      1907 2.73909E+00
 -1      1908 4.13607E+00
 -1      1909 4.24708E+00
 -1      1910 3.22002E+00
 -1      1911 4.14896E+00
 -1      1912 4.01099E+00
 -1      1913 3.26020E+00
 -1      1914 3.98341E+00
 -1      1915 3.65519E+00
 -1      1916 3.13450E+00
 -1      1917 3.45917E+00
 -1      1918 2.88312E+00
 -1      1919 2.91090E+00
 -1      1920 2.63445E+00
 -1      1921 2.18455E+00
 -1      1922 2.46620E+00
 -1      1923 1.97376E+00
 -1      1924 1.59343E+00
 -1      1925 2.00674E+00
 -1      1926 1.45042E+00
 -1      1927 1.13770E+00
 -1      1928 1.22021E+00
 -1      1929 1.65294E+00
 -1      1930 1.39793E+00
 -1      1931 1.77156E+00
 -1      1932 1.52210E+00
 -1      1933 1.01766E+00
 -1      1934 1.27824E+00
 -1      1935 1.01052E+00
 -1      1936 8.04562E-01
 -1      1937 9.23878E-01
 -1      1938 7.97042E-01
 -1      1939 6.37784E-01
 -1      1940 7.25148E-01
 -1      1941 6.23841E-01
 -1      1942 5.12399E-01
 -1      1943 5.84160E-01
 -1      1944 4.90802E-01
 -1      1945 4.19264E-01
 -1      1946 4.79091E-01
 -1      1947 4.03870E-01
 -1      1948 3.37504E-01
 -1      1949 3.87322E-01
 -1      1950 3.38620E-01
 -1      1951 2.72560E-01
 -1      1952 3.09735E-01
 -1      1953 2.78910E-01
 -1      1954 2.18895E-01
 -1      1955 2.49868E-01
 -1      1956 2.28450E-01
 -1      1957 1.74922E-01
 -1      1958 1.99037E-01
 -1      1959 1.85901E-01
 -1      1960 1.38543E-01
 -1      1961 1.58147E-01
 -1      1962 1.49268E-01
 -1      1963 1.09069E-01
 -1      1964 1.24793E-01
 -1      1965 1.18742E-01
 -1      1966 8.60737E-02
 -1      1967 9.82427E-02
 -1      1968 9.41648E-02
 -1      1969 6.90412E-02
 -1      1970 7.80088E-02
 -1      1971 7.52736E-02
 -1      1972 5.72539E-02
 -1      1973 6.33586E-02
 -1      1974 6.15260E-02
 -1      1975 5.03946E-02
 -1      1976 5.37464E-02
 -1      1977 5.23359E-02
 -1      1978 5.26590E-02
 -1      1979 4.95641E-02
 -1      1980 4.79980E-02
 -1      1981 6.04215E-02
 -1      1982 5.50367E-02
 -1      1983 4.95452E-02
 -1      1984 7.24009E-02
 -1      1985 6.48233E-02
 -1      1986 5.63246E-02
 -1      1987 9.11565E-02
 -1      1988 8.15226E-02
 -1      1989 6.98480E-02
 -1      1990 1.15193E-01
 -1      1991 1.03753E-01
 -1      1992 9.15666E-02
 -1      1993 1.49582E-01
 -1      1994 1.31283E-01
 -1      1995 1.20253E-01
 -1      1996 2.01124E-01
 -1      1997 1.75844E-01
 -1      1998 1.62604E-01
 -1      1999 2.70402E-01
 -1      2000 2.39853E-01
 -1      2001 2.27595E-01
 -1      2002 3.55251E-01
 -1      2003 3.19745E-01
 -1      2004 3.15668E-01
 -1      2005 4.55413E-01
 -1      2006 4.16046E-01
 -1      2007 4.25806E-01
 -1      2008 5.68288E-01
 -1      2009 5.27132E-01
 -1      2010 5.58319E-01
 -1      2011 6.93424E-01
 -1      2012 6.47861E-01
 -1      2013 7.09611E-01
 -1      2014 8.21074E-01
 -1      2015 7.73602E-01
 -1      2016 8.69362E-01
 -1      2017 9.21640E-01
 -1      2018 8.88511E-01
 -1      2019 1.01698E+00
 -1      2020 1.08790E+00
 -1      2021 9.88786E-01
 -1      2022 1.15156E+00
 -1      2023 1.19757E+00
 -1      2024 1.10779E+00
 -1      2025 1.23859E+00
 -1      2026 1.32346E+00
 -1      2027 1.19757E+00
 -1      2028 1.25847E+00
 -1      2029 1.34358E+00
 -1      2030 1.25260E+00
 -1      2031 1.18761E+00
 -1      2032 1.51500E+00
 -1      2033 1.28426E+00
 -1      2034 1.05743E+00
 -1      2035 1.79189E+00
 -1      2036 1.65246E+00
 -1      2037 1.13557E+00
 -1      2038 2.61183E+00
 -1      2039 2.41188E+00
 -1      2040 1.89301E+00
 -1      2041 3.44684E+00
 -1      2042 3.03617E+00
 -1      2043 2.93735E+00
 -1      2044 4.41361E+00
 -1      2045 3.63399E+00
 -1      2046 3.54884E+00
 -1      2047 4.76537E+00
 -1      2048 4.34427E+00
 -1      2049 3.66664E+00
 -1      2050 4.79139E+00
 -1      2051 4.70797E+00
 -1      2052 3.53990E+00
 -1      2053 4.11053E+00
 -1      2054 4.63066E+00
 -1      2055 3.32177E+00
 -1      2056 2.92574E+00
 -1      2057 3.89554E+00
 -1      2058 2.94605E+00
 -1      2059 1.99196E+00
 -1      2060 2.67306E+00
 -1      2061 2.47838E+00
 -1      2062 1.15814E+00
 -1      2063 1.60729E+00
 -1      2064 1.84103E+00
 -1      2065 5.86948E-01
 -1      2066 7.58578E-01
 -1      2067 1.05679E+00
 -1      2068 8.40762E-01
 -1      2069 2.24747E+00
 -1      2070 2.24747E+00
 -1      2071 2.10270E+00
 -1      2072 1.93271E+00
 -1      2073 2.46871E+00
 -1      2074 1.49892E+00
 -1      2075 1.24033E+00
 -1      2076 1.05679E+00
 -1      2077 1.89014E+00
 -1      2078 2.40408E+00
 -1      2079 2.40727E+00
 -1      2080 2.77328E+00
 -1      2081 3.61166E+00
 -1      2082 3.00201E+00
 -1      2083 3.53101E+00
 -1      2084 5.21365E+00
 -1      2085 4.79601E+00
 -1      2086 5.31330E+00
 -1      2087 5.21365E+00
 -1      2088 5.21365E+00
 -1      2089 6.49765E+00
 -1      2090 4.17019E+00
 -1      2091 4.87766E+00
 -1      2092 6.16165E+00
 -1      2093 3.02135E+00
 -1      2094 3.29836E+00
 -1      2095 4.95382E+00
 -1      2096 2.34258E+00
 -1      2097 2.34258E+00
 -1      2098 3.40322E+00
 -1      2099 2.24165E+00
 -1      2100 2.25028E+00
 -1      2101 2.63215E+00
 -1      2102 1.88838E+00
 -1      2103 2.04584E+00
 -1      2104 2.34404E+00
 -1      2105 1.36779E+00
 -1      2106 1.65205E+00
 -1      2107 1.91191E+00
 -1      2108 3.55625E+01
 -1      2109 3.25257E+01
 -1      2110 3.17024E+01
 -1      2111 3.17024E+01
 -1      2112 3.38543E+01
 -1      2113 3.02207E+01
 -1      2114 3.02207E+01
 -1      2115 1.60150E+01
 -1      2116 2.97204E+01
 -1      2117 9.74398E+00
 -1      2118 1.29656E+01
 -1      2119 1.03455E+00
 -1      2120 1.20941E+00
 -1      2121 9.79720E-01
 -1      2122 8.53187E-01
 -1      2123 1.17944E+01
 -1      2124 1.18963E+01
 -1      2125 1.16419E+01
 -1      2126 1.17759E+01
 -1      2127 1.18862E+01
 -1      2128 1.13584E+01
 -1      2129 1.08419E+01
 -1      2130 9.52561E+00
 -1      2131 1.03913E+01
 -1      2132 1.14876E+01
 -1      2133 9.57685E+00
 -1      2134 2.75373E+01
 -1      2135 1.45861E+01
 -1      2136 2.86637E+01
 -1      2137 3.20098E+01
 -1      2138 2.29791E+01
 -1      2139 2.75697E+01
 -1      2140 2.94973E+01
 -1      2141 2.89433E+01
 -1      2142 2.65892E+01
 -1      2143 2.94973E+01
 -1      2144 2.94973E+01
 -1      2145 2.97770E+01
 -1      2146 2.64901E+01
 -1      2147 2.85288E+01
 -1      2148 2.74926E+01
 -1      2149 1.31853E+01
 -1      2150 2.39067E+01
 -1      2151 9.44066E+00
 -1      2152 1.04761E+01
 -1      2153 1.05999E+01
 -1      2154 1.03506E+01
 -1      2155 1.13041E+01
 -1      2156 1.14363E+01
 -1      2157 1.15290E+01
 -1      2158 1.12754E+01
 -1      2159 1.13640E+01
 -1      2160 1.12918E+01
 -1      2161 9.53252E+00
 -1      2162 1.02257E+01
 -1      2163 1.54506E+01
 -1      2164 9.87079E+00
 -1      2165 8.32995E+00
 -1      2166 3.14354E+01
 -1      2167 1.89299E+01
 -1      2168 2.90294E+01
 -1      2169 3.81368E+01
 -1      2170 2.23280E+01
 -1      2171 3.16987E+01
 -1      2172 3.03623E+01
 -1      2173 1.03723E+01
 -1      2174 9.65177E+00
 -1      2175 8.20648E+00
 -1      2176 2.91024E+00
 -1      2177 9.63829E+00
 -1      2178 2.10451E+00
 -1      2179 2.74104E+01
 -1      2180 1.40907E+01
 -1      2181 2.94136E+01
 -1      2182 1.99329E+01
 -1      2183 1.30303E+00
 -1      2184 3.16987E+01
 -1      2185 1.13481E+01
 -1      2186 3.03623E+01
 -1      2187 1.54758E+01
 -1      2188 8.69338E+00
 -1      2189 1.21726E+01
 -1      2190 9.12996E+00
 -1      2191 1.05054E+01
 -1      2192 1.07714E+01
 -1      2193 9.96372E+00
 -1      2194 8.21742E+00
 -1      2195 1.00167E+01
 -1      2196 1.73479E+01
 -1      2197 2.42545E+01
 -1      2198 3.25534E+01
 -1      2199 2.75697E+01
 -1      2200 2.17189E+01
 -1      2201 2.06250E+01
 -1      2202 1.83404E+01
 -1      2203 1.07695E+01
 -1      2204 1.05899E+01
 -1      2205 9.26204E+00
 -1      2206 7.76714E+00
 -1      2207 1.11438E+01
 -1      2208 7.61982E+00
 -1      2209 2.95461E+01
 -1      2210 1.08884E+00
 -1      2211 1.48072E+00
 -1      2212 5.59294E-01
 -1      2213 5.90873E-01
 -1      2214 6.04871E-01
 -1      2215 6.55006E-01
 -1      2216 5.00668E-01
 -1      2217 5.11242E-01
 -1      2218 5.09635E-01
 -1      2219 5.46057E-01
 -1      2220 5.24206E-01
 -1      2221 4.44591E-01
 -1      2222 5.94241E-01
 -1      2223 5.60859E-01
 -1      2224 4.72357E-01
 -1      2225 6.53958E-01
 -1      2226 6.06345E-01
 -1      2227 4.99264E-01
 -1      2228 7.21674E-01
 -1      2229 6.53958E-01
 -1      2230 5.11369E-01
 -1      2231 8.84874E-01
 -1      2232 7.70701E-01
 -1      2233 5.60395E-01
 -1      2234 8.90829E-01
 -1      2235 1.01052E+00
 -1      2236 9.69143E-01
 -1      2237 1.26600E+00
 -1      2238 1.03502E+00
 -1      2239 8.38911E+00
 -1      2240 6.86509E+00
 -1      2241 9.84375E-01
 -1      2242 8.04201E-01
 -1      2243 7.52389E-01
 -1      2244 7.47556E-01
 -1      2245 6.21988E-01
 -1      2246 6.45103E-01
 -1      2247 5.65763E-01
 -1      2248 5.07043E-01
 -1      2249 5.32232E-01
 -1      2250 4.57673E-01
 -1      2251 4.09070E-01
 -1      2252 4.26637E-01
 -1      2253 3.81643E-01
 -1      2254 3.38817E-01
 -1      2255 3.49840E-01
 -1      2256 3.13770E-01
 -1      2257 2.81048E-01
 -1      2258 2.97366E-01
 -1      2259 2.57359E-01
 -1      2260 2.29715E-01
 -1      2261 2.48630E-01
 -1      2262 2.10459E-01
 -1      2263 1.86728E-01
 -1      2264 2.05685E-01
 -1      2265 1.69917E-01
 -1      2266 1.52223E-01
 -1      2267 1.69617E-01
 -1      2268 1.37597E-01
 -1      2269 1.22991E-01
 -1      2270 1.38179E-01
 -1      2271 1.10673E-01
 -1      2272 9.84590E-02
 -1      2273 1.11234E-01
 -1      2274 8.87251E-02
 -1      2275 7.87838E-02
 -1      2276 8.91821E-02
 -1      2277 7.09132E-02
 -1      2278 6.29988E-02
 -1      2279 7.15776E-02
 -1      2280 5.63152E-02
 -1      2281 5.01063E-02
 -1      2282 5.70234E-02
 -1      2283 4.49984E-02
 -1      2284 4.04134E-02
 -1      2285 4.52317E-02
 -1      2286 3.77041E-02
 -1      2287 3.78735E-02
 -1      2288 3.74145E-02
 -1      2289 3.87125E-02
 -1      2290 4.09009E-02
 -1      2291 3.55441E-02
 -1      2292 4.52609E-02
 -1      2293 5.19331E-02
 -1      2294 4.07431E-02
 -1      2295 5.95984E-02
 -1      2296 6.90490E-02
 -1      2297 5.27684E-02
 -1      2298 8.39414E-02
 -1      2299 9.65123E-02
 -1      2300 7.53262E-02
 -1      2301 1.15535E-01
 -1      2302 1.35902E-01
 -1      2303 1.09241E-01
 -1      2304 1.59808E-01
 -1      2305 1.87390E-01
 -1      2306 1.52169E-01
 -1      2307 2.16746E-01
 -1      2308 2.50591E-01
 -1      2309 2.05431E-01
 -1      2310 2.85575E-01
 -1      2311 3.25457E-01
 -1      2312 2.69772E-01
 -1      2313 3.65547E-01
 -1      2314 4.10096E-01
 -1      2315 3.44846E-01
 -1      2316 4.53648E-01
 -1      2317 4.99716E-01
 -1      2318 4.28488E-01
 -1      2319 5.43436E-01
 -1      2320 5.85364E-01
 -1      2321 5.15761E-01
 -1      2322 6.26078E-01
 -1      2323 6.67966E-01
 -1      2324 6.00196E-01
 -1      2325 7.03040E-01
 -1      2326 7.49703E-01
 -1      2327 6.75984E-01
 -1      2328 7.81379E-01
 -1      2329 8.15382E-01
 -1      2330 7.42734E-01
 -1      2331 8.48677E-01
 -1      2332 8.37336E-01
 -1      2333 8.07706E-01
 -1      2334 8.43935E-01
 -1      2335 7.85821E-01
 -1      2336 8.47600E-01
 -1      2337 8.44221E-01
 -1      2338 7.91899E-01
 -1      2339 9.12599E-01
 -1      2340 9.10023E-01
 -1      2341 1.09254E+00
 -1      2342 1.08912E+00
 -1      2343 1.19775E+00
 -1      2344 1.59551E+00
 -1      2345 1.31245E+00
 -1      2346 1.93509E+00
 -1      2347 2.24665E+00
 -1      2348 1.75724E+00
 -1      2349 2.37949E+00
 -1      2350 2.72210E+00
 -1      2351 2.22966E+00
 -1      2352 3.01598E+00
 -1      2353 3.15428E+00
 -1      2354 2.65637E+00
 -1      2355 3.15030E+00
 -1      2356 3.05217E+00
 -1      2357 2.94626E+00
 -1      2358 3.11912E+00
 -1      2359 3.09154E+00
 -1      2360 3.00922E+00
 -1      2361 2.79742E+00
 -1      2362 2.60139E+00
 -1      2363 2.78203E+00
 -1      2364 2.56076E+00
 -1      2365 2.31209E+00
 -1      2366 2.44728E+00
 -1      2367 2.32222E+00
 -1      2368 2.11143E+00
 -1      2369 2.41678E+00
 -1      2370 5.44427E-01
 -1      2371 6.23841E-01
 -1      2372 4.37178E-01
 -1      2373 4.90802E-01
 -1      2374 4.90802E-01
 -1      2375 3.70561E-01
 -1      2376 4.03870E-01
 -1      2377 4.03870E-01
 -1      2378 3.06679E-01
 -1      2379 3.38620E-01
 -1      2380 3.38620E-01
 -1      2381 2.51142E-01
 -1      2382 2.78910E-01
 -1      2383 2.78910E-01
 -1      2384 2.06120E-01
 -1      2385 2.28811E-01
 -1      2386 2.28811E-01
 -1      2387 1.66682E-01
 -1      2388 1.86540E-01
 -1      2389 1.86900E-01
 -1      2390 1.33216E-01
 -1      2391 1.49991E-01
 -1      2392 1.50630E-01
 -1      2393 1.06796E-01
 -1      2394 1.20546E-01
 -1      2395 1.21270E-01
 -1      2396 8.55550E-02
 -1      2397 9.63814E-02
 -1      2398 9.81859E-02
 -1      2399 6.88054E-02
 -1      2400 7.68703E-02
 -1      2401 7.90869E-02
 -1      2402 5.59877E-02
 -1      2403 6.16703E-02
 -1      2404 6.32671E-02
 -1      2405 4.66164E-02
 -1      2406 5.01239E-02
 -1      2407 5.02682E-02
 -1      2408 4.29808E-02
 -1      2409 4.38112E-02
 -1      2410 4.15992E-02
 -1      2411 4.44855E-02
 -1      2412 4.21079E-02
 -1      2413 3.79210E-02
 -1      2414 5.34716E-02
 -1      2415 4.90699E-02
 -1      2416 4.16325E-02
 -1      2417 6.94519E-02
 -1      2418 6.03302E-02
 -1      2419 5.30755E-02
 -1      2420 9.42149E-02
 -1      2421 8.16180E-02
 -1      2422 7.21002E-02
 -1      2423 1.30271E-01
 -1      2424 1.14181E-01
 -1      2425 1.04233E-01
 -1      2426 1.82746E-01
 -1      2427 1.56485E-01
 -1      2428 1.50413E-01
 -1      2429 2.55317E-01
 -1      2430 2.16587E-01
 -1      2431 2.10468E-01
 -1      2432 3.47441E-01
 -1      2433 2.98098E-01
 -1      2434 2.87090E-01
 -1      2435 4.60938E-01
 -1      2436 4.00143E-01
 -1      2437 3.82573E-01
 -1      2438 5.95471E-01
 -1      2439 5.23752E-01
 -1      2440 4.98090E-01
 -1      2441 7.46624E-01
 -1      2442 6.67050E-01
 -1      2443 6.32484E-01
 -1      2444 9.03176E-01
 -1      2445 8.22999E-01
 -1      2446 7.80438E-01
 -1      2447 1.04380E+00
 -1      2448 9.76365E-01
 -1      2449 9.30002E-01
 -1      2450 1.17283E+00
 -1      2451 1.10568E+00
 -1      2452 1.06507E+00
 -1      2453 1.24003E+00
 -1      2454 1.22015E+00
 -1      2455 1.17427E+00
 -1      2456 1.30889E+00
 -1      2457 1.30889E+00
 -1      2458 1.29045E+00
 -1      2459 1.28474E+00
 -1      2460 1.35560E+00
 -1      2461 1.40602E+00
 -1      2462 1.21592E+00
 -1      2463 1.27524E+00
 -1      2464 1.44323E+00
 -1      2465 1.57957E+00
 -1      2466 1.44211E+00
 -1      2467 1.65992E+00
 -1      2468 2.33160E+00
 -1      2469 1.71161E+00
 -1      2470 2.01815E+00
 -1      2471 3.13059E+00
 -1      2472 2.70624E+00
 -1      2473 2.52484E+00
 -1      2474 4.31509E+00
 -1      2475 4.12795E+00
 -1      2476 3.89684E+00
 -1      2477 6.35433E+00
 -1      2478 6.42367E+00
 -1      2479 7.00279E+00
 -1      2480 5.79187E+00
 -1      2481 5.84927E+00
 -1      2482 8.60630E+00
 -1      2483 3.90491E+00
 -1      2484 4.06563E+00
 -1      2485 6.37500E+00
 -1      2486 2.98097E+00
 -1      2487 3.19595E+00
 -1      2488 3.93982E+00
 -1      2489 2.54226E+00
 -1      2490 2.79494E+00
 -1      2491 3.04484E+00
 -1      2492 2.19395E+00
 -1      2493 2.57862E+00
 -1      2494 2.89518E+00
 -1      2495 1.45635E+00
 -1      2496 5.25095E+00
 -1      2497 4.65301E+00
 -1      2498 1.03613E+01
 -1      2499 9.17698E+00
 -1      2500 1.02990E+01
 -1      2501 2.77251E+00
 -1      2502 2.62774E+00
 -1      2503 3.20826E+00
 -1      2504 3.04846E+00
 -1      2505 3.20749E+00
 -1      2506 4.92819E+00
 -1      2507 1.09642E+01
 -1      2508 1.09642E+01
 -1      2509 1.48279E+01
 -1      2510 9.87049E+00
 -1      2511 1.02065E+01
 -1      2512 1.46730E+01
 -1      2513 6.91031E+00
 -1      2514 7.78214E+00
 -1      2515 1.18270E+01
 -1      2516 3.97145E+00
 -1      2517 4.65022E+00
 -1      2518 7.47854E+00
 -1      2519 3.28412E+00
 -1      2520 3.37642E+00
 -1      2521 4.62342E+00
 -1      2522 2.34317E+00
 -1      2523 2.53898E+00
 -1      2524 3.28325E+00
 -1      2525 1.79434E+00
 -1      2526 2.03067E+00
 -1      2527 2.22561E+00
 -1      2528 1.59276E+00
 -1      2529 3.16987E+01
 -1      2530 3.16951E+01
 -1      2531 7.03255E-01
 -1      2532 7.97042E-01
 -1      2533 6.23841E-01
 -1      2534 2.87390E+01
 -1      2535 3.02207E+01
 -1      2536 2.61332E+01
 -1      2537 2.48004E+01
 -1      2538 1.67602E+00
 -1      2539 1.30048E+00
 -1      2540 8.37510E-01
 -1      2541 9.60201E-01
 -1      2542 6.88172E+00
 -1      2543 8.02001E+00
 -1      2544 5.22539E-01
 -1      2545 5.44676E-01
 -1      2546 4.72052E-01
 -1      2547 4.44530E-01
 -1      2548 1.01183E+01
 -1      2549 1.01368E+01
 -1      2550 5.76446E+00
 -1      2551 5.71321E+00
 -1      2552 9.64770E+00
 -1      2553 9.93116E+00
 -1      2554 8.92419E+00
 -1      2555 2.65389E+01
 -1      2556 2.95461E+01
 -1      2557 1.05115E+01
 -1      2558 7.41304E+00
 -1      2559 1.68609E+01
 -1      2560 1.23885E+01
 -1      2561 2.89338E+01
 -1      2562 2.29696E+01
 -1      2563 3.25534E+01
 -1      2564 3.25534E+01
 -1      2565 2.89338E+01
 -1      2566 1.96467E+01
 -1      2567 2.19312E+01
 -1      2568 2.19312E+01
 -1      2569 1.17012E+01
 -1      2570 1.63233E+01
 -1      2571 7.24488E+00
 -1      2572 9.95406E+00
 -1      2573 6.59784E+00
 -1      2574 5.68790E+00
 -1      2575 8.81578E+00
 -1      2576 7.97942E+00
 -1      2577 9.63208E+00
 -1      2578 9.66081E+00
 -1      2579 9.35439E+00
 -1      2580 9.59158E+00
 -1      2581 5.93949E+00
 -1      2582 5.60122E+00
 -1      2583 1.99443E+01
 -1      2584 1.32429E+01
 -1      2585 1.57152E+01
 -1      2586 7.49676E+00
 -1      2587 1.05462E+01
 -1      2588 2.35666E+01
 -1      2589 2.48953E+01
 -1      2590 2.48953E+01
 -1      2591 1.62095E+00
 -1      2592 1.76422E+00
 -1      2593 1.32859E+00
 -1      2594 1.18768E+00
 -1      2595 5.92433E+00
 -1      2596 6.01654E+00
 -1      2597 5.21462E+00
 -1      2598 8.60630E+00
 -1      2599 9.63177E+00
 -1      2600 6.85858E+00
 -1      2601 5.22966E-01
 -1      2602 6.63306E-01
 -1      2603 7.21147E-01
 -1      2604 7.97042E-01
 -1      2605 1.24412E+00
 -1      2606 4.67516E+00
 -1      2607 1.88650E+01
 -1      2608 1.63499E+01
 -1      2609 1.27161E+01
 -1      2610 4.49127E+00
 -1      2611 6.40250E+00
 -1      2612 3.67377E+00
 -1      2613 6.42766E+00
 -1      2614 2.61332E+01
 -1      2615 1.09434E+01
 -1      2616 1.06367E+01
 -1      2617 7.09211E+00
 -1      2618 2.19395E+00
 -1      2619 2.62774E+00
 -1      2620 7.10615E+00
 -1      2621 1.71152E+00
 -1      2622 1.79434E+00
 -1      2623 1.91310E+00
 -1      2624 1.85453E+00
 -1      2625 8.48103E+00
 -1      2626 3.02171E+01
 -1      2627 9.68667E-01
 -1      2628 7.67650E+00
 -1      2629 5.44989E+00
 -1      2630 1.18387E+01
 -1      2631 8.38465E+00
 -1      2632 9.45497E+00
 -1      2633 5.62530E+00
 -1      2634 2.61568E+01
 -1      2635 2.61568E+01
 -1      2636 2.31495E+01
 -1      2637 1.72113E+01
 -1      2638 1.12594E+01
 -1      2639 1.61174E+01
 -1      2640 9.03200E+00
 -1      2641 9.57608E+00
 -1      2642 8.66539E+00
 -1      2643 8.27973E+00
 -1      2644 8.91509E-01
 -1      2645 2.29696E+01
 -1      2646 6.36422E+00
 -1      2647 6.56278E+00
 -1      2648 4.50886E+00
 -1      2649 5.50644E+00
 -1      2650 1.40000E+01
 -1      2651 8.92943E+00
 -1      2652 2.93154E+00
 -1      2653 2.17000E+00
 -1      2654 4.22815E-01
 -1      2655 4.08013E-01
 -1      2656 4.00203E-01
 -1      2657 3.87239E-01
 -1      2658 3.50661E-01
 -1      2659 4.36633E-01
 -1      2660 4.36633E-01
 -1      2661 4.73739E-01
 -1      2662 4.24712E-01
 -1      2663 3.49977E-01
 -1      2664 7.17369E-01
 -1      2665 7.95683E-01
 -1      2666 7.30168E+00
 -1      2667 6.45666E+00
 -1      2668 6.09044E-01
 -1      2669 7.02831E-01
 -1      2670 5.29372E-01
 -1      2671 2.05713E+01
 -1      2672 1.57152E+01
 -1      2673 5.49271E-01
 -1      2674 4.92626E-01
 -1      2675 4.86198E-01
 -1      2676 4.29973E-01
 -1      2677 3.90366E-01
 -1      2678 4.09422E-01
 -1      2679 3.60052E-01
 -1      2680 3.63388E-01
 -1      2681 3.35248E-01
 -1      2682 3.07820E-01
 -1      2683 3.18033E-01
 -1      2684 2.83017E-01
 -1      2685 2.57970E-01
 -1      2686 2.68425E-01
 -1      2687 2.42372E-01
 -1      2688 2.18683E-01
 -1      2689 2.28023E-01
 -1      2690 2.02460E-01
 -1      2691 1.83204E-01
 -1      2692 1.96202E-01
 -1      2693 1.67742E-01
 -1      2694 1.50930E-01
 -1      2695 1.64517E-01
 -1      2696 1.36996E-01
 -1      2697 1.22370E-01
 -1      2698 1.35121E-01
 -1      2699 1.10852E-01
 -1      2700 9.85341E-02
 -1      2701 1.09670E-01
 -1      2702 8.91821E-02
 -1      2703 7.94482E-02
 -1      2704 8.88002E-02
 -1      2705 7.15776E-02
 -1      2706 6.37070E-02
 -1      2707 7.15776E-02
 -1      2708 5.70234E-02
 -1      2709 5.03397E-02
 -1      2710 5.70234E-02
 -1      2711 4.48548E-02
 -1      2712 3.97468E-02
 -1      2713 4.48548E-02
 -1      2714 3.53260E-02
 -1      2715 3.26167E-02
 -1      2716 3.49491E-02
 -1      2717 2.99166E-02
 -1      2718 3.07556E-02
 -1      2719 2.78282E-02
 -1      2720 3.32880E-02
 -1      2721 3.76480E-02
 -1      2722 2.76605E-02
 -1      2723 4.62412E-02
 -1      2724 5.39066E-02
 -1      2725 3.87861E-02
 -1      2726 6.63741E-02
 -1      2727 8.12665E-02
 -1      2728 5.98468E-02
 -1      2729 9.69864E-02
 -1      2730 1.16009E-01
 -1      2731 8.80343E-02
 -1      2732 1.35736E-01
 -1      2733 1.59642E-01
 -1      2734 1.23482E-01
 -1      2735 1.84108E-01
 -1      2736 2.13465E-01
 -1      2737 1.67676E-01
 -1      2738 2.43290E-01
 -1      2739 2.78274E-01
 -1      2740 2.21966E-01
 -1      2741 3.13843E-01
 -1      2742 3.53932E-01
 -1      2743 2.87360E-01
 -1      2744 3.95202E-01
 -1      2745 4.38754E-01
 -1      2746 3.64198E-01
 -1      2747 4.85603E-01
 -1      2748 5.29323E-01
 -1      2749 4.52316E-01
 -1      2750 5.80418E-01
 -1      2751 6.21132E-01
 -1      2752 5.50259E-01
 -1      2753 6.70254E-01
 -1      2754 7.05327E-01
 -1      2755 6.50475E-01
 -1      2756 7.50536E-01
 -1      2757 7.82212E-01
 -1      2758 7.44806E-01
 -1      2759 8.52739E-01
 -1      2760 8.86035E-01
 -1      2761 8.60541E-01
 -1      2762 9.71926E-01
 -1      2763 9.78525E-01
 -1      2764 1.01696E+00
 -1      2765 1.05259E+00
 -1      2766 1.11099E+00
 -1      2767 1.17692E+00
 -1      2768 1.25022E+00
 -1      2769 1.36834E+00
 -1      2770 1.39021E+00
 -1      2771 1.58872E+00
 -1      2772 1.69393E+00
 -1      2773 1.74982E+00
 -1      2774 1.75724E+00
 -1      2775 2.09681E+00
 -1      2776 2.03351E+00
 -1      2777 3.13702E+00
 -1      2778 3.26987E+00
 -1      2779 3.13702E+00
 -1      2780 3.88775E+00
 -1      2781 4.18162E+00
 -1      2782 4.79511E+00
 -1      2783 4.51604E+00
 -1      2784 4.51205E+00
 -1      2785 5.74741E+00
 -1      2786 4.66688E+00
 -1      2787 4.73382E+00
 -1      2788 6.23666E+00
 -1      2789 4.37079E+00
 -1      2790 4.07666E+00
 -1      2791 6.02845E+00
 -1      2792 3.49521E+00
 -1      2793 3.45459E+00
 -1      2794 5.08397E+00
 -1      2795 2.76615E+00
 -1      2796 2.77628E+00
 -1      2797 3.81409E+00
 -1      2798 3.48953E-01
 -1      2799 3.82261E-01
 -1      2800 7.41601E+00
 -1      2801 7.45651E+00
 -1      2802 4.16569E-01
 -1      2803 4.70193E-01
 -1      2804 3.61652E-01
 -1      2805 2.42075E-01
 -1      2806 2.69843E-01
 -1      2807 2.01157E-01
 -1      2808 2.23488E-01
 -1      2809 2.14421E-01
 -1      2810 1.64568E-01
 -1      2811 1.84147E-01
 -1      2812 1.78824E-01
 -1      2813 1.33962E-01
 -1      2814 1.50653E-01
 -1      2815 1.47899E-01
 -1      2816 1.08950E-01
 -1      2817 1.21619E-01
 -1      2818 1.21642E-01
 -1      2819 8.79503E-02
 -1      2820 9.83646E-02
 -1      2821 9.87140E-02
 -1      2822 7.04022E-02
 -1      2823 7.90869E-02
 -1      2824 7.92656E-02
 -1      2825 5.61320E-02
 -1      2826 6.32671E-02
 -1      2827 6.32671E-02
 -1      2828 4.44044E-02
 -1      2829 5.02682E-02
 -1      2830 5.02682E-02
 -1      2831 3.73276E-02
 -1      2832 4.01329E-02
 -1      2833 4.01329E-02
 -1      2834 3.31127E-02
 -1      2835 3.39856E-02
 -1      2836 3.25193E-02
 -1      2837 4.03353E-02
 -1      2838 3.57509E-02
 -1      2839 3.18155E-02
 -1      2840 5.26217E-02
 -1      2841 4.57632E-02
 -1      2842 3.98815E-02
 -1      2843 7.77390E-02
 -1      2844 6.55728E-02
 -1      2845 5.82605E-02
 -1      2846 1.14468E-01
 -1      2847 9.45018E-02
 -1      2848 8.79744E-02
 -1      2849 1.62332E-01
 -1      2850 1.36118E-01
 -1      2851 1.26387E-01
 -1      2852 2.23894E-01
 -1      2853 1.90053E-01
 -1      2854 1.75758E-01
 -1      2855 3.01714E-01
 -1      2856 2.58934E-01
 -1      2857 2.38518E-01
 -1      2858 3.98009E-01
 -1      2859 3.45307E-01
 -1      2860 3.17151E-01
 -1      2861 5.14039E-01
 -1      2862 4.51225E-01
 -1      2863 4.13958E-01
 -1      2864 6.49124E-01
 -1      2865 5.77545E-01
 -1      2866 5.30680E-01
 -1      2867 7.99178E-01
 -1      2868 7.22803E-01
 -1      2869 6.67864E-01
 -1      2870 9.54723E-01
 -1      2871 8.81534E-01
 -1      2872 8.23899E-01
 -1      2873 1.10458E+00
 -1      2874 1.04270E+00
 -1      2875 9.94234E-01
 -1      2876 1.23580E+00
 -1      2877 1.18849E+00
 -1      2878 1.16612E+00
 -1      2879 1.39489E+00
 -1      2880 1.32603E+00
 -1      2881 1.34025E+00
 -1      2882 1.60285E+00
 -1      2883 1.55613E+00
 -1      2884 1.59171E+00
 -1      2885 1.78196E+00
 -1      2886 1.79146E+00
 -1      2887 1.94157E+00
 -1      2888 2.17368E+00
 -1      2889 1.94749E+00
 -1      2890 2.29572E+00
 -1      2891 2.35422E+00
 -1      2892 2.22218E+00
 -1      2893 2.50975E+00
 -1      2894 2.97658E+00
 -1      2895 2.60194E+00
 -1      2896 2.80596E+00
 -1      2897 4.89420E+00
 -1      2898 3.89684E+00
 -1      2899 3.97394E+00
 -1      2900 8.85256E+00
 -1      2901 6.74398E+00
 -1      2902 8.60630E+00
 -1      2903 9.11137E+00
 -1      2904 3.93982E+00
 -1      2905 4.64877E+00
 -1      2906 3.04484E+00
 -1      2907 3.23087E+00
 -1      2908 3.93982E+00
 -1      2909 2.93154E+00
 -1      2910 2.89518E+00
 -1      2911 3.08121E+00
 -1      2912 2.93154E+00
 -1      2913 2.28052E+01
 -1      2914 2.35629E+01
 -1      2915 2.42690E+00
 -1      2916 2.17000E+00
 -1      2917 2.77628E+00
 -1      2918 1.74268E+01
 -1      2919 1.35008E+01
 -1      2920 1.51550E+01
 -1      2921 1.72433E+01
 -1      2922 1.28949E+01
 -1      2923 5.67987E+00
 -1      2924 6.27489E+00
 -1      2925 2.83188E+00
 -1      2926 3.57702E+00
 -1      2927 5.22850E+00
 -1      2928 5.04011E-01
 -1      2929 5.83425E-01
 -1      2930 4.89214E-01
 -1      2931 4.29777E-01
 -1      2932 4.43809E+00
 -1      2933 5.71860E+00
 -1      2934 4.59765E+00
 -1      2935 3.65689E+00
 -1      2936 6.08163E+00
 -1      2937 7.41601E+00
 -1      2938 7.01628E-01
 -1      2939 6.67148E-01
 -1      2940 1.59920E+01
 -1      2941 2.05998E+01
 -1      2942 2.89752E-01
 -1      2943 3.21693E-01
 -1      2944 3.00084E-01
 -1      2945 2.52916E-01
 -1      2946 8.50554E+00
 -1      2947 6.62856E+00
 -1      2948 6.02716E-01
 -1      2949 5.52075E-01
 -1      2950 3.99597E-01
 -1      2951 4.66834E-01
 -1      2952 4.36633E-01
 -1      2953 4.24529E-01
 -1      2954 3.60185E-01
 -1      2955 3.61898E-01
 -1      2956 2.17000E+00
 -1      2957 2.05637E+01
 -1      2958 1.82191E+01
 -1      2959 4.22817E-01
 -1      2960 4.36815E-01
 -1      2961 5.56948E+00
 -1      2962 3.92090E+00
 -1      2963 9.68862E+00
 -1      2964 1.30121E+01
 -1      2965 7.21147E-01
 -1      2966 2.42760E+01
 -1      2967 2.06564E+01
 -1      2968 8.28440E-01
 -1      2969 3.58719E+00
 -1      2970 5.06740E+00
 -1      2971 3.50968E+00
 -1      2972 7.22516E+00
 -1      2973 8.97231E+00
 -1      2974 2.20849E+01
 -1      2975 6.12224E+00
 -1      2976 4.74065E+00
 -1      2977 4.20054E+00
 -1      2978 5.75753E+00
 -1      2979 2.14820E+01
 -1      2980 4.46726E-01
 -1      2981 4.55026E-01
 -1      2982 3.68875E-01
 -1      2983 3.42592E-01
 -1      2984 3.86980E-01
 -1      2985 3.99884E-01
 -1      2986 1.43110E+01
 -1      2987 5.74741E+00
 -1      2988 1.04631E+01
 -1      2989 9.39530E+00
 -1      2990 7.31582E+00
 -1      2991 6.82122E+00
 -1      2992 4.53035E+00
 -1      2993 6.48734E+00
 -1      2994 2.48251E+00
 -1      2995 5.04302E+00
 -1      2996 4.87288E+00
 -1      2997 6.40768E+00
 -1      2998 6.80496E+00
 -1      2999 4.78025E+00
 -1      3000 8.89857E+00
 -1      3001 6.49513E+00
 -1      3002 9.24899E+00
 -1      3003 6.23666E+00
 -1      3004 6.02845E+00
 -1      3005 6.74398E+00
 -1      3006 6.37500E+00
 -1      3007 6.37500E+00
 -1      3008 8.10124E+00
 -1      3009 3.57065E+00
 -1      3010 3.57065E+00
 -1      3011 3.84660E+00
 -1      3012 1.16806E+01
 -1      3013 1.37115E+01
 -1      3014 1.39513E+01
 -1      3015 1.59059E+01
 -1      3016 2.77628E+00
 -1      3017 5.84031E+00
 -1      3018 7.98434E+00
 -1      3019 2.61332E+01
 -1      3020 6.39149E+00
 -1      3021 1.72104E+01
 -1      3022 4.07443E-01
 -1      3023 4.22061E-01
 -1      3024 3.58207E-01
 -1      3025 3.49892E-01
 -1      3026 6.87681E+00
 -1      3027 6.21350E+00
 -1      3028 4.76874E+00
 -1      3029 5.13191E+00
 -1      3030 1.33414E+01
 -1      3031 4.57190E+00
 -1      3032 5.31265E-01
 -1      3033 3.21077E+00
 -1      3034 4.43809E+00
 -1      3035 3.67377E+00
 -1      3036 2.32206E+01
 -1      3037 1.49432E+01
 -1      3038 1.68240E+01
 -1      3039 5.76666E-01
 -1      3040 5.80040E+00
 -1      3041 4.40983E-01
 -1      3042 2.46838E+01
 -1      3043 4.40978E+00
 -1      3044 5.87741E+00
 -1      3045 2.90658E-01
 -1      3046 3.02580E-01
 -1      3047 3.19550E-01
 -1      3048 2.98999E-01
 -1      3049 2.95537E-01
 -1      3050 2.70733E-01
 -1      3051 2.51699E-01
 -1      3052 2.59888E-01
 -1      3053 2.35084E-01
 -1      3054 2.37392E-01
 -1      3055 2.20932E-01
 -1      3056 2.05334E-01
 -1      3057 2.12395E-01
 -1      3058 1.92026E-01
 -1      3059 1.75803E-01
 -1      3060 1.84936E-01
 -1      3061 1.65221E-01
 -1      3062 1.49759E-01
 -1      3063 1.61045E-01
 -1      3064 1.38640E-01
 -1      3065 1.24706E-01
 -1      3066 1.39344E-01
 -1      3067 1.13982E-01
 -1      3068 1.02465E-01
 -1      3069 1.17501E-01
 -1      3070 9.26361E-02
 -1      3071 8.32841E-02
 -1      3072 9.69487E-02
 -1      3073 7.45502E-02
 -1      3074 6.66797E-02
 -1      3075 7.83862E-02
 -1      3076 5.90237E-02
 -1      3077 5.23400E-02
 -1      3078 6.19963E-02
 -1      3079 4.55976E-02
 -1      3080 4.01127E-02
 -1      3081 4.75979E-02
 -1      3082 3.40136E-02
 -1      3083 2.95928E-02
 -1      3084 3.47564E-02
 -1      3085 2.37839E-02
 -1      3086 2.10839E-02
 -1      3087 2.28485E-02
 -1      3088 2.15269E-02
 -1      3089 2.40593E-02
 -1      3090 1.74827E-02
 -1      3091 3.10217E-02
 -1      3092 3.96150E-02
 -1      3093 2.48882E-02
 -1      3094 4.98428E-02
 -1      3095 6.23103E-02
 -1      3096 4.20785E-02
 -1      3097 7.51713E-02
 -1      3098 9.08912E-02
 -1      3099 6.51673E-02
 -1      3100 1.07886E-01
 -1      3101 1.27614E-01
 -1      3102 9.50231E-02
 -1      3103 1.49043E-01
 -1      3104 1.73509E-01
 -1      3105 1.33447E-01
 -1      3106 1.99788E-01
 -1      3107 2.29614E-01
 -1      3108 1.81156E-01
 -1      3109 2.60971E-01
 -1      3110 2.96540E-01
 -1      3111 2.38793E-01
 -1      3112 3.32608E-01
 -1      3113 3.73878E-01
 -1      3114 3.06219E-01
 -1      3115 4.14496E-01
 -1      3116 4.61345E-01
 -1      3117 3.82906E-01
 -1      3118 5.17371E-01
 -1      3119 5.68465E-01
 -1      3120 4.79551E-01
 -1      3121 6.33356E-01
 -1      3122 6.82478E-01
 -1      3123 6.00468E-01
 -1      3124 7.53886E-01
 -1      3125 7.99095E-01
 -1      3126 7.36767E-01
 -1      3127 8.88001E-01
 -1      3128 9.58528E-01
 -1      3129 8.97081E-01
 -1      3130 1.05219E+00
 -1      3131 1.13809E+00
 -1      3132 1.07965E+00
 -1      3133 1.31478E+00
 -1      3134 1.38885E+00
 -1      3135 1.35002E+00
 -1      3136 1.59778E+00
 -1      3137 1.73701E+00
 -1      3138 1.73565E+00
 -1      3139 2.03557E+00
 -1      3140 2.25596E+00
 -1      3141 2.24314E+00
 -1      3142 2.69031E+00
 -1      3143 2.75362E+00
 -1      3144 2.97606E+00
 -1      3145 3.29180E+00
 -1      3146 4.33201E+00
 -1      3147 4.79511E+00
 -1      3148 5.41299E+00
 -1      3149 5.74741E+00
 -1      3150 6.08184E+00
 -1      3151 6.23666E+00
 -1      3152 6.39149E+00
 -1      3153 6.39149E+00
 -1      3154 6.02845E+00
 -1      3155 5.66542E+00
 -1      3156 5.08397E+00
 -1      3157 1.62374E-01
 -1      3158 1.79384E-01
 -1      3159 1.92198E-01
 -1      3160 2.10785E-01
 -1      3161 1.75748E-01
 -1      3162 1.11219E-01
 -1      3163 1.23562E-01
 -1      3164 8.98633E-02
 -1      3165 1.00448E-01
 -1      3166 1.02368E-01
 -1      3167 7.16144E-02
 -1      3168 8.04778E-02
 -1      3169 8.22122E-02
 -1      3170 5.64003E-02
 -1      3171 6.35354E-02
 -1      3172 6.47476E-02
 -1      3173 4.38947E-02
 -1      3174 4.97585E-02
 -1      3175 5.00268E-02
 -1      3176 3.45182E-02
 -1      3177 3.87898E-02
 -1      3178 3.82801E-02
 -1      3179 2.64545E-02
 -1      3180 2.97965E-02
 -1      3181 2.84534E-02
 -1      3182 2.76705E-02
 -1      3183 2.50323E-02
 -1      3184 2.23095E-02
 -1      3185 3.83854E-02
 -1      3186 3.29575E-02
 -1      3187 2.61744E-02
 -1      3188 6.16612E-02
 -1      3189 4.87102E-02
 -1      3190 4.17861E-02
 -1      3191 9.14187E-02
 -1      3192 7.46559E-02
 -1      3193 6.51055E-02
 -1      3194 1.29560E-01
 -1      3195 1.07910E-01
 -1      3196 9.45918E-02
 -1      3197 1.78212E-01
 -1      3198 1.50491E-01
 -1      3199 1.32014E-01
 -1      3200 2.39699E-01
 -1      3201 2.04659E-01
 -1      3202 1.79393E-01
 -1      3203 3.19581E-01
 -1      3204 2.75988E-01
 -1      3205 2.42129E-01
 -1      3206 4.19292E-01
 -1      3207 3.66077E-01
 -1      3208 3.24915E-01
 -1      3209 5.39527E-01
 -1      3210 4.76021E-01
 -1      3211 4.28139E-01
 -1      3212 6.80106E-01
 -1      3213 6.06427E-01
 -1      3214 5.51768E-01
 -1      3215 8.39402E-01
 -1      3216 7.57045E-01
 -1      3217 6.95608E-01
 -1      3218 1.03118E+00
 -1      3219 9.43198E-01
 -1      3220 8.76345E-01
 -1      3221 1.23872E+00
 -1      3222 1.15481E+00
 -1      3223 1.10378E+00
 -1      3224 1.49150E+00
 -1      3225 1.40128E+00
 -1      3226 1.38997E+00
 -1      3227 1.85253E+00
 -1      3228 1.69128E+00
 -1      3229 1.75231E+00
 -1      3230 2.26869E+00
 -1      3231 2.08007E+00
 -1      3232 2.17964E+00
 -1      3233 2.91352E+00
 -1      3234 2.74799E+00
 -1      3235 2.88649E+00
 -1      3236 3.15291E+00
 -1      3237 3.10442E+00
 -1      3238 3.55669E+00
 -1      3239 4.43907E+00
 -1      3240 3.51881E+00
 -1      3241 4.11408E+00
 -1      3242 3.23510E-01
 -1      3243 3.15700E-01
 -1      3244 8.13979E+00
 -1      3245 1.11198E+01
 -1      3246 4.02478E+00
 -1      3247 6.12763E+00
 -1      3248 1.35936E+01
 -1      3249 1.35009E+01
 -1      3250 2.98887E+00
 -1      3251 3.13854E+00
 -1      3252 3.84749E+00
 -1      3253 3.62798E+00
 -1      3254 1.35593E-01
 -1      3255 1.49508E-01
 -1      3256 1.50067E-01
 -1      3257 1.25170E-01
 -1      3258 3.06807E-01
 -1      3259 3.41114E-01
 -1      3260 1.25146E+01
 -1      3261 1.50644E+01
 -1      3262 3.14573E-01
 -1      3263 3.08146E-01
 -1      3264 2.43757E-01
 -1      3265 4.55026E-01
 -1      3266 1.27587E+01
 -1      3267 1.06569E+01
 -1      3268 3.31279E+00
 -1      3269 3.24309E+00
 -1      3270 4.13315E-01
 -1      3271 3.10388E-01
 -1      3272 2.62991E-01
 -1      3273 3.98777E-01
 -1      3274 6.55084E+00
 -1      3275 7.26715E+00
 -1      3276 3.58717E+00
 -1      3277 3.12205E+00
 -1      3278 2.87432E+00
 -1      3279 4.64626E+00
 -1      3280 3.12282E-01
 -1      3281 3.12024E-01
 -1      3282 2.85132E-01
 -1      3283 2.61340E-01
 -1      3284 3.20659E-01
 -1      3285 3.20659E-01
 -1      3286 6.63139E+00
 -1      3287 6.70628E+00
 -1      3288 7.69106E+00
 -1      3289 1.61385E+01
 -1      3290 2.08401E+01
 -1      3291 4.58336E+00
 -1      3292 8.29610E+00
 -1      3293 5.02703E+00
 -1      3294 3.23510E-01
 -1      3295 2.88549E-01
 -1      3296 3.25224E-01
 -1      3297 7.20272E+00
 -1      3298 1.07436E+01
 -1      3299 8.59758E+00
 -1      3300 3.21126E+00
 -1      3301 4.11039E+00
 -1      3302 5.08397E+00
 -1      3303 4.50252E+00
 -1      3304 2.95874E-01
 -1      3305 3.50719E-01
 -1      3306 3.84537E-01
 -1      3307 3.81409E+00
 -1      3308 2.25013E-01
 -1      3309 2.44921E-01
 -1      3310 2.02790E-01
 -1      3311 3.46899E+00
 -1      3312 3.12565E+00
 -1      3313 5.16022E+00
 -1      3314 1.38855E+01
 -1      3315 3.71683E+00
 -1      3316 1.21731E+01
 -1      3317 9.76803E+00
 -1      3318 1.11177E+01
 -1      3319 3.66697E-01
 -1      3320 3.92317E-01
 -1      3321 2.76260E-01
 -1      3322 2.87639E-01
 -1      3323 9.33424E+00
 -1      3324 1.16466E+01
 -1      3325 8.59201E+00
 -1      3326 3.28519E-01
 -1      3327 2.46299E-01
 -1      3328 3.31323E-01
 -1      3329 3.22666E-01
 -1      3330 3.23422E-01
 -1      3331 2.90535E-01
 -1      3332 2.69997E-01
 -1      3333 2.63274E-01
 -1      3334 6.59815E+00
 -1      3335 1.21282E+01
 -1      3336 3.90594E-01
 -1      3337 2.86323E-01
 -1      3338 3.21864E-01
 -1      3339 3.31776E-01
 -1      3340 3.25382E+00
 -1      3341 4.17723E+00
 -1      3342 4.79511E+00
 -1      3343 8.85256E+00
 -1      3344 8.92419E+00
 -1      3345 4.25500E+00
 -1      3346 5.81547E+00
 -1      3347 4.35962E+00
 -1      3348 4.63821E+00
 -1      3349 6.20850E+00
 -1      3350 9.11137E+00
 -1      3351 3.94861E+00
 -1      3352 5.16514E+00
 -1      3353 2.15330E-01
 -1      3354 2.04485E-01
 -1      3355 2.00851E-01
 -1      3356 1.86699E-01
 -1      3357 1.78789E-01
 -1      3358 1.78854E-01
 -1      3359 1.65546E-01
 -1      3360 1.67310E-01
 -1      3361 1.55733E-01
 -1      3362 1.45150E-01
 -1      3363 1.49651E-01
 -1      3364 1.36856E-01
 -1      3365 1.25737E-01
 -1      3366 1.31543E-01
 -1      3367 1.17537E-01
 -1      3368 1.06813E-01
 -1      3369 1.15048E-01
 -1      3370 9.84897E-02
 -1      3371 8.86609E-02
 -1      3372 9.85252E-02
 -1      3373 8.07527E-02
 -1      3374 7.20188E-02
 -1      3375 8.22936E-02
 -1      3376 6.47811E-02
 -1      3377 5.71251E-02
 -1      3378 6.71476E-02
 -1      3379 5.06086E-02
 -1      3380 4.38661E-02
 -1      3381 5.33933E-02
 -1      3382 3.79825E-02
 -1      3383 3.18835E-02
 -1      3384 4.09932E-02
 -1      3385 2.69072E-02
 -1      3386 2.10983E-02
 -1      3387 3.01333E-02
 -1      3388 2.18594E-02
 -1      3389 2.23025E-02
 -1      3390 2.59181E-02
 -1      3391 2.45706E-02
 -1      3392 3.15331E-02
 -1      3393 2.89474E-02
 -1      3394 4.07907E-02
 -1      3395 5.10186E-02
 -1      3396 4.04732E-02
 -1      3397 6.36205E-02
 -1      3398 7.64814E-02
 -1      3399 6.23328E-02
 -1      3400 9.25395E-02
 -1      3401 1.09534E-01
 -1      3402 9.09928E-02
 -1      3403 1.29798E-01
 -1      3404 1.51227E-01
 -1      3405 1.27315E-01
 -1      3406 1.76467E-01
 -1      3407 2.02747E-01
 -1      3408 1.72818E-01
 -1      3409 2.33666E-01
 -1      3410 2.65023E-01
 -1      3411 2.28977E-01
 -1      3412 3.02148E-01
 -1      3413 3.38216E-01
 -1      3414 2.97020E-01
 -1      3415 3.81707E-01
 -1      3416 4.22325E-01
 -1      3417 3.77635E-01
 -1      3418 4.71651E-01
 -1      3419 5.27677E-01
 -1      3420 4.70451E-01
 -1      3421 5.81006E-01
 -1      3422 6.45896E-01
 -1      3423 5.73105E-01
 -1      3424 7.20799E-01
 -1      3425 7.92207E-01
 -1      3426 7.01337E-01
 -1      3427 8.91411E-01
 -1      3428 9.80317E-01
 -1      3429 8.75443E-01
 -1      3430 1.15216E+00
 -1      3431 1.24583E+00
 -1      3432 1.14649E+00
 -1      3433 1.47208E+00
 -1      3434 1.64878E+00
 -1      3435 1.54458E+00
 -1      3436 1.86315E+00
 -1      3437 2.07208E+00
 -1      3438 1.98521E+00
 -1      3439 2.24314E+00
 -1      3440 2.54171E+00
 -1      3441 2.37065E+00
 -1      3442 3.06740E+00
 -1      3443 3.50176E+00
 -1      3444 4.03995E+00
 -1      3445 3.06740E+00
 -1      3446 7.64320E-02
 -1      3447 8.58175E-02
 -1      3448 9.45451E-02
 -1      3449 1.05315E-01
 -1      3450 8.87650E-02
 -1      3451 4.67764E-02
 -1      3452 5.34181E-02
 -1      3453 3.53729E-02
 -1      3454 4.04779E-02
 -1      3455 4.38692E-02
 -1      3456 2.48593E-02
 -1      3457 2.95810E-02
 -1      3458 3.17788E-02
 -1      3459 2.15859E-02
 -1      3460 2.30081E-02
 -1      3461 2.41357E-02
 -1      3462 2.84896E-02
 -1      3463 2.32025E-02
 -1      3464 2.39011E-02
 -1      3465 4.81075E-02
 -1      3466 3.77828E-02
 -1      3467 3.48110E-02
 -1      3468 7.29745E-02
 -1      3469 5.99798E-02
 -1      3470 5.59765E-02
 -1      3471 1.05646E-01
 -1      3472 8.91539E-02
 -1      3473 8.40282E-02
 -1      3474 1.47691E-01
 -1      3475 1.26760E-01
 -1      3476 1.21323E-01
 -1      3477 2.01343E-01
 -1      3478 1.74896E-01
 -1      3479 1.69642E-01
 -1      3480 2.72361E-01
 -1      3481 2.36072E-01
 -1      3482 2.31575E-01
 -1      3483 3.62732E-01
 -1      3484 3.16236E-01
 -1      3485 3.10179E-01
 -1      3486 4.74279E-01
 -1      3487 4.17551E-01
 -1      3488 4.08872E-01
 -1      3489 6.08862E-01
 -1      3490 5.41961E-01
 -1      3491 5.31373E-01
 -1      3492 7.68203E-01
 -1      3493 6.91264E-01
 -1      3494 6.81457E-01
 -1      3495 9.70350E-01
 -1      3496 8.66553E-01
 -1      3497 8.62208E-01
 -1      3498 1.20775E+00
 -1      3499 1.08412E+00
 -1      3500 1.07432E+00
 -1      3501 1.53484E+00
 -1      3502 1.37227E+00
 -1      3503 1.35261E+00
 -1      3504 1.98717E+00
 -1      3505 1.78738E+00
 -1      3506 1.76969E+00
 -1      3507 2.69185E+00
 -1      3508 2.46430E+00
 -1      3509 2.49937E+00
 -1      3510 3.43409E+00
 -1      3511 2.95479E+00
 -1      3512 3.23944E+00
 -1      3513 4.09897E+00
 -1      3514 3.90807E+00
 -1      3515 3.97637E+00
 -1      3516 4.98960E+00
 -1      3517 9.11137E+00
 -1      3518 6.04576E-02
 -1      3519 6.85366E-02
 -1      3520 7.21420E-02
 -1      3521 5.72071E-02
 -1      3522 1.57501E-01
 -1      3523 1.70315E-01
 -1      3524 3.22666E-01
 -1      3525 2.87880E-01
 -1      3526 3.15107E-01
 -1      3527 9.35809E+00
 -1      3528 1.11177E+01
 -1      3529 8.34756E+00
 -1      3530 1.87316E-01
 -1      3531 1.98719E-01
 -1      3532 3.19515E-01
 -1      3533 4.71337E+00
 -1      3534 7.97082E+00
 -1      3535 6.56288E+00
 -1      3536 5.88322E+00
 -1      3537 2.14805E-01
 -1      3538 2.11343E-01
 -1      3539 1.78436E-01
 -1      3540 2.23180E-01
 -1      3541 2.03450E-01
 -1      3542 2.16720E-01
 -1      3543 5.10551E+00
 -1      3544 5.97815E+00
 -1      3545 3.81409E+00
 -1      3546 2.21530E-01
 -1      3547 2.47515E-01
 -1      3548 2.57120E-01
 -1      3549 2.83985E-01
 -1      3550 1.63887E-01
 -1      3551 1.82134E-01
 -1      3552 1.96362E-01
 -1      3553 6.08729E+00
 -1      3554 1.36055E-01
 -1      3555 1.48921E-01
 -1      3556 1.43488E-01
 -1      3557 5.93842E+00
 -1      3558 5.56222E+00
 -1      3559 4.33765E+00
 -1      3560 3.89969E+00
 -1      3561 2.35371E-01
 -1      3562 6.85879E+00
 -1      3563 2.47715E-01
 -1      3564 2.08961E-01
 -1      3565 2.31443E-01
 -1      3566 1.06810E-01
 -1      3567 1.14633E-01
 -1      3568 1.26665E-01
 -1      3569 2.53001E-01
 -1      3570 2.53001E-01
 -1      3571 1.58364E-01
 -1      3572 3.98524E+00
 -1      3573 2.53001E-01
 -1      3574 2.49583E-01
 -1      3575 2.17452E-01
 -1      3576 2.84797E-01
 -1      3577 2.54364E-01
 -1      3578 2.54364E-01
 -1      3579 6.13319E+00
 -1      3580 7.90424E+00
 -1      3581 6.89371E+00
 -1      3582 7.38450E+00
 -1      3583 8.80497E+00
 -1      3584 6.95071E+00
 -1      3585 2.17739E-01
 -1      3586 1.72701E-01
 -1      3587 2.31685E-01
 -1      3588 2.11986E-01
 -1      3589 2.45502E-01
 -1      3590 4.33201E+00
 -1      3591 3.85664E+00
 -1      3592 1.59206E-01
 -1      3593 1.55573E-01
 -1      3594 1.94602E-01
 -1      3595 2.42961E-01
 -1      3596 2.42147E-01
 -1      3597 2.46712E-01
 -1      3598 2.11163E-01
 -1      3599 1.55236E-01
 -1      3600 1.47390E-01
 -1      3601 1.35653E-01
 -1      3602 1.42988E-01
 -1      3603 1.33175E-01
 -1      3604 1.30914E-01
 -1      3605 1.26549E-01
 -1      3606 1.18254E-01
 -1      3607 1.19886E-01
 -1      3608 1.10684E-01
 -1      3609 1.02484E-01
 -1      3610 1.05690E-01
 -1      3611 9.62368E-02
 -1      3612 8.79135E-02
 -1      3613 9.18721E-02
 -1      3614 8.14665E-02
 -1      3615 7.35582E-02
 -1      3616 7.91782E-02
 -1      3617 6.73560E-02
 -1      3618 6.01183E-02
 -1      3619 6.65289E-02
 -1      3620 5.43713E-02
 -1      3621 4.78548E-02
 -1      3622 5.45798E-02
 -1      3623 4.26499E-02
 -1      3624 3.67663E-02
 -1      3625 4.36279E-02
 -1      3626 3.32052E-02
 -1      3627 2.82289E-02
 -1      3628 3.48619E-02
 -1      3629 2.87081E-02
 -1      3630 2.94693E-02
 -1      3631 3.17801E-02
 -1      3632 3.12444E-02
 -1      3633 3.35125E-02
 -1      3634 3.40344E-02
 -1      3635 3.72438E-02
 -1      3636 4.65014E-02
 -1      3637 3.95407E-02
 -1      3638 5.72030E-02
 -1      3639 6.98049E-02
 -1      3640 5.39735E-02
 -1      3641 8.35611E-02
 -1      3642 9.96192E-02
 -1      3643 7.84313E-02
 -1      3644 1.17204E-01
 -1      3645 1.37468E-01
 -1      3646 1.09773E-01
 -1      3647 1.59763E-01
 -1      3648 1.85003E-01
 -1      3649 1.49653E-01
 -1      3650 2.13009E-01
 -1      3651 2.43928E-01
 -1      3652 1.99954E-01
 -1      3653 2.78798E-01
 -1      3654 3.15922E-01
 -1      3655 2.62831E-01
 -1      3656 3.59009E-01
 -1      3657 4.02499E-01
 -1      3658 3.40787E-01
 -1      3659 4.55427E-01
 -1      3660 5.04752E-01
 -1      3661 4.36800E-01
 -1      3662 5.69460E-01
 -1      3663 6.22789E-01
 -1      3664 5.54436E-01
 -1      3665 7.01337E-01
 -1      3666 7.76239E-01
 -1      3667 6.97692E-01
 -1      3668 8.69972E-01
 -1      3669 9.69176E-01
 -1      3670 8.69972E-01
 -1      3671 1.11515E+00
 -1      3672 1.28699E+00
 -1      3673 1.10968E+00
 -1      3674 1.52791E+00
 -1      3675 1.75416E+00
 -1      3676 1.49657E+00
 -1      3677 1.98521E+00
 -1      3678 2.19959E+00
 -1      3679 1.96854E+00
 -1      3680 3.45955E+00
 -1      3681 8.02634E-02
 -1      3682 8.89909E-02
 -1      3683 2.87099E-02
 -1      3684 3.45018E-02
 -1      3685 3.97814E-02
 -1      3686 4.60799E-02
 -1      3687 3.67124E-02
 -1      3688 2.88006E-02
 -1      3689 2.71840E-02
 -1      3690 4.18061E-02
 -1      3691 3.25129E-02
 -1      3692 3.57958E-02
 -1      3693 6.41979E-02
 -1      3694 5.23256E-02
 -1      3695 5.00275E-02
 -1      3696 9.43870E-02
 -1      3697 7.82076E-02
 -1      3698 7.45566E-02
 -1      3699 1.33602E-01
 -1      3700 1.12487E-01
 -1      3701 1.06667E-01
 -1      3702 1.84075E-01
 -1      3703 1.56871E-01
 -1      3704 1.48035E-01
 -1      3705 2.48536E-01
 -1      3706 2.13807E-01
 -1      3707 2.01036E-01
 -1      3708 3.30203E-01
 -1      3709 2.86328E-01
 -1      3710 2.68561E-01
 -1      3711 4.32938E-01
 -1      3712 3.78120E-01
 -1      3713 3.54269E-01
 -1      3714 5.61494E-01
 -1      3715 4.93811E-01
 -1      3716 4.63059E-01
 -1      3717 7.21886E-01
 -1      3718 6.39483E-01
 -1      3719 6.01922E-01
 -1      3720 9.21713E-01
 -1      3721 8.23363E-01
 -1      3722 7.81390E-01
 -1      3723 1.16995E+00
 -1      3724 1.05618E+00
 -1      3725 1.01734E+00
 -1      3726 1.51714E+00
 -1      3727 1.35261E+00
 -1      3728 1.33447E+00
 -1      3729 2.01530E+00
 -1      3730 1.76276E+00
 -1      3731 1.76276E+00
 -1      3732 2.84960E+00
 -1      3733 2.37247E+00
 -1      3734 2.36554E+00
 -1      3735 3.55586E+00
 -1      3736 3.29291E+00
 -1      3737 3.16601E+00
 -1      3738 5.34398E+00
 -1      3739 2.25122E-01
 -1      3740 6.12042E+00
 -1      3741 5.49923E+00
 -1      3742 4.60561E+00
 -1      3743 1.84257E-01
 -1      3744 6.57814E+00
 -1      3745 6.57814E+00
 -1      3746 2.72505E-01
 -1      3747 2.43945E-01
 -1      3748 2.51281E-01
 -1      3749 2.54364E-01
 -1      3750 2.20847E-01
 -1      3751 2.19150E-01
 -1      3752 1.67023E-01
 -1      3753 1.83109E-01
 -1      3754 2.57846E-02
 -1      3755 2.76358E-02
 -1      3756 3.06841E-02
 -1      3757 1.72042E-01
 -1      3758 1.48669E-01
 -1      3759 1.52656E-01
 -1      3760 1.29439E-01
 -1      3761 2.06690E-01
 -1      3762 2.25043E-01
 -1      3763 1.86034E-01
 -1      3764 2.67189E+00
 -1      3765 3.58972E+00
 -1      3766 3.54999E+00
 -1      3767 2.50082E+00
 -1      3768 1.73151E-01
 -1      3769 1.79440E-01
 -1      3770 1.46341E-01
 -1      3771 1.58161E-01
 -1      3772 3.03588E-02
 -1      3773 1.47558E-01
 -1      3774 1.85569E-01
 -1      3775 1.85569E-01
 -1      3776 7.32514E-02
 -1      3777 7.34773E-02
 -1      3778 6.53559E-02
 -1      3779 1.92659E-01
 -1      3780 1.25519E-01
 -1      3781 2.02762E-01
 -1      3782 4.13163E+00
 -1      3783 4.18509E+00
 -1      3784 5.18930E-02
 -1      3785 5.89325E-02
 -1      3786 6.00418E-02
 -1      3787 5.61508E+00
 -1      3788 5.54465E+00
 -1      3789 4.18509E+00
 -1      3790 3.60932E+00
 -1      3791 5.01538E+00
 -1      3792 6.20333E+00
 -1      3793 4.43391E+00
 -1      3794 4.74948E+00
 -1      3795 5.54027E+00
 -1      3796 4.84693E+00
 -1      3797 4.27596E+00
 -1      3798 1.57328E-01
 -1      3799 9.62300E-02
 -1      3800 1.05548E-01
 -1      3801 8.77285E-02
 -1      3802 2.06307E-01
 -1      3803 1.97446E-01
 -1      3804 1.77414E-01
 -1      3805 1.77213E-01
 -1      3806 2.08355E-01
 -1      3807 2.08355E-01
 -1      3808 1.93815E-01
 -1      3809 1.29811E-01
 -1      3810 1.38390E-01
 -1      3811 1.32664E-01
 -1      3812 2.50082E+00
 -1      3813 4.78052E-02
 -1      3814 1.43548E-01
 -1      3815 1.75095E-01
 -1      3816 1.60937E-01
 -1      3817 1.27117E-01
 -1      3818 1.24998E-01
 -1      3819 1.46458E-01
 -1      3820 1.64003E-01
 -1      3821 1.74331E-01
 -1      3822 3.27964E-02
 -1      3823 3.80760E-02
 -1      3824 1.19246E-01
 -1      3825 1.14844E-01
 -1      3826 1.12158E-01
 -1      3827 1.05532E-01
 -1      3828 1.00490E-01
 -1      3829 1.00882E-01
 -1      3830 9.33113E-02
 -1      3831 9.31538E-02
 -1      3832 8.77067E-02
 -1      3833 8.14598E-02
 -1      3834 8.28990E-02
 -1      3835 7.56079E-02
 -1      3836 6.91609E-02
 -1      3837 7.14426E-02
 -1      3838 6.40133E-02
 -1      3839 5.78111E-02
 -1      3840 6.04431E-02
 -1      3841 5.31849E-02
 -1      3842 4.74380E-02
 -1      3843 5.06692E-02
 -1      3844 4.32349E-02
 -1      3845 3.80300E-02
 -1      3846 4.18400E-02
 -1      3847 3.68115E-02
 -1      3848 3.32504E-02
 -1      3849 3.64185E-02
 -1      3850 3.32926E-02
 -1      3851 3.37718E-02
 -1      3852 3.52421E-02
 -1      3853 3.51767E-02
 -1      3854 3.69518E-02
 -1      3855 3.66893E-02
 -1      3856 3.99092E-02
 -1      3857 4.36405E-02
 -1      3858 4.10516E-02
 -1      3859 4.92158E-02
 -1      3860 5.99173E-02
 -1      3861 4.95843E-02
 -1      3862 6.81671E-02
 -1      3863 8.19233E-02
 -1      3864 6.34093E-02
 -1      3865 9.56869E-02
 -1      3866 1.13272E-01
 -1      3867 8.54227E-02
 -1      3868 1.31050E-01
 -1      3869 1.53345E-01
 -1      3870 1.16964E-01
 -1      3871 1.76175E-01
 -1      3872 2.04182E-01
 -1      3873 1.57573E-01
 -1      3874 2.33409E-01
 -1      3875 2.68279E-01
 -1      3876 2.09630E-01
 -1      3877 3.05734E-01
 -1      3878 3.48820E-01
 -1      3879 2.76313E-01
 -1      3880 3.97140E-01
 -1      3881 4.50067E-01
 -1      3882 3.62087E-01
 -1      3883 5.13254E-01
 -1      3884 5.77962E-01
 -1      3885 4.73594E-01
 -1      3886 6.62312E-01
 -1      3887 7.40859E-01
 -1      3888 6.21130E-01
 -1      3889 8.56122E-01
 -1      3890 9.49855E-01
 -1      3891 8.20742E-01
 -1      3892 1.10968E+00
 -1      3893 1.25566E+00
 -1      3894 1.09583E+00
 -1      3895 1.47696E+00
 -1      3896 1.71788E+00
 -1      3897 1.47696E+00
 -1      3898 1.88401E+00
 -1      3899 2.11506E+00
 -1      3900 1.86440E+00
 -1      3901 7.96320E-02
 -1      3902 6.56222E-02
 -1      3903 5.47974E-02
 -1      3904 4.42780E-02
 -1      3905 5.98727E-02
 -1      3906 3.97124E-02
 -1      3907 3.60001E-02
 -1      3908 4.44823E-02
 -1      3909 1.11813E-01
 -1      3910 9.37126E-02
 -1      3911 8.47782E-02
 -1      3912 1.53160E-01
 -1      3913 1.29892E-01
 -1      3914 1.16938E-01
 -1      3915 2.05951E-01
 -1      3916 1.76219E-01
 -1      3917 1.58075E-01
 -1      3918 2.73017E-01
 -1      3919 2.35224E-01
 -1      3920 2.10407E-01
 -1      3921 3.58083E-01
 -1      3922 3.10167E-01
 -1      3923 2.76831E-01
 -1      3924 4.66422E-01
 -1      3925 4.05549E-01
 -1      3926 3.61447E-01
 -1      3927 6.06118E-01
 -1      3928 5.28128E-01
 -1      3929 4.70618E-01
 -1      3930 7.90409E-01
 -1      3931 6.88931E-01
 -1      3932 6.15137E-01
 -1      3933 1.04170E+00
 -1      3934 9.07232E-01
 -1      3935 8.14773E-01
 -1      3936 1.39671E+00
 -1      3937 1.21404E+00
 -1      3938 1.10394E+00
 -1      3939 1.91792E+00
 -1      3940 1.67231E+00
 -1      3941 1.55188E+00
 -1      3942 2.74245E+00
 -1      3943 2.38529E+00
 -1      3944 2.29483E+00
 -1      3945 3.32446E+00
 -1      3946 2.88115E+00
 -1      3947 2.90090E+00
 -1      3948 1.12536E-01
 -1      3949 1.21926E-01
 -1      3950 1.16828E-01
 -1      3951 1.01955E-01
 -1      3952 1.06521E-01
 -1      3953 1.13072E-01
 -1      3954 2.06657E-01
 -1      3955 2.08355E-01
 -1      3956 1.74774E-01
 -1      3957 3.36561E-02
 -1      3958 3.22566E-02
 -1      3959 3.75726E-02
 -1      3960 3.13628E-02
 -1      3961 3.24369E-02
 -1      3962 3.38005E-02
 -1      3963 1.76102E-01
 -1      3964 1.82503E-01
 -1      3965 1.50755E-01
 -1      3966 1.36461E-01
 -1      3967 1.02021E-01
 -1      3968 8.56536E-02
 -1      3969 1.38508E-01
 -1      3970 2.58789E+00
 -1      3971 3.33582E+00
 -1      3972 3.31386E+00
 -1      3973 2.28665E+00
 -1      3974 1.18949E-01
 -1      3975 1.18613E-01
 -1      3976 9.60308E-02
 -1      3977 4.22210E-02
 -1      3978 4.80341E-02
 -1      3979 3.83050E-02
 -1      3980 1.54072E-01
 -1      3981 1.33684E-01
 -1      3982 1.28595E-01
 -1      3983 1.10046E-01
 -1      3984 2.20213E+00
 -1      3985 1.31127E-01
 -1      3986 4.53602E+00
 -1      3987 5.34238E+00
 -1      3988 5.29856E-02
 -1      3989 5.94091E-02
 -1      3990 4.74014E-02
 -1      3991 3.93632E+00
 -1      3992 1.95862E-01
 -1      3993 6.39287E-02
 -1      3994 7.09408E-02
 -1      3995 5.68725E-02
 -1      3996 3.92366E+00
 -1      3997 4.51658E+00
 -1      3998 3.82621E+00
 -1      3999 3.93632E+00
 -1      4000 3.56648E+00
 -1      4001 3.94128E+00
 -1      4002 7.86867E-02
 -1      4003 8.82353E-02
 -1      4004 9.54744E-02
 -1      4005 1.17546E-01
 -1      4006 1.25498E-01
 -1      4007 3.43348E-02
 -1      4008 1.02542E-01
 -1      4009 3.66859E+00
 -1      4010 1.28952E-01
 -1      4011 1.34794E-01
 -1      4012 1.13834E-01
 -1      4013 8.89067E-02
 -1      4014 8.42565E-02
 -1      4015 7.70561E-02
 -1      4016 7.14515E-02
 -1      4017 7.28090E-02
 -1      4018 8.21140E-02
 -1      4019 7.62621E-02
 -1      4020 7.62711E-02
 -1      4021 6.15636E-02
 -1      4022 5.64159E-02
 -1      4023 7.22350E-02
 -1      4024 5.25309E-02
 -1      4025 4.79047E-02
 -1      4026 5.36514E-02
 -1      4027 4.39742E-02
 -1      4028 3.97712E-02
 -1      4029 4.58359E-02
 -1      4030 3.75540E-02
 -1      4031 3.63355E-02
 -1      4032 3.96883E-02
 -1      4033 3.52421E-02
 -1      4034 3.52843E-02
 -1      4035 3.63777E-02
 -1      4036 3.66893E-02
 -1      4037 3.80942E-02
 -1      4038 3.66893E-02
 -1      4039 4.10516E-02
 -1      4040 4.40090E-02
 -1      4041 4.10516E-02
 -1      4042 4.95843E-02
 -1      4043 5.51596E-02
 -1      4044 4.95843E-02
 -1      4045 6.32854E-02
 -1      4046 7.15352E-02
 -1      4047 6.32854E-02
 -1      4048 8.24202E-02
 -1      4049 9.61838E-02
 -1      4050 8.22963E-02
 -1      4051 1.11798E-01
 -1      4052 1.29576E-01
 -1      4053 1.08795E-01
 -1      4054 1.50156E-01
 -1      4055 1.72986E-01
 -1      4056 1.44989E-01
 -1      4057 1.99900E-01
 -1      4058 2.29127E-01
 -1      4059 1.92483E-01
 -1      4060 2.64538E-01
 -1      4061 3.01993E-01
 -1      4062 2.54808E-01
 -1      4063 3.49262E-01
 -1      4064 3.97582E-01
 -1      4065 3.37487E-01
 -1      4066 4.62179E-01
 -1      4067 5.25366E-01
 -1      4068 4.49354E-01
 -1      4069 6.16508E-01
 -1      4070 7.00858E-01
 -1      4071 6.05094E-01
 -1      4072 8.34152E-01
 -1      4073 9.49414E-01
 -1      4074 8.29530E-01
 -1      4075 1.14870E+00
 -1      4076 1.30852E+00
 -1      4077 1.16211E+00
 -1      4078 1.59513E+00
 -1      4079 1.81643E+00
 -1      4080 1.64800E+00
 -1      4081 1.81643E+00
 -1      4082 1.98257E+00
 -1      4083 1.93460E+00
 -1      4084 6.71115E-02
 -1      4085 5.62867E-02
 -1      4086 9.11121E-02
 -1      4087 7.70314E-02
 -1      4088 7.34454E-02
 -1      4089 2.20213E+00
 -1      4090 2.37371E+00
 -1      4091 3.31386E+00
 -1      4092 2.15416E+00
 -1      4093 4.90479E-02
 -1      4094 4.44823E-02
 -1      4095 5.62867E-02
 -1      4096 1.62389E-01
 -1      4097 1.39331E-01
 -1      4098 2.13658E-01
 -1      4099 1.84385E-01
 -1      4100 1.65641E-01
 -1      4101 2.78781E-01
 -1      4102 2.41630E-01
 -1      4103 2.15608E-01
 -1      4104 3.61741E-01
 -1      4105 3.14275E-01
 -1      4106 2.79075E-01
 -1      4107 4.68896E-01
 -1      4108 4.07191E-01
 -1      4109 3.60019E-01
 -1      4110 6.11197E-01
 -1      4111 5.28384E-01
 -1      4112 4.64957E-01
 -1      4113 8.13917E-01
 -1      4114 6.97093E-01
 -1      4115 6.10340E-01
 -1      4116 1.11955E+00
 -1      4117 9.47210E-01
 -1      4118 8.29530E-01
 -1      4119 1.59443E+00
 -1      4120 1.31884E+00
 -1      4121 1.16211E+00
 -1      4122 2.55950E+00
 -1      4123 2.09214E+00
 -1      4124 1.85910E+00
 -1      4125 3.65146E+00
 -1      4126 1.36511E-01
 -1      4127 1.57599E-01
 -1      4128 1.13952E-01
 -1      4129 9.88041E-02
 -1      4130 9.61182E-02
 -1      4131 8.72209E-02
 -1      4132 8.01329E-02
 -1      4133 8.60106E-02
 -1      4134 1.36169E-01
 -1      4135 1.37940E-01
 -1      4136 1.15781E-01
 -1      4137 1.18663E-01
 -1      4138 1.12002E-01
 -1      4139 1.04836E-01
 -1      4140 1.04117E-01
 -1      4141 3.52286E-02
 -1      4142 3.43348E-02
 -1      4143 3.43088E-02
 -1      4144 3.46683E-02
 -1      4145 3.52026E-02
 -1      4146 3.99166E-02
 -1      4147 3.75726E-02
 -1      4148 3.75726E-02
 -1      4149 1.22328E-01
 -1      4150 1.04249E-01
 -1      4151 9.65020E-02
 -1      4152 1.26642E-01
 -1      4153 8.96058E-02
 -1      4154 9.02394E-02
 -1      4155 8.58678E-02
 -1      4156 3.80327E-02
 -1      4157 4.21777E-02
 -1      4158 3.85410E-02
 -1      4159 1.57599E-01
 -1      4160 1.57599E-01
 -1      4161 1.00245E-01
 -1      4162 1.19336E-01
 -1      4163 4.61081E-02
 -1      4164 5.10596E-02
 -1      4165 4.58359E-02
 -1      4166 4.44823E-02
 -1      4167 9.85334E-02
 -1      4168 1.04078E-01
 -1      4169 2.91802E+00
 -1      4170 2.71533E+00
 -1      4171 1.15430E-01
 -1      4172 9.54744E-02
 -1      4173 1.02462E-01
 -1      4174 9.76364E-02
 -1      4175 9.59813E-02
 -1      4176 5.49446E-02
 -1      4177 5.94643E-02
 -1      4178 5.36514E-02
 -1      4179 6.61729E-02
 -1      4180 7.06724E-02
 -1      4181 6.06522E-02
 -1      4182 8.52640E-02
 -1      4183 7.41629E-02
 -1      4184 9.14574E-02
 -1      4185 7.22350E-02
 -1      4186 3.47427E+00
 -1      4187 2.98164E+00
 -1      4188 2.62312E+00
 -1      4189 9.77753E-02
 -1      4190 1.04078E-01
 -1      4191 1.07532E-01
 -1      4192 7.37079E-02
 -1      4193 3.24137E+00
 -1      4194 3.05672E+00
 -1      4195 8.96504E-02
 -1      4196 8.88923E-02
 -1      4197 8.79954E-02
 -1      4198 8.07949E-02
 -1      4199 9.14574E-02
 -1      4200 8.69336E-02
 -1      4201 7.22350E-02
 -1      4202 5.75364E-02
 -1      4203 5.36514E-02
 -1      4204 4.97664E-02
 -1      4205 4.58359E-02
 -1      4206 4.19055E-02
 -1      4207 3.96883E-02
 -1      4208 3.63238E-02
 -1      4209 3.52304E-02
 -1      4210 3.52565E-02
 -1      4211 3.66614E-02
 -1      4212 3.90054E-02
 -1      4213 4.19628E-02
 -1      4214 4.65284E-02
 -1      4215 5.21037E-02
 -1      4216 5.93426E-02
 -1      4217 6.74684E-02
 -1      4218 7.73883E-02
 -1      4219 8.82733E-02
 -1      4220 1.01410E-01
 -1      4221 1.17024E-01
 -1      4222 1.34027E-01
 -1      4223 1.54608E-01
 -1      4224 1.76603E-01
 -1      4225 2.03517E-01
 -1      4226 2.31489E-01
 -1      4227 2.66900E-01
 -1      4228 3.02394E-01
 -1      4229 3.49663E-01
 -1      4230 3.95113E-01
 -1      4231 4.59710E-01
 -1      4232 5.19198E-01
 -1      4233 6.10340E-01
 -1      4234 6.96236E-01
 -1      4235 8.29530E-01
 -1      4236 9.62823E-01
 -1      4237 1.16211E+00
 -1      4238 1.36139E+00
 -1      4239 1.64800E+00
 -1      4240 2.98351E+00
 -1      4241 2.14570E+00
 -1      4242 1.02556E-01
 -1      4243 1.06462E-01
 -1      4244 8.75392E-02
 -1      4245 9.61039E-02
 -1      4246 9.61039E-02
 -1      4247 8.88923E-02
 -1      4248 8.00094E-02
 -1      4249 7.28090E-02
 -1      4250 8.79954E-02
 -1      4251 9.77753E-02
 -1      4252 8.54458E-02
 -1      4253 9.56819E-02
 -1      4254 2.14570E+00
 -1      4255 2.41202E+00
 -1      4256 2.63157E+00
 -1      4257 1.06813E-01
 -1      4258 9.14574E-02
 -1      4259 9.59813E-02
 -1      4260 1.06462E-01
 -1      4261 8.18506E-02
 -1      4262 9.59813E-02
 -1      4263 9.27256E-02
 -1      4264 1.02482E-01
 -1      4265 1.03856E-01
 -1      4266 7.23901E-02
 -1      4267 9.06322E-02
 -1      4268 9.77753E-02
 -1      4269 9.27256E-02
 -3
 9999
