    1C
    1UUSER                                                              
    1UDATE              26.october.2022                                 
    1UTIME              23:51:50                                        
    1UHOST                                                              
    1UPGM               CalculiX                                        
    1UVERSION           Version 2.17                             
    1UCOMPILETIME       Thu Jul 23 21:43:50 CEST 2020                    
    1UDIR                                                               
    1UDBN                                                               
    1UMAT    1SOLIDMATERIAL                                             
    2C                          4264                                     1
 -1         1 2.84493E+01 3.27973E+01 0.00000E+00
 -1         2 3.54489E+01 2.57973E+01 0.00000E+00
 -1         3 1.50000E+02 0.00000E+00 0.00000E+00
 -1         4 1.50000E+02 5.00000E+01 0.00000E+00
 -1         5 0.00000E+00 0.00000E+00 0.00000E+00
 -1         6 0.00000E+00 5.00000E+01 0.00000E+00
 -1         7 0.00000E+00 4.70500E+01 0.00000E+00
 -1         8 0.00000E+00 4.41000E+01 0.00000E+00
 -1         9 0.00000E+00 4.11500E+01 0.00000E+00
 -1        10 0.00000E+00 3.82000E+01 0.00000E+00
 -1        11 0.00000E+00 3.52500E+01 0.00000E+00
 -1        12 0.00000E+00 3.23500E+01 0.00000E+00
 -1        13 0.00000E+00 2.94000E+01 0.00000E+00
 -1        14 0.00000E+00 2.64500E+01 0.00000E+00
 -1        15 0.00000E+00 2.35000E+01 0.00000E+00
 -1        16 0.00000E+00 2.05500E+01 0.00000E+00
 -1        17 0.00000E+00 1.76000E+01 0.00000E+00
 -1        18 0.00000E+00 1.47000E+01 0.00000E+00
 -1        19 0.00000E+00 1.17500E+01 0.00000E+00
 -1        20 0.00000E+00 8.80000E+00 0.00000E+00
 -1        21 0.00000E+00 5.85000E+00 0.00000E+00
 -1        22 0.00000E+00 2.90000E+00 0.00000E+00
 -1        23 3.15000E+00 5.00000E+01 0.00000E+00
 -1        24 6.15000E+00 5.00000E+01 0.00000E+00
 -1        25 9.15000E+00 5.00000E+01 0.00000E+00
 -1        26 1.21500E+01 5.00000E+01 0.00000E+00
 -1        27 1.51500E+01 5.00000E+01 0.00000E+00
 -1        28 1.81500E+01 5.00000E+01 0.00000E+00
 -1        29 2.11500E+01 5.00000E+01 0.00000E+00
 -1        30 2.41500E+01 5.00000E+01 0.00000E+00
 -1        31 2.71500E+01 5.00000E+01 0.00000E+00
 -1        32 3.01500E+01 5.00000E+01 0.00000E+00
 -1        33 3.31500E+01 5.00000E+01 0.00000E+00
 -1        34 3.61500E+01 5.00000E+01 0.00000E+00
 -1        35 3.91500E+01 5.00000E+01 0.00000E+00
 -1        36 4.21500E+01 5.00000E+01 0.00000E+00
 -1        37 4.51500E+01 5.00000E+01 0.00000E+00
 -1        38 4.81500E+01 5.00000E+01 0.00000E+00
 -1        39 5.11500E+01 5.00000E+01 0.00000E+00
 -1        40 5.41500E+01 5.00000E+01 0.00000E+00
 -1        41 5.71500E+01 5.00000E+01 0.00000E+00
 -1        42 6.01500E+01 5.00000E+01 0.00000E+00
 -1        43 6.31500E+01 5.00000E+01 0.00000E+00
 -1        44 6.61500E+01 5.00000E+01 0.00000E+00
 -1        45 6.91500E+01 5.00000E+01 0.00000E+00
 -1        46 7.21500E+01 5.00000E+01 0.00000E+00
 -1        47 7.51500E+01 5.00000E+01 0.00000E+00
 -1        48 7.81500E+01 5.00000E+01 0.00000E+00
 -1        49 8.11500E+01 5.00000E+01 0.00000E+00
 -1        50 8.41500E+01 5.00000E+01 0.00000E+00
 -1        51 8.71500E+01 5.00000E+01 0.00000E+00
 -1        52 9.01500E+01 5.00000E+01 0.00000E+00
 -1        53 9.31500E+01 5.00000E+01 0.00000E+00
 -1        54 9.61500E+01 5.00000E+01 0.00000E+00
 -1        55 9.91500E+01 5.00000E+01 0.00000E+00
 -1        56 1.02150E+02 5.00000E+01 0.00000E+00
 -1        57 1.05150E+02 5.00000E+01 0.00000E+00
 -1        58 1.08150E+02 5.00000E+01 0.00000E+00
 -1        59 1.11150E+02 5.00000E+01 0.00000E+00
 -1        60 1.14150E+02 5.00000E+01 0.00000E+00
 -1        61 1.17150E+02 5.00000E+01 0.00000E+00
 -1        62 1.20150E+02 5.00000E+01 0.00000E+00
 -1        63 1.23150E+02 5.00000E+01 0.00000E+00
 -1        64 1.26150E+02 5.00000E+01 0.00000E+00
 -1        65 1.29150E+02 5.00000E+01 0.00000E+00
 -1        66 1.32150E+02 5.00000E+01 0.00000E+00
 -1        67 1.35150E+02 5.00000E+01 0.00000E+00
 -1        68 1.38150E+02 5.00000E+01 0.00000E+00
 -1        69 1.41150E+02 5.00000E+01 0.00000E+00
 -1        70 1.44150E+02 5.00000E+01 0.00000E+00
 -1        71 1.47150E+02 5.00000E+01 0.00000E+00
 -1        72 3.15000E+00 0.00000E+00 0.00000E+00
 -1        73 6.15000E+00 0.00000E+00 0.00000E+00
 -1        74 9.15000E+00 0.00000E+00 0.00000E+00
 -1        75 1.21500E+01 0.00000E+00 0.00000E+00
 -1        76 1.51500E+01 0.00000E+00 0.00000E+00
 -1        77 1.81500E+01 0.00000E+00 0.00000E+00
 -1        78 2.11500E+01 0.00000E+00 0.00000E+00
 -1        79 2.41500E+01 0.00000E+00 0.00000E+00
 -1        80 2.71500E+01 0.00000E+00 0.00000E+00
 -1        81 3.01500E+01 0.00000E+00 0.00000E+00
 -1        82 3.31500E+01 0.00000E+00 0.00000E+00
 -1        83 3.61500E+01 0.00000E+00 0.00000E+00
 -1        84 3.91500E+01 0.00000E+00 0.00000E+00
 -1        85 4.21500E+01 0.00000E+00 0.00000E+00
 -1        86 4.51500E+01 0.00000E+00 0.00000E+00
 -1        87 4.81500E+01 0.00000E+00 0.00000E+00
 -1        88 5.11500E+01 0.00000E+00 0.00000E+00
 -1        89 5.41500E+01 0.00000E+00 0.00000E+00
 -1        90 5.71500E+01 0.00000E+00 0.00000E+00
 -1        91 6.01500E+01 0.00000E+00 0.00000E+00
 -1        92 6.31500E+01 0.00000E+00 0.00000E+00
 -1        93 6.61500E+01 0.00000E+00 0.00000E+00
 -1        94 6.91500E+01 0.00000E+00 0.00000E+00
 -1        95 7.21500E+01 0.00000E+00 0.00000E+00
 -1        96 7.51500E+01 0.00000E+00 0.00000E+00
 -1        97 7.81500E+01 0.00000E+00 0.00000E+00
 -1        98 8.11500E+01 0.00000E+00 0.00000E+00
 -1        99 8.41500E+01 0.00000E+00 0.00000E+00
 -1       100 8.71500E+01 0.00000E+00 0.00000E+00
 -1       101 9.01500E+01 0.00000E+00 0.00000E+00
 -1       102 9.31500E+01 0.00000E+00 0.00000E+00
 -1       103 9.61500E+01 0.00000E+00 0.00000E+00
 -1       104 9.91500E+01 0.00000E+00 0.00000E+00
 -1       105 1.02150E+02 0.00000E+00 0.00000E+00
 -1       106 1.05150E+02 0.00000E+00 0.00000E+00
 -1       107 1.08150E+02 0.00000E+00 0.00000E+00
 -1       108 1.11150E+02 0.00000E+00 0.00000E+00
 -1       109 1.14150E+02 0.00000E+00 0.00000E+00
 -1       110 1.17150E+02 0.00000E+00 0.00000E+00
 -1       111 1.20150E+02 0.00000E+00 0.00000E+00
 -1       112 1.23150E+02 0.00000E+00 0.00000E+00
 -1       113 1.26150E+02 0.00000E+00 0.00000E+00
 -1       114 1.29150E+02 0.00000E+00 0.00000E+00
 -1       115 1.32150E+02 0.00000E+00 0.00000E+00
 -1       116 1.35150E+02 0.00000E+00 0.00000E+00
 -1       117 1.38150E+02 0.00000E+00 0.00000E+00
 -1       118 1.41150E+02 0.00000E+00 0.00000E+00
 -1       119 1.44150E+02 0.00000E+00 0.00000E+00
 -1       120 1.47150E+02 0.00000E+00 0.00000E+00
 -1       121 1.50000E+02 2.95000E+00 0.00000E+00
 -1       122 1.50000E+02 5.90000E+00 0.00000E+00
 -1       123 1.50000E+02 8.85000E+00 0.00000E+00
 -1       124 1.50000E+02 1.18000E+01 0.00000E+00
 -1       125 1.50000E+02 1.47500E+01 0.00000E+00
 -1       126 1.50000E+02 1.76500E+01 0.00000E+00
 -1       127 1.50000E+02 2.06000E+01 0.00000E+00
 -1       128 1.50000E+02 2.35500E+01 0.00000E+00
 -1       129 1.50000E+02 2.65000E+01 0.00000E+00
 -1       130 1.50000E+02 2.94500E+01 0.00000E+00
 -1       131 1.50000E+02 3.24000E+01 0.00000E+00
 -1       132 1.50000E+02 3.53000E+01 0.00000E+00
 -1       133 1.50000E+02 3.82500E+01 0.00000E+00
 -1       134 1.50000E+02 4.12000E+01 0.00000E+00
 -1       135 1.50000E+02 4.41500E+01 0.00000E+00
 -1       136 1.50000E+02 4.71000E+01 0.00000E+00
 -1       137 3.53100E+01 2.44099E+01 0.00000E+00
 -1       138 3.48764E+01 2.30248E+01 0.00000E+00
 -1       139 3.41849E+01 2.17851E+01 0.00000E+00
 -1       140 3.30718E+01 2.05410E+01 0.00000E+00
 -1       141 3.18864E+01 1.96994E+01 0.00000E+00
 -1       142 3.04861E+01 1.91003E+01 0.00000E+00
 -1       143 2.90234E+01 1.88209E+01 0.00000E+00
 -1       144 2.75099E+01 1.88605E+01 0.00000E+00
 -1       145 2.59712E+01 1.92504E+01 0.00000E+00
 -1       146 2.46395E+01 1.99246E+01 0.00000E+00
 -1       147 2.33698E+01 2.09803E+01 0.00000E+00
 -1       148 2.25052E+01 2.20996E+01 0.00000E+00
 -1       149 2.18974E+01 2.33317E+01 0.00000E+00
 -1       150 2.15186E+01 2.48115E+01 0.00000E+00
 -1       151 2.14660E+01 2.62870E+01 0.00000E+00
 -1       152 2.17352E+01 2.77790E+01 0.00000E+00
 -1       153 2.22844E+01 2.91138E+01 0.00000E+00
 -1       154 2.31013E+01 3.03143E+01 0.00000E+00
 -1       155 2.41993E+01 3.13598E+01 0.00000E+00
 -1       156 2.54742E+01 3.21338E+01 0.00000E+00
 -1       157 2.69889E+01 3.26433E+01 0.00000E+00
 -1       158 2.98061E+01 3.26644E+01 0.00000E+00
 -1       159 3.11966E+01 3.22354E+01 0.00000E+00
 -1       160 3.23680E+01 3.15973E+01 0.00000E+00
 -1       161 3.33934E+01 3.07522E+01 0.00000E+00
 -1       162 3.42374E+01 2.97333E+01 0.00000E+00
 -1       163 3.48841E+01 2.85519E+01 0.00000E+00
 -1       164 3.53003E+01 2.72316E+01 0.00000E+00
 -1       165 2.59800E+00 4.55750E+01 0.00000E+00
 -1       166 2.59800E+00 4.26250E+01 0.00000E+00
 -1       167 2.59800E+00 3.96750E+01 0.00000E+00
 -1       168 2.59800E+00 3.67250E+01 0.00000E+00
 -1       169 2.59800E+00 3.38250E+01 0.00000E+00
 -1       170 2.59800E+00 3.08750E+01 0.00000E+00
 -1       171 2.59800E+00 2.79250E+01 0.00000E+00
 -1       172 2.59800E+00 2.49750E+01 0.00000E+00
 -1       173 2.59800E+00 2.20250E+01 0.00000E+00
 -1       174 2.59800E+00 1.90750E+01 0.00000E+00
 -1       175 2.59800E+00 1.61750E+01 0.00000E+00
 -1       176 2.59800E+00 1.32250E+01 0.00000E+00
 -1       177 2.59800E+00 1.02750E+01 0.00000E+00
 -1       178 2.59800E+00 7.32500E+00 0.00000E+00
 -1       179 2.59800E+00 4.37500E+00 0.00000E+00
 -1       180 2.87400E+00 2.18750E+00 0.00000E+00
 -1       181 4.65000E+00 4.74020E+01 0.00000E+00
 -1       182 7.65000E+00 4.74020E+01 0.00000E+00
 -1       183 1.06500E+01 4.74020E+01 0.00000E+00
 -1       184 1.36500E+01 4.74020E+01 0.00000E+00
 -1       185 1.66500E+01 4.74020E+01 0.00000E+00
 -1       186 1.96500E+01 4.74020E+01 0.00000E+00
 -1       187 2.26500E+01 4.74020E+01 0.00000E+00
 -1       188 2.56500E+01 4.74020E+01 0.00000E+00
 -1       189 2.86500E+01 4.74020E+01 0.00000E+00
 -1       190 3.16500E+01 4.74020E+01 0.00000E+00
 -1       191 3.46500E+01 4.74020E+01 0.00000E+00
 -1       192 3.76500E+01 4.74020E+01 0.00000E+00
 -1       193 4.06500E+01 4.74020E+01 0.00000E+00
 -1       194 4.36500E+01 4.74020E+01 0.00000E+00
 -1       195 4.66500E+01 4.74020E+01 0.00000E+00
 -1       196 4.96500E+01 4.74020E+01 0.00000E+00
 -1       197 5.26500E+01 4.74020E+01 0.00000E+00
 -1       198 5.56500E+01 4.74020E+01 0.00000E+00
 -1       199 5.86500E+01 4.74020E+01 0.00000E+00
 -1       200 6.16500E+01 4.74020E+01 0.00000E+00
 -1       201 6.46500E+01 4.74020E+01 0.00000E+00
 -1       202 6.76500E+01 4.74020E+01 0.00000E+00
 -1       203 7.06500E+01 4.74020E+01 0.00000E+00
 -1       204 7.36500E+01 4.74020E+01 0.00000E+00
 -1       205 7.66500E+01 4.74020E+01 0.00000E+00
 -1       206 7.96500E+01 4.74020E+01 0.00000E+00
 -1       207 8.26500E+01 4.74020E+01 0.00000E+00
 -1       208 8.56500E+01 4.74020E+01 0.00000E+00
 -1       209 8.86500E+01 4.74020E+01 0.00000E+00
 -1       210 9.16500E+01 4.74020E+01 0.00000E+00
 -1       211 9.46500E+01 4.74020E+01 0.00000E+00
 -1       212 9.76500E+01 4.74020E+01 0.00000E+00
 -1       213 1.00650E+02 4.74020E+01 0.00000E+00
 -1       214 1.03650E+02 4.74020E+01 0.00000E+00
 -1       215 1.06650E+02 4.74020E+01 0.00000E+00
 -1       216 1.09650E+02 4.74020E+01 0.00000E+00
 -1       217 1.12650E+02 4.74020E+01 0.00000E+00
 -1       218 1.15650E+02 4.74020E+01 0.00000E+00
 -1       219 1.18650E+02 4.74020E+01 0.00000E+00
 -1       220 1.21650E+02 4.74020E+01 0.00000E+00
 -1       221 1.24650E+02 4.74020E+01 0.00000E+00
 -1       222 1.27650E+02 4.74020E+01 0.00000E+00
 -1       223 1.30650E+02 4.74020E+01 0.00000E+00
 -1       224 1.33650E+02 4.74020E+01 0.00000E+00
 -1       225 1.36650E+02 4.74020E+01 0.00000E+00
 -1       226 1.39650E+02 4.74020E+01 0.00000E+00
 -1       227 1.42650E+02 4.74020E+01 0.00000E+00
 -1       228 1.45650E+02 4.74020E+01 0.00000E+00
 -1       229 5.87400E+00 2.18750E+00 0.00000E+00
 -1       230 8.87400E+00 2.18750E+00 0.00000E+00
 -1       231 1.18740E+01 2.18750E+00 0.00000E+00
 -1       232 1.48740E+01 2.18750E+00 0.00000E+00
 -1       233 1.78740E+01 2.18750E+00 0.00000E+00
 -1       234 2.08740E+01 2.18750E+00 0.00000E+00
 -1       235 2.38740E+01 2.18750E+00 0.00000E+00
 -1       236 2.68740E+01 2.18750E+00 0.00000E+00
 -1       237 2.98740E+01 2.18750E+00 0.00000E+00
 -1       238 3.28740E+01 2.18750E+00 0.00000E+00
 -1       239 3.58740E+01 2.18750E+00 0.00000E+00
 -1       240 3.88740E+01 2.18750E+00 0.00000E+00
 -1       241 4.18740E+01 2.18750E+00 0.00000E+00
 -1       242 4.48740E+01 2.18750E+00 0.00000E+00
 -1       243 4.78740E+01 2.18750E+00 0.00000E+00
 -1       244 5.08740E+01 2.18750E+00 0.00000E+00
 -1       245 5.38740E+01 2.18750E+00 0.00000E+00
 -1       246 5.68740E+01 2.18750E+00 0.00000E+00
 -1       247 5.98740E+01 2.18750E+00 0.00000E+00
 -1       248 6.28740E+01 2.18750E+00 0.00000E+00
 -1       249 6.58740E+01 2.18750E+00 0.00000E+00
 -1       250 6.88740E+01 2.18750E+00 0.00000E+00
 -1       251 7.18740E+01 2.18750E+00 0.00000E+00
 -1       252 7.48740E+01 2.18750E+00 0.00000E+00
 -1       253 7.78740E+01 2.18750E+00 0.00000E+00
 -1       254 8.08740E+01 2.18750E+00 0.00000E+00
 -1       255 8.38740E+01 2.18750E+00 0.00000E+00
 -1       256 8.68740E+01 2.18750E+00 0.00000E+00
 -1       257 8.98740E+01 2.18750E+00 0.00000E+00
 -1       258 9.28740E+01 2.18750E+00 0.00000E+00
 -1       259 9.58740E+01 2.18750E+00 0.00000E+00
 -1       260 9.88740E+01 2.18750E+00 0.00000E+00
 -1       261 1.01874E+02 2.18750E+00 0.00000E+00
 -1       262 1.04874E+02 2.18750E+00 0.00000E+00
 -1       263 1.07874E+02 2.18750E+00 0.00000E+00
 -1       264 1.10874E+02 2.18750E+00 0.00000E+00
 -1       265 1.13874E+02 2.18750E+00 0.00000E+00
 -1       266 1.16874E+02 2.18750E+00 0.00000E+00
 -1       267 1.19874E+02 2.18750E+00 0.00000E+00
 -1       268 1.22874E+02 2.18750E+00 0.00000E+00
 -1       269 1.25874E+02 2.18750E+00 0.00000E+00
 -1       270 1.28874E+02 2.18750E+00 0.00000E+00
 -1       271 1.31874E+02 2.18750E+00 0.00000E+00
 -1       272 1.34874E+02 2.18750E+00 0.00000E+00
 -1       273 1.37874E+02 2.18750E+00 0.00000E+00
 -1       274 1.40874E+02 2.18750E+00 0.00000E+00
 -1       275 1.43874E+02 2.18750E+00 0.00000E+00
 -1       276 1.46874E+02 2.18750E+00 0.00000E+00
 -1       277 1.47402E+02 4.42500E+00 0.00000E+00
 -1       278 1.47402E+02 7.37500E+00 0.00000E+00
 -1       279 1.47402E+02 1.03250E+01 0.00000E+00
 -1       280 1.47402E+02 1.32750E+01 0.00000E+00
 -1       281 1.47402E+02 1.61750E+01 0.00000E+00
 -1       282 1.47402E+02 1.91250E+01 0.00000E+00
 -1       283 1.47402E+02 2.20750E+01 0.00000E+00
 -1       284 1.47402E+02 2.50250E+01 0.00000E+00
 -1       285 1.47402E+02 2.79750E+01 0.00000E+00
 -1       286 1.47402E+02 3.09250E+01 0.00000E+00
 -1       287 1.47402E+02 3.38250E+01 0.00000E+00
 -1       288 1.47402E+02 3.67750E+01 0.00000E+00
 -1       289 1.47402E+02 3.97250E+01 0.00000E+00
 -1       290 1.47402E+02 4.26750E+01 0.00000E+00
 -1       291 1.46526E+02 4.50385E+01 0.00000E+00
 -1       292 3.65858E+01 2.49829E+01 0.00000E+00
 -1       293 3.63302E+01 2.33302E+01 0.00000E+00
 -1       294 3.55895E+01 2.18144E+01 0.00000E+00
 -1       295 3.47192E+01 2.01870E+01 0.00000E+00
 -1       296 3.32294E+01 1.90633E+01 0.00000E+00
 -1       297 3.16632E+01 1.82852E+01 0.00000E+00
 -1       298 2.99822E+01 1.77697E+01 0.00000E+00
 -1       299 2.82327E+01 1.75450E+01 0.00000E+00
 -1       300 2.63810E+01 1.76366E+01 0.00000E+00
 -1       301 2.46820E+01 1.83563E+01 0.00000E+00
 -1       302 2.30152E+01 1.92625E+01 0.00000E+00
 -1       303 2.19780E+01 2.07988E+01 0.00000E+00
 -1       304 2.11140E+01 2.21793E+01 0.00000E+00
 -1       305 2.05335E+01 2.37710E+01 0.00000E+00
 -1       306 2.02807E+01 2.55061E+01 0.00000E+00
 -1       307 2.03250E+01 2.72632E+01 0.00000E+00
 -1       308 2.08886E+01 2.89076E+01 0.00000E+00
 -1       309 2.16905E+01 3.03961E+01 0.00000E+00
 -1       310 2.26988E+01 3.18365E+01 0.00000E+00
 -1       311 2.42076E+01 3.27831E+01 0.00000E+00
 -1       312 2.57648E+01 3.37759E+01 0.00000E+00
 -1       313 2.75832E+01 3.40093E+01 0.00000E+00
 -1       314 2.92458E+01 3.39375E+01 0.00000E+00
 -1       315 3.09082E+01 3.37686E+01 0.00000E+00
 -1       316 3.23623E+01 3.29810E+01 0.00000E+00
 -1       317 3.36518E+01 3.21103E+01 0.00000E+00
 -1       318 3.47491E+01 3.10162E+01 0.00000E+00
 -1       319 3.56243E+01 2.97247E+01 0.00000E+00
 -1       320 3.63284E+01 2.82815E+01 0.00000E+00
 -1       321 3.67472E+01 2.66566E+01 0.00000E+00
 -1       322 5.19600E+00 4.11500E+01 0.00000E+00
 -1       323 5.19600E+00 4.41000E+01 0.00000E+00
 -1       324 5.19600E+00 3.52750E+01 0.00000E+00
 -1       325 5.19600E+00 3.23250E+01 0.00000E+00
 -1       326 5.19600E+00 2.93750E+01 0.00000E+00
 -1       327 5.19600E+00 2.64250E+01 0.00000E+00
 -1       328 5.19600E+00 2.34750E+01 0.00000E+00
 -1       329 5.19600E+00 2.05250E+01 0.00000E+00
 -1       330 5.19600E+00 1.76250E+01 0.00000E+00
 -1       331 5.19600E+00 1.46750E+01 0.00000E+00
 -1       332 5.19600E+00 1.17250E+01 0.00000E+00
 -1       333 5.19600E+00 8.77500E+00 0.00000E+00
 -1       334 5.19600E+00 5.82500E+00 0.00000E+00
 -1       335 5.53500E+00 4.00625E+00 0.00000E+00
 -1       336 8.53500E+00 4.00625E+00 0.00000E+00
 -1       337 9.15000E+00 4.48040E+01 0.00000E+00
 -1       338 1.21500E+01 4.48040E+01 0.00000E+00
 -1       339 1.51500E+01 4.48040E+01 0.00000E+00
 -1       340 1.81500E+01 4.48040E+01 0.00000E+00
 -1       341 2.11500E+01 4.48040E+01 0.00000E+00
 -1       342 2.41500E+01 4.48040E+01 0.00000E+00
 -1       343 2.71500E+01 4.48040E+01 0.00000E+00
 -1       344 3.01500E+01 4.48040E+01 0.00000E+00
 -1       345 3.31500E+01 4.48040E+01 0.00000E+00
 -1       346 3.61500E+01 4.48040E+01 0.00000E+00
 -1       347 3.91500E+01 4.48040E+01 0.00000E+00
 -1       348 4.21500E+01 4.48040E+01 0.00000E+00
 -1       349 4.51500E+01 4.48040E+01 0.00000E+00
 -1       350 4.81500E+01 4.48040E+01 0.00000E+00
 -1       351 5.11500E+01 4.48040E+01 0.00000E+00
 -1       352 5.41500E+01 4.48040E+01 0.00000E+00
 -1       353 5.71500E+01 4.48040E+01 0.00000E+00
 -1       354 6.01500E+01 4.48040E+01 0.00000E+00
 -1       355 6.31500E+01 4.48040E+01 0.00000E+00
 -1       356 6.61500E+01 4.48040E+01 0.00000E+00
 -1       357 6.91500E+01 4.48040E+01 0.00000E+00
 -1       358 7.21500E+01 4.48040E+01 0.00000E+00
 -1       359 7.51500E+01 4.48040E+01 0.00000E+00
 -1       360 7.81500E+01 4.48040E+01 0.00000E+00
 -1       361 8.11500E+01 4.48040E+01 0.00000E+00
 -1       362 8.41500E+01 4.48040E+01 0.00000E+00
 -1       363 8.71500E+01 4.48040E+01 0.00000E+00
 -1       364 9.01500E+01 4.48040E+01 0.00000E+00
 -1       365 9.31500E+01 4.48040E+01 0.00000E+00
 -1       366 9.61500E+01 4.48040E+01 0.00000E+00
 -1       367 9.91500E+01 4.48040E+01 0.00000E+00
 -1       368 1.02150E+02 4.48040E+01 0.00000E+00
 -1       369 1.05150E+02 4.48040E+01 0.00000E+00
 -1       370 1.08150E+02 4.48040E+01 0.00000E+00
 -1       371 1.11150E+02 4.48040E+01 0.00000E+00
 -1       372 1.14150E+02 4.48040E+01 0.00000E+00
 -1       373 1.17150E+02 4.48040E+01 0.00000E+00
 -1       374 1.20150E+02 4.48040E+01 0.00000E+00
 -1       375 1.23150E+02 4.48040E+01 0.00000E+00
 -1       376 1.26150E+02 4.48040E+01 0.00000E+00
 -1       377 1.29150E+02 4.48040E+01 0.00000E+00
 -1       378 1.32150E+02 4.48040E+01 0.00000E+00
 -1       379 1.35150E+02 4.48040E+01 0.00000E+00
 -1       380 1.38150E+02 4.48040E+01 0.00000E+00
 -1       381 1.41150E+02 4.48040E+01 0.00000E+00
 -1       382 1.43838E+02 4.49212E+01 0.00000E+00
 -1       383 1.15350E+01 4.00625E+00 0.00000E+00
 -1       384 1.45350E+01 4.00625E+00 0.00000E+00
 -1       385 1.75350E+01 4.00625E+00 0.00000E+00
 -1       386 2.05350E+01 4.00625E+00 0.00000E+00
 -1       387 2.35350E+01 4.00625E+00 0.00000E+00
 -1       388 2.65350E+01 4.00625E+00 0.00000E+00
 -1       389 2.95350E+01 4.00625E+00 0.00000E+00
 -1       390 3.25350E+01 4.00625E+00 0.00000E+00
 -1       391 3.55350E+01 4.00625E+00 0.00000E+00
 -1       392 3.85350E+01 4.00625E+00 0.00000E+00
 -1       393 4.15350E+01 4.00625E+00 0.00000E+00
 -1       394 4.45350E+01 4.00625E+00 0.00000E+00
 -1       395 4.75350E+01 4.00625E+00 0.00000E+00
 -1       396 5.05350E+01 4.00625E+00 0.00000E+00
 -1       397 5.35350E+01 4.00625E+00 0.00000E+00
 -1       398 5.65350E+01 4.00625E+00 0.00000E+00
 -1       399 5.95350E+01 4.00625E+00 0.00000E+00
 -1       400 6.25350E+01 4.00625E+00 0.00000E+00
 -1       401 6.55350E+01 4.00625E+00 0.00000E+00
 -1       402 6.85350E+01 4.00625E+00 0.00000E+00
 -1       403 7.15350E+01 4.00625E+00 0.00000E+00
 -1       404 7.45350E+01 4.00625E+00 0.00000E+00
 -1       405 7.75350E+01 4.00625E+00 0.00000E+00
 -1       406 8.05350E+01 4.00625E+00 0.00000E+00
 -1       407 8.35350E+01 4.00625E+00 0.00000E+00
 -1       408 8.65350E+01 4.00625E+00 0.00000E+00
 -1       409 8.95350E+01 4.00625E+00 0.00000E+00
 -1       410 9.25350E+01 4.00625E+00 0.00000E+00
 -1       411 9.55350E+01 4.00625E+00 0.00000E+00
 -1       412 9.85350E+01 4.00625E+00 0.00000E+00
 -1       413 1.01535E+02 4.00625E+00 0.00000E+00
 -1       414 1.04535E+02 4.00625E+00 0.00000E+00
 -1       415 1.07535E+02 4.00625E+00 0.00000E+00
 -1       416 1.10535E+02 4.00625E+00 0.00000E+00
 -1       417 1.13535E+02 4.00625E+00 0.00000E+00
 -1       418 1.16535E+02 4.00625E+00 0.00000E+00
 -1       419 1.19535E+02 4.00625E+00 0.00000E+00
 -1       420 1.22535E+02 4.00625E+00 0.00000E+00
 -1       421 1.25535E+02 4.00625E+00 0.00000E+00
 -1       422 1.28535E+02 4.00625E+00 0.00000E+00
 -1       423 1.31535E+02 4.00625E+00 0.00000E+00
 -1       424 1.34535E+02 4.00625E+00 0.00000E+00
 -1       425 1.37535E+02 4.00625E+00 0.00000E+00
 -1       426 1.40535E+02 4.00625E+00 0.00000E+00
 -1       427 1.43535E+02 4.00625E+00 0.00000E+00
 -1       428 1.45469E+02 4.21562E+00 0.00000E+00
 -1       429 1.44804E+02 1.18000E+01 0.00000E+00
 -1       430 1.44804E+02 8.85000E+00 0.00000E+00
 -1       431 1.45136E+02 6.53281E+00 0.00000E+00
 -1       432 1.44804E+02 1.47000E+01 0.00000E+00
 -1       433 1.44804E+02 1.76500E+01 0.00000E+00
 -1       434 1.44804E+02 2.06000E+01 0.00000E+00
 -1       435 1.44804E+02 2.35500E+01 0.00000E+00
 -1       436 1.44804E+02 2.65000E+01 0.00000E+00
 -1       437 1.44804E+02 2.94500E+01 0.00000E+00
 -1       438 1.44804E+02 3.23500E+01 0.00000E+00
 -1       439 1.44804E+02 3.53000E+01 0.00000E+00
 -1       440 1.44804E+02 3.82500E+01 0.00000E+00
 -1       441 1.44804E+02 4.12000E+01 0.00000E+00
 -1       442 3.75008E+01 2.18193E+01 0.00000E+00
 -1       443 3.82069E+01 2.56711E+01 0.00000E+00
 -1       444 3.79513E+01 2.40184E+01 0.00000E+00
 -1       445 3.66306E+01 2.01919E+01 0.00000E+00
 -1       446 3.49062E+01 1.83897E+01 0.00000E+00
 -1       447 5.19600E+00 3.82125E+01 0.00000E+00
 -1       448 3.13256E+01 1.63877E+01 0.00000E+00
 -1       449 2.92833E+01 1.62886E+01 0.00000E+00
 -1       450 2.72262E+01 1.59615E+01 0.00000E+00
 -1       451 2.50259E+01 1.68029E+01 0.00000E+00
 -1       452 2.31895E+01 1.75970E+01 0.00000E+00
 -1       453 2.14223E+01 1.93054E+01 0.00000E+00
 -1       454 2.04472E+01 2.08014E+01 0.00000E+00
 -1       455 1.94486E+01 2.24736E+01 0.00000E+00
 -1       456 1.87099E+01 2.43912E+01 0.00000E+00
 -1       457 1.88396E+01 2.64216E+01 0.00000E+00
 -1       458 1.93806E+01 2.85056E+01 0.00000E+00
 -1       459 2.00747E+01 3.03064E+01 0.00000E+00
 -1       460 2.09955E+01 3.19557E+01 0.00000E+00
 -1       461 2.25862E+01 3.36917E+01 0.00000E+00
 -1       462 2.41434E+01 3.46844E+01 0.00000E+00
 -1       463 2.64770E+01 3.54276E+01 0.00000E+00
 -1       464 2.84813E+01 3.55195E+01 0.00000E+00
 -1       465 3.01437E+01 3.53506E+01 0.00000E+00
 -1       466 3.23722E+01 3.47356E+01 0.00000E+00
 -1       467 3.36617E+01 3.38649E+01 0.00000E+00
 -1       468 3.51748E+01 3.25404E+01 0.00000E+00
 -1       469 3.64678E+01 3.12386E+01 0.00000E+00
 -1       470 3.71719E+01 2.97953E+01 0.00000E+00
 -1       471 3.80364E+01 2.78553E+01 0.00000E+00
 -1       472 3.30603E+01 1.74384E+01 0.00000E+00
 -1       473 2.15966E+01 1.76399E+01 0.00000E+00
 -1       474 1.00350E+01 6.60425E+00 0.00000E+00
 -1       475 7.79400E+00 3.08500E+01 0.00000E+00
 -1       476 7.79400E+00 3.38000E+01 0.00000E+00
 -1       477 7.79400E+00 2.49500E+01 0.00000E+00
 -1       478 7.79400E+00 2.20000E+01 0.00000E+00
 -1       479 7.79400E+00 1.91000E+01 0.00000E+00
 -1       480 7.79400E+00 1.61500E+01 0.00000E+00
 -1       481 7.79400E+00 1.32000E+01 0.00000E+00
 -1       482 7.79400E+00 1.02500E+01 0.00000E+00
 -1       483 1.30350E+01 6.60425E+00 0.00000E+00
 -1       484 1.06500E+01 4.22060E+01 0.00000E+00
 -1       485 2.56032E+01 1.50150E+01 0.00000E+00
 -1       486 1.36500E+01 4.22060E+01 0.00000E+00
 -1       487 1.66500E+01 4.22060E+01 0.00000E+00
 -1       488 1.96500E+01 4.22060E+01 0.00000E+00
 -1       489 2.26500E+01 4.22060E+01 0.00000E+00
 -1       490 2.56500E+01 4.22060E+01 0.00000E+00
 -1       491 2.86500E+01 4.22060E+01 0.00000E+00
 -1       492 3.16500E+01 4.22060E+01 0.00000E+00
 -1       493 3.46500E+01 4.22060E+01 0.00000E+00
 -1       494 3.76500E+01 4.22060E+01 0.00000E+00
 -1       495 4.06500E+01 4.22060E+01 0.00000E+00
 -1       496 4.36500E+01 4.22060E+01 0.00000E+00
 -1       497 4.66500E+01 4.22060E+01 0.00000E+00
 -1       498 4.96500E+01 4.22060E+01 0.00000E+00
 -1       499 5.26500E+01 4.22060E+01 0.00000E+00
 -1       500 5.56500E+01 4.22060E+01 0.00000E+00
 -1       501 5.86500E+01 4.22060E+01 0.00000E+00
 -1       502 6.16500E+01 4.22060E+01 0.00000E+00
 -1       503 6.46500E+01 4.22060E+01 0.00000E+00
 -1       504 6.76500E+01 4.22060E+01 0.00000E+00
 -1       505 7.06500E+01 4.22060E+01 0.00000E+00
 -1       506 7.36500E+01 4.22060E+01 0.00000E+00
 -1       507 7.66500E+01 4.22060E+01 0.00000E+00
 -1       508 7.96500E+01 4.22060E+01 0.00000E+00
 -1       509 8.26500E+01 4.22060E+01 0.00000E+00
 -1       510 8.56500E+01 4.22060E+01 0.00000E+00
 -1       511 8.86500E+01 4.22060E+01 0.00000E+00
 -1       512 9.16500E+01 4.22060E+01 0.00000E+00
 -1       513 9.46500E+01 4.22060E+01 0.00000E+00
 -1       514 9.76500E+01 4.22060E+01 0.00000E+00
 -1       515 1.00650E+02 4.22060E+01 0.00000E+00
 -1       516 1.03650E+02 4.22060E+01 0.00000E+00
 -1       517 1.06650E+02 4.22060E+01 0.00000E+00
 -1       518 1.09650E+02 4.22060E+01 0.00000E+00
 -1       519 1.12650E+02 4.22060E+01 0.00000E+00
 -1       520 1.15650E+02 4.22060E+01 0.00000E+00
 -1       521 1.18650E+02 4.22060E+01 0.00000E+00
 -1       522 1.21650E+02 4.22060E+01 0.00000E+00
 -1       523 1.24650E+02 4.22060E+01 0.00000E+00
 -1       524 1.27650E+02 4.22060E+01 0.00000E+00
 -1       525 1.30650E+02 4.22060E+01 0.00000E+00
 -1       526 1.33650E+02 4.22060E+01 0.00000E+00
 -1       527 1.36650E+02 4.22060E+01 0.00000E+00
 -1       528 1.39650E+02 4.22060E+01 0.00000E+00
 -1       529 1.90350E+01 6.60425E+00 0.00000E+00
 -1       530 2.20350E+01 6.60425E+00 0.00000E+00
 -1       531 2.50350E+01 6.60425E+00 0.00000E+00
 -1       532 2.80350E+01 6.60425E+00 0.00000E+00
 -1       533 3.10350E+01 6.60425E+00 0.00000E+00
 -1       534 3.40350E+01 6.60425E+00 0.00000E+00
 -1       535 3.70350E+01 6.60425E+00 0.00000E+00
 -1       536 4.00350E+01 6.60425E+00 0.00000E+00
 -1       537 4.30350E+01 6.60425E+00 0.00000E+00
 -1       538 4.60350E+01 6.60425E+00 0.00000E+00
 -1       539 4.90350E+01 6.60425E+00 0.00000E+00
 -1       540 5.20350E+01 6.60425E+00 0.00000E+00
 -1       541 5.50350E+01 6.60425E+00 0.00000E+00
 -1       542 5.80350E+01 6.60425E+00 0.00000E+00
 -1       543 6.10350E+01 6.60425E+00 0.00000E+00
 -1       544 6.40350E+01 6.60425E+00 0.00000E+00
 -1       545 6.70350E+01 6.60425E+00 0.00000E+00
 -1       546 7.00350E+01 6.60425E+00 0.00000E+00
 -1       547 7.30350E+01 6.60425E+00 0.00000E+00
 -1       548 7.60350E+01 6.60425E+00 0.00000E+00
 -1       549 7.90350E+01 6.60425E+00 0.00000E+00
 -1       550 8.20350E+01 6.60425E+00 0.00000E+00
 -1       551 8.50350E+01 6.60425E+00 0.00000E+00
 -1       552 8.80350E+01 6.60425E+00 0.00000E+00
 -1       553 9.10350E+01 6.60425E+00 0.00000E+00
 -1       554 9.40350E+01 6.60425E+00 0.00000E+00
 -1       555 9.70350E+01 6.60425E+00 0.00000E+00
 -1       556 1.00035E+02 6.60425E+00 0.00000E+00
 -1       557 1.03035E+02 6.60425E+00 0.00000E+00
 -1       558 1.06035E+02 6.60425E+00 0.00000E+00
 -1       559 1.09035E+02 6.60425E+00 0.00000E+00
 -1       560 1.12035E+02 6.60425E+00 0.00000E+00
 -1       561 1.15035E+02 6.60425E+00 0.00000E+00
 -1       562 1.18035E+02 6.60425E+00 0.00000E+00
 -1       563 1.21035E+02 6.60425E+00 0.00000E+00
 -1       564 1.24035E+02 6.60425E+00 0.00000E+00
 -1       565 1.27035E+02 6.60425E+00 0.00000E+00
 -1       566 1.30035E+02 6.60425E+00 0.00000E+00
 -1       567 1.33035E+02 6.60425E+00 0.00000E+00
 -1       568 1.36035E+02 6.60425E+00 0.00000E+00
 -1       569 1.39035E+02 6.60425E+00 0.00000E+00
 -1       570 1.42035E+02 6.60425E+00 0.00000E+00
 -1       571 1.42206E+02 1.61750E+01 0.00000E+00
 -1       572 1.42206E+02 1.91250E+01 0.00000E+00
 -1       573 1.42206E+02 1.03250E+01 0.00000E+00
 -1       574 1.42206E+02 1.32500E+01 0.00000E+00
 -1       575 3.85781E+01 2.01968E+01 0.00000E+00
 -1       576 1.42206E+02 2.20750E+01 0.00000E+00
 -1       577 1.42206E+02 2.50250E+01 0.00000E+00
 -1       578 1.42206E+02 2.79750E+01 0.00000E+00
 -1       579 1.42206E+02 3.08750E+01 0.00000E+00
 -1       580 1.42206E+02 3.38250E+01 0.00000E+00
 -1       581 1.42206E+02 3.67750E+01 0.00000E+00
 -1       582 1.42206E+02 3.97250E+01 0.00000E+00
 -1       583 3.71287E+01 1.79893E+01 0.00000E+00
 -1       584 1.60350E+01 6.60425E+00 0.00000E+00
 -1       585 3.97741E+01 2.45827E+01 0.00000E+00
 -1       586 3.98316E+01 2.68967E+01 0.00000E+00
 -1       587 7.92300E+00 4.16780E+01 0.00000E+00
 -1       588 3.55479E+01 3.44932E+01 0.00000E+00
 -1       589 2.46881E+01 3.70096E+01 0.00000E+00
 -1       590 2.05263E+01 3.39824E+01 0.00000E+00
 -1       591 7.79400E+00 2.79000E+01 0.00000E+00
 -1       592 2.84978E+01 1.45967E+01 0.00000E+00
 -1       593 2.74083E+01 3.70194E+01 0.00000E+00
 -1       594 3.30814E+01 1.54460E+01 0.00000E+00
 -1       595 3.05401E+01 1.46958E+01 0.00000E+00
 -1       596 2.34935E+01 1.57796E+01 0.00000E+00
 -1       597 1.97085E+01 1.92542E+01 0.00000E+00
 -1       598 1.86912E+01 2.08870E+01 0.00000E+00
 -1       599 1.71660E+01 2.26954E+01 0.00000E+00
 -1       600 1.70631E+01 2.55157E+01 0.00000E+00
 -1       601 1.75311E+01 2.78735E+01 0.00000E+00
 -1       602 1.81273E+01 3.00228E+01 0.00000E+00
 -1       603 1.91839E+01 3.18854E+01 0.00000E+00
 -1       604 2.24428E+01 3.56343E+01 0.00000E+00
 -1       605 3.68599E+01 3.29210E+01 0.00000E+00
 -1       606 2.95028E+01 3.73081E+01 0.00000E+00
 -1       607 3.17142E+01 3.66964E+01 0.00000E+00
 -1       608 3.42584E+01 3.53639E+01 0.00000E+00
 -1       609 3.83613E+01 3.12690E+01 0.00000E+00
 -1       610 3.49274E+01 1.63973E+01 0.00000E+00
 -1       611 3.92257E+01 2.93289E+01 0.00000E+00
 -1       612 7.61550E+00 6.21462E+00 0.00000E+00
 -1       613 3.93236E+01 2.23835E+01 0.00000E+00
 -1       614 7.79400E+00 3.67375E+01 0.00000E+00
 -1       615 3.36004E+01 3.73247E+01 0.00000E+00
 -1       616 2.68748E+01 1.36503E+01 0.00000E+00
 -1       617 1.41678E+02 4.22645E+01 0.00000E+00
 -1       618 1.98828E+01 1.75887E+01 0.00000E+00
 -1       619 2.19006E+01 1.58224E+01 0.00000E+00
 -1       620 1.03920E+01 2.05500E+01 0.00000E+00
 -1       621 1.03920E+01 2.35000E+01 0.00000E+00
 -1       622 1.03920E+01 1.46750E+01 0.00000E+00
 -1       623 1.03920E+01 1.17250E+01 0.00000E+00
 -1       624 1.15350E+01 9.20225E+00 0.00000E+00
 -1       625 1.60150E+01 2.94514E+01 0.00000E+00
 -1       626 1.45350E+01 9.20225E+00 0.00000E+00
 -1       627 3.59567E+01 3.64889E+01 0.00000E+00
 -1       628 1.51500E+01 3.96080E+01 0.00000E+00
 -1       629 1.81500E+01 3.96080E+01 0.00000E+00
 -1       630 2.11500E+01 3.96080E+01 0.00000E+00
 -1       631 2.71500E+01 3.96080E+01 0.00000E+00
 -1       632 3.91500E+01 3.96080E+01 0.00000E+00
 -1       633 4.21500E+01 3.96080E+01 0.00000E+00
 -1       634 4.51500E+01 3.96080E+01 0.00000E+00
 -1       635 4.81500E+01 3.96080E+01 0.00000E+00
 -1       636 5.11500E+01 3.96080E+01 0.00000E+00
 -1       637 5.41500E+01 3.96080E+01 0.00000E+00
 -1       638 5.71500E+01 3.96080E+01 0.00000E+00
 -1       639 6.01500E+01 3.96080E+01 0.00000E+00
 -1       640 6.31500E+01 3.96080E+01 0.00000E+00
 -1       641 6.61500E+01 3.96080E+01 0.00000E+00
 -1       642 6.91500E+01 3.96080E+01 0.00000E+00
 -1       643 7.21500E+01 3.96080E+01 0.00000E+00
 -1       644 7.51500E+01 3.96080E+01 0.00000E+00
 -1       645 7.81500E+01 3.96080E+01 0.00000E+00
 -1       646 8.11500E+01 3.96080E+01 0.00000E+00
 -1       647 8.41500E+01 3.96080E+01 0.00000E+00
 -1       648 8.71500E+01 3.96080E+01 0.00000E+00
 -1       649 9.01500E+01 3.96080E+01 0.00000E+00
 -1       650 9.31500E+01 3.96080E+01 0.00000E+00
 -1       651 9.61500E+01 3.96080E+01 0.00000E+00
 -1       652 9.91500E+01 3.96080E+01 0.00000E+00
 -1       653 1.02150E+02 3.96080E+01 0.00000E+00
 -1       654 1.05150E+02 3.96080E+01 0.00000E+00
 -1       655 1.08150E+02 3.96080E+01 0.00000E+00
 -1       656 1.11150E+02 3.96080E+01 0.00000E+00
 -1       657 1.14150E+02 3.96080E+01 0.00000E+00
 -1       658 1.17150E+02 3.96080E+01 0.00000E+00
 -1       659 1.20150E+02 3.96080E+01 0.00000E+00
 -1       660 1.23150E+02 3.96080E+01 0.00000E+00
 -1       661 1.26150E+02 3.96080E+01 0.00000E+00
 -1       662 1.29150E+02 3.96080E+01 0.00000E+00
 -1       663 1.32150E+02 3.96080E+01 0.00000E+00
 -1       664 1.35150E+02 3.96080E+01 0.00000E+00
 -1       665 1.38150E+02 3.96080E+01 0.00000E+00
 -1       666 2.35350E+01 9.20225E+00 0.00000E+00
 -1       667 3.71313E+01 1.56677E+01 0.00000E+00
 -1       668 2.05350E+01 9.20225E+00 0.00000E+00
 -1       669 2.95350E+01 9.20225E+00 0.00000E+00
 -1       670 3.25350E+01 9.20225E+00 0.00000E+00
 -1       671 3.55350E+01 9.20225E+00 0.00000E+00
 -1       672 3.85350E+01 9.20225E+00 0.00000E+00
 -1       673 4.15350E+01 9.20225E+00 0.00000E+00
 -1       674 4.45350E+01 9.20225E+00 0.00000E+00
 -1       675 4.75350E+01 9.20225E+00 0.00000E+00
 -1       676 5.05350E+01 9.20225E+00 0.00000E+00
 -1       677 5.35350E+01 9.20225E+00 0.00000E+00
 -1       678 5.65350E+01 9.20225E+00 0.00000E+00
 -1       679 5.95350E+01 9.20225E+00 0.00000E+00
 -1       680 6.25350E+01 9.20225E+00 0.00000E+00
 -1       681 6.55350E+01 9.20225E+00 0.00000E+00
 -1       682 6.85350E+01 9.20225E+00 0.00000E+00
 -1       683 7.15350E+01 9.20225E+00 0.00000E+00
 -1       684 7.45350E+01 9.20225E+00 0.00000E+00
 -1       685 7.75350E+01 9.20225E+00 0.00000E+00
 -1       686 8.05350E+01 9.20225E+00 0.00000E+00
 -1       687 8.35350E+01 9.20225E+00 0.00000E+00
 -1       688 8.65350E+01 9.20225E+00 0.00000E+00
 -1       689 8.95350E+01 9.20225E+00 0.00000E+00
 -1       690 9.25350E+01 9.20225E+00 0.00000E+00
 -1       691 9.55350E+01 9.20225E+00 0.00000E+00
 -1       692 9.85350E+01 9.20225E+00 0.00000E+00
 -1       693 1.01535E+02 9.20225E+00 0.00000E+00
 -1       694 1.04535E+02 9.20225E+00 0.00000E+00
 -1       695 1.07535E+02 9.20225E+00 0.00000E+00
 -1       696 1.10535E+02 9.20225E+00 0.00000E+00
 -1       697 1.13535E+02 9.20225E+00 0.00000E+00
 -1       698 1.16535E+02 9.20225E+00 0.00000E+00
 -1       699 1.19535E+02 9.20225E+00 0.00000E+00
 -1       700 1.22535E+02 9.20225E+00 0.00000E+00
 -1       701 1.25535E+02 9.20225E+00 0.00000E+00
 -1       702 1.28535E+02 9.20225E+00 0.00000E+00
 -1       703 1.31535E+02 9.20225E+00 0.00000E+00
 -1       704 1.34535E+02 9.20225E+00 0.00000E+00
 -1       705 1.37535E+02 9.20225E+00 0.00000E+00
 -1       706 1.39870E+02 9.76363E+00 0.00000E+00
 -1       707 1.39608E+02 2.35500E+01 0.00000E+00
 -1       708 1.40178E+02 3.96665E+01 0.00000E+00
 -1       709 1.39608E+02 1.76500E+01 0.00000E+00
 -1       710 2.25821E+01 3.79274E+01 0.00000E+00
 -1       711 1.39608E+02 2.65000E+01 0.00000E+00
 -1       712 1.39608E+02 2.06000E+01 0.00000E+00
 -1       713 1.39608E+02 2.94000E+01 0.00000E+00
 -1       714 1.39608E+02 3.23500E+01 0.00000E+00
 -1       715 1.39608E+02 3.53000E+01 0.00000E+00
 -1       716 1.75350E+01 9.20225E+00 0.00000E+00
 -1       717 2.39069E+01 1.36273E+01 0.00000E+00
 -1       718 9.78035E+00 3.93914E+01 0.00000E+00
 -1       719 3.48669E+01 1.42482E+01 0.00000E+00
 -1       720 1.68723E+01 3.19657E+01 0.00000E+00
 -1       721 2.96183E+01 1.25984E+01 0.00000E+00
 -1       722 2.65350E+01 9.20225E+00 0.00000E+00
 -1       723 1.24652E+01 3.94997E+01 0.00000E+00
 -1       724 3.94272E+01 1.80597E+01 0.00000E+00
 -1       725 4.15174E+01 2.56971E+01 0.00000E+00
 -1       726 1.03920E+01 1.76125E+01 0.00000E+00
 -1       727 1.03920E+01 3.23250E+01 0.00000E+00
 -1       728 1.54006E+01 2.40430E+01 0.00000E+00
 -1       729 4.03601E+01 3.09970E+01 0.00000E+00
 -1       730 2.00366E+01 3.64882E+01 0.00000E+00
 -1       731 3.23913E+01 1.31046E+01 0.00000E+00
 -1       732 1.78153E+01 1.92080E+01 0.00000E+00
 -1       733 1.62901E+01 2.10164E+01 0.00000E+00
 -1       734 4.11929E+01 2.85273E+01 0.00000E+00
 -1       735 3.90038E+01 3.33612E+01 0.00000E+00
 -1       736 3.76919E+01 3.49335E+01 0.00000E+00
 -1       737 4.08914E+01 2.06286E+01 0.00000E+00
 -1       738 4.13932E+01 2.31053E+01 0.00000E+00
 -1       739 1.82147E+01 3.40627E+01 0.00000E+00
 -1       740 1.55470E+01 2.70936E+01 0.00000E+00
 -1       741 1.03920E+01 3.52625E+01 0.00000E+00
 -1       742 1.03920E+01 2.64500E+01 0.00000E+00
 -1       743 2.51785E+01 1.22625E+01 0.00000E+00
 -1       744 1.45246E+01 2.23640E+01 0.00000E+00
 -1       745 2.41160E+01 4.00667E+01 0.00000E+00
 -1       746 3.68033E+01 3.93474E+01 0.00000E+00
 -1       747 1.39608E+02 1.47250E+01 0.00000E+00
 -1       748 3.94298E+01 1.57382E+01 0.00000E+00
 -1       749 1.39739E+02 1.22443E+01 0.00000E+00
 -1       750 1.03920E+01 2.93875E+01 0.00000E+00
 -1       751 2.23140E+01 1.36701E+01 0.00000E+00
 -1       752 1.79896E+01 1.75425E+01 0.00000E+00
 -1       753 2.01868E+01 1.57712E+01 0.00000E+00
 -1       754 1.38879E+02 3.74540E+01 0.00000E+00
 -1       755 1.29900E+01 1.32000E+01 0.00000E+00
 -1       756 1.34259E+01 2.56666E+01 0.00000E+00
 -1       757 3.84209E+01 3.72707E+01 0.00000E+00
 -1       758 4.36500E+01 3.70100E+01 0.00000E+00
 -1       759 4.66500E+01 3.70100E+01 0.00000E+00
 -1       760 4.96500E+01 3.70100E+01 0.00000E+00
 -1       761 5.26500E+01 3.70100E+01 0.00000E+00
 -1       762 5.56500E+01 3.70100E+01 0.00000E+00
 -1       763 5.86500E+01 3.70100E+01 0.00000E+00
 -1       764 6.16500E+01 3.70100E+01 0.00000E+00
 -1       765 6.46500E+01 3.70100E+01 0.00000E+00
 -1       766 6.76500E+01 3.70100E+01 0.00000E+00
 -1       767 7.06500E+01 3.70100E+01 0.00000E+00
 -1       768 7.36500E+01 3.70100E+01 0.00000E+00
 -1       769 7.66500E+01 3.70100E+01 0.00000E+00
 -1       770 7.96500E+01 3.70100E+01 0.00000E+00
 -1       771 8.26500E+01 3.70100E+01 0.00000E+00
 -1       772 8.56500E+01 3.70100E+01 0.00000E+00
 -1       773 8.86500E+01 3.70100E+01 0.00000E+00
 -1       774 9.16500E+01 3.70100E+01 0.00000E+00
 -1       775 9.46500E+01 3.70100E+01 0.00000E+00
 -1       776 9.76500E+01 3.70100E+01 0.00000E+00
 -1       777 1.00650E+02 3.70100E+01 0.00000E+00
 -1       778 1.03650E+02 3.70100E+01 0.00000E+00
 -1       779 1.06650E+02 3.70100E+01 0.00000E+00
 -1       780 1.09650E+02 3.70100E+01 0.00000E+00
 -1       781 1.12650E+02 3.70100E+01 0.00000E+00
 -1       782 1.15650E+02 3.70100E+01 0.00000E+00
 -1       783 1.18650E+02 3.70100E+01 0.00000E+00
 -1       784 1.21650E+02 3.70100E+01 0.00000E+00
 -1       785 1.24650E+02 3.70100E+01 0.00000E+00
 -1       786 1.27650E+02 3.70100E+01 0.00000E+00
 -1       787 1.30650E+02 3.70100E+01 0.00000E+00
 -1       788 1.33650E+02 3.70100E+01 0.00000E+00
 -1       789 1.36264E+02 3.72320E+01 0.00000E+00
 -1       790 1.76203E+01 3.64061E+01 0.00000E+00
 -1       791 4.00350E+01 1.18003E+01 0.00000E+00
 -1       792 4.30350E+01 1.18003E+01 0.00000E+00
 -1       793 4.60350E+01 1.18003E+01 0.00000E+00
 -1       794 4.90350E+01 1.18003E+01 0.00000E+00
 -1       795 5.20350E+01 1.18003E+01 0.00000E+00
 -1       796 5.50350E+01 1.18003E+01 0.00000E+00
 -1       797 5.80350E+01 1.18003E+01 0.00000E+00
 -1       798 6.10350E+01 1.18003E+01 0.00000E+00
 -1       799 6.40350E+01 1.18003E+01 0.00000E+00
 -1       800 6.70350E+01 1.18003E+01 0.00000E+00
 -1       801 7.00350E+01 1.18003E+01 0.00000E+00
 -1       802 7.30350E+01 1.18003E+01 0.00000E+00
 -1       803 7.60350E+01 1.18003E+01 0.00000E+00
 -1       804 7.90350E+01 1.18003E+01 0.00000E+00
 -1       805 8.20350E+01 1.18003E+01 0.00000E+00
 -1       806 8.50350E+01 1.18003E+01 0.00000E+00
 -1       807 8.80350E+01 1.18003E+01 0.00000E+00
 -1       808 9.10350E+01 1.18003E+01 0.00000E+00
 -1       809 9.40350E+01 1.18003E+01 0.00000E+00
 -1       810 9.70350E+01 1.18003E+01 0.00000E+00
 -1       811 1.00035E+02 1.18003E+01 0.00000E+00
 -1       812 1.03035E+02 1.18003E+01 0.00000E+00
 -1       813 1.06035E+02 1.18003E+01 0.00000E+00
 -1       814 1.09035E+02 1.18003E+01 0.00000E+00
 -1       815 1.12035E+02 1.18003E+01 0.00000E+00
 -1       816 1.15035E+02 1.18003E+01 0.00000E+00
 -1       817 1.18035E+02 1.18003E+01 0.00000E+00
 -1       818 1.21035E+02 1.18003E+01 0.00000E+00
 -1       819 1.24035E+02 1.18003E+01 0.00000E+00
 -1       820 1.27035E+02 1.18003E+01 0.00000E+00
 -1       821 1.30035E+02 1.18003E+01 0.00000E+00
 -1       822 1.33035E+02 1.18003E+01 0.00000E+00
 -1       823 1.36035E+02 1.18003E+01 0.00000E+00
 -1       824 1.37887E+02 1.20223E+01 0.00000E+00
 -1       825 1.37010E+02 3.38250E+01 0.00000E+00
 -1       826 1.46617E+01 3.13161E+01 0.00000E+00
 -1       827 1.37010E+02 2.50250E+01 0.00000E+00
 -1       828 1.37010E+02 3.08750E+01 0.00000E+00
 -1       829 3.70350E+01 1.18003E+01 0.00000E+00
 -1       830 2.20350E+01 1.18003E+01 0.00000E+00
 -1       831 4.27193E+01 3.04173E+01 0.00000E+00
 -1       832 4.10355E+01 3.71404E+01 0.00000E+00
 -1       833 4.36445E+01 2.13600E+01 0.00000E+00
 -1       834 1.37010E+02 2.79500E+01 0.00000E+00
 -1       835 4.33358E+01 2.43111E+01 0.00000E+00
 -1       836 1.57416E+01 1.90064E+01 0.00000E+00
 -1       837 4.14604E+01 3.31994E+01 0.00000E+00
 -1       838 3.99406E+01 3.52351E+01 0.00000E+00
 -1       839 1.37625E+01 1.12011E+01 0.00000E+00
 -1       840 4.24164E+01 1.80576E+01 0.00000E+00
 -1       841 3.70881E+01 1.32208E+01 0.00000E+00
 -1       842 4.32256E+01 2.73267E+01 0.00000E+00
 -1       843 1.59579E+01 3.40293E+01 0.00000E+00
 -1       844 1.34413E+01 2.87369E+01 0.00000E+00
 -1       845 1.27774E+01 3.08563E+01 0.00000E+00
 -1       846 1.43639E+01 3.64476E+01 0.00000E+00
 -1       847 1.37010E+02 1.61875E+01 0.00000E+00
 -1       848 1.34171E+01 1.92727E+01 0.00000E+00
 -1       849 1.37010E+02 1.91375E+01 0.00000E+00
 -1       850 1.90350E+01 1.18003E+01 0.00000E+00
 -1       851 1.37010E+02 2.20812E+01 0.00000E+00
 -1       852 1.63988E+01 1.15007E+01 0.00000E+00
 -1       853 1.29900E+01 1.61375E+01 0.00000E+00
 -1       854 1.59159E+01 1.73409E+01 0.00000E+00
 -1       855 1.82935E+01 1.57250E+01 0.00000E+00
 -1       856 1.36637E+02 3.55285E+01 0.00000E+00
 -1       857 4.25166E+01 1.48460E+01 0.00000E+00
 -1       858 1.27475E+01 3.34792E+01 0.00000E+00
 -1       859 2.04678E+01 1.38113E+01 0.00000E+00
 -1       860 4.54233E+01 1.88190E+01 0.00000E+00
 -1       861 4.56960E+01 2.30662E+01 0.00000E+00
 -1       862 4.81500E+01 3.44120E+01 0.00000E+00
 -1       863 5.11500E+01 3.44120E+01 0.00000E+00
 -1       864 5.41500E+01 3.44120E+01 0.00000E+00
 -1       865 5.71500E+01 3.44120E+01 0.00000E+00
 -1       866 6.01500E+01 3.44120E+01 0.00000E+00
 -1       867 6.31500E+01 3.44120E+01 0.00000E+00
 -1       868 6.61500E+01 3.44120E+01 0.00000E+00
 -1       869 6.91500E+01 3.44120E+01 0.00000E+00
 -1       870 7.21500E+01 3.44120E+01 0.00000E+00
 -1       871 7.51500E+01 3.44120E+01 0.00000E+00
 -1       872 7.81500E+01 3.44120E+01 0.00000E+00
 -1       873 8.11500E+01 3.44120E+01 0.00000E+00
 -1       874 8.41500E+01 3.44120E+01 0.00000E+00
 -1       875 8.71500E+01 3.44120E+01 0.00000E+00
 -1       876 9.01500E+01 3.44120E+01 0.00000E+00
 -1       877 9.31500E+01 3.44120E+01 0.00000E+00
 -1       878 9.61500E+01 3.44120E+01 0.00000E+00
 -1       879 9.91500E+01 3.44120E+01 0.00000E+00
 -1       880 1.02150E+02 3.44120E+01 0.00000E+00
 -1       881 1.05150E+02 3.44120E+01 0.00000E+00
 -1       882 1.08150E+02 3.44120E+01 0.00000E+00
 -1       883 1.11150E+02 3.44120E+01 0.00000E+00
 -1       884 1.14150E+02 3.44120E+01 0.00000E+00
 -1       885 1.17150E+02 3.44120E+01 0.00000E+00
 -1       886 1.20150E+02 3.44120E+01 0.00000E+00
 -1       887 1.23150E+02 3.44120E+01 0.00000E+00
 -1       888 1.26150E+02 3.44120E+01 0.00000E+00
 -1       889 1.29150E+02 3.44120E+01 0.00000E+00
 -1       890 1.32150E+02 3.44120E+01 0.00000E+00
 -1       891 4.75350E+01 1.43982E+01 0.00000E+00
 -1       892 5.05350E+01 1.43982E+01 0.00000E+00
 -1       893 5.35350E+01 1.43982E+01 0.00000E+00
 -1       894 5.65350E+01 1.43982E+01 0.00000E+00
 -1       895 5.95350E+01 1.43982E+01 0.00000E+00
 -1       896 6.25350E+01 1.43982E+01 0.00000E+00
 -1       897 6.55350E+01 1.43982E+01 0.00000E+00
 -1       898 6.85350E+01 1.43982E+01 0.00000E+00
 -1       899 7.15350E+01 1.43982E+01 0.00000E+00
 -1       900 7.45350E+01 1.43982E+01 0.00000E+00
 -1       901 7.75350E+01 1.43982E+01 0.00000E+00
 -1       902 8.05350E+01 1.43982E+01 0.00000E+00
 -1       903 8.35350E+01 1.43982E+01 0.00000E+00
 -1       904 8.65350E+01 1.43982E+01 0.00000E+00
 -1       905 8.95350E+01 1.43982E+01 0.00000E+00
 -1       906 9.25350E+01 1.43982E+01 0.00000E+00
 -1       907 9.55350E+01 1.43982E+01 0.00000E+00
 -1       908 9.85350E+01 1.43982E+01 0.00000E+00
 -1       909 1.01535E+02 1.43982E+01 0.00000E+00
 -1       910 1.04535E+02 1.43982E+01 0.00000E+00
 -1       911 1.07535E+02 1.43982E+01 0.00000E+00
 -1       912 1.10535E+02 1.43982E+01 0.00000E+00
 -1       913 1.13535E+02 1.43982E+01 0.00000E+00
 -1       914 1.16535E+02 1.43982E+01 0.00000E+00
 -1       915 1.19535E+02 1.43982E+01 0.00000E+00
 -1       916 1.22535E+02 1.43982E+01 0.00000E+00
 -1       917 1.25535E+02 1.43982E+01 0.00000E+00
 -1       918 1.28535E+02 1.43982E+01 0.00000E+00
 -1       919 1.31535E+02 1.43982E+01 0.00000E+00
 -1       920 1.34535E+02 1.43982E+01 0.00000E+00
 -1       921 1.37449E+02 1.41049E+01 0.00000E+00
 -1       922 4.55857E+01 2.60818E+01 0.00000E+00
 -1       923 1.34412E+02 3.23500E+01 0.00000E+00
 -1       924 4.51500E+01 3.44120E+01 0.00000E+00
 -1       925 4.51611E+01 2.92305E+01 0.00000E+00
 -1       926 4.39577E+01 3.26536E+01 0.00000E+00
 -1       927 1.56263E+01 1.34996E+01 0.00000E+00
 -1       928 1.85746E+01 1.37651E+01 0.00000E+00
 -1       929 4.74748E+01 2.05252E+01 0.00000E+00
 -1       930 1.34394E+02 3.49702E+01 0.00000E+00
 -1       931 1.34535E+02 1.73482E+01 0.00000E+00
 -1       932 1.34412E+02 2.35531E+01 0.00000E+00
 -1       933 1.34412E+02 2.94250E+01 0.00000E+00
 -1       934 1.34412E+02 2.64781E+01 0.00000E+00
 -1       935 4.45576E+01 1.59198E+01 0.00000E+00
 -1       936 5.26500E+01 3.18140E+01 0.00000E+00
 -1       937 5.56500E+01 3.18140E+01 0.00000E+00
 -1       938 5.86500E+01 3.18140E+01 0.00000E+00
 -1       939 6.16500E+01 3.18140E+01 0.00000E+00
 -1       940 6.46500E+01 3.18140E+01 0.00000E+00
 -1       941 6.76500E+01 3.18140E+01 0.00000E+00
 -1       942 7.06500E+01 3.18140E+01 0.00000E+00
 -1       943 7.36500E+01 3.18140E+01 0.00000E+00
 -1       944 7.66500E+01 3.18140E+01 0.00000E+00
 -1       945 7.96500E+01 3.18140E+01 0.00000E+00
 -1       946 8.26500E+01 3.18140E+01 0.00000E+00
 -1       947 8.56500E+01 3.18140E+01 0.00000E+00
 -1       948 8.86500E+01 3.18140E+01 0.00000E+00
 -1       949 9.16500E+01 3.18140E+01 0.00000E+00
 -1       950 9.46500E+01 3.18140E+01 0.00000E+00
 -1       951 9.76500E+01 3.18140E+01 0.00000E+00
 -1       952 1.00650E+02 3.18140E+01 0.00000E+00
 -1       953 1.03650E+02 3.18140E+01 0.00000E+00
 -1       954 1.06650E+02 3.18140E+01 0.00000E+00
 -1       955 1.09650E+02 3.18140E+01 0.00000E+00
 -1       956 1.12650E+02 3.18140E+01 0.00000E+00
 -1       957 1.15650E+02 3.18140E+01 0.00000E+00
 -1       958 1.18650E+02 3.18140E+01 0.00000E+00
 -1       959 1.21650E+02 3.18140E+01 0.00000E+00
 -1       960 1.24650E+02 3.18140E+01 0.00000E+00
 -1       961 1.27650E+02 3.18140E+01 0.00000E+00
 -1       962 1.30650E+02 3.18140E+01 0.00000E+00
 -1       963 5.20350E+01 1.69963E+01 0.00000E+00
 -1       964 4.90350E+01 1.69963E+01 0.00000E+00
 -1       965 5.50350E+01 1.69963E+01 0.00000E+00
 -1       966 5.80350E+01 1.69963E+01 0.00000E+00
 -1       967 6.10350E+01 1.69963E+01 0.00000E+00
 -1       968 6.40350E+01 1.69963E+01 0.00000E+00
 -1       969 6.70350E+01 1.69963E+01 0.00000E+00
 -1       970 7.00350E+01 1.69963E+01 0.00000E+00
 -1       971 7.30350E+01 1.69963E+01 0.00000E+00
 -1       972 7.60350E+01 1.69963E+01 0.00000E+00
 -1       973 7.90350E+01 1.69963E+01 0.00000E+00
 -1       974 8.20350E+01 1.69963E+01 0.00000E+00
 -1       975 8.50350E+01 1.69963E+01 0.00000E+00
 -1       976 8.80350E+01 1.69963E+01 0.00000E+00
 -1       977 9.10350E+01 1.69963E+01 0.00000E+00
 -1       978 9.40350E+01 1.69963E+01 0.00000E+00
 -1       979 9.70350E+01 1.69963E+01 0.00000E+00
 -1       980 1.00035E+02 1.69963E+01 0.00000E+00
 -1       981 1.03035E+02 1.69963E+01 0.00000E+00
 -1       982 1.06035E+02 1.69963E+01 0.00000E+00
 -1       983 1.09035E+02 1.69963E+01 0.00000E+00
 -1       984 1.12035E+02 1.69963E+01 0.00000E+00
 -1       985 1.15035E+02 1.69963E+01 0.00000E+00
 -1       986 1.18035E+02 1.69963E+01 0.00000E+00
 -1       987 1.21035E+02 1.69963E+01 0.00000E+00
 -1       988 1.24035E+02 1.69963E+01 0.00000E+00
 -1       989 1.27035E+02 1.69963E+01 0.00000E+00
 -1       990 1.30035E+02 1.69963E+01 0.00000E+00
 -1       991 1.32285E+02 1.71723E+01 0.00000E+00
 -1       992 4.80246E+01 2.46611E+01 0.00000E+00
 -1       993 1.34412E+02 2.06094E+01 0.00000E+00
 -1       994 4.96500E+01 3.18140E+01 0.00000E+00
 -1       995 4.66517E+01 3.16776E+01 0.00000E+00
 -1       996 4.77374E+01 2.79749E+01 0.00000E+00
 -1       997 1.31814E+02 2.20812E+01 0.00000E+00
 -1       998 1.31814E+02 2.50063E+01 0.00000E+00
 -1       999 5.71500E+01 2.92160E+01 0.00000E+00
 -1      1000 6.01500E+01 2.92160E+01 0.00000E+00
 -1      1001 6.31500E+01 2.92160E+01 0.00000E+00
 -1      1002 6.61500E+01 2.92160E+01 0.00000E+00
 -1      1003 6.91500E+01 2.92160E+01 0.00000E+00
 -1      1004 7.21500E+01 2.92160E+01 0.00000E+00
 -1      1005 7.51500E+01 2.92160E+01 0.00000E+00
 -1      1006 7.81500E+01 2.92160E+01 0.00000E+00
 -1      1007 8.11500E+01 2.92160E+01 0.00000E+00
 -1      1008 8.41500E+01 2.92160E+01 0.00000E+00
 -1      1009 8.71500E+01 2.92160E+01 0.00000E+00
 -1      1010 9.01500E+01 2.92160E+01 0.00000E+00
 -1      1011 9.31500E+01 2.92160E+01 0.00000E+00
 -1      1012 9.61500E+01 2.92160E+01 0.00000E+00
 -1      1013 9.91500E+01 2.92160E+01 0.00000E+00
 -1      1014 1.02150E+02 2.92160E+01 0.00000E+00
 -1      1015 1.05150E+02 2.92160E+01 0.00000E+00
 -1      1016 1.08150E+02 2.92160E+01 0.00000E+00
 -1      1017 1.11150E+02 2.92160E+01 0.00000E+00
 -1      1018 1.14150E+02 2.92160E+01 0.00000E+00
 -1      1019 1.17150E+02 2.92160E+01 0.00000E+00
 -1      1020 1.20150E+02 2.92160E+01 0.00000E+00
 -1      1021 1.23150E+02 2.92160E+01 0.00000E+00
 -1      1022 1.26150E+02 2.92160E+01 0.00000E+00
 -1      1023 1.29150E+02 2.92160E+01 0.00000E+00
 -1      1024 5.04748E+01 2.05252E+01 0.00000E+00
 -1      1025 5.65350E+01 1.95942E+01 0.00000E+00
 -1      1026 5.95350E+01 1.95942E+01 0.00000E+00
 -1      1027 6.25350E+01 1.95942E+01 0.00000E+00
 -1      1028 6.55350E+01 1.95942E+01 0.00000E+00
 -1      1029 6.85350E+01 1.95942E+01 0.00000E+00
 -1      1030 7.15350E+01 1.95942E+01 0.00000E+00
 -1      1031 7.45350E+01 1.95942E+01 0.00000E+00
 -1      1032 7.75350E+01 1.95942E+01 0.00000E+00
 -1      1033 8.05350E+01 1.95942E+01 0.00000E+00
 -1      1034 8.35350E+01 1.95942E+01 0.00000E+00
 -1      1035 8.65350E+01 1.95942E+01 0.00000E+00
 -1      1036 8.95350E+01 1.95942E+01 0.00000E+00
 -1      1037 9.25350E+01 1.95942E+01 0.00000E+00
 -1      1038 9.55350E+01 1.95942E+01 0.00000E+00
 -1      1039 9.85350E+01 1.95942E+01 0.00000E+00
 -1      1040 1.01535E+02 1.95942E+01 0.00000E+00
 -1      1041 1.04535E+02 1.95942E+01 0.00000E+00
 -1      1042 1.07535E+02 1.95942E+01 0.00000E+00
 -1      1043 1.10535E+02 1.95942E+01 0.00000E+00
 -1      1044 1.13535E+02 1.95942E+01 0.00000E+00
 -1      1045 1.16535E+02 1.95942E+01 0.00000E+00
 -1      1046 1.19535E+02 1.95942E+01 0.00000E+00
 -1      1047 1.22535E+02 1.95942E+01 0.00000E+00
 -1      1048 1.25535E+02 1.95942E+01 0.00000E+00
 -1      1049 1.28535E+02 1.95942E+01 0.00000E+00
 -1      1050 5.41500E+01 2.92160E+01 0.00000E+00
 -1      1051 1.31781E+02 2.78471E+01 0.00000E+00
 -1      1052 5.35049E+01 2.00597E+01 0.00000E+00
 -1      1053 5.09437E+01 2.85955E+01 0.00000E+00
 -1      1054 5.12309E+01 2.52817E+01 0.00000E+00
 -1      1055 1.32049E+02 1.96268E+01 0.00000E+00
 -1      1056 1.29216E+02 2.35438E+01 0.00000E+00
 -1      1057 6.16500E+01 2.66180E+01 0.00000E+00
 -1      1058 6.46500E+01 2.66180E+01 0.00000E+00
 -1      1059 6.76500E+01 2.66180E+01 0.00000E+00
 -1      1060 7.06500E+01 2.66180E+01 0.00000E+00
 -1      1061 7.36500E+01 2.66180E+01 0.00000E+00
 -1      1062 7.66500E+01 2.66180E+01 0.00000E+00
 -1      1063 7.96500E+01 2.66180E+01 0.00000E+00
 -1      1064 8.26500E+01 2.66180E+01 0.00000E+00
 -1      1065 8.56500E+01 2.66180E+01 0.00000E+00
 -1      1066 8.86500E+01 2.66180E+01 0.00000E+00
 -1      1067 9.16500E+01 2.66180E+01 0.00000E+00
 -1      1068 9.46500E+01 2.66180E+01 0.00000E+00
 -1      1069 9.76500E+01 2.66180E+01 0.00000E+00
 -1      1070 1.00650E+02 2.66180E+01 0.00000E+00
 -1      1071 1.03650E+02 2.66180E+01 0.00000E+00
 -1      1072 1.06650E+02 2.66180E+01 0.00000E+00
 -1      1073 1.09650E+02 2.66180E+01 0.00000E+00
 -1      1074 1.12650E+02 2.66180E+01 0.00000E+00
 -1      1075 1.15650E+02 2.66180E+01 0.00000E+00
 -1      1076 1.18650E+02 2.66180E+01 0.00000E+00
 -1      1077 1.21650E+02 2.66180E+01 0.00000E+00
 -1      1078 1.24650E+02 2.66180E+01 0.00000E+00
 -1      1079 1.27650E+02 2.66180E+01 0.00000E+00
 -1      1080 6.10350E+01 2.21922E+01 0.00000E+00
 -1      1081 6.40350E+01 2.21922E+01 0.00000E+00
 -1      1082 6.70350E+01 2.21922E+01 0.00000E+00
 -1      1083 7.00350E+01 2.21922E+01 0.00000E+00
 -1      1084 7.30350E+01 2.21922E+01 0.00000E+00
 -1      1085 7.60350E+01 2.21922E+01 0.00000E+00
 -1      1086 7.90350E+01 2.21922E+01 0.00000E+00
 -1      1087 8.20350E+01 2.21922E+01 0.00000E+00
 -1      1088 8.50350E+01 2.21922E+01 0.00000E+00
 -1      1089 8.80350E+01 2.21922E+01 0.00000E+00
 -1      1090 9.10350E+01 2.21922E+01 0.00000E+00
 -1      1091 9.40350E+01 2.21922E+01 0.00000E+00
 -1      1092 9.70350E+01 2.21922E+01 0.00000E+00
 -1      1093 1.00035E+02 2.21922E+01 0.00000E+00
 -1      1094 1.03035E+02 2.21922E+01 0.00000E+00
 -1      1095 1.06035E+02 2.21922E+01 0.00000E+00
 -1      1096 1.09035E+02 2.21922E+01 0.00000E+00
 -1      1097 1.12035E+02 2.21922E+01 0.00000E+00
 -1      1098 1.15035E+02 2.21922E+01 0.00000E+00
 -1      1099 1.18035E+02 2.21922E+01 0.00000E+00
 -1      1100 1.21035E+02 2.21922E+01 0.00000E+00
 -1      1101 1.24035E+02 2.21922E+01 0.00000E+00
 -1      1102 1.26626E+02 2.28680E+01 0.00000E+00
 -1      1103 5.56500E+01 2.66180E+01 0.00000E+00
 -1      1104 5.34405E+01 2.59498E+01 0.00000E+00
 -1      1105 5.80350E+01 2.21922E+01 0.00000E+00
 -1      1106 5.86500E+01 2.66180E+01 0.00000E+00
 -1      1107 5.34186E+01 2.24956E+01 0.00000E+00
 -1      1108 0.00000E+00 4.85250E+01 0.00000E+00
 -1      1109 0.00000E+00 4.55750E+01 0.00000E+00
 -1      1110 0.00000E+00 4.26250E+01 0.00000E+00
 -1      1111 0.00000E+00 3.96750E+01 0.00000E+00
 -1      1112 0.00000E+00 3.67250E+01 0.00000E+00
 -1      1113 0.00000E+00 3.38000E+01 0.00000E+00
 -1      1114 0.00000E+00 3.08750E+01 0.00000E+00
 -1      1115 0.00000E+00 2.79250E+01 0.00000E+00
 -1      1116 0.00000E+00 2.49750E+01 0.00000E+00
 -1      1117 0.00000E+00 2.20250E+01 0.00000E+00
 -1      1118 0.00000E+00 1.90750E+01 0.00000E+00
 -1      1119 0.00000E+00 1.61500E+01 0.00000E+00
 -1      1120 0.00000E+00 1.32250E+01 0.00000E+00
 -1      1121 0.00000E+00 1.02750E+01 0.00000E+00
 -1      1122 0.00000E+00 7.32500E+00 0.00000E+00
 -1      1123 0.00000E+00 4.37500E+00 0.00000E+00
 -1      1124 0.00000E+00 1.45000E+00 0.00000E+00
 -1      1125 1.57500E+00 5.00000E+01 0.00000E+00
 -1      1126 4.65000E+00 5.00000E+01 0.00000E+00
 -1      1127 7.65000E+00 5.00000E+01 0.00000E+00
 -1      1128 1.06500E+01 5.00000E+01 0.00000E+00
 -1      1129 1.36500E+01 5.00000E+01 0.00000E+00
 -1      1130 1.66500E+01 5.00000E+01 0.00000E+00
 -1      1131 1.96500E+01 5.00000E+01 0.00000E+00
 -1      1132 2.26500E+01 5.00000E+01 0.00000E+00
 -1      1133 2.56500E+01 5.00000E+01 0.00000E+00
 -1      1134 2.86500E+01 5.00000E+01 0.00000E+00
 -1      1135 3.16500E+01 5.00000E+01 0.00000E+00
 -1      1136 3.46500E+01 5.00000E+01 0.00000E+00
 -1      1137 3.76500E+01 5.00000E+01 0.00000E+00
 -1      1138 4.06500E+01 5.00000E+01 0.00000E+00
 -1      1139 4.36500E+01 5.00000E+01 0.00000E+00
 -1      1140 4.66500E+01 5.00000E+01 0.00000E+00
 -1      1141 4.96500E+01 5.00000E+01 0.00000E+00
 -1      1142 5.26500E+01 5.00000E+01 0.00000E+00
 -1      1143 5.56500E+01 5.00000E+01 0.00000E+00
 -1      1144 5.86500E+01 5.00000E+01 0.00000E+00
 -1      1145 6.16500E+01 5.00000E+01 0.00000E+00
 -1      1146 6.46500E+01 5.00000E+01 0.00000E+00
 -1      1147 6.76500E+01 5.00000E+01 0.00000E+00
 -1      1148 7.06500E+01 5.00000E+01 0.00000E+00
 -1      1149 7.36500E+01 5.00000E+01 0.00000E+00
 -1      1150 7.66500E+01 5.00000E+01 0.00000E+00
 -1      1151 7.96500E+01 5.00000E+01 0.00000E+00
 -1      1152 8.26500E+01 5.00000E+01 0.00000E+00
 -1      1153 8.56500E+01 5.00000E+01 0.00000E+00
 -1      1154 8.86500E+01 5.00000E+01 0.00000E+00
 -1      1155 9.16500E+01 5.00000E+01 0.00000E+00
 -1      1156 9.46500E+01 5.00000E+01 0.00000E+00
 -1      1157 9.76500E+01 5.00000E+01 0.00000E+00
 -1      1158 1.00650E+02 5.00000E+01 0.00000E+00
 -1      1159 1.03650E+02 5.00000E+01 0.00000E+00
 -1      1160 1.06650E+02 5.00000E+01 0.00000E+00
 -1      1161 1.09650E+02 5.00000E+01 0.00000E+00
 -1      1162 1.12650E+02 5.00000E+01 0.00000E+00
 -1      1163 1.15650E+02 5.00000E+01 0.00000E+00
 -1      1164 1.18650E+02 5.00000E+01 0.00000E+00
 -1      1165 1.21650E+02 5.00000E+01 0.00000E+00
 -1      1166 1.24650E+02 5.00000E+01 0.00000E+00
 -1      1167 1.27650E+02 5.00000E+01 0.00000E+00
 -1      1168 1.30650E+02 5.00000E+01 0.00000E+00
 -1      1169 1.33650E+02 5.00000E+01 0.00000E+00
 -1      1170 1.36650E+02 5.00000E+01 0.00000E+00
 -1      1171 1.39650E+02 5.00000E+01 0.00000E+00
 -1      1172 1.42650E+02 5.00000E+01 0.00000E+00
 -1      1173 1.45650E+02 5.00000E+01 0.00000E+00
 -1      1174 1.48575E+02 5.00000E+01 0.00000E+00
 -1      1175 1.57500E+00 0.00000E+00 0.00000E+00
 -1      1176 4.65000E+00 0.00000E+00 0.00000E+00
 -1      1177 7.65000E+00 0.00000E+00 0.00000E+00
 -1      1178 1.06500E+01 0.00000E+00 0.00000E+00
 -1      1179 1.36500E+01 0.00000E+00 0.00000E+00
 -1      1180 1.66500E+01 0.00000E+00 0.00000E+00
 -1      1181 1.96500E+01 0.00000E+00 0.00000E+00
 -1      1182 2.26500E+01 0.00000E+00 0.00000E+00
 -1      1183 2.56500E+01 0.00000E+00 0.00000E+00
 -1      1184 2.86500E+01 0.00000E+00 0.00000E+00
 -1      1185 3.16500E+01 0.00000E+00 0.00000E+00
 -1      1186 3.46500E+01 0.00000E+00 0.00000E+00
 -1      1187 3.76500E+01 0.00000E+00 0.00000E+00
 -1      1188 4.06500E+01 0.00000E+00 0.00000E+00
 -1      1189 4.36500E+01 0.00000E+00 0.00000E+00
 -1      1190 4.66500E+01 0.00000E+00 0.00000E+00
 -1      1191 4.96500E+01 0.00000E+00 0.00000E+00
 -1      1192 5.26500E+01 0.00000E+00 0.00000E+00
 -1      1193 5.56500E+01 0.00000E+00 0.00000E+00
 -1      1194 5.86500E+01 0.00000E+00 0.00000E+00
 -1      1195 6.16500E+01 0.00000E+00 0.00000E+00
 -1      1196 6.46500E+01 0.00000E+00 0.00000E+00
 -1      1197 6.76500E+01 0.00000E+00 0.00000E+00
 -1      1198 7.06500E+01 0.00000E+00 0.00000E+00
 -1      1199 7.36500E+01 0.00000E+00 0.00000E+00
 -1      1200 7.66500E+01 0.00000E+00 0.00000E+00
 -1      1201 7.96500E+01 0.00000E+00 0.00000E+00
 -1      1202 8.26500E+01 0.00000E+00 0.00000E+00
 -1      1203 8.56500E+01 0.00000E+00 0.00000E+00
 -1      1204 8.86500E+01 0.00000E+00 0.00000E+00
 -1      1205 9.16500E+01 0.00000E+00 0.00000E+00
 -1      1206 9.46500E+01 0.00000E+00 0.00000E+00
 -1      1207 9.76500E+01 0.00000E+00 0.00000E+00
 -1      1208 1.00650E+02 0.00000E+00 0.00000E+00
 -1      1209 1.03650E+02 0.00000E+00 0.00000E+00
 -1      1210 1.06650E+02 0.00000E+00 0.00000E+00
 -1      1211 1.09650E+02 0.00000E+00 0.00000E+00
 -1      1212 1.12650E+02 0.00000E+00 0.00000E+00
 -1      1213 1.15650E+02 0.00000E+00 0.00000E+00
 -1      1214 1.18650E+02 0.00000E+00 0.00000E+00
 -1      1215 1.21650E+02 0.00000E+00 0.00000E+00
 -1      1216 1.24650E+02 0.00000E+00 0.00000E+00
 -1      1217 1.27650E+02 0.00000E+00 0.00000E+00
 -1      1218 1.30650E+02 0.00000E+00 0.00000E+00
 -1      1219 1.33650E+02 0.00000E+00 0.00000E+00
 -1      1220 1.36650E+02 0.00000E+00 0.00000E+00
 -1      1221 1.39650E+02 0.00000E+00 0.00000E+00
 -1      1222 1.42650E+02 0.00000E+00 0.00000E+00
 -1      1223 1.45650E+02 0.00000E+00 0.00000E+00
 -1      1224 1.48575E+02 0.00000E+00 0.00000E+00
 -1      1225 1.50000E+02 1.47500E+00 0.00000E+00
 -1      1226 1.50000E+02 4.42500E+00 0.00000E+00
 -1      1227 1.50000E+02 7.37500E+00 0.00000E+00
 -1      1228 1.50000E+02 1.03250E+01 0.00000E+00
 -1      1229 1.50000E+02 1.32750E+01 0.00000E+00
 -1      1230 1.50000E+02 1.62000E+01 0.00000E+00
 -1      1231 1.50000E+02 1.91250E+01 0.00000E+00
 -1      1232 1.50000E+02 2.20750E+01 0.00000E+00
 -1      1233 1.50000E+02 2.50250E+01 0.00000E+00
 -1      1234 1.50000E+02 2.79750E+01 0.00000E+00
 -1      1235 1.50000E+02 3.09250E+01 0.00000E+00
 -1      1236 1.50000E+02 3.38500E+01 0.00000E+00
 -1      1237 1.50000E+02 3.67750E+01 0.00000E+00
 -1      1238 1.50000E+02 3.97250E+01 0.00000E+00
 -1      1239 1.50000E+02 4.26750E+01 0.00000E+00
 -1      1240 1.50000E+02 4.56250E+01 0.00000E+00
 -1      1241 1.50000E+02 4.85500E+01 0.00000E+00
 -1      1242 3.54141E+01 2.51001E+01 0.00000E+00
 -1      1243 3.51292E+01 2.37061E+01 0.00000E+00
 -1      1244 3.45622E+01 2.23874E+01 0.00000E+00
 -1      1245 3.36656E+01 2.11297E+01 0.00000E+00
 -1      1246 3.25010E+01 2.00894E+01 0.00000E+00
 -1      1247 3.12026E+01 1.93617E+01 0.00000E+00
 -1      1248 2.97622E+01 1.89216E+01 0.00000E+00
 -1      1249 2.82655E+01 1.87997E+01 0.00000E+00
 -1      1250 2.67294E+01 1.90117E+01 0.00000E+00
 -1      1251 2.52873E+01 1.95519E+01 0.00000E+00
 -1      1252 2.39734E+01 2.04149E+01 0.00000E+00
 -1      1253 2.29091E+01 2.15181E+01 0.00000E+00
 -1      1254 2.21710E+01 2.27007E+01 0.00000E+00
 -1      1255 2.16675E+01 2.40613E+01 0.00000E+00
 -1      1256 2.14533E+01 2.55479E+01 0.00000E+00
 -1      1257 2.15601E+01 2.70403E+01 0.00000E+00
 -1      1258 2.19753E+01 2.84606E+01 0.00000E+00
 -1      1259 2.26616E+01 2.97353E+01 0.00000E+00
 -1      1260 2.36220E+01 3.08669E+01 0.00000E+00
 -1      1261 2.48161E+01 3.17808E+01 0.00000E+00
 -1      1262 2.62170E+01 3.24319E+01 0.00000E+00
 -1      1263 2.77150E+01 3.27587E+01 0.00000E+00
 -1      1264 2.91309E+01 3.27640E+01 0.00000E+00
 -1      1265 3.05125E+01 3.24862E+01 0.00000E+00
 -1      1266 3.17975E+01 3.19443E+01 0.00000E+00
 -1      1267 3.29008E+01 3.11991E+01 0.00000E+00
 -1      1268 3.38395E+01 3.02627E+01 0.00000E+00
 -1      1269 3.45892E+01 2.91582E+01 0.00000E+00
 -1      1270 3.51249E+01 2.79020E+01 0.00000E+00
 -1      1271 3.54116E+01 2.65183E+01 0.00000E+00
 -1      1272 1.57500E+00 4.85250E+01 0.00000E+00
 -1      1273 1.29900E+00 4.48375E+01 0.00000E+00
 -1      1274 1.29900E+00 4.63125E+01 0.00000E+00
 -1      1275 1.29900E+00 4.18875E+01 0.00000E+00
 -1      1276 1.29900E+00 4.33625E+01 0.00000E+00
 -1      1277 2.59800E+00 4.41000E+01 0.00000E+00
 -1      1278 1.29900E+00 3.89375E+01 0.00000E+00
 -1      1279 1.29900E+00 4.04125E+01 0.00000E+00
 -1      1280 2.59800E+00 4.11500E+01 0.00000E+00
 -1      1281 1.29900E+00 3.59875E+01 0.00000E+00
 -1      1282 1.29900E+00 3.74625E+01 0.00000E+00
 -1      1283 2.59800E+00 3.82000E+01 0.00000E+00
 -1      1284 1.29900E+00 3.30875E+01 0.00000E+00
 -1      1285 1.29900E+00 3.45375E+01 0.00000E+00
 -1      1286 2.59800E+00 3.52750E+01 0.00000E+00
 -1      1287 1.29900E+00 3.01375E+01 0.00000E+00
 -1      1288 1.29900E+00 3.16125E+01 0.00000E+00
 -1      1289 2.59800E+00 3.23500E+01 0.00000E+00
 -1      1290 1.29900E+00 2.71875E+01 0.00000E+00
 -1      1291 1.29900E+00 2.86625E+01 0.00000E+00
 -1      1292 2.59800E+00 2.94000E+01 0.00000E+00
 -1      1293 1.29900E+00 2.42375E+01 0.00000E+00
 -1      1294 1.29900E+00 2.57125E+01 0.00000E+00
 -1      1295 2.59800E+00 2.64500E+01 0.00000E+00
 -1      1296 1.29900E+00 2.12875E+01 0.00000E+00
 -1      1297 1.29900E+00 2.27625E+01 0.00000E+00
 -1      1298 2.59800E+00 2.35000E+01 0.00000E+00
 -1      1299 1.29900E+00 1.83375E+01 0.00000E+00
 -1      1300 1.29900E+00 1.98125E+01 0.00000E+00
 -1      1301 2.59800E+00 2.05500E+01 0.00000E+00
 -1      1302 1.29900E+00 1.54375E+01 0.00000E+00
 -1      1303 1.29900E+00 1.68875E+01 0.00000E+00
 -1      1304 2.59800E+00 1.76250E+01 0.00000E+00
 -1      1305 1.29900E+00 1.24875E+01 0.00000E+00
 -1      1306 1.29900E+00 1.39625E+01 0.00000E+00
 -1      1307 2.59800E+00 1.47000E+01 0.00000E+00
 -1      1308 1.29900E+00 9.53750E+00 0.00000E+00
 -1      1309 1.29900E+00 1.10125E+01 0.00000E+00
 -1      1310 2.59800E+00 1.17500E+01 0.00000E+00
 -1      1311 1.29900E+00 6.58750E+00 0.00000E+00
 -1      1312 1.29900E+00 8.06250E+00 0.00000E+00
 -1      1313 2.59800E+00 8.80000E+00 0.00000E+00
 -1      1314 1.29900E+00 3.63750E+00 0.00000E+00
 -1      1315 1.29900E+00 5.11250E+00 0.00000E+00
 -1      1316 2.59800E+00 5.85000E+00 0.00000E+00
 -1      1317 1.43700E+00 1.09375E+00 0.00000E+00
 -1      1318 1.43700E+00 2.54375E+00 0.00000E+00
 -1      1319 2.73600E+00 3.28125E+00 0.00000E+00
 -1      1320 3.01200E+00 1.09375E+00 0.00000E+00
 -1      1321 3.90000E+00 4.87010E+01 0.00000E+00
 -1      1322 5.40000E+00 4.87010E+01 0.00000E+00
 -1      1323 6.90000E+00 4.87010E+01 0.00000E+00
 -1      1324 8.40000E+00 4.87010E+01 0.00000E+00
 -1      1325 6.15000E+00 4.74020E+01 0.00000E+00
 -1      1326 9.90000E+00 4.87010E+01 0.00000E+00
 -1      1327 1.14000E+01 4.87010E+01 0.00000E+00
 -1      1328 9.15000E+00 4.74020E+01 0.00000E+00
 -1      1329 1.29000E+01 4.87010E+01 0.00000E+00
 -1      1330 1.44000E+01 4.87010E+01 0.00000E+00
 -1      1331 1.21500E+01 4.74020E+01 0.00000E+00
 -1      1332 1.59000E+01 4.87010E+01 0.00000E+00
 -1      1333 1.74000E+01 4.87010E+01 0.00000E+00
 -1      1334 1.51500E+01 4.74020E+01 0.00000E+00
 -1      1335 1.89000E+01 4.87010E+01 0.00000E+00
 -1      1336 2.04000E+01 4.87010E+01 0.00000E+00
 -1      1337 1.81500E+01 4.74020E+01 0.00000E+00
 -1      1338 2.19000E+01 4.87010E+01 0.00000E+00
 -1      1339 2.34000E+01 4.87010E+01 0.00000E+00
 -1      1340 2.11500E+01 4.74020E+01 0.00000E+00
 -1      1341 2.49000E+01 4.87010E+01 0.00000E+00
 -1      1342 2.64000E+01 4.87010E+01 0.00000E+00
 -1      1343 2.41500E+01 4.74020E+01 0.00000E+00
 -1      1344 2.79000E+01 4.87010E+01 0.00000E+00
 -1      1345 2.94000E+01 4.87010E+01 0.00000E+00
 -1      1346 2.71500E+01 4.74020E+01 0.00000E+00
 -1      1347 3.09000E+01 4.87010E+01 0.00000E+00
 -1      1348 3.24000E+01 4.87010E+01 0.00000E+00
 -1      1349 3.01500E+01 4.74020E+01 0.00000E+00
 -1      1350 3.39000E+01 4.87010E+01 0.00000E+00
 -1      1351 3.54000E+01 4.87010E+01 0.00000E+00
 -1      1352 3.31500E+01 4.74020E+01 0.00000E+00
 -1      1353 3.69000E+01 4.87010E+01 0.00000E+00
 -1      1354 3.84000E+01 4.87010E+01 0.00000E+00
 -1      1355 3.61500E+01 4.74020E+01 0.00000E+00
 -1      1356 3.99000E+01 4.87010E+01 0.00000E+00
 -1      1357 4.14000E+01 4.87010E+01 0.00000E+00
 -1      1358 3.91500E+01 4.74020E+01 0.00000E+00
 -1      1359 4.29000E+01 4.87010E+01 0.00000E+00
 -1      1360 4.44000E+01 4.87010E+01 0.00000E+00
 -1      1361 4.21500E+01 4.74020E+01 0.00000E+00
 -1      1362 4.59000E+01 4.87010E+01 0.00000E+00
 -1      1363 4.74000E+01 4.87010E+01 0.00000E+00
 -1      1364 4.51500E+01 4.74020E+01 0.00000E+00
 -1      1365 4.89000E+01 4.87010E+01 0.00000E+00
 -1      1366 5.04000E+01 4.87010E+01 0.00000E+00
 -1      1367 4.81500E+01 4.74020E+01 0.00000E+00
 -1      1368 5.19000E+01 4.87010E+01 0.00000E+00
 -1      1369 5.34000E+01 4.87010E+01 0.00000E+00
 -1      1370 5.11500E+01 4.74020E+01 0.00000E+00
 -1      1371 5.49000E+01 4.87010E+01 0.00000E+00
 -1      1372 5.64000E+01 4.87010E+01 0.00000E+00
 -1      1373 5.41500E+01 4.74020E+01 0.00000E+00
 -1      1374 5.79000E+01 4.87010E+01 0.00000E+00
 -1      1375 5.94000E+01 4.87010E+01 0.00000E+00
 -1      1376 5.71500E+01 4.74020E+01 0.00000E+00
 -1      1377 6.09000E+01 4.87010E+01 0.00000E+00
 -1      1378 6.24000E+01 4.87010E+01 0.00000E+00
 -1      1379 6.01500E+01 4.74020E+01 0.00000E+00
 -1      1380 6.39000E+01 4.87010E+01 0.00000E+00
 -1      1381 6.54000E+01 4.87010E+01 0.00000E+00
 -1      1382 6.31500E+01 4.74020E+01 0.00000E+00
 -1      1383 6.69000E+01 4.87010E+01 0.00000E+00
 -1      1384 6.84000E+01 4.87010E+01 0.00000E+00
 -1      1385 6.61500E+01 4.74020E+01 0.00000E+00
 -1      1386 6.99000E+01 4.87010E+01 0.00000E+00
 -1      1387 7.14000E+01 4.87010E+01 0.00000E+00
 -1      1388 6.91500E+01 4.74020E+01 0.00000E+00
 -1      1389 7.29000E+01 4.87010E+01 0.00000E+00
 -1      1390 7.44000E+01 4.87010E+01 0.00000E+00
 -1      1391 7.21500E+01 4.74020E+01 0.00000E+00
 -1      1392 7.59000E+01 4.87010E+01 0.00000E+00
 -1      1393 7.74000E+01 4.87010E+01 0.00000E+00
 -1      1394 7.51500E+01 4.74020E+01 0.00000E+00
 -1      1395 7.89000E+01 4.87010E+01 0.00000E+00
 -1      1396 8.04000E+01 4.87010E+01 0.00000E+00
 -1      1397 7.81500E+01 4.74020E+01 0.00000E+00
 -1      1398 8.19000E+01 4.87010E+01 0.00000E+00
 -1      1399 8.34000E+01 4.87010E+01 0.00000E+00
 -1      1400 8.11500E+01 4.74020E+01 0.00000E+00
 -1      1401 8.49000E+01 4.87010E+01 0.00000E+00
 -1      1402 8.64000E+01 4.87010E+01 0.00000E+00
 -1      1403 8.41500E+01 4.74020E+01 0.00000E+00
 -1      1404 8.79000E+01 4.87010E+01 0.00000E+00
 -1      1405 8.94000E+01 4.87010E+01 0.00000E+00
 -1      1406 8.71500E+01 4.74020E+01 0.00000E+00
 -1      1407 9.09000E+01 4.87010E+01 0.00000E+00
 -1      1408 9.24000E+01 4.87010E+01 0.00000E+00
 -1      1409 9.01500E+01 4.74020E+01 0.00000E+00
 -1      1410 9.39000E+01 4.87010E+01 0.00000E+00
 -1      1411 9.54000E+01 4.87010E+01 0.00000E+00
 -1      1412 9.31500E+01 4.74020E+01 0.00000E+00
 -1      1413 9.69000E+01 4.87010E+01 0.00000E+00
 -1      1414 9.84000E+01 4.87010E+01 0.00000E+00
 -1      1415 9.61500E+01 4.74020E+01 0.00000E+00
 -1      1416 9.99000E+01 4.87010E+01 0.00000E+00
 -1      1417 1.01400E+02 4.87010E+01 0.00000E+00
 -1      1418 9.91500E+01 4.74020E+01 0.00000E+00
 -1      1419 1.02900E+02 4.87010E+01 0.00000E+00
 -1      1420 1.04400E+02 4.87010E+01 0.00000E+00
 -1      1421 1.02150E+02 4.74020E+01 0.00000E+00
 -1      1422 1.05900E+02 4.87010E+01 0.00000E+00
 -1      1423 1.07400E+02 4.87010E+01 0.00000E+00
 -1      1424 1.05150E+02 4.74020E+01 0.00000E+00
 -1      1425 1.08900E+02 4.87010E+01 0.00000E+00
 -1      1426 1.10400E+02 4.87010E+01 0.00000E+00
 -1      1427 1.08150E+02 4.74020E+01 0.00000E+00
 -1      1428 1.11900E+02 4.87010E+01 0.00000E+00
 -1      1429 1.13400E+02 4.87010E+01 0.00000E+00
 -1      1430 1.11150E+02 4.74020E+01 0.00000E+00
 -1      1431 1.14900E+02 4.87010E+01 0.00000E+00
 -1      1432 1.16400E+02 4.87010E+01 0.00000E+00
 -1      1433 1.14150E+02 4.74020E+01 0.00000E+00
 -1      1434 1.17900E+02 4.87010E+01 0.00000E+00
 -1      1435 1.19400E+02 4.87010E+01 0.00000E+00
 -1      1436 1.17150E+02 4.74020E+01 0.00000E+00
 -1      1437 1.20900E+02 4.87010E+01 0.00000E+00
 -1      1438 1.22400E+02 4.87010E+01 0.00000E+00
 -1      1439 1.20150E+02 4.74020E+01 0.00000E+00
 -1      1440 1.23900E+02 4.87010E+01 0.00000E+00
 -1      1441 1.25400E+02 4.87010E+01 0.00000E+00
 -1      1442 1.23150E+02 4.74020E+01 0.00000E+00
 -1      1443 1.26900E+02 4.87010E+01 0.00000E+00
 -1      1444 1.28400E+02 4.87010E+01 0.00000E+00
 -1      1445 1.26150E+02 4.74020E+01 0.00000E+00
 -1      1446 1.29900E+02 4.87010E+01 0.00000E+00
 -1      1447 1.31400E+02 4.87010E+01 0.00000E+00
 -1      1448 1.29150E+02 4.74020E+01 0.00000E+00
 -1      1449 1.32900E+02 4.87010E+01 0.00000E+00
 -1      1450 1.34400E+02 4.87010E+01 0.00000E+00
 -1      1451 1.32150E+02 4.74020E+01 0.00000E+00
 -1      1452 1.35900E+02 4.87010E+01 0.00000E+00
 -1      1453 1.37400E+02 4.87010E+01 0.00000E+00
 -1      1454 1.35150E+02 4.74020E+01 0.00000E+00
 -1      1455 1.38900E+02 4.87010E+01 0.00000E+00
 -1      1456 1.40400E+02 4.87010E+01 0.00000E+00
 -1      1457 1.38150E+02 4.74020E+01 0.00000E+00
 -1      1458 1.41900E+02 4.87010E+01 0.00000E+00
 -1      1459 1.43400E+02 4.87010E+01 0.00000E+00
 -1      1460 1.41150E+02 4.74020E+01 0.00000E+00
 -1      1461 1.44900E+02 4.87010E+01 0.00000E+00
 -1      1462 1.46400E+02 4.87010E+01 0.00000E+00
 -1      1463 1.44150E+02 4.74020E+01 0.00000E+00
 -1      1464 1.48575E+02 4.85500E+01 0.00000E+00
 -1      1465 1.47825E+02 4.72510E+01 0.00000E+00
 -1      1466 6.01200E+00 1.09375E+00 0.00000E+00
 -1      1467 4.51200E+00 1.09375E+00 0.00000E+00
 -1      1468 4.37400E+00 2.18750E+00 0.00000E+00
 -1      1469 9.01200E+00 1.09375E+00 0.00000E+00
 -1      1470 7.51200E+00 1.09375E+00 0.00000E+00
 -1      1471 7.37400E+00 2.18750E+00 0.00000E+00
 -1      1472 1.20120E+01 1.09375E+00 0.00000E+00
 -1      1473 1.05120E+01 1.09375E+00 0.00000E+00
 -1      1474 1.03740E+01 2.18750E+00 0.00000E+00
 -1      1475 1.50120E+01 1.09375E+00 0.00000E+00
 -1      1476 1.35120E+01 1.09375E+00 0.00000E+00
 -1      1477 1.33740E+01 2.18750E+00 0.00000E+00
 -1      1478 1.80120E+01 1.09375E+00 0.00000E+00
 -1      1479 1.65120E+01 1.09375E+00 0.00000E+00
 -1      1480 1.63740E+01 2.18750E+00 0.00000E+00
 -1      1481 2.10120E+01 1.09375E+00 0.00000E+00
 -1      1482 1.95120E+01 1.09375E+00 0.00000E+00
 -1      1483 1.93740E+01 2.18750E+00 0.00000E+00
 -1      1484 2.40120E+01 1.09375E+00 0.00000E+00
 -1      1485 2.25120E+01 1.09375E+00 0.00000E+00
 -1      1486 2.23740E+01 2.18750E+00 0.00000E+00
 -1      1487 2.70120E+01 1.09375E+00 0.00000E+00
 -1      1488 2.55120E+01 1.09375E+00 0.00000E+00
 -1      1489 2.53740E+01 2.18750E+00 0.00000E+00
 -1      1490 3.00120E+01 1.09375E+00 0.00000E+00
 -1      1491 2.85120E+01 1.09375E+00 0.00000E+00
 -1      1492 2.83740E+01 2.18750E+00 0.00000E+00
 -1      1493 3.30120E+01 1.09375E+00 0.00000E+00
 -1      1494 3.15120E+01 1.09375E+00 0.00000E+00
 -1      1495 3.13740E+01 2.18750E+00 0.00000E+00
 -1      1496 3.60120E+01 1.09375E+00 0.00000E+00
 -1      1497 3.45120E+01 1.09375E+00 0.00000E+00
 -1      1498 3.43740E+01 2.18750E+00 0.00000E+00
 -1      1499 3.90120E+01 1.09375E+00 0.00000E+00
 -1      1500 3.75120E+01 1.09375E+00 0.00000E+00
 -1      1501 3.73740E+01 2.18750E+00 0.00000E+00
 -1      1502 4.20120E+01 1.09375E+00 0.00000E+00
 -1      1503 4.05120E+01 1.09375E+00 0.00000E+00
 -1      1504 4.03740E+01 2.18750E+00 0.00000E+00
 -1      1505 4.50120E+01 1.09375E+00 0.00000E+00
 -1      1506 4.35120E+01 1.09375E+00 0.00000E+00
 -1      1507 4.33740E+01 2.18750E+00 0.00000E+00
 -1      1508 4.80120E+01 1.09375E+00 0.00000E+00
 -1      1509 4.65120E+01 1.09375E+00 0.00000E+00
 -1      1510 4.63740E+01 2.18750E+00 0.00000E+00
 -1      1511 5.10120E+01 1.09375E+00 0.00000E+00
 -1      1512 4.95120E+01 1.09375E+00 0.00000E+00
 -1      1513 4.93740E+01 2.18750E+00 0.00000E+00
 -1      1514 5.40120E+01 1.09375E+00 0.00000E+00
 -1      1515 5.25120E+01 1.09375E+00 0.00000E+00
 -1      1516 5.23740E+01 2.18750E+00 0.00000E+00
 -1      1517 5.70120E+01 1.09375E+00 0.00000E+00
 -1      1518 5.55120E+01 1.09375E+00 0.00000E+00
 -1      1519 5.53740E+01 2.18750E+00 0.00000E+00
 -1      1520 6.00120E+01 1.09375E+00 0.00000E+00
 -1      1521 5.85120E+01 1.09375E+00 0.00000E+00
 -1      1522 5.83740E+01 2.18750E+00 0.00000E+00
 -1      1523 6.30120E+01 1.09375E+00 0.00000E+00
 -1      1524 6.15120E+01 1.09375E+00 0.00000E+00
 -1      1525 6.13740E+01 2.18750E+00 0.00000E+00
 -1      1526 6.60120E+01 1.09375E+00 0.00000E+00
 -1      1527 6.45120E+01 1.09375E+00 0.00000E+00
 -1      1528 6.43740E+01 2.18750E+00 0.00000E+00
 -1      1529 6.90120E+01 1.09375E+00 0.00000E+00
 -1      1530 6.75120E+01 1.09375E+00 0.00000E+00
 -1      1531 6.73740E+01 2.18750E+00 0.00000E+00
 -1      1532 7.20120E+01 1.09375E+00 0.00000E+00
 -1      1533 7.05120E+01 1.09375E+00 0.00000E+00
 -1      1534 7.03740E+01 2.18750E+00 0.00000E+00
 -1      1535 7.50120E+01 1.09375E+00 0.00000E+00
 -1      1536 7.35120E+01 1.09375E+00 0.00000E+00
 -1      1537 7.33740E+01 2.18750E+00 0.00000E+00
 -1      1538 7.80120E+01 1.09375E+00 0.00000E+00
 -1      1539 7.65120E+01 1.09375E+00 0.00000E+00
 -1      1540 7.63740E+01 2.18750E+00 0.00000E+00
 -1      1541 8.10120E+01 1.09375E+00 0.00000E+00
 -1      1542 7.95120E+01 1.09375E+00 0.00000E+00
 -1      1543 7.93740E+01 2.18750E+00 0.00000E+00
 -1      1544 8.40120E+01 1.09375E+00 0.00000E+00
 -1      1545 8.25120E+01 1.09375E+00 0.00000E+00
 -1      1546 8.23740E+01 2.18750E+00 0.00000E+00
 -1      1547 8.70120E+01 1.09375E+00 0.00000E+00
 -1      1548 8.55120E+01 1.09375E+00 0.00000E+00
 -1      1549 8.53740E+01 2.18750E+00 0.00000E+00
 -1      1550 9.00120E+01 1.09375E+00 0.00000E+00
 -1      1551 8.85120E+01 1.09375E+00 0.00000E+00
 -1      1552 8.83740E+01 2.18750E+00 0.00000E+00
 -1      1553 9.30120E+01 1.09375E+00 0.00000E+00
 -1      1554 9.15120E+01 1.09375E+00 0.00000E+00
 -1      1555 9.13740E+01 2.18750E+00 0.00000E+00
 -1      1556 9.60120E+01 1.09375E+00 0.00000E+00
 -1      1557 9.45120E+01 1.09375E+00 0.00000E+00
 -1      1558 9.43740E+01 2.18750E+00 0.00000E+00
 -1      1559 9.90120E+01 1.09375E+00 0.00000E+00
 -1      1560 9.75120E+01 1.09375E+00 0.00000E+00
 -1      1561 9.73740E+01 2.18750E+00 0.00000E+00
 -1      1562 1.02012E+02 1.09375E+00 0.00000E+00
 -1      1563 1.00512E+02 1.09375E+00 0.00000E+00
 -1      1564 1.00374E+02 2.18750E+00 0.00000E+00
 -1      1565 1.05012E+02 1.09375E+00 0.00000E+00
 -1      1566 1.03512E+02 1.09375E+00 0.00000E+00
 -1      1567 1.03374E+02 2.18750E+00 0.00000E+00
 -1      1568 1.08012E+02 1.09375E+00 0.00000E+00
 -1      1569 1.06512E+02 1.09375E+00 0.00000E+00
 -1      1570 1.06374E+02 2.18750E+00 0.00000E+00
 -1      1571 1.11012E+02 1.09375E+00 0.00000E+00
 -1      1572 1.09512E+02 1.09375E+00 0.00000E+00
 -1      1573 1.09374E+02 2.18750E+00 0.00000E+00
 -1      1574 1.14012E+02 1.09375E+00 0.00000E+00
 -1      1575 1.12512E+02 1.09375E+00 0.00000E+00
 -1      1576 1.12374E+02 2.18750E+00 0.00000E+00
 -1      1577 1.17012E+02 1.09375E+00 0.00000E+00
 -1      1578 1.15512E+02 1.09375E+00 0.00000E+00
 -1      1579 1.15374E+02 2.18750E+00 0.00000E+00
 -1      1580 1.20012E+02 1.09375E+00 0.00000E+00
 -1      1581 1.18512E+02 1.09375E+00 0.00000E+00
 -1      1582 1.18374E+02 2.18750E+00 0.00000E+00
 -1      1583 1.23012E+02 1.09375E+00 0.00000E+00
 -1      1584 1.21512E+02 1.09375E+00 0.00000E+00
 -1      1585 1.21374E+02 2.18750E+00 0.00000E+00
 -1      1586 1.26012E+02 1.09375E+00 0.00000E+00
 -1      1587 1.24512E+02 1.09375E+00 0.00000E+00
 -1      1588 1.24374E+02 2.18750E+00 0.00000E+00
 -1      1589 1.29012E+02 1.09375E+00 0.00000E+00
 -1      1590 1.27512E+02 1.09375E+00 0.00000E+00
 -1      1591 1.27374E+02 2.18750E+00 0.00000E+00
 -1      1592 1.32012E+02 1.09375E+00 0.00000E+00
 -1      1593 1.30512E+02 1.09375E+00 0.00000E+00
 -1      1594 1.30374E+02 2.18750E+00 0.00000E+00
 -1      1595 1.35012E+02 1.09375E+00 0.00000E+00
 -1      1596 1.33512E+02 1.09375E+00 0.00000E+00
 -1      1597 1.33374E+02 2.18750E+00 0.00000E+00
 -1      1598 1.38012E+02 1.09375E+00 0.00000E+00
 -1      1599 1.36512E+02 1.09375E+00 0.00000E+00
 -1      1600 1.36374E+02 2.18750E+00 0.00000E+00
 -1      1601 1.41012E+02 1.09375E+00 0.00000E+00
 -1      1602 1.39512E+02 1.09375E+00 0.00000E+00
 -1      1603 1.39374E+02 2.18750E+00 0.00000E+00
 -1      1604 1.44012E+02 1.09375E+00 0.00000E+00
 -1      1605 1.42512E+02 1.09375E+00 0.00000E+00
 -1      1606 1.42374E+02 2.18750E+00 0.00000E+00
 -1      1607 1.47012E+02 1.09375E+00 0.00000E+00
 -1      1608 1.45512E+02 1.09375E+00 0.00000E+00
 -1      1609 1.45374E+02 2.18750E+00 0.00000E+00
 -1      1610 1.48575E+02 1.47500E+00 0.00000E+00
 -1      1611 1.48701E+02 5.16250E+00 0.00000E+00
 -1      1612 1.48701E+02 3.68750E+00 0.00000E+00
 -1      1613 1.48701E+02 8.11250E+00 0.00000E+00
 -1      1614 1.48701E+02 6.63750E+00 0.00000E+00
 -1      1615 1.47402E+02 5.90000E+00 0.00000E+00
 -1      1616 1.48701E+02 1.10625E+01 0.00000E+00
 -1      1617 1.48701E+02 9.58750E+00 0.00000E+00
 -1      1618 1.47402E+02 8.85000E+00 0.00000E+00
 -1      1619 1.48701E+02 1.40125E+01 0.00000E+00
 -1      1620 1.48701E+02 1.25375E+01 0.00000E+00
 -1      1621 1.47402E+02 1.18000E+01 0.00000E+00
 -1      1622 1.48701E+02 1.69125E+01 0.00000E+00
 -1      1623 1.48701E+02 1.54625E+01 0.00000E+00
 -1      1624 1.47402E+02 1.47250E+01 0.00000E+00
 -1      1625 1.48701E+02 1.98625E+01 0.00000E+00
 -1      1626 1.48701E+02 1.83875E+01 0.00000E+00
 -1      1627 1.47402E+02 1.76500E+01 0.00000E+00
 -1      1628 1.48701E+02 2.28125E+01 0.00000E+00
 -1      1629 1.48701E+02 2.13375E+01 0.00000E+00
 -1      1630 1.47402E+02 2.06000E+01 0.00000E+00
 -1      1631 1.48701E+02 2.57625E+01 0.00000E+00
 -1      1632 1.48701E+02 2.42875E+01 0.00000E+00
 -1      1633 1.47402E+02 2.35500E+01 0.00000E+00
 -1      1634 1.48701E+02 2.87125E+01 0.00000E+00
 -1      1635 1.48701E+02 2.72375E+01 0.00000E+00
 -1      1636 1.47402E+02 2.65000E+01 0.00000E+00
 -1      1637 1.48701E+02 3.16625E+01 0.00000E+00
 -1      1638 1.48701E+02 3.01875E+01 0.00000E+00
 -1      1639 1.47402E+02 2.94500E+01 0.00000E+00
 -1      1640 1.48701E+02 3.45625E+01 0.00000E+00
 -1      1641 1.48701E+02 3.31125E+01 0.00000E+00
 -1      1642 1.47402E+02 3.23750E+01 0.00000E+00
 -1      1643 1.48701E+02 3.75125E+01 0.00000E+00
 -1      1644 1.48701E+02 3.60375E+01 0.00000E+00
 -1      1645 1.47402E+02 3.53000E+01 0.00000E+00
 -1      1646 1.48701E+02 4.04625E+01 0.00000E+00
 -1      1647 1.48701E+02 3.89875E+01 0.00000E+00
 -1      1648 1.47402E+02 3.82500E+01 0.00000E+00
 -1      1649 1.48701E+02 4.34125E+01 0.00000E+00
 -1      1650 1.48701E+02 4.19375E+01 0.00000E+00
 -1      1651 1.47402E+02 4.12000E+01 0.00000E+00
 -1      1652 1.48263E+02 4.60692E+01 0.00000E+00
 -1      1653 1.48263E+02 4.45942E+01 0.00000E+00
 -1      1654 1.46964E+02 4.38568E+01 0.00000E+00
 -1      1655 1.46088E+02 4.62202E+01 0.00000E+00
 -1      1656 3.59479E+01 2.46964E+01 0.00000E+00
 -1      1657 3.60173E+01 2.53901E+01 0.00000E+00
 -1      1658 3.56033E+01 2.31775E+01 0.00000E+00
 -1      1659 3.58201E+01 2.38701E+01 0.00000E+00
 -1      1660 3.48872E+01 2.17997E+01 0.00000E+00
 -1      1661 3.52330E+01 2.24196E+01 0.00000E+00
 -1      1662 3.38955E+01 2.03640E+01 0.00000E+00
 -1      1663 3.44521E+01 2.09861E+01 0.00000E+00
 -1      1664 3.25579E+01 1.93814E+01 0.00000E+00
 -1      1665 3.31506E+01 1.98022E+01 0.00000E+00
 -1      1666 3.10747E+01 1.86927E+01 0.00000E+00
 -1      1667 3.17748E+01 1.89923E+01 0.00000E+00
 -1      1668 2.95028E+01 1.82953E+01 0.00000E+00
 -1      1669 3.02342E+01 1.84350E+01 0.00000E+00
 -1      1670 2.78713E+01 1.82027E+01 0.00000E+00
 -1      1671 2.86280E+01 1.81829E+01 0.00000E+00
 -1      1672 2.61761E+01 1.84435E+01 0.00000E+00
 -1      1673 2.69454E+01 1.82485E+01 0.00000E+00
 -1      1674 2.46608E+01 1.91404E+01 0.00000E+00
 -1      1675 2.53266E+01 1.88034E+01 0.00000E+00
 -1      1676 2.31925E+01 2.01214E+01 0.00000E+00
 -1      1677 2.38273E+01 1.95935E+01 0.00000E+00
 -1      1678 2.22416E+01 2.14492E+01 0.00000E+00
 -1      1679 2.26739E+01 2.08896E+01 0.00000E+00
 -1      1680 2.15057E+01 2.27555E+01 0.00000E+00
 -1      1681 2.18096E+01 2.21395E+01 0.00000E+00
 -1      1682 2.10260E+01 2.42912E+01 0.00000E+00
 -1      1683 2.12155E+01 2.35513E+01 0.00000E+00
 -1      1684 2.08733E+01 2.58965E+01 0.00000E+00
 -1      1685 2.08996E+01 2.51588E+01 0.00000E+00
 -1      1686 2.10301E+01 2.75211E+01 0.00000E+00
 -1      1687 2.08955E+01 2.67751E+01 0.00000E+00
 -1      1688 2.15865E+01 2.90107E+01 0.00000E+00
 -1      1689 2.13119E+01 2.83433E+01 0.00000E+00
 -1      1690 2.23959E+01 3.03552E+01 0.00000E+00
 -1      1691 2.19874E+01 2.97549E+01 0.00000E+00
 -1      1692 2.34491E+01 3.15981E+01 0.00000E+00
 -1      1693 2.29001E+01 3.10754E+01 0.00000E+00
 -1      1694 2.48409E+01 3.24584E+01 0.00000E+00
 -1      1695 2.42034E+01 3.20714E+01 0.00000E+00
 -1      1696 2.63769E+01 3.32096E+01 0.00000E+00
 -1      1697 2.56195E+01 3.29548E+01 0.00000E+00
 -1      1698 2.80162E+01 3.34033E+01 0.00000E+00
 -1      1699 2.72861E+01 3.33263E+01 0.00000E+00
 -1      1700 2.95260E+01 3.33009E+01 0.00000E+00
 -1      1701 2.88475E+01 3.33674E+01 0.00000E+00
 -1      1702 3.10524E+01 3.30020E+01 0.00000E+00
 -1      1703 3.03571E+01 3.32165E+01 0.00000E+00
 -1      1704 3.23652E+01 3.22891E+01 0.00000E+00
 -1      1705 3.17794E+01 3.26082E+01 0.00000E+00
 -1      1706 3.35226E+01 3.14313E+01 0.00000E+00
 -1      1707 3.30099E+01 3.18538E+01 0.00000E+00
 -1      1708 3.44933E+01 3.03747E+01 0.00000E+00
 -1      1709 3.40712E+01 3.08842E+01 0.00000E+00
 -1      1710 3.52542E+01 2.91383E+01 0.00000E+00
 -1      1711 3.49308E+01 2.97290E+01 0.00000E+00
 -1      1712 3.58144E+01 2.77565E+01 0.00000E+00
 -1      1713 3.56063E+01 2.84167E+01 0.00000E+00
 -1      1714 3.60980E+01 2.62269E+01 0.00000E+00
 -1      1715 3.60238E+01 2.69441E+01 0.00000E+00
 -1      1716 3.39743E+01 1.96252E+01 0.00000E+00
 -1      1717 3.51544E+01 2.10007E+01 0.00000E+00
 -1      1718 1.48437E+02 2.56875E+00 0.00000E+00
 -1      1719 1.47138E+02 3.30625E+00 0.00000E+00
 -1      1720 3.64580E+01 2.41565E+01 0.00000E+00
 -1      1721 3.59599E+01 2.25723E+01 0.00000E+00
 -1      1722 3.66665E+01 2.58197E+01 0.00000E+00
 -1      1723 3.24463E+01 1.86743E+01 0.00000E+00
 -1      1724 3.08227E+01 1.80275E+01 0.00000E+00
 -1      1725 2.91074E+01 1.76573E+01 0.00000E+00
 -1      1726 2.73068E+01 1.75908E+01 0.00000E+00
 -1      1727 2.55315E+01 1.79964E+01 0.00000E+00
 -1      1728 2.38486E+01 1.88094E+01 0.00000E+00
 -1      1729 2.24966E+01 2.00307E+01 0.00000E+00
 -1      1730 2.15460E+01 2.14891E+01 0.00000E+00
 -1      1731 2.08237E+01 2.29751E+01 0.00000E+00
 -1      1732 2.04071E+01 2.46385E+01 0.00000E+00
 -1      1733 2.03029E+01 2.63846E+01 0.00000E+00
 -1      1734 2.06068E+01 2.80854E+01 0.00000E+00
 -1      1735 2.12895E+01 2.96519E+01 0.00000E+00
 -1      1736 2.21946E+01 3.11163E+01 0.00000E+00
 -1      1737 2.34532E+01 3.23098E+01 0.00000E+00
 -1      1738 2.49862E+01 3.32795E+01 0.00000E+00
 -1      1739 2.66740E+01 3.38926E+01 0.00000E+00
 -1      1740 2.84145E+01 3.39734E+01 0.00000E+00
 -1      1741 3.00770E+01 3.38530E+01 0.00000E+00
 -1      1742 3.16352E+01 3.33748E+01 0.00000E+00
 -1      1743 3.30070E+01 3.25457E+01 0.00000E+00
 -1      1744 3.42004E+01 3.15633E+01 0.00000E+00
 -1      1745 3.51867E+01 3.03704E+01 0.00000E+00
 -1      1746 3.59763E+01 2.90031E+01 0.00000E+00
 -1      1747 3.65378E+01 2.74690E+01 0.00000E+00
 -1      1748 2.87400E+00 4.77875E+01 0.00000E+00
 -1      1749 3.89700E+00 4.04125E+01 0.00000E+00
 -1      1750 3.89700E+00 4.18875E+01 0.00000E+00
 -1      1751 3.89700E+00 4.33625E+01 0.00000E+00
 -1      1752 3.89700E+00 4.48375E+01 0.00000E+00
 -1      1753 5.19600E+00 4.26250E+01 0.00000E+00
 -1      1754 3.89700E+00 3.45500E+01 0.00000E+00
 -1      1755 3.89700E+00 3.60000E+01 0.00000E+00
 -1      1756 3.89700E+00 3.16000E+01 0.00000E+00
 -1      1757 3.89700E+00 3.30750E+01 0.00000E+00
 -1      1758 5.19600E+00 3.38000E+01 0.00000E+00
 -1      1759 3.89700E+00 2.86500E+01 0.00000E+00
 -1      1760 3.89700E+00 3.01250E+01 0.00000E+00
 -1      1761 5.19600E+00 3.08500E+01 0.00000E+00
 -1      1762 3.89700E+00 2.57000E+01 0.00000E+00
 -1      1763 3.89700E+00 2.71750E+01 0.00000E+00
 -1      1764 5.19600E+00 2.79000E+01 0.00000E+00
 -1      1765 3.89700E+00 2.27500E+01 0.00000E+00
 -1      1766 3.89700E+00 2.42250E+01 0.00000E+00
 -1      1767 5.19600E+00 2.49500E+01 0.00000E+00
 -1      1768 3.89700E+00 1.98000E+01 0.00000E+00
 -1      1769 3.89700E+00 2.12750E+01 0.00000E+00
 -1      1770 5.19600E+00 2.20000E+01 0.00000E+00
 -1      1771 3.89700E+00 1.69000E+01 0.00000E+00
 -1      1772 3.89700E+00 1.83500E+01 0.00000E+00
 -1      1773 5.19600E+00 1.90750E+01 0.00000E+00
 -1      1774 3.89700E+00 1.39500E+01 0.00000E+00
 -1      1775 3.89700E+00 1.54250E+01 0.00000E+00
 -1      1776 5.19600E+00 1.61500E+01 0.00000E+00
 -1      1777 3.89700E+00 1.10000E+01 0.00000E+00
 -1      1778 3.89700E+00 1.24750E+01 0.00000E+00
 -1      1779 5.19600E+00 1.32000E+01 0.00000E+00
 -1      1780 3.89700E+00 8.05000E+00 0.00000E+00
 -1      1781 3.89700E+00 9.52500E+00 0.00000E+00
 -1      1782 5.19600E+00 1.02500E+01 0.00000E+00
 -1      1783 3.89700E+00 5.10000E+00 0.00000E+00
 -1      1784 3.89700E+00 6.57500E+00 0.00000E+00
 -1      1785 5.19600E+00 7.30000E+00 0.00000E+00
 -1      1786 4.20450E+00 3.09687E+00 0.00000E+00
 -1      1787 4.06650E+00 4.19063E+00 0.00000E+00
 -1      1788 5.36550E+00 4.91563E+00 0.00000E+00
 -1      1789 5.70450E+00 3.09687E+00 0.00000E+00
 -1      1790 3.62400E+00 4.64885E+01 0.00000E+00
 -1      1791 8.70450E+00 3.09687E+00 0.00000E+00
 -1      1792 7.20450E+00 3.09687E+00 0.00000E+00
 -1      1793 7.03500E+00 4.00625E+00 0.00000E+00
 -1      1794 4.92300E+00 4.57510E+01 0.00000E+00
 -1      1795 8.40000E+00 4.61030E+01 0.00000E+00
 -1      1796 9.90000E+00 4.61030E+01 0.00000E+00
 -1      1797 1.14000E+01 4.61030E+01 0.00000E+00
 -1      1798 1.29000E+01 4.61030E+01 0.00000E+00
 -1      1799 1.06500E+01 4.48040E+01 0.00000E+00
 -1      1800 1.44000E+01 4.61030E+01 0.00000E+00
 -1      1801 1.59000E+01 4.61030E+01 0.00000E+00
 -1      1802 1.36500E+01 4.48040E+01 0.00000E+00
 -1      1803 1.74000E+01 4.61030E+01 0.00000E+00
 -1      1804 1.89000E+01 4.61030E+01 0.00000E+00
 -1      1805 1.66500E+01 4.48040E+01 0.00000E+00
 -1      1806 2.04000E+01 4.61030E+01 0.00000E+00
 -1      1807 2.19000E+01 4.61030E+01 0.00000E+00
 -1      1808 1.96500E+01 4.48040E+01 0.00000E+00
 -1      1809 2.34000E+01 4.61030E+01 0.00000E+00
 -1      1810 2.49000E+01 4.61030E+01 0.00000E+00
 -1      1811 2.26500E+01 4.48040E+01 0.00000E+00
 -1      1812 2.64000E+01 4.61030E+01 0.00000E+00
 -1      1813 2.79000E+01 4.61030E+01 0.00000E+00
 -1      1814 2.56500E+01 4.48040E+01 0.00000E+00
 -1      1815 2.94000E+01 4.61030E+01 0.00000E+00
 -1      1816 3.09000E+01 4.61030E+01 0.00000E+00
 -1      1817 2.86500E+01 4.48040E+01 0.00000E+00
 -1      1818 3.24000E+01 4.61030E+01 0.00000E+00
 -1      1819 3.39000E+01 4.61030E+01 0.00000E+00
 -1      1820 3.16500E+01 4.48040E+01 0.00000E+00
 -1      1821 3.54000E+01 4.61030E+01 0.00000E+00
 -1      1822 3.69000E+01 4.61030E+01 0.00000E+00
 -1      1823 3.46500E+01 4.48040E+01 0.00000E+00
 -1      1824 3.84000E+01 4.61030E+01 0.00000E+00
 -1      1825 3.99000E+01 4.61030E+01 0.00000E+00
 -1      1826 3.76500E+01 4.48040E+01 0.00000E+00
 -1      1827 4.14000E+01 4.61030E+01 0.00000E+00
 -1      1828 4.29000E+01 4.61030E+01 0.00000E+00
 -1      1829 4.06500E+01 4.48040E+01 0.00000E+00
 -1      1830 4.44000E+01 4.61030E+01 0.00000E+00
 -1      1831 4.59000E+01 4.61030E+01 0.00000E+00
 -1      1832 4.36500E+01 4.48040E+01 0.00000E+00
 -1      1833 4.74000E+01 4.61030E+01 0.00000E+00
 -1      1834 4.89000E+01 4.61030E+01 0.00000E+00
 -1      1835 4.66500E+01 4.48040E+01 0.00000E+00
 -1      1836 5.04000E+01 4.61030E+01 0.00000E+00
 -1      1837 5.19000E+01 4.61030E+01 0.00000E+00
 -1      1838 4.96500E+01 4.48040E+01 0.00000E+00
 -1      1839 5.34000E+01 4.61030E+01 0.00000E+00
 -1      1840 5.49000E+01 4.61030E+01 0.00000E+00
 -1      1841 5.26500E+01 4.48040E+01 0.00000E+00
 -1      1842 5.64000E+01 4.61030E+01 0.00000E+00
 -1      1843 5.79000E+01 4.61030E+01 0.00000E+00
 -1      1844 5.56500E+01 4.48040E+01 0.00000E+00
 -1      1845 5.94000E+01 4.61030E+01 0.00000E+00
 -1      1846 6.09000E+01 4.61030E+01 0.00000E+00
 -1      1847 5.86500E+01 4.48040E+01 0.00000E+00
 -1      1848 6.24000E+01 4.61030E+01 0.00000E+00
 -1      1849 6.39000E+01 4.61030E+01 0.00000E+00
 -1      1850 6.16500E+01 4.48040E+01 0.00000E+00
 -1      1851 6.54000E+01 4.61030E+01 0.00000E+00
 -1      1852 6.69000E+01 4.61030E+01 0.00000E+00
 -1      1853 6.46500E+01 4.48040E+01 0.00000E+00
 -1      1854 6.84000E+01 4.61030E+01 0.00000E+00
 -1      1855 6.99000E+01 4.61030E+01 0.00000E+00
 -1      1856 6.76500E+01 4.48040E+01 0.00000E+00
 -1      1857 7.14000E+01 4.61030E+01 0.00000E+00
 -1      1858 7.29000E+01 4.61030E+01 0.00000E+00
 -1      1859 7.06500E+01 4.48040E+01 0.00000E+00
 -1      1860 7.44000E+01 4.61030E+01 0.00000E+00
 -1      1861 7.59000E+01 4.61030E+01 0.00000E+00
 -1      1862 7.36500E+01 4.48040E+01 0.00000E+00
 -1      1863 7.74000E+01 4.61030E+01 0.00000E+00
 -1      1864 7.89000E+01 4.61030E+01 0.00000E+00
 -1      1865 7.66500E+01 4.48040E+01 0.00000E+00
 -1      1866 8.04000E+01 4.61030E+01 0.00000E+00
 -1      1867 8.19000E+01 4.61030E+01 0.00000E+00
 -1      1868 7.96500E+01 4.48040E+01 0.00000E+00
 -1      1869 8.34000E+01 4.61030E+01 0.00000E+00
 -1      1870 8.49000E+01 4.61030E+01 0.00000E+00
 -1      1871 8.26500E+01 4.48040E+01 0.00000E+00
 -1      1872 8.64000E+01 4.61030E+01 0.00000E+00
 -1      1873 8.79000E+01 4.61030E+01 0.00000E+00
 -1      1874 8.56500E+01 4.48040E+01 0.00000E+00
 -1      1875 8.94000E+01 4.61030E+01 0.00000E+00
 -1      1876 9.09000E+01 4.61030E+01 0.00000E+00
 -1      1877 8.86500E+01 4.48040E+01 0.00000E+00
 -1      1878 9.24000E+01 4.61030E+01 0.00000E+00
 -1      1879 9.39000E+01 4.61030E+01 0.00000E+00
 -1      1880 9.16500E+01 4.48040E+01 0.00000E+00
 -1      1881 9.54000E+01 4.61030E+01 0.00000E+00
 -1      1882 9.69000E+01 4.61030E+01 0.00000E+00
 -1      1883 9.46500E+01 4.48040E+01 0.00000E+00
 -1      1884 9.84000E+01 4.61030E+01 0.00000E+00
 -1      1885 9.99000E+01 4.61030E+01 0.00000E+00
 -1      1886 9.76500E+01 4.48040E+01 0.00000E+00
 -1      1887 1.01400E+02 4.61030E+01 0.00000E+00
 -1      1888 1.02900E+02 4.61030E+01 0.00000E+00
 -1      1889 1.00650E+02 4.48040E+01 0.00000E+00
 -1      1890 1.04400E+02 4.61030E+01 0.00000E+00
 -1      1891 1.05900E+02 4.61030E+01 0.00000E+00
 -1      1892 1.03650E+02 4.48040E+01 0.00000E+00
 -1      1893 1.07400E+02 4.61030E+01 0.00000E+00
 -1      1894 1.08900E+02 4.61030E+01 0.00000E+00
 -1      1895 1.06650E+02 4.48040E+01 0.00000E+00
 -1      1896 1.10400E+02 4.61030E+01 0.00000E+00
 -1      1897 1.11900E+02 4.61030E+01 0.00000E+00
 -1      1898 1.09650E+02 4.48040E+01 0.00000E+00
 -1      1899 1.13400E+02 4.61030E+01 0.00000E+00
 -1      1900 1.14900E+02 4.61030E+01 0.00000E+00
 -1      1901 1.12650E+02 4.48040E+01 0.00000E+00
 -1      1902 1.16400E+02 4.61030E+01 0.00000E+00
 -1      1903 1.17900E+02 4.61030E+01 0.00000E+00
 -1      1904 1.15650E+02 4.48040E+01 0.00000E+00
 -1      1905 1.19400E+02 4.61030E+01 0.00000E+00
 -1      1906 1.20900E+02 4.61030E+01 0.00000E+00
 -1      1907 1.18650E+02 4.48040E+01 0.00000E+00
 -1      1908 1.22400E+02 4.61030E+01 0.00000E+00
 -1      1909 1.23900E+02 4.61030E+01 0.00000E+00
 -1      1910 1.21650E+02 4.48040E+01 0.00000E+00
 -1      1911 1.25400E+02 4.61030E+01 0.00000E+00
 -1      1912 1.26900E+02 4.61030E+01 0.00000E+00
 -1      1913 1.24650E+02 4.48040E+01 0.00000E+00
 -1      1914 1.28400E+02 4.61030E+01 0.00000E+00
 -1      1915 1.29900E+02 4.61030E+01 0.00000E+00
 -1      1916 1.27650E+02 4.48040E+01 0.00000E+00
 -1      1917 1.31400E+02 4.61030E+01 0.00000E+00
 -1      1918 1.32900E+02 4.61030E+01 0.00000E+00
 -1      1919 1.30650E+02 4.48040E+01 0.00000E+00
 -1      1920 1.34400E+02 4.61030E+01 0.00000E+00
 -1      1921 1.35900E+02 4.61030E+01 0.00000E+00
 -1      1922 1.33650E+02 4.48040E+01 0.00000E+00
 -1      1923 1.37400E+02 4.61030E+01 0.00000E+00
 -1      1924 1.38900E+02 4.61030E+01 0.00000E+00
 -1      1925 1.36650E+02 4.48040E+01 0.00000E+00
 -1      1926 1.40400E+02 4.61030E+01 0.00000E+00
 -1      1927 1.41900E+02 4.61030E+01 0.00000E+00
 -1      1928 1.39650E+02 4.48040E+01 0.00000E+00
 -1      1929 1.43244E+02 4.61616E+01 0.00000E+00
 -1      1930 1.44744E+02 4.61616E+01 0.00000E+00
 -1      1931 1.45182E+02 4.49799E+01 0.00000E+00
 -1      1932 1.42494E+02 4.48626E+01 0.00000E+00
 -1      1933 1.17045E+01 3.09687E+00 0.00000E+00
 -1      1934 1.02045E+01 3.09687E+00 0.00000E+00
 -1      1935 1.00350E+01 4.00625E+00 0.00000E+00
 -1      1936 1.47045E+01 3.09687E+00 0.00000E+00
 -1      1937 1.32045E+01 3.09687E+00 0.00000E+00
 -1      1938 1.30350E+01 4.00625E+00 0.00000E+00
 -1      1939 1.77045E+01 3.09687E+00 0.00000E+00
 -1      1940 1.62045E+01 3.09687E+00 0.00000E+00
 -1      1941 1.60350E+01 4.00625E+00 0.00000E+00
 -1      1942 2.07045E+01 3.09687E+00 0.00000E+00
 -1      1943 1.92045E+01 3.09687E+00 0.00000E+00
 -1      1944 1.90350E+01 4.00625E+00 0.00000E+00
 -1      1945 2.37045E+01 3.09687E+00 0.00000E+00
 -1      1946 2.22045E+01 3.09687E+00 0.00000E+00
 -1      1947 2.20350E+01 4.00625E+00 0.00000E+00
 -1      1948 2.67045E+01 3.09687E+00 0.00000E+00
 -1      1949 2.52045E+01 3.09687E+00 0.00000E+00
 -1      1950 2.50350E+01 4.00625E+00 0.00000E+00
 -1      1951 2.97045E+01 3.09687E+00 0.00000E+00
 -1      1952 2.82045E+01 3.09687E+00 0.00000E+00
 -1      1953 2.80350E+01 4.00625E+00 0.00000E+00
 -1      1954 3.27045E+01 3.09687E+00 0.00000E+00
 -1      1955 3.12045E+01 3.09687E+00 0.00000E+00
 -1      1956 3.10350E+01 4.00625E+00 0.00000E+00
 -1      1957 3.57045E+01 3.09687E+00 0.00000E+00
 -1      1958 3.42045E+01 3.09687E+00 0.00000E+00
 -1      1959 3.40350E+01 4.00625E+00 0.00000E+00
 -1      1960 3.87045E+01 3.09687E+00 0.00000E+00
 -1      1961 3.72045E+01 3.09687E+00 0.00000E+00
 -1      1962 3.70350E+01 4.00625E+00 0.00000E+00
 -1      1963 4.17045E+01 3.09687E+00 0.00000E+00
 -1      1964 4.02045E+01 3.09687E+00 0.00000E+00
 -1      1965 4.00350E+01 4.00625E+00 0.00000E+00
 -1      1966 4.47045E+01 3.09687E+00 0.00000E+00
 -1      1967 4.32045E+01 3.09687E+00 0.00000E+00
 -1      1968 4.30350E+01 4.00625E+00 0.00000E+00
 -1      1969 4.77045E+01 3.09687E+00 0.00000E+00
 -1      1970 4.62045E+01 3.09687E+00 0.00000E+00
 -1      1971 4.60350E+01 4.00625E+00 0.00000E+00
 -1      1972 5.07045E+01 3.09687E+00 0.00000E+00
 -1      1973 4.92045E+01 3.09687E+00 0.00000E+00
 -1      1974 4.90350E+01 4.00625E+00 0.00000E+00
 -1      1975 5.37045E+01 3.09687E+00 0.00000E+00
 -1      1976 5.22045E+01 3.09687E+00 0.00000E+00
 -1      1977 5.20350E+01 4.00625E+00 0.00000E+00
 -1      1978 5.67045E+01 3.09687E+00 0.00000E+00
 -1      1979 5.52045E+01 3.09687E+00 0.00000E+00
 -1      1980 5.50350E+01 4.00625E+00 0.00000E+00
 -1      1981 5.97045E+01 3.09687E+00 0.00000E+00
 -1      1982 5.82045E+01 3.09687E+00 0.00000E+00
 -1      1983 5.80350E+01 4.00625E+00 0.00000E+00
 -1      1984 6.27045E+01 3.09687E+00 0.00000E+00
 -1      1985 6.12045E+01 3.09687E+00 0.00000E+00
 -1      1986 6.10350E+01 4.00625E+00 0.00000E+00
 -1      1987 6.57045E+01 3.09687E+00 0.00000E+00
 -1      1988 6.42045E+01 3.09687E+00 0.00000E+00
 -1      1989 6.40350E+01 4.00625E+00 0.00000E+00
 -1      1990 6.87045E+01 3.09687E+00 0.00000E+00
 -1      1991 6.72045E+01 3.09687E+00 0.00000E+00
 -1      1992 6.70350E+01 4.00625E+00 0.00000E+00
 -1      1993 7.17045E+01 3.09687E+00 0.00000E+00
 -1      1994 7.02045E+01 3.09687E+00 0.00000E+00
 -1      1995 7.00350E+01 4.00625E+00 0.00000E+00
 -1      1996 7.47045E+01 3.09687E+00 0.00000E+00
 -1      1997 7.32045E+01 3.09687E+00 0.00000E+00
 -1      1998 7.30350E+01 4.00625E+00 0.00000E+00
 -1      1999 7.77045E+01 3.09687E+00 0.00000E+00
 -1      2000 7.62045E+01 3.09687E+00 0.00000E+00
 -1      2001 7.60350E+01 4.00625E+00 0.00000E+00
 -1      2002 8.07045E+01 3.09687E+00 0.00000E+00
 -1      2003 7.92045E+01 3.09687E+00 0.00000E+00
 -1      2004 7.90350E+01 4.00625E+00 0.00000E+00
 -1      2005 8.37045E+01 3.09687E+00 0.00000E+00
 -1      2006 8.22045E+01 3.09687E+00 0.00000E+00
 -1      2007 8.20350E+01 4.00625E+00 0.00000E+00
 -1      2008 8.67045E+01 3.09687E+00 0.00000E+00
 -1      2009 8.52045E+01 3.09687E+00 0.00000E+00
 -1      2010 8.50350E+01 4.00625E+00 0.00000E+00
 -1      2011 8.97045E+01 3.09687E+00 0.00000E+00
 -1      2012 8.82045E+01 3.09687E+00 0.00000E+00
 -1      2013 8.80350E+01 4.00625E+00 0.00000E+00
 -1      2014 9.27045E+01 3.09687E+00 0.00000E+00
 -1      2015 9.12045E+01 3.09687E+00 0.00000E+00
 -1      2016 9.10350E+01 4.00625E+00 0.00000E+00
 -1      2017 9.57045E+01 3.09687E+00 0.00000E+00
 -1      2018 9.42045E+01 3.09687E+00 0.00000E+00
 -1      2019 9.40350E+01 4.00625E+00 0.00000E+00
 -1      2020 9.87045E+01 3.09687E+00 0.00000E+00
 -1      2021 9.72045E+01 3.09687E+00 0.00000E+00
 -1      2022 9.70350E+01 4.00625E+00 0.00000E+00
 -1      2023 1.01704E+02 3.09687E+00 0.00000E+00
 -1      2024 1.00204E+02 3.09687E+00 0.00000E+00
 -1      2025 1.00035E+02 4.00625E+00 0.00000E+00
 -1      2026 1.04704E+02 3.09687E+00 0.00000E+00
 -1      2027 1.03204E+02 3.09687E+00 0.00000E+00
 -1      2028 1.03035E+02 4.00625E+00 0.00000E+00
 -1      2029 1.07704E+02 3.09687E+00 0.00000E+00
 -1      2030 1.06204E+02 3.09687E+00 0.00000E+00
 -1      2031 1.06035E+02 4.00625E+00 0.00000E+00
 -1      2032 1.10704E+02 3.09687E+00 0.00000E+00
 -1      2033 1.09204E+02 3.09687E+00 0.00000E+00
 -1      2034 1.09035E+02 4.00625E+00 0.00000E+00
 -1      2035 1.13704E+02 3.09687E+00 0.00000E+00
 -1      2036 1.12204E+02 3.09687E+00 0.00000E+00
 -1      2037 1.12035E+02 4.00625E+00 0.00000E+00
 -1      2038 1.16704E+02 3.09687E+00 0.00000E+00
 -1      2039 1.15204E+02 3.09687E+00 0.00000E+00
 -1      2040 1.15035E+02 4.00625E+00 0.00000E+00
 -1      2041 1.19704E+02 3.09687E+00 0.00000E+00
 -1      2042 1.18204E+02 3.09687E+00 0.00000E+00
 -1      2043 1.18035E+02 4.00625E+00 0.00000E+00
 -1      2044 1.22704E+02 3.09687E+00 0.00000E+00
 -1      2045 1.21204E+02 3.09687E+00 0.00000E+00
 -1      2046 1.21035E+02 4.00625E+00 0.00000E+00
 -1      2047 1.25704E+02 3.09687E+00 0.00000E+00
 -1      2048 1.24204E+02 3.09687E+00 0.00000E+00
 -1      2049 1.24035E+02 4.00625E+00 0.00000E+00
 -1      2050 1.28704E+02 3.09687E+00 0.00000E+00
 -1      2051 1.27204E+02 3.09687E+00 0.00000E+00
 -1      2052 1.27035E+02 4.00625E+00 0.00000E+00
 -1      2053 1.31704E+02 3.09687E+00 0.00000E+00
 -1      2054 1.30204E+02 3.09687E+00 0.00000E+00
 -1      2055 1.30035E+02 4.00625E+00 0.00000E+00
 -1      2056 1.34704E+02 3.09687E+00 0.00000E+00
 -1      2057 1.33204E+02 3.09687E+00 0.00000E+00
 -1      2058 1.33035E+02 4.00625E+00 0.00000E+00
 -1      2059 1.37704E+02 3.09687E+00 0.00000E+00
 -1      2060 1.36204E+02 3.09687E+00 0.00000E+00
 -1      2061 1.36035E+02 4.00625E+00 0.00000E+00
 -1      2062 1.40704E+02 3.09687E+00 0.00000E+00
 -1      2063 1.39204E+02 3.09687E+00 0.00000E+00
 -1      2064 1.39035E+02 4.00625E+00 0.00000E+00
 -1      2065 1.43704E+02 3.09687E+00 0.00000E+00
 -1      2066 1.42204E+02 3.09687E+00 0.00000E+00
 -1      2067 1.42035E+02 4.00625E+00 0.00000E+00
 -1      2068 1.46171E+02 3.20156E+00 0.00000E+00
 -1      2069 1.44671E+02 3.20156E+00 0.00000E+00
 -1      2070 1.44502E+02 4.11094E+00 0.00000E+00
 -1      2071 1.46435E+02 4.32031E+00 0.00000E+00
 -1      2072 1.46103E+02 1.25375E+01 0.00000E+00
 -1      2073 1.46103E+02 1.10625E+01 0.00000E+00
 -1      2074 1.46103E+02 9.58750E+00 0.00000E+00
 -1      2075 1.46103E+02 8.11250E+00 0.00000E+00
 -1      2076 1.44804E+02 1.03250E+01 0.00000E+00
 -1      2077 1.46269E+02 6.95391E+00 0.00000E+00
 -1      2078 1.46269E+02 5.47891E+00 0.00000E+00
 -1      2079 1.45302E+02 5.37422E+00 0.00000E+00
 -1      2080 1.44970E+02 7.69141E+00 0.00000E+00
 -1      2081 1.46103E+02 1.54375E+01 0.00000E+00
 -1      2082 1.46103E+02 1.39875E+01 0.00000E+00
 -1      2083 1.44804E+02 1.32500E+01 0.00000E+00
 -1      2084 1.46103E+02 1.83875E+01 0.00000E+00
 -1      2085 1.46103E+02 1.69125E+01 0.00000E+00
 -1      2086 1.44804E+02 1.61750E+01 0.00000E+00
 -1      2087 1.46103E+02 2.13375E+01 0.00000E+00
 -1      2088 1.46103E+02 1.98625E+01 0.00000E+00
 -1      2089 1.44804E+02 1.91250E+01 0.00000E+00
 -1      2090 1.46103E+02 2.42875E+01 0.00000E+00
 -1      2091 1.46103E+02 2.28125E+01 0.00000E+00
 -1      2092 1.44804E+02 2.20750E+01 0.00000E+00
 -1      2093 1.46103E+02 2.72375E+01 0.00000E+00
 -1      2094 1.46103E+02 2.57625E+01 0.00000E+00
 -1      2095 1.44804E+02 2.50250E+01 0.00000E+00
 -1      2096 1.46103E+02 3.01875E+01 0.00000E+00
 -1      2097 1.46103E+02 2.87125E+01 0.00000E+00
 -1      2098 1.44804E+02 2.79750E+01 0.00000E+00
 -1      2099 1.46103E+02 3.30875E+01 0.00000E+00
 -1      2100 1.46103E+02 3.16375E+01 0.00000E+00
 -1      2101 1.44804E+02 3.09000E+01 0.00000E+00
 -1      2102 1.46103E+02 3.60375E+01 0.00000E+00
 -1      2103 1.46103E+02 3.45625E+01 0.00000E+00
 -1      2104 1.44804E+02 3.38250E+01 0.00000E+00
 -1      2105 1.46103E+02 3.89875E+01 0.00000E+00
 -1      2106 1.46103E+02 3.75125E+01 0.00000E+00
 -1      2107 1.44804E+02 3.67750E+01 0.00000E+00
 -1      2108 1.46103E+02 4.19375E+01 0.00000E+00
 -1      2109 1.46103E+02 4.04625E+01 0.00000E+00
 -1      2110 1.44804E+02 3.97250E+01 0.00000E+00
 -1      2111 3.65452E+01 2.18168E+01 0.00000E+00
 -1      2112 3.69155E+01 2.25747E+01 0.00000E+00
 -1      2113 3.73964E+01 2.53270E+01 0.00000E+00
 -1      2114 3.74771E+01 2.61638E+01 0.00000E+00
 -1      2115 3.71408E+01 2.36743E+01 0.00000E+00
 -1      2116 3.72686E+01 2.45007E+01 0.00000E+00
 -1      2117 3.80791E+01 2.48448E+01 0.00000E+00
 -1      2118 3.56749E+01 2.01895E+01 0.00000E+00
 -1      2119 3.61100E+01 2.10031E+01 0.00000E+00
 -1      2120 3.70657E+01 2.10056E+01 0.00000E+00
 -1      2121 3.40678E+01 1.87265E+01 0.00000E+00
 -1      2122 3.48127E+01 1.92884E+01 0.00000E+00
 -1      2123 3.89700E+00 3.74688E+01 0.00000E+00
 -1      2124 3.89700E+00 3.89437E+01 0.00000E+00
 -1      2125 5.19600E+00 3.96813E+01 0.00000E+00
 -1      2126 5.19600E+00 3.67438E+01 0.00000E+00
 -1      2127 3.06539E+01 1.70787E+01 0.00000E+00
 -1      2128 3.14944E+01 1.73365E+01 0.00000E+00
 -1      2129 2.87580E+01 1.69168E+01 0.00000E+00
 -1      2130 2.96327E+01 1.70292E+01 0.00000E+00
 -1      2131 2.68036E+01 1.67990E+01 0.00000E+00
 -1      2132 2.77295E+01 1.67532E+01 0.00000E+00
 -1      2133 2.48540E+01 1.75796E+01 0.00000E+00
 -1      2134 2.57034E+01 1.72197E+01 0.00000E+00
 -1      2135 2.31023E+01 1.84298E+01 0.00000E+00
 -1      2136 2.39358E+01 1.79767E+01 0.00000E+00
 -1      2137 2.17001E+01 2.00521E+01 0.00000E+00
 -1      2138 2.22187E+01 1.92840E+01 0.00000E+00
 -1      2139 2.07806E+01 2.14904E+01 0.00000E+00
 -1      2140 2.12126E+01 2.08001E+01 0.00000E+00
 -1      2141 1.99910E+01 2.31223E+01 0.00000E+00
 -1      2142 2.02813E+01 2.23265E+01 0.00000E+00
 -1      2143 1.94953E+01 2.49487E+01 0.00000E+00
 -1      2144 1.96217E+01 2.40811E+01 0.00000E+00
 -1      2145 1.95823E+01 2.68424E+01 0.00000E+00
 -1      2146 1.95601E+01 2.59638E+01 0.00000E+00
 -1      2147 2.01346E+01 2.87066E+01 0.00000E+00
 -1      2148 1.98528E+01 2.78844E+01 0.00000E+00
 -1      2149 2.08826E+01 3.03513E+01 0.00000E+00
 -1      2150 2.04816E+01 2.96070E+01 0.00000E+00
 -1      2151 2.18471E+01 3.18961E+01 0.00000E+00
 -1      2152 2.13430E+01 3.11759E+01 0.00000E+00
 -1      2153 2.33969E+01 3.32374E+01 0.00000E+00
 -1      2154 2.26425E+01 3.27641E+01 0.00000E+00
 -1      2155 2.49541E+01 3.42302E+01 0.00000E+00
 -1      2156 2.41755E+01 3.37338E+01 0.00000E+00
 -1      2157 2.33648E+01 3.41880E+01 0.00000E+00
 -1      2158 2.70301E+01 3.47184E+01 0.00000E+00
 -1      2159 2.61209E+01 3.46017E+01 0.00000E+00
 -1      2160 2.88636E+01 3.47285E+01 0.00000E+00
 -1      2161 2.80323E+01 3.47644E+01 0.00000E+00
 -1      2162 3.05259E+01 3.45596E+01 0.00000E+00
 -1      2163 2.96947E+01 3.46440E+01 0.00000E+00
 -1      2164 2.93125E+01 3.54350E+01 0.00000E+00
 -1      2165 3.23673E+01 3.38583E+01 0.00000E+00
 -1      2166 3.16402E+01 3.42521E+01 0.00000E+00
 -1      2167 3.36568E+01 3.29876E+01 0.00000E+00
 -1      2168 3.30120E+01 3.34229E+01 0.00000E+00
 -1      2169 3.30170E+01 3.43002E+01 0.00000E+00
 -1      2170 3.49620E+01 3.17783E+01 0.00000E+00
 -1      2171 3.44133E+01 3.23254E+01 0.00000E+00
 -1      2172 3.60460E+01 3.04816E+01 0.00000E+00
 -1      2173 3.56084E+01 3.11274E+01 0.00000E+00
 -1      2174 3.67502E+01 2.90384E+01 0.00000E+00
 -1      2175 3.63981E+01 2.97600E+01 0.00000E+00
 -1      2176 3.68198E+01 3.05170E+01 0.00000E+00
 -1      2177 3.73918E+01 2.72559E+01 0.00000E+00
 -1      2178 3.71824E+01 2.80684E+01 0.00000E+00
 -1      2179 3.23617E+01 1.78618E+01 0.00000E+00
 -1      2180 3.31449E+01 1.82508E+01 0.00000E+00
 -1      2181 6.42300E+00 4.57510E+01 0.00000E+00
 -1      2182 2.61261E+01 1.63822E+01 0.00000E+00
 -1      2183 3.21929E+01 1.69131E+01 0.00000E+00
 -1      2184 7.17300E+00 4.44520E+01 0.00000E+00
 -1      2185 3.77261E+01 2.29189E+01 0.00000E+00
 -1      2186 1.45665E+02 4.31193E+01 0.00000E+00
 -1      2187 3.57684E+01 1.92908E+01 0.00000E+00
 -1      2188 3.81217E+01 2.67632E+01 0.00000E+00
 -1      2189 3.39833E+01 1.79140E+01 0.00000E+00
 -1      2190 3.76042E+01 2.88253E+01 0.00000E+00
 -1      2191 3.44183E+01 3.32027E+01 0.00000E+00
 -1      2192 3.12579E+01 3.50431E+01 0.00000E+00
 -1      2193 2.53102E+01 3.50560E+01 0.00000E+00
 -1      2194 2.17908E+01 3.28237E+01 0.00000E+00
 -1      2195 2.05351E+01 3.11311E+01 0.00000E+00
 -1      2196 1.97277E+01 2.94060E+01 0.00000E+00
 -1      2197 1.91101E+01 2.74636E+01 0.00000E+00
 -1      2198 1.87747E+01 2.54064E+01 0.00000E+00
 -1      2199 1.90792E+01 2.34324E+01 0.00000E+00
 -1      2200 1.99479E+01 2.16375E+01 0.00000E+00
 -1      2201 2.09348E+01 2.00534E+01 0.00000E+00
 -1      2202 2.23059E+01 1.84512E+01 0.00000E+00
 -1      2203 2.23930E+01 1.76185E+01 0.00000E+00
 -1      2204 2.15095E+01 1.84727E+01 0.00000E+00
 -1      2205 2.41077E+01 1.72000E+01 0.00000E+00
 -1      2206 3.03044E+01 1.63382E+01 0.00000E+00
 -1      2207 2.82547E+01 1.61250E+01 0.00000E+00
 -1      2208 2.74792E+01 3.54735E+01 0.00000E+00
 -1      2209 3.58213E+01 3.18895E+01 0.00000E+00
 -1      2210 1.07850E+01 5.30525E+00 0.00000E+00
 -1      2211 9.28500E+00 5.30525E+00 0.00000E+00
 -1      2212 6.49500E+00 3.01125E+01 0.00000E+00
 -1      2213 6.49500E+00 3.15875E+01 0.00000E+00
 -1      2214 6.49500E+00 3.30625E+01 0.00000E+00
 -1      2215 6.49500E+00 3.45375E+01 0.00000E+00
 -1      2216 7.79400E+00 3.23250E+01 0.00000E+00
 -1      2217 6.49500E+00 2.42125E+01 0.00000E+00
 -1      2218 6.49500E+00 2.56875E+01 0.00000E+00
 -1      2219 6.49500E+00 2.12625E+01 0.00000E+00
 -1      2220 6.49500E+00 2.27375E+01 0.00000E+00
 -1      2221 7.79400E+00 2.34750E+01 0.00000E+00
 -1      2222 6.49500E+00 1.83625E+01 0.00000E+00
 -1      2223 6.49500E+00 1.98125E+01 0.00000E+00
 -1      2224 7.79400E+00 2.05500E+01 0.00000E+00
 -1      2225 6.49500E+00 1.54125E+01 0.00000E+00
 -1      2226 6.49500E+00 1.68875E+01 0.00000E+00
 -1      2227 7.79400E+00 1.76250E+01 0.00000E+00
 -1      2228 6.49500E+00 1.24625E+01 0.00000E+00
 -1      2229 6.49500E+00 1.39375E+01 0.00000E+00
 -1      2230 7.79400E+00 1.46750E+01 0.00000E+00
 -1      2231 6.49500E+00 9.51250E+00 0.00000E+00
 -1      2232 6.49500E+00 1.09875E+01 0.00000E+00
 -1      2233 7.79400E+00 1.17250E+01 0.00000E+00
 -1      2234 1.37850E+01 5.30525E+00 0.00000E+00
 -1      2235 1.22850E+01 5.30525E+00 0.00000E+00
 -1      2236 1.15350E+01 6.60425E+00 0.00000E+00
 -1      2237 9.90000E+00 4.35050E+01 0.00000E+00
 -1      2238 1.14000E+01 4.35050E+01 0.00000E+00
 -1      2239 2.53146E+01 1.59090E+01 0.00000E+00
 -1      2240 2.64147E+01 1.54882E+01 0.00000E+00
 -1      2241 1.29000E+01 4.35050E+01 0.00000E+00
 -1      2242 1.44000E+01 4.35050E+01 0.00000E+00
 -1      2243 1.21500E+01 4.22060E+01 0.00000E+00
 -1      2244 1.59000E+01 4.35050E+01 0.00000E+00
 -1      2245 1.74000E+01 4.35050E+01 0.00000E+00
 -1      2246 1.51500E+01 4.22060E+01 0.00000E+00
 -1      2247 1.89000E+01 4.35050E+01 0.00000E+00
 -1      2248 2.04000E+01 4.35050E+01 0.00000E+00
 -1      2249 1.81500E+01 4.22060E+01 0.00000E+00
 -1      2250 2.19000E+01 4.35050E+01 0.00000E+00
 -1      2251 2.34000E+01 4.35050E+01 0.00000E+00
 -1      2252 2.11500E+01 4.22060E+01 0.00000E+00
 -1      2253 2.49000E+01 4.35050E+01 0.00000E+00
 -1      2254 2.64000E+01 4.35050E+01 0.00000E+00
 -1      2255 2.41500E+01 4.22060E+01 0.00000E+00
 -1      2256 2.79000E+01 4.35050E+01 0.00000E+00
 -1      2257 2.94000E+01 4.35050E+01 0.00000E+00
 -1      2258 2.71500E+01 4.22060E+01 0.00000E+00
 -1      2259 3.09000E+01 4.35050E+01 0.00000E+00
 -1      2260 3.24000E+01 4.35050E+01 0.00000E+00
 -1      2261 3.01500E+01 4.22060E+01 0.00000E+00
 -1      2262 3.39000E+01 4.35050E+01 0.00000E+00
 -1      2263 3.54000E+01 4.35050E+01 0.00000E+00
 -1      2264 3.31500E+01 4.22060E+01 0.00000E+00
 -1      2265 3.69000E+01 4.35050E+01 0.00000E+00
 -1      2266 3.84000E+01 4.35050E+01 0.00000E+00
 -1      2267 3.61500E+01 4.22060E+01 0.00000E+00
 -1      2268 3.99000E+01 4.35050E+01 0.00000E+00
 -1      2269 4.14000E+01 4.35050E+01 0.00000E+00
 -1      2270 3.91500E+01 4.22060E+01 0.00000E+00
 -1      2271 4.29000E+01 4.35050E+01 0.00000E+00
 -1      2272 4.44000E+01 4.35050E+01 0.00000E+00
 -1      2273 4.21500E+01 4.22060E+01 0.00000E+00
 -1      2274 4.59000E+01 4.35050E+01 0.00000E+00
 -1      2275 4.74000E+01 4.35050E+01 0.00000E+00
 -1      2276 4.51500E+01 4.22060E+01 0.00000E+00
 -1      2277 4.89000E+01 4.35050E+01 0.00000E+00
 -1      2278 5.04000E+01 4.35050E+01 0.00000E+00
 -1      2279 4.81500E+01 4.22060E+01 0.00000E+00
 -1      2280 5.19000E+01 4.35050E+01 0.00000E+00
 -1      2281 5.34000E+01 4.35050E+01 0.00000E+00
 -1      2282 5.11500E+01 4.22060E+01 0.00000E+00
 -1      2283 5.49000E+01 4.35050E+01 0.00000E+00
 -1      2284 5.64000E+01 4.35050E+01 0.00000E+00
 -1      2285 5.41500E+01 4.22060E+01 0.00000E+00
 -1      2286 5.79000E+01 4.35050E+01 0.00000E+00
 -1      2287 5.94000E+01 4.35050E+01 0.00000E+00
 -1      2288 5.71500E+01 4.22060E+01 0.00000E+00
 -1      2289 6.09000E+01 4.35050E+01 0.00000E+00
 -1      2290 6.24000E+01 4.35050E+01 0.00000E+00
 -1      2291 6.01500E+01 4.22060E+01 0.00000E+00
 -1      2292 6.39000E+01 4.35050E+01 0.00000E+00
 -1      2293 6.54000E+01 4.35050E+01 0.00000E+00
 -1      2294 6.31500E+01 4.22060E+01 0.00000E+00
 -1      2295 6.69000E+01 4.35050E+01 0.00000E+00
 -1      2296 6.84000E+01 4.35050E+01 0.00000E+00
 -1      2297 6.61500E+01 4.22060E+01 0.00000E+00
 -1      2298 6.99000E+01 4.35050E+01 0.00000E+00
 -1      2299 7.14000E+01 4.35050E+01 0.00000E+00
 -1      2300 6.91500E+01 4.22060E+01 0.00000E+00
 -1      2301 7.29000E+01 4.35050E+01 0.00000E+00
 -1      2302 7.44000E+01 4.35050E+01 0.00000E+00
 -1      2303 7.21500E+01 4.22060E+01 0.00000E+00
 -1      2304 7.59000E+01 4.35050E+01 0.00000E+00
 -1      2305 7.74000E+01 4.35050E+01 0.00000E+00
 -1      2306 7.51500E+01 4.22060E+01 0.00000E+00
 -1      2307 7.89000E+01 4.35050E+01 0.00000E+00
 -1      2308 8.04000E+01 4.35050E+01 0.00000E+00
 -1      2309 7.81500E+01 4.22060E+01 0.00000E+00
 -1      2310 8.19000E+01 4.35050E+01 0.00000E+00
 -1      2311 8.34000E+01 4.35050E+01 0.00000E+00
 -1      2312 8.11500E+01 4.22060E+01 0.00000E+00
 -1      2313 8.49000E+01 4.35050E+01 0.00000E+00
 -1      2314 8.64000E+01 4.35050E+01 0.00000E+00
 -1      2315 8.41500E+01 4.22060E+01 0.00000E+00
 -1      2316 8.79000E+01 4.35050E+01 0.00000E+00
 -1      2317 8.94000E+01 4.35050E+01 0.00000E+00
 -1      2318 8.71500E+01 4.22060E+01 0.00000E+00
 -1      2319 9.09000E+01 4.35050E+01 0.00000E+00
 -1      2320 9.24000E+01 4.35050E+01 0.00000E+00
 -1      2321 9.01500E+01 4.22060E+01 0.00000E+00
 -1      2322 9.39000E+01 4.35050E+01 0.00000E+00
 -1      2323 9.54000E+01 4.35050E+01 0.00000E+00
 -1      2324 9.31500E+01 4.22060E+01 0.00000E+00
 -1      2325 9.69000E+01 4.35050E+01 0.00000E+00
 -1      2326 9.84000E+01 4.35050E+01 0.00000E+00
 -1      2327 9.61500E+01 4.22060E+01 0.00000E+00
 -1      2328 9.99000E+01 4.35050E+01 0.00000E+00
 -1      2329 1.01400E+02 4.35050E+01 0.00000E+00
 -1      2330 9.91500E+01 4.22060E+01 0.00000E+00
 -1      2331 1.02900E+02 4.35050E+01 0.00000E+00
 -1      2332 1.04400E+02 4.35050E+01 0.00000E+00
 -1      2333 1.02150E+02 4.22060E+01 0.00000E+00
 -1      2334 1.05900E+02 4.35050E+01 0.00000E+00
 -1      2335 1.07400E+02 4.35050E+01 0.00000E+00
 -1      2336 1.05150E+02 4.22060E+01 0.00000E+00
 -1      2337 1.08900E+02 4.35050E+01 0.00000E+00
 -1      2338 1.10400E+02 4.35050E+01 0.00000E+00
 -1      2339 1.08150E+02 4.22060E+01 0.00000E+00
 -1      2340 1.11900E+02 4.35050E+01 0.00000E+00
 -1      2341 1.13400E+02 4.35050E+01 0.00000E+00
 -1      2342 1.11150E+02 4.22060E+01 0.00000E+00
 -1      2343 1.14900E+02 4.35050E+01 0.00000E+00
 -1      2344 1.16400E+02 4.35050E+01 0.00000E+00
 -1      2345 1.14150E+02 4.22060E+01 0.00000E+00
 -1      2346 1.17900E+02 4.35050E+01 0.00000E+00
 -1      2347 1.19400E+02 4.35050E+01 0.00000E+00
 -1      2348 1.17150E+02 4.22060E+01 0.00000E+00
 -1      2349 1.20900E+02 4.35050E+01 0.00000E+00
 -1      2350 1.22400E+02 4.35050E+01 0.00000E+00
 -1      2351 1.20150E+02 4.22060E+01 0.00000E+00
 -1      2352 1.23900E+02 4.35050E+01 0.00000E+00
 -1      2353 1.25400E+02 4.35050E+01 0.00000E+00
 -1      2354 1.23150E+02 4.22060E+01 0.00000E+00
 -1      2355 1.26900E+02 4.35050E+01 0.00000E+00
 -1      2356 1.28400E+02 4.35050E+01 0.00000E+00
 -1      2357 1.26150E+02 4.22060E+01 0.00000E+00
 -1      2358 1.29900E+02 4.35050E+01 0.00000E+00
 -1      2359 1.31400E+02 4.35050E+01 0.00000E+00
 -1      2360 1.29150E+02 4.22060E+01 0.00000E+00
 -1      2361 1.32900E+02 4.35050E+01 0.00000E+00
 -1      2362 1.34400E+02 4.35050E+01 0.00000E+00
 -1      2363 1.32150E+02 4.22060E+01 0.00000E+00
 -1      2364 1.35900E+02 4.35050E+01 0.00000E+00
 -1      2365 1.37400E+02 4.35050E+01 0.00000E+00
 -1      2366 1.35150E+02 4.22060E+01 0.00000E+00
 -1      2367 1.38900E+02 4.35050E+01 0.00000E+00
 -1      2368 1.40400E+02 4.35050E+01 0.00000E+00
 -1      2369 1.38150E+02 4.22060E+01 0.00000E+00
 -1      2370 1.97850E+01 5.30525E+00 0.00000E+00
 -1      2371 1.82850E+01 5.30525E+00 0.00000E+00
 -1      2372 2.27850E+01 5.30525E+00 0.00000E+00
 -1      2373 2.12850E+01 5.30525E+00 0.00000E+00
 -1      2374 2.05350E+01 6.60425E+00 0.00000E+00
 -1      2375 2.57850E+01 5.30525E+00 0.00000E+00
 -1      2376 2.42850E+01 5.30525E+00 0.00000E+00
 -1      2377 2.35350E+01 6.60425E+00 0.00000E+00
 -1      2378 2.87850E+01 5.30525E+00 0.00000E+00
 -1      2379 2.72850E+01 5.30525E+00 0.00000E+00
 -1      2380 2.65350E+01 6.60425E+00 0.00000E+00
 -1      2381 3.17850E+01 5.30525E+00 0.00000E+00
 -1      2382 3.02850E+01 5.30525E+00 0.00000E+00
 -1      2383 2.95350E+01 6.60425E+00 0.00000E+00
 -1      2384 3.47850E+01 5.30525E+00 0.00000E+00
 -1      2385 3.32850E+01 5.30525E+00 0.00000E+00
 -1      2386 3.25350E+01 6.60425E+00 0.00000E+00
 -1      2387 3.77850E+01 5.30525E+00 0.00000E+00
 -1      2388 3.62850E+01 5.30525E+00 0.00000E+00
 -1      2389 3.55350E+01 6.60425E+00 0.00000E+00
 -1      2390 4.07850E+01 5.30525E+00 0.00000E+00
 -1      2391 3.92850E+01 5.30525E+00 0.00000E+00
 -1      2392 3.85350E+01 6.60425E+00 0.00000E+00
 -1      2393 4.37850E+01 5.30525E+00 0.00000E+00
 -1      2394 4.22850E+01 5.30525E+00 0.00000E+00
 -1      2395 4.15350E+01 6.60425E+00 0.00000E+00
 -1      2396 4.67850E+01 5.30525E+00 0.00000E+00
 -1      2397 4.52850E+01 5.30525E+00 0.00000E+00
 -1      2398 4.45350E+01 6.60425E+00 0.00000E+00
 -1      2399 4.97850E+01 5.30525E+00 0.00000E+00
 -1      2400 4.82850E+01 5.30525E+00 0.00000E+00
 -1      2401 4.75350E+01 6.60425E+00 0.00000E+00
 -1      2402 5.27850E+01 5.30525E+00 0.00000E+00
 -1      2403 5.12850E+01 5.30525E+00 0.00000E+00
 -1      2404 5.05350E+01 6.60425E+00 0.00000E+00
 -1      2405 5.57850E+01 5.30525E+00 0.00000E+00
 -1      2406 5.42850E+01 5.30525E+00 0.00000E+00
 -1      2407 5.35350E+01 6.60425E+00 0.00000E+00
 -1      2408 5.87850E+01 5.30525E+00 0.00000E+00
 -1      2409 5.72850E+01 5.30525E+00 0.00000E+00
 -1      2410 5.65350E+01 6.60425E+00 0.00000E+00
 -1      2411 6.17850E+01 5.30525E+00 0.00000E+00
 -1      2412 6.02850E+01 5.30525E+00 0.00000E+00
 -1      2413 5.95350E+01 6.60425E+00 0.00000E+00
 -1      2414 6.47850E+01 5.30525E+00 0.00000E+00
 -1      2415 6.32850E+01 5.30525E+00 0.00000E+00
 -1      2416 6.25350E+01 6.60425E+00 0.00000E+00
 -1      2417 6.77850E+01 5.30525E+00 0.00000E+00
 -1      2418 6.62850E+01 5.30525E+00 0.00000E+00
 -1      2419 6.55350E+01 6.60425E+00 0.00000E+00
 -1      2420 7.07850E+01 5.30525E+00 0.00000E+00
 -1      2421 6.92850E+01 5.30525E+00 0.00000E+00
 -1      2422 6.85350E+01 6.60425E+00 0.00000E+00
 -1      2423 7.37850E+01 5.30525E+00 0.00000E+00
 -1      2424 7.22850E+01 5.30525E+00 0.00000E+00
 -1      2425 7.15350E+01 6.60425E+00 0.00000E+00
 -1      2426 7.67850E+01 5.30525E+00 0.00000E+00
 -1      2427 7.52850E+01 5.30525E+00 0.00000E+00
 -1      2428 7.45350E+01 6.60425E+00 0.00000E+00
 -1      2429 7.97850E+01 5.30525E+00 0.00000E+00
 -1      2430 7.82850E+01 5.30525E+00 0.00000E+00
 -1      2431 7.75350E+01 6.60425E+00 0.00000E+00
 -1      2432 8.27850E+01 5.30525E+00 0.00000E+00
 -1      2433 8.12850E+01 5.30525E+00 0.00000E+00
 -1      2434 8.05350E+01 6.60425E+00 0.00000E+00
 -1      2435 8.57850E+01 5.30525E+00 0.00000E+00
 -1      2436 8.42850E+01 5.30525E+00 0.00000E+00
 -1      2437 8.35350E+01 6.60425E+00 0.00000E+00
 -1      2438 8.87850E+01 5.30525E+00 0.00000E+00
 -1      2439 8.72850E+01 5.30525E+00 0.00000E+00
 -1      2440 8.65350E+01 6.60425E+00 0.00000E+00
 -1      2441 9.17850E+01 5.30525E+00 0.00000E+00
 -1      2442 9.02850E+01 5.30525E+00 0.00000E+00
 -1      2443 8.95350E+01 6.60425E+00 0.00000E+00
 -1      2444 9.47850E+01 5.30525E+00 0.00000E+00
 -1      2445 9.32850E+01 5.30525E+00 0.00000E+00
 -1      2446 9.25350E+01 6.60425E+00 0.00000E+00
 -1      2447 9.77850E+01 5.30525E+00 0.00000E+00
 -1      2448 9.62850E+01 5.30525E+00 0.00000E+00
 -1      2449 9.55350E+01 6.60425E+00 0.00000E+00
 -1      2450 1.00785E+02 5.30525E+00 0.00000E+00
 -1      2451 9.92850E+01 5.30525E+00 0.00000E+00
 -1      2452 9.85350E+01 6.60425E+00 0.00000E+00
 -1      2453 1.03785E+02 5.30525E+00 0.00000E+00
 -1      2454 1.02285E+02 5.30525E+00 0.00000E+00
 -1      2455 1.01535E+02 6.60425E+00 0.00000E+00
 -1      2456 1.06785E+02 5.30525E+00 0.00000E+00
 -1      2457 1.05285E+02 5.30525E+00 0.00000E+00
 -1      2458 1.04535E+02 6.60425E+00 0.00000E+00
 -1      2459 1.09785E+02 5.30525E+00 0.00000E+00
 -1      2460 1.08285E+02 5.30525E+00 0.00000E+00
 -1      2461 1.07535E+02 6.60425E+00 0.00000E+00
 -1      2462 1.12785E+02 5.30525E+00 0.00000E+00
 -1      2463 1.11285E+02 5.30525E+00 0.00000E+00
 -1      2464 1.10535E+02 6.60425E+00 0.00000E+00
 -1      2465 1.15785E+02 5.30525E+00 0.00000E+00
 -1      2466 1.14285E+02 5.30525E+00 0.00000E+00
 -1      2467 1.13535E+02 6.60425E+00 0.00000E+00
 -1      2468 1.18785E+02 5.30525E+00 0.00000E+00
 -1      2469 1.17285E+02 5.30525E+00 0.00000E+00
 -1      2470 1.16535E+02 6.60425E+00 0.00000E+00
 -1      2471 1.21785E+02 5.30525E+00 0.00000E+00
 -1      2472 1.20285E+02 5.30525E+00 0.00000E+00
 -1      2473 1.19535E+02 6.60425E+00 0.00000E+00
 -1      2474 1.24785E+02 5.30525E+00 0.00000E+00
 -1      2475 1.23285E+02 5.30525E+00 0.00000E+00
 -1      2476 1.22535E+02 6.60425E+00 0.00000E+00
 -1      2477 1.27785E+02 5.30525E+00 0.00000E+00
 -1      2478 1.26285E+02 5.30525E+00 0.00000E+00
 -1      2479 1.25535E+02 6.60425E+00 0.00000E+00
 -1      2480 1.30785E+02 5.30525E+00 0.00000E+00
 -1      2481 1.29285E+02 5.30525E+00 0.00000E+00
 -1      2482 1.28535E+02 6.60425E+00 0.00000E+00
 -1      2483 1.33785E+02 5.30525E+00 0.00000E+00
 -1      2484 1.32285E+02 5.30525E+00 0.00000E+00
 -1      2485 1.31535E+02 6.60425E+00 0.00000E+00
 -1      2486 1.36785E+02 5.30525E+00 0.00000E+00
 -1      2487 1.35285E+02 5.30525E+00 0.00000E+00
 -1      2488 1.34535E+02 6.60425E+00 0.00000E+00
 -1      2489 1.39785E+02 5.30525E+00 0.00000E+00
 -1      2490 1.38285E+02 5.30525E+00 0.00000E+00
 -1      2491 1.37535E+02 6.60425E+00 0.00000E+00
 -1      2492 1.42785E+02 5.30525E+00 0.00000E+00
 -1      2493 1.41285E+02 5.30525E+00 0.00000E+00
 -1      2494 1.40535E+02 6.60425E+00 0.00000E+00
 -1      2495 1.44336E+02 5.26953E+00 0.00000E+00
 -1      2496 1.43505E+02 1.69125E+01 0.00000E+00
 -1      2497 1.43505E+02 1.54375E+01 0.00000E+00
 -1      2498 1.43505E+02 1.98625E+01 0.00000E+00
 -1      2499 1.43505E+02 1.83875E+01 0.00000E+00
 -1      2500 1.42206E+02 1.76500E+01 0.00000E+00
 -1      2501 1.43505E+02 1.10625E+01 0.00000E+00
 -1      2502 1.43505E+02 9.58750E+00 0.00000E+00
 -1      2503 1.43505E+02 1.39750E+01 0.00000E+00
 -1      2504 1.43505E+02 1.25250E+01 0.00000E+00
 -1      2505 1.42206E+02 1.17875E+01 0.00000E+00
 -1      2506 1.42206E+02 1.47125E+01 0.00000E+00
 -1      2507 3.76043E+01 2.01943E+01 0.00000E+00
 -1      2508 3.80395E+01 2.10080E+01 0.00000E+00
 -1      2509 1.43505E+02 2.28125E+01 0.00000E+00
 -1      2510 1.43505E+02 2.13375E+01 0.00000E+00
 -1      2511 1.42206E+02 2.06000E+01 0.00000E+00
 -1      2512 1.43505E+02 2.57625E+01 0.00000E+00
 -1      2513 1.43505E+02 2.42875E+01 0.00000E+00
 -1      2514 1.42206E+02 2.35500E+01 0.00000E+00
 -1      2515 1.43505E+02 2.87125E+01 0.00000E+00
 -1      2516 1.43505E+02 2.72375E+01 0.00000E+00
 -1      2517 1.42206E+02 2.65000E+01 0.00000E+00
 -1      2518 1.43505E+02 3.16125E+01 0.00000E+00
 -1      2519 1.43505E+02 3.01625E+01 0.00000E+00
 -1      2520 1.42206E+02 2.94250E+01 0.00000E+00
 -1      2521 1.43505E+02 3.45625E+01 0.00000E+00
 -1      2522 1.43505E+02 3.30875E+01 0.00000E+00
 -1      2523 1.42206E+02 3.23500E+01 0.00000E+00
 -1      2524 1.43505E+02 3.75125E+01 0.00000E+00
 -1      2525 1.43505E+02 3.60375E+01 0.00000E+00
 -1      2526 1.42206E+02 3.53000E+01 0.00000E+00
 -1      2527 1.43505E+02 4.04625E+01 0.00000E+00
 -1      2528 1.43505E+02 3.89875E+01 0.00000E+00
 -1      2529 1.42206E+02 3.82500E+01 0.00000E+00
 -1      2530 1.44321E+02 4.30606E+01 0.00000E+00
 -1      2531 3.60175E+01 1.81895E+01 0.00000E+00
 -1      2532 3.68797E+01 1.90906E+01 0.00000E+00
 -1      2533 1.67850E+01 5.30525E+00 0.00000E+00
 -1      2534 1.52850E+01 5.30525E+00 0.00000E+00
 -1      2535 1.75350E+01 6.60425E+00 0.00000E+00
 -1      2536 3.88627E+01 2.43006E+01 0.00000E+00
 -1      2537 3.89905E+01 2.51269E+01 0.00000E+00
 -1      2538 3.90192E+01 2.62839E+01 0.00000E+00
 -1      2539 3.89340E+01 2.73760E+01 0.00000E+00
 -1      2540 6.55950E+00 4.28890E+01 0.00000E+00
 -1      2541 8.53650E+00 4.32410E+01 0.00000E+00
 -1      2542 9.28650E+00 4.19420E+01 0.00000E+00
 -1      2543 6.55950E+00 4.14140E+01 0.00000E+00
 -1      2544 3.53614E+01 3.35168E+01 0.00000E+00
 -1      2545 3.46048E+01 3.41790E+01 0.00000E+00
 -1      2546 2.55825E+01 3.62186E+01 0.00000E+00
 -1      2547 2.44158E+01 3.58470E+01 0.00000E+00
 -1      2548 2.15562E+01 3.38370E+01 0.00000E+00
 -1      2549 2.07609E+01 3.29690E+01 0.00000E+00
 -1      2550 6.49500E+00 2.71625E+01 0.00000E+00
 -1      2551 6.49500E+00 2.86375E+01 0.00000E+00
 -1      2552 7.79400E+00 2.93750E+01 0.00000E+00
 -1      2553 7.79400E+00 2.64250E+01 0.00000E+00
 -1      2554 2.78620E+01 1.52791E+01 0.00000E+00
 -1      2555 2.88906E+01 1.54427E+01 0.00000E+00
 -1      2556 2.79448E+01 3.62695E+01 0.00000E+00
 -1      2557 2.69426E+01 3.62235E+01 0.00000E+00
 -1      2558 3.22035E+01 1.59169E+01 0.00000E+00
 -1      2559 3.30709E+01 1.64422E+01 0.00000E+00
 -1      2560 2.99117E+01 1.54922E+01 0.00000E+00
 -1      2561 3.09328E+01 1.55418E+01 0.00000E+00
 -1      2562 2.95190E+01 1.46463E+01 0.00000E+00
 -1      2563 2.33415E+01 1.66883E+01 0.00000E+00
 -1      2564 2.42597E+01 1.62912E+01 0.00000E+00
 -1      2565 2.00779E+01 2.00278E+01 0.00000E+00
 -1      2566 2.05654E+01 1.92798E+01 0.00000E+00
 -1      2567 1.90699E+01 2.16803E+01 0.00000E+00
 -1      2568 1.95692E+01 2.08442E+01 0.00000E+00
 -1      2569 1.79380E+01 2.35433E+01 0.00000E+00
 -1      2570 1.83073E+01 2.25845E+01 0.00000E+00
 -1      2571 1.79513E+01 2.59686E+01 0.00000E+00
 -1      2572 1.78865E+01 2.49535E+01 0.00000E+00
 -1      2573 1.84559E+01 2.81896E+01 0.00000E+00
 -1      2574 1.81853E+01 2.71475E+01 0.00000E+00
 -1      2575 1.91010E+01 3.01646E+01 0.00000E+00
 -1      2576 1.87540E+01 2.92642E+01 0.00000E+00
 -1      2577 2.00897E+01 3.19206E+01 0.00000E+00
 -1      2578 1.96293E+01 3.10959E+01 0.00000E+00
 -1      2579 2.32931E+01 3.51594E+01 0.00000E+00
 -1      2580 2.25145E+01 3.46630E+01 0.00000E+00
 -1      2581 3.66638E+01 3.20798E+01 0.00000E+00
 -1      2582 3.60174E+01 3.27307E+01 0.00000E+00
 -1      2583 2.98233E+01 3.63293E+01 0.00000E+00
 -1      2584 2.89921E+01 3.64138E+01 0.00000E+00
 -1      2585 3.20432E+01 3.57160E+01 0.00000E+00
 -1      2586 3.09290E+01 3.60235E+01 0.00000E+00
 -1      2587 3.39601E+01 3.46144E+01 0.00000E+00
 -1      2588 3.33153E+01 3.50497E+01 0.00000E+00
 -1      2589 3.49032E+01 3.49286E+01 0.00000E+00
 -1      2590 3.77666E+01 3.05322E+01 0.00000E+00
 -1      2591 3.74145E+01 3.12538E+01 0.00000E+00
 -1      2592 3.39938E+01 1.69179E+01 0.00000E+00
 -1      2593 3.49168E+01 1.73935E+01 0.00000E+00
 -1      2594 3.40044E+01 1.59217E+01 0.00000E+00
 -1      2595 3.86311E+01 2.85921E+01 0.00000E+00
 -1      2596 3.81988E+01 2.95621E+01 0.00000E+00
 -1      2597 3.87935E+01 3.02990E+01 0.00000E+00
 -1      2598 8.07525E+00 5.11044E+00 0.00000E+00
 -1      2599 6.57525E+00 5.11044E+00 0.00000E+00
 -1      2600 6.40575E+00 6.01981E+00 0.00000E+00
 -1      2601 8.82525E+00 6.40944E+00 0.00000E+00
 -1      2602 3.84122E+01 2.21014E+01 0.00000E+00
 -1      2603 3.86375E+01 2.32010E+01 0.00000E+00
 -1      2604 3.95488E+01 2.34831E+01 0.00000E+00
 -1      2605 2.45483E+01 1.53973E+01 0.00000E+00
 -1      2606 7.79400E+00 3.52687E+01 0.00000E+00
 -1      2607 6.49500E+00 3.60062E+01 0.00000E+00
 -1      2608 6.49500E+00 3.74750E+01 0.00000E+00
 -1      2609 1.45350E+01 6.60425E+00 0.00000E+00
 -1      2610 6.40575E+00 7.49481E+00 0.00000E+00
 -1      2611 3.89509E+01 2.12901E+01 0.00000E+00
 -1      2612 3.29863E+01 3.60301E+01 0.00000E+00
 -1      2613 3.26573E+01 3.70106E+01 0.00000E+00
 -1      2614 3.39294E+01 3.63443E+01 0.00000E+00
 -1      2615 3.62039E+01 3.37071E+01 0.00000E+00
 -1      2616 2.62390E+01 1.43326E+01 0.00000E+00
 -1      2617 2.70505E+01 1.48059E+01 0.00000E+00
 -1      2618 2.76863E+01 1.41235E+01 0.00000E+00
 -1      2619 3.06085E+01 3.70022E+01 0.00000E+00
 -1      2620 3.76106E+01 3.20950E+01 0.00000E+00
 -1      2621 3.78534E+01 1.90930E+01 0.00000E+00
 -1      2622 2.35655E+01 3.63219E+01 0.00000E+00
 -1      2623 1.43586E+02 6.56853E+00 0.00000E+00
 -1      2624 1.43419E+02 7.72713E+00 0.00000E+00
 -1      2625 1.42758E+02 4.35929E+01 0.00000E+00
 -1      2626 1.43241E+02 4.17323E+01 0.00000E+00
 -1      2627 1.41942E+02 4.09948E+01 0.00000E+00
 -1      2628 1.41414E+02 4.35342E+01 0.00000E+00
 -1      2629 3.60281E+01 1.71933E+01 0.00000E+00
 -1      2630 1.98551E+01 3.29339E+01 0.00000E+00
 -1      2631 1.86556E+01 3.09541E+01 0.00000E+00
 -1      2632 7.70475E+00 8.23231E+00 0.00000E+00
 -1      2633 1.78292E+01 2.89482E+01 0.00000E+00
 -1      2634 3.95287E+01 2.81128E+01 0.00000E+00
 -1      2635 1.72971E+01 2.66946E+01 0.00000E+00
 -1      2636 2.60482E+01 3.70145E+01 0.00000E+00
 -1      2637 1.71146E+01 2.41056E+01 0.00000E+00
 -1      2638 1.79286E+01 2.17912E+01 0.00000E+00
 -1      2639 1.91999E+01 2.00706E+01 0.00000E+00
 -1      2640 3.18108E+01 1.50709E+01 0.00000E+00
 -1      2641 2.14846E+01 3.48083E+01 0.00000E+00
 -1      2642 6.55950E+00 3.99453E+01 0.00000E+00
 -1      2643 3.98028E+01 2.57397E+01 0.00000E+00
 -1      2644 2.06525E+01 1.84470E+01 0.00000E+00
 -1      2645 2.07397E+01 1.76143E+01 0.00000E+00
 -1      2646 1.97956E+01 1.84214E+01 0.00000E+00
 -1      2647 2.84555E+01 3.71638E+01 0.00000E+00
 -1      2648 2.25450E+01 1.67097E+01 0.00000E+00
 -1      2649 2.26970E+01 1.58010E+01 0.00000E+00
 -1      2650 2.17486E+01 1.67312E+01 0.00000E+00
 -1      2651 1.42120E+02 8.46463E+00 0.00000E+00
 -1      2652 1.40664E+02 4.22352E+01 0.00000E+00
 -1      2653 9.09300E+00 1.98250E+01 0.00000E+00
 -1      2654 9.09300E+00 2.12750E+01 0.00000E+00
 -1      2655 9.09300E+00 2.27500E+01 0.00000E+00
 -1      2656 9.09300E+00 2.42250E+01 0.00000E+00
 -1      2657 1.03920E+01 2.20250E+01 0.00000E+00
 -1      2658 9.09300E+00 1.39375E+01 0.00000E+00
 -1      2659 9.09300E+00 1.54125E+01 0.00000E+00
 -1      2660 9.09300E+00 1.09875E+01 0.00000E+00
 -1      2661 9.09300E+00 1.24625E+01 0.00000E+00
 -1      2662 1.03920E+01 1.32000E+01 0.00000E+00
 -1      2663 1.22850E+01 7.90325E+00 0.00000E+00
 -1      2664 1.07850E+01 7.90325E+00 0.00000E+00
 -1      2665 1.70712E+01 2.97371E+01 0.00000E+00
 -1      2666 1.67731E+01 2.86625E+01 0.00000E+00
 -1      2667 1.52850E+01 7.90325E+00 0.00000E+00
 -1      2668 1.37850E+01 7.90325E+00 0.00000E+00
 -1      2669 1.30350E+01 9.20225E+00 0.00000E+00
 -1      2670 3.57523E+01 3.54910E+01 0.00000E+00
 -1      2671 3.51076E+01 3.59264E+01 0.00000E+00
 -1      2672 1.44000E+01 4.09070E+01 0.00000E+00
 -1      2673 1.59000E+01 4.09070E+01 0.00000E+00
 -1      2674 1.74000E+01 4.09070E+01 0.00000E+00
 -1      2675 1.89000E+01 4.09070E+01 0.00000E+00
 -1      2676 1.66500E+01 3.96080E+01 0.00000E+00
 -1      2677 2.04000E+01 4.09070E+01 0.00000E+00
 -1      2678 2.19000E+01 4.09070E+01 0.00000E+00
 -1      2679 1.96500E+01 3.96080E+01 0.00000E+00
 -1      2680 2.64000E+01 4.09070E+01 0.00000E+00
 -1      2681 2.79000E+01 4.09070E+01 0.00000E+00
 -1      2682 2.90764E+01 3.97570E+01 0.00000E+00
 -1      2683 3.05764E+01 3.97570E+01 0.00000E+00
 -1      2684 3.26252E+01 3.97654E+01 0.00000E+00
 -1      2685 3.41252E+01 3.97654E+01 0.00000E+00
 -1      2686 3.84000E+01 4.09070E+01 0.00000E+00
 -1      2687 3.99000E+01 4.09070E+01 0.00000E+00
 -1      2688 4.14000E+01 4.09070E+01 0.00000E+00
 -1      2689 4.29000E+01 4.09070E+01 0.00000E+00
 -1      2690 4.06500E+01 3.96080E+01 0.00000E+00
 -1      2691 4.44000E+01 4.09070E+01 0.00000E+00
 -1      2692 4.59000E+01 4.09070E+01 0.00000E+00
 -1      2693 4.36500E+01 3.96080E+01 0.00000E+00
 -1      2694 4.74000E+01 4.09070E+01 0.00000E+00
 -1      2695 4.89000E+01 4.09070E+01 0.00000E+00
 -1      2696 4.66500E+01 3.96080E+01 0.00000E+00
 -1      2697 5.04000E+01 4.09070E+01 0.00000E+00
 -1      2698 5.19000E+01 4.09070E+01 0.00000E+00
 -1      2699 4.96500E+01 3.96080E+01 0.00000E+00
 -1      2700 5.34000E+01 4.09070E+01 0.00000E+00
 -1      2701 5.49000E+01 4.09070E+01 0.00000E+00
 -1      2702 5.26500E+01 3.96080E+01 0.00000E+00
 -1      2703 5.64000E+01 4.09070E+01 0.00000E+00
 -1      2704 5.79000E+01 4.09070E+01 0.00000E+00
 -1      2705 5.56500E+01 3.96080E+01 0.00000E+00
 -1      2706 5.94000E+01 4.09070E+01 0.00000E+00
 -1      2707 6.09000E+01 4.09070E+01 0.00000E+00
 -1      2708 5.86500E+01 3.96080E+01 0.00000E+00
 -1      2709 6.24000E+01 4.09070E+01 0.00000E+00
 -1      2710 6.39000E+01 4.09070E+01 0.00000E+00
 -1      2711 6.16500E+01 3.96080E+01 0.00000E+00
 -1      2712 6.54000E+01 4.09070E+01 0.00000E+00
 -1      2713 6.69000E+01 4.09070E+01 0.00000E+00
 -1      2714 6.46500E+01 3.96080E+01 0.00000E+00
 -1      2715 6.84000E+01 4.09070E+01 0.00000E+00
 -1      2716 6.99000E+01 4.09070E+01 0.00000E+00
 -1      2717 6.76500E+01 3.96080E+01 0.00000E+00
 -1      2718 7.14000E+01 4.09070E+01 0.00000E+00
 -1      2719 7.29000E+01 4.09070E+01 0.00000E+00
 -1      2720 7.06500E+01 3.96080E+01 0.00000E+00
 -1      2721 7.44000E+01 4.09070E+01 0.00000E+00
 -1      2722 7.59000E+01 4.09070E+01 0.00000E+00
 -1      2723 7.36500E+01 3.96080E+01 0.00000E+00
 -1      2724 7.74000E+01 4.09070E+01 0.00000E+00
 -1      2725 7.89000E+01 4.09070E+01 0.00000E+00
 -1      2726 7.66500E+01 3.96080E+01 0.00000E+00
 -1      2727 8.04000E+01 4.09070E+01 0.00000E+00
 -1      2728 8.19000E+01 4.09070E+01 0.00000E+00
 -1      2729 7.96500E+01 3.96080E+01 0.00000E+00
 -1      2730 8.34000E+01 4.09070E+01 0.00000E+00
 -1      2731 8.49000E+01 4.09070E+01 0.00000E+00
 -1      2732 8.26500E+01 3.96080E+01 0.00000E+00
 -1      2733 8.64000E+01 4.09070E+01 0.00000E+00
 -1      2734 8.79000E+01 4.09070E+01 0.00000E+00
 -1      2735 8.56500E+01 3.96080E+01 0.00000E+00
 -1      2736 8.94000E+01 4.09070E+01 0.00000E+00
 -1      2737 9.09000E+01 4.09070E+01 0.00000E+00
 -1      2738 8.86500E+01 3.96080E+01 0.00000E+00
 -1      2739 9.24000E+01 4.09070E+01 0.00000E+00
 -1      2740 9.39000E+01 4.09070E+01 0.00000E+00
 -1      2741 9.16500E+01 3.96080E+01 0.00000E+00
 -1      2742 9.54000E+01 4.09070E+01 0.00000E+00
 -1      2743 9.69000E+01 4.09070E+01 0.00000E+00
 -1      2744 9.46500E+01 3.96080E+01 0.00000E+00
 -1      2745 9.84000E+01 4.09070E+01 0.00000E+00
 -1      2746 9.99000E+01 4.09070E+01 0.00000E+00
 -1      2747 9.76500E+01 3.96080E+01 0.00000E+00
 -1      2748 1.01400E+02 4.09070E+01 0.00000E+00
 -1      2749 1.02900E+02 4.09070E+01 0.00000E+00
 -1      2750 1.00650E+02 3.96080E+01 0.00000E+00
 -1      2751 1.04400E+02 4.09070E+01 0.00000E+00
 -1      2752 1.05900E+02 4.09070E+01 0.00000E+00
 -1      2753 1.03650E+02 3.96080E+01 0.00000E+00
 -1      2754 1.07400E+02 4.09070E+01 0.00000E+00
 -1      2755 1.08900E+02 4.09070E+01 0.00000E+00
 -1      2756 1.06650E+02 3.96080E+01 0.00000E+00
 -1      2757 1.10400E+02 4.09070E+01 0.00000E+00
 -1      2758 1.11900E+02 4.09070E+01 0.00000E+00
 -1      2759 1.09650E+02 3.96080E+01 0.00000E+00
 -1      2760 1.13400E+02 4.09070E+01 0.00000E+00
 -1      2761 1.14900E+02 4.09070E+01 0.00000E+00
 -1      2762 1.12650E+02 3.96080E+01 0.00000E+00
 -1      2763 1.16400E+02 4.09070E+01 0.00000E+00
 -1      2764 1.17900E+02 4.09070E+01 0.00000E+00
 -1      2765 1.15650E+02 3.96080E+01 0.00000E+00
 -1      2766 1.19400E+02 4.09070E+01 0.00000E+00
 -1      2767 1.20900E+02 4.09070E+01 0.00000E+00
 -1      2768 1.18650E+02 3.96080E+01 0.00000E+00
 -1      2769 1.22400E+02 4.09070E+01 0.00000E+00
 -1      2770 1.23900E+02 4.09070E+01 0.00000E+00
 -1      2771 1.21650E+02 3.96080E+01 0.00000E+00
 -1      2772 1.25400E+02 4.09070E+01 0.00000E+00
 -1      2773 1.26900E+02 4.09070E+01 0.00000E+00
 -1      2774 1.24650E+02 3.96080E+01 0.00000E+00
 -1      2775 1.28400E+02 4.09070E+01 0.00000E+00
 -1      2776 1.29900E+02 4.09070E+01 0.00000E+00
 -1      2777 1.27650E+02 3.96080E+01 0.00000E+00
 -1      2778 1.31400E+02 4.09070E+01 0.00000E+00
 -1      2779 1.32900E+02 4.09070E+01 0.00000E+00
 -1      2780 1.30650E+02 3.96080E+01 0.00000E+00
 -1      2781 1.34400E+02 4.09070E+01 0.00000E+00
 -1      2782 1.35900E+02 4.09070E+01 0.00000E+00
 -1      2783 1.33650E+02 3.96080E+01 0.00000E+00
 -1      2784 1.37400E+02 4.09070E+01 0.00000E+00
 -1      2785 1.38900E+02 4.09070E+01 0.00000E+00
 -1      2786 1.36650E+02 3.96080E+01 0.00000E+00
 -1      2787 2.42850E+01 7.90325E+00 0.00000E+00
 -1      2788 2.27850E+01 7.90325E+00 0.00000E+00
 -1      2789 3.60294E+01 1.60325E+01 0.00000E+00
 -1      2790 3.71300E+01 1.68285E+01 0.00000E+00
 -1      2791 2.12850E+01 7.90325E+00 0.00000E+00
 -1      2792 1.97850E+01 7.90325E+00 0.00000E+00
 -1      2793 2.20350E+01 9.20225E+00 0.00000E+00
 -1      2794 3.02850E+01 7.90325E+00 0.00000E+00
 -1      2795 2.87850E+01 7.90325E+00 0.00000E+00
 -1      2796 3.32850E+01 7.90325E+00 0.00000E+00
 -1      2797 3.17850E+01 7.90325E+00 0.00000E+00
 -1      2798 3.10350E+01 9.20225E+00 0.00000E+00
 -1      2799 3.62850E+01 7.90325E+00 0.00000E+00
 -1      2800 3.47850E+01 7.90325E+00 0.00000E+00
 -1      2801 3.40350E+01 9.20225E+00 0.00000E+00
 -1      2802 3.92850E+01 7.90325E+00 0.00000E+00
 -1      2803 3.77850E+01 7.90325E+00 0.00000E+00
 -1      2804 3.70350E+01 9.20225E+00 0.00000E+00
 -1      2805 4.22850E+01 7.90325E+00 0.00000E+00
 -1      2806 4.07850E+01 7.90325E+00 0.00000E+00
 -1      2807 4.00350E+01 9.20225E+00 0.00000E+00
 -1      2808 4.52850E+01 7.90325E+00 0.00000E+00
 -1      2809 4.37850E+01 7.90325E+00 0.00000E+00
 -1      2810 4.30350E+01 9.20225E+00 0.00000E+00
 -1      2811 4.82850E+01 7.90325E+00 0.00000E+00
 -1      2812 4.67850E+01 7.90325E+00 0.00000E+00
 -1      2813 4.60350E+01 9.20225E+00 0.00000E+00
 -1      2814 5.12850E+01 7.90325E+00 0.00000E+00
 -1      2815 4.97850E+01 7.90325E+00 0.00000E+00
 -1      2816 4.90350E+01 9.20225E+00 0.00000E+00
 -1      2817 5.42850E+01 7.90325E+00 0.00000E+00
 -1      2818 5.27850E+01 7.90325E+00 0.00000E+00
 -1      2819 5.20350E+01 9.20225E+00 0.00000E+00
 -1      2820 5.72850E+01 7.90325E+00 0.00000E+00
 -1      2821 5.57850E+01 7.90325E+00 0.00000E+00
 -1      2822 5.50350E+01 9.20225E+00 0.00000E+00
 -1      2823 6.02850E+01 7.90325E+00 0.00000E+00
 -1      2824 5.87850E+01 7.90325E+00 0.00000E+00
 -1      2825 5.80350E+01 9.20225E+00 0.00000E+00
 -1      2826 6.32850E+01 7.90325E+00 0.00000E+00
 -1      2827 6.17850E+01 7.90325E+00 0.00000E+00
 -1      2828 6.10350E+01 9.20225E+00 0.00000E+00
 -1      2829 6.62850E+01 7.90325E+00 0.00000E+00
 -1      2830 6.47850E+01 7.90325E+00 0.00000E+00
 -1      2831 6.40350E+01 9.20225E+00 0.00000E+00
 -1      2832 6.92850E+01 7.90325E+00 0.00000E+00
 -1      2833 6.77850E+01 7.90325E+00 0.00000E+00
 -1      2834 6.70350E+01 9.20225E+00 0.00000E+00
 -1      2835 7.22850E+01 7.90325E+00 0.00000E+00
 -1      2836 7.07850E+01 7.90325E+00 0.00000E+00
 -1      2837 7.00350E+01 9.20225E+00 0.00000E+00
 -1      2838 7.52850E+01 7.90325E+00 0.00000E+00
 -1      2839 7.37850E+01 7.90325E+00 0.00000E+00
 -1      2840 7.30350E+01 9.20225E+00 0.00000E+00
 -1      2841 7.82850E+01 7.90325E+00 0.00000E+00
 -1      2842 7.67850E+01 7.90325E+00 0.00000E+00
 -1      2843 7.60350E+01 9.20225E+00 0.00000E+00
 -1      2844 8.12850E+01 7.90325E+00 0.00000E+00
 -1      2845 7.97850E+01 7.90325E+00 0.00000E+00
 -1      2846 7.90350E+01 9.20225E+00 0.00000E+00
 -1      2847 8.42850E+01 7.90325E+00 0.00000E+00
 -1      2848 8.27850E+01 7.90325E+00 0.00000E+00
 -1      2849 8.20350E+01 9.20225E+00 0.00000E+00
 -1      2850 8.72850E+01 7.90325E+00 0.00000E+00
 -1      2851 8.57850E+01 7.90325E+00 0.00000E+00
 -1      2852 8.50350E+01 9.20225E+00 0.00000E+00
 -1      2853 9.02850E+01 7.90325E+00 0.00000E+00
 -1      2854 8.87850E+01 7.90325E+00 0.00000E+00
 -1      2855 8.80350E+01 9.20225E+00 0.00000E+00
 -1      2856 9.32850E+01 7.90325E+00 0.00000E+00
 -1      2857 9.17850E+01 7.90325E+00 0.00000E+00
 -1      2858 9.10350E+01 9.20225E+00 0.00000E+00
 -1      2859 9.62850E+01 7.90325E+00 0.00000E+00
 -1      2860 9.47850E+01 7.90325E+00 0.00000E+00
 -1      2861 9.40350E+01 9.20225E+00 0.00000E+00
 -1      2862 9.92850E+01 7.90325E+00 0.00000E+00
 -1      2863 9.77850E+01 7.90325E+00 0.00000E+00
 -1      2864 9.70350E+01 9.20225E+00 0.00000E+00
 -1      2865 1.02285E+02 7.90325E+00 0.00000E+00
 -1      2866 1.00785E+02 7.90325E+00 0.00000E+00
 -1      2867 1.00035E+02 9.20225E+00 0.00000E+00
 -1      2868 1.05285E+02 7.90325E+00 0.00000E+00
 -1      2869 1.03785E+02 7.90325E+00 0.00000E+00
 -1      2870 1.03035E+02 9.20225E+00 0.00000E+00
 -1      2871 1.08285E+02 7.90325E+00 0.00000E+00
 -1      2872 1.06785E+02 7.90325E+00 0.00000E+00
 -1      2873 1.06035E+02 9.20225E+00 0.00000E+00
 -1      2874 1.11285E+02 7.90325E+00 0.00000E+00
 -1      2875 1.09785E+02 7.90325E+00 0.00000E+00
 -1      2876 1.09035E+02 9.20225E+00 0.00000E+00
 -1      2877 1.14285E+02 7.90325E+00 0.00000E+00
 -1      2878 1.12785E+02 7.90325E+00 0.00000E+00
 -1      2879 1.12035E+02 9.20225E+00 0.00000E+00
 -1      2880 1.17285E+02 7.90325E+00 0.00000E+00
 -1      2881 1.15785E+02 7.90325E+00 0.00000E+00
 -1      2882 1.15035E+02 9.20225E+00 0.00000E+00
 -1      2883 1.20285E+02 7.90325E+00 0.00000E+00
 -1      2884 1.18785E+02 7.90325E+00 0.00000E+00
 -1      2885 1.18035E+02 9.20225E+00 0.00000E+00
 -1      2886 1.23285E+02 7.90325E+00 0.00000E+00
 -1      2887 1.21785E+02 7.90325E+00 0.00000E+00
 -1      2888 1.21035E+02 9.20225E+00 0.00000E+00
 -1      2889 1.26285E+02 7.90325E+00 0.00000E+00
 -1      2890 1.24785E+02 7.90325E+00 0.00000E+00
 -1      2891 1.24035E+02 9.20225E+00 0.00000E+00
 -1      2892 1.29285E+02 7.90325E+00 0.00000E+00
 -1      2893 1.27785E+02 7.90325E+00 0.00000E+00
 -1      2894 1.27035E+02 9.20225E+00 0.00000E+00
 -1      2895 1.32285E+02 7.90325E+00 0.00000E+00
 -1      2896 1.30785E+02 7.90325E+00 0.00000E+00
 -1      2897 1.30035E+02 9.20225E+00 0.00000E+00
 -1      2898 1.35285E+02 7.90325E+00 0.00000E+00
 -1      2899 1.33785E+02 7.90325E+00 0.00000E+00
 -1      2900 1.33035E+02 9.20225E+00 0.00000E+00
 -1      2901 1.38285E+02 7.90325E+00 0.00000E+00
 -1      2902 1.36785E+02 7.90325E+00 0.00000E+00
 -1      2903 1.36035E+02 9.20225E+00 0.00000E+00
 -1      2904 1.40953E+02 8.18394E+00 0.00000E+00
 -1      2905 1.39453E+02 8.18394E+00 0.00000E+00
 -1      2906 1.38703E+02 9.48294E+00 0.00000E+00
 -1      2907 1.41038E+02 1.00443E+01 0.00000E+00
 -1      2908 1.40907E+02 2.42875E+01 0.00000E+00
 -1      2909 1.40907E+02 2.28125E+01 0.00000E+00
 -1      2910 1.39914E+02 4.09362E+01 0.00000E+00
 -1      2911 1.40928E+02 4.09655E+01 0.00000E+00
 -1      2912 1.39164E+02 3.96372E+01 0.00000E+00
 -1      2913 1.40907E+02 1.83875E+01 0.00000E+00
 -1      2914 1.40907E+02 1.69125E+01 0.00000E+00
 -1      2915 2.36351E+01 3.74685E+01 0.00000E+00
 -1      2916 2.25124E+01 3.67808E+01 0.00000E+00
 -1      2917 1.40907E+02 2.72375E+01 0.00000E+00
 -1      2918 1.40907E+02 2.57625E+01 0.00000E+00
 -1      2919 1.39608E+02 2.50250E+01 0.00000E+00
 -1      2920 1.40907E+02 2.13375E+01 0.00000E+00
 -1      2921 1.40907E+02 1.98625E+01 0.00000E+00
 -1      2922 1.39608E+02 1.91250E+01 0.00000E+00
 -1      2923 1.39608E+02 2.20750E+01 0.00000E+00
 -1      2924 1.40907E+02 3.01375E+01 0.00000E+00
 -1      2925 1.40907E+02 2.86875E+01 0.00000E+00
 -1      2926 1.39608E+02 2.79500E+01 0.00000E+00
 -1      2927 1.40907E+02 3.30875E+01 0.00000E+00
 -1      2928 1.40907E+02 3.16125E+01 0.00000E+00
 -1      2929 1.39608E+02 3.08750E+01 0.00000E+00
 -1      2930 1.40907E+02 3.60375E+01 0.00000E+00
 -1      2931 1.40907E+02 3.45625E+01 0.00000E+00
 -1      2932 1.39608E+02 3.38250E+01 0.00000E+00
 -1      2933 1.82850E+01 7.90325E+00 0.00000E+00
 -1      2934 1.67850E+01 7.90325E+00 0.00000E+00
 -1      2935 1.60350E+01 9.20225E+00 0.00000E+00
 -1      2936 1.90350E+01 9.20225E+00 0.00000E+00
 -1      2937 2.37002E+01 1.47034E+01 0.00000E+00
 -1      2938 2.47551E+01 1.43211E+01 0.00000E+00
 -1      2939 8.85168E+00 4.05347E+01 0.00000E+00
 -1      2940 1.02152E+01 4.07987E+01 0.00000E+00
 -1      2941 3.39741E+01 1.48471E+01 0.00000E+00
 -1      2942 3.48971E+01 1.53227E+01 0.00000E+00
 -1      2943 1.41192E+02 3.96958E+01 0.00000E+00
 -1      2944 1.80281E+01 3.19256E+01 0.00000E+00
 -1      2945 1.74998E+01 3.09943E+01 0.00000E+00
 -1      2946 2.90581E+01 1.35976E+01 0.00000E+00
 -1      2947 3.00792E+01 1.36471E+01 0.00000E+00
 -1      2948 2.72850E+01 7.90325E+00 0.00000E+00
 -1      2949 2.57850E+01 7.90325E+00 0.00000E+00
 -1      2950 2.80350E+01 9.20225E+00 0.00000E+00
 -1      2951 1.15576E+01 4.08528E+01 0.00000E+00
 -1      2952 1.30576E+01 4.08528E+01 0.00000E+00
 -1      2953 1.38076E+01 3.95538E+01 0.00000E+00
 -1      2954 1.11228E+01 3.94455E+01 0.00000E+00
 -1      2955 3.82780E+01 1.80245E+01 0.00000E+00
 -1      2956 3.90027E+01 1.91283E+01 0.00000E+00
 -1      2957 4.06457E+01 2.51399E+01 0.00000E+00
 -1      2958 4.06745E+01 2.62969E+01 0.00000E+00
 -1      2959 9.09300E+00 1.68813E+01 0.00000E+00
 -1      2960 9.09300E+00 1.83563E+01 0.00000E+00
 -1      2961 1.03920E+01 1.90812E+01 0.00000E+00
 -1      2962 1.03920E+01 1.61437E+01 0.00000E+00
 -1      2963 9.09300E+00 3.15875E+01 0.00000E+00
 -1      2964 9.09300E+00 3.30625E+01 0.00000E+00
 -1      2965 1.62319E+01 2.47793E+01 0.00000E+00
 -1      2966 1.62833E+01 2.33692E+01 0.00000E+00
 -1      2967 3.97929E+01 3.01630E+01 0.00000E+00
 -1      2968 3.93607E+01 3.11330E+01 0.00000E+00
 -1      2969 2.12397E+01 3.60613E+01 0.00000E+00
 -1      2970 2.02815E+01 3.52353E+01 0.00000E+00
 -1      2971 2.83264E+01 3.84580E+01 0.00000E+00
 -1      2972 2.72791E+01 3.83137E+01 0.00000E+00
 -1      2973 3.14657E+01 1.39002E+01 0.00000E+00
 -1      2974 3.27364E+01 1.42753E+01 0.00000E+00
 -1      2975 1.82532E+01 2.00475E+01 0.00000E+00
 -1      2976 1.87619E+01 1.92311E+01 0.00000E+00
 -1      2977 1.67281E+01 2.18559E+01 0.00000E+00
 -1      2978 1.74907E+01 2.09517E+01 0.00000E+00
 -1      2979 1.70527E+01 2.01122E+01 0.00000E+00
 -1      2980 2.59190E+01 3.83088E+01 0.00000E+00
 -1      2981 4.05122E+01 2.77120E+01 0.00000E+00
 -1      2982 4.02093E+01 2.89281E+01 0.00000E+00
 -1      2983 8.91450E+00 8.42712E+00 0.00000E+00
 -1      2984 7.48818E+00 3.88019E+01 0.00000E+00
 -1      2985 3.86825E+01 3.23151E+01 0.00000E+00
 -1      2986 3.79318E+01 3.31411E+01 0.00000E+00
 -1      2987 3.72759E+01 3.39272E+01 0.00000E+00
 -1      2988 3.66199E+01 3.47133E+01 0.00000E+00
 -1      2989 3.83478E+01 3.41474E+01 0.00000E+00
 -1      2990 3.97348E+01 2.04127E+01 0.00000E+00
 -1      2991 4.01075E+01 2.15060E+01 0.00000E+00
 -1      2992 4.03584E+01 2.27444E+01 0.00000E+00
 -1      2993 4.05837E+01 2.38440E+01 0.00000E+00
 -1      2994 1.93705E+01 3.40225E+01 0.00000E+00
 -1      2995 1.86993E+01 3.29740E+01 0.00000E+00
 -1      2996 1.75435E+01 3.30142E+01 0.00000E+00
 -1      2997 1.65391E+01 2.74835E+01 0.00000E+00
 -1      2998 1.63051E+01 2.63046E+01 0.00000E+00
 -1      2999 1.57810E+01 2.82725E+01 0.00000E+00
 -1      3000 9.09300E+00 3.45313E+01 0.00000E+00
 -1      3001 9.09300E+00 3.60000E+01 0.00000E+00
 -1      3002 1.03920E+01 3.37938E+01 0.00000E+00
 -1      3003 1.03920E+01 2.49750E+01 0.00000E+00
 -1      3004 9.09300E+00 2.57000E+01 0.00000E+00
 -1      3005 9.09300E+00 2.71750E+01 0.00000E+00
 -1      3006 3.47786E+01 3.69068E+01 0.00000E+00
 -1      3007 3.68243E+01 3.57112E+01 0.00000E+00
 -1      3008 2.53909E+01 1.36388E+01 0.00000E+00
 -1      3009 2.60267E+01 1.29564E+01 0.00000E+00
 -1      3010 2.45427E+01 1.29449E+01 0.00000E+00
 -1      3011 1.91257E+01 3.52754E+01 0.00000E+00
 -1      3012 1.58453E+01 2.25297E+01 0.00000E+00
 -1      3013 1.54074E+01 2.16902E+01 0.00000E+00
 -1      3014 1.49626E+01 2.32035E+01 0.00000E+00
 -1      3015 2.56330E+01 3.98373E+01 0.00000E+00
 -1      3016 2.44021E+01 3.85381E+01 0.00000E+00
 -1      3017 2.33490E+01 3.89970E+01 0.00000E+00
 -1      3018 2.48830E+01 4.11363E+01 0.00000E+00
 -1      3019 3.10048E+01 1.28515E+01 0.00000E+00
 -1      3020 2.33830E+01 4.11363E+01 0.00000E+00
 -1      3021 3.52019E+01 3.83361E+01 0.00000E+00
 -1      3022 3.57267E+01 4.07767E+01 0.00000E+00
 -1      3023 3.72267E+01 4.07767E+01 0.00000E+00
 -1      3024 3.63800E+01 3.79181E+01 0.00000E+00
 -1      3025 1.39608E+02 1.61875E+01 0.00000E+00
 -1      3026 1.40907E+02 1.54500E+01 0.00000E+00
 -1      3027 1.40907E+02 1.39875E+01 0.00000E+00
 -1      3028 2.50350E+01 9.20225E+00 0.00000E+00
 -1      3029 3.82806E+01 1.57030E+01 0.00000E+00
 -1      3030 3.82793E+01 1.68637E+01 0.00000E+00
 -1      3031 3.94285E+01 1.68990E+01 0.00000E+00
 -1      3032 2.13093E+01 3.72078E+01 0.00000E+00
 -1      3033 1.64436E+01 3.07086E+01 0.00000E+00
 -1      3034 1.40973E+02 1.27472E+01 0.00000E+00
 -1      3035 1.40973E+02 1.12847E+01 0.00000E+00
 -1      3036 1.39805E+02 1.10040E+01 0.00000E+00
 -1      3037 1.39674E+02 1.34847E+01 0.00000E+00
 -1      3038 3.36291E+01 1.36764E+01 0.00000E+00
 -1      3039 1.41192E+02 3.82207E+01 0.00000E+00
 -1      3040 4.07765E+01 2.97622E+01 0.00000E+00
 -1      3041 4.11423E+01 2.18669E+01 0.00000E+00
 -1      3042 2.82466E+01 1.31244E+01 0.00000E+00
 -1      3043 4.01593E+01 1.93441E+01 0.00000E+00
 -1      3044 3.59991E+01 1.49579E+01 0.00000E+00
 -1      3045 3.79767E+01 3.94777E+01 0.00000E+00
 -1      3046 1.54738E+01 2.55683E+01 0.00000E+00
 -1      3047 2.26330E+01 3.98373E+01 0.00000E+00
 -1      3048 9.09300E+00 2.86437E+01 0.00000E+00
 -1      3049 9.09300E+00 3.01187E+01 0.00000E+00
 -1      3050 1.03920E+01 3.08563E+01 0.00000E+00
 -1      3051 1.03920E+01 2.79188E+01 0.00000E+00
 -1      3052 2.29037E+01 1.47248E+01 0.00000E+00
 -1      3053 2.31105E+01 1.36487E+01 0.00000E+00
 -1      3054 2.21073E+01 1.47463E+01 0.00000E+00
 -1      3055 1.88490E+01 1.83983E+01 0.00000E+00
 -1      3056 1.89362E+01 1.75656E+01 0.00000E+00
 -1      3057 1.79024E+01 1.83752E+01 0.00000E+00
 -1      3058 4.14553E+01 2.44012E+01 0.00000E+00
 -1      3059 8.78718E+00 3.80644E+01 0.00000E+00
 -1      3060 2.08917E+01 1.67056E+01 0.00000E+00
 -1      3061 2.10437E+01 1.57968E+01 0.00000E+00
 -1      3062 2.00348E+01 1.66799E+01 0.00000E+00
 -1      3063 4.13552E+01 2.71122E+01 0.00000E+00
 -1      3064 3.96820E+01 3.21791E+01 0.00000E+00
 -1      3065 9.66450E+00 9.72612E+00 0.00000E+00
 -1      3066 1.09635E+01 1.04636E+01 0.00000E+00
 -1      3067 1.39529E+02 3.85602E+01 0.00000E+00
 -1      3068 1.40542E+02 3.71145E+01 0.00000E+00
 -1      3069 1.39243E+02 3.63770E+01 0.00000E+00
 -1      3070 1.38514E+02 3.85310E+01 0.00000E+00
 -1      3071 1.16910E+01 1.24625E+01 0.00000E+00
 -1      3072 1.16910E+01 1.39375E+01 0.00000E+00
 -1      3073 1.44865E+01 2.63801E+01 0.00000E+00
 -1      3074 1.44133E+01 2.48548E+01 0.00000E+00
 -1      3075 3.10767E+01 1.09003E+01 0.00000E+00
 -1      3076 3.24631E+01 1.11534E+01 0.00000E+00
 -1      3077 3.71888E+01 3.68798E+01 0.00000E+00
 -1      3078 3.76121E+01 3.83091E+01 0.00000E+00
 -1      3079 3.87855E+01 3.84394E+01 0.00000E+00
 -1      3080 3.80564E+01 3.61021E+01 0.00000E+00
 -1      3081 3.16821E+01 3.94512E+01 0.00000E+00
 -1      3082 4.29000E+01 3.83090E+01 0.00000E+00
 -1      3083 4.44000E+01 3.83090E+01 0.00000E+00
 -1      3084 4.59000E+01 3.83090E+01 0.00000E+00
 -1      3085 4.74000E+01 3.83090E+01 0.00000E+00
 -1      3086 4.51500E+01 3.70100E+01 0.00000E+00
 -1      3087 4.89000E+01 3.83090E+01 0.00000E+00
 -1      3088 5.04000E+01 3.83090E+01 0.00000E+00
 -1      3089 4.81500E+01 3.70100E+01 0.00000E+00
 -1      3090 5.19000E+01 3.83090E+01 0.00000E+00
 -1      3091 5.34000E+01 3.83090E+01 0.00000E+00
 -1      3092 5.11500E+01 3.70100E+01 0.00000E+00
 -1      3093 5.49000E+01 3.83090E+01 0.00000E+00
 -1      3094 5.64000E+01 3.83090E+01 0.00000E+00
 -1      3095 5.41500E+01 3.70100E+01 0.00000E+00
 -1      3096 5.79000E+01 3.83090E+01 0.00000E+00
 -1      3097 5.94000E+01 3.83090E+01 0.00000E+00
 -1      3098 5.71500E+01 3.70100E+01 0.00000E+00
 -1      3099 6.09000E+01 3.83090E+01 0.00000E+00
 -1      3100 6.24000E+01 3.83090E+01 0.00000E+00
 -1      3101 6.01500E+01 3.70100E+01 0.00000E+00
 -1      3102 6.39000E+01 3.83090E+01 0.00000E+00
 -1      3103 6.54000E+01 3.83090E+01 0.00000E+00
 -1      3104 6.31500E+01 3.70100E+01 0.00000E+00
 -1      3105 6.69000E+01 3.83090E+01 0.00000E+00
 -1      3106 6.84000E+01 3.83090E+01 0.00000E+00
 -1      3107 6.61500E+01 3.70100E+01 0.00000E+00
 -1      3108 6.99000E+01 3.83090E+01 0.00000E+00
 -1      3109 7.14000E+01 3.83090E+01 0.00000E+00
 -1      3110 6.91500E+01 3.70100E+01 0.00000E+00
 -1      3111 7.29000E+01 3.83090E+01 0.00000E+00
 -1      3112 7.44000E+01 3.83090E+01 0.00000E+00
 -1      3113 7.21500E+01 3.70100E+01 0.00000E+00
 -1      3114 7.59000E+01 3.83090E+01 0.00000E+00
 -1      3115 7.74000E+01 3.83090E+01 0.00000E+00
 -1      3116 7.51500E+01 3.70100E+01 0.00000E+00
 -1      3117 7.89000E+01 3.83090E+01 0.00000E+00
 -1      3118 8.04000E+01 3.83090E+01 0.00000E+00
 -1      3119 7.81500E+01 3.70100E+01 0.00000E+00
 -1      3120 8.19000E+01 3.83090E+01 0.00000E+00
 -1      3121 8.34000E+01 3.83090E+01 0.00000E+00
 -1      3122 8.11500E+01 3.70100E+01 0.00000E+00
 -1      3123 8.49000E+01 3.83090E+01 0.00000E+00
 -1      3124 8.64000E+01 3.83090E+01 0.00000E+00
 -1      3125 8.41500E+01 3.70100E+01 0.00000E+00
 -1      3126 8.79000E+01 3.83090E+01 0.00000E+00
 -1      3127 8.94000E+01 3.83090E+01 0.00000E+00
 -1      3128 8.71500E+01 3.70100E+01 0.00000E+00
 -1      3129 9.09000E+01 3.83090E+01 0.00000E+00
 -1      3130 9.24000E+01 3.83090E+01 0.00000E+00
 -1      3131 9.01500E+01 3.70100E+01 0.00000E+00
 -1      3132 9.39000E+01 3.83090E+01 0.00000E+00
 -1      3133 9.54000E+01 3.83090E+01 0.00000E+00
 -1      3134 9.31500E+01 3.70100E+01 0.00000E+00
 -1      3135 9.69000E+01 3.83090E+01 0.00000E+00
 -1      3136 9.84000E+01 3.83090E+01 0.00000E+00
 -1      3137 9.61500E+01 3.70100E+01 0.00000E+00
 -1      3138 9.99000E+01 3.83090E+01 0.00000E+00
 -1      3139 1.01400E+02 3.83090E+01 0.00000E+00
 -1      3140 9.91500E+01 3.70100E+01 0.00000E+00
 -1      3141 1.02900E+02 3.83090E+01 0.00000E+00
 -1      3142 1.04400E+02 3.83090E+01 0.00000E+00
 -1      3143 1.02150E+02 3.70100E+01 0.00000E+00
 -1      3144 1.05900E+02 3.83090E+01 0.00000E+00
 -1      3145 1.07400E+02 3.83090E+01 0.00000E+00
 -1      3146 1.05150E+02 3.70100E+01 0.00000E+00
 -1      3147 1.08900E+02 3.83090E+01 0.00000E+00
 -1      3148 1.10400E+02 3.83090E+01 0.00000E+00
 -1      3149 1.08150E+02 3.70100E+01 0.00000E+00
 -1      3150 1.11900E+02 3.83090E+01 0.00000E+00
 -1      3151 1.13400E+02 3.83090E+01 0.00000E+00
 -1      3152 1.11150E+02 3.70100E+01 0.00000E+00
 -1      3153 1.14900E+02 3.83090E+01 0.00000E+00
 -1      3154 1.16400E+02 3.83090E+01 0.00000E+00
 -1      3155 1.14150E+02 3.70100E+01 0.00000E+00
 -1      3156 1.17900E+02 3.83090E+01 0.00000E+00
 -1      3157 1.19400E+02 3.83090E+01 0.00000E+00
 -1      3158 1.17150E+02 3.70100E+01 0.00000E+00
 -1      3159 1.20900E+02 3.83090E+01 0.00000E+00
 -1      3160 1.22400E+02 3.83090E+01 0.00000E+00
 -1      3161 1.20150E+02 3.70100E+01 0.00000E+00
 -1      3162 1.23900E+02 3.83090E+01 0.00000E+00
 -1      3163 1.25400E+02 3.83090E+01 0.00000E+00
 -1      3164 1.23150E+02 3.70100E+01 0.00000E+00
 -1      3165 1.26900E+02 3.83090E+01 0.00000E+00
 -1      3166 1.28400E+02 3.83090E+01 0.00000E+00
 -1      3167 1.26150E+02 3.70100E+01 0.00000E+00
 -1      3168 1.29900E+02 3.83090E+01 0.00000E+00
 -1      3169 1.31400E+02 3.83090E+01 0.00000E+00
 -1      3170 1.29150E+02 3.70100E+01 0.00000E+00
 -1      3171 1.32900E+02 3.83090E+01 0.00000E+00
 -1      3172 1.34400E+02 3.83090E+01 0.00000E+00
 -1      3173 1.32150E+02 3.70100E+01 0.00000E+00
 -1      3174 1.35707E+02 3.84200E+01 0.00000E+00
 -1      3175 1.37207E+02 3.84200E+01 0.00000E+00
 -1      3176 1.37572E+02 3.73430E+01 0.00000E+00
 -1      3177 1.34957E+02 3.71210E+01 0.00000E+00
 -1      3178 1.88285E+01 3.64472E+01 0.00000E+00
 -1      3179 1.79175E+01 3.52344E+01 0.00000E+00
 -1      3180 2.18660E+01 3.87677E+01 0.00000E+00
 -1      3181 3.39631E+01 1.11534E+01 0.00000E+00
 -1      3182 2.95767E+01 1.09003E+01 0.00000E+00
 -1      3183 4.07850E+01 1.05013E+01 0.00000E+00
 -1      3184 3.92850E+01 1.05013E+01 0.00000E+00
 -1      3185 4.37850E+01 1.05013E+01 0.00000E+00
 -1      3186 4.22850E+01 1.05013E+01 0.00000E+00
 -1      3187 4.15350E+01 1.18003E+01 0.00000E+00
 -1      3188 4.67850E+01 1.05013E+01 0.00000E+00
 -1      3189 4.52850E+01 1.05013E+01 0.00000E+00
 -1      3190 4.45350E+01 1.18003E+01 0.00000E+00
 -1      3191 4.97850E+01 1.05013E+01 0.00000E+00
 -1      3192 4.82850E+01 1.05013E+01 0.00000E+00
 -1      3193 4.75350E+01 1.18003E+01 0.00000E+00
 -1      3194 5.27850E+01 1.05013E+01 0.00000E+00
 -1      3195 5.12850E+01 1.05013E+01 0.00000E+00
 -1      3196 5.05350E+01 1.18003E+01 0.00000E+00
 -1      3197 5.57850E+01 1.05013E+01 0.00000E+00
 -1      3198 5.42850E+01 1.05013E+01 0.00000E+00
 -1      3199 5.35350E+01 1.18003E+01 0.00000E+00
 -1      3200 5.87850E+01 1.05013E+01 0.00000E+00
 -1      3201 5.72850E+01 1.05013E+01 0.00000E+00
 -1      3202 5.65350E+01 1.18003E+01 0.00000E+00
 -1      3203 6.17850E+01 1.05013E+01 0.00000E+00
 -1      3204 6.02850E+01 1.05013E+01 0.00000E+00
 -1      3205 5.95350E+01 1.18003E+01 0.00000E+00
 -1      3206 6.47850E+01 1.05013E+01 0.00000E+00
 -1      3207 6.32850E+01 1.05013E+01 0.00000E+00
 -1      3208 6.25350E+01 1.18003E+01 0.00000E+00
 -1      3209 6.77850E+01 1.05013E+01 0.00000E+00
 -1      3210 6.62850E+01 1.05013E+01 0.00000E+00
 -1      3211 6.55350E+01 1.18003E+01 0.00000E+00
 -1      3212 7.07850E+01 1.05013E+01 0.00000E+00
 -1      3213 6.92850E+01 1.05013E+01 0.00000E+00
 -1      3214 6.85350E+01 1.18003E+01 0.00000E+00
 -1      3215 7.37850E+01 1.05013E+01 0.00000E+00
 -1      3216 7.22850E+01 1.05013E+01 0.00000E+00
 -1      3217 7.15350E+01 1.18003E+01 0.00000E+00
 -1      3218 7.67850E+01 1.05013E+01 0.00000E+00
 -1      3219 7.52850E+01 1.05013E+01 0.00000E+00
 -1      3220 7.45350E+01 1.18003E+01 0.00000E+00
 -1      3221 7.97850E+01 1.05013E+01 0.00000E+00
 -1      3222 7.82850E+01 1.05013E+01 0.00000E+00
 -1      3223 7.75350E+01 1.18003E+01 0.00000E+00
 -1      3224 8.27850E+01 1.05013E+01 0.00000E+00
 -1      3225 8.12850E+01 1.05013E+01 0.00000E+00
 -1      3226 8.05350E+01 1.18003E+01 0.00000E+00
 -1      3227 8.57850E+01 1.05013E+01 0.00000E+00
 -1      3228 8.42850E+01 1.05013E+01 0.00000E+00
 -1      3229 8.35350E+01 1.18003E+01 0.00000E+00
 -1      3230 8.87850E+01 1.05013E+01 0.00000E+00
 -1      3231 8.72850E+01 1.05013E+01 0.00000E+00
 -1      3232 8.65350E+01 1.18003E+01 0.00000E+00
 -1      3233 9.17850E+01 1.05013E+01 0.00000E+00
 -1      3234 9.02850E+01 1.05013E+01 0.00000E+00
 -1      3235 8.95350E+01 1.18003E+01 0.00000E+00
 -1      3236 9.47850E+01 1.05013E+01 0.00000E+00
 -1      3237 9.32850E+01 1.05013E+01 0.00000E+00
 -1      3238 9.25350E+01 1.18003E+01 0.00000E+00
 -1      3239 9.77850E+01 1.05013E+01 0.00000E+00
 -1      3240 9.62850E+01 1.05013E+01 0.00000E+00
 -1      3241 9.55350E+01 1.18003E+01 0.00000E+00
 -1      3242 1.00785E+02 1.05013E+01 0.00000E+00
 -1      3243 9.92850E+01 1.05013E+01 0.00000E+00
 -1      3244 9.85350E+01 1.18003E+01 0.00000E+00
 -1      3245 1.03785E+02 1.05013E+01 0.00000E+00
 -1      3246 1.02285E+02 1.05013E+01 0.00000E+00
 -1      3247 1.01535E+02 1.18003E+01 0.00000E+00
 -1      3248 1.06785E+02 1.05013E+01 0.00000E+00
 -1      3249 1.05285E+02 1.05013E+01 0.00000E+00
 -1      3250 1.04535E+02 1.18003E+01 0.00000E+00
 -1      3251 1.09785E+02 1.05013E+01 0.00000E+00
 -1      3252 1.08285E+02 1.05013E+01 0.00000E+00
 -1      3253 1.07535E+02 1.18003E+01 0.00000E+00
 -1      3254 1.12785E+02 1.05013E+01 0.00000E+00
 -1      3255 1.11285E+02 1.05013E+01 0.00000E+00
 -1      3256 1.10535E+02 1.18003E+01 0.00000E+00
 -1      3257 1.15785E+02 1.05013E+01 0.00000E+00
 -1      3258 1.14285E+02 1.05013E+01 0.00000E+00
 -1      3259 1.13535E+02 1.18003E+01 0.00000E+00
 -1      3260 1.18785E+02 1.05013E+01 0.00000E+00
 -1      3261 1.17285E+02 1.05013E+01 0.00000E+00
 -1      3262 1.16535E+02 1.18003E+01 0.00000E+00
 -1      3263 1.21785E+02 1.05013E+01 0.00000E+00
 -1      3264 1.20285E+02 1.05013E+01 0.00000E+00
 -1      3265 1.19535E+02 1.18003E+01 0.00000E+00
 -1      3266 1.24785E+02 1.05013E+01 0.00000E+00
 -1      3267 1.23285E+02 1.05013E+01 0.00000E+00
 -1      3268 1.22535E+02 1.18003E+01 0.00000E+00
 -1      3269 1.27785E+02 1.05013E+01 0.00000E+00
 -1      3270 1.26285E+02 1.05013E+01 0.00000E+00
 -1      3271 1.25535E+02 1.18003E+01 0.00000E+00
 -1      3272 1.30785E+02 1.05013E+01 0.00000E+00
 -1      3273 1.29285E+02 1.05013E+01 0.00000E+00
 -1      3274 1.28535E+02 1.18003E+01 0.00000E+00
 -1      3275 1.33785E+02 1.05013E+01 0.00000E+00
 -1      3276 1.32285E+02 1.05013E+01 0.00000E+00
 -1      3277 1.31535E+02 1.18003E+01 0.00000E+00
 -1      3278 1.36785E+02 1.05013E+01 0.00000E+00
 -1      3279 1.35285E+02 1.05013E+01 0.00000E+00
 -1      3280 1.34535E+02 1.18003E+01 0.00000E+00
 -1      3281 1.38879E+02 1.08930E+01 0.00000E+00
 -1      3282 1.37711E+02 1.06123E+01 0.00000E+00
 -1      3283 1.36961E+02 1.19113E+01 0.00000E+00
 -1      3284 1.38813E+02 1.21333E+01 0.00000E+00
 -1      3285 1.24583E+01 2.14570E+01 0.00000E+00
 -1      3286 1.24583E+01 2.29320E+01 0.00000E+00
 -1      3287 1.38309E+02 3.45625E+01 0.00000E+00
 -1      3288 1.38309E+02 3.30875E+01 0.00000E+00
 -1      3289 1.57670E+01 3.16409E+01 0.00000E+00
 -1      3290 1.53384E+01 3.03837E+01 0.00000E+00
 -1      3291 1.38309E+02 2.57625E+01 0.00000E+00
 -1      3292 1.38309E+02 2.42875E+01 0.00000E+00
 -1      3293 2.80767E+01 1.09003E+01 0.00000E+00
 -1      3294 1.38309E+02 3.16125E+01 0.00000E+00
 -1      3295 1.38309E+02 3.01375E+01 0.00000E+00
 -1      3296 1.37010E+02 3.23500E+01 0.00000E+00
 -1      3297 3.77850E+01 1.05013E+01 0.00000E+00
 -1      3298 3.62850E+01 1.05013E+01 0.00000E+00
 -1      3299 3.85350E+01 1.18003E+01 0.00000E+00
 -1      3300 2.27850E+01 1.05013E+01 0.00000E+00
 -1      3301 2.12850E+01 1.05013E+01 0.00000E+00
 -1      3302 4.19561E+01 2.94723E+01 0.00000E+00
 -1      3303 4.15397E+01 3.07072E+01 0.00000E+00
 -1      3304 4.00927E+01 3.83742E+01 0.00000E+00
 -1      3305 4.15927E+01 3.83742E+01 0.00000E+00
 -1      3306 4.23427E+01 3.70752E+01 0.00000E+00
 -1      3307 3.97282E+01 3.72056E+01 0.00000E+00
 -1      3308 1.63852E+01 3.80071E+01 0.00000E+00
 -1      3309 1.78852E+01 3.80071E+01 0.00000E+00
 -1      3310 2.05933E+01 3.80481E+01 0.00000E+00
 -1      3311 2.58568E+01 1.07324E+01 0.00000E+00
 -1      3312 2.43568E+01 1.07324E+01 0.00000E+00
 -1      3313 4.22680E+01 2.09943E+01 0.00000E+00
 -1      3314 4.25188E+01 2.22326E+01 0.00000E+00
 -1      3315 1.38309E+02 2.86750E+01 0.00000E+00
 -1      3316 1.38309E+02 2.72250E+01 0.00000E+00
 -1      3317 1.37010E+02 2.64875E+01 0.00000E+00
 -1      3318 1.37010E+02 2.94125E+01 0.00000E+00
 -1      3319 4.23645E+01 2.37082E+01 0.00000E+00
 -1      3320 4.24266E+01 2.50041E+01 0.00000E+00
 -1      3321 1.60158E+01 2.00114E+01 0.00000E+00
 -1      3322 1.67784E+01 1.91072E+01 0.00000E+00
 -1      3323 4.09102E+01 3.20982E+01 0.00000E+00
 -1      3324 4.02321E+01 3.32803E+01 0.00000E+00
 -1      3325 3.94722E+01 3.42982E+01 0.00000E+00
 -1      3326 3.88162E+01 3.50843E+01 0.00000E+00
 -1      3327 3.91808E+01 3.62529E+01 0.00000E+00
 -1      3328 4.07005E+01 3.42172E+01 0.00000E+00
 -1      3329 1.26488E+01 1.02017E+01 0.00000E+00
 -1      3330 1.20772E+01 1.14631E+01 0.00000E+00
 -1      3331 1.33763E+01 1.22006E+01 0.00000E+00
 -1      3332 1.41488E+01 1.02017E+01 0.00000E+00
 -1      3333 4.09218E+01 1.80587E+01 0.00000E+00
 -1      3334 4.16539E+01 1.93431E+01 0.00000E+00
 -1      3335 3.59775E+01 1.37345E+01 0.00000E+00
 -1      3336 3.71097E+01 1.44443E+01 0.00000E+00
 -1      3337 1.00862E+01 3.73269E+01 0.00000E+00
 -1      3338 4.23715E+01 2.65119E+01 0.00000E+00
 -1      3339 4.22093E+01 2.79270E+01 0.00000E+00
 -1      3340 1.70863E+01 3.40460E+01 0.00000E+00
 -1      3341 1.64151E+01 3.29975E+01 0.00000E+00
 -1      3342 1.47281E+01 2.90941E+01 0.00000E+00
 -1      3343 1.44941E+01 2.79152E+01 0.00000E+00
 -1      3344 1.90933E+01 3.80481E+01 0.00000E+00
 -1      3345 1.19090E+01 2.45833E+01 0.00000E+00
 -1      3346 1.19090E+01 2.60583E+01 0.00000E+00
 -1      3347 4.09231E+01 1.68979E+01 0.00000E+00
 -1      3348 4.29724E+01 2.88720E+01 0.00000E+00
 -1      3349 4.30304E+01 1.97088E+01 0.00000E+00
 -1      3350 2.29709E+01 1.27137E+01 0.00000E+00
 -1      3351 2.36068E+01 1.20314E+01 0.00000E+00
 -1      3352 1.15847E+01 3.01219E+01 0.00000E+00
 -1      3353 1.15847E+01 3.15906E+01 0.00000E+00
 -1      3354 2.21745E+01 1.27352E+01 0.00000E+00
 -1      3355 4.32807E+01 2.58189E+01 0.00000E+00
 -1      3356 1.47569E+01 3.80278E+01 0.00000E+00
 -1      3357 1.59921E+01 3.64269E+01 0.00000E+00
 -1      3358 1.34145E+01 3.79736E+01 0.00000E+00
 -1      3359 1.38309E+02 1.69188E+01 0.00000E+00
 -1      3360 1.38309E+02 1.54563E+01 0.00000E+00
 -1      3361 4.34902E+01 2.28355E+01 0.00000E+00
 -1      3362 3.82589E+01 1.44795E+01 0.00000E+00
 -1      3363 1.53098E+01 3.26727E+01 0.00000E+00
 -1      3364 1.19045E+01 1.99114E+01 0.00000E+00
 -1      3365 1.39709E+01 2.08184E+01 0.00000E+00
 -1      3366 1.38309E+02 1.98687E+01 0.00000E+00
 -1      3367 1.38309E+02 1.83937E+01 0.00000E+00
 -1      3368 1.37010E+02 1.76625E+01 0.00000E+00
 -1      3369 2.05350E+01 1.18003E+01 0.00000E+00
 -1      3370 1.97850E+01 1.05013E+01 0.00000E+00
 -1      3371 1.82850E+01 1.05013E+01 0.00000E+00
 -1      3372 1.40515E+01 3.00265E+01 0.00000E+00
 -1      3373 2.73984E+01 1.24305E+01 0.00000E+00
 -1      3374 1.38309E+02 2.28156E+01 0.00000E+00
 -1      3375 1.38309E+02 2.13406E+01 0.00000E+00
 -1      3376 1.37010E+02 2.06094E+01 0.00000E+00
 -1      3377 1.37010E+02 2.35531E+01 0.00000E+00
 -1      3378 1.69669E+01 1.03515E+01 0.00000E+00
 -1      3379 1.54669E+01 1.03515E+01 0.00000E+00
 -1      3380 1.50806E+01 1.13509E+01 0.00000E+00
 -1      3381 1.77169E+01 1.16505E+01 0.00000E+00
 -1      3382 1.16910E+01 1.54063E+01 0.00000E+00
 -1      3383 1.16910E+01 1.68750E+01 0.00000E+00
 -1      3384 1.29900E+01 1.46687E+01 0.00000E+00
 -1      3385 4.20898E+01 3.18083E+01 0.00000E+00
 -1      3386 3.47131E+01 1.24524E+01 0.00000E+00
 -1      3387 3.59509E+01 1.30242E+01 0.00000E+00
 -1      3388 1.68656E+01 1.82745E+01 0.00000E+00
 -1      3389 1.69527E+01 1.74417E+01 0.00000E+00
 -1      3390 1.58287E+01 1.81737E+01 0.00000E+00
 -1      3391 1.14286E+01 3.73811E+01 0.00000E+00
 -1      3392 1.90882E+01 1.66568E+01 0.00000E+00
 -1      3393 1.92402E+01 1.57481E+01 0.00000E+00
 -1      3394 1.81415E+01 1.66337E+01 0.00000E+00
 -1      3395 1.19045E+01 1.84426E+01 0.00000E+00
 -1      3396 1.48536E+01 2.01446E+01 0.00000E+00
 -1      3397 1.37758E+02 3.64912E+01 0.00000E+00
 -1      3398 1.38123E+02 3.54142E+01 0.00000E+00
 -1      3399 1.36824E+02 3.46768E+01 0.00000E+00
 -1      3400 1.36451E+02 3.63802E+01 0.00000E+00
 -1      3401 1.45793E+01 1.91396E+01 0.00000E+00
 -1      3402 1.34336E+01 2.72017E+01 0.00000E+00
 -1      3403 1.67891E+01 3.52177E+01 0.00000E+00
 -1      3404 4.09732E+01 1.52921E+01 0.00000E+00
 -1      3405 4.24665E+01 1.64518E+01 0.00000E+00
 -1      3406 1.39753E+01 2.40153E+01 0.00000E+00
 -1      3407 1.27625E+01 3.21677E+01 0.00000E+00
 -1      3408 1.15698E+01 3.29021E+01 0.00000E+00
 -1      3409 2.13909E+01 1.37407E+01 0.00000E+00
 -1      3410 2.12514E+01 1.28058E+01 0.00000E+00
 -1      3411 1.97514E+01 1.28058E+01 0.00000E+00
 -1      3412 2.11842E+01 1.48169E+01 0.00000E+00
 -1      3413 1.15698E+01 3.43708E+01 0.00000E+00
 -1      3414 2.03273E+01 1.47913E+01 0.00000E+00
 -1      3415 4.39199E+01 1.84383E+01 0.00000E+00
 -1      3416 4.45339E+01 2.00895E+01 0.00000E+00
 -1      3417 1.23779E+01 3.58550E+01 0.00000E+00
 -1      3418 4.46702E+01 2.22131E+01 0.00000E+00
 -1      3419 4.45159E+01 2.36886E+01 0.00000E+00
 -1      3420 1.32035E+01 1.77051E+01 0.00000E+00
 -1      3421 1.43658E+01 1.75720E+01 0.00000E+00
 -1      3422 4.74000E+01 3.57110E+01 0.00000E+00
 -1      3423 4.89000E+01 3.57110E+01 0.00000E+00
 -1      3424 5.04000E+01 3.57110E+01 0.00000E+00
 -1      3425 5.19000E+01 3.57110E+01 0.00000E+00
 -1      3426 4.96500E+01 3.44120E+01 0.00000E+00
 -1      3427 5.34000E+01 3.57110E+01 0.00000E+00
 -1      3428 5.49000E+01 3.57110E+01 0.00000E+00
 -1      3429 5.26500E+01 3.44120E+01 0.00000E+00
 -1      3430 5.64000E+01 3.57110E+01 0.00000E+00
 -1      3431 5.79000E+01 3.57110E+01 0.00000E+00
 -1      3432 5.56500E+01 3.44120E+01 0.00000E+00
 -1      3433 5.94000E+01 3.57110E+01 0.00000E+00
 -1      3434 6.09000E+01 3.57110E+01 0.00000E+00
 -1      3435 5.86500E+01 3.44120E+01 0.00000E+00
 -1      3436 6.24000E+01 3.57110E+01 0.00000E+00
 -1      3437 6.39000E+01 3.57110E+01 0.00000E+00
 -1      3438 6.16500E+01 3.44120E+01 0.00000E+00
 -1      3439 6.54000E+01 3.57110E+01 0.00000E+00
 -1      3440 6.69000E+01 3.57110E+01 0.00000E+00
 -1      3441 6.46500E+01 3.44120E+01 0.00000E+00
 -1      3442 6.84000E+01 3.57110E+01 0.00000E+00
 -1      3443 6.99000E+01 3.57110E+01 0.00000E+00
 -1      3444 6.76500E+01 3.44120E+01 0.00000E+00
 -1      3445 7.14000E+01 3.57110E+01 0.00000E+00
 -1      3446 7.29000E+01 3.57110E+01 0.00000E+00
 -1      3447 7.06500E+01 3.44120E+01 0.00000E+00
 -1      3448 7.44000E+01 3.57110E+01 0.00000E+00
 -1      3449 7.59000E+01 3.57110E+01 0.00000E+00
 -1      3450 7.36500E+01 3.44120E+01 0.00000E+00
 -1      3451 7.74000E+01 3.57110E+01 0.00000E+00
 -1      3452 7.89000E+01 3.57110E+01 0.00000E+00
 -1      3453 7.66500E+01 3.44120E+01 0.00000E+00
 -1      3454 8.04000E+01 3.57110E+01 0.00000E+00
 -1      3455 8.19000E+01 3.57110E+01 0.00000E+00
 -1      3456 7.96500E+01 3.44120E+01 0.00000E+00
 -1      3457 8.34000E+01 3.57110E+01 0.00000E+00
 -1      3458 8.49000E+01 3.57110E+01 0.00000E+00
 -1      3459 8.26500E+01 3.44120E+01 0.00000E+00
 -1      3460 8.64000E+01 3.57110E+01 0.00000E+00
 -1      3461 8.79000E+01 3.57110E+01 0.00000E+00
 -1      3462 8.56500E+01 3.44120E+01 0.00000E+00
 -1      3463 8.94000E+01 3.57110E+01 0.00000E+00
 -1      3464 9.09000E+01 3.57110E+01 0.00000E+00
 -1      3465 8.86500E+01 3.44120E+01 0.00000E+00
 -1      3466 9.24000E+01 3.57110E+01 0.00000E+00
 -1      3467 9.39000E+01 3.57110E+01 0.00000E+00
 -1      3468 9.16500E+01 3.44120E+01 0.00000E+00
 -1      3469 9.54000E+01 3.57110E+01 0.00000E+00
 -1      3470 9.69000E+01 3.57110E+01 0.00000E+00
 -1      3471 9.46500E+01 3.44120E+01 0.00000E+00
 -1      3472 9.84000E+01 3.57110E+01 0.00000E+00
 -1      3473 9.99000E+01 3.57110E+01 0.00000E+00
 -1      3474 9.76500E+01 3.44120E+01 0.00000E+00
 -1      3475 1.01400E+02 3.57110E+01 0.00000E+00
 -1      3476 1.02900E+02 3.57110E+01 0.00000E+00
 -1      3477 1.00650E+02 3.44120E+01 0.00000E+00
 -1      3478 1.04400E+02 3.57110E+01 0.00000E+00
 -1      3479 1.05900E+02 3.57110E+01 0.00000E+00
 -1      3480 1.03650E+02 3.44120E+01 0.00000E+00
 -1      3481 1.07400E+02 3.57110E+01 0.00000E+00
 -1      3482 1.08900E+02 3.57110E+01 0.00000E+00
 -1      3483 1.06650E+02 3.44120E+01 0.00000E+00
 -1      3484 1.10400E+02 3.57110E+01 0.00000E+00
 -1      3485 1.11900E+02 3.57110E+01 0.00000E+00
 -1      3486 1.09650E+02 3.44120E+01 0.00000E+00
 -1      3487 1.13400E+02 3.57110E+01 0.00000E+00
 -1      3488 1.14900E+02 3.57110E+01 0.00000E+00
 -1      3489 1.12650E+02 3.44120E+01 0.00000E+00
 -1      3490 1.16400E+02 3.57110E+01 0.00000E+00
 -1      3491 1.17900E+02 3.57110E+01 0.00000E+00
 -1      3492 1.15650E+02 3.44120E+01 0.00000E+00
 -1      3493 1.19400E+02 3.57110E+01 0.00000E+00
 -1      3494 1.20900E+02 3.57110E+01 0.00000E+00
 -1      3495 1.18650E+02 3.44120E+01 0.00000E+00
 -1      3496 1.22400E+02 3.57110E+01 0.00000E+00
 -1      3497 1.23900E+02 3.57110E+01 0.00000E+00
 -1      3498 1.21650E+02 3.44120E+01 0.00000E+00
 -1      3499 1.25400E+02 3.57110E+01 0.00000E+00
 -1      3500 1.26900E+02 3.57110E+01 0.00000E+00
 -1      3501 1.24650E+02 3.44120E+01 0.00000E+00
 -1      3502 1.28400E+02 3.57110E+01 0.00000E+00
 -1      3503 1.29900E+02 3.57110E+01 0.00000E+00
 -1      3504 1.27650E+02 3.44120E+01 0.00000E+00
 -1      3505 1.31400E+02 3.57110E+01 0.00000E+00
 -1      3506 1.32900E+02 3.57110E+01 0.00000E+00
 -1      3507 1.30650E+02 3.44120E+01 0.00000E+00
 -1      3508 1.19166E+01 2.75934E+01 0.00000E+00
 -1      3509 4.82850E+01 1.30992E+01 0.00000E+00
 -1      3510 4.67850E+01 1.30992E+01 0.00000E+00
 -1      3511 4.42758E+01 1.33231E+01 0.00000E+00
 -1      3512 4.27758E+01 1.33231E+01 0.00000E+00
 -1      3513 4.12758E+01 1.33231E+01 0.00000E+00
 -1      3514 5.12850E+01 1.30992E+01 0.00000E+00
 -1      3515 4.97850E+01 1.30992E+01 0.00000E+00
 -1      3516 4.90350E+01 1.43982E+01 0.00000E+00
 -1      3517 5.42850E+01 1.30992E+01 0.00000E+00
 -1      3518 5.27850E+01 1.30992E+01 0.00000E+00
 -1      3519 5.20350E+01 1.43982E+01 0.00000E+00
 -1      3520 5.72850E+01 1.30992E+01 0.00000E+00
 -1      3521 5.57850E+01 1.30992E+01 0.00000E+00
 -1      3522 5.50350E+01 1.43982E+01 0.00000E+00
 -1      3523 6.02850E+01 1.30992E+01 0.00000E+00
 -1      3524 5.87850E+01 1.30992E+01 0.00000E+00
 -1      3525 5.80350E+01 1.43982E+01 0.00000E+00
 -1      3526 6.32850E+01 1.30992E+01 0.00000E+00
 -1      3527 6.17850E+01 1.30992E+01 0.00000E+00
 -1      3528 6.10350E+01 1.43982E+01 0.00000E+00
 -1      3529 6.62850E+01 1.30992E+01 0.00000E+00
 -1      3530 6.47850E+01 1.30992E+01 0.00000E+00
 -1      3531 6.40350E+01 1.43982E+01 0.00000E+00
 -1      3532 6.92850E+01 1.30992E+01 0.00000E+00
 -1      3533 6.77850E+01 1.30992E+01 0.00000E+00
 -1      3534 6.70350E+01 1.43982E+01 0.00000E+00
 -1      3535 7.22850E+01 1.30992E+01 0.00000E+00
 -1      3536 7.07850E+01 1.30992E+01 0.00000E+00
 -1      3537 7.00350E+01 1.43982E+01 0.00000E+00
 -1      3538 7.52850E+01 1.30992E+01 0.00000E+00
 -1      3539 7.37850E+01 1.30992E+01 0.00000E+00
 -1      3540 7.30350E+01 1.43982E+01 0.00000E+00
 -1      3541 7.82850E+01 1.30992E+01 0.00000E+00
 -1      3542 7.67850E+01 1.30992E+01 0.00000E+00
 -1      3543 7.60350E+01 1.43982E+01 0.00000E+00
 -1      3544 8.12850E+01 1.30992E+01 0.00000E+00
 -1      3545 7.97850E+01 1.30992E+01 0.00000E+00
 -1      3546 7.90350E+01 1.43982E+01 0.00000E+00
 -1      3547 8.42850E+01 1.30992E+01 0.00000E+00
 -1      3548 8.27850E+01 1.30992E+01 0.00000E+00
 -1      3549 8.20350E+01 1.43982E+01 0.00000E+00
 -1      3550 8.72850E+01 1.30992E+01 0.00000E+00
 -1      3551 8.57850E+01 1.30992E+01 0.00000E+00
 -1      3552 8.50350E+01 1.43982E+01 0.00000E+00
 -1      3553 9.02850E+01 1.30992E+01 0.00000E+00
 -1      3554 8.87850E+01 1.30992E+01 0.00000E+00
 -1      3555 8.80350E+01 1.43982E+01 0.00000E+00
 -1      3556 9.32850E+01 1.30992E+01 0.00000E+00
 -1      3557 9.17850E+01 1.30992E+01 0.00000E+00
 -1      3558 9.10350E+01 1.43982E+01 0.00000E+00
 -1      3559 9.62850E+01 1.30992E+01 0.00000E+00
 -1      3560 9.47850E+01 1.30992E+01 0.00000E+00
 -1      3561 9.40350E+01 1.43982E+01 0.00000E+00
 -1      3562 9.92850E+01 1.30992E+01 0.00000E+00
 -1      3563 9.77850E+01 1.30992E+01 0.00000E+00
 -1      3564 9.70350E+01 1.43982E+01 0.00000E+00
 -1      3565 1.02285E+02 1.30992E+01 0.00000E+00
 -1      3566 1.00785E+02 1.30992E+01 0.00000E+00
 -1      3567 1.00035E+02 1.43982E+01 0.00000E+00
 -1      3568 1.05285E+02 1.30992E+01 0.00000E+00
 -1      3569 1.03785E+02 1.30992E+01 0.00000E+00
 -1      3570 1.03035E+02 1.43982E+01 0.00000E+00
 -1      3571 1.08285E+02 1.30992E+01 0.00000E+00
 -1      3572 1.06785E+02 1.30992E+01 0.00000E+00
 -1      3573 1.06035E+02 1.43982E+01 0.00000E+00
 -1      3574 1.11285E+02 1.30992E+01 0.00000E+00
 -1      3575 1.09785E+02 1.30992E+01 0.00000E+00
 -1      3576 1.09035E+02 1.43982E+01 0.00000E+00
 -1      3577 1.14285E+02 1.30992E+01 0.00000E+00
 -1      3578 1.12785E+02 1.30992E+01 0.00000E+00
 -1      3579 1.12035E+02 1.43982E+01 0.00000E+00
 -1      3580 1.17285E+02 1.30992E+01 0.00000E+00
 -1      3581 1.15785E+02 1.30992E+01 0.00000E+00
 -1      3582 1.15035E+02 1.43982E+01 0.00000E+00
 -1      3583 1.20285E+02 1.30992E+01 0.00000E+00
 -1      3584 1.18785E+02 1.30992E+01 0.00000E+00
 -1      3585 1.18035E+02 1.43982E+01 0.00000E+00
 -1      3586 1.23285E+02 1.30992E+01 0.00000E+00
 -1      3587 1.21785E+02 1.30992E+01 0.00000E+00
 -1      3588 1.21035E+02 1.43982E+01 0.00000E+00
 -1      3589 1.26285E+02 1.30992E+01 0.00000E+00
 -1      3590 1.24785E+02 1.30992E+01 0.00000E+00
 -1      3591 1.24035E+02 1.43982E+01 0.00000E+00
 -1      3592 1.29285E+02 1.30992E+01 0.00000E+00
 -1      3593 1.27785E+02 1.30992E+01 0.00000E+00
 -1      3594 1.27035E+02 1.43982E+01 0.00000E+00
 -1      3595 1.32285E+02 1.30992E+01 0.00000E+00
 -1      3596 1.30785E+02 1.30992E+01 0.00000E+00
 -1      3597 1.30035E+02 1.43982E+01 0.00000E+00
 -1      3598 1.35285E+02 1.30992E+01 0.00000E+00
 -1      3599 1.33785E+02 1.30992E+01 0.00000E+00
 -1      3600 1.33035E+02 1.43982E+01 0.00000E+00
 -1      3601 1.38528E+02 1.44149E+01 0.00000E+00
 -1      3602 1.38594E+02 1.31746E+01 0.00000E+00
 -1      3603 1.37668E+02 1.30636E+01 0.00000E+00
 -1      3604 1.37229E+02 1.51462E+01 0.00000E+00
 -1      3605 4.44608E+01 2.51964E+01 0.00000E+00
 -1      3606 4.44056E+01 2.67042E+01 0.00000E+00
 -1      3607 4.56408E+01 2.45740E+01 0.00000E+00
 -1      3608 1.35557E+01 3.49634E+01 0.00000E+00
 -1      3609 1.37195E+01 3.10862E+01 0.00000E+00
 -1      3610 1.31093E+01 2.97966E+01 0.00000E+00
 -1      3611 1.35711E+02 3.30875E+01 0.00000E+00
 -1      3612 1.35711E+02 3.16125E+01 0.00000E+00
 -1      3613 4.44000E+01 3.57110E+01 0.00000E+00
 -1      3614 4.59000E+01 3.57110E+01 0.00000E+00
 -1      3615 4.66500E+01 3.44120E+01 0.00000E+00
 -1      3616 1.19166E+01 2.90622E+01 0.00000E+00
 -1      3617 4.41933E+01 2.82786E+01 0.00000E+00
 -1      3618 4.39402E+01 2.98239E+01 0.00000E+00
 -1      3619 4.33385E+01 3.15354E+01 0.00000E+00
 -1      3620 4.27090E+01 3.29265E+01 0.00000E+00
 -1      3621 1.43527E+01 3.37542E+01 0.00000E+00
 -1      3622 1.51609E+01 3.52384E+01 0.00000E+00
 -1      3623 1.46944E+01 1.23503E+01 0.00000E+00
 -1      3624 1.43081E+01 1.33498E+01 0.00000E+00
 -1      3625 1.60125E+01 1.25001E+01 0.00000E+00
 -1      3626 1.93807E+01 1.47682E+01 0.00000E+00
 -1      3627 1.95212E+01 1.37882E+01 0.00000E+00
 -1      3628 1.84341E+01 1.47451E+01 0.00000E+00
 -1      3629 1.37046E+01 3.23976E+01 0.00000E+00
 -1      3630 1.88048E+01 1.27827E+01 0.00000E+00
 -1      3631 4.53734E+01 2.76562E+01 0.00000E+00
 -1      3632 4.55596E+01 2.09426E+01 0.00000E+00
 -1      3633 4.65854E+01 2.17957E+01 0.00000E+00
 -1      3634 4.64491E+01 1.96721E+01 0.00000E+00
 -1      3635 4.45594E+01 3.09421E+01 0.00000E+00
 -1      3636 4.50258E+01 1.46221E+01 0.00000E+00
 -1      3637 1.34022E+02 3.59901E+01 0.00000E+00
 -1      3638 1.35329E+02 3.61011E+01 0.00000E+00
 -1      3639 1.35515E+02 3.52494E+01 0.00000E+00
 -1      3640 1.33272E+02 3.46911E+01 0.00000E+00
 -1      3641 3.97324E+01 1.37692E+01 0.00000E+00
 -1      3642 1.35773E+02 1.52929E+01 0.00000E+00
 -1      3643 1.35992E+02 1.42516E+01 0.00000E+00
 -1      3644 1.36742E+02 1.29526E+01 0.00000E+00
 -1      3645 1.35773E+02 1.82429E+01 0.00000E+00
 -1      3646 1.35773E+02 1.67679E+01 0.00000E+00
 -1      3647 1.34535E+02 1.58733E+01 0.00000E+00
 -1      3648 4.17953E+01 3.61225E+01 0.00000E+00
 -1      3649 4.25453E+01 3.48235E+01 0.00000E+00
 -1      3650 1.35711E+02 2.42891E+01 0.00000E+00
 -1      3651 1.35711E+02 2.28172E+01 0.00000E+00
 -1      3652 1.43081E+01 1.48185E+01 0.00000E+00
 -1      3653 1.34412E+02 3.08875E+01 0.00000E+00
 -1      3654 1.35711E+02 3.01500E+01 0.00000E+00
 -1      3655 1.35711E+02 2.86875E+01 0.00000E+00
 -1      3656 1.71047E+01 1.65330E+01 0.00000E+00
 -1      3657 3.70615E+01 1.25105E+01 0.00000E+00
 -1      3658 1.35711E+02 2.57516E+01 0.00000E+00
 -1      3659 1.34412E+02 2.50156E+01 0.00000E+00
 -1      3660 1.35711E+02 2.72141E+01 0.00000E+00
 -1      3661 1.35702E+02 3.43976E+01 0.00000E+00
 -1      3662 3.85615E+01 1.25105E+01 0.00000E+00
 -1      3663 1.34403E+02 3.36601E+01 0.00000E+00
 -1      3664 1.74867E+01 1.26329E+01 0.00000E+00
 -1      3665 4.34870E+01 1.69887E+01 0.00000E+00
 -1      3666 4.49904E+01 1.73694E+01 0.00000E+00
 -1      3667 5.19000E+01 3.31130E+01 0.00000E+00
 -1      3668 5.34000E+01 3.31130E+01 0.00000E+00
 -1      3669 5.49000E+01 3.31130E+01 0.00000E+00
 -1      3670 5.64000E+01 3.31130E+01 0.00000E+00
 -1      3671 5.41500E+01 3.18140E+01 0.00000E+00
 -1      3672 5.79000E+01 3.31130E+01 0.00000E+00
 -1      3673 5.94000E+01 3.31130E+01 0.00000E+00
 -1      3674 5.71500E+01 3.18140E+01 0.00000E+00
 -1      3675 6.09000E+01 3.31130E+01 0.00000E+00
 -1      3676 6.24000E+01 3.31130E+01 0.00000E+00
 -1      3677 6.01500E+01 3.18140E+01 0.00000E+00
 -1      3678 6.39000E+01 3.31130E+01 0.00000E+00
 -1      3679 6.54000E+01 3.31130E+01 0.00000E+00
 -1      3680 6.31500E+01 3.18140E+01 0.00000E+00
 -1      3681 6.69000E+01 3.31130E+01 0.00000E+00
 -1      3682 6.84000E+01 3.31130E+01 0.00000E+00
 -1      3683 6.61500E+01 3.18140E+01 0.00000E+00
 -1      3684 6.99000E+01 3.31130E+01 0.00000E+00
 -1      3685 7.14000E+01 3.31130E+01 0.00000E+00
 -1      3686 6.91500E+01 3.18140E+01 0.00000E+00
 -1      3687 7.29000E+01 3.31130E+01 0.00000E+00
 -1      3688 7.44000E+01 3.31130E+01 0.00000E+00
 -1      3689 7.21500E+01 3.18140E+01 0.00000E+00
 -1      3690 7.59000E+01 3.31130E+01 0.00000E+00
 -1      3691 7.74000E+01 3.31130E+01 0.00000E+00
 -1      3692 7.51500E+01 3.18140E+01 0.00000E+00
 -1      3693 7.89000E+01 3.31130E+01 0.00000E+00
 -1      3694 8.04000E+01 3.31130E+01 0.00000E+00
 -1      3695 7.81500E+01 3.18140E+01 0.00000E+00
 -1      3696 8.19000E+01 3.31130E+01 0.00000E+00
 -1      3697 8.34000E+01 3.31130E+01 0.00000E+00
 -1      3698 8.11500E+01 3.18140E+01 0.00000E+00
 -1      3699 8.49000E+01 3.31130E+01 0.00000E+00
 -1      3700 8.64000E+01 3.31130E+01 0.00000E+00
 -1      3701 8.41500E+01 3.18140E+01 0.00000E+00
 -1      3702 8.79000E+01 3.31130E+01 0.00000E+00
 -1      3703 8.94000E+01 3.31130E+01 0.00000E+00
 -1      3704 8.71500E+01 3.18140E+01 0.00000E+00
 -1      3705 9.09000E+01 3.31130E+01 0.00000E+00
 -1      3706 9.24000E+01 3.31130E+01 0.00000E+00
 -1      3707 9.01500E+01 3.18140E+01 0.00000E+00
 -1      3708 9.39000E+01 3.31130E+01 0.00000E+00
 -1      3709 9.54000E+01 3.31130E+01 0.00000E+00
 -1      3710 9.31500E+01 3.18140E+01 0.00000E+00
 -1      3711 9.69000E+01 3.31130E+01 0.00000E+00
 -1      3712 9.84000E+01 3.31130E+01 0.00000E+00
 -1      3713 9.61500E+01 3.18140E+01 0.00000E+00
 -1      3714 9.99000E+01 3.31130E+01 0.00000E+00
 -1      3715 1.01400E+02 3.31130E+01 0.00000E+00
 -1      3716 9.91500E+01 3.18140E+01 0.00000E+00
 -1      3717 1.02900E+02 3.31130E+01 0.00000E+00
 -1      3718 1.04400E+02 3.31130E+01 0.00000E+00
 -1      3719 1.02150E+02 3.18140E+01 0.00000E+00
 -1      3720 1.05900E+02 3.31130E+01 0.00000E+00
 -1      3721 1.07400E+02 3.31130E+01 0.00000E+00
 -1      3722 1.05150E+02 3.18140E+01 0.00000E+00
 -1      3723 1.08900E+02 3.31130E+01 0.00000E+00
 -1      3724 1.10400E+02 3.31130E+01 0.00000E+00
 -1      3725 1.08150E+02 3.18140E+01 0.00000E+00
 -1      3726 1.11900E+02 3.31130E+01 0.00000E+00
 -1      3727 1.13400E+02 3.31130E+01 0.00000E+00
 -1      3728 1.11150E+02 3.18140E+01 0.00000E+00
 -1      3729 1.14900E+02 3.31130E+01 0.00000E+00
 -1      3730 1.16400E+02 3.31130E+01 0.00000E+00
 -1      3731 1.14150E+02 3.18140E+01 0.00000E+00
 -1      3732 1.17900E+02 3.31130E+01 0.00000E+00
 -1      3733 1.19400E+02 3.31130E+01 0.00000E+00
 -1      3734 1.17150E+02 3.18140E+01 0.00000E+00
 -1      3735 1.20900E+02 3.31130E+01 0.00000E+00
 -1      3736 1.22400E+02 3.31130E+01 0.00000E+00
 -1      3737 1.20150E+02 3.18140E+01 0.00000E+00
 -1      3738 1.23900E+02 3.31130E+01 0.00000E+00
 -1      3739 1.25400E+02 3.31130E+01 0.00000E+00
 -1      3740 1.23150E+02 3.18140E+01 0.00000E+00
 -1      3741 1.26900E+02 3.31130E+01 0.00000E+00
 -1      3742 1.28400E+02 3.31130E+01 0.00000E+00
 -1      3743 1.26150E+02 3.18140E+01 0.00000E+00
 -1      3744 1.29900E+02 3.31130E+01 0.00000E+00
 -1      3745 1.31400E+02 3.31130E+01 0.00000E+00
 -1      3746 1.29150E+02 3.18140E+01 0.00000E+00
 -1      3747 1.33281E+02 3.33810E+01 0.00000E+00
 -1      3748 5.27850E+01 1.56973E+01 0.00000E+00
 -1      3749 5.12850E+01 1.56973E+01 0.00000E+00
 -1      3750 4.97850E+01 1.56973E+01 0.00000E+00
 -1      3751 4.82850E+01 1.56973E+01 0.00000E+00
 -1      3752 5.05350E+01 1.69963E+01 0.00000E+00
 -1      3753 5.57850E+01 1.56973E+01 0.00000E+00
 -1      3754 5.42850E+01 1.56973E+01 0.00000E+00
 -1      3755 5.35350E+01 1.69963E+01 0.00000E+00
 -1      3756 5.87850E+01 1.56973E+01 0.00000E+00
 -1      3757 5.72850E+01 1.56973E+01 0.00000E+00
 -1      3758 5.65350E+01 1.69963E+01 0.00000E+00
 -1      3759 6.17850E+01 1.56973E+01 0.00000E+00
 -1      3760 6.02850E+01 1.56973E+01 0.00000E+00
 -1      3761 5.95350E+01 1.69963E+01 0.00000E+00
 -1      3762 6.47850E+01 1.56973E+01 0.00000E+00
 -1      3763 6.32850E+01 1.56973E+01 0.00000E+00
 -1      3764 6.25350E+01 1.69963E+01 0.00000E+00
 -1      3765 6.77850E+01 1.56973E+01 0.00000E+00
 -1      3766 6.62850E+01 1.56973E+01 0.00000E+00
 -1      3767 6.55350E+01 1.69963E+01 0.00000E+00
 -1      3768 7.07850E+01 1.56973E+01 0.00000E+00
 -1      3769 6.92850E+01 1.56973E+01 0.00000E+00
 -1      3770 6.85350E+01 1.69963E+01 0.00000E+00
 -1      3771 7.37850E+01 1.56973E+01 0.00000E+00
 -1      3772 7.22850E+01 1.56973E+01 0.00000E+00
 -1      3773 7.15350E+01 1.69963E+01 0.00000E+00
 -1      3774 7.67850E+01 1.56973E+01 0.00000E+00
 -1      3775 7.52850E+01 1.56973E+01 0.00000E+00
 -1      3776 7.45350E+01 1.69963E+01 0.00000E+00
 -1      3777 7.97850E+01 1.56973E+01 0.00000E+00
 -1      3778 7.82850E+01 1.56973E+01 0.00000E+00
 -1      3779 7.75350E+01 1.69963E+01 0.00000E+00
 -1      3780 8.27850E+01 1.56973E+01 0.00000E+00
 -1      3781 8.12850E+01 1.56973E+01 0.00000E+00
 -1      3782 8.05350E+01 1.69963E+01 0.00000E+00
 -1      3783 8.57850E+01 1.56973E+01 0.00000E+00
 -1      3784 8.42850E+01 1.56973E+01 0.00000E+00
 -1      3785 8.35350E+01 1.69963E+01 0.00000E+00
 -1      3786 8.87850E+01 1.56973E+01 0.00000E+00
 -1      3787 8.72850E+01 1.56973E+01 0.00000E+00
 -1      3788 8.65350E+01 1.69963E+01 0.00000E+00
 -1      3789 9.17850E+01 1.56973E+01 0.00000E+00
 -1      3790 9.02850E+01 1.56973E+01 0.00000E+00
 -1      3791 8.95350E+01 1.69963E+01 0.00000E+00
 -1      3792 9.47850E+01 1.56973E+01 0.00000E+00
 -1      3793 9.32850E+01 1.56973E+01 0.00000E+00
 -1      3794 9.25350E+01 1.69963E+01 0.00000E+00
 -1      3795 9.77850E+01 1.56973E+01 0.00000E+00
 -1      3796 9.62850E+01 1.56973E+01 0.00000E+00
 -1      3797 9.55350E+01 1.69963E+01 0.00000E+00
 -1      3798 1.00785E+02 1.56973E+01 0.00000E+00
 -1      3799 9.92850E+01 1.56973E+01 0.00000E+00
 -1      3800 9.85350E+01 1.69963E+01 0.00000E+00
 -1      3801 1.03785E+02 1.56973E+01 0.00000E+00
 -1      3802 1.02285E+02 1.56973E+01 0.00000E+00
 -1      3803 1.01535E+02 1.69963E+01 0.00000E+00
 -1      3804 1.06785E+02 1.56973E+01 0.00000E+00
 -1      3805 1.05285E+02 1.56973E+01 0.00000E+00
 -1      3806 1.04535E+02 1.69963E+01 0.00000E+00
 -1      3807 1.09785E+02 1.56973E+01 0.00000E+00
 -1      3808 1.08285E+02 1.56973E+01 0.00000E+00
 -1      3809 1.07535E+02 1.69963E+01 0.00000E+00
 -1      3810 1.12785E+02 1.56973E+01 0.00000E+00
 -1      3811 1.11285E+02 1.56973E+01 0.00000E+00
 -1      3812 1.10535E+02 1.69963E+01 0.00000E+00
 -1      3813 1.15785E+02 1.56973E+01 0.00000E+00
 -1      3814 1.14285E+02 1.56973E+01 0.00000E+00
 -1      3815 1.13535E+02 1.69963E+01 0.00000E+00
 -1      3816 1.18785E+02 1.56973E+01 0.00000E+00
 -1      3817 1.17285E+02 1.56973E+01 0.00000E+00
 -1      3818 1.16535E+02 1.69963E+01 0.00000E+00
 -1      3819 1.21785E+02 1.56973E+01 0.00000E+00
 -1      3820 1.20285E+02 1.56973E+01 0.00000E+00
 -1      3821 1.19535E+02 1.69963E+01 0.00000E+00
 -1      3822 1.24785E+02 1.56973E+01 0.00000E+00
 -1      3823 1.23285E+02 1.56973E+01 0.00000E+00
 -1      3824 1.22535E+02 1.69963E+01 0.00000E+00
 -1      3825 1.27785E+02 1.56973E+01 0.00000E+00
 -1      3826 1.26285E+02 1.56973E+01 0.00000E+00
 -1      3827 1.25535E+02 1.69963E+01 0.00000E+00
 -1      3828 1.30785E+02 1.56973E+01 0.00000E+00
 -1      3829 1.29285E+02 1.56973E+01 0.00000E+00
 -1      3830 1.28535E+02 1.69963E+01 0.00000E+00
 -1      3831 1.33410E+02 1.57852E+01 0.00000E+00
 -1      3832 1.31910E+02 1.57852E+01 0.00000E+00
 -1      3833 1.31160E+02 1.70842E+01 0.00000E+00
 -1      3834 1.33410E+02 1.72603E+01 0.00000E+00
 -1      3835 4.68603E+01 2.38637E+01 0.00000E+00
 -1      3836 4.68052E+01 2.53715E+01 0.00000E+00
 -1      3837 1.71004E+01 1.36323E+01 0.00000E+00
 -1      3838 1.34412E+02 2.20812E+01 0.00000E+00
 -1      3839 1.35711E+02 2.13453E+01 0.00000E+00
 -1      3840 1.35711E+02 1.98734E+01 0.00000E+00
 -1      3841 4.89000E+01 3.31130E+01 0.00000E+00
 -1      3842 5.04000E+01 3.31130E+01 0.00000E+00
 -1      3843 5.11500E+01 3.18140E+01 0.00000E+00
 -1      3844 4.67963E+01 1.64580E+01 0.00000E+00
 -1      3845 4.72292E+01 1.79076E+01 0.00000E+00
 -1      3846 4.59064E+01 3.04541E+01 0.00000E+00
 -1      3847 4.53047E+01 3.21656E+01 0.00000E+00
 -1      3848 1.69599E+01 1.46123E+01 0.00000E+00
 -1      3849 4.04881E+01 3.61877E+01 0.00000E+00
 -1      3850 1.57711E+01 1.54203E+01 0.00000E+00
 -1      3851 4.66615E+01 2.70284E+01 0.00000E+00
 -1      3852 4.64492E+01 2.86027E+01 0.00000E+00
 -1      3853 1.32531E+02 3.20820E+01 0.00000E+00
 -1      3854 4.35371E+01 1.53829E+01 0.00000E+00
 -1      3855 4.82549E+01 1.87607E+01 0.00000E+00
 -1      3856 1.44529E+01 1.67392E+01 0.00000E+00
 -1      3857 4.77497E+01 2.25932E+01 0.00000E+00
 -1      3858 4.71946E+01 2.98263E+01 0.00000E+00
 -1      3859 4.78810E+01 2.63180E+01 0.00000E+00
 -1      3860 1.34473E+02 1.89788E+01 0.00000E+00
 -1      3861 1.33113E+02 2.28172E+01 0.00000E+00
 -1      3862 1.33113E+02 2.13453E+01 0.00000E+00
 -1      3863 4.74009E+01 3.30448E+01 0.00000E+00
 -1      3864 4.81509E+01 3.17458E+01 0.00000E+00
 -1      3865 1.32531E+02 3.06195E+01 0.00000E+00
 -1      3866 4.59009E+01 3.30448E+01 0.00000E+00
 -1      3867 1.33113E+02 2.42797E+01 0.00000E+00
 -1      3868 1.31814E+02 2.35438E+01 0.00000E+00
 -1      3869 1.33113E+02 2.57422E+01 0.00000E+00
 -1      3870 4.45539E+01 3.35328E+01 0.00000E+00
 -1      3871 4.33052E+01 3.38057E+01 0.00000E+00
 -1      3872 1.34412E+02 2.79516E+01 0.00000E+00
 -1      3873 5.64000E+01 3.05150E+01 0.00000E+00
 -1      3874 5.79000E+01 3.05150E+01 0.00000E+00
 -1      3875 5.94000E+01 3.05150E+01 0.00000E+00
 -1      3876 6.09000E+01 3.05150E+01 0.00000E+00
 -1      3877 5.86500E+01 2.92160E+01 0.00000E+00
 -1      3878 6.24000E+01 3.05150E+01 0.00000E+00
 -1      3879 6.39000E+01 3.05150E+01 0.00000E+00
 -1      3880 6.16500E+01 2.92160E+01 0.00000E+00
 -1      3881 6.54000E+01 3.05150E+01 0.00000E+00
 -1      3882 6.69000E+01 3.05150E+01 0.00000E+00
 -1      3883 6.46500E+01 2.92160E+01 0.00000E+00
 -1      3884 6.84000E+01 3.05150E+01 0.00000E+00
 -1      3885 6.99000E+01 3.05150E+01 0.00000E+00
 -1      3886 6.76500E+01 2.92160E+01 0.00000E+00
 -1      3887 7.14000E+01 3.05150E+01 0.00000E+00
 -1      3888 7.29000E+01 3.05150E+01 0.00000E+00
 -1      3889 7.06500E+01 2.92160E+01 0.00000E+00
 -1      3890 7.44000E+01 3.05150E+01 0.00000E+00
 -1      3891 7.59000E+01 3.05150E+01 0.00000E+00
 -1      3892 7.36500E+01 2.92160E+01 0.00000E+00
 -1      3893 7.74000E+01 3.05150E+01 0.00000E+00
 -1      3894 7.89000E+01 3.05150E+01 0.00000E+00
 -1      3895 7.66500E+01 2.92160E+01 0.00000E+00
 -1      3896 8.04000E+01 3.05150E+01 0.00000E+00
 -1      3897 8.19000E+01 3.05150E+01 0.00000E+00
 -1      3898 7.96500E+01 2.92160E+01 0.00000E+00
 -1      3899 8.34000E+01 3.05150E+01 0.00000E+00
 -1      3900 8.49000E+01 3.05150E+01 0.00000E+00
 -1      3901 8.26500E+01 2.92160E+01 0.00000E+00
 -1      3902 8.64000E+01 3.05150E+01 0.00000E+00
 -1      3903 8.79000E+01 3.05150E+01 0.00000E+00
 -1      3904 8.56500E+01 2.92160E+01 0.00000E+00
 -1      3905 8.94000E+01 3.05150E+01 0.00000E+00
 -1      3906 9.09000E+01 3.05150E+01 0.00000E+00
 -1      3907 8.86500E+01 2.92160E+01 0.00000E+00
 -1      3908 9.24000E+01 3.05150E+01 0.00000E+00
 -1      3909 9.39000E+01 3.05150E+01 0.00000E+00
 -1      3910 9.16500E+01 2.92160E+01 0.00000E+00
 -1      3911 9.54000E+01 3.05150E+01 0.00000E+00
 -1      3912 9.69000E+01 3.05150E+01 0.00000E+00
 -1      3913 9.46500E+01 2.92160E+01 0.00000E+00
 -1      3914 9.84000E+01 3.05150E+01 0.00000E+00
 -1      3915 9.99000E+01 3.05150E+01 0.00000E+00
 -1      3916 9.76500E+01 2.92160E+01 0.00000E+00
 -1      3917 1.01400E+02 3.05150E+01 0.00000E+00
 -1      3918 1.02900E+02 3.05150E+01 0.00000E+00
 -1      3919 1.00650E+02 2.92160E+01 0.00000E+00
 -1      3920 1.04400E+02 3.05150E+01 0.00000E+00
 -1      3921 1.05900E+02 3.05150E+01 0.00000E+00
 -1      3922 1.03650E+02 2.92160E+01 0.00000E+00
 -1      3923 1.07400E+02 3.05150E+01 0.00000E+00
 -1      3924 1.08900E+02 3.05150E+01 0.00000E+00
 -1      3925 1.06650E+02 2.92160E+01 0.00000E+00
 -1      3926 1.10400E+02 3.05150E+01 0.00000E+00
 -1      3927 1.11900E+02 3.05150E+01 0.00000E+00
 -1      3928 1.09650E+02 2.92160E+01 0.00000E+00
 -1      3929 1.13400E+02 3.05150E+01 0.00000E+00
 -1      3930 1.14900E+02 3.05150E+01 0.00000E+00
 -1      3931 1.12650E+02 2.92160E+01 0.00000E+00
 -1      3932 1.16400E+02 3.05150E+01 0.00000E+00
 -1      3933 1.17900E+02 3.05150E+01 0.00000E+00
 -1      3934 1.15650E+02 2.92160E+01 0.00000E+00
 -1      3935 1.19400E+02 3.05150E+01 0.00000E+00
 -1      3936 1.20900E+02 3.05150E+01 0.00000E+00
 -1      3937 1.18650E+02 2.92160E+01 0.00000E+00
 -1      3938 1.22400E+02 3.05150E+01 0.00000E+00
 -1      3939 1.23900E+02 3.05150E+01 0.00000E+00
 -1      3940 1.21650E+02 2.92160E+01 0.00000E+00
 -1      3941 1.25400E+02 3.05150E+01 0.00000E+00
 -1      3942 1.26900E+02 3.05150E+01 0.00000E+00
 -1      3943 1.24650E+02 2.92160E+01 0.00000E+00
 -1      3944 1.28400E+02 3.05150E+01 0.00000E+00
 -1      3945 1.29900E+02 3.05150E+01 0.00000E+00
 -1      3946 1.27650E+02 2.92160E+01 0.00000E+00
 -1      3947 5.12549E+01 1.87607E+01 0.00000E+00
 -1      3948 4.97549E+01 1.87607E+01 0.00000E+00
 -1      3949 4.89748E+01 2.05252E+01 0.00000E+00
 -1      3950 5.72850E+01 1.82952E+01 0.00000E+00
 -1      3951 5.57850E+01 1.82952E+01 0.00000E+00
 -1      3952 4.60463E+01 1.51590E+01 0.00000E+00
 -1      3953 6.02850E+01 1.82952E+01 0.00000E+00
 -1      3954 5.87850E+01 1.82952E+01 0.00000E+00
 -1      3955 5.80350E+01 1.95942E+01 0.00000E+00
 -1      3956 6.32850E+01 1.82952E+01 0.00000E+00
 -1      3957 6.17850E+01 1.82952E+01 0.00000E+00
 -1      3958 6.10350E+01 1.95942E+01 0.00000E+00
 -1      3959 6.62850E+01 1.82952E+01 0.00000E+00
 -1      3960 6.47850E+01 1.82952E+01 0.00000E+00
 -1      3961 6.40350E+01 1.95942E+01 0.00000E+00
 -1      3962 6.92850E+01 1.82952E+01 0.00000E+00
 -1      3963 6.77850E+01 1.82952E+01 0.00000E+00
 -1      3964 6.70350E+01 1.95942E+01 0.00000E+00
 -1      3965 7.22850E+01 1.82952E+01 0.00000E+00
 -1      3966 7.07850E+01 1.82952E+01 0.00000E+00
 -1      3967 7.00350E+01 1.95942E+01 0.00000E+00
 -1      3968 7.52850E+01 1.82952E+01 0.00000E+00
 -1      3969 7.37850E+01 1.82952E+01 0.00000E+00
 -1      3970 7.30350E+01 1.95942E+01 0.00000E+00
 -1      3971 7.82850E+01 1.82952E+01 0.00000E+00
 -1      3972 7.67850E+01 1.82952E+01 0.00000E+00
 -1      3973 7.60350E+01 1.95942E+01 0.00000E+00
 -1      3974 8.12850E+01 1.82952E+01 0.00000E+00
 -1      3975 7.97850E+01 1.82952E+01 0.00000E+00
 -1      3976 7.90350E+01 1.95942E+01 0.00000E+00
 -1      3977 8.42850E+01 1.82952E+01 0.00000E+00
 -1      3978 8.27850E+01 1.82952E+01 0.00000E+00
 -1      3979 8.20350E+01 1.95942E+01 0.00000E+00
 -1      3980 8.72850E+01 1.82952E+01 0.00000E+00
 -1      3981 8.57850E+01 1.82952E+01 0.00000E+00
 -1      3982 8.50350E+01 1.95942E+01 0.00000E+00
 -1      3983 9.02850E+01 1.82952E+01 0.00000E+00
 -1      3984 8.87850E+01 1.82952E+01 0.00000E+00
 -1      3985 8.80350E+01 1.95942E+01 0.00000E+00
 -1      3986 9.32850E+01 1.82952E+01 0.00000E+00
 -1      3987 9.17850E+01 1.82952E+01 0.00000E+00
 -1      3988 9.10350E+01 1.95942E+01 0.00000E+00
 -1      3989 9.62850E+01 1.82952E+01 0.00000E+00
 -1      3990 9.47850E+01 1.82952E+01 0.00000E+00
 -1      3991 9.40350E+01 1.95942E+01 0.00000E+00
 -1      3992 9.92850E+01 1.82952E+01 0.00000E+00
 -1      3993 9.77850E+01 1.82952E+01 0.00000E+00
 -1      3994 9.70350E+01 1.95942E+01 0.00000E+00
 -1      3995 1.02285E+02 1.82952E+01 0.00000E+00
 -1      3996 1.00785E+02 1.82952E+01 0.00000E+00
 -1      3997 1.00035E+02 1.95942E+01 0.00000E+00
 -1      3998 1.05285E+02 1.82952E+01 0.00000E+00
 -1      3999 1.03785E+02 1.82952E+01 0.00000E+00
 -1      4000 1.03035E+02 1.95942E+01 0.00000E+00
 -1      4001 1.08285E+02 1.82952E+01 0.00000E+00
 -1      4002 1.06785E+02 1.82952E+01 0.00000E+00
 -1      4003 1.06035E+02 1.95942E+01 0.00000E+00
 -1      4004 1.11285E+02 1.82952E+01 0.00000E+00
 -1      4005 1.09785E+02 1.82952E+01 0.00000E+00
 -1      4006 1.09035E+02 1.95942E+01 0.00000E+00
 -1      4007 1.14285E+02 1.82952E+01 0.00000E+00
 -1      4008 1.12785E+02 1.82952E+01 0.00000E+00
 -1      4009 1.12035E+02 1.95942E+01 0.00000E+00
 -1      4010 1.17285E+02 1.82952E+01 0.00000E+00
 -1      4011 1.15785E+02 1.82952E+01 0.00000E+00
 -1      4012 1.15035E+02 1.95942E+01 0.00000E+00
 -1      4013 1.20285E+02 1.82952E+01 0.00000E+00
 -1      4014 1.18785E+02 1.82952E+01 0.00000E+00
 -1      4015 1.18035E+02 1.95942E+01 0.00000E+00
 -1      4016 1.23285E+02 1.82952E+01 0.00000E+00
 -1      4017 1.21785E+02 1.82952E+01 0.00000E+00
 -1      4018 1.21035E+02 1.95942E+01 0.00000E+00
 -1      4019 1.26285E+02 1.82952E+01 0.00000E+00
 -1      4020 1.24785E+02 1.82952E+01 0.00000E+00
 -1      4021 1.24035E+02 1.95942E+01 0.00000E+00
 -1      4022 1.29285E+02 1.82952E+01 0.00000E+00
 -1      4023 1.27785E+02 1.82952E+01 0.00000E+00
 -1      4024 1.27035E+02 1.95942E+01 0.00000E+00
 -1      4025 5.34000E+01 3.05150E+01 0.00000E+00
 -1      4026 5.49000E+01 3.05150E+01 0.00000E+00
 -1      4027 5.56500E+01 2.92160E+01 0.00000E+00
 -1      4028 4.86937E+01 2.98945E+01 0.00000E+00
 -1      4029 1.31215E+02 2.98305E+01 0.00000E+00
 -1      4030 1.33096E+02 2.86360E+01 0.00000E+00
 -1      4031 1.33096E+02 2.71626E+01 0.00000E+00
 -1      4032 1.30465E+02 2.85315E+01 0.00000E+00
 -1      4033 5.42700E+01 1.85280E+01 0.00000E+00
 -1      4034 5.27700E+01 1.85280E+01 0.00000E+00
 -1      4035 5.19898E+01 2.02924E+01 0.00000E+00
 -1      4036 5.50200E+01 1.98270E+01 0.00000E+00
 -1      4037 5.02968E+01 3.02047E+01 0.00000E+00
 -1      4038 5.17968E+01 3.02047E+01 0.00000E+00
 -1      4039 5.25468E+01 2.89057E+01 0.00000E+00
 -1      4040 4.93405E+01 2.82852E+01 0.00000E+00
 -1      4041 4.96278E+01 2.49714E+01 0.00000E+00
 -1      4042 4.94842E+01 2.66283E+01 0.00000E+00
 -1      4043 5.10873E+01 2.69386E+01 0.00000E+00
 -1      4044 4.92497E+01 2.25932E+01 0.00000E+00
 -1      4045 1.33231E+02 2.01181E+01 0.00000E+00
 -1      4046 1.33292E+02 1.84875E+01 0.00000E+00
 -1      4047 1.32167E+02 1.83995E+01 0.00000E+00
 -1      4048 1.31932E+02 2.08540E+01 0.00000E+00
 -1      4049 5.08529E+01 2.29034E+01 0.00000E+00
 -1      4050 1.31042E+02 1.83115E+01 0.00000E+00
 -1      4051 1.30515E+02 2.42750E+01 0.00000E+00
 -1      4052 1.30515E+02 2.28125E+01 0.00000E+00
 -1      4053 1.31798E+02 2.64267E+01 0.00000E+00
 -1      4054 1.28876E+02 2.15690E+01 0.00000E+00
 -1      4055 1.30174E+02 2.08377E+01 0.00000E+00
 -1      4056 1.30292E+02 1.96105E+01 0.00000E+00
 -1      4057 6.09000E+01 2.79170E+01 0.00000E+00
 -1      4058 6.24000E+01 2.79170E+01 0.00000E+00
 -1      4059 6.39000E+01 2.79170E+01 0.00000E+00
 -1      4060 6.54000E+01 2.79170E+01 0.00000E+00
 -1      4061 6.31500E+01 2.66180E+01 0.00000E+00
 -1      4062 6.69000E+01 2.79170E+01 0.00000E+00
 -1      4063 6.84000E+01 2.79170E+01 0.00000E+00
 -1      4064 6.61500E+01 2.66180E+01 0.00000E+00
 -1      4065 6.99000E+01 2.79170E+01 0.00000E+00
 -1      4066 7.14000E+01 2.79170E+01 0.00000E+00
 -1      4067 6.91500E+01 2.66180E+01 0.00000E+00
 -1      4068 7.29000E+01 2.79170E+01 0.00000E+00
 -1      4069 7.44000E+01 2.79170E+01 0.00000E+00
 -1      4070 7.21500E+01 2.66180E+01 0.00000E+00
 -1      4071 7.59000E+01 2.79170E+01 0.00000E+00
 -1      4072 7.74000E+01 2.79170E+01 0.00000E+00
 -1      4073 7.51500E+01 2.66180E+01 0.00000E+00
 -1      4074 7.89000E+01 2.79170E+01 0.00000E+00
 -1      4075 8.04000E+01 2.79170E+01 0.00000E+00
 -1      4076 7.81500E+01 2.66180E+01 0.00000E+00
 -1      4077 8.19000E+01 2.79170E+01 0.00000E+00
 -1      4078 8.34000E+01 2.79170E+01 0.00000E+00
 -1      4079 8.11500E+01 2.66180E+01 0.00000E+00
 -1      4080 8.49000E+01 2.79170E+01 0.00000E+00
 -1      4081 8.64000E+01 2.79170E+01 0.00000E+00
 -1      4082 8.41500E+01 2.66180E+01 0.00000E+00
 -1      4083 8.79000E+01 2.79170E+01 0.00000E+00
 -1      4084 8.94000E+01 2.79170E+01 0.00000E+00
 -1      4085 8.71500E+01 2.66180E+01 0.00000E+00
 -1      4086 9.09000E+01 2.79170E+01 0.00000E+00
 -1      4087 9.24000E+01 2.79170E+01 0.00000E+00
 -1      4088 9.01500E+01 2.66180E+01 0.00000E+00
 -1      4089 9.39000E+01 2.79170E+01 0.00000E+00
 -1      4090 9.54000E+01 2.79170E+01 0.00000E+00
 -1      4091 9.31500E+01 2.66180E+01 0.00000E+00
 -1      4092 9.69000E+01 2.79170E+01 0.00000E+00
 -1      4093 9.84000E+01 2.79170E+01 0.00000E+00
 -1      4094 9.61500E+01 2.66180E+01 0.00000E+00
 -1      4095 9.99000E+01 2.79170E+01 0.00000E+00
 -1      4096 1.01400E+02 2.79170E+01 0.00000E+00
 -1      4097 9.91500E+01 2.66180E+01 0.00000E+00
 -1      4098 1.02900E+02 2.79170E+01 0.00000E+00
 -1      4099 1.04400E+02 2.79170E+01 0.00000E+00
 -1      4100 1.02150E+02 2.66180E+01 0.00000E+00
 -1      4101 1.05900E+02 2.79170E+01 0.00000E+00
 -1      4102 1.07400E+02 2.79170E+01 0.00000E+00
 -1      4103 1.05150E+02 2.66180E+01 0.00000E+00
 -1      4104 1.08900E+02 2.79170E+01 0.00000E+00
 -1      4105 1.10400E+02 2.79170E+01 0.00000E+00
 -1      4106 1.08150E+02 2.66180E+01 0.00000E+00
 -1      4107 1.11900E+02 2.79170E+01 0.00000E+00
 -1      4108 1.13400E+02 2.79170E+01 0.00000E+00
 -1      4109 1.11150E+02 2.66180E+01 0.00000E+00
 -1      4110 1.14900E+02 2.79170E+01 0.00000E+00
 -1      4111 1.16400E+02 2.79170E+01 0.00000E+00
 -1      4112 1.14150E+02 2.66180E+01 0.00000E+00
 -1      4113 1.17900E+02 2.79170E+01 0.00000E+00
 -1      4114 1.19400E+02 2.79170E+01 0.00000E+00
 -1      4115 1.17150E+02 2.66180E+01 0.00000E+00
 -1      4116 1.20900E+02 2.79170E+01 0.00000E+00
 -1      4117 1.22400E+02 2.79170E+01 0.00000E+00
 -1      4118 1.20150E+02 2.66180E+01 0.00000E+00
 -1      4119 1.23900E+02 2.79170E+01 0.00000E+00
 -1      4120 1.25400E+02 2.79170E+01 0.00000E+00
 -1      4121 1.23150E+02 2.66180E+01 0.00000E+00
 -1      4122 1.26900E+02 2.79170E+01 0.00000E+00
 -1      4123 1.28400E+02 2.79170E+01 0.00000E+00
 -1      4124 1.26150E+02 2.66180E+01 0.00000E+00
 -1      4125 6.17850E+01 2.08932E+01 0.00000E+00
 -1      4126 6.02850E+01 2.08932E+01 0.00000E+00
 -1      4127 6.47850E+01 2.08932E+01 0.00000E+00
 -1      4128 6.32850E+01 2.08932E+01 0.00000E+00
 -1      4129 6.25350E+01 2.21922E+01 0.00000E+00
 -1      4130 6.77850E+01 2.08932E+01 0.00000E+00
 -1      4131 6.62850E+01 2.08932E+01 0.00000E+00
 -1      4132 6.55350E+01 2.21922E+01 0.00000E+00
 -1      4133 7.07850E+01 2.08932E+01 0.00000E+00
 -1      4134 6.92850E+01 2.08932E+01 0.00000E+00
 -1      4135 6.85350E+01 2.21922E+01 0.00000E+00
 -1      4136 7.37850E+01 2.08932E+01 0.00000E+00
 -1      4137 7.22850E+01 2.08932E+01 0.00000E+00
 -1      4138 7.15350E+01 2.21922E+01 0.00000E+00
 -1      4139 7.67850E+01 2.08932E+01 0.00000E+00
 -1      4140 7.52850E+01 2.08932E+01 0.00000E+00
 -1      4141 7.45350E+01 2.21922E+01 0.00000E+00
 -1      4142 7.97850E+01 2.08932E+01 0.00000E+00
 -1      4143 7.82850E+01 2.08932E+01 0.00000E+00
 -1      4144 7.75350E+01 2.21922E+01 0.00000E+00
 -1      4145 8.27850E+01 2.08932E+01 0.00000E+00
 -1      4146 8.12850E+01 2.08932E+01 0.00000E+00
 -1      4147 8.05350E+01 2.21922E+01 0.00000E+00
 -1      4148 8.57850E+01 2.08932E+01 0.00000E+00
 -1      4149 8.42850E+01 2.08932E+01 0.00000E+00
 -1      4150 8.35350E+01 2.21922E+01 0.00000E+00
 -1      4151 8.87850E+01 2.08932E+01 0.00000E+00
 -1      4152 8.72850E+01 2.08932E+01 0.00000E+00
 -1      4153 8.65350E+01 2.21922E+01 0.00000E+00
 -1      4154 9.17850E+01 2.08932E+01 0.00000E+00
 -1      4155 9.02850E+01 2.08932E+01 0.00000E+00
 -1      4156 8.95350E+01 2.21922E+01 0.00000E+00
 -1      4157 9.47850E+01 2.08932E+01 0.00000E+00
 -1      4158 9.32850E+01 2.08932E+01 0.00000E+00
 -1      4159 9.25350E+01 2.21922E+01 0.00000E+00
 -1      4160 9.77850E+01 2.08932E+01 0.00000E+00
 -1      4161 9.62850E+01 2.08932E+01 0.00000E+00
 -1      4162 9.55350E+01 2.21922E+01 0.00000E+00
 -1      4163 1.00785E+02 2.08932E+01 0.00000E+00
 -1      4164 9.92850E+01 2.08932E+01 0.00000E+00
 -1      4165 9.85350E+01 2.21922E+01 0.00000E+00
 -1      4166 1.03785E+02 2.08932E+01 0.00000E+00
 -1      4167 1.02285E+02 2.08932E+01 0.00000E+00
 -1      4168 1.01535E+02 2.21922E+01 0.00000E+00
 -1      4169 1.06785E+02 2.08932E+01 0.00000E+00
 -1      4170 1.05285E+02 2.08932E+01 0.00000E+00
 -1      4171 1.04535E+02 2.21922E+01 0.00000E+00
 -1      4172 1.09785E+02 2.08932E+01 0.00000E+00
 -1      4173 1.08285E+02 2.08932E+01 0.00000E+00
 -1      4174 1.07535E+02 2.21922E+01 0.00000E+00
 -1      4175 1.12785E+02 2.08932E+01 0.00000E+00
 -1      4176 1.11285E+02 2.08932E+01 0.00000E+00
 -1      4177 1.10535E+02 2.21922E+01 0.00000E+00
 -1      4178 1.15785E+02 2.08932E+01 0.00000E+00
 -1      4179 1.14285E+02 2.08932E+01 0.00000E+00
 -1      4180 1.13535E+02 2.21922E+01 0.00000E+00
 -1      4181 1.18785E+02 2.08932E+01 0.00000E+00
 -1      4182 1.17285E+02 2.08932E+01 0.00000E+00
 -1      4183 1.16535E+02 2.21922E+01 0.00000E+00
 -1      4184 1.21785E+02 2.08932E+01 0.00000E+00
 -1      4185 1.20285E+02 2.08932E+01 0.00000E+00
 -1      4186 1.19535E+02 2.21922E+01 0.00000E+00
 -1      4187 1.24785E+02 2.08932E+01 0.00000E+00
 -1      4188 1.23285E+02 2.08932E+01 0.00000E+00
 -1      4189 1.22535E+02 2.21922E+01 0.00000E+00
 -1      4190 1.27580E+02 2.12311E+01 0.00000E+00
 -1      4191 1.26080E+02 2.12311E+01 0.00000E+00
 -1      4192 1.25330E+02 2.25301E+01 0.00000E+00
 -1      4193 1.27921E+02 2.32059E+01 0.00000E+00
 -1      4194 5.49000E+01 2.79170E+01 0.00000E+00
 -1      4195 5.64000E+01 2.79170E+01 0.00000E+00
 -1      4196 1.29732E+02 2.58121E+01 0.00000E+00
 -1      4197 1.28433E+02 2.50809E+01 0.00000E+00
 -1      4198 1.29715E+02 2.72325E+01 0.00000E+00
 -1      4199 5.21921E+01 2.72727E+01 0.00000E+00
 -1      4200 5.37952E+01 2.75829E+01 0.00000E+00
 -1      4201 5.45452E+01 2.62839E+01 0.00000E+00
 -1      4202 5.23357E+01 2.56158E+01 0.00000E+00
 -1      4203 5.87850E+01 2.08932E+01 0.00000E+00
 -1      4204 5.72850E+01 2.08932E+01 0.00000E+00
 -1      4205 5.95350E+01 2.21922E+01 0.00000E+00
 -1      4206 5.79000E+01 2.79170E+01 0.00000E+00
 -1      4207 5.94000E+01 2.79170E+01 0.00000E+00
 -1      4208 5.71500E+01 2.66180E+01 0.00000E+00
 -1      4209 6.01500E+01 2.66180E+01 0.00000E+00
 -1      4210 5.19467E+01 2.15104E+01 0.00000E+00
 -1      4211 5.23248E+01 2.38886E+01 0.00000E+00
 -1      4212 1.27138E+02 2.47430E+01 0.00000E+00
 -1      4213 5.57268E+01 2.23439E+01 0.00000E+00
 -1      4214 5.49768E+01 2.10449E+01 0.00000E+00
 -1      4215 5.34296E+01 2.42227E+01 0.00000E+00
 -1      4216 5.34618E+01 2.12776E+01 0.00000E+00
 -1      4217 6.58425E+01 2.44051E+01 0.00000E+00
 -1      4218 6.73425E+01 2.44051E+01 0.00000E+00
 -1      4219 6.88425E+01 2.44051E+01 0.00000E+00
 -1      4220 7.03425E+01 2.44051E+01 0.00000E+00
 -1      4221 7.18425E+01 2.44051E+01 0.00000E+00
 -1      4222 7.33425E+01 2.44051E+01 0.00000E+00
 -1      4223 7.48425E+01 2.44051E+01 0.00000E+00
 -1      4224 7.63425E+01 2.44051E+01 0.00000E+00
 -1      4225 7.78425E+01 2.44051E+01 0.00000E+00
 -1      4226 7.93425E+01 2.44051E+01 0.00000E+00
 -1      4227 8.08425E+01 2.44051E+01 0.00000E+00
 -1      4228 8.23425E+01 2.44051E+01 0.00000E+00
 -1      4229 8.38425E+01 2.44051E+01 0.00000E+00
 -1      4230 8.53425E+01 2.44051E+01 0.00000E+00
 -1      4231 8.68425E+01 2.44051E+01 0.00000E+00
 -1      4232 8.83425E+01 2.44051E+01 0.00000E+00
 -1      4233 8.98425E+01 2.44051E+01 0.00000E+00
 -1      4234 9.13425E+01 2.44051E+01 0.00000E+00
 -1      4235 9.28425E+01 2.44051E+01 0.00000E+00
 -1      4236 9.43425E+01 2.44051E+01 0.00000E+00
 -1      4237 9.58425E+01 2.44051E+01 0.00000E+00
 -1      4238 9.73425E+01 2.44051E+01 0.00000E+00
 -1      4239 9.88425E+01 2.44051E+01 0.00000E+00
 -1      4240 1.00342E+02 2.44051E+01 0.00000E+00
 -1      4241 1.01842E+02 2.44051E+01 0.00000E+00
 -1      4242 1.03342E+02 2.44051E+01 0.00000E+00
 -1      4243 1.04842E+02 2.44051E+01 0.00000E+00
 -1      4244 1.06342E+02 2.44051E+01 0.00000E+00
 -1      4245 1.07842E+02 2.44051E+01 0.00000E+00
 -1      4246 1.09342E+02 2.44051E+01 0.00000E+00
 -1      4247 1.10842E+02 2.44051E+01 0.00000E+00
 -1      4248 1.12342E+02 2.44051E+01 0.00000E+00
 -1      4249 1.13842E+02 2.44051E+01 0.00000E+00
 -1      4250 1.15342E+02 2.44051E+01 0.00000E+00
 -1      4251 1.16842E+02 2.44051E+01 0.00000E+00
 -1      4252 1.18342E+02 2.44051E+01 0.00000E+00
 -1      4253 1.19842E+02 2.44051E+01 0.00000E+00
 -1      4254 1.21342E+02 2.44051E+01 0.00000E+00
 -1      4255 1.22842E+02 2.44051E+01 0.00000E+00
 -1      4256 1.24342E+02 2.44051E+01 0.00000E+00
 -1      4257 1.25638E+02 2.47430E+01 0.00000E+00
 -1      4258 6.43425E+01 2.44051E+01 0.00000E+00
 -1      4259 6.28425E+01 2.44051E+01 0.00000E+00
 -1      4260 6.13425E+01 2.44051E+01 0.00000E+00
 -1      4261 5.98425E+01 2.44051E+01 0.00000E+00
 -1      4262 5.83425E+01 2.44051E+01 0.00000E+00
 -1      4263 5.68425E+01 2.44051E+01 0.00000E+00
 -1      4264 5.45343E+01 2.45568E+01 0.00000E+00
 -3
    3C                          2050                                     1
 -1       165    8    0    1
 -2         6         7        23      1108      1272      1125
 -1       166    8    0    1
 -2         7         8       165      1109      1273      1274
 -1       167    8    0    1
 -2         8         9       166      1110      1275      1276
 -1       168    8    0    1
 -2         8       166       165      1276      1277      1273
 -1       169    8    0    1
 -2         9        10       167      1111      1278      1279
 -1       170    8    0    1
 -2         9       167       166      1279      1280      1275
 -1       171    8    0    1
 -2        10        11       168      1112      1281      1282
 -1       172    8    0    1
 -2        10       168       167      1282      1283      1278
 -1       173    8    0    1
 -2        11        12       169      1113      1284      1285
 -1       174    8    0    1
 -2        11       169       168      1285      1286      1281
 -1       175    8    0    1
 -2        12        13       170      1114      1287      1288
 -1       176    8    0    1
 -2        12       170       169      1288      1289      1284
 -1       177    8    0    1
 -2        13        14       171      1115      1290      1291
 -1       178    8    0    1
 -2        13       171       170      1291      1292      1287
 -1       179    8    0    1
 -2        14        15       172      1116      1293      1294
 -1       180    8    0    1
 -2        14       172       171      1294      1295      1290
 -1       181    8    0    1
 -2        15        16       173      1117      1296      1297
 -1       182    8    0    1
 -2        15       173       172      1297      1298      1293
 -1       183    8    0    1
 -2        16        17       174      1118      1299      1300
 -1       184    8    0    1
 -2        16       174       173      1300      1301      1296
 -1       185    8    0    1
 -2        17        18       175      1119      1302      1303
 -1       186    8    0    1
 -2        17       175       174      1303      1304      1299
 -1       187    8    0    1
 -2        18        19       176      1120      1305      1306
 -1       188    8    0    1
 -2        18       176       175      1306      1307      1302
 -1       189    8    0    1
 -2        19        20       177      1121      1308      1309
 -1       190    8    0    1
 -2        19       177       176      1309      1310      1305
 -1       191    8    0    1
 -2        20        21       178      1122      1311      1312
 -1       192    8    0    1
 -2        20       178       177      1312      1313      1308
 -1       193    8    0    1
 -2        21        22       179      1123      1314      1315
 -1       194    8    0    1
 -2        21       179       178      1315      1316      1311
 -1       195    8    0    1
 -2        22         5       180      1124      1317      1318
 -1       196    8    0    1
 -2       179        22       180      1314      1318      1319
 -1       197    8    0    1
 -2         5        72       180      1175      1320      1317
 -1       198    8    0    1
 -2        24        23       181      1126      1321      1322
 -1       199    8    0    1
 -2        25        24       182      1127      1323      1324
 -1       200    8    0    1
 -2        24       181       182      1322      1325      1323
 -1       201    8    0    1
 -2        26        25       183      1128      1326      1327
 -1       202    8    0    1
 -2        25       182       183      1324      1328      1326
 -1       203    8    0    1
 -2        27        26       184      1129      1329      1330
 -1       204    8    0    1
 -2        26       183       184      1327      1331      1329
 -1       205    8    0    1
 -2        28        27       185      1130      1332      1333
 -1       206    8    0    1
 -2        27       184       185      1330      1334      1332
 -1       207    8    0    1
 -2        29        28       186      1131      1335      1336
 -1       208    8    0    1
 -2        28       185       186      1333      1337      1335
 -1       209    8    0    1
 -2        30        29       187      1132      1338      1339
 -1       210    8    0    1
 -2        29       186       187      1336      1340      1338
 -1       211    8    0    1
 -2        31        30       188      1133      1341      1342
 -1       212    8    0    1
 -2        30       187       188      1339      1343      1341
 -1       213    8    0    1
 -2        32        31       189      1134      1344      1345
 -1       214    8    0    1
 -2        31       188       189      1342      1346      1344
 -1       215    8    0    1
 -2        33        32       190      1135      1347      1348
 -1       216    8    0    1
 -2        32       189       190      1345      1349      1347
 -1       217    8    0    1
 -2        34        33       191      1136      1350      1351
 -1       218    8    0    1
 -2        33       190       191      1348      1352      1350
 -1       219    8    0    1
 -2        35        34       192      1137      1353      1354
 -1       220    8    0    1
 -2        34       191       192      1351      1355      1353
 -1       221    8    0    1
 -2        36        35       193      1138      1356      1357
 -1       222    8    0    1
 -2        35       192       193      1354      1358      1356
 -1       223    8    0    1
 -2        37        36       194      1139      1359      1360
 -1       224    8    0    1
 -2        36       193       194      1357      1361      1359
 -1       225    8    0    1
 -2        38        37       195      1140      1362      1363
 -1       226    8    0    1
 -2        37       194       195      1360      1364      1362
 -1       227    8    0    1
 -2        39        38       196      1141      1365      1366
 -1       228    8    0    1
 -2        38       195       196      1363      1367      1365
 -1       229    8    0    1
 -2        40        39       197      1142      1368      1369
 -1       230    8    0    1
 -2        39       196       197      1366      1370      1368
 -1       231    8    0    1
 -2        41        40       198      1143      1371      1372
 -1       232    8    0    1
 -2        40       197       198      1369      1373      1371
 -1       233    8    0    1
 -2        42        41       199      1144      1374      1375
 -1       234    8    0    1
 -2        41       198       199      1372      1376      1374
 -1       235    8    0    1
 -2        43        42       200      1145      1377      1378
 -1       236    8    0    1
 -2        42       199       200      1375      1379      1377
 -1       237    8    0    1
 -2        44        43       201      1146      1380      1381
 -1       238    8    0    1
 -2        43       200       201      1378      1382      1380
 -1       239    8    0    1
 -2        45        44       202      1147      1383      1384
 -1       240    8    0    1
 -2        44       201       202      1381      1385      1383
 -1       241    8    0    1
 -2        46        45       203      1148      1386      1387
 -1       242    8    0    1
 -2        45       202       203      1384      1388      1386
 -1       243    8    0    1
 -2        47        46       204      1149      1389      1390
 -1       244    8    0    1
 -2        46       203       204      1387      1391      1389
 -1       245    8    0    1
 -2        48        47       205      1150      1392      1393
 -1       246    8    0    1
 -2        47       204       205      1390      1394      1392
 -1       247    8    0    1
 -2        49        48       206      1151      1395      1396
 -1       248    8    0    1
 -2        48       205       206      1393      1397      1395
 -1       249    8    0    1
 -2        50        49       207      1152      1398      1399
 -1       250    8    0    1
 -2        49       206       207      1396      1400      1398
 -1       251    8    0    1
 -2        51        50       208      1153      1401      1402
 -1       252    8    0    1
 -2        50       207       208      1399      1403      1401
 -1       253    8    0    1
 -2        52        51       209      1154      1404      1405
 -1       254    8    0    1
 -2        51       208       209      1402      1406      1404
 -1       255    8    0    1
 -2        53        52       210      1155      1407      1408
 -1       256    8    0    1
 -2        52       209       210      1405      1409      1407
 -1       257    8    0    1
 -2        54        53       211      1156      1410      1411
 -1       258    8    0    1
 -2        53       210       211      1408      1412      1410
 -1       259    8    0    1
 -2        55        54       212      1157      1413      1414
 -1       260    8    0    1
 -2        54       211       212      1411      1415      1413
 -1       261    8    0    1
 -2        56        55       213      1158      1416      1417
 -1       262    8    0    1
 -2        55       212       213      1414      1418      1416
 -1       263    8    0    1
 -2        57        56       214      1159      1419      1420
 -1       264    8    0    1
 -2        56       213       214      1417      1421      1419
 -1       265    8    0    1
 -2        58        57       215      1160      1422      1423
 -1       266    8    0    1
 -2        57       214       215      1420      1424      1422
 -1       267    8    0    1
 -2        59        58       216      1161      1425      1426
 -1       268    8    0    1
 -2        58       215       216      1423      1427      1425
 -1       269    8    0    1
 -2        60        59       217      1162      1428      1429
 -1       270    8    0    1
 -2        59       216       217      1426      1430      1428
 -1       271    8    0    1
 -2        61        60       218      1163      1431      1432
 -1       272    8    0    1
 -2        60       217       218      1429      1433      1431
 -1       273    8    0    1
 -2        62        61       219      1164      1434      1435
 -1       274    8    0    1
 -2        61       218       219      1432      1436      1434
 -1       275    8    0    1
 -2        63        62       220      1165      1437      1438
 -1       276    8    0    1
 -2        62       219       220      1435      1439      1437
 -1       277    8    0    1
 -2        64        63       221      1166      1440      1441
 -1       278    8    0    1
 -2        63       220       221      1438      1442      1440
 -1       279    8    0    1
 -2        65        64       222      1167      1443      1444
 -1       280    8    0    1
 -2        64       221       222      1441      1445      1443
 -1       281    8    0    1
 -2        66        65       223      1168      1446      1447
 -1       282    8    0    1
 -2        65       222       223      1444      1448      1446
 -1       283    8    0    1
 -2        67        66       224      1169      1449      1450
 -1       284    8    0    1
 -2        66       223       224      1447      1451      1449
 -1       285    8    0    1
 -2        68        67       225      1170      1452      1453
 -1       286    8    0    1
 -2        67       224       225      1450      1454      1452
 -1       287    8    0    1
 -2        69        68       226      1171      1455      1456
 -1       288    8    0    1
 -2        68       225       226      1453      1457      1455
 -1       289    8    0    1
 -2        70        69       227      1172      1458      1459
 -1       290    8    0    1
 -2        69       226       227      1456      1460      1458
 -1       291    8    0    1
 -2        71        70       228      1173      1461      1462
 -1       292    8    0    1
 -2        70       227       228      1459      1463      1461
 -1       293    8    0    1
 -2         4        71       136      1174      1464      1241
 -1       294    8    0    1
 -2       136        71       228      1464      1462      1465
 -1       295    8    0    1
 -2        72        73       229      1176      1466      1467
 -1       296    8    0    1
 -2        72       229       180      1467      1468      1320
 -1       297    8    0    1
 -2        73        74       230      1177      1469      1470
 -1       298    8    0    1
 -2        73       230       229      1470      1471      1466
 -1       299    8    0    1
 -2        74        75       231      1178      1472      1473
 -1       300    8    0    1
 -2        74       231       230      1473      1474      1469
 -1       301    8    0    1
 -2        75        76       232      1179      1475      1476
 -1       302    8    0    1
 -2        75       232       231      1476      1477      1472
 -1       303    8    0    1
 -2        76        77       233      1180      1478      1479
 -1       304    8    0    1
 -2        76       233       232      1479      1480      1475
 -1       305    8    0    1
 -2        77        78       234      1181      1481      1482
 -1       306    8    0    1
 -2        77       234       233      1482      1483      1478
 -1       307    8    0    1
 -2        78        79       235      1182      1484      1485
 -1       308    8    0    1
 -2        78       235       234      1485      1486      1481
 -1       309    8    0    1
 -2        79        80       236      1183      1487      1488
 -1       310    8    0    1
 -2        79       236       235      1488      1489      1484
 -1       311    8    0    1
 -2        80        81       237      1184      1490      1491
 -1       312    8    0    1
 -2        80       237       236      1491      1492      1487
 -1       313    8    0    1
 -2        81        82       238      1185      1493      1494
 -1       314    8    0    1
 -2        81       238       237      1494      1495      1490
 -1       315    8    0    1
 -2        82        83       239      1186      1496      1497
 -1       316    8    0    1
 -2        82       239       238      1497      1498      1493
 -1       317    8    0    1
 -2        83        84       240      1187      1499      1500
 -1       318    8    0    1
 -2        83       240       239      1500      1501      1496
 -1       319    8    0    1
 -2        84        85       241      1188      1502      1503
 -1       320    8    0    1
 -2        84       241       240      1503      1504      1499
 -1       321    8    0    1
 -2        85        86       242      1189      1505      1506
 -1       322    8    0    1
 -2        85       242       241      1506      1507      1502
 -1       323    8    0    1
 -2        86        87       243      1190      1508      1509
 -1       324    8    0    1
 -2        86       243       242      1509      1510      1505
 -1       325    8    0    1
 -2        87        88       244      1191      1511      1512
 -1       326    8    0    1
 -2        87       244       243      1512      1513      1508
 -1       327    8    0    1
 -2        88        89       245      1192      1514      1515
 -1       328    8    0    1
 -2        88       245       244      1515      1516      1511
 -1       329    8    0    1
 -2        89        90       246      1193      1517      1518
 -1       330    8    0    1
 -2        89       246       245      1518      1519      1514
 -1       331    8    0    1
 -2        90        91       247      1194      1520      1521
 -1       332    8    0    1
 -2        90       247       246      1521      1522      1517
 -1       333    8    0    1
 -2        91        92       248      1195      1523      1524
 -1       334    8    0    1
 -2        91       248       247      1524      1525      1520
 -1       335    8    0    1
 -2        92        93       249      1196      1526      1527
 -1       336    8    0    1
 -2        92       249       248      1527      1528      1523
 -1       337    8    0    1
 -2        93        94       250      1197      1529      1530
 -1       338    8    0    1
 -2        93       250       249      1530      1531      1526
 -1       339    8    0    1
 -2        94        95       251      1198      1532      1533
 -1       340    8    0    1
 -2        94       251       250      1533      1534      1529
 -1       341    8    0    1
 -2        95        96       252      1199      1535      1536
 -1       342    8    0    1
 -2        95       252       251      1536      1537      1532
 -1       343    8    0    1
 -2        96        97       253      1200      1538      1539
 -1       344    8    0    1
 -2        96       253       252      1539      1540      1535
 -1       345    8    0    1
 -2        97        98       254      1201      1541      1542
 -1       346    8    0    1
 -2        97       254       253      1542      1543      1538
 -1       347    8    0    1
 -2        98        99       255      1202      1544      1545
 -1       348    8    0    1
 -2        98       255       254      1545      1546      1541
 -1       349    8    0    1
 -2        99       100       256      1203      1547      1548
 -1       350    8    0    1
 -2        99       256       255      1548      1549      1544
 -1       351    8    0    1
 -2       100       101       257      1204      1550      1551
 -1       352    8    0    1
 -2       100       257       256      1551      1552      1547
 -1       353    8    0    1
 -2       101       102       258      1205      1553      1554
 -1       354    8    0    1
 -2       101       258       257      1554      1555      1550
 -1       355    8    0    1
 -2       102       103       259      1206      1556      1557
 -1       356    8    0    1
 -2       102       259       258      1557      1558      1553
 -1       357    8    0    1
 -2       103       104       260      1207      1559      1560
 -1       358    8    0    1
 -2       103       260       259      1560      1561      1556
 -1       359    8    0    1
 -2       104       105       261      1208      1562      1563
 -1       360    8    0    1
 -2       104       261       260      1563      1564      1559
 -1       361    8    0    1
 -2       105       106       262      1209      1565      1566
 -1       362    8    0    1
 -2       105       262       261      1566      1567      1562
 -1       363    8    0    1
 -2       106       107       263      1210      1568      1569
 -1       364    8    0    1
 -2       106       263       262      1569      1570      1565
 -1       365    8    0    1
 -2       107       108       264      1211      1571      1572
 -1       366    8    0    1
 -2       107       264       263      1572      1573      1568
 -1       367    8    0    1
 -2       108       109       265      1212      1574      1575
 -1       368    8    0    1
 -2       108       265       264      1575      1576      1571
 -1       369    8    0    1
 -2       109       110       266      1213      1577      1578
 -1       370    8    0    1
 -2       109       266       265      1578      1579      1574
 -1       371    8    0    1
 -2       110       111       267      1214      1580      1581
 -1       372    8    0    1
 -2       110       267       266      1581      1582      1577
 -1       373    8    0    1
 -2       111       112       268      1215      1583      1584
 -1       374    8    0    1
 -2       111       268       267      1584      1585      1580
 -1       375    8    0    1
 -2       112       113       269      1216      1586      1587
 -1       376    8    0    1
 -2       112       269       268      1587      1588      1583
 -1       377    8    0    1
 -2       113       114       270      1217      1589      1590
 -1       378    8    0    1
 -2       113       270       269      1590      1591      1586
 -1       379    8    0    1
 -2       114       115       271      1218      1592      1593
 -1       380    8    0    1
 -2       114       271       270      1593      1594      1589
 -1       381    8    0    1
 -2       115       116       272      1219      1595      1596
 -1       382    8    0    1
 -2       115       272       271      1596      1597      1592
 -1       383    8    0    1
 -2       116       117       273      1220      1598      1599
 -1       384    8    0    1
 -2       116       273       272      1599      1600      1595
 -1       385    8    0    1
 -2       117       118       274      1221      1601      1602
 -1       386    8    0    1
 -2       117       274       273      1602      1603      1598
 -1       387    8    0    1
 -2       118       119       275      1222      1604      1605
 -1       388    8    0    1
 -2       118       275       274      1605      1606      1601
 -1       389    8    0    1
 -2       119       120       276      1223      1607      1608
 -1       390    8    0    1
 -2       119       276       275      1608      1609      1604
 -1       391    8    0    1
 -2       120         3       121      1224      1225      1610
 -1       392    8    0    1
 -2       121       122       277      1226      1611      1612
 -1       393    8    0    1
 -2       122       123       278      1227      1613      1614
 -1       394    8    0    1
 -2       122       278       277      1614      1615      1611
 -1       395    8    0    1
 -2       123       124       279      1228      1616      1617
 -1       396    8    0    1
 -2       123       279       278      1617      1618      1613
 -1       397    8    0    1
 -2       124       125       280      1229      1619      1620
 -1       398    8    0    1
 -2       124       280       279      1620      1621      1616
 -1       399    8    0    1
 -2       125       126       281      1230      1622      1623
 -1       400    8    0    1
 -2       125       281       280      1623      1624      1619
 -1       401    8    0    1
 -2       126       127       282      1231      1625      1626
 -1       402    8    0    1
 -2       126       282       281      1626      1627      1622
 -1       403    8    0    1
 -2       127       128       283      1232      1628      1629
 -1       404    8    0    1
 -2       127       283       282      1629      1630      1625
 -1       405    8    0    1
 -2       128       129       284      1233      1631      1632
 -1       406    8    0    1
 -2       128       284       283      1632      1633      1628
 -1       407    8    0    1
 -2       129       130       285      1234      1634      1635
 -1       408    8    0    1
 -2       129       285       284      1635      1636      1631
 -1       409    8    0    1
 -2       130       131       286      1235      1637      1638
 -1       410    8    0    1
 -2       130       286       285      1638      1639      1634
 -1       411    8    0    1
 -2       131       132       287      1236      1640      1641
 -1       412    8    0    1
 -2       131       287       286      1641      1642      1637
 -1       413    8    0    1
 -2       132       133       288      1237      1643      1644
 -1       414    8    0    1
 -2       132       288       287      1644      1645      1640
 -1       415    8    0    1
 -2       133       134       289      1238      1646      1647
 -1       416    8    0    1
 -2       133       289       288      1647      1648      1643
 -1       417    8    0    1
 -2       134       135       290      1239      1649      1650
 -1       418    8    0    1
 -2       134       290       289      1650      1651      1646
 -1       419    8    0    1
 -2       135       136       291      1240      1652      1653
 -1       420    8    0    1
 -2       290       135       291      1649      1653      1654
 -1       421    8    0    1
 -2       136       228       291      1465      1655      1652
 -1       422    8    0    1
 -2         2       137       292      1242      1656      1657
 -1       423    8    0    1
 -2       137       138       293      1243      1658      1659
 -1       424    8    0    1
 -2       138       139       294      1244      1660      1661
 -1       425    8    0    1
 -2       139       140       295      1245      1662      1663
 -1       426    8    0    1
 -2       140       141       296      1246      1664      1665
 -1       427    8    0    1
 -2       141       142       297      1247      1666      1667
 -1       428    8    0    1
 -2       142       143       298      1248      1668      1669
 -1       429    8    0    1
 -2       143       144       299      1249      1670      1671
 -1       430    8    0    1
 -2       144       145       300      1250      1672      1673
 -1       431    8    0    1
 -2       145       146       301      1251      1674      1675
 -1       432    8    0    1
 -2       146       147       302      1252      1676      1677
 -1       433    8    0    1
 -2       147       148       303      1253      1678      1679
 -1       434    8    0    1
 -2       148       149       304      1254      1680      1681
 -1       435    8    0    1
 -2       149       150       305      1255      1682      1683
 -1       436    8    0    1
 -2       150       151       306      1256      1684      1685
 -1       437    8    0    1
 -2       151       152       307      1257      1686      1687
 -1       438    8    0    1
 -2       152       153       308      1258      1688      1689
 -1       439    8    0    1
 -2       153       154       309      1259      1690      1691
 -1       440    8    0    1
 -2       154       155       310      1260      1692      1693
 -1       441    8    0    1
 -2       155       156       311      1261      1694      1695
 -1       442    8    0    1
 -2       156       157       312      1262      1696      1697
 -1       443    8    0    1
 -2       157         1       313      1263      1698      1699
 -1       444    8    0    1
 -2         1       158       314      1264      1700      1701
 -1       445    8    0    1
 -2       158       159       315      1265      1702      1703
 -1       446    8    0    1
 -2       159       160       316      1266      1704      1705
 -1       447    8    0    1
 -2       160       161       317      1267      1706      1707
 -1       448    8    0    1
 -2       161       162       318      1268      1708      1709
 -1       449    8    0    1
 -2       162       163       319      1269      1710      1711
 -1       450    8    0    1
 -2       163       164       320      1270      1712      1713
 -1       451    8    0    1
 -2       164         2       321      1271      1714      1715
 -1       452    8    0    1
 -2       295       140       296      1662      1665      1716
 -1       453    8    0    1
 -2       294       139       295      1660      1663      1717
 -1       454    8    0    1
 -2       120       121       276      1610      1718      1607
 -1       455    8    0    1
 -2       121       277       276      1612      1719      1718
 -1       456    8    0    1
 -2       292       137       293      1656      1659      1720
 -1       457    8    0    1
 -2       293       138       294      1658      1661      1721
 -1       458    8    0    1
 -2         2       292       321      1657      1722      1714
 -1       459    8    0    1
 -2       141       297       296      1667      1723      1664
 -1       460    8    0    1
 -2       142       298       297      1669      1724      1666
 -1       461    8    0    1
 -2       143       299       298      1671      1725      1668
 -1       462    8    0    1
 -2       144       300       299      1673      1726      1670
 -1       463    8    0    1
 -2       145       301       300      1675      1727      1672
 -1       464    8    0    1
 -2       146       302       301      1677      1728      1674
 -1       465    8    0    1
 -2       147       303       302      1679      1729      1676
 -1       466    8    0    1
 -2       148       304       303      1681      1730      1678
 -1       467    8    0    1
 -2       149       305       304      1683      1731      1680
 -1       468    8    0    1
 -2       150       306       305      1685      1732      1682
 -1       469    8    0    1
 -2       151       307       306      1687      1733      1684
 -1       470    8    0    1
 -2       152       308       307      1689      1734      1686
 -1       471    8    0    1
 -2       153       309       308      1691      1735      1688
 -1       472    8    0    1
 -2       154       310       309      1693      1736      1690
 -1       473    8    0    1
 -2       155       311       310      1695      1737      1692
 -1       474    8    0    1
 -2       156       312       311      1697      1738      1694
 -1       475    8    0    1
 -2       157       313       312      1699      1739      1696
 -1       476    8    0    1
 -2         1       314       313      1701      1740      1698
 -1       477    8    0    1
 -2       158       315       314      1703      1741      1700
 -1       478    8    0    1
 -2       159       316       315      1705      1742      1702
 -1       479    8    0    1
 -2       160       317       316      1707      1743      1704
 -1       480    8    0    1
 -2       161       318       317      1709      1744      1706
 -1       481    8    0    1
 -2       162       319       318      1711      1745      1708
 -1       482    8    0    1
 -2       163       320       319      1713      1746      1710
 -1       483    8    0    1
 -2       164       321       320      1715      1747      1712
 -1       484    8    0    1
 -2        23         7       165      1272      1274      1748
 -1       485    8    0    1
 -2       166       167       322      1280      1749      1750
 -1       486    8    0    1
 -2       165       166       323      1277      1751      1752
 -1       487    8    0    1
 -2       166       322       323      1750      1753      1751
 -1       488    8    0    1
 -2       168       169       324      1286      1754      1755
 -1       489    8    0    1
 -2       169       170       325      1289      1756      1757
 -1       490    8    0    1
 -2       169       325       324      1757      1758      1754
 -1       491    8    0    1
 -2       170       171       326      1292      1759      1760
 -1       492    8    0    1
 -2       170       326       325      1760      1761      1756
 -1       493    8    0    1
 -2       171       172       327      1295      1762      1763
 -1       494    8    0    1
 -2       171       327       326      1763      1764      1759
 -1       495    8    0    1
 -2       172       173       328      1298      1765      1766
 -1       496    8    0    1
 -2       172       328       327      1766      1767      1762
 -1       497    8    0    1
 -2       173       174       329      1301      1768      1769
 -1       498    8    0    1
 -2       173       329       328      1769      1770      1765
 -1       499    8    0    1
 -2       174       175       330      1304      1771      1772
 -1       500    8    0    1
 -2       174       330       329      1772      1773      1768
 -1       501    8    0    1
 -2       175       176       331      1307      1774      1775
 -1       502    8    0    1
 -2       175       331       330      1775      1776      1771
 -1       503    8    0    1
 -2       176       177       332      1310      1777      1778
 -1       504    8    0    1
 -2       176       332       331      1778      1779      1774
 -1       505    8    0    1
 -2       177       178       333      1313      1780      1781
 -1       506    8    0    1
 -2       177       333       332      1781      1782      1777
 -1       507    8    0    1
 -2       178       179       334      1316      1783      1784
 -1       508    8    0    1
 -2       178       334       333      1784      1785      1780
 -1       509    8    0    1
 -2       179       180       335      1319      1786      1787
 -1       510    8    0    1
 -2       334       179       335      1783      1787      1788
 -1       511    8    0    1
 -2       180       229       335      1468      1789      1786
 -1       512    8    0    1
 -2       181        23       165      1321      1748      1790
 -1       513    8    0    1
 -2       229       230       336      1471      1791      1792
 -1       514    8    0    1
 -2       229       336       335      1792      1793      1789
 -1       515    8    0    1
 -2       181       165       323      1790      1752      1794
 -1       516    8    0    1
 -2       183       182       337      1328      1795      1796
 -1       517    8    0    1
 -2       184       183       338      1331      1797      1798
 -1       518    8    0    1
 -2       183       337       338      1796      1799      1797
 -1       519    8    0    1
 -2       185       184       339      1334      1800      1801
 -1       520    8    0    1
 -2       184       338       339      1798      1802      1800
 -1       521    8    0    1
 -2       186       185       340      1337      1803      1804
 -1       522    8    0    1
 -2       185       339       340      1801      1805      1803
 -1       523    8    0    1
 -2       187       186       341      1340      1806      1807
 -1       524    8    0    1
 -2       186       340       341      1804      1808      1806
 -1       525    8    0    1
 -2       188       187       342      1343      1809      1810
 -1       526    8    0    1
 -2       187       341       342      1807      1811      1809
 -1       527    8    0    1
 -2       189       188       343      1346      1812      1813
 -1       528    8    0    1
 -2       188       342       343      1810      1814      1812
 -1       529    8    0    1
 -2       190       189       344      1349      1815      1816
 -1       530    8    0    1
 -2       189       343       344      1813      1817      1815
 -1       531    8    0    1
 -2       191       190       345      1352      1818      1819
 -1       532    8    0    1
 -2       190       344       345      1816      1820      1818
 -1       533    8    0    1
 -2       192       191       346      1355      1821      1822
 -1       534    8    0    1
 -2       191       345       346      1819      1823      1821
 -1       535    8    0    1
 -2       193       192       347      1358      1824      1825
 -1       536    8    0    1
 -2       192       346       347      1822      1826      1824
 -1       537    8    0    1
 -2       194       193       348      1361      1827      1828
 -1       538    8    0    1
 -2       193       347       348      1825      1829      1827
 -1       539    8    0    1
 -2       195       194       349      1364      1830      1831
 -1       540    8    0    1
 -2       194       348       349      1828      1832      1830
 -1       541    8    0    1
 -2       196       195       350      1367      1833      1834
 -1       542    8    0    1
 -2       195       349       350      1831      1835      1833
 -1       543    8    0    1
 -2       197       196       351      1370      1836      1837
 -1       544    8    0    1
 -2       196       350       351      1834      1838      1836
 -1       545    8    0    1
 -2       198       197       352      1373      1839      1840
 -1       546    8    0    1
 -2       197       351       352      1837      1841      1839
 -1       547    8    0    1
 -2       199       198       353      1376      1842      1843
 -1       548    8    0    1
 -2       198       352       353      1840      1844      1842
 -1       549    8    0    1
 -2       200       199       354      1379      1845      1846
 -1       550    8    0    1
 -2       199       353       354      1843      1847      1845
 -1       551    8    0    1
 -2       201       200       355      1382      1848      1849
 -1       552    8    0    1
 -2       200       354       355      1846      1850      1848
 -1       553    8    0    1
 -2       202       201       356      1385      1851      1852
 -1       554    8    0    1
 -2       201       355       356      1849      1853      1851
 -1       555    8    0    1
 -2       203       202       357      1388      1854      1855
 -1       556    8    0    1
 -2       202       356       357      1852      1856      1854
 -1       557    8    0    1
 -2       204       203       358      1391      1857      1858
 -1       558    8    0    1
 -2       203       357       358      1855      1859      1857
 -1       559    8    0    1
 -2       205       204       359      1394      1860      1861
 -1       560    8    0    1
 -2       204       358       359      1858      1862      1860
 -1       561    8    0    1
 -2       206       205       360      1397      1863      1864
 -1       562    8    0    1
 -2       205       359       360      1861      1865      1863
 -1       563    8    0    1
 -2       207       206       361      1400      1866      1867
 -1       564    8    0    1
 -2       206       360       361      1864      1868      1866
 -1       565    8    0    1
 -2       208       207       362      1403      1869      1870
 -1       566    8    0    1
 -2       207       361       362      1867      1871      1869
 -1       567    8    0    1
 -2       209       208       363      1406      1872      1873
 -1       568    8    0    1
 -2       208       362       363      1870      1874      1872
 -1       569    8    0    1
 -2       210       209       364      1409      1875      1876
 -1       570    8    0    1
 -2       209       363       364      1873      1877      1875
 -1       571    8    0    1
 -2       211       210       365      1412      1878      1879
 -1       572    8    0    1
 -2       210       364       365      1876      1880      1878
 -1       573    8    0    1
 -2       212       211       366      1415      1881      1882
 -1       574    8    0    1
 -2       211       365       366      1879      1883      1881
 -1       575    8    0    1
 -2       213       212       367      1418      1884      1885
 -1       576    8    0    1
 -2       212       366       367      1882      1886      1884
 -1       577    8    0    1
 -2       214       213       368      1421      1887      1888
 -1       578    8    0    1
 -2       213       367       368      1885      1889      1887
 -1       579    8    0    1
 -2       215       214       369      1424      1890      1891
 -1       580    8    0    1
 -2       214       368       369      1888      1892      1890
 -1       581    8    0    1
 -2       216       215       370      1427      1893      1894
 -1       582    8    0    1
 -2       215       369       370      1891      1895      1893
 -1       583    8    0    1
 -2       217       216       371      1430      1896      1897
 -1       584    8    0    1
 -2       216       370       371      1894      1898      1896
 -1       585    8    0    1
 -2       218       217       372      1433      1899      1900
 -1       586    8    0    1
 -2       217       371       372      1897      1901      1899
 -1       587    8    0    1
 -2       219       218       373      1436      1902      1903
 -1       588    8    0    1
 -2       218       372       373      1900      1904      1902
 -1       589    8    0    1
 -2       220       219       374      1439      1905      1906
 -1       590    8    0    1
 -2       219       373       374      1903      1907      1905
 -1       591    8    0    1
 -2       221       220       375      1442      1908      1909
 -1       592    8    0    1
 -2       220       374       375      1906      1910      1908
 -1       593    8    0    1
 -2       222       221       376      1445      1911      1912
 -1       594    8    0    1
 -2       221       375       376      1909      1913      1911
 -1       595    8    0    1
 -2       223       222       377      1448      1914      1915
 -1       596    8    0    1
 -2       222       376       377      1912      1916      1914
 -1       597    8    0    1
 -2       224       223       378      1451      1917      1918
 -1       598    8    0    1
 -2       223       377       378      1915      1919      1917
 -1       599    8    0    1
 -2       225       224       379      1454      1920      1921
 -1       600    8    0    1
 -2       224       378       379      1918      1922      1920
 -1       601    8    0    1
 -2       226       225       380      1457      1923      1924
 -1       602    8    0    1
 -2       225       379       380      1921      1925      1923
 -1       603    8    0    1
 -2       227       226       381      1460      1926      1927
 -1       604    8    0    1
 -2       226       380       381      1924      1928      1926
 -1       605    8    0    1
 -2       228       227       382      1463      1929      1930
 -1       606    8    0    1
 -2       291       228       382      1655      1930      1931
 -1       607    8    0    1
 -2       227       381       382      1927      1932      1929
 -1       608    8    0    1
 -2       230       231       383      1474      1933      1934
 -1       609    8    0    1
 -2       230       383       336      1934      1935      1791
 -1       610    8    0    1
 -2       231       232       384      1477      1936      1937
 -1       611    8    0    1
 -2       231       384       383      1937      1938      1933
 -1       612    8    0    1
 -2       232       233       385      1480      1939      1940
 -1       613    8    0    1
 -2       232       385       384      1940      1941      1936
 -1       614    8    0    1
 -2       233       234       386      1483      1942      1943
 -1       615    8    0    1
 -2       233       386       385      1943      1944      1939
 -1       616    8    0    1
 -2       234       235       387      1486      1945      1946
 -1       617    8    0    1
 -2       234       387       386      1946      1947      1942
 -1       618    8    0    1
 -2       235       236       388      1489      1948      1949
 -1       619    8    0    1
 -2       235       388       387      1949      1950      1945
 -1       620    8    0    1
 -2       236       237       389      1492      1951      1952
 -1       621    8    0    1
 -2       236       389       388      1952      1953      1948
 -1       622    8    0    1
 -2       237       238       390      1495      1954      1955
 -1       623    8    0    1
 -2       237       390       389      1955      1956      1951
 -1       624    8    0    1
 -2       238       239       391      1498      1957      1958
 -1       625    8    0    1
 -2       238       391       390      1958      1959      1954
 -1       626    8    0    1
 -2       239       240       392      1501      1960      1961
 -1       627    8    0    1
 -2       239       392       391      1961      1962      1957
 -1       628    8    0    1
 -2       240       241       393      1504      1963      1964
 -1       629    8    0    1
 -2       240       393       392      1964      1965      1960
 -1       630    8    0    1
 -2       241       242       394      1507      1966      1967
 -1       631    8    0    1
 -2       241       394       393      1967      1968      1963
 -1       632    8    0    1
 -2       242       243       395      1510      1969      1970
 -1       633    8    0    1
 -2       242       395       394      1970      1971      1966
 -1       634    8    0    1
 -2       243       244       396      1513      1972      1973
 -1       635    8    0    1
 -2       243       396       395      1973      1974      1969
 -1       636    8    0    1
 -2       244       245       397      1516      1975      1976
 -1       637    8    0    1
 -2       244       397       396      1976      1977      1972
 -1       638    8    0    1
 -2       245       246       398      1519      1978      1979
 -1       639    8    0    1
 -2       245       398       397      1979      1980      1975
 -1       640    8    0    1
 -2       246       247       399      1522      1981      1982
 -1       641    8    0    1
 -2       246       399       398      1982      1983      1978
 -1       642    8    0    1
 -2       247       248       400      1525      1984      1985
 -1       643    8    0    1
 -2       247       400       399      1985      1986      1981
 -1       644    8    0    1
 -2       248       249       401      1528      1987      1988
 -1       645    8    0    1
 -2       248       401       400      1988      1989      1984
 -1       646    8    0    1
 -2       249       250       402      1531      1990      1991
 -1       647    8    0    1
 -2       249       402       401      1991      1992      1987
 -1       648    8    0    1
 -2       250       251       403      1534      1993      1994
 -1       649    8    0    1
 -2       250       403       402      1994      1995      1990
 -1       650    8    0    1
 -2       251       252       404      1537      1996      1997
 -1       651    8    0    1
 -2       251       404       403      1997      1998      1993
 -1       652    8    0    1
 -2       252       253       405      1540      1999      2000
 -1       653    8    0    1
 -2       252       405       404      2000      2001      1996
 -1       654    8    0    1
 -2       253       254       406      1543      2002      2003
 -1       655    8    0    1
 -2       253       406       405      2003      2004      1999
 -1       656    8    0    1
 -2       254       255       407      1546      2005      2006
 -1       657    8    0    1
 -2       254       407       406      2006      2007      2002
 -1       658    8    0    1
 -2       255       256       408      1549      2008      2009
 -1       659    8    0    1
 -2       255       408       407      2009      2010      2005
 -1       660    8    0    1
 -2       256       257       409      1552      2011      2012
 -1       661    8    0    1
 -2       256       409       408      2012      2013      2008
 -1       662    8    0    1
 -2       257       258       410      1555      2014      2015
 -1       663    8    0    1
 -2       257       410       409      2015      2016      2011
 -1       664    8    0    1
 -2       258       259       411      1558      2017      2018
 -1       665    8    0    1
 -2       258       411       410      2018      2019      2014
 -1       666    8    0    1
 -2       259       260       412      1561      2020      2021
 -1       667    8    0    1
 -2       259       412       411      2021      2022      2017
 -1       668    8    0    1
 -2       260       261       413      1564      2023      2024
 -1       669    8    0    1
 -2       260       413       412      2024      2025      2020
 -1       670    8    0    1
 -2       261       262       414      1567      2026      2027
 -1       671    8    0    1
 -2       261       414       413      2027      2028      2023
 -1       672    8    0    1
 -2       262       263       415      1570      2029      2030
 -1       673    8    0    1
 -2       262       415       414      2030      2031      2026
 -1       674    8    0    1
 -2       263       264       416      1573      2032      2033
 -1       675    8    0    1
 -2       263       416       415      2033      2034      2029
 -1       676    8    0    1
 -2       264       265       417      1576      2035      2036
 -1       677    8    0    1
 -2       264       417       416      2036      2037      2032
 -1       678    8    0    1
 -2       265       266       418      1579      2038      2039
 -1       679    8    0    1
 -2       265       418       417      2039      2040      2035
 -1       680    8    0    1
 -2       266       267       419      1582      2041      2042
 -1       681    8    0    1
 -2       266       419       418      2042      2043      2038
 -1       682    8    0    1
 -2       267       268       420      1585      2044      2045
 -1       683    8    0    1
 -2       267       420       419      2045      2046      2041
 -1       684    8    0    1
 -2       268       269       421      1588      2047      2048
 -1       685    8    0    1
 -2       268       421       420      2048      2049      2044
 -1       686    8    0    1
 -2       269       270       422      1591      2050      2051
 -1       687    8    0    1
 -2       269       422       421      2051      2052      2047
 -1       688    8    0    1
 -2       270       271       423      1594      2053      2054
 -1       689    8    0    1
 -2       270       423       422      2054      2055      2050
 -1       690    8    0    1
 -2       271       272       424      1597      2056      2057
 -1       691    8    0    1
 -2       271       424       423      2057      2058      2053
 -1       692    8    0    1
 -2       272       273       425      1600      2059      2060
 -1       693    8    0    1
 -2       272       425       424      2060      2061      2056
 -1       694    8    0    1
 -2       273       274       426      1603      2062      2063
 -1       695    8    0    1
 -2       273       426       425      2063      2064      2059
 -1       696    8    0    1
 -2       274       275       427      1606      2065      2066
 -1       697    8    0    1
 -2       274       427       426      2066      2067      2062
 -1       698    8    0    1
 -2       275       276       428      1609      2068      2069
 -1       699    8    0    1
 -2       427       275       428      2065      2069      2070
 -1       700    8    0    1
 -2       276       277       428      1719      2071      2068
 -1       701    8    0    1
 -2       279       280       429      1621      2072      2073
 -1       702    8    0    1
 -2       278       279       430      1618      2074      2075
 -1       703    8    0    1
 -2       279       429       430      2073      2076      2074
 -1       704    8    0    1
 -2       277       278       431      1615      2077      2078
 -1       705    8    0    1
 -2       428       277       431      2071      2078      2079
 -1       706    8    0    1
 -2       278       430       431      2075      2080      2077
 -1       707    8    0    1
 -2       280       281       432      1624      2081      2082
 -1       708    8    0    1
 -2       280       432       429      2082      2083      2072
 -1       709    8    0    1
 -2       281       282       433      1627      2084      2085
 -1       710    8    0    1
 -2       281       433       432      2085      2086      2081
 -1       711    8    0    1
 -2       282       283       434      1630      2087      2088
 -1       712    8    0    1
 -2       282       434       433      2088      2089      2084
 -1       713    8    0    1
 -2       283       284       435      1633      2090      2091
 -1       714    8    0    1
 -2       283       435       434      2091      2092      2087
 -1       715    8    0    1
 -2       284       285       436      1636      2093      2094
 -1       716    8    0    1
 -2       284       436       435      2094      2095      2090
 -1       717    8    0    1
 -2       285       286       437      1639      2096      2097
 -1       718    8    0    1
 -2       285       437       436      2097      2098      2093
 -1       719    8    0    1
 -2       286       287       438      1642      2099      2100
 -1       720    8    0    1
 -2       286       438       437      2100      2101      2096
 -1       721    8    0    1
 -2       287       288       439      1645      2102      2103
 -1       722    8    0    1
 -2       287       439       438      2103      2104      2099
 -1       723    8    0    1
 -2       288       289       440      1648      2105      2106
 -1       724    8    0    1
 -2       288       440       439      2106      2107      2102
 -1       725    8    0    1
 -2       289       290       441      1651      2108      2109
 -1       726    8    0    1
 -2       289       441       440      2109      2110      2105
 -1       727    8    0    1
 -2       293       294       442      1721      2111      2112
 -1       728    8    0    1
 -2       321       292       443      1722      2113      2114
 -1       729    8    0    1
 -2       292       293       444      1720      2115      2116
 -1       730    8    0    1
 -2       292       444       443      2116      2117      2113
 -1       731    8    0    1
 -2       294       295       445      1717      2118      2119
 -1       732    8    0    1
 -2       294       445       442      2119      2120      2111
 -1       733    8    0    1
 -2       295       296       446      1716      2121      2122
 -1       734    8    0    1
 -2       167       168       447      1283      2123      2124
 -1       735    8    0    1
 -2       322       167       447      1749      2124      2125
 -1       736    8    0    1
 -2       168       324       447      1755      2126      2123
 -1       737    8    0    1
 -2       297       298       448      1724      2127      2128
 -1       738    8    0    1
 -2       298       299       449      1725      2129      2130
 -1       739    8    0    1
 -2       299       300       450      1726      2131      2132
 -1       740    8    0    1
 -2       300       301       451      1727      2133      2134
 -1       741    8    0    1
 -2       301       302       452      1728      2135      2136
 -1       742    8    0    1
 -2       302       303       453      1729      2137      2138
 -1       743    8    0    1
 -2       303       304       454      1730      2139      2140
 -1       744    8    0    1
 -2       304       305       455      1731      2141      2142
 -1       745    8    0    1
 -2       305       306       456      1732      2143      2144
 -1       746    8    0    1
 -2       306       307       457      1733      2145      2146
 -1       747    8    0    1
 -2       307       308       458      1734      2147      2148
 -1       748    8    0    1
 -2       308       309       459      1735      2149      2150
 -1       749    8    0    1
 -2       309       310       460      1736      2151      2152
 -1       750    8    0    1
 -2       310       311       461      1737      2153      2154
 -1       751    8    0    1
 -2       311       312       462      1738      2155      2156
 -1       752    8    0    1
 -2       311       462       461      2156      2157      2153
 -1       753    8    0    1
 -2       312       313       463      1739      2158      2159
 -1       754    8    0    1
 -2       313       314       464      1740      2160      2161
 -1       755    8    0    1
 -2       314       315       465      1741      2162      2163
 -1       756    8    0    1
 -2       314       465       464      2163      2164      2160
 -1       757    8    0    1
 -2       315       316       466      1742      2165      2166
 -1       758    8    0    1
 -2       316       317       467      1743      2167      2168
 -1       759    8    0    1
 -2       316       467       466      2168      2169      2165
 -1       760    8    0    1
 -2       317       318       468      1744      2170      2171
 -1       761    8    0    1
 -2       318       319       469      1745      2172      2173
 -1       762    8    0    1
 -2       319       320       470      1746      2174      2175
 -1       763    8    0    1
 -2       319       470       469      2175      2176      2172
 -1       764    8    0    1
 -2       320       321       471      1747      2177      2178
 -1       765    8    0    1
 -2       296       297       472      1723      2179      2180
 -1       766    8    0    1
 -2       181       323       182      1794      2181      1325
 -1       767    8    0    1
 -2       450       300       451      2131      2134      2182
 -1       768    8    0    1
 -2       297       448       472      2128      2183      2179
 -1       769    8    0    1
 -2       337       182       323      1795      2181      2184
 -1       770    8    0    1
 -2       444       293       442      2115      2112      2185
 -1       771    8    0    1
 -2       441       290       291      2108      1654      2186
 -1       772    8    0    1
 -2       295       446       445      2122      2187      2118
 -1       773    8    0    1
 -2       321       443       471      2114      2188      2177
 -1       774    8    0    1
 -2       446       296       472      2121      2180      2189
 -1       775    8    0    1
 -2       470       320       471      2174      2178      2190
 -1       776    8    0    1
 -2       467       317       468      2167      2171      2191
 -1       777    8    0    1
 -2       465       315       466      2162      2166      2192
 -1       778    8    0    1
 -2       462       312       463      2155      2159      2193
 -1       779    8    0    1
 -2       460       310       461      2151      2154      2194
 -1       780    8    0    1
 -2       459       309       460      2149      2152      2195
 -1       781    8    0    1
 -2       458       308       459      2147      2150      2196
 -1       782    8    0    1
 -2       457       307       458      2145      2148      2197
 -1       783    8    0    1
 -2       456       306       457      2143      2146      2198
 -1       784    8    0    1
 -2       455       305       456      2141      2144      2199
 -1       785    8    0    1
 -2       454       304       455      2139      2142      2200
 -1       786    8    0    1
 -2       453       303       454      2137      2140      2201
 -1       787    8    0    1
 -2       452       302       473      2135      2202      2203
 -1       788    8    0    1
 -2       302       453       473      2138      2204      2202
 -1       789    8    0    1
 -2       451       301       452      2133      2136      2205
 -1       790    8    0    1
 -2       448       298       449      2127      2130      2206
 -1       791    8    0    1
 -2       449       299       450      2129      2132      2207
 -1       792    8    0    1
 -2       463       313       464      2158      2161      2208
 -1       793    8    0    1
 -2       468       318       469      2170      2173      2209
 -1       794    8    0    1
 -2       336       383       474      1935      2210      2211
 -1       795    8    0    1
 -2       325       326       475      1761      2212      2213
 -1       796    8    0    1
 -2       324       325       476      1758      2214      2215
 -1       797    8    0    1
 -2       325       475       476      2213      2216      2214
 -1       798    8    0    1
 -2       327       328       477      1767      2217      2218
 -1       799    8    0    1
 -2       328       329       478      1770      2219      2220
 -1       800    8    0    1
 -2       328       478       477      2220      2221      2217
 -1       801    8    0    1
 -2       329       330       479      1773      2222      2223
 -1       802    8    0    1
 -2       329       479       478      2223      2224      2219
 -1       803    8    0    1
 -2       330       331       480      1776      2225      2226
 -1       804    8    0    1
 -2       330       480       479      2226      2227      2222
 -1       805    8    0    1
 -2       331       332       481      1779      2228      2229
 -1       806    8    0    1
 -2       331       481       480      2229      2230      2225
 -1       807    8    0    1
 -2       332       333       482      1782      2231      2232
 -1       808    8    0    1
 -2       332       482       481      2232      2233      2228
 -1       809    8    0    1
 -2       383       384       483      1938      2234      2235
 -1       810    8    0    1
 -2       383       483       474      2235      2236      2210
 -1       811    8    0    1
 -2       338       337       484      1799      2237      2238
 -1       812    8    0    1
 -2       450       451       485      2182      2239      2240
 -1       813    8    0    1
 -2       339       338       486      1802      2241      2242
 -1       814    8    0    1
 -2       338       484       486      2238      2243      2241
 -1       815    8    0    1
 -2       340       339       487      1805      2244      2245
 -1       816    8    0    1
 -2       339       486       487      2242      2246      2244
 -1       817    8    0    1
 -2       341       340       488      1808      2247      2248
 -1       818    8    0    1
 -2       340       487       488      2245      2249      2247
 -1       819    8    0    1
 -2       342       341       489      1811      2250      2251
 -1       820    8    0    1
 -2       341       488       489      2248      2252      2250
 -1       821    8    0    1
 -2       343       342       490      1814      2253      2254
 -1       822    8    0    1
 -2       342       489       490      2251      2255      2253
 -1       823    8    0    1
 -2       344       343       491      1817      2256      2257
 -1       824    8    0    1
 -2       343       490       491      2254      2258      2256
 -1       825    8    0    1
 -2       345       344       492      1820      2259      2260
 -1       826    8    0    1
 -2       344       491       492      2257      2261      2259
 -1       827    8    0    1
 -2       346       345       493      1823      2262      2263
 -1       828    8    0    1
 -2       345       492       493      2260      2264      2262
 -1       829    8    0    1
 -2       347       346       494      1826      2265      2266
 -1       830    8    0    1
 -2       346       493       494      2263      2267      2265
 -1       831    8    0    1
 -2       348       347       495      1829      2268      2269
 -1       832    8    0    1
 -2       347       494       495      2266      2270      2268
 -1       833    8    0    1
 -2       349       348       496      1832      2271      2272
 -1       834    8    0    1
 -2       348       495       496      2269      2273      2271
 -1       835    8    0    1
 -2       350       349       497      1835      2274      2275
 -1       836    8    0    1
 -2       349       496       497      2272      2276      2274
 -1       837    8    0    1
 -2       351       350       498      1838      2277      2278
 -1       838    8    0    1
 -2       350       497       498      2275      2279      2277
 -1       839    8    0    1
 -2       352       351       499      1841      2280      2281
 -1       840    8    0    1
 -2       351       498       499      2278      2282      2280
 -1       841    8    0    1
 -2       353       352       500      1844      2283      2284
 -1       842    8    0    1
 -2       352       499       500      2281      2285      2283
 -1       843    8    0    1
 -2       354       353       501      1847      2286      2287
 -1       844    8    0    1
 -2       353       500       501      2284      2288      2286
 -1       845    8    0    1
 -2       355       354       502      1850      2289      2290
 -1       846    8    0    1
 -2       354       501       502      2287      2291      2289
 -1       847    8    0    1
 -2       356       355       503      1853      2292      2293
 -1       848    8    0    1
 -2       355       502       503      2290      2294      2292
 -1       849    8    0    1
 -2       357       356       504      1856      2295      2296
 -1       850    8    0    1
 -2       356       503       504      2293      2297      2295
 -1       851    8    0    1
 -2       358       357       505      1859      2298      2299
 -1       852    8    0    1
 -2       357       504       505      2296      2300      2298
 -1       853    8    0    1
 -2       359       358       506      1862      2301      2302
 -1       854    8    0    1
 -2       358       505       506      2299      2303      2301
 -1       855    8    0    1
 -2       360       359       507      1865      2304      2305
 -1       856    8    0    1
 -2       359       506       507      2302      2306      2304
 -1       857    8    0    1
 -2       361       360       508      1868      2307      2308
 -1       858    8    0    1
 -2       360       507       508      2305      2309      2307
 -1       859    8    0    1
 -2       362       361       509      1871      2310      2311
 -1       860    8    0    1
 -2       361       508       509      2308      2312      2310
 -1       861    8    0    1
 -2       363       362       510      1874      2313      2314
 -1       862    8    0    1
 -2       362       509       510      2311      2315      2313
 -1       863    8    0    1
 -2       364       363       511      1877      2316      2317
 -1       864    8    0    1
 -2       363       510       511      2314      2318      2316
 -1       865    8    0    1
 -2       365       364       512      1880      2319      2320
 -1       866    8    0    1
 -2       364       511       512      2317      2321      2319
 -1       867    8    0    1
 -2       366       365       513      1883      2322      2323
 -1       868    8    0    1
 -2       365       512       513      2320      2324      2322
 -1       869    8    0    1
 -2       367       366       514      1886      2325      2326
 -1       870    8    0    1
 -2       366       513       514      2323      2327      2325
 -1       871    8    0    1
 -2       368       367       515      1889      2328      2329
 -1       872    8    0    1
 -2       367       514       515      2326      2330      2328
 -1       873    8    0    1
 -2       369       368       516      1892      2331      2332
 -1       874    8    0    1
 -2       368       515       516      2329      2333      2331
 -1       875    8    0    1
 -2       370       369       517      1895      2334      2335
 -1       876    8    0    1
 -2       369       516       517      2332      2336      2334
 -1       877    8    0    1
 -2       371       370       518      1898      2337      2338
 -1       878    8    0    1
 -2       370       517       518      2335      2339      2337
 -1       879    8    0    1
 -2       372       371       519      1901      2340      2341
 -1       880    8    0    1
 -2       371       518       519      2338      2342      2340
 -1       881    8    0    1
 -2       373       372       520      1904      2343      2344
 -1       882    8    0    1
 -2       372       519       520      2341      2345      2343
 -1       883    8    0    1
 -2       374       373       521      1907      2346      2347
 -1       884    8    0    1
 -2       373       520       521      2344      2348      2346
 -1       885    8    0    1
 -2       375       374       522      1910      2349      2350
 -1       886    8    0    1
 -2       374       521       522      2347      2351      2349
 -1       887    8    0    1
 -2       376       375       523      1913      2352      2353
 -1       888    8    0    1
 -2       375       522       523      2350      2354      2352
 -1       889    8    0    1
 -2       377       376       524      1916      2355      2356
 -1       890    8    0    1
 -2       376       523       524      2353      2357      2355
 -1       891    8    0    1
 -2       378       377       525      1919      2358      2359
 -1       892    8    0    1
 -2       377       524       525      2356      2360      2358
 -1       893    8    0    1
 -2       379       378       526      1922      2361      2362
 -1       894    8    0    1
 -2       378       525       526      2359      2363      2361
 -1       895    8    0    1
 -2       380       379       527      1925      2364      2365
 -1       896    8    0    1
 -2       379       526       527      2362      2366      2364
 -1       897    8    0    1
 -2       381       380       528      1928      2367      2368
 -1       898    8    0    1
 -2       380       527       528      2365      2369      2367
 -1       899    8    0    1
 -2       385       386       529      1944      2370      2371
 -1       900    8    0    1
 -2       386       387       530      1947      2372      2373
 -1       901    8    0    1
 -2       386       530       529      2373      2374      2370
 -1       902    8    0    1
 -2       387       388       531      1950      2375      2376
 -1       903    8    0    1
 -2       387       531       530      2376      2377      2372
 -1       904    8    0    1
 -2       388       389       532      1953      2378      2379
 -1       905    8    0    1
 -2       388       532       531      2379      2380      2375
 -1       906    8    0    1
 -2       389       390       533      1956      2381      2382
 -1       907    8    0    1
 -2       389       533       532      2382      2383      2378
 -1       908    8    0    1
 -2       390       391       534      1959      2384      2385
 -1       909    8    0    1
 -2       390       534       533      2385      2386      2381
 -1       910    8    0    1
 -2       391       392       535      1962      2387      2388
 -1       911    8    0    1
 -2       391       535       534      2388      2389      2384
 -1       912    8    0    1
 -2       392       393       536      1965      2390      2391
 -1       913    8    0    1
 -2       392       536       535      2391      2392      2387
 -1       914    8    0    1
 -2       393       394       537      1968      2393      2394
 -1       915    8    0    1
 -2       393       537       536      2394      2395      2390
 -1       916    8    0    1
 -2       394       395       538      1971      2396      2397
 -1       917    8    0    1
 -2       394       538       537      2397      2398      2393
 -1       918    8    0    1
 -2       395       396       539      1974      2399      2400
 -1       919    8    0    1
 -2       395       539       538      2400      2401      2396
 -1       920    8    0    1
 -2       396       397       540      1977      2402      2403
 -1       921    8    0    1
 -2       396       540       539      2403      2404      2399
 -1       922    8    0    1
 -2       397       398       541      1980      2405      2406
 -1       923    8    0    1
 -2       397       541       540      2406      2407      2402
 -1       924    8    0    1
 -2       398       399       542      1983      2408      2409
 -1       925    8    0    1
 -2       398       542       541      2409      2410      2405
 -1       926    8    0    1
 -2       399       400       543      1986      2411      2412
 -1       927    8    0    1
 -2       399       543       542      2412      2413      2408
 -1       928    8    0    1
 -2       400       401       544      1989      2414      2415
 -1       929    8    0    1
 -2       400       544       543      2415      2416      2411
 -1       930    8    0    1
 -2       401       402       545      1992      2417      2418
 -1       931    8    0    1
 -2       401       545       544      2418      2419      2414
 -1       932    8    0    1
 -2       402       403       546      1995      2420      2421
 -1       933    8    0    1
 -2       402       546       545      2421      2422      2417
 -1       934    8    0    1
 -2       403       404       547      1998      2423      2424
 -1       935    8    0    1
 -2       403       547       546      2424      2425      2420
 -1       936    8    0    1
 -2       404       405       548      2001      2426      2427
 -1       937    8    0    1
 -2       404       548       547      2427      2428      2423
 -1       938    8    0    1
 -2       405       406       549      2004      2429      2430
 -1       939    8    0    1
 -2       405       549       548      2430      2431      2426
 -1       940    8    0    1
 -2       406       407       550      2007      2432      2433
 -1       941    8    0    1
 -2       406       550       549      2433      2434      2429
 -1       942    8    0    1
 -2       407       408       551      2010      2435      2436
 -1       943    8    0    1
 -2       407       551       550      2436      2437      2432
 -1       944    8    0    1
 -2       408       409       552      2013      2438      2439
 -1       945    8    0    1
 -2       408       552       551      2439      2440      2435
 -1       946    8    0    1
 -2       409       410       553      2016      2441      2442
 -1       947    8    0    1
 -2       409       553       552      2442      2443      2438
 -1       948    8    0    1
 -2       410       411       554      2019      2444      2445
 -1       949    8    0    1
 -2       410       554       553      2445      2446      2441
 -1       950    8    0    1
 -2       411       412       555      2022      2447      2448
 -1       951    8    0    1
 -2       411       555       554      2448      2449      2444
 -1       952    8    0    1
 -2       412       413       556      2025      2450      2451
 -1       953    8    0    1
 -2       412       556       555      2451      2452      2447
 -1       954    8    0    1
 -2       413       414       557      2028      2453      2454
 -1       955    8    0    1
 -2       413       557       556      2454      2455      2450
 -1       956    8    0    1
 -2       414       415       558      2031      2456      2457
 -1       957    8    0    1
 -2       414       558       557      2457      2458      2453
 -1       958    8    0    1
 -2       415       416       559      2034      2459      2460
 -1       959    8    0    1
 -2       415       559       558      2460      2461      2456
 -1       960    8    0    1
 -2       416       417       560      2037      2462      2463
 -1       961    8    0    1
 -2       416       560       559      2463      2464      2459
 -1       962    8    0    1
 -2       417       418       561      2040      2465      2466
 -1       963    8    0    1
 -2       417       561       560      2466      2467      2462
 -1       964    8    0    1
 -2       418       419       562      2043      2468      2469
 -1       965    8    0    1
 -2       418       562       561      2469      2470      2465
 -1       966    8    0    1
 -2       419       420       563      2046      2471      2472
 -1       967    8    0    1
 -2       419       563       562      2472      2473      2468
 -1       968    8    0    1
 -2       420       421       564      2049      2474      2475
 -1       969    8    0    1
 -2       420       564       563      2475      2476      2471
 -1       970    8    0    1
 -2       421       422       565      2052      2477      2478
 -1       971    8    0    1
 -2       421       565       564      2478      2479      2474
 -1       972    8    0    1
 -2       422       423       566      2055      2480      2481
 -1       973    8    0    1
 -2       422       566       565      2481      2482      2477
 -1       974    8    0    1
 -2       423       424       567      2058      2483      2484
 -1       975    8    0    1
 -2       423       567       566      2484      2485      2480
 -1       976    8    0    1
 -2       424       425       568      2061      2486      2487
 -1       977    8    0    1
 -2       424       568       567      2487      2488      2483
 -1       978    8    0    1
 -2       425       426       569      2064      2489      2490
 -1       979    8    0    1
 -2       425       569       568      2490      2491      2486
 -1       980    8    0    1
 -2       426       427       570      2067      2492      2493
 -1       981    8    0    1
 -2       426       570       569      2493      2494      2489
 -1       982    8    0    1
 -2       427       428       431      2070      2079      2495
 -1       983    8    0    1
 -2       432       433       571      2086      2496      2497
 -1       984    8    0    1
 -2       433       434       572      2089      2498      2499
 -1       985    8    0    1
 -2       433       572       571      2499      2500      2496
 -1       986    8    0    1
 -2       430       429       573      2076      2501      2502
 -1       987    8    0    1
 -2       429       432       574      2083      2503      2504
 -1       988    8    0    1
 -2       573       429       574      2501      2504      2505
 -1       989    8    0    1
 -2       432       571       574      2497      2506      2503
 -1       990    8    0    1
 -2       442       445       575      2120      2507      2508
 -1       991    8    0    1
 -2       434       435       576      2092      2509      2510
 -1       992    8    0    1
 -2       434       576       572      2510      2511      2498
 -1       993    8    0    1
 -2       435       436       577      2095      2512      2513
 -1       994    8    0    1
 -2       435       577       576      2513      2514      2509
 -1       995    8    0    1
 -2       436       437       578      2098      2515      2516
 -1       996    8    0    1
 -2       436       578       577      2516      2517      2512
 -1       997    8    0    1
 -2       437       438       579      2101      2518      2519
 -1       998    8    0    1
 -2       437       579       578      2519      2520      2515
 -1       999    8    0    1
 -2       438       439       580      2104      2521      2522
 -1      1000    8    0    1
 -2       438       580       579      2522      2523      2518
 -1      1001    8    0    1
 -2       439       440       581      2107      2524      2525
 -1      1002    8    0    1
 -2       439       581       580      2525      2526      2521
 -1      1003    8    0    1
 -2       440       441       582      2110      2527      2528
 -1      1004    8    0    1
 -2       440       582       581      2528      2529      2524
 -1      1005    8    0    1
 -2       441       291       382      2186      1931      2530
 -1      1006    8    0    1
 -2       445       446       583      2187      2531      2532
 -1      1007    8    0    1
 -2       384       385       584      1941      2533      2534
 -1      1008    8    0    1
 -2       385       529       584      2371      2535      2533
 -1      1009    8    0    1
 -2       443       444       585      2117      2536      2537
 -1      1010    8    0    1
 -2       471       443       586      2188      2538      2539
 -1      1011    8    0    1
 -2       337       323       587      2184      2540      2541
 -1      1012    8    0    1
 -2       484       337       587      2237      2541      2542
 -1      1013    8    0    1
 -2       323       322       587      1753      2543      2540
 -1      1014    8    0    1
 -2       467       468       588      2191      2544      2545
 -1      1015    8    0    1
 -2       462       463       589      2193      2546      2547
 -1      1016    8    0    1
 -2       460       461       590      2194      2548      2549
 -1      1017    8    0    1
 -2       326       327       591      1764      2550      2551
 -1      1018    8    0    1
 -2       475       326       591      2212      2551      2552
 -1      1019    8    0    1
 -2       327       477       591      2218      2553      2550
 -1      1020    8    0    1
 -2       449       450       592      2207      2554      2555
 -1      1021    8    0    1
 -2       463       464       593      2208      2556      2557
 -1      1022    8    0    1
 -2       472       448       594      2183      2558      2559
 -1      1023    8    0    1
 -2       448       449       595      2206      2560      2561
 -1      1024    8    0    1
 -2       449       592       595      2555      2562      2560
 -1      1025    8    0    1
 -2       451       452       596      2205      2563      2564
 -1      1026    8    0    1
 -2       453       454       597      2201      2565      2566
 -1      1027    8    0    1
 -2       454       455       598      2200      2567      2568
 -1      1028    8    0    1
 -2       455       456       599      2199      2569      2570
 -1      1029    8    0    1
 -2       456       457       600      2198      2571      2572
 -1      1030    8    0    1
 -2       457       458       601      2197      2573      2574
 -1      1031    8    0    1
 -2       458       459       602      2196      2575      2576
 -1      1032    8    0    1
 -2       459       460       603      2195      2577      2578
 -1      1033    8    0    1
 -2       461       462       604      2157      2579      2580
 -1      1034    8    0    1
 -2       468       469       605      2209      2581      2582
 -1      1035    8    0    1
 -2       464       465       606      2164      2583      2584
 -1      1036    8    0    1
 -2       465       466       607      2192      2585      2586
 -1      1037    8    0    1
 -2       466       467       608      2169      2587      2588
 -1      1038    8    0    1
 -2       467       588       608      2545      2589      2587
 -1      1039    8    0    1
 -2       469       470       609      2176      2590      2591
 -1      1040    8    0    1
 -2       446       472       610      2189      2592      2593
 -1      1041    8    0    1
 -2       472       594       610      2559      2594      2592
 -1      1042    8    0    1
 -2       470       471       611      2190      2595      2596
 -1      1043    8    0    1
 -2       470       611       609      2596      2597      2590
 -1      1044    8    0    1
 -2       335       336       612      1793      2598      2599
 -1      1045    8    0    1
 -2       334       335       612      1788      2599      2600
 -1      1046    8    0    1
 -2       336       474       612      2211      2601      2598
 -1      1047    8    0    1
 -2       444       442       613      2185      2602      2603
 -1      1048    8    0    1
 -2       444       613       585      2603      2604      2536
 -1      1049    8    0    1
 -2       451       596       485      2564      2605      2239
 -1      1050    8    0    1
 -2       324       476       614      2215      2606      2607
 -1      1051    8    0    1
 -2       324       614       447      2607      2608      2126
 -1      1052    8    0    1
 -2       483       384       584      2234      2534      2609
 -1      1053    8    0    1
 -2       333       334       612      1785      2600      2610
 -1      1054    8    0    1
 -2       613       442       575      2602      2508      2611
 -1      1055    8    0    1
 -2       607       466       615      2585      2612      2613
 -1      1056    8    0    1
 -2       466       608       615      2588      2614      2612
 -1      1057    8    0    1
 -2       588       468       605      2544      2582      2615
 -1      1058    8    0    1
 -2       450       485       616      2240      2616      2617
 -1      1059    8    0    1
 -2       450       616       592      2617      2618      2554
 -1      1060    8    0    1
 -2       606       465       607      2583      2586      2619
 -1      1061    8    0    1
 -2       605       469       609      2581      2591      2620
 -1      1062    8    0    1
 -2       445       583       575      2532      2621      2507
 -1      1063    8    0    1
 -2       604       462       589      2579      2547      2622
 -1      1064    8    0    1
 -2       427       431       570      2495      2623      2492
 -1      1065    8    0    1
 -2       431       430       570      2080      2624      2623
 -1      1066    8    0    1
 -2       441       382       617      2530      2625      2626
 -1      1067    8    0    1
 -2       582       441       617      2527      2626      2627
 -1      1068    8    0    1
 -2       382       381       617      1932      2628      2625
 -1      1069    8    0    1
 -2       583       446       610      2531      2593      2629
 -1      1070    8    0    1
 -2       603       460       590      2577      2549      2630
 -1      1071    8    0    1
 -2       602       459       603      2575      2578      2631
 -1      1072    8    0    1
 -2       333       612       482      2610      2632      2231
 -1      1073    8    0    1
 -2       601       458       602      2573      2576      2633
 -1      1074    8    0    1
 -2       471       586       611      2539      2634      2595
 -1      1075    8    0    1
 -2       600       457       601      2571      2574      2635
 -1      1076    8    0    1
 -2       589       463       593      2546      2557      2636
 -1      1077    8    0    1
 -2       599       456       600      2569      2572      2637
 -1      1078    8    0    1
 -2       598       455       599      2567      2570      2638
 -1      1079    8    0    1
 -2       597       454       598      2565      2568      2639
 -1      1080    8    0    1
 -2       594       448       595      2558      2561      2640
 -1      1081    8    0    1
 -2       590       461       604      2548      2580      2641
 -1      1082    8    0    1
 -2       587       322       447      2543      2125      2642
 -1      1083    8    0    1
 -2       586       443       585      2538      2537      2643
 -1      1084    8    0    1
 -2       473       453       618      2204      2644      2645
 -1      1085    8    0    1
 -2       453       597       618      2566      2646      2644
 -1      1086    8    0    1
 -2       593       464       606      2556      2584      2647
 -1      1087    8    0    1
 -2       596       452       619      2563      2648      2649
 -1      1088    8    0    1
 -2       452       473       619      2203      2650      2648
 -1      1089    8    0    1
 -2       570       430       573      2624      2502      2651
 -1      1090    8    0    1
 -2       617       381       528      2628      2368      2652
 -1      1091    8    0    1
 -2       478       479       620      2224      2653      2654
 -1      1092    8    0    1
 -2       477       478       621      2221      2655      2656
 -1      1093    8    0    1
 -2       478       620       621      2654      2657      2655
 -1      1094    8    0    1
 -2       480       481       622      2230      2658      2659
 -1      1095    8    0    1
 -2       481       482       623      2233      2660      2661
 -1      1096    8    0    1
 -2       481       623       622      2661      2662      2658
 -1      1097    8    0    1
 -2       474       483       624      2236      2663      2664
 -1      1098    8    0    1
 -2       601       602       625      2633      2665      2666
 -1      1099    8    0    1
 -2       483       584       626      2609      2667      2668
 -1      1100    8    0    1
 -2       483       626       624      2668      2669      2663
 -1      1101    8    0    1
 -2       608       588       627      2589      2670      2671
 -1      1102    8    0    1
 -2       487       486       628      2246      2672      2673
 -1      1103    8    0    1
 -2       488       487       629      2249      2674      2675
 -1      1104    8    0    1
 -2       487       628       629      2673      2676      2674
 -1      1105    8    0    1
 -2       489       488       630      2252      2677      2678
 -1      1106    8    0    1
 -2       488       629       630      2675      2679      2677
 -1      1107    8    0    1
 -2       491       490       631      2258      2680      2681
 -1      1108    8    0    1
 -2       492       491       606      2261      2682      2683
 -1      1109    8    0    1
 -2       493       492       615      2264      2684      2685
 -1      1110    8    0    1
 -2       495       494       632      2270      2686      2687
 -1      1111    8    0    1
 -2       496       495       633      2273      2688      2689
 -1      1112    8    0    1
 -2       495       632       633      2687      2690      2688
 -1      1113    8    0    1
 -2       497       496       634      2276      2691      2692
 -1      1114    8    0    1
 -2       496       633       634      2689      2693      2691
 -1      1115    8    0    1
 -2       498       497       635      2279      2694      2695
 -1      1116    8    0    1
 -2       497       634       635      2692      2696      2694
 -1      1117    8    0    1
 -2       499       498       636      2282      2697      2698
 -1      1118    8    0    1
 -2       498       635       636      2695      2699      2697
 -1      1119    8    0    1
 -2       500       499       637      2285      2700      2701
 -1      1120    8    0    1
 -2       499       636       637      2698      2702      2700
 -1      1121    8    0    1
 -2       501       500       638      2288      2703      2704
 -1      1122    8    0    1
 -2       500       637       638      2701      2705      2703
 -1      1123    8    0    1
 -2       502       501       639      2291      2706      2707
 -1      1124    8    0    1
 -2       501       638       639      2704      2708      2706
 -1      1125    8    0    1
 -2       503       502       640      2294      2709      2710
 -1      1126    8    0    1
 -2       502       639       640      2707      2711      2709
 -1      1127    8    0    1
 -2       504       503       641      2297      2712      2713
 -1      1128    8    0    1
 -2       503       640       641      2710      2714      2712
 -1      1129    8    0    1
 -2       505       504       642      2300      2715      2716
 -1      1130    8    0    1
 -2       504       641       642      2713      2717      2715
 -1      1131    8    0    1
 -2       506       505       643      2303      2718      2719
 -1      1132    8    0    1
 -2       505       642       643      2716      2720      2718
 -1      1133    8    0    1
 -2       507       506       644      2306      2721      2722
 -1      1134    8    0    1
 -2       506       643       644      2719      2723      2721
 -1      1135    8    0    1
 -2       508       507       645      2309      2724      2725
 -1      1136    8    0    1
 -2       507       644       645      2722      2726      2724
 -1      1137    8    0    1
 -2       509       508       646      2312      2727      2728
 -1      1138    8    0    1
 -2       508       645       646      2725      2729      2727
 -1      1139    8    0    1
 -2       510       509       647      2315      2730      2731
 -1      1140    8    0    1
 -2       509       646       647      2728      2732      2730
 -1      1141    8    0    1
 -2       511       510       648      2318      2733      2734
 -1      1142    8    0    1
 -2       510       647       648      2731      2735      2733
 -1      1143    8    0    1
 -2       512       511       649      2321      2736      2737
 -1      1144    8    0    1
 -2       511       648       649      2734      2738      2736
 -1      1145    8    0    1
 -2       513       512       650      2324      2739      2740
 -1      1146    8    0    1
 -2       512       649       650      2737      2741      2739
 -1      1147    8    0    1
 -2       514       513       651      2327      2742      2743
 -1      1148    8    0    1
 -2       513       650       651      2740      2744      2742
 -1      1149    8    0    1
 -2       515       514       652      2330      2745      2746
 -1      1150    8    0    1
 -2       514       651       652      2743      2747      2745
 -1      1151    8    0    1
 -2       516       515       653      2333      2748      2749
 -1      1152    8    0    1
 -2       515       652       653      2746      2750      2748
 -1      1153    8    0    1
 -2       517       516       654      2336      2751      2752
 -1      1154    8    0    1
 -2       516       653       654      2749      2753      2751
 -1      1155    8    0    1
 -2       518       517       655      2339      2754      2755
 -1      1156    8    0    1
 -2       517       654       655      2752      2756      2754
 -1      1157    8    0    1
 -2       519       518       656      2342      2757      2758
 -1      1158    8    0    1
 -2       518       655       656      2755      2759      2757
 -1      1159    8    0    1
 -2       520       519       657      2345      2760      2761
 -1      1160    8    0    1
 -2       519       656       657      2758      2762      2760
 -1      1161    8    0    1
 -2       521       520       658      2348      2763      2764
 -1      1162    8    0    1
 -2       520       657       658      2761      2765      2763
 -1      1163    8    0    1
 -2       522       521       659      2351      2766      2767
 -1      1164    8    0    1
 -2       521       658       659      2764      2768      2766
 -1      1165    8    0    1
 -2       523       522       660      2354      2769      2770
 -1      1166    8    0    1
 -2       522       659       660      2767      2771      2769
 -1      1167    8    0    1
 -2       524       523       661      2357      2772      2773
 -1      1168    8    0    1
 -2       523       660       661      2770      2774      2772
 -1      1169    8    0    1
 -2       525       524       662      2360      2775      2776
 -1      1170    8    0    1
 -2       524       661       662      2773      2777      2775
 -1      1171    8    0    1
 -2       526       525       663      2363      2778      2779
 -1      1172    8    0    1
 -2       525       662       663      2776      2780      2778
 -1      1173    8    0    1
 -2       527       526       664      2366      2781      2782
 -1      1174    8    0    1
 -2       526       663       664      2779      2783      2781
 -1      1175    8    0    1
 -2       528       527       665      2369      2784      2785
 -1      1176    8    0    1
 -2       527       664       665      2782      2786      2784
 -1      1177    8    0    1
 -2       530       531       666      2377      2787      2788
 -1      1178    8    0    1
 -2       583       610       667      2629      2789      2790
 -1      1179    8    0    1
 -2       529       530       668      2374      2791      2792
 -1      1180    8    0    1
 -2       530       666       668      2788      2793      2791
 -1      1181    8    0    1
 -2       532       533       669      2383      2794      2795
 -1      1182    8    0    1
 -2       533       534       670      2386      2796      2797
 -1      1183    8    0    1
 -2       533       670       669      2797      2798      2794
 -1      1184    8    0    1
 -2       534       535       671      2389      2799      2800
 -1      1185    8    0    1
 -2       534       671       670      2800      2801      2796
 -1      1186    8    0    1
 -2       535       536       672      2392      2802      2803
 -1      1187    8    0    1
 -2       535       672       671      2803      2804      2799
 -1      1188    8    0    1
 -2       536       537       673      2395      2805      2806
 -1      1189    8    0    1
 -2       536       673       672      2806      2807      2802
 -1      1190    8    0    1
 -2       537       538       674      2398      2808      2809
 -1      1191    8    0    1
 -2       537       674       673      2809      2810      2805
 -1      1192    8    0    1
 -2       538       539       675      2401      2811      2812
 -1      1193    8    0    1
 -2       538       675       674      2812      2813      2808
 -1      1194    8    0    1
 -2       539       540       676      2404      2814      2815
 -1      1195    8    0    1
 -2       539       676       675      2815      2816      2811
 -1      1196    8    0    1
 -2       540       541       677      2407      2817      2818
 -1      1197    8    0    1
 -2       540       677       676      2818      2819      2814
 -1      1198    8    0    1
 -2       541       542       678      2410      2820      2821
 -1      1199    8    0    1
 -2       541       678       677      2821      2822      2817
 -1      1200    8    0    1
 -2       542       543       679      2413      2823      2824
 -1      1201    8    0    1
 -2       542       679       678      2824      2825      2820
 -1      1202    8    0    1
 -2       543       544       680      2416      2826      2827
 -1      1203    8    0    1
 -2       543       680       679      2827      2828      2823
 -1      1204    8    0    1
 -2       544       545       681      2419      2829      2830
 -1      1205    8    0    1
 -2       544       681       680      2830      2831      2826
 -1      1206    8    0    1
 -2       545       546       682      2422      2832      2833
 -1      1207    8    0    1
 -2       545       682       681      2833      2834      2829
 -1      1208    8    0    1
 -2       546       547       683      2425      2835      2836
 -1      1209    8    0    1
 -2       546       683       682      2836      2837      2832
 -1      1210    8    0    1
 -2       547       548       684      2428      2838      2839
 -1      1211    8    0    1
 -2       547       684       683      2839      2840      2835
 -1      1212    8    0    1
 -2       548       549       685      2431      2841      2842
 -1      1213    8    0    1
 -2       548       685       684      2842      2843      2838
 -1      1214    8    0    1
 -2       549       550       686      2434      2844      2845
 -1      1215    8    0    1
 -2       549       686       685      2845      2846      2841
 -1      1216    8    0    1
 -2       550       551       687      2437      2847      2848
 -1      1217    8    0    1
 -2       550       687       686      2848      2849      2844
 -1      1218    8    0    1
 -2       551       552       688      2440      2850      2851
 -1      1219    8    0    1
 -2       551       688       687      2851      2852      2847
 -1      1220    8    0    1
 -2       552       553       689      2443      2853      2854
 -1      1221    8    0    1
 -2       552       689       688      2854      2855      2850
 -1      1222    8    0    1
 -2       553       554       690      2446      2856      2857
 -1      1223    8    0    1
 -2       553       690       689      2857      2858      2853
 -1      1224    8    0    1
 -2       554       555       691      2449      2859      2860
 -1      1225    8    0    1
 -2       554       691       690      2860      2861      2856
 -1      1226    8    0    1
 -2       555       556       692      2452      2862      2863
 -1      1227    8    0    1
 -2       555       692       691      2863      2864      2859
 -1      1228    8    0    1
 -2       556       557       693      2455      2865      2866
 -1      1229    8    0    1
 -2       556       693       692      2866      2867      2862
 -1      1230    8    0    1
 -2       557       558       694      2458      2868      2869
 -1      1231    8    0    1
 -2       557       694       693      2869      2870      2865
 -1      1232    8    0    1
 -2       558       559       695      2461      2871      2872
 -1      1233    8    0    1
 -2       558       695       694      2872      2873      2868
 -1      1234    8    0    1
 -2       559       560       696      2464      2874      2875
 -1      1235    8    0    1
 -2       559       696       695      2875      2876      2871
 -1      1236    8    0    1
 -2       560       561       697      2467      2877      2878
 -1      1237    8    0    1
 -2       560       697       696      2878      2879      2874
 -1      1238    8    0    1
 -2       561       562       698      2470      2880      2881
 -1      1239    8    0    1
 -2       561       698       697      2881      2882      2877
 -1      1240    8    0    1
 -2       562       563       699      2473      2883      2884
 -1      1241    8    0    1
 -2       562       699       698      2884      2885      2880
 -1      1242    8    0    1
 -2       563       564       700      2476      2886      2887
 -1      1243    8    0    1
 -2       563       700       699      2887      2888      2883
 -1      1244    8    0    1
 -2       564       565       701      2479      2889      2890
 -1      1245    8    0    1
 -2       564       701       700      2890      2891      2886
 -1      1246    8    0    1
 -2       565       566       702      2482      2892      2893
 -1      1247    8    0    1
 -2       565       702       701      2893      2894      2889
 -1      1248    8    0    1
 -2       566       567       703      2485      2895      2896
 -1      1249    8    0    1
 -2       566       703       702      2896      2897      2892
 -1      1250    8    0    1
 -2       567       568       704      2488      2898      2899
 -1      1251    8    0    1
 -2       567       704       703      2899      2900      2895
 -1      1252    8    0    1
 -2       568       569       705      2491      2901      2902
 -1      1253    8    0    1
 -2       568       705       704      2902      2903      2898
 -1      1254    8    0    1
 -2       569       570       706      2494      2904      2905
 -1      1255    8    0    1
 -2       705       569       706      2901      2905      2906
 -1      1256    8    0    1
 -2       570       573       706      2651      2907      2904
 -1      1257    8    0    1
 -2       576       577       707      2514      2908      2909
 -1      1258    8    0    1
 -2       617       528       708      2652      2910      2911
 -1      1259    8    0    1
 -2       528       665       708      2785      2912      2910
 -1      1260    8    0    1
 -2       571       572       709      2500      2913      2914
 -1      1261    8    0    1
 -2       604       589       710      2622      2915      2916
 -1      1262    8    0    1
 -2       577       578       711      2517      2917      2918
 -1      1263    8    0    1
 -2       577       711       707      2918      2919      2908
 -1      1264    8    0    1
 -2       572       576       712      2511      2920      2921
 -1      1265    8    0    1
 -2       709       572       712      2913      2921      2922
 -1      1266    8    0    1
 -2       576       707       712      2909      2923      2920
 -1      1267    8    0    1
 -2       578       579       713      2520      2924      2925
 -1      1268    8    0    1
 -2       578       713       711      2925      2926      2917
 -1      1269    8    0    1
 -2       579       580       714      2523      2927      2928
 -1      1270    8    0    1
 -2       579       714       713      2928      2929      2924
 -1      1271    8    0    1
 -2       580       581       715      2526      2930      2931
 -1      1272    8    0    1
 -2       580       715       714      2931      2932      2927
 -1      1273    8    0    1
 -2       584       529       716      2535      2933      2934
 -1      1274    8    0    1
 -2       626       584       716      2667      2934      2935
 -1      1275    8    0    1
 -2       529       668       716      2792      2936      2933
 -1      1276    8    0    1
 -2       485       596       717      2605      2937      2938
 -1      1277    8    0    1
 -2       484       587       718      2542      2939      2940
 -1      1278    8    0    1
 -2       610       594       719      2594      2941      2942
 -1      1279    8    0    1
 -2       582       617       708      2627      2911      2943
 -1      1280    8    0    1
 -2       602       603       720      2631      2944      2945
 -1      1281    8    0    1
 -2       595       592       721      2562      2946      2947
 -1      1282    8    0    1
 -2       531       532       722      2380      2948      2949
 -1      1283    8    0    1
 -2       532       669       722      2795      2950      2948
 -1      1284    8    0    1
 -2       486       484       723      2243      2951      2952
 -1      1285    8    0    1
 -2       628       486       723      2672      2952      2953
 -1      1286    8    0    1
 -2       484       718       723      2940      2954      2951
 -1      1287    8    0    1
 -2       575       583       724      2621      2955      2956
 -1      1288    8    0    1
 -2       586       585       725      2643      2957      2958
 -1      1289    8    0    1
 -2       479       480       726      2227      2959      2960
 -1      1290    8    0    1
 -2       620       479       726      2653      2960      2961
 -1      1291    8    0    1
 -2       480       622       726      2659      2962      2959
 -1      1292    8    0    1
 -2       476       475       727      2216      2963      2964
 -1      1293    8    0    1
 -2       599       600       728      2637      2965      2966
 -1      1294    8    0    1
 -2       609       611       729      2597      2967      2968
 -1      1295    8    0    1
 -2       590       604       730      2641      2969      2970
 -1      1296    8    0    1
 -2       593       606       631      2647      2971      2972
 -1      1297    8    0    1
 -2       594       595       731      2640      2973      2974
 -1      1298    8    0    1
 -2       597       598       732      2639      2975      2976
 -1      1299    8    0    1
 -2       598       599       733      2638      2977      2978
 -1      1300    8    0    1
 -2       598       733       732      2978      2979      2975
 -1      1301    8    0    1
 -2       589       593       631      2636      2972      2980
 -1      1302    8    0    1
 -2       611       586       734      2634      2981      2982
 -1      1303    8    0    1
 -2       482       612       474      2632      2601      2983
 -1      1304    8    0    1
 -2       587       447       718      2642      2984      2939
 -1      1305    8    0    1
 -2       605       609       735      2620      2985      2986
 -1      1306    8    0    1
 -2       588       605       736      2615      2987      2988
 -1      1307    8    0    1
 -2       605       735       736      2986      2989      2987
 -1      1308    8    0    1
 -2       613       575       737      2611      2990      2991
 -1      1309    8    0    1
 -2       585       613       738      2604      2992      2993
 -1      1310    8    0    1
 -2       603       590       739      2630      2994      2995
 -1      1311    8    0    1
 -2       603       739       720      2995      2996      2944
 -1      1312    8    0    1
 -2       600       601       740      2635      2997      2998
 -1      1313    8    0    1
 -2       601       625       740      2666      2999      2997
 -1      1314    8    0    1
 -2       614       476       741      2606      3000      3001
 -1      1315    8    0    1
 -2       476       727       741      2964      3002      3000
 -1      1316    8    0    1
 -2       477       621       742      2656      3003      3004
 -1      1317    8    0    1
 -2       477       742       591      3004      3005      2553
 -1      1318    8    0    1
 -2       608       627       615      2671      3006      2614
 -1      1319    8    0    1
 -2       627       588       736      2670      2988      3007
 -1      1320    8    0    1
 -2       616       485       743      2616      3008      3009
 -1      1321    8    0    1
 -2       485       717       743      2938      3010      3008
 -1      1322    8    0    1
 -2       739       590       730      2994      2970      3011
 -1      1323    8    0    1
 -2       733       599       744      2977      3012      3013
 -1      1324    8    0    1
 -2       599       728       744      2966      3014      3012
 -1      1325    8    0    1
 -2       589       631       745      2980      3015      3016
 -1      1326    8    0    1
 -2       710       589       745      2915      3016      3017
 -1      1327    8    0    1
 -2       631       490       745      2680      3018      3015
 -1      1328    8    0    1
 -2       731       595       721      2973      2947      3019
 -1      1329    8    0    1
 -2       490       489       745      2255      3020      3018
 -1      1330    8    0    1
 -2       493       615       746      2685      3021      3022
 -1      1331    8    0    1
 -2       494       493       746      2267      3022      3023
 -1      1332    8    0    1
 -2       615       627       746      3006      3024      3021
 -1      1333    8    0    1
 -2       571       709       747      2914      3025      3026
 -1      1334    8    0    1
 -2       571       747       574      3026      3027      2506
 -1      1335    8    0    1
 -2       666       531       722      2787      2949      3028
 -1      1336    8    0    1
 -2       583       667       748      2790      3029      3030
 -1      1337    8    0    1
 -2       583       748       724      3030      3031      2955
 -1      1338    8    0    1
 -2       730       604       710      2969      2916      3032
 -1      1339    8    0    1
 -2       602       720       625      2945      3033      2665
 -1      1340    8    0    1
 -2       573       574       749      2505      3034      3035
 -1      1341    8    0    1
 -2       706       573       749      2907      3035      3036
 -1      1342    8    0    1
 -2       574       747       749      3027      3037      3034
 -1      1343    8    0    1
 -2       719       594       731      2941      2974      3038
 -1      1344    8    0    1
 -2       581       582       708      2529      2943      3039
 -1      1345    8    0    1
 -2       729       611       734      2967      2982      3040
 -1      1346    8    0    1
 -2       613       737       738      2991      3041      2992
 -1      1347    8    0    1
 -2       721       592       616      2946      2618      3042
 -1      1348    8    0    1
 -2       575       724       737      2956      3043      2990
 -1      1349    8    0    1
 -2       610       719       667      2942      3044      2789
 -1      1350    8    0    1
 -2       632       494       746      2686      3023      3045
 -1      1351    8    0    1
 -2       600       740       728      2998      3046      2965
 -1      1352    8    0    1
 -2       606       491       631      2682      2681      2971
 -1      1353    8    0    1
 -2       745       489       630      3020      2678      3047
 -1      1354    8    0    1
 -2       475       591       750      2552      3048      3049
 -1      1355    8    0    1
 -2       727       475       750      2963      3049      3050
 -1      1356    8    0    1
 -2       591       742       750      3005      3051      3048
 -1      1357    8    0    1
 -2       717       596       751      2937      3052      3053
 -1      1358    8    0    1
 -2       596       619       751      2649      3054      3052
 -1      1359    8    0    1
 -2       618       597       752      2646      3055      3056
 -1      1360    8    0    1
 -2       597       732       752      2976      3057      3055
 -1      1361    8    0    1
 -2       725       585       738      2957      2993      3058
 -1      1362    8    0    1
 -2       447       614       718      2608      3059      2984
 -1      1363    8    0    1
 -2       619       473       753      2650      3060      3061
 -1      1364    8    0    1
 -2       473       618       753      2645      3062      3060
 -1      1365    8    0    1
 -2       586       725       734      2958      3063      2981
 -1      1366    8    0    1
 -2       609       729       735      2968      3064      2985
 -1      1367    8    0    1
 -2       623       482       624      2660      3065      3066
 -1      1368    8    0    1
 -2       581       708       754      3039      3067      3068
 -1      1369    8    0    1
 -2       715       581       754      2930      3068      3069
 -1      1370    8    0    1
 -2       708       665       754      2912      3070      3067
 -1      1371    8    0    1
 -2       482       474       624      2983      2664      3065
 -1      1372    8    0    1
 -2       622       623       755      2662      3071      3072
 -1      1373    8    0    1
 -2       728       740       756      3046      3073      3074
 -1      1374    8    0    1
 -2       731       721       670      3019      3075      3076
 -1      1375    8    0    1
 -2       746       627       757      3024      3077      3078
 -1      1376    8    0    1
 -2       632       746       757      3045      3078      3079
 -1      1377    8    0    1
 -2       627       736       757      3007      3080      3077
 -1      1378    8    0    1
 -2       492       606       607      2683      2619      3081
 -1      1379    8    0    1
 -2       634       633       758      2693      3082      3083
 -1      1380    8    0    1
 -2       635       634       759      2696      3084      3085
 -1      1381    8    0    1
 -2       634       758       759      3083      3086      3084
 -1      1382    8    0    1
 -2       636       635       760      2699      3087      3088
 -1      1383    8    0    1
 -2       635       759       760      3085      3089      3087
 -1      1384    8    0    1
 -2       637       636       761      2702      3090      3091
 -1      1385    8    0    1
 -2       636       760       761      3088      3092      3090
 -1      1386    8    0    1
 -2       638       637       762      2705      3093      3094
 -1      1387    8    0    1
 -2       637       761       762      3091      3095      3093
 -1      1388    8    0    1
 -2       639       638       763      2708      3096      3097
 -1      1389    8    0    1
 -2       638       762       763      3094      3098      3096
 -1      1390    8    0    1
 -2       640       639       764      2711      3099      3100
 -1      1391    8    0    1
 -2       639       763       764      3097      3101      3099
 -1      1392    8    0    1
 -2       641       640       765      2714      3102      3103
 -1      1393    8    0    1
 -2       640       764       765      3100      3104      3102
 -1      1394    8    0    1
 -2       642       641       766      2717      3105      3106
 -1      1395    8    0    1
 -2       641       765       766      3103      3107      3105
 -1      1396    8    0    1
 -2       643       642       767      2720      3108      3109
 -1      1397    8    0    1
 -2       642       766       767      3106      3110      3108
 -1      1398    8    0    1
 -2       644       643       768      2723      3111      3112
 -1      1399    8    0    1
 -2       643       767       768      3109      3113      3111
 -1      1400    8    0    1
 -2       645       644       769      2726      3114      3115
 -1      1401    8    0    1
 -2       644       768       769      3112      3116      3114
 -1      1402    8    0    1
 -2       646       645       770      2729      3117      3118
 -1      1403    8    0    1
 -2       645       769       770      3115      3119      3117
 -1      1404    8    0    1
 -2       647       646       771      2732      3120      3121
 -1      1405    8    0    1
 -2       646       770       771      3118      3122      3120
 -1      1406    8    0    1
 -2       648       647       772      2735      3123      3124
 -1      1407    8    0    1
 -2       647       771       772      3121      3125      3123
 -1      1408    8    0    1
 -2       649       648       773      2738      3126      3127
 -1      1409    8    0    1
 -2       648       772       773      3124      3128      3126
 -1      1410    8    0    1
 -2       650       649       774      2741      3129      3130
 -1      1411    8    0    1
 -2       649       773       774      3127      3131      3129
 -1      1412    8    0    1
 -2       651       650       775      2744      3132      3133
 -1      1413    8    0    1
 -2       650       774       775      3130      3134      3132
 -1      1414    8    0    1
 -2       652       651       776      2747      3135      3136
 -1      1415    8    0    1
 -2       651       775       776      3133      3137      3135
 -1      1416    8    0    1
 -2       653       652       777      2750      3138      3139
 -1      1417    8    0    1
 -2       652       776       777      3136      3140      3138
 -1      1418    8    0    1
 -2       654       653       778      2753      3141      3142
 -1      1419    8    0    1
 -2       653       777       778      3139      3143      3141
 -1      1420    8    0    1
 -2       655       654       779      2756      3144      3145
 -1      1421    8    0    1
 -2       654       778       779      3142      3146      3144
 -1      1422    8    0    1
 -2       656       655       780      2759      3147      3148
 -1      1423    8    0    1
 -2       655       779       780      3145      3149      3147
 -1      1424    8    0    1
 -2       657       656       781      2762      3150      3151
 -1      1425    8    0    1
 -2       656       780       781      3148      3152      3150
 -1      1426    8    0    1
 -2       658       657       782      2765      3153      3154
 -1      1427    8    0    1
 -2       657       781       782      3151      3155      3153
 -1      1428    8    0    1
 -2       659       658       783      2768      3156      3157
 -1      1429    8    0    1
 -2       658       782       783      3154      3158      3156
 -1      1430    8    0    1
 -2       660       659       784      2771      3159      3160
 -1      1431    8    0    1
 -2       659       783       784      3157      3161      3159
 -1      1432    8    0    1
 -2       661       660       785      2774      3162      3163
 -1      1433    8    0    1
 -2       660       784       785      3160      3164      3162
 -1      1434    8    0    1
 -2       662       661       786      2777      3165      3166
 -1      1435    8    0    1
 -2       661       785       786      3163      3167      3165
 -1      1436    8    0    1
 -2       663       662       787      2780      3168      3169
 -1      1437    8    0    1
 -2       662       786       787      3166      3170      3168
 -1      1438    8    0    1
 -2       664       663       788      2783      3171      3172
 -1      1439    8    0    1
 -2       663       787       788      3169      3173      3171
 -1      1440    8    0    1
 -2       665       664       789      2786      3174      3175
 -1      1441    8    0    1
 -2       754       665       789      3070      3175      3176
 -1      1442    8    0    1
 -2       664       788       789      3172      3177      3174
 -1      1443    8    0    1
 -2       739       730       790      3011      3178      3179
 -1      1444    8    0    1
 -2       745       630       710      3047      3180      3017
 -1      1445    8    0    1
 -2       670       671       731      2801      3181      3076
 -1      1446    8    0    1
 -2       669       670       721      2798      3075      3182
 -1      1447    8    0    1
 -2       672       673       791      2807      3183      3184
 -1      1448    8    0    1
 -2       673       674       792      2810      3185      3186
 -1      1449    8    0    1
 -2       673       792       791      3186      3187      3183
 -1      1450    8    0    1
 -2       674       675       793      2813      3188      3189
 -1      1451    8    0    1
 -2       674       793       792      3189      3190      3185
 -1      1452    8    0    1
 -2       675       676       794      2816      3191      3192
 -1      1453    8    0    1
 -2       675       794       793      3192      3193      3188
 -1      1454    8    0    1
 -2       676       677       795      2819      3194      3195
 -1      1455    8    0    1
 -2       676       795       794      3195      3196      3191
 -1      1456    8    0    1
 -2       677       678       796      2822      3197      3198
 -1      1457    8    0    1
 -2       677       796       795      3198      3199      3194
 -1      1458    8    0    1
 -2       678       679       797      2825      3200      3201
 -1      1459    8    0    1
 -2       678       797       796      3201      3202      3197
 -1      1460    8    0    1
 -2       679       680       798      2828      3203      3204
 -1      1461    8    0    1
 -2       679       798       797      3204      3205      3200
 -1      1462    8    0    1
 -2       680       681       799      2831      3206      3207
 -1      1463    8    0    1
 -2       680       799       798      3207      3208      3203
 -1      1464    8    0    1
 -2       681       682       800      2834      3209      3210
 -1      1465    8    0    1
 -2       681       800       799      3210      3211      3206
 -1      1466    8    0    1
 -2       682       683       801      2837      3212      3213
 -1      1467    8    0    1
 -2       682       801       800      3213      3214      3209
 -1      1468    8    0    1
 -2       683       684       802      2840      3215      3216
 -1      1469    8    0    1
 -2       683       802       801      3216      3217      3212
 -1      1470    8    0    1
 -2       684       685       803      2843      3218      3219
 -1      1471    8    0    1
 -2       684       803       802      3219      3220      3215
 -1      1472    8    0    1
 -2       685       686       804      2846      3221      3222
 -1      1473    8    0    1
 -2       685       804       803      3222      3223      3218
 -1      1474    8    0    1
 -2       686       687       805      2849      3224      3225
 -1      1475    8    0    1
 -2       686       805       804      3225      3226      3221
 -1      1476    8    0    1
 -2       687       688       806      2852      3227      3228
 -1      1477    8    0    1
 -2       687       806       805      3228      3229      3224
 -1      1478    8    0    1
 -2       688       689       807      2855      3230      3231
 -1      1479    8    0    1
 -2       688       807       806      3231      3232      3227
 -1      1480    8    0    1
 -2       689       690       808      2858      3233      3234
 -1      1481    8    0    1
 -2       689       808       807      3234      3235      3230
 -1      1482    8    0    1
 -2       690       691       809      2861      3236      3237
 -1      1483    8    0    1
 -2       690       809       808      3237      3238      3233
 -1      1484    8    0    1
 -2       691       692       810      2864      3239      3240
 -1      1485    8    0    1
 -2       691       810       809      3240      3241      3236
 -1      1486    8    0    1
 -2       692       693       811      2867      3242      3243
 -1      1487    8    0    1
 -2       692       811       810      3243      3244      3239
 -1      1488    8    0    1
 -2       693       694       812      2870      3245      3246
 -1      1489    8    0    1
 -2       693       812       811      3246      3247      3242
 -1      1490    8    0    1
 -2       694       695       813      2873      3248      3249
 -1      1491    8    0    1
 -2       694       813       812      3249      3250      3245
 -1      1492    8    0    1
 -2       695       696       814      2876      3251      3252
 -1      1493    8    0    1
 -2       695       814       813      3252      3253      3248
 -1      1494    8    0    1
 -2       696       697       815      2879      3254      3255
 -1      1495    8    0    1
 -2       696       815       814      3255      3256      3251
 -1      1496    8    0    1
 -2       697       698       816      2882      3257      3258
 -1      1497    8    0    1
 -2       697       816       815      3258      3259      3254
 -1      1498    8    0    1
 -2       698       699       817      2885      3260      3261
 -1      1499    8    0    1
 -2       698       817       816      3261      3262      3257
 -1      1500    8    0    1
 -2       699       700       818      2888      3263      3264
 -1      1501    8    0    1
 -2       699       818       817      3264      3265      3260
 -1      1502    8    0    1
 -2       700       701       819      2891      3266      3267
 -1      1503    8    0    1
 -2       700       819       818      3267      3268      3263
 -1      1504    8    0    1
 -2       701       702       820      2894      3269      3270
 -1      1505    8    0    1
 -2       701       820       819      3270      3271      3266
 -1      1506    8    0    1
 -2       702       703       821      2897      3272      3273
 -1      1507    8    0    1
 -2       702       821       820      3273      3274      3269
 -1      1508    8    0    1
 -2       703       704       822      2900      3275      3276
 -1      1509    8    0    1
 -2       703       822       821      3276      3277      3272
 -1      1510    8    0    1
 -2       704       705       823      2903      3278      3279
 -1      1511    8    0    1
 -2       704       823       822      3279      3280      3275
 -1      1512    8    0    1
 -2       705       706       824      2906      3281      3282
 -1      1513    8    0    1
 -2       823       705       824      3278      3282      3283
 -1      1514    8    0    1
 -2       706       749       824      3036      3284      3281
 -1      1515    8    0    1
 -2       621       620       744      2657      3285      3286
 -1      1516    8    0    1
 -2       714       715       825      2932      3287      3288
 -1      1517    8    0    1
 -2       625       720       826      3033      3289      3290
 -1      1518    8    0    1
 -2       707       711       827      2919      3291      3292
 -1      1519    8    0    1
 -2       722       669       721      2950      3182      3293
 -1      1520    8    0    1
 -2       713       714       828      2929      3294      3295
 -1      1521    8    0    1
 -2       714       825       828      3288      3296      3294
 -1      1522    8    0    1
 -2       671       672       829      2804      3297      3298
 -1      1523    8    0    1
 -2       672       791       829      3184      3299      3297
 -1      1524    8    0    1
 -2       668       666       830      2793      3300      3301
 -1      1525    8    0    1
 -2       729       734       831      3040      3302      3303
 -1      1526    8    0    1
 -2       633       632       832      2690      3304      3305
 -1      1527    8    0    1
 -2       758       633       832      3082      3305      3306
 -1      1528    8    0    1
 -2       632       757       832      3079      3307      3304
 -1      1529    8    0    1
 -2       629       628       790      2676      3308      3309
 -1      1530    8    0    1
 -2       730       710       630      3032      3180      3310
 -1      1531    8    0    1
 -2       666       722       743      3028      3311      3312
 -1      1532    8    0    1
 -2       738       737       833      3041      3313      3314
 -1      1533    8    0    1
 -2       711       713       834      2926      3315      3316
 -1      1534    8    0    1
 -2       827       711       834      3291      3316      3317
 -1      1535    8    0    1
 -2       713       828       834      3295      3318      3315
 -1      1536    8    0    1
 -2       725       738       835      3058      3319      3320
 -1      1537    8    0    1
 -2       732       733       836      2979      3321      3322
 -1      1538    8    0    1
 -2       735       729       837      3064      3323      3324
 -1      1539    8    0    1
 -2       736       735       838      2989      3325      3326
 -1      1540    8    0    1
 -2       757       736       838      3080      3326      3327
 -1      1541    8    0    1
 -2       735       837       838      3324      3328      3325
 -1      1542    8    0    1
 -2       623       624       839      3066      3329      3330
 -1      1543    8    0    1
 -2       755       623       839      3071      3330      3331
 -1      1544    8    0    1
 -2       624       626       839      2669      3332      3329
 -1      1545    8    0    1
 -2       737       724       840      3043      3333      3334
 -1      1546    8    0    1
 -2       667       719       841      3044      3335      3336
 -1      1547    8    0    1
 -2       718       614       741      3059      3001      3337
 -1      1548    8    0    1
 -2       734       725       842      3063      3338      3339
 -1      1549    8    0    1
 -2       720       739       843      2996      3340      3341
 -1      1550    8    0    1
 -2       740       625       844      2999      3342      3343
 -1      1551    8    0    1
 -2       730       630       629      3310      2679      3344
 -1      1552    8    0    1
 -2       730       629       790      3344      3309      3178
 -1      1553    8    0    1
 -2       742       621       756      3003      3345      3346
 -1      1554    8    0    1
 -2       840       724       748      3333      3031      3347
 -1      1555    8    0    1
 -2       734       842       831      3339      3348      3302
 -1      1556    8    0    1
 -2       737       840       833      3334      3349      3313
 -1      1557    8    0    1
 -2       492       607       615      3081      2613      2684
 -1      1558    8    0    1
 -2       743       717       830      3010      3350      3351
 -1      1559    8    0    1
 -2       727       750       845      3050      3352      3353
 -1      1560    8    0    1
 -2       717       751       830      3053      3354      3350
 -1      1561    8    0    1
 -2       725       835       842      3320      3355      3338
 -1      1562    8    0    1
 -2       790       628       846      3308      3356      3357
 -1      1563    8    0    1
 -2       628       723       846      2953      3358      3356
 -1      1564    8    0    1
 -2       747       709       847      3025      3359      3360
 -1      1565    8    0    1
 -2       835       738       833      3319      3314      3361
 -1      1566    8    0    1
 -2       748       667       841      3029      3336      3362
 -1      1567    8    0    1
 -2       666       743       830      3312      3351      3300
 -1      1568    8    0    1
 -2       826       720       843      3289      3341      3363
 -1      1569    8    0    1
 -2       744       620       848      3285      3364      3365
 -1      1570    8    0    1
 -2       709       712       849      2922      3366      3367
 -1      1571    8    0    1
 -2       709       849       847      3367      3368      3359
 -1      1572    8    0    1
 -2       668       830       850      3301      3369      3370
 -1      1573    8    0    1
 -2       668       850       716      3370      3371      2936
 -1      1574    8    0    1
 -2       625       826       844      3290      3372      3342
 -1      1575    8    0    1
 -2       722       721       743      3293      3373      3311
 -1      1576    8    0    1
 -2       712       707       851      2923      3374      3375
 -1      1577    8    0    1
 -2       849       712       851      3366      3375      3376
 -1      1578    8    0    1
 -2       707       827       851      3292      3377      3374
 -1      1579    8    0    1
 -2       626       716       852      2935      3378      3379
 -1      1580    8    0    1
 -2       839       626       852      3332      3379      3380
 -1      1581    8    0    1
 -2       716       850       852      3371      3381      3378
 -1      1582    8    0    1
 -2       726       622       853      2962      3382      3383
 -1      1583    8    0    1
 -2       622       755       853      3072      3384      3382
 -1      1584    8    0    1
 -2       729       831       837      3303      3385      3323
 -1      1585    8    0    1
 -2       719       731       829      3038      3386      3387
 -1      1586    8    0    1
 -2       752       732       854      3057      3388      3389
 -1      1587    8    0    1
 -2       732       836       854      3322      3390      3388
 -1      1588    8    0    1
 -2       723       718       741      2954      3337      3391
 -1      1589    8    0    1
 -2       753       618       855      3062      3392      3393
 -1      1590    8    0    1
 -2       618       752       855      3056      3394      3392
 -1      1591    8    0    1
 -2       620       726       848      2961      3395      3364
 -1      1592    8    0    1
 -2       733       744       848      3013      3365      3396
 -1      1593    8    0    1
 -2       715       754       856      3069      3397      3398
 -1      1594    8    0    1
 -2       825       715       856      3287      3398      3399
 -1      1595    8    0    1
 -2       754       789       856      3176      3400      3397
 -1      1596    8    0    1
 -2       836       733       848      3321      3396      3401
 -1      1597    8    0    1
 -2       756       740       844      3073      3343      3402
 -1      1598    8    0    1
 -2       843       739       790      3340      3179      3403
 -1      1599    8    0    1
 -2       829       731       671      3386      3181      3298
 -1      1600    8    0    1
 -2       840       748       857      3347      3404      3405
 -1      1601    8    0    1
 -2       728       756       744      3074      3406      3014
 -1      1602    8    0    1
 -2       727       845       858      3353      3407      3408
 -1      1603    8    0    1
 -2       830       751       859      3354      3409      3410
 -1      1604    8    0    1
 -2       850       830       859      3369      3410      3411
 -1      1605    8    0    1
 -2       751       619       859      3054      3412      3409
 -1      1606    8    0    1
 -2       727       858       741      3408      3413      3002
 -1      1607    8    0    1
 -2       859       619       753      3412      3061      3414
 -1      1608    8    0    1
 -2       744       756       621      3406      3345      3286
 -1      1609    8    0    1
 -2       833       840       860      3349      3415      3416
 -1      1610    8    0    1
 -2       846       723       741      3358      3391      3417
 -1      1611    8    0    1
 -2       835       833       861      3361      3418      3419
 -1      1612    8    0    1
 -2       836       848       853      3401      3420      3421
 -1      1613    8    0    1
 -2       760       759       862      3089      3422      3423
 -1      1614    8    0    1
 -2       761       760       863      3092      3424      3425
 -1      1615    8    0    1
 -2       760       862       863      3423      3426      3424
 -1      1616    8    0    1
 -2       762       761       864      3095      3427      3428
 -1      1617    8    0    1
 -2       761       863       864      3425      3429      3427
 -1      1618    8    0    1
 -2       763       762       865      3098      3430      3431
 -1      1619    8    0    1
 -2       762       864       865      3428      3432      3430
 -1      1620    8    0    1
 -2       764       763       866      3101      3433      3434
 -1      1621    8    0    1
 -2       763       865       866      3431      3435      3433
 -1      1622    8    0    1
 -2       765       764       867      3104      3436      3437
 -1      1623    8    0    1
 -2       764       866       867      3434      3438      3436
 -1      1624    8    0    1
 -2       766       765       868      3107      3439      3440
 -1      1625    8    0    1
 -2       765       867       868      3437      3441      3439
 -1      1626    8    0    1
 -2       767       766       869      3110      3442      3443
 -1      1627    8    0    1
 -2       766       868       869      3440      3444      3442
 -1      1628    8    0    1
 -2       768       767       870      3113      3445      3446
 -1      1629    8    0    1
 -2       767       869       870      3443      3447      3445
 -1      1630    8    0    1
 -2       769       768       871      3116      3448      3449
 -1      1631    8    0    1
 -2       768       870       871      3446      3450      3448
 -1      1632    8    0    1
 -2       770       769       872      3119      3451      3452
 -1      1633    8    0    1
 -2       769       871       872      3449      3453      3451
 -1      1634    8    0    1
 -2       771       770       873      3122      3454      3455
 -1      1635    8    0    1
 -2       770       872       873      3452      3456      3454
 -1      1636    8    0    1
 -2       772       771       874      3125      3457      3458
 -1      1637    8    0    1
 -2       771       873       874      3455      3459      3457
 -1      1638    8    0    1
 -2       773       772       875      3128      3460      3461
 -1      1639    8    0    1
 -2       772       874       875      3458      3462      3460
 -1      1640    8    0    1
 -2       774       773       876      3131      3463      3464
 -1      1641    8    0    1
 -2       773       875       876      3461      3465      3463
 -1      1642    8    0    1
 -2       775       774       877      3134      3466      3467
 -1      1643    8    0    1
 -2       774       876       877      3464      3468      3466
 -1      1644    8    0    1
 -2       776       775       878      3137      3469      3470
 -1      1645    8    0    1
 -2       775       877       878      3467      3471      3469
 -1      1646    8    0    1
 -2       777       776       879      3140      3472      3473
 -1      1647    8    0    1
 -2       776       878       879      3470      3474      3472
 -1      1648    8    0    1
 -2       778       777       880      3143      3475      3476
 -1      1649    8    0    1
 -2       777       879       880      3473      3477      3475
 -1      1650    8    0    1
 -2       779       778       881      3146      3478      3479
 -1      1651    8    0    1
 -2       778       880       881      3476      3480      3478
 -1      1652    8    0    1
 -2       780       779       882      3149      3481      3482
 -1      1653    8    0    1
 -2       779       881       882      3479      3483      3481
 -1      1654    8    0    1
 -2       781       780       883      3152      3484      3485
 -1      1655    8    0    1
 -2       780       882       883      3482      3486      3484
 -1      1656    8    0    1
 -2       782       781       884      3155      3487      3488
 -1      1657    8    0    1
 -2       781       883       884      3485      3489      3487
 -1      1658    8    0    1
 -2       783       782       885      3158      3490      3491
 -1      1659    8    0    1
 -2       782       884       885      3488      3492      3490
 -1      1660    8    0    1
 -2       784       783       886      3161      3493      3494
 -1      1661    8    0    1
 -2       783       885       886      3491      3495      3493
 -1      1662    8    0    1
 -2       785       784       887      3164      3496      3497
 -1      1663    8    0    1
 -2       784       886       887      3494      3498      3496
 -1      1664    8    0    1
 -2       786       785       888      3167      3499      3500
 -1      1665    8    0    1
 -2       785       887       888      3497      3501      3499
 -1      1666    8    0    1
 -2       787       786       889      3170      3502      3503
 -1      1667    8    0    1
 -2       786       888       889      3500      3504      3502
 -1      1668    8    0    1
 -2       788       787       890      3173      3505      3506
 -1      1669    8    0    1
 -2       787       889       890      3503      3507      3505
 -1      1670    8    0    1
 -2       756       844       742      3402      3508      3346
 -1      1671    8    0    1
 -2       793       794       891      3193      3509      3510
 -1      1672    8    0    1
 -2       792       793       857      3190      3511      3512
 -1      1673    8    0    1
 -2       791       792       857      3187      3512      3513
 -1      1674    8    0    1
 -2       794       795       892      3196      3514      3515
 -1      1675    8    0    1
 -2       794       892       891      3515      3516      3509
 -1      1676    8    0    1
 -2       795       796       893      3199      3517      3518
 -1      1677    8    0    1
 -2       795       893       892      3518      3519      3514
 -1      1678    8    0    1
 -2       796       797       894      3202      3520      3521
 -1      1679    8    0    1
 -2       796       894       893      3521      3522      3517
 -1      1680    8    0    1
 -2       797       798       895      3205      3523      3524
 -1      1681    8    0    1
 -2       797       895       894      3524      3525      3520
 -1      1682    8    0    1
 -2       798       799       896      3208      3526      3527
 -1      1683    8    0    1
 -2       798       896       895      3527      3528      3523
 -1      1684    8    0    1
 -2       799       800       897      3211      3529      3530
 -1      1685    8    0    1
 -2       799       897       896      3530      3531      3526
 -1      1686    8    0    1
 -2       800       801       898      3214      3532      3533
 -1      1687    8    0    1
 -2       800       898       897      3533      3534      3529
 -1      1688    8    0    1
 -2       801       802       899      3217      3535      3536
 -1      1689    8    0    1
 -2       801       899       898      3536      3537      3532
 -1      1690    8    0    1
 -2       802       803       900      3220      3538      3539
 -1      1691    8    0    1
 -2       802       900       899      3539      3540      3535
 -1      1692    8    0    1
 -2       803       804       901      3223      3541      3542
 -1      1693    8    0    1
 -2       803       901       900      3542      3543      3538
 -1      1694    8    0    1
 -2       804       805       902      3226      3544      3545
 -1      1695    8    0    1
 -2       804       902       901      3545      3546      3541
 -1      1696    8    0    1
 -2       805       806       903      3229      3547      3548
 -1      1697    8    0    1
 -2       805       903       902      3548      3549      3544
 -1      1698    8    0    1
 -2       806       807       904      3232      3550      3551
 -1      1699    8    0    1
 -2       806       904       903      3551      3552      3547
 -1      1700    8    0    1
 -2       807       808       905      3235      3553      3554
 -1      1701    8    0    1
 -2       807       905       904      3554      3555      3550
 -1      1702    8    0    1
 -2       808       809       906      3238      3556      3557
 -1      1703    8    0    1
 -2       808       906       905      3557      3558      3553
 -1      1704    8    0    1
 -2       809       810       907      3241      3559      3560
 -1      1705    8    0    1
 -2       809       907       906      3560      3561      3556
 -1      1706    8    0    1
 -2       810       811       908      3244      3562      3563
 -1      1707    8    0    1
 -2       810       908       907      3563      3564      3559
 -1      1708    8    0    1
 -2       811       812       909      3247      3565      3566
 -1      1709    8    0    1
 -2       811       909       908      3566      3567      3562
 -1      1710    8    0    1
 -2       812       813       910      3250      3568      3569
 -1      1711    8    0    1
 -2       812       910       909      3569      3570      3565
 -1      1712    8    0    1
 -2       813       814       911      3253      3571      3572
 -1      1713    8    0    1
 -2       813       911       910      3572      3573      3568
 -1      1714    8    0    1
 -2       814       815       912      3256      3574      3575
 -1      1715    8    0    1
 -2       814       912       911      3575      3576      3571
 -1      1716    8    0    1
 -2       815       816       913      3259      3577      3578
 -1      1717    8    0    1
 -2       815       913       912      3578      3579      3574
 -1      1718    8    0    1
 -2       816       817       914      3262      3580      3581
 -1      1719    8    0    1
 -2       816       914       913      3581      3582      3577
 -1      1720    8    0    1
 -2       817       818       915      3265      3583      3584
 -1      1721    8    0    1
 -2       817       915       914      3584      3585      3580
 -1      1722    8    0    1
 -2       818       819       916      3268      3586      3587
 -1      1723    8    0    1
 -2       818       916       915      3587      3588      3583
 -1      1724    8    0    1
 -2       819       820       917      3271      3589      3590
 -1      1725    8    0    1
 -2       819       917       916      3590      3591      3586
 -1      1726    8    0    1
 -2       820       821       918      3274      3592      3593
 -1      1727    8    0    1
 -2       820       918       917      3593      3594      3589
 -1      1728    8    0    1
 -2       821       822       919      3277      3595      3596
 -1      1729    8    0    1
 -2       821       919       918      3596      3597      3592
 -1      1730    8    0    1
 -2       822       823       920      3280      3598      3599
 -1      1731    8    0    1
 -2       822       920       919      3599      3600      3595
 -1      1732    8    0    1
 -2       749       747       921      3037      3601      3602
 -1      1733    8    0    1
 -2       824       749       921      3284      3602      3603
 -1      1734    8    0    1
 -2       747       847       921      3360      3604      3601
 -1      1735    8    0    1
 -2       842       835       922      3355      3605      3606
 -1      1736    8    0    1
 -2       835       861       922      3419      3607      3605
 -1      1737    8    0    1
 -2       741       858       846      3413      3608      3417
 -1      1738    8    0    1
 -2       844       826       845      3372      3609      3610
 -1      1739    8    0    1
 -2       828       825       923      3296      3611      3612
 -1      1740    8    0    1
 -2       759       758       924      3086      3613      3614
 -1      1741    8    0    1
 -2       759       924       862      3614      3615      3422
 -1      1742    8    0    1
 -2       750       742       844      3051      3508      3616
 -1      1743    8    0    1
 -2       831       842       925      3348      3617      3618
 -1      1744    8    0    1
 -2       837       831       926      3385      3619      3620
 -1      1745    8    0    1
 -2       846       858       843      3608      3621      3622
 -1      1746    8    0    1
 -2       755       839       927      3331      3623      3624
 -1      1747    8    0    1
 -2       839       852       927      3380      3625      3623
 -1      1748    8    0    1
 -2       848       726       853      3395      3383      3420
 -1      1749    8    0    1
 -2       790       846       843      3357      3622      3403
 -1      1750    8    0    1
 -2       859       753       928      3414      3626      3627
 -1      1751    8    0    1
 -2       753       855       928      3393      3628      3626
 -1      1752    8    0    1
 -2       750       844       845      3616      3610      3352
 -1      1753    8    0    1
 -2       845       826       858      3609      3629      3407
 -1      1754    8    0    1
 -2       858       826       843      3629      3363      3621
 -1      1755    8    0    1
 -2       850       859       928      3411      3627      3630
 -1      1756    8    0    1
 -2       842       922       925      3606      3631      3617
 -1      1757    8    0    1
 -2       861       833       929      3418      3632      3633
 -1      1758    8    0    1
 -2       833       860       929      3416      3634      3632
 -1      1759    8    0    1
 -2       831       925       926      3618      3635      3619
 -1      1760    8    0    1
 -2       857       793       891      3511      3510      3636
 -1      1761    8    0    1
 -2       789       788       930      3177      3637      3638
 -1      1762    8    0    1
 -2       856       789       930      3400      3638      3639
 -1      1763    8    0    1
 -2       788       890       930      3506      3640      3637
 -1      1764    8    0    1
 -2       791       857       748      3513      3404      3641
 -1      1765    8    0    1
 -2       921       847       920      3604      3642      3643
 -1      1766    8    0    1
 -2       823       824       921      3283      3603      3644
 -1      1767    8    0    1
 -2       847       849       931      3368      3645      3646
 -1      1768    8    0    1
 -2       847       931       920      3646      3647      3642
 -1      1769    8    0    1
 -2       924       758       838      3613      3648      3649
 -1      1770    8    0    1
 -2       851       827       932      3377      3650      3651
 -1      1771    8    0    1
 -2       853       755       927      3384      3624      3652
 -1      1772    8    0    1
 -2       828       923       933      3612      3653      3654
 -1      1773    8    0    1
 -2       828       933       834      3654      3655      3318
 -1      1774    8    0    1
 -2       743       721       616      3373      3042      3009
 -1      1775    8    0    1
 -2       752       854       855      3389      3656      3394
 -1      1776    8    0    1
 -2       719       829       841      3387      3657      3335
 -1      1777    8    0    1
 -2       932       827       934      3650      3658      3659
 -1      1778    8    0    1
 -2       827       834       934      3317      3660      3658
 -1      1779    8    0    1
 -2       825       856       930      3399      3639      3661
 -1      1780    8    0    1
 -2       823       921       920      3644      3643      3598
 -1      1781    8    0    1
 -2       841       829       791      3657      3299      3662
 -1      1782    8    0    1
 -2       825       930       923      3661      3663      3611
 -1      1783    8    0    1
 -2       841       791       748      3662      3641      3362
 -1      1784    8    0    1
 -2       850       928       852      3630      3664      3381
 -1      1785    8    0    1
 -2       860       840       935      3415      3665      3666
 -1      1786    8    0    1
 -2       864       863       936      3429      3667      3668
 -1      1787    8    0    1
 -2       865       864       937      3432      3669      3670
 -1      1788    8    0    1
 -2       864       936       937      3668      3671      3669
 -1      1789    8    0    1
 -2       866       865       938      3435      3672      3673
 -1      1790    8    0    1
 -2       865       937       938      3670      3674      3672
 -1      1791    8    0    1
 -2       867       866       939      3438      3675      3676
 -1      1792    8    0    1
 -2       866       938       939      3673      3677      3675
 -1      1793    8    0    1
 -2       868       867       940      3441      3678      3679
 -1      1794    8    0    1
 -2       867       939       940      3676      3680      3678
 -1      1795    8    0    1
 -2       869       868       941      3444      3681      3682
 -1      1796    8    0    1
 -2       868       940       941      3679      3683      3681
 -1      1797    8    0    1
 -2       870       869       942      3447      3684      3685
 -1      1798    8    0    1
 -2       869       941       942      3682      3686      3684
 -1      1799    8    0    1
 -2       871       870       943      3450      3687      3688
 -1      1800    8    0    1
 -2       870       942       943      3685      3689      3687
 -1      1801    8    0    1
 -2       872       871       944      3453      3690      3691
 -1      1802    8    0    1
 -2       871       943       944      3688      3692      3690
 -1      1803    8    0    1
 -2       873       872       945      3456      3693      3694
 -1      1804    8    0    1
 -2       872       944       945      3691      3695      3693
 -1      1805    8    0    1
 -2       874       873       946      3459      3696      3697
 -1      1806    8    0    1
 -2       873       945       946      3694      3698      3696
 -1      1807    8    0    1
 -2       875       874       947      3462      3699      3700
 -1      1808    8    0    1
 -2       874       946       947      3697      3701      3699
 -1      1809    8    0    1
 -2       876       875       948      3465      3702      3703
 -1      1810    8    0    1
 -2       875       947       948      3700      3704      3702
 -1      1811    8    0    1
 -2       877       876       949      3468      3705      3706
 -1      1812    8    0    1
 -2       876       948       949      3703      3707      3705
 -1      1813    8    0    1
 -2       878       877       950      3471      3708      3709
 -1      1814    8    0    1
 -2       877       949       950      3706      3710      3708
 -1      1815    8    0    1
 -2       879       878       951      3474      3711      3712
 -1      1816    8    0    1
 -2       878       950       951      3709      3713      3711
 -1      1817    8    0    1
 -2       880       879       952      3477      3714      3715
 -1      1818    8    0    1
 -2       879       951       952      3712      3716      3714
 -1      1819    8    0    1
 -2       881       880       953      3480      3717      3718
 -1      1820    8    0    1
 -2       880       952       953      3715      3719      3717
 -1      1821    8    0    1
 -2       882       881       954      3483      3720      3721
 -1      1822    8    0    1
 -2       881       953       954      3718      3722      3720
 -1      1823    8    0    1
 -2       883       882       955      3486      3723      3724
 -1      1824    8    0    1
 -2       882       954       955      3721      3725      3723
 -1      1825    8    0    1
 -2       884       883       956      3489      3726      3727
 -1      1826    8    0    1
 -2       883       955       956      3724      3728      3726
 -1      1827    8    0    1
 -2       885       884       957      3492      3729      3730
 -1      1828    8    0    1
 -2       884       956       957      3727      3731      3729
 -1      1829    8    0    1
 -2       886       885       958      3495      3732      3733
 -1      1830    8    0    1
 -2       885       957       958      3730      3734      3732
 -1      1831    8    0    1
 -2       887       886       959      3498      3735      3736
 -1      1832    8    0    1
 -2       886       958       959      3733      3737      3735
 -1      1833    8    0    1
 -2       888       887       960      3501      3738      3739
 -1      1834    8    0    1
 -2       887       959       960      3736      3740      3738
 -1      1835    8    0    1
 -2       889       888       961      3504      3741      3742
 -1      1836    8    0    1
 -2       888       960       961      3739      3743      3741
 -1      1837    8    0    1
 -2       890       889       962      3507      3744      3745
 -1      1838    8    0    1
 -2       889       961       962      3742      3746      3744
 -1      1839    8    0    1
 -2       930       890       923      3640      3747      3663
 -1      1840    8    0    1
 -2       892       893       963      3519      3748      3749
 -1      1841    8    0    1
 -2       891       892       964      3516      3750      3751
 -1      1842    8    0    1
 -2       892       963       964      3749      3752      3750
 -1      1843    8    0    1
 -2       893       894       965      3522      3753      3754
 -1      1844    8    0    1
 -2       893       965       963      3754      3755      3748
 -1      1845    8    0    1
 -2       894       895       966      3525      3756      3757
 -1      1846    8    0    1
 -2       894       966       965      3757      3758      3753
 -1      1847    8    0    1
 -2       895       896       967      3528      3759      3760
 -1      1848    8    0    1
 -2       895       967       966      3760      3761      3756
 -1      1849    8    0    1
 -2       896       897       968      3531      3762      3763
 -1      1850    8    0    1
 -2       896       968       967      3763      3764      3759
 -1      1851    8    0    1
 -2       897       898       969      3534      3765      3766
 -1      1852    8    0    1
 -2       897       969       968      3766      3767      3762
 -1      1853    8    0    1
 -2       898       899       970      3537      3768      3769
 -1      1854    8    0    1
 -2       898       970       969      3769      3770      3765
 -1      1855    8    0    1
 -2       899       900       971      3540      3771      3772
 -1      1856    8    0    1
 -2       899       971       970      3772      3773      3768
 -1      1857    8    0    1
 -2       900       901       972      3543      3774      3775
 -1      1858    8    0    1
 -2       900       972       971      3775      3776      3771
 -1      1859    8    0    1
 -2       901       902       973      3546      3777      3778
 -1      1860    8    0    1
 -2       901       973       972      3778      3779      3774
 -1      1861    8    0    1
 -2       902       903       974      3549      3780      3781
 -1      1862    8    0    1
 -2       902       974       973      3781      3782      3777
 -1      1863    8    0    1
 -2       903       904       975      3552      3783      3784
 -1      1864    8    0    1
 -2       903       975       974      3784      3785      3780
 -1      1865    8    0    1
 -2       904       905       976      3555      3786      3787
 -1      1866    8    0    1
 -2       904       976       975      3787      3788      3783
 -1      1867    8    0    1
 -2       905       906       977      3558      3789      3790
 -1      1868    8    0    1
 -2       905       977       976      3790      3791      3786
 -1      1869    8    0    1
 -2       906       907       978      3561      3792      3793
 -1      1870    8    0    1
 -2       906       978       977      3793      3794      3789
 -1      1871    8    0    1
 -2       907       908       979      3564      3795      3796
 -1      1872    8    0    1
 -2       907       979       978      3796      3797      3792
 -1      1873    8    0    1
 -2       908       909       980      3567      3798      3799
 -1      1874    8    0    1
 -2       908       980       979      3799      3800      3795
 -1      1875    8    0    1
 -2       909       910       981      3570      3801      3802
 -1      1876    8    0    1
 -2       909       981       980      3802      3803      3798
 -1      1877    8    0    1
 -2       910       911       982      3573      3804      3805
 -1      1878    8    0    1
 -2       910       982       981      3805      3806      3801
 -1      1879    8    0    1
 -2       911       912       983      3576      3807      3808
 -1      1880    8    0    1
 -2       911       983       982      3808      3809      3804
 -1      1881    8    0    1
 -2       912       913       984      3579      3810      3811
 -1      1882    8    0    1
 -2       912       984       983      3811      3812      3807
 -1      1883    8    0    1
 -2       913       914       985      3582      3813      3814
 -1      1884    8    0    1
 -2       913       985       984      3814      3815      3810
 -1      1885    8    0    1
 -2       914       915       986      3585      3816      3817
 -1      1886    8    0    1
 -2       914       986       985      3817      3818      3813
 -1      1887    8    0    1
 -2       915       916       987      3588      3819      3820
 -1      1888    8    0    1
 -2       915       987       986      3820      3821      3816
 -1      1889    8    0    1
 -2       916       917       988      3591      3822      3823
 -1      1890    8    0    1
 -2       916       988       987      3823      3824      3819
 -1      1891    8    0    1
 -2       917       918       989      3594      3825      3826
 -1      1892    8    0    1
 -2       917       989       988      3826      3827      3822
 -1      1893    8    0    1
 -2       918       919       990      3597      3828      3829
 -1      1894    8    0    1
 -2       918       990       989      3829      3830      3825
 -1      1895    8    0    1
 -2       919       920       991      3600      3831      3832
 -1      1896    8    0    1
 -2       990       919       991      3828      3832      3833
 -1      1897    8    0    1
 -2       920       931       991      3647      3834      3831
 -1      1898    8    0    1
 -2       922       861       992      3607      3835      3836
 -1      1899    8    0    1
 -2       927       852       928      3625      3664      3837
 -1      1900    8    0    1
 -2       851       932       993      3651      3838      3839
 -1      1901    8    0    1
 -2       851       993       849      3839      3840      3376
 -1      1902    8    0    1
 -2       863       862       994      3426      3841      3842
 -1      1903    8    0    1
 -2       863       994       936      3842      3843      3667
 -1      1904    8    0    1
 -2       860       935       964      3666      3844      3845
 -1      1905    8    0    1
 -2       926       925       995      3635      3846      3847
 -1      1906    8    0    1
 -2       928       855       927      3628      3848      3837
 -1      1907    8    0    1
 -2       832       757       838      3307      3327      3849
 -1      1908    8    0    1
 -2       855       854       927      3656      3850      3848
 -1      1909    8    0    1
 -2       925       922       996      3631      3851      3852
 -1      1910    8    0    1
 -2       923       890       962      3747      3745      3853
 -1      1911    8    0    1
 -2       935       840       857      3665      3405      3854
 -1      1912    8    0    1
 -2       929       860       964      3634      3845      3855
 -1      1913    8    0    1
 -2       836       853       854      3421      3856      3390
 -1      1914    8    0    1
 -2       854       853       927      3856      3652      3850
 -1      1915    8    0    1
 -2       992       861       929      3835      3633      3857
 -1      1916    8    0    1
 -2       995       925       996      3846      3852      3858
 -1      1917    8    0    1
 -2       922       992       996      3836      3859      3851
 -1      1918    8    0    1
 -2       931       849       993      3645      3840      3860
 -1      1919    8    0    1
 -2       838       758       832      3648      3306      3849
 -1      1920    8    0    1
 -2       993       932       997      3838      3861      3862
 -1      1921    8    0    1
 -2       994       862       995      3841      3863      3864
 -1      1922    8    0    1
 -2       933       923       962      3653      3853      3865
 -1      1923    8    0    1
 -2       862       924       995      3615      3866      3863
 -1      1924    8    0    1
 -2       997       932       998      3861      3867      3868
 -1      1925    8    0    1
 -2       932       934       998      3659      3869      3867
 -1      1926    8    0    1
 -2       926       995       924      3847      3866      3870
 -1      1927    8    0    1
 -2       837       926       924      3620      3870      3871
 -1      1928    8    0    1
 -2       838       837       924      3328      3871      3649
 -1      1929    8    0    1
 -2       934       834       933      3660      3655      3872
 -1      1930    8    0    1
 -2       938       937       999      3674      3873      3874
 -1      1931    8    0    1
 -2       939       938      1000      3677      3875      3876
 -1      1932    8    0    1
 -2       938       999      1000      3874      3877      3875
 -1      1933    8    0    1
 -2       940       939      1001      3680      3878      3879
 -1      1934    8    0    1
 -2       939      1000      1001      3876      3880      3878
 -1      1935    8    0    1
 -2       941       940      1002      3683      3881      3882
 -1      1936    8    0    1
 -2       940      1001      1002      3879      3883      3881
 -1      1937    8    0    1
 -2       942       941      1003      3686      3884      3885
 -1      1938    8    0    1
 -2       941      1002      1003      3882      3886      3884
 -1      1939    8    0    1
 -2       943       942      1004      3689      3887      3888
 -1      1940    8    0    1
 -2       942      1003      1004      3885      3889      3887
 -1      1941    8    0    1
 -2       944       943      1005      3692      3890      3891
 -1      1942    8    0    1
 -2       943      1004      1005      3888      3892      3890
 -1      1943    8    0    1
 -2       945       944      1006      3695      3893      3894
 -1      1944    8    0    1
 -2       944      1005      1006      3891      3895      3893
 -1      1945    8    0    1
 -2       946       945      1007      3698      3896      3897
 -1      1946    8    0    1
 -2       945      1006      1007      3894      3898      3896
 -1      1947    8    0    1
 -2       947       946      1008      3701      3899      3900
 -1      1948    8    0    1
 -2       946      1007      1008      3897      3901      3899
 -1      1949    8    0    1
 -2       948       947      1009      3704      3902      3903
 -1      1950    8    0    1
 -2       947      1008      1009      3900      3904      3902
 -1      1951    8    0    1
 -2       949       948      1010      3707      3905      3906
 -1      1952    8    0    1
 -2       948      1009      1010      3903      3907      3905
 -1      1953    8    0    1
 -2       950       949      1011      3710      3908      3909
 -1      1954    8    0    1
 -2       949      1010      1011      3906      3910      3908
 -1      1955    8    0    1
 -2       951       950      1012      3713      3911      3912
 -1      1956    8    0    1
 -2       950      1011      1012      3909      3913      3911
 -1      1957    8    0    1
 -2       952       951      1013      3716      3914      3915
 -1      1958    8    0    1
 -2       951      1012      1013      3912      3916      3914
 -1      1959    8    0    1
 -2       953       952      1014      3719      3917      3918
 -1      1960    8    0    1
 -2       952      1013      1014      3915      3919      3917
 -1      1961    8    0    1
 -2       954       953      1015      3722      3920      3921
 -1      1962    8    0    1
 -2       953      1014      1015      3918      3922      3920
 -1      1963    8    0    1
 -2       955       954      1016      3725      3923      3924
 -1      1964    8    0    1
 -2       954      1015      1016      3921      3925      3923
 -1      1965    8    0    1
 -2       956       955      1017      3728      3926      3927
 -1      1966    8    0    1
 -2       955      1016      1017      3924      3928      3926
 -1      1967    8    0    1
 -2       957       956      1018      3731      3929      3930
 -1      1968    8    0    1
 -2       956      1017      1018      3927      3931      3929
 -1      1969    8    0    1
 -2       958       957      1019      3734      3932      3933
 -1      1970    8    0    1
 -2       957      1018      1019      3930      3934      3932
 -1      1971    8    0    1
 -2       959       958      1020      3737      3935      3936
 -1      1972    8    0    1
 -2       958      1019      1020      3933      3937      3935
 -1      1973    8    0    1
 -2       960       959      1021      3740      3938      3939
 -1      1974    8    0    1
 -2       959      1020      1021      3936      3940      3938
 -1      1975    8    0    1
 -2       961       960      1022      3743      3941      3942
 -1      1976    8    0    1
 -2       960      1021      1022      3939      3943      3941
 -1      1977    8    0    1
 -2       962       961      1023      3746      3944      3945
 -1      1978    8    0    1
 -2       961      1022      1023      3942      3946      3944
 -1      1979    8    0    1
 -2       964       963      1024      3752      3947      3948
 -1      1980    8    0    1
 -2       964      1024       929      3948      3949      3855
 -1      1981    8    0    1
 -2       965       966      1025      3758      3950      3951
 -1      1982    8    0    1
 -2       891       964       935      3751      3844      3952
 -1      1983    8    0    1
 -2       966       967      1026      3761      3953      3954
 -1      1984    8    0    1
 -2       966      1026      1025      3954      3955      3950
 -1      1985    8    0    1
 -2       967       968      1027      3764      3956      3957
 -1      1986    8    0    1
 -2       967      1027      1026      3957      3958      3953
 -1      1987    8    0    1
 -2       968       969      1028      3767      3959      3960
 -1      1988    8    0    1
 -2       968      1028      1027      3960      3961      3956
 -1      1989    8    0    1
 -2       969       970      1029      3770      3962      3963
 -1      1990    8    0    1
 -2       969      1029      1028      3963      3964      3959
 -1      1991    8    0    1
 -2       970       971      1030      3773      3965      3966
 -1      1992    8    0    1
 -2       970      1030      1029      3966      3967      3962
 -1      1993    8    0    1
 -2       971       972      1031      3776      3968      3969
 -1      1994    8    0    1
 -2       971      1031      1030      3969      3970      3965
 -1      1995    8    0    1
 -2       972       973      1032      3779      3971      3972
 -1      1996    8    0    1
 -2       972      1032      1031      3972      3973      3968
 -1      1997    8    0    1
 -2       973       974      1033      3782      3974      3975
 -1      1998    8    0    1
 -2       973      1033      1032      3975      3976      3971
 -1      1999    8    0    1
 -2       974       975      1034      3785      3977      3978
 -1      2000    8    0    1
 -2       974      1034      1033      3978      3979      3974
 -1      2001    8    0    1
 -2       975       976      1035      3788      3980      3981
 -1      2002    8    0    1
 -2       975      1035      1034      3981      3982      3977
 -1      2003    8    0    1
 -2       976       977      1036      3791      3983      3984
 -1      2004    8    0    1
 -2       976      1036      1035      3984      3985      3980
 -1      2005    8    0    1
 -2       977       978      1037      3794      3986      3987
 -1      2006    8    0    1
 -2       977      1037      1036      3987      3988      3983
 -1      2007    8    0    1
 -2       978       979      1038      3797      3989      3990
 -1      2008    8    0    1
 -2       978      1038      1037      3990      3991      3986
 -1      2009    8    0    1
 -2       979       980      1039      3800      3992      3993
 -1      2010    8    0    1
 -2       979      1039      1038      3993      3994      3989
 -1      2011    8    0    1
 -2       980       981      1040      3803      3995      3996
 -1      2012    8    0    1
 -2       980      1040      1039      3996      3997      3992
 -1      2013    8    0    1
 -2       981       982      1041      3806      3998      3999
 -1      2014    8    0    1
 -2       981      1041      1040      3999      4000      3995
 -1      2015    8    0    1
 -2       982       983      1042      3809      4001      4002
 -1      2016    8    0    1
 -2       982      1042      1041      4002      4003      3998
 -1      2017    8    0    1
 -2       983       984      1043      3812      4004      4005
 -1      2018    8    0    1
 -2       983      1043      1042      4005      4006      4001
 -1      2019    8    0    1
 -2       984       985      1044      3815      4007      4008
 -1      2020    8    0    1
 -2       984      1044      1043      4008      4009      4004
 -1      2021    8    0    1
 -2       985       986      1045      3818      4010      4011
 -1      2022    8    0    1
 -2       985      1045      1044      4011      4012      4007
 -1      2023    8    0    1
 -2       986       987      1046      3821      4013      4014
 -1      2024    8    0    1
 -2       986      1046      1045      4014      4015      4010
 -1      2025    8    0    1
 -2       987       988      1047      3824      4016      4017
 -1      2026    8    0    1
 -2       987      1047      1046      4017      4018      4013
 -1      2027    8    0    1
 -2       988       989      1048      3827      4019      4020
 -1      2028    8    0    1
 -2       988      1048      1047      4020      4021      4016
 -1      2029    8    0    1
 -2       989       990      1049      3830      4022      4023
 -1      2030    8    0    1
 -2       989      1049      1048      4023      4024      4019
 -1      2031    8    0    1
 -2       937       936      1050      3671      4025      4026
 -1      2032    8    0    1
 -2       937      1050       999      4026      4027      3873
 -1      2033    8    0    1
 -2       994       995       996      3864      3858      4028
 -1      2034    8    0    1
 -2       933       962      1051      3865      4029      4030
 -1      2035    8    0    1
 -2       934       933      1051      3872      4030      4031
 -1      2036    8    0    1
 -2       962      1023      1051      3945      4032      4029
 -1      2037    8    0    1
 -2       963       965      1052      3755      4033      4034
 -1      2038    8    0    1
 -2      1024       963      1052      3947      4034      4035
 -1      2039    8    0    1
 -2       965      1025      1052      3951      4036      4033
 -1      2040    8    0    1
 -2       936       994      1053      3843      4037      4038
 -1      2041    8    0    1
 -2      1050       936      1053      4025      4038      4039
 -1      2042    8    0    1
 -2       994       996      1053      4028      4040      4037
 -1      2043    8    0    1
 -2       996       992      1054      3859      4041      4042
 -1      2044    8    0    1
 -2       996      1054      1053      4042      4043      4040
 -1      2045    8    0    1
 -2       992       929      1024      3857      3949      4044
 -1      2046    8    0    1
 -2       931       993      1055      3860      4045      4046
 -1      2047    8    0    1
 -2       991       931      1055      3834      4046      4047
 -1      2048    8    0    1
 -2       993       997      1055      3862      4048      4045
 -1      2049    8    0    1
 -2       935       857       891      3854      3636      3952
 -1      2050    8    0    1
 -2       992      1024      1054      4044      4049      4041
 -1      2051    8    0    1
 -2       990       991      1055      3833      4047      4050
 -1      2052    8    0    1
 -2       997       998      1056      3868      4051      4052
 -1      2053    8    0    1
 -2       998       934      1051      3869      4031      4053
 -1      2054    8    0    1
 -2       997      1056      1049      4052      4054      4055
 -1      2055    8    0    1
 -2       990      1055      1049      4050      4056      4022
 -1      2056    8    0    1
 -2       997      1049      1055      4055      4056      4048
 -1      2057    8    0    1
 -2      1001      1000      1057      3880      4057      4058
 -1      2058    8    0    1
 -2      1002      1001      1058      3883      4059      4060
 -1      2059    8    0    1
 -2      1001      1057      1058      4058      4061      4059
 -1      2060    8    0    1
 -2      1003      1002      1059      3886      4062      4063
 -1      2061    8    0    1
 -2      1002      1058      1059      4060      4064      4062
 -1      2062    8    0    1
 -2      1004      1003      1060      3889      4065      4066
 -1      2063    8    0    1
 -2      1003      1059      1060      4063      4067      4065
 -1      2064    8    0    1
 -2      1005      1004      1061      3892      4068      4069
 -1      2065    8    0    1
 -2      1004      1060      1061      4066      4070      4068
 -1      2066    8    0    1
 -2      1006      1005      1062      3895      4071      4072
 -1      2067    8    0    1
 -2      1005      1061      1062      4069      4073      4071
 -1      2068    8    0    1
 -2      1007      1006      1063      3898      4074      4075
 -1      2069    8    0    1
 -2      1006      1062      1063      4072      4076      4074
 -1      2070    8    0    1
 -2      1008      1007      1064      3901      4077      4078
 -1      2071    8    0    1
 -2      1007      1063      1064      4075      4079      4077
 -1      2072    8    0    1
 -2      1009      1008      1065      3904      4080      4081
 -1      2073    8    0    1
 -2      1008      1064      1065      4078      4082      4080
 -1      2074    8    0    1
 -2      1010      1009      1066      3907      4083      4084
 -1      2075    8    0    1
 -2      1009      1065      1066      4081      4085      4083
 -1      2076    8    0    1
 -2      1011      1010      1067      3910      4086      4087
 -1      2077    8    0    1
 -2      1010      1066      1067      4084      4088      4086
 -1      2078    8    0    1
 -2      1012      1011      1068      3913      4089      4090
 -1      2079    8    0    1
 -2      1011      1067      1068      4087      4091      4089
 -1      2080    8    0    1
 -2      1013      1012      1069      3916      4092      4093
 -1      2081    8    0    1
 -2      1012      1068      1069      4090      4094      4092
 -1      2082    8    0    1
 -2      1014      1013      1070      3919      4095      4096
 -1      2083    8    0    1
 -2      1013      1069      1070      4093      4097      4095
 -1      2084    8    0    1
 -2      1015      1014      1071      3922      4098      4099
 -1      2085    8    0    1
 -2      1014      1070      1071      4096      4100      4098
 -1      2086    8    0    1
 -2      1016      1015      1072      3925      4101      4102
 -1      2087    8    0    1
 -2      1015      1071      1072      4099      4103      4101
 -1      2088    8    0    1
 -2      1017      1016      1073      3928      4104      4105
 -1      2089    8    0    1
 -2      1016      1072      1073      4102      4106      4104
 -1      2090    8    0    1
 -2      1018      1017      1074      3931      4107      4108
 -1      2091    8    0    1
 -2      1017      1073      1074      4105      4109      4107
 -1      2092    8    0    1
 -2      1019      1018      1075      3934      4110      4111
 -1      2093    8    0    1
 -2      1018      1074      1075      4108      4112      4110
 -1      2094    8    0    1
 -2      1020      1019      1076      3937      4113      4114
 -1      2095    8    0    1
 -2      1019      1075      1076      4111      4115      4113
 -1      2096    8    0    1
 -2      1021      1020      1077      3940      4116      4117
 -1      2097    8    0    1
 -2      1020      1076      1077      4114      4118      4116
 -1      2098    8    0    1
 -2      1022      1021      1078      3943      4119      4120
 -1      2099    8    0    1
 -2      1021      1077      1078      4117      4121      4119
 -1      2100    8    0    1
 -2      1023      1022      1079      3946      4122      4123
 -1      2101    8    0    1
 -2      1022      1078      1079      4120      4124      4122
 -1      2102    8    0    1
 -2      1026      1027      1080      3958      4125      4126
 -1      2103    8    0    1
 -2      1027      1028      1081      3961      4127      4128
 -1      2104    8    0    1
 -2      1027      1081      1080      4128      4129      4125
 -1      2105    8    0    1
 -2      1028      1029      1082      3964      4130      4131
 -1      2106    8    0    1
 -2      1028      1082      1081      4131      4132      4127
 -1      2107    8    0    1
 -2      1029      1030      1083      3967      4133      4134
 -1      2108    8    0    1
 -2      1029      1083      1082      4134      4135      4130
 -1      2109    8    0    1
 -2      1030      1031      1084      3970      4136      4137
 -1      2110    8    0    1
 -2      1030      1084      1083      4137      4138      4133
 -1      2111    8    0    1
 -2      1031      1032      1085      3973      4139      4140
 -1      2112    8    0    1
 -2      1031      1085      1084      4140      4141      4136
 -1      2113    8    0    1
 -2      1032      1033      1086      3976      4142      4143
 -1      2114    8    0    1
 -2      1032      1086      1085      4143      4144      4139
 -1      2115    8    0    1
 -2      1033      1034      1087      3979      4145      4146
 -1      2116    8    0    1
 -2      1033      1087      1086      4146      4147      4142
 -1      2117    8    0    1
 -2      1034      1035      1088      3982      4148      4149
 -1      2118    8    0    1
 -2      1034      1088      1087      4149      4150      4145
 -1      2119    8    0    1
 -2      1035      1036      1089      3985      4151      4152
 -1      2120    8    0    1
 -2      1035      1089      1088      4152      4153      4148
 -1      2121    8    0    1
 -2      1036      1037      1090      3988      4154      4155
 -1      2122    8    0    1
 -2      1036      1090      1089      4155      4156      4151
 -1      2123    8    0    1
 -2      1037      1038      1091      3991      4157      4158
 -1      2124    8    0    1
 -2      1037      1091      1090      4158      4159      4154
 -1      2125    8    0    1
 -2      1038      1039      1092      3994      4160      4161
 -1      2126    8    0    1
 -2      1038      1092      1091      4161      4162      4157
 -1      2127    8    0    1
 -2      1039      1040      1093      3997      4163      4164
 -1      2128    8    0    1
 -2      1039      1093      1092      4164      4165      4160
 -1      2129    8    0    1
 -2      1040      1041      1094      4000      4166      4167
 -1      2130    8    0    1
 -2      1040      1094      1093      4167      4168      4163
 -1      2131    8    0    1
 -2      1041      1042      1095      4003      4169      4170
 -1      2132    8    0    1
 -2      1041      1095      1094      4170      4171      4166
 -1      2133    8    0    1
 -2      1042      1043      1096      4006      4172      4173
 -1      2134    8    0    1
 -2      1042      1096      1095      4173      4174      4169
 -1      2135    8    0    1
 -2      1043      1044      1097      4009      4175      4176
 -1      2136    8    0    1
 -2      1043      1097      1096      4176      4177      4172
 -1      2137    8    0    1
 -2      1044      1045      1098      4012      4178      4179
 -1      2138    8    0    1
 -2      1044      1098      1097      4179      4180      4175
 -1      2139    8    0    1
 -2      1045      1046      1099      4015      4181      4182
 -1      2140    8    0    1
 -2      1045      1099      1098      4182      4183      4178
 -1      2141    8    0    1
 -2      1046      1047      1100      4018      4184      4185
 -1      2142    8    0    1
 -2      1046      1100      1099      4185      4186      4181
 -1      2143    8    0    1
 -2      1047      1048      1101      4021      4187      4188
 -1      2144    8    0    1
 -2      1047      1101      1100      4188      4189      4184
 -1      2145    8    0    1
 -2      1048      1049      1102      4024      4190      4191
 -1      2146    8    0    1
 -2      1101      1048      1102      4187      4191      4192
 -1      2147    8    0    1
 -2      1049      1056      1102      4054      4193      4190
 -1      2148    8    0    1
 -2       999      1050      1103      4027      4194      4195
 -1      2149    8    0    1
 -2      1056       998      1079      4051      4196      4197
 -1      2150    8    0    1
 -2       998      1051      1079      4053      4198      4196
 -1      2151    8    0    1
 -2      1051      1023      1079      4032      4123      4198
 -1      2152    8    0    1
 -2      1050      1053      1104      4039      4199      4200
 -1      2153    8    0    1
 -2      1103      1050      1104      4194      4200      4201
 -1      2154    8    0    1
 -2      1053      1054      1104      4043      4202      4199
 -1      2155    8    0    1
 -2      1025      1026      1105      3955      4203      4204
 -1      2156    8    0    1
 -2      1026      1080      1105      4126      4205      4203
 -1      2157    8    0    1
 -2      1000       999      1106      3877      4206      4207
 -1      2158    8    0    1
 -2       999      1103      1106      4195      4208      4206
 -1      2159    8    0    1
 -2      1057      1000      1106      4057      4207      4209
 -1      2160    8    0    1
 -2      1054      1024      1107      4049      4210      4211
 -1      2161    8    0    1
 -2      1102      1056      1079      4193      4197      4212
 -1      2162    8    0    1
 -2      1025      1105      1107      4204      4213      4214
 -1      2163    8    0    1
 -2      1104      1054      1107      4202      4211      4215
 -1      2164    8    0    1
 -2      1107      1024      1052      4210      4035      4216
 -1      2165    8    0    1
 -2      1059      1058      1082      4064      4217      4218
 -1      2166    8    0    1
 -2      1060      1059      1083      4067      4219      4220
 -1      2167    8    0    1
 -2      1061      1060      1084      4070      4221      4222
 -1      2168    8    0    1
 -2      1062      1061      1085      4073      4223      4224
 -1      2169    8    0    1
 -2      1063      1062      1086      4076      4225      4226
 -1      2170    8    0    1
 -2      1064      1063      1087      4079      4227      4228
 -1      2171    8    0    1
 -2      1065      1064      1088      4082      4229      4230
 -1      2172    8    0    1
 -2      1066      1065      1089      4085      4231      4232
 -1      2173    8    0    1
 -2      1067      1066      1090      4088      4233      4234
 -1      2174    8    0    1
 -2      1068      1067      1091      4091      4235      4236
 -1      2175    8    0    1
 -2      1069      1068      1092      4094      4237      4238
 -1      2176    8    0    1
 -2      1070      1069      1093      4097      4239      4240
 -1      2177    8    0    1
 -2      1071      1070      1094      4100      4241      4242
 -1      2178    8    0    1
 -2      1072      1071      1095      4103      4243      4244
 -1      2179    8    0    1
 -2      1073      1072      1096      4106      4245      4246
 -1      2180    8    0    1
 -2      1074      1073      1097      4109      4247      4248
 -1      2181    8    0    1
 -2      1075      1074      1098      4112      4249      4250
 -1      2182    8    0    1
 -2      1076      1075      1099      4115      4251      4252
 -1      2183    8    0    1
 -2      1077      1076      1100      4118      4253      4254
 -1      2184    8    0    1
 -2      1078      1077      1101      4121      4255      4256
 -1      2185    8    0    1
 -2      1079      1078      1102      4124      4257      4212
 -1      2186    8    0    1
 -2      1081      1082      1058      4132      4217      4258
 -1      2187    8    0    1
 -2      1090      1066      1089      4233      4232      4156
 -1      2188    8    0    1
 -2      1080      1081      1057      4129      4259      4260
 -1      2189    8    0    1
 -2      1081      1058      1057      4258      4061      4259
 -1      2190    8    0    1
 -2      1083      1084      1060      4138      4221      4220
 -1      2191    8    0    1
 -2      1084      1085      1061      4141      4223      4222
 -1      2192    8    0    1
 -2      1052      1025      1107      4036      4214      4216
 -1      2193    8    0    1
 -2      1085      1086      1062      4144      4225      4224
 -1      2194    8    0    1
 -2      1086      1087      1063      4147      4227      4226
 -1      2195    8    0    1
 -2      1087      1088      1064      4150      4229      4228
 -1      2196    8    0    1
 -2      1088      1089      1065      4153      4231      4230
 -1      2197    8    0    1
 -2      1080      1057      1106      4260      4209      4261
 -1      2198    8    0    1
 -2      1090      1091      1067      4159      4235      4234
 -1      2199    8    0    1
 -2      1091      1092      1068      4162      4237      4236
 -1      2200    8    0    1
 -2      1092      1093      1069      4165      4239      4238
 -1      2201    8    0    1
 -2      1093      1094      1070      4168      4241      4240
 -1      2202    8    0    1
 -2      1094      1095      1071      4171      4243      4242
 -1      2203    8    0    1
 -2      1095      1096      1072      4174      4245      4244
 -1      2204    8    0    1
 -2      1096      1097      1073      4177      4247      4246
 -1      2205    8    0    1
 -2      1097      1098      1074      4180      4249      4248
 -1      2206    8    0    1
 -2      1098      1099      1075      4183      4251      4250
 -1      2207    8    0    1
 -2      1099      1100      1076      4186      4253      4252
 -1      2208    8    0    1
 -2      1100      1101      1077      4189      4255      4254
 -1      2209    8    0    1
 -2      1101      1102      1078      4192      4257      4256
 -1      2210    8    0    1
 -2      1105      1080      1106      4205      4261      4262
 -1      2211    8    0    1
 -2      1082      1083      1059      4135      4219      4218
 -1      2212    8    0    1
 -2      1106      1103      1105      4208      4263      4262
 -1      2213    8    0    1
 -2      1107      1105      1103      4213      4263      4264
 -1      2214    8    0    1
 -2      1107      1103      1104      4264      4201      4215
 -3
    1PSTEP                         1           1           1          
  100CL  101 1.000000000        4264                     0    1           1
 -4  DISP        4    1
 -5  D1          1    2    1    0
 -5  D2          1    2    2    0
 -5  D3          1    2    3    0
 -5  ALL         1    2    0    0    1ALL
 -1         1 3.14212E-03-8.73338E-04-6.08414E-15
 -1         2 5.31787E-03-7.34491E-05-9.41890E-15
 -1         3 1.51086E-02 2.63018E-04-1.32232E-13
 -1         4 1.52949E-02-1.16598E-03-1.35635E-13
 -1         5 0.00000E+00 0.00000E+00 0.00000E+00
 -1         6 0.00000E+00 0.00000E+00 0.00000E+00
 -1         7 0.00000E+00 0.00000E+00 0.00000E+00
 -1         8 0.00000E+00 0.00000E+00 0.00000E+00
 -1         9 0.00000E+00 0.00000E+00 0.00000E+00
 -1        10 0.00000E+00 0.00000E+00 0.00000E+00
 -1        11 0.00000E+00 0.00000E+00 0.00000E+00
 -1        12 0.00000E+00 0.00000E+00 0.00000E+00
 -1        13 0.00000E+00 0.00000E+00 0.00000E+00
 -1        14 0.00000E+00 0.00000E+00 0.00000E+00
 -1        15 0.00000E+00 0.00000E+00 0.00000E+00
 -1        16 0.00000E+00 0.00000E+00 0.00000E+00
 -1        17 0.00000E+00 0.00000E+00 0.00000E+00
 -1        18 0.00000E+00 0.00000E+00 0.00000E+00
 -1        19 0.00000E+00 0.00000E+00 0.00000E+00
 -1        20 0.00000E+00 0.00000E+00 0.00000E+00
 -1        21 0.00000E+00 0.00000E+00 0.00000E+00
 -1        22 0.00000E+00 0.00000E+00 0.00000E+00
 -1        23 4.82364E-04-2.69904E-04 2.64478E-17
 -1        24 8.53615E-04-4.16545E-04-1.07844E-16
 -1        25 1.21378E-03-5.42090E-04-3.97299E-16
 -1        26 1.57160E-03-6.66856E-04-8.39233E-16
 -1        27 1.92295E-03-8.00345E-04-1.43244E-15
 -1        28 2.25942E-03-9.41810E-04-2.17702E-15
 -1        29 2.57186E-03-1.08040E-03-3.07808E-15
 -1        30 2.85577E-03-1.19644E-03-4.13675E-15
 -1        31 3.11626E-03-1.26771E-03-5.35664E-15
 -1        32 3.36863E-03-1.27982E-03-6.73681E-15
 -1        33 3.63223E-03-1.23451E-03-8.26904E-15
 -1        34 3.92124E-03-1.14903E-03-9.94468E-15
 -1        35 4.23928E-03-1.04757E-03-1.17600E-14
 -1        36 4.58039E-03-9.51343E-04-1.37011E-14
 -1        37 4.93416E-03-8.73261E-04-1.57627E-14
 -1        38 5.29054E-03-8.17848E-04-1.79378E-14
 -1        39 5.64235E-03-7.83985E-04-2.02238E-14
 -1        40 5.98567E-03-7.67851E-04-2.26241E-14
 -1        41 6.31908E-03-7.64962E-04-2.51271E-14
 -1        42 6.64279E-03-7.71246E-04-2.77275E-14
 -1        43 6.95784E-03-7.83437E-04-3.04208E-14
 -1        44 7.26558E-03-7.99106E-04-3.32047E-14
 -1        45 7.56742E-03-8.16549E-04-3.60848E-14
 -1        46 7.86462E-03-8.34631E-04-3.90605E-14
 -1        47 8.15827E-03-8.52634E-04-4.21175E-14
 -1        48 8.44927E-03-8.70139E-04-4.52559E-14
 -1        49 8.73833E-03-8.86932E-04-4.84777E-14
 -1        50 9.02602E-03-9.02930E-04-5.17816E-14
 -1        51 9.31274E-03-9.18140E-04-5.51618E-14
 -1        52 9.59882E-03-9.32614E-04-5.86136E-14
 -1        53 9.88449E-03-9.46433E-04-6.21199E-14
 -1        54 1.01699E-02-9.59688E-04-6.56689E-14
 -1        55 1.04552E-02-9.72470E-04-6.92672E-14
 -1        56 1.07405E-02-9.84862E-04-7.29121E-14
 -1        57 1.10257E-02-9.96942E-04-7.66043E-14
 -1        58 1.13110E-02-1.00878E-03-8.03225E-14
 -1        59 1.15963E-02-1.02042E-03-8.40704E-14
 -1        60 1.18817E-02-1.03192E-03-8.78526E-14
 -1        61 1.21671E-02-1.04331E-03-9.16762E-14
 -1        62 1.24526E-02-1.05462E-03-9.55312E-14
 -1        63 1.27381E-02-1.06587E-03-9.94227E-14
 -1        64 1.30237E-02-1.07709E-03-1.03341E-13
 -1        65 1.33093E-02-1.08828E-03-1.07300E-13
 -1        66 1.35950E-02-1.09945E-03-1.11310E-13
 -1        67 1.38806E-02-1.11062E-03-1.15359E-13
 -1        68 1.41663E-02-1.12179E-03-1.19420E-13
 -1        69 1.44520E-02-1.13297E-03-1.23492E-13
 -1        70 1.47377E-02-1.14415E-03-1.27578E-13
 -1        71 1.50234E-02-1.15534E-03-1.31700E-13
 -1        72 4.79030E-04 2.73358E-04 6.62990E-17
 -1        73 8.39717E-04 4.23743E-04 1.18585E-19
 -1        74 1.18909E-03 5.46582E-04-1.96546E-16
 -1        75 1.53311E-03 6.64706E-04-5.27807E-16
 -1        76 1.86883E-03 7.85671E-04-9.97974E-16
 -1        77 2.18974E-03 9.08261E-04-1.61178E-15
 -1        78 2.48935E-03 1.02309E-03-2.37206E-15
 -1        79 2.76528E-03 1.11455E-03-3.27764E-15
 -1        80 3.02257E-03 1.16593E-03-4.33430E-15
 -1        81 3.27367E-03 1.16689E-03-5.54214E-15
 -1        82 3.53386E-03 1.11889E-03-6.90419E-15
 -1        83 3.81482E-03 1.03498E-03-8.41577E-15
 -1        84 4.12038E-03 9.33964E-04-1.00668E-14
 -1        85 4.44685E-03 8.33332E-04-1.18537E-14
 -1        86 4.78640E-03 7.44867E-04-1.37705E-14
 -1        87 5.13073E-03 6.73880E-04-1.58103E-14
 -1        88 5.47332E-03 6.20770E-04-1.79744E-14
 -1        89 5.81008E-03 5.83174E-04-2.02494E-14
 -1        90 6.13913E-03 5.57690E-04-2.26362E-14
 -1        91 6.46007E-03 5.40923E-04-2.51275E-14
 -1        92 6.77345E-03 5.29972E-04-2.77161E-14
 -1        93 7.08023E-03 5.22583E-04-3.03897E-14
 -1        94 7.38154E-03 5.17109E-04-3.31518E-14
 -1        95 7.67848E-03 5.12417E-04-3.59978E-14
 -1        96 7.97201E-03 5.07770E-04-3.89303E-14
 -1        97 8.26297E-03 5.02722E-04-4.19395E-14
 -1        98 8.55203E-03 4.97030E-04-4.50252E-14
 -1        99 8.83972E-03 4.90594E-04-4.81915E-14
 -1       100 9.12646E-03 4.83402E-04-5.14248E-14
 -1       101 9.41255E-03 4.75497E-04-5.47221E-14
 -1       102 9.69824E-03 4.66951E-04-5.80772E-14
 -1       103 9.98368E-03 4.57849E-04-6.14977E-14
 -1       104 1.02690E-02 4.48279E-04-6.49706E-14
 -1       105 1.05542E-02 4.38323E-04-6.85055E-14
 -1       106 1.08395E-02 4.28055E-04-7.21139E-14
 -1       107 1.11248E-02 4.17543E-04-7.58033E-14
 -1       108 1.14101E-02 4.06839E-04-7.95553E-14
 -1       109 1.16955E-02 3.95990E-04-8.33804E-14
 -1       110 1.19809E-02 3.85033E-04-8.72504E-14
 -1       111 1.22664E-02 3.73997E-04-9.11638E-14
 -1       112 1.25519E-02 3.62906E-04-9.51444E-14
 -1       113 1.28375E-02 3.51775E-04-9.91747E-14
 -1       114 1.31231E-02 3.40621E-04-1.03252E-13
 -1       115 1.34087E-02 3.29452E-04-1.07363E-13
 -1       116 1.36944E-02 3.18276E-04-1.11484E-13
 -1       117 1.39801E-02 3.07100E-04-1.15620E-13
 -1       118 1.42658E-02 2.95929E-04-1.19784E-13
 -1       119 1.45515E-02 2.84765E-04-1.23986E-13
 -1       120 1.48372E-02 2.73610E-04-1.28219E-13
 -1       121 1.51196E-02 1.78734E-04-1.32516E-13
 -1       122 1.51306E-02 9.44478E-05-1.32811E-13
 -1       123 1.51415E-02 1.01564E-05-1.33065E-13
 -1       124 1.51524E-02-7.41447E-05-1.33311E-13
 -1       125 1.51634E-02-1.58457E-04-1.33517E-13
 -1       126 1.51742E-02-2.41352E-04-1.33734E-13
 -1       127 1.51851E-02-3.25685E-04-1.33934E-13
 -1       128 1.51961E-02-4.10025E-04-1.34125E-13
 -1       129 1.52071E-02-4.94366E-04-1.34313E-13
 -1       130 1.52181E-02-5.78706E-04-1.34483E-13
 -1       131 1.52291E-02-6.63039E-04-1.34644E-13
 -1       132 1.52399E-02-7.45933E-04-1.34799E-13
 -1       133 1.52510E-02-8.30246E-04-1.34976E-13
 -1       134 1.52620E-02-9.14547E-04-1.35153E-13
 -1       135 1.52730E-02-9.98838E-04-1.35317E-13
 -1       136 1.52840E-02-1.08312E-03-1.35478E-13
 -1       137 5.27099E-03 8.42794E-05-9.30638E-15
 -1       138 5.13304E-03 2.41869E-04-9.03190E-15
 -1       139 4.91566E-03 3.85738E-04-8.63295E-15
 -1       140 4.56704E-03 5.32318E-04-8.02428E-15
 -1       141 4.19543E-03 6.33797E-04-7.40595E-15
 -1       142 3.75548E-03 7.06594E-04-6.71444E-15
 -1       143 3.29565E-03 7.39491E-04-6.03380E-15
 -1       144 2.82073E-03 7.31727E-04-5.37093E-15
 -1       145 2.34192E-03 6.79873E-04-4.73968E-15
 -1       146 1.92906E-03 5.95822E-04-4.22627E-15
 -1       147 1.54103E-03 4.71115E-04-3.76577E-15
 -1       148 1.27915E-03 3.45899E-04-3.46932E-15
 -1       149 1.09745E-03 2.13799E-04-3.27265E-15
 -1       150 9.85407E-04 5.99476E-05-3.16266E-15
 -1       151 9.70569E-04-9.24062E-05-3.16670E-15
 -1       152 1.05175E-03-2.48690E-04-3.28343E-15
 -1       153 1.21777E-03-3.95252E-04-3.49916E-15
 -1       154 1.46740E-03-5.34652E-04-3.81898E-15
 -1       155 1.80613E-03-6.64718E-04-4.25627E-15
 -1       156 2.20533E-03-7.68553E-04-4.78123E-15
 -1       157 2.68030E-03-8.44073E-04-5.43094E-15
 -1       158 3.57202E-03-8.63985E-04-6.71314E-15
 -1       159 4.00863E-03-8.15521E-04-7.37972E-15
 -1       160 4.37607E-03-7.40379E-04-7.95427E-15
 -1       161 4.69480E-03-6.40346E-04-8.46104E-15
 -1       162 4.95479E-03-5.21220E-04-8.87715E-15
 -1       163 5.15174E-03-3.84891E-04-9.18886E-15
 -1       164 5.27634E-03-2.34594E-04-9.37554E-15
 -1       165 2.83099E-04-1.08045E-04-3.56228E-17
 -1       166 2.53492E-04-6.55033E-05-5.45083E-17
 -1       167 2.31478E-04-3.58653E-05-6.46083E-17
 -1       168 2.10964E-04-1.48073E-05-6.98836E-17
 -1       169 1.91879E-04-2.11452E-06-7.22316E-17
 -1       170 1.75419E-04 2.62535E-06-7.30820E-17
 -1       171 1.64787E-04 5.42987E-07-7.27872E-17
 -1       172 1.62322E-04-4.88509E-06-7.15370E-17
 -1       173 1.68466E-04-8.97954E-06-6.93381E-17
 -1       174 1.81455E-04-7.61483E-06-6.60381E-17
 -1       175 1.97999E-04 1.16993E-06-6.16572E-17
 -1       176 2.16028E-04 1.78046E-05-5.54434E-17
 -1       177 2.34081E-04 4.14306E-05-4.62717E-17
 -1       178 2.53287E-04 7.22821E-05-3.20924E-17
 -1       179 2.79120E-04 1.14957E-04-8.31448E-18
 -1       180 3.51074E-04 1.83653E-04 1.72253E-17
 -1       181 5.63928E-04-2.54163E-04-9.62229E-17
 -1       182 9.32238E-04-3.87089E-04-3.33036E-16
 -1       183 1.28970E-03-5.10864E-04-7.13890E-16
 -1       184 1.64112E-03-6.40891E-04-1.24036E-15
 -1       185 1.98513E-03-7.82136E-04-1.91392E-15
 -1       186 2.31786E-03-9.29269E-04-2.73786E-15
 -1       187 2.63555E-03-1.06581E-03-3.71668E-15
 -1       188 2.93796E-03-1.16751E-03-4.85338E-15
 -1       189 3.23074E-03-1.21210E-03-6.14882E-15
 -1       190 3.52410E-03-1.19156E-03-7.60088E-15
 -1       191 3.82785E-03-1.11752E-03-9.20251E-15
 -1       192 4.14659E-03-1.01469E-03-1.09442E-14
 -1       193 4.47884E-03-9.08986E-04-1.28190E-14
 -1       194 4.81928E-03-8.18566E-04-1.48151E-14
 -1       195 5.16192E-03-7.51605E-04-1.69291E-14
 -1       196 5.50194E-03-7.08695E-04-1.91539E-14
 -1       197 5.83634E-03-6.86343E-04-2.14871E-14
 -1       198 6.16370E-03-6.79696E-04-2.39288E-14
 -1       199 6.48376E-03-6.84082E-04-2.64715E-14
 -1       200 6.79697E-03-6.95652E-04-2.91064E-14
 -1       201 7.10414E-03-7.11506E-04-3.18371E-14
 -1       202 7.40622E-03-7.29595E-04-3.46591E-14
 -1       203 7.70414E-03-7.48545E-04-3.75762E-14
 -1       204 7.99874E-03-7.67486E-04-4.05813E-14
 -1       205 8.29077E-03-7.85905E-04-4.36673E-14
 -1       206 8.58083E-03-8.03534E-04-4.68358E-14
 -1       207 8.86944E-03-8.20268E-04-5.00844E-14
 -1       208 9.15698E-03-8.36104E-04-5.34111E-14
 -1       209 9.44376E-03-8.51098E-04-5.68151E-14
 -1       210 9.73002E-03-8.65340E-04-6.02837E-14
 -1       211 1.00159E-02-8.78932E-04-6.38020E-14
 -1       212 1.03016E-02-8.91976E-04-6.73696E-14
 -1       213 1.05871E-02-9.04571E-04-7.09817E-14
 -1       214 1.08726E-02-9.16803E-04-7.46389E-14
 -1       215 1.11581E-02-9.28749E-04-7.83356E-14
 -1       216 1.14435E-02-9.40473E-04-8.20659E-14
 -1       217 1.17290E-02-9.52028E-04-8.58302E-14
 -1       218 1.20145E-02-9.63456E-04-8.96297E-14
 -1       219 1.23000E-02-9.74792E-04-9.34664E-14
 -1       220 1.25856E-02-9.86061E-04-9.73426E-14
 -1       221 1.28712E-02-9.97285E-04-1.01252E-13
 -1       222 1.31568E-02-1.00848E-03-1.05195E-13
 -1       223 1.34424E-02-1.01966E-03-1.09178E-13
 -1       224 1.37281E-02-1.03082E-03-1.13204E-13
 -1       225 1.40138E-02-1.04199E-03-1.17254E-13
 -1       226 1.42995E-02-1.05316E-03-1.21319E-13
 -1       227 1.45852E-02-1.06433E-03-1.25402E-13
 -1       228 1.48709E-02-1.07552E-03-1.29504E-13
 -1       229 7.20170E-04 3.34119E-04-6.99581E-17
 -1       230 1.07492E-03 4.59393E-04-2.79961E-16
 -1       231 1.42010E-03 5.78800E-04-6.19523E-16
 -1       232 1.75705E-03 7.01558E-04-1.09444E-15
 -1       233 2.08355E-03 8.27679E-04-1.70865E-15
 -1       234 2.39644E-03 9.48271E-04-2.46715E-15
 -1       235 2.69438E-03 1.04705E-03-3.37215E-15
 -1       236 2.98016E-03 1.10551E-03-4.42746E-15
 -1       237 3.26109E-03 1.11115E-03-5.63335E-15
 -1       238 3.54653E-03 1.06429E-03-6.99219E-15
 -1       239 3.84384E-03 9.78390E-04-8.50011E-15
 -1       240 4.15563E-03 8.73721E-04-1.01494E-14
 -1       241 4.47986E-03 7.69314E-04-1.19342E-14
 -1       242 4.81177E-03 6.77927E-04-1.38464E-14
 -1       243 5.14618E-03 6.05197E-04-1.58815E-14
 -1       244 5.47887E-03 5.51425E-04-1.80371E-14
 -1       245 5.80705E-03 5.13971E-04-2.03055E-14
 -1       246 6.12934E-03 4.89132E-04-2.26810E-14
 -1       247 6.44535E-03 4.73267E-04-2.51608E-14
 -1       248 6.75539E-03 4.63302E-04-2.77418E-14
 -1       249 7.06008E-03 4.56870E-04-3.04089E-14
 -1       250 7.36024E-03 4.52265E-04-3.31658E-14
 -1       251 7.65667E-03 4.48325E-04-3.60060E-14
 -1       252 7.95013E-03 4.44306E-04-3.89302E-14
 -1       253 8.24129E-03 4.39767E-04-4.19355E-14
 -1       254 8.53070E-03 4.34481E-04-4.50196E-14
 -1       255 8.81881E-03 4.28360E-04-4.81797E-14
 -1       256 9.10598E-03 4.21407E-04-5.14082E-14
 -1       257 9.39249E-03 4.13681E-04-5.46994E-14
 -1       258 9.67854E-03 4.05264E-04-5.80499E-14
 -1       259 9.96430E-03 3.96254E-04-6.14671E-14
 -1       260 1.02499E-02 3.86747E-04-6.49394E-14
 -1       261 1.05354E-02 3.76833E-04-6.84749E-14
 -1       262 1.08208E-02 3.66593E-04-7.20835E-14
 -1       263 1.11062E-02 3.56095E-04-7.57630E-14
 -1       264 1.13917E-02 3.45399E-04-7.95028E-14
 -1       265 1.16771E-02 3.34553E-04-8.33080E-14
 -1       266 1.19626E-02 3.23595E-04-8.71692E-14
 -1       267 1.22482E-02 3.12556E-04-9.10774E-14
 -1       268 1.25337E-02 3.01460E-04-9.50463E-14
 -1       269 1.28193E-02 2.90326E-04-9.90693E-14
 -1       270 1.31049E-02 2.79166E-04-1.03134E-13
 -1       271 1.33906E-02 2.67993E-04-1.07226E-13
 -1       272 1.36763E-02 2.56813E-04-1.11338E-13
 -1       273 1.39619E-02 2.45634E-04-1.15468E-13
 -1       274 1.42476E-02 2.34459E-04-1.19624E-13
 -1       275 1.45333E-02 2.23292E-04-1.23815E-13
 -1       276 1.48190E-02 2.12136E-04-1.28036E-13
 -1       277 1.48776E-02 1.46243E-04-1.28995E-13
 -1       278 1.48886E-02 6.19519E-05-1.29266E-13
 -1       279 1.48995E-02-2.23464E-05-1.29523E-13
 -1       280 1.49105E-02-1.06653E-04-1.29760E-13
 -1       281 1.49212E-02-1.89539E-04-1.29984E-13
 -1       282 1.49322E-02-2.73861E-04-1.30206E-13
 -1       283 1.49432E-02-3.58189E-04-1.30417E-13
 -1       284 1.49541E-02-4.42520E-04-1.30622E-13
 -1       285 1.49651E-02-5.26850E-04-1.30811E-13
 -1       286 1.49761E-02-6.11178E-04-1.30989E-13
 -1       287 1.49870E-02-6.94071E-04-1.31155E-13
 -1       288 1.49980E-02-7.78386E-04-1.31322E-13
 -1       289 1.50090E-02-8.62692E-04-1.31492E-13
 -1       290 1.50201E-02-9.46991E-04-1.31654E-13
 -1       291 1.49455E-02-1.01126E-03-1.30579E-13
 -1       292 5.32628E-03-3.40149E-05-1.01194E-14
 -1       293 5.19858E-03 5.69322E-05-9.92610E-15
 -1       294 4.96287E-03 1.81807E-04-9.45436E-15
 -1       295 4.60629E-03 3.28134E-04-8.92702E-15
 -1       296 4.22092E-03 5.18914E-04-8.09181E-15
 -1       297 3.83915E-03 6.78120E-04-7.27192E-15
 -1       298 3.45146E-03 7.85651E-04-6.45379E-15
 -1       299 3.07100E-03 8.17760E-04-5.66523E-15
 -1       300 2.68973E-03 7.60665E-04-4.90200E-15
 -1       301 2.29310E-03 6.21846E-04-4.26385E-15
 -1       302 1.90066E-03 4.37356E-04-3.69473E-15
 -1       303 1.51063E-03 2.85219E-04-3.35779E-15
 -1       304 1.23272E-03 1.57878E-04-3.09998E-15
 -1       305 1.03145E-03 5.58383E-05-2.93990E-15
 -1       306 9.43318E-04-2.71354E-05-2.88514E-15
 -1       307 9.88744E-04-1.04422E-04-2.92742E-15
 -1       308 1.16018E-03-2.05587E-04-3.11974E-15
 -1       309 1.42836E-03-3.33510E-04-3.40087E-15
 -1       310 1.78672E-03-4.87242E-04-3.77227E-15
 -1       311 2.16114E-03-6.74383E-04-4.32820E-15
 -1       312 2.58254E-03-8.37941E-04-4.95776E-15
 -1       313 2.96432E-03-9.35301E-04-5.72657E-15
 -1       314 3.32172E-03-9.44167E-04-6.47858E-15
 -1       315 3.67330E-03-8.82464E-04-7.27914E-15
 -1       316 4.04450E-03-7.56096E-04-8.00125E-15
 -1       317 4.38878E-03-6.09469E-04-8.66490E-15
 -1       318 4.71323E-03-4.60075E-04-9.23937E-15
 -1       319 4.99628E-03-3.25635E-04-9.69826E-15
 -1       320 5.21138E-03-2.08629E-04-1.00666E-14
 -1       321 5.33209E-03-1.16431E-04-1.02692E-14
 -1       322 5.00468E-04-1.18115E-04-2.17718E-16
 -1       323 5.51384E-04-1.82522E-04-1.88116E-16
 -1       324 4.10359E-04-3.26932E-05-2.42990E-16
 -1       325 3.68838E-04-1.12891E-05-2.46534E-16
 -1       326 3.36661E-04-3.94147E-06-2.46792E-16
 -1       327 3.21066E-04-6.37684E-06-2.44413E-16
 -1       328 3.26015E-04-1.07320E-05-2.39551E-16
 -1       329 3.49607E-04-8.44074E-06-2.32236E-16
 -1       330 3.84508E-04 5.94547E-06-2.22170E-16
 -1       331 4.24470E-04 3.45117E-05-2.08360E-16
 -1       332 4.64225E-04 7.58740E-05-1.89258E-16
 -1       333 5.03764E-04 1.28687E-04-1.61797E-16
 -1       334 5.49419E-04 1.95008E-04-1.20895E-16
 -1       335 6.26314E-04 2.59890E-04-1.02660E-16
 -1       336 9.76461E-04 3.83521E-04-3.19287E-16
 -1       337 1.02323E-03-3.58003E-04-5.80614E-16
 -1       338 1.37239E-03-4.80873E-04-1.04561E-15
 -1       339 1.72154E-03-6.15690E-04-1.65195E-15
 -1       340 2.06910E-03-7.63738E-04-2.40195E-15
 -1       341 2.41071E-03-9.14988E-04-3.30173E-15
 -1       342 2.74157E-03-1.04657E-03-4.35540E-15
 -1       343 3.06108E-03-1.12867E-03-5.56796E-15
 -1       344 3.37569E-03-1.14008E-03-6.93836E-15
 -1       345 3.69537E-03-1.08282E-03-8.46330E-15
 -1       346 4.02569E-03-9.81776E-04-1.01342E-14
 -1       347 4.36503E-03-8.68417E-04-1.19413E-14
 -1       348 4.70738E-03-7.66922E-04-1.38757E-14
 -1       349 5.04717E-03-6.89175E-04-1.59275E-14
 -1       350 5.38119E-03-6.37388E-04-1.80929E-14
 -1       351 5.70827E-03-6.08484E-04-2.03653E-14
 -1       352 6.02846E-03-5.97441E-04-2.27442E-14
 -1       353 6.34234E-03-5.99190E-04-2.52266E-14
 -1       354 6.65069E-03-6.09442E-04-2.78052E-14
 -1       355 6.95431E-03-6.24899E-04-3.04803E-14
 -1       356 7.25396E-03-6.43186E-04-3.32476E-14
 -1       357 7.55034E-03-6.62683E-04-3.61078E-14
 -1       358 7.84408E-03-6.82347E-04-3.90587E-14
 -1       359 8.13572E-03-7.01546E-04-4.20925E-14
 -1       360 8.42571E-03-7.19939E-04-4.52089E-14
 -1       361 8.71444E-03-7.37377E-04-4.84038E-14
 -1       362 9.00221E-03-7.53835E-04-5.16786E-14
 -1       363 9.28927E-03-7.69361E-04-5.50348E-14
 -1       364 9.57583E-03-7.84047E-04-5.84607E-14
 -1       365 9.86202E-03-7.98001E-04-6.19437E-14
 -1       366 1.01480E-02-8.11335E-04-6.54755E-14
 -1       367 1.04337E-02-8.24158E-04-6.90597E-14
 -1       368 1.07194E-02-8.36566E-04-7.26848E-14
 -1       369 1.10050E-02-8.48645E-04-7.63544E-14
 -1       370 1.12906E-02-8.60468E-04-8.00644E-14
 -1       371 1.15762E-02-8.72094E-04-8.38093E-14
 -1       372 1.18618E-02-8.83573E-04-8.75918E-14
 -1       373 1.21473E-02-8.94943E-04-9.14055E-14
 -1       374 1.24330E-02-9.06235E-04-9.52604E-14
 -1       375 1.27186E-02-9.17474E-04-9.91538E-14
 -1       376 1.30042E-02-9.28675E-04-1.03087E-13
 -1       377 1.32899E-02-9.39854E-04-1.07054E-13
 -1       378 1.35755E-02-9.51021E-04-1.11058E-13
 -1       379 1.38612E-02-9.62183E-04-1.15094E-13
 -1       380 1.41469E-02-9.73347E-04-1.19148E-13
 -1       381 1.44326E-02-9.84516E-04-1.23220E-13
 -1       382 1.46890E-02-9.97881E-04-1.26890E-13
 -1       383 1.32144E-03 5.02264E-04-6.61285E-16
 -1       384 1.66130E-03 6.24956E-04-1.13490E-15
 -1       385 1.99479E-03 7.52865E-04-1.74546E-15
 -1       386 2.31921E-03 8.78262E-04-2.49737E-15
 -1       387 2.63230E-03 9.84799E-04-3.39521E-15
 -1       388 2.93490E-03 1.05202E-03-4.44295E-15
 -1       389 3.23229E-03 1.06445E-03-5.64215E-15
 -1       390 3.53234E-03 1.02039E-03-6.99349E-15
 -1       391 3.84124E-03 9.33627E-04-8.49400E-15
 -1       392 4.16060E-03 8.26148E-04-1.01373E-14
 -1       393 4.48794E-03 7.18674E-04-1.19165E-14
 -1       394 4.81892E-03 6.24879E-04-1.38218E-14
 -1       395 5.14951E-03 5.50616E-04-1.58487E-14
 -1       396 5.47686E-03 4.96073E-04-1.79945E-14
 -1       397 5.79940E-03 4.58412E-04-2.02529E-14
 -1       398 6.11649E-03 4.33743E-04-2.26179E-14
 -1       399 6.42816E-03 4.18274E-04-2.50867E-14
 -1       400 6.73479E-03 4.08822E-04-2.76574E-14
 -1       401 7.03700E-03 4.02944E-04-3.03174E-14
 -1       402 7.33543E-03 3.98882E-04-3.30654E-14
 -1       403 7.63074E-03 3.95444E-04-3.58969E-14
 -1       404 7.92354E-03 3.91869E-04-3.88143E-14
 -1       405 8.21435E-03 3.87712E-04-4.18126E-14
 -1       406 8.50364E-03 3.82742E-04-4.48902E-14
 -1       407 8.79178E-03 3.76880E-04-4.80444E-14
 -1       408 9.07906E-03 3.70133E-04-5.12660E-14
 -1       409 9.36573E-03 3.62568E-04-5.45531E-14
 -1       410 9.65196E-03 3.54275E-04-5.78987E-14
 -1       411 9.93790E-03 3.45359E-04-6.13081E-14
 -1       412 1.02236E-02 3.35920E-04-6.47800E-14
 -1       413 1.05093E-02 3.26056E-04-6.83112E-14
 -1       414 1.07948E-02 3.15850E-04-7.19152E-14
 -1       415 1.10804E-02 3.05376E-04-7.55857E-14
 -1       416 1.13659E-02 2.94695E-04-7.93166E-14
 -1       417 1.16514E-02 2.83858E-04-8.31091E-14
 -1       418 1.19370E-02 2.72905E-04-8.69558E-14
 -1       419 1.22225E-02 2.61869E-04-9.08577E-14
 -1       420 1.25081E-02 2.50773E-04-9.48170E-14
 -1       421 1.27938E-02 2.39637E-04-9.88304E-14
 -1       422 1.30794E-02 2.28476E-04-1.02881E-13
 -1       423 1.33651E-02 2.17300E-04-1.06963E-13
 -1       424 1.36507E-02 2.06118E-04-1.11063E-13
 -1       425 1.39364E-02 1.94936E-04-1.15186E-13
 -1       426 1.42221E-02 1.83759E-04-1.19334E-13
 -1       427 1.45078E-02 1.72589E-04-1.23515E-13
 -1       428 1.46927E-02 1.59414E-04-1.26249E-13
 -1       429 1.46576E-02-5.48377E-05-1.25994E-13
 -1       430 1.46466E-02 2.94640E-05-1.25739E-13
 -1       431 1.46697E-02 9.44409E-05-1.25999E-13
 -1       432 1.46683E-02-1.37718E-04-1.26235E-13
 -1       433 1.46793E-02-2.22034E-04-1.26468E-13
 -1       434 1.46902E-02-3.06355E-04-1.26696E-13
 -1       435 1.47012E-02-3.90681E-04-1.26915E-13
 -1       436 1.47122E-02-4.75007E-04-1.27124E-13
 -1       437 1.47232E-02-5.59332E-04-1.27316E-13
 -1       438 1.47340E-02-6.42224E-04-1.27496E-13
 -1       439 1.47451E-02-7.26540E-04-1.27670E-13
 -1       440 1.47561E-02-8.10849E-04-1.27839E-13
 -1       441 1.47671E-02-8.95151E-04-1.28008E-13
 -1       442 5.06698E-03 5.15852E-05-1.06076E-14
 -1       443 5.36385E-03-7.65159E-05-1.11607E-14
 -1       444 5.29819E-03-3.38390E-05-1.09509E-14
 -1       445 4.78327E-03 1.68308E-04-1.00349E-14
 -1       446 4.33103E-03 3.89794E-04-8.99103E-15
 -1       447 4.54821E-04-6.85191E-05-2.34303E-16
 -1       448 3.58652E-03 7.57397E-04-7.06504E-15
 -1       449 3.25446E-03 8.42982E-04-6.10779E-15
 -1       450 2.92566E-03 8.35489E-04-5.22351E-15
 -1       451 2.53180E-03 6.99450E-04-4.38658E-15
 -1       452 2.17324E-03 5.20160E-04-3.75866E-15
 -1       453 1.71106E-03 2.91093E-04-3.21505E-15
 -1       454 1.39817E-03 1.55868E-04-2.93962E-15
 -1       455 1.12724E-03 4.73034E-05-2.68167E-15
 -1       456 9.57248E-04-1.43061E-05-2.51128E-15
 -1       457 9.33323E-04-4.82739E-05-2.56101E-15
 -1       458 1.06769E-03-1.05526E-04-2.72816E-15
 -1       459 1.31275E-03-1.96591E-04-2.95160E-15
 -1       460 1.63150E-03-3.30819E-04-3.25516E-15
 -1       461 2.07463E-03-5.53008E-04-3.79917E-15
 -1       462 2.41589E-03-7.37289E-04-4.36604E-15
 -1       463 2.83694E-03-9.26879E-04-5.29171E-15
 -1       464 3.16096E-03-9.87124E-04-6.16282E-15
 -1       465 3.43130E-03-9.58994E-04-6.93904E-15
 -1       466 3.82465E-03-8.15707E-04-8.05312E-15
 -1       467 4.11048E-03-6.76533E-04-8.72534E-15
 -1       468 4.49443E-03-4.82928E-04-9.54029E-15
 -1       469 4.82153E-03-3.23532E-04-1.02624E-14
 -1       470 5.06806E-03-2.21795E-04-1.06443E-14
 -1       471 5.29283E-03-1.30162E-04-1.11205E-14
 -1       472 3.94930E-03 5.93509E-04-7.96740E-15
 -1       473 1.94784E-03 3.88835E-04-3.26574E-15
 -1       474 1.07599E-03 3.54519E-04-5.63782E-16
 -1       475 5.27963E-04-2.06652E-05-5.18252E-16
 -1       476 5.92773E-04-4.77967E-05-5.15813E-16
 -1       477 4.75099E-04-1.28031E-05-5.08762E-16
 -1       478 5.01938E-04-9.72354E-06-4.97689E-16
 -1       479 5.54593E-04 8.06353E-06-4.82426E-16
 -1       480 6.19975E-04 4.56340E-05-4.61626E-16
 -1       481 6.85444E-04 1.01083E-04-4.33664E-16
 -1       482 7.46830E-04 1.70383E-04-3.95016E-16
 -1       483 1.41630E-03 4.70253E-04-9.92360E-16
 -1       484 1.11469E-03-3.28045E-04-8.51624E-16
 -1       485 2.71623E-03 7.82605E-04-4.57839E-15
 -1       486 1.45802E-03-4.48064E-04-1.39419E-15
 -1       487 1.81083E-03-5.86576E-04-2.07357E-15
 -1       488 2.16973E-03-7.42835E-04-2.89550E-15
 -1       489 2.52636E-03-9.01586E-04-3.86602E-15
 -1       490 2.87186E-03-1.02883E-03-4.99326E-15
 -1       491 3.20681E-03-1.08391E-03-6.28093E-15
 -1       492 3.54137E-03-1.04997E-03-7.72742E-15
 -1       493 3.88606E-03-9.50332E-04-9.32738E-15
 -1       494 4.24100E-03-8.25844E-04-1.10685E-14
 -1       495 4.59569E-03-7.11908E-04-1.29396E-14
 -1       496 4.94147E-03-6.24535E-04-1.49330E-14
 -1       497 5.27523E-03-5.65917E-04-1.70383E-14
 -1       498 5.59762E-03-5.32218E-04-1.92528E-14
 -1       499 5.91086E-03-5.17783E-04-2.15715E-14
 -1       500 6.21726E-03-5.17199E-04-2.39950E-14
 -1       501 6.51865E-03-5.25972E-04-2.65158E-14
 -1       502 6.81636E-03-5.40632E-04-2.91349E-14
 -1       503 7.11129E-03-5.58642E-04-3.18482E-14
 -1       504 7.40408E-03-5.78232E-04-3.46527E-14
 -1       505 7.69520E-03-5.98225E-04-3.75495E-14
 -1       506 7.98499E-03-6.17888E-04-4.05311E-14
 -1       507 8.27375E-03-6.36802E-04-4.35948E-14
 -1       508 8.56169E-03-6.54765E-04-4.67398E-14
 -1       509 8.84900E-03-6.71717E-04-4.99636E-14
 -1       510 9.13583E-03-6.87689E-04-5.32681E-14
 -1       511 9.42230E-03-7.02763E-04-5.66493E-14
 -1       512 9.70851E-03-7.17044E-04-6.00942E-14
 -1       513 9.99452E-03-7.30650E-04-6.35932E-14
 -1       514 1.02804E-02-7.43691E-04-6.71418E-14
 -1       515 1.05662E-02-7.56273E-04-7.07417E-14
 -1       516 1.08519E-02-7.68488E-04-7.43812E-14
 -1       517 1.11376E-02-7.80414E-04-7.80655E-14
 -1       518 1.14233E-02-7.92118E-04-8.17920E-14
 -1       519 1.17089E-02-8.03654E-04-8.55549E-14
 -1       520 1.19946E-02-8.15066E-04-8.93483E-14
 -1       521 1.22802E-02-8.26387E-04-9.31784E-14
 -1       522 1.25659E-02-8.37644E-04-9.70522E-14
 -1       523 1.28516E-02-8.48858E-04-1.00969E-13
 -1       524 1.31373E-02-8.60044E-04-1.04922E-13
 -1       525 1.34229E-02-8.71213E-04-1.08913E-13
 -1       526 1.37086E-02-8.82374E-04-1.12934E-13
 -1       527 1.39943E-02-8.93534E-04-1.16978E-13
 -1       528 1.42800E-02-9.04698E-04-1.21036E-13
 -1       529 2.10037E-03 7.27369E-04-2.24577E-15
 -1       530 2.43604E-03 8.54325E-04-3.08240E-15
 -1       531 2.76152E-03 9.53576E-04-4.06613E-15
 -1       532 3.07778E-03 9.99987E-04-5.20208E-15
 -1       533 3.39218E-03 9.80225E-04-6.49287E-15
 -1       534 3.71334E-03 9.03043E-04-7.93572E-15
 -1       535 4.04395E-03 7.93560E-04-9.52364E-15
 -1       536 4.38042E-03 6.78340E-04-1.12507E-14
 -1       537 4.71676E-03 5.75667E-04-1.31065E-14
 -1       538 5.04838E-03 4.93567E-04-1.50840E-14
 -1       539 5.37325E-03 4.32826E-04-1.71786E-14
 -1       540 5.69120E-03 3.90621E-04-1.93871E-14
 -1       541 6.00293E-03 3.62851E-04-2.17028E-14
 -1       542 6.30939E-03 3.45460E-04-2.41231E-14
 -1       543 6.61149E-03 3.35000E-04-2.66457E-14
 -1       544 6.91004E-03 3.28780E-04-2.92634E-14
 -1       545 7.20571E-03 3.24833E-04-3.19712E-14
 -1       546 7.49904E-03 3.21795E-04-3.47655E-14
 -1       547 7.79050E-03 3.18775E-04-3.76433E-14
 -1       548 8.08048E-03 3.15236E-04-4.06048E-14
 -1       549 8.36929E-03 3.10884E-04-4.36454E-14
 -1       550 8.65721E-03 3.05601E-04-4.67645E-14
 -1       551 8.94445E-03 2.99374E-04-4.99556E-14
 -1       552 9.23118E-03 2.92257E-04-5.32122E-14
 -1       553 9.51753E-03 2.84343E-04-5.65345E-14
 -1       554 9.80363E-03 2.75737E-04-5.99150E-14
 -1       555 1.00895E-02 2.66549E-04-6.33608E-14
 -1       556 1.03753E-02 2.56883E-04-6.68671E-14
 -1       557 1.06610E-02 2.46830E-04-7.04378E-14
 -1       558 1.09467E-02 2.36473E-04-7.40783E-14
 -1       559 1.12323E-02 2.25880E-04-7.77787E-14
 -1       560 1.15179E-02 2.15107E-04-8.15349E-14
 -1       561 1.18036E-02 2.04199E-04-8.53468E-14
 -1       562 1.20892E-02 1.93194E-04-8.92160E-14
 -1       563 1.23748E-02 1.82119E-04-9.31393E-14
 -1       564 1.26605E-02 1.70996E-04-9.71218E-14
 -1       565 1.29461E-02 1.59842E-04-1.01145E-13
 -1       566 1.32318E-02 1.48669E-04-1.05202E-13
 -1       567 1.35175E-02 1.37486E-04-1.09280E-13
 -1       568 1.38032E-02 1.26300E-04-1.13382E-13
 -1       569 1.40889E-02 1.15118E-04-1.17508E-13
 -1       570 1.43746E-02 1.03942E-04-1.21669E-13
 -1       571 1.44264E-02-1.70203E-04-1.22742E-13
 -1       572 1.44373E-02-2.54521E-04-1.22980E-13
 -1       573 1.44047E-02-3.01497E-06-1.22243E-13
 -1       574 1.44155E-02-8.66052E-05-1.22499E-13
 -1       575 4.95660E-03 8.27543E-05-1.12129E-14
 -1       576 1.44483E-02-3.38843E-04-1.23212E-13
 -1       577 1.44592E-02-4.23168E-04-1.23436E-13
 -1       578 1.44702E-02-5.07493E-04-1.23645E-13
 -1       579 1.44811E-02-5.90386E-04-1.23836E-13
 -1       580 1.44921E-02-6.74704E-04-1.24017E-13
 -1       581 1.45031E-02-7.59016E-04-1.24195E-13
 -1       582 1.45142E-02-8.43320E-04-1.24368E-13
 -1       583 4.56203E-03 2.59813E-04-1.02531E-14
 -1       584 1.75880E-03 5.95270E-04-1.55122E-15
 -1       585 5.37416E-03-6.49468E-05-1.21240E-14
 -1       586 5.38591E-03-9.83000E-05-1.22365E-14
 -1       587 7.98317E-04-2.15584E-04-4.82551E-16
 -1       588 4.30947E-03-5.62314E-04-9.80363E-15
 -1       589 2.64529E-03-8.56449E-04-4.61341E-15
 -1       590 1.83511E-03-4.03617E-04-3.16279E-15
 -1       591 4.84557E-04-1.19872E-05-5.15687E-16
 -1       592 3.12361E-03 8.70550E-04-5.72920E-15
 -1       593 3.01941E-03-9.88660E-04-5.71651E-15
 -1       594 3.78953E-03 6.68570E-04-7.91947E-15
 -1       595 3.40302E-03 8.30635E-04-6.64617E-15
 -1       596 2.37793E-03 6.20749E-04-3.84641E-15
 -1       597 1.53530E-03 1.84632E-04-2.74571E-15
 -1       598 1.25775E-03 7.38447E-05-2.49443E-15
 -1       599 1.00965E-03-1.73289E-06-2.14667E-15
 -1       600 8.95409E-04-3.18163E-05-2.14481E-15
 -1       601 9.64071E-04-5.46857E-05-2.27633E-15
 -1       602 1.15867E-03-1.09673E-04-2.44880E-15
 -1       603 1.44429E-03-2.17494E-04-2.74945E-15
 -1       604 2.24829E-03-6.35370E-04-3.79265E-15
 -1       605 4.64359E-03-3.90767E-04-1.05434E-14
 -1       606 3.30407E-03-1.00470E-03-6.66694E-15
 -1       607 3.61676E-03-9.15955E-04-7.74713E-15
 -1       608 4.05462E-03-6.99997E-04-9.08792E-15
 -1       609 4.98169E-03-2.43314E-04-1.14238E-14
 -1       610 4.11794E-03 4.92319E-04-8.93837E-15
 -1       611 5.22807E-03-1.53617E-04-1.19183E-14
 -1       612 8.12632E-04 2.76746E-04-3.00270E-16
 -1       613 5.22364E-03-1.40576E-05-1.17593E-14
 -1       614 6.64808E-04-9.47955E-05-5.06854E-16
 -1       615 3.85545E-03-8.28386E-04-8.75295E-15
 -1       616 2.91677E-03 8.56863E-04-5.03953E-15
 -1       617 1.44734E-02-9.13921E-04-1.23796E-13
 -1       618 1.73502E-03 2.80283E-04-2.78177E-15
 -1       619 2.15127E-03 5.02914E-04-3.34095E-15
 -1       620 7.03776E-04 4.55123E-06-8.38309E-16
 -1       621 6.36160E-04-1.47149E-05-8.57672E-16
 -1       622 8.95170E-04 1.16919E-04-7.78013E-16
 -1       623 9.82163E-04 2.01765E-04-7.31352E-16
 -1       624 1.17508E-03 3.20572E-04-8.40128E-16
 -1       625 9.94351E-04-6.23628E-05-1.94974E-15
 -1       626 1.51525E-03 4.32904E-04-1.34982E-15
 -1       627 4.21699E-03-6.45343E-04-1.00712E-14
 -1       628 1.53633E-03-4.07611E-04-1.75724E-15
 -1       629 1.89793E-03-5.51180E-04-2.50299E-15
 -1       630 2.27468E-03-7.22771E-04-3.38985E-15
 -1       631 3.01689E-03-1.01851E-03-5.62931E-15
 -1       632 4.49136E-03-6.50573E-04-1.20088E-14
 -1       633 4.84866E-03-5.52764E-04-1.39437E-14
 -1       634 5.18517E-03-4.89864E-04-1.59921E-14
 -1       635 5.50381E-03-4.54668E-04-1.81493E-14
 -1       636 5.80960E-03-4.39375E-04-2.04096E-14
 -1       637 6.10719E-03-4.37925E-04-2.27748E-14
 -1       638 6.39987E-03-4.45800E-04-2.52392E-14
 -1       639 6.68973E-03-4.59661E-04-2.78015E-14
 -1       640 6.97803E-03-4.77070E-04-3.04594E-14
 -1       641 7.26544E-03-4.96290E-04-3.32103E-14
 -1       642 7.55236E-03-5.16129E-04-3.60530E-14
 -1       643 7.83897E-03-5.35808E-04-3.89843E-14
 -1       644 8.12537E-03-5.54858E-04-4.19957E-14
 -1       645 8.41162E-03-5.73030E-04-4.50891E-14
 -1       646 8.69775E-03-5.90227E-04-4.82641E-14
 -1       647 8.98379E-03-6.06453E-04-5.15167E-14
 -1       648 9.26975E-03-6.21770E-04-5.48507E-14
 -1       649 9.55564E-03-6.36274E-04-5.82519E-14
 -1       650 9.84149E-03-6.50074E-04-6.17147E-14
 -1       651 1.01273E-02-6.63283E-04-6.52311E-14
 -1       652 1.04131E-02-6.76003E-04-6.87996E-14
 -1       653 1.06988E-02-6.88331E-04-7.24154E-14
 -1       654 1.09846E-02-7.00347E-04-7.60731E-14
 -1       655 1.12703E-02-7.12122E-04-7.97733E-14
 -1       656 1.15560E-02-7.23712E-04-8.35159E-14
 -1       657 1.18418E-02-7.35165E-04-8.72908E-14
 -1       658 1.21275E-02-7.46516E-04-9.10970E-14
 -1       659 1.24132E-02-7.57795E-04-9.49512E-14
 -1       660 1.26989E-02-7.69023E-04-9.88476E-14
 -1       661 1.29846E-02-7.80219E-04-1.02785E-13
 -1       662 1.32703E-02-7.91394E-04-1.06764E-13
 -1       663 1.35560E-02-8.02557E-04-1.10774E-13
 -1       664 1.38417E-02-8.13717E-04-1.14806E-13
 -1       665 1.41275E-02-8.24878E-04-1.18854E-13
 -1       666 2.57012E-03 8.34029E-04-3.68217E-15
 -1       667 4.35943E-03 3.91927E-04-1.01538E-14
 -1       668 2.22031E-03 7.01130E-04-2.76377E-15
 -1       669 3.23727E-03 9.40904E-04-5.97824E-15
 -1       670 3.57082E-03 8.77163E-04-7.36312E-15
 -1       671 3.91603E-03 7.62418E-04-8.89793E-15
 -1       672 4.26761E-03 6.34825E-04-1.05756E-14
 -1       673 4.61641E-03 5.21523E-04-1.23844E-14
 -1       674 4.95493E-03 4.32552E-04-1.43146E-14
 -1       675 5.28107E-03 3.67654E-04-1.63610E-14
 -1       676 5.59621E-03 3.22882E-04-1.85189E-14
 -1       677 5.90278E-03 2.93386E-04-2.07876E-14
 -1       678 6.20320E-03 2.74782E-04-2.31624E-14
 -1       679 6.49937E-03 2.63507E-04-2.56373E-14
 -1       680 6.79263E-03 2.56818E-04-2.82119E-14
 -1       681 7.08385E-03 2.52694E-04-3.08783E-14
 -1       682 7.37365E-03 2.49707E-04-3.36326E-14
 -1       683 7.66239E-03 2.46901E-04-3.64711E-14
 -1       684 7.95036E-03 2.43676E-04-3.93954E-14
 -1       685 8.23775E-03 2.39690E-04-4.24008E-14
 -1       686 8.52469E-03 2.34785E-04-4.54818E-14
 -1       687 8.81128E-03 2.28922E-04-4.86389E-14
 -1       688 9.09762E-03 2.22140E-04-5.18650E-14
 -1       689 9.38376E-03 2.14521E-04-5.51619E-14
 -1       690 9.66976E-03 2.06169E-04-5.85198E-14
 -1       691 9.95566E-03 1.97194E-04-6.19398E-14
 -1       692 1.02415E-02 1.87701E-04-6.54218E-14
 -1       693 1.05273E-02 1.77788E-04-6.89648E-14
 -1       694 1.08130E-02 1.67541E-04-7.25727E-14
 -1       695 1.10987E-02 1.57033E-04-7.62451E-14
 -1       696 1.13844E-02 1.46324E-04-7.99705E-14
 -1       697 1.16701E-02 1.35464E-04-8.37486E-14
 -1       698 1.19558E-02 1.24494E-04-8.75830E-14
 -1       699 1.22415E-02 1.13444E-04-9.14752E-14
 -1       700 1.25272E-02 1.02337E-04-9.54189E-14
 -1       701 1.28129E-02 9.11938E-05-9.94127E-14
 -1       702 1.30986E-02 8.00265E-05-1.03447E-13
 -1       703 1.33843E-02 6.88460E-05-1.07503E-13
 -1       704 1.36700E-02 5.76598E-05-1.11586E-13
 -1       705 1.39557E-02 4.64740E-05-1.15690E-13
 -1       706 1.41802E-02 2.17274E-05-1.18958E-13
 -1       707 1.42063E-02-3.71329E-04-1.19759E-13
 -1       708 1.43208E-02-8.34097E-04-1.21606E-13
 -1       709 1.41844E-02-2.02683E-04-1.19282E-13
 -1       710 2.39768E-03-7.46050E-04-3.86379E-15
 -1       711 1.42173E-02-4.55655E-04-1.19982E-13
 -1       712 1.41953E-02-2.87004E-04-1.19526E-13
 -1       713 1.42281E-02-5.38551E-04-1.20188E-13
 -1       714 1.42391E-02-6.22872E-04-1.20385E-13
 -1       715 1.42502E-02-7.07188E-04-1.20568E-13
 -1       716 1.86551E-03 5.61144E-04-1.98891E-15
 -1       717 2.53220E-03 7.22398E-04-3.94908E-15
 -1       718 9.33284E-04-2.08683E-04-7.56150E-16
 -1       719 3.97345E-03 5.99659E-04-8.81763E-15
 -1       720 1.24709E-03-1.42914E-04-2.16839E-15
 -1       721 3.25767E-03 8.84805E-04-6.16101E-15
 -1       722 2.90815E-03 9.25234E-04-4.75106E-15
 -1       723 1.22662E-03-2.99415E-04-1.20458E-15
 -1       724 4.82937E-03 1.62473E-04-1.16447E-14
 -1       725 5.45419E-03-8.48201E-05-1.32937E-14
 -1       726 7.98307E-04 4.87580E-05-8.12538E-16
 -1       727 7.53156E-04-5.66632E-05-8.82280E-16
 -1       728 8.72691E-04-2.19453E-05-1.77326E-15
 -1       729 5.16679E-03-1.96506E-04-1.26882E-14
 -1       730 1.98049E-03-5.07250E-04-3.04530E-15
 -1       731 3.60867E-03 7.81882E-04-7.48444E-15
 -1       732 1.35484E-03 1.14770E-04-2.27167E-15
 -1       733 1.08071E-03 2.54345E-05-1.93900E-15
 -1       734 5.37847E-03-1.25243E-04-1.31688E-14
 -1       735 4.83863E-03-3.28601E-04-1.18702E-14
 -1       736 4.55247E-03-4.65788E-04-1.10838E-14
 -1       737 5.18134E-03 2.19706E-05-1.26858E-14
 -1       738 5.37534E-03-4.67439E-05-1.31159E-14
 -1       739 1.56586E-03-2.80267E-04-2.52126E-15
 -1       740 8.67778E-04-3.48333E-05-1.82807E-15
 -1       741 8.57476E-04-1.13291E-04-8.76784E-16
 -1       742 6.21299E-04-1.85588E-05-8.71404E-16
 -1       743 2.72358E-03 8.21449E-04-4.36069E-15
 -1       744 8.95687E-04-7.67511E-06-1.58079E-15
 -1       745 2.65846E-03-9.09686E-04-4.41483E-15
 -1       746 4.20775E-03-7.40172E-04-1.05818E-14
 -1       747 1.41735E-02-1.19081E-04-1.19036E-13
 -1       748 4.65093E-03 2.84830E-04-1.15279E-14
 -1       749 1.41769E-02-4.86740E-05-1.19002E-13
 -1       750 6.65662E-04-2.66894E-05-8.79837E-16
 -1       751 2.32096E-03 6.24925E-04-3.43135E-15
 -1       752 1.51951E-03 1.96700E-04-2.29614E-15
 -1       753 1.92459E-03 3.94527E-04-2.84342E-15
 -1       754 1.41888E-02-7.66035E-04-1.19712E-13
 -1       755 1.21069E-03 2.25543E-04-1.16822E-15
 -1       756 7.68023E-04-2.44358E-05-1.39103E-15
 -1       757 4.49719E-03-5.62851E-04-1.15528E-14
 -1       758 5.11899E-03-4.06071E-04-1.49526E-14
 -1       759 5.43042E-03-3.73779E-04-1.70542E-14
 -1       760 5.72543E-03-3.61140E-04-1.92586E-14
 -1       761 6.01146E-03-3.61084E-04-2.15645E-14
 -1       762 6.29313E-03-3.69215E-04-2.39730E-14
 -1       763 6.57322E-03-3.82636E-04-2.64804E-14
 -1       764 6.85320E-03-3.99312E-04-2.90816E-14
 -1       765 7.13376E-03-4.17768E-04-3.17787E-14
 -1       766 7.41517E-03-4.36948E-04-3.45689E-14
 -1       767 7.69746E-03-4.56124E-04-3.74471E-14
 -1       768 7.98054E-03-4.74827E-04-4.04090E-14
 -1       769 8.26429E-03-4.92786E-04-4.34511E-14
 -1       770 8.54858E-03-5.09875E-04-4.65773E-14
 -1       771 8.83330E-03-5.26065E-04-4.97834E-14
 -1       772 9.11833E-03-5.41396E-04-5.30654E-14
 -1       773 9.40359E-03-5.55944E-04-5.64229E-14
 -1       774 9.68903E-03-5.69805E-04-5.98463E-14
 -1       775 9.97459E-03-5.83078E-04-6.33277E-14
 -1       776 1.02602E-02-5.95864E-04-6.68639E-14
 -1       777 1.05459E-02-6.08251E-04-7.04504E-14
 -1       778 1.08317E-02-6.20321E-04-7.40816E-14
 -1       779 1.11174E-02-6.32141E-04-7.77576E-14
 -1       780 1.14032E-02-6.43770E-04-8.14769E-14
 -1       781 1.16889E-02-6.55254E-04-8.52330E-14
 -1       782 1.19747E-02-6.66630E-04-8.90200E-14
 -1       783 1.22604E-02-6.77929E-04-9.28504E-14
 -1       784 1.25462E-02-6.89173E-04-9.67248E-14
 -1       785 1.28319E-02-7.00379E-04-1.00645E-13
 -1       786 1.31177E-02-7.11562E-04-1.04607E-13
 -1       787 1.34034E-02-7.22730E-04-1.08609E-13
 -1       788 1.36891E-02-7.33892E-04-1.12630E-13
 -1       789 1.39390E-02-7.49962E-04-1.16166E-13
 -1       790 1.67007E-03-3.70982E-04-2.37617E-15
 -1       791 4.52549E-03 4.60600E-04-1.16546E-14
 -1       792 4.87416E-03 3.63956E-04-1.35399E-14
 -1       793 5.20286E-03 2.97384E-04-1.55397E-14
 -1       794 5.51515E-03 2.52977E-04-1.76520E-14
 -1       795 5.81572E-03 2.24161E-04-1.98724E-14
 -1       796 6.10886E-03 2.05883E-04-2.21999E-14
 -1       797 6.39767E-03 1.94569E-04-2.46315E-14
 -1       798 6.68414E-03 1.87636E-04-2.71618E-14
 -1       799 6.96949E-03 1.83218E-04-2.97853E-14
 -1       800 7.25440E-03 1.79985E-04-3.24992E-14
 -1       801 7.53923E-03 1.77022E-04-3.52986E-14
 -1       802 7.82415E-03 1.73735E-04-3.81872E-14
 -1       803 8.10922E-03 1.69769E-04-4.11543E-14
 -1       804 8.39445E-03 1.64942E-04-4.42018E-14
 -1       805 8.67981E-03 1.59195E-04-4.73236E-14
 -1       806 8.96529E-03 1.52548E-04-5.05161E-14
 -1       807 9.25086E-03 1.45070E-04-5.37834E-14
 -1       808 9.53650E-03 1.36853E-04-5.71175E-14
 -1       809 9.82218E-03 1.28002E-04-6.05145E-14
 -1       810 1.01079E-02 1.18619E-04-6.39708E-14
 -1       811 1.03936E-02 1.08801E-04-6.74901E-14
 -1       812 1.06794E-02 9.86327E-05-7.10678E-14
 -1       813 1.09651E-02 8.81892E-05-7.47117E-14
 -1       814 1.12508E-02 7.75326E-05-7.84114E-14
 -1       815 1.15366E-02 6.67143E-05-8.21603E-14
 -1       816 1.18223E-02 5.57756E-05-8.59622E-14
 -1       817 1.21081E-02 4.47494E-05-8.98222E-14
 -1       818 1.23938E-02 3.36610E-05-9.37309E-14
 -1       819 1.26795E-02 2.25300E-05-9.76865E-14
 -1       820 1.29653E-02 1.13712E-05-1.01691E-13
 -1       821 1.32510E-02 1.95582E-07-1.05729E-13
 -1       822 1.35367E-02-1.09885E-05-1.09794E-13
 -1       823 1.38224E-02-2.21750E-05-1.13882E-13
 -1       824 1.39996E-02-3.54254E-05-1.16433E-13
 -1       825 1.39972E-02-6.55362E-04-1.16959E-13
 -1       826 1.02546E-03-8.48503E-05-1.66897E-15
 -1       827 1.39643E-02-4.03816E-04-1.16331E-13
 -1       828 1.39862E-02-5.71041E-04-1.16763E-13
 -1       829 4.15855E-03 5.89985E-04-9.88960E-15
 -1       830 2.34389E-03 6.80189E-04-3.29658E-15
 -1       831 5.37555E-03-1.68892E-04-1.42305E-14
 -1       832 4.82075E-03-4.66698E-04-1.32086E-14
 -1       833 5.42503E-03-1.50035E-05-1.45307E-14
 -1       834 1.39752E-02-4.87430E-04-1.16553E-13
 -1       835 5.51701E-03-7.00418E-05-1.44531E-14
 -1       836 1.18449E-03 7.74685E-05-1.79997E-15
 -1       837 5.10030E-03-2.72492E-04-1.34476E-14
 -1       838 4.80165E-03-3.99671E-04-1.24891E-14
 -1       839 1.36561E-03 3.25781E-04-1.26246E-15
 -1       840 5.12942E-03 1.01296E-04-1.35442E-14
 -1       841 4.21806E-03 5.21865E-04-1.00022E-14
 -1       842 5.51871E-03-1.09524E-04-1.44858E-14
 -1       843 1.32291E-03-1.98253E-04-1.96501E-15
 -1       844 8.23394E-04-3.64949E-05-1.41112E-15
 -1       845 8.68402E-04-5.66214E-05-1.29288E-15
 -1       846 1.30150E-03-2.47295E-04-1.60889E-15
 -1       847 1.39315E-02-1.51198E-04-1.15603E-13
 -1       848 9.75772E-04 4.18259E-05-1.33672E-15
 -1       849 1.39425E-02-2.35519E-04-1.15854E-13
 -1       850 1.97004E-03 5.22927E-04-2.44607E-15
 -1       851 1.39534E-02-3.19666E-04-1.16097E-13
 -1       852 1.66082E-03 4.15178E-04-1.80341E-15
 -1       853 1.09059E-03 1.24060E-04-1.21844E-15
 -1       854 1.31493E-03 1.43413E-04-1.81621E-15
 -1       855 1.68893E-03 2.99599E-04-2.34505E-15
 -1       856 1.39681E-02-7.02663E-04-1.16563E-13
 -1       857 4.95168E-03 2.39575E-04-1.34177E-14
 -1       858 9.91280E-04-1.10687E-04-1.29009E-15
 -1       859 2.07311E-03 5.08102E-04-2.88654E-15
 -1       860 5.44151E-03 4.88047E-05-1.56050E-14
 -1       861 5.62515E-03-5.26303E-05-1.60160E-14
 -1       862 5.66068E-03-2.83568E-04-1.81174E-14
 -1       863 5.92972E-03-2.87187E-04-2.03653E-14
 -1       864 6.19697E-03-2.96764E-04-2.27166E-14
 -1       865 6.46505E-03-3.10166E-04-2.51690E-14
 -1       866 6.73514E-03-3.26042E-04-2.77168E-14
 -1       867 7.00765E-03-3.43378E-04-3.03581E-14
 -1       868 7.28259E-03-3.61399E-04-3.30943E-14
 -1       869 7.55973E-03-3.79523E-04-3.59227E-14
 -1       870 7.83878E-03-3.97341E-04-3.88362E-14
 -1       871 8.11942E-03-4.14595E-04-4.18286E-14
 -1       872 8.40135E-03-4.31143E-04-4.49032E-14
 -1       873 8.68431E-03-4.46934E-04-4.80631E-14
 -1       874 8.96805E-03-4.61978E-04-5.12981E-14
 -1       875 9.25240E-03-4.76327E-04-5.46081E-14
 -1       876 9.53720E-03-4.90055E-04-5.79883E-14
 -1       877 9.82233E-03-5.03245E-04-6.14323E-14
 -1       878 1.01077E-02-5.15982E-04-6.49337E-14
 -1       879 1.03932E-02-5.28344E-04-6.84889E-14
 -1       880 1.06789E-02-5.40405E-04-7.20930E-14
 -1       881 1.09646E-02-5.52227E-04-7.57443E-14
 -1       882 1.12503E-02-5.63863E-04-7.94372E-14
 -1       883 1.15361E-02-5.75358E-04-8.31750E-14
 -1       884 1.18219E-02-5.86746E-04-8.69413E-14
 -1       885 1.21077E-02-5.98056E-04-9.07527E-14
 -1       886 1.23935E-02-6.09311E-04-9.46067E-14
 -1       887 1.26792E-02-6.20527E-04-9.85070E-14
 -1       888 1.29650E-02-6.31717E-04-1.02450E-13
 -1       889 1.32508E-02-6.42891E-04-1.06434E-13
 -1       890 1.35365E-02-6.54057E-04-1.10450E-13
 -1       891 5.45175E-03 1.79701E-04-1.67834E-14
 -1       892 5.74304E-03 1.54491E-04-1.89583E-14
 -1       893 6.02619E-03 1.38591E-04-2.12400E-14
 -1       894 6.30557E-03 1.28380E-04-2.36248E-14
 -1       895 6.58362E-03 1.21683E-04-2.61122E-14
 -1       896 6.86174E-03 1.17008E-04-2.86948E-14
 -1       897 7.14062E-03 1.13301E-04-3.13684E-14
 -1       898 7.42054E-03 1.09820E-04-3.41288E-14
 -1       899 7.70154E-03 1.06059E-04-3.69779E-14
 -1       900 7.98356E-03 1.01704E-04-3.99089E-14
 -1       901 8.26645E-03 9.65818E-05-4.29211E-14
 -1       902 8.55007E-03 9.06247E-05-4.60086E-14
 -1       903 8.83427E-03 8.38386E-05-4.91698E-14
 -1       904 9.11893E-03 7.62761E-05-5.24012E-14
 -1       905 9.40393E-03 6.80162E-05-5.57076E-14
 -1       906 9.68919E-03 5.91501E-05-5.90824E-14
 -1       907 9.97463E-03 4.97712E-05-6.25166E-14
 -1       908 1.02602E-02 3.99681E-05-6.60089E-14
 -1       909 1.05459E-02 2.98214E-05-6.95618E-14
 -1       910 1.08316E-02 1.94016E-05-7.31783E-14
 -1       911 1.11173E-02 8.76885E-06-7.68542E-14
 -1       912 1.14031E-02-2.02715E-06-8.05797E-14
 -1       913 1.16889E-02-1.29458E-05-8.43516E-14
 -1       914 1.19746E-02-2.39548E-05-8.81775E-14
 -1       915 1.22604E-02-3.50288E-05-9.20556E-14
 -1       916 1.25462E-02-4.61482E-05-9.59768E-14
 -1       917 1.28319E-02-5.72979E-05-9.99459E-14
 -1       918 1.31177E-02-6.84670E-05-1.03961E-13
 -1       919 1.34034E-02-7.96470E-05-1.08005E-13
 -1       920 1.36892E-02-9.08316E-05-1.12075E-13
 -1       921 1.39656E-02-9.33097E-05-1.16021E-13
 -1       922 5.66009E-03-9.85310E-05-1.60650E-14
 -1       923 1.37442E-02-6.03534E-04-1.13356E-13
 -1       924 5.38441E-03-2.90452E-04-1.59687E-14
 -1       925 5.58807E-03-1.47628E-04-1.58717E-14
 -1       926 5.35833E-03-2.34198E-04-1.51169E-14
 -1       927 1.49230E-03 2.98320E-04-1.68573E-15
 -1       928 1.83403E-03 4.09683E-04-2.37793E-15
 -1       929 5.67584E-03-2.89808E-06-1.71400E-14
 -1       930 1.37523E-02-6.78360E-04-1.13505E-13
 -1       931 1.37001E-02-1.75150E-04-1.12335E-13
 -1       932 1.37114E-02-3.52063E-04-1.12687E-13
 -1       933 1.37333E-02-5.19922E-04-1.13149E-13
 -1       934 1.37223E-02-4.35681E-04-1.12923E-13
 -1       935 5.21976E-03 1.58387E-04-1.48346E-14
 -1       936 6.10875E-03-2.29652E-04-2.14711E-14
 -1       937 6.36243E-03-2.43032E-04-2.38692E-14
 -1       938 6.62132E-03-2.57844E-04-2.63621E-14
 -1       939 6.88499E-03-2.73638E-04-2.89500E-14
 -1       940 7.15291E-03-2.89980E-04-3.16322E-14
 -1       941 7.42448E-03-3.06494E-04-3.44090E-14
 -1       942 7.69913E-03-3.22874E-04-3.72741E-14
 -1       943 7.97632E-03-3.38900E-04-4.02202E-14
 -1       944 8.25559E-03-3.54436E-04-4.32440E-14
 -1       945 8.53651E-03-3.69414E-04-4.63541E-14
 -1       946 8.81873E-03-3.83820E-04-4.95421E-14
 -1       947 9.10196E-03-3.97679E-04-5.28052E-14
 -1       948 9.38595E-03-4.11037E-04-5.61409E-14
 -1       949 9.67051E-03-4.23954E-04-5.95456E-14
 -1       950 9.95548E-03-4.36492E-04-6.30103E-14
 -1       951 1.02408E-02-4.48715E-04-6.65306E-14
 -1       952 1.05262E-02-4.60680E-04-7.01046E-14
 -1       953 1.08119E-02-4.72439E-04-7.37300E-14
 -1       954 1.10976E-02-4.84036E-04-7.74017E-14
 -1       955 1.13833E-02-4.95507E-04-8.11159E-14
 -1       956 1.16691E-02-5.06884E-04-8.48647E-14
 -1       957 1.19549E-02-5.18191E-04-8.86513E-14
 -1       958 1.22407E-02-5.29447E-04-9.24869E-14
 -1       959 1.25265E-02-5.40666E-04-9.63692E-14
 -1       960 1.28123E-02-5.51862E-04-1.00290E-13
 -1       961 1.30981E-02-5.63041E-04-1.04256E-13
 -1       962 1.33839E-02-5.74212E-04-1.08261E-13
 -1       963 5.95525E-03 7.35379E-05-2.02782E-14
 -1       964 5.68684E-03 8.54075E-05-1.80432E-14
 -1       965 6.22205E-03 6.54831E-05-2.26194E-14
 -1       966 6.48968E-03 5.94900E-05-2.50624E-14
 -1       967 6.75921E-03 5.45996E-05-2.76022E-14
 -1       968 7.03108E-03 5.02046E-05-3.02354E-14
 -1       969 7.30532E-03 4.58433E-05-3.29577E-14
 -1       970 7.58180E-03 4.11816E-05-3.57661E-14
 -1       971 7.86023E-03 3.59960E-05-3.86620E-14
 -1       972 8.14034E-03 3.01566E-05-4.16370E-14
 -1       973 8.42183E-03 2.36080E-05-4.46918E-14
 -1       974 8.70443E-03 1.63510E-05-4.78213E-14
 -1       975 8.98791E-03 8.42455E-06-5.10224E-14
 -1       976 9.27206E-03-1.08904E-07-5.42964E-14
 -1       977 9.55672E-03-9.17498E-06-5.76421E-14
 -1       978 9.84175E-03-1.86959E-05-6.10553E-14
 -1       979 1.01271E-02-2.85964E-05-6.45246E-14
 -1       980 1.04126E-02-3.88070E-05-6.80505E-14
 -1       981 1.06982E-02-4.92661E-05-7.16407E-14
 -1       982 1.09839E-02-5.99210E-05-7.52915E-14
 -1       983 1.12696E-02-7.07270E-05-7.89981E-14
 -1       984 1.15554E-02-8.16479E-05-8.27482E-14
 -1       985 1.18412E-02-9.26542E-05-8.65423E-14
 -1       986 1.21270E-02-1.03723E-04-9.03905E-14
 -1       987 1.24128E-02-1.14835E-04-9.42807E-14
 -1       988 1.26986E-02-1.25978E-04-9.82145E-14
 -1       989 1.29844E-02-1.37141E-04-1.02200E-13
 -1       990 1.32701E-02-1.48316E-04-1.06223E-13
 -1       991 1.34851E-02-1.61732E-04-1.09272E-13
 -1       992 5.80822E-03-8.21200E-05-1.77419E-14
 -1       993 1.37005E-02-2.67911E-04-1.12443E-13
 -1       994 5.86042E-03-2.18274E-04-1.91785E-14
 -1       995 5.62158E-03-2.06726E-04-1.69845E-14
 -1       996 5.78663E-03-1.34381E-04-1.76626E-14
 -1       997 1.34584E-02-3.00308E-04-1.09059E-13
 -1       998 1.34693E-02-3.83928E-04-1.09301E-13
 -1       999 6.50791E-03-1.95134E-04-2.50169E-14
 -1      1000 6.76270E-03-2.08799E-04-2.75523E-14
 -1      1001 7.02371E-03-2.22906E-04-3.01809E-14
 -1      1002 7.28983E-03-2.37264E-04-3.29053E-14
 -1      1003 7.56016E-03-2.51673E-04-3.57199E-14
 -1      1004 7.83395E-03-2.65965E-04-3.86187E-14
 -1      1005 8.11053E-03-2.80018E-04-4.15969E-14
 -1      1006 8.38937E-03-2.93760E-04-4.46554E-14
 -1      1007 8.67000E-03-3.07157E-04-4.77953E-14
 -1      1008 8.95202E-03-3.20208E-04-5.10125E-14
 -1      1009 9.23512E-03-3.32930E-04-5.43028E-14
 -1      1010 9.51903E-03-3.45355E-04-5.76641E-14
 -1      1011 9.80355E-03-3.57519E-04-6.10924E-14
 -1      1012 1.00885E-02-3.69464E-04-6.45752E-14
 -1      1013 1.03738E-02-3.81225E-04-6.81177E-14
 -1      1014 1.06593E-02-3.92838E-04-7.17140E-14
 -1      1015 1.09449E-02-4.04334E-04-7.53626E-14
 -1      1016 1.12306E-02-4.15737E-04-7.90538E-14
 -1      1017 1.15164E-02-4.27071E-04-8.27845E-14
 -1      1018 1.18022E-02-4.38351E-04-8.65520E-14
 -1      1019 1.20880E-02-4.49593E-04-9.03671E-14
 -1      1020 1.23739E-02-4.60807E-04-9.42272E-14
 -1      1021 1.26597E-02-4.72002E-04-9.81316E-14
 -1      1022 1.29455E-02-4.83184E-04-1.02075E-13
 -1      1023 1.32313E-02-4.94358E-04-1.06063E-13
 -1      1024 5.91303E-03-8.25231E-06-1.93302E-14
 -1      1025 6.39999E-03 1.85002E-06-2.40114E-14
 -1      1026 6.65976E-03-3.47600E-06-2.65088E-14
 -1      1027 6.92394E-03-8.87002E-06-2.90992E-14
 -1      1028 7.19209E-03-1.45079E-05-3.17825E-14
 -1      1029 7.46372E-03-2.05147E-05-3.45558E-14
 -1      1030 7.73834E-03-2.69870E-05-3.74143E-14
 -1      1031 8.01545E-03-3.39857E-05-4.03533E-14
 -1      1032 8.29461E-03-4.15355E-05-4.33725E-14
 -1      1033 8.57544E-03-4.96294E-05-4.64701E-14
 -1      1034 8.85758E-03-5.82368E-05-4.96419E-14
 -1      1035 9.14074E-03-6.73113E-05-5.28859E-14
 -1      1036 9.42469E-03-7.67982E-05-5.62011E-14
 -1      1037 9.70922E-03-8.66394E-05-5.95900E-14
 -1      1038 9.99418E-03-9.67785E-05-6.30379E-14
 -1      1039 1.02794E-02-1.07163E-04-6.65401E-14
 -1      1040 1.05649E-02-1.17745E-04-7.01014E-14
 -1      1041 1.08506E-02-1.28485E-04-7.37277E-14
 -1      1042 1.11363E-02-1.39347E-04-7.74126E-14
 -1      1043 1.14220E-02-1.50303E-04-8.11425E-14
 -1      1044 1.17079E-02-1.61329E-04-8.49130E-14
 -1      1045 1.19937E-02-1.72407E-04-8.87283E-14
 -1      1046 1.22795E-02-1.83523E-04-9.25922E-14
 -1      1047 1.25653E-02-1.94665E-04-9.64952E-14
 -1      1048 1.28511E-02-2.05824E-04-1.00447E-13
 -1      1049 1.31369E-02-2.16995E-04-1.04444E-13
 -1      1050 6.26063E-03-1.82173E-04-2.25779E-14
 -1      1051 1.34768E-02-4.65019E-04-1.09485E-13
 -1      1052 6.15142E-03-3.08508E-06-2.16196E-14
 -1      1053 6.01319E-03-1.57335E-04-2.00601E-14
 -1      1054 6.04150E-03-9.99214E-05-2.01490E-14
 -1      1055 1.34718E-02-2.31018E-04-1.09166E-13
 -1      1056 1.32164E-02-3.32441E-04-1.05694E-13
 -1      1057 6.89183E-03-1.59933E-04-2.87381E-14
 -1      1058 7.15338E-03-1.71676E-04-3.14101E-14
 -1      1059 7.42006E-03-1.83676E-04-3.41760E-14
 -1      1060 7.69090E-03-1.95803E-04-3.70247E-14
 -1      1061 7.96514E-03-2.07960E-04-3.99574E-14
 -1      1062 8.24212E-03-2.20077E-04-4.29683E-14
 -1      1063 8.52130E-03-2.32112E-04-4.60589E-14
 -1      1064 8.80220E-03-2.44040E-04-4.92292E-14
 -1      1065 9.08445E-03-2.55855E-04-5.24740E-14
 -1      1066 9.36773E-03-2.67559E-04-5.57913E-14
 -1      1067 9.65179E-03-2.79162E-04-5.91801E-14
 -1      1068 9.93642E-03-2.90674E-04-6.26277E-14
 -1      1069 1.02215E-02-3.02110E-04-6.61332E-14
 -1      1070 1.05068E-02-3.13482E-04-6.96939E-14
 -1      1071 1.07924E-02-3.24803E-04-7.33148E-14
 -1      1072 1.10780E-02-3.36084E-04-7.69864E-14
 -1      1073 1.13638E-02-3.47333E-04-8.06994E-14
 -1      1074 1.16496E-02-3.58558E-04-8.44517E-14
 -1      1075 1.19354E-02-3.69765E-04-8.82451E-14
 -1      1076 1.22212E-02-3.80960E-04-9.20836E-14
 -1      1077 1.25070E-02-3.92145E-04-9.59667E-14
 -1      1078 1.27929E-02-4.03324E-04-9.98924E-14
 -1      1079 1.30787E-02-4.14498E-04-1.03857E-13
 -1      1080 6.81657E-03-6.36885E-05-2.79603E-14
 -1      1081 7.07873E-03-7.10614E-05-3.06040E-14
 -1      1082 7.34568E-03-7.88619E-05-3.33405E-14
 -1      1083 7.61660E-03-8.70647E-05-3.61634E-14
 -1      1084 7.89081E-03-9.56533E-05-3.90674E-14
 -1      1085 8.16771E-03-1.04610E-04-4.20514E-14
 -1      1086 8.44679E-03-1.13911E-04-4.51146E-14
 -1      1087 8.72759E-03-1.23529E-04-4.82543E-14
 -1      1088 9.00974E-03-1.33429E-04-5.14709E-14
 -1      1089 9.29294E-03-1.43577E-04-5.47592E-14
 -1      1090 9.57693E-03-1.53938E-04-5.81195E-14
 -1      1091 9.86151E-03-1.64477E-04-6.15439E-14
 -1      1092 1.01465E-02-1.75163E-04-6.50252E-14
 -1      1093 1.04318E-02-1.85969E-04-6.85642E-14
 -1      1094 1.07173E-02-1.96870E-04-7.21618E-14
 -1      1095 1.10030E-02-2.07846E-04-7.58229E-14
 -1      1096 1.12887E-02-2.18879E-04-7.95309E-14
 -1      1097 1.15745E-02-2.29957E-04-8.32792E-14
 -1      1098 1.18603E-02-2.41066E-04-8.70694E-14
 -1      1099 1.21462E-02-2.52199E-04-9.09049E-14
 -1      1100 1.24320E-02-2.63349E-04-9.47839E-14
 -1      1101 1.27178E-02-2.74511E-04-9.87056E-14
 -1      1102 1.29671E-02-3.03474E-04-1.02185E-13
 -1      1103 6.38933E-03-1.37669E-04-2.36827E-14
 -1      1104 6.21273E-03-1.18128E-04-2.18880E-14
 -1      1105 6.56015E-03-5.68019E-05-2.54122E-14
 -1      1106 6.63658E-03-1.48600E-04-2.61626E-14
 -1      1107 6.18407E-03-5.34021E-05-2.16976E-14
 -1      1108 0.00000E+00 0.00000E+00 0.00000E+00
 -1      1109 0.00000E+00 0.00000E+00 0.00000E+00
 -1      1110 0.00000E+00 0.00000E+00 0.00000E+00
 -1      1111 0.00000E+00 0.00000E+00 0.00000E+00
 -1      1112 0.00000E+00 0.00000E+00 0.00000E+00
 -1      1113 0.00000E+00 0.00000E+00 0.00000E+00
 -1      1114 0.00000E+00 0.00000E+00 0.00000E+00
 -1      1115 0.00000E+00 0.00000E+00 0.00000E+00
 -1      1116 0.00000E+00 0.00000E+00 0.00000E+00
 -1      1117 0.00000E+00 0.00000E+00 0.00000E+00
 -1      1118 0.00000E+00 0.00000E+00 0.00000E+00
 -1      1119 0.00000E+00 0.00000E+00 0.00000E+00
 -1      1120 0.00000E+00 0.00000E+00 0.00000E+00
 -1      1121 0.00000E+00 0.00000E+00 0.00000E+00
 -1      1122 0.00000E+00 0.00000E+00 0.00000E+00
 -1      1123 0.00000E+00 0.00000E+00 0.00000E+00
 -1      1124 0.00000E+00 0.00000E+00 0.00000E+00
 -1      1125 2.44916E-04-1.54334E-04 1.04219E-17
 -1      1126 6.61104E-04-3.43222E-04-6.26262E-17
 -1      1127 1.02840E-03-4.79709E-04-2.71294E-16
 -1      1128 1.38971E-03-6.02864E-04-6.38175E-16
 -1      1129 1.74558E-03-7.31705E-04-1.15705E-15
 -1      1130 2.09029E-03-8.71658E-04-1.82700E-15
 -1      1131 2.41543E-03-1.01694E-03-2.65083E-15
 -1      1132 2.71409E-03-1.15095E-03-3.63036E-15
 -1      1133 2.98632E-03-1.25019E-03-4.76904E-15
 -1      1134 3.24235E-03-1.29374E-03-6.06870E-15
 -1      1135 3.49995E-03-1.27421E-03-7.52518E-15
 -1      1136 3.77625E-03-1.20235E-03-9.12799E-15
 -1      1137 4.08010E-03-1.10150E-03-1.08712E-14
 -1      1138 4.41001E-03-9.96678E-04-1.27482E-14
 -1      1139 4.75753E-03-9.06035E-04-1.47490E-14
 -1      1140 5.11242E-03-8.38110E-04-1.68672E-14
 -1      1141 5.46622E-03-7.93854E-04-1.90981E-14
 -1      1142 5.81351E-03-7.70017E-04-2.14394E-14
 -1      1143 6.15169E-03-7.61887E-04-2.38888E-14
 -1      1144 6.48018E-03-7.64874E-04-2.64416E-14
 -1      1145 6.79957E-03-7.75177E-04-2.90893E-14
 -1      1146 7.11103E-03-7.89924E-04-3.18289E-14
 -1      1147 7.41591E-03-8.07072E-04-3.46586E-14
 -1      1148 7.71553E-03-8.25243E-04-3.75850E-14
 -1      1149 8.01105E-03-8.43554E-04-4.06017E-14
 -1      1150 8.30346E-03-8.61474E-04-4.37001E-14
 -1      1151 8.59356E-03-8.78716E-04-4.68780E-14
 -1      1152 8.88199E-03-8.95155E-04-5.01384E-14
 -1      1153 9.16924E-03-9.10770E-04-5.34829E-14
 -1      1154 9.45568E-03-9.25604E-04-5.68995E-14
 -1      1155 9.74158E-03-9.39731E-04-6.03755E-14
 -1      1156 1.00272E-02-9.53243E-04-6.39030E-14
 -1      1157 1.03125E-02-9.66234E-04-6.74727E-14
 -1      1158 1.05978E-02-9.78795E-04-7.10922E-14
 -1      1159 1.08831E-02-9.91007E-04-7.47636E-14
 -1      1160 1.11683E-02-1.00294E-03-7.84727E-14
 -1      1161 1.14537E-02-1.01466E-03-8.22040E-14
 -1      1162 1.17390E-02-1.02622E-03-8.59715E-14
 -1      1163 1.20244E-02-1.03765E-03-8.97723E-14
 -1      1164 1.23099E-02-1.04899E-03-9.36079E-14
 -1      1165 1.25954E-02-1.06026E-03-9.74790E-14
 -1      1166 1.28809E-02-1.07149E-03-1.01386E-13
 -1      1167 1.31665E-02-1.08269E-03-1.05332E-13
 -1      1168 1.34521E-02-1.09387E-03-1.09314E-13
 -1      1169 1.37378E-02-1.10504E-03-1.13341E-13
 -1      1170 1.40235E-02-1.11621E-03-1.17395E-13
 -1      1171 1.43092E-02-1.12738E-03-1.21460E-13
 -1      1172 1.45949E-02-1.13856E-03-1.25536E-13
 -1      1173 1.48806E-02-1.14974E-03-1.29639E-13
 -1      1174 1.51591E-02-1.16066E-03-1.33671E-13
 -1      1175 2.61097E-04 1.68971E-04 3.38136E-17
 -1      1176 6.53736E-04 3.52418E-04 1.83501E-17
 -1      1177 1.00975E-03 4.86896E-04-1.14194E-16
 -1      1178 1.35826E-03 6.05852E-04-3.80175E-16
 -1      1179 1.69926E-03 7.25299E-04-7.82401E-16
 -1      1180 2.02831E-03 8.49282E-04-1.32502E-15
 -1      1181 2.33914E-03 9.72327E-04-2.01355E-15
 -1      1182 2.62730E-03 1.08076E-03-2.84619E-15
 -1      1183 2.89402E-03 1.15646E-03-3.82745E-15
 -1      1184 3.14807E-03 1.18396E-03-4.96020E-15
 -1      1185 3.40355E-03 1.15801E-03-6.24496E-15
 -1      1186 3.67416E-03 1.08679E-03-7.68094E-15
 -1      1187 3.96762E-03 9.88200E-04-9.26191E-15
 -1      1188 4.28383E-03 8.82231E-04-1.09802E-14
 -1      1189 4.61687E-03 7.84444E-04-1.28310E-14
 -1      1190 4.95867E-03 7.03379E-04-1.48081E-14
 -1      1191 5.30190E-03 6.41369E-04-1.69086E-14
 -1      1192 5.64135E-03 5.96820E-04-1.91276E-14
 -1      1193 5.97409E-03 5.66374E-04-2.14584E-14
 -1      1194 6.29899E-03 5.46338E-04-2.38977E-14
 -1      1195 6.61614E-03 5.33420E-04-2.64361E-14
 -1      1196 6.92625E-03 5.24994E-04-2.90660E-14
 -1      1197 7.23036E-03 5.19116E-04-3.17817E-14
 -1      1198 7.52956E-03 5.14423E-04-3.45866E-14
 -1      1199 7.82487E-03 5.10015E-04-3.74780E-14
 -1      1200 8.11719E-03 5.05330E-04-4.04492E-14
 -1      1201 8.40726E-03 5.00053E-04-4.34937E-14
 -1      1202 8.69569E-03 4.94033E-04-4.66177E-14
 -1      1203 8.98295E-03 4.87232E-04-4.98170E-14
 -1      1204 9.26941E-03 4.79676E-04-5.30851E-14
 -1      1205 9.55533E-03 4.71431E-04-5.64086E-14
 -1      1206 9.84091E-03 4.62582E-04-5.97970E-14
 -1      1207 1.01263E-02 4.53219E-04-6.32448E-14
 -1      1208 1.04116E-02 4.43429E-04-6.67481E-14
 -1      1209 1.06969E-02 4.33293E-04-7.03164E-14
 -1      1210 1.09821E-02 4.22882E-04-7.39652E-14
 -1      1211 1.12674E-02 4.12256E-04-7.76865E-14
 -1      1212 1.15528E-02 4.01465E-04-8.14791E-14
 -1      1213 1.18382E-02 3.90549E-04-8.53268E-14
 -1      1214 1.21237E-02 3.79543E-04-8.92139E-14
 -1      1215 1.24092E-02 3.68471E-04-9.31623E-14
 -1      1216 1.26947E-02 3.57354E-04-9.71661E-14
 -1      1217 1.29803E-02 3.46207E-04-1.01212E-13
 -1      1218 1.32659E-02 3.35041E-04-1.05309E-13
 -1      1219 1.35516E-02 3.23866E-04-1.09424E-13
 -1      1220 1.38372E-02 3.12688E-04-1.13551E-13
 -1      1221 1.41229E-02 3.01513E-04-1.17705E-13
 -1      1222 1.44086E-02 2.90345E-04-1.21890E-13
 -1      1223 1.46943E-02 2.79185E-04-1.26105E-13
 -1      1224 1.49729E-02 2.68313E-04-1.30231E-13
 -1      1225 1.51141E-02 2.20875E-04-1.32371E-13
 -1      1226 1.51251E-02 1.36590E-04-1.32666E-13
 -1      1227 1.51360E-02 5.23014E-05-1.32939E-13
 -1      1228 1.51470E-02-3.19949E-05-1.33188E-13
 -1      1229 1.51579E-02-1.16302E-04-1.33410E-13
 -1      1230 1.51688E-02-1.99906E-04-1.33622E-13
 -1      1231 1.51796E-02-2.83519E-04-1.33836E-13
 -1      1232 1.51906E-02-3.67855E-04-1.34029E-13
 -1      1233 1.52016E-02-4.52196E-04-1.34220E-13
 -1      1234 1.52126E-02-5.36536E-04-1.34398E-13
 -1      1235 1.52236E-02-6.20872E-04-1.34560E-13
 -1      1236 1.52345E-02-7.04485E-04-1.34717E-13
 -1      1237 1.52454E-02-7.88089E-04-1.34885E-13
 -1      1238 1.52565E-02-8.72396E-04-1.35064E-13
 -1      1239 1.52675E-02-9.56692E-04-1.35232E-13
 -1      1240 1.52785E-02-1.04098E-03-1.35396E-13
 -1      1241 1.52894E-02-1.12455E-03-1.35565E-13
 -1      1242 5.34399E-03-6.58975E-06-9.38893E-15
 -1      1243 5.23746E-03 1.31166E-04-9.19889E-15
 -1      1244 5.03503E-03 2.73704E-04-8.86758E-15
 -1      1245 4.72781E-03 4.27921E-04-8.38017E-15
 -1      1246 4.34755E-03 5.74130E-04-7.77229E-15
 -1      1247 3.94138E-03 6.88510E-04-7.12318E-15
 -1      1248 3.50576E-03 7.62330E-04-6.43894E-15
 -1      1249 3.06142E-03 7.80870E-04-5.76568E-15
 -1      1250 2.60563E-03 7.39095E-04-5.11090E-15
 -1      1251 2.16978E-03 6.46651E-04-4.52625E-15
 -1      1252 1.75996E-03 5.15261E-04-4.02198E-15
 -1      1253 1.41598E-03 3.72257E-04-3.63503E-15
 -1      1254 1.17018E-03 2.40889E-04-3.38023E-15
 -1      1255 9.99840E-04 1.10135E-04-3.21824E-15
 -1      1256 9.26490E-04-2.02989E-05-3.16475E-15
 -1      1257 9.64246E-04-1.50402E-04-3.22715E-15
 -1      1258 1.10720E-03-2.85254E-04-3.40061E-15
 -1      1259 1.34020E-03-4.25803E-04-3.67773E-15
 -1      1260 1.65761E-03-5.73763E-04-4.06787E-15
 -1      1261 2.03927E-03-7.15807E-04-4.56249E-15
 -1      1262 2.47214E-03-8.32273E-04-5.15985E-15
 -1      1263 2.92336E-03-9.02310E-04-5.81964E-15
 -1      1264 3.34620E-03-9.13087E-04-6.46152E-15
 -1      1265 3.76110E-03-8.69748E-04-7.10667E-15
 -1      1266 4.15527E-03-7.84378E-04-7.72285E-15
 -1      1267 4.50492E-03-6.72928E-04-8.25797E-15
 -1      1268 4.81234E-03-5.45813E-04-8.71098E-15
 -1      1269 5.06512E-03-4.12657E-04-9.06678E-15
 -1      1270 5.24883E-03-2.77787E-04-9.31070E-15
 -1      1271 5.34670E-03-1.41885E-04-9.42341E-15
 -1      1272 1.98211E-04-1.08115E-04-1.07336E-17
 -1      1273 1.31144E-04-4.23244E-05-3.36780E-17
 -1      1274 1.39434E-04-5.70324E-05-2.72135E-17
 -1      1275 1.19707E-04-2.23972E-05-4.41812E-17
 -1      1276 1.25267E-04-3.11810E-05-4.10235E-17
 -1      1277 2.61805E-04-7.88474E-05-9.69412E-17
 -1      1278 1.10127E-04-8.62694E-06-4.96022E-17
 -1      1279 1.15067E-04-1.48748E-05-4.79759E-17
 -1      1280 2.39044E-04-4.32339E-05-1.15142E-16
 -1      1281 1.00889E-04 5.75550E-07-5.24212E-17
 -1      1282 1.05592E-04-3.54357E-06-5.16487E-17
 -1      1283 2.18809E-04-1.80045E-05-1.24968E-16
 -1      1284 9.24386E-05 5.06468E-06-5.36680E-17
 -1      1285 9.66059E-05 3.17940E-06-5.33699E-17
 -1      1286 1.99373E-04-1.58202E-06-1.29969E-16
 -1      1287 8.55242E-05 4.98007E-06-5.42643E-17
 -1      1288 8.87266E-05 5.17456E-06-5.41559E-17
 -1      1289 1.81573E-04 6.02965E-06-1.32151E-16
 -1      1290 8.15725E-05 1.26016E-06-5.39526E-17
 -1      1291 8.31228E-05 2.91457E-06-5.41152E-17
 -1      1292 1.67853E-04 5.28108E-06-1.32584E-16
 -1      1293 8.14390E-05-3.81596E-06-5.30175E-17
 -1      1294 8.10109E-05-1.87572E-06-5.33834E-17
 -1      1295 1.61191E-04-1.28327E-06-1.31378E-16
 -1      1296 8.50671E-05-7.45479E-06-5.15267E-17
 -1      1297 8.28149E-05-6.50645E-06-5.21095E-17
 -1      1298 1.63105E-04-8.98685E-06-1.28830E-16
 -1      1299 9.15142E-05-7.43909E-06-4.93583E-17
 -1      1300 8.79940E-05-8.37279E-06-5.01579E-17
 -1      1301 1.72892E-04-1.27490E-05-1.24900E-16
 -1      1302 9.92932E-05-2.94705E-06-4.64174E-17
 -1      1303 9.52450E-05-5.95216E-06-4.74745E-17
 -1      1304 1.87855E-04-9.09257E-06-1.19411E-16
 -1      1305 1.07595E-04 5.95385E-06-4.22026E-17
 -1      1306 1.03341E-04 9.41404E-07-4.37476E-17
 -1      1307 2.05086E-04 3.02052E-06-1.11876E-16
 -1      1308 1.15864E-04 1.86276E-05-3.60497E-17
 -1      1309 1.11547E-04 1.18802E-05-3.85027E-17
 -1      1310 2.22668E-04 2.31194E-05-1.01237E-16
 -1      1311 1.24708E-04 3.53537E-05-2.65087E-17
 -1      1312 1.19812E-04 2.64837E-05-3.06829E-17
 -1      1313 2.40136E-04 5.03919E-05-8.58010E-17
 -1      1314 1.36875E-04 5.99013E-05-1.10453E-17
 -1      1315 1.29558E-04 4.63016E-05-1.84721E-17
 -1      1316 2.59887E-04 8.66753E-05-6.27075E-17
 -1      1317 1.84272E-04 1.11439E-04 1.27800E-17
 -1      1318 1.60032E-04 8.17333E-05-2.05998E-18
 -1      1319 3.02159E-04 1.40696E-04-3.50739E-17
 -1      1320 3.94843E-04 2.22288E-04 4.72983E-18
 -1      1321 5.07098E-04-2.56949E-04-7.31836E-17
 -1      1322 6.97521E-04-3.33544E-04-1.44158E-16
 -1      1323 8.83476E-04-4.01084E-04-2.56482E-16
 -1      1324 1.06654E-03-4.63521E-04-4.06833E-16
 -1      1325 7.42354E-04-3.20326E-04-2.36939E-16
 -1      1326 1.24722E-03-5.25154E-04-5.93492E-16
 -1      1327 1.42585E-03-5.87306E-04-8.17516E-16
 -1      1328 1.10739E-03-4.47306E-04-5.45652E-16
 -1      1329 1.60254E-03-6.52227E-04-1.07877E-15
 -1      1330 1.77692E-03-7.19951E-04-1.37778E-15
 -1      1331 1.46324E-03-5.73142E-04-9.99607E-16
 -1      1332 1.94855E-03-7.90995E-04-1.71376E-15
 -1      1333 2.11669E-03-8.64338E-04-2.08759E-15
 -1      1334 1.81157E-03-7.09889E-04-1.60005E-15
 -1      1335 2.28073E-03-9.38725E-04-2.49983E-15
 -1      1336 2.44002E-03-1.01194E-03-2.95059E-15
 -1      1337 2.15040E-03-8.58114E-04-2.34922E-15
 -1      1338 2.59426E-03-1.08113E-03-3.44030E-15
 -1      1339 2.74347E-03-1.14321E-03-3.96947E-15
 -1      1340 2.47616E-03-1.00647E-03-3.25074E-15
 -1      1341 2.88807E-03-1.19472E-03-4.53861E-15
 -1      1342 3.02908E-03-1.23285E-03-5.14714E-15
 -1      1343 2.78666E-03-1.13260E-03-4.30842E-15
 -1      1344 3.16774E-03-1.25529E-03-5.79589E-15
 -1      1345 3.30587E-03-1.26106E-03-6.48408E-15
 -1      1346 3.08436E-03-1.21015E-03-5.52442E-15
 -1      1347 3.44505E-03-1.25040E-03-7.21012E-15
 -1      1348 3.58697E-03-1.22472E-03-7.97459E-15
 -1      1349 3.37734E-03-1.22160E-03-6.89731E-15
 -1      1350 3.73275E-03-1.18680E-03-8.77498E-15
 -1      1351 3.88332E-03-1.13967E-03-9.61031E-15
 -1      1352 3.67600E-03-1.16893E-03-8.42262E-15
 -1      1353 4.03892E-03-1.08706E-03-1.04819E-14
 -1      1354 4.19940E-03-1.03220E-03-1.13867E-14
 -1      1355 3.98758E-03-1.07277E-03-1.00931E-14
 -1      1356 4.36425E-03-9.78160E-04-1.23237E-14
 -1      1357 4.53264E-03-9.27264E-04-1.32922E-14
 -1      1358 4.31340E-03-9.61391E-04-1.19009E-14
 -1      1359 4.70368E-03-8.81134E-04-1.42910E-14
 -1      1360 4.87640E-03-8.40883E-04-1.53199E-14
 -1      1361 4.64975E-03-8.58612E-04-1.38352E-14
 -1      1362 5.04993E-03-8.06807E-04-1.63776E-14
 -1      1363 5.22344E-03-7.79124E-04-1.74633E-14
 -1      1364 4.99097E-03-7.77823E-04-1.58895E-14
 -1      1365 5.39630E-03-7.57344E-04-1.85766E-14
 -1      1366 5.56796E-03-7.41174E-04-1.97185E-14
 -1      1367 5.33184E-03-7.22727E-04-1.80581E-14
 -1      1368 5.73807E-03-7.29837E-04-2.08876E-14
 -1      1369 5.90633E-03-7.22843E-04-2.20822E-14
 -1      1370 5.66865E-03-6.91021E-04-2.03369E-14
 -1      1371 6.07262E-03-7.19436E-04-2.33050E-14
 -1      1372 6.23686E-03-7.19101E-04-2.45540E-14
 -1      1373 5.99926E-03-6.77860E-04-2.27244E-14
 -1      1374 6.39905E-03-7.21231E-04-2.58263E-14
 -1      1375 6.55923E-03-7.25374E-04-2.71232E-14
 -1      1376 6.32285E-03-6.78078E-04-2.52146E-14
 -1      1377 6.71751E-03-7.31093E-04-2.84448E-14
 -1      1378 6.87399E-03-7.38023E-04-2.97905E-14
 -1      1379 6.63948E-03-6.87222E-04-2.78040E-14
 -1      1380 7.02881E-03-7.45875E-04-3.11565E-14
 -1      1381 7.18210E-03-7.54371E-04-3.25458E-14
 -1      1382 6.94975E-03-7.01857E-04-3.04868E-14
 -1      1383 7.33400E-03-7.63334E-04-3.39609E-14
 -1      1384 7.48465E-03-7.72561E-04-3.53970E-14
 -1      1385 7.25448E-03-7.19516E-04-3.32636E-14
 -1      1386 7.63418E-03-7.81953E-04-3.68559E-14
 -1      1387 7.78271E-03-7.91368E-04-3.83402E-14
 -1      1388 7.55459E-03-7.38523E-04-3.61325E-14
 -1      1389 7.93038E-03-8.00759E-04-3.98448E-14
 -1      1390 8.07726E-03-8.10030E-04-4.13706E-14
 -1      1391 7.85096E-03-7.57799E-04-3.90917E-14
 -1      1392 8.22348E-03-8.19167E-04-4.29175E-14
 -1      1393 8.36912E-03-8.28108E-04-4.44831E-14
 -1      1394 8.14438E-03-7.76692E-04-4.21371E-14
 -1      1395 8.51425E-03-8.36859E-04-4.60700E-14
 -1      1396 8.65894E-03-8.45383E-04-4.76755E-14
 -1      1397 8.43551E-03-7.94843E-04-4.52634E-14
 -1      1398 8.80327E-03-8.53695E-04-4.93027E-14
 -1      1399 8.94729E-03-8.61778E-04-5.09517E-14
 -1      1400 8.72492E-03-8.12093E-04-4.84722E-14
 -1      1401 9.09104E-03-8.69650E-04-5.26202E-14
 -1      1402 9.23457E-03-8.77306E-04-5.43068E-14
 -1      1403 9.01305E-03-8.28406E-04-5.17601E-14
 -1      1404 9.37791E-03-8.84766E-04-5.60107E-14
 -1      1405 9.52111E-03-8.92031E-04-5.77305E-14
 -1      1406 9.30026E-03-8.43824E-04-5.51254E-14
 -1      1407 9.66418E-03-8.99123E-04-5.94661E-14
 -1      1408 9.80715E-03-9.06045E-04-6.12147E-14
 -1      1409 9.58681E-03-8.58429E-04-5.85597E-14
 -1      1410 9.95004E-03-9.12818E-04-6.29755E-14
 -1      1411 1.00929E-02-9.19448E-04-6.47481E-14
 -1      1412 9.87292E-03-8.72324E-04-6.20508E-14
 -1      1413 1.02356E-02-9.25953E-04-6.65326E-14
 -1      1414 1.03784E-02-9.32340E-04-6.83264E-14
 -1      1415 1.01587E-02-8.85617E-04-6.55912E-14
 -1      1416 1.05211E-02-9.38624E-04-7.01366E-14
 -1      1417 1.06638E-02-9.44814E-04-7.19570E-14
 -1      1418 1.04444E-02-8.98411E-04-6.91816E-14
 -1      1419 1.08065E-02-9.50920E-04-7.37880E-14
 -1      1420 1.09492E-02-9.56952E-04-7.56310E-14
 -1      1421 1.07299E-02-9.10801E-04-7.28171E-14
 -1      1422 1.10919E-02-9.62918E-04-7.74808E-14
 -1      1423 1.12346E-02-9.68825E-04-7.93395E-14
 -1      1424 1.10153E-02-9.22868E-04-7.64937E-14
 -1      1425 1.13773E-02-9.74682E-04-8.12058E-14
 -1      1426 1.15200E-02-9.80495E-04-8.30781E-14
 -1      1427 1.13008E-02-9.34684E-04-8.02066E-14
 -1      1428 1.16627E-02-9.86269E-04-8.49615E-14
 -1      1429 1.18054E-02-9.92009E-04-8.68549E-14
 -1      1430 1.15863E-02-9.46307E-04-8.39539E-14
 -1      1431 1.19481E-02-9.97721E-04-8.87563E-14
 -1      1432 1.20908E-02-1.00341E-03-9.06624E-14
 -1      1433 1.18718E-02-9.57785E-04-8.77376E-14
 -1      1434 1.22336E-02-1.00907E-03-9.25814E-14
 -1      1435 1.23763E-02-1.01472E-03-9.45096E-14
 -1      1436 1.21573E-02-9.69156E-04-9.15559E-14
 -1      1437 1.25191E-02-1.02036E-03-9.64447E-14
 -1      1438 1.26619E-02-1.02598E-03-9.83901E-14
 -1      1439 1.24428E-02-9.80450E-04-9.54103E-14
 -1      1440 1.28047E-02-1.03159E-03-1.00345E-13
 -1      1441 1.29475E-02-1.03720E-03-1.02307E-13
 -1      1442 1.27284E-02-9.91690E-04-9.93023E-14
 -1      1443 1.30903E-02-1.04279E-03-1.04277E-13
 -1      1444 1.32331E-02-1.04838E-03-1.06261E-13
 -1      1445 1.30140E-02-1.00289E-03-1.03228E-13
 -1      1446 1.33759E-02-1.05397E-03-1.08257E-13
 -1      1447 1.35187E-02-1.05956E-03-1.10257E-13
 -1      1448 1.32996E-02-1.01407E-03-1.07193E-13
 -1      1449 1.36615E-02-1.06514E-03-1.12266E-13
 -1      1450 1.38044E-02-1.07073E-03-1.14288E-13
 -1      1451 1.35853E-02-1.02524E-03-1.11198E-13
 -1      1452 1.39472E-02-1.07631E-03-1.16313E-13
 -1      1453 1.40900E-02-1.08189E-03-1.18340E-13
 -1      1454 1.38709E-02-1.03641E-03-1.15233E-13
 -1      1455 1.42329E-02-1.08748E-03-1.20376E-13
 -1      1456 1.43757E-02-1.09306E-03-1.22412E-13
 -1      1457 1.41566E-02-1.04757E-03-1.19291E-13
 -1      1458 1.45186E-02-1.09865E-03-1.24451E-13
 -1      1459 1.46614E-02-1.10424E-03-1.26494E-13
 -1      1460 1.44423E-02-1.05874E-03-1.23364E-13
 -1      1461 1.48043E-02-1.10983E-03-1.28547E-13
 -1      1462 1.49471E-02-1.11543E-03-1.30607E-13
 -1      1463 1.47280E-02-1.06992E-03-1.27454E-13
 -1      1464 1.51537E-02-1.11923E-03-1.33594E-13
 -1      1465 1.50774E-02-1.07932E-03-1.32492E-13
 -1      1466 7.69899E-04 3.78859E-04-7.01614E-17
 -1      1467 5.85546E-04 3.06157E-04-1.63172E-17
 -1      1468 5.28951E-04 2.60875E-04-4.59160E-17
 -1      1469 1.12640E-03 5.03292E-04-2.76173E-16
 -1      1470 9.49747E-04 4.42818E-04-1.56843E-16
 -1      1471 8.92948E-04 3.98181E-04-1.92758E-16
 -1      1472 1.47220E-03 6.21846E-04-6.13469E-16
 -1      1473 1.30038E-03 5.62588E-04-4.27813E-16
 -1      1474 1.24474E-03 5.18962E-04-4.68863E-16
 -1      1475 1.80810E-03 7.44597E-04-1.08755E-15
 -1      1476 1.64147E-03 6.82727E-04-8.33047E-16
 -1      1477 1.58676E-03 6.39828E-04-8.77147E-16
 -1      1478 2.13109E-03 8.71254E-04-1.70260E-15
 -1      1479 1.97146E-03 8.08017E-04-1.37707E-15
 -1      1480 1.91891E-03 7.66240E-04-1.42247E-15
 -1      1481 2.43746E-03 9.92234E-04-2.46306E-15
 -1      1482 2.28656E-03 9.33460E-04-2.06463E-15
 -1      1483 2.23896E-03 8.93754E-04-2.10961E-15
 -1      1484 2.72600E-03 1.09056E-03-3.36878E-15
 -1      1485 2.58389E-03 1.04538E-03-2.89760E-15
 -1      1486 2.54476E-03 1.00882E-03-2.94177E-15
 -1      1487 3.00049E-03 1.14741E-03-4.42466E-15
 -1      1488 2.86453E-03 1.12499E-03-3.87755E-15
 -1      1489 2.83698E-03 1.09213E-03-3.92167E-15
 -1      1490 3.26988E-03 1.15045E-03-5.63235E-15
 -1      1491 3.13508E-03 1.15571E-03-5.00961E-15
 -1      1492 3.12061E-03 1.12606E-03-5.05200E-15
 -1      1493 3.54525E-03 1.10061E-03-6.99226E-15
 -1      1494 3.40611E-03 1.13134E-03-6.29352E-15
 -1      1495 3.40404E-03 1.10346E-03-6.33505E-15
 -1      1496 3.83527E-03 1.01194E-03-8.49937E-15
 -1      1497 3.68803E-03 1.05982E-03-7.72750E-15
 -1      1498 3.69571E-03 1.03197E-03-7.76798E-15
 -1      1499 4.14313E-03 9.05244E-04-1.01481E-14
 -1      1500 3.98697E-03 9.59562E-04-9.30602E-15
 -1      1501 4.00051E-03 9.30475E-04-9.34519E-15
 -1      1502 4.46661E-03 7.99706E-04-1.19321E-14
 -1      1503 4.30322E-03 8.51434E-04-1.10237E-14
 -1      1504 4.31857E-03 8.20603E-04-1.10611E-14
 -1      1505 4.80021E-03 7.08003E-04-1.38442E-14
 -1      1506 4.63256E-03 7.51715E-04-1.28726E-14
 -1      1507 4.64645E-03 7.19266E-04-1.29087E-14
 -1      1508 5.13776E-03 6.35499E-04-1.58813E-14
 -1      1509 4.96888E-03 6.69312E-04-1.48479E-14
 -1      1510 4.97924E-03 6.35702E-04-1.48820E-14
 -1      1511 5.47416E-03 5.82199E-04-1.80380E-14
 -1      1512 5.30639E-03 6.06617E-04-1.69447E-14
 -1      1513 5.31239E-03 5.72369E-04-1.69762E-14
 -1      1514 5.80598E-03 5.45238E-04-2.03091E-14
 -1      1515 5.64081E-03 5.61920E-04-1.91599E-14
 -1      1516 5.64250E-03 5.27484E-04-1.91877E-14
 -1      1517 6.13145E-03 5.20791E-04-2.26900E-14
 -1      1518 5.96958E-03 5.31692E-04-2.14863E-14
 -1      1519 5.96753E-03 4.97390E-04-2.15098E-14
 -1      1520 6.45004E-03 5.05172E-04-2.51744E-14
 -1      1521 6.29161E-03 5.12083E-04-2.39196E-14
 -1      1522 6.28659E-03 4.78113E-04-2.39378E-14
 -1      1523 6.76203E-03 4.95314E-04-2.77549E-14
 -1      1524 6.60683E-03 4.99681E-04-2.64526E-14
 -1      1525 6.59962E-03 4.66140E-04-2.64666E-14
 -1      1526 7.06813E-03 4.88878E-04-3.04254E-14
 -1      1527 6.91576E-03 4.91783E-04-2.90796E-14
 -1      1528 6.90704E-03 4.58698E-04-2.90902E-14
 -1      1529 7.36923E-03 4.84194E-04-3.31820E-14
 -1      1530 7.21924E-03 4.86396E-04-3.17929E-14
 -1      1531 7.20956E-03 4.53749E-04-3.18003E-14
 -1      1532 7.66625E-03 4.80131E-04-3.60281E-14
 -1      1533 7.51819E-03 4.82136E-04-3.45941E-14
 -1      1534 7.50795E-03 4.49883E-04-3.45987E-14
 -1      1535 7.96005E-03 4.75968E-04-3.89556E-14
 -1      1536 7.81350E-03 4.78093E-04-3.74817E-14
 -1      1537 7.80300E-03 4.46180E-04-3.74815E-14
 -1      1538 8.25136E-03 4.71283E-04-4.19615E-14
 -1      1539 8.10597E-03 4.73708E-04-4.04482E-14
 -1      1540 8.09539E-03 4.42078E-04-4.04462E-14
 -1      1541 8.54079E-03 4.65857E-04-4.50447E-14
 -1      1542 8.39627E-03 4.68670E-04-4.34942E-14
 -1      1543 8.38575E-03 4.37270E-04-4.34896E-14
 -1      1544 8.82886E-03 4.59610E-04-4.82045E-14
 -1      1545 8.68497E-03 4.62837E-04-4.66147E-14
 -1      1546 8.67457E-03 4.31620E-04-4.66104E-14
 -1      1547 9.11593E-03 4.52548E-04-5.14345E-14
 -1      1548 8.97249E-03 4.56178E-04-4.98111E-14
 -1      1549 8.96226E-03 4.25102E-04-4.98024E-14
 -1      1550 9.40233E-03 4.44729E-04-5.47295E-14
 -1      1551 9.25920E-03 4.48729E-04-5.30749E-14
 -1      1552 9.24914E-03 4.17760E-04-5.30638E-14
 -1      1553 9.68827E-03 4.36237E-04-5.80821E-14
 -1      1554 9.54534E-03 4.40562E-04-5.63979E-14
 -1      1555 9.53545E-03 4.09673E-04-5.63836E-14
 -1      1556 9.97392E-03 4.27166E-04-6.14990E-14
 -1      1557 9.83112E-03 4.31768E-04-5.97834E-14
 -1      1558 9.82138E-03 4.00937E-04-5.97676E-14
 -1      1559 1.02594E-02 4.17611E-04-6.49746E-14
 -1      1560 1.01167E-02 4.22444E-04-6.32295E-14
 -1      1561 1.01071E-02 3.91654E-04-6.32134E-14
 -1      1562 1.05448E-02 4.07660E-04-6.85119E-14
 -1      1563 1.04021E-02 4.12680E-04-6.67353E-14
 -1      1564 1.03926E-02 3.81918E-04-6.67177E-14
 -1      1565 1.08301E-02 3.97391E-04-7.21177E-14
 -1      1566 1.06875E-02 4.02561E-04-7.03052E-14
 -1      1567 1.06781E-02 3.71818E-04-7.02896E-14
 -1      1568 1.11155E-02 3.86872E-04-7.57972E-14
 -1      1569 1.09728E-02 3.92159E-04-7.39495E-14
 -1      1570 1.09635E-02 3.61428E-04-7.39311E-14
 -1      1571 1.14009E-02 3.76161E-04-7.95502E-14
 -1      1572 1.12582E-02 3.81538E-04-7.76653E-14
 -1      1573 1.12490E-02 3.50813E-04-7.76416E-14
 -1      1574 1.16863E-02 3.65304E-04-8.33636E-14
 -1      1575 1.15436E-02 3.70748E-04-8.14493E-14
 -1      1576 1.15344E-02 3.40027E-04-8.14184E-14
 -1      1577 1.19718E-02 3.54338E-04-8.72240E-14
 -1      1578 1.18290E-02 3.59833E-04-8.52883E-14
 -1      1579 1.18199E-02 3.29112E-04-8.52490E-14
 -1      1580 1.22573E-02 3.43295E-04-9.11385E-14
 -1      1581 1.21145E-02 3.48825E-04-8.91751E-14
 -1      1582 1.21054E-02 3.18104E-04-8.91323E-14
 -1      1583 1.25428E-02 3.32196E-04-9.51136E-14
 -1      1584 1.24001E-02 3.37751E-04-9.31174E-14
 -1      1585 1.23910E-02 3.07029E-04-9.30722E-14
 -1      1586 1.28284E-02 3.21059E-04-9.91308E-14
 -1      1587 1.26856E-02 3.26631E-04-9.71174E-14
 -1      1588 1.26765E-02 2.95907E-04-9.70653E-14
 -1      1589 1.31140E-02 3.09899E-04-1.03198E-13
 -1      1590 1.29712E-02 3.15482E-04-1.01159E-13
 -1      1591 1.29621E-02 2.84755E-04-1.01104E-13
 -1      1592 1.33997E-02 2.98725E-04-1.07298E-13
 -1      1593 1.32569E-02 3.04313E-04-1.05245E-13
 -1      1594 1.32478E-02 2.73585E-04-1.05182E-13
 -1      1595 1.36853E-02 2.87546E-04-1.11414E-13
 -1      1596 1.35425E-02 2.93136E-04-1.09355E-13
 -1      1597 1.35334E-02 2.62406E-04-1.09283E-13
 -1      1598 1.39710E-02 2.76367E-04-1.15549E-13
 -1      1599 1.38282E-02 2.81956E-04-1.13479E-13
 -1      1600 1.38191E-02 2.51224E-04-1.13404E-13
 -1      1601 1.42567E-02 2.65193E-04-1.19716E-13
 -1      1602 1.41139E-02 2.70779E-04-1.17627E-13
 -1      1603 1.41048E-02 2.40045E-04-1.17549E-13
 -1      1604 1.45424E-02 2.54027E-04-1.23907E-13
 -1      1605 1.43996E-02 2.59609E-04-1.21807E-13
 -1      1606 1.43905E-02 2.28873E-04-1.21722E-13
 -1      1607 1.48281E-02 2.42872E-04-1.28130E-13
 -1      1608 1.46853E-02 2.48448E-04-1.26018E-13
 -1      1609 1.46762E-02 2.17712E-04-1.25928E-13
 -1      1610 1.49784E-02 2.26170E-04-1.30367E-13
 -1      1611 1.50041E-02 1.20343E-04-1.30898E-13
 -1      1612 1.49986E-02 1.62487E-04-1.30758E-13
 -1      1613 1.50150E-02 3.60505E-05-1.31165E-13
 -1      1614 1.50096E-02 7.81975E-05-1.31036E-13
 -1      1615 1.48831E-02 1.04097E-04-1.29134E-13
 -1      1616 1.50260E-02-4.82495E-05-1.31415E-13
 -1      1617 1.50205E-02-6.09840E-06-1.31290E-13
 -1      1618 1.48941E-02 1.98019E-05-1.29397E-13
 -1      1619 1.50369E-02-1.32559E-04-1.31639E-13
 -1      1620 1.50315E-02-9.04029E-05-1.31532E-13
 -1      1621 1.49050E-02-6.45005E-05-1.29644E-13
 -1      1622 1.50477E-02-2.15448E-04-1.31859E-13
 -1      1623 1.50423E-02-1.74002E-04-1.31747E-13
 -1      1624 1.49159E-02-1.48097E-04-1.29874E-13
 -1      1625 1.50586E-02-2.99775E-04-1.32073E-13
 -1      1626 1.50532E-02-2.57610E-04-1.31968E-13
 -1      1627 1.49267E-02-2.31700E-04-1.30098E-13
 -1      1628 1.50696E-02-3.84107E-04-1.32271E-13
 -1      1629 1.50641E-02-3.41940E-04-1.32171E-13
 -1      1630 1.49377E-02-3.16025E-04-1.30312E-13
 -1      1631 1.50806E-02-4.68441E-04-1.32465E-13
 -1      1632 1.50751E-02-4.26274E-04-1.32369E-13
 -1      1633 1.49486E-02-4.00354E-04-1.30515E-13
 -1      1634 1.50916E-02-5.52775E-04-1.32645E-13
 -1      1635 1.50861E-02-5.10609E-04-1.32558E-13
 -1      1636 1.49596E-02-4.84685E-04-1.30713E-13
 -1      1637 1.51026E-02-6.37105E-04-1.32815E-13
 -1      1638 1.50971E-02-5.94941E-04-1.32731E-13
 -1      1639 1.49706E-02-5.69014E-04-1.30897E-13
 -1      1640 1.51134E-02-7.19998E-04-1.32973E-13
 -1      1641 1.51080E-02-6.78552E-04-1.32894E-13
 -1      1642 1.49816E-02-6.52624E-04-1.31067E-13
 -1      1643 1.51245E-02-8.04312E-04-1.33148E-13
 -1      1644 1.51190E-02-7.62156E-04-1.33060E-13
 -1      1645 1.49925E-02-7.36228E-04-1.31235E-13
 -1      1646 1.51355E-02-8.88616E-04-1.33319E-13
 -1      1647 1.51300E-02-8.46465E-04-1.33235E-13
 -1      1648 1.50035E-02-8.20538E-04-1.31407E-13
 -1      1649 1.51465E-02-9.72912E-04-1.33484E-13
 -1      1650 1.51410E-02-9.30765E-04-1.33405E-13
 -1      1651 1.50146E-02-9.04841E-04-1.31577E-13
 -1      1652 1.51148E-02-1.04719E-03-1.33032E-13
 -1      1653 1.51092E-02-1.00504E-03-1.32946E-13
 -1      1654 1.49828E-02-9.79122E-04-1.31122E-13
 -1      1655 1.49082E-02-1.04339E-03-1.30048E-13
 -1      1656 5.33878E-03-9.43246E-06-9.72145E-15
 -1      1657 5.36916E-03-5.07528E-05-9.77815E-15
 -1      1658 5.18160E-03 9.17790E-05-9.49006E-15
 -1      1659 5.26949E-03 4.13219E-05-9.62950E-15
 -1      1660 4.92574E-03 2.25552E-04-9.06365E-15
 -1      1661 5.05505E-03 1.62509E-04-9.26436E-15
 -1      1662 4.54194E-03 3.89343E-04-8.50847E-15
 -1      1663 4.72902E-03 3.01667E-04-8.81564E-15
 -1      1664 4.15699E-03 5.71352E-04-7.79629E-15
 -1      1665 4.33319E-03 4.94158E-04-8.10621E-15
 -1      1666 3.76276E-03 7.21552E-04-7.05108E-15
 -1      1667 3.94954E-03 6.57133E-04-7.39732E-15
 -1      1668 3.36954E-03 8.11737E-04-6.30800E-15
 -1      1669 3.54882E-03 7.78910E-04-6.64757E-15
 -1      1670 2.98063E-03 8.22880E-04-5.58619E-15
 -1      1671 3.15899E-03 8.29677E-04-5.91413E-15
 -1      1672 2.58246E-03 7.44075E-04-4.88498E-15
 -1      1673 2.76797E-03 7.93109E-04-5.19758E-15
 -1      1674 2.18123E-03 5.98393E-04-4.29905E-15
 -1      1675 2.36024E-03 6.70225E-04-4.55262E-15
 -1      1676 1.77482E-03 4.09607E-04-3.77350E-15
 -1      1677 1.96678E-03 4.98110E-04-3.99785E-15
 -1      1678 1.40990E-03 2.64018E-04-3.44478E-15
 -1      1679 1.55649E-03 3.31474E-04-3.58979E-15
 -1      1680 1.14943E-03 1.41224E-04-3.20924E-15
 -1      1681 1.25979E-03 1.94015E-04-3.30541E-15
 -1      1682 9.68315E-04 3.90859E-05-3.06835E-15
 -1      1683 1.04023E-03 8.44843E-05-3.12183E-15
 -1      1684 9.10653E-04-4.62683E-05-3.04109E-15
 -1      1685 9.20780E-04-8.66168E-06-3.03894E-15
 -1      1686 9.87447E-04-1.32108E-04-3.12224E-15
 -1      1687 9.34844E-04-9.07224E-05-3.06573E-15
 -1      1688 1.18254E-03-2.42501E-04-3.33102E-15
 -1      1689 1.07954E-03-1.89835E-04-3.22568E-15
 -1      1690 1.47109E-03-3.81224E-04-3.63994E-15
 -1      1691 1.32729E-03-3.12910E-04-3.48295E-15
 -1      1692 1.84412E-03-5.45397E-04-4.05421E-15
 -1      1693 1.66845E-03-4.62080E-04-3.84011E-15
 -1      1694 2.22899E-03-7.28254E-04-4.60634E-15
 -1      1695 2.04558E-03-6.48330E-04-4.34676E-15
 -1      1696 2.65716E-03-8.80530E-04-5.25274E-15
 -1      1697 2.46622E-03-8.14383E-04-4.93239E-15
 -1      1698 3.04361E-03-9.56933E-04-5.96840E-15
 -1      1699 2.86878E-03-9.31949E-04-5.64452E-15
 -1      1700 3.40536E-03-9.48009E-04-6.65678E-15
 -1      1701 3.24192E-03-9.60857E-04-6.34402E-15
 -1      1702 3.77247E-03-8.66785E-04-7.38466E-15
 -1      1703 3.59902E-03-9.15160E-04-7.05105E-15
 -1      1704 4.14361E-03-7.36384E-04-8.02667E-15
 -1      1705 3.98036E-03-8.00001E-04-7.73749E-15
 -1      1706 4.49021E-03-5.85938E-04-8.60379E-15
 -1      1707 4.33185E-03-6.56982E-04-8.34822E-15
 -1      1708 4.81007E-03-4.37676E-04-9.08897E-15
 -1      1709 4.66680E-03-5.05008E-04-8.87960E-15
 -1      1710 5.08224E-03-3.05682E-04-9.46451E-15
 -1      1711 4.96396E-03-3.64207E-04-9.30657E-15
 -1      1712 5.27810E-03-1.92246E-04-9.73534E-15
 -1      1713 5.19799E-03-2.39684E-04-9.64042E-15
 -1      1714 5.37183E-03-9.82996E-05-9.85318E-15
 -1      1715 5.34340E-03-1.38407E-04-9.83162E-15
 -1      1716 4.38419E-03 3.97714E-04-8.54443E-15
 -1      1717 4.77832E-03 2.12378E-04-9.21597E-15
 -1      1718 1.49693E-02 1.95433E-04-1.30279E-13
 -1      1719 1.48483E-02 1.79189E-04-1.28518E-13
 -1      1720 5.30541E-03-1.31429E-05-1.00325E-14
 -1      1721 5.10206E-03 7.66048E-05-9.70423E-15
 -1      1722 5.37987E-03-7.72227E-05-1.02033E-14
 -1      1723 3.99083E-03 6.00849E-04-7.72863E-15
 -1      1724 3.61290E-03 7.60463E-04-6.91691E-15
 -1      1725 3.24901E-03 8.46039E-04-6.11718E-15
 -1      1726 2.89323E-03 8.31250E-04-5.33926E-15
 -1      1727 2.52811E-03 7.12075E-04-4.63364E-15
 -1      1728 2.13234E-03 5.21922E-04-4.01855E-15
 -1      1729 1.72890E-03 3.27405E-04-3.55922E-15
 -1      1730 1.36843E-03 1.77832E-04-3.25201E-15
 -1      1731 1.10299E-03 6.92297E-05-3.03684E-15
 -1      1732 9.39731E-04-3.74064E-06-2.92609E-15
 -1      1733 9.15226E-04-5.81517E-05-2.92069E-15
 -1      1734 1.03701E-03-1.21592E-04-3.04097E-15
 -1      1735 1.28123E-03-2.25400E-04-3.28409E-15
 -1      1736 1.62214E-03-3.70997E-04-3.61989E-15
 -1      1737 2.00670E-03-5.62612E-04-4.09078E-15
 -1      1738 2.41484E-03-7.65958E-04-4.69354E-15
 -1      1739 2.79534E-03-9.23163E-04-5.39572E-15
 -1      1740 3.14207E-03-9.85529E-04-6.15895E-15
 -1      1741 3.47709E-03-9.51203E-04-6.93057E-15
 -1      1742 3.81681E-03-8.34614E-04-7.68726E-15
 -1      1743 4.17615E-03-6.72828E-04-8.37388E-15
 -1      1744 4.52364E-03-5.02192E-04-8.98516E-15
 -1      1745 4.85024E-03-3.48406E-04-9.49294E-15
 -1      1746 5.12505E-03-2.24509E-04-9.89882E-15
 -1      1747 5.31376E-03-1.36057E-04-1.01792E-14
 -1      1748 3.43028E-04-1.65706E-04-6.33310E-17
 -1      1749 3.57721E-04-6.55731E-05-1.81861E-16
 -1      1750 3.74350E-04-8.76073E-05-1.72293E-16
 -1      1751 3.92212E-04-1.13482E-04-1.60150E-16
 -1      1752 4.13064E-04-1.43582E-04-1.42966E-16
 -1      1753 5.19833E-04-1.43005E-04-2.50302E-16
 -1      1754 2.94815E-04-7.81670E-06-1.99547E-16
 -1      1755 3.09907E-04-1.75604E-05-1.97162E-16
 -1      1756 2.66840E-04 2.78281E-06-2.02014E-16
 -1      1757 2.80063E-04-9.40271E-07-2.01052E-16
 -1      1758 3.85797E-04-1.43999E-05-2.94713E-16
 -1      1759 2.46798E-04 2.11464E-06-2.01716E-16
 -1      1760 2.55414E-04 3.63705E-06-2.02163E-16
 -1      1761 3.47869E-04-1.67950E-06-2.96733E-16
 -1      1762 2.39302E-04-5.31315E-06-1.99276E-16
 -1      1763 2.41250E-04-1.20154E-06-2.00781E-16
 -1      1764 3.23024E-04-2.25690E-06-2.95432E-16
 -1      1765 2.46126E-04-1.24989E-05-1.94912E-16
 -1      1766 2.41020E-04-9.44387E-06-1.97352E-16
 -1      1767 3.17549E-04-9.42818E-06-2.91257E-16
 -1      1768 2.65057E-04-1.26017E-05-1.88570E-16
 -1      1769 2.54445E-04-1.37865E-05-1.92148E-16
 -1      1770 3.32602E-04-1.38792E-05-2.84440E-16
 -1      1771 2.90705E-04-1.83934E-06-1.79801E-16
 -1      1772 2.77439E-04-8.66208E-06-1.84680E-16
 -1      1773 3.63114E-04-7.67073E-06-2.74886E-16
 -1      1774 3.19078E-04 2.08593E-05-1.67834E-16
 -1      1775 3.04914E-04 8.14476E-06-1.74597E-16
 -1      1776 4.01472E-04 1.29483E-05-2.61916E-16
 -1      1777 3.47025E-04 5.41788E-05-1.50718E-16
 -1      1778 3.33179E-04 3.63649E-05-1.60245E-16
 -1      1779 4.41472E-04 4.80917E-05-2.43918E-16
 -1      1780 3.75251E-04 9.76223E-05-1.25740E-16
 -1      1781 3.60871E-04 7.47035E-05-1.39713E-16
 -1      1782 4.80097E-04 9.57613E-05-2.18318E-16
 -1      1783 4.09679E-04 1.54908E-04-8.86606E-17
 -1      1784 3.91119E-04 1.24304E-04-1.09477E-16
 -1      1785 5.20243E-04 1.55836E-04-1.81631E-16
 -1      1786 4.82903E-04 2.22725E-04-6.25449E-17
 -1      1787 4.43962E-04 1.84961E-04-7.95262E-17
 -1      1788 5.79524E-04 2.23050E-04-1.48685E-16
 -1      1789 6.63616E-04 2.94368E-04-1.21661E-16
 -1      1790 4.07489E-04-1.70863E-04-1.06726E-16
 -1      1791 1.01991E-03 4.20575E-04-3.37078E-16
 -1      1792 8.42669E-04 3.59285E-04-2.13615E-16
 -1      1793 7.96135E-04 3.21249E-04-2.30772E-16
 -1      1794 5.47034E-04-2.11107E-04-1.86808E-16
 -1      1795 9.72374E-04-3.70327E-04-4.94911E-16
 -1      1796 1.15065E-03-4.31374E-04-6.89322E-16
 -1      1797 1.32754E-03-4.93992E-04-9.19010E-16
 -1      1798 1.50310E-03-5.58915E-04-1.18476E-15
 -1      1799 1.19489E-03-4.15844E-04-8.37777E-16
 -1      1800 1.67797E-03-6.27451E-04-1.48613E-15
 -1      1801 1.85103E-03-6.99424E-04-1.82431E-15
 -1      1802 1.54536E-03-5.44850E-04-1.37295E-15
 -1      1803 2.02305E-03-7.74490E-04-2.19959E-15
 -1      1804 2.19244E-03-8.51167E-04-2.61211E-15
 -1      1805 1.89512E-03-6.88807E-04-2.05085E-15
 -1      1806 2.35962E-03-9.27342E-04-3.06257E-15
 -1      1807 2.52353E-03-9.99974E-04-3.55139E-15
 -1      1808 2.24130E-03-8.43969E-04-2.87581E-15
 -1      1809 2.68397E-03-1.06567E-03-4.07991E-15
 -1      1810 2.84158E-03-1.12047E-03-4.64735E-15
 -1      1811 2.57861E-03-9.93094E-04-3.85241E-15
 -1      1812 2.99560E-03-1.16121E-03-5.25394E-15
 -1      1813 3.14883E-03-1.18494E-03-5.90069E-15
 -1      1814 2.90329E-03-1.10706E-03-4.98555E-15
 -1      1815 3.30019E-03-1.19043E-03-6.58647E-15
 -1      1816 3.45357E-03-1.17817E-03-7.31050E-15
 -1      1817 3.21822E-03-1.15631E-03-6.27638E-15
 -1      1818 3.60783E-03-1.14990E-03-8.07287E-15
 -1      1819 3.76559E-03-1.10859E-03-8.87135E-15
 -1      1820 3.53320E-03-1.12964E-03-7.72356E-15
 -1      1821 3.92605E-03-1.05785E-03-9.70594E-15
 -1      1822 4.08965E-03-1.00191E-03-1.05760E-14
 -1      1823 3.85773E-03-1.04282E-03-9.32026E-15
 -1      1824 4.25610E-03-9.44383E-04-1.14790E-14
 -1      1825 4.42408E-03-8.88349E-04-1.24143E-14
 -1      1826 4.19353E-03-9.27307E-04-1.10584E-14
 -1      1827 4.59385E-03-8.36315E-04-1.33808E-14
 -1      1828 4.76357E-03-7.89679E-04-1.43777E-14
 -1      1829 4.53562E-03-8.13973E-04-1.29278E-14
 -1      1830 4.93383E-03-7.49480E-04-1.54039E-14
 -1      1831 5.10298E-03-7.15940E-04-1.64590E-14
 -1      1832 4.87741E-03-7.21369E-04-1.49199E-14
 -1      1833 5.27163E-03-6.89015E-04-1.75414E-14
 -1      1834 5.43868E-03-6.68294E-04-1.86517E-14
 -1      1835 5.21446E-03-6.55853E-04-1.70273E-14
 -1      1836 5.60457E-03-6.53169E-04-1.97905E-14
 -1      1837 5.76870E-03-6.43049E-04-2.09555E-14
 -1      1838 5.54482E-03-6.16091E-04-1.92454E-14
 -1      1839 5.93135E-03-6.37158E-04-2.21461E-14
 -1      1840 6.09229E-03-6.34925E-04-2.33629E-14
 -1      1841 5.86818E-03-5.97291E-04-2.15712E-14
 -1      1842 6.25165E-03-6.35629E-04-2.46067E-14
 -1      1843 6.40944E-03-6.38800E-04-2.58736E-14
 -1      1844 6.18499E-03-5.93949E-04-2.40007E-14
 -1      1845 6.56572E-03-6.43865E-04-2.71651E-14
 -1      1846 6.72062E-03-6.50463E-04-2.84818E-14
 -1      1847 6.49598E-03-6.01146E-04-2.65313E-14
 -1      1848 6.87414E-03-6.58181E-04-2.98209E-14
 -1      1849 7.02650E-03-6.66751E-04-3.11829E-14
 -1      1850 6.80192E-03-6.14991E-04-2.91566E-14
 -1      1851 7.17766E-03-6.75900E-04-3.25698E-14
 -1      1852 7.32785E-03-6.85437E-04-3.39800E-14
 -1      1853 7.10357E-03-6.32631E-04-3.18792E-14
 -1      1854 7.47705E-03-6.95192E-04-3.54114E-14
 -1      1855 7.62546E-03-7.05033E-04-3.68644E-14
 -1      1856 7.40164E-03-6.52090E-04-3.46921E-14
 -1      1857 7.77306E-03-7.14866E-04-3.83417E-14
 -1      1858 7.92003E-03-7.24602E-04-3.98403E-14
 -1      1859 7.69677E-03-6.72071E-04-3.75966E-14
 -1      1860 8.06636E-03-7.34196E-04-4.13607E-14
 -1      1861 8.21219E-03-7.43593E-04-4.29011E-14
 -1      1862 7.98953E-03-6.91774E-04-4.05874E-14
 -1      1863 8.35754E-03-7.52780E-04-4.44619E-14
 -1      1864 8.50249E-03-7.61723E-04-4.60419E-14
 -1      1865 8.28042E-03-7.10744E-04-4.36624E-14
 -1      1866 8.64708E-03-7.70430E-04-4.76445E-14
 -1      1867 8.79137E-03-7.78882E-04-4.92641E-14
 -1      1868 8.56984E-03-7.28765E-04-4.68193E-14
 -1      1869 8.93539E-03-7.87097E-04-5.09046E-14
 -1      1870 9.07920E-03-7.95068E-04-5.25666E-14
 -1      1871 8.85814E-03-7.45768E-04-5.00543E-14
 -1      1872 9.22280E-03-8.02818E-04-5.42461E-14
 -1      1873 9.36624E-03-8.10346E-04-5.59432E-14
 -1      1874 9.14560E-03-7.61783E-04-5.33691E-14
 -1      1875 9.50955E-03-8.17677E-04-5.76568E-14
 -1      1876 9.65274E-03-8.24813E-04-5.93864E-14
 -1      1877 9.43245E-03-7.76891E-04-5.67585E-14
 -1      1878 9.79584E-03-8.31779E-04-6.11288E-14
 -1      1879 9.93886E-03-8.38580E-04-6.28839E-14
 -1      1880 9.71885E-03-7.91200E-04-6.02097E-14
 -1      1881 1.00818E-02-8.45237E-04-6.46543E-14
 -1      1882 1.02247E-02-8.51758E-04-6.64349E-14
 -1      1883 1.00049E-02-8.04827E-04-6.37173E-14
 -1      1884 1.03676E-02-8.58162E-04-6.82262E-14
 -1      1885 1.05104E-02-8.64454E-04-7.00315E-14
 -1      1886 1.02908E-02-8.17884E-04-6.72753E-14
 -1      1887 1.06532E-02-8.70651E-04-7.18476E-14
 -1      1888 1.07960E-02-8.76761E-04-7.36729E-14
 -1      1889 1.05765E-02-8.30478E-04-7.08801E-14
 -1      1890 1.09388E-02-8.82795E-04-7.55086E-14
 -1      1891 1.10816E-02-8.88760E-04-7.73542E-14
 -1      1892 1.08622E-02-8.42701E-04-7.45261E-14
 -1      1893 1.12243E-02-8.94667E-04-7.92113E-14
 -1      1894 1.13671E-02-9.00521E-04-8.10765E-14
 -1      1895 1.11478E-02-8.54634E-04-7.82166E-14
 -1      1896 1.15098E-02-9.06331E-04-8.29476E-14
 -1      1897 1.16526E-02-9.12101E-04-8.48299E-14
 -1      1898 1.14334E-02-8.66342E-04-8.19441E-14
 -1      1899 1.17954E-02-9.17838E-04-8.67208E-14
 -1      1900 1.19381E-02-9.23546E-04-8.86199E-14
 -1      1901 1.17190E-02-8.77881E-04-8.57052E-14
 -1      1902 1.20809E-02-9.29229E-04-9.05306E-14
 -1      1903 1.22237E-02-9.34891E-04-9.24480E-14
 -1      1904 1.20046E-02-8.89294E-04-8.95046E-14
 -1      1905 1.23665E-02-9.40536E-04-9.43744E-14
 -1      1906 1.25093E-02-9.46166E-04-9.63109E-14
 -1      1907 1.22901E-02-9.00616E-04-9.33385E-14
 -1      1908 1.26521E-02-9.51784E-04-9.82569E-14
 -1      1909 1.27949E-02-9.57392E-04-1.00212E-13
 -1      1910 1.25758E-02-9.11874E-04-9.72118E-14
 -1      1911 1.29377E-02-9.62992E-04-1.02177E-13
 -1      1912 1.30805E-02-9.68586E-04-1.04151E-13
 -1      1913 1.28614E-02-9.23088E-04-1.01124E-13
 -1      1914 1.32233E-02-9.74175E-04-1.06133E-13
 -1      1915 1.33662E-02-9.79761E-04-1.08128E-13
 -1      1916 1.31470E-02-9.34274E-04-1.05074E-13
 -1      1917 1.35090E-02-9.85344E-04-1.10131E-13
 -1      1918 1.36518E-02-9.90925E-04-1.12139E-13
 -1      1919 1.34327E-02-9.45443E-04-1.09060E-13
 -1      1920 1.37947E-02-9.96506E-04-1.14155E-13
 -1      1921 1.39375E-02-1.00209E-03-1.16178E-13
 -1      1922 1.37184E-02-9.56605E-04-1.13080E-13
 -1      1923 1.40803E-02-1.00767E-03-1.18207E-13
 -1      1924 1.42232E-02-1.01325E-03-1.20239E-13
 -1      1925 1.40041E-02-9.67765E-04-1.17122E-13
 -1      1926 1.43660E-02-1.01884E-03-1.22276E-13
 -1      1927 1.45089E-02-1.02442E-03-1.24316E-13
 -1      1928 1.42898E-02-9.78930E-04-1.21187E-13
 -1      1929 1.46371E-02-1.03111E-03-1.26151E-13
 -1      1930 1.47800E-02-1.03670E-03-1.28201E-13
 -1      1931 1.48173E-02-1.00457E-03-1.28738E-13
 -1      1932 1.45608E-02-9.91196E-04-1.25059E-13
 -1      1933 1.36695E-03 5.40177E-04-6.79388E-16
 -1      1934 1.19434E-03 4.80442E-04-4.91740E-16
 -1      1935 1.14575E-03 4.41766E-04-5.10673E-16
 -1      1936 1.70591E-03 6.64024E-04-1.15507E-15
 -1      1937 1.53748E-03 6.01439E-04-9.00172E-16
 -1      1938 1.48949E-03 5.62559E-04-9.19132E-16
 -1      1939 2.03603E-03 7.93246E-04-1.76860E-15
 -1      1940 1.87234E-03 7.28388E-04-1.44439E-15
 -1      1941 1.82709E-03 6.89811E-04-1.46191E-15
 -1      1942 2.35503E-03 9.19248E-04-2.52481E-15
 -1      1943 2.19717E-03 8.57585E-04-2.12857E-15
 -1      1944 2.15691E-03 8.20576E-04-2.14364E-15
 -1      1945 2.66143E-03 1.02484E-03-3.42734E-15
 -1      1946 2.50979E-03 9.75788E-04-2.95761E-15
 -1      1947 2.47632E-03 9.42050E-04-2.96894E-15
 -1      1948 2.95704E-03 1.08951E-03-4.47786E-15
 -1      1949 2.81015E-03 1.06326E-03-3.93376E-15
 -1      1950 2.78426E-03 1.03397E-03-3.94148E-15
 -1      1951 3.24777E-03 1.09843E-03-5.68152E-15
 -1      1952 3.10223E-03 1.10111E-03-5.06036E-15
 -1      1953 3.08368E-03 1.07607E-03-5.06435E-15
 -1      1954 3.54180E-03 1.05099E-03-7.03615E-15
 -1      1955 3.39361E-03 1.08101E-03-6.33975E-15
 -1      1956 3.38165E-03 1.05851E-03-6.34005E-15
 -1      1957 3.84553E-03 9.61409E-04-8.53812E-15
 -1      1958 3.69206E-03 1.01015E-03-7.76909E-15
 -1      1959 3.68590E-03 9.88092E-04-7.76572E-15
 -1      1960 4.16086E-03 8.51880E-04-1.01828E-14
 -1      1961 4.00177E-03 9.07853E-04-9.34351E-15
 -1      1962 4.00038E-03 8.84781E-04-9.33697E-15
 -1      1963 4.48574E-03 7.43097E-04-1.19623E-14
 -1      1964 4.32242E-03 7.96527E-04-1.10554E-14
 -1      1965 4.32426E-03 7.71950E-04-1.10471E-14
 -1      1966 4.81597E-03 6.48696E-04-1.38695E-14
 -1      1967 4.65058E-03 6.93731E-04-1.29006E-14
 -1      1968 4.65373E-03 6.67820E-04-1.28879E-14
 -1      1969 5.14732E-03 5.74394E-04-1.58997E-14
 -1      1970 4.98186E-03 6.09029E-04-1.48694E-14
 -1      1971 4.98451E-03 5.82191E-04-1.48541E-14
 -1      1972 5.47647E-03 5.20178E-04-1.80486E-14
 -1      1973 5.31242E-03 5.44962E-04-1.69598E-14
 -1      1974 5.31326E-03 5.17586E-04-1.69397E-14
 -1      1975 5.80132E-03 4.83005E-04-2.03109E-14
 -1      1976 5.63958E-03 4.99708E-04-1.91662E-14
 -1      1977 5.63793E-03 4.72094E-04-1.91418E-14
 -1      1978 6.12082E-03 4.58833E-04-2.26805E-14
 -1      1979 5.96180E-03 4.69529E-04-2.14818E-14
 -1      1980 5.95752E-03 4.41889E-04-2.14524E-14
 -1      1981 6.43469E-03 4.43780E-04-2.51544E-14
 -1      1982 6.27846E-03 4.50359E-04-2.39047E-14
 -1      1983 6.27177E-03 4.22835E-04-2.38691E-14
 -1      1984 6.74321E-03 4.34627E-04-2.77262E-14
 -1      1985 6.58959E-03 4.38610E-04-2.64285E-14
 -1      1986 6.58087E-03 4.11287E-04-2.63879E-14
 -1      1987 7.04691E-03 4.28931E-04-3.03890E-14
 -1      1988 6.89561E-03 4.31448E-04-2.90470E-14
 -1      1989 6.88531E-03 4.04370E-04-2.90019E-14
 -1      1990 7.34647E-03 4.24954E-04-3.31396E-14
 -1      1991 7.19715E-03 4.26795E-04-3.17542E-14
 -1      1992 7.18568E-03 3.99976E-04-3.17047E-14
 -1      1993 7.64260E-03 4.21529E-04-3.59774E-14
 -1      1994 7.49491E-03 4.23215E-04-3.45477E-14
 -1      1995 7.48262E-03 3.96646E-04-3.44954E-14
 -1      1996 7.93597E-03 4.17918E-04-3.88981E-14
 -1      1997 7.78958E-03 4.19771E-04-3.74268E-14
 -1      1998 7.77675E-03 3.93433E-04-3.73704E-14
 -1      1999 8.22716E-03 4.13695E-04-4.18974E-14
 -1      2000 8.08179E-03 4.15895E-04-4.03878E-14
 -1      2001 8.06863E-03 3.89760E-04-4.03280E-14
 -1      2002 8.51667E-03 4.08646E-04-4.49780E-14
 -1      2003 8.37209E-03 4.11277E-04-4.34279E-14
 -1      2004 8.35875E-03 3.85316E-04-4.33644E-14
 -1      2005 8.80493E-03 4.02700E-04-4.81311E-14
 -1      2006 8.66093E-03 4.05784E-04-4.65462E-14
 -1      2007 8.64752E-03 3.79967E-04-4.64794E-14
 -1      2008 9.09226E-03 3.95873E-04-5.13547E-14
 -1      2009 8.94869E-03 3.99392E-04-4.97336E-14
 -1      2010 8.93528E-03 3.73692E-04-4.96646E-14
 -1      2011 9.37892E-03 3.88234E-04-5.46435E-14
 -1      2012 9.23566E-03 3.92149E-04-5.29916E-14
 -1      2013 9.22229E-03 3.66543E-04-5.29181E-14
 -1      2014 9.66513E-03 3.79877E-04-5.79927E-14
 -1      2015 9.52207E-03 3.84139E-04-5.63097E-14
 -1      2016 9.50877E-03 3.58605E-04-5.62340E-14
 -1      2017 9.95102E-03 3.70905E-04-6.14050E-14
 -1      2018 9.80811E-03 3.75462E-04-5.96916E-14
 -1      2019 9.79488E-03 3.49983E-04-5.96134E-14
 -1      2020 1.02367E-02 3.61421E-04-6.48775E-14
 -1      2021 1.00939E-02 3.66221E-04-6.31337E-14
 -1      2022 1.00807E-02 3.40785E-04-6.30543E-14
 -1      2023 1.05223E-02 3.51519E-04-6.84158E-14
 -1      2024 1.03795E-02 3.56517E-04-6.66386E-14
 -1      2025 1.03664E-02 3.31111E-04-6.65566E-14
 -1      2026 1.08078E-02 3.41283E-04-7.20194E-14
 -1      2027 1.06651E-02 3.46438E-04-7.02089E-14
 -1      2028 1.06520E-02 3.21055E-04-7.01265E-14
 -1      2029 1.10933E-02 3.30786E-04-7.56905E-14
 -1      2030 1.09506E-02 3.36064E-04-7.38473E-14
 -1      2031 1.09376E-02 3.10695E-04-7.37616E-14
 -1      2032 1.13788E-02 3.20087E-04-7.94291E-14
 -1      2033 1.12360E-02 3.25459E-04-7.75504E-14
 -1      2034 1.12231E-02 3.00101E-04-7.74608E-14
 -1      2035 1.16643E-02 3.09237E-04-8.32271E-14
 -1      2036 1.15215E-02 3.14679E-04-8.13216E-14
 -1      2037 1.15087E-02 2.89328E-04-8.12240E-14
 -1      2038 1.19498E-02 2.98274E-04-8.70768E-14
 -1      2039 1.18070E-02 3.03768E-04-8.51456E-14
 -1      2040 1.17942E-02 2.78421E-04-8.50416E-14
 -1      2041 1.22354E-02 2.87231E-04-9.09858E-14
 -1      2042 1.20926E-02 2.92761E-04-8.90245E-14
 -1      2043 1.20798E-02 2.67416E-04-8.89164E-14
 -1      2044 1.25209E-02 2.76130E-04-9.49491E-14
 -1      2045 1.23782E-02 2.81686E-04-9.29604E-14
 -1      2046 1.23653E-02 2.56342E-04-9.28475E-14
 -1      2047 1.28066E-02 2.64991E-04-9.89584E-14
 -1      2048 1.26637E-02 2.70564E-04-9.69471E-14
 -1      2049 1.26510E-02 2.45220E-04-9.68299E-14
 -1      2050 1.30922E-02 2.53828E-04-1.03014E-13
 -1      2051 1.29494E-02 2.59412E-04-1.00981E-13
 -1      2052 1.29366E-02 2.34067E-04-1.00857E-13
 -1      2053 1.33778E-02 2.42650E-04-1.07098E-13
 -1      2054 1.32350E-02 2.48240E-04-1.05053E-13
 -1      2055 1.32222E-02 2.22895E-04-1.04924E-13
 -1      2056 1.36635E-02 2.31468E-04-1.11205E-13
 -1      2057 1.35207E-02 2.37059E-04-1.09150E-13
 -1      2058 1.35079E-02 2.11713E-04-1.09014E-13
 -1      2059 1.39492E-02 2.20285E-04-1.15331E-13
 -1      2060 1.38063E-02 2.25876E-04-1.13264E-13
 -1      2061 1.37936E-02 2.00528E-04-1.13126E-13
 -1      2062 1.42349E-02 2.09108E-04-1.19488E-13
 -1      2063 1.40920E-02 2.14696E-04-1.17406E-13
 -1      2064 1.40793E-02 1.89346E-04-1.17262E-13
 -1      2065 1.45206E-02 1.97940E-04-1.23674E-13
 -1      2066 1.43777E-02 2.03523E-04-1.21579E-13
 -1      2067 1.43650E-02 1.78172E-04-1.21430E-13
 -1      2068 1.47559E-02 1.85774E-04-1.27149E-13
 -1      2069 1.46130E-02 1.91352E-04-1.25038E-13
 -1      2070 1.46003E-02 1.66000E-04-1.24890E-13
 -1      2071 1.47852E-02 1.52827E-04-1.27625E-13
 -1      2072 1.47840E-02-8.07480E-05-1.27884E-13
 -1      2073 1.47786E-02-3.85950E-05-1.27761E-13
 -1      2074 1.47731E-02 3.55607E-06-1.27634E-13
 -1      2075 1.47676E-02 4.57054E-05-1.27507E-13
 -1      2076 1.46521E-02-1.26871E-05-1.25878E-13
 -1      2077 1.47791E-02 7.81940E-05-1.27637E-13
 -1      2078 1.47737E-02 1.20340E-04-1.27501E-13
 -1      2079 1.46812E-02 1.26927E-04-1.26134E-13
 -1      2080 1.46582E-02 6.19517E-05-1.25880E-13
 -1      2081 1.47948E-02-1.63631E-04-1.28115E-13
 -1      2082 1.47894E-02-1.22188E-04-1.27999E-13
 -1      2083 1.46630E-02-9.62781E-05-1.26127E-13
 -1      2084 1.48057E-02-2.47949E-04-1.28342E-13
 -1      2085 1.48003E-02-2.05789E-04-1.28227E-13
 -1      2086 1.46738E-02-1.79876E-04-1.26361E-13
 -1      2087 1.48167E-02-3.32273E-04-1.28558E-13
 -1      2088 1.48112E-02-2.90110E-04-1.28453E-13
 -1      2089 1.46847E-02-2.64195E-04-1.26590E-13
 -1      2090 1.48277E-02-4.16600E-04-1.28768E-13
 -1      2091 1.48222E-02-3.74436E-04-1.28665E-13
 -1      2092 1.46957E-02-3.48518E-04-1.26811E-13
 -1      2093 1.48387E-02-5.00927E-04-1.28968E-13
 -1      2094 1.48332E-02-4.58764E-04-1.28869E-13
 -1      2095 1.47067E-02-4.32844E-04-1.27024E-13
 -1      2096 1.48497E-02-5.85253E-04-1.29154E-13
 -1      2097 1.48442E-02-5.43091E-04-1.29064E-13
 -1      2098 1.47177E-02-5.17169E-04-1.27225E-13
 -1      2099 1.48605E-02-6.68145E-04-1.29328E-13
 -1      2100 1.48551E-02-6.26700E-04-1.29241E-13
 -1      2101 1.47286E-02-6.00778E-04-1.27413E-13
 -1      2102 1.48715E-02-7.52460E-04-1.29499E-13
 -1      2103 1.48660E-02-7.10303E-04-1.29412E-13
 -1      2104 1.47395E-02-6.84382E-04-1.27589E-13
 -1      2105 1.48826E-02-8.36768E-04-1.29669E-13
 -1      2106 1.48770E-02-7.94615E-04-1.29584E-13
 -1      2107 1.47506E-02-7.68695E-04-1.27760E-13
 -1      2108 1.48936E-02-9.21068E-04-1.29836E-13
 -1      2109 1.48881E-02-8.78919E-04-1.29754E-13
 -1      2110 1.47616E-02-8.53000E-04-1.27932E-13
 -1      2111 5.01447E-03 6.11626E-05-1.00485E-14
 -1      2112 5.14402E-03 1.44588E-05-1.02874E-14
 -1      2113 5.38091E-03-6.99605E-05-1.06533E-14
 -1      2114 5.38515E-03-8.33651E-05-1.07292E-14
 -1      2115 5.27517E-03-2.79491E-05-1.04505E-14
 -1      2116 5.34458E-03-4.93456E-05-1.05500E-14
 -1      2117 5.37131E-03-6.75746E-05-1.10736E-14
 -1      2118 4.67283E-03 1.99354E-04-9.50768E-15
 -1      2119 4.85453E-03 1.25102E-04-9.77451E-15
 -1      2120 4.93021E-03 6.94830E-05-1.03462E-14
 -1      2121 4.23201E-03 4.29025E-04-8.58100E-15
 -1      2122 4.42394E-03 3.22783E-04-8.99957E-15
 -1      2123 3.25654E-04-3.05992E-05-1.93693E-16
 -1      2124 3.41539E-04-4.65199E-05-1.88502E-16
 -1      2125 4.73699E-04-8.56226E-05-2.74710E-16
 -1      2126 4.29250E-04-4.26135E-05-2.88127E-16
 -1      2127 3.49599E-03 8.02507E-04-6.81592E-15
 -1      2128 3.65370E-03 7.33867E-04-7.22599E-15
 -1      2129 3.17074E-03 8.71846E-04-5.94834E-15
 -1      2130 3.32005E-03 8.51131E-04-6.34115E-15
 -1      2131 2.84680E-03 8.30748E-04-5.12407E-15
 -1      2132 2.99775E-03 8.67305E-04-5.50411E-15
 -1      2133 2.46735E-03 6.68318E-04-4.38072E-15
 -1      2134 2.63856E-03 7.52848E-04-4.69763E-15
 -1      2135 2.08802E-03 4.59823E-04-3.77254E-15
 -1      2136 2.27519E-03 5.66849E-04-4.05530E-15
 -1      2137 1.64347E-03 2.44996E-04-3.32273E-15
 -1      2138 1.83642E-03 3.31635E-04-3.48758E-15
 -1      2139 1.31998E-03 1.11470E-04-3.04834E-15
 -1      2140 1.46894E-03 1.71115E-04-3.17485E-15
 -1      2141 1.05897E-03 1.91560E-05-2.83373E-15
 -1      2142 1.17000E-03 5.28919E-05-2.91164E-15
 -1      2143 9.14877E-04-2.70808E-05-2.71831E-15
 -1      2144 9.64747E-04-1.36975E-05-2.74456E-15
 -1      2145 9.25503E-04-5.33472E-05-2.76343E-15
 -1      2146 9.00776E-04-4.26055E-05-2.74315E-15
 -1      2147 1.09580E-03-1.10386E-04-2.94580E-15
 -1      2148 9.99626E-04-8.06079E-05-2.85166E-15
 -1      2149 1.37735E-03-2.12886E-04-3.20312E-15
 -1      2150 1.23198E-03-1.57728E-04-3.06541E-15
 -1      2151 1.73747E-03-3.67615E-04-3.54769E-15
 -1      2152 1.55579E-03-2.85434E-04-3.36652E-15
 -1      2153 2.16396E-03-5.97680E-04-4.10837E-15
 -1      2154 1.98188E-03-4.90382E-04-3.83379E-15
 -1      2155 2.53381E-03-8.00619E-04-4.71148E-15
 -1      2156 2.35235E-03-7.01552E-04-4.40308E-15
 -1      2157 2.28197E-03-6.40761E-04-4.12527E-15
 -1      2158 2.91248E-03-9.68035E-04-5.56667E-15
 -1      2159 2.75724E-03-9.07561E-04-5.18341E-15
 -1      2160 3.22145E-03-1.00722E-03-6.37917E-15
 -1      2161 3.08351E-03-1.00211E-03-6.00480E-15
 -1      2162 3.50744E-03-9.49041E-04-7.16359E-15
 -1      2163 3.36606E-03-9.89760E-04-6.76575E-15
 -1      2164 3.28567E-03-1.01105E-03-6.60060E-15
 -1      2165 3.87294E-03-7.88889E-04-8.07750E-15
 -1      2166 3.71531E-03-8.67180E-04-7.71318E-15
 -1      2167 4.19110E-03-6.21566E-04-8.73932E-15
 -1      2168 4.02986E-03-7.09788E-04-8.40559E-15
 -1      2169 3.92743E-03-7.48565E-04-8.43173E-15
 -1      2170 4.56511E-03-4.29648E-04-9.42608E-15
 -1      2171 4.40186E-03-5.12807E-04-9.13638E-15
 -1      2172 4.89430E-03-2.75477E-04-1.00087E-14
 -1      2173 4.74452E-03-3.40368E-04-9.77689E-15
 -1      2174 5.15339E-03-1.76619E-04-1.03778E-14
 -1      2175 5.03187E-03-2.21202E-04-1.01918E-14
 -1      2176 4.94788E-03-2.31619E-04-1.04802E-14
 -1      2177 5.34419E-03-1.07313E-04-1.07106E-14
 -1      2178 5.27574E-03-1.29416E-04-1.06087E-14
 -1      2179 3.85233E-03 6.41577E-04-7.67073E-15
 -1      2180 4.02656E-03 5.44977E-04-8.08017E-15
 -1      2181 7.26182E-04-2.76351E-04-3.01340E-16
 -1      2182 2.75884E-03 8.01322E-04-4.85026E-15
 -1      2183 3.72756E-03 6.90599E-04-7.56114E-15
 -1      2184 7.79981E-04-2.65445E-04-3.99623E-16
 -1      2185 5.21618E-03-2.32993E-05-1.07987E-14
 -1      2186 1.48563E-02-9.53203E-04-1.29300E-13
 -1      2187 4.54133E-03 2.43494E-04-9.54155E-15
 -1      2188 5.37617E-03-9.12879E-05-1.11598E-14
 -1      2189 4.10581E-03 4.79920E-04-8.51639E-15
 -1      2190 5.21238E-03-1.40107E-04-1.09031E-14
 -1      2191 4.26836E-03-5.60093E-04-9.16785E-15
 -1      2192 3.59825E-03-9.17044E-04-7.53661E-15
 -1      2193 2.65822E-03-8.57901E-04-4.86891E-15
 -1      2194 1.87767E-03-4.13191E-04-3.56193E-15
 -1      2195 1.47497E-03-2.22865E-04-3.13440E-15
 -1      2196 1.16744E-03-1.12669E-04-2.86532E-15
 -1      2197 9.55495E-04-5.44432E-05-2.66625E-15
 -1      2198 8.98925E-04-3.48897E-05-2.55816E-15
 -1      2199 1.00519E-03-1.27466E-05-2.61871E-15
 -1      2200 1.24716E-03 6.00556E-05-2.83474E-15
 -1      2201 1.56565E-03 1.84756E-04-3.10773E-15
 -1      2202 1.97485E-03 3.82885E-04-3.52110E-15
 -1      2203 2.09087E-03 4.38081E-04-3.55018E-15
 -1      2204 1.86374E-03 3.13686E-04-3.28101E-15
 -1      2205 2.38849E-03 6.15813E-04-4.11451E-15
 -1      2206 3.40211E-03 8.35731E-04-6.63364E-15
 -1      2207 3.08727E-03 8.82047E-04-5.71394E-15
 -1      2208 3.00943E-03-9.97399E-04-5.77438E-15
 -1      2209 4.64270E-03-3.65254E-04-9.93096E-15
 -1      2210 1.19385E-03 4.25956E-04-6.51944E-16
 -1      2211 1.02175E-03 3.67608E-04-4.74366E-16
 -1      2212 4.24867E-04-6.09299E-06-4.19044E-16
 -1      2213 4.46811E-04-1.10472E-05-4.18922E-16
 -1      2214 4.72763E-04-2.05083E-05-4.18014E-16
 -1      2215 5.00490E-04-3.45789E-05-4.15548E-16
 -1      2216 5.54191E-04-2.59125E-05-5.64693E-16
 -1      2217 3.96699E-04-1.28279E-05-4.09381E-16
 -1      2218 3.93164E-04-9.90977E-06-4.13217E-16
 -1      2219 4.23700E-04-1.26944E-05-3.99542E-16
 -1      2220 4.07354E-04-1.42916E-05-4.04963E-16
 -1      2221 4.78779E-04-1.48561E-05-5.49528E-16
 -1      2222 4.68351E-04 2.15517E-06-3.85935E-16
 -1      2223 4.44651E-04-7.39431E-06-3.93443E-16
 -1      2224 5.21171E-04-7.76830E-06-5.36016E-16
 -1      2225 5.21081E-04 3.50898E-05-3.67341E-16
 -1      2226 4.94616E-04 1.65034E-05-3.77275E-16
 -1      2227 5.82954E-04 1.86301E-05-5.17327E-16
 -1      2228 5.73083E-04 8.41608E-05-3.41646E-16
 -1      2229 5.47567E-04 5.79200E-05-3.55700E-16
 -1      2230 6.50113E-04 6.56120E-05-4.92119E-16
 -1      2231 6.22583E-04 1.46515E-04-3.05772E-16
 -1      2232 5.98100E-04 1.13894E-04-3.25450E-16
 -1      2233 7.13560E-04 1.29200E-04-4.57560E-16
 -1      2234 1.53655E-03 5.47145E-04-1.10365E-15
 -1      2235 1.36560E-03 4.85696E-04-8.61304E-16
 -1      2236 1.24347E-03 4.09652E-04-8.00426E-16
 -1      2237 1.06678E-03-3.40106E-04-7.55852E-16
 -1      2238 1.23967E-03-3.99643E-04-9.91015E-16
 -1      2239 2.66292E-03 7.59265E-04-4.53657E-15
 -1      2240 2.83368E-03 8.36051E-04-4.94925E-15
 -1      2241 1.41399E-03-4.62432E-04-1.26011E-15
 -1      2242 1.58913E-03-5.29305E-04-1.56437E-15
 -1      2243 1.28371E-03-3.82496E-04-1.14877E-15
 -1      2244 1.76584E-03-6.00744E-04-1.90410E-15
 -1      2245 1.94255E-03-6.76511E-04-2.27959E-15
 -1      2246 1.63390E-03-5.12567E-04-1.75939E-15
 -1      2247 2.11990E-03-7.55674E-04-2.69119E-15
 -1      2248 2.29560E-03-8.35866E-04-3.14038E-15
 -1      2249 1.99276E-03-6.63636E-04-2.50949E-15
 -1      2250 2.46957E-03-9.14530E-04-3.62770E-15
 -1      2251 2.64039E-03-9.86626E-04-4.15394E-15
 -1      2252 2.35372E-03-8.28817E-04-3.40555E-15
 -1      2253 2.80717E-03-1.04865E-03-4.71857E-15
 -1      2254 2.97136E-03-1.09438E-03-5.32327E-15
 -1      2255 2.70560E-03-9.82372E-04-4.45390E-15
 -1      2256 3.13209E-03-1.12126E-03-5.96848E-15
 -1      2257 3.29318E-03-1.12652E-03-6.65245E-15
 -1      2258 3.04250E-03-1.08162E-03-5.66135E-15
 -1      2259 3.45275E-03-1.11044E-03-7.37524E-15
 -1      2260 3.61704E-03-1.07660E-03-8.13695E-15
 -1      2261 3.37110E-03-1.09227E-03-7.02784E-15
 -1      2262 3.78383E-03-1.02835E-03-8.93456E-15
 -1      2263 3.95407E-03-9.71271E-04-9.76911E-15
 -1      2264 3.70678E-03-1.01597E-03-8.55009E-15
 -1      2265 4.12705E-03-9.09312E-04-1.06388E-14
 -1      2266 4.30116E-03-8.48069E-04-1.15411E-14
 -1      2267 4.05788E-03-8.92420E-04-1.02194E-14
 -1      2268 4.47612E-03-7.90109E-04-1.24752E-14
 -1      2269 4.64964E-03-7.37608E-04-1.34411E-14
 -1      2270 4.41534E-03-7.65437E-04-1.20242E-14
 -1      2271 4.82227E-03-6.91947E-04-1.44360E-14
 -1      2272 4.99222E-03-6.53334E-04-1.54609E-14
 -1      2273 4.76787E-03-6.61230E-04-1.39543E-14
 -1      2274 5.16037E-03-6.22085E-04-1.65152E-14
 -1      2275 5.32575E-03-5.97438E-04-1.75954E-14
 -1      2276 5.10880E-03-5.87353E-04-1.60030E-14
 -1      2277 5.48917E-03-5.79080E-04-1.87024E-14
 -1      2278 5.65020E-03-5.66114E-04-1.98377E-14
 -1      2279 5.43713E-03-5.41796E-04-1.81630E-14
 -1      2280 5.80943E-03-5.57951E-04-2.09992E-14
 -1      2281 5.96678E-03-5.53792E-04-2.21854E-14
 -1      2282 5.75476E-03-5.18910E-04-2.04283E-14
 -1      2283 6.12260E-03-5.53007E-04-2.33980E-14
 -1      2284 6.27698E-03-5.54993E-04-2.46365E-14
 -1      2285 6.06427E-03-5.12707E-04-2.27990E-14
 -1      2286 6.43007E-03-5.59192E-04-2.59003E-14
 -1      2287 6.58205E-03-5.65172E-04-2.71867E-14
 -1      2288 6.36790E-03-5.18008E-04-2.52709E-14
 -1      2289 6.73297E-03-5.72491E-04-2.84975E-14
 -1      2290 6.88301E-03-5.80850E-04-2.98324E-14
 -1      2291 6.66727E-03-5.30744E-04-2.78411E-14
 -1      2292 7.03217E-03-5.89931E-04-3.11905E-14
 -1      2293 7.18063E-03-5.99528E-04-3.25728E-14
 -1      2294 6.96349E-03-5.47891E-04-3.05059E-14
 -1      2295 7.32837E-03-6.09429E-04-3.39777E-14
 -1      2296 7.47555E-03-6.19497E-04-3.54045E-14
 -1      2297 7.25732E-03-5.67310E-04-3.32645E-14
 -1      2298 7.62215E-03-6.29601E-04-3.68550E-14
 -1      2299 7.76829E-03-6.39653E-04-3.83259E-14
 -1      2300 7.54928E-03-5.87555E-04-3.61153E-14
 -1      2301 7.91397E-03-6.49580E-04-3.98183E-14
 -1      2302 8.05929E-03-6.59327E-04-4.13330E-14
 -1      2303 7.83976E-03-6.07703E-04-3.90534E-14
 -1      2304 8.20424E-03-6.68862E-04-4.28678E-14
 -1      2305 8.34890E-03-6.78153E-04-4.44230E-14
 -1      2306 8.12908E-03-6.27208E-04-4.20759E-14
 -1      2307 8.49328E-03-6.87196E-04-4.59978E-14
 -1      2308 8.63743E-03-6.95973E-04-4.75937E-14
 -1      2309 8.41747E-03-6.45786E-04-4.51808E-14
 -1      2310 8.78137E-03-7.04495E-04-4.92083E-14
 -1      2311 8.92514E-03-7.12756E-04-5.08425E-14
 -1      2312 8.70514E-03-6.63328E-04-4.83652E-14
 -1      2313 9.06874E-03-7.20776E-04-5.24961E-14
 -1      2314 9.21221E-03-7.28554E-04-5.41707E-14
 -1      2315 8.99225E-03-6.79835E-04-5.16279E-14
 -1      2316 9.35556E-03-7.36114E-04-5.58630E-14
 -1      2317 9.49882E-03-7.43461E-04-5.75710E-14
 -1      2318 9.27894E-03-6.95377E-04-5.49699E-14
 -1      2319 9.64199E-03-7.50618E-04-5.92940E-14
 -1      2320 9.78509E-03-7.57592E-04-6.10307E-14
 -1      2321 9.56530E-03-7.10056E-04-5.83806E-14
 -1      2322 9.92813E-03-7.64405E-04-6.27818E-14
 -1      2323 1.00711E-02-7.71065E-04-6.45476E-14
 -1      2324 9.85144E-03-7.23991E-04-6.18503E-14
 -1      2325 1.02141E-02-7.77592E-04-6.63244E-14
 -1      2326 1.03570E-02-7.83994E-04-6.81125E-14
 -1      2327 1.01374E-02-7.37300E-04-6.53735E-14
 -1      2328 1.04999E-02-7.90289E-04-6.99134E-14
 -1      2329 1.06427E-02-7.96483E-04-7.17256E-14
 -1      2330 1.04232E-02-7.50094E-04-6.89485E-14
 -1      2331 1.07856E-02-8.02592E-04-7.35478E-14
 -1      2332 1.09284E-02-8.08622E-04-7.53786E-14
 -1      2333 1.07090E-02-7.62475E-04-7.25688E-14
 -1      2334 1.10713E-02-8.14586E-04-7.72213E-14
 -1      2335 1.12141E-02-8.20489E-04-7.90762E-14
 -1      2336 1.09947E-02-7.74529E-04-7.62304E-14
 -1      2337 1.13569E-02-8.26340E-04-8.09394E-14
 -1      2338 1.14997E-02-8.32146E-04-8.28112E-14
 -1      2339 1.12804E-02-7.86329E-04-7.99336E-14
 -1      2340 1.16425E-02-8.37913E-04-8.46900E-14
 -1      2341 1.17853E-02-8.43646E-04-8.65804E-14
 -1      2342 1.15661E-02-7.97936E-04-8.36773E-14
 -1      2343 1.19282E-02-8.49350E-04-8.84790E-14
 -1      2344 1.20710E-02-8.55030E-04-9.03864E-14
 -1      2345 1.18517E-02-8.09399E-04-8.74539E-14
 -1      2346 1.22138E-02-8.60689E-04-9.23051E-14
 -1      2347 1.23566E-02-8.66331E-04-9.42310E-14
 -1      2348 1.21374E-02-8.20756E-04-9.12674E-14
 -1      2349 1.24994E-02-8.71958E-04-9.61678E-14
 -1      2350 1.26422E-02-8.77574E-04-9.81136E-14
 -1      2351 1.24231E-02-8.32037E-04-9.51227E-14
 -1      2352 1.27851E-02-8.83180E-04-1.00070E-13
 -1      2353 1.29279E-02-8.88778E-04-1.02037E-13
 -1      2354 1.27087E-02-8.43267E-04-9.90155E-14
 -1      2355 1.30707E-02-8.94370E-04-1.04014E-13
 -1      2356 1.32136E-02-8.99957E-04-1.05999E-13
 -1      2357 1.29944E-02-8.54462E-04-1.02951E-13
 -1      2358 1.33564E-02-9.05541E-04-1.07992E-13
 -1      2359 1.34992E-02-9.11122E-04-1.09994E-13
 -1      2360 1.32801E-02-8.65635E-04-1.06923E-13
 -1      2361 1.36421E-02-9.16702E-04-1.12006E-13
 -1      2362 1.37849E-02-9.22282E-04-1.14020E-13
 -1      2363 1.35658E-02-8.76798E-04-1.10928E-13
 -1      2364 1.39278E-02-9.27861E-04-1.16039E-13
 -1      2365 1.40706E-02-9.33442E-04-1.18065E-13
 -1      2366 1.38515E-02-8.87956E-04-1.14958E-13
 -1      2367 1.42135E-02-9.39023E-04-1.20097E-13
 -1      2368 1.43563E-02-9.44607E-04-1.22134E-13
 -1      2369 1.41372E-02-8.99116E-04-1.19008E-13
 -1      2370 2.21113E-03 8.09132E-04-2.41333E-15
 -1      2371 2.04492E-03 7.43183E-04-2.03362E-15
 -1      2372 2.53650E-03 9.29689E-04-3.28132E-15
 -1      2373 2.37519E-03 8.72358E-04-2.82874E-15
 -1      2374 2.27078E-03 7.97731E-04-2.68724E-15
 -1      2375 2.85069E-03 1.01509E-03-4.29722E-15
 -1      2376 2.69463E-03 9.78352E-04-3.77079E-15
 -1      2377 2.60189E-03 9.17502E-04-3.59740E-15
 -1      2378 3.15715E-03 1.04428E-03-5.46571E-15
 -1      2379 3.00402E-03 1.03770E-03-4.86221E-15
 -1      2380 2.92134E-03 9.95442E-04-4.65734E-15
 -1      2381 3.46386E-03 1.00997E-03-6.78652E-15
 -1      2382 3.30938E-03 1.03465E-03-6.10680E-15
 -1      2383 3.23382E-03 1.00942E-03-5.87033E-15
 -1      2384 3.77877E-03 9.24498E-04-8.25612E-15
 -1      2385 3.61984E-03 9.72107E-04-7.50302E-15
 -1      2386 3.54943E-03 9.56328E-04-7.23683E-15
 -1      2387 4.10348E-03 8.12628E-04-9.87062E-15
 -1      2388 3.94004E-03 8.70234E-04-9.04565E-15
 -1      2389 3.87519E-03 8.55922E-04-8.75183E-15
 -1      2390 4.43478E-03 6.98420E-04-1.16204E-14
 -1      2391 4.26881E-03 7.54565E-04-1.07289E-14
 -1      2392 4.20994E-03 7.36992E-04-1.04082E-14
 -1      2393 4.76752E-03 5.98244E-04-1.34994E-14
 -1      2394 4.60148E-03 6.45995E-04-1.25442E-14
 -1      2395 4.54775E-03 6.23630E-04-1.21987E-14
 -1      2396 5.09765E-03 5.18981E-04-1.55001E-14
 -1      2397 4.93327E-03 5.55881E-04-1.44848E-14
 -1      2398 4.88261E-03 5.29153E-04-1.41140E-14
 -1      2399 5.42299E-03 4.60989E-04-1.76189E-14
 -1      2400 5.26112E-03 4.87470E-04-1.65452E-14
 -1      2401 5.21115E-03 4.57274E-04-1.61494E-14
 -1      2402 5.74277E-03 4.21200E-04-1.98504E-14
 -1      2403 5.58366E-03 4.39059E-04-1.87207E-14
 -1      2404 5.53251E-03 4.06278E-04-1.83001E-14
 -1      2405 6.05701E-03 3.95412E-04-2.21896E-14
 -1      2406 5.90059E-03 4.06805E-04-2.10070E-14
 -1      2407 5.84715E-03 3.72189E-04-2.05614E-14
 -1      2408 6.36614E-03 3.79526E-04-2.46343E-14
 -1      2409 6.21218E-03 3.86446E-04-2.33988E-14
 -1      2410 6.15603E-03 3.50610E-04-2.29300E-14
 -1      2411 6.67073E-03 3.70116E-04-2.71777E-14
 -1      2412 6.51895E-03 3.74182E-04-2.58942E-14
 -1      2413 6.46017E-03 3.37616E-04-2.54008E-14
 -1      2414 6.97142E-03 3.64555E-04-2.98155E-14
 -1      2415 6.82151E-03 3.66981E-04-2.84856E-14
 -1      2416 6.76041E-03 3.30063E-04-2.79698E-14
 -1      2417 7.26880E-03 3.60954E-04-3.25421E-14
 -1      2418 7.12047E-03 3.62600E-04-3.11677E-14
 -1      2419 7.05749E-03 3.25603E-04-3.06315E-14
 -1      2420 7.56345E-03 3.58032E-04-3.53559E-14
 -1      2421 7.41642E-03 3.59469E-04-3.39382E-14
 -1      2422 7.35200E-03 3.22581E-04-3.33820E-14
 -1      2423 7.85587E-03 3.54972E-04-3.82543E-14
 -1      2424 7.70990E-03 3.56558E-04-3.67945E-14
 -1      2425 7.64443E-03 3.19892E-04-3.62182E-14
 -1      2426 8.14653E-03 3.51292E-04-4.12310E-14
 -1      2427 8.00139E-03 3.53232E-04-3.97325E-14
 -1      2428 7.93519E-03 3.16846E-04-3.91375E-14
 -1      2429 8.43580E-03 3.46747E-04-4.42906E-14
 -1      2430 8.29131E-03 3.49140E-04-4.27507E-14
 -1      2431 8.22463E-03 3.13054E-04-4.21376E-14
 -1      2432 8.72400E-03 3.41249E-04-4.74230E-14
 -1      2433 8.58001E-03 3.44122E-04-4.58470E-14
 -1      2434 8.51305E-03 3.08330E-04-4.52156E-14
 -1      2435 9.01139E-03 3.34808E-04-5.06284E-14
 -1      2436 8.86778E-03 3.38147E-04-4.90183E-14
 -1      2437 8.80066E-03 3.02626E-04-4.83696E-14
 -1      2438 9.29820E-03 3.27491E-04-5.38997E-14
 -1      2439 9.15486E-03 3.31256E-04-5.22552E-14
 -1      2440 9.08768E-03 2.95976E-04-5.15926E-14
 -1      2441 9.58457E-03 3.19397E-04-5.72324E-14
 -1      2442 9.44143E-03 3.23537E-04-5.55576E-14
 -1      2443 9.37426E-03 2.88464E-04-5.48815E-14
 -1      2444 9.87065E-03 3.10636E-04-6.06302E-14
 -1      2445 9.72764E-03 3.15095E-04-5.89244E-14
 -1      2446 9.66051E-03 2.80195E-04-5.82336E-14
 -1      2447 1.01565E-02 3.01317E-04-6.40875E-14
 -1      2448 1.00136E-02 3.06041E-04-6.23514E-14
 -1      2449 9.94653E-03 2.71283E-04-6.16489E-14
 -1      2450 1.04423E-02 2.91543E-04-6.76106E-14
 -1      2451 1.02994E-02 2.96482E-04-6.58407E-14
 -1      2452 1.02324E-02 2.61838E-04-6.51255E-14
 -1      2453 1.07279E-02 2.81404E-04-7.11974E-14
 -1      2454 1.05851E-02 2.86515E-04-6.93963E-14
 -1      2455 1.05181E-02 2.51959E-04-6.86651E-14
 -1      2456 1.10135E-02 2.70978E-04-7.48489E-14
 -1      2457 1.08707E-02 2.76223E-04-7.30147E-14
 -1      2458 1.08038E-02 2.41737E-04-7.22696E-14
 -1      2459 1.12991E-02 2.60331E-04-7.85630E-14
 -1      2460 1.11563E-02 2.65679E-04-7.66973E-14
 -1      2461 1.10895E-02 2.31245E-04-7.59374E-14
 -1      2462 1.15847E-02 2.49518E-04-8.23378E-14
 -1      2463 1.14419E-02 2.54943E-04-8.04434E-14
 -1      2464 1.13751E-02 2.20548E-04-7.96654E-14
 -1      2465 1.18703E-02 2.38580E-04-8.61648E-14
 -1      2466 1.17275E-02 2.44062E-04-8.42456E-14
 -1      2467 1.16608E-02 2.09695E-04-8.34501E-14
 -1      2468 1.21559E-02 2.27553E-04-9.00526E-14
 -1      2469 1.20131E-02 2.33076E-04-8.81011E-14
 -1      2470 1.19464E-02 1.98729E-04-8.72902E-14
 -1      2471 1.24415E-02 2.16462E-04-9.39949E-14
 -1      2472 1.22987E-02 2.22014E-04-9.20165E-14
 -1      2473 1.22320E-02 1.87680E-04-9.11889E-14
 -1      2474 1.27271E-02 2.05329E-04-9.79852E-14
 -1      2475 1.25843E-02 2.10900E-04-9.59847E-14
 -1      2476 1.25177E-02 1.76575E-04-9.51392E-14
 -1      2477 1.30128E-02 1.94167E-04-1.02018E-13
 -1      2478 1.28700E-02 1.99751E-04-9.99943E-14
 -1      2479 1.28033E-02 1.65431E-04-9.91366E-14
 -1      2480 1.32984E-02 1.82990E-04-1.06084E-13
 -1      2481 1.31556E-02 1.88580E-04-1.04048E-13
 -1      2482 1.30890E-02 1.54263E-04-1.03174E-13
 -1      2483 1.35841E-02 1.71805E-04-1.10175E-13
 -1      2484 1.34413E-02 1.77398E-04-1.08127E-13
 -1      2485 1.33747E-02 1.43082E-04-1.07242E-13
 -1      2486 1.38698E-02 1.60619E-04-1.14288E-13
 -1      2487 1.37270E-02 1.66212E-04-1.12230E-13
 -1      2488 1.36604E-02 1.31895E-04-1.11333E-13
 -1      2489 1.41555E-02 1.49438E-04-1.18429E-13
 -1      2490 1.40127E-02 1.55028E-04-1.16354E-13
 -1      2491 1.39460E-02 1.20709E-04-1.15450E-13
 -1      2492 1.44412E-02 1.38265E-04-1.22601E-13
 -1      2493 1.42984E-02 1.43850E-04-1.20509E-13
 -1      2494 1.42317E-02 1.09528E-04-1.19593E-13
 -1      2495 1.45887E-02 1.33514E-04-1.24767E-13
 -1      2496 1.45528E-02-1.96120E-04-1.24612E-13
 -1      2497 1.45473E-02-1.53962E-04-1.24495E-13
 -1      2498 1.45638E-02-2.80439E-04-1.24844E-13
 -1      2499 1.45583E-02-2.38279E-04-1.24729E-13
 -1      2500 1.44318E-02-2.12361E-04-1.22872E-13
 -1      2501 1.45311E-02-2.89280E-05-1.24127E-13
 -1      2502 1.45257E-02 1.32227E-05-1.23996E-13
 -1      2503 1.45419E-02-1.12163E-04-1.24374E-13
 -1      2504 1.45365E-02-7.07233E-05-1.24252E-13
 -1      2505 1.44101E-02-4.48096E-05-1.22382E-13
 -1      2506 1.44209E-02-1.28403E-04-1.22631E-13
 -1      2507 4.86459E-03 8.58796E-05-1.06491E-14
 -1      2508 5.00846E-03 3.28956E-05-1.09376E-14
 -1      2509 1.45747E-02-3.64762E-04-1.25068E-13
 -1      2510 1.45692E-02-3.22600E-04-1.24957E-13
 -1      2511 1.44428E-02-2.96682E-04-1.23107E-13
 -1      2512 1.45857E-02-4.49087E-04-1.25284E-13
 -1      2513 1.45802E-02-4.06925E-04-1.25178E-13
 -1      2514 1.44537E-02-3.81005E-04-1.23335E-13
 -1      2515 1.45967E-02-5.33411E-04-1.25485E-13
 -1      2516 1.45912E-02-4.91249E-04-1.25385E-13
 -1      2517 1.44647E-02-4.65330E-04-1.23549E-13
 -1      2518 1.46075E-02-6.16304E-04-1.25671E-13
 -1      2519 1.46021E-02-5.74858E-04-1.25579E-13
 -1      2520 1.44756E-02-5.48939E-04-1.23750E-13
 -1      2521 1.46186E-02-7.00620E-04-1.25850E-13
 -1      2522 1.46131E-02-6.58463E-04-1.25763E-13
 -1      2523 1.44866E-02-6.32545E-04-1.23938E-13
 -1      2524 1.46296E-02-7.84931E-04-1.26025E-13
 -1      2525 1.46241E-02-7.42776E-04-1.25938E-13
 -1      2526 1.44976E-02-7.16860E-04-1.24119E-13
 -1      2527 1.46406E-02-8.69234E-04-1.26196E-13
 -1      2528 1.46351E-02-8.27083E-04-1.26108E-13
 -1      2529 1.45087E-02-8.01168E-04-1.24293E-13
 -1      2530 1.47281E-02-9.46516E-04-1.27455E-13
 -1      2531 4.42258E-03 2.93197E-04-9.65272E-15
 -1      2532 4.64586E-03 1.81541E-04-1.01813E-14
 -1      2533 1.87653E-03 6.76504E-04-1.68938E-15
 -1      2534 1.70722E-03 6.10926E-04-1.37948E-15
 -1      2535 1.93044E-03 6.62726E-04-1.92155E-15
 -1      2536 5.36136E-03-6.80924E-05-1.15539E-14
 -1      2537 5.39671E-03-7.48649E-05-1.16621E-14
 -1      2538 5.40365E-03-8.58274E-05-1.17157E-14
 -1      2539 5.36719E-03-9.41420E-05-1.16960E-14
 -1      2540 6.73095E-04-1.96753E-04-3.64482E-16
 -1      2541 9.03438E-04-2.79502E-04-5.77256E-16
 -1      2542 9.51534E-04-2.65475E-04-6.97901E-16
 -1      2543 6.42745E-04-1.59322E-04-3.82818E-16
 -1      2544 4.35974E-03-4.97715E-04-9.71239E-15
 -1      2545 4.17697E-03-6.01730E-04-9.29947E-15
 -1      2546 2.75973E-03-9.12216E-04-4.99955E-15
 -1      2547 2.57598E-03-8.09491E-04-4.54269E-15
 -1      2548 1.98054E-03-4.53569E-04-3.51637E-15
 -1      2549 1.76599E-03-3.37047E-04-3.25187E-15
 -1      2550 3.96901E-04-6.68109E-06-4.15968E-16
 -1      2551 4.07621E-04-5.05888E-06-4.17946E-16
 -1      2552 4.97238E-04-1.05499E-05-5.64124E-16
 -1      2553 4.69284E-04-1.11160E-05-5.58933E-16
 -1      2554 3.03812E-03 8.85881E-04-5.53084E-15
 -1      2555 3.17621E-03 8.88527E-04-5.97420E-15
 -1      2556 3.08814E-03-1.02000E-03-5.99274E-15
 -1      2557 2.95139E-03-9.87370E-04-5.55765E-15
 -1      2558 3.66178E-03 7.25878E-04-7.53816E-15
 -1      2559 3.82160E-03 6.34355E-04-7.99454E-15
 -1      2560 3.32038E-03 8.66353E-04-6.43165E-15
 -1      2561 3.46245E-03 8.17663E-04-6.90791E-15
 -1      2562 3.25459E-03 8.84342E-04-6.23077E-15
 -1      2563 2.32001E-03 5.69160E-04-3.85119E-15
 -1      2564 2.48539E-03 6.66888E-04-4.16232E-15
 -1      2565 1.48338E-03 1.33213E-04-2.87658E-15
 -1      2566 1.63988E-03 2.01313E-04-3.01090E-15
 -1      2567 1.18640E-03 2.74264E-05-2.61741E-15
 -1      2568 1.32860E-03 7.31173E-05-2.74336E-15
 -1      2569 9.61685E-04-2.58568E-05-2.35525E-15
 -1      2570 1.05264E-03-1.09165E-05-2.43684E-15
 -1      2571 8.85732E-04-3.45817E-05-2.37658E-15
 -1      2572 8.95955E-04-3.56613E-05-2.35258E-15
 -1      2573 9.91972E-04-5.12615E-05-2.52606E-15
 -1      2574 9.19752E-04-4.11256E-05-2.44517E-15
 -1      2575 1.22818E-03-1.12019E-04-2.72586E-15
 -1      2576 1.10209E-03-7.74276E-05-2.61866E-15
 -1      2577 1.54853E-03-2.34932E-04-3.03342E-15
 -1      2578 1.38845E-03-1.69939E-04-2.88579E-15
 -1      2579 2.36358E-03-6.83563E-04-4.12351E-15
 -1      2580 2.20483E-03-5.83891E-04-3.84527E-15
 -1      2581 4.71076E-03-3.22031E-04-1.04379E-14
 -1      2582 4.54479E-03-4.01968E-04-1.00732E-14
 -1      2583 3.34529E-03-1.01031E-03-6.85696E-15
 -1      2584 3.23331E-03-1.02691E-03-6.46881E-15
 -1      2585 3.67956E-03-8.82751E-04-7.95054E-15
 -1      2586 3.50876E-03-9.61358E-04-7.39158E-15
 -1      2587 4.03954E-03-6.80062E-04-8.95032E-15
 -1      2588 3.90862E-03-7.58707E-04-8.60903E-15
 -1      2589 4.15266E-03-6.21406E-04-9.48361E-15
 -1      2590 5.02058E-03-1.95666E-04-1.10625E-14
 -1      2591 4.89600E-03-2.41661E-04-1.08685E-14
 -1      2592 3.99834E-03 5.33315E-04-8.49447E-15
 -1      2593 4.18102E-03 4.25053E-04-9.00866E-15
 -1      2594 3.92344E-03 5.82340E-04-8.46580E-15
 -1      2595 5.27791E-03-1.17730E-04-1.15425E-14
 -1      2596 5.16138E-03-1.48257E-04-1.13013E-14
 -1      2597 5.12136E-03-1.66132E-04-1.16984E-14
 -1      2598 8.87795E-04 3.26858E-04-3.48828E-16
 -1      2599 7.14620E-04 2.67052E-04-2.28089E-16
 -1      2600 6.75828E-04 2.33339E-04-2.37345E-16
 -1      2601 9.40496E-04 3.13127E-04-4.59146E-16
 -1      2602 5.15955E-03-1.69266E-05-1.12030E-14
 -1      2603 5.27917E-03-4.67667E-05-1.13778E-14
 -1      2604 5.33242E-03-5.92048E-05-1.19659E-14
 -1      2605 2.57484E-03 7.19092E-04-4.25152E-15
 -1      2606 6.24838E-04-6.25724E-05-5.59299E-16
 -1      2607 5.29454E-04-5.33556E-05-4.11604E-16
 -1      2608 5.58315E-04-7.62982E-05-4.05546E-16
 -1      2609 1.58658E-03 5.31098E-04-1.29452E-15
 -1      2610 6.48096E-04 1.93341E-04-2.66619E-16
 -1      2611 5.10665E-03 3.15638E-06-1.15131E-14
 -1      2612 3.79956E-03-8.26254E-04-8.44961E-15
 -1      2613 3.71720E-03-8.84494E-04-8.28970E-15
 -1      2614 3.91955E-03-7.68712E-04-8.96383E-15
 -1      2615 4.45380E-03-4.52728E-04-1.02081E-14
 -1      2616 2.83667E-03 8.44115E-04-4.85747E-15
 -1      2617 2.93468E-03 8.70962E-04-5.18840E-15
 -1      2618 3.02109E-03 8.91505E-04-5.43009E-15
 -1      2619 3.44319E-03-9.91068E-04-7.24694E-15
 -1      2620 4.81141E-03-2.81383E-04-1.10129E-14
 -1      2621 4.75607E-03 1.38602E-04-1.07615E-14
 -1      2622 2.47803E-03-7.57963E-04-4.23899E-15
 -1      2623 1.45221E-02 9.91889E-05-1.23836E-13
 -1      2624 1.45106E-02 6.67016E-05-1.23710E-13
 -1      2625 1.45812E-02-9.55900E-04-1.25348E-13
 -1      2626 1.46203E-02-9.04534E-04-1.25905E-13
 -1      2627 1.44938E-02-8.78621E-04-1.24089E-13
 -1      2628 1.44530E-02-9.49218E-04-1.23515E-13
 -1      2629 4.31843E-03 3.56505E-04-9.62419E-15
 -1      2630 1.65065E-03-2.79469E-04-2.99028E-15
 -1      2631 1.29041E-03-1.28510E-04-2.62987E-15
 -1      2632 7.74820E-04 2.17737E-04-3.90855E-16
 -1      2633 1.03178E-03-5.55784E-05-2.39181E-15
 -1      2634 5.34435E-03-1.05015E-04-1.21011E-14
 -1      2635 8.87860E-04-3.38746E-05-2.23864E-15
 -1      2636 2.84668E-03-9.55058E-04-5.19758E-15
 -1      2637 9.09434E-04-3.11196E-05-2.17489E-15
 -1      2638 1.10902E-03 3.11312E-06-2.34743E-15
 -1      2639 1.39476E-03 9.44672E-05-2.65096E-15
 -1      2640 3.57024E-03 7.75696E-04-7.31666E-15
 -1      2641 2.06801E-03-5.06122E-04-3.51283E-15
 -1      2642 6.13362E-04-1.25992E-04-3.96357E-16
 -1      2643 5.42095E-03-8.22838E-05-1.22026E-14
 -1      2644 1.75716E-03 2.53830E-04-3.03529E-15
 -1      2645 1.86160E-03 3.10814E-04-3.05829E-15
 -1      2646 1.65367E-03 2.06564E-04-2.80132E-15
 -1      2647 3.16320E-03-1.03196E-03-6.23321E-15
 -1      2648 2.20192E-03 5.00431E-04-3.59378E-15
 -1      2649 2.28991E-03 5.59758E-04-3.63366E-15
 -1      2650 2.08439E-03 4.34847E-04-3.34761E-15
 -1      2651 1.43896E-02 5.04644E-05-1.21967E-13
 -1      2652 1.43767E-02-9.09309E-04-1.22420E-13
 -1      2653 6.27040E-04 9.86773E-07-6.92331E-16
 -1      2654 5.92696E-04-1.00347E-05-7.01926E-16
 -1      2655 5.64523E-04-1.52635E-05-7.10030E-16
 -1      2656 5.46700E-04-1.65280E-05-7.17146E-16
 -1      2657 6.57330E-04-1.29967E-05-8.90828E-16
 -1      2658 7.89325E-04 1.04249E-04-6.35654E-16
 -1      2659 7.49594E-04 7.07245E-05-6.53476E-16
 -1      2660 8.62961E-04 1.82426E-04-5.91337E-16
 -1      2661 8.27231E-04 1.41989E-04-6.15474E-16
 -1      2662 9.38156E-04 1.52177E-04-7.97824E-16
 -1      2663 1.29361E-03 3.91832E-04-9.56199E-16
 -1      2664 1.12386E-03 3.35754E-04-7.36837E-16
 -1      2665 1.06091E-03-5.98733E-05-2.22610E-15
 -1      2666 9.64107E-04-4.18589E-05-2.14443E-15
 -1      2667 1.63833E-03 5.13194E-04-1.49112E-15
 -1      2668 1.46534E-03 4.50773E-04-1.20725E-15
 -1      2669 1.34334E-03 3.72315E-04-1.11899E-15
 -1      2670 4.23142E-03-5.93583E-04-9.97837E-15
 -1      2671 4.11039E-03-6.64356E-04-9.61578E-15
 -1      2672 1.49956E-03-4.25023E-04-1.61676E-15
 -1      2673 1.67719E-03-4.93208E-04-1.95661E-15
 -1      2674 1.85945E-03-5.67627E-04-2.33079E-15
 -1      2675 2.04344E-03-6.48629E-04-2.74031E-15
 -1      2676 1.71851E-03-4.71631E-04-2.15594E-15
 -1      2677 2.22997E-03-7.34809E-04-3.18684E-15
 -1      2678 2.41484E-03-8.22173E-04-3.67049E-15
 -1      2679 2.09351E-03-6.34039E-04-2.97208E-15
 -1      2680 2.94673E-03-1.03846E-03-5.35676E-15
 -1      2681 3.11705E-03-1.07047E-03-5.99991E-15
 -1      2682 3.24242E-03-1.06040E-03-6.53541E-15
 -1      2683 3.41811E-03-1.04003E-03-7.24949E-15
 -1      2684 3.66044E-03-9.64881E-04-8.28703E-15
 -1      2685 3.84644E-03-8.94868E-04-9.09318E-15
 -1      2686 4.35521E-03-7.38586E-04-1.15746E-14
 -1      2687 4.53682E-03-6.79024E-04-1.25094E-14
 -1      2688 4.71630E-03-6.27829E-04-1.34749E-14
 -1      2689 4.89055E-03-5.84884E-04-1.44697E-14
 -1      2690 4.66745E-03-5.92199E-04-1.29963E-14
 -1      2691 5.06109E-03-5.50698E-04-1.54931E-14
 -1      2692 5.22695E-03-5.23627E-04-1.65462E-14
 -1      2693 5.01724E-03-5.11763E-04-1.49865E-14
 -1      2694 5.38937E-03-5.03589E-04-1.76244E-14
 -1      2695 5.54818E-03-4.89116E-04-1.87294E-14
 -1      2696 5.34580E-03-4.64057E-04-1.70879E-14
 -1      2697 5.70431E-03-4.79849E-04-1.98613E-14
 -1      2698 5.85802E-03-4.74605E-04-2.10189E-14
 -1      2699 5.65800E-03-4.40421E-04-1.92965E-14
 -1      2700 6.00987E-03-4.72952E-04-2.22024E-14
 -1      2701 6.16018E-03-4.74113E-04-2.34114E-14
 -1      2702 5.95932E-03-4.33548E-04-2.16087E-14
 -1      2703 6.30925E-03-4.77644E-04-2.46454E-14
 -1      2704 6.45736E-03-4.83033E-04-2.59043E-14
 -1      2705 6.25404E-03-4.38024E-04-2.40229E-14
 -1      2706 6.60463E-03-4.89888E-04-2.71861E-14
 -1      2707 6.75130E-03-4.97879E-04-2.84930E-14
 -1      2708 6.54498E-03-4.49925E-04-2.65356E-14
 -1      2709 6.89740E-03-5.06694E-04-2.98244E-14
 -1      2710 7.04310E-03-5.16118E-04-3.11778E-14
 -1      2711 6.83384E-03-4.66384E-04-2.91444E-14
 -1      2712 7.18838E-03-5.25923E-04-3.25550E-14
 -1      2713 7.33340E-03-5.35972E-04-3.39556E-14
 -1      2714 7.12155E-03-4.85336E-04-3.18488E-14
 -1      2715 7.47811E-03-5.46110E-04-3.53796E-14
 -1      2716 7.62262E-03-5.56252E-04-3.68245E-14
 -1      2717 7.40865E-03-5.05345E-04-3.46455E-14
 -1      2718 7.76689E-03-5.66302E-04-3.82908E-14
 -1      2719 7.91102E-03-5.76209E-04-3.97785E-14
 -1      2720 7.69539E-03-5.25453E-04-3.75315E-14
 -1      2721 8.05496E-03-5.85919E-04-4.12877E-14
 -1      2722 8.19878E-03-5.95406E-04-4.28171E-14
 -1      2723 7.98190E-03-5.45064E-04-4.05027E-14
 -1      2724 8.34245E-03-6.04648E-04-4.43672E-14
 -1      2725 8.48603E-03-6.13633E-04-4.59364E-14
 -1      2726 8.26825E-03-5.63843E-04-4.35562E-14
 -1      2727 8.62950E-03-6.22357E-04-4.75262E-14
 -1      2728 8.77289E-03-6.30821E-04-4.91362E-14
 -1      2729 8.55447E-03-5.81636E-04-4.66908E-14
 -1      2730 8.91619E-03-6.39033E-04-5.07647E-14
 -1      2731 9.05944E-03-6.46998E-04-5.24129E-14
 -1      2732 8.84058E-03-5.98412E-04-4.99050E-14
 -1      2733 9.20261E-03-6.54733E-04-5.40809E-14
 -1      2734 9.34574E-03-6.62245E-04-5.57682E-14
 -1      2735 9.12661E-03-6.14218E-04-5.31966E-14
 -1      2736 9.48882E-03-6.69555E-04-5.74710E-14
 -1      2737 9.63187E-03-6.76671E-04-5.91878E-14
 -1      2738 9.41257E-03-6.29143E-04-5.65627E-14
 -1      2739 9.77487E-03-6.83614E-04-6.09197E-14
 -1      2740 9.91786E-03-6.90393E-04-6.26665E-14
 -1      2741 9.69847E-03-6.43296E-04-5.99925E-14
 -1      2742 1.00608E-02-6.97027E-04-6.44261E-14
 -1      2743 1.02037E-02-7.03527E-04-6.61993E-14
 -1      2744 9.98432E-03-6.56793E-04-6.34804E-14
 -1      2745 1.03467E-02-7.09909E-04-6.79846E-14
 -1      2746 1.04896E-02-7.16182E-04-6.97824E-14
 -1      2747 1.02701E-02-6.69745E-04-6.70229E-14
 -1      2748 1.06324E-02-7.22360E-04-7.15908E-14
 -1      2749 1.07753E-02-7.28452E-04-7.34105E-14
 -1      2750 1.05559E-02-6.82256E-04-7.06140E-14
 -1      2751 1.09182E-02-7.34470E-04-7.52398E-14
 -1      2752 1.10611E-02-7.40420E-04-7.70794E-14
 -1      2753 1.08417E-02-6.94414E-04-7.42499E-14
 -1      2754 1.12039E-02-7.46313E-04-7.89311E-14
 -1      2755 1.13468E-02-7.52155E-04-8.07926E-14
 -1      2756 1.11274E-02-7.06296E-04-7.79287E-14
 -1      2757 1.14896E-02-7.57953E-04-8.26625E-14
 -1      2758 1.16325E-02-7.63713E-04-8.45413E-14
 -1      2759 1.14132E-02-7.17967E-04-8.16480E-14
 -1      2760 1.17753E-02-7.69441E-04-8.64306E-14
 -1      2761 1.19182E-02-7.75140E-04-8.83265E-14
 -1      2762 1.16989E-02-7.29478E-04-8.54066E-14
 -1      2763 1.20610E-02-7.80816E-04-9.02338E-14
 -1      2764 1.22039E-02-7.86471E-04-9.21516E-14
 -1      2765 1.19846E-02-7.40871E-04-8.91993E-14
 -1      2766 1.23467E-02-7.92110E-04-9.40773E-14
 -1      2767 1.24895E-02-7.97735E-04-9.60126E-14
 -1      2768 1.22703E-02-7.52178E-04-9.30321E-14
 -1      2769 1.26324E-02-8.03349E-04-9.79616E-14
 -1      2770 1.27752E-02-8.08953E-04-9.99192E-14
 -1      2771 1.25560E-02-7.63426E-04-9.69058E-14
 -1      2772 1.29181E-02-8.14550E-04-1.01887E-13
 -1      2773 1.30609E-02-8.20140E-04-1.03865E-13
 -1      2774 1.28417E-02-7.74633E-04-1.00824E-13
 -1      2775 1.32038E-02-8.25727E-04-1.05850E-13
 -1      2776 1.33466E-02-8.31310E-04-1.07846E-13
 -1      2777 1.31275E-02-7.85815E-04-1.04778E-13
 -1      2778 1.34895E-02-8.36891E-04-1.09850E-13
 -1      2779 1.36323E-02-8.42470E-04-1.11860E-13
 -1      2780 1.34132E-02-7.96981E-04-1.08772E-13
 -1      2781 1.37752E-02-8.48049E-04-1.13876E-13
 -1      2782 1.39180E-02-8.53628E-04-1.15895E-13
 -1      2783 1.36989E-02-8.08140E-04-1.12792E-13
 -1      2784 1.40609E-02-8.59208E-04-1.17920E-13
 -1      2785 1.42037E-02-8.64789E-04-1.19950E-13
 -1      2786 1.39846E-02-8.19298E-04-1.16833E-13
 -1      2787 2.67248E-03 9.06761E-04-3.91726E-15
 -1      2788 2.50539E-03 8.51192E-04-3.42262E-15
 -1      2789 4.21772E-03 4.26936E-04-9.57918E-15
 -1      2790 4.43341E-03 3.10156E-04-1.02430E-14
 -1      2791 2.33500E-03 7.86284E-04-2.96513E-15
 -1      2792 2.16225E-03 7.17630E-04-2.54423E-15
 -1      2793 2.40192E-03 7.76965E-04-3.24693E-15
 -1      2794 3.31449E-03 9.72985E-04-6.28073E-15
 -1      2795 3.15460E-03 9.84869E-04-5.63179E-15
 -1      2796 3.63927E-03 8.97573E-04-7.69297E-15
 -1      2797 3.47481E-03 9.42065E-04-6.96775E-15
 -1      2798 3.39930E-03 9.30394E-04-6.69561E-15
 -1      2799 3.97639E-03 7.81530E-04-9.25299E-15
 -1      2800 3.80637E-03 8.42258E-04-8.45478E-15
 -1      2801 3.73582E-03 8.30914E-04-8.15458E-15
 -1      2802 4.32111E-03 6.57109E-04-1.09519E-14
 -1      2803 4.14869E-03 7.18459E-04-1.00855E-14
 -1      2804 4.08575E-03 7.00714E-04-9.75977E-15
 -1      2805 4.66418E-03 5.47134E-04-1.27813E-14
 -1      2806 4.49362E-03 5.99539E-04-1.18507E-14
 -1      2807 4.43912E-03 5.74450E-04-1.15010E-14
 -1      2808 4.99954E-03 4.60436E-04-1.47332E-14
 -1      2809 4.83330E-03 5.00842E-04-1.37422E-14
 -1      2810 4.78507E-03 4.70887E-04-1.33690E-14
 -1      2811 5.32510E-03 3.97082E-04-1.68032E-14
 -1      2812 5.16368E-03 4.26089E-04-1.57541E-14
 -1      2813 5.11849E-03 3.93656E-04-1.53573E-14
 -1      2814 5.64164E-03 3.53522E-04-1.89841E-14
 -1      2815 5.48450E-03 3.73158E-04-1.78800E-14
 -1      2816 5.43942E-03 3.39418E-04-1.74591E-14
 -1      2817 5.95078E-03 3.25142E-04-2.12758E-14
 -1      2818 5.79706E-03 3.37748E-04-2.01164E-14
 -1      2819 5.75015E-03 3.03266E-04-1.96714E-14
 -1      2820 6.25427E-03 3.07559E-04-2.36718E-14
 -1      2821 6.10314E-03 3.15251E-04-2.24607E-14
 -1      2822 6.05339E-03 2.80254E-04-2.19918E-14
 -1      2823 6.55353E-03 2.97164E-04-2.61694E-14
 -1      2824 6.40435E-03 3.01653E-04-2.49086E-14
 -1      2825 6.35143E-03 2.66259E-04-2.44155E-14
 -1      2826 6.84961E-03 2.91171E-04-2.87631E-14
 -1      2827 6.70190E-03 2.93755E-04-2.74547E-14
 -1      2828 6.64595E-03 2.58078E-04-2.69402E-14
 -1      2829 7.14327E-03 2.87546E-04-3.14492E-14
 -1      2830 6.99669E-03 2.89159E-04-3.00947E-14
 -1      2831 6.93806E-03 2.53318E-04-2.95587E-14
 -1      2832 7.43506E-03 2.84877E-04-3.42224E-14
 -1      2833 7.28935E-03 2.86156E-04-3.28251E-14
 -1      2834 7.22850E-03 2.50262E-04-3.22687E-14
 -1      2835 7.72538E-03 2.82238E-04-3.70832E-14
 -1      2836 7.58037E-03 2.83594E-04-3.56425E-14
 -1      2837 7.51775E-03 2.47737E-04-3.50659E-14
 -1      2838 8.01456E-03 2.79065E-04-4.00221E-14
 -1      2839 7.87008E-03 2.80742E-04-3.85421E-14
 -1      2840 7.80612E-03 2.44988E-04-3.79471E-14
 -1      2841 8.30284E-03 2.75052E-04-4.30450E-14
 -1      2842 8.15879E-03 2.77176E-04-4.15232E-14
 -1      2843 8.09381E-03 2.41565E-04-4.09096E-14
 -1      2844 8.59042E-03 2.70067E-04-4.61426E-14
 -1      2845 8.44670E-03 2.72685E-04-4.45851E-14
 -1      2846 8.38100E-03 2.37239E-04-4.39526E-14
 -1      2847 8.87746E-03 2.64098E-04-4.93170E-14
 -1      2848 8.73399E-03 2.67205E-04-4.77208E-14
 -1      2849 8.66780E-03 2.31928E-04-4.70723E-14
 -1      2850 9.16410E-03 2.57198E-04-5.25575E-14
 -1      2851 9.02082E-03 2.60761E-04-5.09289E-14
 -1      2852 8.95430E-03 2.25645E-04-5.02634E-14
 -1      2853 9.45043E-03 2.49462E-04-5.58636E-14
 -1      2854 9.30729E-03 2.53429E-04-5.42023E-14
 -1      2855 9.24057E-03 2.18462E-04-5.35226E-14
 -1      2856 9.73654E-03 2.40999E-04-5.92364E-14
 -1      2857 9.59351E-03 2.45316E-04-5.75421E-14
 -1      2858 9.52667E-03 2.10478E-04-5.68496E-14
 -1      2859 1.00225E-02 2.31925E-04-6.26681E-14
 -1      2860 9.87953E-03 2.36533E-04-6.09447E-14
 -1      2861 9.81264E-03 2.01807E-04-6.02395E-14
 -1      2862 1.03083E-02 2.22346E-04-6.61634E-14
 -1      2863 1.01654E-02 2.27193E-04-6.44069E-14
 -1      2864 1.00985E-02 1.92560E-04-6.36898E-14
 -1      2865 1.05941E-02 2.12360E-04-6.97209E-14
 -1      2866 1.04512E-02 2.17399E-04-6.79343E-14
 -1      2867 1.03843E-02 1.82843E-04-6.72024E-14
 -1      2868 1.08798E-02 2.02053E-04-7.33439E-14
 -1      2869 1.07370E-02 2.07243E-04-7.15256E-14
 -1      2870 1.06701E-02 1.72748E-04-7.07794E-14
 -1      2871 1.11655E-02 1.91496E-04-7.70262E-14
 -1      2872 1.10227E-02 1.96802E-04-7.51773E-14
 -1      2873 1.09558E-02 1.62355E-04-7.44183E-14
 -1      2874 1.14512E-02 1.80749E-04-8.07670E-14
 -1      2875 1.13083E-02 1.86143E-04-7.88900E-14
 -1      2876 1.12415E-02 1.51733E-04-7.81163E-14
 -1      2877 1.17368E-02 1.69859E-04-8.45643E-14
 -1      2878 1.15940E-02 1.75320E-04-8.26597E-14
 -1      2879 1.15272E-02 1.40938E-04-8.18690E-14
 -1      2880 1.20225E-02 1.58866E-04-8.84163E-14
 -1      2881 1.18797E-02 1.64374E-04-8.64827E-14
 -1      2882 1.18129E-02 1.30013E-04-8.56781E-14
 -1      2883 1.23082E-02 1.47799E-04-9.23229E-14
 -1      2884 1.21653E-02 1.53340E-04-9.03618E-14
 -1      2885 1.20986E-02 1.18995E-04-8.95397E-14
 -1      2886 1.25938E-02 1.36680E-04-9.62824E-14
 -1      2887 1.24510E-02 1.42245E-04-9.42976E-14
 -1      2888 1.23843E-02 1.07910E-04-9.34552E-14
 -1      2889 1.28795E-02 1.25528E-04-1.00284E-13
 -1      2890 1.27367E-02 1.31107E-04-9.82784E-14
 -1      2891 1.26700E-02 9.67794E-05-9.74209E-14
 -1      2892 1.31652E-02 1.14355E-04-1.04326E-13
 -1      2893 1.30224E-02 1.19943E-04-1.02301E-13
 -1      2894 1.29557E-02 8.56197E-05-1.01430E-13
 -1      2895 1.34509E-02 1.03171E-04-1.08394E-13
 -1      2896 1.33080E-02 1.08763E-04-1.06357E-13
 -1      2897 1.32414E-02 7.44424E-05-1.05474E-13
 -1      2898 1.37366E-02 9.19828E-05-1.12488E-13
 -1      2899 1.35937E-02 9.75767E-05-1.10439E-13
 -1      2900 1.35271E-02 6.32564E-05-1.09546E-13
 -1      2901 1.40223E-02 8.07969E-05-1.16608E-13
 -1      2902 1.38794E-02 8.63893E-05-1.14546E-13
 -1      2903 1.38128E-02 5.20683E-05-1.13642E-13
 -1      2904 1.42774E-02 6.28347E-05-1.20320E-13
 -1      2905 1.41345E-02 6.84240E-05-1.18246E-13
 -1      2906 1.40679E-02 3.41009E-05-1.17333E-13
 -1      2907 1.42924E-02 9.35547E-06-1.20610E-13
 -1      2908 1.43328E-02-3.97248E-04-1.21602E-13
 -1      2909 1.43273E-02-3.55086E-04-1.21491E-13
 -1      2910 1.43004E-02-8.69399E-04-1.21329E-13
 -1      2911 1.43971E-02-8.74009E-04-1.22708E-13
 -1      2912 1.42241E-02-8.29488E-04-1.20237E-13
 -1      2913 1.43108E-02-2.28602E-04-1.21139E-13
 -1      2914 1.43054E-02-1.86443E-04-1.21018E-13
 -1      2915 2.53918E-03-8.08813E-04-4.27794E-15
 -1      2916 2.35517E-03-6.93078E-04-3.87804E-15
 -1      2917 1.43438E-02-4.81574E-04-1.21818E-13
 -1      2918 1.43383E-02-4.39411E-04-1.21712E-13
 -1      2919 1.42118E-02-4.13492E-04-1.19878E-13
 -1      2920 1.43218E-02-3.12924E-04-1.21375E-13
 -1      2921 1.43163E-02-2.70762E-04-1.21258E-13
 -1      2922 1.41899E-02-2.44842E-04-1.19413E-13
 -1      2923 1.42008E-02-3.29166E-04-1.19650E-13
 -1      2924 1.43546E-02-5.64468E-04-1.22017E-13
 -1      2925 1.43492E-02-5.23021E-04-1.21920E-13
 -1      2926 1.42227E-02-4.97103E-04-1.20092E-13
 -1      2927 1.43656E-02-6.48788E-04-1.22208E-13
 -1      2928 1.43601E-02-6.06628E-04-1.22113E-13
 -1      2929 1.42336E-02-5.80712E-04-1.20294E-13
 -1      2930 1.43767E-02-7.33101E-04-1.22390E-13
 -1      2931 1.43711E-02-6.90945E-04-1.22299E-13
 -1      2932 1.42447E-02-6.65031E-04-1.20485E-13
 -1      2933 1.98751E-03 6.47528E-04-2.15874E-15
 -1      2934 1.81292E-03 5.79004E-04-1.80799E-15
 -1      2935 1.69107E-03 4.93979E-04-1.69362E-15
 -1      2936 2.04687E-03 6.32407E-04-2.40045E-15
 -1      2937 2.48748E-03 6.81180E-04-3.94765E-15
 -1      2938 2.64162E-03 7.65303E-04-4.30741E-15
 -1      2939 8.65170E-04-2.08034E-04-6.57880E-16
 -1      2940 1.02058E-03-2.61025E-04-8.49445E-16
 -1      2941 3.85821E-03 6.35335E-04-8.41014E-15
 -1      2942 4.01235E-03 5.44666E-04-8.92317E-15
 -1      2943 1.44175E-02-8.38708E-04-1.22994E-13
 -1      2944 1.34511E-03-1.48965E-04-2.48761E-15
 -1      2945 1.20331E-03-1.00688E-04-2.34377E-15
 -1      2946 3.19080E-03 9.01777E-04-5.99732E-15
 -1      2947 3.31389E-03 8.81486E-04-6.45331E-15
 -1      2948 2.99652E-03 9.76526E-04-5.02120E-15
 -1      2949 2.83538E-03 9.50071E-04-4.45031E-15
 -1      2950 3.07338E-03 9.57663E-04-5.38984E-15
 -1      2951 1.17141E-03-3.10168E-04-1.06665E-15
 -1      2952 1.34153E-03-3.67400E-04-1.34217E-15
 -1      2953 1.37960E-03-3.45573E-04-1.51054E-15
 -1      2954 1.07613E-03-2.46241E-04-1.01117E-15
 -1      2955 4.68860E-03 1.83413E-04-1.09744E-14
 -1      2956 4.88159E-03 9.77717E-05-1.14616E-14
 -1      2957 5.43782E-03-8.05939E-05-1.27297E-14
 -1      2958 5.44406E-03-8.66615E-05-1.27862E-14
 -1      2959 7.08114E-04 4.17388E-05-6.68153E-16
 -1      2960 6.66816E-04 1.84068E-05-6.81367E-16
 -1      2961 7.44277E-04 1.63482E-05-8.68405E-16
 -1      2962 8.44403E-04 7.34847E-05-8.38386E-16
 -1      2963 6.30135E-04-2.93705E-05-7.34330E-16
 -1      2964 6.71543E-04-4.62267E-05-7.33490E-16
 -1      2965 8.61934E-04-3.15023E-05-1.98742E-15
 -1      2966 9.16284E-04-2.90338E-05-1.98832E-15
 -1      2967 5.20364E-03-1.51534E-04-1.23305E-14
 -1      2968 5.07998E-03-1.90239E-04-1.20800E-14
 -1      2969 2.13382E-03-5.59934E-04-3.45367E-15
 -1      2970 1.93838E-03-4.41939E-04-3.14992E-15
 -1      2971 3.15065E-03-1.04286E-03-6.18769E-15
 -1      2972 3.02560E-03-1.02493E-03-5.72646E-15
 -1      2973 3.49255E-03 8.23285E-04-7.11067E-15
 -1      2974 3.66705E-03 7.39133E-04-7.74943E-15
 -1      2975 1.31141E-03 6.63441E-05-2.41709E-15
 -1      2976 1.44980E-03 1.18594E-04-2.53855E-15
 -1      2977 1.03352E-03-7.93999E-06-2.07520E-15
 -1      2978 1.16102E-03 1.96033E-05-2.24212E-15
 -1      2979 1.20467E-03 4.20361E-05-2.13682E-15
 -1      2980 2.85924E-03-9.70602E-04-5.15796E-15
 -1      2981 5.40255E-03-1.00475E-04-1.27248E-14
 -1      2982 5.32196E-03-1.17711E-04-1.25655E-14
 -1      2983 9.02717E-04 2.52835E-04-5.19645E-16
 -1      2984 6.81909E-04-1.24814E-04-5.05292E-16
 -1      2985 4.89982E-03-2.59043E-04-1.16807E-14
 -1      2986 4.73005E-03-3.29447E-04-1.12347E-14
 -1      2987 4.57199E-03-4.05841E-04-1.08512E-14
 -1      2988 4.41232E-03-4.92281E-04-1.04741E-14
 -1      2989 4.68644E-03-3.75240E-04-1.15096E-14
 -1      2990 5.07642E-03 2.36075E-05-1.19708E-14
 -1      2991 5.20670E-03-1.83716E-05-1.22497E-14
 -1      2992 5.31726E-03-5.10043E-05-1.24584E-14
 -1      2993 5.39307E-03-6.71900E-05-1.26437E-14
 -1      2994 1.71098E-03-3.15622E-04-2.87315E-15
 -1      2995 1.52298E-03-2.23254E-04-2.67547E-15
 -1      2996 1.40400E-03-1.84900E-04-2.37928E-15
 -1      2997 8.93695E-04-3.16132E-05-2.07888E-15
 -1      2998 8.55679E-04-3.19009E-05-2.01600E-15
 -1      2999 9.02054E-04-3.38272E-05-1.92224E-15
 -1      3000 7.15879E-04-6.94368E-05-7.30861E-16
 -1      3001 7.60179E-04-9.81800E-05-7.25657E-16
 -1      3002 8.00518E-04-7.42843E-05-9.24933E-16
 -1      3003 6.12124E-04-1.81707E-05-9.07382E-16
 -1      3004 5.40309E-04-1.47923E-05-7.22919E-16
 -1      3005 5.46565E-04-1.35068E-05-7.27554E-16
 -1      3006 4.01451E-03-7.38530E-04-9.44194E-15
 -1      3007 4.36608E-03-5.43087E-04-1.06100E-14
 -1      3008 2.74059E-03 8.17447E-04-4.52302E-15
 -1      3009 2.82800E-03 8.59103E-04-4.74279E-15
 -1      3010 2.64596E-03 7.88127E-04-4.19991E-15
 -1      3011 1.78759E-03-3.75537E-04-2.81781E-15
 -1      3012 9.41931E-04-2.12873E-05-1.88879E-15
 -1      3013 9.70107E-04-9.44150E-06-1.79109E-15
 -1      3014 8.67460E-04-2.50558E-05-1.71116E-15
 -1      3015 2.84497E-03-9.88981E-04-5.04800E-15
 -1      3016 2.67259E-03-8.94014E-04-4.56793E-15
 -1      3017 2.54895E-03-8.41180E-04-4.18215E-15
 -1      3018 2.77602E-03-9.86238E-04-4.74608E-15
 -1      3019 3.41972E-03 8.61086E-04-6.85259E-15
 -1      3020 2.59901E-03-9.13811E-04-4.18521E-15
 -1      3021 4.01802E-03-7.80393E-04-9.69210E-15
 -1      3022 4.02871E-03-8.54810E-04-9.98810E-15
 -1      3023 4.21332E-03-7.84375E-04-1.08659E-14
 -1      3024 4.18869E-03-6.90999E-04-1.03681E-14
 -1      3025 1.41790E-02-1.60881E-04-1.19169E-13
 -1      3026 1.43000E-02-1.44643E-04-1.20896E-13
 -1      3027 1.42945E-02-1.02844E-04-1.20773E-13
 -1      3028 2.74512E-03 8.98171E-04-4.24097E-15
 -1      3029 4.49535E-03 3.22156E-04-1.08680E-14
 -1      3030 4.58349E-03 2.51649E-04-1.09242E-14
 -1      3031 4.72711E-03 2.07149E-04-1.16215E-14
 -1      3032 2.20902E-03-6.25098E-04-3.48490E-15
 -1      3033 1.10192E-03-7.69264E-05-2.09323E-15
 -1      3034 1.42962E-02-6.76403E-05-1.20757E-13
 -1      3035 1.42908E-02-2.58450E-05-1.20630E-13
 -1      3036 1.41785E-02-1.34723E-05-1.18991E-13
 -1      3037 1.41752E-02-8.38767E-05-1.19029E-13
 -1      3038 3.76807E-03 7.03492E-04-8.18138E-15
 -1      3039 1.44120E-02-7.96557E-04-1.22910E-13
 -1      3040 5.29637E-03-1.38352E-04-1.29572E-14
 -1      3041 5.29948E-03-3.24408E-05-1.29300E-14
 -1      3042 3.09382E-03 9.04890E-04-5.63423E-15
 -1      3043 5.01462E-03 6.45832E-05-1.21922E-14
 -1      3044 4.14529E-03 4.90686E-04-9.51475E-15
 -1      3045 4.34154E-03-6.90567E-04-1.13230E-14
 -1      3046 8.30611E-04-2.97684E-05-1.83393E-15
 -1      3047 2.47899E-03-8.27170E-04-3.92823E-15
 -1      3048 5.64850E-04-1.37983E-05-7.31159E-16
 -1      3049 5.93308E-04-1.88672E-05-7.33300E-16
 -1      3050 6.98926E-04-3.19470E-05-9.25502E-16
 -1      3051 6.27594E-04-1.71870E-05-9.18963E-16
 -1      3052 2.37698E-03 6.23790E-04-3.68457E-15
 -1      3053 2.44393E-03 6.80819E-04-3.73067E-15
 -1      3054 2.26547E-03 5.65295E-04-3.43237E-15
 -1      3055 1.54644E-03 1.64482E-04-2.55540E-15
 -1      3056 1.63683E-03 2.14968E-04-2.57125E-15
 -1      3057 1.44395E-03 1.33766E-04-2.32147E-15
 -1      3058 5.44720E-03-7.40888E-05-1.32334E-14
 -1      3059 7.91228E-04-1.39867E-04-6.72314E-16
 -1      3060 1.96747E-03 3.74418E-04-3.09464E-15
 -1      3061 2.05696E-03 4.38061E-04-3.12851E-15
 -1      3062 1.85252E-03 3.22311E-04-2.85306E-15
 -1      3063 5.45275E-03-9.61750E-05-1.32598E-14
 -1      3064 5.01073E-03-2.34010E-04-1.23088E-14
 -1      3065 9.54261E-04 2.37346E-04-6.36738E-16
 -1      3066 1.07627E-03 2.54765E-04-8.27165E-16
 -1      3067 1.42548E-02-8.00067E-04-1.20668E-13
 -1      3068 1.43460E-02-7.62524E-04-1.21960E-13
 -1      3069 1.42195E-02-7.36612E-04-1.20149E-13
 -1      3070 1.41581E-02-7.95458E-04-1.19291E-13
 -1      3071 1.09655E-03 2.08823E-04-9.78398E-16
 -1      3072 1.04727E-03 1.60138E-04-1.00507E-15
 -1      3073 7.98634E-04-2.63892E-05-1.63843E-15
 -1      3074 7.99296E-04-2.89633E-05-1.61312E-15
 -1      3075 3.41270E-03 8.95851E-04-6.80264E-15
 -1      3076 3.57314E-03 8.40241E-04-7.47761E-15
 -1      3077 4.34418E-03-5.92228E-04-1.08401E-14
 -1      3078 4.33597E-03-6.48171E-04-1.11021E-14
 -1      3079 4.48076E-03-6.02206E-04-1.18198E-14
 -1      3080 4.50399E-03-5.03503E-04-1.13574E-14
 -1      3081 3.54882E-03-9.98015E-04-7.80161E-15
 -1      3082 4.98035E-03-4.70322E-04-1.44798E-14
 -1      3083 5.14707E-03-4.42579E-04-1.55033E-14
 -1      3084 5.30822E-03-4.22951E-04-1.65541E-14
 -1      3085 5.46432E-03-4.09066E-04-1.76309E-14
 -1      3086 5.27692E-03-3.79965E-04-1.60217E-14
 -1      3087 5.61654E-03-4.00631E-04-1.87333E-14
 -1      3088 5.76579E-03-3.95847E-04-1.98622E-14
 -1      3089 5.58014E-03-3.60042E-04-1.81738E-14
 -1      3090 5.91273E-03-3.94547E-04-2.10177E-14
 -1      3091 6.05806E-03-3.95768E-04-2.21976E-14
 -1      3092 5.87016E-03-3.55721E-04-2.04279E-14
 -1      3093 6.20212E-03-3.99240E-04-2.34025E-14
 -1      3094 6.34541E-03-4.04407E-04-2.46331E-14
 -1      3095 6.15344E-03-3.61194E-04-2.27853E-14
 -1      3096 6.48808E-03-4.10981E-04-2.58881E-14
 -1      3097 6.63046E-03-4.18637E-04-2.71659E-14
 -1      3098 6.43383E-03-3.73032E-04-2.52418E-14
 -1      3099 6.77257E-03-4.27110E-04-2.84692E-14
 -1      3100 6.91464E-03-4.36206E-04-2.97952E-14
 -1      3101 6.71350E-03-3.88892E-04-2.77965E-14
 -1      3102 7.05663E-03-4.45708E-04-3.11454E-14
 -1      3103 7.19869E-03-4.55499E-04-3.25190E-14
 -1      3104 6.99353E-03-4.07083E-04-3.04450E-14
 -1      3105 7.34076E-03-4.65414E-04-3.39160E-14
 -1      3106 7.48293E-03-4.75387E-04-3.53352E-14
 -1      3107 7.27436E-03-4.26376E-04-3.31887E-14
 -1      3108 7.62515E-03-4.85301E-04-3.67756E-14
 -1      3109 7.76747E-03-4.95121E-04-3.82378E-14
 -1      3110 7.55613E-03-4.45908E-04-3.60224E-14
 -1      3111 7.90985E-03-5.04773E-04-3.97194E-14
 -1      3112 8.05232E-03-5.14240E-04-4.12223E-14
 -1      3113 7.83878E-03-4.65105E-04-3.89409E-14
 -1      3114 8.19483E-03-5.23480E-04-4.27485E-14
 -1      3115 8.33742E-03-5.32491E-04-4.42934E-14
 -1      3116 8.12219E-03-4.83618E-04-4.19424E-14
 -1      3117 8.48004E-03-5.41254E-04-4.58573E-14
 -1      3118 8.62272E-03-5.49774E-04-4.74431E-14
 -1      3119 8.40622E-03-5.01264E-04-4.50276E-14
 -1      3120 8.76543E-03-5.58048E-04-4.90492E-14
 -1      3121 8.90818E-03-5.66085E-04-5.06734E-14
 -1      3122 8.69074E-03-5.17983E-04-4.81953E-14
 -1      3123 9.05095E-03-5.73892E-04-5.23141E-14
 -1      3124 9.19375E-03-5.81482E-04-5.39763E-14
 -1      3125 8.97564E-03-5.33791E-04-5.14367E-14
 -1      3126 9.33656E-03-5.88866E-04-5.56587E-14
 -1      3127 9.47940E-03-5.96058E-04-5.73552E-14
 -1      3128 9.26082E-03-5.48756E-04-5.47562E-14
 -1      3129 9.62224E-03-6.03073E-04-5.90672E-14
 -1      3130 9.76509E-03-6.09922E-04-6.07944E-14
 -1      3131 9.54619E-03-5.62969E-04-5.81448E-14
 -1      3132 9.90795E-03-6.16623E-04-6.25375E-14
 -1      3133 1.00508E-02-6.23185E-04-6.42933E-14
 -1      3134 9.83172E-03-5.76536E-04-6.15964E-14
 -1      3135 1.01937E-02-6.29624E-04-6.60619E-14
 -1      3136 1.03366E-02-6.35950E-04-6.78447E-14
 -1      3137 1.01173E-02-5.89559E-04-6.51035E-14
 -1      3138 1.04794E-02-6.42178E-04-6.96385E-14
 -1      3139 1.06223E-02-6.48314E-04-7.14434E-14
 -1      3140 1.04030E-02-6.02136E-04-6.86639E-14
 -1      3141 1.07652E-02-6.54373E-04-7.32603E-14
 -1      3142 1.09081E-02-6.60360E-04-7.50879E-14
 -1      3143 1.06887E-02-6.14354E-04-7.22708E-14
 -1      3144 1.10510E-02-6.66286E-04-7.69267E-14
 -1      3145 1.11938E-02-6.72157E-04-7.87765E-14
 -1      3146 1.09745E-02-6.26289E-04-7.59254E-14
 -1      3147 1.13367E-02-6.77982E-04-8.06359E-14
 -1      3148 1.14796E-02-6.83765E-04-8.25032E-14
 -1      3149 1.12603E-02-6.38003E-04-7.96218E-14
 -1      3150 1.16225E-02-6.89513E-04-8.43816E-14
 -1      3151 1.17653E-02-6.95230E-04-8.62689E-14
 -1      3152 1.15460E-02-6.49550E-04-8.33579E-14
 -1      3153 1.19082E-02-7.00922E-04-8.81662E-14
 -1      3154 1.20511E-02-7.06591E-04-9.00728E-14
 -1      3155 1.18318E-02-6.60972E-04-8.71319E-14
 -1      3156 1.21939E-02-7.12242E-04-9.19877E-14
 -1      3157 1.23368E-02-7.17877E-04-9.39128E-14
 -1      3158 1.21175E-02-6.72303E-04-9.09434E-14
 -1      3159 1.24797E-02-7.23499E-04-9.58509E-14
 -1      3160 1.26225E-02-7.29110E-04-9.77995E-14
 -1      3161 1.24033E-02-6.83568E-04-9.47962E-14
 -1      3162 1.27654E-02-7.34713E-04-9.97568E-14
 -1      3163 1.29083E-02-7.40309E-04-1.01727E-13
 -1      3164 1.26890E-02-6.94789E-04-9.86915E-14
 -1      3165 1.30511E-02-7.45899E-04-1.03705E-13
 -1      3166 1.31940E-02-7.51485E-04-1.05693E-13
 -1      3167 1.29748E-02-7.05980E-04-1.02629E-13
 -1      3168 1.33369E-02-7.57068E-04-1.07691E-13
 -1      3169 1.34797E-02-7.62649E-04-1.09697E-13
 -1      3170 1.32605E-02-7.17152E-04-1.06610E-13
 -1      3171 1.36226E-02-7.68229E-04-1.11707E-13
 -1      3172 1.37654E-02-7.73808E-04-1.13722E-13
 -1      3173 1.35463E-02-7.28315E-04-1.10619E-13
 -1      3174 1.38904E-02-7.81842E-04-1.15488E-13
 -1      3175 1.40332E-02-7.87422E-04-1.17513E-13
 -1      3176 1.40639E-02-7.57999E-04-1.17941E-13
 -1      3177 1.38140E-02-7.41929E-04-1.14398E-13
 -1      3178 1.83329E-03-4.24710E-04-2.74216E-15
 -1      3179 1.63376E-03-3.11326E-04-2.49154E-15
 -1      3180 2.35085E-03-7.36058E-04-3.67066E-15
 -1      3181 3.75264E-03 7.73152E-04-8.23235E-15
 -1      3182 3.24255E-03 9.26995E-04-6.12372E-15
 -1      3183 4.56444E-03 4.88830E-04-1.20555E-14
 -1      3184 4.38627E-03 5.47261E-04-1.11484E-14
 -1      3185 4.91022E-03 3.95120E-04-1.39622E-14
 -1      3186 4.73981E-03 4.38266E-04-1.29947E-14
 -1      3187 4.69783E-03 4.03437E-04-1.26178E-14
 -1      3188 5.23914E-03 3.29185E-04-1.59838E-14
 -1      3189 5.07693E-03 3.59368E-04-1.49584E-14
 -1      3190 5.03896E-03 3.22746E-04-1.45597E-14
 -1      3191 5.55362E-03 2.84521E-04-1.81180E-14
 -1      3192 5.39801E-03 3.04618E-04-1.70374E-14
 -1      3193 5.36038E-03 2.68498E-04-1.66146E-14
 -1      3194 5.85759E-03 2.55643E-04-2.03612E-14
 -1      3195 5.70670E-03 2.68531E-04-1.92261E-14
 -1      3196 5.66674E-03 2.33256E-04-1.87809E-14
 -1      3197 6.15457E-03 2.37590E-04-2.27105E-14
 -1      3198 6.00677E-03 2.45547E-04-2.15228E-14
 -1      3199 5.96327E-03 2.10961E-04-2.10547E-14
 -1      3200 6.44718E-03 2.26733E-04-2.51633E-14
 -1      3201 6.30128E-03 2.31460E-04-2.39241E-14
 -1      3202 6.25387E-03 1.97180E-04-2.34326E-14
 -1      3203 6.73715E-03 2.20359E-04-2.77136E-14
 -1      3204 6.59240E-03 2.23123E-04-2.64267E-14
 -1      3205 6.54120E-03 1.88874E-04-2.59131E-14
 -1      3206 7.02554E-03 2.16492E-04-3.03569E-14
 -1      3207 6.88147E-03 2.18206E-04-2.90242E-14
 -1      3208 6.82689E-03 1.83847E-04-2.84895E-14
 -1      3209 7.31302E-03 2.13734E-04-3.30902E-14
 -1      3210 7.16935E-03 2.15037E-04-3.17132E-14
 -1      3211 7.11187E-03 1.80526E-04-3.11573E-14
 -1      3212 7.59994E-03 2.11143E-04-3.59113E-14
 -1      3213 7.45652E-03 2.12457E-04-3.44890E-14
 -1      3214 7.39665E-03 1.77810E-04-3.39139E-14
 -1      3215 7.88652E-03 2.08122E-04-3.88143E-14
 -1      3216 7.74325E-03 2.09710E-04-3.73533E-14
 -1      3217 7.68149E-03 1.74966E-04-3.67574E-14
 -1      3218 8.17287E-03 2.04330E-04-4.17990E-14
 -1      3219 8.02970E-03 2.06334E-04-4.02958E-14
 -1      3220 7.96647E-03 1.71539E-04-3.96828E-14
 -1      3221 8.45906E-03 1.99602E-04-4.48626E-14
 -1      3222 8.31597E-03 2.02087E-04-4.33216E-14
 -1      3223 8.25162E-03 1.67279E-04-4.26902E-14
 -1      3224 8.74515E-03 1.93899E-04-4.80005E-14
 -1      3225 8.60211E-03 1.96871E-04-4.64217E-14
 -1      3226 8.53694E-03 1.62080E-04-4.57734E-14
 -1      3227 9.03114E-03 1.87257E-04-5.12122E-14
 -1      3228 8.88815E-03 1.90691E-04-4.95984E-14
 -1      3229 8.82239E-03 1.55937E-04-4.89319E-14
 -1      3230 9.31707E-03 1.79758E-04-5.44904E-14
 -1      3231 9.17411E-03 1.83609E-04-5.28429E-14
 -1      3232 9.10794E-03 1.48903E-04-5.21621E-14
 -1      3233 9.60295E-03 1.71506E-04-5.78376E-14
 -1      3234 9.46001E-03 1.75720E-04-5.61555E-14
 -1      3235 9.39356E-03 1.41067E-04-5.54620E-14
 -1      3236 9.88878E-03 1.62613E-04-6.12442E-14
 -1      3237 9.74587E-03 1.67134E-04-5.95320E-14
 -1      3238 9.67924E-03 1.32533E-04-5.88254E-14
 -1      3239 1.01746E-02 1.53186E-04-6.47136E-14
 -1      3240 1.00317E-02 1.57961E-04-6.29715E-14
 -1      3241 9.96496E-03 1.23409E-04-6.22512E-14
 -1      3242 1.04604E-02 1.43326E-04-6.82447E-14
 -1      3243 1.03175E-02 1.48305E-04-6.64712E-14
 -1      3244 1.02507E-02 1.13799E-04-6.57396E-14
 -1      3245 1.07461E-02 1.33119E-04-7.18395E-14
 -1      3246 1.06032E-02 1.38262E-04-7.00341E-14
 -1      3247 1.05364E-02 1.03794E-04-6.92884E-14
 -1      3248 1.10319E-02 1.22642E-04-7.54923E-14
 -1      3249 1.08890E-02 1.27911E-04-7.36586E-14
 -1      3250 1.08222E-02 9.34756E-05-7.28979E-14
 -1      3251 1.13176E-02 1.11956E-04-7.92044E-14
 -1      3252 1.11747E-02 1.17322E-04-7.73421E-14
 -1      3253 1.11079E-02 8.29141E-05-7.65692E-14
 -1      3254 1.16033E-02 1.01114E-04-8.29710E-14
 -1      3255 1.14605E-02 1.06552E-04-8.10804E-14
 -1      3256 1.13937E-02 7.21664E-05-8.02942E-14
 -1      3257 1.18890E-02 9.01556E-05-8.67902E-14
 -1      3258 1.17462E-02 9.56473E-05-8.48740E-14
 -1      3259 1.16794E-02 6.12789E-05-8.40718E-14
 -1      3260 1.21748E-02 7.91136E-05-9.06623E-14
 -1      3261 1.20319E-02 8.46435E-05-8.87198E-14
 -1      3262 1.19652E-02 5.02887E-05-8.79013E-14
 -1      3263 1.24605E-02 6.80129E-05-9.45865E-14
 -1      3264 1.23176E-02 7.35694E-05-9.26173E-14
 -1      3265 1.22509E-02 3.92250E-05-9.17847E-14
 -1      3266 1.27462E-02 5.68726E-05-9.85587E-14
 -1      3267 1.26033E-02 6.24468E-05-9.65691E-14
 -1      3268 1.25367E-02 2.81101E-05-9.57163E-14
 -1      3269 1.30319E-02 4.57069E-05-1.02573E-13
 -1      3270 1.28890E-02 5.12923E-05-1.00561E-13
 -1      3271 1.28224E-02 1.69610E-05-9.96945E-14
 -1      3272 1.33176E-02 3.45265E-05-1.06619E-13
 -1      3273 1.31748E-02 4.01181E-05-1.04592E-13
 -1      3274 1.31081E-02 5.79047E-06-1.03713E-13
 -1      3275 1.36033E-02 2.33395E-05-1.10694E-13
 -1      3276 1.34605E-02 2.89335E-05-1.08651E-13
 -1      3277 1.33938E-02-5.39205E-06-1.07761E-13
 -1      3278 1.38890E-02 1.21517E-05-1.14792E-13
 -1      3279 1.37462E-02 1.77454E-05-1.12740E-13
 -1      3280 1.36796E-02-1.65795E-05-1.11838E-13
 -1      3281 1.40899E-02-6.84813E-06-1.17705E-13
 -1      3282 1.39777E-02 5.52634E-06-1.16073E-13
 -1      3283 1.39110E-02-2.87991E-05-1.15163E-13
 -1      3284 1.40882E-02-4.20494E-05-1.17727E-13
 -1      3285 8.01092E-04-9.20423E-06-1.22289E-15
 -1      3286 7.52653E-04-2.03116E-05-1.23432E-15
 -1      3287 1.41237E-02-6.81275E-04-1.18768E-13
 -1      3288 1.41182E-02-6.39117E-04-1.18673E-13
 -1      3289 1.12598E-03-9.23832E-05-1.94848E-15
 -1      3290 1.00325E-03-5.75189E-05-1.84497E-15
 -1      3291 1.40908E-02-4.29736E-04-1.18159E-13
 -1      3292 1.40853E-02-3.87572E-04-1.18046E-13
 -1      3293 3.07377E-03 9.30344E-04-5.48370E-15
 -1      3294 1.41126E-02-5.96957E-04-1.18576E-13
 -1      3295 1.41071E-02-5.54796E-04-1.18475E-13
 -1      3296 1.39917E-02-6.13203E-04-1.16865E-13
 -1      3297 4.20427E-03 6.12083E-04-1.02732E-14
 -1      3298 4.02207E-03 6.82694E-04-9.43059E-15
 -1      3299 4.33521E-03 5.18982E-04-1.07939E-14
 -1      3300 2.47155E-03 7.69287E-04-3.53211E-15
 -1      3301 2.29053E-03 6.93888E-04-3.07123E-15
 -1      3302 5.38679E-03-1.33209E-04-1.37245E-14
 -1      3303 5.28252E-03-1.63152E-04-1.34804E-14
 -1      3304 4.64677E-03-5.49770E-04-1.26413E-14
 -1      3305 4.82646E-03-5.03592E-04-1.36117E-14
 -1      3306 4.96952E-03-4.24539E-04-1.41044E-14
 -1      3307 4.65414E-03-5.01164E-04-1.24061E-14
 -1      3308 1.61506E-03-3.83204E-04-2.10375E-15
 -1      3309 1.79925E-03-4.55468E-04-2.48510E-15
 -1      3310 2.15318E-03-6.17248E-04-3.26209E-15
 -1      3311 2.82806E-03 8.91141E-04-4.60503E-15
 -1      3312 2.65428E-03 8.36820E-04-4.06518E-15
 -1      3313 5.31530E-03-1.37746E-05-1.36262E-14
 -1      3314 5.40664E-03-4.27848E-05-1.38473E-14
 -1      3315 1.41017E-02-5.12991E-04-1.18374E-13
 -1      3316 1.40963E-02-4.71542E-04-1.18269E-13
 -1      3317 1.39698E-02-4.45623E-04-1.16447E-13
 -1      3318 1.39807E-02-5.29237E-04-1.16662E-13
 -1      3319 5.46435E-03-6.75030E-05-1.38071E-14
 -1      3320 5.50240E-03-8.02203E-05-1.38975E-14
 -1      3321 1.12895E-03 3.28899E-05-1.90568E-15
 -1      3322 1.26854E-03 7.39568E-05-2.06595E-15
 -1      3323 5.13120E-03-2.15596E-04-1.30989E-14
 -1      3324 4.97064E-03-2.77513E-04-1.26823E-14
 -1      3325 4.80805E-03-3.46984E-04-1.22143E-14
 -1      3326 4.66937E-03-4.13540E-04-1.18140E-14
 -1      3327 4.63881E-03-4.67917E-04-1.20542E-14
 -1      3328 4.95131E-03-3.17002E-04-1.29992E-14
 -1      3329 1.27085E-03 3.20411E-04-1.08183E-15
 -1      3330 1.16956E-03 2.55383E-04-1.01915E-15
 -1      3331 1.28918E-03 2.69232E-04-1.25659E-15
 -1      3332 1.44176E-03 3.75658E-04-1.34741E-15
 -1      3333 4.98124E-03 1.09806E-04-1.26133E-14
 -1      3334 5.15135E-03 4.46375E-05-1.31470E-14
 -1      3335 4.08089E-03 5.56387E-04-9.44465E-15
 -1      3336 4.26587E-03 4.51765E-04-1.01194E-14
 -1      3337 8.97084E-04-1.52283E-04-8.63553E-16
 -1      3338 5.50502E-03-9.42158E-05-1.39128E-14
 -1      3339 5.46722E-03-1.07395E-04-1.38500E-14
 -1      3340 1.44535E-03-2.18365E-04-2.27439E-15
 -1      3341 1.28955E-03-1.52268E-04-2.10587E-15
 -1      3342 8.93093E-04-3.52627E-05-1.70727E-15
 -1      3343 8.31931E-04-2.84768E-05-1.65092E-15
 -1      3344 1.95708E-03-5.24041E-04-2.81760E-15
 -1      3345 6.91819E-04-2.12864E-05-1.14974E-15
 -1      3346 6.85710E-04-2.11555E-05-1.15792E-15
 -1      3347 4.89641E-03 1.68147E-04-1.25538E-14
 -1      3348 5.47303E-03-1.25945E-04-1.43886E-14
 -1      3349 5.29233E-03 2.36326E-05-1.40674E-14
 -1      3350 2.45199E-03 7.06321E-04-3.66248E-15
 -1      3351 2.54474E-03 7.64574E-04-3.85245E-15
 -1      3352 7.53424E-04-3.16088E-05-1.11889E-15
 -1      3353 8.08328E-04-4.89196E-05-1.12159E-15
 -1      3354 2.34925E-03 6.56965E-04-3.40960E-15
 -1      3355 5.54713E-03-8.94609E-05-1.44999E-14
 -1      3356 1.42344E-03-3.18102E-04-1.72692E-15
 -1      3357 1.48455E-03-2.92933E-04-2.01556E-15
 -1      3358 1.27003E-03-2.67828E-04-1.44538E-15
 -1      3359 1.40579E-02-1.76940E-04-1.17450E-13
 -1      3360 1.40525E-02-1.35139E-04-1.17324E-13
 -1      3361 5.49119E-03-5.30298E-05-1.45233E-14
 -1      3362 4.41908E-03 3.93074E-04-1.07911E-14
 -1      3363 1.16339E-03-1.18746E-04-1.85339E-15
 -1      3364 8.26731E-04 1.01224E-05-1.11505E-15
 -1      3365 9.28192E-04 3.03045E-06-1.49541E-15
 -1      3366 1.40689E-02-2.61261E-04-1.17694E-13
 -1      3367 1.40634E-02-2.19100E-04-1.17572E-13
 -1      3368 1.39370E-02-1.93357E-04-1.15736E-13
 -1      3369 2.16597E-03 6.01866E-04-2.89642E-15
 -1      3370 2.10690E-03 6.16197E-04-2.64621E-15
 -1      3371 1.92422E-03 5.41727E-04-2.25683E-15
 -1      3372 9.02759E-04-4.36013E-05-1.57588E-15
 -1      3373 2.99373E-03 9.01772E-04-5.26300E-15
 -1      3374 1.40798E-02-3.45498E-04-1.17931E-13
 -1      3375 1.40744E-02-3.03335E-04-1.17814E-13
 -1      3376 1.39479E-02-2.77592E-04-1.15980E-13
 -1      3377 1.39589E-02-3.61741E-04-1.16219E-13
 -1      3378 1.76890E-03 4.86832E-04-1.93777E-15
 -1      3379 1.59101E-03 4.21982E-04-1.61142E-15
 -1      3380 1.51366E-03 3.64686E-04-1.56102E-15
 -1      3381 1.81955E-03 4.64209E-04-2.15321E-15
 -1      3382 9.93017E-04 1.13971E-04-1.02763E-15
 -1      3383 9.35090E-04 7.32457E-05-1.04754E-15
 -1      3384 1.15336E-03 1.65979E-04-1.23604E-15
 -1      3385 5.25249E-03-1.99558E-04-1.38688E-14
 -1      3386 3.87427E-03 6.87766E-04-8.69273E-15
 -1      3387 4.04945E-03 5.91772E-04-9.39328E-15
 -1      3388 1.34486E-03 1.10079E-04-2.07714E-15
 -1      3389 1.41987E-03 1.51036E-04-2.08778E-15
 -1      3390 1.24986E-03 9.38778E-05-1.84648E-15
 -1      3391 1.03414E-03-1.88160E-04-1.08104E-15
 -1      3392 1.73218E-03 2.72554E-04-2.60062E-15
 -1      3393 1.81759E-03 3.32688E-04-2.62819E-15
 -1      3394 1.61604E-03 2.32384E-04-2.36062E-15
 -1      3395 8.87785E-04 3.75445E-05-1.10014E-15
 -1      3396 1.03032E-03 1.92494E-05-1.66335E-15
 -1      3397 1.40784E-02-7.34350E-04-1.18143E-13
 -1      3398 1.41091E-02-7.04926E-04-1.18569E-13
 -1      3399 1.39826E-02-6.79014E-04-1.16765E-13
 -1      3400 1.39535E-02-7.26315E-04-1.16367E-13
 -1      3401 1.07364E-03 4.38357E-05-1.59834E-15
 -1      3402 7.68729E-04-2.51245E-05-1.43933E-15
 -1      3403 1.49894E-03-2.65535E-04-2.20660E-15
 -1      3404 4.79788E-03 2.48209E-04-1.24938E-14
 -1      3405 5.03411E-03 1.58621E-04-1.35174E-14
 -1      3406 7.98627E-04-2.63679E-05-1.52198E-15
 -1      3407 9.22705E-04-7.05552E-05-1.33358E-15
 -1      3408 8.62354E-04-7.15531E-05-1.11991E-15
 -1      3409 2.21224E-03 5.65917E-04-3.19524E-15
 -1      3410 2.22718E-03 5.98545E-04-3.13122E-15
 -1      3411 2.03430E-03 5.12921E-04-2.70590E-15
 -1      3412 2.13589E-03 4.99459E-04-3.15495E-15
 -1      3413 9.25119E-04-1.04224E-04-1.11819E-15
 -1      3414 2.02015E-03 4.46343E-04-2.90763E-15
 -1      3415 5.29310E-03 6.08119E-05-1.45916E-14
 -1      3416 5.43466E-03 6.95998E-06-1.50966E-14
 -1      3417 1.06789E-03-1.63152E-04-1.25883E-15
 -1      3418 5.54005E-03-4.28602E-05-1.52966E-14
 -1      3419 5.57923E-03-6.65145E-05-1.52576E-14
 -1      3420 1.03342E-03 7.01200E-05-1.31862E-15
 -1      3421 1.14783E-03 9.00683E-05-1.53721E-15
 -1      3422 5.54985E-03-3.19412E-04-1.76156E-14
 -1      3423 5.69210E-03-3.16978E-04-1.87158E-14
 -1      3424 5.83183E-03-3.17521E-04-1.98417E-14
 -1      3425 5.97035E-03-3.19946E-04-2.09938E-14
 -1      3426 5.79788E-03-2.79735E-04-1.92586E-14
 -1      3427 6.10781E-03-3.24159E-04-2.21706E-14
 -1      3428 6.24499E-03-3.29656E-04-2.33725E-14
 -1      3429 6.06518E-03-2.88068E-04-2.15579E-14
 -1      3430 6.38191E-03-3.36262E-04-2.45993E-14
 -1      3431 6.51903E-03-3.43736E-04-2.58504E-14
 -1      3432 6.33217E-03-3.00664E-04-2.39589E-14
 -1      3433 6.65629E-03-3.51878E-04-2.71256E-14
 -1      3434 6.79395E-03-3.60559E-04-2.84250E-14
 -1      3435 6.60076E-03-3.16082E-04-2.64579E-14
 -1      3436 6.93194E-03-3.69592E-04-2.97476E-14
 -1      3437 7.07039E-03-3.78910E-04-3.10938E-14
 -1      3438 6.87171E-03-3.33268E-04-2.90527E-14
 -1      3439 7.20922E-03-3.88353E-04-3.24631E-14
 -1      3440 7.34850E-03-3.97886E-04-3.38566E-14
 -1      3441 7.14520E-03-3.51386E-04-3.17413E-14
 -1      3442 7.48814E-03-4.07388E-04-3.52721E-14
 -1      3443 7.62819E-03-4.16844E-04-3.67089E-14
 -1      3444 7.42109E-03-3.69789E-04-3.45232E-14
 -1      3445 7.76855E-03-4.26167E-04-3.81651E-14
 -1      3446 7.90926E-03-4.35354E-04-3.96421E-14
 -1      3447 7.69910E-03-3.88006E-04-3.73929E-14
 -1      3448 8.05023E-03-4.44349E-04-4.11422E-14
 -1      3449 8.19148E-03-4.53158E-04-4.26629E-14
 -1      3450 7.97890E-03-4.05722E-04-4.03458E-14
 -1      3451 8.33294E-03-4.61747E-04-4.42030E-14
 -1      3452 8.47463E-03-4.70129E-04-4.57635E-14
 -1      3453 8.26018E-03-4.22748E-04-4.33805E-14
 -1      3454 8.61648E-03-4.78288E-04-4.73430E-14
 -1      3455 8.75851E-03-4.86237E-04-4.89452E-14
 -1      3456 8.54263E-03-4.39002E-04-4.64969E-14
 -1      3457 8.90066E-03-4.93973E-04-5.05640E-14
 -1      3458 9.04294E-03-5.01512E-04-5.22003E-14
 -1      3459 8.82599E-03-4.54474E-04-4.96920E-14
 -1      3460 9.18532E-03-5.08858E-04-5.38583E-14
 -1      3461 9.32779E-03-5.16025E-04-5.55349E-14
 -1      3462 9.11006E-03-4.69203E-04-5.29644E-14
 -1      3463 9.47033E-03-5.23023E-04-5.72259E-14
 -1      3464 9.61295E-03-5.29865E-04-5.89329E-14
 -1      3465 9.39466E-03-4.83258E-04-5.63093E-14
 -1      3466 9.75561E-03-5.36562E-04-6.06559E-14
 -1      3467 9.89833E-03-5.43128E-04-6.23949E-14
 -1      3468 9.67965E-03-4.96722E-04-5.97198E-14
 -1      3469 1.00411E-02-5.49574E-04-6.41472E-14
 -1      3470 1.01839E-02-5.55910E-04-6.59119E-14
 -1      3471 9.96491E-03-5.09684E-04-6.31912E-14
 -1      3472 1.03267E-02-5.62149E-04-6.76900E-14
 -1      3473 1.04695E-02-5.68299E-04-6.94809E-14
 -1      3474 1.02504E-02-5.22228E-04-6.67185E-14
 -1      3475 1.06123E-02-5.74371E-04-7.12842E-14
 -1      3476 1.07552E-02-5.80372E-04-7.30985E-14
 -1      3477 1.05360E-02-5.34433E-04-7.02964E-14
 -1      3478 1.08981E-02-5.86313E-04-7.49240E-14
 -1      3479 1.10409E-02-5.92198E-04-7.67609E-14
 -1      3480 1.08217E-02-5.46366E-04-7.39244E-14
 -1      3481 1.11838E-02-5.98036E-04-7.86083E-14
 -1      3482 1.13267E-02-6.03832E-04-8.04672E-14
 -1      3483 1.11074E-02-5.58087E-04-7.75950E-14
 -1      3484 1.14696E-02-6.09592E-04-8.23336E-14
 -1      3485 1.16125E-02-6.15321E-04-8.42097E-14
 -1      3486 1.13932E-02-5.69645E-04-8.13105E-14
 -1      3487 1.17554E-02-6.21023E-04-8.60966E-14
 -1      3488 1.18983E-02-6.26702E-04-8.79940E-14
 -1      3489 1.16790E-02-5.81079E-04-8.50628E-14
 -1      3490 1.20412E-02-6.32362E-04-8.98987E-14
 -1      3491 1.21840E-02-6.38005E-04-9.18137E-14
 -1      3492 1.19648E-02-5.92422E-04-8.88528E-14
 -1      3493 1.23269E-02-6.43635E-04-9.37398E-14
 -1      3494 1.24698E-02-6.49252E-04-9.56790E-14
 -1      3495 1.22506E-02-6.03700E-04-9.26856E-14
 -1      3496 1.26127E-02-6.54861E-04-9.76273E-14
 -1      3497 1.27556E-02-6.60462E-04-9.95858E-14
 -1      3498 1.25363E-02-6.14931E-04-9.65617E-14
 -1      3499 1.28985E-02-6.66057E-04-1.01559E-13
 -1      3500 1.30413E-02-6.71646E-04-1.03539E-13
 -1      3501 1.28221E-02-6.26131E-04-1.00485E-13
 -1      3502 1.31842E-02-6.77233E-04-1.05528E-13
 -1      3503 1.33271E-02-6.82816E-04-1.07527E-13
 -1      3504 1.31079E-02-6.37310E-04-1.04447E-13
 -1      3505 1.34699E-02-6.88398E-04-1.09533E-13
 -1      3506 1.36128E-02-6.93978E-04-1.11545E-13
 -1      3507 1.33936E-02-6.48478E-04-1.08443E-13
 -1      3508 7.03253E-04-2.01631E-05-1.16674E-15
 -1      3509 5.48118E-03 2.12139E-04-1.72501E-14
 -1      3510 5.32799E-03 2.30834E-04-1.61919E-14
 -1      3511 5.07042E-03 2.63194E-04-1.45001E-14
 -1      3512 4.90413E-03 2.96628E-04-1.35166E-14
 -1      3513 4.73111E-03 3.39091E-04-1.25596E-14
 -1      3514 5.77805E-03 1.85757E-04-1.94470E-14
 -1      3515 5.63093E-03 1.97532E-04-1.83350E-14
 -1      3516 5.59960E-03 1.61029E-04-1.78891E-14
 -1      3517 6.06665E-03 1.69234E-04-2.17505E-14
 -1      3518 5.92306E-03 1.76591E-04-2.05858E-14
 -1      3519 5.88625E-03 1.42267E-04-2.01167E-14
 -1      3520 6.35092E-03 1.58979E-04-2.41574E-14
 -1      3521 6.20912E-03 1.63514E-04-2.29407E-14
 -1      3522 6.16701E-03 1.30382E-04-2.24496E-14
 -1      3523 6.63324E-03 1.52621E-04-2.66644E-14
 -1      3524 6.49219E-03 1.55434E-04-2.53987E-14
 -1      3525 6.44529E-03 1.22783E-04-2.48848E-14
 -1      3526 6.91499E-03 1.48482E-04-2.92662E-14
 -1      3527 6.77410E-03 1.50354E-04-2.79538E-14
 -1      3528 6.72304E-03 1.17738E-04-2.74177E-14
 -1      3529 7.19690E-03 1.45365E-04-3.19584E-14
 -1      3530 7.05588E-03 1.46848E-04-3.06008E-14
 -1      3531 7.00130E-03 1.14034E-04-3.00455E-14
 -1      3532 7.47931E-03 1.42443E-04-3.47396E-14
 -1      3533 7.33802E-03 1.43912E-04-3.33389E-14
 -1      3534 7.28054E-03 1.10808E-04-3.27628E-14
 -1      3535 7.76232E-03 1.39166E-04-3.76052E-14
 -1      3536 7.62072E-03 1.40867E-04-3.61613E-14
 -1      3537 7.56091E-03 1.07462E-04-3.55670E-14
 -1      3538 8.04592E-03 1.35203E-04-4.05533E-14
 -1      3539 7.90404E-03 1.37279E-04-3.90693E-14
 -1      3540 7.84237E-03 1.03605E-04-3.84548E-14
 -1      3541 8.33004E-03 1.30384E-04-4.35824E-14
 -1      3542 8.18791E-03 1.32903E-04-4.20577E-14
 -1      3543 8.12481E-03 9.90069E-05-4.14257E-14
 -1      3544 8.61459E-03 1.24651E-04-4.66859E-14
 -1      3545 8.47226E-03 1.27630E-04-4.51254E-14
 -1      3546 8.40807E-03 9.35627E-05-4.44759E-14
 -1      3547 8.89950E-03 1.18024E-04-4.98647E-14
 -1      3548 8.75700E-03 1.21445E-04-4.82655E-14
 -1      3549 8.69199E-03 8.72525E-05-4.76009E-14
 -1      3550 9.18466E-03 1.10569E-04-5.31133E-14
 -1      3551 9.04205E-03 1.14394E-04-5.14811E-14
 -1      3552 8.97644E-03 8.01146E-05-5.07981E-14
 -1      3553 9.47003E-03 1.02377E-04-5.64326E-14
 -1      3554 9.32732E-03 1.06558E-04-5.47645E-14
 -1      3555 9.26129E-03 7.22220E-05-5.40667E-14
 -1      3556 9.75554E-03 9.35499E-05-5.98157E-14
 -1      3557 9.61277E-03 9.80364E-05-5.81168E-14
 -1      3558 9.54645E-03 6.36656E-05-5.74047E-14
 -1      3559 1.00411E-02 8.41899E-05-6.32601E-14
 -1      3560 9.89833E-03 8.89307E-05-6.15293E-14
 -1      3561 9.83182E-03 5.45419E-05-6.08089E-14
 -1      3562 1.03268E-02 7.43922E-05-6.67662E-14
 -1      3563 1.01840E-02 7.93406E-05-6.50056E-14
 -1      3564 1.01173E-02 4.49450E-05-6.42708E-14
 -1      3565 1.06125E-02 6.42422E-05-7.03332E-14
 -1      3566 1.04697E-02 6.93567E-05-6.85415E-14
 -1      3567 1.04030E-02 3.49618E-05-6.77936E-14
 -1      3568 1.08983E-02 5.38141E-05-7.39598E-14
 -1      3569 1.07554E-02 5.90591E-05-7.21391E-14
 -1      3570 1.06887E-02 2.46693E-05-7.13778E-14
 -1      3571 1.11841E-02 4.31703E-05-7.76453E-14
 -1      3572 1.10412E-02 4.85160E-05-7.57957E-14
 -1      3573 1.09744E-02 1.41337E-05-7.50230E-14
 -1      3574 1.14698E-02 3.23624E-05-8.13841E-14
 -1      3575 1.13269E-02 3.77843E-05-7.95082E-14
 -1      3576 1.12602E-02 3.41056E-06-7.87234E-14
 -1      3577 1.17556E-02 2.14320E-05-8.51725E-14
 -1      3578 1.16127E-02 2.69105E-05-8.32715E-14
 -1      3579 1.15460E-02-7.45462E-06-8.24728E-14
 -1      3580 1.20413E-02 1.04122E-05-8.90136E-14
 -1      3581 1.18985E-02 1.59318E-05-8.70862E-14
 -1      3582 1.18317E-02-1.84253E-05-8.62728E-14
 -1      3583 1.23271E-02-6.71279E-07-9.29048E-14
 -1      3584 1.21842E-02 4.87727E-06-9.09532E-14
 -1      3585 1.21175E-02-2.94725E-05-9.01242E-14
 -1      3586 1.26128E-02-1.17987E-05-9.68439E-14
 -1      3587 1.24700E-02-6.23040E-06-9.48683E-14
 -1      3588 1.24033E-02-4.05740E-05-9.40248E-14
 -1      3589 1.28986E-02-2.29552E-05-1.00828E-13
 -1      3590 1.27557E-02-1.73740E-05-9.88318E-14
 -1      3591 1.26891E-02-5.17124E-05-9.79691E-14
 -1      3592 1.31843E-02-3.41295E-05-1.04849E-13
 -1      3593 1.30415E-02-2.85406E-05-1.02833E-13
 -1      3594 1.29748E-02-6.28750E-05-1.01959E-13
 -1      3595 1.34701E-02-4.53133E-05-1.08903E-13
 -1      3596 1.33272E-02-3.97206E-05-1.06873E-13
 -1      3597 1.32606E-02-7.40520E-05-1.05986E-13
 -1      3598 1.37558E-02-5.65004E-05-1.12982E-13
 -1      3599 1.36129E-02-5.09067E-05-1.10938E-13
 -1      3600 1.35463E-02-8.52363E-05-1.10042E-13
 -1      3601 1.40696E-02-1.06195E-04-1.17534E-13
 -1      3602 1.40712E-02-7.09911E-05-1.17517E-13
 -1      3603 1.39826E-02-6.43660E-05-1.16236E-13
 -1      3604 1.39485E-02-1.22252E-04-1.15820E-13
 -1      3605 5.60346E-03-8.57429E-05-1.52799E-14
 -1      3606 5.60221E-03-1.01493E-04-1.52967E-14
 -1      3607 5.66231E-03-7.90224E-05-1.60722E-14
 -1      3608 1.14006E-03-1.61317E-04-1.48770E-15
 -1      3609 9.37281E-04-5.77200E-05-1.51484E-15
 -1      3610 8.34494E-04-3.65779E-05-1.39151E-15
 -1      3611 1.38707E-02-6.29450E-04-1.15159E-13
 -1      3612 1.38652E-02-5.87289E-04-1.15058E-13
 -1      3613 5.25493E-03-3.35411E-04-1.54910E-14
 -1      3614 5.40481E-03-3.24866E-04-1.65404E-14
 -1      3615 5.52628E-03-2.78219E-04-1.70599E-14
 -1      3616 7.38086E-04-2.54458E-05-1.17251E-15
 -1      3617 5.56364E-03-1.21642E-04-1.52012E-14
 -1      3618 5.49528E-03-1.47044E-04-1.50706E-14
 -1      3619 5.37045E-03-1.88747E-04-1.47007E-14
 -1      3620 5.23596E-03-2.36641E-04-1.43035E-14
 -1      3621 1.14838E-03-1.36390E-04-1.65138E-15
 -1      3622 1.32006E-03-2.11642E-04-1.82604E-15
 -1      3623 1.43358E-03 3.07665E-04-1.50894E-15
 -1      3624 1.35110E-03 2.53233E-04-1.45591E-15
 -1      3625 1.58198E-03 3.51218E-04-1.78610E-15
 -1      3626 1.89666E-03 3.93081E-04-2.64887E-15
 -1      3627 1.96398E-03 4.52613E-04-2.66700E-15
 -1      3628 1.77500E-03 3.46327E-04-2.40343E-15
 -1      3629 1.00932E-03-8.59072E-05-1.51588E-15
 -1      3630 1.91398E-03 4.63677E-04-2.45474E-15
 -1      3631 5.64539E-03-1.17618E-04-1.59988E-14
 -1      3632 5.55191E-03-1.64601E-05-1.58449E-14
 -1      3633 5.65712E-03-3.43254E-05-1.66062E-14
 -1      3634 5.56787E-03 1.42209E-05-1.63951E-14
 -1      3635 5.49193E-03-1.75609E-04-1.55248E-14
 -1      3636 5.20642E-03 1.96508E-04-1.50956E-14
 -1      3637 1.37207E-02-7.06129E-04-1.13067E-13
 -1      3638 1.38456E-02-7.14164E-04-1.14834E-13
 -1      3639 1.38602E-02-6.90514E-04-1.15034E-13
 -1      3640 1.36444E-02-6.66211E-04-1.11977E-13
 -1      3641 4.56667E-03 3.68172E-04-1.16331E-14
 -1      3642 1.38103E-02-1.21013E-04-1.13844E-13
 -1      3643 1.38274E-02-9.20693E-05-1.14050E-13
 -1      3644 1.38940E-02-5.77405E-05-1.14956E-13
 -1      3645 1.38213E-02-2.05334E-04-1.14097E-13
 -1      3646 1.38158E-02-1.63173E-04-1.13973E-13
 -1      3647 1.36946E-02-1.32988E-04-1.12210E-13
 -1      3648 4.95489E-03-3.89529E-04-1.37350E-14
 -1      3649 5.10735E-03-3.17060E-04-1.42213E-14
 -1      3650 1.38379E-02-3.77940E-04-1.14514E-13
 -1      3651 1.38324E-02-3.35864E-04-1.14395E-13
 -1      3652 1.28693E-03 1.94045E-04-1.48444E-15
 -1      3653 1.37388E-02-5.61730E-04-1.13254E-13
 -1      3654 1.38597E-02-5.45483E-04-1.14957E-13
 -1      3655 1.38543E-02-5.03676E-04-1.14852E-13
 -1      3656 1.50151E-03 2.00505E-04-2.11096E-15
 -1      3657 4.17458E-03 5.54626E-04-9.98675E-15
 -1      3658 1.38433E-02-4.19748E-04-1.14627E-13
 -1      3659 1.37168E-02-3.93872E-04-1.12811E-13
 -1      3660 1.38488E-02-4.61556E-04-1.14741E-13
 -1      3661 1.38748E-02-6.66863E-04-1.15230E-13
 -1      3662 4.36379E-03 4.82912E-04-1.08547E-14
 -1      3663 1.37483E-02-6.40950E-04-1.13430E-13
 -1      3664 1.75581E-03 4.07561E-04-2.12435E-15
 -1      3665 5.16995E-03 1.19945E-04-1.42191E-14
 -1      3666 5.33492E-03 9.18440E-05-1.52517E-14
 -1      3667 6.02503E-03-2.53466E-04-2.09494E-14
 -1      3668 6.15428E-03-2.59693E-04-2.21233E-14
 -1      3669 6.28406E-03-2.66520E-04-2.33208E-14
 -1      3670 6.41484E-03-2.73898E-04-2.45445E-14
 -1      3671 6.23728E-03-2.33862E-04-2.26865E-14
 -1      3672 6.54640E-03-2.81667E-04-2.57930E-14
 -1      3673 6.67898E-03-2.89831E-04-2.70650E-14
 -1      3674 6.49292E-03-2.48658E-04-2.51303E-14
 -1      3675 6.81239E-03-2.98216E-04-2.83607E-14
 -1      3676 6.94676E-03-3.06844E-04-2.96794E-14
 -1      3677 6.75374E-03-2.64461E-04-2.76711E-14
 -1      3678 7.08193E-03-3.15559E-04-3.10236E-14
 -1      3679 7.21795E-03-3.24382E-04-3.23896E-14
 -1      3680 7.01922E-03-2.80899E-04-3.03068E-14
 -1      3681 7.35468E-03-3.33185E-04-3.37762E-14
 -1      3682 7.49213E-03-3.41990E-04-3.51881E-14
 -1      3683 7.28875E-03-2.97606E-04-3.30349E-14
 -1      3684 7.63020E-03-3.50695E-04-3.66226E-14
 -1      3685 7.76887E-03-3.59324E-04-3.80759E-14
 -1      3686 7.56173E-03-3.14265E-04-3.58528E-14
 -1      3687 7.90805E-03-3.67803E-04-3.95504E-14
 -1      3688 8.04773E-03-3.76154E-04-4.10457E-14
 -1      3689 7.83757E-03-3.30625E-04-3.87587E-14
 -1      3690 8.18781E-03-3.84328E-04-4.25612E-14
 -1      3691 8.32829E-03-3.92347E-04-4.40975E-14
 -1      3692 8.11577E-03-3.46520E-04-4.17446E-14
 -1      3693 8.46910E-03-4.00181E-04-4.56538E-14
 -1      3694 8.61022E-03-4.07851E-04-4.72289E-14
 -1      3695 8.39585E-03-3.61857E-04-4.48116E-14
 -1      3696 8.75160E-03-4.15341E-04-4.88243E-14
 -1      3697 8.89321E-03-4.22669E-04-5.04387E-14
 -1      3698 8.67743E-03-3.76603E-04-4.79592E-14
 -1      3699 9.03502E-03-4.29831E-04-5.20727E-14
 -1      3700 9.17701E-03-4.36844E-04-5.37251E-14
 -1      3701 8.96017E-03-3.90769E-04-5.11835E-14
 -1      3702 9.31915E-03-4.43708E-04-5.53952E-14
 -1      3703 9.46143E-03-4.50439E-04-5.70815E-14
 -1      3704 9.24380E-03-4.04397E-04-5.44829E-14
 -1      3705 9.60381E-03-4.57043E-04-5.87843E-14
 -1      3706 9.74629E-03-4.63531E-04-6.05033E-14
 -1      3707 9.52809E-03-4.17543E-04-5.78508E-14
 -1      3708 9.88885E-03-4.69912E-04-6.22377E-14
 -1      3709 1.00315E-02-4.76196E-04-6.39858E-14
 -1      3710 9.81288E-03-4.30273E-04-6.12856E-14
 -1      3711 1.01742E-02-4.82392E-04-6.57468E-14
 -1      3712 1.03169E-02-4.88508E-04-6.75212E-14
 -1      3713 1.00980E-02-4.42652E-04-6.47765E-14
 -1      3714 1.04597E-02-4.94553E-04-6.93089E-14
 -1      3715 1.06025E-02-5.00534E-04-7.11112E-14
 -1      3716 1.03834E-02-4.54742E-04-6.83230E-14
 -1      3717 1.07453E-02-5.06459E-04-7.29236E-14
 -1      3718 1.08882E-02-5.12333E-04-7.47471E-14
 -1      3719 1.06690E-02-4.66599E-04-7.19225E-14
 -1      3720 1.10310E-02-5.18163E-04-7.65823E-14
 -1      3721 1.11739E-02-5.23954E-04-7.84293E-14
 -1      3722 1.09547E-02-4.78271E-04-7.55697E-14
 -1      3723 1.13168E-02-5.29712E-04-8.02866E-14
 -1      3724 1.14597E-02-5.35440E-04-8.21515E-14
 -1      3725 1.12404E-02-4.89799E-04-7.92607E-14
 -1      3726 1.16026E-02-5.41143E-04-8.40270E-14
 -1      3727 1.17455E-02-5.46824E-04-8.59121E-14
 -1      3728 1.15262E-02-5.01218E-04-8.29926E-14
 -1      3729 1.18884E-02-5.52486E-04-8.78094E-14
 -1      3730 1.20313E-02-5.58132E-04-8.97152E-14
 -1      3731 1.18120E-02-5.12555E-04-8.67631E-14
 -1      3732 1.21742E-02-5.63765E-04-9.16302E-14
 -1      3733 1.23171E-02-5.69387E-04-9.35597E-14
 -1      3734 1.20978E-02-5.23833E-04-9.05762E-14
 -1      3735 1.24600E-02-5.74999E-04-9.54980E-14
 -1      3736 1.26029E-02-5.80604E-04-9.74472E-14
 -1      3737 1.23836E-02-5.35067E-04-9.44329E-14
 -1      3738 1.27458E-02-5.86202E-04-9.94101E-14
 -1      3739 1.28887E-02-5.91796E-04-1.01383E-13
 -1      3740 1.26694E-02-5.46272E-04-9.83350E-14
 -1      3741 1.30315E-02-5.97385E-04-1.03365E-13
 -1      3742 1.31744E-02-6.02971E-04-1.05355E-13
 -1      3743 1.29552E-02-5.57457E-04-1.02280E-13
 -1      3744 1.33173E-02-6.08556E-04-1.07351E-13
 -1      3745 1.34602E-02-6.14138E-04-1.09359E-13
 -1      3746 1.32410E-02-5.68630E-04-1.06262E-13
 -1      3747 1.36404E-02-6.28798E-04-1.11903E-13
 -1      3748 5.99067E-03 1.02646E-04-2.07909E-14
 -1      3749 5.85300E-03 1.08439E-04-1.96487E-14
 -1      3750 5.71433E-03 1.15475E-04-1.85323E-14
 -1      3751 5.57366E-03 1.24374E-04-1.74437E-14
 -1      3752 5.82343E-03 7.49624E-05-1.91803E-14
 -1      3753 6.26394E-03 9.42331E-05-2.31521E-14
 -1      3754 6.12742E-03 9.80517E-05-2.19581E-14
 -1      3755 6.09031E-03 6.64969E-05-2.14674E-14
 -1      3756 6.53675E-03 8.84312E-05-2.56145E-14
 -1      3757 6.40026E-03 9.10922E-05-2.43704E-14
 -1      3758 6.35696E-03 6.03613E-05-2.38563E-14
 -1      3759 6.81048E-03 8.40885E-05-2.81741E-14
 -1      3760 6.67342E-03 8.61271E-05-2.68825E-14
 -1      3761 6.62510E-03 5.55371E-05-2.63471E-14
 -1      3762 7.08575E-03 8.03945E-05-3.08263E-14
 -1      3763 6.94788E-03 8.21897E-05-2.94894E-14
 -1      3764 6.89548E-03 5.13434E-05-2.89323E-14
 -1      3765 7.36275E-03 7.67689E-05-3.35686E-14
 -1      3766 7.22401E-03 7.85918E-05-3.21860E-14
 -1      3767 7.16831E-03 4.72972E-05-3.16102E-14
 -1      3768 7.64143E-03 7.28018E-05-3.63954E-14
 -1      3769 7.50188E-03 7.48382E-05-3.49714E-14
 -1      3770 7.44352E-03 4.30333E-05-3.43754E-14
 -1      3771 7.92164E-03 6.82304E-05-3.93073E-14
 -1      3772 7.78135E-03 7.05956E-05-3.78417E-14
 -1      3773 7.72089E-03 3.82919E-05-3.72278E-14
 -1      3774 8.20313E-03 6.29092E-05-4.23007E-14
 -1      3775 8.06223E-03 6.56631E-05-4.07944E-14
 -1      3776 8.00011E-03 3.29107E-05-4.01628E-14
 -1      3777 8.48570E-03 5.67826E-05-4.53710E-14
 -1      3778 8.34429E-03 5.99432E-05-4.38257E-14
 -1      3779 8.28090E-03 2.68083E-05-4.31766E-14
 -1      3780 8.76913E-03 4.98590E-05-4.85156E-14
 -1      3781 8.62731E-03 5.34152E-05-4.69337E-14
 -1      3782 8.56294E-03 1.99667E-05-4.62669E-14
 -1      3783 9.05322E-03 4.21890E-05-5.17338E-14
 -1      3784 8.91110E-03 4.61111E-05-5.01164E-14
 -1      3785 8.84599E-03 1.24135E-05-4.94332E-14
 -1      3786 9.33783E-03 3.38477E-05-5.50228E-14
 -1      3787 9.19546E-03 3.80958E-05-5.33705E-14
 -1      3788 9.12983E-03 4.20568E-06-5.26727E-14
 -1      3789 9.62281E-03 2.49221E-05-5.83810E-14
 -1      3790 9.48028E-03 2.94517E-05-5.66928E-14
 -1      3791 9.41425E-03-4.58351E-06-5.59815E-14
 -1      3792 9.90808E-03 1.55007E-05-6.18022E-14
 -1      3793 9.76541E-03 2.02677E-05-6.00837E-14
 -1      3794 9.69912E-03-1.38742E-05-5.93588E-14
 -1      3795 1.01935E-02 5.66867E-06-6.52829E-14
 -1      3796 1.00508E-02 1.06310E-05-6.35350E-14
 -1      3797 9.98431E-03-2.35870E-05-6.27985E-14
 -1      3798 1.04791E-02-4.49695E-06-6.88239E-14
 -1      3799 1.03363E-02 6.23205E-07-6.70466E-14
 -1      3800 1.02697E-02-3.36476E-05-6.62977E-14
 -1      3801 1.07648E-02-1.49283E-05-7.24262E-14
 -1      3802 1.06220E-02-9.68304E-06-7.06165E-14
 -1      3803 1.05553E-02-4.39889E-05-6.98560E-14
 -1      3804 1.10506E-02-2.55674E-05-7.60867E-14
 -1      3805 1.09077E-02-2.02249E-05-7.42501E-14
 -1      3806 1.08410E-02-5.45528E-05-7.34753E-14
 -1      3807 1.13363E-02-3.63662E-05-7.98024E-14
 -1      3808 1.11934E-02-3.09493E-05-7.79379E-14
 -1      3809 1.11267E-02-6.52901E-05-7.71527E-14
 -1      3810 1.16221E-02-4.72854E-05-8.35618E-14
 -1      3811 1.14792E-02-4.18127E-05-8.16747E-14
 -1      3812 1.14125E-02-7.61598E-05-8.08794E-14
 -1      3813 1.19079E-02-5.82934E-05-8.73741E-14
 -1      3814 1.17650E-02-5.27797E-05-8.54616E-14
 -1      3815 1.16983E-02-8.71290E-05-8.46505E-14
 -1      3816 1.21937E-02-6.93656E-05-9.12321E-14
 -1      3817 1.20508E-02-6.38226E-05-8.92967E-14
 -1      3818 1.19841E-02-9.81712E-05-8.84712E-14
 -1      3819 1.24795E-02-8.04830E-05-9.51388E-14
 -1      3820 1.23366E-02-7.49195E-05-9.31799E-14
 -1      3821 1.22699E-02-1.09266E-04-9.23388E-14
 -1      3822 1.27653E-02-9.16308E-05-9.90935E-14
 -1      3823 1.26224E-02-8.60537E-05-9.71118E-14
 -1      3824 1.25557E-02-1.20397E-04-9.62543E-14
 -1      3825 1.30510E-02-1.02798E-04-1.03088E-13
 -1      3826 1.29081E-02-9.72125E-05-1.01087E-13
 -1      3827 1.28415E-02-1.31553E-04-1.00215E-13
 -1      3828 1.33368E-02-1.13977E-04-1.07118E-13
 -1      3829 1.31939E-02-1.08386E-04-1.05098E-13
 -1      3830 1.31273E-02-1.42724E-04-1.04216E-13
 -1      3831 1.35871E-02-1.26278E-04-1.10676E-13
 -1      3832 1.34443E-02-1.20686E-04-1.08646E-13
 -1      3833 1.33776E-02-1.55021E-04-1.07749E-13
 -1      3834 1.35926E-02-1.68439E-04-1.10806E-13
 -1      3835 5.72729E-03-7.04826E-05-1.69006E-14
 -1      3836 5.74215E-03-9.13508E-05-1.69248E-14
 -1      3837 1.66616E-03 3.43169E-04-2.05740E-15
 -1      3838 1.37059E-02-3.09986E-04-1.12575E-13
 -1      3839 1.38269E-02-2.93788E-04-1.14276E-13
 -1      3840 1.38215E-02-2.51714E-04-1.14153E-13
 -1      3841 5.76805E-03-2.43450E-04-1.86775E-14
 -1      3842 5.89660E-03-2.47970E-04-1.98004E-14
 -1      3843 5.98712E-03-2.20380E-04-2.03423E-14
 -1      3844 5.46241E-03 1.09423E-04-1.64414E-14
 -1      3845 5.56212E-03 6.08220E-05-1.68395E-14
 -1      3846 5.61053E-03-1.69164E-04-1.64539E-14
 -1      3847 5.49850E-03-2.09429E-04-1.60699E-14
 -1      3848 1.60123E-03 2.88953E-04-2.04491E-15
 -1      3849 4.80147E-03-4.22483E-04-1.28841E-14
 -1      3850 1.41755E-03 2.09361E-04-1.79431E-15
 -1      3851 5.73230E-03-1.13877E-04-1.68864E-14
 -1      3852 5.69729E-03-1.36170E-04-1.67873E-14
 -1      3853 1.35641E-02-5.88876E-04-1.10804E-13
 -1      3854 5.08731E-03 1.88231E-04-1.41524E-14
 -1      3855 5.68305E-03 3.42337E-05-1.76248E-14
 -1      3856 1.20424E-03 1.21523E-04-1.54339E-15
 -1      3857 5.76070E-03-4.96128E-05-1.74747E-14
 -1      3858 5.72125E-03-1.61874E-04-1.73560E-14
 -1      3859 5.81330E-03-1.07560E-04-1.77350E-14
 -1      3860 1.37003E-02-2.21528E-04-1.12397E-13
 -1      3861 1.35849E-02-3.26185E-04-1.10879E-13
 -1      3862 1.35794E-02-2.84108E-04-1.10757E-13
 -1      3863 5.64217E-03-2.38124E-04-1.75783E-14
 -1      3864 5.74437E-03-2.06949E-04-1.80973E-14
 -1      3865 1.35586E-02-5.47069E-04-1.10703E-13
 -1      3866 5.51289E-03-2.36410E-04-1.65058E-14
 -1      3867 1.35904E-02-3.67995E-04-1.10997E-13
 -1      3868 1.34639E-02-3.42117E-04-1.09188E-13
 -1      3869 1.35958E-02-4.09805E-04-1.11113E-13
 -1      3870 5.37209E-03-2.52425E-04-1.55711E-14
 -1      3871 5.24152E-03-2.66639E-04-1.47198E-14
 -1      3872 1.37278E-02-4.77803E-04-1.13040E-13
 -1      3873 6.43954E-03-2.17198E-04-2.44698E-14
 -1      3874 6.56659E-03-2.24599E-04-2.57150E-14
 -1      3875 6.69514E-03-2.32060E-04-2.69842E-14
 -1      3876 6.82521E-03-2.39731E-04-2.82766E-14
 -1      3877 6.63619E-03-2.01022E-04-2.62994E-14
 -1      3878 6.95657E-03-2.47432E-04-2.95926E-14
 -1      3879 7.08920E-03-2.55261E-04-3.09333E-14
 -1      3880 6.89368E-03-2.15162E-04-2.88819E-14
 -1      3881 7.22293E-03-2.63074E-04-3.22965E-14
 -1      3882 7.35771E-03-2.70938E-04-3.36805E-14
 -1      3883 7.15698E-03-2.29592E-04-3.15575E-14
 -1      3884 7.49340E-03-2.78740E-04-3.50882E-14
 -1      3885 7.62995E-03-2.86528E-04-3.65182E-14
 -1      3886 7.42502E-03-2.44128E-04-3.43270E-14
 -1      3887 7.76726E-03-2.94219E-04-3.79683E-14
 -1      3888 7.90527E-03-3.01848E-04-3.94395E-14
 -1      3889 7.69696E-03-2.58595E-04-3.71802E-14
 -1      3890 8.04390E-03-3.09357E-04-4.09314E-14
 -1      3891 8.18309E-03-3.16775E-04-4.24430E-14
 -1      3892 7.97208E-03-2.72854E-04-4.01197E-14
 -1      3893 8.32277E-03-3.24062E-04-4.39739E-14
 -1      3894 8.46290E-03-3.31243E-04-4.55254E-14
 -1      3895 8.24977E-03-2.86814E-04-4.31377E-14
 -1      3896 8.60341E-03-3.38292E-04-4.70974E-14
 -1      3897 8.74428E-03-3.45231E-04-4.86873E-14
 -1      3898 8.52949E-03-3.00428E-04-4.62370E-14
 -1      3899 8.88545E-03-3.52046E-04-5.02962E-14
 -1      3900 9.02689E-03-3.58754E-04-5.19263E-14
 -1      3901 8.81082E-03-3.13680E-04-4.94138E-14
 -1      3902 9.16856E-03-3.65350E-04-5.35747E-14
 -1      3903 9.31043E-03-3.71848E-04-5.52395E-14
 -1      3904 9.09340E-03-3.26584E-04-5.26675E-14
 -1      3905 9.45247E-03-3.78246E-04-5.69218E-14
 -1      3906 9.59467E-03-3.84559E-04-5.86198E-14
 -1      3907 9.37693E-03-3.39167E-04-5.59941E-14
 -1      3908 9.73699E-03-3.90787E-04-6.03342E-14
 -1      3909 9.87942E-03-3.96941E-04-6.20644E-14
 -1      3910 9.66116E-03-3.51466E-04-5.93862E-14
 -1      3911 1.00219E-02-4.03025E-04-6.38090E-14
 -1      3912 1.01645E-02-4.09047E-04-6.55654E-14
 -1      3913 9.94592E-03-3.63522E-04-6.28411E-14
 -1      3914 1.03072E-02-4.15012E-04-6.73382E-14
 -1      3915 1.04499E-02-4.20927E-04-6.91238E-14
 -1      3916 1.02311E-02-3.75373E-04-6.63541E-14
 -1      3917 1.05927E-02-4.26796E-04-7.09218E-14
 -1      3918 1.07355E-02-4.32624E-04-7.27330E-14
 -1      3919 1.05165E-02-3.87058E-04-6.99214E-14
 -1      3920 1.08783E-02-4.38417E-04-7.45557E-14
 -1      3921 1.10212E-02-4.44178E-04-7.63906E-14
 -1      3922 1.08020E-02-3.98609E-04-7.35411E-14
 -1      3923 1.11641E-02-4.49912E-04-7.82362E-14
 -1      3924 1.13069E-02-4.55621E-04-8.00916E-14
 -1      3925 1.10877E-02-4.10055E-04-7.72092E-14
 -1      3926 1.14498E-02-4.61309E-04-8.19582E-14
 -1      3927 1.15927E-02-4.66979E-04-8.38327E-14
 -1      3928 1.13735E-02-4.21420E-04-8.09224E-14
 -1      3929 1.17356E-02-4.72634E-04-8.57180E-14
 -1      3930 1.18786E-02-4.78275E-04-8.76155E-14
 -1      3931 1.16593E-02-4.32724E-04-8.46739E-14
 -1      3932 1.20215E-02-4.83904E-04-8.95228E-14
 -1      3933 1.21644E-02-4.89524E-04-9.14392E-14
 -1      3934 1.19451E-02-4.43982E-04-8.84658E-14
 -1      3935 1.23073E-02-4.95136E-04-9.33686E-14
 -1      3936 1.24502E-02-5.00741E-04-9.53085E-14
 -1      3937 1.22309E-02-4.55208E-04-9.23039E-14
 -1      3938 1.25931E-02-5.06341E-04-9.72588E-14
 -1      3939 1.27360E-02-5.11936E-04-9.92209E-14
 -1      3940 1.25168E-02-4.66410E-04-9.61841E-14
 -1      3941 1.28789E-02-5.17528E-04-1.01194E-13
 -1      3942 1.30218E-02-5.23117E-04-1.03178E-13
 -1      3943 1.28026E-02-4.77597E-04-1.00107E-13
 -1      3944 1.31647E-02-5.28703E-04-1.05171E-13
 -1      3945 1.33076E-02-5.34288E-04-1.07168E-13
 -1      3946 1.30884E-02-4.88774E-04-1.04073E-13
 -1      3947 5.93634E-03 2.79846E-05-1.98377E-14
 -1      3948 5.80927E-03 3.09759E-05-1.87188E-14
 -1      3949 5.79806E-03-9.63530E-06-1.82513E-14
 -1      3950 6.44597E-03 2.84671E-05-2.45650E-14
 -1      3951 6.31501E-03 3.08553E-05-2.33435E-14
 -1      3952 5.33462E-03 1.62314E-04-1.58303E-14
 -1      3953 6.71030E-03 2.38675E-05-2.70818E-14
 -1      3954 6.57766E-03 2.61247E-05-2.58116E-14
 -1      3955 6.53086E-03-2.09520E-06-2.52761E-14
 -1      3956 6.97804E-03 1.93308E-05-2.96928E-14
 -1      3957 6.84373E-03 2.15876E-05-2.83756E-14
 -1      3958 6.79241E-03-7.04851E-06-2.78187E-14
 -1      3959 7.24902E-03 1.46132E-05-3.23959E-14
 -1      3960 7.11313E-03 1.69930E-05-3.10327E-14
 -1      3961 7.05828E-03-1.22959E-05-3.04551E-14
 -1      3962 7.52290E-03 9.50554E-06-3.51851E-14
 -1      3963 7.38561E-03 1.21053E-05-3.37796E-14
 -1      3964 7.32797E-03-1.79202E-05-3.31827E-14
 -1      3965 7.79931E-03 3.86080E-06-3.80608E-14
 -1      3966 7.66080E-03 6.74640E-06-3.66126E-14
 -1      3967 7.60097E-03-2.40140E-05-3.59970E-14
 -1      3968 8.07784E-03-2.40856E-06-4.10185E-14
 -1      3969 7.93832E-03 7.99190E-07-3.95302E-14
 -1      3970 7.87676E-03-3.06436E-05-3.88964E-14
 -1      3971 8.35812E-03-9.33686E-06-4.40531E-14
 -1      3972 8.21777E-03-5.79622E-06-4.25259E-14
 -1      3973 8.15486E-03-3.78425E-05-4.18750E-14
 -1      3974 8.63981E-03-1.69159E-05-4.71652E-14
 -1      3975 8.49880E-03-1.30514E-05-4.55999E-14
 -1      3976 8.43484E-03-4.56126E-05-4.49319E-14
 -1      3977 8.92261E-03-2.51071E-05-5.03539E-14
 -1      3978 8.78108E-03-2.09415E-05-4.87503E-14
 -1      3979 8.71633E-03-5.39293E-05-4.80674E-14
 -1      3980 9.20627E-03-3.38525E-05-5.36139E-14
 -1      3981 9.06434E-03-2.94168E-05-5.19751E-14
 -1      3982 8.99899E-03-6.27496E-05-5.12770E-14
 -1      3983 9.49058E-03-4.30845E-05-5.69421E-14
 -1      3984 9.34836E-03-3.84135E-05-5.52689E-14
 -1      3985 9.28257E-03-7.20190E-05-5.45561E-14
 -1      3986 9.77538E-03-5.27324E-05-6.03388E-14
 -1      3987 9.63293E-03-4.78617E-05-5.86323E-14
 -1      3988 9.56683E-03-8.16783E-05-5.79057E-14
 -1      3989 1.00605E-02-6.27280E-05-6.37959E-14
 -1      3990 9.91792E-03-5.76913E-05-6.20604E-14
 -1      3991 9.85159E-03-9.16681E-05-6.13225E-14
 -1      3992 1.03459E-02-7.30082E-05-6.73133E-14
 -1      3993 1.02032E-02-6.78364E-05-6.55469E-14
 -1      3994 1.01367E-02-1.01932E-04-6.47970E-14
 -1      3995 1.06315E-02-8.35171E-05-7.08895E-14
 -1      3996 1.04887E-02-7.82373E-05-6.90945E-14
 -1      3997 1.04221E-02-1.12419E-04-6.83305E-14
 -1      3998 1.09172E-02-9.42064E-05-7.45262E-14
 -1      3999 1.07743E-02-8.88418E-05-7.27003E-14
 -1      4000 1.07077E-02-1.23085E-04-7.19256E-14
 -1      4001 1.12029E-02-1.05035E-04-7.82176E-14
 -1      4002 1.10600E-02-9.96055E-05-7.63649E-14
 -1      4003 1.09934E-02-1.33890E-04-7.55781E-14
 -1      4004 1.14887E-02-1.15971E-04-8.19558E-14
 -1      4005 1.13458E-02-1.10492E-04-8.00823E-14
 -1      4006 1.12791E-02-1.44804E-04-7.92828E-14
 -1      4007 1.17745E-02-1.26986E-04-8.57382E-14
 -1      4008 1.16316E-02-1.21470E-04-8.38399E-14
 -1      4009 1.15649E-02-1.55799E-04-8.30314E-14
 -1      4010 1.20603E-02-1.38059E-04-8.95682E-14
 -1      4011 1.19174E-02-1.32516E-04-8.76481E-14
 -1      4012 1.18507E-02-1.66855E-04-8.68241E-14
 -1      4013 1.23461E-02-1.49173E-04-9.34446E-14
 -1      4014 1.22032E-02-1.43611E-04-9.15014E-14
 -1      4015 1.21366E-02-1.77955E-04-9.06647E-14
 -1      4016 1.26319E-02-1.60316E-04-9.73684E-14
 -1      4017 1.24890E-02-1.54741E-04-9.53997E-14
 -1      4018 1.24224E-02-1.89086E-04-9.45494E-14
 -1      4019 1.29177E-02-1.71478E-04-1.01334E-13
 -1      4020 1.27748E-02-1.65895E-04-9.93459E-14
 -1      4021 1.27082E-02-2.00239E-04-9.84775E-14
 -1      4022 1.32035E-02-1.82651E-04-1.05337E-13
 -1      4023 1.30606E-02-1.77063E-04-1.03332E-13
 -1      4024 1.29940E-02-2.11405E-04-1.02450E-13
 -1      4025 6.19091E-03-2.03038E-04-2.20550E-14
 -1      4026 6.31436E-03-2.10100E-04-2.32494E-14
 -1      4027 6.38578E-03-1.87292E-04-2.38128E-14
 -1      4028 5.83077E-03-1.70121E-04-1.84482E-14
 -1      4029 1.34303E-02-5.19618E-04-1.08878E-13
 -1      4030 1.36050E-02-4.92472E-04-1.11318E-13
 -1      4031 1.35995E-02-4.50350E-04-1.11204E-13
 -1      4032 1.33540E-02-4.79690E-04-1.07777E-13
 -1      4033 6.18844E-03 2.80791E-05-2.21498E-14
 -1      4034 6.05954E-03 3.07389E-05-2.09793E-14
 -1      4035 6.03412E-03-8.10596E-06-2.04914E-14
 -1      4036 6.27689E-03-2.47225E-06-2.28318E-14
 -1      4037 5.94759E-03-1.82869E-04-1.96515E-14
 -1      4038 6.06572E-03-1.89696E-04-2.07957E-14
 -1      4039 6.13875E-03-1.67803E-04-2.13334E-14
 -1      4040 5.90281E-03-1.43286E-04-1.88764E-14
 -1      4041 5.92888E-03-9.14704E-05-1.89596E-14
 -1      4042 5.92296E-03-1.16598E-04-1.89216E-14
 -1      4043 6.03819E-03-1.27278E-04-2.01386E-14
 -1      4044 5.86928E-03-5.05267E-05-1.85662E-14
 -1      4045 1.35861E-02-2.49463E-04-1.10811E-13
 -1      4046 1.35859E-02-2.03081E-04-1.10752E-13
 -1      4047 1.34784E-02-1.96372E-04-1.09226E-13
 -1      4048 1.34651E-02-2.65661E-04-1.09120E-13
 -1      4049 5.99371E-03-5.81955E-05-1.97763E-14
 -1      4050 1.33710E-02-1.89664E-04-1.07700E-13
 -1      4051 1.33429E-02-3.58184E-04-1.07504E-13
 -1      4052 1.33374E-02-3.16373E-04-1.07384E-13
 -1      4053 1.34730E-02-4.24474E-04-1.09399E-13
 -1      4054 1.31766E-02-2.74715E-04-1.05080E-13
 -1      4055 1.32977E-02-2.58649E-04-1.06758E-13
 -1      4056 1.33043E-02-2.24004E-04-1.06808E-13
 -1      4057 6.82994E-03-1.84016E-04-2.81720E-14
 -1      4058 6.95946E-03-1.90560E-04-2.94850E-14
 -1      4059 7.09043E-03-1.97101E-04-3.08224E-14
 -1      4060 7.22275E-03-2.03756E-04-3.21825E-14
 -1      4061 7.02298E-03-1.65581E-04-3.00882E-14
 -1      4062 7.35625E-03-2.10391E-04-3.35650E-14
 -1      4063 7.49086E-03-2.17083E-04-3.49695E-14
 -1      4064 7.28686E-03-1.77513E-04-3.28058E-14
 -1      4065 7.62643E-03-2.23733E-04-3.63960E-14
 -1      4066 7.76289E-03-2.30398E-04-3.78418E-14
 -1      4067 7.55547E-03-1.89626E-04-3.56125E-14
 -1      4068 7.90013E-03-2.37004E-04-3.93098E-14
 -1      4069 8.03810E-03-2.43595E-04-4.07985E-14
 -1      4070 7.82791E-03-2.01807E-04-3.85029E-14
 -1      4071 8.17670E-03-2.50116E-04-4.23057E-14
 -1      4072 8.31588E-03-2.56604E-04-4.38327E-14
 -1      4073 8.10347E-03-2.13973E-04-4.14751E-14
 -1      4074 8.45555E-03-2.63017E-04-4.53805E-14
 -1      4075 8.59569E-03-2.69386E-04-4.69474E-14
 -1      4076 8.38153E-03-2.26070E-04-4.45263E-14
 -1      4077 8.73621E-03-2.75683E-04-4.85338E-14
 -1      4078 8.87709E-03-2.81932E-04-5.01387E-14
 -1      4079 8.66156E-03-2.38065E-04-4.76550E-14
 -1      4080 9.01828E-03-2.88113E-04-5.17631E-14
 -1      4081 9.15974E-03-2.94246E-04-5.34066E-14
 -1      4082 8.94315E-03-2.49947E-04-5.08621E-14
 -1      4083 9.30142E-03-3.00319E-04-5.50674E-14
 -1      4084 9.44332E-03-3.06347E-04-5.67456E-14
 -1      4085 9.22593E-03-2.61712E-04-5.41433E-14
 -1      4086 9.58538E-03-3.12324E-04-5.84402E-14
 -1      4087 9.72760E-03-3.18260E-04-6.01498E-14
 -1      4088 9.50962E-03-2.73369E-04-5.74952E-14
 -1      4089 9.86994E-03-3.24153E-04-6.18754E-14
 -1      4090 1.00124E-02-3.30011E-04-6.36165E-14
 -1      4091 9.79399E-03-2.84927E-04-6.09125E-14
 -1      4092 1.01549E-02-3.35834E-04-6.53711E-14
 -1      4093 1.02976E-02-3.41627E-04-6.71394E-14
 -1      4094 1.00789E-02-2.96402E-04-6.43888E-14
 -1      4095 1.04402E-02-3.47392E-04-6.89215E-14
 -1      4096 1.05830E-02-3.53133E-04-7.07167E-14
 -1      4097 1.03641E-02-3.07805E-04-6.79220E-14
 -1      4098 1.07258E-02-3.58852E-04-7.25268E-14
 -1      4099 1.08686E-02-3.64551E-04-7.43499E-14
 -1      4100 1.06495E-02-3.19151E-04-7.15106E-14
 -1      4101 1.10114E-02-3.70233E-04-7.61828E-14
 -1      4102 1.11543E-02-3.75900E-04-7.80281E-14
 -1      4103 1.09351E-02-3.30451E-04-7.51556E-14
 -1      4104 1.12972E-02-3.81554E-04-7.98855E-14
 -1      4105 1.14401E-02-3.87196E-04-8.17515E-14
 -1      4106 1.12209E-02-3.41714E-04-7.88466E-14
 -1      4107 1.15830E-02-3.92828E-04-8.36253E-14
 -1      4108 1.17259E-02-3.98452E-04-8.55124E-14
 -1      4109 1.15066E-02-3.52950E-04-8.25785E-14
 -1      4110 1.18688E-02-4.04069E-04-8.74085E-14
 -1      4111 1.20117E-02-4.09679E-04-8.93166E-14
 -1      4112 1.17925E-02-3.64166E-04-8.63497E-14
 -1      4113 1.21546E-02-4.15284E-04-9.12370E-14
 -1      4114 1.22975E-02-4.20884E-04-9.31662E-14
 -1      4115 1.20783E-02-3.75365E-04-9.01674E-14
 -1      4116 1.24404E-02-4.26481E-04-9.51088E-14
 -1      4117 1.25833E-02-4.32075E-04-9.70598E-14
 -1      4118 1.23641E-02-3.86555E-04-9.40302E-14
 -1      4119 1.27263E-02-4.37666E-04-9.90221E-14
 -1      4120 1.28692E-02-4.43256E-04-1.00995E-13
 -1      4121 1.26499E-02-3.97736E-04-9.79363E-14
 -1      4122 1.30121E-02-4.48844E-04-1.02978E-13
 -1      4123 1.31550E-02-4.54430E-04-1.04972E-13
 -1      4124 1.29358E-02-4.08912E-04-1.01882E-13
 -1      4125 6.87158E-03-3.74486E-05-2.85569E-14
 -1      4126 6.74099E-03-3.45090E-05-2.72607E-14
 -1      4127 7.13631E-03-4.37113E-05-3.12197E-14
 -1      4128 7.00335E-03-4.05424E-05-2.98768E-14
 -1      4129 6.94806E-03-6.77326E-05-2.92976E-14
 -1      4130 7.40529E-03-5.04282E-05-3.39725E-14
 -1      4131 7.27030E-03-4.70261E-05-3.25844E-14
 -1      4132 7.21237E-03-7.52014E-05-3.19861E-14
 -1      4133 7.67782E-03-5.76162E-05-3.68108E-14
 -1      4134 7.54114E-03-5.39731E-05-3.53811E-14
 -1      4135 7.48114E-03-8.31190E-05-3.47645E-14
 -1      4136 7.95332E-03-6.52874E-05-3.97330E-14
 -1      4137 7.81523E-03-6.13993E-05-3.82621E-14
 -1      4138 7.75361E-03-9.14547E-05-3.76263E-14
 -1      4139 8.23124E-03-7.34397E-05-4.27334E-14
 -1      4140 8.09200E-03-6.93102E-05-4.12235E-14
 -1      4141 8.02910E-03-1.00185E-04-4.05704E-14
 -1      4142 8.51111E-03-8.20544E-05-4.58123E-14
 -1      4143 8.37095E-03-7.76952E-05-4.42638E-14
 -1      4144 8.30706E-03-1.09284E-04-4.35946E-14
 -1      4145 8.79254E-03-9.10993E-05-4.89707E-14
 -1      4146 8.65165E-03-8.65284E-05-4.73815E-14
 -1      4147 8.58700E-03-1.18724E-04-4.66954E-14
 -1      4148 9.07517E-03-1.00533E-04-5.22004E-14
 -1      4149 8.93372E-03-9.57721E-05-5.05762E-14
 -1      4150 8.86848E-03-1.28470E-04-4.98749E-14
 -1      4151 9.35873E-03-1.10307E-04-5.55015E-14
 -1      4152 9.21685E-03-1.05381E-04-5.38423E-14
 -1      4153 9.15118E-03-1.38487E-04-5.31259E-14
 -1      4154 9.64299E-03-1.20374E-04-5.88716E-14
 -1      4155 9.50079E-03-1.15308E-04-5.71776E-14
 -1      4156 9.43479E-03-1.48738E-04-5.64483E-14
 -1      4157 9.92776E-03-1.30688E-04-6.23063E-14
 -1      4158 9.78532E-03-1.25503E-04-6.05817E-14
 -1      4159 9.71910E-03-1.59187E-04-5.98400E-14
 -1      4160 1.02129E-02-1.41204E-04-6.57990E-14
 -1      4161 1.00703E-02-1.35923E-04-6.40456E-14
 -1      4162 1.00039E-02-1.69800E-04-6.32932E-14
 -1      4163 1.04983E-02-1.51883E-04-6.93504E-14
 -1      4164 1.03556E-02-1.46525E-04-6.75667E-14
 -1      4165 1.02891E-02-1.80548E-04-6.68026E-14
 -1      4166 1.07839E-02-1.62693E-04-7.29624E-14
 -1      4167 1.06411E-02-1.57274E-04-7.11486E-14
 -1      4168 1.05745E-02-1.91404E-04-7.03718E-14
 -1      4169 1.10696E-02-1.73605E-04-7.66294E-14
 -1      4170 1.09267E-02-1.68138E-04-7.47888E-14
 -1      4171 1.08601E-02-2.02344E-04-7.39999E-14
 -1      4172 1.13554E-02-1.84595E-04-8.03454E-14
 -1      4173 1.12125E-02-1.79091E-04-7.84815E-14
 -1      4174 1.11458E-02-2.13351E-04-7.76804E-14
 -1      4175 1.16412E-02-1.95643E-04-8.41054E-14
 -1      4176 1.14983E-02-1.90113E-04-8.22212E-14
 -1      4177 1.14316E-02-2.24409E-04-8.14080E-14
 -1      4178 1.19270E-02-2.06735E-04-8.79085E-14
 -1      4179 1.17841E-02-2.01185E-04-8.60006E-14
 -1      4180 1.17174E-02-2.35504E-04-8.51774E-14
 -1      4181 1.22128E-02-2.17859E-04-9.17563E-14
 -1      4182 1.20699E-02-2.12294E-04-8.98268E-14
 -1      4183 1.20032E-02-2.46627E-04-8.89895E-14
 -1      4184 1.24986E-02-2.29004E-04-9.56507E-14
 -1      4185 1.23557E-02-2.23429E-04-9.36984E-14
 -1      4186 1.22891E-02-2.57770E-04-9.28472E-14
 -1      4187 1.27844E-02-2.40165E-04-9.95837E-14
 -1      4188 1.26415E-02-2.34583E-04-9.76108E-14
 -1      4189 1.25749E-02-2.68927E-04-9.67477E-14
 -1      4190 1.30520E-02-2.60232E-04-1.03322E-13
 -1      4191 1.29091E-02-2.54646E-04-1.01330E-13
 -1      4192 1.28424E-02-2.88990E-04-1.00451E-13
 -1      4193 1.30917E-02-3.17956E-04-1.03946E-13
 -1      4194 6.33043E-03-1.58932E-04-2.31579E-14
 -1      4195 6.45211E-03-1.65115E-04-2.43747E-14
 -1      4196 1.32740E-02-3.99214E-04-1.06582E-13
 -1      4197 1.31475E-02-3.73470E-04-1.04786E-13
 -1      4198 1.32777E-02-4.39760E-04-1.06673E-13
 -1      4199 6.12034E-03-1.36718E-04-2.09989E-14
 -1      4200 6.24359E-03-1.48524E-04-2.22646E-14
 -1      4201 6.30356E-03-1.27479E-04-2.28065E-14
 -1      4202 6.13055E-03-1.08735E-04-2.10404E-14
 -1      4203 6.61183E-03-3.16302E-05-2.59877E-14
 -1      4204 6.48404E-03-2.89437E-05-2.47394E-14
 -1      4205 6.68913E-03-6.07614E-05-2.67023E-14
 -1      4206 6.57605E-03-1.71274E-04-2.56165E-14
 -1      4207 6.70209E-03-1.77651E-04-2.68829E-14
 -1      4208 6.51414E-03-1.42802E-04-2.49369E-14
 -1      4209 6.76493E-03-1.53967E-04-2.74647E-14
 -1      4210 6.05471E-03-3.34063E-05-2.05305E-14
 -1      4211 6.11793E-03-7.83729E-05-2.09497E-14
 -1      4212 1.30229E-02-3.58986E-04-1.03035E-13
 -1      4213 6.37181E-03-5.58794E-05-2.35545E-14
 -1      4214 6.29295E-03-2.82046E-05-2.28745E-14
 -1      4215 6.20606E-03-8.67154E-05-2.18270E-14
 -1      4216 6.17236E-03-3.06621E-05-2.16894E-14
 -1      4217 7.25187E-03-1.26274E-04-3.24027E-14
 -1      4218 7.38537E-03-1.31265E-04-3.37874E-14
 -1      4219 7.51998E-03-1.36264E-04-3.51942E-14
 -1      4220 7.65553E-03-1.41385E-04-3.66222E-14
 -1      4221 7.79199E-03-1.46514E-04-3.80711E-14
 -1      4222 7.92922E-03-1.51735E-04-3.95397E-14
 -1      4223 8.06718E-03-1.56964E-04-4.10281E-14
 -1      4224 8.20577E-03-1.62264E-04-4.25378E-14
 -1      4225 8.34493E-03-1.67571E-04-4.40663E-14
 -1      4226 8.48460E-03-1.72932E-04-4.56133E-14
 -1      4227 8.62472E-03-1.78301E-04-4.71811E-14
 -1      4228 8.76524E-03-1.83711E-04-4.87673E-14
 -1      4229 8.90612E-03-1.89129E-04-5.03727E-14
 -1      4230 9.04730E-03-1.94577E-04-5.19968E-14
 -1      4231 9.18875E-03-2.00033E-04-5.36394E-14
 -1      4232 9.33044E-03-2.05513E-04-5.53003E-14
 -1      4233 9.47233E-03-2.11000E-04-5.69761E-14
 -1      4234 9.61439E-03-2.16504E-04-5.86705E-14
 -1      4235 9.75661E-03-2.22014E-04-6.03809E-14
 -1      4236 9.89896E-03-2.27538E-04-6.21050E-14
 -1      4237 1.00414E-02-2.33068E-04-6.38454E-14
 -1      4238 1.01840E-02-2.38607E-04-6.55990E-14
 -1      4239 1.03266E-02-2.44151E-04-6.73664E-14
 -1      4240 1.04693E-02-2.49703E-04-6.91490E-14
 -1      4241 1.06120E-02-2.55258E-04-7.09467E-14
 -1      4242 1.07548E-02-2.60819E-04-7.27579E-14
 -1      4243 1.08976E-02-2.66384E-04-7.45824E-14
 -1      4244 1.10405E-02-2.71952E-04-7.64195E-14
 -1      4245 1.11833E-02-2.77523E-04-7.82682E-14
 -1      4246 1.13262E-02-2.83097E-04-8.01281E-14
 -1      4247 1.14691E-02-2.88673E-04-8.19999E-14
 -1      4248 1.16120E-02-2.94250E-04-8.38797E-14
 -1      4249 1.17549E-02-2.99830E-04-8.57702E-14
 -1      4250 1.18978E-02-3.05411E-04-8.76725E-14
 -1      4251 1.20407E-02-3.10993E-04-8.95840E-14
 -1      4252 1.21837E-02-3.16576E-04-9.15085E-14
 -1      4253 1.23266E-02-3.22161E-04-9.34452E-14
 -1      4254 1.24695E-02-3.27745E-04-9.53917E-14
 -1      4255 1.26124E-02-3.33331E-04-9.73460E-14
 -1      4256 1.27553E-02-3.38916E-04-9.93129E-14
 -1      4257 1.28800E-02-3.53400E-04-1.01051E-13
 -1      4258 7.11954E-03-1.21444E-04-3.10399E-14
 -1      4259 6.98855E-03-1.16622E-04-2.96988E-14
 -1      4260 6.85899E-03-1.12016E-04-2.83821E-14
 -1      4261 6.73109E-03-1.07418E-04-2.70900E-14
 -1      4262 6.60494E-03-1.03113E-04-2.58214E-14
 -1      4263 6.48087E-03-9.88393E-05-2.45771E-14
 -1      4264 6.29539E-03-9.58280E-05-2.27163E-14
 -3
    1PSTEP                         2           1           1          
  100CL  101 1.000000000        4264                     0    1           1
 -4  STRESS      6    1
 -5  SXX         1    4    1    1
 -5  SYY         1    4    2    2
 -5  SZZ         1    4    3    3
 -5  SXY         1    4    1    2
 -5  SYZ         1    4    2    3
 -5  SZX         1    4    3    1
 -1         1 6.64650E+01 8.27601E-01 3.61988E+00 1.16584E-01-5.21319E-14-7.87460E-13
 -1         2-7.14340E-01-2.36984E+01-3.33401E+00 1.26477E-01 4.14230E-13 9.41712E-14
 -1         3 1.99998E+01 2.29948E-05-6.61269E-05 2.30174E-05-6.31731E-13-6.47711E-13
 -1         4 1.99998E+01 2.09499E-05-6.80801E-05-2.14027E-05 2.15938E-13 1.95974E-15
 -1         5 3.72166E+01 7.03043E+00 2.90582E+00 6.66438E+00-4.10505E-14 3.07003E-12
 -1         6 4.03878E+01 1.37350E+01 5.39512E+00-9.21259E+00-1.94678E-13 2.63489E-12
 -1         7 2.48266E+01 7.21773E+00 2.10370E-02-4.32267E+00-3.08364E-14 3.31325E-13
 -1         8 2.25435E+01 6.78195E+00 1.29213E-01-2.24292E+00-2.71866E-14-3.36503E-13
 -1         9 2.07390E+01 6.25109E+00 9.50924E-02-1.12786E+00-2.49523E-14-6.95579E-13
 -1        10 1.90940E+01 5.75665E+00 6.73847E-02-3.55011E-01-1.40443E-14-8.70583E-13
 -1        11 1.75224E+01 5.28596E+00 2.67717E-02 1.37569E-01-6.61970E-15-9.49420E-13
 -1        12 1.61369E+01 4.87118E+00-2.24844E-02 3.35009E-01-1.29063E-15-9.83788E-13
 -1        13 1.50768E+01 4.55498E+00-6.73054E-02 2.56009E-01 2.68188E-15-9.98338E-13
 -1        14 1.45637E+01 4.40189E+00-8.98767E-02-1.68136E-02 4.40967E-15-9.83205E-13
 -1        15 1.47007E+01 4.44233E+00-8.00416E-02-3.27249E-01 8.71872E-15-9.48671E-13
 -1        16 1.54393E+01 4.66191E+00-4.20213E-02-5.05280E-01 1.16088E-14-8.91169E-13
 -1        17 1.66034E+01 5.00804E+00 8.24462E-03-4.31713E-01 1.56819E-14-8.07384E-13
 -1        18 1.79521E+01 5.41180E+00 5.29718E-02-8.12751E-02 1.99701E-14-6.98173E-13
 -1        19 1.93771E+01 5.83998E+00 8.33705E-02 5.33178E-01 2.99136E-14-5.41005E-13
 -1        20 2.08151E+01 6.27514E+00 9.86862E-02 1.37249E+00 3.39520E-14-2.79459E-13
 -1        21 2.23975E+01 6.75618E+00 1.15934E-01 2.48425E+00 4.06758E-14 1.90402E-13
 -1        22 2.47846E+01 7.39716E+00 2.34305E-01 4.23946E+00 7.23033E-15 1.09432E-12
 -1        23 2.82177E+01-1.65705E+00-1.07094E+00-5.41444E-01-1.28703E-13 1.96339E-12
 -1        24 2.53800E+01-8.88148E-02-2.83484E-01 1.13490E-01-3.07579E-14 1.43314E-12
 -1        25 2.51689E+01-3.10172E-02-1.61854E-02 7.60367E-02-2.14644E-14 9.31952E-13
 -1        26 2.49050E+01 1.11621E-02 6.02189E-02 1.94354E-02-8.21684E-15 6.03629E-13
 -1        27 2.41785E+01 2.31722E-02 7.66673E-02-3.03412E-02-1.16445E-14 3.62418E-13
 -1        28 2.27998E+01 1.82709E-02 6.10544E-02-8.28044E-02 7.37713E-15 2.20698E-13
 -1        29 2.08862E+01-3.91839E-03 7.46690E-03-1.17597E-01 7.62389E-15 1.35059E-13
 -1        30 1.89534E+01-3.45878E-02-7.02589E-02-1.05685E-01 7.00069E-15-4.57169E-14
 -1        31 1.77617E+01-5.63805E-02-1.28910E-01-3.74085E-02 1.62891E-15-2.64282E-13
 -1        32 1.78771E+01-5.43562E-02-1.24601E-01 5.49651E-02-2.83367E-14-4.68426E-13
 -1        33 1.92540E+01-2.93215E-02-6.19876E-02 1.18016E-01 6.08073E-14-5.21076E-13
 -1        34 2.12718E+01 3.33360E-03 1.50653E-02 1.26188E-01-1.01470E-14-5.33865E-13
 -1        35 2.31641E+01 2.69118E-02 6.39108E-02 9.13185E-02-1.17055E-14-7.12503E-13
 -1        36 2.44253E+01 3.49789E-02 7.37519E-02 4.39573E-02-2.20440E-15-6.87906E-13
 -1        37 2.49346E+01 3.06796E-02 5.80752E-02 6.46056E-03-3.17884E-14-7.88683E-13
 -1        38 2.48325E+01 2.08013E-02 3.46186E-02-1.47767E-02-1.68155E-14-8.15390E-13
 -1        39 2.43478E+01 1.07231E-02 1.45939E-02-2.27252E-02-3.53909E-14-9.46726E-13
 -1        40 2.36862E+01 2.96983E-03 1.44168E-03-2.27823E-02-5.87255E-14-9.59976E-13
 -1        41 2.29910E+01-1.96930E-03-5.53409E-03-1.93015E-02 8.77028E-14-1.13216E-12
 -1        42 2.23446E+01-4.58476E-03-8.32964E-03-1.48823E-02-1.15982E-14-1.07467E-12
 -1        43 2.17854E+01-5.59847E-03-8.73983E-03-1.07648E-02-2.24757E-14-9.23161E-13
 -1        44 2.13242E+01-5.64270E-03-7.98727E-03-7.39364E-03 2.26222E-14-6.63443E-13
 -1        45 2.09567E+01-5.17113E-03-6.78758E-03-4.82537E-03-6.39388E-14-6.46546E-13
 -1        46 2.06720E+01-4.47429E-03-5.51494E-03-2.95993E-03-2.60495E-14-9.54133E-13
 -1        47 2.04567E+01-3.72277E-03-4.34296E-03-1.65475E-03 6.69785E-14-6.65421E-13
 -1        48 2.02974E+01-3.00813E-03-3.33749E-03-7.73286E-04-3.06212E-14-5.83831E-13
 -1        49 2.01823E+01-2.37353E-03-2.51067E-03-2.01423E-04 6.04570E-14-7.82522E-13
 -1        50 2.01013E+01-1.83406E-03-1.85014E-03 1.50154E-04-8.28371E-16-1.17879E-12
 -1        51 2.00461E+01-1.38951E-03-1.33408E-03 3.48825E-04-3.20731E-14-1.03667E-12
 -1        52 2.00098E+01-1.03202E-03-9.38562E-04 4.44224E-04 7.18365E-15-8.58577E-13
 -1        53 1.99874E+01-7.50431E-04-6.40923E-04 4.72256E-04-1.17717E-14-7.49593E-13
 -1        54 1.99747E+01-5.32810E-04-4.21104E-04 4.58448E-04 2.52103E-14-2.91912E-13
 -1        55 1.99686E+01-3.67708E-04-2.62065E-04 4.20605E-04-1.15030E-13-6.16849E-13
 -1        56 1.99670E+01-2.44817E-04-1.49706E-04 3.70853E-04-2.90211E-14-1.25489E-12
 -1        57 1.99681E+01-1.55216E-04-7.26001E-05 3.17192E-04 1.12024E-13-1.13774E-12
 -1        58 1.99709E+01-9.14004E-05-2.16475E-05 2.64664E-04 7.69314E-15-7.18356E-13
 -1        59 1.99744E+01-4.72051E-05 1.02828E-05 2.16236E-04-7.19980E-14-4.35155E-13
 -1        60 1.99782E+01-1.76590E-05 2.86925E-05 1.73442E-04-5.47407E-15-1.61880E-13
 -1        61 1.99819E+01 1.17802E-06 3.77614E-05 1.36867E-04 2.25627E-14-1.15389E-13
 -1        62 1.99854E+01 1.23830E-05 4.06190E-05 1.06489E-04-1.82003E-14 1.20669E-13
 -1        63 1.99884E+01 1.83301E-05 3.95805E-05 8.19210E-05-2.77878E-14-8.20584E-14
 -1        64 1.99911E+01 2.08367E-05 3.63557E-05 6.25713E-05 7.87599E-14-1.42708E-13
 -1        65 1.99934E+01 2.12938E-05 3.22443E-05 4.77376E-05-1.47759E-13-1.42609E-13
 -1        66 1.99953E+01 2.07752E-05 2.83416E-05 3.66246E-05-4.67351E-14-3.49268E-13
 -1        67 1.99969E+01 2.01150E-05 2.57714E-05 2.82731E-05 1.29149E-13-1.88080E-13
 -1        68 1.99981E+01 1.99082E-05 2.58235E-05 2.13064E-05 1.15281E-13 6.53634E-13
 -1        69 1.99991E+01 2.01759E-05 2.91977E-05 1.32958E-05-2.46128E-14 6.56518E-13
 -1        70 1.99997E+01 1.75377E-05 3.05693E-05-1.98548E-06-1.33553E-14 3.37292E-13
 -1        71 1.99999E+01-3.25596E-06 2.24799E-06-2.30796E-05-6.70438E-14 2.27038E-14
 -1        72 2.56037E+01-4.52824E-01-1.08082E+00-4.59313E-01 3.65506E-14 2.82298E-12
 -1        73 2.46644E+01-5.35541E-02-2.65800E-01-9.87417E-02 3.31935E-14 2.16161E-12
 -1        74 2.42952E+01-1.21784E-03-1.45256E-02-4.59469E-02 1.28312E-14 1.70725E-12
 -1        75 2.38630E+01 1.06921E-02 5.00123E-02-2.35534E-02 6.15881E-15 1.42372E-12
 -1        76 2.30529E+01 1.03595E-02 6.00863E-02 7.32253E-03 2.57648E-14 1.18877E-12
 -1        77 2.17460E+01-1.15210E-04 4.07556E-02 4.68788E-02 1.04015E-14 8.93608E-13
 -1        78 2.00900E+01-1.65304E-02-5.45634E-03 8.20140E-02-1.53498E-14 8.86815E-13
 -1        79 1.85187E+01-3.01711E-02-6.39005E-02 9.09234E-02 1.62737E-14 8.28525E-13
 -1        80 1.76044E+01-3.26137E-02-1.03383E-01 5.96577E-02-2.86468E-15 5.93312E-13
 -1        81 1.77442E+01-2.25195E-02-9.83269E-02-6.75396E-04 9.98051E-15 5.62089E-13
 -1        82 1.88933E+01-6.05157E-03-5.15144E-02-5.80956E-02 2.63590E-14 3.77670E-13
 -1        83 2.05886E+01 8.76754E-03 6.32124E-03-8.58282E-02-2.43649E-14 2.52492E-13
 -1        84 2.22437E+01 1.70496E-02 4.68482E-02-8.04989E-02-1.17458E-14 1.86785E-13
 -1        85 2.34402E+01 1.83250E-02 5.93659E-02-5.57523E-02 6.97771E-15 1.81952E-13
 -1        86 2.40358E+01 1.49928E-02 5.09234E-02-2.78870E-02-1.30409E-14 1.69894E-13
 -1        87 2.41015E+01 9.87623E-03 3.38276E-02-6.37186E-03-2.08629E-14 2.19615E-14
 -1        88 2.38019E+01 4.99632E-03 1.72096E-02 6.58100E-03-7.18392E-15-8.66408E-14
 -1        89 2.33042E+01 1.28375E-03 5.00489E-03 1.25249E-02 1.18325E-14-4.04552E-13
 -1        90 2.27371E+01-1.10887E-03-2.34711E-03 1.39410E-02-3.27834E-14-4.67463E-13
 -1        91 2.21829E+01-2.40564E-03-5.95445E-03 1.29411E-02 1.69236E-14-3.84560E-13
 -1        92 2.16863E+01-2.92803E-03-7.15750E-03 1.09242E-02-4.65624E-14-1.82790E-13
 -1        93 2.12656E+01-2.96562E-03-7.01866E-03 8.68181E-03 9.29423E-15-1.04100E-13
 -1        94 2.09234E+01-2.73422E-03-6.23881E-03 6.60254E-03 4.65861E-14-4.39079E-13
 -1        95 2.06539E+01-2.37800E-03-5.23013E-03 4.84091E-03-3.07234E-14-3.72585E-13
 -1        96 2.04474E+01-1.98549E-03-4.21270E-03 3.42845E-03 2.80609E-15-1.93741E-13
 -1        97 2.02930E+01-1.60677E-03-3.29121E-03 2.33921E-03-4.25188E-14 9.54207E-14
 -1        98 2.01806E+01-1.26702E-03-2.50575E-03 1.52510E-03-1.92939E-14 2.10136E-13
 -1        99 2.01009E+01-9.76296E-04-1.86243E-03 9.33751E-04 3.76122E-14-2.17965E-13
 -1       100 2.00463E+01-7.35886E-04-1.35090E-03 5.16583E-04-1.51069E-14-9.74051E-14
 -1       101 2.00103E+01-5.42406E-04-9.53967E-04 2.31924E-04 2.93710E-15 8.17879E-14
 -1       102 1.99879E+01-3.90273E-04-6.52681E-04 4.56374E-05 4.91822E-14 2.60950E-13
 -1       103 1.99751E+01-2.73174E-04-4.28892E-04-6.93629E-05-9.74281E-14 1.56137E-13
 -1       104 1.99690E+01-1.84898E-04-2.66413E-04-1.34046E-04 3.63819E-15 3.30922E-13
 -1       105 1.99673E+01-1.19768E-04-1.51426E-04-1.64297E-04 7.00302E-14 4.24285E-13
 -1       106 1.99684E+01-7.28283E-05-7.25026E-05-1.71901E-04-5.83927E-14 1.05890E-13
 -1       107 1.99711E+01-3.99015E-05-2.04187E-05-1.65414E-04-1.50789E-14-4.31781E-13
 -1       108 1.99746E+01-1.75537E-05 1.21174E-05-1.50902E-04-3.01422E-14-7.61554E-13
 -1       109 1.99783E+01-3.02384E-06 3.07604E-05-1.32546E-04 5.72513E-14-1.50027E-13
 -1       110 1.99820E+01 5.86841E-06 3.98185E-05-1.13133E-04-5.86755E-14 3.50659E-13
 -1       111 1.99854E+01 1.08188E-05 4.25208E-05-9.44391E-05 1.01535E-13 7.76112E-14
 -1       112 1.99885E+01 1.31326E-05 4.12562E-05-7.75293E-05-1.38299E-13 2.43526E-13
 -1       113 1.99912E+01 1.38106E-05 3.77869E-05-6.29793E-05 1.37098E-13 2.52380E-13
 -1       114 1.99935E+01 1.36263E-05 3.34495E-05-5.10375E-05-9.43293E-14-5.81992E-13
 -1       115 1.99954E+01 1.31874E-05 2.93697E-05-4.17169E-05-3.22320E-14-4.48793E-13
 -1       116 1.99969E+01 1.29399E-05 2.67117E-05-3.47721E-05 2.98194E-14-3.15296E-13
 -1       117 1.99982E+01 1.31835E-05 2.68478E-05-2.95363E-05 2.88246E-14-9.87995E-13
 -1       118 1.99991E+01 1.37327E-05 3.04901E-05-2.43991E-05-1.66640E-14-1.18753E-12
 -1       119 1.99997E+01 1.18354E-05 3.17936E-05-1.31917E-05-1.53255E-15-1.39786E-12
 -1       120 1.99999E+01-1.21768E-05-1.03835E-06 1.53271E-05 2.99644E-13-1.44254E-12
 -1       121 1.99998E+01 4.64210E-05 1.54302E-06 2.48118E-05-1.32515E-12 9.06234E-14
 -1       122 1.99998E+01-1.53948E-04 3.04628E-05-5.25598E-06-1.83869E-13 2.93394E-13
 -1       123 1.99998E+01-7.24506E-04 2.12438E-05-2.25252E-05 7.12000E-13 2.51067E-13
 -1       124 1.99998E+01-1.50308E-03 6.23500E-06-2.89818E-05 1.11300E-12-7.06693E-14
 -1       125 1.99998E+01-2.33425E-03-6.93165E-06-2.81664E-05 1.10420E-12-1.88413E-13
 -1       126 1.99998E+01-3.07209E-03-1.67825E-05-2.31924E-05 6.59426E-13 1.10748E-13
 -1       127 1.99998E+01-3.63387E-03-2.32707E-05-1.50115E-05 1.02634E-12 9.95613E-14
 -1       128 1.99998E+01-3.93233E-03-2.65345E-05-5.12640E-06 5.63340E-13-1.28838E-13
 -1       129 1.99998E+01-3.92978E-03-2.65090E-05 5.30136E-06 5.45090E-13 3.74706E-14
 -1       130 1.99998E+01-3.62650E-03-2.31987E-05 1.51459E-05 6.55986E-13 2.29539E-13
 -1       131 1.99998E+01-3.06096E-03-1.65211E-05 2.35108E-05 6.10109E-13-1.90571E-13
 -1       132 1.99998E+01-2.32102E-03-6.80095E-06 2.82603E-05 5.53618E-14 2.77832E-13
 -1       133 1.99998E+01-1.48940E-03 6.32994E-06 2.88429E-05-2.97709E-13-9.88785E-14
 -1       134 1.99998E+01-7.10367E-04 2.27378E-05 2.45186E-05-3.87337E-13-4.98779E-14
 -1       135 1.99998E+01-1.55798E-04 2.68018E-05 7.34053E-06-1.78028E-13 8.03988E-14
 -1       136 1.99998E+01 3.92680E-05 4.20695E-07-4.35070E-05-3.89188E-13-3.85536E-14
 -1       137-1.29934E+00-1.95682E+01-3.07877E+00-3.57032E+00 1.62814E-12 3.52093E-13
 -1       138-1.50205E+00-8.97422E+00-2.34575E+00-3.03260E+00 2.85688E-12 1.28811E-12
 -1       139 2.35169E+00 2.72711E+00-1.19808E+00 2.91306E+00 3.31030E-12 2.38276E-12
 -1       140 1.56361E+01 1.05200E+01 3.63971E-01 1.26907E+01 2.42173E-12 2.65415E-12
 -1       141 3.40600E+01 1.02777E+01 1.77754E+00 1.82694E+01 1.34603E-12 2.27951E-12
 -1       142 5.37085E+01 5.28219E+00 2.93928E+00 1.57309E+01 3.66540E-13 1.11228E-12
 -1       143 6.50425E+01 1.21060E+00 3.51047E+00 5.06849E+00 2.23571E-14-4.77118E-13
 -1       144 6.28436E+01 2.01221E+00 3.37938E+00-8.26337E+00 3.59037E-13-2.19907E-12
 -1       145 4.76259E+01 6.79825E+00 2.51210E+00-1.68717E+01 1.41559E-12-3.55344E-12
 -1       146 2.75808E+01 1.05809E+01 1.19189E+00-1.66707E+01 2.58260E-12-3.89899E-12
 -1       147 9.39138E+00 8.29123E+00-3.59648E-01-8.90522E+00 3.33433E-12-3.22820E-12
 -1       148 6.61870E-01 4.70352E-02-1.59395E+00-8.64855E-01 3.28404E-12-2.07767E-12
 -1       149-1.54282E+00-1.06707E+01-2.47510E+00 3.37692E+00 2.44671E-12-9.65006E-13
 -1       150-9.34610E-01-1.97472E+01-3.03168E+00 2.56139E+00 8.10879E-13-1.42178E-13
 -1       151-7.35709E-01-2.12953E+01-3.12026E+00-1.42127E+00-1.01281E-12-1.17836E-13
 -1       152-1.53541E+00-1.47009E+01-2.75942E+00-3.74740E+00-2.55884E-12-7.77711E-13
 -1       153-7.20898E-01-3.74371E+00-1.97822E+00-1.23918E+00-3.49037E-12-1.90700E-12
 -1       154 5.82162E+00 6.23179E+00-7.96295E-01 6.20073E+00-3.67378E-12-3.10368E-12
 -1       155 2.05019E+01 1.07638E+01 6.42212E-01 1.47166E+01-2.94664E-12-3.77909E-12
 -1       156 4.08053E+01 8.51936E+00 2.12186E+00 1.78901E+01-1.73619E-12-3.67245E-12
 -1       157 5.92788E+01 3.43129E+00 3.22733E+00 1.21778E+01-6.61117E-13-2.54718E-12
 -1       158 6.06775E+01 3.08272E+00 3.33172E+00-1.16403E+01-1.56687E-13 6.03156E-13
 -1       159 4.47692E+01 7.90915E+00 2.42951E+00-1.79579E+01-6.99746E-13 1.67033E-12
 -1       160 2.63650E+01 1.10986E+01 1.20984E+00-1.68065E+01-1.61854E-12 2.26308E-12
 -1       161 1.09729E+01 9.24650E+00-1.05483E-01-1.00811E+01-2.52826E-12 2.47502E-12
 -1       162 1.70135E+00 1.69993E+00-1.34755E+00-2.07285E+00-2.97079E-12 2.07417E-12
 -1       163-1.56349E+00-9.42761E+00-2.39099E+00 3.16666E+00-2.61369E-12 1.11111E-12
 -1       164-1.34217E+00-1.94937E+01-3.08859E+00 3.50627E+00-1.45342E-12 3.71998E-13
 -1       165 2.48555E+01 3.83050E+00-5.71039E-02-2.88493E+00-3.88054E-13 1.87905E-14
 -1       166 2.25362E+01 4.25973E+00-4.91002E-02-1.78572E+00-3.05488E-13-4.02518E-13
 -1       167 2.05967E+01 4.37831E+00-3.50114E-02-9.19135E-01-2.16084E-13-6.43752E-13
 -1       168 1.87569E+01 4.41950E+00-2.54380E-02-2.60160E-01-1.24857E-13-7.73036E-13
 -1       169 1.70234E+01 4.50617E+00-1.90793E-02 1.38450E-01-5.79259E-14-8.32192E-13
 -1       170 1.55144E+01 4.63760E+00-1.54442E-02 2.51442E-01 1.03823E-15-8.60280E-13
 -1       171 1.45339E+01 4.74635E+00-1.35024E-02 1.00681E-01 4.29106E-14-8.60067E-13
 -1       172 1.43081E+01 4.75827E+00-1.29306E-02-1.83888E-01 7.25472E-14-8.35920E-13
 -1       173 1.48797E+01 4.65752E+00-1.37483E-02-4.13561E-01 1.06670E-13-7.89423E-13
 -1       174 1.60798E+01 4.50046E+00-1.59708E-02-4.25319E-01 1.47298E-13-7.23440E-13
 -1       175 1.75944E+01 4.37278E+00-1.99745E-02-1.55590E-01 2.07482E-13-6.24644E-13
 -1       176 1.92255E+01 4.31861E+00-2.62827E-02 3.83789E-01 2.81607E-13-4.87011E-13
 -1       177 2.08368E+01 4.31162E+00-3.71919E-02 1.12853E+00 3.52657E-13-2.99099E-13
 -1       178 2.25240E+01 4.21488E+00-5.15828E-02 2.02736E+00 4.05939E-13 2.57259E-14
 -1       179 2.47022E+01 3.59291E+00-6.14039E-02 3.00947E+00 3.96898E-13 5.74610E-13
 -1       180 2.67102E+01 1.08244E+00-3.63452E-01 2.65780E+00 2.94133E-13 1.28506E-12
 -1       181 2.67133E+01 7.73908E-01-2.43774E-03-1.45485E+00-3.31811E-13 5.44263E-13
 -1       182 2.54476E+01 5.62199E-02-1.20861E-02-4.42091E-01-2.77351E-13 4.05801E-13
 -1       183 2.48068E+01-7.13001E-02 9.88022E-03-3.15159E-01-1.84588E-13 3.21148E-13
 -1       184 2.43209E+01-1.69850E-01 6.68048E-03-5.66804E-01-1.35430E-13 2.25676E-13
 -1       185 2.36714E+01-1.93631E-01 4.09706E-03-9.86391E-01-1.05538E-13 1.57577E-13
 -1       186 2.27676E+01-1.04870E-01 3.79578E-03-1.34073E+00-5.94613E-14 1.45655E-13
 -1       187 2.17261E+01 9.92777E-02 3.30567E-03-1.34857E+00-1.29326E-13 5.65659E-14
 -1       188 2.08650E+01 3.26331E-01 2.05462E-03-8.34091E-01-1.48956E-13-2.91399E-14
 -1       189 2.05494E+01 4.18637E-01-1.93579E-04 7.22786E-02-1.48895E-13-8.78143E-14
 -1       190 2.09312E+01 2.99512E-01 2.90466E-04 9.46702E-01-9.75183E-14-1.89362E-13
 -1       191 2.18063E+01 6.70417E-02 2.01968E-03 1.38571E+00-9.12777E-14-4.26735E-13
 -1       192 2.27834E+01-1.36369E-01 6.24712E-04 1.29231E+00-1.10207E-13-5.24220E-13
 -1       193 2.35234E+01-2.23615E-01-1.85492E-03 8.49965E-01-4.46245E-14-5.70103E-13
 -1       194 2.38790E+01-2.08340E-01-3.74229E-03 3.24067E-01-8.15099E-14-5.80333E-13
 -1       195 2.38674E+01-1.45381E-01-4.43943E-03-1.06301E-01-3.78668E-14-5.97013E-13
 -1       196 2.35874E+01-7.81290E-02-3.79023E-03-3.79302E-01-4.58162E-15-5.12706E-13
 -1       197 2.31526E+01-2.66832E-02-2.47999E-03-5.08316E-01-1.14747E-14-4.07180E-13
 -1       198 2.26572E+01 5.49984E-03-1.09124E-03-5.34870E-01-1.09156E-13-4.61417E-13
 -1       199 2.21660E+01 2.21935E-02-2.51784E-06-5.00631E-01-2.17354E-14-4.76207E-13
 -1       200 2.17168E+01 2.86266E-02 6.92937E-04-4.36917E-01 7.77713E-14-5.15562E-13
 -1       201 2.13276E+01 2.91093E-02 1.04668E-03-3.63812E-01 1.03404E-13-4.66260E-13
 -1       202 2.10034E+01 2.65740E-02 1.15762E-03-2.92682E-01-1.27774E-14-4.77927E-13
 -1       203 2.07414E+01 2.28024E-02 1.11976E-03-2.29097E-01-9.48177E-14-3.33302E-13
 -1       204 2.05348E+01 1.87847E-02 1.00392E-03-1.75140E-01 4.68008E-14-3.27629E-13
 -1       205 2.03755E+01 1.50210E-02 8.56677E-04-1.30969E-01 3.63250E-14-5.00518E-13
 -1       206 2.02553E+01 1.17275E-02 7.05638E-04-9.57839E-02-8.66935E-14-4.42907E-13
 -1       207 2.01664E+01 8.96563E-03 5.65504E-04-6.83849E-02-2.24233E-13-5.92785E-13
 -1       208 2.01021E+01 6.71820E-03 4.42910E-04-4.74807E-02 5.84873E-16-6.36198E-13
 -1       209 2.00568E+01 4.93181E-03 3.39791E-04-3.18454E-02 9.68271E-14-4.94191E-13
 -1       210 2.00259E+01 3.54016E-03 2.55534E-04-2.03896E-02 2.13231E-14-4.34740E-13
 -1       211 2.00056E+01 2.47609E-03 1.88281E-04-1.21846E-02 3.14256E-14-4.15717E-13
 -1       212 1.99930E+01 1.67746E-03 1.35681E-04-6.46124E-03-1.21360E-13-6.07213E-13
 -1       213 1.99859E+01 1.08970E-03 9.53177E-05-2.59755E-03-2.63221E-13-5.30002E-13
 -1       214 1.99825E+01 6.66445E-04 6.49221E-05-9.99326E-05 1.18826E-14-3.55121E-13
 -1       215 1.99815E+01 3.69312E-04 4.24800E-05 1.41618E-03 1.31167E-13-6.32296E-13
 -1       216 1.99822E+01 1.67171E-04 2.62649E-05 2.24521E-03 1.23448E-13-4.34180E-13
 -1       217 1.99837E+01 3.52249E-05 1.48368E-05 2.60854E-03 1.49250E-13-3.63359E-13
 -1       218 1.99857E+01-4.59597E-05 7.01903E-06 2.66940E-03 1.13863E-13 1.07136E-13
 -1       219 1.99879E+01-9.13806E-05 1.86691E-06 2.54549E-03-7.85359E-15 1.56845E-13
 -1       220 1.99900E+01-1.12461E-04-1.36755E-06 2.31931E-03-1.95838E-13-5.73363E-14
 -1       221 1.99919E+01-1.17821E-04-3.27040E-06 2.04658E-03-1.72277E-13-2.31060E-13
 -1       222 1.99937E+01-1.13964E-04-4.29615E-06 1.76264E-03 1.52294E-13-4.88565E-13
 -1       223 1.99952E+01-1.05898E-04-4.78541E-06 1.48737E-03 5.71051E-14-1.00473E-13
 -1       224 1.99965E+01-9.76727E-05-4.95440E-06 1.22853E-03 2.00834E-13 1.32988E-13
 -1       225 1.99976E+01-9.28669E-05-4.85297E-06 9.84076E-04 3.61065E-13 6.42509E-14
 -1       226 1.99985E+01-9.48349E-05-4.31995E-06 7.43673E-04-1.00394E-14-1.92557E-13
 -1       227 1.99991E+01-1.05834E-04-3.71826E-06 4.92230E-04-4.22780E-15 2.17797E-13
 -1       228 1.99995E+01-1.19870E-04-2.63764E-06 2.23287E-04-5.60749E-14 3.33016E-13
 -1       229 2.54560E+01 2.01760E-01-4.99925E-02 8.67962E-01 3.12233E-13 1.12693E-12
 -1       230 2.44911E+01 2.96592E-02 1.12138E-02 3.77345E-01 2.21997E-13 9.13467E-13
 -1       231 2.38731E+01-6.41343E-02 1.55022E-02 4.03016E-01 1.55325E-13 7.41066E-13
 -1       232 2.32147E+01-1.05203E-01 1.11195E-02 6.36211E-01 1.54119E-13 6.08644E-13
 -1       233 2.23631E+01-8.92600E-02 7.33249E-03 9.08880E-01 1.31084E-13 5.47060E-13
 -1       234 2.13501E+01-7.50604E-03 2.49702E-03 1.03984E+00 1.28121E-14 4.43106E-13
 -1       235 2.03890E+01 1.17381E-01-3.76412E-03 8.67144E-01 8.45123E-14 3.73822E-13
 -1       236 1.97937E+01 2.19567E-01-8.15223E-03 3.61314E-01 1.00523E-13 2.98108E-13
 -1       237 1.98026E+01 2.30180E-01-7.34279E-03-3.05411E-01 5.50211E-14 1.08977E-13
 -1       238 2.04105E+01 1.40432E-01-1.73370E-03-8.44381E-01 6.50435E-14 9.49562E-14
 -1       239 2.13606E+01 1.14707E-02 3.52074E-03-1.05196E+00 7.25220E-14 6.17536E-14
 -1       240 2.23114E+01-8.78794E-02 5.46699E-03-9.23038E-01 6.87458E-14-1.01405E-13
 -1       241 2.30072E+01-1.27404E-01 3.90550E-03-5.95594E-01 3.78256E-15-1.84508E-13
 -1       242 2.33478E+01-1.17378E-01 1.14774E-03-2.31589E-01-4.27609E-16-2.20499E-13
 -1       243 2.33595E+01-8.38398E-02-9.87668E-04 6.41422E-02 8.22181E-14-1.99652E-13
 -1       244 2.31310E+01-4.75977E-02-1.89410E-03 2.55679E-01 6.28902E-14-2.83332E-13
 -1       245 2.27611E+01-1.87577E-02-1.83550E-03 3.51160E-01 1.04426E-13-2.41642E-13
 -1       246 2.23325E+01 3.02234E-04-1.29132E-03 3.76155E-01 3.39631E-15-3.15935E-13
 -1       247 2.19029E+01 1.09807E-02-6.60479E-04 3.57366E-01-6.27433E-14-2.62627E-13
 -1       248 2.15073E+01 1.57405E-02-1.43423E-04 3.15797E-01-1.16021E-13-2.59778E-13
 -1       249 2.11627E+01 1.68178E-02 2.04217E-04 2.65612E-01-1.06823E-14-2.59179E-13
 -1       250 2.08748E+01 1.58543E-02 3.98668E-04 2.15312E-01 1.77663E-13-3.26601E-13
 -1       251 2.06417E+01 1.39231E-02 4.79760E-04 1.69412E-01-7.65841E-14-3.36774E-13
 -1       252 2.04582E+01 1.16697E-02 4.87300E-04 1.29873E-01-1.45879E-13-1.41154E-13
 -1       253 2.03170E+01 9.45184E-03 4.52542E-04 9.71546E-02-1.61611E-13-4.51332E-15
 -1       254 2.02110E+01 7.44776E-03 3.97150E-04 7.09004E-02-3.80665E-14 6.82195E-14
 -1       255 2.01332E+01 5.72933E-03 3.34898E-04 5.03665E-02 1.46520E-13 1.45787E-13
 -1       256 2.00776E+01 4.30879E-03 2.73865E-04 3.46734E-02-6.59436E-14 5.47139E-14
 -1       257 2.00389E+01 3.16722E-03 2.18336E-04 2.29449E-02-6.50477E-14-7.93677E-14
 -1       258 2.00131E+01 2.27142E-03 1.70195E-04 1.43794E-02-1.15141E-13-1.94735E-13
 -1       259 1.99966E+01 1.58351E-03 1.29891E-04 8.28061E-03-7.00682E-14-7.91153E-14
 -1       260 1.99869E+01 1.06626E-03 9.70636E-05 4.06511E-03-1.63657E-14-1.60539E-13
 -1       261 1.99819E+01 6.85692E-04 7.09432E-05 1.25756E-03 1.33480E-13-2.03619E-13
 -1       262 1.99800E+01 4.12285E-04 5.05930E-05-5.20452E-04-5.00059E-14-8.39327E-14
 -1       263 1.99802E+01 2.21218E-04 3.50545E-05-1.56399E-03 2.17281E-13-7.63982E-14
 -1       264 1.99815E+01 9.21708E-05 2.34271E-05-2.09857E-03-1.28276E-14-4.85748E-15
 -1       265 1.99836E+01 8.86904E-06 1.49082E-05-2.29308E-03-3.11175E-13 1.23516E-13
 -1       266 1.99859E+01-4.14757E-05 8.80707E-06-2.27133E-03-1.35602E-13 1.80849E-13
 -1       267 1.99882E+01-6.87445E-05 4.54557E-06-2.12181E-03 4.75302E-14 3.40784E-13
 -1       268 1.99904E+01-8.04676E-05 1.64895E-06-1.90582E-03-4.45890E-14 5.15204E-13
 -1       269 1.99924E+01-8.23376E-05-2.64637E-07-1.66391E-03 1.53211E-13 1.68759E-13
 -1       270 1.99942E+01-7.86768E-05-1.49136E-06-1.42094E-03 1.57434E-13 4.02042E-13
 -1       271 1.99957E+01-7.28754E-05-2.23352E-06-1.18966E-03 3.29364E-14 1.98021E-13
 -1       272 1.99970E+01-6.78124E-05-2.55318E-06-9.73231E-04 1.73538E-13-6.84255E-14
 -1       273 1.99980E+01-6.60150E-05-2.24353E-06-7.66653E-04 3.54015E-13-2.58110E-13
 -1       274 1.99988E+01-6.98773E-05-9.72905E-07-5.58694E-04 5.68368E-14-3.02998E-13
 -1       275 1.99993E+01-8.25871E-05-9.22641E-07-3.34100E-04 1.31025E-13-3.80419E-13
 -1       276 1.99997E+01-7.81865E-05-4.09650E-06-9.99563E-05 2.96575E-14-3.29296E-13
 -1       277 1.99997E+01-2.71361E-04-2.54635E-06-2.34863E-04 2.05641E-14 7.31264E-13
 -1       278 1.99997E+01-6.67035E-04-8.83374E-07-4.64610E-04 2.19738E-13 5.99580E-13
 -1       279 1.99998E+01-1.19232E-03-3.57449E-07-6.09822E-04 2.13319E-13 4.58225E-13
 -1       280 1.99998E+01-1.77643E-03 3.42613E-07-6.44921E-04 2.93563E-13 6.21876E-14
 -1       281 1.99998E+01-2.32866E-03 1.52886E-06-5.80876E-04 3.38345E-13-2.44476E-13
 -1       282 1.99999E+01-2.79232E-03 2.58920E-06-4.34511E-04 1.90846E-13-6.97700E-14
 -1       283 1.99999E+01-3.09544E-03 3.33299E-06-2.30855E-04 1.43318E-13-1.26884E-13
 -1       284 1.99999E+01-3.19969E-03 3.58971E-06 1.96948E-06 1.95546E-13-2.24328E-13
 -1       285 1.99999E+01-3.09197E-03 3.33097E-06 2.34542E-04 6.85238E-14-8.71864E-14
 -1       286 1.99999E+01-2.78574E-03 2.58898E-06 4.37544E-04 1.45732E-13-7.66246E-14
 -1       287 1.99998E+01-2.32919E-03 1.46667E-06 5.81103E-04 4.79987E-14-2.96778E-13
 -1       288 1.99998E+01-1.76659E-03 3.49133E-07 6.45292E-04 6.95733E-14-7.95006E-14
 -1       289 1.99998E+01-1.18255E-03-4.42366E-07 6.07971E-04 1.23716E-13-1.21418E-15
 -1       290 1.99997E+01-6.64378E-04-2.43044E-06 4.59286E-04 2.02378E-14 3.51386E-14
 -1       291 1.99996E+01-3.69548E-04-2.81773E-06 3.84804E-04-1.54465E-13-2.85536E-13
 -1       292-7.90443E-01-1.02553E+01-9.56972E-01 1.09597E+00 2.75280E-13 6.84758E-13
 -1       293 2.51168E+00-8.03423E+00-7.60961E-01 3.54036E+00 6.59583E-13 9.85587E-13
 -1       294 8.53100E+00-4.93814E+00-5.31723E-01 5.47883E+00 9.90624E-13 1.08698E-12
 -1       295 1.89959E+01-1.84015E+00-1.04406E-01 7.07592E+00 9.54764E-13 5.25469E-13
 -1       296 2.88330E+01 2.24431E+00 2.78428E-01 7.34651E+00 9.85642E-13 5.92915E-13
 -1       297 3.83765E+01 5.03337E+00 7.34622E-01 6.54441E+00 8.98586E-13 3.67095E-13
 -1       298 4.50057E+01 6.32550E+00 1.00202E+00 3.58032E+00 7.65887E-13-8.29892E-14
 -1       299 4.59741E+01 6.80473E+00 9.52098E-01-3.08383E-01 9.00890E-13-6.34770E-13
 -1       300 4.15784E+01 6.04357E+00 6.60918E-01-3.10933E+00 1.11122E-12-1.05210E-12
 -1       301 3.50056E+01 3.79681E+00 4.34322E-01-5.91505E+00 1.22716E-12-1.41659E-12
 -1       302 2.57732E+01 1.78517E-01 8.00546E-02-6.60538E+00 1.09510E-12-1.34082E-12
 -1       303 1.41932E+01-1.61057E+00-3.00238E-01-6.70254E+00 1.38187E-12-1.54382E-12
 -1       304 6.44934E+00-4.91155E+00-6.27356E-01-4.77242E+00 1.10165E-12-1.29471E-12
 -1       305 1.13742E+00-7.76965E+00-8.61178E-01-2.57753E+00 6.14897E-13-1.02142E-12
 -1       306-1.07184E+00-9.14560E+00-9.44270E-01-4.29162E-01-5.09315E-14-9.09620E-13
 -1       307 1.05955E-01-8.11885E+00-8.32032E-01 1.83703E+00-6.68382E-13-9.62244E-13
 -1       308 4.23870E+00-6.14366E+00-7.38445E-01 3.86711E+00-1.23082E-12-1.19910E-12
 -1       309 1.15063E+01-2.87827E+00-4.34525E-01 6.03507E+00-1.51784E-12-1.55920E-12
 -1       310 2.20388E+01-2.88317E-01-3.35207E-02 7.07423E+00-1.44335E-12-1.54379E-12
 -1       311 3.19838E+01 3.25419E+00 4.01072E-01 7.24611E+00-1.42081E-12-1.74866E-12
 -1       312 3.99063E+01 5.26315E+00 6.10974E-01 3.94812E+00-1.17811E-12-1.20798E-12
 -1       313 4.55756E+01 6.67853E+00 9.40318E-01 1.55038E+00-1.01488E-12-9.60565E-13
 -1       314 4.65033E+01 6.56807E+00 1.03653E+00-1.85420E+00-6.83370E-13-5.18002E-13
 -1       315 4.11699E+01 5.73270E+00 7.27247E-01-4.24434E+00-6.45720E-13-1.00420E-13
 -1       316 3.44807E+01 3.91205E+00 5.31702E-01-7.14668E+00-7.91978E-13 3.65874E-13
 -1       317 2.52929E+01 1.43429E+00 1.63595E-01-7.69230E+00-9.71140E-13 5.99049E-13
 -1       318 1.60618E+01-1.78561E+00-2.31327E-01-6.88790E+00-1.04200E-12 7.57089E-13
 -1       319 8.14410E+00-5.23497E+00-5.63069E-01-5.23300E+00-8.84154E-13 8.99482E-13
 -1       320 2.51382E+00-8.07395E+00-7.57762E-01-3.45250E+00-5.28577E-13 8.67070E-13
 -1       321-6.35841E-01-9.23586E+00-8.01416E-01-1.27166E+00-4.23411E-14 8.90676E-13
 -1       322 2.22152E+01 2.61697E+00-2.56970E-02-1.05450E+00-2.93690E-13-3.62028E-13
 -1       323 2.42134E+01 1.94032E+00-2.50775E-02-1.58740E+00-3.71050E-13-9.52207E-14
 -1       324 1.82637E+01 3.43409E+00-1.38987E-02 2.15001E-01-8.75810E-14-6.41502E-13
 -1       325 1.63074E+01 3.92988E+00-7.44292E-03 5.10155E-01-1.68281E-14-6.95894E-13
 -1       326 1.47458E+01 4.38950E+00-2.81689E-03 4.11576E-01 4.33994E-14-7.18919E-13
 -1       327 1.39802E+01 4.62188E+00-3.17492E-04-6.25191E-03 7.61870E-14-7.33826E-13
 -1       328 1.42339E+01 4.50896E+00-8.16538E-04-4.86315E-01 9.60692E-14-6.84963E-13
 -1       329 1.54023E+01 4.10596E+00-4.69861E-03-7.35062E-01 1.32157E-13-6.27726E-13
 -1       330 1.70862E+01 3.60718E+00-1.02110E-02-5.97237E-01 1.83204E-13-5.25734E-13
 -1       331 1.89457E+01 3.16648E+00-1.59473E-02-1.00778E-01 2.68392E-13-3.84175E-13
 -1       332 2.07147E+01 2.83378E+00-2.24214E-02 6.02611E-01 3.55967E-13-2.52505E-13
 -1       333 2.23838E+01 2.49113E+00-2.83539E-02 1.31904E+00 4.26874E-13-3.38635E-14
 -1       334 2.40233E+01 1.85445E+00-3.88440E-02 1.77438E+00 4.45361E-13 3.28551E-13
 -1       335 2.49910E+01 1.00123E+00-2.99185E-02 1.49628E+00 4.08737E-13 6.57707E-13
 -1       336 2.44169E+01 1.92312E-01 3.89547E-03 7.93136E-01 3.20228E-13 5.42594E-13
 -1       337 2.45442E+01 1.72216E-01 6.79346E-03-7.00320E-01-2.57739E-13 2.25379E-14
 -1       338 2.43634E+01-3.54597E-01 6.35265E-04-6.85086E-01-2.00532E-13 4.55753E-14
 -1       339 2.42565E+01-6.31369E-01-1.76967E-03-1.11763E+00-1.16104E-13 8.00414E-14
 -1       340 2.40394E+01-5.67510E-01-1.67087E-03-1.72430E+00-7.54464E-14 7.22823E-14
 -1       341 2.35852E+01-5.51029E-02-1.43418E-03-2.09826E+00-1.24248E-13 7.14708E-14
 -1       342 2.29566E+01 7.72849E-01-7.85468E-04-1.78908E+00-1.98471E-13-1.24217E-14
 -1       343 2.24751E+01 1.41812E+00 5.13534E-04-6.58811E-01-2.16429E-13-9.53274E-14
 -1       344 2.24596E+01 1.37847E+00-6.04421E-03 8.19148E-01-2.34870E-13-2.79335E-13
 -1       345 2.29223E+01 6.49029E-01-2.42686E-03 1.83692E+00-2.07810E-13-3.54136E-13
 -1       346 2.34514E+01-1.95469E-01-4.67574E-03 2.00667E+00-2.18752E-13-4.45807E-13
 -1       347 2.37325E+01-7.12020E-01-6.37387E-03 1.46592E+00-1.43162E-13-5.30710E-13
 -1       348 2.36860E+01-8.07397E-01-6.59036E-03 6.61245E-01-4.36487E-14-5.24912E-13
 -1       349 2.34072E+01-6.41980E-01-6.38815E-03-6.23410E-02-4.40177E-14-4.42455E-13
 -1       350 2.30144E+01-3.97754E-01-4.84833E-03-5.61473E-01-1.73256E-15-4.79944E-13
 -1       351 2.25874E+01-1.81950E-01-3.00584E-03-8.29258E-01-1.57811E-14-5.14571E-13
 -1       352 2.21705E+01-3.10636E-02-1.27026E-03-9.18687E-01 5.37621E-15-4.63922E-13
 -1       353 2.17851E+01 5.75972E-02-3.86246E-05-8.93018E-01 9.22548E-16-2.33666E-13
 -1       354 2.14413E+01 1.00248E-01 6.87313E-04-8.04243E-01-1.91103E-14-2.39311E-13
 -1       355 2.11430E+01 1.13516E-01 1.02822E-03-6.88500E-01 8.76467E-14-2.05852E-13
 -1       356 2.08904E+01 1.10117E-01 1.11780E-03-5.68159E-01 3.85271E-14-2.42136E-13
 -1       357 2.06812E+01 9.84968E-02 1.06336E-03-4.55597E-01 1.19560E-13-2.07010E-13
 -1       358 2.05114E+01 8.37664E-02 9.38886E-04-3.56658E-01-9.57309E-14-1.48427E-13
 -1       359 2.03762E+01 6.87763E-02 7.90014E-04-2.73240E-01-6.01252E-14-2.65323E-13
 -1       360 2.02706E+01 5.49685E-02 6.42280E-04-2.05033E-01 5.44050E-14-4.10839E-13
 -1       361 2.01895E+01 4.29578E-02 5.08365E-04-1.50616E-01-1.34438E-13-3.77019E-13
 -1       362 2.01285E+01 3.28986E-02 3.93344E-04-1.08113E-01-5.80011E-14-1.63427E-13
 -1       363 2.00835E+01 2.47057E-02 2.98082E-04-7.55593E-02 6.91278E-14-2.52096E-13
 -1       364 2.00510E+01 1.81813E-02 2.21306E-04-5.11032E-02 1.22813E-14-2.68861E-13
 -1       365 2.00281E+01 1.30872E-02 1.60794E-04-3.30961E-02-2.39680E-14-3.23192E-13
 -1       366 2.00125E+01 9.18290E-03 1.14037E-04-2.01267E-02-1.37040E-13-4.67425E-13
 -1       367 2.00023E+01 6.24553E-03 7.85887E-05-1.10205E-02-6.36990E-14-4.65327E-13
 -1       368 1.99960E+01 4.07838E-03 5.22282E-05-4.82265E-03 4.63313E-14-2.30075E-13
 -1       369 1.99924E+01 2.51369E-03 3.30295E-05-7.71722E-04-5.89148E-14-5.00892E-14
 -1       370 1.99908E+01 1.41202E-03 1.93731E-05 1.72837E-03 1.55887E-13-1.00147E-13
 -1       371 1.99904E+01 6.59878E-04 9.92891E-06 3.13602E-03 2.63428E-13-7.85187E-14
 -1       372 1.99908E+01 1.66526E-04 3.62582E-06 3.79741E-03 4.00881E-13 1.12276E-13
 -1       373 1.99916E+01-1.39368E-04-3.84379E-07 3.96884E-03 7.14900E-14-3.42329E-14
 -1       374 1.99927E+01-3.13077E-04-2.76400E-06 3.83585E-03-1.74330E-13-3.18974E-16
 -1       375 1.99938E+01-3.96911E-04-4.02446E-06 3.52898E-03-3.42703E-13-4.60691E-14
 -1       376 1.99949E+01-4.23014E-04-4.55833E-06 3.13657E-03-2.13602E-13-1.80222E-13
 -1       377 1.99960E+01-4.15861E-04-4.66789E-06 2.71474E-03 3.16068E-13-2.69970E-13
 -1       378 1.99969E+01-3.94414E-04-4.57743E-06 2.29501E-03 2.13316E-13-2.04336E-13
 -1       379 1.99977E+01-3.73758E-04-4.42601E-06 1.89008E-03 1.56639E-13-3.44148E-13
 -1       380 1.99984E+01-3.65863E-04-4.27842E-06 1.49880E-03-5.55058E-14-1.98531E-13
 -1       381 1.99989E+01-3.79266E-04-4.90046E-06 1.11121E-03 5.93919E-14-1.00024E-13
 -1       382 1.99993E+01-3.79775E-04-3.82568E-06 7.44958E-04-9.56409E-14-2.48957E-13
 -1       383 2.39529E+01-1.54874E-01 6.19434E-03 7.08189E-01 2.43690E-13 4.45052E-13
 -1       384 2.35159E+01-3.04479E-01 1.79875E-03 9.75129E-01 1.89793E-13 3.70858E-13
 -1       385 2.29900E+01-2.74124E-01 5.94726E-04 1.35264E+00 1.38726E-13 3.59605E-13
 -1       386 2.23235E+01-3.46242E-02 1.73340E-03 1.56800E+00 7.12060E-14 3.19102E-13
 -1       387 2.16147E+01 3.51480E-01 2.19383E-03 1.35666E+00 1.16046E-13 2.39616E-13
 -1       388 2.11035E+01 6.84104E-01 3.03333E-03 6.35178E-01 1.93019E-13 1.66922E-13
 -1       389 2.10222E+01 7.39534E-01 3.80566E-03-3.67412E-01 1.76067E-13 3.51750E-14
 -1       390 2.14053E+01 4.68130E-01 4.27089E-03-1.20690E+00 7.00169E-14-4.14256E-14
 -1       391 2.20329E+01 5.68713E-02 2.39237E-03-1.54775E+00 1.55251E-13-1.25674E-13
 -1       392 2.26220E+01-2.70968E-01-5.59576E-04-1.37032E+00 1.37045E-13-2.04057E-13
 -1       393 2.29872E+01-4.09397E-01-3.75877E-03-8.81150E-01 7.59705E-14-2.27523E-13
 -1       394 2.30865E+01-3.85210E-01-5.25989E-03-3.28911E-01 5.62514E-14-2.61542E-13
 -1       395 2.29673E+01-2.80305E-01-5.07844E-03 1.24888E-01 2.85679E-14-2.71994E-13
 -1       396 2.27037E+01-1.62696E-01-3.83670E-03 4.23488E-01 1.24847E-13-2.40600E-13
 -1       397 2.23634E+01-6.68112E-02-2.30528E-03 5.76246E-01 6.99844E-14-2.65883E-13
 -1       398 2.19979E+01-1.99601E-03-9.29400E-04 6.19667E-01 1.17399E-13-1.86015E-13
 -1       399 2.16419E+01 3.52967E-02 5.15270E-05 5.93323E-01-3.04610E-14-2.03901E-13
 -1       400 2.13162E+01 5.26548E-02 6.36491E-04 5.29209E-01-2.62870E-14-3.28173E-13
 -1       401 2.10312E+01 5.73014E-02 9.14935E-04 4.49556E-01 1.04022E-14-4.25804E-13
 -1       402 2.07904E+01 5.47020E-02 9.89014E-04 3.68189E-01 1.47370E-13-3.52570E-13
 -1       403 2.05927E+01 4.85215E-02 9.42766E-04 2.92784E-01-7.21245E-14-2.52540E-13
 -1       404 2.04343E+01 4.10186E-02 8.35792E-04 2.26948E-01-2.67974E-13-1.31571E-13
 -1       405 2.03102E+01 3.34813E-02 7.06055E-04 1.71794E-01-1.66615E-13-8.52220E-14
 -1       406 2.02151E+01 2.65758E-02 5.75671E-04 1.27019E-01-1.59458E-13-7.78280E-14
 -1       407 2.01437E+01 2.05914E-02 4.56231E-04 9.16023E-02 1.21446E-13 1.79743E-13
 -1       408 2.00912E+01 1.56003E-02 3.52801E-04 6.42246E-02 6.45414E-14 1.97768E-13
 -1       409 2.00537E+01 1.15579E-02 2.66652E-04 4.35185E-02 7.03758E-14 7.99768E-14
 -1       410 2.00275E+01 8.36254E-03 1.96996E-04 2.81997E-02-1.18053E-13 1.02313E-14
 -1       411 2.00099E+01 5.89130E-03 1.42050E-04 1.71306E-02-6.19590E-14-1.91710E-13
 -1       412 1.99987E+01 4.01960E-03 9.96562E-05 9.34337E-03 1.99738E-14-3.65272E-13
 -1       413 1.99920E+01 2.63182E-03 6.76341E-05 4.03876E-03-2.90490E-14-1.85716E-13
 -1       414 1.99884E+01 1.62613E-03 4.39647E-05 5.72785E-04-8.50539E-14-3.27825E-14
 -1       415 1.99870E+01 9.16068E-04 2.68741E-05-1.56237E-03 1.31425E-13 1.96682E-13
 -1       416 1.99870E+01 4.30235E-04 1.48591E-05-2.75918E-03-7.43096E-14 4.22394E-13
 -1       417 1.99879E+01 1.11018E-04 6.68087E-06-3.31503E-03-2.50581E-13 3.25438E-13
 -1       418 1.99892E+01-8.71772E-05 1.34051E-06-3.45056E-03-1.31423E-13 1.44941E-13
 -1       419 1.99907E+01-1.99813E-04-1.95296E-06-3.32571E-03-1.85164E-13 1.18697E-13
 -1       420 1.99922E+01-2.54084E-04-3.81718E-06-3.05318E-03 5.21556E-14 3.20229E-13
 -1       421 1.99937E+01-2.70653E-04-4.73046E-06-2.70929E-03 1.09900E-13 2.75379E-13
 -1       422 1.99950E+01-2.65217E-04-5.05639E-06-2.34264E-03 7.31018E-14 3.74730E-13
 -1       423 1.99962E+01-2.49923E-04-5.06820E-06-1.98065E-03 2.01737E-13 2.66257E-13
 -1       424 1.99972E+01-2.34615E-04-4.94435E-06-1.63429E-03 3.05346E-13 8.65815E-14
 -1       425 1.99981E+01-2.27495E-04-4.71017E-06-1.30155E-03 3.28501E-13 9.52408E-14
 -1       426 1.99987E+01-2.33548E-04-4.11368E-06-9.71863E-04 9.26785E-14 2.53150E-13
 -1       427 1.99992E+01-2.52209E-04-3.36033E-06-6.33893E-04 1.55007E-14 4.90124E-13
 -1       428 1.99995E+01-2.77046E-04-2.47130E-06-4.35562E-04 7.40159E-14 6.34423E-13
 -1       429 1.99998E+01-1.42404E-03-6.91595E-07-1.10780E-03-1.54667E-13 2.17309E-13
 -1       430 1.99996E+01-9.41595E-04-2.63184E-06-9.86375E-04 1.42823E-13 2.02525E-13
 -1       431 1.99995E+01-5.86079E-04-3.55242E-06-7.37156E-04-3.01805E-14 7.44179E-13
 -1       432 1.99999E+01-1.88620E-03 8.87249E-07-1.06568E-03-1.67078E-13-3.86448E-13
 -1       433 2.00000E+01-2.29401E-03 2.12694E-06-8.76206E-04-8.88607E-14 2.25298E-15
 -1       434 2.00001E+01-2.59334E-03 3.05437E-06-5.72235E-04-5.74040E-14-2.22353E-13
 -1       435 2.00002E+01-2.75109E-03 3.54150E-06-1.96614E-04-3.36011E-13-2.09799E-13
 -1       436 2.00002E+01-2.74979E-03 3.54319E-06 2.03100E-04-2.27945E-13-1.29903E-13
 -1       437 2.00001E+01-2.58950E-03 3.04884E-06 5.77969E-04-2.79830E-13-1.42595E-13
 -1       438 2.00000E+01-2.29432E-03 2.11217E-06 8.76242E-04-2.49291E-13-2.22796E-13
 -1       439 1.99999E+01-1.88663E-03 9.03470E-07 1.06608E-03 1.19159E-13 2.28744E-13
 -1       440 1.99998E+01-1.41602E-03-5.78208E-07 1.10785E-03 1.76286E-13-2.14650E-13
 -1       441 1.99996E+01-9.32076E-04-2.58815E-06 9.87879E-04 4.94695E-14-1.45859E-13
 -1       442 1.07374E+01-4.86192E+00 4.18301E-02 7.01638E+00-2.58751E-13 5.73243E-13
 -1       443 1.64627E+00-3.51346E+00-8.06087E-04 3.43534E-01 3.07419E-14 8.25368E-13
 -1       444 3.41307E+00-4.13919E+00-2.91282E-02 3.99789E+00-5.53169E-14 7.74436E-13
 -1       445 1.80755E+01-5.40077E+00-1.49412E-02 6.88015E+00-9.89625E-14 9.23359E-14
 -1       446 2.68939E+01-3.28888E+00 1.80800E-03 4.18076E+00 3.51941E-13-1.21222E-13
 -1       447 2.02873E+01 3.00900E+00-1.81946E-02-3.75935E-01-1.83477E-13-5.19002E-13
 -1       448 3.40411E+01 5.06377E+00-4.82646E-03-2.49826E-01 8.29614E-13-3.54869E-13
 -1       449 3.61410E+01 7.77614E+00 7.94196E-02 6.23047E-02 9.24899E-13-3.07327E-13
 -1       450 3.44435E+01 7.42112E+00-1.48504E-02 6.14787E-01 1.08212E-12-2.64413E-13
 -1       451 3.41837E+01 3.82032E+00 4.40389E-02-3.86966E-01 8.82919E-13-4.24258E-13
 -1       452 3.03739E+01-3.68244E-01-1.77262E-02-2.15318E+00 6.14557E-13-4.25160E-13
 -1       453 2.25886E+01-3.57289E+00-2.06190E-02-5.67976E+00 3.59879E-13-7.50539E-13
 -1       454 1.48396E+01-4.26070E+00-6.04989E-02-6.86031E+00 2.90934E-13-9.46979E-13
 -1       455 7.62503E+00-3.74204E+00-3.59851E-02-6.09242E+00 9.93650E-14-1.08616E-12
 -1       456 2.83848E+00-2.21034E+00 2.64118E-02-3.10314E+00-2.60902E-15-1.15433E-12
 -1       457 1.52610E+00-2.62217E+00-3.46788E-02 1.21394E+00-4.85306E-14-1.13033E-12
 -1       458 5.24331E+00-3.77093E+00-8.88975E-02 5.06710E+00-2.21129E-13-1.03213E-12
 -1       459 1.24384E+01-4.37388E+00-6.00052E-02 6.75304E+00-3.20771E-13-1.00730E-12
 -1       460 2.07378E+01-4.27569E+00-3.73180E-02 6.06333E+00-4.12975E-13-7.67747E-13
 -1       461 2.90652E+01-1.96670E+00 8.43271E-03 2.86046E+00-5.99874E-13-5.26620E-13
 -1       462 3.26540E+01 1.58404E+00-4.09737E-02 3.21644E-01-8.46451E-13-3.66873E-13
 -1       463 3.48106E+01 6.40357E+00 4.84256E-03-6.96107E-01-1.07397E-12-4.74953E-13
 -1       464 3.55203E+01 8.00027E+00 3.73575E-02-1.72701E-01-9.65256E-13-5.55425E-13
 -1       465 3.54081E+01 6.91586E+00 6.71540E-02 3.05338E-01-8.07368E-13-6.18103E-13
 -1       466 3.33551E+01 2.55289E+00-1.26859E-02-3.81997E-01-5.34288E-13-5.24150E-13
 -1       467 3.08670E+01-6.58881E-01 2.20240E-02-2.56947E+00-4.49626E-13-4.38122E-13
 -1       468 2.44540E+01-3.88052E+00-1.83587E-02-5.33809E+00-2.36311E-13-2.15411E-13
 -1       469 1.73902E+01-5.34923E+00-2.46523E-02-6.88070E+00-5.84255E-14 7.39409E-14
 -1       470 1.05186E+01-5.18685E+00-2.67936E-02-6.84012E+00-6.63636E-14 5.57700E-13
 -1       471 4.17849E+00-3.98084E+00 1.03988E-02-4.35779E+00 1.41165E-13 9.75636E-13
 -1       472 3.21751E+01 1.02830E+00 3.42321E-02 1.95040E+00 6.38914E-13-2.09582E-13
 -1       473 2.73200E+01-3.19272E+00-1.97534E-02-2.65786E+00 1.54224E-13-2.41779E-13
 -1       474 2.38015E+01 7.04092E-02 5.57422E-04 9.20718E-01 2.92675E-13 1.80556E-13
 -1       475 1.53056E+01 3.43112E+00 1.04220E-03 1.05896E+00 6.76803E-14-6.71627E-13
 -1       476 1.75555E+01 2.61396E+00-1.66207E-03 9.78468E-01-1.41854E-15-6.12274E-13
 -1       477 1.33708E+01 4.19374E+00 4.94904E-03-3.89093E-01 6.94924E-14-7.18926E-13
 -1       478 1.43977E+01 3.73376E+00 3.77186E-03-1.13122E+00 7.31307E-14-6.47407E-13
 -1       479 1.63186E+01 2.95347E+00-1.38063E-03-1.30508E+00 9.84876E-14-5.50882E-13
 -1       480 1.85218E+01 2.19507E+00-4.60625E-03-8.81660E-01 1.80837E-13-3.93972E-13
 -1       481 2.05204E+01 1.64662E+00-6.63511E-03-1.16763E-01 2.40241E-13-2.55404E-13
 -1       482 2.21919E+01 1.25131E+00-6.51002E-03 6.61923E-01 3.26206E-13-1.06659E-13
 -1       483 2.38096E+01-4.91129E-01 9.90839E-04 1.00634E+00 2.36119E-13 1.99650E-13
 -1       484 2.36951E+01-9.28325E-02-2.07937E-03-5.24226E-01-1.73535E-13-1.48429E-13
 -1       485 3.06464E+01 4.73740E+00-1.55066E-01 1.83615E+00 8.51763E-13 6.52950E-14
 -1       486 2.41562E+01-9.06891E-01-7.00087E-04-6.92040E-01-9.24887E-14-6.30145E-14
 -1       487 2.46633E+01-1.26624E+00-2.52269E-03-1.32695E+00-7.03656E-14 2.74607E-14
 -1       488 2.49763E+01-8.43606E-01-8.55595E-03-2.13724E+00-1.09129E-13 5.86779E-14
 -1       489 2.48066E+01 5.42127E-01-2.64624E-02-2.50518E+00-2.46719E-13 6.60230E-15
 -1       490 2.43141E+01 2.26007E+00-2.76643E-02-1.72155E+00-3.53710E-13-1.42359E-13
 -1       491 2.39465E+01 2.97372E+00-3.51311E-02 1.20019E-01-4.06807E-13-3.85221E-13
 -1       492 2.39751E+01 2.07920E+00-7.90472E-02 1.89768E+00-3.22277E-13-5.34259E-13
 -1       493 2.47401E+01 2.36217E-01-6.40068E-03 2.45758E+00-2.21847E-13-6.41552E-13
 -1       494 2.46829E+01-1.14562E+00-9.38069E-03 1.81225E+00-1.19197E-13-4.51653E-13
 -1       495 2.41440E+01-1.62020E+00-5.74453E-03 7.57123E-01-1.28329E-13-3.74778E-13
 -1       496 2.33952E+01-1.41374E+00-3.70133E-03-1.75897E-01-5.15311E-14-4.83424E-13
 -1       497 2.26690E+01-9.51340E-01-2.50762E-03-8.05407E-01 1.86893E-14-3.35862E-13
 -1       498 2.20708E+01-4.94375E-01-1.96927E-03-1.13584E+00 3.83154E-14-1.50454E-13
 -1       499 2.16147E+01-1.51816E-01-9.55439E-04-1.24464E+00-2.92030E-14-1.85237E-13
 -1       500 2.12715E+01 6.43036E-02-2.10848E-04-1.21304E+00 9.04950E-14-1.74623E-13
 -1       501 2.10086E+01 1.79830E-01 2.22959E-04-1.10303E+00-4.64404E-14-1.51415E-13
 -1       502 2.08016E+01 2.26989E-01 4.33321E-04-9.57136E-01 9.27912E-14-1.16886E-13
 -1       503 2.06347E+01 2.32637E-01 5.03405E-04-8.02321E-01 4.93039E-14-1.40957E-13
 -1       504 2.04983E+01 2.15780E-01 4.92993E-04-6.54356E-01 6.49561E-14-9.28061E-14
 -1       505 2.03867E+01 1.88614E-01 4.42335E-04-5.21463E-01-2.52292E-14-2.20161E-13
 -1       506 2.02958E+01 1.58397E-01 3.76007E-04-4.07034E-01-1.49665E-13-2.07243E-13
 -1       507 2.02226E+01 1.29124E-01 3.07895E-04-3.11546E-01-7.45355E-14-1.98409E-13
 -1       508 2.01644E+01 1.02767E-01 2.45061E-04-2.33844E-01-7.80482E-14-2.17885E-13
 -1       509 2.01189E+01 8.01014E-02 1.90517E-04-1.71960E-01 9.26693E-15-1.71234E-13
 -1       510 2.00838E+01 6.12326E-02 1.45015E-04-1.23628E-01 2.00943E-14-7.43974E-14
 -1       511 2.00573E+01 4.59153E-02 1.08142E-04-8.65788E-02-6.52154E-15-7.23910E-14
 -1       512 2.00376E+01 3.37416E-02 7.89478E-05-5.87076E-02-7.92288E-14-1.87962E-13
 -1       513 2.00233E+01 2.42494E-02 5.62967E-05-3.81514E-02-1.20750E-13-1.36955E-13
 -1       514 2.00132E+01 1.69826E-02 3.90542E-05-2.33174E-02-1.64878E-13-1.69388E-13
 -1       515 2.00062E+01 1.15216E-02 2.61779E-05-1.28787E-02-1.50782E-14-1.81615E-13
 -1       516 2.00016E+01 7.49782E-03 1.67563E-05-5.75453E-03 9.59553E-14-1.44046E-13
 -1       517 1.99987E+01 4.59729E-03 1.00182E-05-1.08146E-03 1.01201E-13-2.19455E-14
 -1       518 1.99971E+01 2.55919E-03 5.32792E-06 1.81770E-03 2.46113E-13 3.26422E-13
 -1       519 1.99963E+01 1.17131E-03 2.17139E-06 3.46464E-03 3.29168E-13 6.84969E-14
 -1       520 1.99960E+01 2.64021E-04 1.40599E-07 4.25390E-03-5.59662E-14-2.11669E-13
 -1       521 1.99961E+01-2.96053E-04-1.08353E-06 4.47792E-03-8.47438E-14-2.68130E-13
 -1       522 1.99964E+01-6.12350E-04-1.74772E-06 4.34850E-03-3.20059E-13-2.52266E-13
 -1       523 1.99969E+01-7.64176E-04-2.04056E-06 4.01463E-03-2.58331E-13-9.48863E-14
 -1       524 1.99973E+01-8.11949E-04-2.10589E-06 3.57696E-03-1.32725E-13-2.62130E-13
 -1       525 1.99978E+01-8.01799E-04-2.06321E-06 3.09931E-03 2.18064E-13-4.26961E-13
 -1       526 1.99983E+01-7.69361E-04-2.00257E-06 2.61762E-03 1.14142E-13-1.73353E-13
 -1       527 1.99987E+01-7.41358E-04-1.89636E-06 2.14704E-03 2.19598E-13-1.28619E-13
 -1       528 1.99990E+01-7.37596E-04-2.04874E-06 1.68848E-03 3.35746E-15-8.41925E-14
 -1       529 2.36724E+01-4.26024E-01-7.43610E-04 1.91289E+00 1.54831E-13 2.32873E-13
 -1       530 2.32824E+01 3.38715E-01-9.91144E-04 2.04634E+00 1.64679E-13 1.47610E-13
 -1       531 2.27601E+01 1.28503E+00-6.76117E-03 1.46593E+00 2.70899E-13 3.60993E-14
 -1       532 2.24452E+01 1.81253E+00-5.51208E-03 2.11886E-01 2.45940E-13-1.33877E-14
 -1       533 2.25684E+01 1.49255E+00-3.64697E-03-1.14054E+00 2.21457E-13-7.37587E-14
 -1       534 2.29815E+01 5.53091E-01-5.69464E-03-1.89881E+00 2.19738E-13-2.16237E-13
 -1       535 2.33228E+01-3.75345E-01-3.06133E-03-1.85832E+00 1.56503E-13-2.92369E-13
 -1       536 2.33688E+01-8.95057E-01-3.75234E-03-1.26153E+00 1.12977E-13-2.28712E-13
 -1       537 2.31391E+01-9.69673E-01-3.77970E-03-5.05461E-01 9.38000E-14-2.76747E-13
 -1       538 2.27588E+01-7.73585E-01-3.54266E-03 1.41512E-01 4.31271E-14-2.79365E-13
 -1       539 2.23436E+01-4.96296E-01-2.82010E-03 5.82536E-01 5.75219E-14-2.55772E-13
 -1       540 2.19511E+01-2.44729E-01-1.88278E-03 8.22329E-01 8.38621E-14-2.42670E-13
 -1       541 2.16038E+01-6.05601E-02-8.60593E-04 9.06175E-01 7.50432E-14-1.20741E-13
 -1       542 2.13045E+01 5.47623E-02-1.03818E-04 8.86563E-01-5.54504E-14-9.63546E-14
 -1       543 2.10493E+01 1.15909E-01 3.55791E-04 8.07163E-01-2.18759E-14-1.61038E-14
 -1       544 2.08337E+01 1.40006E-01 5.84300E-04 6.99520E-01 7.36790E-14 1.15806E-15
 -1       545 2.06532E+01 1.41338E-01 6.58592E-04 5.84314E-01-1.35847E-14-1.58718E-13
 -1       546 2.05040E+01 1.30176E-01 6.40398E-04 4.73887E-01-4.84137E-15-3.39515E-14
 -1       547 2.03824E+01 1.13255E-01 5.74235E-04 3.74767E-01-1.60970E-13-5.05736E-15
 -1       548 2.02848E+01 9.46787E-02 4.88578E-04 2.89685E-01-1.97582E-13-3.39297E-14
 -1       549 2.02078E+01 7.67610E-02 4.00259E-04 2.19056E-01-1.61968E-13 4.35679E-14
 -1       550 2.01480E+01 6.06696E-02 3.18277E-04 1.61991E-01-3.48738E-14-1.13161E-13
 -1       551 2.01024E+01 4.68743E-02 2.46733E-04 1.16949E-01 3.50505E-14-1.23698E-13
 -1       552 2.00683E+01 3.54402E-02 1.86850E-04 8.21522E-02 6.54937E-14 4.07774E-14
 -1       553 2.00433E+01 2.62143E-02 1.38272E-04 5.58241E-02 4.80576E-15-3.33125E-14
 -1       554 2.00255E+01 1.89395E-02 9.98600E-05 3.63240E-02 9.11854E-14-3.39138E-13
 -1       555 2.00130E+01 1.33230E-02 7.01680E-05 2.22094E-02-3.27023E-14-2.33851E-13
 -1       556 2.00047E+01 9.07508E-03 4.77052E-05 1.22564E-02-2.61870E-13-1.51562E-13
 -1       557 1.99993E+01 5.92932E-03 3.10779E-05 5.45501E-03-4.87901E-14 1.39443E-13
 -1       558 1.99962E+01 3.65255E-03 1.90546E-05 9.91381E-04-1.09034E-13 2.10510E-13
 -1       559 1.99945E+01 2.04729E-03 1.05890E-05-1.77694E-03-1.82521E-13 3.51154E-13
 -1       560 1.99938E+01 9.50774E-04 4.81677E-06-3.34703E-03 9.90903E-15 3.13913E-13
 -1       561 1.99938E+01 2.31750E-04 1.04066E-06-4.09598E-03-4.88102E-14 8.32476E-14
 -1       562 1.99942E+01-2.13640E-04-1.29132E-06-4.30393E-03-1.90240E-13-3.70403E-14
 -1       563 1.99949E+01-4.66245E-04-2.60897E-06-4.17410E-03-2.58962E-13-5.88855E-14
 -1       564 1.99956E+01-5.88200E-04-3.24320E-06-3.84965E-03 9.98173E-14 2.51051E-13
 -1       565 1.99963E+01-6.26896E-04-3.44931E-06-3.42741E-03 8.58070E-14 1.32148E-13
 -1       566 1.99970E+01-6.18501E-04-3.40559E-06-2.96878E-03 2.37786E-13 4.30337E-14
 -1       567 1.99977E+01-5.90980E-04-3.25637E-06-2.50826E-03 2.11383E-13 2.02313E-13
 -1       568 1.99982E+01-5.66180E-04-3.25915E-06-2.06056E-03 2.60108E-13 4.94063E-13
 -1       569 1.99987E+01-5.61725E-04-3.94982E-06-1.62780E-03-1.63734E-14 7.66173E-13
 -1       570 1.99991E+01-5.78537E-04-3.71613E-06-1.19865E-03-2.79528E-14 8.52532E-13
 -1       571 2.00002E+01-1.98369E-03 7.56618E-07-1.32379E-03 2.54060E-13-1.36294E-13
 -1       572 2.00004E+01-2.29621E-03 1.17722E-06-9.80305E-04 4.63847E-15-3.16168E-14
 -1       573 1.99996E+01-1.14494E-03-2.85660E-07-1.48413E-03-1.67063E-13-7.26354E-15
 -1       574 1.99999E+01-1.58864E-03 3.25986E-07-1.50072E-03-2.59381E-13 1.12650E-13
 -1       575 1.68118E+01-4.63596E+00 8.94241E-02 6.67439E+00-3.26163E-13 2.07265E-13
 -1       576 2.00005E+01-2.49488E-03 1.50278E-06-5.18495E-04-1.55923E-13-3.38866E-13
 -1       577 2.00006E+01-2.56240E-03 1.61257E-06 4.28739E-06-1.54990E-13-1.72640E-13
 -1       578 2.00005E+01-2.49275E-03 1.49404E-06 5.26639E-04-1.25013E-13-2.79265E-14
 -1       579 2.00004E+01-2.29668E-03 1.15154E-06 9.80147E-04-1.91820E-14-2.51435E-13
 -1       580 2.00002E+01-1.98413E-03 7.98954E-07 1.32388E-03 7.26719E-14 8.34184E-14
 -1       581 1.99999E+01-1.58471E-03 4.72344E-07 1.50233E-03-5.81882E-14-1.15795E-13
 -1       582 1.99996E+01-1.13872E-03-1.06456E-06 1.47864E-03-1.43011E-13-2.94272E-13
 -1       583 2.42361E+01-5.25446E+00 2.50028E-02 4.28075E+00-1.29716E-13-3.13798E-13
 -1       584 2.38173E+01-6.95785E-01-9.32079E-04 1.43101E+00 1.78115E-13 2.11169E-13
 -1       585 5.74499E+00-1.13173E+00 1.81659E-01 2.50027E+00-1.95698E-13 6.32744E-13
 -1       586 5.60678E+00-1.04394E+00 1.75497E-01-2.13618E+00 1.32207E-13 7.47888E-13
 -1       587 2.30778E+01 1.00915E+00-9.07010E-03-6.88572E-01-2.55432E-13-2.48877E-13
 -1       588 2.78105E+01-3.81103E+00-2.76358E-02-1.97922E+00-2.55213E-14-6.06244E-13
 -1       589 2.97298E+01 3.04927E+00-1.46201E-01-2.40039E+00-7.17593E-13-1.49859E-13
 -1       590 2.58204E+01-4.26193E+00-4.42024E-03 3.04774E+00-5.72840E-14-2.59071E-13
 -1       591 1.37090E+01 4.07074E+00 3.09281E-03 5.13720E-01 8.10425E-14-7.20400E-13
 -1       592 3.02063E+01 7.29604E+00-1.57064E-01 1.12797E-01 9.13505E-13-2.25824E-13
 -1       593 3.04087E+01 6.65402E+00-1.68597E-01-1.01934E+00-8.87929E-13-5.14862E-13
 -1       594 3.02047E+01 1.40414E+00-1.26602E-01-1.38367E+00 5.37750E-13-4.96762E-13
 -1       595 3.02048E+01 5.90165E+00-1.49844E-01-1.38513E+00 8.39037E-13-3.26177E-13
 -1       596 3.02229E+01 7.51918E-01-1.19284E-01 1.06246E+00 4.52083E-13 4.50542E-14
 -1       597 2.05627E+01-4.33203E+00 5.21447E-02-5.68376E+00-1.22569E-13-4.99979E-13
 -1       598 1.41442E+01-3.35819E+00 9.19545E-02-6.62586E+00-2.27623E-13-7.42635E-13
 -1       599 9.04681E+00-6.27578E-01 1.74864E-01-5.07033E+00-1.98092E-13-9.33170E-13
 -1       600 4.75788E+00 6.07380E-01 1.70618E-01-6.98772E-01 1.65892E-14-1.11755E-12
 -1       601 6.17548E+00-5.06024E-01 1.58256E-01 3.73115E+00 1.24373E-13-1.01938E-12
 -1       602 1.17958E+01-2.49028E+00 1.23545E-01 6.17774E+00 1.89918E-13-8.21766E-13
 -1       603 1.86661E+01-4.30136E+00 5.99058E-02 6.04280E+00 1.29834E-13-5.79398E-13
 -1       604 2.95410E+01-1.41922E+00-7.71531E-02-5.05682E-01-4.08379E-13-4.34375E-14
 -1       605 2.30791E+01-5.36798E+00 3.25305E-02-5.08922E+00 1.36016E-13-3.82236E-13
 -1       606 2.93646E+01 6.47698E+00-1.79603E-01 8.05074E-01-7.48610E-13-6.68776E-13
 -1       607 3.01392E+01 4.05062E+00-1.53300E-01 1.92357E+00-5.63660E-13-7.57013E-13
 -1       608 2.96885E+01-1.38017E+00-1.01886E-01 6.67836E-02-2.20990E-13-6.42514E-13
 -1       609 1.64694E+01-4.76563E+00 8.77859E-02-6.67956E+00 3.26281E-13-3.24671E-14
 -1       610 2.88845E+01-2.49578E+00-5.79901E-02 6.56460E-01 2.28001E-13-4.46691E-13
 -1       611 1.01107E+01-2.90251E+00 1.48623E-01-5.93772E+00 4.20330E-13 6.29871E-13
 -1       612 2.39108E+01 7.84032E-01-7.79817E-03 1.18826E+00 3.82145E-13 2.44188E-13
 -1       613 9.90810E+00-2.73853E+00 1.44095E-01 5.89801E+00-3.35960E-13 5.50900E-13
 -1       614 1.98563E+01 1.90926E+00-5.87809E-03 4.25364E-01-8.95588E-14-5.14854E-13
 -1       615 2.86142E+01 6.17933E-01-1.02775E-01 2.23026E+00-3.43937E-13-7.65079E-13
 -1       616 2.82649E+01 5.87523E+00-1.41233E-01 1.27846E+00 8.02469E-13 1.81053E-14
 -1       617 1.99992E+01-7.44311E-04-2.38740E-06 1.37394E-03-2.34850E-13-1.97205E-13
 -1       618 2.46909E+01-4.14318E+00 1.01948E-02-3.32471E+00-1.26035E-13-1.75542E-13
 -1       619 2.85674E+01-1.80547E+00-6.51537E-02 2.06447E-01 1.69413E-13 8.59382E-14
 -1       620 1.51230E+01 2.36472E+00 7.67046E-03-2.14088E+00-2.96486E-15-5.85795E-13
 -1       621 1.28315E+01 3.39631E+00 2.00345E-02-1.33731E+00 3.03746E-14-7.12800E-13
 -1       622 2.03728E+01 5.18972E-01 9.61855E-04-1.01257E+00 1.07977E-13-2.64056E-13
 -1       623 2.21164E+01 1.65386E-01-1.62023E-03 6.79520E-04 2.09627E-13-1.10912E-13
 -1       624 2.33528E+01-3.37620E-01 2.83135E-03 6.45518E-01 2.18899E-13 2.61838E-15
 -1       625 1.12150E+01-1.80907E-02 1.30307E-01 4.50978E+00 2.61988E-13-7.77059E-13
 -1       626 2.39245E+01-1.04838E+00-1.32127E-03 9.24771E-01 1.47407E-13 7.25475E-14
 -1       627 2.77253E+01-2.98107E+00-6.18988E-02 2.71570E-01 6.85021E-15-6.86545E-13
 -1       628 2.41794E+01-1.72391E+00-6.12703E-03-2.03035E-01 1.31397E-14-1.38961E-13
 -1       629 2.54908E+01-2.03042E+00-1.04302E-02-1.10960E+00-2.14785E-14-8.25208E-15
 -1       630 2.64349E+01-8.44270E-01-5.11893E-02-2.28045E+00-2.11489E-13 2.29521E-14
 -1       631 2.59927E+01 4.65206E+00-1.78926E-01-1.28782E+00-6.18575E-13-2.76508E-13
 -1       632 2.50565E+01-2.53868E+00-5.34714E-03 4.73150E-01-8.44830E-14-5.60808E-13
 -1       633 2.36376E+01-2.36946E+00 2.74505E-03-6.65619E-01-6.17623E-14-3.51023E-13
 -1       634 2.24154E+01-1.66943E+00 1.75586E-03-1.31561E+00 8.70038E-14-2.27623E-13
 -1       635 2.15321E+01-9.15256E-01-9.96670E-04-1.57865E+00 1.54730E-13-2.13995E-13
 -1       636 2.09729E+01-3.35337E-01-5.64231E-04-1.60325E+00 5.06537E-14-1.65501E-13
 -1       637 2.06383E+01 4.28311E-02-1.27282E-04-1.50368E+00 1.70923E-15-7.39166E-14
 -1       638 2.04432E+01 2.56412E-01 8.24256E-05-1.34395E+00 6.66231E-14-5.30598E-14
 -1       639 2.03280E+01 3.54549E-01 1.62966E-04-1.16128E+00 3.60747E-14-4.45632E-14
 -1       640 2.02559E+01 3.79636E-01 1.84300E-04-9.77198E-01-6.29275E-14-1.71077E-13
 -1       641 2.02063E+01 3.62697E-01 1.76425E-04-8.04045E-01 5.44003E-14-3.37987E-13
 -1       642 2.01688E+01 3.24472E-01 1.56191E-04-6.48450E-01-2.13800E-14-3.79965E-13
 -1       643 2.01381E+01 2.77903E-01 1.31820E-04-5.13302E-01 9.21605E-14-1.67350E-13
 -1       644 2.01120E+01 2.30556E-01 1.07591E-04-3.99071E-01-1.56863E-13-4.97678E-14
 -1       645 2.00897E+01 1.86506E-01 8.55672E-05-3.04727E-01-1.88707E-13-2.10594E-13
 -1       646 2.00708E+01 1.47663E-01 6.65754E-05-2.28390E-01 6.12713E-14-2.02585E-13
 -1       647 2.00549E+01 1.14648E-01 5.07705E-05-1.67780E-01 1.53931E-13-1.20081E-13
 -1       648 2.00418E+01 8.73566E-02 3.79633E-05-1.20520E-01-7.40826E-15-1.20566E-14
 -1       649 2.00312E+01 6.53045E-02 2.78094E-05-8.43254E-02-1.43658E-13 1.56361E-14
 -1       650 2.00228E+01 4.78374E-02 1.99137E-05-5.71116E-02-3.63769E-14 3.90160E-14
 -1       651 2.00162E+01 3.42563E-02 1.38865E-05-3.70489E-02-2.21685E-13-8.07960E-14
 -1       652 2.00112E+01 2.38867E-02 9.37067E-06-2.25778E-02-2.12490E-14 9.16016E-14
 -1       653 2.00074E+01 1.61155E-02 6.05386E-06-1.24008E-02-1.44097E-13 9.21372E-14
 -1       654 2.00047E+01 1.04070E-02 3.67129E-06-5.46116E-03 8.22910E-14-1.20860E-13
 -1       655 2.00027E+01 6.30676E-03 2.00392E-06-9.14838E-04 2.32614E-13-1.28190E-13
 -1       656 2.00014E+01 3.43826E-03 8.74266E-07 1.90024E-03 1.31323E-13-2.36251E-13
 -1       657 2.00004E+01 1.49567E-03 1.41086E-07 3.49402E-03-6.15779E-14-4.64667E-13
 -1       658 1.99998E+01 2.35005E-04-3.06055E-07 4.25193E-03-9.21122E-14-4.48470E-13
 -1       659 1.99995E+01-5.35385E-04-5.52470E-07 4.45941E-03-8.59775E-14-5.13637E-13
 -1       660 1.99993E+01-9.64010E-04-6.65437E-07 4.32280E-03-2.42492E-13-4.31053E-13
 -1       661 1.99992E+01-1.16472E-03-6.94022E-07 3.98690E-03-1.94067E-13-2.76982E-13
 -1       662 1.99992E+01-1.22426E-03-6.74630E-07 3.54919E-03 1.72564E-14-9.62201E-14
 -1       663 1.99993E+01-1.20877E-03-6.35002E-07 3.07130E-03 2.01910E-13-3.61295E-13
 -1       664 1.99993E+01-1.16836E-03-6.11708E-07 2.58781E-03 5.29539E-14-3.82063E-13
 -1       665 1.99994E+01-1.13973E-03-7.60209E-07 2.11283E-03 6.16774E-14-5.70961E-13
 -1       666 2.44590E+01 1.28705E+00-1.71479E-02 2.28220E+00 3.45221E-13 1.39475E-13
 -1       667 2.62831E+01-3.91324E+00-3.54807E-02 1.19808E+00-1.30887E-13-5.57896E-13
 -1       668 2.47215E+01-3.56466E-01-9.58151E-03 2.24166E+00 1.83751E-13 2.26515E-13
 -1       669 2.39099E+01 3.02041E+00-2.82457E-02-6.22868E-01 3.19062E-13-1.79248E-13
 -1       670 2.40938E+01 1.71492E+00-3.54666E-02-2.02340E+00 3.68580E-13-3.36049E-13
 -1       671 2.44593E+01-1.55679E-01-2.89897E-03-2.15249E+00 2.05364E-13-3.27453E-13
 -1       672 2.42852E+01-1.37561E+00-7.21522E-03-1.43578E+00 6.92442E-14-3.00569E-13
 -1       673 2.36449E+01-1.72351E+00-3.06192E-03-4.61161E-01 3.73606E-14-2.09749E-13
 -1       674 2.28484E+01-1.46029E+00-2.87523E-04 3.43659E-01 5.46222E-14-1.13289E-13
 -1       675 2.21345E+01-9.96098E-01-6.07299E-04 8.50172E-01 1.24825E-14-8.45591E-14
 -1       676 2.15714E+01-5.38137E-01-1.01363E-03 1.10673E+00 5.16206E-14-6.50165E-14
 -1       677 2.11625E+01-1.85897E-01-5.48218E-04 1.18088E+00-1.05435E-14 5.46755E-14
 -1       678 2.08739E+01 4.59301E-02-1.60490E-04 1.14139E+00 1.78325E-14 9.93691E-14
 -1       679 2.06687E+01 1.78119E-01 6.50427E-05 1.03803E+00-3.83103E-14 7.63522E-14
 -1       680 2.05191E+01 2.39027E-01 1.75455E-04 9.04569E-01-5.11718E-14 6.66582E-14
 -1       681 2.04061E+01 2.53894E-01 2.19118E-04 7.62904E-01-9.31743E-15 2.09676E-13
 -1       682 2.03181E+01 2.41784E-01 2.22292E-04 6.26392E-01 5.76824E-14 1.57963E-13
 -1       683 2.02481E+01 2.15782E-01 2.04618E-04 5.02463E-01-7.23302E-14 1.69793E-13
 -1       684 2.01918E+01 1.84261E-01 1.77457E-04 3.94572E-01-2.02698E-13 2.85908E-13
 -1       685 2.01466E+01 1.52229E-01 1.47643E-04 3.03610E-01-2.19815E-13 1.88358E-13
 -1       686 2.01104E+01 1.22445E-01 1.18997E-04 2.28914E-01-9.30904E-14 2.70846E-13
 -1       687 2.00817E+01 9.62284E-02 9.34134E-05 1.68959E-01 7.75066E-14 3.14155E-13
 -1       688 2.00592E+01 7.40217E-02 7.16213E-05 1.21829E-01 1.71275E-13 2.40612E-13
 -1       689 2.00419E+01 5.57586E-02 5.36850E-05 8.55105E-02 1.79144E-13 2.39803E-14
 -1       690 2.00288E+01 4.11020E-02 3.93190E-05 5.80734E-02 1.85378E-13-1.08200E-13
 -1       691 2.00191E+01 2.95924E-02 2.80790E-05 3.77709E-02-3.19968E-14-1.04078E-14
 -1       692 2.00119E+01 2.07365E-02 1.94730E-05 2.30835E-02-1.25704E-13-2.34546E-14
 -1       693 2.00069E+01 1.40591E-02 1.30225E-05 1.27293E-02-2.46301E-13-2.42530E-13
 -1       694 2.00034E+01 9.12925E-03 8.29387E-06 5.65418E-03-1.66045E-13-6.85295E-14
 -1       695 2.00010E+01 5.57287E-03 4.91143E-06 1.01022E-03-3.03134E-14-3.44317E-14
 -1       696 1.99995E+01 3.07477E-03 2.56033E-06-1.87115E-03-8.25236E-14-3.19814E-13
 -1       697 1.99987E+01 1.37608E-03 9.83293E-07-3.50684E-03-2.47887E-14-2.23465E-15
 -1       698 1.99982E+01 2.68621E-04-2.55905E-08-4.28870E-03-4.27524E-14 1.98143E-13
 -1       699 1.99981E+01-4.12088E-04-6.28406E-07-4.50762E-03-2.87485E-13 4.62331E-13
 -1       700 1.99981E+01-7.93984E-04-9.49984E-07-4.37432E-03-4.10641E-14 3.42216E-13
 -1       701 1.99982E+01-9.75422E-04-1.08684E-06-4.03696E-03 3.42513E-13 9.55104E-14
 -1       702 1.99984E+01-1.03151E-03-1.12289E-06-3.59542E-03 4.05869E-13-1.68556E-13
 -1       703 1.99987E+01-1.01952E-03-1.06071E-06-3.11281E-03 1.50123E-13-2.42736E-13
 -1       704 1.99989E+01-9.83419E-04-1.04113E-06-2.62499E-03-1.25177E-13-1.84075E-13
 -1       705 1.99991E+01-9.57958E-04-1.29583E-06-2.14784E-03 7.90706E-14 1.29678E-13
 -1       706 1.99994E+01-1.04166E-03-1.17459E-06-1.81993E-03-1.86185E-13-7.63357E-15
 -1       707 2.00011E+01-2.47916E-03 5.40182E-07-3.18316E-04 1.22114E-13-2.07538E-13
 -1       708 1.99995E+01-1.13104E-03-9.34801E-07 1.79588E-03 1.72096E-14-5.84155E-13
 -1       709 2.00006E+01-2.10887E-03 3.34751E-07-1.43799E-03-2.08399E-14-4.53477E-13
 -1       710 2.79996E+01-5.52123E-02-7.36835E-02-2.29354E+00-3.53721E-13-1.89952E-14
 -1       711 2.00011E+01-2.47823E-03 4.97743E-07 3.28397E-04-2.34083E-14-2.71607E-13
 -1       712 2.00009E+01-2.35321E-03 4.46044E-07-9.30077E-04-2.39394E-14-3.54643E-13
 -1       713 2.00009E+01-2.35377E-03 3.79130E-07 9.29474E-04-7.82667E-14-2.73080E-14
 -1       714 2.00006E+01-2.10957E-03 3.25903E-07 1.43750E-03 1.19432E-13-1.33129E-13
 -1       715 2.00002E+01-1.76318E-03 4.51352E-07 1.77745E-03 1.62365E-13 6.40230E-15
 -1       716 2.44829E+01-1.15399E+00-2.37203E-03 1.57309E+00 1.24049E-13 1.86934E-13
 -1       717 2.79754E+01 1.94712E+00-1.33357E-01 2.33380E+00 4.92790E-13 3.76876E-13
 -1       718 2.21698E+01 4.43063E-01-1.01641E-02 3.71481E-02-1.33532E-13-2.92843E-13
 -1       719 2.79380E+01-1.23289E+00-1.14001E-01-1.36566E+00 2.03228E-13-5.86569E-13
 -1       720 1.72351E+01-2.44070E+00 8.71189E-02 5.20732E+00 3.18620E-13-5.52624E-13
 -1       721 2.66058E+01 5.48403E+00-1.38982E-01-8.09034E-01 6.75203E-13-2.19223E-13
 -1       722 2.39141E+01 2.94298E+00-4.39692E-02 1.21819E+00 3.35008E-13 2.53504E-14
 -1       723 2.31110E+01-7.91751E-01-1.02258E-03 1.30981E-01-3.32235E-14-2.13500E-13
 -1       724 2.11777E+01-4.49800E+00 4.62600E-02 4.81050E+00-3.43166E-13-1.93290E-13
 -1       725 7.97258E+00 2.21338E-01 1.43456E-01 2.23017E-01-2.99513E-14 3.94573E-13
 -1       726 1.79179E+01 1.26123E+00 2.28226E-03-1.92080E+00 4.14915E-14-4.23341E-13
 -1       727 1.64915E+01 1.86615E+00 1.13441E-02 1.96687E+00 9.41917E-14-5.91154E-13
 -1       728 8.39069E+00 1.57061E+00 1.16880E-01-2.53289E+00-7.16233E-14-9.45563E-13
 -1       729 1.51596E+01-3.03467E+00 9.72531E-02-5.82756E+00 3.89098E-13 1.81143E-13
 -1       730 2.70032E+01-3.13338E+00-2.09806E-02 1.50663E-02-7.38021E-14-1.27710E-14
 -1       731 2.74005E+01 2.60229E+00-1.12111E-01-2.36164E+00 5.30326E-13-5.31141E-13
 -1       732 1.88051E+01-3.28317E+00 7.92654E-02-5.35041E+00-3.22440E-13-4.71661E-13
 -1       733 1.37564E+01-1.04619E+00 1.13737E-01-5.25099E+00-2.73115E-13-6.91728E-13
 -1       734 1.00325E+01-8.11639E-01 1.34359E-01-3.95874E+00 2.56632E-13 6.09450E-13
 -1       735 2.14265E+01-4.75937E+00 6.06517E-02-4.87836E+00 3.12139E-13-4.36133E-13
 -1       736 2.52555E+01-4.75198E+00-4.28494E-03-2.60069E+00 1.95110E-13-6.47083E-13
 -1       737 1.50770E+01-2.62633E+00 9.48480E-02 5.62843E+00-3.62595E-13 2.59737E-13
 -1       738 1.02539E+01-6.94683E-01 1.32937E-01 3.91880E+00-3.30635E-13 4.71491E-13
 -1       739 2.28270E+01-3.95917E+00 2.66680E-02 3.60061E+00 2.05416E-13-2.91171E-13
 -1       740 7.82510E+00 1.65257E+00 1.41627E-01 1.75469E+00 1.32558E-13-9.71896E-13
 -1       741 1.93825E+01 8.48425E-01 8.50039E-03 1.44329E+00 2.65208E-14-4.88953E-13
 -1       742 1.22622E+01 3.65571E+00 2.21467E-02 2.13933E-01 9.32691E-14-7.63066E-13
 -1       743 2.65201E+01 3.39425E+00-1.28370E-01 2.37936E+00 4.85809E-13 2.76983E-13
 -1       744 1.17453E+01 1.19252E+00 8.58127E-02-3.61182E+00-1.45163E-13-7.57387E-13
 -1       745 2.62218E+01 1.86432E+00-6.81631E-02-2.65795E+00-4.19777E-13-1.04083E-15
 -1       746 2.60458E+01-1.86897E+00-2.14862E-02 1.49919E+00 1.13208E-14-7.02510E-13
 -1       747 2.00002E+01-1.76542E-03 6.71015E-07-1.77740E-03-4.14309E-14 7.09712E-13
 -1       748 2.41284E+01-4.27611E+00 9.54675E-03 2.41984E+00-2.96554E-13-4.94132E-13
 -1       749 1.99998E+01-1.41969E-03 3.51367E-08-1.88319E-03-1.46827E-13-7.87963E-14
 -1       750 1.37675E+01 2.97806E+00 1.57274E-02 1.57196E+00 1.19284E-13-6.96029E-13
 -1       751 2.76680E+01-1.74972E-01-7.08050E-02 2.03814E+00 2.65815E-13 3.03996E-13
 -1       752 2.22965E+01-3.62578E+00 1.52564E-02-3.72808E+00-2.65510E-13-2.37886E-13
 -1       753 2.66731E+01-3.18263E+00-2.09472E-02-8.00369E-01-5.35201E-14 6.27276E-14
 -1       754 1.99999E+01-1.46471E-03 4.43547E-08 2.00249E-03 6.29746E-14-3.96568E-13
 -1       755 2.23531E+01-9.60921E-01-3.54260E-03-6.66966E-01 7.81649E-14-7.86016E-14
 -1       756 9.86778E+00 2.83077E+00 9.00130E-02-2.71142E-01 5.01240E-14-8.73124E-13
 -1       757 2.55955E+01-3.58850E+00-6.08827E-03-6.06408E-01 1.44578E-13-6.32246E-13
 -1       758 2.19209E+01-2.47953E+00 4.67366E-03-2.24674E+00 1.21079E-13-2.38550E-13
 -1       759 2.07377E+01-1.32991E+00-1.18986E-03-2.26093E+00 7.38966E-14-2.04302E-13
 -1       760 2.01222E+01-5.04137E-01-4.58464E-04-2.05172E+00 6.14447E-14-1.60379E-13
 -1       761 1.98337E+01 3.55183E-02-1.05473E-04-1.79161E+00 2.58804E-14-2.36469E-13
 -1       762 1.97353E+01 3.45818E-01 7.40982E-05-1.53313E+00 4.10380E-14-1.95467E-13
 -1       763 1.97326E+01 4.95987E-01 9.53427E-05-1.29432E+00-4.22239E-14-2.63506E-13
 -1       764 1.97714E+01 5.43176E-01 8.58311E-05-1.07896E+00 2.65975E-14-3.96607E-13
 -1       765 1.98225E+01 5.28836E-01 6.73942E-05-8.87523E-01-5.94921E-14-2.61544E-13
 -1       766 1.98718E+01 4.81282E-01 5.17865E-05-7.19800E-01 1.03599E-14-2.32526E-13
 -1       767 1.99134E+01 4.18843E-01 3.96485E-05-5.75161E-01 1.70545E-13-2.90209E-13
 -1       768 1.99458E+01 3.52762E-01 3.02963E-05-4.52525E-01 1.16402E-14-3.11742E-13
 -1       769 1.99696E+01 2.89508E-01 2.30336E-05-3.50341E-01-2.34127E-13-1.20206E-13
 -1       770 1.99862E+01 2.32446E-01 1.73651E-05-2.66672E-01-1.60223E-13-1.19172E-13
 -1       771 1.99972E+01 1.83001E-01 1.29419E-05-1.99332E-01 1.31489E-13-1.84366E-13
 -1       772 2.00040E+01 1.41424E-01 9.50598E-06-1.46054E-01 1.77433E-13-1.93998E-13
 -1       773 2.00079E+01 1.07299E-01 6.85804E-06-1.04617E-01-3.62967E-14-7.15415E-14
 -1       774 2.00096E+01 7.98702E-02 4.83933E-06-7.29489E-02-7.43019E-14 1.06431E-13
 -1       775 2.00100E+01 5.82372E-02 3.32090E-06-4.91861E-02-1.48887E-13 4.22396E-14
 -1       776 2.00096E+01 4.14822E-02 2.19699E-06-3.17054E-02-1.63475E-13 5.65643E-14
 -1       777 2.00087E+01 2.87382E-02 1.38080E-06-1.91281E-02-1.61613E-13-1.75769E-13
 -1       778 2.00076E+01 1.92264E-02 8.01450E-07-1.03101E-02-1.42962E-13 7.42451E-14
 -1       779 2.00064E+01 1.22710E-02 4.01627E-07-4.32107E-03-7.23048E-14-7.55286E-14
 -1       780 2.00053E+01 7.30152E-03 1.35541E-07-4.18983E-04 8.56056E-14-2.81311E-13
 -1       781 2.00043E+01 3.84728E-03-3.28205E-08 1.97725E-03-1.06502E-13-4.94233E-13
 -1       782 2.00033E+01 1.52714E-03-1.31075E-07 3.31442E-03-5.44851E-14-3.42432E-13
 -1       783 2.00025E+01 3.78919E-05-1.79435E-07 3.92950E-03-6.10190E-14-1.51252E-13
 -1       784 2.00019E+01-8.58090E-04-1.93923E-07 4.07135E-03-6.20076E-14-3.60972E-14
 -1       785 2.00013E+01-1.34457E-03-1.97404E-07 3.91923E-03 6.27885E-15 9.23972E-14
 -1       786 2.00009E+01-1.56223E-03-1.91419E-07 3.59839E-03-1.01458E-13-2.01962E-13
 -1       787 2.00006E+01-1.61790E-03-1.30853E-07 3.19245E-03 2.48333E-14-5.26441E-13
 -1       788 2.00003E+01-1.59227E-03 2.46496E-08 2.75498E-03 1.35519E-13-2.94310E-13
 -1       789 2.00000E+01-1.52094E-03-4.53778E-07 2.37936E-03-5.12020E-14-2.61986E-13
 -1       790 2.46113E+01-3.16566E+00 1.48295E-02 1.23771E+00 1.28356E-13-1.49776E-13
 -1       791 2.44791E+01-2.65668E+00-9.19843E-03-8.50846E-02-9.89833E-14-3.07162E-13
 -1       792 2.30266E+01-2.28257E+00-7.26943E-03 8.70135E-01-5.04739E-14-2.19623E-13
 -1       793 2.19394E+01-1.60078E+00 2.01619E-03 1.35198E+00-2.56691E-14-7.22329E-14
 -1       794 2.11351E+01-8.95513E-01-1.03933E-03 1.53406E+00 3.60177E-15-7.62907E-14
 -1       795 2.06352E+01-3.45840E-01-4.52704E-04 1.51060E+00-1.39517E-14-6.86979E-15
 -1       796 2.03438E+01 2.27553E-02-1.35360E-04 1.39302E+00 2.16965E-15-8.57596E-14
 -1       797 2.01853E+01 2.40535E-01 2.48503E-05 1.23447E+00-1.18339E-13-6.90259E-14
 -1       798 2.01045E+01 3.48758E-01 6.65001E-05 1.06281E+00-1.32972E-13 1.43462E-15
 -1       799 2.00661E+01 3.84185E-01 7.88615E-05 8.93735E-01-1.54258E-13 1.21113E-13
 -1       800 2.00491E+01 3.75142E-01 7.33324E-05 7.36157E-01 1.62497E-14 3.06013E-13
 -1       801 2.00417E+01 3.41625E-01 6.41926E-05 5.94849E-01-7.14627E-14 4.44349E-13
 -1       802 2.00380E+01 2.96893E-01 5.41693E-05 4.71922E-01-1.19950E-13 4.30102E-13
 -1       803 2.00352E+01 2.49247E-01 4.44169E-05 3.67692E-01-1.41373E-13 2.90167E-13
 -1       804 2.00324E+01 2.03541E-01 3.55341E-05 2.81289E-01-1.31149E-13 9.97159E-14
 -1       805 2.00291E+01 1.62340E-01 2.78047E-05 2.11124E-01-1.23269E-13-1.27101E-13
 -1       806 2.00255E+01 1.26742E-01 2.13063E-05 1.55235E-01 1.29343E-13-5.67804E-14
 -1       807 2.00219E+01 9.69522E-02 1.59906E-05 1.11541E-01 1.55205E-13 1.90792E-13
 -1       808 2.00183E+01 7.26604E-02 1.17423E-05 7.80091E-02 2.11743E-13 2.28036E-13
 -1       809 2.00151E+01 5.32917E-02 8.41779E-06 5.27619E-02-8.73362E-14 2.17687E-13
 -1       810 2.00121E+01 3.81626E-02 5.86787E-06 3.41347E-02-1.16108E-14 1.97956E-13
 -1       811 2.00096E+01 2.65769E-02 3.95124E-06 2.06973E-02-8.56288E-14 2.31980E-13
 -1       812 2.00074E+01 1.78809E-02 2.54107E-06 1.12524E-02-1.49275E-13-7.30863E-14
 -1       813 2.00056E+01 1.14909E-02 1.52782E-06 4.82070E-03-6.43952E-14-2.44054E-13
 -1       814 2.00041E+01 6.90492E-03 8.19603E-07 6.17377E-04-1.07550E-13-2.68210E-13
 -1       815 2.00030E+01 3.70286E-03 3.41176E-07-1.97440E-03-2.47781E-13-3.53334E-14
 -1       816 2.00021E+01 1.54154E-03 3.21047E-08-3.43030E-03-2.09160E-13 2.51500E-13
 -1       817 2.00014E+01 1.46006E-04-1.55554E-07-4.10997E-03-2.98631E-13 3.73141E-13
 -1       818 2.00009E+01-7.00306E-04-2.59898E-07-4.27967E-03-1.94088E-13 1.48498E-13
 -1       819 2.00005E+01-1.16550E-03-3.05716E-07-4.13163E-03 2.21972E-13 2.63123E-13
 -1       820 2.00002E+01-1.37861E-03-3.21175E-07-3.80045E-03 3.49151E-13 2.81210E-13
 -1       821 2.00000E+01-1.43823E-03-3.34639E-07-3.37657E-03 1.84809E-13 5.06125E-13
 -1       822 1.99999E+01-1.41795E-03-2.13690E-07-2.91620E-03 1.85086E-13 2.00115E-13
 -1       823 1.99998E+01-1.37661E-03-2.02977E-07-2.45152E-03 1.05263E-13-3.52146E-13
 -1       824 1.99998E+01-1.39077E-03 1.21570E-07-2.16351E-03-1.53533E-13-2.40795E-13
 -1       825 2.00008E+01-1.96447E-03 5.46326E-07 1.93291E-03-9.18483E-15 1.59941E-13
 -1       826 1.52921E+01-2.61449E-01 5.54081E-02 4.09343E+00 2.61217E-13-6.03653E-13
 -1       827 2.00017E+01-2.50645E-03 1.37000E-07 5.83141E-06 1.08342E-13-3.36330E-13
 -1       828 2.00013E+01-2.26218E-03 5.70552E-08 1.41432E-03-9.14440E-14 1.30900E-13
 -1       829 2.55924E+01-1.81444E+00-1.54516E-02-1.43213E+00 5.09861E-14-5.34142E-13
 -1       830 2.62350E+01 8.25688E-02-4.91318E-02 2.41308E+00 3.00444E-13 3.46313E-13
 -1       831 1.43046E+01-1.12928E+00 6.57707E-02-4.35313E+00 3.30770E-13 3.00529E-13
 -1       832 2.35228E+01-3.31757E+00-2.64001E-03-1.75178E+00 6.18338E-14-3.81170E-13
 -1       833 1.44433E+01-6.94645E-01 5.35129E-02 3.88489E+00-2.48614E-13 3.62099E-13
 -1       834 2.00016E+01-2.44424E-03 2.73907E-08 7.47982E-04-1.24870E-14-1.74406E-13
 -1       835 1.09642E+01 5.21056E-01 7.70259E-02 1.77627E+00-6.27571E-14 3.32113E-13
 -1       836 1.79157E+01-1.66909E+00 6.33461E-02-4.43017E+00-2.37737E-13-4.46325E-13
 -1       837 1.92435E+01-3.28162E+00 3.23825E-02-4.57739E+00 3.55964E-13-3.24464E-13
 -1       838 2.30211E+01-4.14355E+00 1.78855E-02-3.11483E+00 2.52952E-13-5.60616E-13
 -1       839 2.34410E+01-1.15230E+00-1.84342E-03 2.39209E-01 1.15952E-13 4.57609E-15
 -1       840 1.92463E+01-2.84798E+00 3.45643E-02 4.29049E+00-2.74878E-13-1.43041E-13
 -1       841 2.62211E+01-2.44172E+00-1.38167E-03-6.95553E-01-4.84925E-14-4.56315E-13
 -1       842 1.08516E+01 4.96571E-01 8.04885E-02-1.75052E+00 9.75556E-14 4.45068E-13
 -1       843 2.05694E+01-2.44185E+00 3.32414E-02 3.50940E+00 2.59971E-13-3.91043E-13
 -1       844 1.16780E+01 2.05788E+00 6.84649E-02 2.49722E+00 1.82092E-13-7.63008E-13
 -1       845 1.46911E+01 1.24680E+00 2.66899E-02 2.97271E+00 1.81809E-13-6.17740E-13
 -1       846 2.21658E+01-1.68254E+00 1.45510E-02 1.62843E+00 1.13107E-13-3.10824E-13
 -1       847 2.00008E+01-1.96665E-03-4.76736E-07-1.93126E-03-2.36157E-13-9.48710E-14
 -1       848 1.67272E+01 1.30645E-01 3.03009E-02-3.47528E+00-1.36714E-13-4.85386E-13
 -1       849 2.00013E+01-2.26125E-03 2.87583E-07-1.41227E-03-5.01845E-14-5.55098E-14
 -1       850 2.55167E+01-1.65557E+00-1.31147E-02 1.38794E+00 4.87340E-14 1.85816E-13
 -1       851 2.00016E+01-2.44490E-03 1.67648E-07-7.41657E-04 8.53212E-14-1.56611E-13
 -1       852 2.44251E+01-1.77523E+00-2.55430E-03 6.17785E-01 2.27892E-14 4.29855E-14
 -1       853 2.03331E+01-7.14560E-01 3.78930E-03-2.12681E+00-5.61309E-14-2.56471E-13
 -1       854 2.07905E+01-2.39674E+00 2.80000E-02-3.41620E+00-2.27973E-13-2.82828E-13
 -1       855 2.47257E+01-3.38560E+00 1.82404E-02-1.66978E+00-1.67194E-13 3.77007E-14
 -1       856 2.00004E+01-1.75396E-03-1.12144E-06 2.18997E-03-1.05359E-13-2.64018E-13
 -1       857 2.22187E+01-3.01628E+00-5.93621E-03 2.41733E+00-2.09301E-13-3.11918E-13
 -1       858 1.82021E+01 2.15315E-02 2.17629E-02 2.72777E+00 1.55889E-13-5.02893E-13
 -1       859 2.68084E+01-1.91602E+00-3.82850E-02 1.04520E+00 1.85189E-14 2.52558E-13
 -1       860 1.76141E+01-1.11083E+00 6.19449E-03 3.39618E+00-2.17735E-13 7.51907E-14
 -1       861 1.37497E+01 5.57478E-01 1.98328E-02 2.08522E+00-5.12576E-14 2.93541E-13
 -1       862 1.88360E+01-5.39116E-01-9.76280E-04-2.56884E+00 7.78257E-14-9.80227E-14
 -1       863 1.87512E+01 1.15164E-01-1.67245E-04-2.04570E+00-1.52128E-14-1.09024E-13
 -1       864 1.88484E+01 4.82813E-01 1.10628E-04-1.64483E+00 5.01860E-14-1.72837E-13
 -1       865 1.90149E+01 6.61863E-01 5.49756E-05-1.33528E+00-2.81252E-14-6.34488E-14
 -1       866 1.91964E+01 7.20705E-01 5.11040E-05-1.08937E+00-1.69993E-14 7.36180E-16
 -1       867 1.93669E+01 7.05501E-01 3.29300E-05-8.88050E-01-6.25583E-14-1.07186E-13
 -1       868 1.95153E+01 6.48415E-01 2.02811E-05-7.19899E-01 1.05636E-14-2.22315E-13
 -1       869 1.96382E+01 5.70931E-01 1.25956E-05-5.78207E-01-2.67771E-16-1.97799E-13
 -1       870 1.97367E+01 4.86848E-01 7.89822E-06-4.58917E-01 5.69046E-14-2.66131E-13
 -1       871 1.98134E+01 4.04595E-01 4.94633E-06-3.59269E-01-2.58272E-16-2.47199E-13
 -1       872 1.98717E+01 3.28945E-01 3.05684E-06-2.77020E-01-8.91325E-14-1.80420E-13
 -1       873 1.99151E+01 2.62237E-01 1.83827E-06-2.10092E-01 8.87429E-15 1.34792E-13
 -1       874 1.99467E+01 2.05243E-01 1.05127E-06-1.56468E-01 4.84998E-14-4.12607E-14
 -1       875 1.99691E+01 1.57773E-01 5.45071E-07-1.14191E-01 2.37481E-14-2.99861E-13
 -1       876 1.99845E+01 1.19084E-01 2.23502E-07-8.14120E-02 7.02111E-14-2.67707E-13
 -1       877 1.99947E+01 8.81619E-02 2.44345E-08-5.64378E-02-6.66377E-14-1.49441E-13
 -1       878 2.00012E+01 6.38963E-02-9.29578E-08-3.77597E-02-1.79045E-13 2.44017E-14
 -1       879 2.00050E+01 4.51926E-02-1.56034E-07-2.40703E-02-3.46989E-13-4.89511E-14
 -1       880 2.00070E+01 3.10364E-02-1.83463E-07-1.42642E-02-3.75868E-14-4.49246E-14
 -1       881 2.00077E+01 2.05264E-02-1.88148E-07-7.42639E-03-1.43759E-13-1.07330E-13
 -1       882 2.00076E+01 1.28871E-02-1.79089E-07-2.81504E-03 3.08266E-14 2.70023E-13
 -1       883 2.00070E+01 7.46728E-03-1.62572E-07 1.60012E-04-1.29546E-13 2.44568E-13
 -1       884 2.00062E+01 3.73238E-03-1.42747E-07 1.95964E-03-2.12804E-13 1.69314E-13
 -1       885 2.00053E+01 1.25145E-03-1.20976E-07 2.93704E-03-2.63240E-14 6.06833E-14
 -1       886 2.00044E+01-3.17131E-04-9.41529E-08 3.35764E-03 1.90262E-13 4.54235E-14
 -1       887 2.00035E+01-1.24017E-03-6.62003E-08 3.41656E-03 5.92340E-14 5.41058E-14
 -1       888 2.00027E+01-1.72330E-03-7.78412E-08 3.25370E-03-1.20024E-13-2.61303E-15
 -1       889 2.00020E+01-1.92368E-03-1.83465E-07 2.96627E-03-2.45553E-13 2.07888E-13
 -1       890 2.00014E+01-1.96283E-03-6.93756E-07 2.61683E-03 1.42659E-13 3.18202E-13
 -1       891 2.04227E+01-1.19981E+00 8.35444E-03 2.17390E+00-4.92200E-14-1.67525E-13
 -1       892 1.98972E+01-4.67706E-01-1.30778E-03 1.93229E+00-7.64275E-14-1.38411E-13
 -1       893 1.96570E+01 2.78672E-02-1.16184E-04 1.65442E+00 2.38548E-14-1.04816E-13
 -1       894 1.95795E+01 3.23285E-01 1.33851E-05 1.39845E+00-7.28337E-14-5.38994E-14
 -1       895 1.95908E+01 4.74800E-01 1.35668E-05 1.16892E+00-1.61862E-13-7.82338E-14
 -1       896 1.96434E+01 5.29603E-01 3.19706E-05 9.67108E-01-1.66529E-13-6.88241E-14
 -1       897 1.97095E+01 5.23911E-01 1.96260E-05 7.91206E-01-1.68311E-13-1.18758E-13
 -1       898 1.97750E+01 4.83448E-01 1.16777E-05 6.39187E-01-1.59604E-13 4.50700E-14
 -1       899 1.98329E+01 4.25700E-01 7.40067E-06 5.09308E-01-9.91963E-14 8.76033E-14
 -1       900 1.98810E+01 3.62037E-01 4.97428E-06 3.99863E-01-1.22173E-13 8.96625E-14
 -1       901 1.99189E+01 2.99448E-01 3.45779E-06 3.09032E-01-4.59030E-14-1.07842E-13
 -1       902 1.99477E+01 2.41888E-01 2.43736E-06 2.34849E-01-3.77105E-15-7.87764E-14
 -1       903 1.99688E+01 1.91290E-01 1.72392E-06 1.75250E-01-6.96972E-14-1.77890E-13
 -1       904 1.99838E+01 1.48284E-01 1.21564E-06 1.28159E-01-1.32470E-14-1.09336E-15
 -1       905 1.99940E+01 1.12706E-01 8.49780E-07 9.15770E-02 2.46545E-13-9.14950E-14
 -1       906 2.00006E+01 8.39460E-02 5.85110E-07 6.36540E-02 1.87413E-13 9.17986E-14
 -1       907 2.00045E+01 6.11765E-02 3.93675E-07 4.27320E-02-1.70935E-13 1.30170E-13
 -1       908 2.00066E+01 4.35005E-02 2.56018E-07 2.73682E-02-8.51799E-14 7.16082E-14
 -1       909 2.00075E+01 3.00426E-02 1.58209E-07 1.63389E-02 1.12376E-13 1.98931E-14
 -1       910 2.00075E+01 1.99994E-02 9.00026E-08 8.62887E-03-7.69614E-14-5.60832E-14
 -1       911 2.00070E+01 1.26644E-02 4.36954E-08 3.41307E-03-4.22894E-14-2.93706E-15
 -1       912 2.00062E+01 7.43611E-03 1.33731E-08 3.39611E-05-4.06986E-13 8.74871E-14
 -1       913 2.00053E+01 3.81505E-03-5.70445E-09-2.02291E-03-4.08174E-13 1.63951E-13
 -1       914 2.00044E+01 1.39561E-03-1.78558E-08-3.15256E-03-2.49212E-13 1.75281E-14
 -1       915 2.00036E+01-1.45583E-04-2.82095E-08-3.65243E-03-7.14087E-14 1.04669E-13
 -1       916 2.00028E+01-1.06221E-03-4.23062E-08-3.74172E-03-8.42112E-14-1.23621E-14
 -1       917 2.00021E+01-1.55064E-03-4.16204E-08-3.57786E-03 1.75762E-13 3.41399E-13
 -1       918 2.00016E+01-1.76081E-03 4.22591E-08-3.27002E-03 4.25047E-14 4.60774E-13
 -1       919 2.00011E+01-1.80775E-03-5.06032E-08-2.89437E-03 2.41392E-13 4.89955E-13
 -1       920 2.00007E+01-1.77842E-03-2.48141E-07-2.49008E-03 3.05390E-13 5.16926E-13
 -1       921 2.00003E+01-1.69353E-03-3.47850E-07-2.11578E-03-2.10578E-13 6.35583E-13
 -1       922 1.26973E+01 1.01979E+00 3.37750E-02-2.02187E-01-4.96749E-15 1.80334E-13
 -1       923 2.00016E+01-2.16223E-03 1.10735E-06 1.95696E-03-7.10600E-14 1.16684E-13
 -1       924 1.92511E+01-1.54693E+00 2.04762E-02-3.21894E+00 2.01866E-13-1.95129E-13
 -1       925 1.39651E+01 2.68139E-01 2.75390E-02-2.65410E+00 1.93455E-13 3.08002E-13
 -1       926 1.75972E+01-1.54398E+00 3.48357E-02-3.91626E+00 2.56938E-13-1.98611E-13
 -1       927 2.37065E+01-2.11071E+00 1.24278E-03-5.86147E-01-2.64136E-14 3.63550E-14
 -1       928 2.55028E+01-2.56057E+00-1.44847E-02 1.38817E-01-7.85356E-14 1.63060E-13
 -1       929 1.63829E+01 7.88460E-02 1.35430E-02 2.60043E+00-2.00745E-13 1.19032E-13
 -1       930 2.00009E+01-1.86236E-03-6.01928E-07 2.41873E-03 1.36900E-13 4.52293E-14
 -1       931 2.00015E+01-2.13258E-03-2.42367E-08-2.01325E-03 1.60288E-13-2.70052E-13
 -1       932 2.00024E+01-2.52644E-03-3.99894E-08-4.26793E-04-5.72318E-14-1.54233E-13
 -1       933 2.00021E+01-2.40810E-03-1.60564E-08 1.25885E-03 1.65962E-14-6.88623E-14
 -1       934 2.00024E+01-2.52674E-03 1.13486E-07 4.34638E-04-1.59188E-13-3.04069E-13
 -1       935 2.04522E+01-2.11534E+00 1.38527E-02 2.89116E+00-1.68399E-13-3.41900E-13
 -1       936 1.77499E+01 6.98426E-01 5.41436E-04-1.60227E+00 1.15531E-14 1.09446E-13
 -1       937 1.81812E+01 8.59863E-01-2.18214E-04-1.23423E+00 4.41952E-14 9.49271E-14
 -1       938 1.85535E+01 9.07725E-01-9.39561E-06-9.77945E-01 2.48754E-14 1.49765E-14
 -1       939 1.88664E+01 8.82508E-01-3.34085E-05-7.85365E-01-2.84544E-14-8.32992E-14
 -1       940 1.91251E+01 8.13643E-01-2.48897E-05-6.33787E-01-5.07144E-14 2.46022E-14
 -1       941 1.93352E+01 7.22052E-01-1.75690E-05-5.10331E-01 7.01408E-14 5.91075E-16
 -1       942 1.95032E+01 6.21911E-01-1.29289E-05-4.07870E-01 8.55536E-15-1.29319E-13
 -1       943 1.96356E+01 5.22529E-01-1.00304E-05-3.22423E-01 6.15685E-14-1.61100E-13
 -1       944 1.97382E+01 4.29654E-01-8.02756E-06-2.51492E-01 1.59781E-14 6.06029E-15
 -1       945 1.98166E+01 3.46459E-01-6.47393E-06-1.93209E-01 2.86653E-14-5.97446E-16
 -1       946 1.98753E+01 2.74311E-01-5.18769E-06-1.45954E-01-1.97080E-13-2.29527E-13
 -1       947 1.99186E+01 2.13369E-01-4.10209E-06-1.08216E-01-6.19970E-14-3.23094E-13
 -1       948 1.99499E+01 1.63041E-01-3.19042E-06-7.85595E-02 3.32703E-14-2.09842E-13
 -1       949 1.99719E+01 1.22307E-01-2.43636E-06-5.56457E-02 7.18333E-14-2.49487E-13
 -1       950 1.99869E+01 8.99484E-02-1.82426E-06-3.82546E-02-7.28680E-14-2.47878E-13
 -1       951 1.99967E+01 6.47007E-02-1.33708E-06-2.53052E-02-2.65026E-13 1.45630E-14
 -1       952 2.00029E+01 4.53514E-02-9.56947E-07-1.58637E-02-2.24891E-13 4.76705E-14
 -1       953 2.00063E+01 3.07947E-02-6.66262E-07-9.14291E-03-1.23492E-13-2.07533E-14
 -1       954 2.00080E+01 2.00585E-02-4.48673E-07-4.49343E-03 8.51727E-14-5.39559E-14
 -1       955 2.00085E+01 1.23133E-02-2.89772E-07-1.39044E-03-7.42583E-14-2.29424E-13
 -1       956 2.00082E+01 6.86738E-03-1.77447E-07 5.82089E-04-8.08266E-14-2.14081E-13
 -1       957 2.00075E+01 3.15595E-03-1.01075E-07 1.74772E-03 4.27725E-14-1.19337E-13
 -1       958 2.00065E+01 7.26179E-04-4.70001E-08 2.35331E-03 8.51977E-14 1.77199E-13
 -1       959 2.00055E+01-7.79208E-04 6.85817E-09 2.58348E-03 1.24005E-13 3.03512E-15
 -1       960 2.00044E+01-1.63828E-03 3.31023E-08 2.57292E-03-7.84160E-15 6.78168E-14
 -1       961 2.00035E+01-2.06369E-03-1.68256E-07 2.41877E-03 2.57448E-14 3.23502E-13
 -1       962 2.00026E+01-2.22362E-03-5.16383E-08 2.18466E-03-1.04282E-14 3.27532E-13
 -1       963 1.87167E+01 1.20015E-01-7.27902E-04 1.90059E+00-3.83836E-14 1.25134E-13
 -1       964 1.87686E+01-4.47738E-01 2.12882E-03 2.41067E+00-2.00233E-13 1.41855E-14
 -1       965 1.88132E+01 4.57131E-01-3.73654E-04 1.50404E+00-6.12384E-14 1.99381E-13
 -1       966 1.89706E+01 6.30565E-01-1.87845E-04 1.20191E+00-1.01323E-13 1.58158E-13
 -1       967 1.91461E+01 6.91732E-01-2.23827E-05 9.66661E-01-1.38672E-13 1.56642E-14
 -1       968 1.93136E+01 6.83681E-01-4.46199E-05 7.77861E-01-9.29069E-14-8.64442E-14
 -1       969 1.94632E+01 6.34258E-01-4.29623E-05 6.23368E-01-2.54214E-13-1.59493E-13
 -1       970 1.95905E+01 5.63115E-01-3.62766E-05 4.95779E-01-2.37812E-13-6.11825E-14
 -1       971 1.96951E+01 4.83544E-01-2.90458E-05 3.90245E-01-1.15813E-13-8.27622E-14
 -1       972 1.97788E+01 4.04108E-01-2.26930E-05 3.03369E-01 1.99474E-14-1.04337E-13
 -1       973 1.98441E+01 3.29957E-01-1.74515E-05 2.32501E-01 3.15979E-15-1.04923E-13
 -1       974 1.98939E+01 2.63842E-01-1.32123E-05 1.75376E-01 2.93454E-14-8.24816E-14
 -1       975 1.99309E+01 2.06887E-01-9.82329E-06 1.29951E-01 2.05068E-14-2.50820E-13
 -1       976 1.99578E+01 1.59164E-01-7.14884E-06 9.43606E-02 6.98703E-14-3.19566E-13
 -1       977 1.99768E+01 1.20110E-01-5.07135E-06 6.69137E-02-2.17359E-14-7.52250E-14
 -1       978 1.99897E+01 8.88137E-02-3.48661E-06 4.61010E-02-6.35954E-14 1.29321E-14
 -1       979 1.99982E+01 6.42227E-02-2.30194E-06 3.06048E-02-1.73648E-14 7.61893E-14
 -1       980 2.00035E+01 4.52645E-02-1.43609E-06 1.92985E-02-1.10814E-13 1.14195E-13
 -1       981 2.00064E+01 3.09274E-02-8.19352E-07 1.12382E-02-4.33995E-14 1.32498E-13
 -1       982 2.00077E+01 2.03021E-02-3.93383E-07 5.64881E-03-1.37161E-13 1.18113E-13
 -1       983 2.00080E+01 1.26004E-02-1.10469E-07 1.90526E-03-2.76152E-13 3.47085E-13
 -1       984 2.00077E+01 7.15772E-03 6.73958E-08-4.87295E-04-4.03132E-13 2.97778E-13
 -1       985 2.00069E+01 3.42723E-03 1.69319E-07-1.91370E-03-5.77657E-14 2.23870E-13
 -1       986 2.00060E+01 9.67594E-04 2.15687E-07-2.66769E-03-1.53278E-13 1.11952E-13
 -1       987 2.00050E+01-5.70866E-04 2.04333E-07-2.96918E-03 5.16423E-14-1.80513E-13
 -1       988 2.00041E+01-1.46148E-03 1.72151E-07-2.97954E-03-2.07653E-13-2.52423E-13
 -1       989 2.00032E+01-1.91506E-03 6.26803E-08-2.81323E-03 4.35044E-14 1.23179E-14
 -1       990 2.00024E+01-2.09448E-03-3.94894E-07-2.54898E-03 3.64971E-13-3.07651E-13
 -1       991 2.00019E+01-2.13014E-03-1.05568E-06-2.28478E-03 2.42645E-13-3.25757E-13
 -1       992 1.44937E+01 1.08800E+00 1.11332E-02 7.30927E-01-2.71898E-14 3.17830E-13
 -1       993 2.00021E+01-2.40419E-03 7.52808E-08-1.25416E-03 6.95797E-14 6.79998E-14
 -1       994 1.72788E+01 3.50115E-01 2.91509E-03-2.14551E+00 4.51495E-14 6.27299E-14
 -1       995 1.66993E+01-2.46335E-01 1.34724E-02-2.92075E+00 1.66637E-13-1.35196E-14
 -1       996 1.46405E+01 9.64993E-01 9.35058E-03-1.26044E+00 4.94187E-14 1.77329E-13
 -1       997 2.00031E+01-2.48612E-03 2.00595E-07-9.51913E-04-4.65413E-16-1.65582E-13
 -1       998 2.00033E+01-2.54635E-03 7.23524E-07 1.09935E-07-1.09683E-14-2.56056E-13
 -1       999 1.78917E+01 1.08358E+00-6.27044E-04-7.03119E-01-3.41445E-14 3.54276E-14
 -1      1000 1.83642E+01 1.04183E+00-3.18000E-04-5.55538E-01-5.48517E-14-2.82448E-14
 -1      1001 1.87382E+01 9.60318E-01-1.86153E-04-4.47499E-01-2.92150E-14-2.78001E-14
 -1      1002 1.90347E+01 8.57386E-01-1.26617E-04-3.62367E-01 4.37281E-14 9.72639E-15
 -1      1003 1.92699E+01 7.45093E-01-9.21874E-05-2.92426E-01-2.98874E-14-1.05220E-14
 -1      1004 1.94555E+01 6.32407E-01-7.15612E-05-2.33930E-01-2.80682E-14 5.01393E-14
 -1      1005 1.96007E+01 5.25536E-01-5.75734E-05-1.84869E-01 1.15393E-13-6.22185E-14
 -1      1006 1.97129E+01 4.28333E-01-4.68982E-05-1.43995E-01-2.62628E-14-8.41678E-14
 -1      1007 1.97985E+01 3.42791E-01-3.81494E-05-1.10347E-01-1.38685E-13-1.19659E-13
 -1      1008 1.98628E+01 2.69535E-01-3.07626E-05-8.30576E-02-4.61110E-14-1.56177E-14
 -1      1009 1.99102E+01 2.08255E-01-2.44956E-05-6.12850E-02-3.44293E-14 2.23513E-14
 -1      1010 1.99444E+01 1.58052E-01-1.92206E-05-4.42109E-02 1.03566E-13-1.83455E-13
 -1      1011 1.99686E+01 1.17707E-01-1.48414E-05-3.10594E-02-4.38779E-14-1.60732E-13
 -1      1012 1.99851E+01 8.58697E-02-1.12644E-05-2.11186E-02 3.28245E-14-2.25067E-13
 -1      1013 1.99960E+01 6.11922E-02-8.39209E-06-1.37549E-02-2.27020E-13-1.59067E-13
 -1      1014 2.00028E+01 4.24076E-02-6.12546E-06-8.42048E-03-2.95667E-13-2.72584E-13
 -1      1015 2.00067E+01 2.83780E-02-4.36824E-06-4.65401E-03-2.27309E-13-4.55948E-13
 -1      1016 2.00086E+01 1.81139E-02-3.03080E-06-2.07560E-03-9.57914E-15-6.39142E-13
 -1      1017 2.00092E+01 1.07781E-02-2.03297E-06-3.79193E-04-1.21186E-13-4.61386E-13
 -1      1018 2.00089E+01 5.67769E-03-1.30529E-06 6.76891E-04 1.06414E-13-3.69539E-13
 -1      1019 2.00081E+01 2.25081E-03-7.85941E-07 1.27972E-03 3.65405E-13-1.56073E-13
 -1      1020 2.00071E+01 4.95932E-05-3.92141E-07 1.57113E-03 1.00678E-13-2.62415E-14
 -1      1021 2.00059E+01-1.27694E-03-1.00896E-07 1.65694E-03 1.62328E-13-1.14843E-15
 -1      1022 2.00048E+01-2.00123E-03 1.61432E-07 1.61215E-03 3.14333E-14-1.35826E-13
 -1      1023 2.00037E+01-2.33263E-03 1.13866E-06 1.49916E-03-5.51803E-14-1.46600E-13
 -1      1024 1.69660E+01 5.55663E-01 1.51671E-03 1.85942E+00-1.32688E-13-4.43171E-14
 -1      1025 1.82564E+01 8.23132E-01-5.06611E-04 1.11620E+00-8.08068E-14-2.13837E-14
 -1      1026 1.85897E+01 8.69023E-01-3.46339E-04 8.64486E-01-6.54908E-15-2.40449E-14
 -1      1027 1.88816E+01 8.48392E-01-2.06711E-04 6.77778E-01-1.40428E-14-1.42170E-13
 -1      1028 1.91267E+01 7.85791E-01-1.60836E-04 5.34569E-01-8.80979E-14-1.82345E-13
 -1      1029 1.93291E+01 7.00352E-01-1.29445E-04 4.21512E-01-3.05735E-13-1.79404E-13
 -1      1030 1.94935E+01 6.05412E-01-1.04487E-04 3.30736E-01-1.10089E-13-2.31067E-13
 -1      1031 1.96250E+01 5.10088E-01-8.44604E-05 2.57340E-01-8.29363E-14-1.70751E-13
 -1      1032 1.97283E+01 4.20231E-01-6.80952E-05 1.98024E-01-7.01108E-14-6.83311E-14
 -1      1033 1.98081E+01 3.39222E-01-5.44921E-05 1.50366E-01 3.83550E-15-1.37373E-13
 -1      1034 1.98686E+01 2.68644E-01-4.31141E-05 1.12431E-01 2.91318E-14-2.46567E-13
 -1      1035 1.99136E+01 2.08846E-01-3.36360E-05 8.25872E-02 4.41077E-14 4.94162E-14
 -1      1036 1.99463E+01 1.59371E-01-2.58251E-05 5.94247E-02-3.73252E-14 1.18942E-13
 -1      1037 1.99695E+01 1.19298E-01-1.94807E-05 4.17142E-02-3.08754E-14-6.78651E-15
 -1      1038 1.99854E+01 8.74689E-02-1.44105E-05 2.83933E-02-1.50939E-13-8.80870E-14
 -1      1039 1.99960E+01 6.26601E-02-1.04278E-05 1.85550E-02-1.01037E-13 5.69227E-15
 -1      1040 2.00026E+01 4.36814E-02-7.35494E-06 1.14371E-02-4.08921E-14 1.47021E-14
 -1      1041 2.00064E+01 2.94402E-02-5.02813E-06 6.41011E-03-1.60137E-13 1.07845E-13
 -1      1042 2.00083E+01 1.89726E-02-3.30116E-06 2.96255E-03-3.71390E-13 1.91990E-13
 -1      1043 2.00088E+01 1.14545E-02-2.04725E-06 6.85883E-04-2.72926E-13 1.55377E-13
 -1      1044 2.00086E+01 6.19833E-03-1.15922E-06-7.40701E-04-2.42138E-13 4.58132E-14
 -1      1045 2.00078E+01 2.64295E-03-5.48860E-07-1.56478E-03-3.97303E-14 2.74196E-14
 -1      1046 2.00068E+01 3.38891E-04-1.35534E-07-1.97377E-03 2.09178E-13 2.30646E-14
 -1      1047 2.00058E+01-1.06687E-03 2.20856E-07-2.10617E-03-5.23112E-14 1.05789E-13
 -1      1048 2.00047E+01-1.84594E-03 7.10094E-07-2.06592E-03-5.92843E-14-2.09676E-14
 -1      1049 2.00037E+01-2.22910E-03 9.11587E-08-1.92335E-03 3.03557E-13-2.23895E-13
 -1      1050 1.72842E+01 1.06588E+00-2.30968E-03-9.08057E-01 1.11179E-14 1.29280E-13
 -1      1051 2.00031E+01-2.49101E-03-2.60986E-07 9.28329E-04-7.93501E-14-1.07562E-13
 -1      1052 1.77326E+01 7.24870E-01 2.48202E-03 1.40260E+00-6.27356E-14-6.35991E-14
 -1      1053 1.62481E+01 1.03536E+00 7.96746E-04-1.05709E+00 2.05076E-14 7.44055E-14
 -1      1054 1.59223E+01 1.22520E+00 2.73479E-03 2.34499E-01-4.44926E-14 1.95057E-13
 -1      1055 2.00026E+01-2.34404E-03 1.30286E-06-1.67801E-03 1.74807E-13 3.22236E-14
 -1      1056 2.00041E+01-2.42415E-03-3.90083E-06-5.40964E-04-2.72986E-14-4.91608E-13
 -1      1057 1.83977E+01 1.06592E+00-3.25695E-04-1.49185E-01-8.49138E-14-6.96158E-14
 -1      1058 1.87689E+01 9.60112E-01-2.29414E-04-1.28072E-01-4.08457E-14-2.10972E-13
 -1      1059 1.90616E+01 8.43191E-01-1.54733E-04-1.08617E-01-3.22649E-14-2.31445E-13
 -1      1060 1.92927E+01 7.23609E-01-1.05922E-04-9.06607E-02 2.71736E-14-2.43411E-13
 -1      1061 1.94743E+01 6.07987E-01-7.21514E-05-7.42969E-02-6.76724E-14-2.36257E-13
 -1      1062 1.96160E+01 5.00910E-01-4.78087E-05-5.97042E-02 5.14015E-14-3.53700E-13
 -1      1063 1.97252E+01 4.05124E-01-3.01116E-05-4.70139E-02-6.29606E-14-2.75828E-13
 -1      1064 1.98082E+01 3.21876E-01-1.74071E-05-3.62556E-02-1.49492E-13-3.01877E-13
 -1      1065 1.98704E+01 2.51300E-01-8.52009E-06-2.73568E-02 9.71545E-15-2.99343E-13
 -1      1066 1.99160E+01 1.92769E-01-2.53159E-06-2.01667E-02-1.29762E-14-2.05572E-13
 -1      1067 1.99489E+01 1.45189E-01 1.29711E-06-1.44863E-02 4.43178E-14-1.88856E-13
 -1      1068 1.99720E+01 1.07231E-01 3.55699E-06-1.00964E-02-1.87553E-13-1.25612E-13
 -1      1069 1.99876E+01 7.74924E-02 4.71226E-06-6.77790E-03-2.02668E-13-3.23397E-13
 -1      1070 1.99979E+01 5.46093E-02 5.11911E-06-4.32664E-03-2.57737E-13-2.04375E-13
 -1      1071 2.00041E+01 3.73243E-02 5.04389E-06-2.56089E-03-3.24445E-13-5.67217E-14
 -1      1072 2.00076E+01 2.45226E-02 4.68029E-06-1.32500E-03-1.16008E-13 4.55760E-14
 -1      1073 2.00092E+01 1.52452E-02 4.16487E-06-4.89677E-04-1.01550E-13 6.30431E-15
 -1      1074 2.00096E+01 8.68797E-03 3.59104E-06 4.96985E-05 2.01935E-14 4.39907E-14
 -1      1075 2.00091E+01 4.19083E-03 3.02363E-06 3.75833E-04 3.13976E-13-8.90993E-14
 -1      1076 2.00082E+01 1.22224E-03 2.52417E-06 5.52809E-04 1.89141E-13-3.37211E-13
 -1      1077 2.00071E+01-6.38540E-04 2.08425E-06 6.29786E-04 7.88119E-14-4.81642E-13
 -1      1078 2.00059E+01-1.71474E-03 1.07940E-06 6.41492E-04 2.20999E-14-3.45176E-13
 -1      1079 2.00047E+01-2.28039E-03 4.41422E-07 6.14636E-04-1.08615E-13-2.90941E-13
 -1      1080 1.84376E+01 1.00818E+00 3.24141E-04 4.75223E-01 1.41466E-14 7.53078E-14
 -1      1081 1.87870E+01 9.28900E-01 2.82310E-04 3.65117E-01-3.46803E-14 2.18395E-13
 -1      1082 1.90673E+01 8.28996E-01 2.08267E-04 2.82332E-01-1.71153E-13 2.04809E-13
 -1      1083 1.92917E+01 7.20068E-01 1.51620E-04 2.18621E-01-1.29250E-13-1.06609E-14
 -1      1084 1.94701E+01 6.10751E-01 1.11811E-04 1.68780E-01-5.22901E-14-7.57354E-14
 -1      1085 1.96105E+01 5.07049E-01 8.35046E-05 1.29443E-01-3.44508E-14-6.34418E-14
 -1      1086 1.97196E+01 4.12721E-01 6.27693E-05 9.83286E-02-4.04739E-14-2.01496E-13
 -1      1087 1.98032E+01 3.29731E-01 4.71728E-05 7.37896E-02 5.77821E-14-7.61323E-14
 -1      1088 1.98661E+01 2.58711E-01 3.52424E-05 5.45673E-02 5.89491E-14-9.66694E-14
 -1      1089 1.99126E+01 1.99369E-01 2.60505E-05 3.96532E-02-1.07680E-13-4.53650E-14
 -1      1090 1.99462E+01 1.50831E-01 1.89722E-05 2.82174E-02 2.87472E-14-9.87041E-14
 -1      1091 1.99699E+01 1.11902E-01 1.35552E-05 1.95681E-02-1.73942E-14-5.07503E-14
 -1      1092 1.99861E+01 8.12584E-02 9.45224E-06 1.31281E-02-1.53064E-13 7.18418E-14
 -1      1093 1.99968E+01 5.75749E-02 6.38664E-06 8.41813E-03-1.60922E-13-3.96403E-14
 -1      1094 2.00034E+01 3.96089E-02 4.13381E-06 5.04473E-03-1.11989E-13 6.36988E-14
 -1      1095 2.00072E+01 2.62449E-02 2.51071E-06 2.68835E-03-1.88836E-13-4.40775E-15
 -1      1096 2.00089E+01 1.65149E-02 1.36904E-06 1.09314E-03-1.93843E-13-1.05894E-13
 -1      1097 2.00094E+01 9.60149E-03 5.90818E-07 5.71262E-05-4.01514E-14-3.41114E-13
 -1      1098 2.00090E+01 4.83017E-03 8.63802E-08-5.76733E-04-7.85197E-14-3.66684E-13
 -1      1099 2.00082E+01 1.65507E-03-2.08824E-07-9.28704E-04-1.55209E-14-6.02400E-13
 -1      1100 2.00071E+01-3.58246E-04-3.75263E-07-1.08964E-03 1.11072E-13-5.40975E-13
 -1      1101 2.00060E+01-1.55139E-03-2.91065E-07-1.12536E-03-8.26531E-14-5.88409E-13
 -1      1102 2.00050E+01-2.12764E-03-7.83589E-07-8.37153E-04 1.06426E-13-7.57728E-13
 -1      1103 1.72936E+01 1.21631E+00 2.54699E-03-2.09195E-01 3.77121E-14 1.17670E-13
 -1      1104 1.67106E+01 1.22658E+00 7.40338E-03-4.78213E-02 5.61036E-14 1.42595E-13
 -1      1105 1.80062E+01 1.04963E+00-1.05471E-03 6.26636E-01-8.11969E-14-3.23046E-14
 -1      1106 1.79220E+01 1.15311E+00 1.97746E-04-1.71719E-01-1.12900E-13 1.25340E-13
 -1      1107 1.70042E+01 1.03466E+00-8.14373E-03 9.12590E-01-1.01630E-13 4.68998E-14
 -1      1108 3.23365E+01 1.04740E+01 2.57664E+00-6.84236E+00-5.79536E-14 1.45345E-12
 -1      1109 2.40044E+01 7.30735E+00 3.53327E-01-3.14696E+00-2.80886E-14 7.23380E-14
 -1      1110 2.16864E+01 6.55150E+00 1.51864E-01-1.66024E+00-1.89293E-14-5.01656E-13
 -1      1111 1.99248E+01 6.00554E+00 9.36343E-02-7.26738E-01-1.04361E-14-7.64786E-13
 -1      1112 1.83025E+01 5.50496E+00 4.73411E-02-9.29203E-02-7.24421E-15-8.92700E-13
 -1      1113 1.68178E+01 5.04364E+00-5.68464E-03 2.53118E-01-2.58127E-15-9.52430E-13
 -1      1114 1.55955E+01 4.66157E+00-5.69276E-02 3.09957E-01-4.30211E-16-9.77799E-13
 -1      1115 1.48107E+01 4.41529E+00-9.30675E-02 1.26700E-01 6.73073E-16-9.76438E-13
 -1      1116 1.46232E+01 4.35701E+00-9.97908E-02-1.75074E-01 2.65760E-15-9.50971E-13
 -1      1117 1.50593E+01 4.49549E+00-7.43647E-02-4.28208E-01 4.74620E-15-9.05793E-13
 -1      1118 1.60091E+01 4.79478E+00-2.64933E-02-4.85100E-01 5.60663E-15-8.36649E-13
 -1      1119 1.72693E+01 5.18899E+00 2.73694E-02-2.71805E-01 8.71525E-15-7.37058E-13
 -1      1120 1.86621E+01 5.62030E+00 7.22496E-02 2.13254E-01 1.18794E-14-6.02927E-13
 -1      1121 2.01070E+01 6.06380E+00 1.05644E-01 9.42060E-01 1.63758E-14-3.93378E-13
 -1      1122 2.16475E+01 6.53735E+00 1.43596E-01 1.91180E+00 2.14273E-14-2.71935E-14
 -1      1123 2.36553E+01 7.17834E+00 2.72477E-01 3.30613E+00 2.31482E-14 6.50348E-13
 -1      1124 2.92266E+01 9.26139E+00 1.64458E+00 5.92355E+00 4.71290E-14 2.00592E-12
 -1      1125 3.36010E+01 3.86331E+00 1.21122E+00-4.34701E+00-2.14356E-13 2.30788E-12
 -1      1126 2.57653E+01-1.91067E-01-6.49526E-01-2.26766E-03-7.98181E-14 1.81538E-12
 -1      1127 2.51640E+01-6.31515E-02-1.74985E-01 9.29512E-02-2.56357E-14 1.17040E-12
 -1      1128 2.50664E+01 5.26964E-03 3.11792E-02 4.03340E-02-2.17187E-14 7.69405E-13
 -1      1129 2.46350E+01 4.25104E-02 9.49360E-02-7.45092E-03-1.75706E-14 4.71850E-13
 -1      1130 2.35949E+01 5.26322E-02 1.00825E-01-5.78584E-02-6.10406E-15 3.19904E-13
 -1      1131 2.18943E+01 2.74490E-02 5.10765E-02-1.01104E-01 4.36738E-15 1.59289E-13
 -1      1132 1.98549E+01-3.21027E-02-5.01071E-02-1.12458E-01 4.78350E-16 6.52534E-14
 -1      1133 1.81691E+01-9.77838E-02-1.57545E-01-7.21307E-02 7.82013E-15-1.60781E-13
 -1      1134 1.75820E+01-1.24839E-01-2.00751E-01 8.84273E-03-1.39125E-15-3.90875E-13
 -1      1135 1.83915E+01-8.95556E-02-1.46482E-01 8.71417E-02 9.45598E-15-5.36862E-13
 -1      1136 2.02183E+01-2.01371E-02-3.55064E-02 1.22805E-01 2.65890E-14-4.79269E-13
 -1      1137 2.22905E+01 4.06915E-02 6.34469E-02 1.09538E-01-1.19531E-14-6.73100E-13
 -1      1138 2.39232E+01 6.79793E-02 1.08795E-01 6.85569E-02-1.43817E-14-7.16482E-13
 -1      1139 2.48052E+01 6.49328E-02 1.03866E-01 2.62809E-02-5.49040E-15-7.70172E-13
 -1      1140 2.49744E+01 4.66884E-02 7.34103E-02-3.14703E-03-2.20475E-14-8.10625E-13
 -1      1141 2.46413E+01 2.61502E-02 3.96026E-02-1.80293E-02-2.86390E-14-8.66496E-13
 -1      1142 2.40362E+01 9.66841E-03 1.34720E-02-2.23933E-02-2.21368E-14-9.49549E-13
 -1      1143 2.33370E+01-1.16571E-03-2.77721E-03-2.09912E-02 1.54356E-14-1.09317E-12
 -1      1144 2.26549E+01-7.16193E-03-1.10275E-02-1.72454E-02 3.37016E-14-1.14229E-12
 -1      1145 2.20474E+01-9.75476E-03-1.40462E-02-1.30809E-02-1.01453E-14-1.03825E-12
 -1      1146 2.15364E+01-1.02490E-02-1.41086E-02-9.36739E-03-2.28257E-15-7.60024E-13
 -1      1147 2.11234E+01-9.59602E-03-1.27319E-02-6.38473E-03 1.32961E-14-6.15970E-13
 -1      1148 2.07996E+01-8.41148E-03-1.08097E-02-4.13337E-03-6.57370E-14-9.08977E-13
 -1      1149 2.05521E+01-7.06086E-03-8.81956E-03-2.50625E-03 2.09713E-14-8.24168E-13
 -1      1150 2.03671E+01-5.74366E-03-6.99016E-03-1.37182E-03 1.14048E-14-5.94454E-13
 -1      1151 2.02321E+01-4.55714E-03-5.41211E-03-6.08582E-04 3.69202E-14-6.37817E-13
 -1      1152 2.01358E+01-3.53905E-03-4.10411E-03-1.16212E-04-1.06537E-14-1.02729E-12
 -1      1153 2.00692E+01-2.69437E-03-3.05016E-03 1.83579E-04 2.93689E-14-1.18806E-12
 -1      1154 2.00246E+01-2.01133E-03-2.21967E-03 3.49869E-04 2.71402E-14-9.77781E-13
 -1      1155 1.99962E+01-1.47071E-03-1.57785E-03 4.26240E-04-5.88346E-14-8.35092E-13
 -1      1156 1.99793E+01-1.05094E-03-1.09088E-03 4.44252E-04 6.57706E-14-5.05149E-13
 -1      1157 1.99705E+01-7.30994E-04-7.28251E-04 4.26349E-04-5.05680E-14-3.66069E-13
 -1      1158 1.99670E+01-4.91658E-04-4.63580E-04 3.88168E-04-4.03388E-14-8.92196E-13
 -1      1159 1.99671E+01-3.16187E-04-2.74762E-04 3.40329E-04 2.99885E-14-1.30213E-12
 -1      1160 1.99692E+01-1.90410E-04-1.43679E-04 2.89804E-04 5.54334E-14-9.46782E-13
 -1      1161 1.99725E+01-1.02621E-04-5.57585E-05 2.40951E-04-2.65900E-14-4.97568E-13
 -1      1162 1.99762E+01-4.33433E-05 5.15562E-07 1.96292E-04-4.42655E-14-2.81520E-13
 -1      1163 1.99801E+01-5.03682E-06 3.41036E-05 1.57096E-04 1.12851E-14-1.74379E-13
 -1      1164 1.99837E+01 1.82021E-05 5.18728E-05 1.23798E-04 3.14528E-14-1.06079E-14
 -1      1165 1.99870E+01 3.09344E-05 5.90171E-05 9.63020E-05-2.99455E-14 1.36267E-13
 -1      1166 1.99899E+01 3.66469E-05 5.94317E-05 7.41981E-05 1.46674E-14-5.17117E-14
 -1      1167 1.99923E+01 3.79946E-05 5.60508E-05 5.68903E-05-1.20311E-14-1.51010E-13
 -1      1168 1.99944E+01 3.70125E-05 5.11674E-05 4.36600E-05-6.77263E-14-2.30800E-13
 -1      1169 1.99962E+01 3.52875E-05 4.67505E-05 3.36461E-05 4.82808E-15-3.54887E-13
 -1      1170 1.99976E+01 3.40635E-05 4.47016E-05 2.56952E-05 7.41393E-14 3.01100E-13
 -1      1171 1.99987E+01 3.41877E-05 4.65411E-05 1.79766E-05 4.11417E-14 6.47068E-13
 -1      1172 1.99994E+01 3.50507E-05 5.04704E-05 6.98517E-06-7.01401E-15 6.36607E-13
 -1      1173 1.99998E+01 3.82032E-05 4.00683E-05-1.41495E-05-4.57608E-14-4.94513E-14
 -1      1174 1.99998E+01-1.70886E-05-3.61898E-05-1.72643E-05 9.23086E-14 8.33438E-14
 -1      1175 3.21229E+01 5.88256E-01 2.63213E-01 2.06959E+00-3.81917E-14 3.11612E-12
 -1      1176 2.50793E+01-5.10701E-02-5.86433E-01 8.05689E-02 2.55004E-14 2.52626E-12
 -1      1177 2.44310E+01-7.22530E-03-1.37979E-01-1.82472E-02 1.13945E-14 1.94059E-12
 -1      1178 2.41052E+01 2.44067E-02 3.03813E-02-2.65620E-02 1.54911E-14 1.58007E-12
 -1      1179 2.35350E+01 3.65940E-02 7.90189E-02-1.60740E-02 5.34685E-15 1.33646E-12
 -1      1180 2.24934E+01 2.80278E-02 7.62762E-02 1.04274E-02 2.40593E-14 1.04780E-12
 -1      1181 2.09830E+01-1.76352E-03 3.18721E-02 4.66373E-02-3.05290E-15 8.75230E-13
 -1      1182 1.92961E+01-4.10606E-02-4.34901E-02 7.69059E-02-1.25143E-14 9.13533E-13
 -1      1183 1.79661E+01-6.78515E-02-1.16187E-01 8.13439E-02 7.86610E-15 7.21131E-13
 -1      1184 1.75250E+01-6.56910E-02-1.44538E-01 5.10924E-02 4.36890E-15 6.00412E-13
 -1      1185 1.81776E+01-3.81885E-02-1.11562E-01-5.49535E-04 2.37553E-14 4.76869E-13
 -1      1186 1.96570E+01-4.59614E-03-4.10123E-02-4.74765E-02 1.56168E-15 2.73850E-13
 -1      1187 2.14003E+01 1.93699E-02 2.63627E-02-7.02192E-02-2.73588E-15 2.64552E-13
 -1      1188 2.28743E+01 2.85756E-02 6.40850E-02-6.71554E-02-5.20851E-16 1.89224E-13
 -1      1189 2.37899E+01 2.67938E-02 6.95849E-02-4.85963E-02-7.55906E-16 1.77226E-13
 -1      1190 2.41187E+01 1.99010E-02 5.53187E-02-2.66701E-02-1.49312E-14 1.21006E-13
 -1      1191 2.39899E+01 1.21820E-02 3.49687E-02-8.74703E-03-9.29009E-15-7.75543E-14
 -1      1192 2.35775E+01 5.74227E-03 1.69341E-02 2.91786E-03 1.13634E-14-2.23252E-13
 -1      1193 2.30335E+01 1.20126E-03 4.22540E-03 9.02438E-03-3.81205E-15-4.63376E-13
 -1      1194 2.24646E+01-1.60526E-03-3.30816E-03 1.12374E-02 9.48915E-15-4.11018E-13
 -1      1195 2.19339E+01-3.09396E-03-7.00029E-03 1.11495E-02 5.89069E-15-3.24287E-13
 -1      1196 2.14724E+01-3.68839E-03-8.24312E-03 9.91512E-03-1.99360E-14-1.07416E-13
 -1      1197 2.10896E+01-3.72865E-03-8.10082E-03 8.25383E-03 1.77386E-14-2.85830E-13
 -1      1198 2.07834E+01-3.45789E-03-7.27436E-03 6.56394E-03 7.87250E-15-4.46071E-13
 -1      1199 2.05455E+01-3.03727E-03-6.18359E-03 5.03853E-03-3.63506E-15-3.36019E-13
 -1      1200 2.03656E+01-2.56727E-03-5.06084E-03 3.75136E-03-4.21467E-15-6.36173E-14
 -1      1201 2.02329E+01-2.10656E-03-4.02327E-03 2.71251E-03-4.52724E-14 2.21079E-13
 -1      1202 2.01375E+01-1.68641E-03-3.12119E-03 1.90146E-03 3.47013E-14-7.98508E-14
 -1      1203 2.00709E+01-1.32084E-03-2.36786E-03 1.28550E-03-3.55087E-15-1.55945E-13
 -1      1204 2.00262E+01-1.01346E-03-1.75726E-03 8.29448E-04 1.03861E-14-7.52755E-14
 -1      1205 1.99974E+01-7.61916E-04-1.27426E-03 5.00367E-04-3.54083E-15 1.96488E-13
 -1      1206 1.99803E+01-5.60756E-04-9.00350E-04 2.69540E-04 7.12580E-15 1.83116E-13
 -1      1207 1.99711E+01-4.03210E-04-6.16785E-04 1.13014E-04-1.66777E-14 2.33209E-13
 -1      1208 1.99675E+01-2.82259E-04-4.06181E-04 1.14284E-05-2.98760E-14 3.83687E-13
 -1      1209 1.99674E+01-1.91250E-04-2.53236E-04-5.04852E-05 1.98408E-14 3.84234E-13
 -1      1210 1.99694E+01-1.24208E-04-1.44965E-04-8.45081E-05-1.30874E-14-7.60183E-14
 -1      1211 1.99726E+01-7.59708E-05-7.06423E-05-9.95504E-05 5.12727E-15-6.71918E-13
 -1      1212 1.99763E+01-4.22019E-05-2.16102E-05-1.02216E-04 9.73359E-15-6.01053E-13
 -1      1213 1.99801E+01-1.93413E-05 8.98783E-06-9.73006E-05-1.62581E-14 1.12486E-13
 -1      1214 1.99837E+01-4.51668E-06 2.64915E-05-8.82064E-05 1.30153E-14 3.00167E-13
 -1      1215 1.99870E+01 4.56287E-06 3.50049E-05-7.72924E-05-1.96233E-15-4.36474E-14
 -1      1216 1.99898E+01 9.71963E-06 3.76653E-05-6.61513E-05-6.47151E-14 3.86555E-13
 -1      1217 1.99923E+01 1.24227E-05 3.69013E-05-5.58287E-05 8.98913E-14-1.89287E-13
 -1      1218 1.99944E+01 1.39034E-05 3.47005E-05-4.69857E-05-3.70576E-14-5.97518E-13
 -1      1219 1.99962E+01 1.52495E-05 3.29024E-05-3.99798E-05-6.60648E-14-3.54995E-13
 -1      1220 1.99976E+01 1.73876E-05 3.34236E-05-3.48222E-05 5.15102E-14-5.81311E-13
 -1      1221 1.99987E+01 2.10975E-05 3.79992E-05-3.09073E-05-1.33584E-14-1.17336E-12
 -1      1222 1.99994E+01 2.52588E-05 4.46589E-05-2.53309E-05 1.14147E-14-1.21260E-12
 -1      1223 1.99998E+01 1.95215E-05 3.43950E-05-9.40867E-06 1.13423E-13-1.49159E-12
 -1      1224 1.99998E+01-1.49875E-05-3.70164E-05 1.54521E-05 1.03913E-14-1.09538E-12
 -1      1225 1.99998E+01 4.47402E-05-3.42934E-05 1.48963E-05-1.14774E-12-1.12493E-13
 -1      1226 1.99998E+01 1.66628E-05 3.75385E-05 1.16755E-05-9.86139E-13 4.52021E-14
 -1      1227 1.99998E+01-3.89505E-04 4.07967E-05-1.41705E-05 5.58430E-13 2.89463E-13
 -1      1228 1.99998E+01-1.09025E-03 2.06677E-05-2.56958E-05 6.91676E-13 8.93956E-15
 -1      1229 1.99998E+01-1.92281E-03-1.95054E-06-2.84361E-05 1.49963E-12-7.37063E-14
 -1      1230 1.99998E+01-2.73053E-03-2.07965E-05-2.53433E-05 5.66804E-13-1.14525E-13
 -1      1231 1.99998E+01-3.39797E-03-3.43627E-05-1.90479E-05 9.35283E-13 1.85817E-14
 -1      1232 1.99998E+01-3.83924E-03-4.27814E-05-1.00347E-05 8.77207E-13 2.41167E-14
 -1      1233 1.99998E+01-3.99089E-03-4.55678E-05 8.68556E-08 4.95454E-13-1.46830E-13
 -1      1234 1.99998E+01-3.83416E-03-4.26852E-05 1.02052E-05 6.77490E-13 1.11957E-13
 -1      1235 1.99998E+01-3.38848E-03-3.41283E-05 1.91708E-05 5.92999E-13-2.19352E-14
 -1      1236 1.99998E+01-2.71756E-03-2.04161E-05 2.57912E-05 4.74467E-13 7.09961E-14
 -1      1237 1.99998E+01-1.90883E-03-1.68385E-06 2.84586E-05-2.25940E-13 4.02909E-14
 -1      1238 1.99998E+01-1.07659E-03 2.12173E-05 2.59888E-05-4.30665E-13-1.42406E-13
 -1      1239 1.99998E+01-3.68862E-04 4.39696E-05 1.69964E-05-2.23102E-13 7.87253E-14
 -1      1240 1.99998E+01 3.66547E-06 3.38141E-05-2.32806E-05-2.74111E-13-3.66627E-14
 -1      1241 1.99998E+01 5.03623E-05-3.46965E-05-1.70638E-05-6.24249E-14 6.27039E-14
 -1      1242-1.02496E+00-2.34501E+01-3.71048E+00-1.98903E+00 1.11872E-12 2.38750E-13
 -1      1243-1.70816E+00-1.53608E+01-3.08640E+00-3.89490E+00 2.19957E-12 7.86093E-13
 -1      1244-9.30689E-02-3.46486E+00-1.99560E+00-7.11338E-01 3.27227E-12 1.95799E-12
 -1      1245 8.47142E+00 7.21514E+00-3.83114E-01 7.72472E+00 3.00404E-12 2.63167E-12
 -1      1246 2.50134E+01 1.11946E+01 1.33322E+00 1.60513E+01 1.88238E-12 2.58482E-12
 -1      1247 4.50498E+01 8.33318E+00 2.83035E+00 1.78798E+01 8.44103E-13 1.75104E-12
 -1      1248 6.15222E+01 3.42589E+00 3.86916E+00 1.09880E+01 1.67422E-13 3.43281E-13
 -1      1249 6.65808E+01 1.68033E+00 4.19337E+00-1.72072E+00 1.44801E-13-1.37163E-12
 -1      1250 5.72789E+01 4.87766E+00 3.63678E+00-1.33312E+01 8.66862E-13-2.97529E-12
 -1      1251 3.86518E+01 9.51332E+00 2.37857E+00-1.77200E+01 2.05547E-12-3.92264E-12
 -1      1252 1.83516E+01 1.02744E+01 6.22426E-01-1.31232E+01 3.05200E-12-3.71125E-12
 -1      1253 4.53073E+00 4.44930E+00-1.01125E+00-4.57523E+00 3.43992E-12-2.74780E-12
 -1      1254-8.89123E-01-5.76832E+00-2.28212E+00 1.80611E+00 2.95719E-12-1.57008E-12
 -1      1255-1.39190E+00-1.63997E+01-3.10659E+00 3.50987E+00 1.67966E-12-5.68462E-13
 -1      1256-7.89359E-01-2.21468E+01-3.50227E+00 6.57240E-01-1.14742E-13-1.35704E-13
 -1      1257-1.24217E+00-1.94030E+01-3.34035E+00-2.98826E+00-1.84464E-12-4.64490E-13
 -1      1258-1.49520E+00-1.00341E+01-2.68828E+00-3.13657E+00-3.08931E-12-1.36341E-12
 -1      1259 2.01098E+00 1.26559E+00-1.51455E+00 2.02818E+00-3.71414E-12-2.61402E-12
 -1      1260 1.28057E+01 9.12212E+00 6.51895E-03 1.05279E+01-3.39018E-12-3.56293E-12
 -1      1261 3.11660E+01 1.04315E+01 1.75381E+00 1.71247E+01-2.40863E-12-3.89466E-12
 -1      1262 5.16707E+01 6.56782E+00 3.28346E+00 1.58510E+01-1.18594E-12-3.22764E-12
 -1      1263 6.54215E+01 2.28764E+00 4.17397E+00 6.50575E+00-3.12025E-13-1.71518E-12
 -1      1264 6.60637E+01 2.11614E+00 4.22536E+00-6.10116E+00-8.23369E-14-1.31006E-14
 -1      1265 5.43531E+01 6.05248E+00 3.48697E+00-1.55107E+01-4.43978E-13 1.16063E-12
 -1      1266 3.63573E+01 1.02596E+01 2.26581E+00-1.81434E+01-1.15774E-12 2.01794E-12
 -1      1267 1.86125E+01 1.08632E+01 7.35106E-01-1.37533E+01-2.13385E-12 2.52398E-12
 -1      1268 5.86063E+00 5.78589E+00-7.66395E-01-5.90541E+00-2.85927E-12 2.37499E-12
 -1      1269-4.66839E-01-4.24821E+00-2.12214E+00 1.11834E+00-2.93010E-12 1.65978E-12
 -1      1270-1.80650E+00-1.56893E+01-3.17877E+00 3.94953E+00-2.16849E-12 7.65776E-13
 -1      1271-1.18632E+00-2.32558E+01-3.70377E+00 2.07891E+00-4.65572E-13 2.58068E-13
 -1      1272 2.68232E+01 2.09902E+00-7.69065E-01-2.52302E+00-8.15181E-14 1.12388E-12
 -1      1273 2.36830E+01 5.12763E+00-3.57576E-02-2.44954E+00-1.90625E-13-1.89224E-13
 -1      1274 2.47766E+01 5.36430E+00-6.67852E-02-3.55273E+00-2.63067E-13 1.07594E-13
 -1      1275 2.15842E+01 5.23798E+00-1.24779E-02-1.44718E+00-1.66256E-13-6.09686E-13
 -1      1276 2.25460E+01 5.52176E+00 3.32396E-02-2.00663E+00-1.98008E-13-4.30392E-13
 -1      1277 2.37323E+01 4.08216E+00-1.55726E-02-2.20569E+00-3.23519E-13-1.55445E-13
 -1      1278 1.98058E+01 5.05573E+00-8.41246E-03-6.32551E-01-1.16240E-13-8.19206E-13
 -1      1279 2.06919E+01 5.32687E+00 3.44639E-02-1.02263E+00-1.42691E-13-7.27238E-13
 -1      1280 2.15737E+01 4.35310E+00-2.46063E-02-1.33801E+00-2.47625E-13-5.16281E-13
 -1      1281 1.81031E+01 4.84681E+00-1.85898E-02-5.62187E-02-6.64468E-14-9.23662E-13
 -1      1282 1.89569E+01 5.10532E+00 3.07002E-02-3.12504E-01-8.38080E-14-8.81410E-13
 -1      1283 1.96751E+01 4.39676E+00-2.71560E-02-5.79404E-01-1.59966E-13-7.02060E-13
 -1      1284 1.65481E+01 4.69301E+00-3.39440E-02 2.42783E-01-2.62290E-14-9.69586E-13
 -1      1285 1.73130E+01 4.92371E+00 2.03217E-02 1.26958E-01-4.01901E-14-9.49232E-13
 -1      1286 1.78819E+01 4.44295E+00-2.61026E-02-4.80260E-02-8.85091E-14-7.93209E-13
 -1      1287 1.52758E+01 4.61403E+00-4.55396E-02 2.62061E-01 6.69603E-15-9.88558E-13
 -1      1288 1.58675E+01 4.79106E+00 1.71755E-03 2.78511E-01-3.27516E-15-9.82758E-13
 -1      1289 1.62577E+01 4.54324E+00-2.31424E-02 2.08723E-01-2.46192E-14-8.45666E-13
 -1      1290 1.45502E+01 4.60564E+00-4.45539E-02 5.35179E-02 2.83350E-14-9.81980E-13
 -1      1291 1.48373E+01 4.69129E+00-2.11101E-02 1.63140E-01 1.99146E-14-9.88771E-13
 -1      1292 1.50123E+01 4.66092E+00-1.97918E-02 1.86067E-01 2.01592E-14-8.53141E-13
 -1      1293 1.45285E+01 4.63988E+00-2.98278E-02-2.40809E-01 4.71914E-14-9.50834E-13
 -1      1294 1.44474E+01 4.61568E+00-3.97517E-02-1.13057E-01 3.69002E-14-9.70209E-13
 -1      1295 1.44094E+01 4.72111E+00-1.77433E-02-3.98471E-02 5.39928E-14-8.45562E-13
 -1      1296 1.51984E+01 4.69827E+00-7.26065E-03-4.43739E-01 6.82857E-14-8.98105E-13
 -1      1297 1.47790E+01 4.57312E+00-4.62955E-02-3.79597E-01 5.84879E-14-9.28356E-13
 -1      1298 1.45817E+01 4.67654E+00-1.84751E-02-3.06093E-01 8.44116E-14-8.07147E-13
 -1      1299 1.63821E+01 4.78349E+00 1.38643E-02-4.15854E-01 9.34114E-14-8.20826E-13
 -1      1300 1.57319E+01 4.58968E+00-3.86411E-02-4.71863E-01 8.21981E-14-8.66023E-13
 -1      1301 1.54668E+01 4.54864E+00-2.12609E-02-4.32568E-01 1.20032E-13-7.54377E-13
 -1      1302 1.78065E+01 4.91002E+00 2.76900E-02-1.10816E-01 1.29549E-13-7.18418E-13
 -1      1303 1.70656E+01 4.68641E+00-2.23840E-02-2.97799E-01 1.16032E-13-7.75616E-13
 -1      1304 1.68279E+01 4.41213E+00-2.34544E-02-3.03312E-01 1.66790E-13-6.67673E-13
 -1      1305 1.93245E+01 5.08938E+00 3.31785E-02 4.60324E-01 1.78066E-13-5.66713E-13
 -1      1306 1.85550E+01 4.85479E+00-6.89186E-03 1.47463E-01 1.56528E-13-6.49741E-13
 -1      1307 1.84046E+01 4.33214E+00-2.50602E-02 1.03315E-01 2.30104E-13-5.50514E-13
 -1      1308 2.08426E+01 5.30333E+00 3.18739E-02 1.24762E+00 2.22350E-13-3.36921E-13
 -1      1309 2.00718E+01 5.06371E+00-5.82406E-04 8.26787E-01 1.98494E-13-4.72393E-13
 -1      1310 2.00333E+01 4.31976E+00-2.59968E-02 7.48224E-01 2.99281E-13-3.84429E-13
 -1      1311 2.24760E+01 5.50051E+00 3.23209E-02 2.25083E+00 2.54019E-13 5.52960E-14
 -1      1312 2.16197E+01 5.23266E+00-9.34037E-03 1.69358E+00 2.28276E-13-1.80425E-13
 -1      1313 2.16898E+01 4.30098E+00-2.49264E-02 1.56841E+00 3.66665E-13-1.25282E-13
 -1      1314 2.46797E+01 5.42410E+00 3.74824E-02 3.63663E+00 2.24959E-13 7.74297E-13
 -1      1315 2.34647E+01 5.16407E+00-3.26680E-02 2.75346E+00 2.17965E-13 3.39742E-13
 -1      1316 2.36142E+01 4.03809E+00-1.26306E-02 2.50546E+00 3.80349E-13 3.12056E-13
 -1      1317 3.16001E+01 3.53259E+00 9.77892E-01 4.62016E+00 1.04999E-13 2.09843E-12
 -1      1318 2.59363E+01 3.89084E+00-1.86938E-01 3.60582E+00 1.12188E-13 1.17911E-12
 -1      1319 2.60808E+01 2.67657E+00-1.22991E-02 3.01734E+00 3.69784E-13 9.52821E-13
 -1      1320 2.58472E+01 3.22541E-01-8.20528E-01 8.89963E-01 1.91125E-13 2.02582E-12
 -1      1321 2.70127E+01 6.24531E-02-4.28778E-01-9.59903E-01-2.11386E-13 1.22632E-12
 -1      1322 2.60405E+01 2.55696E-01-1.56109E-01-5.24417E-01-1.91000E-13 9.80160E-13
 -1      1323 2.55731E+01 1.02682E-01-6.67036E-02-2.10889E-01-1.49405E-13 8.90236E-13
 -1      1324 2.53061E+01 2.75520E-02-6.02701E-03-1.75019E-01-1.45179E-13 6.66397E-13
 -1      1325 2.58493E+01 2.55526E-01-1.03998E-01-8.42135E-01-3.32644E-13 4.87495E-13
 -1      1326 2.50222E+01-9.98715E-03 1.36530E-02-1.29702E-01-1.04765E-13 6.17215E-13
 -1      1327 2.48241E+01-4.31696E-02 2.16058E-02-1.56429E-01-9.50975E-14 4.67494E-13
 -1      1328 2.50341E+01 5.47938E-03-1.95941E-02-3.51582E-01-2.32515E-13 3.71890E-13
 -1      1329 2.45836E+01-6.68551E-02 2.73883E-02-2.65404E-01-7.47874E-14 4.06149E-13
 -1      1330 2.42046E+01-7.95716E-02 2.17335E-02-3.13290E-01-8.09474E-14 2.87841E-13
 -1      1331 2.45747E+01-1.09381E-01 1.46719E-02-4.29253E-01-1.63634E-13 2.80274E-13
 -1      1332 2.38676E+01-9.09411E-02 2.63494E-02-4.90696E-01-5.13600E-14 2.57704E-13
 -1      1333 2.32093E+01-7.70778E-02 1.78326E-02-5.45656E-01-5.10269E-14 1.91465E-13
 -1      1334 2.40407E+01-1.55342E-01 2.51490E-02-7.74295E-01-1.28134E-13 1.95161E-13
 -1      1335 2.27285E+01-6.59872E-02 1.91820E-02-6.93295E-01-2.62255E-14 1.63702E-13
 -1      1336 2.18491E+01-2.15081E-02 8.51244E-03-7.25475E-01-2.89053E-14 1.29778E-13
 -1      1337 2.32604E+01-1.22611E-01 2.28636E-02-1.17529E+00-9.00330E-14 1.61850E-13
 -1      1338 2.12893E+01 1.59962E-02 3.49364E-03-7.26371E-01-4.67174E-14 9.30089E-14
 -1      1339 2.04210E+01 7.74899E-02-7.82348E-03-7.02318E-01-7.07481E-14 1.12549E-14
 -1      1340 2.22428E+01 2.56281E-03 4.32016E-03-1.37116E+00-7.59455E-14 1.06181E-13
 -1      1341 1.99564E+01 1.23528E-01-1.64321E-02-4.85486E-01-6.71303E-14-4.70388E-14
 -1      1342 1.94279E+01 1.67930E-01-2.43027E-02-3.96898E-01-6.63653E-14-1.37172E-13
 -1      1343 2.12217E+01 1.79101E-01-2.66163E-02-1.12099E+00-1.56600E-13 8.67882E-15
 -1      1344 1.92585E+01 1.87597E-01-2.90547E-02-1.80485E-02-8.00228E-14-1.73396E-13
 -1      1345 1.93094E+01 1.83562E-01-2.84848E-02 9.72329E-02-9.53820E-14-2.65038E-13
 -1      1346 2.05809E+01 3.08023E-01-5.12934E-02-3.93109E-01-1.35919E-13-8.36544E-14
 -1      1347 1.95184E+01 1.59228E-01-2.40717E-02 4.62640E-01-7.84234E-14-3.23307E-13
 -1      1348 2.01282E+01 1.09035E-01-1.60483E-02 5.43837E-01-1.47347E-14-3.79974E-13
 -1      1349 2.06184E+01 2.94803E-01-5.11896E-02 5.25414E-01-1.32776E-13-1.39161E-13
 -1      1350 2.06050E+01 6.32211E-02-7.98050E-03 7.29537E-01-1.77939E-15-4.57828E-13
 -1      1351 2.15099E+01-3.66638E-04 3.04574E-03 7.45092E-01-3.80958E-14-4.70894E-13
 -1      1352 2.13080E+01 1.56902E-01-2.25256E-02 1.19658E+00-7.35419E-14-3.43064E-13
 -1      1353 2.20414E+01-3.65513E-02 6.35812E-03 7.08878E-01-7.63833E-14-5.27585E-13
 -1      1354 2.29058E+01-8.21494E-02 1.52061E-02 6.68934E-01-6.74122E-14-6.11337E-13
 -1      1355 2.23091E+01-2.17747E-02 8.82907E-03 1.36554E+00-1.09486E-13-4.90059E-13
 -1      1356 2.33088E+01-9.17218E-02 1.16366E-02 4.85227E-01-1.93994E-14-6.26957E-13
 -1      1357 2.39009E+01-1.08202E-01 1.68247E-02 4.23698E-01-1.20841E-14-6.19782E-13
 -1      1358 2.32172E+01-1.45366E-01 2.62687E-02 1.08279E+00-7.38003E-14-5.54270E-13
 -1      1359 2.40969E+01-9.73275E-02 9.62087E-03 2.03077E-01-5.21371E-14-6.13707E-13
 -1      1360 2.43496E+01-9.22116E-02 1.17709E-02 1.48021E-01-6.01802E-14-6.95933E-13
 -1      1361 2.37784E+01-1.79105E-01 2.81599E-02 5.85850E-01-8.35981E-14-5.62853E-13
 -1      1362 2.43491E+01-7.44577E-02 4.96002E-03-3.34891E-02-4.05093E-14-6.94920E-13
 -1      1363 2.43157E+01-6.00274E-02 5.30153E-03-7.04108E-02-3.09891E-14-7.16848E-13
 -1      1364 2.39386E+01-1.48657E-01 2.10909E-02 1.01767E-01-5.86510E-14-6.21961E-13
 -1      1365 2.41728E+01-4.44207E-02 1.04953E-03-1.86001E-01-7.41421E-15-6.72551E-13
 -1      1366 2.39535E+01-2.93076E-02 6.63736E-04-2.04822E-01-2.86060E-14-7.30528E-13
 -1      1367 2.37708E+01-9.47641E-02 1.20145E-02-2.50637E-01-1.79110E-14-5.69440E-13
 -1      1368 2.37292E+01-1.90971E-02-9.55614E-04-2.59733E-01-2.44327E-14-6.52233E-13
 -1      1369 2.34191E+01-7.14932E-03-1.62052E-03-2.65339E-01-4.91196E-14-6.71978E-13
 -1      1370 2.33920E+01-4.50712E-02 4.57003E-03-4.49965E-01 2.82153E-15-4.35279E-13
 -1      1371 2.31635E+01-2.00379E-03-1.41992E-03-2.76974E-01-9.00890E-14-7.14897E-13
 -1      1372 2.28314E+01 6.05972E-03-2.19624E-03-2.74655E-01-5.98420E-15-7.65398E-13
 -1      1373 2.29104E+01-9.92132E-03-2.55966E-04-5.25608E-01-9.14021E-14-4.84406E-13
 -1      1374 2.25786E+01 7.66725E-03-1.07889E-03-2.60601E-01 4.64739E-14-8.03049E-13
 -1      1375 2.22659E+01 1.24845E-02-1.91486E-03-2.54374E-01-5.07873E-15-7.96524E-13
 -1      1376 2.24065E+01 1.05759E-02-2.85946E-03-5.20005E-01-5.58429E-14-4.79704E-13
 -1      1377 2.20354E+01 1.20566E-02-5.10313E-04-2.27868E-01 2.67856E-14-7.82783E-13
 -1      1378 2.17624E+01 1.45763E-02-1.35540E-03-2.20283E-01 1.87398E-14-7.06445E-13
 -1      1379 2.19306E+01 2.02263E-02-3.95855E-03-4.69827E-01 6.73506E-15-5.15683E-13
 -1      1380 2.15633E+01 1.31866E-02-7.75317E-06-1.89808E-01 4.77506E-14-6.46552E-13
 -1      1381 2.13364E+01 1.42361E-02-8.10720E-04-1.82286E-01 5.89689E-14-5.45796E-13
 -1      1382 2.15091E+01 2.30865E-02-4.16687E-03-4.00687E-01 9.58970E-14-4.80556E-13
 -1      1383 2.11711E+01 1.25364E-02 3.33401E-04-1.52632E-01 2.51292E-14-5.64593E-13
 -1      1384 2.09891E+01 1.27172E-02-3.87089E-04-1.45865E-01-2.60772E-14-5.55239E-13
 -1      1385 2.11523E+01 2.22279E-02-3.90585E-03-3.28169E-01 5.67168E-14-4.63790E-13
 -1      1386 2.08559E+01 1.10548E-02 5.17755E-04-1.19373E-01-1.18052E-13-5.11720E-13
 -1      1387 2.07142E+01 1.07644E-02-9.74717E-05-1.13622E-01-9.48070E-14-6.52176E-13
 -1      1388 2.08602E+01 1.96336E-02-3.43347E-03-2.60617E-01-6.77355E-14-4.13015E-13
 -1      1389 2.06095E+01 9.29726E-03 5.84692E-04-9.11617E-02 2.68617E-14-5.97402E-13
 -1      1390 2.05017E+01 8.78266E-03 8.08635E-05-8.64552E-02 7.75697E-14-5.20763E-13
 -1      1391 2.06274E+01 1.64567E-02-2.89609E-03-2.01772E-01-4.33681E-14-3.39965E-13
 -1      1392 2.04212E+01 7.56259E-03 5.76325E-04-6.80877E-02 4.86676E-14-5.58604E-13
 -1      1393 2.03411E+01 6.97009E-03 1.78107E-04-6.43431E-02 1.14600E-15-5.54536E-13
 -1      1394 2.04462E+01 1.33070E-02-2.37120E-03-1.52702E-01 4.10002E-14-4.39656E-13
 -1      1395 2.02805E+01 5.99468E-03 5.26001E-04-4.97280E-02-6.38840E-14-5.01935E-13
 -1      1396 2.02223E+01 5.40644E-03 2.20893E-04-4.68162E-02-1.85211E-14-5.97851E-13
 -1      1397 2.03081E+01 1.04707E-02-1.89617E-03-1.13050E-01-1.29447E-14-4.68174E-13
 -1      1398 2.01777E+01 4.64913E-03 4.56609E-04-3.54481E-02-8.64610E-14-6.68479E-13
 -1      1399 2.01365E+01 4.10792E-03 2.29464E-04-3.32298E-02-1.29426E-13-8.51374E-13
 -1      1400 2.02050E+01 8.05352E-03-1.48576E-03-8.17990E-02-1.74428E-13-5.36987E-13
 -1      1401 2.01043E+01 3.53406E-03 3.82399E-04-2.45667E-02-6.33619E-15-8.65242E-13
 -1      1402 2.00760E+01 3.05911E-03 2.18039E-04-2.29098E-02-1.79749E-14-8.34267E-13
 -1      1403 2.01297E+01 6.06677E-03-1.14244E-03-5.76921E-02-9.18377E-14-6.47098E-13
 -1      1404 2.00535E+01 2.63383E-03 3.11473E-04-1.64383E-02 1.00986E-14-7.35844E-13
 -1      1405 2.00347E+01 2.23067E-03 1.96115E-04-1.52260E-02 6.80169E-14-7.17198E-13
 -1      1406 2.00760E+01 4.47678E-03-8.62278E-04-3.94655E-02 4.18049E-14-5.96817E-13
 -1      1407 2.00194E+01 1.92253E-03 2.47911E-04-1.04909E-02-8.05535E-15-5.83744E-13
 -1      1408 2.00076E+01 1.58901E-03 1.69776E-04-9.62375E-03-1.68115E-14-5.38783E-13
 -1      1409 2.00388E+01 3.23165E-03-6.38364E-04-2.59589E-02 6.08125E-14-5.05071E-13
 -1      1410 1.99976E+01 1.37120E-03 1.93319E-04-6.23764E-03 5.67801E-14-5.02138E-13
 -1      1411 1.99908E+01 1.10118E-03 1.42755E-04-5.63363E-03 3.81496E-14-3.44271E-13
 -1      1412 2.00139E+01 2.27529E-03-4.62732E-04-1.61622E-02 4.71941E-14-3.74285E-13
 -1      1413 1.99846E+01 9.51654E-04 1.47863E-04-3.27613E-03-2.73560E-14-4.26697E-13
 -1      1414 1.99812E+01 7.37205E-04 1.17211E-04-2.86906E-03-9.95373E-14-5.61838E-13
 -1      1415 1.99980E+01 1.55435E-03-3.27417E-04-9.22628E-03-3.86246E-14-5.47702E-13
 -1      1416 1.99778E+01 6.38327E-04 1.10937E-04-1.28135E-03-2.03042E-13-6.12470E-13
 -1      1417 1.99767E+01 4.71070E-04 9.42696E-05-1.01881E-03-1.39116E-13-8.57373E-13
 -1      1418 1.99885E+01 1.02125E-03-2.25027E-04-4.45599E-03-2.20857E-13-5.36890E-13
 -1      1419 1.99751E+01 4.08990E-04 8.15618E-05 4.17953E-06-1.52253E-14-8.33344E-13
 -1      1420 1.99754E+01 2.80848E-04 7.44022E-05 1.62997E-04 1.08812E-13-7.79338E-13
 -1      1421 1.99835E+01 6.35297E-04-1.49006E-04-1.29401E-03-1.68485E-13-4.43675E-13
 -1      1422 1.99751E+01 2.44899E-04 5.86330E-05 7.80865E-04 1.08749E-13-8.63402E-13
 -1      1423 1.99762E+01 1.48506E-04 5.76724E-05 8.67155E-04 7.12376E-14-7.18810E-13
 -1      1424 1.99816E+01 3.62580E-04-9.37271E-05 6.98115E-04 9.58611E-14-5.07064E-13
 -1      1425 1.99767E+01 1.30613E-04 4.10563E-05 1.20194E-03 7.61724E-14-5.53081E-13
 -1      1426 1.99783E+01 5.95019E-05 4.39063E-05 1.23914E-03 3.49136E-14-3.70417E-13
 -1      1427 1.99816E+01 1.75499E-04-5.44810E-05 1.85925E-03 1.31377E-13-5.80799E-13
 -1      1428 1.99791E+01 5.36610E-05 2.78216E-05 1.38250E-03 7.56399E-14-4.12443E-13
 -1      1429 1.99809E+01 2.31151E-06 3.28023E-05 1.38788E-03 1.23878E-13-2.51596E-13
 -1      1430 1.99828E+01 5.19890E-05-2.74096E-05 2.44672E-03 1.29489E-13-3.82693E-13
 -1      1431 1.99820E+01 4.14356E-06 1.80371E-05 1.40731E-03 3.58255E-14-1.67668E-14
 -1      1432 1.99838E+01-3.20502E-05 2.40024E-05 1.39331E-03 4.54436E-14 1.79371E-14
 -1      1433 1.99846E+01-2.52925E-05-9.41030E-06 2.65229E-03 1.38119E-13-1.77809E-13
 -1      1434 1.99849E+01-2.56744E-05 1.09395E-05 1.33740E-03 1.33254E-14-1.58319E-14
 -1      1435 1.99866E+01-5.04864E-05 1.71375E-05 1.31277E-03-7.97048E-15 2.18233E-14
 -1      1436 1.99868E+01-6.97657E-05 1.97079E-06 2.61600E-03 5.72056E-14 1.40028E-13
 -1      1437 1.99877E+01-4.17536E-05 5.89209E-06 1.21553E-03-5.62919E-14 1.16976E-14
 -1      1438 1.99891E+01-5.82326E-05 1.18537E-05 1.18619E-03-1.14571E-13-1.47588E-13
 -1      1439 1.99889E+01-9.16699E-05 8.64466E-06 2.43755E-03-5.74714E-14 5.13190E-14
 -1      1440 1.99902E+01-4.86395E-05 2.37549E-06 1.07052E-03-1.15588E-13-2.64374E-13
 -1      1441 1.99915E+01-5.92261E-05 7.83019E-06 1.04029E-03-4.49863E-14-2.60327E-13
 -1      1442 1.99910E+01-9.87297E-05 1.20802E-05 2.18577E-03-2.43347E-13-1.29037E-13
 -1      1443 1.99924E+01-4.97881E-05-1.91523E-08 9.20675E-04 1.06313E-13-3.61208E-13
 -1      1444 1.99935E+01-5.64324E-05 4.79680E-06 8.91745E-04-2.88460E-14-4.04851E-13
 -1      1445 1.99929E+01-9.67483E-05 1.33963E-05 1.90593E-03 1.09244E-14-3.22703E-13
 -1      1446 1.99943E+01-4.78606E-05-1.58460E-06 7.76263E-04-4.58480E-14-1.90841E-13
 -1      1447 1.99952E+01-5.21307E-05 2.56908E-06 7.49625E-04 2.12331E-14-2.13336E-13
 -1      1448 1.99945E+01-9.01390E-05 1.34485E-05 1.62547E-03 1.21771E-13-3.78093E-13
 -1      1449 1.99959E+01-4.49859E-05-2.45967E-06 6.41336E-04 2.46678E-14-1.42235E-13
 -1      1450 1.99967E+01-4.81542E-05 1.11931E-06 6.16975E-04 1.54405E-13-6.36333E-14
 -1      1451 1.99959E+01-8.23995E-05 1.29164E-05 1.35809E-03 1.17878E-13 4.00299E-14
 -1      1452 1.99972E+01-4.29890E-05-2.54366E-06 5.14843E-04 2.90385E-13-7.34369E-15
 -1      1453 1.99978E+01-4.60825E-05 6.47627E-07 4.91835E-04 2.64342E-13 3.17258E-13
 -1      1454 1.99971E+01-7.65462E-05 1.23845E-05 1.10656E-03 2.90023E-13 1.19491E-13
 -1      1455 1.99983E+01-4.35156E-05-1.42781E-06 3.91329E-04 5.79652E-14 1.99075E-13
 -1      1456 1.99987E+01-4.70998E-05 1.44146E-06 3.67790E-04-6.71345E-14 2.15023E-13
 -1      1457 1.99981E+01-7.55068E-05 1.23444E-05 8.64689E-04 1.74184E-13-1.10792E-13
 -1      1458 1.99991E+01-4.74348E-05 1.16459E-06 2.62615E-04 4.49420E-14 4.21187E-13
 -1      1459 1.99994E+01-5.07705E-05 2.32831E-06 2.35730E-04 1.38771E-14 3.34308E-13
 -1      1460 1.99988E+01-8.16441E-05 1.26756E-05 6.19363E-04-1.64035E-14-2.51604E-14
 -1      1461 1.99996E+01-5.79575E-05 1.96401E-06 1.21264E-04-3.85612E-14 2.87257E-13
 -1      1462 1.99997E+01-4.89308E-05-3.08668E-06 9.05435E-05-7.90272E-14 2.33746E-13
 -1      1463 1.99994E+01-9.45848E-05 1.20600E-05 3.60342E-04-4.62471E-14 2.88103E-13
 -1      1464 1.99998E+01-6.50746E-06-9.61000E-06-1.67322E-05-1.82064E-13 1.30349E-13
 -1      1465 1.99997E+01-6.48221E-05 2.89641E-06 8.00949E-05-1.83489E-13 1.75092E-13
 -1      1466 2.51669E+01 4.43590E-02-1.38289E-01 3.18114E-01 1.86788E-13 1.62886E-12
 -1      1467 2.61621E+01 2.01173E-01-2.38817E-01 5.27804E-01 1.54765E-13 1.91351E-12
 -1      1468 2.60676E+01 8.36527E-01-1.01787E-01 1.73660E+00 3.03521E-13 1.28167E-12
 -1      1469 2.44194E+01-4.72919E-03-9.14983E-04 1.58176E-01 1.25622E-13 1.29419E-12
 -1      1470 2.47257E+01 6.71393E-02-5.51159E-02 1.73035E-01 1.25648E-13 1.49160E-12
 -1      1471 2.48727E+01 1.07930E-01-4.84277E-02 5.99810E-01 2.63276E-13 1.03739E-12
 -1      1472 2.38562E+01-2.94312E-02 2.74441E-02 2.01222E-01 8.81573E-14 1.07339E-12
 -1      1473 2.41119E+01-1.60296E-02 1.04409E-02 1.78033E-01 8.73470E-14 1.20615E-12
 -1      1474 2.41682E+01-2.12642E-02 6.08885E-03 3.84509E-01 1.89453E-13 8.47770E-13
 -1      1475 2.31076E+01-3.81243E-02 2.80586E-02 3.41173E-01 9.32470E-14 8.92973E-13
 -1      1476 2.35151E+01-5.49120E-02 1.99055E-02 2.94261E-01 6.56523E-14 9.97271E-13
 -1      1477 2.35722E+01-7.45694E-02 2.21587E-02 5.12786E-01 1.38190E-13 6.81764E-13
 -1      1478 2.20324E+01-2.63548E-02 1.79608E-02 4.93832E-01 7.87296E-14 7.12888E-13
 -1      1479 2.26552E+01-6.00293E-02 1.54372E-02 4.42080E-01 8.99263E-14 8.31397E-13
 -1      1480 2.28358E+01-8.38822E-02 2.39365E-02 7.67604E-01 1.53724E-13 5.86847E-13
 -1      1481 2.07195E+01 7.32782E-03-2.57940E-03 5.62325E-01 1.10226E-14 6.48849E-13
 -1      1482 2.14902E+01-2.76794E-02 6.14876E-03 5.32909E-01 3.07935E-15 6.52360E-13
 -1      1483 2.18951E+01-4.23204E-02 1.54360E-02 9.76173E-01 5.57566E-14 5.03679E-13
 -1      1484 1.94839E+01 5.11218E-02-2.88833E-02 4.61011E-01 5.37842E-14 5.83200E-13
 -1      1485 2.02054E+01 3.55228E-02-6.95813E-03 4.79390E-01 3.26718E-14 6.21656E-13
 -1      1486 2.08742E+01 4.76713E-02-2.30223E-03 9.63537E-01 5.27703E-14 4.34337E-13
 -1      1487 1.87526E+01 8.03506E-02-4.69423E-02 1.78609E-01 4.55417E-14 4.43682E-13
 -1      1488 1.91685E+01 1.00270E-01-1.93407E-02 2.49323E-01 5.73031E-14 5.34364E-13
 -1      1489 2.00522E+01 1.50752E-01-2.12491E-02 6.28076E-01 9.38208E-14 3.34188E-13
 -1      1490 1.88296E+01 7.46220E-02-4.37692E-02-1.85879E-01 2.63418E-14 3.42192E-13
 -1      1491 1.87638E+01 1.27989E-01-2.33371E-02-8.94144E-02 2.49158E-14 3.45485E-13
 -1      1492 1.97280E+01 2.05170E-01-3.10198E-02 3.76257E-02 7.48256E-14 2.16322E-13
 -1      1493 1.96893E+01 3.77853E-02-1.97081E-02-4.73687E-01 4.47854E-14 2.64434E-13
 -1      1494 1.91629E+01 1.01527E-01-1.51751E-02-3.93677E-01 3.86323E-14 3.00884E-13
 -1      1495 2.00327E+01 1.70421E-01-2.68361E-02-5.73255E-01 6.39835E-14 7.52211E-14
 -1      1496 2.09842E+01-6.30610E-03 9.03859E-03-5.76743E-01-9.58326E-16 1.41775E-13
 -1      1497 2.02053E+01 4.05895E-02 7.23352E-05-5.41554E-01 4.55174E-14 2.12455E-13
 -1      1498 2.08314E+01 6.64180E-02-1.45264E-02-9.51726E-01 9.10591E-14 1.11234E-13
 -1      1499 2.22642E+01-3.59025E-02 2.78353E-02-4.97569E-01 3.67263E-14 3.67345E-14
 -1      1500 2.14983E+01-1.90194E-02 1.28421E-02-5.07318E-01 3.16821E-14 6.38239E-14
 -1      1501 2.18108E+01-4.30048E-02-2.13653E-03-9.91593E-01 6.16313E-14-2.47857E-14
 -1      1502 2.31988E+01-4.45204E-02 3.15571E-02-3.15032E-01-1.31180E-14-5.68989E-15
 -1      1503 2.26393E+01-5.36216E-02 1.78122E-02-3.51280E-01-6.24240E-15-2.59931E-14
 -1      1504 2.26594E+01-1.08626E-01 5.44960E-03-7.61432E-01 5.57662E-14-1.29364E-13
 -1      1505 2.36660E+01-3.79772E-02 2.48646E-02-1.17781E-01-1.53098E-14-3.79662E-14
 -1      1506 2.33827E+01-6.04991E-02 1.53627E-02-1.59733E-01 4.96998E-16-3.21895E-14
 -1      1507 2.31931E+01-1.20195E-01 7.87716E-03-4.13873E-01-6.97185E-15-1.88564E-13
 -1      1508 2.37100E+01-2.54605E-02 1.47652E-02 3.90095E-02 2.96534E-14-8.24007E-14
 -1      1509 2.36746E+01-4.97963E-02 9.50628E-03 4.31714E-03 4.57377E-14-3.86592E-14
 -1      1510 2.33751E+01-9.64261E-02 7.16006E-03-8.33024E-02 5.87412E-14-2.24310E-13
 -1      1511 2.34531E+01-1.33194E-02 5.98969E-03 1.38210E-01 1.82094E-14-1.77910E-13
 -1      1512 2.35919E+01-3.29910E-02 3.78199E-03 1.15138E-01 1.19002E-14-1.18804E-13
 -1      1513 2.32657E+01-6.10563E-02 5.21992E-03 1.60283E-01 5.62718E-14-2.16562E-13
 -1      1514 2.30258E+01-4.23299E-03 1.80471E-04 1.85930E-01 4.22817E-14-2.97883E-13
 -1      1515 2.32614E+01-1.72996E-02-1.22560E-04 1.73616E-01 4.06914E-14-2.05110E-13
 -1      1516 2.29619E+01-2.91743E-02 3.23999E-03 3.03543E-01 7.92838E-14-3.48123E-13
 -1      1517 2.25328E+01 1.47313E-03-2.85263E-03 1.96764E-01-5.74203E-14-4.09631E-13
 -1      1518 2.28042E+01-5.61086E-03-2.07282E-03 1.92382E-01 8.06327E-15-3.99581E-13
 -1      1519 2.25572E+01-6.38473E-03 1.70912E-03 3.63601E-01 1.05122E-13-2.28346E-13
 -1      1520 2.20440E+01 4.47998E-03-3.97365E-03 1.85240E-01-4.15359E-14-3.05667E-13
 -1      1521 2.23114E+01 1.82233E-03-2.61964E-03 1.85860E-01-3.17359E-14-3.68419E-13
 -1      1522 2.21233E+01 7.27736E-03 6.79082E-04 3.66655E-01-2.83386E-14-3.25552E-13
 -1      1523 2.15996E+01 5.66773E-03-4.00983E-03 1.62461E-01-9.76991E-14-2.14500E-13
 -1      1524 2.18409E+01 5.85827E-03-2.40676E-03 1.65797E-01-6.47338E-14-3.01434E-13
 -1      1525 2.17071E+01 1.39971E-02 4.20051E-05 3.36520E-01-9.65380E-14-2.17553E-13
 -1      1526 2.12177E+01 5.76841E-03-3.53781E-03 1.35741E-01 3.89632E-14-1.54194E-13
 -1      1527 2.14232E+01 7.56125E-03-1.89523E-03 1.40248E-01-3.53359E-14-1.42447E-13
 -1      1528 2.13345E+01 1.62019E-02-3.22305E-04 2.90724E-01-9.46808E-14-2.48364E-13
 -1      1529 2.09028E+01 5.29447E-03-2.89554E-03 1.09369E-01 9.95723E-14-3.79587E-13
 -1      1530 2.10708E+01 7.82732E-03-1.34429E-03 1.14106E-01 8.80756E-14-2.16558E-13
 -1      1531 2.10168E+01 1.58110E-02-5.08370E-04 2.40559E-01 1.17420E-13-2.68639E-13
 -1      1532 2.06513E+01 4.56952E-03-2.25570E-03 8.55551E-02-8.10866E-14-3.21501E-13
 -1      1533 2.07842E+01 7.29941E-03-8.69316E-04 9.00052E-02-1.90065E-14-3.80465E-13
 -1      1534 2.07555E+01 1.41254E-02-5.81834E-04 1.92517E-01 5.88769E-14-3.54144E-13
 -1      1535 2.04558E+01 3.78211E-03-1.69308E-03 6.52084E-02-8.01509E-14-1.09496E-13
 -1      1536 2.05581E+01 6.39677E-03-5.04072E-04 6.91257E-02-6.89672E-14-2.50025E-13
 -1      1537 2.05470E+01 1.19431E-02-5.86271E-04 1.49832E-01-1.08561E-13-2.88289E-13
 -1      1538 2.03076E+01 3.03310E-03-1.23073E-03 4.84860E-02-7.89683E-14 4.24223E-14
 -1      1539 2.03844E+01 5.37353E-03-2.43882E-04 5.17879E-02-7.92442E-14-8.02762E-14
 -1      1540 2.03847E+01 9.71350E-03-5.50359E-04 1.13715E-01-1.80730E-13-2.03092E-14
 -1      1541 2.01979E+01 2.36991E-03-8.66884E-04 3.51489E-02-4.30537E-14 1.75961E-13
 -1      1542 2.02541E+01 4.37274E-03-7.00362E-05 3.78439E-02-7.20298E-14 6.94029E-14
 -1      1543 2.02613E+01 7.66515E-03-4.93018E-04 8.42251E-02-1.10086E-13 3.82998E-14
 -1      1544 2.01187E+01 1.80909E-03-5.89569E-04 2.47774E-02 9.34331E-14-5.27641E-14
 -1      1545 2.01588E+01 3.46712E-03 3.84726E-05 2.69205E-02 8.33794E-14 1.25490E-13
 -1      1546 2.01698E+01 5.89528E-03-4.26640E-04 6.08166E-02 8.86698E-14 1.18105E-13
 -1      1547 2.00632E+01 1.35030E-03-3.83820E-04 1.68959E-02-5.42349E-14-3.33405E-14
 -1      1548 2.00909E+01 2.68692E-03 1.00207E-04 1.85617E-02-4.08979E-14-6.51964E-14
 -1      1549 2.01034E+01 4.42754E-03-3.59140E-04 4.26827E-02-1.05918E-14 1.31765E-13
 -1      1550 2.00256E+01 9.84738E-04-2.35038E-04 1.10401E-02-5.24109E-14 2.58667E-14
 -1      1551 2.00440E+01 2.03787E-03 1.29942E-04 1.23076E-02-4.79459E-14-9.16402E-14
 -1      1552 2.00566E+01 3.24712E-03-2.95328E-04 2.89492E-02-1.01158E-14-5.86705E-14
 -1      1553 2.00012E+01 7.00026E-04-1.30350E-04 6.79098E-03-5.91694E-14 5.62408E-14
 -1      1554 2.00128E+01 1.51255E-03 1.38762E-04 7.73521E-03-5.42625E-14 1.06615E-15
 -1      1555 2.00247E+01 2.32142E-03-2.37855E-04 1.87794E-02-8.63174E-14-1.15007E-13
 -1      1556 1.99864E+01 4.82934E-04-5.90045E-05 3.78795E-03-1.05009E-13 6.98427E-14
 -1      1557 1.99932E+01 1.09713E-03 1.34663E-04 4.47573E-03 1.05853E-14 5.89338E-14
 -1      1558 2.00038E+01 1.61163E-03-1.87914E-04 1.14259E-02-6.39487E-14-2.21671E-13
 -1      1559 1.99784E+01 3.20853E-04-1.23258E-05 1.73105E-03 1.56014E-14 1.23903E-13
 -1      1560 1.99817E+01 7.75485E-04 1.23227E-04 2.21965E-03-6.06565E-14 6.29570E-14
 -1      1561 1.99910E+01 1.07905E-03-1.45739E-04 6.24963E-03-5.35495E-14-5.36926E-14
 -1      1562 1.99749E+01 2.02503E-04 1.65098E-05 3.77418E-04 1.09818E-13 5.08046E-14
 -1      1563 1.99760E+01 5.31491E-04 1.08228E-04 7.14437E-04 5.95011E-14 4.90079E-14
 -1      1564 1.99838E+01 6.88233E-04-1.10972E-04 2.72167E-03 6.70925E-14-1.85358E-13
 -1      1565 1.99744E+01 1.18201E-04 3.27580E-05-4.65191E-04-3.62104E-14 4.42750E-14
 -1      1566 1.99741E+01 3.50226E-04 9.21247E-05-2.41193E-04 3.58088E-14 1.27235E-13
 -1      1567 1.99805E+01 4.08356E-04-8.29231E-05 4.15103E-04 2.68945E-14-1.90048E-13
 -1      1568 1.99757E+01 5.98897E-05 4.03887E-05-9.45870E-04 9.05455E-14-2.05678E-13
 -1      1569 1.99746E+01 2.18567E-04 7.64401E-05-8.04296E-04 7.20610E-14-6.56918E-15
 -1      1570 1.99798E+01 2.13527E-04-6.07425E-05-1.00696E-03 1.04635E-13 1.10153E-14
 -1      1571 1.99781E+01 2.10228E-05 4.23417E-05-1.17796E-03 1.18500E-14-3.60851E-13
 -1      1572 1.99765E+01 1.25361E-04 6.20442E-05-1.09501E-03 1.56928E-14-3.00791E-13
 -1      1573 1.99806E+01 8.25890E-05-4.35426E-05-1.80505E-03 9.34003E-14-5.15954E-14
 -1      1574 1.99810E+01-3.60760E-06 4.07494E-05-1.24589E-03-1.25253E-13-1.15147E-14
 -1      1575 1.99792E+01 6.13863E-05 4.93661E-05-1.20341E-03-1.78892E-13-3.03978E-13
 -1      1576 1.99824E+01-1.36007E-06-3.04686E-05-2.17669E-03-1.46316E-13 6.11079E-14
 -1      1577 1.99840E+01-1.80696E-05 3.71225E-05-1.21117E-03-1.22081E-13 2.75195E-13
 -1      1578 1.99822E+01 1.91816E-05 3.85445E-05-1.19557E-03-7.08615E-14 1.08073E-13
 -1      1579 1.99846E+01-5.15598E-05-2.07397E-05-2.26852E-03-2.10292E-13 1.56184E-13
 -1      1580 1.99868E+01-2.54908E-05 3.25026E-05-1.11744E-03 1.24221E-13 2.76592E-13
 -1      1581 1.99852E+01-7.17816E-06 2.95368E-05-1.11880E-03 4.07153E-14 3.44156E-13
 -1      1582 1.99870E+01-7.81959E-05-1.36672E-05-2.18701E-03-5.27243E-14 1.72570E-13
 -1      1583 1.99895E+01-2.82466E-05 2.75861E-05-9.94696E-04-6.21871E-14 3.48571E-13
 -1      1584 1.99880E+01-2.23312E-05 2.21939E-05-1.00593E-03 3.46669E-14 3.36939E-13
 -1      1585 1.99893E+01-8.89789E-05-8.65786E-06-2.00730E-03-7.54841E-15 5.41309E-13
 -1      1586 1.99918E+01-2.81305E-05 2.28261E-05-8.62518E-04 1.30387E-13 2.91438E-13
 -1      1587 1.99905E+01-2.98763E-05 1.63132E-05-8.78803E-04-2.86663E-14 3.44230E-13
 -1      1588 1.99914E+01-8.96719E-05-5.20522E-06-1.78059E-03 3.05505E-14 2.35092E-13
 -1      1589 1.99938E+01-2.65105E-05 1.85233E-05-7.32645E-04 2.86076E-14-3.26745E-14
 -1      1590 1.99927E+01-3.26137E-05 1.16779E-05-7.50895E-04 2.19911E-13 2.78421E-13
 -1      1591 1.99933E+01-8.45583E-05-2.86878E-06-1.53980E-03 2.26454E-13 2.54707E-13
 -1      1592 1.99955E+01-2.44726E-05 1.49241E-05-6.10772E-04 1.74069E-14-1.04739E-13
 -1      1593 1.99946E+01-3.27800E-05 8.09608E-06-6.29329E-04-3.40630E-14-8.93351E-14
 -1      1594 1.99949E+01-7.68650E-05-1.24019E-06-1.30395E-03 7.94150E-14 3.67912E-13
 -1      1595 1.99969E+01-2.29544E-05 1.23586E-05-4.97717E-04 9.38324E-14-2.72860E-13
 -1      1596 1.99962E+01-3.22844E-05 5.46426E-06-5.16183E-04 4.78135E-14-2.45684E-13
 -1      1597 1.99963E+01-6.91508E-05 1.21043E-07-1.08123E-03 7.34369E-14 8.49869E-14
 -1      1598 1.99981E+01-2.27413E-05 1.13551E-05-3.90112E-04 2.11243E-13-5.58984E-13
 -1      1599 1.99975E+01-3.28497E-05 3.88167E-06-4.09305E-04 2.11991E-13-3.09446E-13
 -1      1600 1.99975E+01-6.36313E-05 1.76881E-06-8.70929E-04 2.64509E-13-2.84661E-13
 -1      1601 1.99989E+01-2.45360E-05 1.21493E-05-2.81163E-04 5.80316E-15-7.64313E-13
 -1      1602 1.99985E+01-3.60402E-05 3.62647E-06-3.03147E-04 5.63067E-14-6.53907E-13
 -1      1603 1.99984E+01-6.23190E-05 4.30795E-06-6.65108E-04 2.01976E-13-2.18399E-13
 -1      1604 1.99995E+01-2.85947E-05 1.18378E-05-1.61249E-04 6.24853E-14-8.83830E-13
 -1      1605 1.99992E+01-4.29877E-05 4.16713E-06-1.90220E-04 5.09592E-14-7.35888E-13
 -1      1606 1.99991E+01-6.77083E-05 7.23801E-06-4.51179E-04 2.54862E-14-3.35769E-13
 -1      1607 1.99997E+01-3.02208E-05-3.57804E-06-3.76850E-05 3.90136E-14-8.63882E-13
 -1      1608 1.99996E+01-4.60129E-05 1.78957E-06-6.95061E-05 4.91820E-14-9.46128E-13
 -1      1609 1.99995E+01-7.27198E-05 7.77317E-06-2.19550E-04 1.74434E-13-4.45770E-13
 -1      1610 1.99998E+01-7.81363E-06-1.05168E-05 1.07280E-05-5.01259E-13-5.88542E-13
 -1      1611 1.99998E+01-2.37815E-04 6.76215E-06-1.28513E-04-1.26307E-13 4.82487E-13
 -1      1612 1.99997E+01-1.19500E-04-3.40947E-06-9.62825E-05-5.82464E-13 3.64620E-13
 -1      1613 1.99998E+01-7.11344E-04 4.74429E-06-2.48619E-04 4.67259E-13 4.59164E-13
 -1      1614 1.99998E+01-4.39140E-04 4.58297E-06-2.27236E-04 8.35862E-14 5.43458E-13
 -1      1615 1.99997E+01-4.40751E-04 8.65327E-06-3.51307E-04 1.30200E-13 7.08243E-13
 -1      1616 1.99998E+01-1.34779E-03 1.74279E-06-3.19227E-04 5.82387E-13 1.66583E-13
 -1      1617 1.99998E+01-9.80613E-04 3.30303E-06-3.09656E-04 3.70492E-13 4.33007E-13
 -1      1618 1.99997E+01-9.09716E-04 7.53636E-06-5.42709E-04 2.10385E-13 4.36818E-13
 -1      1619 1.99998E+01-2.04256E-03-1.82258E-07-3.32483E-04 7.25890E-13-4.56295E-14
 -1      1620 1.99998E+01-1.64978E-03 1.28691E-06-3.34520E-04 7.27260E-13 6.63268E-14
 -1      1621 1.99998E+01-1.48002E-03 1.62125E-06-6.32960E-04 3.50802E-13 2.40565E-13
 -1      1622 1.99998E+01-2.67781E-03-8.98972E-07-2.94860E-04 5.09097E-13-6.44212E-14
 -1      1623 1.99998E+01-2.32825E-03 1.90920E-07-3.05995E-04 6.63126E-13-2.70940E-13
 -1      1624 1.99998E+01-2.06562E-03-4.16877E-06-6.17421E-04 2.72738E-13-2.39913E-13
 -1      1625 1.99998E+01-3.18490E-03-1.07289E-06-2.15573E-04 5.86924E-13 1.59737E-14
 -1      1626 1.99998E+01-2.91824E-03-3.98755E-07-2.33986E-04 4.68918E-13 1.17289E-13
 -1      1627 1.99998E+01-2.58846E-03-8.69195E-06-5.11376E-04 2.22295E-13-5.08295E-14
 -1      1628 1.99998E+01-3.48377E-03-9.69724E-07-1.08045E-04 3.53428E-13-9.43056E-14
 -1      1629 1.99998E+01-3.34195E-03-6.28485E-07-1.30761E-04 5.36678E-13 8.23667E-14
 -1      1630 1.99999E+01-2.98249E-03-1.18807E-05-3.34935E-04 2.08458E-13-9.77758E-14
 -1      1631 1.99998E+01-3.53657E-03-8.02225E-07 1.30959E-05 4.13773E-13-4.91184E-14
 -1      1632 1.99998E+01-3.53779E-03-8.05278E-07-1.10575E-05 3.53154E-13-1.72791E-13
 -1      1633 1.99999E+01-3.19174E-03-1.34895E-05-1.15196E-04 1.53914E-13-2.50220E-13
 -1      1634 1.99998E+01-3.33663E-03-6.02533E-07 1.32639E-04 3.44662E-13 2.04599E-14
 -1      1635 1.99998E+01-3.48077E-03-9.74871E-07 1.09983E-04 3.33424E-13 2.26156E-14
 -1      1636 1.99999E+01-3.18997E-03-1.34737E-05 1.19044E-04 1.94658E-13-9.89635E-14
 -1      1637 1.99998E+01-2.90951E-03-3.10254E-07 2.35438E-04 4.01276E-13-1.48806E-13
 -1      1638 1.99998E+01-3.17805E-03-1.12869E-06 2.17189E-04 3.67445E-13 1.01993E-13
 -1      1639 1.99999E+01-2.97741E-03-1.18098E-05 3.38332E-04 7.44134E-14-1.16628E-13
 -1      1640 1.99998E+01-2.32260E-03 1.41203E-07 3.06224E-04 1.20200E-13 2.02287E-14
 -1      1641 1.99998E+01-2.67297E-03-9.41639E-07 2.95252E-04 3.73799E-13-1.60275E-13
 -1      1642 1.99998E+01-2.58485E-03-8.71112E-06 5.12865E-04 9.55319E-14-1.93131E-13
 -1      1643 1.99998E+01-1.63815E-03 1.25935E-06 3.34545E-04-1.31360E-13-1.16987E-13
 -1      1644 1.99998E+01-2.03120E-03-1.78798E-07 3.32715E-04-3.60651E-14 1.27481E-13
 -1      1645 1.99998E+01-2.06079E-03-4.06697E-06 6.17990E-04 3.23402E-14-1.40418E-13
 -1      1646 1.99998E+01-9.69850E-04 3.51490E-06 3.09299E-04-1.63786E-13-6.27717E-14
 -1      1647 1.99998E+01-1.33651E-03 1.68556E-06 3.18460E-04-1.19426E-13-6.26002E-14
 -1      1648 1.99998E+01-1.47003E-03 1.68868E-06 6.32309E-04 4.64995E-15-1.42564E-13
 -1      1649 1.99998E+01-4.39120E-04 1.36413E-06 2.26794E-04-1.25205E-13 3.17713E-14
 -1      1650 1.99998E+01-7.04313E-04 4.77256E-06 2.48747E-04-1.42901E-13 3.50001E-14
 -1      1651 1.99997E+01-9.02278E-04 7.37511E-06 5.40094E-04 8.89939E-14 1.63810E-14
 -1      1652 1.99997E+01-1.74955E-04-6.18157E-06 1.51532E-04-3.37235E-13-2.56013E-13
 -1      1653 1.99997E+01-2.98074E-04 4.12864E-06 1.97827E-04-1.37222E-13-7.14847E-14
 -1      1654 1.99997E+01-4.99547E-04 6.01672E-06 4.22644E-04-2.10115E-14-5.92863E-14
 -1      1655 1.99996E+01-2.42155E-04-2.85029E-06 3.06492E-04-1.04131E-13-1.20020E-13
 -1      1656-6.02532E-01-1.43869E+01-1.70948E+00-9.44603E-01 9.44855E-13 4.95298E-13
 -1      1657-5.77575E-01-1.61832E+01-1.85501E+00 3.40192E-01 3.42421E-13 3.63709E-13
 -1      1658 1.17918E+00-8.28981E+00-1.24900E+00 4.19403E-01 1.71640E-12 1.07114E-12
 -1      1659 5.42552E-01-1.29719E+01-1.71237E+00-1.49091E-02 1.13998E-12 6.87762E-13
 -1      1660 5.82306E+00-9.84463E-01-6.66787E-01 3.96432E+00 2.17715E-12 1.65223E-12
 -1      1661 3.19925E+00-6.38260E+00-1.39164E+00 1.37721E+00 1.93834E-12 1.24650E-12
 -1      1662 1.73713E+01 4.23253E+00 1.82579E-01 9.38806E+00 1.71052E-12 1.53233E-12
 -1      1663 1.06759E+01 4.09666E-01-7.24512E-01 5.50112E+00 2.02527E-12 1.45273E-12
 -1      1664 3.08846E+01 6.45080E+00 9.61279E-01 1.24102E+01 1.20448E-12 1.40465E-12
 -1      1665 2.21671E+01 5.86118E+00 8.85070E-02 1.02722E+01 1.62093E-12 1.58029E-12
 -1      1666 4.50040E+01 5.36452E+00 1.61776E+00 1.11733E+01 6.57807E-13 7.45071E-13
 -1      1667 3.60006E+01 6.87194E+00 9.14280E-01 1.23964E+01 1.07103E-12 1.26343E-12
 -1      1668 5.39315E+01 3.58790E+00 1.88399E+00 4.63249E+00 4.11310E-13-2.46414E-13
 -1      1669 4.88350E+01 5.02462E+00 1.55288E+00 9.22222E+00 5.48020E-13 4.82725E-13
 -1      1670 5.34205E+01 3.81487E+00 1.67861E+00-3.75807E+00 5.88085E-13-1.33216E-12
 -1      1671 5.45519E+01 3.63334E+00 1.82519E+00 1.92349E+00 4.69458E-13-5.86503E-13
 -1      1672 4.41265E+01 5.52183E+00 1.13410E+00-9.57779E+00 1.19678E-12-2.22766E-12
 -1      1673 5.08189E+01 4.02669E+00 1.62671E+00-5.86051E+00 7.84289E-13-1.62181E-12
 -1      1674 3.10873E+01 6.42694E+00 4.72143E-01-1.12833E+01 1.80245E-12-2.59504E-12
 -1      1675 4.01715E+01 5.41027E+00 1.20521E+00-1.11335E+01 1.37709E-12-2.44216E-12
 -1      1676 1.77136E+01 3.87068E+00-2.80092E-01-8.19787E+00 2.10987E-12-2.26885E-12
 -1      1677 2.61537E+01 5.32553E+00 5.31404E-01-1.10768E+01 1.87017E-12-2.49556E-12
 -1      1678 7.17321E+00-5.67481E-01-9.93492E-01-4.09025E+00 2.26774E-12-1.83364E-12
 -1      1679 1.18273E+01 3.34409E+00-2.67646E-01-7.44091E+00 2.36644E-12-2.30516E-12
 -1      1680 2.26722E+00-7.18216E+00-1.45946E+00-8.67807E-01 1.74305E-12-1.13634E-12
 -1      1681 4.09782E+00-2.34779E+00-8.86695E-01-2.75227E+00 2.16482E-12-1.60993E-12
 -1      1682 3.52852E-02-1.30306E+01-1.76137E+00 1.63361E-01 7.23643E-13-5.84380E-13
 -1      1683 3.74434E-01-8.97827E+00-1.39197E+00 2.49452E-01 1.49791E-12-9.41580E-13
 -1      1684-6.21972E-01-1.46048E+01-1.75947E+00-6.32840E-01-5.01009E-13-4.90552E-13
 -1      1685-6.22734E-01-1.39206E+01-1.70514E+00 7.28911E-01 3.58769E-13-5.09148E-13
 -1      1686-1.65486E-01-1.10297E+01-1.49392E+00-6.72139E-01-1.56819E-12-8.31141E-13
 -1      1687-2.67552E-01-1.39065E+01-1.73255E+00 1.53035E-02-8.41993E-13-5.55250E-13
 -1      1688 2.35323E+00-4.78646E+00-1.09785E+00 1.35170E+00-2.33857E-12-1.48120E-12
 -1      1689 1.20366E+00-9.68510E+00-1.59949E+00 1.37215E-01-1.87417E-12-1.00733E-12
 -1      1690 8.92832E+00 1.73578E+00-4.70532E-01 5.84948E+00-2.60014E-12-2.24631E-12
 -1      1691 5.13897E+00-2.93681E+00-1.20640E+00 2.69342E+00-2.46203E-12-1.76514E-12
 -1      1692 2.11704E+01 5.22877E+00 3.34605E-01 1.04204E+01-2.21556E-12-2.56672E-12
 -1      1693 1.39812E+01 2.75209E+00-5.22585E-01 7.08131E+00-2.46203E-12-2.30704E-12
 -1      1694 3.54427E+01 6.11120E+00 1.08385E+00 1.23678E+01-1.62148E-12-2.68630E-12
 -1      1695 2.59871E+01 6.49996E+00 2.47913E-01 1.11876E+01-2.09388E-12-2.75091E-12
 -1      1696 4.82490E+01 4.35944E+00 1.55319E+00 8.05875E+00-9.66748E-13-1.88882E-12
 -1      1697 4.01542E+01 5.92024E+00 9.62286E-01 1.05880E+01-1.37040E-12-2.36655E-12
 -1      1698 5.49220E+01 3.50821E+00 1.87788E+00 1.21567E+00-5.47951E-13-9.36445E-13
 -1      1699 5.16272E+01 4.32848E+00 1.60267E+00 6.37474E+00-7.98667E-13-1.67666E-12
 -1      1700 5.27719E+01 4.19875E+00 1.73344E+00-6.34123E+00-3.87912E-13 1.49880E-15
 -1      1701 5.53951E+01 3.42962E+00 1.92108E+00-1.26648E+00-3.64236E-13-5.99257E-13
 -1      1702 4.26333E+01 5.91826E+00 1.16584E+00-1.07466E+01-6.56850E-13 7.14762E-13
 -1      1703 4.96825E+01 4.39799E+00 1.68008E+00-7.96726E+00-4.28976E-13 2.51354E-13
 -1      1704 3.01790E+01 6.85071E+00 5.62846E-01-1.20252E+01-1.13964E-12 1.26743E-12
 -1      1705 3.86460E+01 6.03852E+00 1.26398E+00-1.23417E+01-7.35134E-13 1.03051E-12
 -1      1706 1.80384E+01 4.97868E+00-1.50450E-01-9.17522E+00-1.64502E-12 1.52145E-12
 -1      1707 2.54603E+01 6.34371E+00 6.47560E-01-1.18532E+01-1.32117E-12 1.40310E-12
 -1      1708 8.73616E+00 7.17951E-02-8.42837E-01-4.84222E+00-1.90958E-12 1.43074E-12
 -1      1709 1.36724E+01 3.77424E+00-6.33210E-02-8.14958E+00-1.79812E-12 1.54798E-12
 -1      1710 3.10127E+00-6.74416E+00-1.38709E+00-1.25102E+00-1.70131E-12 1.01269E-12
 -1      1711 5.41893E+00-1.65879E+00-7.28971E-01-3.53726E+00-1.92601E-12 1.41409E-12
 -1      1712 5.64736E-01-1.28654E+01-1.67632E+00 3.95389E-02-9.88876E-13 6.22009E-13
 -1      1713 1.14002E+00-8.47320E+00-1.25788E+00-3.09389E-01-1.51357E-12 9.13186E-13
 -1      1714-5.01134E-01-1.55933E+01-1.75543E+00-3.27227E-01 1.07553E-13 4.87582E-13
 -1      1715-4.78993E-01-1.37616E+01-1.59085E+00 7.62424E-01-6.58695E-13 5.99271E-13
 -1      1716 2.40896E+01 3.32954E-01 1.92612E-01 7.15811E+00 1.00725E-12 6.21503E-13
 -1      1717 1.37297E+01-3.39246E+00-3.40171E-01 6.45886E+00 1.04761E-12 8.47711E-13
 -1      1718 1.99998E+01-3.42132E-05 8.67569E-07-3.30729E-05-5.62028E-13-1.16111E-13
 -1      1719 1.99997E+01-1.69844E-04 9.21825E-07-1.64014E-04-1.51767E-14 2.97056E-13
 -1      1720 3.85057E-01-9.97087E+00-1.21092E+00 2.25038E+00 5.19085E-13 8.70415E-13
 -1      1721 5.14206E+00-7.10629E+00-9.04763E-01 4.35240E+00 8.51430E-13 1.12232E-12
 -1      1722-1.23342E+00-1.06860E+01-1.27490E+00-8.38636E-02 6.10692E-14 7.90312E-13
 -1      1723 3.42389E+01 4.07795E+00 8.08068E-01 7.11369E+00 9.60287E-13 5.27245E-13
 -1      1724 4.28179E+01 6.35805E+00 1.36649E+00 5.20629E+00 8.16736E-13 1.75970E-13
 -1      1725 4.70067E+01 7.20712E+00 1.56869E+00 1.69046E+00 8.40883E-13-3.91465E-13
 -1      1726 4.49690E+01 7.20860E+00 1.35802E+00-1.79035E+00 1.01030E-12-8.67861E-13
 -1      1727 3.94313E+01 5.47511E+00 1.01016E+00-4.68811E+00 1.19951E-12-1.31695E-12
 -1      1728 3.07037E+01 2.28052E+00 4.42901E-01-6.28222E+00 1.18971E-12-1.44129E-12
 -1      1729 2.02700E+01-4.03908E-01 3.39121E-02-7.03769E+00 1.30551E-12-1.54410E-12
 -1      1730 1.00771E+01-3.48682E+00-5.81673E-01-5.66210E+00 1.28209E-12-1.47421E-12
 -1      1731 3.43361E+00-6.92916E+00-9.97532E-01-3.58050E+00 8.93063E-13-1.19117E-12
 -1      1732-4.40624E-01-9.28216E+00-1.24772E+00-1.44491E+00 2.89657E-13-9.88432E-13
 -1      1733-9.35708E-01-9.47323E+00-1.23391E+00 6.81019E-01-3.90105E-13-9.67837E-13
 -1      1734 1.77889E+00-7.85042E+00-1.07704E+00 2.74545E+00-9.77218E-13-1.10736E-12
 -1      1735 7.56612E+00-4.87334E+00-7.58990E-01 4.86687E+00-1.42442E-12-1.43602E-12
 -1      1736 1.68588E+01-1.51142E+00-1.94155E-01 6.71248E+00-1.54476E-12-1.61160E-12
 -1      1737 2.72454E+01 1.73028E+00 3.44237E-01 7.14553E+00-1.47199E-12-1.72262E-12
 -1      1738 3.71555E+01 4.78029E+00 9.65662E-01 5.85631E+00-1.31052E-12-1.54077E-12
 -1      1739 4.39122E+01 6.70127E+00 1.30835E+00 2.86577E+00-1.11405E-12-1.11772E-12
 -1      1740 4.75306E+01 7.35188E+00 1.60619E+00-1.26196E-01-8.62976E-13-7.36890E-13
 -1      1741 4.50243E+01 6.85150E+00 1.41586E+00-3.17664E+00-6.57474E-13-2.77556E-13
 -1      1742 3.89487E+01 5.37173E+00 1.09140E+00-5.91597E+00-7.17010E-13 1.67644E-13
 -1      1743 3.04050E+01 3.07947E+00 6.13164E-01-7.56945E+00-9.40581E-13 5.22360E-13
 -1      1744 2.07774E+01-4.15810E-02 3.92201E-02-7.35127E+00-1.05860E-12 7.42295E-13
 -1      1745 1.18938E+01-3.71720E+00-5.06447E-01-6.02324E+00-1.01330E-12 8.86347E-13
 -1      1746 4.89937E+00-7.30436E+00-9.50764E-01-4.16843E+00-7.37854E-13 8.93674E-13
 -1      1747 4.79424E-01-9.53356E+00-1.14204E+00-2.28270E+00-2.44527E-13 9.58345E-13
 -1      1748 2.74878E+01 2.06499E+00-1.94686E-02-2.29660E+00-2.65794E-13 9.16600E-13
 -1      1749 2.14000E+01 3.46620E+00-4.13089E-02-9.96178E-01-2.45526E-13-4.50067E-13
 -1      1750 2.23680E+01 3.38994E+00-4.24138E-02-1.40870E+00-3.01210E-13-3.38458E-13
 -1      1751 2.33609E+01 3.06065E+00-5.40269E-02-1.69715E+00-3.24202E-13-1.78212E-13
 -1      1752 2.42352E+01 2.74149E+00-1.44474E-01-2.09732E+00-3.78059E-13 1.65562E-14
 -1      1753 2.31887E+01 2.36088E+00-1.33411E-02-1.31256E+00-3.29556E-13-2.24241E-13
 -1      1754 1.76078E+01 3.96393E+00-3.05744E-02 1.73985E-01-7.23779E-14-6.75605E-13
 -1      1755 1.85467E+01 3.94953E+00 4.20642E-04-3.95948E-02-1.09327E-13-6.44422E-13
 -1      1756 1.58732E+01 4.27655E+00-2.77240E-02 3.77929E-01-7.48013E-15-7.17129E-13
 -1      1757 1.67119E+01 4.24811E+00 9.32740E-03 3.04693E-01-3.87815E-14-7.06504E-13
 -1      1758 1.72736E+01 3.65988E+00-1.72924E-02 3.79597E-01-5.26133E-14-6.75088E-13
 -1      1759 1.46171E+01 4.56494E+00-1.99255E-02 2.54204E-01 4.32800E-14-7.28331E-13
 -1      1760 1.51707E+01 4.54046E+00 8.33125E-03 3.15993E-01 2.02911E-14-7.29360E-13
 -1      1761 1.55199E+01 4.14457E+00-5.74325E-03 4.79934E-01 1.49464E-14-7.09711E-13
 -1      1762 1.41500E+01 4.69885E+00-6.76329E-03-9.12952E-02 7.49557E-14-7.23847E-13
 -1      1763 1.42736E+01 4.69869E+00-1.68260E-03 4.04114E-02 6.01845E-14-7.37833E-13
 -1      1764 1.43656E+01 4.50317E+00 6.01608E-03 2.13073E-01 5.82446E-14-7.31785E-13
 -1      1765 1.45909E+01 4.60647E+00 6.10002E-03-4.37584E-01 1.04157E-13-6.73452E-13
 -1      1766 1.42571E+01 4.63510E+00-1.47219E-02-3.34621E-01 8.63410E-14-7.00219E-13
 -1      1767 1.41116E+01 4.56527E+00 8.61401E-03-2.51053E-01 8.11749E-14-7.15353E-13
 -1      1768 1.57879E+01 4.33473E+00 1.13984E-02-5.61640E-01 1.42508E-13-6.16887E-13
 -1      1769 1.51059E+01 4.37667E+00-2.42759E-02-5.71454E-01 1.20473E-13-6.50315E-13
 -1      1770 1.48150E+01 4.29685E+00-9.66813E-05-6.27969E-01 1.10819E-13-6.58723E-13
 -1      1771 1.73822E+01 4.01954E+00 7.21143E-03-3.57915E-01 1.98978E-13-5.16247E-13
 -1      1772 1.65455E+01 4.04876E+00-2.76798E-02-5.08275E-01 1.64244E-13-5.68415E-13
 -1      1773 1.62342E+01 3.83397E+00-1.30659E-02-6.84907E-01 1.54032E-13-5.81727E-13
 -1      1774 1.91126E+01 3.75963E+00-4.39038E-03 1.54684E-01 2.80458E-13-3.83360E-13
 -1      1775 1.82401E+01 3.76656E+00-2.84270E-02-1.26284E-01 2.35256E-13-4.49819E-13
 -1      1776 1.80030E+01 3.36378E+00-2.18410E-02-3.62744E-01 2.19169E-13-4.55318E-13
 -1      1777 2.07832E+01 3.56581E+00-2.32233E-02 8.69567E-01 3.57481E-13-2.29192E-13
 -1      1778 1.99519E+01 3.56944E+00-3.18750E-02 4.97402E-01 3.15989E-13-3.17892E-13
 -1      1779 1.98246E+01 2.99432E+00-2.27096E-02 2.45814E-01 3.08033E-13-3.16837E-13
 -1      1780 2.24247E+01 3.29831E+00-5.22175E-02 1.65578E+00 4.24022E-13 3.72341E-14
 -1      1781 2.15903E+01 3.37748E+00-4.45441E-02 1.23337E+00 3.83452E-13-1.16556E-13
 -1      1782 2.15499E+01 2.69533E+00-1.57301E-02 9.65814E-01 3.86679E-13-1.33921E-13
 -1      1783 2.43305E+01 2.60016E+00-6.65188E-02 2.31108E+00 4.21853E-13 4.82753E-13
 -1      1784 2.33136E+01 2.96455E+00-5.56890E-02 1.94426E+00 4.15184E-13 2.22912E-13
 -1      1785 2.32767E+01 2.25381E+00 3.97731E-03 1.57325E+00 4.28522E-13 1.43500E-13
 -1      1786 2.58005E+01 1.12282E+00-1.36571E-01 1.92996E+00 3.64458E-13 1.00547E-12
 -1      1787 2.50046E+01 2.22439E+00-1.61614E-03 2.26902E+00 3.98962E-13 6.65579E-13
 -1      1788 2.45234E+01 1.45956E+00-2.72375E-02 1.65130E+00 4.30506E-13 4.94521E-13
 -1      1789 2.51398E+01 6.48198E-01-6.50072E-02 1.15856E+00 3.66915E-13 9.00951E-13
 -1      1790 2.60715E+01 2.48345E+00 8.63118E-02-2.45045E+00-3.43076E-13 3.48874E-13
 -1      1791 2.44130E+01 9.32943E-02-1.38729E-02 5.64981E-01 2.75278E-13 7.32695E-13
 -1      1792 2.49049E+01 2.58450E-01-1.77756E-02 8.15190E-01 3.04017E-13 8.23162E-13
 -1      1793 2.47099E+01 6.09512E-01 4.74367E-04 1.12948E+00 3.55455E-13 6.06756E-13
 -1      1794 2.56098E+01 1.59845E+00 8.04502E-02-1.69796E+00-3.50331E-13 2.21816E-13
 -1      1795 2.50674E+01 2.00310E-01 3.40545E-02-5.93821E-01-2.52309E-13 2.14602E-13
 -1      1796 2.46786E+01-1.67066E-02-1.14911E-02-4.93170E-01-2.08658E-13 1.60919E-13
 -1      1797 2.46154E+01-1.62180E-01 2.61929E-02-5.12475E-01-1.94320E-13 1.71410E-13
 -1      1798 2.43337E+01-3.01842E-01-1.21694E-02-6.32195E-01-1.60902E-13 1.17342E-13
 -1      1799 2.44181E+01-1.05505E-01-6.11267E-03-6.65825E-01-2.34300E-13 4.34084E-14
 -1      1800 2.42945E+01-3.80347E-01 1.36050E-02-8.40919E-01-1.18698E-13 1.44423E-13
 -1      1801 2.39497E+01-4.23863E-01-1.23225E-02-1.06319E+00-1.09154E-13 1.08130E-13
 -1      1802 2.42993E+01-4.94355E-01-8.55404E-04-8.85322E-01-1.67068E-13 5.70052E-14
 -1      1803 2.38440E+01-3.99701E-01 1.17079E-03-1.34381E+00-8.75272E-14 1.28746E-13
 -1      1804 2.34022E+01-3.02612E-01-9.07862E-04-1.53903E+00-7.23362E-14 1.17696E-13
 -1      1805 2.41606E+01-5.90208E-01 7.35374E-03-1.42074E+00-1.01958E-13 9.24088E-14
 -1      1806 2.31596E+01-1.40294E-01-9.11939E-03-1.70482E+00-8.03934E-14 1.07908E-13
 -1      1807 2.26815E+01 1.00778E-01 1.68661E-02-1.71408E+00-1.23335E-13 7.20535E-14
 -1      1808 2.38329E+01-2.95907E-01 1.07782E-02-1.93529E+00-1.02574E-13 5.86172E-14
 -1      1809 2.23372E+01 3.60749E-01-1.07672E-02-1.56527E+00-1.76002E-13 1.57721E-14
 -1      1810 2.19587E+01 6.33277E-01 2.69584E-02-1.28264E+00-1.74598E-13-1.02505E-14
 -1      1811 2.32709E+01 3.62666E-01-1.64567E-04-1.98905E+00-1.72495E-13 4.40793E-14
 -1      1812 2.16943E+01 8.35146E-01 1.82349E-03-7.66350E-01-1.89050E-13-4.89383E-14
 -1      1813 2.15580E+01 9.46659E-01 1.77200E-02-2.60209E-01-1.63205E-13-1.07118E-13
 -1      1814 2.26771E+01 1.07288E+00-2.03631E-02-1.26254E+00-2.12413E-13-4.41314E-14
 -1      1815 2.15542E+01 9.32556E-01 1.61933E-02 4.09795E-01-1.88655E-13-1.62533E-13
 -1      1816 2.17158E+01 7.86460E-01-5.18998E-03 9.00412E-01-1.63983E-13-2.04370E-13
 -1      1817 2.24159E+01 1.36807E+00-2.98585E-02 7.96426E-02-2.16183E-13-1.96988E-13
 -1      1818 2.19725E+01 5.61721E-01 2.40476E-02 1.36711E+00-1.60936E-13-2.54096E-13
 -1      1819 2.23505E+01 2.79225E-01-1.48318E-02 1.60585E+00-1.47496E-13-3.68374E-13
 -1      1820 2.26654E+01 9.95924E-01-1.88930E-02 1.37555E+00-2.23217E-13-3.47393E-13
 -1      1821 2.26472E+01 1.43858E-02 1.20101E-02 1.69176E+00-1.81547E-13-4.03811E-13
 -1      1822 2.30914E+01-2.29787E-01-1.45677E-02 1.62975E+00-1.39557E-13-4.99056E-13
 -1      1823 2.31965E+01 2.40987E-01 2.74507E-03 1.96813E+00-2.12880E-13-3.96003E-13
 -1      1824 2.32461E+01-3.92725E-01-8.34872E-03 1.39057E+00-1.19299E-13-5.30085E-13
 -1      1825 2.36019E+01-4.94035E-01-8.47925E-03 1.13966E+00-8.88265E-14-5.71687E-13
 -1      1826 2.36299E+01-4.34753E-01 1.17308E-02 1.75918E+00-1.78808E-13-4.96967E-13
 -1      1827 2.35762E+01-5.25839E-01-2.12660E-02 7.73120E-01-5.85391E-14-5.83094E-13
 -1      1828 2.37634E+01-5.03724E-01-2.97048E-03 4.80706E-01-4.50352E-14-5.38320E-13
 -1      1829 2.37468E+01-7.42483E-01 1.05952E-02 1.06492E+00-8.37043E-14-5.66852E-13
 -1      1830 2.36128E+01-4.54681E-01-2.35427E-02 1.47159E-01-6.02582E-14-4.98650E-13
 -1      1831 2.36259E+01-3.75895E-01-7.44491E-04-9.08176E-02-3.87008E-14-4.87387E-13
 -1      1832 2.35726E+01-7.13705E-01 4.61974E-03 2.89712E-01-5.02862E-14-4.60357E-13
 -1      1833 2.34171E+01-3.02160E-01-1.88333E-02-3.22068E-01-1.06408E-14-5.15085E-13
 -1      1834 2.32957E+01-2.18519E-01-6.72988E-05-4.72947E-01 2.04342E-14-4.76255E-13
 -1      1835 2.32255E+01-5.13841E-01 1.77274E-04-3.23885E-01-4.37107E-14-4.79389E-13
 -1      1836 2.30727E+01-1.53149E-01-1.16915E-02-5.97485E-01-4.91924E-15-4.68614E-13
 -1      1837 2.28693E+01-8.87759E-02 1.18248E-04-6.68799E-01 1.92992E-14-4.28570E-13
 -1      1838 2.28070E+01-2.87787E-01-2.07308E-03-7.05290E-01 2.96811E-15-5.16449E-13
 -1      1839 2.26550E+01-4.28834E-02-5.10747E-03-7.10904E-01-9.58543E-15-4.53333E-13
 -1      1840 2.24160E+01-2.20962E-03 4.07996E-04-7.25229E-01-4.69246E-14-4.39554E-13
 -1      1841 2.23788E+01-1.07018E-01-2.76001E-03-8.80707E-01-1.78668E-14-5.33115E-13
 -1      1842 2.22207E+01 2.50034E-02-3.11018E-04-7.14293E-01-3.46004E-14-3.50301E-13
 -1      1843 2.19794E+01 4.63281E-02 7.54938E-04-6.94411E-01 9.44411E-15-3.17870E-13
 -1      1844 2.19734E+01 1.09728E-02-2.81570E-03-9.09785E-01 5.43128E-15-3.40253E-13
 -1      1845 2.18069E+01 5.97380E-02 2.60349E-03-6.54563E-01-5.41795E-14-3.21942E-13
 -1      1846 2.15838E+01 6.79824E-02 1.05701E-03-6.17799E-01 7.56339E-15-3.60373E-13
 -1      1847 2.16061E+01 7.55677E-02-2.70336E-03-8.50546E-01-9.52352E-15-2.41854E-13
 -1      1848 2.14352E+01 7.25609E-02 4.03811E-03-5.65706E-01 9.64092E-14-3.80686E-13
 -1      1849 2.12403E+01 7.30443E-02 1.24883E-03-5.23345E-01 1.04289E-13-3.75202E-13
 -1      1850 2.12836E+01 1.03043E-01-2.54738E-03-7.46999E-01 2.85398E-14-2.13719E-13
 -1      1851 2.11151E+01 7.25795E-02 4.47617E-03-4.69241E-01 8.27003E-14-3.82733E-13
 -1      1852 2.09517E+01 6.90234E-02 1.31911E-03-4.27787E-01 1.91095E-14-3.68419E-13
 -1      1853 2.10078E+01 1.07916E-01-2.36384E-03-6.28215E-01 7.45693E-14-2.18964E-13
 -1      1854 2.08483E+01 6.60268E-02 4.32283E-03-3.77280E-01 1.59013E-14-3.15875E-13
 -1      1855 2.07156E+01 6.07579E-02 1.28913E-03-3.40002E-01 4.35448E-14-2.46358E-13
 -1      1856 2.07772E+01 1.00623E-01-2.15105E-03-5.11386E-01 7.29906E-14-2.38820E-13
 -1      1857 2.06319E+01 5.67512E-02 3.86632E-03-2.95705E-01-7.31031E-14-2.37763E-13
 -1      1858 2.05268E+01 5.11023E-02 1.19098E-03-2.63889E-01-6.15174E-14-2.34234E-13
 -1      1859 2.05884E+01 8.78224E-02-1.91370E-03-4.05482E-01 1.63834E-14-2.02415E-13
 -1      1860 2.04603E+01 4.69394E-02 3.29079E-03-2.26623E-01-2.53015E-14-2.86981E-13
 -1      1861 2.03790E+01 4.16067E-02 1.05474E-03-2.00431E-01-2.09011E-14-3.94368E-13
 -1      1862 2.04369E+01 7.34074E-02-1.66319E-03-3.14279E-01-7.39745E-14-1.90249E-13
 -1      1863 2.03271E+01 3.77259E-02 2.70356E-03-1.70025E-01 8.17465E-14-4.41391E-13
 -1      1864 2.02655E+01 3.30248E-02 9.03618E-04-1.49048E-01 2.92454E-14-4.07170E-13
 -1      1865 2.03175E+01 5.94657E-02-1.41302E-03-2.38509E-01 1.27514E-14-4.11825E-13
 -1      1866 2.02257E+01 2.96200E-02 2.16094E-03-1.24841E-01-1.29589E-13-4.38729E-13
 -1      1867 2.01800E+01 2.56513E-02 7.53454E-04-1.08419E-01-2.02545E-13-4.88797E-13
 -1      1868 2.02251E+01 4.69895E-02-1.17502E-03-1.77271E-01-7.82580E-14-4.00076E-13
 -1      1869 2.01501E+01 2.27798E-02 1.68788E-03-8.95496E-02-1.45102E-13-3.93883E-13
 -1      1870 2.01169E+01 1.95309E-02 6.13891E-04-7.69528E-02-2.81217E-14-4.20243E-13
 -1      1871 2.01550E+01 3.63438E-02-9.57671E-04-1.28895E-01-8.57174E-14-2.20830E-13
 -1      1872 2.00949E+01 1.71776E-02 1.29122E-03-6.25307E-02 5.31668E-14-4.24960E-13
 -1      1873 2.00714E+01 1.45811E-02 4.89996E-04-5.30563E-02 1.24413E-13-3.45627E-13
 -1      1874 2.01028E+01 2.75548E-02-7.65831E-04-9.14497E-02 4.34692E-15-2.71866E-13
 -1      1875 2.00555E+01 1.26961E-02 9.68061E-04-4.22449E-02 5.85939E-14-3.96649E-13
 -1      1876 2.00394E+01 1.06632E-02 3.83707E-04-3.52611E-02 2.62838E-14-4.26335E-13
 -1      1877 2.00648E+01 2.04795E-02-6.01313E-04-6.30203E-02 2.85572E-14-2.45627E-13
 -1      1878 2.00282E+01 9.18310E-03 7.10849E-04-2.73191E-02 2.42004E-14-4.17608E-13
 -1      1879 2.00175E+01 7.62128E-03 2.94976E-04-2.22830E-02 9.38494E-15-4.05960E-13
 -1      1880 2.00377E+01 1.49029E-02-4.63682E-04-4.18544E-02 3.13112E-14-2.38145E-13
 -1      1881 2.00099E+01 6.48032E-03 5.10241E-04-1.65777E-02-8.92888E-14-5.12842E-13
 -1      1882 2.00033E+01 5.30256E-03 2.22588E-04-1.30366E-02-1.50012E-13-5.88990E-13
 -1      1883 2.00189E+01 1.05908E-02-3.51039E-04-2.64214E-02-7.73144E-14-3.73642E-13
 -1      1884 1.99983E+01 4.43895E-03 3.56727E-04-9.04318E-03-1.21858E-13-5.72266E-13
 -1      1885 1.99944E+01 3.56787E-03 1.64732E-04-6.62838E-03-1.07113E-13-4.70640E-13
 -1      1886 2.00064E+01 7.31756E-03-2.60670E-04-1.54291E-02-1.33884E-13-4.90826E-13
 -1      1887 1.99914E+01 2.92653E-03 2.41450E-04-3.92091E-03-1.07685E-13-3.91613E-13
 -1      1888 1.99895E+01 2.29585E-03 1.19364E-04-2.33839E-03-1.10138E-14-2.34505E-13
 -1      1889 1.99984E+01 4.87958E-03-1.89519E-04-7.81376E-03-9.66361E-15-3.66082E-13
 -1      1890 1.99878E+01 1.82937E-03 1.56590E-04-5.78054E-04-4.97841E-14-2.18191E-13
 -1      1891 1.99872E+01 1.38382E-03 8.44457E-05 4.02524E-04 2.79752E-14-3.64483E-13
 -1      1892 1.99937E+01 3.10055E-03-1.34515E-04-2.71835E-03 4.31040E-15-9.92379E-14
 -1      1893 1.99864E+01 1.05251E-03 9.54740E-05 1.48043E-03 1.76858E-13-3.86788E-13
 -1      1894 1.99866E+01 7.47021E-04 5.80728E-05 2.03632E-03 1.65022E-13-2.72409E-13
 -1      1895 1.99913E+01 1.83220E-03-9.27703E-05 5.34666E-04 4.86973E-14-1.06288E-13
 -1      1896 1.99864E+01 5.18352E-04 5.25644E-05 2.63497E-03 1.67198E-13-2.35953E-13
 -1      1897 1.99871E+01 3.16841E-04 3.85456E-05 2.90015E-03 1.56892E-13-1.78975E-13
 -1      1898 1.99904E+01 9.52678E-04-6.16937E-05 2.47137E-03 2.13983E-13-7.29732E-14
 -1      1899 1.99873E+01 1.64660E-04 2.33591E-05 3.17265E-03 2.43466E-13-1.15510E-13
 -1      1900 1.99883E+01 3.87210E-05 2.43938E-05 3.24649E-03 2.99185E-13 1.24222E-13
 -1      1901 1.99904E+01 3.63759E-04-3.90362E-05 3.49305E-03 3.25127E-13-3.31747E-14
 -1      1902 1.99887E+01-5.76624E-05 4.26812E-06 3.30597E-03 1.09720E-13 5.25888E-14
 -1      1903 1.99897E+01-1.30042E-04 1.43745E-05 3.26054E-03 1.69009E-14 1.57373E-13
 -1      1904 1.99911E+01-1.23572E-05-2.28992E-05 3.90003E-03 2.22280E-13 6.59843E-14
 -1      1905 1.99903E+01-1.86755E-04-7.52301E-06 3.18867E-03-1.03414E-13 1.65764E-13
 -1      1906 1.99913E+01-2.22406E-04 7.45307E-06 3.07490E-03-2.04325E-13 1.04997E-13
 -1      1907 1.99921E+01-2.36361E-04-1.17152E-05 3.91251E-03-3.88205E-14-1.42325E-14
 -1      1908 1.99919E+01-2.51868E-04-1.41842E-05 2.92899E-03-3.69871E-13 5.41514E-14
 -1      1909 1.99929E+01-2.63523E-04 2.77547E-06 2.78158E-03-2.70424E-13-1.10509E-14
 -1      1910 1.99932E+01-3.54961E-04-4.21554E-06 3.68792E-03-2.90001E-13 5.24774E-15
 -1      1911 1.99934E+01-2.75232E-04-1.73599E-05 2.60026E-03-1.67680E-13-1.18018E-13
 -1      1912 1.99943E+01-2.72496E-04-3.63603E-07 2.44156E-03-2.54500E-14-1.92987E-13
 -1      1913 1.99944E+01-4.03743E-04 6.06996E-07 3.33520E-03-2.08002E-13-2.37072E-13
 -1      1914 1.99948E+01-2.73734E-04-1.82710E-05 2.24921E-03 2.82159E-13-3.61308E-13
 -1      1915 1.99956E+01-2.63929E-04-2.54623E-06 2.09217E-03 2.52635E-13-1.86256E-13
 -1      1916 1.99955E+01-4.09751E-04 3.53462E-06 2.92622E-03-3.44497E-15-2.40232E-13
 -1      1917 1.99960E+01-2.60383E-04-1.77882E-05 1.90230E-03 1.29591E-13-2.32795E-14
 -1      1918 1.99967E+01-2.49251E-04-4.22664E-06 1.75256E-03 2.55602E-13 1.03930E-13
 -1      1919 1.99964E+01-3.93740E-04 5.15869E-06 2.50451E-03 2.90538E-13-2.25192E-13
 -1      1920 1.99971E+01-2.45502E-04-1.64656E-05 1.57029E-03 1.69875E-13-6.43804E-14
 -1      1921 1.99976E+01-2.37693E-04-5.68142E-06 1.42770E-03 2.01476E-13-1.07301E-13
 -1      1922 1.99973E+01-3.72015E-04 5.92057E-06 2.09199E-03 1.77941E-13-3.05278E-13
 -1      1923 1.99980E+01-2.37482E-04-1.45435E-05 1.25192E-03 9.01330E-14-8.79009E-14
 -1      1924 1.99984E+01-2.36678E-04-6.90950E-06 1.11184E-03-9.45005E-15-1.51833E-13
 -1      1925 1.99980E+01-3.57685E-04 6.09194E-06 1.69420E-03 7.57643E-14-3.49081E-13
 -1      1926 1.99987E+01-2.42362E-04-1.19351E-05 9.37463E-04 7.70866E-14-2.45889E-13
 -1      1927 1.99990E+01-2.48955E-04-7.61969E-06 7.92671E-04 4.18437E-14 1.02767E-14
 -1      1928 1.99987E+01-3.60543E-04 5.49943E-06 1.30539E-03-1.05483E-14-1.87272E-13
 -1      1929 1.99992E+01-2.51341E-04-9.41680E-06 6.24487E-04-5.76345E-14-4.52638E-14
 -1      1930 1.99994E+01-2.57535E-04-8.61676E-06 4.77162E-04-4.47446E-14-4.20814E-14
 -1      1931 1.99995E+01-3.55592E-04 4.87139E-06 5.64508E-04-1.47766E-13-2.98257E-13
 -1      1932 1.99991E+01-3.67741E-04 7.45965E-06 9.25960E-04 2.37329E-14-1.32025E-13
 -1      1933 2.38848E+01-1.16036E-01 5.22544E-04 5.56882E-01 2.15654E-13 5.88394E-13
 -1      1934 2.42183E+01-3.89399E-02 1.08686E-02 5.42838E-01 2.29420E-13 6.77500E-13
 -1      1935 2.41655E+01 1.68493E-02-3.36266E-04 7.33775E-01 2.81995E-13 5.07091E-13
 -1      1936 2.33442E+01-2.04006E-01 5.98091E-04 8.17223E-01 1.90179E-13 4.83816E-13
 -1      1937 2.36805E+01-1.82137E-01 7.00472E-03 6.78900E-01 1.65108E-13 5.48932E-13
 -1      1938 2.37304E+01-2.21644E-01 4.92597E-03 8.31081E-01 2.16217E-13 4.20961E-13
 -1      1939 2.26670E+01-1.69581E-01 3.32080E-03 1.14426E+00 1.29351E-13 4.68389E-13
 -1      1940 2.30805E+01-2.05948E-01 1.65088E-03 9.77390E-01 1.48965E-13 4.85482E-13
 -1      1941 2.32669E+01-2.76012E-01 8.45630E-03 1.16135E+00 1.71378E-13 3.67154E-13
 -1      1942 2.18435E+01 6.38138E-04 6.93944E-03 1.30953E+00 4.26206E-14 3.81688E-13
 -1      1943 2.23229E+01-9.18336E-02 5.45319E-04 1.22371E+00 8.94220E-14 4.39409E-13
 -1      1944 2.26721E+01-1.41524E-01 8.93850E-03 1.47115E+00 1.03279E-13 3.44150E-13
 -1      1945 2.10194E+01 2.54780E-01 5.38525E-03 1.10299E+00 9.46136E-14 3.23118E-13
 -1      1946 2.14744E+01 1.43505E-01 3.09442E-03 1.19653E+00 5.46022E-14 3.42306E-13
 -1      1947 2.19680E+01 1.60312E-01 2.42545E-03 1.48518E+00 8.76742E-14 2.89933E-13
 -1      1948 2.04623E+01 4.57237E-01-1.69583E-03 4.76930E-01 1.42684E-13 2.46837E-13
 -1      1949 2.07574E+01 3.94269E-01 8.38947E-03 7.66445E-01 1.35687E-13 2.84793E-13
 -1      1950 2.13324E+01 5.00122E-01-9.34998E-03 1.01792E+00 1.63749E-13 2.10994E-13
 -1      1951 2.04133E+01 4.70418E-01-8.45554E-03-3.60017E-01 1.05244E-13 7.04055E-14
 -1      1952 2.04357E+01 5.04973E-01 1.30397E-02 2.15453E-02 1.28526E-13 1.52414E-13
 -1      1953 2.10200E+01 6.83454E-01-1.56014E-02 1.39123E-01 1.71963E-13 9.42226E-14
 -1      1954 2.09009E+01 2.81197E-01-7.36656E-03-1.04235E+00 5.10945E-14-6.18082E-15
 -1      1955 2.06365E+01 3.94577E-01 1.30618E-02-7.35918E-01 7.12711E-14 1.80134E-14
 -1      1956 2.11771E+01 5.83367E-01-1.07581E-02-8.02584E-01 1.35595E-13 2.04160E-14
 -1      1957 2.16937E+01 1.61089E-02-3.47316E-04-1.30719E+00 1.18968E-13-3.46286E-14
 -1      1958 2.12477E+01 1.38646E-01 7.11002E-03-1.18615E+00 1.17048E-13-5.61010E-15
 -1      1959 2.17025E+01 2.59446E-01-1.03457E-03-1.39937E+00 1.20992E-13-8.87268E-14
 -1      1960 2.24738E+01-1.85774E-01 6.94403E-03-1.14617E+00 9.01570E-14-1.63404E-13
 -1      1961 2.20045E+01-1.10581E-01-1.33720E-03-1.20888E+00 1.11394E-13-7.86645E-14
 -1      1962 2.23285E+01-9.73995E-02 4.79134E-03-1.47415E+00 1.38754E-13-1.73503E-13
 -1      1963 2.30116E+01-2.65124E-01 9.58216E-03-7.33200E-01 5.74219E-14-2.05930E-13
 -1      1964 2.26515E+01-2.50520E-01-8.01550E-03-9.03068E-01 6.19348E-14-1.45970E-13
 -1      1965 2.28148E+01-3.28736E-01 4.11422E-03-1.12926E+00 1.09033E-13-2.27263E-13
 -1      1966 2.32325E+01-2.43852E-01 7.96293E-03-2.73285E-01 2.03249E-14-2.36054E-13
 -1      1967 2.30422E+01-2.70151E-01-1.08777E-02-4.64008E-01 2.58248E-14-2.04311E-13
 -1      1968 2.30492E+01-3.89201E-01 9.15762E-04-6.00680E-01 6.26582E-14-2.38988E-13
 -1      1969 2.31750E+01-1.74710E-01 4.51317E-03 1.01262E-01 5.60411E-14-2.42082E-13
 -1      1970 2.31503E+01-2.15321E-01-1.02502E-02-5.54367E-02 2.27388E-14-2.34314E-13
 -1      1971 2.30383E+01-3.28709E-01-1.46356E-03-9.51485E-02 4.47437E-14-2.81799E-13
 -1      1972 2.29237E+01-9.96805E-02 1.39542E-03 3.44884E-01 9.82786E-14-2.66395E-13
 -1      1973 2.30245E+01-1.37116E-01-7.74133E-03 2.41472E-01 7.05347E-14-2.10567E-13
 -1      1974 2.28447E+01-2.19931E-01-2.07957E-03 2.80308E-01 7.49643E-14-2.60443E-13
 -1      1975 2.25641E+01-3.94135E-02-5.79466E-04 4.67174E-01 5.55066E-14-2.69627E-13
 -1      1976 2.27413E+01-6.66767E-02-4.71667E-03 4.13703E-01 5.73040E-14-2.91357E-13
 -1      1977 2.25400E+01-1.14682E-01-1.77885E-03 5.04149E-01 1.20665E-13-2.53443E-13
 -1      1978 2.21641E+01 9.14028E-04-1.44474E-03 4.99687E-01 6.81329E-14-1.95065E-13
 -1      1979 2.23753E+01-1.56820E-02-2.00684E-03 4.83550E-01 1.29402E-13-1.69630E-13
 -1      1980 2.21841E+01-3.50968E-02-1.18894E-03 6.00423E-01 9.97546E-14-2.59634E-13
 -1      1981 2.17698E+01 2.38818E-02-1.59381E-03 4.75804E-01-6.12445E-14-2.62163E-13
 -1      1982 2.19845E+01 1.56773E-02 1.41015E-05 4.83449E-01-2.55799E-14-2.33357E-13
 -1      1983 2.18207E+01 1.55202E-02-7.12672E-04 6.07616E-01 3.47652E-14-1.83461E-13
 -1      1984 2.14086E+01 3.43863E-02-1.38556E-03 4.22071E-01-7.18575E-14-3.18570E-13
 -1      1985 2.16081E+01 3.18096E-02 1.29830E-03 4.42597E-01-6.82649E-14-2.72351E-13
 -1      1986 2.14776E+01 4.25923E-02-4.58281E-04 5.61538E-01-3.02420E-14-2.77910E-13
 -1      1987 2.10940E+01 3.69916E-02-1.05465E-03 3.56627E-01-3.64048E-14-4.09944E-13
 -1      1988 2.12687E+01 3.77495E-02 1.97247E-03 3.82502E-01-2.41426E-14-3.73989E-13
 -1      1989 2.11708E+01 5.34697E-02-3.72054E-04 4.89187E-01 1.06091E-14-3.70418E-13
 -1      1990 2.08300E+01 3.51214E-02-7.25210E-04 2.90547E-01 1.68997E-13-3.35292E-13
 -1      1991 2.09766E+01 3.75959E-02 2.20984E-03 3.17109E-01 6.68608E-14-3.54235E-13
 -1      1992 2.09071E+01 5.44708E-02-3.72995E-04 4.08462E-01 6.61760E-14-4.01727E-13
 -1      1993 2.06151E+01 3.10602E-02-4.49454E-04 2.29834E-01-4.03818E-14-3.28098E-13
 -1      1994 2.07342E+01 3.42203E-02 2.16921E-03 2.54504E-01 7.29633E-14-3.27313E-13
 -1      1995 2.06876E+01 5.01382E-02-4.00879E-04 3.30010E-01 4.29348E-14-3.12901E-13
 -1      1996 2.04446E+01 2.62109E-02-2.40377E-04 1.77203E-01-2.26404E-13-1.81260E-13
 -1      1997 2.05386E+01 2.94534E-02 1.97298E-03 1.98770E-01-1.90837E-13-2.77721E-13
 -1      1998 2.05096E+01 4.34107E-02-4.22646E-04 2.59405E-01-1.85392E-13-2.07511E-13
 -1      1999 2.03124E+01 2.13712E-02-9.30283E-05 1.33387E-01-1.58712E-13-7.18442E-14
 -1      2000 2.03849E+01 2.43755E-02 1.70569E-03 1.51471E-01-1.79444E-13-1.02684E-13
 -1      2001 2.03686E+01 3.60394E-02-4.25587E-04 1.98964E-01-2.22259E-13-5.18726E-14
 -1      2002 2.02122E+01 1.69516E-02 3.96035E-06 9.80203E-02-6.99187E-14-9.19241E-15
 -1      2003 2.02667E+01 1.95725E-02 1.42079E-03 1.12714E-01-1.62274E-13-4.08409E-14
 -1      2004 2.02595E+01 2.89821E-02-4.08795E-04 1.49066E-01-1.56073E-13-1.34770E-13
 -1      2005 2.01379E+01 1.31283E-02 6.28102E-05 7.01979E-02 1.27122E-13 2.11938E-13
 -1      2006 2.01780E+01 1.53233E-02 1.14916E-03 8.18319E-02 5.96464E-14 1.26445E-13
 -1      2007 2.01766E+01 2.27019E-02-3.76665E-04 1.09037E-01-4.75667E-15 4.50000E-14
 -1      2008 2.00840E+01 9.94304E-03 9.43067E-05 4.88074E-02-1.85903E-14 1.31548E-13
 -1      2009 2.01128E+01 1.17257E-02 9.06551E-04 5.78102E-02 5.41708E-14 2.20339E-13
 -1      2010 2.01152E+01 1.73699E-02-3.35018E-04 7.76997E-02 8.02997E-14 2.60749E-13
 -1      2011 2.00461E+01 7.36488E-03 1.07118E-04 3.27200E-02 1.10050E-14-4.10709E-16
 -1      2012 2.00661E+01 8.77650E-03 6.99200E-04 3.95373E-02 3.06104E-14 5.38980E-14
 -1      2013 2.00706E+01 1.29937E-02-2.89178E-04 5.37092E-02 8.21044E-14 6.90747E-14
 -1      2014 2.00202E+01 5.32783E-03 1.07826E-04 2.08897E-02-1.22940E-13-1.07086E-13
 -1      2015 2.00336E+01 6.42092E-03 5.27694E-04 2.59406E-02-9.04534E-14-8.02351E-14
 -1      2016 2.00391E+01 9.49728E-03-2.43242E-04 3.57388E-02-4.20170E-14 3.05265E-14
 -1      2017 2.00033E+01 3.75284E-03 1.01225E-04 1.23993E-02-7.31981E-14-1.83592E-13
 -1      2018 2.00119E+01 4.58150E-03 3.89543E-04 1.60554E-02-8.06038E-14-2.01460E-13
 -1      2019 2.00176E+01 6.76769E-03-1.99991E-04 2.25783E-02-7.14296E-14-4.20669E-14
 -1      2020 1.99928E+01 2.56020E-03 9.06848E-05 6.47423E-03-1.15913E-14-3.63959E-13
 -1      2021 1.99979E+01 3.17509E-03 2.80782E-04 9.05196E-03-2.36566E-14-2.24196E-13
 -1      2022 2.00034E+01 4.68190E-03-1.61064E-04 1.31760E-02-2.06933E-14-3.04762E-13
 -1      2023 1.99870E+01 1.67607E-03 7.84831E-05 2.47899E-03 5.62227E-14-1.98241E-13
 -1      2024 1.99897E+01 2.12199E-03 1.96950E-04 4.23998E-03-6.35353E-15-3.14771E-13
 -1      2025 1.99947E+01 3.12144E-03-1.27231E-04 6.64974E-03-1.37175E-15-2.99359E-13
 -1      2026 1.99843E+01 1.03546E-03 6.60932E-05-9.54371E-05-1.39740E-13-7.84066E-14
 -1      2027 1.99853E+01 1.35056E-03 1.33657E-04 1.05982E-03-1.17566E-14-9.11707E-14
 -1      2028 1.99897E+01 1.97960E-03-9.86507E-05 2.27900E-03-4.78171E-14-8.36558E-14
 -1      2029 1.99837E+01 5.83242E-04 5.44084E-05-1.64833E-03 1.79278E-13 4.49779E-14
 -1      2030 1.99836E+01 7.99080E-04 8.68788E-05-9.32204E-04 7.68712E-15 4.59831E-14
 -1      2031 1.99874E+01 1.16440E-03-7.50854E-05-5.11031E-04-1.79205E-14 7.48938E-14
 -1      2032 1.99843E+01 2.73897E-04 4.39160E-05-2.48663E-03-8.57350E-14 2.05662E-13
 -1      2033 1.99837E+01 4.15945E-04 5.30986E-05-2.08071E-03 6.13383E-14 1.39475E-13
 -1      2034 1.99868E+01 5.98989E-04-5.60704E-05-2.16959E-03 5.09322E-14 3.21198E-13
 -1      2035 1.99858E+01 7.07006E-05 3.48272E-05-2.84166E-03-3.28226E-13 1.68281E-13
 -1      2036 1.99848E+01 1.59110E-04 2.93419E-05-2.64811E-03-1.64100E-13 1.29350E-13
 -1      2037 1.99873E+01 2.20786E-04-4.10306E-05-3.04084E-03-1.15031E-13 3.96262E-13
 -1      2038 1.99876E+01-5.54114E-05 2.71716E-05-2.88408E-03-8.82232E-14 2.11467E-13
 -1      2039 1.99864E+01-4.99614E-06 1.31588E-05-2.83018E-03-2.22538E-13 1.69125E-13
 -1      2040 1.99884E+01-2.01240E-05-2.93609E-05-3.38320E-03-2.39753E-13 2.38266E-13
 -1      2041 1.99895E+01-1.27052E-04 2.08632E-05-2.73678E-03-1.35259E-13 2.30407E-13
 -1      2042 1.99883E+01-1.02691E-04 2.57401E-06-2.76973E-03-1.37260E-13 8.01013E-14
 -1      2043 1.99899E+01-1.62821E-04-2.04762E-05-3.38649E-03-1.43090E-13 6.53745E-14
 -1      2044 1.99914E+01-1.61575E-04 1.57451E-05-2.48565E-03-5.28221E-14 4.33348E-13
 -1      2045 1.99902E+01-1.54294E-04-3.97671E-06-2.56819E-03-4.95442E-14 3.48797E-13
 -1      2046 1.99914E+01-2.37424E-04-1.38408E-05-3.18666E-03-1.09555E-13 2.71819E-13
 -1      2047 1.99931E+01-1.72192E-04 1.16179E-05-2.18825E-03 9.38528E-14 1.26619E-13
 -1      2048 1.99921E+01-1.75320E-04-7.71415E-06-2.29511E-03 4.67161E-14 2.48834E-13
 -1      2049 1.99929E+01-2.66864E-04-8.98245E-06-2.87796E-03 1.36540E-13 3.01552E-13
 -1      2050 1.99946E+01-1.68974E-04 8.26070E-06-1.88058E-03 1.25105E-13 3.52347E-13
 -1      2051 1.99937E+01-1.77570E-04-9.57634E-06-1.99573E-03 1.53343E-13 2.08479E-13
 -1      2052 1.99944E+01-2.68510E-04-5.49485E-06-2.52269E-03 4.96094E-14 3.00352E-13
 -1      2053 1.99960E+01-1.59784E-04 5.45022E-06-1.58212E-03 8.12976E-14 1.59228E-13
 -1      2054 1.99952E+01-1.70122E-04-1.02703E-05-1.69674E-03 1.30077E-13 3.47818E-13
 -1      2055 1.99956E+01-2.55621E-04-3.03138E-06-2.15874E-03 1.72345E-13 3.79257E-13
 -1      2056 1.99971E+01-1.51065E-04 3.00972E-06-1.29942E-03 2.41266E-13 7.15373E-14
 -1      2057 1.99965E+01-1.60221E-04-1.02961E-05-1.41049E-03 1.36031E-13 1.22313E-13
 -1      2058 1.99967E+01-2.38644E-04-1.29597E-06-1.80528E-03 2.06585E-13 1.92391E-13
 -1      2059 1.99980E+01-1.48149E-04 1.00313E-06-1.02848E-03 3.02057E-13-1.29775E-13
 -1      2060 1.99975E+01-1.53951E-04-9.92203E-06-1.13802E-03 2.55029E-13-9.37633E-15
 -1      2061 1.99977E+01-2.26207E-04-3.04544E-09-1.46679E-03 3.57093E-13 6.90458E-14
 -1      2062 1.99988E+01-1.54577E-04-2.74674E-07-7.58420E-04 5.59601E-14-4.91580E-15
 -1      2063 1.99984E+01-1.55590E-04-9.02995E-06-8.71881E-04 2.12062E-13-6.65344E-15
 -1      2064 1.99984E+01-2.24205E-04 1.34950E-06-1.13671E-03 2.06245E-13 1.39003E-13
 -1      2065 1.99993E+01-1.71341E-04-2.96498E-06-4.77437E-04 3.08244E-14 5.66216E-14
 -1      2066 1.99990E+01-1.66051E-04-7.03802E-06-6.00912E-04 3.32658E-14 8.69571E-14
 -1      2067 1.99990E+01-2.36778E-04 2.23905E-06-8.04197E-04 4.72218E-14 3.92074E-13
 -1      2068 1.99996E+01-1.81305E-04-5.89165E-06-2.60250E-04 5.55244E-14 2.24011E-13
 -1      2069 1.99994E+01-1.85236E-04-5.09357E-06-3.86910E-04 1.34710E-13 8.36166E-14
 -1      2070 1.99994E+01-2.59469E-04 2.66908E-06-5.34286E-04 5.86773E-14 5.02872E-13
 -1      2071 1.99996E+01-2.69831E-04 1.73933E-07-3.33165E-04 1.43705E-14 6.99359E-13
 -1      2072 1.99998E+01-1.59431E-03 3.36017E-06-8.73735E-04 1.27815E-13 1.15083E-13
 -1      2073 1.99997E+01-1.31503E-03-4.49593E-06-8.55348E-04 5.47929E-14 3.98853E-13
 -1      2074 1.99997E+01-1.06569E-03 8.25713E-07-8.00155E-04 1.60030E-13 2.00594E-13
 -1      2075 1.99996E+01-8.12495E-04-6.10727E-06-7.17503E-04 2.00592E-13 3.71462E-13
 -1      2076 1.99997E+01-1.17921E-03 4.01349E-08-1.05700E-03 6.07383E-14 1.94848E-13
 -1      2077 1.99996E+01-6.30629E-04-1.16040E-06-6.01465E-04 1.28410E-13 6.31185E-13
 -1      2078 1.99996E+01-4.28898E-04-5.57900E-06-4.75479E-04 1.21635E-14 7.47682E-13
 -1      2079 1.99995E+01-4.29431E-04-3.83958E-06-5.83910E-04 3.70553E-15 7.36269E-13
 -1      2080 1.99996E+01-7.59138E-04 2.10442E-06-8.61415E-04 3.39015E-14 5.45023E-13
 -1      2081 1.99999E+01-2.09594E-03 6.02711E-06-8.17247E-04 2.62472E-14-3.09708E-13
 -1      2082 1.99998E+01-1.83105E-03-4.67205E-07-8.55530E-04 2.89279E-14-9.09405E-14
 -1      2083 1.99998E+01-1.66184E-03-2.40828E-06-1.09407E-03-2.14533E-13-1.77951E-13
 -1      2084 2.00000E+01-2.52703E-03 8.31924E-06-6.46710E-04-2.98343E-14-1.28525E-13
 -1      2085 1.99999E+01-2.30456E-03 3.43863E-06-7.32841E-04 7.77279E-14-1.60721E-14
 -1      2086 2.00000E+01-2.10705E-03-5.04939E-06-9.77256E-04-4.32974E-14-1.98984E-13
 -1      2087 2.00000E+01-2.82565E-03 9.70678E-06-3.91371E-04 7.32002E-15-1.51767E-13
 -1      2088 2.00000E+01-2.67987E-03 6.76607E-06-5.10788E-04 1.03012E-13-1.73184E-13
 -1      2089 2.00001E+01-2.46909E-03-7.28394E-06-7.28621E-04-4.75440E-14-1.18490E-13
 -1      2090 2.00000E+01-2.95630E-03 9.96818E-06-8.68395E-05-1.04708E-13-2.96848E-13
 -1      2091 2.00000E+01-2.90613E-03 8.99980E-06-2.23291E-04-8.10143E-14-1.98320E-13
 -1      2092 2.00001E+01-2.70317E-03-8.69266E-06-3.86677E-04-2.37700E-13-2.59820E-13
 -1      2093 2.00000E+01-2.90378E-03 8.99368E-06 2.28358E-04-5.47073E-14-1.51763E-13
 -1      2094 2.00000E+01-2.95565E-03 9.97008E-06 9.20511E-05-2.42921E-14-1.40947E-13
 -1      2095 2.00002E+01-2.78330E-03-9.16839E-06 3.26999E-06-3.05282E-13-1.45418E-13
 -1      2096 2.00000E+01-2.67470E-03 6.82991E-06 5.15059E-04-7.18513E-14-8.55704E-14
 -1      2097 2.00000E+01-2.82212E-03 9.63051E-06 3.96127E-04-1.20535E-13-7.89862E-14
 -1      2098 2.00001E+01-2.70063E-03-8.64828E-06 3.92850E-04-2.27109E-13-2.34061E-13
 -1      2099 1.99999E+01-2.30472E-03 3.48462E-06 7.32767E-04-1.29527E-13-3.28769E-13
 -1      2100 2.00000E+01-2.52404E-03 8.25925E-06 6.48412E-04-1.21815E-13-1.33827E-13
 -1      2101 2.00001E+01-2.46699E-03-7.33830E-06 7.31402E-04-2.82253E-13-1.94072E-13
 -1      2102 1.99998E+01-1.82666E-03-5.60731E-07 8.55964E-04 1.65883E-13 1.83371E-13
 -1      2103 1.99999E+01-2.09630E-03 6.04238E-06 8.17461E-04 7.38053E-14-6.71216E-14
 -1      2104 2.00000E+01-2.10739E-03-5.01651E-06 9.77387E-04-5.86775E-14-9.69355E-14
 -1      2105 1.99997E+01-1.30568E-03-4.51625E-06 8.54348E-04 1.69860E-13-7.22297E-14
 -1      2106 1.99998E+01-1.58541E-03 3.41173E-06 8.73785E-04 1.91448E-13-2.33629E-13
 -1      2107 1.99998E+01-1.65779E-03-2.18869E-06 1.09440E-03 1.75596E-13-3.95150E-14
 -1      2108 1.99996E+01-7.93377E-04-2.55564E-06 7.17808E-04 6.60511E-14-9.43296E-15
 -1      2109 1.99997E+01-1.05683E-03 1.18094E-06 7.97714E-04 1.44285E-13 3.68472E-15
 -1      2110 1.99997E+01-1.17247E-03 1.98529E-08 1.05374E-03 4.57539E-14-1.02011E-13
 -1      2111 9.95060E+00-4.92758E+00-1.29245E-01 6.43031E+00 3.04978E-13 7.81077E-13
 -1      2112 6.63788E+00-6.15092E+00-3.24795E-01 5.30619E+00 1.30451E-13 7.70772E-13
 -1      2113 5.83237E-01-6.57791E+00-3.68532E-01 9.54496E-01 1.65798E-13 7.19758E-13
 -1      2114 5.86888E-01-6.03970E+00-2.85901E-01-6.21766E-01-1.70697E-14 7.89868E-13
 -1      2115 3.07568E+00-5.85125E+00-2.71037E-01 3.95082E+00 2.79332E-13 8.24119E-13
 -1      2116 1.37033E+00-6.85656E+00-4.13744E-01 2.40545E+00 1.00087E-13 7.50566E-13
 -1      2117 2.35505E+00-4.17641E+00-1.58954E-01 2.15056E+00-3.85803E-15 8.21010E-13
 -1      2118 1.84511E+01-3.62124E+00-1.91076E-02 7.01693E+00 4.35540E-13 2.35229E-13
 -1      2119 1.34422E+01-5.17823E+00-3.01054E-01 6.26801E+00 3.47056E-13 5.36071E-13
 -1      2120 1.44245E+01-5.26578E+00-1.14763E-02 6.96502E+00-1.64535E-13 3.66186E-13
 -1      2121 2.78111E+01-5.25697E-01 1.81353E-01 5.74578E+00 6.58029E-13 2.09721E-13
 -1      2122 2.29333E+01-2.65680E+00-1.46008E-01 5.54970E+00 6.11844E-13 1.73805E-13
 -1      2123 1.94913E+01 3.70744E+00-3.37783E-02-3.19766E-01-1.49981E-13-5.91187E-13
 -1      2124 2.04520E+01 3.69351E+00-1.78994E-02-6.53373E-01-2.03578E-13-5.22041E-13
 -1      2125 2.12656E+01 2.82490E+00-1.75285E-02-7.16975E-01-2.28193E-13-4.38802E-13
 -1      2126 1.92616E+01 3.21171E+00-2.19286E-02-7.01376E-02-1.32748E-13-5.85004E-13
 -1      2127 3.87983E+01 5.67360E+00 3.38896E-01 1.77893E+00 8.07354E-13-2.05003E-13
 -1      2128 3.60117E+01 4.60216E+00 1.47445E-01 2.68953E+00 8.47905E-13-2.86438E-14
 -1      2129 4.04701E+01 7.10755E+00 3.03859E-01 1.24554E-01 9.08162E-13-4.50614E-13
 -1      2130 4.00853E+01 6.85264E+00 3.43063E-01 1.46285E+00 8.54206E-13-2.09499E-13
 -1      2131 3.77061E+01 6.48918E+00 1.42847E-01-8.89237E-01 1.05765E-12-6.15952E-13
 -1      2132 3.97178E+01 7.08373E+00 3.54141E-01-1.59280E-01 1.01491E-12-4.52291E-13
 -1      2133 3.45072E+01 3.53663E+00 1.12230E-01-2.94119E+00 1.03750E-12-9.10161E-13
 -1      2134 3.74371E+01 4.89452E+00 2.52749E-01-1.93044E+00 1.01935E-12-7.40796E-13
 -1      2135 2.81283E+01-1.15007E-01-1.20733E-02-4.37835E+00 8.37358E-13-8.93841E-13
 -1      2136 3.25753E+01 1.82364E+00 2.66621E-01-4.19530E+00 9.57096E-13-9.32143E-13
 -1      2137 1.84823E+01-2.74760E+00-2.30332E-01-6.14591E+00 8.33333E-13-1.14708E-12
 -1      2138 2.37055E+01-1.75555E+00-6.89348E-02-6.04544E+00 7.50067E-13-1.03334E-12
 -1      2139 1.05516E+01-4.48526E+00-3.87865E-01-5.82311E+00 6.69131E-13-1.13941E-12
 -1      2140 1.46235E+01-2.94673E+00-1.13067E-01-6.80154E+00 8.49987E-13-1.18677E-12
 -1      2141 4.35888E+00-5.40538E+00-4.00572E-01-4.31334E+00 3.35842E-13-1.04156E-12
 -1      2142 7.28894E+00-4.20622E+00-1.96799E-01-5.58234E+00 6.03240E-13-1.15163E-12
 -1      2143 9.44583E-01-5.21465E+00-3.41281E-01-1.63354E+00-3.01148E-14-1.02246E-12
 -1      2144 2.21883E+00-4.69756E+00-2.61680E-01-3.12815E+00 2.96985E-13-1.06193E-12
 -1      2145 9.59066E-01-5.09562E+00-3.14283E-01 1.73649E+00-3.59768E-13-1.01352E-12
 -1      2146 2.97397E-01-5.52032E+00-3.89192E-01 2.03545E-01-4.13263E-14-1.00886E-12
 -1      2147 4.98434E+00-4.85038E+00-3.00372E-01 4.64072E+00-7.31526E-13-1.07792E-12
 -1      2148 2.63237E+00-5.67264E+00-4.25069E-01 3.33771E+00-4.30600E-13-9.81326E-13
 -1      2149 1.21525E+01-3.64043E+00-1.62190E-01 6.45047E+00-9.24927E-13-1.23827E-12
 -1      2150 8.27425E+00-5.11022E+00-4.25862E-01 5.30500E+00-7.38742E-13-1.09546E-12
 -1      2151 2.12212E+01-2.28111E+00-3.05376E-02 6.56704E+00-9.51850E-13-1.12416E-12
 -1      2152 1.61771E+01-3.68145E+00-3.03960E-01 6.05437E+00-9.02445E-13-1.15635E-12
 -1      2153 3.02944E+01 4.85014E-01 1.60534E-01 4.92209E+00-1.04178E-12-1.08447E-12
 -1      2154 2.55424E+01-1.31518E+00-1.35941E-01 4.85857E+00-9.60954E-13-1.02834E-12
 -1      2155 3.56598E+01 3.35101E+00 1.41938E-01 2.24950E+00-1.03019E-12-7.85927E-13
 -1      2156 3.23876E+01 1.97643E+00 3.61040E-02 3.48136E+00-1.08694E-12-1.01086E-12
 -1      2157 3.12911E+01 1.88004E-02 1.71498E-01 1.57452E+00-7.41473E-13-4.82725E-13
 -1      2158 3.96747E+01 6.48933E+00 3.50221E-01 6.55510E-01-1.05616E-12-7.10543E-13
 -1      2159 3.69875E+01 5.58124E+00 1.06301E-01 1.28981E+00-1.10145E-12-7.88369E-13
 -1      2160 4.04773E+01 7.09018E+00 3.40497E-01-6.56848E-01-8.48266E-13-5.34767E-13
 -1      2161 3.99697E+01 7.11286E+00 2.58730E-01 3.83420E-01-9.63452E-13-7.21451E-13
 -1      2162 3.79116E+01 6.07016E+00 1.84752E-01-1.69333E+00-7.11153E-13-3.70814E-13
 -1      2163 4.03989E+01 6.66428E+00 4.07679E-01-9.86094E-01-7.62834E-13-5.60135E-13
 -1      2164 3.60713E+01 7.90033E+00 3.54229E-01 6.47391E-02-8.98337E-13-5.68004E-13
 -1      2165 3.38285E+01 2.83149E+00 8.47199E-02-3.50712E+00-6.68986E-13-1.25011E-13
 -1      2166 3.67096E+01 4.12360E+00 2.28915E-01-2.45461E+00-5.94247E-13-3.15026E-13
 -1      2167 2.81079E+01 8.20755E-02-5.89202E-02-5.01516E+00-6.73239E-13 6.97220E-14
 -1      2168 3.24207E+01 1.58452E+00 2.32977E-01-4.78064E+00-6.38684E-13-6.49480E-14
 -1      2169 3.25660E+01 1.25778E+00 2.16596E-01-1.58291E+00-5.08371E-13-4.36984E-13
 -1      2170 2.01923E+01-2.96826E+00-2.29243E-01-6.11518E+00-6.27831E-13 2.31870E-13
 -1      2171 2.48115E+01-1.19576E+00 1.10470E-01-6.48682E+00-6.22558E-13 1.45828E-13
 -1      2172 1.28201E+01-5.24601E+00-3.29461E-01-6.15206E+00-4.46865E-13 4.94604E-13
 -1      2173 1.69293E+01-3.59938E+00-2.85394E-02-6.91255E+00-5.37348E-13 3.60489E-13
 -1      2174 6.46599E+00-6.32326E+00-3.63848E-01-5.15580E+00-3.07698E-13 6.74960E-13
 -1      2175 9.65771E+00-5.07574E+00-1.54944E-01-6.18199E+00-4.68736E-13 7.04541E-13
 -1      2176 1.39329E+01-5.44016E+00-9.19926E-02-6.87470E+00-8.42659E-14 3.65017E-13
 -1      2177 1.82288E+00-6.25435E+00-3.17244E-01-2.69439E+00 7.98805E-14 9.44467E-13
 -1      2178 3.58957E+00-5.86214E+00-2.54483E-01-4.14949E+00-2.12330E-13 9.30478E-13
 -1      2179 3.48461E+01 3.04581E+00 3.10000E-01 4.22322E+00 8.06345E-13 9.07052E-14
 -1      2180 3.03345E+01 1.36424E+00-2.04904E-02 4.53071E+00 7.85649E-13 2.18825E-13
 -1      2181 2.49593E+01 8.67372E-01-3.32060E-02-1.06906E+00-3.21534E-13 1.46598E-13
 -1      2182 3.50092E+01 5.90195E+00 2.16051E-01 1.24635E-01 9.85545E-13-3.53939E-13
 -1      2183 3.38002E+01 3.32000E+00 2.47133E-01 9.05235E-01 7.36550E-13-2.86604E-13
 -1      2184 2.43988E+01 9.38014E-01-2.24062E-02-1.10853E+00-3.22357E-13-2.10509E-14
 -1      2185 6.84715E+00-4.75834E+00-8.85121E-02 5.60170E+00-1.37224E-13 7.13818E-13
 -1      2186 1.99996E+01-6.45026E-04-3.93428E-06 6.88141E-04-1.10980E-14-1.20921E-13
 -1      2187 2.27027E+01-4.48547E+00 3.60618E-02 5.62049E+00 1.74138E-13 7.77156E-15
 -1      2188 2.63497E+00-4.07507E+00-1.16412E-01-2.03279E+00 7.09016E-14 9.31699E-13
 -1      2189 2.97720E+01-1.04111E+00 1.16904E-01 3.01869E+00 4.88068E-13-1.15574E-13
 -1      2190 7.12007E+00-4.95111E+00-1.29791E-01-5.61772E+00 2.20379E-14 7.60891E-13
 -1      2191 2.80131E+01-2.17838E+00 1.07286E-01-4.01724E+00-3.56160E-13-2.89158E-13
 -1      2192 3.50672E+01 4.97498E+00 2.21762E-01-7.15034E-02-6.61804E-13-5.67157E-13
 -1      2193 3.43986E+01 4.25822E+00 2.01561E-01-2.04722E-01-9.81187E-13-4.29767E-13
 -1      2194 2.52529E+01-3.14610E+00 6.73034E-02 4.59657E+00-5.40040E-13-6.85008E-13
 -1      2195 1.66670E+01-4.36240E+00-2.71810E-02 6.48537E+00-3.93463E-13-9.30089E-13
 -1      2196 8.71848E+00-4.29371E+00-1.53049E-01 5.95217E+00-2.98317E-13-1.05713E-12
 -1      2197 3.10628E+00-3.53705E+00-1.83237E-01 3.14671E+00-1.37113E-13-1.10412E-12
 -1      2198 1.96310E+00-2.74110E+00-1.34540E-01-9.79662E-01-1.62231E-14-1.17617E-12
 -1      2199 5.04884E+00-3.34746E+00-1.30327E-01-4.57913E+00 3.66929E-14-1.15086E-12
 -1      2200 1.10870E+01-4.25952E+00-1.29144E-01-6.47204E+00 2.11386E-13-1.06648E-12
 -1      2201 1.88684E+01-3.88265E+00 1.50832E-02-6.34301E+00 3.59379E-13-8.69638E-13
 -1      2202 2.67836E+01-1.69343E+00 6.51645E-02-4.44958E+00 6.02962E-13-7.58893E-13
 -1      2203 2.85598E+01-2.03492E+00-1.44030E-01-2.34353E+00 3.66734E-13-2.99039E-13
 -1      2204 2.53632E+01-3.17551E+00 1.24345E-01-4.27310E+00 2.97179E-13-5.07344E-13
 -1      2205 3.26390E+01 1.84772E+00 1.46631E-01-1.28574E+00 7.68420E-13-4.83502E-13
 -1      2206 3.56771E+01 6.83364E+00 3.08030E-01-8.44148E-02 8.84959E-13-3.16192E-13
 -1      2207 3.58699E+01 8.00462E+00 2.75687E-01 3.25439E-01 9.91485E-13-3.02348E-13
 -1      2208 3.58479E+01 7.60078E+00 2.97196E-01-4.23940E-01-1.01952E-12-5.43704E-13
 -1      2209 2.09663E+01-4.70319E+00-5.87377E-03-6.10346E+00-1.58762E-13-5.73708E-14
 -1      2210 2.38758E+01-8.00448E-02-1.06140E-02 8.17414E-01 2.64119E-13 3.16679E-13
 -1      2211 2.41373E+01 1.92677E-01 2.30266E-02 8.86238E-01 3.07199E-13 3.71148E-13
 -1      2212 1.49683E+01 3.88802E+00-2.59167E-02 7.26634E-01 5.67140E-14-6.94964E-13
 -1      2213 1.58718E+01 3.71195E+00 2.12992E-02 7.67729E-01 2.38820E-14-6.87640E-13
 -1      2214 1.68766E+01 3.25809E+00-2.50394E-02 7.43315E-01-5.63763E-15-6.54968E-13
 -1      2215 1.79579E+01 3.05254E+00 1.35121E-02 5.78439E-01-4.95591E-14-6.30658E-13
 -1      2216 1.64193E+01 3.00159E+00-5.58062E-03 1.04985E+00 3.47175E-14-6.44629E-13
 -1      2217 1.38311E+01 4.35546E+00 6.46748E-03-4.39561E-01 8.31097E-14-7.06999E-13
 -1      2218 1.36740E+01 4.39959E+00-4.97791E-03-1.90025E-01 7.26754E-14-7.31320E-13
 -1      2219 1.49629E+01 3.94559E+00 2.05750E-02-9.19616E-01 1.04704E-13-6.41287E-13
 -1      2220 1.42701E+01 4.09853E+00-2.09951E-02-7.97464E-01 8.53387E-14-6.74664E-13
 -1      2221 1.39019E+01 3.97912E+00 2.26722E-02-7.81563E-01 7.04213E-14-6.90259E-13
 -1      2222 1.67629E+01 3.31502E+00 1.95280E-02-9.31095E-01 1.42115E-13-5.44329E-13
 -1      2223 1.58009E+01 3.51157E+00-2.63154E-02-1.01477E+00 1.13689E-13-5.92781E-13
 -1      2224 1.53529E+01 3.33119E+00 1.49083E-03-1.25264E+00 8.43128E-14-5.98397E-13
 -1      2225 1.87699E+01 2.70394E+00 7.40764E-03-4.76290E-01 2.27799E-13-3.91571E-13
 -1      2226 1.77617E+01 2.89408E+00-2.13466E-02-7.41616E-01 1.78297E-13-4.64254E-13
 -1      2227 1.74004E+01 2.54468E+00-1.54687E-02-1.11709E+00 1.34898E-13-4.79962E-13
 -1      2228 2.06189E+01 2.23917E+00-1.12122E-02 2.44910E-01 3.04979E-13-2.60601E-13
 -1      2229 1.97200E+01 2.40494E+00-1.50979E-02-1.12330E-01 2.53897E-13-3.24959E-13
 -1      2230 1.95072E+01 1.89641E+00-1.79524E-02-5.06191E-01 2.09401E-13-3.26090E-13
 -1      2231 2.22262E+01 1.84439E+00-3.71938E-02 9.73632E-01 3.87189E-13-7.54206E-14
 -1      2232 2.14520E+01 2.04240E+00-1.29850E-02 6.27451E-01 3.38561E-13-1.78102E-13
 -1      2233 2.13444E+01 1.46060E+00-8.17559E-03 2.72676E-01 2.79633E-13-1.74761E-13
 -1      2234 2.36622E+01-4.23473E-01-1.18309E-02 9.98414E-01 2.07349E-13 2.90789E-13
 -1      2235 2.39053E+01-2.84155E-01 2.06396E-02 8.71375E-01 2.28197E-13 3.25384E-13
 -1      2236 2.37659E+01-2.15215E-01-5.87409E-03 9.39038E-01 2.64445E-13 1.89051E-13
 -1      2237 2.41408E+01 1.02412E-01 2.32914E-02-6.36600E-01-2.12473E-13-6.13298E-14
 -1      2238 2.40217E+01-2.85389E-01-2.37726E-02-5.95172E-01-1.84400E-13-4.61488E-14
 -1      2239 3.25101E+01 4.33698E+00-4.26862E-02 8.83391E-01 8.30391E-13-1.77913E-13
 -1      2240 3.23437E+01 5.99044E+00-1.55072E-01 1.14731E+00 9.77718E-13-1.34337E-13
 -1      2241 2.42924E+01-5.72374E-01 2.64310E-02-7.06281E-01-1.37158E-13 6.54012E-15
 -1      2242 2.41986E+01-8.12012E-01-2.16612E-02-9.03679E-01-1.02727E-13 8.25078E-15
 -1      2243 2.38871E+01-5.17084E-01-1.13948E-02-5.81936E-01-1.42901E-13-1.02050E-13
 -1      2244 2.44740E+01-9.23702E-01 1.32651E-02-1.22870E+00-8.86019E-14 6.60492E-14
 -1      2245 2.43441E+01-9.14370E-01-1.42160E-02-1.52861E+00-7.29642E-14 5.61802E-14
 -1      2246 2.43776E+01-1.10458E+00-9.09754E-03-9.90728E-01-8.39244E-14-2.00415E-14
 -1      2247 2.44901E+01-7.40622E-01-1.10907E-02-1.91649E+00-8.21582E-14 5.09817E-14
 -1      2248 2.42866E+01-3.75315E-01 3.10245E-03-2.12043E+00-1.18315E-13 4.46453E-14
 -1      2249 2.48242E+01-1.05425E+00 2.29254E-03-1.73261E+00-9.56479E-14 5.56413E-14
 -1      2250 2.41582E+01 1.34464E-01-4.01048E-02-2.27055E+00-1.80934E-13 2.65599E-14
 -1      2251 2.39141E+01 7.78580E-01 1.85742E-02-2.13589E+00-2.24256E-13-9.16498E-15
 -1      2252 2.49360E+01-1.28566E-01 5.49764E-03-2.36593E+00-1.65895E-13 4.17253E-14
 -1      2253 2.35995E+01 1.40507E+00-4.28870E-02-1.74322E+00-2.70553E-13-6.66923E-14
 -1      2254 2.34196E+01 1.92328E+00 1.29934E-02-1.17308E+00-2.89810E-13-1.25526E-13
 -1      2255 2.45977E+01 1.42310E+00-1.60670E-02-2.18084E+00-3.01287E-13-3.86722E-14
 -1      2256 2.32627E+01 2.17421E+00-1.83342E-02-3.09906E-01-3.05235E-13-2.54316E-13
 -1      2257 2.32210E+01 2.14949E+00-3.44923E-02 4.24515E-01-3.18422E-13-3.38680E-13
 -1      2258 2.42083E+01 2.64537E+00-2.61579E-02-8.37447E-01-3.78288E-13-2.88315E-13
 -1      2259 2.33809E+01 1.80043E+00-3.10027E-03 1.31252E+00-2.89629E-13-4.36113E-13
 -1      2260 2.35234E+01 1.19305E+00-7.23514E-02 1.78899E+00-2.60496E-13-4.54279E-13
 -1      2261 2.41520E+01 2.56385E+00 7.16384E-03 1.04270E+00-3.65655E-13-4.68122E-13
 -1      2262 2.38237E+01 5.94235E-01 2.20153E-02 2.11120E+00-2.29670E-13-4.99347E-13
 -1      2263 2.40231E+01-7.52397E-02-3.92221E-02 2.17514E+00-2.13980E-13-5.36691E-13
 -1      2264 2.44956E+01 1.25445E+00-9.00391E-03 2.26701E+00-2.78871E-13-6.10767E-13
 -1      2265 2.40464E+01-6.05694E-01-6.87615E-03 1.90493E+00-1.82731E-13-4.69108E-13
 -1      2266 2.41764E+01-9.67623E-01-1.56821E-02 1.61883E+00-1.36125E-13-4.65768E-13
 -1      2267 2.47135E+01-4.52203E-01-9.52508E-03 2.15846E+00-1.79560E-13-5.84820E-13
 -1      2268 2.39219E+01-1.16311E+00-2.01247E-02 1.11672E+00-1.46052E-13-4.08068E-13
 -1      2269 2.39145E+01-1.20117E+00 2.61462E-03 7.08355E-01-8.82237E-14-4.01490E-13
 -1      2270 2.44209E+01-1.39704E+00-1.54554E-03 1.28401E+00-1.21875E-13-3.88582E-13
 -1      2271 2.35259E+01-1.13907E+00-2.24282E-02 2.46441E-01-5.09540E-14-4.69228E-13
 -1      2272 2.34136E+01-9.95208E-01 1.00631E-02-1.12714E-01-2.09346E-14-4.53819E-13
 -1      2273 2.37538E+01-1.52778E+00-7.93169E-03 2.76674E-01-9.41306E-14-4.42140E-13
 -1      2274 2.30278E+01-8.31242E-01-1.84286E-02-4.31404E-01-3.39164E-14-4.18431E-13
 -1      2275 2.28566E+01-6.40926E-01 1.03349E-02-6.75776E-01-1.89462E-14-3.91607E-13
 -1      2276 2.30062E+01-1.19424E+00-1.15280E-02-5.06299E-01-1.54054E-14-4.41894E-13
 -1      2277 2.25372E+01-4.74278E-01-1.19556E-02-8.47225E-01 6.11447E-15-3.43472E-13
 -1      2278 2.23415E+01-3.12250E-01 7.40918E-03-9.76429E-01 1.37620E-14-3.59066E-13
 -1      2279 2.23456E+01-7.33263E-01-1.14855E-02-9.82890E-01 2.54297E-14-2.41159E-13
 -1      2280 2.20992E+01-1.85460E-01-5.85306E-03-1.03627E+00-2.90558E-14-3.56118E-13
 -1      2281 2.19013E+01-7.43886E-02 4.62086E-03-1.07732E+00-1.96566E-15-3.34389E-13
 -1      2282 2.18249E+01-3.29785E-01-8.60012E-03-1.19819E+00-8.69373E-15-1.85372E-13
 -1      2283 2.17216E+01 6.41823E-03-1.34373E-03-1.06596E+00 8.98701E-14-3.13070E-13
 -1      2284 2.15342E+01 7.08717E-02 2.57350E-03-1.04994E+00 6.55826E-14-2.29775E-13
 -1      2285 2.14311E+01-4.81780E-02-5.63986E-03-1.23350E+00 4.66203E-14-1.89250E-13
 -1      2286 2.13992E+01 1.14589E-01 1.49872E-03-9.98860E-01-6.32900E-14-2.17795E-13
 -1      2287 2.12290E+01 1.45031E-01 1.29966E-03-9.51308E-01-2.20218E-14-2.37482E-13
 -1      2288 2.11318E+01 1.18934E-01-3.57667E-03-1.16041E+00 1.38380E-14-1.74208E-13
 -1      2289 2.11249E+01 1.63416E-01 3.04408E-03-8.82092E-01 6.64540E-14-2.15345E-13
 -1      2290 2.09753E+01 1.72158E-01 5.99699E-04-8.20937E-01 8.10007E-14-1.71976E-13
 -1      2291 2.08988E+01 2.00905E-01-2.36750E-03-1.03097E+00 2.11829E-14-1.41842E-13
 -1      2292 2.08929E+01 1.75138E-01 3.69057E-03-7.47159E-01 5.75174E-14-1.73462E-13
 -1      2293 2.07650E+01 1.71512E-01 2.57682E-04-6.83647E-01 3.85260E-14-1.74212E-13
 -1      2294 2.07128E+01 2.27607E-01-1.72485E-03-8.79721E-01 6.83527E-14-1.41129E-13
 -1      2295 2.06986E+01 1.66121E-01 3.76723E-03-6.13145E-01 2.53373E-14-1.21945E-13
 -1      2296 2.05918E+01 1.56359E-01 1.12583E-04-5.53602E-01 1.01049E-13-1.56513E-13
 -1      2297 2.05617E+01 2.22180E-01-1.39312E-03-7.27836E-01 5.14826E-14-9.16284E-14
 -1      2298 2.05381E+01 1.47101E-01 3.51658E-03-4.90395E-01 5.04985E-14-2.05247E-13
 -1      2299 2.04508E+01 1.35016E-01 6.41526E-05-4.37876E-01-3.93843E-14-1.79083E-13
 -1      2300 2.04380E+01 2.00325E-01-1.20651E-03-5.87173E-01 3.65931E-14-1.97877E-13
 -1      2301 2.04074E+01 1.24561E-01 3.10406E-03-3.83581E-01-9.44862E-14-1.47428E-13
 -1      2302 2.03375E+01 1.12315E-01 5.65655E-05-3.39128E-01-1.05000E-13-1.75574E-13
 -1      2303 2.03372E+01 1.71806E-01-1.07502E-03-4.63440E-01-7.81240E-14-2.45828E-13
 -1      2304 2.03027E+01 1.02128E-01 2.63483E-03-2.93938E-01-7.64325E-14-2.27994E-13
 -1      2305 2.02479E+01 9.08335E-02 6.18750E-05-2.57445E-01-2.42679E-14-3.08521E-13
 -1      2306 2.02556E+01 1.42254E-01-9.57905E-04-3.58503E-01-1.25318E-13-2.10925E-13
 -1      2307 2.02203E+01 8.16370E-02 2.17104E-03-2.20767E-01-4.00933E-14-2.99387E-13
 -1      2308 2.01781E+01 7.17825E-02 6.78249E-05-1.91535E-01-7.43545E-14-2.73731E-13
 -1      2309 2.01903E+01 1.14643E-01-8.41501E-04-2.71979E-01-6.31796E-14-2.53391E-13
 -1      2310 2.01566E+01 6.38633E-02 1.74604E-03-1.62400E-01-3.21812E-14-3.18060E-13
 -1      2311 2.01246E+01 5.55791E-02 7.02059E-05-1.39476E-01-1.17305E-14-1.35139E-13
 -1      2312 2.01389E+01 9.03336E-02-7.24784E-04-2.02279E-01-1.57467E-14-2.30412E-13
 -1      2313 2.01081E+01 4.89813E-02 1.37492E-03-1.16780E-01 4.93244E-15-1.70693E-13
 -1      2314 2.00844E+01 4.22077E-02 6.85029E-05-9.91497E-02 5.58450E-14-2.20747E-13
 -1      2315 2.00990E+01 6.97571E-02-6.11253E-04-1.47269E-01-2.01216E-14-8.38355E-14
 -1      2316 2.00719E+01 3.68487E-02 1.06179E-03-8.17974E-02 9.83054E-15-2.04889E-13
 -1      2317 2.00547E+01 3.14337E-02 6.36141E-05-6.84957E-02-9.55762E-15-1.91602E-13
 -1      2318 2.00687E+01 5.28368E-02-5.04980E-04-1.04671E-01 2.55788E-14-1.03918E-13
 -1      2319 2.00455E+01 2.71725E-02 8.04535E-04-5.54776E-02-1.90372E-14-2.30856E-13
 -1      2320 2.00333E+01 2.29284E-02 5.67599E-05-4.56381E-02-4.26849E-14-2.58624E-13
 -1      2321 2.00459E+01 3.92425E-02-4.09034E-04-7.22957E-02-3.74064E-14-9.32021E-14
 -1      2322 2.00266E+01 1.96042E-02 5.97810E-04-3.60651E-02-8.26699E-14-2.94118E-13
 -1      2323 2.00183E+01 1.63391E-02 4.90272E-05-2.89414E-02-8.24617E-14-2.67116E-13
 -1      2324 2.00293E+01 2.85383E-02-3.25116E-04-4.81553E-02-8.27167E-14-1.80822E-13
 -1      2325 2.00135E+01 1.37928E-02 4.34933E-04-2.20561E-02-1.72924E-13-3.58290E-13
 -1      2326 2.00080E+01 1.13267E-02 4.12268E-05-1.70238E-02-1.43267E-13-2.92090E-13
 -1      2327 2.00173E+01 2.02656E-02-2.53704E-04-3.05219E-02-1.67368E-13-1.64852E-13
 -1      2328 2.00048E+01 9.41214E-03 3.08958E-04-1.21976E-02-3.27691E-14-3.35930E-13
 -1      2329 2.00013E+01 7.58512E-03 3.38905E-05-8.74653E-03 7.26896E-14-2.31650E-13
 -1      2330 2.00090E+01 1.39886E-02-1.94378E-04-1.79364E-02-1.11157E-13-1.82016E-13
 -1      2331 1.99992E+01 6.17347E-03 2.13290E-04-5.46891E-03 9.20477E-14-1.67323E-13
 -1      2332 1.99972E+01 4.84830E-03 2.73211E-05-3.19032E-03 2.81151E-14-8.64901E-14
 -1      2333 2.00034E+01 9.31550E-03-1.46141E-04-9.19589E-03 7.81228E-14-1.66493E-13
 -1      2334 1.99959E+01 3.82991E-03 1.42001E-04-1.05457E-03 1.19794E-14-6.02788E-14
 -1      2335 1.99949E+01 2.89188E-03 2.16520E-05 3.72715E-04 6.37156E-14-5.78473E-14
 -1      2336 1.99998E+01 5.90752E-03-1.07689E-04-3.32967E-03 7.95160E-14-9.67535E-14
 -1      2337 1.99941E+01 2.17561E-03 8.99561E-05 1.68478E-03 1.71251E-13 5.53033E-14
 -1      2338 1.99938E+01 1.53093E-03 1.69008E-05 2.50880E-03 2.87176E-13 8.65222E-14
 -1      2339 1.99976E+01 3.47982E-03-7.76054E-05 4.31259E-04 1.80175E-13 1.71433E-13
 -1      2340 1.99934E+01 1.04256E-03 5.28304E-05 3.24165E-03 3.10445E-13-1.77766E-14
 -1      2341 1.99936E+01 6.15946E-04 1.30114E-05 3.65049E-03 3.32677E-13 5.39714E-14
 -1      2342 1.99965E+01 1.79821E-03-5.44973E-05 2.68509E-03 2.89855E-13 2.10746E-13
 -1      2343 1.99935E+01 2.96141E-04 2.70663E-05 3.98854E-03 1.78640E-13-7.70930E-15
 -1      2344 1.99938E+01 2.81816E-05 9.88353E-06 4.12207E-03 2.12723E-14-1.14240E-13
 -1      2345 1.99960E+01 6.73819E-04-3.70723E-05 3.88880E-03 1.23749E-13-6.55536E-14
 -1      2346 1.99939E+01-1.69755E-04 9.79568E-06 4.20163E-03-1.39815E-14-2.16138E-13
 -1      2347 1.99944E+01-3.25255E-04 7.39212E-06 4.16160E-03-1.19207E-13-2.04503E-13
 -1      2348 1.99960E+01-4.30659E-05-2.41824E-05 4.38490E-03-7.02348E-14-2.47961E-13
 -1      2349 1.99946E+01-4.37562E-04-1.24983E-06 4.08107E-03-2.81556E-13-2.80685E-13
 -1      2350 1.99951E+01-5.16060E-04 5.39918E-06 3.93949E-03-3.29432E-13-1.86108E-13
 -1      2351 1.99962E+01-4.69373E-04-1.48419E-05 4.42467E-03-2.34193E-13-1.97935E-13
 -1      2352 1.99953E+01-5.70556E-04-7.83028E-06 3.76783E-03-2.58963E-13-1.54105E-13
 -1      2353 1.99959E+01-5.99031E-04 3.76089E-06 3.57381E-03-1.97096E-13-1.62791E-13
 -1      2354 1.99966E+01-6.95254E-04-8.22849E-06 4.18782E-03-2.75626E-13-1.79868E-13
 -1      2355 1.99961E+01-6.16957E-04-1.12824E-05 3.35736E-03-1.69235E-13-2.22887E-13
 -1      2356 1.99967E+01-6.15903E-04 2.33168E-06 3.14248E-03 5.78841E-14-2.73221E-13
 -1      2357 1.99971E+01-7.89594E-04-3.67656E-06 3.79864E-03-1.72006E-13-1.52368E-13
 -1      2358 1.99969E+01-6.13549E-04-1.25992E-05 2.91034E-03 2.58250E-13-3.22914E-13
 -1      2359 1.99973E+01-5.98684E-04 9.72928E-07 2.69284E-03 2.48191E-13-4.53860E-13
 -1      2360 1.99976E+01-8.04905E-04-6.72014E-07 3.33892E-03 1.11455E-14-3.89878E-13
 -1      2361 1.99976E+01-5.88749E-04-1.24921E-05 2.46103E-03 1.36134E-13-3.28811E-13
 -1      2362 1.99980E+01-5.72257E-04-3.96424E-07 2.24899E-03 1.36620E-13-2.38167E-13
 -1      2363 1.99980E+01-7.81497E-04 1.15450E-06 2.85823E-03 1.66005E-13-3.64467E-13
 -1      2364 1.99982E+01-5.64487E-04-1.14167E-05 2.02371E-03 2.40530E-13-1.37763E-13
 -1      2365 1.99985E+01-5.55541E-04-1.77255E-06 1.81793E-03 1.26252E-13-1.08830E-13
 -1      2366 1.99985E+01-7.50265E-04 2.09941E-06 2.38175E-03 1.65190E-13-1.23488E-13
 -1      2367 1.99987E+01-5.56875E-04-9.66340E-06 1.59869E-03-1.98474E-15-5.53364E-14
 -1      2368 1.99989E+01-5.61228E-04-4.16936E-06 1.39534E-03-9.37509E-15-3.93110E-14
 -1      2369 1.99988E+01-7.33961E-04 2.27650E-06 1.91747E-03 1.33376E-13-1.47181E-13
 -1      2370 2.30120E+01-1.78141E-01 6.95609E-03 1.74313E+00 1.13637E-13 2.58677E-13
 -1      2371 2.33232E+01-3.75735E-01-4.41512E-03 1.62805E+00 1.49400E-13 2.87559E-13
 -1      2372 2.24823E+01 4.22296E-01 1.98499E-02 1.68834E+00 1.42072E-13 1.75220E-13
 -1      2373 2.27935E+01 9.16489E-02-1.31236E-02 1.79552E+00 1.03039E-13 2.22508E-13
 -1      2374 2.34954E+01-3.06766E-02 9.65531E-03 2.00807E+00 1.53946E-13 1.93472E-13
 -1      2375 2.19765E+01 1.03722E+00 1.88732E-02 1.02435E+00 2.38252E-13 9.03147E-14
 -1      2376 2.21944E+01 7.52412E-01-1.35224E-02 1.40352E+00 1.94118E-13 1.32583E-13
 -1      2377 2.30250E+01 8.16822E-01-2.74577E-03 1.79850E+00 2.11515E-13 9.45732E-14
 -1      2378 2.17610E+01 1.26135E+00 4.37969E-03-9.92504E-02 2.18860E-13 8.37481E-15
 -1      2379 2.18057E+01 1.22308E+00 1.81650E-03 4.30166E-01 2.23963E-13 5.66058E-14
 -1      2380 2.25803E+01 1.52775E+00-2.30769E-02 8.63470E-01 2.68757E-13 5.59703E-15
 -1      2381 2.19860E+01 9.05943E-01-1.22610E-02-1.17626E+00 1.25888E-13-4.80831E-14
 -1      2382 2.18375E+01 1.15236E+00 1.81961E-02-7.41376E-01 2.01443E-13-2.91286E-14
 -1      2383 2.24839E+01 1.64700E+00-1.70338E-02-4.79605E-01 2.30304E-13-4.31608E-14
 -1      2384 2.24811E+01 2.25600E-01-1.94741E-02-1.70878E+00 1.72974E-13-1.61366E-13
 -1      2385 2.22241E+01 5.80449E-01 1.97687E-02-1.54486E+00 1.54399E-13-1.14563E-13
 -1      2386 2.27785E+01 1.01703E+00-8.11264E-03-1.56284E+00 2.20829E-13-1.37377E-13
 -1      2387 2.29385E+01-3.70305E-01-1.32480E-02-1.59823E+00 1.38559E-13-2.31783E-13
 -1      2388 2.26789E+01-9.97042E-02 8.19172E-03-1.70194E+00 1.64399E-13-2.00135E-13
 -1      2389 2.31770E+01 1.03737E-01 7.10327E-03-1.91621E+00 1.99312E-13-2.62495E-13
 -1      2390 2.31514E+01-6.61337E-01-4.93098E-03-1.06356E+00 9.83779E-14-2.30924E-13
 -1      2391 2.29747E+01-5.57883E-01-7.09500E-03-1.32055E+00 1.42396E-13-2.00292E-13
 -1      2392 2.33755E+01-6.18094E-01 1.17725E-02-1.57521E+00 1.31828E-13-2.84885E-13
 -1      2393 2.30966E+01-6.61416E-01 9.73354E-04-4.16556E-01 7.89473E-14-2.60099E-13
 -1      2394 2.30341E+01-6.92245E-01-1.59461E-02-6.99085E-01 9.20878E-14-2.43634E-13
 -1      2395 2.32724E+01-9.24060E-01 5.83885E-03-8.82102E-01 1.08460E-13-2.62885E-13
 -1      2396 2.28557E+01-5.03079E-01 2.95376E-03 1.30818E-01 5.71166E-14-2.53141E-13
 -1      2397 2.28968E+01-5.95830E-01-1.69550E-02-9.84953E-02 7.92829E-14-2.24773E-13
 -1      2398 2.29541E+01-8.70376E-01-6.52391E-04-1.72732E-01 5.53338E-14-2.68101E-13
 -1      2399 2.25222E+01-3.07441E-01 2.89044E-03 5.00177E-01 8.29167E-14-2.48018E-13
 -1      2400 2.26374E+01-4.06951E-01-1.34009E-02 3.49975E-01 5.85478E-14-2.67340E-13
 -1      2401 2.25496E+01-6.35932E-01-3.62551E-03 3.71816E-01 8.22935E-14-2.92557E-13
 -1      2402 2.21594E+01-1.39393E-01 2.15654E-03 6.96957E-01 9.40754E-14-1.92446E-13
 -1      2403 2.23174E+01-2.19362E-01-8.58683E-03 6.20600E-01 9.75932E-14-1.98196E-13
 -1      2404 2.21429E+01-3.72743E-01-4.43322E-03 7.10538E-01 4.95129E-14-2.50606E-13
 -1      2405 2.18051E+01-2.08044E-02 1.54216E-03 7.61188E-01 9.56137E-14-1.91257E-13
 -1      2406 2.19800E+01-7.45718E-02-4.11178E-03 7.40217E-01 1.03983E-13-1.83841E-13
 -1      2407 2.17722E+01-1.55021E-01-3.86157E-03 8.69857E-01 9.60255E-14-1.88380E-13
 -1      2408 2.14783E+01 5.08477E-02 1.13925E-03 7.38588E-01-1.85536E-14-1.30359E-13
 -1      2409 2.16522E+01 1.99497E-02-7.53278E-04 7.53181E-01 3.47429E-14-1.39402E-13
 -1      2410 2.14487E+01-5.35442E-03-2.99984E-03 8.99798E-01-8.45800E-15-1.10249E-13
 -1      2411 2.11882E+01 8.69154E-02 9.10013E-04 6.67008E-01-7.14332E-15-1.65790E-13
 -1      2412 2.13494E+01 7.26021E-02 1.39878E-03 7.01060E-01-2.43886E-15-8.39220E-14
 -1      2413 2.11713E+01 8.28165E-02-2.32644E-03 8.48675E-01-2.79095E-14-7.05681E-14
 -1      2414 2.09377E+01 9.93218E-02 7.83867E-04 5.73435E-01 5.01453E-14-2.22759E-13
 -1      2415 2.10802E+01 9.56778E-02 2.57104E-03 6.15632E-01 5.88782E-14-1.73662E-13
 -1      2416 2.09358E+01 1.25420E-01-1.88912E-03 7.54060E-01 1.89114E-14 1.93563E-14
 -1      2417 2.07266E+01 9.75926E-02 7.04994E-04 4.75192E-01 6.09018E-14-2.80276E-13
 -1      2418 2.08479E+01 1.00110E-01 3.04711E-03 5.18407E-01 5.25253E-15-2.88604E-13
 -1      2419 2.07377E+01 1.38194E-01-1.61281E-03 6.41956E-01 3.37010E-14-7.20515E-14
 -1      2420 2.05526E+01 8.83918E-02 6.40499E-04 3.82331E-01-5.38741E-14-1.17379E-13
 -1      2421 2.06528E+01 9.40052E-02 3.07679E-03 4.22537E-01 5.64368E-14-1.67426E-13
 -1      2422 2.05731E+01 1.33418E-01-1.42089E-03 5.28757E-01-1.05455E-14-1.36948E-13
 -1      2423 2.04120E+01 7.59928E-02 5.76349E-04 2.99928E-01-2.05750E-13-6.31477E-14
 -1      2424 2.04927E+01 8.27793E-02 2.84990E-03 3.35188E-01-1.50000E-13-1.18003E-13
 -1      2425 2.04381E+01 1.19582E-01-1.26332E-03 4.23798E-01-8.79918E-14-3.60886E-14
 -1      2426 2.03005E+01 6.29413E-02 5.09055E-04 2.29903E-01-1.93817E-13-3.13636E-14
 -1      2427 2.03641E+01 6.97811E-02 2.49768E-03 2.59579E-01-2.20164E-13-5.09129E-14
 -1      2428 2.03291E+01 1.02080E-01-1.11574E-03 3.31636E-01-1.83129E-13 2.40792E-15
 -1      2429 2.02139E+01 5.06325E-02 4.40044E-04 1.72307E-01-1.78585E-13-6.74335E-14
 -1      2430 2.02628E+01 5.69316E-02 2.10408E-03 1.96510E-01-1.47382E-13-5.15731E-14
 -1      2431 2.02423E+01 8.40965E-02-9.70566E-04 2.53793E-01-1.64844E-13-1.21117E-14
 -1      2432 2.01478E+01 3.97386E-02 3.72242E-04 1.26174E-01 5.73665E-14-6.53807E-14
 -1      2433 2.01847E+01 4.52286E-02 1.71887E-03 1.45410E-01-9.90808E-14-8.98090E-14
 -1      2434 2.01745E+01 6.73529E-02-8.28591E-04 1.89997E-01-1.19292E-13-1.35889E-14
 -1      2435 2.00983E+01 3.04980E-02 3.08420E-04 9.00691E-02 1.96633E-14 5.33671E-14
 -1      2436 2.01256E+01 3.51031E-02 1.36865E-03 1.05011E-01 2.87991E-14-4.24975E-14
 -1      2437 2.01224E+01 5.26537E-02-6.93568E-04 1.39012E-01 1.12036E-14-1.87246E-13
 -1      2438 2.00621E+01 2.29040E-02 2.50562E-04 6.24137E-02 7.12902E-14 5.56569E-14
 -1      2439 2.00818E+01 2.66550E-02 1.06522E-03 7.37728E-02 1.11225E-13 6.27096E-14
 -1      2440 2.00831E+01 4.02581E-02-5.69321E-04 9.91661E-02 7.34990E-14-8.57636E-15
 -1      2441 2.00363E+01 1.68210E-02 1.99774E-04 4.16753E-02-8.05605E-14 4.90622E-14
 -1      2442 2.00500E+01 1.98028E-02 8.11383E-04 5.01262E-02 1.77689E-14 5.86766E-14
 -1      2443 2.00540E+01 3.01182E-02-4.58544E-04 6.86737E-02 2.90502E-14 1.05946E-15
 -1      2444 2.00183E+01 1.20564E-02 1.56408E-04 2.64637E-02 1.60848E-14-2.70750E-13
 -1      2445 2.00276E+01 1.43755E-02 6.04853E-04 3.26088E-02 1.10138E-14-8.94127E-14
 -1      2446 2.00330E+01 2.20282E-02-3.62551E-04 4.58229E-02 4.83680E-14-1.32893E-13
 -1      2447 2.00063E+01 8.40148E-03 1.20268E-04 1.55737E-02-3.78502E-15-2.82828E-13
 -1      2448 2.00123E+01 1.01682E-02 4.40734E-04 1.99292E-02-5.16976E-14-2.00079E-13
 -1      2449 2.00182E+01 1.57147E-02-2.81453E-04 2.90703E-02 8.59917E-15-3.06473E-13
 -1      2450 1.99986E+01 5.65508E-03 9.07990E-05 7.99468E-03-1.37098E-13-8.47908E-14
 -1      2451 2.00023E+01 6.97324E-03 3.13074E-04 1.09894E-02-9.76329E-14-1.80780E-13
 -1      2452 2.00081E+01 1.08891E-02-2.14480E-04 1.70823E-02-1.36551E-13-2.52746E-13
 -1      2453 1.99941E+01 3.63542E-03 6.72508E-05 2.90085E-03-2.35224E-14 7.06273E-14
 -1      2454 1.99961E+01 4.59729E-03 2.15788E-04 4.88208E-03-5.07681E-14 5.17104E-14
 -1      2455 2.00014E+01 7.27642E-03-1.60310E-04 8.74256E-03-1.62594E-13 2.51722E-15
 -1      2456 1.99917E+01 2.18508E-03 4.87942E-05-3.67303E-04-4.08314E-14 2.14099E-13
 -1      2457 1.99926E+01 2.86970E-03 1.43168E-04 8.75803E-04-9.86630E-14 1.12181E-13
 -1      2458 1.99973E+01 4.63045E-03-1.17344E-04 3.13998E-03-7.33160E-14 2.09853E-13
 -1      2459 1.99908E+01 1.17197E-03 3.46010E-05-2.32583E-03-1.39026E-13 4.02419E-13
 -1      2460 1.99909E+01 1.64508E-03 9.01399E-05-1.60699E-03-1.78245E-14 3.49791E-13
 -1      2461 1.99950E+01 2.73911E-03-8.38990E-05-4.52573E-04-1.65515E-13 2.60598E-13
 -1      2462 1.99909E+01 4.88005E-04 2.38933E-05-3.37065E-03-7.70956E-14 3.98159E-13
 -1      2463 1.99905E+01 8.02990E-04 5.23582E-05-3.01320E-03-3.70139E-14 4.25242E-13
 -1      2464 1.99939E+01 1.42527E-03-5.83486E-05-2.60379E-03-1.03070E-13 2.84284E-13
 -1      2465 1.99915E+01 4.65711E-05 1.59698E-05-3.79946E-03-1.23881E-13 7.54638E-14
 -1      2466 1.99909E+01 2.45932E-04 2.62079E-05-3.68189E-03-1.34978E-13 2.50525E-13
 -1      2467 1.99937E+01 5.44558E-04-3.91999E-05-3.74977E-03 2.06657E-14 2.12220E-13
 -1      2468 1.99925E+01-2.20478E-04 1.02148E-05-3.83128E-03-2.01064E-13-2.40529E-15
 -1      2469 1.99917E+01-1.03493E-04 8.75278E-06-3.86497E-03-1.34862E-13-1.43767E-14
 -1      2470 1.99939E+01-1.83518E-05-2.51369E-05-4.21825E-03-1.03252E-13-2.02284E-15
 -1      2471 1.99935E+01-3.65950E-04 6.09596E-06-3.62319E-03-4.67970E-14 1.44855E-13
 -1      2472 1.99928E+01-3.05710E-04-2.34248E-06-3.74528E-03-2.24418E-13 9.48937E-14
 -1      2473 1.99945E+01-3.53953E-04-1.50344E-05-4.25016E-03-3.03139E-13-7.21089E-14
 -1      2474 1.99946E+01-4.30297E-04 3.15497E-06-3.28421E-03 7.74694E-14 2.96043E-13
 -1      2475 1.99939E+01-4.07242E-04-8.89921E-06-3.45171E-03 1.18528E-13 2.48546E-13
 -1      2476 1.99952E+01-5.32226E-04-7.95543E-06-4.01805E-03-6.32565E-14 9.22899E-14
 -1      2477 1.99957E+01-4.44354E-04 1.00076E-06-2.88643E-03 5.09985E-14 2.24778E-13
 -1      2478 1.99950E+01-4.43599E-04-1.23111E-05-3.07163E-03 1.32983E-13 2.64759E-13
 -1      2479 1.99960E+01-6.06725E-04-3.14112E-06-3.64143E-03 1.11790E-13 2.83994E-13
 -1      2480 1.99966E+01-4.31762E-04-6.92678E-07-2.47377E-03 2.57704E-13 1.86989E-13
 -1      2481 1.99960E+01-4.41866E-04-1.36102E-05-2.66061E-03 1.71636E-13 2.86801E-13
 -1      2482 1.99967E+01-6.18292E-04 9.48625E-09-3.19900E-03 1.64873E-13 5.02291E-14
 -1      2483 1.99974E+01-4.11004E-04-2.16350E-06-2.06857E-03 2.79966E-13 1.53143E-13
 -1      2484 1.99969E+01-4.22988E-04-1.35458E-05-2.25004E-03 2.37401E-13 2.63252E-13
 -1      2485 1.99974E+01-5.98276E-04 1.95537E-06-2.73844E-03 2.14537E-13 1.29761E-13
 -1      2486 1.99981E+01-3.96941E-04-3.64019E-06-1.67685E-03 2.99060E-13 2.88503E-13
 -1      2487 1.99977E+01-4.03658E-04-1.26668E-05-1.85292E-03 2.96109E-13 2.77114E-13
 -1      2488 1.99980E+01-5.71025E-04 2.99642E-06-2.28395E-03 2.47915E-13 3.88038E-13
 -1      2489 1.99987E+01-3.99169E-04-4.47516E-06-1.29199E-03 5.94585E-14 5.08788E-13
 -1      2490 1.99984E+01-3.97410E-04-1.13597E-05-1.46794E-03 2.07758E-13 4.77264E-13
 -1      2491 1.99985E+01-5.54743E-04 3.83084E-06-1.84377E-03 1.11513E-13 6.41279E-13
 -1      2492 1.99992E+01-4.18833E-04-5.38212E-06-9.08040E-04-4.83027E-14 6.34139E-13
 -1      2493 1.99989E+01-4.07209E-04-9.45450E-06-1.08650E-03-9.09398E-15 5.04112E-13
 -1      2494 1.99990E+01-5.58170E-04 5.83222E-06-1.41091E-03-2.07259E-14 7.87538E-13
 -1      2495 1.99994E+01-4.19074E-04-6.40024E-06-6.89015E-04-1.06032E-14 5.96640E-13
 -1      2496 2.00001E+01-2.12493E-03 8.97099E-06-1.09275E-03 8.86346E-14-7.22269E-14
 -1      2497 2.00000E+01-1.93482E-03-1.68655E-06-1.19498E-03 6.13586E-14-2.73644E-13
 -1      2498 2.00003E+01-2.42982E-03 9.22490E-06-7.68358E-04 6.84169E-15-7.35000E-14
 -1      2499 2.00002E+01-2.29015E-03 1.65410E-06-9.31134E-04-1.65114E-14 4.47167E-14
 -1      2500 2.00003E+01-2.15679E-03-5.85695E-06-1.15870E-03 1.44189E-13-5.21917E-14
 -1      2501 1.99997E+01-1.27709E-03 6.19755E-06-1.28979E-03-1.35316E-13 7.60388E-14
 -1      2502 1.99995E+01-1.05082E-03-8.04926E-06-1.23517E-03 3.01122E-14 1.06813E-13
 -1      2503 1.99999E+01-1.72630E-03 7.78398E-06-1.27717E-03-2.00174E-13-1.38667E-13
 -1      2504 1.99998E+01-1.51015E-03-4.98935E-06-1.30237E-03-3.00193E-13 1.06170E-13
 -1      2505 1.99997E+01-1.37455E-03-3.52346E-06-1.49916E-03-2.72701E-13-6.54341E-14
 -1      2506 2.00000E+01-1.79789E-03-3.93214E-06-1.42016E-03 6.01652E-14-1.30474E-14
 -1      2507 1.72192E+01-5.07924E+00-2.75648E-02 6.85795E+00-2.09305E-13 1.78690E-13
 -1      2508 1.39104E+01-4.65094E+00 8.58203E-02 6.70190E+00-3.00343E-13 3.51524E-13
 -1      2509 2.00004E+01-2.60850E-03 8.59890E-06-3.49785E-04-2.35487E-13-2.05768E-13
 -1      2510 2.00003E+01-2.53479E-03 4.74166E-06-5.50532E-04-1.43822E-13-3.67480E-13
 -1      2511 2.00005E+01-2.41660E-03-7.21709E-06-7.53520E-04-1.14599E-13-2.80290E-13
 -1      2512 2.00004E+01-2.64353E-03 7.09532E-06 1.10524E-04-1.92973E-13-1.01172E-13
 -1      2513 2.00004E+01-2.64416E-03 7.10463E-06-1.03006E-04-2.59999E-13-1.03165E-13
 -1      2514 2.00006E+01-2.55199E-03-7.90666E-06-2.58481E-04-1.57009E-13-1.96935E-13
 -1      2515 2.00003E+01-2.53178E-03 4.81900E-06 5.57392E-04-1.44864E-13-9.63355E-14
 -1      2516 2.00004E+01-2.60687E-03 8.55117E-06 3.57118E-04-1.75756E-13-1.07320E-13
 -1      2517 2.00006E+01-2.55100E-03-7.88054E-06 2.66923E-04-1.44433E-13-1.31158E-13
 -1      2518 2.00002E+01-2.29045E-03 1.71453E-06 9.30995E-04-1.60543E-13-1.30004E-13
 -1      2519 2.00003E+01-2.42817E-03 9.15894E-06 7.71259E-04-1.65280E-13-1.78317E-13
 -1      2520 2.00005E+01-2.41551E-03-7.29491E-06 7.57395E-04-1.41348E-14-1.81846E-13
 -1      2521 2.00000E+01-1.93527E-03-1.67199E-06 1.19502E-03 6.71637E-14 1.61582E-13
 -1      2522 2.00001E+01-2.12542E-03 8.92123E-06 1.09276E-03-5.55059E-14-1.11528E-13
 -1      2523 2.00003E+01-2.15729E-03-5.81017E-06 1.15870E-03 2.78579E-14-7.66759E-14
 -1      2524 1.99998E+01-1.50389E-03-4.67624E-06 1.30141E-03 4.95796E-14-1.39420E-13
 -1      2525 1.99999E+01-1.72518E-03 7.47037E-06 1.27802E-03 2.40045E-14 1.17022E-13
 -1      2526 2.00000E+01-1.79589E-03-3.21495E-06 1.42136E-03-2.62840E-14 8.70703E-15
 -1      2527 1.99995E+01-1.04018E-03-6.65660E-06 1.22606E-03-1.19390E-13-2.83522E-13
 -1      2528 1.99997E+01-1.27096E-03 4.68605E-06 1.29074E-03-2.21665E-14-2.28647E-13
 -1      2529 1.99997E+01-1.36523E-03 4.51922E-07 1.49768E-03-1.19815E-14-2.48791E-13
 -1      2530 1.99994E+01-6.54048E-04-5.51054E-06 8.77841E-04-2.75434E-14-1.36052E-13
 -1      2531 2.52575E+01-4.46837E+00-7.39502E-02 4.34886E+00 1.25178E-13-1.98092E-13
 -1      2532 2.13571E+01-5.14988E+00 5.37203E-02 5.50769E+00-1.11328E-13-7.36355E-14
 -1      2533 2.34038E+01-4.75194E-01-6.59227E-03 1.40117E+00 1.58339E-13 2.74989E-13
 -1      2534 2.36715E+01-4.88611E-01 7.87820E-03 1.20803E+00 1.66409E-13 2.87361E-13
 -1      2535 2.37543E+01-5.54704E-01 7.02034E-03 1.67765E+00 1.72705E-13 2.29577E-13
 -1      2536 4.62100E+00-2.58216E+00 7.84172E-02 3.32052E+00-9.73388E-14 6.96110E-13
 -1      2537 3.74814E+00-2.21427E+00 1.02760E-01 1.36869E+00-7.80070E-14 7.45903E-13
 -1      2538 3.66831E+00-2.20076E+00 9.76357E-02-8.54168E-01 8.55566E-14 7.98528E-13
 -1      2539 4.81540E+00-2.46489E+00 7.69332E-02-3.29245E+00 1.11092E-13 8.62754E-13
 -1      2540 2.36224E+01 1.47263E+00-1.08451E-02-1.09686E+00-2.99139E-13-1.80187E-13
 -1      2541 2.37855E+01 5.57492E-01-2.33799E-02-7.04903E-01-2.61928E-13-1.19101E-13
 -1      2542 2.33810E+01 4.73071E-01-2.36918E-04-5.92607E-01-2.15199E-13-1.82814E-13
 -1      2543 2.26577E+01 1.82321E+00-7.57562E-03-8.79788E-01-2.76396E-13-2.97998E-13
 -1      2544 2.62889E+01-3.84758E+00-3.32769E-02-3.55206E+00-1.02196E-13-4.00013E-13
 -1      2545 2.90455E+01-2.35400E+00-6.35058E-02-2.29641E+00-2.60056E-13-5.36987E-13
 -1      2546 3.19198E+01 4.47718E+00-1.83379E-01-1.41437E+00-9.00752E-13-3.17579E-13
 -1      2547 3.12447E+01 2.36350E+00-9.88674E-02-1.19891E+00-7.67109E-13-2.25098E-13
 -1      2548 2.70385E+01-3.31286E+00-1.17140E-01 3.04620E+00-3.35648E-13-3.80834E-13
 -1      2549 2.35315E+01-4.16275E+00 3.17686E-02 4.44572E+00-2.10221E-13-4.90441E-13
 -1      2550 1.38227E+01 4.32933E+00-1.38777E-02 2.42459E-01 8.00797E-14-7.31853E-13
 -1      2551 1.42742E+01 4.24590E+00 1.32502E-02 4.58075E-01 5.95740E-14-7.23172E-13
 -1      2552 1.45067E+01 3.75597E+00 1.10759E-02 8.17241E-01 7.20713E-14-6.96190E-13
 -1      2553 1.35580E+01 4.15654E+00 2.58209E-02 6.96688E-02 7.40846E-14-7.30121E-13
 -1      2554 3.21326E+01 7.36384E+00-1.34489E-01 3.91211E-01 1.00481E-12-2.39114E-13
 -1      2555 3.31179E+01 7.46966E+00-5.45001E-02-6.55197E-02 9.21707E-13-2.86472E-13
 -1      2556 3.27783E+01 7.25101E+00-1.20711E-01-4.51202E-01-9.39526E-13-5.60572E-13
 -1      2557 3.23844E+01 6.57565E+00-1.27874E-01-9.93222E-01-9.77107E-13-4.98740E-13
 -1      2558 3.18179E+01 3.06338E+00-1.66179E-01-6.97331E-01 6.75265E-13-4.23883E-13
 -1      2559 3.12389E+01 1.17055E+00-5.78613E-02 1.10534E-01 5.46771E-13-3.92075E-13
 -1      2560 3.29505E+01 6.70264E+00-9.72707E-02-4.98603E-01 8.55371E-13-3.17052E-13
 -1      2561 3.20257E+01 5.49026E+00-1.11043E-01-9.25190E-01 8.16125E-13-3.51053E-13
 -1      2562 3.04646E+01 6.73505E+00-5.83752E-02-6.22777E-01 8.55149E-13-2.75696E-13
 -1      2563 3.03849E+01 2.10403E-01-7.46427E-02-4.76449E-01 5.29153E-13-1.85019E-13
 -1      2564 3.19888E+01 2.16235E+00-8.52042E-02 2.22309E-01 6.64191E-13-1.98563E-13
 -1      2565 1.78045E+01-4.26981E+00-7.21649E-03-6.20003E+00 6.51146E-14-6.90593E-13
 -1      2566 2.12957E+01-4.08038E+00-6.41273E-02-5.66620E+00 1.23040E-13-6.13606E-13
 -1      2567 1.08916E+01-3.42630E+00 2.72384E-02-6.34218E+00-4.87388E-14-9.01695E-13
 -1      2568 1.44473E+01-3.85092E+00 9.72391E-03-6.80348E+00 4.09117E-14-8.27539E-13
 -1      2569 6.04913E+00-1.26352E+00 1.36687E-01-4.09998E+00-1.02723E-13-1.02959E-12
 -1      2570 8.40966E+00-2.15096E+00 9.36439E-02-5.69680E+00-4.98768E-14-1.00198E-12
 -1      2571 3.26991E+00-9.13483E-01 9.59009E-02 3.48287E-01-2.83731E-14-1.11366E-12
 -1      2572 3.71391E+00-7.68227E-01 7.05069E-02-1.92354E+00 1.57235E-14-1.10789E-12
 -1      2573 5.71209E+00-2.10364E+00 4.61424E-02 4.48765E+00-4.61853E-14-1.00242E-12
 -1      2574 3.81641E+00-1.47058E+00 5.80730E-02 2.44811E+00 4.20636E-14-1.05654E-12
 -1      2575 1.20130E+01-3.46510E+00 1.48714E-02 6.53228E+00-6.42819E-14-8.96574E-13
 -1      2576 8.62826E+00-2.98937E+00 3.86767E-02 5.59835E+00 8.18789E-15-9.25593E-13
 -1      2577 1.94169E+01-4.39012E+00-6.62603E-02 6.12241E+00-1.50546E-13-6.57863E-13
 -1      2578 1.56716E+01-4.24818E+00 2.09025E-02 6.30363E+00-6.27831E-14-7.84699E-13
 -1      2579 3.07293E+01-9.47401E-02-1.68354E-01 2.45353E-02-6.38253E-13-2.05086E-13
 -1      2580 2.93459E+01-1.59616E+00-1.59015E-02 9.75926E-01-4.70943E-13-2.86493E-13
 -1      2581 2.02463E+01-5.25102E+00 4.54669E-03-5.90707E+00 5.95357E-14-1.81535E-13
 -1      2582 2.36116E+01-4.70652E+00-2.99766E-02-5.27058E+00-4.99878E-14-3.04173E-13
 -1      2583 3.22826E+01 6.60961E+00-1.17806E-01 7.76283E-01-7.77267E-13-6.75140E-13
 -1      2584 3.22600E+01 7.07272E+00-1.70273E-01 1.87528E-01-8.45712E-13-6.36290E-13
 -1      2585 3.18439E+01 3.30612E+00-1.02053E-01 7.64852E-01-5.32213E-13-6.43957E-13
 -1      2586 3.25547E+01 5.42468E+00-1.04729E-01 9.18430E-01-6.73350E-13-7.06241E-13
 -1      2587 3.01938E+01-1.10397E+00-7.89567E-02-1.08755E+00-3.27108E-13-5.50671E-13
 -1      2588 3.12250E+01 5.06492E-01-1.09630E-01-1.36265E-01-3.80265E-13-5.67102E-13
 -1      2589 2.89527E+01-2.52913E+00 1.62907E-02-9.66295E-01-1.26673E-13-5.89390E-13
 -1      2590 1.36542E+01-4.89412E+00 4.95832E-02-6.68207E+00 1.65701E-13 2.72199E-13
 -1      2591 1.68013E+01-5.07919E+00 9.73397E-03-6.83661E+00 1.19460E-13 2.54102E-14
 -1      2592 3.02510E+01-9.16245E-01-8.40072E-02 1.35690E+00 4.35121E-13-3.49276E-13
 -1      2593 2.79155E+01-2.77935E+00-3.08591E-02 2.26618E+00 2.84085E-13-2.96069E-13
 -1      2594 2.97860E+01-4.68051E-01-4.37210E-03-3.72168E-01 3.70703E-13-4.48835E-13
 -1      2595 7.22519E+00-3.33357E+00 9.64202E-02-5.09593E+00 2.94709E-13 8.00193E-13
 -1      2596 1.02275E+01-4.11596E+00 3.90074E-02-6.45642E+00 1.47632E-13 6.01186E-13
 -1      2597 1.33520E+01-3.91087E+00 1.30661E-01-6.37699E+00 3.65374E-13 2.99816E-13
 -1      2598 2.41562E+01 4.54151E-01-1.75428E-02 9.78897E-01 3.56833E-13 3.94214E-13
 -1      2599 2.44412E+01 9.20365E-01-1.08138E-02 1.33516E+00 3.87388E-13 4.46271E-13
 -1      2600 2.39278E+01 1.32150E+00-2.69216E-02 1.46144E+00 4.14412E-13 2.88429E-13
 -1      2601 2.38165E+01 4.01097E-01-2.09584E-02 1.02945E+00 3.45802E-13 2.19110E-13
 -1      2602 1.01424E+01-3.83990E+00 4.79698E-02 6.48248E+00-2.64844E-13 5.52947E-13
 -1      2603 6.75001E+00-3.32203E+00 7.96837E-02 4.92133E+00-2.06779E-13 6.57197E-13
 -1      2604 7.77998E+00-1.98763E+00 1.65622E-01 4.23521E+00-2.67647E-13 6.24945E-13
 -1      2605 3.07925E+01 2.84907E+00-4.37732E-02 1.49838E+00 6.41209E-13 3.51386E-14
 -1      2606 1.86808E+01 2.23973E+00-1.63988E-02 7.13641E-01-4.86087E-14-5.61932E-13
 -1      2607 1.90280E+01 2.66941E+00-1.89926E-02 3.19726E-01-8.47464E-14-5.74395E-13
 -1      2608 2.00956E+01 2.46791E+00 2.69608E-03 1.86372E-02-1.37868E-13-5.19708E-13
 -1      2609 2.38045E+01-5.97863E-01 1.29384E-04 1.20771E+00 2.12021E-13 2.10606E-13
 -1      2610 2.32179E+01 1.62502E+00-9.81405E-03 1.29704E+00 3.98418E-13 9.93962E-14
 -1      2611 1.34068E+01-3.73907E+00 1.37080E-01 6.38543E+00-2.98706E-13 3.77406E-13
 -1      2612 3.08466E+01 1.33650E+00-1.13196E-01 1.01565E+00-4.33820E-13-6.79762E-13
 -1      2613 2.93259E+01 2.34913E+00-1.33240E-01 2.19106E+00-4.71317E-13-7.32248E-13
 -1      2614 2.94168E+01-2.67191E-01-3.36030E-02 1.12849E+00-2.95292E-13-7.25142E-13
 -1      2615 2.56868E+01-4.61249E+00 4.53533E-02-3.58170E+00 3.91770E-14-4.80574E-13
 -1      2616 2.95155E+01 5.29412E+00-1.32412E-01 1.50231E+00 8.52984E-13 4.54289E-14
 -1      2617 3.11495E+01 6.50730E+00-9.04685E-02 1.00396E+00 9.48436E-13-1.08732E-13
 -1      2618 2.92049E+01 6.68661E+00-1.24288E-01 7.67682E-01 8.65780E-13-9.07711E-14
 -1      2619 3.01710E+01 5.39702E+00-3.77296E-02 1.46868E+00-6.60944E-13-7.48707E-13
 -1      2620 1.98319E+01-5.15245E+00 8.38772E-02-5.91209E+00 2.27152E-13-1.94903E-13
 -1      2621 2.07134E+01-4.97856E+00 1.10098E-01 5.57646E+00-2.40197E-13-5.29438E-15
 -1      2622 3.00200E+01 8.91005E-01-2.42486E-02-1.51317E+00-5.71238E-13-8.32390E-14
 -1      2623 1.99993E+01-5.81673E-04-2.06039E-06-9.65626E-04-3.81647E-14 7.60299E-13
 -1      2624 1.99994E+01-7.55141E-04 4.94018E-07-1.09368E-03 4.99468E-14 6.27992E-13
 -1      2625 1.99992E+01-5.67648E-04-7.55016E-06 1.05584E-03-1.38663E-13-1.85420E-13
 -1      2626 1.99994E+01-8.31589E-04 4.04030E-06 1.18033E-03-7.19430E-14-2.73050E-13
 -1      2627 1.99994E+01-9.42391E-04-3.13959E-06 1.43153E-03-2.20308E-13-2.56182E-13
 -1      2628 1.99990E+01-5.67553E-04-1.02969E-05 1.24482E-03-1.02406E-13-2.26825E-14
 -1      2629 2.67344E+01-4.03814E+00-3.03298E-03 2.49506E+00 6.16590E-14-4.03261E-13
 -1      2630 2.24844E+01-4.32074E+00 8.13789E-02 4.66893E+00 1.74583E-14-4.40897E-13
 -1      2631 1.52834E+01-3.45406E+00 1.17876E-01 6.15389E+00 1.53488E-13-7.27834E-13
 -1      2632 2.31111E+01 1.08437E+00 1.54688E-02 9.85291E-01 3.48460E-13 6.00431E-14
 -1      2633 8.96607E+00-1.57022E+00 1.40890E-01 5.02842E+00 1.47937E-13-9.53071E-13
 -1      2634 7.77855E+00-2.01797E+00 1.68650E-01-4.10296E+00 2.67508E-13 7.39631E-13
 -1      2635 5.37412E+00 1.14314E-02 1.64524E-01 1.50751E+00 8.30655E-14-1.09404E-12
 -1      2636 3.02631E+01 5.08218E+00-6.33182E-02-1.83395E+00-8.29531E-13-3.39923E-13
 -1      2637 6.73610E+00-2.19044E-02 1.74418E-01-2.99480E+00-8.02552E-14-1.05291E-12
 -1      2638 1.14636E+01-2.14955E+00 9.83872E-02-5.84307E+00-2.33424E-13-8.68083E-13
 -1      2639 1.74553E+01-3.91440E+00 9.28960E-02-6.20984E+00-1.71696E-13-6.35790E-13
 -1      2640 3.05443E+01 3.78540E+00-5.15561E-02-1.43992E+00 7.22394E-13-3.96849E-13
 -1      2641 2.79523E+01-2.88458E+00 1.91214E-02 1.27928E+00-2.28158E-13-1.88044E-13
 -1      2642 2.17047E+01 2.00926E+00-1.53497E-02-5.44958E-01-2.22644E-13-3.86736E-13
 -1      2643 5.60046E+00-1.12712E+00 1.80559E-01 1.92806E-01-2.75578E-14 6.73378E-13
 -1      2644 2.39168E+01-3.89331E+00 5.00328E-02-4.47820E+00 9.02611E-14-4.58966E-13
 -1      2645 2.56545E+01-3.85209E+00-1.35247E-01-2.92792E+00-1.85962E-15-2.16355E-13
 -1      2646 2.28776E+01-4.14654E+00 1.07514E-01-4.57328E+00-1.01807E-13-3.59150E-13
 -1      2647 3.02477E+01 6.82263E+00-5.15163E-02-2.21665E-02-8.22065E-13-6.14106E-13
 -1      2648 2.95634E+01-1.22595E+00-2.66899E-02-9.05319E-01 3.75505E-13-1.50185E-13
 -1      2649 2.93653E+01-5.72610E-01-9.75528E-02 6.69384E-01 3.10821E-13 6.60860E-14
 -1      2650 2.80591E+01-2.35347E+00 1.89223E-03-1.29714E+00 1.60191E-13-7.77711E-14
 -1      2651 1.99993E+01-8.64828E-04-4.81221E-06-1.35618E-03-7.35777E-14 5.80514E-13
 -1      2652 1.99991E+01-7.31220E-04 4.83684E-06 1.52764E-03-1.41627E-13-1.47259E-13
 -1      2653 1.58074E+01 2.70990E+00 4.35449E-02-1.69948E+00 5.22876E-14-5.59541E-13
 -1      2654 1.46378E+01 2.99715E+00-3.59118E-02-1.62384E+00 3.51624E-14-6.07413E-13
 -1      2655 1.36939E+01 3.57504E+00 3.40140E-02-1.22462E+00 4.79373E-14-6.76388E-13
 -1      2656 1.30497E+01 3.76131E+00-1.03835E-02-8.39106E-01 4.88420E-14-7.07073E-13
 -1      2657 1.40340E+01 2.87281E+00 3.41186E-02-1.79732E+00 1.55171E-14-6.63941E-13
 -1      2658 2.04541E+01 1.09669E+00 4.17463E-03-5.54991E-01 1.74773E-13-2.66946E-13
 -1      2659 1.94182E+01 1.36195E+00-5.54431E-03-9.54857E-01 1.41674E-13-3.29397E-13
 -1      2660 2.21343E+01 7.14302E-01-2.39628E-03 3.12390E-01 2.62100E-13-1.18440E-13
 -1      2661 2.13403E+01 9.19313E-01 5.89491E-03-5.01811E-02 2.16974E-13-1.79990E-13
 -1      2662 2.12522E+01 3.21388E-01-1.06637E-02-4.88054E-01 1.59715E-13-1.87463E-13
 -1      2663 2.35803E+01-4.62349E-01-1.83931E-02 8.22364E-01 2.29297E-13 9.62520E-14
 -1      2664 2.36126E+01-9.43980E-02 2.10795E-02 7.89360E-01 2.43884E-13 8.87512E-14
 -1      2665 1.13353E+01-1.30912E+00 6.77247E-02 5.36492E+00 2.19047E-13-7.83484E-13
 -1      2666 8.78760E+00-2.32012E-01 1.43464E-01 4.09116E+00 1.98425E-13-8.96561E-13
 -1      2667 2.38773E+01-9.02349E-01-1.68977E-02 1.18082E+00 1.72891E-13 1.50184E-13
 -1      2668 2.38917E+01-7.31301E-01 1.72763E-02 9.78573E-01 1.94166E-13 1.41097E-13
 -1      2669 2.36190E+01-6.91272E-01 1.41632E-03 7.68673E-01 1.85495E-13 3.39228E-14
 -1      2670 2.78314E+01-3.26681E+00-9.28061E-03-7.84090E-01-4.40706E-15-6.47107E-13
 -1      2671 2.86187E+01-2.28225E+00-1.24410E-01 6.45099E-02-1.05942E-13-6.78138E-13
 -1      2672 2.42139E+01-1.24132E+00 3.22916E-02-4.68996E-01-3.44817E-14-1.10750E-13
 -1      2673 2.44165E+01-1.53792E+00-2.49588E-02-7.48875E-01-3.12285E-14-7.56843E-14
 -1      2674 2.50923E+01-1.61308E+00 1.39475E-02-1.22006E+00-3.75810E-14 8.85750E-15
 -1      2675 2.52252E+01-1.42589E+00-2.25670E-02-1.61633E+00-8.45079E-14 2.98039E-14
 -1      2676 2.47670E+01-1.89832E+00-2.09124E-02-6.38596E-01 5.01986E-15-4.95667E-14
 -1      2677 2.56731E+01-9.23248E-01-4.11156E-02-2.17554E+00-1.43789E-13 4.79131E-14
 -1      2678 2.56456E+01-2.52323E-02-1.56131E-02-2.40751E+00-2.32137E-13 1.99805E-14
 -1      2679 2.59663E+01-1.44815E+00-1.34101E-02-1.70760E+00-1.17508E-13 2.27301E-14
 -1      2680 2.51480E+01 3.28364E+00-1.17255E-01-1.42323E+00-4.80206E-13-2.19759E-13
 -1      2681 2.49100E+01 3.85737E+00-7.81869E-02-4.97788E-01-5.03236E-13-3.14302E-13
 -1      2682 2.62215E+01 4.63455E+00-1.44695E-01 4.51871E-01-5.75914E-13-4.59887E-13
 -1      2683 2.61898E+01 4.05666E+00-1.78247E-01 1.32722E+00-5.18280E-13-5.40273E-13
 -1      2684 2.62949E+01 1.76930E+00-5.57781E-02 2.11665E+00-3.44183E-13-6.24330E-13
 -1      2685 2.64736E+01 4.40741E-01-6.91684E-02 2.34670E+00-2.52465E-13-7.03351E-13
 -1      2686 2.48734E+01-1.84224E+00-2.15743E-02 1.14137E+00-7.26754E-14-4.70787E-13
 -1      2687 2.46180E+01-2.04358E+00 1.51987E-02 6.29447E-01-8.76144E-14-4.68425E-13
 -1      2688 2.38912E+01-2.03552E+00-2.05667E-02 3.84242E-02-9.05083E-14-4.36459E-13
 -1      2689 2.35523E+01-1.83874E+00 2.48706E-02-3.95109E-01-5.29193E-14-3.93197E-13
 -1      2690 2.42744E+01-2.51888E+00-2.74245E-02-1.25720E-01-7.74094E-14-4.82727E-13
 -1      2691 2.29136E+01-1.57966E+00-1.22759E-02-7.53624E-01 3.68152E-15-3.95901E-13
 -1      2692 2.25801E+01-1.26047E+00 2.31001E-02-1.03871E+00 7.16135E-14-3.18656E-13
 -1      2693 2.29493E+01-2.04842E+00-2.16701E-02-1.00893E+00 4.82231E-15-2.47546E-13
 -1      2694 2.21112E+01-9.61511E-01-6.33641E-03-1.19968E+00 9.95534E-14-2.50198E-13
 -1      2695 2.18300E+01-6.70546E-01 1.47465E-02-1.34287E+00 9.94290E-14-1.49676E-13
 -1      2696 2.19084E+01-1.32055E+00-2.39500E-02-1.46182E+00 1.26174E-13-2.29717E-13
 -1      2697 2.15310E+01-4.31269E-01-1.68237E-03-1.37409E+00 2.98672E-14-1.18562E-13
 -1      2698 2.13116E+01-2.23093E-01 8.40262E-03-1.41556E+00 1.82539E-16-1.28792E-13
 -1      2699 2.12101E+01-6.40181E-01-1.66760E-02-1.59804E+00 8.36789E-14-2.31992E-13
 -1      2700 2.11329E+01-6.31449E-02 9.39370E-04-1.37661E+00 1.20236E-14-1.19863E-13
 -1      2701 2.09647E+01 6.45662E-02 4.06531E-03-1.35384E+00 3.12849E-14-1.06741E-13
 -1      2702 2.07815E+01-1.54455E-01-9.89413E-03-1.55708E+00 3.37236E-14-1.13121E-13
 -1      2703 2.08618E+01 1.56773E-01 2.24649E-03-1.27984E+00 1.60105E-14-9.89846E-14
 -1      2704 2.07308E+01 2.23086E-01 1.39104E-03-1.22119E+00 2.60527E-14-1.09431E-13
 -1      2705 2.05283E+01 1.45595E-01-5.27339E-03-1.42543E+00 1.77433E-14-1.52168E-14
 -1      2706 2.06717E+01 2.66807E-01 2.82993E-03-1.13308E+00 8.57550E-15-3.15816E-14
 -1      2707 2.05669E+01 2.92121E-01-8.93394E-05-1.05806E+00 4.63498E-14-4.90148E-14
 -1      2708 2.03797E+01 3.03623E-01-2.59160E-03-1.25308E+00 7.80198E-14-3.21448E-14
 -1      2709 2.05316E+01 3.04879E-01 3.02080E-03-9.68019E-01 2.16446E-14-1.07122E-13
 -1      2710 2.04460E+01 3.05460E-01-8.01826E-04-8.89155E-01 1.71469E-14-1.40027E-13
 -1      2711 2.02892E+01 3.66224E-01-1.20074E-03-1.06902E+00-3.53283E-14-1.42336E-13
 -1      2712 2.04232E+01 3.00324E-01 2.97689E-03-8.04092E-01 5.22840E-14-1.98022E-13
 -1      2713 2.03525E+01 2.87534E-01-1.06297E-03-7.28834E-01 7.28808E-14-1.95990E-13
 -1      2714 2.02297E+01 3.70674E-01-5.59142E-04-8.90010E-01 6.46158E-15-2.52001E-13
 -1      2715 2.03362E+01 2.73279E-01 2.78519E-03-6.52377E-01 3.46725E-14-2.31980E-13
 -1      2716 2.02777E+01 2.54422E-01-1.07944E-03-5.84683E-01-2.96309E-14-2.48103E-13
 -1      2717 2.01866E+01 3.43185E-01-3.10397E-04-7.25439E-01 1.57531E-14-4.13164E-13
 -1      2718 2.02649E+01 2.36511E-01 2.50637E-03-5.18379E-01 3.87319E-14-2.21330E-13
 -1      2719 2.02169E+01 2.15971E-01-9.77742E-04-4.59929E-01-2.55501E-14-1.65853E-13
 -1      2720 2.01525E+01 3.00775E-01-2.43521E-04-5.79999E-01 5.16548E-14-3.25393E-13
 -1      2721 2.02063E+01 1.97580E-01 2.18570E-03-4.04022E-01-1.28769E-13-1.50849E-13
 -1      2722 2.01673E+01 1.77797E-01-8.30334E-04-3.55087E-01-8.36509E-14-8.93151E-14
 -1      2723 2.01240E+01 2.53786E-01-2.45184E-04-4.55323E-01-5.45263E-14-6.98816E-14
 -1      2724 2.01583E+01 1.60629E-01 1.85623E-03-3.09038E-01-1.01078E-13-2.17289E-13
 -1      2725 2.01271E+01 1.42824E-01-6.75971E-04-2.69079E-01-1.20375E-13-1.88316E-13
 -1      2726 2.00998E+01 2.08073E-01-2.61049E-04-3.51099E-01-1.74860E-13-1.50459E-13
 -1      2727 2.01194E+01 1.27671E-01 1.54048E-03-2.31925E-01-1.54565E-14-1.99429E-13
 -1      2728 2.00949E+01 1.12333E-01-5.33511E-04-1.99988E-01 6.85076E-14-1.77147E-13
 -1      2729 2.00792E+01 1.66634E-01-2.69328E-04-2.65848E-01-8.09453E-14-1.84618E-13
 -1      2730 2.00884E+01 9.94574E-02 1.25226E-03-1.70572E-01 7.69276E-14-1.18677E-13
 -1      2731 2.00694E+01 8.66541E-02-4.10632E-04-1.45538E-01 5.49396E-14-9.52908E-14
 -1      2732 2.00618E+01 1.30733E-01-2.64448E-04-1.97473E-01 1.45364E-13-1.21062E-13
 -1      2733 2.00641E+01 7.60183E-02 9.98670E-04-1.22667E-01 1.52808E-14-3.80041E-14
 -1      2734 2.00496E+01 6.55923E-02-3.09070E-04-1.03407E-01-1.26004E-14-5.10803E-14
 -1      2735 2.00474E+01 1.00622E-01-2.47865E-04-1.43638E-01 7.92451E-14-1.01680E-13
 -1      2736 2.00453E+01 5.70064E-02 7.82032E-04-8.59419E-02-1.04642E-13 5.99194E-15
 -1      2737 2.00345E+01 4.86930E-02-2.27631E-04-7.13969E-02-1.24308E-13-8.12482E-14
 -1      2738 2.00356E+01 7.59986E-02-2.23327E-04-1.02003E-01-9.90657E-14 3.08640E-14
 -1      2739 2.00310E+01 4.18993E-02 6.01466E-04-5.83057E-02-9.49395E-14-2.93809E-14
 -1      2740 2.00231E+01 3.53955E-02-1.63860E-04-4.75335E-02-1.04875E-13 8.20241E-17
 -1      2741 2.00262E+01 5.62894E-02-1.94684E-04-7.03810E-02-6.99058E-14 2.47025E-14
 -1      2742 2.00204E+01 3.01188E-02 4.54167E-04-3.79144E-02-2.21128E-13-5.08943E-14
 -1      2743 2.00148E+01 2.51227E-02-1.14938E-04-3.01045E-02-1.62955E-13-1.09256E-13
 -1      2744 2.00189E+01 4.08138E-02-1.65039E-04-4.68140E-02-1.48727E-13-4.38386E-14
 -1      2745 2.00127E+01 2.10982E-02 3.36327E-04-2.31924E-02-1.11312E-13-5.08401E-14
 -1      2746 2.00088E+01 1.73303E-02-7.81201E-05-1.76663E-02-9.79919E-14-5.67386E-14
 -1      2747 2.00132E+01 2.88826E-02-1.36564E-04-2.96072E-02-9.71227E-14-7.37354E-14
 -1      2748 2.00072E+01 1.43176E-02 2.43772E-04-1.28269E-02-5.76834E-14-1.58917E-14
 -1      2749 2.00046E+01 1.15308E-02-5.09447E-05-9.02982E-03 6.28564E-14-2.57011E-14
 -1      2750 2.00089E+01 1.98510E-02-1.10589E-04-1.73325E-02-1.07044E-13 9.61411E-14
 -1      2751 2.00035E+01 9.32043E-03 1.72369E-04-5.74827E-03 1.16476E-13-6.91576E-14
 -1      2752 2.00018E+01 7.30295E-03-3.13021E-05-3.23507E-03 1.05275E-13-6.68978E-14
 -1      2753 2.00058E+01 1.31442E-02-8.77919E-05-8.81393E-03 2.11245E-15-2.55413E-14
 -1      2754 2.00009E+01 5.71748E-03 1.18277E-04-1.10141E-03 2.08881E-13-4.09845E-14
 -1      2755 1.99999E+01 4.29276E-03-1.74417E-05 4.78357E-04 2.46893E-13 1.75725E-13
 -1      2756 2.00035E+01 8.26730E-03-6.83822E-05-3.10243E-03 1.50320E-13-1.22573E-13
 -1      2757 1.99994E+01 3.18535E-03 7.80763E-05 1.78474E-03 1.44122E-13 8.62959E-14
 -1      2758 1.99988E+01 2.20908E-03-7.94565E-06 2.70202E-03 2.30352E-13-6.94003E-14
 -1      2759 2.00019E+01 4.80526E-03-5.22676E-05 5.53814E-04 1.48690E-13-1.98189E-13
 -1      2760 1.99985E+01 1.46064E-03 4.88192E-05 3.42735E-03 1.73439E-13-1.53013E-13
 -1      2761 1.99982E+01 8.17083E-04-1.68926E-06 3.88783E-03-1.00220E-13-3.35559E-13
 -1      2762 2.00008E+01 2.41750E-03-3.91758E-05 2.73959E-03 8.68682E-14-3.19809E-13
 -1      2763 1.99980E+01 3.32700E-04 2.80345E-05 4.21769E-03-1.15049E-13-3.98930E-13
 -1      2764 1.99980E+01-6.94846E-05 2.20163E-06 4.37444E-03-6.87752E-14-3.81524E-13
 -1      2765 2.00000E+01 8.29802E-04-2.87441E-05 3.90148E-03-1.24554E-13-4.74512E-13
 -1      2766 1.99978E+01-3.64288E-04 1.36971E-05 4.44580E-03-7.43592E-14-3.64477E-13
 -1      2767 1.99980E+01-5.96133E-04 4.39208E-06 4.41017E-03-1.89093E-13-3.31122E-13
 -1      2768 1.99996E+01-1.75011E-04-2.05809E-05 4.37397E-03-7.39414E-14-4.52506E-13
 -1      2769 1.99979E+01-7.59037E-04 4.18254E-06 4.32172E-03-2.01843E-13-3.30053E-13
 -1      2770 1.99981E+01-8.75121E-04 5.37659E-06 4.17247E-03-2.12502E-13-2.29623E-13
 -1      2771 1.99993E+01-7.66416E-04-1.43067E-05 4.40214E-03-1.77940E-13-4.71570E-13
 -1      2772 1.99981E+01-9.50347E-04-1.78202E-06 3.99310E-03-2.40828E-13-1.81093E-13
 -1      2773 1.99983E+01-9.92273E-04 5.51714E-06 3.78384E-03-1.74105E-13-2.02809E-13
 -1      2774 1.99992E+01-1.07507E-03-9.57965E-06 4.16089E-03-1.92695E-13-3.74542E-13
 -1      2775 1.99983E+01-1.01357E-03-5.17050E-06 3.55966E-03-1.12732E-13-1.83980E-13
 -1      2776 1.99985E+01-1.01300E-03 5.06482E-06 3.32479E-03 9.02693E-14-2.32926E-13
 -1      2777 1.99992E+01-1.20082E-03-6.10598E-06 3.77081E-03-9.71899E-14-1.67114E-13
 -1      2778 1.99985E+01-1.00619E-03-6.72809E-06 3.08459E-03 2.61468E-13-3.02185E-13
 -1      2779 1.99988E+01-9.87340E-04 4.21443E-06 2.84403E-03 2.16037E-13-2.62690E-13
 -1      2780 1.99992E+01-1.21975E-03-3.66102E-06 3.31106E-03 1.12128E-13-2.07818E-13
 -1      2781 1.99988E+01-9.72674E-04-7.16473E-06 2.60356E-03 1.12558E-13-1.80730E-13
 -1      2782 1.99990E+01-9.53305E-04 2.92585E-06 2.36602E-03 1.27230E-13-2.45267E-13
 -1      2783 1.99993E+01-1.18987E-03-2.11761E-06 2.82933E-03 1.25161E-13-4.07840E-13
 -1      2784 1.99990E+01-9.44549E-04-6.28078E-06 2.13253E-03 1.12714E-13-3.20055E-13
 -1      2785 1.99992E+01-9.39309E-04 5.18022E-07 1.90016E-03 2.12125E-14-2.67930E-13
 -1      2786 1.99994E+01-1.15266E-03-1.51428E-07 2.34947E-03 7.15451E-14-4.81256E-13
 -1      2787 2.36333E+01 1.39696E+00 1.41694E-02 1.86370E+00 3.06574E-13 9.28689E-14
 -1      2788 2.38279E+01 7.06434E-01-4.20967E-02 2.13607E+00 2.54485E-13 1.56828E-13
 -1      2789 2.74073E+01-3.39507E+00-1.12821E-01 1.04488E+00 4.11303E-14-4.75897E-13
 -1      2790 2.53827E+01-4.44273E+00 3.05183E-02 2.69829E+00-1.10190E-13-5.00225E-13
 -1      2791 2.40127E+01 7.65562E-02 9.50713E-03 2.14506E+00 1.95564E-13 2.00640E-13
 -1      2792 2.41697E+01-4.45621E-01-1.97326E-02 2.05743E+00 1.60701E-13 2.32775E-13
 -1      2793 2.46404E+01 4.93248E-01 6.14472E-03 2.31434E+00 2.70537E-13 1.83954E-13
 -1      2794 2.32110E+01 2.22135E+00-2.88701E-02-8.65285E-01 2.79274E-13-9.80743E-14
 -1      2795 2.31744E+01 2.46803E+00-5.83030E-03-2.09542E-01 2.74010E-13-6.14266E-14
 -1      2796 2.35341E+01 1.01166E+00-5.59176E-02-1.91751E+00 2.80895E-13-2.51381E-13
 -1      2797 2.33800E+01 1.71446E+00 3.68545E-03-1.55809E+00 3.13746E-13-1.65201E-13
 -1      2798 2.40354E+01 2.40434E+00-2.35631E-02-1.32174E+00 3.53410E-13-2.80597E-13
 -1      2799 2.38457E+01-3.28391E-01-3.76076E-02-1.97834E+00 1.81437E-13-2.98549E-13
 -1      2800 2.37509E+01 3.29705E-01 1.54368E-02-2.01788E+00 2.49734E-13-2.69055E-13
 -1      2801 2.43729E+01 7.21443E-01-3.91566E-03-2.13134E+00 2.84698E-13-3.29477E-13
 -1      2802 2.38055E+01-1.15607E+00-1.09140E-02-1.33710E+00 7.13430E-14-2.49230E-13
 -1      2803 2.38034E+01-8.22249E-01-1.76921E-03-1.65486E+00 1.03125E-13-2.68254E-13
 -1      2804 2.44110E+01-7.15141E-01 8.71142E-03-1.84002E+00 1.39812E-13-3.05876E-13
 -1      2805 2.33975E+01-1.32483E+00 7.47971E-03-4.85730E-01 6.49678E-14-2.13786E-13
 -1      2806 2.34933E+01-1.30964E+00-1.56375E-02-8.64985E-01 8.87003E-14-2.03752E-13
 -1      2807 2.39655E+01-1.54709E+00 1.17846E-03-9.45292E-01 6.20025E-14-2.83625E-13
 -1      2808 2.28205E+01-1.08410E+00 1.33235E-02 2.32546E-01 1.08216E-14-2.42295E-13
 -1      2809 2.29848E+01-1.24201E+00-1.64958E-02-8.07467E-02 7.29018E-14-1.79974E-13
 -1      2810 2.32215E+01-1.60734E+00-8.93736E-03-4.12945E-02 5.00423E-14-1.24104E-13
 -1      2811 2.22568E+01-7.15122E-01 1.20172E-02 7.07088E-01 2.54100E-14-1.76360E-13
 -1      2812 2.24428E+01-9.11765E-01-1.21795E-02 4.96146E-01 5.33644E-15-2.30405E-13
 -1      2813 2.24593E+01-1.24168E+00-1.11152E-02 6.09240E-01 3.16836E-14-1.29898E-13
 -1      2814 2.17754E+01-3.68059E-01 8.41117E-03 9.57420E-01 7.81899E-14-1.81481E-13
 -1      2815 2.19568E+01-5.39011E-01-7.83286E-03 8.45375E-01 6.15356E-14-1.14072E-13
 -1      2816 2.18247E+01-7.79594E-01-1.16765E-02 9.88639E-01 4.32201E-14-3.87305E-14
 -1      2817 2.13929E+01-1.07946E-01 5.24085E-03 1.03873E+00 2.74934E-14-4.60795E-14
 -1      2818 2.15578E+01-2.29797E-01-3.75077E-03 1.00222E+00 4.61878E-14-1.47636E-13
 -1      2819 2.13465E+01-3.69880E-01-8.86077E-03 1.15014E+00 1.33493E-14-5.67968E-14
 -1      2820 2.10954E+01 5.92697E-02 2.88207E-03 1.01086E+00-3.62804E-14 3.25442E-14
 -1      2821 2.12407E+01-1.56660E-02-7.98397E-04 1.02438E+00 3.98476E-14 1.42807E-14
 -1      2822 2.10049E+01-7.49095E-02-5.85374E-03 1.16484E+00 1.90317E-14 8.73493E-14
 -1      2823 2.08629E+01 1.51506E-01 1.33057E-03 9.20538E-01-3.08455E-14-2.50175E-14
 -1      2824 2.09890E+01 1.12598E-01 1.05943E-03 9.63056E-01-2.24334E-14-2.20102E-14
 -1      2825 2.07629E+01 1.08911E-01-3.66517E-03 1.09165E+00-7.16579E-15 9.17588E-14
 -1      2826 2.06789E+01 1.91158E-01 4.10260E-04 8.00613E-01 1.12035E-14 3.06880E-14
 -1      2827 2.07869E+01 1.76681E-01 2.10604E-03 8.56847E-01-3.40332E-14-8.66061E-15
 -1      2828 2.05884E+01 2.06472E-01-2.29854E-03 9.72068E-01-4.92644E-14 4.56483E-14
 -1      2829 2.05313E+01 1.97563E-01-7.71294E-05 6.72542E-01-3.77728E-15 6.37566E-14
 -1      2830 2.06229E+01 1.98071E-01 2.59073E-03 7.32380E-01 3.24259E-14 8.72400E-14
 -1      2831 2.04586E+01 2.44890E-01-1.51532E-03 8.33769E-01-4.54626E-14 1.31193E-13
 -1      2832 2.04123E+01 1.85012E-01-2.97653E-04 5.49295E-01 1.39905E-14 4.09302E-14
 -1      2833 2.04887E+01 1.93745E-01 2.70314E-03 6.06626E-01 6.52343E-15 1.71339E-14
 -1      2834 2.03589E+01 2.46540E-01-1.09057E-03 6.94249E-01 4.54572E-14 2.04929E-13
 -1      2835 2.03162E+01 1.63137E-01-3.65945E-04 4.37921E-01-9.38079E-14 5.09551E-14
 -1      2836 2.03790E+01 1.75640E-01 2.58423E-03 4.89467E-01 9.81745E-17 3.32043E-14
 -1      2837 2.02804E+01 2.27640E-01-8.61155E-04 5.63806E-01-7.22389E-15 1.49982E-13
 -1      2838 2.02391E+01 1.37977E-01-3.55401E-04 3.41548E-01-1.81460E-13 1.29409E-13
 -1      2839 2.02899E+01 1.51514E-01 2.33550E-03 3.85909E-01-1.56688E-13 1.81878E-13
 -1      2840 2.02175E+01 1.98993E-01-7.27043E-04 4.47809E-01-1.75101E-13 2.70082E-13
 -1      2841 2.01778E+01 1.13062E-01-3.09494E-04 2.60848E-01-1.88670E-13 1.29736E-13
 -1      2842 2.02182E+01 1.26073E-01 2.02694E-03 2.97783E-01-1.73337E-13 1.23330E-13
 -1      2843 2.01670E+01 1.67322E-01-6.34211E-04 3.48383E-01-1.90648E-13 2.38735E-13
 -1      2844 2.01297E+01 9.02716E-02-2.52345E-04 1.95050E-01-4.62405E-14 9.64082E-14
 -1      2845 2.01613E+01 1.01958E-01 1.70451E-03 2.24988E-01-9.44213E-14 2.22442E-13
 -1      2846 2.01265E+01 1.36522E-01-5.56878E-04 2.65603E-01-1.63749E-13 2.02838E-13
 -1      2847 2.00925E+01 7.04481E-02-1.96316E-04 1.42624E-01 1.01945E-13 1.19096E-13
 -1      2848 2.01167E+01 8.04858E-02 1.39641E-03 1.66335E-01 7.75297E-15 1.53856E-13
 -1      2849 2.00943E+01 1.08631E-01-4.84891E-04 1.98353E-01-1.37335E-14 2.97447E-13
 -1      2850 2.00642E+01 5.38150E-02-1.46982E-04 1.01725E-01 8.68012E-14 1.36415E-13
 -1      2851 2.00824E+01 6.21562E-02 1.11818E-03 1.20108E-01 1.57592E-13 9.95591E-14
 -1      2852 2.00690E+01 8.45270E-02-4.15751E-04 1.44895E-01 1.42295E-13 2.76247E-13
 -1      2853 2.00430E+01 4.02458E-02-1.06206E-04 7.04564E-02 1.26701E-13-2.68620E-14
 -1      2854 2.00564E+01 4.69962E-02 8.76846E-04 8.44181E-02 1.36991E-13 5.42436E-14
 -1      2855 2.00493E+01 6.43933E-02-3.50084E-04 1.03255E-01 1.67175E-13 1.46684E-13
 -1      2856 2.00274E+01 2.94354E-02-7.39429E-05 4.70342E-02 1.26894E-13-2.32475E-13
 -1      2857 2.00371E+01 3.47753E-02 6.73931E-04 5.74180E-02 1.13717E-13-8.85561E-14
 -1      2858 2.00343E+01 4.80256E-02-2.89336E-04 7.14554E-02 1.79797E-13-6.26326E-14
 -1      2859 2.00163E+01 2.10048E-02-4.92780E-05 2.98642E-02-7.81461E-15-1.32955E-13
 -1      2860 2.00230E+01 2.51414E-02 5.07640E-04 3.74155E-02 3.09797E-14-2.14898E-13
 -1      2861 2.00231E+01 3.50236E-02-2.34753E-04 4.76547E-02 5.39195E-14-7.70840E-14
 -1      2862 2.00085E+01 1.45625E-02-3.09829E-05 1.75752E-02-1.93186E-13-1.43878E-13
 -1      2863 2.00131E+01 1.77025E-02 3.74375E-04 2.29297E-02-5.91322E-14-1.36997E-13
 -1      2864 2.00148E+01 2.49104E-02-1.87051E-04 3.02189E-02-6.18491E-14-3.51448E-14
 -1      2865 2.00032E+01 9.73939E-03-1.78074E-05 9.02230E-03-1.43215E-13-1.00503E-13
 -1      2866 2.00062E+01 1.20739E-02 2.69743E-04 1.27066E-02-2.71988E-13-1.79017E-13
 -1      2867 2.00089E+01 1.72020E-02-1.46400E-04 1.77473E-02-1.81014E-13-9.21277E-14
 -1      2868 1.99999E+01 6.20604E-03-8.61628E-06 3.27243E-03-9.34108E-14 1.13437E-13
 -1      2869 2.00017E+01 7.90324E-03 1.89191E-04 5.71271E-03-1.40192E-13 6.02555E-14
 -1      2870 2.00047E+01 1.14460E-02-1.12538E-04 9.07260E-03-2.37483E-13-1.81831E-13
 -1      2871 1.99978E+01 3.67940E-03-2.44324E-06-4.18731E-04-1.54070E-13 1.22707E-13
 -1      2872 1.99988E+01 4.88236E-03 1.28384E-04 1.11515E-03-5.62336E-14 1.00666E-13
 -1      2873 2.00019E+01 7.24116E-03-8.49118E-05 3.24488E-03-6.67253E-14-7.71622E-15
 -1      2874 1.99967E+01 1.92323E-03 1.49914E-06-2.63316E-03-3.82502E-14-1.29634E-13
 -1      2875 1.99972E+01 2.75038E-03 8.34179E-05-1.74345E-03-1.07978E-13-1.49495E-14
 -1      2876 2.00001E+01 4.24404E-03-6.28034E-05-4.92963E-04-4.53279E-14-1.41756E-13
 -1      2877 1.99963E+01 7.44961E-04 3.83051E-06-3.81712E-03-1.01382E-14 5.79432E-14
 -1      2878 1.99964E+01 1.29215E-03 5.09085E-05-3.37187E-03 1.66032E-14 8.80871E-14
 -1      2879 1.99989E+01 2.16893E-03-4.54325E-05-2.73250E-03-8.66205E-14-2.30492E-13
 -1      2880 1.99962E+01-9.27356E-06 5.02263E-06-4.30596E-03-7.49248E-14 1.10889E-13
 -1      2881 1.99961E+01 3.34086E-04 2.80083E-05-4.15622E-03-2.99121E-14 1.48463E-13
 -1      2882 1.99983E+01 7.83547E-04-3.20258E-05-3.92703E-03-8.23276E-15 1.50437E-13
 -1      2883 1.99965E+01-4.60302E-04 5.42179E-06-4.34617E-03-2.78811E-13 1.19453E-13
 -1      2884 1.99962E+01-2.61322E-04 1.23826E-05-4.38339E-03-2.18549E-13 1.97185E-13
 -1      2885 1.99981E+01-9.73558E-05-2.18624E-05-4.41697E-03-1.49798E-13 2.84149E-13
 -1      2886 1.99968E+01-7.01672E-04 5.27141E-06-4.11427E-03 2.90948E-14 2.91303E-13
 -1      2887 1.99965E+01-6.01261E-04 2.16136E-06-4.26156E-03-1.68441E-13 1.48676E-13
 -1      2888 1.99980E+01-6.19020E-04-1.43003E-05-4.45232E-03-1.98452E-13 4.14346E-13
 -1      2889 1.99973E+01-8.05072E-04 4.72884E-06-3.73238E-03 1.79824E-13 5.47986E-14
 -1      2890 1.99969E+01-7.68249E-04-4.12046E-06-3.93733E-03 2.49873E-13 2.05082E-13
 -1      2891 1.99981E+01-8.93788E-04-8.78864E-06-4.21185E-03 1.63460E-13 2.50431E-13
 -1      2892 1.99977E+01-8.25206E-04 3.90433E-06-3.28087E-03 2.66897E-13-1.52360E-13
 -1      2893 1.99974E+01-8.25345E-04-7.58972E-06-3.50985E-03 2.11847E-13-9.74485E-14
 -1      2894 1.99983E+01-1.00773E-03-4.88013E-06-3.81904E-03 3.67548E-13-9.94103E-14
 -1      2895 1.99982E+01-8.03945E-04 2.88504E-06-2.80838E-03 1.66753E-13-1.41808E-13
 -1      2896 1.99978E+01-8.20677E-04-9.05446E-06-3.04196E-03 2.14444E-13-1.32427E-13
 -1      2897 1.99985E+01-1.02652E-03-2.20203E-06-3.35495E-03 2.95681E-13-1.57403E-13
 -1      2898 1.99986E+01-7.73867E-04 1.35217E-06-2.33993E-03 1.06456E-13 1.08010E-13
 -1      2899 1.99983E+01-7.91368E-04-9.17999E-06-2.56914E-03 4.05651E-14 1.02800E-14
 -1      2900 1.99988E+01-1.00036E-03-4.89166E-07-2.86864E-03 9.38279E-15-2.18841E-13
 -1      2901 1.99989E+01-7.59442E-04-2.49194E-06-1.88288E-03 3.82077E-14 5.05055E-13
 -1      2902 1.99987E+01-7.65987E-04-8.99505E-06-2.10510E-03 1.78143E-13 3.91614E-13
 -1      2903 1.99990E+01-9.67028E-04 1.20677E-06-2.38562E-03-7.30055E-14-9.71149E-17
 -1      2904 1.99992E+01-8.13717E-04-4.87174E-06-1.50901E-03-9.04086E-14 4.82778E-13
 -1      2905 1.99990E+01-8.07870E-04-9.36718E-06-1.73295E-03-1.09079E-13 3.79840E-13
 -1      2906 1.99993E+01-9.88211E-04 7.94709E-06-1.98015E-03 1.18901E-15 5.12273E-14
 -1      2907 1.99995E+01-1.07877E-03 9.20113E-06-1.64900E-03-2.20634E-13 3.98898E-14
 -1      2908 2.00008E+01-2.51031E-03 5.71910E-06-1.51554E-04-2.06569E-14-2.38809E-13
 -1      2909 2.00008E+01-2.47966E-03 3.21236E-06-4.22368E-04 2.45159E-14-1.89728E-13
 -1      2910 1.99992E+01-9.41293E-04-6.38701E-06 1.74534E-03 1.63730E-14-3.26405E-13
 -1      2911 1.99993E+01-9.40068E-04-1.29030E-06 1.58649E-03-9.77846E-14-3.07129E-13
 -1      2912 1.99995E+01-1.13281E-03 1.52224E-06 1.95231E-03 1.74182E-15-6.99028E-13
 -1      2913 2.00005E+01-2.18854E-03 9.07792E-06-1.20211E-03-6.99802E-15-2.80335E-13
 -1      2914 2.00004E+01-2.04662E-03-2.53929E-06-1.38078E-03 2.18847E-13-3.13972E-13
 -1      2915 2.87000E+01 1.36718E+00-1.49365E-01-2.29120E+00-5.19459E-13-7.37049E-14
 -1      2916 2.88806E+01-5.89398E-01-1.89453E-02-1.54522E+00-3.93609E-13 1.02002E-14
 -1      2917 2.00008E+01-2.47810E-03 3.26784E-06 4.31434E-04-1.30827E-13-1.57500E-13
 -1      2918 2.00008E+01-2.50987E-03 5.68287E-06 1.60890E-04-6.83927E-14-2.42056E-13
 -1      2919 2.00011E+01-2.49598E-03-7.15633E-06 5.10639E-06 4.53343E-14-2.78967E-13
 -1      2920 2.00008E+01-2.41125E-03 7.73304E-06-7.17772E-04-1.02392E-13-3.83579E-13
 -1      2921 2.00007E+01-2.32116E-03 2.77039E-07-9.57289E-04-6.67365E-14-2.78892E-13
 -1      2922 2.00008E+01-2.24568E-03-6.17564E-06-1.19029E-03-1.20089E-13-2.87975E-13
 -1      2923 2.00010E+01-2.43275E-03-6.91697E-06-6.27314E-04 7.74706E-14-2.25106E-13
 -1      2924 2.00007E+01-2.32165E-03 2.89524E-07 9.56892E-04-7.80141E-15-2.58942E-13
 -1      2925 2.00008E+01-2.41047E-03 7.64278E-06 7.21705E-04-7.00772E-14-7.94185E-14
 -1      2926 2.00010E+01-2.43230E-03-6.97939E-06 6.31977E-04-4.96325E-14-1.25801E-13
 -1      2927 2.00004E+01-2.04740E-03-2.53005E-06 1.38067E-03 8.01734E-14 9.14726E-15
 -1      2928 2.00005E+01-2.18935E-03 8.99865E-06 1.20188E-03 8.72498E-14-2.42370E-13
 -1      2929 2.00008E+01-2.24647E-03-6.19915E-06 1.18983E-03-1.88646E-14-1.20001E-13
 -1      2930 2.00000E+01-1.67554E-03-2.06256E-06 1.63508E-03-2.68585E-14-1.00491E-13
 -1      2931 2.00002E+01-1.86175E-03 8.46421E-06 1.54585E-03 1.06345E-13 7.15040E-14
 -1      2932 2.00004E+01-1.94941E-03-4.15661E-06 1.61841E-03 1.14480E-13-2.62623E-14
 -1      2933 2.40778E+01-7.71523E-01-7.84403E-03 1.74609E+00 1.42910E-13 2.15325E-13
 -1      2934 2.41519E+01-9.19270E-01 3.98583E-03 1.50300E+00 1.48869E-13 2.05849E-13
 -1      2935 2.42011E+01-1.11314E+00 1.16231E-03 1.23928E+00 1.34906E-13 1.33696E-13
 -1      2936 2.46273E+01-7.54386E-01 6.46774E-03 1.91853E+00 1.53156E-13 2.13055E-13
 -1      2937 2.91316E+01 1.42784E+00-1.22834E-01 1.79557E+00 4.67612E-13 2.14773E-13
 -1      2938 2.91423E+01 3.26828E+00-1.85715E-01 2.06938E+00 6.57169E-13 2.48593E-13
 -1      2939 2.26307E+01 7.52356E-01 9.51568E-04-3.27624E-01-1.89026E-13-2.78806E-13
 -1      2940 2.29218E+01 1.37912E-01-2.34162E-02-2.35503E-01-1.54586E-13-2.32628E-13
 -1      2941 2.88591E+01 8.20664E-03-1.76068E-01-1.23715E+00 3.95059E-13-5.48742E-13
 -1      2942 2.84821E+01-1.64659E+00-3.65622E-02-4.77590E-01 2.12223E-13-5.17919E-13
 -1      2943 1.99995E+01-1.13471E-03-1.32543E-06 1.63731E-03-7.29514E-15-3.92105E-13
 -1      2944 1.77118E+01-3.45427E+00-4.34174E-03 5.67230E+00 2.17701E-13-5.67393E-13
 -1      2945 1.46772E+01-2.38132E+00 1.34965E-01 5.63393E+00 2.66134E-13-6.68757E-13
 -1      2946 2.83280E+01 6.16508E+00-2.16655E-01-2.44857E-01 7.79155E-13-2.05229E-13
 -1      2947 2.83339E+01 5.63207E+00-1.66653E-01-1.22181E+00 7.72576E-13-2.82531E-13
 -1      2948 2.31902E+01 2.38522E+00-1.96131E-02 7.05465E-01 2.88630E-13 1.18048E-14
 -1      2949 2.33403E+01 1.98762E+00-4.72118E-02 1.32897E+00 3.17864E-13 2.59666E-14
 -1      2950 2.39151E+01 3.06274E+00-2.82605E-02 2.58779E-01 3.25458E-13-8.15962E-14
 -1      2951 2.34336E+01-3.62500E-01 3.12908E-02-2.37609E-01-9.51882E-14-1.86933E-13
 -1      2952 2.36062E+01-8.76135E-01-2.12208E-02-2.76639E-01-6.84624E-14-1.50455E-13
 -1      2953 2.35246E+01-1.27282E+00-3.78346E-02-1.07744E-02-2.16951E-14-1.73642E-13
 -1      2954 2.25942E+01-2.23321E-01-2.71681E-02 1.07525E-01-9.40537E-14-2.44072E-13
 -1      2955 2.24134E+01-4.92634E+00-3.32461E-02 4.54931E+00-2.47066E-13-2.21661E-13
 -1      2956 1.92504E+01-4.51462E+00 1.19105E-01 5.64139E+00-3.39395E-13 1.16712E-14
 -1      2957 6.80230E+00-4.94922E-01 1.21640E-01 1.36458E+00-1.35676E-13 4.77451E-13
 -1      2958 6.75301E+00-4.30474E-01 1.27545E-01-9.50776E-01 5.23886E-14 5.66186E-13
 -1      2959 1.82789E+01 1.77106E+00 2.64766E-02-1.37651E+00 1.16281E-13-4.07242E-13
 -1      2960 1.70320E+01 2.08830E+00-2.54587E-02-1.61324E+00 7.16369E-14-4.84933E-13
 -1      2961 1.64885E+01 1.79061E+00-8.71673E-04-2.08950E+00 2.53339E-14-5.06857E-13
 -1      2962 1.91136E+01 8.50127E-01-1.99130E-02-1.48441E+00 7.52827E-14-3.38307E-13
 -1      2963 1.57965E+01 2.62138E+00-2.86145E-02 1.50381E+00 8.47089E-14-6.36356E-13
 -1      2964 1.71100E+01 2.28314E+00 3.72489E-02 1.44811E+00 4.71530E-14-6.05060E-13
 -1      2965 6.68784E+00 1.10220E+00 1.61217E-01-1.65941E+00-4.61506E-14-1.02979E-12
 -1      2966 8.58043E+00 4.50882E-01 1.03552E-01-3.73119E+00-1.36072E-13-9.26342E-13
 -1      2967 1.27849E+01-2.89196E+00 1.52210E-01-5.80802E+00 4.41758E-13 3.87690E-13
 -1      2968 1.56000E+01-3.99761E+00 9.81642E-03-6.29610E+00 3.49804E-13 8.48766E-14
 -1      2969 2.79242E+01-2.50766E+00-1.58271E-01-1.03929E-01-2.45168E-13-3.09058E-14
 -1      2970 2.66037E+01-3.51345E+00 6.57039E-02 1.38671E+00-4.80518E-14-1.32644E-13
 -1      2971 2.76941E+01 5.69634E+00-1.47144E-01-3.12362E-01-6.76265E-13-4.68459E-13
 -1      2972 2.81030E+01 5.44812E+00-2.41718E-01-1.17210E+00-7.29472E-13-3.92811E-13
 -1      2973 2.86423E+01 4.17149E+00-1.99028E-01-1.76884E+00 7.21340E-13-4.28935E-13
 -1      2974 2.88423E+01 2.21135E+00-9.88189E-02-1.96117E+00 5.54279E-13-5.16531E-13
 -1      2975 1.65606E+01-3.27636E+00 9.22884E-02-5.94944E+00-2.81622E-13-5.90063E-13
 -1      2976 1.94986E+01-3.89996E+00 8.11086E-03-5.53487E+00-2.24071E-13-4.81400E-13
 -1      2977 1.13640E+01-8.15297E-01 1.18771E-01-5.14839E+00-2.27041E-13-7.95447E-13
 -1      2978 1.38575E+01-2.21262E+00 9.42961E-02-5.97878E+00-2.49384E-13-7.15566E-13
 -1      2979 1.62485E+01-2.25234E+00 1.05811E-01-5.37266E+00-3.09044E-13-5.92949E-13
 -1      2980 2.79246E+01 4.17830E+00-1.22431E-01-1.87842E+00-7.03576E-13-2.26298E-13
 -1      2981 7.86927E+00-9.09982E-01 1.53259E-01-3.04906E+00 2.21975E-13 6.65690E-13
 -1      2982 9.91482E+00-1.91601E+00 7.74549E-02-4.94651E+00 3.45585E-13 5.96356E-13
 -1      2983 2.30652E+01 6.19176E-01-6.85050E-03 8.21216E-01 3.09943E-13 3.28973E-14
 -1      2984 2.12072E+01 1.72957E+00-1.15706E-02-1.73777E-01-1.62997E-13-3.99548E-13
 -1      2985 1.91079E+01-4.67171E+00 1.10216E-01-5.72229E+00 3.01176E-13-2.38375E-13
 -1      2986 2.20672E+01-5.17599E+00-1.72919E-02-5.02127E+00 2.11636E-13-3.85567E-13
 -1      2987 2.43031E+01-4.95228E+00 4.90321E-02-3.73587E+00 1.57874E-13-5.07344E-13
 -1      2988 2.62878E+01-4.41302E+00-9.20154E-02-2.35246E+00 7.46903E-14-6.32425E-13
 -1      2989 2.34583E+01-4.78791E+00 5.25206E-02-3.73793E+00 2.59834E-13-5.45550E-13
 -1      2990 1.56188E+01-3.74269E+00-1.50373E-02 6.18815E+00-3.05811E-13 2.28345E-13
 -1      2991 1.27028E+01-2.59704E+00 1.63805E-01 5.69460E+00-3.53592E-13 4.05703E-13
 -1      2992 9.91039E+00-1.77269E+00 7.22318E-02 4.90761E+00-3.40256E-13 4.80727E-13
 -1      2993 8.07750E+00-8.82588E-01 1.65839E-01 3.19032E+00-2.90087E-13 5.21666E-13
 -1      2994 2.39644E+01-4.29058E+00-1.09413E-01 3.41106E+00 5.97716E-14-2.67654E-13
 -1      2995 2.09776E+01-3.99278E+00 1.08453E-01 4.71684E+00 1.70933E-13-4.08548E-13
 -1      2996 2.01590E+01-3.22208E+00 9.93387E-02 4.43713E+00 2.61111E-13-4.46339E-13
 -1      2997 7.02317E+00 5.52043E-01 1.32544E-01 2.74809E+00 1.19245E-13-9.90652E-13
 -1      2998 6.17009E+00 1.08961E+00 9.88083E-02 5.60642E-01 8.25616E-14-1.03520E-12
 -1      2999 9.61091E+00 8.26088E-01 1.80050E-01 3.15130E+00 1.92943E-13-8.93466E-13
 -1      3000 1.83885E+01 1.73187E+00-1.64424E-02 1.19634E+00 1.46775E-14-5.51332E-13
 -1      3001 1.96206E+01 1.38980E+00-1.76895E-04 9.05217E-01-3.78985E-14-5.06782E-13
 -1      3002 1.79218E+01 1.32827E+00-3.83125E-03 1.72231E+00 5.88457E-14-5.37750E-13
 -1      3003 1.25886E+01 3.55132E+00 5.45041E-02-5.48184E-01 5.83960E-14-7.43015E-13
 -1      3004 1.28225E+01 3.88315E+00-2.93554E-03-9.28786E-02 7.94460E-14-7.35963E-13
 -1      3005 1.30420E+01 3.87590E+00 2.58902E-02 3.65786E-01 8.77232E-14-7.39414E-13
 -1      3006 2.83856E+01-1.32390E+00-7.48664E-02 1.25969E+00-1.70055E-13-7.25031E-13
 -1      3007 2.66452E+01-3.90302E+00-6.15049E-03-1.20578E+00 9.89209E-14-6.14536E-13
 -1      3008 2.84790E+01 3.97325E+00-1.42484E-01 2.13602E+00 6.55448E-13 2.28317E-13
 -1      3009 2.72882E+01 4.49257E+00-2.19663E-01 1.86331E+00 6.10678E-13 1.63598E-13
 -1      3010 2.73960E+01 2.77336E+00-5.59993E-02 2.32764E+00 5.08912E-13 3.26940E-13
 -1      3011 2.51290E+01-3.61449E+00 3.12171E-02 1.86600E+00 7.59393E-14-1.65673E-13
 -1      3012 1.06464E+01 2.68074E-01 1.57058E-01-4.26711E+00-1.71786E-13-8.30377E-13
 -1      3013 1.26184E+01 3.06016E-02 5.83795E-02-4.39687E+00-2.25792E-13-7.23227E-13
 -1      3014 1.00049E+01 1.33982E+00 7.15201E-02-3.09931E+00-1.00461E-13-8.39301E-13
 -1      3015 2.61961E+01 3.36163E+00-8.91761E-02-2.04989E+00-5.45522E-13-1.31284E-13
 -1      3016 2.78307E+01 2.32931E+00-1.39586E-01-2.52876E+00-5.44120E-13-8.49737E-14
 -1      3017 2.71035E+01 1.02561E+00-5.15874E-02-2.42897E+00-3.90105E-13-4.30073E-14
 -1      3018 2.52514E+01 2.24070E+00-1.27742E-02-2.16715E+00-3.91860E-13-5.62397E-14
 -1      3019 2.71850E+01 4.09901E+00-9.87009E-02-1.63756E+00 6.17312E-13-3.72813E-13
 -1      3020 2.54214E+01 1.03909E+00-1.03446E-01-2.52164E+00-3.22502E-13 1.23599E-14
 -1      3021 2.71352E+01-7.67726E-01-7.60691E-02 1.82506E+00-1.46522E-13-7.31856E-13
 -1      3022 2.54695E+01-8.08180E-01-1.32547E-02 1.97651E+00-1.12515E-13-6.23685E-13
 -1      3023 2.54046E+01-1.49659E+00-1.07707E-02 1.66105E+00-4.24383E-14-5.60811E-13
 -1      3024 2.68919E+01-2.29889E+00 2.22830E-03 9.87374E-01 9.54098E-15-7.44113E-13
 -1      3025 2.00004E+01-1.94975E-03-4.38107E-06-1.61716E-03 4.80513E-14 1.09486E-13
 -1      3026 2.00002E+01-1.86169E-03 9.18269E-06-1.54454E-03 1.44352E-13 2.34009E-13
 -1      3027 2.00000E+01-1.67897E-03-3.54245E-06-1.63609E-03-1.25299E-13 3.89481E-13
 -1      3028 2.42662E+01 2.09484E+00-1.62360E-02 1.81024E+00 3.37553E-13 8.20455E-14
 -1      3029 2.49816E+01-4.21837E+00-1.01803E-01 1.82197E+00-2.14397E-13-5.37289E-13
 -1      3030 2.42097E+01-4.74056E+00 1.87608E-02 3.25233E+00-2.09124E-13-4.60541E-13
 -1      3031 2.27300E+01-4.30324E+00 6.18314E-02 3.61438E+00-3.06311E-13-3.92287E-13
 -1      3032 2.77157E+01-1.63056E+00-2.53428E-03-1.21518E+00-2.23958E-13 3.46945E-15
 -1      3033 1.42494E+01-1.23601E+00 1.36799E-01 4.96111E+00 2.91850E-13-6.74322E-13
 -1      3034 1.99999E+01-1.49215E-03 8.56851E-06-1.68643E-03-1.85732E-13 3.51873E-14
 -1      3035 1.99997E+01-1.28496E-03-4.20935E-06-1.67861E-03-2.12201E-13-8.95267E-14
 -1      3036 1.99996E+01-1.24253E-03-8.81363E-06-1.85686E-03-2.28890E-13-1.22816E-13
 -1      3037 2.00000E+01-1.60366E-03-5.40615E-06-1.83737E-03-4.24822E-14 3.14025E-13
 -1      3038 2.78545E+01 8.59946E-01-4.94830E-02-1.90878E+00 3.84186E-13-5.38708E-13
 -1      3039 1.99997E+01-1.35418E-03 7.34455E-09 1.65105E-03 2.38775E-14-3.06804E-13
 -1      3040 1.26585E+01-1.89579E+00 1.65245E-01-4.95758E+00 3.33997E-13 4.39523E-13
 -1      3041 1.27518E+01-1.65112E+00 1.55846E-01 4.85279E+00-3.48707E-13 3.97377E-13
 -1      3042 2.75502E+01 6.01320E+00-7.95539E-02 2.76449E-01 7.55673E-13-9.44566E-14
 -1      3043 1.83116E+01-3.63873E+00 1.23630E-01 5.30173E+00-3.39506E-13 2.13371E-14
 -1      3044 2.73715E+01-2.61097E+00-2.45265E-02-1.50229E-01 2.61319E-14-5.51864E-13
 -1      3045 2.54741E+01-2.22833E+00-4.07060E-02 9.61047E-01-2.87409E-14-6.56653E-13
 -1      3046 8.05013E+00 1.69854E+00 1.86238E-01-4.32554E-01 3.02310E-14-9.86267E-13
 -1      3047 2.64427E+01 5.03951E-01-3.26574E-02-2.52979E+00-3.12840E-13 1.20876E-14
 -1      3048 1.36413E+01 3.47839E+00-3.18222E-02 1.03820E+00 1.01218E-13-7.02523E-13
 -1      3049 1.46349E+01 3.23983E+00 3.96537E-02 1.30101E+00 9.45658E-14-6.82339E-13
 -1      3050 1.51145E+01 2.41039E+00 1.41804E-02 1.81657E+00 1.03432E-13-6.48681E-13
 -1      3051 1.29473E+01 3.33862E+00 2.19532E-02 9.44328E-01 1.01444E-13-7.36982E-13
 -1      3052 2.89028E+01 1.93396E-01-1.03158E-01 1.53871E+00 3.60843E-13 1.83006E-13
 -1      3053 2.78938E+01 8.40509E-01-8.93815E-02 2.21304E+00 3.75852E-13 3.19800E-13
 -1      3054 2.81026E+01-9.02048E-01-7.25065E-02 1.12011E+00 2.33355E-13 2.01200E-13
 -1      3055 2.16249E+01-3.95378E+00 7.24680E-02-4.65233E+00-2.17590E-13-3.63107E-13
 -1      3056 2.32627E+01-3.93891E+00-4.94099E-02-3.48698E+00-2.02477E-13-1.92714E-13
 -1      3057 2.07257E+01-3.45722E+00 8.08405E-02-4.57464E+00-2.84495E-13-3.68521E-13
 -1      3058 9.10612E+00-1.82931E-01 1.80195E-01 2.12471E+00-1.84873E-13 4.29809E-13
 -1      3059 2.10500E+01 1.18246E+00 1.74783E-03 2.20028E-01-1.06668E-13-4.05657E-13
 -1      3060 2.70555E+01-3.16835E+00 3.65352E-03-1.69183E+00 2.69645E-14-1.02529E-13
 -1      3061 2.74950E+01-2.58225E+00-8.97331E-02-2.64140E-01 4.47129E-14 6.93889E-14
 -1      3062 2.58056E+01-3.57648E+00 3.56201E-02-2.12932E+00-6.87506E-14-5.84047E-14
 -1      3063 8.94060E+00-2.03973E-01 1.87203E-01-1.90616E+00 1.19280E-13 5.36016E-13
 -1      3064 1.83915E+01-3.95677E+00 1.06908E-01-5.45105E+00 3.32429E-13-1.36894E-13
 -1      3065 2.27730E+01 4.23872E-01-4.62588E-03 6.31209E-01 2.75904E-13-3.97659E-14
 -1      3066 2.27115E+01-1.08714E-01-1.60935E-02 3.22063E-01 2.24953E-13-5.09589E-14
 -1      3067 1.99997E+01-1.29779E-03 1.77163E-06 1.89616E-03-4.52268E-14-5.30266E-13
 -1      3068 1.99999E+01-1.52084E-03 1.80508E-06 1.75004E-03 2.42682E-14-2.40164E-13
 -1      3069 2.00000E+01-1.61574E-03-3.39672E-06 1.89206E-03 1.42060E-13-1.52757E-13
 -1      3070 1.99996E+01-1.30690E-03-4.44326E-06 2.05643E-03-1.22177E-15-5.52052E-13
 -1      3071 2.22304E+01-3.76739E-01 5.86656E-03-3.35922E-01 1.38362E-13-9.83840E-14
 -1      3072 2.13974E+01-1.93792E-01 1.95294E-02-8.26930E-01 8.30139E-14-1.65927E-13
 -1      3073 8.79668E+00 2.20890E+00 8.22811E-02 7.32758E-01 8.62782E-14-9.12742E-13
 -1      3074 9.07759E+00 2.19470E+00 9.52114E-02-1.37172E+00 1.46931E-15-9.15490E-13
 -1      3075 2.52185E+01 3.46696E+00-8.99005E-02-1.51390E+00 5.03583E-13-3.13135E-13
 -1      3076 2.56184E+01 2.23492E+00-6.24855E-02-2.19158E+00 4.42112E-13-4.51389E-13
 -1      3077 2.64710E+01-3.35943E+00-8.10935E-02-2.21788E-01 8.55999E-14-6.54490E-13
 -1      3078 2.59324E+01-2.74848E+00-1.00904E-02 4.51693E-01 7.03873E-14-7.00356E-13
 -1      3079 2.54400E+01-2.96853E+00 4.70189E-02-2.28783E-02 8.61637E-15-6.33053E-13
 -1      3080 2.55224E+01-4.02729E+00 4.60699E-02-1.52051E+00 1.89450E-13-6.33722E-13
 -1      3081 2.67480E+01 2.97410E+00-1.59594E-01 2.07851E+00-4.45255E-13-6.16840E-13
 -1      3082 2.28364E+01-2.45106E+00 4.42617E-03-1.46467E+00 1.76005E-14-2.47830E-13
 -1      3083 2.22455E+01-2.00270E+00 3.72292E-02-1.74739E+00 1.09995E-13-1.93133E-13
 -1      3084 2.16103E+01-1.52712E+00 3.72640E-03-1.81138E+00 8.82341E-14-1.62959E-13
 -1      3085 2.11840E+01-1.08466E+00 2.03127E-02-1.89795E+00 1.24281E-13-1.89677E-13
 -1      3086 2.12118E+01-1.95990E+00-4.53685E-02-2.28799E+00 9.84117E-14-2.56540E-13
 -1      3087 2.08526E+01-7.16693E-01 6.79667E-03-1.82661E+00 1.06626E-13-2.10127E-13
 -1      3088 2.05734E+01-4.01481E-01 9.50095E-03-1.81561E+00 7.20664E-14-2.10613E-13
 -1      3089 2.03642E+01-9.39334E-01-2.50448E-02-2.15871E+00 6.16143E-14-1.79142E-13
 -1      3090 2.04188E+01-1.51110E-01 6.31359E-03-1.70337E+00 6.49361E-14-2.38501E-13
 -1      3091 2.02487E+01 4.64723E-02 3.59868E-03-1.64219E+00-2.19058E-15-1.86020E-13
 -1      3092 1.99436E+01-2.45017E-01-1.34708E-02-1.92208E+00 6.85377E-14-2.10759E-13
 -1      3093 2.01954E+01 1.95582E-01 5.17284E-03-1.52104E+00-1.10994E-14-1.51060E-13
 -1      3094 2.00942E+01 3.02867E-01 4.06637E-04-1.43660E+00 4.73659E-14-1.46733E-13
 -1      3095 1.97698E+01 1.86620E-01-6.20859E-03-1.66158E+00 1.43285E-14-1.80319E-13
 -1      3096 2.00923E+01 3.78283E-01 3.99044E-03-1.32008E+00 2.34747E-14-1.45600E-13
 -1      3097 2.00312E+01 4.24274E-01-1.19776E-03-1.22755E+00 6.01244E-15-1.65955E-13
 -1      3098 1.97296E+01 4.20094E-01-2.23537E-03-1.41277E+00 7.79536E-15-2.31370E-13
 -1      3099 2.00520E+01 4.51323E-01 3.14084E-03-1.12035E+00 2.26536E-14-2.38240E-13
 -1      3100 2.00126E+01 4.59068E-01-1.88909E-03-1.02854E+00-3.99418E-14-2.76020E-13
 -1      3101 1.97525E+01 5.20220E-01-2.69891E-04-1.18568E+00-1.71739E-14-3.39810E-13
 -1      3102 2.00406E+01 4.56941E-01 2.58717E-03-9.32396E-01-7.97716E-14-2.06925E-13
 -1      3103 2.00127E+01 4.42844E-01-2.07866E-03-8.46472E-01-1.85238E-14-2.98809E-13
 -1      3104 1.97993E+01 5.37138E-01 5.83862E-04-9.82277E-01 1.12209E-15-3.53144E-13
 -1      3105 2.00401E+01 4.24829E-01 2.21154E-03-7.61990E-01 3.98814E-14-3.66706E-13
 -1      3106 2.00185E+01 3.99808E-01-2.00059E-03-6.84808E-01 1.41254E-14-3.45611E-13
 -1      3107 1.98499E+01 5.06210E-01 8.47945E-04-8.02707E-01-4.02011E-14-2.58166E-13
 -1      3108 2.00421E+01 3.74510E-01 1.92650E-03-6.11977E-01 6.65565E-14-3.27254E-13
 -1      3109 2.00241E+01 3.45411E-01-1.79344E-03-5.44815E-01 1.28794E-13-2.86021E-13
 -1      3110 1.98950E+01 4.51031E-01 8.27089E-04-6.46551E-01 8.47654E-14-1.99865E-13
 -1      3111 2.00430E+01 3.18083E-01 1.68180E-03-4.83187E-01 7.54502E-15-1.94598E-13
 -1      3112 2.00276E+01 2.88948E-01-1.53691E-03-4.26258E-01-1.26471E-13-1.70570E-13
 -1      3113 1.99315E+01 3.86533E-01 6.90330E-04-5.12960E-01 1.02934E-13-3.42891E-13
 -1      3114 2.00419E+01 2.62586E-01 1.45526E-03-3.75049E-01-2.18838E-13-1.06632E-13
 -1      3115 2.00286E+01 2.35615E-01-1.27530E-03-3.27878E-01-2.47993E-13-1.41801E-13
 -1      3116 1.99590E+01 3.21641E-01 5.24947E-04-4.00620E-01-9.78787E-14-2.43801E-13
 -1      3117 2.00390E+01 2.11771E-01 1.24095E-03-2.86075E-01-2.02355E-13-1.65906E-13
 -1      3118 2.00277E+01 1.88006E-01-1.03181E-03-2.47777E-01-5.85408E-14-1.77951E-13
 -1      3119 1.99788E+01 2.61297E-01 3.71424E-04-3.07778E-01-2.16515E-13-8.91447E-14
 -1      3120 2.00350E+01 1.67336E-01 1.04025E-03-2.14239E-01 9.20804E-14-2.29052E-13
 -1      3121 2.00255E+01 1.47112E-01-8.17113E-04-1.83725E-01 1.48364E-13-1.35286E-13
 -1      3122 1.99922E+01 2.07904E-01 2.45048E-04-2.32366E-01-1.97031E-14-1.66511E-13
 -1      3123 2.00303E+01 1.29742E-01 8.56573E-04-1.57275E-01 1.26175E-13-1.07858E-13
 -1      3124 2.00225E+01 1.12989E-01-6.34673E-04-1.33398E-01 5.37522E-14-9.42192E-14
 -1      3125 2.00008E+01 1.62292E-01 1.48487E-04-1.72151E-01 1.76429E-13-1.68435E-13
 -1      3126 2.00256E+01 9.87482E-02 6.92858E-04-1.12893E-01-4.31103E-14-4.85377E-14
 -1      3127 2.00192E+01 8.51773E-02-4.83879E-04-9.45401E-02-7.83511E-14-7.89577E-15
 -1      3128 2.00060E+01 1.24375E-01 7.87712E-05-1.24884E-01 7.18679E-14-2.09278E-13
 -1      3129 2.00210E+01 7.37457E-02 5.50630E-04-7.89201E-02-1.00925E-13 2.18246E-14
 -1      3130 2.00160E+01 6.29674E-02-3.62024E-04-6.50691E-02-1.13482E-14 8.85672E-14
 -1      3131 2.00087E+01 9.35565E-02 3.09753E-05-8.84141E-02-6.88803E-14 1.98734E-14
 -1      3132 2.00169E+01 5.39642E-02 4.29973E-04-5.33891E-02-1.08126E-13-1.13185E-15
 -1      3133 2.00130E+01 4.55603E-02-2.65475E-04-4.31361E-02-1.76063E-13 2.66574E-14
 -1      3134 2.00097E+01 6.90022E-02 7.35556E-09-6.07718E-02-1.19470E-13 9.94057E-14
 -1      3135 2.00134E+01 3.85975E-02 3.29821E-04-3.45763E-02-1.88540E-13-2.01379E-14
 -1      3136 2.00103E+01 3.21622E-02-1.90356E-04-2.71468E-02-4.48504E-14 9.08518E-14
 -1      3137 2.00097E+01 4.97976E-02-1.86234E-05-4.02130E-02-1.56617E-13 5.50661E-14
 -1      3138 2.00103E+01 2.68744E-02 2.48345E-04-2.10145E-02-5.01259E-14 4.12237E-14
 -1      3139 2.00081E+01 2.20370E-02-1.32940E-04-1.57614E-02-2.07370E-13-5.51382E-14
 -1      3140 2.00090E+01 3.50458E-02-2.85653E-05-2.52368E-02-1.44740E-13-4.33107E-14
 -1      3141 2.00078E+01 1.80967E-02 1.83302E-04-1.14839E-02-2.26080E-13 3.99129E-14
 -1      3142 2.00061E+01 1.45316E-02-8.98452E-05-7.87778E-03-6.31026E-14-6.50608E-14
 -1      3143 2.00080E+01 2.39208E-02-3.26323E-05-1.45825E-02-1.54411E-13-1.20133E-13
 -1      3144 2.00058E+01 1.16553E-02 1.32316E-04-4.99137E-03 4.00141E-14-8.38897E-14
 -1      3145 2.00046E+01 9.08510E-03-5.81225E-05-2.60778E-03 9.75516E-14-1.39647E-13
 -1      3146 2.00069E+01 1.56929E-02-3.29134E-05-7.21381E-03-6.12515E-14 1.08087E-13
 -1      3147 2.00042E+01 7.03425E-03 9.30623E-05-7.43716E-04 1.49406E-13-2.47955E-13
 -1      3148 2.00033E+01 5.22820E-03-3.52746E-05 7.51525E-04 1.29746E-13-2.59270E-13
 -1      3149 2.00057E+01 9.73753E-03-3.09096E-05-2.29581E-03-2.58366E-14-3.21196E-13
 -1      3150 2.00029E+01 3.80611E-03 6.33949E-05 1.88103E-03 3.91908E-14-4.05623E-13
 -1      3151 2.00024E+01 2.57626E-03-1.92366E-05 2.74623E-03-8.52952E-14-5.44879E-13
 -1      3152 2.00047E+01 5.53314E-03-2.76668E-05 8.31984E-04-1.53353E-15-3.86339E-13
 -1      3153 2.00020E+01 1.62403E-03 4.14108E-05 3.36173E-03-8.49363E-14-5.13568E-13
 -1      3154 2.00016E+01 8.19921E-04-8.33587E-06 3.79287E-03-5.90068E-14-4.14841E-13
 -1      3155 2.00037E+01 2.65315E-03-2.38892E-05 2.68242E-03-9.55078E-14-4.53891E-13
 -1      3156 2.00013E+01 2.11322E-04 2.54773E-05 4.06016E-03-5.35942E-14-2.83109E-13
 -1      3157 2.00010E+01-2.85558E-04-1.24288E-06 4.20293E-03-8.56678E-14-3.73272E-13
 -1      3158 2.00029E+01 7.55043E-04-2.00321E-05 3.64641E-03-3.56081E-14-2.03535E-13
 -1      3159 2.00007E+01-6.49334E-04 1.42312E-05 4.24400E-03-9.06778E-14-3.16316E-13
 -1      3160 2.00006E+01-9.31013E-04 3.07877E-06 4.20419E-03-1.94038E-13-2.42770E-13
 -1      3161 2.00022E+01-4.31777E-04-1.63762E-05 4.01603E-03-8.41420E-14-1.36300E-13
 -1      3162 2.00003E+01-1.12631E-03 6.55693E-06 4.10655E-03-1.79829E-13-1.96223E-13
 -1      3163 2.00003E+01-1.26345E-03 5.42193E-06 3.95882E-03-1.11736E-13-1.25324E-13
 -1      3164 2.00016E+01-1.11805E-03-1.30862E-05 4.00462E-03-2.68618E-14 7.05771E-15
 -1      3165 2.00001E+01-1.34871E-03 1.57595E-06 3.78326E-03-1.96570E-13-2.58771E-13
 -1      3166 2.00001E+01-1.39514E-03 6.38953E-06 3.57826E-03-3.19461E-14-2.91577E-13
 -1      3167 2.00011E+01-1.46601E-03-1.02603E-05 3.76385E-03-7.90814E-14 3.57303E-14
 -1      3168 1.99999E+01-1.41480E-03-1.36967E-06 3.36512E-03 5.67025E-14-3.22347E-13
 -1      3169 1.99999E+01-1.41133E-03 6.49982E-06 3.13527E-03 6.23791E-14-3.92717E-13
 -1      3170 2.00007E+01-1.59948E-03-7.93410E-06 3.39772E-03-2.94447E-14-4.44184E-13
 -1      3171 1.99998E+01-1.39994E-03-2.94535E-06 2.90999E-03 5.29377E-14-3.15414E-13
 -1      3172 1.99998E+01-1.37731E-03 5.17451E-06 2.67340E-03 3.71503E-14-3.09953E-13
 -1      3173 2.00004E+01-1.61253E-03-6.27986E-06 2.97434E-03 8.75672E-14-3.76908E-13
 -1      3174 1.99997E+01-1.34674E-03-3.81499E-06 2.48223E-03-4.81765E-14-3.86214E-13
 -1      3175 1.99997E+01-1.32795E-03 3.03094E-06 2.24517E-03-2.29164E-14-4.89845E-13
 -1      3176 1.99999E+01-1.49091E-03 3.94859E-07 2.18919E-03-3.71058E-14-3.75615E-13
 -1      3177 2.00001E+01-1.55961E-03-3.71607E-06 2.56728E-03 5.64320E-14-2.37921E-13
 -1      3178 2.55993E+01-3.25527E+00-6.67813E-02 6.84872E-01 2.49687E-14-7.55680E-14
 -1      3179 2.39509E+01-3.41168E+00 1.06294E-01 2.34241E+00 1.74086E-13-2.12629E-13
 -1      3180 2.71175E+01-5.97473E-01-1.24133E-01-2.23174E+00-2.73302E-13-2.19894E-14
 -1      3181 2.57613E+01 9.16804E-01-7.98929E-02-2.23433E+00 3.10075E-13-4.46351E-13
 -1      3182 2.51437E+01 4.14573E+00-7.44542E-02-6.93128E-01 4.66141E-13-2.08255E-13
 -1      3183 2.40676E+01-2.11646E+00 1.89706E-02-2.88000E-01-5.90684E-14-3.02534E-13
 -1      3184 2.43894E+01-1.97593E+00-5.42657E-03-7.49174E-01-8.60889E-15-3.62146E-13
 -1      3185 2.29960E+01-1.82646E+00 2.54697E-02 5.95089E-01-4.59919E-15-1.73238E-13
 -1      3186 2.33542E+01-2.06084E+00-2.09601E-02 2.25499E-01-2.07337E-14-2.57377E-13
 -1      3187 2.36612E+01-2.52212E+00-3.89097E-02 4.30470E-01-7.59900E-14-2.58776E-13
 -1      3188 2.20735E+01-1.25545E+00 2.22635E-02 1.08758E+00-6.72552E-15-8.08524E-14
 -1      3189 2.24025E+01-1.55912E+00-6.66308E-03 8.61233E-01 3.04505E-14-8.42312E-14
 -1      3190 2.24485E+01-1.91505E+00-2.44379E-03 1.10127E+00-2.03657E-14-1.23124E-13
 -1      3191 2.13809E+01-6.87621E-01 1.36950E-02 1.30728E+00 1.18586E-14-4.06361E-14
 -1      3192 2.16462E+01-9.68707E-01-3.71916E-03 1.20142E+00 9.79425E-15-6.70048E-14
 -1      3193 2.14723E+01-1.28618E+00-2.64629E-02 1.46212E+00-3.97768E-14-1.12757E-13
 -1      3194 2.09156E+01-2.48727E-01 7.72874E-03 1.33777E+00-3.94912E-14 2.23294E-15
 -1      3195 2.11136E+01-4.53812E-01 1.23410E-04 1.31402E+00 1.10831E-14-3.15055E-14
 -1      3196 2.08454E+01-6.36577E-01-1.61238E-02 1.52757E+00 1.65424E-14 2.34888E-14
 -1      3197 2.06183E+01 4.33830E-02 3.79848E-03 1.26289E+00 2.17068E-14-1.48878E-14
 -1      3198 2.07605E+01-8.73096E-02 1.76715E-03 1.28993E+00-2.42316E-15 1.20338E-14
 -1      3199 2.04661E+01-1.69548E-01-9.50500E-03 1.45427E+00-2.16619E-14-6.19846E-14
 -1      3200 2.04317E+01 2.13373E-01 1.34799E-03 1.13409E+00-1.04082E-13 3.42893E-14
 -1      3201 2.05344E+01 1.41072E-01 2.33724E-03 1.18956E+00-3.70008E-14 3.84973E-16
 -1      3202 2.02522E+01 1.27537E-01-5.22112E-03 1.31475E+00-3.98142E-14-1.08384E-13
 -1      3203 2.03138E+01 2.94917E-01-7.68785E-05 9.82725E-01-1.08064E-13 8.37751E-14
 -1      3204 2.03899E+01 2.63475E-01 2.46738E-03 1.05136E+00-9.91644E-14 8.69376E-14
 -1      3205 2.01391E+01 2.92755E-01-2.64047E-03 1.14881E+00-1.35909E-13-3.46928E-14
 -1      3206 2.02366E+01 3.18325E-01-8.10959E-04 8.27966E-01-7.69088E-14 1.88177E-13
 -1      3207 2.02951E+01 3.12998E-01 2.42416E-03 8.99818E-01-9.80581E-14 1.90570E-13
 -1      3208 2.00829E+01 3.65744E-01-1.19415E-03 9.77961E-01-1.47526E-13 6.74840E-14
 -1      3209 2.01834E+01 3.06830E-01-1.12116E-03 6.81199E-01 5.25998E-14 2.22493E-13
 -1      3210 2.02296E+01 3.16699E-01 2.29761E-03 7.50125E-01 1.74590E-14 2.67345E-13
 -1      3211 2.00568E+01 3.79448E-01-4.58722E-04 8.14361E-01-5.27871E-14 1.77097E-13
 -1      3212 2.01444E+01 2.76670E-01-1.18254E-03 5.48687E-01-6.02648E-14 2.80142E-13
 -1      3213 2.01818E+01 2.94277E-01 2.12031E-03 6.11221E-01 4.27072E-14 2.59139E-13
 -1      3214 2.00452E+01 3.58350E-01-1.26937E-04 6.64774E-01-2.26331E-14 3.89833E-13
 -1      3215 2.01144E+01 2.38463E-01-1.11013E-03 4.33302E-01-2.17849E-13 3.60541E-13
 -1      3216 2.01448E+01 2.59018E-01 1.90901E-03 4.87812E-01-1.61567E-13 3.07728E-13
 -1      3217 2.00398E+01 3.19251E-01-6.63413E-06 5.32605E-01-1.03896E-13 3.77495E-13
 -1      3218 2.00905E+01 1.98729E-01-9.74859E-04 3.35697E-01-1.70820E-13 2.14484E-13
 -1      3219 2.01152E+01 2.19348E-01 1.67786E-03 3.81752E-01-1.35152E-13 2.46129E-13
 -1      3220 2.00365E+01 2.73027E-01 1.32340E-05 4.19038E-01-1.44349E-13 3.92567E-13
 -1      3221 2.00710E+01 1.61188E-01-8.18615E-04 2.55127E-01-1.66149E-13 1.15973E-13
 -1      3222 2.00909E+01 1.80272E-01 1.44108E-03 2.93047E-01-1.81428E-13 8.87123E-14
 -1      3223 2.00336E+01 2.26304E-01-6.61732E-06 3.23774E-01-1.16103E-13 2.00139E-13
 -1      3224 2.00551E+01 1.27725E-01-6.64777E-04 1.90047E-01-1.88677E-14 8.14055E-14
 -1      3225 2.00710E+01 1.44507E-01 1.21102E-03 2.20572E-01-1.59363E-13 5.53934E-14
 -1      3226 2.00304E+01 1.82813E-01-3.57174E-05 2.45565E-01-1.62401E-13-3.31627E-14
 -1      3227 2.00422E+01 9.90762E-02-5.25256E-04 1.38522E-01 1.59995E-13 8.97311E-14
 -1      3228 2.00547E+01 1.13301E-01 9.97019E-04 1.62592E-01 1.31022E-13 1.06198E-13
 -1      3229 2.00269E+01 1.44390E-01-6.06731E-05 1.82624E-01 1.58276E-14-9.01224E-14
 -1      3230 2.00318E+01 7.52890E-02-4.05076E-04 9.85056E-02 1.59739E-13 8.62328E-14
 -1      3231 2.00415E+01 8.70069E-02 8.05007E-04 1.17115E-01 1.86551E-13 1.66766E-13
 -1      3232 2.00233E+01 1.11687E-01-7.70732E-05 1.32920E-01 1.38947E-13 4.43103E-14
 -1      3233 2.00235E+01 5.60294E-02-3.05283E-04 6.80153E-02 2.10840E-13 4.28196E-14
 -1      3234 2.00310E+01 6.54531E-02 6.37907E-04 8.21242E-02 1.98939E-13 7.92311E-14
 -1      3235 2.00197E+01 8.46490E-02-8.47982E-05 9.43891E-02 1.74372E-13 2.12399E-13
 -1      3236 2.00170E+01 4.07753E-02-2.24764E-04 4.52383E-02-8.52534E-14 1.41243E-13
 -1      3237 2.00226E+01 4.81937E-02 4.96260E-04 5.57193E-02 4.93002E-14 9.14917E-14
 -1      3238 2.00163E+01 6.28293E-02-8.54627E-05 6.50741E-02 4.62225E-14 2.12731E-13
 -1      3239 2.00120E+01 2.89379E-02-1.61359E-04 2.85813E-02-4.15127E-14 5.16550E-14
 -1      3240 2.00161E+01 3.46611E-02 3.78946E-04 3.61975E-02-4.11284E-15 1.58805E-13
 -1      3241 2.00132E+01 4.55955E-02-8.11184E-05 4.32020E-02-3.96464E-14 2.34887E-13
 -1      3242 2.00082E+01 1.99331E-02-1.12521E-04 1.66874E-02-1.69070E-13-7.12327E-14
 -1      3243 2.00112E+01 2.42612E-02 2.83803E-04 2.20850E-02-1.42732E-13 1.13452E-13
 -1      3244 2.00105E+01 3.22554E-02-7.36616E-05 2.72248E-02-6.04930E-14 1.96967E-13
 -1      3245 2.00054E+01 1.32216E-02-7.57017E-05 8.43014E-03-1.23208E-13-1.99748E-13
 -1      3246 2.00075E+01 1.64275E-02 2.08137E-04 1.21427E-02-1.75759E-13-1.95844E-13
 -1      3247 2.00082E+01 2.21322E-02-6.46144E-05 1.58292E-02-1.09028E-13 9.47833E-14
 -1      3248 2.00033E+01 8.32792E-03-4.85466E-05 2.89545E-03-4.70722E-14-1.95907E-13
 -1      3249 2.00047E+01 1.06494E-02 1.49082E-04 5.35381E-03-1.10332E-13-1.60869E-13
 -1      3250 2.00063E+01 1.46060E-02-5.50896E-05 7.92782E-03-1.13735E-13-1.26948E-13
 -1      3251 2.00019E+01 4.84697E-03-2.89937E-05-6.43727E-04-6.90031E-14-1.97780E-13
 -1      3252 2.00028E+01 6.48507E-03 1.03844E-04 9.01259E-04-3.54656E-15-1.17827E-13
 -1      3253 2.00047E+01 9.13326E-03-4.58361E-05 2.63955E-03-5.70119E-14-2.95615E-13
 -1      3254 2.00009E+01 2.44266E-03-1.53009E-05-2.75445E-03-1.46630E-13 3.82692E-14
 -1      3255 2.00014E+01 3.56295E-03 6.98490E-05-1.85839E-03-1.85783E-13-8.14800E-14
 -1      3256 2.00034E+01 5.25258E-03-3.73114E-05-7.35244E-04-1.98488E-13-1.69689E-13
 -1      3257 2.00002E+01 8.42233E-04-6.03933E-06-3.87059E-03-1.23638E-13 2.51169E-13
 -1      3258 2.00005E+01 1.57831E-03 4.48240E-05-3.42224E-03-1.32806E-13 1.53471E-13
 -1      3259 2.00024E+01 2.58228E-03-2.97557E-05-2.74171E-03-2.49791E-13 6.76746E-14
 -1      3260 1.99997E+01-1.71459E-04-6.58193E-08-4.31748E-03-3.43914E-13 4.40106E-13
 -1      3261 1.99999E+01 2.86200E-04 2.68246E-05-4.16690E-03-2.35456E-13 2.77169E-13
 -1      3262 2.00017E+01 8.13319E-04-2.32582E-05-3.79651E-03-2.26920E-13 3.40069E-13
 -1      3263 1.99995E+01-7.68535E-04 3.51301E-06-4.33360E-03-1.19174E-13 1.65009E-13
 -1      3264 1.99995E+01-5.06779E-04 1.42336E-05-4.37168E-03-2.59668E-13 3.31558E-13
 -1      3265 2.00011E+01-2.99883E-04-1.78119E-05-4.21170E-03-2.52151E-13 2.91838E-13
 -1      3266 1.99994E+01-1.08048E-03 5.38599E-06-4.08912E-03 2.82756E-13 2.61953E-13
 -1      3267 1.99993E+01-9.51101E-04 5.74192E-06-4.23875E-03 9.26039E-14 3.09715E-13
 -1      3268 2.00006E+01-9.49464E-04-1.33525E-05-4.21578E-03-1.28756E-14 1.91916E-13
 -1      3269 1.99993E+01-1.20800E-03 6.05149E-06-3.70129E-03 4.02722E-13 1.11323E-13
 -1      3270 1.99992E+01-1.16246E-03 3.09762E-07-3.91005E-03 3.93962E-13 1.48371E-13
 -1      3271 2.00003E+01-1.28376E-03-9.77922E-06-3.97153E-03 3.27330E-13 1.87320E-13
 -1      3272 1.99993E+01-1.22787E-03 5.95530E-06-3.24674E-03 1.70997E-13 1.64365E-13
 -1      3273 1.99992E+01-1.22930E-03-2.89700E-06-3.48115E-03 3.61719E-13 1.80325E-13
 -1      3274 2.00001E+01-1.41631E-03-7.01102E-06-3.59100E-03 2.70749E-13 3.57894E-13
 -1      3275 1.99994E+01-1.19844E-03 5.16085E-06-2.77191E-03 2.38752E-14-1.36370E-14
 -1      3276 1.99993E+01-1.21861E-03-4.38126E-06-3.01219E-03 1.23987E-13 5.78667E-15
 -1      3277 1.99999E+01-1.43312E-03-4.77040E-06-3.14677E-03 1.52559E-13 3.99884E-13
 -1      3278 1.99994E+01-1.16713E-03 1.38070E-06-2.30207E-03 3.35398E-14-2.13696E-13
 -1      3279 1.99993E+01-1.18166E-03-4.80584E-06-2.53695E-03-8.59743E-14-2.61552E-13
 -1      3280 1.99998E+01-1.40093E-03-3.21606E-06-2.68396E-03 1.35385E-13-1.56217E-13
 -1      3281 1.99996E+01-1.21669E-03-1.75825E-06-1.98987E-03-1.12705E-13-1.75198E-13
 -1      3282 1.99994E+01-1.18227E-03-6.49326E-06-2.16314E-03 7.90762E-15-2.33205E-13
 -1      3283 1.99998E+01-1.38293E-03 3.62358E-07-2.30542E-03 6.14882E-15-2.71744E-13
 -1      3284 1.99998E+01-1.39391E-03 7.87303E-06-2.01907E-03-2.05213E-13-1.14450E-13
 -1      3285 1.36658E+01 1.83005E+00 6.62224E-02-2.82085E+00-7.49823E-14-6.65190E-13
 -1      3286 1.21869E+01 2.34184E+00 2.12820E-02-2.37734E+00-5.26853E-14-7.32296E-13
 -1      3287 2.00005E+01-1.86605E-03-1.81966E-06 1.85395E-03 1.10486E-13 1.19498E-13
 -1      3288 2.00007E+01-2.02419E-03 8.72610E-06 1.68078E-03 7.42396E-14 3.45663E-14
 -1      3289 1.60144E+01-1.46104E+00-1.96182E-02 4.68239E+00 2.69937E-13-5.71293E-13
 -1      3290 1.33534E+01-9.93030E-02 1.13375E-01 4.25815E+00 2.68903E-13-6.81372E-13
 -1      3291 2.00014E+01-2.48610E-03 3.02496E-06 1.70322E-04 5.85987E-14-3.60884E-13
 -1      3292 2.00014E+01-2.48653E-03 3.03785E-06-1.59400E-04 1.08645E-13-3.12635E-13
 -1      3293 2.51414E+01 4.26611E+00-1.04733E-01 2.84629E-01 4.91385E-13-9.12707E-14
 -1      3294 2.00010E+01-2.18727E-03-3.07850E-06 1.42588E-03 1.27812E-14-3.36945E-14
 -1      3295 2.00011E+01-2.29566E-03 8.02443E-06 1.16590E-03-8.52261E-14 1.02542E-13
 -1      3296 2.00010E+01-2.12379E-03-4.40366E-06 1.68525E-03-3.25993E-14 6.70721E-14
 -1      3297 2.49317E+01-1.64729E+00-4.13528E-02-1.41038E+00 5.65208E-14-4.23052E-13
 -1      3298 2.50486E+01-8.87452E-01 5.16241E-03-1.81007E+00 1.29261E-13-4.38228E-13
 -1      3299 2.50373E+01-2.25190E+00-6.78454E-03-7.07832E-01-2.19868E-14-4.11469E-13
 -1      3300 2.53428E+01 8.25934E-01-1.36005E-02 2.35227E+00 3.51365E-13 2.37499E-13
 -1      3301 2.54384E+01-2.24688E-01-5.27749E-02 2.29366E+00 2.19220E-13 2.70908E-13
 -1      3302 1.23011E+01-9.51676E-01 1.14701E-01-4.13775E+00 2.87242E-13 4.47559E-13
 -1      3303 1.45148E+01-2.15290E+00-1.67572E-03-5.09064E+00 3.39090E-13 2.39225E-13
 -1      3304 2.43775E+01-3.02506E+00-1.58698E-02-6.57354E-01-3.80932E-14-4.78285E-13
 -1      3305 2.36898E+01-2.77134E+00 4.48547E-02-1.17858E+00-3.74180E-15-3.72138E-13
 -1      3306 2.26467E+01-2.86862E+00-6.03928E-03-1.98133E+00 9.63379E-14-2.75762E-13
 -1      3307 2.44364E+01-3.54888E+00-5.01417E-02-1.23835E+00 8.73242E-14-5.00178E-13
 -1      3308 2.44475E+01-2.36662E+00 3.75350E-02 4.48569E-01 8.04396E-14-1.36956E-13
 -1      3309 2.50770E+01-2.61596E+00-2.42378E-02 5.98367E-02 3.78851E-14-1.04706E-13
 -1      3310 2.68143E+01-1.84752E+00-1.69977E-02-1.20741E+00-1.74298E-13 9.43690E-16
 -1      3311 2.51635E+01 3.31713E+00-7.08607E-02 1.78379E+00 4.10068E-13 1.48388E-13
 -1      3312 2.54063E+01 2.16428E+00-9.44838E-02 2.24164E+00 4.17919E-13 1.80370E-13
 -1      3313 1.44886E+01-1.72669E+00-1.64295E-02 4.76226E+00-3.35294E-13 3.18363E-13
 -1      3314 1.25512E+01-6.34567E-01 1.37623E-01 3.85544E+00-2.95718E-13 4.26222E-13
 -1      3315 2.00013E+01-2.39623E-03-4.07652E-08 8.39985E-04-5.77705E-14-3.49226E-14
 -1      3316 2.00014E+01-2.45158E-03 5.68006E-06 5.33517E-04-1.25902E-14-1.94293E-13
 -1      3317 2.00017E+01-2.48689E-03-6.15375E-06 3.78564E-04 1.10496E-13-2.86071E-13
 -1      3318 2.00015E+01-2.36390E-03-5.76322E-06 1.08624E-03-6.40592E-14 2.23002E-14
 -1      3319 1.04458E+01-1.64272E-01 3.33055E-02 2.83610E+00-2.00694E-13 3.87190E-13
 -1      3320 9.53531E+00 3.70160E-01 1.13651E-01 1.00912E+00-4.35103E-14 3.27405E-13
 -1      3321 1.59199E+01-1.35451E+00 1.06787E-01-4.91831E+00-2.45415E-13-5.73347E-13
 -1      3322 1.82260E+01-2.51363E+00 3.98223E-02-4.90133E+00-2.83051E-13-4.58224E-13
 -1      3323 1.73950E+01-3.10322E+00 1.05117E-01-5.16145E+00 3.78690E-13-1.35864E-13
 -1      3324 2.00774E+01-4.15274E+00-5.13886E-02-4.79927E+00 3.42164E-13-4.13912E-13
 -1      3325 2.23906E+01-4.26709E+00 1.15135E-01-3.84933E+00 3.17156E-13-5.28402E-13
 -1      3326 2.40100E+01-4.53458E+00-4.61684E-02-2.87094E+00 2.42844E-13-6.17954E-13
 -1      3327 2.44389E+01-3.98336E+00-7.67577E-03-1.86412E+00 2.04059E-13-5.71505E-13
 -1      3328 2.10884E+01-3.80290E+00-3.57376E-03-3.94671E+00 2.87215E-13-4.40497E-13
 -1      3329 2.34000E+01-7.12357E-01 1.38470E-02 4.43643E-01 1.59199E-13-1.26092E-14
 -1      3330 2.27753E+01-4.94645E-01 5.39916E-03 1.02011E-01 1.63556E-13-4.15028E-14
 -1      3331 2.28994E+01-1.08680E+00-1.41326E-02-2.23336E-01 1.08043E-13-3.49512E-14
 -1      3332 2.36565E+01-1.12406E+00-2.05414E-02 5.67396E-01 1.30887E-13 2.02774E-14
 -1      3333 1.99998E+01-3.77490E+00-2.91703E-02 4.62163E+00-3.26066E-13-1.79662E-13
 -1      3334 1.73548E+01-2.63714E+00 1.16007E-01 4.90192E+00-3.42011E-13 4.96964E-14
 -1      3335 2.68946E+01-1.96538E+00-1.18220E-01-1.02356E+00 6.25940E-14-5.29909E-13
 -1      3336 2.64757E+01-3.06212E+00 5.28972E-02 1.34957E-01-9.30749E-14-5.52239E-13
 -1      3337 2.08909E+01 6.61726E-01 2.25252E-02 7.13692E-01-4.93479E-14-3.90408E-13
 -1      3338 9.38039E+00 3.32420E-01 8.38449E-02-7.84103E-01 3.00391E-14 4.25798E-13
 -1      3339 1.03169E+01-2.04558E-01 5.33481E-02-2.83728E+00 1.48645E-13 5.35738E-13
 -1      3340 2.14033E+01-3.33002E+00-7.66108E-02 3.61082E+00 2.21448E-13-3.51261E-13
 -1      3341 1.90982E+01-2.32391E+00 1.29774E-01 4.26362E+00 2.93397E-13-4.57308E-13
 -1      3342 1.13562E+01 1.00061E+00 5.89351E-02 3.49309E+00 2.15009E-13-7.66859E-13
 -1      3343 9.83947E+00 1.87165E+00 1.03064E-01 2.13457E+00 1.71814E-13-8.60229E-13
 -1      3344 2.62518E+01-2.54565E+00 2.00047E-03-6.04532E-01-4.05535E-14-3.56243E-14
 -1      3345 1.13191E+01 3.10163E+00 1.73674E-02-8.70642E-01 3.66183E-14-7.80605E-13
 -1      3346 1.11871E+01 3.22668E+00 5.53348E-02-4.95123E-02 7.92626E-14-8.03475E-13
 -1      3347 2.16597E+01-3.66423E+00 3.31681E-02 3.50122E+00-3.01148E-13-3.47058E-13
 -1      3348 1.25951E+01-2.39104E-01 1.24638E-01-3.12617E+00 2.28630E-13 3.96266E-13
 -1      3349 1.68354E+01-1.75757E+00 6.94299E-02 4.20331E+00-2.91222E-13 1.57357E-13
 -1      3350 2.70604E+01 8.40762E-01-1.23086E-01 2.33336E+00 4.01776E-13 3.56798E-13
 -1      3351 2.64460E+01 1.69246E+00-6.46841E-02 2.43991E+00 4.21302E-13 2.96978E-13
 -1      3352 1.41086E+01 2.11712E+00-1.08661E-02 2.23222E+00 1.55248E-13-6.55517E-13
 -1      3353 1.57327E+01 1.61815E+00 6.64526E-02 2.45724E+00 1.40108E-13-6.07781E-13
 -1      3354 2.69577E+01 1.41183E-02-4.10520E-02 2.21400E+00 2.82760E-13 3.27349E-13
 -1      3355 1.08903E+01 6.02241E-01 1.29085E-01 2.56686E-02 2.29725E-14 3.73312E-13
 -1      3356 2.32405E+01-1.76407E+00-1.00233E-02 7.15690E-01 5.09905E-14-2.45466E-13
 -1      3357 2.32014E+01-2.50322E+00-3.50110E-02 1.46925E+00 1.25999E-13-2.21340E-13
 -1      3358 2.27676E+01-1.15176E+00 5.63558E-02 8.28169E-01 5.16366E-14-2.71171E-13
 -1      3359 2.00007E+01-2.02363E-03 8.90809E-06-1.68026E-03-1.67652E-13-3.53125E-13
 -1      3360 2.00005E+01-1.86803E-03-3.16298E-06-1.85251E-03-1.50493E-13 4.90971E-13
 -1      3361 1.27247E+01-7.06705E-02 8.73443E-02 2.91247E+00-1.64469E-13 3.27530E-13
 -1      3362 2.54111E+01-3.38763E+00 3.76913E-02 8.04943E-01-1.71665E-13-4.56572E-13
 -1      3363 1.79716E+01-1.38160E+00 6.10249E-02 3.90929E+00 2.57516E-13-5.10546E-13
 -1      3364 1.57391E+01 1.23120E+00-2.96936E-02-2.78200E+00-8.22571E-14-5.32699E-13
 -1      3365 1.43283E+01 6.09723E-01 5.63609E-02-3.68867E+00-1.29202E-13-6.30364E-13
 -1      3366 2.00011E+01-2.29481E-03 8.22966E-06-1.16527E-03-7.82535E-14-1.52974E-13
 -1      3367 2.00010E+01-2.18706E-03-3.07164E-06-1.42480E-03-1.36863E-13-3.01225E-13
 -1      3368 2.00010E+01-2.12219E-03-3.60016E-06-1.68278E-03-1.34095E-13-3.31250E-13
 -1      3369 2.59411E+01-8.24788E-01-1.36695E-02 1.91575E+00 1.54508E-13 2.65073E-13
 -1      3370 2.51350E+01-9.75056E-01-1.71502E-02 1.82970E+00 1.19066E-13 2.17854E-13
 -1      3371 2.49953E+01-1.40652E+00-7.21149E-03 1.48625E+00 8.21712E-14 1.88021E-13
 -1      3372 1.34589E+01 9.24281E-01 8.97348E-02 3.34614E+00 2.25323E-13-6.95492E-13
 -1      3373 2.66845E+01 4.84667E+00-1.07337E-01 8.77945E-01 6.09679E-13 3.62002E-14
 -1      3374 2.00014E+01-2.45242E-03 5.79449E-06-5.25317E-04 8.89565E-14-1.31942E-13
 -1      3375 2.00013E+01-2.39651E-03 2.11710E-08-8.37407E-04 6.61489E-14-2.44534E-13
 -1      3376 2.00015E+01-2.36392E-03-5.78753E-06-1.08235E-03 4.93215E-15-7.95076E-15
 -1      3377 2.00017E+01-2.48742E-03-6.05364E-06-3.69551E-04 8.79354E-14-1.61454E-13
 -1      3378 2.44566E+01-1.48109E+00-1.68028E-02 1.08797E+00 8.53241E-14 1.09907E-13
 -1      3379 2.41856E+01-1.38061E+00 1.11658E-02 7.80339E-01 8.44578E-14 5.50450E-14
 -1      3380 2.38988E+01-1.45288E+00-4.72606E-03 4.24483E-01 7.36249E-14 3.15414E-14
 -1      3381 2.49514E+01-1.71843E+00-2.41481E-03 9.93071E-01 2.91355E-14 1.08382E-13
 -1      3382 2.03440E+01-7.35163E-02 1.21396E-02-1.56371E+00 2.83280E-14-2.65200E-13
 -1      3383 1.90325E+01 2.77040E-01-9.30990E-03-2.02799E+00-2.05118E-14-3.41789E-13
 -1      3384 2.13958E+01-8.53566E-01 8.11163E-03-1.38236E+00 1.46628E-14-1.67141E-13
 -1      3385 1.68819E+01-2.18348E+00 9.98175E-02-4.52321E+00 3.57867E-13-1.59733E-14
 -1      3386 2.65106E+01 1.24150E-01-6.80157E-02-2.00395E+00 2.63539E-13-5.52315E-13
 -1      3387 2.66798E+01-1.64097E+00-8.23350E-02-1.42099E+00 1.02593E-13-5.57582E-13
 -1      3388 1.99133E+01-2.75970E+00 8.17231E-02-4.32269E+00-2.79679E-13-3.71203E-13
 -1      3389 2.13655E+01-3.07733E+00-3.18353E-02-3.59792E+00-2.46414E-13-2.73285E-13
 -1      3390 1.95122E+01-2.01895E+00 9.24886E-02-3.91776E+00-2.25431E-13-3.77101E-13
 -1      3391 2.13133E+01-6.51144E-02-5.12326E-03 8.43104E-01-3.95777E-15-3.53642E-13
 -1      3392 2.47419E+01-3.72641E+00 2.58218E-02-2.44117E+00-1.45786E-13-6.44346E-14
 -1      3393 2.55624E+01-3.31174E+00-3.60652E-02-1.21661E+00-1.11772E-13 6.77583E-14
 -1      3394 2.35636E+01-3.46951E+00 3.66898E-02-2.70791E+00-1.98931E-13-9.92626E-14
 -1      3395 1.74292E+01 7.54080E-01 5.80981E-02-2.66238E+00-5.10217E-14-4.57887E-13
 -1      3396 1.54865E+01-3.92312E-01 1.21182E-01-4.32055E+00-1.99337E-13-5.96023E-13
 -1      3397 2.00002E+01-1.60717E-03 2.80875E-06 2.09588E-03-3.15788E-15-3.04097E-13
 -1      3398 2.00003E+01-1.75268E-03 3.64554E-06 1.98226E-03 6.87640E-14-9.29706E-14
 -1      3399 2.00006E+01-1.86096E-03-2.94812E-06 2.06377E-03-4.61450E-14-5.08321E-15
 -1      3400 2.00002E+01-1.63975E-03-2.30364E-06 2.28336E-03-6.24932E-14-2.67210E-13
 -1      3401 1.71903E+01-8.00845E-01 4.07473E-03-3.91398E+00-1.96405E-13-4.57863E-13
 -1      3402 1.07395E+01 2.48914E+00 1.04188E-01 1.17086E+00 1.18964E-13-8.30398E-13
 -1      3403 2.27283E+01-2.91221E+00 3.20266E-02 2.41695E+00 1.96548E-13-2.88327E-13
 -1      3404 2.30061E+01-3.69599E+00-4.01927E-02 2.47740E+00-2.47566E-13-4.10033E-13
 -1      3405 2.08302E+01-2.92986E+00 2.57340E-02 3.32716E+00-2.02153E-13-2.97698E-13
 -1      3406 1.05937E+01 2.11756E+00 1.16983E-01-1.96283E+00-4.97640E-14-8.44241E-13
 -1      3407 1.65355E+01 6.19865E-01 3.90801E-02 2.88371E+00 1.71085E-13-5.67659E-13
 -1      3408 1.72214E+01 9.30255E-01-2.08940E-02 2.32280E+00 1.30608E-13-5.36696E-13
 -1      3409 2.72364E+01-1.04284E+00-5.54625E-02 1.55364E+00 1.42799E-13 2.82614E-13
 -1      3410 2.65901E+01-8.60186E-01-3.88887E-02 1.73703E+00 1.54446E-13 2.91805E-13
 -1      3411 2.61581E+01-1.80620E+00-2.44347E-02 1.21184E+00 1.94261E-14 2.08847E-13
 -1      3412 2.76690E+01-1.87767E+00-4.47828E-02 6.16983E-01 1.01999E-13 1.79169E-13
 -1      3413 1.88976E+01 5.36750E-01 7.29339E-02 2.04825E+00 9.67015E-14-4.96215E-13
 -1      3414 2.67527E+01-2.48625E+00-2.17635E-02 9.66268E-02 2.05521E-15 1.50054E-13
 -1      3415 1.82185E+01-2.01171E+00-3.65440E-02 3.85930E+00-2.30689E-13-1.50990E-14
 -1      3416 1.61412E+01-9.07175E-01 4.45737E-02 3.64639E+00-2.11763E-13 2.51950E-13
 -1      3417 2.05877E+01-4.74802E-01-3.73251E-02 1.59231E+00 6.84444E-14-3.94029E-13
 -1      3418 1.39571E+01-7.26621E-02 2.35256E-03 2.91083E+00-1.32103E-13 2.77584E-13
 -1      3419 1.25128E+01 5.74154E-01 8.32887E-02 1.94142E+00-6.23841E-14 3.30305E-13
 -1      3420 1.85851E+01-3.35905E-01 1.46276E-02-2.83515E+00-8.98049E-14-3.77864E-13
 -1      3421 1.92572E+01-1.13985E+00 5.27968E-02-3.19043E+00-1.47949E-13-3.40269E-13
 -1      3422 1.98325E+01-9.29356E-01 1.72909E-02-2.43120E+00 8.60069E-14-1.61379E-13
 -1      3423 1.95096E+01-5.15493E-01 5.52982E-03-2.29609E+00 6.26170E-14-1.14649E-13
 -1      3424 1.94618E+01-1.82220E-01 1.41856E-02-2.05723E+00 2.29683E-14-1.20274E-13
 -1      3425 1.93032E+01 7.13280E-02-7.75003E-04-1.91494E+00 1.14573E-14-1.96871E-13
 -1      3426 1.87618E+01-2.15911E-01-1.15454E-02-2.29896E+00 3.41601E-14-7.45066E-14
 -1      3427 1.93528E+01 2.69103E-01 9.29000E-03-1.72132E+00 2.86796E-15-1.86263E-13
 -1      3428 1.92933E+01 4.08156E-01-2.93754E-03-1.58897E+00 3.72081E-14-1.56984E-13
 -1      3429 1.87929E+01 2.98904E-01-3.44627E-03-1.84032E+00 1.97028E-14-1.64176E-13
 -1      3430 1.93798E+01 5.10683E-01 5.79393E-03-1.43475E+00-3.25660E-16-1.16938E-13
 -1      3431 1.93713E+01 5.72985E-01-3.54909E-03-1.31631E+00-4.94493E-14-1.86642E-13
 -1      3432 1.89346E+01 5.74470E-01 2.04155E-04-1.48673E+00 1.22219E-14-9.83766E-14
 -1      3433 1.94657E+01 6.12918E-01 3.62409E-03-1.19128E+00-6.10656E-14-1.63093E-13
 -1      3434 1.94800E+01 6.26589E-01-3.50429E-03-1.08612E+00-1.13484E-14-2.00293E-13
 -1      3435 1.91124E+01 6.94421E-01 1.79845E-03-1.21019E+00-3.51483E-14-3.73861E-14
 -1      3436 1.95689E+01 6.27651E-01 2.38982E-03-9.82572E-01 9.63989E-15-2.37842E-13
 -1      3437 1.95906E+01 6.12427E-01-3.22616E-03-8.89732E-01-2.90998E-14-2.36635E-13
 -1      3438 1.92893E+01 7.16333E-01 2.34614E-03-9.87184E-01-2.59232E-14-2.66897E-14
 -1      3439 1.96682E+01 5.91298E-01 1.70811E-03-8.02801E-01-4.14249E-14-2.38635E-13
 -1      3440 1.96897E+01 5.60653E-01-2.85645E-03-7.21580E-01-1.31125E-14-2.42077E-13
 -1      3441 1.94483E+01 6.79889E-01 2.34916E-03-8.02799E-01-2.58352E-14-1.66323E-13
 -1      3442 1.97543E+01 5.28466E-01 1.33479E-03-6.48274E-01-1.51425E-14-1.74625E-13
 -1      3443 1.97725E+01 4.91184E-01-2.46435E-03-5.78134E-01 8.33354E-14-2.44566E-13
 -1      3444 1.95829E+01 6.12141E-01 2.10159E-03-6.48077E-01 1.37315E-14-2.25741E-13
 -1      3445 1.98246E+01 4.55026E-01 1.11633E-03-5.16530E-01 1.13740E-13-2.31378E-13
 -1      3446 1.98385E+01 4.16561E-01-2.08275E-03-4.56891E-01 4.03971E-14-3.11743E-13
 -1      3447 1.96925E+01 5.30872E-01 1.76504E-03-5.17708E-01 4.40785E-14-2.24277E-13
 -1      3448 1.98794E+01 3.80709E-01 9.67064E-04-4.05588E-01 3.81617E-14-3.38602E-13
 -1      3449 1.98893E+01 3.44245E-01-1.72821E-03-3.55725E-01-9.49121E-14-2.47047E-13
 -1      3450 1.97789E+01 4.47259E-01 1.42124E-03-4.08331E-01 2.10346E-14-2.83376E-13
 -1      3451 1.99207E+01 3.11092E-01 8.45169E-04-3.13531E-01-1.59225E-13-1.82944E-13
 -1      3452 1.99272E+01 2.78306E-01-1.40939E-03-2.72552E-01-1.32440E-13-1.46968E-13
 -1      3453 1.98455E+01 3.67928E-01 1.10851E-03-3.17466E-01-4.60389E-14-2.32833E-13
 -1      3454 1.99508E+01 2.49020E-01 7.33594E-04-2.38348E-01-1.13185E-13-1.13704E-14
 -1      3455 1.99548E+01 2.20618E-01-1.13029E-03-2.05244E-01 3.67302E-14 3.82028E-15
 -1      3456 1.98956E+01 2.96440E-01 8.41845E-04-2.42960E-01-4.80983E-14-2.55675E-14
 -1      3457 1.99722E+01 1.95596E-01 6.27568E-04-1.77942E-01 1.10094E-13-3.93728E-14
 -1      3458 1.99744E+01 1.71687E-01-8.91610E-04-1.51654E-01 1.43764E-13-1.21599E-13
 -1      3459 1.99324E+01 2.34346E-01 6.23904E-04-1.82766E-01 6.25725E-14 1.18392E-13
 -1      3460 1.99868E+01 1.50862E-01 5.27478E-04-1.30210E-01 1.15996E-13-2.78770E-13
 -1      3461 1.99877E+01 1.31205E-01-6.91762E-04-1.09687E-01 1.55230E-14-1.91539E-13
 -1      3462 1.99589E+01 1.81928E-01 4.51266E-04-1.34895E-01 1.76597E-14-2.35292E-13
 -1      3463 1.99965E+01 1.14252E-01 4.35210E-04-9.31243E-02 3.27195E-14-1.18422E-13
 -1      3464 1.99965E+01 9.84187E-02-5.27641E-04-7.73804E-02 2.26637E-14-6.02131E-14
 -1      3465 1.99775E+01 1.38709E-01 3.17924E-04-9.74406E-02 7.39373E-14-2.68771E-13
 -1      3466 2.00025E+01 8.48874E-02 3.52495E-04-6.48098E-02-1.05221E-13-1.48169E-14
 -1      3467 2.00020E+01 7.23723E-02-3.95287E-04-5.29489E-02-1.15612E-13-7.80891E-14
 -1      3468 1.99901E+01 1.03802E-01 2.17201E-04-6.86313E-02 3.85308E-15-2.11536E-13
 -1      3469 2.00059E+01 6.17691E-02 2.80335E-04-4.35860E-02-1.48988E-13-7.41889E-15
 -1      3470 2.00052E+01 5.20537E-02-2.90393E-04-3.48230E-02-1.59997E-13 5.80197E-14
 -1      3471 1.99982E+01 7.61351E-02 1.42723E-04-4.68641E-02-1.39800E-13-7.21052E-14
 -1      3472 2.00076E+01 4.38931E-02 2.18938E-04-2.79917E-02-2.45016E-13-1.73370E-14
 -1      3473 2.00067E+01 3.64860E-02-2.08674E-04-2.16559E-02-2.74541E-13-1.32474E-13
 -1      3474 2.00033E+01 5.46000E-02 8.88535E-05-3.07308E-02-2.58642E-13-1.69492E-14
 -1      3475 2.00081E+01 3.03191E-02 1.67873E-04-1.67877E-02-1.04337E-13-9.62954E-14
 -1      3476 2.00072E+01 2.47767E-02-1.46102E-04-1.23199E-02-4.70649E-14 5.62208E-14
 -1      3477 2.00061E+01 3.81362E-02 5.08340E-05-1.90252E-02-1.86995E-13-5.99468E-14
 -1      3478 2.00078E+01 2.02058E-02 1.26278E-04-8.94641E-03-1.02911E-13 3.70694E-14
 -1      3479 2.00070E+01 1.61419E-02-9.90485E-05-5.89008E-03-1.20440E-13-1.51515E-14
 -1      3480 2.00073E+01 2.57815E-02 2.47744E-05-1.07378E-02-9.96491E-14-7.11824E-14
 -1      3481 2.00072E+01 1.28255E-02 9.30486E-05-3.63310E-03-1.36794E-13 4.48424E-14
 -1      3482 2.00064E+01 9.91296E-03-6.43479E-05-1.62245E-03 8.26731E-15 8.91681E-14
 -1      3483 2.00076E+01 1.66939E-02 7.56937E-06-5.04096E-03-6.76959E-14 1.73832E-14
 -1      3484 2.00063E+01 7.56503E-03 6.69940E-05-1.82407E-04-7.66899E-15 7.33317E-14
 -1      3485 2.00056E+01 5.53302E-03-3.93116E-05 1.07008E-03-9.41306E-14-7.24962E-14
 -1      3486 2.00073E+01 1.01574E-02-3.21175E-06-1.26960E-03-2.54963E-14 2.56374E-13
 -1      3487 2.00053E+01 3.91916E-03 4.69396E-05 1.92627E-03-1.61758E-13-6.56251E-14
 -1      3488 2.00048E+01 2.54785E-03-2.17070E-05 2.64248E-03-1.24031E-13-8.80465E-14
 -1      3489 2.00066E+01 5.57727E-03-9.43807E-06 1.10086E-03-1.81801E-13 2.41215E-13
 -1      3490 2.00044E+01 1.47939E-03 3.17969E-05 3.09278E-03-2.90277E-15-1.46190E-13
 -1      3491 2.00039E+01 5.93452E-04-9.71589E-06 3.44073E-03 4.73019E-15-6.61864E-14
 -1      3492 2.00057E+01 2.46918E-03-1.25225E-05 2.47657E-03-8.40009E-14 5.58819E-14
 -1      3493 2.00035E+01-7.89259E-05 2.06026E-05 3.61833E-03 2.27883E-14-5.99308E-14
 -1      3494 2.00031E+01-6.17166E-04-1.88661E-06 3.72261E-03 5.32194E-14 2.14908E-14
 -1      3495 2.00048E+01 4.45855E-04-1.35148E-05 3.16605E-03 5.97678E-14 7.67814E-14
 -1      3496 2.00027E+01-1.00996E-03 1.25279E-05 3.72502E-03 1.84424E-14 1.21048E-13
 -1      3497 2.00024E+01-1.30715E-03 2.91533E-06 3.67580E-03 6.57943E-14 1.81236E-13
 -1      3498 2.00039E+01-7.97640E-04-1.31877E-05 3.39892E-03 1.45942E-13 5.75513E-14
 -1      3499 2.00020E+01-1.51011E-03 6.86020E-06 3.57256E-03-3.42852E-15 8.20973E-14
 -1      3500 2.00018E+01-1.64794E-03 5.56856E-06 3.43323E-03-6.63835E-14 5.64994E-14
 -1      3501 2.00031E+01-1.49800E-03-1.21077E-05 3.34207E-03-1.65299E-14-1.98344E-14
 -1      3502 2.00015E+01-1.72956E-03 3.09401E-06 3.27234E-03-1.61501E-13-1.35130E-14
 -1      3503 2.00013E+01-1.77047E-03 6.62935E-06 3.08577E-03-1.72390E-13-1.92756E-13
 -1      3504 2.00023E+01-1.83705E-03-1.07519E-05 3.11352E-03-2.11009E-13 1.07807E-13
 -1      3505 2.00010E+01-1.78157E-03 1.42358E-06 2.89811E-03 4.68153E-14-1.97153E-13
 -1      3506 2.00009E+01-1.77304E-03 5.36026E-06 2.69222E-03 2.18541E-13-7.22355E-14
 -1      3507 2.00017E+01-1.95511E-03-9.89903E-06 2.79363E-03-8.63616E-14 2.75235E-13
 -1      3508 1.18010E+01 2.85780E+00-3.48220E-04 1.25220E+00 1.36807E-13-7.58033E-13
 -1      3509 2.08439E+01-1.01283E+00 2.51914E-02 1.83149E+00-4.05132E-14-1.32049E-13
 -1      3510 2.12041E+01-1.43850E+00 1.33126E-03 1.79375E+00-5.85122E-14-1.13048E-13
 -1      3511 2.20910E+01-2.24058E+00 1.49448E-02 1.82700E+00-1.09063E-13-1.46294E-13
 -1      3512 2.27741E+01-2.64375E+00 2.20748E-02 1.59731E+00-1.43651E-13-1.96686E-13
 -1      3513 2.35708E+01-2.89394E+00 2.44040E-02 1.15485E+00-1.69233E-13-2.90502E-13
 -1      3514 2.02918E+01-3.93158E-01 8.02084E-03 1.71029E+00-5.87616E-14-4.69130E-14
 -1      3515 2.05409E+01-6.90360E-01 5.34188E-03 1.74479E+00-4.44506E-14-1.15910E-13
 -1      3516 2.01201E+01-8.83755E-01-2.47297E-02 2.05896E+00-5.91699E-14-1.49589E-13
 -1      3517 2.00115E+01 3.02735E-02 2.81061E-03 1.51897E+00 3.99724E-15-4.41871E-14
 -1      3518 2.01616E+01-1.57194E-01 6.79831E-03 1.58825E+00 3.48495E-15-6.22959E-14
 -1      3519 1.97478E+01-2.28622E-01-1.19331E-02 1.79041E+00-4.40751E-14-1.05881E-13
 -1      3520 1.98869E+01 2.82604E-01 2.18832E-04 1.31461E+00-9.56673E-14-6.66542E-14
 -1      3521 1.99701E+01 1.75679E-01 5.10243E-03 1.39851E+00-2.56307E-14-5.16136E-14
 -1      3522 1.96047E+01 1.71790E-01-5.72461E-03 1.52530E+00-1.38772E-14-6.72076E-14
 -1      3523 1.98485E+01 4.10333E-01-1.14316E-03 1.11562E+00-1.32188E-13-1.07023E-13
 -1      3524 1.98926E+01 3.60474E-01 3.80908E-03 1.20287E+00-1.34880E-13-1.07626E-13
 -1      3525 1.95806E+01 3.97929E-01-2.36302E-03 1.28248E+00-1.11327E-13-6.40639E-14
 -1      3526 1.98538E+01 4.54444E-01-1.74185E-03 9.30909E-01-1.85090E-13-4.26730E-15
 -1      3527 1.98763E+01 4.41901E-01 2.86976E-03 1.01530E+00-1.24826E-13-6.24738E-14
 -1      3528 1.96172E+01 5.02651E-01-4.59509E-04 1.06690E+00-1.73514E-13-5.90732E-14
 -1      3529 1.98776E+01 4.46669E-01-1.93186E-03 7.64438E-01-1.19536E-13 1.01746E-13
 -1      3530 1.98891E+01 4.56669E-01 2.23765E-03 8.42489E-01-2.13006E-13-1.27934E-14
 -1      3531 1.96786E+01 5.27782E-01 4.43118E-04 8.78149E-01-1.68960E-13-9.68779E-14
 -1      3532 1.99064E+01 4.09604E-01-1.88835E-03 6.17812E-01-1.61320E-13 3.05934E-13
 -1      3533 1.99128E+01 4.31844E-01 1.82256E-03 6.87619E-01-9.00548E-14 1.62479E-13
 -1      3534 1.97450E+01 5.04852E-01 7.98057E-04 7.14260E-01-1.65194E-13-3.91047E-14
 -1      3535 1.99337E+01 3.58487E-01-1.72304E-03 4.91338E-01-8.66176E-14 2.51064E-13
 -1      3536 1.99379E+01 3.86123E-01 1.53486E-03 5.52064E-01-1.20174E-13 2.62207E-13
 -1      3537 1.98066E+01 4.55663E-01 8.66121E-04 5.73373E-01-1.06206E-13 7.27846E-14
 -1      3538 1.99565E+01 3.03070E-01-1.50290E-03 3.84387E-01-1.63533E-13 1.98595E-13
 -1      3539 1.99601E+01 3.31794E-01 1.31374E-03 4.35951E-01-9.31887E-14 2.75949E-13
 -1      3540 1.98592E+01 3.94781E-01 7.94492E-04 4.53778E-01-1.36877E-13 7.97733E-14
 -1      3541 1.99743E+01 2.49221E-01-1.26793E-03 2.95650E-01-7.66449E-14 7.51018E-14
 -1      3542 1.99777E+01 2.76496E-01 1.12671E-03 3.38488E-01-1.27564E-13 1.24960E-13
 -1      3543 1.99017E+01 3.31457E-01 6.66328E-04 3.53714E-01-1.05484E-13-2.55082E-14
 -1      3544 1.99874E+01 2.00161E-01-1.04128E-03 2.23365E-01-6.06738E-14-7.04400E-14
 -1      3545 1.99906E+01 2.24645E-01 9.59160E-04 2.58243E-01-6.15932E-14 7.68995E-14
 -1      3546 1.99346E+01 2.71199E-01 5.26343E-04 2.71289E-01 5.23689E-15-7.99437E-14
 -1      3547 1.99964E+01 1.57379E-01-8.35503E-04 1.65525E-01-5.47146E-16-1.30101E-13
 -1      3548 1.99996E+01 1.78506E-01 8.06240E-04 1.93387E-01-8.65160E-14-1.30138E-13
 -1      3549 1.99592E+01 2.16964E-01 3.96631E-04 2.04484E-01-2.78781E-14-1.18142E-13
 -1      3550 2.00023E+01 1.21276E-01-6.56324E-04 1.20055E-01 6.62729E-14 2.00197E-13
 -1      3551 2.00052E+01 1.38959E-01 6.67437E-04 1.41905E-01 7.09512E-14 6.27639E-14
 -1      3552 1.99770E+01 1.70037E-01 2.86397E-04 1.51224E-01-5.60880E-14-8.07356E-14
 -1      3553 2.00057E+01 9.16044E-02-5.05214E-04 8.49368E-02 2.47427E-13 1.58030E-13
 -1      3554 2.00084E+01 1.06039E-01 5.43556E-04 1.01761E-01 2.21524E-13 1.49503E-13
 -1      3555 1.99893E+01 1.30651E-01 1.97858E-04 1.09468E-01 1.22238E-13-6.17266E-14
 -1      3556 2.00075E+01 6.77683E-02-3.81070E-04 5.83050E-02 2.98323E-14 1.15950E-13
 -1      3557 2.00099E+01 7.92947E-02 4.35287E-04 7.10175E-02 1.70326E-13 1.98787E-13
 -1      3558 1.99975E+01 9.84138E-02 1.29723E-04 7.72891E-02 1.87734E-13-2.35758E-15
 -1      3559 2.00081E+01 4.90113E-02-2.81377E-04 3.84957E-02-1.20691E-13 1.33892E-13
 -1      3560 2.00102E+01 5.80312E-02 3.42689E-04 4.79121E-02-1.16379E-13 6.83559E-14
 -1      3561 2.00026E+01 7.26011E-02 7.91907E-05 5.29316E-02 2.77809E-14 9.11577E-14
 -1      3562 2.00080E+01 3.45389E-02-2.02966E-04 2.40700E-02-5.79450E-14 1.98948E-13
 -1      3563 2.00097E+01 4.14607E-02 2.65133E-04 3.08938E-02-8.94552E-14 1.84690E-13
 -1      3564 2.00056E+01 5.23462E-02 4.30329E-05 3.48445E-02-1.62040E-13 1.43636E-13
 -1      3565 2.00073E+01 2.35896E-02-1.42509E-04 1.38153E-02-3.06056E-14 7.28783E-15
 -1      3566 2.00088E+01 2.87973E-02 2.01453E-04 1.86377E-02 5.71254E-14 1.66179E-13
 -1      3567 2.00070E+01 3.67592E-02 1.81520E-05 2.16948E-02 3.59662E-14 6.49113E-14
 -1      3568 2.00065E+01 1.54740E-02-9.68137E-05 6.73250E-03-5.21993E-14-1.74617E-13
 -1      3569 2.00076E+01 1.93110E-02 1.50145E-04 1.00388E-02-1.21308E-13-8.19823E-14
 -1      3570 2.00074E+01 2.49972E-02 1.82803E-06 1.23635E-02-1.02293E-15 1.20977E-14
 -1      3571 2.00055E+01 9.59192E-03-6.29867E-05 2.01526E-03-1.10685E-13-2.22582E-13
 -1      3572 2.00065E+01 1.23544E-02 1.09552E-04 4.19589E-03-2.44899E-14-1.79465E-13
 -1      3573 2.00072E+01 1.63027E-02-8.19831E-06 5.93143E-03-4.31034E-14-2.59176E-14
 -1      3574 2.00046E+01 5.43639E-03-3.85117E-05-9.74794E-04-3.24213E-13-1.35100E-14
 -1      3575 2.00053E+01 7.37263E-03 7.80087E-05 3.88024E-04-3.08662E-13-1.40377E-13
 -1      3576 2.00065E+01 1.00197E-02-1.37321E-05 1.65836E-03-2.49732E-13-1.30153E-14
 -1      3577 2.00037E+01 2.58970E-03-2.12656E-05-2.73363E-03-3.15043E-13 1.84425E-13
 -1      3578 2.00043E+01 3.90309E-03 5.39411E-05-1.95037E-03-3.36553E-13 7.69127E-14
 -1      3579 2.00057E+01 5.59614E-03-1.61712E-05-1.04075E-03-4.12605E-13 1.42689E-13
 -1      3580 2.00029E+01 7.14671E-04-9.50206E-06-3.63927E-03-2.26162E-13 2.19494E-13
 -1      3581 2.00033E+01 1.56849E-03 3.59272E-05-3.25476E-03-2.40411E-13 1.99796E-13
 -1      3582 2.00048E+01 2.57853E-03-1.65690E-05-2.61966E-03-3.19153E-13 5.45571E-14
 -1      3583 2.00022E+01-4.56020E-04-1.81823E-06-3.97406E-03-1.49898E-13 1.73247E-13
 -1      3584 2.00025E+01 6.70704E-05 2.27277E-05-3.85393E-03-1.39512E-13 2.73364E-13
 -1      3585 2.00040E+01 6.01597E-04-1.57001E-05-3.42374E-03-1.29843E-13 1.10391E-13
 -1      3586 2.00017E+01-1.13110E-03 2.88662E-06-3.94410E-03 4.61644E-14 1.52317E-13
 -1      3587 2.00019E+01-8.38525E-04 1.32965E-05-3.99087E-03-1.52366E-13 1.20907E-13
 -1      3588 2.00032E+01-6.23683E-04-1.41296E-05-3.71054E-03-9.16825E-14 5.34968E-14
 -1      3589 2.00012E+01-1.47148E-03 5.47538E-06-3.69563E-03 1.79049E-13 3.79870E-13
 -1      3590 2.00013E+01-1.33246E-03 6.78309E-06-3.84068E-03 2.46589E-13 2.68340E-13
 -1      3591 2.00024E+01-1.32273E-03-1.22590E-05-3.66777E-03 8.84875E-14 1.86927E-13
 -1      3592 2.00008E+01-1.59968E-03 6.75564E-06-3.32871E-03 1.45579E-13 5.27858E-13
 -1      3593 2.00009E+01-1.55586E-03 2.48041E-06-3.52566E-03 2.13582E-13 4.56703E-13
 -1      3594 2.00018E+01-1.66881E-03-1.02609E-05-3.42828E-03 7.85206E-14 3.57646E-13
 -1      3595 2.00005E+01-1.61079E-03 6.85749E-06-2.90774E-03 2.30210E-13 4.13914E-13
 -1      3596 2.00005E+01-1.61834E-03-8.33386E-07-3.12863E-03 1.80310E-13 6.02922E-13
 -1      3597 2.00013E+01-1.79343E-03-8.29216E-06-3.08358E-03 9.61865E-14 5.25766E-13
 -1      3598 2.00002E+01-1.57547E-03 3.88969E-06-2.47459E-03 2.57985E-13 1.51400E-13
 -1      3599 2.00003E+01-1.59475E-03-1.47292E-06-2.69835E-03 2.97487E-13 3.79848E-13
 -1      3600 2.00008E+01-1.79848E-03-4.60331E-06-2.69353E-03 3.20908E-13 4.43580E-13
 -1      3601 2.00003E+01-1.71735E-03 8.14290E-06-1.94179E-03-8.23183E-14 6.70426E-13
 -1      3602 2.00000E+01-1.55601E-03-3.99304E-07-1.99732E-03-1.29499E-13 2.61752E-13
 -1      3603 2.00000E+01-1.54824E-03-2.22401E-06-2.13971E-03-2.49114E-13 2.54514E-13
 -1      3604 2.00005E+01-1.83741E-03-2.75984E-06-2.03067E-03-1.46809E-13 4.41106E-13
 -1      3605 1.17225E+01 7.32151E-01 7.94902E-03 7.28886E-01-1.04868E-14 3.00975E-13
 -1      3606 1.17693E+01 7.40340E-01 3.68981E-02-9.43188E-01 4.82878E-14 2.74822E-13
 -1      3607 1.32643E+01 8.25587E-01 6.35807E-02 9.94454E-01-1.53150E-14 2.93564E-13
 -1      3608 2.01648E+01-9.28224E-01-5.94445E-03 2.26926E+00 1.26680E-13-4.13366E-13
 -1      3609 1.49130E+01 4.89155E-01 1.93993E-02 3.51408E+00 2.20914E-13-6.01227E-13
 -1      3610 1.31972E+01 1.60613E+00 4.04369E-02 2.78543E+00 1.74492E-13-6.83655E-13
 -1      3611 2.00012E+01-2.07154E-03-4.62200E-06 1.94467E-03-3.45424E-14 9.83258E-14
 -1      3612 2.00015E+01-2.20018E-03 9.30880E-06 1.68310E-03-8.59015E-14 1.09380E-13
 -1      3613 2.05583E+01-2.06956E+00 4.01191E-04-2.81646E+00 1.57367E-13-2.72808E-13
 -1      3614 2.00916E+01-1.37548E+00 3.76908E-02-2.68538E+00 1.50514E-13-2.44119E-13
 -1      3615 1.90059E+01-1.08556E+00-2.28299E-02-2.86441E+00 1.59849E-13-1.59059E-13
 -1      3616 1.29060E+01 2.53739E+00 7.32697E-02 1.96287E+00 1.47693E-13-7.18859E-13
 -1      3617 1.24750E+01 3.70731E-01 4.96858E-02-2.21121E+00 1.83784E-13 3.53439E-13
 -1      3618 1.39504E+01-4.92706E-01-2.27835E-02-3.49088E+00 2.62346E-13 3.24379E-13
 -1      3619 1.61044E+01-1.32943E+00 8.06406E-02-4.12203E+00 2.87477E-13 2.15314E-14
 -1      3620 1.83244E+01-2.36946E+00 2.25963E-02-4.18060E+00 2.86394E-13-2.36495E-13
 -1      3621 1.91475E+01-1.27654E+00-4.19157E-02 3.16511E+00 1.99616E-13-4.38729E-13
 -1      3622 2.15401E+01-1.93261E+00 9.59349E-02 2.48315E+00 1.91287E-13-3.35889E-13
 -1      3623 2.35709E+01-1.55965E+00 1.85751E-02-1.38210E-01 4.36170E-14 1.77866E-14
 -1      3624 2.29480E+01-1.55538E+00-1.88984E-02-6.62987E-01 3.09375E-14-3.61464E-14
 -1      3625 2.40528E+01-1.93379E+00-5.23236E-03 4.86257E-04 6.07457E-15 3.54062E-14
 -1      3626 2.60986E+01-2.85065E+00-5.61729E-03-3.26774E-01-7.27526E-14 1.28515E-13
 -1      3627 2.61253E+01-2.24136E+00-2.78649E-02 6.13533E-01-3.55918E-14 2.09742E-13
 -1      3628 2.50915E+01-2.93913E+00-7.89027E-03-8.10091E-01-1.06684E-13 1.04066E-13
 -1      3629 1.69222E+01-4.36717E-02 8.67856E-02 3.36274E+00 2.12864E-13-5.44320E-13
 -1      3630 2.55017E+01-2.08812E+00-2.19474E-02 7.40256E-01 3.84068E-15 1.60083E-13
 -1      3631 1.33922E+01 7.14343E-01 8.21502E-02-1.42890E+00 9.52754E-14 1.76026E-13
 -1      3632 1.55416E+01-3.13750E-01 3.71053E-02 3.18629E+00-1.69995E-13 2.51686E-13
 -1      3633 1.50560E+01 2.84553E-01-2.80426E-03 2.36277E+00-1.09148E-13 2.06234E-13
 -1      3634 1.69972E+01-4.62952E-01 2.33695E-02 2.93593E+00-1.98817E-13 1.25577E-13
 -1      3635 1.58114E+01-6.07116E-01 7.04696E-02-3.36947E+00 2.34436E-13 8.38496E-14
 -1      3636 2.11525E+01-2.03204E+00-5.56344E-03 2.30493E+00-1.10401E-13-2.13482E-13
 -1      3637 2.00006E+01-1.72528E-03 9.52724E-07 2.58195E-03 1.96908E-13-1.47205E-13
 -1      3638 2.00004E+01-1.68954E-03 3.68325E-06 2.40197E-03 1.01240E-13-7.96969E-14
 -1      3639 2.00006E+01-1.80785E-03-2.13633E-06 2.29980E-03-2.29023E-14-2.04110E-13
 -1      3640 2.00011E+01-1.92085E-03-8.62105E-06 2.51748E-03 2.15707E-13 1.91116E-13
 -1      3641 2.44417E+01-3.27973E+00 4.78145E-02 1.04012E+00-1.76231E-13-3.61131E-13
 -1      3642 2.00007E+01-1.86421E-03 5.21604E-06-2.19911E-03 1.73904E-14 2.44357E-13
 -1      3643 2.00005E+01-1.73725E-03-4.42948E-06-2.29873E-03 2.75799E-14 6.12342E-13
 -1      3644 2.00000E+01-1.53351E-03-2.04737E-07-2.28051E-03-5.43779E-14 2.04750E-13
 -1      3645 2.00014E+01-2.18791E-03 8.40032E-06-1.70540E-03 1.12809E-13-2.07668E-13
 -1      3646 2.00011E+01-2.05270E-03-5.51127E-06-1.96913E-03-1.11615E-14-3.12955E-13
 -1      3647 2.00011E+01-1.95729E-03-2.04346E-06-2.25840E-03 1.77237E-13 6.95848E-14
 -1      3648 2.24327E+01-3.19717E+00 4.44147E-02-2.65391E+00 1.68761E-13-3.92556E-13
 -1      3649 2.08514E+01-2.88846E+00-1.18155E-02-3.26218E+00 1.97039E-13-3.57169E-13
 -1      3650 2.00021E+01-2.51068E-03 3.65288E-06-2.07988E-04-3.28076E-14-1.78639E-13
 -1      3651 2.00020E+01-2.48365E-03 5.68607E-07-5.84872E-04-1.27474E-14-2.05737E-13
 -1      3652 2.21313E+01-1.46229E+00 2.89121E-02-1.41891E+00-4.47168E-14-1.20710E-13
 -1      3653 2.00019E+01-2.28993E-03-1.14348E-06 1.62084E-03 1.70959E-14 1.11464E-13
 -1      3654 2.00017E+01-2.33887E-03-4.12325E-06 1.33431E-03-3.23529E-14 1.39131E-13
 -1      3655 2.00019E+01-2.41433E-03 6.49829E-06 9.98960E-04-6.43578E-14-1.10405E-13
 -1      3656 2.27787E+01-2.93582E+00 4.22745E-02-2.59232E+00-2.15009E-13-1.30371E-13
 -1      3657 2.58374E+01-1.95866E+00 2.38218E-02-1.01085E+00 2.53929E-14-4.66049E-13
 -1      3658 2.00021E+01-2.51105E-03 3.55206E-06 2.17572E-04-7.42975E-14-3.08774E-13
 -1      3659 2.00024E+01-2.53231E-03-4.57620E-06 3.58211E-06-1.36019E-13-1.85523E-13
 -1      3660 2.00020E+01-2.48380E-03 3.45563E-07 5.92205E-04-4.87864E-14-3.03989E-13
 -1      3661 2.00008E+01-1.90569E-03 6.01297E-06 2.17036E-03-1.95726E-14 5.99769E-14
 -1      3662 2.51963E+01-2.70746E+00-7.09614E-02-3.30456E-01-6.51805E-14-3.44167E-13
 -1      3663 2.00012E+01-2.01564E-03-3.74774E-07 2.19683E-03 3.84782E-14 1.24887E-13
 -1      3664 2.49687E+01-2.16070E+00 3.94382E-03 3.81970E-01-3.69931E-14 9.86715E-14
 -1      3665 1.99917E+01-2.44004E+00 4.88801E-02 3.49307E+00-1.98575E-13-2.50192E-13
 -1      3666 1.90260E+01-1.68506E+00-8.01902E-03 3.23962E+00-2.09596E-13-1.41210E-13
 -1      3667 1.82609E+01 4.25539E-01 1.25564E-02-1.81885E+00-2.35959E-14 1.02136E-14
 -1      3668 1.82925E+01 5.69987E-01-9.36822E-03-1.62483E+00 3.28110E-14-1.43566E-14
 -1      3669 1.85159E+01 6.83151E-01 6.63362E-03-1.43763E+00 6.71333E-14-4.84935E-14
 -1      3670 1.85889E+01 7.47380E-01-7.59785E-03-1.28962E+00 5.38359E-14-1.59642E-14
 -1      3671 1.79912E+01 7.88663E-01 7.99411E-03-1.41202E+00 2.55008E-14 1.08669E-13
 -1      3672 1.87820E+01 7.91446E-01 3.47041E-03-1.15433E+00 1.97726E-14-3.58664E-14
 -1      3673 1.88662E+01 8.04773E-01-5.89017E-03-1.03788E+00 4.61792E-15 1.08394E-14
 -1      3674 1.83865E+01 8.91144E-01 5.82378E-03-1.10278E+00 5.34533E-14 5.43499E-14
 -1      3675 1.90282E+01 8.05402E-01 1.79511E-03-9.35016E-01-6.73658E-15-2.26599E-14
 -1      3676 1.91092E+01 7.86993E-01-4.67277E-03-8.40266E-01-6.47268E-14-8.38791E-14
 -1      3677 1.87258E+01 9.01276E-01 5.05245E-03-8.79636E-01-2.08339E-14-2.01756E-14
 -1      3678 1.92428E+01 7.61918E-01 9.53516E-04-7.58801E-01-8.27459E-14-5.25320E-14
 -1      3679 1.93140E+01 7.25609E-01-3.75833E-03-6.79768E-01-5.26779E-15-5.95099E-14
 -1      3680 1.90088E+01 8.53171E-01 4.29008E-03-7.08240E-01-4.15820E-14-3.32232E-14
 -1      3681 1.94225E+01 6.86893E-01 5.62222E-04-6.13364E-01 2.61092E-14-1.17401E-13
 -1      3682 1.94816E+01 6.42132E-01-3.06013E-03-5.46634E-01 1.50232E-14-1.25291E-13
 -1      3683 1.92407E+01 7.71961E-01 3.56275E-03-5.71109E-01 7.00797E-15 7.42246E-14
 -1      3684 1.95685E+01 5.97797E-01 4.03537E-04-4.91667E-01 2.38600E-14-1.51321E-13
 -1      3685 1.96158E+01 5.50771E-01-2.50727E-03-4.35282E-01 5.14547E-14-1.73564E-13
 -1      3686 1.94276E+01 6.75266E-01 2.91139E-03-4.58350E-01 3.65285E-14-9.79546E-14
 -1      3687 1.96845E+01 5.05949E-01 3.47860E-04-3.89644E-01 5.14179E-14-2.04129E-13
 -1      3688 1.97212E+01 4.60536E-01-2.05281E-03-3.42337E-01 3.28593E-14-1.10769E-13
 -1      3689 1.95760E+01 5.74807E-01 2.34370E-03-3.64511E-01 2.16347E-14-2.04661E-13
 -1      3690 1.97746E+01 4.18319E-01 3.29049E-04-3.04644E-01 1.13011E-14-1.26843E-13
 -1      3691 1.98024E+01 3.76760E-01-1.67019E-03-2.65417E-01-5.40865E-14-6.66743E-14
 -1      3692 1.96920E+01 4.78099E-01 1.85854E-03-2.86402E-01 8.25802E-14-1.04689E-13
 -1      3693 1.98433E+01 3.38826E-01 3.16852E-04-2.34608E-01-1.19199E-15-5.84055E-14
 -1      3694 1.98638E+01 3.02232E-01-1.34527E-03-2.02543E-01 6.45049E-14 5.74052E-14
 -1      3695 1.97813E+01 3.89590E-01 1.45149E-03-2.21861E-01 3.29751E-15 5.93396E-14
 -1      3696 1.98947E+01 2.69309E-01 2.99819E-04-1.77693E-01-5.39770E-14-2.99181E-15
 -1      3697 1.99094E+01 2.38033E-01-1.07011E-03-1.51887E-01-5.69879E-14-1.07800E-13
 -1      3698 1.98489E+01 3.11537E-01 1.11594E-03-1.69155E-01-6.86603E-14-1.07643E-13
 -1      3699 1.99324E+01 2.10234E-01 2.75654E-04-1.32140E-01-3.32262E-14-2.30425E-13
 -1      3700 1.99427E+01 1.84155E-01-8.39313E-04-1.11707E-01-2.41855E-14-2.94495E-13
 -1      3701 1.98991E+01 2.44690E-01 8.43998E-04-1.26719E-01-1.43560E-13-3.31967E-13
 -1      3702 1.99593E+01 1.61218E-01 2.45916E-04-9.62648E-02-3.59416E-15-2.28486E-13
 -1      3703 1.99663E+01 1.39930E-01-6.48275E-04-8.03537E-02 2.32526E-14-2.41173E-13
 -1      3704 1.99358E+01 1.88820E-01 6.27188E-04-9.30794E-02-4.64364E-15-2.22842E-13
 -1      3705 1.99781E+01 1.21386E-01 2.13293E-04-6.84811E-02 4.59320E-14-2.87935E-13
 -1      3706 1.99827E+01 1.04343E-01-4.92511E-04-5.63050E-02 5.32020E-14-1.86263E-13
 -1      3707 1.99619E+01 1.43109E-01 4.57098E-04-6.68476E-02 4.57485E-14-2.31663E-13
 -1      3708 1.99908E+01 8.96305E-02 1.80336E-04-4.73392E-02-4.85848E-14-1.97502E-13
 -1      3709 1.99936E+01 7.62322E-02-3.67506E-04-3.81907E-02-1.12327E-13-2.21820E-14
 -1      3710 1.99801E+01 1.06426E-01 3.25800E-04-4.67432E-02 1.53554E-14-2.81883E-13
 -1      3711 1.99990E+01 6.47677E-02 1.48986E-04-3.15503E-02-2.34878E-13 2.72067E-14
 -1      3712 2.00006E+01 5.44218E-02-2.68810E-04-2.48117E-02-2.95577E-13 1.08498E-14
 -1      3713 1.99923E+01 7.75220E-02 2.26123E-04-3.16151E-02-1.57545E-13-7.75977E-14
 -1      3714 2.00040E+01 4.56473E-02 1.20494E-04-1.99987E-02-2.96575E-13-1.25302E-14
 -1      3715 2.00047E+01 3.78022E-02-1.92180E-04-1.51441E-02-1.50350E-13-5.19566E-14
 -1      3716 2.00001E+01 5.51502E-02 1.51777E-04-2.04555E-02-2.41973E-13 7.46240E-14
 -1      3717 2.00068E+01 3.12101E-02 9.55138E-05-1.17415E-02-1.23410E-13-4.25097E-14
 -1      3718 2.00069E+01 2.53742E-02-1.33705E-04-8.33332E-03-1.45512E-13-5.08209E-14
 -1      3719 2.00048E+01 3.81453E-02 9.73925E-05-1.24043E-02-1.97657E-13-7.08734E-15
 -1      3720 2.00079E+01 2.05194E-02 7.42471E-05-5.99905E-03-1.53067E-14-9.14701E-14
 -1      3721 2.00077E+01 1.62683E-02-8.99003E-05-3.68087E-03 1.39783E-13 1.05037E-13
 -1      3722 2.00073E+01 2.54630E-02 5.84808E-05-6.74355E-03-2.07540E-14-6.21153E-14
 -1      3723 2.00081E+01 1.27717E-02 5.65891E-05-2.14005E-03-1.33980E-15-3.67854E-14
 -1      3724 2.00077E+01 9.74826E-03-5.77396E-05-6.26907E-04-1.30709E-13 2.77877E-14
 -1      3725 2.00083E+01 1.61985E-02 3.13652E-05-2.88685E-03-9.34513E-16-1.98014E-13
 -1      3726 2.00077E+01 7.29431E-03 4.22473E-05 3.37291E-04-1.33193E-13 5.60931E-14
 -1      3727 2.00072E+01 5.20458E-03-3.46624E-05 1.26887E-03-1.66417E-13 3.22420E-14
 -1      3728 2.00083E+01 9.58780E-03 1.30854E-05-3.64408E-04-7.44585E-14-1.77186E-13
 -1      3729 2.00069E+01 3.53614E-03 3.08333E-05 1.82428E-03-8.25778E-14 5.24924E-14
 -1      3730 2.00064E+01 2.14264E-03-1.85459E-05 2.34630E-03-1.04410E-14 6.90080E-14
 -1      3731 2.00078E+01 5.00027E-03 1.29813E-06 1.19288E-03-2.66906E-14-1.64267E-13
 -1      3732 2.00059E+01 1.05375E-03 2.19279E-05 2.62035E-03-4.20336E-14 1.58274E-13
 -1      3733 2.00054E+01 1.67957E-04-7.65852E-06 2.86262E-03 1.12677E-13 1.25246E-13
 -1      3734 2.00069E+01 1.92516E-03-5.81796E-06 2.06959E-03 1.05949E-13 4.91494E-14
 -1      3735 2.00050E+01-5.03683E-04 1.51286E-05 2.95014E-03 2.31374E-13 6.27410E-14
 -1      3736 2.00045E+01-1.02930E-03-6.31797E-07 3.00859E-03 1.22956E-13-4.16587E-15
 -1      3737 2.00059E+01-4.39986E-05-9.64795E-06 2.48087E-03 8.71751E-14 8.36768E-14
 -1      3738 2.00040E+01-1.40984E-03 1.00400E-05 2.97838E-03-2.00853E-14-3.61968E-14
 -1      3739 2.00036E+01-1.68898E-03 3.60836E-06 2.92206E-03-1.00455E-13 6.23530E-15
 -1      3740 2.00049E+01-1.22598E-03-1.12727E-05 2.58600E-03 5.32664E-14 4.07250E-14
 -1      3741 2.00031E+01-1.87524E-03 6.22531E-06 2.82307E-03-4.06883E-14 8.56492E-14
 -1      3742 2.00028E+01-1.99527E-03 5.70410E-06 2.70042E-03-4.98759E-14 3.28500E-13
 -1      3743 2.00039E+01-1.86678E-03-1.15122E-05 2.49996E-03 3.23809E-14 1.81377E-13
 -1      3744 2.00023E+01-2.05776E-03 4.40605E-06 2.56558E-03-6.05010E-14 3.52117E-13
 -1      3745 2.00020E+01-2.09143E-03 4.76358E-06 2.41224E-03 5.48570E-14 4.60420E-13
 -1      3746 2.00030E+01-2.15415E-03-1.04867E-05 2.30382E-03 1.76334E-14 4.30902E-13
 -1      3747 2.00015E+01-2.05550E-03 6.52124E-06 2.27467E-03 4.46298E-14 2.35630E-13
 -1      3748 1.91950E+01 6.74427E-02-2.43110E-03 1.76926E+00-9.96826E-15-3.62232E-14
 -1      3749 1.93329E+01-1.61676E-01 1.28074E-02 1.91558E+00-4.29104E-14-3.10720E-14
 -1      3750 1.93538E+01-4.35267E-01 9.41580E-03 2.14677E+00-1.03202E-13-6.98483E-14
 -1      3751 1.95609E+01-8.80827E-01-1.56413E-02 2.32829E+00-1.12608E-13-9.98063E-14
 -1      3752 1.87343E+01-1.69593E-01-3.96106E-03 2.14047E+00-1.18047E-13 1.21468E-13
 -1      3753 1.91978E+01 3.83578E-01-3.14951E-03 1.45029E+00-8.72207E-14 4.96153E-14
 -1      3754 1.92478E+01 2.53476E-01 9.11965E-03 1.58040E+00-1.00088E-14 7.33029E-15
 -1      3755 1.87602E+01 2.92209E-01-1.84084E-03 1.69556E+00-6.13748E-14 1.34935E-13
 -1      3756 1.92786E+01 5.46435E-01-3.44187E-03 1.18681E+00-1.35849E-13 3.91328E-14
 -1      3757 1.92800E+01 4.84122E-01 5.47076E-03 1.30107E+00-7.75486E-14 2.47366E-14
 -1      3758 1.88946E+01 5.46006E-01-1.23051E-04 1.34993E+00-8.80162E-14 1.70963E-13
 -1      3759 1.93911E+01 6.05285E-01-3.28275E-03 9.68678E-01-1.58494E-13-5.46382E-14
 -1      3760 1.93700E+01 5.88286E-01 3.47639E-03 1.06752E+00-1.64885E-13-2.62035E-15
 -1      3761 1.90641E+01 6.63789E-01 1.33087E-03 1.08195E+00-1.23432E-13 1.21775E-13
 -1      3762 1.95077E+01 5.99117E-01-3.00494E-03 7.86357E-01-1.31769E-13-1.32605E-13
 -1      3763 1.94785E+01 6.10168E-01 2.23777E-03 8.71780E-01-1.34284E-13-6.00006E-14
 -1      3764 1.92365E+01 6.90486E-01 1.90679E-03 8.70669E-01-9.50408E-14-5.87466E-14
 -1      3765 1.96154E+01 5.54780E-01-2.66229E-03 6.32952E-01-2.05113E-13-8.22586E-14
 -1      3766 1.95858E+01 5.81794E-01 1.52808E-03 7.06492E-01-1.81417E-13-1.37800E-13
 -1      3767 1.93949E+01 6.61618E-01 2.01586E-03 6.99390E-01-1.89498E-13-1.53188E-13
 -1      3768 1.97085E+01 4.90861E-01-2.30573E-03 5.03992E-01-1.33232E-13-1.03549E-14
 -1      3769 1.96820E+01 5.25525E-01 1.12223E-03 5.66769E-01-1.45465E-13 5.56199E-15
 -1      3770 1.95326E+01 6.01011E-01 1.89304E-03 5.58588E-01-2.46818E-13-7.09428E-14
 -1      3771 1.97853E+01 4.19718E-01-1.95918E-03 3.96260E-01-1.38370E-13 1.30974E-14
 -1      3772 1.97634E+01 4.56581E-01 8.83592E-04 4.49210E-01-9.89475E-14 8.48749E-14
 -1      3773 1.96477E+01 5.25277E-01 1.66371E-03 4.42183E-01-1.49896E-13-4.86756E-14
 -1      3774 1.98466E+01 3.49144E-01-1.63522E-03 3.07175E-01 5.68251E-15-1.00397E-13
 -1      3775 1.98295E+01 3.84823E-01 7.30895E-04 3.51206E-01-5.65106E-14 6.37726E-14
 -1      3776 1.97409E+01 4.45401E-01 1.39853E-03 3.46095E-01-1.08939E-13-1.08751E-13
 -1      3777 1.98941E+01 2.83694E-01-1.34112E-03 2.34443E-01 6.88116E-16-1.42750E-13
 -1      3778 1.98812E+01 3.16269E-01 6.20221E-04 2.70496E-01 6.58576E-15-1.21125E-13
 -1      3779 1.98146E+01 3.68270E-01 1.13644E-03 2.67319E-01 5.32785E-14-9.83599E-14
 -1      3780 1.99299E+01 2.25711E-01-1.08095E-03 1.75905E-01 3.13095E-15-1.67939E-13
 -1      3781 1.99207E+01 2.54252E-01 5.29977E-04 2.04955E-01 2.94659E-15-1.07216E-13
 -1      3782 1.98714E+01 2.97846E-01 8.97741E-04 2.03410E-01-2.84897E-14-9.62154E-14
 -1      3783 1.99563E+01 1.76066E-01-8.56225E-04 1.29501E-01-4.60115E-14-2.68008E-13
 -1      3784 1.99499E+01 2.00295E-01 4.50715E-04 1.52527E-01-2.10857E-14-2.32042E-13
 -1      3785 1.99141E+01 2.36070E-01 6.91399E-04 1.52214E-01 5.64213E-14-1.66492E-13
 -1      3786 1.99751E+01 1.34711E-01-6.66409E-04 9.32981E-02 1.32290E-13-2.89019E-13
 -1      3787 1.99709E+01 1.54755E-01 3.79044E-04 1.11245E-01 3.16102E-14-3.01026E-13
 -1      3788 1.99456E+01 1.83538E-01 5.19660E-04 1.11781E-01 4.99479E-14-3.56284E-13
 -1      3789 1.99881E+01 1.01059E-01-5.09394E-04 6.55208E-02 8.25789E-14-1.04735E-14
 -1      3790 1.99855E+01 1.17271E-01 3.14223E-04 7.92691E-02 7.22975E-14-1.33610E-13
 -1      3791 1.99682E+01 1.39998E-01 3.80960E-04 8.03291E-02 2.30062E-15-1.88024E-13
 -1      3792 1.99967E+01 7.42410E-02-3.82051E-04 4.45823E-02-9.64388E-14 1.49508E-13
 -1      3793 1.99953E+01 8.70899E-02 2.56407E-04 5.49240E-02 9.55914E-14 4.37234E-14
 -1      3794 1.99839E+01 1.04707E-01 2.71801E-04 5.62584E-02-1.89265E-14-7.12952E-14
 -1      3795 2.00021E+01 5.32850E-02-2.80706E-04 2.90986E-02-7.87981E-14-7.74045E-16
 -1      3796 2.00015E+01 6.32728E-02 2.05827E-04 3.67262E-02-1.29304E-13 1.54266E-13
 -1      3797 1.99944E+01 7.66781E-02 1.87902E-04 3.81551E-02-5.49566E-14 9.62329E-14
 -1      3798 2.00053E+01 3.72208E-02-2.01528E-04 1.78911E-02 3.29565E-15-1.22938E-14
 -1      3799 2.00052E+01 4.48371E-02 1.62482E-04 2.33945E-02-4.40131E-14 1.23319E-14
 -1      3800 2.00011E+01 5.48411E-02 1.24890E-04 2.47971E-02-3.83960E-14 5.36192E-14
 -1      3801 2.00068E+01 2.51451E-02-1.40805E-04 9.97731E-03-6.31061E-14 6.89571E-14
 -1      3802 2.00071E+01 3.08392E-02 1.26084E-04 1.38479E-02 5.69845E-15 9.01082E-14
 -1      3803 2.00051E+01 3.81494E-02 7.86849E-05 1.51497E-02-1.19101E-13 1.82611E-13
 -1      3804 2.00073E+01 1.62544E-02-9.51196E-05 4.55464E-03-7.35503E-14 1.11568E-13
 -1      3805 2.00077E+01 2.04218E-02 9.61053E-05 7.19338E-03-8.64858E-14 6.57063E-14
 -1      3806 2.00071E+01 2.56381E-02 4.56808E-05 8.35408E-03-5.05564E-14 1.29577E-13
 -1      3807 2.00071E+01 9.85797E-03-6.14476E-05 9.79711E-04-3.61018E-13 2.08682E-13
 -1      3808 2.00076E+01 1.28359E-02 7.18675E-05 2.70731E-03-1.57996E-13 2.07415E-13
 -1      3809 2.00079E+01 1.64550E-02 2.28182E-05 3.71095E-03-2.15355E-13 1.70923E-13
 -1      3810 2.00065E+01 5.37773E-03-3.71944E-05-1.25382E-03-4.44936E-13 2.21203E-13
 -1      3811 2.00070E+01 7.44667E-03 5.26197E-05-1.85492E-04-4.36899E-13 2.44687E-13
 -1      3812 2.00078E+01 9.87069E-03 7.57756E-06 6.61196E-04-3.72912E-13 3.20516E-13
 -1      3813 2.00057E+01 2.34081E-03-2.01926E-05-2.53720E-03-1.52184E-13 2.92126E-14
 -1      3814 2.00062E+01 3.72886E-03 3.76037E-05-1.93401E-03-2.24800E-13 1.20014E-13
 -1      3815 2.00072E+01 5.27744E-03-2.06486E-06-1.23420E-03-2.22738E-13 2.10096E-13
 -1      3816 2.00048E+01 3.67791E-04-8.66500E-06-3.16701E-03-1.52254E-13-1.62610E-14
 -1      3817 2.00053E+01 1.25707E-03 2.60980E-05-2.88223E-03-2.30820E-13-2.06603E-14
 -1      3818 2.00064E+01 2.17938E-03-7.69798E-06-2.31375E-03-8.51925E-14 2.36382E-13
 -1      3819 2.00039E+01-8.40575E-04-1.18413E-06-3.36361E-03-7.66487E-15-1.52637E-13
 -1      3820 2.00043E+01-3.07057E-04 1.74418E-05-3.28861E-03-1.12120E-14-1.09689E-13
 -1      3821 2.00054E+01 1.79785E-04-1.05388E-05-2.83360E-03-7.38986E-14-6.90256E-14
 -1      3822 2.00031E+01-1.51713E-03 3.34515E-06-3.28705E-03-3.60204E-14-1.58586E-14
 -1      3823 2.00035E+01-1.22841E-03 1.10764E-05-3.34335E-03-1.13514E-13-2.11082E-13
 -1      3824 2.00045E+01-1.03359E-03-1.15287E-05-2.98385E-03-1.23624E-14-2.30708E-13
 -1      3825 2.00024E+01-1.84073E-03 5.85390E-06-3.04947E-03-3.72281E-14 1.53277E-13
 -1      3826 2.00027E+01-1.71216E-03 6.57291E-06-3.18242E-03 9.22594E-14 1.40650E-13
 -1      3827 2.00036E+01-1.70435E-03-1.15521E-05-2.90186E-03-1.60802E-13-4.27921E-14
 -1      3828 2.00017E+01-1.94534E-03 7.67551E-06-2.72771E-03 3.07889E-13-1.97780E-14
 -1      3829 2.00020E+01-1.91475E-03 3.44023E-06-2.89975E-03 1.31733E-13 9.64540E-14
 -1      3830 2.00027E+01-2.01740E-03-1.07867E-05-2.68455E-03 1.89933E-13-8.08375E-14
 -1      3831 2.00013E+01-1.95877E-03 3.09304E-06-2.39607E-03 2.55430E-13 4.12428E-14
 -1      3832 2.00015E+01-1.96932E-03-1.89488E-06-2.58462E-03 2.82919E-13-6.27751E-14
 -1      3833 2.00021E+01-2.12003E-03-8.27639E-06-2.41303E-03 3.36414E-13-4.08346E-13
 -1      3834 2.00017E+01-2.12463E-03 3.42604E-06-2.15180E-03 1.88477E-13-2.15817E-13
 -1      3835 1.40586E+01 7.99396E-01-7.39412E-03 1.39009E+00-3.53636E-14 3.41770E-13
 -1      3836 1.36449E+01 1.03012E+00 1.89811E-02 2.49032E-01-2.14175E-14 2.59116E-13
 -1      3837 2.45208E+01-2.34839E+00-9.51242E-03-2.23030E-01-6.08426E-14 1.01636E-13
 -1      3838 2.00023E+01-2.47180E-03-4.39469E-06-8.43295E-04-7.39329E-15-8.13100E-14
 -1      3839 2.00019E+01-2.41640E-03 6.65040E-06-9.93102E-04 4.71199E-14-7.98555E-14
 -1      3840 2.00017E+01-2.33492E-03-2.95981E-06-1.33300E-03 3.82996E-14 1.17688E-13
 -1      3841 1.80871E+01-6.23025E-02 2.39779E-02-2.34806E+00 5.71558E-14-2.54600E-14
 -1      3842 1.80109E+01 2.06076E-01-1.14981E-02-2.08889E+00 1.61910E-14-2.15075E-14
 -1      3843 1.75429E+01 5.41820E-01 1.25154E-02-1.86427E+00 1.48811E-14 7.79420E-14
 -1      3844 1.94632E+01-1.25441E+00-1.04375E-02 2.65992E+00-1.71799E-13-1.70747E-13
 -1      3845 1.83123E+01-7.04542E-01 4.79996E-02 2.86177E+00-2.21464E-13-7.43871E-15
 -1      3846 1.53768E+01-1.77203E-03 2.24350E-02-2.79125E+00 1.77277E-13 1.89015E-13
 -1      3847 1.70457E+01-9.42747E-01-1.25112E-02-3.42626E+00 2.20367E-13-1.09728E-13
 -1      3848 2.41593E+01-2.76836E+00-8.82514E-03-1.12702E+00-9.85999E-14 4.47489E-14
 -1      3849 2.33184E+01-3.69170E+00 1.29775E-02-2.40554E+00 1.64712E-13-4.75659E-13
 -1      3850 2.23732E+01-2.27057E+00 8.81541E-03-1.96634E+00-1.18801E-13-9.25315E-14
 -1      3851 1.36697E+01 9.70326E-01 8.61486E-03-7.41562E-01 9.01796E-15 1.53785E-13
 -1      3852 1.42574E+01 5.95409E-01-4.85357E-03-1.93521E+00 8.95516E-14 2.14266E-13
 -1      3853 2.00021E+01-2.20456E-03-7.19040E-06 2.06482E-03-7.37305E-14 2.21469E-13
 -1      3854 2.12518E+01-2.60182E+00-2.87848E-02 2.67868E+00-1.80575E-13-3.55092E-13
 -1      3855 1.75737E+01-2.54075E-01-2.08411E-02 2.52872E+00-2.35674E-13 6.13069E-14
 -1      3856 2.04242E+01-1.59877E+00-4.26131E-02-2.74157E+00-1.31041E-13-2.55266E-13
 -1      3857 1.53408E+01 6.40961E-01 2.61920E-02 1.71535E+00-1.19127E-13 2.17149E-13
 -1      3858 1.56515E+01 4.09981E-01 3.80513E-02-2.13760E+00 1.12933E-13 1.34073E-13
 -1      3859 1.46025E+01 1.05361E+00 3.68989E-02-2.71977E-01 1.45352E-14 2.17049E-13
 -1      3860 2.00018E+01-2.27746E-03-3.08117E-06-1.64189E-03 1.52078E-13-6.49249E-14
 -1      3861 2.00028E+01-2.49928E-03 3.84350E-06-6.87688E-04 4.99994E-15-1.91015E-13
 -1      3862 2.00026E+01-2.44868E-03-2.31889E-06-1.09948E-03-2.94788E-15-5.77976E-14
 -1      3863 1.77787E+01-4.07933E-01-5.45594E-03-2.74336E+00 1.07903E-13-8.67648E-14
 -1      3864 1.70071E+01 5.60325E-02 7.12032E-03-2.51153E+00 1.03855E-13 1.82675E-14
 -1      3865 2.00024E+01-2.31687E-03 4.71098E-06 1.71114E-03 1.36149E-14 2.26306E-14
 -1      3866 1.80094E+01-9.23777E-01 2.11575E-02-3.09475E+00 1.90651E-13-1.23932E-13
 -1      3867 2.00028E+01-2.53315E-03 6.88585E-07-2.13995E-04 3.36237E-15-1.49643E-13
 -1      3868 2.00032E+01-2.50644E-03-1.74724E-06-4.79428E-04 3.84477E-14-2.44132E-13
 -1      3869 2.00028E+01-2.53485E-03 8.30243E-07 2.15270E-04-1.14065E-13-1.64015E-13
 -1      3870 1.84598E+01-1.56361E+00 1.38195E-02-3.54080E+00 2.25684E-13-1.71835E-13
 -1      3871 1.92937E+01-2.27815E+00 7.57796E-02-3.80187E+00 2.58844E-13-2.17383E-13
 -1      3872 2.00023E+01-2.46937E-03-4.34109E-06 8.51347E-04-5.54685E-14-3.19517E-13
 -1      3873 1.80253E+01 9.75943E-01-7.11907E-05-9.63019E-01-2.19060E-14 9.07538E-14
 -1      3874 1.82072E+01 9.82486E-01-8.80111E-03-8.47146E-01-3.41307E-15-5.77400E-15
 -1      3875 1.84507E+01 9.77347E-01-7.70674E-05-7.62198E-01-2.31054E-14-1.89375E-14
 -1      3876 1.86038E+01 9.53045E-01-6.26487E-03-6.75969E-01-4.78786E-14-7.97090E-14
 -1      3877 1.81552E+01 1.07338E+00 8.70396E-03-6.26948E-01-3.30949E-14-2.79976E-14
 -1      3878 1.87956E+01 9.22401E-01-5.47372E-04-6.12718E-01-1.61832E-14-1.05840E-13
 -1      3879 1.89227E+01 8.80563E-01-4.63340E-03-5.44836E-01-2.95188E-14-5.41973E-14
 -1      3880 1.85719E+01 1.00877E+00 6.67967E-03-5.00357E-01-6.50249E-14-4.86225E-14
 -1      3881 1.90745E+01 8.35807E-01-6.54401E-04-4.95131E-01-9.97520E-16 1.79608E-14
 -1      3882 1.91780E+01 7.84932E-01-3.55328E-03-4.39597E-01 9.56922E-14 2.07910E-14
 -1      3883 1.89021E+01 9.14785E-01 5.18828E-03-4.04225E-01 2.27538E-14 9.15945E-15
 -1      3884 1.92983E+01 7.33692E-01-5.88785E-04-3.99069E-01 2.18957E-14 1.96943E-15
 -1      3885 1.93811E+01 6.79755E-01-2.80355E-03-3.52692E-01-5.21803E-14-7.28859E-14
 -1      3886 1.91644E+01 8.05881E-01 4.08647E-03-3.26884E-01 1.37965E-17-1.39368E-14
 -1      3887 1.94761E+01 6.27314E-01-4.67615E-04-3.19116E-01-1.97906E-14-6.50594E-14
 -1      3888 1.95413E+01 5.74442E-01-2.24792E-03-2.80173E-01 1.69293E-14-9.97357E-14
 -1      3889 1.93721E+01 6.92384E-01 3.23465E-03-2.62768E-01-3.40758E-14-2.74796E-15
 -1      3890 1.96156E+01 5.24284E-01-3.39704E-04-2.52294E-01 9.70650E-14-1.11698E-13
 -1      3891 1.96661E+01 4.75114E-01-1.81190E-03-2.19741E-01 8.23788E-14-5.31294E-14
 -1      3892 1.95354E+01 5.81804E-01 2.55522E-03-2.09048E-01 3.91910E-14 1.75212E-14
 -1      3893 1.97237E+01 4.29335E-01-2.26777E-04-1.96737E-01-2.21376E-15 1.56722E-15
 -1      3894 1.97621E+01 3.85356E-01-1.45661E-03-1.69812E-01-2.56869E-14-6.50109E-14
 -1      3895 1.96624E+01 4.79125E-01 2.00504E-03-1.64122E-01 6.32561E-14-7.49213E-14
 -1      3896 1.98062E+01 3.45026E-01-1.36640E-04-1.51045E-01-1.03163E-13-1.12130E-13
 -1      3897 1.98349E+01 3.06881E-01-1.16176E-03-1.29079E-01-1.80499E-13-1.84735E-13
 -1      3898 1.97600E+01 3.87236E-01 1.55774E-03-1.26897E-01-9.58927E-14-1.17704E-13
 -1      3899 1.98681E+01 2.72347E-01-6.97970E-05-1.13985E-01-1.39341E-13-1.66078E-13
 -1      3900 1.98892E+01 2.40100E-01-9.16153E-04-9.63387E-02-4.81903E-14-2.00396E-13
 -1      3901 1.98338E+01 3.07424E-01 1.19530E-03-9.64627E-02-7.69307E-14-4.28164E-14
 -1      3902 1.99137E+01 2.11230E-01-2.33484E-05-8.43909E-02-2.61286E-14-1.53864E-13
 -1      3903 1.99288E+01 1.84568E-01-7.12682E-04-7.04448E-02 4.92263E-14-1.65264E-13
 -1      3904 1.98888E+01 2.39831E-01 9.04020E-04-7.19659E-02-4.73809E-14 2.68905E-14
 -1      3905 1.99467E+01 1.60938E-01 6.77094E-06-6.11455E-02 8.15062E-14-2.52898E-13
 -1      3906 1.99573E+01 1.39329E-01-5.45933E-04-5.03101E-02 6.80561E-14-2.57668E-13
 -1      3907 1.99290E+01 1.83834E-01 6.72547E-04-5.25753E-02 1.21262E-14-1.19148E-13
 -1      3908 1.99699E+01 1.20358E-01 2.46206E-05-4.32003E-02 6.49643E-15-2.58927E-13
 -1      3909 1.99771E+01 1.03169E-01-4.11141E-04-3.49301E-02-7.14353E-14-2.86143E-13
 -1      3910 1.99577E+01 1.38364E-01 4.91010E-04-3.74930E-02 3.76330E-14-1.86186E-13
 -1      3911 1.99858E+01 8.82132E-02 3.37272E-05-2.95967E-02-7.27305E-14-2.59389E-13
 -1      3912 1.99905E+01 7.47839E-02-3.03833E-04-2.34021E-02-1.27697E-13-1.86426E-13
 -1      3913 1.99777E+01 1.02124E-01 3.50702E-04-2.59743E-02-3.96891E-14-1.42652E-13
 -1      3914 1.99963E+01 6.32030E-02 3.69177E-05-1.94833E-02-2.33502E-13-7.44864E-14
 -1      3915 1.99991E+01 5.28974E-02-2.19779E-04-1.49375E-02-2.05116E-13-5.00501E-14
 -1      3916 1.99911E+01 7.37558E-02 2.43972E-04-1.73459E-02-5.40453E-14-2.02712E-13
 -1      3917 2.00028E+01 4.40908E-02 3.63348E-05-1.21242E-02-2.44120E-13-1.03674E-13
 -1      3918 2.00044E+01 3.63273E-02-1.55053E-04-8.86438E-03-1.80927E-13-9.82129E-14
 -1      3919 1.99998E+01 5.19436E-02 1.64186E-04-1.10172E-02-3.02429E-13-2.27968E-13
 -1      3920 2.00065E+01 2.97566E-02 3.35325E-05-6.89910E-03-1.43522E-13-2.32794E-13
 -1      3921 2.00072E+01 2.40226E-02-1.06098E-04-4.62372E-03-6.71323E-14-2.52727E-13
 -1      3922 2.00050E+01 3.54785E-02 1.05687E-04-6.48358E-03-2.29940E-13-3.49655E-13
 -1      3923 2.00083E+01 1.92207E-02 2.95921E-05-3.29619E-03-2.35911E-14-3.47820E-13
 -1      3924 2.00085E+01 1.50777E-02-6.97867E-05-1.76015E-03-2.88403E-14-4.00596E-13
 -1      3925 2.00078E+01 2.32912E-02 6.37382E-05-3.32478E-03-1.34321E-13-5.64272E-13
 -1      3926 2.00089E+01 1.16499E-02 2.52353E-05-9.02328E-04-1.14770E-13-3.09513E-13
 -1      3927 2.00086E+01 8.73151E-03-4.34303E-05 8.97960E-05-1.48126E-13-3.63686E-13
 -1      3928 2.00089E+01 1.44641E-02 3.44415E-05-1.19819E-03-1.83596E-14-5.11521E-13
 -1      3929 2.00086E+01 6.35166E-03 2.09196E-05 6.09647E-04 6.39128E-15-3.47031E-13
 -1      3930 2.00082E+01 4.35840E-03-2.47755E-05 1.21067E-03 3.65449E-14-3.12314E-13
 -1      3931 2.00090E+01 8.22852E-03 1.46465E-05 1.69638E-04-3.35301E-14-3.56258E-13
 -1      3932 2.00078E+01 2.76227E-03 1.69159E-05 1.49380E-03 2.31652E-13-1.74295E-13
 -1      3933 2.00073E+01 1.45353E-03-1.19702E-05 1.82094E-03 3.00776E-13 3.90771E-14
 -1      3934 2.00085E+01 3.95443E-03 1.85000E-06 9.92678E-04 2.25100E-13-3.16292E-13
 -1      3935 2.00068E+01 4.30740E-04 1.33725E-05 1.94361E-03 8.20494E-14 2.29487E-14
 -1      3936 2.00063E+01-3.83427E-04-3.47735E-06 2.08497E-03 6.76981E-14-6.08625E-14
 -1      3937 2.00075E+01 1.13481E-03-5.88489E-06 1.43502E-03 2.13995E-13-6.23301E-14
 -1      3938 2.00057E+01-9.97894E-04 1.03480E-05 2.10352E-03 1.35478E-13-2.39325E-14
 -1      3939 2.00052E+01-1.46577E-03 1.79010E-06 2.12394E-03 1.17224E-13-7.73595E-15
 -1      3940 2.00064E+01-6.31255E-04-9.94900E-06 1.61988E-03 1.56133E-13 3.07973E-14
 -1      3941 2.00046E+01-1.79924E-03 7.76231E-06 2.07817E-03 6.86198E-14-1.78811E-14
 -1      3942 2.00042E+01-2.03337E-03 4.55632E-06 2.02428E-03 1.75585E-14 8.23506E-14
 -1      3943 2.00053E+01-1.65676E-03-1.14891E-05 1.63833E-03 8.92501E-14-3.19779E-14
 -1      3944 2.00036E+01-2.18732E-03 4.35846E-06 1.94306E-03-5.01956E-14 5.40054E-14
 -1      3945 2.00032E+01-2.27940E-03 4.24653E-06 1.84488E-03-1.38948E-14 1.04044E-13
 -1      3946 2.00042E+01-2.17982E-03-9.75825E-06 1.55676E-03-3.16167E-14-1.64423E-13
 -1      3947 1.78558E+01 2.94983E-01-1.26113E-02 1.89360E+00-9.04705E-14 6.68145E-14
 -1      3948 1.78936E+01 4.26151E-02 1.20905E-02 2.15340E+00-1.85487E-13 2.58938E-14
 -1      3949 1.66891E+01 3.12066E-01 1.00709E-02 2.22110E+00-1.95051E-13 1.65360E-14
 -1      3950 1.86004E+01 7.15728E-01-7.02483E-03 1.16118E+00-1.05371E-13 8.63811E-14
 -1      3951 1.85276E+01 6.49678E-01 3.67418E-03 1.31030E+00-5.23782E-14 1.01394E-13
 -1      3952 2.04415E+01-1.57588E+00 3.94681E-02 2.48428E+00-1.00650E-13-2.64831E-13
 -1      3953 1.88601E+01 7.70932E-01-5.67263E-03 9.19106E-01-9.25054E-14-1.09479E-14
 -1      3954 1.87788E+01 7.56206E-01 2.98516E-03 1.03127E+00-6.58377E-14 5.58758E-14
 -1      3955 1.84383E+01 8.53923E-01 5.85437E-03 9.86052E-01-4.33273E-14-3.15084E-14
 -1      3956 1.90908E+01 7.58949E-01-4.48571E-03 7.31039E-01-4.40487E-14-1.20063E-13
 -1      3957 1.90116E+01 7.74169E-01 1.80461E-03 8.20344E-01-7.58793E-14-8.38625E-14
 -1      3958 1.87499E+01 8.64514E-01 4.37686E-03 7.68718E-01-5.87104E-15-5.08094E-14
 -1      3959 1.92891E+01 7.04549E-01-3.60987E-03 5.81660E-01-1.66338E-13-1.70600E-13
 -1      3960 1.92177E+01 7.37356E-01 9.46690E-04 6.54435E-01-6.90188E-14-1.22457E-13
 -1      3961 1.90160E+01 8.21804E-01 3.76963E-03 6.04614E-01-5.93084E-14-1.95214E-13
 -1      3962 1.94550E+01 6.27374E-01-2.93629E-03 4.60863E-01-2.90855E-13-1.34344E-13
 -1      3963 1.93938E+01 6.69113E-01 5.10936E-04 5.20895E-01-2.50561E-13-1.42782E-13
 -1      3964 1.92377E+01 7.46941E-01 3.18744E-03 4.76916E-01-1.78129E-13-1.67505E-13
 -1      3965 1.95904E+01 5.40935E-01-2.39979E-03 3.62295E-01-9.04048E-14-2.33101E-13
 -1      3966 1.95400E+01 5.85651E-01 3.02799E-04 4.11987E-01-1.81961E-13-2.03136E-13
 -1      3967 1.94192E+01 6.56029E-01 2.65500E-03 3.75262E-01-2.19264E-13-1.95320E-13
 -1      3968 1.96987E+01 4.54190E-01-1.95859E-03 2.81802E-01-5.17535E-14-2.05000E-13
 -1      3969 1.96585E+01 4.97978E-01 2.10081E-04 3.22790E-01-1.02616E-13-2.17453E-13
 -1      3970 1.95656E+01 5.60274E-01 2.17793E-03 2.93346E-01-8.56248E-14-1.93010E-13
 -1      3971 1.97837E+01 3.72704E-01-1.58819E-03 2.16408E-01 3.01663E-15-6.62817E-14
 -1      3972 1.97523E+01 4.13192E-01 1.71848E-04 2.49933E-01 8.56791E-15-1.36631E-13
 -1      3973 1.96816E+01 4.67155E-01 1.75769E-03 2.27111E-01-6.48063E-14-1.13478E-13
 -1      3974 1.98490E+01 2.99579E-01-1.27489E-03 1.63762E-01-2.54708E-14-9.01375E-14
 -1      3975 1.98252E+01 3.35505E-01 1.56245E-04 1.90873E-01-4.77115E-14-5.81729E-14
 -1      3976 1.97721E+01 3.81278E-01 1.39456E-03 1.73719E-01-4.12745E-14-3.30437E-14
 -1      3977 1.98982E+01 2.36185E-01-1.01062E-03 1.21873E-01 4.35130E-14-1.42310E-13
 -1      3978 1.98806E+01 2.67061E-01 1.47645E-04 1.43505E-01 3.91459E-14-1.11634E-13
 -1      3979 1.98413E+01 3.05118E-01 1.08709E-03 1.31001E-01-2.64539E-15-2.69198E-13
 -1      3980 1.99345E+01 1.82741E-01-7.89762E-04 8.89864E-02 3.88096E-14-3.39170E-14
 -1      3981 1.99218E+01 2.08587E-01 1.39256E-04 1.05998E-01 3.53907E-14-6.82266E-14
 -1      3982 1.98933E+01 2.39634E-01 8.31961E-04 9.71800E-02 5.65887E-14-1.76504E-13
 -1      3983 1.99606E+01 1.38744E-01-6.07591E-04 6.35467E-02-6.54774E-15 5.66393E-14
 -1      3984 1.99518E+01 1.59891E-01 1.28843E-04 7.67182E-02 1.02500E-14 1.42904E-14
 -1      3985 1.99316E+01 1.84761E-01 6.24422E-04 7.07365E-02-3.68175E-14 1.62619E-13
 -1      3986 1.99790E+01 1.03282E-01-4.59564E-04 4.41796E-02-6.40880E-14-4.62707E-14
 -1      3987 1.99730E+01 1.20233E-01 1.16314E-04 5.42098E-02-4.01381E-14-3.82798E-14
 -1      3988 1.99590E+01 1.39802E-01 4.58836E-04 5.03516E-02-2.12396E-14 8.97769E-15
 -1      3989 1.99914E+01 7.52544E-02-3.41188E-04 2.96899E-02-1.07949E-13 5.01009E-14
 -1      3990 1.99875E+01 8.85828E-02 1.02415E-04 3.71928E-02-1.47747E-13-5.97192E-14
 -1      3991 1.99783E+01 1.03709E-01 3.29227E-04 3.48802E-02-4.10869E-14-7.03761E-14
 -1      3992 1.99994E+01 5.35183E-02-2.48078E-04 1.90563E-02-1.38645E-13 1.12468E-13
 -1      3993 1.99971E+01 6.38026E-02 8.80713E-05 2.45594E-02-4.31515E-14 9.25293E-14
 -1      3994 1.99912E+01 7.52837E-02 2.29715E-04 2.33380E-02-1.35880E-13-3.43355E-14
 -1      3995 2.00043E+01 3.69774E-02-1.76082E-04 1.14220E-02-4.17080E-14 1.89017E-14
 -1      3996 2.00031E+01 4.47633E-02 7.40895E-05 1.53693E-02-9.71268E-14 1.55231E-13
 -1      3997 1.99996E+01 5.33114E-02 1.54822E-04 1.48909E-02-9.77755E-14 7.33658E-14
 -1      3998 2.00069E+01 2.46356E-02-1.21399E-04 6.08115E-03-1.30867E-13 9.19100E-14
 -1      3999 2.00064E+01 3.04131E-02 6.10598E-05 8.83891E-03-6.24548E-14 4.86438E-14
 -1      4000 2.00047E+01 3.66451E-02 9.96477E-05 8.84384E-03-7.27691E-14 1.46339E-14
 -1      4001 2.00081E+01 1.56211E-02-8.06496E-05 2.46259E-03-3.33675E-13 2.62665E-13
 -1      4002 2.00080E+01 1.98154E-02 4.93479E-05 4.32751E-03-2.96173E-13 1.48298E-13
 -1      4003 2.00074E+01 2.42513E-02 5.99566E-05 4.62691E-03-2.49962E-13 1.55565E-13
 -1      4004 2.00082E+01 9.19354E-03-5.09161E-05 1.12309E-04-3.33204E-13 2.51612E-13
 -1      4005 2.00085E+01 1.21631E-02 3.91305E-05 1.32026E-03-2.82606E-13 2.72083E-13
 -1      4006 2.00086E+01 1.52318E-02 3.21870E-05 1.78084E-03-3.15234E-13 1.08211E-13
 -1      4007 2.00077E+01 4.73922E-03-2.97385E-05-1.32442E-03-1.91593E-13 1.97799E-13
 -1      4008 2.00082E+01 6.77947E-03 3.04427E-05-5.89198E-04-3.06250E-13 2.10535E-13
 -1      4009 2.00087E+01 8.82749E-03 1.34150E-05-5.83468E-05-2.62489E-13 1.40514E-13
 -1      4010 2.00069E+01 1.75985E-03-1.50981E-05-2.11974E-03-4.17040E-14 2.38292E-13
 -1      4011 2.00074E+01 3.10940E-03 2.32231E-05-1.71600E-03-4.74101E-14 2.71642E-13
 -1      4012 2.00082E+01 4.41136E-03 1.29000E-06-1.17420E-03-1.57012E-13 1.94343E-14
 -1      4013 2.00059E+01-1.41649E-04-5.38289E-06-2.47843E-03 1.02079E-13-6.49926E-14
 -1      4014 2.00065E+01 7.06445E-04 1.73436E-05-2.29997E-03 2.60215E-14 1.30991E-13
 -1      4015 2.00073E+01 1.47609E-03-6.03639E-06-1.78367E-03 6.74674E-14 2.01517E-14
 -1      4016 2.00049E+01-1.27591E-03 1.12739E-06-2.55128E-03-8.17601E-14-1.24790E-13
 -1      4017 2.00054E+01-7.82035E-04 1.26053E-05-2.51991E-03 7.39183E-14-3.13031E-14
 -1      4018 2.00062E+01-3.81343E-04-9.91563E-06-2.04927E-03 1.32161E-13 4.37263E-14
 -1      4019 2.00039E+01-1.88618E-03 4.70316E-06-2.45066E-03 7.70777E-15-6.83567E-15
 -1      4020 2.00044E+01-1.63046E-03 8.57607E-06-2.50889E-03-1.87901E-13-4.73120E-14
 -1      4021 2.00052E+01-1.47343E-03-1.17261E-05-2.09042E-03-1.45212E-13 5.03034E-14
 -1      4022 2.00030E+01-2.15625E-03 6.50938E-06-2.24686E-03 3.04442E-13-1.68956E-13
 -1      4023 2.00034E+01-2.05127E-03 6.54553E-06-2.35415E-03 2.21285E-13-1.36050E-13
 -1      4024 2.00041E+01-2.05610E-03-1.35607E-05-2.00096E-03 1.50815E-13-1.85155E-13
 -1      4025 1.74904E+01 8.91813E-01-3.07365E-03-1.24874E+00 2.68472E-14 1.46544E-13
 -1      4026 1.77119E+01 9.45512E-01-1.28462E-02-1.07681E+00 2.32581E-14 1.35709E-13
 -1      4027 1.76329E+01 1.08842E+00 1.29207E-02-8.01048E-01 5.82282E-15 1.12759E-13
 -1      4028 1.59508E+01 6.11816E-01-1.14349E-02-1.79378E+00 6.68779E-14 1.42972E-13
 -1      4029 2.00029E+01-2.35388E-03 8.94475E-08 1.56117E-03-2.86746E-14-8.93747E-15
 -1      4030 2.00026E+01-2.45147E-03-1.91092E-06 1.09299E-03-3.84018E-14-1.26683E-13
 -1      4031 2.00028E+01-2.50234E-03 4.93803E-06 6.84585E-04-1.40374E-13-1.46713E-13
 -1      4032 2.00034E+01-2.41528E-03 1.17874E-06 1.21234E-03-4.31437E-14-1.47762E-13
 -1      4033 1.82542E+01 5.74735E-01-9.48593E-03 1.46103E+00-6.23678E-14 7.21170E-14
 -1      4034 1.82072E+01 4.46343E-01 7.71764E-03 1.65768E+00-5.57641E-14 6.39809E-14
 -1      4035 1.73972E+01 6.40379E-01 8.46216E-03 1.59575E+00-8.25836E-14-4.86486E-14
 -1      4036 1.80102E+01 7.65843E-01 3.31445E-05 1.26025E+00-8.41655E-14-1.07087E-13
 -1      4037 1.67111E+01 7.11136E-01 9.41399E-05-1.61112E+00 2.66768E-14 8.87812E-14
 -1      4038 1.69681E+01 8.39956E-01-1.63925E-02-1.35569E+00 1.79560E-14 1.10741E-13
 -1      4039 1.68460E+01 1.06770E+00 2.02818E-02-9.74259E-01 8.95724E-15 1.08388E-13
 -1      4040 1.55518E+01 1.00660E+00 2.34438E-02-1.14143E+00 2.89971E-14 9.97347E-14
 -1      4041 1.52807E+01 1.15223E+00 1.57771E-02 4.70180E-01-3.41368E-14 2.24769E-13
 -1      4042 1.52328E+01 1.08983E+00-1.62050E-02-4.37605E-01 1.04443E-14 1.56635E-13
 -1      4043 1.60498E+01 1.13092E+00-2.56059E-03-4.27220E-01-3.06417E-15 1.22432E-13
 -1      4044 1.56658E+01 8.04168E-01-1.96400E-02 1.37902E+00-9.43143E-14 1.53141E-13
 -1      4045 2.00024E+01-2.36655E-03 5.64047E-06-1.46859E-03 1.21718E-13 4.94147E-15
 -1      4046 2.00020E+01-2.24606E-03-3.22516E-07-1.84923E-03 1.77405E-13-4.71181E-14
 -1      4047 2.00023E+01-2.23459E-03 1.67313E-06-1.98274E-03 2.16696E-13-3.68481E-14
 -1      4048 2.00028E+01-2.41389E-03 5.58646E-07-1.32633E-03 5.66564E-14-6.16134E-14
 -1      4049 1.63624E+01 9.33297E-01 7.50517E-03 1.06249E+00-1.05129E-13 1.03492E-13
 -1      4050 2.00025E+01-2.21674E-03 1.93146E-06-2.09975E-03 2.70389E-13-1.17372E-13
 -1      4051 2.00037E+01-2.49319E-03 2.83544E-06-2.72473E-04-4.16894E-14-3.80114E-13
 -1      4052 2.00036E+01-2.45967E-03-2.05748E-06-7.38478E-04 2.64775E-14-3.30991E-13
 -1      4053 2.00032E+01-2.51558E-03-2.95443E-07 4.68456E-04-8.65371E-14-1.30788E-13
 -1      4054 2.00039E+01-2.31461E-03 1.52037E-06-1.22757E-03 1.98888E-13-4.59439E-13
 -1      4055 2.00034E+01-2.36476E-03 5.95544E-07-1.42921E-03 1.66108E-13-1.83093E-13
 -1      4056 2.00031E+01-2.29915E-03-8.41808E-06-1.79347E-03 2.51014E-13-5.06176E-14
 -1      4057 1.83736E+01 1.04883E+00-3.94991E-03-3.47533E-01-7.53226E-14 4.17192E-14
 -1      4058 1.85620E+01 1.00455E+00-5.30279E-03-3.06173E-01-7.87314E-14 3.33588E-14
 -1      4059 1.87484E+01 9.56018E-01-2.97800E-03-2.84144E-01-1.83802E-14-1.30411E-14
 -1      4060 1.88976E+01 9.02379E-01-3.90475E-03-2.51083E-01 1.94045E-14-6.44989E-14
 -1      4061 1.86168E+01 1.02556E+00 1.12753E-02-1.37782E-01-5.29220E-14-1.85576E-13
 -1      4062 1.90442E+01 8.46917E-01-2.29584E-03-2.32723E-01-2.07778E-14-1.12952E-13
 -1      4063 1.91625E+01 7.89231E-01-2.97677E-03-2.04999E-01 2.54473E-15-1.22126E-13
 -1      4064 1.89407E+01 9.11302E-01 8.67292E-03-1.17759E-01-4.52336E-14-2.42240E-13
 -1      4065 1.92782E+01 7.31701E-01-1.78117E-03-1.89453E-01 2.40761E-14-1.21603E-13
 -1      4066 1.93716E+01 6.74122E-01-2.31997E-03-1.65744E-01-9.75493E-15-1.19508E-13
 -1      4067 1.91966E+01 7.90840E-01 6.75240E-03-9.92496E-02 1.31686E-14-2.12832E-13
 -1      4068 1.94625E+01 6.18158E-01-1.37766E-03-1.52553E-01-3.49923E-14-9.70697E-14
 -1      4069 1.95356E+01 5.63643E-01-1.82674E-03-1.32240E-01 1.92581E-14-1.13574E-13
 -1      4070 1.93985E+01 6.71521E-01 5.28035E-03-8.22291E-02-2.35509E-14-2.87455E-13
 -1      4071 1.96065E+01 5.11688E-01-1.05671E-03-1.21141E-01 9.41593E-14-1.87074E-13
 -1      4072 1.96629E+01 4.62109E-01-1.43996E-03-1.03886E-01 1.94984E-14-1.98981E-13
 -1      4073 1.95567E+01 5.58818E-01 4.12157E-03-6.68487E-02-1.55630E-14-2.67109E-13
 -1      4074 1.97176E+01 4.15598E-01-8.01308E-04-9.46799E-02-5.39746E-14-1.48651E-13
 -1      4075 1.97607E+01 3.71940E-01-1.12886E-03-8.02269E-02-9.33940E-14-1.90979E-13
 -1      4076 1.96794E+01 4.56315E-01 3.19538E-03-5.32753E-02-9.23410E-15-2.60585E-13
 -1      4077 1.98022E+01 3.31521E-01-5.99409E-04-7.27229E-02-1.46894E-13-1.94651E-13
 -1      4078 1.98346E+01 2.94101E-01-8.76091E-04-6.08158E-02-1.07657E-13-1.17720E-13
 -1      4079 1.97734E+01 3.65952E-01 2.45135E-03-4.15978E-02-1.01467E-13-3.70213E-13
 -1      4080 1.98657E+01 2.59849E-01-4.41430E-04-5.48144E-02-1.39986E-14-1.54286E-13
 -1      4081 1.98895E+01 2.28518E-01-6.70889E-04-4.51761E-02-1.19974E-14-1.26871E-13
 -1      4082 1.98443E+01 2.88377E-01 1.85530E-03-3.18006E-02-9.16321E-14-2.59043E-13
 -1      4083 1.99125E+01 2.00126E-01-3.19307E-04-4.04702E-02-8.33257E-14-6.71649E-14
 -1      4084 1.99297E+01 1.74437E-01-5.05594E-04-3.28078E-02 2.14997E-14-1.12408E-13
 -1      4085 1.98969E+01 2.23311E-01 1.38165E-03-2.37763E-02 2.34620E-15-3.03571E-13
 -1      4086 1.99462E+01 1.51370E-01-2.26162E-04-2.91922E-02 9.58179E-14-1.23431E-13
 -1      4087 1.99583E+01 1.30708E-01-3.74043E-04-2.32107E-02 3.07323E-14-6.35482E-14
 -1      4088 1.99351E+01 1.69865E-01 1.00961E-03-1.73529E-02 2.41653E-14-2.13229E-13
 -1      4089 1.99699E+01 1.12314E-01-1.56149E-04-2.04916E-02-1.28381E-13-9.28824E-14
 -1      4090 1.99782E+01 9.59986E-02-2.70870E-04-1.59085E-02-7.99934E-14-1.06834E-13
 -1      4091 1.99623E+01 1.26804E-01 7.21475E-04-1.23238E-02-7.45532E-14-1.09653E-13
 -1      4092 1.99861E+01 8.15941E-02-1.04363E-04-1.39098E-02-3.81649E-14-2.83931E-13
 -1      4093 1.99916E+01 6.89394E-02-1.91271E-04-1.04658E-02-1.98898E-13-2.85194E-13
 -1      4094 1.99811E+01 9.27409E-02 5.01843E-04-8.47159E-03-1.92047E-13-2.64251E-13
 -1      4095 1.99968E+01 5.78596E-02-6.67488E-05-9.03362E-03-2.97396E-13-2.21393E-13
 -1      4096 2.00002E+01 4.82215E-02-1.30952E-04-6.49912E-03-3.35592E-13-3.14117E-13
 -1      4097 1.99936E+01 6.62760E-02 3.37375E-04-5.58601E-03-2.20334E-13-2.62729E-13
 -1      4098 2.00034E+01 3.98549E-02-3.99976E-05-5.50292E-03-3.26167E-13-2.45044E-13
 -1      4099 2.00053E+01 3.26526E-02-8.61327E-05-3.68049E-03-3.06270E-13-3.35296E-13
 -1      4100 2.00015E+01 4.60847E-02 2.16644E-04-3.47509E-03-2.82999E-13-1.96660E-13
 -1      4101 2.00071E+01 2.64577E-02-2.14524E-05-3.01262E-03-2.14865E-13-3.09159E-13
 -1      4102 2.00081E+01 2.11859E-02-5.35550E-05-1.73707E-03-9.20355E-15-4.04517E-13
 -1      4103 2.00062E+01 3.09690E-02 1.30023E-04-1.97092E-03-2.51511E-13-4.28386E-14
 -1      4104 2.00089E+01 1.66975E-02-9.00767E-06-1.31080E-03-6.66262E-14-3.21459E-13
 -1      4105 2.00092E+01 1.29277E-02-3.04711E-05-4.47058E-04-8.13309E-14-3.06687E-13
 -1      4106 2.00086E+01 1.98830E-02 6.95492E-05-9.31561E-04-7.06739E-14 5.62373E-14
 -1      4107 2.00093E+01 9.75596E-03-1.01825E-06-1.94097E-04-4.10531E-14-2.12749E-13
 -1      4108 2.00092E+01 7.13348E-03-1.46114E-05 3.65938E-04 4.19430E-14-1.65314E-13
 -1      4109 2.00094E+01 1.19379E-02 2.87537E-05-2.40412E-04-3.31071E-14 1.80912E-14
 -1      4110 2.00090E+01 4.95858E-03 3.78352E-06 4.98222E-04 2.34324E-13-2.40433E-13
 -1      4111 2.00086E+01 3.19541E-03-4.13371E-06 8.39312E-04 3.33558E-13-2.04809E-13
 -1      4112 2.00093E+01 6.39592E-03 2.48942E-06 1.95959E-04 1.50434E-13-4.37202E-14
 -1      4113 2.00081E+01 1.75987E-03 6.35800E-06 8.90619E-04 2.48951E-13-2.72346E-13
 -1      4114 2.00076E+01 6.26400E-04 2.44940E-06 1.07783E-03 1.65097E-13-2.13859E-13
 -1      4115 2.00086E+01 2.65729E-03-1.32154E-05 4.50820E-04 2.66617E-13-1.71192E-13
 -1      4116 2.00071E+01-2.74035E-04 7.36725E-06 1.07737E-03 1.08138E-13-2.54723E-13
 -1      4117 2.00065E+01-9.57747E-04 6.10080E-06 1.15937E-03 7.97543E-14-2.53127E-13
 -1      4118 2.00076E+01 2.43199E-04-2.10649E-05 5.80762E-04 1.27404E-13-3.89167E-13
 -1      4119 2.00059E+01-1.48292E-03 7.17205E-06 1.12724E-03 7.10096E-14-1.76441E-13
 -1      4120 2.00053E+01-1.85732E-03 5.68117E-06 1.13783E-03 3.93865E-14-2.64614E-13
 -1      4121 2.00064E+01-1.21970E-03-2.07721E-05 6.30110E-04 4.11751E-14-4.25490E-13
 -1      4122 2.00048E+01-2.12472E-03 6.21385E-06 1.09492E-03-1.03886E-13-2.40535E-13
 -1      4123 2.00042E+01-2.29982E-03 2.20630E-06 1.06805E-03-1.25539E-13-2.83003E-13
 -1      4124 2.00052E+01-2.02280E-03-1.78073E-05 6.27514E-04-4.10800E-14-2.22702E-13
 -1      4125 1.86531E+01 9.14930E-01-7.07643E-03 5.78674E-01 2.29537E-14 2.10731E-14
 -1      4126 1.85141E+01 9.39221E-01 4.16016E-04 6.61283E-01 4.46364E-14 9.42706E-14
 -1      4127 1.89520E+01 8.47448E-01-5.25800E-03 4.51602E-01-8.19220E-14 2.51738E-14
 -1      4128 1.88345E+01 8.88145E-01-4.50351E-05 5.14821E-01-1.47647E-14 6.14926E-14
 -1      4129 1.86469E+01 9.82295E-01 1.25530E-02 4.19965E-01-1.52189E-15 1.52207E-13
 -1      4130 1.91943E+01 7.57149E-01-4.04373E-03 3.53365E-01-2.73594E-13 9.06270E-15
 -1      4131 1.90968E+01 8.06541E-01-2.78761E-04 4.03314E-01-1.41770E-13 8.30655E-15
 -1      4132 1.89537E+01 8.89510E-01 9.71708E-03 3.23634E-01-1.05831E-13 2.16146E-13
 -1      4133 1.93894E+01 6.56880E-01-3.17553E-03 2.75827E-01-1.54955E-13-6.62661E-14
 -1      4134 1.93101E+01 7.09338E-01-3.45387E-04 3.16070E-01-2.63365E-13-8.01253E-14
 -1      4135 1.92000E+01 7.82692E-01 7.57607E-03 2.50394E-01-1.54200E-13 7.93817E-14
 -1      4136 1.95449E+01 5.55784E-01-2.52104E-03 2.13940E-01-9.27804E-14-7.11624E-14
 -1      4137 1.94815E+01 6.07335E-01-3.22781E-04 2.46651E-01-9.73725E-14-1.32949E-13
 -1      4138 1.93968E+01 6.71724E-01 5.93641E-03 1.93576E-01-9.15310E-14-7.54983E-14
 -1      4139 1.96673E+01 4.59949E-01-2.00682E-03 1.64383E-01-8.38906E-14-7.99670E-14
 -1      4140 1.96175E+01 5.07998E-01-2.61866E-04 1.90990E-01-6.29050E-14-1.09199E-13
 -1      4141 1.95526E+01 5.63771E-01 4.64839E-03 1.48935E-01-2.45764E-14-4.03822E-14
 -1      4142 1.97621E+01 3.73033E-01-1.59187E-03 1.24807E-01 2.37047E-14-1.62298E-13
 -1      4143 1.97238E+01 4.16082E-01-1.91424E-04 1.46339E-01-9.38533E-14-1.26951E-13
 -1      4144 1.96746E+01 4.63612E-01 3.61831E-03 1.13666E-01-5.87683E-14-1.23569E-13
 -1      4145 1.98345E+01 2.96862E-01-1.25275E-03 9.34212E-02 6.44503E-14-2.13561E-13
 -1      4146 1.98055E+01 3.34235E-01-1.26063E-04 1.10691E-01 1.09375E-13-1.67251E-13
 -1      4147 1.97686E+01 3.74044E-01 2.78836E-03 8.58136E-02 1.83660E-14-1.65528E-13
 -1      4148 1.98887E+01 2.31955E-01-9.75028E-04 6.87752E-02 7.32151E-14-8.76997E-14
 -1      4149 1.98673E+01 2.63558E-01-7.19860E-05 8.24692E-02 4.81500E-14-1.67386E-13
 -1      4150 1.98401E+01 2.96320E-01 2.12051E-03 6.39246E-02 5.89556E-14-9.81889E-14
 -1      4151 1.99285E+01 1.77958E-01-7.48800E-04 4.96540E-02-9.25810E-14 1.72248E-14
 -1      4152 1.99130E+01 2.04076E-01-3.07205E-05 6.03704E-02-3.34034E-14 7.28859E-14
 -1      4153 1.98933E+01 2.30574E-01 1.58706E-03 4.68623E-02-7.63605E-14-6.70465E-14
 -1      4154 1.99572E+01 1.33986E-01-5.66315E-04 3.50224E-02 4.51820E-15-2.17826E-14
 -1      4155 1.99462E+01 1.55130E-01-1.41277E-06 4.32876E-02 8.00594E-15 2.44043E-14
 -1      4156 1.99323E+01 1.76197E-01 1.16580E-03 3.37038E-02-8.74956E-15-6.09161E-14
 -1      4157 1.99772E+01 9.88752E-02-4.20954E-04 2.39976E-02-1.18045E-14-2.24481E-14
 -1      4158 1.99697E+01 1.15667E-01 1.78236E-05 3.02724E-02 2.81825E-14 2.61614E-14
 -1      4159 1.99601E+01 1.32130E-01 8.37789E-04 2.36841E-02-2.06086E-14-9.06139E-14
 -1      4160 1.99907E+01 7.13613E-02-3.06807E-04 1.58331E-02-1.09591E-13-3.07645E-14
 -1      4161 1.99858E+01 8.44509E-02 2.91499E-05 2.05149E-02-1.31147E-13-3.03059E-15
 -1      4162 1.99794E+01 9.70932E-02 5.86442E-04 1.61655E-02-7.79886E-14 4.42783E-14
 -1      4163 1.99994E+01 5.01960E-02-2.18552E-04 9.90422E-03-1.52801E-13 3.72973E-15
 -1      4164 1.99964E+01 6.02124E-02 3.46110E-05 1.33308E-02-1.42298E-13-3.98505E-14
 -1      4165 1.99924E+01 6.97455E-02 3.97236E-04 1.06173E-02-1.51071E-13-4.72569E-15
 -1      4166 2.00047E+01 3.42198E-02-1.51449E-04 5.69643E-03-1.53085E-13 8.59278E-14
 -1      4167 2.00031E+01 4.17392E-02 3.59598E-05 8.14946E-03-5.46606E-14 1.99341E-14
 -1      4168 2.00007E+01 4.87885E-02 2.57602E-04 6.60136E-03-1.30802E-13 2.28905E-14
 -1      4169 2.00076E+01 2.24002E-02-1.01347E-04 2.79185E-03-2.65025E-13 2.36567E-14
 -1      4170 2.00068E+01 2.79304E-02 3.46047E-05 4.50245E-03-2.26990E-13 4.41793E-14
 -1      4171 2.00056E+01 3.30312E-02 1.56845E-04 3.76014E-03-1.64666E-13-3.16989E-14
 -1      4172 2.00088E+01 1.38474E-02-6.46838E-05 8.56518E-04-1.98556E-13-1.07492E-14
 -1      4173 2.00086E+01 1.78224E-02 3.16216E-05 2.01099E-03-2.68421E-13 5.65640E-14
 -1      4174 2.00082E+01 2.14218E-02 8.60462E-05 1.80533E-03-2.16958E-13-9.67566E-14
 -1      4175 2.00089E+01 7.81430E-03-3.84634E-05-3.72240E-04-7.37340E-14-2.37211E-13
 -1      4176 2.00092E+01 1.05960E-02 2.77963E-05 3.73727E-04-1.36769E-13-1.09836E-13
 -1      4177 2.00092E+01 1.30599E-02 3.79056E-05 5.07805E-04-9.54942E-14-2.46966E-13
 -1      4178 2.00084E+01 3.68751E-03-2.02066E-05-1.09763E-03-5.27359E-14-3.59466E-13
 -1      4179 2.00088E+01 5.57151E-03 2.36788E-05-6.45194E-04-1.07522E-13-2.22006E-13
 -1      4180 2.00092E+01 7.19333E-03 6.57036E-06-3.11917E-04-6.94266E-14-2.81947E-13
 -1      4181 2.00075E+01 9.73007E-04-7.88746E-06-1.47407E-03 1.25196E-13-1.84959E-13
 -1      4182 2.00080E+01 2.19601E-03 1.96396E-05-1.22732E-03-4.08999E-14-2.53918E-13
 -1      4183 2.00086E+01 3.20726E-03-1.25472E-05-7.92281E-04-4.79311E-14-5.32596E-13
 -1      4184 2.00064E+01-7.20405E-04-1.76961E-08-1.61622E-03-4.79826E-15-1.43609E-13
 -1      4185 2.00070E+01 2.79120E-05 1.59060E-05-1.50977E-03 1.88247E-13-1.60968E-13
 -1      4186 2.00076E+01 6.08228E-04-2.28722E-05-1.03854E-03 4.80770E-14-6.19689E-13
 -1      4187 2.00053E+01-1.69121E-03 8.51444E-06-1.60061E-03-7.75053E-14-3.60803E-13
 -1      4188 2.00059E+01-1.28134E-03 1.25169E-05-1.59184E-03-1.27605E-13-1.80651E-13
 -1      4189 2.00064E+01-9.93188E-04-2.57723E-05-1.12959E-03 7.04922E-16-5.05204E-13
 -1      4190 2.00044E+01-2.17652E-03 7.01578E-06-1.39299E-03 2.61869E-13-5.19022E-13
 -1      4191 2.00049E+01-1.96314E-03 7.35712E-06-1.43368E-03 9.13330E-14-4.52025E-13
 -1      4192 2.00054E+01-1.86528E-03-2.35853E-05-9.95408E-04-2.01331E-14-7.31026E-13
 -1      4193 2.00045E+01-2.28889E-03-1.46528E-05-6.94236E-04 7.39186E-14-6.72309E-13
 -1      4194 1.72538E+01 1.11656E+00-1.55954E-02-5.52825E-01 2.89801E-14 1.51837E-13
 -1      4195 1.75765E+01 1.12342E+00-1.29595E-02-4.73875E-01 2.00362E-14 1.34787E-13
 -1      4196 2.00040E+01-2.43524E-03-1.17485E-06 3.07279E-04-3.85780E-14-3.75884E-13
 -1      4197 2.00044E+01-2.34411E-03 6.24806E-06 3.15032E-05-8.17542E-14-3.15086E-13
 -1      4198 2.00039E+01-2.40927E-03-3.59865E-06 7.67772E-04-7.11205E-14-2.96863E-13
 -1      4199 1.64156E+01 1.11656E+00-1.65778E-02-5.36893E-01 5.12897E-14 1.07443E-13
 -1      4200 1.69610E+01 1.14736E+00-4.75563E-03-5.06478E-01 3.49366E-14 1.23611E-13
 -1      4201 1.70604E+01 1.25568E+00 3.09221E-02-1.33554E-01 6.06017E-14 1.41835E-13
 -1      4202 1.63676E+01 1.22472E+00 1.62125E-02 1.04823E-01 4.38885E-16 1.65571E-13
 -1      4203 1.82845E+01 9.41214E-01-1.06008E-02 7.48074E-01-3.89445E-15-9.17235E-15
 -1      4204 1.81387E+01 9.41970E-01 2.75412E-03 8.58612E-01-4.61666E-14 1.77906E-14
 -1      4205 1.82640E+01 1.04767E+00 1.60277E-02 5.49993E-01-2.35698E-14 1.83412E-14
 -1      4206 1.78955E+01 1.11425E+00-4.56090E-03-4.31041E-01-8.59831E-14 1.14523E-13
 -1      4207 1.81336E+01 1.08516E+00-7.42587E-03-3.75029E-01-7.49607E-14 7.68247E-14
 -1      4208 1.76688E+01 1.20424E+00 2.07314E-02-1.88734E-01-4.92602E-14 1.26959E-13
 -1      4209 1.82051E+01 1.12511E+00 1.50302E-02-1.59645E-01-8.29122E-14 3.93964E-14
 -1      4210 1.69744E+01 8.22255E-01 5.29737E-03 1.36192E+00-9.35096E-14 1.29237E-15
 -1      4211 1.64507E+01 1.11915E+00-6.97279E-03 5.84710E-01-7.22513E-14 1.57953E-13
 -1      4212 2.00049E+01-2.18898E-03 7.62001E-06-9.40559E-05 2.21489E-14-4.19108E-13
 -1      4213 1.75830E+01 1.06178E+00 1.37898E-02 7.60516E-01-1.20197E-13-2.86282E-14
 -1      4214 1.76598E+01 9.16264E-01-7.54273E-03 1.03909E+00-1.26157E-13-1.19582E-14
 -1      4215 1.68070E+01 1.11551E+00-1.34170E-02 4.32170E-01-2.13469E-14 1.29534E-13
 -1      4216 1.73817E+01 8.69470E-01-2.00298E-03 1.17482E+00-8.84969E-14-1.86303E-14
 -1      4217 1.88908E+01 8.88936E-01-7.49114E-03 8.47602E-02-1.02068E-13-8.37384E-16
 -1      4218 1.90405E+01 8.36105E-01-4.46118E-03 8.52740E-02-6.73994E-14-4.13896E-14
 -1      4219 1.91558E+01 7.77321E-01-5.78788E-03 6.09987E-02-5.37624E-14-1.32318E-13
 -1      4220 1.92739E+01 7.22098E-01-3.44826E-03 6.27553E-02-1.30011E-14-1.30100E-13
 -1      4221 1.93654E+01 6.63826E-01-4.51577E-03 4.38615E-02-1.12178E-14-1.85557E-13
 -1      4222 1.94582E+01 6.09829E-01-2.66446E-03 4.63253E-02-4.58386E-14-1.66403E-13
 -1      4223 1.95302E+01 5.54888E-01-3.53395E-03 3.14482E-02-5.54879E-14-1.54109E-13
 -1      4224 1.96025E+01 5.04574E-01-2.04712E-03 3.42100E-02 7.46240E-15-2.18407E-13
 -1      4225 1.96585E+01 4.54751E-01-2.75740E-03 2.24378E-02-1.35041E-15-2.40739E-13
 -1      4226 1.97143E+01 4.09587E-01-1.55668E-03 2.52038E-02-4.43982E-14-1.88193E-13
 -1      4227 1.97572E+01 3.65812E-01-2.13521E-03 1.58940E-02-3.03648E-14-1.74285E-13
 -1      4228 1.97996E+01 3.26484E-01-1.16710E-03 1.84733E-02-3.98897E-14-1.77804E-13
 -1      4229 1.98320E+01 2.89040E-01-1.63520E-03 1.11460E-02-3.16300E-15-1.50175E-13
 -1      4230 1.98638E+01 2.55663E-01-8.59700E-04 1.34312E-02 8.28616E-15-1.01179E-13
 -1      4231 1.98877E+01 2.24371E-01-1.23504E-03 7.70978E-03-6.12166E-14-1.62109E-13
 -1      4232 1.99111E+01 1.96676E-01-6.19866E-04 9.65553E-03-1.87059E-14-1.66552E-13
 -1      4233 1.99284E+01 1.71069E-01-9.17621E-04 5.23391E-03 1.75681E-14-2.28437E-13
 -1      4234 1.99453E+01 1.48552E-01-4.35449E-04 6.83748E-03 9.28534E-15-2.64636E-13
 -1      4235 1.99576E+01 1.27999E-01-6.68864E-04 3.46210E-03-4.62384E-14-2.17950E-13
 -1      4236 1.99694E+01 1.10037E-01-2.96051E-04 4.74687E-03-1.19727E-13-1.48469E-13
 -1      4237 1.99778E+01 9.38425E-02-4.76671E-04 2.20637E-03-1.61939E-13-3.61094E-14
 -1      4238 1.99859E+01 7.97731E-02-1.92725E-04 3.20969E-03-1.91143E-13-4.99610E-14
 -1      4239 1.99914E+01 6.72435E-02-3.30540E-04 1.32818E-03-1.89188E-13-7.21826E-14
 -1      4240 1.99967E+01 5.64216E-02-1.17842E-04 2.09284E-03-1.69311E-13-4.27190E-14
 -1      4241 2.00002E+01 4.69046E-02-2.21392E-04 7.25025E-04-1.75490E-13 3.16810E-14
 -1      4242 2.00034E+01 3.87344E-02-6.49935E-05 1.29378E-03-2.30082E-13 6.63507E-14
 -1      4243 2.00054E+01 3.16445E-02-1.41484E-04 3.20870E-04-2.31008E-13 1.19924E-13
 -1      4244 2.00072E+01 2.55973E-02-2.88965E-05 7.33214E-04-1.65989E-13 1.35358E-13
 -1      4245 2.00082E+01 2.04263E-02-8.43162E-05 5.92748E-05-1.79294E-13 7.29424E-14
 -1      4246 2.00090E+01 1.60474E-02-5.27903E-06 3.49805E-04-1.11851E-13-2.01574E-14
 -1      4247 2.00093E+01 1.23654E-02-4.45357E-05-1.01586E-04-6.43358E-14-7.74201E-14
 -1      4248 2.00095E+01 9.27345E-03 9.24420E-06 9.62904E-05-4.02243E-14-5.97885E-14
 -1      4249 2.00094E+01 6.72548E-03-1.78155E-05-1.92585E-04-1.23424E-14-5.63693E-14
 -1      4250 2.00091E+01 4.60762E-03 1.72916E-05-6.35178E-05 1.01316E-13-1.65397E-13
 -1      4251 2.00087E+01 2.90611E-03-7.55963E-07-2.36392E-04 1.48711E-13-3.73819E-13
 -1      4252 2.00083E+01 1.51033E-03 2.07732E-05-1.57050E-04 7.68716E-14-5.07266E-13
 -1      4253 2.00078E+01 4.26127E-04 9.03151E-06-2.49784E-04 1.51058E-13-5.15450E-13
 -1      4254 2.00072E+01-4.47162E-04 2.04188E-05-2.04756E-04 1.23105E-13-4.73360E-13
 -1      4255 2.00066E+01-1.09536E-03 1.17491E-05-2.46880E-04 4.14325E-14-5.24454E-13
 -1      4256 2.00060E+01-1.60045E-03 1.43546E-05-2.24519E-04 2.39921E-15-4.53075E-13
 -1      4257 2.00055E+01-1.91273E-03 1.30947E-05-9.97850E-05 3.44681E-15-4.98580E-13
 -1      4258 1.87465E+01 9.44282E-01-5.79649E-03 1.16535E-01-4.77529E-14-6.42010E-14
 -1      4259 1.85565E+01 9.89905E-01-9.82761E-03 1.17991E-01-6.11242E-14-2.13583E-14
 -1      4260 1.83761E+01 1.03675E+00-7.54052E-03 1.60606E-01-6.20126E-14-6.00019E-14
 -1      4261 1.81330E+01 1.06966E+00-1.28529E-02 1.65349E-01-5.94424E-14 3.33917E-14
 -1      4262 1.79071E+01 1.10120E+00-9.69819E-03 2.26058E-01-9.59894E-14 1.89556E-14
 -1      4263 1.75982E+01 1.12441E+00-1.32317E-02 2.34655E-01-6.99675E-14-1.62450E-14
 -1      4264 1.71025E+01 1.14491E+00-3.69758E-03 3.18887E-01-2.70669E-14 7.55979E-14
 -3
    1PSTEP                         3           1           1          
  100CL  101 1.000000000        4264                     0    1           1
 -4  TOSTRAIN    6    1
 -5  EXX         1    4    1    1
 -5  EYY         1    4    2    2
 -5  EZZ         1    4    3    3
 -5  EXY         1    4    1    2
 -5  EYZ         1    4    2    3
 -5  EZX         1    4    3    1
 -1         1 3.10147E-04-9.61803E-05-7.88948E-05 7.21709E-07-3.22667E-19-4.87489E-18
 -1         2 3.52161E-05-1.07066E-04 1.89991E-05 7.82951E-07 2.56432E-18 5.82838E-19
 -1         3 9.52373E-05-2.85710E-05-2.85715E-05 1.42488E-10-3.91072E-18-4.00964E-18
 -1         4 9.52373E-05-2.85710E-05-2.85715E-05-1.32493E-10 1.33676E-18 1.21317E-20
 -1         5 1.63027E-04-2.38395E-05-4.93728E-05 4.12557E-05-2.54163E-19 1.90046E-17
 -1         6 1.64994E-04 3.13352E-10-5.16272E-05-5.70304E-05-1.20490E-18 1.63113E-17
 -1         7 1.07881E-04-1.12643E-06-4.56774E-05-2.67594E-05-1.90688E-19 2.05109E-18
 -1         8 9.74770E-05-9.46134E-08-4.12782E-05-1.38847E-05-1.68454E-19-2.08315E-18
 -1         9 8.96910E-05 4.19176E-09-3.81044E-05-6.98198E-06-1.54531E-19-4.30593E-18
 -1        10 8.26038E-05 3.92161E-08-3.51801E-05-2.19769E-06-8.68209E-20-5.38934E-18
 -1        11 7.58504E-05 1.00963E-07-3.24559E-05 8.51616E-07-4.07635E-20-5.87736E-18
 -1        12 6.99155E-05 1.75521E-07-3.01186E-05 2.07387E-06-8.04681E-21-6.09012E-18
 -1        13 6.53834E-05 2.48226E-07-2.83659E-05 1.58482E-06 1.66495E-20-6.18018E-18
 -1        14 6.31910E-05 2.84458E-07-2.75217E-05-1.04084E-07 2.72771E-20-6.08650E-18
 -1        15 6.37716E-05 2.67235E-07-2.77284E-05-2.02583E-06 5.39057E-20-5.87273E-18
 -1        16 6.69205E-05 2.03471E-07-2.89161E-05-3.12792E-06 7.18655E-20-5.51676E-18
 -1        17 7.18978E-05 1.16888E-07-3.08343E-05-2.67251E-06 9.70382E-20-4.99809E-18
 -1        18 7.76795E-05 4.89276E-08-3.31248E-05-5.03132E-07 1.23455E-19-4.32205E-18
 -1        19 8.38101E-05 8.73433E-09-3.56274E-05 3.30062E-06 1.84971E-19-3.34909E-18
 -1        20 9.00139E-05 4.84695E-09-3.82304E-05 8.49636E-06 2.10011E-19-1.72997E-18
 -1        21 9.68375E-05 1.02113E-08-4.10961E-05 1.53787E-05 2.51886E-19 1.17867E-18
 -1        22 1.07120E-04-5.16765E-07-4.48582E-05 2.62443E-05 4.48927E-20 6.77427E-18
 -1        23 1.38267E-04-4.66718E-05-4.30434E-05-3.35179E-06-7.96873E-19 1.21542E-17
 -1        24 1.21389E-04-3.62751E-05-3.74802E-05 7.02560E-07-1.90394E-19 8.87182E-18
 -1        25 1.19920E-04-3.60802E-05-3.59884E-05 4.70703E-07-1.32863E-19 5.76923E-18
 -1        26 1.18493E-04-3.56115E-05-3.53078E-05 1.20315E-07-5.08625E-20 3.73677E-18
 -1        27 1.14993E-04-3.45399E-05-3.42087E-05-1.87826E-07-7.20822E-20 2.24357E-18
 -1        28 1.08457E-04-3.25713E-05-3.23064E-05-5.12599E-07 4.56711E-20 1.36626E-18
 -1        29 9.94533E-05-2.98668E-05-2.97963E-05-7.27984E-07 4.71940E-20 8.36022E-19
 -1        30 9.04041E-05-2.71406E-05-2.73615E-05-6.54238E-07 4.33343E-20-2.82988E-19
 -1        31 8.48442E-05-2.54582E-05-2.59072E-05-2.31576E-07 1.00718E-20-1.63604E-18
 -1        32 8.53848E-05-2.56196E-05-2.60544E-05 3.40260E-07-1.75415E-19-2.89982E-18
 -1        33 9.18160E-05-2.75567E-05-2.77590E-05 7.30573E-07 3.76422E-19-3.22577E-18
 -1        34 1.01268E-04-3.03939E-05-3.03213E-05 7.81162E-07-6.28161E-20-3.30483E-18
 -1        35 1.10175E-04-3.30547E-05-3.28256E-05 5.65305E-07-7.24643E-20-4.41061E-18
 -1        36 1.16156E-04-3.48321E-05-3.45921E-05 2.72117E-07-1.36485E-20-4.25856E-18
 -1        37 1.18609E-04-3.55577E-05-3.53881E-05 3.99939E-08-1.96781E-19-4.88232E-18
 -1        38 1.18171E-04-3.54254E-05-3.53399E-05-9.14750E-08-1.04101E-19-5.04764E-18
 -1        39 1.15906E-04-3.47524E-05-3.47284E-05-1.40680E-07-2.19085E-19-5.86071E-18
 -1        40 1.12785E-04-3.38254E-05-3.38348E-05-1.41033E-07-3.63539E-19-5.94275E-18
 -1        41 1.09491E-04-3.28457E-05-3.28678E-05-1.19485E-07 5.42922E-19-7.00865E-18
 -1        42 1.06421E-04-3.19308E-05-3.19540E-05-9.21284E-08-7.17982E-20-6.65271E-18
 -1        43 1.03760E-04-3.11362E-05-3.11556E-05-6.66390E-08-1.39135E-19-5.71480E-18
 -1        44 1.01563E-04-3.04786E-05-3.04931E-05-4.57701E-08 1.40043E-19-4.10703E-18
 -1        45 9.98111E-05-2.99531E-05-2.99631E-05-2.98714E-08-3.95813E-19-4.00243E-18
 -1        46 9.84526E-05-2.95449E-05-2.95514E-05-1.83234E-08-1.61259E-19-5.90654E-18
 -1        47 9.74242E-05-2.92353E-05-2.92392E-05-1.02437E-08 4.14628E-19-4.11928E-18
 -1        48 9.66633E-05-2.90058E-05-2.90079E-05-4.78701E-09-1.89561E-19-3.61419E-18
 -1        49 9.61133E-05-2.88396E-05-2.88405E-05-1.24691E-09 3.74258E-19-4.84418E-18
 -1        50 9.57259E-05-2.87223E-05-2.87224E-05 9.29528E-10-5.12780E-21-7.29727E-18
 -1        51 9.54614E-05-2.86420E-05-2.86416E-05 2.15939E-09-1.98547E-19-6.41748E-18
 -1        52 9.52878E-05-2.85891E-05-2.85885E-05 2.74996E-09 4.44703E-20-5.31500E-18
 -1        53 9.51801E-05-2.85561E-05-2.85554E-05 2.92349E-09-7.28718E-20-4.64034E-18
 -1        54 9.51189E-05-2.85372E-05-2.85365E-05 2.83801E-09 1.56064E-19-1.80707E-18
 -1        55 9.50896E-05-2.85280E-05-2.85273E-05 2.60375E-09-7.12087E-19-3.81859E-18
 -1        56 9.50815E-05-2.85252E-05-2.85246E-05 2.29576E-09-1.79654E-19-7.76835E-18
 -1        57 9.50866E-05-2.85265E-05-2.85260E-05 1.96357E-09 6.93479E-19-7.04314E-18
 -1        58 9.50995E-05-2.85302E-05-2.85298E-05 1.63840E-09 4.76242E-20-4.44696E-18
 -1        59 9.51162E-05-2.85351E-05-2.85347E-05 1.33860E-09-4.45702E-19-2.69382E-18
 -1        60 9.51342E-05-2.85404E-05-2.85401E-05 1.07369E-09-3.38871E-20-1.00211E-18
 -1        61 9.51518E-05-2.85456E-05-2.85454E-05 8.47274E-10 1.39674E-19-7.14315E-19
 -1        62 9.51683E-05-2.85505E-05-2.85503E-05 6.59220E-10-1.12668E-19 7.47000E-19
 -1        63 9.51829E-05-2.85549E-05-2.85547E-05 5.07130E-10-1.72019E-19-5.07980E-19
 -1        64 9.51957E-05-2.85587E-05-2.85586E-05 3.87346E-10 4.87561E-19-8.83427E-19
 -1        65 9.52066E-05-2.85619E-05-2.85619E-05 2.95519E-10-9.14696E-19-8.82820E-19
 -1        66 9.52157E-05-2.85647E-05-2.85646E-05 2.26724E-10-2.89313E-19-2.16213E-18
 -1        67 9.52232E-05-2.85669E-05-2.85669E-05 1.75024E-10 7.99494E-19-1.16430E-18
 -1        68 9.52291E-05-2.85687E-05-2.85687E-05 1.31897E-10 7.13643E-19 4.04630E-18
 -1        69 9.52336E-05-2.85700E-05-2.85700E-05 8.23076E-11-1.52365E-19 4.06416E-18
 -1        70 9.52364E-05-2.85709E-05-2.85708E-05-1.22911E-11-8.26757E-20 2.08799E-18
 -1        71 9.52375E-05-2.85713E-05-2.85712E-05-1.42874E-10-4.15033E-19 1.40547E-19
 -1        72 1.24113E-04-3.71890E-05-4.10766E-05-2.84337E-06 2.26290E-19 1.74755E-17
 -1        73 1.17906E-04-3.51102E-05-3.64241E-05-6.11258E-07 2.05465E-19 1.33814E-17
 -1        74 1.15714E-04-3.46925E-05-3.47749E-05-2.84433E-07 7.94297E-20 1.05687E-17
 -1        75 1.13547E-04-3.41106E-05-3.38672E-05-1.45807E-07 3.81305E-20 8.81350E-18
 -1        76 1.09675E-04-3.29692E-05-3.26614E-05 4.53299E-08 1.59498E-19 7.35906E-18
 -1        77 1.03494E-04-3.11245E-05-3.08715E-05 2.90202E-07 6.43906E-20 5.53181E-18
 -1        78 9.56980E-05-2.87709E-05-2.87023E-05 5.07706E-07-9.50236E-20 5.48986E-18
 -1        79 8.83186E-05-2.65076E-05-2.67164E-05 5.62859E-07 1.00737E-19 5.12892E-18
 -1        80 8.40247E-05-2.51567E-05-2.55948E-05 3.69310E-07-1.77281E-20 3.67285E-18
 -1        81 8.46690E-05-2.53157E-05-2.57850E-05-4.18102E-09 6.17689E-20 3.47957E-18
 -1        82 9.00502E-05-2.69456E-05-2.72270E-05-3.59640E-07 1.63176E-19 2.33800E-18
 -1        83 9.80194E-05-2.93796E-05-2.93947E-05-5.31318E-07-1.50831E-19 1.56293E-18
 -1        84 1.05831E-04-3.17625E-05-3.15780E-05-4.98326E-07-7.27092E-20 1.15623E-18
 -1        85 1.11509E-04-3.34835E-05-3.32295E-05-3.45133E-07 4.32003E-20 1.12637E-18
 -1        86 1.14362E-04-3.43382E-05-3.41157E-05-1.72634E-07-8.07295E-20 1.05172E-18
 -1        87 1.14707E-04-3.44320E-05-3.42837E-05-3.94448E-08-1.29153E-19 1.35954E-19
 -1        88 1.13311E-04-3.40035E-05-3.39279E-05 4.07395E-08-4.44701E-20-5.36347E-19
 -1        89 1.10963E-04-3.32927E-05-3.32697E-05 7.75348E-08 7.32495E-20-2.50438E-18
 -1        90 1.08277E-04-3.24834E-05-3.24911E-05 8.63012E-08-2.02945E-19-2.89380E-18
 -1        91 1.05645E-04-3.16928E-05-3.17148E-05 8.01118E-08 1.04765E-19-2.38061E-18
 -1        92 1.03283E-04-3.09841E-05-3.10103E-05 6.76262E-08-2.88243E-19-1.13157E-18
 -1        93 1.01279E-04-3.03835E-05-3.04086E-05 5.37445E-08 5.75359E-20-6.44427E-19
 -1        94 9.96483E-05-2.98947E-05-2.99164E-05 4.08729E-08 2.88391E-19-2.71811E-18
 -1        95 9.83629E-05-2.95095E-05-2.95271E-05 2.99675E-08-1.90192E-19-2.30647E-18
 -1        96 9.73772E-05-2.92139E-05-2.92277E-05 2.12238E-08 1.73717E-20-1.19934E-18
 -1        97 9.66404E-05-2.89930E-05-2.90034E-05 1.44808E-08-2.63211E-19 5.90700E-19
 -1        98 9.61034E-05-2.88319E-05-2.88395E-05 9.44110E-09-1.19438E-19 1.30084E-18
 -1        99 9.57228E-05-2.87176E-05-2.87231E-05 5.78037E-09 2.32837E-19-1.34931E-18
 -1       100 9.54614E-05-2.86391E-05-2.86429E-05 3.19790E-09-9.35189E-20-6.02984E-19
 -1       101 9.52892E-05-2.85873E-05-2.85899E-05 1.43572E-09 1.81824E-20 5.06306E-19
 -1       102 9.51819E-05-2.85550E-05-2.85567E-05 2.82517E-10 3.04461E-19 1.61540E-18
 -1       103 9.51207E-05-2.85366E-05-2.85375E-05-4.29390E-10-6.03126E-19 9.66561E-19
 -1       104 9.50912E-05-2.85277E-05-2.85282E-05-8.29810E-10 2.25221E-20 2.04857E-18
 -1       105 9.50829E-05-2.85251E-05-2.85253E-05-1.01708E-09 4.33520E-19 2.62653E-18
 -1       106 9.50878E-05-2.85265E-05-2.85265E-05-1.06415E-09-3.61479E-19 6.55510E-19
 -1       107 9.51005E-05-2.85303E-05-2.85302E-05-1.02399E-09-9.33455E-20-2.67293E-18
 -1       108 9.51170E-05-2.85352E-05-2.85350E-05-9.34153E-10-1.86594E-19-4.71438E-18
 -1       109 9.51348E-05-2.85405E-05-2.85403E-05-8.20521E-10 3.54413E-19-9.28739E-19
 -1       110 9.51524E-05-2.85458E-05-2.85456E-05-7.00345E-10-3.63229E-19 2.17074E-18
 -1       111 9.51687E-05-2.85506E-05-2.85505E-05-5.84623E-10 6.28553E-19 4.80450E-19
 -1       112 9.51833E-05-2.85550E-05-2.85548E-05-4.79943E-10-8.56134E-19 1.50754E-18
 -1       113 9.51960E-05-2.85588E-05-2.85587E-05-3.89872E-10 8.48699E-19 1.56235E-18
 -1       114 9.52069E-05-2.85621E-05-2.85619E-05-3.15946E-10-5.83943E-19-3.60281E-18
 -1       115 9.52159E-05-2.85648E-05-2.85647E-05-2.58247E-10-1.99531E-19-2.77824E-18
 -1       116 9.52234E-05-2.85670E-05-2.85669E-05-2.15256E-10 1.84596E-19-1.95184E-18
 -1       117 9.52293E-05-2.85688E-05-2.85687E-05-1.82844E-10 1.78438E-19-6.11616E-18
 -1       118 9.52337E-05-2.85701E-05-2.85700E-05-1.51042E-10-1.03158E-19-7.35135E-18
 -1       119 9.52365E-05-2.85710E-05-2.85708E-05-8.16627E-11-9.48723E-21-8.65341E-18
 -1       120 9.52375E-05-2.85713E-05-2.85712E-05 9.48820E-11 1.85494E-18-8.92998E-18
 -1       121 9.52371E-05-2.85709E-05-2.85712E-05 1.53597E-10-8.20331E-18 5.61002E-19
 -1       122 9.52374E-05-2.85719E-05-2.85708E-05-3.25370E-11-1.13824E-18 1.81625E-18
 -1       123 9.52382E-05-2.85746E-05-2.85700E-05-1.39441E-10 4.40762E-18 1.55423E-18
 -1       124 9.52393E-05-2.85783E-05-2.85690E-05-1.79411E-10 6.89000E-18-4.37476E-19
 -1       125 9.52405E-05-2.85822E-05-2.85678E-05-1.74364E-10 6.83555E-18-1.16637E-18
 -1       126 9.52415E-05-2.85857E-05-2.85668E-05-1.43572E-10 4.08216E-18 6.85584E-19
 -1       127 9.52423E-05-2.85884E-05-2.85660E-05-9.29284E-11 6.35354E-18 6.16332E-19
 -1       128 9.52427E-05-2.85898E-05-2.85656E-05-3.17348E-11 3.48734E-18-7.97570E-19
 -1       129 9.52427E-05-2.85898E-05-2.85656E-05 3.28180E-11 3.37436E-18 2.31961E-19
 -1       130 9.52423E-05-2.85884E-05-2.85660E-05 9.37605E-11 4.06087E-18 1.42096E-18
 -1       131 9.52415E-05-2.85857E-05-2.85668E-05 1.45543E-10 3.77687E-18-1.17972E-18
 -1       132 9.52404E-05-2.85822E-05-2.85679E-05 1.74945E-10 3.42716E-19 1.71991E-18
 -1       133 9.52393E-05-2.85782E-05-2.85690E-05 1.78551E-10-1.84296E-18-6.12105E-19
 -1       134 9.52382E-05-2.85746E-05-2.85700E-05 1.51782E-10-2.39780E-18-3.08768E-19
 -1       135 9.52374E-05-2.85719E-05-2.85708E-05 4.54414E-11-1.10208E-18 4.97707E-19
 -1       136 9.52371E-05-2.85710E-05-2.85712E-05-2.69329E-10-2.40926E-18-2.38665E-19
 -1       137 2.61655E-05-8.69275E-05 1.51500E-05-2.21020E-05 1.00780E-17 2.17960E-18
 -1       138 9.01877E-06-3.72375E-05 3.79588E-06-1.87732E-05 1.76848E-17 7.97397E-18
 -1       139 9.01421E-06 1.13382E-05-1.29605E-05 1.80332E-05 2.04931E-17 1.47507E-17
 -1       140 5.89089E-05 2.72382E-05-3.56327E-05 7.85617E-05 1.49912E-17 1.64299E-17
 -1       141 1.44968E-04-2.25505E-06-5.48750E-05 1.13096E-04 8.33226E-18 1.41090E-17
 -1       142 2.44010E-04-5.57721E-05-7.02758E-05 9.73819E-05 2.26894E-18 6.88384E-18
 -1       143 3.02982E-04-9.21680E-05-7.79308E-05 3.13764E-05 1.38477E-19-2.95360E-18
 -1       144 2.91553E-04-8.50223E-05-7.65588E-05-5.11542E-05 2.22240E-18-1.36133E-17
 -1       145 2.13489E-04-3.92531E-05-6.57864E-05-1.04444E-04 8.76266E-18-2.19974E-17
 -1       146 1.14519E-04 9.28151E-06-4.88410E-05-1.03200E-04 1.59884E-17-2.41371E-17
 -1       147 3.33900E-05 2.65795E-05-2.69735E-05-5.51275E-05 2.06405E-17-1.99845E-17
 -1       148 5.36163E-06 1.55552E-06-8.60295E-06-5.35386E-06 2.03309E-17-1.28616E-17
 -1       149 1.14329E-05-4.50728E-05 5.66166E-06 2.09048E-05 1.51454E-17-5.97423E-18
 -1       150 2.80908E-05-8.83684E-05 1.51089E-05 1.58562E-05 5.02036E-18-8.80059E-19
 -1       151 3.13760E-05-9.58975E-05 1.66144E-05-8.79831E-06-6.27011E-18-7.29481E-19
 -1       152 1.76319E-05-6.38690E-05 1.00547E-05-2.31982E-05-1.58406E-17-4.81432E-18
 -1       153 4.74132E-06-1.39713E-05-3.04207E-06-7.67110E-06-2.16078E-17-1.18057E-17
 -1       154 1.99570E-05 2.24962E-05-2.10110E-05 3.83855E-05-2.27441E-17-1.92132E-17
 -1       155 8.13340E-05 2.10502E-05-4.16071E-05 9.11027E-05-1.82430E-17-2.33934E-17
 -1       156 1.79109E-04-2.07562E-05-6.03598E-05 1.10748E-04-1.07474E-17-2.27352E-17
 -1       157 2.72768E-04-7.29550E-05-7.42176E-05 7.53866E-05-4.09257E-18-1.57694E-17
 -1       158 2.79777E-04-7.67622E-05-7.52207E-05-7.20592E-05-9.69879E-19 3.73351E-18
 -1       159 1.98417E-04-2.97641E-05-6.36857E-05-1.11168E-04-4.33247E-18 1.03393E-17
 -1       160 1.07964E-04 1.34577E-05-4.77583E-05-1.04040E-04-1.00212E-17 1.40099E-17
 -1       161 3.91932E-05 2.85061E-05-2.93871E-05-6.24069E-05-1.56515E-17 1.53207E-17
 -1       162 7.59825E-06 7.58948E-06-1.12759E-05-1.28319E-05-1.83874E-17 1.28400E-17
 -1       163 9.43854E-06-3.92441E-05 4.31590E-06 1.96031E-05-1.61800E-17 6.87833E-18
 -1       164 2.58691E-05-8.64973E-05 1.50579E-05 2.17055E-05-8.99613E-18 2.30298E-18
 -1       165 1.12969E-04-1.71858E-05-4.12519E-05-1.78591E-05-2.40225E-18 1.16388E-19
 -1       166 1.01300E-04-1.18400E-05-3.85138E-05-1.10544E-05-1.89105E-18-2.49181E-18
 -1       167 9.18750E-05-8.52481E-06-3.58454E-05-5.68988E-06-1.33765E-18-3.98510E-18
 -1       168 8.30413E-05-5.71396E-06-3.32303E-05-1.61051E-06-7.72931E-19-4.78545E-18
 -1       169 7.46539E-05-2.83399E-06-3.08474E-05 8.57072E-07-3.58586E-19-5.15167E-18
 -1       170 6.72748E-05-5.75174E-08-2.88621E-05 1.55655E-06 6.41892E-21-5.32554E-18
 -1       171 6.24480E-05 1.85820E-06-2.76075E-05 6.23264E-07 2.65628E-19-5.32422E-18
 -1       172 6.13546E-05 2.23679E-06-2.72992E-05-1.13835E-06 4.49105E-19-5.17474E-18
 -1       173 6.42216E-05 9.41634E-07-2.79757E-05-2.56014E-06 6.60358E-19-4.88690E-18
 -1       174 7.01643E-05-1.51764E-06-2.94765E-05-2.63292E-06 9.11844E-19-4.47842E-18
 -1       175 7.75648E-05-4.28362E-06-3.14769E-05-9.63178E-07 1.28443E-18-3.86683E-18
 -1       176 8.54183E-05-6.86269E-06-3.37597E-05 2.37584E-06 1.74327E-18-3.01482E-18
 -1       177 9.31167E-05-9.18225E-06-3.61035E-05 6.98611E-06 2.18310E-18-1.85157E-18
 -1       178 1.01310E-04-1.20326E-05-3.84440E-05 1.25504E-05 2.51299E-18 1.59216E-19
 -1       179 1.12585E-04-1.80921E-05-4.07141E-05 1.86301E-05 2.45695E-18 3.55706E-18
 -1       180 1.26164E-04-3.24837E-05-4.14345E-05 1.64530E-05 1.82081E-18 7.95486E-18
 -1       181 1.26104E-04-3.44731E-05-3.92790E-05-9.00621E-06-2.05408E-18 3.36918E-18
 -1       182 1.21116E-04-3.60687E-05-3.64915E-05-2.73675E-06-1.71691E-18 2.51212E-18
 -1       183 1.18215E-04-3.57919E-05-3.52894E-05-1.95099E-06-1.14269E-18 1.98806E-18
 -1       184 1.16047E-04-3.55625E-05-3.44697E-05-3.50878E-06-8.38376E-19 1.39705E-18
 -1       185 1.12992E-04-3.47442E-05-3.35202E-05-6.10623E-06-6.53347E-19 9.75486E-19
 -1       186 1.08562E-04-3.30300E-05-3.23573E-05-8.29977E-06-3.68095E-19 9.01660E-19
 -1       187 1.03311E-04-3.05693E-05-3.11634E-05-8.34828E-06-8.00587E-19 3.50182E-19
 -1       188 9.88882E-05-2.82562E-05-3.02636E-05-5.16342E-06-9.22121E-19-1.80395E-19
 -1       189 9.72564E-05-2.73625E-05-2.99552E-05 4.47439E-07-9.21711E-19-5.43612E-19
 -1       190 9.92442E-05-2.84759E-05-3.03282E-05 5.86054E-06-6.03693E-19-1.17224E-18
 -1       191 1.03741E-04-3.08355E-05-3.12380E-05 8.57823E-06-5.65052E-19-2.64172E-18
 -1       192 1.08686E-04-3.31979E-05-3.23499E-05 8.00001E-06-6.82230E-19-3.24518E-18
 -1       193 1.12338E-04-3.46671E-05-3.32943E-05 5.26169E-06-2.76252E-19-3.52922E-18
 -1       194 1.14012E-04-3.50996E-05-3.38330E-05 2.00613E-06-5.04580E-19-3.59254E-18
 -1       195 1.13868E-04-3.47822E-05-3.39097E-05-6.58051E-07-2.34416E-19-3.69579E-18
 -1       196 1.12438E-04-3.40629E-05-3.36027E-05-2.34806E-06-2.83591E-20-3.17389E-18
 -1       197 1.10292E-04-3.31987E-05-3.30489E-05-3.14672E-06-7.10358E-20-2.52064E-18
 -1       198 1.07885E-04-3.23397E-05-3.23805E-05-3.31110E-06-6.75726E-19-2.85639E-18
 -1       199 1.05520E-04-3.15600E-05-3.16974E-05-3.09914E-06-1.34553E-19-2.94795E-18
 -1       200 1.03371E-04-3.08886E-05-3.10615E-05-2.70473E-06 4.81440E-19-3.19157E-18
 -1       201 1.01517E-04-3.03309E-05-3.05046E-05-2.25217E-06 6.40120E-19-2.88637E-18
 -1       202 9.99766E-05-2.98800E-05-3.00373E-05-1.81184E-06-7.91000E-20-2.95860E-18
 -1       203 9.87342E-05-2.95235E-05-2.96577E-05-1.41822E-06-5.86968E-19-2.06330E-18
 -1       204 9.77564E-05-2.92474E-05-2.93574E-05-1.08420E-06 2.89718E-19-2.02818E-18
 -1       205 9.70035E-05-2.90376E-05-2.91252E-05-8.10760E-07 2.24869E-19-3.09844E-18
 -1       206 9.64358E-05-2.88812E-05-2.89495E-05-5.92948E-07-5.36674E-19-2.74181E-18
 -1       207 9.60167E-05-2.87672E-05-2.88192E-05-4.23335E-07-1.38811E-18-3.66962E-18
 -1       208 9.57141E-05-2.86859E-05-2.87248E-05-2.93928E-07 3.62057E-21-3.93837E-18
 -1       209 9.55013E-05-2.86296E-05-2.86581E-05-1.97138E-07 5.99406E-19-3.05928E-18
 -1       210 9.53561E-05-2.85920E-05-2.86123E-05-1.26222E-07 1.32000E-19-2.69125E-18
 -1       211 9.52611E-05-2.85679E-05-2.85821E-05-7.54282E-08 1.94539E-19-2.57348E-18
 -1       212 9.52023E-05-2.85537E-05-2.85632E-05-3.99982E-08-7.51279E-19-3.75894E-18
 -1       213 9.51691E-05-2.85462E-05-2.85524E-05-1.60801E-08-1.62947E-18-3.28096E-18
 -1       214 9.51536E-05-2.85433E-05-2.85470E-05-6.18630E-10 7.35589E-20-2.19837E-18
 -1       215 9.51496E-05-2.85434E-05-2.85454E-05 8.76683E-09 8.11985E-19-3.91421E-18
 -1       216 9.51530E-05-2.85452E-05-2.85461E-05 1.38989E-08 7.64201E-19-2.68778E-18
 -1       217 9.51605E-05-2.85480E-05-2.85481E-05 1.61481E-08 9.23931E-19-2.24937E-18
 -1       218 9.51701E-05-2.85512E-05-2.85509E-05 1.65249E-08 7.04866E-19 6.63226E-19
 -1       219 9.51804E-05-2.85545E-05-2.85539E-05 1.57578E-08-4.86175E-20 9.70948E-19
 -1       220 9.51905E-05-2.85576E-05-2.85569E-05 1.43576E-08-1.21233E-18-3.54939E-19
 -1       221 9.51999E-05-2.85605E-05-2.85598E-05 1.26693E-08-1.06648E-18-1.43037E-18
 -1       222 9.52083E-05-2.85630E-05-2.85623E-05 1.09116E-08 9.42773E-19-3.02445E-18
 -1       223 9.52156E-05-2.85651E-05-2.85645E-05 9.20753E-09 3.53508E-19-6.21977E-19
 -1       224 9.52218E-05-2.85669E-05-2.85664E-05 7.60519E-09 1.24326E-18 8.23261E-19
 -1       225 9.52269E-05-2.85685E-05-2.85679E-05 6.09190E-09 2.23516E-18 3.97744E-19
 -1       226 9.52309E-05-2.85697E-05-2.85691E-05 4.60369E-09-6.21488E-20-1.19202E-18
 -1       227 9.52340E-05-2.85706E-05-2.85700E-05 3.04714E-09-2.61721E-20 1.34826E-18
 -1       228 9.52361E-05-2.85713E-05-2.85706E-05 1.38225E-09-3.47131E-19 2.06153E-18
 -1       229 1.21002E-04-3.53336E-05-3.68920E-05 5.37310E-06 1.93284E-18 6.97619E-18
 -1       230 1.16566E-04-3.48620E-05-3.49762E-05 2.33594E-06 1.37426E-18 5.65477E-18
 -1       231 1.13751E-04-3.44320E-05-3.39390E-05 2.49486E-06 9.61540E-19 4.58757E-18
 -1       232 1.10681E-04-3.36807E-05-3.29606E-05 3.93845E-06 9.54075E-19 3.76780E-18
 -1       233 1.06608E-04-3.23828E-05-3.17848E-05 5.62640E-06 8.11472E-19 3.38656E-18
 -1       234 1.01674E-04-3.05395E-05-3.04776E-05 6.43708E-06 7.93159E-20 2.74303E-18
 -1       235 9.69283E-05-2.85629E-05-2.93128E-05 5.36803E-06 5.23185E-19 2.31413E-18
 -1       236 9.39538E-05-2.72195E-05-2.86292E-05 2.23670E-06 6.22285E-19 1.84543E-18
 -1       237 9.39798E-05-2.71828E-05-2.86532E-05-1.89064E-06 3.40600E-19 6.74615E-19
 -1       238 9.69949E-05-2.84867E-05-2.93668E-05-5.22712E-06 4.02648E-19 5.87801E-19
 -1       239 1.01695E-04-3.04655E-05-3.05147E-05-6.51213E-06 4.48945E-19 3.82290E-19
 -1       240 1.06363E-04-3.22997E-05-3.17219E-05-5.71404E-06 4.25576E-19-6.27757E-19
 -1       241 1.09734E-04-3.34796E-05-3.26668E-05-3.68701E-06 2.34026E-20-1.14220E-18
 -1       242 1.11346E-04-3.39145E-05-3.31808E-05-1.43364E-06-2.65029E-21-1.36500E-18
 -1       243 1.11357E-04-3.37686E-05-3.32557E-05 3.97071E-07 5.08974E-19-1.23595E-18
 -1       244 1.10218E-04-3.32682E-05-3.29853E-05 1.58277E-06 3.89324E-19-1.75396E-18
 -1       245 1.08416E-04-3.26025E-05-3.24978E-05 2.17385E-06 6.46444E-19-1.49588E-18
 -1       246 1.06346E-04-3.19002E-05-3.19101E-05 2.32858E-06 2.10253E-20-1.95579E-18
 -1       247 1.04285E-04-3.12367E-05-3.13087E-05 2.21227E-06-3.88412E-19-1.62579E-18
 -1       248 1.02393E-04-3.06495E-05-3.07478E-05 1.95494E-06-7.18224E-19-1.60815E-18
 -1       249 1.00751E-04-3.01527E-05-3.02555E-05 1.64426E-06-6.61290E-20-1.60444E-18
 -1       250 9.93805E-05-2.97462E-05-2.98419E-05 1.33288E-06 1.09982E-18-2.02181E-18
 -1       251 9.82734E-05-2.94226E-05-2.95058E-05 1.04874E-06-4.74092E-19-2.08479E-18
 -1       252 9.74024E-05-2.91711E-05-2.92403E-05 8.03975E-07-9.03057E-19-8.73808E-19
 -1       253 9.67335E-05-2.89799E-05-2.90357E-05 6.01433E-07-1.00045E-18-2.79395E-20
 -1       254 9.62316E-05-2.88379E-05-2.88816E-05 4.38907E-07-2.35650E-19 4.22311E-19
 -1       255 9.58637E-05-2.87349E-05-2.87683E-05 3.11793E-07 9.07026E-19 9.02493E-19
 -1       256 9.56009E-05-2.86621E-05-2.86871E-05 2.14645E-07-4.08222E-19 3.38705E-19
 -1       257 9.54187E-05-2.86123E-05-2.86305E-05 1.42040E-07-4.02676E-19-4.91324E-19
 -1       258 9.52970E-05-2.85796E-05-2.85926E-05 8.90155E-08-7.12780E-19-1.20550E-18
 -1       259 9.52197E-05-2.85593E-05-2.85683E-05 5.12609E-08-4.33755E-19-4.89761E-19
 -1       260 9.51741E-05-2.85478E-05-2.85538E-05 2.51649E-08-1.01312E-19-9.93812E-19
 -1       261 9.51508E-05-2.85424E-05-2.85462E-05 7.78491E-09 8.26307E-19-1.26050E-18
 -1       262 9.51422E-05-2.85410E-05-2.85432E-05-3.22185E-09-3.09560E-19-5.19583E-19
 -1       263 9.51433E-05-2.85421E-05-2.85432E-05-9.68187E-09 1.34507E-18-4.72941E-19
 -1       264 9.51500E-05-2.85446E-05-2.85451E-05-1.29911E-08-7.94091E-20-3.00701E-20
 -1       265 9.51598E-05-2.85479E-05-2.85479E-05-1.41953E-08-1.92632E-18 7.64623E-19
 -1       266 9.51709E-05-2.85515E-05-2.85511E-05-1.40606E-08-8.39438E-19 1.11954E-18
 -1       267 9.51820E-05-2.85549E-05-2.85545E-05-1.31350E-08 2.94235E-19 2.10962E-18
 -1       268 9.51926E-05-2.85581E-05-2.85576E-05-1.17979E-08-2.76027E-19 3.18936E-18
 -1       269 9.52021E-05-2.85610E-05-2.85605E-05-1.03004E-08 9.48452E-19 1.04470E-18
 -1       270 9.52105E-05-2.85635E-05-2.85630E-05-8.79628E-09 9.74590E-19 2.48883E-18
 -1       271 9.52178E-05-2.85656E-05-2.85652E-05-7.36458E-09 2.03892E-19 1.22584E-18
 -1       272 9.52238E-05-2.85674E-05-2.85670E-05-6.02477E-09 1.07428E-18-4.23586E-19
 -1       273 9.52287E-05-2.85689E-05-2.85685E-05-4.74595E-09 2.19152E-18-1.59782E-18
 -1       274 9.52324E-05-2.85700E-05-2.85696E-05-3.45858E-09 3.51847E-19-1.87570E-18
 -1       275 9.52351E-05-2.85709E-05-2.85704E-05-2.06824E-09 8.11109E-19-2.35498E-18
 -1       276 9.52366E-05-2.85713E-05-2.85709E-05-6.18777E-10 1.83594E-19-2.03850E-18
 -1       277 9.52370E-05-2.85723E-05-2.85706E-05-1.45391E-09 1.27302E-19 4.52687E-18
 -1       278 9.52377E-05-2.85742E-05-2.85701E-05-2.87616E-09 1.36028E-18 3.71169E-18
 -1       279 9.52387E-05-2.85768E-05-2.85694E-05-3.77509E-09 1.32055E-18 2.83663E-18
 -1       280 9.52397E-05-2.85796E-05-2.85686E-05-3.99237E-09 1.81730E-18 3.84971E-19
 -1       281 9.52407E-05-2.85823E-05-2.85679E-05-3.59590E-09 2.09451E-18-1.51342E-18
 -1       282 9.52415E-05-2.85845E-05-2.85672E-05-2.68983E-09 1.18142E-18-4.31910E-19
 -1       283 9.52420E-05-2.85860E-05-2.85668E-05-1.42910E-09 8.87209E-19-7.85473E-19
 -1       284 9.52422E-05-2.85865E-05-2.85667E-05 1.21920E-11 1.21052E-18-1.38870E-18
 -1       285 9.52420E-05-2.85860E-05-2.85668E-05 1.45193E-09 4.24195E-19-5.39725E-19
 -1       286 9.52415E-05-2.85845E-05-2.85673E-05 2.70861E-09 9.02154E-19-4.74343E-19
 -1       287 9.52407E-05-2.85823E-05-2.85679E-05 3.59730E-09 2.97135E-19-1.83720E-18
 -1       288 9.52397E-05-2.85796E-05-2.85686E-05 3.99467E-09 4.30692E-19-4.92146E-19
 -1       289 9.52386E-05-2.85767E-05-2.85694E-05 3.76363E-09 7.65860E-19-7.51636E-21
 -1       290 9.52377E-05-2.85742E-05-2.85701E-05 2.84320E-09 1.25282E-19 2.17525E-19
 -1       291 9.52368E-05-2.85726E-05-2.85704E-05 2.38212E-09-9.56211E-19-1.76760E-18
 -1       292 1.22535E-05-4.63383E-05 1.12226E-05 6.78460E-06 1.70423E-18 4.23908E-18
 -1       293 2.45249E-05-4.07592E-05 4.26572E-06 2.19165E-05 4.08291E-18 6.10150E-18
 -1       294 4.84379E-05-3.49425E-05-7.66468E-06 3.39166E-05 6.13252E-18 6.72925E-18
 -1       295 9.32346E-05-3.57505E-05-2.50054E-05 4.38033E-05 5.91038E-18 3.25261E-18
 -1       296 1.33696E-04-3.09006E-05-4.30704E-05 4.54784E-05 6.10171E-18 3.67062E-18
 -1       297 1.74505E-04-3.19047E-05-5.85160E-05 4.05130E-05 5.56266E-18 2.27301E-18
 -1       298 2.03845E-04-3.56039E-05-6.85588E-05 2.21639E-05 4.74137E-18-5.13937E-19
 -1       299 2.07843E-04-3.46339E-05-7.08645E-05-1.90904E-06 5.57676E-18-3.92957E-18
 -1       300 1.88414E-04-3.15629E-05-6.48841E-05-1.92482E-05 6.87939E-18-6.51262E-18
 -1       301 1.60649E-04-3.25485E-05-5.33638E-05-3.66170E-05 7.59648E-18-8.76954E-18
 -1       302 1.22360E-04-3.60831E-05-3.66926E-05-4.08905E-05 6.77944E-18-8.30071E-18
 -1       303 7.03166E-05-2.75165E-05-1.94050E-05-4.14919E-05 8.55482E-18-9.55676E-18
 -1       304 3.86238E-05-3.17054E-05-5.18425E-06-2.95436E-05 6.82010E-18-8.01486E-18
 -1       305 1.77460E-05-3.73930E-05 5.37377E-06-1.59562E-05 3.80646E-18-6.32289E-18
 -1       306 9.31010E-06-4.06703E-05 1.00998E-05-2.65672E-06-3.15334E-19-5.63108E-18
 -1       307 1.32915E-05-3.76239E-05 7.48494E-06 1.13721E-05-4.13797E-18-5.95687E-18
 -1       308 3.00159E-05-3.42559E-05-7.95038E-07 2.39393E-05-7.61843E-18-7.42303E-18
 -1       309 5.95243E-05-2.95228E-05-1.43949E-05 3.73600E-05-9.39656E-18-9.65205E-18
 -1       310 1.05406E-04-3.28090E-05-3.12317E-05 4.37928E-05-8.93472E-18-9.55665E-18
 -1       311 1.47082E-04-3.07679E-05-4.84300E-05 4.48569E-05-8.79548E-18-1.08255E-17
 -1       312 1.81638E-04-3.28192E-05-6.16184E-05 2.44407E-05-7.29311E-18-7.47782E-18
 -1       313 2.06143E-04-3.46488E-05-7.01711E-05 9.59758E-06-6.28308E-18-5.94628E-18
 -1       314 2.10581E-04-3.66376E-05-7.08804E-05-1.14784E-05-4.23072E-18-3.20697E-18
 -1       315 1.86818E-04-3.25544E-05-6.35406E-05-2.62745E-05-3.99741E-18-6.21934E-19
 -1       316 1.57846E-04-3.13890E-05-5.23149E-05-4.42413E-05-4.90284E-18 2.26475E-18
 -1       317 1.18160E-04-2.95365E-05-3.74027E-05-4.76190E-05-6.01288E-18 3.70810E-18
 -1       318 7.93659E-05-3.11178E-05-2.14960E-05-4.26394E-05-6.45079E-18 4.68685E-18
 -1       319 4.70644E-05-3.57585E-05-6.83718E-06-3.23948E-05-5.47353E-18 5.56839E-18
 -1       320 2.45873E-05-4.09560E-05 4.33465E-06-2.13726E-05-3.27188E-18 5.36765E-18
 -1       321 1.13112E-05-4.19271E-05 1.02862E-05-7.87216E-06-2.62104E-19 5.51387E-18
 -1       322 1.02085E-04-1.92376E-05-3.55969E-05-6.52783E-06-1.81808E-18-2.24112E-18
 -1       323 1.12566E-04-2.53151E-05-3.74818E-05-9.82675E-06-2.29697E-18-5.89495E-19
 -1       324 8.20840E-05-9.71835E-06-3.10630E-05 1.33096E-06-5.42176E-19-3.97120E-18
 -1       325 7.20506E-05-4.57187E-06-2.89458E-05 3.15810E-06-1.04173E-19-4.30791E-18
 -1       326 6.39516E-05-1.59079E-07-2.73496E-05 2.54785E-06 2.68663E-19-4.45045E-18
 -1       327 5.99703E-05 2.03764E-06-2.65759E-05-3.87023E-08 4.71635E-19-4.54273E-18
 -1       328 6.13403E-05 1.13825E-06-2.67794E-05-3.01052E-06 5.94716E-19-4.24025E-18
 -1       329 6.74856E-05-2.44445E-06-2.78914E-05-4.55038E-06 8.18112E-19-3.88593E-18
 -1       330 7.62243E-05-7.21722E-06-2.96106E-05-3.69718E-06 1.13411E-18-3.25455E-18
 -1       331 8.57171E-05-1.19641E-05-3.16648E-05-6.23865E-07 1.66147E-18-2.37823E-18
 -1       332 9.46254E-05-1.60663E-05-3.37475E-05 3.73045E-06 2.20361E-18-1.56312E-18
 -1       333 1.03071E-04-2.00739E-05-3.56707E-05 8.16547E-06 2.64255E-18-2.09654E-19
 -1       334 1.11803E-04-2.54328E-05-3.71532E-05 1.09842E-05 2.75700E-18 2.03390E-18
 -1       335 1.17617E-04-3.08909E-05-3.72742E-05 9.26271E-06 2.53031E-18 4.07150E-18
 -1       336 1.15991E-04-3.39711E-05-3.51375E-05 4.90989E-06 1.98237E-18 3.35893E-18
 -1       337 1.16622E-04-3.42528E-05-3.52769E-05-4.33532E-06-1.59553E-18 1.39519E-19
 -1       338 1.16522E-04-3.64944E-05-3.42953E-05-4.24101E-06-1.24139E-18 2.82128E-19
 -1       339 1.16412E-04-3.76561E-05-3.37586E-05-6.91867E-06-7.18742E-19 4.95497E-19
 -1       340 1.15287E-04-3.70421E-05-3.35393E-05-1.06742E-05-4.67051E-19 4.47463E-19
 -1       341 1.12391E-04-3.39535E-05-3.36212E-05-1.29892E-05-7.69151E-19 4.42438E-19
 -1       342 1.08214E-04-2.91138E-05-3.39030E-05-1.10752E-05-1.22863E-18-7.69063E-20
 -1       343 1.04998E-04-2.53551E-05-3.41308E-05-4.07835E-06-1.33979E-18-5.90116E-19
 -1       344 1.04990E-04-2.55123E-05-3.40831E-05 5.07092E-06-1.45394E-18-1.72922E-18
 -1       345 1.08230E-04-2.96521E-05-3.36849E-05 1.13714E-05-1.28644E-18-2.19228E-18
 -1       346 1.11959E-04-3.44261E-05-3.32450E-05 1.24222E-05-1.35418E-18-2.75976E-18
 -1       347 1.14038E-04-3.72850E-05-3.29167E-05 9.07476E-06-8.86236E-19-3.28535E-18
 -1       348 1.13953E-04-3.76725E-05-3.27151E-05 4.09342E-06-2.70208E-19-3.24946E-18
 -1       349 1.12389E-04-3.64867E-05-3.25521E-05-3.85921E-07-2.72500E-19-2.73901E-18
 -1       350 1.10167E-04-3.47648E-05-3.23326E-05-3.47578E-06-1.07261E-20-2.97108E-18
 -1       351 1.07823E-04-3.31299E-05-3.20222E-05-5.13350E-06-9.76913E-20-3.18544E-18
 -1       352 1.05620E-04-3.18183E-05-3.16338E-05-5.68711E-06 3.32815E-20-2.87190E-18
 -1       353 1.03656E-04-3.08473E-05-3.12041E-05-5.52821E-06 5.71096E-21-1.44650E-18
 -1       354 1.01957E-04-3.01540E-05-3.07704E-05-4.97865E-06-1.18302E-19-1.48145E-18
 -1       355 1.00517E-04-2.96652E-05-3.03616E-05-4.26214E-06 5.42573E-19-1.27432E-18
 -1       356 9.93194E-05-2.93207E-05-2.99955E-05-3.51718E-06 2.38501E-19-1.49893E-18
 -1       357 9.83397E-05-2.90771E-05-2.96802E-05-2.82036E-06 7.40134E-19-1.28149E-18
 -1       358 9.75523E-05-2.89045E-05-2.94172E-05-2.20788E-06-5.92620E-19-9.18836E-19
 -1       359 9.69302E-05-2.87825E-05-2.92034E-05-1.69148E-06-3.72204E-19-1.64247E-18
 -1       360 9.64471E-05-2.86971E-05-2.90334E-05-1.26925E-06 3.36793E-19-2.54329E-18
 -1       361 9.60785E-05-2.86383E-05-2.89011E-05-9.32384E-07-8.32233E-19-2.33392E-18
 -1       362 9.58024E-05-2.85989E-05-2.88001E-05-6.69269E-07-3.59055E-19-1.01169E-18
 -1       363 9.55998E-05-2.85734E-05-2.87245E-05-4.67748E-07 4.27934E-19-1.56059E-18
 -1       364 9.54545E-05-2.85580E-05-2.86692E-05-3.16353E-07 7.60271E-20-1.66438E-18
 -1       365 9.53530E-05-2.85495E-05-2.86295E-05-2.04881E-07-1.48374E-19-2.00071E-18
 -1       366 9.52844E-05-2.85457E-05-2.86019E-05-1.24594E-07-8.48341E-19-2.89358E-18
 -1       367 9.52400E-05-2.85451E-05-2.85833E-05-6.82221E-08-3.94327E-19-2.88060E-18
 -1       368 9.52131E-05-2.85464E-05-2.85713E-05-2.98545E-08 2.86813E-19-1.42427E-18
 -1       369 9.51985E-05-2.85487E-05-2.85641E-05-4.77733E-09-3.64711E-19-3.10076E-19
 -1       370 9.51922E-05-2.85516E-05-2.85602E-05 1.06994E-08 9.65013E-19-6.19961E-19
 -1       371 9.51914E-05-2.85546E-05-2.85586E-05 1.94135E-08 1.63074E-18-4.86068E-19
 -1       372 9.51939E-05-2.85575E-05-2.85585E-05 2.35078E-08 2.48165E-18 6.95041E-19
 -1       373 9.51983E-05-2.85601E-05-2.85592E-05 2.45690E-08 4.42557E-19-2.11918E-19
 -1       374 9.52037E-05-2.85624E-05-2.85605E-05 2.37457E-08-1.07919E-18-1.97460E-21
 -1       375 9.52092E-05-2.85645E-05-2.85620E-05 2.18461E-08-2.12149E-18-2.85190E-19
 -1       376 9.52145E-05-2.85662E-05-2.85636E-05 1.94169E-08-1.32230E-18-1.11566E-18
 -1       377 9.52195E-05-2.85676E-05-2.85651E-05 1.68055E-08 1.95661E-18-1.67124E-18
 -1       378 9.52238E-05-2.85688E-05-2.85664E-05 1.42072E-08 1.32053E-18-1.26494E-18
 -1       379 9.52276E-05-2.85699E-05-2.85676E-05 1.17005E-08 9.69672E-19-2.13044E-18
 -1       380 9.52308E-05-2.85708E-05-2.85686E-05 9.27829E-09-3.43607E-19-1.22900E-18
 -1       381 9.52334E-05-2.85717E-05-2.85693E-05 6.87894E-09 3.67664E-19-6.19194E-19
 -1       382 9.52353E-05-2.85722E-05-2.85699E-05 4.61164E-09-5.92063E-19-1.54116E-18
 -1       383 1.14274E-04-3.49648E-05-3.39677E-05 4.38403E-06 1.50856E-18 2.75508E-18
 -1       384 1.12413E-04-3.50467E-05-3.31507E-05 6.03652E-06 1.17491E-18 2.29579E-18
 -1       385 1.09867E-04-3.41490E-05-3.24483E-05 8.37347E-06 8.58781E-19 2.22613E-18
 -1       386 1.06349E-04-3.20580E-05-3.18330E-05 9.70665E-06 4.40799E-19 1.97539E-18
 -1       387 1.02422E-04-2.92076E-05-3.13699E-05 8.39836E-06 7.18375E-19 1.48333E-18
 -1       388 9.95110E-05-2.68945E-05-3.11106E-05 3.93206E-06 1.19488E-18 1.03333E-18
 -1       389 9.90438E-05-2.65156E-05-3.10701E-05-2.27445E-06 1.08995E-18 2.17749E-19
 -1       390 1.01255E-04-2.83559E-05-3.12274E-05-7.47128E-06 4.33436E-19-2.56436E-19
 -1       391 1.04834E-04-3.12082E-05-3.15454E-05-9.58134E-06 9.61076E-19-7.77990E-19
 -1       392 1.08112E-04-3.36066E-05-3.19327E-05-8.48291E-06 8.48370E-19-1.26321E-18
 -1       393 1.10053E-04-3.47830E-05-3.22719E-05-5.45474E-06 4.70287E-19-1.40847E-18
 -1       394 1.10494E-04-3.48075E-05-3.24555E-05-2.03611E-06 3.48222E-19-1.61907E-18
 -1       395 1.09776E-04-3.41379E-05-3.24342E-05 7.73117E-07 1.76843E-19-1.68377E-18
 -1       396 1.08351E-04-3.32031E-05-3.22197E-05 2.62159E-06 7.72859E-19-1.48943E-18
 -1       397 1.06591E-04-3.22626E-05-3.18633E-05 3.56724E-06 4.33239E-19-1.64594E-18
 -1       398 1.04756E-04-3.14338E-05-3.14272E-05 3.83604E-06 7.26757E-19-1.15152E-18
 -1       399 1.03006E-04-3.07490E-05-3.09672E-05 3.67295E-06-1.88568E-19-1.26224E-18
 -1       400 1.01429E-04-3.02018E-05-3.05238E-05 3.27605E-06-1.62729E-19-2.03155E-18
 -1       401 1.00065E-04-2.97730E-05-3.01220E-05 2.78297E-06 6.43956E-20-2.63593E-18
 -1       402 9.89222E-05-2.94415E-05-2.97740E-05 2.27927E-06 9.12293E-19-2.18258E-18
 -1       403 9.79896E-05-2.91884E-05-2.94829E-05 1.81247E-06-4.46486E-19-1.56334E-18
 -1       404 9.72463E-05-2.89977E-05-2.92464E-05 1.40492E-06-1.65889E-18-8.14486E-19
 -1       405 9.66665E-05-2.88562E-05-2.90591E-05 1.06349E-06-1.03143E-18-5.27565E-19
 -1       406 9.62235E-05-2.87529E-05-2.89139E-05 7.86310E-07-9.87121E-19-4.81792E-19
 -1       407 9.58921E-05-2.86792E-05-2.88039E-05 5.67062E-07 7.51811E-19 1.11269E-18
 -1       408 9.56497E-05-2.86280E-05-2.87224E-05 3.97581E-07 3.99542E-19 1.22428E-18
 -1       409 9.54767E-05-2.85934E-05-2.86633E-05 2.69400E-07 4.35660E-19 4.95094E-19
 -1       410 9.53569E-05-2.85712E-05-2.86217E-05 1.74569E-07-7.30804E-19 6.33363E-20
 -1       411 9.52768E-05-2.85578E-05-2.85934E-05 1.06047E-07-3.83556E-19-1.18678E-18
 -1       412 9.52260E-05-2.85506E-05-2.85748E-05 5.78399E-08 1.23647E-19-2.26121E-18
 -1       413 9.51960E-05-2.85475E-05-2.85634E-05 2.50018E-08-1.79827E-19-1.14967E-18
 -1       414 9.51806E-05-2.85472E-05-2.85570E-05 3.54581E-09-5.26524E-19-2.02939E-19
 -1       415 9.51750E-05-2.85486E-05-2.85541E-05-9.67180E-09 8.13581E-19 1.21755E-18
 -1       416 9.51757E-05-2.85509E-05-2.85535E-05-1.70807E-08-4.60012E-19 2.61482E-18
 -1       417 9.51802E-05-2.85536E-05-2.85542E-05-2.05216E-08-1.55122E-18 2.01462E-18
 -1       418 9.51867E-05-2.85564E-05-2.85558E-05-2.13606E-08-8.13568E-19 8.97252E-19
 -1       419 9.51940E-05-2.85591E-05-2.85578E-05-2.05878E-08-1.14625E-18 7.34793E-19
 -1       420 9.52014E-05-2.85615E-05-2.85600E-05-1.89006E-08 3.22868E-19 1.98237E-18
 -1       421 9.52084E-05-2.85637E-05-2.85620E-05-1.67718E-08 6.80333E-19 1.70472E-18
 -1       422 9.52148E-05-2.85656E-05-2.85640E-05-1.45021E-08 4.52535E-19 2.31976E-18
 -1       423 9.52204E-05-2.85672E-05-2.85657E-05-1.22612E-08 1.24885E-18 1.64826E-18
 -1       424 9.52252E-05-2.85686E-05-2.85671E-05-1.01170E-08 1.89024E-18 5.35980E-19
 -1       425 9.52292E-05-2.85697E-05-2.85683E-05-8.05719E-09 2.03358E-18 5.89586E-19
 -1       426 9.52324E-05-2.85707E-05-2.85693E-05-6.01630E-09 5.73724E-19 1.56712E-18
 -1       427 9.52348E-05-2.85715E-05-2.85700E-05-3.92410E-09 9.59570E-20 3.03410E-18
 -1       428 9.52361E-05-2.85720E-05-2.85703E-05-2.69634E-09 4.58194E-19 3.92738E-18
 -1       429 9.52390E-05-2.85779E-05-2.85690E-05-6.85780E-09-9.57462E-19 1.34525E-18
 -1       430 9.52375E-05-2.85753E-05-2.85695E-05-6.10613E-09 8.84143E-19 1.25373E-18
 -1       431 9.52366E-05-2.85735E-05-2.85699E-05-4.56335E-09-1.86832E-19 4.60682E-18
 -1       432 9.52403E-05-2.85803E-05-2.85686E-05-6.59705E-09-1.03429E-18-2.39230E-18
 -1       433 9.52415E-05-2.85824E-05-2.85682E-05-5.42413E-09-5.50090E-19 1.39470E-20
 -1       434 9.52424E-05-2.85840E-05-2.85679E-05-3.54241E-09-3.55358E-19-1.37647E-18
 -1       435 9.52428E-05-2.85848E-05-2.85677E-05-1.21714E-09-2.08007E-18-1.29876E-18
 -1       436 9.52428E-05-2.85848E-05-2.85677E-05 1.25729E-09-1.41109E-18-8.04161E-19
 -1       437 9.52424E-05-2.85839E-05-2.85679E-05 3.57790E-09-1.73228E-18-8.82734E-19
 -1       438 9.52415E-05-2.85824E-05-2.85682E-05 5.42436E-09-1.54323E-18-1.37921E-18
 -1       439 9.52403E-05-2.85803E-05-2.85686E-05 6.59953E-09 7.37653E-19 1.41603E-18
 -1       440 9.52389E-05-2.85778E-05-2.85691E-05 6.85811E-09 1.09129E-18-1.32878E-18
 -1       441 9.52374E-05-2.85753E-05-2.85695E-05 6.11544E-09 3.06240E-19-9.02934E-19
 -1       442 5.80161E-05-3.85508E-05-8.19429E-06 4.34347E-05-1.60195E-18 3.54864E-18
 -1       443 1.28597E-05-1.90814E-05 2.66358E-06 2.12664E-06 1.90314E-19 5.10930E-18
 -1       444 2.22075E-05-2.45446E-05 8.98599E-07 2.47488E-05-3.42519E-19 4.79442E-18
 -1       445 9.38106E-05-5.15188E-05-1.81779E-05 4.25914E-05-6.13146E-19 5.71562E-19
 -1       446 1.32762E-04-5.40837E-05-3.37128E-05 2.58809E-05 2.17862E-18-7.50154E-19
 -1       447 9.23338E-05-1.46274E-05-3.33671E-05-2.32722E-06-1.13581E-18-3.21287E-18
 -1       448 1.54874E-04-2.45101E-05-5.58871E-05-1.54654E-06 5.13588E-18-2.19678E-18
 -1       449 1.60878E-04-1.47143E-05-6.23606E-05 3.85696E-07 5.72594E-18-1.90246E-18
 -1       450 1.53436E-04-1.38451E-05-5.98774E-05 3.80582E-06 6.69865E-18-1.63694E-18
 -1       451 1.57259E-04-3.07048E-05-5.40818E-05-2.39550E-06 5.46564E-18-2.62644E-18
 -1       452 1.45189E-04-4.51195E-05-4.29496E-05-1.33292E-05 3.80440E-18-2.63226E-18
 -1       453 1.12698E-04-4.92537E-05-2.72634E-05-3.51604E-05 2.22780E-18-4.64619E-18
 -1       454 7.68379E-05-4.14020E-05-1.54008E-05-4.24686E-05 1.80111E-18-5.86230E-18
 -1       455 4.17068E-05-2.86607E-05-5.71848E-06-3.77150E-05 6.15052E-19-6.72375E-18
 -1       456 1.66365E-05-1.46181E-05-7.71579E-07-1.92099E-05-1.62524E-20-7.14578E-18
 -1       457 1.10626E-05-1.46171E-05 1.40068E-06 7.51485E-06-3.00445E-19-6.99723E-18
 -1       458 3.04822E-05-2.53203E-05-2.52671E-06 3.13677E-05-1.36912E-18-6.38938E-18
 -1       459 6.55644E-05-3.85114E-05-1.18064E-05 4.18045E-05-1.98629E-18-6.23557E-18
 -1       460 1.04913E-04-4.99325E-05-2.36950E-05 3.75349E-05-2.55656E-18-4.75275E-18
 -1       461 1.41203E-04-5.08990E-05-3.86719E-05 1.77076E-05-3.71360E-18-3.25981E-18
 -1       462 1.53291E-04-3.90470E-05-4.91066E-05 1.99113E-06-5.23985E-18-2.27132E-18
 -1       463 1.56610E-04-1.92432E-05-5.88543E-05-4.30924E-06-6.64879E-18-2.94042E-18
 -1       464 1.57662E-04-1.27001E-05-6.19943E-05-1.06910E-06-5.97497E-18-3.43834E-18
 -1       465 1.58634E-04-1.77463E-05-6.01430E-05 1.89019E-06-4.99813E-18-3.82615E-18
 -1       466 1.55205E-04-3.54754E-05-5.13575E-05-2.36474E-06-3.30750E-18-3.24445E-18
 -1       467 1.47896E-04-4.72647E-05-4.30496E-05-1.59063E-05-2.78332E-18-2.71252E-18
 -1       468 1.22017E-04-5.33867E-05-2.94781E-05-3.30453E-05-1.46304E-18-1.33387E-18
 -1       469 9.04875E-05-5.02805E-05-1.73188E-05-4.25948E-05-3.61789E-19 4.57715E-19
 -1       470 5.75365E-05-3.96876E-05-7.74434E-06-4.23436E-05-4.10917E-19 3.45251E-18
 -1       471 2.55697E-05-2.49405E-05-2.32838E-07-2.69768E-05 8.73767E-19 6.03977E-18
 -1       472 1.51697E-04-4.11167E-05-4.72704E-05 1.20739E-05 3.95515E-18-1.29734E-18
 -1       473 1.34685E-04-5.42038E-05-3.45616E-05-1.64534E-05 9.54712E-19-1.49660E-18
 -1       474 1.13239E-04-3.36677E-05-3.41001E-05 5.69968E-06 1.81180E-18 1.11773E-18
 -1       475 6.79806E-05-5.52793E-06-2.67618E-05 6.55550E-06 4.18979E-19-4.15769E-18
 -1       476 7.98656E-05-1.26294E-05-2.88214E-05 6.05718E-06-8.78083E-21-3.79027E-18
 -1       477 5.76721E-05 8.62032E-07-2.50686E-05-2.40867E-06 4.30192E-19-4.45049E-18
 -1       478 6.32213E-05-2.79375E-06-2.58842E-05-7.00279E-06 4.52720E-19-4.00776E-18
 -1       479 7.34904E-05-9.24617E-06-2.75381E-05-8.07907E-06 6.09687E-19-3.41022E-18
 -1       480 8.50700E-05-1.60005E-05-2.96175E-05-5.45789E-06 1.11947E-18-2.43887E-18
 -1       481 9.53735E-05-2.14644E-05-3.16988E-05-7.22819E-07 1.48721E-18-1.58107E-18
 -1       482 1.03898E-04-2.57348E-05-3.35214E-05 4.09762E-06 2.01937E-18-6.60277E-19
 -1       483 1.14079E-04-3.63539E-05-3.33074E-05 6.22974E-06 1.46169E-18 1.23593E-18
 -1       484 1.12969E-04-3.42892E-05-3.37274E-05-3.24521E-06-1.07426E-18-9.18850E-19
 -1       485 1.39389E-04-2.10000E-05-5.12866E-05 1.13666E-05 5.27283E-18 4.04299E-19
 -1       486 1.16326E-04-3.88264E-05-3.32166E-05-4.28406E-06-5.72552E-19-3.90092E-19
 -1       487 1.19257E-04-4.12594E-05-3.34363E-05-8.21447E-06-4.35597E-19 1.69995E-19
 -1       488 1.20152E-04-3.96854E-05-3.45161E-05-1.32305E-05-6.75565E-19 3.63244E-19
 -1       489 1.17390E-04-3.28186E-05-3.63385E-05-1.55083E-05-1.52732E-18 4.08747E-20
 -1       490 1.12592E-04-2.39326E-05-3.80948E-05-1.06572E-05-2.18967E-18-8.81272E-19
 -1       491 1.09833E-04-1.99985E-05-3.86247E-05 7.42975E-07-2.51834E-18-2.38471E-18
 -1       492 1.11310E-04-2.42363E-05-3.75969E-05 1.17475E-05-1.99506E-18-3.30729E-18
 -1       493 1.17482E-04-3.42090E-05-3.57110E-05 1.52136E-05-1.37333E-18-3.97153E-18
 -1       494 1.19188E-04-4.07032E-05-3.36693E-05 1.12187E-05-7.37890E-19-2.79596E-18
 -1       495 1.17294E-04-4.21985E-05-3.22042E-05 4.68695E-06-7.94414E-19-2.32006E-18
 -1       496 1.13431E-04-4.01485E-05-3.14197E-05-1.08889E-06-3.19001E-19-2.99262E-18
 -1       497 1.09310E-04-3.69109E-05-3.10371E-05-4.98585E-06 1.15695E-19-2.07914E-18
 -1       498 1.05808E-04-3.38811E-05-3.08329E-05-7.03139E-06 2.37190E-19-9.31381E-19
 -1       499 1.03145E-04-3.15997E-05-3.06658E-05-7.70493E-06-1.80781E-19-1.14670E-18
 -1       500 1.01201E-04-3.00813E-05-3.04807E-05-7.50929E-06 5.60207E-19-1.08100E-18
 -1       501 9.97839E-05-2.91563E-05-3.02682E-05-6.82828E-06-2.87488E-19-9.37333E-19
 -1       502 9.87303E-05-2.86363E-05-3.00388E-05-5.92513E-06 5.74422E-19-7.23579E-19
 -1       503 9.79272E-05-2.83710E-05-2.98080E-05-4.96675E-06 3.05215E-19-8.72588E-19
 -1       504 9.73021E-05-2.82565E-05-2.95892E-05-4.05077E-06 4.02109E-19-5.74514E-19
 -1       505 9.68094E-05-2.82263E-05-2.93912E-05-3.22810E-06-1.56181E-19-1.36290E-18
 -1       506 9.64199E-05-2.82403E-05-2.92185E-05-2.51973E-06-9.26497E-19-1.28293E-18
 -1       507 9.61132E-05-2.82750E-05-2.90724E-05-1.92862E-06-4.61410E-19-1.22825E-18
 -1       508 9.58738E-05-2.83173E-05-2.89519E-05-1.44760E-06-4.83155E-19-1.34881E-18
 -1       509 9.56894E-05-2.83601E-05-2.88548E-05-1.06451E-06 5.73668E-20-1.06002E-18
 -1       510 9.55494E-05-2.83998E-05-2.87779E-05-7.65315E-07 1.24393E-19-4.60556E-19
 -1       511 9.54451E-05-2.84348E-05-2.87183E-05-5.35964E-07-4.03716E-20-4.48135E-19
 -1       512 9.53688E-05-2.84646E-05-2.86730E-05-3.63428E-07-4.90464E-19-1.16357E-18
 -1       513 9.53144E-05-2.84893E-05-2.86391E-05-2.36176E-07-7.47498E-19-8.47818E-19
 -1       514 9.52766E-05-2.85095E-05-2.86143E-05-1.44346E-07-1.02067E-18-1.04859E-18
 -1       515 9.52513E-05-2.85255E-05-2.85967E-05-7.97253E-08-9.33414E-20-1.12428E-18
 -1       516 9.52351E-05-2.85381E-05-2.85844E-05-3.56233E-08 5.94009E-19-8.91711E-19
 -1       517 9.52255E-05-2.85478E-05-2.85762E-05-6.69477E-09 6.26479E-19-1.35853E-19
 -1       518 9.52205E-05-2.85551E-05-2.85709E-05 1.12524E-08 1.52356E-18 2.02071E-18
 -1       519 9.52186E-05-2.85605E-05-2.85678E-05 2.14478E-08 2.03771E-18 4.24029E-19
 -1       520 9.52187E-05-2.85645E-05-2.85661E-05 2.63337E-08-3.46458E-19-1.31033E-18
 -1       521 9.52200E-05-2.85673E-05-2.85655E-05 2.77205E-08-5.24605E-19-1.65985E-18
 -1       522 9.52220E-05-2.85693E-05-2.85655E-05 2.69193E-08-1.98132E-18-1.56165E-18
 -1       523 9.52243E-05-2.85706E-05-2.85659E-05 2.48525E-08-1.59919E-18-5.87391E-19
 -1       524 9.52266E-05-2.85715E-05-2.85665E-05 2.21431E-08-8.21629E-19-1.62271E-18
 -1       525 9.52288E-05-2.85721E-05-2.85672E-05 1.91862E-08 1.34992E-18-2.64309E-18
 -1       526 9.52309E-05-2.85726E-05-2.85679E-05 1.62043E-08 7.06594E-19-1.07314E-18
 -1       527 9.52328E-05-2.85730E-05-2.85685E-05 1.32912E-08 1.35941E-18-7.96212E-19
 -1       528 9.52344E-05-2.85735E-05-2.85690E-05 1.04525E-08 2.07843E-20-5.21191E-19
 -1       529 1.13335E-04-3.58453E-05-3.32126E-05 1.18417E-05 9.58479E-19 1.44160E-18
 -1       530 1.10386E-04-3.16462E-05-3.37492E-05 1.26678E-05 1.01945E-18 9.13774E-19
 -1       531 1.06555E-04-2.63856E-05-3.43824E-05 9.07481E-06 1.67699E-18 2.23473E-19
 -1       532 1.04301E-04-2.34257E-05-3.46802E-05 1.31168E-06 1.52250E-18-8.28686E-20
 -1       533 1.05342E-04-2.51280E-05-3.43902E-05-7.06050E-06 1.37091E-18-4.56602E-19
 -1       534 1.08654E-04-3.01888E-05-3.36479E-05-1.17546E-05 1.36029E-18-1.33860E-18
 -1       535 1.11602E-04-3.51013E-05-3.27967E-05-1.15039E-05 9.68831E-19-1.80990E-18
 -1       536 1.12564E-04-3.76407E-05-3.21231E-05-7.80947E-06 6.99380E-19-1.41583E-18
 -1       537 1.11577E-04-3.76680E-05-3.16887E-05-3.12904E-06 5.80667E-19-1.71320E-18
 -1       538 1.09486E-04-3.61913E-05-3.14244E-05 8.76024E-07 2.66978E-19-1.72940E-18
 -1       539 1.07111E-04-3.42787E-05-3.12239E-05 3.60618E-06 3.56088E-19-1.58335E-18
 -1       540 1.04881E-04-3.25214E-05-3.10181E-05 5.09061E-06 5.19146E-19-1.50224E-18
 -1       541 1.02963E-04-3.11498E-05-3.07802E-05 5.60965E-06 4.64553E-19-7.47446E-19
 -1       542 1.01372E-04-3.01741E-05-3.05137E-05 5.48825E-06-3.43264E-19-5.96481E-19
 -1       543 1.00069E-04-2.95191E-05-3.02344E-05 4.99672E-06-1.35423E-19-9.96902E-20
 -1       544 9.90073E-05-2.90966E-05-2.99597E-05 4.33036E-06 4.56108E-19 7.16895E-21
 -1       545 9.81459E-05-2.88325E-05-2.97034E-05 3.61718E-06-8.40957E-20-9.82540E-19
 -1       546 9.74514E-05-2.86725E-05-2.94744E-05 2.93359E-06-2.99705E-20-2.10176E-19
 -1       547 9.68966E-05-2.85793E-05-2.92768E-05 2.31999E-06-9.96478E-19-3.13076E-20
 -1       548 9.64585E-05-2.85282E-05-2.91113E-05 1.79329E-06-1.22313E-18-2.10041E-19
 -1       549 9.61174E-05-2.85033E-05-2.89760E-05 1.35606E-06-1.00266E-18 2.69706E-19
 -1       550 9.58557E-05-2.84944E-05-2.88680E-05 1.00280E-06-2.15886E-19-7.00521E-19
 -1       551 9.56585E-05-2.84949E-05-2.87835E-05 7.23971E-07 2.16979E-19-7.65748E-19
 -1       552 9.55125E-05-2.85005E-05-2.87188E-05 5.08561E-07 4.05438E-19 2.52432E-19
 -1       553 9.54068E-05-2.85087E-05-2.86701E-05 3.45578E-07 2.97499E-20-2.06220E-19
 -1       554 9.53322E-05-2.85178E-05-2.86344E-05 2.24863E-07 5.64481E-19-2.09943E-18
 -1       555 9.52811E-05-2.85267E-05-2.86088E-05 1.37487E-07-2.02443E-19-1.44765E-18
 -1       556 9.52474E-05-2.85350E-05-2.85909E-05 7.58728E-08-1.62110E-18-9.38241E-19
 -1       557 9.52265E-05-2.85423E-05-2.85788E-05 3.37691E-08-3.02034E-19 8.63216E-19
 -1       558 9.52146E-05-2.85486E-05-2.85711E-05 6.13712E-09-6.74970E-19 1.30316E-18
 -1       559 9.52089E-05-2.85538E-05-2.85664E-05-1.10001E-08-1.12989E-18 2.17381E-18
 -1       560 9.52073E-05-2.85581E-05-2.85639E-05-2.07197E-08 6.13416E-20 1.94327E-18
 -1       561 9.52084E-05-2.85615E-05-2.85629E-05-2.53560E-08-3.02159E-19 5.15342E-19
 -1       562 9.52109E-05-2.85642E-05-2.85629E-05-2.66434E-08-1.17768E-18-2.29297E-19
 -1       563 9.52143E-05-2.85663E-05-2.85634E-05-2.58397E-08-1.60310E-18-3.64529E-19
 -1       564 9.52179E-05-2.85679E-05-2.85643E-05-2.38312E-08 6.17917E-19 1.55413E-18
 -1       565 9.52215E-05-2.85692E-05-2.85653E-05-2.12173E-08 5.31186E-19 8.18056E-19
 -1       566 9.52249E-05-2.85701E-05-2.85663E-05-1.83782E-08 1.47201E-18 2.66399E-19
 -1       567 9.52279E-05-2.85709E-05-2.85673E-05-1.55273E-08 1.30856E-18 1.25241E-18
 -1       568 9.52306E-05-2.85716E-05-2.85681E-05-1.27559E-08 1.61019E-18 3.05848E-18
 -1       569 9.52329E-05-2.85723E-05-2.85688E-05-1.00768E-08-1.01359E-19 4.74298E-18
 -1       570 9.52349E-05-2.85730E-05-2.85694E-05-7.42020E-09-1.73041E-19 5.27758E-18
 -1       571 9.52418E-05-2.85811E-05-2.85688E-05-8.19486E-09 1.57275E-18-8.43724E-19
 -1       572 9.52433E-05-2.85829E-05-2.85687E-05-6.06855E-09 2.87143E-20-1.95723E-19
 -1       573 9.52376E-05-2.85762E-05-2.85692E-05-9.18745E-09-1.03420E-18-4.49648E-20
 -1       574 9.52398E-05-2.85788E-05-2.85690E-05-9.29017E-09-1.60569E-18 6.97360E-19
 -1       575 8.65514E-05-4.62207E-05-1.69683E-05 4.13176E-05-2.01911E-18 1.28299E-18
 -1       576 9.52442E-05-2.85841E-05-2.85686E-05-3.20973E-09-9.65235E-19-2.09774E-18
 -1       577 9.52446E-05-2.85845E-05-2.85686E-05 2.65410E-11-9.59461E-19-1.06872E-18
 -1       578 9.52442E-05-2.85841E-05-2.85686E-05 3.26015E-09-7.73892E-19-1.72878E-19
 -1       579 9.52433E-05-2.85829E-05-2.85687E-05 6.06758E-09-1.18746E-19-1.55650E-18
 -1       580 9.52418E-05-2.85811E-05-2.85688E-05 8.19543E-09 4.49874E-19 5.16400E-19
 -1       581 9.52398E-05-2.85788E-05-2.85690E-05 9.30016E-09-3.60213E-19-7.16823E-19
 -1       582 9.52376E-05-2.85762E-05-2.85692E-05 9.15346E-09-8.85307E-19-1.82168E-18
 -1       583 1.22881E-04-5.96799E-05-2.69976E-05 2.64999E-05-8.02855E-19-1.94251E-18
 -1       584 1.14411E-04-3.73366E-05-3.30351E-05 8.85861E-06 1.10262E-18 1.30723E-18
 -1       585 2.87143E-05-1.38558E-05-5.72533E-06 1.54779E-05-1.21144E-18 3.91679E-18
 -1       586 2.79396E-05-1.32315E-05-5.68264E-06-1.32240E-05 8.18366E-19 4.62988E-18
 -1       587 1.08466E-04-2.81499E-05-3.44531E-05-4.26259E-06-1.58125E-18-1.54066E-18
 -1       588 1.37915E-04-5.78376E-05-3.44166E-05-1.22523E-05-1.58011E-19-3.75283E-18
 -1       589 1.37423E-04-2.77419E-05-4.75234E-05-1.48595E-05-4.44211E-18-9.27713E-19
 -1       590 1.29049E-04-5.71748E-05-3.08188E-05 1.88670E-05-3.54616E-19-1.60378E-18
 -1       591 5.94610E-05-2.04169E-07-2.53848E-05 3.18017E-06 5.01693E-19-4.45962E-18
 -1       592 1.33641E-04-8.18446E-06-5.43227E-05 6.98269E-07 5.65490E-18-1.39795E-18
 -1       593 1.35539E-04-1.15144E-05-5.37496E-05-6.31022E-06-5.49661E-18-3.18731E-18
 -1       594 1.42007E-04-3.62824E-05-4.57584E-05-8.56555E-06 3.32889E-18-3.07526E-18
 -1       595 1.35616E-04-1.48326E-05-5.22942E-05-8.57463E-06 5.19401E-18-2.01925E-18
 -1       596 1.43015E-04-3.94246E-05-4.48178E-05 6.57712E-06 2.79868E-18 2.78886E-19
 -1       597 1.04032E-04-5.00785E-05-2.29384E-05-3.51852E-05-7.58783E-19-3.09514E-18
 -1       598 7.20196E-05-3.63288E-05-1.49708E-05-4.10173E-05-1.40888E-18-4.59735E-18
 -1       599 4.37268E-05-1.61623E-05-1.11948E-05-3.13877E-05-1.22621E-18-5.77661E-18
 -1       600 2.15451E-05-4.14842E-06-6.85219E-06-4.32573E-06 1.02696E-19-6.91814E-18
 -1       601 2.99039E-05-1.14578E-05-7.34563E-06 2.30976E-05 7.69953E-19-6.31061E-18
 -1       602 5.95517E-05-2.88862E-05-1.27053E-05 3.82431E-05 1.17579E-18-5.08696E-18
 -1       603 9.49456E-05-4.72342E-05-2.02359E-05 3.74078E-05 8.03834E-19-3.58673E-18
 -1       604 1.42809E-04-4.88494E-05-4.05414E-05-3.13041E-06-2.52806E-18-2.68880E-19
 -1       605 1.17523E-04-5.85785E-05-2.51468E-05-3.15047E-05 8.42110E-19-2.36621E-18
 -1       606 1.30835E-04-1.08501E-05-5.20576E-05 4.98379E-06-4.63417E-18-4.14003E-18
 -1       607 1.37952E-04-2.35483E-05-4.95726E-05 1.19078E-05-3.48972E-18-4.68621E-18
 -1       608 1.43491E-04-4.88387E-05-4.09256E-05 4.13422E-07-1.36801E-18-3.97745E-18
 -1       609 8.51084E-05-4.63466E-05-1.63017E-05-4.13496E-05 2.01949E-18-2.00985E-19
 -1       610 1.41193E-04-5.30654E-05-3.79743E-05 4.06380E-06 1.41148E-18-2.76503E-18
 -1       611 5.20803E-05-2.84776E-05-9.58968E-06-3.67573E-05 2.60209E-18 3.89900E-18
 -1       612 1.12752E-04-3.04136E-05-3.53154E-05 7.35589E-06 2.36566E-18 1.51164E-18
 -1       613 5.08877E-05-2.74009E-05-9.55607E-06 3.65115E-05-2.07968E-18 3.41026E-18
 -1       614 9.18346E-05-1.92660E-05-3.11216E-05 2.63320E-06-5.54413E-19-3.18719E-18
 -1       615 1.35522E-04-3.77880E-05-4.22496E-05 1.38064E-05-2.12910E-18-4.73621E-18
 -1       616 1.26404E-04-1.21995E-05-4.94442E-05 7.91427E-06 4.96753E-18 1.12033E-19
 -1       617 9.52355E-05-2.85739E-05-2.85693E-05 8.50533E-09-1.45384E-18-1.22079E-18
 -1       618 1.23480E-04-5.50167E-05-2.93054E-05-2.05815E-05-7.80250E-19-1.08674E-18
 -1       619 1.38708E-04-4.93150E-05-3.85416E-05 1.27801E-06 1.04875E-18 5.32122E-19
 -1       620 6.86250E-05-1.03546E-05-2.49459E-05-1.32530E-05-1.83452E-20-3.62636E-18
 -1       621 5.62218E-05-2.18640E-06-2.30872E-05-8.27859E-06 1.88025E-19-4.41257E-18
 -1       622 9.62708E-05-2.66341E-05-2.98409E-05-6.26828E-06 6.68429E-19-1.63463E-18
 -1       623 1.05082E-04-3.08049E-05-3.18388E-05 4.20655E-09 1.29769E-18-6.86600E-19
 -1       624 1.11682E-04-3.49729E-05-3.28653E-05 3.99606E-06 1.35509E-18 1.62080E-20
 -1       625 5.32444E-05-1.62937E-05-1.53750E-05 2.79177E-05 1.62183E-18-4.81043E-18
 -1       626 1.15426E-04-3.91682E-05-3.26864E-05 5.72477E-06 9.12522E-19 4.49105E-19
 -1       627 1.36372E-04-5.37147E-05-3.56437E-05 1.68115E-06 4.23914E-20-4.24991E-18
 -1       628 1.17612E-04-4.27424E-05-3.21085E-05-1.25688E-06 8.13392E-20-8.60233E-19
 -1       629 1.24300E-04-4.60692E-05-3.35646E-05-6.86894E-06-1.32969E-19-5.10867E-20
 -1       630 1.27160E-04-4.17113E-05-3.68018E-05-1.41170E-05-1.30924E-18 1.42093E-19
 -1       631 1.17385E-04-1.47242E-05-4.46303E-05-7.97221E-06-3.82922E-18-1.71177E-18
 -1       632 1.22951E-04-4.78762E-05-3.21937E-05 2.92903E-06-5.22990E-19-3.47167E-18
 -1       633 1.15941E-04-4.50550E-05-3.03699E-05-4.12050E-06-3.82335E-19-2.17299E-18
 -1       634 1.09123E-04-3.99743E-05-2.96288E-05-8.14423E-06 5.38597E-19-1.40910E-18
 -1       635 1.03843E-04-3.51171E-05-2.94574E-05-9.77259E-06 9.57851E-19-1.32473E-18
 -1       636 1.00351E-04-3.15573E-05-2.94849E-05-9.92488E-06 3.13570E-19-1.02453E-18
 -1       637 9.82165E-05-2.92791E-05-2.95451E-05-9.30853E-06 1.05814E-20-4.57580E-19
 -1       638 9.69821E-05-2.79837E-05-2.95705E-05-8.31971E-06 4.12428E-19-3.28466E-19
 -1       639 9.62931E-05-2.73519E-05-2.95457E-05-7.18890E-06 2.23319E-19-2.75868E-19
 -1       640 9.59139E-05-2.71294E-05-2.94784E-05-6.04932E-06-3.89551E-19-1.05905E-18
 -1       641 9.57023E-05-2.71393E-05-2.93835E-05-4.97742E-06 3.36764E-19-2.09230E-18
 -1       642 9.55780E-05-2.72676E-05-2.92753E-05-4.01422E-06-1.32352E-19-2.35216E-18
 -1       643 9.54984E-05-2.74455E-05-2.91651E-05-3.17758E-06 5.70517E-19-1.03598E-18
 -1       644 9.54421E-05-2.76338E-05-2.90603E-05-2.47044E-06-9.71059E-19-3.08086E-19
 -1       645 9.53989E-05-2.78116E-05-2.89657E-05-1.88640E-06-1.16819E-18-1.30367E-18
 -1       646 9.53641E-05-2.79695E-05-2.88832E-05-1.41384E-06 3.79299E-19-1.25410E-18
 -1       647 9.53355E-05-2.81039E-05-2.88134E-05-1.03864E-06 9.52905E-19-7.43360E-19
 -1       648 9.53121E-05-2.82152E-05-2.87557E-05-7.46078E-07-4.58607E-20-7.46361E-20
 -1       649 9.52932E-05-2.83050E-05-2.87091E-05-5.22015E-07-8.89308E-19 9.67948E-20
 -1       650 9.52781E-05-2.83762E-05-2.86722E-05-3.53548E-07-2.25190E-19 2.41527E-19
 -1       651 9.52663E-05-2.84315E-05-2.86434E-05-2.29350E-07-1.37234E-18-5.00166E-19
 -1       652 9.52573E-05-2.84737E-05-2.86215E-05-1.39767E-07-1.31541E-19 5.67057E-19
 -1       653 9.52505E-05-2.85053E-05-2.86051E-05-7.67667E-08-8.92030E-19 5.70373E-19
 -1       654 9.52456E-05-2.85286E-05-2.85930E-05-3.38072E-08 5.09420E-19-7.48181E-19
 -1       655 9.52421E-05-2.85453E-05-2.85843E-05-5.66328E-09 1.43999E-18-7.93556E-19
 -1       656 9.52396E-05-2.85570E-05-2.85783E-05 1.17634E-08 8.12952E-19-1.46251E-18
 -1       657 9.52380E-05-2.85649E-05-2.85742E-05 2.16296E-08-3.81196E-19-2.87651E-18
 -1       658 9.52370E-05-2.85701E-05-2.85715E-05 2.63215E-08-5.70218E-19-2.77624E-18
 -1       659 9.52364E-05-2.85732E-05-2.85699E-05 2.76059E-08-5.32242E-19-3.17966E-18
 -1       660 9.52361E-05-2.85750E-05-2.85690E-05 2.67602E-08-1.50114E-18-2.66842E-18
 -1       661 9.52360E-05-2.85759E-05-2.85686E-05 2.46808E-08-1.20137E-18-1.71465E-18
 -1       662 9.52361E-05-2.85761E-05-2.85686E-05 2.19712E-08 1.06825E-19-5.95648E-19
 -1       663 9.52363E-05-2.85761E-05-2.85686E-05 1.90128E-08 1.24992E-18-2.23659E-18
 -1       664 9.52365E-05-2.85760E-05-2.85688E-05 1.60198E-08 3.27810E-19-2.36515E-18
 -1       665 9.52369E-05-2.85760E-05-2.85690E-05 1.30794E-08 3.81812E-19-3.53452E-18
 -1       666 1.14657E-04-2.87881E-05-3.68618E-05 1.41279E-05 2.13709E-18 8.63429E-19
 -1       667 1.30798E-04-5.61310E-05-3.21258E-05 7.41670E-06-8.10263E-19-3.45367E-18
 -1       668 1.18244E-04-3.70002E-05-3.48528E-05 1.38769E-05 1.13750E-18 1.40223E-18
 -1       669 1.09582E-04-1.97338E-05-3.86064E-05-3.85585E-06 1.97514E-18-1.10962E-18
 -1       670 1.12333E-04-2.62027E-05-3.70384E-05-1.25258E-05 2.28170E-18-2.08031E-18
 -1       671 1.16699E-04-3.56790E-05-3.47332E-05-1.33249E-05 1.27129E-18-2.02710E-18
 -1       672 1.17619E-04-4.12333E-05-3.27623E-05-8.88817E-06 4.28658E-19-1.86067E-18
 -1       673 1.15061E-04-4.19813E-05-3.13309E-05-2.85481E-06 2.31281E-19-1.29845E-18
 -1       674 1.10888E-04-3.95939E-05-3.05558E-05 2.12741E-06 3.38139E-19-7.01317E-19
 -1       675 1.06826E-04-3.63632E-05-3.02006E-05 5.26297E-06 7.72731E-20-5.23462E-19
 -1       676 1.03491E-04-3.33774E-05-3.00523E-05 6.85117E-06 3.19556E-19-4.02483E-19
 -1       677 1.01040E-04-3.11166E-05-2.99693E-05 7.31020E-06-6.52693E-20 3.38467E-19
 -1       678 9.93339E-05-2.96009E-05-2.98862E-05 7.06578E-06 1.10392E-19 6.15142E-19
 -1       679 9.81681E-05-2.86787E-05-2.97809E-05 6.42589E-06-2.37159E-19 4.72656E-19
 -1       680 9.73683E-05-2.81750E-05-2.96536E-05 5.59971E-06-3.16778E-19 4.12646E-19
 -1       681 9.68089E-05-2.79429E-05-2.95132E-05 4.72274E-06-5.76792E-20 1.29799E-18
 -1       682 9.64072E-05-2.78748E-05-2.93702E-05 3.87766E-06 3.57081E-19 9.77864E-19
 -1       683 9.61110E-05-2.78986E-05-2.92332E-05 3.11048E-06-4.47758E-19 1.05110E-18
 -1       684 9.58882E-05-2.79683E-05-2.91079E-05 2.44259E-06-1.25480E-18 1.76991E-18
 -1       685 9.57184E-05-2.80561E-05-2.89976E-05 1.87949E-06-1.36076E-18 1.16603E-18
 -1       686 9.55885E-05-2.81462E-05-2.89034E-05 1.41708E-06-5.76274E-19 1.67667E-18
 -1       687 9.54894E-05-2.82300E-05-2.88251E-05 1.04594E-06 4.79803E-19 1.94477E-18
 -1       688 9.54143E-05-2.83037E-05-2.87614E-05 7.54181E-07 1.06028E-18 1.48951E-18
 -1       689 9.53580E-05-2.83659E-05-2.87107E-05 5.29351E-07 1.10899E-18 1.48450E-19
 -1       690 9.53166E-05-2.84169E-05-2.86711E-05 3.59502E-07 1.14758E-18-6.69808E-19
 -1       691 9.52865E-05-2.84578E-05-2.86408E-05 2.33820E-07-1.98076E-19-6.44291E-20
 -1       692 9.52653E-05-2.84898E-05-2.86180E-05 1.42898E-07-7.78167E-19-1.45195E-19
 -1       693 9.52507E-05-2.85143E-05-2.86013E-05 7.88002E-08-1.52472E-18-1.50138E-18
 -1       694 9.52411E-05-2.85328E-05-2.85892E-05 3.50021E-08-1.02789E-18-4.24230E-19
 -1       695 9.52350E-05-2.85464E-05-2.85808E-05 6.25376E-09-1.87655E-19-2.13149E-19
 -1       696 9.52315E-05-2.85561E-05-2.85751E-05-1.15833E-08-5.10860E-19-1.97980E-18
 -1       697 9.52298E-05-2.85630E-05-2.85715E-05-2.17090E-08-1.53454E-19-1.38335E-20
 -1       698 9.52292E-05-2.85676E-05-2.85693E-05-2.65491E-08-2.64658E-19 1.22660E-18
 -1       699 9.52295E-05-2.85706E-05-2.85681E-05-2.79043E-08-1.77967E-18 2.86205E-18
 -1       700 9.52301E-05-2.85725E-05-2.85676E-05-2.70791E-08-2.54206E-19 2.11848E-18
 -1       701 9.52311E-05-2.85735E-05-2.85675E-05-2.49907E-08 2.12032E-18 5.91255E-19
 -1       702 9.52321E-05-2.85741E-05-2.85677E-05-2.22573E-08 2.51252E-18-1.04344E-18
 -1       703 9.52331E-05-2.85744E-05-2.85681E-05-1.92698E-08 9.29331E-19-1.50265E-18
 -1       704 9.52342E-05-2.85745E-05-2.85684E-05-1.62499E-08-7.74907E-19-1.13951E-18
 -1       705 9.52352E-05-2.85747E-05-2.85688E-05-1.32962E-08 4.89485E-19 8.02771E-19
 -1       706 9.52365E-05-2.85755E-05-2.85690E-05-1.12663E-08-1.15258E-18-4.72554E-20
 -1       707 9.52468E-05-2.85848E-05-2.85694E-05-1.97053E-09 7.55947E-19-1.28476E-18
 -1       708 9.52372E-05-2.85761E-05-2.85691E-05 1.11173E-08 1.06536E-19-3.61620E-18
 -1       709 9.52442E-05-2.85824E-05-2.85693E-05-8.90182E-09-1.29009E-19-2.80724E-18
 -1       710 1.33515E-04-4.01571E-05-4.02714E-05-1.41981E-05-2.18963E-18-1.17526E-19
 -1       711 9.52468E-05-2.85848E-05-2.85694E-05 2.03293E-09-1.44908E-19-1.68137E-18
 -1       712 9.52459E-05-2.85840E-05-2.85694E-05-5.75762E-09-1.48196E-19-2.19541E-18
 -1       713 9.52459E-05-2.85840E-05-2.85694E-05 5.75389E-09-4.84508E-19-1.69050E-19
 -1       714 9.52442E-05-2.85824E-05-2.85693E-05 8.89880E-09 7.39343E-19-8.24133E-19
 -1       715 9.52417E-05-2.85801E-05-2.85692E-05 1.10032E-08 1.00512E-18 3.96333E-20
 -1       716 1.18237E-04-4.04674E-05-3.33383E-05 9.73816E-06 7.67923E-19 1.15721E-18
 -1       717 1.30625E-04-3.05024E-05-4.33815E-05 1.44473E-05 3.05067E-18 2.33305E-18
 -1       718 1.04952E-04-2.95468E-05-3.23525E-05 2.29964E-07-8.26629E-19-1.81284E-18
 -1       719 1.34962E-04-4.56194E-05-3.86930E-05-8.45409E-06 1.25806E-18-3.63120E-18
 -1       720 8.54341E-05-3.63684E-05-2.07200E-05 3.22358E-05 1.97245E-18-3.42106E-18
 -1       721 1.19059E-04-1.16954E-05-4.65045E-05-5.00830E-06 4.17984E-18-1.35710E-18
 -1       722 1.09735E-04-2.00860E-05-3.85766E-05 7.54118E-06 2.07385E-18 1.56931E-19
 -1       723 1.11185E-04-3.67845E-05-3.18895E-05 8.10832E-07-2.05658E-19-1.32167E-18
 -1       724 1.07206E-04-5.17390E-05-2.36078E-05 2.97793E-05-2.12435E-18-1.19654E-18
 -1       725 3.74435E-05-1.05403E-05-1.10225E-05 1.38058E-06-1.85413E-19 2.44268E-18
 -1       726 8.35185E-05-1.95945E-05-2.73879E-05-1.18907E-05 2.56859E-19-2.62068E-18
 -1       727 7.58489E-05-1.46891E-05-2.61712E-05 1.21758E-05 5.83086E-19-3.65954E-18
 -1       728 3.75450E-05-4.67458E-06-1.36739E-05-1.56798E-05-4.43382E-19-5.85347E-18
 -1       729 7.63847E-05-3.62463E-05-1.68582E-05-3.60754E-05 2.40872E-18 1.12137E-18
 -1       730 1.33093E-04-5.34669E-05-3.41997E-05 9.32675E-08-4.56852E-19-7.90388E-20
 -1       731 1.26921E-04-2.65916E-05-4.33950E-05-1.46197E-05 3.28297E-18-3.28802E-18
 -1       732 9.41252E-05-4.26118E-05-2.17968E-05-3.31216E-05-1.99603E-18-2.91982E-18
 -1       733 6.68387E-05-2.47963E-05-1.76158E-05-3.25062E-05-1.69073E-18-4.28212E-18
 -1       734 4.87412E-05-1.83890E-05-1.25328E-05-2.45065E-05 1.58872E-18 3.77274E-18
 -1       735 1.08743E-04-5.33596E-05-2.35213E-05-3.01994E-05 1.93229E-18-2.69987E-18
 -1       736 1.27059E-04-5.87016E-05-2.93111E-05-1.60995E-05 1.20784E-18-4.00575E-18
 -1       737 7.54118E-05-3.41805E-05-1.73351E-05 3.48426E-05-2.24464E-18 1.60793E-18
 -1       738 4.96308E-05-1.81464E-05-1.30230E-05 2.42592E-05-2.04679E-18 2.91861E-18
 -1       739 1.14318E-04-5.15013E-05-2.68271E-05 2.22895E-05 1.27159E-18-1.80249E-18
 -1       740 3.46992E-05-3.51166E-06-1.28651E-05 1.08624E-05 8.20603E-19-6.01648E-18
 -1       741 9.10732E-05-2.36612E-05-2.88608E-05 8.93466E-06 1.64169E-19-3.02686E-18
 -1       742 5.31375E-05-1.40944E-07-2.26345E-05 1.32435E-06 5.77375E-19-4.72374E-18
 -1       743 1.21620E-04-2.15393E-05-4.33460E-05 1.47294E-05 3.00736E-18 1.71463E-18
 -1       744 5.41038E-05-1.12229E-05-1.80740E-05-2.23589E-05-8.98629E-19-4.68863E-18
 -1       745 1.22300E-04-2.84846E-05-4.04476E-05-1.64539E-05-2.59859E-18-6.40569E-21
 -1       746 1.26728E-04-4.60775E-05-3.46407E-05 9.28073E-06 7.00787E-20-4.34886E-18
 -1       747 9.52417E-05-2.85802E-05-2.85692E-05-1.10030E-08-2.56477E-19 4.39346E-18
 -1       748 1.20992E-04-5.48452E-05-2.83149E-05 1.49800E-05-1.83580E-18-3.05890E-18
 -1       749 9.52391E-05-2.85779E-05-2.85691E-05-1.16579E-08-9.08928E-19-4.87787E-19
 -1       750 6.12825E-05-5.50904E-06-2.38473E-05 9.73121E-06 7.38419E-19-4.30875E-18
 -1       751 1.32103E-04-4.02577E-05-3.96129E-05 1.26170E-05 1.64553E-18 1.88190E-18
 -1       752 1.11332E-04-4.91395E-05-2.65998E-05-2.30786E-05-1.64357E-18-1.47263E-18
 -1       753 1.31591E-04-5.32299E-05-3.36576E-05-4.95466E-06-3.31326E-19 3.88272E-19
 -1       754 9.52396E-05-2.85782E-05-2.85692E-05 1.23963E-08 3.89843E-19-2.45494E-18
 -1       755 1.07821E-04-3.65037E-05-3.05771E-05-4.12884E-06 4.83873E-19-4.86597E-19
 -1       756 4.28169E-05-7.45576E-07-1.77121E-05-1.67850E-06 3.10305E-19-5.40509E-18
 -1       757 1.27019E-04-5.36445E-05-3.14676E-05-3.75396E-06 8.95015E-19-3.91391E-18
 -1       758 1.07921E-04-4.31295E-05-2.77511E-05-1.39084E-05 7.49538E-19-1.47674E-18
 -1       759 1.00652E-04-3.59565E-05-2.77311E-05-1.39963E-05 4.57452E-19-1.26472E-18
 -1       760 9.65409E-05-3.11460E-05-2.80280E-05-1.27011E-05 3.80372E-19-9.92824E-19
 -1       761 9.43954E-05-2.81645E-05-2.83850E-05-1.10909E-05 1.60212E-19-1.46386E-18
 -1       762 9.34833E-05-2.65466E-05-2.86869E-05-9.49081E-06 2.54045E-19-1.21003E-18
 -1       763 9.32561E-05-2.58277E-05-2.88975E-05-8.01248E-06-2.61386E-19-1.63123E-18
 -1       764 9.33734E-05-2.56584E-05-2.90204E-05-6.67925E-06 1.64651E-19-2.45519E-18
 -1       765 9.36374E-05-2.57997E-05-2.90731E-05-5.49419E-06-3.68284E-19-1.61908E-18
 -1       766 9.39401E-05-2.60966E-05-2.90756E-05-4.45591E-06 6.41330E-20-1.43945E-18
 -1       767 9.42273E-05-2.64533E-05-2.90459E-05-3.56052E-06 1.05576E-18-1.79653E-18
 -1       768 9.44760E-05-2.68142E-05-2.89978E-05-2.80134E-06 7.20584E-20-1.92983E-18
 -1       769 9.46797E-05-2.71494E-05-2.89415E-05-2.16878E-06-1.44936E-18-7.44134E-19
 -1       770 9.48404E-05-2.74449E-05-2.88837E-05-1.65082E-06-9.91855E-19-7.37734E-19
 -1       771 9.49634E-05-2.76960E-05-2.88288E-05-1.23396E-06 8.13977E-19-1.14131E-18
 -1       772 9.50552E-05-2.79038E-05-2.87792E-05-9.04146E-07 1.09839E-18-1.20094E-18
 -1       773 9.51222E-05-2.80717E-05-2.87359E-05-6.47631E-07-2.24694E-19-4.42876E-19
 -1       774 9.51698E-05-2.82048E-05-2.86993E-05-4.51588E-07-4.59964E-19 6.58859E-19
 -1       775 9.52027E-05-2.83085E-05-2.86690E-05-3.04486E-07-9.21679E-19 2.61483E-19
 -1       776 9.52247E-05-2.83876E-05-2.86444E-05-1.96272E-07-1.01199E-18 3.50160E-19
 -1       777 9.52386E-05-2.84471E-05-2.86250E-05-1.18412E-07-1.00046E-18-1.08810E-18
 -1       778 9.52469E-05-2.84908E-05-2.86098E-05-6.38245E-08-8.85002E-19 4.59613E-19
 -1       779 9.52512E-05-2.85222E-05-2.85982E-05-2.67495E-08-4.47601E-19-4.67558E-19
 -1       780 9.52529E-05-2.85442E-05-2.85894E-05-2.59370E-09 5.29940E-19-1.74145E-18
 -1       781 9.52529E-05-2.85592E-05-2.85830E-05 1.22401E-08-6.59296E-19-3.05954E-18
 -1       782 9.52518E-05-2.85689E-05-2.85784E-05 2.05178E-08-3.37289E-19-2.11982E-18
 -1       783 9.52502E-05-2.85749E-05-2.85751E-05 2.43255E-08-3.77737E-19-9.36320E-19
 -1       784 9.52483E-05-2.85782E-05-2.85729E-05 2.52036E-08-3.83857E-19-2.23459E-19
 -1       785 9.52464E-05-2.85797E-05-2.85714E-05 2.42619E-08 3.88691E-20 5.71983E-19
 -1       786 9.52446E-05-2.85802E-05-2.85705E-05 2.22757E-08-6.28075E-19-1.25024E-18
 -1       787 9.52430E-05-2.85799E-05-2.85699E-05 1.97628E-08 1.53730E-19-3.25892E-18
 -1       788 9.52417E-05-2.85794E-05-2.85695E-05 1.70546E-08 8.38926E-19-1.82192E-18
 -1       789 9.52404E-05-2.85787E-05-2.85693E-05 1.47293E-08-3.16965E-19-1.62182E-18
 -1       790 1.21698E-04-5.02548E-05-3.05661E-05 7.66202E-06 7.94576E-19-9.27179E-19
 -1       791 1.20375E-04-4.76078E-05-3.12186E-05-5.26714E-07-6.12750E-19-1.90148E-18
 -1       792 1.12921E-04-4.37541E-05-2.96689E-05 5.38655E-06-3.12461E-19-1.35957E-18
 -1       793 1.06757E-04-3.89676E-05-2.90456E-05 8.36937E-06-1.58905E-19-4.47157E-19
 -1       794 1.01924E-04-3.44559E-05-2.89186E-05 9.49655E-06 2.22975E-20-4.72276E-19
 -1       795 9.87576E-05-3.11251E-05-2.89870E-05 9.35132E-06-8.63677E-20-4.25273E-20
 -1       796 9.68427E-05-2.89540E-05-2.90957E-05 8.62348E-06 1.34311E-20-5.30892E-19
 -1       797 9.57768E-05-2.76908E-05-2.91797E-05 7.64196E-06-7.32574E-19-4.27303E-19
 -1       798 9.52375E-05-2.70601E-05-2.92187E-05 6.57927E-06-8.23162E-19 8.88095E-21
 -1       799 9.50041E-05-2.68366E-05-2.92144E-05 5.53265E-06-9.54929E-19 7.49749E-19
 -1       800 9.49357E-05-2.68552E-05-2.91771E-05 4.55716E-06 1.00593E-19 1.89437E-18
 -1       801 9.49484E-05-2.70043E-05-2.91187E-05 3.68240E-06-4.42388E-19 2.75073E-18
 -1       802 9.49948E-05-2.72120E-05-2.90496E-05 2.92142E-06-7.42546E-19 2.66254E-18
 -1       803 9.50498E-05-2.74349E-05-2.89776E-05 2.27619E-06-8.75167E-19 1.79627E-18
 -1       804 9.51013E-05-2.76485E-05-2.89082E-05 1.74131E-06-8.11876E-19 6.17289E-19
 -1       805 9.51446E-05-2.78400E-05-2.88448E-05 1.30696E-06-7.63096E-19-7.86817E-19
 -1       806 9.51785E-05-2.80044E-05-2.87888E-05 9.60982E-07 8.00692E-19-3.51498E-19
 -1       807 9.52037E-05-2.81410E-05-2.87411E-05 6.90494E-07 9.60791E-19 1.18110E-18
 -1       808 9.52216E-05-2.82516E-05-2.87014E-05 4.82913E-07 1.31079E-18 1.41165E-18
 -1       809 9.52336E-05-2.83392E-05-2.86690E-05 3.26621E-07-5.40653E-19 1.34758E-18
 -1       810 9.52412E-05-2.84070E-05-2.86432E-05 2.11310E-07-7.18764E-20 1.22544E-18
 -1       811 9.52456E-05-2.84585E-05-2.86230E-05 1.28126E-07-5.30083E-19 1.43607E-18
 -1       812 9.52477E-05-2.84968E-05-2.86075E-05 6.96578E-08-9.24085E-19-4.52439E-19
 -1       813 9.52483E-05-2.85247E-05-2.85958E-05 2.98424E-08-3.98637E-19-1.51081E-18
 -1       814 9.52480E-05-2.85445E-05-2.85872E-05 3.82186E-09-6.65783E-19-1.66034E-18
 -1       815 9.52470E-05-2.85581E-05-2.85810E-05-1.22225E-08-1.53388E-18-2.18730E-19
 -1       816 9.52458E-05-2.85671E-05-2.85766E-05-2.12352E-08-1.29480E-18 1.55690E-18
 -1       817 9.52445E-05-2.85727E-05-2.85736E-05-2.54427E-08-1.84867E-18 2.30992E-18
 -1       818 9.52432E-05-2.85760E-05-2.85717E-05-2.64932E-08-1.20150E-18 9.19273E-19
 -1       819 9.52420E-05-2.85777E-05-2.85705E-05-2.55767E-08 1.37411E-18 1.62886E-18
 -1       820 9.52410E-05-2.85783E-05-2.85697E-05-2.35266E-08 2.16141E-18 1.74082E-18
 -1       821 9.52401E-05-2.85783E-05-2.85694E-05-2.09026E-08 1.14405E-18 3.13316E-18
 -1       822 9.52394E-05-2.85780E-05-2.85692E-05-1.80527E-08 1.14577E-18 1.23881E-18
 -1       823 9.52390E-05-2.85777E-05-2.85691E-05-1.51761E-08 6.51627E-19-2.17995E-18
 -1       824 9.52391E-05-2.85777E-05-2.85691E-05-1.33932E-08-9.50442E-19-1.49064E-18
 -1       825 9.52446E-05-2.85819E-05-2.85697E-05 1.19657E-08-5.68584E-20 9.90108E-19
 -1       826 7.31136E-05-2.31699E-05-2.12084E-05 2.53403E-05 1.61706E-18-3.73687E-18
 -1       827 9.52499E-05-2.85858E-05-2.85703E-05 3.60992E-11 6.70686E-19-2.08204E-18
 -1       828 9.52475E-05-2.85841E-05-2.85701E-05 8.75532E-09-5.66082E-19 8.10334E-19
 -1       829 1.24483E-04-4.51787E-05-3.40421E-05-8.86558E-06 3.15639E-19-3.30659E-18
 -1       830 1.24881E-04-3.70152E-05-3.78305E-05 1.49381E-05 1.85990E-18 2.14383E-18
 -1       831 6.96365E-05-2.59066E-05-1.85087E-05-2.69480E-05 2.04764E-18 1.86039E-18
 -1       832 1.16757E-04-4.93982E-05-2.88772E-05-1.08444E-05 3.82776E-19-2.35962E-18
 -1       833 6.96937E-05-2.40176E-05-1.93862E-05 2.40493E-05-1.53902E-18 2.24159E-18
 -1       834 9.52493E-05-2.85854E-05-2.85703E-05 4.63037E-09-7.73005E-20-1.07966E-18
 -1       835 5.13560E-05-1.32919E-05-1.60407E-05 1.09959E-05-3.88494E-19 2.05593E-18
 -1       836 8.76069E-05-3.36324E-05-2.29078E-05-2.74249E-05-1.47171E-18-2.76301E-18
 -1       837 9.62775E-05-4.31637E-05-2.26485E-05-2.83362E-05 2.20353E-18-2.00858E-18
 -1       838 1.15518E-04-5.26440E-05-2.68827E-05-1.92823E-05 1.56587E-18-3.47048E-18
 -1       839 1.13273E-04-3.89717E-05-3.18498E-05 1.48082E-06 7.17797E-19 2.83295E-20
 -1       840 9.56681E-05-4.11059E-05-2.32616E-05 2.65602E-05-1.70162E-18-8.85484E-19
 -1       841 1.28353E-04-4.90840E-05-3.39771E-05-4.30580E-06-3.00200E-19-2.82484E-18
 -1       842 5.08498E-05-1.32526E-05-1.58283E-05-1.08365E-05 6.03905E-19 2.75516E-18
 -1       843 1.01390E-04-4.10602E-05-2.57382E-05 2.17249E-05 1.60937E-18-2.42075E-18
 -1       844 5.25717E-05-6.98119E-06-1.92966E-05 1.54590E-05 1.12723E-18-4.72340E-18
 -1       845 6.81384E-05-1.50883E-05-2.26414E-05 1.84025E-05 1.12549E-18-3.82410E-18
 -1       846 1.07934E-04-3.96983E-05-2.91925E-05 1.00807E-05 7.00179E-19-1.92414E-18
 -1       847 9.52446E-05-2.85819E-05-2.85697E-05-1.19554E-08-1.46193E-18-5.87296E-19
 -1       848 7.94234E-05-2.33172E-05-2.39383E-05-2.15137E-05-8.46312E-19-3.00477E-18
 -1       849 9.52475E-05-2.85841E-05-2.85701E-05-8.74264E-09-3.10666E-19-3.43632E-19
 -1       850 1.23892E-04-4.43174E-05-3.41498E-05 8.59198E-06 3.01694E-19 1.15029E-18
 -1       851 9.52493E-05-2.85854E-05-2.85703E-05-4.59121E-09 5.28179E-19-9.69494E-19
 -1       852 1.18850E-04-4.33429E-05-3.23691E-05 3.82438E-06 1.41077E-19 2.66102E-19
 -1       853 9.78396E-05-3.24553E-05-2.80084E-05-1.31659E-05-3.47469E-19-1.58767E-18
 -1       854 1.02386E-04-4.11538E-05-2.61435E-05-2.11479E-05-1.41126E-18-1.75083E-18
 -1       855 1.22552E-04-5.14704E-05-3.03990E-05-1.03367E-05-1.03499E-18 2.33384E-19
 -1       856 9.52427E-05-2.85804E-05-2.85696E-05 1.35570E-08-6.52220E-19-1.63439E-18
 -1       857 1.10121E-04-4.60958E-05-2.74604E-05 1.49645E-05-1.29567E-18-1.93091E-18
 -1       858 8.66150E-05-2.59316E-05-2.59302E-05 1.68862E-05 9.65034E-19-3.11314E-18
 -1       859 1.30451E-04-4.73669E-05-3.57429E-05 6.47027E-06 1.14639E-19 1.56345E-18
 -1       860 8.54549E-05-3.04616E-05-2.35466E-05 2.10240E-05-1.34788E-18 4.65471E-19
 -1       861 6.46498E-05-1.70160E-05-2.03443E-05 1.29085E-05-3.17306E-19 1.81718E-18
 -1       862 9.04667E-05-2.94744E-05-2.61430E-05-1.59023E-05 4.81780E-19-6.06805E-19
 -1       863 8.91270E-05-2.62388E-05-2.69527E-05-1.26638E-05-9.41733E-20-6.74907E-19
 -1       864 8.90642E-05-2.46273E-05-2.76154E-05-1.01823E-05 3.10675E-19-1.06994E-18
 -1       865 8.96017E-05-2.40125E-05-2.81095E-05-8.26603E-06-1.74109E-19-3.92779E-19
 -1       866 9.03816E-05-2.39915E-05-2.84527E-05-6.74373E-06-1.05234E-19 4.55722E-21
 -1       867 9.12154E-05-2.43075E-05-2.86747E-05-5.49745E-06-3.87266E-19-6.63531E-19
 -1       868 9.20035E-05-2.47913E-05-2.88052E-05-4.45652E-06 6.53937E-20-1.37623E-18
 -1       869 9.26997E-05-2.53359E-05-2.88702E-05-3.57938E-06-1.65746E-21-1.22447E-18
 -1       870 9.32887E-05-2.58769E-05-2.88907E-05-2.84091E-06 3.52266E-19-1.64748E-18
 -1       871 9.37714E-05-2.63782E-05-2.88828E-05-2.22404E-06-1.59884E-21-1.53028E-18
 -1       872 9.41573E-05-2.68218E-05-2.88581E-05-1.71488E-06-5.51773E-19-1.11688E-18
 -1       873 9.44593E-05-2.72014E-05-2.88248E-05-1.30057E-06 5.49362E-20 8.34424E-19
 -1       874 9.46910E-05-2.75179E-05-2.87885E-05-9.68612E-07 3.00237E-19-2.55423E-19
 -1       875 9.48654E-05-2.77759E-05-2.87526E-05-7.06894E-07 1.47012E-19-1.85628E-18
 -1       876 9.49941E-05-2.79822E-05-2.87194E-05-5.03979E-07 4.34640E-19-1.65723E-18
 -1       877 9.50871E-05-2.81441E-05-2.86899E-05-3.49377E-07-4.12519E-19-9.25112E-19
 -1       878 9.51527E-05-2.82689E-05-2.86645E-05-2.33750E-07-1.10837E-18 1.51058E-19
 -1       879 9.51975E-05-2.83634E-05-2.86432E-05-1.49007E-07-2.14803E-18-3.03031E-19
 -1       880 9.52270E-05-2.84336E-05-2.86257E-05-8.83022E-08-2.32680E-19-2.78105E-19
 -1       881 9.52454E-05-2.84847E-05-2.86117E-05-4.59729E-08-8.89938E-19-6.64423E-19
 -1       882 9.52559E-05-2.85209E-05-2.86007E-05-1.74265E-08 1.90831E-19 1.67157E-18
 -1       883 9.52609E-05-2.85459E-05-2.85921E-05 9.90549E-10-8.01951E-19 1.51399E-18
 -1       884 9.52624E-05-2.85625E-05-2.85856E-05 1.21311E-08-1.31736E-18 1.04814E-18
 -1       885 9.52615E-05-2.85730E-05-2.85808E-05 1.81817E-08-1.62958E-19 3.75659E-19
 -1       886 9.52594E-05-2.85792E-05-2.85772E-05 2.07854E-08 1.17781E-18 2.81193E-19
 -1       887 9.52565E-05-2.85823E-05-2.85747E-05 2.11502E-08 3.66687E-19 3.34941E-19
 -1       888 9.52534E-05-2.85835E-05-2.85728E-05 2.01419E-08-7.43005E-19-1.61759E-20
 -1       889 9.52504E-05-2.85835E-05-2.85716E-05 1.83626E-08-1.52009E-18 1.28693E-18
 -1       890 9.52476E-05-2.85828E-05-2.85706E-05 1.61994E-08 8.83130E-19 1.96982E-18
 -1       891 9.89531E-05-3.49006E-05-2.74215E-05 1.34575E-05-3.04693E-19-1.03706E-18
 -1       892 9.54184E-05-3.06498E-05-2.77626E-05 1.19618E-05-4.73121E-19-8.56829E-19
 -1       893 9.35651E-05-2.79486E-05-2.81218E-05 1.02417E-05 1.47672E-19-6.48861E-19
 -1       894 9.27739E-05-2.64313E-05-2.84325E-05 8.65704E-06-4.50876E-19-3.33663E-19
 -1       895 9.26115E-05-2.57260E-05-2.86651E-05 7.23618E-06-1.00200E-18-4.84304E-19
 -1       896 9.27832E-05-2.55401E-05-2.88184E-05 5.98686E-06-1.03090E-18-4.26054E-19
 -1       897 9.31064E-05-2.56617E-05-2.89048E-05 4.89794E-06-1.04193E-18-7.35169E-19
 -1       898 9.34759E-05-2.59479E-05-2.89406E-05 3.95687E-06-9.88023E-19 2.79005E-19
 -1       899 9.38344E-05-2.63056E-05-2.89409E-05 3.15286E-06-6.14072E-19 5.42306E-19
 -1       900 9.41540E-05-2.66774E-05-2.89185E-05 2.47534E-06-7.56307E-19 5.55053E-19
 -1       901 9.44240E-05-2.70296E-05-2.88833E-05 1.91306E-06-2.84162E-19-6.67591E-19
 -1       902 9.46435E-05-2.73449E-05-2.88423E-05 1.45383E-06-2.33446E-20-4.87664E-19
 -1       903 9.48165E-05-2.76160E-05-2.88002E-05 1.08488E-06-4.31459E-19-1.10123E-18
 -1       904 9.49492E-05-2.78422E-05-2.87601E-05 7.93363E-07-8.20051E-20-6.76842E-21
 -1       905 9.50485E-05-2.80262E-05-2.87239E-05 5.66905E-07 1.52623E-18-5.66397E-19
 -1       906 9.51210E-05-2.81725E-05-2.86922E-05 3.94049E-07 1.16017E-18 5.68277E-19
 -1       907 9.51723E-05-2.82866E-05-2.86653E-05 2.64531E-07-1.05817E-18 8.05813E-19
 -1       908 9.52075E-05-2.83738E-05-2.86430E-05 1.69422E-07-5.27304E-19 4.43289E-19
 -1       909 9.52307E-05-2.84390E-05-2.86250E-05 1.01146E-07 6.95662E-19 1.23147E-19
 -1       910 9.52451E-05-2.84869E-05-2.86107E-05 5.34168E-08-4.76427E-19-3.47182E-19
 -1       911 9.52533E-05-2.85211E-05-2.85995E-05 2.11285E-08-2.61792E-19-1.81818E-20
 -1       912 9.52571E-05-2.85449E-05-2.85910E-05 2.10235E-10-2.51944E-18 5.41587E-19
 -1       913 9.52581E-05-2.85609E-05-2.85845E-05-1.25228E-08-2.52679E-18 1.01494E-18
 -1       914 9.52573E-05-2.85711E-05-2.85798E-05-1.95159E-08-1.54274E-18 1.08507E-19
 -1       915 9.52554E-05-2.85773E-05-2.85764E-05-2.26103E-08-4.42054E-19 6.47951E-19
 -1       916 9.52530E-05-2.85805E-05-2.85739E-05-2.31630E-08-5.21308E-19-7.65276E-20
 -1       917 9.52505E-05-2.85819E-05-2.85723E-05-2.21487E-08 1.08805E-18 2.11342E-18
 -1       918 9.52480E-05-2.85820E-05-2.85711E-05-2.02430E-08 2.63124E-19 2.85241E-18
 -1       919 9.52457E-05-2.85816E-05-2.85704E-05-1.79175E-08 1.49433E-18 3.03306E-18
 -1       920 9.52438E-05-2.85808E-05-2.85698E-05-1.54148E-08 1.89051E-18 3.20002E-18
 -1       921 9.52419E-05-2.85799E-05-2.85694E-05-1.30977E-08-1.30358E-18 3.93456E-18
 -1       922 5.89583E-05-1.33311E-05-1.94350E-05-1.25163E-06-3.07529E-20 1.11636E-18
 -1       923 9.52486E-05-2.85840E-05-2.85706E-05 1.21145E-08-4.39896E-19 7.22331E-19
 -1       924 9.38525E-05-3.48971E-05-2.51941E-05-1.99268E-05 1.24966E-18-1.20795E-18
 -1       925 6.60781E-05-1.87126E-05-2.02021E-05-1.64301E-05 1.19757E-18 1.90668E-18
 -1       926 8.59523E-05-3.25410E-05-2.27673E-05-2.42435E-05 1.59057E-18-1.22949E-18
 -1       927 1.15902E-04-4.39193E-05-3.08453E-05-3.62853E-06-1.63516E-19 2.25054E-19
 -1       928 1.25121E-04-4.86051E-05-3.28436E-05 8.59341E-07-4.86173E-19 1.00941E-18
 -1       929 7.78819E-05-2.30480E-05-2.34523E-05 1.60979E-05-1.24270E-18 7.36864E-19
 -1       930 9.52449E-05-2.85815E-05-2.85700E-05 1.49731E-08 8.47477E-19 2.79991E-19
 -1       931 9.52481E-05-2.85837E-05-2.85705E-05-1.24630E-08 9.92256E-19-1.67175E-18
 -1       932 9.52532E-05-2.85869E-05-2.85713E-05-2.64205E-09-3.54292E-19-9.54773E-19
 -1       933 9.52517E-05-2.85859E-05-2.85710E-05 7.79289E-09 1.02738E-19-4.26290E-19
 -1       934 9.52532E-05-2.85869E-05-2.85713E-05 2.69062E-09-9.85452E-19-1.88233E-18
 -1       935 1.00394E-04-3.93103E-05-2.61295E-05 1.78977E-05-1.04247E-18-2.11653E-18
 -1       936 8.35250E-05-2.20320E-05-2.63522E-05-9.91882E-06 7.15191E-20 6.77521E-19
 -1       937 8.53490E-05-2.18782E-05-2.72025E-05-7.64048E-06 2.73589E-19 5.87643E-19
 -1       938 8.70532E-05-2.21825E-05-2.78018E-05-6.05395E-06 1.53991E-19 9.27123E-20
 -1       939 8.85795E-05-2.27496E-05-2.82129E-05-4.86178E-06-1.76147E-19-5.15662E-19
 -1       940 8.99097E-05-2.34471E-05-2.84841E-05-3.92344E-06-3.13946E-19 1.52299E-19
 -1       941 9.10410E-05-2.41834E-05-2.86533E-05-3.15919E-06 4.34205E-19 3.65892E-21
 -1       942 9.19841E-05-2.49003E-05-2.87503E-05-2.52491E-06 5.29616E-20-8.00548E-19
 -1       943 9.27563E-05-2.55626E-05-2.87973E-05-1.99595E-06 3.81138E-19-9.97285E-19
 -1       944 9.33778E-05-2.61515E-05-2.88113E-05-1.55685E-06 9.89121E-20 3.75161E-20
 -1       945 9.38697E-05-2.66596E-05-2.88044E-05-1.19605E-06 1.77452E-19-3.69858E-21
 -1       946 9.42527E-05-2.70871E-05-2.87853E-05-9.03527E-07-1.22002E-18-1.42088E-18
 -1       947 9.45459E-05-2.74392E-05-2.87600E-05-6.69908E-07-3.83791E-19-2.00010E-18
 -1       948 9.47665E-05-2.77234E-05-2.87327E-05-4.86321E-07 2.05959E-19-1.29902E-18
 -1       949 9.49293E-05-2.79488E-05-2.87060E-05-3.44473E-07 4.44682E-19-1.54444E-18
 -1       950 9.50471E-05-2.81243E-05-2.86812E-05-2.36814E-07-4.51087E-19-1.53448E-18
 -1       951 9.51301E-05-2.82587E-05-2.86592E-05-1.56651E-07-1.64064E-18 9.01518E-20
 -1       952 9.51869E-05-2.83596E-05-2.86403E-05-9.82039E-08-1.39218E-18 2.95103E-19
 -1       953 9.52243E-05-2.84339E-05-2.86245E-05-5.65990E-08-7.64473E-19-1.28473E-19
 -1       954 9.52476E-05-2.84874E-05-2.86115E-05-2.78165E-08 5.27259E-19-3.34013E-19
 -1       955 9.52609E-05-2.85249E-05-2.86011E-05-8.60748E-09-4.59694E-19-1.42024E-18
 -1       956 9.52673E-05-2.85504E-05-2.85930E-05 3.60341E-09-5.00355E-19-1.32526E-18
 -1       957 9.52691E-05-2.85671E-05-2.85866E-05 1.08192E-08 2.64782E-19-7.38753E-19
 -1       958 9.52680E-05-2.85773E-05-2.85818E-05 1.45681E-08 5.27414E-19 1.09695E-18
 -1       959 9.52652E-05-2.85829E-05-2.85781E-05 1.59929E-08 7.67648E-19 1.87888E-20
 -1       960 9.52616E-05-2.85856E-05-2.85754E-05 1.59276E-08-4.85433E-20 4.19818E-19
 -1       961 9.52576E-05-2.85862E-05-2.85734E-05 1.49734E-08 1.59373E-19 2.00263E-18
 -1       962 9.52538E-05-2.85858E-05-2.85720E-05 1.35241E-08-6.45556E-20 2.02758E-18
 -1       963 8.89567E-05-2.61656E-05-2.69130E-05 1.17655E-05-2.37613E-19 7.74637E-19
 -1       964 9.00107E-05-2.89474E-05-2.61625E-05 1.49232E-05-1.23954E-18 8.78189E-20
 -1       965 8.89343E-05-2.46987E-05-2.75309E-05 9.31075E-06-3.79095E-19 1.23426E-18
 -1       966 8.94358E-05-2.40979E-05-2.80026E-05 7.44039E-06-6.27241E-19 9.79075E-19
 -1       967 9.01836E-05-2.40575E-05-2.83398E-05 5.98409E-06-8.58449E-19 9.69687E-20
 -1       968 9.09930E-05-2.43352E-05-2.85678E-05 4.81533E-06-5.75138E-19-5.35131E-19
 -1       969 9.17757E-05-2.47842E-05-2.87108E-05 3.85895E-06-1.57370E-18-9.87335E-19
 -1       970 9.24835E-05-2.53048E-05-2.87910E-05 3.06911E-06-1.47217E-18-3.78749E-19
 -1       971 9.30957E-05-2.58333E-05-2.88268E-05 2.41580E-06-7.16936E-19-5.12337E-19
 -1       972 9.36077E-05-2.63311E-05-2.88329E-05 1.87800E-06 1.23484E-19-6.45893E-19
 -1       973 9.40244E-05-2.67775E-05-2.88202E-05 1.43929E-06 1.95606E-20-6.49524E-19
 -1       974 9.43557E-05-2.71634E-05-2.87968E-05 1.08566E-06 1.81662E-19-5.10601E-19
 -1       975 9.46134E-05-2.74875E-05-2.87683E-05 8.04456E-07 1.26947E-19-1.55270E-18
 -1       976 9.48096E-05-2.77532E-05-2.87385E-05 5.84137E-07 4.32531E-19-1.97827E-18
 -1       977 9.49559E-05-2.79663E-05-2.87098E-05 4.14227E-07-1.34556E-19-4.65679E-19
 -1       978 9.50624E-05-2.81338E-05-2.86837E-05 2.85387E-07-3.93686E-19 8.00561E-20
 -1       979 9.51379E-05-2.82631E-05-2.86607E-05 1.89458E-07-1.07496E-19 4.71648E-19
 -1       980 9.51899E-05-2.83608E-05-2.86411E-05 1.19467E-07-6.85990E-19 7.06919E-19
 -1       981 9.52243E-05-2.84333E-05-2.86247E-05 6.95698E-08-2.68664E-19 8.20225E-19
 -1       982 9.52459E-05-2.84858E-05-2.86115E-05 3.49688E-08-8.49094E-19 7.31178E-19
 -1       983 9.52583E-05-2.85229E-05-2.86009E-05 1.17945E-08-1.70951E-18 2.14862E-18
 -1       984 9.52643E-05-2.85483E-05-2.85926E-05-3.01659E-09-2.49558E-18 1.84339E-18
 -1       985 9.52661E-05-2.85650E-05-2.85862E-05-1.18467E-08-3.57597E-19 1.38586E-18
 -1       986 9.52652E-05-2.85754E-05-2.85814E-05-1.65143E-08-9.48865E-19 6.93037E-19
 -1       987 9.52628E-05-2.85813E-05-2.85778E-05-1.83806E-08 3.19691E-19-1.11746E-18
 -1       988 9.52595E-05-2.85842E-05-2.85751E-05-1.84448E-08-1.28547E-18-1.56262E-18
 -1       989 9.52559E-05-2.85851E-05-2.85732E-05-1.74153E-08 2.69313E-19 7.62538E-20
 -1       990 9.52524E-05-2.85848E-05-2.85718E-05-1.57794E-08 2.25934E-18-1.90451E-18
 -1       991 9.52502E-05-2.85843E-05-2.85711E-05-1.41439E-08 1.50209E-18-2.01659E-18
 -1       992 6.74473E-05-1.55402E-05-2.22065E-05 4.52479E-06-1.68320E-19 1.96752E-18
 -1       993 9.52517E-05-2.85859E-05-2.85710E-05-7.76383E-09 4.30732E-19 4.20951E-19
 -1       994 8.17755E-05-2.30209E-05-2.51702E-05-1.32817E-05 2.79499E-19 3.88328E-19
 -1       995 7.98534E-05-2.50485E-05-2.34402E-05-1.80808E-05 1.03156E-18-8.36842E-20
 -1       996 6.83249E-05-1.63332E-05-2.22491E-05-7.80269E-06 3.05923E-19 1.09775E-18
 -1       997 9.52564E-05-2.85877E-05-2.85723E-05-5.89280E-09-2.88113E-21-1.02503E-18
 -1       998 9.52573E-05-2.85882E-05-2.85725E-05 6.80548E-13-6.78987E-20-1.58511E-18
 -1       999 8.36513E-05-2.03987E-05-2.71105E-05-4.35264E-06-2.11370E-19 2.19313E-19
 -1      1000 8.59608E-05-2.12731E-05-2.77244E-05-3.43904E-06-3.39557E-19-1.74848E-19
 -1      1001 8.78578E-05-2.21956E-05-2.81416E-05-2.77023E-06-1.80854E-19-1.72096E-19
 -1      1002 8.94166E-05-2.31094E-05-2.84178E-05-2.24323E-06 2.70698E-19 6.02110E-20
 -1      1003 9.06971E-05-2.39802E-05-2.85933E-05-1.81026E-06-1.85017E-19-6.51363E-20
 -1      1004 9.17420E-05-2.47820E-05-2.86974E-05-1.44814E-06-1.73755E-19 3.10386E-19
 -1      1005 9.25860E-05-2.54984E-05-2.87521E-05-1.14443E-06 7.14340E-19-3.85162E-19
 -1      1006 9.32593E-05-2.61216E-05-2.87735E-05-8.91395E-07-1.62579E-19-5.21039E-19
 -1      1007 9.37890E-05-2.66512E-05-2.87735E-05-6.83099E-07-8.58528E-19-7.40749E-19
 -1      1008 9.41996E-05-2.70918E-05-2.87606E-05-5.14166E-07-2.85449E-19-9.66807E-20
 -1      1009 9.45128E-05-2.74514E-05-2.87407E-05-3.79384E-07-2.13134E-19 1.38365E-19
 -1      1010 9.47476E-05-2.77393E-05-2.87179E-05-2.73686E-07 6.41123E-19-1.13567E-18
 -1      1011 9.49202E-05-2.79660E-05-2.86947E-05-1.92273E-07-2.71625E-19-9.95009E-19
 -1      1012 9.50445E-05-2.81412E-05-2.86729E-05-1.30734E-07 2.03199E-19-1.39327E-18
 -1      1013 9.51317E-05-2.82743E-05-2.86532E-05-8.51491E-08-1.40536E-18-9.84698E-19
 -1      1014 9.51909E-05-2.83735E-05-2.86361E-05-5.21268E-08-1.83032E-18-1.68743E-18
 -1      1015 9.52295E-05-2.84459E-05-2.86216E-05-2.88105E-08-1.40715E-18-2.82253E-18
 -1      1016 9.52532E-05-2.84975E-05-2.86096E-05-1.28490E-08-5.92994E-20-3.95659E-18
 -1      1017 9.52664E-05-2.85332E-05-2.85999E-05-2.34738E-09-7.50198E-19-2.85620E-18
 -1      1018 9.52723E-05-2.85571E-05-2.85922E-05 4.19028E-09 6.58756E-19-2.28762E-18
 -1      1019 9.52734E-05-2.85723E-05-2.85862E-05 7.92207E-09 2.26203E-18-9.66169E-19
 -1      1020 9.52716E-05-2.85813E-05-2.85816E-05 9.72604E-09 6.23244E-19-1.62448E-19
 -1      1021 9.52681E-05-2.85860E-05-2.85781E-05 1.02572E-08 1.00489E-18-7.10933E-21
 -1      1022 9.52638E-05-2.85878E-05-2.85754E-05 9.97998E-09 1.94587E-19-8.40831E-19
 -1      1023 9.52593E-05-2.85879E-05-2.85734E-05 9.28052E-09-3.41592E-19-9.07522E-19
 -1      1024 7.99946E-05-2.15933E-05-2.50238E-05 1.15107E-05-8.21403E-19-2.74340E-19
 -1      1025 8.57601E-05-2.21602E-05-2.72589E-05 6.90979E-06-5.00234E-19-1.32375E-19
 -1      1026 8.72814E-05-2.24180E-05-2.77998E-05 5.35158E-06-4.05424E-20-1.48849E-19
 -1      1027 8.87006E-05-2.29334E-05-2.81867E-05 4.19577E-06-8.69312E-20-8.80101E-19
 -1      1028 8.99573E-05-2.35818E-05-2.84472E-05 3.30924E-06-5.45368E-19-1.12880E-18
 -1      1029 9.10430E-05-2.42778E-05-2.86141E-05 2.60936E-06-1.89265E-18-1.11060E-18
 -1      1030 9.19617E-05-2.49649E-05-2.87133E-05 2.04741E-06-6.81501E-19-1.43041E-18
 -1      1031 9.27238E-05-2.56066E-05-2.87648E-05 1.59305E-06-5.13415E-19-1.05703E-18
 -1      1032 9.33441E-05-2.61821E-05-2.87840E-05 1.22587E-06-4.34019E-19-4.23002E-19
 -1      1033 9.38398E-05-2.66819E-05-2.87822E-05 9.30839E-07 2.37437E-20-8.50405E-19
 -1      1034 9.42288E-05-2.71044E-05-2.87677E-05 6.95999E-07 1.80339E-19-1.52636E-18
 -1      1035 9.45283E-05-2.74534E-05-2.87465E-05 5.11254E-07 2.73048E-19 3.05910E-19
 -1      1036 9.47548E-05-2.77358E-05-2.87225E-05 3.67867E-07-2.31061E-19 7.36309E-19
 -1      1037 9.49224E-05-2.79597E-05-2.86984E-05 2.58231E-07-1.91133E-19-4.20117E-20
 -1      1038 9.50438E-05-2.81341E-05-2.86757E-05 1.75768E-07-9.34383E-19-5.45300E-19
 -1      1039 9.51295E-05-2.82673E-05-2.86553E-05 1.14864E-07-6.25465E-19 3.52378E-20
 -1      1040 9.51881E-05-2.83671E-05-2.86376E-05 7.08010E-08-2.53142E-19 9.10132E-20
 -1      1041 9.52266E-05-2.84404E-05-2.86227E-05 3.96816E-08-9.91325E-19 6.67609E-19
 -1      1042 9.52504E-05-2.84929E-05-2.86104E-05 1.83396E-08-2.29908E-18 1.18851E-18
 -1      1043 9.52638E-05-2.85295E-05-2.86004E-05 4.24594E-09-1.68954E-18 9.61855E-19
 -1      1044 9.52701E-05-2.85542E-05-2.85925E-05-4.58529E-09-1.49895E-18 2.83606E-19
 -1      1045 9.52716E-05-2.85700E-05-2.85864E-05-9.68672E-09-2.45949E-19 1.69741E-19
 -1      1046 9.52702E-05-2.85796E-05-2.85817E-05-1.22186E-08 1.29491E-18 1.42781E-19
 -1      1047 9.52670E-05-2.85847E-05-2.85781E-05-1.30382E-08-3.23831E-19 6.54883E-19
 -1      1048 9.52630E-05-2.85869E-05-2.85755E-05-1.27890E-08-3.66998E-19-1.29799E-19
 -1      1049 9.52588E-05-2.85873E-05-2.85735E-05-1.19064E-08 1.87916E-18-1.38602E-18
 -1      1050 8.07862E-05-1.96128E-05-2.62253E-05-5.62131E-06 6.88256E-20 8.00300E-19
 -1      1051 9.52564E-05-2.85877E-05-2.85723E-05 5.74680E-09-4.91215E-19-6.65862E-19
 -1      1052 8.34020E-05-2.18841E-05-2.63560E-05 8.68278E-06-3.88362E-19-3.93708E-19
 -1      1053 7.58918E-05-1.82825E-05-2.46869E-05-6.54386E-06 1.26954E-19 4.60607E-19
 -1      1054 7.40665E-05-1.69158E-05-2.44835E-05 1.45166E-06-2.75429E-19 1.20749E-18
 -1      1055 9.52538E-05-2.85863E-05-2.85718E-05-1.03877E-08 1.08214E-18 1.99480E-19
 -1      1056 9.52612E-05-2.85888E-05-2.85739E-05-3.34883E-09-1.68991E-19-3.04329E-18
 -1      1057 8.60858E-05-2.12062E-05-2.78067E-05-9.23525E-07-5.25656E-19-4.30956E-19
 -1      1058 8.80046E-05-2.22405E-05-2.81854E-05-7.92824E-07-2.52854E-19-1.30602E-18
 -1      1059 8.95651E-05-2.32154E-05-2.84361E-05-6.72390E-07-1.99735E-19-1.43275E-18
 -1      1060 9.08362E-05-2.41150E-05-2.85952E-05-5.61233E-07 1.68217E-19-1.50683E-18
 -1      1061 9.18665E-05-2.49252E-05-2.86894E-05-4.59933E-07-4.18925E-19-1.46255E-18
 -1      1062 9.26939E-05-2.56375E-05-2.87386E-05-3.69597E-07 3.18200E-19-2.18957E-18
 -1      1063 9.33507E-05-2.62496E-05-2.87577E-05-2.91038E-07-3.89756E-19-1.70751E-18
 -1      1064 9.38651E-05-2.67647E-05-2.87574E-05-2.24439E-07-9.25430E-19-1.86876E-18
 -1      1065 9.42618E-05-2.71896E-05-2.87453E-05-1.69351E-07 6.01432E-20-1.85308E-18
 -1      1066 9.45629E-05-2.75335E-05-2.87269E-05-1.24841E-07-8.03292E-20-1.27259E-18
 -1      1067 9.47874E-05-2.78071E-05-2.87059E-05-8.96773E-08 2.74348E-19-1.16911E-18
 -1      1068 9.49514E-05-2.80208E-05-2.86846E-05-6.25013E-08-1.16104E-18-7.77597E-19
 -1      1069 9.50685E-05-2.81848E-05-2.86645E-05-4.19584E-08-1.25461E-18-2.00198E-18
 -1      1070 9.51499E-05-2.83083E-05-2.86464E-05-2.67840E-08-1.59551E-18-1.26518E-18
 -1      1071 9.52045E-05-2.83996E-05-2.86306E-05-1.58531E-08-2.00847E-18-3.51134E-19
 -1      1072 9.52394E-05-2.84656E-05-2.86173E-05-8.20238E-09-7.18147E-19 2.82137E-19
 -1      1073 9.52602E-05-2.85120E-05-2.86064E-05-3.03134E-09-6.28643E-19 3.90267E-20
 -1      1074 9.52712E-05-2.85437E-05-2.85975E-05 3.07657E-10 1.25007E-19 2.72323E-19
 -1      1075 9.52754E-05-2.85645E-05-2.85904E-05 2.32659E-09 1.94366E-18-5.51567E-19
 -1      1076 9.52754E-05-2.85773E-05-2.85849E-05 3.42215E-09 1.17087E-18-2.08750E-18
 -1      1077 9.52727E-05-2.85846E-05-2.85806E-05 3.89867E-09 4.87883E-19-2.98159E-18
 -1      1078 9.52685E-05-2.85880E-05-2.85774E-05 3.97114E-09 1.36809E-19-2.13680E-18
 -1      1079 9.52637E-05-2.85890E-05-2.85749E-05 3.80489E-09-6.72380E-19-1.80106E-18
 -1      1080 8.63576E-05-2.15391E-05-2.77782E-05 2.94186E-06 8.75740E-20 4.66191E-19
 -1      1081 8.81347E-05-2.24157E-05-2.81643E-05 2.26025E-06-2.14688E-19 1.35197E-18
 -1      1082 8.96120E-05-2.32917E-05-2.84223E-05 1.74777E-06-1.05952E-18 1.26787E-18
 -1      1083 9.08362E-05-2.41308E-05-2.85875E-05 1.35337E-06-8.00119E-19-6.59960E-20
 -1      1084 9.18420E-05-2.49062E-05-2.86864E-05 1.04483E-06-3.23700E-19-4.68838E-19
 -1      1085 9.26589E-05-2.56006E-05-2.87390E-05 8.01317E-07-2.13267E-19-3.92735E-19
 -1      1086 9.33133E-05-2.62057E-05-2.87602E-05 6.08701E-07-2.50553E-19-1.24736E-18
 -1      1087 9.38297E-05-2.67202E-05-2.87611E-05 4.56793E-07 3.57699E-19-4.71295E-19
 -1      1088 9.42308E-05-2.71482E-05-2.87495E-05 3.37797E-07 3.64923E-19-5.98429E-19
 -1      1089 9.45369E-05-2.74972E-05-2.87312E-05 2.45472E-07-6.66590E-19-2.80831E-19
 -1      1090 9.47664E-05-2.77764E-05-2.87100E-05 1.74679E-07 1.77959E-19-6.11025E-19
 -1      1091 9.49350E-05-2.79956E-05-2.86883E-05 1.21136E-07-1.07678E-19-3.14168E-19
 -1      1092 9.50560E-05-2.81647E-05-2.86677E-05 8.12689E-08-9.47537E-19 4.44735E-19
 -1      1093 9.51406E-05-2.82927E-05-2.86491E-05 5.21122E-08-9.96185E-19-2.45392E-19
 -1      1094 9.51978E-05-2.83877E-05-2.86329E-05 3.12293E-08-6.93264E-19 3.94326E-19
 -1      1095 9.52348E-05-2.84567E-05-2.86192E-05 1.66422E-08-1.16899E-18-2.72861E-20
 -1      1096 9.52571E-05-2.85056E-05-2.86078E-05 6.76707E-09-1.19998E-18-6.55533E-19
 -1      1097 9.52692E-05-2.85392E-05-2.85986E-05 3.53639E-10-2.48556E-19-2.11166E-18
 -1      1098 9.52743E-05-2.85614E-05-2.85913E-05-3.57025E-09-4.86074E-19-2.26995E-18
 -1      1099 9.52748E-05-2.85753E-05-2.85855E-05-5.74912E-09-9.60820E-20-3.72914E-18
 -1      1100 9.52725E-05-2.85833E-05-2.85811E-05-6.74539E-09 6.87586E-19-3.34889E-18
 -1      1101 9.52687E-05-2.85873E-05-2.85777E-05-6.96648E-09-5.11662E-19-3.64253E-18
 -1      1102 9.52652E-05-2.85888E-05-2.85756E-05-5.18238E-09 6.58826E-19-4.69070E-18
 -1      1103 8.06094E-05-1.89169E-05-2.64306E-05-1.29502E-06 2.33457E-19 7.28437E-19
 -1      1104 7.78113E-05-1.80420E-05-2.55893E-05-2.96036E-07 3.47308E-19 8.82729E-19
 -1      1105 8.42458E-05-2.07234E-05-2.72276E-05 3.87918E-06-5.02647E-19-1.99981E-19
 -1      1106 8.36954E-05-2.01122E-05-2.72493E-05-1.06302E-06-6.98905E-19 7.75914E-19
 -1      1107 7.95057E-05-1.93531E-05-2.58085E-05 5.64936E-06-6.29138E-19 2.90331E-19
 -1      1108 1.35340E-04 3.13352E-10-4.88882E-05-4.23575E-05-3.58718E-19 8.99782E-18
 -1      1109 1.03363E-04 9.97152E-11-4.30486E-05-1.94812E-05-1.74489E-19 4.47763E-19
 -1      1110 9.36925E-05 5.95515E-11-3.96167E-05-1.02777E-05-1.17314E-19-3.10549E-18
 -1      1111 8.61669E-05 4.23586E-11-3.65975E-05-4.49885E-06-6.47980E-20-4.73437E-18
 -1      1112 7.92229E-05 2.79263E-11-3.37852E-05-5.75221E-07-4.44692E-20-5.52624E-18
 -1      1113 7.28877E-05 1.30019E-11-3.12577E-05 1.56692E-06-1.60936E-20-5.89600E-18
 -1      1114 6.76862E-05-1.31855E-12-2.92097E-05 1.91878E-06-2.75286E-21-6.05304E-18
 -1      1115 6.43526E-05-1.12163E-11-2.79089E-05 7.84332E-07 4.28810E-21-6.04462E-18
 -1      1116 6.35524E-05-1.31542E-11-2.75898E-05-1.08379E-06 1.64245E-20-5.88696E-18
 -1      1117 6.53952E-05-6.42943E-12-2.82896E-05-2.65081E-06 2.94344E-20-5.60729E-18
 -1      1118 6.94220E-05 6.33016E-12-2.98460E-05-3.00300E-06 3.45166E-20-5.17926E-18
 -1      1119 7.47826E-05 2.07249E-11-3.19529E-05-1.68260E-06 5.39984E-20-4.56275E-18
 -1      1120 8.07348E-05 3.39827E-11-3.43451E-05 1.32014E-06 7.34801E-20-3.73241E-18
 -1      1121 8.69341E-05 4.57449E-11-3.68838E-05 5.83180E-06 1.01220E-19-2.43515E-18
 -1      1122 9.35393E-05 6.01360E-11-3.95803E-05 1.18349E-05 1.32349E-19-1.68335E-19
 -1      1123 1.02000E-04 9.22016E-11-4.27505E-05 2.04665E-05 1.43149E-19 4.02587E-18
 -1      1124 1.23594E-04 2.04866E-10-4.71515E-05 3.66696E-05 2.91803E-19 1.24173E-17
 -1      1125 1.52755E-04-3.13350E-05-4.77527E-05-2.69101E-05-1.32688E-18 1.42869E-17
 -1      1126 1.23893E-04-3.67895E-05-3.96275E-05-1.40379E-08-4.94085E-19 1.12380E-17
 -1      1127 1.20169E-04-3.59993E-05-3.66916E-05 5.75412E-07-1.58686E-19 7.24541E-18
 -1      1128 1.19312E-04-3.58286E-05-3.56683E-05 2.49687E-07-1.34450E-19 4.76295E-18
 -1      1129 1.17113E-04-3.51261E-05-3.48016E-05-4.61247E-08-1.08768E-19 2.92100E-18
 -1      1130 1.12137E-04-3.36004E-05-3.33021E-05-3.58171E-07-3.77823E-20 1.98036E-18
 -1      1131 1.04146E-04-3.12198E-05-3.10736E-05-6.25884E-07 2.70323E-20 9.86158E-19
 -1      1132 9.46644E-05-2.84454E-05-2.85568E-05-6.96171E-07 2.96462E-21 4.03929E-19
 -1      1133 8.68842E-05-2.61964E-05-2.65664E-05-4.46523E-07 4.84132E-20-9.95317E-19
 -1      1134 8.41889E-05-2.54248E-05-2.58948E-05 5.47407E-08-8.60930E-21-2.41970E-18
 -1      1135 8.79159E-05-2.64908E-05-2.68432E-05 5.39449E-07 5.85313E-20-3.32355E-18
 -1      1136 9.63573E-05-2.89285E-05-2.90237E-05 7.60219E-07 1.64599E-19-2.96694E-18
 -1      1137 1.05996E-04-3.17404E-05-3.15995E-05 6.78094E-07-7.40029E-20-4.16687E-18
 -1      1138 1.13667E-04-3.40077E-05-3.37550E-05 4.24400E-07-8.90311E-20-4.43549E-18
 -1      1139 1.17879E-04-3.52751E-05-3.50341E-05 1.62691E-07-3.39740E-20-4.76779E-18
 -1      1140 1.18754E-04-3.55603E-05-3.53948E-05-1.94816E-08-1.36491E-19-5.01814E-18
 -1      1141 1.17245E-04-3.51338E-05-3.50506E-05-1.11610E-07-1.77288E-19-5.36403E-18
 -1      1142 1.14425E-04-3.43106E-05-3.42871E-05-1.38625E-07-1.37038E-19-5.87820E-18
 -1      1143 1.11134E-04-3.33401E-05-3.33501E-05-1.29946E-07 9.55537E-20-6.76726E-18
 -1      1144 1.07906E-04-3.23824E-05-3.24064E-05-1.06757E-07 2.08629E-19-7.07131E-18
 -1      1145 1.05021E-04-3.15226E-05-3.15492E-05-8.09772E-08-6.28045E-20-6.42727E-18
 -1      1146 1.02589E-04-3.07949E-05-3.08188E-05-5.79886E-08-1.41307E-20-4.70490E-18
 -1      1147 1.00620E-04-3.02038E-05-3.02232E-05-3.95245E-08 8.23103E-20-3.81314E-18
 -1      1148 9.90732E-05-2.97383E-05-2.97532E-05-2.55875E-08-4.06944E-19-5.62700E-18
 -1      1149 9.78896E-05-2.93811E-05-2.93920E-05-1.55149E-08 1.29822E-19-5.10199E-18
 -1      1150 9.70044E-05-2.91132E-05-2.91210E-05-8.49221E-09 7.05999E-20-3.67995E-18
 -1      1151 9.63574E-05-2.89169E-05-2.89222E-05-3.76742E-09 2.28553E-19-3.94839E-18
 -1      1152 9.58959E-05-2.87765E-05-2.87800E-05-7.19406E-10-6.59511E-20-6.35941E-18
 -1      1153 9.55758E-05-2.86788E-05-2.86810E-05 1.13644E-09 1.81807E-19-7.35468E-18
 -1      1154 9.53614E-05-2.86130E-05-2.86143E-05 2.16586E-09 1.68011E-19-6.05293E-18
 -1      1155 9.52244E-05-2.85708E-05-2.85714E-05 2.63863E-09-3.64214E-19-5.16962E-18
 -1      1156 9.51427E-05-2.85453E-05-2.85456E-05 2.75013E-09 4.07151E-19-3.12712E-18
 -1      1157 9.50996E-05-2.85317E-05-2.85317E-05 2.63930E-09-3.13040E-19-2.26614E-18
 -1      1158 9.50825E-05-2.85260E-05-2.85259E-05 2.40294E-09-2.49716E-19-5.52312E-18
 -1      1159 9.50822E-05-2.85255E-05-2.85253E-05 2.10680E-09 1.85643E-19-8.06081E-18
 -1      1160 9.50920E-05-2.85282E-05-2.85279E-05 1.79403E-09 3.43159E-19-5.86103E-18
 -1      1161 9.51073E-05-2.85325E-05-2.85322E-05 1.49160E-09-1.64605E-19-3.08018E-18
 -1      1162 9.51250E-05-2.85377E-05-2.85374E-05 1.21514E-09-2.74025E-19-1.74275E-18
 -1      1163 9.51431E-05-2.85430E-05-2.85428E-05 9.72502E-10 6.98601E-20-1.07949E-18
 -1      1164 9.51603E-05-2.85481E-05-2.85479E-05 7.66366E-10 1.94708E-19-6.56677E-20
 -1      1165 9.51759E-05-2.85527E-05-2.85526E-05 5.96155E-10-1.85377E-19 8.43557E-19
 -1      1166 9.51896E-05-2.85568E-05-2.85567E-05 4.59322E-10 9.07983E-20-3.20120E-19
 -1      1167 9.52015E-05-2.85604E-05-2.85603E-05 3.52178E-10-7.44780E-20-9.34824E-19
 -1      1168 9.52114E-05-2.85634E-05-2.85633E-05 2.70276E-10-4.19258E-19-1.42876E-18
 -1      1169 9.52197E-05-2.85658E-05-2.85658E-05 2.08285E-10 2.98881E-20-2.19692E-18
 -1      1170 9.52264E-05-2.85679E-05-2.85678E-05 1.59066E-10 4.58958E-19 1.86395E-18
 -1      1171 9.52316E-05-2.85694E-05-2.85693E-05 1.11284E-10 2.54687E-19 4.00566E-18
 -1      1172 9.52353E-05-2.85705E-05-2.85704E-05 4.32416E-11-4.34200E-20 3.94090E-18
 -1      1173 9.52372E-05-2.85711E-05-2.85710E-05-8.75921E-11-2.83281E-19-3.06127E-19
 -1      1174 9.52375E-05-2.85712E-05-2.85714E-05-1.06874E-10 5.71434E-19 5.15938E-19
 -1      1175 1.51750E-04-4.34647E-05-4.54769E-05 1.28117E-05-2.36428E-19 1.92899E-17
 -1      1176 1.20336E-04-3.52330E-05-3.85472E-05 4.98760E-07 1.57839E-19 1.56390E-17
 -1      1177 1.16545E-04-3.47387E-05-3.55481E-05-1.12959E-07 7.05353E-20 1.20132E-17
 -1      1178 1.14708E-04-3.43631E-05-3.43262E-05-1.64431E-07 9.58959E-20 9.78143E-18
 -1      1179 1.11906E-04-3.35600E-05-3.32974E-05-9.95059E-08 3.31038E-20 8.27332E-18
 -1      1180 1.06963E-04-3.21090E-05-3.18103E-05 6.45505E-08 1.48936E-19 6.48637E-18
 -1      1181 9.98760E-05-3.00296E-05-2.98214E-05 2.88707E-07-1.88969E-20 5.41794E-18
 -1      1182 9.20070E-05-2.76993E-05-2.77143E-05 4.76084E-07-7.74737E-20 5.65522E-18
 -1      1183 8.58159E-05-2.58230E-05-2.61222E-05 5.03558E-07 4.86912E-20 4.46408E-18
 -1      1184 8.37525E-05-2.51420E-05-2.56301E-05 3.16286E-07 2.70455E-20 3.71683E-18
 -1      1185 8.67738E-05-2.59904E-05-2.64447E-05-3.40189E-09 1.47059E-19 2.95212E-18
 -1      1186 9.36701E-05-2.80448E-05-2.82702E-05-2.93902E-07 9.66974E-21 1.69512E-18
 -1      1187 1.01841E-04-3.05173E-05-3.04740E-05-4.34690E-07-1.69349E-20 1.63784E-18
 -1      1188 1.08793E-04-3.26331E-05-3.24133E-05-4.15724E-07-3.22600E-21 1.17134E-18
 -1      1189 1.13148E-04-3.39574E-05-3.36925E-05-3.00834E-07-4.67853E-21 1.09712E-18
 -1      1190 1.14744E-04-3.44396E-05-3.42204E-05-1.65100E-07-9.24325E-20 7.49088E-19
 -1      1191 1.14170E-04-3.42633E-05-3.41222E-05-5.41483E-08-5.75122E-20-4.80096E-19
 -1      1192 1.12242E-04-3.36790E-05-3.36097E-05 1.80629E-08 7.03451E-20-1.38207E-18
 -1      1193 1.09676E-04-3.29053E-05-3.28866E-05 5.58652E-08-2.35980E-20-2.86856E-18
 -1      1194 1.06981E-04-3.20951E-05-3.21057E-05 6.95649E-08 5.87422E-20-2.54437E-18
 -1      1195 1.04462E-04-3.13389E-05-3.13631E-05 6.90207E-08 3.64656E-20-2.00749E-18
 -1      1196 1.02266E-04-3.06806E-05-3.07088E-05 6.13793E-08-1.23414E-19-6.64954E-19
 -1      1197 1.00443E-04-3.01341E-05-3.01612E-05 5.10951E-08 1.09812E-19-1.76943E-18
 -1      1198 9.89838E-05-2.96966E-05-2.97202E-05 4.06339E-08 4.87346E-20-2.76140E-18
 -1      1199 9.78491E-05-2.93564E-05-2.93759E-05 3.11909E-08-2.25026E-20-2.08011E-18
 -1      1200 9.69900E-05-2.90987E-05-2.91142E-05 2.32227E-08-2.60897E-20-3.93817E-19
 -1      1201 9.63557E-05-2.89084E-05-2.89202E-05 1.67917E-08-2.80258E-19 1.36859E-18
 -1      1202 9.58996E-05-2.87714E-05-2.87803E-05 1.17710E-08 2.14818E-19-4.94314E-19
 -1      1203 9.55812E-05-2.86757E-05-2.86822E-05 7.95786E-09-2.19821E-20-9.65372E-19
 -1      1204 9.53667E-05-2.86111E-05-2.86157E-05 5.13468E-09 6.42947E-20-4.65991E-19
 -1      1205 9.52288E-05-2.85696E-05-2.85728E-05 3.09751E-09-2.19193E-20 1.21635E-18
 -1      1206 9.51462E-05-2.85446E-05-2.85467E-05 1.66858E-09 4.41120E-20 1.13358E-18
 -1      1207 9.51021E-05-2.85312E-05-2.85326E-05 6.99612E-10-1.03243E-19 1.44367E-18
 -1      1208 9.50843E-05-2.85258E-05-2.85265E-05 7.07473E-11-1.84947E-19 2.37521E-18
 -1      1209 9.50834E-05-2.85254E-05-2.85258E-05-3.12527E-10 1.22824E-19 2.37859E-18
 -1      1210 9.50928E-05-2.85281E-05-2.85282E-05-5.23146E-10-8.10175E-20-4.70590E-19
 -1      1211 9.51078E-05-2.85325E-05-2.85325E-05-6.16264E-10 3.17403E-20-4.15949E-18
 -1      1212 9.51253E-05-2.85377E-05-2.85376E-05-6.32769E-10 6.02556E-20-3.72081E-18
 -1      1213 9.51433E-05-2.85431E-05-2.85429E-05-6.02337E-10-1.00646E-19 6.96344E-19
 -1      1214 9.51604E-05-2.85482E-05-2.85480E-05-5.46039E-10 8.05711E-20 1.85818E-18
 -1      1215 9.51759E-05-2.85528E-05-2.85526E-05-4.78477E-10-1.21477E-20-2.70198E-19
 -1      1216 9.51897E-05-2.85569E-05-2.85568E-05-4.09508E-10-4.00617E-19 2.39296E-18
 -1      1217 9.52015E-05-2.85605E-05-2.85603E-05-3.45606E-10 5.56470E-19-1.17178E-18
 -1      1218 9.52114E-05-2.85634E-05-2.85633E-05-2.90864E-10-2.29404E-19-3.69892E-18
 -1      1219 9.52197E-05-2.85659E-05-2.85658E-05-2.47494E-10-4.08973E-19-2.19759E-18
 -1      1220 9.52264E-05-2.85679E-05-2.85678E-05-2.15566E-10 3.18873E-19-3.59859E-18
 -1      1221 9.52316E-05-2.85695E-05-2.85694E-05-1.91331E-10-8.26947E-20-7.26366E-18
 -1      1222 9.52353E-05-2.85706E-05-2.85704E-05-1.56810E-10 7.06627E-20-7.50657E-18
 -1      1223 9.52372E-05-2.85711E-05-2.85710E-05-5.82441E-11 7.02143E-19-9.23365E-18
 -1      1224 9.52374E-05-2.85712E-05-2.85714E-05 9.56556E-11 6.43274E-20-6.78091E-18
 -1      1225 9.52371E-05-2.85709E-05-2.85713E-05 9.22149E-11-7.10508E-18-6.96388E-19
 -1      1226 9.52372E-05-2.85712E-05-2.85710E-05 7.22770E-11-6.10467E-18 2.79822E-19
 -1      1227 9.52378E-05-2.85731E-05-2.85704E-05-8.77224E-11 3.45695E-18 1.79192E-18
 -1      1228 9.52387E-05-2.85764E-05-2.85695E-05-1.59069E-10 4.28180E-18 5.53401E-20
 -1      1229 9.52399E-05-2.85803E-05-2.85684E-05-1.76033E-10 9.28340E-18-4.56277E-19
 -1      1230 9.52410E-05-2.85841E-05-2.85673E-05-1.56887E-10 3.50879E-18-7.08962E-19
 -1      1231 9.52419E-05-2.85872E-05-2.85664E-05-1.17916E-10 5.78985E-18 1.15030E-19
 -1      1232 9.52425E-05-2.85893E-05-2.85658E-05-6.21193E-11 5.43033E-18 1.49294E-19
 -1      1233 9.52427E-05-2.85900E-05-2.85656E-05 5.37677E-13 3.06709E-18-9.08950E-19
 -1      1234 9.52425E-05-2.85893E-05-2.85658E-05 6.31748E-11 4.19399E-18 6.93070E-19
 -1      1235 9.52419E-05-2.85872E-05-2.85664E-05 1.18676E-10 3.67095E-18-1.35790E-19
 -1      1236 9.52410E-05-2.85840E-05-2.85673E-05 1.59660E-10 2.93718E-18 4.39500E-19
 -1      1237 9.52399E-05-2.85802E-05-2.85684E-05 1.76172E-10-1.39867E-18 2.49420E-19
 -1      1238 9.52387E-05-2.85763E-05-2.85695E-05 1.60883E-10-2.66602E-18-8.81562E-19
 -1      1239 9.52377E-05-2.85730E-05-2.85704E-05 1.05216E-10-1.38111E-18 4.87347E-19
 -1      1240 9.52373E-05-2.85712E-05-2.85710E-05-1.44118E-10-1.69688E-18-2.26959E-19
 -1      1241 9.52370E-05-2.85708E-05-2.85714E-05-1.05633E-10-3.86440E-19 3.88167E-19
 -1      1242 3.39200E-05-1.04902E-04 1.72954E-05-1.23131E-05 6.92534E-18 1.47794E-18
 -1      1243 1.82191E-05-6.62974E-05 9.68713E-06-2.41113E-05 1.36161E-17 4.86663E-18
 -1      1244 7.35747E-06-1.35155E-05-4.42010E-06-4.40352E-06 2.02543E-17 1.21210E-17
 -1      1245 3.05801E-05 2.28031E-05-2.42337E-05 4.78197E-05 1.85975E-17 1.62918E-17
 -1      1246 1.01215E-04 1.56696E-05-4.53771E-05 9.93651E-05 1.16518E-17 1.59988E-17
 -1      1247 1.98575E-04-2.87185E-05-6.27836E-05 1.10684E-04 5.22535E-18 1.08395E-17
 -1      1248 2.82541E-04-7.71025E-05-7.43584E-05 6.80211E-05 1.03645E-18 2.12351E-18
 -1      1249 3.08661E-04-9.31044E-05-7.75475E-05-1.06521E-05 8.96320E-19-8.49108E-18
 -1      1250 2.60593E-04-6.37954E-05-7.14771E-05-8.25265E-05 5.36595E-18-1.84179E-17
 -1      1251 1.67068E-04-1.33133E-05-5.74808E-05-1.09695E-04 1.27233E-17-2.42827E-17
 -1      1252 7.18216E-05 2.18198E-05-3.79302E-05-8.12391E-05 1.88922E-17-2.29732E-17
 -1      1253 1.66634E-05 1.61593E-05-1.76441E-05-2.83229E-05 2.12944E-17-1.70118E-17
 -1      1254 7.26671E-06-2.29378E-05-1.35660E-06 1.11807E-05 1.83069E-17-9.71970E-18
 -1      1255 2.12381E-05-7.16675E-05 1.06233E-05 2.17277E-05 1.03965E-17-3.51900E-18
 -1      1256 3.28827E-05-9.93302E-05 1.60885E-05 4.06863E-06-7.09919E-19-8.40045E-19
 -1      1257 2.65753E-05-8.58486E-05 1.35866E-05-1.84988E-05-1.14197E-17-2.87547E-18
 -1      1258 1.10548E-05-4.18049E-05 3.66905E-06-1.94168E-05-1.91252E-17-8.44026E-18
 -1      1259 9.93177E-06 5.31742E-06-1.18930E-05 1.25554E-05-2.29936E-17-1.61817E-17
 -1      1260 4.79388E-05 2.51355E-05-3.12945E-05 6.51724E-05-2.09886E-17-2.20550E-17
 -1      1261 1.31002E-04 2.64540E-06-5.10735E-05 1.06010E-04-1.49112E-17-2.41099E-17
 -1      1262 2.31978E-04-4.72307E-05-6.75624E-05 9.81250E-05-7.34123E-18-1.99815E-17
 -1      1263 3.02300E-04-8.85286E-05-7.68513E-05 4.02737E-05-1.93155E-18-1.06184E-17
 -1      1264 3.05530E-04-9.03361E-05-7.72790E-05-3.77691E-05-5.09715E-19-8.08916E-20
 -1      1265 2.45197E-04-5.38074E-05-6.96891E-05-9.60187E-05-2.74820E-18 7.18369E-18
 -1      1266 1.55236E-04-6.32061E-06-5.58060E-05-1.12316E-04-7.16759E-18 1.24903E-17
 -1      1267 7.20619E-05 2.40902E-05-3.86077E-05-8.51397E-05-1.32095E-17 1.56261E-17
 -1      1268 2.07370E-05 2.02744E-05-2.02874E-05-3.65573E-05-1.76962E-17 1.47020E-17
 -1      1269 6.87747E-06-1.65310E-05-3.36965E-06 6.92307E-06-1.81367E-17 1.02745E-17
 -1      1270 1.83520E-05-6.75891E-05 9.85701E-06 2.44495E-05-1.34221E-17 4.74084E-18
 -1      1271 3.28645E-05-1.03756E-04 1.72803E-05 1.28694E-05-2.88203E-18 1.59764E-18
 -1      1272 1.25830E-04-2.72249E-05-4.49797E-05-1.56187E-05-5.04620E-19 6.95732E-18
 -1      1273 1.05502E-04-9.36443E-06-4.13282E-05-1.51638E-05-1.18023E-18-1.17134E-18
 -1      1274 1.10416E-04-9.75544E-06-4.33764E-05-2.19931E-05-1.62821E-18 6.66138E-19
 -1      1275 9.53168E-05-5.87398E-06-3.83768E-05-8.95871E-06-1.02925E-18-3.77427E-18
 -1      1276 9.94262E-05-5.96196E-06-3.99385E-05-1.24220E-05-1.22597E-18-2.66445E-18
 -1      1277 1.07201E-04-1.44421E-05-3.98090E-05-1.36543E-05-2.00276E-18-9.62229E-19
 -1      1278 8.71029E-05-4.20707E-06-3.55565E-05-3.91579E-06-7.19554E-19-5.07127E-18
 -1      1279 9.08736E-05-4.24298E-06-3.70055E-05-6.33054E-06-8.83455E-19-4.50195E-18
 -1      1280 9.65483E-05-1.00554E-05-3.71554E-05-8.28290E-06-1.53289E-18-3.19601E-18
 -1      1281 7.93079E-05-2.75498E-06-3.28741E-05-3.48020E-07-4.11446E-19-5.71787E-18
 -1      1282 8.29340E-05-2.81413E-06-3.42285E-05-1.93455E-06-5.18808E-19-5.45635E-18
 -1      1283 8.74485E-05-7.13148E-06-3.45176E-05-3.58679E-06-9.90314E-19-4.34607E-18
 -1      1284 7.21446E-05-1.24396E-06-3.05060E-05 1.50294E-06-1.62207E-19-6.00218E-18
 -1      1285 7.53801E-05-1.31570E-06-3.16700E-05 7.85932E-07-2.48922E-19-5.87619E-18
 -1      1286 7.88421E-05-4.35139E-06-3.20169E-05-2.97304E-07-5.47977E-19-4.91033E-18
 -1      1287 6.62154E-05 2.14089E-07-2.86309E-05 1.62228E-06 4.13987E-20-6.11964E-18
 -1      1288 6.87128E-05 1.44211E-07-2.95041E-05 1.72411E-06-2.03288E-20-6.08374E-18
 -1      1289 7.09602E-05-1.55771E-06-2.98258E-05 1.29209E-06-1.52439E-19-5.23506E-18
 -1      1290 6.27709E-05 1.20923E-06-2.75777E-05 3.31301E-07 1.75389E-19-6.07892E-18
 -1      1291 6.39822E-05 1.17346E-06-2.79985E-05 1.00991E-06 1.23349E-19-6.12097E-18
 -1      1292 6.48571E-05 7.76933E-07-2.81989E-05 1.15185E-06 1.24792E-19-5.28136E-18
 -1      1293 6.25974E-05 1.38231E-06-2.75254E-05-1.49072E-06 2.92120E-19-5.88612E-18
 -1      1294 6.22603E-05 1.39700E-06-2.74223E-05-6.99875E-07 2.28434E-19-6.00606E-18
 -1      1295 6.18969E-05 1.92203E-06-2.74137E-05-2.46672E-07 3.34234E-19-5.23443E-18
 -1      1296 6.56721E-05 6.71018E-07-2.84584E-05-2.74696E-06 4.22775E-19-5.55970E-18
 -1      1297 6.39091E-05 7.30068E-07-2.78663E-05-2.34989E-06 3.62133E-19-5.74697E-18
 -1      1298 6.27821E-05 1.46469E-06-2.75997E-05-1.89486E-06 5.22580E-19-4.99662E-18
 -1      1299 7.11568E-05-6.44326E-07-3.01706E-05-2.57433E-06 5.78418E-19-5.08129E-18
 -1      1300 6.84122E-05-5.63291E-07-2.92148E-05-2.92106E-06 5.08802E-19-5.36108E-18
 -1      1301 6.71838E-05-4.04880E-07-2.86947E-05-2.67780E-06 7.43046E-19-4.66994E-18
 -1      1302 7.77392E-05-2.09642E-06-3.23204E-05-6.86007E-07 8.01928E-19-4.44739E-18
 -1      1303 7.46018E-05-2.03119E-06-3.11809E-05-1.84352E-06 7.18284E-19-4.80143E-18
 -1      1304 7.38631E-05-2.99616E-06-3.04545E-05-1.87765E-06 1.03252E-18-4.13319E-18
 -1      1305 8.47036E-05-3.41873E-06-3.47190E-05 2.84963E-06 1.10231E-18-3.50825E-18
 -1      1306 8.14316E-05-3.37923E-06-3.34754E-05 9.12866E-07 9.68900E-19-4.02220E-18
 -1      1307 8.14881E-05-5.62727E-06-3.26004E-05 6.39568E-07 1.42444E-18-3.40798E-18
 -1      1308 9.16289E-05-4.56677E-06-3.71996E-05 7.72335E-06 1.37643E-18-2.08569E-18
 -1      1309 8.83472E-05-4.56035E-06-3.59107E-05 5.11820E-06 1.22883E-18-2.92433E-18
 -1      1310 8.92625E-05-8.01152E-06-3.49138E-05 4.63186E-06 1.85273E-18-2.37977E-18
 -1      1311 9.91246E-05-5.96183E-06-3.98126E-05 1.39337E-05 1.57262E-18 3.42307E-19
 -1      1312 9.54892E-05-5.95454E-06-3.84050E-05 1.04840E-05 1.41317E-18-1.11689E-18
 -1      1313 9.71762E-05-1.04690E-05-3.72484E-05 9.70919E-06 2.26978E-18-7.75512E-19
 -1      1314 1.09720E-04-9.48117E-06-4.28269E-05 2.25125E-05 1.39252E-18 4.79336E-18
 -1      1315 1.04406E-04-8.88358E-06-4.10538E-05 1.70452E-05 1.34943E-18 2.10313E-18
 -1      1316 1.06698E-04-1.44875E-05-3.95634E-05 1.55100E-05 2.35449E-18 1.93166E-18
 -1      1317 1.44033E-04-2.97181E-05-4.55329E-05 2.86010E-05 6.49886E-19 1.29901E-17
 -1      1318 1.18215E-04-1.82570E-05-4.35004E-05 2.23218E-05 6.94779E-19 7.29909E-18
 -1      1319 1.20388E-04-2.44952E-05-4.11406E-05 1.86788E-05 2.28913E-18 5.89831E-18
 -1      1320 1.23794E-04-3.42165E-05-4.12927E-05 5.50929E-06 1.18320E-18 1.25405E-17
 -1      1321 1.29155E-04-3.76796E-05-4.07205E-05-5.94226E-06-1.30867E-18 7.59143E-18
 -1      1322 1.23860E-04-3.57601E-05-3.83094E-05-3.24639E-06-1.18235E-18 6.06761E-18
 -1      1323 1.21725E-04-3.59487E-05-3.69973E-05-1.30550E-06-9.24907E-19 5.51099E-18
 -1      1324 1.20475E-04-3.60118E-05-3.62197E-05-1.08345E-06-8.98715E-19 4.12537E-18
 -1      1325 1.22876E-04-3.55622E-05-3.77879E-05-5.21322E-06-2.05924E-18 3.01781E-18
 -1      1326 1.19148E-04-3.58130E-05-3.56667E-05-8.02916E-07-6.48543E-19 3.82086E-18
 -1      1327 1.18241E-04-3.56994E-05-3.52984E-05-9.68367E-07-5.88696E-19 2.89402E-18
 -1      1328 1.19230E-04-3.57089E-05-3.58641E-05-2.17646E-06-1.43937E-18 2.30218E-18
 -1      1329 1.17121E-04-3.54769E-05-3.48935E-05-1.64298E-06-4.62963E-19 2.51427E-18
 -1      1330 1.15342E-04-3.49879E-05-3.43608E-05-1.93942E-06-5.01096E-19 1.78185E-18
 -1      1331 1.17158E-04-3.56485E-05-3.48805E-05-2.65728E-06-1.01297E-18 1.73504E-18
 -1      1332 1.13747E-04-3.45673E-05-3.38412E-05-3.03764E-06-3.17942E-19 1.59532E-18
 -1      1333 1.10605E-04-3.35486E-05-3.29611E-05-3.37787E-06-3.15884E-19 1.18529E-18
 -1      1334 1.14665E-04-3.51195E-05-3.40021E-05-4.79325E-06-7.93213E-19 1.20814E-18
 -1      1335 1.08298E-04-3.28109E-05-3.22837E-05-4.29182E-06-1.62352E-19 1.01342E-18
 -1      1336 1.04062E-04-3.13276E-05-3.11417E-05-4.49104E-06-1.78946E-19 8.03358E-19
 -1      1337 1.10906E-04-3.38456E-05-3.29451E-05-7.27562E-06-5.57348E-19 1.00193E-18
 -1      1338 1.01350E-04-3.03421E-05-3.04195E-05-4.49658E-06-2.89202E-19 5.75771E-19
 -1      1339 9.71431E-05-2.87926E-05-2.93208E-05-4.34768E-06-4.37969E-19 6.96685E-20
 -1      1340 1.05908E-04-3.17694E-05-3.17585E-05-8.48813E-06-4.70143E-19 6.57311E-19
 -1      1341 9.48775E-05-2.78974E-05-2.87639E-05-3.00539E-06-4.15562E-19-2.91168E-19
 -1      1342 9.23084E-05-2.69197E-05-2.81097E-05-2.45699E-06-4.10851E-19-8.49151E-19
 -1      1343 1.00838E-04-2.94258E-05-3.06993E-05-6.93947E-06-9.69442E-19 5.37337E-20
 -1      1344 9.14805E-05-2.65773E-05-2.79184E-05-1.11729E-07-4.95369E-19-1.07340E-18
 -1      1345 9.17279E-05-2.66700E-05-2.79827E-05 6.01918E-07-5.90448E-19-1.64072E-18
 -1      1346 9.76375E-05-2.78612E-05-3.00856E-05-2.43353E-06-8.41368E-19-5.17868E-19
 -1      1347 9.27517E-05-2.70908E-05-2.82255E-05 2.86396E-06-4.85495E-19-2.00143E-18
 -1      1348 9.57159E-05-2.82125E-05-2.89868E-05 3.36661E-06-9.12149E-20-2.35226E-18
 -1      1349 9.78347E-05-2.79779E-05-3.01197E-05 3.25256E-06-8.21966E-19-8.61466E-19
 -1      1350 9.80399E-05-2.91232E-05-2.95640E-05 4.51618E-06-1.10180E-20-2.83428E-18
 -1      1351 1.02424E-04-3.07345E-05-3.07134E-05 4.61247E-06-2.35831E-19-2.91501E-18
 -1      1352 1.01275E-04-2.96607E-05-3.07714E-05 7.40741E-06-4.55267E-19-2.12374E-18
 -1      1353 1.05002E-04-3.16709E-05-3.14053E-05 4.38829E-06-4.72850E-19-3.26595E-18
 -1      1354 1.09171E-04-3.31355E-05-3.25328E-05 4.14102E-06-4.17313E-19-3.78438E-18
 -1      1355 1.06252E-04-3.19864E-05-3.17969E-05 8.45334E-06-6.77769E-19-3.03370E-18
 -1      1356 1.11109E-04-3.37517E-05-3.31119E-05 3.00379E-06-1.20087E-19-3.88121E-18
 -1      1357 1.13944E-04-3.46835E-05-3.39095E-05 2.62289E-06-7.48102E-20-3.83679E-18
 -1      1358 1.10728E-04-3.38971E-05-3.28346E-05 6.70298E-06-4.56868E-19-3.43121E-18
 -1      1359 1.14872E-04-3.49013E-05-3.42392E-05 1.25714E-06-3.22753E-19-3.79921E-18
 -1      1360 1.16065E-04-3.52410E-05-3.45973E-05 9.16318E-07-3.72542E-19-4.30816E-18
 -1      1361 1.13446E-04-3.48623E-05-3.35792E-05 3.62669E-06-5.17511E-19-3.48432E-18
 -1      1362 1.16048E-04-3.51461E-05-3.46545E-05-2.07313E-07-2.50781E-19-4.30188E-18
 -1      1363 1.15867E-04-3.50302E-05-3.46257E-05-4.35876E-07-1.91846E-19-4.43764E-18
 -1      1364 1.14175E-04-3.49360E-05-3.38851E-05 6.29989E-07-3.63066E-19-3.85023E-18
 -1      1365 1.15171E-04-3.47456E-05-3.44642E-05-1.15144E-06-4.59019E-20-4.16340E-18
 -1      1366 1.14105E-04-3.43598E-05-3.41742E-05-1.26795E-06-1.77083E-19-4.52232E-18
 -1      1367 1.13313E-04-3.44268E-05-3.37658E-05-1.55156E-06-1.10882E-19-3.52511E-18
 -1      1368 1.13025E-04-3.39885E-05-3.38762E-05-1.60787E-06-1.51252E-19-4.03762E-18
 -1      1369 1.11532E-04-3.34875E-05-3.34533E-05-1.64257E-06-3.04077E-19-4.15988E-18
 -1      1370 1.11448E-04-3.36382E-05-3.33309E-05-2.78550E-06 1.74701E-20-2.69459E-18
 -1      1371 1.10307E-04-3.30982E-05-3.30946E-05-1.71460E-06-5.57694E-19-4.42558E-18
 -1      1372 1.08716E-04-3.25844E-05-3.26355E-05-1.70025E-06-3.70453E-20-4.73820E-18
 -1      1373 1.09112E-04-3.27760E-05-3.27162E-05-3.25377E-06-5.65823E-19-2.99871E-18
 -1      1374 1.07508E-04-3.22170E-05-3.22712E-05-1.61324E-06 2.87695E-19-4.97124E-18
 -1      1375 1.06013E-04-3.17463E-05-3.18354E-05-1.57470E-06-3.14403E-20-4.93087E-18
 -1      1376 1.06687E-04-3.19548E-05-3.20380E-05-3.21908E-06-3.45694E-19-2.96959E-18
 -1      1377 1.04914E-04-3.14210E-05-3.14988E-05-1.41061E-06 1.65817E-19-4.84578E-18
 -1      1378 1.03611E-04-3.10177E-05-3.11164E-05-1.36365E-06 1.16010E-19-4.37322E-18
 -1      1379 1.04408E-04-3.12274E-05-3.13771E-05-2.90845E-06 4.16916E-20-3.19232E-18
 -1      1380 1.02664E-04-3.07419E-05-3.08236E-05-1.17500E-06 2.95600E-19-4.00246E-18
 -1      1381 1.01583E-04-3.04116E-05-3.05047E-05-1.12844E-06 3.65046E-19-3.37874E-18
 -1      1382 1.02397E-04-3.06114E-05-3.07801E-05-2.48045E-06 5.93644E-19-2.97487E-18
 -1      1383 1.00796E-04-3.01851E-05-3.02607E-05-9.44867E-07 1.55562E-19-3.49510E-18
 -1      1384 9.99306E-05-2.99234E-05-3.00045E-05-9.02975E-07-1.61433E-19-3.43719E-18
 -1      1385 1.00699E-04-3.01061E-05-3.02679E-05-2.03152E-06 3.51105E-19-2.87108E-18
 -1      1386 9.92973E-05-2.97423E-05-2.98075E-05-7.38978E-07-7.30798E-19-3.16779E-18
 -1      1387 9.86236E-05-2.95403E-05-2.96075E-05-7.03373E-07-5.86899E-19-4.03728E-18
 -1      1388 9.93111E-05-2.97019E-05-2.98447E-05-1.61334E-06-4.19316E-19-2.55676E-18
 -1      1389 9.81262E-05-2.93987E-05-2.94526E-05-5.64334E-07 1.66286E-19-3.69821E-18
 -1      1390 9.76143E-05-2.92464E-05-2.93003E-05-5.35199E-07 4.80193E-19-3.22377E-18
 -1      1391 9.82065E-05-2.93853E-05-2.95051E-05-1.24907E-06-2.68468E-19-2.10455E-18
 -1      1392 9.72321E-05-2.91379E-05-2.91812E-05-4.21495E-07 3.01276E-19-3.45802E-18
 -1      1393 9.68520E-05-2.90257E-05-2.90678E-05-3.98315E-07 7.09225E-21-3.43284E-18
 -1      1394 9.73474E-05-2.91421E-05-2.92392E-05-9.45295E-07 2.53810E-19-2.72168E-18
 -1      1395 9.65645E-05-2.89443E-05-2.89782E-05-3.07840E-07-3.95474E-19-3.10721E-18
 -1      1396 9.62887E-05-2.88636E-05-2.88957E-05-2.89815E-07-1.14654E-19-3.70098E-18
 -1      1397 9.66931E-05-2.89590E-05-2.90356E-05-6.99834E-07-8.01339E-20-2.89822E-18
 -1      1398 9.60769E-05-2.88038E-05-2.88297E-05-2.19441E-07-5.35235E-19-4.13820E-18
 -1      1399 9.58817E-05-2.87471E-05-2.87712E-05-2.05708E-07-8.01207E-19-5.27041E-18
 -1      1400 9.62051E-05-2.88239E-05-2.88829E-05-5.06375E-07-1.07979E-18-3.32421E-18
 -1      1401 9.57293E-05-2.87042E-05-2.87237E-05-1.52080E-07-3.92241E-20-5.35626E-18
 -1      1402 9.55953E-05-2.86657E-05-2.86833E-05-1.41822E-07-1.11273E-19-5.16451E-18
 -1      1403 9.58489E-05-2.87263E-05-2.87709E-05-3.57142E-07-5.68520E-19-4.00584E-18
 -1      1404 9.54884E-05-2.86357E-05-2.86501E-05-1.01761E-07 6.25148E-20-4.55523E-18
 -1      1405 9.53999E-05-2.86107E-05-2.86233E-05-9.42560E-08 4.21057E-19-4.43980E-18
 -1      1406 9.55951E-05-2.86575E-05-2.86906E-05-2.44310E-07 2.58792E-19-3.69458E-18
 -1      1407 9.53273E-05-2.85903E-05-2.86007E-05-6.49439E-08-4.98662E-20-3.61365E-18
 -1      1408 9.52717E-05-2.85750E-05-2.85837E-05-5.95756E-08-1.04071E-19-3.33532E-18
 -1      1409 9.54192E-05-2.86106E-05-2.86345E-05-1.60698E-07 3.76459E-19-3.12663E-18
 -1      1410 9.52245E-05-2.85618E-05-2.85691E-05-3.86140E-08 3.51496E-19-3.10847E-18
 -1      1411 9.51924E-05-2.85532E-05-2.85591E-05-3.48748E-08 2.36164E-19-2.13120E-18
 -1      1412 9.53016E-05-2.85798E-05-2.85967E-05-1.00052E-07 2.92154E-19-2.31700E-18
 -1      1413 9.51634E-05-2.85452E-05-2.85501E-05-2.02808E-08-1.69347E-19-2.64146E-18
 -1      1414 9.51475E-05-2.85413E-05-2.85451E-05-1.77609E-08-6.16183E-19-3.47805E-18
 -1      1415 9.52267E-05-2.85607E-05-2.85723E-05-5.71151E-08-2.39104E-19-3.39053E-18
 -1      1416 9.51313E-05-2.85368E-05-2.85401E-05-7.93219E-09-1.25693E-18-3.79148E-18
 -1      1417 9.51262E-05-2.85360E-05-2.85383E-05-6.30692E-09-8.61191E-19-5.30755E-18
 -1      1418 9.51822E-05-2.85498E-05-2.85575E-05-2.75847E-08-1.36721E-18-3.32361E-18
 -1      1419 9.51189E-05-2.85340E-05-2.85361E-05 2.58733E-11-9.42516E-20-5.15880E-18
 -1      1420 9.51205E-05-2.85351E-05-2.85364E-05 1.00903E-09 6.73599E-19-4.82447E-18
 -1      1421 9.51590E-05-2.85447E-05-2.85495E-05-8.01053E-09-1.04301E-18-2.74656E-18
 -1      1422 9.51190E-05-2.85348E-05-2.85359E-05 4.83393E-09 6.73208E-19-5.34487E-18
 -1      1423 9.51247E-05-2.85369E-05-2.85374E-05 5.36810E-09 4.40994E-19-4.44978E-18
 -1      1424 9.51501E-05-2.85433E-05-2.85461E-05 4.32167E-09 5.93426E-19-3.13897E-18
 -1      1425 9.51268E-05-2.85375E-05-2.85381E-05 7.44060E-09 4.71544E-19-3.42383E-18
 -1      1426 9.51345E-05-2.85402E-05-2.85403E-05 7.67087E-09 2.16132E-19-2.29306E-18
 -1      1427 9.51503E-05-2.85442E-05-2.85457E-05 1.15096E-08 8.13286E-19-3.59542E-18
 -1      1428 9.51386E-05-2.85414E-05-2.85416E-05 8.55836E-09 4.68247E-19-2.55322E-18
 -1      1429 9.51472E-05-2.85442E-05-2.85440E-05 8.59162E-09 7.66862E-19-1.55750E-18
 -1      1430 9.51562E-05-2.85466E-05-2.85471E-05 1.51463E-08 8.01600E-19-2.36905E-18
 -1      1431 9.51523E-05-2.85457E-05-2.85456E-05 8.71191E-09 2.21777E-19-1.03794E-19
 -1      1432 9.51608E-05-2.85484E-05-2.85481E-05 8.62526E-09 2.81318E-19 1.11039E-19
 -1      1433 9.51650E-05-2.85496E-05-2.85495E-05 1.64190E-08 8.55022E-19-1.10072E-18
 -1      1434 9.51662E-05-2.85500E-05-2.85498E-05 8.27914E-09 8.24903E-20-9.80071E-20
 -1      1435 9.51741E-05-2.85525E-05-2.85521E-05 8.12668E-09-4.93410E-20 1.35097E-19
 -1      1436 9.51752E-05-2.85529E-05-2.85524E-05 1.61943E-08 3.54130E-19 8.66837E-19
 -1      1437 9.51794E-05-2.85540E-05-2.85537E-05 7.52470E-09-3.48474E-19 7.24139E-20
 -1      1438 9.51865E-05-2.85562E-05-2.85558E-05 7.34311E-09-7.09248E-19-9.13639E-19
 -1      1439 9.51855E-05-2.85561E-05-2.85554E-05 1.50896E-08-3.55775E-19 3.17689E-19
 -1      1440 9.51913E-05-2.85576E-05-2.85573E-05 6.62706E-09-7.15542E-19-1.63660E-18
 -1      1441 9.51976E-05-2.85595E-05-2.85591E-05 6.43988E-09-2.78487E-19-1.61155E-18
 -1      1442 9.51953E-05-2.85590E-05-2.85584E-05 1.35309E-08-1.50644E-18-7.98798E-19
 -1      1443 9.52019E-05-2.85608E-05-2.85605E-05 5.69942E-09 6.58129E-19-2.23605E-18
 -1      1444 9.52073E-05-2.85624E-05-2.85620E-05 5.52033E-09-1.78571E-19-2.50622E-18
 -1      1445 9.52042E-05-2.85617E-05-2.85610E-05 1.17986E-08 6.76275E-20-1.99769E-18
 -1      1446 9.52110E-05-2.85635E-05-2.85632E-05 4.80544E-09-2.83821E-19-1.18139E-18
 -1      1447 9.52155E-05-2.85649E-05-2.85645E-05 4.64054E-09 1.31443E-19-1.32065E-18
 -1      1448 9.52121E-05-2.85640E-05-2.85634E-05 1.00624E-08 7.53823E-19-2.34058E-18
 -1      1449 9.52187E-05-2.85658E-05-2.85655E-05 3.97018E-09 1.52706E-19-8.80500E-19
 -1      1450 9.52223E-05-2.85669E-05-2.85666E-05 3.81937E-09 9.55842E-19-3.93920E-19
 -1      1451 9.52188E-05-2.85660E-05-2.85654E-05 8.40721E-09 7.29724E-19 2.47804E-19
 -1      1452 9.52249E-05-2.85677E-05-2.85674E-05 3.18712E-09 1.79762E-18-4.54609E-20
 -1      1453 9.52279E-05-2.85686E-05-2.85683E-05 3.04469E-09 1.63641E-18 1.96398E-18
 -1      1454 9.52245E-05-2.85677E-05-2.85672E-05 6.85015E-09 1.79538E-18 7.39706E-19
 -1      1455 9.52299E-05-2.85692E-05-2.85689E-05 2.42251E-09 3.58832E-19 1.23237E-18
 -1      1456 9.52321E-05-2.85698E-05-2.85695E-05 2.27680E-09-4.15595E-19 1.33109E-18
 -1      1457 9.52291E-05-2.85691E-05-2.85685E-05 5.35284E-09 1.07828E-18-6.85856E-19
 -1      1458 9.52337E-05-2.85703E-05-2.85700E-05 1.62571E-09 2.78212E-19 2.60735E-18
 -1      1459 9.52351E-05-2.85707E-05-2.85704E-05 1.45928E-09 8.59061E-20 2.06953E-18
 -1      1460 9.52326E-05-2.85702E-05-2.85696E-05 3.83415E-09-1.01546E-19-1.55755E-19
 -1      1461 9.52361E-05-2.85711E-05-2.85707E-05 7.50684E-10-2.38712E-19 1.77826E-18
 -1      1462 9.52367E-05-2.85712E-05-2.85709E-05 5.60508E-10-4.89216E-19 1.44700E-18
 -1      1463 9.52352E-05-2.85710E-05-2.85703E-05 2.23069E-09-2.86291E-19 1.78350E-18
 -1      1464 9.52372E-05-2.85712E-05-2.85712E-05-1.03580E-10-1.12706E-18 8.06920E-19
 -1      1465 9.52368E-05-2.85713E-05-2.85709E-05 4.95825E-10-1.13588E-18 1.08390E-18
 -1      1466 1.19977E-04-3.55439E-05-3.66746E-05 1.96927E-06 1.15625E-18 1.00834E-17
 -1      1467 1.24635E-04-3.60753E-05-3.87990E-05 3.26736E-06 9.58100E-19 1.18455E-17
 -1      1468 1.23082E-04-3.31106E-05-3.89192E-05 1.07504E-05 1.87888E-18 7.93416E-18
 -1      1469 1.16291E-04-3.49060E-05-3.48824E-05 9.79182E-07 7.77656E-19 8.01158E-18
 -1      1470 1.17724E-04-3.49240E-05-3.56808E-05 1.07117E-06 7.77814E-19 9.23366E-18
 -1      1471 1.18356E-04-3.49492E-05-3.59172E-05 3.71311E-06 1.62977E-18 6.42189E-18
 -1      1472 1.13604E-04-3.42596E-05-3.39075E-05 1.24566E-06 5.45735E-19 6.64479E-18
 -1      1473 1.14827E-04-3.45368E-05-3.43730E-05 1.10211E-06 5.40718E-19 7.46660E-18
 -1      1474 1.15108E-04-3.46359E-05-3.44666E-05 2.38030E-06 1.17279E-18 5.24807E-18
 -1      1475 1.10051E-04-3.32325E-05-3.28228E-05 2.11202E-06 5.77243E-19 5.52792E-18
 -1      1476 1.12027E-04-3.38829E-05-3.34197E-05 1.82162E-06 4.06417E-19 6.17359E-18
 -1      1477 1.12324E-04-3.40614E-05-3.34626E-05 3.17439E-06 8.55464E-19 4.22043E-18
 -1      1478 1.04928E-04-3.16260E-05-3.13517E-05 3.05705E-06 4.87373E-19 4.41315E-18
 -1      1479 1.07945E-04-3.26724E-05-3.22053E-05 2.73669E-06 5.56689E-19 5.14676E-18
 -1      1480 1.08827E-04-3.30562E-05-3.23887E-05 4.75183E-06 9.51642E-19 3.63286E-18
 -1      1481 9.86576E-05-2.95607E-05-2.96221E-05 3.48106E-06 6.82358E-20 4.01674E-18
 -1      1482 1.02365E-04-3.08408E-05-3.06314E-05 3.29896E-06 1.90636E-20 4.03839E-18
 -1      1483 1.04301E-04-3.15023E-05-3.11447E-05 6.04298E-06 3.45159E-19 3.11799E-18
 -1      1484 9.27487E-05-2.75494E-05-2.80447E-05 2.85388E-06 3.32950E-19 3.61035E-18
 -1      1485 9.61754E-05-2.86858E-05-2.89487E-05 2.96765E-06 2.02256E-19 3.84834E-18
 -1      1486 9.93362E-05-2.95900E-05-2.98994E-05 5.96475E-06 3.26683E-19 2.68876E-18
 -1      1487 8.92505E-05-2.63398E-05-2.71278E-05 1.10567E-06 2.81923E-19 2.74657E-18
 -1      1488 9.11632E-05-2.68785E-05-2.76190E-05 1.54343E-06 3.54722E-19 3.30793E-18
 -1      1489 9.53017E-05-2.78978E-05-2.89626E-05 3.88809E-06 5.80813E-19 2.06879E-18
 -1      1490 8.96207E-05-2.64816E-05-2.72144E-05-1.15068E-06 1.63060E-19 2.11830E-18
 -1      1491 8.92021E-05-2.61627E-05-2.70994E-05-5.53518E-07 1.54213E-19 2.13872E-18
 -1      1492 9.36940E-05-2.71615E-05-2.86236E-05 2.32921E-07 4.63181E-19 1.33914E-18
 -1      1493 9.37329E-05-2.79195E-05-2.82755E-05-2.93235E-06 2.77241E-19 1.63700E-18
 -1      1494 9.11287E-05-2.68705E-05-2.75929E-05-2.43705E-06 2.39141E-19 1.86257E-18
 -1      1495 9.51889E-05-2.77683E-05-2.89895E-05-3.54872E-06 3.96094E-19 4.65617E-19
 -1      1496 9.99211E-05-3.00204E-05-2.99254E-05-3.57031E-06-5.93254E-21 8.77526E-19
 -1      1497 9.61576E-05-2.86715E-05-2.89223E-05-3.35248E-06 2.81776E-19 1.31518E-18
 -1      1498 9.91232E-05-2.94222E-05-2.99233E-05-5.89164E-06 5.63700E-19 6.88572E-19
 -1      1499 1.06031E-04-3.20167E-05-3.16222E-05-3.08019E-06 2.27356E-19 2.27322E-19
 -1      1500 1.02381E-04-3.08207E-05-3.06235E-05-3.14054E-06 1.96121E-19 3.95035E-19
 -1      1501 1.03925E-04-3.13600E-05-3.11070E-05-6.13843E-06 3.81525E-19-1.53445E-19
 -1      1502 1.10489E-04-3.33982E-05-3.29273E-05-1.95020E-06-8.12126E-20-3.52048E-20
 -1      1503 1.07857E-04-3.26226E-05-3.21804E-05-2.17459E-06-3.86525E-20-1.60830E-19
 -1      1504 1.08049E-04-3.28956E-05-3.21894E-05-4.71363E-06 3.45212E-19-8.00817E-19
 -1      1505 1.12714E-04-3.40249E-05-3.36359E-05-7.29120E-07-9.47883E-20-2.35038E-19
 -1      1506 1.11411E-04-3.37139E-05-3.32442E-05-9.88823E-07 3.09696E-21-1.99265E-19
 -1      1507 1.10604E-04-3.37166E-05-3.29238E-05-2.56207E-06-4.31722E-20-1.16730E-18
 -1      1508 1.12920E-04-3.40138E-05-3.37648E-05 2.41487E-07 1.83568E-19-5.10102E-19
 -1      1509 1.12794E-04-3.40716E-05-3.37045E-05 2.67251E-08 2.83147E-19-2.39320E-19
 -1      1510 1.11437E-04-3.38624E-05-3.32211E-05-5.15682E-07 3.63629E-19-1.38859E-18
 -1      1511 1.11692E-04-3.35764E-05-3.34569E-05 8.55586E-07 1.12728E-19-1.10135E-18
 -1      1512 1.12384E-04-3.38652E-05-3.36376E-05 7.12761E-07 7.36720E-20-7.35453E-19
 -1      1513 1.10869E-04-3.35348E-05-3.31246E-05 9.92230E-07 3.48356E-19-1.34063E-18
 -1      1514 1.09653E-04-3.29144E-05-3.28871E-05 1.15099E-06 2.61745E-19-1.84403E-18
 -1      1515 1.10794E-04-3.33128E-05-3.32065E-05 1.07477E-06 2.51898E-19-1.26974E-18
 -1      1516 1.09379E-04-3.29463E-05-3.27456E-05 1.87908E-06 4.90799E-19-2.15504E-18
 -1      1517 1.07301E-04-3.21786E-05-3.22053E-05 1.21806E-06-3.55459E-19-2.53581E-18
 -1      1518 1.08603E-04-3.26012E-05-3.25793E-05 1.19094E-06 4.99158E-20-2.47360E-18
 -1      1519 1.07422E-04-3.22575E-05-3.22074E-05 2.25087E-06 6.50757E-19-1.41357E-18
 -1      1520 1.04971E-04-3.14645E-05-3.15168E-05 1.14672E-06-2.57127E-19-1.89223E-18
 -1      1521 1.06246E-04-3.18611E-05-3.18886E-05 1.15056E-06-1.96460E-19-2.28068E-18
 -1      1522 1.05338E-04-3.15711E-05-3.16119E-05 2.26977E-06-1.75429E-19-2.01532E-18
 -1      1523 1.02853E-04-3.08239E-05-3.08838E-05 1.00571E-06-6.04803E-19-1.32787E-18
 -1      1524 1.03999E-04-3.11699E-05-3.12210E-05 1.02636E-06-4.00733E-19-1.86603E-18
 -1      1525 1.03347E-04-3.09435E-05-3.10299E-05 2.08322E-06-5.97615E-19-1.34676E-18
 -1      1526 1.01034E-04-3.02785E-05-3.03361E-05 8.40300E-07 2.41201E-19-9.54533E-19
 -1      1527 1.02007E-04-3.05659E-05-3.06245E-05 8.68199E-07-2.18745E-19-8.81814E-19
 -1      1528 1.01570E-04-3.04002E-05-3.05025E-05 1.79972E-06-5.86117E-19-1.53749E-18
 -1      1529 9.95336E-05-2.98318E-05-2.98825E-05 6.77045E-07 6.16399E-19-2.34982E-18
 -1      1530 1.00328E-04-3.00619E-05-3.01187E-05 7.06370E-07 5.45230E-19-1.34060E-18
 -1      1531 1.00058E-04-2.99479E-05-3.00490E-05 1.48918E-06 7.26887E-19-1.66300E-18
 -1      1532 9.83360E-05-2.94768E-05-2.95191E-05 5.29627E-07-5.01964E-19-1.99024E-18
 -1      1533 9.89631E-05-2.96557E-05-2.97063E-05 5.57175E-07-1.17659E-19-2.35526E-18
 -1      1534 9.88164E-05-2.95826E-05-2.96737E-05 1.19177E-06 3.64476E-19-2.19232E-18
 -1      1535 9.74055E-05-2.92021E-05-2.92360E-05 4.03671E-07-4.96174E-19-6.77831E-19
 -1      1536 9.78873E-05-2.93375E-05-2.93803E-05 4.27921E-07-4.26939E-19-1.54777E-18
 -1      1537 9.78264E-05-2.92951E-05-2.93727E-05 9.27529E-07-6.72046E-19-1.78465E-18
 -1      1538 9.67001E-05-2.89946E-05-2.90210E-05 3.00151E-07-4.88851E-19 2.62615E-19
 -1      1539 9.70611E-05-2.90946E-05-2.91294E-05 3.20592E-07-4.90559E-19-4.96946E-19
 -1      1540 9.70568E-05-2.90739E-05-2.91375E-05 7.03952E-07-1.11880E-18-1.25724E-19
 -1      1541 9.61782E-05-2.88416E-05-2.88616E-05 2.17588E-07-2.66522E-19 1.08928E-18
 -1      1542 9.64419E-05-2.89135E-05-2.89410E-05 2.34272E-07-4.45899E-19 4.29637E-19
 -1      1543 9.64723E-05-2.89076E-05-2.89581E-05 5.21394E-07-6.81484E-19 2.37094E-19
 -1      1544 9.58017E-05-2.87316E-05-2.87464E-05 1.53384E-07 5.78394E-19-3.26635E-19
 -1      1545 9.59892E-05-2.87818E-05-2.88030E-05 1.66651E-07 5.16158E-19 7.76841E-19
 -1      1546 9.60386E-05-2.87853E-05-2.88244E-05 3.76484E-07 5.48909E-19 7.31125E-19
 -1      1547 9.55378E-05-2.86548E-05-2.86655E-05 1.04593E-07-3.35740E-19-2.06394E-19
 -1      1548 9.56669E-05-2.86886E-05-2.87046E-05 1.14906E-07-2.53178E-19-4.03597E-19
 -1      1549 9.57247E-05-2.86976E-05-2.87272E-05 2.64227E-07-6.55681E-20 8.15690E-19
 -1      1550 9.53590E-05-2.86030E-05-2.86105E-05 6.83433E-08-3.24448E-19 1.60127E-19
 -1      1551 9.54445E-05-2.86247E-05-2.86366E-05 7.61900E-08-2.96808E-19-5.67296E-19
 -1      1552 9.55035E-05-2.86364E-05-2.86584E-05 1.79209E-07-6.26213E-20-3.63198E-19
 -1      1553 9.52432E-05-2.85697E-05-2.85748E-05 4.20394E-08-3.66287E-19 3.48157E-19
 -1      1554 9.52968E-05-2.85827E-05-2.85912E-05 4.78846E-08-3.35910E-19 6.59987E-21
 -1      1555 9.53528E-05-2.85953E-05-2.86112E-05 1.16253E-07-5.34346E-19-7.11948E-19
 -1      1556 9.51729E-05-2.85497E-05-2.85530E-05 2.34492E-08-6.50058E-19 4.32359E-19
 -1      1557 9.52038E-05-2.85566E-05-2.85626E-05 2.77069E-08 6.55278E-20 3.64829E-19
 -1      1558 9.52544E-05-2.85690E-05-2.85801E-05 7.07315E-08-3.95873E-19-1.37225E-18
 -1      1559 9.51346E-05-2.85390E-05-2.85410E-05 1.07160E-08 9.65797E-20 7.67021E-19
 -1      1560 9.51498E-05-2.85418E-05-2.85459E-05 1.37407E-08-3.75493E-19 3.89734E-19
 -1      1561 9.51938E-05-2.85532E-05-2.85608E-05 3.86882E-08-3.31497E-19-3.32383E-19
 -1      1562 9.51181E-05-2.85346E-05-2.85357E-05 2.33640E-09 6.79823E-19 3.14505E-19
 -1      1563 9.51229E-05-2.85348E-05-2.85374E-05 4.42270E-09 3.68340E-19 3.03382E-19
 -1      1564 9.51601E-05-2.85448E-05-2.85498E-05 1.68484E-08 4.15335E-19-1.14745E-18
 -1      1565 9.51159E-05-2.85343E-05-2.85348E-05-2.87975E-09-2.24160E-19 2.74083E-19
 -1      1566 9.51140E-05-2.85329E-05-2.85345E-05-1.49310E-09 2.21674E-19 7.87642E-19
 -1      1567 9.51448E-05-2.85415E-05-2.85445E-05 2.56968E-09 1.66490E-19-1.17648E-18
 -1      1568 9.51224E-05-2.85365E-05-2.85367E-05-5.85539E-09 5.60520E-19-1.27324E-18
 -1      1569 9.51166E-05-2.85342E-05-2.85351E-05-4.97898E-09 4.46092E-19-4.06665E-20
 -1      1570 9.51415E-05-2.85414E-05-2.85431E-05-6.23355E-09 6.47741E-19 6.81901E-20
 -1      1571 9.51338E-05-2.85401E-05-2.85400E-05-7.29214E-09 7.33569E-20-2.23384E-18
 -1      1572 9.51261E-05-2.85374E-05-2.85378E-05-6.77865E-09 9.71462E-20-1.86204E-18
 -1      1573 9.51457E-05-2.85433E-05-2.85441E-05-1.11741E-08 5.78192E-19-3.19400E-19
 -1      1574 9.51475E-05-2.85443E-05-2.85441E-05-7.71266E-09-7.75374E-19-7.12819E-20
 -1      1575 9.51390E-05-2.85415E-05-2.85416E-05-7.44966E-09-1.10743E-18-1.88177E-18
 -1      1576 9.51543E-05-2.85462E-05-2.85464E-05-1.34747E-08-9.05768E-19 3.78287E-19
 -1      1577 9.51617E-05-2.85487E-05-2.85483E-05-7.49769E-09-7.55740E-19 1.70359E-18
 -1      1578 9.51533E-05-2.85460E-05-2.85459E-05-7.40112E-09-4.38666E-19 6.69024E-19
 -1      1579 9.51649E-05-2.85497E-05-2.85495E-05-1.40432E-08-1.30181E-18 9.66853E-19
 -1      1580 9.51754E-05-2.85528E-05-2.85524E-05-6.91750E-09 7.68990E-19 1.71224E-18
 -1      1581 9.51675E-05-2.85503E-05-2.85501E-05-6.92587E-09 2.52047E-19 2.13049E-18
 -1      1582 9.51762E-05-2.85532E-05-2.85528E-05-1.35386E-08-3.26389E-19 1.06829E-18
 -1      1583 9.51879E-05-2.85565E-05-2.85562E-05-6.15764E-09-3.84968E-19 2.15782E-18
 -1      1584 9.51808E-05-2.85544E-05-2.85541E-05-6.22720E-09 2.14605E-19 2.08582E-18
 -1      1585 9.51871E-05-2.85565E-05-2.85560E-05-1.24262E-08-4.67283E-20 3.35096E-18
 -1      1586 9.51990E-05-2.85599E-05-2.85596E-05-5.33940E-09 8.07159E-19 1.80414E-18
 -1      1587 9.51929E-05-2.85580E-05-2.85577E-05-5.44021E-09-1.77458E-19 2.13095E-18
 -1      1588 9.51973E-05-2.85596E-05-2.85590E-05-1.10227E-08 1.89122E-19 1.45533E-18
 -1      1589 9.52086E-05-2.85627E-05-2.85625E-05-4.53542E-09 1.77095E-19-2.02271E-19
 -1      1590 9.52034E-05-2.85612E-05-2.85609E-05-4.64840E-09 1.36135E-18 1.72356E-18
 -1      1591 9.52063E-05-2.85623E-05-2.85617E-05-9.53209E-09 1.40186E-18 1.57676E-18
 -1      1592 9.52168E-05-2.85652E-05-2.85649E-05-3.78097E-09 1.07757E-19-6.48385E-19
 -1      1593 9.52124E-05-2.85639E-05-2.85636E-05-3.89584E-09-2.10866E-19-5.53027E-19
 -1      1594 9.52141E-05-2.85646E-05-2.85641E-05-8.07210E-09 4.91616E-19 2.27755E-18
 -1      1595 9.52235E-05-2.85672E-05-2.85669E-05-3.08110E-09 5.80867E-19-1.68913E-18
 -1      1596 9.52199E-05-2.85661E-05-2.85659E-05-3.19542E-09 2.95988E-19-1.52090E-18
 -1      1597 9.52208E-05-2.85665E-05-2.85661E-05-6.69332E-09 4.54609E-19 5.26110E-19
 -1      1598 9.52289E-05-2.85688E-05-2.85686E-05-2.41498E-09 1.30770E-18-3.46038E-18
 -1      1599 9.52260E-05-2.85680E-05-2.85677E-05-2.53379E-09 1.31233E-18-1.91562E-18
 -1      1600 9.52262E-05-2.85682E-05-2.85677E-05-5.39147E-09 1.63743E-18-1.76219E-18
 -1      1601 9.52330E-05-2.85700E-05-2.85698E-05-1.74053E-09 3.59243E-20-4.73146E-18
 -1      1602 9.52308E-05-2.85694E-05-2.85692E-05-1.87662E-09 3.48565E-19-4.04799E-18
 -1      1603 9.52306E-05-2.85695E-05-2.85690E-05-4.11734E-09 1.25033E-18-1.35199E-18
 -1      1604 9.52357E-05-2.85708E-05-2.85706E-05-9.98206E-10 3.86814E-19-5.47133E-18
 -1      1605 9.52343E-05-2.85705E-05-2.85702E-05-1.17755E-09 3.15462E-19-4.55550E-18
 -1      1606 9.52338E-05-2.85705E-05-2.85700E-05-2.79301E-09 1.57772E-19-2.07857E-18
 -1      1607 9.52369E-05-2.85712E-05-2.85710E-05-2.33288E-10 2.41513E-19-5.34784E-18
 -1      1608 9.52365E-05-2.85711E-05-2.85708E-05-4.30276E-10 3.04460E-19-5.85698E-18
 -1      1609 9.52360E-05-2.85711E-05-2.85706E-05-1.35912E-09 1.07983E-18-2.75953E-18
 -1      1610 9.52372E-05-2.85712E-05-2.85712E-05 6.64114E-11-3.10303E-18-3.64335E-18
 -1      1611 9.52372E-05-2.85722E-05-2.85707E-05-7.95559E-10-7.81903E-19 2.98682E-18
 -1      1612 9.52371E-05-2.85716E-05-2.85709E-05-5.96034E-10-3.60573E-18 2.25717E-18
 -1      1613 9.52380E-05-2.85745E-05-2.85701E-05-1.53907E-09 2.89255E-18 2.84245E-18
 -1      1614 9.52376E-05-2.85732E-05-2.85704E-05-1.40670E-09 5.17438E-19 3.36426E-18
 -1      1615 9.52373E-05-2.85731E-05-2.85703E-05-2.17476E-09 8.05999E-19 4.38436E-18
 -1      1616 9.52390E-05-2.85775E-05-2.85692E-05-1.97617E-09 3.60525E-18 1.03123E-18
 -1      1617 9.52384E-05-2.85758E-05-2.85697E-05-1.91692E-09 2.29352E-18 2.68052E-18
 -1      1618 9.52382E-05-2.85754E-05-2.85697E-05-3.35963E-09 1.30238E-18 2.70411E-18
 -1      1619 9.52401E-05-2.85809E-05-2.85682E-05-2.05823E-09 4.49361E-18-2.82469E-19
 -1      1620 9.52395E-05-2.85790E-05-2.85688E-05-2.07084E-09 4.50209E-18 4.10594E-19
 -1      1621 9.52392E-05-2.85782E-05-2.85690E-05-3.91833E-09 2.17163E-18 1.48921E-18
 -1      1622 9.52411E-05-2.85839E-05-2.85674E-05-1.82532E-09 3.15156E-18-3.98798E-19
 -1      1623 9.52405E-05-2.85823E-05-2.85678E-05-1.89426E-09 4.10506E-18-1.67725E-18
 -1      1624 9.52402E-05-2.85810E-05-2.85682E-05-3.82213E-09 1.68838E-18-1.48517E-18
 -1      1625 9.52419E-05-2.85864E-05-2.85667E-05-1.33450E-09 3.63334E-18 9.88846E-20
 -1      1626 9.52415E-05-2.85851E-05-2.85670E-05-1.44849E-09 2.90282E-18 7.26075E-19
 -1      1627 9.52411E-05-2.85835E-05-2.85676E-05-3.16566E-09 1.37611E-18-3.14659E-19
 -1      1628 9.52423E-05-2.85878E-05-2.85662E-05-6.68852E-10 2.18789E-18-5.83796E-19
 -1      1629 9.52421E-05-2.85871E-05-2.85664E-05-8.09473E-10 3.32229E-18 5.09889E-19
 -1      1630 9.52417E-05-2.85854E-05-2.85670E-05-2.07341E-09 1.29045E-18-6.05279E-19
 -1      1631 9.52424E-05-2.85880E-05-2.85662E-05 8.10699E-11 2.56145E-18-3.04066E-19
 -1      1632 9.52424E-05-2.85881E-05-2.85662E-05-6.84510E-11 2.18619E-18-1.06966E-18
 -1      1633 9.52421E-05-2.85864E-05-2.85668E-05-7.13116E-10 9.52799E-19-1.54898E-18
 -1      1634 9.52421E-05-2.85871E-05-2.85664E-05 8.21097E-10 2.13362E-18 1.26656E-19
 -1      1635 9.52423E-05-2.85878E-05-2.85662E-05 6.80848E-10 2.06405E-18 1.40001E-19
 -1      1636 9.52421E-05-2.85864E-05-2.85668E-05 7.36939E-10 1.20503E-18-6.12631E-19
 -1      1637 9.52414E-05-2.85850E-05-2.85670E-05 1.45747E-09 2.48409E-18-9.21180E-19
 -1      1638 9.52419E-05-2.85863E-05-2.85667E-05 1.34451E-09 2.27466E-18 6.31386E-19
 -1      1639 9.52417E-05-2.85854E-05-2.85670E-05 2.09444E-09 4.60655E-19-7.21986E-19
 -1      1640 9.52405E-05-2.85822E-05-2.85678E-05 1.89567E-09 7.44098E-19 1.25225E-19
 -1      1641 9.52411E-05-2.85839E-05-2.85674E-05 1.82775E-09 2.31400E-18-9.92180E-19
 -1      1642 9.52411E-05-2.85835E-05-2.85676E-05 3.17488E-09 5.91388E-19-1.19557E-18
 -1      1643 9.52395E-05-2.85789E-05-2.85688E-05 2.07099E-09-8.13183E-19-7.24204E-19
 -1      1644 9.52401E-05-2.85808E-05-2.85683E-05 2.05966E-09-2.23260E-19 7.89169E-19
 -1      1645 9.52402E-05-2.85810E-05-2.85682E-05 3.82565E-09 2.00202E-19-8.69257E-19
 -1      1646 9.52384E-05-2.85757E-05-2.85697E-05 1.91471E-09-1.01391E-18-3.88586E-19
 -1      1647 9.52390E-05-2.85775E-05-2.85692E-05 1.97142E-09-7.39301E-19-3.87525E-19
 -1      1648 9.52392E-05-2.85781E-05-2.85690E-05 3.91429E-09 2.87854E-20-8.82537E-19
 -1      1649 9.52375E-05-2.85732E-05-2.85704E-05 1.40396E-09-7.75080E-19 1.96680E-19
 -1      1650 9.52380E-05-2.85745E-05-2.85701E-05 1.53986E-09-8.84625E-19 2.16667E-19
 -1      1651 9.52382E-05-2.85754E-05-2.85697E-05 3.34344E-09 5.50915E-19 1.01406E-19
 -1      1652 9.52370E-05-2.85719E-05-2.85708E-05 9.38057E-10-2.08764E-18-1.58484E-18
 -1      1653 9.52372E-05-2.85725E-05-2.85706E-05 1.22465E-09-8.49469E-19-4.42524E-19
 -1      1654 9.52372E-05-2.85733E-05-2.85702E-05 2.61637E-09-1.30071E-19-3.67010E-19
 -1      1655 9.52364E-05-2.85720E-05-2.85705E-05 1.89733E-09-6.44620E-19-7.42982E-19
 -1      1656 2.01256E-05-6.52061E-05 1.32731E-05-5.84754E-06 5.84876E-18 3.06626E-18
 -1      1657 2.30186E-05-7.35879E-05 1.51106E-05 2.10595E-06 2.11991E-18 2.25184E-18
 -1      1658 1.92420E-05-3.93756E-05 4.21041E-06 2.59631E-06 1.06252E-17 6.63132E-18
 -1      1659 2.35611E-05-6.00997E-05 9.60207E-06-9.22941E-08 7.05663E-18 4.25766E-18
 -1      1660 3.00878E-05-1.20540E-05-1.00875E-05 2.45410E-05 1.34771E-17 1.02283E-17
 -1      1661 2.63406E-05-3.29756E-05-2.07921E-06 8.52561E-06 1.19991E-17 7.71605E-18
 -1      1662 7.64130E-05-4.92201E-06-2.99932E-05 5.81166E-05 1.05896E-17 9.48592E-18
 -1      1663 5.12875E-05-1.22655E-05-1.92866E-05 3.40546E-05 1.25378E-17 8.99380E-18
 -1      1664 1.36481E-04-1.47760E-05-4.87588E-05 7.68250E-05 7.45643E-18 8.69649E-18
 -1      1665 9.70578E-05-3.88328E-06-3.96189E-05 6.35901E-05 1.00348E-17 9.78238E-18
 -1      1666 2.04330E-04-4.10571E-05-6.42514E-05 6.91678E-05 4.07201E-18 4.61125E-18
 -1      1667 1.60308E-04-2.00120E-05-5.68927E-05 7.67395E-05 6.63057E-18 7.81981E-18
 -1      1668 2.49000E-04-6.26512E-05-7.31992E-05 2.86773E-05 2.54618E-18-1.52551E-18
 -1      1669 2.23151E-04-4.80559E-05-6.95476E-05 5.70899E-05 3.39247E-18 2.98833E-18
 -1      1670 2.46536E-04-6.05470E-05-7.37714E-05-2.32642E-05 3.64034E-18-8.24671E-18
 -1      1671 2.51973E-04-6.32371E-05-7.44304E-05 1.19073E-05 2.90617E-18-3.63059E-18
 -1      1672 2.00618E-04-3.83636E-05-6.55257E-05-5.92911E-05 7.40873E-18-1.37897E-17
 -1      1673 2.33918E-04-5.57476E-05-7.06046E-05-3.62793E-05 4.85498E-18-1.00390E-17
 -1      1674 1.38179E-04-1.44804E-05-5.13435E-05-6.98487E-05 1.11584E-17-1.60648E-17
 -1      1675 1.81842E-04-3.33463E-05-5.93777E-05-6.89215E-05 8.52496E-18-1.51187E-17
 -1      1676 7.92210E-05-6.47318E-06-3.21684E-05-5.07487E-05 1.30621E-17-1.40463E-17
 -1      1677 1.16175E-04-1.27620E-05-4.24399E-05-6.85705E-05 1.15781E-17-1.54490E-17
 -1      1678 3.63881E-05-1.15305E-05-1.41677E-05-2.53206E-05 1.40387E-17-1.13515E-17
 -1      1679 5.19257E-05-5.89584E-07-2.29479E-05-4.60628E-05 1.46477E-17-1.42725E-17
 -1      1680 2.31414E-05-3.53547E-05 7.15218E-08-5.37214E-06 1.07895E-17-7.03503E-18
 -1      1681 2.41341E-05-1.57673E-05-6.72239E-06-1.70378E-05 1.34026E-17-9.96619E-18
 -1      1682 2.12995E-05-5.95848E-05 1.01773E-05 1.01128E-06 4.47911E-18-3.61725E-18
 -1      1683 1.65976E-05-4.13000E-05 5.66277E-06 1.54423E-06 9.27247E-18-5.82865E-18
 -1      1684 2.04158E-05-6.61448E-05 1.33742E-05-3.91758E-06-3.10157E-18-3.03682E-18
 -1      1685 1.93571E-05-6.29630E-05 1.26565E-05 4.51230E-06 2.22134E-18-3.15181E-18
 -1      1686 1.71028E-05-5.01516E-05 8.87917E-06-4.16086E-06-9.70869E-18-5.14530E-18
 -1      1687 2.10675E-05-6.33643E-05 1.19985E-05 9.47362E-08-5.21243E-18-3.43726E-18
 -1      1688 1.96120E-05-2.45861E-05-1.75181E-06 8.36765E-06-1.44749E-17-9.16934E-18
 -1      1689 2.18525E-05-4.55541E-05 4.49975E-06 8.49427E-07-1.16018E-17-6.23586E-18
 -1      1690 4.07083E-05-3.81695E-06-1.74751E-05 3.62111E-05-1.60970E-17-1.39057E-17
 -1      1691 3.03901E-05-1.96028E-05-8.89068E-06 1.66735E-05-1.52407E-17-1.09267E-17
 -1      1692 9.28637E-05-5.82253E-06-3.61197E-05 6.45074E-05-1.37160E-17-1.58903E-17
 -1      1693 6.33923E-05-6.12144E-06-2.63933E-05 4.38367E-05-1.52432E-17-1.42810E-17
 -1      1694 1.58496E-04-2.30798E-05-5.42015E-05 7.65624E-05-1.00378E-17-1.66298E-17
 -1      1695 1.14108E-04-6.52647E-06-4.52296E-05 6.92565E-05-1.29621E-17-1.70288E-17
 -1      1696 2.21311E-04-5.03868E-05-6.77588E-05 4.98875E-05-5.98471E-18-1.16933E-17
 -1      1697 1.81378E-04-3.05462E-05-6.12384E-05 6.55446E-05-8.48346E-18-1.46503E-17
 -1      1698 2.53839E-04-6.44369E-05-7.45294E-05 7.52559E-06-3.39258E-18-5.79731E-18
 -1      1699 2.37371E-04-5.54309E-05-7.23050E-05 3.94626E-05-4.94455E-18-1.03800E-17
 -1      1700 2.42820E-04-5.78707E-05-7.31321E-05-3.92552E-05-2.40155E-18 9.74088E-21
 -1      1701 2.56142E-04-6.55488E-05-7.48874E-05-7.84011E-06-2.25501E-18-3.71000E-18
 -1      1702 1.92896E-04-3.43880E-05-6.38078E-05-6.65268E-05-4.06639E-18 4.42405E-18
 -1      1703 2.27900E-04-5.24323E-05-6.92574E-05-4.93211E-05-2.65561E-18 1.55600E-18
 -1      1704 1.33119E-04-1.12945E-05-5.02193E-05-7.44420E-05-7.05578E-18 7.84437E-18
 -1      1705 1.73596E-04-2.82594E-05-5.78161E-05-7.64009E-05-4.55111E-18 6.37816E-18
 -1      1706 7.89998E-05-1.84626E-06-3.35980E-05-5.67990E-05-1.01839E-17 9.41816E-18
 -1      1707 1.11252E-04-7.08873E-06-4.23506E-05-7.33770E-05-8.17980E-18 8.68632E-18
 -1      1708 4.27022E-05-1.09343E-05-1.65963E-05-2.99756E-05-1.18203E-17 8.85742E-18
 -1      1709 5.98052E-05-1.46891E-06-2.52253E-05-5.04498E-05-1.11317E-17 9.58248E-18
 -1      1710 2.63840E-05-3.45639E-05-1.40108E-06-7.74442E-06-1.05329E-17 6.26889E-18
 -1      1711 2.92155E-05-1.45989E-05-8.84292E-06-2.18973E-05-1.19211E-17 8.75366E-18
 -1      1712 2.34631E-05-5.96760E-05 9.58995E-06 2.44764E-07-6.12151E-18 3.85051E-18
 -1      1713 1.93302E-05-4.01802E-05 4.48605E-06-1.91527E-06-9.36988E-18 5.65310E-18
 -1      1714 2.23975E-05-7.10299E-05 1.46328E-05-2.02569E-06 6.65874E-19 3.01840E-18
 -1      1715 1.96511E-05-6.25743E-05 1.27682E-05 4.71977E-06-4.07677E-18 3.70979E-18
 -1      1716 1.13961E-04-3.31033E-05-3.39721E-05 4.43121E-05 6.23459E-18 3.84680E-18
 -1      1717 7.07120E-05-3.52825E-05-1.63874E-05 3.99834E-05 6.48658E-18 5.24822E-18
 -1      1718 9.52370E-05-2.85712E-05-2.85710E-05-2.04737E-10-3.47922E-18-7.18782E-19
 -1      1719 9.52368E-05-2.85718E-05-2.85707E-05-1.01533E-09-9.39508E-20 1.83892E-18
 -1      1720 1.78076E-05-4.63005E-05 7.92774E-06 1.39309E-05 3.21237E-18 5.38882E-18
 -1      1721 3.59304E-05-3.98928E-05-1.50235E-06 2.69435E-05 5.27109E-18 6.94784E-18
 -1      1722 1.12135E-05-4.73024E-05 1.09568E-05-5.19156E-07 3.78147E-19 4.89246E-18
 -1      1723 1.56062E-04-3.06483E-05-5.08904E-05 4.40371E-05 5.94490E-18 3.26446E-18
 -1      1724 1.92860E-04-3.28441E-05-6.37442E-05 3.22294E-05 5.05594E-18 1.08971E-18
 -1      1725 2.11304E-04-3.50738E-05-6.99783E-05 1.04648E-05 5.20502E-18-2.42357E-18
 -1      1726 2.01900E-04-3.18548E-05-6.80726E-05-1.10831E-05 6.25449E-18-5.37167E-18
 -1      1727 1.78503E-04-3.17015E-05-5.93417E-05-2.90216E-05 7.42541E-18-8.15354E-18
 -1      1728 1.42317E-04-3.36355E-05-4.50112E-05-3.88899E-05 7.36495E-18-8.92349E-18
 -1      1729 9.70522E-05-3.09289E-05-2.82186E-05-4.35667E-05 8.08196E-18-9.55877E-18
 -1      1730 5.37985E-05-3.01688E-05-1.21846E-05-3.50511E-05 7.93670E-18-9.12593E-18
 -1      1731 2.76744E-05-3.64761E-05 2.43485E-07-2.21650E-05 5.52943E-18-7.37379E-18
 -1      1732 1.29445E-05-4.17888E-05 7.94814E-06-8.94470E-06 1.79296E-18-6.11854E-18
 -1      1733 1.08402E-05-4.20112E-05 8.99417E-06 4.21583E-06-2.41510E-18-5.99149E-18
 -1      1734 2.12244E-05-3.83856E-05 3.54485E-06 1.69957E-05-6.04951E-18-6.85504E-18
 -1      1735 4.40753E-05-3.29309E-05-7.46105E-06 3.01283E-05-8.81677E-18-8.88950E-18
 -1      1736 8.27163E-05-3.10038E-05-2.28493E-05 4.15534E-05-9.56300E-18-9.97593E-18
 -1      1737 1.26777E-04-3.11744E-05-3.97547E-05 4.42343E-05-9.11153E-18-1.06641E-17
 -1      1738 1.68722E-04-3.16955E-05-5.53099E-05 3.62533E-05-8.11288E-18-9.54013E-18
 -1      1739 1.97664E-04-3.26900E-05-6.60748E-05 1.77405E-05-6.89612E-18-6.91857E-18
 -1      1740 2.13539E-04-3.51864E-05-7.07550E-05-7.81212E-07-5.34224E-18-4.56185E-18
 -1      1741 2.02591E-04-3.37169E-05-6.73661E-05-1.96649E-05-4.07105E-18-1.71905E-18
 -1      1742 1.76237E-04-3.16205E-05-5.81178E-05-3.66227E-05-4.43866E-18 1.03762E-18
 -1      1743 1.39510E-04-2.96475E-05-4.49151E-05-4.68585E-05-5.82335E-18 3.23228E-18
 -1      1744 9.89432E-05-2.99360E-05-2.94358E-05-4.55079E-05-6.55349E-18 4.59600E-18
 -1      1745 6.26708E-05-3.39686E-05-1.40925E-05-3.72868E-05-6.27313E-18 5.48750E-18
 -1      1746 3.51234E-05-4.04235E-05-1.09175E-06-2.58046E-05-4.56720E-18 5.53234E-18
 -1      1747 1.75338E-05-4.44513E-05 7.49618E-06-1.41310E-05-1.51407E-18 5.93220E-18
 -1      1748 1.27972E-04-2.94071E-05-4.23109E-05-1.42171E-05-1.64541E-18 5.67385E-18
 -1      1749 9.70123E-05-1.40068E-05-3.57199E-05-6.16682E-06-1.51992E-18-2.78616E-18
 -1      1750 1.01732E-04-1.57512E-05-3.69991E-05-8.72050E-06-1.86466E-18-2.09519E-18
 -1      1751 1.06947E-04-1.87211E-05-3.80024E-05-1.05062E-05-2.00694E-18-1.10321E-18
 -1      1752 1.11696E-04-2.13606E-05-3.92261E-05-1.29834E-05-2.34033E-18 1.02438E-19
 -1      1753 1.07069E-04-2.18654E-05-3.65629E-05-8.12535E-06-2.04010E-18-1.38815E-18
 -1      1754 7.82277E-05-6.23448E-06-3.09624E-05 1.07705E-06-4.48054E-19-4.18233E-18
 -1      1755 8.26751E-05-7.68869E-06-3.21355E-05-2.45111E-07-6.76793E-19-3.98929E-18
 -1      1756 6.95168E-05-2.27183E-06-2.89174E-05 2.33956E-06-4.63023E-20-4.43937E-18
 -1      1757 7.34983E-05-3.65831E-06-2.98984E-05 1.88620E-06-2.40081E-19-4.37360E-18
 -1      1758 7.70517E-05-7.22392E-06-2.99873E-05 2.34988E-06-3.25704E-19-4.17911E-18
 -1      1759 6.31124E-05 8.84684E-07-2.74978E-05 1.57364E-06 2.67924E-19-4.50871E-18
 -1      1760 6.57433E-05-6.31083E-08-2.81192E-05 1.95614E-06 1.25626E-19-4.51509E-18
 -1      1761 6.79916E-05-2.42700E-06-2.81194E-05 2.97102E-06 9.25284E-20-4.39345E-18
 -1      1762 6.06780E-05 2.17083E-06-2.69592E-05-5.65161E-07 4.64009E-19-4.48096E-18
 -1      1763 6.12597E-05 1.98619E-06-2.71113E-05 2.50166E-07 3.72572E-19-4.56754E-18
 -1      1764 6.19660E-05 9.12763E-07-2.69268E-05 1.31903E-06 3.60563E-19-4.53009E-18
 -1      1765 6.28909E-05 1.08276E-06-2.73957E-05-2.70886E-06 6.44777E-19-4.16899E-18
 -1      1766 6.12903E-05 1.72569E-06-2.70589E-05-2.07146E-06 5.34492E-19-4.33469E-18
 -1      1767 6.06640E-05 1.56766E-06-2.66402E-05-1.55414E-06 5.02511E-19-4.42837E-18
 -1      1768 6.89716E-05-1.92880E-06-2.86923E-05-3.47682E-06 8.82198E-19-3.81882E-18
 -1      1769 6.57151E-05-7.03882E-07-2.79478E-05-3.53757E-06 7.45786E-19-4.02576E-18
 -1      1770 6.44096E-05-7.03046E-07-2.73032E-05-3.88743E-06 6.86024E-19-4.07781E-18
 -1      1771 7.70201E-05-5.70141E-06-3.05396E-05-2.21567E-06 1.23177E-18-3.19580E-18
 -1      1772 7.30437E-05-4.31708E-06-2.95522E-05-3.14646E-06 1.01673E-18-3.51876E-18
 -1      1773 7.18474E-05-4.91609E-06-2.87311E-05-4.23990E-06 9.53527E-19-3.60117E-18
 -1      1774 8.56479E-05-9.39447E-06-3.26956E-05 9.57571E-07 1.73617E-18-2.37317E-18
 -1      1775 8.15176E-05-8.08071E-06-3.15735E-05-7.81756E-07 1.45635E-18-2.78458E-18
 -1      1776 8.09542E-05-9.66932E-06-3.06279E-05-2.24556E-06 1.35676E-18-2.81863E-18
 -1      1777 9.39069E-05-1.26771E-05-3.48949E-05 5.38303E-06 2.21301E-18-1.41878E-18
 -1      1778 8.99555E-05-1.14599E-05-3.37537E-05 3.07916E-06 1.95612E-18-1.96790E-18
 -1      1779 9.01577E-05-1.40298E-05-3.27066E-05 1.52171E-06 1.90687E-18-1.96138E-18
 -1      1780 1.02147E-04-1.62545E-05-3.69959E-05 1.02501E-05 2.62492E-18 2.30472E-19
 -1      1781 9.80498E-05-1.46965E-05-3.58804E-05 7.63513E-06 2.37373E-18-7.21566E-19
 -1      1782 9.87905E-05-1.79282E-05-3.47109E-05 5.97885E-06 2.39373E-18-8.29007E-19
 -1      1783 1.12240E-04-2.22812E-05-3.87892E-05 1.43067E-05 2.61148E-18 2.98849E-18
 -1      1784 1.06861E-04-1.91086E-05-3.78053E-05 1.20359E-05 2.57020E-18 1.37982E-18
 -1      1785 1.07616E-04-2.25257E-05-3.64532E-05 9.73918E-06 2.65275E-18 8.88273E-19
 -1      1786 1.21450E-04-3.13160E-05-3.91122E-05 1.19474E-05 2.25623E-18 6.22442E-18
 -1      1787 1.15894E-04-2.51262E-05-3.89063E-05 1.40463E-05 2.46978E-18 4.12002E-18
 -1      1788 1.14732E-04-2.80442E-05-3.72482E-05 1.02223E-05 2.66503E-18 3.06128E-18
 -1      1789 1.18880E-04-3.27345E-05-3.71496E-05 7.17203E-06 2.27140E-18 5.57730E-18
 -1      1790 1.20479E-04-2.55423E-05-4.03817E-05-1.51695E-05-2.12379E-18 2.15962E-18
 -1      1791 1.16139E-04-3.44116E-05-3.50751E-05 3.49750E-06 1.70408E-18 4.53576E-18
 -1      1792 1.18251E-04-3.43223E-05-3.60323E-05 5.04641E-06 1.88203E-18 5.09575E-18
 -1      1793 1.16795E-04-3.23981E-05-3.61683E-05 6.99204E-06 2.20043E-18 3.75611E-18
 -1      1794 1.19553E-04-2.90887E-05-3.84858E-05-1.05112E-05-2.16867E-18 1.37304E-18
 -1      1795 1.19034E-04-3.49053E-05-3.59345E-05-3.67603E-06-1.56188E-18 1.32849E-18
 -1      1796 1.17558E-04-3.53183E-05-3.52860E-05-3.05295E-06-1.29169E-18 9.96164E-19
 -1      1797 1.17411E-04-3.59746E-05-3.48085E-05-3.17246E-06-1.20294E-18 1.06112E-18
 -1      1798 1.16323E-04-3.61824E-05-3.43892E-05-3.91359E-06-9.96061E-19 7.26410E-19
 -1      1799 1.16436E-04-3.53767E-05-3.47614E-05-4.12178E-06-1.45043E-18 2.68711E-19
 -1      1800 1.16212E-04-3.65370E-05-3.40982E-05-5.20569E-06-7.34794E-19 8.94050E-19
 -1      1801 1.14669E-04-3.62146E-05-3.36670E-05-6.58168E-06-6.75721E-19 6.69374E-19
 -1      1802 1.16419E-04-3.70662E-05-3.40112E-05-5.48057E-06-1.03424E-18 3.52888E-19
 -1      1803 1.14112E-04-3.59678E-05-3.34862E-05-8.31880E-06-5.41850E-19 7.96998E-19
 -1      1804 1.11873E-04-3.48714E-05-3.30037E-05-9.52732E-06-4.47799E-19 7.28581E-19
 -1      1805 1.15883E-04-3.73361E-05-3.36369E-05-8.79503E-06-6.31165E-19 5.72054E-19
 -1      1806 1.10497E-04-3.37402E-05-3.29282E-05-1.05536E-05-4.97673E-19 6.68005E-19
 -1      1807 1.07839E-04-3.19463E-05-3.24657E-05-1.06110E-05-7.63508E-19 4.46029E-19
 -1      1808 1.13897E-04-3.54715E-05-3.35730E-05-1.19804E-05-6.34980E-19 3.62868E-19
 -1      1809 1.05868E-04-3.01771E-05-3.24769E-05-9.68975E-06-1.08955E-18 9.76338E-20
 -1      1810 1.03622E-04-2.83925E-05-3.21459E-05-7.94014E-06-1.08087E-18-6.34481E-20
 -1      1811 1.10296E-04-3.15169E-05-3.37630E-05-1.23132E-05-1.06782E-18 2.72872E-19
 -1      1812 1.02110E-04-2.70175E-05-3.21762E-05-4.74407E-06-1.17031E-18-3.02947E-19
 -1      1813 1.01280E-04-2.63146E-05-3.20652E-05-1.61082E-06-1.01030E-18-6.63111E-19
 -1      1814 1.06483E-04-2.72578E-05-3.40255E-05-7.81572E-06-1.31493E-18-2.73195E-19
 -1      1815 1.01284E-04-2.63741E-05-3.20468E-05 2.53683E-06-1.16786E-18-1.00615E-18
 -1      1816 1.02293E-04-2.72702E-05-3.21709E-05 5.57398E-06-1.01512E-18-1.26515E-18
 -1      1817 1.04831E-04-2.54654E-05-3.41192E-05 4.93026E-07-1.33826E-18-1.21946E-18
 -1      1818 1.03794E-04-2.87488E-05-3.20773E-05 8.46305E-06-9.96256E-19-1.57299E-18
 -1      1819 1.06053E-04-3.05785E-05-3.23988E-05 9.94097E-06-9.13062E-19-2.28042E-18
 -1      1820 1.06535E-04-2.76096E-05-3.38918E-05 8.51528E-06-1.38178E-18-2.15053E-18
 -1      1821 1.07806E-04-3.23018E-05-3.23165E-05 1.04728E-05-1.12387E-18-2.49978E-18
 -1      1822 1.10308E-04-3.40611E-05-3.27288E-05 1.00889E-05-8.63922E-19-3.08938E-18
 -1      1823 1.10111E-04-3.19942E-05-3.34690E-05 1.21837E-05-1.31784E-18-2.45145E-18
 -1      1824 1.11269E-04-3.50669E-05-3.26875E-05 8.60831E-06-7.38507E-19-3.28148E-18
 -1      1825 1.13108E-04-3.60574E-05-3.30516E-05 7.05503E-06-5.49877E-19-3.53902E-18
 -1      1826 1.13128E-04-3.58440E-05-3.30801E-05 1.08901E-05-1.10690E-18-3.07646E-18
 -1      1827 1.13049E-04-3.61539E-05-3.30303E-05 4.78598E-06-3.62378E-19-3.60963E-18
 -1      1828 1.13883E-04-3.63421E-05-3.32422E-05 2.97580E-06-2.78780E-19-3.33246E-18
 -1      1829 1.14126E-04-3.74748E-05-3.28129E-05 6.59236E-06-5.18166E-19-3.50908E-18
 -1      1830 1.13125E-04-3.58641E-05-3.31952E-05 9.10985E-07-3.73025E-19-3.08688E-18
 -1      1831 1.13042E-04-3.55402E-05-3.32179E-05-5.62204E-07-2.39578E-19-3.01716E-18
 -1      1832 1.13263E-04-3.70803E-05-3.26335E-05 1.79345E-06-3.11308E-19-2.84983E-18
 -1      1833 1.11968E-04-3.48649E-05-3.31110E-05-1.99376E-06-6.58700E-20-3.18862E-18
 -1      1834 1.11244E-04-3.43201E-05-3.29678E-05-2.92777E-06 1.26502E-19-2.94825E-18
 -1      1835 1.11332E-04-3.56264E-05-3.24444E-05-2.00500E-06-2.70591E-19-2.96765E-18
 -1      1836 1.10105E-04-3.36735E-05-3.27979E-05-3.69871E-06-3.04535E-20-2.90094E-18
 -1      1837 1.09028E-04-3.30933E-05-3.25430E-05-4.14018E-06 1.19471E-19-2.65306E-18
 -1      1838 1.09019E-04-3.39488E-05-3.21801E-05-4.36608E-06 1.83766E-20-3.19706E-18
 -1      1839 1.07950E-04-3.25612E-05-3.23274E-05-4.40083E-06-5.93395E-20-2.80634E-18
 -1      1840 1.06746E-04-3.20340E-05-3.20178E-05-4.48951E-06-2.90484E-19-2.72104E-18
 -1      1841 1.06723E-04-3.24754E-05-3.18300E-05-5.45200E-06-1.10602E-19-3.30024E-18
 -1      1842 1.05777E-04-3.16243E-05-3.17810E-05-4.42181E-06-2.14192E-19-2.16853E-18
 -1      1843 1.04597E-04-3.11796E-05-3.14618E-05-4.29873E-06 5.84639E-20-1.96777E-18
 -1      1844 1.04624E-04-3.13343E-05-3.14197E-05-5.63200E-06 3.36224E-20-2.10633E-18
 -1      1845 1.03753E-04-3.08720E-05-3.12257E-05-4.05205E-06-3.35397E-19-1.99298E-18
 -1      1846 1.02681E-04-3.05117E-05-3.09260E-05-3.82447E-06 4.68192E-20-2.23088E-18
 -1      1847 1.02782E-04-3.05021E-05-3.09867E-05-5.26528E-06-5.89556E-20-1.49719E-18
 -1      1848 1.01963E-04-3.02820E-05-3.07061E-05-3.50199E-06 5.96817E-19-2.35663E-18
 -1      1849 1.01038E-04-2.99972E-05-3.04416E-05-3.23975E-06 6.45599E-19-2.32268E-18
 -1      1850 1.01207E-04-2.99109E-05-3.05645E-05-4.62428E-06 1.76674E-19-1.32302E-18
 -1      1851 1.00438E-04-2.98252E-05-3.02468E-05-2.90482E-06 5.11952E-19-2.36930E-18
 -1      1852 9.96693E-05-2.96041E-05-3.00233E-05-2.64820E-06 1.18297E-19-2.28069E-18
 -1      1853 9.98862E-05-2.94938E-05-3.01765E-05-3.88895E-06 4.61621E-19-1.35549E-18
 -1      1854 9.91773E-05-2.94751E-05-2.98571E-05-2.33554E-06 9.84353E-20-1.95542E-18
 -1      1855 9.85569E-05-2.93062E-05-2.96743E-05-2.10478E-06 2.69562E-19-1.52508E-18
 -1      1856 9.87982E-05-2.91994E-05-2.98357E-05-3.16572E-06 4.51845E-19-1.47841E-18
 -1      1857 9.81605E-05-2.92094E-05-2.95368E-05-1.83056E-06-4.52544E-19-1.47187E-18
 -1      1858 9.76720E-05-2.90824E-05-2.93913E-05-1.63360E-06-3.80822E-19-1.45002E-18
 -1      1859 9.79172E-05-2.89911E-05-2.95466E-05-2.51013E-06 1.01421E-19-1.25304E-18
 -1      1860 9.73583E-05-2.90102E-05-2.92804E-05-1.40290E-06-1.56628E-19-1.77655E-18
 -1      1861 9.69818E-05-2.89162E-05-2.91672E-05-1.24076E-06-1.29388E-19-2.44133E-18
 -1      1862 9.72159E-05-2.88436E-05-2.93083E-05-1.94554E-06-4.57937E-19-1.17773E-18
 -1      1863 9.67379E-05-2.88629E-05-2.90797E-05-1.05254E-06 5.06051E-19-2.73242E-18
 -1      1864 9.64537E-05-2.87947E-05-2.89935E-05-9.22680E-07 1.81042E-19-2.52058E-18
 -1      1865 9.66670E-05-2.87398E-05-2.91167E-05-1.47648E-06 7.89378E-20-2.54939E-18
 -1      1866 9.62674E-05-2.87559E-05-2.89259E-05-7.72824E-07-8.02219E-19-2.71594E-18
 -1      1867 9.60574E-05-2.87075E-05-2.88616E-05-6.71163E-07-1.25385E-18-3.02589E-18
 -1      1868 9.62448E-05-2.86676E-05-2.89658E-05-1.09739E-06-4.84454E-19-2.47666E-18
 -1      1869 9.59178E-05-2.86798E-05-2.88103E-05-5.54354E-07-8.98253E-19-2.43833E-18
 -1      1870 9.57660E-05-2.86463E-05-2.87634E-05-4.76375E-07-1.74087E-19-2.60150E-18
 -1      1871 9.59258E-05-2.86185E-05-2.88494E-05-7.97924E-07-5.30631E-19-1.36704E-18
 -1      1872 9.56634E-05-2.86270E-05-2.87253E-05-3.87095E-07 3.29128E-19-2.63070E-18
 -1      1873 9.55565E-05-2.86047E-05-2.86919E-05-3.28444E-07 7.70173E-19-2.13959E-18
 -1      1874 9.56895E-05-2.85860E-05-2.87613E-05-5.66117E-07 2.69096E-20-1.68298E-18
 -1      1875 9.54828E-05-2.85916E-05-2.86642E-05-2.61516E-07 3.62724E-19-2.45545E-18
 -1      1876 9.54098E-05-2.85774E-05-2.86411E-05-2.18283E-07 1.62709E-19-2.63922E-18
 -1      1877 9.55181E-05-2.85656E-05-2.86961E-05-3.90126E-07 1.76783E-19-1.52055E-18
 -1      1878 9.53583E-05-2.85690E-05-2.86215E-05-1.69118E-07 1.49812E-19-2.58519E-18
 -1      1879 9.53103E-05-2.85606E-05-2.86060E-05-1.37943E-07 5.80972E-20-2.51309E-18
 -1      1880 9.53968E-05-2.85536E-05-2.86487E-05-2.59099E-07 1.93831E-19-1.47423E-18
 -1      1881 9.52755E-05-2.85555E-05-2.85925E-05-1.02624E-07-5.52740E-19-3.17474E-18
 -1      1882 9.52457E-05-2.85512E-05-2.85826E-05-8.07029E-08-9.28646E-19-3.64613E-18
 -1      1883 9.53135E-05-2.85475E-05-2.86152E-05-1.63561E-07-4.78613E-19-2.31302E-18
 -1      1884 9.52231E-05-2.85484E-05-2.85736E-05-5.59816E-08-7.54360E-19-3.54260E-18
 -1      1885 9.52063E-05-2.85467E-05-2.85678E-05-4.10328E-08-6.63080E-19-2.91349E-18
 -1      1886 9.52583E-05-2.85453E-05-2.85922E-05-9.55135E-08-8.28804E-19-3.03845E-18
 -1      1887 9.51925E-05-2.85455E-05-2.85621E-05-2.42723E-08-6.66619E-19-2.42427E-18
 -1      1888 9.51845E-05-2.85456E-05-2.85591E-05-1.44757E-08-6.81805E-20-1.45170E-18
 -1      1889 9.52238E-05-2.85456E-05-2.85770E-05-4.83709E-08-5.98224E-20-2.26622E-18
 -1      1890 9.51770E-05-2.85455E-05-2.85558E-05-3.57843E-09-3.08188E-19-1.35070E-18
 -1      1891 9.51748E-05-2.85466E-05-2.85547E-05 2.49181E-09 1.73180E-19-2.25633E-18
 -1      1892 9.52039E-05-2.85475E-05-2.85675E-05-1.68279E-08 2.66835E-20-6.14330E-19
 -1      1893 9.51715E-05-2.85471E-05-2.85530E-05 9.16457E-09 1.09484E-18-2.39440E-18
 -1      1894 9.51731E-05-2.85488E-05-2.85531E-05 1.26058E-08 1.02157E-18-1.68634E-18
 -1      1895 9.51940E-05-2.85501E-05-2.85620E-05 3.30984E-09 3.01460E-19-6.57974E-19
 -1      1896 9.51726E-05-2.85496E-05-2.85525E-05 1.63117E-08 1.03503E-18-1.46066E-18
 -1      1897 9.51762E-05-2.85516E-05-2.85533E-05 1.79533E-08 9.71236E-19-1.10794E-18
 -1      1898 9.51909E-05-2.85530E-05-2.85593E-05 1.52990E-08 1.32466E-18-4.51739E-19
 -1      1899 9.51774E-05-2.85526E-05-2.85534E-05 1.96402E-08 1.50717E-18-7.15064E-19
 -1      1900 9.51821E-05-2.85545E-05-2.85546E-05 2.00973E-08 1.85210E-18 7.68991E-19
 -1      1901 9.51921E-05-2.85560E-05-2.85585E-05 2.16236E-08 2.01269E-18-2.05367E-19
 -1      1902 9.51843E-05-2.85556E-05-2.85552E-05 2.04655E-08 6.79219E-19 3.25550E-19
 -1      1903 9.51894E-05-2.85574E-05-2.85565E-05 2.01843E-08 1.04625E-19 9.74212E-19
 -1      1904 9.51958E-05-2.85588E-05-2.85588E-05 2.41431E-08 1.37602E-18 4.08474E-19
 -1      1905 9.51921E-05-2.85584E-05-2.85573E-05 1.97394E-08-6.40183E-19 1.02616E-18
 -1      1906 9.51971E-05-2.85601E-05-2.85587E-05 1.90351E-08-1.26487E-18 6.49984E-19
 -1      1907 9.52009E-05-2.85613E-05-2.85599E-05 2.42203E-08-2.40318E-19-8.81058E-20
 -1      1908 9.51998E-05-2.85610E-05-2.85595E-05 1.81318E-08-2.28968E-18 3.35223E-19
 -1      1909 9.52045E-05-2.85625E-05-2.85608E-05 1.72193E-08-1.67405E-18-6.84104E-20
 -1      1910 9.52064E-05-2.85634E-05-2.85613E-05 2.28300E-08-1.79524E-18 3.24860E-20
 -1      1911 9.52072E-05-2.85633E-05-2.85617E-05 1.60968E-08-1.03802E-18-7.30590E-19
 -1      1912 9.52113E-05-2.85646E-05-2.85629E-05 1.51144E-08-1.57548E-19-1.19468E-18
 -1      1913 9.52119E-05-2.85653E-05-2.85628E-05 2.06465E-08-1.28763E-18-1.46759E-18
 -1      1914 9.52138E-05-2.85653E-05-2.85637E-05 1.39237E-08 1.74670E-18-2.23667E-18
 -1      1915 9.52174E-05-2.85664E-05-2.85648E-05 1.29515E-08 1.56393E-18-1.15301E-18
 -1      1916 9.52171E-05-2.85669E-05-2.85643E-05 1.81147E-08-2.13260E-20-1.48715E-18
 -1      1917 9.52196E-05-2.85670E-05-2.85655E-05 1.17761E-08 8.02230E-19-1.44111E-19
 -1      1918 9.52227E-05-2.85679E-05-2.85664E-05 1.08492E-08 1.58230E-18 6.43375E-19
 -1      1919 9.52217E-05-2.85682E-05-2.85658E-05 1.55041E-08 1.79857E-18-1.39405E-18
 -1      1920 9.52246E-05-2.85684E-05-2.85670E-05 9.72085E-09 1.05161E-18-3.98545E-19
 -1      1921 9.52272E-05-2.85692E-05-2.85677E-05 8.83817E-09 1.24723E-18-6.64242E-19
 -1      1922 9.52258E-05-2.85694E-05-2.85670E-05 1.29504E-08 1.10154E-18-1.88982E-18
 -1      1923 9.52288E-05-2.85696E-05-2.85683E-05 7.74998E-09 5.57966E-19-5.44148E-19
 -1      1924 9.52308E-05-2.85702E-05-2.85688E-05 6.88282E-09-5.85003E-20-9.39917E-19
 -1      1925 9.52293E-05-2.85703E-05-2.85681E-05 1.04879E-08 4.69017E-19-2.16098E-18
 -1      1926 9.52321E-05-2.85707E-05-2.85692E-05 5.80334E-09 4.77203E-19-1.52217E-18
 -1      1927 9.52336E-05-2.85712E-05-2.85697E-05 4.90701E-09 2.59033E-19 6.36175E-20
 -1      1928 9.52322E-05-2.85712E-05-2.85690E-05 8.08101E-09-6.52990E-20-1.15930E-18
 -1      1929 9.52346E-05-2.85714E-05-2.85699E-05 3.86587E-09-3.56785E-19-2.80204E-19
 -1      1930 9.52356E-05-2.85718E-05-2.85702E-05 2.95386E-09-2.76991E-19-2.60504E-19
 -1      1931 9.52360E-05-2.85724E-05-2.85701E-05 3.49457E-09-9.14740E-19-1.84635E-18
 -1      1932 9.52344E-05-2.85719E-05-2.85696E-05 5.73213E-09 1.46918E-19-8.17299E-19
 -1      1933 1.13902E-04-3.46745E-05-3.39530E-05 3.44737E-06 1.33500E-18 3.64245E-18
 -1      1934 1.15366E-04-3.47986E-05-3.44903E-05 3.36043E-06 1.42022E-18 4.19403E-18
 -1      1935 1.15050E-04-3.44414E-05-3.45478E-05 4.54242E-06 1.74567E-18 3.13914E-18
 -1      1936 1.11453E-04-3.43211E-05-3.30545E-05 5.05900E-06 1.17730E-18 2.99506E-18
 -1      1937 1.13015E-04-3.47066E-05-3.35357E-05 4.20271E-06 1.02209E-18 3.39816E-18
 -1      1938 1.13311E-04-3.49630E-05-3.35604E-05 5.14479E-06 1.33849E-18 2.60595E-18
 -1      1939 1.08176E-04-3.31937E-05-3.21234E-05 7.08352E-06 8.00739E-19 2.89957E-18
 -1      1940 1.10199E-04-3.39553E-05-3.26701E-05 6.05051E-06 9.22174E-19 3.00537E-18
 -1      1941 1.11177E-04-3.45648E-05-3.28038E-05 7.18933E-06 1.06091E-18 2.27285E-18
 -1      1942 1.04006E-04-3.12119E-05-3.11729E-05 8.10664E-06 2.63842E-19 2.36282E-18
 -1      1943 1.06430E-04-3.23280E-05-3.17561E-05 7.57534E-06 5.53566E-19 2.72015E-18
 -1      1944 1.08152E-04-3.30755E-05-3.21440E-05 9.10712E-06 6.39351E-19 2.13045E-18
 -1      1945 9.97208E-05-2.88222E-05-3.03661E-05 6.82804E-06 5.85710E-19 2.00026E-18
 -1      1946 1.02050E-04-2.99988E-05-3.08680E-05 7.40710E-06 3.38012E-19 2.11902E-18
 -1      1947 1.04377E-04-3.06229E-05-3.16003E-05 9.19399E-06 5.42736E-19 1.79482E-18
 -1      1948 9.67887E-05-2.70521E-05-2.98931E-05 2.95242E-06 8.83263E-19 1.52803E-18
 -1      1949 9.82697E-05-2.77880E-05-3.01768E-05 4.74466E-06 8.39979E-19 1.76302E-18
 -1      1950 1.00882E-04-2.80800E-05-3.12338E-05 6.30140E-06 1.01369E-18 1.30615E-18
 -1      1951 9.65461E-05-2.69097E-05-2.98741E-05-2.22867E-06 6.51527E-19 4.35851E-19
 -1      1952 9.65728E-05-2.68078E-05-2.98531E-05 1.33376E-07 7.95629E-19 9.43515E-19
 -1      1953 9.91412E-05-2.67518E-05-3.10793E-05 8.61236E-07 1.06456E-18 5.83276E-19
 -1      1954 9.91370E-05-2.85089E-05-3.02953E-05-6.45264E-06 3.16294E-19-3.82488E-20
 -1      1955 9.76869E-05-2.76205E-05-2.99823E-05-4.55568E-06 4.41198E-19 1.11517E-19
 -1      1956 1.00025E-04-2.74597E-05-3.11376E-05-4.96838E-06 8.39410E-19 1.26393E-19
 -1      1957 1.03281E-04-3.09138E-05-3.10157E-05-8.09213E-06 7.36469E-19-2.14379E-19
 -1      1958 1.00971E-04-2.97038E-05-3.05181E-05-7.34283E-06 7.24584E-19-3.47284E-20
 -1      1959 1.02976E-04-2.97667E-05-3.13791E-05-8.66276E-06 7.49009E-19-5.49255E-19
 -1      1960 1.07273E-04-3.30000E-05-3.18069E-05-7.09533E-06 5.58112E-19-1.01156E-18
 -1      1961 1.04943E-04-3.19597E-05-3.12834E-05-7.48354E-06 6.89577E-19-4.86978E-19
 -1      1962 1.06458E-04-3.23685E-05-3.17358E-05-9.12568E-06 8.58951E-19-1.07406E-18
 -1      1963 1.09944E-04-3.41500E-05-3.24494E-05-4.53886E-06 3.55476E-19-1.27481E-18
 -1      1964 1.08234E-04-3.35408E-05-3.20395E-05-5.59042E-06 3.83402E-19-9.03632E-19
 -1      1965 1.09105E-04-3.41638E-05-3.21033E-05-6.99068E-06 6.74953E-19-1.40686E-18
 -1      1966 1.10968E-04-3.43619E-05-3.28030E-05-1.69177E-06 1.25824E-19-1.46129E-18
 -1      1967 1.10126E-04-3.41883E-05-3.25833E-05-2.87243E-06 1.59864E-19-1.26478E-18
 -1      1968 1.10313E-04-3.47821E-05-3.23671E-05-3.71850E-06 3.87882E-19-1.47945E-18
 -1      1969 1.10600E-04-3.39455E-05-3.28360E-05 6.26860E-07 3.46926E-19-1.49860E-18
 -1      1970 1.10562E-04-3.40826E-05-3.28131E-05-3.43180E-07 1.40766E-19-1.45051E-18
 -1      1971 1.10178E-04-3.44750E-05-3.24492E-05-5.89014E-07 2.76980E-19-1.74447E-18
 -1      1972 1.09301E-04-3.32248E-05-3.25991E-05 2.13500E-06 6.08388E-19-1.64911E-18
 -1      1973 1.09847E-04-3.35339E-05-3.27331E-05 1.49483E-06 4.36639E-19-1.30351E-18
 -1      1974 1.09102E-04-3.36797E-05-3.23311E-05 1.73524E-06 4.64058E-19-1.61226E-18
 -1      1975 1.07505E-04-3.24213E-05-3.21809E-05 2.89203E-06 3.43612E-19-1.66911E-18
 -1      1976 1.08394E-04-3.27984E-05-3.24148E-05 2.56102E-06 3.54735E-19-1.80364E-18
 -1      1977 1.07500E-04-3.27436E-05-3.20446E-05 3.12092E-06 7.46971E-19-1.56893E-18
 -1      1978 1.05544E-04-3.16566E-05-3.16712E-05 3.09330E-06 4.21776E-19-1.20754E-18
 -1      1979 1.06574E-04-3.20365E-05-3.19518E-05 2.99340E-06 8.01057E-19-1.05009E-18
 -1      1980 1.05691E-04-3.18570E-05-3.16471E-05 3.71690E-06 6.17530E-19-1.60726E-18
 -1      1981 1.03634E-04-3.09837E-05-3.11415E-05 2.94546E-06-3.79133E-19-1.62291E-18
 -1      1982 1.04666E-04-3.13318E-05-3.14287E-05 2.99278E-06-1.58352E-19-1.44459E-18
 -1      1983 1.03887E-04-3.10975E-05-3.11980E-05 3.76143E-06 2.15214E-19-1.13571E-18
 -1      1984 1.01899E-04-3.04180E-05-3.06395E-05 2.61282E-06-4.44831E-19-1.97210E-18
 -1      1985 1.02848E-04-3.07191E-05-3.09079E-05 2.73989E-06-4.22592E-19-1.68598E-18
 -1      1986 1.02214E-04-3.04789E-05-3.07454E-05 3.47619E-06-1.87212E-19-1.72039E-18
 -1      1987 1.00396E-04-2.99566E-05-3.01921E-05 2.20769E-06-2.25363E-19-2.53775E-18
 -1      1988 1.01223E-04-3.02069E-05-3.04283E-05 2.36787E-06-1.49452E-19-2.31517E-18
 -1      1989 1.00738E-04-2.99889E-05-3.03222E-05 3.02830E-06 6.56773E-20-2.29307E-18
 -1      1990 9.91413E-05-2.95889E-05-2.98108E-05 1.79862E-06 1.04617E-18-2.07562E-18
 -1      1991 9.98318E-05-2.97907E-05-3.00098E-05 1.96305E-06 4.13900E-19-2.19288E-18
 -1      1992 9.94804E-05-2.96074E-05-2.99469E-05 2.52857E-06 4.09662E-19-2.48688E-18
 -1      1993 9.81235E-05-2.93016E-05-2.94967E-05 1.42278E-06-2.49983E-19-2.03108E-18
 -1      1994 9.86821E-05-2.94604E-05-2.96588E-05 1.57550E-06 4.51675E-19-2.02622E-18
 -1      1995 9.84411E-05-2.93143E-05-2.96272E-05 2.04292E-06 2.65787E-19-1.93701E-18
 -1      1996 9.73182E-05-2.90814E-05-2.92452E-05 1.09697E-06-1.40155E-18-1.12209E-18
 -1      1997 9.77581E-05-2.92035E-05-2.93736E-05 1.23048E-06-1.18137E-18-1.71922E-18
 -1      1998 9.76032E-05-2.90921E-05-2.93634E-05 1.60584E-06-1.14767E-18-1.28459E-18
 -1      1999 9.66955E-05-2.89159E-05-2.90487E-05 8.25729E-07-9.82503E-19-4.44750E-19
 -1      2000 9.70336E-05-2.90076E-05-2.91480E-05 9.37679E-07-1.11084E-18-6.35665E-19
 -1      2001 9.69426E-05-2.89258E-05-2.91516E-05 1.23168E-06-1.37589E-18-3.21116E-19
 -1      2002 9.62243E-05-2.87939E-05-2.88988E-05 6.06793E-07-4.32829E-19-5.69053E-20
 -1      2003 9.64783E-05-2.88613E-05-2.89737E-05 6.97755E-07-1.00455E-18-2.52824E-19
 -1      2004 9.64328E-05-2.88035E-05-2.89854E-05 9.22789E-07-9.66163E-19-8.34294E-19
 -1      2005 9.58757E-05-2.87059E-05-2.87868E-05 4.34558E-07 7.86944E-19 1.31200E-18
 -1      2006 9.60620E-05-2.87543E-05-2.88421E-05 5.06578E-07 3.69240E-19 7.82752E-19
 -1      2007 9.60473E-05-2.87151E-05-2.88580E-05 6.74990E-07-2.94464E-20 2.78572E-19
 -1      2008 9.56239E-05-2.86443E-05-2.87052E-05 3.02141E-07-1.15083E-19 8.14346E-19
 -1      2009 9.57571E-05-2.86780E-05-2.87450E-05 3.57872E-07 3.35344E-19 1.36400E-18
 -1      2010 9.57622E-05-2.86528E-05-2.87624E-05 4.80998E-07 4.97094E-19 1.61416E-18
 -1      2011 9.54469E-05-2.86024E-05-2.86473E-05 2.02553E-07 6.81262E-20-2.54255E-21
 -1      2012 9.55393E-05-2.86251E-05-2.86751E-05 2.44754E-07 1.89493E-19 3.33654E-19
 -1      2013 9.55561E-05-2.86100E-05-2.86922E-05 3.32485E-07 5.08265E-19 4.27605E-19
 -1      2014 9.53265E-05-2.85751E-05-2.86074E-05 1.29317E-07-7.61057E-19-6.62915E-19
 -1      2015 9.53884E-05-2.85897E-05-2.86261E-05 1.60585E-07-5.59949E-19-4.96694E-19
 -1      2016 9.54112E-05-2.85817E-05-2.86420E-05 2.21240E-07-2.60105E-19 1.88973E-19
 -1      2017 9.52481E-05-2.85584E-05-2.85810E-05 7.67577E-08-4.53131E-19-1.13652E-18
 -1      2018 9.52875E-05-2.85671E-05-2.85931E-05 9.93906E-08-4.98976E-19-1.24713E-18
 -1      2019 9.53125E-05-2.85640E-05-2.86072E-05 1.39770E-07-4.42183E-19-2.60414E-19
 -1      2020 9.52001E-05-2.85491E-05-2.85644E-05 4.00785E-08-7.17556E-20-2.25308E-18
 -1      2021 9.52233E-05-2.85538E-05-2.85717E-05 5.60360E-08-1.46446E-19-1.38788E-18
 -1      2022 9.52480E-05-2.85538E-05-2.85838E-05 8.15659E-08-1.28101E-19-1.88662E-18
 -1      2023 9.51735E-05-2.85449E-05-2.85548E-05 1.53461E-08 3.48045E-19-1.22721E-18
 -1      2024 9.51855E-05-2.85468E-05-2.85587E-05 2.62475E-08-3.93315E-20-1.94858E-18
 -1      2025 9.52085E-05-2.85488E-05-2.85689E-05 4.11650E-08-8.49189E-21-1.85318E-18
 -1      2026 9.51616E-05-2.85441E-05-2.85501E-05-5.90801E-10-8.65060E-19-4.85374E-19
 -1      2027 9.51661E-05-2.85442E-05-2.85518E-05 6.56079E-09-7.27792E-20-5.64390E-19
 -1      2028 9.51865E-05-2.85472E-05-2.85601E-05 1.41081E-08-2.96010E-19-5.17869E-19
 -1      2029 9.51593E-05-2.85454E-05-2.85487E-05-1.02039E-08 1.10982E-18 2.78435E-19
 -1      2030 9.51590E-05-2.85444E-05-2.85488E-05-5.77078E-09 4.75868E-20 2.84657E-19
 -1      2031 9.51765E-05-2.85478E-05-2.85554E-05-3.16353E-09-1.10937E-19 4.63628E-19
 -1      2032 9.51631E-05-2.85478E-05-2.85492E-05-1.53934E-08-5.30741E-19 1.27314E-18
 -1      2033 9.51598E-05-2.85462E-05-2.85485E-05-1.28806E-08 3.79713E-19 8.63418E-19
 -1      2034 9.51745E-05-2.85496E-05-2.85537E-05-1.34308E-08 3.15294E-19 1.98837E-18
 -1      2035 9.51702E-05-2.85508E-05-2.85510E-05-1.75912E-08-2.03187E-18 1.04174E-18
 -1      2036 9.51653E-05-2.85490E-05-2.85498E-05-1.63931E-08-1.01586E-18 8.00740E-19
 -1      2037 9.51773E-05-2.85522E-05-2.85538E-05-1.88243E-08-7.12097E-19 2.45305E-18
 -1      2038 9.51789E-05-2.85540E-05-2.85535E-05-1.78538E-08-5.46144E-19 1.30908E-18
 -1      2039 9.51734E-05-2.85521E-05-2.85520E-05-1.75202E-08-1.37762E-18 1.04696E-18
 -1      2040 9.51830E-05-2.85549E-05-2.85550E-05-2.09436E-08-1.48418E-18 1.47498E-18
 -1      2041 9.51882E-05-2.85570E-05-2.85561E-05-1.69419E-08-8.37320E-19 1.42633E-18
 -1      2042 9.51826E-05-2.85552E-05-2.85546E-05-1.71460E-08-8.49705E-19 4.95865E-19
 -1      2043 9.51901E-05-2.85577E-05-2.85568E-05-2.09640E-08-8.85793E-19 4.04700E-19
 -1      2044 9.51971E-05-2.85599E-05-2.85588E-05-1.53873E-08-3.26994E-19 2.68263E-18
 -1      2045 9.51918E-05-2.85582E-05-2.85573E-05-1.58983E-08-3.06702E-19 2.15922E-18
 -1      2046 9.51976E-05-2.85603E-05-2.85589E-05-1.97269E-08-6.78196E-19 1.68269E-18
 -1      2047 9.52054E-05-2.85624E-05-2.85612E-05-1.35463E-08 5.80993E-19 7.83831E-19
 -1      2048 9.52006E-05-2.85609E-05-2.85599E-05-1.42078E-08 2.89195E-19 1.54040E-18
 -1      2049 9.52049E-05-2.85626E-05-2.85610E-05-1.78159E-08 8.45248E-19 1.86675E-18
 -1      2050 9.52128E-05-2.85646E-05-2.85635E-05-1.16417E-08 7.74460E-19 2.18120E-18
 -1      2051 9.52085E-05-2.85633E-05-2.85623E-05-1.23545E-08 9.49264E-19 1.29059E-18
 -1      2052 9.52116E-05-2.85646E-05-2.85630E-05-1.56166E-08 3.07106E-19 1.85932E-18
 -1      2053 9.52191E-05-2.85664E-05-2.85654E-05-9.79409E-09 5.03271E-19 9.85695E-19
 -1      2054 9.52155E-05-2.85654E-05-2.85644E-05-1.05036E-08 8.05241E-19 2.15316E-18
 -1      2055 9.52176E-05-2.85664E-05-2.85648E-05-1.33637E-08 1.06690E-18 2.34778E-18
 -1      2056 9.52245E-05-2.85680E-05-2.85671E-05-8.04403E-09 1.49355E-18 4.42850E-19
 -1      2057 9.52215E-05-2.85671E-05-2.85662E-05-8.73163E-09 8.42095E-19 7.57177E-19
 -1      2058 9.52228E-05-2.85679E-05-2.85664E-05-1.11755E-08 1.27886E-18 1.19099E-18
 -1      2059 9.52289E-05-2.85693E-05-2.85684E-05-6.36680E-09 1.86987E-18-8.03371E-19
 -1      2060 9.52265E-05-2.85686E-05-2.85677E-05-7.04491E-09 1.57875E-18-5.80439E-20
 -1      2061 9.52272E-05-2.85691E-05-2.85677E-05-9.08013E-09 2.21058E-18 4.27427E-19
 -1      2062 9.52324E-05-2.85704E-05-2.85694E-05-4.69498E-09 3.46420E-19-3.04311E-20
 -1      2063 9.52305E-05-2.85698E-05-2.85689E-05-5.39736E-09 1.31277E-18-4.11879E-20
 -1      2064 9.52308E-05-2.85702E-05-2.85688E-05-7.03677E-09 1.27675E-18 8.60496E-19
 -1      2065 9.52349E-05-2.85712E-05-2.85702E-05-2.95556E-09 1.90818E-19 3.50515E-19
 -1      2066 9.52336E-05-2.85708E-05-2.85698E-05-3.71993E-09 2.05931E-19 5.38306E-19
 -1      2067 9.52337E-05-2.85711E-05-2.85696E-05-4.97836E-09 2.92325E-19 2.42713E-18
 -1      2068 9.52363E-05-2.85717E-05-2.85706E-05-1.61107E-09 3.43723E-19 1.38673E-18
 -1      2069 9.52355E-05-2.85714E-05-2.85703E-05-2.39516E-09 8.33921E-19 5.17627E-19
 -1      2070 9.52355E-05-2.85718E-05-2.85702E-05-3.30748E-09 3.63241E-19 3.11302E-18
 -1      2071 9.52365E-05-2.85721E-05-2.85705E-05-2.06245E-09 8.89605E-20 4.32937E-18
 -1      2072 9.52394E-05-2.85787E-05-2.85688E-05-5.40884E-09 7.91237E-19 7.12419E-19
 -1      2073 9.52387E-05-2.85773E-05-2.85692E-05-5.29501E-09 3.39194E-19 2.46909E-18
 -1      2074 9.52381E-05-2.85761E-05-2.85695E-05-4.95334E-09 9.90664E-19 1.24177E-18
 -1      2075 9.52375E-05-2.85748E-05-2.85698E-05-4.44169E-09 1.24176E-18 2.29953E-18
 -1      2076 9.52382E-05-2.85766E-05-2.85693E-05-6.54334E-09 3.75999E-19 1.20620E-18
 -1      2077 9.52372E-05-2.85739E-05-2.85700E-05-3.72336E-09 7.94920E-19 3.90733E-18
 -1      2078 9.52367E-05-2.85729E-05-2.85702E-05-2.94344E-09 7.52981E-20 4.62851E-18
 -1      2079 9.52363E-05-2.85727E-05-2.85701E-05-3.61468E-09 2.29390E-20 4.55785E-18
 -1      2080 9.52371E-05-2.85744E-05-2.85697E-05-5.33257E-09 2.09866E-19 3.37395E-18
 -1      2081 9.52406E-05-2.85813E-05-2.85683E-05-5.05915E-09 1.62482E-19-1.91724E-18
 -1      2082 9.52400E-05-2.85799E-05-2.85686E-05-5.29614E-09 1.79077E-19-5.62965E-19
 -1      2083 9.52397E-05-2.85791E-05-2.85688E-05-6.77284E-09-1.32806E-18-1.10160E-18
 -1      2084 9.52415E-05-2.85834E-05-2.85677E-05-4.00344E-09-1.84689E-19-7.95631E-19
 -1      2085 9.52411E-05-2.85823E-05-2.85680E-05-4.53664E-09 4.81173E-19-9.94940E-20
 -1      2086 9.52409E-05-2.85814E-05-2.85684E-05-6.04968E-09-2.68031E-19-1.23181E-18
 -1      2087 9.52422E-05-2.85849E-05-2.85674E-05-2.42277E-09 4.53144E-20-9.39509E-19
 -1      2088 9.52419E-05-2.85842E-05-2.85676E-05-3.16202E-09 6.37694E-19-1.07209E-18
 -1      2089 9.52420E-05-2.85833E-05-2.85680E-05-4.51051E-09-2.94320E-19-7.33510E-19
 -1      2090 9.52425E-05-2.85856E-05-2.85672E-05-5.37578E-10-6.48193E-19-1.83763E-18
 -1      2091 9.52424E-05-2.85853E-05-2.85673E-05-1.38228E-09-5.01517E-19-1.22770E-18
 -1      2092 9.52426E-05-2.85845E-05-2.85678E-05-2.39371E-09-1.47148E-18-1.60841E-18
 -1      2093 9.52424E-05-2.85853E-05-2.85673E-05 1.41364E-09-3.38664E-19-9.39484E-19
 -1      2094 9.52425E-05-2.85856E-05-2.85672E-05 5.69840E-10-1.50380E-19-8.72530E-19
 -1      2095 9.52428E-05-2.85849E-05-2.85677E-05 2.02428E-11-1.88984E-18-9.00206E-19
 -1      2096 9.52419E-05-2.85842E-05-2.85676E-05 3.18846E-09-4.44794E-19-5.29722E-19
 -1      2097 9.52422E-05-2.85849E-05-2.85674E-05 2.45221E-09-7.46168E-19-4.88962E-19
 -1      2098 9.52426E-05-2.85845E-05-2.85678E-05 2.43193E-09-1.40591E-18-1.44895E-18
 -1      2099 9.52411E-05-2.85823E-05-2.85680E-05 4.53618E-09-8.01831E-19-2.03524E-18
 -1      2100 9.52415E-05-2.85834E-05-2.85677E-05 4.01398E-09-7.54094E-19-8.28450E-19
 -1      2101 9.52420E-05-2.85833E-05-2.85680E-05 4.52773E-09-1.74728E-18-1.20140E-18
 -1      2102 9.52400E-05-2.85799E-05-2.85686E-05 5.29882E-09 1.02689E-18 1.13516E-18
 -1      2103 9.52406E-05-2.85813E-05-2.85683E-05 5.06048E-09 4.56890E-19-4.15515E-19
 -1      2104 9.52409E-05-2.85814E-05-2.85684E-05 6.05049E-09-3.63242E-19-6.00077E-19
 -1      2105 9.52387E-05-2.85773E-05-2.85692E-05 5.28882E-09 1.05151E-18-4.47136E-19
 -1      2106 9.52394E-05-2.85787E-05-2.85689E-05 5.40915E-09 1.18516E-18-1.44627E-18
 -1      2107 9.52396E-05-2.85791E-05-2.85688E-05 6.77488E-09 1.08702E-18-2.44617E-19
 -1      2108 9.52375E-05-2.85747E-05-2.85698E-05 4.44357E-09 4.08887E-19-5.83945E-20
 -1      2109 9.52381E-05-2.85760E-05-2.85695E-05 4.93823E-09 8.93191E-19 2.28102E-20
 -1      2110 9.52382E-05-2.85765E-05-2.85693E-05 6.52313E-09 2.83238E-19-6.31495E-19
 -1      2111 5.46078E-05-3.74952E-05-7.79119E-06 3.98067E-05 1.88888E-18 4.83526E-18
 -1      2112 4.08599E-05-3.83088E-05-2.24229E-06 3.28479E-05 8.07646E-19 4.77144E-18
 -1      2113 1.27008E-05-3.16301E-05 6.80891E-06 5.90879E-06 1.02639E-18 4.45497E-18
 -1      2114 1.18313E-05-2.91905E-05 6.42830E-06-3.84903E-06-1.05667E-19 4.88950E-18
 -1      2115 2.33922E-05-3.18697E-05 2.67444E-06 2.44575E-05 1.72795E-18 5.10168E-18
 -1      2116 1.69116E-05-3.40168E-05 5.86726E-06 1.48909E-05 6.19181E-19 4.64598E-18
 -1      2117 1.74079E-05-2.30250E-05 1.84503E-06 1.33130E-05-2.39287E-20 5.08262E-18
 -1      2118 9.30628E-05-4.35754E-05-2.12765E-05 4.34381E-05 2.69653E-18 1.45647E-18
 -1      2119 7.18379E-05-4.34313E-05-1.32392E-05 3.88020E-05 2.14892E-18 3.31846E-18
 -1      2120 7.62268E-05-4.56651E-05-1.31385E-05 4.31168E-05-1.01940E-18 2.26687E-18
 -1      2121 1.32926E-04-4.24925E-05-3.81155E-05 3.55691E-05 4.07338E-18 1.29765E-18
 -1      2122 1.13210E-04-4.52047E-05-2.96616E-05 3.43553E-05 3.78751E-18 1.07573E-18
 -1      2123 8.75678E-05-1.01420E-05-3.33020E-05-1.97950E-06-9.28480E-19-3.65974E-18
 -1      2124 9.21395E-05-1.16034E-05-3.45788E-05-4.04469E-06-1.26027E-18-3.23172E-18
 -1      2125 9.72541E-05-1.69024E-05-3.44984E-05-4.43842E-06-1.41262E-18-2.71642E-18
 -1      2126 8.71649E-05-1.21914E-05-3.22091E-05-4.34185E-07-8.21774E-19-3.62145E-18
 -1      2127 1.76165E-04-2.88932E-05-6.19175E-05 1.10124E-05 4.99855E-18-1.26928E-18
 -1      2128 1.64699E-04-2.97409E-05-5.73177E-05 1.66495E-05 5.24906E-18-1.77877E-19
 -1      2129 1.82127E-04-2.44030E-05-6.65211E-05 7.71050E-07 5.62176E-18-2.78957E-18
 -1      2130 1.80603E-04-2.51232E-05-6.54206E-05 9.05574E-06 5.28845E-18-1.29681E-18
 -1      2131 1.70079E-04-2.31691E-05-6.24559E-05-5.50480E-06 6.54756E-18-3.81292E-18
 -1      2132 1.78507E-04-2.35136E-05-6.51730E-05-9.86020E-07 6.28160E-18-2.79997E-18
 -1      2133 1.59107E-04-3.26152E-05-5.38139E-05-1.82074E-05 6.42247E-18-5.63446E-18
 -1      2134 1.70919E-04-3.05354E-05-5.92702E-05-1.19504E-05 6.31040E-18-4.58541E-18
 -1      2135 1.34126E-04-4.07137E-05-4.00765E-05-2.71041E-05 5.18384E-18-5.53494E-18
 -1      2136 1.52134E-04-3.82331E-05-4.78717E-05-2.59709E-05 5.92500E-18-5.76999E-18
 -1      2137 9.22650E-05-3.91580E-05-2.35749E-05-3.80461E-05 5.15843E-18-7.10068E-18
 -1      2138 1.15490E-04-4.21263E-05-3.16854E-05-3.74242E-05 4.64343E-18-6.39679E-18
 -1      2139 5.72075E-05-3.58780E-05-1.05132E-05-3.60478E-05 4.14199E-18-7.05346E-18
 -1      2140 7.40067E-05-3.47612E-05-1.72195E-05-4.21048E-05 5.26177E-18-7.34653E-18
 -1      2141 2.90508E-05-3.13946E-05-4.12477E-07-2.67016E-05 2.07820E-18-6.44804E-18
 -1      2142 4.09993E-05-3.01612E-05-5.34102E-06-3.45573E-05 3.73372E-18-7.12905E-18
 -1      2143 1.24351E-05-2.56935E-05 4.47494E-06-1.01124E-05-1.86559E-19-6.32988E-18
 -1      2144 1.76505E-05-2.51653E-05 2.29494E-06-1.93647E-05 1.83849E-18-6.57425E-18
 -1      2145 1.22954E-05-2.51860E-05 4.41278E-06 1.07497E-05-2.22727E-18-6.27440E-18
 -1      2146 9.85834E-06-2.61561E-05 5.60803E-06 1.26004E-06-2.55910E-19-6.24560E-18
 -1      2147 3.10932E-05-2.97884E-05-1.62171E-06 2.87283E-05-4.52909E-18-6.67293E-18
 -1      2148 2.12461E-05-3.01658E-05 2.31910E-06 2.06620E-05-2.66582E-18-6.07534E-18
 -1      2149 6.33013E-05-3.44644E-05-1.29324E-05 3.99315E-05-5.72637E-18-7.66522E-18
 -1      2150 4.73099E-05-3.55464E-05-6.54796E-06 3.28405E-05-4.57228E-18-6.78140E-18
 -1      2151 1.04356E-04-4.11348E-05-2.72027E-05 4.06531E-05-5.89281E-18-6.95880E-18
 -1      2152 8.27271E-05-4.02066E-05-1.92983E-05 3.74795E-05-5.58703E-18-7.15870E-18
 -1      2153 1.43337E-04-4.11974E-05-4.32061E-05 3.04701E-05-6.44889E-18-6.71274E-18
 -1      2154 1.23703E-04-4.25576E-05-3.52576E-05 3.00769E-05-5.94892E-18-6.36545E-18
 -1      2155 1.64819E-04-3.51881E-05-5.50538E-05 1.39255E-05-6.37731E-18-4.86493E-18
 -1      2156 1.51352E-04-3.69080E-05-4.89196E-05 2.15513E-05-6.72862E-18-6.25746E-18
 -1      2157 1.48734E-04-4.48571E-05-4.39118E-05 9.74705E-06-4.59012E-18-2.98833E-18
 -1      2158 1.79156E-04-2.62768E-05-6.42809E-05 4.05792E-06-6.53825E-18-4.39864E-18
 -1      2159 1.68006E-04-2.64138E-05-6.03063E-05 7.98456E-06-6.81904E-18-4.88018E-18
 -1      2160 1.82134E-04-2.45483E-05-6.63321E-05-4.06620E-06-5.25076E-18-3.31042E-18
 -1      2161 1.79801E-04-2.35984E-05-6.60288E-05 2.37355E-06-5.96396E-18-4.46598E-18
 -1      2162 1.71596E-04-2.55178E-05-6.19513E-05-1.04825E-05-4.40245E-18-2.29546E-18
 -1      2163 1.82273E-04-2.65604E-05-6.52918E-05-6.10439E-06-4.72221E-18-3.46754E-18
 -1      2164 1.59976E-04-1.44158E-05-6.11298E-05 4.00766E-07-5.56119E-18-3.51614E-18
 -1      2165 1.56922E-04-3.49643E-05-5.19681E-05-2.17107E-05-4.14151E-18-7.74612E-19
 -1      2166 1.68590E-04-3.31332E-05-5.72431E-05-1.51952E-05-3.67866E-18-1.94945E-18
 -1      2167 1.33814E-04-3.96792E-05-4.05520E-05-3.10462E-05-4.16825E-18 4.32410E-19
 -1      2168 1.51788E-04-3.91027E-05-4.74694E-05-2.95944E-05-3.95384E-18-4.01070E-19
 -1      2169 1.52970E-04-4.08428E-05-4.72883E-05-9.79899E-06-3.14715E-18-2.70542E-18
 -1      2170 1.00722E-04-4.26532E-05-2.56974E-05-3.78559E-05-3.88703E-18 1.43487E-18
 -1      2171 1.19701E-04-4.12970E-05-3.32108E-05-4.01565E-05-3.85358E-18 9.02937E-19
 -1      2172 6.90131E-05-4.28248E-05-1.23890E-05-3.80842E-05-2.76599E-18 3.06192E-18
 -1      2173 8.57984E-05-4.12839E-05-1.91786E-05-4.27920E-05-3.32799E-18 2.23214E-18
 -1      2174 4.03434E-05-3.88281E-05-1.93652E-06-3.19169E-05-1.90413E-18 4.17841E-18
 -1      2175 5.34615E-05-3.77456E-05-7.28350E-06-3.82695E-05-2.90193E-18 4.36150E-18
 -1      2176 7.42501E-05-4.56782E-05-1.25705E-05-4.25576E-05-5.21772E-19 2.25967E-18
 -1      2177 1.80684E-05-3.19335E-05 4.81998E-06-1.66796E-05 4.94879E-19 5.84580E-18
 -1      2178 2.58312E-05-3.26794E-05 2.03471E-06-2.56873E-05-1.31460E-18 5.76025E-18
 -1      2179 1.61140E-04-3.57191E-05-5.26551E-05 2.61437E-05 4.99168E-18 5.61159E-19
 -1      2180 1.42530E-04-3.68094E-05-4.53815E-05 2.80473E-05 4.86366E-18 1.35568E-18
 -1      2181 1.17662E-04-3.14784E-05-3.70534E-05-6.61802E-06-1.99042E-18 9.07490E-19
 -1      2182 1.57970E-04-2.22172E-05-5.74156E-05 7.71548E-07 6.10118E-18-2.19106E-18
 -1      2183 1.55857E-04-3.28295E-05-5.18520E-05 5.60384E-06 4.55958E-18-1.77453E-18
 -1      2184 1.14877E-04-3.03568E-05-3.63022E-05-6.86233E-06-1.99551E-18-1.30297E-19
 -1      2185 3.95295E-05-3.23140E-05-3.40550E-06 3.46772E-05-8.49151E-19 4.41897E-18
 -1      2186 9.52370E-05-2.85739E-05-2.85699E-05 4.25992E-09-6.87018E-20-7.48557E-19
 -1      2187 1.14465E-04-5.38434E-05-2.58530E-05 3.47935E-05 1.07743E-18 4.80691E-20
 -1      2188 1.85353E-05-2.30030E-05 1.50294E-06-1.25839E-05 4.38763E-19 5.76829E-18
 -1      2189 1.43092E-04-4.76561E-05-4.04874E-05 1.86871E-05 3.02126E-18-7.15319E-19
 -1      2190 4.11635E-05-3.35628E-05-3.71657E-06-3.47763E-05 1.36161E-19 4.71056E-18
 -1      2191 1.36354E-04-5.05452E-05-3.63958E-05-2.48686E-05-2.20462E-18-1.78936E-18
 -1      2192 1.59563E-04-2.67224E-05-5.61471E-05-4.42640E-07-4.09731E-18-3.51053E-18
 -1      2193 1.57432E-04-2.91516E-05-5.42643E-05-1.26732E-06-6.07407E-18-2.66053E-18
 -1      2194 1.24650E-04-5.11531E-05-3.12606E-05 2.84550E-05-3.34282E-18-4.24025E-18
 -1      2195 8.56374E-05-4.45445E-05-1.77074E-05 4.01476E-05-2.43607E-18-5.75776E-18
 -1      2196 4.78691E-05-3.26826E-05-7.04991E-06 3.68467E-05-1.84653E-18-6.54418E-18
 -1      2197 2.01065E-05-2.10189E-05-2.57161E-07 1.94796E-05-8.48727E-19-6.83471E-18
 -1      2198 1.34562E-05-1.56651E-05 4.70765E-07-6.06458E-06-1.00479E-19-7.28067E-18
 -1      2199 2.90103E-05-2.29667E-05-3.05114E-06-2.83470E-05 2.27217E-19-7.12439E-18
 -1      2200 5.90646E-05-3.59375E-05-1.03685E-05-4.00650E-05 1.30951E-18-6.60188E-18
 -1      2201 9.53748E-05-4.54653E-05-2.13365E-05-3.92663E-05 2.22473E-18-5.38332E-18
 -1      2202 1.29867E-04-4.64194E-05-3.55329E-05-2.75450E-05 3.73266E-18-4.69807E-18
 -1      2203 1.39112E-04-5.02841E-05-3.85786E-05-1.45076E-05 2.27026E-18-1.85119E-18
 -1      2204 1.25136E-04-5.15323E-05-3.11046E-05-2.64525E-05 1.83976E-18-3.14059E-18
 -1      2205 1.52575E-04-3.80380E-05-4.85685E-05-7.95935E-06 4.75678E-18-2.99384E-18
 -1      2206 1.59688E-04-1.88661E-05-5.92628E-05-5.22568E-07 5.47861E-18-1.95749E-18
 -1      2207 1.58980E-04-1.35194E-05-6.13652E-05 2.01462E-06 6.13802E-18-1.87173E-18
 -1      2208 1.59422E-04-1.54417E-05-6.06543E-05-2.62439E-06-6.31124E-18-3.36611E-18
 -1      2209 1.06567E-04-5.23396E-05-2.32610E-05-3.77833E-05-9.83405E-19-3.55754E-19
 -1      2210 1.13824E-04-3.44742E-05-3.40444E-05 5.06018E-06 1.63502E-18 1.96039E-18
 -1      2211 1.14631E-04-3.35972E-05-3.46474E-05 5.48623E-06 1.90170E-18 2.29759E-18
 -1      2212 6.57601E-05-2.83181E-06-2.70609E-05 4.49821E-06 3.51089E-19-4.30216E-18
 -1      2213 7.02468E-05-5.02848E-06-2.78754E-05 4.75261E-06 1.47843E-19-4.25682E-18
 -1      2214 7.57460E-05-8.55890E-06-2.88830E-05 4.60147E-06-3.49004E-20-4.05456E-18
 -1      2215 8.11338E-05-1.11376E-05-2.99506E-05 3.58081E-06-3.06800E-19-3.90407E-18
 -1      2216 7.39070E-05-9.15484E-06-2.77707E-05 6.49910E-06 2.14918E-19-3.99056E-18
 -1      2217 5.96309E-05 9.72394E-07-2.59499E-05-2.72109E-06 5.14488E-19-4.37666E-18
 -1      2218 5.88362E-05 1.42329E-06-2.58431E-05-1.17635E-06 4.49894E-19-4.52722E-18
 -1      2219 6.55862E-05-2.61651E-06-2.69142E-05-5.69286E-06 6.48172E-19-3.96987E-18
 -1      2220 6.21276E-05-8.39006E-07-2.63408E-05-4.93668E-06 5.28289E-19-4.17649E-18
 -1      2221 6.04829E-05-9.44114E-07-2.54364E-05-4.83825E-06 4.35942E-19-4.27303E-18
 -1      2222 7.50597E-05-8.18907E-06-2.85897E-05-5.76392E-06 8.79759E-19-3.36966E-18
 -1      2223 7.02633E-05-5.81332E-06-2.77145E-05-6.28193E-06 7.03792E-19-3.66960E-18
 -1      2224 6.83481E-05-6.07202E-06-2.66845E-05-7.75443E-06 5.21931E-19-3.70437E-18
 -1      2225 8.55070E-05-1.39488E-05-3.06416E-05-2.94846E-06 1.41018E-18-2.42401E-18
 -1      2226 8.04755E-05-1.15620E-05-2.96099E-05-4.59096E-06 1.10374E-18-2.87394E-18
 -1      2227 7.92460E-05-1.27181E-05-2.85667E-05-6.91532E-06 8.35082E-19-2.97119E-18
 -1      2228 9.50023E-05-1.87768E-05-3.27078E-05 1.51611E-06 1.88796E-18-1.61325E-18
 -1      2229 9.04907E-05-1.66977E-05-3.16789E-05-6.95374E-07 1.57175E-18-2.01164E-18
 -1      2230 9.02079E-05-1.88112E-05-3.06621E-05-3.13356E-06 1.29629E-18-2.01865E-18
 -1      2231 1.03258E-04-2.29158E-05-3.45637E-05 6.02725E-06 2.39688E-18-4.66900E-19
 -1      2232 9.92532E-05-2.09015E-05-3.36252E-05 3.88422E-06 2.09585E-18-1.10253E-18
 -1      2233 9.95650E-05-2.35251E-05-3.26175E-05 1.68799E-06 1.73106E-18-1.08185E-18
 -1      2234 1.13299E-04-3.58028E-05-3.32546E-05 6.18065E-06 1.28359E-18 1.80012E-18
 -1      2235 1.14211E-04-3.55330E-05-3.36461E-05 5.39423E-06 1.41264E-18 2.01427E-18
 -1      2236 1.13487E-04-3.49678E-05-3.36718E-05 5.81309E-06 1.63704E-18 1.17032E-18
 -1      2237 1.14777E-04-3.40325E-05-3.45223E-05-3.94086E-06-1.31531E-18-3.79662E-19
 -1      2238 1.14831E-04-3.56417E-05-3.40222E-05-3.68440E-06-1.14152E-18-2.85678E-19
 -1      2239 1.48675E-04-2.57298E-05-5.28420E-05 5.46861E-06 5.14107E-18-1.10135E-18
 -1      2240 1.45681E-04-1.74578E-05-5.55014E-05 7.10241E-06 6.05226E-18-8.31575E-19
 -1      2241 1.16458E-04-3.74668E-05-3.37600E-05-4.37221E-06-8.49072E-19 4.04872E-20
 -1      2242 1.16422E-04-3.84052E-05-3.35126E-05-5.59420E-06-6.35936E-19 5.10788E-20
 -1      2243 1.14503E-04-3.65704E-05-3.34400E-05-3.60246E-06-8.84624E-19-6.31736E-19
 -1      2244 1.17843E-04-3.93804E-05-3.35801E-05-7.60624E-06-5.48490E-19 4.08880E-19
 -1      2245 1.17251E-04-3.91111E-05-3.35387E-05-9.46280E-06-4.51687E-19 3.47785E-19
 -1      2246 1.17675E-04-4.00720E-05-3.32904E-05-6.13308E-06-5.19536E-19-1.24065E-19
 -1      2247 1.17694E-04-3.84968E-05-3.39807E-05-1.18640E-05-5.08602E-19 3.15602E-19
 -1      2248 1.16182E-04-3.64868E-05-3.41442E-05-1.31265E-05-7.32425E-19 2.76381E-19
 -1      2249 1.19713E-04-4.04867E-05-3.39462E-05-1.07257E-05-5.92105E-19 3.44451E-19
 -1      2250 1.14904E-04-3.38141E-05-3.48948E-05-1.40558E-05-1.12007E-18 1.64417E-19
 -1      2251 1.12738E-04-3.04820E-05-3.51868E-05-1.32222E-05-1.38826E-18-5.67512E-20
 -1      2252 1.18919E-04-3.62429E-05-3.54130E-05-1.46462E-05-1.02697E-18 2.58312E-19
 -1      2253 1.10432E-04-2.69614E-05-3.59250E-05-1.07914E-05-1.67485E-18-4.12862E-19
 -1      2254 1.08756E-04-2.43166E-05-3.61422E-05-7.26192E-06-1.79404E-18-7.77067E-19
 -1      2255 1.15122E-04-2.83399E-05-3.72491E-05-1.35004E-05-1.86511E-18-2.39406E-19
 -1      2256 1.07695E-04-2.28529E-05-3.64258E-05-1.91846E-06-1.88953E-18-1.57432E-18
 -1      2257 1.07555E-04-2.28879E-05-3.64078E-05 2.62795E-06-1.97118E-18-2.09662E-18
 -1      2258 1.11536E-04-2.19490E-05-3.84870E-05-5.18419E-06-2.34181E-18-1.78482E-18
 -1      2259 1.08770E-04-2.48233E-05-3.59881E-05 8.12514E-06-1.79296E-18-2.69976E-18
 -1      2260 1.10415E-04-2.78204E-05-3.56538E-05 1.10747E-05-1.61259E-18-2.81220E-18
 -1      2261 1.11337E-04-2.23043E-05-3.81314E-05 6.45480E-06-2.26358E-18-2.89791E-18
 -1      2262 1.12566E-04-3.12356E-05-3.47779E-05 1.30694E-05-1.42177E-18-3.09119E-18
 -1      2263 1.14559E-04-3.46209E-05-3.43979E-05 1.34652E-05-1.32464E-18-3.32238E-18
 -1      2264 1.14867E-04-2.90073E-05-3.68287E-05 1.40339E-05-1.72636E-18-3.78093E-18
 -1      2265 1.15382E-04-3.72264E-05-3.35195E-05 1.17924E-05-1.13119E-18-2.90400E-18
 -1      2266 1.16530E-04-3.91230E-05-3.32300E-05 1.00213E-05-8.42682E-19-2.88333E-18
 -1      2267 1.18343E-04-3.74448E-05-3.47044E-05 1.33619E-05-1.11156E-18-3.62034E-18
 -1      2268 1.15604E-04-3.96840E-05-3.26083E-05 6.91304E-06-9.04135E-19-2.52614E-18
 -1      2269 1.15591E-04-3.98871E-05-3.24351E-05 4.38506E-06-5.46144E-19-2.48541E-18
 -1      2270 1.18288E-04-4.15373E-05-3.28986E-05 7.94864E-06-7.54460E-19-2.40551E-18
 -1      2271 1.13687E-04-3.90005E-05-3.20880E-05 1.52559E-06-3.15440E-19-2.90474E-18
 -1      2272 1.12901E-04-3.82014E-05-3.19783E-05-6.97751E-07-1.29599E-19-2.80936E-18
 -1      2273 1.15307E-04-4.11979E-05-3.17893E-05 1.71274E-06-5.82709E-19-2.73705E-18
 -1      2274 1.10870E-04-3.68289E-05-3.17972E-05-2.67060E-06-2.09962E-19-2.59029E-18
 -1      2275 1.09742E-04-3.57191E-05-3.16875E-05-4.18337E-06-1.17288E-19-2.42423E-18
 -1      2276 1.11276E-04-3.85364E-05-3.12149E-05-3.13423E-06-9.53673E-20-2.73553E-18
 -1      2277 1.08015E-04-3.44374E-05-3.15754E-05-5.24473E-06 3.78518E-20-2.12625E-18
 -1      2278 1.06823E-04-3.34139E-05-3.14350E-05-6.04456E-06 8.51922E-20-2.22279E-18
 -1      2279 1.07472E-04-3.53976E-05-3.09295E-05-6.08456E-06 1.57421E-19-1.49289E-18
 -1      2280 1.05508E-04-3.24451E-05-3.13332E-05-6.41501E-06-1.79868E-19-2.20454E-18
 -1      2281 1.04392E-04-3.16484E-05-3.11593E-05-6.66914E-06-1.21691E-20-2.07003E-18
 -1      2282 1.04412E-04-3.27366E-05-3.07483E-05-7.41736E-06-5.38197E-20-1.14754E-18
 -1      2283 1.03429E-04-3.09984E-05-3.10464E-05-6.59882E-06 5.56339E-19-1.93805E-18
 -1      2284 1.02439E-04-3.04293E-05-3.08521E-05-6.49964E-06 4.05988E-19-1.42241E-18
 -1      2285 1.02130E-04-3.08372E-05-3.05739E-05-7.63594E-06 2.88602E-19-1.17154E-18
 -1      2286 1.01735E-04-3.00268E-05-3.07268E-05-6.18342E-06-3.91795E-19-1.34826E-18
 -1      2287 1.00881E-04-2.96384E-05-3.05282E-05-5.88905E-06-1.36325E-19-1.47013E-18
 -1      2288 1.00463E-04-2.96168E-05-3.03752E-05-7.18348E-06 8.56638E-20-1.07843E-18
 -1      2289 1.00357E-04-2.94046E-05-3.03974E-05-5.46057E-06 4.11382E-19-1.33309E-18
 -1      2290 9.96356E-05-2.91458E-05-3.02078E-05-5.08199E-06 5.01433E-19-1.06461E-18
 -1      2291 9.92345E-05-2.88953E-05-3.01537E-05-6.38222E-06 1.31133E-19-8.78068E-19
 -1      2292 9.92345E-05-2.90183E-05-3.00796E-05-4.62527E-06 3.56061E-19-1.07381E-18
 -1      2293 9.86354E-05-2.88479E-05-2.99080E-05-4.23210E-06 2.38494E-19-1.07846E-18
 -1      2294 9.83096E-05-2.85034E-05-2.99231E-05-5.44589E-06 4.23136E-19-8.73656E-19
 -1      2295 9.83221E-05-2.87838E-05-2.97888E-05-3.79566E-06 1.56849E-19-7.54897E-19
 -1      2296 9.78327E-05-2.86725E-05-2.96397E-05-3.42706E-06 6.25540E-19-9.68889E-19
 -1      2297 9.75972E-05-2.83138E-05-2.96978E-05-4.50565E-06 3.18702E-19-5.67224E-19
 -1      2298 9.75851E-05-2.86446E-05-2.95335E-05-3.03578E-06 3.12609E-19-1.27057E-18
 -1      2299 9.71919E-05-2.85726E-05-2.94080E-05-2.71066E-06-2.43807E-19-1.10861E-18
 -1      2300 9.70396E-05-2.82416E-05-2.94891E-05-3.63488E-06 2.26529E-19-1.22495E-18
 -1      2301 9.69956E-05-2.85647E-05-2.93166E-05-2.37455E-06-5.84915E-19-9.12652E-19
 -1      2302 9.66849E-05-2.85189E-05-2.92138E-05-2.09936E-06-6.50000E-19-1.08689E-18
 -1      2303 9.65998E-05-2.82334E-05-2.93037E-05-2.86892E-06-4.83624E-19-1.52179E-18
 -1      2304 9.65301E-05-2.85214E-05-2.91373E-05-1.81961E-06-4.73154E-19-1.41139E-18
 -1      2305 9.62887E-05-2.84931E-05-2.90550E-05-1.59371E-06-1.50230E-19-1.90989E-18
 -1      2306 9.62532E-05-2.82577E-05-2.91443E-05-2.21931E-06-7.75776E-19-1.30573E-18
 -1      2307 9.61676E-05-2.85006E-05-2.89925E-05-1.36665E-06-2.48196E-19-1.85335E-18
 -1      2308 9.59834E-05-2.84841E-05-2.89280E-05-1.18570E-06-4.60290E-19-1.69453E-18
 -1      2309 9.59818E-05-2.82962E-05-2.90111E-05-1.68368E-06-3.91112E-19-1.56861E-18
 -1      2310 9.58899E-05-2.84935E-05-2.88780E-05-1.00534E-06-1.99217E-19-1.96894E-18
 -1      2311 9.57519E-05-2.84848E-05-2.88285E-05-8.63423E-07-7.26174E-20-8.36575E-19
 -1      2312 9.57715E-05-2.83387E-05-2.89024E-05-1.25220E-06-9.74795E-20-1.42636E-18
 -1      2313 9.56808E-05-2.84945E-05-2.87893E-05-7.22923E-07 3.05341E-20-1.05667E-18
 -1      2314 9.55794E-05-2.84911E-05-2.87519E-05-6.13784E-07 3.45707E-19-1.36653E-18
 -1      2315 9.56110E-05-2.83799E-05-2.88155E-05-9.11663E-07-1.24563E-19-5.18981E-19
 -1      2316 9.55264E-05-2.85002E-05-2.87217E-05-5.06365E-07 6.08555E-20-1.26836E-18
 -1      2317 9.54536E-05-2.85000E-05-2.86942E-05-4.24021E-07-5.91662E-20-1.18611E-18
 -1      2318 9.54903E-05-2.84172E-05-2.87474E-05-6.47966E-07 1.58345E-19-6.43304E-19
 -1      2319 9.54148E-05-2.85082E-05-2.86714E-05-3.43433E-07-1.17849E-19-1.42911E-18
 -1      2320 9.53638E-05-2.85099E-05-2.86515E-05-2.82522E-07-2.64240E-19-1.60100E-18
 -1      2321 9.54014E-05-2.84496E-05-2.86951E-05-4.47545E-07-2.31564E-19-5.76966E-19
 -1      2322 9.53361E-05-2.85170E-05-2.86346E-05-2.23260E-07-5.11766E-19-1.82073E-18
 -1      2323 9.53016E-05-2.85198E-05-2.86206E-05-1.79161E-07-5.10477E-19-1.65357E-18
 -1      2324 9.53372E-05-2.84769E-05-2.86556E-05-2.98104E-07-5.12056E-19-1.11937E-18
 -1      2325 9.52823E-05-2.85257E-05-2.86084E-05-1.36538E-07-1.07048E-18-2.21799E-18
 -1      2326 9.52600E-05-2.85290E-05-2.85988E-05-1.05386E-07-8.86891E-19-1.80817E-18
 -1      2327 9.52921E-05-2.84993E-05-2.86264E-05-1.88945E-07-1.03609E-18-1.02051E-18
 -1      2328 9.52470E-05-2.85339E-05-2.85902E-05-7.55092E-08-2.02856E-19-2.07957E-18
 -1      2329 9.52334E-05-2.85372E-05-2.85840E-05-5.41452E-08 4.49983E-19-1.43402E-18
 -1      2330 9.52613E-05-2.85174E-05-2.86052E-05-1.11035E-07-6.88117E-19-1.12677E-18
 -1      2331 9.52251E-05-2.85412E-05-2.85781E-05-3.38552E-08 5.69819E-19-1.03581E-18
 -1      2332 9.52177E-05-2.85443E-05-2.85742E-05-1.97496E-08 1.74046E-19-5.35415E-19
 -1      2333 9.52413E-05-2.85317E-05-2.85903E-05-5.69269E-08 4.83617E-19-1.03067E-18
 -1      2334 9.52127E-05-2.85475E-05-2.85703E-05-6.52828E-09 7.41583E-20-3.73155E-19
 -1      2335 9.52095E-05-2.85504E-05-2.85681E-05 2.30729E-09 3.94430E-19-3.58103E-19
 -1      2336 9.52289E-05-2.85429E-05-2.85801E-05-2.06123E-08 4.92242E-19-5.98950E-19
 -1      2337 9.52069E-05-2.85528E-05-2.85657E-05 1.04296E-08 1.06012E-18 3.42354E-19
 -1      2338 9.52064E-05-2.85553E-05-2.85647E-05 1.55307E-08 1.77776E-18 5.35613E-19
 -1      2339 9.52220E-05-2.85514E-05-2.85734E-05 2.66970E-09 1.11537E-18 1.06125E-18
 -1      2340 9.52053E-05-2.85572E-05-2.85633E-05 2.00674E-08 1.92180E-18-1.10046E-19
 -1      2341 9.52065E-05-2.85593E-05-2.85631E-05 2.25983E-08 2.05943E-18 3.34109E-19
 -1      2342 9.52189E-05-2.85578E-05-2.85692E-05 1.66220E-08 1.79434E-18 1.30462E-18
 -1      2343 9.52065E-05-2.85607E-05-2.85624E-05 2.46910E-08 1.10587E-18-4.77242E-20
 -1      2344 9.52087E-05-2.85625E-05-2.85626E-05 2.55176E-08 1.31686E-19-7.07200E-19
 -1      2345 9.52182E-05-2.85625E-05-2.85669E-05 2.40735E-08 7.66066E-19-4.05808E-19
 -1      2346 9.52093E-05-2.85636E-05-2.85624E-05 2.60101E-08-8.65521E-20-1.33800E-18
 -1      2347 9.52119E-05-2.85650E-05-2.85629E-05 2.57623E-08-7.37949E-19-1.26597E-18
 -1      2348 9.52191E-05-2.85659E-05-2.85658E-05 2.71446E-08-4.34787E-19-1.53500E-18
 -1      2349 9.52129E-05-2.85658E-05-2.85631E-05 2.52638E-08-1.74297E-18-1.73757E-18
 -1      2350 9.52156E-05-2.85669E-05-2.85637E-05 2.43873E-08-2.03934E-18-1.15210E-18
 -1      2351 9.52209E-05-2.85683E-05-2.85655E-05 2.73908E-08-1.44977E-18-1.22532E-18
 -1      2352 9.52168E-05-2.85675E-05-2.85640E-05 2.33247E-08-1.60310E-18-9.53983E-19
 -1      2353 9.52194E-05-2.85684E-05-2.85647E-05 2.21236E-08-1.22012E-18-1.00776E-18
 -1      2354 9.52231E-05-2.85699E-05-2.85657E-05 2.59246E-08-1.70626E-18-1.11347E-18
 -1      2355 9.52206E-05-2.85688E-05-2.85651E-05 2.07836E-08-1.04765E-18-1.37977E-18
 -1      2356 9.52230E-05-2.85696E-05-2.85658E-05 1.94534E-08 3.58330E-19-1.69137E-18
 -1      2357 9.52254E-05-2.85710E-05-2.85662E-05 2.35154E-08-1.06480E-18-9.43234E-19
 -1      2358 9.52241E-05-2.85699E-05-2.85662E-05 1.80164E-08 1.59869E-18-1.99899E-18
 -1      2359 9.52263E-05-2.85705E-05-2.85668E-05 1.66700E-08 1.53642E-18-2.80961E-18
 -1      2360 9.52277E-05-2.85718E-05-2.85668E-05 2.06695E-08 6.89958E-20-2.41353E-18
 -1      2361 9.52273E-05-2.85707E-05-2.85672E-05 1.52350E-08 8.42737E-19-2.03549E-18
 -1      2362 9.52292E-05-2.85712E-05-2.85677E-05 1.39223E-08 8.45745E-19-1.47436E-18
 -1      2363 9.52299E-05-2.85724E-05-2.85675E-05 1.76938E-08 1.02765E-18-2.25622E-18
 -1      2364 9.52301E-05-2.85715E-05-2.85680E-05 1.25278E-08 1.48900E-18-8.52817E-19
 -1      2365 9.52317E-05-2.85719E-05-2.85685E-05 1.12538E-08 7.81559E-19-6.73711E-19
 -1      2366 9.52319E-05-2.85728E-05-2.85682E-05 1.47442E-08 1.02261E-18-7.64448E-19
 -1      2367 9.52326E-05-2.85722E-05-2.85688E-05 9.89666E-09-1.22865E-20-3.42559E-19
 -1      2368 9.52339E-05-2.85726E-05-2.85691E-05 8.63783E-09-5.80363E-20-2.43354E-19
 -1      2369 9.52336E-05-2.85733E-05-2.85687E-05 1.18701E-08 8.25663E-19-9.11121E-19
 -1      2370 1.09825E-04-3.37325E-05-3.25866E-05 1.07908E-05 7.03467E-19 1.60133E-18
 -1      2371 1.11606E-04-3.51017E-05-3.28031E-05 1.00784E-05 9.24856E-19 1.78013E-18
 -1      2372 1.06427E-04-3.01350E-05-3.26263E-05 1.04516E-05 8.79482E-19 1.08469E-18
 -1      2373 1.08428E-04-3.21070E-05-3.27556E-05 1.11151E-05 6.37862E-19 1.37743E-18
 -1      2374 1.11913E-04-3.37248E-05-3.34751E-05 1.24309E-05 9.53000E-19 1.19768E-18
 -1      2375 1.03141E-04-2.64828E-05-3.27869E-05 6.34121E-06 1.47488E-18 5.59088E-19
 -1      2376 1.04632E-04-2.81040E-05-3.28455E-05 8.68847E-06 1.20168E-18 8.20748E-19
 -1      2377 1.08480E-04-2.89993E-05-3.40728E-05 1.11336E-05 1.30938E-18 5.85454E-19
 -1      2378 1.01816E-04-2.50870E-05-3.28682E-05-6.14407E-07 1.35486E-18 5.18427E-20
 -1      2379 1.02087E-04-2.53295E-05-3.28897E-05 2.66293E-06 1.38645E-18 3.50407E-19
 -1      2380 1.05376E-04-2.49496E-05-3.45499E-05 5.34529E-06 1.66374E-18 3.46471E-20
 -1      2381 1.03419E-04-2.70771E-05-3.27612E-05-7.28158E-06 7.79297E-19-2.97639E-19
 -1      2382 1.02316E-04-2.57350E-05-3.27561E-05-4.58947E-06 1.24703E-18-1.80315E-19
 -1      2383 1.04738E-04-2.42527E-05-3.45539E-05-2.96899E-06 1.42570E-18-2.67178E-19
 -1      2384 1.06759E-04-3.10138E-05-3.25309E-05-1.05782E-05 1.07079E-18-9.98923E-19
 -1      2385 1.04972E-04-2.90129E-05-3.24838E-05-9.56341E-06 9.55811E-19-7.09185E-19
 -1      2386 1.07028E-04-2.76861E-05-3.40322E-05-9.67474E-06 1.36704E-18-8.50430E-19
 -1      2387 1.09779E-04-3.45137E-05-3.23033E-05-9.89381E-06 8.57740E-19-1.43485E-18
 -1      2388 1.08126E-04-3.28849E-05-3.22170E-05-1.05358E-05 1.01771E-18-1.23894E-18
 -1      2389 1.10208E-04-3.26262E-05-3.32244E-05-1.18622E-05 1.23385E-18-1.62497E-18
 -1      2390 1.11197E-04-3.62156E-05-3.21521E-05-6.58395E-06 6.09003E-19-1.42953E-18
 -1      2391 1.10211E-04-3.54675E-05-3.20578E-05-8.17485E-06 8.81493E-19-1.23990E-18
 -1      2392 1.12178E-04-3.63536E-05-3.24545E-05-9.75130E-06 8.16077E-19-1.76357E-18
 -1      2393 1.10927E-04-3.61461E-05-3.20456E-05-2.57868E-06 4.88721E-19-1.61014E-18
 -1      2394 1.10698E-04-3.61794E-05-3.19928E-05-4.32767E-06 5.70066E-19-1.50821E-18
 -1      2395 1.12133E-04-3.76550E-05-3.18984E-05-5.46063E-06 6.71416E-19-1.62738E-18
 -1      2396 1.09551E-04-3.50508E-05-3.19183E-05 8.09828E-07 3.53577E-19-1.56706E-18
 -1      2397 1.09908E-04-3.55227E-05-3.19392E-05-6.09733E-07 4.90799E-19-1.39145E-18
 -1      2398 1.10550E-04-3.69353E-05-3.15513E-05-1.06929E-06 3.42545E-19-1.65967E-18
 -1      2399 1.07684E-04-3.36428E-05-3.17217E-05 3.09633E-06 5.13295E-19-1.53535E-18
 -1      2400 1.08398E-04-3.42578E-05-3.18216E-05 2.16651E-06 3.62434E-19-1.65496E-18
 -1      2401 1.08293E-04-3.52368E-05-3.13225E-05 2.30172E-06 5.09437E-19-1.81107E-18
 -1      2402 1.05717E-04-3.23232E-05-3.14470E-05 4.31449E-06 5.82370E-19-1.19133E-18
 -1      2403 1.06599E-04-3.29143E-05-3.16095E-05 3.84181E-06 6.04150E-19-1.22692E-18
 -1      2404 1.05981E-04-3.34014E-05-3.11214E-05 4.39857E-06 3.06507E-19-1.55137E-18
 -1      2405 1.03861E-04-3.12514E-05-3.11130E-05 4.71212E-06 5.91894E-19-1.18397E-18
 -1      2406 1.04779E-04-3.17493E-05-3.13131E-05 4.58230E-06 6.43705E-19-1.13807E-18
 -1      2407 1.03904E-04-3.18359E-05-3.09001E-05 5.38483E-06 5.94443E-19-1.16616E-18
 -1      2408 1.02204E-04-3.04428E-05-3.07506E-05 4.57221E-06-1.14856E-19-8.06985E-19
 -1      2409 1.03078E-04-3.08356E-05-3.09638E-05 4.66255E-06 2.15075E-19-8.62967E-19
 -1      2410 1.02149E-04-3.06622E-05-3.06476E-05 5.57018E-06-5.23591E-20-6.82491E-19
 -1      2411 1.00771E-04-2.98562E-05-3.03886E-05 4.12910E-06-4.42211E-20-1.02632E-18
 -1      2412 1.01558E-04-3.01554E-05-3.05962E-05 4.33989E-06-1.50981E-20-5.19517E-19
 -1      2413 1.00701E-04-2.98470E-05-3.03741E-05 5.25370E-06-1.72773E-19-4.36850E-19
 -1      2414 9.95603E-05-2.94391E-05-3.00491E-05 3.54984E-06 3.10423E-19-1.37898E-18
 -1      2415 1.00241E-04-2.96626E-05-3.02389E-05 3.81106E-06 3.64483E-19-1.07505E-18
 -1      2416 9.95177E-05-2.93083E-05-3.00964E-05 4.66799E-06 1.17071E-19 1.19825E-19
 -1      2417 9.85578E-05-2.91457E-05-2.97455E-05 2.94167E-06 3.77012E-19-1.73504E-18
 -1      2418 9.91285E-05-2.93104E-05-2.99113E-05 3.20918E-06 3.25156E-20-1.78660E-18
 -1      2419 9.85561E-05-2.89650E-05-2.98305E-05 3.97402E-06 2.08625E-19-4.46033E-19
 -1      2420 9.77423E-05-2.89409E-05-2.94841E-05 2.36681E-06-3.33507E-19-7.26630E-19
 -1      2421 9.82082E-05-2.90608E-05-2.96237E-05 2.61571E-06 3.49370E-19-1.03645E-18
 -1      2422 9.77787E-05-2.87528E-05-2.95876E-05 3.27326E-06-6.52823E-20-8.47773E-19
 -1      2423 9.70905E-05-2.87989E-05-2.92658E-05 1.85669E-06-1.27369E-18-3.90914E-19
 -1      2424 9.74621E-05-2.88852E-05-2.93800E-05 2.07497E-06-9.28571E-19-7.30496E-19
 -1      2425 9.71554E-05-2.86261E-05-2.93742E-05 2.62351E-06-5.44712E-19-2.23406E-19
 -1      2426 9.65786E-05-2.87018E-05-2.90883E-05 1.42321E-06-1.19982E-18-1.94156E-19
 -1      2427 9.68686E-05-2.87628E-05-2.91794E-05 1.60692E-06-1.36292E-18-3.15175E-19
 -1      2428 9.66608E-05-2.85538E-05-2.91926E-05 2.05299E-06-1.13366E-18 1.49061E-20
 -1      2429 9.61836E-05-2.86365E-05-2.89472E-05 1.06666E-06-1.10553E-18-4.17446E-19
 -1      2430 9.64054E-05-2.86788E-05-2.90182E-05 1.21649E-06-9.12366E-19-3.19262E-19
 -1      2431 9.62733E-05-2.85158E-05-2.90424E-05 1.57110E-06-1.02046E-18-7.49772E-20
 -1      2432 9.58844E-05-2.85938E-05-2.88375E-05 7.81079E-07 3.55127E-19-4.04738E-19
 -1      2433 9.60505E-05-2.86224E-05-2.88917E-05 9.00157E-07-6.13358E-19-5.55960E-19
 -1      2434 9.59741E-05-2.84988E-05-2.89209E-05 1.17617E-06-7.38476E-19-8.41221E-20
 -1      2435 9.56623E-05-2.85671E-05-2.87540E-05 5.57571E-07 1.21725E-19 3.30368E-19
 -1      2436 9.57839E-05-2.85856E-05-2.87944E-05 6.50069E-07 1.78280E-19-2.63080E-19
 -1      2437 9.57467E-05-2.84946E-05-2.88248E-05 8.60552E-07 6.93554E-20-1.15914E-18
 -1      2438 9.55009E-05-2.85515E-05-2.86917E-05 3.86371E-07 4.41320E-19 3.44543E-19
 -1      2439 9.55878E-05-2.85628E-05-2.87212E-05 4.56689E-07 6.88533E-19 3.88202E-19
 -1      2440 9.55771E-05-2.84976E-05-2.87503E-05 6.13885E-07 4.54994E-19-5.30917E-20
 -1      2441 9.53865E-05-2.85434E-05-2.86463E-05 2.57990E-07-4.98708E-19 3.03718E-19
 -1      2442 9.54469E-05-2.85498E-05-2.86673E-05 3.10305E-07 1.09998E-19 3.63236E-19
 -1      2443 9.54530E-05-2.85045E-05-2.86938E-05 4.25123E-07 1.79835E-19 6.55859E-21
 -1      2444 9.53079E-05-2.85404E-05-2.86141E-05 1.63823E-07 9.95725E-20-1.67607E-18
 -1      2445 9.53483E-05-2.85433E-05-2.86286E-05 2.01864E-07 6.81808E-20-5.53507E-19
 -1      2446 9.53643E-05-2.85132E-05-2.86518E-05 2.83666E-07 2.99421E-19-8.22671E-19
 -1      2447 9.52560E-05-2.85406E-05-2.85919E-05 9.64087E-08-2.34311E-20-1.75084E-18
 -1      2448 9.52817E-05-2.85413E-05-2.86015E-05 1.23371E-07-3.20033E-19-1.23859E-18
 -1      2449 9.53026E-05-2.85222E-05-2.86212E-05 1.79959E-07 5.32329E-20-1.89721E-18
 -1      2450 9.52234E-05-2.85427E-05-2.85771E-05 4.94909E-08-8.48702E-19-5.24896E-19
 -1      2451 9.52387E-05-2.85420E-05-2.85832E-05 6.80295E-08-6.04394E-19-1.11912E-18
 -1      2452 9.52612E-05-2.85308E-05-2.85995E-05 1.05748E-07-8.45316E-19-1.56462E-18
 -1      2453 9.52047E-05-2.85458E-05-2.85679E-05 1.79576E-08-1.45615E-19 4.37217E-19
 -1      2454 9.52126E-05-2.85443E-05-2.85714E-05 3.02224E-08-3.14279E-19 3.20112E-19
 -1      2455 9.52347E-05-2.85386E-05-2.85846E-05 5.41206E-08-1.00653E-18 1.55828E-20
 -1      2456 9.51955E-05-2.85493E-05-2.85625E-05-2.27378E-09-2.52766E-19 1.32537E-18
 -1      2457 9.51985E-05-2.85474E-05-2.85643E-05 5.42164E-09-6.10771E-19 6.94452E-19
 -1      2458 9.52189E-05-2.85454E-05-2.85748E-05 1.94379E-08-4.53861E-19 1.29909E-18
 -1      2459 9.51927E-05-2.85528E-05-2.85598E-05-1.43980E-08-8.60634E-19 2.49117E-18
 -1      2460 9.51925E-05-2.85508E-05-2.85604E-05-9.94801E-09-1.10342E-19 2.16537E-18
 -1      2461 9.52106E-05-2.85512E-05-2.85686E-05-2.80164E-09-1.02462E-18 1.61322E-18
 -1      2462 9.51940E-05-2.85561E-05-2.85590E-05-2.08659E-08-4.77258E-19 2.46479E-18
 -1      2463 9.51918E-05-2.85542E-05-2.85588E-05-1.86531E-08-2.29134E-19 2.63245E-18
 -1      2464 9.52073E-05-2.85559E-05-2.85651E-05-1.61187E-08-6.38052E-19 1.75985E-18
 -1      2465 9.51976E-05-2.85591E-05-2.85593E-05-2.35205E-08-7.66883E-19 4.67157E-19
 -1      2466 9.51944E-05-2.85573E-05-2.85587E-05-2.27926E-08-8.35581E-19 1.55087E-18
 -1      2467 9.52073E-05-2.85598E-05-2.85634E-05-2.32128E-08 1.27931E-19 1.31374E-18
 -1      2468 9.52025E-05-2.85617E-05-2.85603E-05-2.37175E-08-1.24468E-18-1.48899E-20
 -1      2469 9.51989E-05-2.85601E-05-2.85594E-05-2.39260E-08-8.34859E-19-8.89987E-20
 -1      2470 9.52093E-05-2.85628E-05-2.85629E-05-2.61130E-08-6.39181E-19-1.25223E-20
 -1      2471 9.52078E-05-2.85639E-05-2.85616E-05-2.24293E-08-2.89695E-19 8.96721E-19
 -1      2472 9.52041E-05-2.85626E-05-2.85607E-05-2.31851E-08-1.38926E-18 5.87437E-19
 -1      2473 9.52124E-05-2.85652E-05-2.85631E-05-2.63105E-08-1.87657E-18-4.46389E-19
 -1      2474 9.52131E-05-2.85658E-05-2.85631E-05-2.03308E-08 4.79572E-19 1.83265E-18
 -1      2475 9.52096E-05-2.85646E-05-2.85622E-05-2.13677E-08 7.33743E-19 1.53862E-18
 -1      2476 9.52160E-05-2.85671E-05-2.85639E-05-2.48737E-08-3.91588E-19 5.71318E-19
 -1      2477 9.52181E-05-2.85673E-05-2.85646E-05-1.78684E-08 3.15705E-19 1.39148E-18
 -1      2478 9.52149E-05-2.85664E-05-2.85637E-05-1.90148E-08 8.23227E-19 1.63898E-18
 -1      2479 9.52197E-05-2.85685E-05-2.85648E-05-2.25422E-08 6.92033E-19 1.75806E-18
 -1      2480 9.52225E-05-2.85686E-05-2.85660E-05-1.53138E-08 1.59531E-18 1.15755E-18
 -1      2481 9.52198E-05-2.85678E-05-2.85652E-05-1.64705E-08 1.06251E-18 1.77543E-18
 -1      2482 9.52232E-05-2.85696E-05-2.85658E-05-1.98034E-08 1.02064E-18 3.10942E-19
 -1      2483 9.52264E-05-2.85697E-05-2.85672E-05-1.28054E-08 1.73312E-18 9.48025E-19
 -1      2484 9.52241E-05-2.85690E-05-2.85665E-05-1.39288E-08 1.46962E-18 1.62966E-18
 -1      2485 9.52264E-05-2.85705E-05-2.85668E-05-1.69522E-08 1.32809E-18 8.03280E-19
 -1      2486 9.52298E-05-2.85706E-05-2.85682E-05-1.03805E-08 1.85132E-18 1.78597E-18
 -1      2487 9.52278E-05-2.85701E-05-2.85676E-05-1.14705E-08 1.83305E-18 1.71547E-18
 -1      2488 9.52293E-05-2.85713E-05-2.85677E-05-1.41388E-08 1.53471E-18 2.40214E-18
 -1      2489 9.52325E-05-2.85715E-05-2.85690E-05-7.99806E-09 3.68076E-19 3.14964E-18
 -1      2490 9.52309E-05-2.85710E-05-2.85686E-05-9.08725E-09 1.28612E-18 2.95449E-18
 -1      2491 9.52318E-05-2.85720E-05-2.85685E-05-1.14138E-08 6.90317E-19 3.96982E-18
 -1      2492 9.52348E-05-2.85722E-05-2.85697E-05-5.62120E-09-2.99017E-19 3.92562E-18
 -1      2493 9.52335E-05-2.85718E-05-2.85693E-05-6.72596E-09-5.62961E-20 3.12069E-18
 -1      2494 9.52339E-05-2.85726E-05-2.85691E-05-8.73418E-09-1.28303E-19 4.87524E-18
 -1      2495 9.52356E-05-2.85725E-05-2.85699E-05-4.26533E-09-6.56387E-20 3.69349E-18
 -1      2496 9.52417E-05-2.85817E-05-2.85685E-05-6.76463E-09 5.48691E-19-4.47119E-19
 -1      2497 9.52410E-05-2.85807E-05-2.85687E-05-7.39748E-09 3.79839E-19-1.69399E-18
 -1      2498 9.52429E-05-2.85834E-05-2.85683E-05-4.75650E-09 4.23533E-20-4.55000E-19
 -1      2499 9.52424E-05-2.85826E-05-2.85684E-05-5.76416E-09-1.02213E-19 2.76818E-19
 -1      2500 9.52425E-05-2.85821E-05-2.85688E-05-7.17288E-09 8.92600E-19-3.23091E-19
 -1      2501 9.52384E-05-2.85771E-05-2.85691E-05-7.98439E-09-8.37668E-19 4.70716E-19
 -1      2502 9.52375E-05-2.85758E-05-2.85693E-05-7.64629E-09 1.86409E-19 6.61225E-19
 -1      2503 9.52402E-05-2.85795E-05-2.85688E-05-7.90632E-09-1.23917E-18-8.58413E-19
 -1      2504 9.52393E-05-2.85783E-05-2.85690E-05-8.06230E-09-1.85834E-18 6.57242E-19
 -1      2505 9.52387E-05-2.85776E-05-2.85691E-05-9.28054E-09-1.68815E-18-4.05069E-19
 -1      2506 9.52408E-05-2.85800E-05-2.85689E-05-8.79149E-09 3.72452E-19-8.07694E-20
 -1      2507 8.92915E-05-4.87463E-05-1.74740E-05 4.24540E-05-1.29638E-18 1.10612E-18
 -1      2508 7.27615E-05-4.21419E-05-1.28191E-05 4.14879E-05-1.85924E-18 2.17613E-18
 -1      2509 9.52436E-05-2.85844E-05-2.85682E-05-2.16534E-09-1.45777E-18-1.27380E-18
 -1      2510 9.52433E-05-2.85840E-05-2.85683E-05-3.40806E-09-8.90327E-19-2.27488E-18
 -1      2511 9.52438E-05-2.85836E-05-2.85687E-05-4.66465E-09-7.09424E-19-1.73513E-18
 -1      2512 9.52437E-05-2.85846E-05-2.85682E-05 6.84196E-10-1.19459E-18-6.26302E-19
 -1      2513 9.52437E-05-2.85846E-05-2.85682E-05-6.37659E-10-1.60951E-18-6.38640E-19
 -1      2514 9.52444E-05-2.85844E-05-2.85686E-05-1.60012E-09-9.71963E-19-1.21912E-18
 -1      2515 9.52433E-05-2.85840E-05-2.85683E-05 3.45052E-09-8.96778E-19-5.96362E-19
 -1      2516 9.52436E-05-2.85844E-05-2.85682E-05 2.21073E-09-1.08801E-18-6.64365E-19
 -1      2517 9.52444E-05-2.85844E-05-2.85686E-05 1.65238E-09-8.94108E-19-8.11928E-19
 -1      2518 9.52424E-05-2.85826E-05-2.85684E-05 5.76330E-09-9.93835E-19-8.04786E-19
 -1      2519 9.52429E-05-2.85834E-05-2.85683E-05 4.77446E-09-1.02316E-18-1.10387E-18
 -1      2520 9.52437E-05-2.85836E-05-2.85687E-05 4.68864E-09-8.75010E-20-1.12572E-18
 -1      2521 9.52410E-05-2.85807E-05-2.85687E-05 7.39774E-09 4.15775E-19 1.00027E-18
 -1      2522 9.52417E-05-2.85817E-05-2.85685E-05 6.76472E-09-3.43608E-19-6.90410E-19
 -1      2523 9.52425E-05-2.85821E-05-2.85688E-05 7.17288E-09 1.72454E-19-4.74660E-19
 -1      2524 9.52393E-05-2.85783E-05-2.85690E-05 8.05636E-09 3.06921E-19-8.63076E-19
 -1      2525 9.52402E-05-2.85795E-05-2.85688E-05 7.91154E-09 1.48599E-19 7.24420E-19
 -1      2526 9.52408E-05-2.85800E-05-2.85689E-05 8.79888E-09-1.62710E-19 5.39007E-20
 -1      2527 9.52374E-05-2.85757E-05-2.85693E-05 7.58989E-09-7.39079E-19-1.75514E-18
 -1      2528 9.52383E-05-2.85770E-05-2.85691E-05 7.99031E-09-1.37221E-19-1.41544E-18
 -1      2529 9.52388E-05-2.85775E-05-2.85691E-05 9.27135E-09-7.41715E-20-1.54013E-18
 -1      2530 9.52363E-05-2.85737E-05-2.85697E-05 5.43425E-09-1.70507E-19-8.42224E-19
 -1      2531 1.26763E-04-5.72545E-05-3.00509E-05 2.69215E-05 7.74823E-19-1.22650E-18
 -1      2532 1.08981E-04-5.51101E-05-2.28973E-05 3.40953E-05-6.89485E-19-4.55810E-19
 -1      2533 1.12135E-04-3.56875E-05-3.27866E-05 8.67388E-06 9.80196E-19 1.70231E-18
 -1      2534 1.13408E-04-3.61544E-05-3.30809E-05 7.47831E-06 1.03015E-18 1.77890E-18
 -1      2535 1.13898E-04-3.65861E-05-3.31088E-05 1.03854E-05 1.06913E-18 1.42119E-18
 -1      2536 2.55815E-05-1.90095E-05-2.53921E-06 2.05556E-05-6.02664E-19 4.30949E-18
 -1      2537 2.08647E-05-1.60454E-05-1.70192E-06 8.47285E-06-4.82862E-19 4.61718E-18
 -1      2538 2.04726E-05-1.58597E-05-1.63155E-06-5.28770E-06 5.29581E-19 4.94328E-18
 -1      2539 2.63418E-05-1.87266E-05-2.99151E-06-2.03818E-05 6.87791E-19 5.34118E-18
 -1      2540 1.10400E-04-2.67183E-05-3.59017E-05-6.79008E-06-1.85181E-18-1.11542E-18
 -1      2541 1.12501E-04-3.12912E-05-3.48871E-05-4.36368E-06-1.62147E-18-7.37295E-19
 -1      2542 1.10663E-04-3.11484E-05-3.40784E-05-3.66852E-06-1.33218E-18-1.13171E-18
 -1      2543 1.05300E-04-2.36755E-05-3.50089E-05-5.44630E-06-1.71101E-18-1.84475E-18
 -1      2544 1.30729E-04-5.58298E-05-3.22174E-05-2.19889E-05-6.32734E-19-2.47609E-18
 -1      2545 1.41766E-04-5.26124E-05-3.84332E-05-1.42159E-05-1.60973E-18-3.32397E-18
 -1      2546 1.45865E-04-2.40179E-05-5.28690E-05-8.75562E-06-5.57623E-18-1.96607E-18
 -1      2547 1.45549E-04-3.32393E-05-4.84825E-05-7.42182E-06-4.74900E-18-1.39358E-18
 -1      2548 1.33655E-04-5.42346E-05-3.44515E-05 1.88575E-05-2.07788E-18-2.35729E-18
 -1      2549 1.17956E-04-5.34844E-05-2.75184E-05 2.75211E-05-1.30125E-18-3.03619E-18
 -1      2550 5.96574E-05 8.88985E-07-2.59975E-05 1.50094E-06 4.95731E-19-4.53052E-18
 -1      2551 6.18877E-05-1.92015E-07-2.63941E-05 2.83570E-06 3.68791E-19-4.47678E-18
 -1      2552 6.36981E-05-2.85415E-06-2.60368E-05 5.05911E-06 4.46155E-19-4.30975E-18
 -1      2553 5.85872E-05 3.87574E-07-2.51836E-05 4.31283E-07 4.58621E-19-4.51980E-18
 -1      2554 1.42685E-04-1.06457E-05-5.70640E-05 2.42178E-06 6.22103E-18-1.48024E-18
 -1      2555 1.47111E-04-1.16635E-05-5.82417E-05-4.05598E-07 5.70561E-18-1.77337E-18
 -1      2556 1.45901E-04-1.21251E-05-5.77596E-05-2.79316E-06-5.81658E-18-3.47019E-18
 -1      2557 1.45000E-04-1.47681E-05-5.62661E-05-6.14852E-06-6.04951E-18-3.08733E-18
 -1      2558 1.47375E-04-3.06292E-05-5.06217E-05-4.31681E-06 4.17968E-18-2.62411E-18
 -1      2559 1.47167E-04-3.89703E-05-4.65747E-05 6.84258E-07 3.38474E-18-2.42717E-18
 -1      2560 1.47471E-04-1.50158E-05-5.71105E-05-3.08659E-06 5.29523E-18-1.96258E-18
 -1      2561 1.44819E-04-1.94483E-05-5.41230E-05-5.72737E-06 5.05234E-18-2.17264E-18
 -1      2562 1.35531E-04-1.13658E-05-5.34203E-05-3.85528E-06 5.29353E-18-1.70672E-18
 -1      2563 1.44496E-04-4.22985E-05-4.40631E-05-2.94945E-06 3.27569E-18-1.14582E-18
 -1      2564 1.49360E-04-3.52796E-05-4.91931E-05 1.37620E-06 4.11171E-18-1.22947E-18
 -1      2565 9.08936E-05-4.57572E-05-1.93697E-05-3.83811E-05 4.03399E-19-4.27508E-18
 -1      2566 1.07329E-04-4.97612E-05-2.48987E-05-3.50765E-05 7.61694E-19-3.79831E-18
 -1      2567 5.67205E-05-3.19140E-05-1.05350E-05-3.92611E-05-3.01544E-19-5.58216E-18
 -1      2568 7.42839E-05-3.89905E-05-1.50913E-05-4.21168E-05 2.53686E-19-5.12291E-18
 -1      2569 3.04152E-05-1.48536E-05-6.18570E-06-2.53808E-05-6.36016E-19-6.37392E-18
 -1      2570 4.29850E-05-2.23902E-05-8.49509E-06-3.52659E-05-3.08744E-19-6.20240E-18
 -1      2571 1.67390E-05-9.15821E-06-2.90965E-06 2.15606E-06-1.75627E-19-6.89421E-18
 -1      2572 1.86821E-05-9.06454E-06-3.87238E-06-1.19076E-05 9.74088E-20-6.85800E-18
 -1      2573 3.01397E-05-1.82434E-05-4.93520E-06 2.77807E-05-2.86085E-19-6.20579E-18
 -1      2574 2.01913E-05-1.25377E-05-3.07466E-06 1.51550E-05 2.60410E-19-6.54079E-18
 -1      2575 6.21337E-05-3.36831E-05-1.21405E-05 4.04379E-05-3.97894E-19-5.55008E-18
 -1      2576 4.53022E-05-2.66164E-05-7.87138E-06 3.46565E-05 5.06102E-20-5.72975E-18
 -1      2577 9.88278E-05-4.85492E-05-2.17824E-05 3.79006E-05-9.31524E-19-4.07256E-18
 -1      2578 8.06654E-05-4.26472E-05-1.62196E-05 3.90225E-05-3.88153E-19-4.85768E-18
 -1      2579 1.46706E-04-4.41097E-05-4.45654E-05 1.51885E-07-3.95109E-18-1.26970E-18
 -1      2580 1.42045E-04-4.95007E-05-3.97182E-05 6.04145E-06-2.91537E-18-1.77326E-18
 -1      2581 1.03906E-04-5.39347E-05-2.14002E-05-3.65676E-05 3.68883E-19-1.12385E-18
 -1      2582 1.19203E-04-5.61000E-05-2.71500E-05-3.26274E-05-3.09591E-19-1.88317E-18
 -1      2583 1.44453E-04-1.44754E-05-5.61213E-05 4.80556E-06-4.81157E-18-4.17947E-18
 -1      2584 1.43758E-04-1.21628E-05-5.70004E-05 1.16089E-06-5.23551E-18-3.93889E-18
 -1      2585 1.47060E-04-2.96020E-05-5.07003E-05 4.73480E-06-3.29453E-18-3.98614E-18
 -1      2586 1.47422E-04-2.05253E-05-5.47550E-05 5.68552E-06-4.16825E-18-4.37196E-18
 -1      2587 1.45470E-04-4.82782E-05-4.19329E-05-6.73248E-06-2.02498E-18-3.40994E-18
 -1      2588 1.48123E-04-4.20386E-05-4.58527E-05-8.43547E-07-2.35412E-18-3.51053E-18
 -1      2589 1.41460E-04-5.34278E-05-3.76704E-05-5.98183E-06-7.84141E-19-3.64838E-18
 -1      2590 7.19408E-05-4.28822E-05-1.22783E-05-4.13652E-05 1.02555E-18 1.68507E-18
 -1      2591 8.72482E-05-4.82023E-05-1.66995E-05-4.23219E-05 7.39460E-19 1.57283E-19
 -1      2592 1.45482E-04-4.74588E-05-4.23069E-05 8.39987E-06 2.69362E-18-2.16205E-18
 -1      2593 1.36945E-04-5.30701E-05-3.60557E-05 1.40287E-05 1.75865E-18-1.83277E-18
 -1      2594 1.42513E-04-4.47739E-05-4.19035E-05-2.30390E-06 2.29493E-18-2.77806E-18
 -1      2595 3.90302E-05-2.63336E-05-5.10031E-06-3.15463E-05 1.82451E-18 4.95345E-18
 -1      2596 5.45267E-05-3.42663E-05-8.54505E-06-3.99683E-05 9.13949E-19 3.72165E-18
 -1      2597 6.89814E-05-3.78842E-05-1.28652E-05-3.94766E-05 2.26158E-18 1.85596E-18
 -1      2598 1.14406E-04-3.23212E-05-3.52412E-05 6.05984E-06 2.20898E-18 2.44038E-18
 -1      2599 1.15087E-04-3.05178E-05-3.62823E-05 8.26530E-06 2.39811E-18 2.76262E-18
 -1      2600 1.12092E-04-2.78513E-05-3.61986E-05 9.04698E-06 2.56541E-18 1.78553E-18
 -1      2601 1.12869E-04-3.20836E-05-3.46963E-05 6.37277E-06 2.14068E-18 1.35640E-18
 -1      2602 5.37143E-05-3.28430E-05-8.77519E-06 4.01297E-05-1.63901E-18 3.42286E-18
 -1      2603 3.67748E-05-2.55759E-05-4.51767E-06 3.04654E-05-1.27987E-18 4.06872E-18
 -1      2604 3.96504E-05-2.08158E-05-7.48611E-06 2.62179E-05-1.65680E-18 3.86819E-18
 -1      2605 1.42623E-04-3.03598E-05-4.82678E-05 9.27570E-06 3.96941E-18 2.17476E-19
 -1      2606 8.57799E-05-1.59980E-05-2.99645E-05 4.41778E-06-3.00908E-19-3.47862E-18
 -1      2607 8.68234E-05-1.44443E-05-3.10868E-05 1.97925E-06-5.24626E-19-3.55578E-18
 -1      2608 9.21640E-05-1.69599E-05-3.22208E-05 1.15373E-07-8.53467E-19-3.21724E-18
 -1      2609 1.14209E-04-3.68536E-05-3.31517E-05 7.47628E-06 1.31251E-18 1.30375E-18
 -1      2610 1.08254E-04-2.54163E-05-3.55366E-05 8.02930E-06 2.46638E-18 6.15303E-19
 -1      2611 6.89877E-05-3.71535E-05-1.31583E-05 3.95289E-05-1.84928E-18 2.33633E-18
 -1      2612 1.45141E-04-3.75406E-05-4.65149E-05 6.28734E-06-2.68541E-18-4.20806E-18
 -1      2613 1.36482E-04-3.05175E-05-4.58846E-05 1.35637E-05-2.91792E-18-4.53300E-18
 -1      2614 1.40510E-04-4.32483E-05-4.18023E-05 6.98589E-06-1.82790E-18-4.48896E-18
 -1      2615 1.28843E-04-5.87245E-05-2.98902E-05-2.21724E-05 2.42569E-19-2.97510E-18
 -1      2616 1.33176E-04-1.67657E-05-5.03585E-05 9.30000E-06 5.28040E-18 2.81162E-19
 -1      2617 1.39164E-04-1.33830E-05-5.42263E-05 6.21498E-06 5.87163E-18-6.73021E-19
 -1      2618 1.29696E-04-9.70269E-06-5.18654E-05 4.75232E-06 5.35918E-18-5.61953E-19
 -1      2619 1.36015E-04-1.73475E-05-5.09911E-05 9.09183E-06-4.09159E-18-4.63465E-18
 -1      2620 1.01678E-04-5.29866E-05-2.05712E-05-3.65987E-05 1.40586E-18-1.20656E-18
 -1      2621 1.05590E-04-5.34552E-05-2.19540E-05 3.45209E-05-1.48707E-18-3.28225E-20
 -1      2622 1.41714E-04-3.86081E-05-4.42740E-05-9.36722E-06-3.53636E-18-5.15208E-19
 -1      2623 9.52358E-05-2.85732E-05-2.85697E-05-5.97769E-09-2.36258E-19 4.70661E-18
 -1      2624 9.52363E-05-2.85742E-05-2.85695E-05-6.77040E-09 3.09195E-19 3.88757E-18
 -1      2625 9.52353E-05-2.85730E-05-2.85696E-05 6.53614E-09-8.58388E-19-1.14784E-18
 -1      2626 9.52365E-05-2.85746E-05-2.85694E-05 7.30680E-09-4.45362E-19-1.69031E-18
 -1      2627 9.52365E-05-2.85750E-05-2.85692E-05 8.86184E-09-1.36381E-18-1.58589E-18
 -1      2628 9.52344E-05-2.85727E-05-2.85693E-05 7.70600E-09-6.33942E-19-1.40415E-19
 -1      2629 1.33080E-04-5.74169E-05-3.24376E-05 1.54456E-05 3.81588E-19-2.49642E-18
 -1      2630 1.13125E-04-5.28118E-05-2.55606E-05 2.89029E-05 1.07997E-19-2.72935E-18
 -1      2631 7.75441E-05-3.84497E-05-1.63378E-05 3.80955E-05 9.50371E-19-4.50563E-18
 -1      2632 1.08481E-04-2.78742E-05-3.44912E-05 6.09942E-06 2.15713E-18 3.71695E-19
 -1      2633 4.47375E-05-2.04872E-05-9.89460E-06 3.11283E-05 9.15643E-19-5.89980E-18
 -1      2634 3.96826E-05-2.09625E-05-7.42629E-06-2.53993E-05 1.65584E-18 4.57864E-18
 -1      2635 2.53397E-05-7.85792E-06-6.91020E-06 9.33221E-06 5.14334E-19-6.77245E-18
 -1      2636 1.36940E-04-1.89416E-05-5.07948E-05-1.13530E-05-5.13535E-18-2.10445E-18
 -1      2637 3.18588E-05-9.97647E-06-8.76115E-06-1.85393E-05-4.96891E-19-6.51813E-18
 -1      2638 5.75190E-05-2.67531E-05-1.28373E-05-3.61714E-05-1.44493E-18-5.37337E-18
 -1      2639 8.85797E-05-4.37088E-05-1.89018E-05-3.84419E-05-1.06281E-18-3.93598E-18
 -1      2640 1.40115E-04-2.55354E-05-4.92880E-05-8.91381E-06 4.47170E-18-2.45671E-18
 -1      2641 1.37200E-04-5.36953E-05-3.57200E-05 7.91935E-06-1.41248E-18-1.16382E-18
 -1      2642 1.00507E-04-2.14168E-05-3.39501E-05-3.37355E-06-1.37827E-18-2.39409E-18
 -1      2643 2.80211E-05-1.36258E-05-5.53068E-06 1.19356E-06-1.70611E-19 4.16867E-18
 -1      2644 1.19380E-04-5.27779E-05-2.83667E-05-2.77222E-05 5.59042E-19-2.84095E-18
 -1      2645 1.27860E-04-5.47993E-05-3.17903E-05-1.81252E-05-1.14879E-20-1.33948E-18
 -1      2646 1.14711E-04-5.25814E-05-2.62467E-05-2.83108E-05-6.30193E-19-2.22336E-18
 -1      2647 1.34364E-04-1.06487E-05-5.32029E-05-1.37221E-07-5.08897E-18-3.80164E-18
 -1      2648 1.42568E-04-4.80332E-05-4.06092E-05-5.60436E-06 2.32463E-18-9.29830E-19
 -1      2649 1.40792E-04-4.45377E-05-4.15969E-05 4.14380E-06 1.92414E-18 4.09011E-19
 -1      2650 1.36974E-04-5.12941E-05-3.67133E-05-8.02993E-06 9.91664E-19-4.81221E-19
 -1      2651 9.52362E-05-2.85746E-05-2.85693E-05-8.39543E-09-4.55481E-19 3.59366E-18
 -1      2652 9.52350E-05-2.85737E-05-2.85691E-05 9.45685E-09-8.76740E-19-9.11604E-19
 -1      2653 7.13397E-05-9.73986E-06-2.62459E-05-1.05206E-05 3.23691E-19-3.46382E-18
 -1      2654 6.54734E-05-6.58767E-06-2.53638E-05-1.00524E-05 2.17678E-19-3.76018E-18
 -1      2655 6.00531E-05-2.58728E-06-2.45079E-05-7.58099E-06 2.96766E-19-4.18716E-18
 -1      2656 5.67828E-05-7.16576E-07-2.40651E-05-5.19447E-06 3.02356E-19-4.37711E-18
 -1      2657 6.26756E-05-6.41721E-06-2.39901E-05-1.11263E-05 9.60456E-20-4.11012E-18
 -1      2658 9.58277E-05-2.40037E-05-3.07669E-05-3.43566E-06 1.08193E-18-1.65252E-18
 -1      2659 9.05298E-05-2.12469E-05-2.97123E-05-5.91102E-06 8.77029E-19-2.03912E-18
 -1      2660 1.04384E-04-2.82156E-05-3.26523E-05 1.93384E-06 1.62253E-18-7.33200E-19
 -1      2661 1.00299E-04-2.61168E-05-3.17713E-05-3.10645E-07 1.34317E-18-1.11422E-18
 -1      2662 1.00757E-04-2.88146E-05-3.08702E-05-3.02129E-06 9.88712E-19-1.16048E-18
 -1      2663 1.12974E-04-3.58616E-05-3.31133E-05 5.09083E-06 1.41946E-18 5.95848E-19
 -1      2664 1.12546E-04-3.42119E-05-3.34970E-05 4.88651E-06 1.50976E-18 5.49413E-19
 -1      2665 5.57511E-05-2.25240E-05-1.40006E-05 3.32114E-05 1.35599E-18-4.85032E-18
 -1      2666 4.19722E-05-1.38635E-05-1.15391E-05 2.53262E-05 1.22830E-18-5.55018E-18
 -1      2667 1.15015E-04-3.83832E-05-3.29019E-05 7.30984E-06 1.07028E-18 9.29715E-19
 -1      2668 1.14790E-04-3.76381E-05-3.30040E-05 6.05784E-06 1.20198E-18 8.73456E-19
 -1      2669 1.13457E-04-3.70352E-05-3.27472E-05 4.75845E-06 1.14830E-18 2.09999E-19
 -1      2670 1.37210E-04-5.53021E-05-3.51364E-05-4.85389E-06-2.73003E-20-4.00583E-18
 -1      2671 1.39717E-04-5.15739E-05-3.82159E-05 3.99347E-07-6.55825E-19-4.19790E-18
 -1      2672 1.17032E-04-4.05486E-05-3.26643E-05-2.90331E-06-2.13462E-19-6.85594E-19
 -1      2673 1.18501E-04-4.21684E-05-3.28025E-05-4.63589E-06-1.93319E-19-4.68522E-19
 -1      2674 1.21772E-04-4.35474E-05-3.34753E-05-7.55275E-06-2.32641E-19 5.48222E-20
 -1      2675 1.22189E-04-4.27938E-05-3.41065E-05-1.00059E-05-5.23155E-19 1.84499E-19
 -1      2676 1.20680E-04-4.43912E-05-3.27691E-05-3.95321E-06 3.10755E-20-3.06838E-19
 -1      2677 1.23631E-04-4.10136E-05-3.55527E-05-1.34676E-05-8.90139E-19 2.96607E-19
 -1      2678 1.22180E-04-3.67344E-05-3.66748E-05-1.49036E-05-1.43704E-18 1.23687E-19
 -1      2679 1.25737E-04-4.39715E-05-3.50897E-05-1.05708E-05-7.27469E-19 1.40713E-19
 -1      2680 1.15229E-04-2.01219E-05-4.11750E-05-8.81047E-06-2.97277E-18-1.36040E-18
 -1      2681 1.13220E-04-1.71056E-05-4.14686E-05-3.08154E-06-3.11528E-18-1.94568E-18
 -1      2682 1.18450E-04-1.51832E-05-4.47690E-05 2.79729E-06-3.56537E-18-2.84690E-18
 -1      2683 1.19173E-04-1.78419E-05-4.40580E-05 8.21612E-06-3.20835E-18-3.34451E-18
 -1      2684 1.22766E-04-2.90593E-05-4.03574E-05 1.31031E-05-2.13066E-18-3.86488E-18
 -1      2685 1.25534E-04-3.56218E-05-3.87784E-05 1.45272E-05-1.56283E-18-4.35409E-18
 -1      2686 1.21107E-04-4.42752E-05-3.30044E-05 7.06562E-06-4.49890E-19-2.91440E-18
 -1      2687 1.20126E-04-4.49216E-05-3.21768E-05 3.89658E-06-5.42374E-19-2.89977E-18
 -1      2688 1.16705E-04-4.37938E-05-3.13203E-05 2.37864E-07-5.60286E-19-2.70189E-18
 -1      2689 1.14745E-04-4.24375E-05-3.09009E-05-2.44591E-06-3.27593E-19-2.43408E-18
 -1      2690 1.19230E-04-4.66332E-05-3.12099E-05-7.78269E-07-4.79196E-19-2.98831E-18
 -1      2691 1.11386E-04-4.02383E-05-3.05355E-05-4.66529E-06 2.27938E-20-2.45081E-18
 -1      2692 1.09292E-04-3.82925E-05-3.03466E-05-6.43013E-06 4.43324E-19-1.97263E-18
 -1      2693 1.12240E-04-4.25082E-05-2.99616E-05-6.24576E-06 2.98529E-20-1.53243E-18
 -1      2694 1.06674E-04-3.61571E-05-3.02441E-05-7.42656E-06 6.16281E-19-1.54884E-18
 -1      2695 1.04889E-04-3.43998E-05-3.01575E-05-8.31299E-06 6.15514E-19-9.26565E-19
 -1      2696 1.06247E-04-3.75519E-05-2.95253E-05-9.04934E-06 7.81081E-19-1.42206E-18
 -1      2697 1.03147E-04-3.28098E-05-3.01505E-05-8.50628E-06 1.84891E-19-7.33959E-19
 -1      2698 1.01791E-04-3.15195E-05-3.00864E-05-8.76301E-06 1.13003E-21-7.97281E-19
 -1      2699 1.01939E-04-3.33248E-05-2.94650E-05-9.89263E-06 5.18012E-19-1.43614E-18
 -1      2700 1.00722E-04-3.04919E-05-3.00952E-05-8.52185E-06 7.44318E-20-7.42009E-19
 -1      2701 9.97340E-05-2.96480E-05-3.00225E-05-8.38093E-06 1.93669E-19-6.60778E-19
 -1      2702 9.91944E-05-3.04093E-05-2.95144E-05-9.63906E-06 2.08765E-19-7.00274E-19
 -1      2703 9.91148E-05-2.90593E-05-3.00159E-05-7.92281E-06 9.91125E-20-6.12762E-19
 -1      2704 9.83974E-05-2.85551E-05-2.99275E-05-7.55975E-06 1.61278E-19-6.77430E-19
 -1      2705 9.75534E-05-2.86253E-05-2.95593E-05-8.82409E-06 1.09839E-19-9.42002E-20
 -1      2706 9.80514E-05-2.82645E-05-2.98986E-05-7.01429E-06 5.30868E-20-1.95505E-19
 -1      2707 9.75205E-05-2.79901E-05-2.97991E-05-6.54989E-06 2.86927E-19-3.03425E-19
 -1      2708 9.66160E-05-2.76643E-05-2.95599E-05-7.75714E-06 4.82980E-19-1.98991E-19
 -1      2709 9.73298E-05-2.78834E-05-2.97521E-05-5.99250E-06 1.33991E-19-6.63139E-19
 -1      2710 9.69269E-05-2.77529E-05-2.96488E-05-5.50429E-06 1.06148E-19-8.66833E-19
 -1      2711 9.60937E-05-2.72389E-05-2.95135E-05-6.61774E-06-2.18699E-19-8.81127E-19
 -1      2712 9.68201E-05-2.77502E-05-2.95909E-05-4.97771E-06 3.23663E-19-1.22585E-18
 -1      2713 9.65075E-05-2.77043E-05-2.94909E-05-4.51183E-06 4.51167E-19-1.21327E-18
 -1      2714 9.58032E-05-2.71337E-05-2.94318E-05-5.50959E-06 4.00003E-20-1.56001E-18
 -1      2715 9.64445E-05-2.77543E-05-2.94288E-05-4.03852E-06 2.14639E-19-1.43607E-18
 -1      2716 9.61987E-05-2.77551E-05-2.93368E-05-3.61947E-06-1.83430E-19-1.53587E-18
 -1      2717 9.56367E-05-2.72033E-05-2.93297E-05-4.49082E-06 9.75193E-20-2.55768E-18
 -1      2718 9.61580E-05-2.78272E-05-2.92758E-05-3.20901E-06 2.39769E-19-1.37014E-18
 -1      2719 9.59639E-05-2.78515E-05-2.91945E-05-2.84718E-06-1.58167E-19-1.02671E-18
 -1      2720 9.55348E-05-2.73566E-05-2.92201E-05-3.59047E-06 3.19768E-19-2.01434E-18
 -1      2721 9.59349E-05-2.79283E-05-2.91379E-05-2.50109E-06-7.97140E-19-9.33827E-19
 -1      2722 9.57821E-05-2.79626E-05-2.90684E-05-2.19816E-06-5.17839E-19-5.52903E-19
 -1      2723 9.54665E-05-2.75398E-05-2.91123E-05-2.81867E-06-3.37544E-19-4.32600E-19
 -1      2724 9.57596E-05-2.80353E-05-2.90182E-05-1.91310E-06-6.25721E-19-1.34512E-18
 -1      2725 9.56404E-05-2.80720E-05-2.89603E-05-1.66573E-06-7.45181E-19-1.16577E-18
 -1      2726 9.54165E-05-2.77228E-05-2.90125E-05-2.17347E-06-1.08246E-18-9.31414E-19
 -1      2727 9.56222E-05-2.81363E-05-2.89171E-05-1.43573E-06-9.56832E-20-1.23456E-18
 -1      2728 9.55304E-05-2.81713E-05-2.88700E-05-1.23802E-06 4.24095E-19-1.09662E-18
 -1      2729 9.53775E-05-2.78907E-05-2.89239E-05-1.64572E-06-5.01090E-19-1.14287E-18
 -1      2730 9.55154E-05-2.82259E-05-2.88339E-05-1.05592E-06 4.76219E-19-7.34669E-19
 -1      2731 9.54456E-05-2.82574E-05-2.87964E-05-9.00951E-07 3.40102E-19-5.89896E-19
 -1      2732 9.53459E-05-2.80368E-05-2.88477E-05-1.22245E-06 8.99874E-19-7.49432E-19
 -1      2733 9.54333E-05-2.83024E-05-2.87668E-05-7.59368E-07 9.45955E-20-2.35264E-19
 -1      2734 9.53812E-05-2.83296E-05-2.87375E-05-6.40138E-07-7.80027E-20-3.16211E-19
 -1      2735 9.53202E-05-2.81596E-05-2.87840E-05-8.89185E-07 4.90565E-19-6.29449E-19
 -1      2736 9.53712E-05-2.83658E-05-2.87138E-05-5.32021E-07-6.47785E-19 3.70930E-20
 -1      2737 9.53332E-05-2.83885E-05-2.86914E-05-4.41981E-07-7.69525E-19-5.02965E-19
 -1      2738 9.52995E-05-2.82601E-05-2.87320E-05-6.31446E-07-6.13264E-19 1.91063E-19
 -1      2739 9.53252E-05-2.84171E-05-2.86728E-05-3.60940E-07-5.87721E-19-1.81882E-19
 -1      2740 9.52980E-05-2.84357E-05-2.86558E-05-2.94255E-07-6.49229E-19 5.07798E-22
 -1      2741 9.52829E-05-2.83406E-05-2.86903E-05-4.35692E-07-4.32750E-19 1.52921E-19
 -1      2742 9.52917E-05-2.84578E-05-2.86415E-05-2.34708E-07-1.36889E-18-3.15060E-19
 -1      2743 9.52728E-05-2.84728E-05-2.86290E-05-1.86361E-07-1.00877E-18-6.76346E-19
 -1      2744 9.52699E-05-2.84038E-05-2.86575E-05-2.89801E-07-9.20693E-19-2.71382E-19
 -1      2745 9.52680E-05-2.84896E-05-2.86181E-05-1.43572E-07-6.89075E-19-3.14724E-19
 -1      2746 9.52553E-05-2.85014E-05-2.86091E-05-1.09363E-07-6.06617E-19-3.51239E-19
 -1      2747 9.52599E-05-2.84526E-05-2.86322E-05-1.83282E-07-6.01236E-19-4.56457E-19
 -1      2748 9.52518E-05-2.85139E-05-2.86011E-05-7.94046E-08-3.57087E-19-9.83770E-20
 -1      2749 9.52436E-05-2.85230E-05-2.85947E-05-5.58989E-08 3.89111E-19-1.59102E-19
 -1      2750 9.52524E-05-2.84895E-05-2.86131E-05-1.07296E-07-6.62655E-19 5.95159E-19
 -1      2751 9.52410E-05-2.85322E-05-2.85889E-05-3.55845E-08 7.21039E-19-4.28118E-19
 -1      2752 9.52362E-05-2.85391E-05-2.85845E-05-2.00266E-08 6.51701E-19-4.14129E-19
 -1      2753 9.52469E-05-2.85169E-05-2.85989E-05-5.45624E-08 1.30771E-20-1.58113E-19
 -1      2754 9.52343E-05-2.85457E-05-2.85804E-05-6.81824E-09 1.29307E-18-2.53714E-19
 -1      2755 9.52317E-05-2.85509E-05-2.85776E-05 2.96126E-09 1.52838E-18 1.08782E-18
 -1      2756 9.52429E-05-2.85369E-05-2.85885E-05-1.92055E-08 9.30555E-19-7.58786E-19
 -1      2757 9.52304E-05-2.85555E-05-2.85747E-05 1.10484E-08 8.92186E-19 5.34213E-19
 -1      2758 9.52295E-05-2.85592E-05-2.85730E-05 1.67268E-08 1.42599E-18-4.29621E-19
 -1      2759 9.52401E-05-2.85511E-05-2.85812E-05 3.42837E-09 9.20461E-19-1.22688E-18
 -1      2760 9.52286E-05-2.85623E-05-2.85711E-05 2.12169E-08 1.07367E-18-9.47226E-19
 -1      2761 9.52286E-05-2.85650E-05-2.85701E-05 2.40675E-08-6.20408E-19-2.07727E-18
 -1      2762 9.52383E-05-2.85609E-05-2.85761E-05 1.69594E-08 5.37756E-19-1.97977E-18
 -1      2763 9.52280E-05-2.85670E-05-2.85689E-05 2.61095E-08-7.12206E-19-2.46957E-18
 -1      2764 9.52287E-05-2.85689E-05-2.85685E-05 2.70798E-08-4.25751E-19-2.36181E-18
 -1      2765 9.52371E-05-2.85675E-05-2.85728E-05 2.41520E-08-7.71049E-19-2.93745E-18
 -1      2766 9.52283E-05-2.85701E-05-2.85678E-05 2.75216E-08-4.60319E-19-2.25628E-18
 -1      2767 9.52293E-05-2.85714E-05-2.85677E-05 2.73011E-08-1.17058E-18-2.04981E-18
 -1      2768 9.52364E-05-2.85716E-05-2.85707E-05 2.70770E-08-4.57733E-19-2.80123E-18
 -1      2769 9.52291E-05-2.85720E-05-2.85673E-05 2.67535E-08-1.24951E-18-2.04318E-18
 -1      2770 9.52303E-05-2.85729E-05-2.85674E-05 2.58296E-08-1.31549E-18-1.42147E-18
 -1      2771 9.52361E-05-2.85741E-05-2.85695E-05 2.72513E-08-1.10153E-18-2.91924E-18
 -1      2772 9.52302E-05-2.85732E-05-2.85673E-05 2.47192E-08-1.49084E-18-1.12105E-18
 -1      2773 9.52313E-05-2.85737E-05-2.85675E-05 2.34238E-08-1.07779E-18-1.25549E-18
 -1      2774 9.52359E-05-2.85754E-05-2.85688E-05 2.57579E-08-1.19287E-18-2.31860E-18
 -1      2775 9.52314E-05-2.85738E-05-2.85676E-05 2.20360E-08-6.97862E-19-1.13893E-18
 -1      2776 9.52325E-05-2.85741E-05-2.85678E-05 2.05821E-08 5.58810E-19-1.44192E-18
 -1      2777 9.52360E-05-2.85760E-05-2.85686E-05 2.33431E-08-6.01651E-19-1.03452E-18
 -1      2778 9.52326E-05-2.85741E-05-2.85679E-05 1.90951E-08 1.61861E-18-1.87067E-18
 -1      2779 9.52336E-05-2.85744E-05-2.85682E-05 1.76059E-08 1.33737E-18-1.62617E-18
 -1      2780 9.52361E-05-2.85761E-05-2.85686E-05 2.04970E-08 6.94126E-19-1.28649E-18
 -1      2781 9.52337E-05-2.85743E-05-2.85683E-05 1.61172E-08 6.96789E-19-1.11880E-18
 -1      2782 9.52347E-05-2.85745E-05-2.85686E-05 1.46468E-08 7.87613E-19-1.51832E-18
 -1      2783 9.52364E-05-2.85761E-05-2.85687E-05 1.75149E-08 7.74806E-19-2.52473E-18
 -1      2784 9.52349E-05-2.85745E-05-2.85687E-05 1.32014E-08 6.97751E-19-1.98129E-18
 -1      2785 9.52357E-05-2.85748E-05-2.85690E-05 1.17629E-08 1.31315E-19-1.65861E-18
 -1      2786 9.52367E-05-2.85760E-05-2.85689E-05 1.45444E-08 4.42898E-19-2.97920E-18
 -1      2787 1.10524E-04-2.71299E-05-3.56900E-05 1.15372E-05 1.89786E-18 5.74904E-19
 -1      2788 1.12517E-04-3.06158E-05-3.52496E-05 1.32233E-05 1.57539E-18 9.70842E-19
 -1      2789 1.35522E-04-5.51591E-05-3.48404E-05 6.46831E-06 2.54639E-19-2.94598E-18
 -1      2790 1.27173E-04-5.74604E-05-2.97689E-05 1.67037E-05-6.82153E-19-3.09665E-18
 -1      2791 1.14223E-04-3.39529E-05-3.43680E-05 1.32789E-05 1.21064E-18 1.24206E-18
 -1      2792 1.15759E-04-3.66219E-05-3.39855E-05 1.27364E-05 9.94817E-19 1.44099E-18
 -1      2793 1.16622E-04-3.28605E-05-3.58759E-05 1.43269E-05 1.67475E-18 1.13876E-18
 -1      2794 1.07397E-04-2.25395E-05-3.64695E-05-5.35653E-06 1.72884E-18-6.07122E-19
 -1      2795 1.06837E-04-2.13454E-05-3.66598E-05-1.29717E-06 1.69626E-18-3.80238E-19
 -1      2796 1.10702E-04-2.87229E-05-3.53317E-05-1.18703E-05 1.73888E-18-1.55617E-18
 -1      2797 1.08879E-04-2.52412E-05-3.58317E-05-9.64533E-06 1.94222E-18-1.02267E-18
 -1      2798 1.11053E-04-2.28534E-05-3.78833E-05-8.18223E-06 2.18776E-18-1.73701E-18
 -1      2799 1.14074E-04-3.55754E-05-3.37753E-05-1.22469E-05 1.12319E-18-1.84816E-18
 -1      2800 1.12606E-04-3.23819E-05-3.43274E-05-1.24916E-05 1.54597E-18-1.66558E-18
 -1      2801 1.15036E-04-3.13774E-05-3.58677E-05-1.31940E-05 1.76243E-18-2.03963E-18
 -1      2802 1.15027E-04-3.94974E-05-3.24083E-05-8.27731E-06 4.41645E-19-1.54286E-18
 -1      2803 1.14527E-04-3.79178E-05-3.28387E-05-1.02444E-05 6.38392E-19-1.66062E-18
 -1      2804 1.17252E-04-3.82907E-05-3.38097E-05-1.13906E-05 8.65496E-19-1.89351E-18
 -1      2805 1.13299E-04-3.97444E-05-3.14968E-05-3.00690E-06 4.02181E-19-1.32344E-18
 -1      2806 1.13766E-04-3.97759E-05-3.17654E-05-5.35467E-06 5.49097E-19-1.26132E-18
 -1      2807 1.16330E-04-4.16052E-05-3.20207E-05-5.85181E-06 3.83828E-19-1.75578E-18
 -1      2808 1.10199E-04-3.77821E-05-3.09886E-05 1.43957E-06 6.69917E-20-1.49992E-18
 -1      2809 1.11250E-04-3.87263E-05-3.11397E-05-4.99860E-07 4.51293E-19-1.11412E-18
 -1      2810 1.12888E-04-4.08148E-05-3.09199E-05-2.55633E-07 3.09789E-19-7.68260E-19
 -1      2811 1.06989E-04-3.52180E-05-3.07167E-05 4.37721E-06 1.57297E-19-1.09175E-18
 -1      2812 1.08190E-04-3.63855E-05-3.08166E-05 3.07138E-06 3.30376E-20-1.42632E-18
 -1      2813 1.08739E-04-3.79816E-05-3.03639E-05 3.77148E-06 1.96139E-19-8.04130E-19
 -1      2814 1.04206E-04-3.28724E-05-3.05418E-05 5.92689E-06 4.84032E-19-1.12345E-18
 -1      2815 1.05337E-04-3.39223E-05-3.06341E-05 5.23328E-06 3.80935E-19-7.06161E-19
 -1      2816 1.05057E-04-3.48738E-05-3.01200E-05 6.12015E-06 2.67552E-19-2.39761E-19
 -1      2817 1.02018E-04-3.10828E-05-3.03822E-05 6.43025E-06 1.70197E-19-2.85254E-19
 -1      2818 1.02990E-04-3.18858E-05-3.04864E-05 6.20419E-06 2.85924E-19-9.13940E-19
 -1      2819 1.02191E-04-3.22436E-05-3.00088E-05 7.11989E-06 8.26391E-20-3.51599E-19
 -1      2820 1.00365E-04-2.98582E-05-3.02072E-05 6.25772E-06-2.24593E-19 2.01464E-19
 -1      2821 1.01170E-04-3.04173E-05-3.03252E-05 6.34140E-06 2.46676E-19 8.84043E-20
 -1      2822 1.00139E-04-3.03553E-05-2.99278E-05 7.21093E-06 1.17816E-19 5.40734E-19
 -1      2823 9.91289E-05-2.90846E-05-3.00143E-05 5.69857E-06-1.90948E-19-1.54870E-19
 -1      2824 9.97850E-05-2.94496E-05-3.01400E-05 5.96177E-06-1.38873E-19-1.36254E-19
 -1      2825 9.87204E-05-2.91374E-05-2.98343E-05 6.75783E-06-4.43596E-20 5.68031E-19
 -1      2826 9.81971E-05-2.86315E-05-2.98124E-05 4.95617E-06 6.93554E-20 1.89973E-19
 -1      2827 9.87300E-05-2.88573E-05-2.99380E-05 5.30429E-06-2.10681E-19-5.36131E-20
 -1      2828 9.77482E-05-2.84255E-05-2.97179E-05 6.01756E-06-3.04970E-19 2.82585E-19
 -1      2829 9.74861E-05-2.83896E-05-2.96131E-05 4.16335E-06-2.33829E-20 3.94683E-19
 -1      2830 9.79175E-05-2.85217E-05-2.97319E-05 4.53378E-06 2.00731E-19 5.40058E-19
 -1      2831 9.70743E-05-2.80583E-05-2.95837E-05 5.16143E-06-2.81435E-19 8.12146E-19
 -1      2832 9.69374E-05-2.82790E-05-2.94261E-05 3.40040E-06 8.66077E-20 2.53377E-19
 -1      2833 9.72846E-05-2.83509E-05-2.95335E-05 3.75530E-06 4.03838E-20 1.06067E-19
 -1      2834 9.65966E-05-2.79086E-05-2.94416E-05 4.29773E-06 2.81402E-19 1.26861E-18
 -1      2835 9.65113E-05-2.82458E-05-2.92580E-05 2.71094E-06-5.80715E-19 3.15436E-19
 -1      2836 9.67884E-05-2.82802E-05-2.93515E-05 3.03004E-06 6.07357E-22 2.05551E-19
 -1      2837 9.62492E-05-2.78867E-05-2.93012E-05 3.49022E-06-4.47193E-20 9.28460E-19
 -1      2838 9.61802E-05-2.82555E-05-2.91118E-05 2.11435E-06-1.12333E-18 8.01102E-19
 -1      2839 9.63989E-05-2.82674E-05-2.91909E-05 2.38896E-06-9.69976E-19 1.12591E-18
 -1      2840 9.59906E-05-2.79335E-05-2.91699E-05 2.77215E-06-1.08396E-18 1.67194E-18
 -1      2841 9.59239E-05-2.82867E-05-2.89885E-05 1.61477E-06-1.16796E-18 8.03126E-19
 -1      2842 9.60942E-05-2.82857E-05-2.90536E-05 1.84342E-06-1.07304E-18 7.63473E-19
 -1      2843 9.57951E-05-2.80123E-05-2.90520E-05 2.15666E-06-1.18020E-18 1.47788E-18
 -1      2844 9.57273E-05-2.83266E-05-2.88869E-05 1.20745E-06-2.86251E-19 5.96813E-19
 -1      2845 9.58579E-05-2.83187E-05-2.89393E-05 1.39279E-06-5.84512E-19 1.37702E-18
 -1      2846 9.56461E-05-2.81012E-05-2.89498E-05 1.64421E-06-1.01369E-18 1.25567E-18
 -1      2847 9.55783E-05-2.83678E-05-2.88052E-05 8.82913E-07 6.31089E-19 7.37261E-19
 -1      2848 9.56768E-05-2.83569E-05-2.88465E-05 1.02969E-06 4.79944E-20 9.52444E-19
 -1      2849 9.55325E-05-2.81881E-05-2.88636E-05 1.22790E-06-8.50171E-20 1.84134E-18
 -1      2850 9.54670E-05-2.84066E-05-2.87407E-05 6.29725E-07 5.37341E-19 8.44475E-19
 -1      2851 9.55399E-05-2.83947E-05-2.87726E-05 7.43524E-07 9.75569E-19 6.16318E-19
 -1      2852 9.54463E-05-2.82668E-05-2.87927E-05 8.96971E-07 8.80874E-19 1.71010E-18
 -1      2853 9.53853E-05-2.84410E-05-2.86908E-05 4.36158E-07 7.84340E-19-1.66289E-19
 -1      2854 9.54382E-05-2.84294E-05-2.87149E-05 5.22588E-07 8.48040E-19 3.35793E-19
 -1      2855 9.53815E-05-2.83348E-05-2.87355E-05 6.39199E-07 1.03489E-18 9.08046E-19
 -1      2856 9.53267E-05-2.84703E-05-2.86530E-05 2.91164E-07 7.85536E-19-1.43913E-18
 -1      2857 9.53640E-05-2.84598E-05-2.86709E-05 3.55445E-07 7.03964E-19-5.48204E-19
 -1      2858 9.53334E-05-2.83914E-05-2.86905E-05 4.42343E-07 1.11303E-18-3.87726E-19
 -1      2859 9.52856E-05-2.84946E-05-2.86249E-05 1.84873E-07-4.83762E-20-8.23058E-19
 -1      2860 9.53112E-05-2.84854E-05-2.86378E-05 2.31620E-07 1.91779E-19-1.33032E-18
 -1      2861 9.52984E-05-2.84373E-05-2.86556E-05 2.95006E-07 3.33787E-19-4.77187E-19
 -1      2862 9.52577E-05-2.85142E-05-2.86045E-05 1.08799E-07-1.19591E-18-8.90671E-19
 -1      2863 9.52746E-05-2.85064E-05-2.86136E-05 1.41946E-07-3.66056E-19-8.48077E-19
 -1      2864 9.52734E-05-2.84737E-05-2.86291E-05 1.87069E-07-3.82875E-19-2.17563E-19
 -1      2865 9.52396E-05-2.85296E-05-2.85900E-05 5.58523E-08-8.86566E-19-6.22163E-19
 -1      2866 9.52501E-05-2.85232E-05-2.85963E-05 7.86599E-08-1.68374E-18-1.10820E-18
 -1      2867 9.52561E-05-2.85020E-05-2.86094E-05 1.09864E-07-1.12056E-18-5.70314E-19
 -1      2868 9.52285E-05-2.85417E-05-2.85801E-05 2.02579E-08-5.78257E-19 7.02230E-19
 -1      2869 9.52346E-05-2.85365E-05-2.85842E-05 3.53644E-08-8.67854E-19 3.73010E-19
 -1      2870 9.52444E-05-2.85235E-05-2.85951E-05 5.61637E-08-1.47013E-18-1.12562E-18
 -1      2871 9.52225E-05-2.85508E-05-2.85736E-05-2.59215E-09-9.53767E-19 7.59615E-19
 -1      2872 9.52254E-05-2.85467E-05-2.85761E-05 6.90329E-09-3.48113E-19 6.23169E-19
 -1      2873 9.52369E-05-2.85395E-05-2.85849E-05 2.00874E-08-4.13061E-19-4.77671E-20
 -1      2874 9.52198E-05-2.85576E-05-2.85695E-05-1.63005E-08-2.36787E-19-8.02499E-19
 -1      2875 9.52206E-05-2.85544E-05-2.85709E-05-1.07928E-08-6.68433E-19-9.25448E-20
 -1      2876 9.52324E-05-2.85512E-05-2.85779E-05-3.05168E-09-2.80601E-19-8.77539E-19
 -1      2877 9.52193E-05-2.85626E-05-2.85672E-05-2.36298E-08-6.27600E-20 3.58696E-19
 -1      2878 9.52188E-05-2.85601E-05-2.85678E-05-2.08735E-08 1.02782E-19 5.45301E-19
 -1      2879 9.52300E-05-2.85595E-05-2.85732E-05-1.69155E-08-5.36222E-19-1.42685E-18
 -1      2880 9.52202E-05-2.85661E-05-2.85660E-05-2.66559E-08-4.63820E-19 6.86453E-19
 -1      2881 9.52190E-05-2.85643E-05-2.85662E-05-2.57290E-08-1.85170E-19 9.19058E-19
 -1      2882 9.52291E-05-2.85653E-05-2.85703E-05-2.43102E-08-5.09647E-20 9.31279E-19
 -1      2883 9.52220E-05-2.85686E-05-2.85657E-05-2.69049E-08-1.72597E-18 7.39472E-19
 -1      2884 9.52203E-05-2.85673E-05-2.85656E-05-2.71353E-08-1.35292E-18 1.22067E-18
 -1      2885 9.52291E-05-2.85691E-05-2.85686E-05-2.73432E-08-9.27318E-19 1.75902E-18
 -1      2886 9.52241E-05-2.85703E-05-2.85659E-05-2.54693E-08 1.80110E-19 1.80331E-18
 -1      2887 9.52223E-05-2.85693E-05-2.85656E-05-2.63811E-08-1.04273E-18 9.20376E-19
 -1      2888 9.52296E-05-2.85715E-05-2.85678E-05-2.75620E-08-1.22851E-18 2.56500E-18
 -1      2889 9.52263E-05-2.85714E-05-2.85664E-05-2.31052E-08 1.11320E-18 3.39229E-19
 -1      2890 9.52245E-05-2.85707E-05-2.85659E-05-2.43740E-08 1.54683E-18 1.26956E-18
 -1      2891 9.52305E-05-2.85730E-05-2.85675E-05-2.60733E-08 1.01189E-18 1.55029E-18
 -1      2892 9.52285E-05-2.85721E-05-2.85670E-05-2.03101E-08 1.65222E-18-9.43178E-19
 -1      2893 9.52268E-05-2.85716E-05-2.85665E-05-2.17276E-08 1.31143E-18-6.03252E-19
 -1      2894 9.52315E-05-2.85738E-05-2.85676E-05-2.36417E-08 2.27530E-18-6.15397E-19
 -1      2895 9.52305E-05-2.85726E-05-2.85676E-05-1.73852E-08 1.03228E-18-8.77857E-19
 -1      2896 9.52290E-05-2.85722E-05-2.85672E-05-1.88312E-08 1.32751E-18-8.19786E-19
 -1      2897 9.52326E-05-2.85742E-05-2.85679E-05-2.07687E-08 1.83041E-18-9.74402E-19
 -1      2898 9.52323E-05-2.85731E-05-2.85683E-05-1.44853E-08 6.59013E-19 6.68636E-19
 -1      2899 9.52310E-05-2.85727E-05-2.85679E-05-1.59042E-08 2.51118E-19 6.36383E-20
 -1      2900 9.52337E-05-2.85744E-05-2.85682E-05-1.77582E-08 5.80839E-20-1.35473E-18
 -1      2901 9.52340E-05-2.85735E-05-2.85688E-05-1.16560E-08 2.36524E-19 3.12653E-18
 -1      2902 9.52329E-05-2.85732E-05-2.85685E-05-1.30316E-08 1.10279E-18 2.42428E-18
 -1      2903 9.52347E-05-2.85746E-05-2.85686E-05-1.47681E-08-4.51939E-19-6.01188E-22
 -1      2904 9.52356E-05-2.85742E-05-2.85692E-05-9.34151E-09-5.59672E-19 2.98863E-18
 -1      2905 9.52347E-05-2.85739E-05-2.85689E-05-1.07278E-08-6.75250E-19 2.35139E-18
 -1      2906 9.52360E-05-2.85751E-05-2.85689E-05-1.22581E-08 7.36055E-21 3.17121E-19
 -1      2907 9.52371E-05-2.85758E-05-2.85691E-05-1.02081E-08-1.36583E-18 2.46937E-19
 -1      2908 9.52457E-05-2.85846E-05-2.85690E-05-9.38192E-10-1.27876E-19-1.47834E-18
 -1      2909 9.52455E-05-2.85844E-05-2.85690E-05-2.61466E-09 1.51765E-19-1.17451E-18
 -1      2910 9.52358E-05-2.85748E-05-2.85690E-05 1.08045E-08 1.01356E-19-2.02060E-18
 -1      2911 9.52363E-05-2.85750E-05-2.85692E-05 9.82115E-09-6.05334E-19-1.90127E-18
 -1      2912 9.52371E-05-2.85760E-05-2.85690E-05 1.20857E-08 1.07827E-20-4.32731E-18
 -1      2913 9.52438E-05-2.85826E-05-2.85690E-05-7.44162E-09-4.33211E-20-1.73540E-18
 -1      2914 9.52429E-05-2.85817E-05-2.85691E-05-8.54768E-09 1.35477E-18-1.94363E-18
 -1      2915 1.34927E-04-3.42763E-05-4.36644E-05-1.41836E-05-3.21565E-18-4.56233E-19
 -1      2916 1.38396E-04-4.40376E-05-4.05062E-05-9.56564E-06-2.43660E-18 6.31040E-20
 -1      2917 9.52455E-05-2.85844E-05-2.85690E-05 2.67078E-09-8.09881E-19-9.75001E-19
 -1      2918 9.52457E-05-2.85846E-05-2.85690E-05 9.95987E-10-4.23383E-19-1.49844E-18
 -1      2919 9.52468E-05-2.85849E-05-2.85694E-05 3.16110E-11 2.80641E-19-1.72694E-18
 -1      2920 9.52451E-05-2.85840E-05-2.85690E-05-4.44335E-09-6.33853E-19-2.37454E-18
 -1      2921 9.52446E-05-2.85834E-05-2.85691E-05-5.92608E-09-4.13131E-19-1.72648E-18
 -1      2922 9.52450E-05-2.85832E-05-2.85694E-05-7.36845E-09-7.43408E-19-1.78270E-18
 -1      2923 9.52464E-05-2.85844E-05-2.85694E-05-3.88337E-09 4.79580E-19-1.39351E-18
 -1      2924 9.52446E-05-2.85834E-05-2.85691E-05 5.92362E-09-4.82944E-20-1.60297E-18
 -1      2925 9.52451E-05-2.85840E-05-2.85690E-05 4.46770E-09-4.33811E-19-4.91638E-19
 -1      2926 9.52464E-05-2.85844E-05-2.85694E-05 3.91224E-09-3.07249E-19-7.78767E-19
 -1      2927 9.52429E-05-2.85817E-05-2.85691E-05 8.54703E-09 4.96312E-19 5.66259E-20
 -1      2928 9.52438E-05-2.85826E-05-2.85690E-05 7.44019E-09 5.40118E-19-1.50039E-18
 -1      2929 9.52451E-05-2.85832E-05-2.85694E-05 7.36562E-09-1.16781E-19-7.42864E-19
 -1      2930 9.52407E-05-2.85795E-05-2.85691E-05 1.01219E-08-1.66267E-19-6.22084E-19
 -1      2931 9.52418E-05-2.85806E-05-2.85690E-05 9.56957E-09 6.58324E-19 4.42644E-19
 -1      2932 9.52429E-05-2.85813E-05-2.85693E-05 1.00187E-08 7.08686E-19-1.62576E-19
 -1      2933 1.15770E-04-3.80596E-05-3.33321E-05 1.08091E-05 8.84686E-19 1.33296E-18
 -1      2934 1.16317E-04-3.88859E-05-3.31705E-05 9.30429E-06 9.21569E-19 1.27430E-18
 -1      2935 1.16832E-04-3.98753E-05-3.29772E-05 7.67171E-06 8.35134E-19 8.27644E-19
 -1      2936 1.18341E-04-3.87834E-05-3.40734E-05 1.18766E-05 9.48114E-19 1.31891E-18
 -1      2937 1.36858E-04-3.46419E-05-4.42413E-05 1.11155E-05 2.89495E-18 1.32942E-18
 -1      2938 1.34369E-04-2.58034E-05-4.71852E-05 1.28104E-05 4.06830E-18 1.53885E-18
 -1      2939 1.06689E-04-2.87482E-05-3.33998E-05-2.02815E-06-1.17016E-18-1.72594E-18
 -1      2940 1.08988E-04-3.20552E-05-3.30539E-05-1.45788E-06-9.56961E-19-1.44008E-18
 -1      2941 1.37664E-04-4.09367E-05-4.20774E-05-7.65855E-06 2.44554E-18-3.39703E-18
 -1      2942 1.38034E-04-4.84774E-05-3.85106E-05-2.95651E-06 1.31375E-18-3.20613E-18
 -1      2943 9.52374E-05-2.85761E-05-2.85691E-05 1.01357E-08-4.51604E-20-2.42732E-18
 -1      2944 8.92829E-05-4.17453E-05-2.03886E-05 3.51142E-05 1.34774E-18-3.51254E-18
 -1      2945 7.31004E-05-3.24998E-05-1.69228E-05 3.48767E-05 1.64748E-18-4.13987E-18
 -1      2946 1.26397E-04-1.08015E-05-5.03075E-05-1.51578E-06 4.82322E-18-1.27048E-18
 -1      2947 1.27116E-04-1.34196E-05-4.93164E-05-7.56357E-06 4.78235E-18-1.74912E-18
 -1      2948 1.07050E-04-2.17427E-05-3.66297E-05 4.36716E-06 1.78676E-18 7.30764E-20
 -1      2949 1.08372E-04-2.38110E-05-3.64075E-05 8.22693E-06 1.96776E-18 1.60751E-19
 -1      2950 1.09546E-04-1.95396E-05-3.86743E-05 1.60196E-06 2.01480E-18-5.05123E-19
 -1      2951 1.12062E-04-3.52475E-05-3.28097E-05-1.47091E-06-5.89262E-19-1.15720E-18
 -1      2952 1.13693E-04-3.78649E-05-3.25726E-05-1.71252E-06-4.23815E-19-9.31392E-19
 -1      2953 1.13894E-04-3.96135E-05-3.19684E-05-6.66990E-08-1.34298E-19-1.07493E-18
 -1      2954 1.07949E-04-3.33020E-05-3.20878E-05 6.65630E-07-5.82233E-19-1.51093E-18
 -1      2955 1.13816E-04-5.54305E-05-2.51399E-05 2.81624E-05-1.52948E-18-1.37222E-18
 -1      2956 9.79477E-05-4.91688E-05-2.04839E-05 3.49229E-05-2.10107E-18 7.21831E-20
 -1      2957 3.29252E-05-1.22481E-05-8.43130E-06 8.44740E-06-8.39886E-19 2.95572E-18
 -1      2958 3.25900E-05-1.18792E-05-8.42484E-06-5.88576E-06 3.24255E-19 3.50502E-18
 -1      2959 8.44745E-05-1.77169E-05-2.85167E-05-8.52123E-06 7.19834E-19-2.52102E-18
 -1      2960 7.81580E-05-1.43508E-05-2.74360E-05-9.98675E-06 4.43474E-19-3.00197E-18
 -1      2961 7.59600E-05-1.50270E-05-2.61172E-05-1.29350E-05 1.56833E-19-3.13768E-18
 -1      2962 8.98310E-05-2.32284E-05-2.86144E-05-9.18922E-06 4.66043E-19-2.09428E-18
 -1      2963 7.15174E-05-1.00428E-05-2.64475E-05 9.30929E-06 5.24394E-19-3.93935E-18
 -1      2964 7.81615E-05-1.36240E-05-2.75272E-05 8.96448E-06 2.91903E-19-3.74561E-18
 -1      2965 3.00420E-05-4.53580E-06-1.03609E-05-1.02725E-05-2.85715E-19-6.37477E-18
 -1      2966 4.00671E-05-1.02586E-05-1.24088E-05-2.30978E-05-8.42321E-19-5.73462E-18
 -1      2967 6.47943E-05-3.22528E-05-1.34079E-05-3.59544E-05 2.73475E-18 2.39996E-18
 -1      2968 7.99825E-05-4.13360E-05-1.65281E-05-3.89759E-05 2.16512E-18 5.25478E-19
 -1      2969 1.36781E-04-5.16068E-05-3.70630E-05-6.43369E-07-1.51769E-18-1.91377E-19
 -1      2970 1.31610E-04-5.48298E-05-3.26731E-05 8.58439E-06-2.97467E-19-8.21093E-19
 -1      2971 1.23949E-04-1.22273E-05-4.84013E-05-1.93367E-06-4.18667E-18-2.90008E-18
 -1      2972 1.26386E-04-1.38585E-05-4.90812E-05-7.25584E-06-4.51606E-18-2.43178E-18
 -1      2973 1.30717E-04-2.07690E-05-4.78246E-05-1.09499E-05 4.46556E-18-2.65540E-18
 -1      2974 1.34326E-04-3.05319E-05-4.48329E-05-1.21406E-05 3.43112E-18-3.19744E-18
 -1      2975 8.34086E-05-3.93915E-05-1.85380E-05-3.68299E-05-1.74319E-18-3.65283E-18
 -1      2976 9.84104E-05-4.64380E-05-2.22452E-05-3.42635E-05-1.38723E-18-2.98013E-18
 -1      2977 5.51093E-05-2.02863E-05-1.45040E-05-3.18710E-05-1.40555E-18-4.92412E-18
 -1      2978 6.90142E-05-3.04674E-05-1.61865E-05-3.70115E-05-1.54372E-18-4.42966E-18
 -1      2979 8.04405E-05-3.40888E-05-1.94907E-05-3.32594E-05-1.91302E-18-3.67072E-18
 -1      2980 1.27180E-04-1.98207E-05-4.64442E-05-1.16283E-05-4.35587E-18-1.40078E-18
 -1      2981 3.85538E-05-1.57940E-05-9.21204E-06-1.88752E-05 1.37415E-18 4.12103E-18
 -1      2982 4.98399E-05-2.33985E-05-1.10580E-05-3.06212E-05 2.13918E-18 3.69137E-18
 -1      2983 1.08960E-04-2.99920E-05-3.38674E-05 5.08372E-06 1.91870E-18 2.03645E-19
 -1      2984 9.85323E-05-2.20434E-05-3.28219E-05-1.07576E-06-1.00903E-18-2.47340E-18
 -1      2985 9.75064E-05-4.97007E-05-2.00983E-05-3.54237E-05 1.86432E-18-1.47569E-18
 -1      2986 1.12501E-04-5.61475E-05-2.42127E-05-3.10841E-05 1.31004E-18-2.38681E-18
 -1      2987 1.22734E-04-5.83711E-05-2.74106E-05-2.31268E-05 9.77476E-19-3.14069E-18
 -1      2988 1.31616E-04-5.84368E-05-3.16878E-05-1.45628E-05 4.62268E-19-3.91504E-18
 -1      2989 1.18471E-04-5.63865E-05-2.64219E-05-2.31396E-05 1.60846E-18-3.37717E-18
 -1      2990 7.97435E-05-4.01134E-05-1.70375E-05 3.83076E-05-1.89322E-18 1.41349E-18
 -1      2991 6.39657E-05-3.07478E-05-1.36568E-05 3.52523E-05-2.18894E-18 2.51145E-18
 -1      2992 4.96216E-05-2.27023E-05-1.12813E-05 3.03804E-05-2.10647E-18 2.97573E-18
 -1      2993 3.94882E-05-1.59790E-05-9.48874E-06 1.97496E-05-1.79576E-18 3.22931E-18
 -1      2994 1.20402E-04-5.45099E-05-2.86265E-05 2.11161E-05 3.70153E-19-1.65690E-18
 -1      2995 1.05442E-04-4.91361E-05-2.37475E-05 2.91995E-05 1.05816E-18-2.52910E-18
 -1      2996 1.00456E-04-4.42837E-05-2.37226E-05 2.74680E-05 1.61640E-18-2.76307E-18
 -1      2997 3.24657E-05-7.59367E-06-1.01906E-05 1.70120E-05 7.38189E-19-6.13252E-18
 -1      2998 2.76836E-05-3.76693E-06-9.90048E-06 3.47064E-06 5.11085E-19-6.40823E-18
 -1      2999 4.43289E-05-1.00533E-05-1.40526E-05 1.95081E-05 1.19437E-18-5.53102E-18
 -1      3000 8.51137E-05-1.79988E-05-2.88217E-05 7.40591E-06 9.08559E-20-3.41301E-18
 -1      3001 9.14462E-05-2.14111E-05-3.00157E-05 5.60372E-06-2.34612E-19-3.13722E-18
 -1      3002 8.34498E-05-1.92720E-05-2.75183E-05 1.06619E-05 3.64284E-19-3.32893E-18
 -1      3003 5.47948E-05-1.15059E-06-2.27976E-05-3.39352E-06 3.61498E-19-4.59962E-18
 -1      3004 5.55164E-05 1.77533E-07-2.38792E-05-5.74963E-07 4.91812E-19-4.55595E-18
 -1      3005 5.65309E-05-2.11809E-07-2.40452E-05 2.26439E-06 5.43054E-19-4.57733E-18
 -1      3006 1.37168E-04-4.67482E-05-3.90160E-05 7.79808E-06-1.05270E-18-4.48800E-18
 -1      3007 1.32466E-04-5.66415E-05-3.25181E-05-7.46438E-06 6.12325E-19-3.80429E-18
 -1      3008 1.30142E-04-2.15605E-05-4.70389E-05 1.32230E-05 4.05782E-18 1.41327E-18
 -1      3009 1.23840E-04-1.72762E-05-4.64471E-05 1.15348E-05 3.78031E-18 1.01273E-18
 -1      3010 1.26575E-04-2.58507E-05-4.33658E-05 1.44092E-05 3.15043E-18 2.02388E-18
 -1      3011 1.24781E-04-5.31550E-05-3.05863E-05 1.15515E-05 4.70103E-19-1.02560E-18
 -1      3012 5.00896E-05-1.41569E-05-1.48442E-05-2.64154E-05-1.06350E-18-5.14043E-18
 -1      3013 5.99607E-05-1.79640E-05-1.77921E-05-2.72187E-05-1.39776E-18-4.47710E-18
 -1      3014 4.56262E-05-8.01483E-06-1.58662E-05-1.91862E-05-6.21881E-19-5.19581E-18
 -1      3015 1.20069E-04-2.12879E-05-4.26500E-05-1.26898E-05-3.37691E-18-8.12675E-19
 -1      3016 1.29399E-04-2.84668E-05-4.37504E-05-1.56542E-05-3.36839E-18-5.25902E-19
 -1      3017 1.27673E-04-3.37618E-05-4.04302E-05-1.50365E-05-2.41479E-18-2.66127E-19
 -1      3018 1.17062E-04-2.53851E-05-3.93352E-05-1.34157E-05-2.42580E-18-3.48131E-19
 -1      3019 1.23738E-04-1.91756E-05-4.51614E-05-1.01373E-05 3.82160E-18-2.30785E-18
 -1      3020 1.19718E-04-3.12205E-05-3.82933E-05-1.56102E-05-1.99640E-18 7.65241E-20
 -1      3021 1.30421E-04-4.23118E-05-3.80301E-05 1.12980E-05-9.07066E-19-4.53049E-18
 -1      3022 1.22457E-04-4.02145E-05-3.52935E-05 1.22356E-05-6.96522E-19-3.86093E-18
 -1      3023 1.23127E-04-4.34035E-05-3.42055E-05 1.02827E-05-2.62706E-19-3.47170E-18
 -1      3024 1.31338E-04-4.93674E-05-3.51223E-05 6.11231E-06 5.90541E-20-4.60635E-18
 -1      3025 9.52429E-05-2.85813E-05-2.85693E-05-1.00110E-08 2.97461E-19 6.77771E-19
 -1      3026 9.52418E-05-2.85806E-05-2.85690E-05-9.56147E-09 8.93608E-19 1.44863E-18
 -1      3027 9.52407E-05-2.85795E-05-2.85691E-05-1.01281E-08-7.75659E-19 2.41107E-18
 -1      3028 1.12584E-04-2.46673E-05-3.77359E-05 1.12063E-05 2.08959E-18 5.07909E-19
 -1      3029 1.25132E-04-5.56300E-05-3.01465E-05 1.12789E-05-1.32722E-18-3.32610E-18
 -1      3030 1.22030E-04-5.71861E-05-2.77237E-05 2.01335E-05-1.29453E-18-2.85095E-18
 -1      3031 1.14297E-04-5.30513E-05-2.60295E-05 2.23748E-05-1.89619E-18-2.42844E-18
 -1      3032 1.34312E-04-4.73548E-05-3.72765E-05-7.52254E-06-1.38641E-18 2.14935E-20
 -1      3033 6.94245E-05-2.64374E-05-1.79391E-05 3.07116E-05 1.80672E-18-4.17439E-18
 -1      3034 9.52396E-05-2.85784E-05-2.85691E-05-1.04398E-08-1.14977E-18 2.17826E-19
 -1      3035 9.52383E-05-2.85771E-05-2.85691E-05-1.03914E-08-1.31362E-18-5.54213E-19
 -1      3036 9.52378E-05-2.85767E-05-2.85691E-05-1.14949E-08-1.41694E-18-7.60288E-19
 -1      3037 9.52404E-05-2.85791E-05-2.85692E-05-1.13742E-08-2.62985E-19 1.94396E-18
 -1      3038 1.31483E-04-3.56264E-05-4.12562E-05-1.18163E-05 2.37826E-18-3.33487E-18
 -1      3039 9.52386E-05-2.85774E-05-2.85691E-05 1.02208E-08 1.47813E-19-1.89926E-18
 -1      3040 6.27506E-05-2.73472E-05-1.45884E-05-3.06898E-05 2.06761E-18 2.72088E-18
 -1      3041 6.28589E-05-2.63020E-05-1.51160E-05 3.00411E-05-2.15877E-18 2.45978E-18
 -1      3042 1.22715E-04-1.06094E-05-4.83265E-05 1.71135E-06 4.67774E-18-5.84744E-19
 -1      3043 9.22197E-05-4.36634E-05-2.03725E-05 3.28202E-05-2.10170E-18 1.32111E-19
 -1      3044 1.34105E-04-5.15003E-05-3.54890E-05-9.29988E-07 1.61777E-19-3.41630E-18
 -1      3045 1.24546E-04-4.69444E-05-3.34020E-05 5.94934E-06-1.77917E-19-4.06500E-18
 -1      3046 3.56414E-05-3.67794E-06-1.30398E-05-2.67772E-06 1.87115E-19-6.10531E-18
 -1      3047 1.25244E-04-3.53288E-05-3.86507E-05-1.56606E-05-1.93663E-18 7.48036E-20
 -1      3048 6.00348E-05-2.87830E-06-2.46082E-05 6.42697E-06 6.26585E-19-4.34896E-18
 -1      3049 6.50052E-05-5.53596E-06-2.53465E-05 8.05385E-06 5.85414E-19-4.22401E-18
 -1      3050 6.85100E-05-1.01343E-05-2.49680E-05 1.12454E-05 6.40284E-19-4.01564E-18
 -1      3051 5.68528E-05-2.62924E-06-2.31610E-05 5.84584E-06 6.27981E-19-4.56228E-18
 -1      3052 1.37504E-04-4.02215E-05-4.20573E-05 9.52534E-06 2.23389E-18 1.13269E-18
 -1      3053 1.31755E-04-3.57182E-05-4.14747E-05 1.36998E-05 2.32680E-18 1.97967E-18
 -1      3054 1.35214E-04-4.43385E-05-3.92032E-05 6.93402E-06 1.44461E-18 1.24567E-18
 -1      3055 1.08520E-04-4.98237E-05-2.48993E-05-2.88001E-05-1.34699E-18-2.24779E-18
 -1      3056 1.16472E-04-5.19186E-05-2.78407E-05-2.15861E-05-1.25345E-18-1.19301E-18
 -1      3057 1.03517E-04-4.61866E-05-2.42843E-05-2.83192E-05-1.76119E-18-2.28132E-18
 -1      3058 4.33664E-05-1.41373E-05-1.18893E-05 1.31529E-05-1.14439E-18 2.66074E-18
 -1      3059 9.85465E-05-2.44432E-05-3.17524E-05 1.36208E-06-6.60324E-19-2.51122E-18
 -1      3060 1.33357E-04-5.37434E-05-3.41071E-05-1.04732E-05 1.66813E-19-6.34639E-19
 -1      3061 1.34746E-04-5.14468E-05-3.60169E-05-1.63515E-06 2.76794E-19 4.29657E-19
 -1      3062 1.27942E-04-5.39470E-05-3.15863E-05-1.31815E-05-4.25740E-19-3.61630E-19
 -1      3063 4.25982E-05-1.40110E-05-1.15894E-05-1.18000E-05 7.38375E-19 3.31804E-18
 -1      3064 9.30785E-05-4.52681E-05-2.01120E-05-3.37446E-05 2.05808E-18-8.47351E-19
 -1      3065 1.07844E-04-3.05078E-05-3.31604E-05 3.90748E-06 1.70798E-18-2.46176E-19
 -1      3066 1.08328E-04-3.29397E-05-3.23663E-05 1.99373E-06 1.39256E-18-3.15459E-19
 -1      3067 9.52384E-05-2.85772E-05-2.85691E-05 1.17381E-08-2.79975E-19-3.28260E-18
 -1      3068 9.52398E-05-2.85785E-05-2.85691E-05 1.08336E-08 1.50232E-19-1.48673E-18
 -1      3069 9.52406E-05-2.85792E-05-2.85692E-05 1.17128E-08 8.79418E-19-9.45640E-19
 -1      3070 9.52382E-05-2.85771E-05-2.85691E-05 1.27303E-08-7.56331E-21-3.41746E-18
 -1      3071 1.06389E-04-3.35601E-05-3.11916E-05-2.07951E-06 8.56522E-19-6.09037E-19
 -1      3072 1.02141E-04-3.15184E-05-3.01978E-05-5.11909E-06 5.13896E-19-1.02718E-18
 -1      3073 3.86158E-05-2.16565E-06-1.53305E-05 4.53612E-06 5.34120E-19-5.65035E-18
 -1      3074 3.99553E-05-2.65305E-06-1.56499E-05-8.49162E-06 9.09237E-21-5.66739E-18
 -1      3075 1.15264E-04-1.93887E-05-4.14073E-05-9.37175E-06 3.11750E-18-1.93845E-18
 -1      3076 1.18889E-04-2.58660E-05-4.00880E-05-1.35670E-05 2.73692E-18-2.79431E-18
 -1      3077 1.30967E-04-5.36971E-05-3.34026E-05-1.37297E-06 5.29882E-19-4.05168E-18
 -1      3078 1.27428E-04-5.01199E-05-3.31680E-05 2.79619E-06 4.35746E-19-4.33554E-18
 -1      3079 1.25317E-04-5.05459E-05-3.18783E-05-1.41628E-07 5.33366E-20-3.91892E-18
 -1      3080 1.27223E-04-5.57039E-05-3.04879E-05-9.41266E-06 1.17278E-18-3.92303E-18
 -1      3081 1.23351E-04-2.38211E-05-4.32202E-05 1.28670E-05-2.75646E-18-3.81842E-18
 -1      3082 1.12240E-04-4.43015E-05-2.91009E-05-9.06703E-06 1.08963E-19-1.53418E-18
 -1      3083 1.08739E-04-4.13691E-05-2.87410E-05-1.08172E-05 6.80942E-19-1.19559E-18
 -1      3084 1.05083E-04-3.81492E-05-2.86726E-05-1.12133E-05 5.46214E-19-1.00880E-18
 -1      3085 1.02397E-04-3.54570E-05-2.86166E-05-1.17492E-05 7.69357E-19-1.17419E-18
 -1      3086 1.03873E-04-3.95707E-05-2.77188E-05-1.41637E-05 6.09228E-19-1.58810E-18
 -1      3087 1.00312E-04-3.32119E-05-2.87332E-05-1.13076E-05 6.60069E-19-1.30079E-18
 -1      3088 9.85284E-05-3.13159E-05-2.87717E-05-1.12395E-05 4.46125E-19-1.30379E-18
 -1      3089 9.83502E-05-3.35290E-05-2.78691E-05-1.33634E-05 3.81413E-19-1.10898E-18
 -1      3090 9.74391E-05-2.98983E-05-2.89237E-05-1.05447E-05 4.01985E-19-1.47643E-18
 -1      3091 9.63507E-05-2.87105E-05-2.89759E-05-1.01659E-05-1.35602E-20-1.15155E-18
 -1      3092 9.53390E-05-2.96384E-05-2.82050E-05-1.18986E-05 4.24281E-19-1.30470E-18
 -1      3093 9.58816E-05-2.79266E-05-2.91053E-05-9.41595E-06-6.87107E-20-9.35133E-19
 -1      3094 9.52532E-05-2.72643E-05-2.91367E-05-8.89324E-06 2.93217E-19-9.08349E-19
 -1      3095 9.38840E-05-2.73450E-05-2.85387E-05-1.02859E-05 8.87000E-20-1.11626E-18
 -1      3096 9.51317E-05-2.69077E-05-2.92247E-05-8.17189E-06 1.45319E-19-9.01332E-19
 -1      3097 9.47821E-05-2.65939E-05-2.92277E-05-7.59911E-06 3.72199E-20-1.02734E-18
 -1      3098 9.33534E-05-2.61815E-05-2.87959E-05-8.74570E-06 4.82569E-20-1.43229E-18
 -1      3099 9.48364E-05-2.65010E-05-2.92755E-05-6.93551E-06 1.40237E-19-1.47482E-18
 -1      3100 9.46450E-05-2.64007E-05-2.92542E-05-6.36715E-06-2.47259E-19-1.70869E-18
 -1      3101 9.33167E-05-2.57402E-05-2.89623E-05-7.33990E-06-1.06314E-19-2.10358E-18
 -1      3102 9.47748E-05-2.64572E-05-2.92698E-05-5.77197E-06-4.93825E-19-1.28096E-18
 -1      3103 9.46690E-05-2.64779E-05-2.92321E-05-5.24007E-06-1.14671E-19-1.84977E-18
 -1      3104 9.35143E-05-2.57278E-05-2.90493E-05-6.08076E-06 6.94643E-21-2.18613E-18
 -1      3105 9.48192E-05-2.66089E-05-2.92252E-05-4.71708E-06 2.46885E-19-2.27008E-18
 -1      3106 9.47578E-05-2.66911E-05-2.91785E-05-4.23928E-06 8.74431E-20-2.13949E-18
 -1      3107 9.37990E-05-2.59477E-05-2.90761E-05-4.96914E-06-2.48864E-19-1.59817E-18
 -1      3108 9.49008E-05-2.68509E-05-2.91574E-05-3.78843E-06 4.12016E-19-2.02586E-18
 -1      3109 9.48620E-05-2.69585E-05-2.91079E-05-3.37266E-06 7.97298E-19-1.77060E-18
 -1      3110 9.40927E-05-2.62749E-05-2.90619E-05-4.00246E-06 5.24738E-19-1.23726E-18
 -1      3111 9.49859E-05-2.71205E-05-2.90792E-05-2.99115E-06 4.67071E-20-1.20465E-18
 -1      3112 9.49588E-05-2.72327E-05-2.90309E-05-2.63874E-06-7.82917E-19-1.05591E-18
 -1      3113 9.43586E-05-2.66339E-05-2.90224E-05-3.17547E-06 6.37213E-19-2.12266E-18
 -1      3114 9.50603E-05-2.73829E-05-2.89994E-05-2.32173E-06-1.35471E-18-6.60103E-19
 -1      3115 9.50396E-05-2.74885E-05-2.89550E-05-2.02972E-06-1.53520E-18-8.77813E-19
 -1      3116 9.45827E-05-2.69820E-05-2.89699E-05-2.48003E-06-6.05916E-19-1.50924E-18
 -1      3117 9.51195E-05-2.76205E-05-2.89238E-05-1.77094E-06-1.25267E-18-1.02704E-18
 -1      3118 9.51028E-05-2.77142E-05-2.88845E-05-1.53386E-06-3.62395E-19-1.10160E-18
 -1      3119 9.47631E-05-2.72973E-05-2.89126E-05-1.90529E-06-1.34033E-18-5.51848E-19
 -1      3120 9.51640E-05-2.78260E-05-2.88555E-05-1.32624E-06 5.70021E-19-1.41794E-18
 -1      3121 9.51503E-05-2.79061E-05-2.88218E-05-1.13735E-06 9.18446E-19-8.37488E-19
 -1      3122 9.49036E-05-2.75706E-05-2.88561E-05-1.43846E-06-1.21972E-19-1.03078E-18
 -1      3123 9.51959E-05-2.79981E-05-2.87960E-05-9.73607E-07 7.81084E-19-6.67691E-19
 -1      3124 9.51846E-05-2.80646E-05-2.87680E-05-8.25799E-07 3.32752E-19-5.83262E-19
 -1      3125 9.50100E-05-2.78000E-05-2.88038E-05-1.06570E-06 1.09218E-18-1.04270E-18
 -1      3126 9.52178E-05-2.81387E-05-2.87457E-05-6.98859E-07-2.66873E-19-3.00472E-19
 -1      3127 9.52086E-05-2.81926E-05-2.87229E-05-5.85248E-07-4.85031E-19-4.88785E-20
 -1      3128 9.50888E-05-2.79878E-05-2.87573E-05-7.73093E-07 4.44896E-19-1.29553E-18
 -1      3129 9.52322E-05-2.82511E-05-2.87042E-05-4.88553E-07-6.24774E-19 1.35105E-19
 -1      3130 9.52248E-05-2.82939E-05-2.86860E-05-4.02809E-07-7.02505E-20 5.48273E-19
 -1      3131 9.51456E-05-2.81383E-05-2.87173E-05-5.47326E-07-4.26402E-19 1.23026E-19
 -1      3132 9.52410E-05-2.83393E-05-2.86707E-05-3.30504E-07-6.69352E-19-7.00671E-21
 -1      3133 9.52353E-05-2.83727E-05-2.86563E-05-2.67033E-07-1.08992E-18 1.65022E-19
 -1      3134 9.51857E-05-2.82567E-05-2.86838E-05-3.76206E-07-7.39578E-19 6.15369E-19
 -1      3135 9.52461E-05-2.84072E-05-2.86441E-05-2.14044E-07-1.16716E-18-1.24663E-19
 -1      3136 9.52417E-05-2.84328E-05-2.86331E-05-1.68052E-07-2.77645E-19 5.62416E-19
 -1      3137 9.52130E-05-2.83481E-05-2.86565E-05-2.48938E-07-9.69536E-19 3.40885E-19
 -1      3138 9.52485E-05-2.84586E-05-2.86234E-05-1.30090E-07-3.10303E-19 2.55195E-19
 -1      3139 9.52452E-05-2.84778E-05-2.86150E-05-9.75704E-08-1.28372E-18-3.41332E-19
 -1      3140 9.52309E-05-2.84174E-05-2.86345E-05-1.56228E-07-8.96011E-19-2.68114E-19
 -1      3141 9.52492E-05-2.84967E-05-2.86076E-05-7.10908E-08-1.39954E-18 2.47080E-19
 -1      3142 9.52467E-05-2.85109E-05-2.86014E-05-4.87672E-08-3.90635E-19-4.02758E-19
 -1      3143 9.52421E-05-2.84689E-05-2.86172E-05-9.02724E-08-9.55880E-19-7.43681E-19
 -1      3144 9.52488E-05-2.85244E-05-2.85957E-05-3.08990E-08 2.47706E-19-5.19317E-19
 -1      3145 9.52470E-05-2.85346E-05-2.85912E-05-1.61434E-08 6.03891E-19-8.64482E-19
 -1      3146 9.52485E-05-2.85065E-05-2.86038E-05-4.46570E-08-3.79176E-19 6.69112E-19
 -1      3147 9.52478E-05-2.85440E-05-2.85870E-05-4.60396E-09 9.24896E-19-1.53496E-18
 -1      3148 9.52466E-05-2.85512E-05-2.85838E-05 4.65230E-09 8.03189E-19-1.60501E-18
 -1      3149 9.52516E-05-2.85332E-05-2.85937E-05-1.42121E-08-1.59941E-19-1.98835E-18
 -1      3150 9.52465E-05-2.85576E-05-2.85807E-05 1.16445E-08 2.42609E-19-2.51100E-18
 -1      3151 9.52457E-05-2.85625E-05-2.85786E-05 1.70005E-08-5.28018E-19-3.37306E-18
 -1      3152 9.52525E-05-2.85517E-05-2.85861E-05 5.15037E-09-9.49330E-21-2.39162E-18
 -1      3153 9.52451E-05-2.85666E-05-2.85764E-05 2.08107E-08-5.25796E-19-3.17923E-18
 -1      3154 9.52446E-05-2.85698E-05-2.85749E-05 2.34797E-08-3.65280E-19-2.56806E-18
 -1      3155 9.52520E-05-2.85641E-05-2.85806E-05 1.66055E-08-5.91239E-19-2.80980E-18
 -1      3156 9.52437E-05-2.85722E-05-2.85734E-05 2.51343E-08-3.31774E-19-1.75258E-18
 -1      3157 9.52434E-05-2.85743E-05-2.85725E-05 2.60181E-08-5.30325E-19-2.31073E-18
 -1      3158 9.52507E-05-2.85719E-05-2.85767E-05 2.25730E-08-2.20431E-19-1.25998E-18
 -1      3159 9.52425E-05-2.85756E-05-2.85715E-05 2.62724E-08-5.61339E-19-1.95815E-18
 -1      3160 9.52423E-05-2.85767E-05-2.85709E-05 2.60260E-08-1.20119E-18-1.50286E-18
 -1      3161 9.52490E-05-2.85765E-05-2.85740E-05 2.48612E-08-5.20879E-19-8.43760E-19
 -1      3162 9.52413E-05-2.85773E-05-2.85703E-05 2.54215E-08-1.11323E-18-1.21471E-18
 -1      3163 9.52413E-05-2.85779E-05-2.85700E-05 2.45070E-08-6.91702E-19-7.75815E-19
 -1      3164 9.52472E-05-2.85790E-05-2.85721E-05 2.47905E-08-1.66287E-19 4.36906E-20
 -1      3165 9.52404E-05-2.85780E-05-2.85696E-05 2.34202E-08-1.21686E-18-1.60192E-18
 -1      3166 9.52404E-05-2.85782E-05-2.85695E-05 2.21511E-08-1.97761E-19-1.80500E-18
 -1      3167 9.52454E-05-2.85799E-05-2.85709E-05 2.33000E-08-4.89552E-19 2.21187E-19
 -1      3168 9.52396E-05-2.85780E-05-2.85693E-05 2.08317E-08 3.51015E-19-1.99548E-18
 -1      3169 9.52397E-05-2.85780E-05-2.85693E-05 1.94088E-08 3.86156E-19-2.43111E-18
 -1      3170 9.52437E-05-2.85800E-05-2.85702E-05 2.10335E-08-1.82277E-19-2.74971E-18
 -1      3171 9.52390E-05-2.85778E-05-2.85691E-05 1.80142E-08 3.27710E-19-1.95257E-18
 -1      3172 9.52391E-05-2.85777E-05-2.85692E-05 1.65496E-08 2.29978E-19-1.91876E-18
 -1      3173 9.52423E-05-2.85797E-05-2.85697E-05 1.84126E-08 5.42083E-19-2.33324E-18
 -1      3174 9.52385E-05-2.85774E-05-2.85691E-05 1.53662E-08-2.98235E-19-2.39085E-18
 -1      3175 9.52387E-05-2.85774E-05-2.85691E-05 1.38987E-08-1.41863E-19-3.03237E-18
 -1      3176 9.52400E-05-2.85785E-05-2.85692E-05 1.35521E-08-2.29702E-19-2.32524E-18
 -1      3177 9.52410E-05-2.85791E-05-2.85694E-05 1.58927E-08 3.49341E-19-1.47285E-18
 -1      3178 1.26647E-04-5.19762E-05-3.22380E-05 4.23969E-06 1.54544E-19-4.67774E-19
 -1      3179 1.18774E-04-5.06135E-05-2.88355E-05 1.45007E-05 1.07766E-18-1.31628E-18
 -1      3180 1.30162E-04-4.14070E-05-3.84768E-05-1.38155E-05-1.69184E-18-1.36055E-19
 -1      3181 1.21477E-04-3.23221E-05-3.84921E-05-1.38316E-05 1.91948E-18-2.76309E-18
 -1      3182 1.13916E-04-1.60716E-05-4.21966E-05-4.29079E-06 2.88558E-18-1.28919E-18
 -1      3183 1.17604E-04-4.44877E-05-3.12684E-05-1.78286E-06-3.65662E-19-1.87283E-18
 -1      3184 1.18970E-04-4.42434E-05-3.20450E-05-4.63775E-06-5.32911E-20-2.24186E-18
 -1      3185 1.12078E-04-4.15853E-05-3.01210E-05 3.68388E-06-2.84682E-20-1.07242E-18
 -1      3186 1.14184E-04-4.31467E-05-3.05189E-05 1.39595E-06-1.28350E-19-1.59328E-18
 -1      3187 1.16331E-04-4.57562E-05-3.03840E-05 2.66482E-06-4.70414E-19-1.60195E-18
 -1      3188 1.06874E-04-3.75437E-05-2.96341E-05 6.73264E-06-4.16337E-20-5.00517E-19
 -1      3189 1.08915E-04-3.94184E-05-2.98079E-05 5.33144E-06 1.88495E-19-5.21435E-19
 -1      3190 1.09637E-04-4.11850E-05-2.93451E-05 6.81739E-06-1.26069E-19-7.62197E-19
 -1      3191 1.02776E-04-3.38381E-05-2.94966E-05 8.09267E-06 7.34090E-20-2.51557E-19
 -1      3192 1.04466E-04-3.55307E-05-2.95569E-05 7.43737E-06 6.06323E-20-4.14792E-19
 -1      3193 1.04124E-04-3.67616E-05-2.89634E-05 9.05121E-06-2.46237E-19-6.98017E-19
 -1      3194 9.99426E-05-3.10749E-05-2.94874E-05 8.28143E-06-2.44470E-19 1.38228E-20
 -1      3195 1.01189E-04-3.23234E-05-2.95133E-05 8.13441E-06 6.86101E-20-1.95033E-19
 -1      3196 1.00196E-04-3.27875E-05-2.89466E-05 9.45640E-06 1.02406E-19 1.45407E-19
 -1      3197 9.81149E-05-2.92535E-05-2.94986E-05 7.81786E-06 1.34376E-19-9.21632E-20
 -1      3198 9.89817E-05-3.00761E-05-2.95247E-05 7.98531E-06-1.50003E-20 7.44946E-20
 -1      3199 9.77132E-05-3.00310E-05-2.90403E-05 9.00264E-06-1.34098E-19-3.83713E-19
 -1      3200 9.69873E-05-2.81741E-05-2.94866E-05 7.02056E-06-6.44315E-19 2.12267E-19
 -1      3201 9.75781E-05-2.86665E-05-2.95253E-05 7.36396E-06-2.29053E-19 2.38280E-21
 -1      3202 9.62644E-05-2.83170E-05-2.91388E-05 8.13891E-06-2.46469E-19-6.70949E-19
 -1      3203 9.63110E-05-2.76152E-05-2.94413E-05 6.08354E-06-6.68965E-19 5.18608E-19
 -1      3204 9.67150E-05-2.78773E-05-2.94931E-05 6.50844E-06-6.13875E-19 5.38185E-19
 -1      3205 9.54858E-05-2.73722E-05-2.92009E-05 7.11170E-06-8.41343E-19-2.14765E-19
 -1      3206 9.59112E-05-2.73924E-05-2.93680E-05 5.12550E-06-4.76102E-19 1.16490E-18
 -1      3207 9.61926E-05-2.75060E-05-2.94286E-05 5.57030E-06-6.07026E-19 1.17972E-18
 -1      3208 9.51121E-05-2.69465E-05-2.92181E-05 6.05404E-06-9.13256E-19 4.17758E-19
 -1      3209 9.56746E-05-2.73707E-05-2.92771E-05 4.21695E-06 3.25618E-19 1.37734E-18
 -1      3210 9.58759E-05-2.73947E-05-2.93410E-05 4.64363E-06 1.08080E-19 1.65499E-18
 -1      3211 9.49672E-05-2.68450E-05-2.91968E-05 5.04128E-06-3.26777E-19 1.09631E-18
 -1      3212 9.55323E-05-2.74586E-05-2.91786E-05 3.39663E-06-3.73068E-19 1.73421E-18
 -1      3213 9.56802E-05-2.74328E-05-2.92414E-05 3.78375E-06 2.64378E-19 1.60419E-18
 -1      3214 9.49417E-05-2.69294E-05-2.91486E-05 4.11527E-06-1.40110E-19 2.41325E-18
 -1      3215 9.54439E-05-2.75978E-05-2.90808E-05 2.68235E-06-1.34859E-18 2.23192E-18
 -1      3216 9.55548E-05-2.75476E-05-2.91392E-05 3.01979E-06-1.00017E-18 1.90498E-18
 -1      3217 9.49716E-05-2.71081E-05-2.90844E-05 3.29708E-06-6.43165E-19 2.33687E-18
 -1      3218 9.53864E-05-2.77529E-05-2.89892E-05 2.07812E-06-1.05746E-18 1.32776E-18
 -1      3219 9.54707E-05-2.76938E-05-2.90413E-05 2.36323E-06-8.36654E-19 1.52366E-18
 -1      3220 9.50220E-05-2.73235E-05-2.90136E-05 2.59404E-06-8.93589E-19 2.43018E-18
 -1      3221 9.53471E-05-2.79041E-05-2.89070E-05 1.57936E-06-1.02854E-18 7.17927E-19
 -1      3222 9.54116E-05-2.78450E-05-2.89520E-05 1.81410E-06-1.12312E-18 5.49172E-19
 -1      3223 9.50748E-05-2.75418E-05-2.89428E-05 2.00431E-06-7.18732E-19 1.23896E-18
 -1      3224 9.53190E-05-2.80410E-05-2.88358E-05 1.17648E-06-1.16800E-19 5.03939E-19
 -1      3225 9.53682E-05-2.79865E-05-2.88736E-05 1.36544E-06-9.86532E-19 3.42912E-19
 -1      3226 9.51218E-05-2.77443E-05-2.88762E-05 1.52017E-06-1.00534E-18-2.05293E-19
 -1      3227 9.52983E-05-2.81592E-05-2.87758E-05 8.57519E-07 9.90446E-19 5.55478E-19
 -1      3228 9.53355E-05-2.81115E-05-2.88068E-05 1.00652E-06 8.11092E-19 6.57415E-19
 -1      3229 9.51602E-05-2.79222E-05-2.88165E-05 1.13053E-06 9.79806E-20-5.57901E-19
 -1      3230 9.52825E-05-2.82577E-05-2.87263E-05 6.09797E-07 9.88860E-19 5.33822E-19
 -1      3231 9.53104E-05-2.82176E-05-2.87512E-05 7.25001E-07 1.15484E-18 1.03236E-18
 -1      3232 9.51896E-05-2.80728E-05-2.87646E-05 8.22837E-07 8.60149E-19 2.74302E-19
 -1      3233 9.52705E-05-2.83378E-05-2.86865E-05 4.21047E-07 1.30520E-18 2.65074E-19
 -1      3234 9.52911E-05-2.83049E-05-2.87061E-05 5.08388E-07 1.23153E-18 4.90479E-19
 -1      3235 9.52111E-05-2.81964E-05-2.87209E-05 5.84314E-07 1.07945E-18 1.31485E-18
 -1      3236 9.52612E-05-2.84013E-05-2.86551E-05 2.80046E-07-5.27759E-19 8.74361E-19
 -1      3237 9.52762E-05-2.83749E-05-2.86702E-05 3.44929E-07 3.05192E-19 5.66377E-19
 -1      3238 9.52261E-05-2.82954E-05-2.86849E-05 4.02840E-07 2.86139E-19 1.31691E-18
 -1      3239 9.52542E-05-2.84506E-05-2.86307E-05 1.76932E-07-2.56984E-19 3.19769E-19
 -1      3240 9.52648E-05-2.84299E-05-2.86422E-05 2.24080E-07-2.54605E-20 9.83078E-19
 -1      3241 9.52361E-05-2.83731E-05-2.86559E-05 2.67441E-07-2.45430E-19 1.45406E-18
 -1      3242 9.52489E-05-2.84881E-05-2.86122E-05 1.03303E-07-1.04662E-18-4.40965E-19
 -1      3243 9.52562E-05-2.84723E-05-2.86207E-05 1.36716E-07-8.83577E-19 7.02323E-19
 -1      3244 9.52423E-05-2.84328E-05-2.86329E-05 1.68535E-07-3.74481E-19 1.21932E-18
 -1      3245 9.52450E-05-2.85161E-05-2.85984E-05 5.21866E-08-7.62717E-19-1.23653E-18
 -1      3246 9.52498E-05-2.85042E-05-2.86046E-05 7.51692E-08-1.08803E-18-1.21237E-18
 -1      3247 9.52457E-05-2.84777E-05-2.86151E-05 9.79906E-08-6.74933E-19 5.86754E-19
 -1      3248 9.52421E-05-2.85365E-05-2.85883E-05 1.79242E-08-2.91399E-19-1.21276E-18
 -1      3249 9.52452E-05-2.85277E-05-2.85927E-05 3.31426E-08-6.83009E-19-9.95855E-19
 -1      3250 9.52472E-05-2.85108E-05-2.86015E-05 4.90770E-08-7.04074E-19-7.85871E-19
 -1      3251 9.52401E-05-2.85510E-05-2.85812E-05-3.98498E-09-4.27162E-19-1.22435E-18
 -1      3252 9.52419E-05-2.85446E-05-2.85842E-05 5.57922E-09-2.19549E-20-7.29406E-19
 -1      3253 9.52475E-05-2.85346E-05-2.85914E-05 1.63401E-08-3.52931E-19-1.83000E-18
 -1      3254 9.52387E-05-2.85610E-05-2.85762E-05-1.70513E-08-9.07709E-19 2.36905E-19
 -1      3255 9.52396E-05-2.85566E-05-2.85782E-05-1.15043E-08-1.15008E-18-5.04400E-19
 -1      3256 9.52470E-05-2.85513E-05-2.85840E-05-4.55151E-09-1.22873E-18-1.05045E-18
 -1      3257 9.52377E-05-2.85677E-05-2.85729E-05-2.39608E-08-7.65380E-19 1.55485E-18
 -1      3258 9.52380E-05-2.85646E-05-2.85741E-05-2.11853E-08-8.22135E-19 9.50057E-19
 -1      3259 9.52460E-05-2.85626E-05-2.85787E-05-1.69725E-08-1.54633E-18 4.18938E-19
 -1      3260 9.52371E-05-2.85719E-05-2.85708E-05-2.67272E-08-2.12899E-18 2.72447E-18
 -1      3261 9.52370E-05-2.85699E-05-2.85715E-05-2.57951E-08-1.45758E-18 1.71581E-18
 -1      3262 9.52449E-05-2.85699E-05-2.85751E-05-2.35022E-08-1.40474E-18 2.10519E-18
 -1      3263 9.52368E-05-2.85744E-05-2.85696E-05-2.68270E-08-7.37741E-19 1.02148E-18
 -1      3264 9.52365E-05-2.85732E-05-2.85699E-05-2.70628E-08-1.60747E-18 2.05250E-18
 -1      3265 9.52436E-05-2.85744E-05-2.85726E-05-2.60724E-08-1.56094E-18 1.80662E-18
 -1      3266 9.52366E-05-2.85757E-05-2.85690E-05-2.53136E-08 1.75039E-18 1.62162E-18
 -1      3267 9.52362E-05-2.85750E-05-2.85691E-05-2.62399E-08 5.73262E-19 1.91728E-18
 -1      3268 9.52425E-05-2.85768E-05-2.85710E-05-2.60977E-08-7.97063E-20 1.18805E-18
 -1      3269 9.52366E-05-2.85762E-05-2.85687E-05-2.29127E-08 2.49304E-18 6.89144E-19
 -1      3270 9.52361E-05-2.85759E-05-2.85687E-05-2.42051E-08 2.43881E-18 9.18484E-19
 -1      3271 9.52414E-05-2.85780E-05-2.85701E-05-2.45857E-08 2.02633E-18 1.15960E-18
 -1      3272 9.52367E-05-2.85763E-05-2.85687E-05-2.00989E-08 1.05855E-18 1.01750E-18
 -1      3273 9.52361E-05-2.85762E-05-2.85686E-05-2.15500E-08 2.23922E-18 1.11630E-18
 -1      3274 9.52405E-05-2.85783E-05-2.85695E-05-2.22300E-08 1.67607E-18 2.21554E-18
 -1      3275 9.52368E-05-2.85762E-05-2.85688E-05-1.71594E-08 1.47799E-19-8.44193E-20
 -1      3276 9.52363E-05-2.85762E-05-2.85686E-05-1.86469E-08 7.67541E-19 3.58223E-20
 -1      3277 9.52397E-05-2.85781E-05-2.85693E-05-1.94800E-08 9.44412E-19 2.47547E-18
 -1      3278 9.52371E-05-2.85762E-05-2.85689E-05-1.42509E-08 2.07627E-19-1.32288E-18
 -1      3279 9.52366E-05-2.85761E-05-2.85688E-05-1.57049E-08-5.32222E-19-1.61913E-18
 -1      3280 9.52392E-05-2.85778E-05-2.85692E-05-1.66150E-08 8.38098E-19-9.67058E-19
 -1      3281 9.52377E-05-2.85766E-05-2.85691E-05-1.23182E-08-6.97700E-19-1.08456E-18
 -1      3282 9.52371E-05-2.85762E-05-2.85690E-05-1.33909E-08 4.89520E-20-1.44365E-18
 -1      3283 9.52390E-05-2.85777E-05-2.85691E-05-1.42716E-08 3.80641E-20-1.68222E-18
 -1      3284 9.52391E-05-2.85778E-05-2.85691E-05-1.24990E-08-1.27036E-18-7.08500E-19
 -1      3285 6.23661E-05-1.09026E-05-2.18215E-05-1.74624E-05-4.64139E-19-4.11782E-18
 -1      3286 5.46571E-05-6.28868E-06-2.06540E-05-1.47168E-05-3.26147E-19-4.53324E-18
 -1      3287 9.52431E-05-2.85810E-05-2.85695E-05 1.14768E-08 6.83960E-19 7.39749E-19
 -1      3288 9.52445E-05-2.85821E-05-2.85695E-05 1.04048E-08 4.59578E-19 2.13982E-19
 -1      3289 7.83741E-05-2.98070E-05-2.08839E-05 2.89862E-05 1.67109E-18-3.53663E-18
 -1      3290 6.35676E-05-1.97111E-05-1.83946E-05 2.63600E-05 1.66463E-18-4.21812E-18
 -1      3291 9.52484E-05-2.85853E-05-2.85699E-05 1.05438E-09 3.62754E-19-2.23405E-18
 -1      3292 9.52484E-05-2.85853E-05-2.85699E-05-9.86762E-10 6.72564E-19-1.93536E-18
 -1      3293 1.13776E-04-1.54518E-05-4.25095E-05 1.76199E-06 3.04180E-18-5.65011E-19
 -1      3294 9.52458E-05-2.85832E-05-2.85697E-05 8.82685E-09 7.91219E-20-2.08585E-19
 -1      3295 9.52468E-05-2.85840E-05-2.85697E-05 7.21747E-09-5.27590E-19 6.34787E-19
 -1      3296 9.52461E-05-2.85830E-05-2.85699E-05 1.04325E-08-2.01805E-19 4.15208E-19
 -1      3297 1.21135E-04-4.34018E-05-3.34603E-05-8.73090E-06 3.49891E-19-2.61890E-18
 -1      3298 1.20539E-04-4.00170E-05-3.44913E-05-1.12052E-05 8.00168E-19-2.71286E-18
 -1      3299 1.22452E-04-4.64811E-05-3.25828E-05-4.38181E-06-1.36081E-19-2.54720E-18
 -1      3300 1.19519E-04-3.22515E-05-3.74486E-05 1.45617E-05 2.17513E-18 1.47025E-18
 -1      3301 1.21532E-04-3.73352E-05-3.62709E-05 1.41989E-05 1.35708E-18 1.67705E-18
 -1      3302 5.97725E-05-2.22687E-05-1.56673E-05-2.56146E-05 1.77816E-18 2.77054E-18
 -1      3303 7.21958E-05-3.09849E-05-1.76678E-05-3.15135E-05 2.09905E-18 1.48077E-18
 -1      3304 1.20428E-04-4.92074E-05-3.05791E-05-4.06934E-06-2.35819E-19-2.96082E-18
 -1      3305 1.16704E-04-4.71035E-05-2.96699E-05-7.29600E-06-2.31611E-20-2.30371E-18
 -1      3306 1.11948E-04-4.60039E-05-2.82832E-05-1.22654E-05 5.96377E-19-1.70710E-18
 -1      3307 1.21505E-04-5.17369E-05-3.00781E-05-7.66597E-06 5.40576E-19-3.09635E-18
 -1      3308 1.19744E-04-4.62482E-05-3.13653E-05 2.77685E-06 4.97958E-19-8.47817E-19
 -1      3309 1.23186E-04-4.82466E-05-3.22026E-05 3.70418E-07 2.34524E-19-6.48169E-19
 -1      3310 1.30351E-04-4.70796E-05-3.57478E-05-7.47447E-06-1.07900E-18 5.87629E-21
 -1      3311 1.15188E-04-2.00507E-05-4.10240E-05 1.10425E-05 2.53845E-18 9.18607E-19
 -1      3312 1.18025E-04-2.58536E-05-3.98364E-05 1.38768E-05 2.58708E-18 1.11656E-18
 -1      3313 7.14834E-05-2.88968E-05-1.83095E-05 2.94806E-05-2.07560E-18 1.97083E-18
 -1      3314 6.04778E-05-2.11487E-05-1.63685E-05 2.38670E-05-1.83068E-18 2.63840E-18
 -1      3315 9.52476E-05-2.85847E-05-2.85698E-05 5.19991E-09-3.57627E-19-2.16188E-19
 -1      3316 9.52481E-05-2.85851E-05-2.85698E-05 3.30273E-09-7.79391E-20-1.20277E-18
 -1      3317 9.52496E-05-2.85856E-05-2.85703E-05 2.34349E-09 6.84025E-19-1.77092E-18
 -1      3318 9.52484E-05-2.85848E-05-2.85702E-05 6.72435E-09-3.96557E-19 1.38049E-19
 -1      3319 4.99289E-05-1.57524E-05-1.45293E-05 1.75568E-05-1.24239E-18 2.39700E-18
 -1      3320 4.47151E-05-1.20216E-05-1.36095E-05 6.24693E-06-2.69343E-19 2.02695E-18
 -1      3321 7.75917E-05-2.93453E-05-2.02992E-05-3.04467E-05-1.51921E-18-3.54939E-18
 -1      3322 9.03246E-05-3.80637E-05-2.22567E-05-3.03415E-05-1.75225E-18-2.83661E-18
 -1      3323 8.71165E-05-3.97774E-05-1.99163E-05-3.19519E-05 2.34422E-18-8.41104E-19
 -1      3324 1.01613E-04-4.83836E-05-2.29943E-05-2.97097E-05 2.11816E-18-2.56235E-18
 -1      3325 1.12553E-04-5.24705E-05-2.53424E-05-2.38292E-05 1.96329E-18-3.27106E-18
 -1      3326 1.20877E-04-5.58272E-05-2.80418E-05-1.77725E-05 1.50335E-18-3.82543E-18
 -1      3327 1.22077E-04-5.38701E-05-2.92587E-05-1.15398E-05 1.26324E-18-3.53787E-18
 -1      3328 1.05859E-04-4.82302E-05-2.47105E-05-2.44320E-05 1.77798E-18-2.72688E-18
 -1      3329 1.12427E-04-3.68406E-05-3.23450E-05 2.74636E-06 9.85520E-19-7.80573E-20
 -1      3330 1.09153E-04-3.48993E-05-3.18037E-05 6.31494E-07 1.01249E-18-2.56926E-19
 -1      3331 1.10618E-04-3.78685E-05-3.12282E-05-1.38256E-06 6.68835E-19-2.16371E-19
 -1      3332 1.14285E-04-3.91183E-05-3.22870E-05 3.51245E-06 8.10250E-19 1.25529E-19
 -1      3333 1.00671E-04-4.65052E-05-2.33173E-05 2.86101E-05-2.01848E-18-1.11215E-18
 -1      3334 8.62434E-05-3.75161E-05-2.04728E-05 3.03452E-05-2.11719E-18 3.07658E-19
 -1      3335 1.31046E-04-4.76110E-05-3.61762E-05-6.33632E-06 3.87478E-19-3.28048E-18
 -1      3336 1.30374E-04-5.24796E-05-3.31961E-05 8.35449E-07-5.76168E-19-3.41868E-18
 -1      3337 9.85030E-05-2.67252E-05-3.06822E-05 4.41810E-06-3.05489E-19-2.41681E-18
 -1      3338 4.40739E-05-1.19374E-05-1.34762E-05-4.85397E-06 1.85954E-19 2.63597E-18
 -1      3339 4.93440E-05-1.57887E-05-1.41921E-05-1.75641E-05 9.20195E-19 3.31656E-18
 -1      3340 1.06787E-04-4.63239E-05-2.61838E-05 2.23527E-05 1.37087E-18-2.17449E-18
 -1      3341 9.40784E-05-3.85348E-05-2.33453E-05 2.63938E-05 1.81628E-18-2.83097E-18
 -1      3342 5.25636E-05-1.15425E-05-1.73720E-05 2.16239E-05 1.33106E-18-4.74730E-18
 -1      3343 4.40336E-05-5.29097E-06-1.62394E-05 1.32140E-05 1.06361E-18-5.32524E-18
 -1      3344 1.28642E-04-4.96275E-05-3.38564E-05-3.74234E-06-2.51039E-19-2.20546E-19
 -1      3345 4.94449E-05-1.42535E-06-2.05184E-05-5.38969E-06 2.26697E-19-4.83230E-18
 -1      3346 4.85834E-05-6.95513E-07-2.03276E-05-3.06505E-07 4.90662E-19-4.97388E-18
 -1      3347 1.08329E-04-4.84386E-05-2.55499E-05 2.16742E-05-1.86424E-18-2.14845E-18
 -1      3348 6.01402E-05-1.93096E-05-1.70579E-05-1.93525E-05 1.41531E-18 2.45306E-18
 -1      3349 8.25803E-05-3.25191E-05-2.12092E-05 2.60205E-05-1.80280E-18 9.74101E-19
 -1      3350 1.27834E-04-3.44782E-05-4.04449E-05 1.44446E-05 2.48715E-18 2.20869E-18
 -1      3351 1.23608E-04-2.96283E-05-4.05058E-05 1.51042E-05 2.60807E-18 1.83838E-18
 -1      3352 6.41748E-05-1.00581E-05-2.32313E-05 1.38185E-05 9.61050E-19-4.05798E-18
 -1      3353 7.25110E-05-1.48647E-05-2.44705E-05 1.52115E-05 8.67322E-19-3.76247E-18
 -1      3354 1.28408E-04-3.83851E-05-3.87267E-05 1.37057E-05 1.75047E-18 2.02642E-18
 -1      3355 5.08141E-05-1.28742E-05-1.58033E-05 1.58901E-07 1.42206E-19 2.31092E-18
 -1      3356 1.13204E-04-4.15868E-05-3.07284E-05 4.43046E-06 3.15652E-19-1.51956E-18
 -1      3357 1.14109E-04-4.50149E-05-2.97356E-05 9.09534E-06 7.79987E-19-1.37021E-18
 -1      3358 1.09982E-04-3.80902E-05-3.06113E-05 5.12676E-06 3.19669E-19-1.67868E-18
 -1      3359 9.52445E-05-2.85821E-05-2.85695E-05-1.04016E-08-1.03784E-18-2.18601E-18
 -1      3360 9.52431E-05-2.85810E-05-2.85695E-05-1.14679E-08-9.31626E-19 3.03934E-18
 -1      3361 6.05702E-05-1.86395E-05-1.76613E-05 1.80296E-05-1.01816E-18 2.02759E-18
 -1      3362 1.25791E-04-5.24870E-05-3.12827E-05 4.98298E-06-1.06270E-18-2.82642E-18
 -1      3363 8.74658E-05-3.23400E-05-2.34095E-05 2.42004E-05 1.59414E-18-3.16052E-18
 -1      3364 7.32317E-05-1.65792E-05-2.43847E-05-1.72219E-05-5.09193E-19-3.29763E-18
 -1      3365 6.72784E-05-1.76461E-05-2.10716E-05-2.28347E-05-7.99837E-19-3.90220E-18
 -1      3366 9.52468E-05-2.85840E-05-2.85697E-05-7.21360E-09-4.84426E-19-9.46985E-19
 -1      3367 9.52458E-05-2.85832E-05-2.85697E-05-8.82019E-09-8.47244E-19-1.86473E-18
 -1      3368 9.52461E-05-2.85830E-05-2.85699E-05-1.04172E-08-8.30111E-19-2.05059E-18
 -1      3369 1.24727E-04-4.09668E-05-3.59456E-05 1.18594E-05 9.56472E-19 1.64094E-18
 -1      3370 1.21108E-04-4.05258E-05-3.45959E-05 1.13267E-05 7.37077E-19 1.34861E-18
 -1      3371 1.21045E-04-4.23950E-05-3.37326E-05 9.20058E-06 5.08676E-19 1.16394E-18
 -1      3372 6.26414E-05-1.49539E-05-2.01201E-05 2.07142E-05 1.39485E-18-4.30544E-18
 -1      3373 1.20299E-04-1.48880E-05-4.55556E-05 5.43490E-06 3.77406E-18 2.24146E-19
 -1      3374 9.52481E-05-2.85851E-05-2.85698E-05-3.25196E-09 5.50683E-19-8.16783E-19
 -1      3375 9.52476E-05-2.85847E-05-2.85698E-05-5.18395E-09 4.09493E-19-1.51378E-18
 -1      3376 9.52484E-05-2.85848E-05-2.85702E-05-6.70025E-09 3.05324E-20-4.92190E-20
 -1      3377 9.52496E-05-2.85857E-05-2.85703E-05-2.28770E-09 5.44362E-19-9.99477E-19
 -1      3378 1.18600E-04-4.19668E-05-3.29022E-05 6.73503E-06 5.28198E-19 6.80379E-19
 -1      3379 1.17126E-04-4.11411E-05-3.25253E-05 4.83067E-06 5.22833E-19 3.40756E-19
 -1      3380 1.15886E-04-4.10528E-05-3.20881E-05 2.62775E-06 4.55774E-19 1.95258E-19
 -1      3381 1.21274E-04-4.38243E-05-3.32014E-05 6.14759E-06 1.80358E-19 6.70938E-19
 -1      3382 9.69640E-05-2.94303E-05-2.89001E-05-9.68012E-06 1.75366E-19-1.64171E-18
 -1      3383 9.02484E-05-2.58567E-05-2.76294E-05-1.25542E-05-1.26970E-19-2.11584E-18
 -1      3384 1.03093E-04-3.46417E-05-2.93075E-05-8.55747E-06 9.07682E-20-1.03468E-18
 -1      3385 8.33667E-05-3.46571E-05-2.05224E-05-2.80008E-05 2.21536E-18-9.88646E-20
 -1      3386 1.26161E-04-3.71839E-05-3.83735E-05-1.24054E-05 1.63133E-18-3.41900E-18
 -1      3387 1.29509E-04-4.58106E-05-3.61619E-05-8.79661E-06 6.35116E-19-3.45169E-18
 -1      3388 9.86508E-05-4.17057E-05-2.41159E-05-2.67595E-05-1.73128E-18-2.29791E-18
 -1      3389 1.06182E-04-4.51306E-05-2.62775E-05-2.22729E-05-1.52540E-18-1.69176E-18
 -1      3390 9.56673E-05-3.76207E-05-2.45499E-05-2.42528E-05-1.39549E-18-2.33444E-18
 -1      3391 1.01592E-04-3.07504E-05-3.03790E-05 5.21921E-06-2.44978E-20-2.18922E-18
 -1      3392 1.23105E-04-5.31273E-05-2.98992E-05-1.51120E-05-9.02514E-19-3.98873E-19
 -1      3393 1.26508E-04-5.22364E-05-3.19584E-05-7.53139E-06-6.91920E-19 4.19440E-19
 -1      3394 1.17112E-04-5.02362E-05-2.85311E-05-1.67633E-05-1.23143E-18-6.14483E-19
 -1      3395 8.18359E-05-2.13910E-05-2.56994E-05-1.64814E-05-3.15831E-19-2.83453E-18
 -1      3396 7.41328E-05-2.41649E-05-2.09861E-05-2.67463E-05-1.23397E-18-3.68968E-18
 -1      3397 9.52411E-05-2.85793E-05-2.85693E-05 1.29745E-08-1.95488E-20-1.88251E-18
 -1      3398 9.52422E-05-2.85803E-05-2.85694E-05 1.22711E-08 4.25682E-19-5.75532E-19
 -1      3399 9.52437E-05-2.85812E-05-2.85697E-05 1.27757E-08-2.85659E-19-3.14675E-20
 -1      3400 9.52415E-05-2.85796E-05-2.85694E-05 1.41351E-08-3.86863E-19-1.65415E-18
 -1      3401 8.29967E-05-2.83769E-05-2.33941E-05-2.42294E-05-1.21578E-18-2.83449E-18
 -1      3402 4.74356E-05-3.63791E-06-1.84019E-05 7.24815E-06 7.36442E-19-5.14059E-18
 -1      3403 1.12345E-04-4.63825E-05-2.81562E-05 1.49621E-05 1.21674E-18-1.78487E-18
 -1      3404 1.14890E-04-5.04083E-05-2.77772E-05 1.53363E-05-1.53255E-18-2.53829E-18
 -1      3405 1.03340E-04-4.37459E-05-2.54494E-05 2.05967E-05-1.25142E-18-1.84288E-18
 -1      3406 4.72538E-05-5.21731E-06-1.76018E-05-1.21509E-05-3.08042E-19-5.22630E-18
 -1      3407 7.77991E-05-2.07262E-05-2.43216E-05 1.78515E-05 1.05910E-18-3.51408E-18
 -1      3408 8.07075E-05-2.01423E-05-2.60304E-05 1.43792E-05 8.08521E-19-3.32239E-18
 -1      3409 1.31266E-04-4.37959E-05-3.76835E-05 9.61779E-06 8.83985E-19 1.74949E-18
 -1      3410 1.27904E-04-4.20264E-05-3.69422E-05 1.07530E-05 9.56075E-19 1.80648E-18
 -1      3411 1.27178E-04-4.59348E-05-3.49048E-05 7.50185E-06 1.20260E-19 1.29289E-18
 -1      3412 1.34503E-04-4.84044E-05-3.70580E-05 3.81942E-06 6.31423E-19 1.10919E-18
 -1      3413 8.91174E-05-2.45447E-05-2.74160E-05 1.26797E-05 5.98621E-19-3.07181E-18
 -1      3414 1.30977E-04-5.00263E-05-3.47700E-05 5.98166E-07 1.27187E-20 9.28825E-19
 -1      3415 8.96806E-05-3.55537E-05-2.33265E-05 2.38909E-05-1.42807E-18-9.34648E-20
 -1      3416 7.80951E-05-2.74424E-05-2.15506E-05 2.25729E-05-1.31092E-18 1.55969E-18
 -1      3417 9.87681E-05-3.16186E-05-2.89104E-05 9.85716E-06 4.23692E-19-2.43923E-18
 -1      3418 6.65630E-05-2.02881E-05-1.98238E-05 1.80194E-05-8.17781E-19 1.71839E-18
 -1      3419 5.86456E-05-1.52604E-05-1.82991E-05 1.20183E-05-3.86187E-19 2.04474E-18
 -1      3420 8.89593E-05-2.81706E-05-2.60006E-05-1.75509E-05-5.55932E-19-2.33914E-18
 -1      3421 9.32537E-05-3.30135E-05-2.56305E-05-1.97503E-05-9.15881E-19-2.10645E-18
 -1      3422 9.57432E-05-3.27823E-05-2.69221E-05-1.50503E-05 5.32421E-19-9.99011E-19
 -1      3423 9.36316E-05-3.03336E-05-2.71082E-05-1.42139E-05 3.87631E-19-7.09728E-19
 -1      3424 9.29153E-05-2.86906E-05-2.74747E-05-1.27352E-05 1.42187E-19-7.44554E-19
 -1      3425 9.18194E-05-2.72353E-05-2.76816E-05-1.18544E-05 7.09258E-20-1.21873E-18
 -1      3426 8.96671E-05-2.78143E-05-2.65492E-05-1.42316E-05 2.11468E-19-4.61230E-19
 -1      3427 9.17584E-05-2.63787E-05-2.79870E-05-1.06558E-05 1.77542E-20-1.15306E-18
 -1      3428 9.12940E-05-2.56141E-05-2.81589E-05-9.83649E-06 2.30336E-19-9.71803E-19
 -1      3429 8.90677E-05-2.54187E-05-2.72904E-05-1.13924E-05 1.21970E-19-1.01633E-18
 -1      3430 9.15469E-05-2.52619E-05-2.83874E-05-8.88176E-06-2.01615E-21-7.23904E-19
 -1      3431 9.14307E-05-2.49397E-05-2.85087E-05-8.14861E-06-3.06115E-19-1.15540E-18
 -1      3432 8.93439E-05-2.43142E-05-2.78692E-05-9.20358E-06 7.56606E-20-6.08998E-19
 -1      3433 9.18131E-05-2.48947E-05-2.86665E-05-7.37460E-06-3.78025E-19-1.00962E-18
 -1      3434 9.18717E-05-2.48398E-05-2.87404E-05-6.72362E-06-7.02522E-20-1.23991E-18
 -1      3435 9.00169E-05-2.39993E-05-2.82869E-05-7.49165E-06-2.17584E-19-2.31438E-19
 -1      3436 9.22850E-05-2.49701E-05-2.88408E-05-6.08259E-06 5.96756E-20-1.47236E-18
 -1      3437 9.24182E-05-2.50656E-05-2.88768E-05-5.50786E-06-1.80141E-19-1.46489E-18
 -1      3438 9.08273E-05-2.41484E-05-2.85684E-05-6.11114E-06-1.60477E-19-1.65222E-19
 -1      3439 9.28108E-05-2.52841E-05-2.89340E-05-4.96972E-06-2.56439E-19-1.47726E-18
 -1      3440 9.29637E-05-2.54543E-05-2.89427E-05-4.46692E-06-8.11726E-20-1.49857E-18
 -1      3441 9.16364E-05-2.45491E-05-2.87434E-05-4.96971E-06-1.59932E-19-1.02962E-18
 -1      3442 9.33114E-05-2.57059E-05-2.89691E-05-4.01313E-06-9.37391E-20-1.08101E-18
 -1      3443 9.34566E-05-2.59039E-05-2.89599E-05-3.57892E-06 5.15886E-19-1.51398E-18
 -1      3444 9.23746E-05-2.50637E-05-2.88401E-05-4.01190E-06 8.50049E-20-1.39744E-18
 -1      3445 9.37511E-05-2.61556E-05-2.89655E-05-3.19756E-06 7.04107E-19-1.43234E-18
 -1      3446 9.38769E-05-2.63541E-05-2.89457E-05-2.82838E-06 2.50077E-19-1.92984E-18
 -1      3447 9.30128E-05-2.56067E-05-2.88821E-05-3.20486E-06 2.72867E-19-1.38838E-18
 -1      3448 9.41184E-05-2.65876E-05-2.89384E-05-2.51078E-06 2.36239E-19-2.09611E-18
 -1      3449 9.42216E-05-2.67715E-05-2.89133E-05-2.20211E-06-5.87551E-19-1.52934E-18
 -1      3450 9.35445E-05-2.61279E-05-2.88878E-05-2.52776E-06 1.30214E-19-1.75424E-18
 -1      3451 9.44146E-05-2.69779E-05-2.88985E-05-1.94091E-06-9.85679E-19-1.13251E-18
 -1      3452 9.44960E-05-2.71402E-05-2.88718E-05-1.68723E-06-8.19868E-19-9.09803E-19
 -1      3453 9.39752E-05-2.66003E-05-2.88710E-05-1.96527E-06-2.85003E-19-1.44135E-18
 -1      3454 9.46471E-05-2.73164E-05-2.88534E-05-1.47549E-06-7.00667E-19-7.03881E-20
 -1      3455 9.47095E-05-2.74547E-05-2.88275E-05-1.27056E-06 2.27377E-19 2.36494E-20
 -1      3456 9.43162E-05-2.70118E-05-2.88417E-05-1.50404E-06-2.97752E-19-1.58275E-19
 -1      3457 9.48254E-05-2.76012E-05-2.88081E-05-1.10155E-06 6.81535E-19-2.43736E-19
 -1      3458 9.48720E-05-2.77160E-05-2.87843E-05-9.38808E-07 8.89969E-19-7.52754E-19
 -1      3459 9.45807E-05-2.73599E-05-2.88067E-05-1.13141E-06 3.87353E-19 7.32902E-19
 -1      3460 9.49592E-05-2.78350E-05-2.87656E-05-8.06059E-07 7.18069E-19-1.72572E-18
 -1      3461 9.49932E-05-2.79281E-05-2.87446E-05-6.79018E-07 9.60945E-20-1.18572E-18
 -1      3462 9.47820E-05-2.76471E-05-2.87705E-05-8.35061E-07 1.09322E-19-1.45657E-18
 -1      3463 9.50575E-05-2.80230E-05-2.87275E-05-5.76484E-07 2.02549E-19-7.33092E-19
 -1      3464 9.50817E-05-2.80970E-05-2.87096E-05-4.79021E-07 1.40299E-19-3.72748E-19
 -1      3465 9.49323E-05-2.78792E-05-2.87359E-05-6.03204E-07 4.57707E-19-1.66382E-18
 -1      3466 9.51281E-05-2.81712E-05-2.86946E-05-4.01204E-07-6.51366E-19-9.17239E-20
 -1      3467 9.51449E-05-2.82291E-05-2.86796E-05-3.27779E-07-7.15693E-19-4.83409E-19
 -1      3468 9.50422E-05-2.80632E-05-2.87045E-05-4.24860E-07 2.38524E-20-1.30951E-18
 -1      3469 9.51776E-05-2.82861E-05-2.86668E-05-2.69818E-07-9.22304E-19-4.59265E-20
 -1      3470 9.51888E-05-2.83305E-05-2.86546E-05-2.15571E-07-9.90460E-19 3.59170E-19
 -1      3471 9.51208E-05-2.82066E-05-2.86770E-05-2.90111E-07-8.65428E-19-4.46365E-19
 -1      3472 9.52111E-05-2.83735E-05-2.86439E-05-1.73282E-07-1.51677E-18-1.07324E-19
 -1      3473 9.52182E-05-2.84070E-05-2.86341E-05-1.34060E-07-1.69954E-18-8.20080E-19
 -1      3474 9.51755E-05-2.83162E-05-2.86537E-05-1.90238E-07-1.60112E-18-1.04924E-19
 -1      3475 9.52329E-05-2.84388E-05-2.86255E-05-1.03924E-07-6.45896E-19-5.96114E-19
 -1      3476 9.52372E-05-2.84635E-05-2.86178E-05-7.62663E-08-2.91354E-19 3.48033E-19
 -1      3477 9.52124E-05-2.83986E-05-2.86343E-05-1.17775E-07-1.15759E-18-3.71100E-19
 -1      3478 9.52463E-05-2.84866E-05-2.86109E-05-5.53825E-08-6.37068E-19 2.29477E-19
 -1      3479 9.52485E-05-2.85044E-05-2.86050E-05-3.64624E-08-7.45580E-19-9.37949E-20
 -1      3480 9.52361E-05-2.84592E-05-2.86186E-05-6.64722E-08-6.16875E-19-4.40653E-19
 -1      3481 9.52537E-05-2.85207E-05-2.85995E-05-2.24906E-08-8.46820E-19 2.77596E-19
 -1      3482 9.52546E-05-2.85333E-05-2.85951E-05-1.00437E-08 5.11786E-20 5.51993E-19
 -1      3483 9.52504E-05-2.85028E-05-2.86061E-05-3.12059E-08-4.19070E-19 1.07610E-19
 -1      3484 9.52571E-05-2.85445E-05-2.85909E-05-1.12919E-09-4.74747E-20 4.53958E-19
 -1      3485 9.52571E-05-2.85531E-05-2.85876E-05 6.62432E-09-5.82713E-19-4.48786E-19
 -1      3486 9.52582E-05-2.85334E-05-2.85963E-05-7.85941E-09-1.57834E-19 1.58708E-18
 -1      3487 9.52578E-05-2.85604E-05-2.85844E-05 1.19245E-08-1.00136E-18-4.06251E-19
 -1      3488 9.52573E-05-2.85661E-05-2.85820E-05 1.63582E-08-7.67813E-19-5.45050E-19
 -1      3489 9.52614E-05-2.85542E-05-2.85888E-05 6.81485E-09-1.12544E-18 1.49324E-18
 -1      3490 9.52568E-05-2.85707E-05-2.85797E-05 1.91458E-08-1.79695E-20-9.04984E-19
 -1      3491 9.52560E-05-2.85742E-05-2.85779E-05 2.12998E-08 2.92821E-20-4.09726E-19
 -1      3492 9.52617E-05-2.85678E-05-2.85832E-05 1.53311E-08-5.20006E-19 3.45936E-19
 -1      3493 9.52549E-05-2.85768E-05-2.85762E-05 2.23992E-08 1.41070E-19-3.71000E-19
 -1      3494 9.52539E-05-2.85789E-05-2.85750E-05 2.30447E-08 3.29453E-19 1.33038E-19
 -1      3495 9.52602E-05-2.85761E-05-2.85790E-05 1.95994E-08 3.69991E-19 4.75313E-19
 -1      3496 9.52525E-05-2.85802E-05-2.85738E-05 2.30597E-08 1.14167E-19 7.49343E-19
 -1      3497 9.52516E-05-2.85811E-05-2.85730E-05 2.27550E-08 4.07298E-19 1.12193E-18
 -1      3498 9.52578E-05-2.85808E-05-2.85759E-05 2.10409E-08 9.03452E-19 3.56270E-19
 -1      3499 9.52500E-05-2.85816E-05-2.85722E-05 2.21159E-08-2.12242E-20 5.08222E-19
 -1      3500 9.52491E-05-2.85819E-05-2.85716E-05 2.12533E-08-4.10945E-19 3.49758E-19
 -1      3501 9.52548E-05-2.85829E-05-2.85737E-05 2.06890E-08-1.02328E-19-1.22784E-19
 -1      3502 9.52476E-05-2.85818E-05-2.85710E-05 2.02574E-08-9.99768E-19-8.36519E-20
 -1      3503 9.52468E-05-2.85817E-05-2.85707E-05 1.91024E-08-1.06718E-18-1.19325E-18
 -1      3504 9.52518E-05-2.85835E-05-2.85722E-05 1.92742E-08-1.30625E-18 6.67378E-19
 -1      3505 9.52454E-05-2.85813E-05-2.85703E-05 1.79407E-08 2.89809E-19-1.22047E-18
 -1      3506 9.52447E-05-2.85811E-05-2.85701E-05 1.66661E-08 1.35287E-18-4.47172E-19
 -1      3507 9.52489E-05-2.85831E-05-2.85711E-05 1.72939E-08-5.34619E-19 1.70384E-18
 -1      3508 5.21132E-05-3.24954E-06-2.09428E-05 7.75170E-06 8.46903E-19-4.69259E-18
 -1      3509 1.00667E-04-3.46359E-05-2.82101E-05 1.13378E-05-2.50795E-19-8.17446E-19
 -1      3510 1.03025E-04-3.71434E-05-2.82302E-05 1.11042E-05-3.62226E-19-6.99826E-19
 -1      3511 1.08375E-04-4.22494E-05-2.82866E-05 1.13100E-05-6.75161E-19-9.05620E-19
 -1      3512 1.12193E-04-4.51553E-05-2.86525E-05 9.88812E-06-8.89269E-19-1.21759E-18
 -1      3513 1.16341E-04-4.74881E-05-2.94221E-05 7.14906E-06-1.04762E-18-1.79835E-18
 -1      3514 9.71779E-05-3.08720E-05-2.83885E-05 1.05875E-05-3.63762E-19-2.90414E-19
 -1      3515 9.87925E-05-3.26392E-05-2.83325E-05 1.08011E-05-2.75171E-19-7.17539E-19
 -1      3516 9.71079E-05-3.29161E-05-2.75983E-05 1.27459E-05-3.66289E-19-9.26025E-19
 -1      3517 9.52454E-05-2.84477E-05-2.86177E-05 9.40312E-06 2.47447E-20-2.73538E-19
 -1      3518 9.62224E-05-2.95605E-05-2.85453E-05 9.83201E-06 2.15741E-20-3.85641E-19
 -1      3519 9.43810E-05-2.92828E-05-2.79414E-05 1.10835E-05-2.72844E-19-6.55456E-19
 -1      3520 9.42953E-05-2.70644E-05-2.88125E-05 8.13805E-06-5.92226E-19-4.12621E-19
 -1      3521 9.48377E-05-2.76995E-05-2.87555E-05 8.65746E-06-1.58667E-19-3.19512E-19
 -1      3522 9.31183E-05-2.71804E-05-2.82793E-05 9.44231E-06-8.59066E-20-4.16047E-19
 -1      3523 9.39321E-05-2.63994E-05-2.89466E-05 6.90625E-06-8.18305E-19-6.62523E-19
 -1      3524 9.42064E-05-2.67069E-05-2.89149E-05 7.44632E-06-8.34974E-19-6.66256E-19
 -1      3525 9.26758E-05-2.60740E-05-2.85520E-05 7.93919E-06-6.89169E-19-3.96586E-19
 -1      3526 9.38950E-05-2.61960E-05-2.90200E-05 5.76277E-06-1.14580E-18-2.64168E-20
 -1      3527 9.40136E-05-2.62945E-05-2.90123E-05 6.28520E-06-7.72730E-19-3.86743E-19
 -1      3528 9.26978E-05-2.56303E-05-2.87448E-05 6.60464E-06-1.07413E-18-3.65691E-19
 -1      3529 9.40198E-05-2.62668E-05-2.90438E-05 4.73224E-06-7.39987E-19 6.29856E-19
 -1      3530 9.40543E-05-2.62415E-05-2.90547E-05 5.21541E-06-1.31861E-18-7.91973E-20
 -1      3531 9.29529E-05-2.55996E-05-2.88641E-05 5.43616E-06-1.04594E-18-5.99720E-19
 -1      3532 9.42101E-05-2.64846E-05-2.90319E-05 3.82455E-06-9.98646E-19 1.89388E-18
 -1      3533 9.42033E-05-2.63930E-05-2.90551E-05 4.25669E-06-5.57482E-19 1.00582E-18
 -1      3534 9.33015E-05-2.58042E-05-2.89246E-05 4.42161E-06-1.02263E-18-2.42077E-19
 -1      3535 9.44126E-05-2.67671E-05-2.89970E-05 3.04162E-06-5.36204E-19 1.55421E-18
 -1      3536 9.43887E-05-2.66463E-05-2.90270E-05 3.41754E-06-7.43933E-19 1.62318E-18
 -1      3537 9.36651E-05-2.61266E-05-2.89420E-05 3.54945E-06-6.57468E-19 4.50571E-19
 -1      3538 9.46003E-05-2.70640E-05-2.89495E-05 2.37954E-06-1.01235E-18 1.22940E-18
 -1      3539 9.45720E-05-2.69363E-05-2.89821E-05 2.69874E-06-5.76882E-19 1.70826E-18
 -1      3540 9.40026E-05-2.64916E-05-2.89305E-05 2.80910E-06-8.47334E-19 4.93834E-19
 -1      3541 9.47616E-05-2.73462E-05-2.88968E-05 1.83021E-06-4.74468E-19 4.64916E-19
 -1      3542 9.47351E-05-2.72245E-05-2.89291E-05 2.09540E-06-7.89680E-19 7.73564E-19
 -1      3543 9.42956E-05-2.68536E-05-2.89014E-05 2.18966E-06-6.52993E-19-1.57908E-19
 -1      3544 9.48935E-05-2.75987E-05-2.88443E-05 1.38273E-06-3.75600E-19-4.36058E-19
 -1      3545 9.48712E-05-2.74897E-05-2.88744E-05 1.59865E-06-3.81291E-19 4.76045E-19
 -1      3546 9.45386E-05-2.71874E-05-2.88630E-05 1.67941E-06 3.24189E-20-4.94890E-19
 -1      3547 9.49973E-05-2.78157E-05-2.87951E-05 1.02468E-06-3.38714E-21-8.05385E-19
 -1      3548 9.49798E-05-2.77219E-05-2.88220E-05 1.19716E-06-5.35575E-19-8.05618E-19
 -1      3549 9.47334E-05-2.74806E-05-2.88212E-05 1.26585E-06-1.72578E-19-7.31353E-19
 -1      3550 9.50766E-05-2.79962E-05-2.87510E-05 7.43197E-07 4.10261E-19 1.23931E-18
 -1      3551 9.50635E-05-2.79181E-05-2.87742E-05 8.78460E-07 4.39222E-19 3.88539E-19
 -1      3552 9.48851E-05-2.77292E-05-2.87801E-05 9.36147E-07-3.47212E-19-4.99792E-19
 -1      3553 9.51353E-05-2.81427E-05-2.87129E-05 5.25799E-07 1.53169E-18 9.78282E-19
 -1      3554 9.51261E-05-2.80793E-05-2.87324E-05 6.29947E-07 1.37134E-18 9.25498E-19
 -1      3555 9.50002E-05-2.79343E-05-2.87418E-05 6.77658E-07 7.56713E-19-3.82117E-19
 -1      3556 9.51776E-05-2.82589E-05-2.86808E-05 3.60936E-07 1.84676E-19 7.17787E-19
 -1      3557 9.51714E-05-2.82086E-05-2.86968E-05 4.39632E-07 1.05440E-18 1.23059E-18
 -1      3558 9.50854E-05-2.80994E-05-2.87078E-05 4.78456E-07 1.16216E-18-1.45946E-20
 -1      3559 9.52071E-05-2.83492E-05-2.86544E-05 2.38307E-07-7.47133E-19 8.28854E-19
 -1      3560 9.52032E-05-2.83101E-05-2.86672E-05 2.96599E-07-7.20439E-19 4.23156E-19
 -1      3561 9.51469E-05-2.82296E-05-2.86786E-05 3.27672E-07 1.71977E-19 5.64310E-19
 -1      3562 9.52269E-05-2.84180E-05-2.86331E-05 1.49005E-07-3.58707E-19 1.23158E-18
 -1      3563 9.52246E-05-2.83882E-05-2.86432E-05 1.91248E-07-5.53771E-19 1.14332E-18
 -1      3564 9.51899E-05-2.83302E-05-2.86540E-05 2.15704E-07-1.00311E-18 8.89172E-19
 -1      3565 9.52396E-05-2.84694E-05-2.86163E-05 8.55232E-08-1.89463E-19 4.51152E-20
 -1      3566 9.52385E-05-2.84471E-05-2.86241E-05 1.15376E-07 3.53633E-19 1.02873E-18
 -1      3567 9.52189E-05-2.84064E-05-2.86339E-05 1.34301E-07 2.22648E-19 4.01832E-19
 -1      3568 9.52471E-05-2.85069E-05-2.86033E-05 4.16774E-08-3.23138E-19-1.08096E-18
 -1      3569 9.52467E-05-2.84906E-05-2.86092E-05 6.21451E-08-7.50953E-19-5.07510E-19
 -1      3570 9.52376E-05-2.84630E-05-2.86177E-05 7.65358E-08-6.33241E-21 7.48904E-20
 -1      3571 9.52509E-05-2.85336E-05-2.85934E-05 1.24754E-08-6.85193E-19-1.37789E-18
 -1      3572 9.52511E-05-2.85220E-05-2.85978E-05 2.59746E-08-1.51604E-19-1.11098E-18
 -1      3573 9.52489E-05-2.85040E-05-2.86050E-05 3.67184E-08-2.66831E-19-1.60442E-19
 -1      3574 9.52523E-05-2.85521E-05-2.85860E-05-6.03444E-09-2.00704E-18-8.36336E-20
 -1      3575 9.52528E-05-2.85440E-05-2.85892E-05 2.40205E-09-1.91077E-18-8.68999E-19
 -1      3576 9.52549E-05-2.85330E-05-2.85951E-05 1.02660E-08-1.54596E-18-8.05708E-20
 -1      3577 9.52522E-05-2.85644E-05-2.85805E-05-1.69225E-08-1.95027E-18 1.14168E-18
 -1      3578 9.52528E-05-2.85590E-05-2.85828E-05-1.20737E-08-2.08343E-18 4.76126E-19
 -1      3579 9.52573E-05-2.85529E-05-2.85877E-05-6.44274E-09-2.55422E-18 8.83311E-19
 -1      3580 9.52511E-05-2.85722E-05-2.85767E-05-2.25288E-08-1.40005E-18 1.35877E-18
 -1      3581 9.52517E-05-2.85688E-05-2.85783E-05-2.01485E-08-1.48826E-18 1.23683E-18
 -1      3582 9.52574E-05-2.85660E-05-2.85821E-05-1.62170E-08-1.97571E-18 3.37735E-19
 -1      3583 9.52494E-05-2.85768E-05-2.85740E-05-2.46013E-08-9.27941E-19 1.07248E-18
 -1      3584 9.52501E-05-2.85748E-05-2.85751E-05-2.38577E-08-8.63646E-19 1.69225E-18
 -1      3585 9.52561E-05-2.85742E-05-2.85780E-05-2.11946E-08-8.03793E-19 6.83371E-19
 -1      3586 9.52476E-05-2.85792E-05-2.85722E-05-2.44158E-08 2.85779E-19 9.42915E-19
 -1      3587 9.52482E-05-2.85781E-05-2.85729E-05-2.47054E-08-9.43220E-19 7.48469E-19
 -1      3588 9.52540E-05-2.85789E-05-2.85751E-05-2.29700E-08-5.67558E-19 3.31171E-19
 -1      3589 9.52458E-05-2.85801E-05-2.85710E-05-2.28777E-08 1.10840E-18 2.35157E-18
 -1      3590 9.52463E-05-2.85797E-05-2.85714E-05-2.37757E-08 1.52651E-18 1.66115E-18
 -1      3591 9.52516E-05-2.85812E-05-2.85731E-05-2.27052E-08 5.47780E-19 1.15717E-18
 -1      3592 9.52441E-05-2.85802E-05-2.85702E-05-2.06063E-08 9.01204E-19 3.26769E-18
 -1      3593 9.52446E-05-2.85801E-05-2.85705E-05-2.18255E-08 1.32217E-18 2.82721E-18
 -1      3594 9.52491E-05-2.85819E-05-2.85717E-05-2.12227E-08 4.86080E-19 2.21400E-18
 -1      3595 9.52426E-05-2.85798E-05-2.85698E-05-1.80003E-08 1.42511E-18 2.56233E-18
 -1      3596 9.52430E-05-2.85799E-05-2.85699E-05-1.93677E-08 1.11620E-18 3.73237E-18
 -1      3597 9.52468E-05-2.85818E-05-2.85707E-05-1.90889E-08 5.95440E-19 3.25474E-18
 -1      3598 9.52414E-05-2.85792E-05-2.85695E-05-1.53189E-08 1.59705E-18 9.37240E-19
 -1      3599 9.52416E-05-2.85794E-05-2.85695E-05-1.67040E-08 1.84158E-18 2.35144E-18
 -1      3600 9.52447E-05-2.85812E-05-2.85701E-05-1.66742E-08 1.98657E-18 2.74597E-18
 -1      3601 9.52418E-05-2.85800E-05-2.85693E-05-1.20206E-08-5.09589E-19 4.15026E-18
 -1      3602 9.52404E-05-2.85789E-05-2.85692E-05-1.23644E-08-8.01660E-19 1.62037E-18
 -1      3603 9.52405E-05-2.85788E-05-2.85693E-05-1.32458E-08-1.54213E-18 1.57556E-18
 -1      3604 9.52433E-05-2.85809E-05-2.85696E-05-1.25708E-08-9.08818E-19 2.73066E-18
 -1      3605 5.47641E-05-1.32713E-05-1.77545E-05 4.51215E-06-6.49204E-20 1.86315E-18
 -1      3606 5.49341E-05-1.33406E-05-1.76953E-05-5.83878E-06 2.98923E-19 1.70127E-18
 -1      3607 6.18929E-05-1.51084E-05-1.98256E-05 6.15615E-06-9.48114E-20 1.81731E-18
 -1      3608 9.73573E-05-3.32184E-05-2.75091E-05 1.40478E-05 7.84220E-19-2.55890E-18
 -1      3609 7.02877E-05-1.90027E-05-2.19107E-05 2.17538E-05 1.36759E-18-3.72181E-18
 -1      3610 6.04914E-05-1.12626E-05-2.09550E-05 1.72431E-05 1.08015E-18-4.23223E-18
 -1      3611 9.52466E-05-2.85829E-05-2.85701E-05 1.20384E-08-2.13834E-19 6.08684E-19
 -1      3612 9.52482E-05-2.85840E-05-2.85703E-05 1.04192E-08-5.31771E-19 6.77112E-19
 -1      3613 1.00853E-04-3.92246E-05-2.64106E-05-1.74352E-05 9.74181E-19-1.68882E-18
 -1      3614 9.75853E-05-3.53060E-05-2.65578E-05-1.66238E-05 9.31749E-19-1.51120E-18
 -1      3615 9.20876E-05-3.22880E-05-2.57092E-05-1.77320E-05 9.89546E-19-9.84643E-19
 -1      3616 5.77277E-05-6.45901E-06-2.17131E-05 1.21511E-05 9.14279E-19-4.45010E-18
 -1      3617 5.88042E-05-1.61270E-05-1.81144E-05-1.36885E-05 1.13770E-18 2.18797E-18
 -1      3618 6.71669E-05-2.22428E-05-1.93338E-05-2.16102E-05 1.62404E-18 2.00800E-18
 -1      3619 7.84714E-05-2.94521E-05-2.07230E-05-2.55173E-05 1.77960E-18 1.33249E-19
 -1      3620 9.06115E-05-3.74930E-05-2.26851E-05-2.58799E-05 1.77288E-18-1.46400E-18
 -1      3621 9.30623E-05-3.33725E-05-2.57296E-05 1.95935E-05 1.23573E-18-2.71596E-18
 -1      3622 1.05196E-04-4.01116E-05-2.75539E-05 1.53719E-05 1.18415E-18-2.07929E-18
 -1      3623 1.14444E-04-4.11262E-05-3.13562E-05-8.55585E-07 2.70012E-19 1.10108E-19
 -1      3624 1.11525E-04-4.01623E-05-3.06508E-05-4.10421E-06 1.91515E-19-2.23776E-19
 -1      3625 1.17307E-04-4.35623E-05-3.16235E-05 3.01016E-09 3.76069E-20 2.19178E-19
 -1      3626 1.28359E-04-5.08502E-05-3.32381E-05-2.02289E-06-4.50363E-19 7.95549E-19
 -1      3627 1.27648E-04-4.79552E-05-3.42526E-05 3.79806E-06-2.20331E-19 1.29837E-18
 -1      3628 1.23693E-04-4.98296E-05-3.16838E-05-5.01485E-06-6.60408E-19 6.44221E-19
 -1      3629 8.05204E-05-2.45065E-05-2.36989E-05 2.08170E-05 1.31774E-18-3.36956E-18
 -1      3630 1.24451E-04-4.63431E-05-3.35525E-05 4.58253E-06 2.37765E-20 9.91002E-19
 -1      3631 6.26347E-05-1.58475E-05-1.97611E-05-8.84560E-06 5.89800E-19 1.08968E-18
 -1      3632 7.44030E-05-2.37494E-05-2.15774E-05 1.97246E-05-1.05236E-18 1.55805E-18
 -1      3633 7.12926E-05-2.01495E-05-2.19284E-05 1.46267E-05-6.75674E-19 1.27671E-18
 -1      3634 8.15671E-05-2.65196E-05-2.35091E-05 1.81748E-05-1.23078E-18 7.77378E-19
 -1      3635 7.60589E-05-2.55794E-05-2.13848E-05-2.08586E-05 1.45127E-18 5.19072E-19
 -1      3636 1.03637E-04-3.98863E-05-2.73415E-05 1.42686E-05-6.83430E-19-1.32153E-18
 -1      3637 9.52433E-05-2.85805E-05-2.85698E-05 1.59835E-08 1.21896E-18-9.11272E-19
 -1      3638 9.52426E-05-2.85801E-05-2.85696E-05 1.48694E-08 6.26726E-19-4.93362E-19
 -1      3639 9.52437E-05-2.85810E-05-2.85698E-05 1.42369E-08-1.41776E-19-1.26354E-18
 -1      3640 9.52462E-05-2.85822E-05-2.85703E-05 1.55844E-08 1.33533E-18 1.18310E-18
 -1      3641 1.21006E-04-5.06029E-05-3.00037E-05 6.43886E-06-1.09094E-18-2.23556E-18
 -1      3642 9.52443E-05-2.85814E-05-2.85698E-05-1.36135E-08 1.07655E-19 1.51269E-18
 -1      3643 9.52428E-05-2.85803E-05-2.85696E-05-1.42302E-08 1.70733E-19 3.79069E-18
 -1      3644 9.52405E-05-2.85788E-05-2.85693E-05-1.41174E-08-3.36625E-19 1.26750E-18
 -1      3645 9.52479E-05-2.85839E-05-2.85703E-05-1.05573E-08 6.98342E-19-1.28556E-18
 -1      3646 9.52463E-05-2.85828E-05-2.85701E-05-1.21898E-08-6.90953E-20-1.93734E-18
 -1      3647 9.52460E-05-2.85823E-05-2.85702E-05-1.39806E-08 1.09718E-18 4.30763E-19
 -1      3648 1.11326E-04-4.73348E-05-2.72679E-05-1.64290E-05 1.04471E-18-2.43010E-18
 -1      3649 1.03436E-04-4.35254E-05-2.57176E-05-2.01944E-05 1.21978E-18-2.21105E-18
 -1      3650 9.52516E-05-2.85864E-05-2.85708E-05-1.28755E-09-2.03095E-19-1.10586E-18
 -1      3651 9.52512E-05-2.85861E-05-2.85708E-05-3.62064E-09-7.89126E-20-1.27361E-18
 -1      3652 1.07435E-04-3.86208E-05-2.93895E-05-8.78373E-06-2.76814E-19-7.47255E-19
 -1      3653 9.52502E-05-2.85850E-05-2.85708E-05 1.00338E-08 1.05832E-19 6.90013E-19
 -1      3654 9.52495E-05-2.85850E-05-2.85705E-05 8.26003E-09-2.00280E-19 8.61285E-19
 -1      3655 9.52505E-05-2.85856E-05-2.85706E-05 6.18404E-09-3.98405E-19-6.83457E-19
 -1      3656 1.12604E-04-4.65815E-05-2.81457E-05-1.60477E-05-1.33101E-18-8.07064E-19
 -1      3657 1.25799E-04-4.62716E-05-3.39990E-05-6.25764E-06 1.57230E-19-2.88507E-18
 -1      3658 9.52516E-05-2.85864E-05-2.85708E-05 1.34688E-09-4.59937E-19-1.91146E-18
 -1      3659 9.52532E-05-2.85869E-05-2.85713E-05 2.21750E-11-8.42020E-19-1.14847E-18
 -1      3660 9.52512E-05-2.85861E-05-2.85708E-05 3.66603E-09-3.02011E-19-1.88184E-18
 -1      3661 9.52448E-05-2.85817E-05-2.85699E-05 1.34355E-08-1.21164E-19 3.71286E-19
 -1      3662 1.23952E-04-4.87860E-05-3.24649E-05-2.04568E-06-4.03485E-19-2.13055E-18
 -1      3663 9.52468E-05-2.85828E-05-2.85703E-05 1.35994E-08 2.38199E-19 7.73110E-19
 -1      3664 1.21980E-04-4.59643E-05-3.25641E-05 2.36458E-06-2.29005E-19 6.10827E-19
 -1      3665 9.86143E-05-4.02486E-05-2.48410E-05 2.16238E-05-1.22926E-18-1.54881E-18
 -1      3666 9.30185E-05-3.51926E-05-2.48109E-05 2.00548E-05-1.29749E-18-8.74155E-19
 -1      3667 8.63309E-05-2.40786E-05-2.66352E-05-1.12595E-05-1.46070E-19 6.32276E-20
 -1      3668 8.63064E-05-2.34046E-05-2.69911E-05-1.00585E-05 2.03116E-19-8.88731E-20
 -1      3669 8.71856E-05-2.32077E-05-2.73956E-05-8.89963E-06 4.15588E-19-3.00198E-19
 -1      3670 8.74618E-05-2.29858E-05-2.76594E-05-7.98335E-06 3.33270E-19-9.88268E-20
 -1      3671 8.45344E-05-2.19576E-05-2.67903E-05-8.74106E-06 1.57862E-19 6.72711E-19
 -1      3672 8.83026E-05-2.30676E-05-2.79456E-05-7.14588E-06 1.22402E-19-2.22030E-19
 -1      3673 8.86977E-05-2.31110E-05-2.81294E-05-6.42494E-06 2.85874E-20 6.71005E-20
 -1      3674 8.62732E-05-2.20312E-05-2.75117E-05-6.82673E-06 3.30902E-19 3.36452E-19
 -1      3675 8.94576E-05-2.33505E-05-2.83252E-05-5.78819E-06-4.17027E-20-1.40276E-19
 -1      3676 8.98786E-05-2.35446E-05-2.84454E-05-5.20165E-06-4.00690E-19-5.19252E-19
 -1      3677 8.78756E-05-2.24665E-05-2.80146E-05-5.44537E-06-1.28972E-19-1.24896E-19
 -1      3678 9.05427E-05-2.38629E-05-2.85737E-05-4.69734E-06-5.12237E-19-3.25199E-19
 -1      3679 9.09400E-05-2.41307E-05-2.86459E-05-4.20809E-06-3.26105E-20-3.68395E-19
 -1      3680 8.92934E-05-2.30989E-05-2.83539E-05-4.38434E-06-2.57413E-19-2.05667E-19
 -1      3681 9.15058E-05-2.44763E-05-2.87250E-05-3.79701E-06 1.61629E-19-7.26768E-19
 -1      3682 9.18566E-05-2.47687E-05-2.87628E-05-3.38392E-06 9.30010E-20-7.75613E-19
 -1      3683 9.05147E-05-2.38158E-05-2.85726E-05-3.53543E-06 4.33831E-20 4.59485E-19
 -1      3684 9.23288E-05-2.51089E-05-2.88071E-05-3.04365E-06 1.47705E-19-9.36750E-19
 -1      3685 9.26254E-05-2.53963E-05-2.88214E-05-2.69460E-06 3.18529E-19-1.07444E-18
 -1      3686 9.15437E-05-2.45424E-05-2.87046E-05-2.83741E-06 2.26129E-19-6.06386E-19
 -1      3687 9.30122E-05-2.57119E-05-2.88418E-05-2.41208E-06 3.18302E-19-1.26365E-18
 -1      3688 9.32554E-05-2.59771E-05-2.88408E-05-2.11923E-06 2.03415E-19-6.85713E-19
 -1      3689 9.23946E-05-2.52319E-05-2.87757E-05-2.25650E-06 1.33929E-19-1.26695E-18
 -1      3690 9.35667E-05-2.62579E-05-2.88455E-05-1.88589E-06 6.99591E-20-7.85220E-19
 -1      3691 9.37611E-05-2.64926E-05-2.88353E-05-1.64306E-06-3.34821E-19-4.12746E-19
 -1      3692 9.30858E-05-2.58574E-05-2.88056E-05-1.77296E-06 5.11211E-19-6.48072E-19
 -1      3693 9.40076E-05-2.67346E-05-2.88301E-05-1.45233E-06-7.37902E-21-3.61558E-19
 -1      3694 9.41597E-05-2.69357E-05-2.88150E-05-1.25384E-06 3.99316E-19 3.55366E-19
 -1      3695 9.36380E-05-2.64059E-05-2.88086E-05-1.37343E-06 2.04132E-20 3.67341E-19
 -1      3696 9.43516E-05-2.71390E-05-2.88043E-05-1.10000E-06-3.34143E-19-1.85206E-20
 -1      3697 9.44684E-05-2.73070E-05-2.87872E-05-9.40253E-07-3.52782E-19-6.67336E-19
 -1      3698 9.40718E-05-2.68736E-05-2.87953E-05-1.04715E-06-4.25040E-19-6.66363E-19
 -1      3699 9.46153E-05-2.74741E-05-2.87738E-05-8.18011E-07-2.05686E-19-1.42644E-18
 -1      3700 9.47032E-05-2.76114E-05-2.87566E-05-6.91517E-07-1.49720E-19-1.82307E-18
 -1      3701 9.44070E-05-2.72634E-05-2.87729E-05-7.84453E-07-8.88706E-19-2.05503E-18
 -1      3702 9.48137E-05-2.77460E-05-2.87425E-05-5.95925E-07-2.22496E-20-1.41444E-18
 -1      3703 9.48787E-05-2.78560E-05-2.87263E-05-4.97427E-07 1.43945E-19-1.49298E-18
 -1      3704 9.46617E-05-2.75815E-05-2.87465E-05-5.76206E-07-2.87463E-20-1.37950E-18
 -1      3705 9.49602E-05-2.79625E-05-2.87126E-05-4.23931E-07 2.84341E-19-1.78245E-18
 -1      3706 9.50072E-05-2.80491E-05-2.86981E-05-3.48555E-07 3.29346E-19-1.15306E-18
 -1      3707 9.48518E-05-2.78363E-05-2.87193E-05-4.13818E-07 2.83205E-19-1.43410E-18
 -1      3708 9.50661E-05-2.81318E-05-2.86855E-05-2.93052E-07-3.00763E-19-1.22263E-18
 -1      3709 9.50992E-05-2.81987E-05-2.86729E-05-2.36418E-07-6.95360E-19-1.37317E-19
 -1      3710 9.49908E-05-2.80367E-05-2.86935E-05-2.89363E-07 9.50571E-20-1.74499E-18
 -1      3711 9.51408E-05-2.82619E-05-2.86619E-05-1.95312E-07-1.45401E-18 1.68422E-19
 -1      3712 9.51634E-05-2.83127E-05-2.86513E-05-1.53596E-07-1.82976E-18 6.71654E-20
 -1      3713 9.50903E-05-2.81916E-05-2.86701E-05-1.95712E-07-9.75276E-19-4.80367E-19
 -1      3714 9.51919E-05-2.83600E-05-2.86418E-05-1.23802E-07-1.83594E-18-7.75681E-20
 -1      3715 9.52068E-05-2.83979E-05-2.86331E-05-9.37491E-08-9.30741E-19-3.21636E-19
 -1      3716 9.51596E-05-2.83092E-05-2.86496E-05-1.26629E-07-1.49793E-18 4.61958E-19
 -1      3717 9.52255E-05-2.84326E-05-2.86252E-05-7.26853E-08-7.63969E-19-2.63156E-19
 -1      3718 9.52348E-05-2.84602E-05-2.86181E-05-5.15872E-08-9.00791E-19-3.14605E-19
 -1      3719 9.52062E-05-2.83968E-05-2.86323E-05-7.67884E-08-1.22359E-18-4.38740E-20
 -1      3720 9.52465E-05-2.84852E-05-2.86117E-05-3.71370E-08-9.47555E-20-5.66243E-19
 -1      3721 9.52518E-05-2.85049E-05-2.86061E-05-2.27863E-08 8.65323E-19 6.50228E-19
 -1      3722 9.52363E-05-2.84606E-05-2.86179E-05-4.17458E-08-1.28477E-19-3.84523E-19
 -1      3723 9.52584E-05-2.85223E-05-2.86010E-05-1.32480E-08-8.29401E-21-2.27719E-19
 -1      3724 9.52610E-05-2.85360E-05-2.85967E-05-3.88086E-09-8.09152E-19 1.72019E-19
 -1      3725 9.52543E-05-2.85062E-05-2.86063E-05-1.78710E-08-5.78509E-21-1.22580E-18
 -1      3726 9.52642E-05-2.85477E-05-2.85926E-05 2.08799E-09-8.24528E-19 3.47243E-19
 -1      3727 9.52650E-05-2.85569E-05-2.85893E-05 7.85492E-09-1.03020E-18 1.99594E-19
 -1      3728 9.52641E-05-2.85377E-05-2.85970E-05-2.25586E-09-4.60933E-19-1.09687E-18
 -1      3729 9.52658E-05-2.85645E-05-2.85862E-05 1.12932E-08-5.11196E-19 3.24953E-19
 -1      3730 9.52654E-05-2.85703E-05-2.85837E-05 1.45247E-08-6.46346E-20 4.27192E-19
 -1      3731 9.52681E-05-2.85588E-05-2.85897E-05 7.38448E-09-1.65227E-19-1.01689E-18
 -1      3732 9.52649E-05-2.85749E-05-2.85813E-05 1.62212E-08-2.60208E-19 9.79791E-19
 -1      3733 9.52638E-05-2.85784E-05-2.85795E-05 1.77210E-08 6.97524E-19 7.75334E-19
 -1      3734 9.52684E-05-2.85722E-05-2.85841E-05 1.28117E-08 6.55877E-19 3.04258E-19
 -1      3735 9.52624E-05-2.85809E-05-2.85777E-05 1.82628E-08 1.43231E-18 3.88397E-19
 -1      3736 9.52610E-05-2.85828E-05-2.85764E-05 1.86246E-08 7.61154E-19-2.57887E-20
 -1      3737 9.52664E-05-2.85801E-05-2.85799E-05 1.53578E-08 5.39655E-19 5.17999E-19
 -1      3738 9.52591E-05-2.85839E-05-2.85751E-05 1.84376E-08-1.24338E-19-2.24075E-19
 -1      3739 9.52576E-05-2.85846E-05-2.85741E-05 1.80889E-08-6.21864E-19 3.85995E-20
 -1      3740 9.52632E-05-2.85843E-05-2.85767E-05 1.60086E-08 3.29745E-19 2.52107E-19
 -1      3741 9.52556E-05-2.85848E-05-2.85732E-05 1.74762E-08-2.51880E-19 5.30210E-19
 -1      3742 9.52541E-05-2.85849E-05-2.85725E-05 1.67169E-08-3.08756E-19 2.03357E-18
 -1      3743 9.52594E-05-2.85859E-05-2.85744E-05 1.54759E-08 2.00453E-19 1.12281E-18
 -1      3744 9.52521E-05-2.85846E-05-2.85718E-05 1.58821E-08-3.74530E-19 2.17977E-18
 -1      3745 9.52507E-05-2.85843E-05-2.85713E-05 1.49329E-08 3.39591E-19 2.85022E-18
 -1      3746 9.52555E-05-2.85860E-05-2.85727E-05 1.42617E-08 1.09159E-19 2.66749E-18
 -1      3747 9.52482E-05-2.85834E-05-2.85706E-05 1.40813E-08 2.76279E-19 1.45866E-18
 -1      3748 9.13120E-05-2.70968E-05-2.75294E-05 1.09525E-05-6.17089E-20-2.24240E-19
 -1      3749 9.22740E-05-2.84066E-05-2.73264E-05 1.18584E-05-2.65635E-19-1.92351E-19
 -1      3750 9.27694E-05-2.97345E-05-2.69817E-05 1.32895E-05-6.38870E-19-4.32395E-19
 -1      3751 9.44279E-05-3.21162E-05-2.67603E-05 1.44132E-05-6.97098E-19-6.17846E-19
 -1      3752 8.94591E-05-2.75653E-05-2.65399E-05 1.32506E-05-7.30769E-19 7.51944E-19
 -1      3753 9.08747E-05-2.55944E-05-2.79884E-05 8.97801E-06-5.39938E-19 3.07143E-19
 -1      3754 9.12812E-05-2.63029E-05-2.78156E-05 9.78340E-06-6.19587E-20 4.53785E-20
 -1      3755 8.89196E-05-2.54062E-05-2.72265E-05 1.04963E-05-3.79940E-19 8.35316E-19
 -1      3756 9.10272E-05-2.49339E-05-2.83379E-05 7.34691E-06-8.40968E-19 2.42251E-19
 -1      3757 9.11102E-05-2.52454E-05-2.82084E-05 8.05426E-06-4.80063E-19 1.53132E-19
 -1      3758 8.91944E-05-2.43921E-05-2.77729E-05 8.35673E-06-5.44862E-19 1.05834E-18
 -1      3759 9.14786E-05-2.48146E-05-2.85819E-05 5.99658E-06-9.81156E-19-3.38236E-19
 -1      3760 9.13929E-05-2.48751E-05-2.84953E-05 6.60844E-06-1.02072E-18-1.62210E-20
 -1      3761 8.98315E-05-2.40755E-05-2.81764E-05 6.69779E-06-7.64106E-19 7.53846E-19
 -1      3762 9.20424E-05-2.50110E-05-2.87384E-05 4.86793E-06-8.15713E-19-8.20886E-19
 -1      3763 9.18800E-05-2.49241E-05-2.86875E-05 5.39673E-06-8.31285E-19-3.71432E-19
 -1      3764 9.06132E-05-2.41954E-05-2.84580E-05 5.38986E-06-5.88348E-19-3.63670E-19
 -1      3765 9.26181E-05-2.53765E-05-2.88273E-05 3.91828E-06-1.26975E-18-5.09220E-19
 -1      3766 9.24322E-05-2.52114E-05-2.88035E-05 4.37352E-06-1.12306E-18-8.53051E-19
 -1      3767 9.14086E-05-2.45593E-05-2.86426E-05 4.32956E-06-1.17308E-18-9.48306E-19
 -1      3768 9.31520E-05-2.58143E-05-2.88672E-05 3.11995E-06-8.24772E-19-6.41019E-20
 -1      3769 9.29715E-05-2.56163E-05-2.88626E-05 3.50857E-06-9.00496E-19 3.44312E-20
 -1      3770 9.21511E-05-2.50445E-05-2.87533E-05 3.45792E-06-1.52792E-18-4.39170E-19
 -1      3771 9.36190E-05-2.62633E-05-2.88737E-05 2.45304E-06-8.56575E-19 8.10794E-20
 -1      3772 9.34580E-05-2.60605E-05-2.88815E-05 2.78082E-06-6.12532E-19 5.25416E-19
 -1      3773 9.28076E-05-2.55692E-05-2.88106E-05 2.73733E-06-9.27928E-19-3.01325E-19
 -1      3774 9.40113E-05-2.66874E-05-2.88589E-05 1.90156E-06 3.51776E-20-6.21506E-19
 -1      3775 9.38752E-05-2.64963E-05-2.88741E-05 2.17413E-06-3.49827E-19 3.94783E-19
 -1      3776 9.33662E-05-2.60824E-05-2.88310E-05 2.14249E-06-6.74387E-19-6.73223E-19
 -1      3777 9.43305E-05-2.70673E-05-2.88318E-05 1.45132E-06 4.25980E-21-8.83691E-19
 -1      3778 9.42198E-05-2.68966E-05-2.88506E-05 1.67450E-06 4.07690E-20-7.49824E-19
 -1      3779 9.38275E-05-2.65545E-05-2.88272E-05 1.65483E-06 3.29819E-19-6.08894E-19
 -1      3780 9.45836E-05-2.73950E-05-2.87989E-05 1.08894E-06 1.93821E-20-1.03962E-18
 -1      3781 9.44963E-05-2.72481E-05-2.88188E-05 1.26877E-06 1.82408E-20-6.63719E-19
 -1      3782 9.41988E-05-2.69706E-05-2.88089E-05 1.25920E-06-1.76365E-19-5.95619E-19
 -1      3783 9.47796E-05-2.76693E-05-2.87646E-05 8.01674E-07-2.84833E-19-1.65909E-18
 -1      3784 9.47126E-05-2.75467E-05-2.87838E-05 9.44213E-07-1.30531E-19-1.43645E-18
 -1      3785 9.44910E-05-2.73256E-05-2.87827E-05 9.42280E-07 3.49275E-19-1.03066E-18
 -1      3786 9.49279E-05-2.78934E-05-2.87314E-05 5.77560E-07 8.18940E-19-1.78917E-18
 -1      3787 9.48778E-05-2.77934E-05-2.87491E-05 6.88659E-07 1.95682E-19-1.86349E-18
 -1      3788 9.47161E-05-2.76205E-05-2.87534E-05 6.91976E-07 3.09201E-19-2.20557E-18
 -1      3789 9.50377E-05-2.80724E-05-2.87012E-05 4.05605E-07 5.11203E-19-6.48358E-20
 -1      3790 9.50011E-05-2.79927E-05-2.87168E-05 4.90714E-07 4.47556E-19-8.27110E-19
 -1      3791 9.48859E-05-2.78598E-05-2.87241E-05 4.97275E-07 1.42419E-20-1.16396E-18
 -1      3792 9.51169E-05-2.82127E-05-2.86746E-05 2.75986E-07-5.97002E-19 9.25528E-19
 -1      3793 9.50910E-05-2.81504E-05-2.86879E-05 3.40006E-07 5.91757E-19 2.70669E-19
 -1      3794 9.50112E-05-2.80501E-05-2.86966E-05 3.48266E-07-1.17164E-19-4.41351E-19
 -1      3795 9.51725E-05-2.83203E-05-2.86519E-05 1.80134E-07-4.87798E-19-4.79170E-21
 -1      3796 9.51547E-05-2.82726E-05-2.86630E-05 2.27353E-07-8.00455E-19 9.54980E-19
 -1      3797 9.51015E-05-2.81985E-05-2.86720E-05 2.36198E-07-3.40207E-19 5.95728E-19
 -1      3798 9.52103E-05-2.84014E-05-2.86331E-05 1.10754E-07 2.04016E-20-7.61042E-20
 -1      3799 9.51985E-05-2.83656E-05-2.86421E-05 1.44823E-07-2.72462E-19 7.63405E-20
 -1      3800 9.51647E-05-2.83120E-05-2.86507E-05 1.53506E-07-2.37689E-19 3.31928E-19
 -1      3801 9.52348E-05-2.84612E-05-2.86177E-05 6.17643E-08-3.90657E-19 4.26877E-19
 -1      3802 9.52275E-05-2.84348E-05-2.86250E-05 8.57253E-08 3.52761E-20 5.57812E-19
 -1      3803 9.52075E-05-2.83971E-05-2.86328E-05 9.37839E-08-7.37292E-19 1.13045E-18
 -1      3804 9.52497E-05-2.85043E-05-2.86055E-05 2.81954E-08-4.55311E-19 6.90658E-19
 -1      3805 9.52456E-05-2.84853E-05-2.86112E-05 4.45305E-08-5.35388E-19 4.06753E-19
 -1      3806 9.52353E-05-2.84596E-05-2.86180E-05 5.17158E-08-3.12968E-19 8.02142E-19
 -1      3807 9.52578E-05-2.85345E-05-2.85959E-05 6.06488E-09-2.23487E-18 1.29184E-18
 -1      3808 9.52559E-05-2.85213E-05-2.86003E-05 1.67595E-08-9.78071E-19 1.28400E-18
 -1      3809 9.52521E-05-2.85044E-05-2.86061E-05 2.29725E-08-1.33315E-18 1.05810E-18
 -1      3810 9.52613E-05-2.85550E-05-2.85886E-05-7.76175E-09-2.75437E-18 1.36935E-18
 -1      3811 9.52608E-05-2.85461E-05-2.85919E-05-1.14828E-09-2.70461E-18 1.51473E-18
 -1      3812 9.52612E-05-2.85356E-05-2.85966E-05 4.09312E-09-2.30850E-18 1.98415E-18
 -1      3813 9.52618E-05-2.85684E-05-2.85830E-05-1.57064E-08-9.42090E-19 1.80840E-19
 -1      3814 9.52622E-05-2.85626E-05-2.85854E-05-1.19724E-08-1.39162E-18 7.42941E-19
 -1      3815 9.52650E-05-2.85566E-05-2.85893E-05-7.64026E-09-1.37886E-18 1.30059E-18
 -1      3816 9.52604E-05-2.85765E-05-2.85789E-05-1.96053E-08-9.42527E-19-1.00663E-19
 -1      3817 9.52614E-05-2.85730E-05-2.85806E-05-1.78424E-08-1.42888E-18-1.27897E-19
 -1      3818 9.52655E-05-2.85702E-05-2.85837E-05-1.43232E-08-5.27382E-19 1.46332E-18
 -1      3819 9.52580E-05-2.85810E-05-2.85758E-05-2.08223E-08-4.74492E-20-9.44896E-19
 -1      3820 9.52592E-05-2.85791E-05-2.85771E-05-2.03580E-08-6.94078E-20-6.79028E-19
 -1      3821 9.52638E-05-2.85783E-05-2.85795E-05-1.75413E-08-4.57468E-19-4.27301E-19
 -1      3822 9.52551E-05-2.85831E-05-2.85737E-05-2.03484E-08-2.22983E-19-9.81720E-20
 -1      3823 9.52563E-05-2.85822E-05-2.85746E-05-2.06969E-08-7.02703E-19-1.30670E-18
 -1      3824 9.52609E-05-2.85827E-05-2.85764E-05-1.84715E-08-7.65293E-20-1.42819E-18
 -1      3825 9.52520E-05-2.85836E-05-2.85722E-05-1.88777E-08-2.30459E-19 9.48858E-19
 -1      3826 9.52533E-05-2.85834E-05-2.85728E-05-1.97007E-08 5.71130E-19 8.70690E-19
 -1      3827 9.52575E-05-2.85846E-05-2.85741E-05-1.79639E-08-9.95444E-19-2.64904E-19
 -1      3828 9.52491E-05-2.85832E-05-2.85711E-05-1.68858E-08 1.90598E-18-1.22435E-19
 -1      3829 9.52503E-05-2.85834E-05-2.85715E-05-1.79509E-08 8.15490E-19 5.97096E-19
 -1      3830 9.52540E-05-2.85849E-05-2.85725E-05-1.66187E-08 1.17578E-18-5.00423E-19
 -1      3831 9.52470E-05-2.85826E-05-2.85704E-05-1.48328E-08 1.58123E-18 2.55313E-19
 -1      3832 9.52480E-05-2.85829E-05-2.85707E-05-1.60001E-08 1.75140E-18-3.88608E-19
 -1      3833 9.52512E-05-2.85845E-05-2.85715E-05-1.49378E-08 2.08256E-18-2.52786E-18
 -1      3834 9.52491E-05-2.85840E-05-2.85708E-05-1.33207E-08 1.16676E-18-1.33601E-18
 -1      3835 6.58141E-05-1.62664E-05-2.12609E-05 8.60529E-06-2.18920E-19 2.11574E-18
 -1      3836 6.34771E-05-1.46145E-05-2.08740E-05 1.54163E-06-1.32587E-19 1.60406E-18
 -1      3837 1.20134E-04-4.61990E-05-3.17202E-05-1.38066E-06-3.76643E-19 6.29173E-19
 -1      3838 9.52524E-05-2.85864E-05-2.85712E-05-5.22040E-09-4.57680E-20-5.03348E-19
 -1      3839 9.52505E-05-2.85856E-05-2.85706E-05-6.14777E-09 2.91695E-19-4.94344E-19
 -1      3840 9.52495E-05-2.85850E-05-2.85705E-05-8.25190E-09 2.37093E-19 7.28546E-19
 -1      3841 8.61839E-05-2.61697E-05-2.56356E-05-1.45356E-05 3.53822E-19-1.57608E-19
 -1      3842 8.54881E-05-2.47321E-05-2.60790E-05-1.29312E-05 1.00231E-19-1.33141E-19
 -1      3843 8.27457E-05-2.24991E-05-2.57757E-05-1.15407E-05 9.21181E-20 4.82498E-19
 -1      3844 9.44888E-05-3.37630E-05-2.60622E-05 1.64662E-05-1.06352E-18-1.05700E-18
 -1      3845 8.81392E-05-2.95839E-05-2.49253E-05 1.77157E-05-1.37098E-18-4.60467E-20
 -1      3846 7.31934E-05-2.20074E-05-2.18575E-05-1.72792E-05 1.09743E-18 1.17012E-18
 -1      3847 8.25345E-05-2.88223E-05-2.30637E-05-2.12102E-05 1.36418E-18-6.79267E-19
 -1      3848 1.19012E-04-4.76834E-05-3.06005E-05-6.97680E-06-6.10373E-19 2.77019E-19
 -1      3849 1.16295E-04-5.09100E-05-2.79763E-05-1.48914E-05 1.01964E-18-2.94456E-18
 -1      3850 1.09770E-04-4.27866E-05-2.86761E-05-1.21726E-05-7.35443E-19-5.72816E-19
 -1      3851 6.36952E-05-1.49198E-05-2.08732E-05-4.59062E-06 5.58215E-20 9.51999E-19
 -1      3852 6.70489E-05-1.75256E-05-2.12415E-05-1.19799E-05 5.54363E-19 1.32641E-18
 -1      3853 9.52510E-05-2.85849E-05-2.85713E-05 1.27822E-08-4.56427E-19 1.37100E-18
 -1      3854 1.04957E-04-4.27082E-05-2.67799E-05 1.65823E-05-1.11784E-18-2.19819E-18
 -1      3855 8.40772E-05-2.62854E-05-2.48416E-05 1.56540E-05-1.45893E-18 3.79520E-19
 -1      3856 9.96028E-05-3.67297E-05-2.70964E-05-1.69716E-05-8.11199E-19-1.58023E-18
 -1      3857 7.20984E-05-1.89007E-05-2.27064E-05 1.06189E-05-7.37448E-19 1.34425E-18
 -1      3858 7.38907E-05-2.04613E-05-2.27637E-05-1.32328E-05 6.99100E-19 8.29986E-19
 -1      3859 6.79779E-05-1.58963E-05-2.21902E-05-1.68367E-06 8.99807E-20 1.34363E-18
 -1      3860 9.52500E-05-2.85848E-05-2.85708E-05-1.01641E-08 9.41434E-19-4.01916E-19
 -1      3861 9.52548E-05-2.85873E-05-2.85718E-05-4.25711E-09 3.09520E-20-1.18248E-18
 -1      3862 9.52540E-05-2.85868E-05-2.85716E-05-6.80628E-09-1.82488E-20-3.57794E-19
 -1      3863 8.52512E-05-2.73329E-05-2.48414E-05-1.69827E-05 6.67972E-19-5.37112E-19
 -1      3864 8.08961E-05-2.40392E-05-2.43420E-05-1.55476E-05 6.42908E-19 1.13086E-19
 -1      3865 9.52528E-05-2.85859E-05-2.85715E-05 1.05928E-08 8.42830E-20 1.40094E-19
 -1      3866 8.70486E-05-3.01569E-05-2.43073E-05-1.91580E-05 1.18022E-18-7.67194E-19
 -1      3867 9.52552E-05-2.85875E-05-2.85719E-05-1.32473E-09 2.08147E-20-9.26364E-19
 -1      3868 9.52568E-05-2.85879E-05-2.85724E-05-2.96789E-09 2.38009E-19-1.51129E-18
 -1      3869 9.52552E-05-2.85876E-05-2.85719E-05 1.33263E-09-7.06114E-19-1.01533E-18
 -1      3870 9.01178E-05-3.38366E-05-2.40716E-05-2.19193E-05 1.39710E-18-1.06374E-18
 -1      3871 9.50212E-05-3.85191E-05-2.39471E-05-2.35354E-05 1.60235E-18-1.34571E-18
 -1      3872 9.52524E-05-2.85864E-05-2.85712E-05 5.27024E-09-3.43376E-19-1.97796E-18
 -1      3873 8.44407E-05-2.11030E-05-2.71450E-05-5.96155E-06-1.35609E-19 5.61808E-19
 -1      3874 8.53101E-05-2.13192E-05-2.74558E-05-5.24424E-06-2.11278E-20-3.57431E-20
 -1      3875 8.64644E-05-2.17040E-05-2.77547E-05-4.71837E-06-1.43033E-19-1.17231E-19
 -1      3876 8.72369E-05-2.20296E-05-2.79681E-05-4.18457E-06-2.96392E-19-4.93437E-19
 -1      3877 8.49077E-05-2.08371E-05-2.74280E-05-3.88110E-06-2.04873E-19-1.73318E-19
 -1      3878 8.81857E-05-2.24576E-05-2.81711E-05-3.79302E-06-1.00181E-19-6.55199E-19
 -1      3879 8.88570E-05-2.28327E-05-2.83125E-05-3.37279E-06-1.82735E-19-3.35507E-19
 -1      3880 8.69869E-05-2.17372E-05-2.79406E-05-3.09745E-06-4.02535E-19-3.00996E-19
 -1      3881 8.96378E-05-2.32683E-05-2.84464E-05-3.06509E-06-6.17490E-21 1.11185E-19
 -1      3882 9.02077E-05-2.36543E-05-2.85354E-05-2.72131E-06 5.92381E-19 1.28706E-19
 -1      3883 8.86957E-05-2.26543E-05-2.82851E-05-2.50235E-06 1.40857E-19 5.67012E-20
 -1      3884 9.08494E-05-2.40744E-05-2.86199E-05-2.47042E-06 1.35545E-19 1.21917E-20
 -1      3885 9.13241E-05-2.44464E-05-2.86718E-05-2.18333E-06-3.23021E-19-4.51199E-19
 -1      3886 9.01017E-05-2.35460E-05-2.85094E-05-2.02357E-06 8.55098E-23-8.62749E-20
 -1      3887 9.18478E-05-2.48351E-05-2.87214E-05-1.97548E-06-1.22513E-19-4.02749E-19
 -1      3888 9.22363E-05-2.51775E-05-2.87474E-05-1.73441E-06 1.04800E-19-6.17412E-19
 -1      3889 9.12542E-05-2.43819E-05-2.86481E-05-1.62666E-06-2.10945E-19-1.70111E-20
 -1      3890 9.26594E-05-2.55253E-05-2.87729E-05-1.56182E-06 6.00878E-19-6.91461E-19
 -1      3891 9.29720E-05-2.58294E-05-2.87818E-05-1.36030E-06 5.09964E-19-3.28896E-19
 -1      3892 9.21907E-05-2.51408E-05-2.87266E-05-1.29411E-06 2.42611E-19 1.08465E-19
 -1      3893 9.33095E-05-2.61320E-05-2.87912E-05-1.21790E-06-1.37043E-20 9.70195E-21
 -1      3894 9.35569E-05-2.63945E-05-2.87891E-05-1.05122E-06-1.59014E-19-4.02448E-19
 -1      3895 9.29431E-05-2.58105E-05-2.87641E-05-1.01599E-06 3.91585E-19-4.63799E-19
 -1      3896 9.38225E-05-2.66514E-05-2.87881E-05-9.35043E-07-6.38626E-19-6.94136E-19
 -1      3897 9.40152E-05-2.68726E-05-2.87795E-05-7.99058E-07-1.11738E-18-1.14360E-18
 -1      3898 9.35397E-05-2.63868E-05-2.87743E-05-7.85550E-07-5.93621E-19-7.28645E-19
 -1      3899 9.42210E-05-2.70860E-05-2.87724E-05-7.05624E-07-8.62585E-19-1.02810E-18
 -1      3900 9.43686E-05-2.72684E-05-2.87604E-05-5.96382E-07-2.98321E-19-1.24054E-18
 -1      3901 9.40060E-05-2.68718E-05-2.87675E-05-5.97150E-07-4.76237E-19-2.65054E-19
 -1      3902 9.45255E-05-2.74423E-05-2.87500E-05-5.22420E-07-1.61748E-19-9.52491E-19
 -1      3903 9.46366E-05-2.75899E-05-2.87368E-05-4.36087E-07 3.04735E-19-1.02306E-18
 -1      3904 9.43648E-05-2.72718E-05-2.87509E-05-4.45503E-07-2.93310E-19 1.66465E-19
 -1      3905 9.47543E-05-2.77289E-05-2.87251E-05-3.78520E-07 5.04562E-19-1.56556E-18
 -1      3906 9.48363E-05-2.78461E-05-2.87120E-05-3.11443E-07 4.21299E-19-1.59509E-18
 -1      3907 9.46364E-05-2.75955E-05-2.87294E-05-3.25466E-07 7.50669E-20-7.37581E-19
 -1      3908 9.49229E-05-2.79554E-05-2.87003E-05-2.67430E-07 4.02160E-20-1.60288E-18
 -1      3909 9.49822E-05-2.80468E-05-2.86880E-05-2.16234E-07-4.42219E-19-1.77136E-18
 -1      3910 9.48383E-05-2.78528E-05-2.87063E-05-2.32100E-07 2.32966E-19-1.15258E-18
 -1      3911 9.50445E-05-2.81311E-05-2.86770E-05-1.83217E-07-4.50236E-19-1.60574E-18
 -1      3912 9.50863E-05-2.82013E-05-2.86661E-05-1.44870E-07-7.90507E-19-1.15407E-18
 -1      3913 9.49854E-05-2.80537E-05-2.86838E-05-1.60793E-07-2.45695E-19-8.83084E-19
 -1      3914 9.51300E-05-2.82652E-05-2.86562E-05-1.20611E-07-1.44549E-18-4.61107E-19
 -1      3915 9.51587E-05-2.83180E-05-2.86468E-05-9.24702E-08-1.26977E-18-3.09834E-19
 -1      3916 9.50901E-05-2.82079E-05-2.86630E-05-1.07380E-07-3.34566E-19-1.25489E-18
 -1      3917 9.51884E-05-2.83655E-05-2.86382E-05-7.50548E-08-1.51122E-18-6.41790E-19
 -1      3918 9.52073E-05-2.84045E-05-2.86303E-05-5.48748E-08-1.12002E-18-6.07984E-19
 -1      3919 9.51626E-05-2.83240E-05-2.86445E-05-6.82016E-08-1.87218E-18-1.41123E-18
 -1      3920 9.52266E-05-2.84391E-05-2.86231E-05-4.27087E-08-8.88468E-19-1.44111E-18
 -1      3921 9.52384E-05-2.84672E-05-2.86166E-05-2.86230E-08-4.15581E-19-1.56450E-18
 -1      3922 9.52110E-05-2.84098E-05-2.86287E-05-4.01365E-08-1.42344E-18-2.16453E-18
 -1      3923 9.52503E-05-2.84918E-05-2.86106E-05-2.04050E-08-1.46040E-19-2.15317E-18
 -1      3924 9.52570E-05-2.85116E-05-2.86054E-05-1.08962E-08-1.78535E-19-2.47988E-18
 -1      3925 9.52418E-05-2.84717E-05-2.86155E-05-2.05820E-08-8.31512E-19-3.49311E-18
 -1      3926 9.52636E-05-2.85286E-05-2.86006E-05-5.58584E-09-7.10480E-19-1.91603E-18
 -1      3927 9.52668E-05-2.85421E-05-2.85965E-05 5.55880E-10-9.16968E-19-2.25139E-18
 -1      3928 9.52599E-05-2.85154E-05-2.86047E-05-7.41738E-09-1.13655E-19-3.16656E-18
 -1      3929 9.52698E-05-2.85535E-05-2.85927E-05 3.77400E-09 3.95651E-20-2.14829E-18
 -1      3930 9.52708E-05-2.85623E-05-2.85894E-05 7.49461E-09 2.26230E-19-1.93337E-18
 -1      3931 9.52693E-05-2.85452E-05-2.85960E-05 1.05014E-09-2.07567E-19-2.20541E-18
 -1      3932 9.52713E-05-2.85695E-05-2.85865E-05 9.24736E-09 1.43403E-18-1.07897E-18
 -1      3933 9.52708E-05-2.85749E-05-2.85840E-05 1.12725E-08 1.86195E-18 2.41906E-19
 -1      3934 9.52728E-05-2.85647E-05-2.85892E-05 6.14515E-09 1.39348E-18-1.95800E-18
 -1      3935 9.52699E-05-2.85791E-05-2.85817E-05 1.20319E-08 5.07925E-19 1.42063E-19
 -1      3936 9.52685E-05-2.85822E-05-2.85799E-05 1.29070E-08 4.19083E-19-3.76768E-19
 -1      3937 9.52724E-05-2.85768E-05-2.85839E-05 8.88343E-09 1.32473E-18-3.85853E-19
 -1      3938 9.52668E-05-2.85844E-05-2.85781E-05 1.30218E-08 8.38672E-19-1.48154E-19
 -1      3939 9.52649E-05-2.85858E-05-2.85768E-05 1.31482E-08 7.25674E-19-4.78892E-20
 -1      3940 9.52697E-05-2.85836E-05-2.85798E-05 1.00278E-08 9.66540E-19 1.90650E-19
 -1      3941 9.52628E-05-2.85866E-05-2.85755E-05 1.28649E-08 4.24790E-19-1.10693E-19
 -1      3942 9.52608E-05-2.85871E-05-2.85744E-05 1.25312E-08 1.08695E-19 5.09789E-19
 -1      3943 9.52658E-05-2.85869E-05-2.85767E-05 1.01420E-08 5.52500E-19-1.97958E-19
 -1      3944 9.52585E-05-2.85870E-05-2.85735E-05 1.20285E-08-3.10735E-19 3.34319E-19
 -1      3945 9.52566E-05-2.85869E-05-2.85727E-05 1.14207E-08-8.60157E-20 6.44082E-19
 -1      3946 9.52614E-05-2.85878E-05-2.85744E-05 9.63706E-09-1.95722E-19-1.01786E-18
 -1      3947 8.46243E-05-2.40856E-05-2.59898E-05 1.17223E-05-5.60056E-19 4.13614E-19
 -1      3948 8.51294E-05-2.53766E-05-2.55656E-05 1.33306E-05-1.14825E-18 1.60296E-19
 -1      3949 7.90118E-05-2.23700E-05-2.42394E-05 1.37497E-05-1.20746E-18 1.02366E-19
 -1      3950 8.75611E-05-2.31538E-05-2.76280E-05 7.18825E-06-6.52298E-19 5.34740E-19
 -1      3951 8.72935E-05-2.33796E-05-2.73787E-05 8.11140E-06-3.24246E-19 6.27680E-19
 -1      3952 9.95356E-05-3.67628E-05-2.67630E-05 1.53789E-05-6.23059E-19-1.63943E-18
 -1      3953 8.87166E-05-2.32638E-05-2.80713E-05 5.68970E-06-5.72653E-19-6.77733E-20
 -1      3954 8.83384E-05-2.32302E-05-2.78930E-05 6.38406E-06-4.07568E-19 3.45898E-19
 -1      3955 8.65730E-05-2.22824E-05-2.75324E-05 6.10413E-06-2.68218E-19-1.95053E-19
 -1      3956 8.98306E-05-2.36521E-05-2.83781E-05 4.52548E-06-2.72682E-19-7.43248E-19
 -1      3957 8.94231E-05-2.34755E-05-2.82568E-05 5.07832E-06-4.69729E-19-5.19150E-19
 -1      3958 8.80438E-05-2.26750E-05-2.79997E-05 4.75873E-06-3.63444E-20-3.14535E-19
 -1      3959 9.08517E-05-2.41958E-05-2.85796E-05 3.60075E-06-1.02971E-18-1.05610E-18
 -1      3960 9.04581E-05-2.39440E-05-2.85027E-05 4.05127E-06-4.27259E-19-7.58066E-19
 -1      3961 8.93732E-05-2.32578E-05-2.83218E-05 3.74285E-06-3.67147E-19-1.20847E-18
 -1      3962 9.17506E-05-2.48011E-05-2.87030E-05 2.85296E-06-1.80053E-18-8.31655E-19
 -1      3963 9.13949E-05-2.45199E-05-2.86589E-05 3.22459E-06-1.55109E-18-8.83885E-19
 -1      3964 9.05363E-05-2.39301E-05-2.85343E-05 2.95234E-06-1.10270E-18-1.03693E-18
 -1      3965 9.25182E-05-2.54070E-05-2.87705E-05 2.24278E-06-5.59648E-19-1.44301E-18
 -1      3966 9.22106E-05-2.51259E-05-2.87495E-05 2.55040E-06-1.12643E-18-1.25751E-18
 -1      3967 9.15316E-05-2.46216E-05-2.86663E-05 2.32305E-06-1.35735E-18-1.20912E-18
 -1      3968 9.31574E-05-2.59754E-05-2.87992E-05 1.74449E-06-3.20379E-19-1.26904E-18
 -1      3969 9.29001E-05-2.57125E-05-2.87939E-05 1.99822E-06-6.35244E-19-1.34614E-18
 -1      3970 9.23660E-05-2.52860E-05-2.87409E-05 1.81595E-06-5.30058E-19-1.19482E-18
 -1      3971 9.36777E-05-2.64853E-05-2.88024E-05 1.33967E-06 1.86744E-20-4.10315E-19
 -1      3972 9.34683E-05-2.62503E-05-2.88071E-05 1.54721E-06 5.30393E-20-8.45812E-19
 -1      3973 9.30522E-05-2.58946E-05-2.87756E-05 1.40593E-06-4.01182E-19-7.02484E-19
 -1      3974 9.40928E-05-2.69273E-05-2.87897E-05 1.01377E-06-1.57676E-19-5.57994E-19
 -1      3975 9.39262E-05-2.67243E-05-2.88003E-05 1.18159E-06-2.95357E-19-3.60118E-19
 -1      3976 9.36061E-05-2.64322E-05-2.87839E-05 1.07541E-06-2.55509E-19-2.04556E-19
 -1      3977 9.44173E-05-2.72998E-05-2.87682E-05 7.54449E-07 2.69366E-19-8.80966E-19
 -1      3978 9.42878E-05-2.71293E-05-2.87817E-05 8.88366E-07 2.42332E-19-6.91070E-19
 -1      3979 9.40450E-05-2.68933E-05-2.87754E-05 8.10961E-07-1.63762E-20-1.66647E-18
 -1      3980 9.46662E-05-2.76065E-05-2.87427E-05 5.50868E-07 2.40250E-19-2.09962E-19
 -1      3981 9.45676E-05-2.74667E-05-2.87570E-05 6.56180E-07 2.19085E-19-4.22355E-19
 -1      3982 9.43865E-05-2.72791E-05-2.87574E-05 6.01591E-07 3.50311E-19-1.09264E-18
 -1      3983 9.48533E-05-2.78536E-05-2.87163E-05 3.93385E-07-4.05337E-20 3.50625E-19
 -1      3984 9.47798E-05-2.77413E-05-2.87303E-05 4.74922E-07 6.34527E-20 8.84644E-20
 -1      3985 9.46473E-05-2.75947E-05-2.87346E-05 4.37893E-07-2.27918E-19 1.00669E-18
 -1      3986 9.49910E-05-2.80489E-05-2.86911E-05 2.73493E-07-3.96735E-19-2.86438E-19
 -1      3987 9.49375E-05-2.79604E-05-2.87040E-05 3.35585E-07-2.48474E-19-2.36970E-19
 -1      3988 9.48427E-05-2.78478E-05-2.87104E-05 3.11701E-07-1.31483E-19 5.55762E-20
 -1      3989 9.50900E-05-2.82003E-05-2.86682E-05 1.83795E-07-6.68255E-19 3.10149E-19
 -1      3990 9.50520E-05-2.81319E-05-2.86797E-05 2.30241E-07-9.14625E-19-3.69690E-19
 -1      3991 9.49859E-05-2.80470E-05-2.86870E-05 2.15925E-07-2.54347E-19-4.35662E-19
 -1      3992 9.51592E-05-2.83154E-05-2.86482E-05 1.17968E-07-8.58279E-19 6.96233E-19
 -1      3993 9.51330E-05-2.82636E-05-2.86580E-05 1.52035E-07-2.67128E-19 5.72801E-19
 -1      3994 9.50885E-05-2.82008E-05-2.86654E-05 1.44473E-07-8.41162E-19-2.12553E-19
 -1      3995 9.52059E-05-2.84012E-05-2.86312E-05 7.07077E-08-2.58193E-19 1.17010E-19
 -1      3996 9.51886E-05-2.83627E-05-2.86394E-05 9.51433E-08-6.01261E-19 9.60955E-19
 -1      3997 9.51600E-05-2.83173E-05-2.86463E-05 9.21819E-08-6.05277E-19 4.54169E-19
 -1      3998 9.52361E-05-2.84638E-05-2.86171E-05 3.76452E-08-8.10130E-19 5.68967E-19
 -1      3999 9.52252E-05-2.84359E-05-2.86238E-05 5.47171E-08-3.86625E-19 3.01128E-19
 -1      4000 9.52080E-05-2.84038E-05-2.86300E-05 5.47476E-08-4.50476E-19 9.05910E-20
 -1      4001 9.52543E-05-2.85084E-05-2.86056E-05 1.52446E-08-2.06561E-18 1.62602E-18
 -1      4002 9.52480E-05-2.84886E-05-2.86110E-05 2.67893E-08-1.83345E-18 9.18033E-19
 -1      4003 9.52388E-05-2.84667E-05-2.86164E-05 2.86428E-08-1.54738E-18 9.63021E-19
 -1      4004 9.52641E-05-2.85393E-05-2.85965E-05 6.95244E-10-2.06269E-18 1.55760E-18
 -1      4005 9.52610E-05-2.85257E-05-2.86007E-05 8.17306E-09-1.74947E-18 1.68433E-18
 -1      4006 9.52572E-05-2.85112E-05-2.86053E-05 1.10242E-08-1.95145E-18 6.69879E-19
 -1      4007 9.52682E-05-2.85599E-05-2.85894E-05-8.19878E-09-1.18605E-18 1.22447E-18
 -1      4008 9.52672E-05-2.85508E-05-2.85926E-05-3.64741E-09-1.89583E-18 1.30331E-18
 -1      4009 9.52669E-05-2.85418E-05-2.85964E-05-3.61194E-10-1.62493E-18 8.69851E-19
 -1      4010 9.52685E-05-2.85729E-05-2.85839E-05-1.31222E-08-2.58167E-19 1.47514E-18
 -1      4011 9.52689E-05-2.85673E-05-2.85864E-05-1.06229E-08-2.93491E-19 1.68160E-18
 -1      4012 9.52707E-05-2.85621E-05-2.85894E-05-7.26887E-09-9.71977E-19 1.20308E-19
 -1      4013 9.52666E-05-2.85806E-05-2.85797E-05-1.53426E-08 6.31918E-19-4.02335E-19
 -1      4014 9.52678E-05-2.85773E-05-2.85816E-05-1.42379E-08 1.61086E-19 8.10898E-19
 -1      4015 9.52707E-05-2.85748E-05-2.85840E-05-1.10418E-08 4.17656E-19 1.24749E-19
 -1      4016 9.52633E-05-2.85845E-05-2.85766E-05-1.57936E-08-5.06134E-19-7.72507E-19
 -1      4017 9.52650E-05-2.85829E-05-2.85780E-05-1.55994E-08 4.57589E-19-1.93781E-19
 -1      4018 9.52684E-05-2.85822E-05-2.85799E-05-1.26859E-08 8.18142E-19 2.70686E-19
 -1      4019 9.52595E-05-2.85860E-05-2.85743E-05-1.51707E-08 4.77148E-20-4.23161E-20
 -1      4020 9.52613E-05-2.85855E-05-2.85753E-05-1.55312E-08-1.16320E-18-2.92884E-19
 -1      4021 9.52648E-05-2.85858E-05-2.85768E-05-1.29407E-08-8.98932E-19 3.11402E-19
 -1      4022 9.52556E-05-2.85860E-05-2.85726E-05-1.39091E-08 1.88464E-18-1.04592E-18
 -1      4023 9.52574E-05-2.85861E-05-2.85734E-05-1.45733E-08 1.36986E-18-8.42212E-19
 -1      4024 9.52607E-05-2.85871E-05-2.85744E-05-1.23869E-08 9.33616E-19-1.14620E-18
 -1      4025 8.20178E-05-2.07351E-05-2.62749E-05-7.73030E-06 1.66195E-19 9.07173E-19
 -1      4026 8.30099E-05-2.07819E-05-2.67146E-05-6.66599E-06 1.43978E-19 8.40102E-19
 -1      4027 8.23930E-05-2.00254E-05-2.66833E-05-4.95887E-06 3.60469E-20 6.98031E-19
 -1      4028 7.50984E-05-1.98571E-05-2.37153E-05-1.11043E-05 4.14001E-19 8.85057E-19
 -1      4029 9.52553E-05-2.85868E-05-2.85722E-05 9.66439E-09-1.77510E-19-5.53272E-20
 -1      4030 9.52540E-05-2.85868E-05-2.85717E-05 6.76615E-09-2.37726E-19-7.84227E-19
 -1      4031 9.52549E-05-2.85873E-05-2.85718E-05 4.23791E-09-8.68982E-19-9.08223E-19
 -1      4032 9.52579E-05-2.85878E-05-2.85729E-05 7.50498E-09-2.67080E-19-9.14720E-19
 -1      4033 8.61173E-05-2.33271E-05-2.69437E-05 9.04449E-06-3.86086E-19 4.46439E-19
 -1      4034 8.60523E-05-2.38959E-05-2.66112E-05 1.02618E-05-3.45207E-19 3.96075E-19
 -1      4035 8.19171E-05-2.18159E-05-2.57277E-05 9.87845E-06-5.11232E-19-3.01152E-19
 -1      4036 8.46688E-05-2.20820E-05-2.68228E-05 7.80158E-06-5.21025E-19-6.62919E-19
 -1      4037 7.85604E-05-2.04867E-05-2.48884E-05-9.97360E-06 1.65145E-19 5.49600E-19
 -1      4038 7.96240E-05-2.02170E-05-2.55182E-05-8.39237E-06 1.11156E-19 6.85539E-19
 -1      4039 7.86649E-05-1.90104E-05-2.54944E-05-6.03113E-06 5.54492E-20 6.70969E-19
 -1      4040 7.25846E-05-1.74570E-05-2.35432E-05-7.06600E-06 1.79506E-19 6.17411E-19
 -1      4041 7.10966E-05-1.63653E-05-2.34005E-05 2.91064E-06-2.11320E-19 1.39142E-18
 -1      4042 7.10032E-05-1.65483E-05-2.33951E-05-2.70899E-06 6.46624E-20 9.69634E-19
 -1      4043 7.48156E-05-1.75393E-05-2.45560E-05-2.64470E-06-1.89689E-20 7.57908E-19
 -1      4044 7.34784E-05-1.85223E-05-2.36221E-05 8.53681E-06-5.83854E-19 9.48022E-19
 -1      4045 9.52527E-05-2.85861E-05-2.85714E-05-9.09127E-09 7.53494E-19 3.05901E-20
 -1      4046 9.52509E-05-2.85850E-05-2.85711E-05-1.14476E-08 1.09822E-18-2.91683E-19
 -1      4047 9.52520E-05-2.85853E-05-2.85715E-05-1.22741E-08 1.34145E-18-2.28107E-19
 -1      4048 9.52551E-05-2.85870E-05-2.85720E-05-8.21064E-09 3.50730E-19-3.81416E-19
 -1      4049 7.65723E-05-1.89413E-05-2.46724E-05 6.57731E-06-6.50797E-19 6.40671E-19
 -1      4050 9.52532E-05-2.85856E-05-2.85718E-05-1.29984E-08 1.67384E-18-7.26588E-19
 -1      4051 9.52593E-05-2.85886E-05-2.85731E-05-1.68674E-09-2.58077E-19-2.35308E-18
 -1      4052 9.52588E-05-2.85883E-05-2.85731E-05-4.57153E-09 1.63908E-19-2.04899E-18
 -1      4053 9.52569E-05-2.85880E-05-2.85724E-05 2.89997E-09-5.35706E-19-8.09639E-19
 -1      4054 9.52601E-05-2.85881E-05-2.85737E-05-7.59923E-09 1.23121E-18-2.84415E-18
 -1      4055 9.52576E-05-2.85875E-05-2.85729E-05-8.84751E-09 1.02829E-18-1.13343E-18
 -1      4056 9.52561E-05-2.85868E-05-2.85726E-05-1.11025E-08 1.55390E-18-3.13347E-19
 -1      4057 8.60008E-05-2.12480E-05-2.77652E-05-2.15140E-06-4.66282E-19 2.58262E-19
 -1      4058 8.69630E-05-2.17260E-05-2.79775E-05-1.89536E-06-4.87384E-19 2.06506E-19
 -1      4059 8.79165E-05-2.22267E-05-2.81633E-05-1.75899E-06-1.13782E-19-8.07306E-20
 -1      4060 8.87049E-05-2.26939E-05-2.83042E-05-1.55432E-06 1.20123E-19-3.99279E-19
 -1      4061 8.71705E-05-2.17280E-05-2.80069E-05-8.52934E-07-3.27613E-19-1.14880E-18
 -1      4062 8.94801E-05-2.31698E-05-2.84268E-05-1.44066E-06-1.28625E-19-6.99223E-19
 -1      4063 9.01270E-05-2.36126E-05-2.85167E-05-1.26904E-06 1.57531E-20-7.56018E-19
 -1      4064 8.88794E-05-2.27310E-05-2.83187E-05-7.28984E-07-2.80017E-19-1.49958E-18
 -1      4065 9.07584E-05-2.40535E-05-2.85941E-05-1.17280E-06 1.49043E-19-7.52782E-19
 -1      4066 9.12861E-05-2.44603E-05-2.86478E-05-1.02603E-06-6.03878E-20-7.39809E-19
 -1      4067 9.02731E-05-2.36675E-05-2.85214E-05-6.14402E-07 8.15203E-20-1.31753E-18
 -1      4068 9.17977E-05-2.48581E-05-2.86933E-05-9.44378E-07-2.16619E-19-6.00907E-19
 -1      4069 9.22239E-05-2.52213E-05-2.87219E-05-8.18631E-07 1.19217E-19-7.03077E-19
 -1      4070 9.14071E-05-2.45220E-05-2.86464E-05-5.09037E-07-1.45792E-19-1.77948E-18
 -1      4071 9.26347E-05-2.55711E-05-2.87453E-05-7.49921E-07 5.82891E-19-1.15808E-18
 -1      4072 9.29749E-05-2.58873E-05-2.87569E-05-6.43106E-07 1.20705E-19-1.23179E-18
 -1      4073 9.23231E-05-2.52830E-05-2.87169E-05-4.13825E-07-9.63429E-20-1.65353E-18
 -1      4074 9.33008E-05-2.61878E-05-2.87655E-05-5.86114E-07-3.34128E-19-9.20219E-19
 -1      4075 9.35686E-05-2.64567E-05-2.87662E-05-4.96643E-07-5.78153E-19-1.18225E-18
 -1      4076 9.30552E-05-2.59451E-05-2.87502E-05-3.29800E-07-5.71634E-20-1.61315E-18
 -1      4077 9.38237E-05-2.67094E-05-2.87654E-05-4.50189E-07-9.09346E-19-1.20498E-18
 -1      4078 9.40314E-05-2.69334E-05-2.87594E-05-3.76479E-07-6.66448E-19-7.28744E-19
 -1      4079 9.36328E-05-2.65086E-05-2.87588E-05-2.57510E-07-6.28129E-19-2.29179E-18
 -1      4080 9.42281E-05-2.71416E-05-2.87529E-05-3.39327E-07-8.66582E-20-9.55103E-19
 -1      4081 9.43866E-05-2.73245E-05-2.87433E-05-2.79662E-07-7.42696E-20-7.85395E-19
 -1      4082 9.40821E-05-2.69784E-05-2.87521E-05-1.96861E-07-5.67247E-19-1.60360E-18
 -1      4083 9.45358E-05-2.74929E-05-2.87338E-05-2.50530E-07-5.15826E-19-4.15783E-19
 -1      4084 9.46548E-05-2.76396E-05-2.87226E-05-2.03096E-07 1.33093E-19-6.95856E-19
 -1      4085 9.44261E-05-2.73627E-05-2.87366E-05-1.47186E-07 1.45241E-20-1.87925E-18
 -1      4086 9.47659E-05-2.77734E-05-2.87119E-05-1.80714E-07 5.93159E-19-7.64098E-19
 -1      4087 9.48535E-05-2.78889E-05-2.87004E-05-1.43685E-07 1.90248E-19-3.93394E-19
 -1      4088 9.46850E-05-2.76713E-05-2.87166E-05-1.07423E-07 1.49595E-19-1.31999E-18
 -1      4089 9.49346E-05-2.79934E-05-2.86896E-05-1.26853E-07-7.94741E-19-5.74987E-19
 -1      4090 9.49977E-05-2.80828E-05-2.86788E-05-9.84812E-08-4.95197E-19-6.61351E-19
 -1      4091 9.48764E-05-2.79148E-05-2.86953E-05-7.62903E-08-4.61520E-19-6.78805E-19
 -1      4092 9.50556E-05-2.81629E-05-2.86687E-05-8.61081E-08-2.36259E-19-1.75767E-18
 -1      4093 9.51000E-05-2.82309E-05-2.86589E-05-6.47885E-08-1.23127E-18-1.76549E-18
 -1      4094 9.50147E-05-2.81035E-05-2.86745E-05-5.24432E-08-1.18887E-18-1.63584E-18
 -1      4095 9.51401E-05-2.82912E-05-2.86498E-05-5.59224E-08-1.84102E-18-1.37053E-18
 -1      4096 9.51703E-05-2.83419E-05-2.86412E-05-4.02326E-08-2.07748E-18-1.94453E-18
 -1      4097 9.51124E-05-2.82471E-05-2.86553E-05-3.45800E-08-1.36397E-18-1.62642E-18
 -1      4098 9.51972E-05-2.83864E-05-2.86334E-05-3.40657E-08-2.01913E-18-1.51694E-18
 -1      4099 9.52170E-05-2.84234E-05-2.86261E-05-2.27840E-08-1.89596E-18-2.07564E-18
 -1      4100 9.51791E-05-2.83544E-05-2.86384E-05-2.15125E-08-1.75190E-18-1.21742E-18
 -1      4101 9.52341E-05-2.84555E-05-2.86195E-05-1.86496E-08-1.33012E-18-1.91384E-18
 -1      4102 9.52463E-05-2.84820E-05-2.86135E-05-1.07533E-08-5.69744E-20-2.50415E-18
 -1      4103 9.52231E-05-2.84330E-05-2.86239E-05-1.22009E-08-1.55697E-18-2.65192E-19
 -1      4104 9.52565E-05-2.85046E-05-2.86080E-05-8.11448E-09-4.12448E-19-1.98998E-18
 -1      4105 9.52633E-05-2.85229E-05-2.86031E-05-2.76750E-09-5.03477E-19-1.89854E-18
 -1      4106 9.52504E-05-2.84891E-05-2.86117E-05-5.76681E-09-4.37505E-19 3.48136E-19
 -1      4107 9.52686E-05-2.85383E-05-2.85987E-05-1.20155E-09-2.54138E-19-1.31702E-18
 -1      4108 9.52717E-05-2.85506E-05-2.85948E-05 2.26533E-09 2.59647E-19-1.02337E-18
 -1      4109 9.52659E-05-2.85281E-05-2.86018E-05-1.48826E-09-2.04948E-19 1.11993E-19
 -1      4110 9.52738E-05-2.85606E-05-2.85913E-05 3.08423E-09 1.45058E-18-1.48840E-18
 -1      4111 9.52745E-05-2.85685E-05-2.85883E-05 5.19574E-09 2.06488E-18-1.26787E-18
 -1      4112 9.52732E-05-2.85543E-05-2.85938E-05 1.21308E-09 9.31259E-19-2.70649E-19
 -1      4113 9.52744E-05-2.85747E-05-2.85855E-05 5.51336E-09 1.54112E-18-1.68595E-18
 -1      4114 9.52735E-05-2.85793E-05-2.85832E-05 6.67230E-09 1.02203E-18-1.32389E-18
 -1      4115 9.52752E-05-2.85710E-05-2.85876E-05 2.79079E-09 1.65048E-18-1.05976E-18
 -1      4116 9.52721E-05-2.85828E-05-2.85811E-05 6.66942E-09 6.69427E-19-1.57686E-18
 -1      4117 9.52704E-05-2.85853E-05-2.85793E-05 7.17706E-09 4.93717E-19-1.56698E-18
 -1      4118 9.52737E-05-2.85810E-05-2.85827E-05 3.59519E-09 7.88689E-19-2.40913E-18
 -1      4119 9.52683E-05-2.85869E-05-2.85777E-05 6.97815E-09 4.39583E-19-1.09225E-18
 -1      4120 9.52662E-05-2.85879E-05-2.85764E-05 7.04369E-09 2.43821E-19-1.63809E-18
 -1      4121 9.52703E-05-2.85863E-05-2.85789E-05 3.90068E-09 2.54893E-19-2.63398E-18
 -1      4122 9.52638E-05-2.85884E-05-2.85752E-05 6.77805E-09-6.43107E-19-1.48903E-18
 -1      4123 9.52614E-05-2.85884E-05-2.85742E-05 6.61172E-09-7.77147E-19-1.75192E-18
 -1      4124 9.52658E-05-2.85885E-05-2.85761E-05 3.88461E-09-2.54305E-19-1.37863E-18
 -1      4125 8.75276E-05-2.22804E-05-2.79881E-05 3.58227E-06 1.42095E-19 1.30452E-19
 -1      4126 8.68203E-05-2.19769E-05-2.77885E-05 4.09365E-06 2.76321E-19 5.83582E-19
 -1      4127 8.90444E-05-2.30313E-05-2.83100E-05 2.79563E-06-5.07136E-19 1.55838E-19
 -1      4128 8.84194E-05-2.26771E-05-2.81754E-05 3.18699E-06-9.14001E-20 3.80668E-19
 -1      4129 8.73734E-05-2.19787E-05-2.79819E-05 2.59978E-06-9.42117E-21 9.42236E-19
 -1      4130 9.03255E-05-2.38092E-05-2.85213E-05 2.18750E-06-1.69368E-18 5.61024E-20
 -1      4131 8.97855E-05-2.34401E-05-2.84347E-05 2.49670E-06-8.77627E-19 5.14210E-20
 -1      4132 8.89709E-05-2.28548E-05-2.83011E-05 2.00345E-06-6.55143E-19 1.33805E-18
 -1      4133 9.13966E-05-2.45666E-05-2.86527E-05 1.70750E-06-9.59243E-19-4.10219E-19
 -1      4134 9.09398E-05-2.42075E-05-2.86008E-05 1.95662E-06-1.63035E-18-4.96014E-19
 -1      4135 9.02995E-05-2.37122E-05-2.85106E-05 1.55006E-06-9.54571E-19 4.91411E-19
 -1      4136 9.22806E-05-2.52711E-05-2.87273E-05 1.32439E-06-5.74354E-19-4.40529E-19
 -1      4137 9.19018E-05-2.49381E-05-2.86998E-05 1.52689E-06-6.02782E-19-8.23015E-19
 -1      4138 9.13976E-05-2.45195E-05-2.86410E-05 1.19833E-06-5.66620E-19-4.67370E-19
 -1      4139 9.29994E-05-2.59030E-05-2.87627E-05 1.01761E-06-5.19322E-19-4.95034E-19
 -1      4140 9.26911E-05-2.56055E-05-2.87519E-05 1.18232E-06-3.89412E-19-6.75991E-19
 -1      4141 9.22958E-05-2.52544E-05-2.87156E-05 9.21976E-07-1.52139E-19-2.49985E-19
 -1      4142 9.35747E-05-2.64530E-05-2.87721E-05 7.72617E-07 1.46743E-19-1.00470E-18
 -1      4143 9.33285E-05-2.61952E-05-2.87721E-05 9.05910E-07-5.80996E-19-7.85888E-19
 -1      4144 9.30210E-05-2.59040E-05-2.87516E-05 7.03647E-07-3.63803E-19-7.64949E-19
 -1      4145 9.40276E-05-2.69196E-05-2.87650E-05 5.78322E-07 3.98978E-19-1.32204E-18
 -1      4146 9.38346E-05-2.67018E-05-2.87716E-05 6.85231E-07 6.77082E-19-1.03537E-18
 -1      4147 9.35980E-05-2.64637E-05-2.87620E-05 5.31227E-07 1.13694E-19-1.02469E-18
 -1      4148 9.43782E-05-2.73065E-05-2.87484E-05 4.25751E-07 4.53236E-19-5.42903E-19
 -1      4149 9.42296E-05-2.71267E-05-2.87587E-05 5.10523E-07 2.98072E-19-1.03620E-18
 -1      4150 9.40501E-05-2.69349E-05-2.87562E-05 3.95723E-07 3.64964E-19-6.07836E-19
 -1      4151 9.46447E-05-2.76209E-05-2.87271E-05 3.07382E-07-5.73121E-19 1.06630E-19
 -1      4152 9.45325E-05-2.74754E-05-2.87389E-05 3.73721E-07-2.06783E-19 4.51198E-19
 -1      4153 9.43985E-05-2.73233E-05-2.87409E-05 2.90100E-07-4.72708E-19-4.15050E-19
 -1      4154 9.48435E-05-2.78714E-05-2.87043E-05 2.16805E-07 2.79698E-20-1.34845E-19
 -1      4155 9.47605E-05-2.77559E-05-2.87163E-05 2.67971E-07 4.95606E-20 1.51074E-19
 -1      4156 9.46622E-05-2.76373E-05-2.87208E-05 2.08642E-07-5.41640E-20-3.77100E-19
 -1      4157 9.49887E-05-2.80674E-05-2.86821E-05 1.48557E-07-7.30757E-20-1.38964E-19
 -1      4158 9.49287E-05-2.79774E-05-2.86933E-05 1.87401E-07 1.74463E-19 1.61952E-19
 -1      4159 9.48581E-05-2.78864E-05-2.86992E-05 1.46616E-07-1.27577E-19-5.60943E-19
 -1      4160 9.50922E-05-2.82179E-05-2.86615E-05 9.80142E-08-6.78423E-19-1.90447E-19
 -1      4161 9.50499E-05-2.81491E-05-2.86717E-05 1.26997E-07-8.11861E-19-1.87608E-20
 -1      4162 9.50006E-05-2.80805E-05-2.86779E-05 1.00072E-07-4.82787E-19 2.74104E-19
 -1      4163 9.51639E-05-2.83313E-05-2.86434E-05 6.13119E-08-9.45910E-19 2.30888E-20
 -1      4164 9.51351E-05-2.82797E-05-2.86522E-05 8.25238E-08-8.80894E-19-2.46693E-19
 -1      4165 9.51017E-05-2.82290E-05-2.86583E-05 6.57258E-08-9.35204E-19-2.92543E-20
 -1      4166 9.52119E-05-2.84150E-05-2.86278E-05 3.52636E-08-9.47667E-19 5.31934E-19
 -1      4167 9.51930E-05-2.83771E-05-2.86353E-05 5.04490E-08-3.38375E-19 1.23402E-19
 -1      4168 9.51713E-05-2.83404E-05-2.86409E-05 4.08655E-08-8.09724E-19 1.41703E-19
 -1      4169 9.52423E-05-2.84754E-05-2.86147E-05 1.72829E-08-1.64063E-18 1.46446E-19
 -1      4170 9.52307E-05-2.84482E-05-2.86209E-05 2.78723E-08-1.40517E-18 2.73491E-19
 -1      4171 9.52174E-05-2.84224E-05-2.86259E-05 2.32771E-08-1.01936E-18-1.96231E-19
 -1      4172 9.52603E-05-2.85180E-05-2.86041E-05 5.30225E-09-1.22915E-18-6.65426E-20
 -1      4173 9.52538E-05-2.84990E-05-2.86091E-05 1.24490E-08-1.66166E-18 3.50158E-19
 -1      4174 9.52465E-05-2.84813E-05-2.86134E-05 1.11759E-08-1.34307E-18-5.98969E-19
 -1      4175 9.52695E-05-2.85469E-05-2.85955E-05-2.30434E-09-4.56449E-19-1.46845E-18
 -1      4176 9.52665E-05-2.85341E-05-2.85995E-05 2.31355E-09-8.46668E-19-6.79935E-19
 -1      4177 9.52633E-05-2.85225E-05-2.86031E-05 3.14355E-09-5.91155E-19-1.52883E-18
 -1      4178 9.52729E-05-2.85658E-05-2.85888E-05-6.79483E-09-3.26460E-19-2.22527E-18
 -1      4179 9.52722E-05-2.85576E-05-2.85919E-05-3.99406E-09-6.65613E-19-1.37432E-18
 -1      4180 9.52716E-05-2.85503E-05-2.85948E-05-1.93091E-09-4.29784E-19-1.74539E-18
 -1      4181 9.52724E-05-2.85775E-05-2.85836E-05-9.12517E-09 7.75023E-19-1.14498E-18
 -1      4182 9.52732E-05-2.85725E-05-2.85860E-05-7.59770E-09-2.53190E-19-1.57187E-18
 -1      4183 9.52743E-05-2.85684E-05-2.85883E-05-4.90460E-09-2.96716E-19-3.29702E-18
 -1      4184 9.52697E-05-2.85840E-05-2.85796E-05-1.00052E-08-2.97035E-20-8.89006E-19
 -1      4185 9.52714E-05-2.85813E-05-2.85814E-05-9.34622E-09 1.16534E-18-9.96468E-19
 -1      4186 9.52733E-05-2.85793E-05-2.85832E-05-6.42903E-09 2.97620E-19-3.83617E-18
 -1      4187 9.52658E-05-2.85871E-05-2.85766E-05-9.90856E-09-4.79795E-19-2.23354E-18
 -1      4188 9.52678E-05-2.85859E-05-2.85779E-05-9.85426E-09-7.89933E-19-1.11832E-18
 -1      4189 9.52702E-05-2.85853E-05-2.85793E-05-6.99272E-09 4.36380E-21-3.12745E-18
 -1      4190 9.52620E-05-2.85881E-05-2.85745E-05-8.62328E-09 1.62109E-18-3.21299E-18
 -1      4191 9.52641E-05-2.85878E-05-2.85756E-05-8.87517E-09 5.65395E-19-2.79825E-18
 -1      4192 9.52666E-05-2.85880E-05-2.85766E-05-6.16205E-09-1.24633E-19-4.52540E-18
 -1      4193 9.52630E-05-2.85888E-05-2.85747E-05-4.29765E-09 4.57591E-19-4.16191E-18
 -1      4194 8.05880E-05-1.93090E-05-2.63176E-05-3.42225E-06 1.79401E-19 9.39940E-19
 -1      4195 8.21112E-05-1.97412E-05-2.67759E-05-2.93351E-06 1.24036E-19 8.34394E-19
 -1      4196 9.52604E-05-2.85887E-05-2.85736E-05 1.90220E-09-2.38816E-19-2.32690E-18
 -1      4197 9.52626E-05-2.85889E-05-2.85744E-05 1.95020E-10-5.06097E-19-1.95053E-18
 -1      4198 9.52599E-05-2.85884E-05-2.85735E-05 4.75287E-09-4.40270E-19-1.83772E-18
 -1      4199 7.65979E-05-1.81102E-05-2.51248E-05-3.32362E-06 3.17507E-19 6.65125E-19
 -1      4200 7.91342E-05-1.87595E-05-2.58917E-05-3.13534E-06 2.16273E-19 7.65212E-19
 -1      4201 7.94020E-05-1.84368E-05-2.60186E-05-8.26762E-07 3.75155E-19 8.78027E-19
 -1      4202 7.61680E-05-1.75734E-05-2.50546E-05 6.48902E-07 2.71563E-21 1.02497E-18
 -1      4203 8.57395E-05-2.16236E-05-2.75157E-05 4.63093E-06-2.41094E-20-5.67797E-20
 -1      4204 8.50249E-05-2.14307E-05-2.72449E-05 5.31522E-06-2.85794E-19 1.10134E-19
 -1      4205 8.54519E-05-2.11255E-05-2.75118E-05 3.40472E-06-1.45907E-19 1.13541E-19
 -1      4206 8.36316E-05-2.02526E-05-2.71786E-05-2.66835E-06-5.32277E-19 7.08952E-19
 -1      4207 8.48109E-05-2.07271E-05-2.74908E-05-2.32161E-06-4.64042E-19 4.75582E-19
 -1      4208 8.23871E-05-1.95363E-05-2.68627E-05-1.16835E-06-3.04944E-19 7.85932E-19
 -1      4209 8.50620E-05-2.06710E-05-2.75430E-05-9.88276E-07-5.13266E-19 2.43880E-19
 -1      4210 7.96485E-05-2.03413E-05-2.53986E-05 8.43095E-06-5.78872E-19 8.00711E-21
 -1      4211 7.67477E-05-1.81617E-05-2.51329E-05 3.61964E-06-4.47271E-19 9.77808E-19
 -1      4212 9.52646E-05-2.85889E-05-2.85753E-05-5.82251E-10 1.37112E-19-2.59448E-18
 -1      4213 8.21920E-05-2.00822E-05-2.65697E-05 4.70796E-06-7.44076E-19-1.77222E-19
 -1      4214 8.27959E-05-2.08543E-05-2.65731E-05 6.43243E-06-7.80973E-19-7.40265E-20
 -1      4215 7.84590E-05-1.86789E-05-2.56675E-05 2.67534E-06-1.32148E-19 8.01879E-19
 -1      4216 8.15310E-05-2.06879E-05-2.60827E-05 7.27271E-06-5.47838E-19-1.15327E-19
 -1      4217 8.86972E-05-2.27432E-05-2.82925E-05 5.24706E-07-6.31848E-19-5.18311E-21
 -1      4218 8.94811E-05-2.32129E-05-2.84164E-05 5.27887E-07-4.17233E-19-2.56221E-19
 -1      4219 9.01159E-05-2.36556E-05-2.85035E-05 3.77611E-07-3.32816E-19-8.19111E-19
 -1      4220 9.07536E-05-2.40906E-05-2.85821E-05 3.88485E-07-8.04832E-20-8.05381E-19
 -1      4221 9.12744E-05-2.44973E-05-2.86347E-05 2.71524E-07-6.94437E-20-1.14869E-18
 -1      4222 9.17906E-05-2.48897E-05-2.86813E-05 2.86776E-07-2.83763E-19-1.03011E-18
 -1      4223 9.22133E-05-2.52529E-05-2.87098E-05 1.94679E-07-3.43497E-19-9.54008E-19
 -1      4224 9.26275E-05-2.55980E-05-2.87342E-05 2.11776E-07 4.61959E-20-1.35204E-18
 -1      4225 9.29663E-05-2.59142E-05-2.87464E-05 1.38901E-07-8.35918E-21-1.49029E-18
 -1      4226 9.32947E-05-2.62107E-05-2.87558E-05 1.56023E-07-2.74846E-19-1.16500E-18
 -1      4227 9.35624E-05-2.64796E-05-2.87573E-05 9.83916E-08-1.87973E-19-1.07890E-18
 -1      4228 9.38193E-05-2.67288E-05-2.87572E-05 1.14358E-07-2.46937E-19-1.10069E-18
 -1      4229 9.40274E-05-2.69527E-05-2.87521E-05 6.89993E-08-1.95803E-20-9.29655E-19
 -1      4230 9.42254E-05-2.71581E-05-2.87461E-05 8.31453E-08 5.12952E-20-6.26345E-19
 -1      4231 9.43846E-05-2.73408E-05-2.87374E-05 4.77272E-08-3.78960E-19-1.00353E-18
 -1      4232 9.45346E-05-2.75070E-05-2.87283E-05 5.97723E-08-1.15798E-19-1.03104E-18
 -1      4233 9.46543E-05-2.76533E-05-2.87180E-05 3.24004E-08 1.08755E-19-1.41413E-18
 -1      4234 9.47660E-05-2.77853E-05-2.87076E-05 4.23273E-08 5.74807E-20-1.63822E-18
 -1      4235 9.48541E-05-2.79003E-05-2.86968E-05 2.14321E-08-2.86238E-19-1.34921E-18
 -1      4236 9.49356E-05-2.80033E-05-2.86863E-05 2.93854E-08-7.41168E-19-9.19092E-19
 -1      4237 9.49991E-05-2.80922E-05-2.86761E-05 1.36585E-08-1.00248E-18-2.23535E-19
 -1      4238 9.50572E-05-2.81711E-05-2.86661E-05 1.98695E-08-1.18327E-18-3.09282E-19
 -1      4239 9.51017E-05-2.82385E-05-2.86568E-05 8.22208E-09-1.17116E-18-4.46845E-19
 -1      4240 9.51420E-05-2.82979E-05-2.86479E-05 1.29557E-08-1.04811E-18-2.64451E-19
 -1      4241 9.51722E-05-2.83480E-05-2.86397E-05 4.48825E-09-1.08637E-18 1.96120E-19
 -1      4242 9.51992E-05-2.83918E-05-2.86320E-05 8.00913E-09-1.42432E-18 4.10743E-19
 -1      4243 9.52189E-05-2.84283E-05-2.86250E-05 1.98634E-09-1.43005E-18 7.42384E-19
 -1      4244 9.52360E-05-2.84598E-05-2.86185E-05 4.53894E-09-1.02755E-18 8.37930E-19
 -1      4245 9.52481E-05-2.84858E-05-2.86127E-05 3.66939E-10-1.10991E-18 4.51548E-19
 -1      4246 9.52582E-05-2.85079E-05-2.86073E-05 2.16546E-09-6.92413E-19-1.24784E-19
 -1      4247 9.52649E-05-2.85258E-05-2.86026E-05-6.28868E-10-3.98269E-19-4.79267E-19
 -1      4248 9.52701E-05-2.85409E-05-2.85982E-05 5.96084E-10-2.49007E-19-3.70119E-19
 -1      4249 9.52731E-05-2.85528E-05-2.85945E-05-1.19219E-09-7.64052E-20-3.48953E-19
 -1      4250 9.52751E-05-2.85626E-05-2.85910E-05-3.93206E-10 6.27197E-19-1.02389E-18
 -1      4251 9.52756E-05-2.85701E-05-2.85881E-05-1.46338E-09 9.20594E-19-2.31412E-18
 -1      4252 9.52754E-05-2.85761E-05-2.85853E-05-9.72217E-10 4.75872E-19-3.14022E-18
 -1      4253 9.52744E-05-2.85805E-05-2.85831E-05-1.54628E-09 9.35120E-19-3.19088E-18
 -1      4254 9.52729E-05-2.85839E-05-2.85810E-05-1.26754E-09 7.62079E-19-2.93032E-18
 -1      4255 9.52711E-05-2.85861E-05-2.85792E-05-1.52830E-09 2.56487E-19-3.24662E-18
 -1      4256 9.52689E-05-2.85876E-05-2.85776E-05-1.38988E-09 1.48523E-20-2.80475E-18
 -1      4257 9.52671E-05-2.85884E-05-2.85765E-05-6.17717E-10 2.13374E-20-3.08645E-18
 -1      4258 8.79284E-05-2.22759E-05-2.81573E-05 7.21407E-07-2.95613E-19-3.97433E-19
 -1      4259 8.69642E-05-2.17814E-05-2.79702E-05 7.30421E-07-3.78389E-19-1.32217E-19
 -1      4260 8.60349E-05-2.13039E-05-2.77686E-05 9.94225E-07-3.83887E-19-3.71442E-19
 -1      4261 8.48377E-05-2.07923E-05-2.74935E-05 1.02359E-06-3.67978E-19 2.06710E-19
 -1      4262 8.37125E-05-2.03239E-05-2.72009E-05 1.39940E-06-5.94219E-19 1.17341E-19
 -1      4263 8.22134E-05-1.97670E-05-2.68096E-05 1.45262E-06-4.33132E-19-1.00564E-19
 -1      4264 7.98100E-05-1.89749E-05-2.60853E-05 1.97407E-06-1.67554E-19 4.67989E-19
 -3
    1PSTEP                         4           1           1          
  100CL  101 1.000000000        4264                     0    1           1
 -4  ERROR       1    1
 -5  STR(%)      1    1    0    0
 -1         1 1.22334E+01
 -1         2 2.57380E+01
 -1         3 1.38548E-04
 -1         4 1.59524E-04
 -1         5 1.25466E+01
 -1         6 1.20021E+01
 -1         7 1.20021E+01
 -1         8 4.33975E+00
 -1         9 3.08524E+00
 -1        10 2.70964E+00
 -1        11 2.60247E+00
 -1        12 2.45021E+00
 -1        13 2.10803E+00
 -1        14 1.29662E+00
 -1        15 1.65935E+00
 -1        16 2.19032E+00
 -1        17 2.32654E+00
 -1        18 2.38472E+00
 -1        19 2.48361E+00
 -1        20 2.89575E+00
 -1        21 4.09328E+00
 -1        22 8.30672E+00
 -1        23 1.20021E+01
 -1        24 2.45219E+00
 -1        25 1.02610E+00
 -1        26 7.84603E-01
 -1        27 1.32874E+00
 -1        28 1.86008E+00
 -1        29 3.38735E+00
 -1        30 4.44667E+00
 -1        31 4.44667E+00
 -1        32 4.36204E+00
 -1        33 4.29929E+00
 -1        34 3.01853E+00
 -1        35 1.85168E+00
 -1        36 1.45875E+00
 -1        37 1.45875E+00
 -1        38 1.40187E+00
 -1        39 1.40187E+00
 -1        40 1.23359E+00
 -1        41 9.99602E-01
 -1        42 7.98205E-01
 -1        43 6.17999E-01
 -1        44 5.13038E-01
 -1        45 4.24772E-01
 -1        46 3.40097E-01
 -1        47 2.64677E-01
 -1        48 2.00760E-01
 -1        49 1.48544E-01
 -1        50 1.09796E-01
 -1        51 9.15331E-02
 -1        52 7.45801E-02
 -1        53 5.95417E-02
 -1        54 4.66422E-02
 -1        55 3.58690E-02
 -1        56 2.70724E-02
 -1        57 2.08921E-02
 -1        58 1.72380E-02
 -1        59 1.39328E-02
 -1        60 1.10485E-02
 -1        61 8.60081E-03
 -1        62 6.66903E-03
 -1        63 5.15001E-03
 -1        64 3.88828E-03
 -1        65 2.85454E-03
 -1        66 2.27683E-03
 -1        67 1.89845E-03
 -1        68 1.54535E-03
 -1        69 1.19735E-03
 -1        70 9.92399E-04
 -1        71 6.73457E-04
 -1        72 1.25466E+01
 -1        73 2.09979E+00
 -1        74 8.27027E-01
 -1        75 7.86303E-01
 -1        76 1.26767E+00
 -1        77 1.68336E+00
 -1        78 2.30235E+00
 -1        79 3.16047E+00
 -1        80 3.40622E+00
 -1        81 3.74983E+00
 -1        82 3.74983E+00
 -1        83 3.05244E+00
 -1        84 1.85936E+00
 -1        85 1.21467E+00
 -1        86 9.71214E-01
 -1        87 1.13049E+00
 -1        88 1.13201E+00
 -1        89 1.13201E+00
 -1        90 1.01728E+00
 -1        91 8.58168E-01
 -1        92 7.15056E-01
 -1        93 5.68960E-01
 -1        94 4.34916E-01
 -1        95 3.20096E-01
 -1        96 2.52919E-01
 -1        97 1.94275E-01
 -1        98 1.45266E-01
 -1        99 1.05695E-01
 -1       100 7.46550E-02
 -1       101 5.09293E-02
 -1       102 4.21418E-02
 -1       103 3.47161E-02
 -1       104 2.79873E-02
 -1       105 2.21201E-02
 -1       106 1.78674E-02
 -1       107 1.56802E-02
 -1       108 1.33588E-02
 -1       109 1.11063E-02
 -1       110 9.03994E-03
 -1       111 7.24385E-03
 -1       112 5.83599E-03
 -1       113 4.60726E-03
 -1       114 3.55827E-03
 -1       115 2.67446E-03
 -1       116 1.93212E-03
 -1       117 1.53603E-03
 -1       118 1.19083E-03
 -1       119 8.06407E-04
 -1       120 5.02737E-04
 -1       121 2.23468E-04
 -1       122 2.23468E-04
 -1       123 1.83213E-04
 -1       124 9.10640E-05
 -1       125 9.95590E-05
 -1       126 1.58888E-04
 -1       127 1.94092E-04
 -1       128 2.04209E-04
 -1       129 2.04209E-04
 -1       130 1.93683E-04
 -1       131 1.56830E-04
 -1       132 9.92048E-05
 -1       133 9.30066E-05
 -1       134 1.83442E-04
 -1       135 2.96793E-04
 -1       136 3.34828E-04
 -1       137 2.50546E+01
 -1       138 4.91815E+01
 -1       139 4.91815E+01
 -1       140 2.27633E+01
 -1       141 1.17638E+01
 -1       142 1.19216E+01
 -1       143 1.19216E+01
 -1       144 1.30770E+01
 -1       145 1.30770E+01
 -1       146 1.35955E+01
 -1       147 2.97179E+01
 -1       148 3.03763E+01
 -1       149 2.80034E+01
 -1       150 2.58482E+01
 -1       151 2.62151E+01
 -1       152 2.62151E+01
 -1       153 4.20700E+01
 -1       154 4.20700E+01
 -1       155 1.59960E+01
 -1       156 1.29099E+01
 -1       157 1.29099E+01
 -1       158 1.26277E+01
 -1       159 1.26277E+01
 -1       160 1.17661E+01
 -1       161 2.45135E+01
 -1       162 3.16196E+01
 -1       163 3.16196E+01
 -1       164 2.57380E+01
 -1       165 6.58313E+00
 -1       166 3.37979E+00
 -1       167 2.73870E+00
 -1       168 2.60247E+00
 -1       169 2.56205E+00
 -1       170 2.55007E+00
 -1       171 1.99532E+00
 -1       172 1.43529E+00
 -1       173 2.23900E+00
 -1       174 2.41461E+00
 -1       175 2.41461E+00
 -1       176 2.38472E+00
 -1       177 2.53698E+00
 -1       178 3.16334E+00
 -1       179 4.26420E+00
 -1       180 1.25466E+01
 -1       181 3.24802E+00
 -1       182 1.96537E+00
 -1       183 8.69460E-01
 -1       184 7.84603E-01
 -1       185 1.32874E+00
 -1       186 2.17447E+00
 -1       187 3.38735E+00
 -1       188 4.44667E+00
 -1       189 4.36204E+00
 -1       190 4.29929E+00
 -1       191 3.01853E+00
 -1       192 1.85168E+00
 -1       193 1.28863E+00
 -1       194 1.45875E+00
 -1       195 1.39605E+00
 -1       196 1.40187E+00
 -1       197 1.23359E+00
 -1       198 1.01760E+00
 -1       199 8.67899E-01
 -1       200 7.40183E-01
 -1       201 5.99393E-01
 -1       202 4.65233E-01
 -1       203 3.47789E-01
 -1       204 2.64677E-01
 -1       205 2.06636E-01
 -1       206 1.58185E-01
 -1       207 1.18389E-01
 -1       208 9.15331E-02
 -1       209 7.45801E-02
 -1       210 5.95417E-02
 -1       211 4.66422E-02
 -1       212 3.58690E-02
 -1       213 2.74487E-02
 -1       214 2.13935E-02
 -1       215 1.72380E-02
 -1       216 1.39328E-02
 -1       217 1.10485E-02
 -1       218 8.86881E-03
 -1       219 7.03246E-03
 -1       220 5.64574E-03
 -1       221 4.48689E-03
 -1       222 3.47928E-03
 -1       223 2.62200E-03
 -1       224 1.90567E-03
 -1       225 1.54535E-03
 -1       226 1.19735E-03
 -1       227 9.92399E-04
 -1       228 6.73457E-04
 -1       229 2.09979E+00
 -1       230 1.33319E+00
 -1       231 7.55383E-01
 -1       232 8.73264E-01
 -1       233 1.26767E+00
 -1       234 1.68994E+00
 -1       235 2.30517E+00
 -1       236 3.16047E+00
 -1       237 3.40622E+00
 -1       238 3.74983E+00
 -1       239 3.05244E+00
 -1       240 1.85936E+00
 -1       241 1.21467E+00
 -1       242 9.15478E-01
 -1       243 9.71214E-01
 -1       244 1.13049E+00
 -1       245 1.13201E+00
 -1       246 1.01728E+00
 -1       247 8.58168E-01
 -1       248 7.16419E-01
 -1       249 5.87574E-01
 -1       250 4.62577E-01
 -1       251 3.51071E-01
 -1       252 2.57188E-01
 -1       253 1.94275E-01
 -1       254 1.45266E-01
 -1       255 1.06578E-01
 -1       256 7.74023E-02
 -1       257 5.46352E-02
 -1       258 4.21418E-02
 -1       259 3.47161E-02
 -1       260 2.79873E-02
 -1       261 2.21201E-02
 -1       262 1.78674E-02
 -1       263 1.56802E-02
 -1       264 1.33588E-02
 -1       265 1.11063E-02
 -1       266 9.03994E-03
 -1       267 7.24385E-03
 -1       268 5.83599E-03
 -1       269 4.60726E-03
 -1       270 3.59744E-03
 -1       271 2.75568E-03
 -1       272 2.04154E-03
 -1       273 1.53603E-03
 -1       274 1.19083E-03
 -1       275 8.06407E-04
 -1       276 5.02737E-04
 -1       277 2.93180E-04
 -1       278 2.93180E-04
 -1       279 2.78627E-04
 -1       280 1.65366E-04
 -1       281 2.78950E-04
 -1       282 3.52798E-04
 -1       283 3.82809E-04
 -1       284 3.82809E-04
 -1       285 3.82679E-04
 -1       286 3.50781E-04
 -1       287 2.79781E-04
 -1       288 1.67942E-04
 -1       289 2.79194E-04
 -1       290 2.79194E-04
 -1       291 3.78058E-04
 -1       292 3.23957E+01
 -1       293 3.01780E+01
 -1       294 4.91815E+01
 -1       295 2.50461E+01
 -1       296 1.09648E+01
 -1       297 1.17638E+01
 -1       298 1.19216E+01
 -1       299 1.19052E+01
 -1       300 1.30770E+01
 -1       301 1.20428E+01
 -1       302 1.35955E+01
 -1       303 3.03763E+01
 -1       304 3.49615E+01
 -1       305 3.49615E+01
 -1       306 3.31608E+01
 -1       307 3.31608E+01
 -1       308 3.69209E+01
 -1       309 4.20700E+01
 -1       310 1.68614E+01
 -1       311 1.09694E+01
 -1       312 1.29099E+01
 -1       313 1.22334E+01
 -1       314 1.18781E+01
 -1       315 1.26277E+01
 -1       316 1.12585E+01
 -1       317 1.17661E+01
 -1       318 2.63641E+01
 -1       319 3.16196E+01
 -1       320 3.11023E+01
 -1       321 3.23957E+01
 -1       322 2.87697E+00
 -1       323 3.24802E+00
 -1       324 2.82940E+00
 -1       325 2.82940E+00
 -1       326 2.82222E+00
 -1       327 2.24408E+00
 -1       328 2.40782E+00
 -1       329 2.72606E+00
 -1       330 2.72606E+00
 -1       331 2.48536E+00
 -1       332 2.19019E+00
 -1       333 2.15649E+00
 -1       334 2.19838E+00
 -1       335 1.93734E+00
 -1       336 1.33319E+00
 -1       337 1.57910E+00
 -1       338 9.87833E-01
 -1       339 8.72249E-01
 -1       340 1.50985E+00
 -1       341 2.06471E+00
 -1       342 2.64772E+00
 -1       343 2.70768E+00
 -1       344 2.68057E+00
 -1       345 2.48315E+00
 -1       346 1.87291E+00
 -1       347 1.23124E+00
 -1       348 9.91323E-01
 -1       349 8.66859E-01
 -1       350 1.04079E+00
 -1       351 1.08326E+00
 -1       352 9.96768E-01
 -1       353 8.90000E-01
 -1       354 7.94765E-01
 -1       355 6.75074E-01
 -1       356 5.49127E-01
 -1       357 4.31071E-01
 -1       358 3.28004E-01
 -1       359 2.42352E-01
 -1       360 1.73784E-01
 -1       361 1.20556E-01
 -1       362 8.65798E-02
 -1       363 6.20402E-02
 -1       364 4.52378E-02
 -1       365 3.75696E-02
 -1       366 3.08140E-02
 -1       367 2.47662E-02
 -1       368 1.95310E-02
 -1       369 1.51194E-02
 -1       370 1.22699E-02
 -1       371 1.03710E-02
 -1       372 8.55774E-03
 -1       373 6.94085E-03
 -1       374 5.66060E-03
 -1       375 4.52604E-03
 -1       376 3.59119E-03
 -1       377 2.83481E-03
 -1       378 2.17162E-03
 -1       379 1.60703E-03
 -1       380 1.14150E-03
 -1       381 8.60007E-04
 -1       382 5.88861E-04
 -1       383 7.55383E-01
 -1       384 7.71145E-01
 -1       385 1.33745E+00
 -1       386 1.84900E+00
 -1       387 2.03780E+00
 -1       388 2.03780E+00
 -1       389 1.93620E+00
 -1       390 2.20237E+00
 -1       391 2.03224E+00
 -1       392 1.39887E+00
 -1       393 8.26548E-01
 -1       394 5.23250E-01
 -1       395 7.22047E-01
 -1       396 8.08428E-01
 -1       397 8.45392E-01
 -1       398 8.14596E-01
 -1       399 7.30410E-01
 -1       400 6.47820E-01
 -1       401 5.44762E-01
 -1       402 4.39035E-01
 -1       403 3.41206E-01
 -1       404 2.56501E-01
 -1       405 1.87206E-01
 -1       406 1.43016E-01
 -1       407 1.06578E-01
 -1       408 7.74023E-02
 -1       409 5.46352E-02
 -1       410 3.72864E-02
 -1       411 2.69571E-02
 -1       412 2.31872E-02
 -1       413 1.94249E-02
 -1       414 1.59051E-02
 -1       415 1.27551E-02
 -1       416 1.00282E-02
 -1       417 8.70542E-03
 -1       418 7.34398E-03
 -1       419 6.04169E-03
 -1       420 4.94037E-03
 -1       421 4.04773E-03
 -1       422 3.24527E-03
 -1       423 2.53701E-03
 -1       424 1.92485E-03
 -1       425 1.40410E-03
 -1       426 1.08181E-03
 -1       427 7.88336E-04
 -1       428 4.78654E-04
 -1       429 3.09545E-04
 -1       430 5.75685E-04
 -1       431 5.75685E-04
 -1       432 3.73707E-04
 -1       433 4.83794E-04
 -1       434 5.33972E-04
 -1       435 5.33972E-04
 -1       436 5.32457E-04
 -1       437 5.32457E-04
 -1       438 4.83890E-04
 -1       439 3.73905E-04
 -1       440 3.02075E-04
 -1       441 4.73884E-04
 -1       442 3.01780E+01
 -1       443 3.39182E+01
 -1       444 3.24340E+01
 -1       445 1.76066E+01
 -1       446 9.79515E+00
 -1       447 2.94941E+00
 -1       448 1.03957E+01
 -1       449 1.02160E+01
 -1       450 1.09245E+01
 -1       451 8.13992E+00
 -1       452 7.26472E+00
 -1       453 1.19815E+01
 -1       454 2.05463E+01
 -1       455 3.49615E+01
 -1       456 2.92719E+01
 -1       457 3.31608E+01
 -1       458 2.93296E+01
 -1       459 2.53019E+01
 -1       460 1.45937E+01
 -1       461 8.77155E+00
 -1       462 7.77953E+00
 -1       463 1.04147E+01
 -1       464 1.09677E+01
 -1       465 1.05664E+01
 -1       466 8.39771E+00
 -1       467 6.71186E+00
 -1       468 1.09628E+01
 -1       469 1.86395E+01
 -1       470 3.11023E+01
 -1       471 3.39182E+01
 -1       472 7.45287E+00
 -1       473 6.70213E+00
 -1       474 1.83579E+00
 -1       475 3.46469E+00
 -1       476 3.44682E+00
 -1       477 3.34199E+00
 -1       478 3.44584E+00
 -1       479 3.44584E+00
 -1       480 3.02402E+00
 -1       481 2.44140E+00
 -1       482 2.07808E+00
 -1       483 8.34220E-01
 -1       484 1.76994E+00
 -1       485 5.63912E+00
 -1       486 1.64069E+00
 -1       487 1.85531E+00
 -1       488 1.85817E+00
 -1       489 2.10083E+00
 -1       490 2.63271E+00
 -1       491 6.22836E+00
 -1       492 7.83133E+00
 -1       493 3.26776E+00
 -1       494 1.62540E+00
 -1       495 1.87873E+00
 -1       496 1.44848E+00
 -1       497 1.37474E+00
 -1       498 1.24237E+00
 -1       499 1.08090E+00
 -1       500 9.51542E-01
 -1       501 8.53073E-01
 -1       502 7.30231E-01
 -1       503 6.02859E-01
 -1       504 4.83077E-01
 -1       505 3.77194E-01
 -1       506 2.87591E-01
 -1       507 2.14244E-01
 -1       508 1.55810E-01
 -1       509 1.10347E-01
 -1       510 7.57441E-02
 -1       511 4.99731E-02
 -1       512 3.22030E-02
 -1       513 2.22802E-02
 -1       514 1.87662E-02
 -1       515 1.62609E-02
 -1       516 1.37058E-02
 -1       517 1.12817E-02
 -1       518 9.08903E-03
 -1       519 7.59637E-03
 -1       520 6.51152E-03
 -1       521 5.42824E-03
 -1       522 4.43801E-03
 -1       523 3.61204E-03
 -1       524 2.85926E-03
 -1       525 2.19615E-03
 -1       526 1.69258E-03
 -1       527 1.26285E-03
 -1       528 9.04253E-04
 -1       529 1.56197E+00
 -1       530 1.84900E+00
 -1       531 2.21387E+00
 -1       532 2.09479E+00
 -1       533 2.19568E+00
 -1       534 1.80199E+00
 -1       535 1.51955E+00
 -1       536 1.18444E+00
 -1       537 1.04779E+00
 -1       538 8.49640E-01
 -1       539 8.87095E-01
 -1       540 8.68734E-01
 -1       541 7.96897E-01
 -1       542 7.34009E-01
 -1       543 6.58337E-01
 -1       544 5.66626E-01
 -1       545 4.67875E-01
 -1       546 3.73218E-01
 -1       547 2.88779E-01
 -1       548 2.17145E-01
 -1       549 1.58663E-01
 -1       550 1.12401E-01
 -1       551 7.68118E-02
 -1       552 5.11222E-02
 -1       553 3.60511E-02
 -1       554 2.69571E-02
 -1       555 2.31872E-02
 -1       556 1.94249E-02
 -1       557 1.59051E-02
 -1       558 1.27551E-02
 -1       559 1.01272E-02
 -1       560 8.70542E-03
 -1       561 7.34398E-03
 -1       562 6.04169E-03
 -1       563 4.94037E-03
 -1       564 3.99111E-03
 -1       565 3.14084E-03
 -1       566 2.46208E-03
 -1       567 1.89640E-03
 -1       568 1.41076E-03
 -1       569 9.99492E-04
 -1       570 6.82893E-04
 -1       571 6.16247E-04
 -1       572 6.92820E-04
 -1       573 6.12723E-04
 -1       574 4.84787E-04
 -1       575 1.22893E+01
 -1       576 6.93135E-04
 -1       577 6.93135E-04
 -1       578 6.92775E-04
 -1       579 6.92775E-04
 -1       580 6.16380E-04
 -1       581 5.35478E-04
 -1       582 5.35478E-04
 -1       583 9.10418E+00
 -1       584 1.00575E+00
 -1       585 3.24340E+01
 -1       586 3.39182E+01
 -1       587 2.94941E+00
 -1       588 5.91841E+00
 -1       589 5.90599E+00
 -1       590 8.89418E+00
 -1       591 3.46287E+00
 -1       592 7.92614E+00
 -1       593 7.60288E+00
 -1       594 4.71678E+00
 -1       595 7.51859E+00
 -1       596 3.87039E+00
 -1       597 9.71390E+00
 -1       598 1.55245E+01
 -1       599 2.33487E+01
 -1       600 2.52418E+01
 -1       601 2.93296E+01
 -1       602 1.81518E+01
 -1       603 1.14703E+01
 -1       604 5.04495E+00
 -1       605 8.85387E+00
 -1       606 8.06207E+00
 -1       607 7.83133E+00
 -1       608 3.86367E+00
 -1       609 1.22293E+01
 -1       610 5.51442E+00
 -1       611 1.97366E+01
 -1       612 2.07808E+00
 -1       613 2.15101E+01
 -1       614 3.07015E+00
 -1       615 5.15657E+00
 -1       616 6.43506E+00
 -1       617 5.38190E-04
 -1       618 6.67856E+00
 -1       619 3.50605E+00
 -1       620 5.49926E+00
 -1       621 6.91376E+00
 -1       622 3.17805E+00
 -1       623 2.33862E+00
 -1       624 1.83579E+00
 -1       625 1.41406E+01
 -1       626 1.33823E+00
 -1       627 3.64894E+00
 -1       628 2.98191E+00
 -1       629 3.11882E+00
 -1       630 2.01296E+00
 -1       631 6.22836E+00
 -1       632 2.52218E+00
 -1       633 2.31679E+00
 -1       634 2.09779E+00
 -1       635 1.66570E+00
 -1       636 1.31934E+00
 -1       637 1.13519E+00
 -1       638 9.58111E-01
 -1       639 7.89161E-01
 -1       640 6.38084E-01
 -1       641 5.07627E-01
 -1       642 3.97614E-01
 -1       643 3.06592E-01
 -1       644 2.32561E-01
 -1       645 1.73326E-01
 -1       646 1.26689E-01
 -1       647 9.05645E-02
 -1       648 6.30500E-02
 -1       649 4.24634E-02
 -1       650 2.73568E-02
 -1       651 1.65125E-02
 -1       652 1.07787E-02
 -1       653 1.00395E-02
 -1       654 9.28799E-03
 -1       655 8.23312E-03
 -1       656 7.06031E-03
 -1       657 5.88868E-03
 -1       658 5.05243E-03
 -1       659 4.28061E-03
 -1       660 3.52226E-03
 -1       661 2.81734E-03
 -1       662 2.20024E-03
 -1       663 1.69258E-03
 -1       664 1.26285E-03
 -1       665 9.04253E-04
 -1       666 2.21387E+00
 -1       667 4.15332E+00
 -1       668 1.88991E+00
 -1       669 2.65814E+00
 -1       670 4.45932E+00
 -1       671 2.86285E+00
 -1       672 1.63518E+00
 -1       673 1.77222E+00
 -1       674 1.41201E+00
 -1       675 1.24093E+00
 -1       676 1.09715E+00
 -1       677 9.37142E-01
 -1       678 8.07457E-01
 -1       679 7.16565E-01
 -1       680 6.11438E-01
 -1       681 5.05618E-01
 -1       682 4.07123E-01
 -1       683 3.20105E-01
 -1       684 2.46108E-01
 -1       685 1.85066E-01
 -1       686 1.35987E-01
 -1       687 9.74213E-02
 -1       688 6.77662E-02
 -1       689 4.54464E-02
 -1       690 2.90186E-02
 -1       691 1.82107E-02
 -1       692 1.34923E-02
 -1       693 1.24367E-02
 -1       694 1.10009E-02
 -1       695 9.42366E-03
 -1       696 7.85893E-03
 -1       697 6.44888E-03
 -1       698 5.54104E-03
 -1       699 4.68332E-03
 -1       700 3.84765E-03
 -1       701 3.12426E-03
 -1       702 2.48124E-03
 -1       703 1.90948E-03
 -1       704 1.42489E-03
 -1       705 1.05266E-03
 -1       706 8.38571E-04
 -1       707 8.79563E-04
 -1       708 5.79459E-04
 -1       709 8.62053E-04
 -1       710 2.79363E+00
 -1       711 8.75516E-04
 -1       712 8.79563E-04
 -1       713 8.75516E-04
 -1       714 8.60534E-04
 -1       715 7.22499E-04
 -1       716 1.52443E+00
 -1       717 3.35443E+00
 -1       718 3.47600E+00
 -1       719 2.73061E+00
 -1       720 1.00307E+01
 -1       721 5.66671E+00
 -1       722 4.11708E+00
 -1       723 4.64907E+00
 -1       724 8.35006E+00
 -1       725 1.28649E+01
 -1       726 4.34919E+00
 -1       727 4.66339E+00
 -1       728 1.52177E+01
 -1       729 1.04478E+01
 -1       730 5.57026E+00
 -1       731 4.45932E+00
 -1       732 8.40967E+00
 -1       733 1.13640E+01
 -1       734 1.50401E+01
 -1       735 8.26357E+00
 -1       736 4.99751E+00
 -1       737 1.02578E+01
 -1       738 1.40015E+01
 -1       739 7.24598E+00
 -1       740 1.47340E+01
 -1       741 4.64907E+00
 -1       742 6.91376E+00
 -1       743 4.94770E+00
 -1       744 8.91776E+00
 -1       745 3.56167E+00
 -1       746 3.10621E+00
 -1       747 7.24887E-04
 -1       748 5.20593E+00
 -1       749 6.30483E-04
 -1       750 4.66339E+00
 -1       751 2.54136E+00
 -1       752 5.66272E+00
 -1       753 3.73728E+00
 -1       754 7.36980E-04
 -1       755 3.28634E+00
 -1       756 9.81646E+00
 -1       757 3.47385E+00
 -1       758 4.50684E+00
 -1       759 2.31410E+00
 -1       760 1.88121E+00
 -1       761 1.47764E+00
 -1       762 1.12707E+00
 -1       763 8.73673E-01
 -1       764 6.90453E-01
 -1       765 5.60330E-01
 -1       766 4.42980E-01
 -1       767 3.42393E-01
 -1       768 2.59120E-01
 -1       769 1.91975E-01
 -1       770 1.39023E-01
 -1       771 9.86285E-02
 -1       772 6.91473E-02
 -1       773 4.71299E-02
 -1       774 3.14494E-02
 -1       775 2.05601E-02
 -1       776 1.27012E-02
 -1       777 7.16313E-03
 -1       778 5.76752E-03
 -1       779 6.11492E-03
 -1       780 5.92535E-03
 -1       781 5.42197E-03
 -1       782 4.75919E-03
 -1       783 4.06939E-03
 -1       784 3.57032E-03
 -1       785 3.02341E-03
 -1       786 2.47960E-03
 -1       787 1.96931E-03
 -1       788 1.50762E-03
 -1       789 1.09905E-03
 -1       790 5.22018E+00
 -1       791 2.92361E+00
 -1       792 1.77222E+00
 -1       793 2.05865E+00
 -1       794 1.49236E+00
 -1       795 1.16046E+00
 -1       796 9.90817E-01
 -1       797 8.20348E-01
 -1       798 6.70703E-01
 -1       799 5.38558E-01
 -1       800 4.24141E-01
 -1       801 3.28815E-01
 -1       802 2.53356E-01
 -1       803 1.92396E-01
 -1       804 1.43755E-01
 -1       805 1.05458E-01
 -1       806 7.57395E-02
 -1       807 5.30336E-02
 -1       808 3.59772E-02
 -1       809 2.34025E-02
 -1       810 1.43276E-02
 -1       811 8.37431E-03
 -1       812 7.39691E-03
 -1       813 7.33417E-03
 -1       814 6.82046E-03
 -1       815 6.06435E-03
 -1       816 5.20743E-03
 -1       817 4.45992E-03
 -1       818 3.85754E-03
 -1       819 3.22886E-03
 -1       820 2.62148E-03
 -1       821 2.06224E-03
 -1       822 1.56731E-03
 -1       823 1.13737E-03
 -1       824 8.52864E-04
 -1       825 1.01621E-03
 -1       826 8.33008E+00
 -1       827 1.02229E-03
 -1       828 1.06848E-03
 -1       829 2.86285E+00
 -1       830 2.11006E+00
 -1       831 8.77863E+00
 -1       832 2.52218E+00
 -1       833 7.94123E+00
 -1       834 1.06848E-03
 -1       835 8.98227E+00
 -1       836 7.39839E+00
 -1       837 7.05726E+00
 -1       838 4.95616E+00
 -1       839 1.60517E+00
 -1       840 7.10648E+00
 -1       841 3.68899E+00
 -1       842 8.98227E+00
 -1       843 7.12478E+00
 -1       844 9.81646E+00
 -1       845 6.50709E+00
 -1       846 5.10695E+00
 -1       847 9.02434E-04
 -1       848 8.60208E+00
 -1       849 1.08473E-03
 -1       850 1.92003E+00
 -1       851 1.08473E-03
 -1       852 2.30117E+00
 -1       853 4.95381E+00
 -1       854 4.39607E+00
 -1       855 4.31279E+00
 -1       856 9.61812E-04
 -1       857 4.82618E+00
 -1       858 5.38644E+00
 -1       859 2.65509E+00
 -1       860 5.34943E+00
 -1       861 6.32815E+00
 -1       862 3.04399E+00
 -1       863 1.97337E+00
 -1       864 1.40526E+00
 -1       865 1.08574E+00
 -1       866 8.71530E-01
 -1       867 6.90123E-01
 -1       868 5.40341E-01
 -1       869 4.18303E-01
 -1       870 3.19899E-01
 -1       871 2.41296E-01
 -1       872 1.79159E-01
 -1       873 1.30618E-01
 -1       874 9.32031E-02
 -1       875 6.47889E-02
 -1       876 4.46320E-02
 -1       877 2.97905E-02
 -1       878 1.89526E-02
 -1       879 1.12189E-02
 -1       880 5.98170E-03
 -1       881 3.12575E-03
 -1       882 3.98322E-03
 -1       883 4.26446E-03
 -1       884 4.15213E-03
 -1       885 3.80764E-03
 -1       886 3.34293E-03
 -1       887 2.92889E-03
 -1       888 2.52497E-03
 -1       889 2.10105E-03
 -1       890 1.68793E-03
 -1       891 2.36377E+00
 -1       892 1.72235E+00
 -1       893 1.29026E+00
 -1       894 9.73667E-01
 -1       895 7.64545E-01
 -1       896 6.09879E-01
 -1       897 4.98991E-01
 -1       898 3.98505E-01
 -1       899 3.11433E-01
 -1       900 2.38440E-01
 -1       901 1.78803E-01
 -1       902 1.31145E-01
 -1       903 9.38313E-02
 -1       904 6.56862E-02
 -1       905 4.52659E-02
 -1       906 3.00146E-02
 -1       907 1.88674E-02
 -1       908 1.10599E-02
 -1       909 5.65745E-03
 -1       910 4.09574E-03
 -1       911 4.79936E-03
 -1       912 4.91041E-03
 -1       913 4.65412E-03
 -1       914 4.19006E-03
 -1       915 3.62775E-03
 -1       916 3.19538E-03
 -1       917 2.73535E-03
 -1       918 2.26336E-03
 -1       919 1.80947E-03
 -1       920 1.52101E-03
 -1       921 1.00133E-03
 -1       922 6.95609E+00
 -1       923 1.33471E-03
 -1       924 4.50684E+00
 -1       925 6.95609E+00
 -1       926 6.04318E+00
 -1       927 4.12549E+00
 -1       928 2.86628E+00
 -1       929 4.33757E+00
 -1       930 1.28153E-03
 -1       931 1.52101E-03
 -1       932 1.22644E-03
 -1       933 1.33471E-03
 -1       934 1.29326E-03
 -1       935 3.85678E+00
 -1       936 2.33971E+00
 -1       937 1.40526E+00
 -1       938 1.05955E+00
 -1       939 8.01104E-01
 -1       940 6.10690E-01
 -1       941 4.66828E-01
 -1       942 3.56369E-01
 -1       943 2.70467E-01
 -1       944 2.03316E-01
 -1       945 1.50887E-01
 -1       946 1.10197E-01
 -1       947 7.89169E-02
 -1       948 5.51644E-02
 -1       949 3.75843E-02
 -1       950 2.53932E-02
 -1       951 1.64382E-02
 -1       952 9.99654E-03
 -1       953 5.52719E-03
 -1       954 3.12575E-03
 -1       955 2.64395E-03
 -1       956 3.10839E-03
 -1       957 3.18215E-03
 -1       958 3.01394E-03
 -1       959 2.70860E-03
 -1       960 2.34332E-03
 -1       961 2.03564E-03
 -1       962 1.70316E-03
 -1       963 2.33437E+00
 -1       964 3.44443E+00
 -1       965 1.39527E+00
 -1       966 9.46974E-01
 -1       967 7.64545E-01
 -1       968 6.05572E-01
 -1       969 4.75801E-01
 -1       970 3.69840E-01
 -1       971 2.84125E-01
 -1       972 2.15352E-01
 -1       973 1.60707E-01
 -1       974 1.17787E-01
 -1       975 8.45196E-02
 -1       976 5.91167E-02
 -1       977 4.04556E-02
 -1       978 2.72315E-02
 -1       979 1.75194E-02
 -1       980 1.05414E-02
 -1       981 5.71104E-03
 -1       982 3.19962E-03
 -1       983 3.16338E-03
 -1       984 3.56794E-03
 -1       985 3.57586E-03
 -1       986 3.34190E-03
 -1       987 2.97468E-03
 -1       988 2.59458E-03
 -1       989 2.24760E-03
 -1       990 1.87986E-03
 -1       991 1.55679E-03
 -1       992 4.33757E+00
 -1       993 1.40884E-03
 -1       994 3.96879E+00
 -1       995 4.88510E+00
 -1       996 4.57522E+00
 -1       997 1.37016E-03
 -1       998 1.96334E-03
 -1       999 1.17240E+00
 -1      1000 8.51267E-01
 -1      1001 6.25248E-01
 -1      1002 4.68833E-01
 -1      1003 3.55600E-01
 -1      1004 2.70312E-01
 -1      1005 2.04664E-01
 -1      1006 1.53635E-01
 -1      1007 1.13915E-01
 -1      1008 8.31391E-02
 -1      1009 5.95004E-02
 -1      1010 4.15596E-02
 -1      1011 2.83548E-02
 -1      1012 1.99034E-02
 -1      1013 1.35685E-02
 -1      1014 8.88333E-03
 -1      1015 5.48850E-03
 -1      1016 3.08651E-03
 -1      1017 1.83585E-03
 -1      1018 2.29650E-03
 -1      1019 2.42224E-03
 -1      1020 2.33670E-03
 -1      1021 2.12750E-03
 -1      1022 1.85413E-03
 -1      1023 1.88541E-03
 -1      1024 3.98205E+00
 -1      1025 1.61992E+00
 -1      1026 9.21348E-01
 -1      1027 6.98834E-01
 -1      1028 5.31539E-01
 -1      1029 4.05551E-01
 -1      1030 3.09072E-01
 -1      1031 2.34236E-01
 -1      1032 1.75879E-01
 -1      1033 1.30411E-01
 -1      1034 9.51803E-02
 -1      1035 6.81280E-02
 -1      1036 4.76024E-02
 -1      1037 3.22525E-02
 -1      1038 2.18109E-02
 -1      1039 1.41727E-02
 -1      1040 9.10807E-03
 -1      1041 5.63682E-03
 -1      1042 3.19962E-03
 -1      1043 2.16599E-03
 -1      1044 2.63614E-03
 -1      1045 2.74512E-03
 -1      1046 2.62780E-03
 -1      1047 2.37899E-03
 -1      1048 2.06512E-03
 -1      1049 1.92887E-03
 -1      1050 1.92357E+00
 -1      1051 1.96334E-03
 -1      1052 2.13199E+00
 -1      1053 3.51470E+00
 -1      1054 3.77534E+00
 -1      1055 1.47877E-03
 -1      1056 1.73103E-03
 -1      1057 7.25771E-01
 -1      1058 5.42752E-01
 -1      1059 4.09952E-01
 -1      1060 3.10812E-01
 -1      1061 2.35226E-01
 -1      1062 1.76893E-01
 -1      1063 1.33009E-01
 -1      1064 9.95128E-02
 -1      1065 7.32705E-02
 -1      1066 5.29293E-02
 -1      1067 3.73651E-02
 -1      1068 2.58673E-02
 -1      1069 1.79219E-02
 -1      1070 1.19920E-02
 -1      1071 7.65030E-03
 -1      1072 4.54030E-03
 -1      1073 2.36979E-03
 -1      1074 1.33773E-03
 -1      1075 1.82419E-03
 -1      1076 2.03333E-03
 -1      1077 2.00525E-03
 -1      1078 1.67613E-03
 -1      1079 1.96334E-03
 -1      1080 9.85414E-01
 -1      1081 7.25771E-01
 -1      1082 5.42752E-01
 -1      1083 4.09952E-01
 -1      1084 3.10812E-01
 -1      1085 2.35226E-01
 -1      1086 1.76893E-01
 -1      1087 1.31679E-01
 -1      1088 9.66949E-02
 -1      1089 6.97959E-02
 -1      1090 4.93147E-02
 -1      1091 3.46834E-02
 -1      1092 2.38387E-02
 -1      1093 1.58009E-02
 -1      1094 9.95448E-03
 -1      1095 5.79568E-03
 -1      1096 3.17703E-03
 -1      1097 1.57645E-03
 -1      1098 1.97390E-03
 -1      1099 2.08359E-03
 -1      1100 2.03333E-03
 -1      1101 2.00525E-03
 -1      1102 1.92887E-03
 -1      1103 1.40108E+00
 -1      1104 1.71309E+00
 -1      1105 1.59622E+00
 -1      1106 9.85414E-01
 -1      1107 1.83636E+00
 -1      1108 1.20021E+01
 -1      1109 8.17093E+00
 -1      1110 3.71249E+00
 -1      1111 2.89744E+00
 -1      1112 2.65605E+00
 -1      1113 2.52634E+00
 -1      1114 2.27912E+00
 -1      1115 1.70233E+00
 -1      1116 1.47799E+00
 -1      1117 1.92483E+00
 -1      1118 2.25843E+00
 -1      1119 2.35563E+00
 -1      1120 2.43417E+00
 -1      1121 2.68968E+00
 -1      1122 3.49451E+00
 -1      1123 6.20000E+00
 -1      1124 1.04266E+01
 -1      1125 1.20021E+01
 -1      1126 7.22715E+00
 -1      1127 1.73915E+00
 -1      1128 9.05354E-01
 -1      1129 1.05667E+00
 -1      1130 1.59441E+00
 -1      1131 2.62372E+00
 -1      1132 3.91701E+00
 -1      1133 4.44667E+00
 -1      1134 4.40435E+00
 -1      1135 4.33066E+00
 -1      1136 3.65891E+00
 -1      1137 2.43510E+00
 -1      1138 1.65521E+00
 -1      1139 1.45875E+00
 -1      1140 1.43031E+00
 -1      1141 1.40187E+00
 -1      1142 1.31773E+00
 -1      1143 1.11660E+00
 -1      1144 8.98904E-01
 -1      1145 7.08102E-01
 -1      1146 5.65518E-01
 -1      1147 4.68905E-01
 -1      1148 3.82435E-01
 -1      1149 3.02387E-01
 -1      1150 2.32718E-01
 -1      1151 1.74652E-01
 -1      1152 1.29170E-01
 -1      1153 1.00664E-01
 -1      1154 8.30566E-02
 -1      1155 6.70609E-02
 -1      1156 5.30920E-02
 -1      1157 4.12556E-02
 -1      1158 3.14707E-02
 -1      1159 2.39823E-02
 -1      1160 1.90651E-02
 -1      1161 1.55854E-02
 -1      1162 1.24907E-02
 -1      1163 9.82467E-03
 -1      1164 7.63492E-03
 -1      1165 5.90952E-03
 -1      1166 4.51915E-03
 -1      1167 3.37141E-03
 -1      1168 2.56568E-03
 -1      1169 2.08764E-03
 -1      1170 1.72190E-03
 -1      1171 1.37135E-03
 -1      1172 1.09487E-03
 -1      1173 8.32928E-04
 -1      1174 4.16490E-04
 -1      1175 1.25466E+01
 -1      1176 7.32319E+00
 -1      1177 1.46341E+00
 -1      1178 8.06665E-01
 -1      1179 1.02699E+00
 -1      1180 1.47551E+00
 -1      1181 1.99285E+00
 -1      1182 2.73141E+00
 -1      1183 3.28334E+00
 -1      1184 3.57803E+00
 -1      1185 3.74983E+00
 -1      1186 3.40114E+00
 -1      1187 2.45590E+00
 -1      1188 1.53702E+00
 -1      1189 1.09294E+00
 -1      1190 1.05085E+00
 -1      1191 1.13125E+00
 -1      1192 1.13201E+00
 -1      1193 1.07464E+00
 -1      1194 9.37724E-01
 -1      1195 7.86612E-01
 -1      1196 6.42008E-01
 -1      1197 5.01938E-01
 -1      1198 3.77506E-01
 -1      1199 2.86508E-01
 -1      1200 2.23597E-01
 -1      1201 1.69771E-01
 -1      1202 1.25480E-01
 -1      1203 9.01750E-02
 -1      1204 6.27922E-02
 -1      1205 4.65356E-02
 -1      1206 3.84289E-02
 -1      1207 3.13517E-02
 -1      1208 2.50537E-02
 -1      1209 1.99938E-02
 -1      1210 1.67738E-02
 -1      1211 1.45195E-02
 -1      1212 1.22325E-02
 -1      1213 1.00731E-02
 -1      1214 8.14190E-03
 -1      1215 6.53992E-03
 -1      1216 5.22162E-03
 -1      1217 4.08276E-03
 -1      1218 3.11637E-03
 -1      1219 2.30329E-03
 -1      1220 1.73408E-03
 -1      1221 1.36343E-03
 -1      1222 9.98620E-04
 -1      1223 6.54572E-04
 -1      1224 3.20643E-04
 -1      1225 1.81008E-04
 -1      1226 2.23468E-04
 -1      1227 2.03341E-04
 -1      1228 1.37138E-04
 -1      1229 9.53115E-05
 -1      1230 1.29223E-04
 -1      1231 1.76490E-04
 -1      1232 1.99150E-04
 -1      1233 2.04209E-04
 -1      1234 1.98946E-04
 -1      1235 1.75256E-04
 -1      1236 1.28017E-04
 -1      1237 9.61057E-05
 -1      1238 1.38224E-04
 -1      1239 2.40117E-04
 -1      1240 3.15811E-04
 -1      1241 2.47176E-04
 -1      1242 2.53963E+01
 -1      1243 3.71180E+01
 -1      1244 4.91815E+01
 -1      1245 3.59724E+01
 -1      1246 1.72635E+01
 -1      1247 1.18427E+01
 -1      1248 1.19216E+01
 -1      1249 1.24993E+01
 -1      1250 1.30770E+01
 -1      1251 1.33363E+01
 -1      1252 2.16567E+01
 -1      1253 3.00471E+01
 -1      1254 2.91899E+01
 -1      1255 2.69258E+01
 -1      1256 2.60317E+01
 -1      1257 2.62151E+01
 -1      1258 3.41426E+01
 -1      1259 4.20700E+01
 -1      1260 2.90330E+01
 -1      1261 1.44529E+01
 -1      1262 1.29099E+01
 -1      1263 1.25716E+01
 -1      1264 1.24305E+01
 -1      1265 1.26277E+01
 -1      1266 1.21969E+01
 -1      1267 1.81398E+01
 -1      1268 2.80665E+01
 -1      1269 3.16196E+01
 -1      1270 2.86788E+01
 -1      1271 2.57380E+01
 -1      1272 1.20021E+01
 -1      1273 5.46144E+00
 -1      1274 9.29262E+00
 -1      1275 3.23251E+00
 -1      1276 3.85977E+00
 -1      1277 4.98146E+00
 -1      1278 2.72417E+00
 -1      1279 2.91197E+00
 -1      1280 3.05924E+00
 -1      1281 2.60247E+00
 -1      1282 2.65605E+00
 -1      1283 2.67058E+00
 -1      1284 2.50613E+00
 -1      1285 2.58226E+00
 -1      1286 2.58226E+00
 -1      1287 2.32905E+00
 -1      1288 2.50014E+00
 -1      1289 2.55606E+00
 -1      1290 1.64597E+00
 -1      1291 2.05167E+00
 -1      1292 2.27269E+00
 -1      1293 1.54732E+00
 -1      1294 1.36596E+00
 -1      1295 1.71531E+00
 -1      1296 2.21466E+00
 -1      1297 1.94918E+00
 -1      1298 1.83715E+00
 -1      1299 2.37057E+00
 -1      1300 2.30246E+00
 -1      1301 2.32681E+00
 -1      1302 2.39966E+00
 -1      1303 2.37057E+00
 -1      1304 2.41461E+00
 -1      1305 2.43417E+00
 -1      1306 2.38472E+00
 -1      1307 2.39966E+00
 -1      1308 2.71637E+00
 -1      1309 2.51030E+00
 -1      1310 2.46085E+00
 -1      1311 3.62831E+00
 -1      1312 3.02954E+00
 -1      1313 2.85016E+00
 -1      1314 6.28546E+00
 -1      1315 4.17874E+00
 -1      1316 3.71377E+00
 -1      1317 1.25466E+01
 -1      1318 1.04266E+01
 -1      1319 8.40539E+00
 -1      1320 1.25466E+01
 -1      1321 7.62506E+00
 -1      1322 2.85011E+00
 -1      1323 2.20878E+00
 -1      1324 1.49574E+00
 -1      1325 2.60670E+00
 -1      1326 9.47782E-01
 -1      1327 8.27032E-01
 -1      1328 1.41742E+00
 -1      1329 7.84603E-01
 -1      1330 1.05667E+00
 -1      1331 8.27032E-01
 -1      1332 1.32874E+00
 -1      1333 1.59441E+00
 -1      1334 1.05667E+00
 -1      1335 2.01728E+00
 -1      1336 2.78091E+00
 -1      1337 1.75161E+00
 -1      1338 3.38735E+00
 -1      1339 3.91701E+00
 -1      1340 2.78091E+00
 -1      1341 4.44667E+00
 -1      1342 4.44667E+00
 -1      1343 3.91701E+00
 -1      1344 4.40435E+00
 -1      1345 4.36204E+00
 -1      1346 4.40435E+00
 -1      1347 4.33066E+00
 -1      1348 4.29929E+00
 -1      1349 4.33066E+00
 -1      1350 3.65891E+00
 -1      1351 3.01853E+00
 -1      1352 3.65891E+00
 -1      1353 2.43510E+00
 -1      1354 1.85168E+00
 -1      1355 2.43510E+00
 -1      1356 1.57015E+00
 -1      1357 1.37369E+00
 -1      1358 1.57015E+00
 -1      1359 1.45875E+00
 -1      1360 1.45875E+00
 -1      1361 1.37369E+00
 -1      1362 1.42740E+00
 -1      1363 1.39896E+00
 -1      1364 1.42740E+00
 -1      1365 1.40187E+00
 -1      1366 1.40187E+00
 -1      1367 1.39896E+00
 -1      1368 1.31773E+00
 -1      1369 1.23359E+00
 -1      1370 1.31773E+00
 -1      1371 1.12560E+00
 -1      1372 1.00860E+00
 -1      1373 1.12560E+00
 -1      1374 9.33751E-01
 -1      1375 8.33052E-01
 -1      1376 9.42748E-01
 -1      1377 7.69194E-01
 -1      1378 6.79091E-01
 -1      1379 8.04041E-01
 -1      1380 6.08696E-01
 -1      1381 5.56215E-01
 -1      1382 6.69788E-01
 -1      1383 4.89136E-01
 -1      1384 4.45003E-01
 -1      1385 5.32313E-01
 -1      1386 3.86281E-01
 -1      1387 3.43943E-01
 -1      1388 4.06511E-01
 -1      1389 3.02387E-01
 -1      1390 2.64677E-01
 -1      1391 3.06233E-01
 -1      1392 2.35656E-01
 -1      1393 2.03698E-01
 -1      1394 2.35656E-01
 -1      1395 1.79473E-01
 -1      1396 1.53365E-01
 -1      1397 1.82411E-01
 -1      1398 1.33466E-01
 -1      1399 1.14092E-01
 -1      1400 1.38287E-01
 -1      1401 1.00664E-01
 -1      1402 9.15331E-02
 -1      1403 1.04961E-01
 -1      1404 8.30566E-02
 -1      1405 7.45801E-02
 -1      1406 8.30566E-02
 -1      1407 6.70609E-02
 -1      1408 5.95417E-02
 -1      1409 6.70609E-02
 -1      1410 5.30920E-02
 -1      1411 4.66422E-02
 -1      1412 5.30920E-02
 -1      1413 4.12556E-02
 -1      1414 3.58690E-02
 -1      1415 4.12556E-02
 -1      1416 3.16589E-02
 -1      1417 2.72606E-02
 -1      1418 3.16589E-02
 -1      1419 2.42329E-02
 -1      1420 2.11428E-02
 -1      1421 2.44211E-02
 -1      1422 1.90651E-02
 -1      1423 1.72380E-02
 -1      1424 1.93158E-02
 -1      1425 1.55854E-02
 -1      1426 1.39328E-02
 -1      1427 1.55854E-02
 -1      1428 1.24907E-02
 -1      1429 1.10485E-02
 -1      1430 1.24907E-02
 -1      1431 9.95867E-03
 -1      1432 8.73481E-03
 -1      1433 9.95867E-03
 -1      1434 7.81663E-03
 -1      1435 6.85074E-03
 -1      1436 7.95064E-03
 -1      1437 6.15738E-03
 -1      1438 5.39788E-03
 -1      1439 6.33910E-03
 -1      1440 4.81845E-03
 -1      1441 4.18758E-03
 -1      1442 5.06631E-03
 -1      1443 3.68378E-03
 -1      1444 3.16691E-03
 -1      1445 3.98308E-03
 -1      1446 2.73827E-03
 -1      1447 2.44941E-03
 -1      1448 3.05064E-03
 -1      1449 2.09125E-03
 -1      1450 1.90206E-03
 -1      1451 2.26384E-03
 -1      1452 1.72190E-03
 -1      1453 1.54535E-03
 -1      1454 1.72551E-03
 -1      1455 1.37135E-03
 -1      1456 1.19735E-03
 -1      1457 1.37135E-03
 -1      1458 1.09487E-03
 -1      1459 9.92399E-04
 -1      1460 1.09487E-03
 -1      1461 8.32928E-04
 -1      1462 6.73457E-04
 -1      1463 8.32928E-04
 -1      1464 5.04142E-04
 -1      1465 5.04142E-04
 -1      1466 2.09979E+00
 -1      1467 7.32319E+00
 -1      1468 7.32319E+00
 -1      1469 1.08011E+00
 -1      1470 1.71649E+00
 -1      1471 1.71649E+00
 -1      1472 7.70843E-01
 -1      1473 7.91205E-01
 -1      1474 1.04429E+00
 -1      1475 1.07047E+00
 -1      1476 8.29784E-01
 -1      1477 8.14324E-01
 -1      1478 1.47551E+00
 -1      1479 1.26767E+00
 -1      1480 1.07047E+00
 -1      1481 1.99615E+00
 -1      1482 1.68665E+00
 -1      1483 1.47880E+00
 -1      1484 2.73282E+00
 -1      1485 2.30376E+00
 -1      1486 1.99756E+00
 -1      1487 3.28334E+00
 -1      1488 3.16047E+00
 -1      1489 2.73282E+00
 -1      1490 3.57803E+00
 -1      1491 3.40622E+00
 -1      1492 3.28334E+00
 -1      1493 3.74983E+00
 -1      1494 3.74983E+00
 -1      1495 3.57803E+00
 -1      1496 3.05244E+00
 -1      1497 3.40114E+00
 -1      1498 3.40114E+00
 -1      1499 1.85936E+00
 -1      1500 2.45590E+00
 -1      1501 2.45590E+00
 -1      1502 1.21467E+00
 -1      1503 1.53702E+00
 -1      1504 1.53702E+00
 -1      1505 9.43346E-01
 -1      1506 1.06508E+00
 -1      1507 1.06508E+00
 -1      1508 1.05085E+00
 -1      1509 9.71214E-01
 -1      1510 9.43346E-01
 -1      1511 1.13125E+00
 -1      1512 1.13049E+00
 -1      1513 1.05085E+00
 -1      1514 1.13201E+00
 -1      1515 1.13201E+00
 -1      1516 1.13125E+00
 -1      1517 1.01728E+00
 -1      1518 1.07464E+00
 -1      1519 1.07464E+00
 -1      1520 8.58168E-01
 -1      1521 9.37724E-01
 -1      1522 9.37724E-01
 -1      1523 7.15737E-01
 -1      1524 7.87294E-01
 -1      1525 7.87294E-01
 -1      1526 5.78267E-01
 -1      1527 6.51315E-01
 -1      1528 6.51996E-01
 -1      1529 4.48746E-01
 -1      1530 5.15769E-01
 -1      1531 5.25075E-01
 -1      1532 3.35584E-01
 -1      1533 3.92993E-01
 -1      1534 4.06824E-01
 -1      1535 2.55054E-01
 -1      1536 2.88642E-01
 -1      1537 3.04129E-01
 -1      1538 1.94275E-01
 -1      1539 2.23597E-01
 -1      1540 2.25732E-01
 -1      1541 1.45266E-01
 -1      1542 1.69771E-01
 -1      1543 1.69771E-01
 -1      1544 1.06137E-01
 -1      1545 1.25922E-01
 -1      1546 1.25922E-01
 -1      1547 7.60287E-02
 -1      1548 9.15486E-02
 -1      1549 9.19903E-02
 -1      1550 5.27823E-02
 -1      1551 6.46451E-02
 -1      1552 6.60188E-02
 -1      1553 4.21418E-02
 -1      1554 4.65356E-02
 -1      1555 4.83885E-02
 -1      1556 3.47161E-02
 -1      1557 3.84289E-02
 -1      1558 3.84289E-02
 -1      1559 2.79873E-02
 -1      1560 3.13517E-02
 -1      1561 3.13517E-02
 -1      1562 2.21201E-02
 -1      1563 2.50537E-02
 -1      1564 2.50537E-02
 -1      1565 1.78674E-02
 -1      1566 1.99938E-02
 -1      1567 1.99938E-02
 -1      1568 1.56802E-02
 -1      1569 1.67738E-02
 -1      1570 1.67738E-02
 -1      1571 1.33588E-02
 -1      1572 1.45195E-02
 -1      1573 1.45195E-02
 -1      1574 1.11063E-02
 -1      1575 1.22325E-02
 -1      1576 1.22325E-02
 -1      1577 9.03994E-03
 -1      1578 1.00731E-02
 -1      1579 1.00731E-02
 -1      1580 7.24385E-03
 -1      1581 8.14190E-03
 -1      1582 8.14190E-03
 -1      1583 5.83599E-03
 -1      1584 6.53992E-03
 -1      1585 6.53992E-03
 -1      1586 4.60726E-03
 -1      1587 5.22162E-03
 -1      1588 5.22162E-03
 -1      1589 3.57786E-03
 -1      1590 4.10235E-03
 -1      1591 4.10235E-03
 -1      1592 2.71507E-03
 -1      1593 3.15698E-03
 -1      1594 3.17656E-03
 -1      1595 1.98683E-03
 -1      1596 2.35800E-03
 -1      1597 2.39861E-03
 -1      1598 1.53603E-03
 -1      1599 1.73408E-03
 -1      1600 1.78879E-03
 -1      1601 1.19083E-03
 -1      1602 1.36343E-03
 -1      1603 1.36343E-03
 -1      1604 8.06407E-04
 -1      1605 9.98620E-04
 -1      1606 9.98620E-04
 -1      1607 5.02737E-04
 -1      1608 6.54572E-04
 -1      1609 6.54572E-04
 -1      1610 3.63103E-04
 -1      1611 2.58324E-04
 -1      1612 2.58324E-04
 -1      1613 2.38196E-04
 -1      1614 2.58324E-04
 -1      1615 2.93180E-04
 -1      1616 1.84845E-04
 -1      1617 2.30920E-04
 -1      1618 2.85903E-04
 -1      1619 1.32462E-04
 -1      1620 1.28215E-04
 -1      1621 2.21996E-04
 -1      1622 2.18919E-04
 -1      1623 1.89255E-04
 -1      1624 2.22158E-04
 -1      1625 2.73445E-04
 -1      1626 2.55843E-04
 -1      1627 3.15874E-04
 -1      1628 2.93509E-04
 -1      1629 2.88450E-04
 -1      1630 3.67804E-04
 -1      1631 2.93509E-04
 -1      1632 2.93509E-04
 -1      1633 3.82809E-04
 -1      1634 2.88181E-04
 -1      1635 2.93444E-04
 -1      1636 3.82744E-04
 -1      1637 2.53806E-04
 -1      1638 2.72232E-04
 -1      1639 3.66730E-04
 -1      1640 1.89493E-04
 -1      1641 2.18305E-04
 -1      1642 3.15281E-04
 -1      1643 1.30474E-04
 -1      1644 1.33574E-04
 -1      1645 2.23861E-04
 -1      1646 2.31318E-04
 -1      1647 1.86100E-04
 -1      1648 2.23568E-04
 -1      1649 2.87994E-04
 -1      1650 2.31318E-04
 -1      1651 2.79194E-04
 -1      1652 3.56443E-04
 -1      1653 3.37425E-04
 -1      1654 3.28626E-04
 -1      1655 5.25757E-04
 -1      1656 2.87251E+01
 -1      1657 2.90668E+01
 -1      1658 3.96797E+01
 -1      1659 2.76163E+01
 -1      1660 4.91815E+01
 -1      1661 4.91815E+01
 -1      1662 2.39047E+01
 -1      1663 3.71138E+01
 -1      1664 1.13643E+01
 -1      1665 1.68641E+01
 -1      1666 1.18427E+01
 -1      1667 1.17638E+01
 -1      1668 1.19216E+01
 -1      1669 1.19216E+01
 -1      1670 1.24911E+01
 -1      1671 1.19134E+01
 -1      1672 1.30770E+01
 -1      1673 1.30770E+01
 -1      1674 1.28192E+01
 -1      1675 1.25599E+01
 -1      1676 2.16567E+01
 -1      1677 1.35955E+01
 -1      1678 3.03763E+01
 -1      1679 3.00471E+01
 -1      1680 3.14825E+01
 -1      1681 3.26689E+01
 -1      1682 3.04049E+01
 -1      1683 3.14825E+01
 -1      1684 2.96880E+01
 -1      1685 2.95045E+01
 -1      1686 2.96880E+01
 -1      1687 2.96880E+01
 -1      1688 3.94955E+01
 -1      1689 3.15680E+01
 -1      1690 4.20700E+01
 -1      1691 4.20700E+01
 -1      1692 1.64287E+01
 -1      1693 2.94657E+01
 -1      1694 1.19397E+01
 -1      1695 1.34827E+01
 -1      1696 1.29099E+01
 -1      1697 1.29099E+01
 -1      1698 1.22334E+01
 -1      1699 1.25716E+01
 -1      1700 1.22529E+01
 -1      1701 1.20557E+01
 -1      1702 1.26277E+01
 -1      1703 1.26277E+01
 -1      1704 1.15123E+01
 -1      1705 1.19431E+01
 -1      1706 1.81398E+01
 -1      1707 1.17661E+01
 -1      1708 2.89919E+01
 -1      1709 2.54388E+01
 -1      1710 3.16196E+01
 -1      1711 3.16196E+01
 -1      1712 2.84201E+01
 -1      1713 3.13609E+01
 -1      1714 2.90668E+01
 -1      1715 2.90668E+01
 -1      1716 1.80055E+01
 -1      1717 3.71138E+01
 -1      1718 3.63103E-04
 -1      1719 3.97958E-04
 -1      1720 3.12868E+01
 -1      1721 3.96797E+01
 -1      1722 3.23957E+01
 -1      1723 1.13643E+01
 -1      1724 1.18427E+01
 -1      1725 1.19134E+01
 -1      1726 1.24911E+01
 -1      1727 1.25599E+01
 -1      1728 1.28192E+01
 -1      1729 2.19859E+01
 -1      1730 3.26689E+01
 -1      1731 3.49615E+01
 -1      1732 3.40612E+01
 -1      1733 3.31608E+01
 -1      1734 3.50409E+01
 -1      1735 3.94955E+01
 -1      1736 2.94657E+01
 -1      1737 1.39154E+01
 -1      1738 1.19397E+01
 -1      1739 1.25716E+01
 -1      1740 1.20557E+01
 -1      1741 1.22529E+01
 -1      1742 1.19431E+01
 -1      1743 1.15123E+01
 -1      1744 1.90651E+01
 -1      1745 2.89919E+01
 -1      1746 3.13609E+01
 -1      1747 3.17490E+01
 -1      1748 9.29262E+00
 -1      1749 2.80783E+00
 -1      1750 3.12838E+00
 -1      1751 3.31391E+00
 -1      1752 4.91557E+00
 -1      1753 3.06249E+00
 -1      1754 2.69572E+00
 -1      1755 2.71593E+00
 -1      1756 2.68974E+00
 -1      1757 2.69572E+00
 -1      1758 2.82940E+00
 -1      1759 2.40877E+00
 -1      1760 2.68615E+00
 -1      1761 2.82581E+00
 -1      1762 1.83969E+00
 -1      1763 2.11970E+00
 -1      1764 2.53315E+00
 -1      1765 2.32341E+00
 -1      1766 1.92156E+00
 -1      1767 2.32595E+00
 -1      1768 2.57034E+00
 -1      1769 2.48253E+00
 -1      1770 2.56694E+00
 -1      1771 2.57034E+00
 -1      1772 2.57034E+00
 -1      1773 2.72606E+00
 -1      1774 2.43504E+00
 -1      1775 2.44999E+00
 -1      1776 2.60571E+00
 -1      1777 2.36359E+00
 -1      1778 2.28745E+00
 -1      1779 2.33778E+00
 -1      1780 2.65991E+00
 -1      1781 2.34673E+00
 -1      1782 2.17334E+00
 -1      1783 3.23129E+00
 -1      1784 2.68086E+00
 -1      1785 2.17743E+00
 -1      1786 7.24196E+00
 -1      1787 3.10077E+00
 -1      1788 2.06786E+00
 -1      1789 2.01856E+00
 -1      1790 4.91557E+00
 -1      1791 1.33319E+00
 -1      1792 1.71649E+00
 -1      1793 1.63526E+00
 -1      1794 3.24802E+00
 -1      1795 1.77224E+00
 -1      1796 1.22428E+00
 -1      1797 9.28646E-01
 -1      1798 8.86218E-01
 -1      1799 1.28347E+00
 -1      1800 8.28426E-01
 -1      1801 1.10050E+00
 -1      1802 9.30041E-01
 -1      1803 1.41930E+00
 -1      1804 1.84216E+00
 -1      1805 1.19105E+00
 -1      1806 2.11959E+00
 -1      1807 2.72603E+00
 -1      1808 1.78728E+00
 -1      1809 3.01754E+00
 -1      1810 3.54720E+00
 -1      1811 2.35622E+00
 -1      1812 3.57718E+00
 -1      1813 3.53486E+00
 -1      1814 2.67770E+00
 -1      1815 3.52130E+00
 -1      1816 3.48993E+00
 -1      1817 2.69413E+00
 -1      1818 3.39122E+00
 -1      1819 2.75084E+00
 -1      1820 2.58186E+00
 -1      1821 2.44572E+00
 -1      1822 1.86229E+00
 -1      1823 2.17803E+00
 -1      1824 1.54146E+00
 -1      1825 1.25993E+00
 -1      1826 1.55208E+00
 -1      1827 1.13997E+00
 -1      1828 1.22504E+00
 -1      1829 1.11128E+00
 -1      1830 1.16280E+00
 -1      1831 1.13146E+00
 -1      1832 9.29091E-01
 -1      1833 1.21842E+00
 -1      1834 1.22133E+00
 -1      1835 9.53826E-01
 -1      1836 1.24257E+00
 -1      1837 1.15843E+00
 -1      1838 1.06203E+00
 -1      1839 1.11518E+00
 -1      1840 1.00718E+00
 -1      1841 1.04001E+00
 -1      1842 9.53798E-01
 -1      1843 8.78950E-01
 -1      1844 9.43384E-01
 -1      1845 8.31332E-01
 -1      1846 7.67474E-01
 -1      1847 8.42382E-01
 -1      1848 7.07628E-01
 -1      1849 6.37233E-01
 -1      1850 7.34919E-01
 -1      1851 5.74260E-01
 -1      1852 5.07180E-01
 -1      1853 6.12100E-01
 -1      1854 4.48152E-01
 -1      1855 3.89430E-01
 -1      1856 4.90099E-01
 -1      1857 3.37897E-01
 -1      1858 2.96341E-01
 -1      1859 3.79538E-01
 -1      1860 2.53514E-01
 -1      1861 2.24494E-01
 -1      1862 2.85178E-01
 -1      1863 1.90210E-01
 -1      1864 1.65985E-01
 -1      1865 2.08068E-01
 -1      1866 1.39371E-01
 -1      1867 1.19472E-01
 -1      1868 1.47170E-01
 -1      1869 1.02484E-01
 -1      1870 8.90564E-02
 -1      1871 1.03568E-01
 -1      1872 7.67867E-02
 -1      1873 6.83102E-02
 -1      1874 7.43100E-02
 -1      1875 5.99089E-02
 -1      1876 5.23898E-02
 -1      1877 5.36390E-02
 -1      1878 4.85556E-02
 -1      1879 4.21059E-02
 -1      1880 4.14037E-02
 -1      1881 3.87281E-02
 -1      1882 3.33415E-02
 -1      1883 3.41918E-02
 -1      1884 3.03176E-02
 -1      1885 2.61075E-02
 -1      1886 2.77901E-02
 -1      1887 2.34899E-02
 -1      1888 2.04623E-02
 -1      1889 2.21486E-02
 -1      1890 1.82564E-02
 -1      1891 1.61787E-02
 -1      1892 1.73252E-02
 -1      1893 1.47540E-02
 -1      1894 1.31013E-02
 -1      1895 1.36946E-02
 -1      1896 1.21519E-02
 -1      1897 1.07098E-02
 -1      1898 1.13205E-02
 -1      1899 9.80313E-03
 -1      1900 8.71328E-03
 -1      1901 9.46439E-03
 -1      1902 7.90484E-03
 -1      1903 6.98666E-03
 -1      1904 7.74930E-03
 -1      1905 6.34653E-03
 -1      1906 5.65317E-03
 -1      1907 6.30073E-03
 -1      1908 5.08589E-03
 -1      1909 4.50646E-03
 -1      1910 5.09332E-03
 -1      1911 4.03904E-03
 -1      1912 3.53523E-03
 -1      1913 4.05861E-03
 -1      1914 3.15704E-03
 -1      1915 2.72841E-03
 -1      1916 3.21300E-03
 -1      1917 2.39681E-03
 -1      1918 2.03865E-03
 -1      1919 2.50322E-03
 -1      1920 1.75635E-03
 -1      1921 1.57619E-03
 -1      1922 1.88932E-03
 -1      1923 1.34343E-03
 -1      1924 1.16943E-03
 -1      1925 1.37426E-03
 -1      1926 1.02868E-03
 -1      1927 9.26203E-04
 -1      1928 1.00075E-03
 -1      1929 7.90630E-04
 -1      1930 6.31159E-04
 -1      1931 4.83459E-04
 -1      1932 7.24434E-04
 -1      1933 7.55383E-01
 -1      1934 1.04429E+00
 -1      1935 1.04429E+00
 -1      1936 8.22205E-01
 -1      1937 7.63264E-01
 -1      1938 7.63264E-01
 -1      1939 1.30256E+00
 -1      1940 1.10536E+00
 -1      1941 1.05430E+00
 -1      1942 1.76947E+00
 -1      1943 1.55834E+00
 -1      1944 1.59323E+00
 -1      1945 2.17149E+00
 -1      1946 1.86387E+00
 -1      1947 1.94340E+00
 -1      1948 2.59913E+00
 -1      1949 2.17149E+00
 -1      1950 2.03780E+00
 -1      1951 2.67121E+00
 -1      1952 2.54833E+00
 -1      1953 1.98700E+00
 -1      1954 2.97610E+00
 -1      1955 2.80429E+00
 -1      1956 2.06928E+00
 -1      1957 2.54234E+00
 -1      1958 2.89104E+00
 -1      1959 2.11731E+00
 -1      1960 1.62911E+00
 -1      1961 2.22565E+00
 -1      1962 1.71556E+00
 -1      1963 1.02061E+00
 -1      1964 1.34295E+00
 -1      1965 1.11271E+00
 -1      1966 7.19364E-01
 -1      1967 8.68961E-01
 -1      1968 6.74899E-01
 -1      1969 8.46630E-01
 -1      1970 8.18762E-01
 -1      1971 6.22648E-01
 -1      1972 9.69460E-01
 -1      1973 8.89821E-01
 -1      1974 7.65237E-01
 -1      1975 9.88699E-01
 -1      1976 9.87943E-01
 -1      1977 8.26910E-01
 -1      1978 9.15938E-01
 -1      1979 9.73301E-01
 -1      1980 8.29994E-01
 -1      1981 7.94289E-01
 -1      1982 8.73845E-01
 -1      1983 7.72503E-01
 -1      1984 6.82120E-01
 -1      1985 7.52994E-01
 -1      1986 6.89115E-01
 -1      1987 5.66168E-01
 -1      1988 6.30591E-01
 -1      1989 5.96291E-01
 -1      1990 4.50806E-01
 -1      1991 5.13304E-01
 -1      1992 4.91899E-01
 -1      1993 3.46138E-01
 -1      1994 4.01891E-01
 -1      1995 3.90120E-01
 -1      1996 2.56845E-01
 -1      1997 3.03786E-01
 -1      1998 2.98853E-01
 -1      1999 1.90741E-01
 -1      2000 2.22197E-01
 -1      2001 2.21854E-01
 -1      2002 1.44141E-01
 -1      2003 1.68646E-01
 -1      2004 1.65111E-01
 -1      2005 1.06578E-01
 -1      2006 1.25922E-01
 -1      2007 1.24797E-01
 -1      2008 7.74023E-02
 -1      2009 9.19903E-02
 -1      2010 9.19903E-02
 -1      2011 5.46352E-02
 -1      2012 6.60188E-02
 -1      2013 6.60188E-02
 -1      2014 3.97141E-02
 -1      2015 4.59608E-02
 -1      2016 4.59608E-02
 -1      2017 3.08366E-02
 -1      2018 3.45495E-02
 -1      2019 3.21218E-02
 -1      2020 2.55873E-02
 -1      2021 2.89517E-02
 -1      2022 2.50722E-02
 -1      2023 2.07725E-02
 -1      2024 2.37061E-02
 -1      2025 2.13060E-02
 -1      2026 1.68862E-02
 -1      2027 1.90126E-02
 -1      2028 1.76650E-02
 -1      2029 1.42177E-02
 -1      2030 1.53112E-02
 -1      2031 1.43301E-02
 -1      2032 1.16935E-02
 -1      2033 1.28542E-02
 -1      2034 1.13916E-02
 -1      2035 9.90586E-03
 -1      2036 1.10321E-02
 -1      2037 9.36680E-03
 -1      2038 8.19196E-03
 -1      2039 9.22514E-03
 -1      2040 8.02470E-03
 -1      2041 6.64277E-03
 -1      2042 7.54082E-03
 -1      2043 6.69284E-03
 -1      2044 5.38818E-03
 -1      2045 6.09211E-03
 -1      2046 5.49103E-03
 -1      2047 4.32749E-03
 -1      2048 4.94186E-03
 -1      2049 4.49405E-03
 -1      2050 3.42136E-03
 -1      2051 3.92626E-03
 -1      2052 3.64650E-03
 -1      2053 2.64635E-03
 -1      2054 3.06723E-03
 -1      2055 2.89114E-03
 -1      2056 1.98320E-03
 -1      2057 2.34027E-03
 -1      2058 2.23093E-03
 -1      2059 1.47007E-03
 -1      2060 1.72282E-03
 -1      2061 1.66448E-03
 -1      2062 1.13632E-03
 -1      2063 1.30892E-03
 -1      2064 1.24296E-03
 -1      2065 7.97371E-04
 -1      2066 9.89585E-04
 -1      2067 9.35075E-04
 -1      2068 4.90696E-04
 -1      2069 6.42530E-04
 -1      2070 6.33495E-04
 -1      2071 3.85917E-04
 -1      2072 2.37455E-04
 -1      2073 2.94086E-04
 -1      2074 4.27156E-04
 -1      2075 4.34432E-04
 -1      2076 4.42615E-04
 -1      2077 4.34432E-04
 -1      2078 4.34432E-04
 -1      2079 5.27169E-04
 -1      2080 5.75685E-04
 -1      2081 3.26328E-04
 -1      2082 2.69536E-04
 -1      2083 3.41626E-04
 -1      2084 4.18296E-04
 -1      2085 3.81372E-04
 -1      2086 4.28750E-04
 -1      2087 4.58391E-04
 -1      2088 4.43385E-04
 -1      2089 5.08883E-04
 -1      2090 4.58391E-04
 -1      2091 4.58391E-04
 -1      2092 5.33972E-04
 -1      2093 4.57568E-04
 -1      2094 4.57633E-04
 -1      2095 5.33214E-04
 -1      2096 4.41619E-04
 -1      2097 4.57568E-04
 -1      2098 5.32457E-04
 -1      2099 3.81835E-04
 -1      2100 4.17336E-04
 -1      2101 5.08173E-04
 -1      2102 2.70924E-04
 -1      2103 3.26843E-04
 -1      2104 4.28897E-04
 -1      2105 2.90635E-04
 -1      2106 2.35009E-04
 -1      2107 3.37990E-04
 -1      2108 3.76539E-04
 -1      2109 3.76539E-04
 -1      2110 3.87980E-04
 -1      2111 3.96797E+01
 -1      2112 3.01780E+01
 -1      2113 3.31570E+01
 -1      2114 3.31570E+01
 -1      2115 3.13060E+01
 -1      2116 3.24149E+01
 -1      2117 3.31761E+01
 -1      2118 2.13264E+01
 -1      2119 3.33940E+01
 -1      2120 2.38923E+01
 -1      2121 1.03800E+01
 -1      2122 1.74206E+01
 -1      2123 2.77594E+00
 -1      2124 2.84405E+00
 -1      2125 2.91319E+00
 -1      2126 2.88940E+00
 -1      2127 1.11586E+01
 -1      2128 1.10797E+01
 -1      2129 1.10606E+01
 -1      2130 1.10688E+01
 -1      2131 1.20008E+01
 -1      2132 1.14149E+01
 -1      2133 1.00914E+01
 -1      2134 1.06085E+01
 -1      2135 1.04301E+01
 -1      2136 9.65377E+00
 -1      2137 2.11789E+01
 -1      2138 1.27885E+01
 -1      2139 2.77539E+01
 -1      2140 2.54613E+01
 -1      2141 3.49615E+01
 -1      2142 3.49615E+01
 -1      2143 3.12164E+01
 -1      2144 3.21167E+01
 -1      2145 3.31608E+01
 -1      2146 3.31608E+01
 -1      2147 3.31253E+01
 -1      2148 3.12452E+01
 -1      2149 3.36860E+01
 -1      2150 3.11114E+01
 -1      2151 1.57275E+01
 -1      2152 2.83318E+01
 -1      2153 9.87048E+00
 -1      2154 1.28165E+01
 -1      2155 1.03447E+01
 -1      2156 9.37447E+00
 -1      2157 8.27554E+00
 -1      2158 1.13240E+01
 -1      2159 1.16623E+01
 -1      2160 1.14229E+01
 -1      2161 1.16005E+01
 -1      2162 1.15970E+01
 -1      2163 1.12222E+01
 -1      2164 1.07670E+01
 -1      2165 9.82810E+00
 -1      2166 1.05127E+01
 -1      2167 9.23897E+00
 -1      2168 8.98517E+00
 -1      2169 7.55479E+00
 -1      2170 1.86635E+01
 -1      2171 1.13644E+01
 -1      2172 2.51296E+01
 -1      2173 2.25018E+01
 -1      2174 3.11023E+01
 -1      2175 3.13609E+01
 -1      2176 2.48709E+01
 -1      2177 3.31570E+01
 -1      2178 3.25103E+01
 -1      2179 9.60832E+00
 -1      2180 9.20884E+00
 -1      2181 2.60670E+00
 -1      2182 9.53220E+00
 -1      2183 8.92426E+00
 -1      2184 2.41356E+00
 -1      2185 3.13060E+01
 -1      2186 4.25971E-04
 -1      2187 1.37009E+01
 -1      2188 3.39182E+01
 -1      2189 8.62401E+00
 -1      2190 3.25103E+01
 -1      2191 8.83734E+00
 -1      2192 9.48204E+00
 -1      2193 9.09712E+00
 -1      2194 1.16826E+01
 -1      2195 1.99478E+01
 -1      2196 2.73158E+01
 -1      2197 3.12452E+01
 -1      2198 3.12164E+01
 -1      2199 3.21167E+01
 -1      2200 2.77539E+01
 -1      2201 1.62639E+01
 -1      2202 1.01488E+01
 -1      2203 6.98343E+00
 -1      2204 9.34181E+00
 -1      2205 7.70232E+00
 -1      2206 1.03058E+01
 -1      2207 1.05703E+01
 -1      2208 1.06912E+01
 -1      2209 1.48012E+01
 -1      2210 1.29559E+00
 -1      2211 1.58449E+00
 -1      2212 3.14346E+00
 -1      2213 3.14705E+00
 -1      2214 3.13811E+00
 -1      2215 3.13811E+00
 -1      2216 3.45576E+00
 -1      2217 2.87491E+00
 -1      2218 2.79303E+00
 -1      2219 3.08595E+00
 -1      2220 2.92683E+00
 -1      2221 3.39391E+00
 -1      2222 3.08595E+00
 -1      2223 3.08595E+00
 -1      2224 3.44584E+00
 -1      2225 2.75469E+00
 -1      2226 2.87504E+00
 -1      2227 3.23493E+00
 -1      2228 2.31579E+00
 -1      2229 2.46338E+00
 -1      2230 2.73271E+00
 -1      2231 2.11728E+00
 -1      2232 2.13414E+00
 -1      2233 2.25974E+00
 -1      2234 8.02682E-01
 -1      2235 7.94802E-01
 -1      2236 1.33500E+00
 -1      2237 1.67452E+00
 -1      2238 1.37889E+00
 -1      2239 6.88952E+00
 -1      2240 8.28181E+00
 -1      2241 1.31426E+00
 -1      2242 1.25647E+00
 -1      2243 1.70532E+00
 -1      2244 1.36378E+00
 -1      2245 1.68258E+00
 -1      2246 1.74800E+00
 -1      2247 1.68401E+00
 -1      2248 1.96144E+00
 -1      2249 1.85674E+00
 -1      2250 2.08277E+00
 -1      2251 2.37428E+00
 -1      2252 1.97950E+00
 -1      2253 2.64021E+00
 -1      2254 2.67019E+00
 -1      2255 2.36677E+00
 -1      2256 4.46802E+00
 -1      2257 4.45447E+00
 -1      2258 4.43053E+00
 -1      2259 5.25595E+00
 -1      2260 5.15724E+00
 -1      2261 7.02985E+00
 -1      2262 2.87545E+00
 -1      2263 2.57033E+00
 -1      2264 5.54955E+00
 -1      2265 1.74916E+00
 -1      2266 1.42832E+00
 -1      2267 2.44658E+00
 -1      2268 1.55498E+00
 -1      2269 1.43502E+00
 -1      2270 1.75206E+00
 -1      2271 1.21990E+00
 -1      2272 1.15767E+00
 -1      2273 1.66361E+00
 -1      2274 1.12080E+00
 -1      2275 1.20777E+00
 -1      2276 1.41161E+00
 -1      2277 1.14158E+00
 -1      2278 1.16282E+00
 -1      2279 1.30856E+00
 -1      2280 1.08208E+00
 -1      2281 1.03884E+00
 -1      2282 1.16164E+00
 -1      2283 9.74155E-01
 -1      2284 9.20771E-01
 -1      2285 1.01622E+00
 -1      2286 8.71537E-01
 -1      2287 8.23919E-01
 -1      2288 9.02307E-01
 -1      2289 7.62498E-01
 -1      2290 7.02653E-01
 -1      2291 7.91652E-01
 -1      2292 6.38967E-01
 -1      2293 5.75993E-01
 -1      2294 6.66545E-01
 -1      2295 5.16102E-01
 -1      2296 4.57074E-01
 -1      2297 5.42968E-01
 -1      2298 4.04133E-01
 -1      2299 3.52599E-01
 -1      2300 4.30135E-01
 -1      2301 3.07798E-01
 -1      2302 2.64971E-01
 -1      2303 3.32393E-01
 -1      2304 2.28298E-01
 -1      2305 1.94014E-01
 -1      2306 2.50917E-01
 -1      2307 1.64797E-01
 -1      2308 1.38183E-01
 -1      2309 1.85027E-01
 -1      2310 1.15451E-01
 -1      2311 9.84633E-02
 -1      2312 1.33078E-01
 -1      2313 8.11620E-02
 -1      2314 6.88922E-02
 -1      2315 9.30454E-02
 -1      2316 5.60067E-02
 -1      2317 4.76055E-02
 -1      2318 6.28586E-02
 -1      2319 3.87204E-02
 -1      2320 3.48863E-02
 -1      2321 4.10881E-02
 -1      2322 2.99249E-02
 -1      2323 2.65471E-02
 -1      2324 2.72416E-02
 -1      2325 2.47901E-02
 -1      2326 2.17662E-02
 -1      2327 2.05232E-02
 -1      2328 2.05135E-02
 -1      2329 1.78960E-02
 -1      2330 1.75135E-02
 -1      2331 1.66184E-02
 -1      2332 1.44126E-02
 -1      2333 1.49834E-02
 -1      2334 1.32005E-02
 -1      2335 1.17758E-02
 -1      2336 1.24938E-02
 -1      2337 1.06795E-02
 -1      2338 9.73004E-03
 -1      2339 1.01854E-02
 -1      2340 8.98371E-03
 -1      2341 8.07706E-03
 -1      2342 8.34270E-03
 -1      2343 7.53463E-03
 -1      2344 6.72619E-03
 -1      2345 7.05395E-03
 -1      2346 6.18455E-03
 -1      2347 5.54442E-03
 -1      2348 5.96988E-03
 -1      2349 5.04931E-03
 -1      2350 4.48203E-03
 -1      2351 4.93313E-03
 -1      2352 4.06904E-03
 -1      2353 3.60161E-03
 -1      2354 4.02502E-03
 -1      2355 3.22522E-03
 -1      2356 2.84703E-03
 -1      2357 3.23565E-03
 -1      2358 2.51548E-03
 -1      2359 2.18388E-03
 -1      2360 2.52770E-03
 -1      2361 1.93210E-03
 -1      2362 1.64980E-03
 -1      2363 1.94436E-03
 -1      2364 1.43494E-03
 -1      2365 1.20218E-03
 -1      2366 1.47772E-03
 -1      2367 1.02288E-03
 -1      2368 8.82130E-04
 -1      2369 1.08355E-03
 -1      2370 1.70549E+00
 -1      2371 1.44971E+00
 -1      2372 1.94340E+00
 -1      2373 1.84900E+00
 -1      2374 1.70549E+00
 -1      2375 2.12583E+00
 -1      2376 2.12583E+00
 -1      2377 2.03144E+00
 -1      2378 2.01550E+00
 -1      2379 2.06630E+00
 -1      2380 2.15433E+00
 -1      2381 2.19902E+00
 -1      2382 2.06594E+00
 -1      2383 2.14524E+00
 -1      2384 1.91712E+00
 -1      2385 2.00218E+00
 -1      2386 1.99884E+00
 -1      2387 1.45921E+00
 -1      2388 1.77590E+00
 -1      2389 1.66077E+00
 -1      2390 1.00549E+00
 -1      2391 1.29165E+00
 -1      2392 1.35200E+00
 -1      2393 7.85521E-01
 -1      2394 9.37170E-01
 -1      2395 1.11611E+00
 -1      2396 7.85843E-01
 -1      2397 6.86445E-01
 -1      2398 9.48716E-01
 -1      2399 8.47761E-01
 -1      2400 8.04571E-01
 -1      2401 8.68367E-01
 -1      2402 8.57063E-01
 -1      2403 8.38581E-01
 -1      2404 8.77914E-01
 -1      2405 8.05746E-01
 -1      2406 8.21144E-01
 -1      2407 8.32815E-01
 -1      2408 7.32209E-01
 -1      2409 7.74302E-01
 -1      2410 7.65453E-01
 -1      2411 6.53079E-01
 -1      2412 6.94374E-01
 -1      2413 6.96173E-01
 -1      2414 5.55694E-01
 -1      2415 6.07223E-01
 -1      2416 6.12482E-01
 -1      2417 4.53455E-01
 -1      2418 5.06318E-01
 -1      2419 5.17250E-01
 -1      2420 3.57212E-01
 -1      2421 4.06126E-01
 -1      2422 4.20546E-01
 -1      2423 2.72640E-01
 -1      2424 3.14992E-01
 -1      2425 3.30998E-01
 -1      2426 2.02176E-01
 -1      2427 2.36823E-01
 -1      2428 2.52962E-01
 -1      2429 1.50839E-01
 -1      2430 1.72935E-01
 -1      2431 1.87904E-01
 -1      2432 1.09490E-01
 -1      2433 1.27708E-01
 -1      2434 1.35532E-01
 -1      2435 7.71071E-02
 -1      2436 9.16951E-02
 -1      2437 9.46064E-02
 -1      2438 5.28787E-02
 -1      2439 6.42622E-02
 -1      2440 6.39670E-02
 -1      2441 3.66688E-02
 -1      2442 4.53432E-02
 -1      2443 4.35866E-02
 -1      2444 2.69571E-02
 -1      2445 3.21218E-02
 -1      2446 3.15041E-02
 -1      2447 2.31872E-02
 -1      2448 2.50722E-02
 -1      2449 2.50722E-02
 -1      2450 1.94249E-02
 -1      2451 2.13060E-02
 -1      2452 2.13060E-02
 -1      2453 1.59051E-02
 -1      2454 1.76650E-02
 -1      2455 1.76650E-02
 -1      2456 1.27551E-02
 -1      2457 1.43301E-02
 -1      2458 1.43301E-02
 -1      2459 1.00777E-02
 -1      2460 1.14412E-02
 -1      2461 1.14412E-02
 -1      2462 8.70542E-03
 -1      2463 9.36680E-03
 -1      2464 9.41630E-03
 -1      2465 7.34398E-03
 -1      2466 8.02470E-03
 -1      2467 8.02470E-03
 -1      2468 6.04169E-03
 -1      2469 6.69284E-03
 -1      2470 6.69284E-03
 -1      2471 4.94037E-03
 -1      2472 5.49103E-03
 -1      2473 5.49103E-03
 -1      2474 4.01942E-03
 -1      2475 4.46574E-03
 -1      2476 4.46574E-03
 -1      2477 3.19305E-03
 -1      2478 3.59428E-03
 -1      2479 3.56597E-03
 -1      2480 2.49955E-03
 -1      2481 2.85368E-03
 -1      2482 2.80146E-03
 -1      2483 1.91063E-03
 -1      2484 2.21671E-03
 -1      2485 2.17924E-03
 -1      2486 1.40743E-03
 -1      2487 1.66780E-03
 -1      2488 1.65358E-03
 -1      2489 1.04065E-03
 -1      2490 1.20180E-03
 -1      2491 1.20512E-03
 -1      2492 7.35614E-04
 -1      2493 8.82354E-04
 -1      2494 8.41193E-04
 -1      2495 6.82010E-04
 -1      2496 5.50021E-04
 -1      2497 4.94977E-04
 -1      2498 6.13396E-04
 -1      2499 5.88307E-04
 -1      2500 6.54534E-04
 -1      2501 4.61134E-04
 -1      2502 5.94204E-04
 -1      2503 4.29247E-04
 -1      2504 3.97166E-04
 -1      2505 5.48755E-04
 -1      2506 5.50517E-04
 -1      2507 1.49480E+01
 -1      2508 2.12337E+01
 -1      2509 6.13554E-04
 -1      2510 6.13554E-04
 -1      2511 6.92978E-04
 -1      2512 6.12796E-04
 -1      2513 6.13554E-04
 -1      2514 6.93135E-04
 -1      2515 6.12616E-04
 -1      2516 6.12616E-04
 -1      2517 6.92955E-04
 -1      2518 5.88332E-04
 -1      2519 6.12616E-04
 -1      2520 6.92775E-04
 -1      2521 4.95143E-04
 -1      2522 5.50135E-04
 -1      2523 6.54577E-04
 -1      2524 4.18777E-04
 -1      2525 4.54692E-04
 -1      2526 5.75929E-04
 -1      2527 5.04681E-04
 -1      2528 4.18777E-04
 -1      2529 5.35478E-04
 -1      2530 5.31372E-04
 -1      2531 9.44966E+00
 -1      2532 1.33554E+01
 -1      2533 1.17160E+00
 -1      2534 8.88448E-01
 -1      2535 1.28386E+00
 -1      2536 3.24340E+01
 -1      2537 3.31761E+01
 -1      2538 3.39182E+01
 -1      2539 3.39182E+01
 -1      2540 3.09871E+00
 -1      2541 2.26426E+00
 -1      2542 2.35967E+00
 -1      2543 2.91319E+00
 -1      2544 8.44061E+00
 -1      2545 6.31513E+00
 -1      2546 8.16035E+00
 -1      2547 6.84276E+00
 -1      2548 8.83287E+00
 -1      2549 1.17439E+01
 -1      2550 2.85348E+00
 -1      2551 3.14255E+00
 -1      2552 3.46378E+00
 -1      2553 3.40243E+00
 -1      2554 9.42531E+00
 -1      2555 9.07107E+00
 -1      2556 9.28528E+00
 -1      2557 9.00880E+00
 -1      2558 7.55622E+00
 -1      2559 6.08482E+00
 -1      2560 8.86730E+00
 -1      2561 8.95713E+00
 -1      2562 7.72236E+00
 -1      2563 5.56755E+00
 -1      2564 6.00515E+00
 -1      2565 1.51301E+01
 -1      2566 1.08477E+01
 -1      2567 2.52430E+01
 -1      2568 1.80354E+01
 -1      2569 2.63103E+01
 -1      2570 2.91551E+01
 -1      2571 2.92013E+01
 -1      2572 2.72569E+01
 -1      2573 2.93296E+01
 -1      2574 3.12452E+01
 -1      2575 2.17269E+01
 -1      2576 2.37407E+01
 -1      2577 1.30320E+01
 -1      2578 1.83861E+01
 -1      2579 6.41224E+00
 -1      2580 6.90825E+00
 -1      2581 1.37467E+01
 -1      2582 9.90834E+00
 -1      2583 9.31421E+00
 -1      2584 9.51488E+00
 -1      2585 8.11452E+00
 -1      2586 9.19885E+00
 -1      2587 5.28776E+00
 -1      2588 6.13069E+00
 -1      2589 4.89104E+00
 -1      2590 2.16658E+01
 -1      2591 1.54344E+01
 -1      2592 6.48364E+00
 -1      2593 7.65478E+00
 -1      2594 5.11560E+00
 -1      2595 2.68274E+01
 -1      2596 2.54194E+01
 -1      2597 1.59829E+01
 -1      2598 1.70564E+00
 -1      2599 2.00771E+00
 -1      2600 2.13823E+00
 -1      2601 1.95693E+00
 -1      2602 2.58440E+01
 -1      2603 2.69721E+01
 -1      2604 2.69721E+01
 -1      2605 4.75475E+00
 -1      2606 3.25849E+00
 -1      2607 2.94978E+00
 -1      2608 3.00978E+00
 -1      2609 9.19985E-01
 -1      2610 2.11728E+00
 -1      2611 1.68997E+01
 -1      2612 6.77714E+00
 -1      2613 6.49395E+00
 -1      2614 4.51012E+00
 -1      2615 7.38614E+00
 -1      2616 6.03709E+00
 -1      2617 8.67978E+00
 -1      2618 7.18060E+00
 -1      2619 7.94670E+00
 -1      2620 1.05416E+01
 -1      2621 1.06967E+01
 -1      2622 5.47547E+00
 -1      2623 6.29289E-04
 -1      2624 6.29289E-04
 -1      2625 5.63525E-04
 -1      2626 5.06037E-04
 -1      2627 5.36834E-04
 -1      2628 6.99099E-04
 -1      2629 7.30930E+00
 -1      2630 1.01822E+01
 -1      2631 1.48110E+01
 -1      2632 2.07808E+00
 -1      2633 2.37407E+01
 -1      2634 2.68274E+01
 -1      2635 2.72857E+01
 -1      2636 6.75443E+00
 -1      2637 2.42952E+01
 -1      2638 1.94366E+01
 -1      2639 1.26192E+01
 -1      2640 6.11768E+00
 -1      2641 6.96956E+00
 -1      2642 2.94941E+00
 -1      2643 3.31761E+01
 -1      2644 9.33003E+00
 -1      2645 6.69035E+00
 -1      2646 8.19623E+00
 -1      2647 7.83247E+00
 -1      2648 5.38539E+00
 -1      2649 3.68822E+00
 -1      2650 5.10409E+00
 -1      2651 6.47808E-04
 -1      2652 7.21222E-04
 -1      2653 4.47255E+00
 -1      2654 4.47255E+00
 -1      2655 5.17980E+00
 -1      2656 5.12787E+00
 -1      2657 6.20651E+00
 -1      2658 2.80972E+00
 -1      2659 3.10104E+00
 -1      2660 2.20835E+00
 -1      2661 2.39001E+00
 -1      2662 2.75833E+00
 -1      2663 1.33500E+00
 -1      2664 1.83579E+00
 -1      2665 1.61462E+01
 -1      2666 2.17351E+01
 -1      2667 1.17199E+00
 -1      2668 1.08623E+00
 -1      2669 1.58701E+00
 -1      2670 4.78368E+00
 -1      2671 3.75631E+00
 -1      2672 2.31130E+00
 -1      2673 2.41861E+00
 -1      2674 2.48706E+00
 -1      2675 2.48849E+00
 -1      2676 3.05036E+00
 -1      2677 1.93556E+00
 -1      2678 2.05689E+00
 -1      2679 2.56589E+00
 -1      2680 4.43053E+00
 -1      2681 6.22836E+00
 -1      2682 7.14522E+00
 -1      2683 7.94670E+00
 -1      2684 6.49395E+00
 -1      2685 4.21216E+00
 -1      2686 2.07379E+00
 -1      2687 2.20045E+00
 -1      2688 2.09776E+00
 -1      2689 1.88264E+00
 -1      2690 2.41948E+00
 -1      2691 1.77314E+00
 -1      2692 1.73627E+00
 -1      2693 2.20729E+00
 -1      2694 1.52022E+00
 -1      2695 1.45403E+00
 -1      2696 1.88175E+00
 -1      2697 1.28085E+00
 -1      2698 1.20012E+00
 -1      2699 1.49252E+00
 -1      2700 1.10805E+00
 -1      2701 1.04337E+00
 -1      2702 1.22726E+00
 -1      2703 9.54827E-01
 -1      2704 9.05592E-01
 -1      2705 1.04665E+00
 -1      2706 8.21117E-01
 -1      2707 7.59696E-01
 -1      2708 8.73636E-01
 -1      2709 6.84158E-01
 -1      2710 6.20472E-01
 -1      2711 7.13623E-01
 -1      2712 5.55243E-01
 -1      2713 4.95352E-01
 -1      2714 5.72856E-01
 -1      2715 4.40345E-01
 -1      2716 3.87404E-01
 -1      2717 4.52621E-01
 -1      2718 3.41893E-01
 -1      2719 2.97092E-01
 -1      2720 3.52103E-01
 -1      2721 2.60076E-01
 -1      2722 2.23402E-01
 -1      2723 2.69577E-01
 -1      2724 1.93785E-01
 -1      2725 1.64568E-01
 -1      2726 2.02944E-01
 -1      2727 1.41249E-01
 -1      2728 1.18518E-01
 -1      2729 1.50008E-01
 -1      2730 1.00456E-01
 -1      2731 8.31543E-02
 -1      2732 1.08627E-01
 -1      2733 6.93971E-02
 -1      2734 5.65116E-02
 -1      2735 7.68073E-02
 -1      2736 4.62183E-02
 -1      2737 3.73332E-02
 -1      2738 5.27567E-02
 -1      2739 2.97799E-02
 -1      2740 2.48185E-02
 -1      2741 3.49101E-02
 -1      2742 1.93963E-02
 -1      2743 1.76393E-02
 -1      2744 2.19347E-02
 -1      2745 1.47724E-02
 -1      2746 1.35198E-02
 -1      2747 1.36456E-02
 -1      2748 1.31502E-02
 -1      2749 1.18726E-02
 -1      2750 1.04091E-02
 -1      2751 1.14969E-02
 -1      2752 1.02848E-02
 -1      2753 9.66373E-03
 -1      2754 9.75741E-03
 -1      2755 8.66108E-03
 -1      2756 8.76056E-03
 -1      2757 8.07467E-03
 -1      2758 7.32834E-03
 -1      2759 7.64672E-03
 -1      2760 6.74253E-03
 -1      2761 6.20010E-03
 -1      2762 6.47449E-03
 -1      2763 5.78197E-03
 -1      2764 5.24034E-03
 -1      2765 5.47055E-03
 -1      2766 4.85443E-03
 -1      2767 4.35931E-03
 -1      2768 4.66652E-03
 -1      2769 3.98014E-03
 -1      2770 3.56715E-03
 -1      2771 3.90144E-03
 -1      2772 3.21469E-03
 -1      2773 2.83830E-03
 -1      2774 3.16980E-03
 -1      2775 2.52975E-03
 -1      2776 2.19819E-03
 -1      2777 2.50879E-03
 -1      2778 1.94436E-03
 -1      2779 1.69258E-03
 -1      2780 1.94641E-03
 -1      2781 1.47772E-03
 -1      2782 1.26285E-03
 -1      2783 1.47772E-03
 -1      2784 1.08355E-03
 -1      2785 9.04253E-04
 -1      2786 1.08355E-03
 -1      2787 2.21387E+00
 -1      2788 2.03144E+00
 -1      2789 4.83387E+00
 -1      2790 6.62875E+00
 -1      2791 1.86946E+00
 -1      2792 1.72594E+00
 -1      2793 2.05189E+00
 -1      2794 2.42691E+00
 -1      2795 2.37647E+00
 -1      2796 3.13066E+00
 -1      2797 3.32750E+00
 -1      2798 3.55873E+00
 -1      2799 2.19120E+00
 -1      2800 2.33242E+00
 -1      2801 3.66108E+00
 -1      2802 1.40981E+00
 -1      2803 1.57737E+00
 -1      2804 2.24902E+00
 -1      2805 1.41001E+00
 -1      2806 1.47833E+00
 -1      2807 1.70370E+00
 -1      2808 1.13082E+00
 -1      2809 1.22990E+00
 -1      2810 1.59212E+00
 -1      2811 1.06401E+00
 -1      2812 1.04528E+00
 -1      2813 1.32647E+00
 -1      2814 9.82944E-01
 -1      2815 9.92124E-01
 -1      2816 1.16904E+00
 -1      2817 8.67019E-01
 -1      2818 9.02938E-01
 -1      2819 1.01715E+00
 -1      2820 7.70733E-01
 -1      2821 8.02177E-01
 -1      2822 8.72299E-01
 -1      2823 6.87451E-01
 -1      2824 7.25287E-01
 -1      2825 7.62011E-01
 -1      2826 5.89032E-01
 -1      2827 6.34888E-01
 -1      2828 6.64001E-01
 -1      2829 4.86746E-01
 -1      2830 5.36122E-01
 -1      2831 5.58528E-01
 -1      2832 3.90170E-01
 -1      2833 4.37499E-01
 -1      2834 4.56371E-01
 -1      2835 3.04442E-01
 -1      2836 3.46661E-01
 -1      2837 3.63614E-01
 -1      2838 2.31627E-01
 -1      2839 2.67443E-01
 -1      2840 2.83107E-01
 -1      2841 1.71864E-01
 -1      2842 2.01106E-01
 -1      2843 2.15587E-01
 -1      2844 1.24194E-01
 -1      2845 1.47325E-01
 -1      2846 1.60526E-01
 -1      2847 8.71166E-02
 -1      2848 1.04911E-01
 -1      2849 1.16704E-01
 -1      2850 5.94442E-02
 -1      2851 7.22890E-02
 -1      2852 8.25938E-02
 -1      2853 4.07488E-02
 -1      2854 4.82843E-02
 -1      2855 5.66063E-02
 -1      2856 2.79879E-02
 -1      2857 3.25349E-02
 -1      2858 3.72325E-02
 -1      2859 2.06990E-02
 -1      2860 2.25839E-02
 -1      2861 2.36147E-02
 -1      2862 1.64586E-02
 -1      2863 1.83398E-02
 -1      2864 1.58515E-02
 -1      2865 1.41709E-02
 -1      2866 1.59308E-02
 -1      2867 1.29645E-02
 -1      2868 1.18780E-02
 -1      2869 1.34530E-02
 -1      2870 1.17188E-02
 -1      2871 9.77542E-03
 -1      2872 1.10894E-02
 -1      2873 1.02123E-02
 -1      2874 8.28218E-03
 -1      2875 8.99306E-03
 -1      2876 8.64130E-03
 -1      2877 6.89643E-03
 -1      2878 7.57715E-03
 -1      2879 7.15391E-03
 -1      2880 5.79137E-03
 -1      2881 6.44251E-03
 -1      2882 5.99496E-03
 -1      2883 4.81185E-03
 -1      2884 5.36251E-03
 -1      2885 5.11218E-03
 -1      2886 3.91938E-03
 -1      2887 4.39401E-03
 -1      2888 4.26549E-03
 -1      2889 3.13255E-03
 -1      2890 3.55769E-03
 -1      2891 3.48596E-03
 -1      2892 2.47166E-03
 -1      2893 2.81104E-03
 -1      2894 2.80275E-03
 -1      2895 1.90294E-03
 -1      2896 2.18578E-03
 -1      2897 2.19536E-03
 -1      2898 1.41782E-03
 -1      2899 1.66064E-03
 -1      2900 1.66719E-03
 -1      2901 1.02608E-03
 -1      2902 1.23171E-03
 -1      2903 1.23878E-03
 -1      2904 7.60732E-04
 -1      2905 9.19032E-04
 -1      2906 9.45616E-04
 -1      2907 7.25647E-04
 -1      2908 7.86349E-04
 -1      2909 7.86349E-04
 -1      2910 7.41856E-04
 -1      2911 5.58824E-04
 -1      2912 7.41856E-04
 -1      2913 7.77436E-04
 -1      2914 7.39150E-04
 -1      2915 4.34981E+00
 -1      2916 3.91929E+00
 -1      2917 7.84145E-04
 -1      2918 7.84325E-04
 -1      2919 8.77539E-04
 -1      2920 7.86349E-04
 -1      2921 7.86191E-04
 -1      2922 8.70808E-04
 -1      2923 8.79563E-04
 -1      2924 7.84145E-04
 -1      2925 7.84145E-04
 -1      2926 8.75516E-04
 -1      2927 7.38457E-04
 -1      2928 7.76654E-04
 -1      2929 8.68025E-04
 -1      2930 6.28989E-04
 -1      2931 6.69440E-04
 -1      2932 7.91516E-04
 -1      2933 1.54320E+00
 -1      2934 1.26509E+00
 -1      2935 1.43133E+00
 -1      2936 1.70717E+00
 -1      2937 3.61241E+00
 -1      2938 4.49678E+00
 -1      2939 3.21270E+00
 -1      2940 2.62297E+00
 -1      2941 3.72369E+00
 -1      2942 4.12252E+00
 -1      2943 5.57468E-04
 -1      2944 1.07505E+01
 -1      2945 1.40913E+01
 -1      2946 6.79642E+00
 -1      2947 6.59265E+00
 -1      2948 3.10594E+00
 -1      2949 3.16548E+00
 -1      2950 3.38761E+00
 -1      2951 3.20950E+00
 -1      2952 3.14488E+00
 -1      2953 3.81549E+00
 -1      2954 4.06253E+00
 -1      2955 8.72712E+00
 -1      2956 1.03197E+01
 -1      2957 2.26495E+01
 -1      2958 2.33916E+01
 -1      2959 3.68661E+00
 -1      2960 3.89752E+00
 -1      2961 4.92423E+00
 -1      2962 3.76362E+00
 -1      2963 4.06404E+00
 -1      2964 4.05511E+00
 -1      2965 2.02297E+01
 -1      2966 1.92832E+01
 -1      2967 1.50922E+01
 -1      2968 1.13386E+01
 -1      2969 5.30760E+00
 -1      2970 7.23222E+00
 -1      2971 7.14522E+00
 -1      2972 6.91562E+00
 -1      2973 5.98895E+00
 -1      2974 4.58805E+00
 -1      2975 1.19671E+01
 -1      2976 9.06178E+00
 -1      2977 1.73563E+01
 -1      2978 1.34442E+01
 -1      2979 9.88681E+00
 -1      2980 6.06718E+00
 -1      2981 2.44792E+01
 -1      2982 1.73884E+01
 -1      2983 1.95693E+00
 -1      2984 3.21270E+00
 -1      2985 1.02464E+01
 -1      2986 8.55872E+00
 -1      2987 6.92569E+00
 -1      2988 5.45796E+00
 -1      2989 6.63054E+00
 -1      2990 1.12736E+01
 -1      2991 1.58840E+01
 -1      2992 1.77558E+01
 -1      2993 2.32178E+01
 -1      2994 8.07008E+00
 -1      2995 9.35813E+00
 -1      2996 8.63834E+00
 -1      2997 2.20318E+01
 -1      2998 1.99879E+01
 -1      2999 1.44373E+01
 -1      3000 4.04794E+00
 -1      3001 3.85961E+00
 -1      3002 4.65623E+00
 -1      3003 6.91376E+00
 -1      3004 5.12787E+00
 -1      3005 5.18832E+00
 -1      3006 4.40276E+00
 -1      3007 4.32323E+00
 -1      3008 5.29341E+00
 -1      3009 5.69138E+00
 -1      3010 4.15107E+00
 -1      3011 6.40812E+00
 -1      3012 1.61332E+01
 -1      3013 1.01409E+01
 -1      3014 1.20677E+01
 -1      3015 4.89501E+00
 -1      3016 4.73383E+00
 -1      3017 3.17765E+00
 -1      3018 3.09719E+00
 -1      3019 5.06301E+00
 -1      3020 2.83125E+00
 -1      3021 4.13139E+00
 -1      3022 3.18698E+00
 -1      3023 2.36581E+00
 -1      3024 3.37758E+00
 -1      3025 7.93470E-04
 -1      3026 6.70567E-04
 -1      3027 6.04837E-04
 -1      3028 3.16548E+00
 -1      3029 4.67962E+00
 -1      3030 7.15506E+00
 -1      3031 6.77800E+00
 -1      3032 4.18194E+00
 -1      3033 1.20857E+01
 -1      3034 5.57635E-04
 -1      3035 6.21603E-04
 -1      3036 7.34527E-04
 -1      3037 6.77685E-04
 -1      3038 3.59496E+00
 -1      3039 5.57468E-04
 -1      3040 1.27440E+01
 -1      3041 1.21297E+01
 -1      3042 6.05089E+00
 -1      3043 9.30395E+00
 -1      3044 3.44196E+00
 -1      3045 2.81420E+00
 -1      3046 1.49758E+01
 -1      3047 2.78731E+00
 -1      3048 4.06313E+00
 -1      3049 4.06404E+00
 -1      3050 4.66339E+00
 -1      3051 5.78858E+00
 -1      3052 3.20587E+00
 -1      3053 2.94789E+00
 -1      3054 3.02370E+00
 -1      3055 7.68831E+00
 -1      3056 6.17064E+00
 -1      3057 7.03619E+00
 -1      3058 1.34332E+01
 -1      3059 3.27308E+00
 -1      3060 5.21970E+00
 -1      3061 3.62166E+00
 -1      3062 5.20792E+00
 -1      3063 1.39525E+01
 -1      3064 9.35569E+00
 -1      3065 1.95693E+00
 -1      3066 2.08720E+00
 -1      3067 6.58219E-04
 -1      3068 6.36229E-04
 -1      3069 7.29740E-04
 -1      3070 8.20617E-04
 -1      3071 2.81248E+00
 -1      3072 3.23219E+00
 -1      3073 1.22752E+01
 -1      3074 1.25171E+01
 -1      3075 5.06301E+00
 -1      3076 4.45932E+00
 -1      3077 3.56140E+00
 -1      3078 3.29003E+00
 -1      3079 2.99801E+00
 -1      3080 4.23568E+00
 -1      3081 7.83133E+00
 -1      3082 3.41181E+00
 -1      3083 3.30232E+00
 -1      3084 2.20595E+00
 -1      3085 1.98990E+00
 -1      3086 3.41047E+00
 -1      3087 1.77345E+00
 -1      3088 1.60027E+00
 -1      3089 2.09766E+00
 -1      3090 1.39849E+00
 -1      3091 1.30642E+00
 -1      3092 1.67942E+00
 -1      3093 1.13113E+00
 -1      3094 1.04259E+00
 -1      3095 1.30235E+00
 -1      3096 9.15892E-01
 -1      3097 8.31417E-01
 -1      3098 1.00037E+00
 -1      3099 7.39807E-01
 -1      3100 6.64268E-01
 -1      3101 7.82063E-01
 -1      3102 5.99207E-01
 -1      3103 5.33979E-01
 -1      3104 6.25391E-01
 -1      3105 4.75303E-01
 -1      3106 4.20297E-01
 -1      3107 5.01655E-01
 -1      3108 3.70003E-01
 -1      3109 3.24492E-01
 -1      3110 3.92686E-01
 -1      3111 2.82856E-01
 -1      3112 2.45841E-01
 -1      3113 3.00756E-01
 -1      3114 2.12268E-01
 -1      3115 1.82651E-01
 -1      3116 2.25548E-01
 -1      3117 1.56174E-01
 -1      3118 1.32856E-01
 -1      3119 1.65499E-01
 -1      3120 1.12659E-01
 -1      3121 9.45965E-02
 -1      3122 1.18826E-01
 -1      3123 7.98559E-02
 -1      3124 6.60986E-02
 -1      3125 8.38879E-02
 -1      3126 5.50900E-02
 -1      3127 4.47967E-02
 -1      3128 5.81386E-02
 -1      3129 3.69564E-02
 -1      3130 2.94031E-02
 -1      3131 3.92897E-02
 -1      3132 2.39585E-02
 -1      3133 1.85363E-02
 -1      3134 2.60047E-02
 -1      3135 1.46068E-02
 -1      3136 1.17399E-02
 -1      3137 1.66306E-02
 -1      3138 8.97090E-03
 -1      3139 8.60130E-03
 -1      3140 9.93216E-03
 -1      3141 7.90349E-03
 -1      3142 7.52775E-03
 -1      3143 6.46532E-03
 -1      3144 7.70145E-03
 -1      3145 7.17402E-03
 -1      3146 5.94122E-03
 -1      3147 7.07924E-03
 -1      3148 6.49283E-03
 -1      3149 6.02013E-03
 -1      3150 6.24114E-03
 -1      3151 5.65533E-03
 -1      3152 5.67366E-03
 -1      3153 5.32394E-03
 -1      3154 4.90581E-03
 -1      3155 5.09058E-03
 -1      3156 4.56091E-03
 -1      3157 4.17500E-03
 -1      3158 4.41429E-03
 -1      3159 3.92547E-03
 -1      3160 3.54629E-03
 -1      3161 3.81985E-03
 -1      3162 3.27284E-03
 -1      3163 2.92037E-03
 -1      3164 3.29687E-03
 -1      3165 2.64847E-03
 -1      3166 2.33992E-03
 -1      3167 2.75151E-03
 -1      3168 2.08478E-03
 -1      3169 1.83095E-03
 -1      3170 2.22446E-03
 -1      3171 1.60010E-03
 -1      3172 1.38524E-03
 -1      3173 1.73847E-03
 -1      3174 1.18095E-03
 -1      3175 1.00165E-03
 -1      3176 9.18014E-04
 -1      3177 1.30334E-03
 -1      3178 5.39522E+00
 -1      3179 6.23308E+00
 -1      3180 2.40329E+00
 -1      3181 3.66108E+00
 -1      3182 4.16243E+00
 -1      3183 2.34792E+00
 -1      3184 2.27940E+00
 -1      3185 1.59212E+00
 -1      3186 1.77222E+00
 -1      3187 2.34792E+00
 -1      3188 1.64979E+00
 -1      3189 1.73533E+00
 -1      3190 1.91544E+00
 -1      3191 1.29476E+00
 -1      3192 1.36665E+00
 -1      3193 1.77551E+00
 -1      3194 1.04880E+00
 -1      3195 1.12881E+00
 -1      3196 1.32641E+00
 -1      3197 8.99137E-01
 -1      3198 9.63980E-01
 -1      3199 1.07564E+00
 -1      3200 7.68456E-01
 -1      3201 8.13903E-01
 -1      3202 9.05583E-01
 -1      3203 6.41071E-01
 -1      3204 6.93634E-01
 -1      3205 7.45526E-01
 -1      3206 5.22088E-01
 -1      3207 5.74998E-01
 -1      3208 6.04631E-01
 -1      3209 4.15632E-01
 -1      3210 4.64879E-01
 -1      3211 4.81350E-01
 -1      3212 3.24460E-01
 -1      3213 3.67969E-01
 -1      3214 3.76478E-01
 -1      3215 2.49732E-01
 -1      3216 2.86730E-01
 -1      3217 2.91085E-01
 -1      3218 1.88731E-01
 -1      3219 2.19252E-01
 -1      3220 2.22876E-01
 -1      3221 1.39871E-01
 -1      3222 1.64410E-01
 -1      3223 1.68076E-01
 -1      3224 1.01440E-01
 -1      3225 1.20722E-01
 -1      3226 1.24606E-01
 -1      3227 7.17529E-02
 -1      3228 8.65804E-02
 -1      3229 9.05989E-02
 -1      3230 4.92400E-02
 -1      3231 6.03999E-02
 -1      3232 6.43866E-02
 -1      3233 3.24979E-02
 -1      3234 4.07118E-02
 -1      3235 4.45054E-02
 -1      3236 2.08066E-02
 -1      3237 2.62106E-02
 -1      3238 2.96898E-02
 -1      3239 1.39100E-02
 -1      3240 1.62691E-02
 -1      3241 1.88650E-02
 -1      3242 1.04055E-02
 -1      3243 1.09333E-02
 -1      3244 1.13509E-02
 -1      3245 9.19891E-03
 -1      3246 9.91682E-03
 -1      3247 7.88561E-03
 -1      3248 8.37891E-03
 -1      3249 9.16754E-03
 -1      3250 7.36554E-03
 -1      3251 7.33970E-03
 -1      3252 8.12206E-03
 -1      3253 7.07732E-03
 -1      3254 6.25662E-03
 -1      3255 6.96164E-03
 -1      3256 6.44241E-03
 -1      3257 5.37424E-03
 -1      3258 5.82816E-03
 -1      3259 5.63589E-03
 -1      3260 4.57162E-03
 -1      3261 5.00048E-03
 -1      3262 4.83367E-03
 -1      3263 3.85259E-03
 -1      3264 4.27043E-03
 -1      3265 4.15873E-03
 -1      3266 3.17656E-03
 -1      3267 3.53825E-03
 -1      3268 3.54320E-03
 -1      3269 2.55136E-03
 -1      3270 2.87287E-03
 -1      3271 2.92517E-03
 -1      3272 1.98586E-03
 -1      3273 2.27174E-03
 -1      3274 2.34186E-03
 -1      3275 1.49610E-03
 -1      3276 1.73840E-03
 -1      3277 1.81478E-03
 -1      3278 1.09501E-03
 -1      3279 1.28113E-03
 -1      3280 1.35234E-03
 -1      3281 8.45717E-04
 -1      3282 9.52763E-04
 -1      3283 9.95115E-04
 -1      3284 7.41674E-04
 -1      3285 7.20851E+00
 -1      3286 7.91576E+00
 -1      3287 8.69356E-04
 -1      3288 9.38373E-04
 -1      3289 9.18039E+00
 -1      3290 1.12353E+01
 -1      3291 9.48903E-04
 -1      3292 9.50927E-04
 -1      3293 4.89190E+00
 -1      3294 9.64507E-04
 -1      3295 9.71998E-04
 -1      3296 1.04235E-03
 -1      3297 2.24902E+00
 -1      3298 2.86285E+00
 -1      3299 2.89323E+00
 -1      3300 2.16196E+00
 -1      3301 1.99999E+00
 -1      3302 1.19094E+01
 -1      3303 9.61322E+00
 -1      3304 2.52218E+00
 -1      3305 2.41948E+00
 -1      3306 3.51451E+00
 -1      3307 2.99801E+00
 -1      3308 4.10104E+00
 -1      3309 4.16950E+00
 -1      3310 3.79161E+00
 -1      3311 4.53239E+00
 -1      3312 3.58079E+00
 -1      3313 9.09954E+00
 -1      3314 1.09714E+01
 -1      3315 9.71998E-04
 -1      3316 9.71998E-04
 -1      3317 1.04539E-03
 -1      3318 1.06848E-03
 -1      3319 1.14919E+01
 -1      3320 1.09236E+01
 -1      3321 9.38117E+00
 -1      3322 7.90403E+00
 -1      3323 8.75254E+00
 -1      3324 7.66041E+00
 -1      3325 6.60986E+00
 -1      3326 4.97683E+00
 -1      3327 4.21500E+00
 -1      3328 6.00671E+00
 -1      3329 1.72048E+00
 -1      3330 1.97189E+00
 -1      3331 2.44575E+00
 -1      3332 1.47170E+00
 -1      3333 7.72827E+00
 -1      3334 8.68216E+00
 -1      3335 3.20980E+00
 -1      3336 3.92115E+00
 -1      3337 4.06253E+00
 -1      3338 1.09236E+01
 -1      3339 1.20112E+01
 -1      3340 7.18538E+00
 -1      3341 8.57774E+00
 -1      3342 1.19785E+01
 -1      3343 1.22752E+01
 -1      3344 4.34454E+00
 -1      3345 8.36511E+00
 -1      3346 8.36511E+00
 -1      3347 6.15620E+00
 -1      3348 8.88045E+00
 -1      3349 7.52385E+00
 -1      3350 2.73224E+00
 -1      3351 3.52888E+00
 -1      3352 5.58524E+00
 -1      3353 5.58524E+00
 -1      3354 2.32571E+00
 -1      3355 8.98227E+00
 -1      3356 4.04443E+00
 -1      3357 5.16356E+00
 -1      3358 4.87801E+00
 -1      3359 8.82243E-04
 -1      3360 8.13661E-04
 -1      3361 8.46175E+00
 -1      3362 4.44746E+00
 -1      3363 7.72743E+00
 -1      3364 7.05067E+00
 -1      3365 8.75992E+00
 -1      3366 9.82148E-04
 -1      3367 9.73393E-04
 -1      3368 9.93584E-04
 -1      3369 2.01504E+00
 -1      3370 1.90497E+00
 -1      3371 1.72223E+00
 -1      3372 9.07327E+00
 -1      3373 5.30721E+00
 -1      3374 9.82148E-04
 -1      3375 9.82148E-04
 -1      3376 1.08473E-03
 -1      3377 1.05351E-03
 -1      3378 1.91280E+00
 -1      3379 1.81970E+00
 -1      3380 1.95317E+00
 -1      3381 2.11060E+00
 -1      3382 4.06593E+00
 -1      3383 4.65150E+00
 -1      3384 4.12008E+00
 -1      3385 7.91795E+00
 -1      3386 3.66108E+00
 -1      3387 2.79673E+00
 -1      3388 6.40287E+00
 -1      3389 5.02940E+00
 -1      3390 5.89723E+00
 -1      3391 4.64907E+00
 -1      3392 5.49568E+00
 -1      3393 4.02503E+00
 -1      3394 4.98776E+00
 -1      3395 6.47564E+00
 -1      3396 9.98302E+00
 -1      3397 8.49396E-04
 -1      3398 8.42156E-04
 -1      3399 9.89012E-04
 -1      3400 1.03043E-03
 -1      3401 8.00024E+00
 -1      3402 9.81646E+00
 -1      3403 6.17248E+00
 -1      3404 5.01606E+00
 -1      3405 5.96633E+00
 -1      3406 9.36711E+00
 -1      3407 5.94677E+00
 -1      3408 5.02492E+00
 -1      3409 2.59822E+00
 -1      3410 2.38257E+00
 -1      3411 2.28756E+00
 -1      3412 3.08057E+00
 -1      3413 5.01775E+00
 -1      3414 3.19618E+00
 -1      3415 6.22795E+00
 -1      3416 6.64533E+00
 -1      3417 4.87801E+00
 -1      3418 7.13469E+00
 -1      3419 7.65521E+00
 -1      3420 6.77795E+00
 -1      3421 6.17610E+00
 -1      3422 2.67904E+00
 -1      3423 2.46260E+00
 -1      3424 1.92729E+00
 -1      3425 1.72551E+00
 -1      3426 2.50868E+00
 -1      3427 1.44145E+00
 -1      3428 1.26617E+00
 -1      3429 1.68932E+00
 -1      3430 1.10641E+00
 -1      3431 9.79707E-01
 -1      3432 1.24550E+00
 -1      3433 8.72602E-01
 -1      3434 7.80991E-01
 -1      3435 9.78635E-01
 -1      3436 6.90288E-01
 -1      3437 6.25227E-01
 -1      3438 7.80827E-01
 -1      3439 5.50335E-01
 -1      3440 4.91660E-01
 -1      3441 6.15232E-01
 -1      3442 4.30641E-01
 -1      3443 3.80348E-01
 -1      3444 4.79322E-01
 -1      3445 3.31146E-01
 -1      3446 2.89510E-01
 -1      3447 3.69101E-01
 -1      3448 2.50208E-01
 -1      3449 2.16635E-01
 -1      3450 2.80597E-01
 -1      3451 1.85567E-01
 -1      3452 1.59091E-01
 -1      3453 2.10227E-01
 -1      3454 1.34821E-01
 -1      3455 1.14623E-01
 -1      3456 1.54888E-01
 -1      3457 9.59158E-02
 -1      3458 8.11752E-02
 -1      3459 1.11911E-01
 -1      3460 6.69681E-02
 -1      3461 5.59594E-02
 -1      3462 7.89960E-02
 -1      3463 4.58810E-02
 -1      3464 3.80407E-02
 -1      3465 5.47104E-02
 -1      3466 3.06199E-02
 -1      3467 2.51753E-02
 -1      3468 3.72112E-02
 -1      3469 1.97563E-02
 -1      3470 1.58269E-02
 -1      3471 2.43715E-02
 -1      3472 1.19601E-02
 -1      3473 9.19103E-03
 -1      3474 1.50858E-02
 -1      3475 6.57241E-03
 -1      3476 5.87461E-03
 -1      3477 8.60031E-03
 -1      3478 4.44663E-03
 -1      3479 4.62033E-03
 -1      3480 4.55372E-03
 -1      3481 5.04907E-03
 -1      3482 4.95428E-03
 -1      3483 3.55448E-03
 -1      3484 5.09490E-03
 -1      3485 4.84322E-03
 -1      3486 4.12384E-03
 -1      3487 4.78705E-03
 -1      3488 4.45566E-03
 -1      3489 4.20829E-03
 -1      3490 4.28342E-03
 -1      3491 3.93851E-03
 -1      3492 3.97988E-03
 -1      3493 3.70616E-03
 -1      3494 3.45663E-03
 -1      3495 3.57529E-03
 -1      3496 3.24960E-03
 -1      3497 2.97615E-03
 -1      3498 3.13591E-03
 -1      3499 2.77419E-03
 -1      3500 2.50229E-03
 -1      3501 2.72693E-03
 -1      3502 2.29033E-03
 -1      3503 2.03518E-03
 -1      3504 2.31301E-03
 -1      3505 1.82862E-03
 -1      3506 1.59778E-03
 -1      3507 1.89449E-03
 -1      3508 8.36511E+00
 -1      3509 1.92807E+00
 -1      3510 2.21121E+00
 -1      3511 3.44242E+00
 -1      3512 3.29920E+00
 -1      3513 3.87490E+00
 -1      3514 1.44140E+00
 -1      3515 1.60736E+00
 -1      3516 2.04306E+00
 -1      3517 1.14054E+00
 -1      3518 1.22536E+00
 -1      3519 1.50631E+00
 -1      3520 8.97008E-01
 -1      3521 9.82242E-01
 -1      3522 1.13196E+00
 -1      3523 7.17624E-01
 -1      3524 7.92447E-01
 -1      3525 8.69106E-01
 -1      3526 5.74219E-01
 -1      3527 6.40291E-01
 -1      3528 6.87212E-01
 -1      3529 4.61566E-01
 -1      3530 5.18775E-01
 -1      3531 5.54435E-01
 -1      3532 3.63660E-01
 -1      3533 4.11323E-01
 -1      3534 4.48748E-01
 -1      3535 2.82395E-01
 -1      3536 3.20124E-01
 -1      3537 3.54969E-01
 -1      3538 2.15418E-01
 -1      3539 2.45898E-01
 -1      3540 2.74937E-01
 -1      3541 1.61279E-01
 -1      3542 1.85600E-01
 -1      3543 2.08621E-01
 -1      3544 1.18302E-01
 -1      3545 1.37450E-01
 -1      3546 1.54974E-01
 -1      3547 8.47854E-02
 -1      3548 9.96448E-02
 -1      3549 1.12488E-01
 -1      3550 5.93599E-02
 -1      3551 7.07128E-02
 -1      3552 7.97587E-02
 -1      3553 4.06215E-02
 -1      3554 4.91498E-02
 -1      3555 5.54760E-02
 -1      3556 2.67086E-02
 -1      3557 3.29959E-02
 -1      3558 3.76402E-02
 -1      3559 1.65975E-02
 -1      3560 2.11349E-02
 -1      3561 2.44410E-02
 -1      3562 9.71713E-03
 -1      3563 1.26938E-02
 -1      3564 1.49637E-02
 -1      3565 6.52718E-03
 -1      3566 7.01588E-03
 -1      3567 8.35870E-03
 -1      3568 5.71495E-03
 -1      3569 5.74632E-03
 -1      3570 4.87659E-03
 -1      3571 5.80991E-03
 -1      3572 6.06676E-03
 -1      3573 4.44755E-03
 -1      3574 5.48738E-03
 -1      3575 5.86544E-03
 -1      3576 4.85488E-03
 -1      3577 4.93078E-03
 -1      3578 5.35924E-03
 -1      3579 4.78227E-03
 -1      3580 4.32499E-03
 -1      3581 4.69875E-03
 -1      3582 4.42209E-03
 -1      3583 3.74264E-03
 -1      3584 4.04383E-03
 -1      3585 3.90890E-03
 -1      3586 3.21212E-03
 -1      3587 3.52646E-03
 -1      3588 3.41156E-03
 -1      3589 2.67842E-03
 -1      3590 2.98211E-03
 -1      3591 2.96537E-03
 -1      3592 2.16280E-03
 -1      3593 2.44242E-03
 -1      3594 2.49936E-03
 -1      3595 1.68839E-03
 -1      3596 1.93585E-03
 -1      3597 2.03642E-03
 -1      3598 1.32919E-03
 -1      3599 1.54416E-03
 -1      3600 1.66524E-03
 -1      3601 8.63106E-04
 -1      3602 8.15904E-04
 -1      3603 9.27094E-04
 -1      3604 9.51880E-04
 -1      3605 7.96918E+00
 -1      3606 7.96918E+00
 -1      3607 6.64212E+00
 -1      3608 5.24670E+00
 -1      3609 7.41859E+00
 -1      3610 8.16177E+00
 -1      3611 1.17546E-03
 -1      3612 1.20160E-03
 -1      3613 4.50684E+00
 -1      3614 3.41047E+00
 -1      3615 3.77541E+00
 -1      3616 7.23992E+00
 -1      3617 7.96918E+00
 -1      3618 7.86736E+00
 -1      3619 7.41090E+00
 -1      3620 6.55022E+00
 -1      3621 6.25561E+00
 -1      3622 6.11587E+00
 -1      3623 2.86533E+00
 -1      3624 3.70591E+00
 -1      3625 3.21333E+00
 -1      3626 3.30178E+00
 -1      3627 2.76068E+00
 -1      3628 3.58954E+00
 -1      3629 6.85826E+00
 -1      3630 2.39316E+00
 -1      3631 6.95609E+00
 -1      3632 6.13940E+00
 -1      3633 5.33286E+00
 -1      3634 4.84350E+00
 -1      3635 6.49963E+00
 -1      3636 3.59498E+00
 -1      3637 1.39458E-03
 -1      3638 1.19029E-03
 -1      3639 1.12167E-03
 -1      3640 1.48473E-03
 -1      3641 4.06477E+00
 -1      3642 1.21172E-03
 -1      3643 1.26117E-03
 -1      3644 1.06935E-03
 -1      3645 1.30287E-03
 -1      3646 1.21172E-03
 -1      3647 1.52101E-03
 -1      3648 4.73150E+00
 -1      3649 4.73150E+00
 -1      3650 1.12437E-03
 -1      3651 1.15559E-03
 -1      3652 4.53965E+00
 -1      3653 1.33471E-03
 -1      3654 1.20160E-03
 -1      3655 1.20160E-03
 -1      3656 4.35443E+00
 -1      3657 3.27592E+00
 -1      3658 1.15777E-03
 -1      3659 1.25985E-03
 -1      3660 1.18087E-03
 -1      3661 1.14887E-03
 -1      3662 3.30630E+00
 -1      3663 1.30812E-03
 -1      3664 2.58373E+00
 -1      3665 5.48163E+00
 -1      3666 4.60311E+00
 -1      3667 2.15654E+00
 -1      3668 1.87249E+00
 -1      3669 1.40526E+00
 -1      3670 1.24550E+00
 -1      3671 1.87249E+00
 -1      3672 1.07264E+00
 -1      3673 9.65539E-01
 -1      3674 1.23240E+00
 -1      3675 8.36317E-01
 -1      3676 7.45613E-01
 -1      3677 9.30326E-01
 -1      3678 6.50407E-01
 -1      3679 5.75515E-01
 -1      3680 7.05897E-01
 -1      3681 5.03584E-01
 -1      3682 4.42566E-01
 -1      3683 5.38759E-01
 -1      3684 3.87336E-01
 -1      3685 3.38134E-01
 -1      3686 4.11598E-01
 -1      3687 2.95183E-01
 -1      3688 2.55881E-01
 -1      3689 3.13418E-01
 -1      3690 2.22306E-01
 -1      3691 1.91238E-01
 -1      3692 2.36892E-01
 -1      3693 1.65023E-01
 -1      3694 1.40753E-01
 -1      3695 1.77102E-01
 -1      3696 1.20408E-01
 -1      3697 1.01700E-01
 -1      3698 1.30542E-01
 -1      3699 8.60600E-02
 -1      3700 7.18529E-02
 -1      3701 9.45571E-02
 -1      3702 5.99766E-02
 -1      3703 4.98982E-02
 -1      3704 6.70406E-02
 -1      3705 4.11081E-02
 -1      3706 3.36874E-02
 -1      3707 4.63743E-02
 -1      3708 2.75918E-02
 -1      3709 2.21729E-02
 -1      3710 3.14887E-02
 -1      3711 1.76954E-02
 -1      3712 1.38286E-02
 -1      3713 2.09157E-02
 -1      3714 1.06077E-02
 -1      3715 7.98912E-03
 -1      3716 1.32174E-02
 -1      3717 5.75445E-03
 -1      3718 4.32647E-03
 -1      3719 7.76187E-03
 -1      3720 3.12575E-03
 -1      3721 3.55448E-03
 -1      3722 4.32647E-03
 -1      3723 3.31358E-03
 -1      3724 3.45420E-03
 -1      3725 2.88485E-03
 -1      3726 3.68643E-03
 -1      3727 3.63026E-03
 -1      3728 2.87617E-03
 -1      3729 3.66714E-03
 -1      3730 3.49490E-03
 -1      3731 3.14527E-03
 -1      3732 3.41079E-03
 -1      3733 3.17844E-03
 -1      3734 3.09805E-03
 -1      3735 3.02577E-03
 -1      3736 2.81874E-03
 -1      3737 2.86127E-03
 -1      3738 2.63610E-03
 -1      3739 2.43415E-03
 -1      3740 2.52596E-03
 -1      3741 2.28030E-03
 -1      3742 2.06834E-03
 -1      3743 2.18948E-03
 -1      3744 1.90211E-03
 -1      3745 1.69554E-03
 -1      3746 1.86940E-03
 -1      3747 1.51132E-03
 -1      3748 1.81231E+00
 -1      3749 2.02836E+00
 -1      3750 2.58339E+00
 -1      3751 2.90410E+00
 -1      3752 2.88940E+00
 -1      3753 1.18447E+00
 -1      3754 1.34277E+00
 -1      3755 1.86482E+00
 -1      3756 8.55760E-01
 -1      3757 9.60321E-01
 -1      3758 1.17112E+00
 -1      3759 6.87212E-01
 -1      3760 7.64545E-01
 -1      3761 8.55760E-01
 -1      3762 5.52282E-01
 -1      3763 6.07726E-01
 -1      3764 6.85059E-01
 -1      3765 4.37153E-01
 -1      3766 4.87396E-01
 -1      3767 5.40686E-01
 -1      3768 3.40637E-01
 -1      3769 3.84172E-01
 -1      3770 4.22820E-01
 -1      3771 2.61282E-01
 -1      3772 2.97779E-01
 -1      3773 3.26982E-01
 -1      3774 1.97078E-01
 -1      3775 2.26896E-01
 -1      3776 2.49739E-01
 -1      3777 1.45926E-01
 -1      3778 1.69755E-01
 -1      3779 1.88030E-01
 -1      3780 1.05809E-01
 -1      3781 1.24466E-01
 -1      3782 1.39247E-01
 -1      3783 7.51029E-02
 -1      3784 8.91754E-02
 -1      3785 1.01153E-01
 -1      3786 5.21913E-02
 -1      3787 6.24015E-02
 -1      3788 7.18181E-02
 -1      3789 3.52351E-02
 -1      3790 4.28608E-02
 -1      3791 4.97862E-02
 -1      3792 2.30494E-02
 -1      3793 2.86231E-02
 -1      3794 3.38436E-02
 -1      3795 1.42897E-02
 -1      3796 1.81934E-02
 -1      3797 2.23755E-02
 -1      3798 8.09945E-03
 -1      3799 1.08007E-02
 -1      3800 1.40304E-02
 -1      3801 4.90339E-03
 -1      3802 5.68425E-03
 -1      3803 8.12624E-03
 -1      3804 3.99949E-03
 -1      3805 3.64768E-03
 -1      3806 4.45533E-03
 -1      3807 4.03689E-03
 -1      3808 3.98137E-03
 -1      3809 3.18150E-03
 -1      3810 4.11103E-03
 -1      3811 4.23918E-03
 -1      3812 3.36566E-03
 -1      3813 3.88296E-03
 -1      3814 4.11499E-03
 -1      3815 3.57190E-03
 -1      3816 3.48482E-03
 -1      3817 3.76598E-03
 -1      3818 3.45888E-03
 -1      3819 3.08503E-03
 -1      3820 3.30121E-03
 -1      3821 3.15829E-03
 -1      3822 2.66497E-03
 -1      3823 2.89498E-03
 -1      3824 2.78463E-03
 -1      3825 2.25548E-03
 -1      3826 2.49148E-03
 -1      3827 2.42109E-03
 -1      3828 1.84466E-03
 -1      3829 2.07161E-03
 -1      3830 2.06373E-03
 -1      3831 1.53890E-03
 -1      3832 1.68313E-03
 -1      3833 1.71832E-03
 -1      3834 1.53890E-03
 -1      3835 5.33286E+00
 -1      3836 5.64683E+00
 -1      3837 3.49588E+00
 -1      3838 1.31764E-03
 -1      3839 1.24679E-03
 -1      3840 1.24679E-03
 -1      3841 3.50639E+00
 -1      3842 2.97108E+00
 -1      3843 3.15425E+00
 -1      3844 3.65061E+00
 -1      3845 4.39693E+00
 -1      3846 5.92059E+00
 -1      3847 5.46414E+00
 -1      3848 4.21914E+00
 -1      3849 3.73917E+00
 -1      3850 4.26078E+00
 -1      3851 5.76566E+00
 -1      3852 5.76566E+00
 -1      3853 1.51894E-03
 -1      3854 4.34148E+00
 -1      3855 3.89100E+00
 -1      3856 4.67494E+00
 -1      3857 4.33757E+00
 -1      3858 4.73016E+00
 -1      3859 4.45640E+00
 -1      3860 1.46492E-03
 -1      3861 1.29830E-03
 -1      3862 1.38950E-03
 -1      3863 3.96454E+00
 -1      3864 4.42694E+00
 -1      3865 1.51894E-03
 -1      3866 4.69597E+00
 -1      3867 1.59489E-03
 -1      3868 1.66675E-03
 -1      3869 1.62830E-03
 -1      3870 5.27501E+00
 -1      3871 5.78205E+00
 -1      3872 1.31399E-03
 -1      3873 1.28883E+00
 -1      3874 1.11597E+00
 -1      3875 9.55407E-01
 -1      3876 8.26185E-01
 -1      3877 1.01183E+00
 -1      3878 7.13176E-01
 -1      3879 6.17969E-01
 -1      3880 7.38258E-01
 -1      3881 5.39762E-01
 -1      3882 4.67831E-01
 -1      3883 5.47041E-01
 -1      3884 4.11214E-01
 -1      3885 3.55984E-01
 -1      3886 4.12217E-01
 -1      3887 3.13340E-01
 -1      3888 2.70390E-01
 -1      3889 3.12956E-01
 -1      3890 2.37566E-01
 -1      3891 2.03990E-01
 -1      3892 2.37488E-01
 -1      3893 1.78476E-01
 -1      3894 1.52261E-01
 -1      3895 1.79149E-01
 -1      3896 1.32401E-01
 -1      3897 1.12056E-01
 -1      3898 1.33775E-01
 -1      3899 9.66681E-02
 -1      3900 8.10280E-02
 -1      3901 9.85273E-02
 -1      3902 6.92087E-02
 -1      3903 5.73324E-02
 -1      3904 7.13198E-02
 -1      3905 4.83620E-02
 -1      3906 3.95719E-02
 -1      3907 5.05300E-02
 -1      3908 3.29695E-02
 -1      3909 2.68740E-02
 -1      3910 3.49572E-02
 -1      3911 2.26483E-02
 -1      3912 1.81708E-02
 -1      3913 2.41291E-02
 -1      3914 1.50034E-02
 -1      3915 1.17825E-02
 -1      3916 1.67360E-02
 -1      3917 9.43993E-03
 -1      3918 7.20526E-03
 -1      3919 1.12259E-02
 -1      3920 5.50785E-03
 -1      3921 4.30712E-03
 -1      3922 7.18592E-03
 -1      3923 3.10613E-03
 -1      3924 2.86523E-03
 -1      3925 4.28750E-03
 -1      3926 2.23990E-03
 -1      3927 2.47212E-03
 -1      3928 2.46118E-03
 -1      3929 2.70245E-03
 -1      3930 2.73933E-03
 -1      3931 2.06617E-03
 -1      3932 2.80220E-03
 -1      3933 2.71809E-03
 -1      3934 2.35937E-03
 -1      3935 2.67532E-03
 -1      3936 2.52265E-03
 -1      3937 2.37947E-03
 -1      3938 2.41805E-03
 -1      3939 2.23541E-03
 -1      3940 2.23210E-03
 -1      3941 2.09872E-03
 -1      3942 1.94488E-03
 -1      3943 1.99082E-03
 -1      3944 1.96053E-03
 -1      3945 1.79429E-03
 -1      3946 1.86977E-03
 -1      3947 3.15821E+00
 -1      3948 3.71324E+00
 -1      3949 4.15981E+00
 -1      3950 1.28345E+00
 -1      3951 1.50759E+00
 -1      3952 3.11028E+00
 -1      3953 8.42947E-01
 -1      3954 9.34161E-01
 -1      3955 1.27063E+00
 -1      3956 6.52203E-01
 -1      3957 7.31690E-01
 -1      3958 8.10091E-01
 -1      3959 5.03670E-01
 -1      3960 5.68556E-01
 -1      3961 6.15187E-01
 -1      3962 3.87695E-01
 -1      3963 4.40676E-01
 -1      3964 4.68545E-01
 -1      3965 2.96598E-01
 -1      3966 3.39456E-01
 -1      3967 3.57311E-01
 -1      3968 2.24794E-01
 -1      3969 2.59180E-01
 -1      3970 2.71654E-01
 -1      3971 1.68293E-01
 -1      3972 1.95616E-01
 -1      3973 2.05057E-01
 -1      3974 1.24099E-01
 -1      3975 1.45559E-01
 -1      3976 1.53145E-01
 -1      3977 8.98499E-02
 -1      3978 1.06483E-01
 -1      3979 1.12796E-01
 -1      3980 6.36224E-02
 -1      3981 7.63238E-02
 -1      3982 8.16541E-02
 -1      3983 4.40290E-02
 -1      3984 5.33595E-02
 -1      3985 5.78652E-02
 -1      3986 2.97420E-02
 -1      3987 3.63541E-02
 -1      3988 3.99274E-02
 -1      3989 1.96652E-02
 -1      3990 2.45212E-02
 -1      3991 2.70317E-02
 -1      3992 1.23571E-02
 -1      3993 1.58461E-02
 -1      3994 1.79918E-02
 -1      3995 7.40956E-03
 -1      3996 9.82476E-03
 -1      3997 1.16404E-02
 -1      3998 4.41822E-03
 -1      3999 5.67393E-03
 -1      4000 7.37245E-03
 -1      4001 3.18150E-03
 -1      4002 3.19962E-03
 -1      4003 4.41822E-03
 -1      4004 2.86697E-03
 -1      4005 2.66469E-03
 -1      4006 2.68281E-03
 -1      4007 3.10600E-03
 -1      4008 3.10204E-03
 -1      4009 2.40107E-03
 -1      4010 3.04351E-03
 -1      4011 3.16049E-03
 -1      4012 2.69063E-03
 -1      4013 2.80124E-03
 -1      4014 2.98485E-03
 -1      4015 2.68646E-03
 -1      4016 2.48679E-03
 -1      4017 2.67684E-03
 -1      4018 2.50340E-03
 -1      4019 2.15636E-03
 -1      4020 2.32985E-03
 -1      4021 2.22206E-03
 -1      4022 1.90437E-03
 -1      4023 2.08823E-03
 -1      4024 1.99700E-03
 -1      4025 2.13164E+00
 -1      4026 1.66441E+00
 -1      4027 1.54798E+00
 -1      4028 4.27201E+00
 -1      4029 1.83325E-03
 -1      4030 1.64903E-03
 -1      4031 1.62830E-03
 -1      4032 1.92438E-03
 -1      4033 1.76363E+00
 -1      4034 2.23318E+00
 -1      4035 3.05702E+00
 -1      4036 1.87595E+00
 -1      4037 3.74175E+00
 -1      4038 2.92721E+00
 -1      4039 2.71913E+00
 -1      4040 4.04496E+00
 -1      4041 4.05646E+00
 -1      4042 4.17528E+00
 -1      4043 3.64502E+00
 -1      4044 4.15981E+00
 -1      4045 1.44381E-03
 -1      4046 1.49989E-03
 -1      4047 1.51778E-03
 -1      4048 1.42447E-03
 -1      4049 3.87870E+00
 -1      4050 1.67932E-03
 -1      4051 1.84718E-03
 -1      4052 1.55059E-03
 -1      4053 1.96334E-03
 -1      4054 1.82995E-03
 -1      4055 1.64952E-03
 -1      4056 1.70382E-03
 -1      4057 7.88519E-01
 -1      4058 6.75510E-01
 -1      4059 5.84000E-01
 -1      4060 5.05793E-01
 -1      4061 6.34262E-01
 -1      4062 4.39392E-01
 -1      4063 3.82776E-01
 -1      4064 4.76352E-01
 -1      4065 3.33206E-01
 -1      4066 2.90562E-01
 -1      4067 3.60382E-01
 -1      4068 2.52769E-01
 -1      4069 2.19945E-01
 -1      4070 2.73019E-01
 -1      4071 1.90778E-01
 -1      4072 1.65264E-01
 -1      4073 2.06059E-01
 -1      4074 1.43322E-01
 -1      4075 1.23462E-01
 -1      4076 1.54951E-01
 -1      4077 1.06714E-01
 -1      4078 9.13259E-02
 -1      4079 1.16261E-01
 -1      4080 7.82048E-02
 -1      4081 6.63855E-02
 -1      4082 8.63917E-02
 -1      4083 5.62149E-02
 -1      4084 4.72444E-02
 -1      4085 6.30999E-02
 -1      4086 3.94623E-02
 -1      4087 3.28599E-02
 -1      4088 4.51472E-02
 -1      4089 2.71110E-02
 -1      4090 2.28853E-02
 -1      4091 3.16162E-02
 -1      4092 1.89127E-02
 -1      4093 1.57452E-02
 -1      4094 2.18946E-02
 -1      4095 1.27803E-02
 -1      4096 1.04377E-02
 -1      4097 1.49570E-02
 -1      4098 8.26681E-03
 -1      4099 6.56940E-03
 -1      4100 9.82117E-03
 -1      4101 5.01440E-03
 -1      4102 3.81340E-03
 -1      4103 6.09530E-03
 -1      4104 2.72815E-03
 -1      4105 2.10282E-03
 -1      4106 3.45505E-03
 -1      4107 1.58679E-03
 -1      4108 1.81712E-03
 -1      4109 1.85376E-03
 -1      4110 2.06035E-03
 -1      4111 2.12322E-03
 -1      4112 1.58096E-03
 -1      4113 2.22778E-03
 -1      4114 2.18501E-03
 -1      4115 1.92876E-03
 -1      4116 2.17097E-03
 -1      4117 2.06638E-03
 -1      4118 2.01929E-03
 -1      4119 1.90182E-03
 -1      4120 1.76513E-03
 -1      4121 1.84069E-03
 -1      4122 1.90873E-03
 -1      4123 1.92438E-03
 -1      4124 1.81973E-03
 -1      4125 8.42124E-01
 -1      4126 9.53381E-01
 -1      4127 6.28655E-01
 -1      4128 7.12303E-01
 -1      4129 8.55593E-01
 -1      4130 4.74152E-01
 -1      4131 5.37146E-01
 -1      4132 6.34262E-01
 -1      4133 3.59512E-01
 -1      4134 4.07751E-01
 -1      4135 4.76352E-01
 -1      4136 2.72524E-01
 -1      4137 3.09942E-01
 -1      4138 3.60382E-01
 -1      4139 2.05553E-01
 -1      4140 2.34731E-01
 -1      4141 2.73019E-01
 -1      4142 1.53652E-01
 -1      4143 1.76386E-01
 -1      4144 2.06059E-01
 -1      4145 1.13430E-01
 -1      4146 1.31045E-01
 -1      4147 1.54286E-01
 -1      4148 8.24114E-02
 -1      4149 9.59376E-02
 -1      4150 1.14187E-01
 -1      4151 5.86991E-02
 -1      4152 6.89620E-02
 -1      4153 8.32454E-02
 -1      4154 4.07836E-02
 -1      4155 4.84586E-02
 -1      4156 5.95553E-02
 -1      4157 2.82472E-02
 -1      4158 3.34680E-02
 -1      4159 4.19991E-02
 -1      4160 1.90057E-02
 -1      4161 2.28248E-02
 -1      4162 2.92610E-02
 -1      4163 1.24545E-02
 -1      4164 1.49868E-02
 -1      4165 1.98198E-02
 -1      4166 7.79565E-03
 -1      4167 9.53127E-03
 -1      4168 1.28777E-02
 -1      4169 4.49765E-03
 -1      4170 5.71625E-03
 -1      4171 7.87508E-03
 -1      4172 2.67151E-03
 -1      4173 3.18833E-03
 -1      4174 4.48636E-03
 -1      4175 2.10629E-03
 -1      4176 1.87122E-03
 -1      4177 2.37674E-03
 -1      4178 2.35951E-03
 -1      4179 2.30502E-03
 -1      4180 1.77517E-03
 -1      4181 2.35569E-03
 -1      4182 2.41435E-03
 -1      4183 2.02874E-03
 -1      4184 2.20616E-03
 -1      4185 2.33056E-03
 -1      4186 2.05846E-03
 -1      4187 2.03519E-03
 -1      4188 2.19212E-03
 -1      4189 2.01929E-03
 -1      4190 1.92887E-03
 -1      4191 1.99700E-03
 -1      4192 1.96706E-03
 -1      4193 1.82995E-03
 -1      4194 1.66232E+00
 -1      4195 1.28674E+00
 -1      4196 1.96334E-03
 -1      4197 1.84718E-03
 -1      4198 1.96334E-03
 -1      4199 2.61390E+00
 -1      4200 1.81833E+00
 -1      4201 1.55708E+00
 -1      4202 2.74422E+00
 -1      4203 1.25879E+00
 -1      4204 1.60807E+00
 -1      4205 1.29082E+00
 -1      4206 1.07890E+00
 -1      4207 9.18341E-01
 -1      4208 1.19325E+00
 -1      4209 8.55593E-01
 -1      4210 2.90920E+00
 -1      4211 2.80585E+00
 -1      4212 1.94610E-03
 -1      4213 1.71629E+00
 -1      4214 1.72814E+00
 -1      4215 1.77473E+00
 -1      4216 1.98417E+00
 -1      4217 5.42752E-01
 -1      4218 4.76352E-01
 -1      4219 4.09952E-01
 -1      4220 3.60382E-01
 -1      4221 3.10812E-01
 -1      4222 2.73019E-01
 -1      4223 2.35226E-01
 -1      4224 2.06059E-01
 -1      4225 1.76893E-01
 -1      4226 1.54951E-01
 -1      4227 1.32344E-01
 -1      4228 1.15596E-01
 -1      4229 9.81038E-02
 -1      4230 8.49827E-02
 -1      4231 7.15332E-02
 -1      4232 6.13626E-02
 -1      4233 5.11220E-02
 -1      4234 4.33399E-02
 -1      4235 3.60242E-02
 -1      4236 3.02754E-02
 -1      4237 2.48530E-02
 -1      4238 2.08803E-02
 -1      4239 1.68614E-02
 -1      4240 1.38965E-02
 -1      4241 1.09733E-02
 -1      4242 8.80239E-03
 -1      4243 6.72299E-03
 -1      4244 5.16799E-03
 -1      4245 3.85867E-03
 -1      4246 2.77341E-03
 -1      4247 1.97312E-03
 -1      4248 1.45709E-03
 -1      4249 1.65581E-03
 -1      4250 1.89904E-03
 -1      4251 1.95389E-03
 -1      4252 2.05846E-03
 -1      4253 2.03333E-03
 -1      4254 2.01929E-03
 -1      4255 2.00525E-03
 -1      4256 1.84069E-03
 -1      4257 1.80250E-03
 -1      4258 6.34262E-01
 -1      4259 7.25771E-01
 -1      4260 8.55593E-01
 -1      4261 9.85414E-01
 -1      4262 1.29082E+00
 -1      4263 1.49865E+00
 -1      4264 1.61872E+00
 -3
 9999
