    1C
    1UUSER                                                              
    1UDATE              27.october.2022                                 
    1UTIME              01:10:09                                        
    1UHOST                                                              
    1UPGM               CalculiX                                        
    1UVERSION           Version 2.17                             
    1UCOMPILETIME       Thu Jul 23 21:43:50 CEST 2020                    
    1UDIR                                                               
    1UDBN                                                               
    1UMAT    1SOLIDMATERIAL                                             
    2C                          4288                                     1
 -1         1 3.31642E+01 2.20133E+01 0.00000E+00
 -1         2 4.01646E+01 1.50133E+01 0.00000E+00
 -1         3 1.50000E+02 0.00000E+00 0.00000E+00
 -1         4 1.50000E+02 5.00000E+01 0.00000E+00
 -1         5 0.00000E+00 0.00000E+00 0.00000E+00
 -1         6 0.00000E+00 5.00000E+01 0.00000E+00
 -1         7 0.00000E+00 4.70500E+01 0.00000E+00
 -1         8 0.00000E+00 4.41000E+01 0.00000E+00
 -1         9 0.00000E+00 4.11500E+01 0.00000E+00
 -1        10 0.00000E+00 3.82000E+01 0.00000E+00
 -1        11 0.00000E+00 3.52500E+01 0.00000E+00
 -1        12 0.00000E+00 3.23500E+01 0.00000E+00
 -1        13 0.00000E+00 2.94000E+01 0.00000E+00
 -1        14 0.00000E+00 2.64500E+01 0.00000E+00
 -1        15 0.00000E+00 2.35000E+01 0.00000E+00
 -1        16 0.00000E+00 2.05500E+01 0.00000E+00
 -1        17 0.00000E+00 1.76000E+01 0.00000E+00
 -1        18 0.00000E+00 1.47000E+01 0.00000E+00
 -1        19 0.00000E+00 1.17500E+01 0.00000E+00
 -1        20 0.00000E+00 8.80000E+00 0.00000E+00
 -1        21 0.00000E+00 5.85000E+00 0.00000E+00
 -1        22 0.00000E+00 2.90000E+00 0.00000E+00
 -1        23 3.15000E+00 5.00000E+01 0.00000E+00
 -1        24 6.15000E+00 5.00000E+01 0.00000E+00
 -1        25 9.15000E+00 5.00000E+01 0.00000E+00
 -1        26 1.21500E+01 5.00000E+01 0.00000E+00
 -1        27 1.51500E+01 5.00000E+01 0.00000E+00
 -1        28 1.81500E+01 5.00000E+01 0.00000E+00
 -1        29 2.11500E+01 5.00000E+01 0.00000E+00
 -1        30 2.41500E+01 5.00000E+01 0.00000E+00
 -1        31 2.71500E+01 5.00000E+01 0.00000E+00
 -1        32 3.01500E+01 5.00000E+01 0.00000E+00
 -1        33 3.31500E+01 5.00000E+01 0.00000E+00
 -1        34 3.61500E+01 5.00000E+01 0.00000E+00
 -1        35 3.91500E+01 5.00000E+01 0.00000E+00
 -1        36 4.21500E+01 5.00000E+01 0.00000E+00
 -1        37 4.51500E+01 5.00000E+01 0.00000E+00
 -1        38 4.81500E+01 5.00000E+01 0.00000E+00
 -1        39 5.11500E+01 5.00000E+01 0.00000E+00
 -1        40 5.41500E+01 5.00000E+01 0.00000E+00
 -1        41 5.71500E+01 5.00000E+01 0.00000E+00
 -1        42 6.01500E+01 5.00000E+01 0.00000E+00
 -1        43 6.31500E+01 5.00000E+01 0.00000E+00
 -1        44 6.61500E+01 5.00000E+01 0.00000E+00
 -1        45 6.91500E+01 5.00000E+01 0.00000E+00
 -1        46 7.21500E+01 5.00000E+01 0.00000E+00
 -1        47 7.51500E+01 5.00000E+01 0.00000E+00
 -1        48 7.81500E+01 5.00000E+01 0.00000E+00
 -1        49 8.11500E+01 5.00000E+01 0.00000E+00
 -1        50 8.41500E+01 5.00000E+01 0.00000E+00
 -1        51 8.71500E+01 5.00000E+01 0.00000E+00
 -1        52 9.01500E+01 5.00000E+01 0.00000E+00
 -1        53 9.31500E+01 5.00000E+01 0.00000E+00
 -1        54 9.61500E+01 5.00000E+01 0.00000E+00
 -1        55 9.91500E+01 5.00000E+01 0.00000E+00
 -1        56 1.02150E+02 5.00000E+01 0.00000E+00
 -1        57 1.05150E+02 5.00000E+01 0.00000E+00
 -1        58 1.08150E+02 5.00000E+01 0.00000E+00
 -1        59 1.11150E+02 5.00000E+01 0.00000E+00
 -1        60 1.14150E+02 5.00000E+01 0.00000E+00
 -1        61 1.17150E+02 5.00000E+01 0.00000E+00
 -1        62 1.20150E+02 5.00000E+01 0.00000E+00
 -1        63 1.23150E+02 5.00000E+01 0.00000E+00
 -1        64 1.26150E+02 5.00000E+01 0.00000E+00
 -1        65 1.29150E+02 5.00000E+01 0.00000E+00
 -1        66 1.32150E+02 5.00000E+01 0.00000E+00
 -1        67 1.35150E+02 5.00000E+01 0.00000E+00
 -1        68 1.38150E+02 5.00000E+01 0.00000E+00
 -1        69 1.41150E+02 5.00000E+01 0.00000E+00
 -1        70 1.44150E+02 5.00000E+01 0.00000E+00
 -1        71 1.47150E+02 5.00000E+01 0.00000E+00
 -1        72 3.15000E+00 0.00000E+00 0.00000E+00
 -1        73 6.15000E+00 0.00000E+00 0.00000E+00
 -1        74 9.15000E+00 0.00000E+00 0.00000E+00
 -1        75 1.21500E+01 0.00000E+00 0.00000E+00
 -1        76 1.51500E+01 0.00000E+00 0.00000E+00
 -1        77 1.81500E+01 0.00000E+00 0.00000E+00
 -1        78 2.11500E+01 0.00000E+00 0.00000E+00
 -1        79 2.43000E+01 0.00000E+00 0.00000E+00
 -1        80 2.73000E+01 0.00000E+00 0.00000E+00
 -1        81 3.00000E+01 0.00000E+00 0.00000E+00
 -1        82 3.27000E+01 0.00000E+00 0.00000E+00
 -1        83 3.54000E+01 0.00000E+00 0.00000E+00
 -1        84 3.84000E+01 0.00000E+00 0.00000E+00
 -1        85 4.14000E+01 0.00000E+00 0.00000E+00
 -1        86 4.44000E+01 0.00000E+00 0.00000E+00
 -1        87 4.74000E+01 0.00000E+00 0.00000E+00
 -1        88 5.04000E+01 0.00000E+00 0.00000E+00
 -1        89 5.34000E+01 0.00000E+00 0.00000E+00
 -1        90 5.64000E+01 0.00000E+00 0.00000E+00
 -1        91 5.95500E+01 0.00000E+00 0.00000E+00
 -1        92 6.25500E+01 0.00000E+00 0.00000E+00
 -1        93 6.55500E+01 0.00000E+00 0.00000E+00
 -1        94 6.85500E+01 0.00000E+00 0.00000E+00
 -1        95 7.15500E+01 0.00000E+00 0.00000E+00
 -1        96 7.45500E+01 0.00000E+00 0.00000E+00
 -1        97 7.75500E+01 0.00000E+00 0.00000E+00
 -1        98 8.05500E+01 0.00000E+00 0.00000E+00
 -1        99 8.37000E+01 0.00000E+00 0.00000E+00
 -1       100 8.67000E+01 0.00000E+00 0.00000E+00
 -1       101 8.97000E+01 0.00000E+00 0.00000E+00
 -1       102 9.27000E+01 0.00000E+00 0.00000E+00
 -1       103 9.57000E+01 0.00000E+00 0.00000E+00
 -1       104 9.87000E+01 0.00000E+00 0.00000E+00
 -1       105 1.01700E+02 0.00000E+00 0.00000E+00
 -1       106 1.04850E+02 0.00000E+00 0.00000E+00
 -1       107 1.07850E+02 0.00000E+00 0.00000E+00
 -1       108 1.10850E+02 0.00000E+00 0.00000E+00
 -1       109 1.13850E+02 0.00000E+00 0.00000E+00
 -1       110 1.16850E+02 0.00000E+00 0.00000E+00
 -1       111 1.19850E+02 0.00000E+00 0.00000E+00
 -1       112 1.22850E+02 0.00000E+00 0.00000E+00
 -1       113 1.25850E+02 0.00000E+00 0.00000E+00
 -1       114 1.29000E+02 0.00000E+00 0.00000E+00
 -1       115 1.32000E+02 0.00000E+00 0.00000E+00
 -1       116 1.35000E+02 0.00000E+00 0.00000E+00
 -1       117 1.38000E+02 0.00000E+00 0.00000E+00
 -1       118 1.41000E+02 0.00000E+00 0.00000E+00
 -1       119 1.44000E+02 0.00000E+00 0.00000E+00
 -1       120 1.47000E+02 0.00000E+00 0.00000E+00
 -1       121 1.50000E+02 2.95000E+00 0.00000E+00
 -1       122 1.50000E+02 5.90000E+00 0.00000E+00
 -1       123 1.50000E+02 8.85000E+00 0.00000E+00
 -1       124 1.50000E+02 1.18000E+01 0.00000E+00
 -1       125 1.50000E+02 1.47500E+01 0.00000E+00
 -1       126 1.50000E+02 1.76500E+01 0.00000E+00
 -1       127 1.50000E+02 2.06000E+01 0.00000E+00
 -1       128 1.50000E+02 2.35500E+01 0.00000E+00
 -1       129 1.50000E+02 2.65000E+01 0.00000E+00
 -1       130 1.50000E+02 2.94500E+01 0.00000E+00
 -1       131 1.50000E+02 3.24000E+01 0.00000E+00
 -1       132 1.50000E+02 3.53000E+01 0.00000E+00
 -1       133 1.50000E+02 3.82500E+01 0.00000E+00
 -1       134 1.50000E+02 4.12000E+01 0.00000E+00
 -1       135 1.50000E+02 4.41500E+01 0.00000E+00
 -1       136 1.50000E+02 4.71000E+01 0.00000E+00
 -1       137 4.00141E+01 1.35699E+01 0.00000E+00
 -1       138 3.95444E+01 1.21327E+01 0.00000E+00
 -1       139 3.88286E+01 1.09001E+01 0.00000E+00
 -1       140 3.78379E+01 9.80177E+00 0.00000E+00
 -1       141 3.66339E+01 8.93354E+00 0.00000E+00
 -1       142 3.50547E+01 8.27332E+00 0.00000E+00
 -1       143 3.36604E+01 8.03090E+00 0.00000E+00
 -1       144 3.21480E+01 8.08752E+00 0.00000E+00
 -1       145 3.06525E+01 8.47961E+00 0.00000E+00
 -1       146 2.92390E+01 9.21767E+00 0.00000E+00
 -1       147 2.80637E+01 1.02194E+01 0.00000E+00
 -1       148 2.71892E+01 1.13671E+01 0.00000E+00
 -1       149 2.65731E+01 1.26571E+01 0.00000E+00
 -1       150 2.62193E+01 1.41400E+01 0.00000E+00
 -1       151 2.61881E+01 1.55874E+01 0.00000E+00
 -1       152 2.64507E+01 1.69943E+01 0.00000E+00
 -1       153 2.69997E+01 1.83291E+01 0.00000E+00
 -1       154 2.78579E+01 1.95784E+01 0.00000E+00
 -1       155 2.89691E+01 2.06167E+01 0.00000E+00
 -1       156 3.02226E+01 2.13651E+01 0.00000E+00
 -1       157 3.17038E+01 2.18592E+01 0.00000E+00
 -1       158 3.45211E+01 2.18806E+01 0.00000E+00
 -1       159 3.59232E+01 2.14468E+01 0.00000E+00
 -1       160 3.70930E+01 2.08070E+01 0.00000E+00
 -1       161 3.81778E+01 1.98988E+01 0.00000E+00
 -1       162 3.90102E+01 1.88641E+01 0.00000E+00
 -1       163 3.96453E+01 1.76591E+01 0.00000E+00
 -1       164 4.00294E+01 1.63821E+01 0.00000E+00
 -1       165 2.59800E+00 4.55750E+01 0.00000E+00
 -1       166 2.59800E+00 4.26250E+01 0.00000E+00
 -1       167 2.59800E+00 3.96750E+01 0.00000E+00
 -1       168 2.59800E+00 3.67250E+01 0.00000E+00
 -1       169 2.59800E+00 3.38250E+01 0.00000E+00
 -1       170 2.59800E+00 3.08750E+01 0.00000E+00
 -1       171 2.59800E+00 2.79250E+01 0.00000E+00
 -1       172 2.59800E+00 2.49750E+01 0.00000E+00
 -1       173 2.59800E+00 2.20250E+01 0.00000E+00
 -1       174 2.59800E+00 1.90750E+01 0.00000E+00
 -1       175 2.59800E+00 1.61750E+01 0.00000E+00
 -1       176 2.59800E+00 1.32250E+01 0.00000E+00
 -1       177 2.59800E+00 1.02750E+01 0.00000E+00
 -1       178 2.59800E+00 7.32500E+00 0.00000E+00
 -1       179 2.59800E+00 4.37500E+00 0.00000E+00
 -1       180 2.87400E+00 2.18750E+00 0.00000E+00
 -1       181 4.65000E+00 4.74020E+01 0.00000E+00
 -1       182 7.65000E+00 4.74020E+01 0.00000E+00
 -1       183 1.06500E+01 4.74020E+01 0.00000E+00
 -1       184 1.36500E+01 4.74020E+01 0.00000E+00
 -1       185 1.66500E+01 4.74020E+01 0.00000E+00
 -1       186 1.96500E+01 4.74020E+01 0.00000E+00
 -1       187 2.26500E+01 4.74020E+01 0.00000E+00
 -1       188 2.56500E+01 4.74020E+01 0.00000E+00
 -1       189 2.86500E+01 4.74020E+01 0.00000E+00
 -1       190 3.16500E+01 4.74020E+01 0.00000E+00
 -1       191 3.46500E+01 4.74020E+01 0.00000E+00
 -1       192 3.76500E+01 4.74020E+01 0.00000E+00
 -1       193 4.06500E+01 4.74020E+01 0.00000E+00
 -1       194 4.36500E+01 4.74020E+01 0.00000E+00
 -1       195 4.66500E+01 4.74020E+01 0.00000E+00
 -1       196 4.96500E+01 4.74020E+01 0.00000E+00
 -1       197 5.26500E+01 4.74020E+01 0.00000E+00
 -1       198 5.56500E+01 4.74020E+01 0.00000E+00
 -1       199 5.86500E+01 4.74020E+01 0.00000E+00
 -1       200 6.16500E+01 4.74020E+01 0.00000E+00
 -1       201 6.46500E+01 4.74020E+01 0.00000E+00
 -1       202 6.76500E+01 4.74020E+01 0.00000E+00
 -1       203 7.06500E+01 4.74020E+01 0.00000E+00
 -1       204 7.36500E+01 4.74020E+01 0.00000E+00
 -1       205 7.66500E+01 4.74020E+01 0.00000E+00
 -1       206 7.96500E+01 4.74020E+01 0.00000E+00
 -1       207 8.26500E+01 4.74020E+01 0.00000E+00
 -1       208 8.56500E+01 4.74020E+01 0.00000E+00
 -1       209 8.86500E+01 4.74020E+01 0.00000E+00
 -1       210 9.16500E+01 4.74020E+01 0.00000E+00
 -1       211 9.46500E+01 4.74020E+01 0.00000E+00
 -1       212 9.76500E+01 4.74020E+01 0.00000E+00
 -1       213 1.00650E+02 4.74020E+01 0.00000E+00
 -1       214 1.03650E+02 4.74020E+01 0.00000E+00
 -1       215 1.06650E+02 4.74020E+01 0.00000E+00
 -1       216 1.09650E+02 4.74020E+01 0.00000E+00
 -1       217 1.12650E+02 4.74020E+01 0.00000E+00
 -1       218 1.15650E+02 4.74020E+01 0.00000E+00
 -1       219 1.18650E+02 4.74020E+01 0.00000E+00
 -1       220 1.21650E+02 4.74020E+01 0.00000E+00
 -1       221 1.24650E+02 4.74020E+01 0.00000E+00
 -1       222 1.27650E+02 4.74020E+01 0.00000E+00
 -1       223 1.30650E+02 4.74020E+01 0.00000E+00
 -1       224 1.33650E+02 4.74020E+01 0.00000E+00
 -1       225 1.36650E+02 4.74020E+01 0.00000E+00
 -1       226 1.39650E+02 4.74020E+01 0.00000E+00
 -1       227 1.42650E+02 4.74020E+01 0.00000E+00
 -1       228 1.45650E+02 4.74020E+01 0.00000E+00
 -1       229 5.87400E+00 2.18750E+00 0.00000E+00
 -1       230 8.87400E+00 2.18750E+00 0.00000E+00
 -1       231 1.18740E+01 2.18750E+00 0.00000E+00
 -1       232 1.48740E+01 2.18750E+00 0.00000E+00
 -1       233 1.78740E+01 2.18750E+00 0.00000E+00
 -1       234 2.08740E+01 2.18750E+00 0.00000E+00
 -1       235 2.40240E+01 2.18750E+00 0.00000E+00
 -1       236 2.70240E+01 2.18750E+00 0.00000E+00
 -1       237 2.97240E+01 2.18750E+00 0.00000E+00
 -1       238 3.24240E+01 2.18750E+00 0.00000E+00
 -1       239 3.51240E+01 2.18750E+00 0.00000E+00
 -1       240 3.81240E+01 2.18750E+00 0.00000E+00
 -1       241 4.11240E+01 2.18750E+00 0.00000E+00
 -1       242 4.41240E+01 2.18750E+00 0.00000E+00
 -1       243 4.71240E+01 2.18750E+00 0.00000E+00
 -1       244 5.01240E+01 2.18750E+00 0.00000E+00
 -1       245 5.31240E+01 2.18750E+00 0.00000E+00
 -1       246 5.61240E+01 2.18750E+00 0.00000E+00
 -1       247 5.92740E+01 2.18750E+00 0.00000E+00
 -1       248 6.22740E+01 2.18750E+00 0.00000E+00
 -1       249 6.52740E+01 2.18750E+00 0.00000E+00
 -1       250 6.82740E+01 2.18750E+00 0.00000E+00
 -1       251 7.12740E+01 2.18750E+00 0.00000E+00
 -1       252 7.42740E+01 2.18750E+00 0.00000E+00
 -1       253 7.72740E+01 2.18750E+00 0.00000E+00
 -1       254 8.02740E+01 2.18750E+00 0.00000E+00
 -1       255 8.34240E+01 2.18750E+00 0.00000E+00
 -1       256 8.64240E+01 2.18750E+00 0.00000E+00
 -1       257 8.94240E+01 2.18750E+00 0.00000E+00
 -1       258 9.24240E+01 2.18750E+00 0.00000E+00
 -1       259 9.54240E+01 2.18750E+00 0.00000E+00
 -1       260 9.84240E+01 2.18750E+00 0.00000E+00
 -1       261 1.01424E+02 2.18750E+00 0.00000E+00
 -1       262 1.04574E+02 2.18750E+00 0.00000E+00
 -1       263 1.07574E+02 2.18750E+00 0.00000E+00
 -1       264 1.10574E+02 2.18750E+00 0.00000E+00
 -1       265 1.13574E+02 2.18750E+00 0.00000E+00
 -1       266 1.16574E+02 2.18750E+00 0.00000E+00
 -1       267 1.19574E+02 2.18750E+00 0.00000E+00
 -1       268 1.22574E+02 2.18750E+00 0.00000E+00
 -1       269 1.25574E+02 2.18750E+00 0.00000E+00
 -1       270 1.28724E+02 2.18750E+00 0.00000E+00
 -1       271 1.31724E+02 2.18750E+00 0.00000E+00
 -1       272 1.34724E+02 2.18750E+00 0.00000E+00
 -1       273 1.37724E+02 2.18750E+00 0.00000E+00
 -1       274 1.40724E+02 2.18750E+00 0.00000E+00
 -1       275 1.43724E+02 2.18750E+00 0.00000E+00
 -1       276 1.46724E+02 2.18750E+00 0.00000E+00
 -1       277 1.47402E+02 4.42500E+00 0.00000E+00
 -1       278 1.47402E+02 7.37500E+00 0.00000E+00
 -1       279 1.47402E+02 1.03250E+01 0.00000E+00
 -1       280 1.47402E+02 1.32750E+01 0.00000E+00
 -1       281 1.47402E+02 1.61750E+01 0.00000E+00
 -1       282 1.47402E+02 1.91250E+01 0.00000E+00
 -1       283 1.47402E+02 2.20750E+01 0.00000E+00
 -1       284 1.47402E+02 2.50250E+01 0.00000E+00
 -1       285 1.47402E+02 2.79750E+01 0.00000E+00
 -1       286 1.47402E+02 3.09250E+01 0.00000E+00
 -1       287 1.47402E+02 3.38250E+01 0.00000E+00
 -1       288 1.47402E+02 3.67750E+01 0.00000E+00
 -1       289 1.47402E+02 3.97250E+01 0.00000E+00
 -1       290 1.47402E+02 4.26750E+01 0.00000E+00
 -1       291 1.46526E+02 4.50385E+01 0.00000E+00
 -1       292 4.13785E+01 1.41572E+01 0.00000E+00
 -1       293 4.11706E+01 1.23965E+01 0.00000E+00
 -1       294 4.03074E+01 1.08655E+01 0.00000E+00
 -1       295 3.92957E+01 9.48273E+00 0.00000E+00
 -1       296 3.79940E+01 8.31633E+00 0.00000E+00
 -1       297 3.64412E+01 7.17564E+00 0.00000E+00
 -1       298 3.45652E+01 6.95764E+00 0.00000E+00
 -1       299 3.28526E+01 6.68021E+00 0.00000E+00
 -1       300 3.10290E+01 6.86766E+00 0.00000E+00
 -1       301 2.92294E+01 7.47684E+00 0.00000E+00
 -1       302 2.76474E+01 8.54080E+00 0.00000E+00
 -1       303 2.65955E+01 1.00076E+01 0.00000E+00
 -1       304 2.57871E+01 1.14895E+01 0.00000E+00
 -1       305 2.51354E+01 1.30977E+01 0.00000E+00
 -1       306 2.49916E+01 1.48377E+01 0.00000E+00
 -1       307 2.47982E+01 1.65748E+01 0.00000E+00
 -1       308 2.55265E+01 1.81548E+01 0.00000E+00
 -1       309 2.62224E+01 1.97826E+01 0.00000E+00
 -1       310 2.75285E+01 2.10446E+01 0.00000E+00
 -1       311 2.89743E+01 2.20319E+01 0.00000E+00
 -1       312 3.05265E+01 2.29212E+01 0.00000E+00
 -1       313 3.22979E+01 2.32253E+01 0.00000E+00
 -1       314 3.39606E+01 2.31536E+01 0.00000E+00
 -1       315 3.56300E+01 2.29820E+01 0.00000E+00
 -1       316 3.70898E+01 2.21907E+01 0.00000E+00
 -1       317 3.84675E+01 2.13467E+01 0.00000E+00
 -1       318 3.95386E+01 2.01414E+01 0.00000E+00
 -1       319 4.04003E+01 1.88269E+01 0.00000E+00
 -1       320 4.09984E+01 1.73699E+01 0.00000E+00
 -1       321 4.13869E+01 1.58251E+01 0.00000E+00
 -1       322 5.19600E+00 4.11500E+01 0.00000E+00
 -1       323 5.19600E+00 4.41000E+01 0.00000E+00
 -1       324 5.19600E+00 3.52750E+01 0.00000E+00
 -1       325 5.19600E+00 3.23250E+01 0.00000E+00
 -1       326 5.19600E+00 2.93750E+01 0.00000E+00
 -1       327 5.19600E+00 2.64250E+01 0.00000E+00
 -1       328 5.19600E+00 2.34750E+01 0.00000E+00
 -1       329 5.19600E+00 2.05250E+01 0.00000E+00
 -1       330 5.19600E+00 1.76250E+01 0.00000E+00
 -1       331 5.19600E+00 1.46750E+01 0.00000E+00
 -1       332 5.19600E+00 1.17250E+01 0.00000E+00
 -1       333 5.19600E+00 8.77500E+00 0.00000E+00
 -1       334 5.19600E+00 5.82500E+00 0.00000E+00
 -1       335 5.53500E+00 4.00625E+00 0.00000E+00
 -1       336 8.53500E+00 4.00625E+00 0.00000E+00
 -1       337 9.15000E+00 4.48040E+01 0.00000E+00
 -1       338 1.21500E+01 4.48040E+01 0.00000E+00
 -1       339 1.51500E+01 4.48040E+01 0.00000E+00
 -1       340 1.81500E+01 4.48040E+01 0.00000E+00
 -1       341 2.11500E+01 4.48040E+01 0.00000E+00
 -1       342 2.41500E+01 4.48040E+01 0.00000E+00
 -1       343 2.71500E+01 4.48040E+01 0.00000E+00
 -1       344 3.01500E+01 4.48040E+01 0.00000E+00
 -1       345 3.31500E+01 4.48040E+01 0.00000E+00
 -1       346 3.61500E+01 4.48040E+01 0.00000E+00
 -1       347 3.91500E+01 4.48040E+01 0.00000E+00
 -1       348 4.21500E+01 4.48040E+01 0.00000E+00
 -1       349 4.51500E+01 4.48040E+01 0.00000E+00
 -1       350 4.81500E+01 4.48040E+01 0.00000E+00
 -1       351 5.11500E+01 4.48040E+01 0.00000E+00
 -1       352 5.41500E+01 4.48040E+01 0.00000E+00
 -1       353 5.71500E+01 4.48040E+01 0.00000E+00
 -1       354 6.01500E+01 4.48040E+01 0.00000E+00
 -1       355 6.31500E+01 4.48040E+01 0.00000E+00
 -1       356 6.61500E+01 4.48040E+01 0.00000E+00
 -1       357 6.91500E+01 4.48040E+01 0.00000E+00
 -1       358 7.21500E+01 4.48040E+01 0.00000E+00
 -1       359 7.51500E+01 4.48040E+01 0.00000E+00
 -1       360 7.81500E+01 4.48040E+01 0.00000E+00
 -1       361 8.11500E+01 4.48040E+01 0.00000E+00
 -1       362 8.41500E+01 4.48040E+01 0.00000E+00
 -1       363 8.71500E+01 4.48040E+01 0.00000E+00
 -1       364 9.01500E+01 4.48040E+01 0.00000E+00
 -1       365 9.31500E+01 4.48040E+01 0.00000E+00
 -1       366 9.61500E+01 4.48040E+01 0.00000E+00
 -1       367 9.91500E+01 4.48040E+01 0.00000E+00
 -1       368 1.02150E+02 4.48040E+01 0.00000E+00
 -1       369 1.05150E+02 4.48040E+01 0.00000E+00
 -1       370 1.08150E+02 4.48040E+01 0.00000E+00
 -1       371 1.11150E+02 4.48040E+01 0.00000E+00
 -1       372 1.14150E+02 4.48040E+01 0.00000E+00
 -1       373 1.17150E+02 4.48040E+01 0.00000E+00
 -1       374 1.20150E+02 4.48040E+01 0.00000E+00
 -1       375 1.23150E+02 4.48040E+01 0.00000E+00
 -1       376 1.26150E+02 4.48040E+01 0.00000E+00
 -1       377 1.29150E+02 4.48040E+01 0.00000E+00
 -1       378 1.32150E+02 4.48040E+01 0.00000E+00
 -1       379 1.35150E+02 4.48040E+01 0.00000E+00
 -1       380 1.38150E+02 4.48040E+01 0.00000E+00
 -1       381 1.41150E+02 4.48040E+01 0.00000E+00
 -1       382 1.43838E+02 4.49212E+01 0.00000E+00
 -1       383 1.15350E+01 4.00625E+00 0.00000E+00
 -1       384 1.45350E+01 4.00625E+00 0.00000E+00
 -1       385 1.75350E+01 4.00625E+00 0.00000E+00
 -1       386 2.05350E+01 4.00625E+00 0.00000E+00
 -1       387 2.36850E+01 4.00625E+00 0.00000E+00
 -1       388 2.66850E+01 4.00625E+00 0.00000E+00
 -1       389 2.93850E+01 4.00625E+00 0.00000E+00
 -1       390 3.20850E+01 4.00625E+00 0.00000E+00
 -1       391 3.47850E+01 4.00625E+00 0.00000E+00
 -1       392 3.77850E+01 4.00625E+00 0.00000E+00
 -1       393 4.07850E+01 4.00625E+00 0.00000E+00
 -1       394 4.37850E+01 4.00625E+00 0.00000E+00
 -1       395 4.67850E+01 4.00625E+00 0.00000E+00
 -1       396 4.97850E+01 4.00625E+00 0.00000E+00
 -1       397 5.27850E+01 4.00625E+00 0.00000E+00
 -1       398 5.57850E+01 4.00625E+00 0.00000E+00
 -1       399 5.89350E+01 4.00625E+00 0.00000E+00
 -1       400 6.19350E+01 4.00625E+00 0.00000E+00
 -1       401 6.49350E+01 4.00625E+00 0.00000E+00
 -1       402 6.79350E+01 4.00625E+00 0.00000E+00
 -1       403 7.09350E+01 4.00625E+00 0.00000E+00
 -1       404 7.39350E+01 4.00625E+00 0.00000E+00
 -1       405 7.69350E+01 4.00625E+00 0.00000E+00
 -1       406 7.99350E+01 4.00625E+00 0.00000E+00
 -1       407 8.30850E+01 4.00625E+00 0.00000E+00
 -1       408 8.60850E+01 4.00625E+00 0.00000E+00
 -1       409 8.90850E+01 4.00625E+00 0.00000E+00
 -1       410 9.20850E+01 4.00625E+00 0.00000E+00
 -1       411 9.50850E+01 4.00625E+00 0.00000E+00
 -1       412 9.80850E+01 4.00625E+00 0.00000E+00
 -1       413 1.01085E+02 4.00625E+00 0.00000E+00
 -1       414 1.04235E+02 4.00625E+00 0.00000E+00
 -1       415 1.07235E+02 4.00625E+00 0.00000E+00
 -1       416 1.10235E+02 4.00625E+00 0.00000E+00
 -1       417 1.13235E+02 4.00625E+00 0.00000E+00
 -1       418 1.16235E+02 4.00625E+00 0.00000E+00
 -1       419 1.19235E+02 4.00625E+00 0.00000E+00
 -1       420 1.22235E+02 4.00625E+00 0.00000E+00
 -1       421 1.25235E+02 4.00625E+00 0.00000E+00
 -1       422 1.28385E+02 4.00625E+00 0.00000E+00
 -1       423 1.31385E+02 4.00625E+00 0.00000E+00
 -1       424 1.34385E+02 4.00625E+00 0.00000E+00
 -1       425 1.37385E+02 4.00625E+00 0.00000E+00
 -1       426 1.40385E+02 4.00625E+00 0.00000E+00
 -1       427 1.43385E+02 4.00625E+00 0.00000E+00
 -1       428 1.45393E+02 4.21562E+00 0.00000E+00
 -1       429 1.44804E+02 1.18000E+01 0.00000E+00
 -1       430 1.44804E+02 8.85000E+00 0.00000E+00
 -1       431 1.45099E+02 6.53281E+00 0.00000E+00
 -1       432 1.44804E+02 1.47000E+01 0.00000E+00
 -1       433 1.44804E+02 1.76500E+01 0.00000E+00
 -1       434 1.44804E+02 2.06000E+01 0.00000E+00
 -1       435 1.44804E+02 2.35500E+01 0.00000E+00
 -1       436 1.44804E+02 2.65000E+01 0.00000E+00
 -1       437 1.44804E+02 2.94500E+01 0.00000E+00
 -1       438 1.44804E+02 3.23500E+01 0.00000E+00
 -1       439 1.44804E+02 3.53000E+01 0.00000E+00
 -1       440 1.44804E+02 3.82500E+01 0.00000E+00
 -1       441 1.44804E+02 4.12000E+01 0.00000E+00
 -1       442 4.18681E+01 1.09944E+01 0.00000E+00
 -1       443 4.28465E+01 1.49838E+01 0.00000E+00
 -1       444 4.26385E+01 1.32231E+01 0.00000E+00
 -1       445 4.09152E+01 9.35926E+00 0.00000E+00
 -1       446 3.95658E+01 7.87181E+00 0.00000E+00
 -1       447 5.19600E+00 3.82125E+01 0.00000E+00
 -1       448 3.56915E+01 5.44622E+00 0.00000E+00
 -1       449 3.17997E+01 5.40120E+00 0.00000E+00
 -1       450 2.96868E+01 5.86514E+00 0.00000E+00
 -1       451 2.76683E+01 6.86373E+00 0.00000E+00
 -1       452 2.57958E+01 8.32351E+00 0.00000E+00
 -1       453 2.49063E+01 1.00476E+01 0.00000E+00
 -1       454 2.40270E+01 1.17124E+01 0.00000E+00
 -1       455 2.35212E+01 1.38403E+01 0.00000E+00
 -1       456 2.33278E+01 1.55774E+01 0.00000E+00
 -1       457 2.38330E+01 1.79775E+01 0.00000E+00
 -1       458 2.45289E+01 1.96054E+01 0.00000E+00
 -1       459 2.58002E+01 2.15265E+01 0.00000E+00
 -1       460 2.74260E+01 2.27470E+01 0.00000E+00
 -1       461 2.89781E+01 2.36363E+01 0.00000E+00
 -1       462 3.11362E+01 2.46810E+01 0.00000E+00
 -1       463 3.31923E+01 2.46518E+01 0.00000E+00
 -1       464 3.48617E+01 2.44803E+01 0.00000E+00
 -1       465 3.70974E+01 2.39468E+01 0.00000E+00
 -1       466 3.84751E+01 2.31029E+01 0.00000E+00
 -1       467 4.02851E+01 2.18834E+01 0.00000E+00
 -1       468 4.11468E+01 2.05689E+01 0.00000E+00
 -1       469 4.20534E+01 1.86542E+01 0.00000E+00
 -1       470 4.24497E+01 1.69136E+01 0.00000E+00
 -1       471 3.81338E+01 6.49878E+00 0.00000E+00
 -1       472 4.33360E+01 1.18210E+01 0.00000E+00
 -1       473 3.35123E+01 5.67863E+00 0.00000E+00
 -1       474 1.00350E+01 6.60425E+00 0.00000E+00
 -1       475 7.79400E+00 3.08500E+01 0.00000E+00
 -1       476 7.79400E+00 3.38000E+01 0.00000E+00
 -1       477 7.79400E+00 2.49500E+01 0.00000E+00
 -1       478 7.79400E+00 2.20000E+01 0.00000E+00
 -1       479 7.79400E+00 1.91000E+01 0.00000E+00
 -1       480 7.79400E+00 1.61500E+01 0.00000E+00
 -1       481 7.79400E+00 1.32000E+01 0.00000E+00
 -1       482 7.79400E+00 1.02500E+01 0.00000E+00
 -1       483 1.30350E+01 6.60425E+00 0.00000E+00
 -1       484 1.06500E+01 4.22060E+01 0.00000E+00
 -1       485 1.36500E+01 4.22060E+01 0.00000E+00
 -1       486 1.66500E+01 4.22060E+01 0.00000E+00
 -1       487 1.96500E+01 4.22060E+01 0.00000E+00
 -1       488 2.26500E+01 4.22060E+01 0.00000E+00
 -1       489 2.56500E+01 4.22060E+01 0.00000E+00
 -1       490 2.86500E+01 4.22060E+01 0.00000E+00
 -1       491 3.16500E+01 4.22060E+01 0.00000E+00
 -1       492 3.46500E+01 4.22060E+01 0.00000E+00
 -1       493 3.76500E+01 4.22060E+01 0.00000E+00
 -1       494 4.06500E+01 4.22060E+01 0.00000E+00
 -1       495 4.36500E+01 4.22060E+01 0.00000E+00
 -1       496 4.66500E+01 4.22060E+01 0.00000E+00
 -1       497 4.96500E+01 4.22060E+01 0.00000E+00
 -1       498 5.26500E+01 4.22060E+01 0.00000E+00
 -1       499 5.56500E+01 4.22060E+01 0.00000E+00
 -1       500 5.86500E+01 4.22060E+01 0.00000E+00
 -1       501 6.16500E+01 4.22060E+01 0.00000E+00
 -1       502 6.46500E+01 4.22060E+01 0.00000E+00
 -1       503 6.76500E+01 4.22060E+01 0.00000E+00
 -1       504 7.06500E+01 4.22060E+01 0.00000E+00
 -1       505 7.36500E+01 4.22060E+01 0.00000E+00
 -1       506 7.66500E+01 4.22060E+01 0.00000E+00
 -1       507 7.96500E+01 4.22060E+01 0.00000E+00
 -1       508 8.26500E+01 4.22060E+01 0.00000E+00
 -1       509 8.56500E+01 4.22060E+01 0.00000E+00
 -1       510 8.86500E+01 4.22060E+01 0.00000E+00
 -1       511 9.16500E+01 4.22060E+01 0.00000E+00
 -1       512 9.46500E+01 4.22060E+01 0.00000E+00
 -1       513 9.76500E+01 4.22060E+01 0.00000E+00
 -1       514 1.00650E+02 4.22060E+01 0.00000E+00
 -1       515 1.03650E+02 4.22060E+01 0.00000E+00
 -1       516 1.06650E+02 4.22060E+01 0.00000E+00
 -1       517 1.09650E+02 4.22060E+01 0.00000E+00
 -1       518 1.12650E+02 4.22060E+01 0.00000E+00
 -1       519 1.15650E+02 4.22060E+01 0.00000E+00
 -1       520 1.18650E+02 4.22060E+01 0.00000E+00
 -1       521 1.21650E+02 4.22060E+01 0.00000E+00
 -1       522 1.24650E+02 4.22060E+01 0.00000E+00
 -1       523 1.27650E+02 4.22060E+01 0.00000E+00
 -1       524 1.30650E+02 4.22060E+01 0.00000E+00
 -1       525 1.33650E+02 4.22060E+01 0.00000E+00
 -1       526 1.36650E+02 4.22060E+01 0.00000E+00
 -1       527 1.39650E+02 4.22060E+01 0.00000E+00
 -1       528 1.90350E+01 6.60425E+00 0.00000E+00
 -1       529 2.21850E+01 6.60425E+00 0.00000E+00
 -1       530 4.22850E+01 6.39164E+00 0.00000E+00
 -1       531 4.52850E+01 6.39164E+00 0.00000E+00
 -1       532 4.82850E+01 6.39164E+00 0.00000E+00
 -1       533 5.12850E+01 6.39164E+00 0.00000E+00
 -1       534 5.42850E+01 6.39164E+00 0.00000E+00
 -1       535 5.74350E+01 6.39164E+00 0.00000E+00
 -1       536 6.04350E+01 6.39164E+00 0.00000E+00
 -1       537 6.34350E+01 6.39164E+00 0.00000E+00
 -1       538 6.64350E+01 6.39164E+00 0.00000E+00
 -1       539 6.94350E+01 6.39164E+00 0.00000E+00
 -1       540 7.24350E+01 6.39164E+00 0.00000E+00
 -1       541 7.54350E+01 6.39164E+00 0.00000E+00
 -1       542 7.84350E+01 6.39164E+00 0.00000E+00
 -1       543 8.15850E+01 6.39164E+00 0.00000E+00
 -1       544 8.45850E+01 6.39164E+00 0.00000E+00
 -1       545 8.75850E+01 6.39164E+00 0.00000E+00
 -1       546 9.05850E+01 6.39164E+00 0.00000E+00
 -1       547 9.35850E+01 6.39164E+00 0.00000E+00
 -1       548 9.65850E+01 6.39164E+00 0.00000E+00
 -1       549 9.95850E+01 6.39164E+00 0.00000E+00
 -1       550 1.02735E+02 6.39164E+00 0.00000E+00
 -1       551 1.05735E+02 6.39164E+00 0.00000E+00
 -1       552 1.08735E+02 6.39164E+00 0.00000E+00
 -1       553 1.11735E+02 6.39164E+00 0.00000E+00
 -1       554 1.14735E+02 6.39164E+00 0.00000E+00
 -1       555 1.17735E+02 6.39164E+00 0.00000E+00
 -1       556 1.20735E+02 6.39164E+00 0.00000E+00
 -1       557 1.23735E+02 6.39164E+00 0.00000E+00
 -1       558 1.26885E+02 6.39164E+00 0.00000E+00
 -1       559 1.29885E+02 6.39164E+00 0.00000E+00
 -1       560 1.32885E+02 6.39164E+00 0.00000E+00
 -1       561 1.35885E+02 6.39164E+00 0.00000E+00
 -1       562 1.38885E+02 6.39164E+00 0.00000E+00
 -1       563 1.41885E+02 6.39164E+00 0.00000E+00
 -1       564 1.42206E+02 1.61750E+01 0.00000E+00
 -1       565 1.42206E+02 1.91250E+01 0.00000E+00
 -1       566 1.42206E+02 1.03250E+01 0.00000E+00
 -1       567 1.42206E+02 1.32500E+01 0.00000E+00
 -1       568 1.42206E+02 2.20750E+01 0.00000E+00
 -1       569 1.42206E+02 2.50250E+01 0.00000E+00
 -1       570 1.42206E+02 2.79750E+01 0.00000E+00
 -1       571 1.42206E+02 3.08750E+01 0.00000E+00
 -1       572 1.42206E+02 3.38250E+01 0.00000E+00
 -1       573 1.42206E+02 3.67750E+01 0.00000E+00
 -1       574 1.42206E+02 3.97250E+01 0.00000E+00
 -1       575 4.28735E+01 9.31335E+00 0.00000E+00
 -1       576 4.43280E+01 1.62941E+01 0.00000E+00
 -1       577 1.60350E+01 6.60425E+00 0.00000E+00
 -1       578 4.42793E+01 1.39219E+01 0.00000E+00
 -1       579 4.31502E+01 2.03456E+01 0.00000E+00
 -1       580 7.92300E+00 4.16780E+01 0.00000E+00
 -1       581 4.14487E+01 7.51942E+00 0.00000E+00
 -1       582 2.93098E+01 2.57024E+01 0.00000E+00
 -1       583 2.37342E+01 2.15124E+01 0.00000E+00
 -1       584 2.22685E+01 1.24184E+01 0.00000E+00
 -1       585 7.79400E+00 2.79000E+01 0.00000E+00
 -1       586 2.56337E+01 2.34414E+01 0.00000E+00
 -1       587 2.55745E+01 6.10883E+00 0.00000E+00
 -1       588 2.38268E+01 8.39920E+00 0.00000E+00
 -1       589 2.29475E+01 1.00640E+01 0.00000E+00
 -1       590 2.20530E+01 1.45561E+01 0.00000E+00
 -1       591 2.20660E+01 1.70962E+01 0.00000E+00
 -1       592 2.28350E+01 1.93668E+01 0.00000E+00
 -1       593 3.21934E+01 2.67165E+01 0.00000E+00
 -1       594 2.74744E+01 2.44618E+01 0.00000E+00
 -1       595 4.39318E+01 1.80347E+01 0.00000E+00
 -1       596 3.38627E+01 2.65449E+01 0.00000E+00
 -1       597 3.63776E+01 2.58818E+01 0.00000E+00
 -1       598 3.88572E+01 2.52732E+01 0.00000E+00
 -1       599 4.06672E+01 2.40536E+01 0.00000E+00
 -1       600 4.19087E+01 2.21996E+01 0.00000E+00
 -1       601 7.61550E+00 6.21462E+00 0.00000E+00
 -1       602 3.99208E+01 6.06825E+00 0.00000E+00
 -1       603 2.71767E+01 5.43499E+00 0.00000E+00
 -1       604 7.79400E+00 3.67375E+01 0.00000E+00
 -1       605 1.41678E+02 4.22645E+01 0.00000E+00
 -1       606 1.03920E+01 2.05500E+01 0.00000E+00
 -1       607 1.03920E+01 2.35000E+01 0.00000E+00
 -1       608 1.03920E+01 1.46750E+01 0.00000E+00
 -1       609 1.03920E+01 1.17250E+01 0.00000E+00
 -1       610 1.15350E+01 9.20225E+00 0.00000E+00
 -1       611 4.56780E+01 1.20317E+01 0.00000E+00
 -1       612 1.45350E+01 9.20225E+00 0.00000E+00
 -1       613 3.32548E+01 2.88369E+01 0.00000E+00
 -1       614 1.51500E+01 3.96080E+01 0.00000E+00
 -1       615 1.81500E+01 3.96080E+01 0.00000E+00
 -1       616 2.11500E+01 3.96080E+01 0.00000E+00
 -1       617 2.41500E+01 3.96080E+01 0.00000E+00
 -1       618 2.71500E+01 3.96080E+01 0.00000E+00
 -1       619 3.01500E+01 3.96080E+01 0.00000E+00
 -1       620 3.31500E+01 3.96080E+01 0.00000E+00
 -1       621 3.61500E+01 3.96080E+01 0.00000E+00
 -1       622 3.91500E+01 3.96080E+01 0.00000E+00
 -1       623 4.21500E+01 3.96080E+01 0.00000E+00
 -1       624 4.51500E+01 3.96080E+01 0.00000E+00
 -1       625 4.81500E+01 3.96080E+01 0.00000E+00
 -1       626 5.11500E+01 3.96080E+01 0.00000E+00
 -1       627 5.41500E+01 3.96080E+01 0.00000E+00
 -1       628 5.71500E+01 3.96080E+01 0.00000E+00
 -1       629 6.01500E+01 3.96080E+01 0.00000E+00
 -1       630 6.31500E+01 3.96080E+01 0.00000E+00
 -1       631 6.61500E+01 3.96080E+01 0.00000E+00
 -1       632 6.91500E+01 3.96080E+01 0.00000E+00
 -1       633 7.21500E+01 3.96080E+01 0.00000E+00
 -1       634 7.51500E+01 3.96080E+01 0.00000E+00
 -1       635 7.81500E+01 3.96080E+01 0.00000E+00
 -1       636 8.11500E+01 3.96080E+01 0.00000E+00
 -1       637 8.41500E+01 3.96080E+01 0.00000E+00
 -1       638 8.71500E+01 3.96080E+01 0.00000E+00
 -1       639 9.01500E+01 3.96080E+01 0.00000E+00
 -1       640 9.31500E+01 3.96080E+01 0.00000E+00
 -1       641 9.61500E+01 3.96080E+01 0.00000E+00
 -1       642 9.91500E+01 3.96080E+01 0.00000E+00
 -1       643 1.02150E+02 3.96080E+01 0.00000E+00
 -1       644 1.05150E+02 3.96080E+01 0.00000E+00
 -1       645 1.08150E+02 3.96080E+01 0.00000E+00
 -1       646 1.11150E+02 3.96080E+01 0.00000E+00
 -1       647 1.14150E+02 3.96080E+01 0.00000E+00
 -1       648 1.17150E+02 3.96080E+01 0.00000E+00
 -1       649 1.20150E+02 3.96080E+01 0.00000E+00
 -1       650 1.23150E+02 3.96080E+01 0.00000E+00
 -1       651 1.26150E+02 3.96080E+01 0.00000E+00
 -1       652 1.29150E+02 3.96080E+01 0.00000E+00
 -1       653 1.32150E+02 3.96080E+01 0.00000E+00
 -1       654 1.35150E+02 3.96080E+01 0.00000E+00
 -1       655 1.38150E+02 3.96080E+01 0.00000E+00
 -1       656 2.73378E+01 2.66419E+01 0.00000E+00
 -1       657 2.06100E+01 9.15721E+00 0.00000E+00
 -1       658 2.32231E+01 2.39155E+01 0.00000E+00
 -1       659 5.27850E+01 8.98964E+00 0.00000E+00
 -1       660 5.59350E+01 8.98964E+00 0.00000E+00
 -1       661 5.89350E+01 8.98964E+00 0.00000E+00
 -1       662 6.19350E+01 8.98964E+00 0.00000E+00
 -1       663 6.49350E+01 8.98964E+00 0.00000E+00
 -1       664 6.79350E+01 8.98964E+00 0.00000E+00
 -1       665 7.09350E+01 8.98964E+00 0.00000E+00
 -1       666 7.39350E+01 8.98964E+00 0.00000E+00
 -1       667 7.69350E+01 8.98964E+00 0.00000E+00
 -1       668 8.00850E+01 8.98964E+00 0.00000E+00
 -1       669 8.30850E+01 8.98964E+00 0.00000E+00
 -1       670 8.60850E+01 8.98964E+00 0.00000E+00
 -1       671 8.90850E+01 8.98964E+00 0.00000E+00
 -1       672 9.20850E+01 8.98964E+00 0.00000E+00
 -1       673 9.50850E+01 8.98964E+00 0.00000E+00
 -1       674 9.80850E+01 8.98964E+00 0.00000E+00
 -1       675 1.01235E+02 8.98964E+00 0.00000E+00
 -1       676 1.04235E+02 8.98964E+00 0.00000E+00
 -1       677 1.07235E+02 8.98964E+00 0.00000E+00
 -1       678 1.10235E+02 8.98964E+00 0.00000E+00
 -1       679 1.13235E+02 8.98964E+00 0.00000E+00
 -1       680 1.16235E+02 8.98964E+00 0.00000E+00
 -1       681 1.19235E+02 8.98964E+00 0.00000E+00
 -1       682 1.22235E+02 8.98964E+00 0.00000E+00
 -1       683 1.25385E+02 8.98964E+00 0.00000E+00
 -1       684 1.28385E+02 8.98964E+00 0.00000E+00
 -1       685 1.31385E+02 8.98964E+00 0.00000E+00
 -1       686 1.34385E+02 8.98964E+00 0.00000E+00
 -1       687 1.37385E+02 8.98964E+00 0.00000E+00
 -1       688 1.39796E+02 9.65732E+00 0.00000E+00
 -1       689 1.39608E+02 2.35500E+01 0.00000E+00
 -1       690 1.40178E+02 3.96665E+01 0.00000E+00
 -1       691 1.39608E+02 1.76500E+01 0.00000E+00
 -1       692 1.39608E+02 2.65000E+01 0.00000E+00
 -1       693 1.39608E+02 2.06000E+01 0.00000E+00
 -1       694 1.75350E+01 9.20225E+00 0.00000E+00
 -1       695 4.56388E+01 1.75079E+01 0.00000E+00
 -1       696 1.39608E+02 2.94000E+01 0.00000E+00
 -1       697 1.39608E+02 3.23500E+01 0.00000E+00
 -1       698 1.39608E+02 3.53000E+01 0.00000E+00
 -1       699 9.78035E+00 3.93914E+01 0.00000E+00
 -1       700 4.61860E+01 1.50694E+01 0.00000E+00
 -1       701 3.01270E+01 2.79855E+01 0.00000E+00
 -1       702 2.04543E+01 1.33152E+01 0.00000E+00
 -1       703 4.97850E+01 8.98964E+00 0.00000E+00
 -1       704 4.67850E+01 8.98964E+00 0.00000E+00
 -1       705 4.51657E+01 1.97397E+01 0.00000E+00
 -1       706 1.24652E+01 3.94997E+01 0.00000E+00
 -1       707 1.03920E+01 1.76125E+01 0.00000E+00
 -1       708 2.03444E+01 1.58350E+01 0.00000E+00
 -1       709 2.54971E+01 2.56215E+01 0.00000E+00
 -1       710 2.05322E+01 1.12362E+01 0.00000E+00
 -1       711 2.06673E+01 1.88354E+01 0.00000E+00
 -1       712 1.03920E+01 3.23250E+01 0.00000E+00
 -1       713 3.80263E+01 2.72432E+01 0.00000E+00
 -1       714 2.15483E+01 2.11673E+01 0.00000E+00
 -1       715 4.09079E+01 2.63637E+01 0.00000E+00
 -1       716 3.57697E+01 2.81738E+01 0.00000E+00
 -1       717 4.37098E+01 8.18556E+00 0.00000E+00
 -1       718 1.03920E+01 3.52625E+01 0.00000E+00
 -1       719 1.03920E+01 2.64500E+01 0.00000E+00
 -1       720 1.39608E+02 1.47250E+01 0.00000E+00
 -1       721 4.32700E+01 2.44539E+01 0.00000E+00
 -1       722 4.46999E+01 2.18456E+01 0.00000E+00
 -1       723 1.39702E+02 1.21912E+01 0.00000E+00
 -1       724 1.38879E+02 3.74540E+01 0.00000E+00
 -1       725 1.03920E+01 2.93875E+01 0.00000E+00
 -1       726 4.49562E+01 1.02257E+01 0.00000E+00
 -1       727 1.83511E+01 1.44858E+01 0.00000E+00
 -1       728 1.29900E+01 1.32000E+01 0.00000E+00
 -1       729 4.79129E+01 1.67375E+01 0.00000E+00
 -1       730 1.96500E+01 3.70100E+01 0.00000E+00
 -1       731 2.26500E+01 3.70100E+01 0.00000E+00
 -1       732 2.56500E+01 3.70100E+01 0.00000E+00
 -1       733 2.86500E+01 3.70100E+01 0.00000E+00
 -1       734 3.16500E+01 3.70100E+01 0.00000E+00
 -1       735 3.46500E+01 3.70100E+01 0.00000E+00
 -1       736 3.76500E+01 3.70100E+01 0.00000E+00
 -1       737 4.06500E+01 3.70100E+01 0.00000E+00
 -1       738 4.36500E+01 3.70100E+01 0.00000E+00
 -1       739 4.66500E+01 3.70100E+01 0.00000E+00
 -1       740 4.96500E+01 3.70100E+01 0.00000E+00
 -1       741 5.26500E+01 3.70100E+01 0.00000E+00
 -1       742 5.56500E+01 3.70100E+01 0.00000E+00
 -1       743 5.86500E+01 3.70100E+01 0.00000E+00
 -1       744 6.16500E+01 3.70100E+01 0.00000E+00
 -1       745 6.46500E+01 3.70100E+01 0.00000E+00
 -1       746 6.76500E+01 3.70100E+01 0.00000E+00
 -1       747 7.06500E+01 3.70100E+01 0.00000E+00
 -1       748 7.36500E+01 3.70100E+01 0.00000E+00
 -1       749 7.66500E+01 3.70100E+01 0.00000E+00
 -1       750 7.96500E+01 3.70100E+01 0.00000E+00
 -1       751 8.26500E+01 3.70100E+01 0.00000E+00
 -1       752 8.56500E+01 3.70100E+01 0.00000E+00
 -1       753 8.86500E+01 3.70100E+01 0.00000E+00
 -1       754 9.16500E+01 3.70100E+01 0.00000E+00
 -1       755 9.46500E+01 3.70100E+01 0.00000E+00
 -1       756 9.76500E+01 3.70100E+01 0.00000E+00
 -1       757 1.00650E+02 3.70100E+01 0.00000E+00
 -1       758 1.03650E+02 3.70100E+01 0.00000E+00
 -1       759 1.06650E+02 3.70100E+01 0.00000E+00
 -1       760 1.09650E+02 3.70100E+01 0.00000E+00
 -1       761 1.12650E+02 3.70100E+01 0.00000E+00
 -1       762 1.15650E+02 3.70100E+01 0.00000E+00
 -1       763 1.18650E+02 3.70100E+01 0.00000E+00
 -1       764 1.21650E+02 3.70100E+01 0.00000E+00
 -1       765 1.24650E+02 3.70100E+01 0.00000E+00
 -1       766 1.27650E+02 3.70100E+01 0.00000E+00
 -1       767 1.30650E+02 3.70100E+01 0.00000E+00
 -1       768 1.33650E+02 3.70100E+01 0.00000E+00
 -1       769 1.36264E+02 3.72320E+01 0.00000E+00
 -1       770 2.03488E+01 2.37828E+01 0.00000E+00
 -1       771 3.11524E+01 3.03895E+01 0.00000E+00
 -1       772 4.70983E+01 2.12716E+01 0.00000E+00
 -1       773 5.43600E+01 1.15876E+01 0.00000E+00
 -1       774 6.34350E+01 1.15876E+01 0.00000E+00
 -1       775 6.64350E+01 1.15876E+01 0.00000E+00
 -1       776 6.94350E+01 1.15876E+01 0.00000E+00
 -1       777 7.24350E+01 1.15876E+01 0.00000E+00
 -1       778 7.54350E+01 1.15876E+01 0.00000E+00
 -1       779 7.85850E+01 1.15876E+01 0.00000E+00
 -1       780 8.15850E+01 1.15876E+01 0.00000E+00
 -1       781 8.45850E+01 1.15876E+01 0.00000E+00
 -1       782 8.75850E+01 1.15876E+01 0.00000E+00
 -1       783 9.05850E+01 1.15876E+01 0.00000E+00
 -1       784 9.35850E+01 1.15876E+01 0.00000E+00
 -1       785 9.65850E+01 1.15876E+01 0.00000E+00
 -1       786 9.97350E+01 1.15876E+01 0.00000E+00
 -1       787 1.02735E+02 1.15876E+01 0.00000E+00
 -1       788 1.05735E+02 1.15876E+01 0.00000E+00
 -1       789 1.08735E+02 1.15876E+01 0.00000E+00
 -1       790 1.11735E+02 1.15876E+01 0.00000E+00
 -1       791 1.14735E+02 1.15876E+01 0.00000E+00
 -1       792 1.17735E+02 1.15876E+01 0.00000E+00
 -1       793 1.20735E+02 1.15876E+01 0.00000E+00
 -1       794 1.23885E+02 1.15876E+01 0.00000E+00
 -1       795 1.26885E+02 1.15876E+01 0.00000E+00
 -1       796 1.29885E+02 1.15876E+01 0.00000E+00
 -1       797 1.32885E+02 1.15876E+01 0.00000E+00
 -1       798 1.35885E+02 1.15876E+01 0.00000E+00
 -1       799 1.37793E+02 1.18894E+01 0.00000E+00
 -1       800 1.37625E+01 1.12011E+01 0.00000E+00
 -1       801 1.29900E+01 2.20250E+01 0.00000E+00
 -1       802 4.37224E+01 2.74290E+01 0.00000E+00
 -1       803 1.37010E+02 2.50250E+01 0.00000E+00
 -1       804 1.37010E+02 3.38250E+01 0.00000E+00
 -1       805 1.37010E+02 2.79250E+01 0.00000E+00
 -1       806 5.13600E+01 1.15876E+01 0.00000E+00
 -1       807 3.76158E+01 2.94490E+01 0.00000E+00
 -1       808 1.37010E+02 3.08750E+01 0.00000E+00
 -1       809 6.04350E+01 1.15876E+01 0.00000E+00
 -1       810 5.74350E+01 1.15876E+01 0.00000E+00
 -1       811 2.78426E+01 2.91608E+01 0.00000E+00
 -1       812 1.66500E+01 3.70100E+01 0.00000E+00
 -1       813 2.55047E+01 2.77783E+01 0.00000E+00
 -1       814 4.04973E+01 2.85695E+01 0.00000E+00
 -1       815 1.95034E+01 2.06075E+01 0.00000E+00
 -1       816 2.30291E+01 2.65426E+01 0.00000E+00
 -1       817 4.75056E+01 1.90045E+01 0.00000E+00
 -1       818 1.67625E+01 1.12011E+01 0.00000E+00
 -1       819 3.51204E+01 3.08119E+01 0.00000E+00
 -1       820 4.75068E+01 1.07956E+01 0.00000E+00
 -1       821 4.80147E+01 1.38333E+01 0.00000E+00
 -1       822 4.62631E+01 2.43987E+01 0.00000E+00
 -1       823 1.86340E+01 1.75367E+01 0.00000E+00
 -1       824 1.29900E+01 2.49750E+01 0.00000E+00
 -1       825 1.29900E+01 1.61375E+01 0.00000E+00
 -1       826 1.37010E+02 1.61875E+01 0.00000E+00
 -1       827 1.84289E+01 1.24068E+01 0.00000E+00
 -1       828 3.30180E+01 3.23645E+01 0.00000E+00
 -1       829 1.37010E+02 1.91375E+01 0.00000E+00
 -1       830 1.37010E+02 2.20812E+01 0.00000E+00
 -1       831 1.29900E+01 1.90812E+01 0.00000E+00
 -1       832 1.39652E+01 3.69017E+01 0.00000E+00
 -1       833 1.29900E+01 3.08563E+01 0.00000E+00
 -1       834 1.29900E+01 3.37938E+01 0.00000E+00
 -1       835 1.36637E+02 3.55285E+01 0.00000E+00
 -1       836 4.69836E+01 2.75830E+01 0.00000E+00
 -1       837 4.91472E+01 2.34939E+01 0.00000E+00
 -1       838 2.41500E+01 3.44120E+01 0.00000E+00
 -1       839 2.71500E+01 3.44120E+01 0.00000E+00
 -1       840 3.01500E+01 3.44120E+01 0.00000E+00
 -1       841 3.91500E+01 3.44120E+01 0.00000E+00
 -1       842 4.21500E+01 3.44120E+01 0.00000E+00
 -1       843 4.51500E+01 3.44120E+01 0.00000E+00
 -1       844 4.81500E+01 3.44120E+01 0.00000E+00
 -1       845 5.11500E+01 3.44120E+01 0.00000E+00
 -1       846 5.41500E+01 3.44120E+01 0.00000E+00
 -1       847 5.71500E+01 3.44120E+01 0.00000E+00
 -1       848 6.01500E+01 3.44120E+01 0.00000E+00
 -1       849 6.31500E+01 3.44120E+01 0.00000E+00
 -1       850 6.61500E+01 3.44120E+01 0.00000E+00
 -1       851 6.91500E+01 3.44120E+01 0.00000E+00
 -1       852 7.21500E+01 3.44120E+01 0.00000E+00
 -1       853 7.51500E+01 3.44120E+01 0.00000E+00
 -1       854 7.81500E+01 3.44120E+01 0.00000E+00
 -1       855 8.11500E+01 3.44120E+01 0.00000E+00
 -1       856 8.41500E+01 3.44120E+01 0.00000E+00
 -1       857 8.71500E+01 3.44120E+01 0.00000E+00
 -1       858 9.01500E+01 3.44120E+01 0.00000E+00
 -1       859 9.31500E+01 3.44120E+01 0.00000E+00
 -1       860 9.61500E+01 3.44120E+01 0.00000E+00
 -1       861 9.91500E+01 3.44120E+01 0.00000E+00
 -1       862 1.02150E+02 3.44120E+01 0.00000E+00
 -1       863 1.05150E+02 3.44120E+01 0.00000E+00
 -1       864 1.08150E+02 3.44120E+01 0.00000E+00
 -1       865 1.11150E+02 3.44120E+01 0.00000E+00
 -1       866 1.14150E+02 3.44120E+01 0.00000E+00
 -1       867 1.17150E+02 3.44120E+01 0.00000E+00
 -1       868 1.20150E+02 3.44120E+01 0.00000E+00
 -1       869 1.23150E+02 3.44120E+01 0.00000E+00
 -1       870 1.26150E+02 3.44120E+01 0.00000E+00
 -1       871 1.29150E+02 3.44120E+01 0.00000E+00
 -1       872 1.32150E+02 3.44120E+01 0.00000E+00
 -1       873 5.01803E+01 1.53631E+01 0.00000E+00
 -1       874 6.49350E+01 1.41856E+01 0.00000E+00
 -1       875 7.39350E+01 1.41856E+01 0.00000E+00
 -1       876 7.70850E+01 1.41856E+01 0.00000E+00
 -1       877 8.00850E+01 1.41856E+01 0.00000E+00
 -1       878 8.30850E+01 1.41856E+01 0.00000E+00
 -1       879 8.60850E+01 1.41856E+01 0.00000E+00
 -1       880 8.90850E+01 1.41856E+01 0.00000E+00
 -1       881 9.20850E+01 1.41856E+01 0.00000E+00
 -1       882 9.50850E+01 1.41856E+01 0.00000E+00
 -1       883 9.82350E+01 1.41856E+01 0.00000E+00
 -1       884 1.01235E+02 1.41856E+01 0.00000E+00
 -1       885 1.04235E+02 1.41856E+01 0.00000E+00
 -1       886 1.07235E+02 1.41856E+01 0.00000E+00
 -1       887 1.10235E+02 1.41856E+01 0.00000E+00
 -1       888 1.13235E+02 1.41856E+01 0.00000E+00
 -1       889 1.16235E+02 1.41856E+01 0.00000E+00
 -1       890 1.19235E+02 1.41856E+01 0.00000E+00
 -1       891 1.22385E+02 1.41856E+01 0.00000E+00
 -1       892 1.25385E+02 1.41856E+01 0.00000E+00
 -1       893 1.28385E+02 1.41856E+01 0.00000E+00
 -1       894 1.31385E+02 1.41856E+01 0.00000E+00
 -1       895 1.34385E+02 1.41856E+01 0.00000E+00
 -1       896 2.32764E+01 2.91448E+01 0.00000E+00
 -1       897 1.37402E+02 1.40384E+01 0.00000E+00
 -1       898 1.34412E+02 2.64750E+01 0.00000E+00
 -1       899 2.56143E+01 3.05272E+01 0.00000E+00
 -1       900 5.28600E+01 1.41856E+01 0.00000E+00
 -1       901 1.48763E+01 1.36693E+01 0.00000E+00
 -1       902 6.19350E+01 1.41856E+01 0.00000E+00
 -1       903 1.29900E+01 2.79188E+01 0.00000E+00
 -1       904 5.89350E+01 1.41856E+01 0.00000E+00
 -1       905 5.58975E+01 1.41856E+01 0.00000E+00
 -1       906 6.79350E+01 1.41856E+01 0.00000E+00
 -1       907 1.81500E+01 3.44120E+01 0.00000E+00
 -1       908 1.98253E+01 2.69727E+01 0.00000E+00
 -1       909 2.11500E+01 3.44120E+01 0.00000E+00
 -1       910 1.72572E+01 1.95849E+01 0.00000E+00
 -1       911 3.97039E+01 3.11305E+01 0.00000E+00
 -1       912 2.87257E+01 3.18543E+01 0.00000E+00
 -1       913 3.72086E+01 3.24934E+01 0.00000E+00
 -1       914 7.09350E+01 1.41856E+01 0.00000E+00
 -1       915 1.62842E+01 1.62160E+01 0.00000E+00
 -1       916 1.77829E+01 2.27657E+01 0.00000E+00
 -1       917 4.29760E+01 3.04486E+01 0.00000E+00
 -1       918 1.66137E+01 1.40775E+01 0.00000E+00
 -1       919 4.98677E+01 2.66782E+01 0.00000E+00
 -1       920 1.55880E+01 2.93875E+01 0.00000E+00
 -1       921 3.62851E+01 3.38261E+01 0.00000E+00
 -1       922 1.55880E+01 3.23250E+01 0.00000E+00
 -1       923 5.01962E+01 1.79469E+01 0.00000E+00
 -1       924 1.34394E+02 3.49702E+01 0.00000E+00
 -1       925 1.34412E+02 2.94250E+01 0.00000E+00
 -1       926 1.34412E+02 2.35313E+01 0.00000E+00
 -1       927 1.34412E+02 1.76625E+01 0.00000E+00
 -1       928 1.55880E+01 2.35000E+01 0.00000E+00
 -1       929 4.62372E+01 3.06026E+01 0.00000E+00
 -1       930 4.95545E+01 2.12269E+01 0.00000E+00
 -1       931 1.72594E+01 2.59557E+01 0.00000E+00
 -1       932 1.34580E+02 3.26435E+01 0.00000E+00
 -1       933 6.34350E+01 1.67836E+01 0.00000E+00
 -1       934 1.81860E+01 3.08563E+01 0.00000E+00
 -1       935 5.28760E+01 1.67694E+01 0.00000E+00
 -1       936 5.26500E+01 3.18140E+01 0.00000E+00
 -1       937 5.56500E+01 3.18140E+01 0.00000E+00
 -1       938 5.86500E+01 3.18140E+01 0.00000E+00
 -1       939 6.16500E+01 3.18140E+01 0.00000E+00
 -1       940 6.46500E+01 3.18140E+01 0.00000E+00
 -1       941 6.76500E+01 3.18140E+01 0.00000E+00
 -1       942 7.06500E+01 3.18140E+01 0.00000E+00
 -1       943 7.36500E+01 3.18140E+01 0.00000E+00
 -1       944 7.66500E+01 3.18140E+01 0.00000E+00
 -1       945 7.96500E+01 3.18140E+01 0.00000E+00
 -1       946 8.26500E+01 3.18140E+01 0.00000E+00
 -1       947 8.56500E+01 3.18140E+01 0.00000E+00
 -1       948 8.86500E+01 3.18140E+01 0.00000E+00
 -1       949 9.16500E+01 3.18140E+01 0.00000E+00
 -1       950 9.46500E+01 3.18140E+01 0.00000E+00
 -1       951 9.76500E+01 3.18140E+01 0.00000E+00
 -1       952 1.00650E+02 3.18140E+01 0.00000E+00
 -1       953 1.03650E+02 3.18140E+01 0.00000E+00
 -1       954 1.06650E+02 3.18140E+01 0.00000E+00
 -1       955 1.09650E+02 3.18140E+01 0.00000E+00
 -1       956 1.12650E+02 3.18140E+01 0.00000E+00
 -1       957 1.15650E+02 3.18140E+01 0.00000E+00
 -1       958 1.18650E+02 3.18140E+01 0.00000E+00
 -1       959 1.21650E+02 3.18140E+01 0.00000E+00
 -1       960 1.24650E+02 3.18140E+01 0.00000E+00
 -1       961 1.27650E+02 3.18140E+01 0.00000E+00
 -1       962 1.30650E+02 3.18140E+01 0.00000E+00
 -1       963 7.55100E+01 1.67836E+01 0.00000E+00
 -1       964 8.45850E+01 1.67836E+01 0.00000E+00
 -1       965 8.75850E+01 1.67836E+01 0.00000E+00
 -1       966 9.05850E+01 1.67836E+01 0.00000E+00
 -1       967 9.35850E+01 1.67836E+01 0.00000E+00
 -1       968 9.67350E+01 1.67836E+01 0.00000E+00
 -1       969 9.97350E+01 1.67836E+01 0.00000E+00
 -1       970 1.02735E+02 1.67836E+01 0.00000E+00
 -1       971 1.05735E+02 1.67836E+01 0.00000E+00
 -1       972 1.08735E+02 1.67836E+01 0.00000E+00
 -1       973 1.11735E+02 1.67836E+01 0.00000E+00
 -1       974 1.14735E+02 1.67836E+01 0.00000E+00
 -1       975 1.17735E+02 1.67836E+01 0.00000E+00
 -1       976 1.20885E+02 1.67836E+01 0.00000E+00
 -1       977 1.23885E+02 1.67836E+01 0.00000E+00
 -1       978 1.26885E+02 1.67836E+01 0.00000E+00
 -1       979 1.29885E+02 1.67836E+01 0.00000E+00
 -1       980 1.32148E+02 1.72231E+01 0.00000E+00
 -1       981 8.15850E+01 1.67836E+01 0.00000E+00
 -1       982 2.33165E+01 3.17450E+01 0.00000E+00
 -1       983 7.85850E+01 1.67836E+01 0.00000E+00
 -1       984 6.04350E+01 1.67836E+01 0.00000E+00
 -1       985 6.64350E+01 1.67836E+01 0.00000E+00
 -1       986 1.96500E+01 3.18140E+01 0.00000E+00
 -1       987 1.34412E+02 2.05969E+01 0.00000E+00
 -1       988 2.01910E+01 3.02194E+01 0.00000E+00
 -1       989 5.20414E+01 2.45127E+01 0.00000E+00
 -1       990 5.24487E+01 2.22457E+01 0.00000E+00
 -1       991 5.24283E+01 1.93886E+01 0.00000E+00
 -1       992 7.25100E+01 1.67836E+01 0.00000E+00
 -1       993 5.73975E+01 1.67836E+01 0.00000E+00
 -1       994 4.95154E+01 3.13415E+01 0.00000E+00
 -1       995 1.32148E+02 2.01574E+01 0.00000E+00
 -1       996 1.31814E+02 2.79500E+01 0.00000E+00
 -1       997 1.31814E+02 2.50063E+01 0.00000E+00
 -1       998 4.96915E+01 2.90099E+01 0.00000E+00
 -1       999 6.94350E+01 1.67836E+01 0.00000E+00
 -1      1000 5.48382E+01 1.84527E+01 0.00000E+00
 -1      1001 8.90850E+01 1.93816E+01 0.00000E+00
 -1      1002 6.49350E+01 1.93816E+01 0.00000E+00
 -1      1003 5.71500E+01 2.92160E+01 0.00000E+00
 -1      1004 6.01500E+01 2.92160E+01 0.00000E+00
 -1      1005 6.31500E+01 2.92160E+01 0.00000E+00
 -1      1006 6.61500E+01 2.92160E+01 0.00000E+00
 -1      1007 6.91500E+01 2.92160E+01 0.00000E+00
 -1      1008 7.21500E+01 2.92160E+01 0.00000E+00
 -1      1009 7.51500E+01 2.92160E+01 0.00000E+00
 -1      1010 7.81500E+01 2.92160E+01 0.00000E+00
 -1      1011 8.11500E+01 2.92160E+01 0.00000E+00
 -1      1012 8.41500E+01 2.92160E+01 0.00000E+00
 -1      1013 8.71500E+01 2.92160E+01 0.00000E+00
 -1      1014 9.01500E+01 2.92160E+01 0.00000E+00
 -1      1015 9.31500E+01 2.92160E+01 0.00000E+00
 -1      1016 9.61500E+01 2.92160E+01 0.00000E+00
 -1      1017 9.91500E+01 2.92160E+01 0.00000E+00
 -1      1018 1.02150E+02 2.92160E+01 0.00000E+00
 -1      1019 1.05150E+02 2.92160E+01 0.00000E+00
 -1      1020 1.08150E+02 2.92160E+01 0.00000E+00
 -1      1021 1.11150E+02 2.92160E+01 0.00000E+00
 -1      1022 1.14150E+02 2.92160E+01 0.00000E+00
 -1      1023 1.17150E+02 2.92160E+01 0.00000E+00
 -1      1024 1.20150E+02 2.92160E+01 0.00000E+00
 -1      1025 1.23150E+02 2.92160E+01 0.00000E+00
 -1      1026 1.26150E+02 2.92160E+01 0.00000E+00
 -1      1027 1.29150E+02 2.92160E+01 0.00000E+00
 -1      1028 9.20850E+01 1.93816E+01 0.00000E+00
 -1      1029 8.60850E+01 1.93816E+01 0.00000E+00
 -1      1030 9.52350E+01 1.93816E+01 0.00000E+00
 -1      1031 9.82350E+01 1.93816E+01 0.00000E+00
 -1      1032 1.01235E+02 1.93816E+01 0.00000E+00
 -1      1033 1.04235E+02 1.93816E+01 0.00000E+00
 -1      1034 1.07235E+02 1.93816E+01 0.00000E+00
 -1      1035 1.10235E+02 1.93816E+01 0.00000E+00
 -1      1036 1.13235E+02 1.93816E+01 0.00000E+00
 -1      1037 1.16235E+02 1.93816E+01 0.00000E+00
 -1      1038 1.19385E+02 1.93816E+01 0.00000E+00
 -1      1039 1.22385E+02 1.93816E+01 0.00000E+00
 -1      1040 1.25385E+02 1.93816E+01 0.00000E+00
 -1      1041 1.28385E+02 1.93816E+01 0.00000E+00
 -1      1042 1.30267E+02 1.97695E+01 0.00000E+00
 -1      1043 8.30850E+01 1.93816E+01 0.00000E+00
 -1      1044 8.00850E+01 1.93816E+01 0.00000E+00
 -1      1045 1.31981E+02 2.25818E+01 0.00000E+00
 -1      1046 6.19350E+01 1.93816E+01 0.00000E+00
 -1      1047 5.28262E+01 2.94824E+01 0.00000E+00
 -1      1048 7.70100E+01 1.93816E+01 0.00000E+00
 -1      1049 5.18652E+01 2.68444E+01 0.00000E+00
 -1      1050 5.48021E+01 2.38386E+01 0.00000E+00
 -1      1051 5.88975E+01 1.93816E+01 0.00000E+00
 -1      1052 7.40100E+01 1.93816E+01 0.00000E+00
 -1      1053 1.29216E+02 2.64781E+01 0.00000E+00
 -1      1054 6.79350E+01 1.93816E+01 0.00000E+00
 -1      1055 5.46259E+01 2.61702E+01 0.00000E+00
 -1      1056 5.48202E+01 2.11456E+01 0.00000E+00
 -1      1057 8.15850E+01 2.19796E+01 0.00000E+00
 -1      1058 9.36600E+01 2.19796E+01 0.00000E+00
 -1      1059 9.06600E+01 2.19796E+01 0.00000E+00
 -1      1060 6.16500E+01 2.66180E+01 0.00000E+00
 -1      1061 6.46500E+01 2.66180E+01 0.00000E+00
 -1      1062 6.76500E+01 2.66180E+01 0.00000E+00
 -1      1063 7.06500E+01 2.66180E+01 0.00000E+00
 -1      1064 7.36500E+01 2.66180E+01 0.00000E+00
 -1      1065 7.66500E+01 2.66180E+01 0.00000E+00
 -1      1066 7.96500E+01 2.66180E+01 0.00000E+00
 -1      1067 8.26500E+01 2.66180E+01 0.00000E+00
 -1      1068 8.56500E+01 2.66180E+01 0.00000E+00
 -1      1069 8.86500E+01 2.66180E+01 0.00000E+00
 -1      1070 9.16500E+01 2.66180E+01 0.00000E+00
 -1      1071 9.46500E+01 2.66180E+01 0.00000E+00
 -1      1072 9.76500E+01 2.66180E+01 0.00000E+00
 -1      1073 1.00650E+02 2.66180E+01 0.00000E+00
 -1      1074 1.03650E+02 2.66180E+01 0.00000E+00
 -1      1075 1.06650E+02 2.66180E+01 0.00000E+00
 -1      1076 1.09650E+02 2.66180E+01 0.00000E+00
 -1      1077 1.12650E+02 2.66180E+01 0.00000E+00
 -1      1078 1.15650E+02 2.66180E+01 0.00000E+00
 -1      1079 1.18650E+02 2.66180E+01 0.00000E+00
 -1      1080 1.21650E+02 2.66180E+01 0.00000E+00
 -1      1081 1.24650E+02 2.66180E+01 0.00000E+00
 -1      1082 1.26933E+02 2.65481E+01 0.00000E+00
 -1      1083 9.66600E+01 2.19796E+01 0.00000E+00
 -1      1084 8.76600E+01 2.19796E+01 0.00000E+00
 -1      1085 6.34350E+01 2.19796E+01 0.00000E+00
 -1      1086 9.96600E+01 2.19796E+01 0.00000E+00
 -1      1087 1.02660E+02 2.19796E+01 0.00000E+00
 -1      1088 1.05660E+02 2.19796E+01 0.00000E+00
 -1      1089 1.08660E+02 2.19796E+01 0.00000E+00
 -1      1090 1.11660E+02 2.19796E+01 0.00000E+00
 -1      1091 1.14660E+02 2.19796E+01 0.00000E+00
 -1      1092 1.17810E+02 2.19796E+01 0.00000E+00
 -1      1093 1.20810E+02 2.19796E+01 0.00000E+00
 -1      1094 1.23810E+02 2.19796E+01 0.00000E+00
 -1      1095 1.26810E+02 2.19796E+01 0.00000E+00
 -1      1096 8.45850E+01 2.19796E+01 0.00000E+00
 -1      1097 7.09725E+01 1.93816E+01 0.00000E+00
 -1      1098 1.29383E+02 2.40537E+01 0.00000E+00
 -1      1099 7.85100E+01 2.19796E+01 0.00000E+00
 -1      1100 5.86500E+01 2.66180E+01 0.00000E+00
 -1      1101 6.03975E+01 2.19796E+01 0.00000E+00
 -1      1102 7.55100E+01 2.19796E+01 0.00000E+00
 -1      1103 6.64350E+01 2.19796E+01 0.00000E+00
 -1      1104 5.73046E+01 2.52002E+01 0.00000E+00
 -1      1105 1.26871E+02 2.42638E+01 0.00000E+00
 -1      1106 9.51600E+01 2.45776E+01 0.00000E+00
 -1      1107 6.61500E+01 2.40200E+01 0.00000E+00
 -1      1108 6.91500E+01 2.40200E+01 0.00000E+00
 -1      1109 7.21500E+01 2.40200E+01 0.00000E+00
 -1      1110 9.91500E+01 2.40200E+01 0.00000E+00
 -1      1111 5.72950E+01 2.22373E+01 0.00000E+00
 -1      1112 7.15612E+01 2.17008E+01 0.00000E+00
 -1      1113 6.89981E+01 2.18402E+01 0.00000E+00
 -1      1114 0.00000E+00 4.85250E+01 0.00000E+00
 -1      1115 0.00000E+00 4.55750E+01 0.00000E+00
 -1      1116 0.00000E+00 4.26250E+01 0.00000E+00
 -1      1117 0.00000E+00 3.96750E+01 0.00000E+00
 -1      1118 0.00000E+00 3.67250E+01 0.00000E+00
 -1      1119 0.00000E+00 3.38000E+01 0.00000E+00
 -1      1120 0.00000E+00 3.08750E+01 0.00000E+00
 -1      1121 0.00000E+00 2.79250E+01 0.00000E+00
 -1      1122 0.00000E+00 2.49750E+01 0.00000E+00
 -1      1123 0.00000E+00 2.20250E+01 0.00000E+00
 -1      1124 0.00000E+00 1.90750E+01 0.00000E+00
 -1      1125 0.00000E+00 1.61500E+01 0.00000E+00
 -1      1126 0.00000E+00 1.32250E+01 0.00000E+00
 -1      1127 0.00000E+00 1.02750E+01 0.00000E+00
 -1      1128 0.00000E+00 7.32500E+00 0.00000E+00
 -1      1129 0.00000E+00 4.37500E+00 0.00000E+00
 -1      1130 0.00000E+00 1.45000E+00 0.00000E+00
 -1      1131 1.57500E+00 5.00000E+01 0.00000E+00
 -1      1132 4.65000E+00 5.00000E+01 0.00000E+00
 -1      1133 7.65000E+00 5.00000E+01 0.00000E+00
 -1      1134 1.06500E+01 5.00000E+01 0.00000E+00
 -1      1135 1.36500E+01 5.00000E+01 0.00000E+00
 -1      1136 1.66500E+01 5.00000E+01 0.00000E+00
 -1      1137 1.96500E+01 5.00000E+01 0.00000E+00
 -1      1138 2.26500E+01 5.00000E+01 0.00000E+00
 -1      1139 2.56500E+01 5.00000E+01 0.00000E+00
 -1      1140 2.86500E+01 5.00000E+01 0.00000E+00
 -1      1141 3.16500E+01 5.00000E+01 0.00000E+00
 -1      1142 3.46500E+01 5.00000E+01 0.00000E+00
 -1      1143 3.76500E+01 5.00000E+01 0.00000E+00
 -1      1144 4.06500E+01 5.00000E+01 0.00000E+00
 -1      1145 4.36500E+01 5.00000E+01 0.00000E+00
 -1      1146 4.66500E+01 5.00000E+01 0.00000E+00
 -1      1147 4.96500E+01 5.00000E+01 0.00000E+00
 -1      1148 5.26500E+01 5.00000E+01 0.00000E+00
 -1      1149 5.56500E+01 5.00000E+01 0.00000E+00
 -1      1150 5.86500E+01 5.00000E+01 0.00000E+00
 -1      1151 6.16500E+01 5.00000E+01 0.00000E+00
 -1      1152 6.46500E+01 5.00000E+01 0.00000E+00
 -1      1153 6.76500E+01 5.00000E+01 0.00000E+00
 -1      1154 7.06500E+01 5.00000E+01 0.00000E+00
 -1      1155 7.36500E+01 5.00000E+01 0.00000E+00
 -1      1156 7.66500E+01 5.00000E+01 0.00000E+00
 -1      1157 7.96500E+01 5.00000E+01 0.00000E+00
 -1      1158 8.26500E+01 5.00000E+01 0.00000E+00
 -1      1159 8.56500E+01 5.00000E+01 0.00000E+00
 -1      1160 8.86500E+01 5.00000E+01 0.00000E+00
 -1      1161 9.16500E+01 5.00000E+01 0.00000E+00
 -1      1162 9.46500E+01 5.00000E+01 0.00000E+00
 -1      1163 9.76500E+01 5.00000E+01 0.00000E+00
 -1      1164 1.00650E+02 5.00000E+01 0.00000E+00
 -1      1165 1.03650E+02 5.00000E+01 0.00000E+00
 -1      1166 1.06650E+02 5.00000E+01 0.00000E+00
 -1      1167 1.09650E+02 5.00000E+01 0.00000E+00
 -1      1168 1.12650E+02 5.00000E+01 0.00000E+00
 -1      1169 1.15650E+02 5.00000E+01 0.00000E+00
 -1      1170 1.18650E+02 5.00000E+01 0.00000E+00
 -1      1171 1.21650E+02 5.00000E+01 0.00000E+00
 -1      1172 1.24650E+02 5.00000E+01 0.00000E+00
 -1      1173 1.27650E+02 5.00000E+01 0.00000E+00
 -1      1174 1.30650E+02 5.00000E+01 0.00000E+00
 -1      1175 1.33650E+02 5.00000E+01 0.00000E+00
 -1      1176 1.36650E+02 5.00000E+01 0.00000E+00
 -1      1177 1.39650E+02 5.00000E+01 0.00000E+00
 -1      1178 1.42650E+02 5.00000E+01 0.00000E+00
 -1      1179 1.45650E+02 5.00000E+01 0.00000E+00
 -1      1180 1.48575E+02 5.00000E+01 0.00000E+00
 -1      1181 1.57500E+00 0.00000E+00 0.00000E+00
 -1      1182 4.65000E+00 0.00000E+00 0.00000E+00
 -1      1183 7.65000E+00 0.00000E+00 0.00000E+00
 -1      1184 1.06500E+01 0.00000E+00 0.00000E+00
 -1      1185 1.36500E+01 0.00000E+00 0.00000E+00
 -1      1186 1.66500E+01 0.00000E+00 0.00000E+00
 -1      1187 1.96500E+01 0.00000E+00 0.00000E+00
 -1      1188 2.27250E+01 0.00000E+00 0.00000E+00
 -1      1189 2.58000E+01 0.00000E+00 0.00000E+00
 -1      1190 2.86500E+01 0.00000E+00 0.00000E+00
 -1      1191 3.13500E+01 0.00000E+00 0.00000E+00
 -1      1192 3.40500E+01 0.00000E+00 0.00000E+00
 -1      1193 3.69000E+01 0.00000E+00 0.00000E+00
 -1      1194 3.99000E+01 0.00000E+00 0.00000E+00
 -1      1195 4.29000E+01 0.00000E+00 0.00000E+00
 -1      1196 4.59000E+01 0.00000E+00 0.00000E+00
 -1      1197 4.89000E+01 0.00000E+00 0.00000E+00
 -1      1198 5.19000E+01 0.00000E+00 0.00000E+00
 -1      1199 5.49000E+01 0.00000E+00 0.00000E+00
 -1      1200 5.79750E+01 0.00000E+00 0.00000E+00
 -1      1201 6.10500E+01 0.00000E+00 0.00000E+00
 -1      1202 6.40500E+01 0.00000E+00 0.00000E+00
 -1      1203 6.70500E+01 0.00000E+00 0.00000E+00
 -1      1204 7.00500E+01 0.00000E+00 0.00000E+00
 -1      1205 7.30500E+01 0.00000E+00 0.00000E+00
 -1      1206 7.60500E+01 0.00000E+00 0.00000E+00
 -1      1207 7.90500E+01 0.00000E+00 0.00000E+00
 -1      1208 8.21250E+01 0.00000E+00 0.00000E+00
 -1      1209 8.52000E+01 0.00000E+00 0.00000E+00
 -1      1210 8.82000E+01 0.00000E+00 0.00000E+00
 -1      1211 9.12000E+01 0.00000E+00 0.00000E+00
 -1      1212 9.42000E+01 0.00000E+00 0.00000E+00
 -1      1213 9.72000E+01 0.00000E+00 0.00000E+00
 -1      1214 1.00200E+02 0.00000E+00 0.00000E+00
 -1      1215 1.03275E+02 0.00000E+00 0.00000E+00
 -1      1216 1.06350E+02 0.00000E+00 0.00000E+00
 -1      1217 1.09350E+02 0.00000E+00 0.00000E+00
 -1      1218 1.12350E+02 0.00000E+00 0.00000E+00
 -1      1219 1.15350E+02 0.00000E+00 0.00000E+00
 -1      1220 1.18350E+02 0.00000E+00 0.00000E+00
 -1      1221 1.21350E+02 0.00000E+00 0.00000E+00
 -1      1222 1.24350E+02 0.00000E+00 0.00000E+00
 -1      1223 1.27425E+02 0.00000E+00 0.00000E+00
 -1      1224 1.30500E+02 0.00000E+00 0.00000E+00
 -1      1225 1.33500E+02 0.00000E+00 0.00000E+00
 -1      1226 1.36500E+02 0.00000E+00 0.00000E+00
 -1      1227 1.39500E+02 0.00000E+00 0.00000E+00
 -1      1228 1.42500E+02 0.00000E+00 0.00000E+00
 -1      1229 1.45500E+02 0.00000E+00 0.00000E+00
 -1      1230 1.48500E+02 0.00000E+00 0.00000E+00
 -1      1231 1.50000E+02 1.47500E+00 0.00000E+00
 -1      1232 1.50000E+02 4.42500E+00 0.00000E+00
 -1      1233 1.50000E+02 7.37500E+00 0.00000E+00
 -1      1234 1.50000E+02 1.03250E+01 0.00000E+00
 -1      1235 1.50000E+02 1.32750E+01 0.00000E+00
 -1      1236 1.50000E+02 1.62000E+01 0.00000E+00
 -1      1237 1.50000E+02 1.91250E+01 0.00000E+00
 -1      1238 1.50000E+02 2.20750E+01 0.00000E+00
 -1      1239 1.50000E+02 2.50250E+01 0.00000E+00
 -1      1240 1.50000E+02 2.79750E+01 0.00000E+00
 -1      1241 1.50000E+02 3.09250E+01 0.00000E+00
 -1      1242 1.50000E+02 3.38500E+01 0.00000E+00
 -1      1243 1.50000E+02 3.67750E+01 0.00000E+00
 -1      1244 1.50000E+02 3.97250E+01 0.00000E+00
 -1      1245 1.50000E+02 4.26750E+01 0.00000E+00
 -1      1246 1.50000E+02 4.56250E+01 0.00000E+00
 -1      1247 1.50000E+02 4.85500E+01 0.00000E+00
 -1      1248 4.01269E+01 1.42877E+01 0.00000E+00
 -1      1249 3.98182E+01 1.28386E+01 0.00000E+00
 -1      1250 3.92179E+01 1.14981E+01 0.00000E+00
 -1      1251 3.83623E+01 1.03247E+01 0.00000E+00
 -1      1252 3.72590E+01 9.33565E+00 0.00000E+00
 -1      1253 3.58645E+01 8.55498E+00 0.00000E+00
 -1      1254 3.43637E+01 8.11679E+00 0.00000E+00
 -1      1255 3.29027E+01 8.01822E+00 0.00000E+00
 -1      1256 3.13894E+01 8.24215E+00 0.00000E+00
 -1      1257 2.99246E+01 8.80826E+00 0.00000E+00
 -1      1258 2.86236E+01 9.68603E+00 0.00000E+00
 -1      1259 2.75968E+01 1.07707E+01 0.00000E+00
 -1      1260 2.68481E+01 1.19963E+01 0.00000E+00
 -1      1261 2.63557E+01 1.33889E+01 0.00000E+00
 -1      1262 2.61662E+01 1.48629E+01 0.00000E+00
 -1      1263 2.62834E+01 1.62976E+01 0.00000E+00
 -1      1264 2.66907E+01 1.76759E+01 0.00000E+00
 -1      1265 2.73949E+01 1.89771E+01 0.00000E+00
 -1      1266 2.83852E+01 2.01278E+01 0.00000E+00
 -1      1267 2.95763E+01 2.10237E+01 0.00000E+00
 -1      1268 3.09494E+01 2.16536E+01 0.00000E+00
 -1      1269 3.24299E+01 2.19747E+01 0.00000E+00
 -1      1270 3.38459E+01 2.19801E+01 0.00000E+00
 -1      1271 3.52335E+01 2.17006E+01 0.00000E+00
 -1      1272 3.65233E+01 2.11549E+01 0.00000E+00
 -1      1273 3.76584E+01 2.03804E+01 0.00000E+00
 -1      1274 3.86186E+01 1.94012E+01 0.00000E+00
 -1      1275 3.93571E+01 1.82771E+01 0.00000E+00
 -1      1276 3.98678E+01 1.70298E+01 0.00000E+00
 -1      1277 4.01307E+01 1.57010E+01 0.00000E+00
 -1      1278 1.57500E+00 4.85250E+01 0.00000E+00
 -1      1279 1.29900E+00 4.48375E+01 0.00000E+00
 -1      1280 1.29900E+00 4.63125E+01 0.00000E+00
 -1      1281 1.29900E+00 4.18875E+01 0.00000E+00
 -1      1282 1.29900E+00 4.33625E+01 0.00000E+00
 -1      1283 2.59800E+00 4.41000E+01 0.00000E+00
 -1      1284 1.29900E+00 3.89375E+01 0.00000E+00
 -1      1285 1.29900E+00 4.04125E+01 0.00000E+00
 -1      1286 2.59800E+00 4.11500E+01 0.00000E+00
 -1      1287 1.29900E+00 3.59875E+01 0.00000E+00
 -1      1288 1.29900E+00 3.74625E+01 0.00000E+00
 -1      1289 2.59800E+00 3.82000E+01 0.00000E+00
 -1      1290 1.29900E+00 3.30875E+01 0.00000E+00
 -1      1291 1.29900E+00 3.45375E+01 0.00000E+00
 -1      1292 2.59800E+00 3.52750E+01 0.00000E+00
 -1      1293 1.29900E+00 3.01375E+01 0.00000E+00
 -1      1294 1.29900E+00 3.16125E+01 0.00000E+00
 -1      1295 2.59800E+00 3.23500E+01 0.00000E+00
 -1      1296 1.29900E+00 2.71875E+01 0.00000E+00
 -1      1297 1.29900E+00 2.86625E+01 0.00000E+00
 -1      1298 2.59800E+00 2.94000E+01 0.00000E+00
 -1      1299 1.29900E+00 2.42375E+01 0.00000E+00
 -1      1300 1.29900E+00 2.57125E+01 0.00000E+00
 -1      1301 2.59800E+00 2.64500E+01 0.00000E+00
 -1      1302 1.29900E+00 2.12875E+01 0.00000E+00
 -1      1303 1.29900E+00 2.27625E+01 0.00000E+00
 -1      1304 2.59800E+00 2.35000E+01 0.00000E+00
 -1      1305 1.29900E+00 1.83375E+01 0.00000E+00
 -1      1306 1.29900E+00 1.98125E+01 0.00000E+00
 -1      1307 2.59800E+00 2.05500E+01 0.00000E+00
 -1      1308 1.29900E+00 1.54375E+01 0.00000E+00
 -1      1309 1.29900E+00 1.68875E+01 0.00000E+00
 -1      1310 2.59800E+00 1.76250E+01 0.00000E+00
 -1      1311 1.29900E+00 1.24875E+01 0.00000E+00
 -1      1312 1.29900E+00 1.39625E+01 0.00000E+00
 -1      1313 2.59800E+00 1.47000E+01 0.00000E+00
 -1      1314 1.29900E+00 9.53750E+00 0.00000E+00
 -1      1315 1.29900E+00 1.10125E+01 0.00000E+00
 -1      1316 2.59800E+00 1.17500E+01 0.00000E+00
 -1      1317 1.29900E+00 6.58750E+00 0.00000E+00
 -1      1318 1.29900E+00 8.06250E+00 0.00000E+00
 -1      1319 2.59800E+00 8.80000E+00 0.00000E+00
 -1      1320 1.29900E+00 3.63750E+00 0.00000E+00
 -1      1321 1.29900E+00 5.11250E+00 0.00000E+00
 -1      1322 2.59800E+00 5.85000E+00 0.00000E+00
 -1      1323 1.43700E+00 1.09375E+00 0.00000E+00
 -1      1324 1.43700E+00 2.54375E+00 0.00000E+00
 -1      1325 2.73600E+00 3.28125E+00 0.00000E+00
 -1      1326 3.01200E+00 1.09375E+00 0.00000E+00
 -1      1327 3.90000E+00 4.87010E+01 0.00000E+00
 -1      1328 5.40000E+00 4.87010E+01 0.00000E+00
 -1      1329 6.90000E+00 4.87010E+01 0.00000E+00
 -1      1330 8.40000E+00 4.87010E+01 0.00000E+00
 -1      1331 6.15000E+00 4.74020E+01 0.00000E+00
 -1      1332 9.90000E+00 4.87010E+01 0.00000E+00
 -1      1333 1.14000E+01 4.87010E+01 0.00000E+00
 -1      1334 9.15000E+00 4.74020E+01 0.00000E+00
 -1      1335 1.29000E+01 4.87010E+01 0.00000E+00
 -1      1336 1.44000E+01 4.87010E+01 0.00000E+00
 -1      1337 1.21500E+01 4.74020E+01 0.00000E+00
 -1      1338 1.59000E+01 4.87010E+01 0.00000E+00
 -1      1339 1.74000E+01 4.87010E+01 0.00000E+00
 -1      1340 1.51500E+01 4.74020E+01 0.00000E+00
 -1      1341 1.89000E+01 4.87010E+01 0.00000E+00
 -1      1342 2.04000E+01 4.87010E+01 0.00000E+00
 -1      1343 1.81500E+01 4.74020E+01 0.00000E+00
 -1      1344 2.19000E+01 4.87010E+01 0.00000E+00
 -1      1345 2.34000E+01 4.87010E+01 0.00000E+00
 -1      1346 2.11500E+01 4.74020E+01 0.00000E+00
 -1      1347 2.49000E+01 4.87010E+01 0.00000E+00
 -1      1348 2.64000E+01 4.87010E+01 0.00000E+00
 -1      1349 2.41500E+01 4.74020E+01 0.00000E+00
 -1      1350 2.79000E+01 4.87010E+01 0.00000E+00
 -1      1351 2.94000E+01 4.87010E+01 0.00000E+00
 -1      1352 2.71500E+01 4.74020E+01 0.00000E+00
 -1      1353 3.09000E+01 4.87010E+01 0.00000E+00
 -1      1354 3.24000E+01 4.87010E+01 0.00000E+00
 -1      1355 3.01500E+01 4.74020E+01 0.00000E+00
 -1      1356 3.39000E+01 4.87010E+01 0.00000E+00
 -1      1357 3.54000E+01 4.87010E+01 0.00000E+00
 -1      1358 3.31500E+01 4.74020E+01 0.00000E+00
 -1      1359 3.69000E+01 4.87010E+01 0.00000E+00
 -1      1360 3.84000E+01 4.87010E+01 0.00000E+00
 -1      1361 3.61500E+01 4.74020E+01 0.00000E+00
 -1      1362 3.99000E+01 4.87010E+01 0.00000E+00
 -1      1363 4.14000E+01 4.87010E+01 0.00000E+00
 -1      1364 3.91500E+01 4.74020E+01 0.00000E+00
 -1      1365 4.29000E+01 4.87010E+01 0.00000E+00
 -1      1366 4.44000E+01 4.87010E+01 0.00000E+00
 -1      1367 4.21500E+01 4.74020E+01 0.00000E+00
 -1      1368 4.59000E+01 4.87010E+01 0.00000E+00
 -1      1369 4.74000E+01 4.87010E+01 0.00000E+00
 -1      1370 4.51500E+01 4.74020E+01 0.00000E+00
 -1      1371 4.89000E+01 4.87010E+01 0.00000E+00
 -1      1372 5.04000E+01 4.87010E+01 0.00000E+00
 -1      1373 4.81500E+01 4.74020E+01 0.00000E+00
 -1      1374 5.19000E+01 4.87010E+01 0.00000E+00
 -1      1375 5.34000E+01 4.87010E+01 0.00000E+00
 -1      1376 5.11500E+01 4.74020E+01 0.00000E+00
 -1      1377 5.49000E+01 4.87010E+01 0.00000E+00
 -1      1378 5.64000E+01 4.87010E+01 0.00000E+00
 -1      1379 5.41500E+01 4.74020E+01 0.00000E+00
 -1      1380 5.79000E+01 4.87010E+01 0.00000E+00
 -1      1381 5.94000E+01 4.87010E+01 0.00000E+00
 -1      1382 5.71500E+01 4.74020E+01 0.00000E+00
 -1      1383 6.09000E+01 4.87010E+01 0.00000E+00
 -1      1384 6.24000E+01 4.87010E+01 0.00000E+00
 -1      1385 6.01500E+01 4.74020E+01 0.00000E+00
 -1      1386 6.39000E+01 4.87010E+01 0.00000E+00
 -1      1387 6.54000E+01 4.87010E+01 0.00000E+00
 -1      1388 6.31500E+01 4.74020E+01 0.00000E+00
 -1      1389 6.69000E+01 4.87010E+01 0.00000E+00
 -1      1390 6.84000E+01 4.87010E+01 0.00000E+00
 -1      1391 6.61500E+01 4.74020E+01 0.00000E+00
 -1      1392 6.99000E+01 4.87010E+01 0.00000E+00
 -1      1393 7.14000E+01 4.87010E+01 0.00000E+00
 -1      1394 6.91500E+01 4.74020E+01 0.00000E+00
 -1      1395 7.29000E+01 4.87010E+01 0.00000E+00
 -1      1396 7.44000E+01 4.87010E+01 0.00000E+00
 -1      1397 7.21500E+01 4.74020E+01 0.00000E+00
 -1      1398 7.59000E+01 4.87010E+01 0.00000E+00
 -1      1399 7.74000E+01 4.87010E+01 0.00000E+00
 -1      1400 7.51500E+01 4.74020E+01 0.00000E+00
 -1      1401 7.89000E+01 4.87010E+01 0.00000E+00
 -1      1402 8.04000E+01 4.87010E+01 0.00000E+00
 -1      1403 7.81500E+01 4.74020E+01 0.00000E+00
 -1      1404 8.19000E+01 4.87010E+01 0.00000E+00
 -1      1405 8.34000E+01 4.87010E+01 0.00000E+00
 -1      1406 8.11500E+01 4.74020E+01 0.00000E+00
 -1      1407 8.49000E+01 4.87010E+01 0.00000E+00
 -1      1408 8.64000E+01 4.87010E+01 0.00000E+00
 -1      1409 8.41500E+01 4.74020E+01 0.00000E+00
 -1      1410 8.79000E+01 4.87010E+01 0.00000E+00
 -1      1411 8.94000E+01 4.87010E+01 0.00000E+00
 -1      1412 8.71500E+01 4.74020E+01 0.00000E+00
 -1      1413 9.09000E+01 4.87010E+01 0.00000E+00
 -1      1414 9.24000E+01 4.87010E+01 0.00000E+00
 -1      1415 9.01500E+01 4.74020E+01 0.00000E+00
 -1      1416 9.39000E+01 4.87010E+01 0.00000E+00
 -1      1417 9.54000E+01 4.87010E+01 0.00000E+00
 -1      1418 9.31500E+01 4.74020E+01 0.00000E+00
 -1      1419 9.69000E+01 4.87010E+01 0.00000E+00
 -1      1420 9.84000E+01 4.87010E+01 0.00000E+00
 -1      1421 9.61500E+01 4.74020E+01 0.00000E+00
 -1      1422 9.99000E+01 4.87010E+01 0.00000E+00
 -1      1423 1.01400E+02 4.87010E+01 0.00000E+00
 -1      1424 9.91500E+01 4.74020E+01 0.00000E+00
 -1      1425 1.02900E+02 4.87010E+01 0.00000E+00
 -1      1426 1.04400E+02 4.87010E+01 0.00000E+00
 -1      1427 1.02150E+02 4.74020E+01 0.00000E+00
 -1      1428 1.05900E+02 4.87010E+01 0.00000E+00
 -1      1429 1.07400E+02 4.87010E+01 0.00000E+00
 -1      1430 1.05150E+02 4.74020E+01 0.00000E+00
 -1      1431 1.08900E+02 4.87010E+01 0.00000E+00
 -1      1432 1.10400E+02 4.87010E+01 0.00000E+00
 -1      1433 1.08150E+02 4.74020E+01 0.00000E+00
 -1      1434 1.11900E+02 4.87010E+01 0.00000E+00
 -1      1435 1.13400E+02 4.87010E+01 0.00000E+00
 -1      1436 1.11150E+02 4.74020E+01 0.00000E+00
 -1      1437 1.14900E+02 4.87010E+01 0.00000E+00
 -1      1438 1.16400E+02 4.87010E+01 0.00000E+00
 -1      1439 1.14150E+02 4.74020E+01 0.00000E+00
 -1      1440 1.17900E+02 4.87010E+01 0.00000E+00
 -1      1441 1.19400E+02 4.87010E+01 0.00000E+00
 -1      1442 1.17150E+02 4.74020E+01 0.00000E+00
 -1      1443 1.20900E+02 4.87010E+01 0.00000E+00
 -1      1444 1.22400E+02 4.87010E+01 0.00000E+00
 -1      1445 1.20150E+02 4.74020E+01 0.00000E+00
 -1      1446 1.23900E+02 4.87010E+01 0.00000E+00
 -1      1447 1.25400E+02 4.87010E+01 0.00000E+00
 -1      1448 1.23150E+02 4.74020E+01 0.00000E+00
 -1      1449 1.26900E+02 4.87010E+01 0.00000E+00
 -1      1450 1.28400E+02 4.87010E+01 0.00000E+00
 -1      1451 1.26150E+02 4.74020E+01 0.00000E+00
 -1      1452 1.29900E+02 4.87010E+01 0.00000E+00
 -1      1453 1.31400E+02 4.87010E+01 0.00000E+00
 -1      1454 1.29150E+02 4.74020E+01 0.00000E+00
 -1      1455 1.32900E+02 4.87010E+01 0.00000E+00
 -1      1456 1.34400E+02 4.87010E+01 0.00000E+00
 -1      1457 1.32150E+02 4.74020E+01 0.00000E+00
 -1      1458 1.35900E+02 4.87010E+01 0.00000E+00
 -1      1459 1.37400E+02 4.87010E+01 0.00000E+00
 -1      1460 1.35150E+02 4.74020E+01 0.00000E+00
 -1      1461 1.38900E+02 4.87010E+01 0.00000E+00
 -1      1462 1.40400E+02 4.87010E+01 0.00000E+00
 -1      1463 1.38150E+02 4.74020E+01 0.00000E+00
 -1      1464 1.41900E+02 4.87010E+01 0.00000E+00
 -1      1465 1.43400E+02 4.87010E+01 0.00000E+00
 -1      1466 1.41150E+02 4.74020E+01 0.00000E+00
 -1      1467 1.44900E+02 4.87010E+01 0.00000E+00
 -1      1468 1.46400E+02 4.87010E+01 0.00000E+00
 -1      1469 1.44150E+02 4.74020E+01 0.00000E+00
 -1      1470 1.48575E+02 4.85500E+01 0.00000E+00
 -1      1471 1.47825E+02 4.72510E+01 0.00000E+00
 -1      1472 6.01200E+00 1.09375E+00 0.00000E+00
 -1      1473 4.51200E+00 1.09375E+00 0.00000E+00
 -1      1474 4.37400E+00 2.18750E+00 0.00000E+00
 -1      1475 9.01200E+00 1.09375E+00 0.00000E+00
 -1      1476 7.51200E+00 1.09375E+00 0.00000E+00
 -1      1477 7.37400E+00 2.18750E+00 0.00000E+00
 -1      1478 1.20120E+01 1.09375E+00 0.00000E+00
 -1      1479 1.05120E+01 1.09375E+00 0.00000E+00
 -1      1480 1.03740E+01 2.18750E+00 0.00000E+00
 -1      1481 1.50120E+01 1.09375E+00 0.00000E+00
 -1      1482 1.35120E+01 1.09375E+00 0.00000E+00
 -1      1483 1.33740E+01 2.18750E+00 0.00000E+00
 -1      1484 1.80120E+01 1.09375E+00 0.00000E+00
 -1      1485 1.65120E+01 1.09375E+00 0.00000E+00
 -1      1486 1.63740E+01 2.18750E+00 0.00000E+00
 -1      1487 2.10120E+01 1.09375E+00 0.00000E+00
 -1      1488 1.95120E+01 1.09375E+00 0.00000E+00
 -1      1489 1.93740E+01 2.18750E+00 0.00000E+00
 -1      1490 2.41620E+01 1.09375E+00 0.00000E+00
 -1      1491 2.25870E+01 1.09375E+00 0.00000E+00
 -1      1492 2.24490E+01 2.18750E+00 0.00000E+00
 -1      1493 2.71620E+01 1.09375E+00 0.00000E+00
 -1      1494 2.56620E+01 1.09375E+00 0.00000E+00
 -1      1495 2.55240E+01 2.18750E+00 0.00000E+00
 -1      1496 2.98620E+01 1.09375E+00 0.00000E+00
 -1      1497 2.85120E+01 1.09375E+00 0.00000E+00
 -1      1498 2.83740E+01 2.18750E+00 0.00000E+00
 -1      1499 3.25620E+01 1.09375E+00 0.00000E+00
 -1      1500 3.12120E+01 1.09375E+00 0.00000E+00
 -1      1501 3.10740E+01 2.18750E+00 0.00000E+00
 -1      1502 3.52620E+01 1.09375E+00 0.00000E+00
 -1      1503 3.39120E+01 1.09375E+00 0.00000E+00
 -1      1504 3.37740E+01 2.18750E+00 0.00000E+00
 -1      1505 3.82620E+01 1.09375E+00 0.00000E+00
 -1      1506 3.67620E+01 1.09375E+00 0.00000E+00
 -1      1507 3.66240E+01 2.18750E+00 0.00000E+00
 -1      1508 4.12620E+01 1.09375E+00 0.00000E+00
 -1      1509 3.97620E+01 1.09375E+00 0.00000E+00
 -1      1510 3.96240E+01 2.18750E+00 0.00000E+00
 -1      1511 4.42620E+01 1.09375E+00 0.00000E+00
 -1      1512 4.27620E+01 1.09375E+00 0.00000E+00
 -1      1513 4.26240E+01 2.18750E+00 0.00000E+00
 -1      1514 4.72620E+01 1.09375E+00 0.00000E+00
 -1      1515 4.57620E+01 1.09375E+00 0.00000E+00
 -1      1516 4.56240E+01 2.18750E+00 0.00000E+00
 -1      1517 5.02620E+01 1.09375E+00 0.00000E+00
 -1      1518 4.87620E+01 1.09375E+00 0.00000E+00
 -1      1519 4.86240E+01 2.18750E+00 0.00000E+00
 -1      1520 5.32620E+01 1.09375E+00 0.00000E+00
 -1      1521 5.17620E+01 1.09375E+00 0.00000E+00
 -1      1522 5.16240E+01 2.18750E+00 0.00000E+00
 -1      1523 5.62620E+01 1.09375E+00 0.00000E+00
 -1      1524 5.47620E+01 1.09375E+00 0.00000E+00
 -1      1525 5.46240E+01 2.18750E+00 0.00000E+00
 -1      1526 5.94120E+01 1.09375E+00 0.00000E+00
 -1      1527 5.78370E+01 1.09375E+00 0.00000E+00
 -1      1528 5.76990E+01 2.18750E+00 0.00000E+00
 -1      1529 6.24120E+01 1.09375E+00 0.00000E+00
 -1      1530 6.09120E+01 1.09375E+00 0.00000E+00
 -1      1531 6.07740E+01 2.18750E+00 0.00000E+00
 -1      1532 6.54120E+01 1.09375E+00 0.00000E+00
 -1      1533 6.39120E+01 1.09375E+00 0.00000E+00
 -1      1534 6.37740E+01 2.18750E+00 0.00000E+00
 -1      1535 6.84120E+01 1.09375E+00 0.00000E+00
 -1      1536 6.69120E+01 1.09375E+00 0.00000E+00
 -1      1537 6.67740E+01 2.18750E+00 0.00000E+00
 -1      1538 7.14120E+01 1.09375E+00 0.00000E+00
 -1      1539 6.99120E+01 1.09375E+00 0.00000E+00
 -1      1540 6.97740E+01 2.18750E+00 0.00000E+00
 -1      1541 7.44120E+01 1.09375E+00 0.00000E+00
 -1      1542 7.29120E+01 1.09375E+00 0.00000E+00
 -1      1543 7.27740E+01 2.18750E+00 0.00000E+00
 -1      1544 7.74120E+01 1.09375E+00 0.00000E+00
 -1      1545 7.59120E+01 1.09375E+00 0.00000E+00
 -1      1546 7.57740E+01 2.18750E+00 0.00000E+00
 -1      1547 8.04120E+01 1.09375E+00 0.00000E+00
 -1      1548 7.89120E+01 1.09375E+00 0.00000E+00
 -1      1549 7.87740E+01 2.18750E+00 0.00000E+00
 -1      1550 8.35620E+01 1.09375E+00 0.00000E+00
 -1      1551 8.19870E+01 1.09375E+00 0.00000E+00
 -1      1552 8.18490E+01 2.18750E+00 0.00000E+00
 -1      1553 8.65620E+01 1.09375E+00 0.00000E+00
 -1      1554 8.50620E+01 1.09375E+00 0.00000E+00
 -1      1555 8.49240E+01 2.18750E+00 0.00000E+00
 -1      1556 8.95620E+01 1.09375E+00 0.00000E+00
 -1      1557 8.80620E+01 1.09375E+00 0.00000E+00
 -1      1558 8.79240E+01 2.18750E+00 0.00000E+00
 -1      1559 9.25620E+01 1.09375E+00 0.00000E+00
 -1      1560 9.10620E+01 1.09375E+00 0.00000E+00
 -1      1561 9.09240E+01 2.18750E+00 0.00000E+00
 -1      1562 9.55620E+01 1.09375E+00 0.00000E+00
 -1      1563 9.40620E+01 1.09375E+00 0.00000E+00
 -1      1564 9.39240E+01 2.18750E+00 0.00000E+00
 -1      1565 9.85620E+01 1.09375E+00 0.00000E+00
 -1      1566 9.70620E+01 1.09375E+00 0.00000E+00
 -1      1567 9.69240E+01 2.18750E+00 0.00000E+00
 -1      1568 1.01562E+02 1.09375E+00 0.00000E+00
 -1      1569 1.00062E+02 1.09375E+00 0.00000E+00
 -1      1570 9.99240E+01 2.18750E+00 0.00000E+00
 -1      1571 1.04712E+02 1.09375E+00 0.00000E+00
 -1      1572 1.03137E+02 1.09375E+00 0.00000E+00
 -1      1573 1.02999E+02 2.18750E+00 0.00000E+00
 -1      1574 1.07712E+02 1.09375E+00 0.00000E+00
 -1      1575 1.06212E+02 1.09375E+00 0.00000E+00
 -1      1576 1.06074E+02 2.18750E+00 0.00000E+00
 -1      1577 1.10712E+02 1.09375E+00 0.00000E+00
 -1      1578 1.09212E+02 1.09375E+00 0.00000E+00
 -1      1579 1.09074E+02 2.18750E+00 0.00000E+00
 -1      1580 1.13712E+02 1.09375E+00 0.00000E+00
 -1      1581 1.12212E+02 1.09375E+00 0.00000E+00
 -1      1582 1.12074E+02 2.18750E+00 0.00000E+00
 -1      1583 1.16712E+02 1.09375E+00 0.00000E+00
 -1      1584 1.15212E+02 1.09375E+00 0.00000E+00
 -1      1585 1.15074E+02 2.18750E+00 0.00000E+00
 -1      1586 1.19712E+02 1.09375E+00 0.00000E+00
 -1      1587 1.18212E+02 1.09375E+00 0.00000E+00
 -1      1588 1.18074E+02 2.18750E+00 0.00000E+00
 -1      1589 1.22712E+02 1.09375E+00 0.00000E+00
 -1      1590 1.21212E+02 1.09375E+00 0.00000E+00
 -1      1591 1.21074E+02 2.18750E+00 0.00000E+00
 -1      1592 1.25712E+02 1.09375E+00 0.00000E+00
 -1      1593 1.24212E+02 1.09375E+00 0.00000E+00
 -1      1594 1.24074E+02 2.18750E+00 0.00000E+00
 -1      1595 1.28862E+02 1.09375E+00 0.00000E+00
 -1      1596 1.27287E+02 1.09375E+00 0.00000E+00
 -1      1597 1.27149E+02 2.18750E+00 0.00000E+00
 -1      1598 1.31862E+02 1.09375E+00 0.00000E+00
 -1      1599 1.30362E+02 1.09375E+00 0.00000E+00
 -1      1600 1.30224E+02 2.18750E+00 0.00000E+00
 -1      1601 1.34862E+02 1.09375E+00 0.00000E+00
 -1      1602 1.33362E+02 1.09375E+00 0.00000E+00
 -1      1603 1.33224E+02 2.18750E+00 0.00000E+00
 -1      1604 1.37862E+02 1.09375E+00 0.00000E+00
 -1      1605 1.36362E+02 1.09375E+00 0.00000E+00
 -1      1606 1.36224E+02 2.18750E+00 0.00000E+00
 -1      1607 1.40862E+02 1.09375E+00 0.00000E+00
 -1      1608 1.39362E+02 1.09375E+00 0.00000E+00
 -1      1609 1.39224E+02 2.18750E+00 0.00000E+00
 -1      1610 1.43862E+02 1.09375E+00 0.00000E+00
 -1      1611 1.42362E+02 1.09375E+00 0.00000E+00
 -1      1612 1.42224E+02 2.18750E+00 0.00000E+00
 -1      1613 1.46862E+02 1.09375E+00 0.00000E+00
 -1      1614 1.45362E+02 1.09375E+00 0.00000E+00
 -1      1615 1.45224E+02 2.18750E+00 0.00000E+00
 -1      1616 1.48500E+02 1.47500E+00 0.00000E+00
 -1      1617 1.48701E+02 5.16250E+00 0.00000E+00
 -1      1618 1.48701E+02 3.68750E+00 0.00000E+00
 -1      1619 1.48701E+02 8.11250E+00 0.00000E+00
 -1      1620 1.48701E+02 6.63750E+00 0.00000E+00
 -1      1621 1.47402E+02 5.90000E+00 0.00000E+00
 -1      1622 1.48701E+02 1.10625E+01 0.00000E+00
 -1      1623 1.48701E+02 9.58750E+00 0.00000E+00
 -1      1624 1.47402E+02 8.85000E+00 0.00000E+00
 -1      1625 1.48701E+02 1.40125E+01 0.00000E+00
 -1      1626 1.48701E+02 1.25375E+01 0.00000E+00
 -1      1627 1.47402E+02 1.18000E+01 0.00000E+00
 -1      1628 1.48701E+02 1.69125E+01 0.00000E+00
 -1      1629 1.48701E+02 1.54625E+01 0.00000E+00
 -1      1630 1.47402E+02 1.47250E+01 0.00000E+00
 -1      1631 1.48701E+02 1.98625E+01 0.00000E+00
 -1      1632 1.48701E+02 1.83875E+01 0.00000E+00
 -1      1633 1.47402E+02 1.76500E+01 0.00000E+00
 -1      1634 1.48701E+02 2.28125E+01 0.00000E+00
 -1      1635 1.48701E+02 2.13375E+01 0.00000E+00
 -1      1636 1.47402E+02 2.06000E+01 0.00000E+00
 -1      1637 1.48701E+02 2.57625E+01 0.00000E+00
 -1      1638 1.48701E+02 2.42875E+01 0.00000E+00
 -1      1639 1.47402E+02 2.35500E+01 0.00000E+00
 -1      1640 1.48701E+02 2.87125E+01 0.00000E+00
 -1      1641 1.48701E+02 2.72375E+01 0.00000E+00
 -1      1642 1.47402E+02 2.65000E+01 0.00000E+00
 -1      1643 1.48701E+02 3.16625E+01 0.00000E+00
 -1      1644 1.48701E+02 3.01875E+01 0.00000E+00
 -1      1645 1.47402E+02 2.94500E+01 0.00000E+00
 -1      1646 1.48701E+02 3.45625E+01 0.00000E+00
 -1      1647 1.48701E+02 3.31125E+01 0.00000E+00
 -1      1648 1.47402E+02 3.23750E+01 0.00000E+00
 -1      1649 1.48701E+02 3.75125E+01 0.00000E+00
 -1      1650 1.48701E+02 3.60375E+01 0.00000E+00
 -1      1651 1.47402E+02 3.53000E+01 0.00000E+00
 -1      1652 1.48701E+02 4.04625E+01 0.00000E+00
 -1      1653 1.48701E+02 3.89875E+01 0.00000E+00
 -1      1654 1.47402E+02 3.82500E+01 0.00000E+00
 -1      1655 1.48701E+02 4.34125E+01 0.00000E+00
 -1      1656 1.48701E+02 4.19375E+01 0.00000E+00
 -1      1657 1.47402E+02 4.12000E+01 0.00000E+00
 -1      1658 1.48263E+02 4.60692E+01 0.00000E+00
 -1      1659 1.48263E+02 4.45942E+01 0.00000E+00
 -1      1660 1.46964E+02 4.38568E+01 0.00000E+00
 -1      1661 1.46088E+02 4.62202E+01 0.00000E+00
 -1      1662 4.06963E+01 1.38636E+01 0.00000E+00
 -1      1663 4.07716E+01 1.45853E+01 0.00000E+00
 -1      1664 4.03575E+01 1.22646E+01 0.00000E+00
 -1      1665 4.05924E+01 1.29832E+01 0.00000E+00
 -1      1666 3.95680E+01 1.08828E+01 0.00000E+00
 -1      1667 3.99259E+01 1.14991E+01 0.00000E+00
 -1      1668 3.85668E+01 9.64225E+00 0.00000E+00
 -1      1669 3.90621E+01 1.01914E+01 0.00000E+00
 -1      1670 3.73140E+01 8.62494E+00 0.00000E+00
 -1      1671 3.79160E+01 9.05905E+00 0.00000E+00
 -1      1672 3.57479E+01 7.72448E+00 0.00000E+00
 -1      1673 3.65375E+01 8.05459E+00 0.00000E+00
 -1      1674 3.41128E+01 7.49427E+00 0.00000E+00
 -1      1675 3.48099E+01 7.61548E+00 0.00000E+00
 -1      1676 3.25003E+01 7.38387E+00 0.00000E+00
 -1      1677 3.32565E+01 7.35556E+00 0.00000E+00
 -1      1678 3.08407E+01 7.67364E+00 0.00000E+00
 -1      1679 3.15885E+01 7.47759E+00 0.00000E+00
 -1      1680 2.92342E+01 8.34725E+00 0.00000E+00
 -1      1681 2.99409E+01 7.97822E+00 0.00000E+00
 -1      1682 2.78556E+01 9.38010E+00 0.00000E+00
 -1      1683 2.84432E+01 8.87923E+00 0.00000E+00
 -1      1684 2.68923E+01 1.06874E+01 0.00000E+00
 -1      1685 2.73296E+01 1.01135E+01 0.00000E+00
 -1      1686 2.61801E+01 1.20733E+01 0.00000E+00
 -1      1687 2.64882E+01 1.14283E+01 0.00000E+00
 -1      1688 2.56773E+01 1.36189E+01 0.00000E+00
 -1      1689 2.58542E+01 1.28774E+01 0.00000E+00
 -1      1690 2.55899E+01 1.52126E+01 0.00000E+00
 -1      1691 2.56054E+01 1.44888E+01 0.00000E+00
 -1      1692 2.56244E+01 1.67846E+01 0.00000E+00
 -1      1693 2.54932E+01 1.60811E+01 0.00000E+00
 -1      1694 2.62631E+01 1.82419E+01 0.00000E+00
 -1      1695 2.59886E+01 1.75745E+01 0.00000E+00
 -1      1696 2.70402E+01 1.96805E+01 0.00000E+00
 -1      1697 2.66110E+01 1.90559E+01 0.00000E+00
 -1      1698 2.82488E+01 2.08307E+01 0.00000E+00
 -1      1699 2.76932E+01 2.03115E+01 0.00000E+00
 -1      1700 2.95985E+01 2.16985E+01 0.00000E+00
 -1      1701 2.89717E+01 2.13243E+01 0.00000E+00
 -1      1702 3.11151E+01 2.23902E+01 0.00000E+00
 -1      1703 3.03745E+01 2.21431E+01 0.00000E+00
 -1      1704 3.27310E+01 2.26193E+01 0.00000E+00
 -1      1705 3.20008E+01 2.25422E+01 0.00000E+00
 -1      1706 3.42409E+01 2.25171E+01 0.00000E+00
 -1      1707 3.35624E+01 2.25835E+01 0.00000E+00
 -1      1708 3.57766E+01 2.22144E+01 0.00000E+00
 -1      1709 3.50755E+01 2.24313E+01 0.00000E+00
 -1      1710 3.70914E+01 2.14989E+01 0.00000E+00
 -1      1711 3.65065E+01 2.18187E+01 0.00000E+00
 -1      1712 3.83226E+01 2.06228E+01 0.00000E+00
 -1      1713 3.77803E+01 2.10769E+01 0.00000E+00
 -1      1714 3.92744E+01 1.95028E+01 0.00000E+00
 -1      1715 3.88582E+01 2.00201E+01 0.00000E+00
 -1      1716 4.00228E+01 1.82430E+01 0.00000E+00
 -1      1717 3.97052E+01 1.88455E+01 0.00000E+00
 -1      1718 4.05139E+01 1.68760E+01 0.00000E+00
 -1      1719 4.03218E+01 1.75145E+01 0.00000E+00
 -1      1720 4.07757E+01 1.54192E+01 0.00000E+00
 -1      1721 4.07082E+01 1.61036E+01 0.00000E+00
 -1      1722 3.86449E+01 8.89953E+00 0.00000E+00
 -1      1723 3.98015E+01 1.01741E+01 0.00000E+00
 -1      1724 1.48362E+02 2.56875E+00 0.00000E+00
 -1      1725 1.47063E+02 3.30625E+00 0.00000E+00
 -1      1726 4.12746E+01 1.32769E+01 0.00000E+00
 -1      1727 4.07390E+01 1.16310E+01 0.00000E+00
 -1      1728 4.13827E+01 1.49912E+01 0.00000E+00
 -1      1729 3.72176E+01 7.74598E+00 0.00000E+00
 -1      1730 3.55032E+01 7.06664E+00 0.00000E+00
 -1      1731 3.37089E+01 6.81892E+00 0.00000E+00
 -1      1732 3.19408E+01 6.77394E+00 0.00000E+00
 -1      1733 3.01292E+01 7.17225E+00 0.00000E+00
 -1      1734 2.84384E+01 8.00882E+00 0.00000E+00
 -1      1735 2.71215E+01 9.27422E+00 0.00000E+00
 -1      1736 2.61913E+01 1.07486E+01 0.00000E+00
 -1      1737 2.54612E+01 1.22936E+01 0.00000E+00
 -1      1738 2.50635E+01 1.39677E+01 0.00000E+00
 -1      1739 2.48949E+01 1.57062E+01 0.00000E+00
 -1      1740 2.51623E+01 1.73648E+01 0.00000E+00
 -1      1741 2.58744E+01 1.89687E+01 0.00000E+00
 -1      1742 2.68754E+01 2.04136E+01 0.00000E+00
 -1      1743 2.82514E+01 2.15382E+01 0.00000E+00
 -1      1744 2.97504E+01 2.24765E+01 0.00000E+00
 -1      1745 3.14122E+01 2.30732E+01 0.00000E+00
 -1      1746 3.31293E+01 2.31894E+01 0.00000E+00
 -1      1747 3.47953E+01 2.30678E+01 0.00000E+00
 -1      1748 3.63599E+01 2.25864E+01 0.00000E+00
 -1      1749 3.77787E+01 2.17687E+01 0.00000E+00
 -1      1750 3.90031E+01 2.07441E+01 0.00000E+00
 -1      1751 3.99695E+01 1.94842E+01 0.00000E+00
 -1      1752 4.06993E+01 1.80984E+01 0.00000E+00
 -1      1753 4.11926E+01 1.65975E+01 0.00000E+00
 -1      1754 2.87400E+00 4.77875E+01 0.00000E+00
 -1      1755 3.89700E+00 4.04125E+01 0.00000E+00
 -1      1756 3.89700E+00 4.18875E+01 0.00000E+00
 -1      1757 3.89700E+00 4.33625E+01 0.00000E+00
 -1      1758 3.89700E+00 4.48375E+01 0.00000E+00
 -1      1759 5.19600E+00 4.26250E+01 0.00000E+00
 -1      1760 3.89700E+00 3.45500E+01 0.00000E+00
 -1      1761 3.89700E+00 3.60000E+01 0.00000E+00
 -1      1762 3.89700E+00 3.16000E+01 0.00000E+00
 -1      1763 3.89700E+00 3.30750E+01 0.00000E+00
 -1      1764 5.19600E+00 3.38000E+01 0.00000E+00
 -1      1765 3.89700E+00 2.86500E+01 0.00000E+00
 -1      1766 3.89700E+00 3.01250E+01 0.00000E+00
 -1      1767 5.19600E+00 3.08500E+01 0.00000E+00
 -1      1768 3.89700E+00 2.57000E+01 0.00000E+00
 -1      1769 3.89700E+00 2.71750E+01 0.00000E+00
 -1      1770 5.19600E+00 2.79000E+01 0.00000E+00
 -1      1771 3.89700E+00 2.27500E+01 0.00000E+00
 -1      1772 3.89700E+00 2.42250E+01 0.00000E+00
 -1      1773 5.19600E+00 2.49500E+01 0.00000E+00
 -1      1774 3.89700E+00 1.98000E+01 0.00000E+00
 -1      1775 3.89700E+00 2.12750E+01 0.00000E+00
 -1      1776 5.19600E+00 2.20000E+01 0.00000E+00
 -1      1777 3.89700E+00 1.69000E+01 0.00000E+00
 -1      1778 3.89700E+00 1.83500E+01 0.00000E+00
 -1      1779 5.19600E+00 1.90750E+01 0.00000E+00
 -1      1780 3.89700E+00 1.39500E+01 0.00000E+00
 -1      1781 3.89700E+00 1.54250E+01 0.00000E+00
 -1      1782 5.19600E+00 1.61500E+01 0.00000E+00
 -1      1783 3.89700E+00 1.10000E+01 0.00000E+00
 -1      1784 3.89700E+00 1.24750E+01 0.00000E+00
 -1      1785 5.19600E+00 1.32000E+01 0.00000E+00
 -1      1786 3.89700E+00 8.05000E+00 0.00000E+00
 -1      1787 3.89700E+00 9.52500E+00 0.00000E+00
 -1      1788 5.19600E+00 1.02500E+01 0.00000E+00
 -1      1789 3.89700E+00 5.10000E+00 0.00000E+00
 -1      1790 3.89700E+00 6.57500E+00 0.00000E+00
 -1      1791 5.19600E+00 7.30000E+00 0.00000E+00
 -1      1792 4.20450E+00 3.09687E+00 0.00000E+00
 -1      1793 4.06650E+00 4.19063E+00 0.00000E+00
 -1      1794 5.36550E+00 4.91563E+00 0.00000E+00
 -1      1795 5.70450E+00 3.09687E+00 0.00000E+00
 -1      1796 3.62400E+00 4.64885E+01 0.00000E+00
 -1      1797 8.70450E+00 3.09687E+00 0.00000E+00
 -1      1798 7.20450E+00 3.09687E+00 0.00000E+00
 -1      1799 7.03500E+00 4.00625E+00 0.00000E+00
 -1      1800 4.92300E+00 4.57510E+01 0.00000E+00
 -1      1801 8.40000E+00 4.61030E+01 0.00000E+00
 -1      1802 9.90000E+00 4.61030E+01 0.00000E+00
 -1      1803 1.14000E+01 4.61030E+01 0.00000E+00
 -1      1804 1.29000E+01 4.61030E+01 0.00000E+00
 -1      1805 1.06500E+01 4.48040E+01 0.00000E+00
 -1      1806 1.44000E+01 4.61030E+01 0.00000E+00
 -1      1807 1.59000E+01 4.61030E+01 0.00000E+00
 -1      1808 1.36500E+01 4.48040E+01 0.00000E+00
 -1      1809 1.74000E+01 4.61030E+01 0.00000E+00
 -1      1810 1.89000E+01 4.61030E+01 0.00000E+00
 -1      1811 1.66500E+01 4.48040E+01 0.00000E+00
 -1      1812 2.04000E+01 4.61030E+01 0.00000E+00
 -1      1813 2.19000E+01 4.61030E+01 0.00000E+00
 -1      1814 1.96500E+01 4.48040E+01 0.00000E+00
 -1      1815 2.34000E+01 4.61030E+01 0.00000E+00
 -1      1816 2.49000E+01 4.61030E+01 0.00000E+00
 -1      1817 2.26500E+01 4.48040E+01 0.00000E+00
 -1      1818 2.64000E+01 4.61030E+01 0.00000E+00
 -1      1819 2.79000E+01 4.61030E+01 0.00000E+00
 -1      1820 2.56500E+01 4.48040E+01 0.00000E+00
 -1      1821 2.94000E+01 4.61030E+01 0.00000E+00
 -1      1822 3.09000E+01 4.61030E+01 0.00000E+00
 -1      1823 2.86500E+01 4.48040E+01 0.00000E+00
 -1      1824 3.24000E+01 4.61030E+01 0.00000E+00
 -1      1825 3.39000E+01 4.61030E+01 0.00000E+00
 -1      1826 3.16500E+01 4.48040E+01 0.00000E+00
 -1      1827 3.54000E+01 4.61030E+01 0.00000E+00
 -1      1828 3.69000E+01 4.61030E+01 0.00000E+00
 -1      1829 3.46500E+01 4.48040E+01 0.00000E+00
 -1      1830 3.84000E+01 4.61030E+01 0.00000E+00
 -1      1831 3.99000E+01 4.61030E+01 0.00000E+00
 -1      1832 3.76500E+01 4.48040E+01 0.00000E+00
 -1      1833 4.14000E+01 4.61030E+01 0.00000E+00
 -1      1834 4.29000E+01 4.61030E+01 0.00000E+00
 -1      1835 4.06500E+01 4.48040E+01 0.00000E+00
 -1      1836 4.44000E+01 4.61030E+01 0.00000E+00
 -1      1837 4.59000E+01 4.61030E+01 0.00000E+00
 -1      1838 4.36500E+01 4.48040E+01 0.00000E+00
 -1      1839 4.74000E+01 4.61030E+01 0.00000E+00
 -1      1840 4.89000E+01 4.61030E+01 0.00000E+00
 -1      1841 4.66500E+01 4.48040E+01 0.00000E+00
 -1      1842 5.04000E+01 4.61030E+01 0.00000E+00
 -1      1843 5.19000E+01 4.61030E+01 0.00000E+00
 -1      1844 4.96500E+01 4.48040E+01 0.00000E+00
 -1      1845 5.34000E+01 4.61030E+01 0.00000E+00
 -1      1846 5.49000E+01 4.61030E+01 0.00000E+00
 -1      1847 5.26500E+01 4.48040E+01 0.00000E+00
 -1      1848 5.64000E+01 4.61030E+01 0.00000E+00
 -1      1849 5.79000E+01 4.61030E+01 0.00000E+00
 -1      1850 5.56500E+01 4.48040E+01 0.00000E+00
 -1      1851 5.94000E+01 4.61030E+01 0.00000E+00
 -1      1852 6.09000E+01 4.61030E+01 0.00000E+00
 -1      1853 5.86500E+01 4.48040E+01 0.00000E+00
 -1      1854 6.24000E+01 4.61030E+01 0.00000E+00
 -1      1855 6.39000E+01 4.61030E+01 0.00000E+00
 -1      1856 6.16500E+01 4.48040E+01 0.00000E+00
 -1      1857 6.54000E+01 4.61030E+01 0.00000E+00
 -1      1858 6.69000E+01 4.61030E+01 0.00000E+00
 -1      1859 6.46500E+01 4.48040E+01 0.00000E+00
 -1      1860 6.84000E+01 4.61030E+01 0.00000E+00
 -1      1861 6.99000E+01 4.61030E+01 0.00000E+00
 -1      1862 6.76500E+01 4.48040E+01 0.00000E+00
 -1      1863 7.14000E+01 4.61030E+01 0.00000E+00
 -1      1864 7.29000E+01 4.61030E+01 0.00000E+00
 -1      1865 7.06500E+01 4.48040E+01 0.00000E+00
 -1      1866 7.44000E+01 4.61030E+01 0.00000E+00
 -1      1867 7.59000E+01 4.61030E+01 0.00000E+00
 -1      1868 7.36500E+01 4.48040E+01 0.00000E+00
 -1      1869 7.74000E+01 4.61030E+01 0.00000E+00
 -1      1870 7.89000E+01 4.61030E+01 0.00000E+00
 -1      1871 7.66500E+01 4.48040E+01 0.00000E+00
 -1      1872 8.04000E+01 4.61030E+01 0.00000E+00
 -1      1873 8.19000E+01 4.61030E+01 0.00000E+00
 -1      1874 7.96500E+01 4.48040E+01 0.00000E+00
 -1      1875 8.34000E+01 4.61030E+01 0.00000E+00
 -1      1876 8.49000E+01 4.61030E+01 0.00000E+00
 -1      1877 8.26500E+01 4.48040E+01 0.00000E+00
 -1      1878 8.64000E+01 4.61030E+01 0.00000E+00
 -1      1879 8.79000E+01 4.61030E+01 0.00000E+00
 -1      1880 8.56500E+01 4.48040E+01 0.00000E+00
 -1      1881 8.94000E+01 4.61030E+01 0.00000E+00
 -1      1882 9.09000E+01 4.61030E+01 0.00000E+00
 -1      1883 8.86500E+01 4.48040E+01 0.00000E+00
 -1      1884 9.24000E+01 4.61030E+01 0.00000E+00
 -1      1885 9.39000E+01 4.61030E+01 0.00000E+00
 -1      1886 9.16500E+01 4.48040E+01 0.00000E+00
 -1      1887 9.54000E+01 4.61030E+01 0.00000E+00
 -1      1888 9.69000E+01 4.61030E+01 0.00000E+00
 -1      1889 9.46500E+01 4.48040E+01 0.00000E+00
 -1      1890 9.84000E+01 4.61030E+01 0.00000E+00
 -1      1891 9.99000E+01 4.61030E+01 0.00000E+00
 -1      1892 9.76500E+01 4.48040E+01 0.00000E+00
 -1      1893 1.01400E+02 4.61030E+01 0.00000E+00
 -1      1894 1.02900E+02 4.61030E+01 0.00000E+00
 -1      1895 1.00650E+02 4.48040E+01 0.00000E+00
 -1      1896 1.04400E+02 4.61030E+01 0.00000E+00
 -1      1897 1.05900E+02 4.61030E+01 0.00000E+00
 -1      1898 1.03650E+02 4.48040E+01 0.00000E+00
 -1      1899 1.07400E+02 4.61030E+01 0.00000E+00
 -1      1900 1.08900E+02 4.61030E+01 0.00000E+00
 -1      1901 1.06650E+02 4.48040E+01 0.00000E+00
 -1      1902 1.10400E+02 4.61030E+01 0.00000E+00
 -1      1903 1.11900E+02 4.61030E+01 0.00000E+00
 -1      1904 1.09650E+02 4.48040E+01 0.00000E+00
 -1      1905 1.13400E+02 4.61030E+01 0.00000E+00
 -1      1906 1.14900E+02 4.61030E+01 0.00000E+00
 -1      1907 1.12650E+02 4.48040E+01 0.00000E+00
 -1      1908 1.16400E+02 4.61030E+01 0.00000E+00
 -1      1909 1.17900E+02 4.61030E+01 0.00000E+00
 -1      1910 1.15650E+02 4.48040E+01 0.00000E+00
 -1      1911 1.19400E+02 4.61030E+01 0.00000E+00
 -1      1912 1.20900E+02 4.61030E+01 0.00000E+00
 -1      1913 1.18650E+02 4.48040E+01 0.00000E+00
 -1      1914 1.22400E+02 4.61030E+01 0.00000E+00
 -1      1915 1.23900E+02 4.61030E+01 0.00000E+00
 -1      1916 1.21650E+02 4.48040E+01 0.00000E+00
 -1      1917 1.25400E+02 4.61030E+01 0.00000E+00
 -1      1918 1.26900E+02 4.61030E+01 0.00000E+00
 -1      1919 1.24650E+02 4.48040E+01 0.00000E+00
 -1      1920 1.28400E+02 4.61030E+01 0.00000E+00
 -1      1921 1.29900E+02 4.61030E+01 0.00000E+00
 -1      1922 1.27650E+02 4.48040E+01 0.00000E+00
 -1      1923 1.31400E+02 4.61030E+01 0.00000E+00
 -1      1924 1.32900E+02 4.61030E+01 0.00000E+00
 -1      1925 1.30650E+02 4.48040E+01 0.00000E+00
 -1      1926 1.34400E+02 4.61030E+01 0.00000E+00
 -1      1927 1.35900E+02 4.61030E+01 0.00000E+00
 -1      1928 1.33650E+02 4.48040E+01 0.00000E+00
 -1      1929 1.37400E+02 4.61030E+01 0.00000E+00
 -1      1930 1.38900E+02 4.61030E+01 0.00000E+00
 -1      1931 1.36650E+02 4.48040E+01 0.00000E+00
 -1      1932 1.40400E+02 4.61030E+01 0.00000E+00
 -1      1933 1.41900E+02 4.61030E+01 0.00000E+00
 -1      1934 1.39650E+02 4.48040E+01 0.00000E+00
 -1      1935 1.43244E+02 4.61616E+01 0.00000E+00
 -1      1936 1.44744E+02 4.61616E+01 0.00000E+00
 -1      1937 1.45182E+02 4.49799E+01 0.00000E+00
 -1      1938 1.42494E+02 4.48626E+01 0.00000E+00
 -1      1939 1.17045E+01 3.09687E+00 0.00000E+00
 -1      1940 1.02045E+01 3.09687E+00 0.00000E+00
 -1      1941 1.00350E+01 4.00625E+00 0.00000E+00
 -1      1942 1.47045E+01 3.09687E+00 0.00000E+00
 -1      1943 1.32045E+01 3.09687E+00 0.00000E+00
 -1      1944 1.30350E+01 4.00625E+00 0.00000E+00
 -1      1945 1.77045E+01 3.09687E+00 0.00000E+00
 -1      1946 1.62045E+01 3.09687E+00 0.00000E+00
 -1      1947 1.60350E+01 4.00625E+00 0.00000E+00
 -1      1948 2.07045E+01 3.09687E+00 0.00000E+00
 -1      1949 1.92045E+01 3.09687E+00 0.00000E+00
 -1      1950 1.90350E+01 4.00625E+00 0.00000E+00
 -1      1951 2.38545E+01 3.09687E+00 0.00000E+00
 -1      1952 2.22795E+01 3.09687E+00 0.00000E+00
 -1      1953 2.21100E+01 4.00625E+00 0.00000E+00
 -1      1954 2.68545E+01 3.09687E+00 0.00000E+00
 -1      1955 2.53545E+01 3.09687E+00 0.00000E+00
 -1      1956 2.51850E+01 4.00625E+00 0.00000E+00
 -1      1957 2.95545E+01 3.09687E+00 0.00000E+00
 -1      1958 2.82045E+01 3.09687E+00 0.00000E+00
 -1      1959 2.80350E+01 4.00625E+00 0.00000E+00
 -1      1960 3.22545E+01 3.09687E+00 0.00000E+00
 -1      1961 3.09045E+01 3.09687E+00 0.00000E+00
 -1      1962 3.07350E+01 4.00625E+00 0.00000E+00
 -1      1963 3.49545E+01 3.09687E+00 0.00000E+00
 -1      1964 3.36045E+01 3.09687E+00 0.00000E+00
 -1      1965 3.34350E+01 4.00625E+00 0.00000E+00
 -1      1966 3.79545E+01 3.09687E+00 0.00000E+00
 -1      1967 3.64545E+01 3.09687E+00 0.00000E+00
 -1      1968 3.62850E+01 4.00625E+00 0.00000E+00
 -1      1969 4.09545E+01 3.09687E+00 0.00000E+00
 -1      1970 3.94545E+01 3.09687E+00 0.00000E+00
 -1      1971 3.92850E+01 4.00625E+00 0.00000E+00
 -1      1972 4.39545E+01 3.09687E+00 0.00000E+00
 -1      1973 4.24545E+01 3.09687E+00 0.00000E+00
 -1      1974 4.22850E+01 4.00625E+00 0.00000E+00
 -1      1975 4.69545E+01 3.09687E+00 0.00000E+00
 -1      1976 4.54545E+01 3.09687E+00 0.00000E+00
 -1      1977 4.52850E+01 4.00625E+00 0.00000E+00
 -1      1978 4.99545E+01 3.09687E+00 0.00000E+00
 -1      1979 4.84545E+01 3.09687E+00 0.00000E+00
 -1      1980 4.82850E+01 4.00625E+00 0.00000E+00
 -1      1981 5.29545E+01 3.09687E+00 0.00000E+00
 -1      1982 5.14545E+01 3.09687E+00 0.00000E+00
 -1      1983 5.12850E+01 4.00625E+00 0.00000E+00
 -1      1984 5.59545E+01 3.09687E+00 0.00000E+00
 -1      1985 5.44545E+01 3.09687E+00 0.00000E+00
 -1      1986 5.42850E+01 4.00625E+00 0.00000E+00
 -1      1987 5.91045E+01 3.09687E+00 0.00000E+00
 -1      1988 5.75295E+01 3.09687E+00 0.00000E+00
 -1      1989 5.73600E+01 4.00625E+00 0.00000E+00
 -1      1990 6.21045E+01 3.09687E+00 0.00000E+00
 -1      1991 6.06045E+01 3.09687E+00 0.00000E+00
 -1      1992 6.04350E+01 4.00625E+00 0.00000E+00
 -1      1993 6.51045E+01 3.09687E+00 0.00000E+00
 -1      1994 6.36045E+01 3.09687E+00 0.00000E+00
 -1      1995 6.34350E+01 4.00625E+00 0.00000E+00
 -1      1996 6.81045E+01 3.09687E+00 0.00000E+00
 -1      1997 6.66045E+01 3.09687E+00 0.00000E+00
 -1      1998 6.64350E+01 4.00625E+00 0.00000E+00
 -1      1999 7.11045E+01 3.09687E+00 0.00000E+00
 -1      2000 6.96045E+01 3.09687E+00 0.00000E+00
 -1      2001 6.94350E+01 4.00625E+00 0.00000E+00
 -1      2002 7.41045E+01 3.09687E+00 0.00000E+00
 -1      2003 7.26045E+01 3.09687E+00 0.00000E+00
 -1      2004 7.24350E+01 4.00625E+00 0.00000E+00
 -1      2005 7.71045E+01 3.09687E+00 0.00000E+00
 -1      2006 7.56045E+01 3.09687E+00 0.00000E+00
 -1      2007 7.54350E+01 4.00625E+00 0.00000E+00
 -1      2008 8.01045E+01 3.09687E+00 0.00000E+00
 -1      2009 7.86045E+01 3.09687E+00 0.00000E+00
 -1      2010 7.84350E+01 4.00625E+00 0.00000E+00
 -1      2011 8.32545E+01 3.09687E+00 0.00000E+00
 -1      2012 8.16795E+01 3.09687E+00 0.00000E+00
 -1      2013 8.15100E+01 4.00625E+00 0.00000E+00
 -1      2014 8.62545E+01 3.09687E+00 0.00000E+00
 -1      2015 8.47545E+01 3.09687E+00 0.00000E+00
 -1      2016 8.45850E+01 4.00625E+00 0.00000E+00
 -1      2017 8.92545E+01 3.09687E+00 0.00000E+00
 -1      2018 8.77545E+01 3.09687E+00 0.00000E+00
 -1      2019 8.75850E+01 4.00625E+00 0.00000E+00
 -1      2020 9.22545E+01 3.09687E+00 0.00000E+00
 -1      2021 9.07545E+01 3.09687E+00 0.00000E+00
 -1      2022 9.05850E+01 4.00625E+00 0.00000E+00
 -1      2023 9.52545E+01 3.09687E+00 0.00000E+00
 -1      2024 9.37545E+01 3.09687E+00 0.00000E+00
 -1      2025 9.35850E+01 4.00625E+00 0.00000E+00
 -1      2026 9.82545E+01 3.09687E+00 0.00000E+00
 -1      2027 9.67545E+01 3.09687E+00 0.00000E+00
 -1      2028 9.65850E+01 4.00625E+00 0.00000E+00
 -1      2029 1.01255E+02 3.09687E+00 0.00000E+00
 -1      2030 9.97545E+01 3.09687E+00 0.00000E+00
 -1      2031 9.95850E+01 4.00625E+00 0.00000E+00
 -1      2032 1.04405E+02 3.09687E+00 0.00000E+00
 -1      2033 1.02829E+02 3.09687E+00 0.00000E+00
 -1      2034 1.02660E+02 4.00625E+00 0.00000E+00
 -1      2035 1.07405E+02 3.09687E+00 0.00000E+00
 -1      2036 1.05905E+02 3.09687E+00 0.00000E+00
 -1      2037 1.05735E+02 4.00625E+00 0.00000E+00
 -1      2038 1.10405E+02 3.09687E+00 0.00000E+00
 -1      2039 1.08905E+02 3.09687E+00 0.00000E+00
 -1      2040 1.08735E+02 4.00625E+00 0.00000E+00
 -1      2041 1.13405E+02 3.09687E+00 0.00000E+00
 -1      2042 1.11905E+02 3.09687E+00 0.00000E+00
 -1      2043 1.11735E+02 4.00625E+00 0.00000E+00
 -1      2044 1.16405E+02 3.09687E+00 0.00000E+00
 -1      2045 1.14905E+02 3.09687E+00 0.00000E+00
 -1      2046 1.14735E+02 4.00625E+00 0.00000E+00
 -1      2047 1.19405E+02 3.09687E+00 0.00000E+00
 -1      2048 1.17905E+02 3.09687E+00 0.00000E+00
 -1      2049 1.17735E+02 4.00625E+00 0.00000E+00
 -1      2050 1.22405E+02 3.09687E+00 0.00000E+00
 -1      2051 1.20905E+02 3.09687E+00 0.00000E+00
 -1      2052 1.20735E+02 4.00625E+00 0.00000E+00
 -1      2053 1.25405E+02 3.09687E+00 0.00000E+00
 -1      2054 1.23905E+02 3.09687E+00 0.00000E+00
 -1      2055 1.23735E+02 4.00625E+00 0.00000E+00
 -1      2056 1.28555E+02 3.09687E+00 0.00000E+00
 -1      2057 1.26979E+02 3.09687E+00 0.00000E+00
 -1      2058 1.26810E+02 4.00625E+00 0.00000E+00
 -1      2059 1.31555E+02 3.09687E+00 0.00000E+00
 -1      2060 1.30055E+02 3.09687E+00 0.00000E+00
 -1      2061 1.29885E+02 4.00625E+00 0.00000E+00
 -1      2062 1.34555E+02 3.09687E+00 0.00000E+00
 -1      2063 1.33055E+02 3.09687E+00 0.00000E+00
 -1      2064 1.32885E+02 4.00625E+00 0.00000E+00
 -1      2065 1.37555E+02 3.09687E+00 0.00000E+00
 -1      2066 1.36055E+02 3.09687E+00 0.00000E+00
 -1      2067 1.35885E+02 4.00625E+00 0.00000E+00
 -1      2068 1.40555E+02 3.09687E+00 0.00000E+00
 -1      2069 1.39055E+02 3.09687E+00 0.00000E+00
 -1      2070 1.38885E+02 4.00625E+00 0.00000E+00
 -1      2071 1.43555E+02 3.09687E+00 0.00000E+00
 -1      2072 1.42055E+02 3.09687E+00 0.00000E+00
 -1      2073 1.41885E+02 4.00625E+00 0.00000E+00
 -1      2074 1.46059E+02 3.20156E+00 0.00000E+00
 -1      2075 1.44559E+02 3.20156E+00 0.00000E+00
 -1      2076 1.44389E+02 4.11094E+00 0.00000E+00
 -1      2077 1.46398E+02 4.32031E+00 0.00000E+00
 -1      2078 1.46103E+02 1.25375E+01 0.00000E+00
 -1      2079 1.46103E+02 1.10625E+01 0.00000E+00
 -1      2080 1.46103E+02 9.58750E+00 0.00000E+00
 -1      2081 1.46103E+02 8.11250E+00 0.00000E+00
 -1      2082 1.44804E+02 1.03250E+01 0.00000E+00
 -1      2083 1.46250E+02 6.95391E+00 0.00000E+00
 -1      2084 1.46250E+02 5.47891E+00 0.00000E+00
 -1      2085 1.45246E+02 5.37422E+00 0.00000E+00
 -1      2086 1.44951E+02 7.69141E+00 0.00000E+00
 -1      2087 1.46103E+02 1.54375E+01 0.00000E+00
 -1      2088 1.46103E+02 1.39875E+01 0.00000E+00
 -1      2089 1.44804E+02 1.32500E+01 0.00000E+00
 -1      2090 1.46103E+02 1.83875E+01 0.00000E+00
 -1      2091 1.46103E+02 1.69125E+01 0.00000E+00
 -1      2092 1.44804E+02 1.61750E+01 0.00000E+00
 -1      2093 1.46103E+02 2.13375E+01 0.00000E+00
 -1      2094 1.46103E+02 1.98625E+01 0.00000E+00
 -1      2095 1.44804E+02 1.91250E+01 0.00000E+00
 -1      2096 1.46103E+02 2.42875E+01 0.00000E+00
 -1      2097 1.46103E+02 2.28125E+01 0.00000E+00
 -1      2098 1.44804E+02 2.20750E+01 0.00000E+00
 -1      2099 1.46103E+02 2.72375E+01 0.00000E+00
 -1      2100 1.46103E+02 2.57625E+01 0.00000E+00
 -1      2101 1.44804E+02 2.50250E+01 0.00000E+00
 -1      2102 1.46103E+02 3.01875E+01 0.00000E+00
 -1      2103 1.46103E+02 2.87125E+01 0.00000E+00
 -1      2104 1.44804E+02 2.79750E+01 0.00000E+00
 -1      2105 1.46103E+02 3.30875E+01 0.00000E+00
 -1      2106 1.46103E+02 3.16375E+01 0.00000E+00
 -1      2107 1.44804E+02 3.09000E+01 0.00000E+00
 -1      2108 1.46103E+02 3.60375E+01 0.00000E+00
 -1      2109 1.46103E+02 3.45625E+01 0.00000E+00
 -1      2110 1.44804E+02 3.38250E+01 0.00000E+00
 -1      2111 1.46103E+02 3.89875E+01 0.00000E+00
 -1      2112 1.46103E+02 3.75125E+01 0.00000E+00
 -1      2113 1.44804E+02 3.67750E+01 0.00000E+00
 -1      2114 1.46103E+02 4.19375E+01 0.00000E+00
 -1      2115 1.46103E+02 4.04625E+01 0.00000E+00
 -1      2116 1.44804E+02 3.97250E+01 0.00000E+00
 -1      2117 4.10877E+01 1.09300E+01 0.00000E+00
 -1      2118 4.15193E+01 1.16955E+01 0.00000E+00
 -1      2119 4.21125E+01 1.45705E+01 0.00000E+00
 -1      2120 4.21167E+01 1.54044E+01 0.00000E+00
 -1      2121 4.19045E+01 1.28098E+01 0.00000E+00
 -1      2122 4.20085E+01 1.36902E+01 0.00000E+00
 -1      2123 4.27425E+01 1.41035E+01 0.00000E+00
 -1      2124 4.01055E+01 9.42100E+00 0.00000E+00
 -1      2125 4.06113E+01 1.01124E+01 0.00000E+00
 -1      2126 3.87799E+01 8.09407E+00 0.00000E+00
 -1      2127 3.94307E+01 8.67727E+00 0.00000E+00
 -1      2128 3.89700E+00 3.74688E+01 0.00000E+00
 -1      2129 3.89700E+00 3.89437E+01 0.00000E+00
 -1      2130 5.19600E+00 3.96813E+01 0.00000E+00
 -1      2131 5.19600E+00 3.67438E+01 0.00000E+00
 -1      2132 3.51284E+01 6.20193E+00 0.00000E+00
 -1      2133 3.60663E+01 6.31093E+00 0.00000E+00
 -1      2134 3.14144E+01 6.13443E+00 0.00000E+00
 -1      2135 3.23261E+01 6.04071E+00 0.00000E+00
 -1      2136 2.94581E+01 6.67099E+00 0.00000E+00
 -1      2137 3.03579E+01 6.36640E+00 0.00000E+00
 -1      2138 2.76579E+01 7.70226E+00 0.00000E+00
 -1      2139 2.84489E+01 7.17028E+00 0.00000E+00
 -1      2140 2.61957E+01 9.16558E+00 0.00000E+00
 -1      2141 2.67216E+01 8.43216E+00 0.00000E+00
 -1      2142 2.53467E+01 1.07686E+01 0.00000E+00
 -1      2143 2.57509E+01 1.00276E+01 0.00000E+00
 -1      2144 2.45812E+01 1.24051E+01 0.00000E+00
 -1      2145 2.49071E+01 1.16010E+01 0.00000E+00
 -1      2146 2.42564E+01 1.43390E+01 0.00000E+00
 -1      2147 2.43283E+01 1.34690E+01 0.00000E+00
 -1      2148 2.40630E+01 1.60761E+01 0.00000E+00
 -1      2149 2.41597E+01 1.52075E+01 0.00000E+00
 -1      2150 2.34245E+01 1.47088E+01 0.00000E+00
 -1      2151 2.46797E+01 1.80662E+01 0.00000E+00
 -1      2152 2.43156E+01 1.72762E+01 0.00000E+00
 -1      2153 2.53756E+01 1.96940E+01 0.00000E+00
 -1      2154 2.50277E+01 1.88801E+01 0.00000E+00
 -1      2155 2.41809E+01 1.87915E+01 0.00000E+00
 -1      2156 2.66643E+01 2.12856E+01 0.00000E+00
 -1      2157 2.60113E+01 2.06546E+01 0.00000E+00
 -1      2158 2.82002E+01 2.23895E+01 0.00000E+00
 -1      2159 2.74773E+01 2.18958E+01 0.00000E+00
 -1      2160 2.97523E+01 2.32788E+01 0.00000E+00
 -1      2161 2.89762E+01 2.28341E+01 0.00000E+00
 -1      2162 2.82021E+01 2.31917E+01 0.00000E+00
 -1      2163 3.17171E+01 2.39532E+01 0.00000E+00
 -1      2164 3.08313E+01 2.38011E+01 0.00000E+00
 -1      2165 3.35765E+01 2.39027E+01 0.00000E+00
 -1      2166 3.27451E+01 2.39386E+01 0.00000E+00
 -1      2167 3.52458E+01 2.37312E+01 0.00000E+00
 -1      2168 3.44111E+01 2.38169E+01 0.00000E+00
 -1      2169 3.40270E+01 2.45661E+01 0.00000E+00
 -1      2170 3.70936E+01 2.30687E+01 0.00000E+00
 -1      2171 3.63637E+01 2.34644E+01 0.00000E+00
 -1      2172 3.84713E+01 2.22248E+01 0.00000E+00
 -1      2173 3.77825E+01 2.26468E+01 0.00000E+00
 -1      2174 3.77863E+01 2.35249E+01 0.00000E+00
 -1      2175 3.99119E+01 2.10124E+01 0.00000E+00
 -1      2176 3.93763E+01 2.16151E+01 0.00000E+00
 -1      2177 4.07735E+01 1.96979E+01 0.00000E+00
 -1      2178 4.03427E+01 2.03551E+01 0.00000E+00
 -1      2179 4.07159E+01 2.12261E+01 0.00000E+00
 -1      2180 4.15259E+01 1.80121E+01 0.00000E+00
 -1      2181 4.12269E+01 1.87406E+01 0.00000E+00
 -1      2182 4.19183E+01 1.63694E+01 0.00000E+00
 -1      2183 4.17240E+01 1.71418E+01 0.00000E+00
 -1      2184 3.72875E+01 6.83721E+00 0.00000E+00
 -1      2185 3.80639E+01 7.40755E+00 0.00000E+00
 -1      2186 3.88498E+01 7.18529E+00 0.00000E+00
 -1      2187 6.42300E+00 4.57510E+01 0.00000E+00
 -1      2188 3.69126E+01 5.97250E+00 0.00000E+00
 -1      2189 7.17300E+00 4.44520E+01 0.00000E+00
 -1      2190 4.22533E+01 1.21088E+01 0.00000E+00
 -1      2191 4.29872E+01 1.25221E+01 0.00000E+00
 -1      2192 4.26020E+01 1.14077E+01 0.00000E+00
 -1      2193 4.13917E+01 1.01769E+01 0.00000E+00
 -1      2194 1.45665E+02 4.31193E+01 0.00000E+00
 -1      2195 4.26481E+01 1.59487E+01 0.00000E+00
 -1      2196 4.02405E+01 8.61554E+00 0.00000E+00
 -1      2197 4.16001E+01 1.96115E+01 0.00000E+00
 -1      2198 3.93801E+01 2.24931E+01 0.00000E+00
 -1      2199 3.59796E+01 2.42136E+01 0.00000E+00
 -1      2200 3.00572E+01 2.41587E+01 0.00000E+00
 -1      2201 2.51645E+01 2.05660E+01 0.00000E+00
 -1      2202 2.35804E+01 1.67775E+01 0.00000E+00
 -1      2203 2.37741E+01 1.27763E+01 0.00000E+00
 -1      2204 2.44667E+01 1.08800E+01 0.00000E+00
 -1      2205 2.53511E+01 9.18556E+00 0.00000E+00
 -1      2206 2.67321E+01 7.59362E+00 0.00000E+00
 -1      2207 2.86775E+01 6.36443E+00 0.00000E+00
 -1      2208 3.07432E+01 5.63317E+00 0.00000E+00
 -1      2209 3.26560E+01 5.53991E+00 0.00000E+00
 -1      2210 3.31825E+01 6.17942E+00 0.00000E+00
 -1      2211 3.40388E+01 6.31813E+00 0.00000E+00
 -1      2212 3.46019E+01 5.56242E+00 0.00000E+00
 -1      2213 2.66131E+01 2.21368E+01 0.00000E+00
 -1      2214 3.21642E+01 2.46664E+01 0.00000E+00
 -1      2215 4.22515E+01 1.77839E+01 0.00000E+00
 -1      2216 1.07850E+01 5.30525E+00 0.00000E+00
 -1      2217 9.28500E+00 5.30525E+00 0.00000E+00
 -1      2218 6.49500E+00 3.01125E+01 0.00000E+00
 -1      2219 6.49500E+00 3.15875E+01 0.00000E+00
 -1      2220 6.49500E+00 3.30625E+01 0.00000E+00
 -1      2221 6.49500E+00 3.45375E+01 0.00000E+00
 -1      2222 7.79400E+00 3.23250E+01 0.00000E+00
 -1      2223 6.49500E+00 2.42125E+01 0.00000E+00
 -1      2224 6.49500E+00 2.56875E+01 0.00000E+00
 -1      2225 6.49500E+00 2.12625E+01 0.00000E+00
 -1      2226 6.49500E+00 2.27375E+01 0.00000E+00
 -1      2227 7.79400E+00 2.34750E+01 0.00000E+00
 -1      2228 6.49500E+00 1.83625E+01 0.00000E+00
 -1      2229 6.49500E+00 1.98125E+01 0.00000E+00
 -1      2230 7.79400E+00 2.05500E+01 0.00000E+00
 -1      2231 6.49500E+00 1.54125E+01 0.00000E+00
 -1      2232 6.49500E+00 1.68875E+01 0.00000E+00
 -1      2233 7.79400E+00 1.76250E+01 0.00000E+00
 -1      2234 6.49500E+00 1.24625E+01 0.00000E+00
 -1      2235 6.49500E+00 1.39375E+01 0.00000E+00
 -1      2236 7.79400E+00 1.46750E+01 0.00000E+00
 -1      2237 6.49500E+00 9.51250E+00 0.00000E+00
 -1      2238 6.49500E+00 1.09875E+01 0.00000E+00
 -1      2239 7.79400E+00 1.17250E+01 0.00000E+00
 -1      2240 1.37850E+01 5.30525E+00 0.00000E+00
 -1      2241 1.22850E+01 5.30525E+00 0.00000E+00
 -1      2242 1.15350E+01 6.60425E+00 0.00000E+00
 -1      2243 9.90000E+00 4.35050E+01 0.00000E+00
 -1      2244 1.14000E+01 4.35050E+01 0.00000E+00
 -1      2245 1.29000E+01 4.35050E+01 0.00000E+00
 -1      2246 1.44000E+01 4.35050E+01 0.00000E+00
 -1      2247 1.21500E+01 4.22060E+01 0.00000E+00
 -1      2248 1.59000E+01 4.35050E+01 0.00000E+00
 -1      2249 1.74000E+01 4.35050E+01 0.00000E+00
 -1      2250 1.51500E+01 4.22060E+01 0.00000E+00
 -1      2251 1.89000E+01 4.35050E+01 0.00000E+00
 -1      2252 2.04000E+01 4.35050E+01 0.00000E+00
 -1      2253 1.81500E+01 4.22060E+01 0.00000E+00
 -1      2254 2.19000E+01 4.35050E+01 0.00000E+00
 -1      2255 2.34000E+01 4.35050E+01 0.00000E+00
 -1      2256 2.11500E+01 4.22060E+01 0.00000E+00
 -1      2257 2.49000E+01 4.35050E+01 0.00000E+00
 -1      2258 2.64000E+01 4.35050E+01 0.00000E+00
 -1      2259 2.41500E+01 4.22060E+01 0.00000E+00
 -1      2260 2.79000E+01 4.35050E+01 0.00000E+00
 -1      2261 2.94000E+01 4.35050E+01 0.00000E+00
 -1      2262 2.71500E+01 4.22060E+01 0.00000E+00
 -1      2263 3.09000E+01 4.35050E+01 0.00000E+00
 -1      2264 3.24000E+01 4.35050E+01 0.00000E+00
 -1      2265 3.01500E+01 4.22060E+01 0.00000E+00
 -1      2266 3.39000E+01 4.35050E+01 0.00000E+00
 -1      2267 3.54000E+01 4.35050E+01 0.00000E+00
 -1      2268 3.31500E+01 4.22060E+01 0.00000E+00
 -1      2269 3.69000E+01 4.35050E+01 0.00000E+00
 -1      2270 3.84000E+01 4.35050E+01 0.00000E+00
 -1      2271 3.61500E+01 4.22060E+01 0.00000E+00
 -1      2272 3.99000E+01 4.35050E+01 0.00000E+00
 -1      2273 4.14000E+01 4.35050E+01 0.00000E+00
 -1      2274 3.91500E+01 4.22060E+01 0.00000E+00
 -1      2275 4.29000E+01 4.35050E+01 0.00000E+00
 -1      2276 4.44000E+01 4.35050E+01 0.00000E+00
 -1      2277 4.21500E+01 4.22060E+01 0.00000E+00
 -1      2278 4.59000E+01 4.35050E+01 0.00000E+00
 -1      2279 4.74000E+01 4.35050E+01 0.00000E+00
 -1      2280 4.51500E+01 4.22060E+01 0.00000E+00
 -1      2281 4.89000E+01 4.35050E+01 0.00000E+00
 -1      2282 5.04000E+01 4.35050E+01 0.00000E+00
 -1      2283 4.81500E+01 4.22060E+01 0.00000E+00
 -1      2284 5.19000E+01 4.35050E+01 0.00000E+00
 -1      2285 5.34000E+01 4.35050E+01 0.00000E+00
 -1      2286 5.11500E+01 4.22060E+01 0.00000E+00
 -1      2287 5.49000E+01 4.35050E+01 0.00000E+00
 -1      2288 5.64000E+01 4.35050E+01 0.00000E+00
 -1      2289 5.41500E+01 4.22060E+01 0.00000E+00
 -1      2290 5.79000E+01 4.35050E+01 0.00000E+00
 -1      2291 5.94000E+01 4.35050E+01 0.00000E+00
 -1      2292 5.71500E+01 4.22060E+01 0.00000E+00
 -1      2293 6.09000E+01 4.35050E+01 0.00000E+00
 -1      2294 6.24000E+01 4.35050E+01 0.00000E+00
 -1      2295 6.01500E+01 4.22060E+01 0.00000E+00
 -1      2296 6.39000E+01 4.35050E+01 0.00000E+00
 -1      2297 6.54000E+01 4.35050E+01 0.00000E+00
 -1      2298 6.31500E+01 4.22060E+01 0.00000E+00
 -1      2299 6.69000E+01 4.35050E+01 0.00000E+00
 -1      2300 6.84000E+01 4.35050E+01 0.00000E+00
 -1      2301 6.61500E+01 4.22060E+01 0.00000E+00
 -1      2302 6.99000E+01 4.35050E+01 0.00000E+00
 -1      2303 7.14000E+01 4.35050E+01 0.00000E+00
 -1      2304 6.91500E+01 4.22060E+01 0.00000E+00
 -1      2305 7.29000E+01 4.35050E+01 0.00000E+00
 -1      2306 7.44000E+01 4.35050E+01 0.00000E+00
 -1      2307 7.21500E+01 4.22060E+01 0.00000E+00
 -1      2308 7.59000E+01 4.35050E+01 0.00000E+00
 -1      2309 7.74000E+01 4.35050E+01 0.00000E+00
 -1      2310 7.51500E+01 4.22060E+01 0.00000E+00
 -1      2311 7.89000E+01 4.35050E+01 0.00000E+00
 -1      2312 8.04000E+01 4.35050E+01 0.00000E+00
 -1      2313 7.81500E+01 4.22060E+01 0.00000E+00
 -1      2314 8.19000E+01 4.35050E+01 0.00000E+00
 -1      2315 8.34000E+01 4.35050E+01 0.00000E+00
 -1      2316 8.11500E+01 4.22060E+01 0.00000E+00
 -1      2317 8.49000E+01 4.35050E+01 0.00000E+00
 -1      2318 8.64000E+01 4.35050E+01 0.00000E+00
 -1      2319 8.41500E+01 4.22060E+01 0.00000E+00
 -1      2320 8.79000E+01 4.35050E+01 0.00000E+00
 -1      2321 8.94000E+01 4.35050E+01 0.00000E+00
 -1      2322 8.71500E+01 4.22060E+01 0.00000E+00
 -1      2323 9.09000E+01 4.35050E+01 0.00000E+00
 -1      2324 9.24000E+01 4.35050E+01 0.00000E+00
 -1      2325 9.01500E+01 4.22060E+01 0.00000E+00
 -1      2326 9.39000E+01 4.35050E+01 0.00000E+00
 -1      2327 9.54000E+01 4.35050E+01 0.00000E+00
 -1      2328 9.31500E+01 4.22060E+01 0.00000E+00
 -1      2329 9.69000E+01 4.35050E+01 0.00000E+00
 -1      2330 9.84000E+01 4.35050E+01 0.00000E+00
 -1      2331 9.61500E+01 4.22060E+01 0.00000E+00
 -1      2332 9.99000E+01 4.35050E+01 0.00000E+00
 -1      2333 1.01400E+02 4.35050E+01 0.00000E+00
 -1      2334 9.91500E+01 4.22060E+01 0.00000E+00
 -1      2335 1.02900E+02 4.35050E+01 0.00000E+00
 -1      2336 1.04400E+02 4.35050E+01 0.00000E+00
 -1      2337 1.02150E+02 4.22060E+01 0.00000E+00
 -1      2338 1.05900E+02 4.35050E+01 0.00000E+00
 -1      2339 1.07400E+02 4.35050E+01 0.00000E+00
 -1      2340 1.05150E+02 4.22060E+01 0.00000E+00
 -1      2341 1.08900E+02 4.35050E+01 0.00000E+00
 -1      2342 1.10400E+02 4.35050E+01 0.00000E+00
 -1      2343 1.08150E+02 4.22060E+01 0.00000E+00
 -1      2344 1.11900E+02 4.35050E+01 0.00000E+00
 -1      2345 1.13400E+02 4.35050E+01 0.00000E+00
 -1      2346 1.11150E+02 4.22060E+01 0.00000E+00
 -1      2347 1.14900E+02 4.35050E+01 0.00000E+00
 -1      2348 1.16400E+02 4.35050E+01 0.00000E+00
 -1      2349 1.14150E+02 4.22060E+01 0.00000E+00
 -1      2350 1.17900E+02 4.35050E+01 0.00000E+00
 -1      2351 1.19400E+02 4.35050E+01 0.00000E+00
 -1      2352 1.17150E+02 4.22060E+01 0.00000E+00
 -1      2353 1.20900E+02 4.35050E+01 0.00000E+00
 -1      2354 1.22400E+02 4.35050E+01 0.00000E+00
 -1      2355 1.20150E+02 4.22060E+01 0.00000E+00
 -1      2356 1.23900E+02 4.35050E+01 0.00000E+00
 -1      2357 1.25400E+02 4.35050E+01 0.00000E+00
 -1      2358 1.23150E+02 4.22060E+01 0.00000E+00
 -1      2359 1.26900E+02 4.35050E+01 0.00000E+00
 -1      2360 1.28400E+02 4.35050E+01 0.00000E+00
 -1      2361 1.26150E+02 4.22060E+01 0.00000E+00
 -1      2362 1.29900E+02 4.35050E+01 0.00000E+00
 -1      2363 1.31400E+02 4.35050E+01 0.00000E+00
 -1      2364 1.29150E+02 4.22060E+01 0.00000E+00
 -1      2365 1.32900E+02 4.35050E+01 0.00000E+00
 -1      2366 1.34400E+02 4.35050E+01 0.00000E+00
 -1      2367 1.32150E+02 4.22060E+01 0.00000E+00
 -1      2368 1.35900E+02 4.35050E+01 0.00000E+00
 -1      2369 1.37400E+02 4.35050E+01 0.00000E+00
 -1      2370 1.35150E+02 4.22060E+01 0.00000E+00
 -1      2371 1.38900E+02 4.35050E+01 0.00000E+00
 -1      2372 1.40400E+02 4.35050E+01 0.00000E+00
 -1      2373 1.38150E+02 4.22060E+01 0.00000E+00
 -1      2374 1.97850E+01 5.30525E+00 0.00000E+00
 -1      2375 1.82850E+01 5.30525E+00 0.00000E+00
 -1      2376 2.29350E+01 5.30525E+00 0.00000E+00
 -1      2377 2.13600E+01 5.30525E+00 0.00000E+00
 -1      2378 2.06100E+01 6.60425E+00 0.00000E+00
 -1      2379 3.41487E+01 4.84244E+00 0.00000E+00
 -1      2380 3.27987E+01 4.84244E+00 0.00000E+00
 -1      2381 4.30350E+01 5.19894E+00 0.00000E+00
 -1      2382 4.15350E+01 5.19894E+00 0.00000E+00
 -1      2383 4.60350E+01 5.19894E+00 0.00000E+00
 -1      2384 4.45350E+01 5.19894E+00 0.00000E+00
 -1      2385 4.37850E+01 6.39164E+00 0.00000E+00
 -1      2386 4.90350E+01 5.19894E+00 0.00000E+00
 -1      2387 4.75350E+01 5.19894E+00 0.00000E+00
 -1      2388 4.67850E+01 6.39164E+00 0.00000E+00
 -1      2389 5.20350E+01 5.19894E+00 0.00000E+00
 -1      2390 5.05350E+01 5.19894E+00 0.00000E+00
 -1      2391 4.97850E+01 6.39164E+00 0.00000E+00
 -1      2392 5.50350E+01 5.19894E+00 0.00000E+00
 -1      2393 5.35350E+01 5.19894E+00 0.00000E+00
 -1      2394 5.27850E+01 6.39164E+00 0.00000E+00
 -1      2395 5.81850E+01 5.19894E+00 0.00000E+00
 -1      2396 5.66100E+01 5.19894E+00 0.00000E+00
 -1      2397 5.58600E+01 6.39164E+00 0.00000E+00
 -1      2398 6.11850E+01 5.19894E+00 0.00000E+00
 -1      2399 5.96850E+01 5.19894E+00 0.00000E+00
 -1      2400 5.89350E+01 6.39164E+00 0.00000E+00
 -1      2401 6.41850E+01 5.19894E+00 0.00000E+00
 -1      2402 6.26850E+01 5.19894E+00 0.00000E+00
 -1      2403 6.19350E+01 6.39164E+00 0.00000E+00
 -1      2404 6.71850E+01 5.19894E+00 0.00000E+00
 -1      2405 6.56850E+01 5.19894E+00 0.00000E+00
 -1      2406 6.49350E+01 6.39164E+00 0.00000E+00
 -1      2407 7.01850E+01 5.19894E+00 0.00000E+00
 -1      2408 6.86850E+01 5.19894E+00 0.00000E+00
 -1      2409 6.79350E+01 6.39164E+00 0.00000E+00
 -1      2410 7.31850E+01 5.19894E+00 0.00000E+00
 -1      2411 7.16850E+01 5.19894E+00 0.00000E+00
 -1      2412 7.09350E+01 6.39164E+00 0.00000E+00
 -1      2413 7.61850E+01 5.19894E+00 0.00000E+00
 -1      2414 7.46850E+01 5.19894E+00 0.00000E+00
 -1      2415 7.39350E+01 6.39164E+00 0.00000E+00
 -1      2416 7.91850E+01 5.19894E+00 0.00000E+00
 -1      2417 7.76850E+01 5.19894E+00 0.00000E+00
 -1      2418 7.69350E+01 6.39164E+00 0.00000E+00
 -1      2419 8.23350E+01 5.19894E+00 0.00000E+00
 -1      2420 8.07600E+01 5.19894E+00 0.00000E+00
 -1      2421 8.00100E+01 6.39164E+00 0.00000E+00
 -1      2422 8.53350E+01 5.19894E+00 0.00000E+00
 -1      2423 8.38350E+01 5.19894E+00 0.00000E+00
 -1      2424 8.30850E+01 6.39164E+00 0.00000E+00
 -1      2425 8.83350E+01 5.19894E+00 0.00000E+00
 -1      2426 8.68350E+01 5.19894E+00 0.00000E+00
 -1      2427 8.60850E+01 6.39164E+00 0.00000E+00
 -1      2428 9.13350E+01 5.19894E+00 0.00000E+00
 -1      2429 8.98350E+01 5.19894E+00 0.00000E+00
 -1      2430 8.90850E+01 6.39164E+00 0.00000E+00
 -1      2431 9.43350E+01 5.19894E+00 0.00000E+00
 -1      2432 9.28350E+01 5.19894E+00 0.00000E+00
 -1      2433 9.20850E+01 6.39164E+00 0.00000E+00
 -1      2434 9.73350E+01 5.19894E+00 0.00000E+00
 -1      2435 9.58350E+01 5.19894E+00 0.00000E+00
 -1      2436 9.50850E+01 6.39164E+00 0.00000E+00
 -1      2437 1.00335E+02 5.19894E+00 0.00000E+00
 -1      2438 9.88350E+01 5.19894E+00 0.00000E+00
 -1      2439 9.80850E+01 6.39164E+00 0.00000E+00
 -1      2440 1.03485E+02 5.19894E+00 0.00000E+00
 -1      2441 1.01910E+02 5.19894E+00 0.00000E+00
 -1      2442 1.01160E+02 6.39164E+00 0.00000E+00
 -1      2443 1.06485E+02 5.19894E+00 0.00000E+00
 -1      2444 1.04985E+02 5.19894E+00 0.00000E+00
 -1      2445 1.04235E+02 6.39164E+00 0.00000E+00
 -1      2446 1.09485E+02 5.19894E+00 0.00000E+00
 -1      2447 1.07985E+02 5.19894E+00 0.00000E+00
 -1      2448 1.07235E+02 6.39164E+00 0.00000E+00
 -1      2449 1.12485E+02 5.19894E+00 0.00000E+00
 -1      2450 1.10985E+02 5.19894E+00 0.00000E+00
 -1      2451 1.10235E+02 6.39164E+00 0.00000E+00
 -1      2452 1.15485E+02 5.19894E+00 0.00000E+00
 -1      2453 1.13985E+02 5.19894E+00 0.00000E+00
 -1      2454 1.13235E+02 6.39164E+00 0.00000E+00
 -1      2455 1.18485E+02 5.19894E+00 0.00000E+00
 -1      2456 1.16985E+02 5.19894E+00 0.00000E+00
 -1      2457 1.16235E+02 6.39164E+00 0.00000E+00
 -1      2458 1.21485E+02 5.19894E+00 0.00000E+00
 -1      2459 1.19985E+02 5.19894E+00 0.00000E+00
 -1      2460 1.19235E+02 6.39164E+00 0.00000E+00
 -1      2461 1.24485E+02 5.19894E+00 0.00000E+00
 -1      2462 1.22985E+02 5.19894E+00 0.00000E+00
 -1      2463 1.22235E+02 6.39164E+00 0.00000E+00
 -1      2464 1.27635E+02 5.19894E+00 0.00000E+00
 -1      2465 1.26060E+02 5.19894E+00 0.00000E+00
 -1      2466 1.25310E+02 6.39164E+00 0.00000E+00
 -1      2467 1.30635E+02 5.19894E+00 0.00000E+00
 -1      2468 1.29135E+02 5.19894E+00 0.00000E+00
 -1      2469 1.28385E+02 6.39164E+00 0.00000E+00
 -1      2470 1.33635E+02 5.19894E+00 0.00000E+00
 -1      2471 1.32135E+02 5.19894E+00 0.00000E+00
 -1      2472 1.31385E+02 6.39164E+00 0.00000E+00
 -1      2473 1.36635E+02 5.19894E+00 0.00000E+00
 -1      2474 1.35135E+02 5.19894E+00 0.00000E+00
 -1      2475 1.34385E+02 6.39164E+00 0.00000E+00
 -1      2476 1.39635E+02 5.19894E+00 0.00000E+00
 -1      2477 1.38135E+02 5.19894E+00 0.00000E+00
 -1      2478 1.37385E+02 6.39164E+00 0.00000E+00
 -1      2479 1.42635E+02 5.19894E+00 0.00000E+00
 -1      2480 1.41135E+02 5.19894E+00 0.00000E+00
 -1      2481 1.40385E+02 6.39164E+00 0.00000E+00
 -1      2482 1.44242E+02 5.26953E+00 0.00000E+00
 -1      2483 1.43505E+02 1.69125E+01 0.00000E+00
 -1      2484 1.43505E+02 1.54375E+01 0.00000E+00
 -1      2485 1.43505E+02 1.98625E+01 0.00000E+00
 -1      2486 1.43505E+02 1.83875E+01 0.00000E+00
 -1      2487 1.42206E+02 1.76500E+01 0.00000E+00
 -1      2488 1.43505E+02 1.10625E+01 0.00000E+00
 -1      2489 1.43505E+02 9.58750E+00 0.00000E+00
 -1      2490 1.43505E+02 1.39750E+01 0.00000E+00
 -1      2491 1.43505E+02 1.25250E+01 0.00000E+00
 -1      2492 1.42206E+02 1.17875E+01 0.00000E+00
 -1      2493 1.42206E+02 1.47125E+01 0.00000E+00
 -1      2494 1.43505E+02 2.28125E+01 0.00000E+00
 -1      2495 1.43505E+02 2.13375E+01 0.00000E+00
 -1      2496 1.42206E+02 2.06000E+01 0.00000E+00
 -1      2497 1.43505E+02 2.57625E+01 0.00000E+00
 -1      2498 1.43505E+02 2.42875E+01 0.00000E+00
 -1      2499 1.42206E+02 2.35500E+01 0.00000E+00
 -1      2500 1.43505E+02 2.87125E+01 0.00000E+00
 -1      2501 1.43505E+02 2.72375E+01 0.00000E+00
 -1      2502 1.42206E+02 2.65000E+01 0.00000E+00
 -1      2503 1.43505E+02 3.16125E+01 0.00000E+00
 -1      2504 1.43505E+02 3.01625E+01 0.00000E+00
 -1      2505 1.42206E+02 2.94250E+01 0.00000E+00
 -1      2506 1.43505E+02 3.45625E+01 0.00000E+00
 -1      2507 1.43505E+02 3.30875E+01 0.00000E+00
 -1      2508 1.42206E+02 3.23500E+01 0.00000E+00
 -1      2509 1.43505E+02 3.75125E+01 0.00000E+00
 -1      2510 1.43505E+02 3.60375E+01 0.00000E+00
 -1      2511 1.42206E+02 3.53000E+01 0.00000E+00
 -1      2512 1.43505E+02 4.04625E+01 0.00000E+00
 -1      2513 1.43505E+02 3.89875E+01 0.00000E+00
 -1      2514 1.42206E+02 3.82500E+01 0.00000E+00
 -1      2515 4.18944E+01 9.33631E+00 0.00000E+00
 -1      2516 4.23708E+01 1.01539E+01 0.00000E+00
 -1      2517 1.44321E+02 4.30606E+01 0.00000E+00
 -1      2518 4.35872E+01 1.56390E+01 0.00000E+00
 -1      2519 4.33888E+01 1.66039E+01 0.00000E+00
 -1      2520 1.67850E+01 5.30525E+00 0.00000E+00
 -1      2521 1.52850E+01 5.30525E+00 0.00000E+00
 -1      2522 1.75350E+01 6.60425E+00 0.00000E+00
 -1      2523 4.34589E+01 1.35725E+01 0.00000E+00
 -1      2524 4.35629E+01 1.44529E+01 0.00000E+00
 -1      2525 4.26018E+01 1.94999E+01 0.00000E+00
 -1      2526 4.21485E+01 2.04572E+01 0.00000E+00
 -1      2527 6.55950E+00 4.28890E+01 0.00000E+00
 -1      2528 8.53650E+00 4.32410E+01 0.00000E+00
 -1      2529 9.28650E+00 4.19420E+01 0.00000E+00
 -1      2530 6.55950E+00 4.14140E+01 0.00000E+00
 -1      2531 4.05073E+01 7.69562E+00 0.00000E+00
 -1      2532 4.11820E+01 8.43934E+00 0.00000E+00
 -1      2533 3.02230E+01 2.51917E+01 0.00000E+00
 -1      2534 2.91440E+01 2.46694E+01 0.00000E+00
 -1      2535 2.47672E+01 2.15195E+01 0.00000E+00
 -1      2536 2.41316E+01 2.05589E+01 0.00000E+00
 -1      2537 2.28949E+01 1.31293E+01 0.00000E+00
 -1      2538 2.31478E+01 1.20654E+01 0.00000E+00
 -1      2539 6.49500E+00 2.71625E+01 0.00000E+00
 -1      2540 6.49500E+00 2.86375E+01 0.00000E+00
 -1      2541 7.79400E+00 2.93750E+01 0.00000E+00
 -1      2542 7.79400E+00 2.64250E+01 0.00000E+00
 -1      2543 2.65299E+01 2.30942E+01 0.00000E+00
 -1      2544 2.57169E+01 2.24840E+01 0.00000E+00
 -1      2545 3.19423E+01 4.70373E+00 0.00000E+00
 -1      2546 3.52383E+01 4.72623E+00 0.00000E+00
 -1      2547 2.95359E+01 4.93569E+00 0.00000E+00
 -1      2548 3.05924E+01 4.70373E+00 0.00000E+00
 -1      2549 2.56852E+01 7.21617E+00 0.00000E+00
 -1      2550 2.66214E+01 6.48628E+00 0.00000E+00
 -1      2551 2.43666E+01 9.22340E+00 0.00000E+00
 -1      2552 2.48113E+01 8.36136E+00 0.00000E+00
 -1      2553 2.34873E+01 1.08882E+01 0.00000E+00
 -1      2554 2.39269E+01 1.00558E+01 0.00000E+00
 -1      2555 2.33872E+01 9.23158E+00 0.00000E+00
 -1      2556 2.26904E+01 1.50668E+01 0.00000E+00
 -1      2557 2.27871E+01 1.41982E+01 0.00000E+00
 -1      2558 2.29495E+01 1.75369E+01 0.00000E+00
 -1      2559 2.26969E+01 1.63368E+01 0.00000E+00
 -1      2560 2.36819E+01 1.94861E+01 0.00000E+00
 -1      2561 2.33340E+01 1.86722E+01 0.00000E+00
 -1      2562 3.26928E+01 2.56842E+01 0.00000E+00
 -1      2563 3.16648E+01 2.56988E+01 0.00000E+00
 -1      2564 2.82262E+01 2.40491E+01 0.00000E+00
 -1      2565 2.74502E+01 2.36044E+01 0.00000E+00
 -1      2566 4.31907E+01 1.74742E+01 0.00000E+00
 -1      2567 4.29926E+01 1.83445E+01 0.00000E+00
 -1      2568 4.41299E+01 1.71644E+01 0.00000E+00
 -1      2569 3.43622E+01 2.55126E+01 0.00000E+00
 -1      2570 3.35275E+01 2.55984E+01 0.00000E+00
 -1      2571 3.30280E+01 2.66307E+01 0.00000E+00
 -1      2572 3.67375E+01 2.49143E+01 0.00000E+00
 -1      2573 3.56196E+01 2.51811E+01 0.00000E+00
 -1      2574 3.86662E+01 2.41880E+01 0.00000E+00
 -1      2575 3.79773E+01 2.46100E+01 0.00000E+00
 -1      2576 4.04762E+01 2.29685E+01 0.00000E+00
 -1      2577 3.95712E+01 2.35783E+01 0.00000E+00
 -1      2578 3.97622E+01 2.46634E+01 0.00000E+00
 -1      2579 4.15277E+01 2.13842E+01 0.00000E+00
 -1      2580 4.10969E+01 2.20415E+01 0.00000E+00
 -1      2581 4.12880E+01 2.31266E+01 0.00000E+00
 -1      2582 4.25294E+01 2.12726E+01 0.00000E+00
 -1      2583 8.07525E+00 5.11044E+00 0.00000E+00
 -1      2584 6.57525E+00 5.11044E+00 0.00000E+00
 -1      2585 6.40575E+00 6.01981E+00 0.00000E+00
 -1      2586 8.82525E+00 6.40944E+00 0.00000E+00
 -1      2587 3.90273E+01 6.28351E+00 0.00000E+00
 -1      2588 3.97433E+01 6.97003E+00 0.00000E+00
 -1      2589 3.67383E+01 4.72623E+00 0.00000E+00
 -1      2590 2.84317E+01 5.65006E+00 0.00000E+00
 -1      2591 2.82808E+01 4.72062E+00 0.00000E+00
 -1      2592 2.69308E+01 4.72062E+00 0.00000E+00
 -1      2593 2.74225E+01 6.14936E+00 0.00000E+00
 -1      2594 3.79594E+01 5.25251E+00 0.00000E+00
 -1      2595 3.94594E+01 5.25251E+00 0.00000E+00
 -1      2596 2.46840E+01 2.24769E+01 0.00000E+00
 -1      2597 7.79400E+00 3.52687E+01 0.00000E+00
 -1      2598 6.49500E+00 3.60062E+01 0.00000E+00
 -1      2599 6.49500E+00 3.74750E+01 0.00000E+00
 -1      2600 1.45350E+01 6.60425E+00 0.00000E+00
 -1      2601 6.40575E+00 7.49481E+00 0.00000E+00
 -1      2602 4.06848E+01 6.79384E+00 0.00000E+00
 -1      2603 4.31048E+01 1.05672E+01 0.00000E+00
 -1      2604 2.63756E+01 5.77191E+00 0.00000E+00
 -1      2605 2.61298E+01 5.05754E+00 0.00000E+00
 -1      2606 2.46298E+01 5.05754E+00 0.00000E+00
 -1      2607 1.43492E+02 6.46222E+00 0.00000E+00
 -1      2608 1.43344E+02 7.62082E+00 0.00000E+00
 -1      2609 4.21611E+01 8.41639E+00 0.00000E+00
 -1      2610 1.42758E+02 4.35929E+01 0.00000E+00
 -1      2611 1.43241E+02 4.17323E+01 0.00000E+00
 -1      2612 1.41942E+02 4.09948E+01 0.00000E+00
 -1      2613 1.41414E+02 4.35342E+01 0.00000E+00
 -1      2614 2.83921E+01 2.50821E+01 0.00000E+00
 -1      2615 4.43037E+01 1.51080E+01 0.00000E+00
 -1      2616 7.70475E+00 8.23231E+00 0.00000E+00
 -1      2617 4.38077E+01 1.28715E+01 0.00000E+00
 -1      2618 3.51202E+01 2.62134E+01 0.00000E+00
 -1      2619 2.32846E+01 2.04396E+01 0.00000E+00
 -1      2620 3.07516E+01 2.62095E+01 0.00000E+00
 -1      2621 2.24505E+01 1.82315E+01 0.00000E+00
 -1      2622 2.26080E+01 1.12412E+01 0.00000E+00
 -1      2623 2.21608E+01 1.34873E+01 0.00000E+00
 -1      2624 6.55950E+00 3.99453E+01 0.00000E+00
 -1      2625 4.35410E+01 1.91902E+01 0.00000E+00
 -1      2626 2.38798E+01 6.35654E+00 0.00000E+00
 -1      2627 2.47007E+01 7.25401E+00 0.00000E+00
 -1      2628 2.20595E+01 1.58262E+01 0.00000E+00
 -1      2629 2.65540E+01 2.39516E+01 0.00000E+00
 -1      2630 3.76174E+01 2.55775E+01 0.00000E+00
 -1      2631 1.42046E+02 8.35832E+00 0.00000E+00
 -1      2632 1.40664E+02 4.22352E+01 0.00000E+00
 -1      2633 9.09300E+00 1.98250E+01 0.00000E+00
 -1      2634 9.09300E+00 2.12750E+01 0.00000E+00
 -1      2635 9.09300E+00 2.27500E+01 0.00000E+00
 -1      2636 9.09300E+00 2.42250E+01 0.00000E+00
 -1      2637 1.03920E+01 2.20250E+01 0.00000E+00
 -1      2638 9.09300E+00 1.39375E+01 0.00000E+00
 -1      2639 9.09300E+00 1.54125E+01 0.00000E+00
 -1      2640 9.09300E+00 1.09875E+01 0.00000E+00
 -1      2641 9.09300E+00 1.24625E+01 0.00000E+00
 -1      2642 1.03920E+01 1.32000E+01 0.00000E+00
 -1      2643 1.22850E+01 7.90325E+00 0.00000E+00
 -1      2644 1.07850E+01 7.90325E+00 0.00000E+00
 -1      2645 4.45070E+01 1.19263E+01 0.00000E+00
 -1      2646 4.49787E+01 1.29768E+01 0.00000E+00
 -1      2647 1.52850E+01 7.90325E+00 0.00000E+00
 -1      2648 1.37850E+01 7.90325E+00 0.00000E+00
 -1      2649 1.30350E+01 9.20225E+00 0.00000E+00
 -1      2650 8.91450E+00 8.42712E+00 0.00000E+00
 -1      2651 3.35588E+01 2.76909E+01 0.00000E+00
 -1      2652 3.27241E+01 2.77767E+01 0.00000E+00
 -1      2653 1.44000E+01 4.09070E+01 0.00000E+00
 -1      2654 1.59000E+01 4.09070E+01 0.00000E+00
 -1      2655 1.74000E+01 4.09070E+01 0.00000E+00
 -1      2656 1.89000E+01 4.09070E+01 0.00000E+00
 -1      2657 1.66500E+01 3.96080E+01 0.00000E+00
 -1      2658 2.04000E+01 4.09070E+01 0.00000E+00
 -1      2659 2.19000E+01 4.09070E+01 0.00000E+00
 -1      2660 1.96500E+01 3.96080E+01 0.00000E+00
 -1      2661 2.34000E+01 4.09070E+01 0.00000E+00
 -1      2662 2.49000E+01 4.09070E+01 0.00000E+00
 -1      2663 2.26500E+01 3.96080E+01 0.00000E+00
 -1      2664 2.64000E+01 4.09070E+01 0.00000E+00
 -1      2665 2.79000E+01 4.09070E+01 0.00000E+00
 -1      2666 2.56500E+01 3.96080E+01 0.00000E+00
 -1      2667 2.94000E+01 4.09070E+01 0.00000E+00
 -1      2668 3.09000E+01 4.09070E+01 0.00000E+00
 -1      2669 2.86500E+01 3.96080E+01 0.00000E+00
 -1      2670 3.24000E+01 4.09070E+01 0.00000E+00
 -1      2671 3.39000E+01 4.09070E+01 0.00000E+00
 -1      2672 3.16500E+01 3.96080E+01 0.00000E+00
 -1      2673 3.54000E+01 4.09070E+01 0.00000E+00
 -1      2674 3.69000E+01 4.09070E+01 0.00000E+00
 -1      2675 3.46500E+01 3.96080E+01 0.00000E+00
 -1      2676 3.84000E+01 4.09070E+01 0.00000E+00
 -1      2677 3.99000E+01 4.09070E+01 0.00000E+00
 -1      2678 3.76500E+01 3.96080E+01 0.00000E+00
 -1      2679 4.14000E+01 4.09070E+01 0.00000E+00
 -1      2680 4.29000E+01 4.09070E+01 0.00000E+00
 -1      2681 4.06500E+01 3.96080E+01 0.00000E+00
 -1      2682 4.44000E+01 4.09070E+01 0.00000E+00
 -1      2683 4.59000E+01 4.09070E+01 0.00000E+00
 -1      2684 4.36500E+01 3.96080E+01 0.00000E+00
 -1      2685 4.74000E+01 4.09070E+01 0.00000E+00
 -1      2686 4.89000E+01 4.09070E+01 0.00000E+00
 -1      2687 4.66500E+01 3.96080E+01 0.00000E+00
 -1      2688 5.04000E+01 4.09070E+01 0.00000E+00
 -1      2689 5.19000E+01 4.09070E+01 0.00000E+00
 -1      2690 4.96500E+01 3.96080E+01 0.00000E+00
 -1      2691 5.34000E+01 4.09070E+01 0.00000E+00
 -1      2692 5.49000E+01 4.09070E+01 0.00000E+00
 -1      2693 5.26500E+01 3.96080E+01 0.00000E+00
 -1      2694 5.64000E+01 4.09070E+01 0.00000E+00
 -1      2695 5.79000E+01 4.09070E+01 0.00000E+00
 -1      2696 5.56500E+01 3.96080E+01 0.00000E+00
 -1      2697 5.94000E+01 4.09070E+01 0.00000E+00
 -1      2698 6.09000E+01 4.09070E+01 0.00000E+00
 -1      2699 5.86500E+01 3.96080E+01 0.00000E+00
 -1      2700 6.24000E+01 4.09070E+01 0.00000E+00
 -1      2701 6.39000E+01 4.09070E+01 0.00000E+00
 -1      2702 6.16500E+01 3.96080E+01 0.00000E+00
 -1      2703 6.54000E+01 4.09070E+01 0.00000E+00
 -1      2704 6.69000E+01 4.09070E+01 0.00000E+00
 -1      2705 6.46500E+01 3.96080E+01 0.00000E+00
 -1      2706 6.84000E+01 4.09070E+01 0.00000E+00
 -1      2707 6.99000E+01 4.09070E+01 0.00000E+00
 -1      2708 6.76500E+01 3.96080E+01 0.00000E+00
 -1      2709 7.14000E+01 4.09070E+01 0.00000E+00
 -1      2710 7.29000E+01 4.09070E+01 0.00000E+00
 -1      2711 7.06500E+01 3.96080E+01 0.00000E+00
 -1      2712 7.44000E+01 4.09070E+01 0.00000E+00
 -1      2713 7.59000E+01 4.09070E+01 0.00000E+00
 -1      2714 7.36500E+01 3.96080E+01 0.00000E+00
 -1      2715 7.74000E+01 4.09070E+01 0.00000E+00
 -1      2716 7.89000E+01 4.09070E+01 0.00000E+00
 -1      2717 7.66500E+01 3.96080E+01 0.00000E+00
 -1      2718 8.04000E+01 4.09070E+01 0.00000E+00
 -1      2719 8.19000E+01 4.09070E+01 0.00000E+00
 -1      2720 7.96500E+01 3.96080E+01 0.00000E+00
 -1      2721 8.34000E+01 4.09070E+01 0.00000E+00
 -1      2722 8.49000E+01 4.09070E+01 0.00000E+00
 -1      2723 8.26500E+01 3.96080E+01 0.00000E+00
 -1      2724 8.64000E+01 4.09070E+01 0.00000E+00
 -1      2725 8.79000E+01 4.09070E+01 0.00000E+00
 -1      2726 8.56500E+01 3.96080E+01 0.00000E+00
 -1      2727 8.94000E+01 4.09070E+01 0.00000E+00
 -1      2728 9.09000E+01 4.09070E+01 0.00000E+00
 -1      2729 8.86500E+01 3.96080E+01 0.00000E+00
 -1      2730 9.24000E+01 4.09070E+01 0.00000E+00
 -1      2731 9.39000E+01 4.09070E+01 0.00000E+00
 -1      2732 9.16500E+01 3.96080E+01 0.00000E+00
 -1      2733 9.54000E+01 4.09070E+01 0.00000E+00
 -1      2734 9.69000E+01 4.09070E+01 0.00000E+00
 -1      2735 9.46500E+01 3.96080E+01 0.00000E+00
 -1      2736 9.84000E+01 4.09070E+01 0.00000E+00
 -1      2737 9.99000E+01 4.09070E+01 0.00000E+00
 -1      2738 9.76500E+01 3.96080E+01 0.00000E+00
 -1      2739 1.01400E+02 4.09070E+01 0.00000E+00
 -1      2740 1.02900E+02 4.09070E+01 0.00000E+00
 -1      2741 1.00650E+02 3.96080E+01 0.00000E+00
 -1      2742 1.04400E+02 4.09070E+01 0.00000E+00
 -1      2743 1.05900E+02 4.09070E+01 0.00000E+00
 -1      2744 1.03650E+02 3.96080E+01 0.00000E+00
 -1      2745 1.07400E+02 4.09070E+01 0.00000E+00
 -1      2746 1.08900E+02 4.09070E+01 0.00000E+00
 -1      2747 1.06650E+02 3.96080E+01 0.00000E+00
 -1      2748 1.10400E+02 4.09070E+01 0.00000E+00
 -1      2749 1.11900E+02 4.09070E+01 0.00000E+00
 -1      2750 1.09650E+02 3.96080E+01 0.00000E+00
 -1      2751 1.13400E+02 4.09070E+01 0.00000E+00
 -1      2752 1.14900E+02 4.09070E+01 0.00000E+00
 -1      2753 1.12650E+02 3.96080E+01 0.00000E+00
 -1      2754 1.16400E+02 4.09070E+01 0.00000E+00
 -1      2755 1.17900E+02 4.09070E+01 0.00000E+00
 -1      2756 1.15650E+02 3.96080E+01 0.00000E+00
 -1      2757 1.19400E+02 4.09070E+01 0.00000E+00
 -1      2758 1.20900E+02 4.09070E+01 0.00000E+00
 -1      2759 1.18650E+02 3.96080E+01 0.00000E+00
 -1      2760 1.22400E+02 4.09070E+01 0.00000E+00
 -1      2761 1.23900E+02 4.09070E+01 0.00000E+00
 -1      2762 1.21650E+02 3.96080E+01 0.00000E+00
 -1      2763 1.25400E+02 4.09070E+01 0.00000E+00
 -1      2764 1.26900E+02 4.09070E+01 0.00000E+00
 -1      2765 1.24650E+02 3.96080E+01 0.00000E+00
 -1      2766 1.28400E+02 4.09070E+01 0.00000E+00
 -1      2767 1.29900E+02 4.09070E+01 0.00000E+00
 -1      2768 1.27650E+02 3.96080E+01 0.00000E+00
 -1      2769 1.31400E+02 4.09070E+01 0.00000E+00
 -1      2770 1.32900E+02 4.09070E+01 0.00000E+00
 -1      2771 1.30650E+02 3.96080E+01 0.00000E+00
 -1      2772 1.34400E+02 4.09070E+01 0.00000E+00
 -1      2773 1.35900E+02 4.09070E+01 0.00000E+00
 -1      2774 1.33650E+02 3.96080E+01 0.00000E+00
 -1      2775 1.37400E+02 4.09070E+01 0.00000E+00
 -1      2776 1.38900E+02 4.09070E+01 0.00000E+00
 -1      2777 1.36650E+02 3.96080E+01 0.00000E+00
 -1      2778 2.83238E+01 2.61722E+01 0.00000E+00
 -1      2779 2.74061E+01 2.55518E+01 0.00000E+00
 -1      2780 2.13975E+01 7.88073E+00 0.00000E+00
 -1      2781 1.98225E+01 7.88073E+00 0.00000E+00
 -1      2782 2.44284E+01 2.36784E+01 0.00000E+00
 -1      2783 2.34787E+01 2.27140E+01 0.00000E+00
 -1      2784 5.35350E+01 7.69064E+00 0.00000E+00
 -1      2785 5.20350E+01 7.69064E+00 0.00000E+00
 -1      2786 5.66850E+01 7.69064E+00 0.00000E+00
 -1      2787 5.51100E+01 7.69064E+00 0.00000E+00
 -1      2788 5.43600E+01 8.98964E+00 0.00000E+00
 -1      2789 5.96850E+01 7.69064E+00 0.00000E+00
 -1      2790 5.81850E+01 7.69064E+00 0.00000E+00
 -1      2791 5.74350E+01 8.98964E+00 0.00000E+00
 -1      2792 6.26850E+01 7.69064E+00 0.00000E+00
 -1      2793 6.11850E+01 7.69064E+00 0.00000E+00
 -1      2794 6.04350E+01 8.98964E+00 0.00000E+00
 -1      2795 6.56850E+01 7.69064E+00 0.00000E+00
 -1      2796 6.41850E+01 7.69064E+00 0.00000E+00
 -1      2797 6.34350E+01 8.98964E+00 0.00000E+00
 -1      2798 6.86850E+01 7.69064E+00 0.00000E+00
 -1      2799 6.71850E+01 7.69064E+00 0.00000E+00
 -1      2800 6.64350E+01 8.98964E+00 0.00000E+00
 -1      2801 7.16850E+01 7.69064E+00 0.00000E+00
 -1      2802 7.01850E+01 7.69064E+00 0.00000E+00
 -1      2803 6.94350E+01 8.98964E+00 0.00000E+00
 -1      2804 7.46850E+01 7.69064E+00 0.00000E+00
 -1      2805 7.31850E+01 7.69064E+00 0.00000E+00
 -1      2806 7.24350E+01 8.98964E+00 0.00000E+00
 -1      2807 7.76850E+01 7.69064E+00 0.00000E+00
 -1      2808 7.61850E+01 7.69064E+00 0.00000E+00
 -1      2809 7.54350E+01 8.98964E+00 0.00000E+00
 -1      2810 8.08350E+01 7.69064E+00 0.00000E+00
 -1      2811 7.92600E+01 7.69064E+00 0.00000E+00
 -1      2812 7.85100E+01 8.98964E+00 0.00000E+00
 -1      2813 8.38350E+01 7.69064E+00 0.00000E+00
 -1      2814 8.23350E+01 7.69064E+00 0.00000E+00
 -1      2815 8.15850E+01 8.98964E+00 0.00000E+00
 -1      2816 8.68350E+01 7.69064E+00 0.00000E+00
 -1      2817 8.53350E+01 7.69064E+00 0.00000E+00
 -1      2818 8.45850E+01 8.98964E+00 0.00000E+00
 -1      2819 8.98350E+01 7.69064E+00 0.00000E+00
 -1      2820 8.83350E+01 7.69064E+00 0.00000E+00
 -1      2821 8.75850E+01 8.98964E+00 0.00000E+00
 -1      2822 9.28350E+01 7.69064E+00 0.00000E+00
 -1      2823 9.13350E+01 7.69064E+00 0.00000E+00
 -1      2824 9.05850E+01 8.98964E+00 0.00000E+00
 -1      2825 9.58350E+01 7.69064E+00 0.00000E+00
 -1      2826 9.43350E+01 7.69064E+00 0.00000E+00
 -1      2827 9.35850E+01 8.98964E+00 0.00000E+00
 -1      2828 9.88350E+01 7.69064E+00 0.00000E+00
 -1      2829 9.73350E+01 7.69064E+00 0.00000E+00
 -1      2830 9.65850E+01 8.98964E+00 0.00000E+00
 -1      2831 1.01985E+02 7.69064E+00 0.00000E+00
 -1      2832 1.00410E+02 7.69064E+00 0.00000E+00
 -1      2833 9.96600E+01 8.98964E+00 0.00000E+00
 -1      2834 1.04985E+02 7.69064E+00 0.00000E+00
 -1      2835 1.03485E+02 7.69064E+00 0.00000E+00
 -1      2836 1.02735E+02 8.98964E+00 0.00000E+00
 -1      2837 1.07985E+02 7.69064E+00 0.00000E+00
 -1      2838 1.06485E+02 7.69064E+00 0.00000E+00
 -1      2839 1.05735E+02 8.98964E+00 0.00000E+00
 -1      2840 1.10985E+02 7.69064E+00 0.00000E+00
 -1      2841 1.09485E+02 7.69064E+00 0.00000E+00
 -1      2842 1.08735E+02 8.98964E+00 0.00000E+00
 -1      2843 1.13985E+02 7.69064E+00 0.00000E+00
 -1      2844 1.12485E+02 7.69064E+00 0.00000E+00
 -1      2845 1.11735E+02 8.98964E+00 0.00000E+00
 -1      2846 1.16985E+02 7.69064E+00 0.00000E+00
 -1      2847 1.15485E+02 7.69064E+00 0.00000E+00
 -1      2848 1.14735E+02 8.98964E+00 0.00000E+00
 -1      2849 1.19985E+02 7.69064E+00 0.00000E+00
 -1      2850 1.18485E+02 7.69064E+00 0.00000E+00
 -1      2851 1.17735E+02 8.98964E+00 0.00000E+00
 -1      2852 1.22985E+02 7.69064E+00 0.00000E+00
 -1      2853 1.21485E+02 7.69064E+00 0.00000E+00
 -1      2854 1.20735E+02 8.98964E+00 0.00000E+00
 -1      2855 1.26135E+02 7.69064E+00 0.00000E+00
 -1      2856 1.24560E+02 7.69064E+00 0.00000E+00
 -1      2857 1.23810E+02 8.98964E+00 0.00000E+00
 -1      2858 1.29135E+02 7.69064E+00 0.00000E+00
 -1      2859 1.27635E+02 7.69064E+00 0.00000E+00
 -1      2860 1.26885E+02 8.98964E+00 0.00000E+00
 -1      2861 1.32135E+02 7.69064E+00 0.00000E+00
 -1      2862 1.30635E+02 7.69064E+00 0.00000E+00
 -1      2863 1.29885E+02 8.98964E+00 0.00000E+00
 -1      2864 1.35135E+02 7.69064E+00 0.00000E+00
 -1      2865 1.33635E+02 7.69064E+00 0.00000E+00
 -1      2866 1.32885E+02 8.98964E+00 0.00000E+00
 -1      2867 1.38135E+02 7.69064E+00 0.00000E+00
 -1      2868 1.36635E+02 7.69064E+00 0.00000E+00
 -1      2869 1.35885E+02 8.98964E+00 0.00000E+00
 -1      2870 1.40840E+02 8.02448E+00 0.00000E+00
 -1      2871 1.39340E+02 8.02448E+00 0.00000E+00
 -1      2872 1.38590E+02 9.32348E+00 0.00000E+00
 -1      2873 1.41001E+02 9.99116E+00 0.00000E+00
 -1      2874 1.40907E+02 2.42875E+01 0.00000E+00
 -1      2875 1.40907E+02 2.28125E+01 0.00000E+00
 -1      2876 1.39914E+02 4.09362E+01 0.00000E+00
 -1      2877 1.40928E+02 4.09655E+01 0.00000E+00
 -1      2878 1.39164E+02 3.96372E+01 0.00000E+00
 -1      2879 1.40907E+02 1.83875E+01 0.00000E+00
 -1      2880 1.40907E+02 1.69125E+01 0.00000E+00
 -1      2881 1.40907E+02 2.72375E+01 0.00000E+00
 -1      2882 1.40907E+02 2.57625E+01 0.00000E+00
 -1      2883 1.39608E+02 2.50250E+01 0.00000E+00
 -1      2884 1.40907E+02 2.13375E+01 0.00000E+00
 -1      2885 1.40907E+02 1.98625E+01 0.00000E+00
 -1      2886 1.39608E+02 1.91250E+01 0.00000E+00
 -1      2887 1.39608E+02 2.20750E+01 0.00000E+00
 -1      2888 1.82850E+01 7.90325E+00 0.00000E+00
 -1      2889 1.67850E+01 7.90325E+00 0.00000E+00
 -1      2890 1.60350E+01 9.20225E+00 0.00000E+00
 -1      2891 4.49834E+01 1.69010E+01 0.00000E+00
 -1      2892 4.47853E+01 1.77713E+01 0.00000E+00
 -1      2893 1.40907E+02 3.01375E+01 0.00000E+00
 -1      2894 1.40907E+02 2.86875E+01 0.00000E+00
 -1      2895 1.39608E+02 2.79500E+01 0.00000E+00
 -1      2896 1.40907E+02 3.30875E+01 0.00000E+00
 -1      2897 1.40907E+02 3.16125E+01 0.00000E+00
 -1      2898 1.39608E+02 3.08750E+01 0.00000E+00
 -1      2899 1.40907E+02 3.60375E+01 0.00000E+00
 -1      2900 1.40907E+02 3.45625E+01 0.00000E+00
 -1      2901 1.39608E+02 3.38250E+01 0.00000E+00
 -1      2902 4.11029E+01 6.22994E+00 0.00000E+00
 -1      2903 4.18669E+01 6.95553E+00 0.00000E+00
 -1      2904 8.85168E+00 4.05347E+01 0.00000E+00
 -1      2905 1.02152E+01 4.07987E+01 0.00000E+00
 -1      2906 4.52326E+01 1.44957E+01 0.00000E+00
 -1      2907 4.52570E+01 1.56818E+01 0.00000E+00
 -1      2908 3.11602E+01 2.73510E+01 0.00000E+00
 -1      2909 2.97184E+01 2.68440E+01 0.00000E+00
 -1      2910 2.12537E+01 1.39357E+01 0.00000E+00
 -1      2911 2.13614E+01 1.28668E+01 0.00000E+00
 -1      2912 5.05350E+01 7.69064E+00 0.00000E+00
 -1      2913 4.90350E+01 7.69064E+00 0.00000E+00
 -1      2914 5.12850E+01 8.98964E+00 0.00000E+00
 -1      2915 4.75350E+01 7.69064E+00 0.00000E+00
 -1      2916 4.60350E+01 7.69064E+00 0.00000E+00
 -1      2917 4.82850E+01 8.98964E+00 0.00000E+00
 -1      2918 7.48818E+00 3.88019E+01 0.00000E+00
 -1      2919 1.41192E+02 3.96958E+01 0.00000E+00
 -1      2920 4.45487E+01 1.88872E+01 0.00000E+00
 -1      2921 4.41579E+01 2.00426E+01 0.00000E+00
 -1      2922 2.30059E+01 7.50172E+00 0.00000E+00
 -1      2923 1.15576E+01 4.08528E+01 0.00000E+00
 -1      2924 1.30576E+01 4.08528E+01 0.00000E+00
 -1      2925 1.38076E+01 3.95538E+01 0.00000E+00
 -1      2926 1.11228E+01 3.94455E+01 0.00000E+00
 -1      2927 9.09300E+00 1.68813E+01 0.00000E+00
 -1      2928 9.09300E+00 1.83563E+01 0.00000E+00
 -1      2929 1.03920E+01 1.90812E+01 0.00000E+00
 -1      2930 1.03920E+01 1.61437E+01 0.00000E+00
 -1      2931 2.12052E+01 1.64656E+01 0.00000E+00
 -1      2932 2.11987E+01 1.51956E+01 0.00000E+00
 -1      2933 2.17788E+01 9.61059E+00 0.00000E+00
 -1      2934 2.22184E+01 8.77820E+00 0.00000E+00
 -1      2935 2.64857E+01 2.50416E+01 0.00000E+00
 -1      2936 2.55654E+01 2.45315E+01 0.00000E+00
 -1      2937 2.64175E+01 2.61317E+01 0.00000E+00
 -1      2938 2.14003E+01 1.18273E+01 0.00000E+00
 -1      2939 2.17399E+01 1.06501E+01 0.00000E+00
 -1      2940 2.05711E+01 1.01967E+01 0.00000E+00
 -1      2941 2.04932E+01 1.22757E+01 0.00000E+00
 -1      2942 2.17512E+01 1.91011E+01 0.00000E+00
 -1      2943 2.13667E+01 1.79658E+01 0.00000E+00
 -1      2944 9.09300E+00 3.15875E+01 0.00000E+00
 -1      2945 9.09300E+00 3.30625E+01 0.00000E+00
 -1      2946 3.84418E+01 2.62582E+01 0.00000E+00
 -1      2947 3.72019E+01 2.65625E+01 0.00000E+00
 -1      2948 2.26412E+01 2.13399E+01 0.00000E+00
 -1      2949 2.21916E+01 2.02671E+01 0.00000E+00
 -1      2950 4.07875E+01 2.52087E+01 0.00000E+00
 -1      2951 3.98826E+01 2.58184E+01 0.00000E+00
 -1      2952 3.60736E+01 2.70278E+01 0.00000E+00
 -1      2953 3.48162E+01 2.73594E+01 0.00000E+00
 -1      2954 3.45122E+01 2.85054E+01 0.00000E+00
 -1      2955 4.29974E+01 7.28860E+00 0.00000E+00
 -1      2956 4.25793E+01 7.85249E+00 0.00000E+00
 -1      2957 4.32917E+01 8.74946E+00 0.00000E+00
 -1      2958 9.09300E+00 3.45313E+01 0.00000E+00
 -1      2959 9.09300E+00 3.60000E+01 0.00000E+00
 -1      2960 1.03920E+01 3.37938E+01 0.00000E+00
 -1      2961 1.03920E+01 2.49750E+01 0.00000E+00
 -1      2962 9.09300E+00 2.57000E+01 0.00000E+00
 -1      2963 9.09300E+00 2.71750E+01 0.00000E+00
 -1      2964 9.66450E+00 9.72612E+00 0.00000E+00
 -1      2965 2.03994E+01 1.45751E+01 0.00000E+00
 -1      2966 4.03529E+01 5.03725E+00 0.00000E+00
 -1      2967 1.39608E+02 1.61875E+01 0.00000E+00
 -1      2968 1.40907E+02 1.54500E+01 0.00000E+00
 -1      2969 1.40907E+02 1.39875E+01 0.00000E+00
 -1      2970 2.87324E+01 2.73137E+01 0.00000E+00
 -1      2971 1.90725E+01 9.17973E+00 0.00000E+00
 -1      2972 4.25894E+01 2.33267E+01 0.00000E+00
 -1      2973 4.19686E+01 2.42537E+01 0.00000E+00
 -1      2974 2.23857E+01 2.25414E+01 0.00000E+00
 -1      2975 4.44974E+01 7.28860E+00 0.00000E+00
 -1      2976 4.49328E+01 2.07927E+01 0.00000E+00
 -1      2977 4.39251E+01 2.10956E+01 0.00000E+00
 -1      2978 4.20889E+01 2.54088E+01 0.00000E+00
 -1      2979 1.40954E+02 1.27206E+01 0.00000E+00
 -1      2980 1.40954E+02 1.12581E+01 0.00000E+00
 -1      2981 1.39749E+02 1.09242E+01 0.00000E+00
 -1      2982 1.39655E+02 1.34581E+01 0.00000E+00
 -1      2983 4.59124E+01 1.62887E+01 0.00000E+00
 -1      2984 1.41192E+02 3.82207E+01 0.00000E+00
 -1      2985 3.68980E+01 2.77085E+01 0.00000E+00
 -1      2986 4.52474E+01 8.58760E+00 0.00000E+00
 -1      2987 3.16909E+01 2.84112E+01 0.00000E+00
 -1      2988 1.39529E+02 3.85602E+01 0.00000E+00
 -1      2989 1.40542E+02 3.71145E+01 0.00000E+00
 -1      2990 1.39243E+02 3.63770E+01 0.00000E+00
 -1      2991 1.38514E+02 3.85310E+01 0.00000E+00
 -1      2992 1.09635E+01 1.04636E+01 0.00000E+00
 -1      2993 8.78718E+00 3.80644E+01 0.00000E+00
 -1      2994 9.09300E+00 2.86437E+01 0.00000E+00
 -1      2995 9.09300E+00 3.01187E+01 0.00000E+00
 -1      2996 1.03920E+01 3.08563E+01 0.00000E+00
 -1      2997 1.03920E+01 2.79188E+01 0.00000E+00
 -1      2998 2.43601E+01 2.47685E+01 0.00000E+00
 -1      2999 3.94671E+01 2.68034E+01 0.00000E+00
 -1      3000 4.54023E+01 1.86238E+01 0.00000E+00
 -1      3001 2.11078E+01 2.00014E+01 0.00000E+00
 -1      3002 4.33043E+01 2.20226E+01 0.00000E+00
 -1      3003 4.39149E+01 9.76955E+00 0.00000E+00
 -1      3004 4.41461E+01 1.10234E+01 0.00000E+00
 -1      3005 4.53171E+01 1.11287E+01 0.00000E+00
 -1      3006 4.43330E+01 9.20565E+00 0.00000E+00
 -1      3007 1.93477E+01 1.51604E+01 0.00000E+00
 -1      3008 1.94027E+01 1.39005E+01 0.00000E+00
 -1      3009 1.16910E+01 1.24625E+01 0.00000E+00
 -1      3010 1.16910E+01 1.39375E+01 0.00000E+00
 -1      3011 4.59320E+01 1.35505E+01 0.00000E+00
 -1      3012 4.70494E+01 1.59035E+01 0.00000E+00
 -1      3013 4.67759E+01 1.71227E+01 0.00000E+00
 -1      3014 1.89000E+01 3.83090E+01 0.00000E+00
 -1      3015 2.04000E+01 3.83090E+01 0.00000E+00
 -1      3016 2.19000E+01 3.83090E+01 0.00000E+00
 -1      3017 2.34000E+01 3.83090E+01 0.00000E+00
 -1      3018 2.11500E+01 3.70100E+01 0.00000E+00
 -1      3019 2.49000E+01 3.83090E+01 0.00000E+00
 -1      3020 2.64000E+01 3.83090E+01 0.00000E+00
 -1      3021 2.41500E+01 3.70100E+01 0.00000E+00
 -1      3022 2.79000E+01 3.83090E+01 0.00000E+00
 -1      3023 2.94000E+01 3.83090E+01 0.00000E+00
 -1      3024 2.71500E+01 3.70100E+01 0.00000E+00
 -1      3025 3.09000E+01 3.83090E+01 0.00000E+00
 -1      3026 3.24000E+01 3.83090E+01 0.00000E+00
 -1      3027 3.01500E+01 3.70100E+01 0.00000E+00
 -1      3028 3.39000E+01 3.83090E+01 0.00000E+00
 -1      3029 3.54000E+01 3.83090E+01 0.00000E+00
 -1      3030 3.31500E+01 3.70100E+01 0.00000E+00
 -1      3031 3.69000E+01 3.83090E+01 0.00000E+00
 -1      3032 3.84000E+01 3.83090E+01 0.00000E+00
 -1      3033 3.61500E+01 3.70100E+01 0.00000E+00
 -1      3034 3.99000E+01 3.83090E+01 0.00000E+00
 -1      3035 4.14000E+01 3.83090E+01 0.00000E+00
 -1      3036 3.91500E+01 3.70100E+01 0.00000E+00
 -1      3037 4.29000E+01 3.83090E+01 0.00000E+00
 -1      3038 4.44000E+01 3.83090E+01 0.00000E+00
 -1      3039 4.21500E+01 3.70100E+01 0.00000E+00
 -1      3040 4.59000E+01 3.83090E+01 0.00000E+00
 -1      3041 4.74000E+01 3.83090E+01 0.00000E+00
 -1      3042 4.51500E+01 3.70100E+01 0.00000E+00
 -1      3043 4.89000E+01 3.83090E+01 0.00000E+00
 -1      3044 5.04000E+01 3.83090E+01 0.00000E+00
 -1      3045 4.81500E+01 3.70100E+01 0.00000E+00
 -1      3046 5.19000E+01 3.83090E+01 0.00000E+00
 -1      3047 5.34000E+01 3.83090E+01 0.00000E+00
 -1      3048 5.11500E+01 3.70100E+01 0.00000E+00
 -1      3049 5.49000E+01 3.83090E+01 0.00000E+00
 -1      3050 5.64000E+01 3.83090E+01 0.00000E+00
 -1      3051 5.41500E+01 3.70100E+01 0.00000E+00
 -1      3052 5.79000E+01 3.83090E+01 0.00000E+00
 -1      3053 5.94000E+01 3.83090E+01 0.00000E+00
 -1      3054 5.71500E+01 3.70100E+01 0.00000E+00
 -1      3055 6.09000E+01 3.83090E+01 0.00000E+00
 -1      3056 6.24000E+01 3.83090E+01 0.00000E+00
 -1      3057 6.01500E+01 3.70100E+01 0.00000E+00
 -1      3058 6.39000E+01 3.83090E+01 0.00000E+00
 -1      3059 6.54000E+01 3.83090E+01 0.00000E+00
 -1      3060 6.31500E+01 3.70100E+01 0.00000E+00
 -1      3061 6.69000E+01 3.83090E+01 0.00000E+00
 -1      3062 6.84000E+01 3.83090E+01 0.00000E+00
 -1      3063 6.61500E+01 3.70100E+01 0.00000E+00
 -1      3064 6.99000E+01 3.83090E+01 0.00000E+00
 -1      3065 7.14000E+01 3.83090E+01 0.00000E+00
 -1      3066 6.91500E+01 3.70100E+01 0.00000E+00
 -1      3067 7.29000E+01 3.83090E+01 0.00000E+00
 -1      3068 7.44000E+01 3.83090E+01 0.00000E+00
 -1      3069 7.21500E+01 3.70100E+01 0.00000E+00
 -1      3070 7.59000E+01 3.83090E+01 0.00000E+00
 -1      3071 7.74000E+01 3.83090E+01 0.00000E+00
 -1      3072 7.51500E+01 3.70100E+01 0.00000E+00
 -1      3073 7.89000E+01 3.83090E+01 0.00000E+00
 -1      3074 8.04000E+01 3.83090E+01 0.00000E+00
 -1      3075 7.81500E+01 3.70100E+01 0.00000E+00
 -1      3076 8.19000E+01 3.83090E+01 0.00000E+00
 -1      3077 8.34000E+01 3.83090E+01 0.00000E+00
 -1      3078 8.11500E+01 3.70100E+01 0.00000E+00
 -1      3079 8.49000E+01 3.83090E+01 0.00000E+00
 -1      3080 8.64000E+01 3.83090E+01 0.00000E+00
 -1      3081 8.41500E+01 3.70100E+01 0.00000E+00
 -1      3082 8.79000E+01 3.83090E+01 0.00000E+00
 -1      3083 8.94000E+01 3.83090E+01 0.00000E+00
 -1      3084 8.71500E+01 3.70100E+01 0.00000E+00
 -1      3085 9.09000E+01 3.83090E+01 0.00000E+00
 -1      3086 9.24000E+01 3.83090E+01 0.00000E+00
 -1      3087 9.01500E+01 3.70100E+01 0.00000E+00
 -1      3088 9.39000E+01 3.83090E+01 0.00000E+00
 -1      3089 9.54000E+01 3.83090E+01 0.00000E+00
 -1      3090 9.31500E+01 3.70100E+01 0.00000E+00
 -1      3091 9.69000E+01 3.83090E+01 0.00000E+00
 -1      3092 9.84000E+01 3.83090E+01 0.00000E+00
 -1      3093 9.61500E+01 3.70100E+01 0.00000E+00
 -1      3094 9.99000E+01 3.83090E+01 0.00000E+00
 -1      3095 1.01400E+02 3.83090E+01 0.00000E+00
 -1      3096 9.91500E+01 3.70100E+01 0.00000E+00
 -1      3097 1.02900E+02 3.83090E+01 0.00000E+00
 -1      3098 1.04400E+02 3.83090E+01 0.00000E+00
 -1      3099 1.02150E+02 3.70100E+01 0.00000E+00
 -1      3100 1.05900E+02 3.83090E+01 0.00000E+00
 -1      3101 1.07400E+02 3.83090E+01 0.00000E+00
 -1      3102 1.05150E+02 3.70100E+01 0.00000E+00
 -1      3103 1.08900E+02 3.83090E+01 0.00000E+00
 -1      3104 1.10400E+02 3.83090E+01 0.00000E+00
 -1      3105 1.08150E+02 3.70100E+01 0.00000E+00
 -1      3106 1.11900E+02 3.83090E+01 0.00000E+00
 -1      3107 1.13400E+02 3.83090E+01 0.00000E+00
 -1      3108 1.11150E+02 3.70100E+01 0.00000E+00
 -1      3109 1.14900E+02 3.83090E+01 0.00000E+00
 -1      3110 1.16400E+02 3.83090E+01 0.00000E+00
 -1      3111 1.14150E+02 3.70100E+01 0.00000E+00
 -1      3112 1.17900E+02 3.83090E+01 0.00000E+00
 -1      3113 1.19400E+02 3.83090E+01 0.00000E+00
 -1      3114 1.17150E+02 3.70100E+01 0.00000E+00
 -1      3115 1.20900E+02 3.83090E+01 0.00000E+00
 -1      3116 1.22400E+02 3.83090E+01 0.00000E+00
 -1      3117 1.20150E+02 3.70100E+01 0.00000E+00
 -1      3118 1.23900E+02 3.83090E+01 0.00000E+00
 -1      3119 1.25400E+02 3.83090E+01 0.00000E+00
 -1      3120 1.23150E+02 3.70100E+01 0.00000E+00
 -1      3121 1.26900E+02 3.83090E+01 0.00000E+00
 -1      3122 1.28400E+02 3.83090E+01 0.00000E+00
 -1      3123 1.26150E+02 3.70100E+01 0.00000E+00
 -1      3124 1.29900E+02 3.83090E+01 0.00000E+00
 -1      3125 1.31400E+02 3.83090E+01 0.00000E+00
 -1      3126 1.29150E+02 3.70100E+01 0.00000E+00
 -1      3127 1.32900E+02 3.83090E+01 0.00000E+00
 -1      3128 1.34400E+02 3.83090E+01 0.00000E+00
 -1      3129 1.32150E+02 3.70100E+01 0.00000E+00
 -1      3130 1.35707E+02 3.84200E+01 0.00000E+00
 -1      3131 1.37207E+02 3.84200E+01 0.00000E+00
 -1      3132 1.37572E+02 3.73430E+01 0.00000E+00
 -1      3133 1.34957E+02 3.71210E+01 0.00000E+00
 -1      3134 4.39850E+01 2.31497E+01 0.00000E+00
 -1      3135 2.17859E+01 2.38491E+01 0.00000E+00
 -1      3136 2.09485E+01 2.24751E+01 0.00000E+00
 -1      3137 3.22036E+01 2.96132E+01 0.00000E+00
 -1      3138 3.06397E+01 2.91875E+01 0.00000E+00
 -1      3139 4.61320E+01 2.05056E+01 0.00000E+00
 -1      3140 4.58991E+01 2.15586E+01 0.00000E+00
 -1      3141 5.51475E+01 1.02886E+01 0.00000E+00
 -1      3142 5.35725E+01 1.02886E+01 0.00000E+00
 -1      3143 6.41850E+01 1.02886E+01 0.00000E+00
 -1      3144 6.26850E+01 1.02886E+01 0.00000E+00
 -1      3145 6.71850E+01 1.02886E+01 0.00000E+00
 -1      3146 6.56850E+01 1.02886E+01 0.00000E+00
 -1      3147 6.49350E+01 1.15876E+01 0.00000E+00
 -1      3148 7.01850E+01 1.02886E+01 0.00000E+00
 -1      3149 6.86850E+01 1.02886E+01 0.00000E+00
 -1      3150 6.79350E+01 1.15876E+01 0.00000E+00
 -1      3151 7.31850E+01 1.02886E+01 0.00000E+00
 -1      3152 7.16850E+01 1.02886E+01 0.00000E+00
 -1      3153 7.09350E+01 1.15876E+01 0.00000E+00
 -1      3154 7.61850E+01 1.02886E+01 0.00000E+00
 -1      3155 7.46850E+01 1.02886E+01 0.00000E+00
 -1      3156 7.39350E+01 1.15876E+01 0.00000E+00
 -1      3157 7.93350E+01 1.02886E+01 0.00000E+00
 -1      3158 7.77600E+01 1.02886E+01 0.00000E+00
 -1      3159 7.70100E+01 1.15876E+01 0.00000E+00
 -1      3160 8.23350E+01 1.02886E+01 0.00000E+00
 -1      3161 8.08350E+01 1.02886E+01 0.00000E+00
 -1      3162 8.00850E+01 1.15876E+01 0.00000E+00
 -1      3163 8.53350E+01 1.02886E+01 0.00000E+00
 -1      3164 8.38350E+01 1.02886E+01 0.00000E+00
 -1      3165 8.30850E+01 1.15876E+01 0.00000E+00
 -1      3166 8.83350E+01 1.02886E+01 0.00000E+00
 -1      3167 8.68350E+01 1.02886E+01 0.00000E+00
 -1      3168 8.60850E+01 1.15876E+01 0.00000E+00
 -1      3169 9.13350E+01 1.02886E+01 0.00000E+00
 -1      3170 8.98350E+01 1.02886E+01 0.00000E+00
 -1      3171 8.90850E+01 1.15876E+01 0.00000E+00
 -1      3172 9.43350E+01 1.02886E+01 0.00000E+00
 -1      3173 9.28350E+01 1.02886E+01 0.00000E+00
 -1      3174 9.20850E+01 1.15876E+01 0.00000E+00
 -1      3175 9.73350E+01 1.02886E+01 0.00000E+00
 -1      3176 9.58350E+01 1.02886E+01 0.00000E+00
 -1      3177 9.50850E+01 1.15876E+01 0.00000E+00
 -1      3178 1.00485E+02 1.02886E+01 0.00000E+00
 -1      3179 9.89100E+01 1.02886E+01 0.00000E+00
 -1      3180 9.81600E+01 1.15876E+01 0.00000E+00
 -1      3181 1.03485E+02 1.02886E+01 0.00000E+00
 -1      3182 1.01985E+02 1.02886E+01 0.00000E+00
 -1      3183 1.01235E+02 1.15876E+01 0.00000E+00
 -1      3184 1.06485E+02 1.02886E+01 0.00000E+00
 -1      3185 1.04985E+02 1.02886E+01 0.00000E+00
 -1      3186 1.04235E+02 1.15876E+01 0.00000E+00
 -1      3187 1.09485E+02 1.02886E+01 0.00000E+00
 -1      3188 1.07985E+02 1.02886E+01 0.00000E+00
 -1      3189 1.07235E+02 1.15876E+01 0.00000E+00
 -1      3190 1.12485E+02 1.02886E+01 0.00000E+00
 -1      3191 1.10985E+02 1.02886E+01 0.00000E+00
 -1      3192 1.10235E+02 1.15876E+01 0.00000E+00
 -1      3193 1.15485E+02 1.02886E+01 0.00000E+00
 -1      3194 1.13985E+02 1.02886E+01 0.00000E+00
 -1      3195 1.13235E+02 1.15876E+01 0.00000E+00
 -1      3196 1.18485E+02 1.02886E+01 0.00000E+00
 -1      3197 1.16985E+02 1.02886E+01 0.00000E+00
 -1      3198 1.16235E+02 1.15876E+01 0.00000E+00
 -1      3199 1.21485E+02 1.02886E+01 0.00000E+00
 -1      3200 1.19985E+02 1.02886E+01 0.00000E+00
 -1      3201 1.19235E+02 1.15876E+01 0.00000E+00
 -1      3202 1.24635E+02 1.02886E+01 0.00000E+00
 -1      3203 1.23060E+02 1.02886E+01 0.00000E+00
 -1      3204 1.22310E+02 1.15876E+01 0.00000E+00
 -1      3205 1.27635E+02 1.02886E+01 0.00000E+00
 -1      3206 1.26135E+02 1.02886E+01 0.00000E+00
 -1      3207 1.25385E+02 1.15876E+01 0.00000E+00
 -1      3208 1.30635E+02 1.02886E+01 0.00000E+00
 -1      3209 1.29135E+02 1.02886E+01 0.00000E+00
 -1      3210 1.28385E+02 1.15876E+01 0.00000E+00
 -1      3211 1.33635E+02 1.02886E+01 0.00000E+00
 -1      3212 1.32135E+02 1.02886E+01 0.00000E+00
 -1      3213 1.31385E+02 1.15876E+01 0.00000E+00
 -1      3214 1.36635E+02 1.02886E+01 0.00000E+00
 -1      3215 1.35135E+02 1.02886E+01 0.00000E+00
 -1      3216 1.34385E+02 1.15876E+01 0.00000E+00
 -1      3217 1.38794E+02 1.07734E+01 0.00000E+00
 -1      3218 1.37589E+02 1.04395E+01 0.00000E+00
 -1      3219 1.36839E+02 1.17385E+01 0.00000E+00
 -1      3220 1.38748E+02 1.20403E+01 0.00000E+00
 -1      3221 1.26488E+01 1.02017E+01 0.00000E+00
 -1      3222 1.20772E+01 1.14631E+01 0.00000E+00
 -1      3223 1.33763E+01 1.22006E+01 0.00000E+00
 -1      3224 1.41488E+01 1.02017E+01 0.00000E+00
 -1      3225 1.16910E+01 2.12875E+01 0.00000E+00
 -1      3226 1.16910E+01 2.27625E+01 0.00000E+00
 -1      3227 4.34962E+01 2.59415E+01 0.00000E+00
 -1      3228 4.23151E+01 2.68964E+01 0.00000E+00
 -1      3229 1.38309E+02 2.57625E+01 0.00000E+00
 -1      3230 1.38309E+02 2.42875E+01 0.00000E+00
 -1      3231 1.38309E+02 3.45625E+01 0.00000E+00
 -1      3232 1.38309E+02 3.30875E+01 0.00000E+00
 -1      3233 1.38309E+02 2.86625E+01 0.00000E+00
 -1      3234 1.38309E+02 2.72125E+01 0.00000E+00
 -1      3235 1.37010E+02 2.64750E+01 0.00000E+00
 -1      3236 2.05059E+01 1.73352E+01 0.00000E+00
 -1      3237 5.20725E+01 1.02886E+01 0.00000E+00
 -1      3238 5.05725E+01 1.02886E+01 0.00000E+00
 -1      3239 5.28600E+01 1.15876E+01 0.00000E+00
 -1      3240 1.90336E+01 1.02192E+01 0.00000E+00
 -1      3241 3.78210E+01 2.83461E+01 0.00000E+00
 -1      3242 3.66927E+01 2.88114E+01 0.00000E+00
 -1      3243 1.38309E+02 3.16125E+01 0.00000E+00
 -1      3244 1.38309E+02 3.01375E+01 0.00000E+00
 -1      3245 1.37010E+02 2.94000E+01 0.00000E+00
 -1      3246 1.37010E+02 3.23500E+01 0.00000E+00
 -1      3247 6.11850E+01 1.02886E+01 0.00000E+00
 -1      3248 5.96850E+01 1.02886E+01 0.00000E+00
 -1      3249 6.19350E+01 1.15876E+01 0.00000E+00
 -1      3250 5.81850E+01 1.02886E+01 0.00000E+00
 -1      3251 5.66850E+01 1.02886E+01 0.00000E+00
 -1      3252 5.89350E+01 1.15876E+01 0.00000E+00
 -1      3253 2.89848E+01 2.85732E+01 0.00000E+00
 -1      3254 2.75902E+01 2.79013E+01 0.00000E+00
 -1      3255 1.59000E+01 3.83090E+01 0.00000E+00
 -1      3256 1.74000E+01 3.83090E+01 0.00000E+00
 -1      3257 1.81500E+01 3.70100E+01 0.00000E+00
 -1      3258 2.64212E+01 2.72101E+01 0.00000E+00
 -1      3259 2.55009E+01 2.66999E+01 0.00000E+00
 -1      3260 4.07026E+01 2.74666E+01 0.00000E+00
 -1      3261 3.92618E+01 2.79063E+01 0.00000E+00
 -1      3262 3.90565E+01 2.90092E+01 0.00000E+00
 -1      3263 2.05258E+01 2.08874E+01 0.00000E+00
 -1      3264 2.00853E+01 1.97215E+01 0.00000E+00
 -1      3265 2.42631E+01 2.60820E+01 0.00000E+00
 -1      3266 2.31261E+01 2.52290E+01 0.00000E+00
 -1      3267 4.58706E+01 9.60769E+00 0.00000E+00
 -1      3268 4.65722E+01 1.82562E+01 0.00000E+00
 -1      3269 4.63356E+01 1.93721E+01 0.00000E+00
 -1      3270 4.73020E+01 2.01380E+01 0.00000E+00
 -1      3271 4.77093E+01 1.78710E+01 0.00000E+00
 -1      3272 1.00862E+01 3.73269E+01 0.00000E+00
 -1      3273 1.71488E+01 1.02017E+01 0.00000E+00
 -1      3274 1.56488E+01 1.02017E+01 0.00000E+00
 -1      3275 1.52625E+01 1.12011E+01 0.00000E+00
 -1      3276 3.54450E+01 2.94929E+01 0.00000E+00
 -1      3277 3.41876E+01 2.98244E+01 0.00000E+00
 -1      3278 4.62315E+01 1.05107E+01 0.00000E+00
 -1      3279 4.65924E+01 1.14136E+01 0.00000E+00
 -1      3280 4.71459E+01 9.89260E+00 0.00000E+00
 -1      3281 4.68464E+01 1.29325E+01 0.00000E+00
 -1      3282 4.71003E+01 1.44513E+01 0.00000E+00
 -1      3283 4.77608E+01 1.23144E+01 0.00000E+00
 -1      3284 4.54815E+01 2.31221E+01 0.00000E+00
 -1      3285 4.47666E+01 2.44263E+01 0.00000E+00
 -1      3286 1.96507E+01 1.81860E+01 0.00000E+00
 -1      3287 1.94892E+01 1.66858E+01 0.00000E+00
 -1      3288 1.16910E+01 2.42375E+01 0.00000E+00
 -1      3289 1.16910E+01 2.57125E+01 0.00000E+00
 -1      3290 1.29900E+01 2.35000E+01 0.00000E+00
 -1      3291 1.29900E+01 1.46687E+01 0.00000E+00
 -1      3292 1.16910E+01 1.54063E+01 0.00000E+00
 -1      3293 1.16910E+01 1.68750E+01 0.00000E+00
 -1      3294 4.66807E+01 2.28351E+01 0.00000E+00
 -1      3295 4.79638E+01 1.52854E+01 0.00000E+00
 -1      3296 1.84925E+01 1.60112E+01 0.00000E+00
 -1      3297 1.38309E+02 1.69188E+01 0.00000E+00
 -1      3298 1.38309E+02 1.54563E+01 0.00000E+00
 -1      3299 1.83900E+01 1.34463E+01 0.00000E+00
 -1      3300 1.94416E+01 1.28610E+01 0.00000E+00
 -1      3301 1.94805E+01 1.18215E+01 0.00000E+00
 -1      3302 3.63681E+01 3.01305E+01 0.00000E+00
 -1      3303 4.86459E+01 9.89260E+00 0.00000E+00
 -1      3304 2.16890E+01 2.51627E+01 0.00000E+00
 -1      3305 2.94975E+01 2.97751E+01 0.00000E+00
 -1      3306 5.58975E+01 1.15876E+01 0.00000E+00
 -1      3307 3.40692E+01 3.15882E+01 0.00000E+00
 -1      3308 3.31364E+01 3.06007E+01 0.00000E+00
 -1      3309 3.20852E+01 3.13770E+01 0.00000E+00
 -1      3310 1.38309E+02 1.98687E+01 0.00000E+00
 -1      3311 1.38309E+02 1.83937E+01 0.00000E+00
 -1      3312 1.37010E+02 1.76625E+01 0.00000E+00
 -1      3313 4.49927E+01 2.59139E+01 0.00000E+00
 -1      3314 4.21099E+01 2.79993E+01 0.00000E+00
 -1      3315 2.66736E+01 2.84696E+01 0.00000E+00
 -1      3316 1.38309E+02 2.28156E+01 0.00000E+00
 -1      3317 1.38309E+02 2.13406E+01 0.00000E+00
 -1      3318 1.37010E+02 2.06094E+01 0.00000E+00
 -1      3319 1.37010E+02 2.35531E+01 0.00000E+00
 -1      3320 2.42669E+01 2.71604E+01 0.00000E+00
 -1      3321 1.16910E+01 1.83469E+01 0.00000E+00
 -1      3322 1.16910E+01 1.98156E+01 0.00000E+00
 -1      3323 1.29900E+01 2.05531E+01 0.00000E+00
 -1      3324 1.29900E+01 1.76094E+01 0.00000E+00
 -1      3325 1.14286E+01 3.73811E+01 0.00000E+00
 -1      3326 1.90687E+01 1.90721E+01 0.00000E+00
 -1      3327 1.45576E+01 3.82548E+01 0.00000E+00
 -1      3328 1.53076E+01 3.69558E+01 0.00000E+00
 -1      3329 1.32152E+01 3.82007E+01 0.00000E+00
 -1      3330 4.94334E+01 1.11916E+01 0.00000E+00
 -1      3331 1.16910E+01 3.01219E+01 0.00000E+00
 -1      3332 1.16910E+01 3.15906E+01 0.00000E+00
 -1      3333 1.16910E+01 3.30594E+01 0.00000E+00
 -1      3334 1.16910E+01 3.45281E+01 0.00000E+00
 -1      3335 1.29900E+01 3.23250E+01 0.00000E+00
 -1      3336 1.99261E+01 2.21951E+01 0.00000E+00
 -1      3337 1.37758E+02 3.64912E+01 0.00000E+00
 -1      3338 1.38123E+02 3.54142E+01 0.00000E+00
 -1      3339 1.36824E+02 3.46768E+01 0.00000E+00
 -1      3340 1.36451E+02 3.63802E+01 0.00000E+00
 -1      3341 1.21786E+01 3.60821E+01 0.00000E+00
 -1      3342 4.66233E+01 2.59908E+01 0.00000E+00
 -1      3343 4.53530E+01 2.75060E+01 0.00000E+00
 -1      3344 4.81228E+01 2.23827E+01 0.00000E+00
 -1      3345 4.77051E+01 2.39463E+01 0.00000E+00
 -1      3346 2.34000E+01 3.57110E+01 0.00000E+00
 -1      3347 2.49000E+01 3.57110E+01 0.00000E+00
 -1      3348 2.64000E+01 3.57110E+01 0.00000E+00
 -1      3349 2.79000E+01 3.57110E+01 0.00000E+00
 -1      3350 2.56500E+01 3.44120E+01 0.00000E+00
 -1      3351 2.94000E+01 3.57110E+01 0.00000E+00
 -1      3352 3.09000E+01 3.57110E+01 0.00000E+00
 -1      3353 2.86500E+01 3.44120E+01 0.00000E+00
 -1      3354 3.23340E+01 3.46873E+01 0.00000E+00
 -1      3355 3.38340E+01 3.46873E+01 0.00000E+00
 -1      3356 3.84000E+01 3.57110E+01 0.00000E+00
 -1      3357 3.99000E+01 3.57110E+01 0.00000E+00
 -1      3358 4.14000E+01 3.57110E+01 0.00000E+00
 -1      3359 4.29000E+01 3.57110E+01 0.00000E+00
 -1      3360 4.06500E+01 3.44120E+01 0.00000E+00
 -1      3361 4.44000E+01 3.57110E+01 0.00000E+00
 -1      3362 4.59000E+01 3.57110E+01 0.00000E+00
 -1      3363 4.36500E+01 3.44120E+01 0.00000E+00
 -1      3364 4.74000E+01 3.57110E+01 0.00000E+00
 -1      3365 4.89000E+01 3.57110E+01 0.00000E+00
 -1      3366 4.66500E+01 3.44120E+01 0.00000E+00
 -1      3367 5.04000E+01 3.57110E+01 0.00000E+00
 -1      3368 5.19000E+01 3.57110E+01 0.00000E+00
 -1      3369 4.96500E+01 3.44120E+01 0.00000E+00
 -1      3370 5.34000E+01 3.57110E+01 0.00000E+00
 -1      3371 5.49000E+01 3.57110E+01 0.00000E+00
 -1      3372 5.26500E+01 3.44120E+01 0.00000E+00
 -1      3373 5.64000E+01 3.57110E+01 0.00000E+00
 -1      3374 5.79000E+01 3.57110E+01 0.00000E+00
 -1      3375 5.56500E+01 3.44120E+01 0.00000E+00
 -1      3376 5.94000E+01 3.57110E+01 0.00000E+00
 -1      3377 6.09000E+01 3.57110E+01 0.00000E+00
 -1      3378 5.86500E+01 3.44120E+01 0.00000E+00
 -1      3379 6.24000E+01 3.57110E+01 0.00000E+00
 -1      3380 6.39000E+01 3.57110E+01 0.00000E+00
 -1      3381 6.16500E+01 3.44120E+01 0.00000E+00
 -1      3382 6.54000E+01 3.57110E+01 0.00000E+00
 -1      3383 6.69000E+01 3.57110E+01 0.00000E+00
 -1      3384 6.46500E+01 3.44120E+01 0.00000E+00
 -1      3385 6.84000E+01 3.57110E+01 0.00000E+00
 -1      3386 6.99000E+01 3.57110E+01 0.00000E+00
 -1      3387 6.76500E+01 3.44120E+01 0.00000E+00
 -1      3388 7.14000E+01 3.57110E+01 0.00000E+00
 -1      3389 7.29000E+01 3.57110E+01 0.00000E+00
 -1      3390 7.06500E+01 3.44120E+01 0.00000E+00
 -1      3391 7.44000E+01 3.57110E+01 0.00000E+00
 -1      3392 7.59000E+01 3.57110E+01 0.00000E+00
 -1      3393 7.36500E+01 3.44120E+01 0.00000E+00
 -1      3394 7.74000E+01 3.57110E+01 0.00000E+00
 -1      3395 7.89000E+01 3.57110E+01 0.00000E+00
 -1      3396 7.66500E+01 3.44120E+01 0.00000E+00
 -1      3397 8.04000E+01 3.57110E+01 0.00000E+00
 -1      3398 8.19000E+01 3.57110E+01 0.00000E+00
 -1      3399 7.96500E+01 3.44120E+01 0.00000E+00
 -1      3400 8.34000E+01 3.57110E+01 0.00000E+00
 -1      3401 8.49000E+01 3.57110E+01 0.00000E+00
 -1      3402 8.26500E+01 3.44120E+01 0.00000E+00
 -1      3403 8.64000E+01 3.57110E+01 0.00000E+00
 -1      3404 8.79000E+01 3.57110E+01 0.00000E+00
 -1      3405 8.56500E+01 3.44120E+01 0.00000E+00
 -1      3406 8.94000E+01 3.57110E+01 0.00000E+00
 -1      3407 9.09000E+01 3.57110E+01 0.00000E+00
 -1      3408 8.86500E+01 3.44120E+01 0.00000E+00
 -1      3409 9.24000E+01 3.57110E+01 0.00000E+00
 -1      3410 9.39000E+01 3.57110E+01 0.00000E+00
 -1      3411 9.16500E+01 3.44120E+01 0.00000E+00
 -1      3412 9.54000E+01 3.57110E+01 0.00000E+00
 -1      3413 9.69000E+01 3.57110E+01 0.00000E+00
 -1      3414 9.46500E+01 3.44120E+01 0.00000E+00
 -1      3415 9.84000E+01 3.57110E+01 0.00000E+00
 -1      3416 9.99000E+01 3.57110E+01 0.00000E+00
 -1      3417 9.76500E+01 3.44120E+01 0.00000E+00
 -1      3418 1.01400E+02 3.57110E+01 0.00000E+00
 -1      3419 1.02900E+02 3.57110E+01 0.00000E+00
 -1      3420 1.00650E+02 3.44120E+01 0.00000E+00
 -1      3421 1.04400E+02 3.57110E+01 0.00000E+00
 -1      3422 1.05900E+02 3.57110E+01 0.00000E+00
 -1      3423 1.03650E+02 3.44120E+01 0.00000E+00
 -1      3424 1.07400E+02 3.57110E+01 0.00000E+00
 -1      3425 1.08900E+02 3.57110E+01 0.00000E+00
 -1      3426 1.06650E+02 3.44120E+01 0.00000E+00
 -1      3427 1.10400E+02 3.57110E+01 0.00000E+00
 -1      3428 1.11900E+02 3.57110E+01 0.00000E+00
 -1      3429 1.09650E+02 3.44120E+01 0.00000E+00
 -1      3430 1.13400E+02 3.57110E+01 0.00000E+00
 -1      3431 1.14900E+02 3.57110E+01 0.00000E+00
 -1      3432 1.12650E+02 3.44120E+01 0.00000E+00
 -1      3433 1.16400E+02 3.57110E+01 0.00000E+00
 -1      3434 1.17900E+02 3.57110E+01 0.00000E+00
 -1      3435 1.15650E+02 3.44120E+01 0.00000E+00
 -1      3436 1.19400E+02 3.57110E+01 0.00000E+00
 -1      3437 1.20900E+02 3.57110E+01 0.00000E+00
 -1      3438 1.18650E+02 3.44120E+01 0.00000E+00
 -1      3439 1.22400E+02 3.57110E+01 0.00000E+00
 -1      3440 1.23900E+02 3.57110E+01 0.00000E+00
 -1      3441 1.21650E+02 3.44120E+01 0.00000E+00
 -1      3442 1.25400E+02 3.57110E+01 0.00000E+00
 -1      3443 1.26900E+02 3.57110E+01 0.00000E+00
 -1      3444 1.24650E+02 3.44120E+01 0.00000E+00
 -1      3445 1.28400E+02 3.57110E+01 0.00000E+00
 -1      3446 1.29900E+02 3.57110E+01 0.00000E+00
 -1      3447 1.27650E+02 3.44120E+01 0.00000E+00
 -1      3448 1.31400E+02 3.57110E+01 0.00000E+00
 -1      3449 1.32900E+02 3.57110E+01 0.00000E+00
 -1      3450 1.30650E+02 3.44120E+01 0.00000E+00
 -1      3451 4.90975E+01 1.45982E+01 0.00000E+00
 -1      3452 4.90466E+01 1.60503E+01 0.00000E+00
 -1      3453 1.79820E+01 1.08045E+01 0.00000E+00
 -1      3454 6.56850E+01 1.28866E+01 0.00000E+00
 -1      3455 6.41850E+01 1.28866E+01 0.00000E+00
 -1      3456 7.46850E+01 1.28866E+01 0.00000E+00
 -1      3457 7.31850E+01 1.28866E+01 0.00000E+00
 -1      3458 7.78350E+01 1.28866E+01 0.00000E+00
 -1      3459 7.62600E+01 1.28866E+01 0.00000E+00
 -1      3460 7.55100E+01 1.41856E+01 0.00000E+00
 -1      3461 8.08350E+01 1.28866E+01 0.00000E+00
 -1      3462 7.93350E+01 1.28866E+01 0.00000E+00
 -1      3463 7.85850E+01 1.41856E+01 0.00000E+00
 -1      3464 8.38350E+01 1.28866E+01 0.00000E+00
 -1      3465 8.23350E+01 1.28866E+01 0.00000E+00
 -1      3466 8.15850E+01 1.41856E+01 0.00000E+00
 -1      3467 8.68350E+01 1.28866E+01 0.00000E+00
 -1      3468 8.53350E+01 1.28866E+01 0.00000E+00
 -1      3469 8.45850E+01 1.41856E+01 0.00000E+00
 -1      3470 8.98350E+01 1.28866E+01 0.00000E+00
 -1      3471 8.83350E+01 1.28866E+01 0.00000E+00
 -1      3472 8.75850E+01 1.41856E+01 0.00000E+00
 -1      3473 9.28350E+01 1.28866E+01 0.00000E+00
 -1      3474 9.13350E+01 1.28866E+01 0.00000E+00
 -1      3475 9.05850E+01 1.41856E+01 0.00000E+00
 -1      3476 9.58350E+01 1.28866E+01 0.00000E+00
 -1      3477 9.43350E+01 1.28866E+01 0.00000E+00
 -1      3478 9.35850E+01 1.41856E+01 0.00000E+00
 -1      3479 9.89850E+01 1.28866E+01 0.00000E+00
 -1      3480 9.74100E+01 1.28866E+01 0.00000E+00
 -1      3481 9.66600E+01 1.41856E+01 0.00000E+00
 -1      3482 1.01985E+02 1.28866E+01 0.00000E+00
 -1      3483 1.00485E+02 1.28866E+01 0.00000E+00
 -1      3484 9.97350E+01 1.41856E+01 0.00000E+00
 -1      3485 1.04985E+02 1.28866E+01 0.00000E+00
 -1      3486 1.03485E+02 1.28866E+01 0.00000E+00
 -1      3487 1.02735E+02 1.41856E+01 0.00000E+00
 -1      3488 1.07985E+02 1.28866E+01 0.00000E+00
 -1      3489 1.06485E+02 1.28866E+01 0.00000E+00
 -1      3490 1.05735E+02 1.41856E+01 0.00000E+00
 -1      3491 1.10985E+02 1.28866E+01 0.00000E+00
 -1      3492 1.09485E+02 1.28866E+01 0.00000E+00
 -1      3493 1.08735E+02 1.41856E+01 0.00000E+00
 -1      3494 1.13985E+02 1.28866E+01 0.00000E+00
 -1      3495 1.12485E+02 1.28866E+01 0.00000E+00
 -1      3496 1.11735E+02 1.41856E+01 0.00000E+00
 -1      3497 1.16985E+02 1.28866E+01 0.00000E+00
 -1      3498 1.15485E+02 1.28866E+01 0.00000E+00
 -1      3499 1.14735E+02 1.41856E+01 0.00000E+00
 -1      3500 1.19985E+02 1.28866E+01 0.00000E+00
 -1      3501 1.18485E+02 1.28866E+01 0.00000E+00
 -1      3502 1.17735E+02 1.41856E+01 0.00000E+00
 -1      3503 1.23135E+02 1.28866E+01 0.00000E+00
 -1      3504 1.21560E+02 1.28866E+01 0.00000E+00
 -1      3505 1.20810E+02 1.41856E+01 0.00000E+00
 -1      3506 1.26135E+02 1.28866E+01 0.00000E+00
 -1      3507 1.24635E+02 1.28866E+01 0.00000E+00
 -1      3508 1.23885E+02 1.41856E+01 0.00000E+00
 -1      3509 1.29135E+02 1.28866E+01 0.00000E+00
 -1      3510 1.27635E+02 1.28866E+01 0.00000E+00
 -1      3511 1.26885E+02 1.41856E+01 0.00000E+00
 -1      3512 1.32135E+02 1.28866E+01 0.00000E+00
 -1      3513 1.30635E+02 1.28866E+01 0.00000E+00
 -1      3514 1.29885E+02 1.41856E+01 0.00000E+00
 -1      3515 1.35135E+02 1.28866E+01 0.00000E+00
 -1      3516 1.33635E+02 1.28866E+01 0.00000E+00
 -1      3517 1.32885E+02 1.41856E+01 0.00000E+00
 -1      3518 2.43905E+01 2.84615E+01 0.00000E+00
 -1      3519 2.31528E+01 2.78437E+01 0.00000E+00
 -1      3520 1.38505E+02 1.43817E+01 0.00000E+00
 -1      3521 1.38552E+02 1.31148E+01 0.00000E+00
 -1      3522 1.37598E+02 1.29639E+01 0.00000E+00
 -1      3523 1.37206E+02 1.51130E+01 0.00000E+00
 -1      3524 1.35711E+02 2.72000E+01 0.00000E+00
 -1      3525 1.35711E+02 2.57500E+01 0.00000E+00
 -1      3526 2.67284E+01 2.98440E+01 0.00000E+00
 -1      3527 2.55595E+01 2.91528E+01 0.00000E+00
 -1      3528 2.44453E+01 2.98360E+01 0.00000E+00
 -1      3529 5.36100E+01 1.28866E+01 0.00000E+00
 -1      3530 5.21100E+01 1.28866E+01 0.00000E+00
 -1      3531 1.43194E+01 1.24352E+01 0.00000E+00
 -1      3532 1.39331E+01 1.34347E+01 0.00000E+00
 -1      3533 1.39331E+01 1.49034E+01 0.00000E+00
 -1      3534 1.58194E+01 1.24352E+01 0.00000E+00
 -1      3535 6.26850E+01 1.28866E+01 0.00000E+00
 -1      3536 6.11850E+01 1.28866E+01 0.00000E+00
 -1      3537 6.34350E+01 1.41856E+01 0.00000E+00
 -1      3538 1.16910E+01 2.86531E+01 0.00000E+00
 -1      3539 1.29900E+01 2.93875E+01 0.00000E+00
 -1      3540 1.16910E+01 2.71844E+01 0.00000E+00
 -1      3541 5.96850E+01 1.28866E+01 0.00000E+00
 -1      3542 5.81850E+01 1.28866E+01 0.00000E+00
 -1      3543 6.04350E+01 1.41856E+01 0.00000E+00
 -1      3544 5.66662E+01 1.28866E+01 0.00000E+00
 -1      3545 5.51287E+01 1.28866E+01 0.00000E+00
 -1      3546 5.43787E+01 1.41856E+01 0.00000E+00
 -1      3547 5.74162E+01 1.41856E+01 0.00000E+00
 -1      3548 6.86850E+01 1.28866E+01 0.00000E+00
 -1      3549 6.71850E+01 1.28866E+01 0.00000E+00
 -1      3550 6.64350E+01 1.41856E+01 0.00000E+00
 -1      3551 1.74000E+01 3.57110E+01 0.00000E+00
 -1      3552 1.89000E+01 3.57110E+01 0.00000E+00
 -1      3553 2.14272E+01 2.67576E+01 0.00000E+00
 -1      3554 2.00870E+01 2.53778E+01 0.00000E+00
 -1      3555 2.04000E+01 3.57110E+01 0.00000E+00
 -1      3556 2.19000E+01 3.57110E+01 0.00000E+00
 -1      3557 2.26500E+01 3.44120E+01 0.00000E+00
 -1      3558 1.83803E+01 2.00962E+01 0.00000E+00
 -1      3559 1.79456E+01 1.85608E+01 0.00000E+00
 -1      3560 4.01006E+01 2.98500E+01 0.00000E+00
 -1      3561 3.86599E+01 3.02897E+01 0.00000E+00
 -1      3562 2.99390E+01 3.11219E+01 0.00000E+00
 -1      3563 2.82841E+01 3.05076E+01 0.00000E+00
 -1      3564 3.74122E+01 3.09712E+01 0.00000E+00
 -1      3565 3.61645E+01 3.16527E+01 0.00000E+00
 -1      3566 3.84563E+01 3.18120E+01 0.00000E+00
 -1      3567 7.16850E+01 1.28866E+01 0.00000E+00
 -1      3568 7.01850E+01 1.28866E+01 0.00000E+00
 -1      3569 6.94350E+01 1.41856E+01 0.00000E+00
 -1      3570 7.24350E+01 1.41856E+01 0.00000E+00
 -1      3571 1.74591E+01 1.68763E+01 0.00000E+00
 -1      3572 1.73176E+01 1.53509E+01 0.00000E+00
 -1      3573 4.96874E+01 1.27105E+01 0.00000E+00
 -1      3574 1.75957E+01 1.18039E+01 0.00000E+00
 -1      3575 1.90658E+01 2.32743E+01 0.00000E+00
 -1      3576 1.86431E+01 2.16866E+01 0.00000E+00
 -1      3577 4.33492E+01 2.89388E+01 0.00000E+00
 -1      3578 4.17367E+01 2.95091E+01 0.00000E+00
 -1      3579 1.75213E+01 1.32422E+01 0.00000E+00
 -1      3580 1.66881E+01 1.26393E+01 0.00000E+00
 -1      3581 1.57450E+01 1.38734E+01 0.00000E+00
 -1      3582 1.74824E+01 1.42817E+01 0.00000E+00
 -1      3583 5.07701E+01 1.34754E+01 0.00000E+00
 -1      3584 5.15201E+01 1.47744E+01 0.00000E+00
 -1      3585 4.80654E+01 2.55385E+01 0.00000E+00
 -1      3586 4.84257E+01 2.71306E+01 0.00000E+00
 -1      3587 4.95075E+01 2.50861E+01 0.00000E+00
 -1      3588 3.15840E+01 3.33883E+01 0.00000E+00
 -1      3589 1.42890E+01 2.86531E+01 0.00000E+00
 -1      3590 1.42890E+01 3.01219E+01 0.00000E+00
 -1      3591 1.34776E+01 3.53477E+01 0.00000E+00
 -1      3592 3.46516E+01 3.30953E+01 0.00000E+00
 -1      3593 3.54676E+01 3.54181E+01 0.00000E+00
 -1      3594 1.55880E+01 3.08563E+01 0.00000E+00
 -1      3595 1.42890E+01 3.15906E+01 0.00000E+00
 -1      3596 1.42890E+01 3.30594E+01 0.00000E+00
 -1      3597 5.01882E+01 1.66550E+01 0.00000E+00
 -1      3598 4.90546E+01 1.73422E+01 0.00000E+00
 -1      3599 3.69676E+01 3.54181E+01 0.00000E+00
 -1      3600 1.34022E+02 3.59901E+01 0.00000E+00
 -1      3601 1.35329E+02 3.61011E+01 0.00000E+00
 -1      3602 1.35515E+02 3.52494E+01 0.00000E+00
 -1      3603 1.33272E+02 3.46911E+01 0.00000E+00
 -1      3604 1.75201E+01 2.11753E+01 0.00000E+00
 -1      3605 1.96500E+01 3.44120E+01 0.00000E+00
 -1      3606 1.64489E+01 1.51468E+01 0.00000E+00
 -1      3607 2.15508E+01 2.80587E+01 0.00000E+00
 -1      3608 1.36643E+02 1.28130E+01 0.00000E+00
 -1      3609 1.35711E+02 2.86750E+01 0.00000E+00
 -1      3610 1.34412E+02 2.79500E+01 0.00000E+00
 -1      3611 1.35711E+02 3.01500E+01 0.00000E+00
 -1      3612 1.29900E+01 2.64469E+01 0.00000E+00
 -1      3613 4.13400E+01 3.07896E+01 0.00000E+00
 -1      3614 2.71700E+01 3.11908E+01 0.00000E+00
 -1      3615 1.35711E+02 2.42781E+01 0.00000E+00
 -1      3616 1.35711E+02 2.28062E+01 0.00000E+00
 -1      3617 1.34412E+02 2.50031E+01 0.00000E+00
 -1      3618 1.35697E+02 1.51866E+01 0.00000E+00
 -1      3619 1.35893E+02 1.41120E+01 0.00000E+00
 -1      3620 1.67707E+01 1.79005E+01 0.00000E+00
 -1      3621 1.35711E+02 1.84000E+01 0.00000E+00
 -1      3622 1.35711E+02 1.69250E+01 0.00000E+00
 -1      3623 1.42890E+01 2.27625E+01 0.00000E+00
 -1      3624 1.42890E+01 2.42375E+01 0.00000E+00
 -1      3625 3.77176E+01 3.41191E+01 0.00000E+00
 -1      3626 4.66104E+01 2.90928E+01 0.00000E+00
 -1      3627 4.49798E+01 2.90158E+01 0.00000E+00
 -1      3628 4.46066E+01 3.05256E+01 0.00000E+00
 -1      3629 4.88509E+01 1.84757E+01 0.00000E+00
 -1      3630 4.83264E+01 2.12492E+01 0.00000E+00
 -1      3631 4.93508E+01 2.23604E+01 0.00000E+00
 -1      3632 4.85301E+01 2.01157E+01 0.00000E+00
 -1      3633 1.61190E+01 3.46675E+01 0.00000E+00
 -1      3634 1.68690E+01 3.33685E+01 0.00000E+00
 -1      3635 1.85424E+01 2.64642E+01 0.00000E+00
 -1      3636 1.88041E+01 2.48692E+01 0.00000E+00
 -1      3637 1.75212E+01 2.43607E+01 0.00000E+00
 -1      3638 3.06512E+01 3.24007E+01 0.00000E+00
 -1      3639 1.51236E+01 1.93331E+01 0.00000E+00
 -1      3640 1.51236E+01 2.08050E+01 0.00000E+00
 -1      3641 1.35702E+02 3.43976E+01 0.00000E+00
 -1      3642 1.47766E+01 3.46133E+01 0.00000E+00
 -1      3643 1.34398E+02 1.59241E+01 0.00000E+00
 -1      3644 1.34487E+02 3.38069E+01 0.00000E+00
 -1      3645 1.35795E+02 3.32342E+01 0.00000E+00
 -1      3646 1.35795E+02 3.17593E+01 0.00000E+00
 -1      3647 1.33365E+02 3.35277E+01 0.00000E+00
 -1      3648 6.41850E+01 1.54846E+01 0.00000E+00
 -1      3649 6.26850E+01 1.54846E+01 0.00000E+00
 -1      3650 1.68870E+01 3.01219E+01 0.00000E+00
 -1      3651 1.68870E+01 3.15906E+01 0.00000E+00
 -1      3652 1.53865E+01 2.23954E+01 0.00000E+00
 -1      3653 1.51247E+01 2.69372E+01 0.00000E+00
 -1      3654 1.64237E+01 2.76716E+01 0.00000E+00
 -1      3655 5.15281E+01 1.60663E+01 0.00000E+00
 -1      3656 5.15361E+01 1.73581E+01 0.00000E+00
 -1      3657 5.28680E+01 1.54775E+01 0.00000E+00
 -1      3658 4.25630E+01 3.24303E+01 0.00000E+00
 -1      3659 4.40630E+01 3.24303E+01 0.00000E+00
 -1      3660 4.56936E+01 3.25073E+01 0.00000E+00
 -1      3661 4.71936E+01 3.25073E+01 0.00000E+00
 -1      3662 5.19000E+01 3.31130E+01 0.00000E+00
 -1      3663 5.34000E+01 3.31130E+01 0.00000E+00
 -1      3664 5.49000E+01 3.31130E+01 0.00000E+00
 -1      3665 5.64000E+01 3.31130E+01 0.00000E+00
 -1      3666 5.41500E+01 3.18140E+01 0.00000E+00
 -1      3667 5.79000E+01 3.31130E+01 0.00000E+00
 -1      3668 5.94000E+01 3.31130E+01 0.00000E+00
 -1      3669 5.71500E+01 3.18140E+01 0.00000E+00
 -1      3670 6.09000E+01 3.31130E+01 0.00000E+00
 -1      3671 6.24000E+01 3.31130E+01 0.00000E+00
 -1      3672 6.01500E+01 3.18140E+01 0.00000E+00
 -1      3673 6.39000E+01 3.31130E+01 0.00000E+00
 -1      3674 6.54000E+01 3.31130E+01 0.00000E+00
 -1      3675 6.31500E+01 3.18140E+01 0.00000E+00
 -1      3676 6.69000E+01 3.31130E+01 0.00000E+00
 -1      3677 6.84000E+01 3.31130E+01 0.00000E+00
 -1      3678 6.61500E+01 3.18140E+01 0.00000E+00
 -1      3679 6.99000E+01 3.31130E+01 0.00000E+00
 -1      3680 7.14000E+01 3.31130E+01 0.00000E+00
 -1      3681 6.91500E+01 3.18140E+01 0.00000E+00
 -1      3682 7.29000E+01 3.31130E+01 0.00000E+00
 -1      3683 7.44000E+01 3.31130E+01 0.00000E+00
 -1      3684 7.21500E+01 3.18140E+01 0.00000E+00
 -1      3685 7.59000E+01 3.31130E+01 0.00000E+00
 -1      3686 7.74000E+01 3.31130E+01 0.00000E+00
 -1      3687 7.51500E+01 3.18140E+01 0.00000E+00
 -1      3688 7.89000E+01 3.31130E+01 0.00000E+00
 -1      3689 8.04000E+01 3.31130E+01 0.00000E+00
 -1      3690 7.81500E+01 3.18140E+01 0.00000E+00
 -1      3691 8.19000E+01 3.31130E+01 0.00000E+00
 -1      3692 8.34000E+01 3.31130E+01 0.00000E+00
 -1      3693 8.11500E+01 3.18140E+01 0.00000E+00
 -1      3694 8.49000E+01 3.31130E+01 0.00000E+00
 -1      3695 8.64000E+01 3.31130E+01 0.00000E+00
 -1      3696 8.41500E+01 3.18140E+01 0.00000E+00
 -1      3697 8.79000E+01 3.31130E+01 0.00000E+00
 -1      3698 8.94000E+01 3.31130E+01 0.00000E+00
 -1      3699 8.71500E+01 3.18140E+01 0.00000E+00
 -1      3700 9.09000E+01 3.31130E+01 0.00000E+00
 -1      3701 9.24000E+01 3.31130E+01 0.00000E+00
 -1      3702 9.01500E+01 3.18140E+01 0.00000E+00
 -1      3703 9.39000E+01 3.31130E+01 0.00000E+00
 -1      3704 9.54000E+01 3.31130E+01 0.00000E+00
 -1      3705 9.31500E+01 3.18140E+01 0.00000E+00
 -1      3706 9.69000E+01 3.31130E+01 0.00000E+00
 -1      3707 9.84000E+01 3.31130E+01 0.00000E+00
 -1      3708 9.61500E+01 3.18140E+01 0.00000E+00
 -1      3709 9.99000E+01 3.31130E+01 0.00000E+00
 -1      3710 1.01400E+02 3.31130E+01 0.00000E+00
 -1      3711 9.91500E+01 3.18140E+01 0.00000E+00
 -1      3712 1.02900E+02 3.31130E+01 0.00000E+00
 -1      3713 1.04400E+02 3.31130E+01 0.00000E+00
 -1      3714 1.02150E+02 3.18140E+01 0.00000E+00
 -1      3715 1.05900E+02 3.31130E+01 0.00000E+00
 -1      3716 1.07400E+02 3.31130E+01 0.00000E+00
 -1      3717 1.05150E+02 3.18140E+01 0.00000E+00
 -1      3718 1.08900E+02 3.31130E+01 0.00000E+00
 -1      3719 1.10400E+02 3.31130E+01 0.00000E+00
 -1      3720 1.08150E+02 3.18140E+01 0.00000E+00
 -1      3721 1.11900E+02 3.31130E+01 0.00000E+00
 -1      3722 1.13400E+02 3.31130E+01 0.00000E+00
 -1      3723 1.11150E+02 3.18140E+01 0.00000E+00
 -1      3724 1.14900E+02 3.31130E+01 0.00000E+00
 -1      3725 1.16400E+02 3.31130E+01 0.00000E+00
 -1      3726 1.14150E+02 3.18140E+01 0.00000E+00
 -1      3727 1.17900E+02 3.31130E+01 0.00000E+00
 -1      3728 1.19400E+02 3.31130E+01 0.00000E+00
 -1      3729 1.17150E+02 3.18140E+01 0.00000E+00
 -1      3730 1.20900E+02 3.31130E+01 0.00000E+00
 -1      3731 1.22400E+02 3.31130E+01 0.00000E+00
 -1      3732 1.20150E+02 3.18140E+01 0.00000E+00
 -1      3733 1.23900E+02 3.31130E+01 0.00000E+00
 -1      3734 1.25400E+02 3.31130E+01 0.00000E+00
 -1      3735 1.23150E+02 3.18140E+01 0.00000E+00
 -1      3736 1.26900E+02 3.31130E+01 0.00000E+00
 -1      3737 1.28400E+02 3.31130E+01 0.00000E+00
 -1      3738 1.26150E+02 3.18140E+01 0.00000E+00
 -1      3739 1.29900E+02 3.31130E+01 0.00000E+00
 -1      3740 1.31400E+02 3.31130E+01 0.00000E+00
 -1      3741 1.29150E+02 3.18140E+01 0.00000E+00
 -1      3742 3.57028E+01 3.23190E+01 0.00000E+00
 -1      3743 7.62975E+01 1.54846E+01 0.00000E+00
 -1      3744 7.47225E+01 1.54846E+01 0.00000E+00
 -1      3745 8.53350E+01 1.54846E+01 0.00000E+00
 -1      3746 8.38350E+01 1.54846E+01 0.00000E+00
 -1      3747 8.83350E+01 1.54846E+01 0.00000E+00
 -1      3748 8.68350E+01 1.54846E+01 0.00000E+00
 -1      3749 8.60850E+01 1.67836E+01 0.00000E+00
 -1      3750 9.13350E+01 1.54846E+01 0.00000E+00
 -1      3751 8.98350E+01 1.54846E+01 0.00000E+00
 -1      3752 8.90850E+01 1.67836E+01 0.00000E+00
 -1      3753 9.43350E+01 1.54846E+01 0.00000E+00
 -1      3754 9.28350E+01 1.54846E+01 0.00000E+00
 -1      3755 9.20850E+01 1.67836E+01 0.00000E+00
 -1      3756 9.74850E+01 1.54846E+01 0.00000E+00
 -1      3757 9.59100E+01 1.54846E+01 0.00000E+00
 -1      3758 9.51600E+01 1.67836E+01 0.00000E+00
 -1      3759 1.00485E+02 1.54846E+01 0.00000E+00
 -1      3760 9.89850E+01 1.54846E+01 0.00000E+00
 -1      3761 9.82350E+01 1.67836E+01 0.00000E+00
 -1      3762 1.03485E+02 1.54846E+01 0.00000E+00
 -1      3763 1.01985E+02 1.54846E+01 0.00000E+00
 -1      3764 1.01235E+02 1.67836E+01 0.00000E+00
 -1      3765 1.06485E+02 1.54846E+01 0.00000E+00
 -1      3766 1.04985E+02 1.54846E+01 0.00000E+00
 -1      3767 1.04235E+02 1.67836E+01 0.00000E+00
 -1      3768 1.09485E+02 1.54846E+01 0.00000E+00
 -1      3769 1.07985E+02 1.54846E+01 0.00000E+00
 -1      3770 1.07235E+02 1.67836E+01 0.00000E+00
 -1      3771 1.12485E+02 1.54846E+01 0.00000E+00
 -1      3772 1.10985E+02 1.54846E+01 0.00000E+00
 -1      3773 1.10235E+02 1.67836E+01 0.00000E+00
 -1      3774 1.15485E+02 1.54846E+01 0.00000E+00
 -1      3775 1.13985E+02 1.54846E+01 0.00000E+00
 -1      3776 1.13235E+02 1.67836E+01 0.00000E+00
 -1      3777 1.18485E+02 1.54846E+01 0.00000E+00
 -1      3778 1.16985E+02 1.54846E+01 0.00000E+00
 -1      3779 1.16235E+02 1.67836E+01 0.00000E+00
 -1      3780 1.21635E+02 1.54846E+01 0.00000E+00
 -1      3781 1.20060E+02 1.54846E+01 0.00000E+00
 -1      3782 1.19310E+02 1.67836E+01 0.00000E+00
 -1      3783 1.24635E+02 1.54846E+01 0.00000E+00
 -1      3784 1.23135E+02 1.54846E+01 0.00000E+00
 -1      3785 1.22385E+02 1.67836E+01 0.00000E+00
 -1      3786 1.27635E+02 1.54846E+01 0.00000E+00
 -1      3787 1.26135E+02 1.54846E+01 0.00000E+00
 -1      3788 1.25385E+02 1.67836E+01 0.00000E+00
 -1      3789 1.30635E+02 1.54846E+01 0.00000E+00
 -1      3790 1.29135E+02 1.54846E+01 0.00000E+00
 -1      3791 1.28385E+02 1.67836E+01 0.00000E+00
 -1      3792 1.33267E+02 1.57044E+01 0.00000E+00
 -1      3793 1.31767E+02 1.57044E+01 0.00000E+00
 -1      3794 1.31017E+02 1.70034E+01 0.00000E+00
 -1      3795 1.33280E+02 1.74428E+01 0.00000E+00
 -1      3796 8.23350E+01 1.54846E+01 0.00000E+00
 -1      3797 8.08350E+01 1.54846E+01 0.00000E+00
 -1      3798 8.30850E+01 1.67836E+01 0.00000E+00
 -1      3799 2.94378E+01 3.31332E+01 0.00000E+00
 -1      3800 1.46371E+01 1.76486E+01 0.00000E+00
 -1      3801 2.44654E+01 3.11361E+01 0.00000E+00
 -1      3802 2.32964E+01 3.04449E+01 0.00000E+00
 -1      3803 1.46371E+01 1.61768E+01 0.00000E+00
 -1      3804 1.55802E+01 1.49427E+01 0.00000E+00
 -1      3805 7.93350E+01 1.54846E+01 0.00000E+00
 -1      3806 7.78350E+01 1.54846E+01 0.00000E+00
 -1      3807 8.00850E+01 1.67836E+01 0.00000E+00
 -1      3808 1.51247E+01 2.54653E+01 0.00000E+00
 -1      3809 4.09270E+01 3.27712E+01 0.00000E+00
 -1      3810 6.11850E+01 1.54846E+01 0.00000E+00
 -1      3811 5.96850E+01 1.54846E+01 0.00000E+00
 -1      3812 6.19350E+01 1.67836E+01 0.00000E+00
 -1      3813 6.71850E+01 1.54846E+01 0.00000E+00
 -1      3814 6.56850E+01 1.54846E+01 0.00000E+00
 -1      3815 6.49350E+01 1.67836E+01 0.00000E+00
 -1      3816 2.22332E+01 3.30785E+01 0.00000E+00
 -1      3817 2.37332E+01 3.30785E+01 0.00000E+00
 -1      3818 1.89000E+01 3.31130E+01 0.00000E+00
 -1      3819 2.04000E+01 3.31130E+01 0.00000E+00
 -1      3820 1.35711E+02 2.13391E+01 0.00000E+00
 -1      3821 1.35711E+02 1.98672E+01 0.00000E+00
 -1      3822 1.34412E+02 1.91297E+01 0.00000E+00
 -1      3823 1.34412E+02 2.20641E+01 0.00000E+00
 -1      3824 3.67468E+01 3.31598E+01 0.00000E+00
 -1      3825 2.17337E+01 2.96821E+01 0.00000E+00
 -1      3826 2.00081E+01 2.85961E+01 0.00000E+00
 -1      3827 4.98754E+01 1.95869E+01 0.00000E+00
 -1      3828 2.79378E+01 3.31332E+01 0.00000E+00
 -1      3829 2.63821E+01 3.24696E+01 0.00000E+00
 -1      3830 3.81793E+01 3.34527E+01 0.00000E+00
 -1      3831 3.94270E+01 3.27712E+01 0.00000E+00
 -1      3832 2.52332E+01 3.30785E+01 0.00000E+00
 -1      3833 5.05943E+01 2.40033E+01 0.00000E+00
 -1      3834 5.09546E+01 2.55955E+01 0.00000E+00
 -1      3835 5.07979E+01 2.28698E+01 0.00000E+00
 -1      3836 5.22450E+01 2.33792E+01 0.00000E+00
 -1      3837 5.10016E+01 2.17363E+01 0.00000E+00
 -1      3838 5.26521E+01 1.80790E+01 0.00000E+00
 -1      3839 5.13123E+01 1.86677E+01 0.00000E+00
 -1      3840 7.40100E+01 1.67836E+01 0.00000E+00
 -1      3841 7.32225E+01 1.54846E+01 0.00000E+00
 -1      3842 7.17225E+01 1.54846E+01 0.00000E+00
 -1      3843 5.89162E+01 1.67836E+01 0.00000E+00
 -1      3844 5.81662E+01 1.54846E+01 0.00000E+00
 -1      3845 5.66475E+01 1.54846E+01 0.00000E+00
 -1      3846 1.77227E+01 2.84060E+01 0.00000E+00
 -1      3847 4.78763E+01 3.09721E+01 0.00000E+00
 -1      3848 4.88327E+01 3.28768E+01 0.00000E+00
 -1      3849 1.32615E+02 3.22287E+01 0.00000E+00
 -1      3850 5.03327E+01 3.28768E+01 0.00000E+00
 -1      3851 7.70475E+01 1.67836E+01 0.00000E+00
 -1      3852 1.33280E+02 1.89100E+01 0.00000E+00
 -1      3853 1.32148E+02 1.86903E+01 0.00000E+00
 -1      3854 1.33280E+02 2.03772E+01 0.00000E+00
 -1      3855 5.09914E+01 2.03077E+01 0.00000E+00
 -1      3856 1.34496E+02 3.10343E+01 0.00000E+00
 -1      3857 1.33113E+02 2.86875E+01 0.00000E+00
 -1      3858 1.33113E+02 2.72125E+01 0.00000E+00
 -1      3859 1.33113E+02 2.57406E+01 0.00000E+00
 -1      3860 1.33113E+02 2.42687E+01 0.00000E+00
 -1      3861 1.31814E+02 2.64781E+01 0.00000E+00
 -1      3862 1.64237E+01 2.47278E+01 0.00000E+00
 -1      3863 4.83376E+01 2.82964E+01 0.00000E+00
 -1      3864 4.79644E+01 2.98062E+01 0.00000E+00
 -1      3865 4.96035E+01 3.01757E+01 0.00000E+00
 -1      3866 4.97796E+01 2.78441E+01 0.00000E+00
 -1      3867 6.86850E+01 1.54846E+01 0.00000E+00
 -1      3868 6.79350E+01 1.67836E+01 0.00000E+00
 -1      3869 7.01850E+01 1.54846E+01 0.00000E+00
 -1      3870 2.14832E+01 3.17795E+01 0.00000E+00
 -1      3871 1.90056E+01 2.89145E+01 0.00000E+00
 -1      3872 5.10827E+01 3.15778E+01 0.00000E+00
 -1      3873 5.43867E+01 1.54775E+01 0.00000E+00
 -1      3874 1.81680E+01 3.26341E+01 0.00000E+00
 -1      3875 1.66855E+01 2.31329E+01 0.00000E+00
 -1      3876 5.38571E+01 1.76110E+01 0.00000E+00
 -1      3877 5.36333E+01 1.89206E+01 0.00000E+00
 -1      3878 8.98350E+01 1.80826E+01 0.00000E+00
 -1      3879 8.83350E+01 1.80826E+01 0.00000E+00
 -1      3880 6.56850E+01 1.80826E+01 0.00000E+00
 -1      3881 6.41850E+01 1.80826E+01 0.00000E+00
 -1      3882 1.32531E+02 3.06195E+01 0.00000E+00
 -1      3883 5.64000E+01 3.05150E+01 0.00000E+00
 -1      3884 5.79000E+01 3.05150E+01 0.00000E+00
 -1      3885 5.94000E+01 3.05150E+01 0.00000E+00
 -1      3886 6.09000E+01 3.05150E+01 0.00000E+00
 -1      3887 5.86500E+01 2.92160E+01 0.00000E+00
 -1      3888 6.24000E+01 3.05150E+01 0.00000E+00
 -1      3889 6.39000E+01 3.05150E+01 0.00000E+00
 -1      3890 6.16500E+01 2.92160E+01 0.00000E+00
 -1      3891 6.54000E+01 3.05150E+01 0.00000E+00
 -1      3892 6.69000E+01 3.05150E+01 0.00000E+00
 -1      3893 6.46500E+01 2.92160E+01 0.00000E+00
 -1      3894 6.84000E+01 3.05150E+01 0.00000E+00
 -1      3895 6.99000E+01 3.05150E+01 0.00000E+00
 -1      3896 6.76500E+01 2.92160E+01 0.00000E+00
 -1      3897 7.14000E+01 3.05150E+01 0.00000E+00
 -1      3898 7.29000E+01 3.05150E+01 0.00000E+00
 -1      3899 7.06500E+01 2.92160E+01 0.00000E+00
 -1      3900 7.44000E+01 3.05150E+01 0.00000E+00
 -1      3901 7.59000E+01 3.05150E+01 0.00000E+00
 -1      3902 7.36500E+01 2.92160E+01 0.00000E+00
 -1      3903 7.74000E+01 3.05150E+01 0.00000E+00
 -1      3904 7.89000E+01 3.05150E+01 0.00000E+00
 -1      3905 7.66500E+01 2.92160E+01 0.00000E+00
 -1      3906 8.04000E+01 3.05150E+01 0.00000E+00
 -1      3907 8.19000E+01 3.05150E+01 0.00000E+00
 -1      3908 7.96500E+01 2.92160E+01 0.00000E+00
 -1      3909 8.34000E+01 3.05150E+01 0.00000E+00
 -1      3910 8.49000E+01 3.05150E+01 0.00000E+00
 -1      3911 8.26500E+01 2.92160E+01 0.00000E+00
 -1      3912 8.64000E+01 3.05150E+01 0.00000E+00
 -1      3913 8.79000E+01 3.05150E+01 0.00000E+00
 -1      3914 8.56500E+01 2.92160E+01 0.00000E+00
 -1      3915 8.94000E+01 3.05150E+01 0.00000E+00
 -1      3916 9.09000E+01 3.05150E+01 0.00000E+00
 -1      3917 8.86500E+01 2.92160E+01 0.00000E+00
 -1      3918 9.24000E+01 3.05150E+01 0.00000E+00
 -1      3919 9.39000E+01 3.05150E+01 0.00000E+00
 -1      3920 9.16500E+01 2.92160E+01 0.00000E+00
 -1      3921 9.54000E+01 3.05150E+01 0.00000E+00
 -1      3922 9.69000E+01 3.05150E+01 0.00000E+00
 -1      3923 9.46500E+01 2.92160E+01 0.00000E+00
 -1      3924 9.84000E+01 3.05150E+01 0.00000E+00
 -1      3925 9.99000E+01 3.05150E+01 0.00000E+00
 -1      3926 9.76500E+01 2.92160E+01 0.00000E+00
 -1      3927 1.01400E+02 3.05150E+01 0.00000E+00
 -1      3928 1.02900E+02 3.05150E+01 0.00000E+00
 -1      3929 1.00650E+02 2.92160E+01 0.00000E+00
 -1      3930 1.04400E+02 3.05150E+01 0.00000E+00
 -1      3931 1.05900E+02 3.05150E+01 0.00000E+00
 -1      3932 1.03650E+02 2.92160E+01 0.00000E+00
 -1      3933 1.07400E+02 3.05150E+01 0.00000E+00
 -1      3934 1.08900E+02 3.05150E+01 0.00000E+00
 -1      3935 1.06650E+02 2.92160E+01 0.00000E+00
 -1      3936 1.10400E+02 3.05150E+01 0.00000E+00
 -1      3937 1.11900E+02 3.05150E+01 0.00000E+00
 -1      3938 1.09650E+02 2.92160E+01 0.00000E+00
 -1      3939 1.13400E+02 3.05150E+01 0.00000E+00
 -1      3940 1.14900E+02 3.05150E+01 0.00000E+00
 -1      3941 1.12650E+02 2.92160E+01 0.00000E+00
 -1      3942 1.16400E+02 3.05150E+01 0.00000E+00
 -1      3943 1.17900E+02 3.05150E+01 0.00000E+00
 -1      3944 1.15650E+02 2.92160E+01 0.00000E+00
 -1      3945 1.19400E+02 3.05150E+01 0.00000E+00
 -1      3946 1.20900E+02 3.05150E+01 0.00000E+00
 -1      3947 1.18650E+02 2.92160E+01 0.00000E+00
 -1      3948 1.22400E+02 3.05150E+01 0.00000E+00
 -1      3949 1.23900E+02 3.05150E+01 0.00000E+00
 -1      3950 1.21650E+02 2.92160E+01 0.00000E+00
 -1      3951 1.25400E+02 3.05150E+01 0.00000E+00
 -1      3952 1.26900E+02 3.05150E+01 0.00000E+00
 -1      3953 1.24650E+02 2.92160E+01 0.00000E+00
 -1      3954 1.28400E+02 3.05150E+01 0.00000E+00
 -1      3955 1.29900E+02 3.05150E+01 0.00000E+00
 -1      3956 1.27650E+02 2.92160E+01 0.00000E+00
 -1      3957 9.28350E+01 1.80826E+01 0.00000E+00
 -1      3958 9.13350E+01 1.80826E+01 0.00000E+00
 -1      3959 9.05850E+01 1.93816E+01 0.00000E+00
 -1      3960 1.89180E+01 3.13351E+01 0.00000E+00
 -1      3961 8.68350E+01 1.80826E+01 0.00000E+00
 -1      3962 8.53350E+01 1.80826E+01 0.00000E+00
 -1      3963 8.75850E+01 1.93816E+01 0.00000E+00
 -1      3964 9.59850E+01 1.80826E+01 0.00000E+00
 -1      3965 9.44100E+01 1.80826E+01 0.00000E+00
 -1      3966 9.36600E+01 1.93816E+01 0.00000E+00
 -1      3967 9.89850E+01 1.80826E+01 0.00000E+00
 -1      3968 9.74850E+01 1.80826E+01 0.00000E+00
 -1      3969 9.67350E+01 1.93816E+01 0.00000E+00
 -1      3970 1.01985E+02 1.80826E+01 0.00000E+00
 -1      3971 1.00485E+02 1.80826E+01 0.00000E+00
 -1      3972 9.97350E+01 1.93816E+01 0.00000E+00
 -1      3973 1.04985E+02 1.80826E+01 0.00000E+00
 -1      3974 1.03485E+02 1.80826E+01 0.00000E+00
 -1      3975 1.02735E+02 1.93816E+01 0.00000E+00
 -1      3976 1.07985E+02 1.80826E+01 0.00000E+00
 -1      3977 1.06485E+02 1.80826E+01 0.00000E+00
 -1      3978 1.05735E+02 1.93816E+01 0.00000E+00
 -1      3979 1.10985E+02 1.80826E+01 0.00000E+00
 -1      3980 1.09485E+02 1.80826E+01 0.00000E+00
 -1      3981 1.08735E+02 1.93816E+01 0.00000E+00
 -1      3982 1.13985E+02 1.80826E+01 0.00000E+00
 -1      3983 1.12485E+02 1.80826E+01 0.00000E+00
 -1      3984 1.11735E+02 1.93816E+01 0.00000E+00
 -1      3985 1.16985E+02 1.80826E+01 0.00000E+00
 -1      3986 1.15485E+02 1.80826E+01 0.00000E+00
 -1      3987 1.14735E+02 1.93816E+01 0.00000E+00
 -1      3988 1.20135E+02 1.80826E+01 0.00000E+00
 -1      3989 1.18560E+02 1.80826E+01 0.00000E+00
 -1      3990 1.17810E+02 1.93816E+01 0.00000E+00
 -1      3991 1.23135E+02 1.80826E+01 0.00000E+00
 -1      3992 1.21635E+02 1.80826E+01 0.00000E+00
 -1      3993 1.20885E+02 1.93816E+01 0.00000E+00
 -1      3994 1.26135E+02 1.80826E+01 0.00000E+00
 -1      3995 1.24635E+02 1.80826E+01 0.00000E+00
 -1      3996 1.23885E+02 1.93816E+01 0.00000E+00
 -1      3997 1.29135E+02 1.80826E+01 0.00000E+00
 -1      3998 1.27635E+02 1.80826E+01 0.00000E+00
 -1      3999 1.26885E+02 1.93816E+01 0.00000E+00
 -1      4000 1.31208E+02 1.84963E+01 0.00000E+00
 -1      4001 1.30076E+02 1.82766E+01 0.00000E+00
 -1      4002 1.29326E+02 1.95756E+01 0.00000E+00
 -1      4003 1.31208E+02 1.99635E+01 0.00000E+00
 -1      4004 8.38350E+01 1.80826E+01 0.00000E+00
 -1      4005 8.23350E+01 1.80826E+01 0.00000E+00
 -1      4006 8.45850E+01 1.93816E+01 0.00000E+00
 -1      4007 8.08350E+01 1.80826E+01 0.00000E+00
 -1      4008 7.93350E+01 1.80826E+01 0.00000E+00
 -1      4009 8.15850E+01 1.93816E+01 0.00000E+00
 -1      4010 1.33197E+02 2.30565E+01 0.00000E+00
 -1      4011 1.33197E+02 2.15894E+01 0.00000E+00
 -1      4012 1.32065E+02 2.13696E+01 0.00000E+00
 -1      4013 1.31898E+02 2.37940E+01 0.00000E+00
 -1      4014 6.26850E+01 1.80826E+01 0.00000E+00
 -1      4015 6.11850E+01 1.80826E+01 0.00000E+00
 -1      4016 6.34350E+01 1.93816E+01 0.00000E+00
 -1      4017 5.11708E+01 3.04119E+01 0.00000E+00
 -1      4018 5.27381E+01 3.06482E+01 0.00000E+00
 -1      4019 5.12589E+01 2.92461E+01 0.00000E+00
 -1      4020 2.17537E+01 3.09822E+01 0.00000E+00
 -1      4021 5.24385E+01 2.08171E+01 0.00000E+00
 -1      4022 7.77975E+01 1.80826E+01 0.00000E+00
 -1      4023 7.62600E+01 1.80826E+01 0.00000E+00
 -1      4024 7.85475E+01 1.93816E+01 0.00000E+00
 -1      4025 5.42381E+01 3.06482E+01 0.00000E+00
 -1      4026 1.91885E+01 3.05378E+01 0.00000E+00
 -1      4027 1.99205E+01 3.10167E+01 0.00000E+00
 -1      4028 5.51367E+01 1.67765E+01 0.00000E+00
 -1      4029 5.19533E+01 2.56785E+01 0.00000E+00
 -1      4030 5.08665E+01 2.67613E+01 0.00000E+00
 -1      4031 5.07784E+01 2.79271E+01 0.00000E+00
 -1      4032 5.36254E+01 2.30422E+01 0.00000E+00
 -1      4033 5.34218E+01 2.41757E+01 0.00000E+00
 -1      4034 5.96662E+01 1.80826E+01 0.00000E+00
 -1      4035 5.81475E+01 1.80826E+01 0.00000E+00
 -1      4036 6.04162E+01 1.93816E+01 0.00000E+00
 -1      4037 7.47600E+01 1.80826E+01 0.00000E+00
 -1      4038 7.32600E+01 1.80826E+01 0.00000E+00
 -1      4039 7.55100E+01 1.93816E+01 0.00000E+00
 -1      4040 1.31232E+02 2.98820E+01 0.00000E+00
 -1      4041 7.09725E+01 1.67836E+01 0.00000E+00
 -1      4042 5.49881E+01 2.93492E+01 0.00000E+00
 -1      4043 1.30515E+02 2.72141E+01 0.00000E+00
 -1      4044 1.30515E+02 2.57422E+01 0.00000E+00
 -1      4045 6.86850E+01 1.80826E+01 0.00000E+00
 -1      4046 6.71850E+01 1.80826E+01 0.00000E+00
 -1      4047 6.64350E+01 1.93816E+01 0.00000E+00
 -1      4048 5.47140E+01 2.50044E+01 0.00000E+00
 -1      4049 5.33337E+01 2.53415E+01 0.00000E+00
 -1      4050 5.32456E+01 2.65073E+01 0.00000E+00
 -1      4051 1.30482E+02 2.85830E+01 0.00000E+00
 -1      4052 1.29183E+02 2.78471E+01 0.00000E+00
 -1      4053 5.36242E+01 2.02671E+01 0.00000E+00
 -1      4054 5.36344E+01 2.16957E+01 0.00000E+00
 -1      4055 5.48111E+01 2.24921E+01 0.00000E+00
 -1      4056 5.48292E+01 1.97992E+01 0.00000E+00
 -1      4057 8.23350E+01 2.06806E+01 0.00000E+00
 -1      4058 8.08350E+01 2.06806E+01 0.00000E+00
 -1      4059 5.61179E+01 1.76182E+01 0.00000E+00
 -1      4060 9.44475E+01 2.06806E+01 0.00000E+00
 -1      4061 9.28725E+01 2.06806E+01 0.00000E+00
 -1      4062 9.13725E+01 2.06806E+01 0.00000E+00
 -1      4063 8.98725E+01 2.06806E+01 0.00000E+00
 -1      4064 9.21600E+01 2.19796E+01 0.00000E+00
 -1      4065 6.09000E+01 2.79170E+01 0.00000E+00
 -1      4066 6.24000E+01 2.79170E+01 0.00000E+00
 -1      4067 6.39000E+01 2.79170E+01 0.00000E+00
 -1      4068 6.54000E+01 2.79170E+01 0.00000E+00
 -1      4069 6.31500E+01 2.66180E+01 0.00000E+00
 -1      4070 6.69000E+01 2.79170E+01 0.00000E+00
 -1      4071 6.84000E+01 2.79170E+01 0.00000E+00
 -1      4072 6.61500E+01 2.66180E+01 0.00000E+00
 -1      4073 6.99000E+01 2.79170E+01 0.00000E+00
 -1      4074 7.14000E+01 2.79170E+01 0.00000E+00
 -1      4075 6.91500E+01 2.66180E+01 0.00000E+00
 -1      4076 7.29000E+01 2.79170E+01 0.00000E+00
 -1      4077 7.44000E+01 2.79170E+01 0.00000E+00
 -1      4078 7.21500E+01 2.66180E+01 0.00000E+00
 -1      4079 7.59000E+01 2.79170E+01 0.00000E+00
 -1      4080 7.74000E+01 2.79170E+01 0.00000E+00
 -1      4081 7.51500E+01 2.66180E+01 0.00000E+00
 -1      4082 7.89000E+01 2.79170E+01 0.00000E+00
 -1      4083 8.04000E+01 2.79170E+01 0.00000E+00
 -1      4084 7.81500E+01 2.66180E+01 0.00000E+00
 -1      4085 8.19000E+01 2.79170E+01 0.00000E+00
 -1      4086 8.34000E+01 2.79170E+01 0.00000E+00
 -1      4087 8.11500E+01 2.66180E+01 0.00000E+00
 -1      4088 8.49000E+01 2.79170E+01 0.00000E+00
 -1      4089 8.64000E+01 2.79170E+01 0.00000E+00
 -1      4090 8.41500E+01 2.66180E+01 0.00000E+00
 -1      4091 8.79000E+01 2.79170E+01 0.00000E+00
 -1      4092 8.94000E+01 2.79170E+01 0.00000E+00
 -1      4093 8.71500E+01 2.66180E+01 0.00000E+00
 -1      4094 9.09000E+01 2.79170E+01 0.00000E+00
 -1      4095 9.24000E+01 2.79170E+01 0.00000E+00
 -1      4096 9.01500E+01 2.66180E+01 0.00000E+00
 -1      4097 9.39000E+01 2.79170E+01 0.00000E+00
 -1      4098 9.54000E+01 2.79170E+01 0.00000E+00
 -1      4099 9.31500E+01 2.66180E+01 0.00000E+00
 -1      4100 9.69000E+01 2.79170E+01 0.00000E+00
 -1      4101 9.84000E+01 2.79170E+01 0.00000E+00
 -1      4102 9.61500E+01 2.66180E+01 0.00000E+00
 -1      4103 9.99000E+01 2.79170E+01 0.00000E+00
 -1      4104 1.01400E+02 2.79170E+01 0.00000E+00
 -1      4105 9.91500E+01 2.66180E+01 0.00000E+00
 -1      4106 1.02900E+02 2.79170E+01 0.00000E+00
 -1      4107 1.04400E+02 2.79170E+01 0.00000E+00
 -1      4108 1.02150E+02 2.66180E+01 0.00000E+00
 -1      4109 1.05900E+02 2.79170E+01 0.00000E+00
 -1      4110 1.07400E+02 2.79170E+01 0.00000E+00
 -1      4111 1.05150E+02 2.66180E+01 0.00000E+00
 -1      4112 1.08900E+02 2.79170E+01 0.00000E+00
 -1      4113 1.10400E+02 2.79170E+01 0.00000E+00
 -1      4114 1.08150E+02 2.66180E+01 0.00000E+00
 -1      4115 1.11900E+02 2.79170E+01 0.00000E+00
 -1      4116 1.13400E+02 2.79170E+01 0.00000E+00
 -1      4117 1.11150E+02 2.66180E+01 0.00000E+00
 -1      4118 1.14900E+02 2.79170E+01 0.00000E+00
 -1      4119 1.16400E+02 2.79170E+01 0.00000E+00
 -1      4120 1.14150E+02 2.66180E+01 0.00000E+00
 -1      4121 1.17900E+02 2.79170E+01 0.00000E+00
 -1      4122 1.19400E+02 2.79170E+01 0.00000E+00
 -1      4123 1.17150E+02 2.66180E+01 0.00000E+00
 -1      4124 1.20900E+02 2.79170E+01 0.00000E+00
 -1      4125 1.22400E+02 2.79170E+01 0.00000E+00
 -1      4126 1.20150E+02 2.66180E+01 0.00000E+00
 -1      4127 1.23900E+02 2.79170E+01 0.00000E+00
 -1      4128 1.25400E+02 2.79170E+01 0.00000E+00
 -1      4129 1.23150E+02 2.66180E+01 0.00000E+00
 -1      4130 1.26541E+02 2.78820E+01 0.00000E+00
 -1      4131 1.28042E+02 2.78820E+01 0.00000E+00
 -1      4132 1.28074E+02 2.65131E+01 0.00000E+00
 -1      4133 1.25791E+02 2.65830E+01 0.00000E+00
 -1      4134 9.74475E+01 2.06806E+01 0.00000E+00
 -1      4135 9.59475E+01 2.06806E+01 0.00000E+00
 -1      4136 9.51600E+01 2.19796E+01 0.00000E+00
 -1      4137 8.83725E+01 2.06806E+01 0.00000E+00
 -1      4138 8.68725E+01 2.06806E+01 0.00000E+00
 -1      4139 8.91600E+01 2.19796E+01 0.00000E+00
 -1      4140 6.41850E+01 2.06806E+01 0.00000E+00
 -1      4141 6.26850E+01 2.06806E+01 0.00000E+00
 -1      4142 1.00448E+02 2.06806E+01 0.00000E+00
 -1      4143 9.89475E+01 2.06806E+01 0.00000E+00
 -1      4144 9.81600E+01 2.19796E+01 0.00000E+00
 -1      4145 1.03448E+02 2.06806E+01 0.00000E+00
 -1      4146 1.01948E+02 2.06806E+01 0.00000E+00
 -1      4147 1.01160E+02 2.19796E+01 0.00000E+00
 -1      4148 1.06448E+02 2.06806E+01 0.00000E+00
 -1      4149 1.04948E+02 2.06806E+01 0.00000E+00
 -1      4150 1.04160E+02 2.19796E+01 0.00000E+00
 -1      4151 1.09448E+02 2.06806E+01 0.00000E+00
 -1      4152 1.07948E+02 2.06806E+01 0.00000E+00
 -1      4153 1.07160E+02 2.19796E+01 0.00000E+00
 -1      4154 1.12448E+02 2.06806E+01 0.00000E+00
 -1      4155 1.10948E+02 2.06806E+01 0.00000E+00
 -1      4156 1.10160E+02 2.19796E+01 0.00000E+00
 -1      4157 1.15448E+02 2.06806E+01 0.00000E+00
 -1      4158 1.13948E+02 2.06806E+01 0.00000E+00
 -1      4159 1.13160E+02 2.19796E+01 0.00000E+00
 -1      4160 1.18598E+02 2.06806E+01 0.00000E+00
 -1      4161 1.17022E+02 2.06806E+01 0.00000E+00
 -1      4162 1.16235E+02 2.19796E+01 0.00000E+00
 -1      4163 1.21598E+02 2.06806E+01 0.00000E+00
 -1      4164 1.20098E+02 2.06806E+01 0.00000E+00
 -1      4165 1.19310E+02 2.19796E+01 0.00000E+00
 -1      4166 1.24598E+02 2.06806E+01 0.00000E+00
 -1      4167 1.23098E+02 2.06806E+01 0.00000E+00
 -1      4168 1.22310E+02 2.19796E+01 0.00000E+00
 -1      4169 1.27598E+02 2.06806E+01 0.00000E+00
 -1      4170 1.26098E+02 2.06806E+01 0.00000E+00
 -1      4171 1.25310E+02 2.19796E+01 0.00000E+00
 -1      4172 8.53350E+01 2.06806E+01 0.00000E+00
 -1      4173 8.38350E+01 2.06806E+01 0.00000E+00
 -1      4174 8.30850E+01 2.19796E+01 0.00000E+00
 -1      4175 7.17412E+01 1.80826E+01 0.00000E+00
 -1      4176 7.02038E+01 1.80826E+01 0.00000E+00
 -1      4177 6.94538E+01 1.93816E+01 0.00000E+00
 -1      4178 7.24912E+01 1.93816E+01 0.00000E+00
 -1      4179 5.23457E+01 2.81634E+01 0.00000E+00
 -1      4180 1.29300E+02 2.52659E+01 0.00000E+00
 -1      4181 1.30599E+02 2.45300E+01 0.00000E+00
 -1      4182 1.30682E+02 2.33178E+01 0.00000E+00
 -1      4183 7.92975E+01 2.06806E+01 0.00000E+00
 -1      4184 7.77600E+01 2.06806E+01 0.00000E+00
 -1      4185 8.00475E+01 2.19796E+01 0.00000E+00
 -1      4186 5.79000E+01 2.79170E+01 0.00000E+00
 -1      4187 5.94000E+01 2.79170E+01 0.00000E+00
 -1      4188 6.01500E+01 2.66180E+01 0.00000E+00
 -1      4189 5.68679E+01 1.89172E+01 0.00000E+00
 -1      4190 5.37261E+01 2.78263E+01 0.00000E+00
 -1      4191 5.58880E+01 2.76931E+01 0.00000E+00
 -1      4192 8.61225E+01 2.19796E+01 0.00000E+00
 -1      4193 6.19162E+01 2.19796E+01 0.00000E+00
 -1      4194 6.11662E+01 2.06806E+01 0.00000E+00
 -1      4195 5.96475E+01 2.06806E+01 0.00000E+00
 -1      4196 7.62600E+01 2.06806E+01 0.00000E+00
 -1      4197 7.47600E+01 2.06806E+01 0.00000E+00
 -1      4198 7.70100E+01 2.19796E+01 0.00000E+00
 -1      4199 5.68588E+01 2.02636E+01 0.00000E+00
 -1      4200 6.56850E+01 2.06806E+01 0.00000E+00
 -1      4201 6.49350E+01 2.19796E+01 0.00000E+00
 -1      4202 6.71850E+01 2.06806E+01 0.00000E+00
 -1      4203 1.28884E+02 2.17177E+01 0.00000E+00
 -1      4204 1.28097E+02 2.30167E+01 0.00000E+00
 -1      4205 1.31124E+02 2.11757E+01 0.00000E+00
 -1      4206 5.60534E+01 2.45194E+01 0.00000E+00
 -1      4207 5.59653E+01 2.56852E+01 0.00000E+00
 -1      4208 1.28044E+02 2.53710E+01 0.00000E+00
 -1      4209 1.28127E+02 2.41588E+01 0.00000E+00
 -1      4210 1.26841E+02 2.31217E+01 0.00000E+00
 -1      4211 1.26902E+02 2.54060E+01 0.00000E+00
 -1      4212 9.59100E+01 2.32786E+01 0.00000E+00
 -1      4213 9.44100E+01 2.32786E+01 0.00000E+00
 -1      4214 6.54000E+01 2.53190E+01 0.00000E+00
 -1      4215 6.69000E+01 2.53190E+01 0.00000E+00
 -1      4216 6.84000E+01 2.53190E+01 0.00000E+00
 -1      4217 6.99000E+01 2.53190E+01 0.00000E+00
 -1      4218 6.76500E+01 2.40200E+01 0.00000E+00
 -1      4219 7.14000E+01 2.53190E+01 0.00000E+00
 -1      4220 7.29000E+01 2.53190E+01 0.00000E+00
 -1      4221 7.06500E+01 2.40200E+01 0.00000E+00
 -1      4222 7.45800E+01 2.42988E+01 0.00000E+00
 -1      4223 7.60800E+01 2.42988E+01 0.00000E+00
 -1      4224 7.75800E+01 2.42988E+01 0.00000E+00
 -1      4225 7.90800E+01 2.42988E+01 0.00000E+00
 -1      4226 8.06175E+01 2.42988E+01 0.00000E+00
 -1      4227 8.21175E+01 2.42988E+01 0.00000E+00
 -1      4228 8.36175E+01 2.42988E+01 0.00000E+00
 -1      4229 8.51175E+01 2.42988E+01 0.00000E+00
 -1      4230 8.66550E+01 2.42988E+01 0.00000E+00
 -1      4231 8.81550E+01 2.42988E+01 0.00000E+00
 -1      4232 8.96550E+01 2.42988E+01 0.00000E+00
 -1      4233 9.11550E+01 2.42988E+01 0.00000E+00
 -1      4234 9.49050E+01 2.55978E+01 0.00000E+00
 -1      4235 9.64050E+01 2.55978E+01 0.00000E+00
 -1      4236 9.84000E+01 2.53190E+01 0.00000E+00
 -1      4237 9.99000E+01 2.53190E+01 0.00000E+00
 -1      4238 1.01655E+02 2.42988E+01 0.00000E+00
 -1      4239 1.03155E+02 2.42988E+01 0.00000E+00
 -1      4240 1.04655E+02 2.42988E+01 0.00000E+00
 -1      4241 1.06155E+02 2.42988E+01 0.00000E+00
 -1      4242 1.07655E+02 2.42988E+01 0.00000E+00
 -1      4243 1.09155E+02 2.42988E+01 0.00000E+00
 -1      4244 1.10655E+02 2.42988E+01 0.00000E+00
 -1      4245 1.12155E+02 2.42988E+01 0.00000E+00
 -1      4246 1.13655E+02 2.42988E+01 0.00000E+00
 -1      4247 1.15155E+02 2.42988E+01 0.00000E+00
 -1      4248 1.16730E+02 2.42988E+01 0.00000E+00
 -1      4249 1.18230E+02 2.42988E+01 0.00000E+00
 -1      4250 1.19730E+02 2.42988E+01 0.00000E+00
 -1      4251 1.21230E+02 2.42988E+01 0.00000E+00
 -1      4252 1.22730E+02 2.42988E+01 0.00000E+00
 -1      4253 1.24230E+02 2.42988E+01 0.00000E+00
 -1      4254 1.25761E+02 2.54409E+01 0.00000E+00
 -1      4255 1.30183E+02 2.09817E+01 0.00000E+00
 -1      4256 9.94050E+01 2.29998E+01 0.00000E+00
 -1      4257 9.79050E+01 2.29998E+01 0.00000E+00
 -1      4258 1.25341E+02 2.31217E+01 0.00000E+00
 -1      4259 5.60485E+01 2.30379E+01 0.00000E+00
 -1      4260 5.72998E+01 2.37187E+01 0.00000E+00
 -1      4261 5.95238E+01 2.42988E+01 0.00000E+00
 -1      4262 6.10238E+01 2.42988E+01 0.00000E+00
 -1      4263 5.66380E+01 2.63941E+01 0.00000E+00
 -1      4264 6.25425E+01 2.42988E+01 0.00000E+00
 -1      4265 6.40425E+01 2.42988E+01 0.00000E+00
 -1      4266 5.60576E+01 2.16915E+01 0.00000E+00
 -1      4267 9.26550E+01 2.42988E+01 0.00000E+00
 -1      4268 9.71550E+01 2.42988E+01 0.00000E+00
 -1      4269 7.38300E+01 2.29998E+01 0.00000E+00
 -1      4270 5.80962E+01 2.08095E+01 0.00000E+00
 -1      4271 5.88462E+01 2.21085E+01 0.00000E+00
 -1      4272 5.88511E+01 2.35899E+01 0.00000E+00
 -1      4273 9.34050E+01 2.55978E+01 0.00000E+00
 -1      4274 1.00905E+02 2.29998E+01 0.00000E+00
 -1      4275 6.47925E+01 2.29998E+01 0.00000E+00
 -1      4276 6.62925E+01 2.29998E+01 0.00000E+00
 -1      4277 7.35356E+01 2.18402E+01 0.00000E+00
 -1      4278 7.27856E+01 2.05412E+01 0.00000E+00
 -1      4279 7.12669E+01 2.05412E+01 0.00000E+00
 -1      4280 7.18556E+01 2.28604E+01 0.00000E+00
 -1      4281 6.99853E+01 2.06109E+01 0.00000E+00
 -1      4282 6.84666E+01 2.06109E+01 0.00000E+00
 -1      4283 6.77166E+01 2.19099E+01 0.00000E+00
 -1      4284 7.02797E+01 2.17705E+01 0.00000E+00
 -1      4285 6.77925E+01 2.29998E+01 0.00000E+00
 -1      4286 5.79773E+01 2.59091E+01 0.00000E+00
 -1      4287 7.03556E+01 2.28604E+01 0.00000E+00
 -1      4288 6.90741E+01 2.29301E+01 0.00000E+00
 -3
    3C                          2062                                     1
 -1       165    8    0    1
 -2         6         7        23      1114      1278      1131
 -1       166    8    0    1
 -2         7         8       165      1115      1279      1280
 -1       167    8    0    1
 -2         8         9       166      1116      1281      1282
 -1       168    8    0    1
 -2         8       166       165      1282      1283      1279
 -1       169    8    0    1
 -2         9        10       167      1117      1284      1285
 -1       170    8    0    1
 -2         9       167       166      1285      1286      1281
 -1       171    8    0    1
 -2        10        11       168      1118      1287      1288
 -1       172    8    0    1
 -2        10       168       167      1288      1289      1284
 -1       173    8    0    1
 -2        11        12       169      1119      1290      1291
 -1       174    8    0    1
 -2        11       169       168      1291      1292      1287
 -1       175    8    0    1
 -2        12        13       170      1120      1293      1294
 -1       176    8    0    1
 -2        12       170       169      1294      1295      1290
 -1       177    8    0    1
 -2        13        14       171      1121      1296      1297
 -1       178    8    0    1
 -2        13       171       170      1297      1298      1293
 -1       179    8    0    1
 -2        14        15       172      1122      1299      1300
 -1       180    8    0    1
 -2        14       172       171      1300      1301      1296
 -1       181    8    0    1
 -2        15        16       173      1123      1302      1303
 -1       182    8    0    1
 -2        15       173       172      1303      1304      1299
 -1       183    8    0    1
 -2        16        17       174      1124      1305      1306
 -1       184    8    0    1
 -2        16       174       173      1306      1307      1302
 -1       185    8    0    1
 -2        17        18       175      1125      1308      1309
 -1       186    8    0    1
 -2        17       175       174      1309      1310      1305
 -1       187    8    0    1
 -2        18        19       176      1126      1311      1312
 -1       188    8    0    1
 -2        18       176       175      1312      1313      1308
 -1       189    8    0    1
 -2        19        20       177      1127      1314      1315
 -1       190    8    0    1
 -2        19       177       176      1315      1316      1311
 -1       191    8    0    1
 -2        20        21       178      1128      1317      1318
 -1       192    8    0    1
 -2        20       178       177      1318      1319      1314
 -1       193    8    0    1
 -2        21        22       179      1129      1320      1321
 -1       194    8    0    1
 -2        21       179       178      1321      1322      1317
 -1       195    8    0    1
 -2        22         5       180      1130      1323      1324
 -1       196    8    0    1
 -2       179        22       180      1320      1324      1325
 -1       197    8    0    1
 -2         5        72       180      1181      1326      1323
 -1       198    8    0    1
 -2        24        23       181      1132      1327      1328
 -1       199    8    0    1
 -2        25        24       182      1133      1329      1330
 -1       200    8    0    1
 -2        24       181       182      1328      1331      1329
 -1       201    8    0    1
 -2        26        25       183      1134      1332      1333
 -1       202    8    0    1
 -2        25       182       183      1330      1334      1332
 -1       203    8    0    1
 -2        27        26       184      1135      1335      1336
 -1       204    8    0    1
 -2        26       183       184      1333      1337      1335
 -1       205    8    0    1
 -2        28        27       185      1136      1338      1339
 -1       206    8    0    1
 -2        27       184       185      1336      1340      1338
 -1       207    8    0    1
 -2        29        28       186      1137      1341      1342
 -1       208    8    0    1
 -2        28       185       186      1339      1343      1341
 -1       209    8    0    1
 -2        30        29       187      1138      1344      1345
 -1       210    8    0    1
 -2        29       186       187      1342      1346      1344
 -1       211    8    0    1
 -2        31        30       188      1139      1347      1348
 -1       212    8    0    1
 -2        30       187       188      1345      1349      1347
 -1       213    8    0    1
 -2        32        31       189      1140      1350      1351
 -1       214    8    0    1
 -2        31       188       189      1348      1352      1350
 -1       215    8    0    1
 -2        33        32       190      1141      1353      1354
 -1       216    8    0    1
 -2        32       189       190      1351      1355      1353
 -1       217    8    0    1
 -2        34        33       191      1142      1356      1357
 -1       218    8    0    1
 -2        33       190       191      1354      1358      1356
 -1       219    8    0    1
 -2        35        34       192      1143      1359      1360
 -1       220    8    0    1
 -2        34       191       192      1357      1361      1359
 -1       221    8    0    1
 -2        36        35       193      1144      1362      1363
 -1       222    8    0    1
 -2        35       192       193      1360      1364      1362
 -1       223    8    0    1
 -2        37        36       194      1145      1365      1366
 -1       224    8    0    1
 -2        36       193       194      1363      1367      1365
 -1       225    8    0    1
 -2        38        37       195      1146      1368      1369
 -1       226    8    0    1
 -2        37       194       195      1366      1370      1368
 -1       227    8    0    1
 -2        39        38       196      1147      1371      1372
 -1       228    8    0    1
 -2        38       195       196      1369      1373      1371
 -1       229    8    0    1
 -2        40        39       197      1148      1374      1375
 -1       230    8    0    1
 -2        39       196       197      1372      1376      1374
 -1       231    8    0    1
 -2        41        40       198      1149      1377      1378
 -1       232    8    0    1
 -2        40       197       198      1375      1379      1377
 -1       233    8    0    1
 -2        42        41       199      1150      1380      1381
 -1       234    8    0    1
 -2        41       198       199      1378      1382      1380
 -1       235    8    0    1
 -2        43        42       200      1151      1383      1384
 -1       236    8    0    1
 -2        42       199       200      1381      1385      1383
 -1       237    8    0    1
 -2        44        43       201      1152      1386      1387
 -1       238    8    0    1
 -2        43       200       201      1384      1388      1386
 -1       239    8    0    1
 -2        45        44       202      1153      1389      1390
 -1       240    8    0    1
 -2        44       201       202      1387      1391      1389
 -1       241    8    0    1
 -2        46        45       203      1154      1392      1393
 -1       242    8    0    1
 -2        45       202       203      1390      1394      1392
 -1       243    8    0    1
 -2        47        46       204      1155      1395      1396
 -1       244    8    0    1
 -2        46       203       204      1393      1397      1395
 -1       245    8    0    1
 -2        48        47       205      1156      1398      1399
 -1       246    8    0    1
 -2        47       204       205      1396      1400      1398
 -1       247    8    0    1
 -2        49        48       206      1157      1401      1402
 -1       248    8    0    1
 -2        48       205       206      1399      1403      1401
 -1       249    8    0    1
 -2        50        49       207      1158      1404      1405
 -1       250    8    0    1
 -2        49       206       207      1402      1406      1404
 -1       251    8    0    1
 -2        51        50       208      1159      1407      1408
 -1       252    8    0    1
 -2        50       207       208      1405      1409      1407
 -1       253    8    0    1
 -2        52        51       209      1160      1410      1411
 -1       254    8    0    1
 -2        51       208       209      1408      1412      1410
 -1       255    8    0    1
 -2        53        52       210      1161      1413      1414
 -1       256    8    0    1
 -2        52       209       210      1411      1415      1413
 -1       257    8    0    1
 -2        54        53       211      1162      1416      1417
 -1       258    8    0    1
 -2        53       210       211      1414      1418      1416
 -1       259    8    0    1
 -2        55        54       212      1163      1419      1420
 -1       260    8    0    1
 -2        54       211       212      1417      1421      1419
 -1       261    8    0    1
 -2        56        55       213      1164      1422      1423
 -1       262    8    0    1
 -2        55       212       213      1420      1424      1422
 -1       263    8    0    1
 -2        57        56       214      1165      1425      1426
 -1       264    8    0    1
 -2        56       213       214      1423      1427      1425
 -1       265    8    0    1
 -2        58        57       215      1166      1428      1429
 -1       266    8    0    1
 -2        57       214       215      1426      1430      1428
 -1       267    8    0    1
 -2        59        58       216      1167      1431      1432
 -1       268    8    0    1
 -2        58       215       216      1429      1433      1431
 -1       269    8    0    1
 -2        60        59       217      1168      1434      1435
 -1       270    8    0    1
 -2        59       216       217      1432      1436      1434
 -1       271    8    0    1
 -2        61        60       218      1169      1437      1438
 -1       272    8    0    1
 -2        60       217       218      1435      1439      1437
 -1       273    8    0    1
 -2        62        61       219      1170      1440      1441
 -1       274    8    0    1
 -2        61       218       219      1438      1442      1440
 -1       275    8    0    1
 -2        63        62       220      1171      1443      1444
 -1       276    8    0    1
 -2        62       219       220      1441      1445      1443
 -1       277    8    0    1
 -2        64        63       221      1172      1446      1447
 -1       278    8    0    1
 -2        63       220       221      1444      1448      1446
 -1       279    8    0    1
 -2        65        64       222      1173      1449      1450
 -1       280    8    0    1
 -2        64       221       222      1447      1451      1449
 -1       281    8    0    1
 -2        66        65       223      1174      1452      1453
 -1       282    8    0    1
 -2        65       222       223      1450      1454      1452
 -1       283    8    0    1
 -2        67        66       224      1175      1455      1456
 -1       284    8    0    1
 -2        66       223       224      1453      1457      1455
 -1       285    8    0    1
 -2        68        67       225      1176      1458      1459
 -1       286    8    0    1
 -2        67       224       225      1456      1460      1458
 -1       287    8    0    1
 -2        69        68       226      1177      1461      1462
 -1       288    8    0    1
 -2        68       225       226      1459      1463      1461
 -1       289    8    0    1
 -2        70        69       227      1178      1464      1465
 -1       290    8    0    1
 -2        69       226       227      1462      1466      1464
 -1       291    8    0    1
 -2        71        70       228      1179      1467      1468
 -1       292    8    0    1
 -2        70       227       228      1465      1469      1467
 -1       293    8    0    1
 -2         4        71       136      1180      1470      1247
 -1       294    8    0    1
 -2       136        71       228      1470      1468      1471
 -1       295    8    0    1
 -2        72        73       229      1182      1472      1473
 -1       296    8    0    1
 -2        72       229       180      1473      1474      1326
 -1       297    8    0    1
 -2        73        74       230      1183      1475      1476
 -1       298    8    0    1
 -2        73       230       229      1476      1477      1472
 -1       299    8    0    1
 -2        74        75       231      1184      1478      1479
 -1       300    8    0    1
 -2        74       231       230      1479      1480      1475
 -1       301    8    0    1
 -2        75        76       232      1185      1481      1482
 -1       302    8    0    1
 -2        75       232       231      1482      1483      1478
 -1       303    8    0    1
 -2        76        77       233      1186      1484      1485
 -1       304    8    0    1
 -2        76       233       232      1485      1486      1481
 -1       305    8    0    1
 -2        77        78       234      1187      1487      1488
 -1       306    8    0    1
 -2        77       234       233      1488      1489      1484
 -1       307    8    0    1
 -2        78        79       235      1188      1490      1491
 -1       308    8    0    1
 -2        78       235       234      1491      1492      1487
 -1       309    8    0    1
 -2        79        80       236      1189      1493      1494
 -1       310    8    0    1
 -2        79       236       235      1494      1495      1490
 -1       311    8    0    1
 -2        80        81       237      1190      1496      1497
 -1       312    8    0    1
 -2        80       237       236      1497      1498      1493
 -1       313    8    0    1
 -2        81        82       238      1191      1499      1500
 -1       314    8    0    1
 -2        81       238       237      1500      1501      1496
 -1       315    8    0    1
 -2        82        83       239      1192      1502      1503
 -1       316    8    0    1
 -2        82       239       238      1503      1504      1499
 -1       317    8    0    1
 -2        83        84       240      1193      1505      1506
 -1       318    8    0    1
 -2        83       240       239      1506      1507      1502
 -1       319    8    0    1
 -2        84        85       241      1194      1508      1509
 -1       320    8    0    1
 -2        84       241       240      1509      1510      1505
 -1       321    8    0    1
 -2        85        86       242      1195      1511      1512
 -1       322    8    0    1
 -2        85       242       241      1512      1513      1508
 -1       323    8    0    1
 -2        86        87       243      1196      1514      1515
 -1       324    8    0    1
 -2        86       243       242      1515      1516      1511
 -1       325    8    0    1
 -2        87        88       244      1197      1517      1518
 -1       326    8    0    1
 -2        87       244       243      1518      1519      1514
 -1       327    8    0    1
 -2        88        89       245      1198      1520      1521
 -1       328    8    0    1
 -2        88       245       244      1521      1522      1517
 -1       329    8    0    1
 -2        89        90       246      1199      1523      1524
 -1       330    8    0    1
 -2        89       246       245      1524      1525      1520
 -1       331    8    0    1
 -2        90        91       247      1200      1526      1527
 -1       332    8    0    1
 -2        90       247       246      1527      1528      1523
 -1       333    8    0    1
 -2        91        92       248      1201      1529      1530
 -1       334    8    0    1
 -2        91       248       247      1530      1531      1526
 -1       335    8    0    1
 -2        92        93       249      1202      1532      1533
 -1       336    8    0    1
 -2        92       249       248      1533      1534      1529
 -1       337    8    0    1
 -2        93        94       250      1203      1535      1536
 -1       338    8    0    1
 -2        93       250       249      1536      1537      1532
 -1       339    8    0    1
 -2        94        95       251      1204      1538      1539
 -1       340    8    0    1
 -2        94       251       250      1539      1540      1535
 -1       341    8    0    1
 -2        95        96       252      1205      1541      1542
 -1       342    8    0    1
 -2        95       252       251      1542      1543      1538
 -1       343    8    0    1
 -2        96        97       253      1206      1544      1545
 -1       344    8    0    1
 -2        96       253       252      1545      1546      1541
 -1       345    8    0    1
 -2        97        98       254      1207      1547      1548
 -1       346    8    0    1
 -2        97       254       253      1548      1549      1544
 -1       347    8    0    1
 -2        98        99       255      1208      1550      1551
 -1       348    8    0    1
 -2        98       255       254      1551      1552      1547
 -1       349    8    0    1
 -2        99       100       256      1209      1553      1554
 -1       350    8    0    1
 -2        99       256       255      1554      1555      1550
 -1       351    8    0    1
 -2       100       101       257      1210      1556      1557
 -1       352    8    0    1
 -2       100       257       256      1557      1558      1553
 -1       353    8    0    1
 -2       101       102       258      1211      1559      1560
 -1       354    8    0    1
 -2       101       258       257      1560      1561      1556
 -1       355    8    0    1
 -2       102       103       259      1212      1562      1563
 -1       356    8    0    1
 -2       102       259       258      1563      1564      1559
 -1       357    8    0    1
 -2       103       104       260      1213      1565      1566
 -1       358    8    0    1
 -2       103       260       259      1566      1567      1562
 -1       359    8    0    1
 -2       104       105       261      1214      1568      1569
 -1       360    8    0    1
 -2       104       261       260      1569      1570      1565
 -1       361    8    0    1
 -2       105       106       262      1215      1571      1572
 -1       362    8    0    1
 -2       105       262       261      1572      1573      1568
 -1       363    8    0    1
 -2       106       107       263      1216      1574      1575
 -1       364    8    0    1
 -2       106       263       262      1575      1576      1571
 -1       365    8    0    1
 -2       107       108       264      1217      1577      1578
 -1       366    8    0    1
 -2       107       264       263      1578      1579      1574
 -1       367    8    0    1
 -2       108       109       265      1218      1580      1581
 -1       368    8    0    1
 -2       108       265       264      1581      1582      1577
 -1       369    8    0    1
 -2       109       110       266      1219      1583      1584
 -1       370    8    0    1
 -2       109       266       265      1584      1585      1580
 -1       371    8    0    1
 -2       110       111       267      1220      1586      1587
 -1       372    8    0    1
 -2       110       267       266      1587      1588      1583
 -1       373    8    0    1
 -2       111       112       268      1221      1589      1590
 -1       374    8    0    1
 -2       111       268       267      1590      1591      1586
 -1       375    8    0    1
 -2       112       113       269      1222      1592      1593
 -1       376    8    0    1
 -2       112       269       268      1593      1594      1589
 -1       377    8    0    1
 -2       113       114       270      1223      1595      1596
 -1       378    8    0    1
 -2       113       270       269      1596      1597      1592
 -1       379    8    0    1
 -2       114       115       271      1224      1598      1599
 -1       380    8    0    1
 -2       114       271       270      1599      1600      1595
 -1       381    8    0    1
 -2       115       116       272      1225      1601      1602
 -1       382    8    0    1
 -2       115       272       271      1602      1603      1598
 -1       383    8    0    1
 -2       116       117       273      1226      1604      1605
 -1       384    8    0    1
 -2       116       273       272      1605      1606      1601
 -1       385    8    0    1
 -2       117       118       274      1227      1607      1608
 -1       386    8    0    1
 -2       117       274       273      1608      1609      1604
 -1       387    8    0    1
 -2       118       119       275      1228      1610      1611
 -1       388    8    0    1
 -2       118       275       274      1611      1612      1607
 -1       389    8    0    1
 -2       119       120       276      1229      1613      1614
 -1       390    8    0    1
 -2       119       276       275      1614      1615      1610
 -1       391    8    0    1
 -2       120         3       121      1230      1231      1616
 -1       392    8    0    1
 -2       121       122       277      1232      1617      1618
 -1       393    8    0    1
 -2       122       123       278      1233      1619      1620
 -1       394    8    0    1
 -2       122       278       277      1620      1621      1617
 -1       395    8    0    1
 -2       123       124       279      1234      1622      1623
 -1       396    8    0    1
 -2       123       279       278      1623      1624      1619
 -1       397    8    0    1
 -2       124       125       280      1235      1625      1626
 -1       398    8    0    1
 -2       124       280       279      1626      1627      1622
 -1       399    8    0    1
 -2       125       126       281      1236      1628      1629
 -1       400    8    0    1
 -2       125       281       280      1629      1630      1625
 -1       401    8    0    1
 -2       126       127       282      1237      1631      1632
 -1       402    8    0    1
 -2       126       282       281      1632      1633      1628
 -1       403    8    0    1
 -2       127       128       283      1238      1634      1635
 -1       404    8    0    1
 -2       127       283       282      1635      1636      1631
 -1       405    8    0    1
 -2       128       129       284      1239      1637      1638
 -1       406    8    0    1
 -2       128       284       283      1638      1639      1634
 -1       407    8    0    1
 -2       129       130       285      1240      1640      1641
 -1       408    8    0    1
 -2       129       285       284      1641      1642      1637
 -1       409    8    0    1
 -2       130       131       286      1241      1643      1644
 -1       410    8    0    1
 -2       130       286       285      1644      1645      1640
 -1       411    8    0    1
 -2       131       132       287      1242      1646      1647
 -1       412    8    0    1
 -2       131       287       286      1647      1648      1643
 -1       413    8    0    1
 -2       132       133       288      1243      1649      1650
 -1       414    8    0    1
 -2       132       288       287      1650      1651      1646
 -1       415    8    0    1
 -2       133       134       289      1244      1652      1653
 -1       416    8    0    1
 -2       133       289       288      1653      1654      1649
 -1       417    8    0    1
 -2       134       135       290      1245      1655      1656
 -1       418    8    0    1
 -2       134       290       289      1656      1657      1652
 -1       419    8    0    1
 -2       135       136       291      1246      1658      1659
 -1       420    8    0    1
 -2       290       135       291      1655      1659      1660
 -1       421    8    0    1
 -2       136       228       291      1471      1661      1658
 -1       422    8    0    1
 -2         2       137       292      1248      1662      1663
 -1       423    8    0    1
 -2       137       138       293      1249      1664      1665
 -1       424    8    0    1
 -2       138       139       294      1250      1666      1667
 -1       425    8    0    1
 -2       139       140       295      1251      1668      1669
 -1       426    8    0    1
 -2       140       141       296      1252      1670      1671
 -1       427    8    0    1
 -2       141       142       297      1253      1672      1673
 -1       428    8    0    1
 -2       142       143       298      1254      1674      1675
 -1       429    8    0    1
 -2       143       144       299      1255      1676      1677
 -1       430    8    0    1
 -2       144       145       300      1256      1678      1679
 -1       431    8    0    1
 -2       145       146       301      1257      1680      1681
 -1       432    8    0    1
 -2       146       147       302      1258      1682      1683
 -1       433    8    0    1
 -2       147       148       303      1259      1684      1685
 -1       434    8    0    1
 -2       148       149       304      1260      1686      1687
 -1       435    8    0    1
 -2       149       150       305      1261      1688      1689
 -1       436    8    0    1
 -2       150       151       306      1262      1690      1691
 -1       437    8    0    1
 -2       151       152       307      1263      1692      1693
 -1       438    8    0    1
 -2       152       153       308      1264      1694      1695
 -1       439    8    0    1
 -2       153       154       309      1265      1696      1697
 -1       440    8    0    1
 -2       154       155       310      1266      1698      1699
 -1       441    8    0    1
 -2       155       156       311      1267      1700      1701
 -1       442    8    0    1
 -2       156       157       312      1268      1702      1703
 -1       443    8    0    1
 -2       157         1       313      1269      1704      1705
 -1       444    8    0    1
 -2         1       158       314      1270      1706      1707
 -1       445    8    0    1
 -2       158       159       315      1271      1708      1709
 -1       446    8    0    1
 -2       159       160       316      1272      1710      1711
 -1       447    8    0    1
 -2       160       161       317      1273      1712      1713
 -1       448    8    0    1
 -2       161       162       318      1274      1714      1715
 -1       449    8    0    1
 -2       162       163       319      1275      1716      1717
 -1       450    8    0    1
 -2       163       164       320      1276      1718      1719
 -1       451    8    0    1
 -2       164         2       321      1277      1720      1721
 -1       452    8    0    1
 -2       295       140       296      1668      1671      1722
 -1       453    8    0    1
 -2       294       139       295      1666      1669      1723
 -1       454    8    0    1
 -2       120       121       276      1616      1724      1613
 -1       455    8    0    1
 -2       121       277       276      1618      1725      1724
 -1       456    8    0    1
 -2       292       137       293      1662      1665      1726
 -1       457    8    0    1
 -2       293       138       294      1664      1667      1727
 -1       458    8    0    1
 -2         2       292       321      1663      1728      1720
 -1       459    8    0    1
 -2       141       297       296      1673      1729      1670
 -1       460    8    0    1
 -2       142       298       297      1675      1730      1672
 -1       461    8    0    1
 -2       143       299       298      1677      1731      1674
 -1       462    8    0    1
 -2       144       300       299      1679      1732      1676
 -1       463    8    0    1
 -2       145       301       300      1681      1733      1678
 -1       464    8    0    1
 -2       146       302       301      1683      1734      1680
 -1       465    8    0    1
 -2       147       303       302      1685      1735      1682
 -1       466    8    0    1
 -2       148       304       303      1687      1736      1684
 -1       467    8    0    1
 -2       149       305       304      1689      1737      1686
 -1       468    8    0    1
 -2       150       306       305      1691      1738      1688
 -1       469    8    0    1
 -2       151       307       306      1693      1739      1690
 -1       470    8    0    1
 -2       152       308       307      1695      1740      1692
 -1       471    8    0    1
 -2       153       309       308      1697      1741      1694
 -1       472    8    0    1
 -2       154       310       309      1699      1742      1696
 -1       473    8    0    1
 -2       155       311       310      1701      1743      1698
 -1       474    8    0    1
 -2       156       312       311      1703      1744      1700
 -1       475    8    0    1
 -2       157       313       312      1705      1745      1702
 -1       476    8    0    1
 -2         1       314       313      1707      1746      1704
 -1       477    8    0    1
 -2       158       315       314      1709      1747      1706
 -1       478    8    0    1
 -2       159       316       315      1711      1748      1708
 -1       479    8    0    1
 -2       160       317       316      1713      1749      1710
 -1       480    8    0    1
 -2       161       318       317      1715      1750      1712
 -1       481    8    0    1
 -2       162       319       318      1717      1751      1714
 -1       482    8    0    1
 -2       163       320       319      1719      1752      1716
 -1       483    8    0    1
 -2       164       321       320      1721      1753      1718
 -1       484    8    0    1
 -2        23         7       165      1278      1280      1754
 -1       485    8    0    1
 -2       166       167       322      1286      1755      1756
 -1       486    8    0    1
 -2       165       166       323      1283      1757      1758
 -1       487    8    0    1
 -2       166       322       323      1756      1759      1757
 -1       488    8    0    1
 -2       168       169       324      1292      1760      1761
 -1       489    8    0    1
 -2       169       170       325      1295      1762      1763
 -1       490    8    0    1
 -2       169       325       324      1763      1764      1760
 -1       491    8    0    1
 -2       170       171       326      1298      1765      1766
 -1       492    8    0    1
 -2       170       326       325      1766      1767      1762
 -1       493    8    0    1
 -2       171       172       327      1301      1768      1769
 -1       494    8    0    1
 -2       171       327       326      1769      1770      1765
 -1       495    8    0    1
 -2       172       173       328      1304      1771      1772
 -1       496    8    0    1
 -2       172       328       327      1772      1773      1768
 -1       497    8    0    1
 -2       173       174       329      1307      1774      1775
 -1       498    8    0    1
 -2       173       329       328      1775      1776      1771
 -1       499    8    0    1
 -2       174       175       330      1310      1777      1778
 -1       500    8    0    1
 -2       174       330       329      1778      1779      1774
 -1       501    8    0    1
 -2       175       176       331      1313      1780      1781
 -1       502    8    0    1
 -2       175       331       330      1781      1782      1777
 -1       503    8    0    1
 -2       176       177       332      1316      1783      1784
 -1       504    8    0    1
 -2       176       332       331      1784      1785      1780
 -1       505    8    0    1
 -2       177       178       333      1319      1786      1787
 -1       506    8    0    1
 -2       177       333       332      1787      1788      1783
 -1       507    8    0    1
 -2       178       179       334      1322      1789      1790
 -1       508    8    0    1
 -2       178       334       333      1790      1791      1786
 -1       509    8    0    1
 -2       179       180       335      1325      1792      1793
 -1       510    8    0    1
 -2       334       179       335      1789      1793      1794
 -1       511    8    0    1
 -2       180       229       335      1474      1795      1792
 -1       512    8    0    1
 -2       181        23       165      1327      1754      1796
 -1       513    8    0    1
 -2       229       230       336      1477      1797      1798
 -1       514    8    0    1
 -2       229       336       335      1798      1799      1795
 -1       515    8    0    1
 -2       181       165       323      1796      1758      1800
 -1       516    8    0    1
 -2       183       182       337      1334      1801      1802
 -1       517    8    0    1
 -2       184       183       338      1337      1803      1804
 -1       518    8    0    1
 -2       183       337       338      1802      1805      1803
 -1       519    8    0    1
 -2       185       184       339      1340      1806      1807
 -1       520    8    0    1
 -2       184       338       339      1804      1808      1806
 -1       521    8    0    1
 -2       186       185       340      1343      1809      1810
 -1       522    8    0    1
 -2       185       339       340      1807      1811      1809
 -1       523    8    0    1
 -2       187       186       341      1346      1812      1813
 -1       524    8    0    1
 -2       186       340       341      1810      1814      1812
 -1       525    8    0    1
 -2       188       187       342      1349      1815      1816
 -1       526    8    0    1
 -2       187       341       342      1813      1817      1815
 -1       527    8    0    1
 -2       189       188       343      1352      1818      1819
 -1       528    8    0    1
 -2       188       342       343      1816      1820      1818
 -1       529    8    0    1
 -2       190       189       344      1355      1821      1822
 -1       530    8    0    1
 -2       189       343       344      1819      1823      1821
 -1       531    8    0    1
 -2       191       190       345      1358      1824      1825
 -1       532    8    0    1
 -2       190       344       345      1822      1826      1824
 -1       533    8    0    1
 -2       192       191       346      1361      1827      1828
 -1       534    8    0    1
 -2       191       345       346      1825      1829      1827
 -1       535    8    0    1
 -2       193       192       347      1364      1830      1831
 -1       536    8    0    1
 -2       192       346       347      1828      1832      1830
 -1       537    8    0    1
 -2       194       193       348      1367      1833      1834
 -1       538    8    0    1
 -2       193       347       348      1831      1835      1833
 -1       539    8    0    1
 -2       195       194       349      1370      1836      1837
 -1       540    8    0    1
 -2       194       348       349      1834      1838      1836
 -1       541    8    0    1
 -2       196       195       350      1373      1839      1840
 -1       542    8    0    1
 -2       195       349       350      1837      1841      1839
 -1       543    8    0    1
 -2       197       196       351      1376      1842      1843
 -1       544    8    0    1
 -2       196       350       351      1840      1844      1842
 -1       545    8    0    1
 -2       198       197       352      1379      1845      1846
 -1       546    8    0    1
 -2       197       351       352      1843      1847      1845
 -1       547    8    0    1
 -2       199       198       353      1382      1848      1849
 -1       548    8    0    1
 -2       198       352       353      1846      1850      1848
 -1       549    8    0    1
 -2       200       199       354      1385      1851      1852
 -1       550    8    0    1
 -2       199       353       354      1849      1853      1851
 -1       551    8    0    1
 -2       201       200       355      1388      1854      1855
 -1       552    8    0    1
 -2       200       354       355      1852      1856      1854
 -1       553    8    0    1
 -2       202       201       356      1391      1857      1858
 -1       554    8    0    1
 -2       201       355       356      1855      1859      1857
 -1       555    8    0    1
 -2       203       202       357      1394      1860      1861
 -1       556    8    0    1
 -2       202       356       357      1858      1862      1860
 -1       557    8    0    1
 -2       204       203       358      1397      1863      1864
 -1       558    8    0    1
 -2       203       357       358      1861      1865      1863
 -1       559    8    0    1
 -2       205       204       359      1400      1866      1867
 -1       560    8    0    1
 -2       204       358       359      1864      1868      1866
 -1       561    8    0    1
 -2       206       205       360      1403      1869      1870
 -1       562    8    0    1
 -2       205       359       360      1867      1871      1869
 -1       563    8    0    1
 -2       207       206       361      1406      1872      1873
 -1       564    8    0    1
 -2       206       360       361      1870      1874      1872
 -1       565    8    0    1
 -2       208       207       362      1409      1875      1876
 -1       566    8    0    1
 -2       207       361       362      1873      1877      1875
 -1       567    8    0    1
 -2       209       208       363      1412      1878      1879
 -1       568    8    0    1
 -2       208       362       363      1876      1880      1878
 -1       569    8    0    1
 -2       210       209       364      1415      1881      1882
 -1       570    8    0    1
 -2       209       363       364      1879      1883      1881
 -1       571    8    0    1
 -2       211       210       365      1418      1884      1885
 -1       572    8    0    1
 -2       210       364       365      1882      1886      1884
 -1       573    8    0    1
 -2       212       211       366      1421      1887      1888
 -1       574    8    0    1
 -2       211       365       366      1885      1889      1887
 -1       575    8    0    1
 -2       213       212       367      1424      1890      1891
 -1       576    8    0    1
 -2       212       366       367      1888      1892      1890
 -1       577    8    0    1
 -2       214       213       368      1427      1893      1894
 -1       578    8    0    1
 -2       213       367       368      1891      1895      1893
 -1       579    8    0    1
 -2       215       214       369      1430      1896      1897
 -1       580    8    0    1
 -2       214       368       369      1894      1898      1896
 -1       581    8    0    1
 -2       216       215       370      1433      1899      1900
 -1       582    8    0    1
 -2       215       369       370      1897      1901      1899
 -1       583    8    0    1
 -2       217       216       371      1436      1902      1903
 -1       584    8    0    1
 -2       216       370       371      1900      1904      1902
 -1       585    8    0    1
 -2       218       217       372      1439      1905      1906
 -1       586    8    0    1
 -2       217       371       372      1903      1907      1905
 -1       587    8    0    1
 -2       219       218       373      1442      1908      1909
 -1       588    8    0    1
 -2       218       372       373      1906      1910      1908
 -1       589    8    0    1
 -2       220       219       374      1445      1911      1912
 -1       590    8    0    1
 -2       219       373       374      1909      1913      1911
 -1       591    8    0    1
 -2       221       220       375      1448      1914      1915
 -1       592    8    0    1
 -2       220       374       375      1912      1916      1914
 -1       593    8    0    1
 -2       222       221       376      1451      1917      1918
 -1       594    8    0    1
 -2       221       375       376      1915      1919      1917
 -1       595    8    0    1
 -2       223       222       377      1454      1920      1921
 -1       596    8    0    1
 -2       222       376       377      1918      1922      1920
 -1       597    8    0    1
 -2       224       223       378      1457      1923      1924
 -1       598    8    0    1
 -2       223       377       378      1921      1925      1923
 -1       599    8    0    1
 -2       225       224       379      1460      1926      1927
 -1       600    8    0    1
 -2       224       378       379      1924      1928      1926
 -1       601    8    0    1
 -2       226       225       380      1463      1929      1930
 -1       602    8    0    1
 -2       225       379       380      1927      1931      1929
 -1       603    8    0    1
 -2       227       226       381      1466      1932      1933
 -1       604    8    0    1
 -2       226       380       381      1930      1934      1932
 -1       605    8    0    1
 -2       228       227       382      1469      1935      1936
 -1       606    8    0    1
 -2       291       228       382      1661      1936      1937
 -1       607    8    0    1
 -2       227       381       382      1933      1938      1935
 -1       608    8    0    1
 -2       230       231       383      1480      1939      1940
 -1       609    8    0    1
 -2       230       383       336      1940      1941      1797
 -1       610    8    0    1
 -2       231       232       384      1483      1942      1943
 -1       611    8    0    1
 -2       231       384       383      1943      1944      1939
 -1       612    8    0    1
 -2       232       233       385      1486      1945      1946
 -1       613    8    0    1
 -2       232       385       384      1946      1947      1942
 -1       614    8    0    1
 -2       233       234       386      1489      1948      1949
 -1       615    8    0    1
 -2       233       386       385      1949      1950      1945
 -1       616    8    0    1
 -2       234       235       387      1492      1951      1952
 -1       617    8    0    1
 -2       234       387       386      1952      1953      1948
 -1       618    8    0    1
 -2       235       236       388      1495      1954      1955
 -1       619    8    0    1
 -2       235       388       387      1955      1956      1951
 -1       620    8    0    1
 -2       236       237       389      1498      1957      1958
 -1       621    8    0    1
 -2       236       389       388      1958      1959      1954
 -1       622    8    0    1
 -2       237       238       390      1501      1960      1961
 -1       623    8    0    1
 -2       237       390       389      1961      1962      1957
 -1       624    8    0    1
 -2       238       239       391      1504      1963      1964
 -1       625    8    0    1
 -2       238       391       390      1964      1965      1960
 -1       626    8    0    1
 -2       239       240       392      1507      1966      1967
 -1       627    8    0    1
 -2       239       392       391      1967      1968      1963
 -1       628    8    0    1
 -2       240       241       393      1510      1969      1970
 -1       629    8    0    1
 -2       240       393       392      1970      1971      1966
 -1       630    8    0    1
 -2       241       242       394      1513      1972      1973
 -1       631    8    0    1
 -2       241       394       393      1973      1974      1969
 -1       632    8    0    1
 -2       242       243       395      1516      1975      1976
 -1       633    8    0    1
 -2       242       395       394      1976      1977      1972
 -1       634    8    0    1
 -2       243       244       396      1519      1978      1979
 -1       635    8    0    1
 -2       243       396       395      1979      1980      1975
 -1       636    8    0    1
 -2       244       245       397      1522      1981      1982
 -1       637    8    0    1
 -2       244       397       396      1982      1983      1978
 -1       638    8    0    1
 -2       245       246       398      1525      1984      1985
 -1       639    8    0    1
 -2       245       398       397      1985      1986      1981
 -1       640    8    0    1
 -2       246       247       399      1528      1987      1988
 -1       641    8    0    1
 -2       246       399       398      1988      1989      1984
 -1       642    8    0    1
 -2       247       248       400      1531      1990      1991
 -1       643    8    0    1
 -2       247       400       399      1991      1992      1987
 -1       644    8    0    1
 -2       248       249       401      1534      1993      1994
 -1       645    8    0    1
 -2       248       401       400      1994      1995      1990
 -1       646    8    0    1
 -2       249       250       402      1537      1996      1997
 -1       647    8    0    1
 -2       249       402       401      1997      1998      1993
 -1       648    8    0    1
 -2       250       251       403      1540      1999      2000
 -1       649    8    0    1
 -2       250       403       402      2000      2001      1996
 -1       650    8    0    1
 -2       251       252       404      1543      2002      2003
 -1       651    8    0    1
 -2       251       404       403      2003      2004      1999
 -1       652    8    0    1
 -2       252       253       405      1546      2005      2006
 -1       653    8    0    1
 -2       252       405       404      2006      2007      2002
 -1       654    8    0    1
 -2       253       254       406      1549      2008      2009
 -1       655    8    0    1
 -2       253       406       405      2009      2010      2005
 -1       656    8    0    1
 -2       254       255       407      1552      2011      2012
 -1       657    8    0    1
 -2       254       407       406      2012      2013      2008
 -1       658    8    0    1
 -2       255       256       408      1555      2014      2015
 -1       659    8    0    1
 -2       255       408       407      2015      2016      2011
 -1       660    8    0    1
 -2       256       257       409      1558      2017      2018
 -1       661    8    0    1
 -2       256       409       408      2018      2019      2014
 -1       662    8    0    1
 -2       257       258       410      1561      2020      2021
 -1       663    8    0    1
 -2       257       410       409      2021      2022      2017
 -1       664    8    0    1
 -2       258       259       411      1564      2023      2024
 -1       665    8    0    1
 -2       258       411       410      2024      2025      2020
 -1       666    8    0    1
 -2       259       260       412      1567      2026      2027
 -1       667    8    0    1
 -2       259       412       411      2027      2028      2023
 -1       668    8    0    1
 -2       260       261       413      1570      2029      2030
 -1       669    8    0    1
 -2       260       413       412      2030      2031      2026
 -1       670    8    0    1
 -2       261       262       414      1573      2032      2033
 -1       671    8    0    1
 -2       261       414       413      2033      2034      2029
 -1       672    8    0    1
 -2       262       263       415      1576      2035      2036
 -1       673    8    0    1
 -2       262       415       414      2036      2037      2032
 -1       674    8    0    1
 -2       263       264       416      1579      2038      2039
 -1       675    8    0    1
 -2       263       416       415      2039      2040      2035
 -1       676    8    0    1
 -2       264       265       417      1582      2041      2042
 -1       677    8    0    1
 -2       264       417       416      2042      2043      2038
 -1       678    8    0    1
 -2       265       266       418      1585      2044      2045
 -1       679    8    0    1
 -2       265       418       417      2045      2046      2041
 -1       680    8    0    1
 -2       266       267       419      1588      2047      2048
 -1       681    8    0    1
 -2       266       419       418      2048      2049      2044
 -1       682    8    0    1
 -2       267       268       420      1591      2050      2051
 -1       683    8    0    1
 -2       267       420       419      2051      2052      2047
 -1       684    8    0    1
 -2       268       269       421      1594      2053      2054
 -1       685    8    0    1
 -2       268       421       420      2054      2055      2050
 -1       686    8    0    1
 -2       269       270       422      1597      2056      2057
 -1       687    8    0    1
 -2       269       422       421      2057      2058      2053
 -1       688    8    0    1
 -2       270       271       423      1600      2059      2060
 -1       689    8    0    1
 -2       270       423       422      2060      2061      2056
 -1       690    8    0    1
 -2       271       272       424      1603      2062      2063
 -1       691    8    0    1
 -2       271       424       423      2063      2064      2059
 -1       692    8    0    1
 -2       272       273       425      1606      2065      2066
 -1       693    8    0    1
 -2       272       425       424      2066      2067      2062
 -1       694    8    0    1
 -2       273       274       426      1609      2068      2069
 -1       695    8    0    1
 -2       273       426       425      2069      2070      2065
 -1       696    8    0    1
 -2       274       275       427      1612      2071      2072
 -1       697    8    0    1
 -2       274       427       426      2072      2073      2068
 -1       698    8    0    1
 -2       275       276       428      1615      2074      2075
 -1       699    8    0    1
 -2       427       275       428      2071      2075      2076
 -1       700    8    0    1
 -2       276       277       428      1725      2077      2074
 -1       701    8    0    1
 -2       279       280       429      1627      2078      2079
 -1       702    8    0    1
 -2       278       279       430      1624      2080      2081
 -1       703    8    0    1
 -2       279       429       430      2079      2082      2080
 -1       704    8    0    1
 -2       277       278       431      1621      2083      2084
 -1       705    8    0    1
 -2       428       277       431      2077      2084      2085
 -1       706    8    0    1
 -2       278       430       431      2081      2086      2083
 -1       707    8    0    1
 -2       280       281       432      1630      2087      2088
 -1       708    8    0    1
 -2       280       432       429      2088      2089      2078
 -1       709    8    0    1
 -2       281       282       433      1633      2090      2091
 -1       710    8    0    1
 -2       281       433       432      2091      2092      2087
 -1       711    8    0    1
 -2       282       283       434      1636      2093      2094
 -1       712    8    0    1
 -2       282       434       433      2094      2095      2090
 -1       713    8    0    1
 -2       283       284       435      1639      2096      2097
 -1       714    8    0    1
 -2       283       435       434      2097      2098      2093
 -1       715    8    0    1
 -2       284       285       436      1642      2099      2100
 -1       716    8    0    1
 -2       284       436       435      2100      2101      2096
 -1       717    8    0    1
 -2       285       286       437      1645      2102      2103
 -1       718    8    0    1
 -2       285       437       436      2103      2104      2099
 -1       719    8    0    1
 -2       286       287       438      1648      2105      2106
 -1       720    8    0    1
 -2       286       438       437      2106      2107      2102
 -1       721    8    0    1
 -2       287       288       439      1651      2108      2109
 -1       722    8    0    1
 -2       287       439       438      2109      2110      2105
 -1       723    8    0    1
 -2       288       289       440      1654      2111      2112
 -1       724    8    0    1
 -2       288       440       439      2112      2113      2108
 -1       725    8    0    1
 -2       289       290       441      1657      2114      2115
 -1       726    8    0    1
 -2       289       441       440      2115      2116      2111
 -1       727    8    0    1
 -2       293       294       442      1727      2117      2118
 -1       728    8    0    1
 -2       321       292       443      1728      2119      2120
 -1       729    8    0    1
 -2       292       293       444      1726      2121      2122
 -1       730    8    0    1
 -2       292       444       443      2122      2123      2119
 -1       731    8    0    1
 -2       294       295       445      1723      2124      2125
 -1       732    8    0    1
 -2       295       296       446      1722      2126      2127
 -1       733    8    0    1
 -2       167       168       447      1289      2128      2129
 -1       734    8    0    1
 -2       322       167       447      1755      2129      2130
 -1       735    8    0    1
 -2       168       324       447      1761      2131      2128
 -1       736    8    0    1
 -2       297       298       448      1730      2132      2133
 -1       737    8    0    1
 -2       299       300       449      1732      2134      2135
 -1       738    8    0    1
 -2       300       301       450      1733      2136      2137
 -1       739    8    0    1
 -2       301       302       451      1734      2138      2139
 -1       740    8    0    1
 -2       302       303       452      1735      2140      2141
 -1       741    8    0    1
 -2       303       304       453      1736      2142      2143
 -1       742    8    0    1
 -2       304       305       454      1737      2144      2145
 -1       743    8    0    1
 -2       305       306       455      1738      2146      2147
 -1       744    8    0    1
 -2       306       307       456      1739      2148      2149
 -1       745    8    0    1
 -2       306       456       455      2149      2150      2146
 -1       746    8    0    1
 -2       307       308       457      1740      2151      2152
 -1       747    8    0    1
 -2       308       309       458      1741      2153      2154
 -1       748    8    0    1
 -2       308       458       457      2154      2155      2151
 -1       749    8    0    1
 -2       309       310       459      1742      2156      2157
 -1       750    8    0    1
 -2       310       311       460      1743      2158      2159
 -1       751    8    0    1
 -2       311       312       461      1744      2160      2161
 -1       752    8    0    1
 -2       311       461       460      2161      2162      2158
 -1       753    8    0    1
 -2       312       313       462      1745      2163      2164
 -1       754    8    0    1
 -2       313       314       463      1746      2165      2166
 -1       755    8    0    1
 -2       314       315       464      1747      2167      2168
 -1       756    8    0    1
 -2       314       464       463      2168      2169      2165
 -1       757    8    0    1
 -2       315       316       465      1748      2170      2171
 -1       758    8    0    1
 -2       316       317       466      1749      2172      2173
 -1       759    8    0    1
 -2       316       466       465      2173      2174      2170
 -1       760    8    0    1
 -2       317       318       467      1750      2175      2176
 -1       761    8    0    1
 -2       318       319       468      1751      2177      2178
 -1       762    8    0    1
 -2       318       468       467      2178      2179      2175
 -1       763    8    0    1
 -2       319       320       469      1752      2180      2181
 -1       764    8    0    1
 -2       320       321       470      1753      2182      2183
 -1       765    8    0    1
 -2       296       297       471      1729      2184      2185
 -1       766    8    0    1
 -2       446       296       471      2126      2185      2186
 -1       767    8    0    1
 -2       181       323       182      1800      2187      1331
 -1       768    8    0    1
 -2       297       448       471      2133      2188      2184
 -1       769    8    0    1
 -2       337       182       323      1801      2187      2189
 -1       770    8    0    1
 -2       444       293       472      2121      2190      2191
 -1       771    8    0    1
 -2       293       442       472      2118      2192      2190
 -1       772    8    0    1
 -2       294       445       442      2125      2193      2117
 -1       773    8    0    1
 -2       441       290       291      2114      1660      2194
 -1       774    8    0    1
 -2       321       443       470      2120      2195      2182
 -1       775    8    0    1
 -2       445       295       446      2124      2127      2196
 -1       776    8    0    1
 -2       468       319       469      2177      2181      2197
 -1       777    8    0    1
 -2       466       317       467      2172      2176      2198
 -1       778    8    0    1
 -2       464       315       465      2167      2171      2199
 -1       779    8    0    1
 -2       461       312       462      2160      2164      2200
 -1       780    8    0    1
 -2       458       309       459      2153      2157      2201
 -1       781    8    0    1
 -2       456       307       457      2148      2152      2202
 -1       782    8    0    1
 -2       454       305       455      2144      2147      2203
 -1       783    8    0    1
 -2       453       304       454      2142      2145      2204
 -1       784    8    0    1
 -2       452       303       453      2140      2143      2205
 -1       785    8    0    1
 -2       451       302       452      2138      2141      2206
 -1       786    8    0    1
 -2       450       301       451      2136      2139      2207
 -1       787    8    0    1
 -2       449       300       450      2134      2137      2208
 -1       788    8    0    1
 -2       299       449       473      2135      2209      2210
 -1       789    8    0    1
 -2       299       473       298      2210      2211      1731
 -1       790    8    0    1
 -2       298       473       448      2211      2212      2132
 -1       791    8    0    1
 -2       459       310       460      2156      2159      2213
 -1       792    8    0    1
 -2       462       313       463      2163      2166      2214
 -1       793    8    0    1
 -2       469       320       470      2180      2183      2215
 -1       794    8    0    1
 -2       336       383       474      1941      2216      2217
 -1       795    8    0    1
 -2       325       326       475      1767      2218      2219
 -1       796    8    0    1
 -2       324       325       476      1764      2220      2221
 -1       797    8    0    1
 -2       325       475       476      2219      2222      2220
 -1       798    8    0    1
 -2       327       328       477      1773      2223      2224
 -1       799    8    0    1
 -2       328       329       478      1776      2225      2226
 -1       800    8    0    1
 -2       328       478       477      2226      2227      2223
 -1       801    8    0    1
 -2       329       330       479      1779      2228      2229
 -1       802    8    0    1
 -2       329       479       478      2229      2230      2225
 -1       803    8    0    1
 -2       330       331       480      1782      2231      2232
 -1       804    8    0    1
 -2       330       480       479      2232      2233      2228
 -1       805    8    0    1
 -2       331       332       481      1785      2234      2235
 -1       806    8    0    1
 -2       331       481       480      2235      2236      2231
 -1       807    8    0    1
 -2       332       333       482      1788      2237      2238
 -1       808    8    0    1
 -2       332       482       481      2238      2239      2234
 -1       809    8    0    1
 -2       383       384       483      1944      2240      2241
 -1       810    8    0    1
 -2       383       483       474      2241      2242      2216
 -1       811    8    0    1
 -2       338       337       484      1805      2243      2244
 -1       812    8    0    1
 -2       339       338       485      1808      2245      2246
 -1       813    8    0    1
 -2       338       484       485      2244      2247      2245
 -1       814    8    0    1
 -2       340       339       486      1811      2248      2249
 -1       815    8    0    1
 -2       339       485       486      2246      2250      2248
 -1       816    8    0    1
 -2       341       340       487      1814      2251      2252
 -1       817    8    0    1
 -2       340       486       487      2249      2253      2251
 -1       818    8    0    1
 -2       342       341       488      1817      2254      2255
 -1       819    8    0    1
 -2       341       487       488      2252      2256      2254
 -1       820    8    0    1
 -2       343       342       489      1820      2257      2258
 -1       821    8    0    1
 -2       342       488       489      2255      2259      2257
 -1       822    8    0    1
 -2       344       343       490      1823      2260      2261
 -1       823    8    0    1
 -2       343       489       490      2258      2262      2260
 -1       824    8    0    1
 -2       345       344       491      1826      2263      2264
 -1       825    8    0    1
 -2       344       490       491      2261      2265      2263
 -1       826    8    0    1
 -2       346       345       492      1829      2266      2267
 -1       827    8    0    1
 -2       345       491       492      2264      2268      2266
 -1       828    8    0    1
 -2       347       346       493      1832      2269      2270
 -1       829    8    0    1
 -2       346       492       493      2267      2271      2269
 -1       830    8    0    1
 -2       348       347       494      1835      2272      2273
 -1       831    8    0    1
 -2       347       493       494      2270      2274      2272
 -1       832    8    0    1
 -2       349       348       495      1838      2275      2276
 -1       833    8    0    1
 -2       348       494       495      2273      2277      2275
 -1       834    8    0    1
 -2       350       349       496      1841      2278      2279
 -1       835    8    0    1
 -2       349       495       496      2276      2280      2278
 -1       836    8    0    1
 -2       351       350       497      1844      2281      2282
 -1       837    8    0    1
 -2       350       496       497      2279      2283      2281
 -1       838    8    0    1
 -2       352       351       498      1847      2284      2285
 -1       839    8    0    1
 -2       351       497       498      2282      2286      2284
 -1       840    8    0    1
 -2       353       352       499      1850      2287      2288
 -1       841    8    0    1
 -2       352       498       499      2285      2289      2287
 -1       842    8    0    1
 -2       354       353       500      1853      2290      2291
 -1       843    8    0    1
 -2       353       499       500      2288      2292      2290
 -1       844    8    0    1
 -2       355       354       501      1856      2293      2294
 -1       845    8    0    1
 -2       354       500       501      2291      2295      2293
 -1       846    8    0    1
 -2       356       355       502      1859      2296      2297
 -1       847    8    0    1
 -2       355       501       502      2294      2298      2296
 -1       848    8    0    1
 -2       357       356       503      1862      2299      2300
 -1       849    8    0    1
 -2       356       502       503      2297      2301      2299
 -1       850    8    0    1
 -2       358       357       504      1865      2302      2303
 -1       851    8    0    1
 -2       357       503       504      2300      2304      2302
 -1       852    8    0    1
 -2       359       358       505      1868      2305      2306
 -1       853    8    0    1
 -2       358       504       505      2303      2307      2305
 -1       854    8    0    1
 -2       360       359       506      1871      2308      2309
 -1       855    8    0    1
 -2       359       505       506      2306      2310      2308
 -1       856    8    0    1
 -2       361       360       507      1874      2311      2312
 -1       857    8    0    1
 -2       360       506       507      2309      2313      2311
 -1       858    8    0    1
 -2       362       361       508      1877      2314      2315
 -1       859    8    0    1
 -2       361       507       508      2312      2316      2314
 -1       860    8    0    1
 -2       363       362       509      1880      2317      2318
 -1       861    8    0    1
 -2       362       508       509      2315      2319      2317
 -1       862    8    0    1
 -2       364       363       510      1883      2320      2321
 -1       863    8    0    1
 -2       363       509       510      2318      2322      2320
 -1       864    8    0    1
 -2       365       364       511      1886      2323      2324
 -1       865    8    0    1
 -2       364       510       511      2321      2325      2323
 -1       866    8    0    1
 -2       366       365       512      1889      2326      2327
 -1       867    8    0    1
 -2       365       511       512      2324      2328      2326
 -1       868    8    0    1
 -2       367       366       513      1892      2329      2330
 -1       869    8    0    1
 -2       366       512       513      2327      2331      2329
 -1       870    8    0    1
 -2       368       367       514      1895      2332      2333
 -1       871    8    0    1
 -2       367       513       514      2330      2334      2332
 -1       872    8    0    1
 -2       369       368       515      1898      2335      2336
 -1       873    8    0    1
 -2       368       514       515      2333      2337      2335
 -1       874    8    0    1
 -2       370       369       516      1901      2338      2339
 -1       875    8    0    1
 -2       369       515       516      2336      2340      2338
 -1       876    8    0    1
 -2       371       370       517      1904      2341      2342
 -1       877    8    0    1
 -2       370       516       517      2339      2343      2341
 -1       878    8    0    1
 -2       372       371       518      1907      2344      2345
 -1       879    8    0    1
 -2       371       517       518      2342      2346      2344
 -1       880    8    0    1
 -2       373       372       519      1910      2347      2348
 -1       881    8    0    1
 -2       372       518       519      2345      2349      2347
 -1       882    8    0    1
 -2       374       373       520      1913      2350      2351
 -1       883    8    0    1
 -2       373       519       520      2348      2352      2350
 -1       884    8    0    1
 -2       375       374       521      1916      2353      2354
 -1       885    8    0    1
 -2       374       520       521      2351      2355      2353
 -1       886    8    0    1
 -2       376       375       522      1919      2356      2357
 -1       887    8    0    1
 -2       375       521       522      2354      2358      2356
 -1       888    8    0    1
 -2       377       376       523      1922      2359      2360
 -1       889    8    0    1
 -2       376       522       523      2357      2361      2359
 -1       890    8    0    1
 -2       378       377       524      1925      2362      2363
 -1       891    8    0    1
 -2       377       523       524      2360      2364      2362
 -1       892    8    0    1
 -2       379       378       525      1928      2365      2366
 -1       893    8    0    1
 -2       378       524       525      2363      2367      2365
 -1       894    8    0    1
 -2       380       379       526      1931      2368      2369
 -1       895    8    0    1
 -2       379       525       526      2366      2370      2368
 -1       896    8    0    1
 -2       381       380       527      1934      2371      2372
 -1       897    8    0    1
 -2       380       526       527      2369      2373      2371
 -1       898    8    0    1
 -2       385       386       528      1950      2374      2375
 -1       899    8    0    1
 -2       386       387       529      1953      2376      2377
 -1       900    8    0    1
 -2       386       529       528      2377      2378      2374
 -1       901    8    0    1
 -2       390       391       473      1965      2379      2380
 -1       902    8    0    1
 -2       393       394       530      1974      2381      2382
 -1       903    8    0    1
 -2       394       395       531      1977      2383      2384
 -1       904    8    0    1
 -2       394       531       530      2384      2385      2381
 -1       905    8    0    1
 -2       395       396       532      1980      2386      2387
 -1       906    8    0    1
 -2       395       532       531      2387      2388      2383
 -1       907    8    0    1
 -2       396       397       533      1983      2389      2390
 -1       908    8    0    1
 -2       396       533       532      2390      2391      2386
 -1       909    8    0    1
 -2       397       398       534      1986      2392      2393
 -1       910    8    0    1
 -2       397       534       533      2393      2394      2389
 -1       911    8    0    1
 -2       398       399       535      1989      2395      2396
 -1       912    8    0    1
 -2       398       535       534      2396      2397      2392
 -1       913    8    0    1
 -2       399       400       536      1992      2398      2399
 -1       914    8    0    1
 -2       399       536       535      2399      2400      2395
 -1       915    8    0    1
 -2       400       401       537      1995      2401      2402
 -1       916    8    0    1
 -2       400       537       536      2402      2403      2398
 -1       917    8    0    1
 -2       401       402       538      1998      2404      2405
 -1       918    8    0    1
 -2       401       538       537      2405      2406      2401
 -1       919    8    0    1
 -2       402       403       539      2001      2407      2408
 -1       920    8    0    1
 -2       402       539       538      2408      2409      2404
 -1       921    8    0    1
 -2       403       404       540      2004      2410      2411
 -1       922    8    0    1
 -2       403       540       539      2411      2412      2407
 -1       923    8    0    1
 -2       404       405       541      2007      2413      2414
 -1       924    8    0    1
 -2       404       541       540      2414      2415      2410
 -1       925    8    0    1
 -2       405       406       542      2010      2416      2417
 -1       926    8    0    1
 -2       405       542       541      2417      2418      2413
 -1       927    8    0    1
 -2       406       407       543      2013      2419      2420
 -1       928    8    0    1
 -2       406       543       542      2420      2421      2416
 -1       929    8    0    1
 -2       407       408       544      2016      2422      2423
 -1       930    8    0    1
 -2       407       544       543      2423      2424      2419
 -1       931    8    0    1
 -2       408       409       545      2019      2425      2426
 -1       932    8    0    1
 -2       408       545       544      2426      2427      2422
 -1       933    8    0    1
 -2       409       410       546      2022      2428      2429
 -1       934    8    0    1
 -2       409       546       545      2429      2430      2425
 -1       935    8    0    1
 -2       410       411       547      2025      2431      2432
 -1       936    8    0    1
 -2       410       547       546      2432      2433      2428
 -1       937    8    0    1
 -2       411       412       548      2028      2434      2435
 -1       938    8    0    1
 -2       411       548       547      2435      2436      2431
 -1       939    8    0    1
 -2       412       413       549      2031      2437      2438
 -1       940    8    0    1
 -2       412       549       548      2438      2439      2434
 -1       941    8    0    1
 -2       413       414       550      2034      2440      2441
 -1       942    8    0    1
 -2       413       550       549      2441      2442      2437
 -1       943    8    0    1
 -2       414       415       551      2037      2443      2444
 -1       944    8    0    1
 -2       414       551       550      2444      2445      2440
 -1       945    8    0    1
 -2       415       416       552      2040      2446      2447
 -1       946    8    0    1
 -2       415       552       551      2447      2448      2443
 -1       947    8    0    1
 -2       416       417       553      2043      2449      2450
 -1       948    8    0    1
 -2       416       553       552      2450      2451      2446
 -1       949    8    0    1
 -2       417       418       554      2046      2452      2453
 -1       950    8    0    1
 -2       417       554       553      2453      2454      2449
 -1       951    8    0    1
 -2       418       419       555      2049      2455      2456
 -1       952    8    0    1
 -2       418       555       554      2456      2457      2452
 -1       953    8    0    1
 -2       419       420       556      2052      2458      2459
 -1       954    8    0    1
 -2       419       556       555      2459      2460      2455
 -1       955    8    0    1
 -2       420       421       557      2055      2461      2462
 -1       956    8    0    1
 -2       420       557       556      2462      2463      2458
 -1       957    8    0    1
 -2       421       422       558      2058      2464      2465
 -1       958    8    0    1
 -2       421       558       557      2465      2466      2461
 -1       959    8    0    1
 -2       422       423       559      2061      2467      2468
 -1       960    8    0    1
 -2       422       559       558      2468      2469      2464
 -1       961    8    0    1
 -2       423       424       560      2064      2470      2471
 -1       962    8    0    1
 -2       423       560       559      2471      2472      2467
 -1       963    8    0    1
 -2       424       425       561      2067      2473      2474
 -1       964    8    0    1
 -2       424       561       560      2474      2475      2470
 -1       965    8    0    1
 -2       425       426       562      2070      2476      2477
 -1       966    8    0    1
 -2       425       562       561      2477      2478      2473
 -1       967    8    0    1
 -2       426       427       563      2073      2479      2480
 -1       968    8    0    1
 -2       426       563       562      2480      2481      2476
 -1       969    8    0    1
 -2       427       428       431      2076      2085      2482
 -1       970    8    0    1
 -2       432       433       564      2092      2483      2484
 -1       971    8    0    1
 -2       433       434       565      2095      2485      2486
 -1       972    8    0    1
 -2       433       565       564      2486      2487      2483
 -1       973    8    0    1
 -2       430       429       566      2082      2488      2489
 -1       974    8    0    1
 -2       429       432       567      2089      2490      2491
 -1       975    8    0    1
 -2       566       429       567      2488      2491      2492
 -1       976    8    0    1
 -2       432       564       567      2484      2493      2490
 -1       977    8    0    1
 -2       434       435       568      2098      2494      2495
 -1       978    8    0    1
 -2       434       568       565      2495      2496      2485
 -1       979    8    0    1
 -2       435       436       569      2101      2497      2498
 -1       980    8    0    1
 -2       435       569       568      2498      2499      2494
 -1       981    8    0    1
 -2       436       437       570      2104      2500      2501
 -1       982    8    0    1
 -2       436       570       569      2501      2502      2497
 -1       983    8    0    1
 -2       437       438       571      2107      2503      2504
 -1       984    8    0    1
 -2       437       571       570      2504      2505      2500
 -1       985    8    0    1
 -2       438       439       572      2110      2506      2507
 -1       986    8    0    1
 -2       438       572       571      2507      2508      2503
 -1       987    8    0    1
 -2       439       440       573      2113      2509      2510
 -1       988    8    0    1
 -2       439       573       572      2510      2511      2506
 -1       989    8    0    1
 -2       440       441       574      2116      2512      2513
 -1       990    8    0    1
 -2       440       574       573      2513      2514      2509
 -1       991    8    0    1
 -2       442       445       575      2193      2515      2516
 -1       992    8    0    1
 -2       441       291       382      2194      1937      2517
 -1       993    8    0    1
 -2       470       443       576      2195      2518      2519
 -1       994    8    0    1
 -2       384       385       577      1947      2520      2521
 -1       995    8    0    1
 -2       385       528       577      2375      2522      2520
 -1       996    8    0    1
 -2       443       444       578      2123      2523      2524
 -1       997    8    0    1
 -2       468       469       579      2197      2525      2526
 -1       998    8    0    1
 -2       337       323       580      2189      2527      2528
 -1       999    8    0    1
 -2       484       337       580      2243      2528      2529
 -1      1000    8    0    1
 -2       323       322       580      1759      2530      2527
 -1      1001    8    0    1
 -2       445       446       581      2196      2531      2532
 -1      1002    8    0    1
 -2       461       462       582      2200      2533      2534
 -1      1003    8    0    1
 -2       458       459       583      2201      2535      2536
 -1      1004    8    0    1
 -2       454       455       584      2203      2537      2538
 -1      1005    8    0    1
 -2       326       327       585      1770      2539      2540
 -1      1006    8    0    1
 -2       475       326       585      2218      2540      2541
 -1      1007    8    0    1
 -2       327       477       585      2224      2542      2539
 -1      1008    8    0    1
 -2       459       460       586      2213      2543      2544
 -1      1009    8    0    1
 -2       473       449       390      2209      2545      2380
 -1      1010    8    0    1
 -2       448       473       391      2212      2379      2546
 -1      1011    8    0    1
 -2       449       450       389      2208      2547      2548
 -1      1012    8    0    1
 -2       451       452       587      2206      2549      2550
 -1      1013    8    0    1
 -2       452       453       588      2205      2551      2552
 -1      1014    8    0    1
 -2       453       454       589      2204      2553      2554
 -1      1015    8    0    1
 -2       453       589       588      2554      2555      2551
 -1      1016    8    0    1
 -2       455       456       590      2150      2556      2557
 -1      1017    8    0    1
 -2       456       457       591      2202      2558      2559
 -1      1018    8    0    1
 -2       457       458       592      2155      2560      2561
 -1      1019    8    0    1
 -2       462       463       593      2214      2562      2563
 -1      1020    8    0    1
 -2       460       461       594      2162      2564      2565
 -1      1021    8    0    1
 -2       469       470       595      2215      2566      2567
 -1      1022    8    0    1
 -2       470       576       595      2519      2568      2566
 -1      1023    8    0    1
 -2       463       464       596      2169      2569      2570
 -1      1024    8    0    1
 -2       463       596       593      2570      2571      2562
 -1      1025    8    0    1
 -2       464       465       597      2199      2572      2573
 -1      1026    8    0    1
 -2       465       466       598      2174      2574      2575
 -1      1027    8    0    1
 -2       466       467       599      2198      2576      2577
 -1      1028    8    0    1
 -2       466       599       598      2577      2578      2574
 -1      1029    8    0    1
 -2       467       468       600      2179      2579      2580
 -1      1030    8    0    1
 -2       599       467       600      2576      2580      2581
 -1      1031    8    0    1
 -2       468       579       600      2526      2582      2579
 -1      1032    8    0    1
 -2       335       336       601      1799      2583      2584
 -1      1033    8    0    1
 -2       334       335       601      1794      2584      2585
 -1      1034    8    0    1
 -2       336       474       601      2217      2586      2583
 -1      1035    8    0    1
 -2       446       471       602      2186      2587      2588
 -1      1036    8    0    1
 -2       448       391       392      2546      1968      2589
 -1      1037    8    0    1
 -2       389       450       603      2547      2590      2591
 -1      1038    8    0    1
 -2       388       389       603      1959      2591      2592
 -1      1039    8    0    1
 -2       450       451       603      2207      2593      2590
 -1      1040    8    0    1
 -2       448       392       471      2589      2594      2188
 -1      1041    8    0    1
 -2       471       392       393      2594      1971      2595
 -1      1042    8    0    1
 -2       459       586       583      2544      2596      2535
 -1      1043    8    0    1
 -2       324       476       604      2221      2597      2598
 -1      1044    8    0    1
 -2       324       604       447      2598      2599      2131
 -1      1045    8    0    1
 -2       483       384       577      2240      2521      2600
 -1      1046    8    0    1
 -2       333       334       601      1791      2585      2601
 -1      1047    8    0    1
 -2       581       446       602      2531      2588      2602
 -1      1048    8    0    1
 -2       472       442       575      2192      2516      2603
 -1      1049    8    0    1
 -2       603       451       587      2593      2550      2604
 -1      1050    8    0    1
 -2       449       389       390      2548      1962      2545
 -1      1051    8    0    1
 -2       387       388       587      1956      2605      2606
 -1      1052    8    0    1
 -2       587       388       603      2605      2592      2604
 -1      1053    8    0    1
 -2       427       431       563      2482      2607      2479
 -1      1054    8    0    1
 -2       431       430       563      2086      2608      2607
 -1      1055    8    0    1
 -2       575       445       581      2515      2532      2609
 -1      1056    8    0    1
 -2       441       382       605      2517      2610      2611
 -1      1057    8    0    1
 -2       574       441       605      2512      2611      2612
 -1      1058    8    0    1
 -2       382       381       605      1938      2613      2610
 -1      1059    8    0    1
 -2       594       461       582      2564      2534      2614
 -1      1060    8    0    1
 -2       576       443       578      2518      2524      2615
 -1      1061    8    0    1
 -2       333       601       482      2601      2616      2237
 -1      1062    8    0    1
 -2       578       444       472      2523      2191      2617
 -1      1063    8    0    1
 -2       464       597       596      2573      2618      2569
 -1      1064    8    0    1
 -2       592       458       583      2560      2536      2619
 -1      1065    8    0    1
 -2       582       462       593      2533      2563      2620
 -1      1066    8    0    1
 -2       591       457       592      2558      2561      2621
 -1      1067    8    0    1
 -2       589       454       584      2553      2538      2622
 -1      1068    8    0    1
 -2       584       455       590      2537      2557      2623
 -1      1069    8    0    1
 -2       580       322       447      2530      2130      2624
 -1      1070    8    0    1
 -2       579       469       595      2525      2567      2625
 -1      1071    8    0    1
 -2       529       387       587      2376      2606      2626
 -1      1072    8    0    1
 -2       587       452       588      2549      2552      2627
 -1      1073    8    0    1
 -2       590       456       591      2556      2559      2628
 -1      1074    8    0    1
 -2       460       594       586      2565      2629      2543
 -1      1075    8    0    1
 -2       597       465       598      2572      2575      2630
 -1      1076    8    0    1
 -2       563       430       566      2608      2489      2631
 -1      1077    8    0    1
 -2       605       381       527      2613      2372      2632
 -1      1078    8    0    1
 -2       478       479       606      2230      2633      2634
 -1      1079    8    0    1
 -2       477       478       607      2227      2635      2636
 -1      1080    8    0    1
 -2       478       606       607      2634      2637      2635
 -1      1081    8    0    1
 -2       480       481       608      2236      2638      2639
 -1      1082    8    0    1
 -2       481       482       609      2239      2640      2641
 -1      1083    8    0    1
 -2       481       609       608      2641      2642      2638
 -1      1084    8    0    1
 -2       474       483       610      2242      2643      2644
 -1      1085    8    0    1
 -2       578       472       611      2617      2645      2646
 -1      1086    8    0    1
 -2       483       577       612      2600      2647      2648
 -1      1087    8    0    1
 -2       483       612       610      2648      2649      2643
 -1      1088    8    0    1
 -2       601       474       482      2586      2650      2616
 -1      1089    8    0    1
 -2       593       596       613      2571      2651      2652
 -1      1090    8    0    1
 -2       486       485       614      2250      2653      2654
 -1      1091    8    0    1
 -2       487       486       615      2253      2655      2656
 -1      1092    8    0    1
 -2       486       614       615      2654      2657      2655
 -1      1093    8    0    1
 -2       488       487       616      2256      2658      2659
 -1      1094    8    0    1
 -2       487       615       616      2656      2660      2658
 -1      1095    8    0    1
 -2       489       488       617      2259      2661      2662
 -1      1096    8    0    1
 -2       488       616       617      2659      2663      2661
 -1      1097    8    0    1
 -2       490       489       618      2262      2664      2665
 -1      1098    8    0    1
 -2       489       617       618      2662      2666      2664
 -1      1099    8    0    1
 -2       491       490       619      2265      2667      2668
 -1      1100    8    0    1
 -2       490       618       619      2665      2669      2667
 -1      1101    8    0    1
 -2       492       491       620      2268      2670      2671
 -1      1102    8    0    1
 -2       491       619       620      2668      2672      2670
 -1      1103    8    0    1
 -2       493       492       621      2271      2673      2674
 -1      1104    8    0    1
 -2       492       620       621      2671      2675      2673
 -1      1105    8    0    1
 -2       494       493       622      2274      2676      2677
 -1      1106    8    0    1
 -2       493       621       622      2674      2678      2676
 -1      1107    8    0    1
 -2       495       494       623      2277      2679      2680
 -1      1108    8    0    1
 -2       494       622       623      2677      2681      2679
 -1      1109    8    0    1
 -2       496       495       624      2280      2682      2683
 -1      1110    8    0    1
 -2       495       623       624      2680      2684      2682
 -1      1111    8    0    1
 -2       497       496       625      2283      2685      2686
 -1      1112    8    0    1
 -2       496       624       625      2683      2687      2685
 -1      1113    8    0    1
 -2       498       497       626      2286      2688      2689
 -1      1114    8    0    1
 -2       497       625       626      2686      2690      2688
 -1      1115    8    0    1
 -2       499       498       627      2289      2691      2692
 -1      1116    8    0    1
 -2       498       626       627      2689      2693      2691
 -1      1117    8    0    1
 -2       500       499       628      2292      2694      2695
 -1      1118    8    0    1
 -2       499       627       628      2692      2696      2694
 -1      1119    8    0    1
 -2       501       500       629      2295      2697      2698
 -1      1120    8    0    1
 -2       500       628       629      2695      2699      2697
 -1      1121    8    0    1
 -2       502       501       630      2298      2700      2701
 -1      1122    8    0    1
 -2       501       629       630      2698      2702      2700
 -1      1123    8    0    1
 -2       503       502       631      2301      2703      2704
 -1      1124    8    0    1
 -2       502       630       631      2701      2705      2703
 -1      1125    8    0    1
 -2       504       503       632      2304      2706      2707
 -1      1126    8    0    1
 -2       503       631       632      2704      2708      2706
 -1      1127    8    0    1
 -2       505       504       633      2307      2709      2710
 -1      1128    8    0    1
 -2       504       632       633      2707      2711      2709
 -1      1129    8    0    1
 -2       506       505       634      2310      2712      2713
 -1      1130    8    0    1
 -2       505       633       634      2710      2714      2712
 -1      1131    8    0    1
 -2       507       506       635      2313      2715      2716
 -1      1132    8    0    1
 -2       506       634       635      2713      2717      2715
 -1      1133    8    0    1
 -2       508       507       636      2316      2718      2719
 -1      1134    8    0    1
 -2       507       635       636      2716      2720      2718
 -1      1135    8    0    1
 -2       509       508       637      2319      2721      2722
 -1      1136    8    0    1
 -2       508       636       637      2719      2723      2721
 -1      1137    8    0    1
 -2       510       509       638      2322      2724      2725
 -1      1138    8    0    1
 -2       509       637       638      2722      2726      2724
 -1      1139    8    0    1
 -2       511       510       639      2325      2727      2728
 -1      1140    8    0    1
 -2       510       638       639      2725      2729      2727
 -1      1141    8    0    1
 -2       512       511       640      2328      2730      2731
 -1      1142    8    0    1
 -2       511       639       640      2728      2732      2730
 -1      1143    8    0    1
 -2       513       512       641      2331      2733      2734
 -1      1144    8    0    1
 -2       512       640       641      2731      2735      2733
 -1      1145    8    0    1
 -2       514       513       642      2334      2736      2737
 -1      1146    8    0    1
 -2       513       641       642      2734      2738      2736
 -1      1147    8    0    1
 -2       515       514       643      2337      2739      2740
 -1      1148    8    0    1
 -2       514       642       643      2737      2741      2739
 -1      1149    8    0    1
 -2       516       515       644      2340      2742      2743
 -1      1150    8    0    1
 -2       515       643       644      2740      2744      2742
 -1      1151    8    0    1
 -2       517       516       645      2343      2745      2746
 -1      1152    8    0    1
 -2       516       644       645      2743      2747      2745
 -1      1153    8    0    1
 -2       518       517       646      2346      2748      2749
 -1      1154    8    0    1
 -2       517       645       646      2746      2750      2748
 -1      1155    8    0    1
 -2       519       518       647      2349      2751      2752
 -1      1156    8    0    1
 -2       518       646       647      2749      2753      2751
 -1      1157    8    0    1
 -2       520       519       648      2352      2754      2755
 -1      1158    8    0    1
 -2       519       647       648      2752      2756      2754
 -1      1159    8    0    1
 -2       521       520       649      2355      2757      2758
 -1      1160    8    0    1
 -2       520       648       649      2755      2759      2757
 -1      1161    8    0    1
 -2       522       521       650      2358      2760      2761
 -1      1162    8    0    1
 -2       521       649       650      2758      2762      2760
 -1      1163    8    0    1
 -2       523       522       651      2361      2763      2764
 -1      1164    8    0    1
 -2       522       650       651      2761      2765      2763
 -1      1165    8    0    1
 -2       524       523       652      2364      2766      2767
 -1      1166    8    0    1
 -2       523       651       652      2764      2768      2766
 -1      1167    8    0    1
 -2       525       524       653      2367      2769      2770
 -1      1168    8    0    1
 -2       524       652       653      2767      2771      2769
 -1      1169    8    0    1
 -2       526       525       654      2370      2772      2773
 -1      1170    8    0    1
 -2       525       653       654      2770      2774      2772
 -1      1171    8    0    1
 -2       527       526       655      2373      2775      2776
 -1      1172    8    0    1
 -2       526       654       655      2773      2777      2775
 -1      1173    8    0    1
 -2       594       582       656      2614      2778      2779
 -1      1174    8    0    1
 -2       528       529       657      2378      2780      2781
 -1      1175    8    0    1
 -2       583       586       658      2596      2782      2783
 -1      1176    8    0    1
 -2       533       534       659      2394      2784      2785
 -1      1177    8    0    1
 -2       534       535       660      2397      2786      2787
 -1      1178    8    0    1
 -2       534       660       659      2787      2788      2784
 -1      1179    8    0    1
 -2       535       536       661      2400      2789      2790
 -1      1180    8    0    1
 -2       535       661       660      2790      2791      2786
 -1      1181    8    0    1
 -2       536       537       662      2403      2792      2793
 -1      1182    8    0    1
 -2       536       662       661      2793      2794      2789
 -1      1183    8    0    1
 -2       537       538       663      2406      2795      2796
 -1      1184    8    0    1
 -2       537       663       662      2796      2797      2792
 -1      1185    8    0    1
 -2       538       539       664      2409      2798      2799
 -1      1186    8    0    1
 -2       538       664       663      2799      2800      2795
 -1      1187    8    0    1
 -2       539       540       665      2412      2801      2802
 -1      1188    8    0    1
 -2       539       665       664      2802      2803      2798
 -1      1189    8    0    1
 -2       540       541       666      2415      2804      2805
 -1      1190    8    0    1
 -2       540       666       665      2805      2806      2801
 -1      1191    8    0    1
 -2       541       542       667      2418      2807      2808
 -1      1192    8    0    1
 -2       541       667       666      2808      2809      2804
 -1      1193    8    0    1
 -2       542       543       668      2421      2810      2811
 -1      1194    8    0    1
 -2       542       668       667      2811      2812      2807
 -1      1195    8    0    1
 -2       543       544       669      2424      2813      2814
 -1      1196    8    0    1
 -2       543       669       668      2814      2815      2810
 -1      1197    8    0    1
 -2       544       545       670      2427      2816      2817
 -1      1198    8    0    1
 -2       544       670       669      2817      2818      2813
 -1      1199    8    0    1
 -2       545       546       671      2430      2819      2820
 -1      1200    8    0    1
 -2       545       671       670      2820      2821      2816
 -1      1201    8    0    1
 -2       546       547       672      2433      2822      2823
 -1      1202    8    0    1
 -2       546       672       671      2823      2824      2819
 -1      1203    8    0    1
 -2       547       548       673      2436      2825      2826
 -1      1204    8    0    1
 -2       547       673       672      2826      2827      2822
 -1      1205    8    0    1
 -2       548       549       674      2439      2828      2829
 -1      1206    8    0    1
 -2       548       674       673      2829      2830      2825
 -1      1207    8    0    1
 -2       549       550       675      2442      2831      2832
 -1      1208    8    0    1
 -2       549       675       674      2832      2833      2828
 -1      1209    8    0    1
 -2       550       551       676      2445      2834      2835
 -1      1210    8    0    1
 -2       550       676       675      2835      2836      2831
 -1      1211    8    0    1
 -2       551       552       677      2448      2837      2838
 -1      1212    8    0    1
 -2       551       677       676      2838      2839      2834
 -1      1213    8    0    1
 -2       552       553       678      2451      2840      2841
 -1      1214    8    0    1
 -2       552       678       677      2841      2842      2837
 -1      1215    8    0    1
 -2       553       554       679      2454      2843      2844
 -1      1216    8    0    1
 -2       553       679       678      2844      2845      2840
 -1      1217    8    0    1
 -2       554       555       680      2457      2846      2847
 -1      1218    8    0    1
 -2       554       680       679      2847      2848      2843
 -1      1219    8    0    1
 -2       555       556       681      2460      2849      2850
 -1      1220    8    0    1
 -2       555       681       680      2850      2851      2846
 -1      1221    8    0    1
 -2       556       557       682      2463      2852      2853
 -1      1222    8    0    1
 -2       556       682       681      2853      2854      2849
 -1      1223    8    0    1
 -2       557       558       683      2466      2855      2856
 -1      1224    8    0    1
 -2       557       683       682      2856      2857      2852
 -1      1225    8    0    1
 -2       558       559       684      2469      2858      2859
 -1      1226    8    0    1
 -2       558       684       683      2859      2860      2855
 -1      1227    8    0    1
 -2       559       560       685      2472      2861      2862
 -1      1228    8    0    1
 -2       559       685       684      2862      2863      2858
 -1      1229    8    0    1
 -2       560       561       686      2475      2864      2865
 -1      1230    8    0    1
 -2       560       686       685      2865      2866      2861
 -1      1231    8    0    1
 -2       561       562       687      2478      2867      2868
 -1      1232    8    0    1
 -2       561       687       686      2868      2869      2864
 -1      1233    8    0    1
 -2       562       563       688      2481      2870      2871
 -1      1234    8    0    1
 -2       687       562       688      2867      2871      2872
 -1      1235    8    0    1
 -2       563       566       688      2631      2873      2870
 -1      1236    8    0    1
 -2       568       569       689      2499      2874      2875
 -1      1237    8    0    1
 -2       605       527       690      2632      2876      2877
 -1      1238    8    0    1
 -2       527       655       690      2776      2878      2876
 -1      1239    8    0    1
 -2       564       565       691      2487      2879      2880
 -1      1240    8    0    1
 -2       569       570       692      2502      2881      2882
 -1      1241    8    0    1
 -2       569       692       689      2882      2883      2874
 -1      1242    8    0    1
 -2       565       568       693      2496      2884      2885
 -1      1243    8    0    1
 -2       691       565       693      2879      2885      2886
 -1      1244    8    0    1
 -2       568       689       693      2875      2887      2884
 -1      1245    8    0    1
 -2       577       528       694      2522      2888      2889
 -1      1246    8    0    1
 -2       577       694       612      2889      2890      2647
 -1      1247    8    0    1
 -2       595       576       695      2568      2891      2892
 -1      1248    8    0    1
 -2       570       571       696      2505      2893      2894
 -1      1249    8    0    1
 -2       570       696       692      2894      2895      2881
 -1      1250    8    0    1
 -2       571       572       697      2508      2896      2897
 -1      1251    8    0    1
 -2       571       697       696      2897      2898      2893
 -1      1252    8    0    1
 -2       572       573       698      2511      2899      2900
 -1      1253    8    0    1
 -2       572       698       697      2900      2901      2896
 -1      1254    8    0    1
 -2       581       602       530      2602      2902      2903
 -1      1255    8    0    1
 -2       484       580       699      2529      2904      2905
 -1      1256    8    0    1
 -2       576       578       700      2615      2906      2907
 -1      1257    8    0    1
 -2       582       593       701      2620      2908      2909
 -1      1258    8    0    1
 -2       584       590       702      2623      2910      2911
 -1      1259    8    0    1
 -2       532       533       703      2391      2912      2913
 -1      1260    8    0    1
 -2       533       659       703      2785      2914      2912
 -1      1261    8    0    1
 -2       531       532       704      2388      2915      2916
 -1      1262    8    0    1
 -2       532       703       704      2913      2917      2915
 -1      1263    8    0    1
 -2       580       447       699      2624      2918      2904
 -1      1264    8    0    1
 -2       574       605       690      2612      2877      2919
 -1      1265    8    0    1
 -2       579       595       705      2625      2920      2921
 -1      1266    8    0    1
 -2       587       588       529      2627      2922      2626
 -1      1267    8    0    1
 -2       485       484       706      2247      2923      2924
 -1      1268    8    0    1
 -2       614       485       706      2653      2924      2925
 -1      1269    8    0    1
 -2       484       699       706      2905      2926      2923
 -1      1270    8    0    1
 -2       479       480       707      2233      2927      2928
 -1      1271    8    0    1
 -2       606       479       707      2633      2928      2929
 -1      1272    8    0    1
 -2       480       608       707      2639      2930      2927
 -1      1273    8    0    1
 -2       590       591       708      2628      2931      2932
 -1      1274    8    0    1
 -2       588       589       657      2555      2933      2934
 -1      1275    8    0    1
 -2       586       594       709      2629      2935      2936
 -1      1276    8    0    1
 -2       594       656       709      2779      2937      2935
 -1      1277    8    0    1
 -2       589       584       710      2622      2938      2939
 -1      1278    8    0    1
 -2       657       589       710      2933      2939      2940
 -1      1279    8    0    1
 -2       584       702       710      2911      2941      2938
 -1      1280    8    0    1
 -2       591       592       711      2621      2942      2943
 -1      1281    8    0    1
 -2       476       475       712      2222      2944      2945
 -1      1282    8    0    1
 -2       597       598       713      2630      2946      2947
 -1      1283    8    0    1
 -2       592       583       714      2619      2948      2949
 -1      1284    8    0    1
 -2       598       599       715      2578      2950      2951
 -1      1285    8    0    1
 -2       596       597       716      2618      2952      2953
 -1      1286    8    0    1
 -2       596       716       613      2953      2954      2651
 -1      1287    8    0    1
 -2       581       530       717      2903      2955      2956
 -1      1288    8    0    1
 -2       581       717       575      2956      2957      2609
 -1      1289    8    0    1
 -2       529       588       657      2922      2934      2780
 -1      1290    8    0    1
 -2       604       476       718      2597      2958      2959
 -1      1291    8    0    1
 -2       476       712       718      2945      2960      2958
 -1      1292    8    0    1
 -2       477       607       719      2636      2961      2962
 -1      1293    8    0    1
 -2       477       719       585      2962      2963      2542
 -1      1294    8    0    1
 -2       482       474       610      2650      2644      2964
 -1      1295    8    0    1
 -2       590       708       702      2932      2965      2910
 -1      1296    8    0    1
 -2       471       393       602      2595      2966      2587
 -1      1297    8    0    1
 -2       564       691       720      2880      2967      2968
 -1      1298    8    0    1
 -2       564       720       567      2968      2969      2493
 -1      1299    8    0    1
 -2       656       582       701      2778      2909      2970
 -1      1300    8    0    1
 -2       528       657       694      2781      2971      2888
 -1      1301    8    0    1
 -2       599       600       721      2581      2972      2973
 -1      1302    8    0    1
 -2       583       658       714      2783      2974      2948
 -1      1303    8    0    1
 -2       393       530       602      2382      2902      2966
 -1      1304    8    0    1
 -2       530       531       717      2385      2975      2955
 -1      1305    8    0    1
 -2       579       705       722      2921      2976      2977
 -1      1306    8    0    1
 -2       599       721       715      2973      2978      2950
 -1      1307    8    0    1
 -2       566       567       723      2492      2979      2980
 -1      1308    8    0    1
 -2       688       566       723      2873      2980      2981
 -1      1309    8    0    1
 -2       567       720       723      2969      2982      2979
 -1      1310    8    0    1
 -2       695       576       700      2891      2907      2983
 -1      1311    8    0    1
 -2       573       574       690      2514      2919      2984
 -1      1312    8    0    1
 -2       716       597       713      2952      2947      2985
 -1      1313    8    0    1
 -2       717       531       704      2975      2916      2986
 -1      1314    8    0    1
 -2       701       593       613      2908      2652      2987
 -1      1315    8    0    1
 -2       573       690       724      2984      2988      2989
 -1      1316    8    0    1
 -2       698       573       724      2899      2989      2990
 -1      1317    8    0    1
 -2       690       655       724      2878      2991      2988
 -1      1318    8    0    1
 -2       482       610       609      2964      2992      2640
 -1      1319    8    0    1
 -2       699       447       604      2918      2599      2993
 -1      1320    8    0    1
 -2       475       585       725      2541      2994      2995
 -1      1321    8    0    1
 -2       712       475       725      2944      2995      2996
 -1      1322    8    0    1
 -2       585       719       725      2963      2997      2994
 -1      1323    8    0    1
 -2       658       586       709      2782      2936      2998
 -1      1324    8    0    1
 -2       713       598       715      2946      2951      2999
 -1      1325    8    0    1
 -2       705       595       695      2920      2892      3000
 -1      1326    8    0    1
 -2       711       592       714      2942      2949      3001
 -1      1327    8    0    1
 -2       600       579       722      2582      2977      3002
 -1      1328    8    0    1
 -2       472       575       726      2603      3003      3004
 -1      1329    8    0    1
 -2       472       726       611      3004      3005      2645
 -1      1330    8    0    1
 -2       726       575       717      3003      2957      3006
 -1      1331    8    0    1
 -2       702       708       727      2965      3007      3008
 -1      1332    8    0    1
 -2       608       609       728      2642      3009      3010
 -1      1333    8    0    1
 -2       578       611       700      2646      3011      2906
 -1      1334    8    0    1
 -2       695       700       729      2983      3012      3013
 -1      1335    8    0    1
 -2       616       615       730      2660      3014      3015
 -1      1336    8    0    1
 -2       617       616       731      2663      3016      3017
 -1      1337    8    0    1
 -2       616       730       731      3015      3018      3016
 -1      1338    8    0    1
 -2       618       617       732      2666      3019      3020
 -1      1339    8    0    1
 -2       617       731       732      3017      3021      3019
 -1      1340    8    0    1
 -2       619       618       733      2669      3022      3023
 -1      1341    8    0    1
 -2       618       732       733      3020      3024      3022
 -1      1342    8    0    1
 -2       620       619       734      2672      3025      3026
 -1      1343    8    0    1
 -2       619       733       734      3023      3027      3025
 -1      1344    8    0    1
 -2       621       620       735      2675      3028      3029
 -1      1345    8    0    1
 -2       620       734       735      3026      3030      3028
 -1      1346    8    0    1
 -2       622       621       736      2678      3031      3032
 -1      1347    8    0    1
 -2       621       735       736      3029      3033      3031
 -1      1348    8    0    1
 -2       623       622       737      2681      3034      3035
 -1      1349    8    0    1
 -2       622       736       737      3032      3036      3034
 -1      1350    8    0    1
 -2       624       623       738      2684      3037      3038
 -1      1351    8    0    1
 -2       623       737       738      3035      3039      3037
 -1      1352    8    0    1
 -2       625       624       739      2687      3040      3041
 -1      1353    8    0    1
 -2       624       738       739      3038      3042      3040
 -1      1354    8    0    1
 -2       626       625       740      2690      3043      3044
 -1      1355    8    0    1
 -2       625       739       740      3041      3045      3043
 -1      1356    8    0    1
 -2       627       626       741      2693      3046      3047
 -1      1357    8    0    1
 -2       626       740       741      3044      3048      3046
 -1      1358    8    0    1
 -2       628       627       742      2696      3049      3050
 -1      1359    8    0    1
 -2       627       741       742      3047      3051      3049
 -1      1360    8    0    1
 -2       629       628       743      2699      3052      3053
 -1      1361    8    0    1
 -2       628       742       743      3050      3054      3052
 -1      1362    8    0    1
 -2       630       629       744      2702      3055      3056
 -1      1363    8    0    1
 -2       629       743       744      3053      3057      3055
 -1      1364    8    0    1
 -2       631       630       745      2705      3058      3059
 -1      1365    8    0    1
 -2       630       744       745      3056      3060      3058
 -1      1366    8    0    1
 -2       632       631       746      2708      3061      3062
 -1      1367    8    0    1
 -2       631       745       746      3059      3063      3061
 -1      1368    8    0    1
 -2       633       632       747      2711      3064      3065
 -1      1369    8    0    1
 -2       632       746       747      3062      3066      3064
 -1      1370    8    0    1
 -2       634       633       748      2714      3067      3068
 -1      1371    8    0    1
 -2       633       747       748      3065      3069      3067
 -1      1372    8    0    1
 -2       635       634       749      2717      3070      3071
 -1      1373    8    0    1
 -2       634       748       749      3068      3072      3070
 -1      1374    8    0    1
 -2       636       635       750      2720      3073      3074
 -1      1375    8    0    1
 -2       635       749       750      3071      3075      3073
 -1      1376    8    0    1
 -2       637       636       751      2723      3076      3077
 -1      1377    8    0    1
 -2       636       750       751      3074      3078      3076
 -1      1378    8    0    1
 -2       638       637       752      2726      3079      3080
 -1      1379    8    0    1
 -2       637       751       752      3077      3081      3079
 -1      1380    8    0    1
 -2       639       638       753      2729      3082      3083
 -1      1381    8    0    1
 -2       638       752       753      3080      3084      3082
 -1      1382    8    0    1
 -2       640       639       754      2732      3085      3086
 -1      1383    8    0    1
 -2       639       753       754      3083      3087      3085
 -1      1384    8    0    1
 -2       641       640       755      2735      3088      3089
 -1      1385    8    0    1
 -2       640       754       755      3086      3090      3088
 -1      1386    8    0    1
 -2       642       641       756      2738      3091      3092
 -1      1387    8    0    1
 -2       641       755       756      3089      3093      3091
 -1      1388    8    0    1
 -2       643       642       757      2741      3094      3095
 -1      1389    8    0    1
 -2       642       756       757      3092      3096      3094
 -1      1390    8    0    1
 -2       644       643       758      2744      3097      3098
 -1      1391    8    0    1
 -2       643       757       758      3095      3099      3097
 -1      1392    8    0    1
 -2       645       644       759      2747      3100      3101
 -1      1393    8    0    1
 -2       644       758       759      3098      3102      3100
 -1      1394    8    0    1
 -2       646       645       760      2750      3103      3104
 -1      1395    8    0    1
 -2       645       759       760      3101      3105      3103
 -1      1396    8    0    1
 -2       647       646       761      2753      3106      3107
 -1      1397    8    0    1
 -2       646       760       761      3104      3108      3106
 -1      1398    8    0    1
 -2       648       647       762      2756      3109      3110
 -1      1399    8    0    1
 -2       647       761       762      3107      3111      3109
 -1      1400    8    0    1
 -2       649       648       763      2759      3112      3113
 -1      1401    8    0    1
 -2       648       762       763      3110      3114      3112
 -1      1402    8    0    1
 -2       650       649       764      2762      3115      3116
 -1      1403    8    0    1
 -2       649       763       764      3113      3117      3115
 -1      1404    8    0    1
 -2       651       650       765      2765      3118      3119
 -1      1405    8    0    1
 -2       650       764       765      3116      3120      3118
 -1      1406    8    0    1
 -2       652       651       766      2768      3121      3122
 -1      1407    8    0    1
 -2       651       765       766      3119      3123      3121
 -1      1408    8    0    1
 -2       653       652       767      2771      3124      3125
 -1      1409    8    0    1
 -2       652       766       767      3122      3126      3124
 -1      1410    8    0    1
 -2       654       653       768      2774      3127      3128
 -1      1411    8    0    1
 -2       653       767       768      3125      3129      3127
 -1      1412    8    0    1
 -2       655       654       769      2777      3130      3131
 -1      1413    8    0    1
 -2       724       655       769      2991      3131      3132
 -1      1414    8    0    1
 -2       654       768       769      3128      3133      3130
 -1      1415    8    0    1
 -2       721       600       722      2972      3002      3134
 -1      1416    8    0    1
 -2       714       658       770      2974      3135      3136
 -1      1417    8    0    1
 -2       701       613       771      2987      3137      3138
 -1      1418    8    0    1
 -2       722       705       772      2976      3139      3140
 -1      1419    8    0    1
 -2       659       660       773      2788      3141      3142
 -1      1420    8    0    1
 -2       662       663       774      2797      3143      3144
 -1      1421    8    0    1
 -2       663       664       775      2800      3145      3146
 -1      1422    8    0    1
 -2       663       775       774      3146      3147      3143
 -1      1423    8    0    1
 -2       664       665       776      2803      3148      3149
 -1      1424    8    0    1
 -2       664       776       775      3149      3150      3145
 -1      1425    8    0    1
 -2       665       666       777      2806      3151      3152
 -1      1426    8    0    1
 -2       665       777       776      3152      3153      3148
 -1      1427    8    0    1
 -2       666       667       778      2809      3154      3155
 -1      1428    8    0    1
 -2       666       778       777      3155      3156      3151
 -1      1429    8    0    1
 -2       667       668       779      2812      3157      3158
 -1      1430    8    0    1
 -2       667       779       778      3158      3159      3154
 -1      1431    8    0    1
 -2       668       669       780      2815      3160      3161
 -1      1432    8    0    1
 -2       668       780       779      3161      3162      3157
 -1      1433    8    0    1
 -2       669       670       781      2818      3163      3164
 -1      1434    8    0    1
 -2       669       781       780      3164      3165      3160
 -1      1435    8    0    1
 -2       670       671       782      2821      3166      3167
 -1      1436    8    0    1
 -2       670       782       781      3167      3168      3163
 -1      1437    8    0    1
 -2       671       672       783      2824      3169      3170
 -1      1438    8    0    1
 -2       671       783       782      3170      3171      3166
 -1      1439    8    0    1
 -2       672       673       784      2827      3172      3173
 -1      1440    8    0    1
 -2       672       784       783      3173      3174      3169
 -1      1441    8    0    1
 -2       673       674       785      2830      3175      3176
 -1      1442    8    0    1
 -2       673       785       784      3176      3177      3172
 -1      1443    8    0    1
 -2       674       675       786      2833      3178      3179
 -1      1444    8    0    1
 -2       674       786       785      3179      3180      3175
 -1      1445    8    0    1
 -2       675       676       787      2836      3181      3182
 -1      1446    8    0    1
 -2       675       787       786      3182      3183      3178
 -1      1447    8    0    1
 -2       676       677       788      2839      3184      3185
 -1      1448    8    0    1
 -2       676       788       787      3185      3186      3181
 -1      1449    8    0    1
 -2       677       678       789      2842      3187      3188
 -1      1450    8    0    1
 -2       677       789       788      3188      3189      3184
 -1      1451    8    0    1
 -2       678       679       790      2845      3190      3191
 -1      1452    8    0    1
 -2       678       790       789      3191      3192      3187
 -1      1453    8    0    1
 -2       679       680       791      2848      3193      3194
 -1      1454    8    0    1
 -2       679       791       790      3194      3195      3190
 -1      1455    8    0    1
 -2       680       681       792      2851      3196      3197
 -1      1456    8    0    1
 -2       680       792       791      3197      3198      3193
 -1      1457    8    0    1
 -2       681       682       793      2854      3199      3200
 -1      1458    8    0    1
 -2       681       793       792      3200      3201      3196
 -1      1459    8    0    1
 -2       682       683       794      2857      3202      3203
 -1      1460    8    0    1
 -2       682       794       793      3203      3204      3199
 -1      1461    8    0    1
 -2       683       684       795      2860      3205      3206
 -1      1462    8    0    1
 -2       683       795       794      3206      3207      3202
 -1      1463    8    0    1
 -2       684       685       796      2863      3208      3209
 -1      1464    8    0    1
 -2       684       796       795      3209      3210      3205
 -1      1465    8    0    1
 -2       685       686       797      2866      3211      3212
 -1      1466    8    0    1
 -2       685       797       796      3212      3213      3208
 -1      1467    8    0    1
 -2       686       687       798      2869      3214      3215
 -1      1468    8    0    1
 -2       686       798       797      3215      3216      3211
 -1      1469    8    0    1
 -2       687       688       799      2872      3217      3218
 -1      1470    8    0    1
 -2       798       687       799      3214      3218      3219
 -1      1471    8    0    1
 -2       688       723       799      2981      3220      3217
 -1      1472    8    0    1
 -2       609       610       800      2992      3221      3222
 -1      1473    8    0    1
 -2       728       609       800      3009      3222      3223
 -1      1474    8    0    1
 -2       610       612       800      2649      3224      3221
 -1      1475    8    0    1
 -2       607       606       801      2637      3225      3226
 -1      1476    8    0    1
 -2       715       721       802      2978      3227      3228
 -1      1477    8    0    1
 -2       689       692       803      2883      3229      3230
 -1      1478    8    0    1
 -2       697       698       804      2901      3231      3232
 -1      1479    8    0    1
 -2       692       696       805      2895      3233      3234
 -1      1480    8    0    1
 -2       692       805       803      3234      3235      3229
 -1      1481    8    0    1
 -2       708       591       711      2931      2943      3236
 -1      1482    8    0    1
 -2       703       659       806      2914      3237      3238
 -1      1483    8    0    1
 -2       659       773       806      3142      3239      3237
 -1      1484    8    0    1
 -2       694       657       710      2971      2940      3240
 -1      1485    8    0    1
 -2       716       713       807      2985      3241      3242
 -1      1486    8    0    1
 -2       696       697       808      2898      3243      3244
 -1      1487    8    0    1
 -2       805       696       808      3233      3244      3245
 -1      1488    8    0    1
 -2       697       804       808      3232      3246      3243
 -1      1489    8    0    1
 -2       661       662       809      2794      3247      3248
 -1      1490    8    0    1
 -2       662       774       809      3144      3249      3247
 -1      1491    8    0    1
 -2       660       661       810      2791      3250      3251
 -1      1492    8    0    1
 -2       661       809       810      3248      3252      3250
 -1      1493    8    0    1
 -2       656       701       811      2970      3253      3254
 -1      1494    8    0    1
 -2       615       614       812      2657      3255      3256
 -1      1495    8    0    1
 -2       615       812       730      3256      3257      3014
 -1      1496    8    0    1
 -2       709       656       813      2937      3258      3259
 -1      1497    8    0    1
 -2       713       715       814      2999      3260      3261
 -1      1498    8    0    1
 -2       713       814       807      3261      3262      3241
 -1      1499    8    0    1
 -2       711       714       815      3001      3263      3264
 -1      1500    8    0    1
 -2       658       709       816      2998      3265      3266
 -1      1501    8    0    1
 -2       717       704       726      2986      3267      3006
 -1      1502    8    0    1
 -2       705       695       817      3000      3268      3269
 -1      1503    8    0    1
 -2       772       705       817      3139      3269      3270
 -1      1504    8    0    1
 -2       695       729       817      3013      3271      3268
 -1      1505    8    0    1
 -2       699       604       718      2993      2959      3272
 -1      1506    8    0    1
 -2       612       694       818      2890      3273      3274
 -1      1507    8    0    1
 -2       612       818       800      3274      3275      3224
 -1      1508    8    0    1
 -2       613       716       819      2954      3276      3277
 -1      1509    8    0    1
 -2       611       726       820      3005      3278      3279
 -1      1510    8    0    1
 -2       726       704       820      3267      3280      3278
 -1      1511    8    0    1
 -2       700       611       821      3011      3281      3282
 -1      1512    8    0    1
 -2       611       820       821      3279      3283      3281
 -1      1513    8    0    1
 -2       721       722       822      3134      3284      3285
 -1      1514    8    0    1
 -2       708       711       823      3236      3286      3287
 -1      1515    8    0    1
 -2       719       607       824      2961      3288      3289
 -1      1516    8    0    1
 -2       607       801       824      3226      3290      3288
 -1      1517    8    0    1
 -2       608       728       825      3010      3291      3292
 -1      1518    8    0    1
 -2       608       825       707      3292      3293      2930
 -1      1519    8    0    1
 -2       822       722       772      3284      3140      3294
 -1      1520    8    0    1
 -2       729       700       821      3012      3282      3295
 -1      1521    8    0    1
 -2       708       823       727      3287      3296      3007
 -1      1522    8    0    1
 -2       720       691       826      2967      3297      3298
 -1      1523    8    0    1
 -2       702       727       827      3008      3299      3300
 -1      1524    8    0    1
 -2       702       827       710      3300      3301      2941
 -1      1525    8    0    1
 -2       716       807       819      3242      3302      3276
 -1      1526    8    0    1
 -2       820       704       703      3280      2917      3303
 -1      1527    8    0    1
 -2       770       658       816      3135      3266      3304
 -1      1528    8    0    1
 -2       701       771       811      3138      3305      3253
 -1      1529    8    0    1
 -2       660       810       773      3251      3306      3141
 -1      1530    8    0    1
 -2       613       819       828      3277      3307      3308
 -1      1531    8    0    1
 -2       613       828       771      3308      3309      3137
 -1      1532    8    0    1
 -2       691       693       829      2886      3310      3311
 -1      1533    8    0    1
 -2       691       829       826      3311      3312      3297
 -1      1534    8    0    1
 -2       802       721       822      3227      3285      3313
 -1      1535    8    0    1
 -2       715       802       814      3228      3314      3260
 -1      1536    8    0    1
 -2       656       811       813      3254      3315      3258
 -1      1537    8    0    1
 -2       693       689       830      2887      3316      3317
 -1      1538    8    0    1
 -2       829       693       830      3310      3317      3318
 -1      1539    8    0    1
 -2       689       803       830      3230      3319      3316
 -1      1540    8    0    1
 -2       816       709       813      3265      3259      3320
 -1      1541    8    0    1
 -2       606       707       831      2929      3321      3322
 -1      1542    8    0    1
 -2       801       606       831      3225      3322      3323
 -1      1543    8    0    1
 -2       707       825       831      3293      3324      3321
 -1      1544    8    0    1
 -2       699       718       706      3272      3325      2926
 -1      1545    8    0    1
 -2       711       815       823      3264      3326      3286
 -1      1546    8    0    1
 -2       812       614       832      3255      3327      3328
 -1      1547    8    0    1
 -2       614       706       832      2925      3329      3327
 -1      1548    8    0    1
 -2       703       806       820      3238      3330      3303
 -1      1549    8    0    1
 -2       712       725       833      2996      3331      3332
 -1      1550    8    0    1
 -2       718       712       834      2960      3333      3334
 -1      1551    8    0    1
 -2       712       833       834      3332      3335      3333
 -1      1552    8    0    1
 -2       815       714       770      3263      3136      3336
 -1      1553    8    0    1
 -2       698       724       835      2990      3337      3338
 -1      1554    8    0    1
 -2       804       698       835      3231      3338      3339
 -1      1555    8    0    1
 -2       724       769       835      3132      3340      3337
 -1      1556    8    0    1
 -2       706       718       832      3325      3341      3329
 -1      1557    8    0    1
 -2       802       822       836      3313      3342      3343
 -1      1558    8    0    1
 -2       822       772       837      3294      3344      3345
 -1      1559    8    0    1
 -2       732       731       838      3021      3346      3347
 -1      1560    8    0    1
 -2       733       732       839      3024      3348      3349
 -1      1561    8    0    1
 -2       732       838       839      3347      3350      3348
 -1      1562    8    0    1
 -2       734       733       840      3027      3351      3352
 -1      1563    8    0    1
 -2       733       839       840      3349      3353      3351
 -1      1564    8    0    1
 -2       735       734       828      3030      3354      3355
 -1      1565    8    0    1
 -2       737       736       841      3036      3356      3357
 -1      1566    8    0    1
 -2       738       737       842      3039      3358      3359
 -1      1567    8    0    1
 -2       737       841       842      3357      3360      3358
 -1      1568    8    0    1
 -2       739       738       843      3042      3361      3362
 -1      1569    8    0    1
 -2       738       842       843      3359      3363      3361
 -1      1570    8    0    1
 -2       740       739       844      3045      3364      3365
 -1      1571    8    0    1
 -2       739       843       844      3362      3366      3364
 -1      1572    8    0    1
 -2       741       740       845      3048      3367      3368
 -1      1573    8    0    1
 -2       740       844       845      3365      3369      3367
 -1      1574    8    0    1
 -2       742       741       846      3051      3370      3371
 -1      1575    8    0    1
 -2       741       845       846      3368      3372      3370
 -1      1576    8    0    1
 -2       743       742       847      3054      3373      3374
 -1      1577    8    0    1
 -2       742       846       847      3371      3375      3373
 -1      1578    8    0    1
 -2       744       743       848      3057      3376      3377
 -1      1579    8    0    1
 -2       743       847       848      3374      3378      3376
 -1      1580    8    0    1
 -2       745       744       849      3060      3379      3380
 -1      1581    8    0    1
 -2       744       848       849      3377      3381      3379
 -1      1582    8    0    1
 -2       746       745       850      3063      3382      3383
 -1      1583    8    0    1
 -2       745       849       850      3380      3384      3382
 -1      1584    8    0    1
 -2       747       746       851      3066      3385      3386
 -1      1585    8    0    1
 -2       746       850       851      3383      3387      3385
 -1      1586    8    0    1
 -2       748       747       852      3069      3388      3389
 -1      1587    8    0    1
 -2       747       851       852      3386      3390      3388
 -1      1588    8    0    1
 -2       749       748       853      3072      3391      3392
 -1      1589    8    0    1
 -2       748       852       853      3389      3393      3391
 -1      1590    8    0    1
 -2       750       749       854      3075      3394      3395
 -1      1591    8    0    1
 -2       749       853       854      3392      3396      3394
 -1      1592    8    0    1
 -2       751       750       855      3078      3397      3398
 -1      1593    8    0    1
 -2       750       854       855      3395      3399      3397
 -1      1594    8    0    1
 -2       752       751       856      3081      3400      3401
 -1      1595    8    0    1
 -2       751       855       856      3398      3402      3400
 -1      1596    8    0    1
 -2       753       752       857      3084      3403      3404
 -1      1597    8    0    1
 -2       752       856       857      3401      3405      3403
 -1      1598    8    0    1
 -2       754       753       858      3087      3406      3407
 -1      1599    8    0    1
 -2       753       857       858      3404      3408      3406
 -1      1600    8    0    1
 -2       755       754       859      3090      3409      3410
 -1      1601    8    0    1
 -2       754       858       859      3407      3411      3409
 -1      1602    8    0    1
 -2       756       755       860      3093      3412      3413
 -1      1603    8    0    1
 -2       755       859       860      3410      3414      3412
 -1      1604    8    0    1
 -2       757       756       861      3096      3415      3416
 -1      1605    8    0    1
 -2       756       860       861      3413      3417      3415
 -1      1606    8    0    1
 -2       758       757       862      3099      3418      3419
 -1      1607    8    0    1
 -2       757       861       862      3416      3420      3418
 -1      1608    8    0    1
 -2       759       758       863      3102      3421      3422
 -1      1609    8    0    1
 -2       758       862       863      3419      3423      3421
 -1      1610    8    0    1
 -2       760       759       864      3105      3424      3425
 -1      1611    8    0    1
 -2       759       863       864      3422      3426      3424
 -1      1612    8    0    1
 -2       761       760       865      3108      3427      3428
 -1      1613    8    0    1
 -2       760       864       865      3425      3429      3427
 -1      1614    8    0    1
 -2       762       761       866      3111      3430      3431
 -1      1615    8    0    1
 -2       761       865       866      3428      3432      3430
 -1      1616    8    0    1
 -2       763       762       867      3114      3433      3434
 -1      1617    8    0    1
 -2       762       866       867      3431      3435      3433
 -1      1618    8    0    1
 -2       764       763       868      3117      3436      3437
 -1      1619    8    0    1
 -2       763       867       868      3434      3438      3436
 -1      1620    8    0    1
 -2       765       764       869      3120      3439      3440
 -1      1621    8    0    1
 -2       764       868       869      3437      3441      3439
 -1      1622    8    0    1
 -2       766       765       870      3123      3442      3443
 -1      1623    8    0    1
 -2       765       869       870      3440      3444      3442
 -1      1624    8    0    1
 -2       767       766       871      3126      3445      3446
 -1      1625    8    0    1
 -2       766       870       871      3443      3447      3445
 -1      1626    8    0    1
 -2       768       767       872      3129      3448      3449
 -1      1627    8    0    1
 -2       767       871       872      3446      3450      3448
 -1      1628    8    0    1
 -2       729       821       873      3295      3451      3452
 -1      1629    8    0    1
 -2       694       710       827      3240      3301      3453
 -1      1630    8    0    1
 -2       774       775       874      3147      3454      3455
 -1      1631    8    0    1
 -2       777       778       875      3156      3456      3457
 -1      1632    8    0    1
 -2       778       779       876      3159      3458      3459
 -1      1633    8    0    1
 -2       778       876       875      3459      3460      3456
 -1      1634    8    0    1
 -2       779       780       877      3162      3461      3462
 -1      1635    8    0    1
 -2       779       877       876      3462      3463      3458
 -1      1636    8    0    1
 -2       780       781       878      3165      3464      3465
 -1      1637    8    0    1
 -2       780       878       877      3465      3466      3461
 -1      1638    8    0    1
 -2       781       782       879      3168      3467      3468
 -1      1639    8    0    1
 -2       781       879       878      3468      3469      3464
 -1      1640    8    0    1
 -2       782       783       880      3171      3470      3471
 -1      1641    8    0    1
 -2       782       880       879      3471      3472      3467
 -1      1642    8    0    1
 -2       783       784       881      3174      3473      3474
 -1      1643    8    0    1
 -2       783       881       880      3474      3475      3470
 -1      1644    8    0    1
 -2       784       785       882      3177      3476      3477
 -1      1645    8    0    1
 -2       784       882       881      3477      3478      3473
 -1      1646    8    0    1
 -2       785       786       883      3180      3479      3480
 -1      1647    8    0    1
 -2       785       883       882      3480      3481      3476
 -1      1648    8    0    1
 -2       786       787       884      3183      3482      3483
 -1      1649    8    0    1
 -2       786       884       883      3483      3484      3479
 -1      1650    8    0    1
 -2       787       788       885      3186      3485      3486
 -1      1651    8    0    1
 -2       787       885       884      3486      3487      3482
 -1      1652    8    0    1
 -2       788       789       886      3189      3488      3489
 -1      1653    8    0    1
 -2       788       886       885      3489      3490      3485
 -1      1654    8    0    1
 -2       789       790       887      3192      3491      3492
 -1      1655    8    0    1
 -2       789       887       886      3492      3493      3488
 -1      1656    8    0    1
 -2       790       791       888      3195      3494      3495
 -1      1657    8    0    1
 -2       790       888       887      3495      3496      3491
 -1      1658    8    0    1
 -2       791       792       889      3198      3497      3498
 -1      1659    8    0    1
 -2       791       889       888      3498      3499      3494
 -1      1660    8    0    1
 -2       792       793       890      3201      3500      3501
 -1      1661    8    0    1
 -2       792       890       889      3501      3502      3497
 -1      1662    8    0    1
 -2       793       794       891      3204      3503      3504
 -1      1663    8    0    1
 -2       793       891       890      3504      3505      3500
 -1      1664    8    0    1
 -2       794       795       892      3207      3506      3507
 -1      1665    8    0    1
 -2       794       892       891      3507      3508      3503
 -1      1666    8    0    1
 -2       795       796       893      3210      3509      3510
 -1      1667    8    0    1
 -2       795       893       892      3510      3511      3506
 -1      1668    8    0    1
 -2       796       797       894      3213      3512      3513
 -1      1669    8    0    1
 -2       796       894       893      3513      3514      3509
 -1      1670    8    0    1
 -2       797       798       895      3216      3515      3516
 -1      1671    8    0    1
 -2       797       895       894      3516      3517      3512
 -1      1672    8    0    1
 -2       816       813       896      3320      3518      3519
 -1      1673    8    0    1
 -2       723       720       897      2982      3520      3521
 -1      1674    8    0    1
 -2       799       723       897      3220      3521      3522
 -1      1675    8    0    1
 -2       720       826       897      3298      3523      3520
 -1      1676    8    0    1
 -2       803       805       898      3235      3524      3525
 -1      1677    8    0    1
 -2       813       811       899      3315      3526      3527
 -1      1678    8    0    1
 -2       813       899       896      3527      3528      3518
 -1      1679    8    0    1
 -2       806       773       900      3239      3529      3530
 -1      1680    8    0    1
 -2       728       800       901      3223      3531      3532
 -1      1681    8    0    1
 -2       825       728       901      3291      3532      3533
 -1      1682    8    0    1
 -2       800       818       901      3275      3534      3531
 -1      1683    8    0    1
 -2       809       774       902      3249      3535      3536
 -1      1684    8    0    1
 -2       774       874       902      3455      3537      3535
 -1      1685    8    0    1
 -2       833       725       903      3331      3538      3539
 -1      1686    8    0    1
 -2       725       719       903      2997      3540      3538
 -1      1687    8    0    1
 -2       810       809       904      3252      3541      3542
 -1      1688    8    0    1
 -2       809       902       904      3536      3543      3541
 -1      1689    8    0    1
 -2       773       810       905      3306      3544      3545
 -1      1690    8    0    1
 -2       900       773       905      3529      3545      3546
 -1      1691    8    0    1
 -2       810       904       905      3542      3547      3544
 -1      1692    8    0    1
 -2       775       776       906      3150      3548      3549
 -1      1693    8    0    1
 -2       775       906       874      3549      3550      3454
 -1      1694    8    0    1
 -2       730       812       907      3257      3551      3552
 -1      1695    8    0    1
 -2       770       816       908      3304      3553      3554
 -1      1696    8    0    1
 -2       731       730       909      3018      3555      3556
 -1      1697    8    0    1
 -2       731       909       838      3556      3557      3346
 -1      1698    8    0    1
 -2       823       815       910      3326      3558      3559
 -1      1699    8    0    1
 -2       807       814       911      3262      3560      3561
 -1      1700    8    0    1
 -2       811       771       912      3305      3562      3563
 -1      1701    8    0    1
 -2       819       807       913      3302      3564      3565
 -1      1702    8    0    1
 -2       807       911       913      3561      3566      3564
 -1      1703    8    0    1
 -2       776       777       914      3153      3567      3568
 -1      1704    8    0    1
 -2       906       776       914      3548      3568      3569
 -1      1705    8    0    1
 -2       777       875       914      3457      3570      3567
 -1      1706    8    0    1
 -2       727       823       915      3296      3571      3572
 -1      1707    8    0    1
 -2       820       806       821      3330      3573      3283
 -1      1708    8    0    1
 -2       818       694       827      3273      3453      3574
 -1      1709    8    0    1
 -2       815       770       916      3336      3575      3576
 -1      1710    8    0    1
 -2       814       802       917      3314      3577      3578
 -1      1711    8    0    1
 -2       818       827       918      3574      3579      3580
 -1      1712    8    0    1
 -2       901       818       918      3534      3580      3581
 -1      1713    8    0    1
 -2       827       727       918      3299      3582      3579
 -1      1714    8    0    1
 -2       821       806       873      3573      3583      3451
 -1      1715    8    0    1
 -2       873       806       900      3583      3530      3584
 -1      1716    8    0    1
 -2       836       822       919      3342      3585      3586
 -1      1717    8    0    1
 -2       822       837       919      3345      3587      3585
 -1      1718    8    0    1
 -2       734       840       828      3352      3588      3354
 -1      1719    8    0    1
 -2       833       903       920      3539      3589      3590
 -1      1720    8    0    1
 -2       832       718       834      3341      3334      3591
 -1      1721    8    0    1
 -2       735       828       921      3355      3592      3593
 -1      1722    8    0    1
 -2       833       920       922      3590      3594      3595
 -1      1723    8    0    1
 -2       833       922       834      3595      3596      3335
 -1      1724    8    0    1
 -2       729       873       923      3452      3597      3598
 -1      1725    8    0    1
 -2       736       735       921      3033      3593      3599
 -1      1726    8    0    1
 -2       769       768       924      3133      3600      3601
 -1      1727    8    0    1
 -2       835       769       924      3340      3601      3602
 -1      1728    8    0    1
 -2       768       872       924      3449      3603      3600
 -1      1729    8    0    1
 -2       815       916       910      3576      3604      3558
 -1      1730    8    0    1
 -2       730       907       909      3552      3605      3555
 -1      1731    8    0    1
 -2       727       915       918      3572      3606      3582
 -1      1732    8    0    1
 -2       816       896       908      3519      3607      3553
 -1      1733    8    0    1
 -2       798       799       897      3219      3522      3608
 -1      1734    8    0    1
 -2       898       805       925      3524      3609      3610
 -1      1735    8    0    1
 -2       805       808       925      3245      3611      3609
 -1      1736    8    0    1
 -2       719       824       903      3289      3612      3540
 -1      1737    8    0    1
 -2       911       814       917      3560      3578      3613
 -1      1738    8    0    1
 -2       899       811       912      3526      3563      3614
 -1      1739    8    0    1
 -2       830       803       926      3319      3615      3616
 -1      1740    8    0    1
 -2       803       898       926      3525      3617      3615
 -1      1741    8    0    1
 -2       897       826       895      3523      3618      3619
 -1      1742    8    0    1
 -2       915       823       910      3571      3559      3620
 -1      1743    8    0    1
 -2       826       829       927      3312      3621      3622
 -1      1744    8    0    1
 -2       824       801       928      3290      3623      3624
 -1      1745    8    0    1
 -2       841       736       921      3356      3599      3625
 -1      1746    8    0    1
 -2       802       836       929      3343      3626      3627
 -1      1747    8    0    1
 -2       802       929       917      3627      3628      3577
 -1      1748    8    0    1
 -2       729       923       817      3598      3629      3271
 -1      1749    8    0    1
 -2       798       897       895      3608      3619      3515
 -1      1750    8    0    1
 -2       837       772       930      3344      3630      3631
 -1      1751    8    0    1
 -2       772       817       930      3270      3632      3630
 -1      1752    8    0    1
 -2       907       812       922      3551      3633      3634
 -1      1753    8    0    1
 -2       770       908       931      3554      3635      3636
 -1      1754    8    0    1
 -2       770       931       916      3636      3637      3575
 -1      1755    8    0    1
 -2       771       828       840      3309      3588      3638
 -1      1756    8    0    1
 -2       801       831       910      3323      3639      3640
 -1      1757    8    0    1
 -2       804       835       924      3339      3602      3641
 -1      1758    8    0    1
 -2       812       832       922      3328      3642      3633
 -1      1759    8    0    1
 -2       826       927       895      3622      3643      3618
 -1      1760    8    0    1
 -2       804       924       932      3641      3644      3645
 -1      1761    8    0    1
 -2       808       804       932      3246      3645      3646
 -1      1762    8    0    1
 -2       924       872       932      3603      3647      3644
 -1      1763    8    0    1
 -2       902       874       933      3537      3648      3649
 -1      1764    8    0    1
 -2       922       920       934      3594      3650      3651
 -1      1765    8    0    1
 -2       801       910       916      3640      3604      3652
 -1      1766    8    0    1
 -2       920       903       931      3589      3653      3654
 -1      1767    8    0    1
 -2       923       873       935      3597      3655      3656
 -1      1768    8    0    1
 -2       873       900       935      3584      3657      3655
 -1      1769    8    0    1
 -2       843       842       917      3363      3658      3659
 -1      1770    8    0    1
 -2       844       843       929      3366      3660      3661
 -1      1771    8    0    1
 -2       846       845       936      3372      3662      3663
 -1      1772    8    0    1
 -2       847       846       937      3375      3664      3665
 -1      1773    8    0    1
 -2       846       936       937      3663      3666      3664
 -1      1774    8    0    1
 -2       848       847       938      3378      3667      3668
 -1      1775    8    0    1
 -2       847       937       938      3665      3669      3667
 -1      1776    8    0    1
 -2       849       848       939      3381      3670      3671
 -1      1777    8    0    1
 -2       848       938       939      3668      3672      3670
 -1      1778    8    0    1
 -2       850       849       940      3384      3673      3674
 -1      1779    8    0    1
 -2       849       939       940      3671      3675      3673
 -1      1780    8    0    1
 -2       851       850       941      3387      3676      3677
 -1      1781    8    0    1
 -2       850       940       941      3674      3678      3676
 -1      1782    8    0    1
 -2       852       851       942      3390      3679      3680
 -1      1783    8    0    1
 -2       851       941       942      3677      3681      3679
 -1      1784    8    0    1
 -2       853       852       943      3393      3682      3683
 -1      1785    8    0    1
 -2       852       942       943      3680      3684      3682
 -1      1786    8    0    1
 -2       854       853       944      3396      3685      3686
 -1      1787    8    0    1
 -2       853       943       944      3683      3687      3685
 -1      1788    8    0    1
 -2       855       854       945      3399      3688      3689
 -1      1789    8    0    1
 -2       854       944       945      3686      3690      3688
 -1      1790    8    0    1
 -2       856       855       946      3402      3691      3692
 -1      1791    8    0    1
 -2       855       945       946      3689      3693      3691
 -1      1792    8    0    1
 -2       857       856       947      3405      3694      3695
 -1      1793    8    0    1
 -2       856       946       947      3692      3696      3694
 -1      1794    8    0    1
 -2       858       857       948      3408      3697      3698
 -1      1795    8    0    1
 -2       857       947       948      3695      3699      3697
 -1      1796    8    0    1
 -2       859       858       949      3411      3700      3701
 -1      1797    8    0    1
 -2       858       948       949      3698      3702      3700
 -1      1798    8    0    1
 -2       860       859       950      3414      3703      3704
 -1      1799    8    0    1
 -2       859       949       950      3701      3705      3703
 -1      1800    8    0    1
 -2       861       860       951      3417      3706      3707
 -1      1801    8    0    1
 -2       860       950       951      3704      3708      3706
 -1      1802    8    0    1
 -2       862       861       952      3420      3709      3710
 -1      1803    8    0    1
 -2       861       951       952      3707      3711      3709
 -1      1804    8    0    1
 -2       863       862       953      3423      3712      3713
 -1      1805    8    0    1
 -2       862       952       953      3710      3714      3712
 -1      1806    8    0    1
 -2       864       863       954      3426      3715      3716
 -1      1807    8    0    1
 -2       863       953       954      3713      3717      3715
 -1      1808    8    0    1
 -2       865       864       955      3429      3718      3719
 -1      1809    8    0    1
 -2       864       954       955      3716      3720      3718
 -1      1810    8    0    1
 -2       866       865       956      3432      3721      3722
 -1      1811    8    0    1
 -2       865       955       956      3719      3723      3721
 -1      1812    8    0    1
 -2       867       866       957      3435      3724      3725
 -1      1813    8    0    1
 -2       866       956       957      3722      3726      3724
 -1      1814    8    0    1
 -2       868       867       958      3438      3727      3728
 -1      1815    8    0    1
 -2       867       957       958      3725      3729      3727
 -1      1816    8    0    1
 -2       869       868       959      3441      3730      3731
 -1      1817    8    0    1
 -2       868       958       959      3728      3732      3730
 -1      1818    8    0    1
 -2       870       869       960      3444      3733      3734
 -1      1819    8    0    1
 -2       869       959       960      3731      3735      3733
 -1      1820    8    0    1
 -2       871       870       961      3447      3736      3737
 -1      1821    8    0    1
 -2       870       960       961      3734      3738      3736
 -1      1822    8    0    1
 -2       872       871       962      3450      3739      3740
 -1      1823    8    0    1
 -2       871       961       962      3737      3741      3739
 -1      1824    8    0    1
 -2       843       917       929      3659      3628      3660
 -1      1825    8    0    1
 -2       828       819       921      3307      3742      3592
 -1      1826    8    0    1
 -2       875       876       963      3460      3743      3744
 -1      1827    8    0    1
 -2       878       879       964      3469      3745      3746
 -1      1828    8    0    1
 -2       879       880       965      3472      3747      3748
 -1      1829    8    0    1
 -2       879       965       964      3748      3749      3745
 -1      1830    8    0    1
 -2       880       881       966      3475      3750      3751
 -1      1831    8    0    1
 -2       880       966       965      3751      3752      3747
 -1      1832    8    0    1
 -2       881       882       967      3478      3753      3754
 -1      1833    8    0    1
 -2       881       967       966      3754      3755      3750
 -1      1834    8    0    1
 -2       882       883       968      3481      3756      3757
 -1      1835    8    0    1
 -2       882       968       967      3757      3758      3753
 -1      1836    8    0    1
 -2       883       884       969      3484      3759      3760
 -1      1837    8    0    1
 -2       883       969       968      3760      3761      3756
 -1      1838    8    0    1
 -2       884       885       970      3487      3762      3763
 -1      1839    8    0    1
 -2       884       970       969      3763      3764      3759
 -1      1840    8    0    1
 -2       885       886       971      3490      3765      3766
 -1      1841    8    0    1
 -2       885       971       970      3766      3767      3762
 -1      1842    8    0    1
 -2       886       887       972      3493      3768      3769
 -1      1843    8    0    1
 -2       886       972       971      3769      3770      3765
 -1      1844    8    0    1
 -2       887       888       973      3496      3771      3772
 -1      1845    8    0    1
 -2       887       973       972      3772      3773      3768
 -1      1846    8    0    1
 -2       888       889       974      3499      3774      3775
 -1      1847    8    0    1
 -2       888       974       973      3775      3776      3771
 -1      1848    8    0    1
 -2       889       890       975      3502      3777      3778
 -1      1849    8    0    1
 -2       889       975       974      3778      3779      3774
 -1      1850    8    0    1
 -2       890       891       976      3505      3780      3781
 -1      1851    8    0    1
 -2       890       976       975      3781      3782      3777
 -1      1852    8    0    1
 -2       891       892       977      3508      3783      3784
 -1      1853    8    0    1
 -2       891       977       976      3784      3785      3780
 -1      1854    8    0    1
 -2       892       893       978      3511      3786      3787
 -1      1855    8    0    1
 -2       892       978       977      3787      3788      3783
 -1      1856    8    0    1
 -2       893       894       979      3514      3789      3790
 -1      1857    8    0    1
 -2       893       979       978      3790      3791      3786
 -1      1858    8    0    1
 -2       894       895       980      3517      3792      3793
 -1      1859    8    0    1
 -2       979       894       980      3789      3793      3794
 -1      1860    8    0    1
 -2       895       927       980      3643      3795      3792
 -1      1861    8    0    1
 -2       877       878       981      3466      3796      3797
 -1      1862    8    0    1
 -2       878       964       981      3746      3798      3796
 -1      1863    8    0    1
 -2       912       771       840      3562      3638      3799
 -1      1864    8    0    1
 -2       915       910       831      3620      3639      3800
 -1      1865    8    0    1
 -2       896       899       982      3528      3801      3802
 -1      1866    8    0    1
 -2       831       825       915      3324      3803      3800
 -1      1867    8    0    1
 -2       918       915       901      3606      3804      3581
 -1      1868    8    0    1
 -2       876       877       983      3463      3805      3806
 -1      1869    8    0    1
 -2       877       981       983      3797      3807      3805
 -1      1870    8    0    1
 -2       903       824       931      3612      3808      3653
 -1      1871    8    0    1
 -2       911       917       842      3613      3658      3809
 -1      1872    8    0    1
 -2       904       902       984      3543      3810      3811
 -1      1873    8    0    1
 -2       902       933       984      3649      3812      3810
 -1      1874    8    0    1
 -2       874       906       985      3550      3813      3814
 -1      1875    8    0    1
 -2       874       985       933      3814      3815      3648
 -1      1876    8    0    1
 -2       838       909       982      3557      3816      3817
 -1      1877    8    0    1
 -2       909       907       986      3605      3818      3819
 -1      1878    8    0    1
 -2       829       830       987      3318      3820      3821
 -1      1879    8    0    1
 -2       927       829       987      3621      3821      3822
 -1      1880    8    0    1
 -2       830       926       987      3616      3823      3820
 -1      1881    8    0    1
 -2       819       913       921      3565      3824      3742
 -1      1882    8    0    1
 -2       908       896       988      3607      3825      3826
 -1      1883    8    0    1
 -2       817       923       930      3629      3827      3632
 -1      1884    8    0    1
 -2       901       915       825      3804      3803      3533
 -1      1885    8    0    1
 -2       912       840       839      3799      3353      3828
 -1      1886    8    0    1
 -2       912       839       899      3828      3829      3614
 -1      1887    8    0    1
 -2       921       913       841      3824      3830      3625
 -1      1888    8    0    1
 -2       841       913       911      3830      3566      3831
 -1      1889    8    0    1
 -2       899       839       982      3829      3832      3801
 -1      1890    8    0    1
 -2       841       911       842      3831      3809      3360
 -1      1891    8    0    1
 -2       919       837       989      3587      3833      3834
 -1      1892    8    0    1
 -2       989       837       990      3833      3835      3836
 -1      1893    8    0    1
 -2       837       930       990      3631      3837      3835
 -1      1894    8    0    1
 -2       923       935       991      3656      3838      3839
 -1      1895    8    0    1
 -2       832       834       922      3591      3596      3642
 -1      1896    8    0    1
 -2       875       963       992      3744      3840      3841
 -1      1897    8    0    1
 -2       875       992       914      3841      3842      3570
 -1      1898    8    0    1
 -2       904       984       993      3811      3843      3844
 -1      1899    8    0    1
 -2       904       993       905      3844      3845      3547
 -1      1900    8    0    1
 -2       920       931       934      3654      3846      3650
 -1      1901    8    0    1
 -2       844       929       994      3661      3847      3848
 -1      1902    8    0    1
 -2       872       962       932      3740      3849      3647
 -1      1903    8    0    1
 -2       845       844       994      3369      3848      3850
 -1      1904    8    0    1
 -2       963       876       983      3743      3806      3851
 -1      1905    8    0    1
 -2       980       927       995      3795      3852      3853
 -1      1906    8    0    1
 -2       927       987       995      3822      3854      3852
 -1      1907    8    0    1
 -2       923       991       930      3839      3855      3827
 -1      1908    8    0    1
 -2       925       808       932      3611      3646      3856
 -1      1909    8    0    1
 -2       898       925       996      3610      3857      3858
 -1      1910    8    0    1
 -2       926       898       997      3617      3859      3860
 -1      1911    8    0    1
 -2       898       996       997      3858      3861      3859
 -1      1912    8    0    1
 -2       824       928       931      3624      3862      3808
 -1      1913    8    0    1
 -2       929       836       998      3626      3863      3864
 -1      1914    8    0    1
 -2       994       929       998      3847      3864      3865
 -1      1915    8    0    1
 -2       836       919       998      3586      3866      3863
 -1      1916    8    0    1
 -2       985       906       999      3813      3867      3868
 -1      1917    8    0    1
 -2       906       914       999      3569      3869      3867
 -1      1918    8    0    1
 -2       982       909       986      3816      3819      3870
 -1      1919    8    0    1
 -2       931       908       934      3635      3871      3846
 -1      1920    8    0    1
 -2       936       845       994      3662      3850      3872
 -1      1921    8    0    1
 -2       900       905       935      3546      3873      3657
 -1      1922    8    0    1
 -2       839       838       982      3350      3817      3832
 -1      1923    8    0    1
 -2       907       922       934      3634      3651      3874
 -1      1924    8    0    1
 -2       801       916       928      3652      3875      3623
 -1      1925    8    0    1
 -2       991       935      1000      3838      3876      3877
 -1      1926    8    0    1
 -2       965       966      1001      3752      3878      3879
 -1      1927    8    0    1
 -2       933       985      1002      3815      3880      3881
 -1      1928    8    0    1
 -2       932       962       925      3849      3882      3856
 -1      1929    8    0    1
 -2       938       937      1003      3669      3883      3884
 -1      1930    8    0    1
 -2       939       938      1004      3672      3885      3886
 -1      1931    8    0    1
 -2       938      1003      1004      3884      3887      3885
 -1      1932    8    0    1
 -2       940       939      1005      3675      3888      3889
 -1      1933    8    0    1
 -2       939      1004      1005      3886      3890      3888
 -1      1934    8    0    1
 -2       941       940      1006      3678      3891      3892
 -1      1935    8    0    1
 -2       940      1005      1006      3889      3893      3891
 -1      1936    8    0    1
 -2       942       941      1007      3681      3894      3895
 -1      1937    8    0    1
 -2       941      1006      1007      3892      3896      3894
 -1      1938    8    0    1
 -2       943       942      1008      3684      3897      3898
 -1      1939    8    0    1
 -2       942      1007      1008      3895      3899      3897
 -1      1940    8    0    1
 -2       944       943      1009      3687      3900      3901
 -1      1941    8    0    1
 -2       943      1008      1009      3898      3902      3900
 -1      1942    8    0    1
 -2       945       944      1010      3690      3903      3904
 -1      1943    8    0    1
 -2       944      1009      1010      3901      3905      3903
 -1      1944    8    0    1
 -2       946       945      1011      3693      3906      3907
 -1      1945    8    0    1
 -2       945      1010      1011      3904      3908      3906
 -1      1946    8    0    1
 -2       947       946      1012      3696      3909      3910
 -1      1947    8    0    1
 -2       946      1011      1012      3907      3911      3909
 -1      1948    8    0    1
 -2       948       947      1013      3699      3912      3913
 -1      1949    8    0    1
 -2       947      1012      1013      3910      3914      3912
 -1      1950    8    0    1
 -2       949       948      1014      3702      3915      3916
 -1      1951    8    0    1
 -2       948      1013      1014      3913      3917      3915
 -1      1952    8    0    1
 -2       950       949      1015      3705      3918      3919
 -1      1953    8    0    1
 -2       949      1014      1015      3916      3920      3918
 -1      1954    8    0    1
 -2       951       950      1016      3708      3921      3922
 -1      1955    8    0    1
 -2       950      1015      1016      3919      3923      3921
 -1      1956    8    0    1
 -2       952       951      1017      3711      3924      3925
 -1      1957    8    0    1
 -2       951      1016      1017      3922      3926      3924
 -1      1958    8    0    1
 -2       953       952      1018      3714      3927      3928
 -1      1959    8    0    1
 -2       952      1017      1018      3925      3929      3927
 -1      1960    8    0    1
 -2       954       953      1019      3717      3930      3931
 -1      1961    8    0    1
 -2       953      1018      1019      3928      3932      3930
 -1      1962    8    0    1
 -2       955       954      1020      3720      3933      3934
 -1      1963    8    0    1
 -2       954      1019      1020      3931      3935      3933
 -1      1964    8    0    1
 -2       956       955      1021      3723      3936      3937
 -1      1965    8    0    1
 -2       955      1020      1021      3934      3938      3936
 -1      1966    8    0    1
 -2       957       956      1022      3726      3939      3940
 -1      1967    8    0    1
 -2       956      1021      1022      3937      3941      3939
 -1      1968    8    0    1
 -2       958       957      1023      3729      3942      3943
 -1      1969    8    0    1
 -2       957      1022      1023      3940      3944      3942
 -1      1970    8    0    1
 -2       959       958      1024      3732      3945      3946
 -1      1971    8    0    1
 -2       958      1023      1024      3943      3947      3945
 -1      1972    8    0    1
 -2       960       959      1025      3735      3948      3949
 -1      1973    8    0    1
 -2       959      1024      1025      3946      3950      3948
 -1      1974    8    0    1
 -2       961       960      1026      3738      3951      3952
 -1      1975    8    0    1
 -2       960      1025      1026      3949      3953      3951
 -1      1976    8    0    1
 -2       962       961      1027      3741      3954      3955
 -1      1977    8    0    1
 -2       961      1026      1027      3952      3956      3954
 -1      1978    8    0    1
 -2       966       967      1028      3755      3957      3958
 -1      1979    8    0    1
 -2       966      1028      1001      3958      3959      3878
 -1      1980    8    0    1
 -2       907       934       986      3874      3960      3818
 -1      1981    8    0    1
 -2       964       965      1029      3749      3961      3962
 -1      1982    8    0    1
 -2       965      1001      1029      3879      3963      3961
 -1      1983    8    0    1
 -2       967       968      1030      3758      3964      3965
 -1      1984    8    0    1
 -2       967      1030      1028      3965      3966      3957
 -1      1985    8    0    1
 -2       968       969      1031      3761      3967      3968
 -1      1986    8    0    1
 -2       968      1031      1030      3968      3969      3964
 -1      1987    8    0    1
 -2       969       970      1032      3764      3970      3971
 -1      1988    8    0    1
 -2       969      1032      1031      3971      3972      3967
 -1      1989    8    0    1
 -2       970       971      1033      3767      3973      3974
 -1      1990    8    0    1
 -2       970      1033      1032      3974      3975      3970
 -1      1991    8    0    1
 -2       971       972      1034      3770      3976      3977
 -1      1992    8    0    1
 -2       971      1034      1033      3977      3978      3973
 -1      1993    8    0    1
 -2       972       973      1035      3773      3979      3980
 -1      1994    8    0    1
 -2       972      1035      1034      3980      3981      3976
 -1      1995    8    0    1
 -2       973       974      1036      3776      3982      3983
 -1      1996    8    0    1
 -2       973      1036      1035      3983      3984      3979
 -1      1997    8    0    1
 -2       974       975      1037      3779      3985      3986
 -1      1998    8    0    1
 -2       974      1037      1036      3986      3987      3982
 -1      1999    8    0    1
 -2       975       976      1038      3782      3988      3989
 -1      2000    8    0    1
 -2       975      1038      1037      3989      3990      3985
 -1      2001    8    0    1
 -2       976       977      1039      3785      3991      3992
 -1      2002    8    0    1
 -2       976      1039      1038      3992      3993      3988
 -1      2003    8    0    1
 -2       977       978      1040      3788      3994      3995
 -1      2004    8    0    1
 -2       977      1040      1039      3995      3996      3991
 -1      2005    8    0    1
 -2       978       979      1041      3791      3997      3998
 -1      2006    8    0    1
 -2       978      1041      1040      3998      3999      3994
 -1      2007    8    0    1
 -2       979       980      1042      3794      4000      4001
 -1      2008    8    0    1
 -2      1041       979      1042      3997      4001      4002
 -1      2009    8    0    1
 -2       980       995      1042      3853      4003      4000
 -1      2010    8    0    1
 -2       981       964      1043      3798      4004      4005
 -1      2011    8    0    1
 -2       964      1029      1043      3962      4006      4004
 -1      2012    8    0    1
 -2       931       928       916      3862      3875      3637
 -1      2013    8    0    1
 -2       983       981      1044      3807      4007      4008
 -1      2014    8    0    1
 -2       981      1043      1044      4005      4009      4007
 -1      2015    8    0    1
 -2       987       926      1045      3823      4010      4011
 -1      2016    8    0    1
 -2       995       987      1045      3854      4011      4012
 -1      2017    8    0    1
 -2       926       997      1045      3860      4013      4010
 -1      2018    8    0    1
 -2       984       933      1046      3812      4014      4015
 -1      2019    8    0    1
 -2       933      1002      1046      3881      4016      4014
 -1      2020    8    0    1
 -2       936       994      1047      3872      4017      4018
 -1      2021    8    0    1
 -2       994       998      1047      3865      4019      4017
 -1      2022    8    0    1
 -2       896       982       988      3802      4020      3825
 -1      2023    8    0    1
 -2       930       991       990      3855      4021      3837
 -1      2024    8    0    1
 -2       963       983      1048      3851      4022      4023
 -1      2025    8    0    1
 -2       983      1044      1048      4008      4024      4022
 -1      2026    8    0    1
 -2       937       936      1047      3666      4018      4025
 -1      2027    8    0    1
 -2       986       934       988      3960      4026      4027
 -1      2028    8    0    1
 -2       908       988       934      3826      4026      3871
 -1      2029    8    0    1
 -2       935       905       993      3873      3845      4028
 -1      2030    8    0    1
 -2       919       989      1049      3834      4029      4030
 -1      2031    8    0    1
 -2       919      1049       998      4030      4031      3866
 -1      2032    8    0    1
 -2       989       990      1050      3836      4032      4033
 -1      2033    8    0    1
 -2       993       984      1051      3843      4034      4035
 -1      2034    8    0    1
 -2       984      1046      1051      4015      4036      4034
 -1      2035    8    0    1
 -2       992       963      1052      3840      4037      4038
 -1      2036    8    0    1
 -2       963      1048      1052      4023      4039      4037
 -1      2037    8    0    1
 -2       986       988       982      4027      4020      3870
 -1      2038    8    0    1
 -2       925       962       996      3882      4040      3857
 -1      2039    8    0    1
 -2       999       914       992      3869      3842      4041
 -1      2040    8    0    1
 -2      1003       937      1047      3883      4025      4042
 -1      2041    8    0    1
 -2       997       996      1053      3861      4043      4044
 -1      2042    8    0    1
 -2       985       999      1054      3868      4045      4046
 -1      2043    8    0    1
 -2       985      1054      1002      4046      4047      3880
 -1      2044    8    0    1
 -2       989      1050      1055      4033      4048      4049
 -1      2045    8    0    1
 -2       989      1055      1049      4049      4050      4029
 -1      2046    8    0    1
 -2      1053       996      1027      4043      4051      4052
 -1      2047    8    0    1
 -2      1027       996       962      4051      4040      3955
 -1      2048    8    0    1
 -2       990       991      1056      4021      4053      4054
 -1      2049    8    0    1
 -2      1050       990      1056      4032      4054      4055
 -1      2050    8    0    1
 -2       991      1000      1056      3877      4056      4053
 -1      2051    8    0    1
 -2      1044      1043      1057      4009      4057      4058
 -1      2052    8    0    1
 -2      1000       935       993      3876      4028      4059
 -1      2053    8    0    1
 -2      1028      1030      1058      3966      4060      4061
 -1      2054    8    0    1
 -2      1001      1028      1059      3959      4062      4063
 -1      2055    8    0    1
 -2      1028      1058      1059      4061      4064      4062
 -1      2056    8    0    1
 -2      1005      1004      1060      3890      4065      4066
 -1      2057    8    0    1
 -2      1006      1005      1061      3893      4067      4068
 -1      2058    8    0    1
 -2      1005      1060      1061      4066      4069      4067
 -1      2059    8    0    1
 -2      1007      1006      1062      3896      4070      4071
 -1      2060    8    0    1
 -2      1006      1061      1062      4068      4072      4070
 -1      2061    8    0    1
 -2      1008      1007      1063      3899      4073      4074
 -1      2062    8    0    1
 -2      1007      1062      1063      4071      4075      4073
 -1      2063    8    0    1
 -2      1009      1008      1064      3902      4076      4077
 -1      2064    8    0    1
 -2      1008      1063      1064      4074      4078      4076
 -1      2065    8    0    1
 -2      1010      1009      1065      3905      4079      4080
 -1      2066    8    0    1
 -2      1009      1064      1065      4077      4081      4079
 -1      2067    8    0    1
 -2      1011      1010      1066      3908      4082      4083
 -1      2068    8    0    1
 -2      1010      1065      1066      4080      4084      4082
 -1      2069    8    0    1
 -2      1012      1011      1067      3911      4085      4086
 -1      2070    8    0    1
 -2      1011      1066      1067      4083      4087      4085
 -1      2071    8    0    1
 -2      1013      1012      1068      3914      4088      4089
 -1      2072    8    0    1
 -2      1012      1067      1068      4086      4090      4088
 -1      2073    8    0    1
 -2      1014      1013      1069      3917      4091      4092
 -1      2074    8    0    1
 -2      1013      1068      1069      4089      4093      4091
 -1      2075    8    0    1
 -2      1015      1014      1070      3920      4094      4095
 -1      2076    8    0    1
 -2      1014      1069      1070      4092      4096      4094
 -1      2077    8    0    1
 -2      1016      1015      1071      3923      4097      4098
 -1      2078    8    0    1
 -2      1015      1070      1071      4095      4099      4097
 -1      2079    8    0    1
 -2      1017      1016      1072      3926      4100      4101
 -1      2080    8    0    1
 -2      1016      1071      1072      4098      4102      4100
 -1      2081    8    0    1
 -2      1018      1017      1073      3929      4103      4104
 -1      2082    8    0    1
 -2      1017      1072      1073      4101      4105      4103
 -1      2083    8    0    1
 -2      1019      1018      1074      3932      4106      4107
 -1      2084    8    0    1
 -2      1018      1073      1074      4104      4108      4106
 -1      2085    8    0    1
 -2      1020      1019      1075      3935      4109      4110
 -1      2086    8    0    1
 -2      1019      1074      1075      4107      4111      4109
 -1      2087    8    0    1
 -2      1021      1020      1076      3938      4112      4113
 -1      2088    8    0    1
 -2      1020      1075      1076      4110      4114      4112
 -1      2089    8    0    1
 -2      1022      1021      1077      3941      4115      4116
 -1      2090    8    0    1
 -2      1021      1076      1077      4113      4117      4115
 -1      2091    8    0    1
 -2      1023      1022      1078      3944      4118      4119
 -1      2092    8    0    1
 -2      1022      1077      1078      4116      4120      4118
 -1      2093    8    0    1
 -2      1024      1023      1079      3947      4121      4122
 -1      2094    8    0    1
 -2      1023      1078      1079      4119      4123      4121
 -1      2095    8    0    1
 -2      1025      1024      1080      3950      4124      4125
 -1      2096    8    0    1
 -2      1024      1079      1080      4122      4126      4124
 -1      2097    8    0    1
 -2      1026      1025      1081      3953      4127      4128
 -1      2098    8    0    1
 -2      1025      1080      1081      4125      4129      4127
 -1      2099    8    0    1
 -2      1027      1026      1082      3956      4130      4131
 -1      2100    8    0    1
 -2      1053      1027      1082      4052      4131      4132
 -1      2101    8    0    1
 -2      1026      1081      1082      4128      4133      4130
 -1      2102    8    0    1
 -2      1030      1031      1083      3969      4134      4135
 -1      2103    8    0    1
 -2      1030      1083      1058      4135      4136      4060
 -1      2104    8    0    1
 -2      1029      1001      1084      3963      4137      4138
 -1      2105    8    0    1
 -2      1001      1059      1084      4063      4139      4137
 -1      2106    8    0    1
 -2      1046      1002      1085      4016      4140      4141
 -1      2107    8    0    1
 -2      1031      1032      1086      3972      4142      4143
 -1      2108    8    0    1
 -2      1031      1086      1083      4143      4144      4134
 -1      2109    8    0    1
 -2      1032      1033      1087      3975      4145      4146
 -1      2110    8    0    1
 -2      1032      1087      1086      4146      4147      4142
 -1      2111    8    0    1
 -2      1033      1034      1088      3978      4148      4149
 -1      2112    8    0    1
 -2      1033      1088      1087      4149      4150      4145
 -1      2113    8    0    1
 -2      1034      1035      1089      3981      4151      4152
 -1      2114    8    0    1
 -2      1034      1089      1088      4152      4153      4148
 -1      2115    8    0    1
 -2      1035      1036      1090      3984      4154      4155
 -1      2116    8    0    1
 -2      1035      1090      1089      4155      4156      4151
 -1      2117    8    0    1
 -2      1036      1037      1091      3987      4157      4158
 -1      2118    8    0    1
 -2      1036      1091      1090      4158      4159      4154
 -1      2119    8    0    1
 -2      1037      1038      1092      3990      4160      4161
 -1      2120    8    0    1
 -2      1037      1092      1091      4161      4162      4157
 -1      2121    8    0    1
 -2      1038      1039      1093      3993      4163      4164
 -1      2122    8    0    1
 -2      1038      1093      1092      4164      4165      4160
 -1      2123    8    0    1
 -2      1039      1040      1094      3996      4166      4167
 -1      2124    8    0    1
 -2      1039      1094      1093      4167      4168      4163
 -1      2125    8    0    1
 -2      1040      1041      1095      3999      4169      4170
 -1      2126    8    0    1
 -2      1040      1095      1094      4170      4171      4166
 -1      2127    8    0    1
 -2      1043      1029      1096      4006      4172      4173
 -1      2128    8    0    1
 -2      1043      1096      1057      4173      4174      4057
 -1      2129    8    0    1
 -2       999       992      1097      4041      4175      4176
 -1      2130    8    0    1
 -2      1054       999      1097      4045      4176      4177
 -1      2131    8    0    1
 -2       992      1052      1097      4038      4178      4175
 -1      2132    8    0    1
 -2      1047       998      1049      4019      4031      4179
 -1      2133    8    0    1
 -2       997      1053      1098      4044      4180      4181
 -1      2134    8    0    1
 -2       997      1098      1045      4181      4182      4013
 -1      2135    8    0    1
 -2      1048      1044      1099      4024      4183      4184
 -1      2136    8    0    1
 -2      1044      1057      1099      4058      4185      4183
 -1      2137    8    0    1
 -2      1004      1003      1100      3887      4186      4187
 -1      2138    8    0    1
 -2      1004      1100      1060      4187      4188      4065
 -1      2139    8    0    1
 -2      1000       993      1051      4059      4035      4189
 -1      2140    8    0    1
 -2      1047      1049      1055      4179      4050      4190
 -1      2141    8    0    1
 -2      1047      1055      1003      4190      4191      4042
 -1      2142    8    0    1
 -2      1029      1084      1096      4138      4192      4172
 -1      2143    8    0    1
 -2      1046      1085      1101      4141      4193      4194
 -1      2144    8    0    1
 -2      1046      1101      1051      4194      4195      4036
 -1      2145    8    0    1
 -2      1052      1048      1102      4039      4196      4197
 -1      2146    8    0    1
 -2      1048      1099      1102      4184      4198      4196
 -1      2147    8    0    1
 -2      1000      1051      1056      4189      4199      4056
 -1      2148    8    0    1
 -2      1085      1002      1103      4140      4200      4201
 -1      2149    8    0    1
 -2      1002      1054      1103      4047      4202      4200
 -1      2150    8    0    1
 -2      1095      1041      1098      4169      4203      4204
 -1      2151    8    0    1
 -2      1042       995      1045      4003      4012      4205
 -1      2152    8    0    1
 -2      1055      1050      1104      4048      4206      4207
 -1      2153    8    0    1
 -2      1098      1053      1105      4180      4208      4209
 -1      2154    8    0    1
 -2      1095      1098      1105      4204      4209      4210
 -1      2155    8    0    1
 -2      1053      1082      1105      4132      4211      4208
 -1      2156    8    0    1
 -2      1058      1083      1106      4136      4212      4213
 -1      2157    8    0    1
 -2      1062      1061      1107      4072      4214      4215
 -1      2158    8    0    1
 -2      1063      1062      1108      4075      4216      4217
 -1      2159    8    0    1
 -2      1062      1107      1108      4215      4218      4216
 -1      2160    8    0    1
 -2      1064      1063      1109      4078      4219      4220
 -1      2161    8    0    1
 -2      1063      1108      1109      4217      4221      4219
 -1      2162    8    0    1
 -2      1065      1064      1102      4081      4222      4223
 -1      2163    8    0    1
 -2      1066      1065      1099      4084      4224      4225
 -1      2164    8    0    1
 -2      1067      1066      1057      4087      4226      4227
 -1      2165    8    0    1
 -2      1068      1067      1096      4090      4228      4229
 -1      2166    8    0    1
 -2      1069      1068      1084      4093      4230      4231
 -1      2167    8    0    1
 -2      1070      1069      1059      4096      4232      4233
 -1      2168    8    0    1
 -2      1072      1071      1106      4102      4234      4235
 -1      2169    8    0    1
 -2      1073      1072      1110      4105      4236      4237
 -1      2170    8    0    1
 -2      1074      1073      1087      4108      4238      4239
 -1      2171    8    0    1
 -2      1075      1074      1088      4111      4240      4241
 -1      2172    8    0    1
 -2      1076      1075      1089      4114      4242      4243
 -1      2173    8    0    1
 -2      1077      1076      1090      4117      4244      4245
 -1      2174    8    0    1
 -2      1078      1077      1091      4120      4246      4247
 -1      2175    8    0    1
 -2      1079      1078      1092      4123      4248      4249
 -1      2176    8    0    1
 -2      1080      1079      1093      4126      4250      4251
 -1      2177    8    0    1
 -2      1081      1080      1094      4129      4252      4253
 -1      2178    8    0    1
 -2      1082      1081      1105      4133      4254      4211
 -1      2179    8    0    1
 -2      1087      1088      1074      4150      4240      4239
 -1      2180    8    0    1
 -2      1084      1059      1069      4139      4232      4231
 -1      2181    8    0    1
 -2      1098      1041      1045      4203      4255      4182
 -1      2182    8    0    1
 -2      1083      1086      1110      4144      4256      4257
 -1      2183    8    0    1
 -2      1088      1089      1075      4153      4242      4241
 -1      2184    8    0    1
 -2      1089      1090      1076      4156      4244      4243
 -1      2185    8    0    1
 -2      1090      1091      1077      4159      4246      4245
 -1      2186    8    0    1
 -2      1091      1092      1078      4162      4248      4247
 -1      2187    8    0    1
 -2      1092      1093      1079      4165      4250      4249
 -1      2188    8    0    1
 -2      1093      1094      1080      4168      4252      4251
 -1      2189    8    0    1
 -2      1094      1095      1105      4171      4210      4258
 -1      2190    8    0    1
 -2      1057      1096      1067      4174      4228      4227
 -1      2191    8    0    1
 -2      1104      1050      1111      4206      4259      4260
 -1      2192    8    0    1
 -2      1060      1100      1101      4188      4261      4262
 -1      2193    8    0    1
 -2      1099      1065      1102      4224      4223      4198
 -1      2194    8    0    1
 -2      1003      1055      1100      4191      4263      4186
 -1      2195    8    0    1
 -2      1061      1060      1085      4069      4264      4265
 -1      2196    8    0    1
 -2      1096      1084      1068      4192      4230      4229
 -1      2197    8    0    1
 -2      1099      1057      1066      4185      4226      4225
 -1      2198    8    0    1
 -2      1111      1050      1056      4259      4055      4266
 -1      2199    8    0    1
 -2      1070      1059      1058      4233      4064      4267
 -1      2200    8    0    1
 -2      1081      1094      1105      4253      4258      4254
 -1      2201    8    0    1
 -2      1085      1060      1101      4264      4262      4193
 -1      2202    8    0    1
 -2      1110      1072      1106      4236      4235      4268
 -1      2203    8    0    1
 -2      1064      1109      1102      4220      4269      4222
 -1      2204    8    0    1
 -2      1111      1056      1051      4266      4199      4270
 -1      2205    8    0    1
 -2      1104      1111      1101      4260      4271      4272
 -1      2206    8    0    1
 -2      1071      1070      1106      4099      4273      4234
 -1      2207    8    0    1
 -2      1051      1101      1111      4195      4271      4270
 -1      2208    8    0    1
 -2      1106      1083      1110      4212      4257      4268
 -1      2209    8    0    1
 -2      1087      1073      1110      4238      4237      4274
 -1      2210    8    0    1
 -2      1058      1106      1070      4213      4273      4267
 -1      2211    8    0    1
 -2      1061      1085      1107      4265      4275      4214
 -1      2212    8    0    1
 -2      1085      1103      1107      4201      4276      4275
 -1      2213    8    0    1
 -2      1052      1102      1112      4197      4277      4278
 -1      2214    8    0    1
 -2      1097      1052      1112      4178      4278      4279
 -1      2215    8    0    1
 -2      1102      1109      1112      4269      4280      4277
 -1      2216    8    0    1
 -2      1086      1087      1110      4147      4274      4256
 -1      2217    8    0    1
 -2      1054      1097      1113      4177      4281      4282
 -1      2218    8    0    1
 -2      1103      1054      1113      4202      4282      4283
 -1      2219    8    0    1
 -2      1097      1112      1113      4279      4284      4281
 -1      2220    8    0    1
 -2      1108      1107      1103      4218      4276      4285
 -1      2221    8    0    1
 -2      1100      1055      1104      4263      4207      4286
 -1      2222    8    0    1
 -2      1109      1108      1112      4221      4287      4280
 -1      2223    8    0    1
 -2      1100      1104      1101      4286      4272      4261
 -1      2224    8    0    1
 -2      1045      1041      1042      4255      4002      4205
 -1      2225    8    0    1
 -2      1108      1103      1113      4285      4283      4288
 -1      2226    8    0    1
 -2      1112      1108      1113      4287      4288      4284
 -3
    1PSTEP                         1           1           1          
  100CL  101 1.000000000        4288                     0    1           1
 -4  DISP        4    1
 -5  D1          1    2    1    0
 -5  D2          1    2    2    0
 -5  D3          1    2    3    0
 -5  ALL         1    2    0    0    1ALL
 -1         1 3.68760E-03-8.56866E-05-9.49371E-15
 -1         2 6.28218E-03 9.29389E-04-1.32396E-14
 -1         3 1.65861E-02 6.73015E-03-1.45461E-13
 -1         4 1.40049E-02 5.30126E-03-1.56571E-13
 -1         5 0.00000E+00 0.00000E+00 0.00000E+00
 -1         6 0.00000E+00 0.00000E+00 0.00000E+00
 -1         7 0.00000E+00 0.00000E+00 0.00000E+00
 -1         8 0.00000E+00 0.00000E+00 0.00000E+00
 -1         9 0.00000E+00 0.00000E+00 0.00000E+00
 -1        10 0.00000E+00 0.00000E+00 0.00000E+00
 -1        11 0.00000E+00 0.00000E+00 0.00000E+00
 -1        12 0.00000E+00 0.00000E+00 0.00000E+00
 -1        13 0.00000E+00 0.00000E+00 0.00000E+00
 -1        14 0.00000E+00 0.00000E+00 0.00000E+00
 -1        15 0.00000E+00 0.00000E+00 0.00000E+00
 -1        16 0.00000E+00 0.00000E+00 0.00000E+00
 -1        17 0.00000E+00 0.00000E+00 0.00000E+00
 -1        18 0.00000E+00 0.00000E+00 0.00000E+00
 -1        19 0.00000E+00 0.00000E+00 0.00000E+00
 -1        20 0.00000E+00 0.00000E+00 0.00000E+00
 -1        21 0.00000E+00 0.00000E+00 0.00000E+00
 -1        22 0.00000E+00 0.00000E+00 0.00000E+00
 -1        23 4.24674E-04-2.64175E-04 9.89673E-18
 -1        24 7.29840E-04-4.06160E-04-1.99415E-16
 -1        25 1.01345E-03-5.08241E-04-6.17487E-16
 -1        26 1.28959E-03-5.85618E-04-1.23635E-15
 -1        27 1.56015E-03-6.46795E-04-2.04917E-15
 -1        28 1.82430E-03-6.94865E-04-3.05109E-15
 -1        29 2.08034E-03-7.29519E-04-4.24086E-15
 -1        30 2.32691E-03-7.47872E-04-5.61334E-15
 -1        31 2.56398E-03-7.45424E-04-7.16740E-15
 -1        32 2.79346E-03-7.17398E-04-8.89838E-15
 -1        33 3.01920E-03-6.60274E-04-1.07986E-14
 -1        34 3.24628E-03-5.73085E-04-1.28586E-14
 -1        35 3.47978E-03-4.57974E-04-1.50751E-14
 -1        36 3.72361E-03-3.19781E-04-1.74429E-14
 -1        37 3.97969E-03-1.64899E-04-1.99524E-14
 -1        38 4.24791E-03 1.14196E-07-2.25999E-14
 -1        39 4.52654E-03 1.69644E-04-2.53778E-14
 -1        40 4.81303E-03 3.39610E-04-2.82856E-14
 -1        41 5.10466E-03 5.07538E-04-3.13097E-14
 -1        42 5.39904E-03 6.72298E-04-3.44449E-14
 -1        43 5.69433E-03 8.33705E-04-3.76941E-14
 -1        44 5.98930E-03 9.92128E-04-4.10545E-14
 -1        45 6.28321E-03 1.14819E-03-4.45210E-14
 -1        46 6.57574E-03 1.30256E-03-4.80849E-14
 -1        47 6.86684E-03 1.45585E-03-5.17391E-14
 -1        48 7.15661E-03 1.60854E-03-5.54786E-14
 -1        49 7.44523E-03 1.76100E-03-5.93050E-14
 -1        50 7.73293E-03 1.91348E-03-6.32095E-14
 -1        51 8.01991E-03 2.06613E-03-6.71826E-14
 -1        52 8.30635E-03 2.21904E-03-7.12191E-14
 -1        53 8.59241E-03 2.37223E-03-7.53131E-14
 -1        54 8.87821E-03 2.52572E-03-7.94548E-14
 -1        55 9.16385E-03 2.67947E-03-8.36358E-14
 -1        56 9.44939E-03 2.83346E-03-8.78550E-14
 -1        57 9.73489E-03 2.98765E-03-9.21042E-14
 -1        58 1.00204E-02 3.14201E-03-9.63826E-14
 -1        59 1.03059E-02 3.29650E-03-1.00686E-13
 -1        60 1.05914E-02 3.45110E-03-1.04991E-13
 -1        61 1.08769E-02 3.60578E-03-1.09297E-13
 -1        62 1.11625E-02 3.76053E-03-1.13619E-13
 -1        63 1.14480E-02 3.91532E-03-1.17953E-13
 -1        64 1.17337E-02 4.07014E-03-1.22286E-13
 -1        65 1.20193E-02 4.22498E-03-1.26629E-13
 -1        66 1.23050E-02 4.37984E-03-1.30967E-13
 -1        67 1.25906E-02 4.53470E-03-1.35300E-13
 -1        68 1.28763E-02 4.68957E-03-1.39619E-13
 -1        69 1.31620E-02 4.84444E-03-1.43906E-13
 -1        70 1.34477E-02 4.99929E-03-1.48178E-13
 -1        71 1.37334E-02 5.15415E-03-1.52468E-13
 -1        72 4.40938E-04 2.43606E-04 1.00309E-16
 -1        73 7.79699E-04 3.65302E-04 6.86740E-17
 -1        74 1.12082E-03 4.53743E-04-9.68904E-17
 -1        75 1.48131E-03 5.34719E-04-4.03201E-16
 -1        76 1.87361E-03 6.28934E-04-8.52650E-16
 -1        77 2.30639E-03 7.62096E-04-1.44780E-15
 -1        78 2.77803E-03 9.65788E-04-2.19004E-15
 -1        79 3.28810E-03 1.28400E-03-3.12876E-15
 -1        80 3.73092E-03 1.67093E-03-4.19842E-15
 -1        81 4.04313E-03 2.00817E-03-5.32113E-15
 -1        82 4.27363E-03 2.21390E-03-6.61841E-15
 -1        83 4.49031E-03 2.21405E-03-8.10676E-15
 -1        84 4.81311E-03 2.02678E-03-9.97558E-15
 -1        85 5.24796E-03 1.79560E-03-1.20500E-14
 -1        86 5.74172E-03 1.63930E-03-1.42876E-14
 -1        87 6.23268E-03 1.58950E-03-1.66518E-14
 -1        88 6.68852E-03 1.62710E-03-1.91252E-14
 -1        89 7.10250E-03 1.72220E-03-2.17004E-14
 -1        90 7.48005E-03 1.85084E-03-2.43794E-14
 -1        91 7.84658E-03 2.00523E-03-2.73132E-14
 -1        92 8.17528E-03 2.16140E-03-3.01930E-14
 -1        93 8.49020E-03 2.32153E-03-3.31751E-14
 -1        94 8.79562E-03 2.48309E-03-3.62616E-14
 -1        95 9.09453E-03 2.64478E-03-3.94437E-14
 -1        96 9.38899E-03 2.80599E-03-4.27146E-14
 -1        97 9.68040E-03 2.96646E-03-4.60747E-14
 -1        98 9.96974E-03 3.12613E-03-4.95212E-14
 -1        99 1.02720E-02 3.29294E-03-5.32400E-14
 -1       100 1.05590E-02 3.45107E-03-5.68911E-14
 -1       101 1.08453E-02 3.60859E-03-6.06452E-14
 -1       102 1.11312E-02 3.76557E-03-6.44973E-14
 -1       103 1.14169E-02 3.92210E-03-6.84564E-14
 -1       104 1.17025E-02 4.07826E-03-7.25034E-14
 -1       105 1.19879E-02 4.23412E-03-7.66215E-14
 -1       106 1.22877E-02 4.39751E-03-8.09972E-14
 -1       107 1.25731E-02 4.55293E-03-8.51988E-14
 -1       108 1.28586E-02 4.70820E-03-8.94262E-14
 -1       109 1.31440E-02 4.86336E-03-9.36597E-14
 -1       110 1.34296E-02 5.01842E-03-9.78888E-14
 -1       111 1.37151E-02 5.17343E-03-1.02127E-13
 -1       112 1.40007E-02 5.32839E-03-1.06357E-13
 -1       113 1.42863E-02 5.48331E-03-1.10597E-13
 -1       114 1.45862E-02 5.64596E-03-1.15076E-13
 -1       115 1.48719E-02 5.80085E-03-1.19369E-13
 -1       116 1.51576E-02 5.95573E-03-1.23693E-13
 -1       117 1.54432E-02 6.11060E-03-1.28023E-13
 -1       118 1.57289E-02 6.26548E-03-1.32373E-13
 -1       119 1.60147E-02 6.42037E-03-1.36720E-13
 -1       120 1.63004E-02 6.57526E-03-1.41072E-13
 -1       121 1.64338E-02 6.64587E-03-1.46203E-13
 -1       122 1.62814E-02 6.56158E-03-1.46957E-13
 -1       123 1.61291E-02 6.47729E-03-1.47696E-13
 -1       124 1.59768E-02 6.39299E-03-1.48412E-13
 -1       125 1.58245E-02 6.30869E-03-1.49119E-13
 -1       126 1.56747E-02 6.22580E-03-1.49793E-13
 -1       127 1.55224E-02 6.14148E-03-1.50454E-13
 -1       128 1.53701E-02 6.05715E-03-1.51060E-13
 -1       129 1.52178E-02 5.97283E-03-1.51654E-13
 -1       130 1.50655E-02 5.88850E-03-1.52242E-13
 -1       131 1.49133E-02 5.80418E-03-1.52844E-13
 -1       132 1.47636E-02 5.72129E-03-1.53445E-13
 -1       133 1.46113E-02 5.63699E-03-1.54055E-13
 -1       134 1.44591E-02 5.55269E-03-1.54676E-13
 -1       135 1.43068E-02 5.46840E-03-1.55321E-13
 -1       136 1.41546E-02 5.38411E-03-1.55958E-13
 -1       137 6.30304E-03 1.11417E-03-1.29639E-14
 -1       138 6.21628E-03 1.30398E-03-1.24734E-14
 -1       139 6.03299E-03 1.48085E-03-1.18458E-14
 -1       140 5.74001E-03 1.65433E-03-1.10673E-14
 -1       141 5.34744E-03 1.80582E-03-1.01997E-14
 -1       142 4.79725E-03 1.92625E-03-9.15882E-15
 -1       143 4.28162E-03 1.95621E-03-8.31769E-15
 -1       144 3.71223E-03 1.90368E-03-7.47983E-15
 -1       145 3.14682E-03 1.76525E-03-6.72592E-15
 -1       146 2.61891E-03 1.55950E-03-6.08506E-15
 -1       147 2.18762E-03 1.33125E-03-5.61221E-15
 -1       148 1.87088E-03 1.11226E-03-5.30825E-15
 -1       149 1.64843E-03 9.01126E-04-5.14010E-15
 -1       150 1.51555E-03 6.90614E-04-5.10797E-15
 -1       151 1.49123E-03 5.05409E-04-5.21681E-15
 -1       152 1.56283E-03 3.44392E-04-5.45741E-15
 -1       153 1.72669E-03 1.99562E-04-5.83179E-15
 -1       154 1.99057E-03 7.49067E-05-6.36078E-15
 -1       155 2.33783E-03-2.04188E-05-7.02054E-15
 -1       156 2.73612E-03-7.87961E-05-7.75673E-15
 -1       157 3.21115E-03-1.02403E-04-8.62837E-15
 -1       158 4.13899E-03-3.69579E-05-1.03033E-14
 -1       159 4.61263E-03 4.97078E-05-1.11407E-14
 -1       160 5.02027E-03 1.54744E-04-1.18280E-14
 -1       161 5.41089E-03 2.89845E-04-1.24468E-14
 -1       162 5.72653E-03 4.33286E-04-1.28956E-14
 -1       163 5.98761E-03 5.92648E-04-1.31949E-14
 -1       164 6.17238E-03 7.56609E-04-1.33104E-14
 -1       165 2.49253E-04-1.23913E-04-6.06476E-17
 -1       166 2.33204E-04-8.99980E-05-8.07527E-17
 -1       167 2.26441E-04-6.44719E-05-8.91180E-17
 -1       168 2.21962E-04-4.23496E-05-9.19132E-17
 -1       169 2.17688E-04-2.25731E-05-9.15948E-17
 -1       170 2.12603E-04-4.49346E-06-8.95822E-17
 -1       171 2.06639E-04 1.08096E-05-8.69937E-17
 -1       172 2.00396E-04 2.24169E-05-8.42357E-17
 -1       173 1.95181E-04 2.97957E-05-8.04071E-17
 -1       174 1.92784E-04 3.33904E-05-7.56502E-17
 -1       175 1.94891E-04 3.49944E-05-6.93110E-17
 -1       176 2.02730E-04 3.77961E-05-6.01698E-17
 -1       177 2.16488E-04 4.59108E-05-4.66512E-17
 -1       178 2.35697E-04 6.41111E-05-2.62275E-17
 -1       179 2.61909E-04 9.89965E-05 5.23805E-18
 -1       180 3.28209E-04 1.61194E-04 4.00545E-17
 -1       181 4.86453E-04-2.64251E-04-1.60076E-16
 -1       182 7.96771E-04-3.85775E-04-5.00180E-16
 -1       183 1.09187E-03-4.75724E-04-1.03148E-15
 -1       184 1.37818E-03-5.45954E-04-1.75166E-15
 -1       185 1.65759E-03-6.02094E-04-2.65741E-15
 -1       186 1.93038E-03-6.45641E-04-3.74692E-15
 -1       187 2.19626E-03-6.74860E-04-5.01773E-15
 -1       188 2.45518E-03-6.85647E-04-6.46706E-15
 -1       189 2.70803E-03-6.72748E-04-8.09239E-15
 -1       190 2.95690E-03-6.31374E-04-9.88913E-15
 -1       191 3.20486E-03-5.58867E-04-1.18505E-14
 -1       192 3.45538E-03-4.55805E-04-1.39694E-14
 -1       193 3.71149E-03-3.26078E-04-1.62428E-14
 -1       194 3.97512E-03-1.75944E-04-1.86624E-14
 -1       195 4.24687E-03-1.25200E-05-2.12221E-14
 -1       196 4.52607E-03 1.57648E-04-2.39133E-14
 -1       197 4.81132E-03 3.29498E-04-2.67340E-14
 -1       198 5.10084E-03 4.99748E-04-2.96789E-14
 -1       199 5.39295E-03 6.66725E-04-3.27390E-14
 -1       200 5.68624E-03 8.29949E-04-3.59110E-14
 -1       201 5.97964E-03 9.89691E-04-3.91937E-14
 -1       202 6.27250E-03 1.14659E-03-4.25826E-14
 -1       203 6.56443E-03 1.30140E-03-4.60751E-14
 -1       204 6.85529E-03 1.45482E-03-4.96609E-14
 -1       205 7.14508E-03 1.60745E-03-5.33338E-14
 -1       206 7.43390E-03 1.75972E-03-5.70924E-14
 -1       207 7.72189E-03 1.91195E-03-6.09325E-14
 -1       208 8.00920E-03 2.06433E-03-6.48488E-14
 -1       209 8.29598E-03 2.21698E-03-6.88288E-14
 -1       210 8.58235E-03 2.36993E-03-7.28709E-14
 -1       211 8.86843E-03 2.52321E-03-7.69640E-14
 -1       212 9.15431E-03 2.67679E-03-8.11035E-14
 -1       213 9.44005E-03 2.83064E-03-8.52863E-14
 -1       214 9.72571E-03 2.98472E-03-8.95055E-14
 -1       215 1.00113E-02 3.13899E-03-9.37560E-14
 -1       216 1.02969E-02 3.29342E-03-9.80320E-14
 -1       217 1.05825E-02 3.44798E-03-1.02324E-13
 -1       218 1.08681E-02 3.60262E-03-1.06621E-13
 -1       219 1.11537E-02 3.75734E-03-1.10926E-13
 -1       220 1.14393E-02 3.91212E-03-1.15241E-13
 -1       221 1.17249E-02 4.06693E-03-1.19562E-13
 -1       222 1.20106E-02 4.22177E-03-1.23889E-13
 -1       223 1.22962E-02 4.37663E-03-1.28226E-13
 -1       224 1.25819E-02 4.53149E-03-1.32561E-13
 -1       225 1.28676E-02 4.68636E-03-1.36891E-13
 -1       226 1.31533E-02 4.84123E-03-1.41193E-13
 -1       227 1.34390E-02 4.99609E-03-1.45482E-13
 -1       228 1.37247E-02 5.15095E-03-1.49768E-13
 -1       229 6.76732E-04 2.82526E-04-2.34289E-17
 -1       230 1.02044E-03 3.70903E-04-2.13649E-16
 -1       231 1.37088E-03 4.47551E-04-5.39621E-16
 -1       232 1.73820E-03 5.33134E-04-1.00528E-15
 -1       233 2.12939E-03 6.53415E-04-1.61245E-15
 -1       234 2.54681E-03 8.41796E-04-2.36509E-15
 -1       235 3.00646E-03 1.14836E-03-3.31827E-15
 -1       236 3.44466E-03 1.54140E-03-4.39828E-15
 -1       237 3.81683E-03 1.90472E-03-5.53274E-15
 -1       238 4.16027E-03 2.14304E-03-6.83793E-15
 -1       239 4.49584E-03 2.15784E-03-8.32633E-15
 -1       240 4.89617E-03 1.95991E-03-1.01882E-14
 -1       241 5.33217E-03 1.71064E-03-1.22496E-14
 -1       242 5.77957E-03 1.54339E-03-1.44798E-14
 -1       243 6.21373E-03 1.49069E-03-1.68436E-14
 -1       244 6.62260E-03 1.52998E-03-1.93229E-14
 -1       245 7.00416E-03 1.62850E-03-2.19087E-14
 -1       246 7.36148E-03 1.76077E-03-2.45929E-14
 -1       247 7.71579E-03 1.91850E-03-2.75182E-14
 -1       248 8.03819E-03 2.07721E-03-3.04021E-14
 -1       249 8.34985E-03 2.23931E-03-3.33857E-14
 -1       250 8.65375E-03 2.40234E-03-3.64736E-14
 -1       251 8.95212E-03 2.56513E-03-3.96593E-14
 -1       252 9.24655E-03 2.72715E-03-4.29359E-14
 -1       253 9.53820E-03 2.88822E-03-4.63035E-14
 -1       254 9.82788E-03 3.04832E-03-4.97566E-14
 -1       255 1.01306E-02 3.21546E-03-5.34786E-14
 -1       256 1.04179E-02 3.37382E-03-5.71295E-14
 -1       257 1.07046E-02 3.53150E-03-6.08819E-14
 -1       258 1.09908E-02 3.68860E-03-6.47271E-14
 -1       259 1.12767E-02 3.84521E-03-6.86665E-14
 -1       260 1.15625E-02 4.00143E-03-7.26917E-14
 -1       261 1.18481E-02 4.15733E-03-7.67946E-14
 -1       262 1.21480E-02 4.32075E-03-8.11499E-14
 -1       263 1.24336E-02 4.47619E-03-8.53367E-14
 -1       264 1.27191E-02 4.63146E-03-8.95512E-14
 -1       265 1.30047E-02 4.78662E-03-9.37792E-14
 -1       266 1.32902E-02 4.94169E-03-9.80114E-14
 -1       267 1.35758E-02 5.09670E-03-1.02252E-13
 -1       268 1.38614E-02 5.25165E-03-1.06495E-13
 -1       269 1.41471E-02 5.40658E-03-1.10739E-13
 -1       270 1.44470E-02 5.56922E-03-1.15219E-13
 -1       271 1.47327E-02 5.72411E-03-1.19511E-13
 -1       272 1.50183E-02 5.87898E-03-1.23829E-13
 -1       273 1.53040E-02 6.03386E-03-1.28161E-13
 -1       274 1.55897E-02 6.18874E-03-1.32508E-13
 -1       275 1.58754E-02 6.34362E-03-1.36865E-13
 -1       276 1.61611E-02 6.49851E-03-1.41227E-13
 -1       277 1.61102E-02 6.46958E-03-1.42781E-13
 -1       278 1.59579E-02 6.38529E-03-1.43520E-13
 -1       279 1.58055E-02 6.30100E-03-1.44244E-13
 -1       280 1.56532E-02 6.21670E-03-1.44954E-13
 -1       281 1.55035E-02 6.13382E-03-1.45632E-13
 -1       282 1.53511E-02 6.04951E-03-1.46304E-13
 -1       283 1.51988E-02 5.96519E-03-1.46950E-13
 -1       284 1.50465E-02 5.88087E-03-1.47571E-13
 -1       285 1.48942E-02 5.79655E-03-1.48179E-13
 -1       286 1.47420E-02 5.71223E-03-1.48790E-13
 -1       287 1.45923E-02 5.62935E-03-1.49393E-13
 -1       288 1.44400E-02 5.54504E-03-1.50015E-13
 -1       289 1.42878E-02 5.46074E-03-1.50641E-13
 -1       290 1.41355E-02 5.37645E-03-1.51267E-13
 -1       291 1.39301E-02 5.26370E-03-1.50518E-13
 -1       292 6.33578E-03 1.02665E-03-1.41294E-14
 -1       293 6.27315E-03 1.12504E-03-1.37615E-14
 -1       294 6.07283E-03 1.26334E-03-1.29314E-14
 -1       295 5.76558E-03 1.43782E-03-1.20398E-14
 -1       296 5.37739E-03 1.65140E-03-1.10059E-14
 -1       297 4.90773E-03 1.88117E-03-9.85580E-15
 -1       298 4.47512E-03 2.02329E-03-8.69256E-15
 -1       299 4.05631E-03 2.03570E-03-7.68694E-15
 -1       300 3.61618E-03 1.88438E-03-6.74952E-15
 -1       301 3.13962E-03 1.59995E-03-5.94394E-15
 -1       302 2.63937E-03 1.27650E-03-5.34105E-15
 -1       303 2.16970E-03 1.02751E-03-5.01956E-15
 -1       304 1.81360E-03 8.33259E-04-4.80992E-15
 -1       305 1.56890E-03 6.74301E-04-4.68436E-15
 -1       306 1.46307E-03 5.67529E-04-4.75905E-15
 -1       307 1.49843E-03 4.78443E-04-4.83656E-15
 -1       308 1.66684E-03 3.78555E-04-5.24609E-15
 -1       309 1.94899E-03 2.65635E-04-5.68642E-15
 -1       310 2.29652E-03 1.13363E-04-6.38653E-15
 -1       311 2.67215E-03-2.77012E-05-7.18447E-15
 -1       312 3.07555E-03-1.36944E-04-8.08771E-15
 -1       313 3.46528E-03-1.77199E-04-9.11370E-15
 -1       314 3.84074E-03-1.35505E-04-1.01032E-14
 -1       315 4.21462E-03-2.57439E-05-1.11456E-14
 -1       316 4.62887E-03 1.41856E-04-1.20254E-14
 -1       317 5.02308E-03 3.37080E-04-1.28833E-14
 -1       318 5.42553E-03 5.21439E-04-1.35039E-14
 -1       319 5.77687E-03 6.86327E-04-1.39761E-14
 -1       320 6.06321E-03 8.21509E-04-1.42410E-14
 -1       321 6.25701E-03 9.33992E-04-1.43445E-14
 -1       322 4.72389E-04-1.55095E-04-3.02140E-16
 -1       323 4.92426E-04-2.09041E-04-2.73988E-16
 -1       324 4.51431E-04-6.82097E-05-3.15964E-16
 -1       325 4.41140E-04-3.04834E-05-3.12531E-16
 -1       326 4.28529E-04 3.07599E-06-3.05803E-16
 -1       327 4.13923E-04 3.09856E-05-2.96987E-16
 -1       328 3.99457E-04 5.17975E-05-2.86074E-16
 -1       329 3.88922E-04 6.51936E-05-2.72653E-16
 -1       330 3.86851E-04 7.29086E-05-2.55926E-16
 -1       331 3.97093E-04 7.95787E-05-2.33781E-16
 -1       332 4.21700E-04 9.16107E-05-2.03786E-16
 -1       333 4.60133E-04 1.16771E-04-1.62203E-16
 -1       334 5.11434E-04 1.63037E-04-1.04334E-16
 -1       335 5.87777E-04 2.16921E-04-7.24315E-17
 -1       336 9.19244E-04 3.04465E-04-2.78525E-16
 -1       337 8.97684E-04-3.59654E-04-8.22435E-16
 -1       338 1.19576E-03-4.37931E-04-1.45677E-15
 -1       339 1.48876E-03-5.01125E-04-2.27227E-15
 -1       340 1.77691E-03-5.52254E-04-3.26572E-15
 -1       341 2.05989E-03-5.91012E-04-4.43789E-15
 -1       342 2.33728E-03-6.14151E-04-5.78588E-15
 -1       343 2.60908E-03-6.16325E-04-7.30775E-15
 -1       344 2.87625E-03-5.91600E-04-9.00229E-15
 -1       345 3.14090E-03-5.35427E-04-1.08636E-14
 -1       346 3.40592E-03-4.46419E-04-1.28858E-14
 -1       347 3.67416E-03-3.27128E-04-1.50652E-14
 -1       348 3.94760E-03-1.83436E-04-1.73954E-14
 -1       349 4.22694E-03-2.29388E-05-1.98686E-14
 -1       350 4.51169E-03 1.46868E-04-2.24753E-14
 -1       351 4.80063E-03 3.19893E-04-2.52105E-14
 -1       352 5.09231E-03 4.92001E-04-2.80719E-14
 -1       353 5.38539E-03 6.60929E-04-3.10544E-14
 -1       354 5.67884E-03 8.25857E-04-3.41513E-14
 -1       355 5.97195E-03 9.86906E-04-3.73599E-14
 -1       356 6.26430E-03 1.14470E-03-4.06723E-14
 -1       357 6.55570E-03 1.30002E-03-4.40909E-14
 -1       358 6.84610E-03 1.45367E-03-4.76072E-14
 -1       359 7.13556E-03 1.60631E-03-5.12152E-14
 -1       360 7.42417E-03 1.75845E-03-5.49086E-14
 -1       361 7.71206E-03 1.91047E-03-5.86862E-14
 -1       362 7.99936E-03 2.06261E-03-6.25412E-14
 -1       363 8.28620E-03 2.21500E-03-6.64676E-14
 -1       364 8.57267E-03 2.36773E-03-7.04563E-14
 -1       365 8.85887E-03 2.52079E-03-7.45004E-14
 -1       366 9.14487E-03 2.67419E-03-7.85944E-14
 -1       367 9.43073E-03 2.82789E-03-8.27380E-14
 -1       368 9.71649E-03 2.98185E-03-8.69251E-14
 -1       369 1.00022E-02 3.13603E-03-9.11454E-14
 -1       370 1.02879E-02 3.29038E-03-9.53910E-14
 -1       371 1.05735E-02 3.44488E-03-9.96635E-14
 -1       372 1.08592E-02 3.59949E-03-1.03952E-13
 -1       373 1.11448E-02 3.75418E-03-1.08245E-13
 -1       374 1.14305E-02 3.90893E-03-1.12546E-13
 -1       375 1.17161E-02 4.06373E-03-1.16855E-13
 -1       376 1.20018E-02 4.21856E-03-1.21171E-13
 -1       377 1.22874E-02 4.37341E-03-1.25498E-13
 -1       378 1.25731E-02 4.52828E-03-1.29828E-13
 -1       379 1.28588E-02 4.68315E-03-1.34158E-13
 -1       380 1.31445E-02 4.83802E-03-1.38473E-13
 -1       381 1.34302E-02 4.99289E-03-1.42775E-13
 -1       382 1.36802E-02 5.12830E-03-1.46644E-13
 -1       383 1.25304E-03 3.78945E-04-6.16311E-16
 -1       384 1.59490E-03 4.58427E-04-1.09137E-15
 -1       385 1.95169E-03 5.66568E-04-1.70591E-15
 -1       386 2.33138E-03 7.35268E-04-2.46302E-15
 -1       387 2.76373E-03 1.01680E-03-3.41727E-15
 -1       388 3.20943E-03 1.40125E-03-4.49523E-15
 -1       389 3.62542E-03 1.78934E-03-5.62615E-15
 -1       390 4.03907E-03 2.07378E-03-6.92793E-15
 -1       391 4.44902E-03 2.11496E-03-8.41057E-15
 -1       392 4.91212E-03 1.90630E-03-1.02624E-14
 -1       393 5.37362E-03 1.63971E-03-1.23173E-14
 -1       394 5.81000E-03 1.46592E-03-1.45419E-14
 -1       395 6.21251E-03 1.41281E-03-1.69026E-14
 -1       396 6.58585E-03 1.45286E-03-1.93817E-14
 -1       397 6.93732E-03 1.55216E-03-2.19675E-14
 -1       398 7.27255E-03 1.68523E-03-2.46514E-14
 -1       399 7.61133E-03 1.84386E-03-2.75736E-14
 -1       400 7.92433E-03 2.00344E-03-3.04557E-14
 -1       401 8.23017E-03 2.16635E-03-3.34388E-14
 -1       402 8.53057E-03 2.33010E-03-3.65235E-14
 -1       403 8.82690E-03 2.49350E-03-3.97073E-14
 -1       404 9.12020E-03 2.65602E-03-4.29857E-14
 -1       405 9.41126E-03 2.81748E-03-4.63553E-14
 -1       406 9.70069E-03 2.97790E-03-4.98102E-14
 -1       407 1.00033E-02 3.14529E-03-5.35338E-14
 -1       408 1.02907E-02 3.30384E-03-5.71796E-14
 -1       409 1.05775E-02 3.46166E-03-6.09256E-14
 -1       410 1.08638E-02 3.61887E-03-6.47621E-14
 -1       411 1.11499E-02 3.77557E-03-6.86847E-14
 -1       412 1.14358E-02 3.93185E-03-7.26973E-14
 -1       413 1.17215E-02 4.08779E-03-7.67819E-14
 -1       414 1.20215E-02 4.25124E-03-8.11237E-14
 -1       415 1.23071E-02 4.40670E-03-8.52964E-14
 -1       416 1.25927E-02 4.56199E-03-8.95008E-14
 -1       417 1.28783E-02 4.71716E-03-9.37238E-14
 -1       418 1.31639E-02 4.87223E-03-9.79591E-14
 -1       419 1.34496E-02 5.02724E-03-1.02200E-13
 -1       420 1.37352E-02 5.18220E-03-1.06447E-13
 -1       421 1.40208E-02 5.33712E-03-1.10698E-13
 -1       422 1.43208E-02 5.49976E-03-1.15175E-13
 -1       423 1.46065E-02 5.65465E-03-1.19464E-13
 -1       424 1.48921E-02 5.80952E-03-1.23778E-13
 -1       425 1.51778E-02 5.96440E-03-1.28116E-13
 -1       426 1.54635E-02 6.11927E-03-1.32463E-13
 -1       427 1.57492E-02 6.27415E-03-1.36826E-13
 -1       428 1.59297E-02 6.37187E-03-1.39799E-13
 -1       429 1.54819E-02 6.12471E-03-1.40796E-13
 -1       430 1.56343E-02 6.20901E-03-1.40079E-13
 -1       431 1.57820E-02 6.29044E-03-1.39943E-13
 -1       432 1.53322E-02 6.04184E-03-1.41485E-13
 -1       433 1.51799E-02 5.95753E-03-1.42161E-13
 -1       434 1.50275E-02 5.87322E-03-1.42821E-13
 -1       435 1.48752E-02 5.78891E-03-1.43465E-13
 -1       436 1.47229E-02 5.70459E-03-1.44096E-13
 -1       437 1.45707E-02 5.62028E-03-1.44721E-13
 -1       438 1.44210E-02 5.53740E-03-1.45336E-13
 -1       439 1.42687E-02 5.45309E-03-1.45965E-13
 -1       440 1.41165E-02 5.36879E-03-1.46597E-13
 -1       441 1.39642E-02 5.28449E-03-1.47230E-13
 -1       442 6.17307E-03 1.15990E-03-1.41369E-14
 -1       443 6.33135E-03 1.02368E-03-1.54205E-14
 -1       444 6.34686E-03 1.06696E-03-1.50269E-14
 -1       445 5.90059E-03 1.29187E-03-1.32054E-14
 -1       446 5.52676E-03 1.49754E-03-1.20313E-14
 -1       447 4.60729E-04-1.09261E-04-3.13663E-16
 -1       448 4.62296E-03 2.02055E-03-9.15623E-15
 -1       449 3.91604E-03 2.01517E-03-6.96542E-15
 -1       450 3.48960E-03 1.74976E-03-5.98755E-15
 -1       451 2.99069E-03 1.37689E-03-5.20356E-15
 -1       452 2.44811E-03 1.00164E-03-4.59374E-15
 -1       453 2.02816E-03 7.94071E-04-4.40372E-15
 -1       454 1.70633E-03 6.41036E-04-4.21933E-15
 -1       455 1.48293E-03 5.47085E-04-4.19863E-15
 -1       456 1.43938E-03 5.01471E-04-4.25778E-15
 -1       457 1.57897E-03 4.40304E-04-4.61281E-15
 -1       458 1.79757E-03 3.64954E-04-5.00151E-15
 -1       459 2.17578E-03 2.16988E-04-5.67749E-15
 -1       460 2.54570E-03 5.50244E-05-6.51071E-15
 -1       461 2.87535E-03-8.13293E-05-7.35006E-15
 -1       462 3.28556E-03-2.00955E-04-8.60295E-15
 -1       463 3.62743E-03-1.99080E-04-9.79763E-15
 -1       464 3.91754E-03-1.21409E-04-1.08213E-14
 -1       465 4.34053E-03 8.56776E-05-1.22520E-14
 -1       466 4.67458E-03 2.72019E-04-1.31232E-14
 -1       467 5.13644E-03 5.40408E-04-1.43115E-14
 -1       468 5.47875E-03 6.98513E-04-1.48051E-14
 -1       469 5.89627E-03 8.64899E-04-1.52660E-14
 -1       470 6.16437E-03 9.52986E-04-1.53518E-14
 -1       471 5.13053E-03 1.73497E-03-1.08600E-14
 -1       472 6.31047E-03 1.10820E-03-1.53988E-14
 -1       473 4.22420E-03 2.08668E-03-7.91985E-15
 -1       474 9.83454E-04 2.72624E-04-5.58994E-16
 -1       475 6.68128E-04-2.37755E-05-6.56142E-16
 -1       476 6.86392E-04-7.70557E-05-6.66754E-16
 -1       477 6.19154E-04 6.26203E-05-6.19920E-16
 -1       478 5.95151E-04 9.12489E-05-5.95413E-16
 -1       479 5.81031E-04 1.09487E-04-5.66004E-16
 -1       480 5.84572E-04 1.21764E-04-5.28904E-16
 -1       481 6.12008E-04 1.35271E-04-4.81121E-16
 -1       482 6.64385E-04 1.59718E-04-4.18953E-16
 -1       483 1.28537E-03 3.42921E-04-1.00262E-15
 -1       484 1.01799E-03-3.28159E-04-1.16879E-15
 -1       485 1.31871E-03-3.94722E-04-1.89745E-15
 -1       486 1.61854E-03-4.50780E-04-2.79977E-15
 -1       487 1.91612E-03-4.97017E-04-3.87589E-15
 -1       488 2.21001E-03-5.31295E-04-5.12487E-15
 -1       489 2.49893E-03-5.48567E-04-6.54558E-15
 -1       490 2.78243E-03-5.41825E-04-8.13771E-15
 -1       491 3.06163E-03-5.04167E-04-9.89732E-15
 -1       492 3.33916E-03-4.31439E-04-1.18225E-14
 -1       493 3.61834E-03-3.24183E-04-1.39088E-14
 -1       494 3.90180E-03-1.87729E-04-1.61489E-14
 -1       495 4.19051E-03-3.04151E-05-1.85362E-14
 -1       496 4.48381E-03 1.38916E-04-2.10599E-14
 -1       497 4.78006E-03 3.12879E-04-2.37133E-14
 -1       498 5.07746E-03 4.86419E-04-2.64916E-14
 -1       499 5.37458E-03 6.56754E-04-2.93934E-14
 -1       500 5.67054E-03 8.22837E-04-3.24134E-14
 -1       501 5.96494E-03 9.84727E-04-3.55499E-14
 -1       502 6.25771E-03 1.14306E-03-3.87899E-14
 -1       503 6.54900E-03 1.29868E-03-4.21348E-14
 -1       504 6.83901E-03 1.45242E-03-4.55800E-14
 -1       505 7.12798E-03 1.60502E-03-4.91208E-14
 -1       506 7.41611E-03 1.75703E-03-5.27502E-14
 -1       507 7.70360E-03 1.90886E-03-5.64646E-14
 -1       508 7.99059E-03 2.06079E-03-6.02608E-14
 -1       509 8.27721E-03 2.21297E-03-6.41288E-14
 -1       510 8.56355E-03 2.36548E-03-6.80665E-14
 -1       511 8.84969E-03 2.51836E-03-7.20629E-14
 -1       512 9.13567E-03 2.67160E-03-7.61103E-14
 -1       513 9.42155E-03 2.82516E-03-8.02119E-14
 -1       514 9.70735E-03 2.97900E-03-8.43616E-14
 -1       515 9.99310E-03 3.13309E-03-8.85521E-14
 -1       516 1.02788E-02 3.28737E-03-9.27717E-14
 -1       517 1.05645E-02 3.44181E-03-9.70172E-14
 -1       518 1.08502E-02 3.59637E-03-1.01286E-13
 -1       519 1.11359E-02 3.75103E-03-1.05569E-13
 -1       520 1.14216E-02 3.90576E-03-1.09860E-13
 -1       521 1.17073E-02 4.06055E-03-1.14158E-13
 -1       522 1.19930E-02 4.21537E-03-1.18463E-13
 -1       523 1.22786E-02 4.37021E-03-1.22777E-13
 -1       524 1.25643E-02 4.52507E-03-1.27103E-13
 -1       525 1.28500E-02 4.67994E-03-1.31428E-13
 -1       526 1.31357E-02 4.83481E-03-1.35748E-13
 -1       527 1.34214E-02 4.98969E-03-1.40053E-13
 -1       528 1.90154E-03 5.40883E-04-2.29875E-15
 -1       529 2.25905E-03 7.35177E-04-3.20079E-15
 -1       530 5.75014E-03 1.39748E-03-1.37990E-14
 -1       531 6.12566E-03 1.31537E-03-1.61173E-14
 -1       532 6.45837E-03 1.33649E-03-1.85556E-14
 -1       533 6.76974E-03 1.42223E-03-2.11040E-14
 -1       534 7.07251E-03 1.54594E-03-2.37529E-14
 -1       535 7.38662E-03 1.69856E-03-2.66352E-14
 -1       536 7.68372E-03 1.85509E-03-2.94802E-14
 -1       537 7.97914E-03 2.01665E-03-3.24271E-14
 -1       538 8.27293E-03 2.18006E-03-3.54737E-14
 -1       539 8.56517E-03 2.34364E-03-3.86219E-14
 -1       540 8.85601E-03 2.50661E-03-4.18694E-14
 -1       541 9.14566E-03 2.66862E-03-4.52092E-14
 -1       542 9.43431E-03 2.82958E-03-4.86371E-14
 -1       543 9.73655E-03 2.99750E-03-5.23284E-14
 -1       544 1.00238E-02 3.15649E-03-5.59396E-14
 -1       545 1.03105E-02 3.31469E-03-5.96438E-14
 -1       546 1.05970E-02 3.47220E-03-6.34382E-14
 -1       547 1.08831E-02 3.62915E-03-6.73154E-14
 -1       548 1.11691E-02 3.78564E-03-7.12830E-14
 -1       549 1.14550E-02 3.94174E-03-7.53231E-14
 -1       550 1.17550E-02 4.10532E-03-7.96299E-14
 -1       551 1.20407E-02 4.26087E-03-8.37769E-14
 -1       552 1.23264E-02 4.41624E-03-8.79584E-14
 -1       553 1.26121E-02 4.57146E-03-9.21708E-14
 -1       554 1.28978E-02 4.72657E-03-9.63967E-14
 -1       555 1.31834E-02 4.88161E-03-1.00635E-13
 -1       556 1.34691E-02 5.03658E-03-1.04881E-13
 -1       557 1.37548E-02 5.19152E-03-1.09134E-13
 -1       558 1.40547E-02 5.35417E-03-1.13609E-13
 -1       559 1.43404E-02 5.50906E-03-1.17888E-13
 -1       560 1.46261E-02 5.66394E-03-1.22185E-13
 -1       561 1.49118E-02 5.81881E-03-1.26516E-13
 -1       562 1.51975E-02 5.97368E-03-1.30865E-13
 -1       563 1.54832E-02 6.12856E-03-1.35228E-13
 -1       564 1.50086E-02 5.86556E-03-1.38026E-13
 -1       565 1.48563E-02 5.78125E-03-1.38693E-13
 -1       566 1.53107E-02 6.03274E-03-1.36645E-13
 -1       567 1.51596E-02 5.94915E-03-1.37345E-13
 -1       568 1.47039E-02 5.69694E-03-1.39348E-13
 -1       569 1.45516E-02 5.61263E-03-1.39996E-13
 -1       570 1.43994E-02 5.52832E-03-1.40637E-13
 -1       571 1.42497E-02 5.44544E-03-1.41266E-13
 -1       572 1.40974E-02 5.36113E-03-1.41900E-13
 -1       573 1.39452E-02 5.27683E-03-1.42537E-13
 -1       574 1.37929E-02 5.19253E-03-1.43179E-13
 -1       575 6.07997E-03 1.20979E-03-1.46863E-14
 -1       576 6.27677E-03 1.04416E-03-1.68008E-14
 -1       577 1.58879E-03 4.24917E-04-1.58184E-15
 -1       578 6.38660E-03 1.07686E-03-1.64439E-14
 -1       579 5.70119E-03 8.65710E-04-1.63652E-14
 -1       580 7.41599E-04-2.44069E-04-6.65029E-16
 -1       581 5.74026E-03 1.37200E-03-1.33463E-14
 -1       582 3.03236E-03-1.62456E-04-7.71196E-15
 -1       583 1.94368E-03 2.91318E-04-4.84342E-15
 -1       584 1.55746E-03 5.20708E-04-3.69269E-15
 -1       585 6.45152E-04 2.36108E-05-6.40232E-16
 -1       586 2.36475E-03 1.20103E-04-5.76586E-15
 -1       587 2.78119E-03 1.11835E-03-4.30505E-15
 -1       588 2.20276E-03 7.76664E-04-3.89745E-15
 -1       589 1.87260E-03 6.27637E-04-3.74000E-15
 -1       590 1.42494E-03 4.81041E-04-3.76907E-15
 -1       591 1.45216E-03 4.46986E-04-3.94105E-15
 -1       592 1.65119E-03 3.94949E-04-4.35858E-15
 -1       593 3.44063E-03-2.32868E-04-9.40704E-15
 -1       594 2.70632E-03-2.75431E-05-6.68691E-15
 -1       595 6.08212E-03 9.91831E-04-1.67042E-14
 -1       596 3.66986E-03-1.95298E-04-1.04045E-14
 -1       597 4.05407E-03-3.33049E-05-1.19757E-14
 -1       598 4.46258E-03 2.17781E-04-1.36532E-14
 -1       599 4.85751E-03 4.58660E-04-1.48641E-14
 -1       600 5.28204E-03 6.78282E-04-1.56071E-14
 -1       601 7.50812E-04 2.22570E-04-2.85389E-16
 -1       602 5.38053E-03 1.58458E-03-1.20271E-14
 -1       603 3.12064E-03 1.38936E-03-4.85355E-15
 -1       604 7.01068E-04-1.34356E-04-6.69613E-16
 -1       605 1.36116E-02 5.09271E-03-1.42977E-13
 -1       606 7.85020E-04 1.42284E-04-1.00067E-15
 -1       607 8.19537E-04 1.07313E-04-1.04488E-15
 -1       608 7.88352E-04 1.79471E-04-8.82331E-16
 -1       609 8.45158E-04 2.00043E-04-8.00389E-16
 -1       610 1.02300E-03 2.55995E-04-8.86301E-16
 -1       611 6.42452E-03 1.13380E-03-1.73182E-14
 -1       612 1.28284E-03 3.25053E-04-1.43257E-15
 -1       613 3.52859E-03-2.31159E-04-1.02365E-14
 -1       614 1.45539E-03-3.44618E-04-2.35273E-15
 -1       615 1.76361E-03-3.94323E-04-3.33485E-15
 -1       616 2.07176E-03-4.36859E-04-4.48636E-15
 -1       617 2.37701E-03-4.68153E-04-5.80678E-15
 -1       618 2.67685E-03-4.80621E-04-7.29623E-15
 -1       619 2.97053E-03-4.64616E-04-8.95443E-15
 -1       620 3.25993E-03-4.11858E-04-1.07803E-14
 -1       621 3.54907E-03-3.19222E-04-1.27709E-14
 -1       622 3.84200E-03-1.90788E-04-1.49217E-14
 -1       623 4.14066E-03-3.60222E-05-1.72235E-14
 -1       624 4.44431E-03 1.33936E-04-1.96648E-14
 -1       625 4.75052E-03 3.09609E-04-2.22386E-14
 -1       626 5.05653E-03 4.84706E-04-2.49377E-14
 -1       627 5.36035E-03 6.56008E-04-2.77595E-14
 -1       628 5.66095E-03 8.22491E-04-3.07012E-14
 -1       629 5.95816E-03 9.84394E-04-3.37622E-14
 -1       630 6.25233E-03 1.14253E-03-3.69336E-14
 -1       631 6.54402E-03 1.29787E-03-4.02059E-14
 -1       632 6.83381E-03 1.45132E-03-4.35801E-14
 -1       633 7.12224E-03 1.60364E-03-4.70529E-14
 -1       634 7.40972E-03 1.75539E-03-5.06151E-14
 -1       635 7.69656E-03 1.90699E-03-5.42669E-14
 -1       636 7.98299E-03 2.05871E-03-5.80031E-14
 -1       637 8.26914E-03 2.21071E-03-6.18153E-14
 -1       638 8.55513E-03 2.36306E-03-6.56990E-14
 -1       639 8.84101E-03 2.51580E-03-6.96462E-14
 -1       640 9.12683E-03 2.66891E-03-7.36484E-14
 -1       641 9.41260E-03 2.82236E-03-7.77052E-14
 -1       642 9.69836E-03 2.97612E-03-8.18184E-14
 -1       643 9.98409E-03 3.13013E-03-8.59755E-14
 -1       644 1.02698E-02 3.28435E-03-9.01686E-14
 -1       645 1.05555E-02 3.43874E-03-9.43877E-14
 -1       646 1.08413E-02 3.59327E-03-9.86327E-14
 -1       647 1.11270E-02 3.74790E-03-1.02897E-13
 -1       648 1.14127E-02 3.90260E-03-1.07176E-13
 -1       649 1.16984E-02 4.05737E-03-1.11464E-13
 -1       650 1.19841E-02 4.21218E-03-1.15763E-13
 -1       651 1.22698E-02 4.36701E-03-1.20068E-13
 -1       652 1.25555E-02 4.52187E-03-1.24383E-13
 -1       653 1.28412E-02 4.67674E-03-1.28706E-13
 -1       654 1.31270E-02 4.83161E-03-1.33023E-13
 -1       655 1.34127E-02 4.98648E-03-1.37330E-13
 -1       656 2.77834E-03-1.11882E-04-6.79537E-15
 -1       657 1.79502E-03 5.28955E-04-2.94322E-15
 -1       658 2.08773E-03 1.71050E-04-4.80285E-15
 -1       659 6.90797E-03 1.41916E-03-2.28803E-14
 -1       660 7.18562E-03 1.56244E-03-2.57268E-14
 -1       661 7.45790E-03 1.71215E-03-2.85366E-14
 -1       662 7.73595E-03 1.86905E-03-3.14469E-14
 -1       663 8.01785E-03 2.02955E-03-3.44607E-14
 -1       664 8.30209E-03 2.19148E-03-3.75735E-14
 -1       665 8.58762E-03 2.35362E-03-4.07883E-14
 -1       666 8.87380E-03 2.51530E-03-4.40977E-14
 -1       667 9.16022E-03 2.67623E-03-4.75003E-14
 -1       668 9.46098E-03 2.84428E-03-5.11619E-14
 -1       669 9.74735E-03 3.00347E-03-5.47437E-14
 -1       670 1.00336E-02 3.16187E-03-5.84144E-14
 -1       671 1.03197E-02 3.31960E-03-6.21676E-14
 -1       672 1.06058E-02 3.47674E-03-6.60063E-14
 -1       673 1.08917E-02 3.63338E-03-6.99289E-14
 -1       674 1.11775E-02 3.78962E-03-7.39307E-14
 -1       675 1.14776E-02 3.95332E-03-7.82008E-14
 -1       676 1.17634E-02 4.10896E-03-8.23175E-14
 -1       677 1.20491E-02 4.26439E-03-8.64765E-14
 -1       678 1.23349E-02 4.41966E-03-9.06695E-14
 -1       679 1.26206E-02 4.57482E-03-9.48852E-14
 -1       680 1.29063E-02 4.72988E-03-9.91176E-14
 -1       681 1.31920E-02 4.88488E-03-1.03362E-13
 -1       682 1.34777E-02 5.03983E-03-1.07614E-13
 -1       683 1.37777E-02 5.20249E-03-1.12089E-13
 -1       684 1.40634E-02 5.35739E-03-1.16361E-13
 -1       685 1.43491E-02 5.51227E-03-1.20650E-13
 -1       686 1.46348E-02 5.66714E-03-1.24963E-13
 -1       687 1.49205E-02 5.82201E-03-1.29307E-13
 -1       688 1.51156E-02 5.92737E-03-1.32973E-13
 -1       689 1.43804E-02 5.52067E-03-1.35897E-13
 -1       690 1.36028E-02 5.08951E-03-1.40255E-13
 -1       691 1.46850E-02 5.68929E-03-1.34572E-13
 -1       692 1.42281E-02 5.43636E-03-1.36551E-13
 -1       693 1.45327E-02 5.60498E-03-1.35239E-13
 -1       694 1.53452E-03 4.08276E-04-2.11237E-15
 -1       695 6.22040E-03 1.06513E-03-1.80424E-14
 -1       696 1.40784E-02 5.35347E-03-1.37187E-13
 -1       697 1.39261E-02 5.26916E-03-1.37832E-13
 -1       698 1.37739E-02 5.18486E-03-1.38477E-13
 -1       699 9.10180E-04-2.33984E-04-1.01785E-15
 -1       700 6.41173E-03 1.11246E-03-1.81701E-14
 -1       701 3.16023E-03-2.34173E-04-8.34235E-15
 -1       702 1.42621E-03 4.40658E-04-3.18952E-15
 -1       703 6.65165E-03 1.30510E-03-2.02663E-14
 -1       704 6.39915E-03 1.22659E-03-1.77559E-14
 -1       705 5.94532E-03 9.89777E-04-1.79326E-14
 -1       706 1.18097E-03-2.91718E-04-1.61753E-15
 -1       707 7.70429E-04 1.64020E-04-9.47545E-16
 -1       708 1.36143E-03 4.18654E-04-3.31048E-15
 -1       709 2.48792E-03 8.62817E-06-5.86654E-15
 -1       710 1.58044E-03 4.72041E-04-3.07394E-15
 -1       711 1.47372E-03 3.83357E-04-3.58456E-15
 -1       712 9.25676E-04-6.98489E-05-1.13537E-15
 -1       713 4.19371E-03 6.98508E-05-1.32604E-14
 -1       714 1.69872E-03 3.19774E-04-4.01534E-15
 -1       715 4.64964E-03 3.58428E-04-1.52950E-14
 -1       716 3.85499E-03-1.15847E-04-1.17932E-14
 -1       717 6.06555E-03 1.24919E-03-1.51677E-14
 -1       718 9.46877E-04-1.41531E-04-1.14861E-15
 -1       719 8.60213E-04 5.80886E-05-1.08181E-15
 -1       720 1.48360E-02 5.77288E-03-1.33900E-13
 -1       721 5.15396E-03 6.52709E-04-1.69381E-14
 -1       722 5.63667E-03 8.81212E-04-1.78019E-14
 -1       723 1.49758E-02 5.85013E-03-1.33442E-13
 -1       724 1.35933E-02 5.08567E-03-1.37904E-13
 -1       725 8.96941E-04-2.24932E-06-1.11228E-15
 -1       726 6.31323E-03 1.16427E-03-1.64650E-14
 -1       727 1.29240E-03 3.70101E-04-2.64772E-15
 -1       728 1.00208E-03 2.44186E-04-1.30717E-15
 -1       729 6.39449E-03 1.14542E-03-1.98479E-14
 -1       730 1.91990E-03-3.31657E-04-3.87519E-15
 -1       731 2.24017E-03-3.73243E-04-5.09528E-15
 -1       732 2.55735E-03-4.04390E-04-6.48138E-15
 -1       733 2.86756E-03-4.13504E-04-8.03669E-15
 -1       734 3.17031E-03-3.86429E-04-9.76055E-15
 -1       735 3.46968E-03-3.13654E-04-1.16532E-14
 -1       736 3.77160E-03-1.95443E-04-1.37130E-14
 -1       737 4.08038E-03-4.22992E-05-1.59294E-14
 -1       738 4.39574E-03 1.30704E-04-1.82888E-14
 -1       739 4.71414E-03 3.10267E-04-2.07844E-14
 -1       740 5.03128E-03 4.88004E-04-2.34077E-14
 -1       741 5.34402E-03 6.60241E-04-2.61512E-14
 -1       742 5.65099E-03 8.26355E-04-2.90170E-14
 -1       743 5.95219E-03 9.87199E-04-3.20013E-14
 -1       744 6.24845E-03 1.14407E-03-3.51006E-14
 -1       745 6.54087E-03 1.29823E-03-3.83031E-14
 -1       746 6.83053E-03 1.45071E-03-4.16073E-14
 -1       747 7.11834E-03 1.60230E-03-4.50102E-14
 -1       748 7.40499E-03 1.75353E-03-4.85068E-14
 -1       749 7.69095E-03 1.90477E-03-5.20948E-14
 -1       750 7.97657E-03 2.05625E-03-5.57706E-14
 -1       751 8.26203E-03 2.20807E-03-5.95263E-14
 -1       752 8.54745E-03 2.36031E-03-6.33521E-14
 -1       753 8.83290E-03 2.51296E-03-6.72486E-14
 -1       754 9.11840E-03 2.66601E-03-7.12065E-14
 -1       755 9.40396E-03 2.81941E-03-7.52218E-14
 -1       756 9.68957E-03 2.97312E-03-7.92939E-14
 -1       757 9.97522E-03 3.12709E-03-8.34147E-14
 -1       758 1.02609E-02 3.28128E-03-8.75762E-14
 -1       759 1.05466E-02 3.43564E-03-9.17714E-14
 -1       760 1.08323E-02 3.59015E-03-9.59940E-14
 -1       761 1.11180E-02 3.74476E-03-1.00236E-13
 -1       762 1.14038E-02 3.89945E-03-1.04498E-13
 -1       763 1.16895E-02 4.05420E-03-1.08778E-13
 -1       764 1.19752E-02 4.20900E-03-1.13061E-13
 -1       765 1.22610E-02 4.36383E-03-1.17361E-13
 -1       766 1.25467E-02 4.51868E-03-1.21671E-13
 -1       767 1.28324E-02 4.67354E-03-1.25984E-13
 -1       768 1.31182E-02 4.82841E-03-1.30295E-13
 -1       769 1.33557E-02 4.95704E-03-1.34100E-13
 -1       770 1.74726E-03 2.02706E-04-3.73140E-15
 -1       771 3.25240E-03-2.76487E-04-9.10164E-15
 -1       772 5.92649E-03 1.01171E-03-1.97292E-14
 -1       773 6.99716E-03 1.44187E-03-2.47337E-14
 -1       774 7.77285E-03 1.88746E-03-3.34324E-14
 -1       775 8.04688E-03 2.04534E-03-3.65122E-14
 -1       776 8.32527E-03 2.20486E-03-3.96930E-14
 -1       777 8.60648E-03 2.36492E-03-4.29735E-14
 -1       778 8.88948E-03 2.52490E-03-4.63463E-14
 -1       779 9.18784E-03 2.69241E-03-4.99801E-14
 -1       780 9.47267E-03 2.85136E-03-5.35305E-14
 -1       781 9.75791E-03 3.00968E-03-5.71723E-14
 -1       782 1.00434E-02 3.16740E-03-6.08962E-14
 -1       783 1.03290E-02 3.32459E-03-6.46976E-14
 -1       784 1.06147E-02 3.48130E-03-6.85807E-14
 -1       785 1.09004E-02 3.63761E-03-7.25442E-14
 -1       786 1.12004E-02 3.80137E-03-7.67809E-14
 -1       787 1.14862E-02 3.95707E-03-8.08681E-14
 -1       788 1.17719E-02 4.11256E-03-8.50008E-14
 -1       789 1.20576E-02 4.26787E-03-8.91782E-14
 -1       790 1.23434E-02 4.42306E-03-9.33807E-14
 -1       791 1.26291E-02 4.57815E-03-9.76034E-14
 -1       792 1.29148E-02 4.73317E-03-1.01842E-13
 -1       793 1.32006E-02 4.88814E-03-1.06092E-13
 -1       794 1.35006E-02 5.05081E-03-1.10564E-13
 -1       795 1.37863E-02 5.20571E-03-1.14833E-13
 -1       796 1.40720E-02 5.36059E-03-1.19116E-13
 -1       797 1.43577E-02 5.51547E-03-1.23417E-13
 -1       798 1.46435E-02 5.67034E-03-1.27750E-13
 -1       799 1.48096E-02 5.76023E-03-1.30591E-13
 -1       800 1.12439E-03 2.78846E-04-1.37785E-15
 -1       801 1.00991E-03 1.66245E-04-1.56029E-15
 -1       802 4.92844E-03 5.24336E-04-1.76034E-14
 -1       803 1.40568E-02 5.34439E-03-1.32471E-13
 -1       804 1.36025E-02 5.09289E-03-1.34420E-13
 -1       805 1.39071E-02 5.26151E-03-1.33117E-13
 -1       806 6.77156E-03 1.31722E-03-2.20580E-14
 -1       807 4.02744E-03-2.05928E-05-1.31734E-14
 -1       808 1.37548E-02 5.17720E-03-1.33771E-13
 -1       809 7.50536E-03 1.73293E-03-3.04529E-14
 -1       810 7.24745E-03 1.58431E-03-2.75761E-14
 -1       811 2.87069E-03-2.11501E-04-7.22315E-15
 -1       812 1.60118E-03-2.86369E-04-2.82021E-15
 -1       813 2.55765E-03-9.27642E-05-6.01089E-15
 -1       814 4.43408E-03 2.25257E-04-1.51976E-14
 -1       815 1.48898E-03 3.14835E-04-3.29962E-15
 -1       816 2.19938E-03 3.55063E-05-4.87618E-15
 -1       817 6.18661E-03 1.09323E-03-1.97978E-14
 -1       818 1.34189E-03 3.52869E-04-2.04750E-15
 -1       819 3.68729E-03-1.86545E-04-1.15859E-14
 -1       820 6.50617E-03 1.20030E-03-1.86400E-14
 -1       821 6.53101E-03 1.17632E-03-1.95263E-14
 -1       822 5.51340E-03 8.38782E-04-1.93790E-14
 -1       823 1.30770E-03 3.55909E-04-2.88526E-15
 -1       824 1.06976E-03 1.08023E-04-1.62049E-15
 -1       825 9.56306E-04 2.27206E-04-1.40723E-15
 -1       826 1.45131E-02 5.59697E-03-1.30458E-13
 -1       827 1.37804E-03 3.86702E-04-2.55053E-15
 -1       828 3.41594E-03-2.77543E-04-1.03536E-14
 -1       829 1.43607E-02 5.51266E-03-1.31136E-13
 -1       830 1.42087E-02 5.42853E-03-1.31808E-13
 -1       831 9.64380E-04 2.05278E-04-1.49028E-15
 -1       832 1.31988E-03-2.41143E-04-2.01537E-15
 -1       833 1.16885E-03-4.80789E-05-1.71220E-15
 -1       834 1.19840E-03-1.34041E-04-1.74195E-15
 -1       835 1.34791E-02 5.02496E-03-1.34260E-13
 -1       836 5.31035E-03 7.23860E-04-2.03099E-14
 -1       837 5.89810E-03 1.01150E-03-2.17394E-14
 -1       838 2.41786E-03-3.09013E-04-5.69942E-15
 -1       839 2.74804E-03-3.44219E-04-7.14858E-15
 -1       840 3.06889E-03-3.50355E-04-8.76740E-15
 -1       841 4.01224E-03-5.32143E-05-1.46522E-14
 -1       842 4.34104E-03 1.26621E-04-1.69305E-14
 -1       843 4.67399E-03 3.14146E-04-1.93485E-14
 -1       844 5.00483E-03 4.96974E-04-2.18978E-14
 -1       845 5.32851E-03 6.70739E-04-2.45686E-14
 -1       846 5.64302E-03 8.35791E-04-2.73586E-14
 -1       847 5.94876E-03 9.94311E-04-3.02671E-14
 -1       848 6.24724E-03 1.14855E-03-3.32921E-14
 -1       849 6.54027E-03 1.30034E-03-3.64245E-14
 -1       850 6.82955E-03 1.45094E-03-3.96593E-14
 -1       851 7.11645E-03 1.60116E-03-4.29920E-14
 -1       852 7.40195E-03 1.75147E-03-4.64231E-14
 -1       853 7.68676E-03 1.90214E-03-4.99465E-14
 -1       854 7.97131E-03 2.05328E-03-5.35594E-14
 -1       855 8.25585E-03 2.20493E-03-5.72581E-14
 -1       856 8.54052E-03 2.35710E-03-6.10287E-14
 -1       857 8.82537E-03 2.50973E-03-6.48724E-14
 -1       858 9.11042E-03 2.66278E-03-6.87823E-14
 -1       859 9.39564E-03 2.81620E-03-7.27552E-14
 -1       860 9.68102E-03 2.96993E-03-7.67850E-14
 -1       861 9.96651E-03 3.12391E-03-8.08696E-14
 -1       862 1.02521E-02 3.27811E-03-8.49978E-14
 -1       863 1.05377E-02 3.43248E-03-8.91632E-14
 -1       864 1.08234E-02 3.58698E-03-9.33631E-14
 -1       865 1.11092E-02 3.74159E-03-9.75872E-14
 -1       866 1.13949E-02 3.89628E-03-1.01827E-13
 -1       867 1.16806E-02 4.05103E-03-1.06094E-13
 -1       868 1.19664E-02 4.20582E-03-1.10369E-13
 -1       869 1.22521E-02 4.36064E-03-1.14656E-13
 -1       870 1.25379E-02 4.51549E-03-1.18960E-13
 -1       871 1.28236E-02 4.67035E-03-1.23267E-13
 -1       872 1.31094E-02 4.82522E-03-1.27573E-13
 -1       873 6.59521E-03 1.23232E-03-2.16030E-14
 -1       874 7.79596E-03 1.90647E-03-3.54382E-14
 -1       875 8.62146E-03 2.37641E-03-4.51749E-14
 -1       876 8.91681E-03 2.54255E-03-4.87791E-14
 -1       877 9.19964E-03 2.70067E-03-5.23003E-14
 -1       878 9.48346E-03 2.85849E-03-5.59136E-14
 -1       879 9.76795E-03 3.01591E-03-5.96102E-14
 -1       880 1.00529E-02 3.17293E-03-6.33825E-14
 -1       881 1.03381E-02 3.32955E-03-6.72303E-14
 -1       882 1.06236E-02 3.48582E-03-7.11590E-14
 -1       883 1.09234E-02 3.64958E-03-7.53610E-14
 -1       884 1.12090E-02 3.80528E-03-7.94243E-14
 -1       885 1.14947E-02 3.96078E-03-8.35375E-14
 -1       886 1.17805E-02 4.11611E-03-8.76927E-14
 -1       887 1.20662E-02 4.27132E-03-9.18812E-14
 -1       888 1.23519E-02 4.42642E-03-9.60940E-14
 -1       889 1.26377E-02 4.58145E-03-1.00323E-13
 -1       890 1.29235E-02 4.73643E-03-1.04569E-13
 -1       891 1.32235E-02 4.89911E-03-1.09038E-13
 -1       892 1.35092E-02 5.05402E-03-1.13301E-13
 -1       893 1.37950E-02 5.20891E-03-1.17579E-13
 -1       894 1.40807E-02 5.36379E-03-1.21873E-13
 -1       895 1.43664E-02 5.51866E-03-1.26191E-13
 -1       896 2.29797E-03-9.35244E-05-5.10859E-15
 -1       897 1.46613E-02 5.67860E-03-1.30531E-13
 -1       898 1.37344E-02 5.16883E-03-1.29056E-13
 -1       899 2.59820E-03-2.02875E-04-6.21642E-15
 -1       900 6.81286E-03 1.34362E-03-2.37945E-14
 -1       901 1.11707E-03 2.84522E-04-1.72681E-15
 -1       902 7.53209E-03 1.75497E-03-3.23886E-14
 -1       903 1.12575E-03 3.44335E-05-1.67114E-15
 -1       904 7.27815E-03 1.60918E-03-2.94428E-14
 -1       905 7.03531E-03 1.47013E-03-2.65663E-14
 -1       906 8.06680E-03 2.06148E-03-3.85855E-14
 -1       907 1.75131E-03-2.19347E-04-3.29649E-15
 -1       908 1.82439E-03 6.07099E-05-3.68368E-15
 -1       909 2.08310E-03-2.63329E-04-4.41701E-15
 -1       910 1.27789E-03 2.92342E-04-2.57788E-15
 -1       911 4.20297E-03 7.57401E-05-1.48237E-14
 -1       912 2.95509E-03-2.94446E-04-7.84756E-15
 -1       913 3.86574E-03-1.13706E-04-1.31286E-14
 -1       914 8.34247E-03 2.21847E-03-4.18335E-14
 -1       915 1.16353E-03 3.05524E-04-2.17701E-15
 -1       916 1.44327E-03 2.22480E-04-2.85415E-15
 -1       917 4.63013E-03 3.30868E-04-1.72805E-14
 -1       918 1.21128E-03 3.25481E-04-2.16342E-15
 -1       919 5.70153E-03 9.16094E-04-2.27141E-14
 -1       920 1.41577E-03-1.37851E-05-2.38907E-15
 -1       921 3.72419E-03-1.86968E-04-1.25790E-14
 -1       922 1.45679E-03-1.14327E-04-2.44059E-15
 -1       923 6.44853E-03 1.19967E-03-2.19755E-14
 -1       924 1.32942E-02 4.92509E-03-1.30918E-13
 -1       925 1.35822E-02 5.08452E-03-1.29715E-13
 -1       926 1.38864E-02 5.25296E-03-1.28391E-13
 -1       927 1.41894E-02 5.42069E-03-1.27035E-13
 -1       928 1.26892E-03 1.73139E-04-2.24590E-15
 -1       929 5.00848E-03 5.39279E-04-1.99559E-14
 -1       930 6.13891E-03 1.10414E-03-2.18308E-14
 -1       931 1.50936E-03 1.07732E-04-2.80196E-15
 -1       932 1.34321E-02 5.00121E-03-1.30673E-13
 -1       933 7.54383E-03 1.77453E-03-3.43465E-14
 -1       934 1.72317E-03-8.71077E-05-3.23763E-15
 -1       935 6.70018E-03 1.31054E-03-2.41893E-14
 -1       936 5.64114E-03 8.52083E-04-2.57242E-14
 -1       937 5.95092E-03 1.00667E-03-2.85593E-14
 -1       938 6.25081E-03 1.15659E-03-3.15072E-14
 -1       939 6.54354E-03 1.30455E-03-3.45685E-14
 -1       940 6.83162E-03 1.45216E-03-3.77336E-14
 -1       941 7.11692E-03 1.60025E-03-4.09993E-14
 -1       942 7.40076E-03 1.74916E-03-4.43615E-14
 -1       943 7.68399E-03 1.89898E-03-4.78200E-14
 -1       944 7.96715E-03 2.04967E-03-5.13708E-14
 -1       945 8.25052E-03 2.20114E-03-5.50095E-14
 -1       946 8.53425E-03 2.35327E-03-5.87248E-14
 -1       947 8.81835E-03 2.50596E-03-6.25155E-14
 -1       948 9.10283E-03 2.65911E-03-6.63737E-14
 -1       949 9.38763E-03 2.81263E-03-7.02997E-14
 -1       950 9.67270E-03 2.96646E-03-7.42893E-14
 -1       951 9.95798E-03 3.12053E-03-7.83318E-14
 -1       952 1.02434E-02 3.27479E-03-8.24296E-14
 -1       953 1.05290E-02 3.42921E-03-8.65667E-14
 -1       954 1.08146E-02 3.58375E-03-9.07406E-14
 -1       955 1.11003E-02 3.73838E-03-9.49440E-14
 -1       956 1.13860E-02 3.89308E-03-9.91648E-14
 -1       957 1.16718E-02 4.04784E-03-1.03412E-13
 -1       958 1.19575E-02 4.20264E-03-1.07676E-13
 -1       959 1.22433E-02 4.35746E-03-1.11954E-13
 -1       960 1.25291E-02 4.51230E-03-1.16245E-13
 -1       961 1.28148E-02 4.66716E-03-1.20548E-13
 -1       962 1.31006E-02 4.82203E-03-1.24851E-13
 -1       963 8.64007E-03 2.39118E-03-4.74741E-14
 -1       964 9.49330E-03 2.86539E-03-5.83107E-14
 -1       965 9.77741E-03 3.02197E-03-6.20583E-14
 -1       966 1.00621E-02 3.17830E-03-6.58766E-14
 -1       967 1.03471E-02 3.33439E-03-6.97734E-14
 -1       968 1.06466E-02 3.49803E-03-7.39426E-14
 -1       969 1.09321E-02 3.65366E-03-7.79776E-14
 -1       970 1.12177E-02 3.80911E-03-8.20698E-14
 -1       971 1.15034E-02 3.96442E-03-8.62120E-14
 -1       972 1.17891E-02 4.11962E-03-9.03869E-14
 -1       973 1.20748E-02 4.27472E-03-9.45878E-14
 -1       974 1.23606E-02 4.42975E-03-9.88055E-14
 -1       975 1.26463E-02 4.58473E-03-1.03043E-13
 -1       976 1.29464E-02 4.74742E-03-1.07505E-13
 -1       977 1.32321E-02 4.90233E-03-1.11768E-13
 -1       978 1.35179E-02 5.05723E-03-1.16043E-13
 -1       979 1.38036E-02 5.21211E-03-1.20330E-13
 -1       980 1.39965E-02 5.31640E-03-1.23675E-13
 -1       981 9.20997E-03 2.70862E-03-5.46406E-14
 -1       982 2.32604E-03-2.00514E-04-5.23672E-15
 -1       983 8.92774E-03 2.55177E-03-5.10559E-14
 -1       984 7.28724E-03 1.63097E-03-3.13284E-14
 -1       985 7.80866E-03 1.92362E-03-3.74635E-14
 -1       986 1.90026E-03-1.42731E-04-3.77757E-15
 -1       987 1.40379E-02 5.33683E-03-1.27714E-13
 -1       988 1.94302E-03-8.51836E-05-3.93053E-15
 -1       989 6.09072E-03 1.09591E-03-2.44241E-14
 -1       990 6.30246E-03 1.18249E-03-2.45268E-14
 -1       991 6.50855E-03 1.25007E-03-2.41457E-14
 -1       992 8.36165E-03 2.23507E-03-4.40701E-14
 -1       993 7.03892E-03 1.49368E-03-2.83816E-14
 -1       994 5.33326E-03 7.00630E-04-2.28457E-14
 -1       995 1.38450E-02 5.23254E-03-1.24359E-13
 -1       996 1.34109E-02 4.99255E-03-1.25656E-13
 -1       997 1.35628E-02 5.07669E-03-1.24991E-13
 -1       998 5.50811E-03 8.08713E-04-2.27899E-14
 -1       999 8.07951E-03 2.07630E-03-4.06775E-14
 -1      1000 6.75117E-03 1.35848E-03-2.62207E-14
 -1      1001 9.78634E-03 3.02770E-03-6.45189E-14
 -1      1002 7.54652E-03 1.79005E-03-3.63211E-14
 -1      1003 6.26220E-03 1.16823E-03-2.97511E-14
 -1      1004 6.55257E-03 1.31079E-03-3.27379E-14
 -1      1005 6.83780E-03 1.45421E-03-3.58323E-14
 -1      1006 7.12028E-03 1.59936E-03-3.90268E-14
 -1      1007 7.40157E-03 1.74637E-03-4.23212E-14
 -1      1008 7.68263E-03 1.89509E-03-4.57138E-14
 -1      1009 7.96399E-03 2.04524E-03-4.91992E-14
 -1      1010 8.24591E-03 2.19653E-03-5.27765E-14
 -1      1011 8.52850E-03 2.34870E-03-5.64383E-14
 -1      1012 8.81173E-03 2.50154E-03-6.01733E-14
 -1      1013 9.09555E-03 2.65488E-03-6.39796E-14
 -1      1014 9.37985E-03 2.80861E-03-6.78563E-14
 -1      1015 9.66456E-03 2.96263E-03-7.18015E-14
 -1      1016 9.94959E-03 3.11686E-03-7.58034E-14
 -1      1017 1.02348E-02 3.27126E-03-7.98609E-14
 -1      1018 1.05203E-02 3.42579E-03-8.39709E-14
 -1      1019 1.08058E-02 3.58040E-03-8.81216E-14
 -1      1020 1.10915E-02 3.73509E-03-9.23033E-14
 -1      1021 1.13772E-02 3.88984E-03-9.65093E-14
 -1      1022 1.16629E-02 4.04462E-03-1.00735E-13
 -1      1023 1.19487E-02 4.19943E-03-1.04986E-13
 -1      1024 1.22345E-02 4.35427E-03-1.09251E-13
 -1      1025 1.25202E-02 4.50912E-03-1.13531E-13
 -1      1026 1.28060E-02 4.66398E-03-1.17825E-13
 -1      1027 1.30918E-02 4.81885E-03-1.22125E-13
 -1      1028 1.00709E-02 3.18343E-03-6.83860E-14
 -1      1029 9.50234E-03 2.87187E-03-6.07230E-14
 -1      1030 1.03701E-02 3.34682E-03-7.25231E-14
 -1      1031 1.06554E-02 3.50228E-03-7.65331E-14
 -1      1032 1.09408E-02 3.65762E-03-8.06023E-14
 -1      1033 1.12264E-02 3.81285E-03-8.47262E-14
 -1      1034 1.15120E-02 3.96799E-03-8.88891E-14
 -1      1035 1.17977E-02 4.12307E-03-9.30811E-14
 -1      1036 1.20835E-02 4.27808E-03-9.72877E-14
 -1      1037 1.23693E-02 4.43305E-03-1.01515E-13
 -1      1038 1.26693E-02 4.59573E-03-1.05971E-13
 -1      1039 1.29551E-02 4.75064E-03-1.10229E-13
 -1      1040 1.32408E-02 4.90554E-03-1.14500E-13
 -1      1041 1.35266E-02 5.06042E-03-1.18786E-13
 -1      1042 1.36858E-02 5.14648E-03-1.21570E-13
 -1      1043 9.21910E-03 2.71600E-03-5.69996E-14
 -1      1044 8.93690E-03 2.56024E-03-5.33535E-14
 -1      1045 1.37039E-02 5.15461E-03-1.24678E-13
 -1      1046 7.28421E-03 1.64725E-03-3.32342E-14
 -1      1047 5.80962E-03 9.50023E-04-2.56678E-14
 -1      1048 8.64914E-03 2.40093E-03-4.97083E-14
 -1      1049 5.89619E-03 1.00412E-03-2.45191E-14
 -1      1050 6.39638E-03 1.23141E-03-2.68918E-14
 -1      1051 7.02606E-03 1.50971E-03-3.02153E-14
 -1      1052 8.37036E-03 2.24622E-03-4.62402E-14
 -1      1053 1.32394E-02 4.90050E-03-1.21602E-13
 -1      1054 7.81465E-03 1.93784E-03-3.95019E-14
 -1      1055 6.21748E-03 1.15214E-03-2.69975E-14
 -1      1056 6.58182E-03 1.30239E-03-2.65689E-14
 -1      1057 8.94484E-03 2.56777E-03-5.56715E-14
 -1      1058 1.00866E-02 3.19213E-03-7.10051E-14
 -1      1059 9.80199E-03 3.03691E-03-6.70900E-14
 -1      1060 6.84927E-03 1.45643E-03-3.39551E-14
 -1      1061 7.12697E-03 1.59791E-03-3.70802E-14
 -1      1062 7.40446E-03 1.74264E-03-4.03038E-14
 -1      1063 7.68252E-03 1.89010E-03-4.36270E-14
 -1      1064 7.96160E-03 2.03970E-03-4.70462E-14
 -1      1065 8.24178E-03 2.19088E-03-5.05588E-14
 -1      1066 8.52306E-03 2.34320E-03-5.41598E-14
 -1      1067 8.80532E-03 2.49632E-03-5.78430E-14
 -1      1068 9.08842E-03 2.65000E-03-6.15968E-14
 -1      1069 9.37220E-03 2.80406E-03-6.54261E-14
 -1      1070 9.65653E-03 2.95838E-03-6.93175E-14
 -1      1071 9.94128E-03 3.11287E-03-7.32773E-14
 -1      1072 1.02264E-02 3.26748E-03-7.72962E-14
 -1      1073 1.05117E-02 3.42218E-03-8.13721E-14
 -1      1074 1.07971E-02 3.57692E-03-8.54994E-14
 -1      1075 1.10827E-02 3.73171E-03-8.96670E-14
 -1      1076 1.13684E-02 3.88652E-03-9.38525E-14
 -1      1077 1.16541E-02 4.04136E-03-9.80642E-14
 -1      1078 1.19399E-02 4.19620E-03-1.02296E-13
 -1      1079 1.22257E-02 4.35106E-03-1.06547E-13
 -1      1080 1.25114E-02 4.50592E-03-1.10814E-13
 -1      1081 1.27972E-02 4.66079E-03-1.15096E-13
 -1      1082 1.30183E-02 4.78065E-03-1.18348E-13
 -1      1083 1.03716E-02 3.34732E-03-7.49839E-14
 -1      1084 9.51786E-03 2.88169E-03-6.32449E-14
 -1      1085 7.27623E-03 1.65813E-03-3.51587E-14
 -1      1086 1.06569E-02 3.50247E-03-7.90319E-14
 -1      1087 1.09423E-02 3.65756E-03-8.31323E-14
 -1      1088 1.12279E-02 3.81261E-03-8.72789E-14
 -1      1089 1.15136E-02 3.96761E-03-9.14586E-14
 -1      1090 1.17993E-02 4.12258E-03-9.56596E-14
 -1      1091 1.20851E-02 4.27752E-03-9.98795E-14
 -1      1092 1.23851E-02 4.44018E-03-1.04330E-13
 -1      1093 1.26709E-02 4.59508E-03-1.08577E-13
 -1      1094 1.29567E-02 4.74998E-03-1.12847E-13
 -1      1095 1.32424E-02 4.90486E-03-1.17132E-13
 -1      1096 9.22734E-03 2.72269E-03-5.93746E-14
 -1      1097 8.09074E-03 2.09092E-03-4.28232E-14
 -1      1098 1.33805E-02 4.97843E-03-1.21289E-13
 -1      1099 8.65651E-03 2.40943E-03-5.19615E-14
 -1      1100 6.56947E-03 1.31829E-03-3.09316E-14
 -1      1101 7.00826E-03 1.51859E-03-3.20702E-14
 -1      1102 8.37682E-03 2.25571E-03-4.84301E-14
 -1      1103 7.54483E-03 1.80152E-03-3.83094E-14
 -1      1104 6.53449E-03 1.29929E-03-2.94431E-14
 -1      1105 1.31303E-02 4.84275E-03-1.17742E-13
 -1      1106 1.00951E-02 3.19659E-03-7.35344E-14
 -1      1107 7.40907E-03 1.73712E-03-3.83110E-14
 -1      1108 7.68326E-03 1.88346E-03-4.15641E-14
 -1      1109 7.95948E-03 2.03267E-03-4.49175E-14
 -1      1110 1.05031E-02 3.41835E-03-7.87791E-14
 -1      1111 6.72248E-03 1.37726E-03-2.90589E-14
 -1      1112 8.02616E-03 2.06247E-03-4.38734E-14
 -1      1113 7.78444E-03 1.93079E-03-4.10556E-14
 -1      1114 0.00000E+00 0.00000E+00 0.00000E+00
 -1      1115 0.00000E+00 0.00000E+00 0.00000E+00
 -1      1116 0.00000E+00 0.00000E+00 0.00000E+00
 -1      1117 0.00000E+00 0.00000E+00 0.00000E+00
 -1      1118 0.00000E+00 0.00000E+00 0.00000E+00
 -1      1119 0.00000E+00 0.00000E+00 0.00000E+00
 -1      1120 0.00000E+00 0.00000E+00 0.00000E+00
 -1      1121 0.00000E+00 0.00000E+00 0.00000E+00
 -1      1122 0.00000E+00 0.00000E+00 0.00000E+00
 -1      1123 0.00000E+00 0.00000E+00 0.00000E+00
 -1      1124 0.00000E+00 0.00000E+00 0.00000E+00
 -1      1125 0.00000E+00 0.00000E+00 0.00000E+00
 -1      1126 0.00000E+00 0.00000E+00 0.00000E+00
 -1      1127 0.00000E+00 0.00000E+00 0.00000E+00
 -1      1128 0.00000E+00 0.00000E+00 0.00000E+00
 -1      1129 0.00000E+00 0.00000E+00 0.00000E+00
 -1      1130 0.00000E+00 0.00000E+00 0.00000E+00
 -1      1131 2.18012E-04-1.50527E-04 1.32815E-18
 -1      1132 5.71127E-04-3.41072E-04-1.24250E-16
 -1      1133 8.66341E-04-4.65500E-04-4.32488E-16
 -1      1134 1.14845E-03-5.53954E-04-9.52228E-16
 -1      1135 1.42311E-03-6.22107E-04-1.66936E-15
 -1      1136 1.69110E-03-6.76433E-04-2.57670E-15
 -1      1137 1.95152E-03-7.18385E-04-3.67263E-15
 -1      1138 2.20305E-03-7.46121E-04-4.95311E-15
 -1      1139 2.44507E-03-7.55571E-04-6.41510E-15
 -1      1140 2.67854E-03-7.41638E-04-8.05701E-15
 -1      1141 2.90634E-03-6.99735E-04-9.87305E-15
 -1      1142 3.13292E-03-6.27340E-04-1.18530E-14
 -1      1143 3.36337E-03-5.25016E-04-1.39895E-14
 -1      1144 3.60218E-03-3.96483E-04-1.62809E-14
 -1      1145 3.85224E-03-2.47743E-04-1.87200E-14
 -1      1146 4.11443E-03-8.56645E-05-2.12969E-14
 -1      1147 4.38782E-03 8.33775E-05-2.40076E-14
 -1      1148 4.67030E-03 2.54400E-04-2.68492E-14
 -1      1149 4.95923E-03 4.24127E-04-2.98146E-14
 -1      1150 5.25210E-03 5.90843E-04-3.28936E-14
 -1      1151 5.54681E-03 7.54008E-04-3.60854E-14
 -1      1152 5.84184E-03 9.13831E-04-3.93900E-14
 -1      1153 6.13620E-03 1.07090E-03-4.28032E-14
 -1      1154 6.42938E-03 1.22591E-03-4.63174E-14
 -1      1155 6.72118E-03 1.37956E-03-4.99250E-14
 -1      1156 7.01161E-03 1.53240E-03-5.36213E-14
 -1      1157 7.30081E-03 1.68486E-03-5.74046E-14
 -1      1158 7.58899E-03 1.83725E-03-6.12686E-14
 -1      1159 7.87634E-03 1.98976E-03-6.52085E-14
 -1      1160 8.16306E-03 2.14251E-03-6.92114E-14
 -1      1161 8.44933E-03 2.29555E-03-7.32725E-14
 -1      1162 8.73527E-03 2.44889E-03-7.73916E-14
 -1      1163 9.02100E-03 2.60251E-03-8.15515E-14
 -1      1164 9.30660E-03 2.75639E-03-8.57517E-14
 -1      1165 9.59213E-03 2.91049E-03-8.99823E-14
 -1      1166 9.87762E-03 3.06477E-03-9.42445E-14
 -1      1167 1.01631E-02 3.21921E-03-9.85368E-14
 -1      1168 1.04486E-02 3.37377E-03-1.02843E-13
 -1      1169 1.07341E-02 3.52842E-03-1.07143E-13
 -1      1170 1.10197E-02 3.68314E-03-1.11457E-13
 -1      1171 1.13053E-02 3.83791E-03-1.15787E-13
 -1      1172 1.15909E-02 3.99272E-03-1.20122E-13
 -1      1173 1.18765E-02 4.14755E-03-1.24463E-13
 -1      1174 1.21621E-02 4.30241E-03-1.28803E-13
 -1      1175 1.24478E-02 4.45727E-03-1.33130E-13
 -1      1176 1.27335E-02 4.61214E-03-1.37455E-13
 -1      1177 1.30192E-02 4.76700E-03-1.41761E-13
 -1      1178 1.33049E-02 4.92187E-03-1.46045E-13
 -1      1179 1.35906E-02 5.07672E-03-1.50323E-13
 -1      1180 1.38692E-02 5.22770E-03-1.54522E-13
 -1      1181 2.40440E-04 1.53346E-04 5.04290E-17
 -1      1182 6.06346E-04 3.09783E-04 6.91721E-17
 -1      1183 9.47763E-04 4.11097E-04-3.07778E-17
 -1      1184 1.30045E-03 4.90028E-04-2.68489E-16
 -1      1185 1.67750E-03 5.69646E-04-6.48190E-16
 -1      1186 2.08963E-03 6.74119E-04-1.17229E-15
 -1      1187 2.54159E-03 8.35065E-04-1.84491E-15
 -1      1188 3.03503E-03 1.09621E-03-2.68463E-15
 -1      1189 3.51798E-03 1.46979E-03-3.69114E-15
 -1      1190 3.89776E-03 1.86698E-03-4.79079E-15
 -1      1191 4.16502E-03 2.17062E-03-6.00012E-15
 -1      1192 4.37850E-03 2.27933E-03-7.39240E-15
 -1      1193 4.63962E-03 2.15949E-03-9.06423E-15
 -1      1194 5.02142E-03 1.90613E-03-1.10367E-14
 -1      1195 5.49175E-03 1.68747E-03-1.31928E-14
 -1      1196 5.98696E-03 1.58062E-03-1.54922E-14
 -1      1197 6.46031E-03 1.58112E-03-1.79083E-14
 -1      1198 6.89437E-03 1.65608E-03-2.04277E-14
 -1      1199 7.28958E-03 1.77500E-03-2.30502E-14
 -1      1200 7.66182E-03 1.92128E-03-2.58585E-14
 -1      1201 8.00937E-03 2.07975E-03-2.87701E-14
 -1      1202 8.33147E-03 2.23962E-03-3.17009E-14
 -1      1203 8.64194E-03 2.40145E-03-3.47356E-14
 -1      1204 8.94435E-03 2.56362E-03-3.78672E-14
 -1      1205 9.24123E-03 2.72536E-03-4.10931E-14
 -1      1206 9.53431E-03 2.88635E-03-4.44067E-14
 -1      1207 9.82479E-03 3.04648E-03-4.78095E-14
 -1      1208 1.01207E-02 3.20975E-03-5.13956E-14
 -1      1209 1.04154E-02 3.37221E-03-5.50796E-14
 -1      1210 1.07020E-02 3.53002E-03-5.87784E-14
 -1      1211 1.09882E-02 3.68724E-03-6.25806E-14
 -1      1212 1.12740E-02 3.84398E-03-6.64858E-14
 -1      1213 1.15597E-02 4.00030E-03-7.04977E-14
 -1      1214 1.18452E-02 4.15629E-03-7.45731E-14
 -1      1215 1.21378E-02 4.31590E-03-7.88155E-14
 -1      1216 1.24304E-02 4.47529E-03-8.31036E-14
 -1      1217 1.27158E-02 4.63062E-03-8.73160E-14
 -1      1218 1.30013E-02 4.78582E-03-9.15484E-14
 -1      1219 1.32868E-02 4.94092E-03-9.57757E-14
 -1      1220 1.35723E-02 5.09595E-03-1.00009E-13
 -1      1221 1.38579E-02 5.25092E-03-1.04241E-13
 -1      1222 1.41435E-02 5.40586E-03-1.08474E-13
 -1      1223 1.44363E-02 5.56464E-03-1.12839E-13
 -1      1224 1.47291E-02 5.72341E-03-1.17225E-13
 -1      1225 1.50147E-02 5.87829E-03-1.21529E-13
 -1      1226 1.53004E-02 6.03316E-03-1.25863E-13
 -1      1227 1.55861E-02 6.18804E-03-1.30200E-13
 -1      1228 1.58718E-02 6.34292E-03-1.34555E-13
 -1      1229 1.61575E-02 6.49781E-03-1.38903E-13
 -1      1230 1.64432E-02 6.65270E-03-1.43272E-13
 -1      1231 1.65099E-02 6.68801E-03-1.45837E-13
 -1      1232 1.63576E-02 6.60372E-03-1.46573E-13
 -1      1233 1.62053E-02 6.51944E-03-1.47325E-13
 -1      1234 1.60530E-02 6.43514E-03-1.48047E-13
 -1      1235 1.59006E-02 6.35084E-03-1.48764E-13
 -1      1236 1.57496E-02 6.26724E-03-1.49457E-13
 -1      1237 1.55986E-02 6.18364E-03-1.50128E-13
 -1      1238 1.54463E-02 6.09932E-03-1.50760E-13
 -1      1239 1.52940E-02 6.01499E-03-1.51359E-13
 -1      1240 1.51417E-02 5.93066E-03-1.51946E-13
 -1      1241 1.49894E-02 5.84634E-03-1.52540E-13
 -1      1242 1.48384E-02 5.76274E-03-1.53147E-13
 -1      1243 1.46875E-02 5.67914E-03-1.53752E-13
 -1      1244 1.45352E-02 5.59484E-03-1.54363E-13
 -1      1245 1.43830E-02 5.51054E-03-1.54995E-13
 -1      1246 1.42307E-02 5.42626E-03-1.55641E-13
 -1      1247 1.40797E-02 5.34269E-03-1.56275E-13
 -1      1248 6.35118E-03 1.00946E-03-1.31313E-14
 -1      1249 6.30638E-03 1.17200E-03-1.27566E-14
 -1      1250 6.14475E-03 1.34382E-03-1.22027E-14
 -1      1251 5.87821E-03 1.52667E-03-1.15127E-14
 -1      1252 5.51365E-03 1.71596E-03-1.07031E-14
 -1      1253 5.03963E-03 1.89234E-03-9.75389E-15
 -1      1254 4.51930E-03 1.99916E-03-8.81299E-15
 -1      1255 4.00322E-03 1.99731E-03-7.96796E-15
 -1      1256 3.45922E-03 1.88305E-03-7.16018E-15
 -1      1257 2.92039E-03 1.67350E-03-6.44276E-15
 -1      1258 2.42860E-03 1.41883E-03-5.86723E-15
 -1      1259 2.02870E-03 1.17434E-03-5.46579E-15
 -1      1260 1.72994E-03 9.58881E-04-5.21933E-15
 -1      1261 1.52862E-03 7.65420E-04-5.11204E-15
 -1      1262 1.44351E-03 5.95372E-04-5.15394E-15
 -1      1263 1.47787E-03 4.48199E-04-5.33669E-15
 -1      1264 1.61742E-03 3.11036E-04-5.65655E-15
 -1      1265 1.85945E-03 1.76845E-04-6.12277E-15
 -1      1266 2.18961E-03 5.04884E-05-6.73379E-15
 -1      1267 2.57406E-03-5.22450E-05-7.44717E-15
 -1      1268 3.00411E-03-1.19487E-04-8.26086E-15
 -1      1269 3.46077E-03-1.39710E-04-9.13644E-15
 -1      1270 3.90074E-03-1.07757E-04-9.97450E-15
 -1      1271 4.34378E-03-2.52712E-05-1.07979E-14
 -1      1272 4.77571E-03 9.49181E-05-1.15539E-14
 -1      1273 5.18196E-03 2.40333E-04-1.21964E-14
 -1      1274 5.55355E-03 3.98700E-04-1.27154E-14
 -1      1275 5.86818E-03 5.56036E-04-1.30812E-14
 -1      1276 6.11622E-03 7.09692E-04-1.32815E-14
 -1      1277 6.28093E-03 8.58023E-04-1.33011E-14
 -1      1278 1.72515E-04-1.11085E-04-2.56685E-17
 -1      1279 1.16532E-04-5.53940E-05-5.13641E-17
 -1      1280 1.21886E-04-6.68022E-05-4.39780E-17
 -1      1281 1.11895E-04-4.01794E-05-6.27075E-17
 -1      1282 1.14008E-04-4.71604E-05-5.96718E-17
 -1      1283 2.34490E-04-1.04062E-04-1.41421E-16
 -1      1284 1.09681E-04-2.81575E-05-6.72205E-17
 -1      1285 1.10876E-04-3.39610E-05-6.61228E-17
 -1      1286 2.26347E-04-7.54411E-05-1.59784E-16
 -1      1287 1.07902E-04-1.73479E-05-6.89282E-17
 -1      1288 1.08896E-04-2.26240E-05-6.87520E-17
 -1      1289 2.21837E-04-5.19396E-05-1.67536E-16
 -1      1290 1.05980E-04-7.52998E-06-6.87791E-17
 -1      1291 1.07052E-04-1.22829E-05-6.90908E-17
 -1      1292 2.18013E-04-3.09393E-05-1.69651E-16
 -1      1293 1.03614E-04 1.35617E-06-6.75593E-17
 -1      1294 1.04897E-04-2.87961E-06-6.79795E-17
 -1      1295 2.13640E-04-1.17629E-05-1.68255E-16
 -1      1296 1.00910E-04 8.56986E-06-6.58246E-17
 -1      1297 1.02322E-04 5.20103E-06-6.62854E-17
 -1      1298 2.08265E-04 5.15197E-06-1.64772E-16
 -1      1299 9.82445E-05 1.35328E-05-6.37104E-17
 -1      1300 9.95585E-05 1.12680E-05-6.42525E-17
 -1      1301 2.02178E-04 1.85940E-05-1.60245E-16
 -1      1302 9.62736E-05 1.59906E-05-6.07695E-17
 -1      1303 9.71302E-05 1.48754E-05-6.15014E-17
 -1      1304 1.96346E-04 2.76352E-05-1.54350E-16
 -1      1305 9.57964E-05 1.63447E-05-5.72459E-17
 -1      1306 9.57883E-05 1.60883E-05-5.82081E-17
 -1      1307 1.92348E-04 3.21108E-05-1.46855E-16
 -1      1308 9.74650E-05 1.58379E-05-5.23941E-17
 -1      1309 9.62965E-05 1.57636E-05-5.38713E-17
 -1      1310 1.91986E-04 3.31915E-05-1.37477E-16
 -1      1311 1.01693E-04 1.64177E-05-4.58211E-17
 -1      1312 9.91844E-05 1.55312E-05-4.80166E-17
 -1      1313 1.96683E-04 3.35957E-05-1.25130E-16
 -1      1314 1.08361E-04 2.05669E-05-3.64970E-17
 -1      1315 1.04613E-04 1.76770E-05-4.00206E-17
 -1      1316 2.07164E-04 3.73198E-05-1.08542E-16
 -1      1317 1.17139E-04 3.10960E-05-2.30664E-17
 -1      1318 1.12245E-04 2.48172E-05-2.87585E-17
 -1      1319 2.23006E-04 4.91931E-05-8.54622E-17
 -1      1320 1.28925E-04 5.25336E-05-3.17129E-18
 -1      1321 1.22110E-04 4.01922E-05-1.25903E-17
 -1      1322 2.43853E-04 7.49023E-05-5.36951E-17
 -1      1323 1.71507E-04 1.00505E-04 2.62512E-17
 -1      1324 1.50381E-04 7.26582E-05 8.80914E-18
 -1      1325 2.84585E-04 1.22641E-04-1.67238E-17
 -1      1326 3.68255E-04 1.97796E-04 3.32579E-17
 -1      1327 4.36929E-04-2.63316E-04-1.28397E-16
 -1      1328 5.96331E-04-3.39073E-04-2.35326E-16
 -1      1329 7.49789E-04-4.01117E-04-3.98377E-16
 -1      1330 8.99030E-04-4.52768E-04-6.12330E-16
 -1      1331 6.35692E-04-3.32063E-04-3.59847E-16
 -1      1332 1.04475E-03-4.97357E-04-8.74219E-16
 -1      1333 1.18769E-03-5.35983E-04-1.18551E-15
 -1      1334 9.40563E-04-4.37682E-04-7.94192E-16
 -1      1335 1.32841E-03-5.70522E-04-1.54450E-15
 -1      1336 1.46716E-03-6.01217E-04-1.95129E-15
 -1      1337 1.23292E-03-5.16724E-04-1.41983E-15
 -1      1338 1.60410E-03-6.28894E-04-2.40439E-15
 -1      1339 1.73921E-03-6.53454E-04-2.90376E-15
 -1      1340 1.51656E-03-5.79358E-04-2.23293E-15
 -1      1341 1.87249E-03-6.75022E-04-3.44988E-15
 -1      1342 2.00383E-03-6.93254E-04-4.04220E-15
 -1      1343 1.79299E-03-6.29481E-04-3.23008E-15
 -1      1344 2.13319E-03-7.07789E-04-4.67973E-15
 -1      1345 2.26055E-03-7.18085E-04-5.36248E-15
 -1      1346 2.06251E-03-6.66878E-04-4.40963E-15
 -1      1347 2.38595E-03-7.23476E-04-6.09004E-15
 -1      1348 2.50950E-03-7.23330E-04-6.86202E-15
 -1      1349 2.32509E-03-6.88352E-04-5.76894E-15
 -1      1350 2.63144E-03-7.16899E-04-7.67873E-15
 -1      1351 2.75204E-03-7.03629E-04-8.53912E-15
 -1      1352 2.58120E-03-6.88809E-04-7.30557E-15
 -1      1353 2.87172E-03-6.82947E-04-9.44130E-15
 -1      1354 2.99089E-03-6.54554E-04-1.03861E-14
 -1      1355 2.83232E-03-6.62753E-04-9.01593E-15
 -1      1356 3.11009E-03-6.18271E-04-1.13706E-14
 -1      1357 3.22981E-03-5.74173E-04-1.23944E-14
 -1      1358 3.08100E-03-6.06072E-04-1.08936E-14
 -1      1359 3.35055E-03-5.22568E-04-1.34588E-14
 -1      1360 3.47276E-03-4.63915E-04-1.45610E-14
 -1      1361 3.33050E-03-5.17558E-04-1.29326E-14
 -1      1362 3.59682E-03-3.98938E-04-1.57022E-14
 -1      1363 3.72302E-03-3.28373E-04-1.68806E-14
 -1      1364 3.58404E-03-3.99565E-04-1.51290E-14
 -1      1365 3.85156E-03-2.53165E-04-1.80943E-14
 -1      1366 3.98253E-03-1.74162E-04-1.93433E-14
 -1      1367 3.84407E-03-2.57509E-04-1.74752E-14
 -1      1368 4.11593E-03-9.23020E-05-2.06269E-14
 -1      1369 4.25168E-03-8.38297E-06-2.19443E-14
 -1      1370 4.11184E-03-9.84992E-05-1.99631E-14
 -1      1371 4.38961E-03 7.68359E-05-2.32951E-14
 -1      1372 4.52951E-03 1.62713E-04-2.46778E-14
 -1      1373 4.38729E-03 7.02746E-05-2.25883E-14
 -1      1374 4.67115E-03 2.48746E-04-2.60932E-14
 -1      1375 4.81427E-03 3.34489E-04-2.75399E-14
 -1      1376 4.66940E-03 2.42800E-04-2.53436E-14
 -1      1377 4.95859E-03 4.19692E-04-2.90163E-14
 -1      1378 5.10387E-03 5.04092E-04-3.05224E-14
 -1      1379 4.95663E-03 4.14852E-04-2.82253E-14
 -1      1380 5.24987E-03 5.87631E-04-3.20571E-14
 -1      1381 5.39637E-03 6.70190E-04-3.36203E-14
 -1      1382 5.24727E-03 5.84011E-04-3.12260E-14
 -1      1383 5.54317E-03 7.51835E-04-3.52110E-14
 -1      1384 5.69014E-03 8.32541E-04-3.68293E-14
 -1      1385 5.53979E-03 7.49314E-04-3.43416E-14
 -1      1386 5.83712E-03 9.12433E-04-3.84761E-14
 -1      1387 5.98401E-03 9.91544E-04-4.01504E-14
 -1      1388 5.83300E-03 9.10776E-04-3.75688E-14
 -1      1389 6.13075E-03 1.07001E-03-4.18507E-14
 -1      1390 6.27726E-03 1.14789E-03-4.35769E-14
 -1      1391 6.12604E-03 1.06895E-03-4.09048E-14
 -1      1392 6.42350E-03 1.22531E-03-4.53276E-14
 -1      1393 6.56946E-03 1.30234E-03-4.71016E-14
 -1      1394 6.41837E-03 1.22462E-03-4.43445E-14
 -1      1395 6.71512E-03 1.37907E-03-4.88992E-14
 -1      1396 6.86048E-03 1.45557E-03-5.07199E-14
 -1      1397 6.70974E-03 1.37855E-03-4.78812E-14
 -1      1398 7.00555E-03 1.53190E-03-5.25633E-14
 -1      1399 7.15034E-03 1.60812E-03-5.44272E-14
 -1      1400 7.00005E-03 1.53141E-03-5.15107E-14
 -1      1401 7.29487E-03 1.68428E-03-5.63116E-14
 -1      1402 7.43916E-03 1.76041E-03-5.82178E-14
 -1      1403 7.28937E-03 1.68373E-03-5.52268E-14
 -1      1404 7.58323E-03 1.83654E-03-6.01433E-14
 -1      1405 7.72709E-03 1.91271E-03-6.20881E-14
 -1      1406 7.57779E-03 1.83588E-03-5.90250E-14
 -1      1407 7.87078E-03 1.98892E-03-6.40508E-14
 -1      1408 8.01432E-03 2.06519E-03-6.60310E-14
 -1      1409 7.86545E-03 1.98812E-03-6.29016E-14
 -1      1410 8.15772E-03 2.14153E-03-6.80277E-14
 -1      1411 8.30099E-03 2.21794E-03-7.00380E-14
 -1      1412 8.15251E-03 2.14059E-03-6.68488E-14
 -1      1413 8.44417E-03 2.29444E-03-7.20637E-14
 -1      1414 8.58727E-03 2.37101E-03-7.41026E-14
 -1      1415 8.43911E-03 2.29337E-03-7.08599E-14
 -1      1416 8.73029E-03 2.44766E-03-7.61554E-14
 -1      1417 8.87325E-03 2.52439E-03-7.82197E-14
 -1      1418 8.72535E-03 2.44648E-03-7.49273E-14
 -1      1419 9.01616E-03 2.60119E-03-8.02943E-14
 -1      1420 9.15904E-03 2.67806E-03-8.23799E-14
 -1      1421 9.01134E-03 2.59991E-03-7.90423E-14
 -1      1422 9.30188E-03 2.75500E-03-8.44749E-14
 -1      1423 9.44470E-03 2.83199E-03-8.65782E-14
 -1      1424 9.29716E-03 2.75363E-03-8.32025E-14
 -1      1425 9.58750E-03 2.90904E-03-8.86911E-14
 -1      1426 9.73029E-03 2.98613E-03-9.08107E-14
 -1      1427 9.58287E-03 2.90761E-03-8.74028E-14
 -1      1428 9.87307E-03 3.06328E-03-9.29380E-14
 -1      1429 1.00158E-02 3.14046E-03-9.50728E-14
 -1      1430 9.86850E-03 3.06180E-03-9.16358E-14
 -1      1431 1.01586E-02 3.21768E-03-9.72153E-14
 -1      1432 1.03014E-02 3.29493E-03-9.93615E-14
 -1      1433 1.01541E-02 3.21616E-03-9.58972E-14
 -1      1434 1.04442E-02 3.37221E-03-1.01509E-13
 -1      1435 1.05869E-02 3.44951E-03-1.03660E-13
 -1      1436 1.04397E-02 3.37066E-03-1.00181E-13
 -1      1437 1.07297E-02 3.52684E-03-1.05809E-13
 -1      1438 1.08725E-02 3.60418E-03-1.07958E-13
 -1      1439 1.07253E-02 3.52527E-03-1.04473E-13
 -1      1440 1.10153E-02 3.68155E-03-1.10115E-13
 -1      1441 1.11581E-02 3.75892E-03-1.12276E-13
 -1      1442 1.10109E-02 3.67996E-03-1.08776E-13
 -1      1443 1.13009E-02 3.83631E-03-1.14434E-13
 -1      1444 1.14437E-02 3.91371E-03-1.16596E-13
 -1      1445 1.12965E-02 3.83471E-03-1.13085E-13
 -1      1446 1.15865E-02 3.99111E-03-1.18761E-13
 -1      1447 1.17293E-02 4.06853E-03-1.20927E-13
 -1      1448 1.15821E-02 3.98951E-03-1.17404E-13
 -1      1449 1.18721E-02 4.14595E-03-1.23096E-13
 -1      1450 1.20149E-02 4.22337E-03-1.25265E-13
 -1      1451 1.18677E-02 4.14434E-03-1.21731E-13
 -1      1452 1.21578E-02 4.30080E-03-1.27433E-13
 -1      1453 1.23006E-02 4.37823E-03-1.29598E-13
 -1      1454 1.21534E-02 4.29919E-03-1.26065E-13
 -1      1455 1.24434E-02 4.45566E-03-1.31762E-13
 -1      1456 1.25863E-02 4.53310E-03-1.33928E-13
 -1      1457 1.24391E-02 4.45405E-03-1.30396E-13
 -1      1458 1.27291E-02 4.61053E-03-1.36088E-13
 -1      1459 1.28720E-02 4.68796E-03-1.38245E-13
 -1      1460 1.27247E-02 4.60892E-03-1.34723E-13
 -1      1461 1.30148E-02 4.76540E-03-1.40398E-13
 -1      1462 1.31577E-02 4.84283E-03-1.42549E-13
 -1      1463 1.30104E-02 4.76379E-03-1.39037E-13
 -1      1464 1.33005E-02 4.92026E-03-1.44693E-13
 -1      1465 1.34434E-02 4.99770E-03-1.46833E-13
 -1      1466 1.32961E-02 4.91866E-03-1.43337E-13
 -1      1467 1.35862E-02 5.07512E-03-1.48977E-13
 -1      1468 1.37291E-02 5.15255E-03-1.51125E-13
 -1      1469 1.35818E-02 5.07352E-03-1.47626E-13
 -1      1470 1.39440E-02 5.26913E-03-1.54216E-13
 -1      1471 1.39396E-02 5.26753E-03-1.52862E-13
 -1      1472 7.23582E-04 3.23981E-04-1.41759E-17
 -1      1473 5.47927E-04 2.67109E-04 2.60615E-17
 -1      1474 4.97634E-04 2.25393E-04-1.11131E-17
 -1      1475 1.07312E-03 4.10350E-04-1.94858E-16
 -1      1476 8.97932E-04 3.69704E-04-8.76035E-17
 -1      1477 8.46512E-04 3.28254E-04-1.36799E-16
 -1      1478 1.43299E-03 4.84520E-04-5.12828E-16
 -1      1479 1.25084E-03 4.47435E-04-3.36238E-16
 -1      1480 1.19594E-03 4.05519E-04-3.96466E-16
 -1      1481 1.81472E-03 5.68515E-04-9.71608E-16
 -1      1482 1.62039E-03 5.23704E-04-7.24532E-16
 -1      1483 1.55586E-03 4.79299E-04-7.93731E-16
 -1      1484 2.22556E-03 6.89501E-04-1.57539E-15
 -1      1485 2.01613E-03 6.22455E-04-1.25505E-15
 -1      1486 1.93478E-03 5.73263E-04-1.33174E-15
 -1      1487 2.66547E-03 8.83439E-04-2.32546E-15
 -1      1488 2.44237E-03 7.75513E-04-1.93179E-15
 -1      1489 2.33804E-03 7.19058E-04-2.01372E-15
 -1      1490 3.14352E-03 1.20331E-03-3.27537E-15
 -1      1491 2.90461E-03 1.02855E-03-2.77850E-15
 -1      1492 2.77646E-03 9.63240E-04-2.86578E-15
 -1      1493 3.58062E-03 1.61237E-03-4.35352E-15
 -1      1494 3.36748E-03 1.40024E-03-3.79227E-15
 -1      1495 3.22903E-03 1.32991E-03-3.88510E-15
 -1      1496 3.92517E-03 1.98695E-03-5.48514E-15
 -1      1497 3.75973E-03 1.80814E-03-4.89932E-15
 -1      1498 3.63744E-03 1.74400E-03-4.99694E-15
 -1      1499 4.21884E-03 2.22432E-03-6.79124E-15
 -1      1500 4.07578E-03 2.13038E-03-6.11612E-15
 -1      1501 3.99354E-03 2.08331E-03-6.21854E-15
 -1      1502 4.50199E-03 2.22581E-03-8.27600E-15
 -1      1503 4.35756E-03 2.25315E-03-7.51030E-15
 -1      1504 4.32595E-03 2.22165E-03-7.61583E-15
 -1      1505 4.86555E-03 2.00723E-03-1.01372E-14
 -1      1506 4.67540E-03 2.13341E-03-9.17980E-15
 -1      1507 4.68861E-03 2.10405E-03-9.28393E-15
 -1      1508 5.29499E-03 1.74246E-03-1.21991E-14
 -1      1509 5.07408E-03 1.86977E-03-1.11446E-14
 -1      1510 5.10969E-03 1.83228E-03-1.12448E-14
 -1      1511 5.75705E-03 1.56934E-03-1.44257E-14
 -1      1512 5.52484E-03 1.64148E-03-1.32934E-14
 -1      1513 5.55540E-03 1.59675E-03-1.33891E-14
 -1      1514 6.21366E-03 1.51798E-03-1.67837E-14
 -1      1515 5.98781E-03 1.53021E-03-1.55899E-14
 -1      1516 5.99690E-03 1.48240E-03-1.56836E-14
 -1      1517 6.64390E-03 1.56130E-03-1.92572E-14
 -1      1518 6.43272E-03 1.53039E-03-1.80068E-14
 -1      1519 6.41717E-03 1.48228E-03-1.81020E-14
 -1      1520 7.04232E-03 1.66359E-03-2.18311E-14
 -1      1521 6.84706E-03 1.60698E-03-2.05322E-14
 -1      1522 6.81121E-03 1.55989E-03-2.06304E-14
 -1      1523 7.41164E-03 1.79841E-03-2.45122E-14
 -1      1524 7.23030E-03 1.72808E-03-2.31585E-14
 -1      1525 7.18023E-03 1.68245E-03-2.32616E-14
 -1      1526 7.77427E-03 1.95757E-03-2.74433E-14
 -1      1527 7.59574E-03 1.87643E-03-2.59637E-14
 -1      1528 7.53645E-03 1.83235E-03-2.60658E-14
 -1      1529 8.10166E-03 2.11686E-03-3.03284E-14
 -1      1530 7.93980E-03 2.03662E-03-2.88752E-14
 -1      1531 7.87503E-03 1.99389E-03-2.89752E-14
 -1      1532 8.41638E-03 2.27909E-03-3.33133E-14
 -1      1533 8.26032E-03 2.19777E-03-3.18067E-14
 -1      1534 8.19252E-03 2.15614E-03-3.19099E-14
 -1      1535 8.72211E-03 2.44205E-03-3.63959E-14
 -1      1536 8.57016E-03 2.36056E-03-3.48428E-14
 -1      1537 8.50070E-03 2.31977E-03-3.49452E-14
 -1      1538 9.02151E-03 2.60466E-03-3.95789E-14
 -1      1539 8.87245E-03 2.52344E-03-3.79753E-14
 -1      1540 8.80214E-03 2.48329E-03-3.80800E-14
 -1      1541 9.31650E-03 2.76649E-03-4.28531E-14
 -1      1542 9.16945E-03 2.68569E-03-4.12052E-14
 -1      1543 9.09877E-03 2.64603E-03-4.13119E-14
 -1      1544 9.60841E-03 2.92737E-03-4.62120E-14
 -1      1545 9.46277E-03 2.84705E-03-4.45216E-14
 -1      1546 9.39197E-03 2.80775E-03-4.46322E-14
 -1      1547 9.89820E-03 3.08731E-03-4.96656E-14
 -1      1548 9.75352E-03 3.00746E-03-4.79258E-14
 -1      1549 9.68275E-03 2.96842E-03-4.80408E-14
 -1      1550 1.02009E-02 3.25431E-03-5.33921E-14
 -1      1551 1.00497E-02 3.17093E-03-5.15163E-14
 -1      1552 9.97904E-03 3.13208E-03-5.16307E-14
 -1      1553 1.04882E-02 3.41257E-03-5.70396E-14
 -1      1554 1.03446E-02 3.33353E-03-5.52031E-14
 -1      1555 1.02741E-02 3.29483E-03-5.53202E-14
 -1      1556 1.07747E-02 3.57016E-03-6.07880E-14
 -1      1557 1.06315E-02 3.49144E-03-5.89000E-14
 -1      1558 1.05611E-02 3.45284E-03-5.90189E-14
 -1      1559 1.10609E-02 3.72718E-03-6.46346E-14
 -1      1560 1.09179E-02 3.64873E-03-6.26995E-14
 -1      1561 1.08476E-02 3.61021E-03-6.28142E-14
 -1      1562 1.13468E-02 3.88374E-03-6.85884E-14
 -1      1563 1.12038E-02 3.80552E-03-6.65987E-14
 -1      1564 1.11337E-02 3.76705E-03-6.67070E-14
 -1      1565 1.16324E-02 4.03992E-03-7.26248E-14
 -1      1566 1.14896E-02 3.96188E-03-7.05957E-14
 -1      1567 1.14196E-02 3.92344E-03-7.06945E-14
 -1      1568 1.19180E-02 4.19579E-03-7.67191E-14
 -1      1569 1.17752E-02 4.11789E-03-7.46654E-14
 -1      1570 1.17053E-02 4.07948E-03-7.47530E-14
 -1      1571 1.22178E-02 4.35918E-03-8.10837E-14
 -1      1572 1.20679E-02 4.27752E-03-7.88957E-14
 -1      1573 1.19981E-02 4.23913E-03-7.89774E-14
 -1      1574 1.25033E-02 4.51460E-03-8.52760E-14
 -1      1575 1.23606E-02 4.43691E-03-8.31770E-14
 -1      1576 1.22908E-02 4.39853E-03-8.32473E-14
 -1      1577 1.27888E-02 4.66986E-03-8.94920E-14
 -1      1578 1.26461E-02 4.59225E-03-8.73813E-14
 -1      1579 1.25763E-02 4.55388E-03-8.74470E-14
 -1      1580 1.30744E-02 4.82502E-03-9.37231E-14
 -1      1581 1.29316E-02 4.74745E-03-9.16071E-14
 -1      1582 1.28619E-02 4.70908E-03-9.16679E-14
 -1      1583 1.33599E-02 4.98008E-03-9.79518E-14
 -1      1584 1.32171E-02 4.90256E-03-9.58369E-14
 -1      1585 1.31474E-02 4.86419E-03-9.58963E-14
 -1      1586 1.36455E-02 5.13508E-03-1.02190E-13
 -1      1587 1.35027E-02 5.05758E-03-1.00071E-13
 -1      1588 1.34330E-02 5.01922E-03-1.00134E-13
 -1      1589 1.39311E-02 5.29003E-03-1.06424E-13
 -1      1590 1.37883E-02 5.21256E-03-1.04307E-13
 -1      1591 1.37186E-02 5.17419E-03-1.04371E-13
 -1      1592 1.42167E-02 5.44495E-03-1.10671E-13
 -1      1593 1.40739E-02 5.36749E-03-1.08546E-13
 -1      1594 1.40042E-02 5.32913E-03-1.08616E-13
 -1      1595 1.45166E-02 5.60759E-03-1.15158E-13
 -1      1596 1.43667E-02 5.52627E-03-1.12910E-13
 -1      1597 1.42970E-02 5.48791E-03-1.12981E-13
 -1      1598 1.48023E-02 5.76248E-03-1.19443E-13
 -1      1599 1.46594E-02 5.68504E-03-1.17298E-13
 -1      1600 1.45898E-02 5.64667E-03-1.17367E-13
 -1      1601 1.50879E-02 5.91736E-03-1.23763E-13
 -1      1602 1.49451E-02 5.83992E-03-1.21599E-13
 -1      1603 1.48755E-02 5.80155E-03-1.21669E-13
 -1      1604 1.53736E-02 6.07223E-03-1.28098E-13
 -1      1605 1.52308E-02 5.99479E-03-1.25929E-13
 -1      1606 1.51612E-02 5.95642E-03-1.25996E-13
 -1      1607 1.56593E-02 6.22711E-03-1.32444E-13
 -1      1608 1.55165E-02 6.14967E-03-1.30270E-13
 -1      1609 1.54469E-02 6.11130E-03-1.30337E-13
 -1      1610 1.59450E-02 6.38199E-03-1.36797E-13
 -1      1611 1.58022E-02 6.30455E-03-1.34619E-13
 -1      1612 1.57326E-02 6.26618E-03-1.34691E-13
 -1      1613 1.62308E-02 6.53688E-03-1.41160E-13
 -1      1614 1.60879E-02 6.45944E-03-1.38976E-13
 -1      1615 1.60183E-02 6.42106E-03-1.39049E-13
 -1      1616 1.63671E-02 6.61056E-03-1.43642E-13
 -1      1617 1.61958E-02 6.51558E-03-1.44866E-13
 -1      1618 1.62720E-02 6.55772E-03-1.44490E-13
 -1      1619 1.60435E-02 6.43129E-03-1.45604E-13
 -1      1620 1.61197E-02 6.47344E-03-1.45239E-13
 -1      1621 1.60340E-02 6.42744E-03-1.43152E-13
 -1      1622 1.58912E-02 6.34699E-03-1.46320E-13
 -1      1623 1.59673E-02 6.38914E-03-1.45962E-13
 -1      1624 1.58817E-02 6.34315E-03-1.43880E-13
 -1      1625 1.57388E-02 6.26269E-03-1.47034E-13
 -1      1626 1.58150E-02 6.30484E-03-1.46681E-13
 -1      1627 1.57294E-02 6.25885E-03-1.44597E-13
 -1      1628 1.55891E-02 6.17981E-03-1.47711E-13
 -1      1629 1.56640E-02 6.22125E-03-1.47374E-13
 -1      1630 1.55783E-02 6.17526E-03-1.45295E-13
 -1      1631 1.54368E-02 6.09549E-03-1.48375E-13
 -1      1632 1.55129E-02 6.13765E-03-1.48048E-13
 -1      1633 1.54273E-02 6.09166E-03-1.45971E-13
 -1      1634 1.52845E-02 6.01117E-03-1.49004E-13
 -1      1635 1.53606E-02 6.05333E-03-1.48693E-13
 -1      1636 1.52750E-02 6.00735E-03-1.46626E-13
 -1      1637 1.51322E-02 5.92685E-03-1.49612E-13
 -1      1638 1.52083E-02 5.96901E-03-1.49310E-13
 -1      1639 1.51227E-02 5.92303E-03-1.47255E-13
 -1      1640 1.49799E-02 5.84253E-03-1.50211E-13
 -1      1641 1.50560E-02 5.88469E-03-1.49913E-13
 -1      1642 1.49704E-02 5.83871E-03-1.47871E-13
 -1      1643 1.48276E-02 5.75821E-03-1.50817E-13
 -1      1644 1.49038E-02 5.80037E-03-1.50512E-13
 -1      1645 1.48181E-02 5.75439E-03-1.48481E-13
 -1      1646 1.46779E-02 5.67533E-03-1.51423E-13
 -1      1647 1.47528E-02 5.71677E-03-1.51121E-13
 -1      1648 1.46671E-02 5.67079E-03-1.49091E-13
 -1      1649 1.45257E-02 5.59102E-03-1.52036E-13
 -1      1650 1.46018E-02 5.63317E-03-1.51729E-13
 -1      1651 1.45162E-02 5.58720E-03-1.49705E-13
 -1      1652 1.43734E-02 5.50672E-03-1.52658E-13
 -1      1653 1.44496E-02 5.54887E-03-1.52348E-13
 -1      1654 1.43639E-02 5.50289E-03-1.50327E-13
 -1      1655 1.42212E-02 5.42242E-03-1.53292E-13
 -1      1656 1.42973E-02 5.46457E-03-1.52976E-13
 -1      1657 1.42117E-02 5.41860E-03-1.50956E-13
 -1      1658 1.40423E-02 5.32391E-03-1.53239E-13
 -1      1659 1.41185E-02 5.36605E-03-1.52919E-13
 -1      1660 1.40328E-02 5.32007E-03-1.50898E-13
 -1      1661 1.38274E-02 5.20733E-03-1.50149E-13
 -1      1662 6.36853E-03 1.03319E-03-1.35527E-14
 -1      1663 6.36375E-03 9.87035E-04-1.36924E-14
 -1      1664 6.26945E-03 1.14557E-03-1.31297E-14
 -1      1665 6.33468E-03 1.08997E-03-1.33806E-14
 -1      1666 6.04313E-03 1.29971E-03-1.24121E-14
 -1      1667 6.16106E-03 1.22758E-03-1.27303E-14
 -1      1668 5.71043E-03 1.49246E-03-1.15937E-14
 -1      1669 5.87623E-03 1.39750E-03-1.19859E-14
 -1      1670 5.30542E-03 1.71641E-03-1.06604E-14
 -1      1671 5.49805E-03 1.61114E-03-1.10977E-14
 -1      1672 4.80929E-03 1.94435E-03-9.57437E-15
 -1      1673 5.03750E-03 1.84043E-03-1.01002E-14
 -1      1674 4.37526E-03 2.05907E-03-8.58108E-15
 -1      1675 4.57067E-03 2.02252E-03-9.00200E-15
 -1      1676 3.93188E-03 2.03795E-03-7.66081E-15
 -1      1677 4.13854E-03 2.06957E-03-8.07625E-15
 -1      1678 3.46435E-03 1.85729E-03-6.80949E-15
 -1      1679 3.68211E-03 1.95872E-03-7.18100E-15
 -1      1680 2.96537E-03 1.56143E-03-6.07199E-15
 -1      1681 3.19804E-03 1.70571E-03-6.38530E-15
 -1      1682 2.46865E-03 1.24769E-03-5.51768E-15
 -1      1683 2.68939E-03 1.38725E-03-5.74649E-15
 -1      1684 2.02811E-03 1.00753E-03-5.18999E-15
 -1      1685 2.20950E-03 1.11655E-03-5.33747E-15
 -1      1686 1.70174E-03 8.20037E-04-4.99040E-15
 -1      1687 1.83745E-03 9.02422E-04-5.07156E-15
 -1      1688 1.48991E-03 6.67968E-04-4.90658E-15
 -1      1689 1.57283E-03 7.30586E-04-4.92081E-15
 -1      1690 1.42368E-03 5.59052E-04-4.99915E-15
 -1      1691 1.43552E-03 6.06676E-04-4.94443E-15
 -1      1692 1.49782E-03 4.68406E-04-5.16510E-15
 -1      1693 1.44644E-03 5.08985E-04-5.04740E-15
 -1      1694 1.69347E-03 3.54435E-04-5.56701E-15
 -1      1695 1.58882E-03 4.05925E-04-5.38228E-15
 -1      1696 2.00258E-03 2.29266E-04-6.06413E-15
 -1      1697 1.85064E-03 2.93478E-04-5.80470E-15
 -1      1698 2.36758E-03 7.24599E-05-6.75787E-15
 -1      1699 2.19067E-03 1.42070E-04-6.43212E-15
 -1      1700 2.75230E-03-6.39430E-05-7.53632E-15
 -1      1701 2.57275E-03-5.51537E-06-7.17113E-15
 -1      1702 3.16831E-03-1.61832E-04-8.43013E-15
 -1      1703 2.97844E-03-1.22449E-04-7.99672E-15
 -1      1704 3.56607E-03-1.86514E-04-9.37878E-15
 -1      1705 3.38572E-03-1.84427E-04-8.94719E-15
 -1      1706 3.94705E-03-1.32929E-04-1.02752E-14
 -1      1707 3.77434E-03-1.65456E-04-9.87003E-15
 -1      1708 4.34241E-03-7.99087E-06-1.12107E-14
 -1      1709 4.15295E-03-7.63282E-05-1.07870E-14
 -1      1710 4.75423E-03 1.59087E-04-1.19848E-14
 -1      1711 4.57305E-03 7.92414E-05-1.16387E-14
 -1      1712 5.15987E-03 3.55196E-04-1.27077E-14
 -1      1713 4.96758E-03 2.63178E-04-1.23961E-14
 -1      1714 5.54965E-03 5.33101E-04-1.32269E-14
 -1      1715 5.37916E-03 4.52253E-04-1.30015E-14
 -1      1716 5.88991E-03 6.92813E-04-1.36011E-14
 -1      1717 5.73848E-03 6.21916E-04-1.34502E-14
 -1      1718 6.15442E-03 8.22822E-04-1.37835E-14
 -1      1719 6.04349E-03 7.66890E-04-1.37253E-14
 -1      1720 6.32154E-03 9.32852E-04-1.37964E-14
 -1      1721 6.25758E-03 8.86685E-04-1.38323E-14
 -1      1722 5.54484E-03 1.50757E-03-1.15679E-14
 -1      1723 5.92096E-03 1.29612E-03-1.25154E-14
 -1      1724 1.62975E-02 6.57219E-03-1.43714E-13
 -1      1725 1.61357E-02 6.48405E-03-1.42008E-13
 -1      1726 6.35892E-03 1.05050E-03-1.39555E-14
 -1      1727 6.20530E-03 1.14222E-03-1.33629E-14
 -1      1728 6.35326E-03 9.82660E-04-1.42412E-14
 -1      1729 5.09604E-03 1.76572E-03-1.04887E-14
 -1      1730 4.66186E-03 1.99728E-03-9.33623E-15
 -1      1731 4.25047E-03 2.09805E-03-8.25663E-15
 -1      1732 3.85550E-03 2.02455E-03-7.28077E-15
 -1      1733 3.41805E-03 1.77292E-03-6.39921E-15
 -1      1734 2.92889E-03 1.42428E-03-5.68229E-15
 -1      1735 2.42325E-03 1.10673E-03-5.21030E-15
 -1      1736 1.97794E-03 8.76695E-04-4.93310E-15
 -1      1737 1.64934E-03 7.09881E-04-4.75815E-15
 -1      1738 1.45729E-03 6.05283E-04-4.73163E-15
 -1      1739 1.42551E-03 5.32233E-04-4.81335E-15
 -1      1740 1.54565E-03 4.69200E-04-5.06214E-15
 -1      1741 1.79823E-03 3.69041E-04-5.49927E-15
 -1      1742 2.14161E-03 2.29242E-04-6.07850E-15
 -1      1743 2.52264E-03 5.79360E-05-6.83922E-15
 -1      1744 2.91800E-03-9.52983E-05-7.69797E-15
 -1      1745 3.29467E-03-1.94987E-04-8.66521E-15
 -1      1746 3.65196E-03-2.03831E-04-9.67425E-15
 -1      1747 4.00640E-03-1.20622E-04-1.06844E-14
 -1      1748 4.37735E-03 4.10723E-05-1.16409E-14
 -1      1749 4.78356E-03 2.48249E-04-1.24976E-14
 -1      1750 5.19395E-03 4.62825E-04-1.32240E-14
 -1      1751 5.59493E-03 6.50152E-04-1.37580E-14
 -1      1752 5.94140E-03 7.98676E-04-1.41177E-14
 -1      1753 6.20444E-03 9.07521E-04-1.42972E-14
 -1      1754 2.95844E-04-1.76379E-04-1.05384E-16
 -1      1755 3.43609E-04-1.06241E-04-2.49312E-16
 -1      1756 3.48378E-04-1.25202E-04-2.40977E-16
 -1      1757 3.54805E-04-1.46565E-04-2.29146E-16
 -1      1758 3.64970E-04-1.70684E-04-2.10660E-16
 -1      1759 4.75637E-04-1.80829E-04-3.51322E-16
 -1      1760 3.30421E-04-4.14618E-05-2.58786E-16
 -1      1761 3.33625E-04-5.62663E-05-2.58894E-16
 -1      1762 3.22956E-04-1.34109E-05-2.55519E-16
 -1      1763 3.26902E-04-2.70068E-05-2.57647E-16
 -1      1764 4.44170E-04-4.76988E-05-3.80243E-16
 -1      1765 3.13799E-04 1.08745E-05-2.49827E-16
 -1      1766 3.18561E-04-6.92405E-07-2.53026E-16
 -1      1767 4.33024E-04-1.15942E-05-3.74524E-16
 -1      1768 3.03573E-04 3.00073E-05-2.42455E-16
 -1      1769 3.08692E-04 2.11839E-05-2.46412E-16
 -1      1770 4.19335E-04 1.94668E-05-3.65539E-16
 -1      1771 2.94115E-04 4.29087E-05-2.32846E-16
 -1      1772 2.98532E-04 3.72744E-05-2.38037E-16
 -1      1773 4.04355E-04 4.37567E-05-3.53884E-16
 -1      1774 2.88252E-04 4.97366E-05-2.20947E-16
 -1      1775 2.90479E-04 4.70037E-05-2.27330E-16
 -1      1776 3.91132E-04 6.01428E-05-3.39260E-16
 -1      1777 2.89000E-04 5.25905E-05-2.06066E-16
 -1      1778 2.87611E-04 5.14318E-05-2.14157E-16
 -1      1779 3.84079E-04 6.92241E-05-3.21317E-16
 -1      1780 2.98709E-04 5.57971E-05-1.86401E-16
 -1      1781 2.92633E-04 5.38281E-05-1.97230E-16
 -1      1782 3.87487E-04 7.43779E-05-2.98833E-16
 -1      1783 3.18218E-04 6.52337E-05-1.59798E-16
 -1      1784 3.07307E-04 5.93558E-05-1.74570E-16
 -1      1785 4.04574E-04 8.14867E-05-2.69275E-16
 -1      1786 3.46709E-04 8.77978E-05-1.23070E-16
 -1      1787 3.31511E-04 7.45077E-05-1.43318E-16
 -1      1788 4.35952E-04 9.82324E-05-2.29498E-16
 -1      1789 3.84407E-04 1.31500E-04-7.25196E-17
 -1      1790 3.64479E-04 1.06614E-04-1.00424E-16
 -1      1791 4.80131E-04 1.33120E-04-1.75966E-16
 -1      1792 4.54897E-04 1.90965E-04-3.41795E-17
 -1      1793 4.17904E-04 1.57250E-04-5.80319E-17
 -1      1794 5.43647E-04 1.85495E-04-1.26825E-16
 -1      1795 6.26378E-04 2.46988E-04-8.46084E-17
 -1      1796 3.52933E-04-1.89659E-04-1.65232E-16
 -1      1797 9.69221E-04 3.34309E-04-2.85565E-16
 -1      1798 7.97417E-04 2.93627E-04-1.68851E-16
 -1      1799 7.50562E-04 2.60709E-04-1.95902E-16
 -1      1800 4.76554E-04-2.34716E-04-2.77664E-16
 -1      1801 8.38767E-04-3.76619E-04-7.12267E-16
 -1      1802 9.89608E-04-4.21410E-04-9.80620E-16
 -1      1803 1.13778E-03-4.61026E-04-1.29501E-15
 -1      1804 1.28414E-03-4.96049E-04-1.65632E-15
 -1      1805 1.04386E-03-4.04001E-04-1.17143E-15
 -1      1806 1.42869E-03-5.27722E-04-2.06290E-15
 -1      1807 1.57153E-03-5.56074E-04-2.51525E-15
 -1      1808 1.34051E-03-4.74365E-04-1.89493E-15
 -1      1809 1.71291E-03-5.81599E-04-3.01288E-15
 -1      1810 1.85264E-03-6.04060E-04-3.55568E-15
 -1      1811 1.63179E-03-5.31662E-04-2.79854E-15
 -1      1812 1.99093E-03-6.23344E-04-4.14298E-15
 -1      1813 2.12757E-03-6.38969E-04-4.77530E-15
 -1      1814 1.91784E-03-5.77398E-04-3.88062E-15
 -1      1815 2.26271E-03-6.50381E-04-5.45236E-15
 -1      1816 2.39632E-03-6.56920E-04-6.17280E-15
 -1      1817 2.19838E-03-6.09693E-04-5.13980E-15
 -1      1818 2.52845E-03-6.57807E-04-6.93694E-15
 -1      1819 2.65939E-03-6.52343E-04-7.74508E-15
 -1      1820 2.47322E-03-6.23949E-04-6.57397E-15
 -1      1821 2.78914E-03-6.39792E-04-8.59599E-15
 -1      1822 2.91829E-03-6.19631E-04-9.48899E-15
 -1      1823 2.74280E-03-6.14079E-04-8.18113E-15
 -1      1824 3.04680E-03-5.91440E-04-1.04234E-14
 -1      1825 3.17549E-03-5.55052E-04-1.13979E-14
 -1      1826 3.00868E-03-5.74379E-04-9.95809E-15
 -1      1827 3.30429E-03-5.10552E-04-1.24130E-14
 -1      1828 3.43401E-03-4.58218E-04-1.34680E-14
 -1      1829 3.27341E-03-5.01570E-04-1.18988E-14
 -1      1830 3.56459E-03-3.98651E-04-1.45611E-14
 -1      1831 3.69664E-03-3.32499E-04-1.56932E-14
 -1      1832 3.53996E-03-3.96214E-04-1.39992E-14
 -1      1833 3.83009E-03-2.60725E-04-1.68613E-14
 -1      1834 3.96524E-03-1.84171E-04-1.80657E-14
 -1      1835 3.81082E-03-2.62796E-04-1.62528E-14
 -1      1836 4.10204E-03-1.03918E-04-1.93057E-14
 -1      1837 4.24045E-03-2.08021E-05-2.05798E-14
 -1      1838 4.08733E-03-1.08480E-04-1.86533E-14
 -1      1839 4.38047E-03 6.42065E-05-2.18871E-14
 -1      1840 4.52181E-03 1.50423E-04-2.32270E-14
 -1      1841 4.36951E-03 5.87759E-05-2.11924E-14
 -1      1842 4.66450E-03 2.37123E-04-2.46010E-14
 -1      1843 4.80813E-03 3.23834E-04-2.60051E-14
 -1      1844 4.65647E-03 2.31902E-04-2.38633E-14
 -1      1845 4.95276E-03 4.10116E-04-2.74400E-14
 -1      1846 5.09796E-03 4.95697E-04-2.89051E-14
 -1      1847 4.94682E-03 4.05679E-04-2.66614E-14
 -1      1848 5.24379E-03 5.80386E-04-3.04010E-14
 -1      1849 5.38988E-03 6.64067E-04-3.19258E-14
 -1      1850 5.23917E-03 5.76928E-04-2.95821E-14
 -1      1851 5.53628E-03 7.46726E-04-3.34781E-14
 -1      1852 5.68272E-03 8.28349E-04-3.50591E-14
 -1      1853 5.53237E-03 7.44206E-04-3.26208E-14
 -1      1854 5.82923E-03 9.09027E-04-3.66674E-14
 -1      1855 5.97562E-03 9.88802E-04-3.83032E-14
 -1      1856 5.82555E-03 9.07280E-04-3.57724E-14
 -1      1857 6.12191E-03 1.06781E-03-3.99663E-14
 -1      1858 6.26801E-03 1.14611E-03-4.16547E-14
 -1      1859 6.11820E-03 1.06663E-03-3.90337E-14
 -1      1860 6.41391E-03 1.22385E-03-4.33680E-14
 -1      1861 6.55958E-03 1.30110E-03-4.51067E-14
 -1      1862 6.41000E-03 1.22303E-03-4.23984E-14
 -1      1863 6.70500E-03 1.37797E-03-4.68700E-14
 -1      1864 6.85019E-03 1.45454E-03-4.86553E-14
 -1      1865 6.70085E-03 1.37735E-03-4.58638E-14
 -1      1866 6.99513E-03 1.53089E-03-5.04640E-14
 -1      1867 7.13985E-03 1.60708E-03-5.22958E-14
 -1      1868 6.99075E-03 1.53033E-03-4.94250E-14
 -1      1869 7.28434E-03 1.68317E-03-5.41484E-14
 -1      1870 7.42862E-03 1.75920E-03-5.60208E-14
 -1      1871 7.27977E-03 1.68258E-03-5.30751E-14
 -1      1872 7.57271E-03 1.83523E-03-5.79149E-14
 -1      1873 7.71664E-03 1.91127E-03-5.98281E-14
 -1      1874 7.56802E-03 1.83456E-03-5.68105E-14
 -1      1875 7.86039E-03 1.98734E-03-6.17598E-14
 -1      1876 8.00401E-03 2.06348E-03-6.37102E-14
 -1      1877 7.85563E-03 1.98656E-03-6.06253E-14
 -1      1878 8.14750E-03 2.13968E-03-6.56778E-14
 -1      1879 8.29088E-03 2.21597E-03-6.76624E-14
 -1      1880 8.14271E-03 2.13878E-03-6.45140E-14
 -1      1881 8.43416E-03 2.29233E-03-6.96624E-14
 -1      1882 8.57736E-03 2.36879E-03-7.16760E-14
 -1      1883 8.42937E-03 2.29131E-03-6.84706E-14
 -1      1884 8.72048E-03 2.44533E-03-7.37032E-14
 -1      1885 8.86355E-03 2.52195E-03-7.57431E-14
 -1      1886 8.71572E-03 2.44419E-03-7.24866E-14
 -1      1887 9.00655E-03 2.59866E-03-7.77972E-14
 -1      1888 9.14952E-03 2.67544E-03-7.98617E-14
 -1      1889 9.00183E-03 2.59741E-03-7.65570E-14
 -1      1890 9.29245E-03 2.75229E-03-8.19372E-14
 -1      1891 9.43535E-03 2.82921E-03-8.40234E-14
 -1      1892 9.28777E-03 2.75097E-03-8.06764E-14
 -1      1893 9.57822E-03 2.90620E-03-8.61177E-14
 -1      1894 9.72108E-03 2.98324E-03-8.82230E-14
 -1      1895 9.57359E-03 2.90480E-03-8.48400E-14
 -1      1896 9.86392E-03 3.06033E-03-9.03368E-14
 -1      1897 1.00067E-02 3.13747E-03-9.24560E-14
 -1      1898 9.85933E-03 3.05888E-03-8.90408E-14
 -1      1899 1.01496E-02 3.21465E-03-9.45833E-14
 -1      1900 1.02924E-02 3.29187E-03-9.67173E-14
 -1      1901 1.01450E-02 3.21315E-03-9.32742E-14
 -1      1902 1.04352E-02 3.36912E-03-9.88554E-14
 -1      1903 1.05780E-02 3.44640E-03-1.00997E-13
 -1      1904 1.04307E-02 3.36759E-03-9.75325E-14
 -1      1905 1.07208E-02 3.52371E-03-1.03140E-13
 -1      1906 1.08636E-02 3.60103E-03-1.05286E-13
 -1      1907 1.07163E-02 3.52215E-03-1.01809E-13
 -1      1908 1.10064E-02 3.67838E-03-1.07436E-13
 -1      1909 1.11492E-02 3.75575E-03-1.09588E-13
 -1      1910 1.10020E-02 3.67681E-03-1.06099E-13
 -1      1911 1.12921E-02 3.83312E-03-1.11739E-13
 -1      1912 1.14349E-02 3.91051E-03-1.13894E-13
 -1      1913 1.12876E-02 3.83154E-03-1.10396E-13
 -1      1914 1.15777E-02 3.98791E-03-1.16050E-13
 -1      1915 1.17205E-02 4.06532E-03-1.18209E-13
 -1      1916 1.15733E-02 3.98632E-03-1.14701E-13
 -1      1917 1.18633E-02 4.14274E-03-1.20372E-13
 -1      1918 1.20062E-02 4.22016E-03-1.22537E-13
 -1      1919 1.18589E-02 4.14114E-03-1.19015E-13
 -1      1920 1.21490E-02 4.29759E-03-1.24700E-13
 -1      1921 1.22918E-02 4.37502E-03-1.26864E-13
 -1      1922 1.21446E-02 4.29598E-03-1.23338E-13
 -1      1923 1.24347E-02 4.45245E-03-1.29032E-13
 -1      1924 1.25775E-02 4.52988E-03-1.31195E-13
 -1      1925 1.24303E-02 4.45084E-03-1.27666E-13
 -1      1926 1.27204E-02 4.60732E-03-1.33358E-13
 -1      1927 1.28632E-02 4.68475E-03-1.35518E-13
 -1      1928 1.27160E-02 4.60571E-03-1.31993E-13
 -1      1929 1.30061E-02 4.76219E-03-1.37676E-13
 -1      1930 1.31489E-02 4.83962E-03-1.39831E-13
 -1      1931 1.30017E-02 4.76058E-03-1.36315E-13
 -1      1932 1.32918E-02 4.91706E-03-1.41980E-13
 -1      1933 1.34346E-02 4.99449E-03-1.44128E-13
 -1      1934 1.32874E-02 4.91546E-03-1.40622E-13
 -1      1935 1.35596E-02 5.06220E-03-1.46062E-13
 -1      1936 1.37024E-02 5.13963E-03-1.48208E-13
 -1      1937 1.38051E-02 5.19600E-03-1.48581E-13
 -1      1938 1.35552E-02 5.06059E-03-1.44707E-13
 -1      1939 1.31473E-03 4.06264E-04-6.18863E-16
 -1      1940 1.14074E-03 3.70951E-04-4.34968E-16
 -1      1941 1.08537E-03 3.37774E-04-4.68850E-16
 -1      1942 1.67070E-03 4.83713E-04-1.09036E-15
 -1      1943 1.49065E-03 4.42940E-04-8.37099E-16
 -1      1944 1.42400E-03 4.08320E-04-8.75968E-16
 -1      1945 2.04430E-03 5.92561E-04-1.70313E-15
 -1      1946 1.85484E-03 5.32335E-04-1.37878E-15
 -1      1947 1.77273E-03 4.93545E-04-1.42165E-15
 -1      1948 2.44178E-03 7.68169E-04-2.45946E-15
 -1      1949 2.24022E-03 6.69558E-04-2.06268E-15
 -1      1950 2.13963E-03 6.22353E-04-2.10819E-15
 -1      1951 2.88937E-03 1.06776E-03-3.41690E-15
 -1      1952 2.66347E-03 9.01544E-04-2.91665E-15
 -1      1953 2.54596E-03 8.40800E-04-2.96281E-15
 -1      1954 3.33681E-03 1.47268E-03-4.49970E-15
 -1      1955 3.11377E-03 1.25825E-03-3.93633E-15
 -1      1956 2.99222E-03 1.18500E-03-3.98199E-15
 -1      1957 3.73428E-03 1.87357E-03-5.63720E-15
 -1      1958 3.53808E-03 1.67828E-03-5.04894E-15
 -1      1959 3.43225E-03 1.60650E-03-5.09248E-15
 -1      1960 4.10650E-03 2.15295E-03-6.94667E-15
 -1      1961 3.92076E-03 2.03885E-03-6.27009E-15
 -1      1962 3.84575E-03 1.98923E-03-6.31361E-15
 -1      1963 4.46746E-03 2.17553E-03-8.42894E-15
 -1      1964 4.28256E-03 2.19589E-03-7.66530E-15
 -1      1965 4.24256E-03 2.17076E-03-7.70713E-15
 -1      1966 4.89511E-03 1.94627E-03-1.02825E-14
 -1      1967 4.67620E-03 2.08039E-03-9.32940E-15
 -1      1968 4.66511E-03 2.05821E-03-9.36772E-15
 -1      1969 5.34704E-03 1.66542E-03-1.23325E-14
 -1      1970 5.12167E-03 1.80134E-03-1.12831E-14
 -1      1971 5.13061E-03 1.76759E-03-1.13179E-14
 -1      1972 5.79033E-03 1.48421E-03-1.45523E-14
 -1      1973 5.57276E-03 1.56029E-03-1.34232E-14
 -1      1974 5.58963E-03 1.52079E-03-1.34534E-14
 -1      1975 6.20731E-03 1.43062E-03-1.69086E-14
 -1      1976 6.00311E-03 1.44371E-03-1.57152E-14
 -1      1977 6.01313E-03 1.40434E-03-1.57436E-14
 -1      1978 6.59708E-03 1.47433E-03-1.93845E-14
 -1      1979 6.40571E-03 1.44291E-03-1.81328E-14
 -1      1980 6.40026E-03 1.40462E-03-1.81606E-14
 -1      1981 6.96345E-03 1.57814E-03-2.19649E-14
 -1      1982 6.78299E-03 1.52049E-03-2.06618E-14
 -1      1983 6.76098E-03 1.48276E-03-2.06897E-14
 -1      1984 7.31056E-03 1.71495E-03-2.46471E-14
 -1      1985 7.13910E-03 1.64343E-03-2.32938E-14
 -1      1986 7.10334E-03 1.60591E-03-2.33217E-14
 -1      1987 7.65839E-03 1.87624E-03-2.75719E-14
 -1      1988 7.48625E-03 1.79392E-03-2.60957E-14
 -1      1989 7.44024E-03 1.75662E-03-2.61229E-14
 -1      1990 7.97730E-03 2.03733E-03-3.04589E-14
 -1      1991 7.81905E-03 1.95613E-03-2.90034E-14
 -1      1992 7.76616E-03 1.91913E-03-2.90284E-14
 -1      1993 8.28708E-03 2.20107E-03-3.34428E-14
 -1      1994 8.13309E-03 2.11899E-03-3.19379E-14
 -1      1995 8.07589E-03 2.08233E-03-3.19628E-14
 -1      1996 8.59003E-03 2.36524E-03-3.65259E-14
 -1      1997 8.43922E-03 2.28315E-03-3.49721E-14
 -1      1998 8.37932E-03 2.24685E-03-3.49962E-14
 -1      1999 8.88798E-03 2.52879E-03-3.97099E-14
 -1      2000 8.73949E-03 2.44711E-03-3.81063E-14
 -1      2001 8.67795E-03 2.41112E-03-3.81289E-14
 -1      2002 9.18228E-03 2.69134E-03-4.29882E-14
 -1      2003 9.03548E-03 2.61019E-03-4.13377E-14
 -1      2004 8.97298E-03 2.57448E-03-4.13613E-14
 -1      2005 9.47395E-03 2.85276E-03-4.63529E-14
 -1      2006 9.32837E-03 2.77219E-03-4.46598E-14
 -1      2007 9.26531E-03 2.73670E-03-4.46836E-14
 -1      2008 9.76374E-03 3.01311E-03-4.98069E-14
 -1      2009 9.61903E-03 2.93307E-03-4.80690E-14
 -1      2010 9.55568E-03 2.89776E-03-4.80951E-14
 -1      2011 1.00666E-02 3.18043E-03-5.35363E-14
 -1      2012 9.91530E-03 3.09690E-03-5.16578E-14
 -1      2013 9.85181E-03 3.06174E-03-5.16827E-14
 -1      2014 1.03540E-02 3.33891E-03-5.71860E-14
 -1      2015 1.02104E-02 3.25977E-03-5.53502E-14
 -1      2016 1.01469E-02 3.22472E-03-5.53738E-14
 -1      2017 1.06408E-02 3.49666E-03-6.09284E-14
 -1      2018 1.04975E-02 3.41787E-03-5.90450E-14
 -1      2019 1.04340E-02 3.38291E-03-5.90691E-14
 -1      2020 1.09272E-02 3.65381E-03-6.47664E-14
 -1      2021 1.07840E-02 3.57531E-03-6.28365E-14
 -1      2022 1.07206E-02 3.54041E-03-6.28560E-14
 -1      2023 1.12132E-02 3.81046E-03-6.87033E-14
 -1      2024 1.10702E-02 3.73220E-03-6.67228E-14
 -1      2025 1.10068E-02 3.69735E-03-6.67362E-14
 -1      2026 1.14991E-02 3.96670E-03-7.27177E-14
 -1      2027 1.13562E-02 3.88863E-03-7.06999E-14
 -1      2028 1.12928E-02 3.85382E-03-7.07059E-14
 -1      2029 1.17848E-02 4.12262E-03-7.68005E-14
 -1      2030 1.16419E-02 4.04470E-03-7.47521E-14
 -1      2031 1.15786E-02 4.00991E-03-7.47478E-14
 -1      2032 1.20847E-02 4.28604E-03-8.11456E-14
 -1      2033 1.19348E-02 4.20436E-03-7.89677E-14
 -1      2034 1.18715E-02 4.16959E-03-7.89580E-14
 -1      2035 1.23703E-02 4.44148E-03-8.53261E-14
 -1      2036 1.22275E-02 4.36378E-03-8.32320E-14
 -1      2037 1.21643E-02 4.32903E-03-8.32150E-14
 -1      2038 1.26559E-02 4.59676E-03-8.95309E-14
 -1      2039 1.25131E-02 4.51914E-03-8.74266E-14
 -1      2040 1.24499E-02 4.48439E-03-8.74051E-14
 -1      2041 1.29415E-02 4.75191E-03-9.37548E-14
 -1      2042 1.27987E-02 4.67435E-03-9.16408E-14
 -1      2043 1.27355E-02 4.63961E-03-9.16165E-14
 -1      2044 1.32271E-02 4.90698E-03-9.79863E-14
 -1      2045 1.30843E-02 4.82946E-03-9.58681E-14
 -1      2046 1.30211E-02 4.79473E-03-9.58411E-14
 -1      2047 1.35127E-02 5.06198E-03-1.02226E-13
 -1      2048 1.33699E-02 4.98449E-03-1.00107E-13
 -1      2049 1.33067E-02 4.94976E-03-1.00078E-13
 -1      2050 1.37983E-02 5.21694E-03-1.06469E-13
 -1      2051 1.36555E-02 5.13947E-03-1.04347E-13
 -1      2052 1.35924E-02 5.10474E-03-1.04322E-13
 -1      2053 1.40840E-02 5.37186E-03-1.10721E-13
 -1      2054 1.39411E-02 5.29440E-03-1.08595E-13
 -1      2055 1.38780E-02 5.25967E-03-1.08572E-13
 -1      2056 1.43839E-02 5.53450E-03-1.15204E-13
 -1      2057 1.42339E-02 5.45318E-03-1.12958E-13
 -1      2058 1.41708E-02 5.41845E-03-1.12937E-13
 -1      2059 1.46696E-02 5.68938E-03-1.19490E-13
 -1      2060 1.45267E-02 5.61194E-03-1.17344E-13
 -1      2061 1.44636E-02 5.57721E-03-1.17320E-13
 -1      2062 1.49552E-02 5.84425E-03-1.23806E-13
 -1      2063 1.48124E-02 5.76682E-03-1.21646E-13
 -1      2064 1.47493E-02 5.73209E-03-1.21620E-13
 -1      2065 1.52409E-02 5.99913E-03-1.28139E-13
 -1      2066 1.50981E-02 5.92169E-03-1.25969E-13
 -1      2067 1.50350E-02 5.88696E-03-1.25945E-13
 -1      2068 1.55266E-02 6.15400E-03-1.32491E-13
 -1      2069 1.53838E-02 6.07657E-03-1.30314E-13
 -1      2070 1.53207E-02 6.04183E-03-1.30288E-13
 -1      2071 1.58123E-02 6.30888E-03-1.36847E-13
 -1      2072 1.56695E-02 6.23144E-03-1.34669E-13
 -1      2073 1.56064E-02 6.19671E-03-1.34646E-13
 -1      2074 1.60454E-02 6.43519E-03-1.40517E-13
 -1      2075 1.59026E-02 6.35774E-03-1.38333E-13
 -1      2076 1.58395E-02 6.32301E-03-1.38311E-13
 -1      2077 1.60199E-02 6.42072E-03-1.41290E-13
 -1      2078 1.55676E-02 6.17070E-03-1.42874E-13
 -1      2079 1.56437E-02 6.21285E-03-1.42515E-13
 -1      2080 1.57199E-02 6.25500E-03-1.42160E-13
 -1      2081 1.57961E-02 6.29715E-03-1.41802E-13
 -1      2082 1.55581E-02 6.16686E-03-1.40440E-13
 -1      2083 1.58699E-02 6.33787E-03-1.41732E-13
 -1      2084 1.59461E-02 6.38001E-03-1.41366E-13
 -1      2085 1.58558E-02 6.33115E-03-1.39874E-13
 -1      2086 1.57081E-02 6.24973E-03-1.40016E-13
 -1      2087 1.54178E-02 6.08783E-03-1.43555E-13
 -1      2088 1.54927E-02 6.12927E-03-1.43216E-13
 -1      2089 1.54071E-02 6.08328E-03-1.41141E-13
 -1      2090 1.52655E-02 6.00352E-03-1.44232E-13
 -1      2091 1.53417E-02 6.04567E-03-1.43896E-13
 -1      2092 1.52560E-02 5.99969E-03-1.41823E-13
 -1      2093 1.51132E-02 5.91921E-03-1.44883E-13
 -1      2094 1.51893E-02 5.96136E-03-1.44562E-13
 -1      2095 1.51037E-02 5.91538E-03-1.42492E-13
 -1      2096 1.49609E-02 5.83489E-03-1.45517E-13
 -1      2097 1.50370E-02 5.87705E-03-1.45201E-13
 -1      2098 1.49514E-02 5.83107E-03-1.43143E-13
 -1      2099 1.48086E-02 5.75057E-03-1.46138E-13
 -1      2100 1.48847E-02 5.79273E-03-1.45828E-13
 -1      2101 1.47991E-02 5.74675E-03-1.43781E-13
 -1      2102 1.46563E-02 5.66626E-03-1.46756E-13
 -1      2103 1.47325E-02 5.70842E-03-1.46447E-13
 -1      2104 1.46468E-02 5.66244E-03-1.44408E-13
 -1      2105 1.45066E-02 5.58338E-03-1.47371E-13
 -1      2106 1.45815E-02 5.62482E-03-1.47062E-13
 -1      2107 1.44958E-02 5.57884E-03-1.45031E-13
 -1      2108 1.43544E-02 5.49907E-03-1.47993E-13
 -1      2109 1.44305E-02 5.54122E-03-1.47681E-13
 -1      2110 1.43449E-02 5.49524E-03-1.45652E-13
 -1      2111 1.42021E-02 5.41477E-03-1.48619E-13
 -1      2112 1.42783E-02 5.45692E-03-1.48304E-13
 -1      2113 1.41926E-02 5.41094E-03-1.46279E-13
 -1      2114 1.40499E-02 5.33047E-03-1.49250E-13
 -1      2115 1.41260E-02 5.37262E-03-1.48933E-13
 -1      2116 1.40403E-02 5.32664E-03-1.46910E-13
 -1      2117 6.13008E-03 1.15021E-03-1.35541E-14
 -1      2118 6.24636E-03 1.10063E-03-1.39722E-14
 -1      2119 6.37614E-03 1.01332E-03-1.47837E-14
 -1      2120 6.33558E-03 9.97360E-04-1.48918E-14
 -1      2121 6.34654E-03 1.05511E-03-1.44056E-14
 -1      2122 6.38103E-03 1.03417E-03-1.45923E-14
 -1      2123 6.38788E-03 1.03463E-03-1.52372E-14
 -1      2124 5.81237E-03 1.30523E-03-1.26532E-14
 -1      2125 5.97778E-03 1.22221E-03-1.31022E-14
 -1      2126 5.40986E-03 1.53934E-03-1.15652E-14
 -1      2127 5.60495E-03 1.42072E-03-1.20842E-14
 -1      2128 3.36651E-04-7.20680E-05-2.57566E-16
 -1      2129 3.39889E-04-8.85657E-05-2.54449E-16
 -1      2130 4.62315E-04-1.31064E-04-3.72789E-16
 -1      2131 4.53220E-04-8.74788E-05-3.80569E-16
 -1      2132 4.52400E-03 2.06812E-03-8.99178E-15
 -1      2133 4.70472E-03 1.97729E-03-9.57264E-15
 -1      2134 3.81136E-03 1.99623E-03-6.92686E-15
 -1      2135 3.98782E-03 2.08331E-03-7.39233E-15
 -1      2136 3.37627E-03 1.68622E-03-6.02537E-15
 -1      2137 3.58534E-03 1.85005E-03-6.42509E-15
 -1      2138 2.87009E-03 1.29930E-03-5.31899E-15
 -1      2139 3.10964E-03 1.48013E-03-5.61591E-15
 -1      2140 2.34191E-03 9.60320E-04-4.84146E-15
 -1      2141 2.57561E-03 1.09192E-03-4.99504E-15
 -1      2142 1.91795E-03 7.60514E-04-4.63135E-15
 -1      2143 2.10734E-03 8.48158E-04-4.73216E-15
 -1      2144 1.60655E-03 6.24595E-04-4.47018E-15
 -1      2145 1.74219E-03 6.78232E-04-4.53023E-15
 -1      2146 1.42833E-03 5.56830E-04-4.49492E-15
 -1      2147 1.48570E-03 5.77341E-04-4.45675E-15
 -1      2148 1.42912E-03 5.18222E-04-4.56601E-15
 -1      2149 1.40973E-03 5.34180E-04-4.52812E-15
 -1      2150 1.41135E-03 5.21028E-04-4.25082E-15
 -1      2151 1.60786E-03 4.61835E-04-4.95643E-15
 -1      2152 1.51082E-03 4.89499E-04-4.75376E-15
 -1      2153 1.88213E-03 3.70494E-04-5.37876E-15
 -1      2154 1.73164E-03 4.20539E-04-5.16256E-15
 -1      2155 1.66961E-03 4.43772E-04-4.83942E-15
 -1      2156 2.27426E-03 2.07256E-04-6.07926E-15
 -1      2157 2.09381E-03 2.87879E-04-5.73257E-15
 -1      2158 2.65658E-03 2.65219E-05-6.90450E-15
 -1      2159 2.47697E-03 1.12963E-04-6.50916E-15
 -1      2160 3.01063E-03-1.25790E-04-7.78124E-15
 -1      2161 2.83656E-03-5.29515E-05-7.33482E-15
 -1      2162 2.75113E-03-1.05312E-05-6.98341E-15
 -1      2163 3.38655E-03-2.28159E-04-8.92626E-15
 -1      2164 3.23115E-03-1.95952E-04-8.41335E-15
 -1      2165 3.71380E-03-2.11472E-04-1.00194E-14
 -1      2166 3.56784E-03-2.31274E-04-9.52371E-15
 -1      2167 4.02005E-03-1.03899E-04-1.10470E-14
 -1      2168 3.86846E-03-1.69243E-04-1.05260E-14
 -1      2169 3.76139E-03-2.00515E-04-1.03656E-14
 -1      2170 4.41961E-03 1.09681E-04-1.21969E-14
 -1      2171 4.24233E-03 1.00012E-05-1.17512E-14
 -1      2172 4.78748E-03 3.25980E-04-1.30506E-14
 -1      2173 4.60204E-03 2.12492E-04-1.26208E-14
 -1      2174 4.46540E-03 1.75566E-04-1.27324E-14
 -1      2175 5.23501E-03 5.77129E-04-1.39427E-14
 -1      2176 5.03707E-03 4.75040E-04-1.36287E-14
 -1      2177 5.61023E-03 7.44092E-04-1.44139E-14
 -1      2178 5.42475E-03 6.62713E-04-1.41764E-14
 -1      2179 5.28646E-03 6.56012E-04-1.45858E-14
 -1      2180 5.99366E-03 8.86076E-04-1.47679E-14
 -1      2181 5.83878E-03 8.32380E-04-1.46341E-14
 -1      2182 6.24663E-03 9.63152E-04-1.48575E-14
 -1      2183 6.14078E-03 9.30755E-04-1.48059E-14
 -1      2184 4.97788E-03 1.81303E-03-1.04142E-14
 -1      2185 5.18830E-03 1.67483E-03-1.09963E-14
 -1      2186 5.29225E-03 1.59578E-03-1.14932E-14
 -1      2187 6.31392E-04-2.97101E-04-4.39346E-16
 -1      2188 4.83820E-03 1.90535E-03-1.00514E-14
 -1      2189 6.89554E-04-2.89968E-04-5.67756E-16
 -1      2190 6.31129E-03 1.07121E-03-1.45964E-14
 -1      2191 6.35912E-03 1.06283E-03-1.52323E-14
 -1      2192 6.26601E-03 1.08936E-03-1.47842E-14
 -1      2193 6.05038E-03 1.17370E-03-1.36961E-14
 -1      2194 1.39472E-02 5.27410E-03-1.48875E-13
 -1      2195 6.29726E-03 1.00553E-03-1.53982E-14
 -1      2196 5.70084E-03 1.34748E-03-1.26527E-14
 -1      2197 5.69454E-03 8.25787E-04-1.50540E-14
 -1      2198 4.87219E-03 4.26362E-04-1.37492E-14
 -1      2199 4.09845E-03-4.88898E-05-1.15809E-14
 -1      2200 3.11930E-03-1.68737E-04-8.02651E-15
 -1      2201 1.99130E-03 3.34185E-04-5.37643E-15
 -1      2202 1.45696E-03 4.97289E-04-4.46007E-15
 -1      2203 1.54354E-03 5.63904E-04-4.23062E-15
 -1      2204 1.84245E-03 6.69166E-04-4.33547E-15
 -1      2205 2.24188E-03 8.49393E-04-4.53017E-15
 -1      2206 2.74313E-03 1.15577E-03-4.93231E-15
 -1      2207 3.27889E-03 1.57143E-03-5.63774E-15
 -1      2208 3.73190E-03 1.93157E-03-6.52630E-15
 -1      2209 4.07222E-03 2.11292E-03-7.50092E-15
 -1      2210 4.14864E-03 2.11817E-03-7.87494E-15
 -1      2211 4.31351E-03 2.11301E-03-8.37432E-15
 -1      2212 4.41305E-03 2.11586E-03-8.59097E-15
 -1      2213 2.38988E-03 1.62975E-04-6.13826E-15
 -1      2214 3.46565E-03-2.42250E-04-9.25364E-15
 -1      2215 6.05997E-03 9.44034E-04-1.53232E-14
 -1      2216 1.11331E-03 3.17315E-04-6.31155E-16
 -1      2217 9.52758E-04 2.82844E-04-4.51923E-16
 -1      2218 5.44003E-04-6.40996E-06-5.28264E-16
 -1      2219 5.52199E-04-2.75987E-05-5.33671E-16
 -1      2220 5.59515E-04-5.01730E-05-5.37724E-16
 -1      2221 5.65939E-04-7.37560E-05-5.40244E-16
 -1      2222 6.75710E-04-4.86298E-05-7.24938E-16
 -1      2223 5.04636E-04 6.03122E-05-4.97174E-16
 -1      2224 5.14671E-04 4.69108E-05-5.06471E-16
 -1      2225 4.87547E-04 7.99538E-05-4.75856E-16
 -1      2226 4.95221E-04 7.13394E-05-4.87078E-16
 -1      2227 6.03604E-04 7.97934E-05-6.66554E-16
 -1      2228 4.80046E-04 9.11439E-05-4.50039E-16
 -1      2229 4.82173E-04 8.63566E-05-4.63673E-16
 -1      2230 5.82961E-04 1.02149E-04-6.37145E-16
 -1      2231 4.87904E-04 9.87886E-05-4.17282E-16
 -1      2232 4.81700E-04 9.49991E-05-4.34738E-16
 -1      2233 5.76142E-04 1.15401E-04-6.01271E-16
 -1      2234 5.14996E-04 1.10295E-04-3.74538E-16
 -1      2235 4.99028E-04 1.03462E-04-3.97319E-16
 -1      2236 5.90884E-04 1.25588E-04-5.55870E-16
 -1      2237 5.61291E-04 1.34940E-04-3.18457E-16
 -1      2238 5.36053E-04 1.20363E-04-3.48666E-16
 -1      2239 6.31038E-04 1.41994E-04-4.97961E-16
 -1      2240 1.43531E-03 3.87335E-04-1.09061E-15
 -1      2241 1.27357E-03 3.51666E-04-8.43496E-16
 -1      2242 1.13226E-03 3.00653E-04-8.04044E-16
 -1      2243 9.52573E-04-3.47140E-04-1.04834E-15
 -1      2244 1.10310E-03-3.85297E-04-1.36656E-15
 -1      2245 1.25283E-03-4.19891E-04-1.72903E-15
 -1      2246 1.40180E-03-4.51195E-04-2.13633E-15
 -1      2247 1.16588E-03-3.65121E-04-1.56636E-15
 -1      2248 1.54994E-03-4.79830E-04-2.58738E-15
 -1      2249 1.69705E-03-5.05719E-04-3.08298E-15
 -1      2250 1.46724E-03-4.26685E-04-2.38038E-15
 -1      2251 1.84323E-03-5.29003E-04-3.62228E-15
 -1      2252 1.98820E-03-5.49277E-04-4.20529E-15
 -1      2253 1.76682E-03-4.78518E-04-3.36820E-15
 -1      2254 2.13201E-03-5.66220E-04-4.83207E-15
 -1      2255 2.27445E-03-5.79102E-04-5.50264E-15
 -1      2256 2.06326E-03-5.20043E-04-4.52970E-15
 -1      2257 2.41550E-03-5.87262E-04-6.21606E-15
 -1      2258 2.55522E-03-5.89767E-04-6.97264E-15
 -1      2259 2.35516E-03-5.47557E-04-5.86345E-15
 -1      2260 2.69353E-03-5.85827E-04-7.77195E-15
 -1      2261 2.83084E-03-5.74547E-04-8.61407E-15
 -1      2262 2.64151E-03-5.54653E-04-7.36874E-15
 -1      2263 2.96707E-03-5.55304E-04-9.49809E-15
 -1      2264 3.10297E-03-5.27568E-04-1.04234E-14
 -1      2265 2.92258E-03-5.33825E-04-9.04355E-15
 -1      2266 3.23848E-03-4.91146E-04-1.13898E-14
 -1      2267 3.37445E-03-4.46083E-04-1.23962E-14
 -1      2268 3.20037E-03-4.79031E-04-1.08857E-14
 -1      2269 3.51082E-03-3.92757E-04-1.34417E-14
 -1      2270 3.64834E-03-3.31795E-04-1.45272E-14
 -1      2271 3.47813E-03-3.88247E-04-1.28901E-14
 -1      2272 3.78689E-03-2.64040E-04-1.56503E-14
 -1      2273 3.92688E-03-1.90500E-04-1.68101E-14
 -1      2274 3.75909E-03-2.64593E-04-1.50522E-14
 -1      2275 4.06819E-03-1.12239E-04-1.80058E-14
 -1      2276 4.21086E-03-3.03385E-05-1.92376E-14
 -1      2277 4.04517E-03-1.15381E-04-1.73645E-14
 -1      2278 4.35476E-03 5.41692E-05-2.05034E-14
 -1      2279 4.49965E-03 1.40383E-04-2.18016E-14
 -1      2280 4.33643E-03 5.02619E-05-1.98185E-14
 -1      2281 4.64549E-03 2.27483E-04-2.31319E-14
 -1      2282 4.79188E-03 3.14851E-04-2.44956E-14
 -1      2283 4.63157E-03 2.23844E-04-2.24076E-14
 -1      2284 4.93885E-03 4.01948E-04-2.58899E-14
 -1      2285 5.08598E-03 4.88433E-04-2.73135E-14
 -1      2286 4.92872E-03 3.98992E-04-2.51231E-14
 -1      2287 5.23336E-03 5.74027E-04-2.87690E-14
 -1      2288 5.38064E-03 6.58602E-04-3.02542E-14
 -1      2289 5.22619E-03 5.71802E-04-2.79629E-14
 -1      2290 5.52793E-03 7.42074E-04-3.17699E-14
 -1      2291 5.67497E-03 8.24449E-04-3.33131E-14
 -1      2292 5.52281E-03 7.40464E-04-3.09232E-14
 -1      2293 5.82185E-03 9.05768E-04-3.48830E-14
 -1      2294 5.96842E-03 9.86102E-04-3.64817E-14
 -1      2295 5.81798E-03 9.04609E-04-3.40006E-14
 -1      2296 6.11476E-03 1.06556E-03-3.81069E-14
 -1      2297 6.26078E-03 1.14423E-03-3.97584E-14
 -1      2298 6.11151E-03 1.06470E-03-3.71871E-14
 -1      2299 6.40654E-03 1.22225E-03-4.14359E-14
 -1      2300 6.55201E-03 1.29970E-03-4.31375E-14
 -1      2301 6.40348E-03 1.22156E-03-4.04784E-14
 -1      2302 6.69721E-03 1.37671E-03-4.48665E-14
 -1      2303 6.84216E-03 1.45335E-03-4.66174E-14
 -1      2304 6.69406E-03 1.37609E-03-4.38742E-14
 -1      2305 6.98688E-03 1.52973E-03-4.83915E-14
 -1      2306 7.13137E-03 1.60590E-03-5.01895E-14
 -1      2307 6.98349E-03 1.52911E-03-4.73660E-14
 -1      2308 7.27566E-03 1.68195E-03-5.20093E-14
 -1      2309 7.41977E-03 1.75792E-03-5.38510E-14
 -1      2310 7.27201E-03 1.68127E-03-5.09497E-14
 -1      2311 7.56371E-03 1.83385E-03-5.57124E-14
 -1      2312 7.70751E-03 1.90978E-03-5.75955E-14
 -1      2313 7.55980E-03 1.83309E-03-5.46209E-14
 -1      2314 7.85116E-03 1.98575E-03-5.94972E-14
 -1      2315 7.99471E-03 2.06176E-03-6.14173E-14
 -1      2316 7.84703E-03 1.98488E-03-5.83744E-14
 -1      2317 8.13814E-03 2.13785E-03-6.33566E-14
 -1      2318 8.28149E-03 2.21401E-03-6.53132E-14
 -1      2319 8.13383E-03 2.13688E-03-6.22054E-14
 -1      2320 8.42475E-03 2.29026E-03-6.72866E-14
 -1      2321 8.56794E-03 2.36660E-03-6.92758E-14
 -1      2322 8.42032E-03 2.28919E-03-6.61084E-14
 -1      2323 8.71107E-03 2.44304E-03-7.12781E-14
 -1      2324 8.85415E-03 2.51956E-03-7.32935E-14
 -1      2325 8.70656E-03 2.44187E-03-7.00748E-14
 -1      2326 8.99718E-03 2.59617E-03-7.53228E-14
 -1      2327 9.14018E-03 2.67287E-03-7.73663E-14
 -1      2328 8.99263E-03 2.59491E-03-7.40959E-14
 -1      2329 9.28314E-03 2.74964E-03-7.94212E-14
 -1      2330 9.42608E-03 2.82649E-03-8.14880E-14
 -1      2331 9.27857E-03 2.74831E-03-7.81700E-14
 -1      2332 9.56899E-03 2.90341E-03-8.35668E-14
 -1      2333 9.71188E-03 2.98039E-03-8.56538E-14
 -1      2334 9.56442E-03 2.90202E-03-8.22966E-14
 -1      2335 9.85476E-03 3.05743E-03-8.77492E-14
 -1      2336 9.99763E-03 3.13453E-03-8.98551E-14
 -1      2337 9.85021E-03 3.05599E-03-8.64645E-14
 -1      2338 1.01405E-02 3.21166E-03-9.19683E-14
 -1      2339 1.02833E-02 3.28885E-03-9.40872E-14
 -1      2340 1.01359E-02 3.21018E-03-9.06673E-14
 -1      2341 1.04262E-02 3.36607E-03-9.62145E-14
 -1      2342 1.05690E-02 3.44332E-03-9.83455E-14
 -1      2343 1.04217E-02 3.36455E-03-9.48992E-14
 -1      2344 1.07119E-02 3.52060E-03-1.00482E-13
 -1      2345 1.08547E-02 3.59791E-03-1.02621E-13
 -1      2346 1.07074E-02 3.51906E-03-9.91561E-14
 -1      2347 1.09975E-02 3.67524E-03-1.04761E-13
 -1      2348 1.11404E-02 3.75259E-03-1.06907E-13
 -1      2349 1.09931E-02 3.67368E-03-1.03428E-13
 -1      2350 1.12832E-02 3.82995E-03-1.09056E-13
 -1      2351 1.14260E-02 3.90733E-03-1.11205E-13
 -1      2352 1.12787E-02 3.82838E-03-1.07714E-13
 -1      2353 1.15689E-02 3.98473E-03-1.13355E-13
 -1      2354 1.17117E-02 4.06213E-03-1.15507E-13
 -1      2355 1.15644E-02 3.98314E-03-1.12011E-13
 -1      2356 1.18545E-02 4.13954E-03-1.17661E-13
 -1      2357 1.19974E-02 4.21696E-03-1.19822E-13
 -1      2358 1.18501E-02 4.13794E-03-1.16312E-13
 -1      2359 1.21402E-02 4.29438E-03-1.21981E-13
 -1      2360 1.22831E-02 4.37181E-03-1.24140E-13
 -1      2361 1.21358E-02 4.29278E-03-1.20623E-13
 -1      2362 1.24259E-02 4.44924E-03-1.26302E-13
 -1      2363 1.25687E-02 4.52667E-03-1.28467E-13
 -1      2364 1.24215E-02 4.44763E-03-1.24943E-13
 -1      2365 1.27116E-02 4.60411E-03-1.30629E-13
 -1      2366 1.28544E-02 4.68154E-03-1.32788E-13
 -1      2367 1.27072E-02 4.60250E-03-1.29265E-13
 -1      2368 1.29973E-02 4.75898E-03-1.34949E-13
 -1      2369 1.31401E-02 4.83642E-03-1.37107E-13
 -1      2370 1.29929E-02 4.75738E-03-1.33586E-13
 -1      2371 1.32830E-02 4.91385E-03-1.39260E-13
 -1      2372 1.34258E-02 4.99129E-03-1.41411E-13
 -1      2373 1.32786E-02 4.91225E-03-1.37897E-13
 -1      2374 2.11095E-03 6.10768E-04-2.42464E-15
 -1      2375 1.93473E-03 5.34710E-04-2.03848E-15
 -1      2376 2.51438E-03 8.47085E-04-3.35401E-15
 -1      2377 2.30717E-03 7.12117E-04-2.86812E-15
 -1      2378 2.07453E-03 6.02957E-04-2.77024E-15
 -1      2379 4.33812E-03 2.15220E-03-8.22782E-15
 -1      2380 4.11992E-03 2.13759E-03-7.48268E-15
 -1      2381 5.76439E-03 1.40802E-03-1.42119E-14
 -1      2382 5.54774E-03 1.49503E-03-1.30969E-14
 -1      2383 6.15942E-03 1.34080E-03-1.65447E-14
 -1      2384 5.96952E-03 1.36022E-03-1.53622E-14
 -1      2385 5.94019E-03 1.31465E-03-1.49780E-14
 -1      2386 6.51367E-03 1.37532E-03-1.90000E-14
 -1      2387 6.34060E-03 1.34840E-03-1.77579E-14
 -1      2388 6.29662E-03 1.29392E-03-1.73539E-14
 -1      2389 6.84559E-03 1.47263E-03-2.15631E-14
 -1      2390 6.68155E-03 1.41816E-03-2.02693E-14
 -1      2391 6.61668E-03 1.35726E-03-1.98455E-14
 -1      2392 7.16540E-03 1.60538E-03-2.42269E-14
 -1      2393 7.00645E-03 1.53578E-03-2.28828E-14
 -1      2394 6.92174E-03 1.46948E-03-2.24422E-14
 -1      2395 7.49306E-03 1.76451E-03-2.71297E-14
 -1      2396 7.32992E-03 1.68316E-03-2.56650E-14
 -1      2397 7.22902E-03 1.61283E-03-2.52048E-14
 -1      2398 7.79936E-03 1.92495E-03-2.99968E-14
 -1      2399 7.64669E-03 1.84404E-03-2.85507E-14
 -1      2400 7.53415E-03 1.77119E-03-2.80716E-14
 -1      2401 8.10110E-03 2.08879E-03-3.29617E-14
 -1      2402 7.95064E-03 2.00665E-03-3.14662E-14
 -1      2403 7.83037E-03 1.93248E-03-3.09678E-14
 -1      2404 8.39910E-03 2.25343E-03-3.60260E-14
 -1      2405 8.25045E-03 2.17112E-03-3.44822E-14
 -1      2406 8.12510E-03 2.09639E-03-3.39653E-14
 -1      2407 8.69410E-03 2.41760E-03-3.91924E-14
 -1      2408 8.54689E-03 2.33563E-03-3.75972E-14
 -1      2409 8.41829E-03 2.26076E-03-3.70631E-14
 -1      2410 8.98670E-03 2.58077E-03-4.24542E-14
 -1      2411 8.84063E-03 2.49934E-03-4.08111E-14
 -1      2412 8.71000E-03 2.42457E-03-4.02604E-14
 -1      2413 9.27745E-03 2.74277E-03-4.58062E-14
 -1      2414 9.13226E-03 2.66192E-03-4.41188E-14
 -1      2415 9.00038E-03 2.58738E-03-4.35514E-14
 -1      2416 9.56679E-03 2.90361E-03-4.92471E-14
 -1      2417 9.42226E-03 2.82334E-03-4.75170E-14
 -1      2418 9.28965E-03 2.74904E-03-4.69347E-14
 -1      2419 9.86944E-03 3.07137E-03-5.29580E-14
 -1      2420 9.71823E-03 2.98764E-03-5.10884E-14
 -1      2421 9.58519E-03 2.91360E-03-5.04935E-14
 -1      2422 1.01569E-02 3.23019E-03-5.65888E-14
 -1      2423 1.00132E-02 3.15089E-03-5.47599E-14
 -1      2424 9.87998E-03 3.07710E-03-5.41478E-14
 -1      2425 1.04438E-02 3.38823E-03-6.03081E-14
 -1      2426 1.03004E-02 3.30930E-03-5.84383E-14
 -1      2427 1.01670E-02 3.23571E-03-5.78050E-14
 -1      2428 1.07302E-02 3.54560E-03-6.41221E-14
 -1      2429 1.05870E-02 3.46699E-03-6.22051E-14
 -1      2430 1.04536E-02 3.39357E-03-6.15531E-14
 -1      2431 1.10164E-02 3.70242E-03-6.80263E-14
 -1      2432 1.08733E-02 3.62407E-03-6.60624E-14
 -1      2433 1.07400E-02 3.55079E-03-6.53921E-14
 -1      2434 1.13024E-02 3.85880E-03-7.20104E-14
 -1      2435 1.11594E-02 3.78066E-03-7.00092E-14
 -1      2436 1.10261E-02 3.70750E-03-6.93138E-14
 -1      2437 1.15882E-02 4.01482E-03-7.60661E-14
 -1      2438 1.14453E-02 3.93685E-03-7.40309E-14
 -1      2439 1.13120E-02 3.86378E-03-7.33156E-14
 -1      2440 1.18882E-02 4.17833E-03-8.03865E-14
 -1      2441 1.17382E-02 4.09661E-03-7.82195E-14
 -1      2442 1.16050E-02 4.02361E-03-7.74850E-14
 -1      2443 1.21739E-02 4.33382E-03-8.45450E-14
 -1      2444 1.20311E-02 4.25610E-03-8.24599E-14
 -1      2445 1.18979E-02 4.18316E-03-8.17106E-14
 -1      2446 1.24596E-02 4.48914E-03-8.87384E-14
 -1      2447 1.23167E-02 4.41150E-03-8.66396E-14
 -1      2448 1.21836E-02 4.33860E-03-8.58739E-14
 -1      2449 1.27452E-02 4.64433E-03-9.29511E-14
 -1      2450 1.26024E-02 4.56675E-03-9.08430E-14
 -1      2451 1.24693E-02 4.49389E-03-9.00719E-14
 -1      2452 1.30309E-02 4.79942E-03-9.71783E-14
 -1      2453 1.28880E-02 4.72189E-03-9.50621E-14
 -1      2454 1.27549E-02 4.64905E-03-9.42857E-14
 -1      2455 1.33165E-02 4.95444E-03-1.01418E-13
 -1      2456 1.31737E-02 4.87694E-03-9.92970E-14
 -1      2457 1.30406E-02 4.80412E-03-9.85156E-14
 -1      2458 1.36021E-02 5.10940E-03-1.05665E-13
 -1      2459 1.34593E-02 5.03193E-03-1.03542E-13
 -1      2460 1.33263E-02 4.95911E-03-1.02759E-13
 -1      2461 1.38878E-02 5.26433E-03-1.09918E-13
 -1      2462 1.37450E-02 5.18687E-03-1.07789E-13
 -1      2463 1.36119E-02 5.11407E-03-1.07009E-13
 -1      2464 1.41878E-02 5.42697E-03-1.14398E-13
 -1      2465 1.40378E-02 5.34565E-03-1.12156E-13
 -1      2466 1.39047E-02 5.27286E-03-1.11372E-13
 -1      2467 1.44734E-02 5.58186E-03-1.18679E-13
 -1      2468 1.43306E-02 5.50442E-03-1.16536E-13
 -1      2469 1.41976E-02 5.43162E-03-1.15750E-13
 -1      2470 1.47591E-02 5.73673E-03-1.22989E-13
 -1      2471 1.46163E-02 5.65929E-03-1.20831E-13
 -1      2472 1.44833E-02 5.58650E-03-1.20042E-13
 -1      2473 1.50448E-02 5.89160E-03-1.27318E-13
 -1      2474 1.49020E-02 5.81417E-03-1.25151E-13
 -1      2475 1.47690E-02 5.74137E-03-1.24355E-13
 -1      2476 1.53305E-02 6.04648E-03-1.31669E-13
 -1      2477 1.51877E-02 5.96904E-03-1.29489E-13
 -1      2478 1.50547E-02 5.89624E-03-1.28692E-13
 -1      2479 1.56162E-02 6.20135E-03-1.36028E-13
 -1      2480 1.54734E-02 6.12391E-03-1.33848E-13
 -1      2481 1.53404E-02 6.05112E-03-1.33045E-13
 -1      2482 1.57656E-02 6.28230E-03-1.38385E-13
 -1      2483 1.50942E-02 5.91155E-03-1.40091E-13
 -1      2484 1.51704E-02 5.95370E-03-1.39753E-13
 -1      2485 1.49419E-02 5.82724E-03-1.40758E-13
 -1      2486 1.50181E-02 5.86939E-03-1.40427E-13
 -1      2487 1.49324E-02 5.82341E-03-1.38362E-13
 -1      2488 1.53963E-02 6.07872E-03-1.38718E-13
 -1      2489 1.54725E-02 6.12087E-03-1.38363E-13
 -1      2490 1.52459E-02 5.99550E-03-1.39411E-13
 -1      2491 1.53208E-02 6.03693E-03-1.39067E-13
 -1      2492 1.52351E-02 5.99094E-03-1.36994E-13
 -1      2493 1.50841E-02 5.90736E-03-1.37684E-13
 -1      2494 1.47896E-02 5.74293E-03-1.41407E-13
 -1      2495 1.48657E-02 5.78508E-03-1.41084E-13
 -1      2496 1.47801E-02 5.73910E-03-1.39025E-13
 -1      2497 1.46373E-02 5.65861E-03-1.42048E-13
 -1      2498 1.47134E-02 5.70077E-03-1.41728E-13
 -1      2499 1.46278E-02 5.65479E-03-1.39676E-13
 -1      2500 1.44850E-02 5.57430E-03-1.42683E-13
 -1      2501 1.45612E-02 5.61646E-03-1.42365E-13
 -1      2502 1.44755E-02 5.57048E-03-1.40321E-13
 -1      2503 1.43353E-02 5.49142E-03-1.43305E-13
 -1      2504 1.44102E-02 5.53286E-03-1.42993E-13
 -1      2505 1.43245E-02 5.48688E-03-1.40955E-13
 -1      2506 1.41831E-02 5.40711E-03-1.43936E-13
 -1      2507 1.42592E-02 5.44926E-03-1.43622E-13
 -1      2508 1.41735E-02 5.40328E-03-1.41587E-13
 -1      2509 1.40308E-02 5.32281E-03-1.44570E-13
 -1      2510 1.41069E-02 5.36496E-03-1.44254E-13
 -1      2511 1.40213E-02 5.31898E-03-1.42225E-13
 -1      2512 1.38786E-02 5.23851E-03-1.45205E-13
 -1      2513 1.39547E-02 5.28066E-03-1.44884E-13
 -1      2514 1.38690E-02 5.23468E-03-1.42862E-13
 -1      2515 5.98813E-03 1.19817E-03-1.39691E-14
 -1      2516 6.12857E-03 1.14199E-03-1.44408E-14
 -1      2517 1.38222E-02 5.20639E-03-1.46934E-13
 -1      2518 6.33736E-03 1.03851E-03-1.61233E-14
 -1      2519 6.24923E-03 1.02344E-03-1.60886E-14
 -1      2520 1.76433E-03 4.75587E-04-1.68790E-15
 -1      2521 1.59830E-03 4.27653E-04-1.37143E-15
 -1      2522 1.74078E-03 4.60697E-04-1.96308E-15
 -1      2523 6.39901E-03 1.05224E-03-1.57482E-14
 -1      2524 6.39316E-03 1.04913E-03-1.59471E-14
 -1      2525 5.79550E-03 9.03379E-04-1.58370E-14
 -1      2526 5.58500E-03 8.26394E-04-1.56024E-14
 -1      2527 6.11497E-04-2.31630E-04-5.09941E-16
 -1      2528 8.12785E-04-3.01733E-04-8.03245E-16
 -1      2529 8.75833E-04-2.88443E-04-9.57174E-16
 -1      2530 6.01517E-04-2.00195E-04-5.26909E-16
 -1      2531 5.61145E-03 1.39186E-03-1.27246E-14
 -1      2532 5.79795E-03 1.28920E-03-1.33157E-14
 -1      2533 3.17876E-03-2.04319E-04-8.21313E-15
 -1      2534 3.00296E-03-1.34242E-04-7.59519E-15
 -1      2535 2.07449E-03 2.94676E-04-5.29905E-15
 -1      2536 1.88483E-03 3.66226E-04-4.96836E-15
 -1      2537 1.48763E-03 5.17660E-04-3.96902E-15
 -1      2538 1.60378E-03 5.44175E-04-3.97805E-15
 -1      2539 5.24999E-04 3.11306E-05-5.14589E-16
 -1      2540 5.34804E-04 1.33178E-05-5.21921E-16
 -1      2541 6.55082E-04 2.41704E-06-7.10518E-16
 -1      2542 6.29915E-04 4.60944E-05-6.90908E-16
 -1      2543 2.48910E-03 1.10534E-04-6.18792E-15
 -1      2544 2.30709E-03 1.96133E-04-5.77573E-15
 -1      2545 3.99431E-03 2.09000E-03-7.01294E-15
 -1      2546 4.50758E-03 2.10910E-03-8.84305E-15
 -1      2547 3.59127E-03 1.79088E-03-5.86616E-15
 -1      2548 3.77747E-03 1.94907E-03-6.33741E-15
 -1      2549 2.64884E-03 1.02852E-03-4.49423E-15
 -1      2550 2.91366E-03 1.22135E-03-4.78795E-15
 -1      2551 2.12735E-03 7.41672E-04-4.18264E-15
 -1      2552 2.33402E-03 8.41998E-04-4.27241E-15
 -1      2553 1.77752E-03 5.97295E-04-4.00670E-15
 -1      2554 1.94425E-03 6.61080E-04-4.09449E-15
 -1      2555 2.02818E-03 6.62278E-04-3.85189E-15
 -1      2556 1.39604E-03 4.97123E-04-4.03712E-15
 -1      2557 1.41928E-03 5.02694E-04-4.00746E-15
 -1      2558 1.48856E-03 4.76395E-04-4.30291E-15
 -1      2559 1.41374E-03 4.86385E-04-4.12937E-15
 -1      2560 1.71858E-03 4.21850E-04-4.71387E-15
 -1      2561 1.60442E-03 4.50730E-04-4.52313E-15
 -1      2562 3.53035E-03-2.50008E-04-9.66669E-15
 -1      2563 3.39014E-03-2.48679E-04-9.06501E-15
 -1      2564 2.82694E-03-5.38074E-05-7.07568E-15
 -1      2565 2.67369E-03 2.30397E-05-6.65882E-15
 -1      2566 6.14188E-03 9.99055E-04-1.60431E-14
 -1      2567 6.00679E-03 9.68260E-04-1.59987E-14
 -1      2568 6.21142E-03 1.03830E-03-1.67702E-14
 -1      2569 3.76795E-03-1.92307E-04-1.06742E-14
 -1      2570 3.65011E-03-2.30658E-04-1.01636E-14
 -1      2571 3.55525E-03-2.47083E-04-9.95799E-15
 -1      2572 4.15149E-03 7.77570E-06-1.21690E-14
 -1      2573 3.96817E-03-1.03514E-04-1.14503E-14
 -1      2574 4.51709E-03 2.49349E-04-1.34377E-14
 -1      2575 4.36656E-03 1.49253E-04-1.29959E-14
 -1      2576 4.95285E-03 5.22904E-04-1.46279E-14
 -1      2577 4.73120E-03 3.84078E-04-1.40259E-14
 -1      2578 4.62897E-03 3.43133E-04-1.42927E-14
 -1      2579 5.35456E-03 7.24368E-04-1.52343E-14
 -1      2580 5.18549E-03 6.42968E-04-1.49868E-14
 -1      2581 5.04407E-03 5.90174E-04-1.52665E-14
 -1      2582 5.48730E-03 8.06293E-04-1.60098E-14
 -1      2583 8.30327E-04 2.58145E-04-3.23973E-16
 -1      2584 6.68702E-04 2.17324E-04-2.04860E-16
 -1      2585 6.28005E-04 1.90762E-04-2.22302E-16
 -1      2586 8.65328E-04 2.43947E-04-4.50378E-16
 -1      2587 5.22689E-03 1.64275E-03-1.14889E-14
 -1      2588 5.41267E-03 1.51341E-03-1.20797E-14
 -1      2589 4.75031E-03 1.98867E-03-9.76048E-15
 -1      2590 3.32922E-03 1.57593E-03-5.45488E-15
 -1      2591 3.40372E-03 1.60432E-03-5.28248E-15
 -1      2592 3.18703E-03 1.38992E-03-4.72434E-15
 -1      2593 3.09456E-03 1.37183E-03-5.07751E-15
 -1      2594 4.97377E-03 1.82870E-03-1.06234E-14
 -1      2595 5.22051E-03 1.66985E-03-1.16343E-14
 -1      2596 2.16773E-03 2.36923E-04-5.34093E-15
 -1      2597 6.91561E-04-1.04616E-04-7.31918E-16
 -1      2598 5.71757E-04-9.83300E-05-5.40773E-16
 -1      2599 5.77295E-04-1.23767E-04-5.39011E-16
 -1      2600 1.43437E-03 3.70548E-04-1.31544E-15
 -1      2601 5.94293E-04 1.61805E-04-2.63786E-16
 -1      2602 5.54247E-03 1.44567E-03-1.27233E-14
 -1      2603 6.22247E-03 1.11849E-03-1.50677E-14
 -1      2604 2.97153E-03 1.23580E-03-4.62007E-15
 -1      2605 3.01938E-03 1.24758E-03-4.44878E-15
 -1      2606 2.79078E-03 1.04597E-03-3.89910E-15
 -1      2607 1.56326E-02 6.20950E-03-1.37586E-13
 -1      2608 1.55587E-02 6.16878E-03-1.37652E-13
 -1      2609 5.91364E-03 1.24561E-03-1.40449E-14
 -1      2610 1.36459E-02 5.11050E-03-1.44808E-13
 -1      2611 1.37879E-02 5.18860E-03-1.45097E-13
 -1      2612 1.37022E-02 5.14262E-03-1.43073E-13
 -1      2613 1.35209E-02 5.04280E-03-1.42870E-13
 -1      2614 2.90546E-03-1.06653E-04-7.24791E-15
 -1      2615 6.37972E-03 1.06187E-03-1.66397E-14
 -1      2616 7.00664E-04 1.81609E-04-3.98593E-16
 -1      2617 6.39392E-03 1.06710E-03-1.59373E-14
 -1      2618 3.84251E-03-1.52012E-04-1.12300E-14
 -1      2619 1.79091E-03 3.78990E-04-4.63965E-15
 -1      2620 3.26186E-03-2.36572E-04-8.59501E-15
 -1      2621 1.51919E-03 4.51295E-04-4.18279E-15
 -1      2622 1.67958E-03 5.39354E-04-3.74754E-15
 -1      2623 1.44599E-03 4.86534E-04-3.76013E-15
 -1      2624 5.93675E-04-1.71108E-04-5.37981E-16
 -1      2625 5.91230E-03 9.63151E-04-1.65553E-14
 -1      2626 2.51718E-03 8.78854E-04-3.77025E-15
 -1      2627 2.49966E-03 9.07948E-04-4.13877E-15
 -1      2628 1.38869E-03 4.73074E-04-3.88615E-15
 -1      2629 2.56505E-03 5.77876E-05-6.27105E-15
 -1      2630 4.22959E-03 7.54316E-05-1.28490E-14
 -1      2631 1.53969E-02 6.08065E-03-1.35937E-13
 -1      2632 1.35165E-02 5.04120E-03-1.41510E-13
 -1      2633 6.77100E-04 1.27447E-04-8.21297E-16
 -1      2634 6.87259E-04 1.16694E-04-8.41775E-16
 -1      2635 7.01344E-04 1.02651E-04-8.60545E-16
 -1      2636 7.17292E-04 8.52973E-05-8.77770E-16
 -1      2637 7.96816E-04 1.28614E-04-1.07785E-15
 -1      2638 6.96564E-04 1.54466E-04-7.13446E-16
 -1      2639 6.80452E-04 1.47829E-04-7.45267E-16
 -1      2640 7.52935E-04 1.75604E-04-6.38324E-16
 -1      2641 7.21020E-04 1.63014E-04-6.78426E-16
 -1      2642 8.06120E-04 1.85041E-04-8.89520E-16
 -1      2643 1.14425E-03 2.88955E-04-9.88616E-16
 -1      2644 1.00258E-03 2.56545E-04-7.57925E-16
 -1      2645 6.38768E-03 1.09207E-03-1.63723E-14
 -1      2646 6.43342E-03 1.09153E-03-1.69019E-14
 -1      2647 1.42320E-03 3.59008E-04-1.55083E-15
 -1      2648 1.28380E-03 3.22716E-04-1.25250E-15
 -1      2649 1.14874E-03 2.81828E-04-1.18410E-15
 -1      2650 8.08975E-04 2.05771E-04-5.35799E-16
 -1      2651 3.59300E-03-2.37896E-04-1.03802E-14
 -1      2652 3.49242E-03-2.57843E-04-9.87727E-15
 -1      2653 1.38412E-03-3.72822E-04-2.17778E-15
 -1      2654 1.53642E-03-4.00443E-04-2.62733E-15
 -1      2655 1.68873E-03-4.26164E-04-3.11930E-15
 -1      2656 1.84065E-03-4.49775E-04-3.65448E-15
 -1      2657 1.60871E-03-3.72570E-04-2.87640E-15
 -1      2658 1.99209E-03-4.71155E-04-4.23281E-15
 -1      2659 2.14262E-03-4.89644E-04-4.85347E-15
 -1      2660 1.91804E-03-4.19835E-04-3.94177E-15
 -1      2661 2.29207E-03-5.04735E-04-5.51696E-15
 -1      2662 2.44017E-03-5.15295E-04-6.22304E-15
 -1      2663 2.22570E-03-4.58595E-04-5.17660E-15
 -1      2664 2.58671E-03-5.20530E-04-6.97127E-15
 -1      2665 2.73181E-03-5.19083E-04-7.76194E-15
 -1      2666 2.52875E-03-4.82825E-04-6.58002E-15
 -1      2667 2.87532E-03-5.10128E-04-8.59550E-15
 -1      2668 3.01784E-03-4.92486E-04-9.47022E-15
 -1      2669 2.82528E-03-4.83338E-04-8.15302E-15
 -1      2670 3.15931E-03-4.65631E-04-1.03872E-14
 -1      2671 3.30077E-03-4.29188E-04-1.13452E-14
 -1      2672 3.11582E-03-4.50299E-04-9.89465E-15
 -1      2673 3.44216E-03-3.83240E-04-1.23432E-14
 -1      2674 3.58451E-03-3.28245E-04-1.33815E-14
 -1      2675 3.40373E-03-3.77435E-04-1.18017E-14
 -1      2676 3.72774E-03-2.64933E-04-1.44588E-14
 -1      2677 3.87249E-03-1.94548E-04-1.55750E-14
 -1      2678 3.69369E-03-2.65229E-04-1.38711E-14
 -1      2679 4.01859E-03-1.18158E-04-1.67285E-14
 -1      2680 4.16614E-03-3.72520E-05-1.79167E-14
 -1      2681 3.98910E-03-1.20973E-04-1.60961E-14
 -1      2682 4.31491E-03 4.70610E-05-1.91394E-14
 -1      2683 4.46460E-03 1.33513E-04-2.03974E-14
 -1      2684 4.29054E-03 4.41783E-05-1.84665E-14
 -1      2685 4.61506E-03 2.21204E-04-2.16869E-14
 -1      2686 4.76579E-03 3.09282E-04-2.30088E-14
 -1      2687 4.59611E-03 2.19320E-04-2.09721E-14
 -1      2688 4.91672E-03 3.97148E-04-2.43632E-14
 -1      2689 5.06739E-03 4.84369E-04-2.57476E-14
 -1      2690 4.90289E-03 3.96341E-04-2.36084E-14
 -1      2691 5.21785E-03 5.70617E-04-2.71631E-14
 -1      2692 5.36771E-03 6.55770E-04-2.86082E-14
 -1      2693 5.20832E-03 5.70522E-04-2.63690E-14
 -1      2694 5.51712E-03 7.39702E-04-3.00841E-14
 -1      2695 5.66583E-03 8.22466E-04-3.15898E-14
 -1      2696 5.51083E-03 7.39902E-04-2.92516E-14
 -1      2697 5.81400E-03 9.04066E-04-3.31235E-14
 -1      2698 5.96149E-03 9.84629E-04-3.46849E-14
 -1      2699 5.80985E-03 9.04263E-04-3.22525E-14
 -1      2700 6.10845E-03 1.06423E-03-3.62728E-14
 -1      2701 6.25484E-03 1.14301E-03-3.78877E-14
 -1      2702 6.10555E-03 1.06426E-03-3.53660E-14
 -1      2703 6.40077E-03 1.22108E-03-3.95299E-14
 -1      2704 6.54624E-03 1.29855E-03-4.11968E-14
 -1      2705 6.39842E-03 1.22089E-03-3.85864E-14
 -1      2706 6.69135E-03 1.37555E-03-4.28879E-14
 -1      2707 6.83610E-03 1.45216E-03-4.46054E-14
 -1      2708 6.68908E-03 1.37514E-03-4.19099E-14
 -1      2709 6.98057E-03 1.52848E-03-4.63463E-14
 -1      2710 7.12479E-03 1.60458E-03-4.81090E-14
 -1      2711 6.97812E-03 1.52788E-03-4.53317E-14
 -1      2712 7.26879E-03 1.68055E-03-4.98962E-14
 -1      2713 7.41261E-03 1.75642E-03-5.17050E-14
 -1      2714 7.26601E-03 1.67978E-03-4.88490E-14
 -1      2715 7.55627E-03 1.83226E-03-5.35349E-14
 -1      2716 7.69980E-03 1.90809E-03-5.53861E-14
 -1      2717 7.55313E-03 1.83136E-03-5.24554E-14
 -1      2718 7.84321E-03 1.98395E-03-5.72588E-14
 -1      2719 7.98654E-03 2.05986E-03-5.91501E-14
 -1      2720 7.83973E-03 1.98293E-03-5.61483E-14
 -1      2721 8.12979E-03 2.13584E-03-6.10603E-14
 -1      2722 8.27297E-03 2.21191E-03-6.29889E-14
 -1      2723 8.12601E-03 2.13473E-03-5.99219E-14
 -1      2724 8.41609E-03 2.28806E-03-6.49348E-14
 -1      2725 8.55917E-03 2.36431E-03-6.68986E-14
 -1      2726 8.41208E-03 2.28687E-03-6.37680E-14
 -1      2727 8.70221E-03 2.44066E-03-6.88772E-14
 -1      2728 8.84521E-03 2.51710E-03-7.08684E-14
 -1      2729 8.69801E-03 2.43939E-03-6.76832E-14
 -1      2730 8.98819E-03 2.59363E-03-7.28741E-14
 -1      2731 9.13114E-03 2.67025E-03-7.48931E-14
 -1      2732 8.98387E-03 2.59230E-03-7.16579E-14
 -1      2733 9.27408E-03 2.74696E-03-7.69269E-14
 -1      2734 9.41700E-03 2.82375E-03-7.89737E-14
 -1      2735 9.26967E-03 2.74558E-03-7.56886E-14
 -1      2736 9.55990E-03 2.90061E-03-8.10316E-14
 -1      2737 9.70280E-03 2.97754E-03-8.31030E-14
 -1      2738 9.55544E-03 2.89918E-03-7.97733E-14
 -1      2739 9.84568E-03 3.05454E-03-8.51830E-14
 -1      2740 9.98856E-03 3.13159E-03-8.72716E-14
 -1      2741 9.84119E-03 3.05307E-03-8.39051E-14
 -1      2742 1.01314E-02 3.20869E-03-8.93701E-14
 -1      2743 1.02743E-02 3.28584E-03-9.14764E-14
 -1      2744 1.01269E-02 3.20719E-03-8.80772E-14
 -1      2745 1.04172E-02 3.36303E-03-9.35885E-14
 -1      2746 1.05600E-02 3.44026E-03-9.57085E-14
 -1      2747 1.04127E-02 3.36150E-03-9.22826E-14
 -1      2748 1.07029E-02 3.51751E-03-9.78349E-14
 -1      2749 1.08457E-02 3.59480E-03-9.99640E-14
 -1      2750 1.06984E-02 3.51597E-03-9.65153E-14
 -1      2751 1.09886E-02 3.67211E-03-1.02097E-13
 -1      2752 1.11314E-02 3.74945E-03-1.04233E-13
 -1      2753 1.09841E-02 3.67055E-03-1.00768E-13
 -1      2754 1.12743E-02 3.82680E-03-1.06375E-13
 -1      2755 1.14171E-02 3.90417E-03-1.08522E-13
 -1      2756 1.12698E-02 3.82523E-03-1.05039E-13
 -1      2757 1.15600E-02 3.98155E-03-1.10666E-13
 -1      2758 1.17028E-02 4.05895E-03-1.12813E-13
 -1      2759 1.15555E-02 3.97997E-03-1.09323E-13
 -1      2760 1.18457E-02 4.13635E-03-1.14963E-13
 -1      2761 1.19885E-02 4.21376E-03-1.17114E-13
 -1      2762 1.18412E-02 4.13476E-03-1.13613E-13
 -1      2763 1.21314E-02 4.29118E-03-1.19269E-13
 -1      2764 1.22742E-02 4.36861E-03-1.21426E-13
 -1      2765 1.21270E-02 4.28959E-03-1.17916E-13
 -1      2766 1.24171E-02 4.44603E-03-1.23583E-13
 -1      2767 1.25599E-02 4.52347E-03-1.25742E-13
 -1      2768 1.24127E-02 4.44444E-03-1.22226E-13
 -1      2769 1.27028E-02 4.60090E-03-1.27904E-13
 -1      2770 1.28456E-02 4.67834E-03-1.30065E-13
 -1      2771 1.26984E-02 4.59930E-03-1.26543E-13
 -1      2772 1.29885E-02 4.75577E-03-1.32224E-13
 -1      2773 1.31314E-02 4.83321E-03-1.34380E-13
 -1      2774 1.29841E-02 4.75417E-03-1.30862E-13
 -1      2775 1.32742E-02 4.91065E-03-1.36536E-13
 -1      2776 1.34171E-02 4.98808E-03-1.38690E-13
 -1      2777 1.32698E-02 4.90905E-03-1.35174E-13
 -1      2778 2.92755E-03-1.45079E-04-7.30447E-15
 -1      2779 2.78013E-03-7.22357E-05-6.80131E-15
 -1      2780 2.01158E-03 5.94987E-04-3.11127E-15
 -1      2781 1.85164E-03 5.12307E-04-2.65451E-15
 -1      2782 2.24278E-03 1.70628E-04-5.32479E-15
 -1      2783 2.03746E-03 2.54828E-04-4.87426E-15
 -1      2784 6.98746E-03 1.47079E-03-2.33421E-14
 -1      2785 6.84752E-03 1.40567E-03-2.20162E-14
 -1      2786 7.28301E-03 1.62226E-03-2.62073E-14
 -1      2787 7.13450E-03 1.54432E-03-2.47622E-14
 -1      2788 7.04810E-03 1.48076E-03-2.43145E-14
 -1      2789 7.56780E-03 1.77794E-03-2.90374E-14
 -1      2790 7.42486E-03 1.69905E-03-2.76099E-14
 -1      2791 7.32185E-03 1.63090E-03-2.71449E-14
 -1      2792 7.85488E-03 1.93902E-03-3.19655E-14
 -1      2793 7.71099E-03 1.85799E-03-3.04887E-14
 -1      2794 7.59646E-03 1.78650E-03-3.00059E-14
 -1      2795 8.14318E-03 2.10228E-03-3.49971E-14
 -1      2796 7.99884E-03 2.02048E-03-3.34695E-14
 -1      2797 7.87626E-03 1.94673E-03-3.29691E-14
 -1      2798 8.43186E-03 2.26593E-03-3.81282E-14
 -1      2799 8.28744E-03 2.18411E-03-3.65496E-14
 -1      2800 8.15933E-03 2.10896E-03-3.60335E-14
 -1      2801 8.72045E-03 2.42908E-03-4.13559E-14
 -1      2802 8.57615E-03 2.34760E-03-3.97295E-14
 -1      2803 8.44430E-03 2.27164E-03-3.91966E-14
 -1      2804 9.00868E-03 2.59132E-03-4.46784E-14
 -1      2805 8.86459E-03 2.51033E-03-4.30059E-14
 -1      2806 8.73026E-03 2.43397E-03-4.24561E-14
 -1      2807 9.29648E-03 2.75253E-03-4.80925E-14
 -1      2808 9.15262E-03 2.67206E-03-4.63741E-14
 -1      2809 9.01665E-03 2.59553E-03-4.58112E-14
 -1      2810 9.59820E-03 2.92069E-03-5.17724E-14
 -1      2811 9.44738E-03 2.83675E-03-4.99203E-14
 -1      2812 9.31032E-03 2.76019E-03-4.93429E-14
 -1      2813 9.88515E-03 3.07988E-03-5.53673E-14
 -1      2814 9.74171E-03 3.00040E-03-5.35571E-14
 -1      2815 9.60395E-03 2.92389E-03-5.29646E-14
 -1      2816 1.01718E-02 3.23824E-03-5.90508E-14
 -1      2817 1.00285E-02 3.15916E-03-5.71977E-14
 -1      2818 9.89031E-03 3.08273E-03-5.65882E-14
 -1      2819 1.04581E-02 3.39590E-03-6.28254E-14
 -1      2820 1.03150E-02 3.31715E-03-6.09288E-14
 -1      2821 1.01765E-02 3.24082E-03-6.03014E-14
 -1      2822 1.07443E-02 3.55296E-03-6.66868E-14
 -1      2823 1.06012E-02 3.47450E-03-6.47452E-14
 -1      2824 1.04626E-02 3.39826E-03-6.40990E-14
 -1      2825 1.10303E-02 3.70954E-03-7.06272E-14
 -1      2826 1.08873E-02 3.63131E-03-6.86468E-14
 -1      2827 1.07486E-02 3.55515E-03-6.79803E-14
 -1      2828 1.13162E-02 3.86571E-03-7.46431E-14
 -1      2829 1.11732E-02 3.78767E-03-7.26267E-14
 -1      2830 1.10346E-02 3.71158E-03-7.19396E-14
 -1      2831 1.16163E-02 4.02935E-03-7.89265E-14
 -1      2832 1.14662E-02 3.94757E-03-7.67781E-14
 -1      2833 1.13276E-02 3.87154E-03-7.60726E-14
 -1      2834 1.19020E-02 4.18495E-03-8.30571E-14
 -1      2835 1.17592E-02 4.10718E-03-8.09868E-14
 -1      2836 1.16205E-02 4.03120E-03-8.02652E-14
 -1      2837 1.21878E-02 4.34034E-03-8.72282E-14
 -1      2838 1.20449E-02 4.26266E-03-8.51373E-14
 -1      2839 1.19063E-02 4.18672E-03-8.44032E-14
 -1      2840 1.24735E-02 4.49559E-03-9.14254E-14
 -1      2841 1.23306E-02 4.41798E-03-8.93241E-14
 -1      2842 1.21920E-02 4.34207E-03-8.85790E-14
 -1      2843 1.27592E-02 4.65072E-03-9.56434E-14
 -1      2844 1.26163E-02 4.57316E-03-9.35336E-14
 -1      2845 1.24777E-02 4.49728E-03-9.27810E-14
 -1      2846 1.30449E-02 4.80576E-03-9.98778E-14
 -1      2847 1.29020E-02 4.72825E-03-9.77597E-14
 -1      2848 1.27634E-02 4.65238E-03-9.70041E-14
 -1      2849 1.33305E-02 4.96075E-03-1.04125E-13
 -1      2850 1.31877E-02 4.88326E-03-1.02000E-13
 -1      2851 1.30491E-02 4.80740E-03-1.01242E-13
 -1      2852 1.36162E-02 5.11569E-03-1.08375E-13
 -1      2853 1.34734E-02 5.03822E-03-1.06250E-13
 -1      2854 1.33348E-02 4.96237E-03-1.05490E-13
 -1      2855 1.39162E-02 5.27834E-03-1.12853E-13
 -1      2856 1.37662E-02 5.19702E-03-1.10612E-13
 -1      2857 1.36277E-02 5.12118E-03-1.09852E-13
 -1      2858 1.42019E-02 5.43323E-03-1.17129E-13
 -1      2859 1.40590E-02 5.35579E-03-1.14989E-13
 -1      2860 1.39205E-02 5.27995E-03-1.14227E-13
 -1      2861 1.44876E-02 5.58810E-03-1.21427E-13
 -1      2862 1.43447E-02 5.51067E-03-1.19275E-13
 -1      2863 1.42062E-02 5.43483E-03-1.18510E-13
 -1      2864 1.47733E-02 5.74298E-03-1.25748E-13
 -1      2865 1.46304E-02 5.66554E-03-1.23586E-13
 -1      2866 1.44919E-02 5.58971E-03-1.22814E-13
 -1      2867 1.50590E-02 5.89785E-03-1.30090E-13
 -1      2868 1.49161E-02 5.82041E-03-1.27916E-13
 -1      2869 1.47776E-02 5.74458E-03-1.27141E-13
 -1      2870 1.52994E-02 6.02796E-03-1.34103E-13
 -1      2871 1.51565E-02 5.95053E-03-1.31921E-13
 -1      2872 1.50180E-02 5.87469E-03-1.31144E-13
 -1      2873 1.52131E-02 5.98005E-03-1.34810E-13
 -1      2874 1.44660E-02 5.56665E-03-1.37950E-13
 -1      2875 1.45421E-02 5.60881E-03-1.37625E-13
 -1      2876 1.35121E-02 5.03960E-03-1.40153E-13
 -1      2877 1.36072E-02 5.09111E-03-1.41612E-13
 -1      2878 1.35077E-02 5.03800E-03-1.38793E-13
 -1      2879 1.47706E-02 5.73527E-03-1.36636E-13
 -1      2880 1.48468E-02 5.77743E-03-1.36298E-13
 -1      2881 1.43137E-02 5.48234E-03-1.38598E-13
 -1      2882 1.43899E-02 5.52449E-03-1.38276E-13
 -1      2883 1.43042E-02 5.47851E-03-1.36231E-13
 -1      2884 1.46183E-02 5.65096E-03-1.37297E-13
 -1      2885 1.46945E-02 5.69312E-03-1.36966E-13
 -1      2886 1.46088E-02 5.64713E-03-1.34911E-13
 -1      2887 1.44565E-02 5.56282E-03-1.35574E-13
 -1      2888 1.70220E-03 4.49967E-04-2.24794E-15
 -1      2889 1.56159E-03 4.00574E-04-1.88220E-15
 -1      2890 1.40215E-03 3.51992E-04-1.79599E-15
 -1      2891 6.26987E-03 1.06702E-03-1.74365E-14
 -1      2892 6.17100E-03 1.04963E-03-1.73880E-14
 -1      2893 1.41640E-02 5.39946E-03-1.39231E-13
 -1      2894 1.42389E-02 5.44090E-03-1.38916E-13
 -1      2895 1.41532E-02 5.39491E-03-1.36877E-13
 -1      2896 1.40118E-02 5.31515E-03-1.39872E-13
 -1      2897 1.40879E-02 5.35730E-03-1.39551E-13
 -1      2898 1.40022E-02 5.31132E-03-1.37517E-13
 -1      2899 1.38595E-02 5.23084E-03-1.40514E-13
 -1      2900 1.39356E-02 5.27299E-03-1.40192E-13
 -1      2901 1.38500E-02 5.22701E-03-1.38160E-13
 -1      2902 5.55439E-03 1.45548E-03-1.29426E-14
 -1      2903 5.72941E-03 1.35355E-03-1.36124E-14
 -1      2904 8.22002E-04-2.41782E-04-8.93410E-16
 -1      2905 9.60179E-04-2.81249E-04-1.15240E-15
 -1      2906 6.42657E-03 1.08781E-03-1.73192E-14
 -1      2907 6.37240E-03 1.08570E-03-1.75004E-14
 -1      2908 3.30696E-03-2.58831E-04-8.92529E-15
 -1      2909 3.12616E-03-2.18292E-04-8.08614E-15
 -1      2910 1.39776E-03 4.54678E-04-3.50574E-15
 -1      2911 1.46391E-03 4.61451E-04-3.46867E-15
 -1      2912 6.70852E-03 1.34737E-03-2.07145E-14
 -1      2913 6.56792E-03 1.29797E-03-1.94379E-14
 -1      2914 6.78378E-03 1.34692E-03-2.15865E-14
 -1      2915 6.42564E-03 1.25986E-03-1.81859E-14
 -1      2916 6.27738E-03 1.23777E-03-1.69634E-14
 -1      2917 6.53300E-03 1.24244E-03-1.90252E-14
 -1      2918 6.78455E-04-1.70234E-04-6.78168E-16
 -1      2919 1.36979E-02 5.14102E-03-1.41717E-13
 -1      2920 6.02181E-03 1.01457E-03-1.73381E-14
 -1      2921 5.83209E-03 9.59237E-04-1.71648E-14
 -1      2922 2.24320E-03 7.23903E-04-3.58257E-15
 -1      2923 1.09576E-03-3.13087E-04-1.44455E-15
 -1      2924 1.24758E-03-3.44714E-04-1.81264E-15
 -1      2925 1.31637E-03-3.20414E-04-2.02383E-15
 -1      2926 1.04257E-03-2.64426E-04-1.35846E-15
 -1      2927 6.72377E-04 1.42193E-04-7.73253E-16
 -1      2928 6.71499E-04 1.35643E-04-7.98474E-16
 -1      2929 7.69376E-04 1.55289E-04-1.02677E-15
 -1      2930 7.69021E-04 1.70745E-04-9.65116E-16
 -1      2931 1.37749E-03 4.46818E-04-3.65362E-15
 -1      2932 1.36454E-03 4.49306E-04-3.57010E-15
 -1      2933 1.83039E-03 5.45141E-04-3.36524E-15
 -1      2934 1.98225E-03 6.04211E-04-3.43806E-15
 -1      2935 2.62397E-03-5.34447E-08-6.32727E-15
 -1      2936 2.46066E-03 7.54820E-05-5.87258E-15
 -1      2937 2.65730E-03-5.22210E-05-6.37592E-15
 -1      2938 1.55262E-03 4.74571E-04-3.40993E-15
 -1      2939 1.70045E-03 5.11470E-04-3.43160E-15
 -1      2940 1.66926E-03 4.75329E-04-3.04574E-15
 -1      2941 1.47319E-03 4.38724E-04-3.16700E-15
 -1      2942 1.54710E-03 4.18144E-04-4.00247E-15
 -1      2943 1.44615E-03 4.33355E-04-3.80051E-15
 -1      2944 7.92940E-04-4.31647E-05-9.40830E-16
 -1      2945 8.03646E-04-7.43841E-05-9.48284E-16
 -1      2946 4.29382E-03 1.33731E-04-1.35040E-14
 -1      2947 4.10341E-03 5.59151E-06-1.26626E-14
 -1      2948 1.81996E-03 3.37666E-04-4.46476E-15
 -1      2949 1.67685E-03 3.84604E-04-4.23091E-15
 -1      2950 4.71953E-03 4.15467E-04-1.51215E-14
 -1      2951 4.53247E-03 2.92974E-04-1.45089E-14
 -1      2952 3.92858E-03-9.59121E-05-1.19400E-14
 -1      2953 3.75829E-03-1.81627E-04-1.11454E-14
 -1      2954 3.68277E-03-2.04368E-04-1.10523E-14
 -1      2955 5.90934E-03 1.28559E-03-1.45137E-14
 -1      2956 5.90566E-03 1.26468E-03-1.42804E-14
 -1      2957 6.07125E-03 1.19478E-03-1.49572E-14
 -1      2958 8.12919E-04-1.06642E-04-9.53081E-16
 -1      2959 8.21032E-04-1.39691E-04-9.55033E-16
 -1      2960 9.35360E-04-1.04618E-04-1.20303E-15
 -1      2961 8.37040E-04 8.67192E-05-1.12058E-15
 -1      2962 7.34268E-04 6.46061E-05-8.93369E-16
 -1      2963 7.50811E-04 4.10647E-05-9.07545E-16
 -1      2964 8.36303E-04 2.02159E-04-6.74536E-16
 -1      2965 1.35288E-03 4.26481E-04-3.28592E-15
 -1      2966 5.35220E-03 1.59658E-03-1.22219E-14
 -1      2967 1.47605E-02 5.73108E-03-1.34238E-13
 -1      2968 1.49223E-02 5.81922E-03-1.35960E-13
 -1      2969 1.49978E-02 5.86102E-03-1.35618E-13
 -1      2970 2.99554E-03-1.95584E-04-7.60314E-15
 -1      2971 1.65488E-03 4.43420E-04-2.54855E-15
 -1      2972 5.19020E-03 6.87134E-04-1.63047E-14
 -1      2973 4.98933E-03 5.77151E-04-1.59247E-14
 -1      2974 1.89421E-03 2.74328E-04-4.44633E-15
 -1      2975 6.08850E-03 1.25349E-03-1.56741E-14
 -1      2976 5.79614E-03 9.59894E-04-1.78924E-14
 -1      2977 5.65972E-03 9.00734E-04-1.71073E-14
 -1      2978 4.88223E-03 5.16711E-04-1.61439E-14
 -1      2979 1.50677E-02 5.89964E-03-1.35389E-13
 -1      2980 1.51432E-02 5.94143E-03-1.35044E-13
 -1      2981 1.50457E-02 5.88875E-03-1.33210E-13
 -1      2982 1.49059E-02 5.81151E-03-1.33672E-13
 -1      2983 6.35268E-03 1.09839E-03-1.81254E-14
 -1      2984 1.37740E-02 5.18317E-03-1.41399E-13
 -1      2985 4.00345E-03-4.53777E-05-1.25645E-14
 -1      2986 6.24877E-03 1.19640E-03-1.64739E-14
 -1      2987 3.35601E-03-2.69041E-04-9.31792E-15
 -1      2988 1.35980E-02 5.08759E-03-1.39081E-13
 -1      2989 1.37692E-02 5.18125E-03-1.40225E-13
 -1      2990 1.36836E-02 5.13526E-03-1.38193E-13
 -1      2991 1.35030E-02 5.03608E-03-1.37619E-13
 -1      2992 9.23314E-04 2.20583E-04-8.89534E-16
 -1      2993 8.01649E-04-1.81521E-04-8.96771E-16
 -1      2994 7.66472E-04 1.49377E-05-9.20244E-16
 -1      2995 7.80535E-04-1.32699E-05-9.31465E-16
 -1      2996 9.10725E-04-3.39155E-05-1.18414E-15
 -1      2997 8.77412E-04 3.11581E-05-1.15596E-15
 -1      2998 2.30499E-03 1.05827E-04-5.37074E-15
 -1      2999 4.39818E-03 2.07657E-04-1.43035E-14
 -1      3000 6.10529E-03 1.04897E-03-1.80078E-14
 -1      3001 1.56915E-03 3.77786E-04-3.83952E-15
 -1      3002 5.45716E-03 8.14105E-04-1.67205E-14
 -1      3003 6.21425E-03 1.14528E-03-1.55939E-14
 -1      3004 6.32291E-03 1.10651E-03-1.59553E-14
 -1      3005 6.39460E-03 1.12333E-03-1.69143E-14
 -1      3006 6.20769E-03 1.16919E-03-1.58411E-14
 -1      3007 1.30428E-03 3.95463E-04-3.00772E-15
 -1      3008 1.33663E-03 3.97255E-04-2.95003E-15
 -1      3009 9.19466E-04 2.17070E-04-1.08236E-15
 -1      3010 8.86456E-04 2.07778E-04-1.13166E-15
 -1      3011 6.46474E-03 1.11164E-03-1.77659E-14
 -1      3012 6.42363E-03 1.13122E-03-1.90249E-14
 -1      3013 6.32546E-03 1.11483E-03-1.89591E-14
 -1      3014 1.84106E-03-3.66290E-04-3.65723E-15
 -1      3015 1.99856E-03-3.88499E-04-4.22924E-15
 -1      3016 2.15585E-03-4.09057E-04-4.84279E-15
 -1      3017 2.31225E-03-4.26913E-04-5.49819E-15
 -1      3018 2.08168E-03-3.56296E-04-4.51654E-15
 -1      3019 2.46743E-03-4.41329E-04-6.19604E-15
 -1      3020 2.62091E-03-4.50484E-04-6.93518E-15
 -1      3021 2.40164E-03-3.95404E-04-5.81867E-15
 -1      3022 2.77233E-03-4.53390E-04-7.71732E-15
 -1      3023 2.92202E-03-4.47953E-04-8.54182E-15
 -1      3024 2.71570E-03-4.18984E-04-7.28896E-15
 -1      3025 3.06984E-03-4.33227E-04-9.40753E-15
 -1      3026 3.21679E-03-4.07833E-04-1.03159E-14
 -1      3027 3.02114E-03-4.12993E-04-8.92735E-15
 -1      3028 3.36266E-03-3.71377E-04-1.12661E-14
 -1      3029 3.50942E-03-3.23938E-04-1.22568E-14
 -1      3030 3.31987E-03-3.64309E-04-1.07348E-14
 -1      3031 3.65681E-03-2.66046E-04-1.32878E-14
 -1      3032 3.80596E-03-1.99068E-04-1.43589E-14
 -1      3033 3.61806E-03-2.67362E-04-1.27100E-14
 -1      3034 3.95672E-03-1.24165E-04-1.54676E-14
 -1      3035 4.10936E-03-4.35402E-05-1.66146E-14
 -1      3036 3.92227E-03-1.28390E-04-1.48450E-14
 -1      3037 4.26356E-03 4.15261E-05-1.77971E-14
 -1      3038 4.41890E-03 1.29176E-04-1.90129E-14
 -1      3039 4.23447E-03 3.84230E-05-1.71316E-14
 -1      3040 4.57510E-03 2.18350E-04-2.02632E-14
 -1      3041 4.73141E-03 3.07793E-04-2.15454E-14
 -1      3042 4.55230E-03 2.17779E-04-1.95582E-14
 -1      3043 4.88768E-03 3.96873E-04-2.28593E-14
 -1      3044 5.04322E-03 4.84997E-04-2.42054E-14
 -1      3045 4.87123E-03 3.98487E-04-2.21169E-14
 -1      3046 5.19804E-03 5.71848E-04-2.55823E-14
 -1      3047 5.35168E-03 6.57344E-04-2.69886E-14
 -1      3048 5.18711E-03 5.74574E-04-2.48004E-14
 -1      3049 5.50428E-03 7.41364E-04-2.84249E-14
 -1      3050 5.65558E-03 8.24064E-04-2.98921E-14
 -1      3051 5.49756E-03 7.44183E-04-2.76059E-14
 -1      3052 5.80581E-03 9.05445E-04-3.13877E-14
 -1      3053 5.95486E-03 9.85731E-04-3.29123E-14
 -1      3054 5.80193E-03 9.07739E-04-3.05296E-14
 -1      3055 6.10296E-03 1.06498E-03-3.44649E-14
 -1      3056 6.25011E-03 1.14342E-03-3.60435E-14
 -1      3057 6.10074E-03 1.06650E-03-3.35697E-14
 -1      3058 6.39649E-03 1.22112E-03-3.76476E-14
 -1      3059 6.54217E-03 1.29827E-03-3.92805E-14
 -1      3060 6.39505E-03 1.22186E-03-3.67181E-14
 -1      3061 6.68729E-03 1.37494E-03-4.09390E-14
 -1      3062 6.83190E-03 1.45128E-03-4.26194E-14
 -1      3063 6.68600E-03 1.37502E-03-3.99711E-14
 -1      3064 6.97613E-03 1.52734E-03-4.43252E-14
 -1      3065 7.12003E-03 1.60322E-03-4.60553E-14
 -1      3066 6.97464E-03 1.52690E-03-4.33251E-14
 -1      3067 7.26367E-03 1.67899E-03-4.78084E-14
 -1      3068 7.40710E-03 1.75469E-03-4.95839E-14
 -1      3069 7.26177E-03 1.67818E-03-4.67743E-14
 -1      3070 7.55037E-03 1.83037E-03-5.13829E-14
 -1      3071 7.69352E-03 1.90607E-03-5.32029E-14
 -1      3072 7.54801E-03 1.82932E-03-5.03157E-14
 -1      3073 7.83658E-03 1.98182E-03-5.50438E-14
 -1      3074 7.97957E-03 2.05763E-03-5.69065E-14
 -1      3075 7.83375E-03 1.98060E-03-5.39462E-14
 -1      3076 8.12250E-03 2.13352E-03-5.87886E-14
 -1      3077 8.26540E-03 2.20950E-03-6.06880E-14
 -1      3078 8.11926E-03 2.13219E-03-5.76605E-14
 -1      3079 8.40827E-03 2.28558E-03-6.26060E-14
 -1      3080 8.55113E-03 2.36176E-03-6.45418E-14
 -1      3081 8.40469E-03 2.28419E-03-6.14498E-14
 -1      3082 8.69398E-03 2.43804E-03-6.64943E-14
 -1      3083 8.83683E-03 2.51443E-03-6.84624E-14
 -1      3084 8.69012E-03 2.43661E-03-6.53102E-14
 -1      3085 8.97967E-03 2.59091E-03-7.04448E-14
 -1      3086 9.12251E-03 2.66748E-03-7.24421E-14
 -1      3087 8.97560E-03 2.58944E-03-6.92369E-14
 -1      3088 9.26535E-03 2.74415E-03-7.44531E-14
 -1      3089 9.40820E-03 2.82090E-03-7.64792E-14
 -1      3090 9.26113E-03 2.74266E-03-7.32236E-14
 -1      3091 9.55105E-03 2.89772E-03-7.85174E-14
 -1      3092 9.69390E-03 2.97462E-03-8.05684E-14
 -1      3093 9.54672E-03 2.89621E-03-7.72659E-14
 -1      3094 9.83675E-03 3.05158E-03-8.26318E-14
 -1      3095 9.97961E-03 3.12860E-03-8.47044E-14
 -1      3096 9.83236E-03 3.05006E-03-8.13620E-14
 -1      3097 1.01225E-02 3.20568E-03-8.67868E-14
 -1      3098 1.02653E-02 3.28280E-03-8.88789E-14
 -1      3099 1.01180E-02 3.20414E-03-8.54997E-14
 -1      3100 1.04082E-02 3.35997E-03-9.09791E-14
 -1      3101 1.05510E-02 3.43718E-03-9.30857E-14
 -1      3102 1.04037E-02 3.35843E-03-8.96778E-14
 -1      3103 1.06939E-02 3.51442E-03-9.51992E-14
 -1      3104 1.08368E-02 3.59169E-03-9.73187E-14
 -1      3105 1.06894E-02 3.51286E-03-9.38859E-14
 -1      3106 1.09796E-02 3.66899E-03-9.94424E-14
 -1      3107 1.11225E-02 3.74631E-03-1.01569E-13
 -1      3108 1.09752E-02 3.66743E-03-9.81174E-14
 -1      3109 1.12654E-02 3.82366E-03-1.03702E-13
 -1      3110 1.14082E-02 3.90102E-03-1.05840E-13
 -1      3111 1.12609E-02 3.82208E-03-1.02369E-13
 -1      3112 1.15511E-02 3.97839E-03-1.07980E-13
 -1      3113 1.16940E-02 4.05578E-03-1.10122E-13
 -1      3114 1.15466E-02 3.97681E-03-1.06640E-13
 -1      3115 1.18368E-02 4.13317E-03-1.12267E-13
 -1      3116 1.19797E-02 4.21058E-03-1.14413E-13
 -1      3117 1.18324E-02 4.13159E-03-1.10922E-13
 -1      3118 1.21225E-02 4.28799E-03-1.16562E-13
 -1      3119 1.22654E-02 4.36541E-03-1.18717E-13
 -1      3120 1.21181E-02 4.28640E-03-1.15211E-13
 -1      3121 1.24083E-02 4.44284E-03-1.20872E-13
 -1      3122 1.25511E-02 4.52027E-03-1.23027E-13
 -1      3123 1.24038E-02 4.44124E-03-1.19515E-13
 -1      3124 1.26940E-02 4.59770E-03-1.25183E-13
 -1      3125 1.28368E-02 4.67514E-03-1.27342E-13
 -1      3126 1.26896E-02 4.59610E-03-1.23825E-13
 -1      3127 1.29797E-02 4.75257E-03-1.29500E-13
 -1      3128 1.31226E-02 4.83001E-03-1.31655E-13
 -1      3129 1.29753E-02 4.75097E-03-1.28137E-13
 -1      3130 1.32413E-02 4.89432E-03-1.33557E-13
 -1      3131 1.33842E-02 4.97176E-03-1.35714E-13
 -1      3132 1.34745E-02 5.02136E-03-1.36002E-13
 -1      3133 1.32369E-02 4.89273E-03-1.32195E-13
 -1      3134 5.38712E-03 7.90158E-04-1.74000E-14
 -1      3135 1.91898E-03 2.08686E-04-4.29961E-15
 -1      3136 1.73299E-03 2.78778E-04-3.92328E-15
 -1      3137 3.39021E-03-2.76413E-04-9.71522E-15
 -1      3138 3.22050E-03-2.74437E-04-8.77735E-15
 -1      3139 5.93508E-03 1.01815E-03-1.88505E-14
 -1      3140 5.78764E-03 9.67648E-04-1.87846E-14
 -1      3141 7.09302E-03 1.49370E-03-2.52564E-14
 -1      3142 6.96339E-03 1.42121E-03-2.38292E-14
 -1      3143 7.89443E-03 1.95547E-03-3.39768E-14
 -1      3144 7.75645E-03 1.87561E-03-3.24651E-14
 -1      3145 8.17350E-03 2.11632E-03-3.70740E-14
 -1      3146 8.03344E-03 2.03570E-03-3.55134E-14
 -1      3147 7.90947E-03 1.96449E-03-3.49890E-14
 -1      3148 8.45553E-03 2.27783E-03-4.02693E-14
 -1      3149 8.31419E-03 2.19703E-03-3.86593E-14
 -1      3150 8.18564E-03 2.12389E-03-3.81184E-14
 -1      3151 8.73935E-03 2.43917E-03-4.35629E-14
 -1      3152 8.59724E-03 2.35854E-03-4.19044E-14
 -1      3153 8.46546E-03 2.28415E-03-4.13486E-14
 -1      3154 9.02420E-03 2.59995E-03-4.69463E-14
 -1      3155 8.88166E-03 2.51964E-03-4.52425E-14
 -1      3156 8.74763E-03 2.44449E-03-4.46721E-14
 -1      3157 9.32390E-03 2.76797E-03-5.05979E-14
 -1      3158 9.17398E-03 2.68406E-03-4.87610E-14
 -1      3159 9.03836E-03 2.60845E-03-4.81737E-14
 -1      3160 9.60961E-03 2.92718E-03-5.41628E-14
 -1      3161 9.46672E-03 2.84767E-03-5.23695E-14
 -1      3162 9.33002E-03 2.77180E-03-5.17679E-14
 -1      3163 9.89545E-03 3.08564E-03-5.78135E-14
 -1      3164 9.75252E-03 3.00650E-03-5.59765E-14
 -1      3165 9.61511E-03 2.93051E-03-5.53623E-14
 -1      3166 1.01813E-02 3.24343E-03-6.15549E-14
 -1      3167 1.00384E-02 3.16461E-03-5.96740E-14
 -1      3168 9.90050E-03 3.08857E-03-5.90436E-14
 -1      3169 1.04672E-02 3.40063E-03-6.53757E-14
 -1      3170 1.03243E-02 3.32210E-03-6.34546E-14
 -1      3171 1.01861E-02 3.24605E-03-6.28083E-14
 -1      3172 1.07530E-02 3.55733E-03-6.92770E-14
 -1      3173 1.06101E-02 3.47904E-03-6.73167E-14
 -1      3174 1.04717E-02 3.40300E-03-6.66515E-14
 -1      3175 1.10389E-02 3.71362E-03-7.32547E-14
 -1      3176 1.08960E-02 3.63552E-03-7.12567E-14
 -1      3177 1.07575E-02 3.55951E-03-7.05732E-14
 -1      3178 1.13390E-02 3.87736E-03-7.75017E-14
 -1      3179 1.11889E-02 3.79553E-03-7.53697E-14
 -1      3180 1.10503E-02 3.71955E-03-7.46692E-14
 -1      3181 1.16247E-02 4.03303E-03-8.16040E-14
 -1      3182 1.14818E-02 3.95523E-03-7.95481E-14
 -1      3183 1.13432E-02 3.87928E-03-7.88315E-14
 -1      3184 1.19105E-02 4.18849E-03-8.57527E-14
 -1      3185 1.17676E-02 4.11079E-03-8.36733E-14
 -1      3186 1.16290E-02 4.03486E-03-8.29451E-14
 -1      3187 1.21962E-02 4.34379E-03-8.99297E-14
 -1      3188 1.20534E-02 4.26616E-03-8.78366E-14
 -1      3189 1.19147E-02 4.19025E-03-8.70988E-14
 -1      3190 1.24820E-02 4.49896E-03-9.41385E-14
 -1      3191 1.23391E-02 4.42139E-03-9.20320E-14
 -1      3192 1.22005E-02 4.34550E-03-9.12840E-14
 -1      3193 1.27677E-02 4.65403E-03-9.83646E-14
 -1      3194 1.26248E-02 4.57651E-03-9.62487E-14
 -1      3195 1.24862E-02 4.50063E-03-9.54959E-14
 -1      3196 1.30534E-02 4.80904E-03-1.02605E-13
 -1      3197 1.29105E-02 4.73154E-03-1.00482E-13
 -1      3198 1.27720E-02 4.65568E-03-9.97243E-14
 -1      3199 1.33391E-02 4.96399E-03-1.06854E-13
 -1      3200 1.31963E-02 4.88652E-03-1.04730E-13
 -1      3201 1.30577E-02 4.81067E-03-1.03968E-13
 -1      3202 1.36391E-02 5.12666E-03-1.11331E-13
 -1      3203 1.34891E-02 5.04533E-03-1.09091E-13
 -1      3204 1.33506E-02 4.96948E-03-1.08331E-13
 -1      3205 1.39248E-02 5.28155E-03-1.15602E-13
 -1      3206 1.37820E-02 5.20411E-03-1.13464E-13
 -1      3207 1.36434E-02 5.12827E-03-1.12701E-13
 -1      3208 1.42105E-02 5.43644E-03-1.19889E-13
 -1      3209 1.40677E-02 5.35900E-03-1.17742E-13
 -1      3210 1.39292E-02 5.28316E-03-1.16977E-13
 -1      3211 1.44963E-02 5.59131E-03-1.24202E-13
 -1      3212 1.43534E-02 5.51387E-03-1.22042E-13
 -1      3213 1.42149E-02 5.43804E-03-1.21271E-13
 -1      3214 1.47820E-02 5.74618E-03-1.28536E-13
 -1      3215 1.46391E-02 5.66874E-03-1.26367E-13
 -1      3216 1.45006E-02 5.59291E-03-1.25590E-13
 -1      3217 1.49626E-02 5.84380E-03-1.31784E-13
 -1      3218 1.48651E-02 5.79112E-03-1.29952E-13
 -1      3219 1.47265E-02 5.71529E-03-1.29173E-13
 -1      3220 1.48927E-02 5.80518E-03-1.32014E-13
 -1      3221 1.07136E-03 2.59668E-04-1.16189E-15
 -1      3222 9.78672E-04 2.33248E-04-1.11333E-15
 -1      3223 1.05071E-03 2.55132E-04-1.38728E-15
 -1      3224 1.19221E-03 2.92310E-04-1.44878E-15
 -1      3225 8.89536E-04 1.58445E-04-1.31737E-15
 -1      3226 9.12483E-04 1.38040E-04-1.34559E-15
 -1      3227 5.01777E-03 5.95687E-04-1.73097E-14
 -1      3228 4.77637E-03 4.50989E-04-1.64738E-14
 -1      3229 1.41424E-02 5.39037E-03-1.34515E-13
 -1      3230 1.42186E-02 5.43253E-03-1.34185E-13
 -1      3231 1.36882E-02 5.13887E-03-1.36453E-13
 -1      3232 1.37643E-02 5.18103E-03-1.36129E-13
 -1      3233 1.39927E-02 5.30749E-03-1.35157E-13
 -1      3234 1.40676E-02 5.34893E-03-1.34837E-13
 -1      3235 1.39819E-02 5.30295E-03-1.32798E-13
 -1      3236 1.37856E-03 4.17793E-04-3.48562E-15
 -1      3237 6.84448E-03 1.35679E-03-2.24950E-14
 -1      3238 6.72910E-03 1.29608E-03-2.11866E-14
 -1      3239 6.88805E-03 1.37063E-03-2.34079E-14
 -1      3240 1.55663E-03 4.20054E-04-2.61137E-15
 -1      3241 4.08892E-03 1.16564E-05-1.32666E-14
 -1      3242 3.93073E-03-8.30601E-05-1.25250E-14
 -1      3243 1.38404E-02 5.22318E-03-1.35805E-13
 -1      3244 1.39166E-02 5.26534E-03-1.35482E-13
 -1      3245 1.38309E-02 5.21935E-03-1.33448E-13
 -1      3246 1.36787E-02 5.13504E-03-1.34100E-13
 -1      3247 7.62008E-03 1.79666E-03-3.09803E-14
 -1      3248 7.48530E-03 1.71857E-03-2.95205E-14
 -1      3249 7.63892E-03 1.80729E-03-3.19588E-14
 -1      3250 7.35292E-03 1.64218E-03-2.80858E-14
 -1      3251 7.22284E-03 1.56739E-03-2.66761E-14
 -1      3252 7.37675E-03 1.65434E-03-2.90304E-14
 -1      3253 3.02703E-03-2.35966E-04-7.82931E-15
 -1      3254 2.85039E-03-1.72407E-04-7.06617E-15
 -1      3255 1.52693E-03-3.18254E-04-2.63960E-15
 -1      3256 1.68364E-03-3.42739E-04-3.12752E-15
 -1      3257 1.76068E-03-3.11186E-04-3.38073E-15
 -1      3258 2.68571E-03-1.02476E-04-6.45343E-15
 -1      3259 2.54780E-03-4.13630E-05-5.99538E-15
 -1      3260 4.51759E-03 2.89085E-04-1.52896E-14
 -1      3261 4.29807E-03 1.44595E-04-1.42612E-14
 -1      3262 4.21310E-03 8.98697E-05-1.42126E-14
 -1      3263 1.58500E-03 3.38971E-04-3.69405E-15
 -1      3264 1.47382E-03 3.65683E-04-3.48605E-15
 -1      3265 2.35772E-03 3.37553E-05-5.41406E-15
 -1      3266 2.16503E-03 1.13694E-04-4.89311E-15
 -1      3267 6.36102E-03 1.16984E-03-1.71340E-14
 -1      3268 6.21326E-03 1.09187E-03-1.89369E-14
 -1      3269 6.07959E-03 1.06044E-03-1.88810E-14
 -1      3270 6.06836E-03 1.06847E-03-1.97903E-14
 -1      3271 6.31184E-03 1.12993E-03-1.98475E-14
 -1      3272 9.26346E-04-1.88403E-04-1.14600E-15
 -1      3273 1.42147E-03 3.65330E-04-2.12173E-15
 -1      3274 1.30836E-03 3.27202E-04-1.76847E-15
 -1      3275 1.22613E-03 3.06035E-04-1.73716E-15
 -1      3276 3.75859E-03-1.68639E-04-1.17454E-14
 -1      3277 3.60788E-03-2.29265E-04-1.09561E-14
 -1      3278 6.42630E-03 1.15484E-03-1.75669E-14
 -1      3279 6.47767E-03 1.14911E-03-1.80000E-14
 -1      3280 6.46948E-03 1.19170E-03-1.82229E-14
 -1      3281 6.50536E-03 1.13938E-03-1.84358E-14
 -1      3282 6.49109E-03 1.14061E-03-1.88652E-14
 -1      3283 6.55056E-03 1.17338E-03-1.91093E-14
 -1      3284 5.56115E-03 8.75475E-04-1.86192E-14
 -1      3285 5.33057E-03 7.64808E-04-1.81768E-14
 -1      3286 1.36930E-03 3.85343E-04-3.26638E-15
 -1      3287 1.31537E-03 3.93715E-04-3.13496E-15
 -1      3288 9.37979E-04 1.13141E-04-1.37157E-15
 -1      3289 9.63489E-04 8.42009E-05-1.39545E-15
 -1      3290 1.03579E-03 1.43167E-04-1.64479E-15
 -1      3291 9.63434E-04 2.32537E-04-1.40465E-15
 -1      3292 8.65704E-04 2.01173E-04-1.17601E-15
 -1      3293 8.56886E-04 1.94166E-04-1.21627E-15
 -1      3294 5.71981E-03 9.43524E-04-1.95863E-14
 -1      3295 6.49454E-03 1.16121E-03-1.97118E-14
 -1      3296 1.26553E-03 3.67892E-04-2.80779E-15
 -1      3297 1.45990E-02 5.64313E-03-1.32519E-13
 -1      3298 1.46745E-02 5.68492E-03-1.32179E-13
 -1      3299 1.30991E-03 3.70721E-04-2.63876E-15
 -1      3300 1.38619E-03 4.02396E-04-2.89772E-15
 -1      3301 1.45672E-03 4.10362E-04-2.84318E-15
 -1      3302 3.84374E-03-1.25723E-04-1.24160E-14
 -1      3303 6.58193E-03 1.23503E-03-1.94755E-14
 -1      3304 1.97923E-03 1.38722E-04-4.33251E-15
 -1      3305 3.07751E-03-2.69799E-04-8.18695E-15
 -1      3306 7.12370E-03 1.50678E-03-2.61685E-14
 -1      3307 3.54650E-03-2.50881E-04-1.10137E-14
 -1      3308 3.47115E-03-2.68666E-04-1.03565E-14
 -1      3309 3.33965E-03-2.95260E-04-9.77256E-15
 -1      3310 1.44467E-02 5.55882E-03-1.33193E-13
 -1      3311 1.45229E-02 5.60097E-03-1.32856E-13
 -1      3312 1.44369E-02 5.55481E-03-1.30802E-13
 -1      3313 5.21028E-03 6.95961E-04-1.85187E-14
 -1      3314 4.66678E-03 3.77900E-04-1.64207E-14
 -1      3315 2.73385E-03-1.61577E-04-6.65590E-15
 -1      3316 1.42945E-02 5.47460E-03-1.33857E-13
 -1      3317 1.43707E-02 5.51675E-03-1.33524E-13
 -1      3318 1.42847E-02 5.47059E-03-1.31477E-13
 -1      3319 1.41327E-02 5.38646E-03-1.32145E-13
 -1      3320 2.39334E-03-2.35197E-05-5.47965E-15
 -1      3321 8.59519E-04 1.85960E-04-1.25308E-15
 -1      3322 8.70864E-04 1.74208E-04-1.28661E-15
 -1      3323 9.78549E-04 1.91135E-04-1.57745E-15
 -1      3324 9.46819E-04 2.18136E-04-1.49841E-15
 -1      3325 1.06156E-03-2.13726E-04-1.43501E-15
 -1      3326 1.37231E-03 3.54213E-04-3.13351E-15
 -1      3327 1.38716E-03-2.93846E-04-2.23835E-15
 -1      3328 1.45940E-03-2.64890E-04-2.45669E-15
 -1      3329 1.24851E-03-2.68801E-04-1.87074E-15
 -1      3330 6.65004E-03 1.24072E-03-2.03524E-14
 -1      3331 1.02928E-03-2.08524E-05-1.45428E-15
 -1      3332 1.04560E-03-5.93867E-05-1.46926E-15
 -1      3333 1.05927E-03-9.90431E-05-1.48122E-15
 -1      3334 1.07061E-03-1.39113E-04-1.48983E-15
 -1      3335 1.18438E-03-8.98515E-05-1.78591E-15
 -1      3336 1.61318E-03 2.80177E-04-3.56031E-15
 -1      3337 1.35362E-02 5.05532E-03-1.36083E-13
 -1      3338 1.36265E-02 5.10491E-03-1.36369E-13
 -1      3339 1.35408E-02 5.05893E-03-1.34342E-13
 -1      3340 1.34174E-02 4.99100E-03-1.34179E-13
 -1      3341 1.13036E-03-1.89549E-04-1.61022E-15
 -1      3342 5.39754E-03 7.88252E-04-1.98803E-14
 -1      3343 5.11565E-03 6.34943E-04-1.89741E-14
 -1      3344 5.90734E-03 1.02217E-03-2.07575E-14
 -1      3345 5.71046E-03 9.39773E-04-2.05792E-14
 -1      3346 2.33106E-03-3.44795E-04-5.44990E-15
 -1      3347 2.49379E-03-3.63961E-04-6.13767E-15
 -1      3348 2.65489E-03-3.79775E-04-6.86793E-15
 -1      3349 2.81351E-03-3.88786E-04-7.64012E-15
 -1      3350 2.58784E-03-3.33973E-04-6.45523E-15
 -1      3351 2.96926E-03-3.89511E-04-8.45413E-15
 -1      3352 3.12309E-03-3.79043E-04-9.31065E-15
 -1      3353 2.91315E-03-3.60460E-04-7.98837E-15
 -1      3354 3.29091E-03-3.39918E-04-1.01199E-14
 -1      3355 3.44447E-03-3.04067E-04-1.10574E-14
 -1      3356 3.88548E-03-1.34008E-04-1.42268E-14
 -1      3357 4.04328E-03-5.27197E-05-1.53304E-14
 -1      3358 4.20325E-03 3.47695E-05-1.64710E-14
 -1      3359 4.36503E-03 1.25417E-04-1.76473E-14
 -1      3360 4.17077E-03 2.94523E-05-1.58148E-14
 -1      3361 4.52812E-03 2.17816E-04-1.88579E-14
 -1      3362 4.69123E-03 3.10107E-04-2.01020E-14
 -1      3363 4.50289E-03 2.17601E-04-1.81619E-14
 -1      3364 4.85422E-03 4.01553E-04-2.13785E-14
 -1      3365 5.01588E-03 4.91271E-04-2.26859E-14
 -1      3366 4.83680E-03 4.05578E-04-2.06447E-14
 -1      3367 5.17625E-03 5.79032E-04-2.40235E-14
 -1      3368 5.33466E-03 6.64829E-04-2.53929E-14
 -1      3369 5.16564E-03 5.85127E-04-2.32536E-14
 -1      3370 5.49129E-03 7.48620E-04-2.67924E-14
 -1      3371 5.64587E-03 8.30775E-04-2.82205E-14
 -1      3372 5.48568E-03 7.54783E-04-2.59838E-14
 -1      3373 5.79869E-03 9.11344E-04-2.96787E-14
 -1      3374 5.94971E-03 9.90716E-04-3.11660E-14
 -1      3375 5.79629E-03 9.16394E-04-2.88333E-14
 -1      3376 6.09923E-03 1.06896E-03-3.26814E-14
 -1      3377 6.24733E-03 1.14643E-03-3.42245E-14
 -1      3378 6.09857E-03 1.07249E-03-3.17989E-14
 -1      3379 6.39427E-03 1.22319E-03-3.57940E-14
 -1      3380 6.54021E-03 1.29950E-03-3.73884E-14
 -1      3381 6.39430E-03 1.22522E-03-3.48756E-14
 -1      3382 6.68533E-03 1.37541E-03-3.90109E-14
 -1      3383 6.82977E-03 1.45109E-03-4.06595E-14
 -1      3384 6.68535E-03 1.37618E-03-3.80579E-14
 -1      3385 6.97368E-03 1.52658E-03-4.23309E-14
 -1      3386 7.11717E-03 1.60199E-03-4.40258E-14
 -1      3387 6.97331E-03 1.52642E-03-4.13422E-14
 -1      3388 7.26034E-03 1.67736E-03-4.57455E-14
 -1      3389 7.40327E-03 1.75275E-03-4.74886E-14
 -1      3390 7.25940E-03 1.67655E-03-4.47234E-14
 -1      3391 7.54603E-03 1.82817E-03-4.92547E-14
 -1      3392 7.68868E-03 1.90367E-03-5.10432E-14
 -1      3393 7.54446E-03 1.82694E-03-4.81988E-14
 -1      3394 7.83125E-03 1.97925E-03-5.28546E-14
 -1      3395 7.97377E-03 2.05494E-03-5.46861E-14
 -1      3396 7.82907E-03 1.97778E-03-5.17670E-14
 -1      3397 8.11628E-03 2.13073E-03-5.65371E-14
 -1      3398 8.25879E-03 2.20664E-03-5.84093E-14
 -1      3399 8.11356E-03 2.12913E-03-5.54206E-14
 -1      3400 8.40131E-03 2.28267E-03-6.02996E-14
 -1      3401 8.54385E-03 2.35881E-03-6.22066E-14
 -1      3402 8.39814E-03 2.28101E-03-5.91533E-14
 -1      3403 8.68642E-03 2.43506E-03-6.41333E-14
 -1      3404 8.82902E-03 2.51142E-03-6.60767E-14
 -1      3405 8.68289E-03 2.43339E-03-6.29606E-14
 -1      3406 8.97165E-03 2.58788E-03-6.80348E-14
 -1      3407 9.11431E-03 2.66444E-03-7.00092E-14
 -1      3408 8.96783E-03 2.58622E-03-6.68374E-14
 -1      3409 9.25700E-03 2.74110E-03-7.19980E-14
 -1      3410 9.39972E-03 2.81783E-03-7.40027E-14
 -1      3411 9.25297E-03 2.73945E-03-7.07770E-14
 -1      3412 9.54246E-03 2.89465E-03-7.60206E-14
 -1      3413 9.68523E-03 2.97154E-03-7.80514E-14
 -1      3414 9.53828E-03 2.89302E-03-7.47777E-14
 -1      3415 9.82801E-03 3.04849E-03-8.00957E-14
 -1      3416 9.97081E-03 3.12551E-03-8.21521E-14
 -1      3417 9.82372E-03 3.04688E-03-7.88329E-14
 -1      3418 1.01136E-02 3.20258E-03-8.42170E-14
 -1      3419 1.02565E-02 3.27970E-03-8.62921E-14
 -1      3420 1.01093E-02 3.20098E-03-8.29370E-14
 -1      3421 1.03993E-02 3.35686E-03-8.83793E-14
 -1      3422 1.05421E-02 3.43406E-03-9.04733E-14
 -1      3423 1.03949E-02 3.35526E-03-8.70831E-14
 -1      3424 1.06850E-02 3.51129E-03-9.25738E-14
 -1      3425 1.08279E-02 3.58856E-03-9.46830E-14
 -1      3426 1.06806E-02 3.50970E-03-9.12656E-14
 -1      3427 1.09707E-02 3.66585E-03-9.67955E-14
 -1      3428 1.11136E-02 3.74317E-03-9.89137E-14
 -1      3429 1.09663E-02 3.66426E-03-9.54763E-14
 -1      3430 1.12565E-02 3.82050E-03-1.01039E-13
 -1      3431 1.13993E-02 3.89786E-03-1.03168E-13
 -1      3432 1.12520E-02 3.81892E-03-9.97087E-14
 -1      3433 1.15422E-02 3.97522E-03-1.05299E-13
 -1      3434 1.16851E-02 4.05261E-03-1.07437E-13
 -1      3435 1.15378E-02 3.97364E-03-1.03962E-13
 -1      3436 1.18279E-02 4.13000E-03-1.09576E-13
 -1      3437 1.19708E-02 4.20740E-03-1.11717E-13
 -1      3438 1.18235E-02 4.12841E-03-1.08231E-13
 -1      3439 1.21137E-02 4.28481E-03-1.13863E-13
 -1      3440 1.22566E-02 4.36223E-03-1.16009E-13
 -1      3441 1.21093E-02 4.28322E-03-1.12513E-13
 -1      3442 1.23994E-02 4.43965E-03-1.18160E-13
 -1      3443 1.25423E-02 4.51708E-03-1.20315E-13
 -1      3444 1.23950E-02 4.43806E-03-1.16808E-13
 -1      3445 1.26852E-02 4.59451E-03-1.22468E-13
 -1      3446 1.28280E-02 4.67194E-03-1.24622E-13
 -1      3447 1.26807E-02 4.59292E-03-1.21111E-13
 -1      3448 1.29709E-02 4.74938E-03-1.26777E-13
 -1      3449 1.31138E-02 4.82681E-03-1.28932E-13
 -1      3450 1.29665E-02 4.74778E-03-1.25418E-13
 -1      3451 6.57860E-03 1.20036E-03-2.05807E-14
 -1      3452 6.51008E-03 1.18965E-03-2.07429E-14
 -1      3453 1.43832E-03 3.80251E-04-2.37064E-15
 -1      3454 7.92158E-03 1.97371E-03-3.60054E-14
 -1      3455 7.78651E-03 1.89549E-03-3.44603E-14
 -1      3456 8.75510E-03 2.44988E-03-4.57845E-14
 -1      3457 8.61434E-03 2.37021E-03-4.40972E-14
 -1      3458 9.05197E-03 2.61696E-03-4.94053E-14
 -1      3459 8.90334E-03 2.53345E-03-4.75822E-14
 -1      3460 8.76884E-03 2.45913E-03-4.69876E-14
 -1      3461 9.33585E-03 2.77566E-03-5.29418E-14
 -1      3462 9.19379E-03 2.69637E-03-5.11628E-14
 -1      3463 9.05799E-03 2.62142E-03-5.05525E-14
 -1      3464 9.62043E-03 2.93385E-03-5.65651E-14
 -1      3465 9.47806E-03 2.85482E-03-5.47444E-14
 -1      3466 9.34135E-03 2.77949E-03-5.41196E-14
 -1      3467 9.90546E-03 3.09151E-03-6.02757E-14
 -1      3468 9.76289E-03 3.01275E-03-5.84091E-14
 -1      3469 9.62555E-03 2.93717E-03-5.77734E-14
 -1      3470 1.01908E-02 3.24867E-03-6.40627E-14
 -1      3471 1.00481E-02 3.17015E-03-6.21590E-14
 -1      3472 9.91030E-03 3.09443E-03-6.15081E-14
 -1      3473 1.04763E-02 3.40537E-03-6.79297E-14
 -1      3474 1.03335E-02 3.32707E-03-6.59867E-14
 -1      3475 1.01954E-02 3.25127E-03-6.53183E-14
 -1      3476 1.07619E-02 3.56169E-03-7.18709E-14
 -1      3477 1.06191E-02 3.48358E-03-6.98904E-14
 -1      3478 1.04808E-02 3.40773E-03-6.92074E-14
 -1      3479 1.10618E-02 3.72547E-03-7.60836E-14
 -1      3480 1.09118E-02 3.64362E-03-7.39690E-14
 -1      3481 1.07734E-02 3.56775E-03-7.32683E-14
 -1      3482 1.13475E-02 3.88118E-03-8.01613E-14
 -1      3483 1.12047E-02 3.80336E-03-7.81155E-14
 -1      3484 1.10662E-02 3.72747E-03-7.74006E-14
 -1      3485 1.16333E-02 4.03668E-03-8.42830E-14
 -1      3486 1.14904E-02 3.95895E-03-8.22149E-14
 -1      3487 1.13519E-02 3.88307E-03-8.14882E-14
 -1      3488 1.19190E-02 4.19200E-03-8.84449E-14
 -1      3489 1.17761E-02 4.11436E-03-8.63613E-14
 -1      3490 1.16376E-02 4.03848E-03-8.56215E-14
 -1      3491 1.22048E-02 4.34720E-03-9.26370E-14
 -1      3492 1.20619E-02 4.26962E-03-9.05376E-14
 -1      3493 1.19233E-02 4.19374E-03-8.97945E-14
 -1      3494 1.24905E-02 4.50230E-03-9.68547E-14
 -1      3495 1.23476E-02 4.42476E-03-9.47440E-14
 -1      3496 1.22091E-02 4.34889E-03-9.39921E-14
 -1      3497 1.27763E-02 4.65732E-03-1.01086E-13
 -1      3498 1.26334E-02 4.57982E-03-9.89674E-14
 -1      3499 1.24948E-02 4.50396E-03-9.82121E-14
 -1      3500 1.30620E-02 4.81229E-03-1.05332E-13
 -1      3501 1.29191E-02 4.73481E-03-1.03206E-13
 -1      3502 1.27806E-02 4.65896E-03-1.02446E-13
 -1      3503 1.33620E-02 4.97497E-03-1.09804E-13
 -1      3504 1.32120E-02 4.89363E-03-1.07567E-13
 -1      3505 1.30735E-02 4.81778E-03-1.06802E-13
 -1      3506 1.36478E-02 5.12987E-03-1.14071E-13
 -1      3507 1.35049E-02 5.05242E-03-1.11936E-13
 -1      3508 1.33664E-02 4.97658E-03-1.11170E-13
 -1      3509 1.39335E-02 5.28476E-03-1.18353E-13
 -1      3510 1.37906E-02 5.20732E-03-1.16211E-13
 -1      3511 1.36521E-02 5.13147E-03-1.15442E-13
 -1      3512 1.42192E-02 5.43963E-03-1.22655E-13
 -1      3513 1.40764E-02 5.36220E-03-1.20501E-13
 -1      3514 1.39378E-02 5.28636E-03-1.19732E-13
 -1      3515 1.45049E-02 5.59450E-03-1.26981E-13
 -1      3516 1.43621E-02 5.51707E-03-1.24814E-13
 -1      3517 1.42236E-02 5.44123E-03-1.24037E-13
 -1      3518 2.43893E-03-9.02114E-05-5.60622E-15
 -1      3519 2.26569E-03-2.70992E-05-5.04627E-15
 -1      3520 1.47487E-02 5.72574E-03-1.32214E-13
 -1      3521 1.48186E-02 5.76437E-03-1.31986E-13
 -1      3522 1.47355E-02 5.71942E-03-1.30562E-13
 -1      3523 1.45872E-02 5.63778E-03-1.30498E-13
 -1      3524 1.38207E-02 5.21517E-03-1.31090E-13
 -1      3525 1.38956E-02 5.25661E-03-1.30766E-13
 -1      3526 2.74437E-03-2.12068E-04-6.76592E-15
 -1      3527 2.59670E-03-1.53155E-04-6.17102E-15
 -1      3528 2.46084E-03-1.51327E-04-5.70082E-15
 -1      3529 6.91304E-03 1.38608E-03-2.42906E-14
 -1      3530 6.80788E-03 1.32385E-03-2.29498E-14
 -1      3531 1.10857E-03 2.74788E-04-1.59208E-15
 -1      3532 1.05165E-03 2.59804E-04-1.55293E-15
 -1      3533 1.02141E-03 2.52846E-04-1.61098E-15
 -1      3534 1.20775E-03 3.08888E-04-1.92864E-15
 -1      3535 7.65332E-03 1.81824E-03-3.29407E-14
 -1      3536 7.52223E-03 1.74186E-03-3.14469E-14
 -1      3537 7.66399E-03 1.82871E-03-3.39290E-14
 -1      3538 1.00994E-03 1.64226E-05-1.43691E-15
 -1      3539 1.14805E-03-4.03054E-06-1.74967E-15
 -1      3540 9.87964E-04 5.14715E-05-1.41726E-15
 -1      3541 7.39386E-03 1.66710E-03-2.99787E-14
 -1      3542 7.26856E-03 1.59378E-03-2.85358E-14
 -1      3543 7.40553E-03 1.67928E-03-3.09307E-14
 -1      3544 7.14562E-03 1.52206E-03-2.71008E-14
 -1      3545 7.02572E-03 1.45169E-03-2.56737E-14
 -1      3546 6.92695E-03 1.40198E-03-2.51933E-14
 -1      3547 7.15794E-03 1.53591E-03-2.80191E-14
 -1      3548 8.19585E-03 2.13159E-03-3.91695E-14
 -1      3549 8.05808E-03 2.05240E-03-3.75756E-14
 -1      3550 7.93114E-03 1.98259E-03-3.70277E-14
 -1      3551 1.67692E-03-2.55038E-04-3.11176E-15
 -1      3552 1.83912E-03-2.77570E-04-3.63477E-15
 -1      3553 2.01525E-03 6.00982E-05-4.31151E-15
 -1      3554 1.79900E-03 1.40310E-04-3.76154E-15
 -1      3555 2.00292E-03-3.00418E-04-4.19861E-15
 -1      3556 2.16704E-03-3.23018E-04-4.80344E-15
 -1      3557 2.25406E-03-2.89454E-04-5.09015E-15
 -1      3558 1.37009E-03 3.17488E-04-2.97330E-15
 -1      3559 1.28127E-03 3.32902E-04-2.77538E-15
 -1      3560 4.29996E-03 1.42054E-04-1.50559E-14
 -1      3561 4.10548E-03 2.06507E-05-1.40352E-14
 -1      3562 3.10830E-03-2.99608E-04-8.51832E-15
 -1      3563 2.92772E-03-2.65653E-04-7.58990E-15
 -1      3564 3.93339E-03-7.92144E-05-1.32032E-14
 -1      3565 3.77228E-03-1.63274E-04-1.23961E-14
 -1      3566 4.02246E-03-3.31582E-05-1.40092E-14
 -1      3567 8.47415E-03 2.29058E-03-4.24307E-14
 -1      3568 8.33457E-03 2.21098E-03-4.07870E-14
 -1      3569 8.20433E-03 2.13906E-03-4.02244E-14
 -1      3570 8.48166E-03 2.29686E-03-4.35163E-14
 -1      3571 1.21872E-03 3.35689E-04-2.56118E-15
 -1      3572 1.21093E-03 3.36666E-04-2.44996E-15
 -1      3573 6.65758E-03 1.23499E-03-2.08062E-14
 -1      3574 1.34873E-03 3.58211E-04-2.33158E-15
 -1      3575 1.58832E-03 2.29314E-04-3.32667E-15
 -1      3576 1.46703E-03 2.80306E-04-3.12361E-15
 -1      3577 4.76051E-03 4.25887E-04-1.74830E-14
 -1      3578 4.52159E-03 2.79525E-04-1.62691E-14
 -1      3579 1.27394E-03 3.47385E-04-2.39437E-15
 -1      3580 1.25257E-03 3.29512E-04-2.14934E-15
 -1      3581 1.15332E-03 3.00605E-04-1.98103E-15
 -1      3582 1.23743E-03 3.43878E-04-2.43964E-15
 -1      3583 6.70616E-03 1.26758E-03-2.18616E-14
 -1      3584 6.71103E-03 1.28296E-03-2.27153E-14
 -1      3585 5.60058E-03 8.84953E-04-2.10590E-14
 -1      3586 5.50614E-03 8.29054E-04-2.15337E-14
 -1      3587 5.79403E-03 9.71220E-04-2.22611E-14
 -1      3588 3.24169E-03-3.29896E-04-9.59831E-15
 -1      3589 1.26745E-03 1.62963E-05-2.06936E-15
 -1      3590 1.29161E-03-3.01251E-05-2.09473E-15
 -1      3591 1.25940E-03-1.86620E-04-1.93496E-15
 -1      3592 3.56978E-03-2.51422E-04-1.14902E-14
 -1      3593 3.59168E-03-2.61541E-04-1.21668E-14
 -1      3594 1.43914E-03-6.22646E-05-2.47186E-15
 -1      3595 1.31115E-03-7.75731E-05-2.11669E-15
 -1      3596 1.32653E-03-1.24843E-04-2.13481E-15
 -1      3597 6.54013E-03 1.21916E-03-2.18162E-14
 -1      3598 6.43053E-03 1.17629E-03-2.09270E-14
 -1      3599 3.74580E-03-1.98110E-04-1.31932E-14
 -1      3600 1.32062E-02 4.87675E-03-1.30604E-13
 -1      3601 1.33250E-02 4.94106E-03-1.32506E-13
 -1      3602 1.33867E-02 4.97503E-03-1.32587E-13
 -1      3603 1.32018E-02 4.87515E-03-1.29243E-13
 -1      3604 1.34919E-03 2.72031E-04-2.76320E-15
 -1      3605 1.91857E-03-2.42242E-04-3.88977E-15
 -1      3606 1.16801E-03 3.14276E-04-2.21425E-15
 -1      3607 2.06878E-03-6.50120E-06-4.41677E-15
 -1      3608 1.46524E-02 5.67447E-03-1.29145E-13
 -1      3609 1.37446E-02 5.17301E-03-1.31419E-13
 -1      3610 1.36583E-02 5.12667E-03-1.29389E-13
 -1      3611 1.36685E-02 5.13086E-03-1.31747E-13
 -1      3612 1.09710E-03 7.59383E-05-1.70210E-15
 -1      3613 4.40501E-03 1.98192E-04-1.60724E-14
 -1      3614 2.78984E-03-2.62595E-04-7.05995E-15
 -1      3615 1.39716E-02 5.29868E-03-1.30433E-13
 -1      3616 1.40476E-02 5.34075E-03-1.30099E-13
 -1      3617 1.38104E-02 5.21090E-03-1.28727E-13
 -1      3618 1.44397E-02 5.55782E-03-1.28331E-13
 -1      3619 1.45139E-02 5.59863E-03-1.28363E-13
 -1      3620 1.19469E-03 3.08687E-04-2.41985E-15
 -1      3621 1.42751E-02 5.46668E-03-1.29092E-13
 -1      3622 1.43513E-02 5.50883E-03-1.28752E-13
 -1      3623 1.13035E-03 1.78098E-04-1.93914E-15
 -1      3624 1.16816E-03 1.43944E-04-1.97566E-15
 -1      3625 3.86385E-03-1.31718E-04-1.36430E-14
 -1      3626 5.14810E-03 6.34511E-04-2.01722E-14
 -1      3627 4.95680E-03 5.34988E-04-1.88095E-14
 -1      3628 4.81407E-03 4.38273E-04-1.86373E-14
 -1      3629 6.33110E-03 1.15428E-03-2.09020E-14
 -1      3630 6.03806E-03 1.06926E-03-2.07989E-14
 -1      3631 6.02228E-03 1.06848E-03-2.18171E-14
 -1      3632 6.16480E-03 1.10875E-03-2.08354E-14
 -1      3633 1.53359E-03-2.00666E-04-2.68745E-15
 -1      3634 1.60568E-03-1.64943E-04-2.90714E-15
 -1      3635 1.66598E-03 9.42720E-05-3.27925E-15
 -1      3636 1.63460E-03 1.63121E-04-3.30645E-15
 -1      3637 1.48008E-03 1.74235E-04-2.88182E-15
 -1      3638 3.16371E-03-3.22258E-04-8.99767E-15
 -1      3639 1.11300E-03 2.52889E-04-2.04585E-15
 -1      3640 1.14656E-03 2.31385E-04-2.09358E-15
 -1      3641 1.34484E-02 5.00899E-03-1.32670E-13
 -1      3642 1.39037E-03-1.80820E-04-2.28688E-15
 -1      3643 1.42779E-02 5.46968E-03-1.26625E-13
 -1      3644 1.33632E-02 4.96315E-03-1.30794E-13
 -1      3645 1.35173E-02 5.04705E-03-1.32549E-13
 -1      3646 1.35934E-02 5.08920E-03-1.32222E-13
 -1      3647 1.32707E-02 4.91321E-03-1.29123E-13
 -1      3648 7.67138E-03 1.83868E-03-3.49218E-14
 -1      3649 7.54072E-03 1.76393E-03-3.33924E-14
 -1      3650 1.56906E-03-4.50606E-05-2.85091E-15
 -1      3651 1.59038E-03-1.00194E-04-2.88186E-15
 -1      3652 1.21444E-03 2.04464E-04-2.21082E-15
 -1      3653 1.31701E-03 7.21170E-05-2.25999E-15
 -1      3654 1.46916E-03 4.88628E-05-2.64993E-15
 -1      3655 6.65469E-03 1.27031E-03-2.29108E-14
 -1      3656 6.58366E-03 1.25573E-03-2.30997E-14
 -1      3657 6.76911E-03 1.32570E-03-2.40206E-14
 -1      3658 4.46974E-03 2.21068E-04-1.71522E-14
 -1      3659 4.64385E-03 3.20804E-04-1.83501E-14
 -1      3660 4.82886E-03 4.23319E-04-1.96958E-14
 -1      3661 4.99978E-03 5.16772E-04-2.09613E-14
 -1      3662 5.48161E-03 7.62914E-04-2.51818E-14
 -1      3663 5.63986E-03 8.44010E-04-2.65740E-14
 -1      3664 5.79547E-03 9.23013E-04-2.79945E-14
 -1      3665 5.94846E-03 1.00071E-03-2.94441E-14
 -1      3666 5.79650E-03 9.31354E-04-2.71615E-14
 -1      3667 6.09929E-03 1.07715E-03-3.09240E-14
 -1      3668 6.24817E-03 1.15287E-03-3.24301E-14
 -1      3669 6.10166E-03 1.08307E-03-3.00538E-14
 -1      3670 6.39545E-03 1.22795E-03-3.39631E-14
 -1      3671 6.54140E-03 1.30276E-03-3.55230E-14
 -1      3672 6.39792E-03 1.23149E-03-3.30571E-14
 -1      3673 6.68626E-03 1.37733E-03-3.71102E-14
 -1      3674 6.83028E-03 1.45187E-03-3.87228E-14
 -1      3675 6.68819E-03 1.37891E-03-3.61685E-14
 -1      3676 6.97363E-03 1.52639E-03-4.03586E-14
 -1      3677 7.11649E-03 1.60100E-03-4.20203E-14
 -1      3678 6.97471E-03 1.52653E-03-3.93822E-14
 -1      3679 7.25897E-03 1.67572E-03-4.37075E-14
 -1      3680 7.40122E-03 1.75059E-03-4.54169E-14
 -1      3681 7.25913E-03 1.67488E-03-4.26956E-14
 -1      3682 7.54328E-03 1.82561E-03-4.71494E-14
 -1      3683 7.68526E-03 1.90079E-03-4.89062E-14
 -1      3684 7.54254E-03 1.82415E-03-4.61061E-14
 -1      3685 7.82719E-03 1.97615E-03-5.06850E-14
 -1      3686 7.96913E-03 2.05167E-03-5.24872E-14
 -1      3687 7.82564E-03 1.97435E-03-4.96091E-14
 -1      3688 8.11108E-03 2.12736E-03-5.43094E-14
 -1      3689 8.25309E-03 2.20320E-03-5.61504E-14
 -1      3690 8.10884E-03 2.12540E-03-5.32014E-14
 -1      3691 8.39515E-03 2.27919E-03-5.80118E-14
 -1      3692 8.53729E-03 2.35531E-03-5.98930E-14
 -1      3693 8.39235E-03 2.27718E-03-5.68768E-14
 -1      3694 8.67950E-03 2.43157E-03-6.17925E-14
 -1      3695 8.82178E-03 2.50794E-03-6.37100E-14
 -1      3696 8.67624E-03 2.42958E-03-6.06282E-14
 -1      3697 8.96413E-03 2.58443E-03-6.56438E-14
 -1      3698 9.10655E-03 2.66101E-03-6.75932E-14
 -1      3699 8.96053E-03 2.58250E-03-6.44533E-14
 -1      3700 9.24903E-03 2.73770E-03-6.95605E-14
 -1      3701 9.39157E-03 2.81446E-03-7.15419E-14
 -1      3702 9.24516E-03 2.73583E-03-6.83449E-14
 -1      3703 9.53416E-03 2.89131E-03-7.35362E-14
 -1      3704 9.67680E-03 2.96822E-03-7.55480E-14
 -1      3705 9.53010E-03 2.88951E-03-7.23010E-14
 -1      3706 9.81948E-03 3.04520E-03-7.75739E-14
 -1      3707 9.96219E-03 3.12224E-03-7.96103E-14
 -1      3708 9.81528E-03 3.04346E-03-7.63156E-14
 -1      3709 1.01049E-02 3.19933E-03-8.16598E-14
 -1      3710 1.02477E-02 3.27646E-03-8.37205E-14
 -1      3711 1.01006E-02 3.19763E-03-8.03837E-14
 -1      3712 1.03905E-02 3.35364E-03-8.57910E-14
 -1      3713 1.05333E-02 3.43085E-03-8.78707E-14
 -1      3714 1.03862E-02 3.35197E-03-8.45006E-14
 -1      3715 1.06761E-02 3.50809E-03-8.99606E-14
 -1      3716 1.08190E-02 3.58537E-03-9.20569E-14
 -1      3717 1.06718E-02 3.50646E-03-8.86557E-14
 -1      3718 1.09618E-02 3.66266E-03-9.41584E-14
 -1      3719 1.11047E-02 3.73998E-03-9.62666E-14
 -1      3720 1.09574E-02 3.66104E-03-9.28429E-14
 -1      3721 1.12476E-02 3.81732E-03-9.83810E-14
 -1      3722 1.13904E-02 3.89468E-03-1.00501E-13
 -1      3723 1.12431E-02 3.81572E-03-9.70558E-14
 -1      3724 1.15333E-02 3.97205E-03-1.02627E-13
 -1      3725 1.16762E-02 4.04943E-03-1.04755E-13
 -1      3726 1.15289E-02 3.97045E-03-1.01290E-13
 -1      3727 1.18191E-02 4.12682E-03-1.06887E-13
 -1      3728 1.19619E-02 4.20422E-03-1.09024E-13
 -1      3729 1.18146E-02 4.12523E-03-1.05546E-13
 -1      3730 1.21048E-02 4.28163E-03-1.11163E-13
 -1      3731 1.22477E-02 4.35905E-03-1.13307E-13
 -1      3732 1.21004E-02 4.28004E-03-1.09815E-13
 -1      3733 1.23906E-02 4.43647E-03-1.15454E-13
 -1      3734 1.25335E-02 4.51389E-03-1.17603E-13
 -1      3735 1.23862E-02 4.43488E-03-1.14099E-13
 -1      3736 1.26763E-02 4.59132E-03-1.19753E-13
 -1      3737 1.28192E-02 4.66875E-03-1.21905E-13
 -1      3738 1.26719E-02 4.58973E-03-1.18396E-13
 -1      3739 1.29621E-02 4.74619E-03-1.24057E-13
 -1      3740 1.31050E-02 4.82362E-03-1.26210E-13
 -1      3741 1.29577E-02 4.74459E-03-1.22697E-13
 -1      3742 3.70214E-03-1.96977E-04-1.21335E-14
 -1      3743 8.77833E-03 2.46626E-03-4.81511E-14
 -1      3744 8.63116E-03 2.38357E-03-4.63448E-14
 -1      3745 9.63048E-03 2.94045E-03-5.89823E-14
 -1      3746 9.48842E-03 2.86189E-03-5.71317E-14
 -1      3747 9.91502E-03 3.09732E-03-6.27416E-14
 -1      3748 9.77268E-03 3.01892E-03-6.08531E-14
 -1      3749 9.63522E-03 2.94365E-03-6.01956E-14
 -1      3750 1.02000E-02 3.25384E-03-6.65775E-14
 -1      3751 1.00575E-02 3.17562E-03-6.46494E-14
 -1      3752 9.91962E-03 3.10014E-03-6.39791E-14
 -1      3753 1.04852E-02 3.41005E-03-7.04869E-14
 -1      3754 1.03426E-02 3.33198E-03-6.85234E-14
 -1      3755 1.02045E-02 3.25637E-03-6.78369E-14
 -1      3756 1.07849E-02 3.57377E-03-7.46670E-14
 -1      3757 1.06351E-02 3.49195E-03-7.25683E-14
 -1      3758 1.04968E-02 3.41624E-03-7.18670E-14
 -1      3759 1.10705E-02 3.72946E-03-7.87186E-14
 -1      3760 1.09277E-02 3.65164E-03-7.66858E-14
 -1      3761 1.07893E-02 3.57587E-03-7.59713E-14
 -1      3762 1.13562E-02 3.88494E-03-8.28165E-14
 -1      3763 1.12133E-02 3.80722E-03-8.07609E-14
 -1      3764 1.10749E-02 3.73142E-03-8.00341E-14
 -1      3765 1.16419E-02 4.04027E-03-8.69616E-14
 -1      3766 1.14990E-02 3.96262E-03-8.48825E-14
 -1      3767 1.13605E-02 3.88680E-03-8.41461E-14
 -1      3768 1.19276E-02 4.19547E-03-9.11409E-14
 -1      3769 1.17847E-02 4.11788E-03-8.90487E-14
 -1      3770 1.16462E-02 4.04204E-03-8.83020E-14
 -1      3771 1.22134E-02 4.35058E-03-9.53464E-14
 -1      3772 1.20705E-02 4.27304E-03-9.32415E-14
 -1      3773 1.19319E-02 4.19719E-03-9.24902E-14
 -1      3774 1.24991E-02 4.50561E-03-9.95682E-14
 -1      3775 1.23562E-02 4.42810E-03-9.74562E-14
 -1      3776 1.22177E-02 4.35225E-03-9.66986E-14
 -1      3777 1.27849E-02 4.66059E-03-1.03807E-13
 -1      3778 1.26420E-02 4.58310E-03-1.01686E-13
 -1      3779 1.25034E-02 4.50725E-03-1.00925E-13
 -1      3780 1.30849E-02 4.82327E-03-1.08273E-13
 -1      3781 1.29349E-02 4.74194E-03-1.06038E-13
 -1      3782 1.27964E-02 4.66609E-03-1.05274E-13
 -1      3783 1.33707E-02 4.97818E-03-1.12538E-13
 -1      3784 1.32278E-02 4.90073E-03-1.10404E-13
 -1      3785 1.30893E-02 4.82488E-03-1.09636E-13
 -1      3786 1.36564E-02 5.13307E-03-1.16816E-13
 -1      3787 1.35136E-02 5.05563E-03-1.14675E-13
 -1      3788 1.33750E-02 4.97978E-03-1.13906E-13
 -1      3789 1.39422E-02 5.28795E-03-1.21108E-13
 -1      3790 1.37993E-02 5.21051E-03-1.18959E-13
 -1      3791 1.36608E-02 5.13467E-03-1.18188E-13
 -1      3792 1.41815E-02 5.41754E-03-1.24942E-13
 -1      3793 1.40386E-02 5.34010E-03-1.22785E-13
 -1      3794 1.39001E-02 5.26426E-03-1.22009E-13
 -1      3795 1.40930E-02 5.36855E-03-1.25365E-13
 -1      3796 9.34655E-03 2.78326E-03-5.53018E-14
 -1      3797 9.20491E-03 2.70456E-03-5.34927E-14
 -1      3798 9.35147E-03 2.78692E-03-5.64868E-14
 -1      3799 3.01972E-03-3.35057E-04-8.35638E-15
 -1      3800 1.05624E-03 2.56072E-04-1.86984E-15
 -1      3801 2.46885E-03-2.03706E-04-5.77098E-15
 -1      3802 2.32413E-03-1.49539E-04-5.22824E-15
 -1      3803 1.05309E-03 2.64846E-04-1.81665E-15
 -1      3804 1.12204E-03 2.93485E-04-1.98988E-15
 -1      3805 9.06354E-03 2.62581E-03-5.17049E-14
 -1      3806 8.92248E-03 2.54701E-03-4.99382E-14
 -1      3807 9.06866E-03 2.63004E-03-5.28616E-14
 -1      3808 1.27994E-03 1.17829E-04-2.22473E-15
 -1      3809 4.26572E-03 9.89260E-05-1.59112E-14
 -1      3810 7.41245E-03 1.69077E-03-3.18900E-14
 -1      3811 7.28702E-03 1.61908E-03-3.04126E-14
 -1      3812 7.41597E-03 1.70098E-03-3.28530E-14
 -1      3813 7.93845E-03 1.99111E-03-3.80539E-14
 -1      3814 7.80406E-03 1.91440E-03-3.64747E-14
 -1      3815 7.67632E-03 1.84772E-03-3.59184E-14
 -1      3816 2.20851E-03-2.33830E-04-4.87655E-15
 -1      3817 2.38101E-03-2.60100E-04-5.52070E-15
 -1      3818 1.82886E-03-1.82250E-04-3.59017E-15
 -1      3819 1.99823E-03-2.04706E-04-4.14457E-15
 -1      3820 1.41233E-02 5.38268E-03-1.29769E-13
 -1      3821 1.41993E-02 5.42475E-03-1.29431E-13
 -1      3822 1.41137E-02 5.37876E-03-1.27387E-13
 -1      3823 1.39622E-02 5.29490E-03-1.28059E-13
 -1      3824 3.78924E-03-1.61301E-04-1.29006E-14
 -1      3825 2.12474E-03-8.50634E-05-4.55486E-15
 -1      3826 1.89527E-03-9.70323E-06-3.86042E-15
 -1      3827 6.31033E-03 1.16327E-03-2.19347E-14
 -1      3828 2.85608E-03-3.26069E-04-7.55208E-15
 -1      3829 2.68878E-03-2.86071E-04-6.73292E-15
 -1      3830 3.93466E-03-9.10361E-05-1.39278E-14
 -1      3831 4.09594E-03 2.21488E-06-1.47870E-14
 -1      3832 2.55250E-03-2.86076E-04-6.20634E-15
 -1      3833 5.99440E-03 1.05917E-03-2.30992E-14
 -1      3834 5.89937E-03 1.01430E-03-2.35969E-14
 -1      3835 6.10864E-03 1.10605E-03-2.31498E-14
 -1      3836 6.19983E-03 1.14529E-03-2.45086E-14
 -1      3837 6.22184E-03 1.14824E-03-2.31952E-14
 -1      3838 6.61620E-03 1.28367E-03-2.41976E-14
 -1      3839 6.48323E-03 1.22817E-03-2.30791E-14
 -1      3840 8.50064E-03 2.31268E-03-4.57850E-14
 -1      3841 8.49160E-03 2.30494E-03-4.46488E-14
 -1      3842 8.35273E-03 2.22644E-03-4.29744E-14
 -1      3843 7.16410E-03 1.56013E-03-2.98701E-14
 -1      3844 7.16338E-03 1.54888E-03-2.89416E-14
 -1      3845 7.04384E-03 1.48085E-03-2.74986E-14
 -1      3846 1.62779E-03 1.67830E-05-3.07294E-15
 -1      3847 5.16928E-03 6.23652E-04-2.14188E-14
 -1      3848 5.16237E-03 5.99015E-04-2.24093E-14
 -1      3849 1.32663E-02 4.91162E-03-1.27758E-13
 -1      3850 5.32682E-03 6.85293E-04-2.37395E-14
 -1      3851 8.78368E-03 2.47120E-03-4.92768E-14
 -1      3852 1.40172E-02 5.32662E-03-1.25704E-13
 -1      3853 1.39208E-02 5.27447E-03-1.24026E-13
 -1      3854 1.39415E-02 5.28469E-03-1.26045E-13
 -1      3855 6.33639E-03 1.18483E-03-2.30083E-14
 -1      3856 1.35071E-02 5.04286E-03-1.30196E-13
 -1      3857 1.34965E-02 5.03853E-03-1.27687E-13
 -1      3858 1.35726E-02 5.08069E-03-1.27357E-13
 -1      3859 1.36486E-02 5.12276E-03-1.27025E-13
 -1      3860 1.37246E-02 5.16483E-03-1.26690E-13
 -1      3861 1.34868E-02 5.03462E-03-1.25326E-13
 -1      3862 1.38453E-03 1.51338E-04-2.56785E-15
 -1      3863 5.40591E-03 7.71073E-04-2.15719E-14
 -1      3864 5.25604E-03 6.80557E-04-2.13916E-14
 -1      3865 5.41574E-03 7.56720E-04-2.28543E-14
 -1      3866 5.60072E-03 8.66709E-04-2.27876E-14
 -1      3867 8.07425E-03 2.06841E-03-3.96560E-14
 -1      3868 7.94397E-03 1.99898E-03-3.90818E-14
 -1      3869 8.21127E-03 2.14629E-03-4.12809E-14
 -1      3870 2.11631E-03-1.69955E-04-4.53076E-15
 -1      3871 1.78528E-03-1.28640E-05-3.51685E-15
 -1      3872 5.48692E-03 7.78959E-04-2.43033E-14
 -1      3873 6.87533E-03 1.38610E-03-2.53987E-14
 -1      3874 1.74307E-03-1.54100E-04-3.32477E-15
 -1      3875 1.35360E-03 2.04936E-04-2.59240E-15
 -1      3876 6.73070E-03 1.33510E-03-2.52261E-14
 -1      3877 6.63584E-03 1.30539E-03-2.52039E-14
 -1      3878 9.92412E-03 3.10289E-03-6.52199E-14
 -1      3879 9.78189E-03 3.02485E-03-6.33061E-14
 -1      3880 7.67920E-03 1.85589E-03-3.69184E-14
 -1      3881 7.54707E-03 1.78219E-03-3.53565E-14
 -1      3882 1.33414E-02 4.95327E-03-1.27281E-13
 -1      3883 6.10643E-03 1.09018E-03-2.91899E-14
 -1      3884 6.25530E-03 1.16315E-03-3.06602E-14
 -1      3885 6.40215E-03 1.23570E-03-3.21578E-14
 -1      3886 6.54741E-03 1.30825E-03-3.36814E-14
 -1      3887 6.40843E-03 1.24069E-03-3.12629E-14
 -1      3888 6.69137E-03 1.38081E-03-3.52323E-14
 -1      3889 6.83440E-03 1.45365E-03-3.68094E-14
 -1      3890 6.69599E-03 1.38308E-03-3.43030E-14
 -1      3891 6.97667E-03 1.52674E-03-3.84116E-14
 -1      3892 7.11846E-03 1.60018E-03-4.00376E-14
 -1      3893 6.97961E-03 1.52703E-03-3.74456E-14
 -1      3894 7.25988E-03 1.67395E-03-4.16900E-14
 -1      3895 7.40111E-03 1.74808E-03-4.33667E-14
 -1      3896 7.26130E-03 1.67293E-03-4.06897E-14
 -1      3897 7.54220E-03 1.82253E-03-4.50665E-14
 -1      3898 7.68328E-03 1.89729E-03-4.67897E-14
 -1      3899 7.54231E-03 1.82071E-03-4.40316E-14
 -1      3900 7.82437E-03 1.97235E-03-4.85368E-14
 -1      3901 7.96555E-03 2.04767E-03-5.03064E-14
 -1      3902 7.82340E-03 1.97011E-03-4.74690E-14
 -1      3903 8.10680E-03 2.12323E-03-5.20990E-14
 -1      3904 8.24819E-03 2.19901E-03-5.39118E-14
 -1      3905 8.10497E-03 2.12082E-03-5.09989E-14
 -1      3906 8.38969E-03 2.27498E-03-5.57455E-14
 -1      3907 8.53133E-03 2.35112E-03-5.75971E-14
 -1      3908 8.38717E-03 2.27255E-03-5.46173E-14
 -1      3909 8.67310E-03 2.42742E-03-5.94692E-14
 -1      3910 8.81500E-03 2.50386E-03-6.13591E-14
 -1      3911 8.67006E-03 2.42506E-03-5.83139E-14
 -1      3912 8.95701E-03 2.58042E-03-6.32675E-14
 -1      3913 9.09914E-03 2.65708E-03-6.51919E-14
 -1      3914 8.95357E-03 2.57816E-03-6.20838E-14
 -1      3915 9.24137E-03 2.73384E-03-6.71338E-14
 -1      3916 9.38369E-03 2.81068E-03-6.90925E-14
 -1      3917 9.23763E-03 2.73171E-03-6.59260E-14
 -1      3918 9.52610E-03 2.88760E-03-7.10671E-14
 -1      3919 9.66858E-03 2.96459E-03-7.30547E-14
 -1      3920 9.52214E-03 2.88559E-03-6.98338E-14
 -1      3921 9.81113E-03 3.04163E-03-7.50591E-14
 -1      3922 9.95373E-03 3.11873E-03-7.70785E-14
 -1      3923 9.80701E-03 3.03972E-03-7.38055E-14
 -1      3924 1.00964E-02 3.19587E-03-7.91113E-14
 -1      3925 1.02391E-02 3.27305E-03-8.11541E-14
 -1      3926 1.00922E-02 3.19404E-03-7.78360E-14
 -1      3927 1.03818E-02 3.35026E-03-8.32095E-14
 -1      3928 1.05246E-02 3.42751E-03-8.52760E-14
 -1      3929 1.03775E-02 3.34850E-03-8.19194E-14
 -1      3930 1.06674E-02 3.50479E-03-8.73511E-14
 -1      3931 1.08102E-02 3.58208E-03-8.94361E-14
 -1      3932 1.06630E-02 3.50308E-03-8.60473E-14
 -1      3933 1.09530E-02 3.65940E-03-9.15279E-14
 -1      3934 1.10959E-02 3.73674E-03-9.36253E-14
 -1      3935 1.09486E-02 3.65774E-03-9.02132E-14
 -1      3936 1.12387E-02 3.81409E-03-9.57296E-14
 -1      3937 1.13816E-02 3.89146E-03-9.78402E-14
 -1      3938 1.12343E-02 3.81245E-03-9.44056E-14
 -1      3939 1.15245E-02 3.96884E-03-9.99570E-14
 -1      3940 1.16673E-02 4.04623E-03-1.02078E-13
 -1      3941 1.15201E-02 3.96722E-03-9.86231E-14
 -1      3942 1.18102E-02 4.12363E-03-1.04203E-13
 -1      3943 1.19531E-02 4.20103E-03-1.06332E-13
 -1      3944 1.18058E-02 4.12202E-03-1.02861E-13
 -1      3945 1.20960E-02 4.27844E-03-1.08466E-13
 -1      3946 1.22389E-02 4.35586E-03-1.10604E-13
 -1      3947 1.20916E-02 4.27685E-03-1.07117E-13
 -1      3948 1.23818E-02 4.43328E-03-1.12745E-13
 -1      3949 1.25246E-02 4.51071E-03-1.14889E-13
 -1      3950 1.23773E-02 4.43169E-03-1.11390E-13
 -1      3951 1.26675E-02 4.58814E-03-1.17036E-13
 -1      3952 1.28104E-02 4.66557E-03-1.19185E-13
 -1      3953 1.26631E-02 4.58654E-03-1.15675E-13
 -1      3954 1.29533E-02 4.74300E-03-1.21335E-13
 -1      3955 1.30962E-02 4.82044E-03-1.23483E-13
 -1      3956 1.29489E-02 4.74141E-03-1.19971E-13
 -1      3957 1.02089E-02 3.25884E-03-6.91004E-14
 -1      3958 1.00665E-02 3.18089E-03-6.71509E-14
 -1      3959 9.92852E-03 3.10556E-03-6.64637E-14
 -1      3960 1.81475E-03-1.13167E-04-3.55552E-15
 -1      3961 9.63979E-03 2.94676E-03-6.14093E-14
 -1      3962 9.49787E-03 2.86863E-03-5.95333E-14
 -1      3963 9.64422E-03 2.94975E-03-6.26295E-14
 -1      3964 1.05083E-02 3.42237E-03-7.32512E-14
 -1      3965 1.03586E-02 3.34063E-03-7.11669E-14
 -1      3966 1.02204E-02 3.26513E-03-7.04649E-14
 -1      3967 1.07937E-02 3.57794E-03-7.72732E-14
 -1      3968 1.06510E-02 3.50018E-03-7.52535E-14
 -1      3969 1.05127E-02 3.42456E-03-7.45382E-14
 -1      3970 1.10792E-02 3.73335E-03-8.13508E-14
 -1      3971 1.09364E-02 3.65566E-03-7.93067E-14
 -1      3972 1.07980E-02 3.57997E-03-7.85769E-14
 -1      3973 1.13648E-02 3.88863E-03-8.54781E-14
 -1      3974 1.12220E-02 3.81100E-03-8.34087E-14
 -1      3975 1.10835E-02 3.73525E-03-8.26708E-14
 -1      3976 1.16505E-02 4.04380E-03-8.96438E-14
 -1      3977 1.15077E-02 3.96623E-03-8.75570E-14
 -1      3978 1.13692E-02 3.89044E-03-8.68109E-14
 -1      3979 1.19363E-02 4.19889E-03-9.38382E-14
 -1      3980 1.17934E-02 4.12136E-03-9.17378E-14
 -1      3981 1.16549E-02 4.04554E-03-9.09849E-14
 -1      3982 1.22220E-02 4.35392E-03-9.80510E-14
 -1      3983 1.20791E-02 4.27641E-03-9.59424E-14
 -1      3984 1.19406E-02 4.20058E-03-9.51845E-14
 -1      3985 1.25078E-02 4.50889E-03-1.02280E-13
 -1      3986 1.23649E-02 4.43141E-03-1.00164E-13
 -1      3987 1.22264E-02 4.35557E-03-9.94022E-14
 -1      3988 1.28078E-02 4.67158E-03-1.06740E-13
 -1      3989 1.26578E-02 4.59024E-03-1.04510E-13
 -1      3990 1.25193E-02 4.51440E-03-1.03743E-13
 -1      3991 1.30936E-02 4.82649E-03-1.11002E-13
 -1      3992 1.29507E-02 4.74904E-03-1.08869E-13
 -1      3993 1.28122E-02 4.67319E-03-1.08101E-13
 -1      3994 1.33794E-02 4.98138E-03-1.15274E-13
 -1      3995 1.32365E-02 4.90394E-03-1.13136E-13
 -1      3996 1.30980E-02 4.82809E-03-1.12366E-13
 -1      3997 1.36651E-02 5.13627E-03-1.19562E-13
 -1      3998 1.35222E-02 5.05883E-03-1.17417E-13
 -1      3999 1.33837E-02 4.98298E-03-1.16645E-13
 -1      4000 1.38412E-02 5.23144E-03-1.22631E-13
 -1      4001 1.37447E-02 5.17930E-03-1.20954E-13
 -1      4002 1.36062E-02 5.10345E-03-1.20182E-13
 -1      4003 1.37654E-02 5.18951E-03-1.22970E-13
 -1      4004 9.35614E-03 2.79047E-03-5.76771E-14
 -1      4005 9.21464E-03 2.71229E-03-5.58396E-14
 -1      4006 9.36058E-03 2.79387E-03-5.88704E-14
 -1      4007 9.07341E-03 2.63412E-03-5.40227E-14
 -1      4008 8.93251E-03 2.55596E-03-5.22265E-14
 -1      4009 9.07785E-03 2.63800E-03-5.51881E-14
 -1      4010 1.37952E-02 5.20379E-03-1.26533E-13
 -1      4011 1.38709E-02 5.24572E-03-1.26202E-13
 -1      4012 1.37745E-02 5.19358E-03-1.24523E-13
 -1      4013 1.36334E-02 5.11565E-03-1.24836E-13
 -1      4014 7.41672E-03 1.70996E-03-3.38210E-14
 -1      4015 7.28852E-03 1.63918E-03-3.23091E-14
 -1      4016 7.41580E-03 1.71756E-03-3.47917E-14
 -1      4017 5.57126E-03 8.30756E-04-2.42771E-14
 -1      4018 5.72276E-03 9.02859E-04-2.57326E-14
 -1      4019 5.65926E-03 8.82951E-04-2.42465E-14
 -1      4020 2.14228E-03-1.41839E-04-4.61150E-15
 -1      4021 6.41288E-03 1.22281E-03-2.43684E-14
 -1      4022 8.78849E-03 2.47593E-03-5.04081E-14
 -1      4023 8.64493E-03 2.39598E-03-4.86120E-14
 -1      4024 8.79285E-03 2.48037E-03-5.15432E-14
 -1      4025 5.87874E-03 9.78833E-04-2.71338E-14
 -1      4026 1.83575E-03-8.39961E-05-3.62960E-15
 -1      4027 1.92670E-03-1.13370E-04-3.90745E-15
 -1      4028 6.86927E-03 1.39796E-03-2.62825E-14
 -1      4029 5.99302E-03 1.05502E-03-2.45055E-14
 -1      4030 5.79879E-03 9.64646E-04-2.36427E-14
 -1      4031 5.70198E-03 9.12729E-04-2.36839E-14
 -1      4032 6.34954E-03 1.20958E-03-2.57305E-14
 -1      4033 6.24741E-03 1.16765E-03-2.56778E-14
 -1      4034 7.16105E-03 1.56963E-03-3.08034E-14
 -1      4035 7.03651E-03 1.50222E-03-2.93239E-14
 -1      4036 7.15605E-03 1.57730E-03-3.17408E-14
 -1      4037 8.50543E-03 2.31816E-03-4.68836E-14
 -1      4038 8.36653E-03 2.24054E-03-4.51781E-14
 -1      4039 8.50959E-03 2.32325E-03-4.79875E-14
 -1      4040 1.32557E-02 4.90729E-03-1.25254E-13
 -1      4041 8.22037E-03 2.15500E-03-4.23844E-14
 -1      4042 6.03882E-03 1.06235E-03-2.77147E-14
 -1      4043 1.33251E-02 4.94653E-03-1.23629E-13
 -1      4044 1.34011E-02 4.98859E-03-1.23294E-13
 -1      4045 7.94799E-03 2.00624E-03-4.01158E-14
 -1      4046 7.81292E-03 1.93058E-03-3.85060E-14
 -1      4047 7.68072E-03 1.86306E-03-3.79235E-14
 -1      4048 6.30820E-03 1.19552E-03-2.69772E-14
 -1      4049 6.15315E-03 1.12630E-03-2.57312E-14
 -1      4050 6.05917E-03 1.08212E-03-2.57795E-14
 -1      4051 1.32513E-02 4.90570E-03-1.23888E-13
 -1      4052 1.31656E-02 4.85967E-03-1.21860E-13
 -1      4053 6.54699E-03 1.27852E-03-2.53746E-14
 -1      4054 6.44770E-03 1.24588E-03-2.55701E-14
 -1      4055 6.49271E-03 1.27105E-03-2.67617E-14
 -1      4056 6.67308E-03 1.33349E-03-2.64256E-14
 -1      4057 9.08201E-03 2.64168E-03-5.63585E-14
 -1      4058 8.94101E-03 2.56403E-03-5.45326E-14
 -1      4059 6.90000E-03 1.42460E-03-2.73228E-14
 -1      4060 1.02283E-02 3.26941E-03-7.17824E-14
 -1      4061 1.00787E-02 3.18781E-03-6.97128E-14
 -1      4062 9.93640E-03 3.11009E-03-6.77583E-14
 -1      4063 9.79417E-03 3.03234E-03-6.58212E-14
 -1      4064 9.94421E-03 3.11451E-03-6.90567E-14
 -1      4065 6.70228E-03 1.38543E-03-3.33777E-14
 -1      4066 6.84331E-03 1.45603E-03-3.49184E-14
 -1      4067 6.98361E-03 1.52720E-03-3.64863E-14
 -1      4068 7.12362E-03 1.59913E-03-3.80773E-14
 -1      4069 6.98879E-03 1.52723E-03-3.55312E-14
 -1      4070 7.26338E-03 1.67169E-03-3.96960E-14
 -1      4071 7.40310E-03 1.74488E-03-4.13381E-14
 -1      4072 7.26616E-03 1.67017E-03-3.87071E-14
 -1      4073 7.54282E-03 1.81863E-03-4.30045E-14
 -1      4074 7.68268E-03 1.89288E-03-4.46945E-14
 -1      4075 7.54374E-03 1.81621E-03-4.19822E-14
 -1      4076 7.82267E-03 1.96759E-03-4.64071E-14
 -1      4077 7.96288E-03 2.04269E-03-4.81443E-14
 -1      4078 7.82217E-03 1.96474E-03-4.53519E-14
 -1      4079 8.10327E-03 2.11814E-03-4.99059E-14
 -1      4080 8.24390E-03 2.19388E-03-5.16892E-14
 -1      4081 8.10170E-03 2.11514E-03-4.88160E-14
 -1      4082 8.38474E-03 2.26987E-03-5.34924E-14
 -1      4083 8.52581E-03 2.34609E-03-5.53174E-14
 -1      4084 8.38237E-03 2.26692E-03-5.23723E-14
 -1      4085 8.66707E-03 2.42248E-03-5.71600E-14
 -1      4086 8.80853E-03 2.49904E-03-5.90229E-14
 -1      4087 8.66411E-03 2.41967E-03-5.60112E-14
 -1      4088 8.95016E-03 2.57573E-03-6.09051E-14
 -1      4089 9.09197E-03 2.65253E-03-6.28048E-14
 -1      4090 8.94678E-03 2.57309E-03-5.97282E-14
 -1      4091 9.23392E-03 2.72943E-03-6.47214E-14
 -1      4092 9.37600E-03 2.80640E-03-6.66557E-14
 -1      4093 9.23022E-03 2.72698E-03-6.35198E-14
 -1      4094 9.51820E-03 2.88345E-03-6.86064E-14
 -1      4095 9.66051E-03 2.96056E-03-7.05723E-14
 -1      4096 9.51428E-03 2.88118E-03-6.73799E-14
 -1      4097 9.80292E-03 3.03771E-03-7.25546E-14
 -1      4098 9.94540E-03 3.11491E-03-7.45514E-14
 -1      4099 9.79883E-03 3.03560E-03-7.13056E-14
 -1      4100 1.00880E-02 3.19214E-03-7.65648E-14
 -1      4101 1.02306E-02 3.26940E-03-7.85919E-14
 -1      4102 1.00838E-02 3.19016E-03-7.52947E-14
 -1      4103 1.03732E-02 3.34669E-03-8.06306E-14
 -1      4104 1.05159E-02 3.42400E-03-8.26816E-14
 -1      4105 1.03690E-02 3.34482E-03-7.93420E-14
 -1      4106 1.06587E-02 3.50133E-03-8.47423E-14
 -1      4107 1.08015E-02 3.57868E-03-8.68164E-14
 -1      4108 1.06544E-02 3.49954E-03-8.34393E-14
 -1      4109 1.09443E-02 3.65604E-03-8.88981E-14
 -1      4110 1.10871E-02 3.73341E-03-9.09861E-14
 -1      4111 1.09399E-02 3.65431E-03-8.75822E-14
 -1      4112 1.12299E-02 3.81079E-03-9.30826E-14
 -1      4113 1.13728E-02 3.88819E-03-9.51830E-14
 -1      4114 1.12256E-02 3.80911E-03-9.17578E-14
 -1      4115 1.15157E-02 3.96559E-03-9.72902E-14
 -1      4116 1.16585E-02 4.04299E-03-9.94054E-14
 -1      4117 1.15113E-02 3.96394E-03-9.59590E-14
 -1      4118 1.18014E-02 4.12040E-03-1.01522E-13
 -1      4119 1.19443E-02 4.19782E-03-1.03642E-13
 -1      4120 1.17970E-02 4.11878E-03-1.00181E-13
 -1      4121 1.20872E-02 4.27524E-03-1.05770E-13
 -1      4122 1.22301E-02 4.35266E-03-1.07900E-13
 -1      4123 1.20828E-02 4.27363E-03-1.04422E-13
 -1      4124 1.23729E-02 4.43009E-03-1.10036E-13
 -1      4125 1.25158E-02 4.50752E-03-1.12174E-13
 -1      4126 1.23685E-02 4.42849E-03-1.08682E-13
 -1      4127 1.26587E-02 4.58495E-03-1.14315E-13
 -1      4128 1.28016E-02 4.66238E-03-1.16460E-13
 -1      4129 1.26543E-02 4.58336E-03-1.12956E-13
 -1      4130 1.29121E-02 4.72231E-03-1.18085E-13
 -1      4131 1.30550E-02 4.79974E-03-1.20233E-13
 -1      4132 1.31288E-02 4.84057E-03-1.19971E-13
 -1      4133 1.29077E-02 4.72072E-03-1.16720E-13
 -1      4134 1.05134E-02 3.42476E-03-7.57767E-14
 -1      4135 1.03708E-02 3.34709E-03-7.37725E-14
 -1      4136 1.02290E-02 3.26972E-03-7.30044E-14
 -1      4137 9.65207E-03 2.95458E-03-6.39018E-14
 -1      4138 9.51013E-03 2.87682E-03-6.19978E-14
 -1      4139 9.65982E-03 2.95927E-03-6.51761E-14
 -1      4140 7.41363E-03 1.72394E-03-3.57670E-14
 -1      4141 7.28183E-03 1.65319E-03-3.42232E-14
 -1      4142 1.07988E-02 3.58001E-03-7.98331E-14
 -1      4143 1.06561E-02 3.50240E-03-7.77957E-14
 -1      4144 1.05142E-02 3.42490E-03-7.70173E-14
 -1      4145 1.10843E-02 3.73519E-03-8.39405E-14
 -1      4146 1.09415E-02 3.65761E-03-8.18816E-14
 -1      4147 1.07996E-02 3.58002E-03-8.10897E-14
 -1      4148 1.13699E-02 3.89029E-03-8.80895E-14
 -1      4149 1.12271E-02 3.81275E-03-8.60102E-14
 -1      4150 1.10851E-02 3.73509E-03-8.52105E-14
 -1      4151 1.16556E-02 4.04533E-03-9.22722E-14
 -1      4152 1.15128E-02 3.96782E-03-9.01780E-14
 -1      4153 1.13707E-02 3.89012E-03-8.93698E-14
 -1      4154 1.19414E-02 4.20032E-03-9.64779E-14
 -1      4155 1.17985E-02 4.12283E-03-9.43723E-14
 -1      4156 1.16564E-02 4.04510E-03-9.35592E-14
 -1      4157 1.22271E-02 4.35528E-03-1.00699E-13
 -1      4158 1.20843E-02 4.27781E-03-9.85863E-14
 -1      4159 1.19422E-02 4.20005E-03-9.77681E-14
 -1      4160 1.25272E-02 4.51796E-03-1.05152E-13
 -1      4161 1.23772E-02 4.43662E-03-1.02924E-13
 -1      4162 1.22351E-02 4.35886E-03-1.02102E-13
 -1      4163 1.28130E-02 4.67286E-03-1.09408E-13
 -1      4164 1.26701E-02 4.59541E-03-1.07280E-13
 -1      4165 1.25280E-02 4.51764E-03-1.06455E-13
 -1      4166 1.30987E-02 4.82776E-03-1.13677E-13
 -1      4167 1.29559E-02 4.75031E-03-1.11540E-13
 -1      4168 1.28138E-02 4.67253E-03-1.10714E-13
 -1      4169 1.33845E-02 4.98264E-03-1.17963E-13
 -1      4170 1.32416E-02 4.90520E-03-1.15818E-13
 -1      4171 1.30995E-02 4.82742E-03-1.14991E-13
 -1      4172 9.36484E-03 2.79712E-03-6.00675E-14
 -1      4173 9.22330E-03 2.71937E-03-5.82042E-14
 -1      4174 9.08597E-03 2.64514E-03-5.75331E-14
 -1      4175 8.22666E-03 2.16230E-03-4.34736E-14
 -1      4176 8.08595E-03 2.08348E-03-4.17717E-14
 -1      4177 7.95265E-03 2.01370E-03-4.11749E-14
 -1      4178 8.23042E-03 2.16810E-03-4.45455E-14
 -1      4179 5.84971E-03 9.79550E-04-2.51270E-14
 -1      4180 1.33099E-02 4.93946E-03-1.21447E-13
 -1      4181 1.34716E-02 5.02756E-03-1.23142E-13
 -1      4182 1.35422E-02 5.06652E-03-1.22985E-13
 -1      4183 8.79684E-03 2.48456E-03-5.26841E-14
 -1      4184 8.65307E-03 2.40520E-03-5.08563E-14
 -1      4185 8.80055E-03 2.48845E-03-5.38284E-14
 -1      4186 6.41725E-03 1.24615E-03-3.03755E-14
 -1      4187 6.56046E-03 1.31555E-03-3.18641E-14
 -1      4188 6.71043E-03 1.38790E-03-3.24594E-14
 -1      4189 6.88841E-03 1.43243E-03-2.82212E-14
 -1      4190 6.01409E-03 1.05674E-03-2.63673E-14
 -1      4191 6.23716E-03 1.16109E-03-2.83965E-14
 -1      4192 9.37249E-03 2.80213E-03-6.13174E-14
 -1      4193 7.14311E-03 1.58784E-03-3.36284E-14
 -1      4194 7.14969E-03 1.58329E-03-3.26821E-14
 -1      4195 7.01925E-03 1.51518E-03-3.11676E-14
 -1      4196 8.51326E-03 2.32799E-03-4.90958E-14
 -1      4197 8.37396E-03 2.25100E-03-4.73579E-14
 -1      4198 8.51657E-03 2.33235E-03-5.02097E-14
 -1      4199 6.80917E-03 1.40530E-03-2.84012E-14
 -1      4200 7.54683E-03 1.79602E-03-3.73383E-14
 -1      4201 7.41093E-03 1.72919E-03-3.67495E-14
 -1      4202 7.68117E-03 1.86931E-03-3.89333E-14
 -1      4203 1.34535E-02 5.01942E-03-1.20043E-13
 -1      4204 1.33114E-02 4.94164E-03-1.19213E-13
 -1      4205 1.36949E-02 5.15055E-03-1.23127E-13
 -1      4206 6.46553E-03 1.26668E-03-2.81874E-14
 -1      4207 6.37875E-03 1.22834E-03-2.82422E-14
 -1      4208 1.31849E-02 4.87163E-03-1.19671E-13
 -1      4209 1.32554E-02 4.91059E-03-1.19519E-13
 -1      4210 1.31864E-02 4.87381E-03-1.17441E-13
 -1      4211 1.30743E-02 4.81170E-03-1.18046E-13
 -1      4212 1.02333E-02 3.27191E-03-7.42789E-14
 -1      4213 1.00908E-02 3.19439E-03-7.22855E-14
 -1      4214 7.26963E-03 1.66818E-03-3.77247E-14
 -1      4215 7.40715E-03 1.74032E-03-3.93327E-14
 -1      4216 7.54497E-03 1.81335E-03-4.09649E-14
 -1      4217 7.68320E-03 1.88708E-03-4.26211E-14
 -1      4218 7.54646E-03 1.80996E-03-3.99527E-14
 -1      4219 7.82178E-03 1.96147E-03-4.43015E-14
 -1      4220 7.96079E-03 2.03640E-03-4.60043E-14
 -1      4221 7.82148E-03 1.95773E-03-4.32556E-14
 -1      4222 8.17031E-03 2.14771E-03-4.77721E-14
 -1      4223 8.30992E-03 2.22370E-03-4.95227E-14
 -1      4224 8.44990E-03 2.30003E-03-5.12953E-14
 -1      4225 8.59025E-03 2.37659E-03-5.30869E-14
 -1      4226 8.73443E-03 2.45530E-03-5.49472E-14
 -1      4227 8.87540E-03 2.53223E-03-5.67810E-14
 -1      4228 9.01663E-03 2.60931E-03-5.86346E-14
 -1      4229 9.15809E-03 2.68648E-03-6.05093E-14
 -1      4230 9.30331E-03 2.76566E-03-6.24470E-14
 -1      4231 9.44516E-03 2.84297E-03-6.43562E-14
 -1      4232 9.58718E-03 2.92032E-03-6.62834E-14
 -1      4233 9.72933E-03 2.99771E-03-6.82261E-14
 -1      4234 1.00182E-02 3.15472E-03-7.34234E-14
 -1      4235 1.01607E-02 3.23208E-03-7.54260E-14
 -1      4236 1.03647E-02 3.34288E-03-7.80531E-14
 -1      4237 1.05073E-02 3.42029E-03-8.00891E-14
 -1      4238 1.07270E-02 3.53981E-03-8.22701E-14
 -1      4239 1.08697E-02 3.61726E-03-8.43297E-14
 -1      4240 1.10125E-02 3.69472E-03-8.64009E-14
 -1      4241 1.11553E-02 3.77217E-03-8.84802E-14
 -1      4242 1.12981E-02 3.84963E-03-9.05687E-14
 -1      4243 1.14410E-02 3.92708E-03-9.26636E-14
 -1      4244 1.15838E-02 4.00453E-03-9.47618E-14
 -1      4245 1.17267E-02 4.08198E-03-9.68676E-14
 -1      4246 1.18696E-02 4.15942E-03-9.89765E-14
 -1      4247 1.20125E-02 4.23687E-03-1.01091E-13
 -1      4248 1.21625E-02 4.31818E-03-1.03317E-13
 -1      4249 1.23054E-02 4.39563E-03-1.05441E-13
 -1      4250 1.24483E-02 4.47307E-03-1.07570E-13
 -1      4251 1.25911E-02 4.55051E-03-1.09704E-13
 -1      4252 1.27340E-02 4.62795E-03-1.11837E-13
 -1      4253 1.28769E-02 4.70538E-03-1.13975E-13
 -1      4254 1.29638E-02 4.75177E-03-1.16423E-13
 -1      4255 1.36152E-02 5.10752E-03-1.21732E-13
 -1      4256 1.05800E-02 3.46040E-03-7.89206E-14
 -1      4257 1.04373E-02 3.38287E-03-7.68929E-14
 -1      4258 1.30435E-02 4.79637E-03-1.15297E-13
 -1      4259 6.56404E-03 1.30698E-03-2.79979E-14
 -1      4260 6.63079E-03 1.34137E-03-2.92840E-14
 -1      4261 6.79443E-03 1.42285E-03-3.15401E-14
 -1      4262 6.92989E-03 1.49016E-03-3.30431E-14
 -1      4263 6.39510E-03 1.23620E-03-2.89708E-14
 -1      4264 7.06704E-03 1.55978E-03-3.45936E-14
 -1      4265 7.20295E-03 1.62981E-03-3.61504E-14
 -1      4266 6.65329E-03 1.34083E-03-2.78311E-14
 -1      4267 9.87161E-03 3.07512E-03-7.01859E-14
 -1      4268 1.02990E-02 3.30744E-03-7.61586E-14
 -1      4269 8.16845E-03 2.14364E-03-4.66906E-14
 -1      4270 6.88006E-03 1.44533E-03-2.96675E-14
 -1      4271 6.86712E-03 1.44801E-03-3.05770E-14
 -1      4272 6.77728E-03 1.41164E-03-3.07809E-14
 -1      4273 9.87573E-03 3.07737E-03-7.14374E-14
 -1      4274 1.07227E-02 3.53791E-03-8.09629E-14
 -1      4275 7.34273E-03 1.69769E-03-3.67510E-14
 -1      4276 7.47804E-03 1.76957E-03-3.83391E-14
 -1      4277 8.20121E-03 2.15866E-03-4.61561E-14
 -1      4278 8.19863E-03 2.15375E-03-4.50801E-14
 -1      4279 8.05909E-03 2.07663E-03-4.33741E-14
 -1      4280 7.99335E-03 2.04764E-03-4.44219E-14
 -1      4281 7.93840E-03 2.01030E-03-4.19657E-14
 -1      4282 7.80044E-03 1.93437E-03-4.03042E-14
 -1      4283 7.66494E-03 1.86566E-03-3.97006E-14
 -1      4284 7.90546E-03 1.99622E-03-4.24818E-14
 -1      4285 7.61413E-03 1.84248E-03-3.99521E-14
 -1      4286 6.55243E-03 1.31005E-03-3.02157E-14
 -1      4287 7.85551E-03 1.97261E-03-4.27428E-14
 -1      4288 7.73458E-03 1.90725E-03-4.13394E-14
 -3
    1PSTEP                         2           1           1          
  100CL  101 1.000000000        4288                     0    1           1
 -4  STRESS      6    1
 -5  SXX         1    4    1    1
 -5  SYY         1    4    2    2
 -5  SZZ         1    4    3    3
 -5  SXY         1    4    1    2
 -5  SYZ         1    4    2    3
 -5  SZX         1    4    3    1
 -1         1 6.91156E+01 8.15891E-01 3.54502E+00 1.30486E-01-5.21076E-14 7.51357E-13
 -1         2-7.36791E-01-2.65175E+01-3.46911E+00-1.61524E-01 1.17056E-12 1.13402E-13
 -1         3 1.99998E+01 1.92010E-05-4.57171E-05 2.00962E-05 5.61408E-13 6.94840E-13
 -1         4 1.99998E+01 1.69175E-05-4.75950E-05-1.71872E-05 1.46923E-13 9.55347E-14
 -1         5 3.41526E+01 6.45640E+00 2.59496E+00 6.11063E+00-5.82104E-14 3.90753E-12
 -1         6 3.67002E+01 1.25703E+01 5.20062E+00-8.80510E+00-2.77667E-13 2.95597E-12
 -1         7 2.15804E+01 6.31525E+00-1.12753E-01-4.71852E+00-3.93574E-14 2.10804E-14
 -1         8 2.03366E+01 6.13373E+00 6.48472E-02-3.15037E+00-3.06699E-14-7.28985E-13
 -1         9 1.97061E+01 5.94319E+00 6.74351E-02-2.28752E+00-2.27075E-14-1.07287E-12
 -1        10 1.93321E+01 5.82398E+00 7.54758E-02-1.57068E+00-8.98760E-15-1.18483E-12
 -1        11 1.90079E+01 5.72239E+00 7.79070E-02-9.12786E-01 4.97866E-16-1.19990E-12
 -1        12 1.86536E+01 5.61401E+00 7.33769E-02-3.17503E-01 5.22152E-15-1.16823E-12
 -1        13 1.82317E+01 5.48713E+00 6.01213E-02 2.10935E-01 9.09342E-15-1.12041E-12
 -1        14 1.77734E+01 5.35050E+00 3.79204E-02 6.24322E-01 1.50470E-14-1.07815E-12
 -1        15 1.73547E+01 5.22650E+00 9.62378E-03 8.89819E-01 2.01349E-14-1.03078E-12
 -1        16 1.70923E+01 5.14960E+00-1.80687E-02 1.00086E+00 2.64749E-14-9.68588E-13
 -1        17 1.71166E+01 5.15837E+00-3.57138E-02 9.96121E-01 2.98858E-14-8.85340E-13
 -1        18 1.75158E+01 5.27894E+00-3.51205E-02 9.66257E-01 3.50553E-14-7.38975E-13
 -1        19 1.83414E+01 5.52683E+00-1.11690E-02 1.04189E+00 4.63032E-14-5.18084E-13
 -1        20 1.95490E+01 5.88927E+00 3.47045E-02 1.38095E+00 5.53654E-14-1.49279E-13
 -1        21 2.10827E+01 6.34897E+00 1.03400E-01 2.16805E+00 5.37279E-14 4.87342E-13
 -1        22 2.32419E+01 6.91690E+00 2.47222E-01 3.78354E+00 7.63278E-15 1.62855E-12
 -1        23 2.39277E+01-1.42742E+00-9.67204E-01-6.92855E-01-1.90282E-13 2.02757E-12
 -1        24 2.03192E+01-9.46126E-02-3.03410E-01 7.27238E-02-4.04390E-14 1.24362E-12
 -1        25 1.95814E+01-4.71378E-02-5.32508E-02 6.12474E-02-2.60239E-14 5.08709E-13
 -1        26 1.91543E+01-1.12289E-02 1.19266E-02 2.52506E-02-4.44138E-15-2.22409E-14
 -1        27 1.87404E+01-1.09283E-03 2.00859E-02 6.01423E-03-1.11953E-14-3.15617E-13
 -1        28 1.82289E+01 1.95081E-03 1.68700E-02-9.19962E-03-4.14656E-15-5.35978E-13
 -1        29 1.76032E+01-5.17586E-05 8.77679E-03-2.03244E-02 6.37659E-15-7.18359E-13
 -1        30 1.69228E+01-5.49773E-03-3.35348E-03-2.55508E-02 1.53097E-15-9.24500E-13
 -1        31 1.63052E+01-1.23027E-02-1.72226E-02-2.30028E-02-9.28316E-15-1.15896E-12
 -1        32 1.58923E+01-1.78967E-02-2.85784E-02-1.25767E-02-2.58353E-14-1.40224E-12
 -1        33 1.58013E+01-2.00129E-02-3.31916E-02 3.04878E-03 5.63842E-14-1.41251E-12
 -1        34 1.60788E+01-1.76773E-02-2.92196E-02 1.90578E-02 3.28773E-15-1.38510E-12
 -1        35 1.66809E+01-1.16465E-02-1.83454E-02 3.06249E-02-3.13031E-15-1.51155E-12
 -1        36 1.74907E+01-3.95472E-03-4.74235E-03 3.50793E-02-2.63824E-15-1.47794E-12
 -1        37 1.83609E+01 3.12657E-03 7.17001E-03 3.26639E-02-1.38245E-14-1.40420E-12
 -1        38 1.91602E+01 8.03509E-03 1.46696E-02 2.57158E-02-4.37168E-14-1.31744E-12
 -1        39 1.98032E+01 1.02787E-02 1.72708E-02 1.71479E-02-1.08708E-14-1.47826E-12
 -1        40 2.02564E+01 1.02394E-02 1.60810E-02 9.24656E-03 4.68284E-14-1.59031E-12
 -1        41 2.05278E+01 8.72384E-03 1.27884E-02 3.21842E-03 4.33470E-14-1.56512E-12
 -1        42 2.06505E+01 6.55520E-03 8.88343E-03-6.71764E-04 3.88611E-15-1.60443E-12
 -1        43 2.06659E+01 4.34966E-03 5.32610E-03-2.72488E-03-8.68391E-14-1.67639E-12
 -1        44 2.06138E+01 2.46318E-03 2.55683E-03-3.45640E-03 6.77513E-15-1.83295E-12
 -1        45 2.05261E+01 1.03567E-03 6.53434E-04-3.37337E-03-5.16735E-14-1.82756E-12
 -1        46 2.04261E+01 6.65595E-05-5.00473E-04-2.87407E-03-2.25205E-14-1.87064E-12
 -1        47 2.03286E+01-5.16384E-04-1.09059E-03-2.22738E-03 8.23228E-15-1.75666E-12
 -1        48 2.02418E+01-8.08930E-04-1.30023E-03-1.59150E-03 3.55195E-14-1.65541E-12
 -1        49 2.01693E+01-9.02896E-04-1.27907E-03-1.04468E-03 4.80385E-14-1.64074E-12
 -1        50 2.01118E+01-8.73800E-04-1.13580E-03-6.14165E-04-5.10115E-14-1.56141E-12
 -1        51 2.00681E+01-7.77791E-04-9.42489E-04-2.98293E-04-1.69391E-14-1.30347E-12
 -1        52 2.00363E+01-6.53302E-04-7.42797E-04-8.15111E-05-2.30001E-14-1.25547E-12
 -1        53 2.00142E+01-5.24556E-04-5.60335E-04 5.64739E-05 2.74535E-14-1.37934E-12
 -1        54 1.99997E+01-4.05344E-04-4.05612E-04 1.35655E-04-3.45871E-14-1.29053E-12
 -1        55 1.99908E+01-3.02325E-04-2.81221E-04 1.73355E-04 2.52374E-14-1.29868E-12
 -1        56 1.99859E+01-2.17623E-04-1.85404E-04 1.83450E-04 5.90821E-14-1.33674E-12
 -1        57 1.99839E+01-1.50695E-04-1.14356E-04 1.76431E-04-1.33163E-14-1.30863E-12
 -1        58 1.99837E+01-9.96099E-05-6.36040E-05 1.59851E-04 3.56613E-14-1.61665E-12
 -1        59 1.99846E+01-6.18713E-05-2.87869E-05 1.38894E-04 1.00239E-13-1.21734E-12
 -1        60 1.99862E+01-3.49064E-05-6.03946E-06 1.16938E-04-4.42345E-14-6.49159E-13
 -1        61 1.99881E+01-1.63353E-05 7.86471E-06 9.60451E-05-6.50528E-14-8.97951E-13
 -1        62 1.99900E+01-4.09122E-06 1.55102E-05 7.73568E-05 2.81175E-15-1.17269E-12
 -1        63 1.99919E+01 3.54833E-06 1.89101E-05 6.13985E-05 7.77290E-14-1.03365E-12
 -1        64 1.99936E+01 7.98198E-06 1.96109E-05 4.82936E-05-3.05665E-14-7.70482E-13
 -1        65 1.99951E+01 1.03305E-05 1.88168E-05 3.79051E-05-4.59414E-14-1.67766E-13
 -1        66 1.99965E+01 1.14915E-05 1.75387E-05 2.99056E-05 3.61508E-14 1.72780E-13
 -1        67 1.99976E+01 1.21856E-05 1.67734E-05 2.37634E-05 2.26256E-15 1.82550E-13
 -1        68 1.99985E+01 1.29573E-05 1.76358E-05 1.85855E-05-1.55420E-14 2.44089E-13
 -1        69 1.99992E+01 1.39331E-05 2.08727E-05 1.26463E-05 1.75460E-14 5.52847E-13
 -1        70 1.99997E+01 1.26918E-05 2.28786E-05 1.23631E-06 6.65149E-14 9.25373E-13
 -1        71 1.99998E+01-2.38762E-06 3.58005E-06-1.49569E-05-5.21145E-14 5.21171E-13
 -1        72 2.37858E+01-4.37750E-01-1.03090E+00-4.07731E-01 4.70977E-14 3.71607E-12
 -1        73 2.35404E+01-7.94670E-02-3.02032E-01-6.85918E-02 2.68613E-14 3.07576E-12
 -1        74 2.44616E+01-3.74573E-02-1.06785E-01-3.87471E-02 1.81461E-14 2.59255E-12
 -1        75 2.62914E+01-2.06886E-02-6.78948E-02-6.34858E-02 3.13573E-15 2.26062E-12
 -1        76 2.88912E+01 8.11490E-03-2.52610E-02-1.15690E-01 1.71122E-14 2.06332E-12
 -1        77 3.18404E+01 5.73298E-02 1.03551E-01-1.79368E-01 7.27673E-15 1.94707E-12
 -1        78 3.40098E+01 1.10883E-01 3.37022E-01-1.91972E-01-2.33502E-14 2.38002E-12
 -1        79 3.31353E+01 6.70956E-02 4.51439E-01 7.50355E-02-1.00111E-14 2.67296E-12
 -1        80 2.75511E+01-6.49961E-02 2.57853E-02 5.74577E-01-5.54039E-14 2.73431E-12
 -1        81 2.01465E+01-1.73988E-01-7.80440E-01 7.77696E-01 1.43583E-14 2.39594E-12
 -1        82 1.59777E+01-1.39049E-01-1.28173E+00 3.16920E-01 3.09856E-14 1.55209E-12
 -1        83 1.89436E+01-1.20247E-02-9.08303E-01-4.51882E-01 2.54206E-14 5.27051E-13
 -1        84 2.72080E+01 6.16494E-02-2.88460E-02-7.61289E-01 8.56138E-14-4.58272E-13
 -1        85 3.35645E+01 7.56643E-02 4.28168E-01-4.24532E-01 5.52891E-14-7.68649E-13
 -1        86 3.50805E+01 5.07651E-02 3.54171E-01-5.90033E-02-6.79361E-15-6.70314E-13
 -1        87 3.32737E+01 1.53170E-02 1.32484E-01 1.01303E-01-4.73879E-14-1.37043E-13
 -1        88 3.03411E+01-7.80232E-03-1.08143E-02 1.24522E-01-3.35404E-14 3.18502E-13
 -1        89 2.75421E+01-1.70548E-02-6.03978E-02 9.90896E-02-9.84640E-15 3.97272E-13
 -1        90 2.53020E+01-1.73237E-02-6.15335E-02 6.92122E-02 6.19823E-14-3.37320E-13
 -1        91 2.35958E+01-1.40285E-02-4.58993E-02 4.22375E-02-7.44292E-14-1.42664E-13
 -1        92 2.24546E+01-1.11657E-02-3.19786E-02 2.63737E-02 9.79777E-15 3.18435E-13
 -1        93 2.16637E+01-8.17362E-03-2.12345E-02 1.62912E-02 4.36099E-14 5.00052E-13
 -1        94 2.11198E+01-5.86906E-03-1.39513E-02 9.99536E-03-2.38887E-14 6.86421E-13
 -1        95 2.07469E+01-4.16984E-03-9.17599E-03 6.12306E-03-1.83845E-14 7.76240E-13
 -1        96 2.04915E+01-2.94998E-03-6.07467E-03 3.73926E-03 4.77750E-14 1.11009E-12
 -1        97 2.03170E+01-2.09579E-03-4.05969E-03 2.27073E-03 6.79181E-15 9.53465E-13
 -1        98 2.01978E+01-1.49633E-03-2.75854E-03 1.46906E-03-1.21818E-14 7.07637E-13
 -1        99 2.01143E+01-9.97258E-04-1.79060E-03 6.96881E-04 5.51248E-14 1.00766E-12
 -1       100 2.00617E+01-7.28389E-04-1.22518E-03 3.88835E-04 3.77547E-14 6.59072E-13
 -1       101 2.00272E+01-5.12090E-04-8.27661E-04 1.70904E-04-7.95635E-14 4.74144E-13
 -1       102 2.00054E+01-3.58104E-04-5.52909E-04 3.52521E-05 1.49068E-13-1.05365E-13
 -1       103 1.99922E+01-2.47379E-04-3.62011E-04-4.50556E-05-3.29785E-14-8.11931E-13
 -1       104 1.99849E+01-1.67997E-04-2.29911E-04-8.85259E-05-1.41377E-13 1.74440E-13
 -1       105 1.99815E+01-1.14044E-04-1.39641E-04-9.97314E-05-1.47365E-14-1.54925E-13
 -1       106 1.99807E+01-6.70909E-05-7.24414E-05-1.21235E-04 1.87349E-14 3.23521E-14
 -1       107 1.99815E+01-4.18583E-05-3.20683E-05-1.12115E-04-6.16898E-14-3.05824E-13
 -1       108 1.99831E+01-2.28160E-05-5.90170E-06-1.03154E-04 1.22795E-13-1.12033E-13
 -1       109 1.99852E+01-1.00984E-05 1.02282E-05-9.16331E-05-1.18798E-13 2.94470E-13
 -1       110 1.99874E+01-1.89502E-06 1.92392E-05-7.92364E-05-1.78684E-14 5.60408E-13
 -1       111 1.99896E+01 3.12629E-06 2.33746E-05-6.71156E-05 2.15656E-13 4.40889E-13
 -1       112 1.99916E+01 6.13752E-06 2.43291E-05-5.59758E-05-1.51639E-13 1.33548E-13
 -1       113 1.99934E+01 7.28826E-06 2.35538E-05-4.67086E-05 1.63603E-13-4.19400E-13
 -1       114 1.99951E+01 7.77936E-06 2.10686E-05-3.78616E-05-1.46006E-13-2.68777E-13
 -1       115 1.99964E+01 8.22780E-06 1.92466E-05-3.14015E-05 1.76084E-13-9.62739E-14
 -1       116 1.99975E+01 8.47845E-06 1.79436E-05-2.67471E-05-2.87860E-15-5.72271E-13
 -1       117 1.99985E+01 9.04896E-06 1.85376E-05-2.32526E-05 1.26780E-13-1.63881E-13
 -1       118 1.99992E+01 9.86797E-06 2.17834E-05-1.99336E-05-1.08205E-13 4.53892E-14
 -1       119 1.99997E+01 9.27824E-06 2.42195E-05-1.26280E-05-3.26827E-14 7.03677E-13
 -1       120 1.99998E+01-8.52599E-06 2.86451E-06 7.50982E-06-1.67386E-13 9.72053E-13
 -1       121 1.99998E+01 2.50678E-05 2.06293E-06 1.58978E-05 7.79375E-13-3.18598E-13
 -1       122 1.99998E+01-1.45140E-04 2.24561E-05-6.00116E-06-3.74375E-13-1.27798E-13
 -1       123 1.99998E+01-5.87963E-04 1.47034E-05-1.81095E-05 1.66424E-13 2.05209E-13
 -1       124 1.99998E+01-1.17444E-03 3.51209E-06-2.21197E-05-3.61502E-13-1.46525E-13
 -1       125 1.99998E+01-1.78929E-03-5.87707E-06-2.09352E-05-4.33427E-13-2.16034E-13
 -1       126 1.99998E+01-2.32823E-03-1.26902E-05-1.69562E-05-5.84824E-13 1.38843E-13
 -1       127 1.99998E+01-2.73467E-03-1.70443E-05-1.08426E-05 7.69347E-13 5.69721E-14
 -1       128 1.99998E+01-2.94873E-03-1.91776E-05-3.65417E-06 1.43196E-12-1.69274E-13
 -1       129 1.99998E+01-2.94550E-03-1.91112E-05 3.85141E-06 1.25374E-12 6.07259E-14
 -1       130 1.99998E+01-2.72569E-03-1.68710E-05 1.09631E-05 9.47776E-13-1.66237E-13
 -1       131 1.99998E+01-2.31561E-03-1.23561E-05 1.71450E-05 1.48130E-13 5.22879E-15
 -1       132 1.99998E+01-1.77578E-03-5.69367E-06 2.08997E-05 1.31108E-13 2.35709E-13
 -1       133 1.99998E+01-1.16235E-03 3.57150E-06 2.18968E-05 3.00111E-13 4.87171E-14
 -1       134 1.99998E+01-5.77499E-04 1.56673E-05 1.95389E-05-5.21236E-13 5.00917E-14
 -1       135 1.99998E+01-1.47913E-04 1.95283E-05 8.51310E-06-1.00719E-12-1.46973E-13
 -1       136 1.99998E+01 1.96805E-05 1.53955E-06-2.88907E-05-7.39623E-13 4.89630E-14
 -1       137-1.79323E+00-2.40546E+01-3.46834E+00-4.78665E+00 3.63348E-12 9.22270E-13
 -1       138-2.69259E+00-1.38246E+01-2.99591E+00-5.17045E+00 4.92895E-12 2.23382E-12
 -1       139 3.50128E-01-1.31550E+00-2.08228E+00 2.25357E-01 4.99778E-12 3.78181E-12
 -1       140 1.24419E+01 7.98586E+00-5.61217E-01 1.01063E+01 4.03638E-12 4.45854E-12
 -1       141 3.48932E+01 9.86526E+00 1.57575E+00 1.80301E+01 2.21034E-12 3.73035E-12
 -1       142 6.29401E+01 5.56236E+00 3.97029E+00 1.68306E+01 5.74443E-13 1.91003E-12
 -1       143 7.80265E+01 1.50392E+00 5.20473E+00 4.88877E+00 9.08822E-14-4.26298E-13
 -1       144 7.44266E+01 2.76458E+00 4.92420E+00-1.02465E+01 5.99425E-13-3.16697E-12
 -1       145 5.35222E+01 7.73682E+00 3.18372E+00-1.88679E+01 1.98652E-12-4.91152E-12
 -1       146 2.67325E+01 1.01514E+01 8.23902E-01-1.61710E+01 3.36164E-12-5.06184E-12
 -1       147 7.11032E+00 5.38343E+00-1.14932E+00-6.49263E+00 4.07907E-12-3.86802E-12
 -1       148-1.47913E+00-5.48566E+00-2.48070E+00 2.36999E+00 3.82766E-12-2.35778E-12
 -1       149-2.51970E+00-1.79202E+01-3.26587E+00 5.69238E+00 2.42906E-12-9.30575E-13
 -1       150-1.13159E+00-2.59572E+01-3.56373E+00 3.17693E+00 2.60500E-13-9.23879E-14
 -1       151-8.90930E-01-2.46670E+01-3.34365E+00-1.85879E+00-1.84486E-12-2.40712E-13
 -1       152-1.51489E+00-1.56950E+01-2.72509E+00-3.63060E+00-3.51902E-12-1.09646E-12
 -1       153-1.22098E-01-2.72544E+00-1.71064E+00-4.00436E-01-4.24338E-12-2.34460E-12
 -1       154 7.79672E+00 8.22773E+00-3.98915E-01 8.15966E+00-3.90415E-12-3.30375E-12
 -1       155 2.38236E+01 1.23107E+01 1.03509E+00 1.68813E+01-2.72277E-12-3.60229E-12
 -1       156 4.42043E+01 9.16386E+00 2.32533E+00 1.93516E+01-1.37562E-12-2.84117E-12
 -1       157 6.22250E+01 3.52628E+00 3.24465E+00 1.28151E+01-3.46501E-13-1.18661E-12
 -1       158 6.33269E+01 3.19225E+00 3.28882E+00-1.21949E+01-4.97196E-13 2.24598E-12
 -1       159 4.72749E+01 8.47574E+00 2.50169E+00-1.91458E+01-1.58279E-12 3.45068E-12
 -1       160 2.85379E+01 1.22713E+01 1.40113E+00-1.83290E+01-2.85638E-12 4.16617E-12
 -1       161 1.18483E+01 1.05870E+01 8.73007E-02-1.11770E+01-3.50542E-12 3.47783E-12
 -1       162 2.13683E+00 2.78881E+00-1.15805E+00-2.75729E+00-3.26938E-12 2.24870E-12
 -1       163-1.39261E+00-9.26243E+00-2.25021E+00 2.98230E+00-2.37299E-12 9.75275E-13
 -1       164-1.20605E+00-2.05028E+01-3.03318E+00 3.47406E+00-1.04478E-12 2.45533E-13
 -1       165 2.17969E+01 3.72524E+00-6.02079E-02-3.55214E+00-5.04194E-13-2.97373E-13
 -1       166 2.07028E+01 4.18292E+00-4.90959E-02-2.67630E+00-3.75307E-13-7.29760E-13
 -1       167 2.01379E+01 4.36708E+00-3.48864E-02-1.94894E+00-2.35003E-13-9.34103E-13
 -1       168 1.97560E+01 4.41612E+00-2.66008E-02-1.27900E+00-1.09149E-13-9.88638E-13
 -1       169 1.93802E+01 4.43490E+00-2.16734E-02-6.57280E-01 6.45491E-15-9.79820E-13
 -1       170 1.89246E+01 4.46725E+00-1.84747E-02-7.60134E-02 9.51990E-14-9.57861E-13
 -1       171 1.83813E+01 4.54301E+00-1.60971E-02 4.21567E-01 1.84023E-13-9.15266E-13
 -1       172 1.78041E+01 4.67176E+00-1.43652E-02 7.94294E-01 2.58243E-13-8.86050E-13
 -1       173 1.73133E+01 4.83810E+00-1.34727E-02 1.01239E+00 3.17478E-13-8.41580E-13
 -1       174 1.70758E+01 5.00042E+00-1.37851E-02 1.08089E+00 3.78840E-13-7.73999E-13
 -1       175 1.72504E+01 5.09994E+00-1.57567E-02 1.05863E+00 4.36265E-13-6.75098E-13
 -1       176 1.79520E+01 5.08362E+00-2.02643E-02 1.05297E+00 5.06905E-13-5.08807E-13
 -1       177 1.91992E+01 4.89936E+00-2.80373E-02 1.20699E+00 5.47395E-13-2.50945E-13
 -1       178 2.09353E+01 4.47980E+00-3.79118E-02 1.65997E+00 5.64620E-13 1.91279E-13
 -1       179 2.32151E+01 3.53738E+00-4.20755E-02 2.45339E+00 4.77602E-13 9.22935E-13
 -1       180 2.50894E+01 1.03424E+00-3.24610E-01 2.20940E+00 3.12760E-13 1.82547E-12
 -1       181 2.28239E+01 8.37464E-01-1.70793E-03-1.93736E+00-4.67452E-13 3.59813E-13
 -1       182 2.12599E+01 1.44371E-01-1.15768E-02-8.17053E-01-4.10351E-13 1.66553E-13
 -1       183 2.03682E+01 4.54506E-02 1.19083E-02-4.60972E-01-3.10495E-13-8.25121E-15
 -1       184 1.98031E+01-1.37648E-02 8.38723E-03-3.88928E-01-2.09903E-13-1.66714E-13
 -1       185 1.93250E+01-3.34345E-02 3.93796E-03-4.27704E-01-1.56362E-13-2.46827E-13
 -1       186 1.88515E+01-2.74300E-02 2.02445E-03-4.91127E-01-1.31600E-13-3.49018E-13
 -1       187 1.83694E+01-4.52234E-04 1.78164E-03-5.17833E-01-1.19630E-13-4.55020E-13
 -1       188 1.79183E+01 4.01528E-02 2.21463E-03-4.62733E-01-1.34522E-13-5.07597E-13
 -1       189 1.75704E+01 8.13821E-02 2.70276E-03-3.06871E-01-1.18468E-13-5.62094E-13
 -1       190 1.74013E+01 1.07704E-01 2.96812E-03-6.74459E-02-4.80306E-14-5.40320E-13
 -1       191 1.74592E+01 1.08097E-01 2.88699E-03 2.04751E-01-5.16050E-14-7.52739E-13
 -1       192 1.77423E+01 8.21131E-02 2.42776E-03 4.44318E-01-4.52531E-14-8.72689E-13
 -1       193 1.81974E+01 3.99275E-02 1.63377E-03 5.98042E-01 2.10551E-14-8.26447E-13
 -1       194 1.87396E+01-3.71010E-03 6.19259E-04 6.43964E-01 4.72723E-14-7.82520E-13
 -1       195 1.92799E+01-3.68034E-02-4.00398E-04 5.93561E-01 7.77042E-14-7.01031E-13
 -1       196 1.97494E+01-5.41563E-02-1.21161E-03 4.79696E-01-4.83511E-14-7.17876E-13
 -1       197 2.01092E+01-5.69599E-02-1.69034E-03 3.40176E-01-4.85527E-14-6.31785E-13
 -1       198 2.03498E+01-4.98774E-02-1.81708E-03 2.05559E-01 7.00731E-15-7.71347E-13
 -1       199 2.04824E+01-3.81049E-02-1.66159E-03 9.41937E-02-8.01457E-14-8.93554E-13
 -1       200 2.05295E+01-2.56478E-02-1.33783E-03 1.30161E-02-7.74175E-14-1.00819E-12
 -1       201 2.05162E+01-1.48487E-02-9.54974E-04-3.89682E-02-1.11700E-14-8.81753E-13
 -1       202 2.04659E+01-6.65017E-03-5.92217E-04-6.69216E-02-2.79080E-14-8.74948E-13
 -1       203 2.03969E+01-1.08900E-03-2.94014E-04-7.73178E-02 4.53631E-14-8.41731E-13
 -1       204 2.03227E+01 2.25290E-03-7.55636E-05-7.62307E-02 7.43205E-14-7.68259E-13
 -1       205 2.02516E+01 3.93861E-03 6.70982E-05-6.85588E-02 5.64032E-14-7.45574E-13
 -1       206 2.01886E+01 4.50385E-03 1.47557E-04-5.78499E-02 1.79320E-14-7.75209E-13
 -1       207 2.01358E+01 4.38345E-03 1.82212E-04-4.64410E-02 4.53521E-14-7.68363E-13
 -1       208 2.00933E+01 3.89566E-03 1.86310E-04-3.57172E-02 9.62356E-14-7.96856E-13
 -1       209 2.00605E+01 3.25463E-03 1.72189E-04-2.63821E-02 9.86728E-14-7.43357E-13
 -1       210 2.00361E+01 2.59277E-03 1.48894E-04-1.86898E-02-7.91590E-14-5.91230E-13
 -1       211 2.00186E+01 1.98366E-03 1.22511E-04-1.26225E-02 1.68655E-14-6.00660E-13
 -1       212 2.00066E+01 1.46158E-03 9.67808E-05-8.01666E-03-2.54674E-14-6.74258E-13
 -1       213 1.99988E+01 1.03636E-03 7.37370E-05-4.64557E-03 2.69946E-14-6.02881E-13
 -1       214 1.99941E+01 7.03922E-04 5.42588E-05-2.27023E-03 4.59567E-14-5.91564E-13
 -1       215 1.99916E+01 4.53184E-04 3.85049E-05-6.67692E-04-6.57026E-14-6.52699E-13
 -1       216 1.99906E+01 2.70468E-04 2.62235E-05 3.55441E-04 1.71304E-13-4.11844E-13
 -1       217 1.99907E+01 1.42033E-04 1.69617E-05 9.58574E-04 1.34475E-13-6.40215E-13
 -1       218 1.99913E+01 5.54091E-05 1.01976E-05 1.26801E-03-1.03843E-13-5.13094E-13
 -1       219 1.99922E+01-4.06574E-08 5.41730E-06 1.38047E-03-1.04893E-13-4.68908E-13
 -1       220 1.99934E+01-3.30305E-05 2.15537E-06 1.36765E-03-4.35313E-14-3.98221E-13
 -1       221 1.99945E+01-5.05101E-05 1.04960E-08 1.28079E-03 2.62129E-13-4.88819E-13
 -1       222 1.99956E+01-5.79534E-05-1.35147E-06 1.15481E-03 3.83721E-13-4.53611E-13
 -1       223 1.99966E+01-5.97059E-05-2.19651E-06 1.01167E-03 1.48402E-13-1.69634E-13
 -1       224 1.99975E+01-5.93460E-05-2.70624E-06 8.62909E-04 7.26181E-15-1.08548E-13
 -1       225 1.99982E+01-6.00399E-05-2.94241E-06 7.11464E-04 1.30065E-13 4.18731E-14
 -1       226 1.99988E+01-6.47957E-05-2.79909E-06 5.52850E-04 1.57498E-13-4.83022E-14
 -1       227 1.99993E+01-7.60101E-05-2.51125E-06 3.77617E-04 2.64921E-13 5.11460E-14
 -1       228 1.99996E+01-9.02779E-05-1.74651E-06 1.81149E-04-1.14154E-13 2.76087E-13
 -1       229 2.43404E+01 3.11432E-01-4.20240E-02 2.84171E-01 3.28581E-13 1.59771E-12
 -1       230 2.43009E+01 2.22557E-01 7.42632E-03-6.42759E-01 2.44608E-13 1.33558E-12
 -1       231 2.51442E+01 1.82988E-01 4.76129E-03-1.25317E+00 1.60044E-13 1.12221E-12
 -1       232 2.65748E+01 1.17797E-01-1.22266E-03-1.69352E+00 8.63407E-14 1.02757E-12
 -1       233 2.83122E+01-7.35496E-02 8.61823E-03-1.77318E+00-4.37419E-14 1.09018E-12
 -1       234 2.98882E+01-4.75310E-01 4.55446E-02-1.05702E+00-2.68363E-13 1.22681E-12
 -1       235 3.05779E+01-1.00132E+00 5.61624E-02 1.00375E+00-1.44999E-13 1.49510E-12
 -1       236 2.95589E+01-8.32746E-01-6.40887E-02 3.50812E+00 4.71671E-14 1.64888E-12
 -1       237 2.75678E+01 4.52209E-01-2.44313E-01 4.02029E+00 3.80238E-13 1.33147E-12
 -1       238 2.62757E+01 1.77137E+00-3.48115E-01 1.17130E+00 6.86784E-13 6.73701E-13
 -1       239 2.71901E+01 1.39375E+00-2.64438E-01-2.93103E+00 7.10418E-13-6.59056E-14
 -1       240 2.96985E+01-3.13562E-01-7.04214E-02-4.31865E+00 5.41074E-13-7.63150E-13
 -1       241 3.12054E+01-1.04014E+00 4.95167E-02-2.28173E+00 6.20641E-14-9.68767E-13
 -1       242 3.09028E+01-7.44692E-01 4.27026E-02 1.91767E-01-1.51247E-13-8.12581E-13
 -1       243 2.94422E+01-2.73066E-01 5.36001E-03 1.52932E+00-2.99183E-13-4.81545E-13
 -1       244 2.75809E+01 8.88824E-03-1.14237E-02 1.84180E+00-2.37076E-13-3.31344E-13
 -1       245 2.57908E+01 1.12971E-01-1.03952E-02 1.64039E+00 5.49114E-14-3.15844E-13
 -1       246 2.42778E+01 1.25621E-01-4.68048E-03 1.28736E+00 2.15552E-13-2.76556E-13
 -1       247 2.30422E+01 1.04087E-01-1.89832E-05 9.33999E-01-1.92955E-13-3.69512E-13
 -1       248 2.21692E+01 7.77024E-02 1.73684E-03 6.65451E-01-1.92386E-13-3.47279E-13
 -1       249 2.15295E+01 5.55947E-02 2.16768E-03 4.66925E-01-1.71887E-13-8.38032E-14
 -1       250 2.10692E+01 3.88246E-02 1.96447E-03 3.25233E-01-1.18335E-13-4.16605E-15
 -1       251 2.07409E+01 2.68710E-02 1.58001E-03 2.25780E-01-2.46404E-14 3.30761E-14
 -1       252 2.05079E+01 1.85684E-02 1.20260E-03 1.56426E-01-3.93923E-14-1.87905E-14
 -1       253 2.03433E+01 1.28542E-02 8.90901E-04 1.08100E-01-3.61831E-15 1.48786E-13
 -1       254 2.02273E+01 8.96150E-03 6.43036E-04 7.43548E-02 8.59810E-14 1.25624E-13
 -1       255 2.01431E+01 6.11064E-03 4.75630E-04 4.98082E-02-2.94783E-14 1.46830E-13
 -1       256 2.00882E+01 4.26346E-03 3.35778E-04 3.35233E-02 4.34294E-14 3.73882E-13
 -1       257 2.00506E+01 2.97170E-03 2.43249E-04 2.21284E-02 6.28839E-14 4.17678E-13
 -1       258 2.00255E+01 2.05788E-03 1.75911E-04 1.41730E-02 2.45884E-13 2.31846E-13
 -1       259 2.00091E+01 1.40986E-03 1.26890E-04 8.66074E-03 8.28113E-14 2.66737E-13
 -1       260 1.99988E+01 9.48633E-04 9.08335E-05 4.88960E-03-4.62474E-13 3.81138E-13
 -1       261 1.99928E+01 6.26509E-04 6.45953E-05 2.35742E-03 2.33950E-13 7.02582E-13
 -1       262 1.99896E+01 3.82492E-04 4.53024E-05 6.46728E-04-2.02161E-13 5.77847E-13
 -1       263 1.99885E+01 2.27314E-04 3.10320E-05-3.58847E-04 2.29187E-13 6.74878E-13
 -1       264 1.99886E+01 1.19879E-04 2.10682E-05-9.40450E-04 3.36860E-14 2.73011E-13
 -1       265 1.99894E+01 4.86294E-05 1.38777E-05-1.23531E-03-1.70357E-13 3.77833E-13
 -1       266 1.99905E+01 3.19836E-06 8.74985E-06-1.34112E-03-6.64124E-14 9.75695E-14
 -1       267 1.99919E+01-2.40270E-05 5.13362E-06-1.32779E-03 9.88873E-14 3.08557E-14
 -1       268 1.99932E+01-3.87872E-05 2.58931E-06-1.24433E-03 5.67170E-14 2.25839E-13
 -1       269 1.99945E+01-4.49623E-05 9.82420E-07-1.12442E-03 4.29267E-13 1.87215E-13
 -1       270 1.99957E+01-4.66184E-05-3.54071E-07-9.82260E-04-1.89997E-13 1.33975E-13
 -1       271 1.99968E+01-4.50690E-05-1.01754E-06-8.43869E-04 2.16926E-13 1.58383E-13
 -1       272 1.99977E+01-4.38315E-05-1.43598E-06-7.07887E-04 6.08209E-14 1.62141E-13
 -1       273 1.99984E+01-4.43575E-05-1.37957E-06-5.72316E-04-1.33340E-16-2.76574E-13
 -1       274 1.99990E+01-4.86566E-05-5.63903E-07-4.30117E-04-4.11327E-13 2.47858E-13
 -1       275 1.99994E+01-5.98330E-05-3.77050E-07-2.70109E-04-1.30932E-13-7.29084E-14
 -1       276 1.99997E+01-6.25354E-05-2.46900E-06-9.43329E-05-7.04392E-14-3.83188E-13
 -1       277 1.99997E+01-2.11266E-04-1.89235E-06-1.88790E-04-2.43014E-13-5.55958E-13
 -1       278 1.99997E+01-5.09620E-04-6.38584E-07-3.55943E-04-1.83200E-13 3.19091E-13
 -1       279 1.99998E+01-8.99618E-04-2.54929E-07-4.56353E-04-5.11398E-14-8.37873E-14
 -1       280 1.99998E+01-1.32791E-03 2.71827E-07-4.74977E-04-4.58324E-14-1.45263E-13
 -1       281 1.99998E+01-1.72863E-03 1.13738E-06-4.22886E-04-2.31756E-13-1.02273E-13
 -1       282 1.99999E+01-2.06221E-03 1.89838E-06-3.13460E-04-5.88972E-14 6.00051E-13
 -1       283 1.99999E+01-2.27859E-03 2.42340E-06-1.65101E-04 1.78097E-13 5.81254E-13
 -1       284 1.99999E+01-2.35190E-03 2.60102E-06 2.60333E-06 2.66731E-13-2.82364E-13
 -1       285 1.99999E+01-2.27362E-03 2.41558E-06 1.69727E-04 3.84946E-13-2.32923E-13
 -1       286 1.99999E+01-2.05323E-03 1.88683E-06 3.16583E-04 2.78056E-13-4.41211E-13
 -1       287 1.99998E+01-1.72415E-03 1.08108E-06 4.22677E-04-9.74233E-15-4.34367E-14
 -1       288 1.99998E+01-1.31643E-03 2.63831E-07 4.73974E-04-2.04548E-15 3.18309E-13
 -1       289 1.99998E+01-8.89548E-04-3.51088E-07 4.53505E-04-1.08787E-13-4.94448E-13
 -1       290 1.99997E+01-5.05420E-04-1.71986E-06 3.50570E-04-2.74216E-13-2.35340E-13
 -1       291 1.99997E+01-2.80130E-04-2.06414E-06 3.01303E-04-1.95827E-13 5.76844E-16
 -1       292-1.38196E+00-1.15685E+01-9.51060E-01-1.45916E-01 9.72562E-13 1.37149E-12
 -1       293 2.11327E+00-9.46831E+00-7.20723E-01 2.77763E+00 1.31392E-12 1.44869E-12
 -1       294 8.24804E+00-7.49341E+00-7.32922E-01 4.35192E+00 1.98558E-12 1.62552E-12
 -1       295 1.83232E+01-4.14569E+00-4.15555E-01 5.92865E+00 1.95893E-12 1.62034E-12
 -1       296 3.08205E+01-6.36766E-01 1.05802E-01 5.99165E+00 1.86084E-12 1.24784E-12
 -1       297 4.21425E+01 2.72250E+00 5.88561E-01 2.57360E+00 1.47068E-12 5.14255E-13
 -1       298 5.17186E+01 6.32950E+00 1.45167E+00 1.96109E+00 1.12099E-12 8.99003E-14
 -1       299 5.16470E+01 7.32937E+00 1.33559E+00-4.91032E-01 1.38978E-12-4.79512E-13
 -1       300 4.72567E+01 5.46219E+00 9.49504E-01-1.87255E+00 1.34642E-12-1.00764E-12
 -1       301 3.88302E+01 1.20257E+00 3.81022E-01-3.65103E+00 1.23468E-12-1.36785E-12
 -1       302 2.75030E+01-2.79362E+00-7.18654E-02-5.69979E+00 1.11119E-12-1.66683E-12
 -1       303 1.44734E+01-5.19380E+00-5.25922E-01-5.80330E+00 1.32799E-12-1.76945E-12
 -1       304 5.08396E+00-8.53682E+00-9.00990E-01-3.48429E+00 1.03809E-12-1.48804E-12
 -1       305 3.77739E-02-1.07623E+01-9.71496E-01-1.40293E+00 4.49252E-13-1.22986E-12
 -1       306-1.56583E+00-1.18082E+01-1.01735E+00 9.53446E-01-2.45814E-13-1.03437E-12
 -1       307 9.24662E-01-8.40663E+00-5.82809E-01 3.84177E+00-5.96828E-13-1.15791E-12
 -1       308 5.59872E+00-6.76207E+00-5.81883E-01 5.32097E+00-1.30468E-12-1.19510E-12
 -1       309 1.45052E+01-3.34834E+00-2.35943E-01 7.41512E+00-1.33465E-12-1.12664E-12
 -1       310 2.38207E+01 1.00690E+00 7.75571E-02 8.21760E+00-1.57366E-12-1.24986E-12
 -1       311 3.42170E+01 4.40073E+00 4.97204E-01 8.31473E+00-1.43210E-12-1.21037E-12
 -1       312 4.24102E+01 6.15026E+00 7.05619E-01 5.16376E+00-1.16181E-12-6.49258E-13
 -1       313 4.76940E+01 7.19635E+00 9.32031E-01 1.92573E+00-9.69586E-13-2.58488E-13
 -1       314 4.86271E+01 7.00218E+00 1.00581E+00-2.08103E+00-8.67140E-13 3.25587E-13
 -1       315 4.30314E+01 6.44112E+00 7.21492E-01-4.92314E+00-1.08812E-12 6.68104E-13
 -1       316 3.61525E+01 4.84475E+00 5.66874E-01-8.07471E+00-1.32999E-12 1.33332E-12
 -1       317 2.67677E+01 1.93233E+00 2.02677E-01-8.34294E+00-1.18155E-12 1.40460E-12
 -1       318 1.68962E+01-1.17791E+00-1.48835E-01-7.79684E+00-1.16079E-12 1.54482E-12
 -1       319 8.58462E+00-5.10016E+00-5.12895E-01-6.05741E+00-9.54792E-13 1.39195E-12
 -1       320 2.60520E+00-8.87590E+00-7.89929E-01-4.03024E+00-4.65156E-13 9.21721E-13
 -1       321-7.38785E-01-1.09119E+01-8.89617E-01-2.31399E+00 2.49176E-13 1.17398E-12
 -1       322 2.09165E+01 2.77085E+00-2.09001E-02-2.02451E+00-3.64104E-13-5.93532E-13
 -1       323 2.15492E+01 2.08872E+00-2.11799E-02-2.34457E+00-5.02755E-13-3.42471E-13
 -1       324 2.01342E+01 3.21271E+00-1.85449E-02-9.00096E-01-6.21340E-14-7.33368E-13
 -1       325 1.96963E+01 3.34250E+00-1.59256E-02-2.75630E-01 6.26499E-14-7.60644E-13
 -1       326 1.91286E+01 3.52209E+00-1.34449E-02 3.20465E-01 1.82108E-13-7.22738E-13
 -1       327 1.84429E+01 3.78659E+00-1.08020E-02 8.22154E-01 2.87104E-13-6.96708E-13
 -1       328 1.77346E+01 4.12471E+00-8.16792E-03 1.15613E+00 3.74109E-13-6.70101E-13
 -1       329 1.71866E+01 4.46697E+00-6.21861E-03 1.27088E+00 4.48722E-13-6.40772E-13
 -1       330 1.70264E+01 4.69544E+00-5.97374E-03 1.17990E+00 5.17730E-13-5.62728E-13
 -1       331 1.74475E+01 4.69408E+00-8.22847E-03 9.69334E-01 5.69164E-13-4.37804E-13
 -1       332 1.85512E+01 4.36114E+00-1.30383E-02 7.85955E-01 6.01183E-13-2.58383E-13
 -1       333 2.02805E+01 3.63531E+00-1.74738E-02 7.75871E-01 6.28388E-13 1.33313E-14
 -1       334 2.23990E+01 2.43899E+00-2.19395E-02 8.92182E-01 5.70450E-13 5.00385E-13
 -1       335 2.36553E+01 1.32459E+00-1.42925E-02 6.45501E-01 4.73758E-13 9.37661E-13
 -1       336 2.35215E+01 7.84742E-01 1.28266E-02-7.01878E-01 3.70074E-13 7.42024E-13
 -1       337 2.12449E+01 4.86108E-01 1.04386E-02-1.20813E+00-4.14549E-13-2.13924E-13
 -1       338 2.07450E+01 1.14666E-01 5.08433E-03-8.50872E-01-3.17352E-13-2.05282E-13
 -1       339 2.03439E+01-4.93618E-02 2.24650E-03-7.77052E-01-2.36678E-13-2.25463E-13
 -1       340 1.99778E+01-9.17089E-02 5.96867E-04-8.24831E-01-1.86975E-13-2.61252E-13
 -1       341 1.96136E+01-3.91563E-02 5.61829E-04-8.79530E-01-1.84889E-13-2.64233E-13
 -1       342 1.92511E+01 8.57926E-02 1.40479E-03-8.47883E-01-1.32929E-13-3.16586E-13
 -1       343 1.89275E+01 2.43045E-01 2.47034E-03-6.68110E-01-1.43977E-13-2.79052E-13
 -1       344 1.87043E+01 3.74859E-01 3.20108E-03-3.31948E-01-1.11181E-13-3.68336E-13
 -1       345 1.86392E+01 4.26506E-01 3.45770E-03 1.04514E-01-1.81917E-13-4.21631E-13
 -1       346 1.87539E+01 3.73899E-01 3.13896E-03 5.38974E-01-1.35595E-13-4.84541E-13
 -1       347 1.90200E+01 2.37147E-01 2.32089E-03 8.66727E-01-1.34051E-15-5.32766E-13
 -1       348 1.93706E+01 6.71561E-02 1.08532E-03 1.02457E+00 7.20206E-14-5.43689E-13
 -1       349 1.97300E+01-8.26906E-02-2.13307E-04 1.00873E+00 7.25935E-14-5.69180E-13
 -1       350 2.00395E+01-1.79523E-01-1.23317E-03 8.62288E-01 3.96307E-14-6.32089E-13
 -1       351 2.02687E+01-2.17001E-01-1.82764E-03 6.47494E-01 4.16292E-14-4.92970E-13
 -1       352 2.04125E+01-2.07548E-01-1.98100E-03 4.21074E-01-7.33365E-14-4.93239E-13
 -1       353 2.04816E+01-1.70569E-01-1.79380E-03 2.21460E-01-1.24736E-13-5.33173E-13
 -1       354 2.04936E+01-1.23657E-01-1.42283E-03 6.72170E-02-1.02836E-13-5.69207E-13
 -1       355 2.04670E+01-7.87554E-02-1.00095E-03-3.83323E-02 3.29694E-14-5.61978E-13
 -1       356 2.04173E+01-4.20054E-02-6.13104E-04-1.00941E-01-3.47162E-16-5.75829E-13
 -1       357 2.03568E+01-1.52457E-02-3.02671E-04-1.30251E-01 6.93400E-14-4.72306E-13
 -1       358 2.02940E+01 2.22109E-03-8.08670E-05-1.36361E-01 1.84835E-14-4.53355E-13
 -1       359 2.02345E+01 1.22212E-02 6.04885E-05-1.28018E-01-3.93260E-15-4.62565E-13
 -1       360 2.01814E+01 1.68186E-02 1.38043E-04-1.11951E-01 4.86785E-14-4.10456E-13
 -1       361 2.01362E+01 1.78553E-02 1.69993E-04-9.28724E-02 1.42617E-13-3.61146E-13
 -1       362 2.00990E+01 1.67776E-02 1.72376E-04-7.37909E-02 2.15829E-15-3.77640E-13
 -1       363 2.00694E+01 1.46221E-02 1.57698E-04-5.64207E-02 7.99338E-14-4.63173E-13
 -1       364 2.00466E+01 1.20745E-02 1.34842E-04-4.15691E-02 8.10372E-14-6.13177E-13
 -1       365 2.00295E+01 9.55117E-03 1.09609E-04-2.94561E-02-1.16827E-13-6.33996E-13
 -1       366 2.00170E+01 7.27697E-03 8.54461E-05-1.99546E-02 8.16500E-14-5.53373E-13
 -1       367 2.00083E+01 5.35026E-03 6.41405E-05-1.27578E-02 1.09355E-13-2.38516E-13
 -1       368 2.00024E+01 3.79153E-03 4.63904E-05-7.48870E-03 6.91481E-14-3.34311E-13
 -1       369 1.99986E+01 2.57740E-03 3.22368E-05-3.76637E-03-5.69451E-14-2.57039E-13
 -1       370 1.99964E+01 1.66327E-03 2.13644E-05-1.24222E-03 1.72379E-13-6.02518E-14
 -1       371 1.99953E+01 9.97326E-04 1.32960E-05 3.83157E-04 1.58925E-14 4.72001E-14
 -1       372 1.99949E+01 5.28778E-04 7.51228E-06 1.35540E-03 8.79259E-14-3.80871E-15
 -1       373 1.99950E+01 2.12016E-04 3.51918E-06 1.86886E-03-6.42818E-14-7.72761E-14
 -1       374 1.99954E+01 8.26672E-06 8.80460E-07 2.07235E-03 6.78250E-14 1.14369E-13
 -1       375 1.99960E+01-1.14260E-04-7.71771E-07 2.07623E-03 7.97321E-15 1.59739E-14
 -1       376 1.99966E+01-1.81031E-04-1.73931E-06 1.95935E-03 2.77892E-13-1.44540E-13
 -1       377 1.99972E+01-2.12256E-04-2.26542E-06 1.77529E-03 3.25868E-13-3.02710E-13
 -1       378 1.99978E+01-2.24096E-04-2.54082E-06 1.55756E-03 2.22454E-13-9.06357E-14
 -1       379 1.99983E+01-2.29727E-04-2.69294E-06 1.32372E-03-7.70985E-14-1.88354E-13
 -1       380 1.99988E+01-2.39901E-04-2.78254E-06 1.07912E-03-2.74548E-13-6.16643E-14
 -1       381 1.99992E+01-2.62943E-04-3.36722E-06 8.20939E-04 2.97531E-13-1.03732E-13
 -1       382 1.99994E+01-2.75293E-04-2.81833E-06 5.64149E-04 2.34803E-13-1.16667E-13
 -1       383 2.37941E+01 6.05277E-01 1.11571E-02-1.69783E+00 2.51104E-13 6.27184E-13
 -1       384 2.45015E+01 3.94274E-01 3.66203E-03-2.43541E+00 1.17942E-13 5.74458E-13
 -1       385 2.56291E+01-1.29242E-01-3.32585E-04-2.73846E+00-7.92853E-14 5.93504E-13
 -1       386 2.72319E+01-1.20126E+00 4.37125E-03-2.13357E+00-3.21547E-13 6.65961E-13
 -1       387 2.94212E+01-2.65921E+00 4.76741E-03 3.40170E-02-3.52555E-13 8.35178E-13
 -1       388 3.14442E+01-2.43604E+00-8.91516E-02 3.23294E+00-7.55992E-15 1.04938E-12
 -1       389 3.24679E+01 6.38924E-01-1.81884E-01 4.62221E+00 5.80994E-13 8.96595E-13
 -1       390 3.27812E+01 4.44812E+00-1.96669E-01 1.79990E+00 1.13884E-12 3.59462E-13
 -1       391 3.29110E+01 4.07259E+00-1.55071E-01-2.99436E+00 1.13340E-12-2.58224E-13
 -1       392 3.24505E+01-5.81847E-01-1.68448E-01-4.91821E+00 8.72982E-13-7.87280E-13
 -1       393 3.11346E+01-3.09796E+00-1.95425E-02-2.24531E+00 1.35390E-13-9.89125E-13
 -1       394 2.88601E+01-2.24903E+00-3.53403E-03 8.83028E-01-2.98313E-13-8.56420E-13
 -1       395 2.68099E+01-8.59051E-01-5.58017E-03 2.49601E+00-4.47058E-13-6.40639E-13
 -1       396 2.52457E+01 8.51975E-03-6.27908E-03 2.83117E+00-3.07023E-13-4.97394E-13
 -1       397 2.40447E+01 3.48380E-01-1.41911E-03 2.52129E+00 4.00303E-14-3.37650E-13
 -1       398 2.30920E+01 4.02069E-01 3.15911E-03 2.01146E+00 1.05603E-13-1.21721E-13
 -1       399 2.23001E+01 3.42590E-01 5.31599E-03 1.49142E+00 1.08425E-14-4.65194E-14
 -1       400 2.17130E+01 2.61778E-01 5.10481E-03 1.08623E+00-1.76033E-13-3.69405E-13
 -1       401 2.12588E+01 1.90226E-01 4.17614E-03 7.77573E-01-3.02791E-13-3.62569E-13
 -1       402 2.09145E+01 1.34830E-01 3.14888E-03 5.51569E-01-8.11089E-14-3.42470E-13
 -1       403 2.06571E+01 9.45174E-02 2.27546E-03 3.89306E-01-8.24409E-14-3.74253E-13
 -1       404 2.04667E+01 6.60376E-02 1.61249E-03 2.73874E-01-7.35999E-14-2.34852E-13
 -1       405 2.03270E+01 4.61734E-02 1.13412E-03 1.92023E-01-1.06079E-13 4.05985E-14
 -1       406 2.02253E+01 3.23555E-02 7.80665E-04 1.33999E-01 8.50883E-14-4.74076E-14
 -1       407 2.01489E+01 2.23325E-02 5.59799E-04 9.10851E-02-3.67260E-14-2.34937E-13
 -1       408 2.00976E+01 1.56873E-02 3.83573E-04 6.23762E-02-1.62681E-13 1.02130E-13
 -1       409 2.00612E+01 1.10075E-02 2.69605E-04 4.19911E-02 4.67283E-14 3.46278E-13
 -1       410 2.00360E+01 7.68216E-03 1.89199E-04 2.75853E-02 1.85943E-13 2.90527E-13
 -1       411 2.00189E+01 5.30981E-03 1.31963E-04 1.74737E-02 1.01901E-13 4.67595E-13
 -1       412 2.00075E+01 3.61533E-03 9.09446E-05 1.04535E-02-4.93684E-13 6.61958E-13
 -1       413 2.00003E+01 2.40757E-03 6.10712E-05 5.66043E-03-7.18228E-14 6.27832E-13
 -1       414 1.99959E+01 1.51289E-03 4.11646E-05 2.33271E-03-1.56754E-13 8.12696E-13
 -1       415 1.99936E+01 9.21952E-04 2.55868E-05 3.20930E-04 2.49649E-13 7.68386E-13
 -1       416 1.99927E+01 5.15144E-04 1.55763E-05-9.07999E-04 1.33161E-13 6.47381E-13
 -1       417 1.99926E+01 2.41003E-04 8.65575E-06-1.59482E-03-1.21081E-13 7.36019E-13
 -1       418 1.99931E+01 6.27621E-05 4.00140E-06-1.91639E-03 3.98703E-14 4.29068E-13
 -1       419 1.99938E+01-4.73001E-05 9.73123E-07-2.00034E-03 1.39159E-13 4.05454E-13
 -1       420 1.99947E+01-1.09925E-04-9.32402E-07-1.93739E-03 9.89148E-14 2.39988E-13
 -1       421 1.99956E+01-1.40501E-04-1.91756E-06-1.79026E-03 5.49837E-13 2.32261E-13
 -1       422 1.99964E+01-1.52316E-04-2.62008E-06-1.59051E-03-1.74579E-13 3.55811E-13
 -1       423 1.99972E+01-1.52281E-04-2.89443E-06-1.38303E-03 6.79041E-14 3.86182E-13
 -1       424 1.99979E+01-1.50005E-04-3.02631E-06-1.17130E-03 2.51345E-13 2.62713E-13
 -1       425 1.99985E+01-1.51890E-04-3.05319E-06-9.57075E-04 2.72340E-13-3.25237E-13
 -1       426 1.99990E+01-1.62337E-04-2.79165E-06-7.34690E-04-5.02861E-13-4.40396E-13
 -1       427 1.99994E+01-1.82985E-04-2.44715E-06-4.96895E-04 2.77240E-13-7.58355E-13
 -1       428 1.99996E+01-2.07508E-04-1.82223E-06-3.46026E-04 1.03074E-13-7.03636E-13
 -1       429 1.99998E+01-1.03187E-03-4.36844E-07-8.12946E-04-1.02813E-13 7.91838E-14
 -1       430 1.99997E+01-6.87389E-04-2.06952E-06-7.35000E-04-1.13715E-13 3.18318E-13
 -1       431 1.99996E+01-4.32803E-04-2.51834E-06-5.63597E-04 3.91826E-14-1.22738E-13
 -1       432 1.99999E+01-1.35842E-03 7.10599E-07-7.73060E-04 3.46301E-14-5.35436E-13
 -1       433 2.00000E+01-1.64409E-03 1.59131E-06-6.29644E-04 5.09627E-14 3.38045E-13
 -1       434 2.00000E+01-1.85197E-03 2.23914E-06-4.07795E-04 3.69173E-14 4.84288E-13
 -1       435 2.00001E+01-1.96017E-03 2.57513E-06-1.37928E-04-3.40789E-13-2.50659E-13
 -1       436 2.00001E+01-1.95749E-03 2.56961E-06 1.47405E-04-2.82981E-13 1.57189E-13
 -1       437 2.00000E+01-1.84441E-03 2.22406E-06 4.15313E-04-1.81734E-13-2.82784E-13
 -1       438 2.00000E+01-1.63749E-03 1.56721E-06 6.30730E-04 1.25597E-13-3.37431E-13
 -1       439 1.99999E+01-1.35151E-03 7.07799E-07 7.72011E-04 1.73332E-13 1.84088E-13
 -1       440 1.99998E+01-1.01990E-03-3.64641E-07 8.10318E-04 1.22652E-13-1.59766E-13
 -1       441 1.99996E+01-6.76975E-04-1.87820E-06 7.33599E-04 1.70497E-13-7.11597E-13
 -1       442 9.78109E+00-6.15682E+00-8.11482E-02 5.89595E+00 3.59754E-13 9.22942E-13
 -1       443 1.02821E+00-4.27113E+00-3.26223E-02-1.49642E+00 2.42287E-13 1.45378E-12
 -1       444 2.35988E+00-4.72758E+00-4.23559E-02 2.43647E+00 1.75381E-13 1.41703E-12
 -1       445 1.88261E+01-6.80532E+00-9.22532E-02 6.01197E+00 5.31880E-13 6.00752E-13
 -1       446 2.85307E+01-5.64082E+00-5.95261E-02 3.38883E+00 9.11229E-13 2.73670E-14
 -1       447 2.05205E+01 3.04735E+00-2.04868E-02-1.51403E+00-2.09578E-13-7.15163E-13
 -1       448 3.82225E+01 3.78538E+00 5.59440E-02-3.12688E+00 1.27492E-12-3.48707E-13
 -1       449 3.93007E+01 6.17049E+00 1.64290E-01 1.64160E+00 1.39541E-12 1.12840E-13
 -1       450 3.80446E+01 1.60055E+00 4.81630E-02 2.40482E+00 8.98503E-13 1.70364E-13
 -1       451 3.37041E+01-3.68172E+00-4.05444E-02-5.68083E-01 3.54237E-13-1.46633E-13
 -1       452 2.49680E+01-6.49731E+00-6.12154E-02-4.74524E+00-5.66214E-15-6.37948E-13
 -1       453 1.51113E+01-6.43059E+00-7.20176E-02-6.52475E+00-1.21292E-14-1.07847E-12
 -1       454 7.09086E+00-5.21610E+00-3.64238E-02-5.41782E+00-1.68754E-14-1.19181E-12
 -1       455 1.72047E+00-4.00096E+00-7.24385E-03-1.31546E+00 8.48245E-14-1.32719E-12
 -1       456 1.81094E+00-3.44089E+00 1.78163E-02 2.79442E+00 1.34219E-13-1.27609E-12
 -1       457 7.36566E+00-4.46234E+00 2.59063E-02 7.13439E+00 6.28247E-14-9.46118E-13
 -1       458 1.42801E+01-5.10271E+00-6.38578E-03 8.14401E+00-6.39211E-14-5.62392E-13
 -1       459 2.38052E+01-4.25134E+00 1.24367E-02 6.53578E+00-3.73396E-13-2.22947E-13
 -1       460 3.04105E+01-1.06275E+00 1.70676E-02 3.94095E+00-7.42691E-13-1.55598E-13
 -1       461 3.45608E+01 2.81589E+00 1.69155E-02 1.73201E+00-1.04023E-12-9.75053E-14
 -1       462 3.59604E+01 7.30137E+00-1.73046E-02-3.45827E-01-1.07644E-12-2.19019E-13
 -1       463 3.73498E+01 8.80580E+00 2.04783E-02-8.57090E-02-1.09671E-12-3.04243E-13
 -1       464 3.72080E+01 7.78530E+00 6.08052E-02-1.01333E-01-1.01155E-12-2.75058E-13
 -1       465 3.46443E+01 3.50317E+00-1.57650E-02-1.00883E+00-8.08957E-13-3.37105E-13
 -1       466 3.18969E+01-5.96718E-02 1.59988E-02-3.04999E+00-4.47007E-13 4.60743E-15
 -1       467 2.55893E+01-4.11714E+00-1.90182E-02-5.83164E+00 8.10046E-14 3.33192E-13
 -1       468 1.92326E+01-5.06717E+00 3.03810E-02-7.78938E+00 1.19613E-13 6.00645E-13
 -1       469 9.98560E+00-5.33651E+00-2.74728E-02-7.81462E+00 1.35753E-13 1.01991E-12
 -1       470 3.67873E+00-5.16573E+00-6.62402E-02-5.49446E+00 1.99785E-13 1.04838E-12
 -1       471 3.52228E+01-2.65295E+00-4.88813E-02-1.06342E+00 1.10676E-12-2.97401E-13
 -1       472 7.89249E+00-3.41747E+00 1.25345E-01 5.04761E+00-3.40013E-13 1.02185E-12
 -1       473 4.18073E+01 7.37960E+00 3.70577E-01-6.40439E-01 1.40712E-12-7.21090E-14
 -1       474 2.16686E+01 1.64295E+00 7.00732E-03-1.27206E+00 3.80901E-13 2.20580E-13
 -1       475 1.99930E+01 2.37350E+00-5.97287E-03 2.18351E-01 1.33303E-13-6.52721E-13
 -1       476 2.04938E+01 2.17370E+00-6.90147E-03-4.49028E-01 1.28520E-14-6.32828E-13
 -1       477 1.84042E+01 3.10386E+00-3.85236E-03 1.38117E+00 3.40426E-13-6.11700E-13
 -1       478 1.75090E+01 3.61987E+00-2.23095E-03 1.62024E+00 4.26503E-13-5.98744E-13
 -1       479 1.68862E+01 4.07292E+00-1.62498E-03 1.51152E+00 4.96355E-13-5.72683E-13
 -1       480 1.68324E+01 4.28641E+00-2.26519E-03 1.08766E+00 5.39608E-13-4.88373E-13
 -1       481 1.75895E+01 4.08333E+00-4.33631E-03 5.15165E-01 5.45874E-13-3.54990E-13
 -1       482 1.91536E+01 3.40588E+00-5.19190E-03 1.28221E-02 5.33095E-13-1.50263E-13
 -1       483 2.15202E+01 1.28866E+00 7.81180E-03-2.39655E+00 2.32856E-13 1.57620E-13
 -1       484 2.12336E+01 5.61709E-01 1.54135E-03-1.24006E+00-3.21917E-13-3.44211E-13
 -1       485 2.10839E+01 8.50106E-02 1.37463E-03-1.04241E+00-2.57996E-13-2.98185E-13
 -1       486 2.09047E+01-1.29294E-01 3.74394E-04-1.03915E+00-2.16122E-13-2.65129E-13
 -1       487 2.06928E+01-1.34139E-01 8.41380E-05-1.11922E+00-1.87569E-13-2.65102E-13
 -1       488 2.04330E+01 4.03764E-02 4.57382E-04-1.15929E+00-1.57360E-13-1.86856E-13
 -1       489 2.01388E+01 3.38316E-01 9.82330E-04-1.04578E+00-1.52454E-13-2.03046E-13
 -1       490 1.98670E+01 6.55163E-01 1.42457E-03-7.13858E-01-1.83696E-13-2.81101E-13
 -1       491 1.96995E+01 8.59829E-01 1.24789E-03-1.87547E-01-2.27466E-13-3.28465E-13
 -1       492 1.96978E+01 8.56784E-01 1.16690E-03 4.15002E-01-2.01408E-13-3.36561E-13
 -1       493 1.98592E+01 6.41549E-01 1.31166E-03 9.31284E-01-8.44894E-14-3.77955E-13
 -1       494 2.01159E+01 3.00796E-01 9.79410E-04 1.23614E+00 1.09389E-14-4.11564E-13
 -1       495 2.03762E+01-4.32381E-02 3.72566E-04 1.29251E+00 3.59158E-14-5.33677E-13
 -1       496 2.05708E+01-2.97055E-01-1.94516E-04 1.14608E+00 4.05693E-14-4.53577E-13
 -1       497 2.06728E+01-4.25233E-01-6.62296E-04 8.83245E-01 9.10798E-14-3.50272E-13
 -1       498 2.06905E+01-4.41840E-01-9.02428E-04 5.88256E-01-3.09008E-14-3.45416E-13
 -1       499 2.06491E+01-3.84911E-01-8.87795E-04 3.19968E-01-9.89278E-14-3.30514E-13
 -1       500 2.05751E+01-2.94056E-01-7.36535E-04 1.08024E-01-1.60009E-13-3.26383E-13
 -1       501 2.04889E+01-1.98725E-01-5.42005E-04-4.03463E-02-4.96417E-14-1.82497E-13
 -1       502 2.04035E+01-1.15902E-01-3.50408E-04-1.31215E-01 5.45303E-15-2.88098E-13
 -1       503 2.03256E+01-5.24642E-02-1.90427E-04-1.76563E-01 6.30804E-14-3.21367E-13
 -1       504 2.02579E+01-8.79312E-03-7.25093E-05-1.89451E-01 1.10228E-13-2.73792E-13
 -1       505 2.02011E+01 1.80360E-02 5.35185E-06-1.81460E-01 5.40962E-14-2.60393E-13
 -1       506 2.01543E+01 3.20692E-02 5.04805E-05-1.61699E-01 9.70936E-15-3.13480E-13
 -1       507 2.01165E+01 3.72425E-02 7.16807E-05-1.36716E-01 6.22098E-14-3.71614E-13
 -1       508 2.00864E+01 3.68263E-02 7.69193E-05-1.10835E-01 6.33091E-14-3.69075E-13
 -1       509 2.00628E+01 3.32771E-02 7.25983E-05-8.66437E-02 4.03186E-14-3.20087E-13
 -1       510 2.00446E+01 2.82974E-02 6.33432E-05-6.54785E-02-1.05309E-14-3.81665E-13
 -1       511 2.00307E+01 2.29780E-02 5.22472E-05-4.78338E-02-9.00369E-14-3.63863E-13
 -1       512 2.00203E+01 1.79554E-02 4.12049E-05-3.36838E-02-2.76393E-15-3.63492E-13
 -1       513 2.00127E+01 1.35519E-02 3.12475E-05-2.27119E-02 1.25589E-13-3.64775E-13
 -1       514 2.00073E+01 9.88691E-03 2.28253E-05-1.44675E-02 1.87909E-13-2.85093E-13
 -1       515 2.00035E+01 6.95813E-03 1.60297E-05-8.46425E-03 3.48936E-14-2.12511E-14
 -1       516 2.00010E+01 4.69742E-03 1.07561E-05-4.23845E-03 2.91155E-13-6.11594E-14
 -1       517 1.99994E+01 3.00721E-03 6.80575E-06-1.37903E-03 2.38506E-13 1.71237E-13
 -1       518 1.99984E+01 1.78309E-03 3.94883E-06 4.60424E-04-5.71088E-14 3.84865E-13
 -1       519 1.99980E+01 9.26366E-04 1.95825E-06 1.56085E-03-1.85317E-13 1.34019E-14
 -1       520 1.99978E+01 3.50128E-04 6.29854E-07 2.14280E-03 3.74196E-14 1.95383E-14
 -1       521 1.99978E+01-1.87252E-05-2.10130E-07 2.37426E-03-1.92795E-14 5.28422E-14
 -1       522 1.99980E+01-2.39814E-04-7.05373E-07 2.37922E-03-1.23389E-14 1.67722E-13
 -1       523 1.99982E+01-3.60825E-04-9.72705E-07 2.24585E-03 1.25329E-13-1.70594E-13
 -1       524 1.99985E+01-4.19614E-04-1.10644E-06 2.03375E-03 3.50419E-13-2.43326E-13
 -1       525 1.99988E+01-4.46360E-04-1.18696E-06 1.78002E-03 4.28639E-15-1.85824E-13
 -1       526 1.99990E+01-4.64615E-04-1.20079E-06 1.50435E-03-4.89159E-14-1.73965E-13
 -1       527 1.99993E+01-4.92555E-04-1.36659E-06 1.21384E-03 4.44754E-14-3.46160E-14
 -1       528 2.23307E+01-7.75467E-01 2.43442E-02-3.91406E+00-2.31624E-13 1.27009E-13
 -1       529 2.45707E+01-3.44331E+00 5.77639E-02-3.63214E+00-5.10026E-13 1.31299E-13
 -1       530 2.72222E+01-4.97109E+00 2.70011E-02 2.31210E+00-3.00877E-13-6.33601E-13
 -1       531 2.38369E+01-2.40072E+00 4.52572E-02 3.72338E+00-5.44955E-13-3.29226E-13
 -1       532 2.21952E+01-3.71723E-01 1.09494E-02 3.83905E+00-4.57817E-13-2.21793E-13
 -1       533 2.15431E+01 5.91911E-01 2.24715E-03 3.36911E+00-2.63388E-13-2.28763E-13
 -1       534 2.12705E+01 8.60110E-01 3.12376E-03 2.73950E+00-5.22139E-14 2.23072E-14
 -1       535 2.10900E+01 8.05466E-01 4.10068E-03 2.09831E+00-2.34545E-14-1.59528E-15
 -1       536 2.09320E+01 6.51450E-01 3.99201E-03 1.57952E+00 4.58534E-14 2.54563E-14
 -1       537 2.07729E+01 4.92657E-01 3.33120E-03 1.16711E+00-2.11200E-13 1.53053E-14
 -1       538 2.06221E+01 3.59743E-01 2.53419E-03 8.52166E-01-1.29338E-13-1.08074E-13
 -1       539 2.04878E+01 2.58083E-01 1.83406E-03 6.17406E-01-1.29383E-13-2.52682E-13
 -1       540 2.03737E+01 1.83674E-01 1.29550E-03 4.44845E-01-1.62881E-13-2.30583E-13
 -1       541 2.02805E+01 1.30377E-01 9.06808E-04 3.18964E-01-1.07602E-13-3.57344E-13
 -1       542 2.02063E+01 9.25702E-02 6.19897E-04 2.27447E-01 4.67565E-14-4.27681E-13
 -1       543 2.01463E+01 6.46784E-02 4.42477E-04 1.58348E-01-1.66903E-14-2.01637E-13
 -1       544 2.01031E+01 4.59787E-02 2.99535E-04 1.11075E-01-3.07936E-13-3.66407E-14
 -1       545 2.00708E+01 3.26516E-02 2.08609E-04 7.69062E-02-1.32522E-13 1.25560E-14
 -1       546 2.00470E+01 2.30993E-02 1.45275E-04 5.22954E-02 2.13940E-13-1.14582E-13
 -1       547 2.00298E+01 1.62257E-02 1.00696E-04 3.46770E-02-2.69607E-14 6.27749E-14
 -1       548 2.00177E+01 1.12689E-02 6.88900E-05 2.21750E-02-2.75189E-13 3.35963E-13
 -1       549 2.00093E+01 7.69873E-03 4.56376E-05 1.34143E-02-3.31969E-13 4.72445E-13
 -1       550 2.00035E+01 5.02652E-03 3.12543E-05 7.14154E-03-6.72155E-15 5.69389E-13
 -1       551 2.00000E+01 3.22962E-03 1.90441E-05 3.17294E-03 3.14117E-14 3.18997E-13
 -1       552 1.99979E+01 1.96734E-03 1.14679E-05 5.99970E-04 2.51174E-13 3.93403E-13
 -1       553 1.99968E+01 1.09570E-03 6.26607E-06-9.86282E-04 2.77059E-14 5.31052E-13
 -1       554 1.99964E+01 5.08764E-04 2.79871E-06-1.88643E-03 6.46848E-14 4.77880E-13
 -1       555 1.99963E+01 1.27338E-04 5.59197E-07-2.32166E-03 9.04327E-14 2.80856E-13
 -1       556 1.99966E+01-1.08100E-04-8.48718E-07-2.45238E-03 2.05647E-13 2.14928E-13
 -1       557 1.99969E+01-2.42425E-04-1.59402E-06-2.39260E-03 2.04884E-13 2.58917E-13
 -1       558 1.99974E+01-3.12091E-04-1.99440E-06-2.21110E-03 1.16493E-13 5.28514E-13
 -1       559 1.99978E+01-3.37082E-04-2.14292E-06-1.97832E-03-6.22117E-14 3.42391E-13
 -1       560 1.99983E+01-3.42832E-04-2.16749E-06-1.71914E-03 2.65491E-13 1.22530E-13
 -1       561 1.99987E+01-3.45562E-04-2.29419E-06-1.44879E-03 5.16539E-13 1.94005E-15
 -1       562 1.99990E+01-3.59157E-04-2.88600E-06-1.17280E-03 1.41867E-13-2.81345E-14
 -1       563 1.99993E+01-3.86592E-04-2.69565E-06-8.85507E-04 3.00542E-13-4.42724E-13
 -1       564 2.00001E+01-1.36954E-03 5.66585E-07-9.43087E-04 3.10179E-13-9.75122E-14
 -1       565 2.00002E+01-1.57663E-03 8.67791E-07-6.92223E-04 2.17876E-13 5.52812E-13
 -1       566 1.99996E+01-8.02203E-04-2.33370E-07-1.08142E-03 6.04803E-14 8.53678E-14
 -1       567 1.99999E+01-1.10443E-03 2.19881E-07-1.07988E-03 1.18002E-13-9.35601E-14
 -1       568 2.00003E+01-1.70623E-03 1.10428E-06-3.62155E-04 8.85649E-15-1.98419E-13
 -1       569 2.00004E+01-1.74817E-03 1.17767E-06 7.53209E-06 1.24458E-13 3.09010E-14
 -1       570 2.00003E+01-1.69946E-03 1.08207E-06 3.75675E-04-3.03218E-14-1.44432E-13
 -1       571 2.00002E+01-1.56755E-03 8.43843E-07 6.96616E-04-1.19755E-13-1.16746E-13
 -1       572 2.00001E+01-1.35845E-03 5.82902E-07 9.43543E-04 1.98204E-13-1.60198E-13
 -1       573 1.99999E+01-1.09040E-03 3.27593E-07 1.07787E-03 1.98295E-14 1.02607E-14
 -1       574 1.99996E+01-7.88931E-04-7.33421E-07 1.07136E-03 3.14563E-14-3.27228E-13
 -1       575 1.76932E+01-5.02240E+00 1.27565E-01 6.14644E+00-5.05887E-13 1.31915E-13
 -1       576 5.51228E+00-1.32295E+00 1.97266E-01-4.11010E+00 3.36037E-13 1.11369E-12
 -1       577 2.16077E+01 6.50740E-01 8.68308E-03-3.32875E+00 2.07939E-14 1.12940E-13
 -1       578 4.53729E+00-1.08526E+00 1.87484E-01 8.91126E-01-8.84345E-14 1.36423E-12
 -1       579 1.69572E+01-4.82799E+00 9.53225E-02-7.82861E+00 5.80640E-13 4.19505E-13
 -1       580 2.12545E+01 1.39450E+00-7.94164E-03-1.61976E+00-3.77676E-13-4.61369E-13
 -1       581 2.58959E+01-6.17385E+00 2.13043E-02 3.63699E+00-1.03612E-13-3.94934E-13
 -1       582 3.14602E+01 3.89938E+00-1.50148E-01-1.55287E+00-8.16937E-13 1.16178E-13
 -1       583 2.10959E+01-4.92068E+00 5.33867E-02 6.90993E+00 3.34996E-13-8.91337E-14
 -1       584 7.18085E+00-1.57891E+00 1.79090E-01-3.90253E+00-8.10463E-14-1.08585E-12
 -1       585 1.92849E+01 2.67227E+00-5.20276E-03 8.69116E-01 2.45246E-13-6.25368E-13
 -1       586 2.79564E+01-3.82052E+00-1.39594E-02 3.32338E+00-1.27072E-13 1.89238E-13
 -1       587 3.02054E+01-5.14475E+00-5.91569E-03-6.20522E-01-2.43871E-13 3.79165E-13
 -1       588 2.17155E+01-5.49501E+00 4.31189E-02-5.36600E+00-4.71886E-13-4.31962E-13
 -1       589 1.47923E+01-3.89651E+00 1.30526E-01-6.26302E+00-3.29931E-13-8.06716E-13
 -1       590 4.28184E+00-6.54399E-01 1.79689E-01 4.31154E-01 1.67409E-13-1.23679E-12
 -1       591 6.89737E+00-1.31819E+00 1.68370E-01 5.48974E+00 4.70471E-13-9.66741E-13
 -1       592 1.33794E+01-3.56623E+00 1.27804E-01 7.87624E+00 4.88977E-13-4.89435E-13
 -1       593 3.00441E+01 7.69317E+00-1.91504E-01-8.61605E-01-8.85778E-13-1.75807E-13
 -1       594 3.10811E+01-4.25600E-01-9.12331E-02 4.98925E-01-5.63598E-13 1.67200E-13
 -1       595 9.22430E+00-2.83419E+00 1.50967E-01-6.90271E+00 4.40904E-13 9.12881E-13
 -1       596 3.03933E+01 7.87162E+00-2.09045E-01 5.29048E-01-8.74481E-13-4.59967E-13
 -1       597 3.13652E+01 5.06796E+00-1.75024E-01 1.54033E+00-6.37296E-13-7.99735E-13
 -1       598 3.03988E+01-6.85029E-02-1.30534E-01 5.46770E-01-2.21517E-13-9.62626E-13
 -1       599 2.84827E+01-3.56713E+00-3.23648E-02-2.27328E+00 2.85217E-13-6.07243E-13
 -1       600 2.38439E+01-5.28056E+00 2.01670E-02-5.85399E+00 5.65784E-13 6.68528E-14
 -1       601 2.21061E+01 1.87026E+00 4.56081E-03-2.49341E-01 5.00162E-13 3.30453E-13
 -1       602 3.13246E+01-4.79049E+00-7.11126E-02-5.59172E-01 4.40134E-13-6.61679E-13
 -1       603 3.29485E+01-3.35526E+00-8.80151E-02 2.28277E+00 9.69138E-14 6.17145E-13
 -1       604 2.08175E+01 1.99311E+00-1.25058E-02-1.02959E+00-1.25804E-13-6.17617E-13
 -1       605 1.99994E+01-5.16022E-04-1.65947E-06 1.00386E-03 1.13782E-13-1.34602E-13
 -1       606 1.69902E+01 3.15688E+00 1.58327E-03 2.11097E+00 4.54732E-13-5.40743E-13
 -1       607 1.81907E+01 2.45059E+00 1.32358E-04 2.07001E+00 3.86550E-13-5.50761E-13
 -1       608 1.63877E+01 3.84470E+00-1.30896E-03 6.46536E-01 4.86201E-13-4.46948E-13
 -1       609 1.76663E+01 3.39208E+00-4.90535E-04-3.77054E-01 4.36701E-13-2.99884E-13
 -1       610 1.92118E+01 2.45214E+00 2.20478E-03-1.46846E+00 3.40864E-13-8.37618E-14
 -1       611 9.95467E+00-1.18688E-01 1.62792E-01 3.57355E+00-5.63011E-13 6.51187E-13
 -1       612 1.84287E+01 1.95469E+00 9.28719E-03-2.56022E+00 1.78555E-13-1.52238E-13
 -1       613 2.64919E+01 6.36744E+00-1.37398E-01 2.92574E-02-5.81913E-13-3.74958E-13
 -1       614 2.15177E+01-6.72646E-02-2.91112E-05-1.07307E+00-2.11944E-13-3.30644E-13
 -1       615 2.15510E+01-2.53771E-01 3.65563E-05-1.17760E+00-1.68699E-13-2.77861E-13
 -1       616 2.14802E+01-1.33997E-01-1.30928E-04-1.32468E+00-1.33505E-13-2.60119E-13
 -1       617 2.12871E+01 2.60146E-01 2.15949E-04-1.36419E+00-1.60583E-13-2.53183E-13
 -1       618 2.10050E+01 8.08773E-01 4.62671E-04-1.15397E+00-2.21189E-13-2.50139E-13
 -1       619 2.07404E+01 1.29360E+00 8.09464E-04-6.32996E-01-2.18910E-13-2.34398E-13
 -1       620 2.06146E+01 1.48904E+00-5.77548E-04 1.03812E-01-1.99189E-13-1.89849E-13
 -1       621 2.06968E+01 1.27705E+00 4.24441E-04 8.34762E-01-1.76529E-13-2.48111E-13
 -1       622 2.09180E+01 7.58012E-01 5.03911E-04 1.33249E+00-9.24312E-14-3.58291E-13
 -1       623 2.11497E+01 1.46460E-01 3.52984E-04 1.49107E+00-5.46904E-15-3.49220E-13
 -1       624 2.12814E+01-3.54883E-01 4.37039E-04 1.35202E+00 7.20573E-14-3.26032E-13
 -1       625 2.12739E+01-6.45585E-01 7.22051E-05 1.03777E+00 7.89685E-14-4.22665E-13
 -1       626 2.11518E+01-7.29207E-01-3.04028E-04 6.73632E-01 4.90115E-14-4.32119E-13
 -1       627 2.09666E+01-6.66316E-01-3.58237E-04 3.44387E-01-2.12508E-14-3.26152E-13
 -1       628 2.07665E+01-5.28303E-01-2.92663E-04 8.92594E-02-6.14079E-14-1.99385E-13
 -1       629 2.05826E+01-3.70848E-01-2.24084E-04-8.49883E-02-3.09774E-14-9.49154E-14
 -1       630 2.04296E+01-2.27666E-01-1.49819E-04-1.88401E-01-9.16478E-14-5.49185E-14
 -1       631 2.03104E+01-1.14104E-01-8.41588E-05-2.37331E-01-7.51105E-15-1.16832E-13
 -1       632 2.02217E+01-3.31741E-02-3.60396E-05-2.48343E-01 1.66236E-13-1.65509E-13
 -1       633 2.01576E+01 1.87302E-02-4.49559E-06-2.35443E-01 4.77867E-14-9.23841E-14
 -1       634 2.01121E+01 4.78213E-02 1.37422E-05-2.09312E-01-5.54853E-14-7.23844E-14
 -1       635 2.00800E+01 6.05821E-02 2.27286E-05-1.77485E-01 1.08542E-13 4.22625E-14
 -1       636 2.00575E+01 6.26305E-02 2.54968E-05-1.44890E-01 1.76210E-13 1.12970E-13
 -1       637 2.00415E+01 5.83313E-02 2.45772E-05-1.14470E-01 5.50518E-14 8.86092E-14
 -1       638 2.00301E+01 5.08102E-02 2.16889E-05-8.77513E-02 2.04831E-14-2.37914E-14
 -1       639 2.00218E+01 4.21453E-02 1.80072E-05-6.53077E-02-1.65018E-13 5.27907E-14
 -1       640 2.00157E+01 3.36089E-02 1.42586E-05-4.71185E-02-1.59767E-14 1.35108E-13
 -1       641 2.00112E+01 2.58972E-02 1.08538E-05-3.28257E-02 5.99705E-14 2.67245E-13
 -1       642 2.00078E+01 1.93215E-02 7.97572E-06-2.19100E-02 2.33698E-13 2.39947E-13
 -1       643 2.00054E+01 1.39526E-02 5.65151E-06-1.38027E-02 4.28988E-14 6.04269E-14
 -1       644 2.00035E+01 9.72249E-03 3.83590E-06-7.95374E-03 1.02765E-13 8.68703E-15
 -1       645 2.00022E+01 6.49325E-03 2.45784E-06-3.86838E-03 3.51877E-13-2.25222E-14
 -1       646 2.00012E+01 4.10111E-03 1.45098E-06-1.12373E-03-7.03971E-14-2.86741E-13
 -1       647 2.00005E+01 2.38300E-03 7.44054E-07 6.28417E-04-2.02055E-13-2.27205E-13
 -1       648 2.00001E+01 1.19035E-03 2.69067E-07 1.66609E-03-1.92527E-13-1.08921E-13
 -1       649 1.99998E+01 3.95046E-04-3.27894E-08 2.20511E-03-1.28344E-14-1.57785E-13
 -1       650 1.99996E+01-1.09342E-04-2.10454E-07 2.40842E-03-1.33581E-13-2.88442E-13
 -1       651 1.99995E+01-4.08926E-04-3.06521E-07 2.39535E-03-1.43428E-13-3.46368E-13
 -1       652 1.99995E+01-5.72270E-04-3.58484E-07 2.25016E-03 3.21524E-13-2.00076E-13
 -1       653 1.99995E+01-6.53595E-04-3.71834E-07 2.02942E-03 2.30774E-13-3.18496E-13
 -1       654 1.99995E+01-6.95429E-04-3.47302E-07 1.76817E-03-1.74222E-13-5.12228E-13
 -1       655 1.99996E+01-7.30347E-04-5.22079E-07 1.48408E-03 9.97765E-14-3.03762E-13
 -1       656 2.90647E+01 5.81824E-01-1.07623E-01-1.53130E+00-4.53783E-13 2.73389E-13
 -1       657 1.74793E+01-1.44799E+00 1.16578E-01-5.14026E+00-3.10592E-13-3.99417E-13
 -1       658 2.50805E+01-4.32299E+00 2.17746E-02 3.97191E+00 2.83015E-13 1.35491E-13
 -1       659 1.85492E+01 1.37737E+00 3.87549E-03 2.89991E+00-6.81031E-15 8.37020E-14
 -1       660 1.91839E+01 1.36942E+00 1.54230E-03 2.24200E+00 1.12731E-14-1.57162E-13
 -1       661 1.96128E+01 1.15831E+00 1.34058E-03 1.74342E+00 1.41642E-14-8.06315E-14
 -1       662 1.98819E+01 9.09480E-01 1.20003E-03 1.33935E+00-1.80549E-13-8.13488E-14
 -1       663 2.00319E+01 6.85456E-01 9.70512E-04 1.01737E+00-1.37863E-13-2.10097E-14
 -1       664 2.01032E+01 5.05066E-01 7.22983E-04 7.65044E-01 7.17167E-15-7.61735E-14
 -1       665 2.01272E+01 3.67688E-01 5.17956E-04 5.70315E-01-1.22665E-13-8.14368E-14
 -1       666 2.01254E+01 2.66126E-01 3.68904E-04 4.21826E-01-5.27642E-14-3.61143E-13
 -1       667 2.01111E+01 1.92156E-01 2.51113E-04 3.09505E-01-5.12664E-14-2.50451E-13
 -1       668 2.00914E+01 1.36385E-01 1.78153E-04 2.21697E-01-7.79741E-14-2.58481E-13
 -1       669 2.00725E+01 9.83762E-02 1.22323E-04 1.59753E-01-3.34129E-13-3.26103E-13
 -1       670 2.00554E+01 7.08373E-02 8.55764E-05 1.13702E-01-1.32868E-13-4.69017E-13
 -1       671 2.00411E+01 5.08365E-02 6.00122E-05 7.96990E-02-2.02416E-14-5.46567E-13
 -1       672 2.00295E+01 3.62684E-02 4.20098E-05 5.47698E-02 3.59594E-14-2.27993E-13
 -1       673 2.00205E+01 2.56398E-02 2.91391E-05 3.66563E-02-2.29762E-13-2.25253E-13
 -1       674 2.00137E+01 1.78898E-02 1.91809E-05 2.36397E-02-5.55290E-13-3.59627E-13
 -1       675 2.00085E+01 1.20138E-02 1.38548E-05 1.40577E-02-2.74243E-13-7.67512E-14
 -1       676 2.00050E+01 8.00879E-03 8.30684E-06 7.79086E-03 5.02579E-15 6.09664E-14
 -1       677 2.00025E+01 5.14428E-03 5.31918E-06 3.55134E-03 7.46806E-14 3.19128E-13
 -1       678 2.00009E+01 3.12499E-03 3.10306E-06 7.82015E-04 8.41308E-14 2.78802E-13
 -1       679 1.99999E+01 1.72905E-03 1.61320E-06-9.38603E-04 2.26164E-13 8.64888E-14
 -1       680 1.99992E+01 7.89293E-04 6.26677E-07-1.92613E-03 1.82774E-13-1.60794E-13
 -1       681 1.99989E+01 1.79332E-04-3.09765E-08-2.41413E-03 2.29229E-14-7.40800E-14
 -1       682 1.99988E+01-1.96788E-04-4.03980E-07-2.57281E-03 2.95528E-13 1.66533E-13
 -1       683 1.99988E+01-4.19239E-04-5.39828E-07-2.51724E-03 1.78858E-13-9.03785E-14
 -1       684 1.99989E+01-5.24584E-04-7.09360E-07-2.33939E-03-3.78842E-14 2.16545E-14
 -1       685 1.99990E+01-5.69304E-04-6.90838E-07-2.09563E-03 3.15347E-13-1.85987E-13
 -1       686 1.99991E+01-5.86496E-04-7.15346E-07-1.81899E-03 5.28967E-13-3.79933E-13
 -1       687 1.99993E+01-6.03420E-04-8.67712E-07-1.52646E-03 2.49309E-13-2.91434E-13
 -1       688 1.99995E+01-6.94019E-04-7.32631E-07-1.31282E-03 2.16212E-14-1.83638E-14
 -1       689 2.00007E+01-1.60824E-03 4.14614E-07-2.13395E-04 2.85127E-13 1.14466E-13
 -1       690 1.99996E+01-7.55604E-04-7.20413E-07 1.28205E-03 3.22257E-14-3.15697E-13
 -1       691 2.00004E+01-1.38471E-03 1.94324E-07-1.00171E-03 4.66209E-14 1.88837E-14
 -1       692 2.00007E+01-1.60338E-03 3.81110E-07 2.35136E-04 1.24093E-13-1.41328E-13
 -1       693 2.00006E+01-1.53426E-03 3.60091E-07-6.41032E-04-3.13750E-14 1.79742E-13
 -1       694 1.76555E+01 9.02467E-01 2.96958E-02-3.78097E+00-4.48461E-14-2.59187E-13
 -1       695 9.68317E+00-7.38060E-01 1.51951E-01-5.21329E+00 4.55660E-13 8.16944E-13
 -1       696 2.00006E+01-1.52275E-03 2.48396E-07 6.51582E-04 1.35391E-13-3.24115E-13
 -1       697 2.00004E+01-1.36844E-03 2.36980E-07 1.00623E-03 1.58510E-13-4.10566E-14
 -1       698 2.00001E+01-1.15001E-03 2.82666E-07 1.24874E-03 2.77531E-13-1.27899E-13
 -1       699 2.12776E+01 1.06568E+00-6.12335E-04-1.26629E+00-2.43119E-13-4.47395E-13
 -1       700 7.70568E+00 7.94529E-01 1.71220E-01-1.31394E+00 6.55274E-14 8.57169E-13
 -1       701 2.79044E+01 4.97156E+00-1.29509E-01-2.01156E+00-6.65940E-13-4.50542E-14
 -1       702 8.36903E+00 9.62757E-01 1.74635E-01-1.65862E+00 9.77361E-14-9.63618E-13
 -1       703 1.79062E+01 8.55389E-01 1.93715E-02 3.66999E+00-4.09893E-13 2.12673E-13
 -1       704 1.75503E+01-7.70892E-01 7.40762E-02 4.70687E+00-6.51224E-13 2.64493E-14
 -1       705 1.46561E+01-2.72898E+00 1.15931E-01-6.90735E+00 7.03566E-13 4.05485E-13
 -1       706 2.14416E+01 3.58285E-01-1.08742E-03-1.10147E+00-2.29522E-13-3.70875E-13
 -1       707 1.62364E+01 3.71722E+00 1.02666E-03 1.58795E+00 4.91946E-13-5.04612E-13
 -1       708 7.80740E+00 1.05612E+00 1.59366E-01 2.70638E+00 4.12144E-13-9.56603E-13
 -1       709 2.84284E+01-2.42941E+00-4.01431E-02 4.76613E-01-1.17276E-13 2.57801E-13
 -1       710 1.22255E+01-1.39190E-01 1.49684E-01-4.29848E+00-1.45208E-13-7.88945E-13
 -1       711 1.24533E+01-9.32462E-01 1.36831E-01 6.38849E+00 6.38632E-13-5.89133E-13
 -1       712 2.08877E+01 1.23740E+00-1.52203E-03 4.18330E-02 5.94580E-14-5.32375E-13
 -1       713 2.86630E+01 2.19308E+00-1.03937E-01 1.99711E+00-2.87270E-13-7.92644E-13
 -1       714 1.83276E+01-3.29906E+00 6.47311E-02 6.77680E+00 5.75120E-13-2.10800E-13
 -1       715 2.80216E+01-2.26398E+00-5.50271E-02 1.65846E-01 1.17033E-13-8.43155E-13
 -1       716 2.74876E+01 5.32831E+00-1.39164E-01 1.73634E+00-5.27543E-13-6.89058E-13
 -1       717 2.08435E+01-4.17264E+00 8.67098E-02 5.11397E+00-6.82801E-13-1.52940E-13
 -1       718 2.12149E+01 1.09962E+00-1.02621E-03-6.35153E-01-5.68574E-14-5.17835E-13
 -1       719 1.93877E+01 1.84638E+00-1.85050E-03 1.56378E+00 3.01833E-13-5.42577E-13
 -1       720 2.00001E+01-1.16956E-03 4.08939E-07-1.25064E-03 3.07867E-13-1.17187E-13
 -1       721 2.53553E+01-4.59489E+00-2.91571E-03-3.30240E+00 5.81282E-13-4.89798E-13
 -1       722 1.99490E+01-4.22858E+00 6.35960E-02-6.28627E+00 7.16479E-13 3.38618E-14
 -1       723 1.99998E+01-9.44971E-04 3.40551E-08-1.34294E-03 1.21777E-13 1.39790E-13
 -1       724 1.99999E+01-9.46151E-04 1.48259E-09 1.40576E-03 1.06623E-13-4.42714E-13
 -1       725 2.03040E+01 1.45317E+00-1.58467E-03 8.17055E-01 1.86168E-13-5.37578E-13
 -1       726 1.41783E+01-1.96641E+00 1.23730E-01 5.31644E+00-7.08565E-13 2.24994E-13
 -1       727 1.05458E+01 2.33302E+00 9.85031E-02 4.00523E-01 3.15368E-13-7.93688E-13
 -1       728 1.57626E+01 3.34113E+00 1.33314E-02-2.56613E-01 3.72342E-13-4.44740E-13
 -1       729 1.11294E+01 9.49695E-01 9.17988E-02-3.02664E+00 2.87648E-13 5.67227E-13
 -1       730 2.23169E+01-4.18518E-01-4.54379E-04-1.22446E+00-1.22641E-13-2.38255E-13
 -1       731 2.23648E+01-6.35322E-02-1.74040E-03-1.48616E+00-1.39471E-13-1.81811E-13
 -1       732 2.21987E+01 6.65942E-01-2.45959E-03-1.53895E+00-2.09635E-13-1.97205E-13
 -1       733 2.18732E+01 1.56034E+00-2.69049E-04-1.18799E+00-2.10876E-13-1.46227E-13
 -1       734 2.15998E+01 2.14828E+00 2.67596E-03-4.03256E-01-2.12496E-13-1.96557E-13
 -1       735 2.15560E+01 2.14310E+00 1.32971E-03 5.61083E-01-2.66303E-13-2.57073E-13
 -1       736 2.17759E+01 1.50270E+00 5.52907E-04 1.33327E+00-1.43729E-13-2.37882E-13
 -1       737 2.20331E+01 5.51802E-01-1.94005E-03 1.64939E+00-2.10947E-14-2.56676E-13
 -1       738 2.21545E+01-3.16682E-01 1.41307E-04 1.51736E+00 3.16120E-14-3.88911E-13
 -1       739 2.20518E+01-8.62946E-01 4.38886E-04 1.12068E+00 6.69414E-15-4.11318E-13
 -1       740 2.17718E+01-1.06252E+00-2.99645E-04 6.58957E-01-1.49837E-16-4.13151E-13
 -1       741 2.14080E+01-1.00750E+00-2.82143E-04 2.59141E-01 1.31153E-13-3.71557E-13
 -1       742 2.10435E+01-8.16469E-01-9.85547E-05-2.99048E-02 1.27887E-13-2.38709E-13
 -1       743 2.07289E+01-5.84634E-01-8.69278E-05-2.10218E-01 8.37158E-14-1.08574E-13
 -1       744 2.04825E+01-3.67939E-01-6.61439E-05-3.03441E-01-1.27575E-14-4.70451E-14
 -1       745 2.03038E+01-1.93041E-01-3.38237E-05-3.35261E-01-2.25647E-14-6.74752E-14
 -1       746 2.01820E+01-6.62499E-02-1.08962E-05-3.28136E-01 6.57281E-14 3.90963E-14
 -1       747 2.01034E+01 1.68947E-02 1.72251E-06-2.98881E-01 1.42939E-13-7.81494E-14
 -1       748 2.00555E+01 6.51703E-02 6.59323E-06-2.59121E-01 4.03287E-14-2.99277E-14
 -1       749 2.00281E+01 8.80452E-02 8.50030E-06-2.16395E-01 1.68141E-13 1.26204E-13
 -1       750 2.00135E+01 9.38889E-02 8.41912E-06-1.75246E-01 5.49410E-14 6.26322E-14
 -1       751 2.00066E+01 8.93184E-02 7.54856E-06-1.38149E-01 1.00407E-13-2.08589E-14
 -1       752 2.00038E+01 7.91629E-02 6.27591E-06-1.06206E-01-6.27619E-14-3.32084E-14
 -1       753 2.00030E+01 6.67078E-02 4.90229E-06-7.96544E-02-3.95170E-14 2.90625E-14
 -1       754 2.00032E+01 5.40249E-02 3.61242E-06-5.82160E-02-9.46259E-14 1.66982E-13
 -1       755 2.00035E+01 4.22997E-02 2.54877E-06-4.13442E-02 9.88197E-14 1.09592E-13
 -1       756 2.00037E+01 3.21108E-02 1.77630E-06-2.83815E-02 1.20819E-13 1.29092E-13
 -1       757 2.00037E+01 2.36489E-02 1.25753E-06-1.86559E-02 3.78872E-14 1.46534E-14
 -1       758 2.00036E+01 1.68718E-02 8.83271E-07-1.15366E-02-2.18142E-14 6.34200E-14
 -1       759 2.00033E+01 1.16114E-02 5.64636E-07-6.46343E-03 3.13407E-14-1.77429E-13
 -1       760 2.00029E+01 7.64431E-03 3.13765E-07-2.96016E-03-3.62206E-15-2.60021E-13
 -1       761 2.00025E+01 4.73695E-03 1.36893E-07-6.34290E-04-1.67424E-13-4.14479E-13
 -1       762 2.00020E+01 2.67014E-03 2.29298E-08 8.29587E-04-1.41582E-13-3.63531E-13
 -1       763 2.00016E+01 1.25059E-03-4.49504E-08 1.67888E-03 2.04529E-14-9.34808E-14
 -1       764 2.00012E+01 3.14915E-04-7.86842E-08 2.10297E-03 2.46284E-14 3.14979E-13
 -1       765 2.00009E+01-2.70727E-04-8.97183E-08 2.24313E-03-1.06236E-13 3.11444E-13
 -1       766 2.00006E+01-6.13649E-04-9.90499E-08 2.20189E-03 9.99519E-14 3.05369E-13
 -1       767 2.00004E+01-7.98767E-04-9.64413E-08 2.05081E-03 9.36817E-14-1.26587E-13
 -1       768 2.00002E+01-8.92364E-04 6.81777E-08 1.83769E-03-1.52561E-13-3.02538E-13
 -1       769 2.00000E+01-9.22869E-04-3.47554E-07 1.63154E-03 5.07471E-14-3.02769E-13
 -1       770 2.19759E+01-3.01503E+00 2.35706E-02 4.51205E+00 4.08961E-13-8.49310E-14
 -1       771 2.51567E+01 4.72407E+00-7.09192E-02-1.26533E+00-5.03793E-13-1.30072E-13
 -1       772 1.76512E+01-2.31175E+00 4.67446E-02-5.57857E+00 6.66720E-13 9.44965E-14
 -1       773 1.69777E+01 1.86052E+00 3.26422E-03 1.71712E+00 2.30898E-13 4.22184E-14
 -1       774 1.92767E+01 1.02368E+00 2.27143E-04 9.33004E-01-1.63107E-13-2.75581E-13
 -1       775 1.95819E+01 7.77028E-01 1.84868E-04 7.44853E-01-2.44825E-14-1.74190E-13
 -1       776 1.97712E+01 5.80858E-01 1.36447E-04 5.85228E-01-7.75924E-14-1.57245E-13
 -1       777 1.98850E+01 4.30342E-01 1.04372E-04 4.53149E-01-5.85205E-15-2.77578E-14
 -1       778 1.99508E+01 3.17148E-01 6.92918E-05 3.46004E-01-5.76381E-14-9.60199E-14
 -1       779 1.99882E+01 2.29503E-01 4.68159E-05 2.57226E-01 4.73567E-14-2.34950E-13
 -1       780 2.00059E+01 1.68337E-01 3.75555E-05 1.91413E-01 8.49838E-14-3.07104E-13
 -1       781 2.00137E+01 1.23121E-01 2.53177E-05 1.40417E-01-1.65986E-13-5.60491E-13
 -1       782 2.00159E+01 8.97082E-02 1.80166E-05 1.01411E-01-1.70622E-14-6.18029E-13
 -1       783 2.00154E+01 6.49897E-02 1.28433E-05 7.19124E-02-1.14733E-13-3.41020E-13
 -1       784 2.00135E+01 4.66976E-02 9.22162E-06 4.98662E-02-5.19402E-14-2.90915E-13
 -1       785 2.00112E+01 3.31738E-02 5.56257E-06 3.35901E-02-3.00092E-13-1.49072E-13
 -1       786 2.00088E+01 2.27832E-02 4.55712E-06 2.12809E-02-5.03910E-13-4.47767E-13
 -1       787 2.00068E+01 1.55991E-02 2.57894E-06 1.29965E-02-2.79187E-13-4.79900E-13
 -1       788 2.00051E+01 1.03803E-02 1.69075E-06 7.20690E-03-2.44205E-13-1.80664E-13
 -1       789 2.00037E+01 6.63774E-03 1.01361E-06 3.27275E-03 2.85639E-14-2.27306E-13
 -1       790 2.00027E+01 3.99672E-03 5.53628E-07 6.94161E-04 3.40307E-13-1.99222E-13
 -1       791 2.00018E+01 2.17248E-03 2.44020E-07-9.11708E-04 1.23545E-13 1.66438E-13
 -1       792 2.00012E+01 9.47745E-04 2.14759E-08-1.83462E-03-6.79899E-14 1.56935E-13
 -1       793 2.00007E+01 1.56089E-04-1.19621E-07-2.29093E-03 9.69283E-14-1.40515E-13
 -1       794 2.00004E+01-3.46950E-04-1.05455E-07-2.43943E-03 3.79267E-13-2.18764E-13
 -1       795 2.00001E+01-6.14000E-04-2.38302E-07-2.38312E-03 3.58878E-14-3.42700E-15
 -1       796 2.00000E+01-7.50194E-04-2.13550E-07-2.21318E-03 3.38353E-13-3.49653E-13
 -1       797 1.99999E+01-8.10808E-04-1.36592E-07-1.97964E-03 4.52506E-13-3.27552E-13
 -1       798 1.99998E+01-8.41661E-04-1.11006E-07-1.71318E-03 8.59174E-14 2.10252E-13
 -1       799 1.99998E+01-8.88121E-04 1.31813E-08-1.52941E-03 1.59914E-13 2.19973E-13
 -1       800 1.66987E+01 2.76781E+00 4.86115E-03-1.51226E+00 2.81793E-13-3.06263E-13
 -1       801 1.76135E+01 1.84377E+00-3.27563E-03 2.89375E+00 4.35594E-13-4.72884E-13
 -1       802 2.57056E+01-3.21809E+00-9.42876E-03-7.30092E-01 3.15997E-13-6.44466E-13
 -1       803 2.00012E+01-1.52624E-03 1.62972E-07 1.62545E-05-7.67830E-14 3.21636E-14
 -1       804 2.00005E+01-1.20126E-03 3.02764E-07 1.32661E-03 1.15866E-13 1.98395E-14
 -1       805 2.00011E+01-1.48563E-03 6.49444E-08 5.14919E-04-2.40741E-13-3.14031E-13
 -1       806 1.54279E+01 1.89141E+00 2.02818E-02 2.19631E+00-7.29124E-14 2.70743E-14
 -1       807 2.62350E+01 2.85559E+00-6.50167E-02 2.15686E+00-3.06907E-13-7.57880E-13
 -1       808 2.00009E+01-1.37583E-03 7.07184E-08 9.70380E-04 7.22474E-15 1.74205E-14
 -1       809 1.87994E+01 1.31479E+00 2.80111E-04 1.15008E+00 1.94068E-14-1.72543E-13
 -1       810 1.80752E+01 1.61901E+00 3.80367E-04 1.40232E+00-1.68977E-14-1.45285E-13
 -1       811 2.66683E+01 2.02192E+00-6.07601E-02-2.20732E+00-4.00267E-13 6.15064E-14
 -1       812 2.20881E+01-3.32137E-01-2.44612E-03-9.84318E-01-1.49838E-13-2.49868E-13
 -1       813 2.73368E+01-1.01751E+00-4.24621E-02-1.07671E+00-1.76755E-13 1.83733E-13
 -1       814 2.67903E+01-5.62861E-01-3.27565E-02 1.53395E+00-6.13017E-14-8.23691E-13
 -1       815 1.63918E+01-1.20594E+00 5.65097E-02 5.95081E+00 6.22816E-13-3.74216E-13
 -1       816 2.61342E+01-3.07012E+00-2.16584E-03 1.22726E+00 9.80945E-14 1.30341E-13
 -1       817 1.37742E+01-5.98709E-01 7.33928E-02-5.08131E+00 6.30608E-13 3.32370E-13
 -1       818 1.50061E+01 2.07257E+00 4.19668E-02-2.46828E+00 1.46464E-13-4.56437E-13
 -1       819 2.47432E+01 4.49977E+00-6.11901E-02 1.14940E+00-2.98771E-13-4.35586E-13
 -1       820 1.40712E+01 5.73459E-01 9.38397E-02 3.79943E+00-6.52303E-13 2.26912E-13
 -1       821 1.06539E+01 1.63599E+00 8.65408E-02 6.26514E-01-1.88510E-13 4.68209E-13
 -1       822 2.23964E+01-3.70260E+00 1.40850E-02-3.98399E+00 6.34856E-13-2.03402E-13
 -1       823 1.16523E+01 1.32451E+00 7.70532E-02 4.10226E+00 5.52875E-13-6.54393E-13
 -1       824 1.93385E+01 1.01086E+00 1.68598E-03 2.44222E+00 3.47161E-13-4.57058E-13
 -1       825 1.51011E+01 3.41990E+00 7.93328E-03 1.36667E+00 4.55658E-13-5.23008E-13
 -1       826 2.00005E+01-1.23058E-03-3.66521E-07-1.32303E-03 6.91843E-14-4.07377E-13
 -1       827 1.21015E+01 1.87130E+00 8.49876E-02-2.14537E+00 1.15897E-13-6.75075E-13
 -1       828 2.36039E+01 4.13242E+00-2.32597E-02-4.42734E-02-3.20055E-13-2.76556E-13
 -1       829 2.00009E+01-1.39859E-03 1.59237E-07-9.56287E-04-1.07657E-13 2.34568E-13
 -1       830 2.00011E+01-1.49772E-03 2.15807E-07-4.92529E-04-2.53613E-13 4.09490E-13
 -1       831 1.59600E+01 2.79990E+00 6.61272E-03 2.56694E+00 4.82163E-13-5.04969E-13
 -1       832 2.18076E+01 8.19381E-02 3.70901E-03-8.65391E-01-1.46773E-13-3.24764E-13
 -1       833 2.13885E+01 3.13318E-01-6.74576E-04 5.62904E-01 1.11257E-13-4.22270E-13
 -1       834 2.16577E+01 2.87936E-01-5.20521E-03-2.43298E-01-1.85052E-14-4.10216E-13
 -1       835 2.00003E+01-1.06651E-03-4.23471E-07 1.50131E-03-2.47681E-14-1.04838E-13
 -1       836 2.34269E+01-2.99890E+00-6.13152E-03-1.77303E+00 3.43014E-13-4.22687E-13
 -1       837 1.97274E+01-2.05203E+00 1.39611E-02-3.96696E+00 4.08675E-13-1.06074E-13
 -1       838 2.34103E+01 1.58255E-01 1.78029E-03-1.65517E+00-1.49245E-13-1.40386E-13
 -1       839 2.32334E+01 1.39935E+00-1.13285E-02-1.76957E+00-2.26326E-13-1.41743E-13
 -1       840 2.28067E+01 2.64176E+00-8.66729E-03-1.13295E+00-2.57443E-13-1.46651E-13
 -1       841 2.30443E+01 1.26836E+00-1.48579E-02 1.80525E+00-1.34458E-13-3.36930E-13
 -1       842 2.32008E+01-1.30251E-01-4.33258E-03 1.68921E+00-4.36791E-14-3.98520E-13
 -1       843 2.30262E+01-1.07231E+00 1.47507E-03 1.15993E+00 3.74310E-14-3.85910E-13
 -1       844 2.25495E+01-1.45535E+00-7.36090E-04 5.36340E-01 4.09610E-14-3.47117E-13
 -1       845 2.19457E+01-1.41473E+00-8.44547E-04 3.19467E-02 6.30593E-14-3.09594E-13
 -1       846 2.13671E+01-1.15076E+00 3.55768E-04-2.90641E-01 2.29229E-13-3.80858E-13
 -1       847 2.08892E+01-8.25772E-01 8.13474E-07-4.52403E-01 1.62906E-13-2.26034E-13
 -1       848 2.05303E+01-5.20024E-01-7.21123E-05-5.05075E-01 8.04078E-14-1.40526E-13
 -1       849 2.02825E+01-2.74065E-01-3.72640E-05-4.91006E-01 2.94532E-14-4.91442E-14
 -1       850 2.01237E+01-9.61179E-02-5.41102E-06-4.42534E-01 1.70511E-13-5.61383E-14
 -1       851 2.00300E+01 2.08560E-02 9.77246E-06-3.80024E-01 4.49684E-14-1.94413E-14
 -1       852 1.99805E+01 8.93652E-02 8.22684E-06-3.15356E-01 8.99968E-14 5.23374E-14
 -1       853 1.99592E+01 1.22552E-01 6.27680E-06-2.54893E-01 1.25658E-13 3.34132E-14
 -1       854 1.99546E+01 1.31941E-01 4.06500E-06-2.01567E-01 1.25305E-13 3.69735E-14
 -1       855 1.99587E+01 1.26611E-01 2.93126E-06-1.56312E-01 8.30695E-14 1.02129E-13
 -1       856 1.99665E+01 1.13207E-01 1.94515E-06-1.18979E-01 4.43612E-14 3.08455E-14
 -1       857 1.99752E+01 9.62918E-02 1.21234E-06-8.88704E-02-3.02361E-14 5.35244E-14
 -1       858 1.99832E+01 7.87822E-02 4.94193E-07-6.50559E-02 5.35133E-14 5.20099E-14
 -1       859 1.99899E+01 6.23858E-02-1.28330E-07-4.65531E-02-6.93971E-14 9.16194E-14
 -1       860 1.99950E+01 4.79692E-02-3.87599E-07-3.24261E-02 1.29612E-13-4.16767E-16
 -1       861 1.99986E+01 3.58555E-02-2.44049E-07-2.18358E-02-8.84710E-14-1.12720E-13
 -1       862 2.00010E+01 2.60375E-02-1.61552E-08-1.40497E-02 1.43163E-13-2.11078E-13
 -1       863 2.00025E+01 1.83209E-02 3.46901E-08-8.44732E-03-7.15151E-14-3.07827E-13
 -1       864 2.00032E+01 1.24207E-02-1.84880E-08-4.51655E-03 3.53363E-15-3.70123E-13
 -1       865 2.00035E+01 8.02796E-03-6.65638E-08-1.84395E-03-7.81017E-14-3.90036E-13
 -1       866 2.00034E+01 4.84734E-03-8.23113E-08-1.00023E-04-1.55812E-13-2.91210E-13
 -1       867 2.00031E+01 2.61356E-03-8.06203E-08 9.73615E-04-1.57648E-14-3.55436E-13
 -1       868 2.00027E+01 1.09916E-03-7.05459E-08 1.57546E-03 2.90335E-13-2.16840E-13
 -1       869 2.00022E+01 1.15599E-04-4.77874E-08 1.85485E-03 1.42983E-13-1.26222E-13
 -1       870 2.00017E+01-4.89347E-04-1.20406E-08 1.92164E-03 1.04746E-13 4.57150E-14
 -1       871 2.00013E+01-8.36544E-04-7.86464E-08 1.85483E-03 2.41552E-14 1.90846E-13
 -1       872 2.00009E+01-1.02472E-03-6.21364E-07 1.70735E-03-1.20524E-14 3.49545E-13
 -1       873 1.27898E+01 1.84961E+00 3.01136E-02-8.50984E-01 1.38096E-13 3.07063E-13
 -1       874 1.90306E+01 9.99902E-01 1.14369E-05 5.17235E-01-1.60663E-13-3.61548E-13
 -1       875 1.97499E+01 4.45809E-01-2.30686E-05 3.14821E-01 9.15071E-14-3.26306E-13
 -1       876 1.98505E+01 3.30546E-01-1.60356E-06 2.48140E-01 3.31955E-13-5.07543E-13
 -1       877 1.99112E+01 2.47435E-01 7.72701E-06 1.93352E-01 6.09873E-14-4.84252E-13
 -1       878 1.99495E+01 1.84365E-01 2.07996E-06 1.47577E-01-2.43903E-14-2.87330E-13
 -1       879 1.99734E+01 1.36666E-01 1.29394E-06 1.10435E-01-4.98242E-14-1.64768E-13
 -1       880 1.99879E+01 1.00653E-01 1.02025E-06 8.09745E-02-1.95823E-13-6.24744E-14
 -1       881 1.99965E+01 7.35173E-02 1.24100E-06 5.80678E-02-2.94589E-14-8.52561E-14
 -1       882 2.00013E+01 5.31211E-02 1.68359E-07 4.05640E-02-2.09119E-13 4.15779E-14
 -1       883 2.00039E+01 3.72078E-02 5.13072E-07 2.69050E-02-3.13397E-13-1.01978E-13
 -1       884 2.00049E+01 2.60335E-02 3.95749E-07 1.74354E-02-3.36793E-13-1.29564E-13
 -1       885 2.00051E+01 1.77923E-02 2.20611E-07 1.06171E-02-2.22921E-13-2.43498E-13
 -1       886 2.00048E+01 1.17877E-02 1.07145E-07 5.83132E-03-7.33177E-15-4.58534E-13
 -1       887 2.00043E+01 7.47460E-03 6.28618E-08 2.57044E-03-3.82293E-14-1.28618E-13
 -1       888 2.00037E+01 4.43290E-03 2.94551E-08 4.32841E-04-1.27546E-13-4.12158E-14
 -1       889 2.00031E+01 2.33800E-03 1.21856E-09-8.94742E-04 6.93868E-14 1.86653E-13
 -1       890 2.00025E+01 9.38207E-04-5.34761E-08-1.65284E-03 1.68236E-13 1.08579E-14
 -1       891 2.00019E+01 6.61726E-06 2.54643E-08-2.03043E-03 4.72128E-13-3.50891E-13
 -1       892 2.00015E+01-5.22625E-04-1.17208E-07-2.12891E-03 4.91252E-14-5.21151E-13
 -1       893 2.00011E+01-8.19222E-04-1.55452E-08-2.06879E-03 1.45606E-13-3.59728E-13
 -1       894 2.00007E+01-9.69655E-04-5.49427E-08-1.91564E-03 2.30558E-13 6.90395E-14
 -1       895 2.00004E+01-1.04388E-03-2.54057E-07-1.70879E-03 3.44166E-13 1.52226E-13
 -1       896 2.57407E+01-1.69111E+00-5.85010E-03-5.44599E-01-4.29932E-14 4.80900E-14
 -1       897 2.00002E+01-1.07229E-03-1.50631E-07-1.47542E-03 1.48087E-13 2.14248E-14
 -1       898 2.00016E+01-1.42145E-03 2.09147E-07 3.05337E-04-1.56802E-13-5.44372E-13
 -1       899 2.55257E+01 2.17784E-01-2.41358E-02-1.82075E+00-2.05912E-13 6.22549E-14
 -1       900 1.50551E+01 2.01833E+00 1.34267E-02 3.57965E-01 1.93940E-13 7.55537E-15
 -1       901 1.42800E+01 3.16593E+00 3.37833E-02-2.10998E-01 3.62672E-13-5.54150E-13
 -1       902 1.85213E+01 1.26962E+00 6.32095E-05 5.55513E-01-5.00989E-14-2.55151E-13
 -1       903 2.06507E+01 5.03868E-01-1.20201E-03 1.53668E+00 2.43146E-13-4.38049E-13
 -1       904 1.77739E+01 1.56575E+00 6.26531E-04 5.50888E-01 1.30513E-13-2.07312E-13
 -1       905 1.66602E+01 1.86804E+00 4.31305E-03 4.94344E-01 1.93015E-13-6.71247E-14
 -1       906 1.93730E+01 7.72690E-01-4.08993E-06 4.55511E-01-1.18522E-13-1.49892E-13
 -1       907 2.28050E+01-7.09199E-01 6.20492E-04-7.53107E-01-1.21691E-13-2.51117E-13
 -1       908 2.37512E+01-2.44435E+00 3.15902E-03 1.95723E+00 2.00446E-13-7.47139E-14
 -1       909 2.32607E+01-6.46763E-01-7.59643E-04-1.20248E+00-6.94278E-14-1.99514E-13
 -1       910 1.50966E+01 8.87069E-01 3.10023E-02 4.46619E+00 5.45628E-13-4.88097E-13
 -1       911 2.50005E+01 8.78393E-01-1.94556E-02 2.00913E+00-1.69347E-13-5.43473E-13
 -1       912 2.44683E+01 2.62993E+00-2.46148E-02-1.85793E+00-2.98260E-13-2.83766E-14
 -1       913 2.38760E+01 2.66415E+00-2.19050E-02 1.72211E+00-2.40333E-13-3.33346E-13
 -1       914 1.96004E+01 5.89608E-01 8.03451E-06 3.84763E-01-5.31691E-14-1.69248E-13
 -1       915 1.28715E+01 2.72427E+00 3.35938E-02 1.97316E+00 4.51136E-13-6.07644E-13
 -1       916 1.90706E+01-9.16948E-01 2.24368E-02 4.48945E+00 4.80121E-13-2.97443E-13
 -1       917 2.49726E+01-1.48949E+00-1.48188E-02 1.03979E+00 7.59189E-14-5.68778E-13
 -1       918 1.26670E+01 2.82463E+00 6.13254E-02 1.20430E-03 3.30639E-13-6.45338E-13
 -1       919 2.16266E+01-2.30574E+00 3.97143E-03-2.48952E+00 3.07119E-13-1.36729E-13
 -1       920 2.20545E+01-6.17630E-01 3.21778E-03 1.08320E+00 1.64189E-13-2.90272E-13
 -1       921 2.30388E+01 2.73827E+00-1.30739E-02 1.31984E+00-1.89931E-13-2.68841E-13
 -1       922 2.23557E+01-4.98158E-01 7.48973E-04 3.53337E-02 1.45948E-14-3.20405E-13
 -1       923 1.40436E+01 9.41295E-01 3.19759E-02-2.94968E+00 4.63263E-13 1.43708E-13
 -1       924 2.00006E+01-1.05862E-03-2.57871E-07 1.62029E-03-1.23796E-13 7.29311E-14
 -1       925 2.00014E+01-1.35490E-03-2.60619E-07 8.49882E-04-2.43502E-13-7.78879E-14
 -1       926 2.00016E+01-1.43130E-03-2.46645E-07-2.67070E-04-2.50911E-13 3.59529E-13
 -1       927 2.00011E+01-1.26299E-03-3.13244E-07-1.29960E-03 3.72541E-13-3.46168E-13
 -1       928 1.91432E+01 1.02432E-01 2.16162E-02 3.44937E+00 4.35212E-13-3.94866E-13
 -1       929 2.38647E+01-2.27939E+00 2.13259E-04-4.99214E-02 1.63301E-13-3.75906E-13
 -1       930 1.71978E+01-9.64495E-01 1.65658E-02-4.32967E+00 5.54761E-13 2.47964E-13
 -1       931 2.16318E+01-1.34364E+00-2.07073E-03 2.79404E+00 3.09684E-13-2.63746E-13
 -1       932 2.00010E+01-1.21000E-03 9.42295E-07 1.34156E-03-3.50091E-13 2.62581E-15
 -1       933 1.85885E+01 1.09059E+00 9.20231E-05 8.93266E-02 1.39314E-14-6.42604E-14
 -1       934 2.32881E+01-1.26344E+00 9.15944E-04 2.40022E-01 4.12809E-14-1.63674E-13
 -1       935 1.51046E+01 1.64526E+00 9.41013E-03-1.23818E+00 3.60461E-13-4.88349E-14
 -1       936 2.16576E+01-1.52606E+00-1.38857E-03-7.46572E-01 1.82367E-13-9.42074E-14
 -1       937 2.09984E+01-1.07539E+00 2.40839E-04-8.46498E-01 3.15628E-13-3.31644E-14
 -1       938 2.05175E+01-6.59083E-01-3.36315E-04-8.17912E-01 2.19415E-13 2.39620E-14
 -1       939 2.02059E+01-3.33865E-01-1.20727E-04-7.19417E-01 1.17964E-13 1.36218E-13
 -1       940 2.00192E+01-1.03759E-01-2.23203E-05-5.99894E-01 1.20055E-13 2.32410E-13
 -1       941 1.99199E+01 4.45594E-02 2.87787E-05-4.82977E-01 1.00530E-13 2.11030E-13
 -1       942 1.98771E+01 1.29823E-01 1.77622E-05-3.79430E-01 9.53860E-14 1.17153E-13
 -1       943 1.98687E+01 1.69875E-01 2.65161E-06-2.92703E-01 1.30834E-13 1.53368E-13
 -1       944 1.98790E+01 1.79929E-01-5.43339E-06-2.22591E-01 6.19548E-14 1.04768E-13
 -1       945 1.98979E+01 1.71603E-01-5.28561E-06-1.67182E-01 9.83557E-14-1.19109E-13
 -1       946 1.99193E+01 1.53269E-01-4.30837E-06-1.24094E-01 6.42037E-14-5.00542E-14
 -1       947 1.99396E+01 1.30638E-01-3.54939E-06-9.09891E-02-1.12371E-15-1.29362E-13
 -1       948 1.99571E+01 1.07360E-01-2.45045E-06-6.58048E-02-6.84530E-14-8.40844E-14
 -1       949 1.99714E+01 8.55657E-02-2.11203E-06-4.68221E-02 2.92362E-14-1.50016E-14
 -1       950 1.99824E+01 6.63542E-02-1.61489E-06-3.26502E-02 8.68440E-15 1.51766E-13
 -1       951 1.99905E+01 5.01182E-02-1.41687E-06-2.21867E-02-1.21885E-14 1.68823E-14
 -1       952 1.99962E+01 3.68720E-02-5.14256E-07-1.45582E-02-1.57093E-13-5.98035E-14
 -1       953 1.99999E+01 2.63743E-02-1.18787E-07-9.08449E-03 6.30216E-14-3.01133E-13
 -1       954 2.00022E+01 1.82691E-02-2.08161E-07-5.22675E-03 6.25473E-15-1.87042E-13
 -1       955 2.00035E+01 1.21621E-02-2.19421E-07-2.57503E-03-9.68157E-14-9.09161E-14
 -1       956 2.00040E+01 7.67767E-03-1.72541E-07-8.11173E-04-1.82314E-13-3.34846E-13
 -1       957 2.00040E+01 4.47417E-03-1.16372E-07 3.11334E-04-7.91089E-14-3.00406E-13
 -1       958 2.00038E+01 2.25574E-03-7.08958E-08 9.79231E-04 2.01565E-13-1.01511E-13
 -1       959 2.00033E+01 7.75094E-04-3.68706E-08 1.33249E-03 1.84166E-13-2.74295E-13
 -1       960 2.00028E+01-1.69169E-04-1.59160E-08 1.47412E-03 1.12483E-13-4.47630E-13
 -1       961 2.00022E+01-7.36952E-04-1.28670E-08 1.47941E-03 2.73569E-13-3.01409E-13
 -1       962 2.00017E+01-1.05801E-03-3.11009E-08 1.40188E-03 5.90914E-14-5.31847E-14
 -1       963 1.96998E+01 4.22936E-01 1.24856E-05 1.84981E-01 1.17532E-13-5.12750E-13
 -1       964 1.99191E+01 1.86132E-01-1.05789E-05 1.00820E-01-1.51487E-13-9.11086E-14
 -1       965 1.99505E+01 1.39672E-01-8.22233E-06 7.72863E-02-2.14055E-14-2.34846E-13
 -1       966 1.99714E+01 1.03823E-01-5.40489E-06 5.76580E-02-1.75559E-13-6.98119E-15
 -1       967 1.99850E+01 7.63183E-02-4.16572E-06 4.18248E-02-8.05982E-14 4.67703E-16
 -1       968 1.99941E+01 5.44656E-02-1.91765E-06 2.89069E-02-1.91562E-13-1.04682E-13
 -1       969 1.99993E+01 3.88459E-02-1.34019E-07 1.96078E-02-2.29235E-13-1.91065E-13
 -1       970 2.00024E+01 2.71368E-02-5.33997E-07 1.26857E-02-9.56956E-14-4.19583E-13
 -1       971 2.00040E+01 1.84725E-02-6.50119E-07 7.66621E-03-2.35205E-13-4.34413E-13
 -1       972 2.00046E+01 1.21445E-02-4.14406E-07 4.12778E-03-7.35236E-14-5.35351E-13
 -1       973 2.00047E+01 7.60001E-03-2.19389E-07 1.71579E-03 2.04317E-14-5.73182E-13
 -1       974 2.00044E+01 4.40418E-03-5.29386E-08 1.39237E-04-1.46721E-13-4.13186E-13
 -1       975 2.00039E+01 2.21345E-03-1.48960E-08-8.33828E-04 1.39564E-14-3.48630E-13
 -1       976 2.00033E+01 7.05954E-04 1.09547E-07-1.39804E-03 3.79302E-13-2.62090E-13
 -1       977 2.00027E+01-1.90293E-04 2.06591E-08-1.64041E-03 3.21440E-13-1.36474E-14
 -1       978 2.00021E+01-7.26183E-04-7.49108E-08-1.69551E-03 4.82008E-14-1.24325E-13
 -1       979 2.00016E+01-1.02053E-03 4.39070E-07-1.63503E-03 1.04308E-13-3.80775E-13
 -1       980 2.00013E+01-1.16395E-03 4.99124E-07-1.47546E-03 2.83051E-13-5.53835E-13
 -1       981 1.98724E+01 2.46018E-01-1.10064E-05 1.27780E-01-3.12115E-14-7.37072E-14
 -1       982 2.45995E+01-7.24846E-01-1.12163E-02-1.33411E+00-9.81278E-14-3.02052E-14
 -1       983 1.98036E+01 3.22696E-01-1.26320E-05 1.56708E-01 7.83200E-14-1.21527E-13
 -1       984 1.79742E+01 1.31034E+00 5.08690E-04-8.98377E-02 8.47155E-14 7.86192E-14
 -1       985 1.90248E+01 8.83486E-01-1.70717E-05 1.77398E-01-1.74245E-13-1.71987E-13
 -1       986 2.36681E+01-1.22745E+00 1.15661E-02-3.70566E-01-4.92510E-15-1.18349E-13
 -1       987 2.00014E+01-1.37794E-03 1.50356E-07-8.17764E-04-9.24475E-14-6.14888E-14
 -1       988 2.40508E+01-1.67792E+00-1.91911E-02 1.22704E-01 2.41381E-14-9.09715E-14
 -1       989 1.96697E+01-1.25560E+00 9.17983E-05-2.90607E+00 3.56507E-13 1.01653E-14
 -1       990 1.80852E+01-4.12787E-01 7.33986E-03-3.06574E+00 3.91762E-13 2.43180E-13
 -1       991 1.60931E+01 6.99888E-01 1.10575E-02-2.63741E+00 4.33115E-13 2.05863E-13
 -1       992 1.95519E+01 5.46134E-01-2.66152E-05 2.05019E-01 1.63445E-13-4.94875E-13
 -1       993 1.71235E+01 1.51086E+00-1.37244E-04-3.99696E-01 1.49515E-13 1.35595E-14
 -1       994 2.25821E+01-1.99504E+00 1.22363E-03-5.44456E-01 7.04265E-14-1.94151E-13
 -1       995 2.00018E+01-1.25831E-03 3.13487E-07-9.67256E-04 4.33105E-14-5.25650E-13
 -1       996 2.00020E+01-1.25383E-03-7.65099E-07 6.40692E-04 1.24274E-13-4.03540E-13
 -1       997 2.00022E+01-1.28968E-03 2.14530E-07 2.97031E-05-1.49342E-13 2.38877E-14
 -1       998 2.23902E+01-2.29045E+00 3.34111E-03-1.46612E+00 2.13280E-13-1.79397E-13
 -1       999 1.93325E+01 7.01735E-01-3.76403E-05 2.08103E-01 5.07004E-14-4.10825E-13
 -1      1000 1.65097E+01 1.21101E+00-3.25499E-03-1.49476E+00 1.87327E-13 8.40907E-15
 -1      1001 1.99418E+01 1.34138E-01-2.83436E-05 4.59408E-02-4.05912E-13-5.87523E-14
 -1      1002 1.88261E+01 8.58136E-01-1.21487E-04-2.11392E-01 1.30739E-13 1.09527E-13
 -1      1003 2.03578E+01-7.44775E-01 1.61401E-05-1.25660E+00 2.28855E-13-7.45805E-14
 -1      1004 2.00114E+01-3.37958E-01-4.56556E-04-1.02492E+00 2.65986E-13-2.23317E-14
 -1      1005 1.98287E+01-6.33271E-02 3.43286E-05-7.98436E-01 2.03291E-13 9.68174E-14
 -1      1006 1.97482E+01 1.07023E-01 1.54281E-04-6.03678E-01 1.34580E-13 2.24478E-13
 -1      1007 1.97313E+01 1.99222E-01 5.99182E-05-4.46865E-01-5.46042E-14 1.34493E-13
 -1      1008 1.97493E+01 2.38219E-01 1.43043E-05-3.25559E-01 9.28911E-15 1.30690E-13
 -1      1009 1.97841E+01 2.42486E-01-3.19133E-05-2.34631E-01 5.81270E-14 2.15211E-14
 -1      1010 1.98242E+01 2.26591E-01-3.11498E-05-1.67618E-01-1.18504E-13-7.22623E-14
 -1      1011 1.98631E+01 2.00097E-01-2.32813E-05-1.18925E-01 8.05484E-14-2.51833E-13
 -1      1012 1.98977E+01 1.69609E-01-2.05850E-05-8.38094E-02 1.24546E-14-2.02162E-13
 -1      1013 1.99265E+01 1.39170E-01-1.72772E-05-5.86284E-02-1.00918E-13-1.29540E-13
 -1      1014 1.99495E+01 1.11063E-01-1.16481E-05-4.06102E-02 1.75769E-13-1.00504E-15
 -1      1015 1.99672E+01 8.64522E-02-9.25111E-06-2.77886E-02 8.64571E-14-4.11295E-15
 -1      1016 1.99803E+01 6.57151E-02-6.27005E-06-1.86411E-02-1.63415E-13-7.16292E-14
 -1      1017 1.99896E+01 4.88200E-02 7.22261E-07-1.22194E-02-1.74625E-13-1.02791E-13
 -1      1018 1.99960E+01 3.53046E-02-3.14209E-06-7.70422E-03-2.89773E-13-1.52157E-13
 -1      1019 2.00002E+01 2.48542E-02-3.96081E-06-4.55635E-03 1.05066E-13-1.49473E-13
 -1      1020 2.00027E+01 1.69000E-02-2.61241E-06-2.41300E-03 6.37518E-14-1.92307E-13
 -1      1021 2.00040E+01 1.10007E-02-1.88923E-06-9.89460E-04-2.61622E-13-1.66529E-13
 -1      1022 2.00045E+01 6.73300E-03-1.26593E-06-7.34401E-05 2.36936E-14 1.81055E-14
 -1      1023 2.00045E+01 3.72949E-03-8.36408E-07 4.85972E-04 9.31634E-14 1.09278E-13
 -1      1024 2.00042E+01 1.68331E-03-5.03373E-07 7.99098E-04 5.08612E-14-1.40536E-13
 -1      1025 2.00037E+01 3.43546E-04-2.89415E-07 9.46069E-04 4.95196E-15-2.45988E-13
 -1      1026 2.00031E+01-4.87338E-04 6.57869E-07 9.82917E-04 2.35332E-13-3.10445E-13
 -1      1027 2.00024E+01-9.79650E-04 1.14095E-06 9.54359E-04 1.12272E-13-3.80967E-13
 -1      1028 1.99646E+01 1.00380E-01-2.11435E-05 3.51247E-02-2.32096E-13-1.09357E-13
 -1      1029 1.99090E+01 1.76909E-01-3.12689E-05 5.77738E-02 3.14542E-14-1.35818E-13
 -1      1030 1.99807E+01 7.30550E-02-2.17810E-06 2.55201E-02-4.77659E-14-3.25978E-14
 -1      1031 1.99908E+01 5.30171E-02 6.38055E-08 1.81400E-02 4.11994E-14-1.41985E-13
 -1      1032 1.99973E+01 3.77505E-02-5.68130E-06 1.23371E-02-9.72605E-14-3.73260E-13
 -1      1033 2.00012E+01 2.62886E-02-4.85998E-06 7.96366E-03-1.55639E-13-2.66224E-13
 -1      1034 2.00035E+01 1.77664E-02-3.55467E-06 4.75918E-03-2.60185E-14-5.46679E-13
 -1      1035 2.00046E+01 1.15408E-02-2.32067E-06 2.49295E-03 3.40198E-14-5.10806E-13
 -1      1036 2.00049E+01 7.08324E-03-1.46769E-06 9.48614E-04-2.20811E-13-1.84793E-13
 -1      1037 2.00047E+01 3.96196E-03-1.05874E-06-5.88242E-05-6.91962E-14-3.19013E-13
 -1      1038 2.00043E+01 1.75907E-03-3.64434E-07-6.94453E-04 3.70229E-14-3.17202E-13
 -1      1039 2.00037E+01 4.03981E-04-1.34045E-07-1.01846E-03 3.25619E-13-2.58883E-13
 -1      1040 2.00031E+01-4.40398E-04-1.53909E-07-1.16127E-03 2.08650E-13-3.16923E-13
 -1      1041 2.00025E+01-9.36122E-04-1.91209E-07-1.18180E-03 2.93239E-13-7.65473E-13
 -1      1042 2.00021E+01-1.12012E-03-2.42204E-06-1.06900E-03 1.13032E-13-7.18379E-13
 -1      1043 1.98622E+01 2.30623E-01-4.04003E-05 6.92968E-02-1.38223E-13-7.70110E-14
 -1      1044 1.97962E+01 2.97301E-01-5.08328E-05 7.80816E-02-7.37970E-14-1.48616E-13
 -1      1045 2.00021E+01-1.29875E-03 1.57750E-06-4.78922E-04-6.41079E-14 1.85619E-13
 -1      1046 1.83991E+01 9.78920E-01 5.73353E-04-4.69186E-01 9.07329E-14 8.97759E-14
 -1      1047 2.13603E+01-1.58652E+00 3.46906E-03-1.41462E+00 2.62064E-13-5.09177E-14
 -1      1048 1.97017E+01 3.80949E-01 3.77571E-06 7.94041E-02-3.72407E-14-1.41897E-13
 -1      1049 2.08850E+01-1.70029E+00-3.07555E-03-2.26944E+00 2.71205E-13-1.49253E-13
 -1      1050 1.89232E+01-3.48960E-01-6.62215E-04-2.28867E+00 3.70279E-13 1.29918E-13
 -1      1051 1.78300E+01 1.06592E+00 3.63763E-04-8.76474E-01 5.70029E-14-1.42480E-13
 -1      1052 1.95733E+01 4.79959E-01 1.73874E-04 6.65573E-02 3.76511E-14-1.85455E-13
 -1      1053 2.00027E+01-1.02509E-03-2.77978E-07 3.70969E-04 2.12823E-13-5.50238E-14
 -1      1054 1.91499E+01 7.24780E-01-2.85673E-04-5.85979E-02 1.35656E-13-2.48223E-13
 -1      1055 1.99498E+01-8.84731E-01-1.04460E-03-2.04676E+00 3.80132E-13-5.59525E-14
 -1      1056 1.76035E+01 4.30315E-01-1.20053E-03-2.18409E+00 3.25443E-13 1.96429E-13
 -1      1057 1.98126E+01 2.62988E-01-3.13235E-05 1.63409E-02-1.57868E-13 1.26291E-13
 -1      1058 1.99657E+01 9.17033E-02 7.69570E-05 1.60311E-02-1.94804E-13-4.15897E-13
 -1      1059 1.99436E+01 1.22221E-01 1.26040E-05 1.95953E-02-2.03045E-13-4.54718E-13
 -1      1060 1.94952E+01 5.29449E-02-6.82935E-04-1.03580E+00 2.58363E-13-2.20037E-14
 -1      1061 1.94843E+01 2.27083E-01 3.87486E-05-7.31315E-01 1.97961E-13-1.63372E-13
 -1      1062 1.95259E+01 3.12226E-01-9.20256E-05-5.03721E-01 1.09100E-13-1.16963E-13
 -1      1063 1.95945E+01 3.35794E-01 1.12781E-04-3.42683E-01 6.64901E-14 1.07300E-13
 -1      1064 1.96667E+01 3.25715E-01 1.78654E-04-2.30394E-01-1.03800E-13 1.40508E-14
 -1      1065 1.97360E+01 2.94572E-01-1.43953E-05-1.53294E-01-1.88299E-13-3.15029E-13
 -1      1066 1.97983E+01 2.55141E-01 4.88254E-06-1.00436E-01-1.65574E-13-1.96984E-13
 -1      1067 1.98506E+01 2.13636E-01 2.28435E-07-6.50802E-02 7.29205E-15-2.19580E-13
 -1      1068 1.98927E+01 1.74061E-01 2.42767E-06-4.17860E-02 1.56942E-13-2.25095E-13
 -1      1069 1.99256E+01 1.38487E-01-1.25705E-06-2.65999E-02 7.85953E-14 6.97519E-14
 -1      1070 1.99508E+01 1.07716E-01 1.76261E-05-1.64866E-02-8.44522E-14-1.27640E-13
 -1      1071 1.99697E+01 8.19067E-02 1.02682E-04-1.02735E-02-2.25161E-13-3.56108E-13
 -1      1072 1.99825E+01 6.09249E-02-6.02996E-06-6.40789E-03-2.99800E-13-3.99134E-13
 -1      1073 1.99915E+01 4.46036E-02 7.72104E-06-3.63621E-03-7.06228E-14-1.70700E-13
 -1      1074 1.99975E+01 3.18566E-02 6.26452E-06-1.99401E-03-5.43871E-15-3.26682E-14
 -1      1075 2.00013E+01 2.19904E-02 1.49097E-06-9.91648E-04 7.68620E-14-2.44483E-13
 -1      1076 2.00035E+01 1.46403E-02 1.53080E-06-3.52874E-04-9.94685E-14-1.87995E-13
 -1      1077 2.00046E+01 9.27271E-03 1.56956E-06 3.63263E-05-1.83245E-13-1.45883E-13
 -1      1078 2.00049E+01 5.44527E-03 1.47495E-06 2.63235E-04 7.58887E-14-9.48701E-14
 -1      1079 2.00047E+01 2.79895E-03 1.53443E-06 3.82150E-04-6.39758E-14-8.70080E-14
 -1      1080 2.00043E+01 1.02849E-03 1.40807E-06 4.32058E-04-1.29304E-13-1.14120E-13
 -1      1081 2.00037E+01-1.05039E-04-1.78939E-06 4.39453E-04 2.54806E-13-4.38516E-14
 -1      1082 2.00032E+01-6.49734E-04 1.05516E-08 4.10341E-04 1.65714E-13 2.79248E-14
 -1      1083 1.99806E+01 6.75031E-02 4.84895E-07 1.20359E-02-1.22255E-13-2.34236E-13
 -1      1084 1.99133E+01 1.59846E-01-4.60972E-06 2.21589E-02-6.63895E-14-1.77180E-13
 -1      1085 1.88547E+01 6.65496E-01-7.89219E-04-6.44157E-01 1.48129E-13-2.51637E-13
 -1      1086 1.99906E+01 4.91964E-02 5.34391E-05 8.84245E-03-2.32234E-14-2.31128E-13
 -1      1087 1.99970E+01 3.49588E-02-1.45362E-05 6.25460E-03-9.60291E-14-3.43279E-13
 -1      1088 2.00011E+01 2.42587E-02 1.40323E-06 4.02359E-03 2.76309E-14-3.75545E-13
 -1      1089 2.00035E+01 1.62338E-02 1.99841E-06 2.42905E-03-6.03495E-14-3.35113E-13
 -1      1090 2.00047E+01 1.03877E-02 1.59855E-06 1.27573E-03-7.70985E-14-2.81730E-13
 -1      1091 2.00050E+01 6.21886E-03 1.26461E-06 4.78866E-04 7.12416E-14-4.73316E-13
 -1      1092 2.00049E+01 3.20292E-03 6.21231E-07-6.15893E-05 5.48885E-14-5.82239E-13
 -1      1093 2.00044E+01 1.29734E-03 3.89962E-07-3.73270E-04 1.44673E-13-5.73303E-13
 -1      1094 2.00038E+01 5.84250E-05-2.59776E-07-5.46112E-04 1.62184E-13-3.45190E-13
 -1      1095 2.00031E+01-6.73942E-04 3.47724E-06-6.16993E-04 3.89344E-13-2.99593E-13
 -1      1096 1.98702E+01 2.07267E-01-1.05571E-05 2.20302E-02-5.20432E-14 2.44107E-14
 -1      1097 1.93939E+01 5.95548E-01-1.72655E-04 2.71784E-02 1.27061E-13-2.71149E-13
 -1      1098 2.00027E+01-1.06543E-03-2.41645E-06-1.66431E-04 5.57601E-14 3.14491E-13
 -1      1099 1.97330E+01 3.30191E-01-2.68519E-05-3.18400E-04-6.02923E-14 9.82693E-14
 -1      1100 1.96142E+01-2.37865E-01 1.42933E-03-1.40131E+00 3.03096E-13 1.53707E-14
 -1      1101 1.85374E+01 6.34632E-01-1.66995E-03-1.06001E+00 2.68012E-14-3.61629E-14
 -1      1102 1.96308E+01 4.05426E-01 1.73313E-04-3.18115E-02-9.63678E-14-4.70074E-14
 -1      1103 1.91182E+01 6.30911E-01 1.43010E-04-3.69039E-01 2.77316E-13-1.73366E-13
 -1      1104 1.93031E+01-2.02140E-01 1.38643E-03-1.68283E+00 2.84841E-13 7.39889E-14
 -1      1105 2.00033E+01-6.72999E-04 1.13872E-06-1.04593E-04 2.50475E-13-6.77009E-14
 -1      1106 1.99708E+01 7.97361E-02-1.02180E-04 6.00054E-04-3.11612E-13-3.58020E-13
 -1      1107 1.92615E+01 4.78854E-01 1.00687E-03-5.17210E-01 2.17579E-13-1.67211E-13
 -1      1108 1.94013E+01 4.70170E-01-1.07234E-04-3.23631E-01 1.87839E-13-4.73678E-14
 -1      1109 1.95293E+01 4.27845E-01-9.09327E-04-1.96212E-01-1.12722E-13-2.16874E-13
 -1      1110 1.99875E+01 5.30175E-02-2.41663E-05 3.13817E-03 1.00018E-13-1.29992E-13
 -1      1111 1.83246E+01 4.09581E-01 5.82722E-04-1.65233E+00 3.10521E-13 1.79363E-13
 -1      1112 1.94471E+01 5.17701E-01 2.10636E-04-1.01270E-01 8.20383E-15-3.10900E-13
 -1      1113 1.92948E+01 5.80791E-01-2.45868E-05-2.08862E-01 1.26144E-13-3.43611E-13
 -1      1114 2.88234E+01 9.35987E+00 2.37594E+00-6.78245E+00-8.56537E-14 1.45275E-12
 -1      1115 2.12693E+01 6.45061E+00 2.32643E-01-3.83335E+00-3.59435E-14-2.60729E-13
 -1      1116 2.00560E+01 6.04547E+00 9.55298E-02-2.70735E+00-1.99701E-14-8.77907E-13
 -1      1117 1.95315E+01 5.88497E+00 8.50749E-02-1.92701E+00-1.05471E-14-1.10695E-12
 -1      1118 1.91763E+01 5.77881E+00 8.64149E-02-1.24032E+00-3.58741E-15-1.16999E-12
 -1      1119 1.88336E+01 5.67508E+00 8.32627E-02-6.12405E-01-1.33227E-15-1.16646E-12
 -1      1120 1.84425E+01 5.55430E+00 7.17960E-02-4.81415E-02 2.13718E-15-1.12601E-12
 -1      1121 1.79993E+01 5.41502E+00 5.07341E-02 4.25260E-01 5.16948E-15-1.08072E-12
 -1      1122 1.75587E+01 5.27422E+00 2.19969E-02 7.66232E-01 7.76462E-15-1.03476E-12
 -1      1123 1.72179E+01 5.16274E+00-8.78552E-03 9.53848E-01 9.29812E-15-9.81200E-13
 -1      1124 1.71000E+01 5.12018E+00-3.27653E-02 1.00334E+00 1.17233E-14-9.11755E-13
 -1      1125 1.73162E+01 5.18284E+00-4.00374E-02 9.79969E-01 1.52447E-14-7.93728E-13
 -1      1126 1.79336E+01 5.37313E+00-2.32031E-02 9.94219E-01 1.88877E-14-6.09099E-13
 -1      1127 1.89597E+01 5.69426E+00 2.11521E-02 1.19267E+00 2.30371E-14-3.13280E-13
 -1      1128 2.03550E+01 6.13661E+00 1.00353E-01 1.74425E+00 2.62845E-14 1.82637E-13
 -1      1129 2.22252E+01 6.74773E+00 2.67203E-01 2.91101E+00 2.75058E-14 1.06708E-12
 -1      1130 2.71070E+01 8.58384E+00 1.50567E+00 5.36577E+00 4.18554E-14 2.69582E-12
 -1      1131 2.97145E+01 3.67951E+00 1.26845E+00-4.27497E+00-3.10946E-13 2.49972E-12
 -1      1132 2.11480E+01-1.75967E-01-6.21144E-01-9.37644E-02-1.03327E-13 1.78732E-12
 -1      1133 1.97882E+01-8.23955E-02-2.16975E-01 6.68469E-02-3.60528E-14 8.56537E-13
 -1      1134 1.93250E+01-2.93890E-02-3.19594E-02 3.65214E-02-3.04405E-14 2.25167E-13
 -1      1135 1.89477E+01-4.23852E-03 1.48557E-02 1.42538E-02-7.81195E-15-2.02144E-13
 -1      1136 1.85004E+01 5.48103E-03 2.23945E-02-2.31063E-03-1.46745E-14-4.11080E-13
 -1      1137 1.79294E+01 5.30384E-03 1.64354E-02-1.51113E-02-3.03793E-15-6.60180E-13
 -1      1138 1.72606E+01-2.55354E-03 1.69141E-03-2.30540E-02-2.64936E-15-8.10317E-13
 -1      1139 1.65876E+01-1.52367E-02-1.86722E-02-2.42499E-02-9.29812E-15-1.05993E-12
 -1      1140 1.60481E+01-2.82910E-02-3.88384E-02-1.76998E-02-1.01013E-14-1.31721E-12
 -1      1141 1.57809E+01-3.65727E-02-5.16237E-02-4.67313E-03 2.05825E-15-1.46652E-12
 -1      1142 1.58740E+01-3.64894E-02-5.19356E-02 1.11188E-02 3.13759E-14-1.38084E-12
 -1      1143 1.63293E+01-2.78538E-02-3.95935E-02 2.48967E-02-3.11079E-15-1.46425E-12
 -1      1144 1.70604E+01-1.38872E-02-1.93834E-02 3.29434E-02 1.13928E-15-1.55134E-12
 -1      1145 1.79268E+01 6.66339E-04 1.66971E-03 3.40491E-02-1.47397E-14-1.43360E-12
 -1      1146 1.87821E+01 1.18998E-02 1.77519E-02 2.94769E-02-3.04639E-14-1.43944E-12
 -1      1147 1.95146E+01 1.80378E-02 2.62518E-02 2.18120E-02-3.40741E-14-1.37475E-12
 -1      1148 2.00651E+01 1.93485E-02 2.76508E-02 1.36228E-02 2.31030E-14-1.59080E-12
 -1      1149 2.04235E+01 1.72686E-02 2.41827E-02 6.64619E-03 2.20084E-14-1.59408E-12
 -1      1150 2.06136E+01 1.34717E-02 1.84009E-02 1.62900E-03 5.88028E-15-1.60395E-12
 -1      1151 2.06750E+01 9.29729E-03 1.22939E-02-1.42547E-03-1.39486E-14-1.65174E-12
 -1      1152 2.06498E+01 5.57091E-03 7.02594E-03-2.90454E-03-4.97161E-14-1.80365E-12
 -1      1153 2.05746E+01 2.66151E-03 3.05827E-03-3.30504E-03-1.74853E-14-1.84707E-12
 -1      1154 2.04772E+01 6.26839E-04 3.97570E-04-3.07278E-03-6.15596E-14-1.83551E-12
 -1      1155 2.03762E+01-6.43543E-04-1.17459E-03-2.54032E-03-4.51105E-15-1.82853E-12
 -1      1156 2.02828E+01-1.32419E-03-1.94428E-03-1.92360E-03 1.35676E-14-1.70230E-12
 -1      1157 2.02027E+01-1.59204E-03-2.17912E-03-1.34465E-03 3.27370E-14-1.68076E-12
 -1      1158 2.01377E+01-1.59699E-03-2.09300E-03-8.60041E-04-7.50117E-15-1.61869E-12
 -1      1159 2.00874E+01-1.45288E-03-1.84000E-03-4.85783E-04-3.99329E-14-1.49666E-12
 -1      1160 2.00501E+01-1.23910E-03-1.52199E-03-2.15687E-04 5.46546E-16-1.31859E-12
 -1      1161 2.00236E+01-1.00676E-03-1.20065E-03-3.34649E-05-4.57607E-14-1.32342E-12
 -1      1162 2.00056E+01-7.85827E-04-9.09272E-04 8.00174E-05 3.44652E-14-1.38696E-12
 -1      1163 1.99942E+01-5.91612E-04-6.62501E-04 1.42869E-04 2.14375E-14-1.29474E-12
 -1      1164 1.99876E+01-4.29922E-04-4.63665E-04 1.70448E-04 2.05618E-14-1.35106E-12
 -1      1165 1.99844E+01-3.00872E-04-3.09808E-04 1.74887E-04-4.05848E-15-1.30043E-12
 -1      1166 1.99834E+01-2.01501E-04-1.94985E-04 1.65265E-04 1.45081E-14-1.41894E-12
 -1      1167 1.99840E+01-1.27471E-04-1.12269E-04 1.48056E-04 8.64319E-14-1.58677E-12
 -1      1168 1.99853E+01-7.41114E-05-5.49000E-05 1.27660E-04 3.29409E-14-8.88110E-13
 -1      1169 1.99871E+01-3.70038E-05-1.68565E-05 1.06913E-04-4.50087E-14-6.53894E-13
 -1      1170 1.99891E+01-1.22600E-05 6.92640E-06 8.75163E-05 5.54314E-15-1.09225E-12
 -1      1171 1.99910E+01 3.38426E-06 2.05479E-05 7.03860E-05 6.10671E-14-1.14040E-12
 -1      1172 1.99928E+01 1.25860E-05 2.72450E-05 5.59091E-05-2.51974E-14-8.70991E-13
 -1      1173 1.99944E+01 1.74698E-05 2.95535E-05 4.41243E-05-4.82203E-15-4.94172E-13
 -1      1174 1.99958E+01 1.97276E-05 2.95030E-05 3.48298E-05 8.66831E-15 6.39621E-14
 -1      1175 1.99971E+01 2.07198E-05 2.88412E-05 2.76144E-05 3.71819E-14 2.44752E-13
 -1      1176 1.99981E+01 2.15443E-05 2.92381E-05 2.17806E-05-7.32016E-14 1.41520E-13
 -1      1177 1.99989E+01 2.30024E-05 3.21144E-05 1.60762E-05 2.39051E-14 3.33961E-13
 -1      1178 1.99995E+01 2.48645E-05 3.65441E-05 7.89951E-06 4.33332E-14 8.76292E-13
 -1      1179 1.99998E+01 2.82794E-05 3.10137E-05-7.91600E-06-5.56843E-14 6.21092E-13
 -1      1180 1.99998E+01-1.17947E-05-2.43007E-05-1.21921E-05 1.16165E-13 3.55319E-13
 -1      1181 2.95432E+01 5.08674E-01 1.56308E-01 1.91348E+00-4.31044E-14 3.97310E-12
 -1      1182 2.35279E+01-1.06392E-01-6.15825E-01 1.02950E-01 1.53801E-14 3.43568E-12
 -1      1183 2.38061E+01-8.98901E-02-2.51017E-01 1.53512E-02 1.77271E-14 2.85857E-12
 -1      1184 2.51898E+01-7.39810E-02-1.39854E-01-1.11161E-02 1.41710E-14 2.44810E-12
 -1      1185 2.74291E+01-4.05664E-02-9.00296E-02-5.26724E-02 9.00582E-15 2.20635E-12
 -1      1186 3.03119E+01 4.42360E-02 3.24342E-02-1.19106E-01 1.74649E-14 2.00495E-12
 -1      1187 3.31483E+01 2.00697E-01 2.99849E-01-1.86063E-01-1.70003E-15 2.12354E-12
 -1      1188 3.42660E+01 3.21795E-01 6.01856E-01-1.45451E-01-1.44953E-14 2.59232E-12
 -1      1189 3.11976E+01 1.80847E-01 4.77399E-01 1.66290E-01-4.13801E-14 2.73503E-12
 -1      1190 2.41393E+01-1.74565E-01-3.28880E-01 5.58028E-01-4.02603E-14 2.66054E-12
 -1      1191 1.74152E+01-4.47148E-01-1.26301E+00 5.63821E-01-1.00683E-14 2.02172E-12
 -1      1192 1.63270E+01-3.17271E-01-1.42402E+00 8.51565E-02 3.85386E-14 1.03492E-12
 -1      1193 2.24315E+01 5.60825E-02-6.06220E-01-4.34008E-01 6.52985E-14 3.73035E-14
 -1      1194 3.05625E+01 1.62048E-01 2.64769E-01-5.35395E-01 9.86208E-14-7.01106E-13
 -1      1195 3.47272E+01 1.10892E-01 4.89280E-01-2.88263E-01 3.09371E-14-6.91641E-13
 -1      1196 3.44542E+01 4.44526E-02 3.00730E-01-4.54447E-02-1.92398E-14-4.36984E-13
 -1      1197 3.19251E+01 3.09012E-03 8.20848E-02 6.96758E-02-2.63314E-14 1.34004E-13
 -1      1198 2.89641E+01-1.51131E-02-3.31670E-02 9.38445E-02-7.03927E-14 4.79464E-13
 -1      1199 2.64077E+01-1.93079E-02-6.54819E-02 8.03268E-02 4.90753E-14 1.20043E-13
 -1      1200 2.44194E+01-1.75479E-02-5.98532E-02 5.97101E-02-1.59677E-14-4.40328E-13
 -1      1201 2.29974E+01-1.49674E-02-4.57688E-02 3.93444E-02-4.48873E-14 1.22728E-13
 -1      1202 2.20366E+01-1.15250E-02-3.21125E-02 2.59919E-02 1.48000E-14 3.53731E-13
 -1      1203 2.13744E+01-8.61519E-03-2.19408E-02 1.69301E-02 2.09012E-15 6.59228E-13
 -1      1204 2.09204E+01-6.34746E-03-1.48895E-02 1.09708E-02 1.69721E-14 7.01480E-13
 -1      1205 2.06096E+01-4.64545E-03-1.01313E-02 7.10625E-03-4.50719E-14 9.40954E-13
 -1      1206 2.03972E+01-3.39490E-03-6.94249E-03 4.60937E-03 9.48514E-15 1.05191E-12
 -1      1207 2.02523E+01-2.51242E-03-4.81427E-03 2.99613E-03 5.55164E-14 8.04880E-13
 -1      1208 2.01522E+01-1.69072E-03-3.24880E-03 2.02072E-03-4.98260E-14 8.79181E-13
 -1      1209 2.00853E+01-1.30175E-03-2.28227E-03 1.19501E-03 5.65561E-14 8.04728E-13
 -1      1210 2.00424E+01-9.48082E-04-1.59839E-03 7.45640E-04-4.03048E-14 5.86883E-13
 -1      1211 2.00148E+01-6.87836E-04-1.11584E-03 4.46869E-04 2.31130E-14 2.99488E-13
 -1      1212 1.99977E+01-4.95608E-04-7.72490E-04 2.49269E-04 1.08208E-13-5.64899E-13
 -1      1213 1.99877E+01-3.53509E-04-5.27617E-04 1.20515E-04-1.21095E-13-4.51475E-13
 -1      1214 1.99826E+01-2.55513E-04-3.56501E-04 3.97669E-05-2.23516E-14 1.26668E-13
 -1      1215 1.99807E+01-1.59388E-04-2.22433E-04-4.47458E-06-2.46984E-14-1.23764E-13
 -1      1216 1.99808E+01-1.12909E-04-1.36426E-04-4.36448E-05 2.42815E-14-1.73854E-13
 -1      1217 1.99821E+01-7.31133E-05-7.74631E-05-5.79138E-05-3.25681E-14-2.20481E-13
 -1      1218 1.99840E+01-4.49539E-05-3.73257E-05-6.30032E-05 5.32401E-14-3.55252E-14
 -1      1219 1.99862E+01-2.54374E-05-1.10378E-05-6.22454E-05-1.95511E-14 5.07251E-13
 -1      1220 1.99884E+01-1.22826E-05 5.24916E-06-5.80599E-05 5.14826E-14 4.90990E-13
 -1      1221 1.99905E+01-3.69267E-06 1.45135E-05-5.21294E-05 8.98206E-15 2.84015E-13
 -1      1222 1.99925E+01 1.02552E-06 1.87070E-05-4.54754E-05-1.27363E-14-9.60178E-14
 -1      1223 1.99942E+01 4.91777E-06 2.01470E-05-3.95870E-05 3.89681E-14-4.76810E-13
 -1      1224 1.99957E+01 7.02454E-06 2.06516E-05-3.34651E-05-4.19501E-14-4.66823E-14
 -1      1225 1.99970E+01 8.76226E-06 2.04763E-05-2.91026E-05 1.04012E-13-4.02679E-13
 -1      1226 1.99980E+01 1.09575E-05 2.17811E-05-2.59270E-05 1.24826E-14-3.48353E-13
 -1      1227 1.99988E+01 1.42880E-05 2.59786E-05-2.36309E-05 9.52058E-14-1.54907E-13
 -1      1228 1.99995E+01 1.82886E-05 3.22789E-05-2.03630E-05-5.22947E-14 3.81252E-13
 -1      1229 1.99998E+01 1.67028E-05 2.83743E-05-1.00974E-05 4.35699E-14 8.91736E-13
 -1      1230 1.99998E+01-1.10818E-05-2.39077E-05 1.01082E-05 1.81926E-14 9.04020E-13
 -1      1231 1.99998E+01 3.10970E-05-2.35146E-05 1.13858E-05 8.66134E-13 1.21604E-14
 -1      1232 1.99998E+01-6.73939E-06 2.85928E-05 6.82519E-06 6.49239E-14-1.50770E-13
 -1      1233 1.99998E+01-3.31112E-04 2.91804E-05-1.22723E-05-5.19314E-14 3.79887E-14
 -1      1234 1.99998E+01-8.65724E-04 1.36264E-05-2.00908E-05 3.85046E-14-6.06338E-14
 -1      1235 1.99998E+01-1.48656E-03-2.85626E-06-2.14562E-05-5.00481E-13-6.14904E-14
 -1      1236 1.99998E+01-2.07980E-03-1.61272E-05-1.87231E-05-6.37785E-13-1.71314E-13
 -1      1237 1.99998E+01-2.56461E-03-2.54023E-05-1.38847E-05 4.05438E-14 1.74677E-13
 -1      1238 1.99998E+01-2.88237E-03-3.10311E-05-7.23872E-06 1.39523E-12-1.37417E-13
 -1      1239 1.99998E+01-2.99018E-03-3.28183E-05 9.53809E-08 1.31962E-12-7.21539E-14
 -1      1240 1.99998E+01-2.87599E-03-3.08151E-05 7.40441E-06 1.09067E-12-7.43184E-14
 -1      1241 1.99998E+01-2.55333E-03-2.50018E-05 1.39600E-05 5.77459E-13-1.17690E-13
 -1      1242 1.99998E+01-2.06586E-03-1.56282E-05 1.89837E-05 1.97230E-13 1.62327E-13
 -1      1243 1.99998E+01-1.47322E-03-2.56719E-06 2.13602E-05 3.03251E-13-2.78851E-14
 -1      1244 1.99998E+01-8.54619E-04 1.39623E-05 2.02294E-05-2.66744E-14 8.65613E-14
 -1      1245 1.99998E+01-3.16219E-04 3.15031E-05 1.46832E-05-9.28781E-13-1.21253E-13
 -1      1246 1.99998E+01-1.66896E-05 2.61538E-05-1.42290E-05-8.28230E-13-3.52077E-14
 -1      1247 1.99998E+01 3.47958E-05-2.37023E-05-1.15354E-05-2.86356E-13 3.03831E-14
 -1      1248-1.31095E+00-2.73462E+01-4.04379E+00-2.72429E+00 2.46689E-12 5.22395E-13
 -1      1249-2.65556E+00-2.04019E+01-3.73234E+00-5.67245E+00 4.48330E-12 1.61549E-12
 -1      1250-1.92280E+00-8.32356E+00-2.95426E+00-3.31335E+00 5.10814E-12 3.09897E-12
 -1      1251 5.57614E+00 3.57587E+00-1.46790E+00 4.78742E+00 4.77618E-12 4.34341E-12
 -1      1252 2.34838E+01 9.84002E+00 7.40606E-01 1.45600E+01 3.18834E-12 4.26725E-12
 -1      1253 5.02197E+01 8.57289E+00 3.34705E+00 1.85066E+01 1.36580E-12 2.93832E-12
 -1      1254 7.39071E+01 3.76390E+00 5.61284E+00 1.17253E+01 3.05991E-13 7.96252E-13
 -1      1255 7.99377E+01 2.40543E+00 6.15895E+00-2.88016E+00 2.91593E-13-1.87533E-12
 -1      1256 6.68622E+01 5.89422E+00 5.02860E+00-1.56884E+01 1.28364E-12-4.25482E-12
 -1      1257 4.09848E+01 9.99846E+00 2.53491E+00-1.85943E+01 2.78488E-12-5.24070E-12
 -1      1258 1.64161E+01 8.61647E+00-3.93573E-02-1.15014E+01 3.86891E-12-4.68492E-12
 -1      1259 2.05622E+00 9.98354E-03-1.98108E+00-1.50245E+00 4.10627E-12-3.21809E-12
 -1      1260-2.53688E+00-1.26129E+01-3.26571E+00 4.84400E+00 3.24074E-12-1.72384E-12
 -1      1261-2.01150E+00-2.35248E+01-3.88349E+00 4.98527E+00 1.36979E-12-5.12548E-13
 -1      1262-9.16065E-01-2.74364E+01-4.00752E+00 6.27869E-01-8.50819E-13-1.35669E-13
 -1      1263-1.55995E+00-2.15381E+01-3.50277E+00-3.18716E+00-2.78011E-12-7.18717E-13
 -1      1264-1.28802E+00-1.01955E+01-2.61692E+00-2.82120E+00-4.07430E-12-1.79506E-12
 -1      1265 3.23434E+00 2.92888E+00-1.16088E+00 3.47589E+00-4.21174E-12-2.93932E-12
 -1      1266 1.54816E+01 1.09961E+01 4.23797E-01 1.27474E+01-3.42171E-12-3.63087E-12
 -1      1267 3.46729E+01 1.15399E+01 2.09460E+00 1.89567E+01-2.09577E-12-3.34222E-12
 -1      1268 5.49224E+01 6.89442E+00 3.40821E+00 1.69082E+01-8.36275E-13-2.13785E-12
 -1      1269 6.81171E+01 2.35162E+00 4.12444E+00 6.80482E+00-1.82777E-13-1.78468E-13
 -1      1270 6.87035E+01 2.16378E+00 4.16414E+00-6.36448E+00-2.46813E-13 1.58884E-12
 -1      1271 5.69637E+01 6.38668E+00 3.50884E+00-1.63887E+01-9.76552E-13 2.89901E-12
 -1      1272 3.88085E+01 1.11563E+01 2.43597E+00-1.95621E+01-2.28639E-12 3.99125E-12
 -1      1273 2.01716E+01 1.22247E+01 9.64684E-01-1.51315E+01-3.30735E-12 4.01479E-12
 -1      1274 6.55237E+00 7.11144E+00-5.30550E-01-6.80837E+00-3.45990E-12 2.96030E-12
 -1      1275-1.18472E-01-3.51197E+00-1.91110E+00 6.39328E-01-2.90146E-12 1.64702E-12
 -1      1276-1.60488E+00-1.59905E+01-3.03366E+00 3.82165E+00-1.79590E-12 6.55531E-13
 -1      1277-1.13324E+00-2.51652E+01-3.75418E+00 1.95607E+00 1.99840E-14 1.88065E-13
 -1      1278 2.30945E+01 1.89566E+00-7.40927E-01-2.78220E+00-1.20765E-13 9.99201E-13
 -1      1279 2.10840E+01 4.79813E+00-4.55776E-02-3.21689E+00-2.41890E-13-5.58095E-13
 -1      1280 2.16343E+01 4.92319E+00-1.12081E-01-4.12194E+00-3.42643E-13-2.32023E-13
 -1      1281 2.01741E+01 5.06459E+00-1.28255E-02-2.46886E+00-1.98203E-13-9.85718E-13
 -1      1282 2.05131E+01 5.17239E+00 1.81743E-03-2.91401E+00-2.36630E-13-8.17735E-13
 -1      1283 2.12777E+01 3.96290E+00-2.57464E-02-2.98045E+00-4.03982E-13-4.74912E-13
 -1      1284 1.97193E+01 5.09186E+00 5.76892E-03-1.75749E+00-1.20830E-13-1.13988E-12
 -1      1285 1.99265E+01 5.16429E+00 1.38016E-02-2.11823E+00-1.54397E-13-1.07990E-12
 -1      1286 2.04268E+01 4.30400E+00-2.54534E-02-2.30207E+00-2.96997E-13-8.18658E-13
 -1      1287 1.93690E+01 5.06219E+00 1.29329E-02-1.09533E+00-4.95888E-14-1.17589E-12
 -1      1288 1.95446E+01 5.12113E+00 1.93515E-02-1.42365E+00-7.17724E-14-1.16777E-12
 -1      1289 1.99529E+01 4.40430E+00-2.15821E-02-1.61249E+00-1.64715E-13-9.54348E-13
 -1      1290 1.90032E+01 5.01524E+00 1.32458E-02-4.87626E-01 1.17129E-14-1.15782E-12
 -1      1291 1.91960E+01 5.07662E+00 2.31461E-02-7.83900E-01-2.56392E-15-1.16940E-12
 -1      1292 1.95722E+01 4.43278E+00-1.83181E-02-9.66182E-01-4.95845E-14-9.73110E-13
 -1      1293 1.85615E+01 4.96801E+00 8.10701E-03 6.72616E-02 6.33035E-14-1.11398E-12
 -1      1294 1.87956E+01 5.03978E+00 2.47969E-02-1.97039E-01 4.85757E-14-1.14183E-12
 -1      1295 1.91545E+01 4.45292E+00-1.70344E-02-3.63909E-01 4.39301E-14-9.66845E-13
 -1      1296 1.80583E+01 4.94034E+00-1.04775E-03 5.23320E-01 1.13375E-13-1.07283E-12
 -1      1297 1.83196E+01 5.01897E+00 2.33274E-02 3.13312E-01 9.82131E-14-1.09537E-12
 -1      1298 1.86524E+01 4.50114E+00-1.67090E-02 1.77333E-01 1.31196E-13-9.27196E-13
 -1      1299 1.75608E+01 4.94846E+00-1.18430E-02 8.43479E-01 1.50824E-13-1.03282E-12
 -1      1300 1.78079E+01 5.02191E+00 1.75094E-02 7.03118E-01 1.43836E-13-1.06188E-12
 -1      1301 1.80895E+01 4.59749E+00-1.66452E-02 6.14335E-01 2.17649E-13-8.96429E-13
 -1      1302 1.71896E+01 5.00146E+00-2.05704E-02 1.00952E+00 1.89512E-13-9.73815E-13
 -1      1303 1.73556E+01 5.04995E+00 6.95400E-03 9.42123E-01 1.76342E-13-1.01187E-12
 -1      1304 1.75534E+01 4.74068E+00-1.62647E-02 9.10597E-01 2.68108E-13-8.58770E-13
 -1      1305 1.70938E+01 5.09602E+00-2.31751E-02 1.04306E+00 2.25316E-13-8.95706E-13
 -1      1306 1.71013E+01 5.09678E+00-7.01495E-03 1.03072E+00 2.14693E-13-9.44373E-13
 -1      1307 1.71882E+01 4.90360E+00-1.55191E-02 1.05267E+00 3.31596E-13-8.01539E-13
 -1      1308 1.73962E+01 5.21413E+00-1.68241E-02 1.01840E+00 2.59910E-13-7.70015E-13
 -1      1309 1.71893E+01 5.14987E+00-2.11906E-02 1.01804E+00 2.44537E-13-8.48798E-13
 -1      1310 1.71583E+01 5.03644E+00-1.49679E-02 1.07213E+00 3.87409E-13-7.16739E-13
 -1      1311 1.81763E+01 5.33429E+00-1.39268E-03 1.05415E+00 3.08684E-13-5.72153E-13
 -1      1312 1.77198E+01 5.19460E+00-3.23385E-02 1.00351E+00 2.84939E-13-6.89775E-13
 -1      1313 1.75980E+01 5.08513E+00-1.48568E-02 1.05197E+00 4.47010E-13-5.82269E-13
 -1      1314 1.94167E+01 5.42382E+00 2.05315E-02 1.29957E+00 3.40880E-13-2.50612E-13
 -1      1315 1.87313E+01 5.21380E+00-3.77299E-02 1.12265E+00 3.13694E-13-4.46062E-13
 -1      1316 1.85774E+01 4.99799E+00-1.57077E-02 1.11880E+00 4.99489E-13-3.73451E-13
 -1      1317 2.10550E+01 5.43836E+00 4.70931E-02 1.91569E+00 3.49998E-13 2.92377E-13
 -1      1318 2.01719E+01 5.16921E+00-3.85327E-02 1.52166E+00 3.25864E-13-2.94278E-14
 -1      1319 2.00744E+01 4.72453E+00-1.47670E-02 1.41440E+00 5.27182E-13-1.75207E-14
 -1      1320 2.31940E+01 5.15630E+00 6.33668E-02 3.12810E+00 2.69174E-13 1.21672E-12
 -1      1321 2.20420E+01 4.91383E+00-3.76508E-02 2.32224E+00 2.73073E-13 6.62692E-13
 -1      1322 2.20781E+01 4.13540E+00-5.13911E-04 2.03029E+00 4.98233E-13 5.70460E-13
 -1      1323 2.93117E+01 3.26647E+00 8.76367E-01 4.12395E+00 1.04292E-13 2.78860E-12
 -1      1324 2.43061E+01 3.62906E+00-1.65680E-01 3.15194E+00 1.22791E-13 1.71815E-12
 -1      1325 2.45140E+01 2.61565E+00 7.55121E-03 2.48475E+00 4.15315E-13 1.39866E-12
 -1      1326 2.41830E+01 3.13917E-01-7.57900E-01 6.85549E-01 2.07417E-13 2.73770E-12
 -1      1327 2.28738E+01 1.14897E-01-4.11804E-01-1.26634E+00-3.04062E-13 1.15730E-12
 -1      1328 2.15709E+01 2.93677E-01-1.66161E-01-7.90300E-01-2.62484E-13 7.95655E-13
 -1      1329 2.09553E+01 1.34760E-01-7.32723E-02-4.20582E-01-2.16410E-13 6.71094E-13
 -1      1330 2.04525E+01 6.88507E-02-1.38800E-02-3.60561E-01-2.10637E-13 3.45456E-13
 -1      1331 2.18126E+01 3.35857E-01-1.03819E-01-1.28446E+00-4.67529E-13 2.74308E-13
 -1      1332 2.00373E+01 3.90959E-02 5.17612E-03-2.17647E-01-1.74336E-13 2.42729E-13
 -1      1333 1.97695E+01 1.44818E-02 1.44864E-02-2.14588E-01-1.54249E-13 1.22125E-15
 -1      1334 2.06957E+01 9.33970E-02-2.86293E-02-6.16590E-01-3.70867E-13 8.50361E-14
 -1      1335 1.94930E+01 2.43117E-03 1.58943E-02-1.86108E-01-1.04449E-13-8.75688E-14
 -1      1336 1.92660E+01-8.06299E-03 1.23883E-02-1.92684E-01-9.96390E-14-2.42171E-13
 -1      1337 2.00522E+01 7.71717E-03-6.84062E-04-4.17868E-01-2.68508E-13-8.71993E-14
 -1      1338 1.90291E+01-1.25130E-02 1.17277E-02-2.10041E-01-8.84270E-14-2.71998E-13
 -1      1339 1.87708E+01-1.40024E-02 7.80440E-03-2.20330E-01-8.00757E-14-3.74500E-13
 -1      1340 1.95563E+01-2.28492E-02 4.68015E-03-4.06191E-01-1.85040E-13-2.22647E-13
 -1      1341 1.85309E+01-1.37912E-02 7.53558E-03-2.47481E-01-6.85524E-14-4.43451E-13
 -1      1342 1.82278E+01-8.42141E-03 4.71097E-03-2.55765E-01-5.34686E-14-5.36611E-13
 -1      1343 1.90897E+01-2.70171E-02 4.63722E-03-4.60373E-01-1.55944E-13-2.98620E-13
 -1      1344 1.79797E+01-4.17434E-03 4.47341E-03-2.67219E-01-5.36594E-14-5.81986E-13
 -1      1345 1.76576E+01 6.12775E-03 2.36062E-03-2.68188E-01-6.07305E-14-6.71916E-13
 -1      1346 1.86087E+01-1.26027E-02 2.06948E-03-5.08040E-01-1.13819E-13-4.16654E-13
 -1      1347 1.74232E+01 1.33290E-02 1.73018E-03-2.45326E-01-6.55832E-14-7.06291E-13
 -1      1348 1.71350E+01 2.54233E-02 1.10302E-04-2.35301E-01-6.88022E-14-8.10494E-13
 -1      1349 1.81303E+01 1.52671E-02-2.68182E-03-4.95527E-01-1.36566E-13-4.77081E-13
 -1      1350 1.69531E+01 3.31996E-02-8.56209E-04-1.70406E-01-7.44968E-14-8.61771E-13
 -1      1351 1.67628E+01 4.29034E-02-1.88103E-03-1.49131E-01-7.13006E-14-9.60299E-13
 -1      1352 1.77152E+01 4.83835E-02-8.56911E-03-3.90079E-01-1.35746E-13-5.72300E-13
 -1      1353 1.66741E+01 4.81764E-02-2.75704E-03-4.94680E-02-5.81028E-14-9.58969E-13
 -1      1354 1.66339E+01 5.16887E-02-3.00488E-03-2.09573E-02-1.47451E-17-9.81898E-13
 -1      1355 1.74437E+01 7.54631E-02-1.35616E-02-1.90484E-01-8.82228E-14-5.62410E-13
 -1      1356 1.66642E+01 5.21966E-02-3.41111E-03 9.23485E-02 8.88525E-15-1.05484E-12
 -1      1357 1.67949E+01 4.78752E-02-2.80025E-03 1.20989E-01-2.03839E-14-1.06665E-12
 -1      1358 1.73832E+01 8.62308E-02-1.55109E-02 6.86904E-02-4.18780E-14-6.60276E-13
 -1      1359 1.69434E+01 4.35491E-02-2.74873E-03 2.20808E-01-4.00869E-14-1.12256E-12
 -1      1360 1.72251E+01 3.27315E-02-1.40101E-03 2.42360E-01-3.35712E-14-1.16356E-12
 -1      1361 1.75595E+01 7.62572E-02-1.34772E-02 3.27996E-01-5.77689E-14-8.46981E-13
 -1      1362 1.74639E+01 2.57092E-02-1.30726E-03 3.06573E-01 6.23611E-15-1.16032E-12
 -1      1363 1.78436E+01 1.19018E-02 5.06372E-04 3.16700E-01 2.05972E-14-1.13783E-12
 -1      1364 1.79430E+01 4.93249E-02-8.26531E-03 5.26762E-01-1.41337E-14-8.63080E-13
 -1      1365 1.81277E+01 5.16203E-03 1.34294E-04 3.36090E-01 1.13752E-14-1.09503E-12
 -1      1366 1.85383E+01-7.77881E-03 2.08926E-03 3.34566E-01 9.63330E-15-1.07434E-12
 -1      1367 1.84598E+01 1.51201E-02-1.92831E-03 6.26822E-01 3.64550E-14-8.05351E-13
 -1      1368 1.88208E+01-1.19945E-02 1.00774E-03 3.13785E-01 3.79061E-14-1.04824E-12
 -1      1369 1.92013E+01-2.14409E-02 2.84664E-03 3.03631E-01 2.92177E-14-1.01077E-12
 -1      1370 1.90175E+01-1.57491E-02 3.47884E-03 6.23291E-01 6.05345E-14-7.73473E-13
 -1      1371 1.94461E+01-2.24102E-02 1.17492E-03 2.56277E-01-4.06619E-14-9.78516E-13
 -1      1372 1.97557E+01-2.75237E-02 2.75041E-03 2.41812E-01-3.49256E-14-1.05838E-12
 -1      1373 1.95336E+01-3.62752E-02 6.79113E-03 5.39193E-01 9.27036E-15-7.23889E-13
 -1      1374 1.99426E+01-2.58254E-02 8.33850E-04 1.83629E-01-3.96623E-14-1.03844E-12
 -1      1375 2.01640E+01-2.71817E-02 2.09287E-03 1.68719E-01 2.48759E-15-1.09786E-12
 -1      1376 1.99531E+01-4.46623E-02 7.87965E-03 4.10661E-01-5.39703E-14-6.86496E-13
 -1      1377 2.02884E+01-2.39835E-02 2.98452E-04 1.12489E-01 2.30107E-14-1.15897E-12
 -1      1378 2.04239E+01-2.28197E-02 1.25055E-03 9.96631E-02 2.87691E-14-1.13793E-12
 -1      1379 2.02531E+01-4.31267E-02 7.30183E-03 2.72310E-01-3.01851E-14-7.30051E-13
 -1      1380 2.04921E+01-1.92428E-02-1.77637E-04 5.30952E-02 6.45317E-16-1.23160E-12
 -1      1381 2.05560E+01-1.68204E-02 5.04909E-04 4.34707E-02-3.55159E-14-1.24544E-12
 -1      1382 2.04361E+01-3.56030E-02 5.82252E-03 1.48666E-01-2.61418E-14-8.50236E-13
 -1      1383 2.05798E+01-1.36213E-02-4.71837E-04 9.49957E-03-3.23684E-14-1.29464E-12
 -1      1384 2.05914E+01-1.08918E-02-1.43725E-05 3.15395E-03-7.64022E-14-1.33731E-12
 -1      1385 2.05210E+01-2.58332E-02 4.08410E-03 5.22338E-02-9.17953E-14-9.55590E-13
 -1      1386 2.05841E+01-8.42574E-03-5.73904E-04-1.86152E-02-7.42902E-14-1.28709E-12
 -1      1387 2.05619E+01-5.95755E-03-2.96592E-04-2.21830E-02-1.31586E-14-1.34849E-12
 -1      1388 2.05328E+01-1.64247E-02 2.49169E-03-1.42108E-02-5.58499E-14-9.80897E-13
 -1      1389 2.05356E+01-4.28275E-03-5.33574E-04-3.39010E-02-7.49834E-16-1.34871E-12
 -1      1390 2.04952E+01-2.32872E-03-3.93442E-04-3.54019E-02-2.50984E-14-1.37189E-12
 -1      1391 2.04967E+01-8.73481E-03 1.23297E-03-5.39126E-02-1.99129E-14-8.85783E-13
 -1      1392 2.04595E+01-1.33776E-03-4.15640E-04-3.97752E-02-7.88378E-16-1.34403E-12
 -1      1393 2.04121E+01 5.65757E-05-3.73517E-04-3.99024E-02 1.67238E-14-1.34583E-12
 -1      1394 2.04338E+01-3.17189E-03 3.45609E-04-7.27994E-02 7.45579E-15-8.87832E-13
 -1      1395 2.03739E+01 5.33375E-04-2.74231E-04-3.94730E-02 3.37064E-14-1.31589E-12
 -1      1396 2.03270E+01 1.43273E-03-2.96199E-04-3.87952E-02 5.12173E-14-1.23994E-12
 -1      1397 2.03599E+01 4.17807E-04-2.13696E-04-7.72026E-02 6.26659E-14-8.16728E-13
 -1      1398 2.02906E+01 1.56447E-03-1.43955E-04-3.56130E-02 3.88802E-14-1.22755E-12
 -1      1399 2.02483E+01 2.07611E-03-2.02562E-04-3.45461E-02 5.67385E-14-1.17417E-12
 -1      1400 2.02859E+01 2.43595E-03-5.18991E-04-7.26296E-02 4.90356E-14-7.46231E-13
 -1      1401 2.02162E+01 2.00209E-03-4.13922E-05-3.00954E-02 2.76594E-14-1.20614E-12
 -1      1402 2.01806E+01 2.23645E-03-1.16107E-04-2.89152E-02 3.16227E-14-1.23223E-12
 -1      1403 2.02182E+01 3.33214E-03-6.46050E-04-6.33038E-02 4.61150E-14-7.33880E-13
 -1      1404 2.01537E+01 2.05838E-03 2.95189E-05-2.41728E-02 1.23008E-14-1.21059E-12
 -1      1405 2.01253E+01 2.11036E-03-4.72858E-05-2.30443E-02-3.27537E-14-1.17672E-12
 -1      1406 2.01601E+01 3.50236E-03-6.59015E-04-5.21583E-02 2.42351E-14-8.01593E-13
 -1      1407 2.01037E+01 1.89557E-03 7.19648E-05-1.85883E-02 3.46797E-14-1.16164E-12
 -1      1408 2.00820E+01 1.83848E-03 1.59800E-06-1.75972E-02 6.33885E-14-1.08122E-12
 -1      1409 2.01125E+01 3.25251E-03-6.06485E-04-4.10422E-02 6.13449E-14-8.14254E-13
 -1      1410 2.00654E+01 1.62725E-03 9.21233E-05-1.37208E-02 2.88265E-15-9.81096E-13
 -1      1411 2.00494E+01 1.51343E-03 3.25255E-05-1.29001E-02 4.03956E-14-9.71408E-13
 -1      1412 2.00751E+01 2.79765E-03-5.22348E-04-3.09886E-02 8.72530E-14-8.21828E-13
 -1      1413 2.00372E+01 1.32677E-03 9.66224E-05-9.70865E-03-3.49457E-14-9.00174E-13
 -1      1414 2.00259E+01 1.19102E-03 4.92057E-05-9.05964E-03-2.89306E-14-9.15285E-13
 -1      1415 2.00467E+01 2.27678E-03-4.28500E-04-2.24673E-02 4.85113E-14-7.43532E-13
 -1      1416 2.00172E+01 1.03737E-03 9.12548E-05-6.54501E-03 2.05035E-14-9.21574E-13
 -1      1417 2.00097E+01 9.01138E-04 5.56017E-05-6.05171E-03-3.82135E-15-9.00301E-13
 -1      1418 2.00261E+01 1.77176E-03-3.37914E-04-1.55897E-02-8.00688E-14-5.29234E-13
 -1      1419 2.00038E+01 7.81388E-04 8.05084E-05-4.14515E-03-3.33657E-14-9.41504E-13
 -1      1420 1.99991E+01 6.56611E-04 5.52040E-05-3.78395E-03 1.53549E-14-9.29189E-13
 -1      1421 2.00116E+01 1.32483E-03-2.57366E-04-1.02604E-02 1.62274E-14-6.76490E-13
 -1      1422 1.99952E+01 5.67637E-04 6.75513E-05-2.39059E-03-2.76580E-14-9.57637E-13
 -1      1423 1.99926E+01 4.59906E-04 5.07645E-05-2.13615E-03 2.09585E-14-9.97604E-13
 -1      1424 2.00020E+01 9.52667E-04-1.89613E-04-6.28129E-03-8.04966E-15-6.53249E-13
 -1      1425 1.99903E+01 3.96835E-04 5.44305E-05-1.15620E-03 4.14381E-14-9.74537E-13
 -1      1426 1.99892E+01 3.07739E-04 4.42840E-05-9.84665E-04-1.45210E-14-9.59234E-13
 -1      1427 1.99959E+01 6.56783E-04-1.34980E-04-3.41769E-03 2.32382E-14-5.95096E-13
 -1      1428 1.99880E+01 2.65309E-04 4.23360E-05-3.25159E-04-2.69664E-14-9.66764E-13
 -1      1429 1.99877E+01 1.94105E-04 3.71167E-05-2.15786E-04 1.78898E-15-1.05148E-12
 -1      1430 1.99925E+01 4.30514E-04-9.24508E-05-1.43762E-03-3.19235E-14-6.46134E-13
 -1      1431 1.99873E+01 1.67401E-04 3.18538E-05 2.03794E-04 1.42084E-13-1.00421E-12
 -1      1432 1.99877E+01 1.12136E-04 3.01110E-05 2.68134E-04 1.91874E-13-7.87929E-13
 -1      1433 1.99909E+01 2.63576E-04-6.03780E-05-1.32444E-04 5.57452E-14-5.33934E-13
 -1      1434 1.99877E+01 9.69362E-05 2.31715E-05 5.14077E-04 1.60717E-13-8.71998E-13
 -1      1435 1.99885E+01 5.51701E-05 2.37433E-05 5.46959E-04 5.93976E-14-6.85972E-13
 -1      1436 1.99905E+01 1.44788E-04-3.69274E-05 6.74373E-04 1.81289E-13-5.38540E-13
 -1      1437 1.99888E+01 4.80476E-05 1.62345E-05 6.71721E-04-7.52261E-14-5.88862E-13
 -1      1438 1.99897E+01 1.72787E-05 1.82326E-05 6.83541E-04-1.07242E-13-7.39757E-13
 -1      1439 1.99909E+01 6.35846E-05-2.03309E-05 1.12564E-03 2.61625E-14-5.94458E-13
 -1      1440 1.99902E+01 1.55704E-05 1.08561E-05 7.27243E-04-8.63212E-14-7.28718E-13
 -1      1441 1.99911E+01-6.52938E-06 1.36300E-05 7.25712E-04-7.64653E-14-8.65468E-13
 -1      1442 1.99917E+01 1.07327E-05-9.01344E-06 1.33272E-03-1.12053E-13-4.93851E-13
 -1      1443 1.99917E+01-4.82494E-06 6.79288E-06 7.18044E-04-2.64173E-14-7.59166E-13
 -1      1444 1.99926E+01-2.03062E-05 9.88594E-06 7.08691E-04 3.77338E-14-8.31966E-13
 -1      1445 1.99928E+01-2.14426E-05-1.64098E-06 1.37966E-03-8.76500E-14-4.17406E-13
 -1      1446 1.99932E+01-1.66536E-05 3.79112E-06 6.70843E-04 1.24271E-13-8.23173E-13
 -1      1447 1.99940E+01-2.72632E-05 6.89791E-06 6.57467E-04 1.09248E-13-6.83288E-13
 -1      1448 1.99939E+01-3.91118E-05 2.87836E-06 1.32775E-03 8.96496E-14-5.07234E-13
 -1      1449 1.99946E+01-2.27201E-05 1.61827E-06 6.03841E-04 1.70332E-13-5.60720E-13
 -1      1450 1.99953E+01-2.99199E-05 4.54859E-06 5.88886E-04 1.66751E-13-4.08683E-13
 -1      1451 1.99951E+01-4.71427E-05 5.41832E-06 1.21991E-03 3.09521E-13-4.14133E-13
 -1      1452 1.99958E+01-2.52634E-05 8.99026E-08 5.28504E-04 2.98462E-14-1.07959E-13
 -1      1453 1.99965E+01-3.02721E-05 2.74888E-06 5.13344E-04 8.81341E-14-4.89008E-14
 -1      1454 1.99961E+01-4.93727E-05 6.67338E-06 1.08446E-03 2.90484E-13-2.92287E-13
 -1      1455 1.99969E+01-2.61174E-05-8.87000E-07 4.50900E-04 2.43756E-14-3.62006E-14
 -1      1456 1.99975E+01-2.99541E-05 1.50294E-06 4.36022E-04-8.94007E-15-9.30055E-15
 -1      1457 1.99970E+01-4.89107E-05 7.20964E-06 9.38067E-04 8.99814E-14-2.21241E-13
 -1      1458 1.99979E+01-2.68709E-05-1.23995E-06 3.72607E-04 1.06207E-13 7.40555E-14
 -1      1459 1.99983E+01-3.03858E-05 9.75723E-07 3.57696E-04 7.12376E-14 1.42093E-13
 -1      1460 1.99979E+01-4.84462E-05 7.52123E-06 7.87901E-04 7.00992E-14-3.44131E-14
 -1      1461 1.99986E+01-2.89753E-05-6.60423E-07 2.91274E-04 4.52286E-14 1.72302E-13
 -1      1462 1.99990E+01-3.27057E-05 1.42189E-06 2.75179E-04 3.52622E-14 2.84262E-13
 -1      1463 1.99985E+01-5.05655E-05 8.03699E-06 6.33179E-04 1.18140E-13 5.41949E-14
 -1      1464 1.99992E+01-3.33922E-05 1.11228E-06 2.01786E-04 1.87345E-13 3.09314E-13
 -1      1465 1.99994E+01-3.69701E-05 2.05599E-06 1.82484E-04 2.06190E-13 5.23249E-13
 -1      1466 1.99991E+01-5.75310E-05 8.75655E-06 4.66637E-04 1.73144E-13-6.31983E-14
 -1      1467 1.99996E+01-4.26836E-05 1.85742E-06 9.85918E-05-4.24123E-14 5.22868E-13
 -1      1468 1.99997E+01-3.74546E-05-1.52544E-06 7.58101E-05-1.74868E-13 4.20410E-13
 -1      1469 1.99995E+01-6.99738E-05 8.79024E-06 2.81495E-04 1.40194E-13 1.78991E-13
 -1      1470 1.99998E+01-7.79752E-06-5.43050E-06-9.43987E-06-3.13308E-13 2.96879E-13
 -1      1471 1.99997E+01-5.42185E-05 2.69434E-06 6.95072E-05-4.22831E-13 2.05025E-13
 -1      1472 2.40849E+01 9.10964E-02-1.40362E-01 1.37729E-02 1.86628E-13 2.31130E-12
 -1      1473 2.46843E+01 2.54930E-01-2.18259E-01 2.49112E-01 1.67699E-13 2.59257E-12
 -1      1474 2.46318E+01 8.27614E-01-1.11621E-01 1.23873E+00 3.22804E-13 1.78790E-12
 -1      1475 2.44709E+01 6.91099E-02-2.97207E-02-3.94913E-01 1.38906E-13 1.94458E-12
 -1      1476 2.41244E+01 1.72800E-01-5.42020E-02-3.00952E-01 1.35853E-13 2.15513E-12
 -1      1477 2.41369E+01 2.24969E-01-7.58922E-02-1.80994E-01 2.76092E-13 1.48613E-12
 -1      1478 2.57827E+01 5.80091E-02-1.38834E-02-7.03224E-01 7.85327E-14 1.67090E-12
 -1      1479 2.49387E+01 1.32090E-01-2.16013E-03-6.12239E-01 8.91648E-14 1.82311E-12
 -1      1480 2.45852E+01 1.53939E-01-4.26084E-02-9.31276E-01 2.09222E-13 1.25722E-12
 -1      1481 2.77652E+01 2.93877E-02-3.46769E-03-9.30436E-01 4.69052E-14 1.53945E-12
 -1      1482 2.65581E+01 9.81873E-02 2.76083E-03-8.50062E-01 3.75056E-14 1.61447E-12
 -1      1483 2.57443E+01 1.14204E-01-3.55862E-02-1.46180E+00 1.10769E-13 1.08935E-12
 -1      1484 3.00364E+01-4.96953E-02 4.38089E-02-9.54004E-01-2.05443E-14 1.51151E-12
 -1      1485 2.86959E+01 6.78817E-03 1.17070E-02-9.31283E-01-1.49707E-15 1.53319E-12
 -1      1486 2.73798E+01 1.41386E-02-1.32826E-02-1.74118E+00 3.60718E-14 1.06694E-12
 -1      1487 3.17896E+01-1.96910E-01 1.41099E-01-5.11272E-01-1.38046E-13 1.78573E-12
 -1      1488 3.08484E+01-1.99792E-01 4.92126E-02-6.44677E-01-1.29240E-13 1.58189E-12
 -1      1489 2.91540E+01-2.25897E-01 5.10594E-02-1.45890E+00-1.62415E-13 1.17601E-12
 -1      1490 3.16232E+01-3.54601E-01 1.88715E-01 7.13958E-01-4.91655E-14 2.05863E-12
 -1      1491 3.20614E+01-4.92316E-01 1.02164E-01 2.85878E-01-7.95683E-14 1.91331E-12
 -1      1492 3.04909E+01-6.20142E-01 1.42030E-01-1.17051E-01-2.14204E-13 1.36620E-12
 -1      1493 2.84173E+01-2.40948E-01-4.41913E-02 2.14818E+00 4.16750E-14 2.13857E-12
 -1      1494 3.08706E+01-5.51670E-01 4.84595E-02 1.64528E+00 1.68624E-14 2.11292E-12
 -1      1495 3.04693E+01-8.37020E-01 1.23893E-01 2.23032E+00-7.05876E-14 1.61382E-12
 -1      1496 2.40009E+01 2.35197E-01-4.68980E-01 2.35895E+00 2.48940E-13 1.80833E-12
 -1      1497 2.71497E+01-4.36005E-02-2.00134E-01 2.26156E+00 1.30868E-13 1.97625E-12
 -1      1498 2.88753E+01-1.91528E-01-6.89844E-02 3.85861E+00 1.63938E-13 1.52318E-12
 -1      1499 2.14675E+01 6.52425E-01-7.34075E-01 6.09975E-01 3.64736E-13 1.10660E-12
 -1      1500 2.31967E+01 7.06411E-01-4.90057E-01 1.12663E+00 3.21854E-13 1.48159E-12
 -1      1501 2.69230E+01 1.08044E+00-3.10553E-01 2.70259E+00 5.42622E-13 1.01470E-12
 -1      1502 2.33082E+01 4.25317E-01-5.24512E-01-1.81377E+00 3.50928E-13 2.20768E-13
 -1      1503 2.19931E+01 8.42494E-01-5.59638E-01-1.08984E+00 3.72841E-13 7.20812E-13
 -1      1504 2.64353E+01 1.60079E+00-4.00366E-01-8.98912E-01 7.29361E-13 3.40061E-13
 -1      1505 2.84532E+01-1.77775E-01-1.34666E-02-2.58039E+00 2.79776E-13-6.07181E-13
 -1      1506 2.48645E+01 1.91185E-01-2.97708E-01-2.33752E+00 2.90754E-13-1.24345E-13
 -1      1507 2.81083E+01 5.41772E-01-2.68034E-01-3.75528E+00 6.44151E-13-4.13357E-13
 -1      1508 3.22596E+01-3.59052E-01 2.56828E-01-1.32313E+00 3.84831E-14-8.62643E-13
 -1      1509 2.95087E+01-3.52079E-01 4.43871E-02-1.60774E+00 8.06959E-14-7.01439E-13
 -1      1510 3.02695E+01-7.92113E-01-7.98650E-02-3.32366E+00 3.07084E-13-8.80185E-13
 -1      1511 3.28728E+01-2.25134E-01 1.99840E-01 1.14522E-01-7.60763E-14-7.38701E-13
 -1      1512 3.22062E+01-3.99267E-01 1.52450E-01-2.21044E-01-3.55410E-14-7.57477E-13
 -1      1513 3.10309E+01-9.65527E-01 3.00588E-02-9.96459E-01-1.97897E-14-8.97490E-13
 -1      1514 3.12949E+01-6.75205E-02 6.22007E-02 8.49243E-01-1.69989E-13-3.69288E-13
 -1      1515 3.21070E+01-2.15419E-01 9.19277E-02 6.73301E-01-1.46893E-13-5.85250E-13
 -1      1516 3.02343E+01-5.10756E-01 4.43534E-02 8.98701E-01-2.38892E-13-6.13794E-13
 -1      1517 2.89461E+01 1.61655E-02-1.87588E-02 9.97295E-01-1.26652E-13-5.91888E-14
 -1      1518 3.02970E+01-5.58815E-02 1.46839E-02 9.52570E-01-1.31584E-13-2.65676E-13
 -1      1519 2.85824E+01-1.10404E-01 2.27883E-02 1.69939E+00-2.40495E-13-4.09610E-13
 -1      1520 2.66775E+01 4.25265E-02-4.09585E-02 8.70668E-01 1.29584E-14 6.33799E-14
 -1      1521 2.79947E+01 2.49950E-02-2.09702E-02 8.87139E-01-4.81837E-14 1.51684E-14
 -1      1522 2.67318E+01 7.98212E-02 5.67162E-03 1.74147E+00-1.46994E-13-3.04538E-13
 -1      1523 2.48103E+01 4.20681E-02-3.68621E-02 6.72975E-01 1.53929E-13-2.61000E-13
 -1      1524 2.58837E+01 5.04249E-02-2.54598E-02 7.06103E-01 1.34683E-13-4.05440E-14
 -1      1525 2.50547E+01 1.29597E-01-1.00878E-03 1.46053E+00 1.78638E-13-3.09808E-13
 -1      1526 2.33376E+01 3.36121E-02-2.48699E-02 4.81526E-01-1.37494E-13-2.72424E-13
 -1      1527 2.41648E+01 4.90894E-02-1.87368E-02 5.15910E-01-8.34610E-14-3.89758E-13
 -1      1528 2.36630E+01 1.18691E-01-1.32030E-03 1.10713E+00 5.80092E-15-2.87468E-13
 -1      1529 2.23286E+01 2.44481E-02-1.56587E-02 3.39519E-01-7.12434E-14-9.73180E-15
 -1      1530 2.28885E+01 4.05323E-02-1.04933E-02 3.65303E-01-1.22038E-13-2.54380E-13
 -1      1531 2.26008E+01 9.07755E-02-1.87348E-03 7.97574E-01-1.89158E-13-4.36425E-13
 -1      1532 2.16095E+01 1.72389E-02-9.57297E-03 2.36343E-01-4.07651E-14 1.60584E-13
 -1      1533 2.20004E+01 3.04736E-02-5.45975E-03 2.55391E-01-7.67598E-14 1.01998E-13
 -1      1534 2.18408E+01 6.50331E-02-1.41039E-03 5.65130E-01-1.75106E-13-1.49643E-13
 -1      1535 2.11041E+01 1.19363E-02-5.79737E-03 1.63491E-01-6.56927E-14 3.44370E-13
 -1      1536 2.13745E+01 2.20651E-02-2.53665E-03 1.77139E-01-5.48550E-14 3.01844E-13
 -1      1537 2.12909E+01 4.52034E-02-1.08251E-03 3.95672E-01-1.48207E-13-3.55132E-14
 -1      1538 2.07508E+01 8.22059E-03-3.51842E-03 1.12816E-01-1.04437E-14 3.72875E-13
 -1      1539 2.09371E+01 1.57035E-02-1.00884E-03 1.22449E-01-2.95133E-14 3.23523E-13
 -1      1540 2.08977E+01 3.09516E-02-8.72578E-04 2.75451E-01-6.34614E-14 2.12460E-14
 -1      1541 2.05047E+01 5.66613E-03-2.14850E-03 7.77334E-02-1.90763E-14 5.46169E-13
 -1      1542 2.06328E+01 1.11027E-02-2.64901E-04 8.45057E-02-7.75179E-14 4.12769E-13
 -1      1543 2.06184E+01 2.10958E-02-7.18039E-04 1.91218E-01-6.80536E-14 2.38930E-14
 -1      1544 2.03337E+01 3.91798E-03-1.31822E-03 5.34348E-02 8.13759E-15 5.58852E-13
 -1      1545 2.04216E+01 7.84369E-03 7.11059E-05 5.82016E-02 3.55731E-14 6.15976E-13
 -1      1546 2.04208E+01 1.43874E-02-5.91695E-04 1.32445E-01-1.73711E-14 6.03283E-15
 -1      1547 2.02152E+01 2.68075E-03-8.61882E-04 3.65435E-02 4.31984E-14 3.65818E-13
 -1      1548 2.02755E+01 5.57904E-03 2.08868E-04 3.99172E-02 5.83907E-14 5.32919E-13
 -1      1549 2.02817E+01 9.84338E-03-4.91812E-04 9.14354E-02 5.80311E-14 2.16166E-13
 -1      1550 2.01305E+01 1.81575E-03-5.03418E-04 2.42859E-02 4.21539E-14 6.06493E-13
 -1      1551 2.01728E+01 3.88931E-03 2.33292E-04 2.68393E-02-5.29457E-14 4.70913E-13
 -1      1552 2.01824E+01 6.80261E-03-3.28921E-04 6.22744E-02-4.22274E-14 1.21643E-13
 -1      1553 2.00763E+01 1.29671E-03-2.90612E-04 1.62527E-02 4.81589E-14 5.41969E-13
 -1      1554 2.01031E+01 2.78202E-03 2.45352E-04 1.79256E-02 8.91415E-14 6.50465E-13
 -1      1555 2.01136E+01 4.53413E-03-3.24140E-04 4.18166E-02 6.07737E-14 2.22133E-13
 -1      1556 2.00399E+01 9.02831E-04-1.68903E-04 1.06298E-02-7.63883E-15 4.01872E-13
 -1      1557 2.00576E+01 1.96156E-03 2.04980E-04 1.18249E-02 2.18919E-14 5.51412E-13
 -1      1558 2.00678E+01 3.13226E-03-2.49458E-04 2.79572E-02-3.06330E-15 4.80355E-13
 -1      1559 2.00161E+01 6.23346E-04-9.03145E-05 6.72079E-03 2.19491E-13 1.08158E-13
 -1      1560 2.00274E+01 1.39174E-03 1.74522E-04 7.57246E-03 9.00409E-14 3.16539E-13
 -1      1561 2.00368E+01 2.14303E-03-1.96127E-04 1.82576E-02 1.29974E-13 3.05145E-13
 -1      1562 2.00011E+01 4.24985E-04-4.01281E-05 4.02675E-03-1.59105E-14-1.98844E-13
 -1      1563 2.00080E+01 9.81700E-04 1.46057E-04 4.63006E-03 1.40225E-13-3.16758E-14
 -1      1564 2.00163E+01 1.45097E-03-1.52877E-04 1.15022E-02 2.35559E-13 1.65631E-13
 -1      1565 1.99922E+01 2.83740E-04-8.83199E-06 2.19594E-03-3.08263E-13 2.48291E-13
 -1      1566 1.99961E+01 6.85296E-04 1.20524E-04 2.61898E-03-2.68710E-13-1.94389E-13
 -1      1567 2.00032E+01 9.65552E-04-1.18015E-04 6.84224E-03-2.64422E-13 3.65018E-13
 -1      1568 1.99874E+01 1.80019E-04 7.18917E-06 9.73040E-04 7.93014E-14 2.79607E-13
 -1      1569 1.99893E+01 4.75175E-04 9.95211E-05 1.26962E-03 8.86604E-14 4.31388E-13
 -1      1570 1.99953E+01 6.23766E-04-9.12173E-05 3.67662E-03-4.05568E-14 5.09926E-13
 -1      1571 1.99853E+01 1.04694E-04 1.89672E-05 1.56848E-04-9.96297E-14 2.78957E-13
 -1      1572 1.99859E+01 3.14809E-04 8.05661E-05 3.70104E-04-1.11719E-13 1.92960E-13
 -1      1573 1.99908E+01 3.96052E-04-6.33209E-05 1.54544E-03 3.58901E-15 6.98393E-13
 -1      1574 1.99851E+01 6.38531E-05 2.63502E-05-3.06590E-04 9.36754E-14 2.55293E-13
 -1      1575 1.99848E+01 2.05333E-04 6.46658E-05-1.79532E-04 1.81375E-13 3.84688E-13
 -1      1576 1.99888E+01 2.15006E-04-5.11931E-05 1.73098E-04 5.17469E-14 5.45924E-13
 -1      1577 1.99859E+01 3.16535E-05 2.76748E-05-5.70133E-04 6.33264E-14 1.12406E-13
 -1      1578 1.99852E+01 1.25059E-04 4.99718E-05-4.90104E-04-1.49196E-14 4.90102E-14
 -1      1579 1.99883E+01 1.11047E-04-3.62974E-05-6.27389E-04 1.27182E-13 5.18994E-13
 -1      1580 1.99873E+01 1.04748E-05 2.69097E-05-6.95220E-04-2.00228E-13 3.10385E-13
 -1      1581 1.99864E+01 7.17232E-05 3.91774E-05-6.48345E-04-2.11423E-14 1.39540E-13
 -1      1582 1.99888E+01 3.97928E-05-2.60752E-05-1.07153E-03-2.67832E-14 2.73412E-13
 -1      1583 1.99890E+01-2.78631E-06 2.48372E-05-7.30118E-04-8.11697E-15 3.41190E-13
 -1      1584 1.99879E+01 3.55800E-05 3.04517E-05-7.05862E-04-5.43670E-14 2.78425E-13
 -1      1585 1.99898E+01-5.15312E-06-1.83967E-05-1.27633E-03-1.39950E-13 2.84005E-13
 -1      1586 1.99907E+01-1.04997E-05 2.20600E-05-7.09159E-04 2.15812E-13 2.78232E-13
 -1      1587 1.99897E+01 1.19028E-05 2.33945E-05-6.99813E-04 2.46752E-14 2.88248E-13
 -1      1588 1.99911E+01-3.16237E-05-1.27201E-05-1.32595E-03 4.65721E-14 4.26282E-14
 -1      1589 1.99924E+01-1.44728E-05 1.89688E-05-6.56252E-04-6.16825E-14 1.70564E-13
 -1      1590 1.99914E+01-2.88695E-06 1.77198E-05-6.56299E-04 1.19897E-13 3.40613E-13
 -1      1591 1.99925E+01-4.54497E-05-8.62183E-06-1.28006E-03 4.80340E-14 1.79853E-13
 -1      1592 1.99939E+01-1.59578E-05 1.63032E-05-5.88203E-04 3.54648E-13-6.58418E-14
 -1      1593 1.99931E+01-1.12242E-05 1.33092E-05-5.93068E-04 1.78953E-13 1.52577E-13
 -1      1594 1.99938E+01-5.11629E-05-5.75604E-06-1.18023E-03 2.13744E-13 2.07556E-13
 -1      1595 1.99954E+01-1.63721E-05 1.30122E-05-5.10240E-04-1.62658E-13-7.61012E-14
 -1      1596 1.99946E+01-1.54479E-05 9.92605E-06-5.19016E-04-4.35445E-14-1.94138E-13
 -1      1597 1.99951E+01-5.08432E-05-4.02801E-06-1.05032E-03 1.46820E-13 1.40340E-13
 -1      1598 1.99966E+01-1.53918E-05 1.06914E-05-4.35828E-04 2.14117E-13 5.46008E-14
 -1      1599 1.99959E+01-1.79319E-05 6.80072E-06-4.45712E-04-3.18578E-14-2.31176E-14
 -1      1600 1.99963E+01-4.87106E-05-2.19879E-06-9.11385E-04-5.51040E-14 1.48641E-13
 -1      1601 1.99976E+01-1.50437E-05 8.97017E-06-3.64141E-04-6.54814E-15-2.52995E-13
 -1      1602 1.99970E+01-1.92278E-05 4.71168E-06-3.74811E-04 7.77758E-14-9.82512E-14
 -1      1603 1.99972E+01-4.50869E-05-9.28195E-07-7.75169E-04 1.75987E-13 1.70106E-13
 -1      1604 1.99984E+01-1.54728E-05 8.32111E-06-2.93025E-04 3.01896E-14-2.33377E-13
 -1      1605 1.99980E+01-2.08187E-05 3.40738E-06-3.04923E-04 3.53072E-15-3.67997E-13
 -1      1606 1.99980E+01-4.28864E-05 4.22199E-07-6.40381E-04 6.35127E-14 1.25496E-14
 -1      1607 1.99991E+01-1.73131E-05 9.02471E-06-2.18153E-04-2.95605E-13 1.49134E-13
 -1      1608 1.99987E+01-2.41469E-05 3.08150E-06-2.32645E-04-1.21809E-13-2.98465E-14
 -1      1609 1.99987E+01-4.33448E-05 2.43253E-06-5.02654E-04-1.70209E-13-9.67707E-14
 -1      1610 1.99995E+01-2.09858E-05 9.29530E-06-1.32451E-04-9.29066E-14 3.23883E-13
 -1      1611 1.99993E+01-3.03461E-05 3.47464E-06-1.52639E-04-2.10096E-13 6.18602E-14
 -1      1612 1.99992E+01-4.85177E-05 4.92106E-06-3.53414E-04-3.14296E-13 1.35098E-13
 -1      1613 1.99997E+01-2.40188E-05-6.41620E-07-3.87896E-05-7.30518E-14 3.39781E-13
 -1      1614 1.99997E+01-3.51649E-05 2.00071E-06-6.29000E-05-5.61999E-14 1.65968E-13
 -1      1615 1.99996E+01-5.50570E-05 5.99532E-06-1.84644E-04-2.52578E-14-2.56305E-13
 -1      1616 1.99998E+01-1.04334E-05-5.94992E-06 3.89793E-06 3.16558E-13 2.10025E-13
 -1      1617 1.99998E+01-1.96065E-04 5.10720E-06-1.03555E-04-3.58874E-13-2.94467E-13
 -1      1618 1.99998E+01-9.89651E-05-2.20836E-06-7.92320E-05 1.56410E-13-3.43389E-13
 -1      1619 1.99998E+01-5.59170E-04 3.24560E-06-1.90422E-04 5.60139E-15 1.89567E-13
 -1      1620 1.99998E+01-3.48660E-04 3.42055E-06-1.75286E-04-1.25238E-13 4.01104E-14
 -1      1621 1.99997E+01-3.39890E-04 6.21637E-06-2.73834E-04-1.70216E-13-1.51889E-13
 -1      1622 1.99998E+01-1.03604E-03 9.83146E-07-2.38778E-04-1.71334E-13-2.07820E-13
 -1      1623 1.99998E+01-7.59639E-04 2.27439E-06-2.32626E-04 1.27975E-13 6.96378E-14
 -1      1624 1.99998E+01-6.90738E-04 5.18932E-06-4.10348E-04-7.69107E-14 1.18881E-13
 -1      1625 1.99998E+01-1.54849E-03-3.70697E-07-2.44772E-04-2.74010E-13-1.20914E-13
 -1      1626 1.99998E+01-1.25783E-03 7.92749E-07-2.47009E-04-2.96238E-13-8.30790E-14
 -1      1627 1.99998E+01-1.11157E-03 7.88782E-07-4.69733E-04-1.37084E-13-1.82687E-13
 -1      1628 1.99998E+01-2.01157E-03-8.18599E-07-2.14597E-04-4.16851E-13-1.18111E-14
 -1      1629 1.99998E+01-1.75601E-03 4.79433E-08-2.23175E-04-3.11792E-13-1.89532E-13
 -1      1630 1.99998E+01-1.53855E-03-3.32364E-06-4.52122E-04-1.57478E-13-1.64223E-13
 -1      1631 1.99998E+01-2.37786E-03-8.72475E-07-1.55485E-04 2.46940E-13 3.21171E-13
 -1      1632 1.99998E+01-2.18469E-03-3.34140E-07-1.69041E-04-2.23530E-13 4.77750E-13
 -1      1633 1.99998E+01-1.91610E-03-6.42639E-06-3.70720E-04-1.25808E-13 2.94157E-13
 -1      1634 1.99998E+01-2.59192E-03-7.43063E-07-7.72394E-05 7.90551E-13 1.75971E-13
 -1      1635 1.99998E+01-2.49004E-03-4.67209E-07-9.36557E-05 4.67042E-13 4.19036E-13
 -1      1636 1.99998E+01-2.19833E-03-8.56793E-06-2.40805E-04 3.47952E-14 6.03171E-13
 -1      1637 1.99998E+01-2.62842E-03-5.91254E-07 9.99875E-06 7.66962E-13-1.06070E-13
 -1      1638 1.99998E+01-2.62994E-03-5.88172E-07-7.33137E-06 7.90934E-13-1.76897E-13
 -1      1639 1.99999E+01-2.34689E-03-9.61740E-06-8.17397E-05 2.40199E-13 3.31112E-14
 -1      1640 1.99998E+01-2.48327E-03-4.45060E-07 9.59584E-05 5.60090E-13-2.30751E-13
 -1      1641 1.99998E+01-2.58787E-03-7.32395E-07 7.96701E-05 7.96196E-13-6.29283E-14
 -1      1642 1.99999E+01-2.34430E-03-9.57844E-06 8.67184E-05 3.96317E-13-1.99176E-13
 -1      1643 1.99998E+01-2.17412E-03-2.63575E-07 1.70477E-04 2.34635E-13-2.86911E-13
 -1      1644 1.99998E+01-2.36909E-03-8.96062E-07 1.57173E-04 7.08284E-13-3.18236E-13
 -1      1645 1.99998E+01-2.19112E-03-8.44450E-06 2.44726E-04 3.44572E-13-3.35909E-13
 -1      1646 1.99998E+01-1.74763E-03 8.97483E-09 2.23063E-04 1.54028E-14 7.87940E-14
 -1      1647 1.99998E+01-2.00352E-03-8.40783E-07 2.14736E-04 1.10286E-13-5.23106E-14
 -1      1648 1.99998E+01-1.90867E-03-6.34625E-06 3.72073E-04 1.26240E-13-2.38943E-13
 -1      1649 1.99998E+01-1.24614E-03 7.60199E-07 2.46319E-04 1.08815E-13 9.32569E-14
 -1      1650 1.99998E+01-1.53625E-03-3.80369E-07 2.44299E-04 4.53138E-14 2.71605E-13
 -1      1651 1.99998E+01-1.53023E-03-3.16890E-06 4.51685E-04-2.19381E-14 2.90500E-13
 -1      1652 1.99998E+01-7.50231E-04 2.34419E-06 2.31660E-04-3.35889E-13-1.73069E-13
 -1      1653 1.99998E+01-1.02531E-03 9.04893E-07 2.37435E-04 1.26396E-14-1.50264E-13
 -1      1654 1.99998E+01-1.10054E-03 8.64337E-07 4.67809E-04-7.52618E-14-1.66272E-13
 -1      1655 1.99998E+01-3.48616E-04 9.27912E-07 1.74400E-04-6.61242E-13-1.47151E-13
 -1      1656 1.99998E+01-5.53114E-04 3.15759E-06 1.89759E-04-4.02536E-13-1.57529E-13
 -1      1657 1.99998E+01-6.82848E-04 4.97831E-06 4.07204E-04-2.18018E-13-4.22062E-13
 -1      1658 1.99997E+01-1.39363E-04-4.35037E-06 1.21498E-04-5.72256E-13 5.77498E-14
 -1      1659 1.99997E+01-2.39802E-04 2.71567E-06 1.56468E-04-6.07012E-13-2.48294E-14
 -1      1660 1.99997E+01-3.78918E-04 5.00014E-06 3.26311E-04-2.38611E-13-1.45590E-14
 -1      1661 1.99996E+01-1.81898E-04-1.48700E-06 2.42856E-04-1.13923E-13 9.36194E-14
 -1      1662-1.10700E+00-1.70800E+01-1.83277E+00-2.10419E+00 2.19791E-12 1.11380E-12
 -1      1663-8.57331E-01-1.81711E+01-1.87950E+00-4.40920E-01 1.10641E-12 7.60503E-13
 -1      1664 4.82175E-01-1.12924E+01-1.46863E+00-9.39755E-01 3.04956E-12 1.69662E-12
 -1      1665 1.07058E-01-1.56373E+01-1.78367E+00-9.92053E-01 2.44216E-12 1.19817E-12
 -1      1666 5.02364E+00-4.21165E+00-1.08135E+00 2.22742E+00 3.46168E-12 2.55407E-12
 -1      1667 2.66222E+00-9.80551E+00-1.68230E+00-8.63324E-02 3.40872E-12 1.94539E-12
 -1      1668 1.56273E+01 1.99046E+00-3.25346E-01 7.60562E+00 3.04712E-12 2.92255E-12
 -1      1669 9.25277E+00-2.47189E+00-1.25084E+00 3.60091E+00 3.35754E-12 2.71416E-12
 -1      1670 3.19846E+01 4.73979E+00 6.93910E-01 1.15474E+01 2.08866E-12 2.45071E-12
 -1      1671 2.14869E+01 3.29938E+00-4.39429E-01 8.47474E+00 2.79654E-12 2.81575E-12
 -1      1672 5.09378E+01 4.20913E+00 1.88622E+00 9.37450E+00 1.09687E-12 1.23146E-12
 -1      1673 3.87080E+01 5.17316E+00 7.10013E-01 1.01595E+01 1.75027E-12 2.02638E-12
 -1      1674 6.32127E+01 3.71133E+00 2.78747E+00 3.83796E+00 5.93053E-13-9.48130E-14
 -1      1675 5.64502E+01 5.04340E+00 2.14162E+00 8.92936E+00 7.83512E-13 9.42579E-13
 -1      1676 6.16392E+01 4.37238E+00 2.47889E+00-4.61471E+00 9.53349E-13-1.71124E-12
 -1      1677 6.33235E+01 4.04206E+00 2.68532E+00 1.64373E+00 7.89813E-13-5.32518E-13
 -1      1678 4.98003E+01 5.52386E+00 1.50140E+00-9.87273E+00 1.55236E-12-2.83573E-12
 -1      1679 5.88710E+01 4.05535E+00 2.36036E+00-6.18982E+00 1.03631E-12-2.05669E-12
 -1      1680 3.28545E+01 4.75654E+00 2.63223E-01-9.99671E+00 2.13929E-12-3.12306E-12
 -1      1681 4.47211E+01 4.47958E+00 1.42437E+00-1.07583E+01 1.65984E-12-3.02758E-12
 -1      1682 1.74946E+01 9.31406E-01-7.41742E-01-6.64760E+00 2.46780E-12-2.73492E-12
 -1      1683 2.67502E+01 3.50621E+00 3.06552E-01-1.02712E+01 2.22955E-12-3.18745E-12
 -1      1684 6.22461E+00-4.93048E+00-1.50579E+00-2.14646E+00 2.50844E-12-2.07401E-12
 -1      1685 1.10653E+01 1.60680E-01-6.70234E-01-5.80651E+00 2.68963E-12-2.69518E-12
 -1      1686 1.06388E+00-1.23820E+01-1.92444E+00 1.00069E+00 1.73050E-12-1.23640E-12
 -1      1687 2.49780E+00-6.77499E+00-1.36952E+00-5.50234E-01 2.40075E-12-1.83109E-12
 -1      1688-5.08239E-01-1.74511E+01-1.99244E+00 1.06984E+00 3.84304E-13-6.78929E-13
 -1      1689-5.25920E-01-1.39280E+01-1.75058E+00 1.82628E+00 1.39067E-12-1.02253E-12
 -1      1690-8.57974E-01-1.75410E+01-1.84589E+00-1.76148E-01-1.00142E-12-5.69877E-13
 -1      1691-1.02702E+00-1.82057E+01-1.98258E+00 1.67493E+00-1.33504E-14-5.37737E-13
 -1      1692 4.02987E-01-1.16228E+01-1.28015E+00 4.90416E-01-1.94800E-12-1.06408E-12
 -1      1693 4.88643E-02-1.54154E+01-1.64492E+00 9.64629E-01-1.20132E-12-7.53231E-13
 -1      1694 3.30008E+00-4.55729E+00-8.74363E-01 2.42246E+00-2.75935E-12-1.66994E-12
 -1      1695 1.86943E+00-1.03521E+01-1.47069E+00 9.44925E-01-2.36677E-12-1.15913E-12
 -1      1696 1.15984E+01 2.29372E+00-1.57993E-01 7.43996E+00-2.60458E-12-2.09688E-12
 -1      1697 7.15413E+00-2.72433E+00-9.49172E-01 4.00973E+00-2.67319E-12-1.74050E-12
 -1      1698 2.35951E+01 6.82172E+00 5.88939E-01 1.20944E+01-2.18603E-12-2.35989E-12
 -1      1699 1.56880E+01 4.44254E+00-3.07120E-01 8.58031E+00-2.63023E-12-2.26352E-12
 -1      1700 3.82737E+01 6.95972E+00 1.22222E+00 1.35880E+01-1.45423E-12-2.01661E-12
 -1      1701 2.88090E+01 7.68355E+00 4.54037E-01 1.27228E+01-1.98330E-12-2.35123E-12
 -1      1702 5.09974E+01 4.86524E+00 1.61785E+00 9.06558E+00-7.91665E-13-9.64562E-13
 -1      1703 4.30227E+01 6.70151E+00 1.09905E+00 1.19628E+01-1.19663E-12-1.67644E-12
 -1      1704 5.73173E+01 3.73880E+00 1.83304E+00 1.39271E+00-5.08010E-13 1.87655E-13
 -1      1705 5.41501E+01 4.63501E+00 1.60523E+00 6.84182E+00-6.21114E-13-6.20615E-13
 -1      1706 5.51393E+01 4.46751E+00 1.69194E+00-6.72230E+00-6.78235E-13 1.24056E-12
 -1      1707 5.77698E+01 3.64108E+00 1.86595E+00-1.36575E+00-4.77951E-13 5.58428E-13
 -1      1708 4.47934E+01 6.53332E+00 1.18551E+00-1.16566E+01-1.24994E-12 1.97808E-12
 -1      1709 5.19381E+01 4.80588E+00 1.65501E+00-8.58149E+00-8.26075E-13 1.41265E-12
 -1      1710 3.20510E+01 7.84562E+00 6.41593E-01-1.32387E+01-2.00673E-12 2.68585E-12
 -1      1711 4.07136E+01 6.80081E+00 1.31254E+00-1.34041E+01-1.51246E-12 2.32603E-12
 -1      1712 1.92360E+01 5.77426E+00-7.69303E-02-1.00598E+01-2.24976E-12 2.43938E-12
 -1      1713 2.72695E+01 7.14674E+00 7.50690E-01-1.28883E+01-2.05125E-12 2.68963E-12
 -1      1714 9.23402E+00 8.85869E-01-7.53201E-01-5.60264E+00-2.16960E-12 1.92557E-12
 -1      1715 1.44366E+01 4.79012E+00 6.78394E-02-9.10865E+00-2.33147E-12 2.44538E-12
 -1      1716 3.39300E+00-6.66038E+00-1.32013E+00-1.76132E+00-1.65890E-12 1.20010E-12
 -1      1717 5.87364E+00-1.10498E+00-6.16963E-01-4.25086E+00-2.09166E-12 1.75449E-12
 -1      1718 6.09831E-01-1.38504E+01-1.71117E+00-2.81812E-01-7.52176E-13 5.73073E-13
 -1      1719 1.22559E+00-8.81717E+00-1.22304E+00-6.58581E-01-1.38156E-12 9.08051E-13
 -1      1720-5.86095E-01-1.77731E+01-1.86369E+00-9.81480E-01 6.92613E-13 6.54032E-13
 -1      1721-4.60593E-01-1.51528E+01-1.61918E+00 2.74628E-01-3.45723E-13 7.14623E-13
 -1      1722 2.46686E+01-2.29084E+00-8.12220E-02 6.05318E+00 2.00373E-12 1.50857E-12
 -1      1723 1.29428E+01-6.15924E+00-7.55332E-01 5.08016E+00 1.98863E-12 1.73100E-12
 -1      1724 1.99998E+01-3.32781E-05 1.75228E-06-3.57482E-05 1.95471E-13-2.26955E-13
 -1      1725 1.99997E+01-1.33687E-04 7.83693E-07-1.39692E-04-1.83349E-13-5.52031E-13
 -1      1726-2.23470E-01-1.13539E+01-1.20851E+00 1.22872E+00 1.21758E-12 1.46655E-12
 -1      1727 4.62754E+00-9.36704E+00-1.09485E+00 3.33279E+00 1.77092E-12 1.57650E-12
 -1      1728-1.60449E+00-1.22149E+01-1.33323E+00-1.25426E+00 6.67799E-13 1.28958E-12
 -1      1729 3.77151E+01 1.38187E+00 7.52849E-01 4.57376E+00 1.67788E-12 9.24261E-13
 -1      1730 4.78208E+01 5.37761E+00 1.52999E+00 2.27789E+00 1.32538E-12 3.99347E-13
 -1      1731 5.35825E+01 7.70406E+00 2.15225E+00 6.61714E-01 1.27864E-12-2.62568E-13
 -1      1732 5.10666E+01 7.42095E+00 1.87249E+00-1.22982E+00 1.37679E-12-7.76990E-13
 -1      1733 4.42504E+01 4.02963E+00 1.19979E+00-2.82929E+00 1.33023E-12-1.28986E-12
 -1      1734 3.38072E+01-5.20023E-01 4.15562E-01-4.79177E+00 1.19649E-12-1.64313E-12
 -1      1735 2.11930E+01-3.87465E+00-2.20713E-01-6.01115E+00 1.30163E-12-1.83664E-12
 -1      1736 9.38619E+00-7.21701E+00-9.09868E-01-4.58226E+00 1.24645E-12-1.68457E-12
 -1      1737 2.04263E+00-1.05217E+01-1.30218E+00-2.27826E+00 7.71605E-13-1.40574E-12
 -1      1738-1.32357E+00-1.23375E+01-1.42339E+00-1.51917E-01 1.16407E-13-1.18200E-12
 -1      1739-8.51226E-01-1.08701E+01-1.16101E+00 2.38711E+00-5.24414E-13-1.13892E-12
 -1      1740 2.83001E+00-8.52069E+00-9.38176E-01 4.41967E+00-9.58678E-13-1.22044E-12
 -1      1741 9.80201E+00-5.29243E+00-5.50519E-01 6.41395E+00-1.41376E-12-1.22086E-12
 -1      1742 1.90996E+01-1.29233E+00-1.07469E-01 7.70668E+00-1.51579E-12-1.25822E-12
 -1      1743 2.93821E+01 3.06508E+00 4.96169E-01 8.37308E+00-1.54338E-12-1.28819E-12
 -1      1744 3.94518E+01 5.81528E+00 1.05416E+00 7.02428E+00-1.31180E-12-9.97313E-13
 -1      1745 4.62765E+01 7.43536E+00 1.37429E+00 3.64910E+00-1.07558E-12-4.68292E-13
 -1      1746 4.96588E+01 7.79643E+00 1.58033E+00-3.87865E-02-9.19820E-13 1.09981E-14
 -1      1747 4.70311E+01 7.41129E+00 1.39787E+00-3.64793E+00-9.69003E-13 5.39069E-13
 -1      1748 4.07464E+01 6.22684E+00 1.12216E+00-6.73376E+00-1.24851E-12 1.05593E-12
 -1      1749 3.19629E+01 3.84757E+00 6.65271E-01-8.35045E+00-1.31939E-12 1.49136E-12
 -1      1750 2.20504E+01 6.03718E-01 1.54394E-01-8.21296E+00-1.21303E-12 1.58495E-12
 -1      1751 1.25504E+01-3.29407E+00-4.19107E-01-6.85419E+00-1.08946E-12 1.52650E-12
 -1      1752 5.23756E+00-7.52046E+00-8.88928E-01-4.93007E+00-7.80043E-13 1.21200E-12
 -1      1753 4.95869E-01-1.07836E+01-1.19899E+00-3.07026E+00-1.26232E-13 1.05738E-12
 -1      1754 2.37189E+01 2.00653E+00-2.52200E-02-2.69304E+00-3.62363E-13 7.77212E-13
 -1      1755 2.05314E+01 3.53670E+00-3.57937E-02-1.98790E+00-2.87711E-13-6.98143E-13
 -1      1756 2.07918E+01 3.42175E+00-4.68315E-02-2.33435E+00-3.75453E-13-5.95281E-13
 -1      1757 2.11218E+01 3.10763E+00-4.73166E-02-2.50928E+00-4.20955E-13-4.41015E-13
 -1      1758 2.13660E+01 2.76183E+00-1.48236E-01-2.81046E+00-4.96235E-13-2.53311E-13
 -1      1759 2.12010E+01 2.51370E+00-8.32500E-03-2.17400E+00-4.27370E-13-4.63928E-13
 -1      1760 1.97533E+01 3.82108E+00-2.07921E-02-7.80777E-01-2.58760E-14-7.75047E-13
 -1      1761 1.99448E+01 3.80946E+00-2.02633E-02-1.08802E+00-9.09967E-14-7.80025E-13
 -1      1762 1.93028E+01 3.90389E+00-1.85417E-02-1.77241E-01 7.92508E-14-7.78653E-13
 -1      1763 1.95436E+01 3.89097E+00-1.32201E-02-4.68221E-01 3.13703E-14-7.88376E-13
 -1      1764 1.99171E+01 3.28214E+00-1.60007E-02-5.87969E-01-2.63548E-15-7.48976E-13
 -1      1765 1.87418E+01 4.03140E+00-1.82748E-02 3.70241E-01 1.80853E-13-7.38127E-13
 -1      1766 1.90394E+01 4.00348E+00-6.91155E-03 1.17250E-01 1.39896E-13-7.66076E-13
 -1      1767 1.94100E+01 3.42711E+00-1.73115E-02 2.48150E-02 1.19607E-13-7.47581E-13
 -1      1768 1.81047E+01 4.22662E+00-1.89165E-02 8.07734E-01 2.76994E-13-7.13643E-13
 -1      1769 1.84326E+01 4.17932E+00-1.35941E-03 6.13833E-01 2.38788E-13-7.34262E-13
 -1      1770 1.87799E+01 3.64224E+00-1.70283E-02 5.76942E-01 2.29798E-13-7.12159E-13
 -1      1771 1.75029E+01 4.47719E+00-1.91538E-02 1.08370E+00 3.51306E-13-6.81694E-13
 -1      1772 1.77950E+01 4.41578E+00 1.95651E-03 9.65704E-01 3.16307E-13-7.03768E-13
 -1      1773 1.80820E+01 3.94187E+00-1.40036E-02 9.98106E-01 3.18654E-13-6.90092E-13
 -1      1774 1.71145E+01 4.72908E+00-1.76947E-02 1.17553E+00 4.16144E-13-6.35471E-13
 -1      1775 1.72739E+01 4.66833E+00 1.00952E-03 1.13363E+00 3.84538E-13-6.71538E-13
 -1      1776 1.74562E+01 4.28709E+00-8.16498E-03 1.22400E+00 4.02379E-13-6.60115E-13
 -1      1777 1.71335E+01 4.89474E+00-1.44883E-02 1.11980E+00 4.82792E-13-5.52358E-13
 -1      1778 1.70652E+01 4.85637E+00-5.42315E-03 1.12620E+00 4.46816E-13-6.02722E-13
 -1      1779 1.71077E+01 4.58230E+00-1.59035E-03 1.23370E+00 4.71444E-13-6.02465E-13
 -1      1780 1.77115E+01 4.88770E+00-1.13029E-02 1.01342E+00 5.45100E-13-4.12356E-13
 -1      1781 1.73441E+01 4.89316E+00-1.72857E-02 1.01678E+00 5.03562E-13-4.96998E-13
 -1      1782 1.72434E+01 4.70955E+00 3.67162E-03 1.07710E+00 5.32738E-13-5.03443E-13
 -1      1783 1.89020E+01 4.62520E+00-1.16087E-02 9.98428E-01 5.79859E-13-2.03337E-13
 -1      1784 1.82254E+01 4.70198E+00-3.30842E-02 9.29657E-01 5.54199E-13-3.31327E-13
 -1      1785 1.80105E+01 4.55672E+00 5.07731E-03 8.72631E-01 5.77826E-13-3.47744E-13
 -1      1786 2.06259E+01 4.02256E+00-2.40689E-02 1.21232E+00 6.04716E-13 1.38028E-13
 -1      1787 1.96971E+01 4.22141E+00-5.07229E-02 1.00844E+00 5.82015E-13-6.48266E-14
 -1      1788 1.94368E+01 4.04538E+00 6.29412E-03 7.67722E-01 6.00642E-13-1.12622E-13
 -1      1789 2.28101E+01 2.87952E+00-3.67485E-02 1.61122E+00 5.27357E-13 7.39520E-13
 -1      1790 2.16569E+01 3.37509E+00-5.89295E-02 1.31333E+00 5.57488E-13 3.83367E-13
 -1      1791 2.13611E+01 3.10997E+00 3.38310E-03 8.37554E-01 5.88673E-13 2.52628E-13
 -1      1792 2.43487E+01 1.25781E+00-1.07610E-01 1.30767E+00 4.08250E-13 1.41806E-12
 -1      1793 2.35339E+01 2.34629E+00-3.72303E-03 1.58065E+00 4.67241E-13 9.82256E-13
 -1      1794 2.30688E+01 1.92507E+00-1.62138E-03 7.79854E-01 5.20129E-13 7.24542E-13
 -1      1795 2.39566E+01 8.77709E-01-3.71795E-02 4.18057E-01 4.17152E-13 1.28025E-12
 -1      1796 2.26176E+01 2.46494E+00 8.99255E-02-3.01373E+00-4.63437E-13 1.28120E-13
 -1      1797 2.39233E+01 5.03445E-01 8.99425E-03-7.22727E-01 3.02772E-13 1.04834E-12
 -1      1798 2.39362E+01 6.08778E-01-2.39430E-03-1.97169E-01 3.35745E-13 1.16698E-12
 -1      1799 2.35363E+01 1.04651E+00-7.79592E-03-2.49482E-02 4.19359E-13 8.42878E-13
 -1      1800 2.23307E+01 1.68227E+00 7.92002E-02-2.31959E+00-4.81080E-13 5.96051E-15
 -1      1801 2.13173E+01 3.86730E-01 3.09698E-02-1.03532E+00-3.95274E-13-3.32356E-14
 -1      1802 2.08208E+01 2.20957E-01 1.75406E-04-8.12553E-01-3.44197E-13-1.27624E-13
 -1      1803 2.05907E+01 1.17788E-01 2.49627E-02-6.71073E-01-3.12733E-13-1.10943E-13
 -1      1804 2.02840E+01 3.08978E-02 3.17330E-03-6.16140E-01-2.61595E-13-1.88791E-13
 -1      1805 2.09601E+01 2.84392E-01-2.48954E-03-1.00883E+00-3.75968E-13-2.04298E-13
 -1      1806 2.00900E+01-1.45279E-02 1.37988E-02-5.89143E-01-2.19973E-13-1.96212E-13
 -1      1807 1.98377E+01-4.88597E-02 7.79372E-04-6.02079E-01-1.75931E-13-2.32050E-13
 -1      1808 2.05235E+01 2.67747E-02-1.72156E-03-8.05819E-01-2.83309E-13-2.27058E-13
 -1      1809 1.96572E+01-5.93262E-02 5.65227E-03-6.27315E-01-1.74997E-13-2.42596E-13
 -1      1810 1.94173E+01-5.72433E-02 7.72938E-04-6.57940E-01-1.62233E-13-2.91867E-13
 -1      1811 2.01518E+01-7.18583E-02-1.36813E-04-7.98656E-01-2.18292E-13-2.37793E-13
 -1      1812 1.92340E+01-3.96345E-02 1.75761E-03-6.84620E-01-1.53976E-13-2.95998E-13
 -1      1813 1.89980E+01-8.42107E-03 3.49483E-03-6.96467E-01-1.36893E-13-3.65492E-13
 -1      1814 1.97915E+01-6.49827E-02 4.94164E-04-8.54588E-01-1.91774E-13-2.59261E-13
 -1      1815 1.88122E+01 3.08585E-02 9.52766E-04-6.83147E-01-1.26412E-13-3.81470E-13
 -1      1816 1.85973E+01 8.09549E-02 7.35732E-03-6.49369E-01-1.19873E-13-4.02271E-13
 -1      1817 1.94257E+01 2.21666E-02-4.81561E-04-8.69941E-01-1.65802E-13-2.99610E-13
 -1      1818 1.84292E+01 1.29831E-01 2.45577E-03-5.68865E-01-1.50760E-13-3.87666E-13
 -1      1819 1.82669E+01 1.81615E-01 1.03840E-02-4.77806E-01-1.22297E-13-4.12969E-13
 -1      1820 1.90745E+01 1.58841E-01-3.25339E-03-7.66114E-01-1.43158E-13-2.95209E-13
 -1      1821 1.81497E+01 2.22407E-01 5.37593E-03-3.26941E-01-1.01109E-13-4.39402E-13
 -1      1822 1.80729E+01 2.55580E-01 1.10725E-02-1.88051E-01-6.61823E-14-4.29239E-13
 -1      1823 1.87912E+01 2.97927E-01-6.86065E-03-5.06972E-01-1.22439E-13-3.25843E-13
 -1      1824 1.80379E+01 2.71482E-01 8.44421E-03 7.80785E-03-1.11001E-13-4.67519E-13
 -1      1825 1.80667E+01 2.71645E-01 9.17491E-03 1.65352E-01-1.13467E-13-5.48151E-13
 -1      1826 1.86405E+01 3.85855E-01-9.42940E-03-1.16439E-01-1.55417E-13-4.17026E-13
 -1      1827 1.81261E+01 2.55216E-01 1.00280E-02 3.60476E-01-1.10150E-13-6.18969E-13
 -1      1828 1.82594E+01 2.21687E-01 5.65452E-03 4.98806E-01-7.04762E-14-6.83292E-13
 -1      1829 1.86660E+01 3.85611E-01-9.22742E-03 3.24624E-01-1.62316E-13-4.48178E-13
 -1      1830 1.83978E+01 1.79185E-01 9.02568E-03 6.46417E-01-1.09357E-14-7.15063E-13
 -1      1831 1.86125E+01 1.25041E-01 1.99458E-03 7.34843E-01 1.59989E-14-6.97347E-13
 -1      1832 1.88648E+01 2.95318E-01-6.17075E-03 7.10165E-01-6.05427E-14-5.24838E-13
 -1      1833 1.87942E+01 7.21762E-02 5.52254E-03 8.06463E-01 2.28728E-14-6.97169E-13
 -1      1834 1.90523E+01 1.63809E-02-7.67631E-04 8.32554E-01 6.32453E-14-6.67015E-13
 -1      1835 1.91856E+01 1.48317E-01-1.83441E-03 9.54548E-01 3.25157E-14-5.53152E-13
 -1      1836 1.92370E+01-3.03862E-02 7.82359E-04 8.26105E-01 7.79125E-14-6.62950E-13
 -1      1837 1.94979E+01-7.24735E-02-2.26764E-03 7.96773E-01 9.24692E-14-6.16545E-13
 -1      1838 1.95527E+01-5.79346E-03 1.91633E-03 1.02429E+00 7.49123E-14-5.45063E-13
 -1      1839 1.96551E+01-1.03017E-01-3.58620E-03 7.31281E-01 3.84861E-14-6.50874E-13
 -1      1840 1.98856E+01-1.24786E-01-2.70934E-03 6.65599E-01-1.84401E-15-6.54597E-13
 -1      1841 1.98957E+01-1.25395E-01 4.09764E-03 9.40286E-01 4.15682E-14-6.36083E-13
 -1      1842 2.00001E+01-1.37145E-01-6.48358E-03 5.68967E-01 5.62267E-15-6.00082E-13
 -1      1843 2.01802E+01-1.40158E-01-2.52194E-03 4.88649E-01 1.22749E-14-5.33283E-13
 -1      1844 2.01690E+01-1.91111E-01 4.66849E-03 7.56638E-01 4.50098E-14-5.66506E-13
 -1      1845 2.02502E+01-1.38112E-01-7.59955E-03 3.86515E-01-6.92176E-14-5.60209E-13
 -1      1846 2.03737E+01-1.28371E-01-2.05453E-03 3.09020E-01-4.09893E-14-6.04915E-13
 -1      1847 2.03558E+01-2.05377E-01 4.15886E-03 5.33742E-01-2.22697E-14-5.10306E-13
 -1      1848 2.04055E+01-1.17821E-01-7.23893E-03 2.18859E-01-3.98969E-14-6.67257E-13
 -1      1849 2.04764E+01-1.02011E-01-1.51637E-03 1.54659E-01-9.74099E-14-6.99899E-13
 -1      1850 2.04602E+01-1.83340E-01 3.18152E-03 3.19442E-01-9.44106E-14-5.06249E-13
 -1      1851 2.04796E+01-8.83032E-02-5.97842E-03 8.49616E-02-1.17362E-13-7.15305E-13
 -1      1852 2.05077E+01-7.16027E-02-1.01430E-03 3.80372E-02-8.19867E-14-7.57828E-13
 -1      1853 2.04977E+01-1.42897E-01 2.14922E-03 1.42086E-01-1.13876E-13-5.69677E-13
 -1      1854 2.04920E+01-5.83668E-02-4.37329E-03-9.64961E-03-2.29801E-14-7.76997E-13
 -1      1855 2.04894E+01-4.38367E-02-5.91176E-04-3.98193E-02 4.63649E-14-7.04964E-13
 -1      1856 2.04873E+01-9.84483E-02 1.26101E-03 1.23148E-02-6.62262E-14-6.00038E-13
 -1      1857 2.04627E+01-3.29476E-02-2.81654E-03-6.80934E-02 5.29839E-15-6.89808E-13
 -1      1858 2.04406E+01-2.18486E-02-2.58344E-04-8.44143E-02-4.73959E-14-6.93426E-13
 -1      1859 2.04463E+01-5.88463E-02 5.82947E-04-7.13658E-02 4.29691E-14-5.35830E-13
 -1      1860 2.04091E+01-1.38830E-02-1.52232E-03-9.76476E-02 5.57470E-15-6.06605E-13
 -1      1861 2.03767E+01-6.29487E-03-1.40702E-05-1.03796E-01 5.07485E-14-6.06441E-13
 -1      1862 2.03890E+01-2.80183E-02 1.09765E-04-1.16852E-01 1.27811E-14-5.46405E-13
 -1      1863 2.03446E+01-1.06493E-03-5.64363E-04-1.06568E-01 1.61822E-14-5.97037E-13
 -1      1864 2.03087E+01 3.54003E-03 1.50642E-04-1.06017E-01 6.90834E-14-6.04781E-13
 -1      1865 2.03257E+01-6.54471E-03-1.93445E-04-1.34126E-01 3.40811E-14-4.27957E-13
 -1      1866 2.02787E+01 6.56378E-03 7.17091E-05-1.02286E-01 3.05537E-14-6.47297E-13
 -1      1867 2.02438E+01 8.91877E-03 2.48912E-04-9.78568E-02 3.18721E-14-6.21450E-13
 -1      1868 2.02636E+01 6.79214E-03-3.67087E-04-1.32662E-01 2.22240E-14-5.10459E-13
 -1      1869 2.02172E+01 1.03404E-02 4.42976E-04-9.06637E-02 5.62398E-14-6.27744E-13
 -1      1870 2.01859E+01 1.11553E-02 2.95467E-04-8.44130E-02 4.63338E-14-5.55031E-13
 -1      1871 2.02067E+01 1.38816E-02-4.47701E-04-1.20204E-01 3.24257E-14-4.41791E-13
 -1      1872 2.01633E+01 1.15161E-02 6.18542E-04-7.58802E-02 7.53208E-14-5.58370E-13
 -1      1873 2.01368E+01 1.13757E-02 3.04707E-04-6.91762E-02 1.36907E-13-4.76066E-13
 -1      1874 2.01572E+01 1.66224E-02-4.65235E-04-1.02464E-01 8.82396E-14-3.93144E-13
 -1      1875 2.01184E+01 1.11017E-02 6.62499E-04-6.06546E-02 1.86245E-14-5.41070E-13
 -1      1876 2.00970E+01 1.04398E-02 2.89303E-04-5.43170E-02 2.19503E-14-5.50486E-13
 -1      1877 2.01160E+01 1.66126E-02-4.42898E-04-8.32841E-02 5.71787E-14-3.71236E-13
 -1      1878 2.00823E+01 9.83731E-03 6.26628E-04-4.65724E-02 8.03602E-14-5.93886E-13
 -1      1879 2.00657E+01 8.95025E-03 2.59498E-04-4.10253E-02 1.35396E-13-6.06307E-13
 -1      1880 2.00827E+01 1.50579E-02-3.97898E-04-6.50063E-02 3.71342E-14-4.15229E-13
 -1      1881 2.00544E+01 8.22274E-03 5.48926E-04-3.44155E-02 1.22142E-13-6.53476E-13
 -1      1882 2.00419E+01 7.29654E-03 2.22946E-04-2.98193E-02 3.41077E-14-6.05730E-13
 -1      1883 2.00567E+01 1.27933E-02-3.42434E-04-4.88757E-02 9.41583E-14-5.58115E-13
 -1      1884 2.00335E+01 6.56829E-03 4.55072E-04-2.44388E-02-1.62189E-13-6.18826E-13
 -1      1885 2.00245E+01 5.70848E-03 1.84951E-04-2.07925E-02-8.06692E-14-5.84685E-13
 -1      1886 2.00369E+01 1.03525E-02-2.84692E-04-3.53933E-02-1.66862E-14-6.83664E-13
 -1      1887 2.00184E+01 5.04743E-03 3.60993E-04-1.65810E-02 2.95660E-14-6.73521E-13
 -1      1888 2.00122E+01 4.30487E-03 1.48884E-04-1.37954E-02 2.17868E-14-5.93398E-13
 -1      1889 2.00223E+01 8.04504E-03-2.29778E-04-2.45969E-02-4.51087E-14-5.71808E-13
 -1      1890 2.00079E+01 3.74153E-03 2.75516E-04-1.06131E-02 2.75172E-15-5.25619E-13
 -1      1891 2.00038E+01 3.13246E-03 1.16643E-04-8.55938E-03 1.08125E-13-3.73217E-13
 -1      1892 2.00119E+01 6.02671E-03-1.80543E-04-1.62635E-02 1.16715E-13-4.00377E-13
 -1      1893 2.00010E+01 2.67421E-03 2.02670E-04-6.23595E-03 8.38219E-14-4.49842E-13
 -1      1894 1.99985E+01 2.19473E-03 8.90714E-05-4.77628E-03 6.67582E-14-4.03261E-13
 -1      1895 2.00048E+01 4.35417E-03-1.38276E-04-1.00476E-02 9.67271E-14-2.46584E-13
 -1      1896 1.99966E+01 1.83578E-03 1.43474E-04-3.14040E-03 4.68128E-15-4.56404E-13
 -1      1897 1.99953E+01 1.47162E-03 6.63131E-05-2.14469E-03-6.08349E-14-4.83563E-13
 -1      1898 2.00001E+01 3.02543E-03-1.03232E-04-5.56802E-03-2.78622E-14-3.13289E-13
 -1      1899 1.99942E+01 1.19969E-03 9.72086E-05-1.04014E-03 5.27059E-14-4.06975E-13
 -1      1900 1.99936E+01 9.32352E-04 4.80847E-05-3.94647E-04 1.18343E-13-2.88481E-13
 -1      1901 1.99972E+01 2.00720E-03-7.50206E-05-2.45899E-03 9.73744E-14-1.01440E-13
 -1      1902 1.99931E+01 7.32822E-04 6.22870E-05 3.12349E-04 6.01315E-14-2.26753E-13
 -1      1903 1.99930E+01 5.43347E-04 3.38754E-05 7.02047E-04 6.13934E-14-2.65428E-13
 -1      1904 1.99957E+01 1.25264E-03-5.29016E-05-3.96097E-04 7.52036E-14-1.20219E-14
 -1      1905 1.99929E+01 4.01705E-04 3.67989E-05 1.12100E-03 7.71689E-14-3.00688E-13
 -1      1906 1.99931E+01 2.72644E-04 2.30783E-05 1.33021E-03 5.04347E-14-1.85212E-13
 -1      1907 1.99950E+01 7.12071E-04-3.59856E-05 8.93174E-04 5.90439E-14-8.39097E-15
 -1      1908 1.99932E+01 1.75759E-04 1.88391E-05 1.54753E-03-8.44635E-14-2.18847E-13
 -1      1909 1.99937E+01 9.20652E-05 1.50729E-05 1.63430E-03-7.63740E-14-1.58507E-13
 -1      1910 1.99949E+01 3.38939E-04-2.33645E-05 1.62861E-03 4.05475E-14-3.64091E-14
 -1      1911 1.99939E+01 2.87010E-05 6.68079E-06 1.71601E-03 1.76031E-14-1.10678E-13
 -1      1912 1.99944E+01-2.20610E-05 9.27154E-06 1.72364E-03 1.38879E-14-3.34900E-14
 -1      1913 1.99952E+01 9.25562E-05-1.41856E-05 1.98151E-03 8.25107E-15-2.72121E-14
 -1      1914 1.99947E+01-6.11678E-05-1.15142E-06 1.71856E-03-6.20270E-14-1.15582E-13
 -1      1915 1.99952E+01-8.89833E-05 5.14111E-06 1.67827E-03 1.34361E-13-1.05707E-13
 -1      1916 1.99957E+01-6.10338E-05-7.68972E-06 2.08113E-03-1.90488E-14 7.86502E-14
 -1      1917 1.99955E+01-1.11295E-04-5.86483E-06 1.62117E-03 2.96629E-13-2.16041E-13
 -1      1918 1.99961E+01-1.24057E-04 2.20886E-06 1.55442E-03 3.37618E-13-1.82319E-13
 -1      1919 1.99963E+01-1.49343E-04-3.22938E-06 2.02179E-03 1.98946E-13-1.46077E-13
 -1      1920 1.99964E+01-1.35531E-04-8.41171E-06 1.46885E-03 3.87254E-13-3.71186E-13
 -1      1921 1.99969E+01-1.39478E-04 6.18087E-08 1.38935E-03 3.18272E-13-2.44357E-13
 -1      1922 1.99969E+01-1.94297E-04-2.71363E-07 1.86946E-03 2.54396E-13-2.03363E-13
 -1      1923 1.99972E+01-1.44912E-04-9.51037E-06 1.28990E-03 1.75623E-13-1.48918E-13
 -1      1924 1.99976E+01-1.45068E-04-1.63979E-06 1.20518E-03 1.08616E-13 8.69352E-14
 -1      1925 1.99975E+01-2.13351E-04 1.60787E-06 1.66748E-03 3.15075E-13-2.03927E-13
 -1      1926 1.99979E+01-1.48416E-04-9.64950E-06 1.09934E-03 1.94672E-14 6.82706E-14
 -1      1927 1.99982E+01-1.48935E-04-3.11948E-06 1.01188E-03 4.97541E-14 1.08306E-14
 -1      1928 1.99981E+01-2.20612E-04 2.73580E-06 1.44124E-03 2.67535E-14-1.08504E-13
 -1      1929 1.99985E+01-1.53500E-04-9.08173E-06 9.01605E-04-1.24674E-13-8.20507E-14
 -1      1930 1.99988E+01-1.57746E-04-4.37065E-06 8.09794E-04-2.87307E-14-1.76515E-13
 -1      1931 1.99986E+01-2.27677E-04 3.33325E-06 1.20204E-03-1.37407E-13-1.50682E-13
 -1      1932 1.99990E+01-1.66016E-04-7.83933E-06 6.93427E-04 2.74373E-13-2.23732E-13
 -1      1933 1.99992E+01-1.75036E-04-5.20458E-06 5.92920E-04 2.50346E-13-5.48420E-14
 -1      1934 1.99990E+01-2.43496E-04 3.31015E-06 9.50941E-04-3.37340E-14-1.19441E-13
 -1      1935 1.99993E+01-1.80436E-04-6.34031E-06 4.74718E-04 2.13901E-13 7.46977E-15
 -1      1936 1.99995E+01-1.89510E-04-6.18590E-06 3.67311E-04 1.10580E-13 9.73641E-14
 -1      1937 1.99996E+01-2.64364E-04 3.16262E-06 4.32979E-04 7.18444E-14-9.95196E-14
 -1      1938 1.99993E+01-2.61587E-04 4.80208E-06 6.91511E-04 3.00768E-13-1.51942E-13
 -1      1939 2.45002E+01 3.92298E-01 1.67853E-02-1.51418E+00 2.17038E-13 8.78381E-13
 -1      1940 2.40950E+01 4.52218E-01 2.06448E-02-1.13171E+00 2.47323E-13 9.90028E-13
 -1      1941 2.35796E+01 6.72496E-01-1.21749E-02-1.19677E+00 3.14526E-13 6.96825E-13
 -1      1942 2.55530E+01 2.34936E-01 3.74567E-03-2.09548E+00 1.08635E-13 7.98944E-13
 -1      1943 2.48691E+01 3.34317E-01 1.44702E-02-1.80328E+00 1.34379E-13 8.52381E-13
 -1      1944 2.40741E+01 4.76231E-01-1.75120E-02-2.06638E+00 1.77204E-13 6.11705E-13
 -1      1945 2.69316E+01-1.55087E-01-1.43343E-02-2.26996E+00-6.72205E-14 8.51680E-13
 -1      1946 2.61300E+01 6.45455E-02 8.55622E-03-2.17964E+00 1.18568E-14 8.09280E-13
 -1      1947 2.49999E+01 1.11544E-01-2.18733E-02-2.60410E+00 3.70754E-14 5.81169E-13
 -1      1948 2.84367E+01-9.07150E-01-2.03052E-02-1.56850E+00-2.86396E-13 9.47961E-13
 -1      1949 2.77497E+01-5.39760E-01 1.36446E-02-1.94065E+00-1.94327E-13 8.98382E-13
 -1      1950 2.63659E+01-6.84609E-01-2.16356E-02-2.49484E+00-2.07594E-13 6.40326E-13
 -1      1951 2.98638E+01-1.81377E+00-1.03223E-02 6.30529E-01-2.13361E-13 1.19067E-12
 -1      1952 2.95441E+01-1.49256E+00 2.27030E-02-5.65524E-01-2.94632E-13 1.01337E-12
 -1      1953 2.82680E+01-1.92300E+00-9.90129E-03-1.16249E+00-3.40318E-13 7.53767E-13
 -1      1954 3.04286E+01-1.49947E+00-7.72726E-02 3.50354E+00 4.38954E-14 1.38689E-12
 -1      1955 3.08342E+01-1.90592E+00-3.27302E-02 2.02467E+00-1.06184E-13 1.29253E-12
 -1      1956 3.04763E+01-2.58871E+00-6.55652E-03 1.61806E+00-2.14425E-13 9.61262E-13
 -1      1957 2.99905E+01 7.44731E-01-1.97788E-01 4.39768E+00 4.83030E-13 1.14415E-12
 -1      1958 3.09175E+01-4.46719E-01-1.32214E-01 3.98804E+00 2.64927E-13 1.27115E-12
 -1      1959 3.20600E+01-9.75165E-01-1.13317E-01 3.98126E+00 2.67675E-13 9.87530E-13
 -1      1960 2.94726E+01 3.10369E+00-3.03778E-01 1.52110E+00 9.14491E-13 5.15851E-13
 -1      1961 3.01872E+01 2.31329E+00-1.85905E-01 2.96302E+00 7.58893E-13 8.75095E-13
 -1      1962 3.28612E+01 2.65413E+00-1.09754E-01 3.30957E+00 8.84792E-13 6.51978E-13
 -1      1963 2.99672E+01 2.49269E+00-2.82837E-01-3.07665E+00 9.13714E-13-1.55320E-13
 -1      1964 2.96413E+01 3.20351E+00-2.18966E-01-8.85111E-01 9.28424E-13 2.13704E-13
 -1      1965 3.30917E+01 4.58946E+00-8.59401E-02-6.29025E-01 1.16418E-12 3.89862E-14
 -1      1966 3.11785E+01-5.51353E-01-9.75219E-02-4.67845E+00 6.93071E-13-7.66782E-13
 -1      1967 3.00466E+01 7.82157E-01-1.88895E-01-3.95597E+00 8.04967E-13-4.23590E-13
 -1      1968 3.28544E+01 1.72432E+00-1.10178E-01-4.16485E+00 1.02085E-12-4.87943E-13
 -1      1969 3.13099E+01-1.88419E+00 1.02125E-01-2.30377E+00 5.91220E-14-1.00136E-12
 -1      1970 3.05119E+01-1.60471E+00-9.26191E-02-3.26250E+00 3.28111E-13-8.76244E-13
 -1      1971 3.17189E+01-2.01926E+00-1.11150E-01-3.69587E+00 4.72060E-13-8.64669E-13
 -1      1972 3.00165E+01-1.36819E+00 1.08340E-01 5.26157E-01-2.43125E-13-8.54681E-13
 -1      1973 3.00424E+01-1.76396E+00-2.40147E-02-6.30837E-01-1.12015E-13-9.56682E-13
 -1      1974 2.97509E+01-2.70592E+00-9.81162E-02-5.69824E-01-6.95832E-14-9.56152E-13
 -1      1975 2.81891E+01-5.07021E-01 3.89948E-02 2.02589E+00-3.85055E-13-5.49765E-13
 -1      1976 2.88395E+01-8.97151E-01 7.85179E-04 1.38982E+00-3.16608E-13-6.89336E-13
 -1      1977 2.76851E+01-1.60557E+00-5.93491E-02 1.77058E+00-3.63050E-13-7.05446E-13
 -1      1978 2.64149E+01 2.34592E-02-6.99318E-03 2.35147E+00-2.56167E-13-3.97932E-13
 -1      1979 2.73228E+01-1.77280E-01 1.63905E-03 2.19084E+00-2.90087E-13-4.92786E-13
 -1      1980 2.59836E+01-4.51701E-01-2.77435E-02 2.69451E+00-3.66627E-13-5.92568E-13
 -1      1981 2.48932E+01 2.26818E-01-1.96985E-02 2.08927E+00 8.60202E-14-3.71651E-13
 -1      1982 2.57960E+01 1.67275E-01 3.06907E-03 2.17554E+00-1.14739E-13-3.18891E-13
 -1      1983 2.46474E+01 1.71507E-01-6.73000E-03 2.68067E+00-1.63222E-13-3.86411E-13
 -1      1984 2.36562E+01 2.55157E-01-1.73320E-02 1.65252E+00 1.47886E-13-1.63865E-13
 -1      1985 2.44315E+01 2.61604E-01 6.57652E-03 1.81765E+00 1.32909E-13-2.58340E-13
 -1      1986 2.35795E+01 3.75694E-01 3.31180E-03 2.26180E+00 8.44628E-14-2.56083E-13
 -1      1987 2.26472E+01 2.15561E-01-1.11458E-02 1.21173E+00-1.03943E-13-1.89190E-13
 -1      1988 2.32808E+01 2.43824E-01 9.18577E-03 1.38338E+00 7.10768E-14-1.14270E-13
 -1      1989 2.27024E+01 3.75010E-01 7.06845E-03 1.74471E+00 4.78602E-14-4.70084E-14
 -1      1990 2.19244E+01 1.64344E-01-6.11807E-03 8.72941E-01-2.16905E-13-3.30631E-13
 -1      1991 2.23769E+01 1.93104E-01 9.41638E-03 1.00721E+00-1.83124E-13-3.64407E-13
 -1      1992 2.20061E+01 3.02822E-01 5.24828E-03 1.28327E+00-6.76074E-14-2.37915E-13
 -1      1993 2.13828E+01 1.19202E-01-3.34346E-03 6.19146E-01-2.68990E-13-1.84506E-13
 -1      1994 2.17140E+01 1.42965E-01 8.31604E-03 7.20893E-01-2.66372E-13-3.06009E-13
 -1      1995 2.14810E+01 2.25845E-01 3.56496E-03 9.27755E-01-2.49993E-13-3.66392E-13
 -1      1996 2.09845E+01 8.44538E-02-1.71773E-03 4.35605E-01-1.15805E-13-2.08096E-13
 -1      1997 2.12229E+01 1.02354E-01 6.67888E-03 5.09678E-01-1.60576E-13-2.10676E-13
 -1      1998 2.10804E+01 1.61783E-01 2.09332E-03 6.61672E-01-1.61031E-13-3.41633E-13
 -1      1999 2.06943E+01 5.92206E-02-8.24743E-04 3.05215E-01-3.27691E-14-1.32044E-13
 -1      2000 2.08644E+01 7.21253E-02 5.09117E-03 3.58140E-01-9.71502E-14-2.07785E-13
 -1      2001 2.07797E+01 1.13661E-01 1.05953E-03 4.68472E-01-9.81654E-14-3.54160E-13
 -1      2002 2.04844E+01 4.14075E-02-3.45166E-04 2.13292E-01-3.42517E-14-1.33791E-13
 -1      2003 2.06050E+01 5.05248E-02 3.76997E-03 2.50809E-01-6.97543E-14-1.01365E-13
 -1      2004 2.05565E+01 7.92159E-02 4.22379E-04 3.30280E-01-7.89134E-14-3.28599E-13
 -1      2005 2.03333E+01 2.89788E-02-9.51886E-05 1.48611E-01-4.91248E-14 8.70327E-14
 -1      2006 2.04186E+01 3.53714E-02 2.74887E-03 1.75157E-01-3.63683E-14-6.74867E-15
 -1      2007 2.03923E+01 5.51150E-02 6.77641E-05 2.32084E-01-1.01087E-13-9.54247E-14
 -1      2008 2.02252E+01 2.02919E-02-1.88101E-05 1.03073E-01 9.97683E-14 6.58339E-14
 -1      2009 2.02853E+01 2.48160E-02 1.99437E-03 1.21871E-01 3.03509E-14 9.59773E-14
 -1      2010 2.02726E+01 3.83766E-02-1.18680E-04 1.62446E-01 3.55321E-14 1.71823E-14
 -1      2011 2.01453E+01 1.39964E-02 5.42615E-05 6.95888E-02-7.68615E-14-1.01285E-13
 -1      2012 2.01888E+01 1.72565E-02 1.42920E-03 8.34049E-02 8.93545E-15-4.59290E-14
 -1      2013 2.01843E+01 2.67873E-02-9.16971E-05 1.12163E-01 2.95790E-14-1.52681E-13
 -1      2014 2.00925E+01 9.88053E-03 1.06381E-04 4.73104E-02-5.02778E-14 2.36286E-13
 -1      2015 2.01210E+01 1.20746E-02 1.01808E-03 5.66265E-02-6.68338E-14 8.12310E-14
 -1      2016 2.01211E+01 1.84197E-02-2.04873E-04 7.65031E-02-7.52067E-14-1.12405E-13
 -1      2017 2.00558E+01 6.93798E-03 1.06234E-04 3.15784E-02 1.03285E-13 4.44101E-13
 -1      2018 2.00752E+01 8.48718E-03 7.25644E-04 3.81963E-02 5.08279E-15 4.24914E-13
 -1      2019 2.00777E+01 1.28867E-02-1.91730E-04 5.20205E-02-9.12327E-14 2.37716E-13
 -1      2020 2.00307E+01 4.84506E-03 9.86977E-05 2.05173E-02 1.89818E-13 2.99358E-13
 -1      2021 2.00437E+01 5.94852E-03 5.18604E-04 2.52036E-02 1.16965E-13 3.91093E-13
 -1      2022 2.00474E+01 8.98391E-03-1.67998E-04 3.46799E-02 1.18635E-13 3.03051E-13
 -1      2023 2.00139E+01 3.35014E-03 8.73547E-05 1.27966E-02 1.37507E-13 3.49618E-13
 -1      2024 2.00225E+01 4.13723E-03 3.68869E-04 1.60935E-02 2.25821E-13 3.28809E-13
 -1      2025 2.00265E+01 6.21751E-03-1.41165E-04 2.24577E-02 2.18220E-13 3.41794E-13
 -1      2026 2.00032E+01 2.28048E-03 7.45540E-05 7.47023E-03-5.19138E-13 4.72703E-13
 -1      2027 2.00085E+01 2.84154E-03 2.60294E-04 9.76565E-03-2.51691E-13 4.73250E-13
 -1      2028 2.00125E+01 4.25018E-03-1.15354E-04 1.39166E-02-2.15825E-13 4.92681E-13
 -1      2029 1.99966E+01 1.51515E-03 5.91723E-05 3.85767E-03 6.74565E-14 6.43907E-13
 -1      2030 1.99998E+01 1.91744E-03 1.82990E-04 5.43507E-03-2.22876E-13 4.80900E-13
 -1      2031 2.00034E+01 2.84597E-03-9.37288E-05 8.02578E-03-2.75418E-13 6.31488E-13
 -1      2032 1.99928E+01 9.47354E-04 4.86729E-05 1.37890E-03-2.17334E-13 7.37100E-13
 -1      2033 1.99945E+01 1.23992E-03 1.24655E-04 2.46831E-03 8.29224E-14 8.04925E-13
 -1      2034 1.99977E+01 1.85958E-03-6.53090E-05 3.97795E-03-3.81483E-14 7.04757E-13
 -1      2035 1.99911E+01 5.80485E-04 4.13236E-05-9.47858E-05 1.86622E-13 6.53051E-13
 -1      2036 1.99917E+01 7.71139E-04 8.24930E-05 5.71390E-04 7.33056E-15 6.78325E-13
 -1      2037 1.99945E+01 1.13131E-03-5.56805E-05 1.31727E-03 1.15675E-14 8.10968E-13
 -1      2038 1.99907E+01 3.23553E-04 3.32003E-05-9.77354E-04 5.22005E-14 4.14679E-13
 -1      2039 1.99907E+01 4.50982E-04 5.26132E-05-5.68483E-04 1.99824E-13 6.07317E-13
 -1      2040 1.99930E+01 6.58287E-04-4.19769E-05-2.99908E-04 2.32934E-13 6.43929E-13
 -1      2041 1.99910E+01 1.50470E-04 2.62859E-05-1.45160E-03-9.09601E-14 5.40446E-13
 -1      2042 1.99907E+01 2.33652E-04 3.22518E-05-1.22053E-03-8.84719E-14 5.00975E-13
 -1      2043 1.99925E+01 3.35881E-04-3.14050E-05-1.25442E-03-6.83922E-14 7.47143E-13
 -1      2044 1.99918E+01 3.80557E-05 2.05818E-05-1.65317E-03-3.32899E-14 2.56066E-13
 -1      2045 1.99913E+01 8.98373E-05 1.81921E-05-1.54226E-03-4.80892E-14 4.45409E-13
 -1      2046 1.99928E+01 1.23115E-04-2.31709E-05-1.75641E-03-3.48718E-14 5.38435E-13
 -1      2047 1.99929E+01-3.12469E-05 1.59306E-05-1.67978E-03 1.21871E-13 2.11500E-13
 -1      2048 1.99922E+01-1.38200E-06 8.68612E-06-1.64725E-03 1.20709E-13 1.92626E-13
 -1      2049 1.99934E+01-1.12458E-05-1.68286E-05-1.95780E-03 1.82918E-13 4.15411E-13
 -1      2050 1.99940E+01-7.06650E-05 1.21309E-05-1.60047E-03 8.07347E-14 2.56791E-13
 -1      2051 1.99933E+01-5.56124E-05 2.45765E-06-1.61654E-03-1.51481E-14 2.24491E-13
 -1      2052 1.99942E+01-9.06063E-05-1.20215E-05-1.96747E-03 1.39272E-14 3.71878E-13
 -1      2053 1.99950E+01-8.98266E-05 9.31425E-06-1.46336E-03 3.99034E-13 1.65372E-13
 -1      2054 1.99944E+01-8.43785E-05-1.34256E-06-1.50649E-03 3.45355E-13 1.93189E-13
 -1      2055 1.99951E+01-1.32785E-04-8.47078E-06-1.86215E-03 3.94884E-13 1.83972E-13
 -1      2056 1.99961E+01-9.73453E-05 6.73044E-06-1.28925E-03-1.28018E-13 1.45877E-13
 -1      2057 1.99955E+01-9.70771E-05-3.70483E-06-1.35048E-03 9.57452E-14 1.43247E-13
 -1      2058 1.99960E+01-1.49938E-04-6.09398E-06-1.68861E-03 1.59790E-13 2.89893E-13
 -1      2059 1.99970E+01-9.73960E-05 4.46721E-06-1.11380E-03 1.89747E-13 1.84481E-13
 -1      2060 1.99965E+01-1.00498E-04-5.06965E-06-1.17855E-03-2.24698E-14 2.96120E-13
 -1      2061 1.99968E+01-1.53540E-04-3.73310E-06-1.48500E-03-4.09848E-14 4.35762E-13
 -1      2062 1.99978E+01-9.65505E-05 2.69312E-06-9.38441E-04 1.88882E-13 2.59945E-13
 -1      2063 1.99974E+01-9.99425E-05-5.77014E-06-1.00572E-03 2.66028E-13 2.60952E-13
 -1      2064 1.99976E+01-1.50689E-04-2.28326E-06-1.27592E-03 1.35010E-13 3.35903E-13
 -1      2065 1.99985E+01-9.88868E-05 1.15761E-06-7.62130E-04 8.47235E-14-3.25678E-13
 -1      2066 1.99981E+01-1.00653E-04-6.03299E-06-8.32276E-04 2.24529E-13 1.18367E-14
 -1      2067 1.99982E+01-1.49190E-04-1.18014E-06-1.06363E-03 3.49412E-13-2.95638E-14
 -1      2068 1.99990E+01-1.07510E-04 8.83602E-08-5.78469E-04-4.52023E-13-6.23801E-15
 -1      2069 1.99987E+01-1.06224E-04-5.84039E-06-6.54834E-04-2.68095E-13-3.46250E-13
 -1      2070 1.99988E+01-1.53868E-04 3.91583E-09-8.46079E-04-2.00364E-13-4.43619E-13
 -1      2071 1.99994E+01-1.24496E-04-1.86487E-06-3.78630E-04 3.70488E-15-3.81019E-13
 -1      2072 1.99992E+01-1.18385E-04-4.76319E-06-4.66260E-04-9.28081E-14-1.98451E-13
 -1      2073 1.99992E+01-1.68891E-04 9.97005E-07-6.17170E-04-3.18609E-14-6.45191E-13
 -1      2074 1.99996E+01-1.38255E-04-4.16051E-06-2.14979E-04 2.72366E-14-6.10100E-13
 -1      2075 1.99995E+01-1.36929E-04-3.65765E-06-3.09416E-04 7.29722E-14-4.50608E-13
 -1      2076 1.99995E+01-1.91283E-04 1.60609E-06-4.21343E-04 1.72653E-13-7.48525E-13
 -1      2077 1.99996E+01-2.05714E-04 5.99467E-07-2.65733E-04-1.13075E-13-5.69815E-13
 -1      2078 1.99998E+01-1.17540E-03 2.37633E-06-6.41931E-04-1.60818E-14-1.37815E-13
 -1      2079 1.99998E+01-9.70407E-04-2.95611E-06-6.32372E-04-9.32980E-14-6.02969E-15
 -1      2080 1.99997E+01-7.92219E-04 5.93546E-07-5.96961E-04-1.18069E-13 8.64760E-14
 -1      2081 1.99997E+01-6.04503E-04-4.38664E-06-5.39600E-04-2.67195E-13 3.82736E-13
 -1      2082 1.99997E+01-8.57406E-04-1.44015E-07-7.81424E-04-4.38147E-14 2.34836E-13
 -1      2083 1.99997E+01-4.74310E-04-6.99808E-07-4.59688E-04-1.62088E-13 1.67134E-13
 -1      2084 1.99996E+01-3.22925E-04-4.05916E-06-3.68045E-04-7.23797E-14-3.10765E-13
 -1      2085 1.99996E+01-3.19217E-04-2.87192E-06-4.53162E-04 9.38938E-14-3.96190E-13
 -1      2086 1.99996E+01-5.57424E-04 1.16487E-06-6.49046E-04-6.62734E-14 7.86143E-14
 -1      2087 1.99999E+01-1.53518E-03 4.22489E-06-5.93565E-04-1.63251E-13-3.22148E-13
 -1      2088 1.99998E+01-1.34255E-03 3.57495E-08-6.24410E-04 7.20497E-14-3.03939E-13
 -1      2089 1.99998E+01-1.20034E-03-1.84347E-06-7.98210E-04-6.20681E-14-2.78418E-13
 -1      2090 1.99999E+01-1.84163E-03 5.82907E-06-4.65363E-04-6.43336E-14 3.90246E-13
 -1      2091 1.99999E+01-1.68117E-03 2.80589E-06-5.29529E-04-1.15591E-13 1.35164E-13
 -1      2092 1.99999E+01-1.51355E-03-3.62356E-06-7.05723E-04 9.56299E-14-8.38246E-14
 -1      2093 2.00000E+01-2.05199E-03 6.82389E-06-2.79239E-04 6.73023E-14 4.73819E-13
 -1      2094 1.99999E+01-1.94761E-03 5.08771E-06-3.66022E-04-2.52402E-14 5.46661E-13
 -1      2095 2.00000E+01-1.76607E-03-5.09736E-06-5.21696E-04 2.28455E-14 4.63861E-13
 -1      2096 2.00000E+01-2.14251E-03 7.06425E-06-6.02588E-05-1.05712E-13-3.02967E-13
 -1      2097 2.00000E+01-2.10708E-03 6.55012E-06-1.58340E-04-6.63902E-14 1.66528E-13
 -1      2098 2.00000E+01-1.92779E-03-5.99902E-06-2.74345E-04-1.16774E-13 6.65845E-14
 -1      2099 2.00000E+01-2.10338E-03 6.46970E-06 1.65323E-04 7.50084E-14-6.70905E-14
 -1      2100 2.00000E+01-2.14113E-03 7.11264E-06 6.75873E-05 3.87125E-14-3.68502E-15
 -1      2101 2.00001E+01-1.98175E-03-6.28073E-06 4.79450E-06-2.98685E-13-4.57455E-14
 -1      2102 1.99999E+01-1.93950E-03 5.05176E-06 3.71189E-04-9.35020E-15-3.58750E-13
 -1      2103 2.00000E+01-2.04585E-03 6.77546E-06 2.85375E-04 1.36139E-13-2.41429E-13
 -1      2104 2.00000E+01-1.92254E-03-5.91462E-06 2.82946E-04-2.26439E-13-7.88798E-14
 -1      2105 1.99999E+01-1.67556E-03 2.77764E-06 5.29740E-04 8.40073E-14-1.83715E-13
 -1      2106 1.99999E+01-1.83406E-03 5.74810E-06 4.67659E-04 9.96013E-14-3.21597E-13
 -1      2107 2.00000E+01-1.75849E-03-5.03667E-06 5.25949E-04-4.33528E-14-3.45066E-13
 -1      2108 1.99998E+01-1.33368E-03-6.10850E-08 6.23379E-04 9.25887E-14 3.28874E-13
 -1      2109 1.99999E+01-1.52953E-03 4.16729E-06 5.92943E-04 1.21596E-13 1.58460E-13
 -1      2110 1.99999E+01-1.50647E-03-3.49448E-06 7.05649E-04 1.99850E-13-2.38485E-14
 -1      2111 1.99998E+01-9.59019E-04-2.96320E-06 6.29489E-04 8.56840E-14-3.51136E-13
 -1      2112 1.99998E+01-1.16382E-03 2.33350E-06 6.40029E-04 9.59075E-14 9.57220E-14
 -1      2113 1.99998E+01-1.19049E-03-1.61154E-06 7.96401E-04 1.13677E-13 8.52039E-14
 -1      2114 1.99997E+01-5.88386E-04-2.02776E-06 5.38635E-04-5.99338E-14-3.86908E-13
 -1      2115 1.99997E+01-7.82426E-04 9.14809E-07 5.92995E-04 4.85919E-14-5.98982E-13
 -1      2116 1.99997E+01-8.47225E-04-3.23739E-08 7.76000E-04 6.20823E-14-4.98052E-13
 -1      2117 9.27655E+00-6.81874E+00-3.00765E-01 5.28413E+00 1.21947E-12 1.25834E-12
 -1      2118 5.89789E+00-7.49739E+00-3.71747E-01 4.35355E+00 8.77909E-13 1.25130E-12
 -1      2119 6.80069E-03-7.63254E+00-3.85108E-01-6.09562E-01 5.88002E-13 1.36663E-12
 -1      2120 2.53726E-01-7.31040E+00-3.53374E-01-2.13389E+00 2.39336E-13 1.28769E-12
 -1      2121 2.30831E+00-7.05778E+00-3.41099E-01 2.70307E+00 6.76015E-13 1.39105E-12
 -1      2122 4.95287E-01-8.01719E+00-4.86135E-01 9.52971E-01 5.63216E-13 1.37712E-12
 -1      2123 1.53147E+00-4.88264E+00-1.68684E-01 4.75441E-01 2.41633E-13 1.46688E-12
 -1      2124 1.87348E+01-5.44523E+00-1.47781E-01 5.99909E+00 1.27143E-12 1.08585E-12
 -1      2125 1.34799E+01-7.06041E+00-4.68949E-01 5.18608E+00 1.17795E-12 1.13751E-12
 -1      2126 2.94410E+01-3.22088E+00 4.03960E-03 4.64728E+00 1.40565E-12 6.16396E-13
 -1      2127 2.33477E+01-5.01447E+00-3.61579E-01 4.59830E+00 1.38578E-12 8.17235E-13
 -1      2128 2.01278E+01 3.72992E+00-2.56546E-02-1.39127E+00-1.54034E-13-7.67046E-13
 -1      2129 2.03128E+01 3.69398E+00-3.04235E-02-1.71968E+00-2.29847E-13-7.43586E-13
 -1      2130 2.07152E+01 2.92901E+00-1.90487E-02-1.77531E+00-2.82687E-13-6.60055E-13
 -1      2131 2.03269E+01 3.15707E+00-1.15505E-02-1.20168E+00-1.32890E-13-7.23503E-13
 -1      2132 4.45247E+01 4.92684E+00 6.61793E-01-3.81096E-01 1.23046E-12-1.14353E-13
 -1      2133 3.99662E+01 3.19634E+00 1.76201E-01-6.60198E-01 1.29913E-12 5.98410E-14
 -1      2134 4.30026E+01 5.56996E+00 3.69458E-01 2.66161E-01 1.31645E-12-3.96905E-13
 -1      2135 4.51718E+01 6.60491E+00 6.59075E-01 1.76262E-01 1.37057E-12-1.47160E-13
 -1      2136 3.82948E+01 1.30315E+00 7.60598E-02-3.75611E-01 1.04977E-12-5.80092E-13
 -1      2137 4.23240E+01 3.44453E+00 4.43217E-01-7.95117E-02 1.15005E-12-4.40203E-13
 -1      2138 3.05161E+01-3.26485E+00-1.61879E-01-2.89714E+00 6.88338E-13-9.38027E-13
 -1      2139 3.59906E+01-1.23593E+00 1.52887E-01-2.32955E+00 8.44658E-13-7.71161E-13
 -1      2140 1.98994E+01-6.02986E+00-3.65392E-01-5.25161E+00 5.91305E-13-1.20665E-12
 -1      2141 2.59320E+01-4.69119E+00-8.22131E-02-5.25211E+00 5.83089E-13-1.10761E-12
 -1      2142 1.00287E+01-7.32614E+00-5.17863E-01-5.03778E+00 4.66183E-13-1.27275E-12
 -1      2143 1.49232E+01-5.82184E+00-2.12233E-01-6.18771E+00 6.58695E-13-1.34434E-12
 -1      2144 3.53519E+00-7.55232E+00-4.31455E-01-3.37281E+00 2.06002E-13-1.18622E-12
 -1      2145 6.47710E+00-6.76086E+00-3.06702E-01-4.69440E+00 4.99267E-13-1.29413E-12
 -1      2146 1.47403E-01-7.48590E+00-3.99120E-01 2.09679E-02-6.27502E-14-1.17450E-12
 -1      2147 1.05871E+00-7.02152E+00-3.34631E-01-1.61977E+00 2.62068E-13-1.23557E-12
 -1      2148 1.40821E+00-5.65428E+00-1.83650E-01 3.41387E+00-2.41640E-13-1.15297E-12
 -1      2149 2.83299E-01-7.27689E+00-4.08372E-01 1.68681E+00-3.22242E-14-1.16296E-12
 -1      2150 1.58610E+00-4.03162E+00-1.35119E-01 7.71946E-01 9.41504E-14-1.34215E-12
 -1      2151 6.78775E+00-5.59925E+00-1.83416E-01 6.43725E+00-6.06293E-13-1.04264E-12
 -1      2152 4.15701E+00-6.16933E+00-2.38262E-01 5.36294E+00-2.55351E-13-1.02773E-12
 -1      2153 1.44019E+01-4.11370E+00-4.09424E-02 7.84871E+00-7.19536E-13-8.08825E-13
 -1      2154 9.98653E+00-5.81190E+00-3.10795E-01 6.74989E+00-6.44429E-13-8.79437E-13
 -1      2155 1.07680E+01-4.97967E+00-5.98526E-02 7.63977E+00-2.10387E-14-7.84456E-13
 -1      2156 2.39191E+01-1.68779E+00 1.12666E-01 7.36190E+00-9.95759E-13-6.84286E-13
 -1      2157 1.91379E+01-3.79159E+00-1.83381E-01 6.94898E+00-7.96363E-13-6.85230E-13
 -1      2158 3.20801E+01 1.66250E+00 2.50159E-01 6.04975E+00-1.11688E-12-6.36935E-13
 -1      2159 2.70924E+01-3.03774E-01-1.03359E-01 6.01930E+00-1.10900E-12-6.80234E-13
 -1      2160 3.78604E+01 4.45290E+00 2.16317E-01 3.54479E+00-1.11280E-12-3.71148E-13
 -1      2161 3.42988E+01 3.19596E+00 9.38217E-02 4.75572E+00-1.20132E-12-6.36824E-13
 -1      2162 3.28947E+01 1.12474E+00 2.12182E-01 2.86400E+00-9.06338E-13-1.56875E-13
 -1      2163 4.12108E+01 7.20227E+00 3.17181E-01 1.05776E+00-1.05099E-12-2.63456E-13
 -1      2164 3.89049E+01 6.39540E+00 1.51926E-01 1.99451E+00-1.08530E-12-3.97016E-13
 -1      2165 4.25439E+01 7.73163E+00 3.42107E-01-7.37722E-01-9.51905E-13 3.19189E-15
 -1      2166 4.19434E+01 7.77712E+00 2.42197E-01 6.08900E-01-1.02829E-12-2.75696E-13
 -1      2167 3.97695E+01 6.80159E+00 1.75082E-01-2.26096E+00-1.01086E-12 1.93734E-13
 -1      2168 4.24055E+01 7.30364E+00 3.98540E-01-1.34374E+00-9.58733E-13 4.83225E-14
 -1      2169 3.79853E+01 8.77156E+00 3.73840E-01-5.78705E-02-1.04267E-12-2.60375E-13
 -1      2170 3.53136E+01 3.69393E+00 8.92124E-02-4.22926E+00-9.97098E-13 4.90274E-13
 -1      2171 3.82923E+01 4.95232E+00 2.35271E-01-3.07813E+00-9.75664E-13 1.95011E-13
 -1      2172 2.92246E+01 6.52056E-01-6.91143E-02-5.60436E+00-7.85400E-13 6.65024E-13
 -1      2173 3.37591E+01 2.39719E+00 2.61293E-01-5.51221E+00-9.02722E-13 6.70908E-13
 -1      2174 3.37634E+01 2.01671E+00 2.24458E-01-2.05776E+00-6.47621E-13-1.07803E-13
 -1      2175 2.13603E+01-2.93913E+00-1.96236E-01-6.85512E+00-4.73455E-13 8.88956E-13
 -1      2176 2.60869E+01-1.15954E+00 1.19188E-01-7.02345E+00-5.56999E-13 7.89924E-13
 -1      2177 1.39613E+01-5.01935E+00-2.83044E-01-7.04480E+00-3.67706E-13 9.71778E-13
 -1      2178 1.83058E+01-3.13989E+00 3.38090E-02-7.81111E+00-5.03597E-13 9.76497E-13
 -1      2179 2.25764E+01-4.55282E+00 5.45595E-02-6.83443E+00 9.33142E-14 5.18890E-13
 -1      2180 6.28336E+00-6.87007E+00-3.98176E-01-5.90447E+00-1.56875E-13 9.81576E-13
 -1      2181 9.52540E+00-5.15680E+00-1.49780E-01-7.08154E+00-4.00902E-13 1.14719E-12
 -1      2182 1.48271E+00-7.74349E+00-4.18753E-01-3.75068E+00 2.12219E-13 1.07109E-12
 -1      2183 3.35663E+00-6.84663E+00-3.05527E-01-4.95580E+00-1.40499E-13 9.55624E-13
 -1      2184 3.80159E+01-8.97933E-02 9.86392E-02 1.01754E+00 1.27649E-12 1.03029E-13
 -1      2185 3.32315E+01-1.84985E+00-5.12242E-02 2.23298E+00 1.39364E-12 4.42313E-13
 -1      2186 3.25110E+01-3.86037E+00 1.61633E-01 1.34791E+00 1.02188E-12-7.12208E-14
 -1      2187 2.15382E+01 1.01383E+00-2.62864E-02-1.64114E+00-4.53297E-13-9.82114E-14
 -1      2188 3.75421E+01 6.45964E-01 1.57294E-01-2.22217E+00 1.23287E-12-2.99150E-13
 -1      2189 2.14323E+01 1.17581E+00-1.64955E-02-1.75517E+00-4.69815E-13-2.55020E-13
 -1      2190 5.41400E+00-6.13833E+00-1.70133E-01 4.04041E+00 4.17444E-13 1.29780E-12
 -1      2191 5.16249E+00-3.93657E+00 8.06444E-02 3.77260E+00-8.09353E-14 1.25222E-12
 -1      2192 8.54338E+00-5.01867E+00-1.18637E-01 5.51239E+00-2.62568E-14 9.63035E-13
 -1      2193 1.42366E+01-6.71498E+00-1.43759E-01 5.98472E+00 4.96880E-13 7.87648E-13
 -1      2194 1.99996E+01-4.75911E-04-2.89302E-06 5.18961E-04 1.11980E-13-2.64648E-13
 -1      2195 2.07712E+00-5.13819E+00-1.98558E-01-3.48890E+00 2.53381E-13 1.27953E-12
 -1      2196 2.38002E+01-6.30155E+00-4.64861E-02 4.74903E+00 7.49956E-13 3.54966E-13
 -1      2197 1.45817E+01-5.42366E+00-4.89570E-02-7.89066E+00 7.78821E-14 8.52339E-13
 -1      2198 2.90433E+01-2.06661E+00 1.02259E-01-4.48080E+00-2.16049E-13 2.03448E-13
 -1      2199 3.66425E+01 5.90938E+00 2.47313E-01-6.02969E-01-9.27036E-13-2.48246E-13
 -1      2200 3.60373E+01 5.32777E+00 2.28970E-01 7.49181E-01-1.05049E-12-1.62315E-13
 -1      2201 1.91377E+01-4.83730E+00 2.61644E-03 7.46747E+00-2.30038E-13-4.53040E-13
 -1      2202 4.30006E+00-4.28164E+00-7.32582E-02 5.03985E+00 7.70495E-14-1.13637E-12
 -1      2203 4.07676E+00-5.00870E+00-1.70891E-01-3.39025E+00 5.26246E-14-1.29186E-12
 -1      2204 1.09566E+01-6.11820E+00-1.53768E-01-5.95590E+00-8.93730E-15-1.18577E-12
 -1      2205 2.02212E+01-6.46217E+00-1.86105E-02-5.79968E+00 4.28546E-14-9.15684E-13
 -1      2206 2.97008E+01-5.09800E+00 5.94545E-02-2.62426E+00 1.90070E-13-4.35652E-13
 -1      2207 3.63181E+01-8.57505E-01 1.37217E-01 8.82964E-01 6.70151E-13-2.14273E-14
 -1      2208 3.92579E+01 4.22582E+00 3.27396E-01 2.04112E+00 1.15663E-12 1.16795E-13
 -1      2209 4.12523E+01 7.14919E+00 5.64457E-01 3.57792E-01 1.44884E-12 1.37390E-15
 -1      2210 4.62490E+01 6.96842E+00 6.36023E-01-2.85980E-01 1.36391E-12-2.52638E-13
 -1      2211 4.66163E+01 6.69441E+00 7.87714E-01 2.84408E-01 1.26010E-12-6.09512E-14
 -1      2212 4.03587E+01 5.99389E+00 3.97761E-01-1.93118E+00 1.32100E-12-1.68088E-13
 -1      2213 2.72973E+01-2.68584E+00 6.73397E-02 5.19694E+00-5.90028E-13-2.22822E-13
 -1      2214 3.73128E+01 8.49771E+00 2.92025E-01-2.22592E-01-1.10839E-12-3.17635E-13
 -1      2215 6.64124E+00-5.51713E+00-1.61796E-01-6.71031E+00 1.30562E-13 1.06126E-12
 -1      2216 2.27573E+01 1.10443E+00 1.92582E-02-1.50883E+00 3.11976E-13 4.24242E-13
 -1      2217 2.26352E+01 1.24070E+00 1.50379E-02-9.77005E-01 3.75519E-13 4.77683E-13
 -1      2218 1.95548E+01 2.94929E+00-1.03779E-02 2.71003E-01 1.62117E-13-6.85104E-13
 -1      2219 1.98486E+01 2.86129E+00-7.11862E-03-3.03428E-02 9.46956E-14-7.16583E-13
 -1      2220 2.00969E+01 2.75821E+00-1.03421E-02-3.62305E-01 4.68848E-14-7.01737E-13
 -1      2221 2.03071E+01 2.68587E+00-1.43136E-02-6.72042E-01-2.62691E-14-6.88546E-13
 -1      2222 2.02424E+01 2.27373E+00-8.32055E-03-1.16918E-01 7.10598E-14-6.49823E-13
 -1      2223 1.80403E+01 3.60755E+00-1.62480E-02 1.26787E+00 3.62501E-13-6.44879E-13
 -1      2224 1.84533E+01 3.46391E+00 6.36563E-03 1.09156E+00 3.09499E-13-6.58733E-13
 -1      2225 1.73137E+01 4.03009E+00-1.85232E-02 1.44077E+00 4.46213E-13-6.20870E-13
 -1      2226 1.76587E+01 3.89120E+00 9.34231E-03 1.37830E+00 3.99045E-13-6.40945E-13
 -1      2227 1.79484E+01 3.34811E+00-7.70965E-03 1.51629E+00 3.78336E-13-6.12383E-13
 -1      2228 1.69283E+01 4.36684E+00-1.80803E-02 1.33756E+00 5.15291E-13-5.68452E-13
 -1      2229 1.70689E+01 4.28094E+00 6.02219E-03 1.38500E+00 4.72836E-13-6.12599E-13
 -1      2230 1.71982E+01 3.84721E+00 1.74626E-03 1.58267E+00 4.54314E-13-5.88769E-13
 -1      2231 1.71298E+01 4.47299E+00-1.46452E-02 1.01957E+00 5.57461E-13-4.66570E-13
 -1      2232 1.69437E+01 4.48692E+00-4.11115E-03 1.13638E+00 5.30448E-13-5.32787E-13
 -1      2233 1.68700E+01 4.20163E+00 1.22657E-02 1.31165E+00 5.15537E-13-5.29908E-13
 -1      2234 1.80799E+01 4.20585E+00-1.14499E-02 6.43451E-01 5.82432E-13-3.06932E-13
 -1      2235 1.75078E+01 4.36699E+00-1.81921E-02 7.53426E-01 5.54471E-13-3.96025E-13
 -1      2236 1.72287E+01 4.22370E+00 1.78364E-02 8.02850E-01 5.31301E-13-4.22687E-13
 -1      2237 1.97459E+01 3.51084E+00-6.26927E-03 3.79007E-01 5.91663E-13-7.01435E-14
 -1      2238 1.88241E+01 3.84427E+00-3.07489E-02 4.17346E-01 5.62092E-13-2.02125E-13
 -1      2239 1.83917E+01 3.78971E+00 1.64136E-02 2.57750E-01 5.33440E-13-2.46687E-13
 -1      2240 2.30323E+01 8.11766E-01 1.93211E-02-2.43514E+00 1.65064E-13 3.64323E-13
 -1      2241 2.26923E+01 9.77450E-01 1.66851E-02-2.04178E+00 2.33686E-13 3.96262E-13
 -1      2242 2.15742E+01 1.45678E+00-1.13036E-05-1.84298E+00 3.09692E-13 2.03406E-13
 -1      2243 2.12372E+01 5.59110E-01 1.27783E-02-1.24013E+00-3.67539E-13-2.74932E-13
 -1      2244 2.09822E+01 3.02429E-01-1.14010E-02-1.04002E+00-3.18483E-13-2.80232E-13
 -1      2245 2.09321E+01 1.29589E-01 1.58357E-02-9.56282E-01-2.84957E-13-2.42343E-13
 -1      2246 2.07144E+01-2.15959E-03-5.84233E-03-9.07599E-01-2.51864E-13-2.73983E-13
 -1      2247 2.11531E+01 3.16866E-01 1.66434E-03-1.12874E+00-2.98569E-13-3.14157E-13
 -1      2248 2.06355E+01-7.49571E-02 8.89712E-03-9.13083E-01-2.35564E-13-2.35638E-13
 -1      2249 2.04428E+01-1.15647E-01-2.92984E-03-9.31074E-01-1.92898E-13-2.74621E-13
 -1      2250 2.09851E+01-2.71222E-02-6.58037E-04-1.03426E+00-2.43048E-13-2.78869E-13
 -1      2251 2.03389E+01-1.13538E-01 2.44223E-03-9.72639E-01-1.76443E-13-2.60235E-13
 -1      2252 2.01577E+01-7.84192E-02 1.17198E-03-9.97699E-01-1.91726E-13-2.63593E-13
 -1      2253 2.07947E+01-1.32113E-01 7.94904E-04-1.07831E+00-1.97180E-13-2.68178E-13
 -1      2254 2.00218E+01-1.26297E-02-1.84668E-03-1.01752E+00-1.73780E-13-2.29198E-13
 -1      2255 1.98514E+01 8.28767E-02 6.31745E-03-9.99612E-01-1.40569E-13-2.56883E-13
 -1      2256 2.05622E+01-4.55554E-02 1.77269E-03-1.14418E+00-1.89515E-13-2.31738E-13
 -1      2257 1.96923E+01 1.91814E-01-3.31209E-03-9.44979E-01-1.43535E-13-2.55872E-13
 -1      2258 1.95475E+01 3.16249E-01 1.05651E-02-8.49998E-01-1.36757E-13-2.51938E-13
 -1      2259 2.02831E+01 1.89654E-01 7.54858E-04-1.11213E+00-1.50690E-13-1.82953E-13
 -1      2260 1.93981E+01 4.30848E-01-1.42939E-03-6.91895E-01-1.46359E-13-2.90099E-13
 -1      2261 1.93020E+01 5.36824E-01 1.16369E-02-5.13967E-01-1.36274E-13-3.29124E-13
 -1      2262 1.99928E+01 4.92826E-01-2.72471E-03-8.90803E-01-1.70947E-13-2.55894E-13
 -1      2263 1.92092E+01 6.10512E-01 2.97107E-03-2.64794E-01-1.77795E-13-3.59698E-13
 -1      2264 1.91829E+01 6.52025E-01 8.62261E-03-3.32674E-02-2.01170E-13-3.80870E-13
 -1      2265 1.97649E+01 7.48875E-01-6.85267E-03-4.58099E-01-2.04519E-13-2.88323E-13
 -1      2266 1.91819E+01 6.51062E-01 8.01911E-03 2.51446E-01-1.90167E-13-4.02876E-13
 -1      2267 1.92323E+01 6.07502E-01 3.13159E-03 4.81528E-01-1.51318E-13-4.03275E-13
 -1      2268 1.96770E+01 8.46968E-01-9.05745E-03 1.13890E-01-2.19268E-13-3.42588E-13
 -1      2269 1.93220E+01 5.30299E-01 1.08552E-02 7.26474E-01-1.01883E-13-4.24965E-13
 -1      2270 1.94381E+01 4.18796E-01-1.98162E-03 8.98722E-01-3.48257E-14-4.29905E-13
 -1      2271 1.97619E+01 7.40996E-01-6.50314E-03 6.81019E-01-1.33764E-13-3.63557E-13
 -1      2272 1.95805E+01 2.96076E-01 9.77167E-03 1.04519E+00-8.80719E-15-4.39577E-13
 -1      2273 1.97361E+01 1.59349E-01-4.91571E-03 1.12633E+00 6.57475E-14-4.57905E-13
 -1      2274 1.99815E+01 4.68697E-01-1.56351E-03 1.09562E+00-4.14312E-14-3.82489E-13
 -1      2275 1.98799E+01 3.46051E-02 5.49016E-03 1.15588E+00 6.90476E-14-5.36567E-13
 -1      2276 2.00441E+01-8.36664E-02-5.19842E-03 1.14510E+00 4.96454E-14-5.50161E-13
 -1      2277 2.02501E+01 1.31492E-01 2.80947E-03 1.27555E+00 3.97090E-14-4.89414E-13
 -1      2278 2.01505E+01-1.76719E-01 2.53587E-04 1.07789E+00 2.89517E-14-5.50422E-13
 -1      2279 2.02972E+01-2.50883E-01-3.68267E-03 9.99112E-01 5.00580E-14-5.41259E-13
 -1      2280 2.04835E+01-1.64810E-01 4.94043E-03 1.22681E+00 2.49213E-14-5.22416E-13
 -1      2281 2.03516E+01-2.99047E-01-3.98190E-03 8.75209E-01 7.57172E-14-4.89027E-13
 -1      2282 2.04653E+01-3.25453E-01-1.68613E-03 7.61693E-01 7.61752E-14-4.29810E-13
 -1      2283 2.06329E+01-3.55784E-01 4.77059E-03 1.01782E+00 6.22682E-14-3.85067E-13
 -1      2284 2.04728E+01-3.33289E-01-6.31040E-03 6.21111E-01 1.92988E-16-4.32941E-13
 -1      2285 2.05486E+01-3.22980E-01-4.31595E-05 5.02483E-01-3.11628E-14-4.35012E-13
 -1      2286 2.06908E+01-4.29455E-01 3.35085E-03 7.35522E-01 1.77896E-14-3.57356E-13
 -1      2287 2.05236E+01-3.03880E-01-6.79911E-03 3.73725E-01-7.70293E-14-4.37157E-13
 -1      2288 2.05643E+01-2.72736E-01 9.62029E-04 2.69696E-01-1.14422E-13-4.27678E-13
 -1      2289 2.06759E+01-4.10803E-01 1.76979E-03 4.51955E-01-6.96491E-14-3.43757E-13
 -1      2290 2.05221E+01-2.40914E-01-6.04666E-03 1.67469E-01-1.75501E-13-4.34435E-13
 -1      2291 2.05345E+01-2.02808E-01 1.37136E-03 8.73603E-02-1.27011E-13-4.50296E-13
 -1      2292 2.06155E+01-3.38141E-01 5.68212E-04 2.11145E-01-1.23301E-13-3.34698E-13
 -1      2293 2.04865E+01-1.68969E-01-4.70661E-03 1.55080E-02-6.37415E-14-4.10756E-13
 -1      2294 2.04787E+01-1.33059E-01 1.37812E-03-3.91667E-02-1.69472E-15-4.06332E-13
 -1      2295 2.05335E+01-2.45898E-01-1.72147E-04 3.10737E-02-1.15600E-13-2.80573E-13
 -1      2296 2.04319E+01-1.03457E-01-3.25327E-03-8.33675E-02-3.64032E-15-4.20937E-13
 -1      2297 2.04114E+01-7.43192E-02 1.18272E-03-1.15690E-01 7.66618E-15-4.54639E-13
 -1      2298 2.04464E+01-1.57352E-01-5.43500E-04-8.80716E-02-3.04237E-14-2.15814E-13
 -1      2299 2.03695E+01-5.15422E-02-1.96212E-03-1.37930E-01 3.81165E-14-4.60218E-13
 -1      2300 2.03422E+01-3.04420E-02 9.23534E-04-1.52934E-01 6.55814E-14-4.67831E-13
 -1      2301 2.03639E+01-8.45280E-02-6.75478E-04-1.55587E-01 4.24171E-14-2.97037E-13
 -1      2302 2.03065E+01-1.47016E-02-9.52155E-04-1.59491E-01 1.01581E-13-4.61881E-13
 -1      2303 2.02769E+01-9.89688E-04 6.76939E-04-1.62420E-01 6.58264E-14-3.93733E-13
 -1      2304 2.02907E+01-3.11378E-02-6.80248E-04-1.84147E-01 9.37805E-14-3.27152E-13
 -1      2305 2.02474E+01 8.72452E-03-2.39518E-04-1.58885E-01 4.65394E-14-3.92364E-13
 -1      2306 2.02186E+01 1.65296E-02 4.74965E-04-1.54277E-01 2.83518E-14-3.50168E-13
 -1      2307 2.02283E+01 4.03827E-03-6.28673E-04-1.86138E-01 5.94989E-14-2.30498E-13
 -1      2308 2.01948E+01 2.16525E-02 2.13100E-04-1.45052E-01 1.84452E-14-3.28600E-13
 -1      2309 2.01686E+01 2.51907E-02 3.23648E-04-1.36406E-01 4.93287E-14-3.02440E-13
 -1      2310 2.01764E+01 2.44531E-02-5.58013E-04-1.71924E-01 4.44100E-14-3.23001E-13
 -1      2311 2.01496E+01 2.71281E-02 4.63062E-04-1.24652E-01 6.42613E-14-3.62014E-13
 -1      2312 2.01270E+01 2.78542E-02 2.16948E-04-1.14427E-01 1.29322E-13-3.65967E-13
 -1      2313 2.01341E+01 3.40774E-02-4.85069E-04-1.49320E-01 2.47393E-14-3.45689E-13
 -1      2314 2.01121E+01 2.77779E-02 5.68684E-04-1.02226E-01 9.31624E-14-4.04997E-13
 -1      2315 2.00932E+01 2.68331E-02 1.44866E-04-9.19993E-02 7.12438E-14-3.73919E-13
 -1      2316 2.01002E+01 3.65007E-02-4.16222E-04-1.23744E-01 6.41524E-14-3.97249E-13
 -1      2317 2.00817E+01 2.56239E-02 5.80054E-04-8.05960E-02 1.59247E-14-3.69588E-13
 -1      2318 2.00666E+01 2.38277E-02 9.76226E-05-7.12708E-02 1.95082E-14-4.08552E-13
 -1      2319 2.00735E+01 3.45763E-02-3.53291E-04-9.86281E-02 3.86772E-14-2.86996E-13
 -1      2320 2.00577E+01 2.20967E-02 5.35973E-04-6.13036E-02 2.50162E-14-4.73931E-13
 -1      2321 2.00459E+01 1.99928E-02 6.72047E-05-5.33104E-02 4.87967E-14-5.07898E-13
 -1      2322 2.00527E+01 3.03762E-02-2.96531E-04-7.59143E-02 9.99314E-15-3.91423E-13
 -1      2323 2.00393E+01 1.81316E-02 4.64198E-04-4.50142E-02-2.51118E-14-5.40853E-13
 -1      2324 2.00304E+01 1.60516E-02 4.76912E-05-3.84744E-02-2.63669E-14-5.32458E-13
 -1      2325 2.00368E+01 2.52915E-02-2.45816E-04-5.65020E-02-4.48291E-14-3.80025E-13
 -1      2326 2.00255E+01 1.42888E-02 3.83154E-04-3.18346E-02-5.36386E-14-5.40756E-13
 -1      2327 2.00189E+01 1.24128E-02 3.50135E-05-2.66857E-02 4.11971E-14-4.39283E-13
 -1      2328 2.00248E+01 2.01820E-02-2.00975E-04-4.06140E-02-4.24953E-14-3.71852E-13
 -1      2329 2.00153E+01 1.08648E-02 3.04080E-04-2.15495E-02 1.20949E-13-4.73970E-13
 -1      2330 2.00107E+01 9.27228E-03 2.65365E-05-1.76325E-02 1.52291E-13-3.37813E-13
 -1      2331 2.00159E+01 1.55248E-02-1.61835E-04-2.80707E-02 7.73586E-14-3.44766E-13
 -1      2332 2.00081E+01 7.98261E-03 2.33074E-04-1.37840E-02 1.24705E-13-3.15238E-13
 -1      2333 2.00050E+01 6.69057E-03 2.06264E-05-1.09014E-02 9.59414E-14-3.12802E-13
 -1      2334 2.00095E+01 1.15394E-02-1.28196E-04-1.84834E-02 1.64001E-13-3.84892E-13
 -1      2335 2.00032E+01 5.65926E-03 1.72800E-04-8.10852E-03 4.78434E-14-2.02517E-13
 -1      2336 2.00012E+01 4.64939E-03 1.63003E-05-6.05912E-03-1.14423E-14-1.77369E-13
 -1      2337 2.00050E+01 8.28400E-03-9.97941E-05-1.13803E-02 1.03015E-13-1.07429E-13
 -1      2338 2.00000E+01 3.85288E-03 1.23782E-04-4.10142E-03 1.05235E-13-1.54718E-13
 -1      2339 1.99988E+01 3.08943E-03 1.29852E-05-2.70028E-03 2.71784E-13-3.47568E-14
 -1      2340 2.00020E+01 5.72351E-03-7.62563E-05-6.28471E-03 1.22860E-13-8.44771E-14
 -1      2341 1.99980E+01 2.49359E-03 8.53098E-05-1.38280E-03 2.17458E-13 1.82545E-14
 -1      2342 1.99974E+01 1.93474E-03 1.03571E-05-4.70299E-04 8.72753E-14 1.31448E-13
 -1      2343 2.00000E+01 3.77567E-03-5.71064E-05-2.75835E-03 3.45581E-13 2.45043E-14
 -1      2344 1.99970E+01 1.50292E-03 5.60585E-05 3.70781E-04-1.18167E-14 1.94465E-13
 -1      2345 1.99967E+01 1.10742E-03 8.23345E-06 9.26222E-04-1.42005E-17 1.83139E-13
 -1      2346 1.99988E+01 2.34030E-03-4.18106E-05-4.22295E-04 6.86656E-14 3.09409E-13
 -1      2347 1.99965E+01 8.04923E-04 3.44885E-05 1.42337E-03-5.37326E-14-1.69879E-14
 -1      2348 1.99965E+01 5.35555E-04 6.50062E-06 1.72631E-03-7.90726E-14-7.61887E-14
 -1      2349 1.99981E+01 1.31668E-03-2.98220E-05 1.03700E-03-1.64323E-13 2.00741E-13
 -1      2350 1.99965E+01 3.31828E-04 1.90828E-05 1.98323E-03-2.12962E-14-1.04499E-13
 -1      2351 1.99966E+01 1.56808E-04 5.07436E-06 2.11410E-03 9.89025E-14 1.55441E-14
 -1      2352 1.99978E+01 6.12882E-04-2.06062E-05 1.86997E-03-7.86210E-14-4.31515E-14
 -1      2353 1.99967E+01 2.61217E-05 8.47105E-06 2.20956E-03-2.50307E-14-4.02807E-14
 -1      2354 1.99969E+01-8.07125E-05 3.87955E-06 2.22832E-03-1.22897E-14-2.06077E-14
 -1      2355 1.99978E+01 1.49697E-04-1.36604E-05 2.27052E-03 2.27000E-14 2.15558E-14
 -1      2356 1.99970E+01-1.59349E-04 1.48388E-06 2.22025E-03 4.52324E-14-1.57731E-14
 -1      2357 1.99973E+01-2.19013E-04 2.83961E-06 2.16998E-03 1.71193E-13-8.15530E-14
 -1      2358 1.99979E+01-1.38519E-04-8.53269E-06 2.38427E-03-2.87934E-14 1.45759E-13
 -1      2359 1.99974E+01-2.62414E-04-2.83331E-06 2.09942E-03 1.59457E-13-1.90933E-13
 -1      2360 1.99977E+01-2.91577E-04 1.87347E-06 2.00966E-03 2.10817E-13-2.76603E-13
 -1      2361 1.99981E+01-3.04810E-04-4.83538E-06 2.31698E-03 5.06223E-14 6.76947E-15
 -1      2362 1.99979E+01-3.13135E-04-5.22874E-06 1.90415E-03 2.99563E-13-2.71166E-13
 -1      2363 1.99981E+01-3.25032E-04 9.00007E-07 1.79365E-03 3.29025E-13-2.15924E-13
 -1      2364 1.99984E+01-3.91444E-04-2.25155E-06 2.14223E-03 2.57528E-13-2.32495E-13
 -1      2365 1.99983E+01-3.35503E-04-6.26903E-06 1.67014E-03 1.05856E-13-3.03583E-13
 -1      2366 1.99985E+01-3.40707E-04-1.33301E-07 1.54913E-03-8.28408E-14-3.21401E-13
 -1      2367 1.99986E+01-4.32038E-04-5.42133E-07 1.90815E-03 1.74922E-13-2.17612E-13
 -1      2368 1.99987E+01-3.48642E-04-6.33897E-06 1.41628E-03-3.35221E-14-3.25423E-13
 -1      2369 1.99989E+01-3.55355E-04-1.18193E-06 1.28860E-03-9.73350E-14-8.37853E-14
 -1      2370 1.99989E+01-4.53264E-04 4.80706E-07 1.64292E-03-1.69544E-14-1.65386E-13
 -1      2371 1.99990E+01-3.67451E-04-5.78374E-06 1.14922E-03-1.60107E-13 7.30204E-14
 -1      2372 1.99992E+01-3.80819E-04-2.83073E-06 1.01421E-03 1.13367E-13 4.50425E-14
 -1      2373 1.99991E+01-4.75345E-04 9.27950E-07 1.35989E-03-1.79088E-14-1.50053E-13
 -1      2374 2.48507E+01-1.14271E+00 4.98464E-03-3.04983E+00-2.79918E-13 3.68202E-13
 -1      2375 2.40655E+01-3.43206E-01 5.25393E-02-3.28654E+00-1.66315E-13 3.64815E-13
 -1      2376 2.70963E+01-3.22590E+00-1.27363E-02-1.82100E+00-4.19234E-13 4.64684E-13
 -1      2377 2.60621E+01-2.12408E+00 9.93488E-02-2.75580E+00-4.03316E-13 4.02210E-13
 -1      2378 2.31993E+01-2.16435E+00-4.15073E-02-3.84419E+00-3.48853E-13 1.38285E-13
 -1      2379 3.70789E+01 5.45854E+00-7.51547E-03-1.57822E+00 1.24206E-12-1.81799E-13
 -1      2380 3.70856E+01 5.98308E+00 5.04985E-02 3.77185E-01 1.28397E-12 9.19074E-14
 -1      2381 2.82151E+01-3.42197E+00 1.04325E-01 1.44303E+00-3.13478E-13-7.21378E-13
 -1      2382 2.93770E+01-4.06833E+00-2.57811E-02 9.77943E-02-2.82829E-14-8.01748E-13
 -1      2383 2.54386E+01-1.45398E+00 8.04764E-02 3.01190E+00-4.99607E-13-4.55232E-13
 -1      2384 2.63938E+01-2.42450E+00 6.57349E-03 2.34476E+00-3.98105E-13-5.36626E-13
 -1      2385 2.52163E+01-3.75205E+00-3.86675E-02 3.09598E+00-4.16403E-13-5.03750E-13
 -1      2386 2.37777E+01-1.00903E-01 2.48561E-02 3.30326E+00-3.89978E-13-3.78078E-13
 -1      2387 2.45425E+01-6.88761E-01 7.67039E-03 3.17972E+00-4.66561E-13-4.52914E-13
 -1      2388 2.28551E+01-1.44608E+00-3.55960E-02 3.82556E+00-5.06227E-13-2.53662E-13
 -1      2389 2.28218E+01 4.89503E-01-5.67171E-04 2.94017E+00-1.43220E-13-3.08642E-13
 -1      2390 2.34296E+01 2.66009E-01 1.03972E-02 3.09657E+00-3.11109E-13-3.78359E-13
 -1      2391 2.18146E+01 1.01833E-01-1.52360E-02 3.61569E+00-3.30980E-13-2.42121E-13
 -1      2392 2.21958E+01 6.24466E-01-6.45506E-03 2.37748E+00 1.58328E-14-4.65964E-14
 -1      2393 2.26874E+01 5.92274E-01 1.35138E-02 2.62595E+00-2.46123E-14-1.66226E-13
 -1      2394 2.14049E+01 7.29870E-01 6.25146E-05 3.05594E+00-1.77858E-13-1.30422E-13
 -1      2395 2.17045E+01 5.59225E-01-5.45195E-03 1.79682E+00 1.08160E-15-2.12694E-14
 -1      2396 2.21133E+01 6.05518E-01 1.54574E-02 2.05223E+00 4.10279E-14-3.32393E-14
 -1      2397 2.11903E+01 8.39298E-01 6.58805E-03 2.41612E+00-2.59489E-14 4.49046E-14
 -1      2398 2.13310E+01 4.42505E-01-3.07091E-03 1.33331E+00-2.22695E-14-1.94741E-13
 -1      2399 2.16387E+01 5.03629E-01 1.48179E-02 1.53603E+00 7.01383E-14-1.60117E-14
 -1      2400 2.10163E+01 7.29979E-01 5.39786E-03 1.83502E+00 2.19061E-14 1.01324E-14
 -1      2401 2.10227E+01 3.29819E-01-1.67856E-03 9.71783E-01-2.64735E-13-2.13606E-13
 -1      2402 2.12609E+01 3.85801E-01 1.27420E-02 1.12844E+00-1.90130E-13-1.73905E-13
 -1      2403 2.08525E+01 5.71847E-01 3.78414E-03 1.36936E+00-8.73724E-14 1.94635E-14
 -1      2404 2.07739E+01 2.38568E-01-7.79365E-04 7.00781E-01-5.99937E-14-2.79785E-13
 -1      2405 2.09548E+01 2.82963E-01 1.01223E-02 8.16991E-01-1.81500E-13-2.51406E-13
 -1      2406 2.06944E+01 4.24842E-01 2.07967E-03 1.00625E+00-1.93489E-13-4.32523E-14
 -1      2407 2.05768E+01 1.70053E-01-2.63485E-04 5.02107E-01-1.12790E-13-3.67394E-13
 -1      2408 2.07123E+01 2.03136E-01 7.69011E-03 5.86516E-01-6.87447E-14-3.39311E-13
 -1      2409 2.05503E+01 3.07087E-01 8.27076E-04 7.32099E-01-8.64235E-14-2.09938E-13
 -1      2410 2.04236E+01 1.20486E-01 1.19334E-05 3.58157E-01-1.01857E-13-2.29310E-13
 -1      2411 2.05239E+01 1.44385E-01 5.68990E-03 4.18834E-01-1.16385E-13-3.60046E-13
 -1      2412 2.04258E+01 2.18998E-01 6.47971E-05 5.29081E-01-1.73969E-13-3.09758E-13
 -1      2413 2.03064E+01 8.52498E-02 1.43875E-04 2.54435E-01-1.78956E-13-2.08657E-13
 -1      2414 2.03799E+01 1.02269E-01 4.14845E-03 2.97865E-01-1.17280E-13-2.65757E-13
 -1      2415 2.03225E+01 1.55301E-01-3.30104E-04 3.80387E-01-1.26488E-13-2.03127E-13
 -1      2416 2.02177E+01 6.02734E-02 1.20957E-04 1.79827E-01 9.69375E-14-2.12149E-13
 -1      2417 2.02714E+01 7.24506E-02 3.00619E-03 2.10913E-01 1.22955E-14-2.22695E-13
 -1      2418 2.02395E+01 1.09982E-01-4.91427E-04 2.72121E-01-7.07496E-15-4.75127E-13
 -1      2419 2.01490E+01 4.19741E-02 1.41178E-04 1.23987E-01-2.75224E-14-2.19904E-13
 -1      2420 2.01890E+01 5.08350E-02 2.14792E-03 1.47040E-01 1.66335E-14-1.59340E-13
 -1      2421 2.01731E+01 7.76070E-02-3.96928E-04 1.92060E-01 4.93160E-15-2.77388E-13
 -1      2422 2.01014E+01 2.98578E-02 1.83639E-04 8.61653E-02-2.51503E-13 8.79113E-15
 -1      2423 2.01286E+01 3.58550E-02 1.53461E-03 1.01769E-01-1.57866E-13-1.43193E-13
 -1      2424 2.01221E+01 5.43212E-02-4.91108E-04 1.34144E-01-1.53407E-13-1.25322E-13
 -1      2425 2.00668E+01 2.11470E-02 1.57804E-04 5.90113E-02-3.20282E-14 1.82205E-13
 -1      2426 2.00860E+01 2.54228E-02 1.09386E-03 7.01598E-02-1.45898E-13 1.19914E-13
 -1      2427 2.00849E+01 3.85465E-02-4.22255E-04 9.35637E-02-2.35643E-13 6.91621E-15
 -1      2428 2.00421E+01 1.49110E-02 1.30969E-04 3.96058E-02 1.40775E-13 1.29724E-13
 -1      2429 2.00554E+01 1.79837E-02 7.82239E-04 4.75356E-02 9.63013E-14 9.20704E-14
 -1      2430 2.00573E+01 2.72793E-02-3.49919E-04 6.42851E-02 9.80069E-14-5.53893E-14
 -1      2431 2.00248E+01 1.04288E-02 1.05455E-04 2.58228E-02 8.75211E-15 3.46937E-13
 -1      2432 2.00339E+01 1.26442E-02 5.57028E-04 3.14254E-02 1.07119E-13 1.84367E-13
 -1      2433 2.00372E+01 1.92071E-02-2.81178E-04 4.32537E-02 5.51141E-14-4.47886E-14
 -1      2434 2.00129E+01 7.20041E-03 8.21390E-05 1.61264E-02-4.02868E-13 6.24286E-13
 -1      2435 2.00190E+01 8.80047E-03 3.93875E-04 2.00434E-02-1.48763E-13 4.44270E-13
 -1      2436 2.00228E+01 1.34040E-02-2.20794E-04 2.82551E-02-1.28210E-13 1.60387E-13
 -1      2437 2.00050E+01 4.86961E-03 5.68479E-05 9.39559E-03-2.33221E-13 6.22337E-13
 -1      2438 2.00089E+01 6.03892E-03 2.77588E-04 1.20980E-02-3.80535E-13 6.92892E-13
 -1      2439 2.00128E+01 9.22348E-03-1.70823E-04 1.76708E-02-3.27414E-13 4.45544E-13
 -1      2440 1.99998E+01 3.13726E-03 4.21530E-05 4.63602E-03-5.98488E-14 6.74082E-13
 -1      2441 2.00023E+01 3.99843E-03 1.90133E-04 6.52033E-03-1.01052E-14 6.59223E-13
 -1      2442 2.00059E+01 6.20090E-03-1.17020E-04 1.01824E-02-1.91266E-13 5.54883E-13
 -1      2443 1.99969E+01 1.99323E-03 3.47793E-05 1.67806E-03 1.02427E-13 5.23900E-13
 -1      2444 1.99982E+01 2.57253E-03 1.26892E-04 2.83672E-03-1.65064E-13 5.50799E-13
 -1      2445 2.00014E+01 3.99109E-03-9.47439E-05 5.09329E-03-1.34257E-15 4.60605E-13
 -1      2446 1.99954E+01 1.18460E-03 2.53306E-05-2.02055E-04 1.92505E-13 6.29468E-13
 -1      2447 1.99959E+01 1.58536E-03 8.17849E-05 5.19009E-04 3.07455E-13 5.95307E-13
 -1      2448 1.99987E+01 2.50524E-03-6.87181E-05 1.83939E-03 1.39902E-13 2.43120E-13
 -1      2449 1.99948E+01 6.30325E-04 1.80404E-05-1.32287E-03-1.53844E-13 6.45637E-13
 -1      2450 1.99949E+01 9.04284E-04 5.10120E-05-9.06739E-04-2.03336E-14 5.94114E-13
 -1      2451 1.99972E+01 1.46736E-03-4.91201E-05-2.26829E-04 1.51217E-13 4.67741E-13
 -1      2452 1.99947E+01 2.61088E-04 1.25678E-05-1.92235E-03 2.89944E-14 3.88202E-13
 -1      2453 1.99946E+01 4.42861E-04 2.95843E-05-1.71351E-03 8.54664E-15 5.16536E-13
 -1      2454 1.99965E+01 7.59486E-04-3.42994E-05-1.45973E-03 1.91978E-14 4.65964E-13
 -1      2455 1.99951E+01 2.47901E-05 8.52478E-06-2.17385E-03 1.16505E-13 3.48708E-13
 -1      2456 1.99947E+01 1.40440E-04 1.49702E-05-2.10153E-03 1.10598E-13 2.85485E-13
 -1      2457 1.99963E+01 2.90784E-04-2.32698E-05-2.11985E-03 1.01377E-13 3.85149E-13
 -1      2458 1.99956E+01-1.17859E-04 5.49545E-06-2.20209E-03 1.53505E-13 1.60340E-13
 -1      2459 1.99952E+01-4.85779E-05 5.29552E-06-2.21570E-03 1.10285E-13 3.27235E-13
 -1      2460 1.99964E+01-6.67156E-06-1.52076E-05-2.39731E-03 1.64880E-13 3.10284E-13
 -1      2461 1.99962E+01-1.96567E-04 3.41329E-06-2.09504E-03 4.36766E-13 2.43278E-13
 -1      2462 1.99958E+01-1.58024E-04-6.85282E-07-2.15894E-03 2.40525E-13 2.27819E-13
 -1      2463 1.99967E+01-1.84285E-04-9.45054E-06-2.42888E-03 1.94381E-13 2.10001E-13
 -1      2464 1.99969E+01-2.34508E-04 1.77048E-06-1.90157E-03-3.62036E-14 5.33032E-13
 -1      2465 1.99965E+01-2.15722E-04-4.24876E-06-1.99766E-03 3.19664E-13 4.23971E-13
 -1      2466 1.99971E+01-2.80349E-04-5.50927E-06-2.30607E-03 2.09296E-13 3.40690E-13
 -1      2467 1.99975E+01-2.45519E-04 3.46468E-07-1.67947E-03-5.48386E-14 4.02466E-13
 -1      2468 1.99971E+01-2.39542E-04-6.37772E-06-1.78383E-03-1.76354E-13 4.98936E-13
 -1      2469 1.99976E+01-3.24634E-04-2.34720E-06-2.09657E-03 1.11354E-14 4.49346E-13
 -1      2470 1.99981E+01-2.47206E-04-8.12263E-07-1.44276E-03 2.54899E-13 1.98012E-13
 -1      2471 1.99977E+01-2.45696E-04-7.19934E-06-1.55195E-03 1.58447E-13 3.27427E-13
 -1      2472 1.99981E+01-3.37780E-04-5.12997E-07-1.84975E-03 1.01308E-13 2.86355E-13
 -1      2473 1.99986E+01-2.50538E-04-2.04253E-06-1.19941E-03 4.30808E-13-1.02785E-13
 -1      2474 1.99983E+01-2.47248E-04-7.21021E-06-1.31160E-03 4.31204E-13 5.54688E-15
 -1      2475 1.99985E+01-3.40650E-04 6.29285E-07-1.58453E-03 4.32320E-13-8.95614E-14
 -1      2476 1.99990E+01-2.63637E-04-2.87805E-06-9.47382E-04-2.44804E-13-2.76379E-13
 -1      2477 1.99987E+01-2.55429E-04-6.80627E-06-1.06537E-03 1.61156E-13-1.50970E-13
 -1      2478 1.99988E+01-3.46891E-04 1.70863E-06-1.31117E-03 3.42328E-13 1.19018E-13
 -1      2479 1.99993E+01-2.88972E-04-4.03987E-06-6.84092E-04 3.19924E-13-6.19606E-13
 -1      2480 1.99991E+01-2.73403E-04-5.85045E-06-8.08688E-04-1.31610E-13-5.46389E-13
 -1      2481 1.99992E+01-3.65336E-04 3.50531E-06-1.02790E-03 1.51101E-13-3.43253E-13
 -1      2482 1.99995E+01-3.06010E-04-4.13554E-06-5.33167E-04 2.31101E-13-4.47270E-13
 -1      2483 2.00000E+01-1.49724E-03 6.09548E-06-7.81337E-04 2.67319E-13 1.43968E-13
 -1      2484 2.00000E+01-1.36370E-03-8.40638E-07-8.58324E-04 2.45526E-13-3.34810E-13
 -1      2485 2.00001E+01-1.70413E-03 6.24766E-06-5.44590E-04 2.04742E-13 5.60922E-13
 -1      2486 2.00001E+01-1.60675E-03 1.47674E-06-6.62981E-04 1.53657E-13 5.03741E-13
 -1      2487 2.00002E+01-1.48450E-03-3.94817E-06-8.22149E-04 2.34709E-13 2.47821E-13
 -1      2488 1.99997E+01-9.11715E-04 4.53245E-06-9.42260E-04-2.50366E-14 1.23130E-13
 -1      2489 1.99996E+01-7.50150E-04-5.86726E-06-9.08504E-04 5.20366E-14 2.50642E-13
 -1      2490 1.99999E+01-1.22354E-03 5.35544E-06-9.22169E-04 4.37308E-14-3.43222E-13
 -1      2491 1.99998E+01-1.07062E-03-3.26958E-06-9.45114E-04-7.55426E-14-9.72777E-16
 -1      2492 1.99998E+01-9.58897E-04-2.48636E-06-1.08486E-03 6.88051E-14-8.96076E-14
 -1      2493 2.00000E+01-1.24507E-03-2.77019E-06-1.01694E-03 2.20887E-13-1.35931E-13
 -1      2494 2.00002E+01-1.82339E-03 5.85850E-06-2.44768E-04-1.16214E-13-2.58378E-13
 -1      2495 2.00002E+01-1.77257E-03 3.53234E-06-3.88563E-04 7.15975E-14 1.18374E-13
 -1      2496 2.00003E+01-1.65550E-03-4.75553E-06-5.29905E-04 1.44196E-13 1.81194E-13
 -1      2497 2.00002E+01-1.84432E-03 4.90977E-06 8.20898E-05-9.01737E-14 3.42817E-14
 -1      2498 2.00002E+01-1.84552E-03 5.03412E-06-6.98812E-05-1.37917E-13-1.71815E-13
 -1      2499 2.00003E+01-1.74264E-03-5.12758E-06-1.78169E-04 2.96354E-14-1.49312E-13
 -1      2500 2.00002E+01-1.76557E-03 3.45521E-06 3.98937E-04-1.38775E-13-2.69917E-13
 -1      2501 2.00002E+01-1.81869E-03 5.88781E-06 2.56277E-04-1.67030E-13 1.65848E-14
 -1      2502 2.00003E+01-1.73920E-03-5.07626E-06 1.92631E-04 1.22203E-13-1.77596E-14
 -1      2503 2.00001E+01-1.59902E-03 1.41617E-06 6.65573E-04 4.36848E-15-2.85979E-13
 -1      2504 2.00001E+01-1.69591E-03 6.20010E-06 5.50681E-04-1.77034E-13-1.87472E-13
 -1      2505 2.00003E+01-1.64712E-03-4.69745E-06 5.38846E-04-9.30352E-14-2.04693E-13
 -1      2506 2.00000E+01-1.35482E-03-8.90809E-07 8.57782E-04 1.62338E-13-1.40791E-14
 -1      2507 2.00000E+01-1.48860E-03 5.99480E-06 7.82151E-04 1.82559E-13-2.11402E-13
 -1      2508 2.00002E+01-1.47405E-03-3.76511E-06 8.24594E-04 6.32992E-14-1.47622E-13
 -1      2509 1.99998E+01-1.05784E-03-3.08593E-06 9.41436E-04 3.95018E-14-3.04062E-15
 -1      2510 1.99999E+01-1.21383E-03 5.06414E-06 9.20525E-04 1.00324E-13 1.33158E-13
 -1      2511 2.00000E+01-1.23192E-03-2.03887E-06 1.01637E-03 1.14355E-13-1.03274E-13
 -1      2512 1.99996E+01-7.36443E-04-4.59685E-06 8.97107E-04 3.46853E-15-6.39259E-13
 -1      2513 1.99997E+01-9.00108E-04 3.19938E-06 9.39047E-04 5.95133E-14-2.85091E-13
 -1      2514 1.99998E+01-9.42441E-04 1.65884E-07 1.07956E-03 5.54714E-14-1.24889E-13
 -1      2515 1.81429E+01-6.04207E+00-3.51134E-02 6.13607E+00 2.87548E-14 3.43135E-13
 -1      2516 1.39844E+01-5.48042E+00 7.89035E-02 5.93018E+00-1.23235E-13 5.29993E-13
 -1      2517 1.99995E+01-4.73308E-04-3.54387E-06 6.56938E-04 2.96759E-13-3.48729E-13
 -1      2518 3.31063E+00-2.64417E+00 1.14435E-01-2.77545E+00 3.15470E-13 1.26643E-12
 -1      2519 4.62607E+00-3.16811E+00 8.37725E-02-4.89249E+00 2.64289E-13 1.08907E-12
 -1      2520 2.36537E+01 1.87897E-01 1.39551E-02-3.04946E+00-2.43451E-14 3.33317E-13
 -1      2521 2.30993E+01 5.74291E-01 2.18631E-02-2.87250E+00 6.83895E-14 3.41577E-13
 -1      2522 2.18590E+01-8.63512E-02-2.35877E-02-3.64185E+00-9.61436E-14 1.19240E-13
 -1      2523 3.57575E+00-2.88156E+00 1.03563E-01 1.77591E+00 7.95752E-14 1.40565E-12
 -1      2524 2.80676E+00-2.59702E+00 7.95904E-02-3.60677E-01 6.67556E-14 1.42153E-12
 -1      2525 1.36831E+01-4.95927E+00 7.65472E-02-7.75065E+00 3.88189E-13 7.24670E-13
 -1      2526 1.78576E+01-5.08010E+00 1.58378E-03-7.86113E+00 3.43947E-13 4.91933E-13
 -1      2527 2.13674E+01 1.71670E+00-1.66770E-02-1.92417E+00-4.23475E-13-4.14915E-13
 -1      2528 2.12246E+01 9.29960E-01-1.42207E-02-1.42702E+00-4.05446E-13-3.43770E-13
 -1      2529 2.12627E+01 1.00721E+00 1.21646E-02-1.42770E+00-3.56716E-13-3.83287E-13
 -1      2530 2.11106E+01 2.09173E+00-2.05513E-03-1.83148E+00-3.71393E-13-5.11915E-13
 -1      2531 2.70066E+01-6.06181E+00-7.78944E-02 3.55125E+00 3.87412E-13-2.29095E-13
 -1      2532 2.25388E+01-6.37234E+00-1.45467E-02 4.69797E+00 1.39833E-13 7.63833E-14
 -1      2533 3.33604E+01 5.46484E+00-1.93266E-01-8.61012E-01-9.34308E-13-4.25771E-14
 -1      2534 3.31149E+01 3.33821E+00-5.80212E-02-1.00978E-01-9.03139E-13 2.04281E-14
 -1      2535 2.21427E+01-4.75820E+00-5.69246E-02 6.81675E+00-1.37945E-14-1.42338E-13
 -1      2536 1.79183E+01-4.85967E+00 7.78116E-02 7.45825E+00 1.65062E-13-3.26243E-13
 -1      2537 4.49988E+00-2.70877E+00 1.01077E-01-2.54516E+00-4.82947E-15-1.19604E-12
 -1      2538 7.06848E+00-3.43822E+00 4.77250E-02-4.74051E+00-3.24463E-14-1.11600E-12
 -1      2539 1.88465E+01 3.22868E+00-1.27352E-02 8.47138E-01 2.72382E-13-6.64223E-13
 -1      2540 1.92234E+01 3.10958E+00-4.71964E-05 5.88212E-01 2.11606E-13-6.82686E-13
 -1      2541 1.96327E+01 2.51061E+00-1.19868E-02 5.46428E-01 1.85935E-13-6.37807E-13
 -1      2542 1.88345E+01 2.86990E+00-1.26788E-02 1.13428E+00 2.85184E-13-6.25359E-13
 -1      2543 2.89640E+01-2.59058E+00-6.18262E-02 3.71568E+00-4.42590E-13 2.01505E-14
 -1      2544 2.60183E+01-3.90717E+00 2.61421E-02 4.79163E+00-2.42140E-13 1.26010E-14
 -1      2545 3.56916E+01 5.13748E+00-1.46955E-01 1.84733E+00 1.25483E-12 2.11109E-13
 -1      2546 3.52715E+01 4.11695E+00-6.75484E-02-3.14042E+00 1.19660E-12-3.18828E-13
 -1      2547 3.51608E+01 1.02826E+00-1.16392E-01 3.79252E+00 7.18092E-13 5.50504E-13
 -1      2548 3.54452E+01 3.22188E+00-1.12950E-01 3.11222E+00 1.00286E-12 4.85501E-13
 -1      2549 2.79126E+01-5.64734E+00 3.53544E-02-2.51438E+00-1.48520E-13-9.20652E-14
 -1      2550 3.16110E+01-4.59067E+00-8.82932E-02-6.51184E-01 5.89251E-14 1.53710E-13
 -1      2551 1.86866E+01-5.79673E+00 5.15103E-02-5.79055E+00-2.75335E-13-7.46538E-13
 -1      2552 2.30597E+01-6.15009E+00-1.08559E-01-5.13678E+00-2.15328E-13-5.23536E-13
 -1      2553 1.11041E+01-4.41954E+00 7.56539E-02-5.78216E+00-1.98175E-13-9.92650E-13
 -1      2554 1.49244E+01-5.24349E+00 4.58665E-03-6.47354E+00-1.70364E-13-9.22568E-13
 -1      2555 1.82098E+01-4.79905E+00 4.59200E-02-5.90691E+00-3.82749E-13-6.28594E-13
 -1      2556 2.99520E+00-2.00506E+00 7.60179E-02 1.67627E+00 1.30992E-13-1.24589E-12
 -1      2557 3.13231E+00-2.31206E+00 9.49322E-02-5.37140E-01 1.43878E-13-1.26249E-12
 -1      2558 6.96498E+00-2.94487E+00 5.01245E-02 6.36294E+00 2.54463E-13-9.41358E-13
 -1      2559 4.44649E+00-2.28117E+00 1.24690E-01 4.11089E+00 3.03438E-13-1.12005E-12
 -1      2560 1.36656E+01-4.38980E+00 7.45372E-03 8.07427E+00 2.01339E-13-4.87679E-13
 -1      2561 1.05186E+01-3.89704E+00 1.08141E-01 7.37988E+00 2.99538E-13-6.99385E-13
 -1      2562 3.33631E+01 8.10709E+00-1.68934E-01-3.27343E-01-1.03539E-12-2.99136E-13
 -1      2563 3.27578E+01 7.52512E+00-1.62948E-01-7.79720E-01-9.77773E-13-1.94039E-13
 -1      2564 3.25116E+01 1.05794E+00-1.21560E-01 1.21010E+00-8.26735E-13 3.87468E-14
 -1      2565 3.07257E+01-7.02754E-01-6.10093E-02 2.10590E+00-6.31703E-13 4.05231E-15
 -1      2566 6.60013E+00-3.84033E+00 8.06425E-02-6.12064E+00 3.34621E-13 9.82131E-13
 -1      2567 9.42552E+00-4.08438E+00 3.67622E-02-7.42413E+00 2.92433E-13 9.48852E-13
 -1      2568 7.39065E+00-2.19565E+00 1.56036E-01-5.50247E+00 3.82055E-13 1.03340E-12
 -1      2569 3.34990E+01 7.82259E+00-1.55311E-01 4.01394E-01-9.20930E-13-4.18485E-13
 -1      2570 3.34656E+01 8.13578E+00-2.22751E-01 9.58219E-02-9.99090E-13-3.67045E-13
 -1      2571 3.05178E+01 7.88857E+00-6.13361E-02-1.55334E-01-8.94673E-13-3.34423E-13
 -1      2572 3.29386E+01 4.32945E+00-1.30331E-01 3.88810E-01-7.19730E-13-6.48315E-13
 -1      2573 3.39629E+01 6.32931E+00-1.47000E-01 6.04428E-01-8.27560E-13-5.41039E-13
 -1      2574 3.11166E+01-1.15863E-01-9.30733E-02-1.06172E+00-2.86403E-13-5.13145E-13
 -1      2575 3.21688E+01 1.52634E+00-1.67705E-01-2.79838E-01-5.04582E-13-7.00384E-13
 -1      2576 2.71311E+01-3.75352E+00-2.56743E-02-3.94145E+00 1.97023E-13-1.68116E-13
 -1      2577 2.98856E+01-2.03175E+00-8.53690E-02-2.67505E+00-6.34284E-14-3.44003E-13
 -1      2578 2.97125E+01-1.80116E+00-3.71538E-04-8.64316E-01 3.58576E-14-7.47929E-13
 -1      2579 2.16328E+01-5.07917E+00 4.25404E-02-6.65695E+00 3.46473E-13 3.16219E-13
 -1      2580 2.44645E+01-4.71030E+00-6.26794E-02-5.88188E+00 3.02258E-13 1.81619E-13
 -1      2581 2.64699E+01-4.45419E+00 3.74488E-02-4.12922E+00 4.44422E-13-2.24765E-13
 -1      2582 2.04261E+01-5.17955E+00 5.07530E-02-6.96093E+00 5.32546E-13 2.38790E-13
 -1      2583 2.28395E+01 1.31878E+00 1.01174E-02-4.86276E-01 4.40134E-13 5.33182E-13
 -1      2584 2.29080E+01 1.60514E+00 1.51698E-04 2.05208E-01 4.76244E-13 6.15003E-13
 -1      2585 2.22465E+01 2.15833E+00-5.12156E-03 3.20215E-01 5.35754E-13 4.17194E-13
 -1      2586 2.18737E+01 1.76622E+00 3.80737E-03-7.71919E-01 4.48419E-13 2.86029E-13
 -1      2587 3.29311E+01-3.93782E+00-1.31377E-01-7.90394E-01 7.95447E-13-4.38871E-13
 -1      2588 3.01854E+01-5.20498E+00-5.04012E-02 1.20780E+00 6.53227E-13-3.15081E-13
 -1      2589 3.49709E+01 1.13882E+00-1.73003E-01-3.83071E+00 1.10389E-12-5.96190E-13
 -1      2590 3.51101E+01-1.05892E+00-9.46649E-02 2.34350E+00 5.06206E-13 4.10616E-13
 -1      2591 3.31344E+01-1.15484E+00-5.76254E-02 3.39947E+00 3.80543E-13 7.47791E-13
 -1      2592 3.24084E+01-2.94726E+00-8.12658E-02 2.76212E+00 5.07927E-14 8.03191E-13
 -1      2593 3.31831E+01-3.50519E+00-8.44089E-02 1.05026E+00 1.93422E-13 2.82829E-13
 -1      2594 3.38949E+01-1.37920E+00-7.09128E-02-3.23069E+00 9.82242E-13-5.91860E-13
 -1      2595 3.26928E+01-3.34400E+00-9.90018E-02-1.83944E+00 6.01422E-13-6.59528E-13
 -1      2596 2.47667E+01-4.52278E+00 6.17111E-02 5.16277E+00 1.01974E-13 4.47697E-14
 -1      2597 2.06635E+01 2.09677E+00-5.17524E-03-7.48852E-01-6.29596E-14-6.20579E-13
 -1      2598 2.04873E+01 2.59771E+00-1.32375E-02-9.73205E-01-8.82793E-14-6.79370E-13
 -1      2599 2.06647E+01 2.49704E+00-1.87706E-02-1.25612E+00-1.64687E-13-6.73390E-13
 -1      2600 2.15213E+01 9.61406E-01-8.41986E-03-2.87226E+00 1.31550E-13 1.38499E-13
 -1      2601 2.11635E+01 2.72658E+00-2.32012E-02 2.87276E-01 5.58695E-13 1.69968E-13
 -1      2602 2.88446E+01-5.58215E+00-1.15275E-02 1.60181E+00 2.02893E-13-5.02959E-13
 -1      2603 1.27220E+01-4.26699E+00 1.15360E-01 5.82234E+00-3.87190E-13 5.31436E-13
 -1      2604 3.16422E+01-4.15422E+00 6.99882E-03 8.44375E-01-6.78763E-14 4.93411E-13
 -1      2605 3.09873E+01-3.69097E+00-6.90961E-02 1.35428E+00-9.52571E-14 6.86867E-13
 -1      2606 2.98947E+01-3.87641E+00 5.50256E-02-1.79967E-01-3.33553E-13 5.99090E-13
 -1      2607 1.99995E+01-4.09023E-04-1.76964E-06-7.23624E-04 2.19060E-13-3.00265E-13
 -1      2608 1.99995E+01-5.31592E-04 7.05647E-07-8.12404E-04 1.70284E-13-2.27924E-14
 -1      2609 2.18234E+01-5.76136E+00 4.64207E-02 4.93766E+00-2.68952E-13-1.13179E-13
 -1      2610 1.99994E+01-4.00391E-04-5.27667E-06 7.81439E-04 2.26928E-13-1.87420E-13
 -1      2611 1.99995E+01-5.91649E-04 2.55872E-06 8.68991E-04 1.86008E-13-5.08136E-13
 -1      2612 1.99995E+01-6.52164E-04-1.86208E-06 1.04114E-03 7.94645E-14-2.23487E-13
 -1      2613 1.99993E+01-3.92142E-04-6.65110E-06 9.13347E-04 2.07099E-13-7.16073E-14
 -1      2614 3.16146E+01 1.80783E+00-2.72536E-02-5.18042E-01-7.12541E-13 1.44107E-13
 -1      2615 4.91205E+00-1.30495E+00 1.77298E-01-1.63917E+00 1.36634E-13 1.26382E-12
 -1      2616 2.06115E+01 2.68993E+00 6.11062E-03-1.28513E-01 5.12246E-13 8.43232E-14
 -1      2617 5.99876E+00-2.33995E+00 1.27101E-01 2.86411E+00-2.03226E-13 1.19654E-12
 -1      2618 3.12390E+01 6.73889E+00-7.39726E-02 1.03718E+00-7.58171E-13-5.79661E-13
 -1      2619 1.73622E+01-4.28323E+00 1.17034E-01 7.50936E+00 3.92131E-13-3.18079E-13
 -1      2620 3.10913E+01 6.01465E+00-9.68225E-02-1.25655E+00-8.43298E-13-1.59595E-14
 -1      2621 1.01374E+01-2.52535E+00 1.63107E-01 6.76174E+00 4.78700E-13-7.54757E-13
 -1      2622 1.08556E+01-2.88291E+00 1.14670E-01-5.22902E+00-1.84630E-13-9.79633E-13
 -1      2623 5.65105E+00-1.17519E+00 1.70092E-01-1.75297E+00 4.45477E-14-1.17667E-12
 -1      2624 2.09153E+01 2.22965E+00-1.39781E-02-1.60731E+00-2.93345E-13-6.02254E-13
 -1      2625 1.30684E+01-3.89642E+00 1.27894E-01-7.49859E+00 4.97297E-13 6.98219E-13
 -1      2626 2.70415E+01-4.49091E+00-4.30390E-02-2.23610E+00-4.01360E-13 2.45866E-13
 -1      2627 2.62779E+01-5.56967E+00 1.35071E-02-3.17961E+00-3.34233E-13-5.39221E-14
 -1      2628 5.44155E+00-9.90135E-01 1.82012E-01 3.02694E+00 3.12014E-13-1.14458E-12
 -1      2629 2.96799E+01-2.09898E+00 4.59380E-03 1.86035E+00-3.42077E-13 1.46549E-13
 -1      2630 3.11812E+01 2.60464E+00-5.41578E-02 1.12836E+00-4.26131E-13-9.04388E-13
 -1      2631 1.99995E+01-5.95531E-04-3.19276E-06-9.96138E-04 2.50391E-13-1.29375E-14
 -1      2632 1.99993E+01-4.98567E-04 2.71518E-06 1.10662E-03 7.28405E-14-8.10409E-14
 -1      2633 1.68835E+01 3.58732E+00-2.38320E-02 1.80027E+00 4.73389E-13-5.62379E-13
 -1      2634 1.73067E+01 3.41115E+00 1.91237E-02 1.85264E+00 4.36641E-13-5.68181E-13
 -1      2635 1.77988E+01 3.02027E+00-1.88078E-02 1.84148E+00 4.09621E-13-5.74220E-13
 -1      2636 1.83444E+01 2.80420E+00 1.72478E-02 1.71105E+00 3.65431E-13-5.75715E-13
 -1      2637 1.75811E+01 2.78958E+00-3.38285E-03 2.11818E+00 4.16713E-13-5.50034E-13
 -1      2638 1.69825E+01 3.94310E+00-1.34135E-02 5.67921E-01 5.19836E-13-4.04594E-13
 -1      2639 1.66214E+01 4.05105E+00-5.90527E-03 8.76888E-01 5.09245E-13-4.63580E-13
 -1      2640 1.84182E+01 3.37523E+00-9.37432E-03-1.80738E-01 4.84463E-13-2.26224E-13
 -1      2641 1.76030E+01 3.71026E+00-1.67318E-02 8.18553E-02 4.88235E-13-3.27752E-13
 -1      2642 1.70292E+01 3.66535E+00 2.11001E-02 1.22456E-01 4.62265E-13-3.71522E-13
 -1      2643 2.03582E+01 1.86484E+00 1.20348E-02-1.92901E+00 2.93437E-13 2.85873E-14
 -1      2644 2.04213E+01 2.05453E+00-2.56566E-03-1.36272E+00 3.55540E-13 6.62595E-14
 -1      2645 8.96417E+00-1.73946E+00 1.28911E-01 4.29629E+00-4.46740E-13 8.37747E-13
 -1      2646 7.17191E+00-5.44220E-01 1.55251E-01 2.30752E+00-3.42976E-13 9.75553E-13
 -1      2647 2.00148E+01 1.29431E+00 2.45670E-02-2.95188E+00 9.89094E-14-2.14941E-14
 -1      2648 1.99772E+01 1.63261E+00 7.03252E-03-2.47948E+00 2.07298E-13 7.22404E-15
 -1      2649 1.88396E+01 2.20201E+00 7.32451E-03-2.01818E+00 2.70868E-13-1.16172E-13
 -1      2650 2.03741E+01 2.52383E+00-1.84521E-03-6.14491E-01 4.56963E-13 2.91633E-14
 -1      2651 2.83780E+01 7.03282E+00-1.78370E-01 3.41349E-01-7.10043E-13-4.20136E-13
 -1      2652 2.81734E+01 6.98969E+00-1.77559E-01-4.61968E-01-7.07490E-13-2.67125E-13
 -1      2653 2.13106E+01 2.80931E-02 9.12211E-03-1.06338E+00-2.22928E-13-3.18873E-13
 -1      2654 2.12079E+01-1.13419E-01-7.84913E-03-1.05511E+00-2.05160E-13-3.11188E-13
 -1      2655 2.12333E+01-1.82947E-01 5.13678E-03-1.11065E+00-1.88944E-13-2.70317E-13
 -1      2656 2.11211E+01-1.94619E-01-3.61010E-03-1.14835E+00-1.73217E-13-2.89463E-13
 -1      2657 2.15331E+01-1.62454E-01 1.91707E-03-1.11971E+00-1.96783E-13-2.95494E-13
 -1      2658 2.10838E+01-1.42360E-01-1.50335E-03-1.21954E+00-1.59113E-13-2.64885E-13
 -1      2659 2.09606E+01-3.09593E-02 2.38899E-03-1.24077E+00-1.45273E-13-2.30124E-13
 -1      2660 2.15198E+01-1.91203E-01 4.16168E-03-1.25227E+00-1.56837E-13-2.71468E-13
 -1      2661 2.08511E+01 1.26219E-01-6.79989E-03-1.25616E+00-1.47052E-13-2.13923E-13
 -1      2662 2.07233E+01 3.28521E-01 8.80257E-03-1.20115E+00-1.51664E-13-2.22656E-13
 -1      2663 2.13920E+01 6.80107E-02 5.19442E-03-1.35320E+00-1.44970E-13-2.56156E-13
 -1      2664 2.05623E+01 5.42068E-01-8.49804E-03-1.09438E+00-1.89060E-13-2.23553E-13
 -1      2665 2.04510E+01 7.64025E-01 1.23856E-02-9.26579E-01-2.04820E-13-2.63321E-13
 -1      2666 2.11519E+01 5.39005E-01 3.45138E-03-1.27382E+00-1.97463E-13-2.38216E-13
 -1      2667 2.02998E+01 9.50663E-01-4.72955E-03-6.72670E-01-2.10018E-13-2.53173E-13
 -1      2668 2.02337E+01 1.09638E+00 1.01522E-02-4.02337E-01-2.12069E-13-2.75415E-13
 -1      2669 2.08681E+01 1.04909E+00-2.51719E-03-9.07853E-01-2.23552E-13-2.56203E-13
 -1      2670 2.01638E+01 1.17025E+00 2.08135E-03-4.70812E-02-2.06627E-13-2.79696E-13
 -1      2671 2.01625E+01 1.16745E+00 2.13469E-03 2.64299E-01-1.94228E-13-2.50097E-13
 -1      2672 2.06657E+01 1.38422E+00-7.50203E-03-2.71803E-01-2.04268E-13-2.18070E-13
 -1      2673 2.02110E+01 1.08758E+00 9.71444E-03 6.16768E-01-1.98090E-13-2.60854E-13
 -1      2674 2.02724E+01 9.32992E-01-5.46193E-03 8.81340E-01-1.29932E-13-3.18622E-13
 -1      2675 2.06446E+01 1.37526E+00-7.79471E-03 4.76743E-01-1.79611E-13-2.06236E-13
 -1      2676 2.04029E+01 7.34050E-01 1.22957E-02 1.12502E+00-1.06162E-13-3.53745E-13
 -1      2677 2.05037E+01 4.93740E-01-9.86065E-03 1.27721E+00-3.59233E-14-3.97250E-13
 -1      2678 2.08054E+01 1.01689E+00-1.81706E-03 1.09920E+00-1.40409E-13-3.03284E-13
 -1      2679 2.06419E+01 2.56537E-01 9.17375E-03 1.36033E+00-2.52684E-15-4.09003E-13
 -1      2680 2.07482E+01 2.04338E-02-9.46106E-03 1.38322E+00 2.72960E-14-4.26406E-13
 -1      2681 2.10436E+01 4.57505E-01 4.32134E-03 1.42809E+00-4.63046E-14-3.80182E-13
 -1      2682 2.08310E+01-1.77557E-01 3.41355E-03 1.32224E+00 5.45571E-14-4.37612E-13
 -1      2683 2.09151E+01-3.44805E-01-5.62350E-03 1.24243E+00 7.19478E-14-4.20004E-13
 -1      2684 2.12306E+01-9.61056E-02 7.66700E-03 1.43281E+00 4.19410E-14-2.97249E-13
 -1      2685 2.09195E+01-4.63312E-01-1.91414E-03 1.09357E+00 5.00436E-14-4.14517E-13
 -1      2686 2.09681E+01-5.41306E-01-1.31615E-03 9.57153E-01 7.87975E-14-3.78281E-13
 -1      2687 2.12903E+01-4.94072E-01 6.78323E-03 1.19954E+00 6.77139E-14-3.92789E-13
 -1      2688 2.09073E+01-5.79389E-01-5.09337E-03 7.80400E-01 6.80985E-14-3.76360E-13
 -1      2689 2.09210E+01-5.82156E-01 1.87152E-03 6.30420E-01 1.52697E-14-3.36200E-13
 -1      2690 2.12192E+01-6.84783E-01 3.58567E-03 8.55375E-01 5.44136E-14-4.61105E-13
 -1      2691 2.08236E+01-5.61702E-01-5.98337E-03 4.67937E-01-2.92812E-14-3.27804E-13
 -1      2692 2.08108E+01-5.17529E-01 3.57890E-03 3.33387E-01-6.44928E-14-2.99838E-13
 -1      2693 2.10594E+01-6.97991E-01 5.51005E-04 5.06066E-01 2.21522E-14-3.85532E-13
 -1      2694 2.07038E+01-4.65811E-01-5.38231E-03 2.05741E-01-8.95741E-14-2.72051E-13
 -1      2695 2.06751E+01-4.01874E-01 3.99002E-03 1.00544E-01-9.29896E-14-2.77205E-13
 -1      2696 2.08629E+01-5.99184E-01-1.37748E-03 2.13128E-01-4.16263E-14-2.61597E-13
 -1      2697 2.05762E+01-3.40948E-01-4.16702E-03 1.22300E-02-7.09203E-14-2.09809E-13
 -1      2698 2.05401E+01-2.76306E-01 3.58509E-03-6.07203E-02-3.77145E-14-1.40818E-13
 -1      2699 2.06692E+01-4.52004E-01-2.22593E-03-1.29419E-03-4.44235E-14-1.68659E-13
 -1      2700 2.04577E+01-2.19967E-01-2.86294E-03-1.13986E-01-7.91603E-14-1.13952E-13
 -1      2701 2.04202E+01-1.65025E-01 2.83181E-03-1.58138E-01-2.35556E-14-1.88069E-13
 -1      2702 2.05007E+01-3.01610E-01-2.34872E-03-1.39440E-01-6.78762E-14-1.08185E-13
 -1      2703 2.03562E+01-1.19830E-01-1.72503E-03-1.84120E-01 2.43449E-14-1.61372E-13
 -1      2704 2.03208E+01-7.84060E-02 2.02981E-03-2.05650E-01 2.64911E-14-2.01772E-13
 -1      2705 2.03653E+01-1.72857E-01-2.06665E-03-2.14841E-01-3.46490E-14-6.30148E-14
 -1      2706 2.02735E+01-4.59014E-02-8.49808E-04-2.12471E-01 7.68594E-14-2.32059E-13
 -1      2707 2.02418E+01-1.77679E-02 1.33224E-03-2.17949E-01 1.36705E-13-2.01182E-13
 -1      2708 2.02624E+01-7.51701E-02-1.64530E-03-2.44133E-01 3.67656E-14-1.69531E-13
 -1      2709 2.02080E+01 3.26937E-03-2.36203E-04-2.12587E-01 9.50797E-14-1.83915E-13
 -1      2710 2.01807E+01 2.02927E-02 7.93840E-04-2.07784E-01 5.45221E-14-1.21035E-13
 -1      2711 2.01868E+01-8.36301E-03-1.23292E-03-2.42657E-01 1.65872E-13-1.87855E-13
 -1      2712 2.01571E+01 3.22321E-02 1.56851E-04-1.95608E-01-2.94722E-14-2.22505E-13
 -1      2713 2.01341E+01 4.09131E-02 4.13583E-04-1.85045E-01-3.07641E-14-2.46394E-13
 -1      2714 2.01328E+01 3.24397E-02-8.90996E-04-2.22755E-01-6.87167E-14-4.00117E-14
 -1      2715 2.01178E+01 4.62976E-02 3.80656E-04-1.69863E-01 1.49963E-14-1.72231E-13
 -1      2716 2.00989E+01 4.92516E-02 1.65835E-04-1.56785E-01 5.20558E-14-1.73955E-13
 -1      2717 2.00945E+01 5.35885E-02-6.32370E-04-1.93516E-01 4.45078E-14-3.25703E-15
 -1      2718 2.00877E+01 5.03122E-02 4.83598E-04-1.41096E-01 9.29951E-14-8.83777E-14
 -1      2719 2.00723E+01 4.96820E-02 1.79110E-05-1.27644E-01 1.42299E-13-1.22083E-13
 -1      2720 2.00677E+01 6.11496E-02-4.47834E-04-1.61143E-01 1.35586E-13 6.59047E-14
 -1      2721 2.00647E+01 4.81638E-02 5.06032E-04-1.12945E-01 5.82996E-14-1.67581E-13
 -1      2722 2.00524E+01 4.55469E-02-6.04367E-05-1.00404E-01 6.24890E-14-1.43063E-13
 -1      2723 2.00487E+01 6.01328E-02-3.20729E-04-1.29545E-01 1.34061E-13 9.24034E-14
 -1      2724 2.00471E+01 4.27049E-02 4.79118E-04-8.74743E-02 8.03653E-14-2.16116E-13
 -1      2725 2.00375E+01 3.92034E-02-9.36989E-05-7.65044E-02-4.93486E-15-2.16070E-13
 -1      2726 2.00351E+01 5.42988E-02-2.34640E-04-1.00935E-01 4.68338E-14 1.03778E-14
 -1      2727 2.00338E+01 3.58742E-02 4.25509E-04-6.56437E-02-8.80416E-14-1.02838E-13
 -1      2728 2.00263E+01 3.21921E-02-9.99798E-05-5.64890E-02-1.14861E-13-6.76046E-14
 -1      2729 2.00254E+01 4.62608E-02-1.76276E-04-7.63445E-02-8.31186E-14 1.60903E-14
 -1      2730 2.00237E+01 2.88894E-02 3.60737E-04-4.76952E-02-1.04288E-13-6.58633E-14
 -1      2731 2.00181E+01 2.54356E-02-9.17562E-05-4.03392E-02-8.71253E-15-7.27817E-14
 -1      2732 2.00183E+01 3.77016E-02-1.35918E-04-5.60382E-02-8.67398E-14 5.49965E-14
 -1      2733 2.00162E+01 2.24420E-02 2.94744E-04-3.34405E-02 2.54492E-14-2.07534E-14
 -1      2734 2.00120E+01 1.94220E-02-7.70486E-05-2.77210E-02 7.32561E-14-4.73280E-14
 -1      2735 2.00131E+01 2.96103E-02-1.06974E-04-3.98172E-02 4.13106E-14 2.16454E-13
 -1      2736 2.00106E+01 1.68653E-02 2.33334E-04-2.24642E-02 1.60720E-13-5.57519E-14
 -1      2737 2.00076E+01 1.43530E-02-6.06521E-05-1.81516E-02 2.32962E-13-3.08839E-14
 -1      2738 2.00092E+01 2.24934E-02-8.52396E-05-2.72368E-02 1.38437E-13 1.97680E-13
 -1      2739 2.00066E+01 1.22642E-02 1.79450E-04-1.42585E-02 1.79789E-13-4.24346E-14
 -1      2740 2.00045E+01 1.02550E-02-4.52033E-05-1.11046E-02 6.84473E-14-1.42815E-14
 -1      2741 2.00064E+01 1.65434E-02-6.82321E-05-1.77494E-02 1.56895E-13 2.09948E-13
 -1      2742 2.00037E+01 8.60922E-03 1.34176E-04-8.30609E-03 4.35835E-14-3.60463E-14
 -1      2743 2.00023E+01 7.05539E-03-3.19529E-05-6.07368E-03 1.53089E-13-3.62290E-14
 -1      2744 2.00042E+01 1.17627E-02-5.45217E-05-1.07937E-02 6.73906E-14-6.02355E-14
 -1      2745 2.00017E+01 5.79958E-03 9.74377E-05-4.12807E-03 3.52061E-13 2.82659E-14
 -1      2746 2.00008E+01 4.63468E-03-2.12969E-05-2.60652E-03 3.42383E-13 8.96800E-14
 -1      2747 2.00027E+01 8.04890E-03-4.32675E-05-5.84604E-03 2.40412E-13 4.81327E-14
 -1      2748 2.00004E+01 3.70516E-03 6.84998E-05-1.30747E-03 1.08524E-13-1.71803E-14
 -1      2749 1.99998E+01 2.85837E-03-1.31426E-05-3.18681E-04-2.80977E-14 8.89042E-14
 -1      2750 2.00016E+01 5.25144E-03-3.39485E-05-2.44734E-03 1.50762E-13-2.41889E-13
 -1      2751 1.99996E+01 2.19152E-03 4.63156E-05 5.03323E-04-1.74204E-13 2.25596E-14
 -1      2752 1.99993E+01 1.59600E-03-7.17522E-06 1.10423E-03-2.27705E-13-3.56155E-14
 -1      2753 2.00008E+01 3.20723E-03-2.62435E-05-2.12129E-04-1.59574E-13-2.34973E-13
 -1      2754 1.99991E+01 1.13380E-03 2.97564E-05 1.58418E-03-1.95745E-13-3.67832E-14
 -1      2755 1.99990E+01 7.30672E-04-3.01053E-06 1.91135E-03-5.66951E-14-1.26938E-14
 -1      2756 2.00002E+01 1.76069E-03-1.99304E-05 1.17241E-03-1.93936E-13-1.64536E-13
 -1      2757 1.99988E+01 4.23072E-04 1.77404E-05 2.15376E-03-2.66867E-14-3.49853E-14
 -1      2758 1.99988E+01 1.62694E-04-2.71882E-07 2.29446E-03-2.39306E-14-1.54911E-14
 -1      2759 1.99999E+01 7.73780E-04-1.48211E-05 1.95283E-03-9.52296E-14-8.95896E-14
 -1      2760 1.99988E+01-3.18686E-05 9.29876E-06 2.37798E-03-2.13373E-14-3.00350E-14
 -1      2761 1.99988E+01-1.90030E-04 1.37195E-06 2.39692E-03-4.85460E-14 2.85874E-14
 -1      2762 1.99997E+01 1.29482E-04-1.07451E-05 2.31811E-03-4.82979E-14-3.15750E-13
 -1      2763 1.99988E+01-3.05194E-04 3.60647E-06 2.37895E-03-9.01662E-14-5.69510E-14
 -1      2764 1.99989E+01-3.93574E-04 2.19036E-06 2.32239E-03-1.20049E-14-1.83849E-13
 -1      2765 1.99995E+01-2.68217E-04-7.55081E-06 2.40900E-03-1.33872E-13-3.27653E-13
 -1      2766 1.99989E+01-4.56158E-04-9.49923E-09 2.24324E-03 1.43005E-13-2.15484E-13
 -1      2767 1.99990E+01-5.00445E-04 2.39250E-06 2.14272E-03 2.82170E-13-2.41906E-13
 -1      2768 1.99995E+01-4.96439E-04-5.11244E-06 2.32695E-03 7.10199E-14-2.84516E-13
 -1      2769 1.99990E+01-5.31721E-04-2.07816E-06 2.02924E-03 3.06853E-13-2.96224E-13
 -1      2770 1.99991E+01-5.52212E-04 2.15663E-06 1.90470E-03 1.44420E-13-1.30999E-13
 -1      2771 1.99995E+01-6.16370E-04-3.31779E-06 2.14211E-03 3.59243E-13-2.63932E-13
 -1      2772 1.99991E+01-5.69271E-04-3.11641E-06 1.77328E-03-2.01283E-14-2.01094E-13
 -1      2773 1.99993E+01-5.81546E-04 1.51005E-06 1.63550E-03-1.09306E-13-2.41659E-13
 -1      2774 1.99995E+01-6.76299E-04-2.11855E-06 1.89995E-03 3.63613E-16-3.72196E-13
 -1      2775 1.99993E+01-5.97107E-04-3.13083E-06 1.49505E-03-8.05937E-14-9.74732E-14
 -1      2776 1.99994E+01-6.13226E-04 1.96281E-07 1.34864E-03 3.14954E-14-1.26141E-13
 -1      2777 1.99995E+01-7.12950E-04-7.96955E-07 1.62681E-03-6.42931E-15-4.22328E-13
 -1      2778 3.00067E+01 2.04088E+00-2.16511E-01-1.46057E+00-6.53616E-13 2.20213E-13
 -1      2779 3.01345E+01 1.76884E-01-5.95131E-02-6.20156E-01-4.94799E-13 2.64233E-13
 -1      2780 2.10456E+01-2.58705E+00 8.20903E-02-4.54364E+00-4.02553E-13-1.60434E-13
 -1      2781 2.00661E+01-9.97445E-01 1.11521E-01-4.45322E+00-2.71314E-13-1.15935E-13
 -1      2782 2.61787E+01-4.29630E+00-1.19646E-01 3.74555E+00 7.23727E-14 1.55181E-13
 -1      2783 2.33910E+01-4.42320E+00 1.36155E-01 5.31583E+00 3.18925E-13 4.62755E-14
 -1      2784 1.99010E+01 1.10140E+00-1.18229E-02 2.83168E+00-4.61215E-14 5.70544E-14
 -1      2785 2.00523E+01 9.83899E-01 1.89068E-02 3.13153E+00-1.52590E-13 3.16242E-14
 -1      2786 2.01196E+01 1.06779E+00-1.32768E-02 2.18171E+00-2.74727E-14-2.35005E-14
 -1      2787 2.02181E+01 1.12297E+00 1.26471E-02 2.48374E+00-1.63294E-14-2.18167E-14
 -1      2788 1.89214E+01 1.39808E+00 1.93051E-02 2.56251E+00 1.65923E-14-6.57280E-14
 -1      2789 2.02595E+01 8.87370E-01-1.02951E-02 1.66919E+00 1.50094E-14-1.05880E-14
 -1      2790 2.03466E+01 9.90330E-01 9.95133E-03 1.91789E+00-1.44758E-14-5.08726E-14
 -1      2791 1.94406E+01 1.27993E+00 1.53559E-02 1.98870E+00 2.20993E-15-1.37632E-13
 -1      2792 2.03187E+01 6.86612E-01-7.49262E-03 1.25809E+00-1.71569E-13-1.09397E-14
 -1      2793 2.04048E+01 7.90231E-01 8.74565E-03 1.45889E+00-9.82218E-14-2.87444E-14
 -1      2794 1.97760E+01 1.04438E+00 1.10338E-02 1.53764E+00-7.58933E-14-7.89349E-14
 -1      2795 2.03219E+01 5.11360E-01-5.18603E-03 9.37532E-01-1.68528E-13-3.24401E-14
 -1      2796 2.04031E+01 5.98346E-01 7.45196E-03 1.09315E+00-1.52402E-13-1.26866E-14
 -1      2797 1.99743E+01 8.03517E-01 7.23550E-03 1.17517E+00-1.53266E-13-7.90391E-14
 -1      2798 2.02928E+01 3.73159E-01-3.48860E-03 6.92645E-01-7.40037E-14-6.27421E-14
 -1      2799 2.03650E+01 4.40544E-01 6.10875E-03 8.10198E-01-5.79468E-14-6.38810E-14
 -1      2800 2.00770E+01 5.98410E-01 4.35986E-03 8.88523E-01-6.53658E-14-5.72077E-14
 -1      2801 2.02493E+01 2.69533E-01-2.29581E-03 5.08203E-01-1.81101E-13-1.56599E-13
 -1      2802 2.03106E+01 3.19636E-01 4.85094E-03 5.95625E-01-1.54973E-13-7.61245E-14
 -1      2803 2.01197E+01 4.37760E-01 2.40492E-03 6.65497E-01-3.59238E-14-6.79009E-14
 -1      2804 2.02027E+01 1.93828E-01-1.48046E-03 3.70579E-01-2.44450E-14-3.29070E-13
 -1      2805 2.02527E+01 2.30296E-01 3.76369E-03 4.35003E-01-6.17784E-14-2.55689E-13
 -1      2806 2.01279E+01 3.17295E-01 1.18150E-03 4.94348E-01-1.09904E-13-2.41414E-13
 -1      2807 2.01588E+01 1.39079E-01-1.02216E-03 2.68464E-01-4.72700E-14-3.22551E-13
 -1      2808 2.01987E+01 1.65471E-01 2.86729E-03 3.15731E-01-4.10643E-14-3.30022E-13
 -1      2809 2.01183E+01 2.29046E-01 4.75866E-04 3.64381E-01-1.62961E-14-3.53433E-13
 -1      2810 2.01190E+01 9.82242E-02-6.46676E-04 1.89840E-01-4.20265E-14-2.20977E-13
 -1      2811 2.01510E+01 1.17705E-01 2.13551E-03 2.25664E-01-7.89514E-14-3.48550E-13
 -1      2812 2.01007E+01 1.64043E-01 1.92291E-04 2.64543E-01-9.99456E-14-2.35598E-13
 -1      2813 2.00882E+01 7.05873E-02-3.64731E-04 1.35228E-01-3.22122E-13-1.65532E-13
 -1      2814 2.01114E+01 8.39857E-02 1.61077E-03 1.60034E-01-1.46389E-13-2.42288E-13
 -1      2815 2.00809E+01 1.16926E-01-1.39845E-04 1.89985E-01-1.54037E-13-3.05858E-13
 -1      2816 2.00635E+01 5.06111E-02-2.22038E-04 9.51246E-02-1.77441E-13-2.97100E-13
 -1      2817 2.00809E+01 6.02547E-02 1.18987E-03 1.13150E-01-2.02982E-13-2.27590E-13
 -1      2818 2.00628E+01 8.41549E-02-2.19766E-04 1.36152E-01-2.49809E-13-3.65558E-13
 -1      2819 2.00444E+01 3.61530E-02-1.34084E-04 6.58378E-02 1.73395E-13-3.28503E-13
 -1      2820 2.00572E+01 4.31363E-02 8.79579E-04 7.88932E-02-7.60921E-14-3.25377E-13
 -1      2821 2.00472E+01 6.04325E-02-2.35680E-04 9.62668E-02-8.02590E-14-5.54815E-13
 -1      2822 2.00300E+01 2.56594E-02-7.91052E-05 4.45896E-02-2.16720E-14-2.18257E-13
 -1      2823 2.00392E+01 3.07299E-02 6.46671E-04 5.39858E-02 1.43410E-13-2.45296E-13
 -1      2824 2.00344E+01 4.32090E-02-2.20505E-04 6.69080E-02 3.49540E-14-3.34558E-13
 -1      2825 2.00193E+01 1.80292E-02-4.56282E-05 2.93081E-02-2.32873E-13-4.01464E-14
 -1      2826 2.00259E+01 2.17153E-02 4.72005E-04 3.60107E-02-1.40283E-13-9.06229E-14
 -1      2827 2.00243E+01 3.06730E-02-1.91828E-04 4.54683E-02-1.21913E-13-2.12484E-13
 -1      2828 2.00117E+01 1.24705E-02-3.35647E-05 1.84415E-02-4.63669E-13-8.83893E-15
 -1      2829 2.00163E+01 1.51659E-02 3.42825E-04 2.31701E-02-3.82502E-13-3.61008E-14
 -1      2830 2.00165E+01 2.15387E-02-1.59219E-04 2.99693E-02-3.54158E-13-3.32928E-13
 -1      2831 2.00061E+01 8.28752E-03-1.92687E-05 1.05307E-02-1.87231E-13 2.06900E-13
 -1      2832 2.00093E+01 1.02902E-02 2.42761E-04 1.39219E-02-2.87013E-13 1.43031E-13
 -1      2833 2.00107E+01 1.48051E-02-1.12244E-04 1.87071E-02-4.31695E-13-2.17393E-13
 -1      2834 2.00026E+01 5.46345E-03-5.08108E-06 5.43408E-03 1.09445E-13 3.39095E-13
 -1      2835 2.00046E+01 6.83332E-03 1.70863E-04 7.60602E-03 4.64798E-15 3.47952E-13
 -1      2836 2.00064E+01 9.87637E-03-9.97125E-05 1.08283E-02-1.81104E-13 1.76941E-14
 -1      2837 2.00003E+01 3.44696E-03-2.24022E-07 2.04046E-03 1.04695E-13 2.93775E-13
 -1      2838 2.00015E+01 4.41046E-03 1.16131E-04 3.46111E-03 1.38649E-13 3.25569E-13
 -1      2839 2.00035E+01 6.47796E-03-7.60095E-05 5.59920E-03 8.04793E-14 1.83626E-13
 -1      2840 1.99989E+01 2.03495E-03 2.05367E-06-1.27427E-04 1.39650E-13 4.69689E-13
 -1      2841 1.99996E+01 2.70488E-03 7.77848E-05 7.60525E-04 1.58648E-13 3.09778E-13
 -1      2842 2.00015E+01 4.06224E-03-5.69221E-05 2.11464E-03 8.26326E-14 2.39234E-13
 -1      2843 1.99981E+01 1.06794E-03 3.21828E-06-1.43026E-03 6.30477E-14 2.89797E-13
 -1      2844 1.99985E+01 1.52286E-03 5.02193E-05-9.14601E-04 2.23908E-13 4.08841E-13
 -1      2845 2.00002E+01 2.37493E-03-4.17944E-05-1.15098E-04 1.92324E-13 2.41399E-13
 -1      2846 1.99978E+01 4.24989E-04 3.67465E-06-2.13599E-03 1.24580E-13 9.82743E-14
 -1      2847 1.99979E+01 7.23933E-04 3.06459E-05-1.87439E-03 1.70909E-13 2.31739E-13
 -1      2848 1.99995E+01 1.22256E-03-3.00138E-05-1.45783E-03 1.39687E-13-1.64669E-13
 -1      2849 1.99978E+01 1.46936E-05 3.61323E-06-2.44116E-03 1.34130E-13 1.45148E-13
 -1      2850 1.99977E+01 2.02349E-04 1.70217E-05-2.34752E-03 5.74530E-14 6.91709E-14
 -1      2851 1.99990E+01 4.59315E-04-2.10250E-05-2.18720E-03 1.12914E-13-1.61014E-13
 -1      2852 1.99979E+01-2.32703E-04 3.21847E-06-2.48795E-03 2.32496E-13 1.78656E-13
 -1      2853 1.99977E+01-1.21289E-04 7.96818E-06-2.50016E-03 2.94268E-13 2.02612E-13
 -1      2854 1.99988E+01-2.54423E-05-1.43082E-05-2.50441E-03 1.44196E-13 2.07723E-13
 -1      2855 1.99981E+01-3.73021E-04 2.71548E-06-2.36699E-03 1.26364E-13 2.05910E-13
 -1      2856 1.99979E+01-3.12250E-04 2.08712E-06-2.44814E-03 1.05714E-13 5.40941E-14
 -1      2857 1.99988E+01-3.17213E-04-9.03777E-06-2.55235E-03 2.16907E-13-6.39748E-14
 -1      2858 1.99984E+01-4.33843E-04 2.29590E-06-2.15982E-03 1.42546E-14 1.77640E-13
 -1      2859 1.99981E+01-4.08996E-04-1.91861E-06-2.27252E-03 4.97475E-14 2.91262E-13
 -1      2860 1.99988E+01-4.77756E-04-5.57572E-06-2.43193E-03 8.44873E-14 6.98115E-15
 -1      2861 1.99986E+01-4.57403E-04 1.62186E-06-1.90724E-03 2.31032E-13-5.69430E-14
 -1      2862 1.99984E+01-4.49519E-04-3.97712E-06-2.03687E-03 1.84467E-13 3.13714E-14
 -1      2863 1.99989E+01-5.49475E-04-3.05209E-06-2.21950E-03 1.74941E-13-1.68629E-14
 -1      2864 1.99989E+01-4.67212E-04 5.03146E-07-1.63281E-03 5.05881E-13-1.92541E-13
 -1      2865 1.99987E+01-4.63777E-04-4.78855E-06-1.77026E-03 4.18972E-13-1.90546E-13
 -1      2866 1.99991E+01-5.78343E-04-1.36129E-06-1.95828E-03 4.11539E-13-3.64978E-13
 -1      2867 1.99991E+01-4.82190E-04-2.27321E-06-1.34627E-03 2.44097E-13-2.65235E-13
 -1      2868 1.99990E+01-4.74345E-04-5.37488E-06-1.48777E-03 3.80594E-13-2.19655E-13
 -1      2869 1.99992E+01-5.92724E-04 3.67337E-07-1.67317E-03 4.26282E-13-3.64654E-13
 -1      2870 1.99994E+01-5.44887E-04-4.00088E-06-1.09989E-03 1.45914E-13-1.33372E-13
 -1      2871 1.99992E+01-5.28872E-04-6.16362E-06-1.24981E-03 7.99340E-14-6.46023E-14
 -1      2872 1.99994E+01-6.40910E-04 5.46755E-06-1.41749E-03 1.00117E-13-2.30425E-13
 -1      2873 1.99996E+01-7.38012E-04 6.55376E-06-1.19574E-03-8.30169E-15 1.21300E-13
 -1      2874 2.00005E+01-1.67169E-03 3.64980E-06-9.95439E-05 1.74091E-13 8.81904E-14
 -1      2875 2.00005E+01-1.65252E-03 2.27046E-06-2.90266E-04 1.27093E-13-6.65433E-14
 -1      2876 1.99994E+01-6.27328E-04-3.69334E-06 1.24943E-03 9.73704E-14-1.34670E-13
 -1      2877 1.99995E+01-6.38361E-04-8.97503E-07 1.14383E-03 7.93339E-14-1.66416E-13
 -1      2878 1.99996E+01-7.42338E-04 3.56404E-07 1.38225E-03 4.55557E-14-3.68053E-13
 -1      2879 2.00003E+01-1.47156E-03 5.86461E-06-8.42393E-04 1.07291E-13 3.26504E-13
 -1      2880 2.00002E+01-1.37736E-03-1.49104E-06-9.72273E-04 1.68795E-13-1.87173E-15
 -1      2881 2.00005E+01-1.64693E-03 2.09649E-06 3.07767E-04 1.99185E-14-1.35711E-13
 -1      2882 2.00005E+01-1.66915E-03 3.77084E-06 1.17893E-04 1.53681E-13 8.15406E-14
 -1      2883 2.00007E+01-1.61595E-03-4.20540E-06 1.09875E-05 1.87683E-13 4.59321E-14
 -1      2884 2.00005E+01-1.61215E-03 4.94972E-06-4.97441E-04-2.79625E-14-4.95270E-14
 -1      2885 2.00004E+01-1.55318E-03 3.94389E-07-6.67960E-04 2.72429E-14 3.19669E-13
 -1      2886 2.00005E+01-1.46846E-03-3.87160E-06-8.25467E-04-4.09263E-14 2.60709E-13
 -1      2887 2.00007E+01-1.58115E-03-4.13684E-06-4.29146E-04 1.38061E-13 4.46133E-14
 -1      2888 2.00201E+01 4.15931E-02 5.76140E-02-3.85888E+00-1.34164E-13-8.16933E-14
 -1      2889 1.96786E+01 8.09958E-01 3.71016E-02-3.52247E+00-1.33296E-14-4.92141E-14
 -1      2890 1.80354E+01 1.43196E+00 1.67224E-02-3.16388E+00 6.90541E-14-1.98570E-13
 -1      2891 7.68218E+00-1.01481E+00 1.79992E-01-4.58915E+00 3.86274E-13 9.20208E-13
 -1      2892 9.32922E+00-1.84077E+00 9.27745E-02-6.07548E+00 4.25382E-13 8.10269E-13
 -1      2893 2.00004E+01-1.54309E-03 2.16734E-07 6.75237E-04 4.64144E-14-3.00383E-13
 -1      2894 2.00005E+01-1.60300E-03 4.93645E-06 5.09583E-04 5.83037E-14-1.82788E-13
 -1      2895 2.00007E+01-1.57251E-03-4.12310E-06 4.45407E-04 8.57023E-14-2.19803E-13
 -1      2896 2.00002E+01-1.36413E-03-1.62427E-06 9.74681E-04 1.10830E-13-1.35878E-13
 -1      2897 2.00003E+01-1.45919E-03 5.78653E-06 8.46938E-04 3.37508E-14-1.46524E-14
 -1      2898 2.00005E+01-1.45414E-03-3.67406E-06 8.33095E-04 1.69821E-13-1.95351E-13
 -1      2899 2.00000E+01-1.12222E-03-1.50097E-06 1.15990E-03 1.15979E-13-1.80486E-13
 -1      2900 2.00001E+01-1.24652E-03 5.43705E-06 1.09288E-03 2.66359E-13-1.11834E-13
 -1      2901 2.00003E+01-1.26652E-03-2.32339E-06 1.13483E-03 1.74993E-13-1.88346E-14
 -1      2902 2.90600E+01-5.00000E+00-8.31315E-02 9.71489E-01 5.84671E-14-6.62442E-13
 -1      2903 2.67730E+01-5.39479E+00 1.37741E-01 2.88405E+00-2.01311E-13-5.08420E-13
 -1      2904 2.12437E+01 1.22819E+00-9.44452E-03-1.43197E+00-3.03991E-13-4.62046E-13
 -1      2905 2.12185E+01 8.08314E-01-1.42666E-02-1.24530E+00-2.84345E-13-4.14685E-13
 -1      2906 6.16655E+00-1.25224E-01 1.73827E-01-1.90299E-01-1.37217E-15 1.08058E-12
 -1      2907 6.52409E+00-2.65560E-01 1.50660E-01-2.70621E+00 2.08347E-13 9.57956E-13
 -1      2908 2.88719E+01 6.28357E+00-2.00118E-01-1.40092E+00-7.81597E-13-7.30249E-14
 -1      2909 2.97386E+01 4.54965E+00-9.34238E-02-1.88344E+00-7.41213E-13 3.74284E-14
 -1      2910 6.32984E+00 1.83123E-01 1.65948E-01-6.11820E-01 1.21344E-13-1.09399E-12
 -1      2911 7.67330E+00-3.05078E-01 1.34999E-01-2.78375E+00 5.41234E-15-1.00261E-12
 -1      2912 1.97432E+01 7.27652E-01 9.01486E-03 3.53068E+00-2.88945E-13 6.32142E-14
 -1      2913 2.00656E+01 2.29116E-01 3.79793E-02 3.78458E+00-4.05483E-13 2.87860E-14
 -1      2914 1.82631E+01 1.11794E+00 1.70583E-02 3.28259E+00-2.04651E-13 1.91486E-13
 -1      2915 1.99918E+01-4.92403E-01 7.45715E-02 4.23960E+00-5.61055E-13-7.17724E-14
 -1      2916 2.06874E+01-1.68976E+00 5.69345E-02 4.33497E+00-5.92991E-13-1.43448E-13
 -1      2917 1.76649E+01 1.69208E-02-1.00597E-03 4.17574E+00-5.29111E-13 8.26526E-14
 -1      2918 2.09430E+01 2.02074E+00-3.62523E-03-1.40115E+00-2.30172E-13-5.74211E-13
 -1      2919 1.99996E+01-7.71971E-04-1.08426E-06 1.17702E-03 7.93783E-14-2.91305E-13
 -1      2920 1.21212E+01-2.68872E+00 1.81451E-01-6.87591E+00 5.82007E-13 6.70339E-13
 -1      2921 1.55276E+01-3.83018E+00 3.36027E-02-7.38646E+00 6.09804E-13 4.41508E-13
 -1      2922 2.34515E+01-4.31322E+00 1.70341E-01-4.42222E+00-5.25802E-13-1.46690E-13
 -1      2923 2.13384E+01 4.78463E-01 7.88485E-03-1.17417E+00-2.56455E-13-3.66747E-13
 -1      2924 2.12467E+01 2.06223E-01-1.08773E-02-1.07049E+00-2.37327E-13-3.44016E-13
 -1      2925 2.14736E+01 1.53091E-01 3.19354E-03-1.07923E+00-2.34176E-13-3.32513E-13
 -1      2926 2.13504E+01 7.14206E-01-1.33549E-03-1.16839E+00-2.41728E-13-4.02635E-13
 -1      2927 1.64978E+01 3.97295E+00-2.11805E-02 1.32283E+00 5.22987E-13-4.93175E-13
 -1      2928 1.66055E+01 3.90176E+00 1.03423E-02 1.54853E+00 4.94525E-13-5.33780E-13
 -1      2929 1.66249E+01 3.44892E+00 1.31301E-02 1.87609E+00 4.67639E-13-5.31947E-13
 -1      2930 1.63327E+01 3.81776E+00 2.27575E-02 1.12840E+00 4.85254E-13-4.77102E-13
 -1      2931 7.13702E+00-1.75720E-01 8.67431E-02 4.09879E+00 4.38427E-13-9.48019E-13
 -1      2932 6.10859E+00 2.51252E-01 1.78451E-01 1.55354E+00 2.97452E-13-1.08816E-12
 -1      2933 1.63879E+01-2.48921E+00 2.27372E-01-5.52813E+00-3.44030E-13-5.97633E-13
 -1      2934 1.91360E+01-3.45278E+00 2.48942E-02-5.31459E+00-3.92492E-13-4.04315E-13
 -1      2935 2.95076E+01-1.59903E+00-1.42297E-01 5.63153E-01-3.26069E-13 2.09360E-13
 -1      2936 2.82820E+01-2.93432E+00 2.07668E-02 1.75544E+00-1.12257E-13 2.26652E-13
 -1      2937 2.88706E+01-9.09001E-01-3.35152E-02-5.29914E-01-2.83835E-13 2.61124E-13
 -1      2938 9.90328E+00-7.33265E-01 2.29424E-01-4.06024E+00-1.26371E-13-9.40054E-13
 -1      2939 1.31726E+01-1.98165E+00 1.01734E-01-5.24777E+00-2.44665E-13-7.83179E-13
 -1      2940 1.49014E+01-8.81018E-01 1.14502E-01-4.80226E+00-2.17666E-13-6.01921E-13
 -1      2941 1.03125E+01 3.43745E-01 1.64588E-01-3.07723E+00-8.09075E-15-8.80296E-13
 -1      2942 1.26680E+01-2.32807E+00 4.26784E-02 7.15713E+00 5.53502E-13-5.42538E-13
 -1      2943 9.88746E+00-1.02860E+00 1.98783E-01 5.91650E+00 5.69031E-13-7.51177E-13
 -1      2944 2.04469E+01 1.80970E+00 2.68655E-04 1.32467E-01 1.05978E-13-5.94474E-13
 -1      2945 2.06785E+01 1.69939E+00-7.92640E-03-1.99803E-01 3.30078E-14-5.83677E-13
 -1      2946 2.96000E+01 1.31319E+00-5.50651E-02 1.33199E+00-2.92474E-13-8.79546E-13
 -1      2947 2.98382E+01 3.44434E+00-2.05318E-01 1.67943E+00-4.52804E-13-7.72077E-13
 -1      2948 1.93230E+01-4.27723E+00-7.75150E-02 6.92520E+00 4.33528E-13-1.48492E-13
 -1      2949 1.61009E+01-3.27826E+00 1.70675E-01 7.22170E+00 5.35821E-13-3.56319E-13
 -1      2950 2.83694E+01-2.71867E+00 2.37780E-02-9.31159E-01 2.05287E-13-7.56964E-13
 -1      2951 2.89793E+01-1.36946E+00-1.89830E-01 2.30599E-01-7.45896E-14-8.78075E-13
 -1      2952 2.93941E+01 5.24933E+00-1.44926E-01 1.71931E+00-5.71071E-13-6.93848E-13
 -1      2953 2.88219E+01 6.59616E+00-1.99752E-01 1.09434E+00-6.94167E-13-5.53897E-13
 -1      2954 2.71091E+01 5.94618E+00-1.03229E-01 8.60281E-01-5.59108E-13-5.33990E-13
 -1      2955 2.40535E+01-4.71576E+00 2.93946E-02 3.82522E+00-4.65850E-13-3.95673E-13
 -1      2956 2.30599E+01-5.28740E+00-2.32557E-02 4.44810E+00-3.71619E-13-2.88339E-13
 -1      2957 1.95223E+01-4.41778E+00 2.15728E-01 5.46959E+00-6.19421E-13-6.48093E-15
 -1      2958 2.08607E+01 1.64343E+00 2.04165E-03-5.34802E-01-1.82073E-14-5.69343E-13
 -1      2959 2.09814E+01 1.54865E+00-1.34328E-02-8.21526E-01-1.00242E-13-5.70611E-13
 -1      2960 2.10461E+01 1.18391E+00 9.55189E-04-2.96288E-01-4.23106E-15-5.15561E-13
 -1      2961 1.87748E+01 2.12486E+00-1.18384E-02 1.83423E+00 3.44122E-13-5.38251E-13
 -1      2962 1.88649E+01 2.47244E+00-1.08129E-02 1.47427E+00 3.26944E-13-5.69178E-13
 -1      2963 1.93609E+01 2.27844E+00 8.64901E-03 1.20597E+00 2.70581E-13-5.81905E-13
 -1      2964 1.91936E+01 2.91529E+00 2.14323E-04-7.17112E-01 4.35334E-13-1.03183E-13
 -1      2965 8.06127E+00 1.04448E+00 2.03391E-01 5.05751E-01 2.48133E-13-9.95065E-13
 -1      2966 3.13654E+01-3.73825E+00 9.36824E-02-1.42007E+00 2.93568E-13-8.30072E-13
 -1      2967 2.00003E+01-1.28521E-03-2.99102E-06-1.13248E-03 2.11634E-13-9.39775E-14
 -1      2968 2.00001E+01-1.26090E-03 6.07314E-06-1.09277E-03 2.39399E-13-1.48218E-13
 -1      2969 2.00000E+01-1.13842E-03-2.29427E-06-1.16321E-03 1.84608E-13-1.36131E-13
 -1      2970 2.86714E+01 2.80416E+00-9.72456E-02-1.84600E+00-5.56388E-13 8.64447E-14
 -1      2971 1.74123E+01-2.82070E-01-6.48340E-03-4.41910E+00-1.69365E-13-3.16004E-13
 -1      2972 2.48780E+01-4.78279E+00 1.04603E-01-4.45368E+00 6.25451E-13-2.12913E-13
 -1      2973 2.65465E+01-4.26907E+00-1.37997E-01-2.87144E+00 4.20178E-13-5.26454E-13
 -1      2974 2.19094E+01-3.91657E+00 7.88391E-02 5.50752E+00 4.34278E-13-3.42330E-14
 -1      2975 2.25738E+01-3.09208E+00 1.63240E-01 4.30531E+00-6.33299E-13-2.61034E-13
 -1      2976 1.73451E+01-3.51394E+00 8.92118E-02-6.69077E+00 7.00856E-13 2.09187E-13
 -1      2977 1.86762E+01-4.36352E+00 1.66157E-01-6.92017E+00 6.58584E-13 2.25556E-13
 -1      2978 2.68958E+01-3.49239E+00 8.37638E-03-1.56108E+00 3.53148E-13-6.63788E-13
 -1      2979 1.99999E+01-1.01656E-03 5.81487E-06-1.20766E-03 1.60793E-13 1.44825E-13
 -1      2980 1.99997E+01-8.76051E-04-3.17714E-06-1.20801E-03 5.67035E-14 1.38958E-13
 -1      2981 1.99997E+01-8.26645E-04-5.72180E-06-1.33158E-03 1.05276E-13 5.99738E-14
 -1      2982 2.00000E+01-1.06442E-03-3.56685E-06-1.30173E-03 2.36734E-13-9.41555E-14
 -1      2983 8.63756E+00 4.50871E-02 1.86284E-01-3.28369E+00 2.68181E-13 8.49681E-13
 -1      2984 1.99998E+01-9.18322E-04 4.08857E-07 1.18090E-03 4.60975E-14-1.86899E-13
 -1      2985 2.82031E+01 3.80581E+00-9.91511E-02 1.88634E+00-3.95087E-13-7.18890E-13
 -1      2986 1.88725E+01-2.48283E+00 1.25421E-02 4.98335E+00-6.62470E-13-6.72379E-14
 -1      2987 2.72687E+01 5.82795E+00-1.23541E-01-9.84933E-01-6.35492E-13-2.04404E-13
 -1      2988 1.99997E+01-8.51729E-04 9.15971E-07 1.34181E-03 8.26086E-15-4.34153E-13
 -1      2989 1.99999E+01-1.01561E-03 9.79887E-07 1.24119E-03 1.10678E-13-2.06141E-13
 -1      2990 2.00000E+01-1.04709E-03-1.51440E-06 1.32854E-03 2.33040E-13-2.64966E-13
 -1      2991 1.99997E+01-8.38644E-04-1.95299E-06 1.44304E-03 1.09007E-13-4.99652E-13
 -1      2992 1.84547E+01 2.93188E+00 1.44658E-02-9.08928E-01 3.87179E-13-1.86841E-13
 -1      2993 2.10801E+01 1.53563E+00 1.33854E-03-1.16649E+00-1.77409E-13-5.32126E-13
 -1      2994 1.97863E+01 2.06633E+00-3.35821E-03 8.46569E-01 2.20455E-13-5.69175E-13
 -1      2995 2.01526E+01 1.91927E+00-1.85350E-04 5.14184E-01 1.59880E-13-5.97196E-13
 -1      2996 2.05923E+01 1.33782E+00-6.98261E-03 4.26191E-01 1.20122E-13-5.46116E-13
 -1      2997 1.98346E+01 1.62959E+00-1.23635E-02 1.19456E+00 2.35156E-13-5.42373E-13
 -1      2998 2.69322E+01-3.46543E+00 1.88182E-02 2.17609E+00 8.18547E-14 1.69018E-13
 -1      2999 2.84706E+01-5.86888E-02-5.79469E-02 1.16463E+00-1.00316E-13-8.17221E-13
 -1      3000 1.22120E+01-1.75885E+00 1.56194E-01-6.14079E+00 6.03781E-13 6.24334E-13
 -1      3001 1.54915E+01-2.10803E+00 1.47330E-01 6.63262E+00 6.01255E-13-4.26811E-13
 -1      3002 2.15259E+01-4.92502E+00-4.63667E-02-6.15411E+00 5.98577E-13 6.75536E-14
 -1      3003 1.55536E+01-3.60177E+00 1.69068E-02 5.80690E+00-6.20864E-13 1.27898E-13
 -1      3004 1.12829E+01-2.52334E+00 1.90195E-01 5.14042E+00-5.41497E-13 5.80619E-13
 -1      3005 1.22343E+01-1.12311E+00 1.62154E-01 4.43487E+00-6.26582E-13 4.99309E-13
 -1      3006 1.74235E+01-3.18973E+00 7.67469E-02 5.38145E+00-6.60458E-13 3.05034E-14
 -1      3007 9.10954E+00 1.68749E+00 9.15490E-02 1.50666E+00 3.49436E-13-8.80129E-13
 -1      3008 9.42737E+00 1.63896E+00 1.08997E-01-6.24666E-01 2.11511E-13-8.69624E-13
 -1      3009 1.67060E+01 3.35409E+00-9.61306E-03-3.25487E-01 4.01850E-13-3.72536E-13
 -1      3010 1.60531E+01 3.56681E+00-1.14419E-02 1.95247E-01 4.27667E-13-4.36683E-13
 -1      3011 8.60725E+00 3.83945E-01 1.80993E-01 1.18044E+00-2.64969E-13 7.79488E-13
 -1      3012 9.39902E+00 8.64331E-01 1.03582E-01-2.19406E+00 1.67932E-13 7.10654E-13
 -1      3013 1.03357E+01 7.70399E-02 8.27316E-02-4.11849E+00 3.55493E-13 6.77153E-13
 -1      3014 2.19345E+01-3.33483E-01 1.90907E-03-1.20036E+00-1.41346E-13-2.44645E-13
 -1      3015 2.18960E+01-2.71887E-01-4.11526E-03-1.27652E+00-1.35179E-13-2.49954E-13
 -1      3016 2.19116E+01-1.18366E-01-7.10845E-03-1.39722E+00-1.35566E-13-2.14743E-13
 -1      3017 2.18287E+01 1.24717E-01 3.25456E-03-1.42445E+00-1.59598E-13-2.21259E-13
 -1      3018 2.23578E+01-2.32030E-01 9.08832E-03-1.35930E+00-1.32871E-13-2.15124E-13
 -1      3019 2.17228E+01 4.25768E-01-1.41620E-02-1.43941E+00-1.88834E-13-2.12519E-13
 -1      3020 2.16117E+01 7.83866E-01 1.15316E-02-1.34423E+00-2.20811E-13-2.21272E-13
 -1      3021 2.22996E+01 3.07561E-01 5.72898E-03-1.52452E+00-1.72069E-13-1.65432E-13
 -1      3022 2.14206E+01 1.13764E+00-1.47634E-02-1.16194E+00-2.11829E-13-2.12364E-13
 -1      3023 2.13229E+01 1.46564E+00 1.46684E-02-9.02945E-01-2.10100E-13-1.99503E-13
 -1      3024 2.20498E+01 1.12404E+00 4.20083E-03-1.38919E+00-2.19991E-13-1.76740E-13
 -1      3025 2.11673E+01 1.69794E+00-7.48152E-03-5.18058E-01-2.20850E-13-2.00961E-13
 -1      3026 2.11195E+01 1.83520E+00 5.21743E-03-1.48746E-01-2.26843E-13-1.84185E-13
 -1      3027 2.17416E+01 1.86114E+00-3.34766E-03-8.13285E-01-2.04422E-13-1.67169E-13
 -1      3028 2.11000E+01 1.82982E+00 4.02887E-03 3.30397E-01-2.56599E-13-2.19325E-13
 -1      3029 2.11246E+01 1.68215E+00-9.04418E-03 6.96277E-01-2.16567E-13-2.68207E-13
 -1      3030 2.15805E+01 2.13401E+00-2.62885E-03 7.80765E-02-2.45956E-13-2.19733E-13
 -1      3031 2.12527E+01 1.43367E+00 1.50476E-02 1.07840E+00-1.86387E-13-2.66176E-13
 -1      3032 2.13263E+01 1.08134E+00-1.59319E-02 1.32311E+00-1.22856E-13-3.17067E-13
 -1      3033 2.16751E+01 1.83263E+00-1.32574E-03 9.68811E-01-2.03464E-13-2.54254E-13
 -1      3034 2.14876E+01 7.01887E-01 1.25522E-02 1.48744E+00-5.91246E-14-3.25631E-13
 -1      3035 2.15679E+01 3.02265E-01-1.66032E-02 1.55616E+00-7.51981E-15-3.26466E-13
 -1      3036 2.19226E+01 1.03568E+00 4.08182E-03 1.51540E+00-7.18674E-14-2.52396E-13
 -1      3037 2.16545E+01-5.15054E-02 5.92050E-03 1.50506E+00 1.03750E-15-3.42167E-13
 -1      3038 2.17001E+01-3.62983E-01-9.41161E-03 1.42422E+00 4.89918E-14-3.10462E-13
 -1      3039 2.21185E+01 1.30863E-01 1.02860E-02 1.60186E+00-8.17380E-16-3.02667E-13
 -1      3040 2.16629E+01-5.96097E-01-1.21638E-03 1.23878E+00 2.39015E-14-3.44454E-13
 -1      3041 2.16561E+01-7.61528E-01-1.61861E-03 1.07506E+00 4.85697E-14-3.91270E-13
 -1      3042 2.21209E+01-5.79956E-01 1.00082E-02 1.32525E+00 2.85885E-14-4.29763E-13
 -1      3043 2.15176E+01-8.56367E-01-5.57547E-03 8.50102E-01 4.85105E-14-4.50705E-13
 -1      3044 2.14640E+01-8.89411E-01 3.56685E-03 6.67261E-01 4.14275E-14-4.70781E-13
 -1      3045 2.19175E+01-9.61137E-01 4.23813E-03 8.88246E-01-1.16482E-14-4.03699E-13
 -1      3046 2.12760E+01-8.77776E-01-6.41419E-03 4.66805E-01 7.09383E-14-4.36138E-13
 -1      3047 2.11947E+01-8.24130E-01 6.21638E-03 3.05533E-01 6.43843E-14-3.70911E-13
 -1      3048 2.15843E+01-1.03856E+00-1.13794E-03 4.54253E-01 5.62719E-14-4.16218E-13
 -1      3049 2.10034E+01-7.52234E-01-5.22741E-03 1.56622E-01 5.55421E-14-2.69237E-13
 -1      3050 2.09140E+01-6.58892E-01 6.65371E-03 3.42024E-02 4.70932E-14-1.83489E-13
 -1      3051 2.12136E+01-9.17763E-01-4.08208E-03 1.09288E-01 1.48682E-13-2.99798E-13
 -1      3052 2.07478E+01-5.65764E-01-3.56083E-03-6.14965E-02 5.63465E-15-1.05474E-13
 -1      3053 2.06642E+01-4.66131E-01 5.75916E-03-1.43450E-01 1.69239E-14-8.17858E-14
 -1      3054 2.08724E+01-7.06604E-01-5.04910E-03-1.24425E-01 9.30532E-14-1.80829E-13
 -1      3055 2.05336E+01-3.76305E-01-2.09717E-03-1.95328E-01-1.85229E-14-2.53690E-14
 -1      3056 2.04629E+01-2.89007E-01 4.40012E-03-2.42625E-01-4.03906E-14-9.09375E-17
 -1      3057 2.05932E+01-4.81634E-01-4.87387E-03-2.60031E-01 4.77614E-14-9.42798E-14
 -1      3058 2.03681E+01-2.14927E-01-9.89101E-04-2.62814E-01-6.10571E-14 1.32150E-14
 -1      3059 2.03122E+01-1.47521E-01 3.05491E-03-2.83923E-01-8.46782E-16-7.29692E-14
 -1      3060 2.03831E+01-2.84611E-01-4.02210E-03-3.21435E-01-3.94420E-14-4.13301E-14
 -1      3061 2.02476E+01-9.28738E-02-2.58705E-04-2.83521E-01 1.04087E-14-9.38946E-14
 -1      3062 2.02052E+01-4.59075E-02 1.93334E-03-2.86653E-01 1.27145E-13-7.68438E-14
 -1      3063 2.02356E+01-1.32594E-01-3.01496E-03-3.32935E-01 1.53784E-14-3.84062E-14
 -1      3064 2.01638E+01-9.47103E-03 1.78273E-04-2.74219E-01 1.93911E-13-1.02330E-13
 -1      3065 2.01326E+01 1.99453E-02 1.09161E-03-2.66170E-01 1.03309E-13-1.09808E-13
 -1      3066 2.01377E+01-2.66623E-02-2.10835E-03-3.14151E-01 1.25062E-13 1.24499E-14
 -1      3067 2.01076E+01 4.15456E-02 4.13082E-04-2.47748E-01-3.37889E-15-4.48283E-14
 -1      3068 2.00850E+01 5.74732E-02 5.09213E-04-2.33639E-01-2.11372E-14 1.00059E-14
 -1      3069 2.00762E+01 3.97633E-02-1.39326E-03-2.79251E-01 1.00232E-13-7.87779E-14
 -1      3070 2.00710E+01 6.81137E-02 5.16951E-04-2.13217E-01 7.32118E-14 8.68589E-14
 -1      3071 2.00547E+01 7.45474E-02 1.37581E-04-1.96632E-01 1.55867E-13 1.78394E-13
 -1      3072 2.00398E+01 7.58347E-02-8.73658E-04-2.37764E-01 9.53807E-14 4.86948E-14
 -1      3073 2.00476E+01 7.77517E-02 5.39846E-04-1.76659E-01 8.85781E-14 8.11102E-14
 -1      3074 2.00358E+01 7.80535E-02-7.84558E-05-1.59924E-01 1.14224E-13 6.35612E-14
 -1      3075 2.00196E+01 9.05158E-02-5.20608E-04-1.95687E-01 1.07382E-13 1.22742E-13
 -1      3076 2.00327E+01 7.66530E-02 5.15249E-04-1.41765E-01 1.41273E-13-4.98637E-15
 -1      3077 2.00241E+01 7.33902E-02-1.87156E-04-1.26259E-01 8.43761E-14 7.08800E-14
 -1      3078 2.00094E+01 9.13498E-02-2.94261E-04-1.56494E-01 9.84758E-14-3.11081E-14
 -1      3079 2.00232E+01 6.94730E-02 4.65040E-04-1.10548E-01-6.10929E-15 7.68042E-14
 -1      3080 2.00169E+01 6.44624E-02-2.26793E-04-9.69753E-02-5.90044E-14 9.26312E-15
 -1      3081 2.00048E+01 8.41007E-02-1.57367E-04-1.21950E-01 2.59590E-14-3.87110E-14
 -1      3082 2.00170E+01 5.94603E-02 4.03331E-04-8.38851E-02-5.76161E-14 2.97743E-15
 -1      3083 2.00123E+01 5.38981E-02-2.25379E-04-7.24977E-02-1.15357E-13 3.78979E-14
 -1      3084 2.00032E+01 7.28567E-02-7.98236E-05-9.27063E-02-5.84810E-14-5.92125E-14
 -1      3085 2.00129E+01 4.87214E-02 3.39113E-04-6.19202E-02-1.89933E-13 6.13286E-14
 -1      3086 2.00093E+01 4.33317E-02-2.02233E-04-5.26890E-02-3.70582E-14 1.11369E-13
 -1      3087 2.00030E+01 6.03180E-02-3.93111E-05-6.87302E-02-9.20701E-14 1.55729E-13
 -1      3088 2.00099E+01 3.85064E-02 2.77822E-04-4.43679E-02 2.29729E-15 1.42793E-13
 -1      3089 2.00072E+01 3.36787E-02-1.69836E-04-3.71046E-02 4.45289E-14 1.99559E-13
 -1      3090 2.00032E+01 4.81274E-02-2.03967E-05-4.96015E-02 6.55469E-14 1.48203E-13
 -1      3091 2.00077E+01 2.94668E-02 2.22432E-04-3.07199E-02 9.98408E-14 2.83131E-13
 -1      3092 2.00057E+01 2.53687E-02-1.35664E-04-2.51604E-02 1.67931E-13 2.53398E-13
 -1      3093 2.00035E+01 3.71756E-02-1.30113E-05-3.47128E-02 1.16365E-13 1.30546E-13
 -1      3094 2.00060E+01 2.18620E-02 1.74260E-04-2.03805E-02 1.43131E-13 2.49640E-13
 -1      3095 2.00045E+01 1.85231E-02-1.03867E-04-1.62385E-02-7.65320E-15 1.19740E-13
 -1      3096 2.00036E+01 2.78519E-02-1.11177E-05-2.33964E-02 8.73056E-14 4.20962E-14
 -1      3097 2.00046E+01 1.57112E-02 1.33621E-04-1.27500E-02-4.53374E-14 8.37665E-14
 -1      3098 2.00035E+01 1.30820E-02-7.64623E-05-9.74963E-03 3.36482E-14 7.41991E-14
 -1      3099 2.00036E+01 2.02333E-02-1.13997E-05-1.49991E-02-1.42731E-14 4.08978E-14
 -1      3100 2.00035E+01 1.08987E-02 1.00221E-04-7.27362E-03 1.02409E-13-4.55588E-14
 -1      3101 2.00027E+01 8.89026E-03-5.41119E-05-5.16677E-03 2.05448E-13-1.08438E-13
 -1      3102 2.00034E+01 1.42157E-02-1.21762E-05-8.92473E-03 1.20169E-14-6.93376E-14
 -1      3103 2.00026E+01 7.24427E-03 7.34076E-05-3.46594E-03 1.61907E-13-2.41694E-13
 -1      3104 2.00020E+01 5.75400E-03-3.66179E-05-2.04037E-03-2.99419E-14-3.08002E-13
 -1      3105 2.00030E+01 9.60370E-03-1.26163E-05-4.65474E-03 1.98279E-14-3.12384E-13
 -1      3106 2.00019E+01 4.54880E-03 5.23379E-05-9.19257E-04-1.68303E-13-3.43285E-13
 -1      3107 2.00015E+01 3.47560E-03-2.33954E-05 9.86091E-08-1.51666E-13-2.81154E-13
 -1      3108 2.00026E+01 6.16882E-03-1.24528E-05-1.75497E-03-1.05611E-13-2.83164E-13
 -1      3109 2.00013E+01 2.62008E-03 3.61321E-05 6.98285E-04-1.72117E-13-3.40082E-13
 -1      3110 2.00011E+01 1.87230E-03-1.37421E-05 1.25158E-03-1.73512E-13-2.92397E-13
 -1      3111 2.00022E+01 3.68443E-03-1.17431E-05 1.28158E-04-1.48451E-13-3.80314E-13
 -1      3112 2.00009E+01 1.28591E-03 2.39462E-05 1.64955E-03-7.30134E-14-1.50734E-13
 -1      3113 2.00007E+01 7.84626E-04-6.95891E-06 1.94588E-03 2.42258E-14-8.50257E-14
 -1      3114 2.00018E+01 1.94408E-03-1.06307E-05 1.27565E-03-2.93783E-14-2.77464E-13
 -1      3115 2.00005E+01 3.99238E-04 1.50076E-05 2.13732E-03-4.02245E-15 5.69350E-14
 -1      3116 2.00004E+01 7.89119E-05-2.40728E-06 2.25935E-03-1.40966E-13-5.66576E-15
 -1      3117 2.00014E+01 7.69260E-04-9.28034E-06 1.90547E-03 2.72612E-14 1.37256E-13
 -1      3118 2.00003E+01-1.61342E-04 8.63987E-06 2.31393E-03-2.05615E-13 1.71906E-15
 -1      3119 2.00002E+01-3.53706E-04 4.58816E-07 2.32244E-03-1.48983E-13-6.51737E-14
 -1      3120 2.00010E+01 1.12223E-05-7.84014E-06 2.18255E-03-3.52512E-14 2.77731E-13
 -1      3121 2.00001E+01-4.93645E-04 4.27157E-06 2.29049E-03-3.91002E-14-5.19781E-14
 -1      3122 2.00001E+01-6.00221E-04 2.06715E-06 2.22866E-03 2.32811E-13 2.22289E-14
 -1      3123 2.00007E+01-4.50702E-04-6.44344E-06 2.22841E-03-4.39390E-14 2.83985E-13
 -1      3124 1.99999E+01-6.75371E-04 1.44723E-06 2.14512E-03 2.55260E-13-8.88468E-14
 -1      3125 1.99999E+01-7.29307E-04 2.84319E-06 2.04214E-03 1.57978E-13-3.06295E-13
 -1      3126 2.00005E+01-7.12803E-04-5.21464E-06 2.12983E-03 1.01896E-13 1.62573E-13
 -1      3127 1.99998E+01-7.67998E-04-2.62143E-07 1.93034E-03-6.70004E-14-3.00221E-13
 -1      3128 1.99999E+01-7.94950E-04 2.57281E-06 1.80420E-03-3.04546E-13-3.68299E-13
 -1      3129 2.00003E+01-8.50591E-04-4.21046E-06 1.94619E-03 9.50147E-15-3.34582E-13
 -1      3130 1.99998E+01-8.06987E-04-1.24638E-06 1.69792E-03-1.31221E-13-4.49936E-13
 -1      3131 1.99998E+01-8.27108E-04 1.51516E-06 1.55739E-03 9.76884E-14-3.98640E-13
 -1      3132 1.99999E+01-9.34954E-04-5.37387E-07 1.51820E-03 4.44652E-14-4.82979E-13
 -1      3133 2.00001E+01-9.10840E-04-3.11520E-06 1.73562E-03-8.62244E-14-2.19159E-13
 -1      3134 2.28168E+01-4.52506E+00 4.39312E-02-4.92965E+00 6.32563E-13-1.93135E-13
 -1      3135 2.31397E+01-3.88944E+00-1.19149E-01 4.36588E+00 3.46750E-13 3.56833E-14
 -1      3136 2.04790E+01-2.96794E+00 1.55617E-01 5.53563E+00 4.99354E-13-1.15927E-13
 -1      3137 2.58109E+01 5.59219E+00-1.01104E-01-6.39034E-01-5.58470E-13-2.39496E-13
 -1      3138 2.65412E+01 4.93668E+00-7.01341E-02-1.65721E+00-5.69614E-13-9.27522E-14
 -1      3139 1.63591E+01-2.41836E+00 1.45261E-01-6.14802E+00 7.09967E-13 2.17229E-13
 -1      3140 1.84987E+01-3.34527E+00-4.19864E-02-5.95542E+00 7.14213E-13 4.37983E-14
 -1      3141 1.80387E+01 1.58316E+00-2.27276E-02 2.00321E+00 1.31873E-13-5.07884E-14
 -1      3142 1.77260E+01 1.62816E+00 6.86284E-03 2.28299E+00 1.28113E-13 4.82333E-14
 -1      3143 1.96387E+01 8.43120E-01-8.86920E-03 9.81791E-01-1.61981E-13-1.77804E-13
 -1      3144 1.95668E+01 9.69084E-01 9.39794E-04 1.12962E+00-1.74696E-13-2.06995E-13
 -1      3145 1.98324E+01 6.32306E-01-6.28394E-03 7.59050E-01-1.43460E-14-1.33482E-13
 -1      3146 1.97999E+01 7.34611E-01 1.54117E-03 8.77494E-01-7.21080E-14-1.15589E-13
 -1      3147 1.94553E+01 9.09643E-01 9.45472E-03 8.37735E-01-9.54810E-14-2.29694E-13
 -1      3148 1.99428E+01 4.67617E-01-4.42015E-03 5.80255E-01-7.65885E-14-1.12336E-13
 -1      3149 1.99338E+01 5.46676E-01 1.80536E-03 6.73380E-01-2.85689E-14-1.20017E-13
 -1      3150 1.96927E+01 6.84680E-01 6.05138E-03 6.63840E-01-5.66945E-14-1.59366E-13
 -1      3151 2.00012E+01 3.43230E-01-3.07342E-03 4.38950E-01-8.01873E-14-2.39026E-13
 -1      3152 2.00049E+01 4.02623E-01 1.80639E-03 5.11062E-01-4.77679E-14-1.19692E-13
 -1      3153 1.98378E+01 5.09021E-01 3.76059E-03 5.18050E-01-3.66355E-14-1.06163E-13
 -1      3154 2.00284E+01 2.50804E-01-2.19800E-03 3.28664E-01-3.19898E-14-1.80158E-13
 -1      3155 2.00380E+01 2.94853E-01 1.62671E-03 3.83900E-01-1.04991E-13-2.76389E-13
 -1      3156 1.99235E+01 3.75811E-01 2.28558E-03 3.98620E-01-5.63421E-14-6.60722E-14
 -1      3157 2.00382E+01 1.80141E-01-1.50909E-03 2.39902E-01-3.02462E-14-1.80881E-13
 -1      3158 2.00500E+01 2.13569E-01 1.38914E-03 2.83399E-01-3.71250E-14-2.13487E-13
 -1      3159 1.99728E+01 2.74393E-01 1.39851E-03 3.00711E-01 1.81936E-16-1.49215E-13
 -1      3160 2.00384E+01 1.31313E-01-9.97156E-04 1.75799E-01-1.57886E-13-2.91288E-13
 -1      3161 2.00495E+01 1.54637E-01 1.16882E-03 2.06946E-01 5.79997E-15-2.54934E-13
 -1      3162 1.99986E+01 1.99473E-01 7.08217E-04 2.23647E-01 9.52061E-14-2.71107E-13
 -1      3163 2.00341E+01 9.54658E-02-6.85921E-04 1.27155E-01-1.64395E-13-4.86756E-13
 -1      3164 2.00439E+01 1.12591E-01 9.46346E-04 1.50462E-01-2.93277E-13-4.50276E-13
 -1      3165 2.00104E+01 1.45926E-01 3.50977E-04 1.65349E-01-8.21946E-14-4.17470E-13
 -1      3166 2.00283E+01 6.91511E-02-4.71368E-04 9.05836E-02-4.33655E-14-5.60938E-13
 -1      3167 2.00365E+01 8.17377E-02 7.48736E-04 1.07912E-01-5.50411E-14-5.54893E-13
 -1      3168 2.00150E+01 1.06447E-01 1.49804E-04 1.20465E-01-5.61316E-14-5.91295E-13
 -1      3169 2.00223E+01 4.97991E-02-3.23276E-04 6.33352E-02-5.43226E-14-2.07080E-13
 -1      3170 2.00289E+01 5.90627E-02 5.82935E-04 7.61170E-02-1.31389E-13-4.14602E-13
 -1      3171 2.00155E+01 7.72978E-02 3.88030E-05 8.63087E-02-9.56888E-14-4.67862E-13
 -1      3172 2.00170E+01 3.55553E-02-2.20937E-04 4.32403E-02-1.67503E-13-2.19766E-13
 -1      3173 2.00221E+01 4.23751E-02 4.47333E-04 5.25797E-02-1.80751E-14-1.64212E-13
 -1      3174 2.00142E+01 5.57568E-02-1.84698E-05 6.06145E-02-7.29255E-14-3.13253E-13
 -1      3175 2.00124E+01 2.50601E-02-1.60616E-04 2.85909E-02-4.36827E-13-2.31443E-13
 -1      3176 2.00163E+01 3.00942E-02 3.38747E-04 3.53436E-02-2.19135E-13-1.78033E-13
 -1      3177 2.00121E+01 3.98424E-02-4.32371E-05 4.15227E-02-1.34529E-13-2.52965E-13
 -1      3178 2.00087E+01 1.70561E-02-1.08560E-04 1.76391E-02-4.54706E-13-2.94310E-13
 -1      3179 2.00116E+01 2.08591E-02 2.50730E-04 2.26158E-02-5.47510E-13-3.23760E-13
 -1      3180 2.00098E+01 2.79096E-02-3.54484E-05 2.72657E-02-4.07793E-13-2.33950E-13
 -1      3181 2.00059E+01 1.15663E-02-6.59228E-05 1.03697E-02-1.85730E-13-3.41155E-13
 -1      3182 2.00079E+01 1.41980E-02 1.84845E-04 1.36628E-02-2.47156E-13-2.19757E-13
 -1      3183 2.00076E+01 1.91094E-02-5.24192E-05 1.70220E-02-4.27393E-13-5.06747E-13
 -1      3184 2.00039E+01 7.59260E-03-4.18459E-05 5.35873E-03-1.03855E-13 4.24898E-15
 -1      3185 2.00053E+01 9.48064E-03 1.32276E-04 7.59975E-03-7.59386E-14-2.24949E-13
 -1      3186 2.00058E+01 1.29205E-02-4.73599E-05 1.00118E-02-2.21483E-13-3.62719E-13
 -1      3187 2.00023E+01 4.76145E-03-2.56928E-05 2.01068E-03 4.50428E-14 6.29074E-14
 -1      3188 2.00033E+01 6.09994E-03 9.36736E-05 3.48805E-03 5.09797E-14 1.20739E-13
 -1      3189 2.00043E+01 8.45255E-03-4.03088E-05 5.17349E-03-1.03202E-13-1.88324E-13
 -1      3190 2.00013E+01 2.77988E-03-1.46337E-05-1.35536E-04 3.16696E-13-1.71093E-15
 -1      3191 2.00019E+01 3.71082E-03 6.47648E-05 7.94488E-04 1.98705E-13 5.32612E-14
 -1      3192 2.00031E+01 5.27231E-03-3.30680E-05 1.93543E-03 1.27595E-13-2.62649E-13
 -1      3193 2.00006E+01 1.42498E-03-7.20325E-06-1.42930E-03 1.73971E-13-1.13946E-13
 -1      3194 2.00009E+01 2.05616E-03 4.33903E-05-8.84087E-04 2.35458E-13 4.79465E-14
 -1      3195 2.00022E+01 3.04964E-03-2.63798E-05-1.42875E-04 2.43903E-13-2.09067E-14
 -1      3196 2.00001E+01 5.27136E-04-2.42469E-06-2.13226E-03 1.58074E-14-7.66103E-14
 -1      3197 2.00003E+01 9.40643E-04 2.78385E-05-1.85107E-03 9.68430E-14-3.05867E-14
 -1      3198 2.00014E+01 1.53346E-03-2.05655E-05-1.39675E-03 2.87521E-14 2.31191E-13
 -1      3199 1.99998E+01-4.40067E-05 2.15701E-07-2.43810E-03 1.54935E-13 3.68714E-14
 -1      3200 1.99999E+01 2.16133E-04 1.69100E-05-2.33176E-03 4.97129E-14-2.71224E-14
 -1      3201 2.00009E+01 5.31945E-04-1.56816E-05-2.07838E-03 2.91182E-15 5.38014E-14
 -1      3202 1.99996E+01-3.96978E-04 1.96377E-06-2.48295E-03 3.15725E-13-1.03471E-13
 -1      3203 1.99996E+01-2.41126E-04 9.21708E-06-2.49240E-03 2.48913E-13-1.93875E-14
 -1      3204 2.00005E+01-1.08679E-04-1.10177E-05-2.37595E-03 2.03092E-13-2.82214E-13
 -1      3205 1.99995E+01-5.75817E-04 3.09855E-06-2.36406E-03-6.55013E-14-3.21778E-15
 -1      3206 1.99995E+01-4.98483E-04 3.86085E-06-2.44119E-03 1.35320E-13-8.08544E-14
 -1      3207 2.00002E+01-4.90844E-04-8.50612E-06-2.41716E-03 2.25352E-13-6.32350E-14
 -1      3208 1.99995E+01-6.62454E-04 3.35145E-06-2.15612E-03 3.05330E-13-2.74848E-13
 -1      3209 1.99994E+01-6.27871E-04 4.89644E-07-2.27095E-03 1.00612E-13-2.63202E-13
 -1      3210 2.00000E+01-6.89048E-04-6.07424E-06-2.30168E-03 1.64656E-13-1.15005E-13
 -1      3211 1.99995E+01-6.99809E-04 2.96803E-06-1.90033E-03 4.48206E-13-3.34406E-13
 -1      3212 1.99994E+01-6.85698E-04-1.27042E-06-2.03462E-03 3.89179E-13-3.31043E-13
 -1      3213 1.99999E+01-7.85038E-04-4.13571E-06-2.09807E-03 4.31729E-13-3.57432E-13
 -1      3214 1.99995E+01-7.24024E-04 7.36918E-07-1.62137E-03 1.73103E-13 1.46058E-13
 -1      3215 1.99995E+01-7.12183E-04-2.23284E-06-1.76422E-03 3.09532E-13-7.01257E-14
 -1      3216 1.99998E+01-8.29277E-04-2.69181E-06-1.84786E-03 2.07076E-13-1.57021E-13
 -1      3217 1.99996E+01-7.92259E-04-1.44983E-06-1.41926E-03 1.99681E-13 2.80890E-14
 -1      3218 1.99995E+01-7.49961E-04-4.10169E-06-1.53337E-03 2.11367E-13 1.17437E-13
 -1      3219 1.99998E+01-8.64241E-04 5.92120E-08-1.61997E-03 1.19730E-13 3.17688E-13
 -1      3220 1.99998E+01-9.09480E-04 5.30554E-06-1.43322E-03 1.08836E-13 9.77412E-14
 -1      3221 1.79558E+01 2.60266E+00-8.82853E-03-1.49149E+00 3.08508E-13-1.97984E-13
 -1      3222 1.72195E+01 3.08516E+00 6.71361E-03-9.44303E-01 3.61207E-13-2.99650E-13
 -1      3223 1.61812E+01 3.05014E+00 1.06398E-03-8.71706E-01 3.26440E-13-3.89123E-13
 -1      3224 1.75840E+01 2.35921E+00 1.71391E-02-2.00693E+00 2.30718E-13-2.26239E-13
 -1      3225 1.72207E+01 2.45080E+00-3.27367E-02 2.48177E+00 4.57158E-13-5.03444E-13
 -1      3226 1.79899E+01 2.19004E+00 3.53118E-02 2.45019E+00 4.10959E-13-5.20397E-13
 -1      3227 2.57472E+01-3.66524E+00 9.45572E-02-1.88512E+00 4.12413E-13-6.15973E-13
 -1      3228 2.66067E+01-2.95482E+00-1.36584E-01-4.20631E-01 2.16042E-13-7.23595E-13
 -1      3229 2.00009E+01-1.56172E-03 1.65666E-06 1.27244E-04 6.09801E-14-9.47442E-14
 -1      3230 2.00009E+01-1.56387E-03 1.89449E-06-1.00197E-04 1.73474E-13 1.49966E-13
 -1      3231 2.00003E+01-1.17851E-03-1.52757E-06 1.28693E-03 1.78821E-13-4.34105E-14
 -1      3232 2.00005E+01-1.27719E-03 5.28635E-06 1.16438E-03 1.78014E-13 1.55795E-14
 -1      3233 2.00008E+01-1.50340E-03-3.31542E-07 5.83715E-04-3.39992E-14-2.50942E-13
 -1      3234 2.00009E+01-1.53897E-03 3.45984E-06 3.72482E-04 4.35549E-14-2.61514E-13
 -1      3235 2.00011E+01-1.51077E-03-3.00987E-06 2.66642E-04-1.09600E-13-2.20959E-13
 -1      3236 1.00454E+01 1.16865E-01 1.83363E-01 4.67371E+00 5.36127E-13-7.86315E-13
 -1      3237 1.69487E+01 1.58493E+00-1.37857E-02 2.56875E+00-2.03145E-14 3.95690E-14
 -1      3238 1.66420E+01 1.36150E+00 2.98744E-02 2.91188E+00-2.59887E-13 1.11492E-13
 -1      3239 1.63530E+01 1.89768E+00 5.38961E-02 1.93488E+00 6.29592E-14 5.76986E-14
 -1      3240 1.52384E+01 4.90168E-01 1.38225E-01-3.95944E+00-1.02571E-13-5.20563E-13
 -1      3241 2.74933E+01 2.64679E+00-3.77153E-02 2.12597E+00-2.74947E-13-7.93123E-13
 -1      3242 2.67873E+01 4.02641E+00-1.29173E-01 1.90494E+00-4.18263E-13-7.30190E-13
 -1      3243 2.00006E+01-1.37429E-03-2.22853E-06 9.87715E-04 1.58952E-13-5.34347E-14
 -1      3244 2.00007E+01-1.44204E-03 4.88189E-06 8.07568E-04 8.53529E-14-1.62126E-13
 -1      3245 2.00010E+01-1.43520E-03-2.96105E-06 7.46350E-04-1.82423E-13-1.26917E-13
 -1      3246 2.00007E+01-1.29295E-03-1.60737E-06 1.15631E-03 8.52839E-14 2.76946E-14
 -1      3247 1.93174E+01 1.09694E+00-1.24396E-02 1.25508E+00-9.26577E-14-7.41131E-14
 -1      3248 1.91860E+01 1.23820E+00 2.62067E-04 1.43580E+00 1.02938E-14-7.08307E-14
 -1      3249 1.90786E+01 1.18379E+00 1.43326E-02 1.04041E+00-5.22834E-14-2.19144E-13
 -1      3250 1.88106E+01 1.36743E+00-1.73119E-02 1.58813E+00-1.49253E-14-1.00584E-13
 -1      3251 1.86025E+01 1.49494E+00 6.10771E-04 1.80537E+00 1.63463E-14-1.66314E-13
 -1      3252 1.84986E+01 1.48951E+00 2.13247E-02 1.27428E+00-3.46616E-14-1.81661E-13
 -1      3253 2.71700E+01 3.36174E+00-1.41087E-01-2.07700E+00-5.30659E-13-1.18655E-14
 -1      3254 2.79566E+01 1.46685E+00-2.23860E-02-1.92561E+00-4.28269E-13 1.51532E-13
 -1      3255 2.18109E+01-1.85262E-01 7.89672E-03-1.02528E+00-1.73845E-13-2.88637E-13
 -1      3256 2.18123E+01-3.05541E-01-8.45425E-03-1.07456E+00-1.49713E-13-2.76302E-13
 -1      3257 2.22072E+01-3.73369E-01 5.97978E-03-1.09803E+00-1.32815E-13-2.39985E-13
 -1      3258 2.80147E+01-3.67791E-01-1.46756E-01-1.19487E+00-3.33459E-13 2.30621E-13
 -1      3259 2.79284E+01-1.52921E+00 1.52281E-02-3.73443E-01-1.65899E-13 2.56267E-13
 -1      3260 2.74752E+01-1.19125E+00 2.88018E-02 9.23586E-01-5.21805E-15-8.57231E-13
 -1      3261 2.75625E+01 6.03459E-01-1.42034E-01 1.69597E+00-1.72459E-13-8.19400E-13
 -1      3262 2.65959E+01 1.12590E+00-4.69641E-02 1.89908E+00-1.62093E-13-8.01220E-13
 -1      3263 1.70288E+01-2.37576E+00-6.54089E-02 6.39311E+00 5.92283E-13-2.82982E-13
 -1      3264 1.46638E+01-9.86789E-01 1.70436E-01 6.08124E+00 6.32605E-13-4.64878E-13
 -1      3265 2.70206E+01-2.93844E+00-1.25450E-01 9.46564E-01-8.38392E-15 1.87017E-13
 -1      3266 2.58107E+01-3.47070E+00 1.04108E-01 2.45530E+00 1.83768E-13 1.33234E-13
 -1      3267 1.60347E+01-1.19137E+00 1.77002E-01 4.91479E+00-6.74412E-13 9.40081E-14
 -1      3268 1.18617E+01-6.10191E-01 1.36484E-01-5.12181E+00 5.56832E-13 5.86933E-13
 -1      3269 1.39933E+01-1.70640E+00 2.87848E-02-5.96942E+00 6.81240E-13 3.36037E-13
 -1      3270 1.57896E+01-1.45649E+00 9.30339E-02-5.36813E+00 6.73891E-13 2.30399E-13
 -1      3271 1.25120E+01 1.58643E-01 1.07965E-01-4.10857E+00 4.68292E-13 4.46615E-13
 -1      3272 2.12576E+01 1.11137E+00 4.50013E-03-9.80319E-01-1.44901E-13-4.87958E-13
 -1      3273 1.62230E+01 1.41248E+00 5.03182E-04-3.13624E+00 4.08250E-14-3.65805E-13
 -1      3274 1.67212E+01 2.01416E+00 1.98413E-03-2.50242E+00 1.50214E-13-2.97620E-13
 -1      3275 1.59487E+01 2.45849E+00 4.50128E-02-1.97435E+00 2.16971E-13-3.63634E-13
 -1      3276 2.60997E+01 4.91495E+00-9.35708E-02 1.46016E+00-4.20344E-13-5.93810E-13
 -1      3277 2.55760E+01 5.46554E+00-8.92980E-02 6.12653E-01-4.53894E-13-4.13125E-13
 -1      3278 1.39919E+01-6.74456E-01 7.03952E-02 4.54252E+00-6.72067E-13 2.50563E-13
 -1      3279 1.21908E+01 2.65907E-01 1.67035E-01 3.62062E+00-6.11469E-13 3.96058E-13
 -1      3280 1.58794E+01-1.66451E-01 8.85029E-02 4.24899E+00-6.37435E-13 1.44648E-13
 -1      3281 1.00463E+01 7.55018E-01 6.38952E-02 2.05434E+00-3.82330E-13 5.40207E-13
 -1      3282 9.22192E+00 1.21252E+00 1.29543E-01-3.55914E-01-9.65616E-14 6.80539E-13
 -1      3283 1.23172E+01 1.09779E+00 1.09455E-01 2.29344E+00-4.18304E-13 3.64465E-13
 -1      3284 2.14589E+01-3.77620E+00 1.38010E-01-5.01409E+00 6.93497E-13-1.08476E-13
 -1      3285 2.35352E+01-4.32351E+00-1.15179E-01-3.75554E+00 6.05266E-13-3.57395E-13
 -1      3286 1.17602E+01 1.01267E-01 4.80267E-03 5.24374E+00 5.94441E-13-6.28775E-13
 -1      3287 9.85539E+00 1.22700E+00 1.38994E-01 3.40931E+00 5.00093E-13-7.82568E-13
 -1      3288 1.87120E+01 1.71462E+00-1.75226E-02 2.25053E+00 3.68143E-13-5.00947E-13
 -1      3289 1.94162E+01 1.46148E+00 2.00906E-02 1.98188E+00 3.24665E-13-5.00141E-13
 -1      3290 1.84715E+01 1.39592E+00-8.35637E-03 2.70851E+00 3.81399E-13-4.72141E-13
 -1      3291 1.53655E+01 3.42478E+00 2.02064E-02 5.40923E-01 4.16581E-13-4.91222E-13
 -1      3292 1.57203E+01 3.62122E+00-9.76714E-03 9.86701E-01 4.71742E-13-4.92582E-13
 -1      3293 1.57181E+01 3.55404E+00 8.63818E-03 1.46865E+00 4.71098E-13-5.11003E-13
 -1      3294 2.00924E+01-3.04792E+00 3.76126E-02-4.87388E+00 6.37143E-13-4.93529E-14
 -1      3295 1.08753E+01 1.36872E+00 1.41235E-01-1.21854E+00 5.43628E-14 5.56916E-13
 -1      3296 1.10721E+01 1.91937E+00 1.36499E-01 2.26874E+00 4.40772E-13-7.36661E-13
 -1      3297 2.00005E+01-1.29847E-03 5.61081E-06-1.15924E-03 6.95340E-14-3.82616E-13
 -1      3298 2.00003E+01-1.20213E-03-2.11530E-06-1.28539E-03 2.18237E-13-1.60090E-13
 -1      3299 1.13487E+01 2.05471E+00 9.63042E-02-9.04649E-01 2.12221E-13-7.33594E-13
 -1      3300 1.04165E+01 1.46357E+00 1.66197E-01-1.84723E+00 9.74186E-14-8.11781E-13
 -1      3301 1.20125E+01 8.27295E-01 5.73966E-02-3.19965E+00-1.46307E-14-7.22811E-13
 -1      3302 2.55319E+01 3.74950E+00-5.90093E-02 1.64603E+00-3.16053E-13-5.81134E-13
 -1      3303 1.60284E+01 7.53374E-01 4.89121E-02 3.66434E+00-5.59010E-13 1.63373E-13
 -1      3304 2.41865E+01-3.21525E+00 1.35039E-02 2.95711E+00 2.69944E-13 3.78170E-15
 -1      3305 2.59666E+01 3.44789E+00-7.28309E-02-1.79768E+00-4.55455E-13-3.66304E-14
 -1      3306 1.76188E+01 1.77165E+00 3.12502E-02 1.55653E+00 1.43834E-13-3.88743E-14
 -1      3307 2.42012E+01 4.41745E+00-1.49900E-02 5.11296E-01-3.09152E-13-3.37827E-13
 -1      3308 2.50065E+01 5.10709E+00-8.55031E-02-5.39403E-03-4.46219E-13-3.16640E-13
 -1      3309 2.43609E+01 4.48777E+00-3.18051E-02-5.89198E-01-4.22037E-13-2.01669E-13
 -1      3310 2.00008E+01-1.45927E-03 4.90200E-06-7.95200E-04-5.09219E-14 2.79794E-13
 -1      3311 2.00006E+01-1.39293E-03-1.84597E-06-9.78793E-04-4.34455E-14 6.20041E-14
 -1      3312 2.00007E+01-1.31881E-03-2.94163E-06-1.14680E-03 5.39575E-14-2.63050E-13
 -1      3313 2.42134E+01-3.57717E+00 1.36627E-02-2.41535E+00 4.69159E-13-4.11407E-13
 -1      3314 2.63413E+01-1.97200E+00-8.17223E-03 4.24065E-01 1.44515E-13-7.43239E-13
 -1      3315 2.71181E+01 4.87623E-01-3.73025E-02-1.66879E+00-2.82906E-13 1.21056E-13
 -1      3316 2.00009E+01-1.54779E-03 3.33783E-06-3.50453E-04 7.69747E-14 2.58420E-13
 -1      3317 2.00008E+01-1.51475E-03 2.00160E-07-5.67423E-04-6.17858E-14 2.16048E-13
 -1      3318 2.00010E+01-1.45356E-03-2.95908E-06-7.27321E-04-2.06386E-13 3.77559E-13
 -1      3319 2.00011E+01-1.51727E-03-2.97908E-06-2.39061E-04-1.56434E-13 2.48581E-13
 -1      3320 2.68151E+01-2.06980E+00-3.16822E-03 3.34511E-02-2.82917E-14 1.46758E-13
 -1      3321 1.60081E+01 3.22654E+00-2.52871E-02 2.05266E+00 4.91518E-13-5.11271E-13
 -1      3322 1.65554E+01 3.00049E+00 3.25597E-02 2.32256E+00 4.72726E-13-5.18617E-13
 -1      3323 1.68826E+01 2.29749E+00 2.13841E-02 2.76434E+00 4.51754E-13-4.92554E-13
 -1      3324 1.55683E+01 3.13694E+00 3.31882E-02 1.96985E+00 4.67465E-13-5.17736E-13
 -1      3325 2.13678E+01 7.10978E-01-4.46238E-03-8.97670E-01-1.45287E-13-4.49684E-13
 -1      3326 1.39857E+01 1.07057E-01 1.05690E-01 5.11954E+00 5.93914E-13-5.32928E-13
 -1      3327 2.16329E+01-1.09904E-02-1.35215E-02-9.54281E-01-1.98997E-13-3.28623E-13
 -1      3328 2.19386E+01-1.20024E-01 1.42891E-03-9.13908E-01-1.59467E-13-2.66013E-13
 -1      3329 2.16178E+01 2.30151E-01 3.56703E-03-9.77689E-01-1.94183E-13-3.49757E-13
 -1      3330 1.46857E+01 1.26220E+00 2.14808E-02 2.96993E+00-3.65144E-13 1.23238E-13
 -1      3331 2.08559E+01 8.93573E-01 6.85821E-03 6.93666E-01 1.58061E-13-4.78700E-13
 -1      3332 2.11210E+01 7.70683E-01-5.97270E-03 3.04817E-01 8.11192E-14-4.80471E-13
 -1      3333 2.12997E+01 7.68383E-01 7.64206E-03-1.05199E-01 2.76259E-14-4.58868E-13
 -1      3334 2.14176E+01 6.80552E-01-7.94481E-03-4.18992E-01-3.21696E-14-4.69911E-13
 -1      3335 2.15299E+01 3.04697E-01-2.74375E-03 1.43330E-01 3.46603E-14-4.10410E-13
 -1      3336 1.93392E+01-2.12478E+00 7.14039E-02 5.30395E+00 5.08274E-13-2.29726E-13
 -1      3337 2.00001E+01-1.00747E-03 1.46884E-06 1.45339E-03-1.13155E-16-2.92032E-13
 -1      3338 2.00002E+01-1.10615E-03 1.97841E-06 1.37511E-03 1.33540E-13-1.01283E-13
 -1      3339 2.00004E+01-1.13291E-03-9.97597E-07 1.41523E-03 8.58917E-14-3.68857E-14
 -1      3340 2.00001E+01-9.93956E-04-4.76040E-07 1.56472E-03 2.63920E-14-2.26329E-13
 -1      3341 2.15366E+01 5.61467E-01 3.48969E-03-7.43888E-01-9.89352E-14-4.10800E-13
 -1      3342 2.30581E+01-3.29603E+00 3.63701E-02-2.80861E+00 4.64119E-13-2.99445E-13
 -1      3343 2.44488E+01-3.18917E+00-4.35284E-02-1.31524E+00 3.19086E-13-5.16445E-13
 -1      3344 1.88675E+01-2.10685E+00 8.04155E-02-4.72619E+00 5.16798E-13-3.34264E-14
 -1      3345 2.08759E+01-2.89110E+00-2.25338E-02-3.99452E+00 4.98317E-13-1.72891E-13
 -1      3346 2.28619E+01 5.64408E-03-1.35512E-02-1.55771E+00-1.38520E-13-1.65551E-13
 -1      3347 2.27922E+01 4.38599E-01-5.66117E-04-1.58198E+00-1.79278E-13-1.78193E-13
 -1      3348 2.26862E+01 9.60337E-01-2.23971E-02-1.61570E+00-2.07956E-13-1.84194E-13
 -1      3349 2.25610E+01 1.54522E+00 1.76451E-02-1.44573E+00-2.21627E-13-1.30463E-13
 -1      3350 2.33221E+01 7.19536E-01-2.33258E-02-1.72484E+00-1.92584E-13-1.35165E-13
 -1      3351 2.23256E+01 2.04833E+00-2.45275E-02-1.14117E+00-2.49470E-13-1.38077E-13
 -1      3352 2.22145E+01 2.45638E+00 1.61382E-02-7.50934E-01-2.32649E-13-1.90104E-13
 -1      3353 2.30569E+01 2.03075E+00-1.79295E-03-1.45357E+00-2.47186E-13-1.23672E-13
 -1      3354 2.25671E+01 3.06954E+00-1.38368E-02-2.43205E-01-2.64729E-13-2.55210E-13
 -1      3355 2.25385E+01 3.07546E+00-1.75479E-02 2.76673E-01-2.85315E-13-2.68483E-13
 -1      3356 2.24235E+01 1.45305E+00 1.22514E-02 1.55239E+00-1.15991E-13-2.74540E-13
 -1      3357 2.25088E+01 8.43571E-01-3.02174E-02 1.70541E+00-6.37363E-14-2.77158E-13
 -1      3358 2.26351E+01 2.63405E-01 9.01932E-03 1.66338E+00-6.84669E-14-3.35657E-13
 -1      3359 2.26540E+01-2.67192E-01-1.86375E-02 1.58216E+00-8.91800E-15-4.13396E-13
 -1      3360 2.31821E+01 5.55718E-01 6.70837E-03 1.77637E+00-1.06386E-13-3.51000E-13
 -1      3361 2.25838E+01-6.75604E-01-1.26007E-03 1.33598E+00 2.65376E-14-4.38735E-13
 -1      3362 2.25299E+01-9.76881E-01-1.53137E-03 1.12975E+00 3.56347E-14-4.39385E-13
 -1      3363 2.31460E+01-5.73669E-01 1.67906E-02 1.44691E+00 7.44467E-15-4.10591E-13
 -1      3364 2.22878E+01-1.16460E+00-8.94625E-03 8.24674E-01 3.29159E-14-3.92387E-13
 -1      3365 2.21641E+01-1.24463E+00 6.65554E-03 5.96673E-01 1.57827E-14-3.41913E-13
 -1      3366 2.27917E+01-1.25842E+00 4.84924E-03 8.47388E-01 5.04224E-14-3.79372E-13
 -1      3367 2.18534E+01-1.25304E+00-8.98801E-03 3.41726E-01 1.72938E-14-3.39861E-13
 -1      3368 2.16891E+01-1.18947E+00 9.76739E-03 1.50976E-01 1.06515E-13-3.04423E-13
 -1      3369 2.22286E+01-1.44704E+00-6.47610E-03 2.75404E-01 3.37828E-14-3.39012E-13
 -1      3370 2.13883E+01-1.09412E+00-5.79037E-03-1.87141E-02 1.89452E-13-3.57329E-13
 -1      3371 2.12204E+01-9.63898E-01 1.00549E-02-1.51980E-01 1.76012E-13-3.11028E-13
 -1      3372 2.16304E+01-1.29433E+00-8.53434E-03-1.37989E-01 1.47114E-13-3.47740E-13
 -1      3373 2.09701E+01-8.31878E-01-2.91798E-03-2.44224E-01 1.30611E-13-2.52097E-13
 -1      3374 2.08228E+01-6.89633E-01 8.16903E-03-3.24290E-01 1.24903E-13-1.89929E-13
 -1      3375 2.11031E+01-9.98526E-01-8.59922E-03-3.77036E-01 1.96198E-13-3.05005E-13
 -1      3376 2.06342E+01-5.59150E-01-9.90059E-04-3.60755E-01 9.30864E-14-1.59046E-13
 -1      3377 2.05170E+01-4.33136E-01 5.87846E-03-3.99005E-01 5.75612E-14-1.63391E-13
 -1      3378 2.06880E+01-6.82229E-01-8.26421E-03-4.82493E-01 1.04242E-13-1.61989E-13
 -1      3379 2.03870E+01-3.24566E-01 2.50179E-04-3.99737E-01-1.54454E-14-6.69310E-14
 -1      3380 2.03007E+01-2.26780E-01 3.85553E-03-4.09540E-01 7.65780E-15-1.09268E-13
 -1      3381 2.03898E+01-4.03696E-01-6.48493E-03-5.00020E-01 6.30825E-14-8.73468E-14
 -1      3382 2.02175E+01-1.46018E-01 8.33662E-04-3.90768E-01 9.99572E-14-1.00753E-13
 -1      3383 2.01577E+01-7.73712E-02 2.29840E-03-3.83060E-01 1.23671E-13 2.28103E-14
 -1      3384 2.01915E+01-1.89658E-01-4.65630E-03-4.67663E-01 1.11130E-13-9.44004E-14
 -1      3385 2.01089E+01-2.28711E-02 1.02218E-03-3.55391E-01 3.85267E-14 5.58834E-14
 -1      3386 2.00696E+01 2.06927E-02 1.19606E-03-3.38127E-01 8.97086E-14-4.79604E-14
 -1      3387 2.00692E+01-4.05570E-02-3.11282E-03-4.11535E-01 8.11009E-14-1.70478E-14
 -1      3388 2.00441E+01 5.36449E-02 1.00233E-03-3.07997E-01 1.18151E-13-3.12125E-14
 -1      3389 2.00195E+01 7.78229E-02 4.65992E-04-2.86552E-01 7.58612E-14 2.91884E-15
 -1      3390 2.00006E+01 5.33565E-02-1.95191E-03-3.47595E-01 1.04686E-13 4.42529E-15
 -1      3391 2.00089E+01 9.47052E-02 8.92576E-04-2.57577E-01 1.03204E-13-3.54832E-14
 -1      3392 1.99943E+01 1.05115E-01 2.18655E-05-2.35358E-01 1.71634E-13 3.98019E-14
 -1      3393 1.99673E+01 1.05004E-01-1.13237E-03-2.84856E-01 9.61053E-14 3.44360E-14
 -1      3394 1.99924E+01 1.10952E-01 7.56175E-04-2.09346E-01 1.22643E-13 8.10797E-15
 -1      3395 1.99842E+01 1.12342E-01-2.22310E-04-1.88352E-01 7.50979E-14 3.14029E-14
 -1      3396 1.99556E+01 1.26795E-01-5.90480E-04-2.27896E-01 1.17967E-13 4.30256E-14
 -1      3397 1.99868E+01 1.11204E-01 6.23371E-04-1.66015E-01 9.15132E-14 4.31129E-14
 -1      3398 1.99825E+01 1.07226E-01-3.33829E-04-1.47296E-01 1.11304E-13 4.88322E-14
 -1      3399 1.99561E+01 1.29122E-01-2.53270E-04-1.78598E-01 1.16029E-13 9.43082E-14
 -1      3400 1.99870E+01 1.02148E-01 5.05687E-04-1.28722E-01 1.95148E-14 1.78079E-14
 -1      3401 1.99849E+01 9.54180E-02-3.63187E-04-1.12709E-01 2.42312E-15-2.06900E-15
 -1      3402 1.99625E+01 1.19913E-01-5.94833E-05-1.37325E-01 3.56471E-14 7.10502E-14
 -1      3403 1.99899E+01 8.85144E-02 4.05940E-04-9.76525E-02-3.04443E-14-1.54937E-14
 -1      3404 1.99888E+01 8.07805E-02-3.45418E-04-8.43895E-02-8.77781E-15 4.10560E-14
 -1      3405 1.99710E+01 1.04825E-01 3.98675E-05-1.03641E-01 1.84665E-14-1.06691E-14
 -1      3406 1.99934E+01 7.34232E-02 3.23289E-04-7.24441E-02 1.04241E-15 4.11446E-14
 -1      3407 1.99929E+01 6.57701E-02-3.04008E-04-6.17526E-02-2.71008E-14 1.35023E-13
 -1      3408 1.99794E+01 8.76335E-02 8.09308E-05-7.67212E-02 2.40465E-14 6.46920E-14
 -1      3409 1.99967E+01 5.87760E-02 2.55623E-04-5.24586E-02-7.32859E-14 9.60766E-14
 -1      3410 1.99964E+01 5.18085E-02-2.53729E-04-4.40457E-02 6.18367E-14 4.88334E-14
 -1      3411 1.99868E+01 7.06755E-02 8.88623E-05-5.56031E-02-1.50051E-14 1.32223E-13
 -1      3412 1.99994E+01 4.56051E-02 2.00712E-04-3.69497E-02 1.22585E-13-1.93726E-15
 -1      3413 1.99991E+01 3.96042E-02-2.03164E-04-3.04793E-02 1.26008E-13 1.21240E-14
 -1      3414 1.99926E+01 5.52517E-02 7.97668E-05-3.93254E-02 3.93295E-15 2.62472E-14
 -1      3415 2.00013E+01 3.43641E-02 1.56327E-04-2.51657E-02 2.83659E-14-1.25641E-13
 -1      3416 2.00010E+01 2.94068E-02-1.56882E-04-2.03012E-02 1.54431E-14-1.60701E-13
 -1      3417 1.99969E+01 4.19667E-02 6.42878E-05-2.69995E-02 2.60127E-14-6.32757E-14
 -1      3418 2.00025E+01 2.51460E-02 1.20536E-04-1.64033E-02 7.88453E-14-1.58867E-13
 -1      3419 2.00022E+01 2.11880E-02-1.17160E-04-1.28313E-02 9.78721E-14-1.01378E-13
 -1      3420 1.99999E+01 3.09818E-02 4.74396E-05-1.78394E-02 1.31134E-14-1.34499E-13
 -1      3421 2.00031E+01 1.78328E-02 9.17792E-05-1.00362E-02-6.80939E-14-1.68941E-13
 -1      3422 2.00028E+01 1.47651E-02-8.47549E-05-7.48002E-03-8.30275E-14-2.29708E-13
 -1      3423 2.00018E+01 2.21988E-02 3.21021E-05-1.11688E-02 6.18212E-14-2.49868E-13
 -1      3424 2.00033E+01 1.21976E-02 6.88461E-05-5.52807E-03-1.82197E-14-2.77462E-13
 -1      3425 2.00030E+01 9.88448E-03-5.92484E-05-3.75290E-03 5.82698E-15-3.25531E-13
 -1      3426 2.00029E+01 1.53785E-02 1.94454E-05-6.42146E-03-2.82799E-14-3.40384E-13
 -1      3427 2.00032E+01 7.97294E-03 5.07277E-05-2.43416E-03-6.39879E-14-2.85299E-13
 -1      3428 2.00029E+01 6.27637E-03-3.97157E-05-1.24645E-03-1.07433E-13-4.05933E-13
 -1      3429 2.00033E+01 1.02240E-02 9.89594E-06-3.13513E-03-4.16236E-14-4.28076E-13
 -1      3430 2.00030E+01 4.89312E-03 3.65791E-05-3.93703E-04-1.56656E-13-3.59025E-13
 -1      3431 2.00027E+01 3.68498E-03-2.51771E-05 3.62363E-04-1.47841E-13-2.66616E-13
 -1      3432 2.00034E+01 6.43215E-03 3.09332E-06-9.39071E-04-1.02854E-13-2.98455E-13
 -1      3433 2.00026E+01 2.71470E-03 2.57083E-05 8.80093E-04-6.53544E-14-3.55587E-13
 -1      3434 2.00023E+01 1.88262E-03-1.46917E-05 1.32694E-03 2.72797E-14-2.38493E-13
 -1      3435 2.00032E+01 3.72201E-03-1.39429E-06 4.60249E-04-1.15226E-13-3.00528E-13
 -1      3436 2.00022E+01 1.22608E-03 1.74970E-05 1.61010E-03 1.26074E-13-3.96693E-14
 -1      3437 2.00019E+01 6.75378E-04-7.39253E-06 1.84169E-03 1.78442E-13 1.35810E-13
 -1      3438 2.00028E+01 1.84669E-03-4.07330E-06 1.29079E-03 1.91201E-13-2.50208E-13
 -1      3439 2.00017E+01 2.50176E-04 1.14224E-05 1.96565E-03 8.90359E-14 1.41123E-13
 -1      3440 2.00016E+01-9.65801E-05-2.52026E-06 2.05231E-03 5.37050E-14 1.81718E-13
 -1      3441 2.00024E+01 5.97629E-04-5.42476E-06 1.72607E-03 1.74964E-13-2.30353E-13
 -1      3442 2.00013E+01-3.57093E-04 7.04170E-06 2.07231E-03 9.25120E-15 2.01404E-13
 -1      3443 2.00012E+01-5.61833E-04 5.60636E-07 2.06528E-03 1.16681E-13 2.36246E-13
 -1      3444 2.00020E+01-1.95992E-04-5.85363E-06 1.89528E-03 1.32921E-13-1.04051E-13
 -1      3445 2.00010E+01-7.10630E-04 3.99268E-06 2.02089E-03 6.77994E-14 2.71056E-13
 -1      3446 2.00009E+01-8.22549E-04 2.21022E-06 1.95632E-03 4.40648E-14 1.18076E-13
 -1      3447 2.00015E+01-6.70974E-04-5.72855E-06 1.89246E-03 7.71598E-14 1.50166E-13
 -1      3448 2.00007E+01-9.01580E-04 2.18675E-06 1.87418E-03 1.37952E-14 6.87269E-14
 -1      3449 2.00006E+01-9.58203E-04 2.50962E-06 1.77560E-03-1.25152E-14-3.14500E-14
 -1      3450 2.00011E+01-9.37393E-04-5.73541E-06 1.78452E-03 2.96900E-14 2.81494E-13
 -1      3451 1.16833E+01 1.70115E+00 2.19010E-02-1.16607E-01 2.45728E-14 3.63001E-13
 -1      3452 1.19039E+01 1.36784E+00 3.39278E-02-1.92743E+00 2.05360E-13 4.52263E-13
 -1      3453 1.49316E+01 1.35331E+00 6.51636E-02-3.09417E+00 3.60510E-14-4.84904E-13
 -1      3454 1.92912E+01 8.82382E-01-6.73699E-03 6.37681E-01-1.12285E-13-2.47385E-13
 -1      3455 1.91364E+01 1.00618E+00-4.35606E-03 7.16749E-01-1.76526E-13-2.81101E-13
 -1      3456 1.98458E+01 3.78220E-01-2.65297E-03 3.32296E-01 9.03212E-15-2.07627E-13
 -1      3457 1.98138E+01 4.38535E-01-2.57874E-04 3.82303E-01 3.42501E-14-1.01250E-13
 -1      3458 1.99163E+01 2.77387E-01-1.92768E-03 2.53847E-01 1.84354E-13-4.14224E-13
 -1      3459 1.98986E+01 3.24721E-01 1.50336E-04 2.95903E-01 1.35629E-13-3.00026E-13
 -1      3460 1.98074E+01 3.90537E-01 2.62657E-03 2.81136E-01 2.08731E-13-4.40455E-13
 -1      3461 1.99567E+01 2.05808E-01-1.36301E-03 1.93094E-01 1.06688E-13-4.23153E-13
 -1      3462 1.99489E+01 2.39619E-01 3.72409E-04 2.24922E-01 1.12296E-13-3.66307E-13
 -1      3463 1.98851E+01 2.90663E-01 1.68086E-03 2.20363E-01 2.14006E-13-4.97456E-13
 -1      3464 1.99804E+01 1.52113E-01-9.87997E-04 1.44448E-01-1.25535E-13-4.22551E-13
 -1      3465 1.99775E+01 1.77539E-01 4.52126E-04 1.69360E-01 4.48061E-14-3.08230E-13
 -1      3466 1.99329E+01 2.16845E-01 1.03868E-03 1.70076E-01 1.20199E-14-4.14931E-13
 -1      3467 1.99939E+01 1.11922E-01-7.12144E-04 1.06204E-01-2.41081E-14-4.56641E-13
 -1      3468 1.99936E+01 1.30981E-01 4.40848E-04 1.25440E-01-6.08749E-14-4.21596E-13
 -1      3469 1.99630E+01 1.61078E-01 6.40564E-04 1.28657E-01-6.39953E-14-2.12678E-13
 -1      3470 2.00011E+01 8.18473E-02-5.11502E-04 7.66160E-02-1.26755E-13-2.33248E-13
 -1      3471 2.00021E+01 9.61243E-02 3.94955E-04 9.12792E-02-1.37310E-13-3.46331E-13
 -1      3472 1.99815E+01 1.18981E-01 3.87198E-04 9.54028E-02-1.22517E-13-7.64016E-14
 -1      3473 2.00047E+01 5.93646E-02-3.65082E-04 5.40714E-02-5.31540E-14-2.07808E-13
 -1      3474 2.00062E+01 7.00429E-02 3.35750E-04 6.51050E-02-3.60436E-14-1.91308E-13
 -1      3475 1.99927E+01 8.72592E-02 2.27754E-04 6.92686E-02-7.52107E-14-1.05117E-13
 -1      3476 2.00060E+01 4.25655E-02-2.70042E-04 3.71436E-02-3.10334E-13-1.37761E-13
 -1      3477 2.00077E+01 5.05517E-02 2.73284E-04 4.53427E-02-1.28998E-13-1.17526E-13
 -1      3478 1.99991E+01 6.34144E-02 1.31060E-04 4.91185E-02-1.27331E-13 1.25763E-14
 -1      3479 2.00062E+01 2.95640E-02-1.89940E-04 2.41240E-02-3.68480E-13-2.18445E-13
 -1      3480 2.00078E+01 3.57024E-02 2.16453E-04 3.03340E-02-3.17742E-13-1.42400E-13
 -1      3481 2.00027E+01 4.52083E-02 8.36556E-05 3.35614E-02-2.70385E-13-4.46432E-14
 -1      3482 2.00058E+01 2.05065E-02-1.25193E-04 1.52314E-02-3.49526E-13-2.39852E-13
 -1      3483 2.00071E+01 2.48086E-02 1.69059E-04 1.94608E-02-3.92011E-13-2.72269E-13
 -1      3484 2.00044E+01 3.16263E-02 2.95931E-05 2.20481E-02-3.13335E-13-1.18593E-13
 -1      3485 2.00051E+01 1.38603E-02-8.50151E-05 8.91754E-03-3.04713E-13-9.19013E-14
 -1      3486 2.00061E+01 1.70010E-02 1.28334E-04 1.18875E-02-2.65484E-13-2.27912E-13
 -1      3487 2.00050E+01 2.18979E-02 7.37608E-06 1.39287E-02-3.04154E-13-1.32114E-13
 -1      3488 2.00043E+01 9.04994E-03-5.64745E-05 4.55171E-03 4.25257E-14-3.71098E-13
 -1      3489 2.00051E+01 1.13148E-02 9.56454E-05 6.58483E-03-1.30350E-13-2.41698E-13
 -1      3490 2.00049E+01 1.47682E-02-4.30735E-06 8.15052E-03-8.44812E-14-3.51815E-13
 -1      3491 2.00035E+01 5.62066E-03-3.61157E-05 1.62875E-03 1.63370E-13-2.10322E-13
 -1      3492 2.00042E+01 7.22760E-03 6.98062E-05 2.97389E-03 5.09512E-15-2.32394E-13
 -1      3493 2.00045E+01 9.60751E-03-1.00449E-05 4.14610E-03-4.96827E-14-2.79780E-13
 -1      3494 2.00028E+01 3.22345E-03-2.17938E-05-2.44559E-04-9.86700E-14 1.14277E-13
 -1      3495 2.00033E+01 4.33970E-03 4.97269E-05 6.04247E-04 1.20403E-13-1.31313E-13
 -1      3496 2.00040E+01 5.93088E-03-1.23491E-05 1.46174E-03-3.37219E-14-1.25923E-13
 -1      3497 2.00022E+01 1.58992E-03-1.19509E-05-1.37030E-03-7.06935E-15 2.04715E-13
 -1      3498 2.00025E+01 2.34424E-03 3.44264E-05-8.72044E-04 7.12847E-14 2.66851E-13
 -1      3499 2.00034E+01 3.36474E-03-1.26771E-05-2.59331E-04-7.62696E-14 1.32767E-13
 -1      3500 2.00016E+01 5.11839E-04-5.89468E-06-1.97769E-03 1.55047E-13-3.44088E-14
 -1      3501 2.00019E+01 1.00548E-03 2.30799E-05-1.71978E-03-2.50297E-14 1.07952E-13
 -1      3502 2.00028E+01 1.62055E-03-1.18090E-05-1.29304E-03 5.88808E-14 1.13091E-13
 -1      3503 2.00012E+01-1.91555E-04-1.51534E-06-2.24056E-03 3.97164E-13-3.80141E-13
 -1      3504 2.00014E+01 1.22956E-04 1.46477E-05-2.14404E-03 2.82779E-13-3.17216E-13
 -1      3505 2.00022E+01 4.58469E-04-9.51084E-06-1.85531E-03 3.86021E-13-1.95597E-13
 -1      3506 2.00008E+01-5.79314E-04 1.54171E-06-2.26037E-03 1.04239E-13-2.73250E-13
 -1      3507 2.00009E+01-4.07643E-04 8.63694E-06-2.27156E-03 2.64141E-13-3.73873E-13
 -1      3508 2.00017E+01-2.70155E-04-9.09594E-06-2.08769E-03 2.33122E-13-4.14425E-13
 -1      3509 2.00005E+01-7.89579E-04 3.12304E-06-2.14454E-03 3.26940E-13-3.00303E-13
 -1      3510 2.00006E+01-7.00468E-04 4.44955E-06-2.21739E-03 1.54524E-13-2.17641E-13
 -1      3511 2.00012E+01-6.80686E-04-7.57516E-06-2.10396E-03 3.72665E-14-5.14663E-13
 -1      3512 2.00003E+01-8.92661E-04 3.73512E-06-1.94951E-03 3.30276E-13-8.33499E-14
 -1      3513 2.00004E+01-8.51868E-04 1.40832E-06-2.05831E-03 2.99421E-13-1.79363E-13
 -1      3514 2.00009E+01-9.00846E-04-5.86934E-06-1.99458E-03 2.24742E-13-1.07073E-13
 -1      3515 2.00001E+01-9.42909E-04 2.28471E-06-1.71277E-03 1.11937E-13 1.46728E-13
 -1      3516 2.00002E+01-9.20543E-04 4.33081E-07-1.83857E-03 3.71753E-13-3.05443E-14
 -1      3517 2.00006E+01-1.01196E-03-3.67874E-06-1.81484E-03 3.56862E-13 1.70098E-13
 -1      3518 2.63679E+01-1.49769E+00-9.80457E-02-7.36201E-01-1.00069E-13 9.24530E-14
 -1      3519 2.60421E+01-2.17379E+00 6.96379E-02 2.40898E-01 6.39766E-15 1.19620E-13
 -1      3520 2.00002E+01-1.11362E-03 5.32690E-06-1.35973E-03 3.24108E-13 9.08438E-14
 -1      3521 2.00000E+01-1.00947E-03-4.41475E-07-1.40743E-03 1.41797E-13 5.00235E-14
 -1      3522 2.00000E+01-9.84342E-04-1.44009E-06-1.50216E-03 5.93390E-14 7.12307E-14
 -1      3523 2.00004E+01-1.15664E-03-1.63753E-06-1.40446E-03 1.33758E-13-1.03899E-13
 -1      3524 2.00013E+01-1.45426E-03-3.10509E-07 4.09569E-04-2.48305E-13-4.30095E-13
 -1      3525 2.00014E+01-1.47170E-03 2.04853E-06 1.59937E-04-1.80791E-13-2.68642E-13
 -1      3526 2.59532E+01 9.68056E-01-1.01264E-01-1.94189E+00-3.03698E-13 6.35620E-14
 -1      3527 2.64824E+01-2.56008E-01 1.70748E-02-1.48460E+00-1.82784E-13 1.05527E-13
 -1      3528 2.56889E+01-7.70648E-01-1.37514E-02-1.19000E+00-1.13019E-13 2.90514E-14
 -1      3529 1.59093E+01 1.93288E+00-2.25385E-02 1.07590E+00 1.92332E-13-7.56166E-15
 -1      3530 1.50859E+01 1.91559E+00-1.69728E-02 1.24009E+00 5.06444E-14-1.48388E-14
 -1      3531 1.54204E+01 2.93576E+00-6.43122E-03-9.03983E-01 3.18606E-13-4.38755E-13
 -1      3532 1.51206E+01 3.26469E+00 4.92225E-02-2.36800E-01 3.69098E-13-4.93766E-13
 -1      3533 1.45961E+01 3.24731E+00-1.88322E-02 6.26673E-01 4.09028E-13-5.32210E-13
 -1      3534 1.44798E+01 2.59687E+00 1.97965E-03-1.30736E+00 2.60290E-13-5.18481E-13
 -1      3535 1.88766E+01 1.13884E+00-9.30596E-03 7.54361E-01-1.13258E-13-2.64764E-13
 -1      3536 1.86333E+01 1.28263E+00-7.23381E-03 8.39735E-01 2.03529E-14-2.47703E-13
 -1      3537 1.88150E+01 1.14892E+00 1.36984E-02 5.37788E-01-1.27511E-13-2.98072E-13
 -1      3538 2.04843E+01 9.92061E-01 4.14062E-03 1.17026E+00 2.13086E-13-4.86509E-13
 -1      3539 2.10140E+01 3.95200E-01-1.00201E-02 1.04606E+00 1.72316E-13-4.24817E-13
 -1      3540 2.00017E+01 1.18197E+00-1.98319E-03 1.55377E+00 2.78305E-13-4.95538E-13
 -1      3541 1.82518E+01 1.42905E+00-1.32580E-02 8.65968E-01 7.38472E-14-2.29738E-13
 -1      3542 1.78827E+01 1.58034E+00-1.02477E-02 9.55696E-01 4.49476E-14-1.44983E-13
 -1      3543 1.82058E+01 1.43913E+00 2.04631E-02 5.56125E-01 6.82506E-14-2.52725E-13
 -1      3544 1.73145E+01 1.71256E+00-2.07206E-02 9.69372E-01 1.21708E-13-9.36152E-14
 -1      3545 1.67497E+01 1.83356E+00-1.62752E-02 1.06722E+00 2.54405E-13-3.60567E-14
 -1      3546 1.59696E+01 1.99368E+00 4.72232E-02 4.37454E-01 1.92201E-13 4.42517E-15
 -1      3547 1.73103E+01 1.74629E+00 3.37224E-02 5.24383E-01 1.45743E-13-9.88867E-14
 -1      3548 1.95621E+01 6.71819E-01-4.92730E-03 5.24710E-01-8.19011E-14-1.40922E-13
 -1      3549 1.94667E+01 7.72213E-01-2.33147E-03 5.95002E-01-6.74071E-14-1.46708E-13
 -1      3550 1.92276E+01 8.95691E-01 9.21834E-03 4.87022E-01-1.45866E-13-2.67281E-13
 -1      3551 2.24253E+01-5.19325E-01-6.59777E-03-8.70076E-01-1.40435E-13-2.50963E-13
 -1      3552 2.25389E+01-5.73605E-01-1.13806E-02-9.75983E-01-1.23520E-13-2.62177E-13
 -1      3553 2.47177E+01-2.95274E+00-9.09386E-02 1.70971E+00 1.37458E-13 3.07679E-14
 -1      3554 2.29409E+01-2.61406E+00 4.46706E-02 3.17305E+00 2.82760E-13-8.60944E-14
 -1      3555 2.27785E+01-5.31518E-01-2.81366E-03-1.21027E+00-9.71146E-14-2.33617E-13
 -1      3556 2.28094E+01-3.39472E-01-5.23934E-03-1.35159E+00-1.04492E-13-2.27367E-13
 -1      3557 2.33696E+01-2.50461E-01 1.44479E-02-1.45054E+00-9.39515E-14-1.67393E-13
 -1      3558 1.54599E+01-2.74691E-01-5.43105E-02 5.23553E+00 5.84352E-13-4.41154E-13
 -1      3559 1.34590E+01 1.13257E+00 8.05394E-02 4.28454E+00 5.46237E-13-5.59192E-13
 -1      3560 2.59334E+01 3.37965E-01 1.85579E-02 1.81363E+00-1.06637E-13-6.81606E-13
 -1      3561 2.55375E+01 1.74824E+00-8.29515E-02 2.05327E+00-2.43423E-13-6.34374E-13
 -1      3562 2.47766E+01 3.60462E+00-7.19343E-02-1.57777E+00-4.08895E-13-6.41605E-14
 -1      3563 2.56099E+01 2.43977E+00-4.13900E-03-2.06937E+00-3.53106E-13 2.73809E-14
 -1      3564 2.50389E+01 2.82362E+00-2.32917E-02 1.94904E+00-3.10359E-13-5.60670E-13
 -1      3565 2.42921E+01 3.53364E+00-5.44782E-02 1.45685E+00-2.69548E-13-3.66004E-13
 -1      3566 2.44789E+01 1.77699E+00-2.41913E-02 1.87978E+00-2.17826E-13-4.55852E-13
 -1      3567 1.97360E+01 5.05833E-01-3.61840E-03 4.21814E-01-4.81616E-14-9.88734E-14
 -1      3568 1.96794E+01 5.84475E-01-1.03965E-03 4.81930E-01-9.03623E-14-1.52434E-13
 -1      3569 1.95036E+01 6.87396E-01 6.17157E-03 4.20279E-01-8.85186E-14-1.17738E-13
 -1      3570 1.96860E+01 5.21743E-01 4.04990E-03 3.49574E-01 1.30196E-14-2.61753E-13
 -1      3571 1.21650E+01 2.01372E+00 2.17018E-02 3.00193E+00 4.92542E-13-6.32057E-13
 -1      3572 1.17117E+01 2.54136E+00 6.36205E-02 1.22083E+00 3.90834E-13-6.84397E-13
 -1      3573 1.31846E+01 1.83897E+00 6.91804E-02 1.45048E+00-1.42129E-13 2.10235E-13
 -1      3574 1.37243E+01 2.02650E+00 1.21879E-01-2.33108E+00 1.35281E-13-5.74790E-13
 -1      3575 2.03009E+01-2.00029E+00-3.35011E-02 4.51406E+00 4.44200E-13-1.89881E-13
 -1      3576 1.80417E+01-9.58739E-01 1.31536E-01 5.17822E+00 5.56265E-13-3.35272E-13
 -1      3577 2.53607E+01-2.22367E+00 9.06643E-03 1.93162E-01 1.87391E-13-6.17611E-13
 -1      3578 2.57826E+01-1.19480E+00-7.97138E-02 1.22178E+00 1.91999E-14-6.83167E-13
 -1      3579 1.21874E+01 2.28749E+00 4.50003E-03-1.03560E+00 2.27968E-13-6.54747E-13
 -1      3580 1.37279E+01 2.46287E+00 5.04493E-02-1.32110E+00 2.44184E-13-5.58786E-13
 -1      3581 1.35911E+01 3.08300E+00 1.04929E-01-1.16060E-01 3.47816E-13-6.01843E-13
 -1      3582 1.17201E+01 2.55881E+00 8.89390E-02 2.49507E-01 3.15876E-13-7.16052E-13
 -1      3583 1.40405E+01 1.90592E+00 4.09738E-02 7.63318E-01 5.70377E-14 1.21479E-13
 -1      3584 1.39903E+01 1.97353E+00 4.22301E-02-2.13094E-01 1.57124E-13 1.30930E-13
 -1      3585 2.19905E+01-2.95876E+00 8.73878E-03-3.19373E+00 4.57821E-13-1.33813E-13
 -1      3586 2.25536E+01-2.62540E+00 2.25711E-02-2.09858E+00 3.53617E-13-2.60278E-13
 -1      3587 2.06839E+01-2.23049E+00-1.68439E-02-3.25277E+00 3.40464E-13-1.01827E-13
 -1      3588 2.32112E+01 3.39593E+00-1.62481E-02-6.59434E-01-2.94512E-13-2.11883E-13
 -1      3589 2.13830E+01-5.71618E-02 1.36290E-02 1.31079E+00 2.09217E-13-3.66987E-13
 -1      3590 2.16969E+01-1.60706E-01-4.62723E-03 8.30259E-01 1.35844E-13-3.67132E-13
 -1      3591 2.17597E+01 1.84571E-01 2.75512E-03-5.67085E-01-7.12052E-14-3.83159E-13
 -1      3592 2.33305E+01 3.48817E+00-2.07288E-02 7.00658E-01-2.48253E-13-2.82049E-13
 -1      3593 2.22870E+01 2.51281E+00 1.22984E-02 9.23778E-01-2.32778E-13-2.77499E-13
 -1      3594 2.21707E+01-5.51453E-01-5.09566E-03 5.72185E-01 8.68932E-14-2.97460E-13
 -1      3595 2.18940E+01-8.59124E-02 1.36028E-02 3.17487E-01 7.46621E-14-3.65742E-13
 -1      3596 2.19593E+01-9.83950E-02-9.52410E-03-9.37092E-02-4.46545E-15-3.61389E-13
 -1      3597 1.34586E+01 1.39627E+00 5.37447E-02-1.95398E+00 2.72220E-13 2.40741E-13
 -1      3598 1.27200E+01 9.62489E-01 8.19553E-02-2.93630E+00 3.83326E-13 3.81906E-13
 -1      3599 2.23824E+01 2.05598E+00-2.24158E-02 1.30389E+00-1.42706E-13-2.38869E-13
 -1      3600 2.00004E+01-9.71441E-04 1.57259E-06 1.72500E-03-4.41056E-14-1.46502E-13
 -1      3601 2.00003E+01-9.91676E-04 2.14966E-06 1.62798E-03-4.33994E-14-2.08233E-14
 -1      3602 2.00004E+01-1.06521E-03-2.01468E-06 1.55868E-03-1.00978E-13-1.33322E-14
 -1      3603 2.00007E+01-1.04548E-03-4.91032E-06 1.66217E-03-1.94432E-14 1.76650E-13
 -1      3604 1.71851E+01-7.10779E-02 4.41363E-02 4.60710E+00 5.14144E-13-4.07924E-13
 -1      3605 2.30361E+01-6.73219E-01 8.01399E-03-9.64010E-01-1.02431E-13-2.15295E-13
 -1      3606 1.27139E+01 2.74728E+00 2.95167E-02 9.82775E-01 3.85304E-13-6.25271E-13
 -1      3607 2.48534E+01-2.24064E+00-4.87553E-03 7.53915E-01 8.86938E-14 6.53991E-16
 -1      3608 2.00000E+01-9.54075E-04 1.84031E-07-1.59189E-03 1.00599E-13 9.88538E-14
 -1      3609 2.00013E+01-1.41357E-03 3.84017E-06 6.79543E-04-3.61452E-13-2.25908E-13
 -1      3610 2.00015E+01-1.38453E-03-1.02204E-06 5.80072E-04-1.58207E-13-3.76298E-13
 -1      3611 2.00011E+01-1.36976E-03-3.97379E-06 9.08008E-04-1.80183E-13 6.77720E-14
 -1      3612 1.99756E+01 7.30851E-01-1.47887E-02 2.00505E+00 2.91190E-13-4.58302E-13
 -1      3613 2.50997E+01-3.47339E-01 3.50182E-03 1.58978E+00-2.21394E-14-5.73326E-13
 -1      3614 2.50814E+01 1.45615E+00-7.72594E-03-1.91715E+00-2.53712E-13 2.97956E-14
 -1      3615 2.00014E+01-1.47717E-03 1.42966E-06-1.24708E-04-1.80917E-13 1.96547E-13
 -1      3616 2.00013E+01-1.46335E-03 5.80812E-07-3.79213E-04-2.70407E-13 3.82015E-13
 -1      3617 2.00016E+01-1.42650E-03-1.36878E-06 1.92360E-05-1.88332E-13-7.46419E-14
 -1      3618 2.00005E+01-1.13087E-03 3.53997E-06-1.50907E-03 1.86025E-13-1.77639E-14
 -1      3619 2.00003E+01-1.05864E-03-3.33246E-06-1.58914E-03 9.80473E-14-3.80228E-14
 -1      3620 1.39471E+01 1.91393E+00 8.79474E-02 3.28507E+00 5.01554E-13-5.62404E-13
 -1      3621 2.00010E+01-1.32608E-03 4.51360E-06-1.12430E-03 1.48910E-13-8.57281E-14
 -1      3622 2.00008E+01-1.24880E-03-3.22731E-06-1.31087E-03 2.61341E-13-4.23807E-13
 -1      3623 1.82669E+01 9.63067E-01-9.72794E-03 3.21712E+00 4.32678E-13-4.29620E-13
 -1      3624 1.92966E+01 5.90199E-01 3.57638E-02 2.93776E+00 3.92542E-13-4.28524E-13
 -1      3625 2.30779E+01 1.99618E+00-1.02199E-02 1.57912E+00-1.37617E-13-3.10776E-13
 -1      3626 2.36747E+01-2.67344E+00-1.30684E-02-9.35496E-01 2.49298E-13-3.89158E-13
 -1      3627 2.47540E+01-2.70634E+00 2.01411E-03-3.52862E-01 2.58102E-13-5.03680E-13
 -1      3628 2.44251E+01-1.85734E+00 1.20221E-02 5.04150E-01 1.26221E-13-5.00228E-13
 -1      3629 1.37503E+01 1.17027E-01-5.96899E-03-4.00734E+00 5.16932E-13 2.40835E-13
 -1      3630 1.72761E+01-1.69326E+00-3.35447E-02-4.93460E+00 5.91681E-13 1.42369E-13
 -1      3631 1.85188E+01-1.57315E+00 1.00563E-02-4.18601E+00 4.93691E-13 9.28207E-14
 -1      3632 1.56515E+01-7.35880E-01 8.02912E-02-4.67991E+00 5.80584E-13 2.70284E-13
 -1      3633 2.22746E+01-4.18800E-01-2.28512E-03-5.18703E-01-8.15240E-14-2.92768E-13
 -1      3634 2.26412E+01-6.10516E-01 1.52488E-02-3.68050E-01-5.29560E-14-2.69089E-13
 -1      3635 2.26459E+01-1.86879E+00-4.02391E-03 2.37148E+00 2.59745E-13-1.71586E-13
 -1      3636 2.18512E+01-2.13214E+00 2.54867E-02 3.59315E+00 3.52112E-13-1.85497E-13
 -1      3637 2.03781E+01-1.17528E+00-8.64756E-03 3.67351E+00 3.80822E-13-2.83188E-13
 -1      3638 2.39239E+01 3.54319E+00-5.09049E-02-1.17672E+00-3.62512E-13-1.48767E-13
 -1      3639 1.54607E+01 1.86909E+00-1.01055E-02 3.45218E+00 5.09071E-13-4.87608E-13
 -1      3640 1.65610E+01 1.43617E+00 4.50245E-02 3.60127E+00 4.90865E-13-4.65860E-13
 -1      3641 2.00006E+01-1.12661E-03 3.14440E-06 1.47009E-03-5.42942E-14-2.40886E-15
 -1      3642 2.20819E+01-1.77386E-01 3.71626E-03-4.59439E-01-5.95511E-14-3.37783E-13
 -1      3643 2.00008E+01-1.15401E-03-1.23819E-06-1.51134E-03 4.52158E-13-1.39211E-13
 -1      3644 2.00008E+01-1.13264E-03 2.68017E-07 1.48508E-03-2.07831E-13 9.82228E-14
 -1      3645 2.00007E+01-1.21192E-03-3.81473E-06 1.33207E-03-1.54545E-13 6.67155E-14
 -1      3646 2.00009E+01-1.28624E-03 5.73436E-06 1.15440E-03-2.42738E-13 1.99608E-14
 -1      3647 2.00010E+01-1.11285E-03 4.20001E-06 1.51662E-03-1.23212E-13 2.02733E-13
 -1      3648 1.87932E+01 1.04533E+00-4.59372E-03 3.10971E-01-8.41885E-14-2.43499E-13
 -1      3649 1.85290E+01 1.16358E+00-1.03840E-02 3.10318E-01-5.85578E-14-1.95973E-13
 -1      3650 2.26843E+01-9.97817E-01-6.48938E-03 6.91469E-01 1.03289E-13-2.27634E-13
 -1      3651 2.27535E+01-9.07367E-01-1.29251E-02 1.75433E-01 2.39032E-14-2.65624E-13
 -1      3652 1.81630E+01 4.83097E-01-2.55924E-02 3.66014E+00 4.62877E-13-3.80170E-13
 -1      3653 2.10824E+01-3.57529E-01 5.25390E-03 2.14406E+00 2.74945E-13-3.46954E-13
 -1      3654 2.18993E+01-9.66341E-01 2.79175E-03 1.88852E+00 2.27429E-13-2.74106E-13
 -1      3655 1.39804E+01 1.75675E+00 1.70086E-02-1.07623E+00 2.32226E-13 2.26957E-13
 -1      3656 1.44879E+01 1.26313E+00-1.57139E-02-2.08010E+00 3.88980E-13 2.33980E-14
 -1      3657 1.50826E+01 1.81846E+00 1.47091E-02-4.52061E-01 3.13968E-13 6.31361E-14
 -1      3658 2.40967E+01-7.16742E-01 3.00229E-03 1.39977E+00 2.37657E-14-4.48313E-13
 -1      3659 2.39628E+01-1.29562E+00-1.26724E-02 1.08773E+00 6.33233E-14-4.12472E-13
 -1      3660 2.34431E+01-1.65468E+00-8.64882E-03 5.83421E-01 8.69944E-14-3.33886E-13
 -1      3661 2.31959E+01-1.81639E+00 7.00291E-03 2.73199E-01 9.45867E-14-3.20171E-13
 -1      3662 2.18256E+01-1.49431E+00-3.38342E-03-3.60553E-01 1.17753E-13-2.40691E-13
 -1      3663 2.15447E+01-1.31384E+00 1.41904E-02-5.08232E-01 2.02040E-13-2.39750E-13
 -1      3664 2.11939E+01-1.12451E+00-8.69123E-04-5.72423E-01 2.74234E-13-2.17162E-13
 -1      3665 2.09665E+01-9.31138E-01 1.11799E-02-6.39239E-01 2.68788E-13-1.47201E-13
 -1      3666 2.13017E+01-1.29140E+00-4.38782E-03-7.95332E-01 2.35291E-13-7.61587E-14
 -1      3667 2.07125E+01-7.49221E-01 4.55647E-04-6.41331E-01 1.80281E-13-1.15294E-13
 -1      3668 2.05393E+01-5.76736E-01 7.26095E-03-6.54122E-01 1.10625E-13-4.34039E-14
 -1      3669 2.07255E+01-8.85887E-01-1.37875E-02-8.39192E-01 2.94602E-13-1.84800E-14
 -1      3670 2.03767E+01-4.28476E-01 2.17011E-03-6.16671E-01 7.39652E-14 1.73182E-14
 -1      3671 2.02541E+01-2.97220E-01 4.24644E-03-6.00433E-01 7.72353E-14 4.84981E-14
 -1      3672 2.03375E+01-5.06083E-01-9.55044E-03-7.70050E-01 1.32555E-13 6.96278E-14
 -1      3673 2.01576E+01-1.88055E-01 2.49268E-03-5.48615E-01 6.27204E-14 9.85667E-14
 -1      3674 2.00775E+01-9.70264E-02 2.22633E-03-5.18376E-01 1.31304E-13 8.10325E-14
 -1      3675 2.00965E+01-2.24881E-01-6.37988E-03-6.59807E-01 1.07749E-13 1.53170E-13
 -1      3676 2.00267E+01-2.38917E-02 2.31442E-03-4.64896E-01 1.29878E-13 7.28711E-14
 -1      3677 1.99782E+01 3.33946E-02 9.32548E-04-4.29993E-01 6.94961E-14 7.06886E-14
 -1      3678 1.99596E+01-3.32736E-02-4.01359E-03-5.40950E-01 1.41257E-13 2.22709E-13
 -1      3679 1.99569E+01 7.74767E-02 1.91714E-03-3.81099E-01 1.06964E-13 7.03721E-14
 -1      3680 1.99303E+01 1.09075E-01 1.35395E-04-3.46726E-01 8.83343E-14 9.90932E-14
 -1      3681 1.98928E+01 8.51224E-02-2.36551E-03-4.30501E-01 1.02180E-13 1.77797E-13
 -1      3682 1.99268E+01 1.31649E-01 1.48949E-03-3.04854E-01 9.26156E-14 9.25170E-14
 -1      3683 1.99144E+01 1.45139E-01-3.01136E-04-2.73635E-01 1.20297E-13 1.25054E-13
 -1      3684 1.98701E+01 1.48849E-01-1.26637E-03-3.35322E-01 8.39729E-14 1.04023E-13
 -1      3685 1.99205E+01 1.52997E-01 1.11279E-03-2.39207E-01 1.04163E-13 7.68613E-14
 -1      3686 1.99166E+01 1.54677E-01-5.04321E-04-2.12187E-01 1.43651E-13 1.04877E-13
 -1      3687 1.98727E+01 1.74548E-01-5.69861E-04-2.56975E-01 1.06607E-13 1.35289E-13
 -1      3688 1.99271E+01 1.53224E-01 8.14234E-04-1.84615E-01 1.39450E-13-2.69729E-14
 -1      3689 1.99278E+01 1.47864E-01-5.63901E-04-1.61980E-01 1.08399E-13 1.22270E-14
 -1      3690 1.98883E+01 1.75787E-01-1.45798E-04-1.94318E-01 8.45123E-14-2.08786E-14
 -1      3691 1.99394E+01 1.41112E-01 5.89088E-04-1.40313E-01 2.51370E-14 1.77868E-14
 -1      3692 1.99423E+01 1.32112E-01-5.44644E-04-1.21806E-01 4.65872E-14 2.15661E-15
 -1      3693 1.99090E+01 1.62639E-01 8.72796E-05-1.45174E-01 7.09475E-14-7.42757E-14
 -1      3694 1.99533E+01 1.22856E-01 4.24651E-04-1.05025E-01 4.20372E-14-7.25232E-14
 -1      3695 1.99568E+01 1.12496E-01-4.85769E-04-9.01889E-02-4.24542E-15-1.62615E-14
 -1      3696 1.99300E+01 1.42221E-01 1.94434E-04-1.07172E-01 1.59307E-14-1.55865E-13
 -1      3697 1.99663E+01 1.02564E-01 3.07385E-04-7.73484E-02-5.95423E-14 2.58715E-14
 -1      3698 1.99697E+01 9.22665E-02-4.11434E-04-6.56559E-02 3.80666E-15-2.73906E-15
 -1      3699 1.99490E+01 1.19267E-01 2.26296E-04-7.81071E-02-2.23357E-14-8.06853E-14
 -1      3700 1.99774E+01 8.27552E-02 2.24140E-04-5.59396E-02 1.95944E-14-1.34375E-14
 -1      3701 1.99802E+01 7.33254E-02-3.35401E-04-4.68722E-02 6.76623E-16 9.87925E-14
 -1      3702 1.99648E+01 9.67003E-02 2.17581E-04-5.60879E-02-6.12340E-15-5.76641E-14
 -1      3703 1.99862E+01 6.48257E-02 1.65017E-04-3.96025E-02-1.46360E-14 1.37278E-13
 -1      3704 1.99884E+01 5.66456E-02-2.65182E-04-3.26811E-02 8.80240E-14 1.45816E-13
 -1      3705 1.99774E+01 7.61549E-02 1.89086E-04-3.95632E-02 1.40148E-14 7.40915E-14
 -1      3706 1.99928E+01 4.94020E-02 1.23007E-04-2.73104E-02 7.34914E-14 7.83002E-15
 -1      3707 1.99943E+01 4.25873E-02-2.03664E-04-2.21174E-02-8.72151E-14-3.00177E-15
 -1      3708 1.99868E+01 5.83865E-02 1.53129E-04-2.72836E-02 6.23302E-15 7.61525E-14
 -1      3709 1.99974E+01 3.66434E-02 9.26243E-05-1.82070E-02-7.81227E-14-6.99222E-14
 -1      3710 1.99984E+01 3.11509E-02-1.52097E-04-1.43801E-02 3.21603E-14-1.15674E-13
 -1      3711 1.99936E+01 4.36017E-02 1.15912E-04-1.82702E-02-8.59154E-14-3.76073E-14
 -1      3712 2.00005E+01 2.64222E-02 7.01462E-05-1.15808E-02 9.06109E-14-2.64412E-13
 -1      3713 2.00011E+01 2.21207E-02-1.10668E-04-8.81739E-03 4.00502E-14-2.69371E-13
 -1      3714 1.99982E+01 3.16980E-02 8.52572E-05-1.17442E-02-7.33151E-14-1.77712E-13
 -1      3715 2.00024E+01 1.84611E-02 5.30665E-05-6.85345E-03 1.67727E-15-2.82144E-13
 -1      3716 2.00026E+01 1.51785E-02-7.84650E-05-4.90495E-03 1.30376E-14-2.41858E-13
 -1      3717 2.00012E+01 2.23686E-02 5.85161E-05-7.09807E-03 4.01337E-14-2.67991E-13
 -1      3718 2.00034E+01 1.24179E-02 4.00031E-05-3.56301E-03-4.74130E-14-2.63904E-13
 -1      3719 2.00034E+01 9.97576E-03-5.37694E-05-2.22942E-03-5.88100E-14-2.79721E-13
 -1      3720 2.00029E+01 1.52433E-02 3.81890E-05-3.85793E-03-7.12186E-14-1.31350E-13
 -1      3721 2.00038E+01 7.94758E-03 2.98199E-05-1.34456E-03-1.47763E-13-3.32430E-13
 -1      3722 2.00037E+01 6.17932E-03-3.52509E-05-4.66005E-04-1.76325E-13-4.15371E-13
 -1      3723 2.00038E+01 9.93312E-03 2.27811E-05-1.66184E-03-1.46916E-13-1.63848E-13
 -1      3724 2.00037E+01 4.73065E-03 2.19782E-05 8.97406E-05-8.23535E-14-3.96545E-13
 -1      3725 2.00035E+01 3.48768E-03-2.17534E-05 6.38482E-04-7.89223E-14-3.27148E-13
 -1      3726 2.00040E+01 6.07944E-03 1.17528E-05-2.27542E-04-1.14145E-13-4.00425E-13
 -1      3727 2.00034E+01 2.48523E-03 1.59356E-05 9.62154E-04 5.20588E-14-2.45418E-13
 -1      3728 2.00032E+01 1.64104E-03-1.22037E-05 1.27743E-03 2.54982E-13-2.21223E-13
 -1      3729 2.00039E+01 3.36237E-03 4.25361E-06 6.60959E-04 2.30754E-14-9.55961E-14
 -1      3730 2.00030E+01 9.72942E-04 1.13073E-05 1.44162E-03 2.42685E-13-3.15842E-13
 -1      3731 2.00028E+01 4.23036E-04-5.67504E-06 1.59615E-03 1.75775E-13-1.92553E-13
 -1      3732 2.00035E+01 1.50934E-03-5.62992E-07 1.16655E-03 2.24161E-13-2.40238E-13
 -1      3733 2.00025E+01-2.02614E-06 7.81864E-06 1.65417E-03 1.13948E-13-3.24017E-13
 -1      3734 2.00023E+01-3.41730E-04-1.39588E-06 1.70160E-03 9.65283E-14-3.03904E-13
 -1      3735 2.00030E+01 2.95216E-04-3.42628E-06 1.41041E-03 1.30144E-13-3.05958E-13
 -1      3736 2.00020E+01-5.96624E-04 5.25569E-06 1.69192E-03 1.64134E-13-1.61880E-13
 -1      3737 2.00018E+01-7.92921E-04 1.15203E-06 1.67100E-03 1.47066E-13-1.14430E-13
 -1      3738 2.00025E+01-4.61596E-04-5.02602E-06 1.48114E-03 1.91424E-13-3.92236E-13
 -1      3739 2.00015E+01-9.32484E-04 3.98721E-06 1.62067E-03 6.95948E-14 9.11765E-14
 -1      3740 2.00013E+01-1.04348E-03 1.21654E-06 1.56207E-03 3.23910E-14 1.84508E-13
 -1      3741 2.00020E+01-9.03052E-04-5.27366E-06 1.44214E-03 2.29306E-13-1.53705E-13
 -1      3742 2.38733E+01 3.50116E+00-5.59865E-02 1.22859E+00-2.42724E-13-3.38878E-13
 -1      3743 1.97715E+01 3.75128E-01-1.78427E-03 2.18356E-01 2.62060E-13-5.13596E-13
 -1      3744 1.97204E+01 4.32581E-01-1.34862E-03 2.47634E-01 1.68059E-13-4.73545E-13
 -1      3745 1.99450E+01 1.60275E-01-8.11871E-04 1.06146E-01-1.35506E-13-1.01625E-13
 -1      3746 1.99334E+01 1.85576E-01-2.52878E-05 1.23790E-01-5.34181E-14-1.84600E-13
 -1      3747 1.99683E+01 1.19234E-01-6.11547E-04 7.94793E-02-1.03751E-13-1.10128E-13
 -1      3748 1.99615E+01 1.38627E-01 8.63751E-05 9.36523E-02-1.33053E-14-9.11128E-14
 -1      3749 1.99366E+01 1.63608E-01 7.37699E-04 8.88879E-02-7.08530E-14-1.76919E-13
 -1      3750 1.99833E+01 8.79248E-02-4.54746E-04 5.80984E-02-5.17177E-14-5.43203E-14
 -1      3751 1.99795E+01 1.02725E-01 1.34251E-04 6.92272E-02-1.42850E-13-3.93949E-14
 -1      3752 1.99621E+01 1.22202E-01 4.88212E-04 6.73013E-02-1.23249E-13-1.49104E-13
 -1      3753 1.99927E+01 6.41167E-02-3.43841E-04 4.13599E-02-1.52213E-13-1.82109E-14
 -1      3754 1.99907E+01 7.53718E-02 1.41112E-04 4.99345E-02-9.66735E-14-1.39864E-14
 -1      3755 1.99789E+01 9.03807E-02 3.25318E-04 4.95935E-02-1.36497E-13 2.75122E-14
 -1      3756 1.99987E+01 4.53733E-02-2.49558E-04 2.80083E-02-2.80631E-13-1.40859E-13
 -1      3757 1.99977E+01 5.41890E-02 1.33843E-04 3.47197E-02-1.38459E-13-1.06797E-13
 -1      3758 1.99900E+01 6.55649E-02 2.20364E-04 3.52227E-02-1.03784E-13-1.00092E-13
 -1      3759 2.00019E+01 3.20924E-02-1.73022E-04 1.85848E-02-2.75899E-13-2.26486E-13
 -1      3760 2.00017E+01 3.83629E-02 1.18143E-04 2.32990E-02-2.82125E-13-2.08752E-13
 -1      3761 1.99970E+01 4.67726E-02 1.32783E-04 2.41500E-02-2.20127E-13-1.04831E-13
 -1      3762 2.00036E+01 2.22049E-02-1.22314E-04 1.16900E-02-1.43165E-13-4.71823E-13
 -1      3763 2.00037E+01 2.68590E-02 9.91624E-05 1.51008E-02-1.82749E-13-2.54100E-13
 -1      3764 2.00010E+01 3.30491E-02 7.98180E-05 1.60557E-02-1.64149E-13-2.35987E-13
 -1      3765 2.00043E+01 1.49388E-02-8.47695E-05 6.77090E-03-1.39823E-13-4.52991E-13
 -1      3766 2.00046E+01 1.83493E-02 7.92702E-05 9.18219E-03-1.95005E-13-4.40844E-13
 -1      3767 2.00032E+01 2.28319E-02 4.54135E-05 1.01052E-02-1.63416E-13-4.88116E-13
 -1      3768 2.00044E+01 9.67138E-03-5.70112E-05 3.36026E-03-7.89378E-14-2.90918E-13
 -1      3769 2.00048E+01 1.21341E-02 6.16611E-05 5.01659E-03-7.40331E-14-4.67516E-13
 -1      3770 2.00043E+01 1.53182E-02 2.40266E-05 5.84249E-03-1.68226E-13-4.40727E-13
 -1      3771 2.00042E+01 5.91916E-03-3.68248E-05 1.07832E-03-5.77340E-14-3.12395E-13
 -1      3772 2.00046E+01 7.66445E-03 4.66593E-05 2.17534E-03-2.29051E-14-3.42151E-13
 -1      3773 2.00046E+01 9.87088E-03 1.03963E-05 2.88093E-03 1.12967E-14-5.71265E-13
 -1      3774 2.00037E+01 3.30457E-03-2.24229E-05-3.78126E-04-6.19696E-14-1.75986E-13
 -1      3775 2.00041E+01 4.51260E-03 3.43994E-05 3.13182E-04-1.26485E-13-2.17188E-13
 -1      3776 2.00045E+01 5.99448E-03 1.92378E-06 8.97661E-04-9.00569E-14-4.72679E-13
 -1      3777 2.00032E+01 1.53059E-03-1.30806E-05-1.24640E-03 7.71416E-14-1.45263E-13
 -1      3778 2.00035E+01 2.34434E-03 2.46185E-05-8.41383E-04-9.51572E-15-4.01927E-14
 -1      3779 2.00041E+01 3.29934E-03-2.77592E-06-3.68000E-04-1.07372E-13-3.85336E-13
 -1      3780 2.00026E+01 3.28153E-04-6.11087E-06-1.71911E-03 4.74997E-13-3.05752E-13
 -1      3781 2.00029E+01 8.69176E-04 1.69690E-05-1.50899E-03 3.43377E-13-2.06215E-13
 -1      3782 2.00036E+01 1.44839E-03-4.36227E-06-1.13102E-03 2.49152E-13-2.94873E-13
 -1      3783 2.00021E+01-3.72179E-04-1.21263E-06-1.88945E-03 1.94939E-13-2.60362E-13
 -1      3784 2.00023E+01-5.88883E-05 1.14070E-05-1.82110E-03 4.44711E-13-1.79770E-13
 -1      3785 2.00030E+01 2.47116E-04-6.81411E-06-1.52844E-03 3.33776E-13-1.48164E-13
 -1      3786 2.00016E+01-7.80114E-04 1.58812E-06-1.88680E-03 3.48322E-15-3.01191E-13
 -1      3787 2.00018E+01-6.02985E-04 7.15258E-06-1.90189E-03 2.14672E-14-2.66860E-13
 -1      3788 2.00024E+01-4.68655E-04-7.21107E-06-1.67444E-03 2.03804E-13-2.00256E-14
 -1      3789 2.00012E+01-9.96679E-04 3.73020E-06-1.77596E-03 1.52084E-13-2.47897E-13
 -1      3790 2.00013E+01-9.08787E-04 3.72247E-06-1.84366E-03 9.86461E-14-3.03621E-13
 -1      3791 2.00018E+01-8.82142E-04-6.57317E-06-1.66922E-03 4.68818E-14-2.57213E-13
 -1      3792 2.00009E+01-1.10983E-03 1.56031E-06-1.59966E-03 3.61496E-13-2.75908E-13
 -1      3793 2.00010E+01-1.06167E-03 2.79178E-07-1.69282E-03 2.74803E-13-2.70581E-13
 -1      3794 2.00015E+01-1.09797E-03-3.95194E-06-1.55655E-03 1.86655E-13-5.68011E-13
 -1      3795 2.00012E+01-1.21327E-03 7.18710E-08-1.38941E-03 2.97391E-13-4.35441E-13
 -1      3796 1.99091E+01 2.13869E-01-1.06790E-03 1.38442E-01-3.64656E-14-2.60564E-13
 -1      3797 1.98902E+01 2.46742E-01-2.43211E-04 1.59828E-01-3.09424E-14-2.89411E-13
 -1      3798 1.98986E+01 2.17152E-01 1.10385E-03 1.14170E-01-7.94194E-14-8.26803E-14
 -1      3799 2.36082E+01 2.69983E+00-1.69499E-03-1.44453E+00-2.77257E-13-8.37516E-14
 -1      3800 1.44766E+01 2.74469E+00 8.34944E-03 2.36054E+00 4.71198E-13-5.48842E-13
 -1      3801 2.49791E+01-3.59268E-01-6.66699E-02-1.53693E+00-1.49552E-13 4.79738E-15
 -1      3802 2.52166E+01-1.01463E+00 5.43691E-02-9.96117E-01-7.28619E-14 1.29436E-14
 -1      3803 1.41173E+01 3.03961E+00 2.21641E-02 1.67441E+00 4.53771E-13-5.54870E-13
 -1      3804 1.35393E+01 2.95206E+00 3.37275E-02 7.92698E-01 3.97194E-13-5.84432E-13
 -1      3805 1.98547E+01 2.83558E-01-1.39541E-03 1.76130E-01 9.12862E-14-2.96511E-13
 -1      3806 1.98244E+01 3.25959E-01-6.63906E-04 2.01167E-01 2.52498E-13-3.17264E-13
 -1      3807 1.98422E+01 2.86011E-01 1.64824E-03 1.42188E-01 3.42939E-14-5.10861E-14
 -1      3808 2.03421E+01-1.36007E-01-6.52341E-03 2.64622E+00 3.44601E-13-3.59140E-13
 -1      3809 2.40122E+01 2.56774E-01-4.69810E-02 1.80867E+00-9.43007E-14-4.40228E-13
 -1      3810 1.82231E+01 1.29054E+00-5.99337E-03 2.44184E-01 1.74769E-14-8.86038E-14
 -1      3811 1.78358E+01 1.41431E+00-1.48235E-02 2.13024E-01 1.08809E-13-1.10195E-13
 -1      3812 1.83250E+01 1.21609E+00 1.51979E-02 4.64668E-03 6.41838E-14 3.71567E-15
 -1      3813 1.91875E+01 8.27332E-01-3.67292E-03 3.21701E-01-1.71635E-13-1.75850E-13
 -1      3814 1.90106E+01 9.31083E-01-6.69952E-03 3.39267E-01-1.52925E-13-3.26442E-13
 -1      3815 1.88368E+01 9.98120E-01 1.05748E-02 1.36433E-01-5.07132E-14-1.36065E-13
 -1      3816 2.38957E+01-7.23374E-01-1.27475E-02-1.22644E+00-6.96387E-14-1.01890E-13
 -1      3817 2.40295E+01-2.14797E-01 8.61978E-03-1.51445E+00-1.26725E-13-8.66000E-14
 -1      3818 2.32089E+01-9.66774E-01-4.32352E-03-5.67789E-01-6.05477E-14-1.85342E-13
 -1      3819 2.34481E+01-9.48945E-01-8.05839E-03-7.78765E-01-5.10406E-14-1.46770E-13
 -1      3820 2.00013E+01-1.43539E-03 2.84535E-06-6.53006E-04-2.42766E-13 2.23946E-13
 -1      3821 2.00011E+01-1.38852E-03-6.78907E-07-8.85251E-04-1.82814E-13 1.36155E-13
 -1      3822 2.00013E+01-1.32173E-03-1.39933E-06-1.05971E-03 1.23791E-13-1.69471E-13
 -1      3823 2.00015E+01-1.40539E-03-1.23194E-06-5.43523E-04-1.81043E-13 1.95127E-13
 -1      3824 2.34880E+01 2.74870E+00 7.27088E-03 1.49524E+00-2.19779E-13-2.78964E-13
 -1      3825 2.48112E+01-1.80744E+00-5.43839E-02-1.54529E-01-9.75782E-15-2.83506E-14
 -1      3826 2.40516E+01-1.97377E+00 4.18568E-02 9.79252E-01 1.04759E-13-7.46642E-14
 -1      3827 1.55754E+01-1.80613E-02 3.13941E-02-3.73166E+00 5.21638E-13 2.09268E-13
 -1      3828 2.37539E+01 1.89463E+00-6.59944E-02-1.76352E+00-2.63546E-13-1.07009E-13
 -1      3829 2.44065E+01 9.99574E-01 2.45626E-02-1.84893E+00-2.27155E-13-3.32061E-14
 -1      3830 2.34250E+01 1.89538E+00-4.57373E-02 1.74659E+00-1.74853E-13-3.58066E-13
 -1      3831 2.40047E+01 1.16339E+00 4.99938E-04 1.90208E+00-1.94806E-13-4.66736E-13
 -1      3832 2.39995E+01 4.13185E-01 7.14486E-04-1.64846E+00-1.70601E-13-8.72722E-14
 -1      3833 1.97113E+01-1.60575E+00 2.19095E-02-3.41859E+00 3.68194E-13-5.81349E-14
 -1      3834 2.06582E+01-1.78052E+00 1.11452E-02-2.72422E+00 3.05650E-13-8.71885E-14
 -1      3835 1.87966E+01-1.22276E+00-2.81150E-03-3.50821E+00 4.25172E-13 7.34135E-14
 -1      3836 1.88337E+01-8.69575E-01-1.68679E-02-3.01125E+00 3.78512E-13 1.20439E-13
 -1      3837 1.77614E+01-6.01805E-01 6.57855E-02-3.64677E+00 4.84067E-13 2.56051E-13
 -1      3838 1.56086E+01 1.16991E+00 2.42822E-02-1.97796E+00 3.60681E-13-9.87058E-16
 -1      3839 1.51675E+01 8.65420E-01 5.51321E-02-2.78585E+00 4.76809E-13 1.48947E-13
 -1      3840 1.96356E+01 4.88401E-01 3.69040E-03 1.95348E-01 1.86047E-13-4.85572E-13
 -1      3841 1.96452E+01 4.94445E-01-2.32736E-03 2.62255E-01 1.40352E-13-4.44721E-13
 -1      3842 1.95690E+01 5.64126E-01-2.50504E-03 2.91393E-01 9.61294E-14-3.55988E-13
 -1      3843 1.75961E+01 1.43759E+00 2.18296E-02-2.42592E-01 1.15564E-13 4.33212E-14
 -1      3844 1.73959E+01 1.53490E+00-1.03195E-02 9.02048E-02 1.53500E-13-1.57094E-13
 -1      3845 1.68416E+01 1.66025E+00-1.77066E-02 1.33955E-02 1.66002E-13-8.52582E-14
 -1      3846 2.26369E+01-1.38802E+00-8.20952E-04 1.46584E+00 1.65726E-13-2.22103E-13
 -1      3847 2.31593E+01-2.16061E+00-1.38041E-02-3.37231E-01 1.23022E-13-3.05280E-13
 -1      3848 2.25891E+01-1.74682E+00-6.83058E-03 2.00895E-03 4.07636E-14-2.67276E-13
 -1      3849 2.00013E+01-1.14709E-03-4.67897E-06 1.37009E-03-1.69508E-13-7.10459E-14
 -1      3850 2.22905E+01-1.66654E+00 1.43606E-02-2.31857E-01 5.29010E-14-2.57244E-13
 -1      3851 1.97583E+01 3.75227E-01 2.44071E-03 1.71023E-01 5.16531E-14-3.83888E-13
 -1      3852 2.00014E+01-1.26505E-03 1.65271E-06-1.13271E-03 1.37633E-13-2.79631E-13
 -1      3853 2.00016E+01-1.20866E-03-5.91579E-09-1.21834E-03 1.42510E-13-4.42881E-13
 -1      3854 2.00016E+01-1.31885E-03 1.12268E-06-8.94536E-04 1.60095E-14-2.73618E-13
 -1      3855 1.64678E+01-1.29062E-01-1.77724E-02-3.47517E+00 5.28740E-13 2.61647E-13
 -1      3856 2.00012E+01-1.28395E-03 2.88876E-07 1.10581E-03-3.25560E-13-4.34694E-14
 -1      3857 2.00017E+01-1.30947E-03-2.53086E-06 7.42614E-04 1.49890E-15-2.76616E-13
 -1      3858 2.00018E+01-1.33761E-03 2.35855E-06 4.74095E-04 1.13750E-14-4.99942E-13
 -1      3859 2.00019E+01-1.35824E-03-3.78062E-07 1.66282E-04-1.35588E-13-2.64762E-13
 -1      3860 2.00019E+01-1.36219E-03 4.98024E-07-1.17954E-04-1.94216E-13 1.70426E-13
 -1      3861 2.00021E+01-1.26626E-03 6.73120E-07 3.36690E-04-3.39379E-14-2.43333E-13
 -1      3862 2.03315E+01-6.49794E-01-5.62912E-03 3.19668E+00 3.76095E-13-3.39241E-13
 -1      3863 2.28935E+01-2.65763E+00-6.18678E-03-1.62895E+00 2.86631E-13-3.17349E-13
 -1      3864 2.31680E+01-2.31959E+00 1.04991E-02-7.88465E-01 2.00596E-13-2.69587E-13
 -1      3865 2.25097E+01-2.12592E+00 1.19468E-02-9.80329E-01 1.70688E-13-1.87977E-13
 -1      3866 2.19907E+01-2.28906E+00-6.16707E-04-1.96836E+00 2.51515E-13-1.91395E-13
 -1      3867 1.93415E+01 7.30775E-01-4.18379E-03 3.26533E-01-5.26034E-14-2.87338E-13
 -1      3868 1.91995E+01 8.00488E-01 7.44366E-03 1.94551E-01-8.00929E-14-2.56441E-13
 -1      3869 1.94586E+01 6.44435E-01-2.88691E-03 3.00101E-01 1.69625E-14-2.98210E-13
 -1      3870 2.41063E+01-1.06705E+00-1.32315E-02-8.12934E-01-5.67489E-14-7.56853E-14
 -1      3871 2.36058E+01-1.79095E+00 2.33324E-02 1.02634E+00 1.18830E-13-1.27127E-13
 -1      3872 2.20801E+01-1.77246E+00-1.00102E-02-6.62431E-01 1.19148E-13-1.31018E-13
 -1      3873 1.58393E+01 1.77630E+00-1.60155E-03-3.02084E-01 2.79303E-13-5.30171E-14
 -1      3874 2.30306E+01-9.37636E-01 6.96036E-03-2.74324E-01-3.47870E-14-2.08334E-13
 -1      3875 1.90684E+01-4.01528E-01 7.96415E-03 3.91859E+00 4.53899E-13-3.37430E-13
 -1      3876 1.58249E+01 1.41055E+00 1.96750E-03-1.39283E+00 2.58280E-13-7.94018E-14
 -1      3877 1.62515E+01 9.10982E-01-2.28111E-02-2.06212E+00 2.97515E-13 4.93971E-14
 -1      3878 1.99558E+01 1.18380E-01-4.73395E-04 5.21457E-02-3.41273E-13-7.64655E-14
 -1      3879 1.99455E+01 1.36898E-01-1.52708E-04 6.13006E-02-2.30249E-13-1.93736E-13
 -1      3880 1.89160E+01 8.76237E-01-7.85053E-04-1.23386E-02-3.51529E-14-2.42647E-15
 -1      3881 1.86874E+01 9.56251E-01-1.01467E-02-7.04333E-02 8.02784E-14 6.36903E-14
 -1      3882 2.00016E+01-1.20822E-03 2.99321E-06 1.12281E-03-1.20639E-13-7.47066E-14
 -1      3883 2.06785E+01-9.22005E-01-1.68763E-03-1.07148E+00 2.68960E-13-9.49937E-15
 -1      3884 2.04609E+01-6.82270E-01 1.06957E-02-1.02695E+00 2.56338E-13-6.54381E-15
 -1      3885 2.02789E+01-4.98353E-01 4.47335E-03-9.28398E-01 2.47822E-13 1.29527E-14
 -1      3886 2.01213E+01-3.31427E-01 3.79579E-03-8.66145E-01 1.99733E-13 8.44274E-14
 -1      3887 2.01549E+01-5.60412E-01-1.40395E-02-1.14015E+00 2.48371E-13-1.08809E-13
 -1      3888 2.00278E+01-1.94030E-01 4.94238E-03-7.63382E-01 1.66734E-13 1.18984E-13
 -1      3889 1.99300E+01-8.29967E-02 1.37236E-03-6.96111E-01 1.57996E-13 1.69283E-13
 -1      3890 1.99017E+01-2.07490E-01-7.48211E-03-9.09138E-01 2.00177E-13 1.95194E-15
 -1      3891 1.98909E+01 6.58309E-03 4.10324E-03-6.04640E-01 1.30070E-13 2.74279E-13
 -1      3892 1.98369E+01 7.40892E-02 1.10740E-04-5.41940E-01 1.15587E-13 2.06452E-13
 -1      3893 1.97776E+01 1.89218E-02-4.07903E-03-6.99304E-01 1.62969E-13 2.07654E-13
 -1      3894 1.98302E+01 1.26390E-01 3.12419E-03-4.66710E-01-1.57219E-14 2.07396E-13
 -1      3895 1.98051E+01 1.62088E-01-6.20962E-04-4.12790E-01 1.58293E-14 1.17536E-13
 -1      3896 1.97343E+01 1.51148E-01-2.29467E-03-5.23595E-01 3.39756E-14 1.32009E-13
 -1      3897 1.98162E+01 1.87682E-01 2.25890E-03-3.53529E-01 4.19403E-14 9.04041E-14
 -1      3898 1.98088E+01 2.01372E-01-9.48873E-04-3.09304E-01 7.99754E-14 1.30636E-13
 -1      3899 1.97382E+01 2.18038E-01-1.03098E-03-3.84845E-01-3.00143E-15 9.27056E-14
 -1      3900 1.98281E+01 2.09047E-01 1.55838E-03-2.64206E-01 9.64529E-14 8.50120E-14
 -1      3901 1.98307E+01 2.08811E-01-1.03027E-03-2.29020E-01 1.72154E-14 7.22963E-14
 -1      3902 1.97665E+01 2.40260E-01-2.92761E-04-2.78871E-01 5.30329E-14 9.86197E-14
 -1      3903 1.98525E+01 2.05380E-01 1.04807E-03-1.95314E-01-5.31085E-14 2.67739E-14
 -1      3904 1.98600E+01 1.97028E-01-9.52245E-04-1.67880E-01 1.08432E-14-8.02287E-14
 -1      3905 1.98049E+01 2.35031E-01 1.73664E-04-2.00206E-01-4.14889E-14 9.68580E-15
 -1      3906 1.98810E+01 1.87398E-01 6.85424E-04-1.43082E-01 7.07762E-14-1.66468E-13
 -1      3907 1.98902E+01 1.75010E-01-8.18842E-04-1.21978E-01 1.37392E-13-1.02319E-13
 -1      3908 1.98449E+01 2.13936E-01 3.85353E-04-1.42571E-01-3.18222E-14-2.22698E-13
 -1      3909 1.99086E+01 1.62555E-01 4.37316E-04-1.03897E-01 7.97454E-14-1.21382E-13
 -1      3910 1.99177E+01 1.48805E-01-6.76056E-04-8.78169E-02 1.05723E-14-1.36612E-13
 -1      3911 1.98817E+01 1.85434E-01 4.41935E-04-1.00862E-01 6.78394E-14-2.56377E-13
 -1      3912 1.99330E+01 1.35703E-01 2.74968E-04-7.47220E-02-7.73945E-14-1.27768E-13
 -1      3913 1.99410E+01 1.22246E-01-5.41728E-04-6.25624E-02-9.81505E-14-1.46261E-13
 -1      3914 1.99133E+01 1.54904E-01 4.26402E-04-7.08583E-02-4.87088E-14-1.71076E-13
 -1      3915 1.99533E+01 1.09795E-01 1.73526E-04-5.31186E-02 3.70100E-14-6.96097E-14
 -1      3916 1.99598E+01 9.75441E-02-4.22935E-04-4.39930E-02 1.00996E-13 3.04450E-14
 -1      3917 1.99390E+01 1.25545E-01 3.72457E-04-4.93570E-02 3.32496E-14-1.12094E-13
 -1      3918 1.99692E+01 8.64333E-02 1.09265E-04-3.72212E-02 8.21689E-14-3.25413E-14
 -1      3919 1.99743E+01 7.58293E-02-3.22434E-04-3.04308E-02 6.98047E-14 4.83127E-14
 -1      3920 1.99592E+01 9.91012E-02 3.10288E-04-3.40180E-02 1.46560E-13-3.08098E-14
 -1      3921 1.99813E+01 6.63517E-02 7.10770E-05-2.55899E-02-1.05819E-13 1.35518E-14
 -1      3922 1.99850E+01 5.74869E-02-2.42389E-04-2.05819E-02-1.00956E-13 4.25756E-15
 -1      3923 1.99744E+01 7.63165E-02 2.33250E-04-2.30879E-02-4.35787E-14-1.57435E-14
 -1      3924 1.99900E+01 4.96900E-02 4.82185E-05-1.71668E-02-5.44869E-14-1.66386E-14
 -1      3925 1.99926E+01 4.25179E-02-1.79353E-04-1.35023E-02-1.72849E-13-3.01330E-14
 -1      3926 1.99854E+01 5.74446E-02 1.89873E-04-1.53482E-02-1.55018E-13-9.79483E-14
 -1      3927 1.99961E+01 3.62652E-02 3.44274E-05-1.11037E-02-2.58187E-13-8.88569E-14
 -1      3928 1.99978E+01 3.06120E-02-1.29997E-04-8.47191E-03-7.45967E-14-2.05815E-13
 -1      3929 1.99931E+01 4.22021E-02 1.43923E-04-9.88246E-03-2.69542E-13-1.01450E-13
 -1      3930 2.00000E+01 2.57432E-02 2.40325E-05-6.80877E-03 7.57520E-14-2.00048E-13
 -1      3931 2.00011E+01 2.13945E-02-9.21592E-05-4.94452E-03 6.70475E-14-1.99551E-13
 -1      3932 1.99983E+01 3.01702E-02 9.46525E-05-6.08715E-03-6.86465E-14-9.38658E-14
 -1      3933 2.00024E+01 1.76837E-02 1.87290E-05-3.81622E-03 3.19646E-14-1.71604E-13
 -1      3934 2.00030E+01 1.44138E-02-6.33446E-05-2.52735E-03-2.63380E-14-1.28013E-13
 -1      3935 2.00016E+01 2.09334E-02 6.47012E-05-3.45029E-03 7.80056E-14-2.44471E-13
 -1      3936 2.00038E+01 1.16561E-02 1.45967E-05-1.78488E-03-2.25570E-13-1.42619E-13
 -1      3937 2.00040E+01 9.25894E-03-4.18960E-05-9.19442E-04-2.36063E-13-2.33907E-13
 -1      3938 2.00034E+01 1.39824E-02 4.10182E-05-1.67751E-03-9.45613E-14-2.22786E-13
 -1      3939 2.00043E+01 7.26161E-03 1.17977E-05-4.48791E-04-7.99043E-14-1.46154E-13
 -1      3940 2.00043E+01 5.55026E-03-2.63320E-05 1.09509E-04-3.81296E-14-1.57494E-13
 -1      3941 2.00043E+01 8.88246E-03 2.38254E-05-5.14765E-04-1.34085E-13-1.03457E-13
 -1      3942 2.00043E+01 4.14391E-03 9.58204E-06 3.90243E-04-1.33645E-14-7.87596E-14
 -1      3943 2.00041E+01 2.95864E-03-1.53210E-05 7.29552E-04 1.45561E-13 5.85786E-14
 -1      3944 2.00045E+01 5.23599E-03 1.18996E-05 2.17764E-04 7.11794E-14 3.99298E-14
 -1      3945 2.00040E+01 2.00059E-03 7.72936E-06 8.80023E-04 1.49509E-13-8.85310E-14
 -1      3946 2.00037E+01 1.20884E-03-7.75318E-06 1.06663E-03 1.22198E-13-1.64824E-13
 -1      3947 2.00043E+01 2.70394E-03 3.80792E-06 6.50260E-04 6.20833E-14 1.79609E-14
 -1      3948 2.00035E+01 5.81709E-04 6.14284E-06 1.13018E-03 8.63738E-14-2.00078E-13
 -1      3949 2.00032E+01 7.56757E-05-2.80556E-06 1.21314E-03 8.63698E-14-3.27472E-13
 -1      3950 2.00039E+01 1.00716E-03-1.11341E-06 8.77398E-04-1.36654E-15-1.49480E-13
 -1      3951 2.00029E+01-3.13520E-04 5.00446E-06 1.22008E-03 2.48927E-13-2.92913E-13
 -1      3952 2.00027E+01-6.19342E-04-1.72589E-07 1.23603E-03 2.66075E-13-1.41881E-13
 -1      3953 2.00033E+01-8.20812E-05-3.99527E-06 9.67182E-04 1.26373E-13-3.17868E-13
 -1      3954 2.00024E+01-8.47383E-04 4.09370E-06 1.20731E-03 2.24543E-13-1.83179E-13
 -1      3955 2.00021E+01-1.02228E-03 6.48996E-07 1.17945E-03 1.42269E-13-1.64103E-13
 -1      3956 2.00027E+01-7.46201E-04-5.32866E-06 9.72753E-04 1.60189E-13-2.17485E-13
 -1      3957 1.99742E+01 8.78564E-02-3.66281E-04 3.87264E-02-1.34004E-13-5.34795E-14
 -1      3958 1.99676E+01 1.02245E-01-5.51202E-05 4.62177E-02-2.30416E-13-2.07339E-14
 -1      3959 1.99545E+01 1.17757E-01 4.82179E-04 4.04570E-02-2.92454E-13-6.51035E-14
 -1      3960 2.34584E+01-1.21254E+00 1.42344E-02-5.90929E-02 3.74421E-14-1.22407E-13
 -1      3961 1.99286E+01 1.57618E-01-6.00031E-04 6.80177E-02 9.41564E-15-2.48510E-13
 -1      3962 1.99129E+01 1.81234E-01-3.26697E-04 7.87734E-02-5.24064E-15-1.63350E-13
 -1      3963 1.99273E+01 1.56235E-01 7.02923E-04 5.18203E-02-2.08034E-13-1.34257E-13
 -1      3964 1.99870E+01 6.33316E-02-2.73161E-04 2.73732E-02-1.29156E-13-2.25523E-14
 -1      3965 1.99826E+01 7.48429E-02 2.33851E-06 3.35317E-02-2.44314E-14 3.23791E-14
 -1      3966 1.99736E+01 8.70281E-02 3.51952E-04 3.02682E-02-1.51502E-13-4.01295E-14
 -1      3967 1.99948E+01 4.56060E-02-1.98926E-04 1.89758E-02-1.36940E-13-1.92078E-13
 -1      3968 1.99923E+01 5.39417E-02 3.33370E-05 2.34754E-02-1.16115E-13-8.65977E-14
 -1      3969 1.99863E+01 6.32606E-02 2.41774E-04 2.17462E-02-2.75507E-15-8.25991E-14
 -1      3970 1.99996E+01 3.21950E-02-1.47555E-04 1.25848E-02-7.57345E-14-3.90159E-13
 -1      3971 1.99983E+01 3.84953E-02 4.43035E-05 1.59550E-02-1.08066E-13-3.15052E-13
 -1      3972 1.99944E+01 4.55000E-02 1.42745E-04 1.51671E-02-2.33239E-14-3.25995E-13
 -1      3973 2.00025E+01 2.21894E-02-1.06697E-04 7.86039E-03-1.73266E-13-3.10258E-13
 -1      3974 2.00018E+01 2.68799E-02 4.31954E-05 1.03273E-02-1.21637E-13-3.54464E-13
 -1      3975 1.99995E+01 3.20966E-02 9.08837E-05 1.00955E-02-1.48948E-13-3.74888E-13
 -1      3976 2.00040E+01 1.48134E-02-7.45455E-05 4.47042E-03-9.74087E-14-5.31238E-13
 -1      3977 2.00037E+01 1.82582E-02 3.90253E-05 6.22337E-03-1.47041E-13-4.77347E-13
 -1      3978 2.00025E+01 2.20759E-02 5.81891E-05 6.31364E-03-4.93703E-14-4.10297E-13
 -1      3979 2.00046E+01 9.46885E-03-5.00970E-05 2.11891E-03 2.18738E-14-5.04633E-13
 -1      3980 2.00046E+01 1.19539E-02 3.29783E-05 3.32551E-03-3.44081E-14-5.95030E-13
 -1      3981 2.00041E+01 1.46780E-02 3.41066E-05 3.58825E-03 6.24300E-15-5.97397E-13
 -1      3982 2.00046E+01 5.67342E-03-3.21279E-05 5.50163E-04-1.99001E-13-3.75441E-13
 -1      3983 2.00048E+01 7.42813E-03 2.67313E-05 1.34881E-03-7.57070E-14-4.72736E-13
 -1      3984 2.00048E+01 9.32099E-03 1.75774E-05 1.69224E-03-9.10519E-14-2.84342E-13
 -1      3985 2.00043E+01 3.03993E-03-1.99319E-05-4.45016E-04-1.63222E-14-4.65429E-13
 -1      3986 2.00046E+01 4.24944E-03 2.07300E-05 5.72716E-05-7.43149E-14-3.37671E-13
 -1      3987 2.00048E+01 5.52394E-03 6.96248E-06 4.24258E-04-1.63002E-13-1.70121E-13
 -1      3988 2.00038E+01 1.20233E-03-1.07868E-05-1.04895E-03 2.22551E-13-2.39943E-13
 -1      3989 2.00041E+01 2.03295E-03 1.55798E-05-7.51276E-04 6.49751E-14-3.87107E-13
 -1      3990 2.00045E+01 2.85348E-03 1.29320E-06-3.91488E-04-5.22798E-14-4.09500E-13
 -1      3991 2.00032E+01 8.97504E-05-4.11419E-06-1.33322E-03 2.70227E-13-1.01281E-13
 -1      3992 2.00035E+01 5.90086E-04 1.17313E-05-1.19470E-03 3.14637E-13-2.19375E-13
 -1      3993 2.00040E+01 1.07369E-03-3.81895E-06-8.66286E-04 1.95482E-13-2.24631E-13
 -1      3994 2.00026E+01-5.92897E-04-4.25882E-07-1.43323E-03 1.78736E-13-2.48109E-13
 -1      3995 2.00029E+01-2.91357E-04 8.29846E-06-1.38980E-03 2.71420E-13-1.22987E-13
 -1      3996 2.00034E+01-2.67018E-05-5.55891E-06-1.09609E-03 2.44934E-13-2.70085E-13
 -1      3997 2.00020E+01-9.77665E-04 4.76685E-06-1.41509E-03 1.84834E-13-5.30444E-13
 -1      3998 2.00023E+01-8.13264E-04 5.69641E-06-1.42951E-03 1.60616E-13-4.30586E-13
 -1      3999 2.00027E+01-6.96831E-04-7.06065E-06-1.17483E-03 2.52645E-13-5.66509E-13
 -1      4000 2.00017E+01-1.14401E-03 2.65015E-06-1.27430E-03 2.31123E-13-5.42241E-13
 -1      4001 2.00019E+01-1.06788E-03-2.73163E-07-1.34843E-03 1.36700E-13-5.66463E-13
 -1      4002 2.00023E+01-1.03982E-03-7.03519E-06-1.12126E-03 1.88847E-13-8.59985E-13
 -1      4003 2.00019E+01-1.18849E-03-2.34966E-06-1.02009E-03 8.44248E-14-6.70276E-13
 -1      4004 1.98891E+01 2.07697E-01-7.41310E-04 8.57312E-02-1.67577E-13-5.45204E-14
 -1      4005 1.98655E+01 2.37573E-01-6.05126E-04 9.77033E-02-6.95437E-14-7.68639E-14
 -1      4006 1.98883E+01 2.04799E-01 1.00604E-03 6.35797E-02-9.12424E-17-6.78934E-14
 -1      4007 1.98322E+01 2.71034E-01-8.99922E-04 1.03837E-01-1.08521E-14-8.20986E-14
 -1      4008 1.97971E+01 3.08419E-01-1.07678E-03 1.16078E-01-2.10472E-14-8.24761E-14
 -1      4009 1.98331E+01 2.65437E-01 1.42162E-03 7.38462E-02-9.21845E-14-2.03648E-13
 -1      4010 2.00018E+01-1.36354E-03-4.74817E-07-3.72982E-04-1.75155E-13 2.90491E-13
 -1      4011 2.00017E+01-1.34497E-03-1.06120E-06-6.45965E-04-8.17157E-15 3.79281E-14
 -1      4012 2.00019E+01-1.28022E-03 6.66692E-07-7.23363E-04 5.81110E-14-2.08720E-13
 -1      4013 2.00021E+01-1.28158E-03 1.26172E-06-2.25315E-04-1.52097E-13 2.05491E-13
 -1      4014 1.84813E+01 1.04330E+00 2.16994E-04-1.83663E-01 1.19987E-13 1.12942E-13
 -1      4015 1.81579E+01 1.11799E+00-1.45522E-02-2.92903E-01 9.13622E-14 1.46792E-13
 -1      4016 1.86386E+01 9.27006E-01 8.66742E-03-3.34920E-01 1.77896E-13 1.40720E-13
 -1      4017 2.19890E+01-1.80900E+00 7.98985E-03-1.00240E+00 1.78501E-13-1.10274E-13
 -1      4018 2.15248E+01-1.55913E+00 2.65314E-03-1.06844E+00 2.29987E-13-2.28292E-14
 -1      4019 2.18045E+01-1.96544E+00-2.27705E-02-1.46071E+00 2.46350E-13-1.17568E-13
 -1      4020 2.43827E+01-1.28908E+00-1.70639E-02-6.10399E-01-3.22182E-14-6.07563E-14
 -1      4021 1.70555E+01 9.94137E-02-9.92122E-03-2.91230E+00 3.96177E-13 3.05236E-13
 -1      4022 1.97498E+01 3.51557E-01-1.01081E-03 1.19471E-01-4.87440E-14-1.48532E-13
 -1      4023 1.96964E+01 3.99217E-01-1.72847E-03 1.30125E-01-5.18113E-17-2.90935E-13
 -1      4024 1.97544E+01 3.41158E-01 1.99580E-03 7.93116E-02-9.43047E-14-1.27676E-13
 -1      4025 2.11886E+01-1.30339E+00 1.02694E-02-1.10360E+00 2.82073E-13 1.72887E-15
 -1      4026 2.35591E+01-1.42557E+00-2.77499E-02 1.85638E-01 3.07007E-14-1.12209E-13
 -1      4027 2.39101E+01-1.41882E+00 2.16320E-02-1.37101E-01 2.14470E-14-1.06653E-13
 -1      4028 1.62342E+01 1.59571E+00 2.35462E-02-7.82822E-01 2.61147E-13-2.86464E-14
 -1      4029 2.02751E+01-1.49656E+00-8.57735E-03-2.59700E+00 3.25334E-13-8.38002E-14
 -1      4030 2.12157E+01-1.99951E+00-5.85844E-03-2.38504E+00 2.75935E-13-1.68330E-13
 -1      4031 2.16809E+01-1.99278E+00 1.49752E-02-1.87685E+00 2.15556E-13-1.57981E-13
 -1      4032 1.85870E+01-3.39950E-01 3.24335E-02-2.64238E+00 3.81874E-13 1.67647E-13
 -1      4033 1.92416E+01-8.01812E-01-1.42554E-02-2.59368E+00 3.95713E-13 7.28702E-14
 -1      4034 1.78899E+01 1.18917E+00 4.62437E-04-4.78618E-01 5.05810E-14 1.61949E-14
 -1      4035 1.74563E+01 1.24028E+00-1.74627E-02-6.70509E-01 8.86825E-14 2.76181E-14
 -1      4036 1.81545E+01 1.03030E+00 1.31581E-02-6.68008E-01 1.50662E-14-5.63149E-14
 -1      4037 1.96324E+01 4.50772E-01-1.32555E-03 1.27522E-01 7.65158E-14-2.71810E-13
 -1      4038 1.95561E+01 5.07637E-01-2.89962E-03 1.32218E-01 1.37172E-13-3.04467E-13
 -1      4039 1.96449E+01 4.33647E-01 2.99521E-03 7.36660E-02 1.28387E-14-2.00383E-13
 -1      4040 2.00019E+01-1.14690E-03 1.31788E-06 1.02449E-03 9.21242E-14-3.08413E-13
 -1      4041 1.94569E+01 6.29126E-01 5.16988E-03 2.07608E-01 7.08327E-14-4.68004E-13
 -1      4042 2.07895E+01-1.17148E+00-1.55841E-02-1.34569E+00 2.57774E-13-5.69145E-14
 -1      4043 2.00024E+01-1.14450E-03-1.23880E-06 5.01252E-04 1.75312E-13-2.20981E-13
 -1      4044 2.00024E+01-1.16355E-03-5.00397E-07 2.02500E-04 4.35049E-14-7.70112E-14
 -1      4045 1.92342E+01 7.16458E-01-1.12639E-03 7.81506E-02 1.18901E-13-2.91445E-13
 -1      4046 1.90737E+01 7.92416E-01-6.78815E-03 5.26345E-02-1.85122E-14-1.53390E-13
 -1      4047 1.90074E+01 7.98605E-01 6.39975E-03-1.31798E-01 1.17691E-13-7.11581E-14
 -1      4048 1.94293E+01-6.36485E-01-9.02271E-03-2.18182E+00 3.92074E-13 1.01353E-14
 -1      4049 1.98569E+01-1.03905E+00 1.71265E-02-2.43976E+00 3.91092E-13-3.43831E-14
 -1      4050 2.03628E+01-1.31553E+00-2.20477E-02-2.17261E+00 3.48914E-13-1.26114E-13
 -1      4051 2.00022E+01-1.11876E-03-1.53401E-06 8.02057E-04 8.77756E-14-3.96056E-13
 -1      4052 2.00026E+01-9.84616E-04 4.43903E-06 6.59647E-04 1.56115E-13-3.94734E-13
 -1      4053 1.69526E+01 6.03831E-01 3.70593E-02-2.38578E+00 3.54087E-13 2.31819E-13
 -1      4054 1.77847E+01-3.66103E-02-2.59375E-02-2.63158E+00 3.43499E-13 2.70351E-13
 -1      4055 1.82563E+01-8.72627E-04-1.24415E-02-2.26856E+00 3.31753E-13 2.05298E-13
 -1      4056 1.70611E+01 8.09732E-01-2.93352E-05-1.87654E+00 2.60988E-13 6.23247E-14
 -1      4057 1.98370E+01 2.46163E-01-5.24516E-04 4.37221E-02-1.47007E-13 3.12389E-14
 -1      4058 1.98025E+01 2.77392E-01-1.41679E-03 4.59518E-02-9.68298E-14 3.70806E-14
 -1      4059 1.68202E+01 1.38949E+00 3.28874E-03-9.01487E-01 1.57300E-13 6.79335E-14
 -1      4060 1.99729E+01 8.19293E-02-2.11481E-04 2.07940E-02-1.08407E-13-2.01491E-13
 -1      4061 1.99646E+01 9.57053E-02-2.13862E-04 2.50377E-02-2.27763E-13-2.43010E-13
 -1      4062 1.99537E+01 1.10686E-01-3.59405E-04 2.74887E-02-2.19533E-13-2.80463E-13
 -1      4063 1.99423E+01 1.27538E-01-3.11721E-04 3.22061E-02-2.73647E-13-1.51164E-13
 -1      4064 1.99562E+01 1.07878E-01 7.61579E-04 1.78546E-02-2.46167E-13-4.61678E-13
 -1      4065 1.97752E+01-1.31675E-01 9.10256E-03-1.02623E+00 2.53882E-13 4.04525E-14
 -1      4066 1.96644E+01-1.12725E-02-3.18459E-03-9.08544E-01 2.20562E-13 6.19468E-14
 -1      4067 1.96695E+01 9.35634E-02 7.67520E-03-7.62946E-01 2.08536E-13 1.65305E-14
 -1      4068 1.96185E+01 1.61472E-01-1.66020E-03-6.63819E-01 1.68193E-13 7.38149E-14
 -1      4069 1.94816E+01 1.46643E-01-1.13592E-03-8.76763E-01 2.09212E-13-1.62326E-13
 -1      4070 1.96428E+01 2.17111E-01 4.48581E-03-5.55421E-01 1.23379E-13 2.25328E-14
 -1      4071 1.96282E+01 2.50049E-01-2.00537E-03-4.75741E-01 3.11895E-14 3.19091E-14
 -1      4072 1.95049E+01 2.71742E-01-1.11616E-04-6.14302E-01 1.59636E-13-1.59821E-13
 -1      4073 1.96660E+01 2.73373E-01 3.11508E-03-3.95816E-01 3.45664E-14 1.09620E-13
 -1      4074 1.96700E+01 2.82130E-01-1.98533E-03-3.35049E-01 3.50465E-14 9.03896E-14
 -1      4075 1.95605E+01 3.24378E-01-2.05262E-04-4.20929E-01 9.94249E-14 2.13219E-14
 -1      4076 1.97108E+01 2.85380E-01 2.09453E-03-2.78533E-01-7.51659E-14 1.09999E-13
 -1      4077 1.97227E+01 2.78995E-01-2.36809E-03-2.33865E-01-1.11066E-14-1.87610E-14
 -1      4078 1.96343E+01 3.30561E-01 7.49872E-04-2.84665E-01-2.79932E-14 1.09920E-13
 -1      4079 1.97627E+01 2.71076E-01 1.45843E-03-1.93097E-01-5.35413E-14-1.74204E-13
 -1      4080 1.97786E+01 2.56402E-01-1.90148E-03-1.61040E-01-1.43470E-13-1.85536E-13
 -1      4081 1.97057E+01 3.13004E-01 1.95192E-03-1.89719E-01-1.52365E-13-1.64566E-13
 -1      4082 1.98129E+01 2.42320E-01 8.32427E-04-1.33200E-01-1.94870E-13-1.66588E-13
 -1      4083 1.98297E+01 2.24313E-01-1.45611E-03-1.10249E-01-7.14078E-14-2.50744E-13
 -1      4084 1.97730E+01 2.78010E-01 2.34803E-03-1.25338E-01-2.00315E-13-2.28502E-13
 -1      4085 1.98578E+01 2.07736E-01 4.63423E-04-9.13739E-02 2.20597E-14-2.36789E-13
 -1      4086 1.98733E+01 1.89185E-01-1.07372E-03-7.49699E-02 1.14931E-14-2.55447E-13
 -1      4087 1.98295E+01 2.36976E-01 2.02837E-03-8.17508E-02-4.13252E-14-2.12117E-13
 -1      4088 1.98957E+01 1.72280E-01 2.18657E-04-6.23419E-02 2.40691E-14-2.48263E-13
 -1      4089 1.99090E+01 1.54812E-01-7.91921E-04-5.06746E-02 1.09748E-14-1.29191E-13
 -1      4090 1.98757E+01 1.95798E-01 1.61940E-03-5.27966E-02 5.41536E-14-2.85314E-13
 -1      4091 1.99262E+01 1.39075E-01 8.94325E-05-4.22849E-02 1.49990E-14 3.74417E-14
 -1      4092 1.99371E+01 1.23507E-01-5.59229E-04-3.39626E-02 1.82817E-13 1.32679E-13
 -1      4093 1.99123E+01 1.57714E-01 1.24335E-03-3.37995E-02 1.03406E-13-1.00326E-13
 -1      4094 1.99500E+01 1.09531E-01 1.12467E-05-2.84049E-02 7.37091E-14 2.08741E-14
 -1      4095 1.99587E+01 9.62099E-02-3.55551E-04-2.24601E-02-1.31368E-14-2.92054E-14
 -1      4096 1.99403E+01 1.24117E-01 8.75106E-04-2.14758E-02 3.66360E-14 8.94191E-14
 -1      4097 1.99680E+01 8.44077E-02-2.62802E-06-1.90062E-02-1.22785E-13-1.19251E-13
 -1      4098 1.99744E+01 7.33958E-02-2.33112E-04-1.46441E-02-1.51192E-13-2.17280E-13
 -1      4099 1.99610E+01 9.43493E-02 1.29584E-04-1.31532E-02-1.74529E-13-2.65937E-13
 -1      4100 1.99812E+01 6.34668E-02-1.38561E-05-1.24581E-02-2.15250E-13-2.49056E-13
 -1      4101 1.99857E+01 5.46071E-02-1.99186E-04-9.46736E-03-2.30944E-13-3.11311E-13
 -1      4102 1.99766E+01 7.13193E-02 1.69819E-04-8.28731E-03-2.97249E-13-3.26713E-13
 -1      4103 1.99905E+01 4.67832E-02 5.95389E-06-7.91848E-03-1.87922E-13-1.81287E-13
 -1      4104 1.99935E+01 3.96618E-02-1.60797E-04-5.85373E-03-2.48728E-13-1.48051E-13
 -1      4105 1.99876E+01 5.30662E-02 2.58514E-04-4.93642E-03-1.27729E-13-4.05689E-13
 -1      4106 1.99967E+01 3.35923E-02-1.74121E-05-4.84468E-03-1.80019E-13-8.91201E-14
 -1      4107 1.99987E+01 2.81494E-02-8.95553E-05-3.35953E-03 5.87875E-14-6.15661E-14
 -1      4108 1.99948E+01 3.84827E-02 1.85240E-04-2.81625E-03-6.01016E-14 1.49062E-14
 -1      4109 2.00007E+01 2.34172E-02-2.02848E-05-2.76659E-03 9.15658E-14-2.50752E-13
 -1      4110 2.00019E+01 1.93054E-02-5.87324E-05-1.74521E-03 1.33909E-13-1.36421E-13
 -1      4111 1.99997E+01 2.70277E-02 1.47302E-04-1.49825E-03-8.36817E-15-2.90563E-13
 -1      4112 2.00030E+01 1.57691E-02-1.26282E-05-1.38520E-03-3.44052E-14-1.46203E-13
 -1      4113 2.00037E+01 1.27290E-02-3.63411E-05-6.93191E-04-1.53981E-13-1.24684E-13
 -1      4114 2.00026E+01 1.83778E-02 9.41500E-05-6.77563E-04 4.54645E-14-1.74283E-13
 -1      4115 2.00043E+01 1.01402E-02-6.82659E-06-4.84759E-04-2.05319E-13-1.26454E-13
 -1      4116 2.00045E+01 7.94576E-03-2.08098E-05-2.69671E-05-7.65886E-14-6.57654E-14
 -1      4117 2.00041E+01 1.19820E-02 5.41320E-05-1.64896E-04-1.48211E-13-2.11474E-13
 -1      4118 2.00047E+01 6.09692E-03-2.73481E-06 8.31954E-05 6.21238E-14 6.19604E-14
 -1      4119 2.00047E+01 4.55521E-03-9.91525E-06 3.74532E-04 6.87036E-14 7.91883E-14
 -1      4120 2.00048E+01 7.36260E-03 2.63568E-05 1.42434E-04-2.71210E-14-1.06681E-13
 -1      4121 2.00046E+01 3.27306E-03-4.53903E-08 4.20050E-04-5.68845E-14 2.90038E-14
 -1      4122 2.00045E+01 2.22475E-03-3.00555E-06 5.95282E-04-5.66349E-14-1.52258E-13
 -1      4123 2.00048E+01 4.10713E-03 6.96536E-06 3.14093E-04-1.12130E-14-1.18620E-13
 -1      4124 2.00042E+01 1.36467E-03 1.73434E-06 6.01591E-04-3.70577E-14-2.87044E-13
 -1      4125 2.00040E+01 6.79570E-04 1.00797E-06 6.95294E-04-4.60260E-14-2.64463E-13
 -1      4126 2.00045E+01 1.89087E-03-3.92366E-06 4.00291E-04-5.86355E-14-1.12656E-13
 -1      4127 2.00037E+01 1.25529E-04 2.24384E-06 6.79166E-04 9.96756E-14-2.48892E-13
 -1      4128 2.00034E+01-2.97105E-04 2.26191E-06 7.11925E-04 1.59014E-13-3.74764E-13
 -1      4129 2.00040E+01 4.42471E-04-6.58164E-06 4.33117E-04 5.88143E-14-1.18554E-13
 -1      4130 2.00031E+01-5.58403E-04 4.10311E-06 6.87620E-04 1.79568E-13-3.29047E-13
 -1      4131 2.00028E+01-8.26958E-04 9.58162E-08 6.85217E-04 9.57220E-14-3.73443E-13
 -1      4132 2.00029E+01-8.48744E-04-4.48169E-06 3.97844E-04 1.49115E-13 4.22448E-14
 -1      4133 2.00034E+01-3.87443E-04-6.43531E-06 4.23262E-04 2.31510E-13 1.01964E-13
 -1      4134 1.99854E+01 6.00061E-02-1.82335E-04 1.52519E-02 1.41991E-14-1.03175E-13
 -1      4135 1.99803E+01 7.02954E-02-9.87808E-05 1.86385E-02-8.24013E-14-2.00496E-13
 -1      4136 1.99743E+01 7.99803E-02 4.78173E-04 1.40507E-02-1.51986E-13-3.34700E-13
 -1      4137 1.99271E+01 1.46275E-01-4.41550E-04 3.43545E-02-2.98380E-13-9.23982E-14
 -1      4138 1.99105E+01 1.67290E-01-5.30894E-04 3.92230E-02-9.20385E-14-7.30065E-14
 -1      4139 1.99315E+01 1.42268E-01 1.20604E-03 2.10392E-02-1.38158E-13-3.24598E-13
 -1      4140 1.88347E+01 7.74317E-01 2.23450E-03-4.20145E-01 1.76442E-13-8.40734E-14
 -1      4141 1.86046E+01 8.01372E-01-1.28290E-02-5.58675E-01 1.12137E-13-1.43022E-13
 -1      4142 1.99937E+01 4.32457E-02-1.47435E-04 1.06302E-02-1.18441E-13-2.40314E-13
 -1      4143 1.99905E+01 5.11910E-02-1.40306E-05 1.34417E-02 3.93353E-14-2.04080E-13
 -1      4144 1.99861E+01 5.83672E-02 1.68569E-04 1.04261E-02-2.77118E-14-2.55456E-13
 -1      4145 1.99990E+01 3.04233E-02-1.25469E-04 7.09154E-03-1.73195E-13-2.33400E-13
 -1      4146 1.99971E+01 3.64166E-02 6.28831E-06 9.22147E-03-1.07456E-13-2.48487E-13
 -1      4147 1.99940E+01 4.17453E-02-1.00197E-05 7.50639E-03-1.00056E-14-2.85866E-13
 -1      4148 2.00022E+01 2.08095E-02-9.34256E-05 4.39223E-03 1.13915E-13-4.30289E-13
 -1      4149 2.00012E+01 2.53140E-02 1.67221E-05 5.94913E-03 5.90568E-15-2.83273E-13
 -1      4150 1.99994E+01 2.97937E-02 1.59473E-04 5.02168E-03-1.20833E-13-4.41340E-13
 -1      4151 2.00040E+01 1.37404E-02-6.42639E-05 2.45048E-03-1.99711E-14-4.38804E-13
 -1      4152 2.00035E+01 1.70462E-02 2.02198E-05 3.56853E-03-2.57933E-14-4.41201E-13
 -1      4153 2.00026E+01 2.03320E-02 1.11885E-04 3.17926E-03 2.78499E-14-3.57327E-13
 -1      4154 2.00047E+01 8.63389E-03-4.22554E-05 1.09811E-03-1.50209E-13-9.77257E-14
 -1      4155 2.00047E+01 1.10108E-02 2.08522E-05 1.87524E-03-2.79014E-14-2.59627E-13
 -1      4156 2.00042E+01 1.33544E-02 6.60343E-05 1.81205E-03-1.04130E-13-2.76887E-13
 -1      4157 2.00049E+01 5.02329E-03-2.66259E-05 1.94168E-04-3.52722E-14-3.56068E-13
 -1      4158 2.00050E+01 6.69510E-03 1.92549E-05 7.16075E-04-1.16516E-13-2.36305E-13
 -1      4159 2.00049E+01 8.31794E-03 3.32200E-05 8.44967E-04-1.07055E-15-3.88505E-13
 -1      4160 2.00046E+01 2.44115E-03-1.47850E-05-3.93628E-04-1.75844E-14-4.29262E-13
 -1      4161 2.00048E+01 3.61743E-03 1.61760E-05-5.55155E-05-4.24949E-14-4.85333E-13
 -1      4162 2.00050E+01 4.70012E-03 1.11632E-05 1.81026E-04 9.95001E-14-6.02689E-13
 -1      4163 2.00041E+01 8.27717E-04-6.76457E-06-7.08586E-04 3.24942E-13-4.09878E-13
 -1      4164 2.00044E+01 1.56051E-03 1.39565E-05-5.21802E-04 1.29800E-13-4.21553E-13
 -1      4165 2.00046E+01 2.23497E-03-3.53279E-06-2.39539E-04 5.84054E-14-5.39723E-13
 -1      4166 2.00034E+01-1.95217E-04 4.20171E-07-8.58600E-04 1.73463E-13-2.92662E-13
 -1      4167 2.00038E+01 2.59464E-04 1.10516E-05-7.66835E-04 3.38685E-13-3.34858E-13
 -1      4168 2.00041E+01 6.61014E-04-9.80982E-06-4.75483E-04 1.75893E-13-4.63717E-13
 -1      4169 2.00028E+01-8.15573E-04-1.91888E-07-9.00400E-04 3.36866E-13-4.81600E-13
 -1      4170 2.00031E+01-5.47960E-04 4.63110E-06-8.75215E-04 2.51485E-13-3.21375E-13
 -1      4171 2.00034E+01-3.28663E-04-6.39517E-06-5.80866E-04 2.61975E-13-3.97283E-13
 -1      4172 1.98892E+01 1.91336E-01-4.96547E-04 4.04807E-02-3.08715E-14 2.86637E-14
 -1      4173 1.98650E+01 2.17207E-01-8.75213E-04 4.47144E-02-7.51723E-14 2.78534E-14
 -1      4174 1.98471E+01 2.37507E-01 2.20758E-03 1.98675E-02-1.28354E-13-9.05444E-15
 -1      4175 1.94678E+01 5.72132E-01-1.19367E-03 1.18428E-01 8.05543E-14-3.92230E-13
 -1      4176 1.93541E+01 6.40725E-01-4.45185E-03 1.12383E-01 7.87995E-14-3.16728E-13
 -1      4177 1.92872E+01 6.66510E-01 5.37219E-03-1.32423E-02 1.29535E-13-2.53877E-13
 -1      4178 1.94950E+01 5.43424E-01 4.55264E-03 4.88199E-02 7.97205E-14-2.48650E-13
 -1      4179 2.11802E+01-1.61712E+00 1.94056E-02-1.82241E+00 2.56743E-13-1.28540E-13
 -1      4180 2.00027E+01-1.03194E-03 3.67092E-06 1.00413E-04 1.14642E-13 2.02447E-13
 -1      4181 2.00024E+01-1.18244E-03-2.55357E-07-7.38291E-05-7.21588E-14 2.94447E-13
 -1      4182 2.00024E+01-1.19167E-03-3.25481E-06-3.20943E-04-5.13052E-14 3.07266E-13
 -1      4183 1.97643E+01 3.13550E-01-4.27261E-04 4.05457E-02-6.94751E-14-8.70750E-16
 -1      4184 1.97143E+01 3.51443E-01-2.11034E-03 3.81511E-02-3.37263E-14 2.02679E-14
 -1      4185 1.97805E+01 2.99557E-01 2.82581E-03 9.27168E-03-7.75007E-14 1.14475E-13
 -1      4186 2.00108E+01-4.92885E-01 6.59625E-03-1.32821E+00 2.49371E-13-4.57286E-14
 -1      4187 1.98279E+01-2.87504E-01 2.45980E-03-1.19996E+00 3.03260E-13-4.69731E-15
 -1      4188 1.95511E+01-1.06292E-01-5.19075E-03-1.21202E+00 3.09157E-13 9.95818E-15
 -1      4189 1.72568E+01 1.17559E+00 2.39852E-02-1.15656E+00 1.39428E-13-3.47684E-14
 -1      4190 2.06836E+01-1.25765E+00 4.49842E-03-1.75992E+00 3.16201E-13-9.16467E-14
 -1      4191 2.02001E+01-7.97710E-01 1.26891E-02-1.63323E+00 2.86457E-13-5.18568E-14
 -1      4192 1.98960E+01 1.85229E-01 1.64253E-03 2.24808E-02-2.93444E-14-3.32523E-14
 -1      4193 1.87206E+01 6.55912E-01 4.60351E-03-8.34749E-01 7.13530E-14-1.87192E-13
 -1      4194 1.84822E+01 8.21788E-01 7.73397E-03-7.44897E-01-1.51279E-14-1.29955E-13
 -1      4195 1.81721E+01 8.22876E-01-1.23313E-02-9.75340E-01 2.11999E-14-2.00126E-13
 -1      4196 1.96653E+01 3.92597E-01-4.31145E-04 2.55118E-02-4.81903E-14-1.01817E-13
 -1      4197 1.95994E+01 4.36098E-01-2.48053E-03 1.50002E-02-3.50258E-14-1.27366E-13
 -1      4198 1.96902E+01 3.71104E-01 3.22704E-03-1.52471E-02-1.14296E-13 7.23750E-14
 -1      4199 1.76597E+01 7.81562E-01-8.13039E-03-1.49100E+00 2.13102E-13-2.99114E-14
 -1      4200 1.89591E+01 7.31830E-01-6.91346E-03-2.96179E-01 2.10623E-13-8.81991E-14
 -1      4201 1.89947E+01 6.50778E-01 9.47314E-04-4.95815E-01 2.22431E-13-1.98596E-13
 -1      4202 1.91263E+01 6.85785E-01 8.63826E-04-2.13163E-01 1.95553E-13-2.20732E-13
 -1      4203 2.00026E+01-9.86008E-04 3.07576E-06-6.76680E-04 2.32021E-13-2.68742E-13
 -1      4204 2.00029E+01-8.74729E-04-7.53768E-07-3.97095E-04 2.71605E-13-8.12459E-14
 -1      4205 2.00021E+01-1.19832E-03 4.99893E-06-7.78257E-04 2.39249E-14-2.35785E-13
 -1      4206 1.91715E+01-2.41517E-01 2.39683E-02-1.96639E+00 3.36973E-13 9.75843E-14
 -1      4207 1.96115E+01-5.33204E-01 4.44254E-04-1.85943E+00 3.31262E-13 8.79190E-15
 -1      4208 2.00030E+01-8.58417E-04-2.68700E-06 1.37178E-04 1.87390E-13 7.39163E-14
 -1      4209 2.00029E+01-8.78919E-04-7.25554E-06-1.25517E-04 1.17612E-13 1.37205E-13
 -1      4210 2.00032E+01-6.55110E-04 6.62216E-06-3.72265E-04 2.71876E-13-2.27593E-13
 -1      4211 2.00032E+01-6.41114E-04 7.85883E-06 1.56284E-04 2.71535E-13 9.29105E-14
 -1      4212 1.99754E+01 7.38732E-02-6.77400E-05 6.61162E-03-2.29081E-13-2.60963E-13
 -1      4213 1.99672E+01 8.53675E-02-3.78357E-04 8.42114E-03-2.10473E-13-3.53681E-13
 -1      4214 1.93613E+01 3.59680E-01 3.10859E-04-6.30537E-01 2.00552E-13-1.36481E-13
 -1      4215 1.93838E+01 3.88404E-01-4.33786E-03-5.10978E-01 1.72354E-13-1.44664E-13
 -1      4216 1.94632E+01 3.97707E-01 2.42184E-03-4.15763E-01 1.30733E-13-7.64580E-14
 -1      4217 1.94939E+01 3.95968E-01-3.05258E-03-3.36173E-01 1.34463E-13 8.79787E-15
 -1      4218 1.93327E+01 4.72218E-01-4.90388E-04-4.17389E-01 2.04788E-13-7.64242E-14
 -1      4219 1.95634E+01 3.87394E-01 2.03149E-03-2.68181E-01-2.31006E-14-6.93223E-14
 -1      4220 1.95950E+01 3.72267E-01-2.36321E-03-2.14239E-01-8.84343E-14-7.46560E-14
 -1      4221 1.94709E+01 4.52662E-01 1.80794E-03-2.56932E-01 5.88312E-14-1.92549E-13
 -1      4222 1.96389E+01 3.71579E-01 8.65866E-05-1.33582E-01-1.06489E-13-7.64461E-14
 -1      4223 1.96747E+01 3.45276E-01-2.88764E-03-9.88662E-02-1.46486E-13-1.66952E-13
 -1      4224 1.97267E+01 3.14774E-01-9.47720E-04-7.80772E-02-1.42408E-13-1.02516E-13
 -1      4225 1.97581E+01 2.89426E-01-2.53638E-03-5.33505E-02-9.79467E-14-6.11166E-14
 -1      4226 1.97988E+01 2.60451E-01-1.11471E-03-4.23776E-02-1.42937E-13-5.91545E-14
 -1      4227 1.98255E+01 2.36382E-01-1.91216E-03-2.62168E-02-8.57546E-14-5.59736E-14
 -1      4228 1.98552E+01 2.11128E-01-1.03860E-03-2.14476E-02-4.30564E-14-1.20704E-13
 -1      4229 1.98768E+01 1.89573E-01-1.36482E-03-1.10382E-02 8.05102E-14-1.03105E-13
 -1      4230 1.98992E+01 1.67257E-01-8.61676E-04-9.45590E-03 1.31466E-13-1.93399E-13
 -1      4231 1.99161E+01 1.48617E-01-9.52760E-04-2.89650E-03 1.25787E-14-2.08584E-13
 -1      4232 1.99320E+01 1.30424E-01-6.61352E-04-3.08750E-03-8.93992E-14-2.78494E-13
 -1      4233 1.99449E+01 1.14822E-01-5.83041E-04 9.43600E-04-1.22345E-13-3.60826E-13
 -1      4234 1.99706E+01 8.10285E-02 1.57897E-04-4.84748E-03-2.93359E-13-4.27276E-13
 -1      4235 1.99766E+01 6.97691E-02-2.46126E-04-3.27645E-03-3.53492E-13-3.33178E-13
 -1      4236 1.99850E+01 5.72759E-02 5.63927E-05-1.43089E-03-1.04676E-13-2.59500E-13
 -1      4237 1.99890E+01 4.85520E-02-2.25393E-04-2.61190E-04 7.12223E-14-1.12058E-13
 -1      4238 1.99940E+01 4.00162E-02-5.70887E-05 1.55700E-03-6.09920E-14-2.15090E-13
 -1      4239 1.99969E+01 3.35562E-02-9.38175E-05 2.04074E-03-6.30194E-14-1.44710E-13
 -1      4240 1.99990E+01 2.79956E-02-1.26221E-04 1.18233E-03-5.78266E-14-2.38294E-13
 -1      4241 2.00010E+01 2.32257E-02-6.59170E-05 1.51617E-03-4.08463E-14-2.98170E-13
 -1      4242 2.00022E+01 1.90667E-02-9.07371E-05 8.39726E-04 2.35704E-14-2.96560E-13
 -1      4243 2.00034E+01 1.55267E-02-3.74656E-05 1.05146E-03-1.06523E-14-3.27124E-13
 -1      4244 2.00040E+01 1.24821E-02-5.72286E-05 5.45353E-04-7.86338E-14-3.03379E-13
 -1      4245 2.00046E+01 9.90591E-03-1.66728E-05 6.73951E-04-8.18096E-14-3.22371E-13
 -1      4246 2.00048E+01 7.72494E-03-3.25922E-05 3.13334E-04-2.03059E-14-2.60817E-13
 -1      4247 2.00050E+01 5.89493E-03-2.39161E-06 3.89958E-04 1.13367E-13-3.51779E-13
 -1      4248 2.00049E+01 4.30778E-03-1.52210E-05 1.39979E-04 9.73837E-14-3.83786E-13
 -1      4249 2.00049E+01 3.05558E-03 6.59554E-06 1.82404E-04 7.02428E-14-3.19672E-13
 -1      4250 2.00046E+01 2.04016E-03-3.74930E-06 2.77973E-05 2.88548E-14-2.68944E-13
 -1      4251 2.00044E+01 1.20330E-03 9.78773E-06 4.74116E-05-5.65391E-14-2.34937E-13
 -1      4252 2.00041E+01 5.40629E-04 4.23625E-07-4.73825E-05-7.29705E-14-7.32385E-14
 -1      4253 2.00038E+01 9.89507E-06 7.42512E-06-4.36970E-05 2.27113E-13-1.54203E-13
 -1      4254 2.00035E+01-3.99023E-04-1.26589E-06 1.74614E-04 3.47293E-13-3.85349E-15
 -1      4255 2.00023E+01-1.12244E-03 5.06697E-08-8.28042E-04 1.47471E-13-3.30511E-13
 -1      4256 1.99892E+01 5.13047E-02 1.15391E-04 6.02110E-03 6.66641E-14-1.99785E-13
 -1      4257 1.99838E+01 5.98125E-02-2.08123E-04 7.29292E-03-1.36004E-14-1.79419E-13
 -1      4258 2.00035E+01-3.18846E-04-3.77666E-06-3.39836E-04 1.67680E-13-3.02361E-13
 -1      4259 1.85717E+01 2.57363E-02-1.34043E-02-1.97959E+00 3.31768E-13 2.01534E-13
 -1      4260 1.87745E+01 7.40882E-02-1.84977E-02-1.69162E+00 3.14177E-13 1.22747E-13
 -1      4261 1.90549E+01 1.98196E-01 9.88243E-04-1.26907E+00 2.09008E-13 6.99555E-14
 -1      4262 1.90225E+01 3.18689E-01-6.98519E-03-1.07167E+00 1.89615E-13 7.52631E-15
 -1      4263 1.97421E+01-5.49216E-01-9.46582E-03-1.71391E+00 2.96680E-13-1.63840E-14
 -1      4264 1.91644E+01 3.77129E-01 5.96628E-03-8.62860E-01 1.85483E-13-1.53100E-13
 -1      4265 1.91688E+01 4.27741E-01-4.42547E-03-7.06192E-01 1.72745E-13-2.09343E-13
 -1      4266 1.80073E+01 4.43190E-01 1.56076E-02-1.90007E+00 3.16636E-13 1.89182E-13
 -1      4267 1.99564E+01 1.00197E-01-3.02245E-04 1.74112E-04-1.92279E-13-3.62087E-13
 -1      4268 1.99798E+01 6.63533E-02 1.21247E-04 1.92857E-03-1.47837E-13-2.65159E-13
 -1      4269 1.95798E+01 4.20052E-01 1.22019E-04-1.10903E-01-1.31555E-13-1.24034E-13
 -1      4270 1.80568E+01 7.46450E-01 2.44849E-03-1.27064E+00 1.83004E-13-2.65302E-14
 -1      4271 1.84587E+01 5.45419E-01 1.26173E-02-1.33904E+00 1.55775E-13 6.83032E-14
 -1      4272 1.88623E+01 2.21166E-01-9.43550E-03-1.39185E+00 1.63702E-13 9.06243E-14
 -1      4273 1.99616E+01 9.42346E-02 3.02476E-04-7.29353E-03-2.27817E-13-2.63917E-13
 -1      4274 1.99926E+01 4.40632E-02 1.06597E-04 4.94496E-03 6.97650E-14-2.91396E-13
 -1      4275 1.90770E+01 5.66639E-01 2.04107E-03-5.78560E-01 1.89675E-13-2.03059E-13
 -1      4276 1.92019E+01 5.55009E-01 3.96340E-03-4.43097E-01 2.55879E-13-1.76143E-13
 -1      4277 1.95506E+01 4.62315E-01 2.81589E-03-6.16782E-02-4.02898E-14-1.67550E-13
 -1      4278 1.95071E+01 5.00062E-01-6.14457E-04-1.44090E-02 3.71042E-14-2.41622E-13
 -1      4279 1.94119E+01 5.49159E-01-4.27897E-03-4.05789E-02 1.30479E-13-2.93950E-13
 -1      4280 1.94847E+01 4.67840E-01-2.71580E-03-1.51950E-01-9.29597E-14-2.32238E-13
 -1      4281 1.93388E+01 5.92837E-01-2.56769E-04-8.81318E-02 1.39141E-13-2.97145E-13
 -1      4282 1.92123E+01 6.43864E-01-5.18430E-03-1.37406E-01 1.20701E-13-3.12244E-13
 -1      4283 1.92113E+01 6.07445E-01 1.53610E-03-2.87306E-01 2.14271E-13-2.34059E-13
 -1      4284 1.93789E+01 5.57635E-01 4.64976E-03-1.53457E-01 7.02088E-14-3.60197E-13
 -1      4285 1.92638E+01 5.46604E-01-7.13263E-04-3.46161E-01 2.49704E-13-9.17655E-14
 -1      4286 1.94608E+01-2.15397E-01 3.80917E-03-1.54224E+00 2.76800E-13 3.66842E-14
 -1      4287 1.94210E+01 4.97774E-01 5.39845E-04-2.10988E-01 7.32852E-14-2.07066E-13
 -1      4288 1.93476E+01 5.21428E-01-1.19419E-03-2.68506E-01 1.71722E-13-1.95458E-13
 -3
    1PSTEP                         3           1           1          
  100CL  101 1.000000000        4288                     0    1           1
 -4  TOSTRAIN    6    1
 -5  EXX         1    4    1    1
 -5  EYY         1    4    2    2
 -5  EZZ         1    4    3    3
 -5  EXY         1    4    1    2
 -5  EYZ         1    4    2    3
 -5  EZX         1    4    3    1
 -1         1 3.22892E-04-9.99157E-05-8.30211E-05 8.07768E-07-3.22693E-19 4.65132E-18
 -1         2 3.93294E-05-1.20265E-04 2.24151E-05-9.99912E-07 7.24626E-18 7.01926E-19
 -1         3 9.52373E-05-2.85710E-05-2.85714E-05 1.24405E-10 3.47538E-18 4.30139E-18
 -1         4 9.52373E-05-2.85710E-05-2.85714E-05-1.06397E-10 9.09523E-19 5.91405E-19
 -1         5 1.49701E-04-2.17517E-05-4.56558E-05 3.78277E-05-3.60201E-19 2.41890E-17
 -1         6 1.49376E-04 2.67400E-10-4.56215E-05-5.45078E-05-1.71821E-18 1.82976E-17
 -1         7 9.39033E-05-5.95480E-07-4.03879E-05-2.92099E-05-2.43734E-19 1.30390E-19
 -1         8 8.79859E-05 6.32955E-08-3.75060E-05-1.95023E-05-1.89841E-19-4.51276E-18
 -1         9 8.52519E-05 5.29878E-08-3.63207E-05-1.41608E-05-1.40607E-19-6.64157E-18
 -1        10 8.36300E-05 8.06556E-09-3.55779E-05-9.72324E-06-5.56395E-20-7.33466E-18
 -1        11 8.22278E-05-1.59820E-08-3.49580E-05-5.65058E-06 3.11020E-21-7.42793E-18
 -1        12 8.07019E-05-1.94693E-08-3.43186E-05-1.96550E-06 3.23725E-20-7.23188E-18
 -1        13 7.88931E-05-2.02437E-09-3.35978E-05 1.30579E-06 5.63277E-20-6.93589E-18
 -1        14 7.69373E-05 3.38647E-08-3.28535E-05 3.86485E-06 9.31074E-20-6.67424E-18
 -1        15 7.51611E-05 8.19525E-08-3.22130E-05 5.50840E-06 1.24620E-19-6.38105E-18
 -1        16 7.40613E-05 1.30109E-07-3.18602E-05 6.19581E-06 1.63898E-19-5.99602E-18
 -1        17 7.41895E-05 1.62415E-07-3.19915E-05 6.16646E-06 1.85011E-19-5.48068E-18
 -1        18 7.59176E-05 1.65346E-07-3.27312E-05 5.98159E-06 2.17105E-19-4.57461E-18
 -1        19 7.94606E-05 1.32163E-07-3.41507E-05 6.44977E-06 2.86615E-19-3.20718E-18
 -1        20 8.46279E-05 6.73398E-08-3.61752E-05 8.54877E-06 3.42784E-19-9.24128E-19
 -1        21 9.11761E-05-3.26351E-08-3.86957E-05 1.34213E-05 3.33043E-19 3.01692E-18
 -1        22 1.00441E-04-6.18257E-07-4.19067E-05 2.34219E-05 4.72221E-20 1.00816E-17
 -1        23 1.17362E-04-3.95979E-05-3.67490E-05-4.28910E-06-1.17804E-18 1.25514E-17
 -1        24 9.73265E-05-2.90445E-05-3.03370E-05 4.50195E-07-2.50358E-19 7.69857E-18
 -1        25 9.33880E-05-2.81218E-05-2.81596E-05 3.79150E-07-1.61107E-19 3.14916E-18
 -1        26 9.12101E-05-2.74338E-05-2.72905E-05 1.56313E-07-2.74955E-20-1.37669E-19
 -1        27 8.92127E-05-2.68059E-05-2.66747E-05 3.72310E-08-6.93046E-20-1.95381E-18
 -1        28 8.67775E-05-2.60561E-05-2.59638E-05-5.69500E-08-2.56691E-20-3.31796E-18
 -1        29 8.38124E-05-2.51603E-05-2.51056E-05-1.25817E-07 3.94740E-20-4.44696E-18
 -1        30 8.05972E-05-2.41967E-05-2.41835E-05-1.58172E-07 9.47639E-21-5.72310E-18
 -1        31 7.76858E-05-2.33271E-05-2.33575E-05-1.42399E-07-5.74692E-20-7.17451E-18
 -1        32 7.57441E-05-2.27477E-05-2.28138E-05-7.78557E-08-1.59934E-19-8.68054E-18
 -1        33 7.53205E-05-2.26212E-05-2.27028E-05 1.88734E-08 3.49045E-19-8.74409E-18
 -1        34 7.66327E-05-2.30121E-05-2.30836E-05 1.17977E-07 2.03544E-20-8.57447E-18
 -1        35 7.94759E-05-2.38592E-05-2.39006E-05 1.89583E-07-1.93796E-20-9.35721E-18
 -1        36 8.33015E-05-2.49988E-05-2.50037E-05 2.17158E-07-1.63316E-20-9.14916E-18
 -1        37 8.74180E-05-2.62252E-05-2.62001E-05 2.02205E-07-8.55807E-20-8.69265E-18
 -1        38 9.12068E-05-2.73545E-05-2.73134E-05 1.59193E-07-2.70628E-19-8.15558E-18
 -1        39 9.42618E-05-2.82661E-05-2.82228E-05 1.06154E-07-6.72965E-20-9.15114E-18
 -1        40 9.64213E-05-2.89119E-05-2.88757E-05 5.72406E-08 2.89890E-19-9.84480E-18
 -1        41 9.77209E-05-2.93022E-05-2.92771E-05 1.99235E-08 2.68340E-19-9.68885E-18
 -1        42 9.83136E-05-2.94822E-05-2.94678E-05-4.15854E-09 2.40559E-20-9.93218E-18
 -1        43 9.83954E-05-2.95097E-05-2.95036E-05-1.68683E-08-5.37575E-19-1.03777E-17
 -1        44 9.81536E-05-2.94402E-05-2.94396E-05-2.13967E-08 4.19414E-20-1.13468E-17
 -1        45 9.77411E-05-2.93191E-05-2.93214E-05-2.08828E-08-3.19884E-19-1.13135E-17
 -1        46 9.72679E-05-2.91792E-05-2.91827E-05-1.77919E-08-1.39412E-19-1.15801E-17
 -1        47 9.68051E-05-2.90417E-05-2.90453E-05-1.37885E-08 5.09615E-20-1.08745E-17
 -1        48 9.63924E-05-2.89188E-05-2.89219E-05-9.85212E-09 2.19883E-19-1.02478E-17
 -1        49 9.60474E-05-2.88158E-05-2.88181E-05-6.46708E-09 2.97381E-19-1.01570E-17
 -1        50 9.57733E-05-2.87337E-05-2.87353E-05-3.80197E-09-3.15785E-19-9.66588E-18
 -1        51 9.55649E-05-2.86711E-05-2.86721E-05-1.84657E-09-1.04861E-19-8.06912E-18
 -1        52 9.54132E-05-2.86254E-05-2.86260E-05-5.04593E-10-1.42382E-19-7.77197E-18
 -1        53 9.53075E-05-2.85935E-05-2.85937E-05 3.49600E-10 1.69950E-19-8.53879E-18
 -1        54 9.52377E-05-2.85723E-05-2.85723E-05 8.39768E-10-2.14111E-19-7.98899E-18
 -1        55 9.51949E-05-2.85593E-05-2.85591E-05 1.07315E-09 1.56231E-19-8.03942E-18
 -1        56 9.51715E-05-2.85521E-05-2.85519E-05 1.13564E-09 3.65746E-19-8.27507E-18
 -1        57 9.51616E-05-2.85489E-05-2.85487E-05 1.09219E-09-8.24343E-20-8.10102E-18
 -1        58 9.51606E-05-2.85485E-05-2.85483E-05 9.89551E-10 2.20760E-19-1.00079E-17
 -1        59 9.51650E-05-2.85497E-05-2.85495E-05 8.59821E-10 6.20527E-19-7.53592E-18
 -1        60 9.51725E-05-2.85519E-05-2.85517E-05 7.23904E-10-2.73833E-19-4.01861E-18
 -1        61 9.51814E-05-2.85545E-05-2.85544E-05 5.94565E-10-4.02708E-19-5.55874E-18
 -1        62 9.51907E-05-2.85572E-05-2.85571E-05 4.78875E-10 1.74060E-20-7.25950E-18
 -1        63 9.51995E-05-2.85599E-05-2.85598E-05 3.80086E-10 4.81179E-19-6.39876E-18
 -1        64 9.52077E-05-2.85623E-05-2.85622E-05 2.98960E-10-1.89221E-19-4.76965E-18
 -1        65 9.52149E-05-2.85645E-05-2.85644E-05 2.34651E-10-2.84399E-19-1.03855E-18
 -1        66 9.52212E-05-2.85663E-05-2.85663E-05 1.85130E-10 2.23791E-19 1.06959E-18
 -1        67 9.52265E-05-2.85679E-05-2.85679E-05 1.47107E-10 1.40063E-20 1.13007E-18
 -1        68 9.52309E-05-2.85692E-05-2.85692E-05 1.15053E-10-9.62122E-20 1.51102E-18
 -1        69 9.52342E-05-2.85702E-05-2.85702E-05 7.82864E-11 1.08618E-19 3.42238E-18
 -1        70 9.52364E-05-2.85709E-05-2.85709E-05 7.65332E-12 4.11759E-19 5.72850E-18
 -1        71 9.52373E-05-2.85712E-05-2.85712E-05-9.25905E-11-3.22614E-19 3.22630E-18
 -1        72 1.15364E-04-3.45915E-05-3.82634E-05-2.52405E-06 2.91459E-19 2.30045E-17
 -1        73 1.12642E-04-3.35760E-05-3.49538E-05-4.24616E-07 1.66283E-19 1.90404E-17
 -1        74 1.16690E-04-3.49709E-05-3.54001E-05-2.39863E-07 1.12336E-19 1.60493E-17
 -1        75 1.25324E-04-3.75607E-05-3.78529E-05-3.93008E-07 1.94139E-20 1.39944E-17
 -1        76 1.37602E-04-4.11984E-05-4.14050E-05-7.16177E-07 1.05935E-19 1.27730E-17
 -1        77 1.51391E-04-4.53612E-05-4.50751E-05-1.11037E-06 4.50516E-20 1.20531E-17
 -1        78 1.61312E-04-4.85389E-05-4.71390E-05-1.18840E-06-1.44545E-19 1.47334E-17
 -1        79 1.57046E-04-4.76615E-05-4.52822E-05 4.64506E-07-6.19790E-20 1.65474E-17
 -1        80 1.31252E-04-3.97051E-05-3.91431E-05 3.55691E-06-3.42991E-19 1.69269E-17
 -1        81 9.72992E-05-2.84943E-05-3.22486E-05 4.81431E-06 8.88591E-20 1.48320E-17
 -1        82 7.81140E-05-2.16564E-05-2.87301E-05 1.96188E-06 1.91747E-19 9.60816E-18
 -1        83 9.15224E-05-2.58220E-05-3.13704E-05-2.79737E-06 1.57230E-19 3.26277E-18
 -1        84 1.29515E-04-3.85338E-05-3.90940E-05-4.71274E-06 5.29980E-19-2.83671E-18
 -1        85 1.59111E-04-4.82006E-05-4.60185E-05-2.62806E-06 3.42254E-19-4.75831E-18
 -1        86 1.66471E-04-5.03792E-05-4.85009E-05-3.65258E-07-4.20638E-20-4.14961E-18
 -1        87 1.58235E-04-4.76502E-05-4.69249E-05 6.27112E-07-2.93353E-19-8.48409E-19
 -1        88 1.44508E-04-4.33661E-05-4.33847E-05 7.70849E-07-2.07634E-19 1.97163E-18
 -1        89 1.31264E-04-3.93409E-05-3.96092E-05 6.13412E-07-6.09525E-20 2.45931E-18
 -1        90 1.20598E-04-3.61403E-05-3.64139E-05 4.28457E-07 3.83700E-19-2.08815E-18
 -1        91 1.12447E-04-3.37095E-05-3.39068E-05 2.61470E-07-4.60748E-19-8.83164E-19
 -1        92 1.06988E-04-3.20855E-05-3.22143E-05 1.63266E-07 6.06555E-20 1.97124E-18
 -1        93 1.03202E-04-3.09567E-05-3.10376E-05 1.00850E-07 2.69967E-19 3.09555E-18
 -1        94 1.00599E-04-3.01791E-05-3.02291E-05 6.18760E-08-1.47883E-19 4.24927E-18
 -1        95 9.88136E-05-2.96451E-05-2.96761E-05 3.79046E-08-1.13808E-19 4.80530E-18
 -1        96 9.75916E-05-2.92790E-05-2.92983E-05 2.31478E-08 2.95749E-19 6.87198E-18
 -1        97 9.67562E-05-2.90284E-05-2.90406E-05 1.40569E-08 4.20447E-20 5.90240E-18
 -1        98 9.61861E-05-2.88572E-05-2.88650E-05 9.09417E-09-7.54111E-20 4.38061E-18
 -1        99 9.57862E-05-2.87369E-05-2.87418E-05 4.31402E-09 3.41248E-19 6.23788E-18
 -1       100 9.55346E-05-2.86613E-05-2.86643E-05 2.40708E-09 2.33719E-19 4.07997E-18
 -1       101 9.53696E-05-2.86116E-05-2.86135E-05 1.05798E-09-4.92536E-19 2.93517E-18
 -1       102 9.52649E-05-2.85800E-05-2.85812E-05 2.18227E-10 9.22799E-19-6.52259E-19
 -1       103 9.52017E-05-2.85609E-05-2.85616E-05-2.78915E-10-2.04152E-19-5.02624E-18
 -1       104 9.51666E-05-2.85503E-05-2.85507E-05-5.48017E-10-8.75189E-19 1.07987E-18
 -1       105 9.51504E-05-2.85453E-05-2.85455E-05-6.17385E-10-9.12262E-20-9.59057E-19
 -1       106 9.51462E-05-2.85440E-05-2.85440E-05-7.50501E-10 1.15978E-19 2.00275E-19
 -1       107 9.51499E-05-2.85451E-05-2.85450E-05-6.94046E-10-3.81889E-19-1.89320E-18
 -1       108 9.51577E-05-2.85474E-05-2.85473E-05-6.38572E-10 7.60159E-19-6.93535E-19
 -1       109 9.51676E-05-2.85503E-05-2.85502E-05-5.67253E-10-7.35415E-19 1.82291E-18
 -1       110 9.51781E-05-2.85535E-05-2.85533E-05-4.90511E-10-1.10614E-19 3.46919E-18
 -1       111 9.51884E-05-2.85565E-05-2.85564E-05-4.15477E-10 1.33501E-18 2.72931E-18
 -1       112 9.51980E-05-2.85594E-05-2.85593E-05-3.46517E-10-9.38717E-19 8.26728E-19
 -1       113 9.52066E-05-2.85620E-05-2.85619E-05-2.89148E-10 1.01278E-18-2.59629E-18
 -1       114 9.52145E-05-2.85644E-05-2.85643E-05-2.34382E-10-9.03845E-19-1.66386E-18
 -1       115 9.52209E-05-2.85663E-05-2.85662E-05-1.94390E-10 1.09005E-18-5.95981E-19
 -1       116 9.52264E-05-2.85679E-05-2.85678E-05-1.65577E-10-1.78199E-20-3.54263E-18
 -1       117 9.52308E-05-2.85692E-05-2.85692E-05-1.43945E-10 7.84828E-19-1.01450E-18
 -1       118 9.52342E-05-2.85702E-05-2.85702E-05-1.23398E-10-6.69842E-19 2.80981E-19
 -1       119 9.52364E-05-2.85709E-05-2.85708E-05-7.81735E-11-2.02322E-19 4.35609E-18
 -1       120 9.52373E-05-2.85712E-05-2.85712E-05 4.64893E-11-1.03620E-18 6.01747E-18
 -1       121 9.52371E-05-2.85710E-05-2.85712E-05 9.84147E-11 4.82470E-18-1.97227E-18
 -1       122 9.52374E-05-2.85719E-05-2.85708E-05-3.71501E-11-2.31756E-18-7.91130E-19
 -1       123 9.52380E-05-2.85740E-05-2.85702E-05-1.12106E-10 1.03025E-18 1.27034E-18
 -1       124 9.52388E-05-2.85767E-05-2.85694E-05-1.36932E-10-2.23787E-18-9.07058E-19
 -1       125 9.52397E-05-2.85796E-05-2.85686E-05-1.29599E-10-2.68312E-18-1.33735E-18
 -1       126 9.52404E-05-2.85822E-05-2.85679E-05-1.04967E-10-3.62034E-18 8.59505E-19
 -1       127 9.52410E-05-2.85841E-05-2.85673E-05-6.71211E-11 4.76263E-18 3.52684E-19
 -1       128 9.52413E-05-2.85851E-05-2.85670E-05-2.26210E-11 8.86454E-18-1.04789E-18
 -1       129 9.52413E-05-2.85851E-05-2.85670E-05 2.38421E-11 7.76124E-18 3.75922E-19
 -1       130 9.52410E-05-2.85841E-05-2.85673E-05 6.78669E-11 5.86719E-18-1.02908E-18
 -1       131 9.52404E-05-2.85821E-05-2.85679E-05 1.06136E-10 9.16994E-19 3.23687E-20
 -1       132 9.52397E-05-2.85796E-05-2.85686E-05 1.29379E-10 8.11621E-19 1.45915E-18
 -1       133 9.52388E-05-2.85767E-05-2.85695E-05 1.35551E-10 1.85783E-18 3.01582E-19
 -1       134 9.52380E-05-2.85739E-05-2.85703E-05 1.20955E-10-3.22670E-18 3.10091E-19
 -1       135 9.52374E-05-2.85719E-05-2.85709E-05 5.27002E-11-6.23499E-18-9.09830E-19
 -1       136 9.52372E-05-2.85711E-05-2.85712E-05-1.78847E-10-4.57862E-18 3.03104E-19
 -1       137 3.07794E-05-1.07029E-04 2.04096E-05-2.96316E-05 2.24925E-17 5.70926E-18
 -1       138 1.12075E-05-5.77052E-05 9.32984E-06-3.20075E-05 3.05135E-17 1.38293E-17
 -1       139 6.52125E-06-3.78976E-06-8.53654E-06 1.39507E-06 3.09358E-17 2.34103E-17
 -1       140 4.86406E-05 2.10555E-05-3.18550E-05 6.25628E-05 2.49900E-17 2.76010E-17
 -1       141 1.49814E-04-5.12101E-06-5.64370E-05 1.11615E-04 1.36851E-17 2.30884E-17
 -1       142 2.86097E-04-6.90988E-05-7.89545E-05 1.04190E-04 3.55595E-18 1.18242E-17
 -1       143 3.61971E-04-1.11740E-04-8.88304E-05 3.02638E-05 5.62642E-19-2.63893E-18
 -1       144 3.43428E-04-1.00194E-04-8.68245E-05-6.34307E-05 3.71068E-18-1.96058E-17
 -1       145 2.39267E-04-4.41664E-05-7.23523E-05-1.16801E-04 1.22970E-17-3.04068E-17
 -1       146 1.11619E-04 8.97362E-06-4.87679E-05-1.00106E-04 2.08091E-17-3.13326E-17
 -1       147 2.78100E-05 1.71197E-05-2.33212E-05-4.01925E-05 2.52522E-17-2.39431E-17
 -1       148 4.33705E-06-2.04653E-05-1.86314E-06 1.46714E-05 2.36949E-17-1.45946E-17
 -1       149 1.82672E-05-7.70691E-05 1.36481E-05 3.52385E-05 1.50357E-17-5.76067E-18
 -1       150 3.67842E-05-1.16898E-04 2.17281E-05 1.96667E-05 1.61296E-18-5.71919E-19
 -1       151 3.57727E-05-1.11412E-04 2.05892E-05-1.15068E-05-1.14210E-17-1.49018E-18
 -1       152 1.91007E-05-6.86812E-05 1.16090E-05-2.24751E-05-2.17823E-17-6.78749E-18
 -1       153 5.75584E-06-1.03601E-05-4.07800E-06-2.47889E-06-2.62678E-17-1.45145E-17
 -1       154 2.59432E-05 2.86114E-05-2.47917E-05 5.05122E-05-2.41684E-17-2.04542E-17
 -1       155 9.43803E-05 2.31100E-05-4.66914E-05 1.04503E-04-1.68555E-17-2.23011E-17
 -1       156 1.94084E-04-2.28335E-05-6.51672E-05 1.19796E-04-8.51607E-18-1.75878E-17
 -1       157 2.86637E-04-7.67362E-05-7.84796E-05 7.93316E-05-2.14514E-18-7.34568E-18
 -1       158 2.92298E-04-7.99642E-05-7.93663E-05-7.54924E-05-3.07795E-18 1.39038E-17
 -1       159 2.09437E-04-3.07488E-05-6.77310E-05-1.18522E-04-9.79848E-18 2.13630E-17
 -1       160 1.16363E-04 1.56645E-05-5.16267E-05-1.13465E-04-1.76822E-17 2.57900E-17
 -1       161 4.11715E-05 3.33633E-05-3.16347E-05-6.91911E-05-2.17010E-17 2.15295E-17
 -1       162 7.84574E-06 1.18818E-05-1.25511E-05-1.70689E-05-2.02377E-17 1.39206E-17
 -1       163 9.81513E-06-3.89028E-05 4.50622E-06 1.84618E-05-1.46880E-17 6.03765E-18
 -1       164 2.78798E-05-9.15765E-05 1.65690E-05 2.15061E-05-6.46879E-18 1.51984E-18
 -1       165 9.85588E-05-1.33131E-05-3.67468E-05-2.19894E-05-3.12117E-18-1.84089E-18
 -1       166 9.26792E-05-9.58660E-06-3.57848E-05-1.65676E-05-2.32333E-18-4.51748E-18
 -1       167 8.97059E-05-7.92294E-06-3.51732E-05-1.20649E-05-1.45478E-18-5.78252E-18
 -1       168 8.78053E-05-7.15566E-06-3.46582E-05-7.91763E-06-6.75681E-19-6.12012E-18
 -1       169 8.59820E-05-6.53647E-06-3.41248E-05-4.06888E-06 3.99627E-20-6.06556E-18
 -1       170 8.37616E-05-5.73607E-06-3.35049E-05-4.70559E-07 5.89326E-19-5.92961E-18
 -1       171 8.10629E-05-4.60259E-06-3.28256E-05 2.60970E-06 1.13919E-18-5.66594E-18
 -1       172 7.81281E-05-3.16744E-06-3.21768E-05 4.91706E-06 1.59864E-18-5.48506E-18
 -1       173 7.55518E-05-1.67542E-06-3.17090E-05 6.26716E-06 1.96533E-18-5.20978E-18
 -1       174 7.41894E-05-5.62749E-07-3.16030E-05 6.69120E-06 2.34520E-18-4.79143E-18
 -1       175 7.48817E-05-3.35514E-07-3.20041E-05 6.55340E-06 2.70070E-18-4.17917E-18
 -1       176 7.82524E-05-1.40908E-06-3.30045E-05 6.51838E-06 3.13796E-18-3.14976E-18
 -1       177 8.44658E-05-4.05709E-06-3.45601E-05 7.47184E-06 3.38861E-18-1.55347E-18
 -1       178 9.33464E-05-8.52104E-06-3.64878E-05 1.02760E-05 3.49523E-18 1.18410E-18
 -1       179 1.05555E-04-1.62597E-05-3.84182E-05 1.51876E-05 2.95659E-18 5.71334E-18
 -1       180 1.18460E-04-3.04533E-05-3.88653E-05 1.36772E-05 1.93617E-18 1.13000E-17
 -1       181 1.07491E-04-2.86152E-05-3.38101E-05-1.19932E-05-2.89386E-18 2.22746E-18
 -1       182 1.01048E-04-2.96673E-05-3.06327E-05-5.05795E-06-2.54024E-18 1.03105E-18
 -1       183 9.69095E-05-2.88980E-05-2.91057E-05-2.85364E-06-1.92211E-18-5.10668E-20
 -1       184 9.43080E-05-2.83676E-05-2.82305E-05-2.40765E-06-1.29940E-18-1.03203E-18
 -1       185 9.20659E-05-2.77720E-05-2.75406E-05-2.64769E-06-9.67954E-19-1.52797E-18
 -1       186 8.98053E-05-2.70642E-05-2.68819E-05-3.04031E-06-8.14665E-19-2.16059E-18
 -1       187 8.74713E-05-2.62466E-05-2.62328E-05-3.20563E-06-7.40564E-19-2.81679E-18
 -1       188 8.52649E-05-2.54096E-05-2.56444E-05-2.86454E-06-8.32753E-19-3.14227E-18
 -1       189 8.35483E-05-2.47169E-05-2.52039E-05-1.89968E-06-7.33368E-19-3.47962E-18
 -1       190 8.27053E-05-2.43504E-05-2.49988E-05-4.17522E-07-2.97335E-19-3.34484E-18
 -1       191 8.29806E-05-2.44311E-05-2.50824E-05 1.26750E-06-3.19457E-19-4.65981E-18
 -1       192 8.43663E-05-2.49586E-05-2.54519E-05 2.75054E-06-2.80141E-19-5.40236E-18
 -1       193 8.65950E-05-2.58085E-05-2.60456E-05 3.70217E-06 1.30345E-19-5.11610E-18
 -1       194 8.92405E-05-2.67894E-05-2.67626E-05 3.98644E-06 2.92638E-19-4.84417E-18
 -1       195 9.18624E-05-2.77174E-05-2.74921E-05 3.67443E-06 4.81027E-19-4.33972E-18
 -1       196 9.41238E-05-2.84696E-05-2.81418E-05 2.96955E-06-2.99314E-19-4.44400E-18
 -1       197 9.58418E-05-2.89962E-05-2.86541E-05 2.10585E-06-3.00564E-19-3.91105E-18
 -1       198 9.69776E-05-2.93060E-05-2.90085E-05 1.27251E-06 4.33749E-20-4.77501E-18
 -1       199 9.75922E-05-2.94397E-05-2.92141E-05 5.83104E-07-4.96140E-19-5.53153E-18
 -1       200 9.77980E-05-2.94480E-05-2.92976E-05 8.05761E-08-4.79252E-19-6.24121E-18
 -1       201 9.77189E-05-2.93783E-05-2.92922E-05-2.41232E-07-6.91482E-20-5.45847E-18
 -1       202 9.74669E-05-2.92678E-05-2.92303E-05-4.14277E-07-1.72764E-19-5.41634E-18
 -1       203 9.71302E-05-2.91432E-05-2.91383E-05-4.78634E-07 2.80819E-19-5.21072E-18
 -1       204 9.67715E-05-2.90215E-05-2.90359E-05-4.71904E-07 4.60079E-19-4.75589E-18
 -1       205 9.64306E-05-2.89122E-05-2.89362E-05-4.24411E-07 3.49163E-19-4.61546E-18
 -1       206 9.61298E-05-2.88197E-05-2.88467E-05-3.58118E-07 1.11007E-19-4.79892E-18
 -1       207 9.58781E-05-2.87448E-05-2.87708E-05-2.87492E-07 2.80752E-19-4.75653E-18
 -1       208 9.56766E-05-2.86865E-05-2.87094E-05-2.21107E-07 5.95744E-19-4.93292E-18
 -1       209 9.55215E-05-2.86427E-05-2.86617E-05-1.63318E-07 6.10832E-19-4.60173E-18
 -1       210 9.54062E-05-2.86109E-05-2.86260E-05-1.15698E-07-4.90032E-19-3.66000E-18
 -1       211 9.53239E-05-2.85888E-05-2.86003E-05-7.81392E-08 1.04405E-19-3.71837E-18
 -1       212 9.52675E-05-2.85741E-05-2.85825E-05-4.96269E-08-1.57655E-19-4.17398E-18
 -1       213 9.52309E-05-2.85649E-05-2.85709E-05-2.87583E-08 1.67110E-19-3.73212E-18
 -1       214 9.52090E-05-2.85598E-05-2.85638E-05-1.40538E-08 2.84494E-19-3.66206E-18
 -1       215 9.51975E-05-2.85574E-05-2.85599E-05-4.13333E-09-4.06731E-19-4.04052E-18
 -1       216 9.51931E-05-2.85568E-05-2.85583E-05 2.20035E-09 1.06045E-18-2.54951E-18
 -1       217 9.51934E-05-2.85574E-05-2.85582E-05 5.93403E-09 8.32466E-19-3.96324E-18
 -1       218 9.51965E-05-2.85587E-05-2.85590E-05 7.84958E-09-6.42835E-19-3.17630E-18
 -1       219 9.52012E-05-2.85604E-05-2.85603E-05 8.54578E-09-6.49337E-19-2.90276E-18
 -1       220 9.52065E-05-2.85621E-05-2.85619E-05 8.46642E-09-2.69479E-19-2.46518E-18
 -1       221 9.52120E-05-2.85638E-05-2.85635E-05 7.92873E-09 1.62270E-18-3.02602E-18
 -1       222 9.52171E-05-2.85654E-05-2.85650E-05 7.14884E-09 2.37541E-18-2.80807E-18
 -1       223 9.52219E-05-2.85668E-05-2.85665E-05 6.26270E-09 9.18679E-19-1.05012E-18
 -1       224 9.52261E-05-2.85681E-05-2.85677E-05 5.34182E-09 4.49541E-20-6.71966E-19
 -1       225 9.52296E-05-2.85691E-05-2.85688E-05 4.40430E-09 8.05163E-19 2.59215E-19
 -1       226 9.52325E-05-2.85700E-05-2.85696E-05 3.42240E-09 9.74986E-19-2.99013E-19
 -1       227 9.52347E-05-2.85707E-05-2.85703E-05 2.33763E-09 1.63999E-18 3.16618E-19
 -1       228 9.52363E-05-2.85713E-05-2.85707E-05 1.12140E-09-7.06671E-19 1.70911E-18
 -1       229 1.15522E-04-3.32289E-05-3.54170E-05 1.75916E-06 2.03408E-18 9.89058E-18
 -1       230 1.15390E-04-3.36664E-05-3.49982E-05-3.97898E-06 1.51424E-18 8.26785E-18
 -1       231 1.19466E-04-3.50557E-05-3.61590E-05-7.75769E-06 9.90754E-19 6.94699E-18
 -1       232 1.26380E-04-3.74014E-05-3.81382E-05-1.04837E-05 5.34490E-19 6.36107E-18
 -1       233 1.34913E-04-4.08085E-05-4.02999E-05-1.09768E-05-2.70792E-19 6.74872E-18
 -1       234 1.42939E-04-4.50258E-05-4.18015E-05-6.54345E-06-1.66128E-18 7.59453E-18
 -1       235 1.46960E-04-4.85312E-05-4.19849E-05 6.21372E-06-8.97630E-19 9.25538E-18
 -1       236 1.42038E-04-4.61009E-05-4.13426E-05 2.17169E-05 2.91962E-19 1.02073E-17
 -1       237 1.30978E-04-3.68801E-05-4.11919E-05 2.48875E-05 2.35406E-18 8.24240E-18
 -1       238 1.23089E-04-2.86043E-05-4.17249E-05 7.25091E-06 4.25158E-18 4.17051E-18
 -1       239 1.27863E-04-3.18283E-05-4.20933E-05-1.81445E-05 4.39790E-18-4.08005E-19
 -1       240 1.41970E-04-4.38189E-05-4.23138E-05-2.67345E-05 3.34957E-18-4.72425E-18
 -1       241 1.50012E-04-4.96028E-05-4.28574E-05-1.41250E-05 3.84189E-19-5.99705E-18
 -1       242 1.48159E-04-4.77540E-05-4.28797E-05 1.18713E-06-9.36263E-19-5.03031E-18
 -1       243 1.40583E-04-4.33682E-05-4.16446E-05 9.46723E-06-1.85210E-18-2.98099E-18
 -1       244 1.31341E-04-3.93426E-05-3.94683E-05 1.14016E-05-1.46761E-18-2.05121E-18
 -1       245 1.22667E-04-3.62911E-05-3.70548E-05 1.01548E-05 3.39930E-19-1.95521E-18
 -1       246 1.15436E-04-3.40777E-05-3.48844E-05 7.96936E-06 1.33436E-18-1.71200E-18
 -1       247 1.09576E-04-3.24218E-05-3.30662E-05 5.78190E-06-1.19449E-18-2.28746E-18
 -1       248 1.05454E-04-3.13027E-05-3.17730E-05 4.11946E-06-1.19097E-18-2.14982E-18
 -1       249 1.02439E-04-3.04947E-05-3.08255E-05 2.89049E-06-1.06406E-18-5.18784E-19
 -1       250 1.00271E-04-2.99168E-05-3.01450E-05 2.01335E-06-7.32554E-19-2.57907E-20
 -1       251 9.87255E-05-2.95041E-05-2.96607E-05 1.39769E-06-1.52533E-19 2.04757E-19
 -1       252 9.76284E-05-2.92103E-05-2.93178E-05 9.68354E-07-2.43857E-19-1.16322E-19
 -1       253 9.68532E-05-2.90019E-05-2.90760E-05 6.69191E-07-2.23992E-20 9.21056E-19
 -1       254 9.63069E-05-2.88544E-05-2.89059E-05 4.60292E-07 5.32263E-19 7.77673E-19
 -1       255 9.59103E-05-2.87475E-05-2.87824E-05 3.08337E-07-1.82485E-19 9.08950E-19
 -1       256 9.56516E-05-2.86776E-05-2.87020E-05 2.07525E-07 2.68848E-19 2.31451E-18
 -1       257 9.54747E-05-2.86300E-05-2.86469E-05 1.36985E-07 3.89282E-19 2.58563E-18
 -1       258 9.53562E-05-2.85983E-05-2.86099E-05 8.77377E-08 1.52214E-18 1.43524E-18
 -1       259 9.52790E-05-2.85778E-05-2.85858E-05 5.36141E-08 5.12642E-19 1.65123E-18
 -1       260 9.52309E-05-2.85653E-05-2.85706E-05 3.02689E-08-2.86293E-18 2.35942E-18
 -1       261 9.52028E-05-2.85583E-05-2.85617E-05 1.45936E-08 1.44826E-18 4.34932E-18
 -1       262 9.51880E-05-2.85548E-05-2.85569E-05 4.00355E-09-1.25147E-18 3.57715E-18
 -1       263 9.51829E-05-2.85539E-05-2.85552E-05-2.22143E-09 1.41878E-18 4.17781E-18
 -1       264 9.51834E-05-2.85546E-05-2.85552E-05-5.82184E-09 2.08533E-19 1.69007E-18
 -1       265 9.51873E-05-2.85560E-05-2.85562E-05-7.64714E-09-1.05459E-18 2.33897E-18
 -1       266 9.51929E-05-2.85579E-05-2.85579E-05-8.30218E-09-4.11124E-19 6.04001E-19
 -1       267 9.51993E-05-2.85599E-05-2.85597E-05-8.21963E-09 6.12160E-19 1.91012E-19
 -1       268 9.52058E-05-2.85619E-05-2.85617E-05-7.70298E-09 3.51105E-19 1.39805E-18
 -1       269 9.52120E-05-2.85638E-05-2.85635E-05-6.96072E-09 2.65737E-18 1.15895E-18
 -1       270 9.52179E-05-2.85656E-05-2.85653E-05-6.08066E-09-1.17617E-18 8.29372E-19
 -1       271 9.52228E-05-2.85670E-05-2.85668E-05-5.22395E-09 1.34288E-18 9.80468E-19
 -1       272 9.52271E-05-2.85683E-05-2.85681E-05-4.38216E-09 3.76510E-19 1.00373E-18
 -1       273 9.52306E-05-2.85694E-05-2.85691E-05-3.54291E-09-8.25439E-22-1.71212E-18
 -1       274 9.52334E-05-2.85702E-05-2.85699E-05-2.66263E-09-2.54631E-18 1.53436E-18
 -1       275 9.52354E-05-2.85709E-05-2.85705E-05-1.67210E-09-8.10531E-19-4.51338E-19
 -1       276 9.52367E-05-2.85713E-05-2.85709E-05-5.83965E-10-4.36052E-19-2.37212E-18
 -1       277 9.52370E-05-2.85720E-05-2.85707E-05-1.16870E-09-1.50437E-18-3.44164E-18
 -1       278 9.52376E-05-2.85735E-05-2.85703E-05-2.20345E-09-1.13410E-18 1.97533E-18
 -1       279 9.52383E-05-2.85754E-05-2.85698E-05-2.82504E-09-3.16580E-19-5.18683E-19
 -1       280 9.52391E-05-2.85775E-05-2.85693E-05-2.94034E-09-2.83725E-19-8.99246E-19
 -1       281 9.52398E-05-2.85794E-05-2.85687E-05-2.61787E-09-1.43468E-18-6.33121E-19
 -1       282 9.52403E-05-2.85810E-05-2.85683E-05-1.94047E-09-3.64602E-19 3.71460E-18
 -1       283 9.52407E-05-2.85821E-05-2.85680E-05-1.02206E-09 1.10251E-18 3.59824E-18
 -1       284 9.52408E-05-2.85824E-05-2.85679E-05 1.61159E-11 1.65119E-18-1.74797E-18
 -1       285 9.52407E-05-2.85821E-05-2.85680E-05 1.05069E-09 2.38300E-18-1.44191E-18
 -1       286 9.52403E-05-2.85810E-05-2.85683E-05 1.95980E-09 1.72130E-18-2.73131E-18
 -1       287 9.52398E-05-2.85794E-05-2.85687E-05 2.61657E-09-6.03096E-20-2.68894E-19
 -1       288 9.52391E-05-2.85774E-05-2.85693E-05 2.93413E-09-1.26625E-20 1.97048E-18
 -1       289 9.52383E-05-2.85753E-05-2.85698E-05 2.80741E-09-6.73445E-19-3.06087E-18
 -1       290 9.52376E-05-2.85735E-05-2.85703E-05 2.17019E-09-1.69753E-18-1.45686E-18
 -1       291 9.52369E-05-2.85723E-05-2.85706E-05 1.86521E-09-1.21226E-18 3.57094E-21
 -1       292 1.13043E-05-5.17551E-05 1.39718E-05-9.03287E-07 6.02071E-18 8.48992E-18
 -1       293 2.46189E-05-4.70765E-05 7.07519E-06 1.71949E-05 8.13385E-18 8.96817E-18
 -1       294 5.10283E-05-4.64188E-05-4.56815E-06 2.69405E-05 1.22926E-17 1.00625E-17
 -1       295 9.37692E-05-4.53237E-05-2.22323E-05 3.67012E-05 1.21270E-17 1.00310E-17
 -1       296 1.47523E-04-4.72126E-05-4.26157E-05 3.70912E-05 1.15194E-17 7.72536E-18
 -1       297 1.95949E-04-4.80802E-05-6.12902E-05 1.59318E-05 9.10417E-18 3.18315E-18
 -1       298 2.35163E-04-4.58170E-05-7.60131E-05 1.21401E-05 6.93964E-18 5.56712E-19
 -1       299 2.33559E-04-4.07876E-05-7.78919E-05-3.03972E-06 8.60289E-18-2.96824E-18
 -1       300 2.15872E-04-4.28555E-05-7.07912E-05-1.15920E-05 8.33491E-18-6.23819E-18
 -1       301 1.82643E-04-5.02894E-05-5.53752E-05-2.26016E-05 7.64315E-18-8.46800E-18
 -1       302 1.35060E-04-5.24903E-05-3.56413E-05-3.52844E-05 6.87875E-18-1.03177E-17
 -1       303 7.70920E-05-4.46573E-05-1.57610E-05-3.59252E-05 8.22194E-18-1.09538E-17
 -1       304 3.76919E-05-4.66272E-05 6.42230E-07-2.15694E-05 6.42602E-18-9.21168E-18
 -1       305 1.69424E-05-4.99151E-05 1.06946E-05-8.68483E-06 2.78092E-18-7.61324E-18
 -1       306 1.08658E-05-5.25391E-05 1.42612E-05 5.90229E-06-1.52162E-18-6.40336E-18
 -1       307 1.72452E-05-4.05199E-05 7.91325E-06 2.37824E-05-3.69476E-18-7.16844E-18
 -1       308 3.71519E-05-3.93672E-05-1.10895E-06 3.29393E-05-8.07646E-18-7.39833E-18
 -1       309 7.41928E-05-3.63291E-05-1.70619E-05 4.59031E-05-8.26259E-18-6.97447E-18
 -1       310 1.11883E-04-2.93457E-05-3.50987E-05 5.08708E-05-9.74130E-18-7.73616E-18
 -1       311 1.55941E-04-2.86359E-05-5.28006E-05 5.14721E-05-8.86494E-18-7.49222E-18
 -1       312 1.92159E-04-3.23070E-05-6.60119E-05 3.19662E-05-7.19210E-18-4.01938E-18
 -1       313 2.15502E-04-3.51975E-05-7.39766E-05 1.19212E-05-6.00239E-18-1.60031E-18
 -1       314 2.20118E-04-3.75604E-05-7.46808E-05-1.28826E-05-5.36754E-18 2.01562E-18
 -1       315 1.94679E-04-3.18321E-05-6.72393E-05-3.04766E-05-6.73603E-18 4.13649E-18
 -1       316 1.64424E-04-2.93861E-05-5.58681E-05-4.99863E-05-8.23327E-18 8.25455E-18
 -1       317 1.24415E-04-2.93275E-05-4.00349E-05-5.16468E-05-7.31455E-18 8.69500E-18
 -1       318 8.23536E-05-2.95340E-05-2.31635E-05-4.82661E-05-7.18602E-18 9.56300E-18
 -1       319 4.88978E-05-3.58175E-05-7.42016E-06-3.74983E-05-5.91017E-18 8.61702E-18
 -1       320 2.62140E-05-4.48594E-05 5.19658E-06-2.49491E-05-2.87970E-18 5.70593E-18
 -1       321 1.33414E-05-4.96354E-05 1.24076E-05-1.43247E-05 1.54255E-18 7.26754E-18
 -1       322 9.56737E-05-1.66563E-05-3.39385E-05-1.25327E-05-2.25398E-18-3.67425E-18
 -1       323 9.96618E-05-2.08081E-05-3.38694E-05-1.45140E-05-3.11229E-18-2.12006E-18
 -1       324 9.13140E-05-1.34380E-05-3.34410E-05-5.57202E-06-3.84639E-19-4.53990E-18
 -1       325 8.90396E-05-1.21981E-05-3.29884E-05-1.70628E-06 3.87833E-19-4.70875E-18
 -1       326 8.60764E-05-1.05356E-05-3.24222E-05 1.98383E-06 1.12734E-18-4.47410E-18
 -1       327 8.24293E-05-8.30018E-06-3.18078E-05 5.08952E-06 1.77731E-18-4.31296E-18
 -1       328 7.85699E-05-5.68205E-06-3.12665E-05 7.15697E-06 2.31591E-18-4.14824E-18
 -1       329 7.54687E-05-3.27219E-06-3.09633E-05 7.86734E-06 2.77780E-18-3.96669E-18
 -1       330 7.43790E-05-1.95571E-06-3.10597E-05 7.30413E-06 3.20500E-18-3.48356E-18
 -1       331 7.63895E-05-2.56055E-06-3.16701E-05 6.00064E-06 3.52340E-18-2.71022E-18
 -1       332 8.21274E-05-5.71573E-06-3.27940E-05 4.86543E-06 3.72160E-18-1.59952E-18
 -1       333 9.14053E-05-1.16361E-05-3.42486E-05 4.80301E-06 3.89002E-18 8.25328E-20
 -1       334 1.03209E-04-2.03530E-05-3.55873E-05 5.52303E-06 3.53135E-18 3.09762E-18
 -1       335 1.10772E-04-2.74653E-05-3.57536E-05 3.99596E-06 2.93277E-18 5.80461E-18
 -1       336 1.10868E-04-2.98836E-05-3.46621E-05-4.34496E-06 2.29096E-18 4.59349E-18
 -1       337 1.00457E-04-2.80500E-05-3.09946E-05-7.47888E-06-2.56625E-18-1.32429E-18
 -1       338 9.86147E-05-2.90970E-05-2.97753E-05-5.26730E-06-1.96456E-18-1.27079E-18
 -1       339 9.69428E-05-2.93009E-05-2.89814E-05-4.81032E-06-1.46515E-18-1.39572E-18
 -1       340 9.52627E-05-2.89773E-05-2.84059E-05-5.10610E-06-1.15746E-18-1.61728E-18
 -1       341 9.34533E-05-2.82067E-05-2.79608E-05-5.44471E-06-1.14455E-18-1.63573E-18
 -1       342 9.15473E-05-2.70950E-05-2.76174E-05-5.24880E-06-8.22895E-19-1.95982E-18
 -1       343 8.97802E-05-2.58855E-05-2.73747E-05-4.13592E-06-8.91287E-19-1.72746E-18
 -1       344 8.85282E-05-2.49400E-05-2.72408E-05-2.05492E-06-6.88268E-19-2.28018E-18
 -1       345 8.81438E-05-2.46014E-05-2.72202E-05 6.46993E-07-1.12615E-18-2.61010E-18
 -1       346 8.87656E-05-2.50153E-05-2.73105E-05 3.33651E-06-8.39397E-19-2.99954E-18
 -1       347 9.02291E-05-2.60454E-05-2.74991E-05 5.36545E-06-8.29910E-21-3.29807E-18
 -1       348 9.21433E-05-2.73540E-05-2.77630E-05 6.34260E-06 4.45842E-19-3.36570E-18
 -1       349 9.40706E-05-2.85791E-05-2.80685E-05 6.24453E-06 4.49389E-19-3.52349E-18
 -1       350 9.56844E-05-2.94810E-05-2.83773E-05 5.33797E-06 2.45333E-19-3.91293E-18
 -1       351 9.68303E-05-2.99860E-05-2.86540E-05 4.00830E-06 2.57704E-19-3.05172E-18
 -1       352 9.75016E-05-3.01462E-05-2.88736E-05 2.60665E-06-4.53988E-19-3.05338E-18
 -1       353 9.77775E-05-3.00691E-05-2.90243E-05 1.37094E-06-7.72176E-19-3.30060E-18
 -1       354 9.77675E-05-2.98634E-05-2.91068E-05 4.16105E-07-6.36603E-19-3.52366E-18
 -1       355 9.75756E-05-2.96121E-05-2.91308E-05-2.37295E-07 2.04096E-19-3.47891E-18
 -1       356 9.72860E-05-2.93667E-05-2.91105E-05-6.24874E-07-2.14912E-21-3.56466E-18
 -1       357 9.69592E-05-2.91533E-05-2.90608E-05-8.06317E-07 4.29248E-19-2.92380E-18
 -1       358 9.66351E-05-2.89808E-05-2.89950E-05-8.44141E-07 1.14421E-19-2.80648E-18
 -1       359 9.63373E-05-2.88484E-05-2.89236E-05-7.92493E-07-2.43447E-20-2.86350E-18
 -1       360 9.60779E-05-2.87507E-05-2.88540E-05-6.93031E-07 3.01343E-19-2.54092E-18
 -1       361 9.58608E-05-2.86812E-05-2.87907E-05-5.74924E-07 8.82866E-19-2.23567E-18
 -1       362 9.56853E-05-2.86332E-05-2.87360E-05-4.56801E-07 1.33609E-20-2.33777E-18
 -1       363 9.55476E-05-2.86012E-05-2.86907E-05-3.49271E-07 4.94828E-19-2.86726E-18
 -1       364 9.54425E-05-2.85807E-05-2.86546E-05-2.57332E-07 5.01659E-19-3.79585E-18
 -1       365 9.53647E-05-2.85682E-05-2.86267E-05-1.82347E-07-7.23213E-19-3.92474E-18
 -1       366 9.53087E-05-2.85612E-05-2.86057E-05-1.23528E-07 5.05452E-19-3.42565E-18
 -1       367 9.52698E-05-2.85579E-05-2.85906E-05-7.89767E-08 6.76958E-19-1.47653E-18
 -1       368 9.52440E-05-2.85569E-05-2.85800E-05-4.63586E-08 4.28060E-19-2.06954E-18
 -1       369 9.52279E-05-2.85573E-05-2.85730E-05-2.33156E-08-3.52517E-19-1.59120E-18
 -1       370 9.52187E-05-2.85584E-05-2.85686E-05-7.68990E-09 1.06711E-18-3.72987E-19
 -1       371 9.52143E-05-2.85600E-05-2.85661E-05 2.37193E-09 9.83822E-20 2.92191E-19
 -1       372 9.52132E-05-2.85617E-05-2.85649E-05 8.39060E-09 5.44303E-19-2.35777E-20
 -1       373 9.52142E-05-2.85633E-05-2.85646E-05 1.15691E-08-3.97935E-19-4.78376E-19
 -1       374 9.52163E-05-2.85649E-05-2.85649E-05 1.28288E-08 4.19869E-19 7.07998E-19
 -1       375 9.52191E-05-2.85662E-05-2.85655E-05 1.28528E-08 4.93580E-20 9.88863E-20
 -1       376 9.52222E-05-2.85674E-05-2.85663E-05 1.21293E-08 1.72028E-18-8.94774E-19
 -1       377 9.52251E-05-2.85685E-05-2.85672E-05 1.09899E-08 2.01728E-18-1.87392E-18
 -1       378 9.52279E-05-2.85693E-05-2.85680E-05 9.64202E-09 1.37710E-18-5.61078E-19
 -1       379 9.52304E-05-2.85701E-05-2.85687E-05 8.19443E-09-4.77276E-19-1.16600E-18
 -1       380 9.52326E-05-2.85708E-05-2.85693E-05 6.68028E-09-1.69958E-18-3.81731E-19
 -1       381 9.52344E-05-2.85715E-05-2.85699E-05 5.08201E-09 1.84186E-18-6.42153E-19
 -1       382 9.52358E-05-2.85719E-05-2.85702E-05 3.49235E-09 1.45354E-18-7.22227E-19
 -1       383 1.12425E-04-3.11252E-05-3.48031E-05-1.05104E-05 1.55445E-18 3.88258E-18
 -1       384 1.16105E-04-3.31299E-05-3.55480E-05-1.50763E-05 7.30118E-19 3.55617E-18
 -1       385 1.22228E-04-3.72279E-05-3.64299E-05-1.69524E-05-4.90813E-19 3.67407E-18
 -1       386 1.31386E-04-4.46293E-05-3.71658E-05-1.32078E-05-1.99054E-18 4.12261E-18
 -1       387 1.43893E-04-5.47000E-05-3.82087E-05 2.10582E-07-2.18245E-18 5.17017E-18
 -1       388 1.53342E-04-5.63931E-05-4.18647E-05 2.00134E-05-4.67324E-20 6.49615E-18
 -1       389 1.53956E-04-4.30804E-05-4.81616E-05 2.86137E-05 3.59640E-18 5.55045E-18
 -1       390 1.50027E-04-2.53678E-05-5.41212E-05 1.11422E-05 7.04996E-18 2.22526E-18
 -1       391 1.51123E-04-2.74010E-05-5.35722E-05-1.85365E-05 7.01597E-18-1.59854E-18
 -1       392 1.55598E-04-4.88880E-05-4.63288E-05-3.04461E-05 5.40428E-18-4.87375E-18
 -1       393 1.52714E-04-5.92023E-05-4.01455E-05-1.38995E-05 8.38159E-19-6.12317E-18
 -1       394 1.40647E-04-5.19333E-05-3.80326E-05 5.46637E-06-1.84673E-18-5.30161E-18
 -1       395 1.28901E-04-4.23826E-05-3.70992E-05 1.54515E-05-2.76754E-18-3.96586E-18
 -1       396 1.20214E-04-3.60157E-05-3.61073E-05 1.75263E-05-1.90060E-18-3.07910E-18
 -1       397 1.14003E-04-3.26886E-05-3.48540E-05 1.56080E-05 2.47808E-19-2.09021E-18
 -1       398 1.09383E-04-3.10785E-05-3.35479E-05 1.24519E-05 6.53741E-19-7.53514E-19
 -1       399 1.05694E-04-3.02335E-05-3.23214E-05 9.23257E-06 6.71241E-20-2.87977E-19
 -1       400 1.03014E-04-2.97794E-05-3.13683E-05 6.72427E-06-1.08973E-18-2.28679E-18
 -1       401 1.00955E-04-2.94698E-05-3.06215E-05 4.81355E-06-1.87441E-18-2.24447E-18
 -1       402 9.93957E-05-2.92403E-05-3.00555E-05 3.41447E-06-5.02103E-19-2.12005E-18
 -1       403 9.82288E-05-2.90633E-05-2.96343E-05 2.40999E-06-5.10347E-19-2.31681E-18
 -1       404 9.73636E-05-2.89259E-05-2.93247E-05 1.69541E-06-4.55618E-19-1.45385E-18
 -1       405 9.67276E-05-2.88203E-05-2.90991E-05 1.18872E-06-6.56680E-19 2.51324E-19
 -1       406 9.62634E-05-2.87403E-05-2.89357E-05 8.29517E-07 5.26737E-19-2.93475E-19
 -1       407 9.59145E-05-2.86786E-05-2.88134E-05 5.63860E-07-2.27352E-19-1.45437E-18
 -1       408 9.56797E-05-2.86366E-05-2.87314E-05 3.86139E-07-1.00707E-18 6.32232E-19
 -1       409 9.55136E-05-2.86069E-05-2.86734E-05 2.59945E-07 2.89270E-19 2.14363E-18
 -1       410 9.53984E-05-2.85866E-05-2.86330E-05 1.70766E-07 1.15108E-18 1.79850E-18
 -1       411 9.53202E-05-2.85733E-05-2.86054E-05 1.08170E-07 6.30816E-19 2.89463E-18
 -1       412 9.52687E-05-2.85651E-05-2.85869E-05 6.47120E-08-3.05614E-18 4.09784E-18
 -1       413 9.52361E-05-2.85605E-05-2.85750E-05 3.50407E-08-4.44617E-19 3.88658E-18
 -1       414 9.52162E-05-2.85584E-05-2.85675E-05 1.44406E-08-9.70381E-19 5.03098E-18
 -1       415 9.52065E-05-2.85580E-05-2.85635E-05 1.98671E-09 1.54544E-18 4.75668E-18
 -1       416 9.52027E-05-2.85586E-05-2.85617E-05-5.62094E-09 8.24328E-19 4.00760E-18
 -1       417 9.52027E-05-2.85598E-05-2.85612E-05-9.87270E-09-7.49549E-19 4.55631E-18
 -1       418 9.52051E-05-2.85613E-05-2.85616E-05-1.18634E-08 2.46816E-19 2.65614E-18
 -1       419 9.52087E-05-2.85628E-05-2.85625E-05-1.23831E-08 8.61459E-19 2.50996E-18
 -1       420 9.52128E-05-2.85643E-05-2.85637E-05-1.19934E-08 6.12330E-19 1.48564E-18
 -1       421 9.52171E-05-2.85657E-05-2.85649E-05-1.10826E-08 3.40375E-18 1.43780E-18
 -1       422 9.52214E-05-2.85671E-05-2.85661E-05-9.84602E-09-1.08073E-18 2.20264E-18
 -1       423 9.52251E-05-2.85682E-05-2.85673E-05-8.56162E-09 4.20359E-19 2.39065E-18
 -1       424 9.52284E-05-2.85692E-05-2.85683E-05-7.25089E-09 1.55594E-18 1.62632E-18
 -1       425 9.52312E-05-2.85700E-05-2.85691E-05-5.92475E-09 1.68592E-18-2.01337E-18
 -1       426 9.52335E-05-2.85708E-05-2.85698E-05-4.54808E-09-3.11295E-18-2.72626E-18
 -1       427 9.52353E-05-2.85714E-05-2.85703E-05-3.07602E-09 1.71624E-18-4.69458E-18
 -1       428 9.52363E-05-2.85718E-05-2.85705E-05-2.14207E-09 6.38075E-19-4.35584E-18
 -1       429 9.52385E-05-2.85760E-05-2.85696E-05-5.03253E-09-6.36459E-19 4.90185E-19
 -1       430 9.52374E-05-2.85742E-05-2.85700E-05-4.55000E-09-7.03952E-19 1.97054E-18
 -1       431 9.52367E-05-2.85729E-05-2.85702E-05-3.48893E-09 2.42559E-19-7.59804E-19
 -1       432 9.52395E-05-2.85777E-05-2.85693E-05-4.78561E-09 2.14377E-19-3.31460E-18
 -1       433 9.52403E-05-2.85792E-05-2.85690E-05-3.89780E-09 3.15483E-19 2.09266E-18
 -1       434 9.52409E-05-2.85803E-05-2.85688E-05-2.52444E-09 2.28535E-19 2.99798E-18
 -1       435 9.52412E-05-2.85809E-05-2.85687E-05-8.53839E-10-2.10965E-18-1.55170E-18
 -1       436 9.52412E-05-2.85808E-05-2.85687E-05 9.12508E-10-1.75179E-18 9.73076E-19
 -1       437 9.52409E-05-2.85803E-05-2.85688E-05 2.57098E-09-1.12502E-18-1.75057E-18
 -1       438 9.52403E-05-2.85792E-05-2.85690E-05 3.90452E-09 7.77507E-19-2.08886E-18
 -1       439 9.52395E-05-2.85777E-05-2.85693E-05 4.77911E-09 1.07301E-18 1.13960E-18
 -1       440 9.52385E-05-2.85760E-05-2.85696E-05 5.01625E-09 7.59273E-19-9.89027E-19
 -1       441 9.52374E-05-2.85741E-05-2.85700E-05 4.54133E-09 1.05546E-18-4.40513E-18
 -1       442 5.54880E-05-4.31752E-05-5.56395E-06 3.64988E-05 2.22748E-18 5.71324E-18
 -1       443 1.10444E-05-2.17610E-05 4.47740E-06-9.26358E-06 1.49990E-18 8.99973E-18
 -1       444 1.80517E-05-2.58231E-05 3.18073E-06 1.50829E-05 1.08590E-18 8.77177E-18
 -1       445 9.95016E-05-5.91689E-05-1.76118E-05 3.72169E-05 3.29252E-18 3.71903E-18
 -1       446 1.44004E-04-6.75342E-05-3.29833E-05 2.09784E-05 5.64103E-18 1.69512E-19
 -1       447 9.33925E-05-1.47745E-05-3.37659E-05-9.37258E-06-1.29738E-18-4.42720E-18
 -1       448 1.76525E-04-3.66580E-05-5.97449E-05-1.93569E-05 7.89234E-18-2.15888E-18
 -1       449 1.78096E-04-2.69953E-05-6.41765E-05 1.01623E-05 8.63741E-18 6.98802E-19
 -1       450 1.78810E-04-4.67966E-05-5.64066E-05 1.48870E-05 5.56204E-18 1.05392E-18
 -1       451 1.65813E-04-6.56228E-05-4.30822E-05-3.51670E-06 2.19297E-18-9.07808E-19
 -1       452 1.28264E-04-6.65207E-05-2.66782E-05-2.93753E-05-3.51519E-20-3.94929E-18
 -1       453 8.12481E-05-5.21066E-05-1.27440E-05-4.03913E-05-7.62330E-20-6.67618E-18
 -1       454 4.12696E-05-3.49163E-05-2.85166E-06-3.35389E-05-1.04185E-19-7.37787E-18
 -1       455 1.39187E-05-2.14996E-05 3.22335E-06-8.14332E-06 5.25081E-19-8.21537E-18
 -1       456 1.35136E-05-1.89977E-05 2.41333E-06 1.72988E-05 8.30966E-19-7.89954E-18
 -1       457 4.14123E-05-3.18086E-05-4.02424E-06 4.41653E-05 3.89000E-19-5.85681E-18
 -1       458 7.52990E-05-4.46896E-05-1.31409E-05 5.04153E-05-3.95459E-19-3.48152E-18
 -1       459 1.19414E-04-5.42696E-05-2.78748E-05 4.04596E-05-2.31145E-18-1.38024E-18
 -1       460 1.46306E-04-4.85287E-05-4.18441E-05 2.43963E-05-4.59785E-18-9.63076E-19
 -1       461 1.60529E-04-3.59878E-05-5.33148E-05 1.07220E-05-6.43957E-18-6.03405E-19
 -1       462 1.60834E-04-1.65789E-05-6.18849E-05-2.14083E-06-6.66350E-18-1.35599E-18
 -1       463 1.65247E-04-1.14538E-05-6.58391E-05-5.30579E-07-6.78939E-18-1.88339E-18
 -1       464 1.65972E-04-1.61682E-05-6.39866E-05-6.27297E-07-6.26190E-18-1.70259E-18
 -1       465 1.59991E-04-3.27875E-05-5.45714E-05-6.24512E-06-5.00787E-18-2.08656E-18
 -1       466 1.51952E-04-4.58740E-05-4.54056E-05-1.88809E-05-2.76712E-18 2.89050E-20
 -1       467 1.27763E-04-5.61344E-05-3.07651E-05-3.61007E-05 5.01444E-19 2.06274E-18
 -1       468 9.87790E-05-5.16479E-05-2.00916E-05-4.82200E-05 7.40624E-19 3.71826E-18
 -1       469 5.52133E-05-3.96378E-05-6.77239E-06-4.83762E-05 8.40257E-19 6.31368E-18
 -1       470 2.49920E-05-2.97594E-05 1.80885E-06-3.40133E-05 1.23677E-18 6.49007E-18
 -1       471 1.71588E-04-6.28816E-05-4.67612E-05-6.58309E-06 6.85133E-18-1.84166E-18
 -1       472 4.22863E-05-2.77277E-05-5.79601E-06 3.12471E-05-2.10493E-18 6.32596E-18
 -1       473 1.88011E-04-2.51132E-05-6.85024E-05-3.96462E-06 8.71046E-18-4.46466E-19
 -1       474 1.00827E-04-2.31415E-05-3.32688E-05-7.87464E-06 2.35797E-18 1.36550E-18
 -1       475 9.18225E-05-1.72505E-05-3.19805E-05 1.35170E-06 8.25210E-19-4.04065E-18
 -1       476 9.44940E-05-1.89160E-05-3.24150E-05-2.77970E-06 7.95603E-20-3.91750E-18
 -1       477 8.32106E-05-1.15060E-05-3.07442E-05 8.55008E-06 2.10740E-18-3.78672E-18
 -1       478 7.82082E-05-7.77219E-06-3.01947E-05 1.00300E-05 2.64026E-18-3.70651E-18
 -1       479 7.45941E-05-4.72589E-06-2.99493E-05 9.35704E-06 3.07268E-18-3.54518E-18
 -1       480 7.40339E-05-3.63154E-06-3.01805E-05 6.73312E-06 3.34043E-18-3.02326E-18
 -1       481 7.79324E-05-5.67724E-06-3.09818E-05 3.18912E-06 3.37922E-18-2.19756E-18
 -1       482 8.63497E-05-1.11364E-05-3.22526E-05 7.93746E-08 3.30011E-18-9.30190E-19
 -1       483 1.00625E-04-2.46178E-05-3.25469E-05-1.48358E-05 1.44149E-18 9.75746E-19
 -1       484 1.00308E-04-2.76611E-05-3.11288E-05-7.67656E-06-1.99282E-18-2.13083E-18
 -1       485 1.00276E-04-2.97171E-05-3.02348E-05-6.45300E-06-1.59711E-18-1.84591E-18
 -1       486 9.97304E-05-3.04801E-05-2.96774E-05-6.43282E-06-1.33790E-18-1.64128E-18
 -1       487 9.87286E-05-3.02000E-05-2.93691E-05-6.92850E-06-1.16114E-18-1.64111E-18
 -1       488 9.72416E-05-2.89984E-05-2.92455E-05-7.17653E-06-9.74131E-19-1.15673E-18
 -1       489 9.54143E-05-2.71601E-05-2.92483E-05-6.47387E-06-9.43763E-19-1.25695E-18
 -1       490 9.36667E-05-2.52636E-05-2.93106E-05-4.41912E-06-1.13716E-18-1.74015E-18
 -1       491 9.25769E-05-2.40495E-05-2.93645E-05-1.16101E-06-1.40812E-18-2.03335E-18
 -1       492 9.25732E-05-2.40614E-05-2.93581E-05 2.56906E-06-1.24681E-18-2.08347E-18
 -1       493 9.36493E-05-2.53172E-05-2.92805E-05 5.76509E-06-5.23029E-19-2.33972E-18
 -1       494 9.53588E-05-2.73060E-05-2.91620E-05 7.65228E-06 6.77162E-20-2.54778E-18
 -1       495 9.70906E-05-2.93152E-05-2.90453E-05 8.00124E-06 2.22336E-19-3.30372E-18
 -1       496 9.83810E-05-3.08012E-05-2.89635E-05 7.09481E-06 2.51144E-19-2.80786E-18
 -1       497 9.90505E-05-3.15566E-05-2.89283E-05 5.46771E-06 5.63828E-19-2.16835E-18
 -1       498 9.91589E-05-3.16606E-05-2.89310E-05 3.64158E-06-1.91291E-19-2.13829E-18
 -1       499 9.88802E-05-3.13304E-05-2.89531E-05 1.98076E-06-6.12409E-19-2.04604E-18
 -1       500 9.83978E-05-3.07922E-05-2.89764E-05 6.68722E-07-9.90534E-19-2.02046E-18
 -1       501 9.78510E-05-3.02154E-05-2.89886E-05-2.49763E-07-3.07306E-19-1.12974E-18
 -1       502 9.73255E-05-2.96992E-05-2.89839E-05-8.12284E-07 3.37571E-20-1.78346E-18
 -1       503 9.68637E-05-2.92861E-05-2.89625E-05-1.09301E-06 3.90498E-19-1.98942E-18
 -1       504 9.64791E-05-2.89817E-05-2.89277E-05-1.17279E-06 6.82366E-19-1.69490E-18
 -1       505 9.61699E-05-2.87728E-05-2.88844E-05-1.12332E-06 3.34881E-19-1.61196E-18
 -1       506 9.59271E-05-2.86393E-05-2.88375E-05-1.00099E-06 6.01056E-20-1.94059E-18
 -1       507 9.57397E-05-2.85607E-05-2.87908E-05-8.46335E-07 3.85108E-19-2.30047E-18
 -1       508 9.55970E-05-2.85197E-05-2.87472E-05-6.86119E-07 3.91913E-19-2.28475E-18
 -1       509 9.54897E-05-2.85028E-05-2.87084E-05-5.36366E-07 2.49591E-19-1.98149E-18
 -1       510 9.54099E-05-2.85005E-05-2.86752E-05-4.05343E-07-6.51913E-20-2.36269E-18
 -1       511 9.53514E-05-2.85059E-05-2.86479E-05-2.96114E-07-5.57371E-19-2.25248E-18
 -1       512 9.53091E-05-2.85150E-05-2.86259E-05-2.08519E-07-1.71101E-20-2.25019E-18
 -1       513 9.52792E-05-2.85251E-05-2.86088E-05-1.40598E-07 7.77454E-19-2.25813E-18
 -1       514 9.52586E-05-2.85348E-05-2.85958E-05-8.95606E-08 1.16325E-18-1.76486E-18
 -1       515 9.52448E-05-2.85433E-05-2.85863E-05-5.23977E-08 2.16008E-19-1.31555E-19
 -1       516 9.52360E-05-2.85505E-05-2.85795E-05-2.62380E-08 1.80239E-18-3.78606E-19
 -1       517 9.52308E-05-2.85562E-05-2.85748E-05-8.53687E-09 1.47646E-18 1.06004E-18
 -1       518 9.52281E-05-2.85607E-05-2.85717E-05 2.85024E-09-3.53530E-19 2.38250E-18
 -1       519 9.52270E-05-2.85641E-05-2.85698E-05 9.66241E-09-1.14720E-18 8.29643E-20
 -1       520 9.52271E-05-2.85666E-05-2.85688E-05 1.32649E-08 2.31645E-19 1.20951E-19
 -1       521 9.52278E-05-2.85684E-05-2.85683E-05 1.46978E-08-1.19349E-19 3.27119E-19
 -1       522 9.52290E-05-2.85697E-05-2.85682E-05 1.47285E-08-7.63839E-20 1.03828E-18
 -1       523 9.52303E-05-2.85706E-05-2.85684E-05 1.39029E-08 7.75847E-19-1.05606E-18
 -1       524 9.52316E-05-2.85713E-05-2.85687E-05 1.25899E-08 2.16926E-18-1.50630E-18
 -1       525 9.52329E-05-2.85718E-05-2.85690E-05 1.10192E-08 2.65348E-20-1.15034E-18
 -1       526 9.52341E-05-2.85722E-05-2.85694E-05 9.31264E-09-3.02813E-19-1.07693E-18
 -1       527 9.52353E-05-2.85727E-05-2.85697E-05 7.51426E-09 2.75324E-19-2.14290E-19
 -1       528 1.07410E-04-3.56285E-05-3.06773E-05-2.42299E-05-1.43387E-18 7.86225E-19
 -1       529 1.21840E-04-5.15802E-05-2.99069E-05-2.24847E-05-3.15734E-18 8.12834E-19
 -1       530 1.36693E-04-6.25993E-05-3.16587E-05 1.43130E-05-1.86255E-18-3.92226E-18
 -1       531 1.16874E-04-4.55494E-05-3.04077E-05 2.30495E-05-3.37360E-18-2.03805E-18
 -1       532 1.06207E-04-3.34932E-05-3.11243E-05 2.37655E-05-2.83411E-18-1.37302E-18
 -1       533 1.01737E-04-2.79604E-05-3.16107E-05 2.08564E-05-1.63050E-18-1.41615E-18
 -1       534 1.00055E-04-2.62951E-05-3.16003E-05 1.69588E-05-3.23229E-19 1.38092E-19
 -1       535 9.92720E-05-2.62989E-05-3.12597E-05 1.29895E-05-1.45196E-19-9.87402E-21
 -1       536 9.87396E-05-2.68064E-05-3.08144E-05 9.77797E-06 2.83852E-19 1.57588E-19
 -1       537 9.82098E-05-2.73343E-05-3.03634E-05 7.22494E-06-1.30743E-18 9.47468E-20
 -1       538 9.76831E-05-2.77508E-05-2.99621E-05 5.27532E-06-8.00664E-19-6.69031E-19
 -1       539 9.71895E-05-2.80419E-05-2.96282E-05 3.82204E-06-8.00944E-19-1.56422E-18
 -1       540 9.67536E-05-2.82326E-05-2.93616E-05 2.75380E-06-1.00831E-18-1.42742E-18
 -1       541 9.63863E-05-2.83526E-05-2.91541E-05 1.97454E-06-6.66108E-19-2.21213E-18
 -1       542 9.60872E-05-2.84262E-05-2.89954E-05 1.40800E-06 2.89445E-19-2.64755E-18
 -1       543 9.58416E-05-2.84730E-05-2.88707E-05 9.80252E-07-1.03321E-19-1.24823E-18
 -1       544 9.56630E-05-2.85002E-05-2.87830E-05 6.87608E-07-1.90627E-18-2.26823E-19
 -1       545 9.55282E-05-2.85174E-05-2.87182E-05 4.76086E-07-8.20372E-19 7.77276E-20
 -1       546 9.54287E-05-2.85288E-05-2.86709E-05 3.23734E-07 1.32439E-18-7.09319E-19
 -1       547 9.53569E-05-2.85369E-05-2.86368E-05 2.14667E-07-1.66899E-19 3.88607E-19
 -1       548 9.53062E-05-2.85432E-05-2.86125E-05 1.37274E-07-1.70355E-18 2.07977E-18
 -1       549 9.52715E-05-2.85482E-05-2.85955E-05 8.30409E-08-2.05505E-18 2.92466E-18
 -1       550 9.52477E-05-2.85526E-05-2.85835E-05 4.42096E-08-4.16096E-20 3.52479E-18
 -1       551 9.52336E-05-2.85561E-05-2.85760E-05 1.96420E-08 1.94453E-19 1.97474E-18
 -1       552 9.52255E-05-2.85591E-05-2.85712E-05 3.71410E-09 1.55489E-18 2.43535E-18
 -1       553 9.52214E-05-2.85617E-05-2.85684E-05-6.10556E-09 1.71513E-19 3.28747E-18
 -1       554 9.52201E-05-2.85638E-05-2.85670E-05-1.16779E-08 4.00430E-19 2.95831E-18
 -1       555 9.52204E-05-2.85656E-05-2.85664E-05-1.43722E-08 5.59821E-19 1.73863E-18
 -1       556 9.52219E-05-2.85670E-05-2.85664E-05-1.51814E-08 1.27305E-18 1.33051E-18
 -1       557 9.52238E-05-2.85682E-05-2.85667E-05-1.48114E-08 1.26833E-18 1.60282E-18
 -1       558 9.52261E-05-2.85692E-05-2.85673E-05-1.36878E-08 7.21145E-19 3.27175E-18
 -1       559 9.52283E-05-2.85699E-05-2.85679E-05-1.22468E-08-3.85120E-19 2.11956E-18
 -1       560 9.52303E-05-2.85706E-05-2.85685E-05-1.06423E-08 1.64351E-18 7.58517E-19
 -1       561 9.52322E-05-2.85712E-05-2.85690E-05-8.96873E-09 3.19762E-18 1.20098E-20
 -1       562 9.52339E-05-2.85717E-05-2.85695E-05-7.26022E-09 8.78224E-19-1.74166E-19
 -1       563 9.52354E-05-2.85723E-05-2.85699E-05-5.48171E-09 1.86050E-18-2.74067E-18
 -1       564 9.52405E-05-2.85781E-05-2.85696E-05-5.83816E-09 1.92016E-18-6.03647E-19
 -1       565 9.52415E-05-2.85793E-05-2.85695E-05-4.28519E-09 1.34876E-18 3.42217E-18
 -1       566 9.52375E-05-2.85747E-05-2.85698E-05-6.69450E-09 3.74402E-19 5.28468E-19
 -1       567 9.52391E-05-2.85765E-05-2.85697E-05-6.68496E-09 7.30488E-19-5.79182E-19
 -1       568 9.52421E-05-2.85800E-05-2.85695E-05-2.24191E-09 5.48259E-20-1.22831E-18
 -1       569 9.52423E-05-2.85803E-05-2.85694E-05 4.66272E-11 7.70452E-19 1.91292E-19
 -1       570 9.52421E-05-2.85800E-05-2.85695E-05 2.32561E-09-1.87706E-19-8.94103E-19
 -1       571 9.52414E-05-2.85792E-05-2.85695E-05 4.31238E-09-7.41340E-19-7.22712E-19
 -1       572 9.52404E-05-2.85780E-05-2.85696E-05 5.84098E-09 1.22698E-18-9.91700E-19
 -1       573 9.52391E-05-2.85765E-05-2.85697E-05 6.67255E-09 1.22754E-19 6.35187E-20
 -1       574 9.52375E-05-2.85747E-05-2.85698E-05 6.63221E-09 1.94729E-19-2.02570E-18
 -1       575 9.12460E-05-4.93744E-05-1.74937E-05 3.80494E-05-3.13164E-18 8.16672E-19
 -1       576 2.78571E-05-1.44562E-05-5.04539E-06-2.54435E-05 2.08018E-18 6.89432E-18
 -1       577 1.01952E-04-2.77817E-05-3.17564E-05-2.06065E-05 1.28728E-19 6.99145E-19
 -1       578 2.28887E-05-1.19176E-05-4.03869E-06 5.51649E-06-5.47488E-19 8.44534E-18
 -1       579 8.75097E-05-4.73512E-05-1.68736E-05-4.84628E-05 3.59449E-18 2.59698E-18
 -1       580 9.92309E-05-2.37117E-05-3.23935E-05-1.00271E-05-2.33800E-18-2.85610E-18
 -1       581 1.32103E-04-6.64238E-05-2.80729E-05 2.25147E-05-6.41416E-19-2.44483E-18
 -1       582 1.44455E-04-2.61602E-05-5.12287E-05-9.61303E-06-5.05726E-18 7.19184E-19
 -1       583 1.07410E-04-5.36452E-05-2.28533E-05 4.27758E-05 2.07391E-18-5.51780E-19
 -1       584 3.61943E-05-1.80328E-05-7.14996E-06-2.41585E-05-5.01761E-19-6.72205E-18
 -1       585 8.80230E-05-1.48174E-05-3.13922E-05 5.38024E-06 1.51819E-18-3.87133E-18
 -1       586 1.38603E-04-5.81107E-05-3.45462E-05 2.05733E-05-7.86550E-19 1.17155E-18
 -1       587 1.51193E-04-6.76409E-05-3.58291E-05-3.84133E-06-1.50976E-18 2.34715E-18
 -1       588 1.11196E-04-5.72505E-05-2.29668E-05-3.32181E-05-2.92131E-18-2.67404E-18
 -1       589 7.58197E-05-3.98732E-05-1.49439E-05-3.87711E-05-2.04214E-18-4.99395E-18
 -1       590 2.10679E-05-9.48980E-06-4.32640E-06 2.66905E-06 1.03634E-18-7.65633E-18
 -1       591 3.44872E-05-1.63710E-05-7.16849E-06 3.39841E-05 2.91260E-18-5.98471E-18
 -1       592 6.86237E-05-3.62781E-05-1.34103E-05 4.87577E-05 3.02693E-18-3.02973E-18
 -1       593 1.32350E-04-6.01241E-06-5.48223E-05-5.33374E-06-5.48337E-18-1.08834E-18
 -1       594 1.48743E-04-4.62978E-05-4.42280E-05 3.08858E-06-3.48892E-18 1.03497E-18
 -1       595 4.77584E-05-2.68894E-05-8.40984E-06-4.27311E-05 2.72956E-18 5.65114E-18
 -1       596 1.33783E-04-5.63644E-06-5.56596E-05 3.27506E-06-5.41360E-18-2.84744E-18
 -1       597 1.42368E-04-2.04243E-05-5.28808E-05 9.53540E-06-3.94516E-18-4.95075E-18
 -1       598 1.45040E-04-4.35665E-05-4.39505E-05 3.38477E-06-1.37137E-18-5.95930E-18
 -1       599 1.40774E-04-5.76296E-05-3.57477E-05-1.40727E-05 1.76564E-18-3.75903E-18
 -1       600 1.21057E-04-5.92371E-05-2.64230E-05-3.62390E-05 3.50253E-18 4.13855E-19
 -1       601 1.02589E-04-2.26807E-05-3.42303E-05-1.54354E-06 3.09626E-18 2.04566E-18
 -1       602 1.56110E-04-6.74597E-05-3.82445E-05-3.46154E-06 2.72462E-18-4.09620E-18
 -1       603 1.61816E-04-6.29210E-05-4.26951E-05 1.41315E-05 5.99951E-19 3.82028E-18
 -1       604 9.63014E-05-2.02304E-05-3.26461E-05-6.37363E-06-7.78791E-19-3.82334E-18
 -1       605 9.52360E-05-2.85730E-05-2.85698E-05 6.21435E-09 7.04363E-19-8.33250E-19
 -1       606 7.63935E-05-9.24116E-06-2.87740E-05 1.30679E-05 2.81501E-18-3.34746E-18
 -1       607 8.31213E-05-1.43174E-05-2.94869E-05 1.28143E-05 2.39293E-18-3.40948E-18
 -1       608 7.25462E-05-5.10109E-06-2.89097E-05 4.00236E-06 3.00981E-18-2.76682E-18
 -1       609 7.92800E-05-9.08407E-06-3.00857E-05-2.33414E-06 2.70339E-18-1.85642E-18
 -1       610 8.79786E-05-1.57717E-05-3.09380E-05-9.09046E-06 2.11011E-18-5.18526E-19
 -1       611 4.73402E-05-1.50187E-05-1.32762E-05 2.21220E-05-3.48533E-18 4.03114E-18
 -1       612 8.49502E-05-1.70320E-05-2.90750E-05-1.58490E-05 1.10534E-18-9.42424E-19
 -1       613 1.17252E-04-7.32811E-06-4.75962E-05 1.81117E-07-3.60233E-18-2.32117E-18
 -1       614 1.02561E-04-3.10598E-05-3.06436E-05-6.64285E-06-1.31204E-18-2.04684E-18
 -1       615 1.02986E-04-3.19957E-05-3.04245E-05-7.28988E-06-1.04432E-18-1.72009E-18
 -1       616 1.02478E-04-3.13239E-05-3.04952E-05-8.20038E-06-8.26462E-19-1.61026E-18
 -1       617 1.00995E-04-2.91717E-05-3.07808E-05-8.44496E-06-9.94085E-19-1.56732E-18
 -1       618 9.88678E-05-2.61565E-05-3.11603E-05-7.14361E-06-1.36927E-18-1.54848E-18
 -1       619 9.69147E-05-2.34703E-05-3.14733E-05-3.91855E-06-1.35515E-18-1.45103E-18
 -1       620 9.60386E-05-2.23580E-05-3.15794E-05 6.42646E-07-1.23308E-18-1.17526E-18
 -1       621 9.67312E-05-2.34863E-05-3.13892E-05 5.16757E-06-1.09280E-18-1.53592E-18
 -1       622 9.85258E-05-2.62740E-05-3.09633E-05 8.24877E-06-5.72193E-19-2.21799E-18
 -1       623 1.00503E-04-2.95169E-05-3.04214E-05 9.23042E-06-3.38559E-20-2.16184E-18
 -1       624 1.01846E-04-3.20926E-05-2.98929E-05 8.36964E-06 4.46070E-19-2.01830E-18
 -1       625 1.02226E-04-3.34655E-05-2.94686E-05 6.42430E-06 4.88853E-19-2.61650E-18
 -1       626 1.01765E-04-3.36888E-05-2.91765E-05 4.17010E-06 3.03404E-19-2.67502E-18
 -1       627 1.00793E-04-3.31248E-05-2.90022E-05 2.13192E-06-1.31553E-19-2.01904E-18
 -1       628 9.96432E-05-3.21817E-05-2.89131E-05 5.52558E-07-3.80144E-19-1.23429E-18
 -1       629 9.85426E-05-3.11694E-05-2.88750E-05-5.26118E-07-1.91765E-19-5.87572E-19
 -1       630 9.76092E-05-3.02691E-05-2.88606E-05-1.16629E-06-5.67344E-19-3.39972E-19
 -1       631 9.68794E-05-2.95581E-05-2.88523E-05-1.46919E-06-4.64969E-20-7.23245E-19
 -1       632 9.63411E-05-2.90460E-05-2.88409E-05-1.53736E-06 1.02908E-18-1.02458E-18
 -1       633 9.59616E-05-2.87073E-05-2.88233E-05-1.45751E-06 2.95823E-19-5.71902E-19
 -1       634 9.57034E-05-2.85038E-05-2.87998E-05-1.29574E-06-3.43481E-19-4.48094E-19
 -1       635 9.55327E-05-2.83973E-05-2.87722E-05-1.09872E-06 6.71927E-19 2.61625E-19
 -1       636 9.54224E-05-2.83554E-05-2.87429E-05-8.96938E-07 1.09082E-18 6.99338E-19
 -1       637 9.53525E-05-2.83530E-05-2.87140E-05-7.08624E-07 3.40797E-19 5.48533E-19
 -1       638 9.53088E-05-2.83725E-05-2.86869E-05-5.43222E-07 1.26800E-19-1.47280E-19
 -1       639 9.52817E-05-2.84019E-05-2.86627E-05-4.04286E-07-1.02154E-18 3.26800E-19
 -1       640 9.52649E-05-2.84338E-05-2.86418E-05-2.91686E-07-9.89035E-20 8.36382E-19
 -1       641 9.52544E-05-2.84641E-05-2.86244E-05-2.03207E-07 3.71246E-19 1.65438E-18
 -1       642 9.52478E-05-2.84906E-05-2.86102E-05-1.35633E-07 1.44670E-18 1.48539E-18
 -1       643 9.52437E-05-2.85126E-05-2.85990E-05-8.54454E-08 2.65564E-19 3.74071E-19
 -1       644 9.52410E-05-2.85302E-05-2.85903E-05-4.92375E-08 6.36166E-19 5.37769E-20
 -1       645 9.52392E-05-2.85436E-05-2.85838E-05-2.39471E-08 2.17829E-18-1.39423E-19
 -1       646 9.52380E-05-2.85536E-05-2.85790E-05-6.95643E-09-4.35792E-19-1.77506E-18
 -1       647 9.52373E-05-2.85609E-05-2.85756E-05 3.89020E-09-1.25081E-18-1.40650E-18
 -1       648 9.52368E-05-2.85659E-05-2.85733E-05 1.03139E-08-1.19184E-18-6.74273E-19
 -1       649 9.52366E-05-2.85693E-05-2.85717E-05 1.36507E-08-7.94508E-20-9.76764E-19
 -1       650 9.52364E-05-2.85714E-05-2.85707E-05 1.49092E-08-8.26933E-19-1.78559E-18
 -1       651 9.52364E-05-2.85727E-05-2.85702E-05 1.48283E-08-8.87888E-19-2.14418E-18
 -1       652 9.52365E-05-2.85734E-05-2.85699E-05 1.39296E-08 1.99039E-18-1.23857E-18
 -1       653 9.52366E-05-2.85738E-05-2.85698E-05 1.25630E-08 1.42860E-18-1.97164E-18
 -1       654 9.52368E-05-2.85740E-05-2.85697E-05 1.09458E-08-1.07852E-18-3.17093E-18
 -1       655 9.52370E-05-2.85743E-05-2.85698E-05 9.18714E-09 6.17664E-19-1.88043E-18
 -1       656 1.37726E-04-3.85967E-05-4.28647E-05-9.47949E-06-2.80912E-18 1.69237E-18
 -1       657 8.51365E-05-3.20321E-05-2.23467E-05-3.18207E-05-1.92259E-18-2.47265E-18
 -1       658 1.25576E-04-5.64461E-05-2.95499E-05 2.45880E-05 1.75200E-18 8.38774E-19
 -1       659 8.63564E-05-1.99455E-05-2.84481E-05 1.79518E-05-4.21614E-20 5.18158E-19
 -1       660 8.93933E-05-2.08867E-05-2.93545E-05 1.38790E-05 6.97827E-20-9.72909E-19
 -1       661 9.17378E-05-2.25045E-05-2.96667E-05 1.07926E-05 8.76820E-20-4.99146E-19
 -1       662 9.33747E-05-2.40736E-05-2.96963E-05 8.29124E-06-1.11768E-18-5.03588E-19
 -1       663 9.44092E-05-2.53542E-05-2.95915E-05 6.29801E-06-8.53438E-19-1.30061E-19
 -1       664 9.50068E-05-2.63148E-05-2.94369E-05 4.73599E-06 4.43960E-20-4.71550E-19
 -1       665 9.53178E-05-2.70030E-05-2.92760E-05 3.53052E-06-7.59355E-19-5.04132E-19
 -1       666 9.54546E-05-2.74838E-05-2.91290E-05 2.61130E-06-3.26635E-19-2.23565E-18
 -1       667 9.54922E-05-2.78155E-05-2.90034E-05 1.91599E-06-3.17363E-19-1.55041E-18
 -1       668 9.54781E-05-2.80528E-05-2.88960E-05 1.37241E-06-4.82697E-19-1.60012E-18
 -1       669 9.54426E-05-2.82067E-05-2.88149E-05 9.88945E-07-2.06842E-18-2.01874E-18
 -1       670 9.54008E-05-2.83134E-05-2.87514E-05 7.03870E-07-8.22519E-19-2.90344E-18
 -1       671 9.53610E-05-2.83881E-05-2.87025E-05 4.93375E-07-1.25305E-19-3.38351E-18
 -1       672 9.53268E-05-2.84410E-05-2.86652E-05 3.39051E-07 2.22606E-19-1.41138E-18
 -1       673 9.52991E-05-2.84787E-05-2.86372E-05 2.26920E-07-1.42234E-18-1.39443E-18
 -1       674 9.52778E-05-2.85058E-05-2.86165E-05 1.46341E-07-3.43751E-18-2.22626E-18
 -1       675 9.52614E-05-2.85264E-05-2.86007E-05 8.70237E-08-1.69770E-18-4.75126E-19
 -1       676 9.52503E-05-2.85404E-05-2.85899E-05 4.82291E-08 3.11120E-20 3.77411E-19
 -1       677 9.52428E-05-2.85506E-05-2.85824E-05 2.19845E-08 4.62308E-19 1.97555E-18
 -1       678 9.52379E-05-2.85578E-05-2.85772E-05 4.84104E-09 5.20809E-19 1.72592E-18
 -1       679 9.52350E-05-2.85630E-05-2.85737E-05-5.81040E-09 1.40006E-18 5.35407E-19
 -1       680 9.52334E-05-2.85666E-05-2.85715E-05-1.19237E-08 1.13146E-18-9.95393E-19
 -1       681 9.52327E-05-2.85690E-05-2.85701E-05-1.49446E-08 1.41903E-19-4.58591E-19
 -1       682 9.52326E-05-2.85706E-05-2.85694E-05-1.59269E-08 1.82946E-18 1.03092E-18
 -1       683 9.52330E-05-2.85717E-05-2.85691E-05-1.55829E-08 1.10721E-18-5.59486E-19
 -1       684 9.52335E-05-2.85723E-05-2.85691E-05-1.44820E-08-2.34521E-19 1.34052E-19
 -1       685 9.52342E-05-2.85727E-05-2.85692E-05-1.29730E-08 1.95215E-18-1.15135E-18
 -1       686 9.52349E-05-2.85730E-05-2.85694E-05-1.12604E-08 3.27456E-18-2.35197E-18
 -1       687 9.52356E-05-2.85733E-05-2.85696E-05-9.44952E-09 1.54334E-18-1.80412E-18
 -1       688 9.52367E-05-2.85740E-05-2.85697E-05-8.12697E-09 1.33846E-19-1.13681E-19
 -1       689 9.52438E-05-2.85801E-05-2.85702E-05-1.32102E-09 1.76507E-18 7.08599E-19
 -1       690 9.52373E-05-2.85744E-05-2.85698E-05 7.93648E-09 1.99493E-19-1.95432E-18
 -1       691 9.52421E-05-2.85786E-05-2.85700E-05-6.20104E-09 2.88606E-19 1.16899E-19
 -1       692 9.52438E-05-2.85801E-05-2.85702E-05 1.45560E-09 7.68197E-19-8.74886E-19
 -1       693 9.52432E-05-2.85796E-05-2.85701E-05-3.96829E-09-1.94226E-19 1.11269E-18
 -1       694 8.27420E-05-2.09670E-05-2.63699E-05-2.34060E-05-2.77612E-19-1.60446E-18
 -1       695 4.69476E-05-1.75647E-05-1.20552E-05-3.22728E-05 2.82086E-18 5.05716E-18
 -1       696 9.52432E-05-2.85796E-05-2.85701E-05 4.03360E-09 8.38132E-19-2.00643E-18
 -1       697 9.52420E-05-2.85785E-05-2.85701E-05 6.22906E-09 9.81255E-19-2.54160E-19
 -1       698 9.52403E-05-2.85771E-05-2.85700E-05 7.73030E-09 1.71805E-18-7.91756E-19
 -1       699 9.98005E-05-2.53211E-05-3.19219E-05-7.83894E-06-1.50502E-18-2.76959E-18
 -1       700 3.53141E-05-7.46924E-06-1.13278E-05-8.13390E-06 4.05656E-19 5.30613E-18
 -1       701 1.25961E-04-1.60043E-05-4.75823E-05-1.24525E-05-4.12256E-18-2.78872E-19
 -1       702 3.82277E-05-7.62068E-06-1.24995E-05-1.02676E-05 6.05013E-19-5.96512E-18
 -1       703 8.40179E-05-2.15347E-05-2.67100E-05 2.27190E-05-2.53743E-18 1.31654E-18
 -1       704 8.45685E-05-2.88486E-05-2.36179E-05 2.91378E-05-4.03139E-18 1.63702E-19
 -1       705 7.35237E-05-3.40980E-05-1.64866E-05-4.27598E-05 4.35544E-18 2.51000E-18
 -1       706 1.01593E-04-2.89232E-05-3.11479E-05-6.81863E-06-1.42085E-18-2.29589E-18
 -1       707 7.20044E-05-5.49526E-06-2.85003E-05 9.83020E-06 3.04538E-18-3.12378E-18
 -1       708 3.54417E-05-6.35198E-06-1.19033E-05 1.67538E-05 2.55135E-18-5.92166E-18
 -1       709 1.38901E-04-5.21233E-05-3.73326E-05 2.95046E-06-7.26003E-19 1.59592E-18
 -1       710 5.82019E-05-1.83417E-05-1.65534E-05-2.66096E-05-8.98914E-19-4.88415E-18
 -1       711 6.04378E-05-2.24261E-05-1.58067E-05 3.95478E-05 3.95334E-18-3.64706E-18
 -1       712 9.76996E-05-2.39450E-05-3.16145E-05 2.58966E-07 3.68073E-19-3.29566E-18
 -1       713 1.33506E-04-3.03554E-05-4.45750E-05 1.23630E-05-1.77840E-18-4.90678E-18
 -1       714 9.18948E-05-4.19846E-05-2.11611E-05 4.19516E-05 3.56026E-18-1.30499E-18
 -1       715 1.36749E-04-5.07331E-05-3.70587E-05 1.02667E-06 7.24491E-19-5.21948E-18
 -1       716 1.23480E-04-1.36962E-05-4.75425E-05 1.07488E-05-3.26584E-18-4.26559E-18
 -1       717 1.05092E-04-4.97700E-05-2.34026E-05 3.16579E-05-4.22691E-18-9.46771E-19
 -1       718 9.94537E-05-2.50692E-05-3.18827E-05-3.93190E-06-3.51975E-19-3.20565E-18
 -1       719 8.96874E-05-1.89018E-05-3.03432E-05 9.68055E-06 1.86849E-18-3.35881E-18
 -1       720 9.52404E-05-2.85772E-05-2.85699E-05-7.74204E-09 1.90585E-18-7.25441E-19
 -1       721 1.27308E-04-5.80981E-05-2.96715E-05-2.04434E-05 3.59841E-18-3.03206E-18
 -1       722 1.00945E-04-4.87255E-05-2.21549E-05-3.89150E-05 4.43536E-18 2.09574E-19
 -1       723 9.52386E-05-2.85757E-05-2.85698E-05-8.31343E-09 7.53856E-19 8.65368E-19
 -1       724 9.52389E-05-2.85758E-05-2.85699E-05 8.70231E-09 6.60048E-19-2.74061E-18
 -1       725 9.46122E-05-2.20837E-05-3.10893E-05 5.05796E-06 1.15247E-18-3.32786E-18
 -1       726 7.01483E-05-2.97954E-05-1.68564E-05 3.29113E-05-4.38644E-18 1.39273E-18
 -1       727 4.67446E-05-4.09659E-06-1.79293E-05 2.47943E-06 1.95227E-18-4.91329E-18
 -1       728 7.02680E-05-6.62694E-06-2.72276E-05-1.58856E-06 2.30497E-18-2.75315E-18
 -1       729 5.15092E-05-1.15079E-05-1.68187E-05-1.87363E-05 1.78068E-18 3.51139E-18
 -1       730 1.06870E-04-3.38736E-05-3.12856E-05-7.58001E-06-7.59204E-19-1.47491E-18
 -1       731 1.06592E-04-3.22498E-05-3.18672E-05-9.20007E-06-8.63395E-19-1.12549E-18
 -1       732 1.04760E-04-2.85378E-05-3.26755E-05-9.52684E-06-1.29774E-18-1.22079E-18
 -1       733 1.01929E-04-2.38168E-05-3.34777E-05-7.35425E-06-1.30543E-18-9.05218E-19
 -1       734 9.97833E-05-2.06307E-05-3.39130E-05-2.49635E-06-1.31545E-18-1.21679E-18
 -1       735 9.95840E-05-2.05909E-05-3.38495E-05 3.47337E-06-1.64854E-18-1.59140E-18
 -1       736 1.01547E-04-2.39535E-05-3.32525E-05 8.25360E-06-8.89752E-19-1.47261E-18
 -1       737 1.04134E-04-2.88454E-05-3.22734E-05 1.02105E-05-1.30587E-19-1.58894E-18
 -1       738 1.05950E-04-3.31575E-05-3.11962E-05 9.39319E-06 1.95692E-19-2.40754E-18
 -1       739 1.06241E-04-3.56124E-05-3.02677E-05 6.93752E-06 4.14401E-20-2.54625E-18
 -1       740 1.05193E-04-3.61617E-05-2.95861E-05 4.07926E-06-9.27114E-22-2.55760E-18
 -1       741 1.03383E-04-3.53801E-05-2.91450E-05 1.60421E-06 8.11901E-19-2.30012E-18
 -1       742 1.01374E-04-3.39500E-05-2.88963E-05-1.85125E-07 7.91679E-19-1.47772E-18
 -1       743 9.95443E-05-3.23965E-05-2.87779E-05-1.30135E-06 5.18240E-19-6.72127E-19
 -1       744 9.80617E-05-3.10128E-05-2.87355E-05-1.87844E-06-7.89746E-20-2.91232E-19
 -1       745 9.69607E-05-2.99247E-05-2.87299E-05-2.07542E-06-1.39686E-19-4.17704E-19
 -1       746 9.61993E-05-2.91469E-05-2.87368E-05-2.03132E-06 4.06888E-19 2.42024E-19
 -1       747 9.57065E-05-2.86387E-05-2.87433E-05-1.85021E-06 8.84863E-19-4.83782E-19
 -1       748 9.54095E-05-2.83405E-05-2.87439E-05-1.60408E-06 2.49654E-19-1.85267E-19
 -1       749 9.52462E-05-2.81923E-05-2.87373E-05-1.33959E-06 1.04087E-18 7.81265E-19
 -1       750 9.51684E-05-2.81437E-05-2.87249E-05-1.08486E-06 3.40111E-19 3.87723E-19
 -1       751 9.51418E-05-2.81555E-05-2.87084E-05-8.55205E-07 6.21565E-19-1.29127E-19
 -1       752 9.51430E-05-2.81999E-05-2.86899E-05-6.57467E-07-3.88526E-19-2.05576E-19
 -1       753 9.51573E-05-2.82581E-05-2.86710E-05-4.93099E-07-2.44629E-19 1.79911E-19
 -1       754 9.51759E-05-2.83187E-05-2.86531E-05-3.60385E-07-5.85779E-19 1.03370E-18
 -1       755 9.51942E-05-2.83750E-05-2.86368E-05-2.55940E-07 6.11741E-19 6.78424E-19
 -1       756 9.52098E-05-2.84238E-05-2.86226E-05-1.75695E-07 7.47925E-19 7.99141E-19
 -1       757 9.52221E-05-2.84641E-05-2.86105E-05-1.15489E-07 2.34540E-19 9.07113E-20
 -1       758 9.52310E-05-2.84962E-05-2.86006E-05-7.14169E-08-1.35040E-19 3.92600E-19
 -1       759 9.52371E-05-2.85208E-05-2.85927E-05-4.00117E-08 1.94014E-19-1.09837E-18
 -1       760 9.52409E-05-2.85392E-05-2.85865E-05-1.83248E-08-2.24223E-20-1.60965E-18
 -1       761 9.52430E-05-2.85524E-05-2.85817E-05-3.92655E-09-1.03644E-18-2.56582E-18
 -1       762 9.52439E-05-2.85616E-05-2.85781E-05 5.13554E-09-8.76459E-19-2.25043E-18
 -1       763 9.52440E-05-2.85678E-05-2.85755E-05 1.03931E-08 1.26613E-19-5.78691E-19
 -1       764 9.52435E-05-2.85717E-05-2.85736E-05 1.30184E-08 1.52462E-19 1.94987E-18
 -1       765 9.52427E-05-2.85740E-05-2.85723E-05 1.38861E-08-6.57654E-19 1.92799E-18
 -1       766 9.52419E-05-2.85752E-05-2.85714E-05 1.36307E-08 6.18750E-19 1.89038E-18
 -1       767 9.52410E-05-2.85758E-05-2.85708E-05 1.26955E-08 5.79935E-19-7.83633E-19
 -1       768 9.52402E-05-2.85759E-05-2.85704E-05 1.13761E-08-9.44427E-19-1.87286E-18
 -1       769 9.52394E-05-2.85758E-05-2.85701E-05 1.01000E-08 3.14149E-19-1.87428E-18
 -1       770 1.08921E-04-4.57851E-05-2.69747E-05 2.79317E-05 2.53164E-18-5.25790E-19
 -1       771 1.13146E-04-1.33412E-05-4.30245E-05-7.83300E-06-3.11868E-18-8.05211E-19
 -1       772 8.72892E-05-3.62912E-05-2.16909E-05-3.45340E-05 4.12731E-18 5.84962E-19
 -1       773 7.81836E-05-1.53989E-05-2.68962E-05 1.06298E-05 1.42937E-18 2.61351E-19
 -1       774 9.03312E-05-2.26639E-05-2.89995E-05 5.77574E-06-1.00971E-18-1.70598E-18
 -1       775 9.21369E-05-2.42743E-05-2.90833E-05 4.61099E-06-1.51558E-19-1.07832E-18
 -1       776 9.33188E-05-2.54788E-05-2.90738E-05 3.62284E-06-4.80333E-19-9.73420E-19
 -1       777 9.40755E-05-2.63580E-05-2.90214E-05 2.80521E-06-3.62267E-20-1.71834E-19
 -1       778 9.45505E-05-2.69910E-05-2.89538E-05 2.14193E-06-3.56807E-19-5.94409E-19
 -1       779 9.48538E-05-2.74617E-05-2.88822E-05 1.59235E-06 2.93161E-19-1.45445E-18
 -1       780 9.50259E-05-2.77784E-05-2.88202E-05 1.18494E-06 5.26090E-19-1.90112E-18
 -1       781 9.51274E-05-2.80047E-05-2.87668E-05 8.69246E-07-1.02753E-18-3.46971E-18
 -1       782 9.51858E-05-2.81670E-05-2.87223E-05 6.27783E-07-1.05623E-19-3.82589E-18
 -1       783 9.52184E-05-2.82839E-05-2.86861E-05 4.45172E-07-7.10252E-19-2.11107E-18
 -1       784 9.52356E-05-2.83683E-05-2.86574E-05 3.08695E-07-3.21535E-19-1.80090E-18
 -1       785 9.52439E-05-2.84294E-05-2.86348E-05 2.07939E-07-1.85771E-18-9.22826E-19
 -1       786 9.52475E-05-2.84755E-05-2.86165E-05 1.31739E-07-3.11944E-18-2.77189E-18
 -1       787 9.52482E-05-2.85069E-05-2.86034E-05 8.04546E-08-1.72830E-18-2.97081E-18
 -1       788 9.52476E-05-2.85293E-05-2.85936E-05 4.46142E-08-1.51175E-18-1.11840E-18
 -1       789 9.52464E-05-2.85452E-05-2.85863E-05 2.02599E-08 1.76824E-19-1.40713E-18
 -1       790 9.52451E-05-2.85562E-05-2.85809E-05 4.29719E-09 2.10666E-18-1.23328E-18
 -1       791 9.52437E-05-2.85637E-05-2.85771E-05-5.64391E-09 7.64801E-19 1.03033E-18
 -1       792 9.52425E-05-2.85686E-05-2.85745E-05-1.13572E-08-4.20890E-19 9.71503E-19
 -1       793 9.52414E-05-2.85717E-05-2.85727E-05-1.41820E-08 6.00032E-19-8.69855E-19
 -1       794 9.52404E-05-2.85736E-05-2.85715E-05-1.51013E-08 2.34784E-18-1.35425E-18
 -1       795 9.52397E-05-2.85746E-05-2.85708E-05-1.47526E-08 2.22163E-19-2.12148E-20
 -1       796 9.52391E-05-2.85750E-05-2.85703E-05-1.37006E-08 2.09457E-18-2.16452E-18
 -1       797 9.52386E-05-2.85751E-05-2.85701E-05-1.22549E-08 2.80123E-18-2.02770E-18
 -1       798 9.52383E-05-2.85751E-05-2.85699E-05-1.06054E-08 5.31869E-19 1.30156E-18
 -1       799 9.52385E-05-2.85754E-05-2.85699E-05-9.46775E-09 9.89944E-19 1.36174E-18
 -1       800 7.55569E-05-1.06822E-05-2.77862E-05-9.36161E-06 1.74442E-18-1.89590E-18
 -1       801 8.12443E-05-1.63775E-05-2.78116E-05 1.79137E-05 2.69653E-18-2.92738E-18
 -1       802 1.27018E-04-5.20330E-05-3.21699E-05-4.51962E-06 1.95616E-18-3.98957E-18
 -1       803 9.52458E-05-2.85803E-05-2.85709E-05 1.00623E-10-4.75323E-19 1.99108E-19
 -1       804 9.52423E-05-2.85779E-05-2.85704E-05 8.21232E-09 7.17264E-19 1.22816E-19
 -1       805 9.52453E-05-2.85800E-05-2.85708E-05 3.18759E-09-1.49030E-18-1.94400E-18
 -1       806 7.07354E-05-1.30622E-05-2.46454E-05 1.35962E-05-4.51361E-19 1.67600E-19
 -1       807 1.20942E-04-2.37876E-05-4.18675E-05 1.33520E-05-1.89988E-18-4.69164E-18
 -1       808 9.52442E-05-2.85792E-05-2.85707E-05 6.00711E-09 4.47246E-20 1.07841E-19
 -1       809 8.76423E-05-2.05958E-05-2.87332E-05 7.11954E-06 1.20138E-19-1.06812E-18
 -1       810 8.37588E-05-1.81126E-05-2.81327E-05 8.68105E-06-1.04605E-19-8.99384E-19
 -1       811 1.24190E-04-2.83826E-05-4.12754E-05-1.36644E-05-2.47786E-18 3.80741E-19
 -1       812 1.05659E-04-3.31326E-05-3.10916E-05-6.09340E-06-9.27564E-19-1.54680E-18
 -1       813 1.31690E-04-4.38373E-05-3.78012E-05-6.66535E-06-1.09420E-18 1.13742E-18
 -1       814 1.28424E-04-4.09053E-05-3.76237E-05 9.49586E-06-3.79510E-19-5.09906E-18
 -1       815 7.96980E-05-2.92401E-05-2.14249E-05 3.68383E-05 3.85554E-18-2.31657E-18
 -1       816 1.28838E-04-5.19511E-05-3.29590E-05 7.59729E-06 6.07245E-19 8.06872E-19
 -1       817 6.63417E-05-2.26332E-05-1.84726E-05-3.14557E-05 3.90374E-18 2.05755E-18
 -1       818 6.84370E-05-1.16279E-05-2.41983E-05-1.52798E-05 9.06682E-19-2.82555E-18
 -1       819 1.11484E-04-1.38326E-05-4.20671E-05 7.11536E-06-1.84951E-18-2.69649E-18
 -1       820 6.60526E-05-1.75051E-05-2.04741E-05 2.35203E-05-4.03806E-18 1.40475E-18
 -1       821 4.82720E-05-7.55306E-06-1.71449E-05 3.87842E-06-1.16697E-18 2.89839E-18
 -1       822 1.11919E-04-4.96464E-05-2.66383E-05-2.46628E-05 3.93009E-18-1.25918E-18
 -1       823 5.34851E-05-1.04491E-05-1.81714E-05 2.53949E-05 3.42256E-18-4.05101E-18
 -1       824 9.06417E-05-2.28153E-05-2.90625E-05 1.51185E-05 2.14909E-18-2.82941E-18
 -1       825 6.70133E-05-5.29917E-06-2.64209E-05 8.46036E-06 2.82073E-18-3.23767E-18
 -1       826 9.52424E-05-2.85780E-05-2.85704E-05-8.19018E-09 4.28284E-19-2.52186E-18
 -1       827 5.48316E-05-8.49834E-06-1.95565E-05-1.32809E-05 7.17453E-19-4.17900E-18
 -1       828 1.06529E-04-1.40085E-05-3.97341E-05-2.74073E-07-1.98130E-18-1.71201E-18
 -1       829 9.52443E-05-2.85793E-05-2.85707E-05-5.91987E-09-6.66446E-19 1.45209E-18
 -1       830 9.52454E-05-2.85801E-05-2.85708E-05-3.04899E-09-1.56998E-18 2.53494E-18
 -1       831 7.19908E-05-9.47661E-06-2.67684E-05 1.58906E-05 2.98483E-18-3.12599E-18
 -1       832 1.03723E-04-3.07688E-05-3.12531E-05-5.35718E-06-9.08596E-19-2.01044E-18
 -1       833 1.01403E-04-2.90620E-05-3.10058E-05 3.48464E-06 6.88732E-19-2.61405E-18
 -1       834 1.02728E-04-2.95610E-05-3.13757E-05-1.50613E-06-1.14555E-19-2.53943E-18
 -1       835 9.52409E-05-2.85769E-05-2.85703E-05 9.29380E-09-1.53326E-19-6.48995E-19
 -1       836 1.15850E-04-4.77387E-05-2.92120E-05-1.09759E-05 2.12343E-18-2.61663E-18
 -1       837 9.68513E-05-3.79735E-05-2.51840E-05-2.45574E-05 2.52988E-18-6.56639E-19
 -1       838 1.11249E-04-3.26922E-05-3.36609E-05-1.02463E-05-9.23901E-19-8.69059E-19
 -1       839 1.08652E-04-2.65108E-05-3.52436E-05-1.09545E-05-1.40107E-18-8.77450E-19
 -1       840 1.04842E-04-1.99889E-05-3.63962E-05-7.01349E-06-1.59370E-18-9.07832E-19
 -1       841 1.07944E-04-2.68594E-05-3.48031E-05 1.11754E-05-8.32369E-19-2.08576E-18
 -1       842 1.10672E-04-3.37581E-05-3.29786E-05 1.04570E-05-2.70391E-19-2.46703E-18
 -1       843 1.11178E-04-3.80029E-05-3.13556E-05 7.18050E-06 2.31715E-19-2.38897E-18
 -1       844 1.09459E-04-3.91427E-05-3.01380E-05 3.32020E-06 2.53568E-19-2.14882E-18
 -1       845 1.06526E-04-3.80866E-05-2.93340E-05 1.97765E-07 3.90367E-19-1.91653E-18
 -1       846 1.03392E-04-3.60048E-05-2.88788E-05-1.79920E-06 1.41903E-18-2.35769E-18
 -1       847 1.00652E-04-3.37739E-05-2.86620E-05-2.80059E-06 1.00846E-18-1.39926E-18
 -1       848 9.85062E-05-3.18052E-05-2.85864E-05-3.12665E-06 4.97763E-19-8.69924E-19
 -1       849 9.69750E-05-3.02801E-05-2.85837E-05-3.03956E-06 1.82329E-19-3.04226E-19
 -1       850 9.59646E-05-2.92059E-05-2.86109E-05-2.73949E-06 1.05555E-18-3.47523E-19
 -1       851 9.53510E-05-2.85149E-05-2.86440E-05-2.35253E-06 2.78376E-19-1.20351E-19
 -1       852 9.50176E-05-2.81180E-05-2.86712E-05-1.95220E-06 5.57123E-19 3.23994E-19
 -1       853 9.48690E-05-2.79296E-05-2.86883E-05-1.57791E-06 7.77884E-19 2.06843E-19
 -1       854 9.48333E-05-2.78783E-05-2.86950E-05-1.24780E-06 7.75697E-19 2.28883E-19
 -1       855 9.48604E-05-2.79095E-05-2.86932E-05-9.67644E-07 5.14240E-19 6.32224E-19
 -1       856 9.49169E-05-2.79845E-05-2.86853E-05-7.36534E-07 2.74617E-19 1.90949E-19
 -1       857 9.49826E-05-2.80775E-05-2.86736E-05-5.50150E-07-1.87176E-19 3.31341E-19
 -1       858 9.50458E-05-2.81723E-05-2.86600E-05-4.02727E-07 3.31273E-19 3.21966E-19
 -1       859 9.51008E-05-2.82599E-05-2.86461E-05-2.88186E-07-4.29601E-19 5.67168E-19
 -1       860 9.51457E-05-2.83358E-05-2.86328E-05-2.00733E-07 8.02360E-19-2.57999E-21
 -1       861 9.51803E-05-2.83987E-05-2.86207E-05-1.35174E-07-5.47678E-19-6.97789E-19
 -1       862 9.52058E-05-2.84489E-05-2.86101E-05-8.69741E-08 8.86250E-19-1.30667E-18
 -1       863 9.52238E-05-2.84877E-05-2.86012E-05-5.22929E-08-4.42712E-19-1.90560E-18
 -1       864 9.52357E-05-2.85169E-05-2.85938E-05-2.79596E-08 2.18748E-20-2.29124E-18
 -1       865 9.52431E-05-2.85381E-05-2.85878E-05-1.14149E-08-4.83487E-19-2.41451E-18
 -1       866 9.52472E-05-2.85531E-05-2.85832E-05-6.19188E-10-9.64552E-19-1.80273E-18
 -1       867 9.52489E-05-2.85634E-05-2.85795E-05 6.02714E-09-9.75913E-20-2.20032E-18
 -1       868 9.52492E-05-2.85700E-05-2.85768E-05 9.75282E-09 1.79731E-18-1.34235E-18
 -1       869 9.52484E-05-2.85740E-05-2.85747E-05 1.14824E-08 8.85133E-19-7.81373E-19
 -1       870 9.52471E-05-2.85763E-05-2.85732E-05 1.18959E-08 6.48426E-19 2.82998E-19
 -1       871 9.52456E-05-2.85773E-05-2.85721E-05 1.14823E-08 1.49532E-19 1.18143E-18
 -1       872 9.52440E-05-2.85777E-05-2.85713E-05 1.05693E-08-7.46102E-20 2.16385E-18
 -1       873 5.82183E-05-9.50646E-06-2.07700E-05-5.26799E-06 8.54881E-19 1.90086E-18
 -1       874 8.91936E-05-2.24252E-05-2.86150E-05 3.20193E-06-9.94579E-19-2.23816E-18
 -1       875 9.34101E-05-2.60912E-05-2.88511E-05 1.94889E-06 5.66473E-19-2.01999E-18
 -1       876 9.40541E-05-2.67839E-05-2.88301E-05 1.53611E-06 2.05496E-18-3.14193E-18
 -1       877 9.44616E-05-2.72663E-05-2.87980E-05 1.19694E-06 3.77540E-19-2.99775E-18
 -1       878 9.47343E-05-2.76214E-05-2.87627E-05 9.13575E-07-1.50988E-19-1.77871E-18
 -1       879 9.49161E-05-2.78826E-05-2.87286E-05 6.83647E-07-3.08435E-19-1.02000E-18
 -1       880 9.50367E-05-2.80749E-05-2.86979E-05 5.01271E-07-1.21224E-18-3.86746E-19
 -1       881 9.51164E-05-2.82163E-05-2.86714E-05 3.59468E-07-1.82365E-19-5.27776E-19
 -1       882 9.51685E-05-2.83204E-05-2.86492E-05 2.51110E-07-1.29455E-18 2.57387E-19
 -1       883 9.52035E-05-2.83998E-05-2.86301E-05 1.66555E-07-1.94007E-18-6.31295E-19
 -1       884 9.52243E-05-2.84545E-05-2.86156E-05 1.07933E-07-2.08491E-18-8.02062E-19
 -1       885 9.52370E-05-2.84940E-05-2.86041E-05 6.57251E-08-1.37999E-18-1.50737E-18
 -1       886 9.52443E-05-2.85222E-05-2.85952E-05 3.60987E-08-4.53872E-20-2.83854E-18
 -1       887 9.52481E-05-2.85420E-05-2.85883E-05 1.59123E-08-2.36658E-19-7.96205E-19
 -1       888 9.52495E-05-2.85556E-05-2.85831E-05 2.67949E-09-7.89568E-19-2.55145E-19
 -1       889 9.52495E-05-2.85647E-05-2.85792E-05-5.53888E-09 4.29537E-19 1.15547E-18
 -1       890 9.52487E-05-2.85705E-05-2.85764E-05-1.02319E-08 1.04146E-18 6.72158E-20
 -1       891 9.52473E-05-2.85742E-05-2.85742E-05-1.25693E-08 2.92270E-18-2.17218E-18
 -1       892 9.52458E-05-2.85760E-05-2.85728E-05-1.31790E-08 3.04109E-19-3.22617E-18
 -1       893 9.52443E-05-2.85768E-05-2.85718E-05-1.28068E-08 9.01369E-19-2.22689E-18
 -1       894 9.52429E-05-2.85771E-05-2.85711E-05-1.18587E-08 1.42726E-18 4.27387E-19
 -1       895 9.52416E-05-2.85770E-05-2.85706E-05-1.05783E-08 2.13055E-18 9.42349E-19
 -1       896 1.24999E-04-4.48169E-05-3.43844E-05-3.37133E-06-2.66156E-19 2.97706E-19
 -1       897 9.52405E-05-2.85768E-05-2.85701E-05-9.13357E-09 9.16731E-19 1.32630E-19
 -1       898 9.52478E-05-2.85805E-05-2.85717E-05 1.89018E-09-9.70679E-19-3.36992E-18
 -1       899 1.21274E-04-3.53937E-05-3.68913E-05-1.12713E-05-1.27469E-18 3.85387E-19
 -1       900 6.87883E-05-1.19153E-05-2.43266E-05 2.21597E-06 1.20059E-18 4.67688E-20
 -1       901 6.34288E-05-5.37236E-06-2.47618E-05-1.30618E-06 2.24512E-18-3.43045E-18
 -1       902 8.63827E-05-2.04132E-05-2.82724E-05 3.43889E-06-3.10135E-19-1.57951E-18
 -1       903 9.76186E-05-2.70999E-05-3.02266E-05 9.51280E-06 1.50519E-18-2.71173E-18
 -1       904 8.24001E-05-1.79363E-05-2.76251E-05 3.41026E-06 8.07940E-19-1.28336E-18
 -1       905 7.66593E-05-1.49109E-05-2.64483E-05 3.06023E-06 1.19486E-18-4.15533E-19
 -1       906 9.11484E-05-2.39962E-05-2.87795E-05 2.81983E-06-7.33708E-19-9.27905E-19
 -1       907 1.09607E-04-3.59566E-05-3.15625E-05-4.66209E-06-7.53326E-19-1.55453E-18
 -1       908 1.16589E-04-4.55746E-05-3.04234E-05 1.21162E-05 1.24086E-18-4.62518E-19
 -1       909 1.11690E-04-3.63084E-05-3.23093E-05-7.44392E-06-4.29795E-19-1.23508E-18
 -1       910 7.05770E-05-1.73867E-05-2.26862E-05 2.76479E-05 3.37769E-18-3.02156E-18
 -1       911 1.17823E-04-3.15044E-05-3.70625E-05 1.24375E-05-1.04834E-18-3.36437E-18
 -1       912 1.12794E-04-2.23961E-05-3.88290E-05-1.15015E-05-1.84636E-18-1.75655E-19
 -1       913 1.09921E-04-2.13908E-05-3.80188E-05 1.06607E-05-1.48777E-18-2.06357E-18
 -1       914 9.24931E-05-2.51930E-05-2.88429E-05 2.38187E-06-3.29142E-19-1.04773E-18
 -1       915 5.73530E-05-5.46310E-06-2.21197E-05 1.22148E-05 2.79275E-18-3.76160E-18
 -1       916 9.20904E-05-3.16422E-05-2.58270E-05 2.77919E-05 2.97218E-18-1.84131E-18
 -1       917 1.21066E-04-4.27468E-05-3.36179E-05 6.43682E-06 4.69964E-19-3.52101E-18
 -1       918 5.61963E-05-4.73272E-06-2.18389E-05 7.45517E-09 2.04682E-18-3.99494E-18
 -1       919 1.06272E-04-4.18805E-05-2.75823E-05-1.54113E-05 1.90122E-18-8.46416E-19
 -1       920 1.05899E-04-3.44521E-05-3.06088E-05 6.70555E-06 1.01640E-18-1.79692E-18
 -1       921 1.05816E-04-1.98545E-05-3.68867E-05 8.17046E-06-1.17576E-18-1.66424E-18
 -1       922 1.07166E-04-3.43100E-05-3.12215E-05 2.18732E-07 9.03492E-20-1.98346E-18
 -1       923 6.54840E-05-1.56256E-05-2.12548E-05-1.82599E-05 2.86782E-18 8.89603E-19
 -1       924 9.52423E-05-2.85773E-05-2.85707E-05 1.00303E-08-7.66355E-19 4.51478E-19
 -1       925 9.52468E-05-2.85799E-05-2.85715E-05 5.26117E-09-1.50740E-18-4.82163E-19
 -1       926 9.52478E-05-2.85805E-05-2.85717E-05-1.65329E-09-1.55326E-18 2.22566E-18
 -1       927 9.52450E-05-2.85790E-05-2.85712E-05-8.04516E-09 2.30621E-18-2.14295E-18
 -1       928 9.09811E-05-2.68906E-05-2.73909E-05 2.13533E-05 2.69417E-18-2.44440E-18
 -1       929 1.16897E-04-4.49470E-05-3.08351E-05-3.09037E-07 1.01091E-18-2.32704E-18
 -1       930 8.32483E-05-2.91848E-05-2.31115E-05-2.68027E-05 3.43423E-18 1.53502E-18
 -1       931 1.04931E-04-3.72979E-05-2.89929E-05 1.72964E-05 1.91709E-18-1.63272E-18
 -1       932 9.52445E-05-2.85786E-05-2.85711E-05 8.30491E-09-2.16723E-18 1.62550E-20
 -1       933 8.69587E-05-2.13619E-05-2.81126E-05 5.52974E-07 8.62423E-20-3.97802E-19
 -1       934 1.12699E-04-3.92864E-05-3.14594E-05 1.48585E-06 2.55547E-19-1.01321E-18
 -1       935 6.95627E-05-1.37568E-05-2.38835E-05-7.66495E-06 2.23142E-18-3.02314E-19
 -1       936 1.05314E-04-3.82044E-05-2.87660E-05-4.62163E-06 1.12894E-18-5.83190E-19
 -1       937 1.01529E-04-3.51190E-05-2.84604E-05-5.24023E-06 1.95389E-18-2.05304E-19
 -1       938 9.86444E-05-3.24487E-05-2.83708E-05-5.06327E-06 1.35828E-18 1.48336E-19
 -1       939 9.66955E-05-3.04552E-05-2.83891E-05-4.45353E-06 7.30254E-19 8.43257E-19
 -1       940 9.54778E-05-2.90929E-05-2.84507E-05-3.71363E-06 7.43199E-19 1.43873E-18
 -1       941 9.47927E-05-2.82448E-05-2.85204E-05-2.98986E-06 6.22330E-19 1.30638E-18
 -1       942 9.44675E-05-2.77777E-05-2.85813E-05-2.34885E-06 5.90485E-19 7.25235E-19
 -1       943 9.43702E-05-2.75750E-05-2.86265E-05-1.81197E-06 8.09926E-19 9.49419E-19
 -1       944 9.44049E-05-2.75418E-05-2.86557E-05-1.37794E-06 3.83530E-19 6.48564E-19
 -1       945 9.45069E-05-2.76084E-05-2.86708E-05-1.03494E-06 6.08868E-19-7.37343E-19
 -1       946 9.46346E-05-2.77262E-05-2.86751E-05-7.68198E-07 3.97452E-19-3.09859E-19
 -1       947 9.47636E-05-2.78630E-05-2.86717E-05-5.63266E-07-6.95630E-21-8.00814E-19
 -1       948 9.48806E-05-2.79989E-05-2.86636E-05-4.07363E-07-4.23757E-19-5.20523E-19
 -1       949 9.49797E-05-2.81231E-05-2.86528E-05-2.89851E-07 1.80986E-19-9.28669E-20
 -1       950 9.50595E-05-2.82303E-05-2.86411E-05-2.02120E-07 5.37606E-20 9.39505E-19
 -1       951 9.51212E-05-2.83192E-05-2.86295E-05-1.37346E-07-7.54527E-20 1.04510E-19
 -1       952 9.51672E-05-2.83904E-05-2.86186E-05-9.01222E-08-9.72479E-19-3.70212E-19
 -1       953 9.52000E-05-2.84457E-05-2.86090E-05-5.62373E-08 3.90134E-19-1.86416E-18
 -1       954 9.52226E-05-2.84876E-05-2.86007E-05-3.23561E-08 3.87198E-20-1.15788E-18
 -1       955 9.52373E-05-2.85185E-05-2.85938E-05-1.59407E-08-5.99335E-19-5.62814E-19
 -1       956 9.52462E-05-2.85406E-05-2.85881E-05-5.02155E-09-1.12861E-18-2.07285E-18
 -1       957 9.52510E-05-2.85559E-05-2.85836E-05 1.92730E-09-4.89722E-19-1.85966E-18
 -1       958 9.52528E-05-2.85661E-05-2.85800E-05 6.06191E-09 1.24778E-18-6.28400E-19
 -1       959 9.52528E-05-2.85725E-05-2.85773E-05 8.24878E-09 1.14007E-18-1.69801E-18
 -1       960 9.52516E-05-2.85762E-05-2.85752E-05 9.12553E-09 6.96324E-19-2.77104E-18
 -1       961 9.52498E-05-2.85781E-05-2.85736E-05 9.15826E-09 1.69353E-18-1.86587E-18
 -1       962 9.52478E-05-2.85789E-05-2.85724E-05 8.67830E-09 3.65804E-19-3.29239E-19
 -1       963 9.32045E-05-2.61287E-05-2.87468E-05 1.14512E-06 7.27582E-19-3.17417E-18
 -1       964 9.45868E-05-2.75694E-05-2.87218E-05 6.24124E-07-9.37776E-19-5.64006E-19
 -1       965 9.48027E-05-2.78356E-05-2.87002E-05 4.78439E-07-1.32510E-19-1.45381E-18
 -1       966 9.49534E-05-2.80361E-05-2.86788E-05 3.56931E-07-1.08679E-18-4.32169E-20
 -1       967 9.50577E-05-2.81866E-05-2.86591E-05 2.58915E-07-4.98941E-19 2.89530E-21
 -1       968 9.51321E-05-2.83036E-05-2.86408E-05 1.78948E-07-1.18586E-18-6.48034E-19
 -1       969 9.51794E-05-2.83855E-05-2.86260E-05 1.21382E-07-1.41907E-18-1.18278E-18
 -1       970 9.52106E-05-2.84456E-05-2.86136E-05 7.85305E-08-5.92401E-19-2.59742E-18
 -1       971 9.52306E-05-2.84891E-05-2.86035E-05 4.74575E-08-1.45603E-18-2.68922E-18
 -1       972 9.52427E-05-2.85202E-05-2.85954E-05 2.55529E-08-4.55146E-19-3.31407E-18
 -1       973 9.52495E-05-2.85419E-05-2.85890E-05 1.06216E-08 1.26482E-19-3.54827E-18
 -1       974 9.52526E-05-2.85567E-05-2.85840E-05 8.61945E-10-9.08270E-19-2.55782E-18
 -1       975 9.52534E-05-2.85664E-05-2.85801E-05-5.16179E-09 8.63969E-20-2.15819E-18
 -1       976 9.52527E-05-2.85728E-05-2.85771E-05-8.65452E-09 2.34806E-18-1.62246E-18
 -1       977 9.52512E-05-2.85762E-05-2.85750E-05-1.01549E-08 1.98987E-18-8.44838E-20
 -1       978 9.52493E-05-2.85779E-05-2.85734E-05-1.04960E-08 2.98386E-19-7.69631E-19
 -1       979 9.52472E-05-2.85786E-05-2.85723E-05-1.01216E-08 6.45714E-19-2.35718E-18
 -1       980 9.52461E-05-2.85789E-05-2.85717E-05-9.13380E-09 1.75222E-18-3.42850E-18
 -1       981 9.42788E-05-2.72175E-05-2.87406E-05 7.91020E-07-1.93214E-19-4.56283E-19
 -1       982 1.18192E-04-3.85777E-05-3.41600E-05-8.25877E-06-6.07462E-19-1.86990E-19
 -1       983 9.38418E-05-2.67542E-05-2.87519E-05 9.70099E-07 4.84838E-19-7.52310E-19
 -1       984 8.37189E-05-1.94385E-05-2.75470E-05-5.56138E-07 5.24428E-19 4.86691E-19
 -1       985 8.93322E-05-2.29712E-05-2.84405E-05 1.09818E-06-1.07866E-18-1.06468E-18
 -1       986 1.14442E-04-3.96730E-05-3.20030E-05-2.29398E-06-3.04899E-20-7.32637E-19
 -1       987 9.52469E-05-2.85800E-05-2.85715E-05-5.06235E-09-5.72294E-19-3.80645E-19
 -1       988 1.16952E-04-4.23209E-05-3.20526E-05 7.59598E-07 1.49420E-19-5.63154E-19
 -1       989 9.54590E-05-3.40788E-05-2.63055E-05-1.79899E-05 2.20695E-18 6.29286E-20
 -1       990 8.66994E-05-2.78122E-05-2.52114E-05-1.89784E-05 2.42519E-18 1.50540E-18
 -1       991 7.56183E-05-1.96732E-05-2.39374E-05-1.63268E-05 2.68119E-18 1.27438E-18
 -1       992 9.23242E-05-2.53306E-05-2.87116E-05 1.26917E-06 1.01180E-18-3.06351E-18
 -1       993 7.93825E-05-1.72675E-05-2.66212E-05-2.47431E-06 9.25566E-19 8.39356E-20
 -1       994 1.10382E-04-4.17621E-05-2.94043E-05-3.37044E-06 4.35974E-19-1.20188E-18
 -1       995 9.52485E-05-2.85800E-05-2.85722E-05-5.98777E-09 2.68112E-19-3.25402E-18
 -1       996 9.52496E-05-2.85803E-05-2.85726E-05 3.96619E-09 7.69317E-19-2.49810E-18
 -1       997 9.52502E-05-2.85807E-05-2.85727E-05 1.83876E-10-9.24496E-19 1.47876E-19
 -1       998 1.09888E-04-4.28977E-05-2.86981E-05-9.07596E-06 1.32030E-18-1.11055E-18
 -1       999 9.10572E-05-2.42762E-05-2.86205E-05 1.28825E-06 3.13860E-19-2.54320E-18
 -1      1000 7.68922E-05-1.78139E-05-2.53308E-05-9.25330E-06 1.15964E-18 5.20561E-20
 -1      1001 9.47695E-05-2.78495E-05-2.86801E-05 2.84396E-07-2.51279E-18-3.63705E-19
 -1      1002 8.84224E-05-2.28079E-05-2.81209E-05-1.30862E-06 8.09333E-19 6.78028E-19
 -1      1003 9.80059E-05-3.26292E-05-2.80186E-05-7.77897E-06 1.41672E-18-4.61689E-19
 -1      1004 9.57758E-05-3.01964E-05-2.81071E-05-6.34476E-06 1.64658E-18-1.38244E-19
 -1      1005 9.45130E-05-2.86284E-05-2.82361E-05-4.94270E-06 1.25847E-18 5.99346E-19
 -1      1006 9.38859E-05-2.77023E-05-2.83639E-05-3.73706E-06 8.33116E-19 1.38963E-18
 -1      1007 9.36740E-05-2.72390E-05-2.84719E-05-2.76631E-06-3.38026E-19 8.32578E-19
 -1      1008 9.37039E-05-2.70789E-05-2.85535E-05-2.01537E-06 5.75039E-20 8.09031E-19
 -1      1009 9.38637E-05-2.71083E-05-2.86096E-05-1.45247E-06 3.59834E-19 1.33226E-19
 -1      1010 9.40771E-05-2.72412E-05-2.86441E-05-1.03764E-06-7.33597E-19-4.47338E-19
 -1      1011 9.43006E-05-2.74230E-05-2.86619E-05-7.36203E-07 4.98633E-19-1.55897E-18
 -1      1012 9.45085E-05-2.76176E-05-2.86676E-05-5.18820E-07 7.70999E-20-1.25148E-18
 -1      1013 9.46893E-05-2.78037E-05-2.86653E-05-3.62937E-07-6.24732E-19-8.01914E-19
 -1      1014 9.48391E-05-2.79704E-05-2.86580E-05-2.51397E-07 1.08809E-18-6.22168E-21
 -1      1015 9.49585E-05-2.81129E-05-2.86481E-05-1.72025E-07 5.35211E-19-2.54611E-20
 -1      1016 9.50504E-05-2.82304E-05-2.86372E-05-1.15397E-07-1.01161E-18-4.43419E-19
 -1      1017 9.51189E-05-2.83241E-05-2.86263E-05-7.56441E-08-1.08101E-18-6.36326E-19
 -1      1018 9.51687E-05-2.83976E-05-2.86162E-05-4.76928E-08-1.79383E-18-9.41927E-19
 -1      1019 9.52034E-05-2.84533E-05-2.86072E-05-2.82060E-08 6.50406E-19-9.25310E-19
 -1      1020 9.52267E-05-2.84948E-05-2.85994E-05-1.49376E-08 3.94654E-19-1.19047E-18
 -1      1021 9.52415E-05-2.85248E-05-2.85929E-05-6.12523E-09-1.61956E-18-1.03090E-18
 -1      1022 9.52500E-05-2.85458E-05-2.85875E-05-4.54629E-10 1.46675E-19 1.12082E-19
 -1      1023 9.52543E-05-2.85601E-05-2.85832E-05 3.00840E-09 5.76726E-19 6.76483E-19
 -1      1024 9.52556E-05-2.85694E-05-2.85798E-05 4.94680E-09 3.14855E-19-8.69987E-19
 -1      1025 9.52550E-05-2.85750E-05-2.85771E-05 5.85662E-09 3.06550E-20-1.52279E-18
 -1      1026 9.52533E-05-2.85781E-05-2.85751E-05 6.08473E-09 1.45682E-18-1.92180E-18
 -1      1027 9.52511E-05-2.85796E-05-2.85735E-05 5.90794E-09 6.95019E-19-2.35837E-18
 -1      1028 9.49263E-05-2.80429E-05-2.86644E-05 2.17439E-07-1.43678E-18-6.76971E-19
 -1      1029 9.45522E-05-2.75990E-05-2.86943E-05 3.57647E-07 1.94716E-19-8.40779E-19
 -1      1030 9.50418E-05-2.81960E-05-2.86482E-05 1.57982E-07-2.95694E-19-2.01796E-19
 -1      1031 9.51186E-05-2.83058E-05-2.86340E-05 1.12295E-07 2.55044E-19-8.78952E-19
 -1      1032 9.51712E-05-2.83878E-05-2.86215E-05 7.63725E-08-6.02089E-19-2.31066E-18
 -1      1033 9.52065E-05-2.84480E-05-2.86108E-05 4.92989E-08-9.63481E-19-1.64805E-18
 -1      1034 9.52293E-05-2.84918E-05-2.86018E-05 2.94616E-08-1.61067E-19-3.38420E-18
 -1      1035 9.52434E-05-2.85230E-05-2.85945E-05 1.54325E-08 2.10599E-19-3.16213E-18
 -1      1036 9.52513E-05-2.85447E-05-2.85886E-05 5.87237E-09-1.36693E-18-1.14396E-18
 -1      1037 9.52550E-05-2.85593E-05-2.85839E-05-3.64150E-10-4.28358E-19-1.97484E-18
 -1      1038 9.52560E-05-2.85692E-05-2.85801E-05-4.29899E-09 2.29190E-19-1.96363E-18
 -1      1039 9.52551E-05-2.85748E-05-2.85773E-05-6.30477E-09 2.01574E-18-1.60261E-18
 -1      1040 9.52533E-05-2.85779E-05-2.85752E-05-7.18883E-09 1.29164E-18-1.96190E-18
 -1      1041 9.52511E-05-2.85794E-05-2.85736E-05-7.31589E-09 1.81529E-18-4.73864E-18
 -1      1042 9.52497E-05-2.85798E-05-2.85729E-05-6.61764E-09 6.99720E-19-4.44711E-18
 -1      1043 9.42526E-05-2.72764E-05-2.87043E-05 4.28980E-07-8.55669E-19-4.76735E-19
 -1      1044 9.38431E-05-2.68645E-05-2.87053E-05 4.83363E-07-4.56839E-19-9.20006E-19
 -1      1045 9.52498E-05-2.85806E-05-2.85725E-05-2.96475E-09-3.96859E-19 1.14907E-18
 -1      1046 8.62157E-05-2.16238E-05-2.76802E-05-2.90448E-06 5.61679E-19 5.55756E-19
 -1      1047 1.03977E-04-3.80746E-05-2.82318E-05-8.75716E-06 1.62230E-18-3.15207E-19
 -1      1048 9.32732E-05-2.63312E-05-2.86894E-05 4.91549E-07-2.30537E-19-8.78409E-19
 -1      1049 1.01886E-04-3.79280E-05-2.74214E-05-1.40489E-05 1.67889E-18-9.23946E-19
 -1      1050 9.06099E-05-2.86939E-05-2.65378E-05-1.41680E-05 2.29220E-18 8.04254E-19
 -1      1051 8.33813E-05-2.03961E-05-2.69924E-05-5.42579E-06 3.52875E-19-8.82020E-19
 -1      1052 9.25205E-05-2.56766E-05-2.86467E-05 4.12022E-07 2.33078E-19-1.14805E-18
 -1      1053 9.52523E-05-2.85801E-05-2.85738E-05 2.29647E-09 1.31747E-18-3.40624E-19
 -1      1054 9.01550E-05-2.39052E-05-2.83937E-05-3.62749E-07 8.39775E-19-1.53662E-18
 -1      1055 9.62644E-05-3.27112E-05-2.72408E-05-1.26704E-05 2.35320E-18-3.46372E-19
 -1      1056 8.32130E-05-2.30970E-05-2.57683E-05-1.35206E-05 2.01464E-18 1.21599E-18
 -1      1057 9.39699E-05-2.70513E-05-2.86795E-05 1.01158E-07-9.77279E-19 7.81800E-19
 -1      1058 9.49435E-05-2.80858E-05-2.86530E-05 9.92400E-08-1.20593E-18-2.57460E-18
 -1      1059 9.47951E-05-2.79089E-05-2.86655E-05 1.21304E-07-1.25695E-18-2.81492E-18
 -1      1060 9.27595E-05-2.75971E-05-2.79291E-05-6.41209E-06 1.59939E-18-1.36213E-19
 -1      1061 9.24580E-05-2.67534E-05-2.81590E-05-4.52719E-06 1.22547E-18-1.01135E-18
 -1      1062 9.25345E-05-2.64072E-05-2.83406E-05-3.11827E-06 6.75383E-19-7.24058E-19
 -1      1063 9.28273E-05-2.63933E-05-2.84713E-05-2.12137E-06 4.11605E-19 6.64236E-19
 -1      1064 9.31852E-05-2.65445E-05-2.85597E-05-1.42625E-06-6.42572E-19 8.69813E-20
 -1      1065 9.35599E-05-2.67915E-05-2.86151E-05-9.48962E-07-1.16566E-18-1.95018E-18
 -1      1066 9.39133E-05-2.70684E-05-2.86478E-05-6.21749E-07-1.02498E-18-1.21942E-18
 -1      1067 9.42215E-05-2.73407E-05-2.86632E-05-4.02877E-07 4.51413E-20-1.35930E-18
 -1      1068 9.44787E-05-2.75893E-05-2.86668E-05-2.58675E-07 9.71544E-19-1.39344E-18
 -1      1069 9.46861E-05-2.78057E-05-2.86630E-05-1.64666E-07 4.86542E-19 4.31797E-19
 -1      1070 9.48497E-05-2.79882E-05-2.86549E-05-1.02060E-07-5.22799E-19-7.90154E-19
 -1      1071 9.49766E-05-2.81382E-05-2.86446E-05-6.35976E-08-1.39385E-18-2.20448E-18
 -1      1072 9.50679E-05-2.82563E-05-2.86335E-05-3.96679E-08-1.85591E-18-2.47083E-18
 -1      1073 9.51339E-05-2.83469E-05-2.86230E-05-2.25099E-08-4.37189E-19-1.05671E-18
 -1      1074 9.51805E-05-2.84161E-05-2.86133E-05-1.23439E-08-3.36682E-20-2.02232E-19
 -1      1075 9.52128E-05-2.84686E-05-2.86047E-05-6.13877E-09 4.75813E-19-1.51347E-18
 -1      1076 9.52339E-05-2.85067E-05-2.85973E-05-2.18446E-09-6.15757E-19-1.16378E-18
 -1      1077 9.52467E-05-2.85338E-05-2.85912E-05 2.24877E-10-1.13437E-18-9.03085E-19
 -1      1078 9.52537E-05-2.85525E-05-2.85862E-05 1.62955E-09 4.69787E-19-5.87291E-19
 -1      1079 9.52567E-05-2.85649E-05-2.85822E-05 2.36569E-09-3.96040E-19-5.38621E-19
 -1      1080 9.52571E-05-2.85727E-05-2.85790E-05 2.67464E-09-8.00454E-19-7.06457E-19
 -1      1081 9.52558E-05-2.85772E-05-2.85765E-05 2.72042E-09 1.57737E-18-2.71462E-19
 -1      1082 9.52541E-05-2.85791E-05-2.85750E-05 2.54021E-09 1.02585E-18 1.72868E-19
 -1      1083 9.50494E-05-2.82223E-05-2.86402E-05 7.45082E-08-7.56816E-19-1.45003E-18
 -1      1084 9.45970E-05-2.76864E-05-2.86760E-05 1.37174E-07-4.10983E-19-1.09683E-18
 -1      1085 8.88349E-05-2.37652E-05-2.78898E-05-3.98764E-06 9.16990E-19-1.55776E-18
 -1      1086 9.51232E-05-2.83239E-05-2.86281E-05 5.47390E-08-1.43764E-19-1.43079E-18
 -1      1087 9.51741E-05-2.84007E-05-2.86172E-05 3.87190E-08-5.94466E-19-2.12506E-18
 -1      1088 9.52089E-05-2.84575E-05-2.86077E-05 2.49079E-08 1.71048E-19-2.32480E-18
 -1      1089 9.52317E-05-2.84992E-05-2.85996E-05 1.50370E-08-3.73592E-19-2.07451E-18
 -1      1090 9.52456E-05-2.85287E-05-2.85929E-05 7.89735E-09-4.77277E-19-1.74404E-18
 -1      1091 9.52532E-05-2.85490E-05-2.85875E-05 2.96441E-09 4.41019E-19-2.93005E-18
 -1      1092 9.52568E-05-2.85632E-05-2.85830E-05-3.81267E-10 3.39786E-19-3.60433E-18
 -1      1093 9.52574E-05-2.85716E-05-2.85796E-05-2.31072E-09 8.95592E-19-3.54902E-18
 -1      1094 9.52562E-05-2.85766E-05-2.85770E-05-3.38069E-09 1.00400E-18-2.13689E-18
 -1      1095 9.52540E-05-2.85791E-05-2.85749E-05-3.81948E-09 2.41022E-18-1.85463E-18
 -1      1096 9.43237E-05-2.73989E-05-2.86821E-05 1.36378E-07-3.22172E-19 1.51114E-19
 -1      1097 9.15013E-05-2.48694E-05-2.85572E-05 1.68247E-07 7.86570E-19-1.67854E-18
 -1      1098 9.52524E-05-2.85803E-05-2.85738E-05-1.03029E-09 3.45182E-19 1.94685E-18
 -1      1099 9.34949E-05-2.66176E-05-2.86618E-05-1.97105E-09-3.73238E-19 6.08334E-19
 -1      1100 9.37388E-05-2.91550E-05-2.76737E-05-8.67477E-06 1.87631E-18 9.51522E-20
 -1      1101 8.73691E-05-2.34576E-05-2.73966E-05-6.56197E-06 1.65912E-19-2.23866E-19
 -1      1102 9.29007E-05-2.61137E-05-2.86224E-05-1.96928E-07-5.96562E-19-2.90998E-19
 -1      1103 9.01374E-05-2.43075E-05-2.82123E-05-2.28453E-06 1.71672E-18-1.07322E-18
 -1      1104 9.22063E-05-2.85404E-05-2.72805E-05-1.04175E-05 1.76331E-18 4.58028E-19
 -1      1105 9.52546E-05-2.85793E-05-2.85751E-05-6.47480E-10 1.55056E-18-4.19101E-19
 -1      1106 9.49853E-05-2.81499E-05-2.86441E-05 3.71462E-09-1.92903E-18-2.21632E-18
 -1      1107 9.10360E-05-2.52376E-05-2.81957E-05-3.20178E-06 1.34692E-18-1.03511E-18
 -1      1108 9.17158E-05-2.54771E-05-2.83884E-05-2.00343E-06 1.16281E-18-2.93229E-19
 -1      1109 9.23868E-05-2.58604E-05-2.85146E-05-1.21465E-06-6.97804E-19-1.34256E-18
 -1      1110 9.51028E-05-2.83010E-05-2.86294E-05 1.94267E-08 6.19157E-19-8.04715E-19
 -1      1111 8.66743E-05-2.42285E-05-2.67604E-05-1.02287E-05 1.92227E-18 1.11034E-18
 -1      1112 9.18653E-05-2.53166E-05-2.85201E-05-6.26907E-07 5.07856E-20-1.92462E-18
 -1      1113 9.10501E-05-2.47982E-05-2.83938E-05-1.29295E-06 7.80888E-19-2.12712E-18
 -1      1114 1.20489E-04 2.67400E-10-4.32336E-05-4.19866E-05-5.29819E-19 8.99231E-18
 -1      1115 9.17350E-05 7.73439E-11-3.84921E-05-2.37303E-05-2.22664E-19-1.61402E-18
 -1      1116 8.67320E-05 4.73285E-11-3.68329E-05-1.67598E-05-1.23667E-19-5.43466E-18
 -1      1117 8.44783E-05 3.93455E-11-3.59040E-05-1.19291E-05-6.53274E-20-6.85254E-18
 -1      1118 8.29367E-05 3.57702E-11-3.52386E-05-7.67817E-06-2.21287E-20-7.24281E-18
 -1      1119 8.14578E-05 3.27789E-11-3.46160E-05-3.79108E-06-8.20563E-21-7.22092E-18
 -1      1120 7.97842E-05 2.87171E-11-3.39392E-05-2.98019E-07 1.32878E-20-6.97056E-18
 -1      1121 7.79029E-05 2.28396E-11-3.32075E-05 2.63256E-06 3.19755E-20-6.69017E-18
 -1      1122 7.60470E-05 1.53543E-11-3.25138E-05 4.74334E-06 4.80162E-20-6.40565E-18
 -1      1123 7.46273E-05 7.56098E-12-3.20142E-05 5.90478E-06 5.75982E-20-6.07410E-18
 -1      1124 7.41610E-05 1.73826E-12-3.18992E-05 6.21114E-06 7.25801E-20-5.64421E-18
 -1      1125 7.51111E-05 5.12151E-13-3.23321E-05 6.06647E-06 9.43912E-20-4.91355E-18
 -1      1126 7.77556E-05 6.01062E-12-3.34059E-05 6.15469E-06 1.16996E-19-3.77061E-18
 -1      1127 8.21194E-05 1.95927E-11-3.51192E-05 7.38322E-06 1.42302E-19-1.93935E-18
 -1      1128 8.80185E-05 4.25683E-11-3.73673E-05 1.07977E-05 1.63054E-19 1.13063E-18
 -1      1129 9.58128E-05 8.36708E-11-4.01175E-05 1.80205E-05 1.70254E-19 6.60585E-18
 -1      1130 1.14667E-04 1.92048E-10-4.38171E-05 3.32167E-05 2.59192E-19 1.66886E-17
 -1      1131 1.34429E-04-2.67398E-05-4.16654E-05-2.64641E-05-1.92446E-18 1.54732E-17
 -1      1132 1.01843E-04-3.01620E-05-3.29178E-05-5.80446E-07-6.39642E-19 1.10645E-17
 -1      1133 9.46571E-05-2.83512E-05-2.91843E-05 4.13814E-07-2.23206E-19 5.30237E-18
 -1      1134 9.21114E-05-2.77014E-05-2.77173E-05 2.26085E-07-1.88443E-19 1.39395E-18
 -1      1135 9.02120E-05-2.71096E-05-2.69914E-05 8.82377E-08-4.83603E-20-1.25135E-18
 -1      1136 8.80572E-05-2.64350E-05-2.63303E-05-1.43039E-08-9.08418E-20-2.54478E-18
 -1      1137 8.53472E-05-2.56117E-05-2.55428E-05-9.35461E-08-1.88066E-20-4.08679E-18
 -1      1138 8.21945E-05-2.46726E-05-2.46463E-05-1.42715E-07-1.64011E-20-5.01623E-18
 -1      1139 7.90369E-05-2.37424E-05-2.37637E-05-1.50118E-07-5.75602E-20-6.56143E-18
 -1      1140 7.65157E-05-2.30052E-05-2.30705E-05-1.09570E-07-6.25398E-20-8.15415E-18
 -1      1141 7.52732E-05-2.26446E-05-2.27377E-05-2.89289E-08 1.27452E-20-9.07843E-18
 -1      1142 7.57170E-05-2.27768E-05-2.28724E-05 6.88305E-08 1.94235E-19-8.54808E-18
 -1      1143 7.78548E-05-2.34036E-05-2.34763E-05 1.54123E-07-1.92584E-20-9.06434E-18
 -1      1144 8.12876E-05-2.44105E-05-2.44445E-05 2.03936E-07 7.05254E-21-9.60350E-18
 -1      1145 8.53624E-05-2.56089E-05-2.56027E-05 2.10780E-07-9.12457E-20-8.87468E-18
 -1      1146 8.93962E-05-2.68003E-05-2.67640E-05 1.82476E-07-1.88586E-19-8.91081E-18
 -1      1147 9.28633E-05-2.78296E-05-2.77787E-05 1.35027E-07-2.10934E-19-8.51040E-18
 -1      1148 9.54808E-05-2.86117E-05-2.85603E-05 8.43316E-08 1.43018E-19-9.84784E-18
 -1      1149 9.71957E-05-2.91288E-05-2.90860E-05 4.11431E-08 1.36243E-19-9.86815E-18
 -1      1150 9.81145E-05-2.94101E-05-2.93796E-05 1.00843E-08 3.64001E-20-9.92921E-18
 -1      1151 9.84214E-05-2.95090E-05-2.94904E-05-8.82433E-09-8.63486E-20-1.02250E-17
 -1      1152 9.83144E-05-2.94832E-05-2.94742E-05-1.79805E-08-3.07767E-19-1.11655E-17
 -1      1153 9.79663E-05-2.93840E-05-2.93816E-05-2.04598E-08-1.08242E-19-1.14342E-17
 -1      1154 9.75089E-05-2.92507E-05-2.92521E-05-1.90220E-08-3.81083E-19-1.13627E-17
 -1      1155 9.70319E-05-2.91102E-05-2.91135E-05-1.57258E-08-2.79256E-20-1.13195E-17
 -1      1156 9.65894E-05-2.89790E-05-2.89828E-05-1.19080E-08 8.39894E-20-1.05381E-17
 -1      1157 9.62088E-05-2.88655E-05-2.88691E-05-8.32404E-09 2.02657E-19-1.04047E-17
 -1      1158 9.58993E-05-2.87728E-05-2.87759E-05-5.32406E-09-4.64357E-20-1.00205E-17
 -1      1159 9.56591E-05-2.87006E-05-2.87030E-05-3.00723E-09-2.47203E-19-9.26504E-18
 -1      1160 9.54806E-05-2.86467E-05-2.86485E-05-1.33520E-09 3.38317E-21-8.16268E-18
 -1      1161 9.53535E-05-2.86082E-05-2.86094E-05-2.07164E-10-2.83280E-19-8.19259E-18
 -1      1162 9.52674E-05-2.85819E-05-2.85827E-05 4.95346E-10 2.13356E-19-8.58595E-18
 -1      1163 9.52124E-05-2.85651E-05-2.85655E-05 8.84427E-10 1.32708E-19-8.01508E-18
 -1      1164 9.51804E-05-2.85551E-05-2.85553E-05 1.05515E-09 1.27287E-19-8.36373E-18
 -1      1165 9.51647E-05-2.85501E-05-2.85502E-05 1.08264E-09-2.51240E-20-8.05027E-18
 -1      1166 9.51598E-05-2.85485E-05-2.85484E-05 1.02307E-09 8.98119E-20-8.78392E-18
 -1      1167 9.51620E-05-2.85489E-05-2.85489E-05 9.16538E-10 5.35054E-19-9.82284E-18
 -1      1168 9.51683E-05-2.85507E-05-2.85506E-05 7.90279E-10 2.03920E-19-5.49782E-18
 -1      1169 9.51768E-05-2.85532E-05-2.85530E-05 6.61842E-10-2.78625E-19-4.04792E-18
 -1      1170 9.51860E-05-2.85559E-05-2.85558E-05 5.41768E-10 3.43147E-20-6.76156E-18
 -1      1171 9.51952E-05-2.85586E-05-2.85585E-05 4.35723E-10 3.78034E-19-7.05963E-18
 -1      1172 9.52037E-05-2.85611E-05-2.85610E-05 3.46104E-10-1.55984E-19-5.39185E-18
 -1      1173 9.52114E-05-2.85634E-05-2.85633E-05 2.73151E-10-2.98506E-20-3.05916E-18
 -1      1174 9.52182E-05-2.85654E-05-2.85654E-05 2.15613E-10 5.36610E-20 3.95956E-19
 -1      1175 9.52240E-05-2.85672E-05-2.85671E-05 1.70946E-10 2.30174E-19 1.51513E-18
 -1      1176 9.52289E-05-2.85686E-05-2.85686E-05 1.34832E-10-4.53153E-19 8.76077E-19
 -1      1177 9.52327E-05-2.85698E-05-2.85697E-05 9.95196E-11 1.47984E-19 2.06738E-18
 -1      1178 9.52355E-05-2.85706E-05-2.85705E-05 4.89017E-11 2.68253E-19 5.42467E-18
 -1      1179 9.52371E-05-2.85711E-05-2.85710E-05-4.90038E-11-3.44712E-19 3.84485E-18
 -1      1180 9.52374E-05-2.85712E-05-2.85713E-05-7.54746E-11 7.19116E-19 2.19959E-18
 -1      1181 1.39732E-04-4.00057E-05-4.21870E-05 1.18454E-05-2.66868E-19 2.45953E-17
 -1      1182 1.13069E-04-3.32381E-05-3.63918E-05 6.37311E-07 9.51589E-20 2.12686E-17
 -1      1183 1.13849E-04-3.40782E-05-3.50756E-05 9.50313E-08 1.09770E-19 1.76960E-17
 -1      1184 1.20257E-04-3.61380E-05-3.65458E-05-6.88141E-08 8.77341E-20 1.51549E-17
 -1      1185 1.30801E-04-3.92490E-05-3.95552E-05-3.26067E-07 5.57520E-20 1.36586E-17
 -1      1186 1.44233E-04-4.31384E-05-4.32114E-05-7.37325E-07 1.08118E-19 1.24114E-17
 -1      1187 1.57134E-04-4.68274E-05-4.62136E-05-1.15182E-06-1.05217E-20 1.31455E-17
 -1      1188 1.61852E-04-4.82789E-05-4.65452E-05-9.00414E-07-8.97855E-20 1.60478E-17
 -1      1189 1.47620E-04-4.43888E-05-4.25530E-05 1.02942E-06-2.56148E-19 1.69318E-17
 -1      1190 1.15668E-04-3.48462E-05-3.58015E-05 3.45446E-06-2.49259E-19 1.64701E-17
 -1      1191 8.53724E-05-2.52038E-05-3.02544E-05 3.49032E-06-6.23628E-20 1.25158E-17
 -1      1192 8.02354E-05-2.28008E-05-2.96522E-05 5.27159E-07 2.38599E-19 6.40632E-18
 -1      1193 1.07602E-04-3.09119E-05-3.50118E-05-2.68672E-06 4.04061E-19 2.31664E-19
 -1      1194 1.44926E-04-4.32672E-05-4.26314E-05-3.31435E-06 6.10499E-19-4.34020E-18
 -1      1195 1.64510E-04-4.97812E-05-4.74388E-05-1.78449E-06 1.91509E-19-4.28133E-18
 -1      1196 1.63575E-04-4.94382E-05-4.78518E-05-2.81325E-07-1.19114E-19-2.70513E-18
 -1      1197 1.51902E-04-4.57098E-05-4.52208E-05 4.31327E-07-1.62998E-19 8.29669E-19
 -1      1198 1.37993E-04-4.14018E-05-4.15136E-05 5.80942E-07-4.35767E-19 2.96779E-18
 -1      1199 1.25872E-04-3.77236E-05-3.80095E-05 4.97261E-07 3.03804E-19 7.43271E-19
 -1      1200 1.16393E-04-3.48829E-05-3.51448E-05 3.69634E-07-9.88481E-20-2.72580E-18
 -1      1201 1.09598E-04-3.28594E-05-3.30501E-05 2.43560E-07-2.77870E-19 7.59683E-19
 -1      1202 1.04999E-04-3.14899E-05-3.16174E-05 1.60902E-07 9.16218E-20 2.18978E-18
 -1      1203 1.01826E-04-3.05445E-05-3.06270E-05 1.04806E-07 1.29396E-20 4.08094E-18
 -1      1204 9.96511E-05-2.98952E-05-2.99481E-05 6.79148E-08 1.05066E-19 4.34250E-18
 -1      1205 9.81623E-05-2.94500E-05-2.94840E-05 4.39911E-08-2.79017E-19 5.82495E-18
 -1      1206 9.71445E-05-2.91452E-05-2.91671E-05 2.85342E-08 5.87174E-20 6.51183E-18
 -1      1207 9.64502E-05-2.89370E-05-2.89513E-05 1.85475E-08 3.43673E-19 4.98259E-18
 -1      1208 9.59700E-05-2.87923E-05-2.88019E-05 1.25092E-08-3.08446E-19 5.44255E-18
 -1      1209 9.56492E-05-2.86962E-05-2.87022E-05 7.39765E-09 3.50109E-19 4.98165E-18
 -1      1210 9.54438E-05-2.86343E-05-2.86383E-05 4.61587E-09-2.49506E-19 3.63309E-18
 -1      1211 9.53112E-05-2.85943E-05-2.85969E-05 2.76633E-09 1.43081E-19 1.85397E-18
 -1      1212 9.52288E-05-2.85694E-05-2.85711E-05 1.54309E-09 6.69861E-19-3.49699E-18
 -1      1213 9.51809E-05-2.85548E-05-2.85559E-05 7.46043E-10-7.49636E-19-2.79485E-18
 -1      1214 9.51561E-05-2.85473E-05-2.85479E-05 2.46176E-10-1.38367E-19 7.84136E-19
 -1      1215 9.51465E-05-2.85442E-05-2.85446E-05-2.76998E-11-1.52895E-19-7.66161E-19
 -1      1216 9.51469E-05-2.85443E-05-2.85445E-05-2.70182E-10 1.50314E-19-1.07624E-18
 -1      1217 9.51530E-05-2.85461E-05-2.85461E-05-3.58514E-10-2.01612E-19-1.36488E-18
 -1      1218 9.51621E-05-2.85488E-05-2.85487E-05-3.90020E-10 3.29582E-19-2.19918E-19
 -1      1219 9.51725E-05-2.85518E-05-2.85517E-05-3.85329E-10-1.21030E-19 3.14012E-18
 -1      1220 9.51830E-05-2.85550E-05-2.85549E-05-3.59419E-10 3.18702E-19 3.03946E-18
 -1      1221 9.51931E-05-2.85580E-05-2.85579E-05-3.22706E-10 5.56032E-20 1.75819E-18
 -1      1222 9.52022E-05-2.85607E-05-2.85606E-05-2.81514E-10-7.88435E-20-5.94396E-19
 -1      1223 9.52105E-05-2.85632E-05-2.85631E-05-2.45062E-10 2.41231E-19-2.95168E-18
 -1      1224 9.52177E-05-2.85653E-05-2.85652E-05-2.07165E-10-2.59691E-19-2.88986E-19
 -1      1225 9.52237E-05-2.85671E-05-2.85670E-05-1.80159E-10 6.43885E-19-2.49278E-18
 -1      1226 9.52286E-05-2.85686E-05-2.85685E-05-1.60501E-10 7.72735E-20-2.15647E-18
 -1      1227 9.52325E-05-2.85697E-05-2.85697E-05-1.46286E-10 5.89369E-19-9.58947E-19
 -1      1228 9.52354E-05-2.85706E-05-2.85705E-05-1.26057E-10-3.23729E-19 2.36013E-18
 -1      1229 9.52370E-05-2.85711E-05-2.85710E-05-6.25078E-11 2.69719E-19 5.52027E-18
 -1      1230 9.52373E-05-2.85712E-05-2.85713E-05 6.25746E-11 1.12621E-19 5.59631E-18
 -1      1231 9.52371E-05-2.85709E-05-2.85713E-05 7.04834E-11 5.36178E-18 7.52785E-20
 -1      1232 9.52372E-05-2.85712E-05-2.85710E-05 4.22512E-11 4.01910E-19-9.33338E-19
 -1      1233 9.52377E-05-2.85728E-05-2.85706E-05-7.59716E-11-3.21480E-19 2.35168E-19
 -1      1234 9.52384E-05-2.85753E-05-2.85699E-05-1.24371E-10 2.38362E-19-3.75352E-19
 -1      1235 9.52393E-05-2.85782E-05-2.85690E-05-1.32824E-10-3.09822E-18-3.80655E-19
 -1      1236 9.52401E-05-2.85810E-05-2.85682E-05-1.15905E-10-3.94819E-18-1.06052E-18
 -1      1237 9.52407E-05-2.85833E-05-2.85676E-05-8.59528E-11 2.50986E-19 1.08133E-18
 -1      1238 9.52412E-05-2.85848E-05-2.85671E-05-4.48111E-11 8.63712E-18-8.50675E-19
 -1      1239 9.52413E-05-2.85853E-05-2.85670E-05 5.90453E-13 8.16905E-18-4.46667E-19
 -1      1240 9.52412E-05-2.85848E-05-2.85671E-05 4.58368E-11 6.75176E-18-4.60066E-19
 -1      1241 9.52407E-05-2.85832E-05-2.85676E-05 8.64191E-11 3.57475E-18-7.28555E-19
 -1      1242 9.52401E-05-2.85809E-05-2.85682E-05 1.17518E-10 1.22095E-18 1.00488E-18
 -1      1243 9.52392E-05-2.85781E-05-2.85690E-05 1.32230E-10 1.87727E-18-1.72622E-19
 -1      1244 9.52384E-05-2.85752E-05-2.85699E-05 1.25229E-10-1.65127E-19 5.35856E-19
 -1      1245 9.52376E-05-2.85727E-05-2.85706E-05 9.08961E-11-5.74959E-18-7.50613E-19
 -1      1246 9.52373E-05-2.85713E-05-2.85710E-05-8.80845E-11-5.12714E-18-2.17953E-19
 -1      1247 9.52371E-05-2.85709E-05-2.85713E-05-7.14094E-11-1.77268E-18 1.88086E-19
 -1      1248 3.86002E-05-1.22570E-04 2.16826E-05-1.68646E-05 1.52711E-17 3.23392E-18
 -1      1249 2.18319E-05-8.80263E-05 1.51662E-05-3.51152E-05 2.77547E-17 1.00009E-17
 -1      1250 6.95499E-06-3.26688E-05 5.69743E-07-2.05112E-05 3.16214E-17 1.91844E-17
 -1      1251 2.35417E-05 1.11590E-05-2.00643E-05 2.96364E-05 2.95665E-17 2.68865E-17
 -1      1252 9.67124E-05 1.22509E-05-4.40787E-05 9.01333E-05 1.97426E-17 2.64139E-17
 -1      1253 2.22113E-04-3.57007E-05-6.80511E-05 1.14565E-04 8.45593E-18 1.81909E-17
 -1      1254 3.38543E-04-9.56766E-05-8.42308E-05 7.25854E-05 1.89428E-18 4.92888E-18
 -1      1255 3.68421E-04-1.11541E-04-8.83047E-05-1.78296E-05 1.80529E-18-1.16101E-17
 -1      1256 3.02787E-04-7.46334E-05-7.99921E-05-9.71185E-05 7.94623E-18-2.63410E-17
 -1      1257 1.77261E-04-1.45594E-05-6.07623E-05-1.15107E-04 1.72405E-17-3.24448E-17
 -1      1258 6.59187E-05 1.76355E-05-3.59482E-05-7.11991E-05 2.39490E-17-2.89956E-17
 -1      1259 1.26074E-05-5.98047E-08-1.23854E-05-9.30086E-06 2.54195E-17-1.99188E-17
 -1      1260 1.06033E-05-5.17719E-05 6.09153E-06 2.99867E-05 2.00594E-17-1.06722E-17
 -1      1261 2.95761E-05-1.03601E-04 1.79876E-05 3.08612E-05 8.48049E-18-3.17288E-18
 -1      1262 4.05576E-05-1.23616E-04 2.14200E-05 3.88681E-06-5.26685E-18-8.39939E-19
 -1      1263 2.83443E-05-9.53299E-05 1.63174E-05-1.97301E-05-1.72092E-17-4.44925E-18
 -1      1264 1.21700E-05-4.29714E-05 3.94348E-06-1.74646E-05-2.52179E-17-1.11122E-17
 -1      1265 1.28759E-05 1.09850E-05-1.43326E-05 2.15174E-05-2.60717E-17-1.81960E-17
 -1      1266 5.74078E-05 2.96403E-05-3.58071E-05 7.89124E-05-2.11809E-17-2.24769E-17
 -1      1267 1.45631E-04 2.42704E-06-5.60441E-05 1.17351E-04-1.29749E-17-2.06913E-17
 -1      1268 2.46817E-04-5.04988E-05-7.20801E-05 1.04670E-04-5.17749E-18-1.32357E-17
 -1      1269 3.15116E-04-9.20040E-05-8.10294E-05 4.21251E-05-1.13169E-18-1.10368E-18
 -1      1270 3.18120E-04-9.37929E-05-8.14098E-05-3.93992E-05-1.52798E-18 9.83617E-18
 -1      1271 2.57119E-04-5.59766E-05-7.37918E-05-1.01454E-04-6.04549E-18 1.79452E-17
 -1      1272 1.65385E-04-5.79536E-06-5.97784E-05-1.21099E-04-1.41539E-17 2.47096E-17
 -1      1273 7.72133E-05 2.80183E-05-4.16868E-05-9.36711E-05-2.04762E-17 2.48536E-17
 -1      1274 2.18005E-05 2.52614E-05-2.20462E-05-4.21471E-05-2.14164E-17 1.83247E-17
 -1      1275 7.18309E-06-1.38243E-05-3.91412E-06 3.95775E-06-1.79588E-17 1.01966E-17
 -1      1276 1.95351E-05-6.95187E-05 1.06902E-05 2.36578E-05-1.11190E-17 4.05771E-18
 -1      1277 3.59170E-05-1.12852E-04 1.96921E-05 1.21090E-05 1.22396E-19 1.16422E-18
 -1      1278 1.08324E-04-2.29068E-05-3.92285E-05-1.72231E-05-7.47295E-19 6.18503E-18
 -1      1279 9.36108E-05-7.20670E-06-3.71916E-05-1.99141E-05-1.49745E-18-3.45494E-18
 -1      1280 9.61477E-05-7.30236E-06-3.84731E-05-2.55168E-05-2.12139E-18-1.43636E-18
 -1      1281 8.88505E-05-4.68478E-06-3.61164E-05-1.52834E-05-1.22698E-18-6.10203E-18
 -1      1282 9.02896E-05-4.67655E-06-3.66849E-05-1.80391E-05-1.46484E-18-5.06219E-18
 -1      1283 9.56980E-05-1.14890E-05-3.61806E-05-1.84504E-05-2.50081E-18-2.93995E-18
 -1      1284 8.66192E-05-3.93172E-06-3.54171E-05-1.08797E-05-7.48036E-19-7.05639E-18
 -1      1285 8.74907E-05-3.89425E-06-3.57782E-05-1.31129E-05-9.55797E-19-6.68508E-18
 -1      1286 9.11583E-05-8.64954E-06-3.54509E-05-1.42509E-05-1.83856E-18-5.06785E-18
 -1      1287 8.49830E-05-3.58278E-06-3.48401E-05-6.78062E-06-3.06944E-19-7.27932E-18
 -1      1288 8.57262E-05-3.56225E-06-3.51447E-05-8.81309E-06-4.44322E-19-7.22908E-18
 -1      1289 8.87528E-05-7.50048E-06-3.48988E-05-9.98206E-06-1.01966E-18-5.90790E-18
 -1      1290 8.33077E-05-3.28420E-06-3.42489E-05-3.01864E-06 7.25272E-20-7.16750E-18
 -1      1291 8.41240E-05-3.28152E-06-3.45649E-05-4.85271E-06-1.58554E-20-7.23914E-18
 -1      1292 8.68947E-05-6.82566E-06-3.43801E-05-5.98112E-06-3.06957E-19-6.02399E-18
 -1      1293 8.12795E-05-2.87085E-06-3.35750E-05 4.16381E-07 3.91938E-19-6.89605E-18
 -1      1294 8.22676E-05-2.88726E-06-3.39324E-05-1.21976E-06 3.00723E-19-7.06845E-18
 -1      1295 8.48749E-05-6.13485E-06-3.38060E-05-2.25277E-06 2.71951E-19-5.98521E-18
 -1      1296 7.89356E-05-2.27062E-06-3.28601E-05 3.23960E-06 7.01846E-19-6.64132E-18
 -1      1297 8.00327E-05-2.30427E-06-3.32297E-05 1.93955E-06 6.08011E-19-6.78088E-18
 -1      1298 8.24147E-05-5.18845E-06-3.31561E-05 1.09778E-06 8.12166E-19-5.73976E-18
 -1      1299 7.65704E-05-1.50578E-06-3.22124E-05 5.22154E-06 9.33695E-19-6.39365E-18
 -1      1300 7.76004E-05-1.55103E-06-3.25307E-05 4.35263E-06 8.90390E-19-6.57353E-18
 -1      1301 7.95962E-05-3.92547E-06-3.24892E-05 3.80303E-06 1.34734E-18-5.54935E-18
 -1      1302 7.47396E-05-7.10691E-07-3.17995E-05 6.24943E-06 1.17317E-18-6.02839E-18
 -1      1303 7.54215E-05-7.56249E-07-3.19748E-05 5.83219E-06 1.09164E-18-6.26394E-18
 -1      1304 7.68384E-05-2.47836E-06-3.19261E-05 5.63703E-06 1.65971E-18-5.31616E-18
 -1      1305 7.41522E-05-1.19882E-07-3.18101E-05 6.45704E-06 1.39483E-18-5.54485E-18
 -1      1306 7.41638E-05-1.50061E-07-3.17450E-05 6.38067E-06 1.32906E-18-5.84612E-18
 -1      1307 7.48655E-05-1.18189E-06-3.16336E-05 6.51654E-06 2.05273E-18-4.96191E-18
 -1      1308 7.54145E-05 1.46250E-09-3.23806E-05 6.30438E-06 1.60899E-18-4.76675E-18
 -1      1309 7.45273E-05-2.75129E-09-3.20141E-05 6.30213E-06 1.51379E-18-5.25446E-18
 -1      1310 7.45328E-05-5.07463E-07-3.17781E-05 6.63700E-06 2.39825E-18-4.43696E-18
 -1      1311 7.89355E-05-5.62772E-07-3.35932E-05 6.52569E-06 1.91091E-18-3.54189E-18
 -1      1312 7.70052E-05-5.31558E-07-3.28888E-05 6.21219E-06 1.76400E-18-4.27004E-18
 -1      1313 7.65570E-05-9.03941E-07-3.24753E-05 6.51219E-06 2.76722E-18-3.60451E-18
 -1      1314 8.46828E-05-1.93974E-06-3.53887E-05 8.04494E-06 2.11006E-18-1.55141E-18
 -1      1315 8.18024E-05-1.87751E-06-3.43870E-05 6.94973E-06 1.94172E-18-2.76134E-18
 -1      1316 8.13461E-05-2.71669E-06-3.37539E-05 6.92588E-06 3.09204E-18-2.31183E-18
 -1      1317 9.24257E-05-4.24892E-06-3.76234E-05 1.18590E-05 2.16671E-18 1.80998E-18
 -1      1318 8.87273E-05-4.14671E-06-3.63851E-05 9.41983E-06 2.01742E-18-1.82165E-19
 -1      1319 8.88639E-05-6.15877E-06-3.54973E-05 8.75582E-06 3.26351E-18-1.08473E-19
 -1      1320 1.02991E-04-8.67104E-06-4.01987E-05 1.93645E-05 1.66611E-18 7.53224E-18
 -1      1321 9.79958E-05-8.03555E-06-3.86876E-05 1.43758E-05 1.69057E-18 4.10239E-18
 -1      1322 9.92267E-05-1.18470E-05-3.74503E-05 1.25685E-05 3.08431E-18 3.53139E-18
 -1      1323 1.33661E-04-2.75712E-05-4.23671E-05 2.55292E-05 6.45863E-19 1.72619E-17
 -1      1324 1.10796E-04-1.72051E-05-4.06964E-05 1.95120E-05 7.60000E-19 1.06361E-17
 -1      1325 1.12986E-04-2.25753E-05-3.87207E-05 1.53818E-05 2.57100E-18 8.65816E-18
 -1      1326 1.15791E-04-3.19696E-05-3.86046E-05 4.24387E-06 1.28394E-18 1.69476E-17
 -1      1327 1.09347E-04-3.15414E-05-3.48019E-05-7.83923E-06-1.88242E-18 7.16463E-18
 -1      1328 1.02536E-04-2.91797E-05-3.20263E-05-4.89234E-06-1.62487E-18 4.92544E-18
 -1      1329 9.96994E-05-2.91898E-05-3.04776E-05-2.60361E-06-1.33969E-18 4.15439E-18
 -1      1330 9.73145E-05-2.88702E-05-2.93824E-05-2.23205E-06-1.30398E-18 2.13855E-18
 -1      1331 1.03538E-04-2.94133E-05-3.21351E-05-7.95144E-06-2.89421E-18 1.69809E-18
 -1      1332 9.53524E-05-2.84459E-05-2.86559E-05-1.34734E-06-1.07923E-18 1.50258E-18
 -1      1333 9.40992E-05-2.81939E-05-2.81939E-05-1.32840E-06-9.54877E-19 7.57036E-21
 -1      1334 9.84584E-05-2.90796E-05-2.98350E-05-3.81699E-06-2.29588E-18 5.26418E-19
 -1      1335 9.27976E-05-2.78583E-05-2.77749E-05-1.15210E-06-6.46589E-19-5.42075E-19
 -1      1336 9.17367E-05-2.75790E-05-2.74524E-05-1.19281E-06-6.16814E-19-1.49916E-18
 -1      1337 9.54764E-05-2.86082E-05-2.86602E-05-2.58680E-06-1.66220E-18-5.39825E-19
 -1      1338 9.06157E-05-2.72607E-05-2.71106E-05-1.30026E-06-5.47405E-19-1.68379E-18
 -1      1339 8.93935E-05-2.68932E-05-2.67582E-05-1.36395E-06-4.95706E-19-2.31833E-18
 -1      1340 9.31512E-05-2.80531E-05-2.78826E-05-2.51452E-06-1.14548E-18-1.37829E-18
 -1      1341 8.82512E-05-2.65491E-05-2.64171E-05-1.53203E-06-4.24371E-19-2.74517E-18
 -1      1342 8.68045E-05-2.60866E-05-2.60053E-05-1.58331E-06-3.30996E-19-3.32186E-18
 -1      1343 9.09355E-05-2.74063E-05-2.72104E-05-2.84993E-06-9.65370E-19-1.84860E-18
 -1      1344 8.56172E-05-2.57116E-05-2.56580E-05-1.65421E-06-3.32177E-19-3.60276E-18
 -1      1345 8.40715E-05-2.51993E-05-2.52226E-05-1.66021E-06-3.75951E-19-4.15947E-18
 -1      1346 8.86279E-05-2.66468E-05-2.65560E-05-3.14501E-06-7.04596E-19-2.57929E-18
 -1      1347 8.29459E-05-2.48292E-05-2.49010E-05-1.51868E-06-4.05993E-19-4.37228E-18
 -1      1348 8.15587E-05-2.43577E-05-2.45144E-05-1.45662E-06-4.25919E-19-5.01735E-18
 -1      1349 8.63166E-05-2.58239E-05-2.59350E-05-3.06755E-06-8.45410E-19-2.95335E-18
 -1      1350 8.06829E-05-2.40594E-05-2.42702E-05-1.05490E-06-4.61173E-19-5.33476E-18
 -1      1351 7.97641E-05-2.37398E-05-2.40171E-05-9.23192E-07-4.41377E-19-5.94470E-18
 -1      1352 8.43013E-05-2.50648E-05-2.54174E-05-2.41477E-06-8.40326E-19-3.54281E-18
 -1      1353 7.93354E-05-2.35867E-05-2.39020E-05-3.06230E-07-3.59688E-19-5.93648E-18
 -1      1354 7.91395E-05-2.35123E-05-2.38509E-05-1.29736E-07-9.59530E-23-6.07842E-18
 -1      1355 8.29768E-05-2.45409E-05-2.50920E-05-1.17919E-06-5.46131E-19-3.48159E-18
 -1      1356 7.92837E-05-2.35526E-05-2.38968E-05 5.71681E-07 5.50009E-20-6.52996E-18
 -1      1357 7.99112E-05-2.37607E-05-2.40744E-05 7.48981E-07-1.26185E-19-6.60306E-18
 -1      1358 8.26763E-05-2.44004E-05-2.50303E-05 4.25226E-07-2.59245E-19-4.08742E-18
 -1      1359 8.06248E-05-2.39936E-05-2.42802E-05 1.36691E-06-2.48157E-19-6.94916E-18
 -1      1360 8.19795E-05-2.44494E-05-2.46607E-05 1.50032E-06-2.07827E-19-7.20294E-18
 -1      1361 8.35268E-05-2.47026E-05-2.52581E-05 2.03045E-06-3.57627E-19-5.24321E-18
 -1      1362 8.31267E-05-2.48242E-05-2.49914E-05 1.89783E-06 3.86062E-20-7.18289E-18
 -1      1363 8.49520E-05-2.54350E-05-2.55055E-05 1.96052E-06 1.27510E-19-7.04370E-18
 -1      1364 8.53843E-05-2.53862E-05-2.57427E-05 3.26091E-06-8.74959E-20-5.34288E-18
 -1      1365 8.63149E-05-2.58723E-05-2.59035E-05 2.08056E-06 7.04177E-20-6.77875E-18
 -1      1366 8.82857E-05-2.65233E-05-2.64622E-05 2.07112E-06 5.96348E-20-6.65064E-18
 -1      1367 8.78850E-05-2.62964E-05-2.64020E-05 3.88033E-06 2.25676E-19-4.98550E-18
 -1      1368 8.96386E-05-2.69454E-05-2.68649E-05 1.94248E-06 2.34655E-19-6.48911E-18
 -1      1369 9.14615E-05-2.75366E-05-2.73863E-05 1.87962E-06 1.80871E-19-6.25719E-18
 -1      1370 9.05771E-05-2.72478E-05-2.71288E-05 3.85847E-06 3.74739E-19-4.78817E-18
 -1      1371 9.26307E-05-2.78885E-05-2.77425E-05 1.58648E-06-2.51718E-19-6.05749E-18
 -1      1372 9.41099E-05-2.83574E-05-2.81700E-05 1.49693E-06-2.16205E-19-6.55189E-18
 -1      1373 9.30592E-05-2.80876E-05-2.78210E-05 3.33786E-06 5.73865E-20-4.48122E-18
 -1      1374 9.50004E-05-2.86136E-05-2.84485E-05 1.13675E-06-2.45527E-19-6.42846E-18
 -1      1375 9.60547E-05-2.89381E-05-2.87569E-05 1.04445E-06 1.53988E-20-6.79630E-18
 -1      1376 9.50675E-05-2.87284E-05-2.84032E-05 2.54219E-06-3.34098E-19-4.24973E-18
 -1      1377 9.66452E-05-2.90981E-05-2.89477E-05 6.96363E-07 1.42449E-19-7.17456E-18
 -1      1378 9.72875E-05-2.92875E-05-2.91384E-05 6.16962E-07 1.78092E-19-7.04431E-18
 -1      1379 9.64944E-05-2.91488E-05-2.88366E-05 1.68573E-06-1.86860E-19-4.51936E-18
 -1      1380 9.76089E-05-2.93657E-05-2.92477E-05 3.28685E-07 3.99363E-21-7.62421E-18
 -1      1381 9.79092E-05-2.94466E-05-2.93393E-05 2.69104E-07-2.19861E-19-7.70989E-18
 -1      1382 9.73575E-05-2.93723E-05-2.91159E-05 9.20312E-07-1.61836E-19-5.26336E-18
 -1      1383 9.80192E-05-2.94639E-05-2.93825E-05 5.88068E-08-2.00378E-19-8.01444E-18
 -1      1384 9.80698E-05-2.94681E-05-2.94008E-05 1.95245E-08-4.72966E-19-8.27856E-18
 -1      1385 9.77500E-05-2.94445E-05-2.92593E-05 3.23352E-07-5.68257E-19-5.91556E-18
 -1      1386 9.80322E-05-2.94451E-05-2.93965E-05-1.15237E-07-4.59891E-19-7.96771E-18
 -1      1387 9.79228E-05-2.94021E-05-2.93671E-05-1.37324E-07-8.14574E-20-8.34782E-18
 -1      1388 9.77953E-05-2.94144E-05-2.92973E-05-8.79719E-08-3.45738E-19-6.07222E-18
 -1      1389 9.77956E-05-2.93562E-05-2.93330E-05-2.09864E-07-4.64214E-21-8.34916E-18
 -1      1390 9.76000E-05-2.92894E-05-2.92774E-05-2.19155E-07-1.55371E-19-8.49267E-18
 -1      1391 9.76141E-05-2.93244E-05-2.92627E-05-3.33745E-07-1.23270E-19-5.48342E-18
 -1      1392 9.74288E-05-2.92337E-05-2.92280E-05-2.46228E-07-4.88037E-21-8.32018E-18
 -1      1393 9.72011E-05-2.91594E-05-2.91620E-05-2.47015E-07 1.03528E-19-8.33134E-18
 -1      1394 9.73077E-05-2.92067E-05-2.91849E-05-4.50663E-07 4.61550E-20-5.49610E-18
 -1      1395 9.70183E-05-2.91027E-05-2.91077E-05-2.44357E-07 2.08659E-19-8.14598E-18
 -1      1396 9.67935E-05-2.90313E-05-2.90420E-05-2.40161E-07 3.17059E-19-7.67585E-18
 -1      1397 9.69517E-05-2.90833E-05-2.90872E-05-4.77921E-07 3.87932E-19-5.05594E-18
 -1      1398 9.66198E-05-2.89789E-05-2.89895E-05-2.20462E-07 2.40687E-19-7.59909E-18
 -1      1399 9.64180E-05-2.89160E-05-2.89301E-05-2.13857E-07 3.51238E-19-7.26865E-18
 -1      1400 9.65969E-05-2.89675E-05-2.89858E-05-4.49612E-07 3.03553E-19-4.61952E-18
 -1      1401 9.62648E-05-2.88707E-05-2.88833E-05-1.86305E-07 1.71225E-19-7.46655E-18
 -1      1402 9.60951E-05-2.88186E-05-2.88332E-05-1.78999E-07 1.95760E-19-7.62811E-18
 -1      1403 9.62734E-05-2.88664E-05-2.88910E-05-3.91881E-07 2.85474E-19-4.54306E-18
 -1      1404 9.59671E-05-2.87813E-05-2.87938E-05-1.49641E-07 7.61476E-20-7.49415E-18
 -1      1405 9.58316E-05-2.87402E-05-2.87536E-05-1.42655E-07-2.02761E-19-7.28447E-18
 -1      1406 9.59962E-05-2.87825E-05-2.88082E-05-3.22885E-07 1.50027E-19-4.96224E-18
 -1      1407 9.57293E-05-2.87107E-05-2.87220E-05-1.15071E-07 2.14684E-19-7.19113E-18
 -1      1408 9.56257E-05-2.86798E-05-2.86911E-05-1.08935E-07 3.92405E-19-6.69330E-18
 -1      1409 9.57698E-05-2.87157E-05-2.87396E-05-2.54071E-07 3.79754E-19-5.04062E-18
 -1      1410 9.55471E-05-2.86573E-05-2.86668E-05-8.49384E-08 1.78450E-20-6.07345E-18
 -1      1411 9.54713E-05-2.86349E-05-2.86440E-05-7.98579E-08 2.50068E-19-6.01348E-18
 -1      1412 9.55922E-05-2.86646E-05-2.86851E-05-1.91834E-07 5.40137E-19-5.08750E-18
 -1      1413 9.54130E-05-2.86183E-05-2.86260E-05-6.01012E-08-2.16331E-19-5.57251E-18
 -1      1414 9.53599E-05-2.86029E-05-2.86100E-05-5.60835E-08-1.79094E-19-5.66605E-18
 -1      1415 9.54581E-05-2.86268E-05-2.86435E-05-1.39083E-07 3.00308E-19-4.60282E-18
 -1      1416 9.53184E-05-2.85912E-05-2.85970E-05-4.05168E-08 1.26927E-19-5.70498E-18
 -1      1417 9.52830E-05-2.85811E-05-2.85863E-05-3.74630E-08-2.36561E-20-5.57329E-18
 -1      1418 9.53604E-05-2.85998E-05-2.86129E-05-9.65075E-08-4.95664E-19-3.27621E-18
 -1      1419 9.52547E-05-2.85732E-05-2.85775E-05-2.56604E-08-2.06550E-19-5.82836E-18
 -1      1420 9.52327E-05-2.85671E-05-2.85708E-05-2.34245E-08 9.50543E-20-5.75212E-18
 -1      1421 9.52920E-05-2.85814E-05-2.85912E-05-6.35167E-08 1.00456E-19-4.18780E-18
 -1      1422 9.52145E-05-2.85620E-05-2.85651E-05-1.47989E-08-1.71216E-19-5.92823E-18
 -1      1423 9.52023E-05-2.85588E-05-2.85613E-05-1.32238E-08 1.29743E-19-6.17565E-18
 -1      1424 9.52465E-05-2.85695E-05-2.85765E-05-3.88842E-08-4.98313E-20-4.04392E-18
 -1      1425 9.51914E-05-2.85558E-05-2.85579E-05-7.15741E-09 2.56522E-19-6.03285E-18
 -1      1426 9.51859E-05-2.85545E-05-2.85562E-05-6.09554E-09-8.98920E-20-5.93812E-18
 -1      1427 9.52180E-05-2.85623E-05-2.85672E-05-2.11571E-08 1.43855E-19-3.68393E-18
 -1      1428 9.51804E-05-2.85530E-05-2.85544E-05-2.01289E-09-1.66935E-19-5.98473E-18
 -1      1429 9.51794E-05-2.85530E-05-2.85540E-05-1.33582E-09 1.10747E-20-6.50919E-18
 -1      1430 9.52018E-05-2.85585E-05-2.85618E-05-8.89956E-09-1.97622E-19-3.99988E-18
 -1      1431 9.51774E-05-2.85526E-05-2.85534E-05 1.26158E-09 8.79570E-19-6.21651E-18
 -1      1432 9.51792E-05-2.85533E-05-2.85538E-05 1.65988E-09 1.18779E-18-4.87766E-18
 -1      1433 9.51944E-05-2.85571E-05-2.85591E-05-8.19893E-10 3.45089E-19-3.30531E-18
 -1      1434 9.51796E-05-2.85535E-05-2.85539E-05 3.18238E-09 9.94916E-19-5.39808E-18
 -1      1435 9.51830E-05-2.85547E-05-2.85549E-05 3.38593E-09 3.67699E-19-4.24650E-18
 -1      1436 9.51926E-05-2.85571E-05-2.85582E-05 4.17469E-09 1.12226E-18-3.33382E-18
 -1      1437 9.51847E-05-2.85552E-05-2.85554E-05 4.15828E-09-4.65685E-19-3.64534E-18
 -1      1438 9.51889E-05-2.85566E-05-2.85566E-05 4.23144E-09-6.63877E-19-4.57944E-18
 -1      1439 9.51946E-05-2.85581E-05-2.85586E-05 6.96824E-09 1.61958E-19-3.67998E-18
 -1      1440 9.51914E-05-2.85574E-05-2.85574E-05 4.50198E-09-5.34369E-19-4.51111E-18
 -1      1441 9.51958E-05-2.85588E-05-2.85587E-05 4.49250E-09-4.73357E-19-5.35766E-18
 -1      1442 9.51986E-05-2.85595E-05-2.85597E-05 8.25020E-09-6.93664E-19-3.05717E-18
 -1      1443 9.51986E-05-2.85596E-05-2.85596E-05 4.44503E-09-1.63535E-19-4.69960E-18
 -1      1444 9.52029E-05-2.85610E-05-2.85608E-05 4.38713E-09 2.33590E-19-5.15027E-18
 -1      1445 9.52038E-05-2.85612E-05-2.85611E-05 8.54077E-09-5.42595E-19-2.58394E-18
 -1      1446 9.52058E-05-2.85618E-05-2.85617E-05 4.15284E-09 7.69297E-19-5.09583E-18
 -1      1447 9.52097E-05-2.85630E-05-2.85628E-05 4.07003E-09 6.76294E-19-4.22988E-18
 -1      1448 9.52092E-05-2.85629E-05-2.85627E-05 8.21941E-09 5.54974E-19-3.14002E-18
 -1      1449 9.52124E-05-2.85638E-05-2.85637E-05 3.73806E-09 1.05444E-18-3.47112E-18
 -1      1450 9.52159E-05-2.85649E-05-2.85647E-05 3.64549E-09 1.03227E-18-2.52994E-18
 -1      1451 9.52146E-05-2.85646E-05-2.85643E-05 7.55184E-09 1.91608E-18-2.56368E-18
 -1      1452 9.52184E-05-2.85656E-05-2.85655E-05 3.27169E-09 1.84762E-19-6.68318E-19
 -1      1453 9.52214E-05-2.85666E-05-2.85664E-05 3.17784E-09 5.45592E-19-3.02719E-19
 -1      1454 9.52196E-05-2.85661E-05-2.85658E-05 6.71334E-09 1.79823E-18-1.80939E-18
 -1      1455 9.52236E-05-2.85672E-05-2.85670E-05 2.79129E-09 1.50897E-19-2.24099E-19
 -1      1456 9.52262E-05-2.85680E-05-2.85678E-05 2.69919E-09-5.53433E-20-5.75748E-20
 -1      1457 9.52241E-05-2.85674E-05-2.85671E-05 5.80708E-09 5.57028E-19-1.36959E-18
 -1      1458 9.52280E-05-2.85685E-05-2.85684E-05 2.30661E-09 6.57471E-19 4.58439E-19
 -1      1459 9.52301E-05-2.85692E-05-2.85690E-05 2.21431E-09 4.40995E-19 8.79625E-19
 -1      1460 9.52279E-05-2.85686E-05-2.85683E-05 4.87748E-09 4.33947E-19-2.13033E-19
 -1      1461 9.52316E-05-2.85696E-05-2.85694E-05 1.80312E-09 2.79986E-19 1.06663E-18
 -1      1462 9.52333E-05-2.85701E-05-2.85699E-05 1.70349E-09 2.18290E-19 1.75972E-18
 -1      1463 9.52312E-05-2.85696E-05-2.85692E-05 3.91968E-09 7.31342E-19 3.35492E-19
 -1      1464 9.52344E-05-2.85705E-05-2.85703E-05 1.24915E-09 1.15975E-18 1.91480E-18
 -1      1465 9.52355E-05-2.85708E-05-2.85706E-05 1.12966E-09 1.27642E-18 3.23916E-18
 -1      1466 9.52337E-05-2.85704E-05-2.85700E-05 2.88870E-09 1.07184E-18-3.91228E-19
 -1      1467 9.52363E-05-2.85711E-05-2.85708E-05 6.10330E-10-2.62552E-19 3.23680E-18
 -1      1468 9.52367E-05-2.85712E-05-2.85710E-05 4.69300E-10-1.08252E-18 2.60254E-18
 -1      1469 9.52356E-05-2.85710E-05-2.85705E-05 1.74259E-09 8.67865E-19 1.10804E-18
 -1      1470 9.52372E-05-2.85712E-05-2.85712E-05-5.84373E-11-1.93953E-18 1.83782E-18
 -1      1471 9.52369E-05-2.85713E-05-2.85710E-05 4.30282E-10-2.61752E-18 1.26920E-18
 -1      1472 1.14760E-04-3.37727E-05-3.52055E-05 8.52607E-08 1.15525E-18 1.43080E-17
 -1      1473 1.17492E-04-3.37376E-05-3.66669E-05 1.54212E-06 1.03809E-18 1.60493E-17
 -1      1474 1.16272E-04-3.10879E-05-3.69022E-05 7.66833E-06 1.99836E-18 1.10680E-17
 -1      1475 1.16472E-04-3.45869E-05-3.51987E-05-2.44470E-06 8.59897E-19 1.20379E-17
 -1      1476 1.14709E-04-3.35632E-05-3.49684E-05-1.86303E-06 8.40998E-19 1.33413E-17
 -1      1477 1.14725E-04-3.33017E-05-3.51641E-05-1.12044E-06 1.70915E-18 9.19980E-18
 -1      1478 1.22712E-04-3.65363E-05-3.69813E-05-4.35329E-06 4.86157E-19 1.03437E-17
 -1      1479 1.18570E-04-3.49946E-05-3.58257E-05-3.79005E-06 5.51988E-19 1.12859E-17
 -1      1480 1.16913E-04-3.43278E-05-3.55445E-05-5.76504E-06 1.29525E-18 7.78272E-18
 -1      1481 1.32178E-04-3.95196E-05-3.97230E-05-5.75984E-06 2.90357E-19 9.52997E-18
 -1      1482 1.26323E-04-3.74765E-05-3.80672E-05-5.26229E-06 2.32173E-19 9.99435E-18
 -1      1483 1.22480E-04-3.61829E-05-3.71102E-05-9.04921E-06 6.85706E-19 6.74360E-18
 -1      1484 1.43039E-04-4.32083E-05-4.26295E-05-5.90574E-06-1.27181E-19 9.35686E-18
 -1      1485 1.36621E-04-4.09785E-05-4.09480E-05-5.76508E-06-9.26442E-21 9.49111E-18
 -1      1486 1.30379E-04-3.90277E-05-3.91974E-05-1.07788E-05 2.23309E-19 6.60479E-18
 -1      1487 1.51459E-04-4.65530E-05-4.44606E-05-3.16502E-06-8.54590E-19 1.10545E-17
 -1      1488 1.47112E-04-4.50908E-05-4.35493E-05-3.99086E-06-8.00049E-19 9.79260E-18
 -1      1489 1.39079E-04-4.27973E-05-4.10828E-05-9.03129E-06-1.00545E-18 7.28004E-18
 -1      1490 1.50824E-04-4.71342E-05-4.37708E-05 4.41974E-06-3.04350E-19 1.27442E-17
 -1      1491 1.53231E-04-4.82923E-05-4.46122E-05 1.76972E-06-4.92576E-19 1.18442E-17
 -1      1492 1.45878E-04-4.67143E-05-4.19961E-05-7.24600E-07-1.32608E-18 8.45743E-18
 -1      1493 1.35728E-04-4.16804E-05-4.04624E-05 1.32983E-05 2.57948E-19 1.32391E-17
 -1      1494 1.47722E-04-4.67971E-05-4.30820E-05 1.01851E-05 1.04377E-19 1.30803E-17
 -1      1495 1.46111E-04-4.76903E-05-4.17418E-05 1.38068E-05-4.37016E-19 9.99033E-18
 -1      1496 1.14624E-04-3.24971E-05-3.68563E-05 1.46030E-05 1.54118E-18 1.11944E-17
 -1      1497 1.29633E-04-3.87071E-05-3.96761E-05 1.40001E-05 8.10293E-19 1.22337E-17
 -1      1498 1.37874E-04-4.20639E-05-4.13053E-05 2.38866E-05 1.01485E-18 9.42928E-18
 -1      1499 1.02343E-04-2.65124E-05-3.50955E-05 3.77603E-06 2.25808E-18 6.85041E-18
 -1      1500 1.10151E-04-2.90741E-05-3.64808E-05 6.97435E-06 1.99265E-18 9.17167E-18
 -1      1501 1.27105E-04-3.28729E-05-4.14838E-05 1.67303E-05 3.35976E-18 6.28146E-18
 -1      1502 1.11133E-04-3.05228E-05-3.64027E-05-1.12281E-05 2.17243E-18 1.36648E-18
 -1      1503 1.04325E-04-2.66074E-05-3.52872E-05-6.74663E-06 2.30859E-18 4.46212E-18
 -1      1504 1.24168E-04-2.95700E-05-4.19581E-05-5.56469E-06 4.51553E-18 2.10514E-18
 -1      1505 1.35764E-04-4.14747E-05-4.04575E-05-1.59739E-05 1.73202E-18-3.75913E-18
 -1      1506 1.18555E-04-3.41850E-05-3.72115E-05-1.44704E-05 1.79995E-18-7.68894E-19
 -1      1507 1.33458E-04-3.71920E-05-4.22050E-05-2.32470E-05 3.98783E-18-2.55878E-18
 -1      1508 1.53763E-04-4.81618E-05-4.43493E-05-8.19082E-06 2.38235E-19-5.34033E-18
 -1      1509 1.40957E-04-4.38953E-05-4.14410E-05-9.95270E-06 4.99564E-19-4.34210E-18
 -1      1510 1.45386E-04-4.69001E-05-4.24909E-05-2.05751E-05 1.90101E-18-5.44875E-18
 -1      1511 1.56573E-04-4.83187E-05-4.56879E-05 7.08948E-07-4.70964E-19-4.57303E-18
 -1      1512 1.53715E-04-4.81279E-05-4.47125E-05-1.36837E-06-2.20017E-19-4.68886E-18
 -1      1513 1.49103E-04-4.89706E-05-4.28074E-05-6.16855E-06-1.22555E-19-5.55593E-18
 -1      1514 1.49031E-04-4.51174E-05-4.43144E-05 5.25722E-06-1.05232E-18-2.28604E-18
 -1      1515 1.53067E-04-4.70243E-05-4.51217E-05 4.16805E-06-9.09369E-19-3.62297E-18
 -1      1516 1.44639E-04-4.56874E-05-4.22510E-05 5.56339E-06-1.47887E-18-3.79967E-18
 -1      1517 1.37842E-04-4.12478E-05-4.14640E-05 6.17373E-06-7.84037E-19-3.66501E-19
 -1      1518 1.44330E-04-4.35685E-05-4.31317E-05 5.89686E-06-8.14561E-19-1.64473E-18
 -1      1519 1.36232E-04-4.13903E-05-4.05658E-05 1.05200E-05-1.48877E-18-2.53567E-18
 -1      1520 1.27033E-04-3.78496E-05-3.83665E-05 5.38985E-06 8.02233E-20 3.92229E-19
 -1      1521 1.33303E-04-3.98435E-05-4.01281E-05 5.49182E-06-2.98288E-19 9.38089E-20
 -1      1522 1.27172E-04-3.78162E-05-3.82752E-05 1.07805E-05-9.09965E-19-1.88523E-18
 -1      1523 1.18137E-04-3.51902E-05-3.56789E-05 4.16603E-06 9.52882E-19-1.61574E-18
 -1      1524 1.23220E-04-3.67002E-05-3.71699E-05 4.37111E-06 8.33745E-19-2.50934E-19
 -1      1525 1.19124E-04-3.51739E-05-3.59824E-05 9.04138E-06 1.10584E-18-1.91787E-18
 -1      1526 1.11119E-04-3.31439E-05-3.35059E-05 2.98087E-06-8.51152E-19-1.68647E-18
 -1      1527 1.15027E-04-3.42607E-05-3.46805E-05 3.19373E-06-5.16670E-19-2.41280E-18
 -1      1528 1.12513E-04-3.32372E-05-3.39801E-05 6.85368E-06 3.59129E-20-1.77953E-18
 -1      1529 1.06314E-04-3.17592E-05-3.20075E-05 2.10178E-06-4.41030E-19-6.02452E-20
 -1      1530 1.08950E-04-3.24898E-05-3.28057E-05 2.26140E-06-7.55461E-19-1.57471E-18
 -1      1531 1.07496E-04-3.18520E-05-3.24255E-05 4.93737E-06-1.17098E-18-2.70168E-18
 -1      1532 1.02891E-04-3.07749E-05-3.09409E-05 1.46308E-06-2.52356E-19 9.94086E-19
 -1      1533 1.04728E-04-3.12762E-05-3.14987E-05 1.58099E-06-4.75182E-19 6.31423E-19
 -1      1534 1.03913E-04-3.08894E-05-3.13008E-05 3.49843E-06-1.08400E-18-9.26361E-19
 -1      1535 1.00487E-04-3.00835E-05-3.01933E-05 1.01209E-06-4.06670E-19 2.13181E-18
 -1      1536 1.01755E-04-3.04263E-05-3.05786E-05 1.09658E-06-3.39577E-19 1.86856E-18
 -1      1537 1.01322E-04-3.01988E-05-3.04853E-05 2.44940E-06-9.17469E-19-2.19844E-19
 -1      1538 9.88068E-05-2.95999E-05-2.96726E-05 6.98387E-07-6.46524E-20 2.30827E-18
 -1      1539 9.96795E-05-2.98339E-05-2.99374E-05 7.58019E-07-1.82699E-19 2.00276E-18
 -1      1540 9.94699E-05-2.97052E-05-2.99022E-05 1.70517E-06-3.92851E-19 1.31523E-19
 -1      1541 9.76366E-05-2.92624E-05-2.93108E-05 4.81207E-07-1.18093E-19 3.38105E-18
 -1      1542 9.82360E-05-2.94222E-05-2.94926E-05 5.23130E-07-4.79874E-19 2.55524E-18
 -1      1543 9.81537E-05-2.93534E-05-2.94884E-05 1.18373E-06-4.21283E-19 1.47910E-19
 -1      1544 9.68236E-05-2.90277E-05-2.90601E-05 3.30787E-07 5.03736E-20 3.45956E-18
 -1      1545 9.72346E-05-2.91365E-05-2.91846E-05 3.60296E-07 2.20213E-19 3.81318E-18
 -1      1546 9.72224E-05-2.91033E-05-2.91960E-05 8.19899E-07-1.07537E-19 3.73464E-20
 -1      1547 9.62602E-05-2.88648E-05-2.88868E-05 2.26222E-07 2.67420E-19 2.26459E-18
 -1      1548 9.65416E-05-2.89387E-05-2.89719E-05 2.47106E-07 3.61466E-19 3.29902E-18
 -1      1549 9.65661E-05-2.89262E-05-2.89902E-05 5.66029E-07 3.59240E-19 1.33817E-18
 -1      1550 9.58576E-05-2.87485E-05-2.87628E-05 1.50341E-07 2.60953E-19 3.75448E-18
 -1      1551 9.60552E-05-2.88001E-05-2.88228E-05 1.66148E-07-3.27759E-19 2.91517E-18
 -1      1552 9.60973E-05-2.87991E-05-2.88432E-05 3.85508E-07-2.61408E-19 7.53028E-19
 -1      1553 9.55999E-05-2.86738E-05-2.86836E-05 1.00612E-07 2.98126E-19 3.35505E-18
 -1      1554 9.57250E-05-2.87059E-05-2.87216E-05 1.10968E-07 5.51828E-19 4.02669E-18
 -1      1555 9.57729E-05-2.87116E-05-2.87417E-05 2.58864E-07 3.76217E-19 1.37511E-18
 -1      1556 9.54270E-05-2.86239E-05-2.86305E-05 6.58035E-08-4.72881E-20 2.48778E-18
 -1      1557 9.55092E-05-2.86446E-05-2.86555E-05 7.32017E-08 1.35521E-19 3.41351E-18
 -1      1558 9.55568E-05-2.86530E-05-2.86740E-05 1.73068E-07-1.89635E-20 2.97363E-18
 -1      1559 9.53140E-05-2.85913E-05-2.85958E-05 4.16049E-08 1.35876E-18 6.69552E-19
 -1      1560 9.53664E-05-2.86042E-05-2.86118E-05 4.68771E-08 5.57396E-19 1.95953E-18
 -1      1561 9.54106E-05-2.86135E-05-2.86280E-05 1.13023E-07 8.04604E-19 1.88899E-18
 -1      1562 9.52428E-05-2.85709E-05-2.85738E-05 2.49275E-08-9.84933E-20-1.23094E-18
 -1      1563 9.52747E-05-2.85784E-05-2.85836E-05 2.86623E-08 8.68058E-19-1.96088E-19
 -1      1564 9.53140E-05-2.85876E-05-2.85976E-05 7.12041E-08 1.45822E-18 1.02533E-18
 -1      1565 9.52005E-05-2.85589E-05-2.85607E-05 1.35939E-08-1.90829E-18 1.53704E-18
 -1      1566 9.52184E-05-2.85628E-05-2.85663E-05 1.62127E-08-1.66344E-18-1.20336E-18
 -1      1567 9.52523E-05-2.85713E-05-2.85780E-05 4.23567E-08-1.63690E-18 2.25963E-18
 -1      1568 9.51778E-05-2.85526E-05-2.85536E-05 6.02358E-09 4.90914E-19 1.73090E-18
 -1      1569 9.51864E-05-2.85540E-05-2.85564E-05 7.85956E-09 5.48850E-19 2.67050E-18
 -1      1570 9.52149E-05-2.85616E-05-2.85660E-05 2.27600E-08-2.51066E-19 3.15669E-18
 -1      1571 9.51679E-05-2.85499E-05-2.85505E-05 9.70961E-10-6.16755E-19 1.72688E-18
 -1      1572 9.51704E-05-2.85499E-05-2.85513E-05 2.29112E-09-6.91591E-19 1.19451E-18
 -1      1573 9.51939E-05-2.85563E-05-2.85592E-05 9.56698E-09 2.22177E-20 4.32338E-18
 -1      1574 9.51669E-05-2.85498E-05-2.85501E-05-1.89794E-09 5.79895E-19 1.58038E-18
 -1      1575 9.51655E-05-2.85489E-05-2.85497E-05-1.11139E-09 1.12280E-18 2.38140E-18
 -1      1576 9.51844E-05-2.85543E-05-2.85559E-05 1.07156E-09 3.20338E-19 3.37953E-18
 -1      1577 9.51709E-05-2.85512E-05-2.85512E-05-3.52939E-09 3.92021E-19 6.95848E-19
 -1      1578 9.51673E-05-2.85498E-05-2.85502E-05-3.03398E-09-9.23595E-20 3.03396E-19
 -1      1579 9.51824E-05-2.85542E-05-2.85551E-05-3.88384E-09 7.87318E-19 3.21282E-18
 -1      1580 9.51776E-05-2.85533E-05-2.85532E-05-4.30374E-09-1.23951E-18 1.92143E-18
 -1      1581 9.51730E-05-2.85517E-05-2.85519E-05-4.01356E-09-1.30881E-19 8.63817E-19
 -1      1582 9.51848E-05-2.85552E-05-2.85556E-05-6.63329E-09-1.65801E-19 1.69255E-18
 -1      1583 9.51856E-05-2.85557E-05-2.85556E-05-4.51978E-09-5.02479E-20 2.11213E-18
 -1      1584 9.51806E-05-2.85541E-05-2.85541E-05-4.36962E-09-3.36558E-19 1.72358E-18
 -1      1585 9.51898E-05-2.85569E-05-2.85570E-05-7.90111E-09-8.66359E-19 1.75813E-18
 -1      1586 9.51939E-05-2.85583E-05-2.85581E-05-4.39003E-09 1.33598E-18 1.72239E-18
 -1      1587 9.51890E-05-2.85567E-05-2.85566E-05-4.33218E-09 1.52751E-19 1.78439E-18
 -1      1588 9.51959E-05-2.85589E-05-2.85588E-05-8.20823E-09 2.88304E-19 2.63889E-19
 -1      1589 9.52019E-05-2.85607E-05-2.85605E-05-4.06251E-09-3.81844E-19 1.05587E-18
 -1      1590 9.51973E-05-2.85592E-05-2.85591E-05-4.06280E-09 7.42222E-19 2.10856E-18
 -1      1591 9.52024E-05-2.85609E-05-2.85607E-05-7.92420E-09 2.97353E-19 1.11337E-18
 -1      1592 9.52093E-05-2.85629E-05-2.85627E-05-3.64126E-09 2.19544E-18-4.07592E-19
 -1      1593 9.52051E-05-2.85616E-05-2.85615E-05-3.67138E-09 1.10780E-18 9.44526E-19
 -1      1594 9.52088E-05-2.85629E-05-2.85626E-05-7.30616E-09 1.32318E-18 1.28487E-18
 -1      1595 9.52162E-05-2.85649E-05-2.85648E-05-3.15863E-09-1.00693E-18-4.71102E-19
 -1      1596 9.52124E-05-2.85638E-05-2.85636E-05-3.21296E-09-2.69561E-19-1.20181E-18
 -1      1597 9.52149E-05-2.85647E-05-2.85644E-05-6.50200E-09 9.08887E-19 8.68772E-19
 -1      1598 9.52218E-05-2.85666E-05-2.85665E-05-2.69799E-09 1.32549E-18 3.38005E-19
 -1      1599 9.52187E-05-2.85657E-05-2.85656E-05-2.75917E-09-1.97215E-19-1.43109E-19
 -1      1600 9.52203E-05-2.85663E-05-2.85660E-05-5.64191E-09-3.41120E-19 9.20157E-19
 -1      1601 9.52267E-05-2.85681E-05-2.85679E-05-2.25421E-09-4.05361E-20-1.56616E-18
 -1      1602 9.52240E-05-2.85673E-05-2.85672E-05-2.32026E-09 4.81469E-19-6.08222E-19
 -1      1603 9.52250E-05-2.85677E-05-2.85674E-05-4.79866E-09 1.08944E-18 1.05304E-18
 -1      1604 9.52306E-05-2.85693E-05-2.85691E-05-1.81397E-09 1.86888E-19-1.44471E-18
 -1      1605 9.52285E-05-2.85686E-05-2.85685E-05-1.88762E-09 2.18568E-20-2.27807E-18
 -1      1606 9.52289E-05-2.85688E-05-2.85686E-05-3.96426E-09 3.93174E-19 7.76878E-20
 -1      1607 9.52337E-05-2.85702E-05-2.85700E-05-1.35047E-09-1.82993E-18 9.23208E-19
 -1      1608 9.52321E-05-2.85697E-05-2.85696E-05-1.44019E-09-7.54056E-19-1.84764E-19
 -1      1609 9.52321E-05-2.85698E-05-2.85695E-05-3.11167E-09-1.05368E-18-5.99057E-19
 -1      1610 9.52359E-05-2.85709E-05-2.85707E-05-8.19938E-10-5.75136E-19 2.00499E-18
 -1      1611 9.52348E-05-2.85706E-05-2.85704E-05-9.44907E-10-1.30059E-18 3.82944E-19
 -1      1612 9.52345E-05-2.85706E-05-2.85702E-05-2.18780E-09-1.94564E-18 8.36321E-19
 -1      1613 9.52369E-05-2.85712E-05-2.85710E-05-2.40126E-10-4.52226E-19 2.10340E-18
 -1      1614 9.52365E-05-2.85711E-05-2.85709E-05-3.89381E-10-3.47904E-19 1.02742E-18
 -1      1615 9.52362E-05-2.85711E-05-2.85707E-05-1.14303E-09-1.56358E-19-1.58665E-18
 -1      1616 9.52372E-05-2.85712E-05-2.85712E-05 2.41300E-11 1.95965E-18 1.30016E-18
 -1      1617 9.52372E-05-2.85720E-05-2.85708E-05-6.41053E-10-2.22160E-18-1.82289E-18
 -1      1618 9.52371E-05-2.85716E-05-2.85710E-05-4.90484E-10 9.68255E-19-2.12574E-18
 -1      1619 9.52378E-05-2.85738E-05-2.85703E-05-1.17881E-09 3.46753E-20 1.17351E-18
 -1      1620 9.52375E-05-2.85728E-05-2.85706E-05-1.08511E-09-7.75283E-19 2.48302E-19
 -1      1621 9.52373E-05-2.85727E-05-2.85705E-05-1.69516E-09-1.05372E-18-9.40263E-19
 -1      1622 9.52386E-05-2.85761E-05-2.85696E-05-1.47815E-09-1.06064E-18-1.28650E-18
 -1      1623 9.52381E-05-2.85747E-05-2.85700E-05-1.44007E-09 7.92228E-19 4.31091E-19
 -1      1624 9.52380E-05-2.85744E-05-2.85701E-05-2.54025E-09-4.76114E-19 7.35932E-19
 -1      1625 9.52394E-05-2.85785E-05-2.85689E-05-1.51526E-09-1.69625E-18-7.48517E-19
 -1      1626 9.52389E-05-2.85771E-05-2.85693E-05-1.52910E-09-1.83385E-18-5.14298E-19
 -1      1627 9.52387E-05-2.85764E-05-2.85695E-05-2.90787E-09-8.48613E-19-1.13092E-18
 -1      1628 9.52401E-05-2.85807E-05-2.85683E-05-1.32846E-09-2.58051E-18-7.31163E-20
 -1      1629 9.52397E-05-2.85795E-05-2.85687E-05-1.38156E-09-1.93014E-18-1.17329E-18
 -1      1630 9.52394E-05-2.85785E-05-2.85690E-05-2.79885E-09-9.74865E-19-1.01662E-18
 -1      1631 9.52407E-05-2.85825E-05-2.85678E-05-9.62526E-10 1.52868E-18 1.98820E-18
 -1      1632 9.52404E-05-2.85816E-05-2.85681E-05-1.04645E-09-1.38375E-18 2.95750E-18
 -1      1633 9.52401E-05-2.85803E-05-2.85685E-05-2.29493E-09-7.78810E-19 1.82097E-18
 -1      1634 9.52410E-05-2.85835E-05-2.85675E-05-4.78149E-10 4.89389E-18 1.08934E-18
 -1      1635 9.52408E-05-2.85830E-05-2.85676E-05-5.79774E-10 2.89121E-18 2.59403E-18
 -1      1636 9.52405E-05-2.85817E-05-2.85681E-05-1.49070E-09 2.15399E-19 3.73392E-18
 -1      1637 9.52411E-05-2.85837E-05-2.85674E-05 6.18970E-11 4.74786E-18-6.56625E-19
 -1      1638 9.52411E-05-2.85837E-05-2.85674E-05-4.53847E-11 4.89626E-18-1.09508E-18
 -1      1639 9.52408E-05-2.85824E-05-2.85679E-05-5.06008E-10 1.48695E-18 2.04974E-19
 -1      1640 9.52408E-05-2.85830E-05-2.85676E-05 5.94028E-10 3.46722E-18-1.42846E-18
 -1      1641 9.52410E-05-2.85835E-05-2.85675E-05 4.93196E-10 4.92883E-18-3.89556E-19
 -1      1642 9.52408E-05-2.85824E-05-2.85679E-05 5.36828E-10 2.45339E-18-1.23299E-18
 -1      1643 9.52404E-05-2.85815E-05-2.85681E-05 1.05534E-09 1.45250E-18-1.77612E-18
 -1      1644 9.52407E-05-2.85825E-05-2.85678E-05 9.72975E-10 4.38462E-18-1.97003E-18
 -1      1645 9.52405E-05-2.85816E-05-2.85681E-05 1.51497E-09 2.13306E-18-2.07944E-18
 -1      1646 9.52397E-05-2.85795E-05-2.85687E-05 1.38086E-09 9.53506E-20 4.87773E-19
 -1      1647 9.52401E-05-2.85807E-05-2.85683E-05 1.32932E-09 6.82720E-19-3.23827E-19
 -1      1648 9.52400E-05-2.85803E-05-2.85685E-05 2.30331E-09 7.81483E-19-1.47917E-18
 -1      1649 9.52389E-05-2.85771E-05-2.85694E-05 1.52483E-09 6.73616E-19 5.77304E-19
 -1      1650 9.52394E-05-2.85785E-05-2.85690E-05 1.51233E-09 2.80514E-19 1.68137E-18
 -1      1651 9.52394E-05-2.85784E-05-2.85690E-05 2.79615E-09-1.35807E-19 1.79834E-18
 -1      1652 9.52381E-05-2.85747E-05-2.85700E-05 1.43409E-09-2.07932E-18-1.07138E-18
 -1      1653 9.52386E-05-2.85760E-05-2.85697E-05 1.46983E-09 7.82454E-20-9.30205E-19
 -1      1654 9.52387E-05-2.85764E-05-2.85696E-05 2.89596E-09-4.65906E-19-1.02931E-18
 -1      1655 9.52375E-05-2.85728E-05-2.85706E-05 1.07962E-09-4.09340E-18-9.10935E-19
 -1      1656 9.52378E-05-2.85737E-05-2.85703E-05 1.17470E-09-2.49189E-18-9.75177E-19
 -1      1657 9.52379E-05-2.85744E-05-2.85701E-05 2.52078E-09-1.34964E-18-2.61277E-18
 -1      1658 9.52371E-05-2.85717E-05-2.85709E-05 7.52128E-10-3.54254E-18 3.57499E-19
 -1      1659 9.52372E-05-2.85722E-05-2.85707E-05 9.68612E-10-3.75769E-18-1.53706E-19
 -1      1660 9.52372E-05-2.85728E-05-2.85704E-05 2.02002E-09-1.47712E-18-9.01273E-20
 -1      1661 9.52366E-05-2.85718E-05-2.85706E-05 1.50340E-09-7.05240E-19 5.79549E-19
 -1      1662 2.17468E-05-7.71335E-05 1.72539E-05-1.30259E-05 1.36059E-17 6.89464E-18
 -1      1663 2.45611E-05-8.26192E-05 1.82334E-05-2.72951E-06 6.84906E-18 4.70781E-18
 -1      1664 2.05261E-05-5.23639E-05 8.44967E-06-5.81753E-06 1.88778E-17 1.05031E-17
 -1      1665 2.53968E-05-7.20680E-05 1.36923E-05-6.14128E-06 1.51174E-17 7.41726E-18
 -1      1666 3.14835E-05-2.56873E-05-6.30928E-06 1.37888E-05 2.14274E-17 1.58107E-17
 -1      1667 2.90884E-05-4.80928E-05 2.19373E-06-5.34439E-07 2.11021E-17 1.20429E-17
 -1      1668 7.20368E-05-1.23815E-05-2.67174E-05 4.70824E-05 1.88634E-17 1.80935E-17
 -1      1669 4.93790E-05-2.32022E-05-1.56434E-05 2.22914E-05 2.07828E-17 1.68017E-17
 -1      1670 1.44545E-04-2.41132E-05-4.91591E-05 7.14841E-05 1.29317E-17 1.51704E-17
 -1      1671 9.82328E-05-1.43564E-05-3.75015E-05 5.24627E-05 1.73150E-17 1.74319E-17
 -1      1672 2.33853E-04-5.54194E-05-6.97993E-05 5.80326E-05 6.78982E-18 7.62414E-18
 -1      1673 1.75919E-04-3.16773E-05-5.93063E-05 6.28923E-05 1.08361E-17 1.25429E-17
 -1      1674 2.91729E-04-7.66130E-05-8.23321E-05 2.37588E-05 3.67125E-18-5.86147E-19
 -1      1675 2.58546E-04-5.96864E-05-7.76498E-05 5.52770E-05 4.85032E-18 5.83606E-18
 -1      1676 2.83732E-04-7.07763E-05-8.24980E-05-2.85673E-05 5.90128E-18-1.05930E-17
 -1      1677 2.91930E-04-7.50504E-05-8.34493E-05 1.01755E-05 4.88907E-18-3.29623E-18
 -1      1678 2.27108E-04-4.69841E-05-7.18850E-05-6.11169E-05 9.60980E-18-1.75556E-17
 -1      1679 2.71173E-04-6.81622E-05-7.86549E-05-3.83179E-05 6.41522E-18-1.27309E-17
 -1      1680 1.49279E-04-2.46609E-05-5.24766E-05-6.18844E-05 1.32425E-17-1.93327E-17
 -1      1681 2.04523E-04-4.45908E-05-6.35040E-05-6.65988E-05 1.02754E-17-1.87431E-17
 -1      1682 8.30367E-05-1.94974E-05-2.98550E-05-4.11518E-05 1.52762E-17-1.69296E-17
 -1      1683 1.21935E-04-2.19563E-05-4.17637E-05-6.35834E-05 1.38007E-17-1.97291E-17
 -1      1684 3.88357E-05-3.02197E-05-9.01919E-06-1.32876E-05 1.55295E-17-1.28385E-17
 -1      1685 5.34196E-05-1.40849E-05-1.92286E-05-3.59450E-05 1.66510E-17-1.66840E-17
 -1      1686 2.55038E-05-5.77324E-05 7.00470E-06 6.19476E-06 1.07107E-17-7.65390E-18
 -1      1687 2.35293E-05-3.38737E-05-4.11245E-07-3.40621E-06 1.48629E-17-1.13354E-17
 -1      1688 2.53563E-05-7.95280E-05 1.61683E-05 6.62280E-06 2.37932E-18-4.20298E-18
 -1      1689 1.98936E-05-6.30719E-05 1.23124E-05 1.13055E-05 8.60924E-18-6.32967E-18
 -1      1690 2.36099E-05-7.96657E-05 1.74943E-05-1.09044E-06-6.19901E-18-3.52810E-18
 -1      1691 2.39498E-05-8.23943E-05 1.80344E-05 1.03686E-05-8.25857E-20-3.32884E-18
 -1      1692 2.03518E-05-5.40936E-05 9.93236E-06 3.03591E-06-1.20584E-17-6.58727E-18
 -1      1693 2.46046E-05-7.11268E-05 1.41193E-05 5.97151E-06-7.43695E-18-4.66313E-18
 -1      1694 2.34742E-05-2.51667E-05-2.36762E-06 1.49962E-05-1.70796E-17-1.03389E-17
 -1      1695 2.57917E-05-4.98651E-05 5.11474E-06 5.84953E-06-1.46511E-17-7.17543E-18
 -1      1696 5.21796E-05-5.42101E-06-2.05983E-05 4.60569E-05-1.61241E-17-1.29816E-17
 -1      1697 3.93152E-05-2.18372E-05-1.08482E-05 2.48221E-05-1.65502E-17-1.07747E-17
 -1      1698 1.01771E-04-2.06420E-06-4.06481E-05 7.48704E-05-1.35322E-17-1.46096E-17
 -1      1699 6.87972E-05-8.17811E-07-3.02205E-05 5.31162E-05-1.62825E-17-1.40116E-17
 -1      1700 1.70567E-04-2.32813E-05-5.87991E-05 8.41161E-05-9.00227E-18-1.24836E-17
 -1      1701 1.25561E-04-5.21605E-06-4.99702E-05 7.87600E-05-1.22777E-17-1.45571E-17
 -1      1702 2.33583E-04-5.19969E-05-7.20998E-05 5.61202E-05-4.90093E-18-5.97158E-18
 -1      1703 1.93726E-04-3.11190E-05-6.58009E-05 7.40556E-05-7.40762E-18-1.03770E-17
 -1      1704 2.64980E-04-6.66967E-05-7.84943E-05 8.62157E-06-3.14503E-18 1.16139E-18
 -1      1705 2.48943E-04-5.75791E-05-7.63348E-05 4.23541E-05-3.84511E-18-3.84129E-18
 -1      1706 2.53769E-04-5.99137E-05-7.70958E-05-4.16142E-05-4.19874E-18 7.67962E-18
 -1      1707 2.67227E-04-6.78554E-05-7.88443E-05-8.45462E-06-2.95890E-18 3.45674E-18
 -1      1708 2.02275E-04-3.45731E-05-6.76787E-05-7.21600E-05-7.73786E-18 1.22464E-17
 -1      1709 2.38094E-04-5.36765E-05-7.31818E-05-5.31235E-05-5.11375E-18 8.74646E-18
 -1      1710 1.40499E-04-9.34353E-06-5.39399E-05-8.19536E-05-1.24230E-17 1.66273E-17
 -1      1711 1.82284E-04-2.76525E-05-6.16275E-05-8.29778E-05-9.36310E-18 1.44004E-17
 -1      1712 8.34607E-05 1.26423E-07-3.60952E-05-6.22751E-05-1.39278E-17 1.51009E-17
 -1      1713 1.18573E-04-5.99675E-06-4.55914E-05-7.97846E-05-1.26979E-17 1.66476E-17
 -1      1714 4.37820E-05-7.89704E-06-1.80437E-05-3.46830E-05-1.34289E-17 1.19203E-17
 -1      1715 6.18060E-05 2.08940E-06-2.71437E-05-5.63869E-05-1.44334E-17 1.51373E-17
 -1      1716 2.75579E-05-3.46773E-05-1.61865E-06-1.09034E-05-1.02677E-17 7.42933E-18
 -1      1717 3.04296E-05-1.27713E-05-9.75029E-06-2.63148E-05-1.29477E-17 1.08619E-17
 -1      1718 2.51348E-05-6.43809E-05 1.07666E-05-1.74455E-06-4.65699E-18 3.54748E-18
 -1      1719 2.01793E-05-4.19902E-05 5.02113E-06-4.07693E-06-8.55164E-18 5.62112E-18
 -1      1720 2.52616E-05-8.11341E-05 1.73527E-05-6.07583E-06 4.28768E-18 4.04882E-18
 -1      1721 2.17666E-05-6.91849E-05 1.45944E-05 1.70008E-06-2.14130E-18 4.42405E-18
 -1      1722 1.20858E-04-4.60335E-05-3.23549E-05 3.74720E-05 1.24040E-17 9.33854E-18
 -1      1723 7.15105E-05-4.67404E-05-1.32877E-05 3.14486E-05 1.23108E-17 1.07150E-17
 -1      1724 9.52370E-05-2.85712E-05-2.85710E-05-2.21298E-10 1.21006E-18-1.40496E-18
 -1      1725 9.52369E-05-2.85716E-05-2.85708E-05-8.64762E-10-1.13502E-18-3.41734E-18
 -1      1726 1.68821E-05-5.20204E-05 1.07843E-05 7.60637E-06 7.53753E-18 9.07892E-18
 -1      1727 3.69815E-05-4.96517E-05 1.55715E-06 2.06315E-05 1.09623E-17 9.75914E-18
 -1      1728 1.17140E-05-5.39694E-05 1.33933E-05-7.76449E-06 4.13384E-18 7.98286E-18
 -1      1729 1.76546E-04-4.83739E-05-5.22679E-05 2.83137E-05 1.03865E-17 5.72255E-18
 -1      1730 2.17850E-04-4.48935E-05-6.87121E-05 1.41012E-05 8.20478E-18 2.47164E-18
 -1      1731 2.41074E-04-4.29350E-05-7.73033E-05 4.09633E-06 7.91510E-18-1.62546E-18
 -1      1732 2.29898E-04-4.02894E-05-7.46371E-05-7.61320E-06 8.52285E-18-4.80945E-18
 -1      1733 2.03246E-04-4.57401E-05-6.32582E-05-1.75147E-05 8.23454E-18-7.98498E-18
 -1      1734 1.61136E-04-5.13660E-05-4.55743E-05-2.96633E-05 7.40646E-18-1.01703E-17
 -1      1735 1.06770E-04-4.84112E-05-2.57916E-05-3.72119E-05 8.05867E-18-1.13701E-17
 -1      1736 5.63060E-05-4.64758E-05-7.43154E-06-2.83664E-05 7.71732E-18-1.04287E-17
 -1      1737 2.66181E-05-5.11612E-05 5.91213E-06-1.41035E-05 4.77642E-18-8.70178E-18
 -1      1738 1.33557E-05-5.48258E-05 1.27378E-05-9.40441E-07 7.20402E-19-7.31709E-18
 -1      1739 1.31339E-05-4.88880E-05 1.12162E-05 1.47774E-05-3.24625E-18-7.05070E-18
 -1      1740 2.69889E-05-4.32773E-05 3.66204E-06 2.73599E-05-5.93558E-18-7.55553E-18
 -1      1741 5.50233E-05-3.84184E-05-9.06378E-06 3.97054E-05-8.75239E-18-7.55765E-18
 -1      1742 9.29503E-05-3.32856E-05-2.59508E-05 4.77080E-05-9.38258E-18-7.78762E-18
 -1      1743 1.34827E-04-2.80876E-05-4.39904E-05 5.18333E-05-9.55368E-18-7.97482E-18
 -1      1744 1.78052E-04-3.01738E-05-5.96475E-05 4.34837E-05-8.12045E-18-6.17318E-18
 -1      1745 2.07779E-04-3.26661E-05-7.01869E-05 2.25897E-05-6.65831E-18-2.89897E-18
 -1      1746 2.23075E-04-3.60729E-05-7.45535E-05-2.40107E-07-5.69376E-18 6.80273E-20
 -1      1747 2.11373E-04-3.38923E-05-7.11183E-05-2.25824E-05-5.99869E-18 3.33731E-18
 -1      1748 1.83532E-04-3.01606E-05-6.17610E-05-4.16852E-05-7.72894E-18 6.53655E-18
 -1      1749 1.45757E-04-2.82899E-05-4.79898E-05-5.16933E-05-8.16794E-18 9.23351E-18
 -1      1750 1.03919E-04-2.88463E-05-3.16278E-05-5.08421E-05-7.51064E-18 9.81118E-18
 -1      1751 6.50685E-05-3.30165E-05-1.52191E-05-4.24307E-05-6.74408E-18 9.44950E-18
 -1      1752 3.69542E-05-4.20241E-05-9.71710E-07-3.05195E-05-4.82809E-18 7.50291E-18
 -1      1753 1.94793E-05-5.03462E-05 8.98732E-06-1.90064E-05-7.81388E-19 6.54566E-18
 -1      1754 1.10117E-04-2.42933E-05-3.68708E-05-1.66712E-05-2.24331E-18 4.81157E-18
 -1      1755 9.27675E-05-1.24381E-05-3.45535E-05-1.23060E-05-1.78107E-18-4.32180E-18
 -1      1756 9.41873E-05-1.33417E-05-3.48138E-05-1.44507E-05-2.32420E-18-3.68507E-18
 -1      1757 9.62081E-05-1.53082E-05-3.48388E-05-1.55336E-05-2.60590E-18-2.73012E-18
 -1      1758 9.80091E-05-1.71595E-05-3.51742E-05-1.73981E-05-3.07194E-18-1.56812E-18
 -1      1759 9.73779E-05-1.83052E-05-3.39177E-05-1.34581E-05-2.64562E-18-2.87192E-18
 -1      1760 8.86346E-05-9.99375E-06-3.37768E-05-4.83338E-06-1.60179E-19-4.79790E-18
 -1      1761 8.95619E-05-1.03233E-05-3.40311E-05-6.73537E-06-5.63310E-19-4.82875E-18
 -1      1762 8.63677E-05-8.95901E-06-3.32407E-05-1.09720E-06 4.90598E-19-4.82023E-18
 -1      1763 8.75251E-05-9.37212E-06-3.35409E-05-2.89851E-06 1.94196E-19-4.88039E-18
 -1      1764 9.01776E-05-1.28010E-05-3.32180E-05-3.63981E-06-1.63153E-20-4.63651E-18
 -1      1765 8.35138E-05-7.55078E-06-3.26202E-05 2.29197E-06 1.11957E-18-4.56935E-18
 -1      1766 8.49544E-05-8.12506E-06-3.29513E-05 7.25831E-07 8.66025E-19-4.74238E-18
 -1      1767 8.75575E-05-1.13843E-05-3.27069E-05 1.53617E-07 7.40421E-19-4.62787E-18
 -1      1768 8.02021E-05-5.71013E-06-3.19920E-05 5.00026E-06 1.71472E-18-4.41778E-18
 -1      1769 8.18060E-05-6.42890E-06-3.23093E-05 3.79992E-06 1.47821E-18-4.54543E-18
 -1      1770 8.42494E-05-9.46018E-06-3.21128E-05 3.57155E-06 1.42257E-18-4.40861E-18
 -1      1771 7.69784E-05-3.65680E-06-3.14913E-05 6.70863E-06 2.17475E-18-4.22000E-18
 -1      1772 7.84271E-05-4.39671E-06-3.17204E-05 5.97817E-06 1.95809E-18-4.35666E-18
 -1      1773 8.04936E-05-7.04063E-06-3.15294E-05 6.17875E-06 1.97262E-18-4.27199E-18
 -1      1774 7.47668E-05-1.90449E-06-3.12893E-05 7.27711E-06 2.57613E-18-3.93387E-18
 -1      1775 7.55862E-05-2.44832E-06-3.13412E-05 7.01773E-06 2.38047E-18-4.15714E-18
 -1      1776 7.70120E-05-4.51105E-06-3.11007E-05 7.57716E-06 2.49091E-18-4.08642E-18
 -1      1777 7.46163E-05-1.14745E-06-3.15379E-05 6.93211E-06 2.98871E-18-3.41935E-18
 -1      1778 7.43331E-05-1.24561E-06-3.13424E-05 6.97174E-06 2.76600E-18-3.73113E-18
 -1      1779 7.49212E-05-2.61679E-06-3.09933E-05 7.63717E-06 2.91846E-18-3.72954E-18
 -1      1780 7.73744E-05-2.01128E-06-3.23385E-05 6.27358E-06 3.37442E-18-2.55268E-18
 -1      1781 7.56255E-05-1.45185E-06-3.18499E-05 6.29434E-06 3.11728E-18-3.07666E-18
 -1      1782 7.53783E-05-2.21226E-06-3.13439E-05 6.66776E-06 3.29790E-18-3.11655E-18
 -1      1783 8.34185E-05-4.96146E-06-3.36655E-05 6.18074E-06 3.58959E-18-1.25873E-18
 -1      1784 8.01176E-05-3.59859E-06-3.29109E-05 5.75502E-06 3.43075E-18-2.05105E-18
 -1      1785 7.92473E-05-4.03784E-06-3.22147E-05 5.40200E-06 3.57703E-18-2.15272E-18
 -1      1786 9.25065E-05-1.02762E-05-3.53267E-05 7.50483E-06 3.74350E-18 8.54497E-19
 -1      1787 8.78374E-05-7.96424E-06-3.44108E-05 6.24269E-06 3.60296E-18-4.01282E-19
 -1      1788 8.67683E-05-8.51219E-06-3.35161E-05 4.75256E-06 3.71826E-18-6.97174E-19
 -1      1789 1.04558E-04-1.88213E-05-3.68744E-05 9.97423E-06 3.26459E-18 4.57800E-18
 -1      1790 9.83907E-05-1.47824E-05-3.60406E-05 8.13016E-06 3.45112E-18 2.37323E-18
 -1      1791 9.72718E-05-1.57113E-05-3.49425E-05 5.18486E-06 3.64417E-18 1.56389E-18
 -1      1792 1.14303E-04-2.86406E-05-3.70932E-05 8.09507E-06 2.52728E-18 8.77865E-18
 -1      1793 1.08720E-04-2.24418E-05-3.69895E-05 9.78496E-06 2.89242E-18 6.08074E-18
 -1      1794 1.07104E-04-2.37861E-05-3.57132E-05 4.82767E-06 3.21985E-18 4.48528E-18
 -1      1795 1.12878E-04-2.99911E-05-3.56546E-05 2.58797E-06 2.58234E-18 7.92537E-18
 -1      1796 1.04053E-04-2.07015E-05-3.54040E-05-1.86564E-05-2.86895E-18 7.93035E-19
 -1      1797 1.13188E-04-3.17916E-05-3.48525E-05-4.47403E-06 1.87430E-18 6.48970E-18
 -1      1798 1.13116E-04-3.12922E-05-3.50757E-05-1.22057E-06 2.07846E-18 7.22416E-18
 -1      1799 1.10594E-04-2.86287E-05-3.51554E-05-1.54441E-07 2.59602E-18 5.21782E-18
 -1      1800 1.03820E-04-2.40034E-05-3.39272E-05-1.43594E-05-2.97811E-18 3.68989E-20
 -1      1801 1.00914E-04-2.86559E-05-3.08582E-05-6.40912E-06-2.44695E-18-2.05741E-19
 -1      1802 9.88309E-05-2.86921E-05-3.00589E-05-5.03009E-06-2.13074E-18-7.90044E-19
 -1      1803 9.78469E-05-2.88900E-05-2.94647E-05-4.15426E-06-1.93597E-18-6.86785E-19
 -1      1804 9.65420E-05-2.88346E-05-2.90062E-05-3.81420E-06-1.61940E-18-1.16871E-18
 -1      1805 9.94074E-05-2.85852E-05-3.03612E-05-6.24514E-06-2.32742E-18-1.26470E-18
 -1      1806 9.56675E-05-2.87888E-05-2.86135E-05-3.64708E-06-1.36174E-18-1.21465E-18
 -1      1807 9.45338E-05-2.85733E-05-2.82660E-05-3.72716E-06-1.08909E-18-1.43650E-18
 -1      1808 9.76951E-05-2.91893E-05-2.93657E-05-4.98840E-06-1.75382E-18-1.40560E-18
 -1      1809 9.36826E-05-2.83724E-05-2.79701E-05-3.88338E-06-1.08331E-18-1.50179E-18
 -1      1810 9.25440E-05-2.80127E-05-2.76535E-05-4.07296E-06-1.00430E-18-1.80680E-18
 -1      1811 9.60637E-05-2.91302E-05-2.86863E-05-4.94406E-06-1.35133E-18-1.47205E-18
 -1      1812 9.16446E-05-2.76684E-05-2.74122E-05-4.23812E-06-9.53188E-19-1.83237E-18
 -1      1813 9.04736E-05-2.71851E-05-2.71113E-05-4.31146E-06-8.47432E-19-2.26257E-18
 -1      1814 9.43375E-05-2.85838E-05-2.81784E-05-5.29030E-06-1.18717E-18-1.60495E-18
 -1      1815 8.95365E-05-2.67290E-05-2.69141E-05-4.22901E-06-7.82550E-19-2.36148E-18
 -1      1816 8.84323E-05-2.61925E-05-2.66481E-05-4.01990E-06-7.42070E-19-2.49025E-18
 -1      1817 9.24722E-05-2.76447E-05-2.77849E-05-5.38535E-06-1.02639E-18-1.85473E-18
 -1      1818 8.75690E-05-2.57127E-05-2.65012E-05-3.52155E-06-9.33275E-19-2.39984E-18
 -1      1819 8.67109E-05-2.52456E-05-2.63056E-05-2.95784E-06-7.57072E-19-2.55647E-18
 -1      1820 9.06085E-05-2.64882E-05-2.74916E-05-4.74261E-06-8.86217E-19-1.82749E-18
 -1      1821 8.61019E-05-2.48768E-05-2.62203E-05-2.02392E-06-6.25914E-19-2.72010E-18
 -1      1822 8.56804E-05-2.46172E-05-2.61308E-05-1.16412E-06-4.09703E-19-2.65719E-18
 -1      1823 8.90660E-05-2.54160E-05-2.73028E-05-3.13840E-06-7.57964E-19-2.01712E-18
 -1      1824 8.54949E-05-2.44877E-05-2.61161E-05 4.83343E-08-6.87149E-19-2.89417E-18
 -1      1825 8.56309E-05-2.45292E-05-2.61540E-05 1.02361E-06-7.02409E-19-3.39332E-18
 -1      1826 8.82264E-05-2.47784E-05-2.72254E-05-7.20812E-07-9.62107E-19-2.58159E-18
 -1      1827 8.59356E-05-2.46934E-05-2.62112E-05 2.23152E-06-6.81878E-19-3.83171E-18
 -1      1828 8.66249E-05-2.50373E-05-2.63747E-05 3.08785E-06-4.36282E-19-4.22990E-18
 -1      1829 8.83482E-05-2.48163E-05-2.72606E-05 2.00958E-06-1.00481E-18-2.77444E-18
 -1      1830 8.73397E-05-2.54422E-05-2.64956E-05 4.00163E-06-6.77031E-20-4.42659E-18
 -1      1831 8.84493E-05-2.59967E-05-2.67584E-05 4.54903E-06 9.90433E-20-4.31691E-18
 -1      1832 8.94192E-05-2.55346E-05-2.74009E-05 4.39626E-06-3.74784E-19-3.24900E-18
 -1      1833 8.93850E-05-2.65130E-05-2.69256E-05 4.99239E-06 1.41593E-19-4.31581E-18
 -1      1834 9.07028E-05-2.71384E-05-2.72446E-05 5.15391E-06 3.91518E-19-4.12914E-18
 -1      1835 9.11509E-05-2.66992E-05-2.76287E-05 5.90910E-06 2.01288E-19-3.42427E-18
 -1      1836 9.16473E-05-2.76273E-05-2.74344E-05 5.11398E-06 4.82316E-19-4.10397E-18
 -1      1837 9.29538E-05-2.81960E-05-2.77614E-05 4.93240E-06 5.72430E-19-3.81671E-18
 -1      1838 9.31138E-05-2.79628E-05-2.79151E-05 6.34085E-06 4.63743E-19-3.37420E-18
 -1      1839 9.37482E-05-2.85642E-05-2.79487E-05 4.52698E-06 2.38248E-19-4.02922E-18
 -1      1840 9.48754E-05-2.89983E-05-2.82426E-05 4.12037E-06-1.14151E-20-4.05226E-18
 -1      1841 9.49146E-05-2.90254E-05-2.82238E-05 5.82082E-06 2.57326E-19-3.93766E-18
 -1      1842 9.54437E-05-2.92154E-05-2.84065E-05 3.52218E-06 3.48078E-20-3.71480E-18
 -1      1843 9.63002E-05-2.94927E-05-2.86407E-05 3.02497E-06 7.59898E-20-3.30128E-18
 -1      1844 9.63094E-05-2.97296E-05-2.85177E-05 4.68395E-06 2.78631E-19-3.50694E-18
 -1      1845 9.66376E-05-2.95757E-05-2.87677E-05 2.39271E-06-4.28491E-19-3.46796E-18
 -1      1846 9.72040E-05-2.97137E-05-2.89317E-05 1.91298E-06-2.53746E-19-3.74471E-18
 -1      1847 9.72199E-05-3.00637E-05-2.87665E-05 3.30411E-06-1.37861E-19-3.15904E-18
 -1      1848 9.73477E-05-2.97014E-05-2.90169E-05 1.35484E-06-2.46985E-19-4.13064E-18
 -1      1849 9.76545E-05-2.97356E-05-2.91135E-05 9.57410E-07-6.03011E-19-4.33271E-18
 -1      1850 9.76869E-05-3.01065E-05-2.89518E-05 1.97750E-06-5.84446E-19-3.13392E-18
 -1      1851 9.76566E-05-2.96685E-05-2.91589E-05 5.25953E-07-7.26528E-19-4.42808E-18
 -1      1852 9.77597E-05-2.96363E-05-2.91993E-05 2.35468E-07-5.07538E-19-4.69131E-18
 -1      1853 9.78094E-05-2.99660E-05-2.90681E-05 8.79577E-07-7.04949E-19-3.52657E-18
 -1      1854 9.76706E-05-2.95460E-05-2.92117E-05-5.97357E-08-1.42257E-19-4.80998E-18
 -1      1855 9.76318E-05-2.94784E-05-2.92107E-05-2.46500E-07 2.87021E-19-4.36406E-18
 -1      1856 9.76972E-05-2.97381E-05-2.91209E-05 7.62347E-08-4.09971E-19-3.71452E-18
 -1      1857 9.74926E-05-2.93853E-05-2.91988E-05-4.21531E-07 3.28002E-20-4.27024E-18
 -1      1858 9.73676E-05-2.93045E-05-2.91708E-05-5.22565E-07-2.93403E-19-4.29264E-18
 -1      1859 9.74464E-05-2.94900E-05-2.91221E-05-4.41788E-07 2.65999E-19-3.31705E-18
 -1      1860 9.72083E-05-2.92198E-05-2.91433E-05-6.04485E-07 3.45104E-20-3.75518E-18
 -1      1861 9.70409E-05-2.91395E-05-2.91006E-05-6.42548E-07 3.14157E-19-3.75416E-18
 -1      1862 9.71301E-05-2.92607E-05-2.90865E-05-7.23368E-07 7.91213E-20-3.38251E-18
 -1      1863 9.68815E-05-2.90680E-05-2.90649E-05-6.59705E-07 1.00176E-19-3.69594E-18
 -1      1864 9.67030E-05-2.89959E-05-2.90168E-05-6.56296E-07 4.27659E-19-3.74388E-18
 -1      1865 9.67988E-05-2.90676E-05-2.90283E-05-8.30307E-07 2.10979E-19-2.64926E-18
 -1      1866 9.65557E-05-2.89384E-05-2.89786E-05-6.33202E-07 1.89142E-19-4.00708E-18
 -1      1867 9.63859E-05-2.88776E-05-2.89313E-05-6.05780E-07 1.97303E-19-3.84707E-18
 -1      1868 9.64839E-05-2.89151E-05-2.89594E-05-8.21239E-07 1.37577E-19-3.15999E-18
 -1      1869 9.62569E-05-2.88331E-05-2.88944E-05-5.61251E-07 3.48151E-19-3.88603E-18
 -1      1870 9.61069E-05-2.87843E-05-2.88515E-05-5.22557E-07 2.86828E-19-3.43591E-18
 -1      1871 9.62030E-05-2.87999E-05-2.88886E-05-7.44122E-07 2.00731E-19-2.73490E-18
 -1      1872 9.59985E-05-2.87508E-05-2.88183E-05-4.69735E-07 4.66271E-19-3.45657E-18
 -1      1873 9.58730E-05-2.87132E-05-2.87817E-05-4.28234E-07 8.47523E-19-2.94708E-18
 -1      1874 9.59637E-05-2.87162E-05-2.88220E-05-6.34303E-07 5.46246E-19-2.43375E-18
 -1      1875 9.57850E-05-2.86886E-05-2.87533E-05-3.75481E-07 1.15295E-19-3.34948E-18
 -1      1876 9.56844E-05-2.86606E-05-2.87235E-05-3.36248E-07 1.35883E-19-3.40777E-18
 -1      1877 9.57673E-05-2.86574E-05-2.87629E-05-5.15568E-07 3.53964E-19-2.29812E-18
 -1      1878 9.56152E-05-2.86431E-05-2.87001E-05-2.88305E-07 4.97468E-19-3.67644E-18
 -1      1879 9.55377E-05-2.86230E-05-2.86768E-05-2.53966E-07 8.38165E-19-3.75333E-18
 -1      1880 9.56110E-05-2.86173E-05-2.87130E-05-4.02420E-07 2.29879E-19-2.57046E-18
 -1      1881 9.54847E-05-2.86108E-05-2.86583E-05-2.13048E-07 7.56117E-19-4.04533E-18
 -1      1882 9.54271E-05-2.85969E-05-2.86407E-05-1.84596E-07 2.11143E-19-3.74975E-18
 -1      1883 9.54902E-05-2.85910E-05-2.86723E-05-3.02564E-07 5.82885E-19-3.45500E-18
 -1      1884 9.53877E-05-2.85887E-05-2.86265E-05-1.51288E-07-1.00403E-18-3.83083E-18
 -1      1885 9.53465E-05-2.85795E-05-2.86137E-05-1.28715E-07-4.99381E-19-3.61948E-18
 -1      1886 9.53995E-05-2.85744E-05-2.86403E-05-2.19101E-07-1.03296E-19-4.23220E-18
 -1      1887 9.53181E-05-2.85742E-05-2.86032E-05-1.02645E-07 1.83028E-19-4.16942E-18
 -1      1888 9.52898E-05-2.85686E-05-2.85943E-05-8.53998E-08 1.34870E-19-3.67342E-18
 -1      1889 9.53333E-05-2.85647E-05-2.86159E-05-1.52266E-07-2.79244E-19-3.53976E-18
 -1      1890 9.52701E-05-2.85653E-05-2.85868E-05-6.57000E-08 1.70344E-20-3.25383E-18
 -1      1891 9.52517E-05-2.85622E-05-2.85808E-05-5.29866E-08 6.69344E-19-2.31039E-18
 -1      1892 9.52866E-05-2.85595E-05-2.85980E-05-1.00679E-07 7.22521E-19-2.47852E-18
 -1      1893 9.52386E-05-2.85604E-05-2.85757E-05-3.86035E-08 5.18898E-19-2.78474E-18
 -1      1894 9.52275E-05-2.85589E-05-2.85719E-05-2.95674E-08 4.13265E-19-2.49637E-18
 -1      1895 9.52549E-05-2.85573E-05-2.85852E-05-6.21992E-08 5.98787E-19-1.52647E-18
 -1      1896 9.52192E-05-2.85581E-05-2.85686E-05-1.94406E-08 2.89793E-20-2.82536E-18
 -1      1897 9.52134E-05-2.85578E-05-2.85665E-05-1.32766E-08-3.76597E-19-2.99349E-18
 -1      1898 9.52344E-05-2.85570E-05-2.85764E-05-3.44687E-08-1.72480E-19-1.93941E-18
 -1      1899 9.52086E-05-2.85576E-05-2.85644E-05-6.43898E-09 3.26275E-19-2.51937E-18
 -1      1900 9.52064E-05-2.85580E-05-2.85634E-05-2.44305E-09 7.32599E-19-1.78583E-18
 -1      1901 9.52222E-05-2.85578E-05-2.85707E-05-1.52223E-08 6.02794E-19-6.27964E-19
 -1      1902 9.52041E-05-2.85582E-05-2.85623E-05 1.93359E-09 3.72243E-19-1.40371E-18
 -1      1903 9.52042E-05-2.85590E-05-2.85621E-05 4.34601E-09 3.80054E-19-1.64313E-18
 -1      1904 9.52157E-05-2.85592E-05-2.85673E-05-2.45203E-09 4.65546E-19-7.44212E-20
 -1      1905 9.52035E-05-2.85594E-05-2.85617E-05 6.93952E-09 4.77712E-19-1.86140E-18
 -1      1906 9.52050E-05-2.85604E-05-2.85619E-05 8.23462E-09 3.12215E-19-1.14655E-18
 -1      1907 9.52132E-05-2.85608E-05-2.85655E-05 5.52917E-09 3.65510E-19-5.19441E-20
 -1      1908 9.52055E-05-2.85609E-05-2.85619E-05 9.57996E-09-5.22869E-19-1.35477E-18
 -1      1909 9.52078E-05-2.85620E-05-2.85624E-05 1.01171E-08-4.72791E-19-9.81232E-19
 -1      1910 9.52134E-05-2.85625E-05-2.85647E-05 1.00819E-08 2.51008E-19-2.25390E-19
 -1      1911 9.52088E-05-2.85625E-05-2.85627E-05 1.06229E-08 1.08972E-19-6.85150E-19
 -1      1912 9.52115E-05-2.85636E-05-2.85634E-05 1.06702E-08 8.59730E-20-2.07319E-19
 -1      1913 9.52151E-05-2.85641E-05-2.85648E-05 1.22665E-08 5.10780E-20-1.68456E-19
 -1      1914 9.52129E-05-2.85641E-05-2.85637E-05 1.06387E-08-3.83977E-19-7.15511E-19
 -1      1915 9.52155E-05-2.85651E-05-2.85645E-05 1.03893E-08 8.31761E-19-6.54377E-19
 -1      1916 9.52176E-05-2.85655E-05-2.85652E-05 1.28832E-08-1.17921E-19 4.86882E-19
 -1      1917 9.52171E-05-2.85656E-05-2.85649E-05 1.00358E-08 1.83628E-18-1.33739E-18
 -1      1918 9.52196E-05-2.85664E-05-2.85656E-05 9.62257E-09 2.09001E-18-1.12864E-18
 -1      1919 9.52206E-05-2.85668E-05-2.85659E-05 1.25158E-08 1.23157E-18-9.04287E-19
 -1      1920 9.52211E-05-2.85669E-05-2.85661E-05 9.09287E-09 2.39729E-18-2.29782E-18
 -1      1921 9.52235E-05-2.85676E-05-2.85668E-05 8.60073E-09 1.97025E-18-1.51269E-18
 -1      1922 9.52236E-05-2.85679E-05-2.85667E-05 1.15728E-08 1.57483E-18-1.25892E-18
 -1      1923 9.52249E-05-2.85681E-05-2.85672E-05 7.98508E-09 1.08719E-18-9.21871E-19
 -1      1924 9.52269E-05-2.85687E-05-2.85678E-05 7.46065E-09 6.72382E-19 5.38171E-19
 -1      1925 9.52266E-05-2.85689E-05-2.85676E-05 1.03225E-08 1.95046E-18-1.26241E-18
 -1      1926 9.52282E-05-2.85691E-05-2.85682E-05 6.80543E-09 1.20512E-19 4.22628E-19
 -1      1927 9.52300E-05-2.85696E-05-2.85687E-05 6.26399E-09 3.08002E-19 6.70465E-20
 -1      1928 9.52292E-05-2.85697E-05-2.85683E-05 8.92195E-09 1.65617E-19-6.71693E-19
 -1      1929 9.52311E-05-2.85700E-05-2.85691E-05 5.58136E-09-7.71791E-19-5.07933E-19
 -1      1930 9.52325E-05-2.85704E-05-2.85695E-05 5.01301E-09-1.77857E-19-1.09271E-18
 -1      1931 9.52316E-05-2.85705E-05-2.85690E-05 7.44120E-09-8.50616E-19-9.32790E-19
 -1      1932 9.52334E-05-2.85707E-05-2.85698E-05 4.29264E-09 1.69850E-18-1.38501E-18
 -1      1933 9.52346E-05-2.85711E-05-2.85701E-05 3.67046E-09 1.54976E-18-3.39498E-19
 -1      1934 9.52336E-05-2.85711E-05-2.85696E-05 5.88677E-09-2.08830E-19-7.39397E-19
 -1      1935 9.52352E-05-2.85713E-05-2.85703E-05 2.93873E-09 1.32415E-18 4.62414E-20
 -1      1936 9.52360E-05-2.85716E-05-2.85705E-05 2.27383E-09 6.84541E-19 6.02730E-19
 -1      1937 9.52363E-05-2.85721E-05-2.85704E-05 2.68034E-09 4.44751E-19-6.16074E-19
 -1      1938 9.52352E-05-2.85717E-05-2.85700E-05 4.28078E-09 1.86190E-18-9.40593E-19
 -1      1939 1.16083E-04-3.31561E-05-3.54808E-05-9.37351E-06 1.34362E-18 5.43763E-18
 -1      1940 1.14063E-04-3.22975E-05-3.49692E-05-7.00583E-06 1.53108E-18 6.12877E-18
 -1      1941 1.11341E-04-3.04655E-05-3.47039E-05-7.40858E-06 1.94706E-18 4.31367E-18
 -1      1942 1.21340E-04-3.53910E-05-3.68221E-05-1.29720E-05 6.72504E-19 4.94583E-18
 -1      1943 1.17926E-04-3.39560E-05-3.59360E-05-1.11632E-05 8.31866E-19 5.27667E-18
 -1      1944 1.13983E-04-3.20988E-05-3.51553E-05-1.27919E-05 1.09698E-18 3.78674E-18
 -1      1945 1.28488E-04-3.91918E-05-3.83205E-05-1.40521E-05-4.16131E-19 5.27225E-18
 -1      1946 1.24324E-04-3.70335E-05-3.73801E-05-1.34930E-05 7.34073E-20 5.00980E-18
 -1      1947 1.18919E-04-3.51517E-05-3.59776E-05-1.61206E-05 2.29516E-19 3.59772E-18
 -1      1948 1.36738E-04-4.49146E-05-3.94246E-05-9.70975E-06-1.77293E-18 5.86832E-18
 -1      1949 1.32893E-04-4.22323E-05-3.88064E-05-1.20136E-05-1.20300E-18 5.56135E-18
 -1      1950 1.26561E-04-4.08948E-05-3.67906E-05-1.54443E-05-1.28511E-18 3.96390E-18
 -1      1951 1.44814E-04-5.12848E-05-4.01206E-05 3.90328E-06-1.32082E-18 7.37083E-18
 -1      1952 1.42786E-04-4.93457E-05-3.99655E-05-3.50086E-06-1.82382E-18 6.27326E-18
 -1      1953 1.37371E-04-4.95259E-05-3.76829E-05-7.19638E-06-2.10668E-18 4.66620E-18
 -1      1954 1.47151E-04-5.04994E-05-4.16953E-05 2.16886E-05 2.71686E-19 8.58542E-18
 -1      1955 1.49599E-04-5.30779E-05-4.14819E-05 1.25337E-05-6.57337E-19 8.00139E-18
 -1      1956 1.48833E-04-5.58554E-05-3.98706E-05 1.00165E-05-1.32737E-18 5.95070E-18
 -1      1957 1.42030E-04-3.90147E-05-4.48493E-05 2.72237E-05 2.99024E-18 7.08289E-18
 -1      1958 1.48053E-04-4.61062E-05-4.41593E-05 2.46879E-05 1.63986E-18 7.86891E-18
 -1      1959 1.54221E-04-5.02817E-05-4.49464E-05 2.46459E-05 1.65722E-18 6.11335E-18
 -1      1960 1.36346E-04-2.68902E-05-4.79841E-05 9.41636E-06 5.66114E-18 3.19331E-18
 -1      1961 1.40709E-04-3.18433E-05-4.73145E-05 1.83425E-05 4.69828E-18 5.41725E-18
 -1      1962 1.52847E-04-3.41490E-05-5.12588E-05 2.04878E-05 5.47692E-18 4.03622E-18
 -1      1963 1.39544E-04-3.05363E-05-4.77181E-05-1.90459E-05 5.65649E-18-9.61488E-19
 -1      1964 1.36885E-04-2.67770E-05-4.79638E-05-5.47926E-06 5.74712E-18 1.32292E-18
 -1      1965 1.51146E-04-2.52965E-05-5.42395E-05-3.89397E-06 7.20656E-18 2.41351E-19
 -1      1966 1.49396E-04-4.70269E-05-4.42175E-05-2.89618E-05 4.29054E-18-4.74677E-18
 -1      1967 1.42232E-04-3.89294E-05-4.49406E-05-2.44894E-05 4.98331E-18-2.62228E-18
 -1      1968 1.54144E-04-3.85664E-05-4.99229E-05-2.57824E-05 6.31929E-18-3.02063E-18
 -1      1969 1.51641E-04-5.38467E-05-4.15504E-05-1.42615E-05 3.65998E-19-6.19888E-18
 -1      1970 1.47720E-04-5.10977E-05-4.17371E-05-2.01964E-05 2.03109E-18-5.42440E-18
 -1      1971 1.54086E-04-5.47695E-05-4.29574E-05-2.28792E-05 2.92226E-18-5.35267E-18
 -1      1972 1.44735E-04-4.95506E-05-4.04102E-05 3.25716E-06-1.50505E-18-5.29086E-18
 -1      1973 1.45613E-04-5.12832E-05-4.05122E-05-3.90518E-06-6.93508E-19-5.92230E-18
 -1      1974 1.45677E-04-5.52465E-05-3.91030E-05-3.52748E-06-4.30769E-19-5.91904E-18
 -1      1975 1.34903E-04-4.27403E-05-3.93602E-05 1.25412E-05-2.38368E-18-3.40330E-18
 -1      1976 1.38612E-04-4.54726E-05-3.99140E-05 8.60363E-06-1.95993E-18-4.26731E-18
 -1      1977 1.34212E-04-4.71109E-05-3.75391E-05 1.09608E-05-2.24747E-18-4.36704E-18
 -1      1978 1.25762E-04-3.76139E-05-3.78024E-05 1.45567E-05-1.58579E-18-2.46338E-18
 -1      1979 1.30360E-04-3.98791E-05-3.87715E-05 1.35624E-05-1.79576E-18-3.05059E-18
 -1      1980 1.24417E-04-3.92308E-05-3.66063E-05 1.66803E-05-2.26960E-18-3.66826E-18
 -1      1981 1.18243E-04-3.44534E-05-3.59795E-05 1.29336E-05 5.32507E-19-2.30069E-18
 -1      1982 1.22595E-04-3.60593E-05-3.70758E-05 1.34676E-05-7.10288E-19-1.97409E-18
 -1      1983 1.17133E-04-3.43842E-05-3.54876E-05 1.65946E-05-1.01042E-18-2.39207E-18
 -1      1984 1.12309E-04-3.25548E-05-3.42416E-05 1.02299E-05 9.15477E-19-1.01440E-18
 -1      1985 1.15957E-04-3.36658E-05-3.52445E-05 1.12521E-05 8.22780E-19-1.59926E-18
 -1      1986 1.11742E-04-3.19007E-05-3.42059E-05 1.40016E-05 5.22871E-19-1.58528E-18
 -1      1987 1.07552E-04-3.13108E-05-3.27142E-05 7.50119E-06-6.43441E-19-1.17118E-18
 -1      1988 1.10500E-04-3.21104E-05-3.35629E-05 8.56375E-06 4.40007E-19-7.07375E-19
 -1      1989 1.07561E-04-3.06564E-05-3.29341E-05 1.08006E-05 2.96276E-19-2.91009E-19
 -1      1990 1.04176E-04-3.05293E-05-3.15845E-05 5.40392E-06-1.34275E-18-2.04676E-18
 -1      1991 1.06267E-04-3.10609E-05-3.21980E-05 6.23512E-06-1.13362E-18-2.25586E-18
 -1      1992 1.04351E-04-3.00028E-05-3.18449E-05 7.94404E-06-4.18514E-19-1.47281E-18
 -1      1993 1.01657E-04-2.99745E-05-3.07331E-05 3.83281E-06-1.66518E-18-1.14218E-18
 -1      1994 1.03184E-04-3.03511E-05-3.11846E-05 4.46267E-06-1.64897E-18-1.89434E-18
 -1      1995 1.01963E-04-2.96167E-05-3.09928E-05 5.74325E-06-1.54759E-18-2.26814E-18
 -1      1996 9.98080E-05-2.95732E-05-3.01067E-05 2.69660E-06-7.16884E-19-1.28821E-18
 -1      1997 1.00906E-04-2.98406E-05-3.04329E-05 3.15515E-06-9.94039E-19-1.30418E-18
 -1      1998 1.00149E-04-2.93475E-05-3.03361E-05 4.09606E-06-9.96859E-19-2.11487E-18
 -1      1999 9.84609E-05-2.92801E-05-2.96518E-05 1.88943E-06-2.02854E-19-8.17415E-19
 -1      2000 9.92440E-05-2.94701E-05-2.98851E-05 2.21705E-06-6.01407E-19-1.28629E-18
 -1      2001 9.87870E-05-2.91455E-05-2.98426E-05 2.90006E-06-6.07687E-19-2.19242E-18
 -1      2002 9.74859E-05-2.90657E-05-2.93242E-05 1.32038E-06-2.12033E-19-8.28232E-19
 -1      2003 9.80417E-05-2.92006E-05-2.94900E-05 1.55262E-06-4.31811E-19-6.27497E-19
 -1      2004 9.77742E-05-2.89898E-05-2.94775E-05 2.04459E-06-4.88511E-19-2.03419E-18
 -1      2005 9.67841E-05-2.89095E-05-2.90895E-05 9.19970E-07-3.04106E-19 5.38774E-19
 -1      2006 9.71769E-05-2.90049E-05-2.92069E-05 1.08431E-06-2.25135E-19-4.17776E-20
 -1      2007 9.70275E-05-2.88695E-05-2.92103E-05 1.43671E-06-6.25774E-19-5.90725E-19
 -1      2008 9.62814E-05-2.87964E-05-2.89222E-05 6.38072E-07 6.17613E-19 4.07543E-19
 -1      2009 9.65585E-05-2.88637E-05-2.90050E-05 7.54439E-07 1.87887E-19 5.94145E-19
 -1      2010 9.64814E-05-2.87779E-05-2.90162E-05 1.00562E-06 2.19961E-19 1.06367E-19
 -1      2011 9.59101E-05-2.87125E-05-2.87988E-05 4.30788E-07-4.75810E-19-6.27002E-19
 -1      2012 9.61104E-05-2.87610E-05-2.88590E-05 5.16316E-07 5.53136E-20-2.84322E-19
 -1      2013 9.60774E-05-2.87070E-05-2.88734E-05 6.94341E-07 1.83107E-19-9.45168E-19
 -1      2014 9.56645E-05-2.86567E-05-2.87172E-05 2.92874E-07-3.11243E-19 1.46272E-18
 -1      2015 9.57958E-05-2.86883E-05-2.87568E-05 3.50545E-07-4.13733E-19 5.02858E-19
 -1      2016 9.57887E-05-2.86564E-05-2.87717E-05 4.73591E-07-4.65566E-19-6.95842E-19
 -1      2017 9.54935E-05-2.86182E-05-2.86605E-05 1.95485E-07 6.39383E-19 2.74920E-18
 -1      2018 9.55833E-05-2.86395E-05-2.86876E-05 2.36453E-07 3.14649E-20 2.63042E-18
 -1      2019 9.55900E-05-2.86208E-05-2.87018E-05 3.22032E-07-5.64773E-19 1.47158E-18
 -1      2020 9.53770E-05-2.85923E-05-2.86217E-05 1.27012E-07 1.17506E-18 1.85317E-18
 -1      2021 9.54371E-05-2.86063E-05-2.86399E-05 1.56022E-07 7.24066E-19 2.42105E-18
 -1      2022 9.54510E-05-2.85961E-05-2.86527E-05 2.14685E-07 7.34407E-19 1.87603E-18
 -1      2023 9.52996E-05-2.85755E-05-2.85957E-05 7.92172E-08 8.51232E-19 2.16430E-18
 -1      2024 9.53387E-05-2.85844E-05-2.86077E-05 9.96267E-08 1.39794E-18 2.03548E-18
 -1      2025 9.53556E-05-2.85795E-05-2.86188E-05 1.39024E-07 1.35089E-18 2.11587E-18
 -1      2026 9.52499E-05-2.85652E-05-2.85789E-05 4.62443E-08-3.21371E-18 2.92626E-18
 -1      2027 9.52744E-05-2.85705E-05-2.85865E-05 6.04540E-08-1.55809E-18 2.92964E-18
 -1      2028 9.52916E-05-2.85689E-05-2.85959E-05 8.61504E-08-1.33606E-18 3.04993E-18
 -1      2029 9.52196E-05-2.85594E-05-2.85684E-05 2.38808E-08 4.17588E-19 3.98609E-18
 -1      2030 9.52340E-05-2.85622E-05-2.85730E-05 3.36457E-08-1.37971E-18 2.97700E-18
 -1      2031 9.52504E-05-2.85626E-05-2.85808E-05 4.96834E-08-1.70497E-18 3.90921E-18
 -1      2032 9.52022E-05-2.85567E-05-2.85622E-05 8.53602E-09-1.34540E-18 4.56300E-18
 -1      2033 9.52098E-05-2.85578E-05-2.85647E-05 1.52800E-08 5.13329E-19 4.98287E-18
 -1      2034 9.52246E-05-2.85592E-05-2.85711E-05 2.46254E-08-2.36156E-19 4.36278E-18
 -1      2035 9.51949E-05-2.85560E-05-2.85594E-05-5.86769E-10 1.15528E-18 4.04270E-18
 -1      2036 9.51975E-05-2.85561E-05-2.85603E-05 3.53717E-09 4.53797E-20 4.19916E-18
 -1      2037 9.52103E-05-2.85581E-05-2.85654E-05 8.15454E-09 7.16082E-20 5.02028E-18
 -1      2038 9.51932E-05-2.85566E-05-2.85584E-05-6.05029E-09 3.23146E-19 2.56706E-18
 -1      2039 9.51930E-05-2.85561E-05-2.85585E-05-3.51918E-09 1.23701E-18 3.75958E-18
 -1      2040 9.52038E-05-2.85582E-05-2.85626E-05-1.85657E-09 1.44197E-18 3.98622E-18
 -1      2041 9.51952E-05-2.85579E-05-2.85587E-05-8.98607E-09-5.63086E-19 3.34562E-18
 -1      2042 9.51933E-05-2.85570E-05-2.85583E-05-7.55564E-09-5.47683E-19 3.10127E-18
 -1      2043 9.52022E-05-2.85591E-05-2.85614E-05-7.76549E-09-4.23380E-19 4.62517E-18
 -1      2044 9.51991E-05-2.85596E-05-2.85597E-05-1.02339E-08-2.06080E-19 1.58517E-18
 -1      2045 9.51963E-05-2.85585E-05-2.85590E-05-9.54731E-09-2.97695E-19 2.75729E-18
 -1      2046 9.52035E-05-2.85605E-05-2.85614E-05-1.08730E-08-2.15873E-19 3.33317E-18
 -1      2047 9.52041E-05-2.85614E-05-2.85611E-05-1.03986E-08 7.54441E-19 1.30928E-18
 -1      2048 9.52009E-05-2.85603E-05-2.85602E-05-1.01973E-08 7.47247E-19 1.19245E-18
 -1      2049 9.52066E-05-2.85620E-05-2.85620E-05-1.21197E-08 1.13235E-18 2.57159E-18
 -1      2050 9.52094E-05-2.85632E-05-2.85626E-05-9.90766E-09 4.99786E-19 1.58966E-18
 -1      2051 9.52062E-05-2.85621E-05-2.85617E-05-1.00071E-08-9.37741E-20 1.38971E-18
 -1      2052 9.52106E-05-2.85636E-05-2.85631E-05-1.21796E-08 8.62161E-20 2.30210E-18
 -1      2053 9.52146E-05-2.85648E-05-2.85642E-05-9.05890E-09 2.47021E-18 1.02373E-18
 -1      2054 9.52115E-05-2.85638E-05-2.85633E-05-9.32588E-09 2.13791E-18 1.19593E-18
 -1      2055 9.52149E-05-2.85650E-05-2.85643E-05-1.15276E-08 2.44452E-18 1.13888E-18
 -1      2056 9.52197E-05-2.85663E-05-2.85657E-05-7.98104E-09-7.92491E-19 9.03050E-19
 -1      2057 9.52168E-05-2.85654E-05-2.85649E-05-8.36009E-09 5.92708E-19 8.86768E-19
 -1      2058 9.52192E-05-2.85664E-05-2.85655E-05-1.04533E-08 9.89176E-19 1.79457E-18
 -1      2059 9.52240E-05-2.85676E-05-2.85670E-05-6.89496E-09 1.17462E-18 1.14203E-18
 -1      2060 9.52215E-05-2.85669E-05-2.85663E-05-7.29579E-09-1.39099E-19 1.83312E-18
 -1      2061 9.52232E-05-2.85676E-05-2.85667E-05-9.19286E-09-2.53716E-19 2.69757E-18
 -1      2062 9.52278E-05-2.85688E-05-2.85681E-05-5.80940E-09 1.16927E-18 1.60918E-18
 -1      2063 9.52256E-05-2.85681E-05-2.85675E-05-6.22592E-09 1.64684E-18 1.61542E-18
 -1      2064 9.52268E-05-2.85687E-05-2.85678E-05-7.89858E-09 8.35774E-19 2.07940E-18
 -1      2065 9.52309E-05-2.85697E-05-2.85691E-05-4.71795E-09 5.24479E-19-2.01610E-18
 -1      2066 9.52292E-05-2.85692E-05-2.85686E-05-5.15219E-09 1.38994E-18 7.32745E-20
 -1      2067 9.52298E-05-2.85696E-05-2.85687E-05-6.58440E-09 2.16303E-18-1.83014E-19
 -1      2068 9.52335E-05-2.85705E-05-2.85698E-05-3.58100E-09-2.79824E-18-3.86162E-20
 -1      2069 9.52321E-05-2.85701E-05-2.85694E-05-4.05373E-09-1.65964E-18-2.14345E-18
 -1      2070 9.52324E-05-2.85704E-05-2.85694E-05-5.23763E-09-1.24035E-18-2.74622E-18
 -1      2071 9.52354E-05-2.85712E-05-2.85704E-05-2.34390E-09 2.29349E-20-2.35869E-18
 -1      2072 9.52344E-05-2.85708E-05-2.85701E-05-2.88637E-09-5.74526E-19-1.22851E-18
 -1      2073 9.52345E-05-2.85711E-05-2.85700E-05-3.82057E-09-1.97234E-19-3.99404E-18
 -1      2074 9.52365E-05-2.85715E-05-2.85707E-05-1.33082E-09 1.68608E-19-3.77681E-18
 -1      2075 9.52358E-05-2.85713E-05-2.85705E-05-1.91543E-09 4.51732E-19-2.78948E-18
 -1      2076 9.52358E-05-2.85716E-05-2.85704E-05-2.60832E-09 1.06880E-18-4.63373E-18
 -1      2077 9.52367E-05-2.85719E-05-2.85706E-05-1.64501E-09-6.99991E-19-3.52742E-18
 -1      2078 9.52388E-05-2.85767E-05-2.85695E-05-3.97386E-09-9.95539E-20-8.53138E-19
 -1      2079 9.52384E-05-2.85757E-05-2.85697E-05-3.91468E-09-5.77559E-19-3.73266E-20
 -1      2080 9.52379E-05-2.85748E-05-2.85699E-05-3.69547E-09-7.30901E-19 5.35327E-19
 -1      2081 9.52375E-05-2.85738E-05-2.85701E-05-3.34038E-09-1.65406E-18 2.36932E-18
 -1      2082 9.52380E-05-2.85751E-05-2.85698E-05-4.83739E-09-2.71234E-19 1.45375E-18
 -1      2083 9.52372E-05-2.85732E-05-2.85703E-05-2.84569E-09-1.00340E-18 1.03464E-18
 -1      2084 9.52368E-05-2.85724E-05-2.85705E-05-2.27837E-09-4.48065E-19-1.92378E-18
 -1      2085 9.52365E-05-2.85723E-05-2.85704E-05-2.80529E-09 5.81247E-19-2.45260E-18
 -1      2086 9.52371E-05-2.85736E-05-2.85701E-05-4.01790E-09-4.10264E-19 4.86660E-19
 -1      2087 9.52397E-05-2.85786E-05-2.85690E-05-3.67445E-09-1.01060E-18-1.99425E-18
 -1      2088 9.52392E-05-2.85776E-05-2.85693E-05-3.86539E-09 4.46022E-19-1.88153E-18
 -1      2089 9.52390E-05-2.85769E-05-2.85695E-05-4.94130E-09-3.84231E-19-1.72354E-18
 -1      2090 9.52404E-05-2.85801E-05-2.85687E-05-2.88082E-09-3.98256E-19 2.41581E-18
 -1      2091 9.52400E-05-2.85793E-05-2.85689E-05-3.27803E-09-7.15563E-19 8.36731E-19
 -1      2092 9.52399E-05-2.85785E-05-2.85692E-05-4.36876E-09 5.91994E-19-5.18914E-19
 -1      2093 9.52408E-05-2.85812E-05-2.85684E-05-1.72863E-09 4.16633E-19 2.93316E-18
 -1      2094 9.52406E-05-2.85806E-05-2.85685E-05-2.26585E-09-1.56249E-19 3.38409E-18
 -1      2095 9.52406E-05-2.85798E-05-2.85689E-05-3.22955E-09 1.41425E-19 2.87152E-18
 -1      2096 9.52410E-05-2.85816E-05-2.85683E-05-3.73031E-10-6.54405E-19-1.87551E-18
 -1      2097 9.52409E-05-2.85814E-05-2.85683E-05-9.80201E-10-4.10987E-19 1.03089E-18
 -1      2098 9.52411E-05-2.85807E-05-2.85688E-05-1.69833E-09-7.22885E-19 4.12190E-19
 -1      2099 9.52409E-05-2.85814E-05-2.85683E-05 1.02343E-09 4.64338E-19-4.15322E-19
 -1      2100 9.52410E-05-2.85816E-05-2.85683E-05 4.18398E-10 2.39649E-19-2.28121E-20
 -1      2101 9.52412E-05-2.85809E-05-2.85687E-05 2.96803E-11-1.84900E-18-2.83187E-19
 -1      2102 9.52406E-05-2.85806E-05-2.85686E-05 2.29783E-09-5.78822E-20-2.22084E-18
 -1      2103 9.52408E-05-2.85811E-05-2.85684E-05 1.76661E-09 8.42766E-19-1.49456E-18
 -1      2104 9.52410E-05-2.85806E-05-2.85688E-05 1.75157E-09-1.40177E-18-4.88304E-19
 -1      2105 9.52400E-05-2.85793E-05-2.85689E-05 3.27934E-09 5.20045E-19-1.13728E-18
 -1      2106 9.52403E-05-2.85801E-05-2.85687E-05 2.89503E-09 6.16579E-19-1.99084E-18
 -1      2107 9.52406E-05-2.85798E-05-2.85689E-05 3.25587E-09-2.68375E-19-2.13612E-18
 -1      2108 9.52392E-05-2.85775E-05-2.85693E-05 3.85901E-09 5.73168E-19 2.03588E-18
 -1      2109 9.52397E-05-2.85785E-05-2.85690E-05 3.67060E-09 7.52739E-19 9.80943E-19
 -1      2110 9.52399E-05-2.85785E-05-2.85692E-05 4.36830E-09 1.23716E-18-1.47634E-19
 -1      2111 9.52383E-05-2.85757E-05-2.85697E-05 3.89684E-09 5.30425E-19-2.17370E-18
 -1      2112 9.52388E-05-2.85767E-05-2.85695E-05 3.96208E-09 5.93713E-19 5.92565E-19
 -1      2113 9.52390E-05-2.85768E-05-2.85695E-05 4.93010E-09 7.03717E-19 5.27453E-19
 -1      2114 9.52374E-05-2.85738E-05-2.85701E-05 3.33441E-09-3.71019E-19-2.39515E-18
 -1      2115 9.52379E-05-2.85748E-05-2.85699E-05 3.67092E-09 3.00807E-19-3.70799E-18
 -1      2116 9.52379E-05-2.85751E-05-2.85698E-05 4.80381E-09 3.84319E-19-3.08318E-18
 -1      2117 5.43448E-05-4.52927E-05-4.94338E-06 3.27113E-05 7.54960E-18 7.78953E-18
 -1      2118 3.93268E-05-4.35964E-05 5.14780E-07 2.69505E-05 5.43456E-18 7.74569E-18
 -1      2119 1.14862E-05-3.58050E-05 9.06006E-06-3.77348E-06 3.63991E-18 8.45974E-18
 -1      2120 1.21565E-05-3.46691E-05 8.39823E-06-1.32098E-05 1.48188E-18 7.97143E-18
 -1      2121 2.15618E-05-3.64188E-05 5.16068E-06 1.67333E-05 4.18477E-18 8.61094E-18
 -1      2122 1.45061E-05-3.81901E-05 8.43064E-06 5.89934E-06 3.48681E-18 8.52539E-18
 -1      2123 1.45089E-05-2.51975E-05 3.98412E-06 2.94321E-06 1.49597E-18 9.08062E-18
 -1      2124 9.72033E-05-5.24825E-05-1.96888E-05 3.71372E-05 7.87063E-18 6.72184E-18
 -1      2125 7.49462E-05-5.22081E-05-1.14038E-05 3.21043E-05 7.29338E-18 7.04160E-18
 -1      2126 1.44791E-04-5.74019E-05-3.74381E-05 2.87689E-05 8.70157E-18 3.81631E-18
 -1      2127 1.18859E-04-5.67157E-05-2.79121E-05 2.84657E-05 8.57960E-18 5.05890E-18
 -1      2128 9.05548E-05-1.09558E-05-3.42046E-05-8.61265E-06-9.53547E-19-4.74837E-18
 -1      2129 9.14938E-05-1.13844E-05-3.44402E-05-1.06456E-05-1.42287E-18-4.60320E-18
 -1      2130 9.44869E-05-1.56183E-05-3.38682E-05-1.09900E-05-1.74997E-18-4.08606E-18
 -1      2131 9.23010E-05-1.39882E-05-3.36035E-05-7.43898E-06-8.22651E-19-4.47885E-18
 -1      2132 2.04039E-04-4.10909E-05-6.74936E-05-2.35917E-06 7.61737E-18-7.08120E-19
 -1      2133 1.85497E-04-4.21256E-05-6.08217E-05-4.08694E-06 8.04237E-18 3.70153E-19
 -1      2134 1.96289E-04-3.54364E-05-6.76300E-05 1.64766E-06 8.14930E-18-2.45640E-18
 -1      2135 2.04727E-04-3.40207E-05-7.08283E-05 1.09115E-06 8.48388E-18-9.10878E-19
 -1      2136 1.80386E-04-4.86101E-05-5.62064E-05-2.32521E-06 6.49844E-18-3.59142E-18
 -1      2137 1.95989E-04-4.46934E-05-6.32730E-05-4.92215E-07 7.11931E-18-2.72533E-18
 -1      2138 1.50210E-04-5.89100E-05-3.97011E-05-1.79347E-05 4.26100E-18-5.80726E-18
 -1      2139 1.72931E-04-5.75190E-05-4.89215E-05-1.44210E-05 5.22895E-18-4.77472E-18
 -1      2140 1.03895E-04-5.66194E-05-2.15536E-05-3.25100E-05 3.66003E-18-7.46956E-18
 -1      2141 1.30305E-04-5.92673E-05-3.07356E-05-3.25131E-05 3.60963E-18-6.85631E-18
 -1      2142 5.89615E-05-4.84733E-05-6.32684E-06-3.11862E-05 2.88499E-18-7.87894E-18
 -1      2143 7.96828E-05-4.87386E-05-1.40125E-05-3.83049E-05 4.07846E-18-8.32210E-18
 -1      2144 2.82396E-05-4.03973E-05 3.68420E-06-2.08793E-05 1.27563E-18-7.34293E-18
 -1      2145 4.09398E-05-4.10094E-05-1.05511E-06-2.90606E-05 3.09040E-18-8.01124E-18
 -1      2146 1.19662E-05-3.52875E-05 8.58299E-06 1.29801E-07-3.88444E-19-7.27093E-18
 -1      2147 1.55503E-05-3.44702E-05 6.92481E-06-1.00272E-05 1.62228E-18-7.64871E-18
 -1      2148 1.50457E-05-2.86745E-05 5.19128E-06 2.11335E-05-1.49522E-18-7.13710E-18
 -1      2149 1.23280E-05-3.44732E-05 8.04621E-06 1.04421E-05-1.99688E-19-7.20020E-18
 -1      2150 1.35053E-05-2.12710E-05 2.85017E-06 4.77872E-06 5.82838E-19-8.30855E-18
 -1      2151 4.05836E-05-3.60979E-05-2.57127E-06 3.98497E-05-3.75363E-18-6.45439E-18
 -1      2152 2.89490E-05-3.49760E-05 1.74017E-06 3.31992E-05-1.58056E-18-6.36291E-18
 -1      2153 7.45156E-05-4.01047E-05-1.48924E-05 4.85873E-05-4.45328E-18-5.00702E-18
 -1      2154 5.63016E-05-4.14982E-05-7.44372E-06 4.17850E-05-3.98953E-18-5.44412E-18
 -1      2155 5.84754E-05-3.90100E-05-8.55402E-06 4.72938E-05-1.30443E-19-4.85625E-18
 -1      2156 1.16151E-04-4.23682E-05-3.12225E-05 4.55737E-05-6.16386E-18-4.23474E-18
 -1      2157 9.68115E-05-4.51331E-05-2.27966E-05 4.30175E-05-4.92973E-18-4.24173E-18
 -1      2158 1.50030E-04-3.82695E-05-4.70125E-05 3.74508E-05-6.91412E-18-3.94379E-18
 -1      2159 1.29593E-04-4.00023E-05-3.87617E-05 3.72624E-05-6.86520E-18-4.21145E-18
 -1      2160 1.73617E-04-3.31910E-05-5.94175E-05 2.19439E-05-6.88881E-18-2.29800E-18
 -1      2161 1.58628E-04-3.39135E-05-5.31172E-05 2.94402E-05-7.43663E-18-3.94251E-18
 -1      2162 1.54731E-04-4.19396E-05-4.75888E-05 1.77295E-05-5.61080E-18-9.71547E-19
 -1      2163 1.85500E-04-2.50292E-05-6.76511E-05 6.54802E-06-6.50691E-18-1.63096E-18
 -1      2164 1.75908E-04-2.53412E-05-6.39913E-05 1.23470E-05-6.71867E-18-2.45809E-18
 -1      2165 1.91056E-04-2.44484E-05-7.01931E-05-4.56685E-06-5.89238E-18 2.01170E-20
 -1      2166 1.88274E-04-2.32313E-05-6.98760E-05 3.76938E-06-6.36545E-18-1.70645E-18
 -1      2167 1.79412E-04-2.46752E-05-6.56964E-05-1.39964E-05-6.25788E-18 1.19940E-18
 -1      2168 1.90928E-04-2.63694E-05-6.91153E-05-8.31842E-06-5.93431E-18 2.99214E-19
 -1      2169 1.67817E-04-1.30294E-05-6.50153E-05-3.58246E-07-6.45439E-18-1.61190E-18
 -1      2170 1.62755E-04-3.29852E-05-5.53002E-05-2.61811E-05-6.17259E-18 3.03534E-18
 -1      2171 1.74933E-04-3.14569E-05-6.06577E-05-1.90551E-05-6.03998E-18 1.20787E-18
 -1      2172 1.38332E-04-3.85456E-05-4.30100E-05-3.46936E-05-4.86176E-18 4.11743E-18
 -1      2173 1.56960E-04-3.71854E-05-5.04076E-05-3.41232E-05-5.58830E-18 4.15470E-18
 -1      2174 1.57576E-04-3.89507E-05-5.00456E-05-1.27385E-05-4.00911E-18-6.67038E-19
 -1      2175 1.06195E-04-4.42303E-05-2.72504E-05-4.24365E-05-2.93116E-18 5.50275E-18
 -1      2176 1.25710E-04-4.29589E-05-3.50430E-05-4.34785E-05-3.44869E-18 4.88950E-18
 -1      2177 7.40574E-05-4.34421E-05-1.41221E-05-4.36107E-05-2.27598E-18 6.01584E-18
 -1      2178 9.16079E-05-4.11514E-05-2.15046E-05-4.83545E-05-3.11581E-18 6.04485E-18
 -1      2179 1.13933E-04-5.40100E-05-2.54882E-05-4.23084E-05 5.78100E-19 3.21216E-18
 -1      2180 4.03040E-05-4.11220E-05-1.05793E-06-3.65515E-05-9.71547E-19 6.07661E-18
 -1      2181 5.29399E-05-3.79499E-05-6.95410E-06-4.38381E-05-2.48138E-18 7.10160E-18
 -1      2182 1.87208E-05-3.83937E-05 6.94991E-06-2.32185E-05 1.31438E-18 6.63100E-18
 -1      2183 2.62013E-05-3.69617E-05 3.53083E-06-3.06787E-05-8.69903E-19 5.91568E-18
 -1      2184 1.81016E-04-5.48770E-05-5.37105E-05 6.29905E-06 7.90208E-18 6.38239E-19
 -1      2185 1.60961E-04-5.62092E-05-4.50748E-05 1.38232E-05 8.62724E-18 2.74015E-18
 -1      2186 1.60098E-04-6.50579E-05-4.01598E-05 8.34422E-06 6.32607E-18-4.40881E-19
 -1      2187 1.01152E-04-2.59036E-05-3.23424E-05-1.01595E-05-2.80606E-18-6.07971E-19
 -1      2188 1.77624E-04-5.07803E-05-5.38054E-05-1.37563E-05 7.63198E-18-1.85119E-18
 -1      2189 1.00402E-04-2.49949E-05-3.23759E-05-1.08653E-05-2.90835E-18-1.57871E-18
 -1      2190 3.47930E-05-3.67214E-05 2.24610E-07 2.50121E-05 2.58409E-18 8.03453E-18
 -1      2191 3.00918E-05-2.62358E-05-1.36729E-06 2.33542E-05-5.00808E-19 7.75205E-18
 -1      2192 4.80217E-05-3.59338E-05-5.60023E-06 3.41243E-05-1.62207E-19 5.96142E-18
 -1      2193 7.75915E-05-5.21087E-05-1.14297E-05 3.70483E-05 3.07642E-18 4.87589E-18
 -1      2194 9.52371E-05-2.85732E-05-2.85703E-05 3.21261E-09 6.93208E-19-1.63829E-18
 -1      2195 1.75150E-05-2.71512E-05 3.42744E-06-2.15979E-05 1.56871E-18 7.92145E-18
 -1      2196 1.22403E-04-6.39412E-05-2.52194E-05 2.93988E-05 4.64259E-18 2.19742E-18
 -1      2197 7.72546E-05-4.65880E-05-1.33160E-05-4.88469E-05 4.81538E-19 5.27631E-18
 -1      2198 1.41108E-04-5.14775E-05-3.80512E-05-2.77383E-05-1.33747E-18 1.25996E-18
 -1      2199 1.65693E-04-2.45599E-05-5.96108E-05-3.73267E-06-5.73907E-18-1.53609E-18
 -1      2200 1.63668E-04-2.64386E-05-5.80027E-05 4.63779E-06-6.50310E-18-1.00373E-18
 -1      2201 9.80387E-05-5.03781E-05-2.04167E-05 4.62272E-05-1.42344E-18-2.80442E-18
 -1      2202 2.66978E-05-2.64271E-05-3.75158E-07 3.11991E-05 4.77091E-19-7.03461E-18
 -1      2203 2.68125E-05-2.94308E-05 5.17586E-07-2.09873E-05 3.26108E-19-7.99684E-18
 -1      2204 6.11343E-05-4.45669E-05-7.64426E-06-3.68699E-05-5.63277E-20-7.34081E-18
 -1      2205 1.05550E-04-5.96331E-05-1.97444E-05-3.59028E-05 2.65121E-19-5.66856E-18
 -1      2206 1.48630E-04-6.67909E-05-3.48638E-05-1.62454E-05 1.17653E-18-2.69653E-18
 -1      2207 1.73972E-04-5.61624E-05-5.00046E-05 5.46597E-06 4.14871E-18-1.32984E-19
 -1      2208 1.80438E-04-3.64274E-05-6.05605E-05 1.26355E-05 7.15997E-18 7.22943E-19
 -1      2209 1.85420E-04-2.56945E-05-6.64571E-05 2.21491E-06 8.96796E-18 8.68209E-21
 -1      2210 2.09370E-04-3.37957E-05-7.29962E-05-1.77036E-06 8.44153E-18-1.56399E-18
 -1      2211 2.11294E-04-3.58419E-05-7.24071E-05 1.76062E-06 7.80033E-18-3.77353E-19
 -1      2212 1.83053E-04-2.96812E-05-6.43239E-05-1.19549E-05 8.17726E-18-1.04037E-18
 -1      2213 1.33728E-04-5.18820E-05-3.48385E-05 3.21715E-05-3.65262E-18-1.37897E-18
 -1      2214 1.65123E-04-1.32559E-05-6.40530E-05-1.37795E-06-6.86139E-18-1.96649E-18
 -1      2215 3.97377E-05-3.55284E-05-2.37632E-06-4.15400E-05 8.08069E-19 6.56980E-18
 -1      2216 1.06763E-04-2.72788E-05-3.39965E-05-9.34037E-06 1.93127E-18 2.62626E-18
 -1      2217 1.05993E-04-2.64494E-05-3.40368E-05-6.04813E-06 2.32466E-18 2.95709E-18
 -1      2218 8.89198E-05-1.38764E-05-3.21982E-05 1.67764E-06 1.00358E-18-4.24113E-18
 -1      2219 9.04396E-05-1.47197E-05-3.24765E-05-1.87836E-07 5.86212E-19-4.43600E-18
 -1      2220 9.17742E-05-1.55608E-05-3.26995E-05-2.24284E-06 2.90239E-19-4.34408E-18
 -1      2221 9.28837E-05-1.61998E-05-3.29152E-05-4.16026E-06-1.62619E-19-4.26243E-18
 -1      2222 9.31562E-05-1.80786E-05-3.22055E-05-7.23779E-07 4.39895E-19-4.02271E-18
 -1      2223 8.07758E-05-8.56982E-06-3.10029E-05 7.84874E-06 2.24405E-18-3.99211E-18
 -1      2224 8.29151E-05-9.87610E-06-3.12799E-05 6.75727E-06 1.91595E-18-4.07787E-18
 -1      2225 7.67152E-05-5.51642E-06-3.05793E-05 8.91903E-06 2.76227E-18-3.84348E-18
 -1      2226 7.85168E-05-6.71050E-06-3.07411E-05 8.53234E-06 2.47028E-18-3.96776E-18
 -1      2227 8.06965E-05-9.68616E-06-3.04603E-05 9.38655E-06 2.34208E-18-3.79094E-18
 -1      2228 7.43985E-05-3.36299E-06-3.05078E-05 8.28015E-06 3.18990E-18-3.51898E-18
 -1      2229 7.51564E-05-4.00737E-06-3.04711E-05 8.57382E-06 2.92708E-18-3.79228E-18
 -1      2230 7.63975E-05-6.25124E-06-3.00565E-05 9.79749E-06 2.81242E-18-3.64476E-18
 -1      2231 7.52014E-05-3.15028E-06-3.09309E-05 6.31162E-06 3.45095E-18-2.88830E-18
 -1      2232 7.42800E-05-2.83304E-06-3.06347E-05 7.03471E-06 3.28372E-18-3.29821E-18
 -1      2233 7.43135E-05-4.10978E-06-3.00439E-05 8.11975E-06 3.19142E-18-3.28038E-18
 -1      2234 8.01026E-05-5.78417E-06-3.18912E-05 3.98327E-06 3.60553E-18-1.90005E-18
 -1      2235 7.71580E-05-4.19001E-06-3.13364E-05 4.66407E-06 3.43245E-18-2.45159E-18
 -1      2236 7.59819E-05-4.52499E-06-3.05613E-05 4.97002E-06 3.28901E-18-2.61663E-18
 -1      2237 8.90215E-05-1.14812E-05-3.32537E-05 2.34624E-06 3.66268E-18-4.34223E-19
 -1      2238 8.41908E-05-8.54161E-06-3.25298E-05 2.58357E-06 3.47962E-18-1.25126E-18
 -1      2239 8.21423E-05-8.25111E-06-3.16096E-05 1.59559E-06 3.30225E-18-1.52711E-18
 -1      2240 1.08490E-04-2.90653E-05-3.39710E-05-1.50747E-05 1.02183E-18 2.25533E-18
 -1      2241 1.06638E-04-2.77869E-05-3.37345E-05-1.26396E-05 1.44664E-18 2.45305E-18
 -1      2242 1.00653E-04-2.38831E-05-3.29014E-05-1.14089E-05 1.91715E-18 1.25917E-18
 -1      2243 1.00313E-04-2.76947E-05-3.10768E-05-7.67701E-06-2.27523E-18-1.70197E-18
 -1      2244 9.94993E-05-2.85181E-05-3.04609E-05-6.43823E-06-1.97156E-18-1.73477E-18
 -1      2245 9.94688E-05-2.93085E-05-3.00127E-05-5.91984E-06-1.76402E-18-1.50022E-18
 -1      2246 9.86513E-05-2.95939E-05-2.96167E-05-5.61847E-06-1.55916E-18-1.69609E-18
 -1      2247 1.00274E-04-2.87123E-05-3.06635E-05-6.98742E-06-1.84828E-18-1.94478E-18
 -1      2248 9.83588E-05-2.98490E-05-2.93299E-05-5.65242E-06-1.45825E-18-1.45871E-18
 -1      2249 9.75159E-05-2.97505E-05-2.90527E-05-5.76379E-06-1.19413E-18-1.70004E-18
 -1      2250 9.99689E-05-3.01070E-05-2.99431E-05-6.40256E-06-1.50459E-18-1.72633E-18
 -1      2251 9.70107E-05-2.95997E-05-2.88818E-05-6.02110E-06-1.09227E-18-1.61098E-18
 -1      2252 9.60992E-05-2.91718E-05-2.86791E-05-6.17623E-06-1.18688E-18-1.63177E-18
 -1      2253 9.92101E-05-3.03370E-05-2.95142E-05-6.67525E-06-1.22064E-18-1.66015E-18
 -1      2254 9.53624E-05-2.86600E-05-2.85933E-05-6.29895E-06-1.07578E-18-1.41885E-18
 -1      2255 9.44031E-05-2.79735E-05-2.84475E-05-6.18807E-06-8.70189E-19-1.59023E-18
 -1      2256 9.79777E-05-2.95940E-05-2.93010E-05-7.08303E-06-1.17319E-18-1.43457E-18
 -1      2257 9.35037E-05-2.72138E-05-2.84217E-05-5.84987E-06-8.88549E-19-1.58397E-18
 -1      2258 9.26165E-05-2.64342E-05-2.83265E-05-5.26189E-06-8.46595E-19-1.55961E-18
 -1      2259 9.63140E-05-2.80738E-05-2.92432E-05-6.88462E-06-9.32845E-19-1.13257E-18
 -1      2260 9.17585E-05-2.56579E-05-2.83339E-05-4.28316E-06-9.06030E-19-1.79585E-18
 -1      2261 9.11308E-05-2.50346E-05-2.82858E-05-3.18170E-06-8.43598E-19-2.03743E-18
 -1      2262 9.45038E-05-2.62105E-05-2.92782E-05-5.51449E-06-1.05824E-18-1.58411E-18
 -1      2263 9.05961E-05-2.45388E-05-2.82998E-05-1.63920E-06-1.10063E-18-2.22670E-18
 -1      2264 9.04031E-05-2.43115E-05-2.82945E-05-2.05941E-07-1.24534E-18-2.35776E-18
 -1      2265 9.30587E-05-2.46598E-05-2.93381E-05-2.83585E-06-1.26607E-18-1.78485E-18
 -1      2266 9.04007E-05-2.43138E-05-2.82946E-05 1.55657E-06-1.17723E-18-2.49400E-18
 -1      2267 9.07099E-05-2.45863E-05-2.83276E-05 2.98089E-06-9.36727E-19-2.49646E-18
 -1      2268 9.25030E-05-2.40639E-05-2.93631E-05 7.05036E-07-1.35737E-18-2.12079E-18
 -1      2269 9.12364E-05-2.50931E-05-2.83087E-05 4.49722E-06-6.30699E-19-2.63074E-18
 -1      2270 9.19669E-05-2.57716E-05-2.83764E-05 5.56352E-06-2.15590E-19-2.66132E-18
 -1      2271 9.30551E-05-2.46935E-05-2.93209E-05 4.21583E-06-8.28062E-19-2.25059E-18
 -1      2272 9.28035E-05-2.65762E-05-2.83486E-05 6.47024E-06-5.45211E-20-2.72119E-18
 -1      2273 9.37609E-05-2.74286E-05-2.84455E-05 6.97254E-06 4.07009E-19-2.83465E-18
 -1      2274 9.44824E-05-2.63108E-05-2.92219E-05 6.78240E-06-2.56477E-19-2.36779E-18
 -1      2275 9.46089E-05-2.82429E-05-2.84231E-05 7.15546E-06 4.27438E-19-3.32161E-18
 -1      2276 9.55748E-05-2.90254E-05-2.85396E-05 7.08872E-06 3.07329E-19-3.40576E-18
 -1      2277 9.62374E-05-2.83066E-05-2.91032E-05 7.89628E-06 2.45817E-19-3.02971E-18
 -1      2278 9.62068E-05-2.96283E-05-2.85327E-05 6.67266E-06 1.79224E-19-3.40738E-18
 -1      2279 9.70171E-05-3.01855E-05-2.86552E-05 6.18498E-06 3.09884E-19-3.35065E-18
 -1      2280 9.77689E-05-3.00540E-05-2.90032E-05 7.59453E-06 1.54275E-19-3.23400E-18
 -1      2281 9.73452E-05-3.04920E-05-2.86654E-05 5.41796E-06 4.68728E-19-3.02731E-18
 -1      2282 9.79212E-05-3.07835E-05-2.87792E-05 4.71524E-06 4.71562E-19-2.66073E-18
 -1      2283 9.87533E-05-3.11766E-05-2.89446E-05 6.30078E-06 3.85470E-19-2.38375E-18
 -1      2284 9.79745E-05-3.08249E-05-2.88007E-05 3.84497E-06 1.19362E-21-2.68011E-18
 -1      2285 9.83117E-05-3.08930E-05-2.88939E-05 3.11061E-06-1.92913E-19-2.69293E-18
 -1      2286 9.91362E-05-3.16081E-05-2.89288E-05 4.55323E-06 1.10125E-19-2.21220E-18
 -1      2287 9.81753E-05-3.07568E-05-2.89177E-05 2.31353E-06-4.76846E-19-2.70621E-18
 -1      2288 9.83135E-05-3.06777E-05-2.89834E-05 1.66955E-06-7.08326E-19-2.64753E-18
 -1      2289 9.90412E-05-3.14958E-05-2.89418E-05 2.79782E-06-4.31161E-19-2.12802E-18
 -1      2290 9.80769E-05-3.04558E-05-2.90019E-05 1.03671E-06-1.08644E-18-2.68936E-18
 -1      2291 9.80712E-05-3.03027E-05-2.90388E-05 5.40802E-07-7.86262E-19-2.78755E-18
 -1      2292 9.86515E-05-3.10618E-05-2.89650E-05 1.30709E-06-7.63292E-19-2.07194E-18
 -1      2293 9.78027E-05-3.00643E-05-2.90474E-05 9.60017E-08-3.94591E-19-2.54277E-18
 -1      2294 9.77057E-05-2.98909E-05-2.90586E-05-2.42460E-07-1.04915E-20-2.51539E-18
 -1      2295 9.81301E-05-3.05043E-05-2.89831E-05 1.92361E-07-7.15620E-19-1.73688E-18
 -1      2296 9.74473E-05-2.96765E-05-2.90561E-05-5.16084E-07-2.25361E-20-2.60580E-18
 -1      2297 9.73015E-05-2.95147E-05-2.90473E-05-7.16179E-07 4.74570E-20-2.81443E-18
 -1      2298 9.75894E-05-2.99577E-05-2.89869E-05-5.45205E-07-1.88337E-19-1.33599E-18
 -1      2299 9.70739E-05-2.93419E-05-2.90349E-05-8.53853E-07 2.35959E-19-2.84897E-18
 -1      2300 9.69097E-05-2.92065E-05-2.90124E-05-9.46736E-07 4.05980E-19-2.89610E-18
 -1      2301 9.70929E-05-2.94929E-05-2.89738E-05-9.63156E-07 2.62582E-19-1.83880E-18
 -1      2302 9.67198E-05-2.90779E-05-2.89928E-05-9.87328E-07 6.28836E-19-2.85926E-18
 -1      2303 9.65572E-05-2.89727E-05-2.89624E-05-1.00546E-06 4.07497E-19-2.43739E-18
 -1      2304 9.66680E-05-2.91341E-05-2.89455E-05-1.13995E-06 5.80546E-19-2.02523E-18
 -1      2305 9.64041E-05-2.88830E-05-2.89385E-05-9.83574E-07 2.88101E-19-2.42892E-18
 -1      2306 9.62549E-05-2.88057E-05-2.89051E-05-9.55047E-07 1.75511E-19-2.16770E-18
 -1      2307 9.63202E-05-2.88774E-05-2.89063E-05-1.15229E-06 3.68326E-19-1.42689E-18
 -1      2308 9.61344E-05-2.87469E-05-2.88796E-05-8.97940E-07 1.14185E-19-2.03419E-18
 -1      2309 9.60045E-05-2.86928E-05-2.88467E-05-8.44418E-07 3.05368E-19-1.87225E-18
 -1      2310 9.60438E-05-2.87062E-05-2.88610E-05-1.06429E-06 2.74919E-19-1.99953E-18
 -1      2311 9.59112E-05-2.86567E-05-2.88217E-05-7.71654E-07 3.97808E-19-2.24104E-18
 -1      2312 9.58026E-05-2.86205E-05-2.87916E-05-7.08356E-07 8.00567E-19-2.26551E-18
 -1      2313 9.58287E-05-2.86001E-05-2.88140E-05-9.24364E-07 1.53148E-19-2.13998E-18
 -1      2314 9.57313E-05-2.86001E-05-2.87685E-05-6.32830E-07 5.76720E-19-2.50713E-18
 -1      2315 9.56435E-05-2.85771E-05-2.87423E-05-5.69519E-07 4.41033E-19-2.31474E-18
 -1      2316 9.56639E-05-2.85402E-05-2.87688E-05-7.66034E-07 3.97134E-19-2.45916E-18
 -1      2317 9.55897E-05-2.85670E-05-2.87220E-05-4.98928E-07 9.85812E-20-2.28793E-18
 -1      2318 9.55209E-05-2.85532E-05-2.87001E-05-4.41200E-07 1.20765E-19-2.52913E-18
 -1      2319 9.55393E-05-2.85113E-05-2.87275E-05-6.10555E-07 2.39430E-19-1.77664E-18
 -1      2320 9.54807E-05-2.85495E-05-2.86829E-05-3.79499E-07 1.54862E-19-2.93386E-18
 -1      2321 9.54282E-05-2.85419E-05-2.86653E-05-3.30017E-07 3.02075E-19-3.14413E-18
 -1      2322 9.54462E-05-2.85017E-05-2.86915E-05-4.69946E-07 6.18623E-20-2.42309E-18
 -1      2323 9.53987E-05-2.85419E-05-2.86513E-05-2.78659E-07-1.55454E-19-3.34814E-18
 -1      2324 9.53597E-05-2.85384E-05-2.86375E-05-2.38175E-07-1.63224E-19-3.29617E-18
 -1      2325 9.53775E-05-2.85032E-05-2.86613E-05-3.49774E-07-2.77514E-19-2.35253E-18
 -1      2326 9.53383E-05-2.85403E-05-2.86264E-05-1.97071E-07-3.32049E-19-3.34754E-18
 -1      2327 9.53103E-05-2.85394E-05-2.86160E-05-1.65197E-07 2.55030E-19-2.71937E-18
 -1      2328 9.53277E-05-2.85105E-05-2.86366E-05-2.51420E-07-2.63066E-19-2.30194E-18
 -1      2329 9.52951E-05-2.85420E-05-2.86074E-05-1.33402E-07 7.48730E-19-2.93410E-18
 -1      2330 9.52757E-05-2.85426E-05-2.85998E-05-1.09154E-07 9.42751E-19-2.09122E-18
 -1      2331 9.52921E-05-2.85200E-05-2.86172E-05-1.73771E-07 4.78886E-19-2.13426E-18
 -1      2332 9.52651E-05-2.85454E-05-2.85934E-05-8.53295E-08 7.71983E-19-1.95147E-18
 -1      2333 9.52522E-05-2.85467E-05-2.85880E-05-6.74846E-08 5.93923E-19-1.93639E-18
 -1      2334 9.52672E-05-2.85299E-05-2.86022E-05-1.14421E-07 1.01524E-18-2.38267E-18
 -1      2335 9.52451E-05-2.85493E-05-2.85833E-05-5.01956E-08 2.96173E-19-1.25367E-18
 -1      2336 9.52370E-05-2.85510E-05-2.85797E-05-3.75088E-08-7.08330E-20-1.09800E-18
 -1      2337 9.52504E-05-2.85390E-05-2.85909E-05-7.04496E-08 6.37710E-19-6.65039E-19
 -1      2338 9.52325E-05-2.85533E-05-2.85764E-05-2.53897E-08 6.51454E-19-9.57779E-19
 -1      2339 9.52278E-05-2.85550E-05-2.85740E-05-1.67160E-08 1.68247E-18-2.15161E-19
 -1      2340 9.52394E-05-2.85469E-05-2.85828E-05-3.89053E-08 7.60559E-19-5.22953E-19
 -1      2341 9.52251E-05-2.85569E-05-2.85718E-05-8.56019E-09 1.34617E-18 1.13004E-19
 -1      2342 9.52229E-05-2.85585E-05-2.85704E-05-2.91137E-09 5.40275E-19 8.13726E-19
 -1      2343 9.52326E-05-2.85533E-05-2.85771E-05-1.70755E-08 2.13931E-18 1.51693E-19
 -1      2344 9.52215E-05-2.85600E-05-2.85690E-05 2.29531E-09-7.31510E-20 1.20383E-18
 -1      2345 9.52209E-05-2.85615E-05-2.85683E-05 5.73376E-09-8.79009E-23 1.13372E-18
 -1      2346 9.52289E-05-2.85584E-05-2.85732E-05-2.61421E-09 4.25073E-19 1.91539E-18
 -1      2347 9.52203E-05-2.85627E-05-2.85674E-05 8.81133E-09-3.32630E-19-1.05163E-19
 -1      2348 9.52208E-05-2.85639E-05-2.85672E-05 1.06867E-08-4.89497E-19-4.71644E-19
 -1      2349 9.52272E-05-2.85624E-05-2.85707E-05 6.41952E-09-1.01724E-18 1.24268E-18
 -1      2350 9.52208E-05-2.85648E-05-2.85668E-05 1.22771E-08-1.31833E-19-6.46901E-19
 -1      2351 9.52218E-05-2.85659E-05-2.85668E-05 1.30873E-08 6.12254E-19 9.62256E-20
 -1      2352 9.52268E-05-2.85653E-05-2.85693E-05 1.15760E-08-4.86702E-19-2.67128E-19
 -1      2353 9.52222E-05-2.85666E-05-2.85667E-05 1.36782E-08-1.54952E-19-2.49357E-19
 -1      2354 9.52235E-05-2.85674E-05-2.85669E-05 1.37943E-08-7.60789E-20-1.27571E-19
 -1      2355 9.52273E-05-2.85675E-05-2.85685E-05 1.40556E-08 1.40524E-19 1.33440E-19
 -1      2356 9.52241E-05-2.85679E-05-2.85669E-05 1.37444E-08 2.80010E-19-9.76432E-20
 -1      2357 9.52256E-05-2.85686E-05-2.85673E-05 1.34332E-08 1.05977E-18-5.04852E-19
 -1      2358 9.52283E-05-2.85691E-05-2.85683E-05 1.47598E-08-1.78245E-19 9.02319E-19
 -1      2359 9.52262E-05-2.85690E-05-2.85674E-05 1.29964E-08 9.87115E-19-1.18197E-18
 -1      2360 9.52277E-05-2.85696E-05-2.85678E-05 1.24407E-08 1.30506E-18-1.71231E-18
 -1      2361 9.52296E-05-2.85702E-05-2.85683E-05 1.43432E-08 3.13376E-19 4.19062E-20
 -1      2362 9.52284E-05-2.85699E-05-2.85680E-05 1.17876E-08 1.85444E-18-1.67864E-18
 -1      2363 9.52297E-05-2.85703E-05-2.85683E-05 1.11035E-08 2.03682E-18-1.33667E-18
 -1      2364 9.52309E-05-2.85710E-05-2.85686E-05 1.32614E-08 1.59422E-18-1.43925E-18
 -1      2365 9.52304E-05-2.85706E-05-2.85685E-05 1.03390E-08 6.55301E-19-1.87932E-18
 -1      2366 9.52316E-05-2.85710E-05-2.85689E-05 9.58985E-09-5.12824E-19-1.98962E-18
 -1      2367 9.52323E-05-2.85715E-05-2.85689E-05 1.18124E-08 1.08285E-18-1.34712E-18
 -1      2368 9.52323E-05-2.85712E-05-2.85691E-05 8.76744E-09-2.07518E-19-2.01452E-18
 -1      2369 9.52333E-05-2.85715E-05-2.85693E-05 7.97706E-09-6.02550E-19-5.18671E-19
 -1      2370 9.52335E-05-2.85720E-05-2.85692E-05 1.01704E-08-1.04956E-19-1.02382E-18
 -1      2371 9.52339E-05-2.85718E-05-2.85695E-05 7.11425E-09-9.91140E-19 4.52031E-19
 -1      2372 9.52348E-05-2.85721E-05-2.85698E-05 6.27846E-09 7.01799E-19 2.78834E-19
 -1      2373 9.52347E-05-2.85725E-05-2.85695E-05 8.41836E-09-1.10864E-19-9.28902E-19
 -1      2374 1.19962E-04-4.09497E-05-3.38449E-05-1.88799E-05-1.73287E-18 2.27934E-18
 -1      2375 1.15013E-04-3.60886E-05-3.36387E-05-2.03452E-05-1.02957E-18 2.25837E-18
 -1      2376 1.33657E-04-5.40523E-05-3.41613E-05-1.12728E-05-2.59531E-18 2.87664E-18
 -1      2377 1.26998E-04-4.74882E-05-3.37241E-05-1.70597E-05-2.49671E-18 2.48987E-18
 -1      2378 1.13624E-04-4.33890E-05-3.02476E-05-2.37974E-05-2.15962E-18 8.56059E-19
 -1      2379 1.68779E-04-2.69661E-05-6.08035E-05-9.76991E-06 7.68852E-18-1.12539E-18
 -1      2380 1.67978E-04-2.45606E-05-6.12862E-05 2.33495E-06 7.94771E-18 5.68968E-19
 -1      2381 1.39097E-04-5.67514E-05-3.49220E-05 8.93302E-06-1.94066E-18-4.46566E-18
 -1      2382 1.45739E-04-6.13033E-05-3.62780E-05 6.05393E-07-1.75018E-19-4.96319E-18
 -1      2383 1.23098E-04-4.33796E-05-3.38806E-05 1.86451E-05-3.09283E-18-2.81810E-18
 -1      2384 1.29139E-04-4.92601E-05-3.42106E-05 1.45152E-05-2.46455E-18-3.32195E-18
 -1      2385 1.25493E-04-5.38349E-05-3.08473E-05 1.91656E-05-2.57768E-18-3.11843E-18
 -1      2386 1.13336E-04-3.44841E-05-3.37056E-05 2.04487E-05-2.41415E-18-2.34048E-18
 -1      2387 1.17842E-04-3.83515E-05-3.40402E-05 1.96840E-05-2.88828E-18-2.80377E-18
 -1      2388 1.10951E-04-3.94854E-05-3.07538E-05 2.36820E-05-3.13378E-18-1.57032E-18
 -1      2389 1.07977E-04-3.02708E-05-3.33046E-05 1.82011E-05-8.86597E-19-1.91064E-18
 -1      2390 1.11175E-04-3.22190E-05-3.38014E-05 1.91692E-05-1.92591E-18-2.34223E-18
 -1      2391 1.03755E-04-3.06570E-05-3.13817E-05 2.23829E-05-2.04893E-18-1.49884E-18
 -1      2392 1.04812E-04-2.87255E-05-3.26312E-05 1.47177E-05 9.80110E-20-2.88454E-19
 -1      2393 1.07170E-04-2.96095E-05-3.31923E-05 1.62559E-05-1.52353E-19-1.02901E-18
 -1      2394 1.00885E-04-2.71030E-05-3.16208E-05 1.89177E-05-1.10103E-18-8.07380E-19
 -1      2395 1.02564E-04-2.83357E-05-3.18313E-05 1.11232E-05 6.69685E-21-1.31668E-19
 -1      2396 1.04415E-04-2.87292E-05-3.23819E-05 1.27043E-05 2.53978E-19-2.05768E-19
 -1      2397 9.96976E-05-2.62846E-05-3.14394E-05 1.49569E-05-1.60637E-19 2.77982E-19
 -1      2398 1.00948E-04-2.83613E-05-3.11196E-05 8.25380E-06-1.37858E-19-1.20554E-18
 -1      2399 1.02301E-04-2.85353E-05-3.15613E-05 9.50874E-06 4.34187E-19-9.91208E-20
 -1      2400 9.90269E-05-2.65549E-05-3.10404E-05 1.13597E-05 1.35608E-19 6.27251E-20
 -1      2401 9.96394E-05-2.84595E-05-3.05116E-05 6.01580E-06-1.63884E-18-1.32233E-18
 -1      2402 1.00673E-04-2.85537E-05-3.08632E-05 6.98557E-06-1.17700E-18-1.07656E-18
 -1      2403 9.84752E-05-2.70716E-05-3.05882E-05 8.47700E-06-5.40877E-19 1.20488E-19
 -1      2404 9.85836E-05-2.85398E-05-3.00215E-05 4.33817E-06-3.71391E-19-1.73201E-18
 -1      2405 9.93662E-05-2.86025E-05-3.02915E-05 5.05757E-06-1.12357E-18-1.55632E-18
 -1      2406 9.79348E-05-2.75433E-05-3.01604E-05 6.22919E-06-1.19779E-18-2.67752E-19
 -1      2407 9.77424E-05-2.85853E-05-2.96397E-05 3.10828E-06-6.98218E-19-2.27434E-18
 -1      2408 9.83287E-05-2.86326E-05-2.98426E-05 3.63081E-06-4.25563E-19-2.10050E-18
 -1      2409 9.74188E-05-2.78965E-05-2.97924E-05 4.53204E-06-5.35001E-19-1.29962E-18
 -1      2410 9.70832E-05-2.86029E-05-2.93487E-05 2.21716E-06-6.30542E-19-1.41954E-18
 -1      2411 9.75184E-05-2.86404E-05-2.94990E-05 2.59278E-06-7.20476E-19-2.22885E-18
 -1      2412 9.69528E-05-2.81370E-05-2.94923E-05 3.27527E-06-1.07695E-18-1.91755E-18
 -1      2413 9.65750E-05-2.86034E-05-2.91302E-05 1.57507E-06-1.10782E-18-1.29168E-18
 -1      2414 9.68952E-05-2.86331E-05-2.92405E-05 1.84393E-06-7.26017E-19-1.64516E-18
 -1      2415 9.65524E-05-2.82921E-05-2.92556E-05 2.35478E-06-7.83019E-19-1.25745E-18
 -1      2416 9.61885E-05-2.85956E-05-2.89680E-05 1.11322E-06 6.00090E-19-1.31330E-18
 -1      2417 9.64227E-05-2.86184E-05-2.90483E-05 1.30565E-06 7.61155E-20-1.37859E-18
 -1      2418 9.62220E-05-2.83891E-05-2.90730E-05 1.68456E-06-4.37976E-20-2.94126E-18
 -1      2419 9.58874E-05-2.85846E-05-2.88436E-05 7.67537E-07-1.70377E-19-1.36131E-18
 -1      2420 9.60626E-05-2.86025E-05-2.89039E-05 9.10248E-07 1.02968E-19-9.86387E-19
 -1      2421 9.59519E-05-2.84485E-05-2.89314E-05 1.18894E-06 3.05292E-20-1.71716E-18
 -1      2422 9.56782E-05-2.85744E-05-2.87581E-05 5.33404E-07-1.55692E-18 5.44213E-20
 -1      2423 9.57969E-05-2.85865E-05-2.87990E-05 6.29996E-07-9.77266E-19-8.86435E-19
 -1      2424 9.57426E-05-2.84865E-05-2.88258E-05 8.30417E-07-9.49661E-19-7.75805E-19
 -1      2425 9.55258E-05-2.85664E-05-2.86963E-05 3.65308E-07-1.98270E-19 1.12794E-18
 -1      2426 9.56096E-05-2.85748E-05-2.87254E-05 4.34322E-07-9.03179E-19 7.42327E-19
 -1      2427 9.55877E-05-2.85085E-05-2.87497E-05 5.79204E-07-1.45874E-18 4.28146E-20
 -1      2428 9.54171E-05-2.85607E-05-2.86522E-05 2.45179E-07 8.71463E-19 8.03051E-19
 -1      2429 9.54753E-05-2.85661E-05-2.86726E-05 2.94268E-07 5.96151E-19 5.69960E-19
 -1      2430 9.54724E-05-2.85228E-05-2.86939E-05 3.97955E-07 6.06710E-19-3.42886E-19
 -1      2431 9.53410E-05-2.85573E-05-2.86212E-05 1.59855E-07 5.41798E-20 2.14771E-18
 -1      2432 9.53806E-05-2.85604E-05-2.86352E-05 1.94538E-07 6.63118E-19 1.14132E-18
 -1      2433 9.53881E-05-2.85327E-05-2.86533E-05 2.67761E-07 3.41183E-19-2.77263E-19
 -1      2434 9.52892E-05-2.85557E-05-2.85998E-05 9.98298E-08-2.49394E-18 3.86463E-18
 -1      2435 9.53153E-05-2.85572E-05-2.86092E-05 1.24078E-07-9.20912E-19 2.75024E-18
 -1      2436 9.53280E-05-2.85399E-05-2.86243E-05 1.74912E-07-7.93681E-19 9.92874E-19
 -1      2437 9.52550E-05-2.85555E-05-2.85853E-05 5.81632E-08-1.44375E-18 3.85256E-18
 -1      2438 9.52715E-05-2.85558E-05-2.85915E-05 7.48922E-08-2.35569E-18 4.28933E-18
 -1      2439 9.52863E-05-2.85456E-05-2.86038E-05 1.09391E-07-2.02685E-18 2.75813E-18
 -1      2440 9.52327E-05-2.85563E-05-2.85755E-05 2.86992E-08-3.70493E-19 4.17289E-18
 -1      2441 9.52428E-05-2.85559E-05-2.85795E-05 4.03639E-08-6.25562E-20 4.08090E-18
 -1      2442 9.52576E-05-2.85502E-05-2.85893E-05 6.30341E-08-1.18402E-18 3.43499E-18
 -1      2443 9.52206E-05-2.85576E-05-2.85697E-05 1.03880E-08 6.34074E-19 3.24319E-18
 -1      2444 9.52256E-05-2.85568E-05-2.85719E-05 1.75606E-08-1.02183E-18 3.40971E-18
 -1      2445 9.52393E-05-2.85543E-05-2.85796E-05 3.15299E-08-8.31115E-21 2.85136E-18
 -1      2446 9.52144E-05-2.85592E-05-2.85664E-05-1.25082E-09 1.19170E-18 3.89671E-18
 -1      2447 9.52164E-05-2.85582E-05-2.85675E-05 3.21291E-09 1.90329E-18 3.68523E-18
 -1      2448 9.52286E-05-2.85576E-05-2.85735E-05 1.13867E-08 8.66059E-19 1.50503E-18
 -1      2449 9.52123E-05-2.85610E-05-2.85648E-05-8.18918E-09-9.52365E-19 3.99680E-18
 -1      2450 9.52123E-05-2.85599E-05-2.85651E-05-5.61314E-09-1.25874E-19 3.67785E-18
 -1      2451 9.52228E-05-2.85604E-05-2.85698E-05-1.40418E-09 9.36108E-19 2.89554E-18
 -1      2452 9.52127E-05-2.85627E-05-2.85642E-05-1.19003E-08 1.79489E-19 2.40315E-18
 -1      2453 9.52115E-05-2.85616E-05-2.85642E-05-1.06075E-08 5.29078E-20 3.19760E-18
 -1      2454 9.52203E-05-2.85627E-05-2.85676E-05-9.03642E-09 1.18844E-19 2.88454E-18
 -1      2455 9.52146E-05-2.85643E-05-2.85644E-05-1.34572E-08 7.21222E-19 2.15867E-18
 -1      2456 9.52128E-05-2.85633E-05-2.85640E-05-1.30095E-08 6.84655E-19 1.76729E-18
 -1      2457 9.52200E-05-2.85647E-05-2.85666E-05-1.31229E-08 6.27574E-19 2.38425E-18
 -1      2458 9.52174E-05-2.85657E-05-2.85650E-05-1.36320E-08 9.50267E-19 9.92578E-19
 -1      2459 9.52153E-05-2.85648E-05-2.85645E-05-1.37162E-08 6.82718E-19 2.02574E-18
 -1      2460 9.52210E-05-2.85663E-05-2.85663E-05-1.48405E-08 1.02069E-18 1.92081E-18
 -1      2461 9.52204E-05-2.85670E-05-2.85658E-05-1.29693E-08 2.70379E-18 1.50600E-18
 -1      2462 9.52183E-05-2.85662E-05-2.85652E-05-1.33649E-08 1.48897E-18 1.41031E-18
 -1      2463 9.52227E-05-2.85676E-05-2.85665E-05-1.50359E-08 1.20331E-18 1.30000E-18
 -1      2464 9.52237E-05-2.85681E-05-2.85667E-05-1.17716E-08-2.24118E-19 3.29972E-18
 -1      2465 9.52216E-05-2.85674E-05-2.85661E-05-1.23665E-08 1.97887E-18 2.62458E-18
 -1      2466 9.52249E-05-2.85687E-05-2.85670E-05-1.42757E-08 1.29564E-18 2.10903E-18
 -1      2467 9.52266E-05-2.85691E-05-2.85675E-05-1.03967E-08-3.39477E-19 2.49145E-18
 -1      2468 9.52248E-05-2.85685E-05-2.85670E-05-1.10428E-08-1.09172E-18 3.08865E-18
 -1      2469 9.52272E-05-2.85696E-05-2.85676E-05-1.29788E-08 6.89336E-20 2.78166E-18
 -1      2470 9.52293E-05-2.85699E-05-2.85683E-05-8.93140E-09 1.57795E-18 1.22579E-18
 -1      2471 9.52277E-05-2.85694E-05-2.85679E-05-9.60733E-09 9.80860E-19 2.02693E-18
 -1      2472 9.52293E-05-2.85703E-05-2.85682E-05-1.14509E-08 6.27142E-19 1.77267E-18
 -1      2473 9.52317E-05-2.85706E-05-2.85690E-05-7.42493E-09 2.66691E-18-6.36291E-19
 -1      2474 9.52303E-05-2.85701E-05-2.85686E-05-8.11943E-09 2.66936E-18 3.43378E-20
 -1      2475 9.52313E-05-2.85709E-05-2.85688E-05-9.80902E-09 2.67627E-18-5.54428E-19
 -1      2476 9.52337E-05-2.85712E-05-2.85696E-05-5.86475E-09-1.51546E-18-1.71092E-18
 -1      2477 9.52325E-05-2.85708E-05-2.85693E-05-6.59512E-09 9.97633E-19-9.34575E-19
 -1      2478 9.52331E-05-2.85714E-05-2.85693E-05-8.11678E-09 2.11917E-18 7.36779E-19
 -1      2479 9.52353E-05-2.85718E-05-2.85701E-05-4.23486E-09 1.98048E-18-3.83565E-18
 -1      2480 9.52344E-05-2.85715E-05-2.85698E-05-5.00617E-09-8.14731E-19-3.38241E-18
 -1      2481 9.52347E-05-2.85720E-05-2.85697E-05-6.36318E-09 9.35385E-19-2.12490E-18
 -1      2482 9.52360E-05-2.85721E-05-2.85703E-05-3.30056E-09 1.43062E-18-2.76881E-18
 -1      2483 9.52404E-05-2.85786E-05-2.85693E-05-4.83685E-09 1.65483E-18 8.91231E-19
 -1      2484 9.52399E-05-2.85779E-05-2.85694E-05-5.31344E-09 1.51992E-18-2.07263E-18
 -1      2485 9.52412E-05-2.85798E-05-2.85692E-05-3.37127E-09 1.26745E-18 3.47237E-18
 -1      2486 9.52409E-05-2.85792E-05-2.85693E-05-4.10417E-09 9.51211E-19 3.11839E-18
 -1      2487 9.52410E-05-2.85787E-05-2.85696E-05-5.08949E-09 1.45296E-18 1.53413E-18
 -1      2488 9.52381E-05-2.85754E-05-2.85697E-05-5.83304E-09-1.54988E-19 7.62233E-19
 -1      2489 9.52374E-05-2.85745E-05-2.85699E-05-5.62407E-09 3.22131E-19 1.55159E-18
 -1      2490 9.52394E-05-2.85771E-05-2.85695E-05-5.70866E-09 2.70715E-19-2.12470E-18
 -1      2491 9.52387E-05-2.85763E-05-2.85696E-05-5.85071E-09-4.67645E-19-6.02195E-21
 -1      2492 9.52383E-05-2.85756E-05-2.85697E-05-6.71578E-09 4.25936E-19-5.54714E-19
 -1      2493 9.52398E-05-2.85773E-05-2.85696E-05-6.29537E-09 1.36739E-18-8.41475E-19
 -1      2494 9.52417E-05-2.85804E-05-2.85691E-05-1.51523E-09-7.19421E-19-1.59948E-18
 -1      2495 9.52415E-05-2.85801E-05-2.85691E-05-2.40539E-09 4.43222E-19 7.32794E-19
 -1      2496 9.52418E-05-2.85797E-05-2.85695E-05-3.28037E-09 8.92644E-19 1.12168E-18
 -1      2497 9.52418E-05-2.85805E-05-2.85691E-05 5.08175E-10-5.58218E-19 2.12220E-19
 -1      2498 9.52418E-05-2.85805E-05-2.85691E-05-4.32598E-10-8.53774E-19-1.06362E-18
 -1      2499 9.52422E-05-2.85802E-05-2.85694E-05-1.10295E-09 1.83457E-19-9.24313E-19
 -1      2500 9.52415E-05-2.85801E-05-2.85691E-05 2.46961E-09-8.59083E-19-1.67092E-18
 -1      2501 9.52417E-05-2.85804E-05-2.85691E-05 1.58648E-09-1.03400E-18 1.02668E-19
 -1      2502 9.52422E-05-2.85802E-05-2.85695E-05 1.19248E-09 7.56494E-19-1.09940E-19
 -1      2503 9.52408E-05-2.85792E-05-2.85693E-05 4.12021E-09 2.70430E-20-1.77035E-18
 -1      2504 9.52412E-05-2.85797E-05-2.85692E-05 3.40898E-09-1.09593E-18-1.16054E-18
 -1      2505 9.52418E-05-2.85797E-05-2.85695E-05 3.33571E-09-5.75932E-19-1.26715E-18
 -1      2506 9.52399E-05-2.85778E-05-2.85695E-05 5.31008E-09 1.00495E-18-8.71562E-20
 -1      2507 9.52404E-05-2.85786E-05-2.85693E-05 4.84189E-09 1.13013E-18-1.30868E-18
 -1      2508 9.52409E-05-2.85787E-05-2.85696E-05 5.10463E-09 3.91852E-19-9.13851E-19
 -1      2509 9.52387E-05-2.85762E-05-2.85697E-05 5.82794E-09 2.44535E-19-1.88229E-20
 -1      2510 9.52393E-05-2.85771E-05-2.85695E-05 5.69849E-09 6.21056E-19 8.24314E-19
 -1      2511 9.52398E-05-2.85773E-05-2.85696E-05 6.29179E-09 7.07913E-19-6.39315E-19
 -1      2512 9.52374E-05-2.85744E-05-2.85699E-05 5.55352E-09 2.14718E-20-3.95732E-18
 -1      2513 9.52381E-05-2.85753E-05-2.85697E-05 5.81315E-09 3.68415E-19-1.76485E-18
 -1      2514 9.52383E-05-2.85756E-05-2.85697E-05 6.68298E-09 3.43394E-19-7.73121E-19
 -1      2515 9.50762E-05-5.46400E-05-1.74540E-05 3.79852E-05 1.78300E-19 2.12420E-18
 -1      2516 7.43086E-05-4.61876E-05-1.17727E-05 3.67106E-05-7.63177E-19 3.28077E-18
 -1      2517 9.52366E-05-2.85730E-05-2.85701E-05 4.06676E-09 1.83708E-18-2.15880E-18
 -1      2518 1.93788E-05-1.74842E-05-4.07165E-07-1.71813E-05 1.95283E-18 7.84056E-18
 -1      2519 2.64351E-05-2.18146E-05-1.68387E-06-3.02869E-05 1.63583E-18 6.74217E-18
 -1      2520 1.12348E-04-3.29162E-05-3.39930E-05-1.88776E-05-1.50712E-19 2.06339E-18
 -1      2521 1.09145E-04-3.02956E-05-3.37154E-05-1.77821E-05 4.23364E-19 2.11453E-18
 -1      2522 1.04248E-04-3.16047E-05-3.12161E-05-2.25448E-05-5.95147E-19 7.38163E-19
 -1      2523 2.09959E-05-1.89779E-05-4.98536E-07 1.09938E-05 4.92867E-19 8.70115E-18
 -1      2524 1.69618E-05-1.64901E-05 7.93719E-08-2.23276E-06 4.13233E-19 8.79983E-18
 -1      2525 7.21327E-05-4.32722E-05-1.20980E-05-4.79802E-05 2.40324E-18 4.48599E-18
 -1      2526 9.22911E-05-4.97040E-05-1.82460E-05-4.86642E-05 2.12944E-18 3.04532E-18
 -1      2527 9.93211E-05-2.23263E-05-3.30568E-05-1.19115E-05-2.62154E-18-2.56853E-18
 -1      2528 9.97611E-05-2.58721E-05-3.17170E-05-8.83393E-06-2.50990E-18-2.12810E-18
 -1      2529 9.97946E-05-2.55964E-05-3.17562E-05-8.83812E-06-2.20824E-18-2.37273E-18
 -1      2530 9.75412E-05-2.01944E-05-3.31559E-05-1.13377E-05-2.29911E-18-3.16900E-18
 -1      2531 1.37374E-04-6.73353E-05-3.02920E-05 2.19839E-05 2.39859E-18-1.41814E-18
 -1      2532 1.16452E-04-6.25220E-05-2.31642E-05 2.90827E-05 8.66091E-19 4.72856E-19
 -1      2533 1.51328E-04-2.13586E-05-5.63850E-05-5.33008E-06-5.78375E-18-2.63639E-19
 -1      2534 1.53004E-04-3.13280E-05-5.23522E-05-6.25100E-07-5.59105E-18 1.27055E-19
 -1      2535 1.12320E-04-5.42092E-05-2.51060E-05 4.21989E-05-8.55503E-20-8.81232E-19
 -1      2536 9.21566E-05-4.88500E-05-1.82847E-05 4.61701E-05 1.02237E-18-2.01965E-18
 -1      2537 2.51533E-05-1.94717E-05-2.07742E-06-1.57557E-05-2.98579E-20-7.40434E-18
 -1      2538 3.85030E-05-2.65385E-05-4.95882E-06-2.93460E-05-2.00747E-19-6.90861E-18
 -1      2539 8.51509E-05-1.15307E-05-3.15966E-05 5.24419E-06 1.68617E-18-4.11187E-18
 -1      2540 8.70979E-05-1.26544E-05-3.19045E-05 3.64131E-06 1.30994E-18-4.22615E-18
 -1      2541 8.99195E-05-1.60743E-05-3.16903E-05 3.38265E-06 1.15102E-18-3.94832E-18
 -1      2542 8.56065E-05-1.32222E-05-3.10667E-05 7.02174E-06 1.76542E-18-3.87127E-18
 -1      2543 1.41713E-04-5.36249E-05-3.79707E-05 2.30018E-05-2.73983E-18 1.24937E-19
 -1      2544 1.29441E-04-5.58120E-05-3.14629E-05 2.96624E-05-1.49904E-18 7.79270E-20
 -1      2545 1.62831E-04-2.63139E-05-5.90271E-05 1.14359E-05 7.76729E-18 1.30718E-18
 -1      2546 1.62175E-04-3.06869E-05-5.65909E-05-1.94407E-05 7.40688E-18-1.97359E-18
 -1      2547 1.66130E-04-4.51670E-05-5.22529E-05 2.34775E-05 4.44523E-18 3.40783E-18
 -1      2548 1.64345E-04-3.51323E-05-5.57765E-05 1.92661E-05 6.20833E-18 3.00548E-18
 -1      2549 1.40934E-04-6.68178E-05-3.16392E-05-1.55652E-05-9.19454E-19-5.70053E-19
 -1      2550 1.57213E-04-6.68928E-05-3.90209E-05-4.03114E-06 3.64754E-19 9.51430E-19
 -1      2551 9.71912E-05-5.43722E-05-1.81688E-05-3.58463E-05-1.70465E-18-4.62139E-18
 -1      2552 1.18749E-04-6.20735E-05-2.46735E-05-3.17991E-05-1.33281E-18-3.24101E-18
 -1      2553 5.90821E-05-3.70164E-05-9.18907E-06-3.57943E-05-1.22672E-18-6.14501E-18
 -1      2554 7.85526E-05-4.62961E-05-1.38080E-05-4.00743E-05-1.05519E-18-5.71101E-18
 -1      2555 9.35036E-05-4.89323E-05-1.89396E-05-3.65666E-05-2.36936E-18-3.89116E-18
 -1      2556 1.70186E-05-1.39353E-05-1.05249E-06 1.03769E-05 8.10822E-19-7.71223E-18
 -1      2557 1.80831E-05-1.56202E-05-7.19720E-07-3.32515E-06 8.90708E-19-7.81515E-18
 -1      2558 3.73019E-05-2.40448E-05-5.50433E-06 3.93896E-05 1.57548E-18-5.82801E-18
 -1      2559 2.42544E-05-1.73930E-05-2.49956E-06 2.54484E-05 1.87851E-18-6.93381E-18
 -1      2560 7.13348E-05-4.04367E-05-1.32157E-05 4.99836E-05 1.24641E-18-3.01904E-18
 -1      2561 5.55013E-05-3.37384E-05-8.94443E-06 4.56850E-05 1.85416E-18-4.32961E-18
 -1      2562 1.47532E-04-8.81510E-06-6.00476E-05-2.02641E-06-6.40929E-18-1.85179E-18
 -1      2563 1.45472E-04-1.07301E-05-5.83229E-05-4.82684E-06-6.05332E-18-1.20120E-18
 -1      2564 1.53479E-04-4.12337E-05-4.85354E-05 7.49107E-06-5.11793E-18 2.40346E-19
 -1      2565 1.47404E-04-4.71532E-05-4.31805E-05 1.30365E-05-3.91053E-18 2.49875E-20
 -1      2566 3.68002E-05-2.78313E-05-3.55855E-06-3.78897E-05 2.07184E-18 6.07937E-18
 -1      2567 5.06657E-05-3.29670E-05-7.45515E-06-4.59589E-05 1.81011E-18 5.87375E-18
 -1      2568 3.81073E-05-2.12365E-05-6.67840E-06-3.40629E-05 2.36534E-18 6.39700E-18
 -1      2569 1.48566E-04-1.03834E-05-5.97704E-05 2.48482E-06-5.70053E-18-2.59065E-18
 -1      2570 1.48056E-04-8.74805E-06-6.04913E-05 5.93183E-07-6.18525E-18-2.27222E-18
 -1      2571 1.34141E-04-5.94465E-06-5.51584E-05-9.61593E-07-5.53854E-18-2.07025E-18
 -1      2572 1.50852E-04-2.62526E-05-5.38607E-05 2.40692E-06-4.45582E-18-4.01345E-18
 -1      2573 1.52896E-04-1.81689E-05-5.82603E-05 3.74170E-06-5.12307E-18-3.34917E-18
 -1      2574 1.48473E-04-4.48711E-05-4.47300E-05-6.57254E-06-1.77295E-18-3.17659E-18
 -1      2575 1.51244E-04-3.84475E-05-4.89345E-05-1.73233E-06-3.12365E-18-4.33575E-18
 -1      2576 1.34594E-04-5.65959E-05-3.35188E-05-2.43994E-05 1.21983E-18-1.04058E-18
 -1      2577 1.45337E-04-5.22467E-05-4.01977E-05-1.65598E-05-3.92600E-19-2.12944E-18
 -1      2578 1.44062E-04-5.10228E-05-3.98751E-05-5.35053E-06 2.21929E-19-4.63009E-18
 -1      2579 1.10208E-04-5.51513E-05-2.34455E-05-4.12097E-05 2.14490E-18 1.95749E-18
 -1      2580 1.23316E-04-5.72897E-05-2.85187E-05-3.64116E-05 1.87110E-18 1.12433E-18
 -1      2581 1.32357E-04-5.90781E-05-3.12727E-05-2.55618E-05 2.75127E-18-1.39146E-18
 -1      2582 1.04594E-04-5.39172E-05-2.15391E-05-4.30915E-05 3.29665E-18 1.47826E-18
 -1      2583 1.06861E-04-2.63624E-05-3.44636E-05-3.01028E-06 2.72467E-18 3.30064E-18
 -1      2584 1.06792E-04-2.50824E-05-3.50180E-05 1.27034E-06 2.94820E-18 3.80716E-18
 -1      2585 1.02860E-04-2.14956E-05-3.48884E-05 1.98229E-06 3.31658E-18 2.58263E-18
 -1      2586 1.01632E-04-2.28430E-05-3.37532E-05-4.77854E-06 2.77594E-18 1.77066E-18
 -1      2587 1.62628E-04-6.56083E-05-4.20446E-05-4.89292E-06 4.92428E-18-2.71728E-18
 -1      2588 1.51247E-04-6.78356E-05-3.59263E-05 7.47684E-06 4.04384E-18-1.95029E-18
 -1      2589 1.65148E-04-4.42883E-05-5.24091E-05-2.37139E-05 6.83386E-18-3.69073E-18
 -1      2590 1.68839E-04-5.50646E-05-4.90954E-05 1.45074E-05 3.13360E-18 2.54195E-18
 -1      2591 1.59515E-04-5.27518E-05-4.59595E-05 2.10443E-05 2.35560E-18 4.62967E-18
 -1      2592 1.58652E-04-6.02163E-05-4.24744E-05 1.70988E-05 3.14461E-19 4.97240E-18
 -1      2593 1.63143E-04-6.39752E-05-4.27989E-05 6.50161E-06 1.19744E-18 1.75082E-18
 -1      2594 1.63476E-04-5.48875E-05-4.67886E-05-1.99995E-05 6.08074E-18-3.66405E-18
 -1      2595 1.60598E-04-6.24863E-05-4.23982E-05-1.13870E-05 3.72308E-18-4.08291E-18
 -1      2596 1.24310E-04-5.70062E-05-2.86260E-05 3.19600E-05 6.31675E-19 2.77192E-19
 -1      2597 9.54097E-05-1.95273E-05-3.25393E-05-4.63575E-06-3.89750E-19-3.84167E-18
 -1      2598 9.38664E-05-1.68786E-05-3.30416E-05-6.02460E-06-5.46491E-19-4.20562E-18
 -1      2599 9.48631E-05-1.76036E-05-3.31776E-05-7.77598E-06-1.01949E-18-4.16863E-18
 -1      2600 1.01121E-04-2.61546E-05-3.21583E-05-1.77807E-05 8.14354E-19 8.57374E-19
 -1      2601 9.69167E-05-1.72167E-05-3.42392E-05 1.77837E-06 3.45859E-18 1.05217E-18
 -1      2602 1.45346E-04-6.77718E-05-3.32870E-05 9.91597E-06 1.25573E-18-3.11369E-18
 -1      2603 6.65117E-05-3.86581E-05-1.15292E-05 3.60430E-05-2.39689E-18 3.28988E-18
 -1      2604 1.56602E-04-6.49951E-05-3.92352E-05 5.22708E-06-4.20234E-19 3.05398E-18
 -1      2605 1.52930E-04-6.17450E-05-3.93238E-05 8.38364E-06-5.89760E-19 4.25189E-18
 -1      2606 1.47815E-04-6.12445E-05-3.69070E-05-1.11408E-06-2.06491E-18 3.70863E-18
 -1      2607 9.52361E-05-2.85726E-05-2.85701E-05-4.47958E-09 1.35608E-18-1.85878E-18
 -1      2608 9.52365E-05-2.85732E-05-2.85700E-05-5.02917E-09 1.05414E-18-1.41096E-19
 -1      2609 1.12085E-04-5.86776E-05-2.27247E-05 3.05665E-05-1.66484E-18-7.00589E-19
 -1      2610 9.52358E-05-2.85725E-05-2.85700E-05 4.83748E-09 1.40479E-18-1.16022E-18
 -1      2611 9.52368E-05-2.85736E-05-2.85699E-05 5.37947E-09 1.15148E-18-3.14560E-18
 -1      2612 9.52367E-05-2.85738E-05-2.85698E-05 6.44512E-09 4.91923E-19-1.38349E-18
 -1      2613 9.52352E-05-2.85722E-05-2.85698E-05 5.65405E-09 1.28204E-18-4.43283E-19
 -1      2614 1.48002E-04-3.65161E-05-4.78762E-05-3.20692E-06-4.41082E-18 8.91926E-19
 -1      2615 2.50016E-05-1.34845E-05-4.30873E-06-1.01472E-05 8.45709E-19 7.82362E-18
 -1      2616 9.42985E-05-1.66445E-05-3.32587E-05-7.95555E-07 3.17105E-18 5.22017E-19
 -1      2617 3.17267E-05-1.98938E-05-4.62163E-06 1.77302E-05-1.25816E-18 7.40751E-18
 -1      2618 1.39236E-04-1.24316E-05-5.46064E-05 6.42067E-06-4.69362E-18-3.58846E-18
 -1      2619 8.86289E-05-4.53667E-05-1.81269E-05 4.64865E-05 2.42717E-18-1.96903E-18
 -1      2620 1.39600E-04-1.56366E-05-5.34695E-05-7.77865E-06-5.22026E-18-9.88911E-20
 -1      2621 5.16479E-05-2.67405E-05-1.00976E-05 4.18584E-05 2.96356E-18-4.67223E-18
 -1      2622 5.56482E-05-2.94000E-05-1.08436E-05-3.23701E-05-1.14307E-18-6.06433E-18
 -1      2623 2.83456E-05-1.39120E-05-5.58413E-06-1.08517E-05 2.75868E-19-7.28385E-18
 -1      2624 9.64314E-05-1.92416E-05-3.31308E-05-9.95003E-06-1.81594E-18-3.72822E-18
 -1      2625 6.76140E-05-3.74062E-05-1.24938E-05-4.64199E-05 3.07854E-18 4.32230E-18
 -1      2626 1.35246E-04-5.99545E-05-3.24201E-05-1.38425E-05-2.48467E-18 1.52203E-18
 -1      2627 1.33070E-04-6.40813E-05-2.95188E-05-1.96833E-05-2.06930E-18-3.33837E-19
 -1      2628 2.70666E-05-1.27486E-05-5.49243E-06 1.87382E-05 1.93155E-18-7.08543E-18
 -1      2629 1.44325E-04-5.24015E-05-3.93794E-05 1.15164E-05-2.11761E-18 9.07172E-19
 -1      2630 1.44839E-04-3.20642E-05-4.85234E-05 6.98505E-06-2.63808E-18-5.59889E-18
 -1      2631 9.52364E-05-2.85735E-05-2.85698E-05-6.16657E-09 1.55004E-18-8.00890E-20
 -1      2632 9.52356E-05-2.85729E-05-2.85698E-05 6.85050E-09 4.50917E-19-5.01682E-19
 -1      2633 7.53071E-05-7.00284E-06-2.93576E-05 1.11445E-05 2.93051E-18-3.48140E-18
 -1      2634 7.75124E-05-8.50759E-06-2.95059E-05 1.14687E-05 2.70302E-18-3.51731E-18
 -1      2635 8.04682E-05-1.10177E-05-2.98310E-05 1.13997E-05 2.53575E-18-3.55470E-18
 -1      2636 8.33237E-05-1.28776E-05-3.01302E-05 1.05922E-05 2.26219E-18-3.56395E-18
 -1      2637 7.97391E-05-1.18273E-05-2.91170E-05 1.31125E-05 2.57965E-18-3.40497E-18
 -1      2638 7.52552E-05-5.46488E-06-2.99576E-05 3.51570E-06 3.21804E-18-2.50463E-18
 -1      2639 7.33709E-05-4.44574E-06-2.95602E-05 5.42835E-06 3.15247E-18-2.86978E-18
 -1      2640 8.28975E-05-1.02258E-05-3.11782E-05-1.11886E-06 2.99906E-18-1.40044E-18
 -1      2641 7.85474E-05-7.45537E-06-3.05272E-05 5.06723E-07 3.02241E-18-2.02894E-18
 -1      2642 7.58250E-05-6.90352E-06-2.94632E-05 7.58062E-07 2.86164E-18-2.29990E-18
 -1      2643 9.42624E-05-2.02201E-05-3.16898E-05-1.19415E-05 1.81652E-18 1.76968E-19
 -1      2644 9.43127E-05-1.93861E-05-3.21205E-05-8.43591E-06 2.20096E-18 4.10177E-19
 -1      2645 4.49873E-05-2.12733E-05-9.70716E-06 2.65961E-05-2.76567E-18 5.18638E-18
 -1      2646 3.47076E-05-1.30589E-05-8.72883E-06 1.42846E-05-2.12314E-18 6.03913E-18
 -1      2647 9.34245E-05-2.24643E-05-3.03246E-05-1.82735E-05 6.12297E-19-1.33054E-19
 -1      2648 9.27871E-05-2.07745E-05-3.08376E-05-1.53492E-05 1.28327E-18 4.47190E-20
 -1      2649 8.65564E-05-1.64385E-05-3.00246E-05-1.24935E-05 1.67680E-18-7.19160E-19
 -1      2650 9.34165E-05-1.70849E-05-3.27200E-05-3.80399E-06 2.82881E-18 1.80544E-19
 -1      2651 1.25341E-04-6.79554E-06-5.14363E-05 2.11311E-06-4.39547E-18-2.60087E-18
 -1      2652 1.24427E-04-6.70982E-06-5.10785E-05-2.85980E-06-4.37969E-18-1.65362E-18
 -1      2653 1.01426E-04-3.03230E-05-3.04405E-05-6.58281E-06-1.38003E-18-1.97398E-18
 -1      2654 1.01163E-04-3.08259E-05-3.01724E-05-6.53161E-06-1.27004E-18-1.92640E-18
 -1      2655 1.01365E-04-3.12119E-05-3.00475E-05-6.87547E-06-1.16966E-18-1.67339E-18
 -1      2656 1.00860E-04-3.10946E-05-2.99122E-05-7.10884E-06-1.07230E-18-1.79191E-18
 -1      2657 1.02768E-04-3.15379E-05-3.05204E-05-6.93156E-06-1.21818E-18-1.82925E-18
 -1      2658 1.00605E-04-3.07955E-05-2.99235E-05-7.54952E-06-9.84987E-19-1.63977E-18
 -1      2659 9.98532E-05-3.00946E-05-2.98881E-05-7.68098E-06-8.99307E-19-1.42458E-18
 -1      2660 1.02743E-04-3.16591E-05-3.04497E-05-7.75218E-06-9.70898E-19-1.68052E-18
 -1      2661 9.91204E-05-2.91766E-05-3.00000E-05-7.77625E-06-9.10324E-19-1.32429E-18
 -1      2662 9.82003E-05-2.80529E-05-3.00321E-05-7.43566E-06-9.38873E-19-1.37835E-18
 -1      2663 1.01762E-04-3.02435E-05-3.06324E-05-8.37698E-06-8.97432E-19-1.58573E-18
 -1      2664 9.71533E-05-2.67812E-05-3.01895E-05-6.77475E-06-1.17037E-18-1.38390E-18
 -1      2665 9.62768E-05-2.55953E-05-3.02483E-05-5.73597E-06-1.26794E-18-1.63008E-18
 -1      2666 9.99485E-05-2.76553E-05-3.09706E-05-7.88553E-06-1.22239E-18-1.47467E-18
 -1      2667 9.53145E-05-2.44660E-05-3.03804E-05-4.16415E-06-1.30011E-18-1.56726E-18
 -1      2668 9.47702E-05-2.36989E-05-3.04232E-05-2.49066E-06-1.31280E-18-1.70495E-18
 -1      2669 9.78770E-05-2.48124E-05-3.13223E-05-5.62004E-06-1.38390E-18-1.58602E-18
 -1      2670 9.43432E-05-2.32357E-05-3.04673E-05-2.91455E-07-1.27912E-18-1.73145E-18
 -1      2671 9.43410E-05-2.32473E-05-3.04612E-05 1.63613E-06-1.20236E-18-1.54822E-18
 -1      2672 9.64413E-05-2.29202E-05-3.15356E-05-1.68259E-06-1.26452E-18-1.34996E-18
 -1      2673 9.46754E-05-2.37078E-05-3.03803E-05 3.81809E-06-1.22627E-18-1.61481E-18
 -1      2674 9.52102E-05-2.45100E-05-3.03194E-05 5.45592E-06-8.04343E-19-1.97242E-18
 -1      2675 9.63543E-05-2.29324E-05-3.14941E-05 2.95127E-06-1.11188E-18-1.27670E-18
 -1      2676 9.60903E-05-2.56691E-05-3.01371E-05 6.96443E-06-6.57190E-19-2.18985E-18
 -1      2677 9.69456E-05-2.69258E-05-3.00434E-05 7.90654E-06-2.22382E-19-2.45916E-18
 -1      2678 9.76232E-05-2.48771E-05-3.11833E-05 6.80459E-06-8.69202E-19-1.87747E-18
 -1      2679 9.79152E-05-2.82800E-05-2.98112E-05 8.42108E-06-1.56432E-20-2.53192E-18
 -1      2680 9.87852E-05-2.95295E-05-2.97145E-05 8.56279E-06 1.68976E-19-2.63965E-18
 -1      2681 9.95480E-05-2.78899E-05-3.06953E-05 8.84054E-06-2.86647E-19-2.35351E-18
 -1      2682 9.94438E-05-3.06089E-05-2.94886E-05 8.18528E-06 3.37734E-19-2.70903E-18
 -1      2683 1.00096E-04-3.15127E-05-2.94130E-05 7.69125E-06 4.45391E-19-2.60002E-18
 -1      2684 1.01224E-04-3.07980E-05-3.01556E-05 8.86980E-06 2.59635E-19-1.84011E-18
 -1      2685 1.00281E-04-3.20885E-05-2.92322E-05 6.76969E-06 3.09793E-19-2.56606E-18
 -1      2686 1.00623E-04-3.25302E-05-2.91875E-05 5.92523E-06 4.87795E-19-2.34174E-18
 -1      2687 1.02079E-04-3.27771E-05-2.96766E-05 7.42572E-06 4.19182E-19-2.43155E-18
 -1      2688 1.00394E-04-3.26193E-05-2.90641E-05 4.83105E-06 4.21562E-19-2.32985E-18
 -1      2689 1.00453E-04-3.26619E-05-2.90465E-05 3.90260E-06 9.45269E-20-2.08124E-18
 -1      2690 1.02017E-04-3.35791E-05-2.93178E-05 5.29518E-06 3.36846E-19-2.85446E-18
 -1      2691 9.99709E-05-3.24142E-05-2.89740E-05 2.89676E-06-1.81264E-19-2.02926E-18
 -1      2692 9.98334E-05-3.21993E-05-2.89734E-05 2.06383E-06-3.99241E-19-1.85614E-18
 -1      2693 1.01279E-04-3.34095E-05-2.90852E-05 3.13279E-06 1.37133E-19-2.38663E-18
 -1      2694 9.92628E-05-3.17874E-05-2.89371E-05 1.27363E-06-5.54505E-19-1.68412E-18
 -1      2695 9.90211E-05-3.14552E-05-2.89427E-05 6.22417E-07-5.75650E-19-1.71603E-18
 -1      2696 1.00205E-04-3.26554E-05-2.89547E-05 1.31937E-06-2.57687E-19-1.61941E-18
 -1      2697 9.84747E-05-3.10121E-05-2.89273E-05 7.57098E-08-4.39030E-19-1.29882E-18
 -1      2698 9.81994E-05-3.06638E-05-2.89312E-05-3.75888E-07-2.33471E-19-8.71731E-19
 -1      2699 9.90738E-05-3.16767E-05-2.88923E-05-8.01166E-09-2.75003E-19-1.04408E-18
 -1      2700 9.77358E-05-3.02686E-05-2.89246E-05-7.05630E-07-4.90040E-19-7.05417E-19
 -1      2701 9.74707E-05-2.99616E-05-2.89225E-05-9.78950E-07-1.45820E-19-1.16424E-18
 -1      2702 9.80566E-05-3.07196E-05-2.88670E-05-8.63200E-07-4.20186E-19-6.69716E-19
 -1      2703 9.71079E-05-2.96484E-05-2.89173E-05-1.13979E-06 1.50707E-19-9.98971E-19
 -1      2704 9.68749E-05-2.94060E-05-2.89081E-05-1.27307E-06 1.63992E-19-1.24906E-18
 -1      2705 9.72277E-05-2.99135E-05-2.88562E-05-1.32997E-06-2.14494E-19-3.90091E-19
 -1      2706 9.66071E-05-2.91795E-05-2.89006E-05-1.31529E-06 4.75797E-19-1.43655E-18
 -1      2707 9.64132E-05-2.90034E-05-2.88852E-05-1.34921E-06 8.46266E-19-1.24541E-18
 -1      2708 9.65971E-05-2.93018E-05-2.88467E-05-1.51130E-06 2.27596E-19-1.04947E-18
 -1      2709 9.62242E-05-2.88527E-05-2.88744E-05-1.31601E-06 5.88588E-19-1.13852E-18
 -1      2710 9.60684E-05-2.87341E-05-2.88548E-05-1.28628E-06 3.37518E-19-7.49266E-19
 -1      2711 9.61415E-05-2.88764E-05-2.88323E-05-1.50216E-06 1.02683E-18-1.16291E-18
 -1      2712 9.59398E-05-2.86425E-05-2.88411E-05-1.21091E-06-1.82447E-19-1.37741E-18
 -1      2713 9.58176E-05-2.85688E-05-2.88195E-05-1.14552E-06-1.90445E-19-1.52530E-18
 -1      2714 9.58252E-05-2.86053E-05-2.88117E-05-1.37896E-06-4.25389E-19-2.47691E-19
 -1      2715 9.57324E-05-2.85198E-05-2.88041E-05-1.05154E-06 9.28340E-20-1.06619E-18
 -1      2716 9.56383E-05-2.84784E-05-2.87822E-05-9.70572E-07 3.22250E-19-1.07686E-18
 -1      2717 9.56127E-05-2.84504E-05-2.87861E-05-1.19796E-06 2.75525E-19-2.01626E-20
 -1      2718 9.55831E-05-2.84578E-05-2.87663E-05-8.73450E-07 5.75684E-19-5.47100E-19
 -1      2719 9.55115E-05-2.84382E-05-2.87457E-05-7.90179E-07 8.80899E-19-7.55754E-19
 -1      2720 9.54735E-05-2.83762E-05-2.87576E-05-9.97549E-07 8.39344E-19 4.07981E-19
 -1      2721 9.54765E-05-2.84352E-05-2.87302E-05-6.99184E-07 3.60902E-19-1.03741E-18
 -1      2722 9.54227E-05-2.84293E-05-2.87117E-05-6.21546E-07 3.86836E-19-8.85625E-19
 -1      2723 9.53844E-05-2.83541E-05-2.87284E-05-8.01944E-07 8.29900E-19 5.72021E-19
 -1      2724 9.54007E-05-2.84360E-05-2.86974E-05-5.41507E-07 4.97500E-19-1.33786E-18
 -1      2725 9.53607E-05-2.84382E-05-2.86814E-05-4.73599E-07-3.05491E-20-1.33758E-18
 -1      2726 9.53282E-05-2.83627E-05-2.87003E-05-6.24833E-07 2.89923E-19 6.42438E-20
 -1      2727 9.53470E-05-2.84494E-05-2.86689E-05-4.06366E-07-5.45019E-19-6.36614E-19
 -1      2728 9.53177E-05-2.84556E-05-2.86555E-05-3.49694E-07-7.11047E-19-4.18504E-19
 -1      2729 9.52933E-05-2.83872E-05-2.86747E-05-4.72609E-07-5.14544E-19 9.96065E-20
 -1      2730 9.53091E-05-2.84682E-05-2.86448E-05-2.95256E-07-6.45594E-19-4.07725E-19
 -1      2731 9.52880E-05-2.84760E-05-2.86340E-05-2.49719E-07-5.39347E-20-4.50553E-19
 -1      2732 9.52716E-05-2.84179E-05-2.86521E-05-3.46903E-07-5.36960E-19 3.40455E-19
 -1      2733 9.52826E-05-2.84881E-05-2.86252E-05-2.07013E-07 1.57542E-19-1.28473E-19
 -1      2734 9.52677E-05-2.84960E-05-2.86167E-05-1.71606E-07 4.53490E-19-2.92983E-19
 -1      2735 9.52583E-05-2.84490E-05-2.86329E-05-2.46487E-07 2.55732E-19 1.33995E-18
 -1      2736 9.52642E-05-2.85066E-05-2.86096E-05-1.39064E-07 9.94934E-19-3.45131E-19
 -1      2737 9.52539E-05-2.85139E-05-2.86031E-05-1.12367E-07 1.44215E-18-1.91186E-19
 -1      2738 9.52500E-05-2.84774E-05-2.86171E-05-1.68609E-07 8.56989E-19 1.22374E-18
 -1      2739 9.52517E-05-2.85227E-05-2.85975E-05-8.82671E-08 1.11298E-18-2.62690E-19
 -1      2740 9.52448E-05-2.85289E-05-2.85927E-05-6.87425E-08 4.23721E-19-8.84091E-20
 -1      2741 9.52448E-05-2.85016E-05-2.86045E-05-1.09878E-07 9.71254E-19 1.29968E-18
 -1      2742 9.52433E-05-2.85359E-05-2.85884E-05-5.14186E-08 2.69802E-19-2.23144E-19
 -1      2743 9.52389E-05-2.85410E-05-2.85849E-05-3.75990E-08 9.47692E-19-2.24275E-19
 -1      2744 9.52416E-05-2.85214E-05-2.85946E-05-6.68181E-08 4.17180E-19-3.72887E-19
 -1      2745 9.52379E-05-2.85464E-05-2.85817E-05-2.55547E-08 2.17943E-18 1.74979E-19
 -1      2746 9.52353E-05-2.85505E-05-2.85793E-05-1.61356E-08 2.11951E-18 5.55162E-19
 -1      2747 9.52395E-05-2.85369E-05-2.85870E-05-3.61898E-08 1.48827E-18 2.97964E-19
 -1      2748 9.52347E-05-2.85545E-05-2.85770E-05-8.09385E-09 6.71814E-19-1.06354E-19
 -1      2749 9.52333E-05-2.85576E-05-2.85754E-05-1.97279E-09-1.73938E-19 5.50359E-19
 -1      2750 9.52382E-05-2.85486E-05-2.85813E-05-1.51502E-08 9.33287E-19-1.49741E-18
 -1      2751 9.52329E-05-2.85604E-05-2.85737E-05 3.11581E-09-1.07841E-18 1.39655E-19
 -1      2752 9.52323E-05-2.85628E-05-2.85727E-05 6.83568E-09-1.40960E-18-2.20477E-19
 -1      2753 9.52373E-05-2.85572E-05-2.85773E-05-1.31318E-09-9.87839E-19-1.45459E-18
 -1      2754 9.52321E-05-2.85648E-05-2.85716E-05 9.80682E-09-1.21175E-18-2.27705E-19
 -1      2755 9.52321E-05-2.85665E-05-2.85710E-05 1.18321E-08-3.50970E-19-7.85807E-20
 -1      2756 9.52368E-05-2.85634E-05-2.85744E-05 7.25779E-09-1.20055E-18-1.01855E-18
 -1      2757 9.52319E-05-2.85678E-05-2.85703E-05 1.33328E-08-1.65204E-19-2.16576E-19
 -1      2758 9.52323E-05-2.85690E-05-2.85700E-05 1.42038E-08-1.48142E-19-9.58970E-20
 -1      2759 9.52365E-05-2.85676E-05-2.85725E-05 1.20890E-08-5.89517E-19-5.54602E-19
 -1      2760 9.52322E-05-2.85698E-05-2.85696E-05 1.47208E-08-1.32088E-19-1.85931E-19
 -1      2761 9.52328E-05-2.85707E-05-2.85695E-05 1.48381E-08-3.00523E-19 1.76969E-19
 -1      2762 9.52364E-05-2.85703E-05-2.85712E-05 1.43502E-08-2.98987E-19-1.95465E-18
 -1      2763 9.52327E-05-2.85712E-05-2.85692E-05 1.47268E-08-5.58172E-19-3.52554E-19
 -1      2764 9.52334E-05-2.85717E-05-2.85693E-05 1.43767E-08-7.43162E-20-1.13811E-18
 -1      2765 9.52363E-05-2.85720E-05-2.85704E-05 1.49128E-08-8.28730E-19-2.02833E-18
 -1      2766 9.52334E-05-2.85720E-05-2.85692E-05 1.38867E-08 8.85267E-19-1.33395E-18
 -1      2767 9.52341E-05-2.85724E-05-2.85693E-05 1.32644E-08 1.74677E-18-1.49751E-18
 -1      2768 9.52364E-05-2.85731E-05-2.85700E-05 1.44049E-08 4.39647E-19-1.76129E-18
 -1      2769 9.52341E-05-2.85725E-05-2.85693E-05 1.25620E-08 1.89956E-18-1.83377E-18
 -1      2770 9.52348E-05-2.85728E-05-2.85694E-05 1.17910E-08 8.94026E-19-8.10946E-19
 -1      2771 9.52365E-05-2.85736E-05-2.85698E-05 1.32607E-08 2.22389E-18-1.63386E-18
 -1      2772 9.52348E-05-2.85729E-05-2.85694E-05 1.09774E-08-1.24604E-19-1.24487E-18
 -1      2773 9.52355E-05-2.85732E-05-2.85696E-05 1.01245E-08-6.76657E-19-1.49598E-18
 -1      2774 9.52367E-05-2.85739E-05-2.85698E-05 1.17616E-08 2.25094E-21-2.30407E-18
 -1      2775 9.52356E-05-2.85733E-05-2.85696E-05 9.25509E-09-4.98914E-19-6.03405E-19
 -1      2776 9.52362E-05-2.85735E-05-2.85697E-05 8.34875E-09 1.94971E-19-7.80872E-19
 -1      2777 9.52369E-05-2.85742E-05-2.85698E-05 1.00707E-08-3.98005E-20-2.61441E-18
 -1      2778 1.40283E-04-3.28389E-05-4.68133E-05-9.04161E-06-4.04606E-18 1.36309E-18
 -1      2779 1.43330E-04-4.21220E-05-4.35854E-05-3.83906E-06-3.06298E-18 1.63562E-18
 -1      2780 1.03796E-04-4.25017E-05-2.59784E-05-2.81273E-05-2.49187E-18-9.93199E-19
 -1      2781 9.68185E-05-3.35749E-05-2.67099E-05-2.75676E-05-1.67951E-18-7.17702E-19
 -1      2782 1.30969E-04-5.76858E-05-3.18303E-05 2.31868E-05 4.48080E-19 9.60747E-19
 -1      2783 1.17510E-04-5.46730E-05-2.64485E-05 3.29075E-05 1.97449E-18 2.86482E-19
 -1      2784 9.32100E-05-2.31683E-05-3.00597E-05 1.75294E-05-2.85516E-19 3.53195E-19
 -1      2785 9.40548E-05-2.39880E-05-2.99618E-05 1.93857E-05-9.44609E-19 1.95768E-19
 -1      2786 9.43012E-05-2.36386E-05-3.03309E-05 1.35058E-05-1.70072E-19-1.45478E-19
 -1      2787 9.46546E-05-2.35537E-05-3.04271E-05 1.53755E-05-1.01088E-19-1.35054E-19
 -1      2788 8.80772E-05-2.04007E-05-2.89359E-05 1.58631E-05 1.02710E-19-4.06888E-19
 -1      2789 9.52208E-05-2.47019E-05-3.02588E-05 1.03331E-05 9.29139E-20-6.55429E-20
 -1      2790 9.54598E-05-2.43650E-05-3.04340E-05 1.18727E-05-8.96167E-20-3.14924E-19
 -1      2791 9.07239E-05-2.16993E-05-2.95276E-05 1.23110E-05 1.36783E-20-8.52004E-19
 -1      2792 9.57856E-05-2.57464E-05-3.00433E-05 7.78816E-06-1.06210E-18-6.77225E-20
 -1      2793 9.60242E-05-2.53992E-05-3.02369E-05 9.03120E-06-6.08037E-19-1.77940E-19
 -1      2794 9.26636E-05-2.32939E-05-2.96908E-05 9.51875E-06-4.69816E-19-4.88645E-19
 -1      2795 9.60478E-05-2.65888E-05-2.97865E-05 5.80377E-06-1.04327E-18-2.00819E-19
 -1      2796 9.62920E-05-2.63086E-05-2.99665E-05 6.76713E-06-9.43444E-19-7.85369E-20
 -1      2797 9.39574E-05-2.47188E-05-2.96481E-05 7.27488E-06-9.48787E-19-4.89291E-19
 -1      2798 9.61043E-05-2.72078E-05-2.95394E-05 4.28780E-06-4.58119E-19-3.88403E-19
 -1      2799 9.63383E-05-2.70038E-05-2.96932E-05 5.01551E-06-3.58718E-19-3.95453E-19
 -1      2800 9.47437E-05-2.58381E-05-2.95156E-05 5.50038E-06-4.04644E-19-3.54143E-19
 -1      2801 9.60436E-05-2.76408E-05-2.93236E-05 3.14602E-06-1.12110E-18-9.69421E-19
 -1      2802 9.62534E-05-2.74999E-05-2.94486E-05 3.68720E-06-9.59358E-19-4.71246E-19
 -1      2803 9.51792E-05-2.66613E-05-2.93563E-05 4.11975E-06-2.22386E-19-4.20339E-19
 -1      2804 9.59284E-05-2.79359E-05-2.91449E-05 2.29406E-06-1.51326E-19-2.03710E-18
 -1      2805 9.61070E-05-2.78411E-05-2.92435E-05 2.69288E-06-3.82438E-19-1.58283E-18
 -1      2806 9.53920E-05-2.72448E-05-2.92017E-05 3.06025E-06-6.80356E-19-1.49447E-18
 -1      2807 9.57969E-05-2.81345E-05-2.90018E-05 1.66192E-06-2.92624E-19-1.99674E-18
 -1      2808 9.59437E-05-2.80714E-05-2.90780E-05 1.95452E-06-2.54208E-19-2.04299E-18
 -1      2809 9.54734E-05-2.76504E-05-2.90653E-05 2.25569E-06-1.00881E-19-2.18792E-18
 -1      2810 9.56656E-05-2.82728E-05-2.88849E-05 1.17520E-06-2.60164E-19-1.36795E-18
 -1      2811 9.57861E-05-2.82297E-05-2.89452E-05 1.39697E-06-4.88746E-19-2.15769E-18
 -1      2812 9.54828E-05-2.79343E-05-2.89486E-05 1.63765E-06-6.18711E-19-1.45847E-18
 -1      2813 9.55578E-05-2.83608E-05-2.88000E-05 8.37128E-07-1.99409E-18-1.02472E-18
 -1      2814 9.56463E-05-2.83330E-05-2.88429E-05 9.90686E-07-9.06220E-19-1.49988E-18
 -1      2815 9.54564E-05-2.81300E-05-2.88547E-05 1.17610E-06-9.53563E-19-1.89341E-18
 -1      2816 9.54685E-05-2.84208E-05-2.87355E-05 5.88866E-07-1.09844E-18-1.83919E-18
 -1      2817 9.55354E-05-2.84017E-05-2.87674E-05 7.00455E-07-1.25655E-18-1.40889E-18
 -1      2818 9.54174E-05-2.82602E-05-2.87825E-05 8.42846E-07-1.54644E-18-2.26298E-18
 -1      2819 9.53980E-05-2.84625E-05-2.86871E-05 4.07568E-07 1.07339E-18-2.03359E-18
 -1      2820 9.54475E-05-2.84490E-05-2.87105E-05 4.88387E-07-4.71046E-19-2.01424E-18
 -1      2821 9.53770E-05-2.83508E-05-2.87264E-05 5.95937E-07-4.96841E-19-3.43457E-18
 -1      2822 9.53442E-05-2.84919E-05-2.86513E-05 2.76031E-07-1.34160E-19-1.35112E-18
 -1      2823 9.53801E-05-2.84821E-05-2.86683E-05 3.34198E-07 8.87773E-19-1.51850E-18
 -1      2824 9.53406E-05-2.84145E-05-2.86834E-05 4.14192E-07 2.16382E-19-2.07107E-18
 -1      2825 9.53045E-05-2.85131E-05-2.86250E-05 1.81431E-07-1.44160E-18-2.48525E-19
 -1      2826 9.53298E-05-2.85057E-05-2.86372E-05 2.22923E-07-8.68416E-19-5.60999E-19
 -1      2827 9.53102E-05-2.84598E-05-2.86509E-05 2.81471E-07-7.54699E-19-1.31538E-18
 -1      2828 9.52760E-05-2.85287E-05-2.86061E-05 1.14162E-07-2.87033E-18-5.47172E-20
 -1      2829 9.52934E-05-2.85229E-05-2.86147E-05 1.43434E-07-2.36787E-18-2.23481E-19
 -1      2830 9.52863E-05-2.84923E-05-2.86266E-05 1.85524E-07-2.19241E-18-2.06098E-18
 -1      2831 9.52555E-05-2.85407E-05-2.85921E-05 6.51899E-08-1.15905E-18 1.28081E-18
 -1      2832 9.52674E-05-2.85361E-05-2.85983E-05 8.61830E-08-1.77675E-18 8.85432E-19
 -1      2833 9.52678E-05-2.85160E-05-2.86083E-05 1.15806E-07-2.67240E-18-1.34576E-18
 -1      2834 9.52427E-05-2.85491E-05-2.85830E-05 3.36395E-08 6.77518E-19 2.09916E-18
 -1      2835 9.52498E-05-2.85456E-05-2.85869E-05 4.70849E-08 2.87732E-20 2.15399E-18
 -1      2836 9.52546E-05-2.85334E-05-2.85951E-05 6.70321E-08-1.12112E-18 1.09535E-19
 -1      2837 9.52347E-05-2.85555E-05-2.85768E-05 1.26314E-08 6.48113E-19 1.81861E-18
 -1      2838 9.52388E-05-2.85527E-05-2.85793E-05 2.14259E-08 8.58306E-19 2.01542E-18
 -1      2839 9.52456E-05-2.85455E-05-2.85860E-05 3.46617E-08 4.98205E-19 1.13673E-18
 -1      2840 9.52300E-05-2.85602E-05-2.85728E-05-7.88834E-10 8.64501E-19 2.90760E-18
 -1      2841 9.52321E-05-2.85581E-05-2.85743E-05 4.70801E-09 9.82104E-19 1.91767E-18
 -1      2842 9.52396E-05-2.85542E-05-2.85797E-05 1.30907E-08 5.11535E-19 1.48097E-18
 -1      2843 9.52277E-05-2.85637E-05-2.85703E-05-8.85399E-09 3.90295E-19 1.79398E-18
 -1      2844 9.52285E-05-2.85620E-05-2.85712E-05-5.66182E-09 1.38610E-18 2.53092E-18
 -1      2845 9.52359E-05-2.85604E-05-2.85754E-05-7.12512E-10 1.19058E-18 1.49437E-18
 -1      2846 9.52271E-05-2.85663E-05-2.85689E-05-1.32228E-08 7.71210E-19 6.08365E-19
 -1      2847 9.52269E-05-2.85650E-05-2.85693E-05-1.16034E-08 1.05801E-18 1.43457E-18
 -1      2848 9.52338E-05-2.85648E-05-2.85725E-05-9.02467E-09 8.64728E-19-1.01938E-18
 -1      2849 9.52274E-05-2.85682E-05-2.85682E-05-1.51119E-08 8.30327E-19 8.98538E-19
 -1      2850 9.52267E-05-2.85672E-05-2.85683E-05-1.45323E-08 3.55661E-19 4.28201E-19
 -1      2851 9.52328E-05-2.85678E-05-2.85708E-05-1.35398E-08 6.98989E-19-9.96756E-19
 -1      2852 9.52283E-05-2.85695E-05-2.85680E-05-1.54016E-08 1.43926E-18 1.10596E-18
 -1      2853 9.52273E-05-2.85687E-05-2.85679E-05-1.54772E-08 1.82166E-18 1.25427E-18
 -1      2854 9.52325E-05-2.85698E-05-2.85698E-05-1.55035E-08 8.92642E-19 1.28590E-18
 -1      2855 9.52296E-05-2.85705E-05-2.85682E-05-1.46528E-08 7.82254E-19 1.27468E-18
 -1      2856 9.52285E-05-2.85699E-05-2.85679E-05-1.51551E-08 6.54420E-19 3.34868E-19
 -1      2857 9.52327E-05-2.85712E-05-2.85693E-05-1.58003E-08 1.34276E-18-3.96034E-19
 -1      2858 9.52309E-05-2.85712E-05-2.85685E-05-1.33703E-08 8.82430E-20 1.09968E-18
 -1      2859 9.52298E-05-2.85707E-05-2.85682E-05-1.40680E-08 3.07961E-19 1.80305E-18
 -1      2860 9.52332E-05-2.85720E-05-2.85691E-05-1.50548E-08 5.23016E-19 4.32166E-20
 -1      2861 9.52323E-05-2.85717E-05-2.85688E-05-1.18067E-08 1.43020E-18-3.52504E-19
 -1      2862 9.52312E-05-2.85713E-05-2.85686E-05-1.26092E-08 1.14194E-18 1.94204E-19
 -1      2863 9.52338E-05-2.85725E-05-2.85691E-05-1.37397E-08 1.08297E-18-1.04389E-19
 -1      2864 9.52335E-05-2.85721E-05-2.85692E-05-1.01079E-08 3.13165E-18-1.19192E-18
 -1      2865 9.52326E-05-2.85718E-05-2.85689E-05-1.09587E-08 2.59364E-18-1.17957E-18
 -1      2866 9.52345E-05-2.85729E-05-2.85693E-05-1.21227E-08 2.54762E-18-2.25939E-18
 -1      2867 9.52347E-05-2.85725E-05-2.85695E-05-8.33408E-09 1.51107E-18-1.64193E-18
 -1      2868 9.52339E-05-2.85722E-05-2.85693E-05-9.20998E-09 2.35606E-18-1.35977E-18
 -1      2869 9.52353E-05-2.85731E-05-2.85695E-05-1.03577E-08 2.63889E-18-2.25738E-18
 -1      2870 9.52360E-05-2.85731E-05-2.85698E-05-6.80882E-09 9.03276E-19-8.25634E-19
 -1      2871 9.52353E-05-2.85729E-05-2.85696E-05-7.73691E-09 4.94829E-19-3.99919E-19
 -1      2872 9.52362E-05-2.85737E-05-2.85697E-05-8.77492E-09 6.19769E-19-1.42644E-18
 -1      2873 9.52372E-05-2.85744E-05-2.85698E-05-7.40220E-09-5.13914E-20 7.50902E-19
 -1      2874 9.52431E-05-2.85802E-05-2.85698E-05-6.16224E-10 1.07771E-18 5.45941E-19
 -1      2875 9.52429E-05-2.85800E-05-2.85698E-05-1.79688E-09 7.86768E-19-4.11935E-19
 -1      2876 9.52362E-05-2.85736E-05-2.85697E-05 7.73457E-09 6.02769E-19-8.33671E-19
 -1      2877 9.52366E-05-2.85737E-05-2.85698E-05 7.08086E-09 4.91114E-19-1.03019E-18
 -1      2878 9.52372E-05-2.85744E-05-2.85698E-05 8.55677E-09 2.82012E-19-2.27842E-18
 -1      2879 9.52418E-05-2.85789E-05-2.85698E-05-5.21482E-09 6.64185E-19 2.02121E-18
 -1      2880 9.52412E-05-2.85783E-05-2.85698E-05-6.01883E-09 1.04492E-18-1.15869E-20
 -1      2881 9.52429E-05-2.85800E-05-2.85698E-05 1.90523E-09 1.23305E-19-8.40113E-19
 -1      2882 9.52430E-05-2.85802E-05-2.85698E-05 7.29812E-10 9.51357E-19 5.04775E-19
 -1      2883 9.52438E-05-2.85801E-05-2.85702E-05 6.80178E-11 1.16184E-18 2.84341E-19
 -1      2884 9.52427E-05-2.85798E-05-2.85698E-05-3.07939E-09-1.73101E-19-3.06596E-19
 -1      2885 9.52423E-05-2.85794E-05-2.85698E-05-4.13499E-09 1.68646E-19 1.97890E-18
 -1      2886 9.52426E-05-2.85791E-05-2.85701E-05-5.11003E-09-2.53353E-19 1.61391E-18
 -1      2887 9.52435E-05-2.85799E-05-2.85701E-05-2.65662E-09 8.54666E-19 2.76178E-19
 -1      2888 9.51921E-05-2.84844E-05-2.83852E-05-2.38883E-05-8.30529E-19-5.05692E-19
 -1      2889 9.24974E-05-2.43083E-05-2.90926E-05-2.18058E-05-8.25262E-20-3.04667E-19
 -1      2890 8.38135E-05-1.89699E-05-2.77309E-05-1.95859E-05 4.27474E-19-1.22923E-18
 -1      2891 3.77744E-05-1.60641E-05-8.66772E-06-2.84090E-05 2.39128E-18 5.69651E-18
 -1      2892 4.69220E-05-2.22256E-05-1.02560E-05-3.76101E-05 2.63353E-18 5.01592E-18
 -1      2893 9.52423E-05-2.85794E-05-2.85698E-05 4.18004E-09 2.87327E-19-1.85951E-18
 -1      2894 9.52426E-05-2.85798E-05-2.85698E-05 3.15456E-09 3.60928E-19-1.13154E-18
 -1      2895 9.52435E-05-2.85798E-05-2.85701E-05 2.75728E-09 5.30538E-19-1.36069E-18
 -1      2896 9.52412E-05-2.85783E-05-2.85698E-05 6.03374E-09 6.86091E-19-8.41149E-19
 -1      2897 9.52418E-05-2.85789E-05-2.85698E-05 5.24295E-09 2.08933E-19-9.07051E-20
 -1      2898 9.52426E-05-2.85791E-05-2.85701E-05 5.15726E-09 1.05128E-18-1.20931E-18
 -1      2899 9.52396E-05-2.85768E-05-2.85698E-05 7.18034E-09 7.17965E-19-1.11729E-18
 -1      2900 9.52404E-05-2.85775E-05-2.85698E-05 6.76543E-09 1.64889E-18-6.92303E-19
 -1      2901 9.52412E-05-2.85778E-05-2.85700E-05 7.02516E-09 1.08329E-18-1.16595E-19
 -1      2902 1.45643E-04-6.52051E-05-3.47673E-05 6.01398E-06 3.61895E-19-4.10091E-18
 -1      2903 1.35000E-04-6.41333E-05-2.98844E-05 1.78536E-05-1.24630E-18-3.14747E-18
 -1      2904 9.94192E-05-2.44860E-05-3.21476E-05-8.86460E-06-1.88184E-18-2.86029E-18
 -1      2905 9.99062E-05-2.64427E-05-3.15348E-05-7.70897E-06-1.76023E-18-2.56710E-18
 -1      2906 2.92951E-05-9.65399E-06-7.80272E-06-1.17804E-06-8.48356E-21 6.68944E-18
 -1      2907 3.12312E-05-1.07999E-05-8.22333E-06-1.67527E-05 1.28982E-18 5.92965E-18
 -1      2908 1.28794E-04-1.10379E-05-5.11750E-05-8.67234E-06-4.83825E-18-4.51998E-19
 -1      2909 1.35246E-04-2.06852E-05-4.94281E-05-1.16594E-05-4.58859E-18 2.31664E-19
 -1      2910 2.96434E-05-8.40768E-06-8.51401E-06-3.78746E-06 7.51159E-19-6.77224E-18
 -1      2911 3.67825E-05-1.26075E-05-9.88318E-06-1.72327E-05 3.35637E-20-6.20642E-18
 -1      2912 9.29630E-05-2.47525E-05-2.92012E-05 2.18566E-05-1.78871E-18 3.91333E-19
 -1      2913 9.51691E-05-2.76284E-05-2.88117E-05 2.34284E-05-2.51012E-18 1.78195E-19
 -1      2914 8.53459E-05-2.07910E-05-2.76060E-05 2.03208E-05-1.26689E-18 1.18539E-18
 -1      2915 9.57959E-05-3.10110E-05-2.75012E-05 2.62451E-05-3.47321E-18-4.44322E-19
 -1      2916 1.00844E-04-3.76813E-05-2.68684E-05 2.68355E-05-3.67099E-18-8.88035E-19
 -1      2917 8.40956E-05-2.51535E-05-2.52645E-05 2.58498E-05-3.27545E-18 5.11634E-19
 -1      2918 9.68470E-05-2.02908E-05-3.28226E-05-8.67379E-06-1.42487E-18-3.55463E-18
 -1      2919 9.52374E-05-2.85746E-05-2.85698E-05 7.28630E-09 4.91389E-19-1.80332E-18
 -1      2920 6.13016E-05-3.03786E-05-1.26109E-05-4.25651E-05 3.60307E-18 4.14972E-18
 -1      2921 7.93647E-05-4.04693E-05-1.65506E-05-4.57257E-05 3.77491E-18 2.73316E-18
 -1      2922 1.17592E-04-5.42847E-05-2.65293E-05-2.73756E-05-3.25494E-18-9.08046E-19
 -1      2923 1.00917E-04-2.82163E-05-3.11294E-05-7.26869E-06-1.58758E-18-2.27034E-18
 -1      2924 1.00896E-04-2.93549E-05-3.06988E-05-6.62687E-06-1.46916E-18-2.12962E-18
 -1      2925 1.02032E-04-2.99521E-05-3.08800E-05-6.68095E-06-1.44966E-18-2.05841E-18
 -1      2926 1.00650E-04-2.70977E-05-3.15272E-05-7.23288E-06-1.49641E-18-2.49250E-18
 -1      2927 7.29155E-05-4.61922E-06-2.93448E-05 8.18895E-06 3.23754E-18-3.05299E-18
 -1      2928 7.34850E-05-5.15712E-06-2.92468E-05 9.58611E-06 3.06135E-18-3.30435E-18
 -1      2929 7.42205E-05-7.34520E-06-2.86144E-05 1.16139E-05 2.89491E-18-3.29300E-18
 -1      2930 7.22884E-05-5.18514E-06-2.86780E-05 6.98535E-06 3.00396E-18-2.95348E-18
 -1      2931 3.41129E-05-1.11564E-05-9.53165E-06 2.53734E-05 2.71411E-18-5.86867E-18
 -1      2932 2.84747E-05-7.78505E-06-8.23572E-06 9.61712E-06 1.84136E-18-6.73645E-18
 -1      2933 8.12689E-05-3.55895E-05-1.87726E-05-3.42217E-05-2.12965E-18-3.69973E-18
 -1      2934 9.60208E-05-4.38145E-05-2.22861E-05-3.28998E-05-2.42961E-18-2.50298E-18
 -1      2935 1.43000E-04-4.95649E-05-4.05470E-05 3.48618E-06-2.01855E-18 1.29596E-18
 -1      2936 1.38839E-04-5.44055E-05-3.61121E-05 1.08670E-05-6.94938E-19 1.40311E-18
 -1      2937 1.38826E-04-4.55245E-05-4.01048E-05-3.28042E-06-1.75706E-18 1.61646E-18
 -1      2938 4.78782E-05-1.79670E-05-1.20075E-05-2.51348E-05-7.82288E-19-5.81975E-18
 -1      2939 6.54122E-05-2.83998E-05-1.55026E-05-3.24862E-05-1.51449E-18-4.84810E-18
 -1      2940 7.20541E-05-2.56466E-05-1.94839E-05-2.97283E-05-1.34742E-18-3.72620E-18
 -1      2941 4.83811E-05-1.33304E-05-1.44395E-05-1.90495E-05-5.00808E-20-5.44939E-18
 -1      2942 6.35887E-05-2.92442E-05-1.45681E-05 4.43061E-05 3.42646E-18-3.35859E-18
 -1      2943 4.82686E-05-1.93070E-05-1.17089E-05 3.66260E-05 3.52260E-18-4.65021E-18
 -1      2944 9.47805E-05-2.05926E-05-3.17939E-05 8.20031E-07 6.56052E-19-3.68007E-18
 -1      2945 9.60529E-05-2.14371E-05-3.20062E-05-1.23687E-06 2.04334E-19-3.61324E-18
 -1      2946 1.39155E-04-3.59538E-05-4.44240E-05 8.24563E-06-1.81064E-18-5.44494E-18
 -1      2947 1.37460E-04-2.59311E-05-4.85242E-05 1.03964E-05-2.80304E-18-4.77949E-18
 -1      2948 9.82356E-05-4.78614E-05-2.18631E-05 4.28703E-05 2.68361E-18-9.19243E-19
 -1      2949 8.11103E-05-3.88559E-05-1.75053E-05 4.47057E-05 3.31688E-18-2.20583E-18
 -1      2950 1.38942E-04-5.35077E-05-3.65306E-05-5.76432E-06 1.27084E-18-4.68600E-18
 -1      2951 1.40224E-04-4.76491E-05-4.03466E-05 1.42752E-06-4.61765E-19-5.43578E-18
 -1      2952 1.32680E-04-1.67877E-05-5.01807E-05 1.06433E-05-3.53509E-18-4.29520E-18
 -1      2953 1.28109E-04-9.47851E-06-5.15484E-05 6.77449E-06-4.29742E-18-3.42890E-18
 -1      2954 1.20744E-04-1.02646E-05-4.77133E-05 5.32555E-06-3.46119E-18-3.30563E-18
 -1      2955 1.21235E-04-5.68601E-05-2.74854E-05 2.36799E-05-2.88383E-18-2.44943E-18
 -1      2956 1.17396E-04-5.80876E-05-2.55001E-05 2.75358E-05-2.30033E-18-1.78502E-18
 -1      2957 9.89665E-05-4.92343E-05-2.05507E-05 3.38593E-05-3.83484E-18-4.00223E-20
 -1      2958 9.69861E-05-2.19781E-05-3.21391E-05-3.31068E-06-1.12712E-19-3.52450E-18
 -1      2959 9.77181E-05-2.25797E-05-3.22497E-05-5.08564E-06-6.20547E-19-3.53235E-18
 -1      2960 9.85270E-05-2.44296E-05-3.17527E-05-1.83416E-06-2.61924E-20-3.19157E-18
 -1      2961 8.63852E-05-1.66859E-05-2.99130E-05 1.13548E-05 2.13028E-18-3.33203E-18
 -1      2962 8.63162E-05-1.51609E-05-3.05334E-05 9.12640E-06 2.02394E-18-3.52348E-18
 -1      2963 8.89275E-05-1.68211E-05-3.08722E-05 7.46552E-06 1.67503E-18-3.60227E-18
 -1      2964 8.72331E-05-1.35374E-05-3.15831E-05-4.43927E-06 2.69493E-18-6.38752E-19
 -1      2965 3.66043E-05-6.83296E-06-1.20397E-05 3.13084E-06 1.53607E-18-6.16005E-18
 -1      2966 1.54565E-04-6.27427E-05-3.90212E-05-8.79091E-06 1.81732E-18-5.13853E-18
 -1      2967 9.52412E-05-2.85779E-05-2.85700E-05-7.01059E-09 1.31012E-18-5.81765E-19
 -1      2968 9.52405E-05-2.85776E-05-2.85698E-05-6.76479E-09 1.48200E-18-9.17543E-19
 -1      2969 9.52397E-05-2.85768E-05-2.85698E-05-7.20083E-09 1.14281E-18-8.42718E-19
 -1      2970 1.32663E-04-2.74670E-05-4.54281E-05-1.14276E-05-3.44425E-18 5.35113E-19
 -1      2971 8.33279E-05-2.62086E-05-2.45026E-05-2.73563E-05-1.04839E-18-1.95617E-18
 -1      2972 1.25150E-04-5.84646E-05-2.82093E-05-2.75704E-05 3.87184E-18-1.31814E-18
 -1      2973 1.32708E-04-5.80554E-05-3.24821E-05-1.77756E-05 2.60108E-18-3.25907E-18
 -1      2974 1.09813E-04-5.00621E-05-2.53286E-05 3.40942E-05 2.68822E-18-2.11917E-19
 -1      2975 1.11678E-04-4.72057E-05-2.70537E-05 2.66519E-05-3.92049E-18-1.61587E-18
 -1      2976 8.74883E-05-4.16393E-05-1.93340E-05-4.14190E-05 4.33871E-18 1.29490E-18
 -1      2977 9.49304E-05-4.76963E-05-1.96554E-05-4.28392E-05 4.07719E-18 1.39625E-18
 -1      2978 1.33053E-04-5.50650E-05-3.33936E-05-9.66384E-06 2.18615E-18-4.10917E-18
 -1      2979 9.52389E-05-2.85761E-05-2.85698E-05-7.47601E-09 9.95388E-19 8.96534E-19
 -1      2980 9.52380E-05-2.85752E-05-2.85698E-05-7.47816E-09 3.51021E-19 8.60213E-19
 -1      2981 9.52376E-05-2.85749E-05-2.85698E-05-8.24309E-09 6.51711E-19 3.71267E-19
 -1      2982 9.52395E-05-2.85765E-05-2.85699E-05-8.05830E-09 1.46550E-18-5.82867E-19
 -1      2983 4.08007E-05-1.23908E-05-1.15167E-05-2.03276E-05 1.66021E-18 5.25965E-18
 -1      2984 9.52382E-05-2.85754E-05-2.85698E-05 7.31035E-09 2.85365E-19-1.15699E-18
 -1      2985 1.29005E-04-2.20256E-05-4.61992E-05 1.16773E-05-2.44602E-18-4.45021E-18
 -1      2986 9.33979E-05-3.88016E-05-2.33541E-05 3.08493E-05-4.10107E-18-4.16211E-19
 -1      2987 1.21702E-04-1.10266E-05-4.78692E-05-6.09721E-06-3.93404E-18-1.26531E-18
 -1      2988 9.52381E-05-2.85751E-05-2.85698E-05 8.30642E-09 5.11386E-20-2.68762E-18
 -1      2989 9.52390E-05-2.85761E-05-2.85698E-05 7.68356E-09 6.85149E-19-1.27611E-18
 -1      2990 9.52396E-05-2.85764E-05-2.85699E-05 8.22427E-09 1.44263E-18-1.64027E-18
 -1      2991 9.52380E-05-2.85750E-05-2.85698E-05 8.93308E-09 6.74806E-19-3.09309E-18
 -1      2992 8.36704E-05-1.24232E-05-3.04833E-05-5.62670E-06 2.39683E-18-1.15663E-18
 -1      2993 9.81860E-05-2.28039E-05-3.23019E-05-7.22112E-06-1.09825E-18-3.29411E-18
 -1      2994 9.12735E-05-1.84217E-05-3.12341E-05 5.24067E-06 1.36472E-18-3.52346E-18
 -1      2995 9.32231E-05-1.96498E-05-3.15321E-05 3.18305E-06 9.89731E-19-3.69693E-18
 -1      2996 9.61576E-05-2.30371E-05-3.13621E-05 2.63833E-06 7.43615E-19-3.38072E-18
 -1      2997 9.21401E-05-2.05575E-05-3.07220E-05 7.39490E-06 1.45573E-18-3.35755E-18
 -1      2998 1.33172E-04-5.50035E-05-3.34344E-05 1.34710E-05 5.06737E-19 1.04635E-18
 -1      2999 1.35741E-04-4.08690E-05-4.08644E-05 7.20959E-06-6.20981E-19-5.05896E-18
 -1      3000 6.04417E-05-2.60443E-05-1.41892E-05-3.80144E-05 3.73774E-18 3.86491E-18
 -1      3001 7.65702E-05-3.23795E-05-1.84177E-05 4.10591E-05 3.72186E-18-2.64211E-18
 -1      3002 1.09606E-04-5.41376E-05-2.39364E-05-3.80969E-05 3.70556E-18 4.18196E-19
 -1      3003 7.91861E-05-3.93949E-05-1.69936E-05 3.59475E-05-3.84362E-18 7.91658E-19
 -1      3004 5.70611E-05-2.84060E-05-1.16080E-05 3.18216E-05-3.35224E-18 3.59460E-18
 -1      3005 5.96315E-05-2.30574E-05-1.51010E-05 2.74540E-05-3.87878E-18 3.09114E-18
 -1      3006 8.74161E-05-4.01895E-05-1.99685E-05 3.33138E-05-4.08863E-18 1.88888E-19
 -1      3007 4.08373E-05-5.10876E-06-1.49884E-05 9.32697E-06 2.16318E-18-5.44822E-18
 -1      3008 4.23952E-05-5.81881E-06-1.52900E-05-3.86698E-06 1.30934E-18-5.38342E-18
 -1      3009 7.47746E-05-7.88015E-06-2.87031E-05-2.01492E-06 2.48764E-18-2.30618E-18
 -1      3010 7.13643E-05-5.93187E-06-2.80829E-05 1.20867E-06 2.64746E-18-2.70328E-18
 -1      3011 4.01798E-05-1.07263E-05-1.19827E-05 7.30750E-06-1.64023E-18 4.82533E-18
 -1      3012 4.33745E-05-9.45928E-06-1.41687E-05-1.35823E-05 1.03957E-18 4.39938E-18
 -1      3013 4.89893E-05-1.45166E-05-1.44814E-05-2.54954E-05 2.20070E-18 4.19186E-18
 -1      3014 1.04924E-04-3.29257E-05-3.08495E-05-7.43083E-06-8.74997E-19-1.51447E-18
 -1      3015 1.04661E-04-3.25688E-05-3.09111E-05-7.90229E-06-8.36821E-19-1.54734E-18
 -1      3016 1.04520E-04-3.18558E-05-3.11671E-05-8.64945E-06-8.39220E-19-1.32936E-18
 -1      3017 1.03763E-04-3.05946E-05-3.13466E-05-8.81805E-06-9.87988E-19-1.36970E-18
 -1      3018 1.06784E-04-3.30575E-05-3.15649E-05-8.41474E-06-8.22533E-19-1.33172E-18
 -1      3019 1.02854E-04-2.89849E-05-3.17083E-05-8.91066E-06-1.16898E-18-1.31559E-18
 -1      3020 1.01777E-04-2.71577E-05-3.19388E-05-8.32144E-06-1.36693E-18-1.36978E-18
 -1      3021 1.05741E-04-3.04002E-05-3.22687E-05-9.43748E-06-1.06519E-18-1.02410E-18
 -1      3022 1.00399E-04-2.51624E-05-3.22963E-05-7.19299E-06-1.31132E-18-1.31463E-18
 -1      3023 9.94231E-05-2.35031E-05-3.24853E-05-5.58966E-06-1.30062E-18-1.23502E-18
 -1      3024 1.03387E-04-2.61531E-05-3.30855E-05-8.59974E-06-1.36184E-18-1.09411E-18
 -1      3025 9.83817E-05-2.21429E-05-3.27002E-05-3.20702E-06-1.36716E-18-1.24404E-18
 -1      3026 9.79398E-05-2.14391E-05-3.27676E-05-9.20810E-07-1.40426E-18-1.14019E-18
 -1      3027 1.00878E-04-2.21921E-05-3.37342E-05-5.03462E-06-1.26547E-18-1.03486E-18
 -1      3028 9.78565E-05-2.14352E-05-3.27377E-05 2.04532E-06-1.58847E-18-1.35773E-18
 -1      3029 9.82033E-05-2.21549E-05-3.26242E-05 4.31029E-06-1.34066E-18-1.66033E-18
 -1      3030 9.97193E-05-2.06635E-05-3.38903E-05 4.83331E-07-1.52258E-18-1.36025E-18
 -1      3031 9.91339E-05-2.35555E-05-3.23375E-05 6.67579E-06-1.15383E-18-1.64776E-18
 -1      3032 1.00032E-04-2.52941E-05-3.20867E-05 8.19069E-06-7.60537E-19-1.96279E-18
 -1      3033 1.00599E-04-2.22357E-05-3.35887E-05 5.99740E-06-1.25954E-18-1.57396E-18
 -1      3034 1.01301E-04-2.73722E-05-3.16395E-05 9.20796E-06-3.66008E-19-2.01580E-18
 -1      3035 1.02296E-04-2.93482E-05-3.13222E-05 9.63339E-06-4.65517E-20-2.02098E-18
 -1      3036 1.02908E-04-2.63920E-05-3.27781E-05 9.38104E-06-4.44892E-19-1.56245E-18
 -1      3037 1.03182E-04-3.11888E-05-3.08333E-05 9.31701E-06 6.42182E-21-2.11818E-18
 -1      3038 1.03866E-04-3.27152E-05-3.05264E-05 8.81659E-06 3.03282E-19-1.92191E-18
 -1      3039 1.05125E-04-3.09894E-05-3.17358E-05 9.91629E-06-5.06069E-21-1.87365E-18
 -1      3040 1.04010E-04-3.37838E-05-3.01012E-05 7.66866E-06 1.47962E-19-2.13233E-18
 -1      3041 1.04214E-04-3.45613E-05-2.98571E-05 6.65513E-06 3.00669E-19-2.42215E-18
 -1      3042 1.06152E-04-3.43772E-05-3.07251E-05 8.20395E-06 1.76977E-19-2.66044E-18
 -1      3043 1.03696E-04-3.48094E-05-2.95426E-05 5.26254E-06 3.00303E-19-2.79008E-18
 -1      3044 1.03475E-04-3.49033E-05-2.93753E-05 4.13066E-06 2.56456E-19-2.91436E-18
 -1      3045 1.05736E-04-3.58936E-05-2.99174E-05 5.49867E-06-7.21074E-20-2.49909E-18
 -1      3046 1.02577E-04-3.45650E-05-2.91709E-05 2.88975E-06 4.39142E-19-2.69990E-18
 -1      3047 1.02095E-04-3.42114E-05-2.90711E-05 1.89139E-06 3.98569E-19-2.29612E-18
 -1      3048 1.04267E-04-3.57785E-05-2.93564E-05 2.81204E-06 3.48351E-19-2.57659E-18
 -1      3049 1.01098E-04-3.35794E-05-2.89551E-05 9.69565E-07 3.43832E-19-1.66670E-18
 -1      3050 1.00522E-04-3.30243E-05-2.89042E-05 2.11729E-07 2.91530E-19-1.13588E-18
 -1      3051 1.02334E-04-3.46696E-05-2.90135E-05 6.76546E-07 9.20410E-19-1.85589E-18
 -1      3052 9.96122E-05-3.23287E-05-2.88484E-05-3.80693E-07 3.48812E-20-6.52931E-19
 -1      3053 9.90587E-05-3.17482E-05-2.88270E-05-8.88025E-07 1.04767E-19-5.06293E-19
 -1      3054 1.00409E-04-3.31754E-05-2.88324E-05-7.70251E-07 5.76044E-19-1.11942E-18
 -1      3055 9.83197E-05-3.11227E-05-2.88061E-05-1.20917E-06-1.14665E-19-1.57047E-19
 -1      3056 9.78491E-05-3.06153E-05-2.87989E-05-1.50196E-06-2.50037E-19-5.62793E-22
 -1      3057 9.87577E-05-3.17053E-05-2.87540E-05-1.60971E-06 2.95666E-19-5.83637E-19
 -1      3058 9.72995E-05-3.01194E-05-2.87950E-05-1.62694E-06-3.77973E-19 8.18069E-20
 -1      3059 9.69309E-05-2.97242E-05-2.87921E-05-1.75762E-06-5.24174E-21-4.51715E-19
 -1      3060 9.74749E-05-3.04683E-05-2.87313E-05-1.98983E-06-2.44165E-19-2.55853E-19
 -1      3061 9.65503E-05-2.93671E-05-2.87937E-05-1.75513E-06 6.44347E-20-5.81253E-19
 -1      3062 9.62782E-05-2.90860E-05-2.87898E-05-1.77452E-06 7.87085E-19-4.75700E-19
 -1      3063 9.65535E-05-2.95350E-05-2.87329E-05-2.06102E-06 9.51994E-20-2.37753E-19
 -1      3064 9.60315E-05-2.88508E-05-2.87911E-05-1.69755E-06 1.20040E-18-6.33472E-19
 -1      3065 9.58396E-05-2.86675E-05-2.87842E-05-1.64772E-06 6.39531E-19-6.79762E-19
 -1      3066 9.59348E-05-2.88921E-05-2.87401E-05-1.94474E-06 7.74191E-19 7.70707E-20
 -1      3067 9.56908E-05-2.85280E-05-2.87826E-05-1.53368E-06-2.09169E-20-2.77509E-19
 -1      3068 9.55602E-05-2.84200E-05-2.87726E-05-1.44634E-06-1.30849E-19 6.19416E-20
 -1      3069 9.55463E-05-2.84890E-05-2.87438E-05-1.72870E-06 6.20484E-19-4.87673E-19
 -1      3070 9.54782E-05-2.83493E-05-2.87677E-05-1.31992E-06 4.53216E-19 5.37698E-19
 -1      3071 9.53919E-05-2.82948E-05-2.87554E-05-1.21725E-06 9.64891E-19 1.10435E-18
 -1      3072 9.53206E-05-2.82659E-05-2.87408E-05-1.47187E-06 5.90452E-19 3.01444E-19
 -1      3073 9.53527E-05-2.82699E-05-2.87479E-05-1.09360E-06 5.48341E-19 5.02111E-19
 -1      3074 9.52971E-05-2.82507E-05-2.87344E-05-9.90008E-07 7.07102E-19 3.93474E-19
 -1      3075 9.52030E-05-2.81677E-05-2.87313E-05-1.21139E-06 6.64743E-19 7.59834E-19
 -1      3076 9.52835E-05-2.82538E-05-2.87252E-05-8.77591E-07 8.74545E-19-3.08680E-20
 -1      3077 9.52483E-05-2.82561E-05-2.87116E-05-7.81601E-07 5.22328E-19 4.38781E-19
 -1      3078 9.51527E-05-2.81494E-05-2.87167E-05-9.68772E-07 6.09612E-19-1.92574E-19
 -1      3079 9.52487E-05-2.82744E-05-2.87016E-05-6.84347E-07-3.78194E-20 4.75454E-19
 -1      3080 9.52267E-05-2.82883E-05-2.86887E-05-6.00323E-07-3.65266E-19 5.73431E-20
 -1      3081 9.51410E-05-2.81776E-05-2.86992E-05-7.54928E-07 1.60699E-19-2.39640E-19
 -1      3082 9.52337E-05-2.83132E-05-2.86788E-05-5.19289E-07-3.56671E-19 1.84318E-20
 -1      3083 9.52201E-05-2.83321E-05-2.86671E-05-4.48795E-07-7.14114E-19 2.34606E-19
 -1      3084 9.51493E-05-2.82289E-05-2.86805E-05-5.73896E-07-3.62025E-19-3.66554E-19
 -1      3085 9.52293E-05-2.83583E-05-2.86578E-05-3.83315E-07-1.17578E-18 3.79653E-19
 -1      3086 9.52209E-05-2.83781E-05-2.86476E-05-3.26170E-07-2.29408E-19 6.89425E-19
 -1      3087 9.51661E-05-2.82884E-05-2.86620E-05-4.25473E-07-5.69958E-19 9.64035E-19
 -1      3088 9.52299E-05-2.84026E-05-2.86393E-05-2.74659E-07 1.42213E-20 8.83957E-19
 -1      3089 9.52247E-05-2.84212E-05-2.86307E-05-2.29695E-07 2.75655E-19 1.23537E-18
 -1      3090 9.51847E-05-2.83468E-05-2.86449E-05-3.07057E-07 4.05766E-19 9.17448E-19
 -1      3091 9.52324E-05-2.84425E-05-2.86235E-05-1.90171E-07 6.18062E-19 1.75271E-18
 -1      3092 9.52292E-05-2.84586E-05-2.86165E-05-1.55755E-07 1.03957E-18 1.56865E-18
 -1      3093 9.52017E-05-2.83994E-05-2.86296E-05-2.14889E-07 7.20357E-19 8.08145E-19
 -1      3094 9.52352E-05-2.84762E-05-2.86104E-05-1.26165E-07 8.86050E-19 1.54539E-18
 -1      3095 9.52332E-05-2.84895E-05-2.86048E-05-1.00524E-07-4.73769E-20 7.41249E-19
 -1      3096 9.52156E-05-2.84440E-05-2.86165E-05-1.44835E-07 5.40463E-19 2.60596E-19
 -1      3097 9.52376E-05-2.85034E-05-2.85999E-05-7.89285E-08-2.80660E-19 5.18554E-19
 -1      3098 9.52363E-05-2.85140E-05-2.85955E-05-6.03548E-08 2.08299E-19 4.59328E-19
 -1      3099 9.52262E-05-2.84802E-05-2.86055E-05-9.28518E-08-8.83571E-20 2.53177E-19
 -1      3100 9.52393E-05-2.85247E-05-2.85916E-05-4.50272E-08 6.33963E-19-2.82031E-19
 -1      3101 9.52384E-05-2.85329E-05-2.85883E-05-3.19848E-08 1.27182E-18-6.71285E-19
 -1      3102 9.52338E-05-2.85085E-05-2.85966E-05-5.52483E-08 7.43904E-20-4.29233E-19
 -1      3103 9.52402E-05-2.85408E-05-2.85852E-05-2.14558E-08 1.00228E-18-1.49620E-18
 -1      3104 9.52397E-05-2.85469E-05-2.85827E-05-1.26309E-08-1.85355E-19-1.90668E-18
 -1      3105 9.52388E-05-2.85300E-05-2.85895E-05-2.88150E-08 1.22744E-19-1.93381E-18
 -1      3106 9.52407E-05-2.85526E-05-2.85804E-05-5.69064E-09-1.04188E-18-2.12510E-18
 -1      3107 9.52403E-05-2.85570E-05-2.85787E-05 6.10437E-13-9.38882E-19-1.74047E-18
 -1      3108 9.52418E-05-2.85458E-05-2.85840E-05-1.08641E-08-6.53783E-19-1.75292E-18
 -1      3109 9.52407E-05-2.85609E-05-2.85769E-05 4.32272E-09-1.06548E-18-2.10527E-18
 -1      3110 9.52405E-05-2.85640E-05-2.85757E-05 7.74785E-09-1.07412E-18-1.81008E-18
 -1      3111 9.52433E-05-2.85570E-05-2.85799E-05 7.93358E-10-9.18980E-19-2.35433E-18
 -1      3112 9.52405E-05-2.85666E-05-2.85744E-05 1.02115E-08-4.51988E-19-9.33115E-19
 -1      3113 9.52403E-05-2.85687E-05-2.85736E-05 1.20459E-08 1.49969E-19-5.26350E-19
 -1      3114 9.52438E-05-2.85647E-05-2.85768E-05 7.89686E-09-1.81866E-19-1.71763E-18
 -1      3115 9.52401E-05-2.85703E-05-2.85727E-05 1.32310E-08-2.49009E-20 3.52455E-19
 -1      3116 9.52400E-05-2.85717E-05-2.85722E-05 1.39865E-08-8.72645E-19-3.50737E-20
 -1      3117 9.52436E-05-2.85697E-05-2.85745E-05 1.17958E-08 1.68760E-19 8.49677E-19
 -1      3118 9.52397E-05-2.85726E-05-2.85716E-05 1.43243E-08-1.27286E-18 1.06418E-20
 -1      3119 9.52396E-05-2.85734E-05-2.85712E-05 1.43770E-08-9.22278E-19-4.03456E-19
 -1      3120 9.52430E-05-2.85728E-05-2.85730E-05 1.35110E-08-2.18222E-19 1.71929E-18
 -1      3121 9.52392E-05-2.85739E-05-2.85708E-05 1.41792E-08-2.42049E-19-3.21769E-19
 -1      3122 9.52392E-05-2.85744E-05-2.85706E-05 1.37965E-08 1.44121E-18 1.37608E-19
 -1      3123 9.52422E-05-2.85746E-05-2.85719E-05 1.37949E-08-2.72003E-19 1.75800E-18
 -1      3124 9.52388E-05-2.85746E-05-2.85704E-05 1.32793E-08 1.58018E-18-5.50004E-19
 -1      3125 9.52388E-05-2.85748E-05-2.85703E-05 1.26418E-08 9.77956E-19-1.89611E-18
 -1      3126 9.52414E-05-2.85755E-05-2.85711E-05 1.31846E-08 6.30783E-19 1.00640E-18
 -1      3127 9.52384E-05-2.85749E-05-2.85701E-05 1.19497E-08-4.14764E-19-1.85851E-18
 -1      3128 9.52385E-05-2.85750E-05-2.85701E-05 1.11689E-08-1.88529E-18-2.27995E-18
 -1      3129 9.52406E-05-2.85758E-05-2.85706E-05 1.20478E-08 5.88186E-20-2.07122E-18
 -1      3130 9.52381E-05-2.85749E-05-2.85699E-05 1.05109E-08-8.12319E-19-2.78532E-18
 -1      3131 9.52382E-05-2.85751E-05-2.85699E-05 9.64096E-09 6.04738E-19-2.46777E-18
 -1      3132 9.52391E-05-2.85758E-05-2.85700E-05 9.39841E-09 2.75261E-19-2.98987E-18
 -1      3133 9.52398E-05-2.85759E-05-2.85703E-05 1.07443E-08-5.33770E-19-1.35670E-18
 -1      3134 1.15053E-04-5.42060E-05-2.59218E-05-3.05169E-05 3.91589E-18-1.19558E-18
 -1      3135 1.15915E-04-5.14076E-05-2.80677E-05 2.70269E-05 2.14649E-18 2.20864E-19
 -1      3136 1.01537E-04-4.36111E-05-2.42748E-05 3.42682E-05 3.09119E-18-7.17702E-19
 -1      3137 1.15065E-04-1.00989E-05-4.53430E-05-3.95592E-06-3.45732E-18-1.48260E-18
 -1      3138 1.19434E-04-1.43078E-05-4.53024E-05-1.02589E-05-3.52620E-18-5.74182E-19
 -1      3139 8.11475E-05-3.50936E-05-1.92236E-05-3.80592E-05 4.39502E-18 1.34472E-18
 -1      3140 9.29280E-05-4.22966E-05-2.18477E-05-3.68669E-05 4.42125E-18 2.71051E-19
 -1      3141 8.36692E-05-1.81982E-05-2.81394E-05 1.24008E-05 8.16351E-19-3.14408E-19
 -1      3142 8.20737E-05-1.75795E-05-2.76161E-05 1.41328E-05 7.93079E-19 2.98592E-19
 -1      3143 9.23260E-05-2.40278E-05-2.93020E-05 6.07775E-06-1.00274E-18-1.10069E-18
 -1      3144 9.17895E-05-2.33392E-05-2.93325E-05 6.99287E-06-1.08145E-18-1.28140E-18
 -1      3145 9.35456E-05-2.53120E-05-2.92652E-05 4.69888E-06-8.88085E-20-8.26317E-19
 -1      3146 9.32335E-05-2.47896E-05-2.93276E-05 5.43211E-06-4.46383E-19-7.15555E-19
 -1      3147 9.13312E-05-2.34751E-05-2.90477E-05 5.18598E-06-5.91072E-19-1.42192E-18
 -1      3148 9.43039E-05-2.62566E-05-2.91787E-05 3.59205E-06-4.74119E-19-6.95412E-19
 -1      3149 9.41392E-05-2.58762E-05-2.92492E-05 4.16854E-06-1.76855E-19-7.42963E-19
 -1      3150 9.27880E-05-2.48807E-05-2.90817E-05 4.10948E-06-3.50965E-19-9.86549E-19
 -1      3151 9.47578E-05-2.69343E-05-2.90781E-05 2.71731E-06-4.96397E-19-1.47968E-18
 -1      3152 9.46835E-05-2.66637E-05-2.91449E-05 3.16372E-06-2.95706E-19-7.40952E-19
 -1      3153 9.37333E-05-2.59212E-05-2.90490E-05 3.20698E-06-2.26791E-19-6.57200E-19
 -1      3154 9.50182E-05-2.74146E-05-2.89808E-05 2.03459E-06-1.98032E-19-1.11527E-18
 -1      3155 9.49956E-05-2.72240E-05-2.90392E-05 2.37653E-06-6.49944E-19-1.71098E-18
 -1      3156 9.43336E-05-2.66758E-05-2.89881E-05 2.46765E-06-3.48784E-19-4.09018E-19
 -1      3157 9.51648E-05-2.77660E-05-2.88905E-05 1.48511E-06-1.87238E-19-1.11974E-18
 -1      3158 9.51690E-05-2.76278E-05-2.89413E-05 1.75437E-06-2.29822E-19-1.32158E-18
 -1      3159 9.47147E-05-2.72280E-05-2.89179E-05 1.86155E-06 1.12636E-21-9.23715E-19
 -1      3160 9.52347E-05-2.79995E-05-2.88186E-05 1.08828E-06-9.77392E-19-1.80321E-18
 -1      3161 9.52512E-05-2.79074E-05-2.88575E-05 1.28110E-06 3.59046E-20-1.57816E-18
 -1      3162 9.49453E-05-2.76205E-05-2.88510E-05 1.38448E-06 5.89371E-19-1.67828E-18
 -1      3163 9.52651E-05-2.81646E-05-2.87598E-05 7.87151E-07-1.01768E-18-3.01325E-18
 -1      3164 9.52851E-05-2.80994E-05-2.87905E-05 9.31434E-07-1.81552E-18-2.78742E-18
 -1      3165 9.50788E-05-2.78920E-05-2.87931E-05 1.02359E-06-5.08824E-19-2.58434E-18
 -1      3166 9.52746E-05-2.82819E-05-2.87128E-05 5.60755E-07-2.68453E-19-3.47247E-18
 -1      3167 9.52940E-05-2.82354E-05-2.87367E-05 6.68024E-07-3.40731E-19-3.43505E-18
 -1      3168 9.51571E-05-2.80861E-05-2.87442E-05 7.45737E-07-3.47481E-19-3.66040E-18
 -1      3169 9.52737E-05-2.83657E-05-2.86760E-05 3.92075E-07-3.36283E-19-1.28193E-18
 -1      3170 9.52905E-05-2.83323E-05-2.86943E-05 4.71201E-07-8.13363E-19-2.56658E-18
 -1      3171 9.52016E-05-2.82256E-05-2.87039E-05 5.34292E-07-5.92359E-19-2.89629E-18
 -1      3172 9.52684E-05-2.84260E-05-2.86475E-05 2.67678E-07-1.03692E-18-1.36046E-18
 -1      3173 9.52820E-05-2.84018E-05-2.86614E-05 3.25494E-07-1.11893E-19-1.01655E-18
 -1      3174 9.52261E-05-2.83262E-05-2.86715E-05 3.75232E-07-4.51443E-19-1.93919E-18
 -1      3175 9.52617E-05-2.84696E-05-2.86257E-05 1.76991E-07-2.70417E-18-1.43274E-18
 -1      3176 9.52723E-05-2.84519E-05-2.86361E-05 2.18794E-07-1.35655E-18-1.10211E-18
 -1      3177 9.52388E-05-2.83989E-05-2.86458E-05 2.57045E-07-8.32801E-19-1.56598E-18
 -1      3178 9.52551E-05-2.85024E-05-2.86087E-05 1.09194E-07-2.81485E-18-1.82192E-18
 -1      3179 9.52632E-05-2.84890E-05-2.86166E-05 1.40002E-07-3.38935E-18-2.00423E-18
 -1      3180 9.52448E-05-2.84524E-05-2.86254E-05 1.68787E-07-2.52443E-18-1.44826E-18
 -1      3181 9.52498E-05-2.85247E-05-2.85967E-05 6.41934E-08-1.14976E-18-2.11191E-18
 -1      3182 9.52553E-05-2.85154E-05-2.86022E-05 8.45794E-08-1.53001E-18-1.36040E-18
 -1      3183 9.52471E-05-2.84912E-05-2.86098E-05 1.05374E-07-2.64577E-18-3.13701E-18
 -1      3184 9.52456E-05-2.85407E-05-2.85880E-05 3.31731E-08-6.42909E-19 2.63032E-20
 -1      3185 9.52494E-05-2.85340E-05-2.85919E-05 4.70460E-08-4.70096E-19-1.39254E-18
 -1      3186 9.52472E-05-2.85181E-05-2.85984E-05 6.19779E-08-1.37108E-18-2.24541E-18
 -1      3187 9.52425E-05-2.85521E-05-2.85817E-05 1.24471E-08 2.78836E-19 3.89427E-19
 -1      3188 9.52450E-05-2.85472E-05-2.85844E-05 2.15927E-08 3.15589E-19 7.47430E-19
 -1      3189 9.52465E-05-2.85372E-05-2.85898E-05 3.20264E-08-6.38867E-19-1.16581E-18
 -1      3190 9.52403E-05-2.85600E-05-2.85773E-05-8.39032E-10 1.96050E-18-1.05915E-20
 -1      3191 9.52418E-05-2.85566E-05-2.85791E-05 4.91826E-09 1.23008E-18 3.29712E-19
 -1      3192 9.52453E-05-2.85507E-05-2.85835E-05 1.19812E-08 7.89872E-19-1.62593E-18
 -1      3193 9.52387E-05-2.85654E-05-2.85743E-05-8.84803E-09 1.07696E-18-7.05380E-19
 -1      3194 9.52395E-05-2.85630E-05-2.85755E-05-5.47292E-09 1.45759E-18 2.96812E-19
 -1      3195 9.52440E-05-2.85599E-05-2.85790E-05-8.84467E-10 1.50988E-18-1.29422E-19
 -1      3196 9.52377E-05-2.85690E-05-2.85723E-05-1.31997E-08 9.78552E-20-4.74255E-19
 -1      3197 9.52381E-05-2.85674E-05-2.85730E-05-1.14590E-08 5.99504E-19-1.89346E-19
 -1      3198 9.52428E-05-2.85662E-05-2.85758E-05-8.64657E-09 1.77989E-19 1.43118E-18
 -1      3199 9.52371E-05-2.85713E-05-2.85710E-05-1.50930E-08 9.59123E-19 2.28251E-19
 -1      3200 9.52371E-05-2.85702E-05-2.85715E-05-1.44347E-08 3.07747E-19-1.67901E-19
 -1      3201 9.52417E-05-2.85702E-05-2.85736E-05-1.28661E-08 1.80256E-20 3.33056E-19
 -1      3202 9.52368E-05-2.85728E-05-2.85703E-05-1.53706E-08 1.95449E-18-6.40534E-19
 -1      3203 9.52366E-05-2.85720E-05-2.85705E-05-1.54292E-08 1.54089E-18-1.20018E-19
 -1      3204 9.52407E-05-2.85727E-05-2.85721E-05-1.47083E-08 1.25723E-18-1.74704E-18
 -1      3205 9.52366E-05-2.85735E-05-2.85699E-05-1.46346E-08-4.05484E-19-1.99196E-20
 -1      3206 9.52364E-05-2.85731E-05-2.85700E-05-1.51121E-08 8.37697E-19-5.00527E-19
 -1      3207 9.52399E-05-2.85741E-05-2.85711E-05-1.49634E-08 1.39504E-18-3.91455E-19
 -1      3208 9.52366E-05-2.85739E-05-2.85697E-05-1.33474E-08 1.89014E-18-1.70144E-18
 -1      3209 9.52363E-05-2.85736E-05-2.85697E-05-1.40583E-08 6.22836E-19-1.62934E-18
 -1      3210 9.52393E-05-2.85748E-05-2.85705E-05-1.42485E-08 1.01930E-18-7.11938E-19
 -1      3211 9.52368E-05-2.85741E-05-2.85697E-05-1.17639E-08 2.77461E-18-2.07013E-18
 -1      3212 9.52364E-05-2.85739E-05-2.85697E-05-1.25953E-08 2.40920E-18-2.04931E-18
 -1      3213 9.52388E-05-2.85750E-05-2.85702E-05-1.29881E-08 2.67261E-18-2.21268E-18
 -1      3214 9.52370E-05-2.85742E-05-2.85697E-05-1.00371E-08 1.07159E-18 9.04167E-19
 -1      3215 9.52366E-05-2.85741E-05-2.85697E-05-1.09214E-08 1.91615E-18-4.34111E-19
 -1      3216 9.52384E-05-2.85751E-05-2.85700E-05-1.14391E-08 1.28190E-18-9.72032E-19
 -1      3217 9.52375E-05-2.85747E-05-2.85698E-05-8.78589E-09 1.23612E-18 1.73884E-19
 -1      3218 9.52370E-05-2.85744E-05-2.85697E-05-9.49231E-09 1.30846E-18 7.26993E-19
 -1      3219 9.52384E-05-2.85753E-05-2.85699E-05-1.00284E-08 7.41184E-19 1.96664E-18
 -1      3220 9.52386E-05-2.85755E-05-2.85699E-05-8.87230E-09 6.73744E-19 6.05064E-19
 -1      3221 8.17983E-05-1.32449E-05-2.94113E-05-9.23303E-06 1.90981E-18-1.22561E-18
 -1      3222 7.75805E-05-9.91756E-06-2.89746E-05-5.84568E-06 2.23604E-18-1.85497E-18
 -1      3223 7.26943E-05-8.59301E-06-2.74682E-05-5.39627E-06 2.02082E-18-2.40886E-18
 -1      3224 8.03386E-05-1.39102E-05-2.84087E-05-1.24238E-05 1.42825E-18-1.40053E-18
 -1      3225 7.85489E-05-1.28838E-05-2.82580E-05 1.53633E-05 2.83002E-18-3.11656E-18
 -1      3226 8.24872E-05-1.53216E-05-2.86604E-05 1.51679E-05 2.54403E-18-3.22151E-18
 -1      3227 1.27707E-04-5.43704E-05-3.10955E-05-1.16698E-05 2.55303E-18-3.81318E-18
 -1      3228 1.31115E-04-5.18850E-05-3.44388E-05-2.60390E-06 1.33739E-18-4.47940E-18
 -1      3229 9.52448E-05-2.85802E-05-2.85705E-05 7.87700E-10 3.77496E-19-5.86511E-19
 -1      3230 9.52448E-05-2.85802E-05-2.85705E-05-6.20269E-10 1.07389E-18 9.28364E-19
 -1      3231 9.52412E-05-2.85775E-05-2.85702E-05 7.96673E-09 1.10699E-18-2.68731E-19
 -1      3232 9.52422E-05-2.85782E-05-2.85703E-05 7.20809E-09 1.10199E-18 9.64443E-20
 -1      3233 9.52442E-05-2.85798E-05-2.85705E-05 3.61347E-09-2.10471E-19-1.55345E-18
 -1      3234 9.52446E-05-2.85800E-05-2.85705E-05 2.30584E-09 2.69626E-19-1.61890E-18
 -1      3235 9.52456E-05-2.85802E-05-2.85709E-05 1.65064E-09-6.78476E-19-1.36784E-18
 -1      3236 4.74065E-05-1.40561E-05-1.36444E-05 2.89325E-05 3.31889E-18-4.86747E-18
 -1      3237 7.84637E-05-1.66455E-05-2.65423E-05 1.59018E-05-1.25758E-19 2.44958E-19
 -1      3238 7.72601E-05-1.73337E-05-2.55771E-05 1.80259E-05-1.60882E-18 6.90186E-19
 -1      3239 7.50833E-05-1.44018E-05-2.58157E-05 1.19778E-05 3.89744E-19 3.57183E-19
 -1      3240 7.16663E-05-1.96325E-05-2.18112E-05-2.45108E-05-6.34957E-19-3.22254E-18
 -1      3241 1.27193E-04-2.66185E-05-4.32369E-05 1.31608E-05-1.70217E-18-4.90983E-18
 -1      3242 1.21991E-04-1.89096E-05-4.46347E-05 1.17925E-05-2.58927E-18-4.52019E-18
 -1      3243 9.52430E-05-2.85789E-05-2.85704E-05 6.11443E-09 9.83991E-19-3.30786E-19
 -1      3244 9.52437E-05-2.85794E-05-2.85704E-05 4.99923E-09 5.28375E-19-1.00364E-18
 -1      3245 9.52448E-05-2.85796E-05-2.85708E-05 4.62026E-09-1.12929E-18-7.85680E-19
 -1      3246 9.52432E-05-2.85786E-05-2.85706E-05 7.15812E-09 5.27948E-19 1.71443E-19
 -1      3247 9.04385E-05-2.23551E-05-2.92226E-05 7.76955E-06-5.73596E-19-4.58796E-19
 -1      3248 8.95927E-05-2.15128E-05-2.91762E-05 8.88829E-06 6.37243E-20-4.38475E-19
 -1      3249 8.91388E-05-2.16385E-05-2.88780E-05 6.44061E-06-3.23659E-19-1.35661E-18
 -1      3250 8.76455E-05-2.03360E-05-2.89082E-05 9.83126E-06-9.23952E-20-6.22661E-19
 -1      3251 8.64468E-05-1.94571E-05-2.87077E-05 1.11761E-05 1.01187E-19-1.02957E-18
 -1      3252 8.59300E-05-1.93641E-05-2.84528E-05 7.88839E-06-2.14571E-19-1.12457E-18
 -1      3253 1.24780E-04-2.26045E-05-4.42887E-05-1.28576E-05-3.28501E-18-7.34801E-20
 -1      3254 1.31063E-04-3.29210E-05-4.21401E-05-1.19205E-05-2.65127E-18 9.38036E-19
 -1      3255 1.04115E-04-3.20519E-05-3.08561E-05-6.34696E-06-1.07618E-18-1.78680E-18
 -1      3256 1.04317E-04-3.26033E-05-3.07642E-05-6.65202E-06-9.26794E-19-1.71044E-18
 -1      3257 1.06274E-04-3.35111E-05-3.11628E-05-6.79732E-06-8.22189E-19-1.48562E-18
 -1      3258 1.34138E-04-4.15627E-05-4.01944E-05-7.39679E-06-2.06427E-18 1.42762E-18
 -1      3259 1.35155E-04-4.72014E-05-3.76406E-05-2.31179E-06-1.02700E-18 1.58644E-18
 -1      3260 1.32495E-04-4.49640E-05-3.74113E-05 5.71744E-06-3.23461E-20-5.30669E-18
 -1      3261 1.30591E-04-3.62984E-05-4.09134E-05 1.04988E-05-1.06769E-18-5.07240E-18
 -1      3262 1.25106E-04-3.25657E-05-3.98262E-05 1.17562E-05-1.00339E-18-4.95991E-18
 -1      3263 8.45771E-05-3.55466E-05-2.12444E-05 3.95764E-05 3.66654E-18-1.75177E-18
 -1      3264 7.09937E-05-2.58907E-05-1.87269E-05 3.76458E-05 3.91615E-18-2.87779E-18
 -1      3265 1.33047E-04-5.24143E-05-3.50005E-05 5.85968E-06-5.19139E-20 1.15776E-18
 -1      3266 1.27718E-04-5.35483E-05-3.14186E-05 1.51995E-05 1.13763E-18 8.24825E-19
 -1      3267 7.78047E-05-2.88327E-05-2.03618E-05 3.04249E-05-4.17492E-18 5.81859E-19
 -1      3268 5.71610E-05-2.00459E-05-1.54237E-05-3.17064E-05 3.44716E-18 3.63356E-18
 -1      3269 6.90315E-05-2.81573E-05-1.74157E-05-3.69535E-05 4.21727E-18 2.08021E-18
 -1      3270 7.71362E-05-2.96251E-05-2.00328E-05-3.32313E-05 4.17169E-18 1.42630E-18
 -1      3271 5.92001E-05-1.72731E-05-1.75868E-05-2.54340E-05 2.89894E-18 2.76477E-18
 -1      3272 9.96324E-05-2.50821E-05-3.19342E-05-6.06864E-06-8.97004E-19-3.02069E-18
 -1      3273 7.52338E-05-1.64503E-05-2.51911E-05-1.94148E-05 2.52720E-19-2.26452E-18
 -1      3274 7.67446E-05-1.42991E-05-2.67554E-05-1.54912E-05 9.29893E-19-1.84243E-18
 -1      3275 7.23696E-05-1.11410E-05-2.60816E-05-1.22222E-05 1.34316E-18-2.25108E-18
 -1      3276 1.17396E-04-1.37470E-05-4.47522E-05 9.03909E-06-2.60187E-18-3.67594E-18
 -1      3277 1.14110E-04-1.03831E-05-4.47703E-05 3.79261E-06-2.80982E-18-2.55744E-18
 -1      3278 6.74912E-05-2.33007E-05-1.86897E-05 2.81204E-05-4.16041E-18 1.55102E-18
 -1      3279 5.74329E-05-1.63878E-05-1.69999E-05 2.24134E-05-3.78531E-18 2.45184E-18
 -1      3280 7.57274E-05-2.36039E-05-2.20256E-05 2.63033E-05-3.94601E-18 8.95473E-19
 -1      3281 4.66698E-05-1.08479E-05-1.51262E-05 1.27173E-05-2.36680E-18 3.34409E-18
 -1      3282 4.19967E-05-7.58532E-06-1.42895E-05-2.20328E-06-5.97754E-19 4.21272E-18
 -1      3283 5.69287E-05-1.25248E-05-1.86431E-05 1.41975E-05-2.58949E-18 2.25623E-18
 -1      3284 1.07383E-04-4.88346E-05-2.46038E-05-3.10396E-05 4.29316E-18-6.71561E-19
 -1      3285 1.18413E-04-5.40453E-05-2.79937E-05-2.32486E-05 3.74688E-18-2.21245E-18
 -1      3286 5.58493E-05-1.63249E-05-1.69220E-05 3.24612E-05 3.67993E-18-3.89265E-18
 -1      3287 4.49790E-05-8.43482E-06-1.51701E-05 2.11053E-05 3.09580E-18-4.84429E-18
 -1      3288 8.66803E-05-1.85415E-05-2.92643E-05 1.39319E-05 2.27898E-18-3.10110E-18
 -1      3289 9.03417E-05-2.08067E-05-2.97296E-05 1.22688E-05 2.00983E-18-3.09611E-18
 -1      3290 8.59774E-05-1.97287E-05-2.84219E-05 1.67669E-05 2.36104E-18-2.92279E-18
 -1      3291 6.82475E-05-5.67107E-06-2.67470E-05 3.34857E-06 2.57884E-18-3.04090E-18
 -1      3292 6.96992E-05-5.19968E-06-2.76772E-05 6.10815E-06 2.92032E-18-3.04932E-18
 -1      3293 6.97583E-05-5.54271E-06-2.74904E-05 9.09163E-06 2.91632E-18-3.16335E-18
 -1      3294 9.99786E-05-4.32711E-05-2.41702E-05-3.01717E-05 3.94421E-18-3.05567E-19
 -1      3295 4.96299E-05-9.22012E-06-1.68189E-05-7.54336E-06 3.36537E-19 3.44753E-18
 -1      3296 4.97874E-05-6.87245E-06-1.79093E-05 1.40446E-05 2.72860E-18-4.56032E-18
 -1      3297 9.52423E-05-2.85783E-05-2.85702E-05-7.17622E-09 4.30449E-19-2.36858E-18
 -1      3298 9.52413E-05-2.85776E-05-2.85702E-05-7.95715E-09 1.35099E-18-9.91032E-19
 -1      3299 5.09688E-05-6.56573E-06-1.86892E-05-5.60021E-06 1.31375E-18-4.54121E-18
 -1      3300 4.72743E-05-8.14879E-06-1.61802E-05-1.14353E-05 6.03048E-19-5.02523E-18
 -1      3301 5.59385E-05-1.33032E-05-1.80692E-05-1.98074E-05-9.05796E-20-4.47466E-18
 -1      3302 1.16308E-04-1.85351E-05-4.21116E-05 1.01897E-05-1.95649E-18-3.59749E-18
 -1      3303 7.51794E-05-1.93800E-05-2.37410E-05 2.26840E-05-3.46054E-18 1.01138E-18
 -1      3304 1.19748E-04-4.98821E-05-2.98946E-05 1.83059E-05 1.67101E-18 2.33861E-20
 -1      3305 1.18829E-04-2.05726E-05-4.23675E-05-1.11285E-05-2.81956E-18-2.26767E-19
 -1      3306 8.13236E-05-1.67780E-05-2.75519E-05 9.63564E-06 8.90401E-19-2.40652E-19
 -1      3307 1.08954E-04-1.35162E-05-4.09551E-05 3.16517E-06-1.91382E-18-2.09131E-18
 -1      3308 1.11905E-04-1.12820E-05-4.34266E-05-3.33916E-08-2.76233E-18-1.96015E-18
 -1      3309 1.09638E-04-1.33854E-05-4.13638E-05-3.64742E-06-2.61257E-18-1.24842E-18
 -1      3310 9.52438E-05-2.85795E-05-2.85704E-05-4.92267E-09-3.15231E-19 1.73206E-18
 -1      3311 9.52431E-05-2.85790E-05-2.85704E-05-6.05920E-09-2.68948E-19 3.83835E-19
 -1      3312 9.52433E-05-2.85787E-05-2.85706E-05-7.09923E-09 3.34023E-19-1.62840E-18
 -1      3313 1.20392E-04-5.16442E-05-2.94152E-05-1.49522E-05 2.90432E-18-2.54682E-18
 -1      3314 1.28264E-04-4.70092E-05-3.48522E-05 2.62516E-06 8.94627E-19-4.60106E-18
 -1      3315 1.28491E-04-3.63648E-05-3.96144E-05-1.03306E-05-1.75135E-18 7.49412E-19
 -1      3316 9.52446E-05-2.85801E-05-2.85705E-05-2.16947E-09 4.76510E-19 1.59974E-18
 -1      3317 9.52443E-05-2.85799E-05-2.85705E-05-3.51262E-09-3.82483E-19 1.33744E-18
 -1      3318 9.52448E-05-2.85797E-05-2.85708E-05-4.50247E-09-1.27763E-18 2.33727E-18
 -1      3319 9.52456E-05-2.85802E-05-2.85709E-05-1.47990E-09-9.68399E-19 1.53884E-18
 -1      3320 1.30653E-04-4.81590E-05-3.53656E-05 2.07078E-07-1.75153E-19 9.08443E-19
 -1      3321 7.16556E-05-7.46803E-06-2.75984E-05 1.27069E-05 3.04273E-18-3.16500E-18
 -1      3322 7.45024E-05-9.40906E-06-2.77820E-05 1.43777E-05 2.92640E-18-3.21049E-18
 -1      3323 7.70808E-05-1.32081E-05-2.72983E-05 1.71126E-05 2.79657E-18-3.04914E-18
 -1      3324 6.96059E-05-7.35000E-06-2.65637E-05 1.21943E-05 2.89382E-18-3.20503E-18
 -1      3325 1.00742E-04-2.71334E-05-3.15624E-05-5.55701E-06-8.99397E-19-2.78376E-18
 -1      3326 6.62947E-05-1.96208E-05-1.96292E-05 3.16924E-05 3.67660E-18-3.29909E-18
 -1      3327 1.03049E-04-3.09371E-05-3.09528E-05-5.90746E-06-1.23189E-18-2.03433E-18
 -1      3328 1.04639E-04-3.19145E-05-3.11626E-05-5.65753E-06-9.87172E-19-1.64675E-18
 -1      3329 1.02608E-04-2.97917E-05-3.11944E-05-6.05236E-06-1.20209E-18-2.16516E-18
 -1      3330 6.80981E-05-1.49998E-05-2.26804E-05 1.83853E-05-2.26039E-18 7.62912E-19
 -1      3331 9.80275E-05-2.55488E-05-3.10380E-05 4.29412E-06 9.78477E-19-2.96338E-18
 -1      3332 9.94840E-05-2.64945E-05-3.13023E-05 1.88696E-06 5.02166E-19-2.97434E-18
 -1      3333 1.00318E-04-2.67801E-05-3.14894E-05-6.51233E-07 1.71017E-19-2.84061E-18
 -1      3334 1.01028E-04-2.73445E-05-3.16066E-05-2.59376E-06-1.99145E-19-2.90897E-18
 -1      3335 1.02092E-04-2.93022E-05-3.12054E-05 8.87284E-07 2.14564E-19-2.54063E-18
 -1      3336 9.50247E-05-3.78474E-05-2.42520E-05 3.28340E-05 3.14644E-18-1.42217E-18
 -1      3337 9.52399E-05-2.85763E-05-2.85701E-05 8.99719E-09-7.00486E-22-1.80781E-18
 -1      3338 9.52406E-05-2.85770E-05-2.85701E-05 8.51258E-09 8.26676E-19-6.26990E-19
 -1      3339 9.52416E-05-2.85774E-05-2.85704E-05 8.76092E-09 5.31711E-19-2.28340E-19
 -1      3340 9.52402E-05-2.85764E-05-2.85702E-05 9.68639E-09 1.63379E-19-1.40108E-18
 -1      3341 1.01748E-04-2.80979E-05-3.15521E-05-4.60502E-06-6.12457E-19-2.54305E-18
 -1      3342 1.14457E-04-4.86875E-05-2.80584E-05-1.73867E-05 2.87314E-18-1.85371E-18
 -1      3343 1.21041E-04-5.00512E-05-3.05782E-05-8.14196E-06 1.97530E-18-3.19702E-18
 -1      3344 9.27400E-05-3.71011E-05-2.35608E-05-2.92574E-05 3.19922E-18-2.06914E-19
 -1      3345 1.03571E-04-4.35576E-05-2.57998E-05-2.47280E-05 3.08482E-18-1.07031E-18
 -1      3346 1.08877E-04-3.26136E-05-3.27324E-05-9.64298E-06-8.57508E-19-1.02484E-18
 -1      3347 1.07909E-04-3.04709E-05-3.31896E-05-9.79319E-06-1.10981E-18-1.10309E-18
 -1      3348 1.06690E-04-2.78039E-05-3.38875E-05-1.00019E-05-1.28734E-18-1.14025E-18
 -1      3349 1.05201E-04-2.48970E-05-3.43534E-05-8.94975E-06-1.37198E-18-8.07634E-19
 -1      3350 1.10063E-04-2.98576E-05-3.44563E-05-1.06776E-05-1.19219E-18-8.36743E-19
 -1      3351 1.03421E-04-2.21047E-05-3.49366E-05-7.06438E-06-1.54434E-18-8.54769E-19
 -1      3352 1.02251E-04-2.00609E-05-3.51672E-05-4.64864E-06-1.44022E-18-1.17683E-18
 -1      3353 1.06896E-04-2.32657E-05-3.58481E-05-8.99827E-06-1.53020E-18-7.65592E-19
 -1      3354 1.03097E-04-1.76021E-05-3.66897E-05-1.50556E-06-1.63879E-18-1.57987E-18
 -1      3355 1.02958E-04-1.75277E-05-3.66749E-05 1.71274E-06-1.76623E-18-1.66204E-18
 -1      3356 1.04685E-04-2.51318E-05-3.40510E-05 9.61001E-06-7.18039E-19-1.69954E-18
 -1      3357 1.06023E-04-2.80953E-05-3.35044E-05 1.05573E-05-3.94572E-19-1.71573E-18
 -1      3358 1.07397E-04-3.10945E-05-3.26693E-05 1.02971E-05-4.23847E-19-2.07787E-18
 -1      3359 1.08285E-04-3.36086E-05-3.20700E-05 9.79434E-06-5.52044E-20-2.55912E-18
 -1      3360 1.09587E-04-3.04805E-05-3.38792E-05 1.09966E-05-6.58583E-19-2.17286E-18
 -1      3361 1.08509E-04-3.54780E-05-3.13035E-05 8.27033E-06 1.64281E-19-2.71598E-18
 -1      3362 1.08683E-04-3.68353E-05-3.07974E-05 6.99366E-06 2.20597E-19-2.72000E-18
 -1      3363 1.11015E-04-3.58215E-05-3.21662E-05 8.95704E-06 4.60888E-20-2.54176E-18
 -1      3364 1.07809E-04-3.73726E-05-3.02186E-05 5.10513E-06 2.03765E-19-2.42906E-18
 -1      3365 1.07312E-04-3.75993E-05-2.98532E-05 3.69369E-06 9.77029E-20-2.11660E-18
 -1      3366 1.10323E-04-3.85589E-05-3.07387E-05 5.24574E-06 3.12138E-19-2.34849E-18
 -1      3367 1.05867E-04-3.71732E-05-2.94719E-05 2.11545E-06 1.07057E-19-2.10390E-18
 -1      3368 1.04967E-04-3.66626E-05-2.92387E-05 9.34614E-07 6.59376E-19-1.88452E-18
 -1      3369 1.07927E-04-3.86365E-05-2.97187E-05 1.70488E-06 2.09132E-19-2.09864E-18
 -1      3370 1.03420E-04-3.57565E-05-2.90192E-05-1.15849E-07 1.17280E-18-2.21204E-18
 -1      3371 1.02412E-04-3.49192E-05-2.88900E-05-9.40827E-07 1.08960E-18-1.92541E-18
 -1      3372 1.04863E-04-3.70518E-05-2.90921E-05-8.54220E-07 9.10707E-19-2.15268E-18
 -1      3373 1.01050E-04-3.39144E-05-2.87827E-05-1.51186E-06 8.08548E-19-1.56060E-18
 -1      3374 1.00130E-04-3.30424E-05-2.87227E-05-2.00751E-06 7.73211E-19-1.17575E-18
 -1      3375 1.01930E-04-3.48899E-05-2.87618E-05-2.33403E-06 1.21456E-18-1.88813E-18
 -1      3376 9.90583E-05-3.21386E-05-2.86834E-05-2.23325E-06 5.76249E-19-9.84573E-19
 -1      3377 9.83105E-05-3.13810E-05-2.86633E-05-2.47003E-06 3.56332E-19-1.01147E-18
 -1      3378 9.95008E-05-3.27912E-05-2.86191E-05-2.98686E-06 6.45308E-19-1.00279E-18
 -1      3379 9.75444E-05-3.06702E-05-2.86595E-05-2.47456E-06-9.56140E-20-4.14335E-19
 -1      3380 9.69882E-05-3.00863E-05-2.86586E-05-2.53525E-06 4.74050E-20-6.76424E-19
 -1      3381 9.76802E-05-3.10414E-05-2.85824E-05-3.09536E-06 3.90511E-19-5.40718E-19
 -1      3382 9.64814E-05-2.95787E-05-2.86696E-05-2.41904E-06 6.18783E-19-6.23709E-19
 -1      3383 9.60962E-05-2.91684E-05-2.86752E-05-2.37133E-06 7.65582E-19 1.41206E-19
 -1      3384 9.64276E-05-2.97415E-05-2.85962E-05-2.89506E-06 6.87946E-19-5.84384E-19
 -1      3385 9.57877E-05-2.88373E-05-2.86894E-05-2.20004E-06 2.38498E-19 3.45945E-19
 -1      3386 9.55381E-05-2.85740E-05-2.86947E-05-2.09317E-06 5.55339E-19-2.96898E-19
 -1      3387 9.56302E-05-2.88590E-05-2.86272E-05-2.54759E-06 5.02053E-19-1.05534E-19
 -1      3388 9.53699E-05-2.83804E-05-2.87062E-05-1.90665E-06 7.31413E-19-1.93220E-19
 -1      3389 9.52193E-05-2.82294E-05-2.87083E-05-1.77390E-06 4.69617E-19 1.80690E-20
 -1      3390 9.51675E-05-2.83154E-05-2.86578E-05-2.15178E-06 6.48058E-19 2.73946E-20
 -1      3391 9.51438E-05-2.81344E-05-2.87152E-05-1.59453E-06 6.38879E-19-2.19658E-19
 -1      3392 9.50608E-05-2.80628E-05-2.87134E-05-1.45698E-06 1.06249E-18 2.46393E-19
 -1      3393 9.49339E-05-2.80230E-05-2.86801E-05-1.76340E-06 5.94938E-19 2.13176E-19
 -1      3394 9.50422E-05-2.80333E-05-2.87154E-05-1.29595E-06 7.59217E-19 5.01922E-20
 -1      3395 9.50026E-05-2.80135E-05-2.87104E-05-1.16599E-06 4.64892E-19 1.94399E-19
 -1      3396 9.48465E-05-2.79034E-05-2.86920E-05-1.41079E-06 7.30273E-19 2.66349E-19
 -1      3397 9.50156E-05-2.80239E-05-2.87085E-05-1.02771E-06 5.66510E-19 2.66890E-19
 -1      3398 9.50018E-05-2.80353E-05-2.87011E-05-9.11833E-07 6.89023E-19 3.02295E-19
 -1      3399 9.48451E-05-2.78935E-05-2.86944E-05-1.10560E-06 7.18273E-19 5.83813E-19
 -1      3400 9.50298E-05-2.80672E-05-2.86964E-05-7.96853E-07 1.20806E-19 1.10239E-19
 -1      3401 9.50302E-05-2.80949E-05-2.86878E-05-6.97723E-07 1.50003E-20-1.28081E-20
 -1      3402 9.48884E-05-2.79468E-05-2.86895E-05-8.50110E-07 2.20672E-19 4.39835E-19
 -1      3403 9.50628E-05-2.81360E-05-2.86815E-05-6.04516E-07-1.88465E-19-9.59136E-20
 -1      3404 9.50700E-05-2.81703E-05-2.86725E-05-5.22411E-07-5.43389E-20 2.54156E-19
 -1      3405 9.49503E-05-2.80309E-05-2.86796E-05-6.41589E-07 1.14317E-19-6.60466E-20
 -1      3406 9.51014E-05-2.82129E-05-2.86654E-05-4.48463E-07 6.45298E-21 2.54704E-19
 -1      3407 9.51108E-05-2.82477E-05-2.86567E-05-3.82278E-07-1.67767E-19 8.35859E-19
 -1      3408 9.50149E-05-2.81249E-05-2.86669E-05-4.74940E-07 1.48859E-19 4.00475E-19
 -1      3409 9.51383E-05-2.82873E-05-2.86495E-05-3.24744E-07-4.53674E-19 5.94760E-19
 -1      3410 9.51475E-05-2.83193E-05-2.86416E-05-2.72664E-07 3.82799E-19 3.02302E-19
 -1      3411 9.50740E-05-2.82161E-05-2.86531E-05-3.44210E-07-9.28887E-20 8.18521E-19
 -1      3412 9.51698E-05-2.83537E-05-2.86348E-05-2.28736E-07 7.58857E-19-1.19926E-20
 -1      3413 9.51777E-05-2.83813E-05-2.86277E-05-1.88682E-07 7.80051E-19 7.50536E-20
 -1      3414 9.51238E-05-2.82979E-05-2.86394E-05-2.43443E-07 2.43468E-20 1.62483E-19
 -1      3415 9.51950E-05-2.84099E-05-2.86216E-05-1.55788E-07 1.75599E-19-7.77779E-19
 -1      3416 9.52012E-05-2.84326E-05-2.86157E-05-1.25674E-07 9.56003E-20-9.94815E-19
 -1      3417 9.51634E-05-2.83673E-05-2.86267E-05-1.67140E-07 1.61031E-19-3.91707E-19
 -1      3418 9.52139E-05-2.84554E-05-2.86104E-05-1.01544E-07 4.88090E-19-9.83465E-19
 -1      3419 9.52185E-05-2.84735E-05-2.86054E-05-7.94320E-08 6.05875E-19-6.27577E-19
 -1      3420 9.51933E-05-2.84238E-05-2.86153E-05-1.10434E-07 8.11784E-20-8.32614E-19
 -1      3421 9.52274E-05-2.84911E-05-2.86009E-05-6.21287E-08-4.21533E-19-1.04582E-18
 -1      3422 9.52305E-05-2.85050E-05-2.85969E-05-4.63049E-08-5.13980E-19-1.42200E-18
 -1      3423 9.52149E-05-2.84683E-05-2.86056E-05-6.91404E-08 3.82703E-19-1.54680E-18
 -1      3424 9.52365E-05-2.85182E-05-2.85933E-05-3.42214E-08-1.12789E-19-1.71762E-18
 -1      3425 9.52384E-05-2.85286E-05-2.85901E-05-2.32322E-08 3.60718E-20-2.01519E-18
 -1      3426 9.52298E-05-2.85023E-05-2.85974E-05-3.97519E-08-1.75066E-19-2.10714E-18
 -1      3427 9.52421E-05-2.85382E-05-2.85872E-05-1.50686E-08-3.96115E-19-1.76613E-18
 -1      3428 9.52432E-05-2.85457E-05-2.85848E-05-7.71610E-09-6.65060E-19-2.51292E-18
 -1      3429 9.52394E-05-2.85275E-05-2.85908E-05-1.94080E-08-2.57670E-19-2.65000E-18
 -1      3430 9.52452E-05-2.85524E-05-2.85825E-05-2.43721E-09-9.69775E-19-2.22254E-18
 -1      3431 9.52456E-05-2.85577E-05-2.85806E-05 2.24320E-09-9.15206E-19-1.65048E-18
 -1      3432 9.52451E-05-2.85457E-05-2.85854E-05-5.81329E-09-6.36712E-19-1.84758E-18
 -1      3433 9.52465E-05-2.85622E-05-2.85789E-05 5.44819E-09-4.04575E-19-2.20125E-18
 -1      3434 9.52465E-05-2.85658E-05-2.85775E-05 8.21441E-09 1.68874E-19-1.47639E-18
 -1      3435 9.52480E-05-2.85583E-05-2.85813E-05 2.84916E-09-7.13301E-19-1.86041E-18
 -1      3436 9.52466E-05-2.85687E-05-2.85762E-05 9.96728E-09 7.80455E-19-2.45572E-19
 -1      3437 9.52464E-05-2.85710E-05-2.85752E-05 1.14009E-08 1.10464E-18 8.40731E-19
 -1      3438 9.52489E-05-2.85667E-05-2.85781E-05 7.99063E-09 1.18362E-18-1.54890E-18
 -1      3439 9.52460E-05-2.85727E-05-2.85742E-05 1.21683E-08 5.51175E-19 8.73618E-19
 -1      3440 9.52456E-05-2.85741E-05-2.85735E-05 1.27048E-08 3.32460E-19 1.12492E-18
 -1      3441 9.52487E-05-2.85720E-05-2.85757E-05 1.06852E-08 1.08311E-18-1.42600E-18
 -1      3442 9.52450E-05-2.85751E-05-2.85728E-05 1.28286E-08 5.72693E-20 1.24679E-18
 -1      3443 9.52445E-05-2.85758E-05-2.85723E-05 1.27851E-08 7.22310E-19 1.46248E-18
 -1      3444 9.52477E-05-2.85751E-05-2.85740E-05 1.17327E-08 8.22843E-19-6.44127E-19
 -1      3445 9.52438E-05-2.85762E-05-2.85718E-05 1.25103E-08 4.19710E-19 1.67797E-18
 -1      3446 9.52433E-05-2.85766E-05-2.85715E-05 1.21106E-08 2.72782E-19 7.30944E-19
 -1      3447 9.52463E-05-2.85768E-05-2.85727E-05 1.17152E-08 4.77656E-19 9.29601E-19
 -1      3448 9.52426E-05-2.85767E-05-2.85711E-05 1.16021E-08 8.53988E-20 4.25452E-19
 -1      3449 9.52421E-05-2.85768E-05-2.85709E-05 1.09918E-08-7.74751E-20-1.94691E-19
 -1      3450 9.52448E-05-2.85775E-05-2.85717E-05 1.10470E-08 1.83795E-19 1.74258E-18
 -1      3451 5.31733E-05-8.62103E-06-1.90164E-05-7.21855E-07 1.52123E-19 2.24718E-18
 -1      3452 5.46826E-05-1.05405E-05-1.87980E-05-1.19317E-05 1.27129E-18 2.79971E-18
 -1      3453 6.90763E-05-1.49796E-05-2.29538E-05-1.91544E-05 2.23193E-19-3.00178E-18
 -1      3454 9.06122E-05-2.33475E-05-2.88516E-05 3.94755E-06-6.95098E-19-1.53143E-18
 -1      3455 8.96944E-05-2.25401E-05-2.87958E-05 4.43702E-06-1.09278E-18-1.74015E-18
 -1      3456 9.39675E-05-2.65464E-05-2.89041E-05 2.05707E-06 5.59133E-20-1.28531E-18
 -1      3457 9.37251E-05-2.62167E-05-2.89331E-05 2.36663E-06 2.12024E-19-6.26786E-19
 -1      3458 9.44462E-05-2.71283E-05-2.88574E-05 1.57144E-06 1.14124E-18-2.56424E-18
 -1      3459 9.42912E-05-2.68805E-05-2.88898E-05 1.83178E-06 8.39608E-19-1.85730E-18
 -1      3460 9.37594E-05-2.64404E-05-2.88417E-05 1.74036E-06 1.29215E-18-2.72662E-18
 -1      3461 9.47397E-05-2.75276E-05-2.88100E-05 1.19535E-06 6.60447E-19-2.61952E-18
 -1      3462 9.46517E-05-2.73579E-05-2.88389E-05 1.39237E-06 6.95168E-19-2.26761E-18
 -1      3463 9.42731E-05-2.70255E-05-2.88144E-05 1.36415E-06 1.32480E-18-3.07949E-18
 -1      3464 9.49288E-05-2.78176E-05-2.87654E-05 8.94201E-07-7.77122E-19-2.61579E-18
 -1      3465 9.48766E-05-2.76945E-05-2.87907E-05 1.04842E-06 2.77371E-19-1.90809E-18
 -1      3466 9.46074E-05-2.74445E-05-2.87804E-05 1.05285E-06 7.44089E-20-2.56862E-18
 -1      3467 9.50500E-05-2.80287E-05-2.87259E-05 6.57453E-07-1.49240E-19-2.82683E-18
 -1      3468 9.50199E-05-2.79392E-05-2.87473E-05 7.76535E-07-3.76844E-19-2.60988E-18
 -1      3469 9.48307E-05-2.77524E-05-2.87456E-05 7.96449E-07-3.96161E-19-1.31658E-18
 -1      3470 9.51272E-05-2.81825E-05-2.86924E-05 4.74290E-07-7.84676E-19-1.44392E-18
 -1      3471 9.51104E-05-2.81173E-05-2.87099E-05 5.65062E-07-8.50012E-19-2.14396E-18
 -1      3472 9.49795E-05-2.79790E-05-2.87131E-05 5.90589E-07-7.58437E-19-4.72962E-19
 -1      3473 9.51760E-05-2.82949E-05-2.86646E-05 3.34728E-07-3.29048E-19-1.28643E-18
 -1      3474 9.51670E-05-2.82472E-05-2.86787E-05 4.03031E-07-2.23127E-19-1.18429E-18
 -1      3475 9.50782E-05-2.81458E-05-2.86845E-05 4.28805E-07-4.65590E-19-6.50727E-19
 -1      3476 9.52064E-05-2.83770E-05-2.86421E-05 2.29937E-07-1.92111E-18-8.52806E-19
 -1      3477 9.52020E-05-2.83420E-05-2.86533E-05 2.80693E-07-7.98556E-19-7.27542E-19
 -1      3478 9.51432E-05-2.82684E-05-2.86602E-05 3.04067E-07-7.88239E-19 7.78533E-20
 -1      3479 9.52257E-05-2.84393E-05-2.86234E-05 1.49339E-07-2.28107E-18-1.35228E-18
 -1      3480 9.52238E-05-2.84128E-05-2.86325E-05 1.87782E-07-1.96697E-18-8.81523E-19
 -1      3481 9.51863E-05-2.83602E-05-2.86395E-05 2.07761E-07-1.67381E-18-2.76363E-19
 -1      3482 9.52366E-05-2.84819E-05-2.86096E-05 9.42893E-08-2.16373E-18-1.48480E-18
 -1      3483 9.52361E-05-2.84636E-05-2.86162E-05 1.20472E-07-2.42674E-18-1.68547E-18
 -1      3484 9.52139E-05-2.84272E-05-2.86228E-05 1.36488E-07-1.93969E-18-7.34147E-19
 -1      3485 9.52426E-05-2.85126E-05-2.85989E-05 5.52038E-08-1.88632E-18-5.68913E-19
 -1      3486 9.52428E-05-2.84994E-05-2.86039E-05 7.35895E-08-1.64347E-18-1.41088E-18
 -1      3487 9.52305E-05-2.84743E-05-2.86098E-05 8.62252E-08-1.88286E-18-8.17848E-19
 -1      3488 9.52456E-05-2.85344E-05-2.85907E-05 2.81773E-08 2.63255E-19-2.29727E-18
 -1      3489 9.52462E-05-2.85250E-05-2.85945E-05 4.07633E-08-8.06928E-19-1.49622E-18
 -1      3490 9.52404E-05-2.85081E-05-2.85996E-05 5.04556E-08-5.22979E-19-2.17790E-18
 -1      3491 9.52468E-05-2.85496E-05-2.85846E-05 1.00828E-08 1.01134E-18-1.30200E-18
 -1      3492 9.52474E-05-2.85430E-05-2.85874E-05 1.84098E-08 3.15412E-20-1.43863E-18
 -1      3493 9.52459E-05-2.85321E-05-2.85917E-05 2.56664E-08-3.07560E-19-1.73197E-18
 -1      3494 9.52468E-05-2.85600E-05-2.85801E-05-1.51394E-09-6.10814E-19 7.07430E-19
 -1      3495 9.52475E-05-2.85555E-05-2.85821E-05 3.74057E-09 7.45354E-19-8.12887E-19
 -1      3496 9.52485E-05-2.85488E-05-2.85856E-05 9.04887E-09-2.08755E-19-7.79526E-19
 -1      3497 9.52461E-05-2.85669E-05-2.85768E-05-8.48281E-09-4.37626E-20 1.26729E-18
 -1      3498 9.52468E-05-2.85639E-05-2.85782E-05-5.39836E-09 4.41286E-19 1.65194E-18
 -1      3499 9.52493E-05-2.85602E-05-2.85811E-05-1.60538E-09-4.72145E-19 8.21889E-19
 -1      3500 9.52451E-05-2.85713E-05-2.85745E-05-1.22428E-08 9.59816E-19-2.13007E-19
 -1      3501 9.52457E-05-2.85694E-05-2.85755E-05-1.06463E-08-1.54946E-19 6.68274E-19
 -1      3502 9.52489E-05-2.85676E-05-2.85777E-05-8.00452E-09 3.64500E-19 7.00089E-19
 -1      3503 9.52440E-05-2.85740E-05-2.85728E-05-1.38702E-08 2.45863E-18-2.35325E-18
 -1      3504 9.52444E-05-2.85728E-05-2.85735E-05-1.32727E-08 1.75053E-18-1.96372E-18
 -1      3505 9.52479E-05-2.85724E-05-2.85752E-05-1.14853E-08 2.38965E-18-1.21084E-18
 -1      3506 9.52428E-05-2.85754E-05-2.85718E-05-1.39928E-08 6.45288E-19-1.69155E-18
 -1      3507 9.52432E-05-2.85747E-05-2.85722E-05-1.40620E-08 1.63516E-18-2.31445E-18
 -1      3508 9.52464E-05-2.85751E-05-2.85735E-05-1.29238E-08 1.44313E-18-2.56549E-18
 -1      3509 9.52417E-05-2.85759E-05-2.85710E-05-1.32757E-08 2.02391E-18-1.85902E-18
 -1      3510 9.52420E-05-2.85757E-05-2.85713E-05-1.37267E-08 9.56578E-19-1.34730E-18
 -1      3511 9.52450E-05-2.85764E-05-2.85723E-05-1.30245E-08 2.30697E-19-3.18601E-18
 -1      3512 9.52408E-05-2.85761E-05-2.85706E-05-1.20684E-08 2.04456E-18-5.15975E-19
 -1      3513 9.52410E-05-2.85760E-05-2.85707E-05-1.27419E-08 1.85356E-18-1.11034E-18
 -1      3514 9.52435E-05-2.85769E-05-2.85714E-05-1.23474E-08 1.39126E-18-6.62833E-19
 -1      3515 9.52400E-05-2.85761E-05-2.85702E-05-1.06029E-08 6.92942E-19 9.08316E-19
 -1      3516 9.52401E-05-2.85760E-05-2.85703E-05-1.13816E-08 2.30133E-18-1.89084E-19
 -1      3517 9.52422E-05-2.85770E-05-2.85708E-05-1.12347E-08 2.20914E-18 1.05299E-18
 -1      3518 1.27841E-04-4.46602E-05-3.59958E-05-4.55743E-06-6.19479E-19 5.72316E-19
 -1      3519 1.27016E-04-4.76538E-05-3.37659E-05 1.49128E-06 3.96120E-20 7.40519E-19
 -1      3520 9.52405E-05-2.85770E-05-2.85700E-05-8.41740E-09 2.00639E-18 5.62367E-19
 -1      3521 9.52395E-05-2.85762E-05-2.85700E-05-8.71268E-09 8.77792E-19 3.09669E-19
 -1      3522 9.52395E-05-2.85761E-05-2.85700E-05-9.29911E-09 3.67337E-19 4.40952E-19
 -1      3523 9.52414E-05-2.85774E-05-2.85703E-05-8.69425E-09 8.28028E-19-6.43182E-19
 -1      3524 9.52465E-05-2.85803E-05-2.85713E-05 2.53543E-09-1.53713E-18-2.66249E-18
 -1      3525 9.52468E-05-2.85804E-05-2.85713E-05 9.90086E-10-1.11919E-18-1.66302E-18
 -1      3526 1.22348E-04-3.23215E-05-3.89411E-05-1.20213E-05-1.88002E-18 3.93473E-19
 -1      3527 1.26448E-04-3.90755E-05-3.73849E-05-9.19037E-06-1.13153E-18 6.53287E-19
 -1      3528 1.23449E-04-4.03485E-05-3.56630E-05-7.36667E-06-6.99646E-19 1.79849E-19
 -1      3529 7.30297E-05-1.34912E-05-2.55962E-05 6.66035E-06 1.19063E-18-4.68250E-20
 -1      3530 6.91254E-05-1.24052E-05-2.43687E-05 7.67672E-06 3.13518E-19-9.18501E-20
 -1      3531 6.92460E-05-8.04021E-06-2.62538E-05-5.59608E-06 1.97232E-18-2.71606E-18
 -1      3532 6.72686E-05-6.12500E-06-2.60303E-05-1.46591E-06 2.28489E-18-3.05664E-18
 -1      3533 6.48929E-05-5.36124E-06-2.55802E-05 3.87941E-06 2.53209E-18-3.29465E-18
 -1      3534 6.52390E-05-8.32226E-06-2.43859E-05-8.09321E-06 1.61133E-18-3.20962E-18
 -1      3535 8.82749E-05-2.15302E-05-2.86378E-05 4.66985E-06-7.01121E-19-1.63902E-18
 -1      3536 8.69080E-05-2.05009E-05-2.84858E-05 5.19836E-06 1.25994E-19-1.53340E-18
 -1      3537 8.79344E-05-2.14271E-05-2.84547E-05 3.32916E-06-7.89352E-19-1.84521E-18
 -1      3538 9.61209E-05-2.45450E-05-3.06607E-05 7.24444E-06 1.31910E-18-3.01172E-18
 -1      3539 9.95163E-05-2.81238E-05-3.06323E-05 6.47561E-06 1.06672E-18-2.62982E-18
 -1      3540 9.35606E-05-2.29426E-05-3.02719E-05 9.61857E-06 1.72284E-18-3.06762E-18
 -1      3541 8.48907E-05-1.92501E-05-2.81786E-05 5.36076E-06 4.57151E-19-1.42219E-18
 -1      3542 8.29129E-05-1.80067E-05-2.78532E-05 5.91621E-06 2.78247E-19-8.97510E-19
 -1      3543 8.46090E-05-1.91845E-05-2.79667E-05 3.44268E-06 4.22506E-19-1.56449E-18
 -1      3544 8.00332E-05-1.65504E-05-2.72802E-05 6.00087E-06 7.53432E-19-5.79518E-19
 -1      3545 7.71644E-05-1.51737E-05-2.66250E-05 6.60657E-06 1.57489E-18-2.23206E-19
 -1      3546 7.31301E-05-1.33874E-05-2.54369E-05 2.70805E-06 1.18982E-18 2.73950E-20
 -1      3547 7.98872E-05-1.64615E-05-2.70631E-05 3.24618E-06 9.02221E-19-6.12153E-19
 -1      3548 9.22000E-05-2.47396E-05-2.89290E-05 3.24821E-06-5.07006E-19-8.72374E-19
 -1      3549 9.15987E-05-2.41290E-05-2.89238E-05 3.68335E-06-4.17283E-19-9.08193E-19
 -1      3550 9.02673E-05-2.32160E-05-2.87037E-05 3.01490E-06-9.02983E-19-1.65460E-18
 -1      3551 1.07539E-04-3.44998E-05-3.13257E-05-5.38619E-06-8.69358E-19-1.55358E-18
 -1      3552 1.08164E-04-3.49136E-05-3.14332E-05-6.04180E-06-7.64645E-19-1.62300E-18
 -1      3553 1.22052E-04-4.92418E-05-3.15259E-05 1.05839E-05 8.50924E-19 1.90477E-19
 -1      3554 1.12913E-04-4.52845E-05-2.88256E-05 1.96427E-05 1.75042E-18-5.32962E-19
 -1      3555 1.09232E-04-3.50677E-05-3.17947E-05-7.49215E-06-6.01182E-19-1.44620E-18
 -1      3556 1.09109E-04-3.41939E-05-3.21249E-05-8.36697E-06-6.46854E-19-1.40751E-18
 -1      3557 1.11621E-04-3.45985E-05-3.29586E-05-8.97954E-06-5.81617E-19-1.03624E-18
 -1      3558 7.40888E-05-2.33161E-05-2.19518E-05 3.24104E-05 3.61744E-18-2.73094E-18
 -1      3559 6.23573E-05-1.39490E-05-2.04615E-05 2.65233E-05 3.38146E-18-3.46166E-18
 -1      3560 1.22983E-04-3.54648E-05-3.74421E-05 1.12273E-05-6.60156E-19-4.21948E-18
 -1      3561 1.19228E-04-2.80387E-05-3.93746E-05 1.27107E-05-1.50687E-18-3.92710E-18
 -1      3562 1.12937E-04-1.81274E-05-4.08871E-05-9.76715E-06-2.53123E-18-3.97206E-19
 -1      3563 1.18472E-04-2.49617E-05-4.00907E-05-1.28104E-05-2.18593E-18 1.69499E-19
 -1      3564 1.15232E-04-2.22907E-05-3.99145E-05 1.20655E-05-1.92123E-18-3.47082E-18
 -1      3565 1.10707E-04-1.77983E-05-4.00105E-05 9.01859E-06-1.66863E-18-2.26575E-18
 -1      3566 1.14062E-04-2.64734E-05-3.76236E-05 1.16367E-05-1.34845E-18-2.82195E-18
 -1      3567 9.32637E-05-2.57804E-05-2.89342E-05 2.61123E-06-2.98143E-19-6.12073E-19
 -1      3568 9.28780E-05-2.53287E-05-2.89534E-05 2.98337E-06-5.59385E-19-9.43639E-19
 -1      3569 9.18834E-05-2.45978E-05-2.88149E-05 2.60173E-06-5.47972E-19-7.28854E-19
 -1      3570 9.29918E-05-2.56442E-05-2.88490E-05 2.16403E-06 8.05979E-20-1.62038E-18
 -1      3571 5.50210E-05-7.82050E-06-2.01520E-05 1.85833E-05 3.04907E-18-3.91271E-18
 -1      3572 5.20487E-05-4.72021E-06-2.00586E-05 7.55752E-06 2.41945E-18-4.23675E-18
 -1      3573 6.00579E-05-1.01770E-05-2.11328E-05 8.97916E-06-8.79842E-19 1.30147E-18
 -1      3574 6.22849E-05-1.01303E-05-2.19208E-05-1.44305E-05 8.37451E-19-3.55820E-18
 -1      3575 9.95765E-05-3.84787E-05-2.63033E-05 2.79442E-05 2.74980E-18-1.17544E-18
 -1      3576 8.70945E-05-3.05272E-05-2.37778E-05 3.20557E-05 3.44353E-18-2.07548E-18
 -1      3577 1.23929E-04-4.68314E-05-3.30097E-05 1.19576E-06 1.16005E-18-3.82331E-18
 -1      3578 1.24595E-04-4.24079E-05-3.55050E-05 7.56338E-06 1.18843E-19-4.22915E-18
 -1      3579 5.47611E-05-6.52423E-06-2.06570E-05-6.41086E-06 1.41124E-18-4.05321E-18
 -1      3580 6.17805E-05-7.95539E-06-2.28894E-05-8.17826E-06 1.51161E-18-3.45910E-18
 -1      3581 6.01651E-05-4.88476E-06-2.33204E-05-7.18469E-07 2.15316E-18-3.72569E-18
 -1      3582 5.20275E-05-4.68525E-06-1.99749E-05 1.54457E-06 1.95542E-18-4.43268E-18
 -1      3583 6.40785E-05-1.10407E-05-2.25855E-05 4.72530E-06 3.53107E-19 7.52020E-19
 -1      3584 6.37409E-05-1.06487E-05-2.26044E-05-1.31915E-06 9.72672E-19 8.10505E-19
 -1      3585 1.08931E-04-4.55169E-05-2.71466E-05-1.97707E-05 2.83412E-18-8.28370E-19
 -1      3586 1.11116E-04-4.47535E-05-2.83613E-05-1.29912E-05 2.18906E-18-1.61125E-18
 -1      3587 1.01705E-04-4.01458E-05-2.64423E-05-2.01362E-05 2.10763E-18-6.30351E-19
 -1      3588 1.05701E-04-1.69645E-05-3.80875E-05-4.08221E-06-1.82317E-18-1.31163E-18
 -1      3589 1.01886E-04-3.08388E-05-3.04005E-05 8.11444E-06 1.29515E-18-2.27183E-18
 -1      3590 1.03555E-04-3.17543E-05-3.07881E-05 5.13970E-06 8.40935E-19-2.27272E-18
 -1      3591 1.03350E-04-3.02103E-05-3.13359E-05-3.51052E-06-4.40794E-19-2.37194E-18
 -1      3592 1.06144E-04-1.66893E-05-3.84110E-05 4.33741E-06-1.53680E-18-1.74601E-18
 -1      3593 1.02521E-04-1.98903E-05-3.53697E-05 5.71863E-06-1.44101E-18-1.71785E-18
 -1      3594 1.06370E-04-3.42911E-05-3.09089E-05 3.54210E-06 5.37912E-19-1.84142E-18
 -1      3595 1.04361E-04-3.17057E-05-3.10897E-05 1.96540E-06 4.62194E-19-2.26412E-18
 -1      3596 1.04722E-04-3.18254E-05-3.12752E-05-5.80105E-07-2.76427E-20-2.23718E-18
 -1      3597 6.20172E-05-1.26545E-05-2.09653E-05-1.20960E-05 1.68517E-18 1.49029E-18
 -1      3598 5.90794E-05-1.37052E-05-1.91562E-05-1.81771E-05 2.37296E-18 2.36417E-18
 -1      3599 1.03678E-04-2.21525E-05-3.50187E-05 8.07172E-06-8.83421E-19-1.47872E-18
 -1      3600 9.52413E-05-2.85766E-05-2.85706E-05 1.06786E-08-2.73035E-19-9.06915E-19
 -1      3601 9.52409E-05-2.85766E-05-2.85704E-05 1.00780E-08-2.68663E-19-1.28906E-19
 -1      3602 9.52416E-05-2.85771E-05-2.85705E-05 9.64894E-09-6.25102E-19-8.25325E-20
 -1      3603 9.52431E-05-2.85775E-05-2.85710E-05 1.02896E-08-1.20363E-19 1.09355E-18
 -1      3604 8.18723E-05-2.49517E-05-2.42384E-05 2.85202E-05 3.18278E-18-2.52524E-18
 -1      3605 1.10646E-04-3.61260E-05-3.19089E-05-5.96768E-06-6.34097E-19-1.33278E-18
 -1      3606 5.65756E-05-5.12264E-06-2.19469E-05 6.08385E-06 2.38521E-18-3.87068E-18
 -1      3607 1.21557E-04-4.61676E-05-3.23272E-05 4.66710E-06 5.49049E-19 4.04988E-21
 -1      3608 9.52394E-05-2.85760E-05-2.85701E-05-9.85455E-09 6.22755E-19 6.11952E-19
 -1      3609 9.52461E-05-2.85800E-05-2.85712E-05 4.20669E-09-2.23756E-18-1.39848E-18
 -1      3610 9.52473E-05-2.85802E-05-2.85716E-05 3.59092E-09-9.79380E-19-2.32947E-18
 -1      3611 9.52454E-05-2.85796E-05-2.85711E-05 5.62100E-09-1.11542E-18 4.19541E-19
 -1      3612 9.40990E-05-2.50352E-05-2.96511E-05 1.24122E-05 1.80260E-18-2.83711E-18
 -1      3613 1.20014E-04-3.75158E-05-3.53439E-05 9.84149E-06-1.37077E-19-3.54919E-18
 -1      3614 1.17366E-04-2.88855E-05-3.79476E-05-1.18681E-05-1.57064E-18 1.84468E-19
 -1      3615 9.52468E-05-2.85804E-05-2.85713E-05-7.72004E-10-1.11996E-18 1.21672E-18
 -1      3616 9.52466E-05-2.85803E-05-2.85713E-05-2.34751E-09-1.67395E-18 2.36486E-18
 -1      3617 9.52478E-05-2.85805E-05-2.85717E-05 1.19080E-10-1.16587E-18-4.62069E-19
 -1      3618 9.52421E-05-2.85775E-05-2.85705E-05-9.34184E-09 1.15158E-18-1.09967E-19
 -1      3619 9.52410E-05-2.85769E-05-2.85703E-05-9.83751E-09 6.06959E-19-2.35379E-19
 -1      3620 6.35549E-05-1.09361E-05-2.22398E-05 2.03362E-05 3.10486E-18-3.48154E-18
 -1      3621 9.52447E-05-2.85792E-05-2.85709E-05-6.95994E-09 9.21826E-19-5.30698E-19
 -1      3622 9.52436E-05-2.85785E-05-2.85708E-05-8.11490E-09 1.61782E-18-2.62356E-18
 -1      3623 8.56232E-05-2.14956E-05-2.75177E-05 1.99155E-05 2.67849E-18-2.65955E-18
 -1      3624 9.09943E-05-2.48072E-05-2.82394E-05 1.81862E-05 2.43002E-18-2.65277E-18
 -1      3625 1.07058E-04-2.34482E-05-3.58687E-05 9.77553E-06-8.51917E-19-1.92385E-18
 -1      3626 1.16574E-04-4.65330E-05-3.00640E-05-5.79116E-06 1.54328E-18-2.40905E-18
 -1      3627 1.21739E-04-4.82530E-05-3.14871E-05-2.18438E-06 1.59777E-18-3.11802E-18
 -1      3628 1.18946E-04-4.37546E-05-3.21824E-05 3.12093E-06 7.81375E-19-3.09665E-18
 -1      3629 6.53188E-05-1.90774E-05-1.98388E-05-2.48074E-05 3.20004E-18 1.49083E-18
 -1      3630 8.47339E-05-3.26953E-05-2.24209E-05-3.05475E-05 3.66282E-18 8.81338E-19
 -1      3631 9.04180E-05-3.39610E-05-2.41602E-05-2.59134E-05 3.05617E-18 5.74606E-19
 -1      3632 7.54677E-05-2.59782E-05-2.09257E-05-2.89709E-05 3.59409E-18 1.67315E-18
 -1      3633 1.06671E-04-3.38119E-05-3.12334E-05-3.21102E-06-5.04671E-19-1.81237E-18
 -1      3634 1.08666E-04-3.52736E-05-3.13998E-05-2.27840E-06-3.27822E-19-1.66579E-18
 -1      3635 1.10513E-04-4.12446E-05-2.97008E-05 1.46806E-05 1.60795E-18-1.06220E-18
 -1      3636 1.07063E-04-4.14055E-05-2.80488E-05 2.22433E-05 2.17974E-18-1.14831E-18
 -1      3637 9.87300E-05-3.46958E-05-2.74738E-05 2.27408E-05 2.35748E-18-1.75306E-18
 -1      3638 1.08934E-04-1.72319E-05-3.94811E-05-7.28444E-06-2.24411E-18-9.20937E-19
 -1      3639 7.09668E-05-1.31719E-05-2.48050E-05 2.13706E-05 3.15139E-18-3.01853E-18
 -1      3640 7.67457E-05-1.68839E-05-2.54958E-05 2.22936E-05 3.03870E-18-2.88390E-18
 -1      3641 9.52423E-05-2.85776E-05-2.85706E-05 9.10056E-09-3.36107E-19-1.49120E-20
 -1      3642 1.05400E-04-3.23956E-05-3.12745E-05-2.84415E-06-3.68650E-19-2.09104E-18
 -1      3643 9.52433E-05-2.85780E-05-2.85709E-05-9.35590E-09 2.79908E-18-8.61784E-19
 -1      3644 9.52434E-05-2.85779E-05-2.85709E-05 9.19338E-09-1.28657E-18 6.08046E-19
 -1      3645 9.52433E-05-2.85782E-05-2.85708E-05 8.24613E-09-9.56707E-19 4.13001E-19
 -1      3646 9.52444E-05-2.85789E-05-2.85709E-05 7.14629E-09-1.50267E-18 1.23567E-19
 -1      3647 9.52443E-05-2.85781E-05-2.85712E-05 9.38858E-09-7.62740E-19 1.25501E-18
 -1      3648 8.80045E-05-2.18631E-05-2.83626E-05 1.92506E-06-5.21168E-19-1.50737E-18
 -1      3649 8.65860E-05-2.09143E-05-2.81817E-05 1.92101E-06-3.62500E-19-1.21317E-18
 -1      3650 1.09455E-04-3.71484E-05-3.10116E-05 4.28052E-06 6.39406E-19-1.40917E-18
 -1      3651 1.09665E-04-3.68074E-05-3.12703E-05 1.08601E-06 1.47969E-19-1.64434E-18
 -1      3652 8.58371E-05-2.36102E-05-2.67592E-05 2.26580E-05 2.86543E-18-2.35341E-18
 -1      3653 1.00896E-04-3.18277E-05-2.95819E-05 1.32727E-05 1.70204E-18-2.14781E-18
 -1      3654 1.05659E-04-3.58903E-05-2.98909E-05 1.16908E-05 1.40789E-18-1.69684E-18
 -1      3655 6.40393E-05-1.16308E-05-2.24006E-05-6.66239E-06 1.43758E-18 1.40496E-18
 -1      3656 6.72079E-05-1.46596E-05-2.25763E-05-1.28768E-05 2.40797E-18 1.44843E-19
 -1      3657 6.92033E-05-1.29083E-05-2.40744E-05-2.79847E-06 1.94361E-18 3.90843E-19
 -1      3658 1.15766E-04-3.78412E-05-3.33857E-05 8.66523E-06 1.47126E-19-2.77528E-18
 -1      3659 1.15978E-04-4.03841E-05-3.24420E-05 6.73355E-06 3.91996E-19-2.55340E-18
 -1      3660 1.14010E-04-4.13572E-05-3.11675E-05 3.61166E-06 5.38532E-19-2.06692E-18
 -1      3661 1.13041E-04-4.17965E-05-3.05088E-05 1.69123E-06 5.85538E-19-1.98201E-18
 -1      3662 1.06071E-04-3.82903E-05-2.90608E-05-2.23199E-06 7.28951E-19-1.48999E-18
 -1      3663 1.04450E-04-3.70548E-05-2.88337E-05-3.14620E-06 1.25072E-18-1.48417E-18
 -1      3664 1.02531E-04-3.56306E-05-2.86747E-05-3.54357E-06 1.69764E-18-1.34434E-18
 -1      3665 1.01155E-04-3.44021E-05-2.85687E-05-3.95720E-06 1.66393E-18-9.11244E-19
 -1      3666 1.03288E-04-3.65743E-05-2.86071E-05-4.92348E-06 1.45656E-18-4.71458E-19
 -1      3667 9.97007E-05-3.31577E-05-2.85168E-05-3.97015E-06 1.11603E-18-7.13727E-19
 -1      3668 9.86197E-05-3.20986E-05-2.84834E-05-4.04932E-06 6.84818E-19-2.68690E-19
 -1      3669 9.99782E-05-3.38067E-05-2.84080E-05-5.19500E-06 1.82372E-18-1.14401E-19
 -1      3670 9.76410E-05-3.11531E-05-2.84872E-05-3.81749E-06 4.57880E-19 1.07208E-19
 -1      3671 9.68666E-05-3.03558E-05-2.84896E-05-3.71697E-06 4.78123E-19 3.00226E-19
 -1      3672 9.75820E-05-3.14499E-05-2.83761E-05-4.76698E-06 8.20581E-19 4.31029E-19
 -1      3673 9.62538E-05-2.96957E-05-2.85161E-05-3.39619E-06 3.88269E-19 6.10175E-19
 -1      3674 9.57423E-05-2.91473E-05-2.85329E-05-3.20899E-06 8.12835E-19 5.01630E-19
 -1      3675 9.60281E-05-2.97711E-05-2.84184E-05-4.08452E-06 6.67017E-19 9.48194E-19
 -1      3676 9.53960E-05-2.87266E-05-2.85644E-05-2.87793E-06 8.04006E-19 4.51107E-19
 -1      3677 9.50851E-05-2.83825E-05-2.85835E-05-2.66186E-06 4.30214E-19 4.37596E-19
 -1      3678 9.50991E-05-2.86665E-05-2.84853E-05-3.34874E-06 8.74450E-19 1.37867E-18
 -1      3679 9.49195E-05-2.81437E-05-2.86114E-05-2.35918E-06 6.62158E-19 4.35637E-19
 -1      3680 9.47502E-05-2.79526E-05-2.86270E-05-2.14640E-06 5.46831E-19 6.13434E-19
 -1      3681 9.46096E-05-2.80096E-05-2.85512E-05-2.66501E-06 6.32544E-19 1.10065E-18
 -1      3682 9.46994E-05-2.78421E-05-2.86479E-05-1.88719E-06 5.73335E-19 5.72724E-19
 -1      3683 9.46235E-05-2.77576E-05-2.86579E-05-1.69393E-06 7.44694E-19 7.74146E-19
 -1      3684 9.44086E-05-2.76752E-05-2.86045E-05-2.07580E-06 5.19832E-19 6.43954E-19
 -1      3685 9.46394E-05-2.77309E-05-2.86711E-05-1.48081E-06 6.44821E-19 4.75808E-19
 -1      3686 9.46207E-05-2.77150E-05-2.86756E-05-1.31354E-06 8.89266E-19 6.49242E-19
 -1      3687 9.43836E-05-2.75576E-05-2.86417E-05-1.59080E-06 6.59949E-19 8.37504E-19
 -1      3688 9.46708E-05-2.77388E-05-2.86823E-05-1.14285E-06 8.63263E-19-1.66975E-19
 -1      3689 9.46839E-05-2.77634E-05-2.86822E-05-1.00273E-06 6.71042E-19 7.56911E-20
 -1      3690 9.44555E-05-2.75746E-05-2.86637E-05-1.20292E-06 5.23171E-19-1.29249E-19
 -1      3691 9.47473E-05-2.78138E-05-2.86837E-05-8.68601E-07 1.55610E-19 1.10109E-19
 -1      3692 9.47754E-05-2.78591E-05-2.86803E-05-7.54037E-07 2.88397E-19 1.33506E-20
 -1      3693 9.45722E-05-2.76670E-05-2.86733E-05-8.98695E-07 4.39199E-19-4.59802E-19
 -1      3694 9.48396E-05-2.79203E-05-2.86782E-05-6.50157E-07 2.60230E-19-4.48953E-19
 -1      3695 9.48725E-05-2.79734E-05-2.86728E-05-5.58312E-07-2.62812E-20-1.00667E-19
 -1      3696 9.47013E-05-2.77945E-05-2.86737E-05-6.63443E-07 9.86184E-20-9.64878E-19
 -1      3697 9.49308E-05-2.80354E-05-2.86684E-05-4.78824E-07-3.68595E-19 1.60157E-19
 -1      3698 9.49625E-05-2.80882E-05-2.86619E-05-4.06441E-07 2.35650E-20-1.69561E-20
 -1      3699 9.48244E-05-2.79309E-05-2.86678E-05-4.83520E-07-1.38269E-19-4.99481E-19
 -1      3700 9.50120E-05-2.81454E-05-2.86563E-05-3.46293E-07 1.21299E-19-8.31845E-20
 -1      3701 9.50397E-05-2.81935E-05-2.86495E-05-2.90161E-07 4.18861E-21 6.11573E-19
 -1      3702 9.49322E-05-2.80610E-05-2.86583E-05-3.47211E-07-3.79067E-20-3.56968E-19
 -1      3703 9.50796E-05-2.82433E-05-2.86435E-05-2.45158E-07-9.06038E-20 8.49814E-19
 -1      3704 9.51021E-05-2.82847E-05-2.86370E-05-2.02312E-07 5.44911E-19 9.02669E-19
 -1      3705 9.50213E-05-2.81767E-05-2.86470E-05-2.44915E-07 8.67584E-20 4.58662E-19
 -1      3706 9.51330E-05-2.83260E-05-2.86311E-05-1.69065E-07 4.54947E-19 4.84716E-20
 -1      3707 9.51504E-05-2.83602E-05-2.86251E-05-1.36917E-07-5.39903E-19-1.85824E-20
 -1      3708 9.50917E-05-2.82748E-05-2.86353E-05-1.68899E-07 3.85854E-20 4.71420E-19
 -1      3709 9.51734E-05-2.83934E-05-2.86197E-05-1.12710E-07-4.83617E-19-4.32852E-19
 -1      3710 9.51863E-05-2.84206E-05-2.86144E-05-8.90197E-08 1.99087E-19-7.16075E-19
 -1      3711 9.51451E-05-2.83548E-05-2.86240E-05-1.13101E-07-5.31857E-19-2.32807E-19
 -1      3712 9.52027E-05-2.84465E-05-2.86096E-05-7.16904E-08 5.60925E-19-1.63684E-18
 -1      3713 9.52118E-05-2.84675E-05-2.86051E-05-5.45838E-08 2.47930E-19-1.66754E-18
 -1      3714 9.51842E-05-2.84181E-05-2.86138E-05-7.27024E-08-4.53856E-19-1.10012E-18
 -1      3715 9.52231E-05-2.84870E-05-2.86010E-05-4.24261E-08 1.03831E-20-1.74661E-18
 -1      3716 9.52291E-05-2.85028E-05-2.85973E-05-3.03640E-08 8.07089E-20-1.49721E-18
 -1      3717 9.52117E-05-2.84667E-05-2.86048E-05-4.39404E-08 2.48447E-19-1.65899E-18
 -1      3718 9.52365E-05-2.85172E-05-2.85938E-05-2.20567E-08-2.93509E-19-1.63369E-18
 -1      3719 9.52402E-05-2.85287E-05-2.85908E-05-1.38011E-08-3.64062E-19-1.73161E-18
 -1      3720 9.52302E-05-2.85031E-05-2.85972E-05-2.38825E-08-4.40877E-19-8.13117E-19
 -1      3721 9.52447E-05-2.85390E-05-2.85880E-05-8.32346E-09-9.14726E-19-2.05790E-18
 -1      3722 9.52467E-05-2.85472E-05-2.85856E-05-2.88479E-09-1.09153E-18-2.57134E-18
 -1      3723 9.52419E-05-2.85296E-05-2.85909E-05-1.02876E-08-9.09481E-19-1.01430E-18
 -1      3724 9.52491E-05-2.85543E-05-2.85834E-05 5.55537E-10-5.09808E-19-2.45480E-18
 -1      3725 9.52500E-05-2.85598E-05-2.85816E-05 3.95251E-09-4.88567E-19-2.02520E-18
 -1      3726 9.52486E-05-2.85483E-05-2.85858E-05-1.40859E-09-7.06610E-19-2.47882E-18
 -1      3727 9.52509E-05-2.85645E-05-2.85798E-05 5.95619E-09 3.22269E-19-1.51925E-18
 -1      3728 9.52510E-05-2.85682E-05-2.85784E-05 7.90793E-09 1.57846E-18-1.36947E-18
 -1      3729 9.52518E-05-2.85610E-05-2.85818E-05 4.09165E-09 1.42847E-19-5.91786E-19
 -1      3730 9.52510E-05-2.85711E-05-2.85771E-05 8.92433E-09 1.50234E-18-1.95521E-18
 -1      3731 9.52507E-05-2.85734E-05-2.85760E-05 9.88095E-09 1.08813E-18-1.19199E-18
 -1      3732 9.52527E-05-2.85693E-05-2.85786E-05 7.22149E-09 1.38766E-18-1.48718E-18
 -1      3733 9.52501E-05-2.85750E-05-2.85750E-05 1.02401E-08 7.05391E-19-2.00582E-18
 -1      3734 9.52494E-05-2.85763E-05-2.85742E-05 1.05337E-08 5.97556E-19-1.88131E-18
 -1      3735 9.52521E-05-2.85744E-05-2.85762E-05 8.73108E-09 8.05656E-19-1.89403E-18
 -1      3736 9.52485E-05-2.85772E-05-2.85734E-05 1.04738E-08 1.01607E-18-1.00212E-18
 -1      3737 9.52478E-05-2.85778E-05-2.85729E-05 1.03443E-08 9.10410E-19-7.08375E-19
 -1      3738 9.52507E-05-2.85772E-05-2.85744E-05 9.16898E-09 1.18500E-18-2.42813E-18
 -1      3739 9.52467E-05-2.85781E-05-2.85723E-05 1.00327E-08 4.30825E-19 5.64426E-19
 -1      3740 9.52459E-05-2.85783E-05-2.85718E-05 9.66997E-09 2.00516E-19 1.14219E-18
 -1      3741 9.52487E-05-2.85785E-05-2.85730E-05 8.92754E-09 1.41951E-18-9.51507E-19
 -1      3742 1.08761E-04-1.73525E-05-3.93729E-05 7.60553E-06-1.50256E-18-2.09781E-18
 -1      3743 9.36168E-05-2.64562E-05-2.87894E-05 1.35173E-06 1.62227E-18-3.17940E-18
 -1      3744 9.32906E-05-2.61102E-05-2.87964E-05 1.53297E-06 1.04037E-18-2.93147E-18
 -1      3745 9.47482E-05-2.77284E-05-2.87256E-05 6.57091E-07-8.38849E-19-6.29109E-19
 -1      3746 9.46561E-05-2.75926E-05-2.87416E-05 7.66319E-07-3.30683E-19-1.14276E-18
 -1      3747 9.49177E-05-2.79575E-05-2.86994E-05 4.92015E-07-6.42267E-19-6.81748E-19
 -1      3748 9.48566E-05-2.78564E-05-2.87141E-05 5.79752E-07-8.23665E-20-5.64032E-19
 -1      3749 9.47015E-05-2.77029E-05-2.87111E-05 5.50258E-07-4.38614E-19-1.09521E-18
 -1      3750 9.50337E-05-2.81283E-05-2.86754E-05 3.59657E-07-3.20157E-19-3.36268E-19
 -1      3751 9.49933E-05-2.80531E-05-2.86882E-05 4.28549E-07-8.84309E-19-2.43873E-19
 -1      3752 9.48824E-05-2.79361E-05-2.86895E-05 4.16627E-07-7.62972E-19-9.23024E-19
 -1      3753 9.51124E-05-2.82553E-05-2.86543E-05 2.56037E-07-9.42270E-19-1.12734E-19
 -1      3754 9.50860E-05-2.81995E-05-2.86652E-05 3.09118E-07-5.98455E-19-8.65822E-20
 -1      3755 9.50082E-05-2.81114E-05-2.86689E-05 3.07007E-07-8.44981E-19 1.70314E-19
 -1      3756 9.51674E-05-2.83531E-05-2.86356E-05 1.73385E-07-1.73724E-18-8.71985E-19
 -1      3757 9.51496E-05-2.83103E-05-2.86450E-05 2.14932E-07-8.57125E-19-6.61126E-19
 -1      3758 9.50967E-05-2.82453E-05-2.86498E-05 2.18045E-07-6.42474E-19-6.19614E-19
 -1      3759 9.52017E-05-2.84211E-05-2.86209E-05 1.15049E-07-1.70794E-18-1.40205E-18
 -1      3760 9.51912E-05-2.83913E-05-2.86281E-05 1.44232E-07-1.74649E-18-1.29227E-18
 -1      3761 9.51566E-05-2.83446E-05-2.86333E-05 1.49500E-07-1.36269E-18-6.48952E-19
 -1      3762 9.52238E-05-2.84707E-05-2.86089E-05 7.23666E-08-8.86261E-19-2.92081E-18
 -1      3763 9.52174E-05-2.84490E-05-2.86147E-05 9.34813E-08-1.13130E-18-1.57300E-18
 -1      3764 9.51955E-05-2.84156E-05-2.86197E-05 9.93926E-08-1.01616E-18-1.46087E-18
 -1      3765 9.52375E-05-2.85064E-05-2.85994E-05 4.19151E-08-8.65571E-19-2.80423E-18
 -1      3766 9.52338E-05-2.84908E-05-2.86039E-05 5.68422E-08-1.20717E-18-2.72903E-18
 -1      3767 9.52208E-05-2.84674E-05-2.86084E-05 6.25559E-08-1.01163E-18-3.02167E-18
 -1      3768 9.52455E-05-2.85316E-05-2.85918E-05 2.08016E-08-4.88663E-19-1.80092E-18
 -1      3769 9.52435E-05-2.85206E-05-2.85953E-05 3.10551E-08-4.58300E-19-2.89415E-18
 -1      3770 9.52367E-05-2.85047E-05-2.85993E-05 3.61678E-08-1.04140E-18-2.72831E-18
 -1      3771 9.52496E-05-2.85492E-05-2.85860E-05 6.67532E-09-3.57401E-19-1.93387E-18
 -1      3772 9.52488E-05-2.85415E-05-2.85887E-05 1.34664E-08-1.41794E-19-2.11808E-18
 -1      3773 9.52460E-05-2.85311E-05-2.85921E-05 1.78343E-08 6.99321E-20-3.53640E-18
 -1      3774 9.52512E-05-2.85610E-05-2.85816E-05-2.34078E-09-3.83622E-19-1.08943E-18
 -1      3775 9.52512E-05-2.85559E-05-2.85836E-05 1.93874E-09-7.83000E-19-1.34450E-18
 -1      3776 9.52510E-05-2.85493E-05-2.85864E-05 5.55695E-09-5.57495E-19-2.92611E-18
 -1      3777 9.52512E-05-2.85687E-05-2.85782E-05-7.71580E-09 4.77543E-19-8.99249E-19
 -1      3778 9.52516E-05-2.85654E-05-2.85797E-05-5.20856E-09-5.89068E-20-2.48812E-19
 -1      3779 9.52529E-05-2.85616E-05-2.85820E-05-2.27810E-09-6.64682E-19-2.38541E-18
 -1      3780 9.52501E-05-2.85736E-05-2.85757E-05-1.06421E-08 2.94046E-18-1.89275E-18
 -1      3781 9.52508E-05-2.85715E-05-2.85768E-05-9.34137E-09 2.12567E-18-1.27657E-18
 -1      3782 9.52530E-05-2.85696E-05-2.85786E-05-7.00155E-09 1.54237E-18-1.82540E-18
 -1      3783 9.52486E-05-2.85762E-05-2.85739E-05-1.16966E-08 1.20676E-18-1.61177E-18
 -1      3784 9.52493E-05-2.85751E-05-2.85746E-05-1.12735E-08 2.75297E-18-1.11286E-18
 -1      3785 9.52518E-05-2.85745E-05-2.85760E-05-9.46180E-09 2.06624E-18-9.17204E-19
 -1      3786 9.52468E-05-2.85774E-05-2.85726E-05-1.16802E-08 2.15628E-20-1.86452E-18
 -1      3787 9.52476E-05-2.85769E-05-2.85731E-05-1.17736E-08 1.32892E-19-1.65199E-18
 -1      3788 9.52501E-05-2.85771E-05-2.85742E-05-1.03656E-08 1.26165E-18-1.23968E-19
 -1      3789 9.52451E-05-2.85778E-05-2.85717E-05-1.09940E-08 9.41474E-19-1.53460E-18
 -1      3790 9.52458E-05-2.85777E-05-2.85720E-05-1.14131E-08 6.10666E-19-1.87956E-18
 -1      3791 9.52481E-05-2.85782E-05-2.85728E-05-1.03333E-08 2.90221E-19-1.59227E-18
 -1      3792 9.52439E-05-2.85780E-05-2.85711E-05-9.90266E-09 2.23783E-18-1.70800E-18
 -1      3793 9.52445E-05-2.85780E-05-2.85714E-05-1.04794E-08 1.70116E-18-1.67502E-18
 -1      3794 9.52466E-05-2.85787E-05-2.85720E-05-9.63578E-09 1.15548E-18-3.51626E-18
 -1      3795 9.52456E-05-2.85789E-05-2.85714E-05-8.60110E-09 1.84099E-18-2.69559E-18
 -1      3796 9.45013E-05-2.74216E-05-2.87522E-05 8.57023E-07-2.25739E-19-1.61302E-18
 -1      3797 9.43632E-05-2.72393E-05-2.87683E-05 9.89415E-07-1.91548E-19-1.79159E-18
 -1      3798 9.44432E-05-2.73940E-05-2.87315E-05 7.06768E-07-4.91644E-19-5.11831E-19
 -1      3799 1.08566E-04-2.08673E-05-3.75910E-05-8.94235E-06-1.71635E-18-5.18450E-19
 -1      3800 6.50034E-05-7.62286E-06-2.45621E-05 1.46129E-05 2.91694E-18-3.39759E-18
 -1      3801 1.19557E-04-3.73000E-05-3.54887E-05-9.51434E-06-9.25794E-19 2.96892E-20
 -1      3802 1.21451E-04-4.09330E-05-3.43154E-05-6.16644E-06-4.51072E-19 8.01191E-20
 -1      3803 6.28511E-05-5.72484E-06-2.44043E-05 1.03654E-05 2.80906E-18-3.43491E-18
 -1      3804 6.02076E-05-5.33267E-06-2.33985E-05 4.90718E-06 2.45883E-18-3.61797E-18
 -1      3805 9.41431E-05-2.70116E-05-2.87756E-05 1.09033E-06 5.65105E-19-1.83554E-18
 -1      3806 9.39373E-05-2.67675E-05-2.87894E-05 1.24532E-06 1.56308E-18-1.96401E-18
 -1      3807 9.40759E-05-2.69865E-05-2.87468E-05 8.80209E-07 2.12296E-19-3.16247E-19
 -1      3808 9.70706E-05-2.96984E-05-2.88969E-05 1.63814E-05 2.13324E-18-2.22326E-18
 -1      3809 1.14044E-04-3.30133E-05-3.48937E-05 1.11966E-05-5.83768E-19-2.72523E-18
 -1      3810 8.49417E-05-1.98790E-05-2.79052E-05 1.51161E-06 1.08194E-19-5.48500E-19
 -1      3811 8.29329E-05-1.87237E-05-2.75707E-05 1.31872E-06 6.73573E-19-6.82161E-19
 -1      3812 8.55031E-05-2.04095E-05-2.78435E-05 2.87652E-08 3.97329E-19 2.30022E-20
 -1      3813 9.01926E-05-2.34659E-05-2.86102E-05 1.99148E-06-1.06250E-18-1.08860E-18
 -1      3814 8.92062E-05-2.27147E-05-2.85200E-05 2.10023E-06-9.46676E-19-2.02083E-18
 -1      3815 8.82583E-05-2.21719E-05-2.82853E-05 8.44582E-07-3.13939E-19-8.42309E-19
 -1      3816 1.14840E-04-3.75631E-05-3.31640E-05-7.59223E-06-4.31107E-19-6.30747E-19
 -1      3817 1.14721E-04-3.53631E-05-3.39800E-05-9.37514E-06-7.84485E-19-5.36099E-19
 -1      3818 1.11906E-04-3.77531E-05-3.17951E-05-3.51488E-06-3.74819E-19-1.14736E-18
 -1      3819 1.13025E-04-3.80046E-05-3.21801E-05-4.82093E-06-3.15963E-19-9.08575E-19
 -1      3820 9.52462E-05-2.85801E-05-2.85712E-05-4.04242E-09-1.50283E-18 1.38634E-18
 -1      3821 9.52456E-05-2.85797E-05-2.85711E-05-5.48013E-09-1.13171E-18 8.42866E-19
 -1      3822 9.52460E-05-2.85795E-05-2.85713E-05-6.56011E-09 7.66323E-19-1.04911E-18
 -1      3823 9.52474E-05-2.85803E-05-2.85716E-05-3.36467E-09-1.12074E-18 1.20793E-18
 -1      3824 1.07910E-04-2.04756E-05-3.74463E-05 9.25625E-06-1.36055E-18-1.72691E-18
 -1      3825 1.20808E-04-4.39737E-05-3.31215E-05-9.56606E-07-6.04173E-20-1.75495E-19
 -1      3826 1.17291E-04-4.38181E-05-3.13404E-05 6.06204E-06 6.48503E-19-4.62205E-19
 -1      3827 7.41497E-05-2.23815E-05-2.20753E-05-2.31008E-05 3.22918E-18 1.29546E-18
 -1      3828 1.10502E-04-2.48179E-05-3.69551E-05-1.09170E-05-1.63148E-18-6.62419E-19
 -1      3829 1.14758E-04-3.01416E-05-3.61774E-05-1.14458E-05-1.40621E-18-2.05548E-19
 -1      3830 1.08905E-04-2.43733E-05-3.63897E-05 1.08122E-05-1.08242E-18-2.21660E-18
 -1      3831 1.12646E-04-2.87533E-05-3.59521E-05 1.17748E-05-1.20598E-18-2.88932E-18
 -1      3832 1.13692E-04-3.23184E-05-3.48718E-05-1.02048E-05-1.05611E-18-5.40255E-19
 -1      3833 9.61261E-05-3.58367E-05-2.57608E-05-2.11627E-05 2.27929E-18-3.59890E-19
 -1      3834 1.00900E-04-3.80063E-05-2.69151E-05-1.68642E-05 1.89213E-18-5.39739E-19
 -1      3835 9.12584E-05-3.26709E-05-2.51189E-05-2.17175E-05 2.63202E-18 4.54466E-19
 -1      3836 9.09507E-05-3.10220E-05-2.57434E-05-1.86411E-05 2.34317E-18 7.45568E-19
 -1      3837 8.53439E-05-2.83332E-05-2.42005E-05-2.25752E-05 2.99660E-18 1.58508E-18
 -1      3838 7.26208E-05-1.67617E-05-2.38537E-05-1.22445E-05 2.23279E-18-6.11121E-21
 -1      3839 7.09112E-05-1.76256E-05-2.26417E-05-1.72457E-05 2.95167E-18 9.22048E-19
 -1      3840 9.28001E-05-2.57305E-05-2.87311E-05 1.20930E-06 1.15172E-18-3.00592E-18
 -1      3841 9.28454E-05-2.57067E-05-2.87820E-05 1.62348E-06 8.68847E-19-2.75304E-18
 -1      3842 9.23833E-05-2.52658E-05-2.87735E-05 1.80386E-06 5.95087E-19-2.20374E-18
 -1      3843 8.17060E-05-1.83228E-05-2.70870E-05-1.50176E-06 7.15392E-19 2.68179E-19
 -1      3844 8.06598E-05-1.75275E-05-2.70932E-05 5.58411E-07 9.50237E-19-9.72486E-19
 -1      3845 7.78517E-05-1.61282E-05-2.65156E-05 8.29247E-08 1.02763E-18-5.27794E-19
 -1      3846 1.09779E-04-3.89469E-05-3.03595E-05 9.07428E-06 1.02591E-18-1.37492E-18
 -1      3847 1.13389E-04-4.33536E-05-3.00638E-05-2.08762E-06 7.61563E-19-1.88983E-18
 -1      3848 1.10073E-04-4.05787E-05-2.98073E-05 1.24364E-08 2.52350E-19-1.65457E-18
 -1      3849 9.52460E-05-2.85788E-05-2.85717E-05 8.48153E-09-1.04933E-18-4.39808E-19
 -1      3850 1.08505E-04-3.98000E-05-2.93944E-05-1.43531E-06 3.27482E-19-1.59246E-18
 -1      3851 9.35475E-05-2.64428E-05-2.87505E-05 1.05872E-06 3.19757E-19-2.37645E-18
 -1      3852 9.52468E-05-2.85795E-05-2.85717E-05-7.01202E-09 8.52011E-19-1.73105E-18
 -1      3853 9.52473E-05-2.85794E-05-2.85719E-05-7.54208E-09 8.82204E-19-2.74165E-18
 -1      3854 9.52477E-05-2.85800E-05-2.85719E-05-5.53761E-09 9.91063E-20-1.69382E-18
 -1      3855 7.86279E-05-2.41146E-05-2.34257E-05-2.15129E-05 3.27316E-18 1.61971E-18
 -1      3856 9.52456E-05-2.85793E-05-2.85713E-05 6.84550E-09-2.01537E-18-2.69096E-19
 -1      3857 9.52482E-05-2.85801E-05-2.85720E-05 4.59714E-09 9.27889E-21-1.71239E-18
 -1      3858 9.52487E-05-2.85804E-05-2.85721E-05 2.93487E-09 7.04169E-20-3.09488E-18
 -1      3859 9.52490E-05-2.85806E-05-2.85722E-05 1.02936E-09-8.39356E-19-1.63901E-18
 -1      3860 9.52490E-05-2.85806E-05-2.85722E-05-7.30189E-10-1.20229E-18 1.05502E-18
 -1      3861 9.52499E-05-2.85805E-05-2.85726E-05 2.08427E-09-2.10092E-19-1.50634E-18
 -1      3862 9.77531E-05-3.21313E-05-2.81436E-05 1.97889E-05 2.32821E-18-2.10006E-18
 -1      3863 1.12822E-04-4.53515E-05-2.89378E-05-1.00840E-05 1.77438E-18-1.96454E-18
 -1      3864 1.13623E-04-4.41579E-05-2.97335E-05-4.88098E-06 1.24179E-18-1.66888E-18
 -1      3865 1.10209E-04-4.22972E-05-2.90628E-05-6.06870E-06 1.05664E-18-1.16367E-18
 -1      3866 1.07988E-04-4.23147E-05-2.81481E-05-1.21851E-05 1.55700E-18-1.18483E-18
 -1      3867 9.10645E-05-2.41449E-05-2.86946E-05 2.02139E-06-3.25640E-19-1.77876E-18
 -1      3868 9.02720E-05-2.36266E-05-2.85360E-05 1.20436E-06-4.95812E-19-1.58749E-18
 -1      3869 9.17437E-05-2.47252E-05-2.87324E-05 1.85777E-06 1.05006E-19-1.84606E-18
 -1      3870 1.16335E-04-3.94998E-05-3.29762E-05-5.03245E-06-3.51304E-19-4.68530E-19
 -1      3871 1.14934E-04-4.22843E-05-3.10530E-05 6.35354E-06 7.35615E-19-7.86973E-19
 -1      3872 1.07690E-04-3.99690E-05-2.90585E-05-4.10076E-06 7.37587E-19-8.11067E-19
 -1      3873 7.28898E-05-1.41667E-05-2.51727E-05-1.87005E-06 1.72902E-18-3.28205E-19
 -1      3874 1.10999E-04-3.73757E-05-3.15282E-05-1.69820E-06-2.15347E-19-1.28968E-18
 -1      3875 9.13643E-05-2.91640E-05-2.66291E-05 2.42579E-05 2.80985E-18-2.08884E-18
 -1      3876 7.33387E-05-1.58929E-05-2.46127E-05-8.62231E-06 1.59887E-18-4.91534E-19
 -1      3877 7.61192E-05-1.88458E-05-2.46264E-05-1.27655E-05 1.84176E-18 3.05792E-19
 -1      3878 9.48592E-05-2.79439E-05-2.86797E-05 3.22807E-07-2.11264E-18-4.73358E-19
 -1      3879 9.47832E-05-2.78414E-05-2.86899E-05 3.79480E-07-1.42535E-18-1.19932E-18
 -1      3880 8.88257E-05-2.28492E-05-2.82784E-05-7.63820E-08-2.17613E-19-1.50204E-20
 -1      3881 8.76361E-05-2.21282E-05-2.81107E-05-4.36016E-07 4.96961E-19 3.94274E-19
 -1      3882 9.52474E-05-2.85795E-05-2.85720E-05 6.95072E-09-7.46811E-19-4.62469E-19
 -1      3883 9.97887E-05-3.39288E-05-2.82316E-05-6.63296E-06 1.66499E-18-5.88063E-20
 -1      3884 9.83921E-05-3.24940E-05-2.82042E-05-6.35734E-06 1.58686E-18-4.05103E-20
 -1      3885 9.72719E-05-3.13494E-05-2.82367E-05-5.74723E-06 1.53414E-18 8.01832E-20
 -1      3886 9.62837E-05-3.03283E-05-2.82532E-05-5.36185E-06 1.23644E-18 5.22646E-19
 -1      3887 9.67962E-05-3.14413E-05-2.80589E-05-7.05807E-06 1.53753E-18-6.73581E-19
 -1      3888 9.56406E-05-2.95422E-05-2.83104E-05-4.72570E-06 1.03216E-18 7.36566E-19
 -1      3889 9.50215E-05-2.88687E-05-2.83464E-05-4.30926E-06 9.78073E-19 1.04794E-18
 -1      3890 9.50773E-05-2.94084E-05-2.81703E-05-5.62800E-06 1.23919E-18 1.20832E-20
 -1      3891 9.47032E-05-2.83900E-05-2.84054E-05-3.74301E-06 8.05196E-19 1.69792E-18
 -1      3892 9.43556E-05-2.79858E-05-2.84438E-05-3.35487E-06 7.15536E-19 1.27804E-18
 -1      3893 9.41579E-05-2.81578E-05-2.83002E-05-4.32903E-06 1.00885E-18 1.28548E-18
 -1      3894 9.42446E-05-2.77315E-05-2.84946E-05-2.88916E-06-9.73261E-20 1.28388E-18
 -1      3895 9.40791E-05-2.75202E-05-2.85274E-05-2.55537E-06 9.79910E-20 7.27603E-19
 -1      3896 9.37601E-05-2.74688E-05-2.84187E-05-3.24130E-06 2.10325E-19 8.17200E-19
 -1      3897 9.40913E-05-2.74183E-05-2.85662E-05-2.18851E-06 2.59630E-19 5.59644E-19
 -1      3898 9.40411E-05-2.73379E-05-2.85904E-05-1.91474E-06 4.95086E-19 8.08701E-19
 -1      3899 9.36813E-05-2.71576E-05-2.85138E-05-2.38237E-06-1.85801E-20 5.73892E-19
 -1      3900 9.41188E-05-2.73327E-05-2.86171E-05-1.63556E-06 5.97090E-19 5.26265E-19
 -1      3901 9.41350E-05-2.73337E-05-2.86328E-05-1.41774E-06 1.06572E-19 4.47548E-19
 -1      3902 9.37835E-05-2.70934E-05-2.85825E-05-1.72634E-06 3.28299E-19 6.10503E-19
 -1      3903 9.42409E-05-2.73842E-05-2.86492E-05-1.20908E-06-3.28767E-19 1.65743E-19
 -1      3904 9.42914E-05-2.74319E-05-2.86574E-05-1.03926E-06 6.71248E-20-4.96654E-19
 -1      3905 9.39731E-05-2.71738E-05-2.86277E-05-1.23937E-06-2.56836E-19 5.99597E-20
 -1      3906 9.44025E-05-2.75100E-05-2.86658E-05-8.85746E-07 4.38138E-19-1.03052E-18
 -1      3907 9.44663E-05-2.75800E-05-2.86685E-05-7.55101E-07 8.50519E-19-6.33405E-19
 -1      3908 9.41933E-05-2.73316E-05-2.86536E-05-8.82582E-07-1.96994E-19-1.37861E-18
 -1      3909 9.45700E-05-2.76674E-05-2.86710E-05-6.43173E-07 4.93662E-19-7.51413E-19
 -1      3910 9.46346E-05-2.77443E-05-2.86697E-05-5.43628E-07 6.54473E-20-8.45696E-19
 -1      3911 9.44092E-05-2.75200E-05-2.86652E-05-6.24384E-07 4.19958E-19-1.58710E-18
 -1      3912 9.47249E-05-2.78299E-05-2.86683E-05-4.62565E-07-4.79109E-19-7.90944E-19
 -1      3913 9.47835E-05-2.79043E-05-2.86644E-05-3.87291E-07-6.07598E-19-9.05424E-19
 -1      3914 9.46032E-05-2.77105E-05-2.86668E-05-4.38646E-07-3.01531E-19-1.05904E-18
 -1      3915 9.48584E-05-2.79821E-05-2.86607E-05-3.28829E-07 2.29109E-19-4.30917E-19
 -1      3916 9.49081E-05-2.80490E-05-2.86554E-05-2.72338E-07 6.25214E-19 1.88469E-19
 -1      3917 9.47678E-05-2.78870E-05-2.86619E-05-3.05543E-07 2.05831E-19-6.93916E-19
 -1      3918 9.49679E-05-2.81160E-05-2.86504E-05-2.30417E-07 5.08664E-19-2.01446E-19
 -1      3919 9.50080E-05-2.81732E-05-2.86446E-05-1.88381E-07 4.32124E-19 2.99079E-19
 -1      3920 9.49016E-05-2.80416E-05-2.86532E-05-2.10588E-07 9.07277E-19-1.90727E-19
 -1      3921 9.50540E-05-2.82288E-05-2.86391E-05-1.58414E-07-6.55069E-19 8.38921E-20
 -1      3922 9.50851E-05-2.82760E-05-2.86333E-05-1.27412E-07-6.24968E-19 2.63563E-20
 -1      3923 9.50066E-05-2.81717E-05-2.86427E-05-1.42925E-07-2.69773E-19-9.74599E-20
 -1      3924 9.51194E-05-2.83206E-05-2.86279E-05-1.06271E-07-3.37300E-19-1.03001E-19
 -1      3925 9.51425E-05-2.83582E-05-2.86225E-05-8.35855E-08-1.07002E-18-1.86538E-19
 -1      3926 9.50864E-05-2.82773E-05-2.86318E-05-9.50128E-08-9.59637E-19-6.06347E-19
 -1      3927 9.51675E-05-2.83932E-05-2.86174E-05-6.87373E-08-1.59830E-18-5.50066E-19
 -1      3928 9.51840E-05-2.84223E-05-2.86126E-05-5.24451E-08-4.61789E-19-1.27409E-18
 -1      3929 9.51450E-05-2.83609E-05-2.86212E-05-6.11771E-08-1.66859E-18-6.28022E-19
 -1      3930 9.52014E-05-2.84489E-05-2.86081E-05-4.21495E-08 4.68941E-19-1.23839E-18
 -1      3931 9.52128E-05-2.84710E-05-2.86040E-05-3.06089E-08 4.15056E-19-1.23532E-18
 -1      3932 9.51868E-05-2.84255E-05-2.86117E-05-3.76824E-08-4.24954E-19-5.81074E-19
 -1      3933 9.52245E-05-2.84907E-05-2.86001E-05-2.36242E-08 1.97876E-19-1.06231E-18
 -1      3934 9.52319E-05-2.85070E-05-2.85966E-05-1.56455E-08-1.63045E-19-7.92461E-19
 -1      3935 9.52155E-05-2.84741E-05-2.86033E-05-2.13589E-08 4.82892E-19-1.51339E-18
 -1      3936 9.52393E-05-2.85213E-05-2.85934E-05-1.10492E-08-1.39638E-18-8.82879E-19
 -1      3937 9.52438E-05-2.85329E-05-2.85905E-05-5.69178E-09-1.46134E-18-1.44800E-18
 -1      3938 9.52343E-05-2.85098E-05-2.85961E-05-1.03846E-08-5.85380E-19-1.37915E-18
 -1      3939 9.52481E-05-2.85430E-05-2.85879E-05-2.77823E-09-4.94646E-19-9.04762E-19
 -1      3940 9.52505E-05-2.85510E-05-2.85856E-05 6.77913E-10-2.36040E-19-9.74963E-19
 -1      3941 9.52459E-05-2.85353E-05-2.85902E-05-3.18664E-09-8.30050E-19-6.40451E-19
 -1      3942 9.52526E-05-2.85578E-05-2.85834E-05 2.41579E-09-8.27326E-20-4.87559E-19
 -1      3943 9.52535E-05-2.85632E-05-2.85816E-05 4.51627E-09 9.01089E-19 3.62629E-19
 -1      3944 9.52522E-05-2.85530E-05-2.85853E-05 1.34806E-09 4.40634E-19 2.47184E-19
 -1      3945 9.52542E-05-2.85676E-05-2.85799E-05 5.44776E-09 9.25530E-19-5.48049E-19
 -1      3946 9.52542E-05-2.85710E-05-2.85785E-05 6.60296E-09 7.56464E-19-1.02034E-18
 -1      3947 9.52549E-05-2.85648E-05-2.85815E-05 4.02542E-09 3.84325E-19 1.11187E-19
 -1      3948 9.52539E-05-2.85737E-05-2.85772E-05 6.99637E-09 5.34695E-19-1.23858E-18
 -1      3949 9.52534E-05-2.85757E-05-2.85762E-05 7.50993E-09 5.34670E-19-2.02721E-18
 -1      3950 9.52552E-05-2.85722E-05-2.85784E-05 5.43151E-09-8.45954E-21-9.25355E-19
 -1      3951 9.52525E-05-2.85771E-05-2.85752E-05 7.55287E-09 1.54097E-18-1.81327E-18
 -1      3952 9.52516E-05-2.85782E-05-2.85743E-05 7.65164E-09 1.64713E-18-8.78310E-19
 -1      3953 9.52541E-05-2.85766E-05-2.85761E-05 5.98732E-09 7.82312E-19-1.96775E-18
 -1      3954 9.52505E-05-2.85788E-05-2.85736E-05 7.47380E-09 1.39003E-18-1.13396E-18
 -1      3955 9.52495E-05-2.85793E-05-2.85730E-05 7.30139E-09 8.80711E-19-1.01587E-18
 -1      3956 9.52522E-05-2.85789E-05-2.85743E-05 6.02181E-09 9.91649E-19-1.34634E-18
 -1      3957 9.49904E-05-2.81157E-05-2.86619E-05 2.39735E-07-8.29546E-19-3.31064E-19
 -1      3958 9.49377E-05-2.80382E-05-2.86714E-05 2.86110E-07-1.42638E-18-1.28353E-19
 -1      3959 9.48523E-05-2.79463E-05-2.86723E-05 2.50448E-07-1.81043E-18-4.03022E-19
 -1      3960 1.13418E-04-3.93063E-05-3.17120E-05-3.65813E-07 2.31789E-19-7.57757E-19
 -1      3961 9.46740E-05-2.77181E-05-2.86975E-05 4.21062E-07 5.82873E-20-1.53839E-18
 -1      3962 9.45651E-05-2.75836E-05-2.87075E-05 4.87645E-07-3.24421E-20-1.01121E-18
 -1      3963 9.46676E-05-2.77246E-05-2.86874E-05 3.20792E-07-1.28783E-18-8.31117E-19
 -1      3964 9.50860E-05-2.82509E-05-2.86446E-05 1.69453E-07-7.99538E-19-1.39610E-19
 -1      3965 9.50485E-05-2.81902E-05-2.86535E-05 2.07577E-07-1.51242E-19 2.00442E-19
 -1      3966 9.49874E-05-2.81197E-05-2.86563E-05 1.87375E-07-9.37872E-19-2.48421E-19
 -1      3967 9.51484E-05-2.83465E-05-2.86301E-05 1.17469E-07-8.47722E-19-1.18906E-18
 -1      3968 9.51245E-05-2.83037E-05-2.86374E-05 1.45324E-07-7.18810E-19-5.36081E-19
 -1      3969 9.50822E-05-2.82510E-05-2.86411E-05 1.34620E-07-1.70552E-20-5.11328E-19
 -1      3970 9.51905E-05-2.84174E-05-2.86176E-05 7.79058E-08-4.68833E-19-2.41527E-18
 -1      3971 9.51748E-05-2.83857E-05-2.86237E-05 9.87688E-08-6.68978E-19-1.95032E-18
 -1      3972 9.51461E-05-2.83469E-05-2.86277E-05 9.38917E-08-1.44386E-19-2.01806E-18
 -1      3973 9.52183E-05-2.84691E-05-2.86072E-05 4.86596E-08-1.07260E-18-1.92064E-18
 -1      3974 9.52082E-05-2.84461E-05-2.86122E-05 6.39308E-08-7.52992E-19-2.19430E-18
 -1      3975 9.51895E-05-2.84179E-05-2.86161E-05 6.24962E-08-9.22060E-19-2.32074E-18
 -1      3976 9.52359E-05-2.85064E-05-2.85986E-05 2.76740E-08-6.03006E-19-3.28861E-18
 -1      3977 9.52298E-05-2.84899E-05-2.86027E-05 3.85256E-08-9.10254E-19-2.95501E-18
 -1      3978 9.52183E-05-2.84699E-05-2.86062E-05 3.90844E-08-3.05626E-19-2.53994E-18
 -1      3979 9.52464E-05-2.85328E-05-2.85917E-05 1.31170E-08 1.35409E-19-3.12392E-18
 -1      3980 9.52430E-05-2.85212E-05-2.85950E-05 2.05865E-08-2.13002E-19-3.68352E-18
 -1      3981 9.52366E-05-2.85074E-05-2.85981E-05 2.22130E-08 3.86472E-20-3.69817E-18
 -1      3982 9.52520E-05-2.85510E-05-2.85863E-05 3.40577E-09-1.23191E-18-2.32416E-18
 -1      3983 9.52504E-05-2.85430E-05-2.85888E-05 8.34976E-09-4.68662E-19-2.92646E-18
 -1      3984 9.52474E-05-2.85339E-05-2.85915E-05 1.04758E-08-5.63655E-19-1.76021E-18
 -1      3985 9.52543E-05-2.85631E-05-2.85820E-05-2.75486E-09-1.01042E-19-2.88123E-18
 -1      3986 9.52539E-05-2.85578E-05-2.85840E-05 3.54538E-10-4.60045E-19-2.09034E-18
 -1      3987 9.52531E-05-2.85520E-05-2.85862E-05 2.62636E-09-1.00906E-18-1.05313E-18
 -1      3988 9.52544E-05-2.85711E-05-2.85786E-05-6.49352E-09 1.37770E-18-1.48536E-18
 -1      3989 9.52548E-05-2.85676E-05-2.85801E-05-4.65075E-09 4.02227E-19-2.39638E-18
 -1      3990 9.52554E-05-2.85643E-05-2.85819E-05-2.42350E-09-3.23637E-19-2.53500E-18
 -1      3991 9.52532E-05-2.85756E-05-2.85762E-05-8.25326E-09 1.67284E-18-6.26979E-19
 -1      3992 9.52540E-05-2.85737E-05-2.85772E-05-7.39575E-09 1.94775E-18-1.35804E-18
 -1      3993 9.52555E-05-2.85720E-05-2.85787E-05-5.36272E-09 1.21012E-18-1.39057E-18
 -1      3994 9.52513E-05-2.85780E-05-2.85743E-05-8.87235E-09 1.10646E-18-1.53591E-18
 -1      3995 9.52523E-05-2.85770E-05-2.85751E-05-8.60352E-09 1.68022E-18-7.61347E-19
 -1      3996 9.52541E-05-2.85763E-05-2.85762E-05-6.78534E-09 1.51626E-18-1.67195E-18
 -1      3997 9.52492E-05-2.85790E-05-2.85729E-05-8.76008E-09 1.14421E-18-3.28370E-18
 -1      3998 9.52502E-05-2.85786E-05-2.85735E-05-8.84933E-09 9.94292E-19-2.66553E-18
 -1      3999 9.52521E-05-2.85786E-05-2.85744E-05-7.27274E-09 1.56399E-18-3.50696E-18
 -1      4000 9.52480E-05-2.85794E-05-2.85723E-05-7.88854E-09 1.43076E-18-3.35673E-18
 -1      4001 9.52485E-05-2.85792E-05-2.85726E-05-8.34741E-09 8.46235E-19-3.50668E-18
 -1      4002 9.52504E-05-2.85796E-05-2.85732E-05-6.94115E-09 1.16905E-18-5.32372E-18
 -1      4003 9.52491E-05-2.85799E-05-2.85725E-05-6.31486E-09 5.22630E-19-4.14933E-18
 -1      4004 9.44145E-05-2.74230E-05-2.87133E-05 5.30717E-07-1.03738E-18-3.37507E-19
 -1      4005 9.42593E-05-2.72472E-05-2.87216E-05 6.04830E-07-4.30509E-19-4.75824E-19
 -1      4006 9.44122E-05-2.74381E-05-2.86997E-05 3.93589E-07-5.64783E-22-4.20292E-19
 -1      4007 9.40533E-05-2.70398E-05-2.87232E-05 6.42799E-07-6.71800E-20-5.08230E-19
 -1      4008 9.38330E-05-2.68114E-05-2.87273E-05 7.18579E-07-1.30292E-19-5.10566E-19
 -1      4009 9.40620E-05-2.70710E-05-2.87054E-05 4.57143E-07-5.70666E-19-1.26068E-18
 -1      4010 9.52488E-05-2.85805E-05-2.85721E-05-2.30894E-09-1.08429E-18 1.79828E-18
 -1      4011 9.52483E-05-2.85803E-05-2.85720E-05-3.99883E-09-5.05859E-20 2.34793E-19
 -1      4012 9.52492E-05-2.85803E-05-2.85724E-05-4.47796E-09 3.59735E-19-1.29208E-18
 -1      4013 9.52500E-05-2.85805E-05-2.85726E-05-1.39481E-09-9.41555E-19 1.27209E-18
 -1      4014 8.65154E-05-2.14341E-05-2.78912E-05-1.13696E-06 7.42779E-19 6.99168E-19
 -1      4015 8.48898E-05-2.05953E-05-2.76063E-05-1.81321E-06 5.65577E-19 9.08710E-19
 -1      4016 8.74185E-05-2.22246E-05-2.79096E-05-2.07331E-06 1.10126E-18 8.71123E-19
 -1      4017 1.07283E-04-4.00386E-05-2.87906E-05-6.20534E-06 1.10501E-18-6.82652E-19
 -1      4018 1.04723E-04-3.81780E-05-2.85098E-05-6.61418E-06 1.42373E-18-1.41325E-19
 -1      4019 1.06671E-04-4.04760E-05-2.84499E-05-9.04249E-06 1.52503E-18-7.27799E-19
 -1      4020 1.17974E-04-4.09466E-05-3.30722E-05-3.77866E-06-1.99460E-19-3.76111E-19
 -1      4021 8.10889E-05-2.38774E-05-2.45543E-05-1.80286E-05 2.45253E-18 1.88954E-18
 -1      4022 9.35459E-05-2.65385E-05-2.87210E-05 7.39580E-07-3.01748E-19-9.19486E-19
 -1      4023 9.32247E-05-2.62343E-05-2.87163E-05 8.05533E-07-3.20532E-22-1.80103E-18
 -1      4024 9.35785E-05-2.65989E-05-2.86985E-05 4.90977E-07-5.83791E-19-7.90376E-19
 -1      4025 1.02745E-04-3.64907E-05-2.83586E-05-6.83181E-06 1.74617E-18 1.07029E-20
 -1      4026 1.14262E-04-4.04047E-05-3.17515E-05 1.14919E-06 1.90056E-19-6.94620E-19
 -1      4027 1.15854E-04-4.09445E-05-3.20274E-05-8.48721E-07 1.32766E-19-6.60232E-19
 -1      4028 7.49925E-05-1.56267E-05-2.53592E-05-4.84604E-06 1.61662E-18-1.77338E-19
 -1      4029 9.86982E-05-3.60786E-05-2.68673E-05-1.60767E-05 2.01398E-18-5.18765E-19
 -1      4030 1.03892E-04-3.98213E-05-2.74796E-05-1.47645E-05 1.70817E-18-1.04204E-18
 -1      4031 1.06068E-04-4.04835E-05-2.80545E-05-1.16186E-05 1.33439E-18-9.77981E-19
 -1      4032 8.89487E-05-2.82179E-05-2.59127E-05-1.63576E-05 2.36398E-18 1.03781E-18
 -1      4033 9.27923E-05-3.12857E-05-2.64104E-05-1.60561E-05 2.44964E-18 4.51101E-19
 -1      4034 8.34907E-05-1.98950E-05-2.72537E-05-2.96287E-06 3.13121E-19 1.00256E-19
 -1      4035 8.13782E-05-1.90065E-05-2.67925E-05-4.15077E-06 5.48987E-19 1.70969E-19
 -1      4036 8.49593E-05-2.10476E-05-2.73442E-05-4.13529E-06 9.32667E-20-3.48614E-19
 -1      4037 9.28454E-05-2.58978E-05-2.86965E-05 7.89423E-07 4.73670E-19-1.68264E-18
 -1      4038 9.24034E-05-2.55159E-05-2.86763E-05 8.18493E-07 8.49159E-19-1.88480E-18
 -1      4039 9.29235E-05-2.60035E-05-2.86694E-05 4.56028E-07 7.94777E-20-1.24047E-18
 -1      4040 9.52488E-05-2.85796E-05-2.85725E-05 6.34209E-09 5.70292E-19-1.90922E-18
 -1      4041 9.17455E-05-2.48070E-05-2.86696E-05 1.28520E-06 4.38488E-19-2.89717E-18
 -1      4042 1.00694E-04-3.52556E-05-2.81000E-05-8.33044E-06 1.59575E-18-3.52328E-19
 -1      4043 9.52509E-05-2.85802E-05-2.85732E-05 3.10299E-09 1.08527E-18-1.36798E-18
 -1      4044 9.52513E-05-2.85804E-05-2.85732E-05 1.25357E-09 2.69316E-19-4.76736E-19
 -1      4045 9.05695E-05-2.40641E-05-2.85063E-05 4.83789E-07 7.36052E-19-1.80418E-18
 -1      4046 8.97048E-05-2.34650E-05-2.84125E-05 3.25833E-07-1.14600E-19-9.49555E-19
 -1      4047 8.93614E-05-2.33597E-05-2.82638E-05-8.15894E-07 7.28565E-19-4.40503E-19
 -1      4048 9.34424E-05-3.07741E-05-2.68898E-05-1.35065E-05 2.42712E-18 6.27441E-20
 -1      4049 9.60165E-05-3.33393E-05-2.68011E-05-1.51033E-05 2.42105E-18-2.12843E-19
 -1      4050 9.88767E-05-3.53227E-05-2.73154E-05-1.34495E-05 2.15995E-18-7.80710E-19
 -1      4051 9.52503E-05-2.85799E-05-2.85730E-05 4.96511E-09 5.43373E-19-2.45178E-18
 -1      4052 9.52517E-05-2.85798E-05-2.85737E-05 4.08353E-09 9.66423E-19-2.44359E-18
 -1      4053 7.98110E-05-2.13955E-05-2.49041E-05-1.47691E-05 2.19197E-18 1.43507E-18
 -1      4054 8.47785E-05-2.55440E-05-2.54780E-05-1.62907E-05 2.12642E-18 1.67360E-18
 -1      4055 8.69540E-05-2.60669E-05-2.61385E-05-1.40435E-05 2.05371E-18 1.27089E-18
 -1      4056 8.00868E-05-2.05171E-05-2.55300E-05-1.16167E-05 1.61564E-18 3.85820E-19
 -1      4057 9.41108E-05-2.71656E-05-2.86927E-05 2.70661E-07-9.10045E-19 1.93384E-19
 -1      4058 9.39033E-05-2.69663E-05-2.86923E-05 2.84464E-07-5.99423E-19 2.29547E-19
 -1      4059 7.81066E-05-1.74170E-05-2.59982E-05-5.58064E-06 9.73754E-19 4.20539E-19
 -1      4060 9.49923E-05-2.81423E-05-2.86508E-05 1.28725E-07-6.71091E-19-1.24733E-18
 -1      4061 9.49332E-05-2.80648E-05-2.86586E-05 1.54995E-07-1.40996E-18-1.50434E-18
 -1      4062 9.48601E-05-2.79777E-05-2.86652E-05 1.70168E-07-1.35901E-18-1.73620E-18
 -1      4063 9.47817E-05-2.78812E-05-2.86727E-05 1.99371E-07-1.69400E-18-9.35779E-19
 -1      4064 9.48745E-05-2.79963E-05-2.86594E-05 1.10529E-07-1.52389E-18-2.85800E-18
 -1      4065 9.43428E-05-2.88903E-05-2.80189E-05-6.35286E-06 1.57165E-18 2.50421E-19
 -1      4066 9.36608E-05-2.81412E-05-2.80911E-05-5.62432E-06 1.36539E-18 3.83481E-19
 -1      4067 9.35198E-05-2.76648E-05-2.81965E-05-4.72300E-06 1.29094E-18 1.02331E-19
 -1      4068 9.31932E-05-2.72552E-05-2.82650E-05-4.10936E-06 1.04119E-18 4.56950E-19
 -1      4069 9.25616E-05-2.71309E-05-2.80457E-05-5.42758E-06 1.29512E-18-1.00487E-18
 -1      4070 9.32205E-05-2.70337E-05-2.83499E-05-3.43832E-06 7.63776E-19 1.39489E-19
 -1      4071 9.31134E-05-2.68467E-05-2.84071E-05-2.94506E-06 1.93078E-19 1.97532E-19
 -1      4072 9.24925E-05-2.65700E-05-2.82529E-05-3.80282E-06 9.88222E-19-9.89367E-19
 -1      4073 9.32526E-05-2.67969E-05-2.84700E-05-2.45029E-06 2.13983E-19 6.78603E-19
 -1      4074 9.32667E-05-2.67538E-05-2.85126E-05-2.07411E-06 2.16954E-19 5.59555E-19
 -1      4075 9.26820E-05-2.63986E-05-2.84079E-05-2.60575E-06 6.15488E-19 1.31993E-19
 -1      4076 9.34503E-05-2.68023E-05-2.85560E-05-1.72425E-06-4.65312E-19 6.80944E-19
 -1      4077 9.35224E-05-2.68434E-05-2.85851E-05-1.44774E-06-6.87553E-20-1.16140E-19
 -1      4078 9.30233E-05-2.64760E-05-2.85176E-05-1.76221E-06-1.73291E-19 6.80458E-19
 -1      4079 9.37188E-05-2.69437E-05-2.86127E-05-1.19536E-06-3.31446E-19-1.07840E-18
 -1      4080 9.38203E-05-2.70315E-05-2.86305E-05-9.96916E-07-8.88146E-19-1.14856E-18
 -1      4081 9.33868E-05-2.66633E-05-2.85889E-05-1.17445E-06-9.43211E-19-1.01874E-18
 -1      4082 9.39996E-05-2.71514E-05-2.86463E-05-8.24572E-07-1.20634E-18-1.03126E-18
 -1      4083 9.41086E-05-2.72578E-05-2.86555E-05-6.82493E-07-4.42048E-19-1.55222E-18
 -1      4084 9.37568E-05-2.69267E-05-2.86332E-05-7.75904E-07-1.24004E-18-1.41453E-18
 -1      4085 9.42635E-05-2.73797E-05-2.86628E-05-5.65648E-07 1.36560E-19-1.46584E-18
 -1      4086 9.43661E-05-2.74880E-05-2.86658E-05-4.64099E-07 7.11478E-20-1.58134E-18
 -1      4087 9.40849E-05-2.72023E-05-2.86568E-05-5.06076E-07-2.55822E-19-1.31311E-18
 -1      4088 9.44948E-05-2.76023E-05-2.86674E-05-3.85926E-07 1.48999E-19-1.53687E-18
 -1      4089 9.45846E-05-2.77031E-05-2.86663E-05-3.13700E-07 6.79391E-20-7.99752E-19
 -1      4090 9.43643E-05-2.74638E-05-2.86659E-05-3.26836E-07 3.35237E-19-1.76623E-18
 -1      4091 9.46880E-05-2.78039E-05-2.86643E-05-2.61764E-07 9.28509E-20 2.31782E-19
 -1      4092 9.47629E-05-2.78926E-05-2.86607E-05-2.10245E-07 1.13172E-18 8.21349E-19
 -1      4093 9.45933E-05-2.76969E-05-2.86655E-05-2.09235E-07 6.40131E-19-6.21063E-19
 -1      4094 9.48437E-05-2.79785E-05-2.86565E-05-1.75840E-07 4.56295E-19 1.29220E-19
 -1      4095 9.49043E-05-2.80537E-05-2.86515E-05-1.39039E-07-8.13227E-20-1.80795E-19
 -1      4096 9.47751E-05-2.78963E-05-2.86593E-05-1.32945E-07 2.26794E-19 5.53547E-19
 -1      4097 9.49653E-05-2.81238E-05-2.86464E-05-1.17657E-07-7.60098E-19-7.38218E-19
 -1      4098 9.50119E-05-2.81851E-05-2.86409E-05-9.06538E-08-9.35951E-19-1.34507E-18
 -1      4099 9.49176E-05-2.80667E-05-2.86499E-05-8.14247E-08-1.08042E-18-1.64628E-18
 -1      4100 9.50581E-05-2.82424E-05-2.86354E-05-7.71217E-08-1.33250E-18-1.54177E-18
 -1      4101 9.50922E-05-2.82907E-05-2.86299E-05-5.86075E-08-1.42965E-18-1.92716E-18
 -1      4102 9.50245E-05-2.81986E-05-2.86391E-05-5.13024E-08-1.84011E-18-2.02251E-18
 -1      4103 9.51260E-05-2.83351E-05-2.86247E-05-4.90192E-08-1.16333E-18-1.12225E-18
 -1      4104 9.51507E-05-2.83730E-05-2.86196E-05-3.62374E-08-1.53974E-18-9.16506E-19
 -1      4105 9.51027E-05-2.83013E-05-2.86282E-05-3.05588E-08-7.90701E-19-2.51141E-18
 -1      4106 9.51742E-05-2.84067E-05-2.86147E-05-2.99909E-08-1.11441E-18-5.51696E-19
 -1      4107 9.51918E-05-2.84354E-05-2.86102E-05-2.07971E-08 3.63922E-19-3.81123E-19
 -1      4108 9.51581E-05-2.83810E-05-2.86181E-05-1.74339E-08-3.72058E-19 9.22765E-20
 -1      4109 9.52079E-05-2.84608E-05-2.86059E-05-1.71265E-08 5.66836E-19-1.55227E-18
 -1      4110 9.52197E-05-2.84822E-05-2.86020E-05-1.08037E-08 8.28957E-19-8.44509E-19
 -1      4111 9.51979E-05-2.84425E-05-2.86089E-05-9.27486E-09-5.18030E-20-1.79872E-18
 -1      4112 9.52301E-05-2.85007E-05-2.85984E-05-8.57503E-09-2.12984E-19-9.05068E-19
 -1      4113 9.52376E-05-2.85161E-05-2.85951E-05-4.29118E-09-9.53216E-19-7.71854E-19
 -1      4114 9.52241E-05-2.84878E-05-2.86009E-05-4.19444E-09 2.81447E-19-1.07889E-18
 -1      4115 9.52439E-05-2.85292E-05-2.85920E-05-3.00089E-09-1.27102E-18-7.82808E-19
 -1      4116 9.52483E-05-2.85400E-05-2.85893E-05-1.66939E-10-4.74120E-19-4.07119E-19
 -1      4117 9.52406E-05-2.85204E-05-2.85942E-05-1.02079E-09-9.17494E-19-1.30912E-18
 -1      4118 9.52518E-05-2.85491E-05-2.85869E-05 5.15019E-10 3.84576E-19 3.83564E-19
 -1      4119 9.52540E-05-2.85564E-05-2.85847E-05 2.31853E-09 4.25308E-19 4.90213E-19
 -1      4120 9.52503E-05-2.85432E-05-2.85886E-05 8.81736E-10-1.67892E-19-6.60404E-19
 -1      4121 9.52554E-05-2.85624E-05-2.85827E-05 2.60031E-09-3.52142E-19 1.79547E-19
 -1      4122 9.52561E-05-2.85672E-05-2.85810E-05 3.68508E-09-3.50597E-19-9.42549E-19
 -1      4123 9.52552E-05-2.85588E-05-2.85841E-05 1.94439E-09-6.94138E-20-7.34316E-19
 -1      4124 9.52563E-05-2.85710E-05-2.85794E-05 3.72413E-09-2.29405E-19-1.77694E-18
 -1      4125 9.52561E-05-2.85739E-05-2.85781E-05 4.30420E-09-2.84923E-19-1.63715E-18
 -1      4126 9.52568E-05-2.85688E-05-2.85806E-05 2.47799E-09-3.62982E-19-6.97395E-19
 -1      4127 9.52554E-05-2.85761E-05-2.85768E-05 4.20436E-09 6.17040E-19-1.54076E-18
 -1      4128 9.52546E-05-2.85777E-05-2.85758E-05 4.40715E-09 9.84373E-19-2.31997E-18
 -1      4129 9.52563E-05-2.85750E-05-2.85778E-05 2.68120E-09 3.64089E-19-7.33908E-19
 -1      4130 9.52538E-05-2.85786E-05-2.85751E-05 4.25670E-09 1.11161E-18-2.03696E-18
 -1      4131 9.52527E-05-2.85794E-05-2.85743E-05 4.24182E-09 5.92564E-19-2.31179E-18
 -1      4132 9.52532E-05-2.85796E-05-2.85744E-05 2.46284E-09 9.23095E-19 2.61516E-19
 -1      4133 9.52549E-05-2.85781E-05-2.85758E-05 2.62019E-09 1.43316E-18 6.31206E-19
 -1      4134 9.50832E-05-2.82646E-05-2.86372E-05 9.44168E-08 8.78991E-20-6.38702E-19
 -1      4135 9.50440E-05-2.82084E-05-2.86442E-05 1.15381E-07-5.10103E-19-1.24116E-18
 -1      4136 9.50006E-05-2.81545E-05-2.86467E-05 8.69806E-08-9.40863E-19-2.07195E-18
 -1      4137 9.46828E-05-2.77702E-05-2.86784E-05 2.12671E-07-1.84711E-18-5.71989E-19
 -1      4138 9.45737E-05-2.76462E-05-2.86851E-05 2.42809E-07-5.69762E-19-4.51945E-19
 -1      4139 9.47069E-05-2.77978E-05-2.86711E-05 1.30243E-07-8.55266E-19-2.00941E-18
 -1      4140 8.85798E-05-2.32227E-05-2.80023E-05-2.60090E-06 1.09226E-18-5.20455E-19
 -1      4141 8.74666E-05-2.27435E-05-2.77838E-05-3.45846E-06 6.94179E-19-8.85377E-19
 -1      4142 9.51463E-05-2.83562E-05-2.86248E-05 6.58060E-08-7.33204E-19-1.48766E-18
 -1      4143 9.51197E-05-2.83141E-05-2.86310E-05 8.32107E-08 2.43504E-19-1.26335E-18
 -1      4144 9.50880E-05-2.82738E-05-2.86341E-05 6.45424E-08-1.71549E-19-1.58139E-18
 -1      4145 9.51899E-05-2.84249E-05-2.86140E-05 4.39000E-08-1.07216E-18-1.44486E-18
 -1      4146 9.51724E-05-2.83939E-05-2.86193E-05 5.70853E-08-6.65203E-19-1.53825E-18
 -1      4147 9.51500E-05-2.83641E-05-2.86226E-05 4.64681E-08-6.19396E-20-1.76965E-18
 -1      4148 9.52190E-05-2.84754E-05-2.86048E-05 2.71900E-08 7.05185E-19-2.66370E-18
 -1      4149 9.52077E-05-2.84526E-05-2.86092E-05 3.68280E-08 3.65590E-20-1.75360E-18
 -1      4150 9.51925E-05-2.84289E-05-2.86124E-05 3.10866E-08-7.48013E-19-2.73211E-18
 -1      4151 9.52375E-05-2.85116E-05-2.85970E-05 1.51697E-08-1.23631E-19-2.71641E-18
 -1      4152 9.52305E-05-2.84953E-05-2.86007E-05 2.20909E-08-1.59673E-19-2.73125E-18
 -1      4153 9.52211E-05-2.84784E-05-2.86036E-05 1.96811E-08 1.72404E-19-2.21202E-18
 -1      4154 9.52484E-05-2.85370E-05-2.85907E-05 6.79785E-09-9.29863E-19-6.04968E-19
 -1      4155 9.52445E-05-2.85257E-05-2.85937E-05 1.16086E-08-1.72723E-19-1.60721E-18
 -1      4156 9.52390E-05-2.85140E-05-2.85962E-05 1.12174E-08-6.44615E-19-1.71406E-18
 -1      4157 9.52541E-05-2.85544E-05-2.85857E-05 1.20199E-09-2.18352E-19-2.20423E-18
 -1      4158 9.52523E-05-2.85467E-05-2.85880E-05 4.43285E-09-7.21287E-19-1.46284E-18
 -1      4159 9.52495E-05-2.85389E-05-2.85902E-05 5.23075E-09-6.62722E-21-2.40503E-18
 -1      4160 9.52564E-05-2.85663E-05-2.85815E-05-2.43675E-09-1.08856E-19-2.65734E-18
 -1      4161 9.52559E-05-2.85611E-05-2.85834E-05-3.43667E-10-2.63064E-19-3.00444E-18
 -1      4162 9.52550E-05-2.85562E-05-2.85852E-05 1.12064E-09 6.15953E-19-3.73093E-18
 -1      4163 9.52562E-05-2.85733E-05-2.85784E-05-4.38649E-09 2.01155E-18-2.53734E-18
 -1      4164 9.52567E-05-2.85703E-05-2.85798E-05-3.23020E-09 8.03523E-19-2.60961E-18
 -1      4165 9.52569E-05-2.85674E-05-2.85812E-05-1.48286E-09 3.61557E-19-3.34114E-18
 -1      4166 9.52548E-05-2.85773E-05-2.85761E-05-5.31514E-09 1.07382E-18-1.81172E-18
 -1      4167 9.52557E-05-2.85756E-05-2.85771E-05-4.74708E-09 2.09662E-18-2.07293E-18
 -1      4168 9.52566E-05-2.85741E-05-2.85783E-05-2.94346E-09 1.08886E-18-2.87063E-18
 -1      4169 9.52526E-05-2.85793E-05-2.85743E-05-5.57390E-09 2.08536E-18-2.98134E-18
 -1      4170 9.52537E-05-2.85785E-05-2.85751E-05-5.41800E-09 1.55681E-18-1.98946E-18
 -1      4171 9.52550E-05-2.85779E-05-2.85759E-05-3.59584E-09 1.62175E-18-2.45937E-18
 -1      4172 9.44377E-05-2.75013E-05-2.86888E-05 2.50595E-07-1.91109E-19 1.77442E-19
 -1      4173 9.42864E-05-2.73431E-05-2.86931E-05 2.76803E-07-4.65352E-19 1.72426E-19
 -1      4174 9.41676E-05-2.72252E-05-2.86818E-05 1.22989E-07-7.94574E-19-5.60514E-20
 -1      4175 9.18882E-05-2.50850E-05-2.86342E-05 7.33125E-07 4.98669E-19-2.42809E-18
 -1      4176 9.12532E-05-2.45912E-05-2.85852E-05 6.95703E-07 4.87807E-19-1.96070E-18
 -1      4177 9.08842E-05-2.43870E-05-2.84798E-05-8.19761E-08 8.01881E-19-1.57162E-18
 -1      4178 9.20503E-05-2.52687E-05-2.86046E-05 3.02219E-07 4.93508E-19-1.53926E-18
 -1      4179 1.03141E-04-3.79858E-05-2.78549E-05-1.12816E-05 1.58936E-18-7.95725E-19
 -1      4180 9.52524E-05-2.85802E-05-2.85738E-05 6.21602E-10 7.09689E-19 1.25324E-18
 -1      4181 9.52513E-05-2.85805E-05-2.85732E-05-4.57037E-10-4.46697E-19 1.82277E-18
 -1      4182 9.52511E-05-2.85805E-05-2.85731E-05-1.98679E-09-3.17604E-19 1.90212E-18
 -1      4183 9.36682E-05-2.67410E-05-2.86846E-05 2.50997E-07-4.30084E-19-5.39045E-21
 -1      4184 9.33785E-05-2.64867E-05-2.86754E-05 2.36173E-07-2.08782E-19 1.25468E-19
 -1      4185 9.37608E-05-2.68354E-05-2.86723E-05 5.73961E-08-4.79766E-19 7.08654E-19
 -1      4186 9.59844E-05-3.09434E-05-2.78514E-05-8.22223E-06 1.54372E-18-2.83081E-19
 -1      4187 9.48256E-05-2.96981E-05-2.79031E-05-7.42834E-06 1.87732E-18-2.90795E-20
 -1      4188 9.32595E-05-2.84288E-05-2.78030E-05-7.50301E-06 1.91383E-18 6.16465E-20
 -1      4189 8.04616E-05-1.90888E-05-2.62178E-05-7.15969E-06 8.63125E-19-2.15232E-19
 -1      4190 1.00283E-04-3.55431E-05-2.77299E-05-1.08948E-05 1.95744E-18-5.67340E-19
 -1      4191 9.73126E-05-3.26741E-05-2.76573E-05-1.01104E-05 1.77331E-18-3.21016E-19
 -1      4192 9.44760E-05-2.75432E-05-2.86797E-05 1.39167E-07-1.81655E-19-2.05848E-19
 -1      4193 8.82020E-05-2.36269E-05-2.76588E-05-5.16750E-06 4.41708E-19-1.15881E-18
 -1      4194 8.68253E-05-2.25009E-05-2.75403E-05-4.61127E-06-9.36493E-20-8.04484E-19
 -1      4195 8.53758E-05-2.20240E-05-2.71944E-05-6.03782E-06 1.31238E-19-1.23888E-18
 -1      4196 9.30841E-05-2.62232E-05-2.86562E-05 1.57930E-07-2.98321E-19-6.30297E-19
 -1      4197 9.27112E-05-2.59190E-05-2.86340E-05 9.28585E-08-2.16826E-19-7.88458E-19
 -1      4198 9.32279E-05-2.63662E-05-2.86436E-05-9.43871E-08-7.07544E-19 4.48036E-19
 -1      4199 8.29889E-05-2.14948E-05-2.63834E-05-9.22997E-06 1.31920E-18-1.85169E-19
 -1      4200 8.92458E-05-2.35896E-05-2.81628E-05-1.83349E-06 1.30386E-18-5.45994E-19
 -1      4201 8.95199E-05-2.40377E-05-2.80605E-05-3.06933E-06 1.37695E-18-1.22940E-18
 -1      4202 9.00967E-05-2.40589E-05-2.82989E-05-1.31958E-06 1.21057E-18-1.36643E-18
 -1      4203 9.52519E-05-2.85799E-05-2.85737E-05-4.18897E-09 1.43632E-18-1.66364E-18
 -1      4204 9.52532E-05-2.85798E-05-2.85744E-05-2.45821E-09 1.68137E-18-5.02951E-19
 -1      4205 9.52499E-05-2.85802E-05-2.85727E-05-4.81778E-09 1.48106E-19-1.45962E-18
 -1      4206 9.16036E-05-2.85722E-05-2.69287E-05-1.21729E-05 2.08602E-18 6.04095E-19
 -1      4207 9.41494E-05-3.05562E-05-2.72527E-05-1.15108E-05 2.05067E-18 5.44257E-20
 -1      4208 9.52535E-05-2.85798E-05-2.85745E-05 8.49197E-10 1.16003E-18 4.57577E-19
 -1      4209 9.52534E-05-2.85798E-05-2.85744E-05-7.77009E-10 7.28073E-19 8.49362E-19
 -1      4210 9.52543E-05-2.85791E-05-2.85750E-05-2.30450E-09 1.68304E-18-1.40891E-18
 -1      4211 9.52544E-05-2.85791E-05-2.85751E-05 9.67475E-10 1.68093E-18 5.75160E-19
 -1      4212 9.50156E-05-2.81844E-05-2.86422E-05 4.09291E-08-1.41812E-18-1.61548E-18
 -1      4213 9.49607E-05-2.81176E-05-2.86484E-05 5.21308E-08-1.30293E-18-2.18946E-18
 -1      4214 9.16826E-05-2.59468E-05-2.81714E-05-3.90332E-06 1.24151E-18-8.44884E-19
 -1      4215 9.17552E-05-2.58354E-05-2.82667E-05-3.16320E-06 1.06695E-18-8.95542E-19
 -1      4216 9.21104E-05-2.59142E-05-2.83612E-05-2.57377E-06 8.09299E-19-4.73311E-19
 -1      4217 9.22668E-05-2.59585E-05-2.84286E-05-2.08107E-06 8.32387E-19 5.44628E-20
 -1      4218 9.13863E-05-2.53687E-05-2.82950E-05-2.58383E-06 1.26773E-18-4.73103E-19
 -1      4219 9.26026E-05-2.61058E-05-2.84914E-05-1.66017E-06-1.43004E-19-4.29139E-19
 -1      4220 9.27809E-05-2.62167E-05-2.85359E-05-1.32624E-06-5.47450E-19-4.62157E-19
 -1      4221 9.20693E-05-2.56626E-05-2.84536E-05-1.59053E-06 3.64193E-19-1.19197E-18
 -1      4222 9.29877E-05-2.62863E-05-2.85860E-05-8.26934E-07-6.59217E-19-4.73237E-19
 -1      4223 9.31998E-05-2.64584E-05-2.86137E-05-6.12029E-07-9.06821E-19-1.03351E-18
 -1      4224 9.34883E-05-2.66807E-05-2.86352E-05-4.83335E-07-8.81575E-19-6.34622E-19
 -1      4225 9.36764E-05-2.68440E-05-2.86514E-05-3.30265E-07-6.06337E-19-3.78341E-19
 -1      4226 9.39096E-05-2.70422E-05-2.86614E-05-2.62338E-07-8.84851E-19-3.66194E-19
 -1      4227 9.40720E-05-2.71937E-05-2.86689E-05-1.62294E-07-5.30862E-19-3.46503E-19
 -1      4228 9.42485E-05-2.73577E-05-2.86712E-05-1.32771E-07-2.66540E-19-7.47213E-19
 -1      4229 9.43826E-05-2.74908E-05-2.86728E-05-6.83320E-08 4.98396E-19-6.38271E-19
 -1      4230 9.45206E-05-2.76298E-05-2.86705E-05-5.85365E-08 8.13840E-19-1.19723E-18
 -1      4231 9.46276E-05-2.77425E-05-2.86684E-05-1.79307E-08 7.78680E-20-1.29124E-18
 -1      4232 9.47289E-05-2.78523E-05-2.86637E-05-1.91131E-08-5.53424E-19-1.72401E-18
 -1      4233 9.48126E-05-2.79451E-05-2.86595E-05 5.84134E-09-7.57374E-19-2.23369E-18
 -1      4234 9.49822E-05-2.81438E-05-2.86445E-05-3.00082E-08-1.81603E-18-2.64504E-18
 -1      4235 9.50271E-05-2.82053E-05-2.86388E-05-2.02828E-08-2.18828E-18-2.06253E-18
 -1      4236 9.50846E-05-2.82773E-05-2.86315E-05-8.85791E-09-6.47992E-19-1.60643E-18
 -1      4237 9.51168E-05-2.83242E-05-2.86262E-05-1.61689E-09 4.40900E-19-6.93691E-19
 -1      4238 9.51523E-05-2.83722E-05-2.86202E-05 9.63857E-09-3.77570E-19-1.33151E-18
 -1      4239 9.51754E-05-2.84070E-05-2.86154E-05 1.26331E-08-3.90120E-19-8.95823E-19
 -1      4240 9.51936E-05-2.84365E-05-2.86106E-05 7.31921E-09-3.57974E-19-1.47516E-18
 -1      4241 9.52096E-05-2.84621E-05-2.86063E-05 9.38584E-09-2.52858E-19-1.84581E-18
 -1      4242 9.52216E-05-2.84837E-05-2.86023E-05 5.19830E-09 1.45912E-19-1.83585E-18
 -1      4243 9.52320E-05-2.85023E-05-2.85986E-05 6.50905E-09-6.59426E-20-2.02505E-18
 -1      4244 9.52394E-05-2.85176E-05-2.85953E-05 3.37599E-09-4.86781E-19-1.87806E-18
 -1      4245 9.52458E-05-2.85308E-05-2.85922E-05 4.17208E-09-5.06441E-19-1.99563E-18
 -1      4246 9.52499E-05-2.85414E-05-2.85895E-05 1.93968E-09-1.25703E-19-1.61458E-18
 -1      4247 9.52534E-05-2.85505E-05-2.85870E-05 2.41403E-09 7.01799E-19-2.17768E-18
 -1      4248 9.52554E-05-2.85579E-05-2.85847E-05 8.66537E-10 6.02852E-19-2.37582E-18
 -1      4249 9.52568E-05-2.85638E-05-2.85827E-05 1.12917E-09 4.34836E-19-1.97892E-18
 -1      4250 9.52573E-05-2.85683E-05-2.85810E-05 1.72079E-10 1.78625E-19-1.66489E-18
 -1      4251 9.52574E-05-2.85720E-05-2.85794E-05 2.93501E-10-3.50004E-19-1.45437E-18
 -1      4252 9.52569E-05-2.85747E-05-2.85781E-05-2.93320E-10-4.51722E-19-4.53381E-19
 -1      4253 9.52562E-05-2.85768E-05-2.85768E-05-2.70505E-10 1.40594E-18-9.54588E-19
 -1      4254 9.52553E-05-2.85783E-05-2.85758E-05 1.08094E-09 2.14991E-18-2.38550E-20
 -1      4255 9.52506E-05-2.85800E-05-2.85731E-05-5.12598E-09 9.12917E-19-2.04602E-18
 -1      4256 9.51133E-05-2.83119E-05-2.86288E-05 3.72735E-08 4.12683E-19-1.23677E-18
 -1      4257 9.50756E-05-2.82631E-05-2.86347E-05 4.51467E-08-8.41927E-20-1.11069E-18
 -1      4258 9.52554E-05-2.85780E-05-2.85760E-05-2.10374E-09 1.03802E-18-1.87176E-18
 -1      4259 8.84193E-05-2.63894E-05-2.66317E-05-1.22546E-05 2.05380E-18 1.24759E-18
 -1      4260 8.93228E-05-2.64414E-05-2.70146E-05-1.04720E-05 1.94490E-18 7.59866E-19
 -1      4261 9.04532E-05-2.62790E-05-2.74998E-05-7.85613E-06 1.29386E-18 4.33057E-19
 -1      4262 9.01382E-05-2.56475E-05-2.76636E-05-6.63415E-06 1.17380E-18 4.65918E-20
 -1      4263 9.48080E-05-3.08048E-05-2.74634E-05-1.06099E-05 1.83659E-18-1.01424E-19
 -1      4264 9.07115E-05-2.55903E-05-2.78880E-05-5.34151E-06 1.14823E-18-9.47762E-19
 -1      4265 9.06751E-05-2.53408E-05-2.80161E-05-4.37167E-06 1.06937E-18-1.29593E-18
 -1      4266 8.50938E-05-2.36366E-05-2.62836E-05-1.17623E-05 1.96013E-18 1.17112E-18
 -1      4267 9.48878E-05-2.80316E-05-2.86537E-05 1.07784E-09-1.19030E-18-2.24149E-18
 -1      4268 9.50469E-05-2.82268E-05-2.86368E-05 1.19387E-08-9.15180E-19-1.64146E-18
 -1      4269 9.26367E-05-2.59710E-05-2.85706E-05-6.86543E-07-8.14390E-19-7.67829E-19
 -1      4270 8.49150E-05-2.22444E-05-2.68502E-05-7.86585E-06 1.13288E-18-1.64235E-19
 -1      4271 8.71014E-05-2.37904E-05-2.70887E-05-8.28931E-06 9.64320E-19 4.22830E-19
 -1      4272 8.95182E-05-2.58796E-05-2.73071E-05-8.61621E-06 1.01340E-18 5.61009E-19
 -1      4273 9.49201E-05-2.80682E-05-2.86497E-05-4.51504E-08-1.41030E-18-1.63377E-18
 -1      4274 9.51398E-05-2.83512E-05-2.86233E-05 3.06117E-08 4.31879E-19-1.80388E-18
 -1      4275 9.00305E-05-2.45575E-05-2.80526E-05-3.58156E-06 1.17418E-18-1.25703E-18
 -1      4276 9.06390E-05-2.47940E-05-2.82053E-05-2.74298E-06 1.58401E-18-1.09041E-18
 -1      4277 9.24338E-05-2.57320E-05-2.85765E-05-3.81818E-07-2.49413E-19-1.03721E-18
 -1      4278 9.21777E-05-2.54852E-05-2.85847E-05-8.91987E-08 2.29693E-19-1.49576E-18
 -1      4279 9.16593E-05-2.51102E-05-2.85362E-05-2.51203E-07 8.07725E-19-1.81969E-18
 -1      4280 9.21197E-05-2.56036E-05-2.85165E-05-9.40641E-07-5.75465E-19-1.43766E-18
 -1      4281 9.12431E-05-2.48035E-05-2.84750E-05-5.45578E-07 8.61347E-19-1.83947E-18
 -1      4282 9.05748E-05-2.43727E-05-2.83907E-05-8.50606E-07 7.47194E-19-1.93294E-18
 -1      4283 9.06124E-05-2.45543E-05-2.83052E-05-1.77856E-06 1.32644E-18-1.44894E-18
 -1      4284 9.14771E-05-2.50353E-05-2.84586E-05-9.49970E-07 4.34626E-19-2.22979E-18
 -1      4285 9.09525E-05-2.49158E-05-2.83040E-05-2.14290E-06 1.54579E-18-5.68072E-19
 -1      4286 9.29727E-05-2.88323E-05-2.74753E-05-9.54718E-06 1.71353E-18 2.27093E-19
 -1      4287 9.17689E-05-2.53747E-05-2.84528E-05-1.30612E-06 4.53670E-19-1.28184E-18
 -1      4288 9.13884E-05-2.51548E-05-2.83901E-05-1.66218E-06 1.06304E-18-1.20998E-18
 -3
    1PSTEP                         4           1           1          
  100CL  101 1.000000000        4288                     0    1           1
 -4  ERROR       1    1
 -5  STR(%)      1    1    0    0
 -1         1 1.20175E+01
 -1         2 2.45596E+01
 -1         3 1.02033E-04
 -1         4 1.14775E-04
 -1         5 1.21678E+01
 -1         6 1.28958E+01
 -1         7 1.28958E+01
 -1         8 3.71796E+00
 -1         9 1.94376E+00
 -1        10 1.55047E+00
 -1        11 1.39182E+00
 -1        12 1.30837E+00
 -1        13 1.23200E+00
 -1        14 1.11283E+00
 -1        15 9.20532E-01
 -1        16 7.07133E-01
 -1        17 9.10517E-01
 -1        18 1.59861E+00
 -1        19 2.22400E+00
 -1        20 2.84770E+00
 -1        21 3.89352E+00
 -1        22 7.82626E+00
 -1        23 1.28958E+01
 -1        24 4.01311E+00
 -1        25 2.98794E+00
 -1        26 1.87838E+00
 -1        27 1.38129E+00
 -1        28 1.51743E+00
 -1        29 1.89648E+00
 -1        30 2.30305E+00
 -1        31 2.57888E+00
 -1        32 2.59108E+00
 -1        33 2.65292E+00
 -1        34 2.65292E+00
 -1        35 2.52249E+00
 -1        36 2.11940E+00
 -1        37 1.56563E+00
 -1        38 1.06868E+00
 -1        39 7.78610E-01
 -1        40 5.63045E-01
 -1        41 3.58280E-01
 -1        42 3.16682E-01
 -1        43 2.45234E-01
 -1        44 2.26091E-01
 -1        45 1.94299E-01
 -1        46 1.52583E-01
 -1        47 1.12386E-01
 -1        48 1.00091E-01
 -1        49 8.63830E-02
 -1        50 7.05689E-02
 -1        51 5.50587E-02
 -1        52 4.11839E-02
 -1        53 3.52195E-02
 -1        54 2.97952E-02
 -1        55 2.43795E-02
 -1        56 1.93859E-02
 -1        57 1.50198E-02
 -1        58 1.13494E-02
 -1        59 9.26508E-03
 -1        60 7.63658E-03
 -1        61 6.14687E-03
 -1        62 4.83963E-03
 -1        63 3.72640E-03
 -1        64 2.88505E-03
 -1        65 2.17689E-03
 -1        66 1.58170E-03
 -1        67 1.32518E-03
 -1        68 1.11179E-03
 -1        69 8.86937E-04
 -1        70 6.96957E-04
 -1        71 5.00677E-04
 -1        72 1.21678E+01
 -1        73 2.52217E+00
 -1        74 1.86540E+00
 -1        75 2.13416E+00
 -1        76 2.47213E+00
 -1        77 3.53076E+00
 -1        78 3.69949E+00
 -1        79 3.69949E+00
 -1        80 6.18144E+00
 -1        81 1.15072E+01
 -1        82 1.30172E+01
 -1        83 1.30172E+01
 -1        84 1.01730E+01
 -1        85 4.02191E+00
 -1        86 4.44075E+00
 -1        87 4.44075E+00
 -1        88 4.34139E+00
 -1        89 3.55707E+00
 -1        90 2.80857E+00
 -1        91 2.13801E+00
 -1        92 1.44870E+00
 -1        93 9.94406E-01
 -1        94 6.66262E-01
 -1        95 4.68907E-01
 -1        96 3.30232E-01
 -1        97 2.30861E-01
 -1        98 1.60319E-01
 -1        99 1.14024E-01
 -1       100 7.37499E-02
 -1       101 4.94248E-02
 -1       102 3.55517E-02
 -1       103 2.84777E-02
 -1       104 2.25805E-02
 -1       105 1.77270E-02
 -1       106 1.36027E-02
 -1       107 1.09345E-02
 -1       108 9.43427E-03
 -1       109 7.95400E-03
 -1       110 6.57279E-03
 -1       111 5.33362E-03
 -1       112 4.26128E-03
 -1       113 3.42820E-03
 -1       114 2.76886E-03
 -1       115 2.04452E-03
 -1       116 1.51303E-03
 -1       117 1.12743E-03
 -1       118 8.99216E-04
 -1       119 6.34546E-04
 -1       120 3.83372E-04
 -1       121 1.67457E-04
 -1       122 1.67457E-04
 -1       123 1.30629E-04
 -1       124 6.01099E-05
 -1       125 7.66642E-05
 -1       126 1.17178E-04
 -1       127 1.40617E-04
 -1       128 1.46992E-04
 -1       129 1.46992E-04
 -1       130 1.39684E-04
 -1       131 1.14631E-04
 -1       132 7.53371E-05
 -1       133 6.10692E-05
 -1       134 1.30214E-04
 -1       135 2.21723E-04
 -1       136 2.56343E-04
 -1       137 2.63522E+01
 -1       138 2.63522E+01
 -1       139 3.19547E+01
 -1       140 3.19547E+01
 -1       141 1.42824E+01
 -1       142 1.34576E+01
 -1       143 1.35061E+01
 -1       144 1.43189E+01
 -1       145 1.43189E+01
 -1       146 1.69538E+01
 -1       147 4.38731E+01
 -1       148 4.38731E+01
 -1       149 2.50920E+01
 -1       150 2.50920E+01
 -1       151 2.63201E+01
 -1       152 2.63201E+01
 -1       153 3.63352E+01
 -1       154 3.63352E+01
 -1       155 1.40408E+01
 -1       156 1.25384E+01
 -1       157 1.25384E+01
 -1       158 1.24920E+01
 -1       159 1.24920E+01
 -1       160 1.16444E+01
 -1       161 2.26644E+01
 -1       162 4.83322E+01
 -1       163 4.83322E+01
 -1       164 2.45596E+01
 -1       165 6.11020E+00
 -1       166 2.43889E+00
 -1       167 1.75283E+00
 -1       168 1.48502E+00
 -1       169 1.36720E+00
 -1       170 1.28014E+00
 -1       171 1.16127E+00
 -1       172 1.01134E+00
 -1       173 8.66510E-01
 -1       174 5.82003E-01
 -1       175 1.19491E+00
 -1       176 1.89690E+00
 -1       177 2.35949E+00
 -1       178 3.07159E+00
 -1       179 3.98634E+00
 -1       180 1.21678E+01
 -1       181 4.01311E+00
 -1       182 2.98794E+00
 -1       183 1.87838E+00
 -1       184 1.47551E+00
 -1       185 1.39983E+00
 -1       186 1.61802E+00
 -1       187 1.89648E+00
 -1       188 2.30305E+00
 -1       189 2.57888E+00
 -1       190 2.59108E+00
 -1       191 2.65292E+00
 -1       192 2.52249E+00
 -1       193 2.11940E+00
 -1       194 1.60930E+00
 -1       195 1.19788E+00
 -1       196 8.80505E-01
 -1       197 5.89766E-01
 -1       198 3.58280E-01
 -1       199 3.16682E-01
 -1       200 2.45234E-01
 -1       201 2.26091E-01
 -1       202 1.94299E-01
 -1       203 1.52583E-01
 -1       204 1.20799E-01
 -1       205 1.00091E-01
 -1       206 8.63830E-02
 -1       207 7.05689E-02
 -1       208 5.50587E-02
 -1       209 4.31305E-02
 -1       210 3.52195E-02
 -1       211 2.97952E-02
 -1       212 2.43795E-02
 -1       213 1.93859E-02
 -1       214 1.50198E-02
 -1       215 1.15318E-02
 -1       216 9.26508E-03
 -1       217 7.63658E-03
 -1       218 6.14687E-03
 -1       219 4.87387E-03
 -1       220 3.90475E-03
 -1       221 3.07920E-03
 -1       222 2.45702E-03
 -1       223 1.90036E-03
 -1       224 1.41562E-03
 -1       225 1.11179E-03
 -1       226 8.86937E-04
 -1       227 6.96957E-04
 -1       228 5.00677E-04
 -1       229 2.52217E+00
 -1       230 1.84168E+00
 -1       231 1.86540E+00
 -1       232 2.14244E+00
 -1       233 2.70860E+00
 -1       234 3.53076E+00
 -1       235 3.69949E+00
 -1       236 3.68414E+00
 -1       237 7.28287E+00
 -1       238 1.15072E+01
 -1       239 1.30172E+01
 -1       240 1.01730E+01
 -1       241 4.02191E+00
 -1       242 3.73261E+00
 -1       243 4.44075E+00
 -1       244 4.34139E+00
 -1       245 3.55707E+00
 -1       246 2.80857E+00
 -1       247 2.20941E+00
 -1       248 1.56794E+00
 -1       249 1.10572E+00
 -1       250 7.63408E-01
 -1       251 5.22783E-01
 -1       252 3.53250E-01
 -1       253 2.35806E-01
 -1       254 1.62279E-01
 -1       255 1.17630E-01
 -1       256 7.78451E-02
 -1       257 5.35249E-02
 -1       258 3.62057E-02
 -1       259 2.84777E-02
 -1       260 2.25805E-02
 -1       261 1.77270E-02
 -1       262 1.36027E-02
 -1       263 1.09345E-02
 -1       264 9.43427E-03
 -1       265 7.95400E-03
 -1       266 6.57279E-03
 -1       267 5.33362E-03
 -1       268 4.26128E-03
 -1       269 3.42820E-03
 -1       270 2.76886E-03
 -1       271 2.06030E-03
 -1       272 1.55740E-03
 -1       273 1.12743E-03
 -1       274 8.99216E-04
 -1       275 6.34546E-04
 -1       276 3.83372E-04
 -1       277 2.14922E-04
 -1       278 2.14922E-04
 -1       279 1.94938E-04
 -1       280 1.24800E-04
 -1       281 2.04532E-04
 -1       282 2.54595E-04
 -1       283 2.73830E-04
 -1       284 2.73830E-04
 -1       285 2.73455E-04
 -1       286 2.51514E-04
 -1       287 2.02153E-04
 -1       288 1.24185E-04
 -1       289 1.92150E-04
 -1       290 1.92150E-04
 -1       291 2.70854E-04
 -1       292 2.94212E+01
 -1       293 3.34659E+01
 -1       294 3.34659E+01
 -1       295 3.19547E+01
 -1       296 1.42824E+01
 -1       297 1.34576E+01
 -1       298 1.32339E+01
 -1       299 1.35061E+01
 -1       300 1.43189E+01
 -1       301 1.26464E+01
 -1       302 1.84416E+01
 -1       303 4.38731E+01
 -1       304 3.78412E+01
 -1       305 3.10180E+01
 -1       306 3.10180E+01
 -1       307 2.88425E+01
 -1       308 3.42799E+01
 -1       309 3.63352E+01
 -1       310 1.40408E+01
 -1       311 1.11148E+01
 -1       312 1.25384E+01
 -1       313 1.20175E+01
 -1       314 1.16798E+01
 -1       315 1.24920E+01
 -1       316 1.13147E+01
 -1       317 1.16444E+01
 -1       318 2.44717E+01
 -1       319 4.83322E+01
 -1       320 2.98727E+01
 -1       321 2.94212E+01
 -1       322 1.13307E+00
 -1       323 2.49344E+00
 -1       324 1.08389E+00
 -1       325 1.07866E+00
 -1       326 1.10242E+00
 -1       327 1.10242E+00
 -1       328 1.01738E+00
 -1       329 9.40753E-01
 -1       330 1.05403E+00
 -1       331 1.60658E+00
 -1       332 2.22829E+00
 -1       333 3.03855E+00
 -1       334 2.47994E+00
 -1       335 1.81518E+00
 -1       336 2.28438E+00
 -1       337 1.66157E+00
 -1       338 1.37299E+00
 -1       339 1.26867E+00
 -1       340 1.38101E+00
 -1       341 1.54551E+00
 -1       342 1.74994E+00
 -1       343 1.90057E+00
 -1       344 1.92178E+00
 -1       345 1.87107E+00
 -1       346 1.91026E+00
 -1       347 1.79008E+00
 -1       348 1.52453E+00
 -1       349 1.25207E+00
 -1       350 9.63908E-01
 -1       351 6.83397E-01
 -1       352 4.57847E-01
 -1       353 2.63680E-01
 -1       354 1.31005E-01
 -1       355 1.30684E-01
 -1       356 1.46029E-01
 -1       357 1.38002E-01
 -1       358 1.19530E-01
 -1       359 1.03657E-01
 -1       360 8.84937E-02
 -1       361 7.23557E-02
 -1       362 5.58493E-02
 -1       363 4.31305E-02
 -1       364 3.26570E-02
 -1       365 2.38037E-02
 -1       366 1.81575E-02
 -1       367 1.55547E-02
 -1       368 1.29245E-02
 -1       369 1.04591E-02
 -1       370 8.26218E-03
 -1       371 6.42031E-03
 -1       372 5.54950E-03
 -1       373 4.65435E-03
 -1       374 3.80097E-03
 -1       375 3.08100E-03
 -1       376 2.47421E-03
 -1       377 1.93247E-03
 -1       378 1.51823E-03
 -1       379 1.14854E-03
 -1       380 8.31776E-04
 -1       381 6.24542E-04
 -1       382 4.38448E-04
 -1       383 2.86422E+00
 -1       384 3.37942E+00
 -1       385 3.86989E+00
 -1       386 4.89209E+00
 -1       387 5.92520E+00
 -1       388 3.48431E+00
 -1       389 6.55952E+00
 -1       390 9.75509E+00
 -1       391 8.74636E+00
 -1       392 4.78394E+00
 -1       393 5.36682E+00
 -1       394 5.36223E+00
 -1       395 4.31075E+00
 -1       396 3.53961E+00
 -1       397 3.25371E+00
 -1       398 2.71949E+00
 -1       399 2.12901E+00
 -1       400 1.53080E+00
 -1       401 1.09528E+00
 -1       402 7.63408E-01
 -1       403 5.22783E-01
 -1       404 3.53250E-01
 -1       405 2.35806E-01
 -1       406 1.62279E-01
 -1       407 1.17630E-01
 -1       408 7.78451E-02
 -1       409 5.35249E-02
 -1       410 3.62057E-02
 -1       411 2.39590E-02
 -1       412 1.73733E-02
 -1       413 1.43949E-02
 -1       414 1.16108E-02
 -1       415 9.25113E-03
 -1       416 7.26941E-03
 -1       417 5.61859E-03
 -1       418 4.79423E-03
 -1       419 4.08717E-03
 -1       420 3.42853E-03
 -1       421 2.87705E-03
 -1       422 2.40664E-03
 -1       423 1.85559E-03
 -1       424 1.43555E-03
 -1       425 1.06833E-03
 -1       426 7.94512E-04
 -1       427 5.96244E-04
 -1       428 3.77019E-04
 -1       429 2.24739E-04
 -1       430 4.46322E-04
 -1       431 4.46322E-04
 -1       432 2.74995E-04
 -1       433 3.47414E-04
 -1       434 3.79102E-04
 -1       435 3.79102E-04
 -1       436 3.76716E-04
 -1       437 3.76716E-04
 -1       438 3.44181E-04
 -1       439 2.70833E-04
 -1       440 2.15883E-04
 -1       441 3.49067E-04
 -1       442 3.34659E+01
 -1       443 3.80886E+01
 -1       444 3.80886E+01
 -1       445 2.08226E+01
 -1       446 1.25064E+01
 -1       447 1.12492E+00
 -1       448 1.01833E+01
 -1       449 1.06348E+01
 -1       450 8.03186E+00
 -1       451 8.42147E+00
 -1       452 1.43990E+01
 -1       453 2.56047E+01
 -1       454 2.86677E+01
 -1       455 4.20464E+01
 -1       456 4.20464E+01
 -1       457 2.55017E+01
 -1       458 2.18536E+01
 -1       459 1.25652E+01
 -1       460 7.43653E+00
 -1       461 8.23602E+00
 -1       462 1.06519E+01
 -1       463 1.06832E+01
 -1       464 1.03479E+01
 -1       465 8.60085E+00
 -1       466 6.86214E+00
 -1       467 1.02960E+01
 -1       468 1.87292E+01
 -1       469 2.98727E+01
 -1       470 2.65771E+01
 -1       471 6.63674E+00
 -1       472 2.41817E+01
 -1       473 9.93966E+00
 -1       474 3.45710E+00
 -1       475 1.26879E+00
 -1       476 1.06252E+00
 -1       477 1.31342E+00
 -1       478 1.27085E+00
 -1       479 1.26356E+00
 -1       480 1.95542E+00
 -1       481 2.21768E+00
 -1       482 3.45710E+00
 -1       483 3.64929E+00
 -1       484 8.42839E-01
 -1       485 1.00614E+00
 -1       486 1.12868E+00
 -1       487 1.29660E+00
 -1       488 1.42668E+00
 -1       489 1.52335E+00
 -1       490 1.52651E+00
 -1       491 1.43405E+00
 -1       492 1.43746E+00
 -1       493 1.45532E+00
 -1       494 1.36772E+00
 -1       495 1.23355E+00
 -1       496 1.04043E+00
 -1       497 7.84020E-01
 -1       498 5.71181E-01
 -1       499 3.87842E-01
 -1       500 2.40370E-01
 -1       501 1.92331E-01
 -1       502 1.45661E-01
 -1       503 1.28630E-01
 -1       504 1.23720E-01
 -1       505 1.11138E-01
 -1       506 9.62584E-02
 -1       507 8.13685E-02
 -1       508 6.58175E-02
 -1       509 5.07921E-02
 -1       510 3.74699E-02
 -1       511 2.63532E-02
 -1       512 1.75144E-02
 -1       513 1.23095E-02
 -1       514 8.94601E-03
 -1       515 8.07766E-03
 -1       516 7.02443E-03
 -1       517 5.92221E-03
 -1       518 4.85907E-03
 -1       519 3.98766E-03
 -1       520 3.47878E-03
 -1       521 2.93265E-03
 -1       522 2.39591E-03
 -1       523 1.94534E-03
 -1       524 1.53227E-03
 -1       525 1.16186E-03
 -1       526 8.76799E-04
 -1       527 6.38245E-04
 -1       528 6.14586E+00
 -1       529 8.79393E+00
 -1       530 7.67322E+00
 -1       531 7.53862E+00
 -1       532 5.60857E+00
 -1       533 4.36793E+00
 -1       534 3.35613E+00
 -1       535 2.49865E+00
 -1       536 1.79682E+00
 -1       537 1.28490E+00
 -1       538 9.06394E-01
 -1       539 6.32693E-01
 -1       540 4.37682E-01
 -1       541 3.00119E-01
 -1       542 2.03780E-01
 -1       543 1.38726E-01
 -1       544 8.82019E-02
 -1       545 5.66639E-02
 -1       546 3.51607E-02
 -1       547 2.47439E-02
 -1       548 1.75732E-02
 -1       549 1.43949E-02
 -1       550 1.16108E-02
 -1       551 9.25113E-03
 -1       552 7.26941E-03
 -1       553 5.88282E-03
 -1       554 4.80597E-03
 -1       555 4.01573E-03
 -1       556 3.29382E-03
 -1       557 2.73691E-03
 -1       558 2.23472E-03
 -1       559 1.75466E-03
 -1       560 1.37324E-03
 -1       561 1.03581E-03
 -1       562 7.42146E-04
 -1       563 5.35818E-04
 -1       564 4.39884E-04
 -1       565 4.87122E-04
 -1       566 4.92724E-04
 -1       567 3.50580E-04
 -1       568 4.87122E-04
 -1       569 4.83335E-04
 -1       570 4.83335E-04
 -1       571 4.82883E-04
 -1       572 4.34056E-04
 -1       573 3.67925E-04
 -1       574 3.67925E-04
 -1       575 1.83455E+01
 -1       576 2.65771E+01
 -1       577 4.75391E+00
 -1       578 3.80886E+01
 -1       579 1.35343E+01
 -1       580 8.69029E-01
 -1       581 1.00568E+01
 -1       582 5.70155E+00
 -1       583 1.06895E+01
 -1       584 2.86677E+01
 -1       585 1.31342E+00
 -1       586 7.47333E+00
 -1       587 9.23834E+00
 -1       588 1.10483E+01
 -1       589 1.73909E+01
 -1       590 4.20464E+01
 -1       591 2.55017E+01
 -1       592 1.47611E+01
 -1       593 8.87265E+00
 -1       594 3.53180E+00
 -1       595 1.96525E+01
 -1       596 8.80424E+00
 -1       597 6.90569E+00
 -1       598 4.32487E+00
 -1       599 5.70049E+00
 -1       600 8.63479E+00
 -1       601 3.45710E+00
 -1       602 6.43638E+00
 -1       603 3.70984E+00
 -1       604 8.71117E-01
 -1       605 3.90067E-04
 -1       606 1.83588E+00
 -1       607 1.83588E+00
 -1       608 3.00413E+00
 -1       609 3.27406E+00
 -1       610 3.41647E+00
 -1       611 1.95224E+01
 -1       612 4.56324E+00
 -1       613 5.99273E+00
 -1       614 8.11633E-01
 -1       615 1.01822E+00
 -1       616 1.24418E+00
 -1       617 1.33977E+00
 -1       618 1.41350E+00
 -1       619 1.42647E+00
 -1       620 1.35846E+00
 -1       621 1.40772E+00
 -1       622 1.34581E+00
 -1       623 1.22682E+00
 -1       624 1.09422E+00
 -1       625 9.53802E-01
 -1       626 7.51907E-01
 -1       627 5.71181E-01
 -1       628 4.02750E-01
 -1       629 3.06957E-01
 -1       630 2.17829E-01
 -1       631 1.68619E-01
 -1       632 1.49839E-01
 -1       633 1.28296E-01
 -1       634 1.09227E-01
 -1       635 9.07170E-02
 -1       636 7.33965E-02
 -1       637 5.75182E-02
 -1       638 4.35117E-02
 -1       639 3.17677E-02
 -1       640 2.23092E-02
 -1       641 1.49524E-02
 -1       642 9.41461E-03
 -1       643 5.79377E-03
 -1       644 4.69551E-03
 -1       645 4.55649E-03
 -1       646 4.17602E-03
 -1       647 3.66770E-03
 -1       648 3.11078E-03
 -1       649 2.62430E-03
 -1       650 2.25341E-03
 -1       651 1.86575E-03
 -1       652 1.49049E-03
 -1       653 1.16031E-03
 -1       654 8.76799E-04
 -1       655 6.38245E-04
 -1       656 2.95712E+00
 -1       657 9.78797E+00
 -1       658 7.83313E+00
 -1       659 4.34346E+00
 -1       660 3.09204E+00
 -1       661 2.09269E+00
 -1       662 1.42487E+00
 -1       663 9.68117E-01
 -1       664 6.48156E-01
 -1       665 4.43621E-01
 -1       666 3.17608E-01
 -1       667 2.25626E-01
 -1       668 1.58369E-01
 -1       669 1.08238E-01
 -1       670 7.39379E-02
 -1       671 4.94975E-02
 -1       672 3.22114E-02
 -1       673 2.01272E-02
 -1       674 1.22256E-02
 -1       675 9.07859E-03
 -1       676 8.09564E-03
 -1       677 6.98154E-03
 -1       678 5.86004E-03
 -1       679 4.80597E-03
 -1       680 3.92347E-03
 -1       681 3.30399E-03
 -1       682 2.73691E-03
 -1       683 2.23472E-03
 -1       684 1.76862E-03
 -1       685 1.38327E-03
 -1       686 1.04298E-03
 -1       687 7.61483E-04
 -1       688 6.48039E-04
 -1       689 6.03807E-04
 -1       690 4.11043E-04
 -1       691 6.01581E-04
 -1       692 6.01519E-04
 -1       693 6.03807E-04
 -1       694 9.44564E+00
 -1       695 1.34238E+01
 -1       696 6.01519E-04
 -1       697 5.89693E-04
 -1       698 5.03640E-04
 -1       699 8.71117E-01
 -1       700 1.63954E+01
 -1       701 4.98850E+00
 -1       702 1.56685E+01
 -1       703 5.30739E+00
 -1       704 7.53862E+00
 -1       705 1.11778E+01
 -1       706 6.71251E-01
 -1       707 2.27670E+00
 -1       708 1.67428E+01
 -1       709 4.27088E+00
 -1       710 1.34935E+01
 -1       711 1.31262E+01
 -1       712 1.28241E+00
 -1       713 3.17264E+00
 -1       714 8.93840E+00
 -1       715 3.88045E+00
 -1       716 5.48689E+00
 -1       717 9.83859E+00
 -1       718 9.06869E-01
 -1       719 1.67498E+00
 -1       720 5.18720E-04
 -1       721 6.68105E+00
 -1       722 7.83925E+00
 -1       723 4.60029E-04
 -1       724 5.22701E-04
 -1       725 1.59275E+00
 -1       726 1.39598E+01
 -1       727 1.00659E+01
 -1       728 3.36089E+00
 -1       729 9.97606E+00
 -1       730 1.16734E+00
 -1       731 1.27391E+00
 -1       732 1.41350E+00
 -1       733 1.72088E+00
 -1       734 2.34326E+00
 -1       735 2.46817E+00
 -1       736 1.61057E+00
 -1       737 1.36077E+00
 -1       738 1.26641E+00
 -1       739 1.19874E+00
 -1       740 9.53802E-01
 -1       741 7.47220E-01
 -1       742 5.96669E-01
 -1       743 4.42353E-01
 -1       744 3.06957E-01
 -1       745 2.41223E-01
 -1       746 1.95502E-01
 -1       747 1.57524E-01
 -1       748 1.28814E-01
 -1       749 1.04958E-01
 -1       750 8.24079E-02
 -1       751 6.26632E-02
 -1       752 4.65033E-02
 -1       753 3.40514E-02
 -1       754 2.42774E-02
 -1       755 1.67737E-02
 -1       756 1.11368E-02
 -1       757 6.99849E-03
 -1       758 4.03731E-03
 -1       759 2.50280E-03
 -1       760 2.87763E-03
 -1       761 2.93040E-03
 -1       762 2.76711E-03
 -1       763 2.47923E-03
 -1       764 2.13138E-03
 -1       765 1.87414E-03
 -1       766 1.59650E-03
 -1       767 1.30688E-03
 -1       768 1.02627E-03
 -1       769 7.63278E-04
 -1       770 6.95122E+00
 -1       771 3.83572E+00
 -1       772 6.37548E+00
 -1       773 4.01291E+00
 -1       774 1.23786E+00
 -1       775 8.47071E-01
 -1       776 5.79492E-01
 -1       777 3.94987E-01
 -1       778 2.67470E-01
 -1       779 1.78195E-01
 -1       780 1.18738E-01
 -1       781 8.00425E-02
 -1       782 5.39673E-02
 -1       783 3.73922E-02
 -1       784 2.52030E-02
 -1       785 1.63926E-02
 -1       786 1.01469E-02
 -1       787 5.72302E-03
 -1       788 4.79526E-03
 -1       789 4.61576E-03
 -1       790 4.19926E-03
 -1       791 3.66958E-03
 -1       792 3.10540E-03
 -1       793 2.62302E-03
 -1       794 2.23546E-03
 -1       795 1.83563E-03
 -1       796 1.46454E-03
 -1       797 1.12808E-03
 -1       798 8.29962E-04
 -1       799 6.43892E-04
 -1       800 4.67327E+00
 -1       801 3.74903E+00
 -1       802 4.29505E+00
 -1       803 6.85014E-04
 -1       804 6.01632E-04
 -1       805 7.20661E-04
 -1       806 9.56191E+00
 -1       807 3.17264E+00
 -1       808 7.20661E-04
 -1       809 1.81855E+00
 -1       810 2.73841E+00
 -1       811 2.95712E+00
 -1       812 9.46666E-01
 -1       813 2.53701E+00
 -1       814 2.42641E+00
 -1       815 8.48242E+00
 -1       816 4.99759E+00
 -1       817 8.27157E+00
 -1       818 6.89122E+00
 -1       819 4.00040E+00
 -1       820 9.25074E+00
 -1       821 9.97606E+00
 -1       822 6.01252E+00
 -1       823 1.05374E+01
 -1       824 2.75914E+00
 -1       825 5.10891E+00
 -1       826 7.19924E-04
 -1       827 9.44564E+00
 -1       828 3.42376E+00
 -1       829 7.26252E-04
 -1       830 7.26252E-04
 -1       831 5.10891E+00
 -1       832 7.87305E-01
 -1       833 1.63055E+00
 -1       834 1.10852E+00
 -1       835 6.62869E-04
 -1       836 2.52048E+00
 -1       837 3.60565E+00
 -1       838 1.37645E+00
 -1       839 2.64384E+00
 -1       840 2.70009E+00
 -1       841 2.28883E+00
 -1       842 2.11704E+00
 -1       843 2.23286E+00
 -1       844 1.42207E+00
 -1       845 1.05809E+00
 -1       846 8.28511E-01
 -1       847 5.98392E-01
 -1       848 4.44847E-01
 -1       849 3.47772E-01
 -1       850 2.63485E-01
 -1       851 2.03601E-01
 -1       852 1.60831E-01
 -1       853 1.23889E-01
 -1       854 9.49200E-02
 -1       855 7.44671E-02
 -1       856 5.88353E-02
 -1       857 4.50143E-02
 -1       858 3.31134E-02
 -1       859 2.33740E-02
 -1       860 1.60062E-02
 -1       861 1.05754E-02
 -1       862 6.52838E-03
 -1       863 3.61238E-03
 -1       864 2.06787E-03
 -1       865 1.81952E-03
 -1       866 2.08786E-03
 -1       867 2.11027E-03
 -1       868 1.97876E-03
 -1       869 1.75986E-03
 -1       870 1.54740E-03
 -1       871 1.33862E-03
 -1       872 1.10850E-03
 -1       873 9.56191E+00
 -1       874 8.69409E-01
 -1       875 3.12066E-01
 -1       876 2.18698E-01
 -1       877 1.50907E-01
 -1       878 1.04176E-01
 -1       879 7.08291E-02
 -1       880 4.82910E-02
 -1       881 3.22746E-02
 -1       882 2.10448E-02
 -1       883 1.29595E-02
 -1       884 7.49061E-03
 -1       885 4.23280E-03
 -1       886 2.63677E-03
 -1       887 2.92560E-03
 -1       888 2.94535E-03
 -1       889 2.75708E-03
 -1       890 2.45468E-03
 -1       891 2.09180E-03
 -1       892 1.81301E-03
 -1       893 1.53545E-03
 -1       894 1.25145E-03
 -1       895 1.12119E-03
 -1       896 2.81276E+00
 -1       897 7.21250E-04
 -1       898 8.28786E-04
 -1       899 2.64384E+00
 -1       900 4.72872E+00
 -1       901 4.67327E+00
 -1       902 1.22920E+00
 -1       903 2.75914E+00
 -1       904 1.78762E+00
 -1       905 2.96455E+00
 -1       906 6.18377E-01
 -1       907 1.16734E+00
 -1       908 3.16743E+00
 -1       909 1.56911E+00
 -1       910 6.66642E+00
 -1       911 2.28883E+00
 -1       912 2.77321E+00
 -1       913 2.88563E+00
 -1       914 4.40193E-01
 -1       915 5.95194E+00
 -1       916 5.86451E+00
 -1       917 2.23286E+00
 -1       918 6.35783E+00
 -1       919 3.25035E+00
 -1       920 1.63055E+00
 -1       921 2.46817E+00
 -1       922 1.50049E+00
 -1       923 5.79109E+00
 -1       924 8.65155E-04
 -1       925 9.62073E-04
 -1       926 7.73637E-04
 -1       927 1.11857E-03
 -1       928 2.62358E+00
 -1       929 2.52048E+00
 -1       930 5.44966E+00
 -1       931 3.65105E+00
 -1       932 9.62073E-04
 -1       933 8.78380E-01
 -1       934 2.34107E+00
 -1       935 4.72872E+00
 -1       936 1.22532E+00
 -1       937 1.22359E+00
 -1       938 6.67269E-01
 -1       939 4.83681E-01
 -1       940 3.76949E-01
 -1       941 2.80981E-01
 -1       942 2.04632E-01
 -1       943 1.53701E-01
 -1       944 1.19351E-01
 -1       945 9.49200E-02
 -1       946 7.44671E-02
 -1       947 5.66595E-02
 -1       948 4.18809E-02
 -1       949 3.00462E-02
 -1       950 2.08280E-02
 -1       951 1.39665E-02
 -1       952 9.19833E-03
 -1       953 5.71717E-03
 -1       954 3.42678E-03
 -1       955 2.06787E-03
 -1       956 1.21173E-03
 -1       957 1.54061E-03
 -1       958 1.63548E-03
 -1       959 1.58012E-03
 -1       960 1.43526E-03
 -1       961 1.25509E-03
 -1       962 1.08892E-03
 -1       963 2.10902E-01
 -1       964 8.26579E-02
 -1       965 5.82337E-02
 -1       966 4.01395E-02
 -1       967 2.74988E-02
 -1       968 1.82764E-02
 -1       969 1.15902E-02
 -1       970 7.10221E-03
 -1       971 4.01017E-03
 -1       972 1.91160E-03
 -1       973 1.80815E-03
 -1       974 2.05142E-03
 -1       975 2.05460E-03
 -1       976 1.90916E-03
 -1       977 1.68552E-03
 -1       978 1.44749E-03
 -1       979 1.25124E-03
 -1       980 1.12119E-03
 -1       981 1.15162E-01
 -1       982 1.95909E+00
 -1       983 1.61452E-01
 -1       984 1.30303E+00
 -1       985 6.00441E-01
 -1       986 1.56911E+00
 -1       987 9.15191E-04
 -1       988 1.83331E+00
 -1       989 2.62714E+00
 -1       990 3.26777E+00
 -1       991 3.79765E+00
 -1       992 2.87295E-01
 -1       993 2.98551E+00
 -1       994 1.46776E+00
 -1       995 9.54897E-04
 -1       996 8.81682E-04
 -1       997 8.48585E-04
 -1       998 2.20897E+00
 -1       999 4.08097E-01
 -1      1000 2.98551E+00
 -1      1001 4.29696E-02
 -1      1002 6.05782E-01
 -1      1003 1.22359E+00
 -1      1004 7.34187E-01
 -1      1005 5.41731E-01
 -1      1006 3.77349E-01
 -1      1007 2.66092E-01
 -1      1008 1.95775E-01
 -1      1009 1.53701E-01
 -1      1010 1.19351E-01
 -1      1011 9.01717E-02
 -1      1012 6.67838E-02
 -1      1013 4.85428E-02
 -1      1014 3.45881E-02
 -1      1015 2.40472E-02
 -1      1016 1.61875E-02
 -1      1017 1.12393E-02
 -1      1018 7.96222E-03
 -1      1019 5.34407E-03
 -1      1020 3.42678E-03
 -1      1021 2.01108E-03
 -1      1022 1.08405E-03
 -1      1023 1.18078E-03
 -1      1024 1.27731E-03
 -1      1025 1.24840E-03
 -1      1026 1.14332E-03
 -1      1027 1.05169E-03
 -1      1028 3.05309E-02
 -1      1029 5.89462E-02
 -1      1030 2.08532E-02
 -1      1031 1.41530E-02
 -1      1032 9.40663E-03
 -1      1033 5.98279E-03
 -1      1034 3.53959E-03
 -1      1035 1.96276E-03
 -1      1036 1.12119E-03
 -1      1037 1.43483E-03
 -1      1038 1.52508E-03
 -1      1039 1.46827E-03
 -1      1040 1.32899E-03
 -1      1041 1.14592E-03
 -1      1042 1.05326E-03
 -1      1043 7.98288E-02
 -1      1044 1.17520E-01
 -1      1045 8.43701E-04
 -1      1046 9.42446E-01
 -1      1047 1.82977E+00
 -1      1048 1.62574E-01
 -1      1049 2.20978E+00
 -1      1050 1.89917E+00
 -1      1051 1.86853E+00
 -1      1052 2.32877E-01
 -1      1053 9.27609E-04
 -1      1054 4.48341E-01
 -1      1055 1.82977E+00
 -1      1056 2.26585E+00
 -1      1057 9.69158E-02
 -1      1058 2.58531E-02
 -1      1059 3.61451E-02
 -1      1060 1.29213E+00
 -1      1061 8.20439E-01
 -1      1062 3.38536E-01
 -1      1063 2.66092E-01
 -1      1064 1.95775E-01
 -1      1065 1.71213E-01
 -1      1066 1.19146E-01
 -1      1067 7.83907E-02
 -1      1068 5.51407E-02
 -1      1069 4.16725E-02
 -1      1070 3.04203E-02
 -1      1071 2.31266E-02
 -1      1072 2.06695E-02
 -1      1073 1.23095E-02
 -1      1074 7.46789E-03
 -1      1075 4.63377E-03
 -1      1076 2.79352E-03
 -1      1077 1.50436E-03
 -1      1078 8.07166E-04
 -1      1079 9.21105E-04
 -1      1080 9.84529E-04
 -1      1081 9.58167E-04
 -1      1082 1.05169E-03
 -1      1083 1.77333E-02
 -1      1084 5.06206E-02
 -1      1085 1.14742E+00
 -1      1086 1.16555E-02
 -1      1087 1.23095E-02
 -1      1088 6.45211E-03
 -1      1089 4.15276E-03
 -1      1090 2.37162E-03
 -1      1091 1.11690E-03
 -1      1092 1.03598E-03
 -1      1093 1.14166E-03
 -1      1094 1.12415E-03
 -1      1095 1.02726E-03
 -1      1096 6.88073E-02
 -1      1097 3.27632E-01
 -1      1098 8.89946E-04
 -1      1099 1.29507E-01
 -1      1100 1.58491E+00
 -1      1101 1.58491E+00
 -1      1102 2.32175E-01
 -1      1103 5.60665E-01
 -1      1104 1.58491E+00
 -1      1105 9.32342E-04
 -1      1106 2.31266E-02
 -1      1107 6.79172E-01
 -1      1108 3.90377E-01
 -1      1109 2.41388E-01
 -1      1110 2.06695E-02
 -1      1111 1.41518E+00
 -1      1112 2.32877E-01
 -1      1113 3.90377E-01
 -1      1114 1.28958E+01
 -1      1115 8.30687E+00
 -1      1116 2.83086E+00
 -1      1117 1.74712E+00
 -1      1118 1.47115E+00
 -1      1119 1.35009E+00
 -1      1120 1.27018E+00
 -1      1121 1.17242E+00
 -1      1122 1.01668E+00
 -1      1123 8.13833E-01
 -1      1124 8.08825E-01
 -1      1125 1.25456E+00
 -1      1126 1.91131E+00
 -1      1127 2.53585E+00
 -1      1128 3.37061E+00
 -1      1129 5.85989E+00
 -1      1130 9.99701E+00
 -1      1131 1.28958E+01
 -1      1132 8.45444E+00
 -1      1133 3.50052E+00
 -1      1134 2.43316E+00
 -1      1135 1.62984E+00
 -1      1136 1.44936E+00
 -1      1137 1.70695E+00
 -1      1138 2.09977E+00
 -1      1139 2.44096E+00
 -1      1140 2.58498E+00
 -1      1141 2.62200E+00
 -1      1142 2.65292E+00
 -1      1143 2.58770E+00
 -1      1144 2.32094E+00
 -1      1145 1.84252E+00
 -1      1146 1.31716E+00
 -1      1147 9.23646E-01
 -1      1148 6.70827E-01
 -1      1149 4.60662E-01
 -1      1150 3.37481E-01
 -1      1151 2.80958E-01
 -1      1152 2.35663E-01
 -1      1153 2.10195E-01
 -1      1154 1.73441E-01
 -1      1155 1.32485E-01
 -1      1156 1.06238E-01
 -1      1157 9.32370E-02
 -1      1158 7.84760E-02
 -1      1159 6.28138E-02
 -1      1160 4.81213E-02
 -1      1161 3.82017E-02
 -1      1162 3.25074E-02
 -1      1163 2.70874E-02
 -1      1164 2.18827E-02
 -1      1165 1.72028E-02
 -1      1166 1.31846E-02
 -1      1167 1.03073E-02
 -1      1168 8.45083E-03
 -1      1169 6.89172E-03
 -1      1170 5.49325E-03
 -1      1171 4.28302E-03
 -1      1172 3.30573E-03
 -1      1173 2.53097E-03
 -1      1174 1.87930E-03
 -1      1175 1.45344E-03
 -1      1176 1.21849E-03
 -1      1177 9.99365E-04
 -1      1178 7.91947E-04
 -1      1179 5.98817E-04
 -1      1180 3.07726E-04
 -1      1181 1.21678E+01
 -1      1182 7.34497E+00
 -1      1183 2.19378E+00
 -1      1184 1.99978E+00
 -1      1185 2.30315E+00
 -1      1186 3.00145E+00
 -1      1187 3.61512E+00
 -1      1188 3.69949E+00
 -1      1189 4.94046E+00
 -1      1190 8.84434E+00
 -1      1191 1.22622E+01
 -1      1192 1.30172E+01
 -1      1193 1.15951E+01
 -1      1194 7.09745E+00
 -1      1195 4.23133E+00
 -1      1196 4.44075E+00
 -1      1197 4.39107E+00
 -1      1198 3.94923E+00
 -1      1199 3.18282E+00
 -1      1200 2.47329E+00
 -1      1201 1.79335E+00
 -1      1202 1.22155E+00
 -1      1203 8.30334E-01
 -1      1204 5.67585E-01
 -1      1205 3.99570E-01
 -1      1206 2.80547E-01
 -1      1207 1.95590E-01
 -1      1208 1.37171E-01
 -1      1209 9.38868E-02
 -1      1210 6.15873E-02
 -1      1211 4.24882E-02
 -1      1212 3.20147E-02
 -1      1213 2.55291E-02
 -1      1214 2.01537E-02
 -1      1215 1.56648E-02
 -1      1216 1.22686E-02
 -1      1217 1.01844E-02
 -1      1218 8.69414E-03
 -1      1219 7.26340E-03
 -1      1220 5.95321E-03
 -1      1221 4.79745E-03
 -1      1222 3.84474E-03
 -1      1223 3.09853E-03
 -1      1224 2.40669E-03
 -1      1225 1.77878E-03
 -1      1226 1.32023E-03
 -1      1227 1.01332E-03
 -1      1228 7.66881E-04
 -1      1229 5.08959E-04
 -1      1230 2.42702E-04
 -1      1231 1.34745E-04
 -1      1232 1.67457E-04
 -1      1233 1.49043E-04
 -1      1234 9.53693E-05
 -1      1235 6.83871E-05
 -1      1236 9.69214E-05
 -1      1237 1.28898E-04
 -1      1238 1.43804E-04
 -1      1239 1.46992E-04
 -1      1240 1.43338E-04
 -1      1241 1.27157E-04
 -1      1242 9.49838E-05
 -1      1243 6.82032E-05
 -1      1244 9.56416E-05
 -1      1245 1.75968E-04
 -1      1246 2.39033E-04
 -1      1247 1.85559E-04
 -1      1248 2.54559E+01
 -1      1249 2.63522E+01
 -1      1250 2.91535E+01
 -1      1251 3.19547E+01
 -1      1252 2.31186E+01
 -1      1253 1.38700E+01
 -1      1254 1.34818E+01
 -1      1255 1.39125E+01
 -1      1256 1.43189E+01
 -1      1257 1.56363E+01
 -1      1258 3.04135E+01
 -1      1259 4.38731E+01
 -1      1260 3.44825E+01
 -1      1261 2.50920E+01
 -1      1262 2.57060E+01
 -1      1263 2.63201E+01
 -1      1264 3.13276E+01
 -1      1265 3.63352E+01
 -1      1266 2.51880E+01
 -1      1267 1.32896E+01
 -1      1268 1.25384E+01
 -1      1269 1.22780E+01
 -1      1270 1.22547E+01
 -1      1271 1.24920E+01
 -1      1272 1.20682E+01
 -1      1273 1.71544E+01
 -1      1274 3.54983E+01
 -1      1275 4.83322E+01
 -1      1276 3.64459E+01
 -1      1277 2.45596E+01
 -1      1278 1.28958E+01
 -1      1279 4.91408E+00
 -1      1280 9.50299E+00
 -1      1281 2.19133E+00
 -1      1282 3.07842E+00
 -1      1283 4.27455E+00
 -1      1284 1.65165E+00
 -1      1285 1.84830E+00
 -1      1286 2.09586E+00
 -1      1287 1.43842E+00
 -1      1288 1.51775E+00
 -1      1289 1.61893E+00
 -1      1290 1.33778E+00
 -1      1291 1.37951E+00
 -1      1292 1.42611E+00
 -1      1293 1.25607E+00
 -1      1294 1.29425E+00
 -1      1295 1.32367E+00
 -1      1296 1.13705E+00
 -1      1297 1.19664E+00
 -1      1298 1.22071E+00
 -1      1299 9.65936E-01
 -1      1300 1.06209E+00
 -1      1301 1.08630E+00
 -1      1302 7.86822E-01
 -1      1303 8.93521E-01
 -1      1304 9.38925E-01
 -1      1305 7.46260E-01
 -1      1306 6.44568E-01
 -1      1307 7.24257E-01
 -1      1308 1.39676E+00
 -1      1309 1.05271E+00
 -1      1310 8.88455E-01
 -1      1311 2.06045E+00
 -1      1312 1.74776E+00
 -1      1313 1.54591E+00
 -1      1314 2.60360E+00
 -1      1315 2.29175E+00
 -1      1316 2.12820E+00
 -1      1317 3.48255E+00
 -1      1318 2.95965E+00
 -1      1319 2.71554E+00
 -1      1320 5.90630E+00
 -1      1321 3.93993E+00
 -1      1322 3.52897E+00
 -1      1323 1.21678E+01
 -1      1324 9.99701E+00
 -1      1325 8.07706E+00
 -1      1326 1.21678E+01
 -1      1327 8.45444E+00
 -1      1328 4.01311E+00
 -1      1329 3.50052E+00
 -1      1330 2.98794E+00
 -1      1331 3.50052E+00
 -1      1332 2.43316E+00
 -1      1333 1.87838E+00
 -1      1334 2.43316E+00
 -1      1335 1.67695E+00
 -1      1336 1.42840E+00
 -1      1337 1.67695E+00
 -1      1338 1.39056E+00
 -1      1339 1.45863E+00
 -1      1340 1.43767E+00
 -1      1341 1.56773E+00
 -1      1342 1.75725E+00
 -1      1343 1.50893E+00
 -1      1344 1.89648E+00
 -1      1345 2.09977E+00
 -1      1346 1.75725E+00
 -1      1347 2.30305E+00
 -1      1348 2.44096E+00
 -1      1349 2.09977E+00
 -1      1350 2.57888E+00
 -1      1351 2.58498E+00
 -1      1352 2.44096E+00
 -1      1353 2.59108E+00
 -1      1354 2.62200E+00
 -1      1355 2.58498E+00
 -1      1356 2.65292E+00
 -1      1357 2.65292E+00
 -1      1358 2.62200E+00
 -1      1359 2.58770E+00
 -1      1360 2.52249E+00
 -1      1361 2.58770E+00
 -1      1362 2.32094E+00
 -1      1363 2.11940E+00
 -1      1364 2.32094E+00
 -1      1365 1.86435E+00
 -1      1366 1.58746E+00
 -1      1367 1.86435E+00
 -1      1368 1.38176E+00
 -1      1369 1.13328E+00
 -1      1370 1.40359E+00
 -1      1371 9.74593E-01
 -1      1372 8.29558E-01
 -1      1373 1.03919E+00
 -1      1374 6.84188E-01
 -1      1375 5.76406E-01
 -1      1376 7.35136E-01
 -1      1377 4.60662E-01
 -1      1378 3.58280E-01
 -1      1379 4.74023E-01
 -1      1380 3.37481E-01
 -1      1381 3.16682E-01
 -1      1382 3.37481E-01
 -1      1383 2.80958E-01
 -1      1384 2.45234E-01
 -1      1385 2.80958E-01
 -1      1386 2.35663E-01
 -1      1387 2.26091E-01
 -1      1388 2.35663E-01
 -1      1389 2.10195E-01
 -1      1390 1.94299E-01
 -1      1391 2.10195E-01
 -1      1392 1.73441E-01
 -1      1393 1.52583E-01
 -1      1394 1.73441E-01
 -1      1395 1.36691E-01
 -1      1396 1.16592E-01
 -1      1397 1.36691E-01
 -1      1398 1.06238E-01
 -1      1399 1.00091E-01
 -1      1400 1.10445E-01
 -1      1401 9.32370E-02
 -1      1402 8.63830E-02
 -1      1403 9.32370E-02
 -1      1404 7.84760E-02
 -1      1405 7.05689E-02
 -1      1406 7.84760E-02
 -1      1407 6.28138E-02
 -1      1408 5.50587E-02
 -1      1409 6.28138E-02
 -1      1410 4.90946E-02
 -1      1411 4.21572E-02
 -1      1412 4.90946E-02
 -1      1413 3.82017E-02
 -1      1414 3.52195E-02
 -1      1415 3.91750E-02
 -1      1416 3.25074E-02
 -1      1417 2.97952E-02
 -1      1418 3.25074E-02
 -1      1419 2.70874E-02
 -1      1420 2.43795E-02
 -1      1421 2.70874E-02
 -1      1422 2.18827E-02
 -1      1423 1.93859E-02
 -1      1424 2.18827E-02
 -1      1425 1.72028E-02
 -1      1426 1.50198E-02
 -1      1427 1.72028E-02
 -1      1428 1.32758E-02
 -1      1429 1.14406E-02
 -1      1430 1.32758E-02
 -1      1431 1.03073E-02
 -1      1432 9.26508E-03
 -1      1433 1.03985E-02
 -1      1434 8.45083E-03
 -1      1435 7.63658E-03
 -1      1436 8.45083E-03
 -1      1437 6.89172E-03
 -1      1438 6.14687E-03
 -1      1439 6.89172E-03
 -1      1440 5.51037E-03
 -1      1441 4.85675E-03
 -1      1442 5.51037E-03
 -1      1443 4.37219E-03
 -1      1444 3.81558E-03
 -1      1445 4.38931E-03
 -1      1446 3.40280E-03
 -1      1447 2.98213E-03
 -1      1448 3.49197E-03
 -1      1449 2.67104E-03
 -1      1450 2.31696E-03
 -1      1451 2.76811E-03
 -1      1452 2.03862E-03
 -1      1453 1.74103E-03
 -1      1454 2.17869E-03
 -1      1455 1.49866E-03
 -1      1456 1.37040E-03
 -1      1457 1.65799E-03
 -1      1458 1.21849E-03
 -1      1459 1.11179E-03
 -1      1460 1.26371E-03
 -1      1461 9.99365E-04
 -1      1462 8.86937E-04
 -1      1463 9.99365E-04
 -1      1464 7.91947E-04
 -1      1465 6.96957E-04
 -1      1466 7.91947E-04
 -1      1467 5.98817E-04
 -1      1468 5.00677E-04
 -1      1469 5.98817E-04
 -1      1470 3.78510E-04
 -1      1471 3.78510E-04
 -1      1472 2.52217E+00
 -1      1473 7.34497E+00
 -1      1474 7.34497E+00
 -1      1475 1.85354E+00
 -1      1476 2.18192E+00
 -1      1477 2.18192E+00
 -1      1478 1.99978E+00
 -1      1479 1.86540E+00
 -1      1480 1.85354E+00
 -1      1481 2.30729E+00
 -1      1482 2.13830E+00
 -1      1483 2.00392E+00
 -1      1484 3.11968E+00
 -1      1485 2.59037E+00
 -1      1486 2.42552E+00
 -1      1487 3.61512E+00
 -1      1488 3.53076E+00
 -1      1489 3.11968E+00
 -1      1490 3.69949E+00
 -1      1491 3.69949E+00
 -1      1492 3.61512E+00
 -1      1493 4.93279E+00
 -1      1494 3.69181E+00
 -1      1495 3.69181E+00
 -1      1496 9.39506E+00
 -1      1497 6.73215E+00
 -1      1498 5.48350E+00
 -1      1499 1.22622E+01
 -1      1500 1.15072E+01
 -1      1501 9.39506E+00
 -1      1502 1.30172E+01
 -1      1503 1.30172E+01
 -1      1504 1.22622E+01
 -1      1505 1.01730E+01
 -1      1506 1.15951E+01
 -1      1507 1.15951E+01
 -1      1508 4.02191E+00
 -1      1509 7.09745E+00
 -1      1510 7.09745E+00
 -1      1511 4.08668E+00
 -1      1512 3.87726E+00
 -1      1513 3.87726E+00
 -1      1514 4.44075E+00
 -1      1515 4.44075E+00
 -1      1516 4.08668E+00
 -1      1517 4.34139E+00
 -1      1518 4.39107E+00
 -1      1519 4.39107E+00
 -1      1520 3.55707E+00
 -1      1521 3.94923E+00
 -1      1522 3.94923E+00
 -1      1523 2.80857E+00
 -1      1524 3.18282E+00
 -1      1525 3.18282E+00
 -1      1526 2.17371E+00
 -1      1527 2.50899E+00
 -1      1528 2.50899E+00
 -1      1529 1.50832E+00
 -1      1530 1.85298E+00
 -1      1531 1.88868E+00
 -1      1532 1.05007E+00
 -1      1533 1.27721E+00
 -1      1534 1.33683E+00
 -1      1535 7.14835E-01
 -1      1536 8.78907E-01
 -1      1537 9.34566E-01
 -1      1538 4.95845E-01
 -1      1539 5.94523E-01
 -1      1540 6.43096E-01
 -1      1541 3.41741E-01
 -1      1542 4.11079E-01
 -1      1543 4.38016E-01
 -1      1544 2.33334E-01
 -1      1545 2.83019E-01
 -1      1546 2.94528E-01
 -1      1547 1.61299E-01
 -1      1548 1.96570E-01
 -1      1549 1.99043E-01
 -1      1550 1.15827E-01
 -1      1551 1.38974E-01
 -1      1552 1.39954E-01
 -1      1553 7.57975E-02
 -1      1554 9.59344E-02
 -1      1555 9.77375E-02
 -1      1556 5.14748E-02
 -1      1557 6.36374E-02
 -1      1558 6.56850E-02
 -1      1559 3.58787E-02
 -1      1560 4.28152E-02
 -1      1561 4.48653E-02
 -1      1562 2.84777E-02
 -1      1563 3.20147E-02
 -1      1564 3.23417E-02
 -1      1565 2.25805E-02
 -1      1566 2.55291E-02
 -1      1567 2.55291E-02
 -1      1568 1.77270E-02
 -1      1569 2.01537E-02
 -1      1570 2.01537E-02
 -1      1571 1.36027E-02
 -1      1572 1.56648E-02
 -1      1573 1.56648E-02
 -1      1574 1.09345E-02
 -1      1575 1.22686E-02
 -1      1576 1.22686E-02
 -1      1577 9.43427E-03
 -1      1578 1.01844E-02
 -1      1579 1.01844E-02
 -1      1580 7.95400E-03
 -1      1581 8.69414E-03
 -1      1582 8.69414E-03
 -1      1583 6.57279E-03
 -1      1584 7.26340E-03
 -1      1585 7.26340E-03
 -1      1586 5.33362E-03
 -1      1587 5.95321E-03
 -1      1588 5.95321E-03
 -1      1589 4.26128E-03
 -1      1590 4.79745E-03
 -1      1591 4.79745E-03
 -1      1592 3.42820E-03
 -1      1593 3.84474E-03
 -1      1594 3.84474E-03
 -1      1595 2.76886E-03
 -1      1596 3.09853E-03
 -1      1597 3.09853E-03
 -1      1598 2.05241E-03
 -1      1599 2.41458E-03
 -1      1600 2.41458E-03
 -1      1601 1.53522E-03
 -1      1602 1.80096E-03
 -1      1603 1.80885E-03
 -1      1604 1.12743E-03
 -1      1605 1.32023E-03
 -1      1606 1.34241E-03
 -1      1607 8.99216E-04
 -1      1608 1.01332E-03
 -1      1609 1.01332E-03
 -1      1610 6.34546E-04
 -1      1611 7.66881E-04
 -1      1612 7.66881E-04
 -1      1613 3.83372E-04
 -1      1614 5.08959E-04
 -1      1615 5.08959E-04
 -1      1616 2.75415E-04
 -1      1617 1.91190E-04
 -1      1618 1.91190E-04
 -1      1619 1.72775E-04
 -1      1620 1.91190E-04
 -1      1621 2.14922E-04
 -1      1622 1.27524E-04
 -1      1623 1.62783E-04
 -1      1624 2.04930E-04
 -1      1625 1.00732E-04
 -1      1626 9.24547E-05
 -1      1627 1.59869E-04
 -1      1628 1.60855E-04
 -1      1629 1.40598E-04
 -1      1630 1.64666E-04
 -1      1631 1.97606E-04
 -1      1632 1.85887E-04
 -1      1633 2.29563E-04
 -1      1634 2.10411E-04
 -1      1635 2.07223E-04
 -1      1636 2.64212E-04
 -1      1637 2.10411E-04
 -1      1638 2.10411E-04
 -1      1639 2.73830E-04
 -1      1640 2.06569E-04
 -1      1641 2.10223E-04
 -1      1642 2.73642E-04
 -1      1643 1.83072E-04
 -1      1644 1.95599E-04
 -1      1645 2.62485E-04
 -1      1646 1.38745E-04
 -1      1647 1.58392E-04
 -1      1648 2.26834E-04
 -1      1649 9.26271E-05
 -1      1650 9.97611E-05
 -1      1651 1.63169E-04
 -1      1652 1.61182E-04
 -1      1653 1.26610E-04
 -1      1654 1.58168E-04
 -1      1655 2.06936E-04
 -1      1656 1.61182E-04
 -1      1657 1.92150E-04
 -1      1658 2.63598E-04
 -1      1659 2.46288E-04
 -1      1660 2.31502E-04
 -1      1661 3.85765E-04
 -1      1662 2.78867E+01
 -1      1663 2.69904E+01
 -1      1664 2.99091E+01
 -1      1665 2.99091E+01
 -1      1666 3.27103E+01
 -1      1667 2.99091E+01
 -1      1668 3.19547E+01
 -1      1669 3.19547E+01
 -1      1670 1.42824E+01
 -1      1671 2.31186E+01
 -1      1672 1.34576E+01
 -1      1673 1.38700E+01
 -1      1674 1.33700E+01
 -1      1675 1.33457E+01
 -1      1676 1.39125E+01
 -1      1677 1.35061E+01
 -1      1678 1.43189E+01
 -1      1679 1.43189E+01
 -1      1680 1.48001E+01
 -1      1681 1.34826E+01
 -1      1682 3.11574E+01
 -1      1683 1.76977E+01
 -1      1684 4.38731E+01
 -1      1685 4.38731E+01
 -1      1686 3.14666E+01
 -1      1687 4.08572E+01
 -1      1688 2.80550E+01
 -1      1689 2.80550E+01
 -1      1690 2.86690E+01
 -1      1691 2.80550E+01
 -1      1692 2.75813E+01
 -1      1693 2.75813E+01
 -1      1694 3.53075E+01
 -1      1695 3.03000E+01
 -1      1696 3.63352E+01
 -1      1697 3.63352E+01
 -1      1698 1.40408E+01
 -1      1699 2.51880E+01
 -1      1700 1.18266E+01
 -1      1701 1.25778E+01
 -1      1702 1.25384E+01
 -1      1703 1.25384E+01
 -1      1704 1.20175E+01
 -1      1705 1.22780E+01
 -1      1706 1.20859E+01
 -1      1707 1.18487E+01
 -1      1708 1.24920E+01
 -1      1709 1.24920E+01
 -1      1710 1.14796E+01
 -1      1711 1.19033E+01
 -1      1712 1.71544E+01
 -1      1713 1.16444E+01
 -1      1714 3.64019E+01
 -1      1715 2.35680E+01
 -1      1716 4.83322E+01
 -1      1717 4.83322E+01
 -1      1718 2.72162E+01
 -1      1719 3.91025E+01
 -1      1720 2.69904E+01
 -1      1721 2.69904E+01
 -1      1722 2.31186E+01
 -1      1723 3.27103E+01
 -1      1724 2.75415E-04
 -1      1725 2.99147E-04
 -1      1726 3.14436E+01
 -1      1727 3.34659E+01
 -1      1728 2.94212E+01
 -1      1729 1.38700E+01
 -1      1730 1.33457E+01
 -1      1731 1.33700E+01
 -1      1732 1.39125E+01
 -1      1733 1.34826E+01
 -1      1734 1.55440E+01
 -1      1735 3.11574E+01
 -1      1736 4.08572E+01
 -1      1737 3.44296E+01
 -1      1738 3.10180E+01
 -1      1739 2.99302E+01
 -1      1740 3.15612E+01
 -1      1741 3.53075E+01
 -1      1742 2.51880E+01
 -1      1743 1.25778E+01
 -1      1744 1.18266E+01
 -1      1745 1.22780E+01
 -1      1746 1.18487E+01
 -1      1747 1.20859E+01
 -1      1748 1.19033E+01
 -1      1749 1.14796E+01
 -1      1750 1.80580E+01
 -1      1751 3.64019E+01
 -1      1752 3.91025E+01
 -1      1753 2.96470E+01
 -1      1754 9.50299E+00
 -1      1755 1.44295E+00
 -1      1756 1.78598E+00
 -1      1757 2.46617E+00
 -1      1758 4.30182E+00
 -1      1759 1.81326E+00
 -1      1760 1.22555E+00
 -1      1761 1.28446E+00
 -1      1762 1.17940E+00
 -1      1763 1.22293E+00
 -1      1764 1.08128E+00
 -1      1765 1.13184E+00
 -1      1766 1.19128E+00
 -1      1767 1.09054E+00
 -1      1768 1.05688E+00
 -1      1769 1.13184E+00
 -1      1770 1.10242E+00
 -1      1771 9.41943E-01
 -1      1772 1.01436E+00
 -1      1773 1.05990E+00
 -1      1774 7.61378E-01
 -1      1775 9.03632E-01
 -1      1776 9.79065E-01
 -1      1777 1.12447E+00
 -1      1778 8.18018E-01
 -1      1779 9.97393E-01
 -1      1780 1.75174E+00
 -1      1781 1.40074E+00
 -1      1782 1.33031E+00
 -1      1783 2.29389E+00
 -1      1784 2.06260E+00
 -1      1785 1.91744E+00
 -1      1786 3.05507E+00
 -1      1787 2.69902E+00
 -1      1788 2.63342E+00
 -1      1789 3.23314E+00
 -1      1790 2.77576E+00
 -1      1791 2.75924E+00
 -1      1792 6.99148E+00
 -1      1793 2.90076E+00
 -1      1794 2.14756E+00
 -1      1795 2.16867E+00
 -1      1796 5.06166E+00
 -1      1797 2.06303E+00
 -1      1798 2.40327E+00
 -1      1799 2.04978E+00
 -1      1800 3.25328E+00
 -1      1801 2.32475E+00
 -1      1802 1.76998E+00
 -1      1803 1.62569E+00
 -1      1804 1.42425E+00
 -1      1805 1.51728E+00
 -1      1806 1.37209E+00
 -1      1807 1.33425E+00
 -1      1808 1.32083E+00
 -1      1809 1.39042E+00
 -1      1810 1.49952E+00
 -1      1811 1.32484E+00
 -1      1812 1.58177E+00
 -1      1813 1.72100E+00
 -1      1814 1.46326E+00
 -1      1815 1.82321E+00
 -1      1816 2.02649E+00
 -1      1817 1.64773E+00
 -1      1818 2.10181E+00
 -1      1819 2.23972E+00
 -1      1820 1.82526E+00
 -1      1821 2.25033E+00
 -1      1822 2.25643E+00
 -1      1823 1.91118E+00
 -1      1824 2.23107E+00
 -1      1825 2.26200E+00
 -1      1826 1.89643E+00
 -1      1827 2.28159E+00
 -1      1828 2.21637E+00
 -1      1829 1.89066E+00
 -1      1830 2.15628E+00
 -1      1831 1.95474E+00
 -1      1832 1.85017E+00
 -1      1833 1.82197E+00
 -1      1834 1.56691E+00
 -1      1835 1.65730E+00
 -1      1836 1.43068E+00
 -1      1837 1.22498E+00
 -1      1838 1.38830E+00
 -1      1839 1.08090E+00
 -1      1840 9.22206E-01
 -1      1841 1.10799E+00
 -1      1842 7.81951E-01
 -1      1843 6.36582E-01
 -1      1844 8.23652E-01
 -1      1845 5.23806E-01
 -1      1846 4.08063E-01
 -1      1847 5.70622E-01
 -1      1848 3.10980E-01
 -1      1849 2.90181E-01
 -1      1850 3.60764E-01
 -1      1851 2.23843E-01
 -1      1852 1.88119E-01
 -1      1853 1.97343E-01
 -1      1854 1.87959E-01
 -1      1855 1.78387E-01
 -1      1856 1.30844E-01
 -1      1857 1.86060E-01
 -1      1858 1.70164E-01
 -1      1859 1.38356E-01
 -1      1860 1.66151E-01
 -1      1861 1.45293E-01
 -1      1862 1.42015E-01
 -1      1863 1.36057E-01
 -1      1864 1.20164E-01
 -1      1865 1.28766E-01
 -1      1866 1.12228E-01
 -1      1867 1.01874E-01
 -1      1868 1.11593E-01
 -1      1869 9.42924E-02
 -1      1870 8.74384E-02
 -1      1871 9.60754E-02
 -1      1872 7.93694E-02
 -1      1873 7.14623E-02
 -1      1874 8.04247E-02
 -1      1875 6.32091E-02
 -1      1876 5.54540E-02
 -1      1877 6.41025E-02
 -1      1878 4.90946E-02
 -1      1879 4.31305E-02
 -1      1880 4.94899E-02
 -1      1881 3.78938E-02
 -1      1882 3.39383E-02
 -1      1883 3.78938E-02
 -1      1884 2.95116E-02
 -1      1885 2.67995E-02
 -1      1886 2.82304E-02
 -1      1887 2.39764E-02
 -1      1888 2.12685E-02
 -1      1889 2.09806E-02
 -1      1890 1.99671E-02
 -1      1891 1.74703E-02
 -1      1892 1.68561E-02
 -1      1893 1.61552E-02
 -1      1894 1.39721E-02
 -1      1895 1.42396E-02
 -1      1896 1.27394E-02
 -1      1897 1.09954E-02
 -1      1898 1.16918E-02
 -1      1899 9.89700E-03
 -1      1900 8.76363E-03
 -1      1901 9.36062E-03
 -1      1902 7.84269E-03
 -1      1903 7.02844E-03
 -1      1904 7.34124E-03
 -1      1905 6.59304E-03
 -1      1906 5.84819E-03
 -1      1907 5.98490E-03
 -1      1908 5.40061E-03
 -1      1909 4.76411E-03
 -1      1910 5.10192E-03
 -1      1911 4.33742E-03
 -1      1912 3.85286E-03
 -1      1913 4.22766E-03
 -1      1914 3.49287E-03
 -1      1915 3.08010E-03
 -1      1916 3.44098E-03
 -1      1917 2.77670E-03
 -1      1918 2.46561E-03
 -1      1919 2.77760E-03
 -1      1920 2.19474E-03
 -1      1921 1.91641E-03
 -1      1922 2.20334E-03
 -1      1923 1.70929E-03
 -1      1924 1.46693E-03
 -1      1925 1.72535E-03
 -1      1926 1.28208E-03
 -1      1927 1.13016E-03
 -1      1928 1.33338E-03
 -1      1929 9.71784E-04
 -1      1930 8.59357E-04
 -1      1931 9.90157E-04
 -1      1932 7.55739E-04
 -1      1933 6.60750E-04
 -1      1934 7.28159E-04
 -1      1935 5.67703E-04
 -1      1936 4.69562E-04
 -1      1937 3.54651E-04
 -1      1938 5.31495E-04
 -1      1939 2.36481E+00
 -1      1940 2.35295E+00
 -1      1941 2.57430E+00
 -1      1942 2.76093E+00
 -1      1943 2.62241E+00
 -1      1944 3.12182E+00
 -1      1945 3.28925E+00
 -1      1946 3.00617E+00
 -1      1947 3.62466E+00
 -1      1948 4.21143E+00
 -1      1949 3.80035E+00
 -1      1950 4.38099E+00
 -1      1951 4.81234E+00
 -1      1952 4.72798E+00
 -1      1953 5.40865E+00
 -1      1954 3.58422E+00
 -1      1955 3.59190E+00
 -1      1956 4.70475E+00
 -1      1957 6.92119E+00
 -1      1958 5.12183E+00
 -1      1959 5.02191E+00
 -1      1960 1.06312E+01
 -1      1961 8.51898E+00
 -1      1962 8.15730E+00
 -1      1963 1.08818E+01
 -1      1964 1.01268E+01
 -1      1965 9.25072E+00
 -1      1966 7.47846E+00
 -1      1967 8.90057E+00
 -1      1968 6.76515E+00
 -1      1969 4.69436E+00
 -1      1970 7.76990E+00
 -1      1971 5.07538E+00
 -1      1972 4.54742E+00
 -1      1973 4.69207E+00
 -1      1974 5.36453E+00
 -1      1975 4.37575E+00
 -1      1976 4.02168E+00
 -1      1977 4.83649E+00
 -1      1978 3.94050E+00
 -1      1979 3.99018E+00
 -1      1980 3.92518E+00
 -1      1981 3.40539E+00
 -1      1982 3.79755E+00
 -1      1983 3.39666E+00
 -1      1984 2.76403E+00
 -1      1985 3.13828E+00
 -1      1986 2.98660E+00
 -1      1987 2.16921E+00
 -1      1988 2.46879E+00
 -1      1989 2.42425E+00
 -1      1990 1.54937E+00
 -1      1991 1.87011E+00
 -1      1992 1.82990E+00
 -1      1993 1.10050E+00
 -1      1994 1.33161E+00
 -1      1995 1.31304E+00
 -1      1996 7.63408E-01
 -1      1997 9.34566E-01
 -1      1998 9.29347E-01
 -1      1999 5.22783E-01
 -1      2000 6.43096E-01
 -1      2001 6.43096E-01
 -1      2002 3.53250E-01
 -1      2003 4.38016E-01
 -1      2004 4.38016E-01
 -1      2005 2.35806E-01
 -1      2006 2.94528E-01
 -1      2007 2.94528E-01
 -1      2008 1.62279E-01
 -1      2009 1.99043E-01
 -1      2010 1.99043E-01
 -1      2011 1.17630E-01
 -1      2012 1.39954E-01
 -1      2013 1.39954E-01
 -1      2014 7.78451E-02
 -1      2015 9.77375E-02
 -1      2016 9.77375E-02
 -1      2017 5.35249E-02
 -1      2018 6.56850E-02
 -1      2019 6.56850E-02
 -1      2020 3.62057E-02
 -1      2021 4.48653E-02
 -1      2022 4.48653E-02
 -1      2023 2.62184E-02
 -1      2024 3.00823E-02
 -1      2025 3.00823E-02
 -1      2026 1.99769E-02
 -1      2027 2.29255E-02
 -1      2028 2.06662E-02
 -1      2029 1.60609E-02
 -1      2030 1.84877E-02
 -1      2031 1.58841E-02
 -1      2032 1.26068E-02
 -1      2033 1.46689E-02
 -1      2034 1.30029E-02
 -1      2035 1.00928E-02
 -1      2036 1.14269E-02
 -1      2037 1.04310E-02
 -1      2038 8.35184E-03
 -1      2039 9.10194E-03
 -1      2040 8.26027E-03
 -1      2041 6.78629E-03
 -1      2042 7.52643E-03
 -1      2043 6.44400E-03
 -1      2044 5.68351E-03
 -1      2045 6.37412E-03
 -1      2046 5.20641E-03
 -1      2047 4.71039E-03
 -1      2048 5.32998E-03
 -1      2049 4.44070E-03
 -1      2050 3.84491E-03
 -1      2051 4.38108E-03
 -1      2052 3.75785E-03
 -1      2053 3.15263E-03
 -1      2054 3.56917E-03
 -1      2055 3.15279E-03
 -1      2056 2.58775E-03
 -1      2057 2.91742E-03
 -1      2058 2.64185E-03
 -1      2059 1.95794E-03
 -1      2060 2.31223E-03
 -1      2061 2.13112E-03
 -1      2062 1.49648E-03
 -1      2063 1.74792E-03
 -1      2064 1.64557E-03
 -1      2065 1.09788E-03
 -1      2066 1.31286E-03
 -1      2067 1.25194E-03
 -1      2068 8.46864E-04
 -1      2069 9.60969E-04
 -1      2070 9.31419E-04
 -1      2071 6.15395E-04
 -1      2072 7.47730E-04
 -1      2073 6.95378E-04
 -1      2074 3.80196E-04
 -1      2075 5.05783E-04
 -1      2076 4.86632E-04
 -1      2077 2.95971E-04
 -1      2078 1.74769E-04
 -1      2079 2.09838E-04
 -1      2080 3.20630E-04
 -1      2081 3.30622E-04
 -1      2082 3.35531E-04
 -1      2083 3.30622E-04
 -1      2084 3.30622E-04
 -1      2085 4.11671E-04
 -1      2086 4.46322E-04
 -1      2087 2.39764E-04
 -1      2088 1.99897E-04
 -1      2089 2.49867E-04
 -1      2090 3.01004E-04
 -1      2091 2.75973E-04
 -1      2092 3.11204E-04
 -1      2093 3.26466E-04
 -1      2094 3.16849E-04
 -1      2095 3.63258E-04
 -1      2096 3.26466E-04
 -1      2097 3.26466E-04
 -1      2098 3.79102E-04
 -1      2099 3.25085E-04
 -1      2100 3.25273E-04
 -1      2101 3.77909E-04
 -1      2102 3.14115E-04
 -1      2103 3.25085E-04
 -1      2104 3.76716E-04
 -1      2105 2.73167E-04
 -1      2106 2.97847E-04
 -1      2107 3.60448E-04
 -1      2108 1.97509E-04
 -1      2109 2.36493E-04
 -1      2110 3.07507E-04
 -1      2111 2.04017E-04
 -1      2112 1.70034E-04
 -1      2113 2.43358E-04
 -1      2114 2.70609E-04
 -1      2115 2.70609E-04
 -1      2116 2.82475E-04
 -1      2117 3.34659E+01
 -1      2118 3.34659E+01
 -1      2119 3.37549E+01
 -1      2120 3.37549E+01
 -1      2121 3.57773E+01
 -1      2122 3.37549E+01
 -1      2123 3.80886E+01
 -1      2124 2.63886E+01
 -1      2125 2.71443E+01
 -1      2126 1.33944E+01
 -1      2127 2.22305E+01
 -1      2128 1.30497E+00
 -1      2129 1.43888E+00
 -1      2130 1.12900E+00
 -1      2131 1.10441E+00
 -1      2132 1.17086E+01
 -1      2133 1.18204E+01
 -1      2134 1.24768E+01
 -1      2135 1.20704E+01
 -1      2136 1.03391E+01
 -1      2137 1.11754E+01
 -1      2138 1.34316E+01
 -1      2139 1.05339E+01
 -1      2140 2.91361E+01
 -1      2141 1.64203E+01
 -1      2142 3.17230E+01
 -1      2143 3.47389E+01
 -1      2144 2.98428E+01
 -1      2145 3.32545E+01
 -1      2146 3.65322E+01
 -1      2147 3.65322E+01
 -1      2148 3.54444E+01
 -1      2149 3.65322E+01
 -1      2150 4.20464E+01
 -1      2151 2.98908E+01
 -1      2152 2.71721E+01
 -1      2153 2.90944E+01
 -1      2154 2.80668E+01
 -1      2155 2.36777E+01
 -1      2156 1.33030E+01
 -1      2157 2.44502E+01
 -1      2158 9.27564E+00
 -1      2159 1.07387E+01
 -1      2160 1.03872E+01
 -1      2161 9.67539E+00
 -1      2162 7.83627E+00
 -1      2163 1.13347E+01
 -1      2164 1.15952E+01
 -1      2165 1.11815E+01
 -1      2166 1.13503E+01
 -1      2167 1.14199E+01
 -1      2168 1.10139E+01
 -1      2169 1.05156E+01
 -1      2170 9.95779E+00
 -1      2171 1.05464E+01
 -1      2172 9.25327E+00
 -1      2173 9.08843E+00
 -1      2174 7.73150E+00
 -1      2175 1.73838E+01
 -1      2176 1.09702E+01
 -1      2177 3.35307E+01
 -1      2178 2.16004E+01
 -1      2179 1.45126E+01
 -1      2180 2.98727E+01
 -1      2181 3.91025E+01
 -1      2182 2.79992E+01
 -1      2183 2.82249E+01
 -1      2184 1.00471E+01
 -1      2185 1.04596E+01
 -1      2186 9.57156E+00
 -1      2187 2.74069E+00
 -1      2188 8.41003E+00
 -1      2189 2.07751E+00
 -1      2190 2.88238E+01
 -1      2191 3.11352E+01
 -1      2192 2.88238E+01
 -1      2193 2.71443E+01
 -1      2194 3.09961E-04
 -1      2195 3.23328E+01
 -1      2196 1.66645E+01
 -1      2197 2.43010E+01
 -1      2198 8.57905E+00
 -1      2199 9.47440E+00
 -1      2200 9.44394E+00
 -1      2201 1.72094E+01
 -1      2202 3.37740E+01
 -1      2203 3.53570E+01
 -1      2204 2.71362E+01
 -1      2205 2.00019E+01
 -1      2206 1.14103E+01
 -1      2207 8.22667E+00
 -1      2208 9.33332E+00
 -1      2209 1.02872E+01
 -1      2210 1.17229E+01
 -1      2211 1.15868E+01
 -1      2212 1.00615E+01
 -1      2213 1.00009E+01
 -1      2214 1.06675E+01
 -1      2215 2.82249E+01
 -1      2216 3.16066E+00
 -1      2217 2.87074E+00
 -1      2218 1.18560E+00
 -1      2219 1.17373E+00
 -1      2220 1.07059E+00
 -1      2221 1.07321E+00
 -1      2222 1.16566E+00
 -1      2223 1.16540E+00
 -1      2224 1.20792E+00
 -1      2225 1.10580E+00
 -1      2226 1.14411E+00
 -1      2227 1.29214E+00
 -1      2228 1.15880E+00
 -1      2229 1.10216E+00
 -1      2230 1.26721E+00
 -1      2231 1.78100E+00
 -1      2232 1.50473E+00
 -1      2233 1.60949E+00
 -1      2234 2.22299E+00
 -1      2235 1.91213E+00
 -1      2236 2.08655E+00
 -1      2237 3.24782E+00
 -1      2238 2.84270E+00
 -1      2239 2.83739E+00
 -1      2240 3.51436E+00
 -1      2241 3.25676E+00
 -1      2242 3.55320E+00
 -1      2243 1.25221E+00
 -1      2244 1.10792E+00
 -1      2245 1.18957E+00
 -1      2246 1.13741E+00
 -1      2247 9.24489E-01
 -1      2248 1.19868E+00
 -1      2249 1.25485E+00
 -1      2250 1.06741E+00
 -1      2251 1.33881E+00
 -1      2252 1.42106E+00
 -1      2253 1.21264E+00
 -1      2254 1.48610E+00
 -1      2255 1.58831E+00
 -1      2256 1.36164E+00
 -1      2257 1.63665E+00
 -1      2258 1.71196E+00
 -1      2259 1.47502E+00
 -1      2260 1.71354E+00
 -1      2261 1.72415E+00
 -1      2262 1.52493E+00
 -1      2263 1.67791E+00
 -1      2264 1.65256E+00
 -1      2265 1.48028E+00
 -1      2266 1.65426E+00
 -1      2267 1.67386E+00
 -1      2268 1.43575E+00
 -1      2269 1.68279E+00
 -1      2270 1.62270E+00
 -1      2271 1.44639E+00
 -1      2272 1.57890E+00
 -1      2273 1.44612E+00
 -1      2274 1.41152E+00
 -1      2275 1.37904E+00
 -1      2276 1.24281E+00
 -1      2277 1.30064E+00
 -1      2278 1.14625E+00
 -1      2279 1.00217E+00
 -1      2280 1.13699E+00
 -1      2281 8.73964E-01
 -1      2282 7.33708E-01
 -1      2283 9.12224E-01
 -1      2284 6.27289E-01
 -1      2285 5.14514E-01
 -1      2286 6.77600E-01
 -1      2287 4.22844E-01
 -1      2288 3.25761E-01
 -1      2289 4.79511E-01
 -1      2290 2.52025E-01
 -1      2291 1.85687E-01
 -1      2292 3.14106E-01
 -1      2293 1.61668E-01
 -1      2294 1.61508E-01
 -1      2295 2.16351E-01
 -1      2296 1.38172E-01
 -1      2297 1.45845E-01
 -1      2298 1.68996E-01
 -1      2299 1.37330E-01
 -1      2300 1.33316E-01
 -1      2301 1.37145E-01
 -1      2302 1.30861E-01
 -1      2303 1.21625E-01
 -1      2304 1.26175E-01
 -1      2305 1.15334E-01
 -1      2306 1.07397E-01
 -1      2307 1.17429E-01
 -1      2308 9.99577E-02
 -1      2309 9.23761E-02
 -1      2310 1.03698E-01
 -1      2311 8.49311E-02
 -1      2312 7.68621E-02
 -1      2313 8.88135E-02
 -1      2314 6.90866E-02
 -1      2315 6.08334E-02
 -1      2316 7.35930E-02
 -1      2317 5.33207E-02
 -1      2318 4.69613E-02
 -1      2319 5.83048E-02
 -1      2320 4.03002E-02
 -1      2321 3.50634E-02
 -1      2322 4.41310E-02
 -1      2323 2.95051E-02
 -1      2324 2.50784E-02
 -1      2325 3.19115E-02
 -1      2326 2.06591E-02
 -1      2327 1.78359E-02
 -1      2328 2.19338E-02
 -1      2329 1.52335E-02
 -1      2330 1.39321E-02
 -1      2331 1.49120E-02
 -1      2332 1.22503E-02
 -1      2333 1.09352E-02
 -1      2334 1.06277E-02
 -1      2335 1.05011E-02
 -1      2336 9.26837E-03
 -1      2337 8.51184E-03
 -1      2338 8.74175E-03
 -1      2339 7.64330E-03
 -1      2340 7.55105E-03
 -1      2341 7.09219E-03
 -1      2342 6.17126E-03
 -1      2343 6.47332E-03
 -1      2344 5.63969E-03
 -1      2345 5.20428E-03
 -1      2346 5.39064E-03
 -1      2347 4.76858E-03
 -1      2348 4.32101E-03
 -1      2349 4.42336E-03
 -1      2350 4.06657E-03
 -1      2351 3.63988E-03
 -1      2352 3.73322E-03
 -1      2353 3.36681E-03
 -1      2354 3.00682E-03
 -1      2355 3.20572E-03
 -1      2356 2.73845E-03
 -1      2357 2.43506E-03
 -1      2358 2.66428E-03
 -1      2359 2.20977E-03
 -1      2360 1.93890E-03
 -1      2361 2.17062E-03
 -1      2362 1.73237E-03
 -1      2363 1.52525E-03
 -1      2364 1.73881E-03
 -1      2365 1.34005E-03
 -1      2366 1.15520E-03
 -1      2367 1.34707E-03
 -1      2368 1.01267E-03
 -1      2369 8.54288E-04
 -1      2370 1.01933E-03
 -1      2371 7.35011E-04
 -1      2372 6.31393E-04
 -1      2373 7.57522E-04
 -1      2374 5.51898E+00
 -1      2375 5.00788E+00
 -1      2376 7.35957E+00
 -1      2377 6.84301E+00
 -1      2378 7.46990E+00
 -1      2379 9.34301E+00
 -1      2380 9.84737E+00
 -1      2381 6.51772E+00
 -1      2382 6.52002E+00
 -1      2383 5.92468E+00
 -1      2384 6.45043E+00
 -1      2385 7.60592E+00
 -1      2386 4.57409E+00
 -1      2387 4.95966E+00
 -1      2388 6.57360E+00
 -1      2389 3.81082E+00
 -1      2390 3.95377E+00
 -1      2391 4.98825E+00
 -1      2392 3.03781E+00
 -1      2393 3.30492E+00
 -1      2394 3.86203E+00
 -1      2395 2.31383E+00
 -1      2396 2.60907E+00
 -1      2397 2.92739E+00
 -1      2398 1.66381E+00
 -1      2399 1.96291E+00
 -1      2400 2.14773E+00
 -1      2401 1.19009E+00
 -1      2402 1.40785E+00
 -1      2403 1.54086E+00
 -1      2404 8.34901E-01
 -1      2405 1.00084E+00
 -1      2406 1.09565E+00
 -1      2407 5.77738E-01
 -1      2408 6.98050E-01
 -1      2409 7.69543E-01
 -1      2410 3.95466E-01
 -1      2411 4.80233E-01
 -1      2412 5.35187E-01
 -1      2413 2.67962E-01
 -1      2414 3.26684E-01
 -1      2415 3.68901E-01
 -1      2416 1.83029E-01
 -1      2417 2.19793E-01
 -1      2418 2.51949E-01
 -1      2419 1.28178E-01
 -1      2420 1.50503E-01
 -1      2421 1.71253E-01
 -1      2422 8.30235E-02
 -1      2423 1.02916E-01
 -1      2424 1.13464E-01
 -1      2425 5.50944E-02
 -1      2426 6.72545E-02
 -1      2427 7.24329E-02
 -1      2428 3.56832E-02
 -1      2429 4.43428E-02
 -1      2430 4.59123E-02
 -1      2431 2.43515E-02
 -1      2432 3.04748E-02
 -1      2433 2.99523E-02
 -1      2434 1.74732E-02
 -1      2435 2.07661E-02
 -1      2436 2.11585E-02
 -1      2437 1.43949E-02
 -1      2438 1.58841E-02
 -1      2439 1.59840E-02
 -1      2440 1.16108E-02
 -1      2441 1.30029E-02
 -1      2442 1.30029E-02
 -1      2443 9.25113E-03
 -1      2444 1.04310E-02
 -1      2445 1.04310E-02
 -1      2446 7.26941E-03
 -1      2447 8.26027E-03
 -1      2448 8.26027E-03
 -1      2449 5.75070E-03
 -1      2450 6.57612E-03
 -1      2451 6.57612E-03
 -1      2452 4.80010E-03
 -1      2453 5.21228E-03
 -1      2454 5.34439E-03
 -1      2455 4.05145E-03
 -1      2456 4.40498E-03
 -1      2457 4.41085E-03
 -1      2458 3.36118E-03
 -1      2459 3.69049E-03
 -1      2460 3.65478E-03
 -1      2461 2.80698E-03
 -1      2462 3.08272E-03
 -1      2463 3.01537E-03
 -1      2464 2.32068E-03
 -1      2465 2.55588E-03
 -1      2466 2.48581E-03
 -1      2467 1.80513E-03
 -1      2468 2.08065E-03
 -1      2469 1.99469E-03
 -1      2470 1.40440E-03
 -1      2471 1.61442E-03
 -1      2472 1.56395E-03
 -1      2473 1.05207E-03
 -1      2474 1.23568E-03
 -1      2475 1.20453E-03
 -1      2476 7.68329E-04
 -1      2477 9.05235E-04
 -1      2478 8.88980E-04
 -1      2479 5.66031E-04
 -1      2480 6.65165E-04
 -1      2481 6.38982E-04
 -1      2482 5.21283E-04
 -1      2483 3.93649E-04
 -1      2484 3.57440E-04
 -1      2485 4.33112E-04
 -1      2486 4.17268E-04
 -1      2487 4.63503E-04
 -1      2488 3.58731E-04
 -1      2489 4.69523E-04
 -1      2490 3.12787E-04
 -1      2491 2.87659E-04
 -1      2492 4.21652E-04
 -1      2493 3.95232E-04
 -1      2494 4.33112E-04
 -1      2495 4.33112E-04
 -1      2496 4.87122E-04
 -1      2497 4.30026E-04
 -1      2498 4.31219E-04
 -1      2499 4.85229E-04
 -1      2500 4.30026E-04
 -1      2501 4.30026E-04
 -1      2502 4.83335E-04
 -1      2503 4.13532E-04
 -1      2504 4.29799E-04
 -1      2505 4.83109E-04
 -1      2506 3.52445E-04
 -1      2507 3.89118E-04
 -1      2508 4.58469E-04
 -1      2509 2.91904E-04
 -1      2510 3.19379E-04
 -1      2511 4.00990E-04
 -1      2512 3.58496E-04
 -1      2513 2.91904E-04
 -1      2514 3.67925E-04
 -1      2515 1.95840E+01
 -1      2516 2.59057E+01
 -1      2517 3.93758E-04
 -1      2518 3.23328E+01
 -1      2519 2.65771E+01
 -1      2520 4.31190E+00
 -1      2521 4.06667E+00
 -1      2522 5.44989E+00
 -1      2523 3.80886E+01
 -1      2524 3.80886E+01
 -1      2525 2.17035E+01
 -1      2526 1.61318E+01
 -1      2527 1.68124E+00
 -1      2528 1.26530E+00
 -1      2529 8.55934E-01
 -1      2530 1.00105E+00
 -1      2531 1.12816E+01
 -1      2532 1.54397E+01
 -1      2533 8.17670E+00
 -1      2534 6.96878E+00
 -1      2535 1.16274E+01
 -1      2536 1.62716E+01
 -1      2537 3.53570E+01
 -1      2538 2.86677E+01
 -1      2539 1.20792E+00
 -1      2540 1.20792E+00
 -1      2541 1.29111E+00
 -1      2542 1.31342E+00
 -1      2543 7.45493E+00
 -1      2544 1.00193E+01
 -1      2545 1.01949E+01
 -1      2546 9.46484E+00
 -1      2547 7.29569E+00
 -1      2548 8.59715E+00
 -1      2549 1.18187E+01
 -1      2550 8.82991E+00
 -1      2551 1.83265E+01
 -1      2552 1.27236E+01
 -1      2553 2.30293E+01
 -1      2554 2.14978E+01
 -1      2555 1.42196E+01
 -1      2556 4.20464E+01
 -1      2557 4.20464E+01
 -1      2558 2.55017E+01
 -1      2559 3.37740E+01
 -1      2560 1.83074E+01
 -1      2561 2.01314E+01
 -1      2562 9.77792E+00
 -1      2563 9.76226E+00
 -1      2564 5.88391E+00
 -1      2565 5.48416E+00
 -1      2566 2.31148E+01
 -1      2567 2.47626E+01
 -1      2568 2.31148E+01
 -1      2569 9.57609E+00
 -1      2570 9.74371E+00
 -1      2571 8.83845E+00
 -1      2572 7.75327E+00
 -1      2573 8.62681E+00
 -1      2574 5.59351E+00
 -1      2575 6.46286E+00
 -1      2576 7.99822E+00
 -1      2577 6.28132E+00
 -1      2578 5.01268E+00
 -1      2579 1.36820E+01
 -1      2580 9.46537E+00
 -1      2581 7.16764E+00
 -1      2582 1.10846E+01
 -1      2583 2.87074E+00
 -1      2584 2.63614E+00
 -1      2585 2.96852E+00
 -1      2586 3.45710E+00
 -1      2587 6.53656E+00
 -1      2588 9.47138E+00
 -1      2589 7.48363E+00
 -1      2590 5.87085E+00
 -1      2591 5.13468E+00
 -1      2592 3.59707E+00
 -1      2593 6.06566E+00
 -1      2594 5.71034E+00
 -1      2595 6.00178E+00
 -1      2596 9.08143E+00
 -1      2597 9.66821E-01
 -1      2598 9.77505E-01
 -1      2599 9.98020E-01
 -1      2600 4.20160E+00
 -1      2601 3.24782E+00
 -1      2602 8.24661E+00
 -1      2603 2.12636E+01
 -1      2604 6.47409E+00
 -1      2605 6.36132E+00
 -1      2606 7.58177E+00
 -1      2607 4.91070E-04
 -1      2608 4.91070E-04
 -1      2609 1.42012E+01
 -1      2610 4.14258E-04
 -1      2611 3.69567E-04
 -1      2612 3.78996E-04
 -1      2613 5.07305E-04
 -1      2614 4.61667E+00
 -1      2615 3.23328E+01
 -1      2616 3.45710E+00
 -1      2617 3.11352E+01
 -1      2618 7.85496E+00
 -1      2619 1.27253E+01
 -1      2620 7.28710E+00
 -1      2621 2.01314E+01
 -1      2622 2.30293E+01
 -1      2623 3.53570E+01
 -1      2624 9.96977E-01
 -1      2625 1.65934E+01
 -1      2626 9.01614E+00
 -1      2627 1.01433E+01
 -1      2628 3.37740E+01
 -1      2629 5.50256E+00
 -1      2630 5.61528E+00
 -1      2631 5.14271E-04
 -1      2632 5.14156E-04
 -1      2633 1.54972E+00
 -1      2634 1.55336E+00
 -1      2635 1.55336E+00
 -1      2636 1.57465E+00
 -1      2637 1.83588E+00
 -1      2638 2.61090E+00
 -1      2639 2.47978E+00
 -1      2640 3.36558E+00
 -1      2641 2.74587E+00
 -1      2642 3.13909E+00
 -1      2643 3.53288E+00
 -1      2644 3.43679E+00
 -1      2645 2.18520E+01
 -1      2646 2.88055E+01
 -1      2647 4.65858E+00
 -1      2648 4.10627E+00
 -1      2649 3.98986E+00
 -1      2650 3.45710E+00
 -1      2651 7.39849E+00
 -1      2652 7.43269E+00
 -1      2653 9.08886E-01
 -1      2654 9.70159E-01
 -1      2655 1.07345E+00
 -1      2656 1.15741E+00
 -1      2657 9.14925E-01
 -1      2658 1.27039E+00
 -1      2659 1.33543E+00
 -1      2660 1.13120E+00
 -1      2661 1.38323E+00
 -1      2662 1.43156E+00
 -1      2663 1.29198E+00
 -1      2664 1.46843E+00
 -1      2665 1.47000E+00
 -1      2666 1.37664E+00
 -1      2667 1.47649E+00
 -1      2668 1.43026E+00
 -1      2669 1.41999E+00
 -1      2670 1.39625E+00
 -1      2671 1.39796E+00
 -1      2672 1.39247E+00
 -1      2673 1.42259E+00
 -1      2674 1.43152E+00
 -1      2675 1.38309E+00
 -1      2676 1.40056E+00
 -1      2677 1.35676E+00
 -1      2678 1.37677E+00
 -1      2679 1.29727E+00
 -1      2680 1.23018E+00
 -1      2681 1.28631E+00
 -1      2682 1.16389E+00
 -1      2683 1.06732E+00
 -1      2684 1.16052E+00
 -1      2685 9.97115E-01
 -1      2686 8.68911E-01
 -1      2687 1.02401E+00
 -1      2688 7.67963E-01
 -1      2689 6.61544E-01
 -1      2690 8.52855E-01
 -1      2691 5.71181E-01
 -1      2692 4.79511E-01
 -1      2693 6.61544E-01
 -1      2694 3.95296E-01
 -1      2695 3.21560E-01
 -1      2696 4.86965E-01
 -1      2697 2.73664E-01
 -1      2698 2.49644E-01
 -1      2699 3.54854E-01
 -1      2700 2.05080E-01
 -1      2701 1.81745E-01
 -1      2702 2.62393E-01
 -1      2703 1.57140E-01
 -1      2704 1.48624E-01
 -1      2705 1.93224E-01
 -1      2706 1.39235E-01
 -1      2707 1.36779E-01
 -1      2708 1.59229E-01
 -1      2709 1.26008E-01
 -1      2710 1.19717E-01
 -1      2711 1.39068E-01
 -1      2712 1.10183E-01
 -1      2713 1.02743E-01
 -1      2714 1.18762E-01
 -1      2715 9.34877E-02
 -1      2716 8.60428E-02
 -1      2717 9.99720E-02
 -1      2718 7.73825E-02
 -1      2719 6.96070E-02
 -1      2720 8.20568E-02
 -1      2721 6.16678E-02
 -1      2722 5.41552E-02
 -1      2723 6.54574E-02
 -1      2724 4.71519E-02
 -1      2725 4.04908E-02
 -1      2726 5.05150E-02
 -1      2727 3.46188E-02
 -1      2728 2.90604E-02
 -1      2729 3.76397E-02
 -1      2730 2.43312E-02
 -1      2731 1.99118E-02
 -1      2732 2.70384E-02
 -1      2733 1.62334E-02
 -1      2734 1.36309E-02
 -1      2735 1.86308E-02
 -1      2736 1.08620E-02
 -1      2737 9.18031E-03
 -1      2738 1.21835E-02
 -1      2739 7.36989E-03
 -1      2740 6.93572E-03
 -1      2741 7.60419E-03
 -1      2742 6.38659E-03
 -1      2743 5.85997E-03
 -1      2744 5.24464E-03
 -1      2745 5.79046E-03
 -1      2746 5.23935E-03
 -1      2747 4.62600E-03
 -1      2748 5.04912E-03
 -1      2749 4.51754E-03
 -1      2750 4.36626E-03
 -1      2751 4.26338E-03
 -1      2752 3.82768E-03
 -1      2753 3.92186E-03
 -1      2754 3.54922E-03
 -1      2755 3.29478E-03
 -1      2756 3.38924E-03
 -1      2757 3.05154E-03
 -1      2758 2.77848E-03
 -1      2759 2.86754E-03
 -1      2760 2.59303E-03
 -1      2761 2.32466E-03
 -1      2762 2.43886E-03
 -1      2763 2.13083E-03
 -1      2764 1.90555E-03
 -1      2765 2.05958E-03
 -1      2766 1.71792E-03
 -1      2767 1.51138E-03
 -1      2768 1.67812E-03
 -1      2769 1.34629E-03
 -1      2770 1.16109E-03
 -1      2771 1.32540E-03
 -1      2772 1.01933E-03
 -1      2773 8.76799E-04
 -1      2774 1.01856E-03
 -1      2775 7.57522E-04
 -1      2776 6.38245E-04
 -1      2777 7.57522E-04
 -1      2778 4.32933E+00
 -1      2779 3.24446E+00
 -1      2780 9.29095E+00
 -1      2781 7.96692E+00
 -1      2782 7.65323E+00
 -1      2783 9.26133E+00
 -1      2784 3.84980E+00
 -1      2785 4.35570E+00
 -1      2786 2.79534E+00
 -1      2787 3.22409E+00
 -1      2788 3.71775E+00
 -1      2789 1.94475E+00
 -1      2790 2.29567E+00
 -1      2791 2.59236E+00
 -1      2792 1.35488E+00
 -1      2793 1.61084E+00
 -1      2794 1.75878E+00
 -1      2795 9.37256E-01
 -1      2796 1.12651E+00
 -1      2797 1.19649E+00
 -1      2798 6.40424E-01
 -1      2799 7.77275E-01
 -1      2800 8.08137E-01
 -1      2801 4.40651E-01
 -1      2802 5.38157E-01
 -1      2803 5.45888E-01
 -1      2804 3.08863E-01
 -1      2805 3.77645E-01
 -1      2806 3.80614E-01
 -1      2807 2.14703E-01
 -1      2808 2.62872E-01
 -1      2809 2.71617E-01
 -1      2810 1.48548E-01
 -1      2811 1.81074E-01
 -1      2812 1.91997E-01
 -1      2813 9.82199E-02
 -1      2814 1.23482E-01
 -1      2815 1.33304E-01
 -1      2816 6.53009E-02
 -1      2817 8.10699E-02
 -1      2818 9.10879E-02
 -1      2819 4.23291E-02
 -1      2820 5.30807E-02
 -1      2821 6.17177E-02
 -1      2822 2.84777E-02
 -1      2823 3.36860E-02
 -1      2824 4.08544E-02
 -1      2825 1.88502E-02
 -1      2826 2.24355E-02
 -1      2827 2.61693E-02
 -1      2828 1.33102E-02
 -1      2829 1.48994E-02
 -1      2830 1.61764E-02
 -1      2831 1.03447E-02
 -1      2832 1.17367E-02
 -1      2833 1.06521E-02
 -1      2834 8.67338E-03
 -1      2835 9.85324E-03
 -1      2836 8.58712E-03
 -1      2837 7.12548E-03
 -1      2838 8.11633E-03
 -1      2839 7.53859E-03
 -1      2840 5.87143E-03
 -1      2841 6.56473E-03
 -1      2842 6.42079E-03
 -1      2843 4.80597E-03
 -1      2844 5.34439E-03
 -1      2845 5.33300E-03
 -1      2846 3.96960E-03
 -1      2847 4.36472E-03
 -1      2848 4.36472E-03
 -1      2849 3.29890E-03
 -1      2850 3.65986E-03
 -1      2851 3.61373E-03
 -1      2852 2.73691E-03
 -1      2853 3.01537E-03
 -1      2854 3.02045E-03
 -1      2855 2.23472E-03
 -1      2856 2.48581E-03
 -1      2857 2.48581E-03
 -1      2858 1.76164E-03
 -1      2859 2.00167E-03
 -1      2860 2.00167E-03
 -1      2861 1.37826E-03
 -1      2862 1.56897E-03
 -1      2863 1.57594E-03
 -1      2864 1.03940E-03
 -1      2865 1.20811E-03
 -1      2866 1.21313E-03
 -1      2867 7.51814E-04
 -1      2868 8.98649E-04
 -1      2869 9.02232E-04
 -1      2870 5.91928E-04
 -1      2871 6.95092E-04
 -1      2872 7.04761E-04
 -1      2873 5.70381E-04
 -1      2874 5.43571E-04
 -1      2875 5.45465E-04
 -1      2876 5.24644E-04
 -1      2877 4.00555E-04
 -1      2878 5.24644E-04
 -1      2879 5.44351E-04
 -1      2880 5.20732E-04
 -1      2881 5.42427E-04
 -1      2882 5.42427E-04
 -1      2883 6.02663E-04
 -1      2884 5.45465E-04
 -1      2885 5.45465E-04
 -1      2886 6.02694E-04
 -1      2887 6.03807E-04
 -1      2888 7.79575E+00
 -1      2889 7.09978E+00
 -1      2890 7.00444E+00
 -1      2891 2.00004E+01
 -1      2892 1.65381E+01
 -1      2893 5.42201E-04
 -1      2894 5.42427E-04
 -1      2895 6.01519E-04
 -1      2896 5.11875E-04
 -1      2897 5.36288E-04
 -1      2898 5.95606E-04
 -1      2899 4.35782E-04
 -1      2900 4.68848E-04
 -1      2901 5.46667E-04
 -1      2902 7.05480E+00
 -1      2903 8.86502E+00
 -1      2904 8.70073E-01
 -1      2905 8.56978E-01
 -1      2906 2.72420E+01
 -1      2907 2.14863E+01
 -1      2908 6.93058E+00
 -1      2909 5.34502E+00
 -1      2910 2.88574E+01
 -1      2911 2.21681E+01
 -1      2912 4.83766E+00
 -1      2913 5.45798E+00
 -1      2914 4.82543E+00
 -1      2915 6.57360E+00
 -1      2916 7.53862E+00
 -1      2917 6.42300E+00
 -1      2918 9.98020E-01
 -1      2919 3.89484E-04
 -1      2920 1.54151E+01
 -1      2921 1.23561E+01
 -1      2922 9.92110E+00
 -1      2923 7.57045E-01
 -1      2924 8.38696E-01
 -1      2925 7.41442E-01
 -1      2926 7.71184E-01
 -1      2927 2.11606E+00
 -1      2928 1.77013E+00
 -1      2929 2.05629E+00
 -1      2930 2.64041E+00
 -1      2931 2.11223E+01
 -1      2932 2.93946E+01
 -1      2933 1.35894E+01
 -1      2934 1.04181E+01
 -1      2935 3.90134E+00
 -1      2936 5.87210E+00
 -1      2937 3.61400E+00
 -1      2938 2.10806E+01
 -1      2939 1.54422E+01
 -1      2940 1.16407E+01
 -1      2941 1.45810E+01
 -1      2942 1.39437E+01
 -1      2943 1.93140E+01
 -1      2944 1.27560E+00
 -1      2945 1.17247E+00
 -1      2946 3.74876E+00
 -1      2947 5.03916E+00
 -1      2948 9.81397E+00
 -1      2949 1.18497E+01
 -1      2950 4.79047E+00
 -1      2951 4.10266E+00
 -1      2952 6.19629E+00
 -1      2953 7.14556E+00
 -1      2954 5.73981E+00
 -1      2955 8.75590E+00
 -1      2956 9.94771E+00
 -1      2957 1.40921E+01
 -1      2958 9.84697E-01
 -1      2959 8.88993E-01
 -1      2960 1.09464E+00
 -1      2961 1.75543E+00
 -1      2962 1.49420E+00
 -1      2963 1.49420E+00
 -1      2964 3.43679E+00
 -1      2965 1.62056E+01
 -1      2966 5.90160E+00
 -1      2967 5.60150E-04
 -1      2968 4.79302E-04
 -1      2969 4.34650E-04
 -1      2970 3.97281E+00
 -1      2971 9.61681E+00
 -1      2972 7.65792E+00
 -1      2973 6.19077E+00
 -1      2974 8.38577E+00
 -1      2975 8.68860E+00
 -1      2976 9.50853E+00
 -1      2977 1.06868E+01
 -1      2978 5.28075E+00
 -1      2979 4.05304E-04
 -1      2980 4.76376E-04
 -1      2981 5.54034E-04
 -1      2982 4.89375E-04
 -1      2983 1.49096E+01
 -1      2984 3.89484E-04
 -1      2985 4.32976E+00
 -1      2986 8.68860E+00
 -1      2987 5.49061E+00
 -1      2988 4.66872E-04
 -1      2989 4.45313E-04
 -1      2990 5.13170E-04
 -1      2991 5.80473E-04
 -1      2992 3.34526E+00
 -1      2993 8.71117E-01
 -1      2994 1.45309E+00
 -1      2995 1.43077E+00
 -1      2996 1.43758E+00
 -1      2997 1.63386E+00
 -1      2998 6.05200E+00
 -1      2999 3.52654E+00
 -1      3000 1.23008E+01
 -1      3001 1.10323E+01
 -1      3002 8.23702E+00
 -1      3003 1.61527E+01
 -1      3004 1.90708E+01
 -1      3005 1.67411E+01
 -1      3006 1.18992E+01
 -1      3007 1.34044E+01
 -1      3008 1.28672E+01
 -1      3009 3.31747E+00
 -1      3010 3.18251E+00
 -1      3011 1.79589E+01
 -1      3012 1.31857E+01
 -1      3013 1.16999E+01
 -1      3014 1.09278E+00
 -1      3015 1.20576E+00
 -1      3016 1.25905E+00
 -1      3017 1.30684E+00
 -1      3018 1.22062E+00
 -1      3019 1.37664E+00
 -1      3020 1.41350E+00
 -1      3021 1.34370E+00
 -1      3022 1.56719E+00
 -1      3023 1.57367E+00
 -1      3024 1.56719E+00
 -1      3025 1.88486E+00
 -1      3026 1.85086E+00
 -1      3027 2.03207E+00
 -1      3028 1.91332E+00
 -1      3029 1.93795E+00
 -1      3030 2.40571E+00
 -1      3031 1.50915E+00
 -1      3032 1.47819E+00
 -1      3033 2.03937E+00
 -1      3034 1.35329E+00
 -1      3035 1.29379E+00
 -1      3036 1.48567E+00
 -1      3037 1.24661E+00
 -1      3038 1.18032E+00
 -1      3039 1.31359E+00
 -1      3040 1.14648E+00
 -1      3041 1.07627E+00
 -1      3042 1.23258E+00
 -1      3043 9.53802E-01
 -1      3044 8.52855E-01
 -1      3045 1.07627E+00
 -1      3046 7.49564E-01
 -1      3047 6.59200E-01
 -1      3048 8.50511E-01
 -1      3049 5.83925E-01
 -1      3050 4.99709E-01
 -1      3051 6.71944E-01
 -1      3052 4.22551E-01
 -1      3053 3.74655E-01
 -1      3054 5.19511E-01
 -1      3055 3.06957E-01
 -1      3056 2.62393E-01
 -1      3057 3.74655E-01
 -1      3058 2.29526E-01
 -1      3059 2.04921E-01
 -1      3060 2.74090E-01
 -1      3061 1.82061E-01
 -1      3062 1.72671E-01
 -1      3063 2.18363E-01
 -1      3064 1.53681E-01
 -1      3065 1.42910E-01
 -1      3066 1.76513E-01
 -1      3067 1.28555E-01
 -1      3068 1.19021E-01
 -1      3069 1.43169E-01
 -1      3070 1.07093E-01
 -1      3071 9.78377E-02
 -1      3072 1.16886E-01
 -1      3073 8.65625E-02
 -1      3074 7.79022E-02
 -1      3075 9.36831E-02
 -1      3076 6.80298E-02
 -1      3077 6.00907E-02
 -1      3078 7.25355E-02
 -1      3079 5.20107E-02
 -1      3080 4.50075E-02
 -1      3081 5.45832E-02
 -1      3082 3.87816E-02
 -1      3083 3.29095E-02
 -1      3084 4.02773E-02
 -1      3085 2.80225E-02
 -1      3086 2.32933E-02
 -1      3087 2.91644E-02
 -1      3088 1.95414E-02
 -1      3089 1.58630E-02
 -1      3090 2.05255E-02
 -1      3091 1.30446E-02
 -1      3092 1.02757E-02
 -1      3093 1.39552E-02
 -1      3094 8.20655E-03
 -1      3095 6.39613E-03
 -1      3096 9.06764E-03
 -1      3097 4.91554E-03
 -1      3098 4.36641E-03
 -1      3099 5.51790E-03
 -1      3100 3.59915E-03
 -1      3101 3.52964E-03
 -1      3102 3.27005E-03
 -1      3103 3.71706E-03
 -1      3104 3.52682E-03
 -1      3105 2.69021E-03
 -1      3106 3.55321E-03
 -1      3107 3.29905E-03
 -1      3108 2.90401E-03
 -1      3109 3.21740E-03
 -1      3110 2.93895E-03
 -1      3111 2.84875E-03
 -1      3112 2.79501E-03
 -1      3113 2.55177E-03
 -1      3114 2.62317E-03
 -1      3115 2.37784E-03
 -1      3116 2.19239E-03
 -1      3117 2.30530E-03
 -1      3118 2.06377E-03
 -1      3119 1.86995E-03
 -1      3120 2.00276E-03
 -1      3121 1.73113E-03
 -1      3122 1.54350E-03
 -1      3123 1.73532E-03
 -1      3124 1.39869E-03
 -1      3125 1.23359E-03
 -1      3126 1.45169E-03
 -1      3127 1.09329E-03
 -1      3128 9.51535E-04
 -1      3129 1.16657E-03
 -1      3130 8.20038E-04
 -1      3131 7.00761E-04
 -1      3132 6.42989E-04
 -1      3133 8.94775E-04
 -1      3134 7.26015E+00
 -1      3135 7.39217E+00
 -1      3136 7.94481E+00
 -1      3137 4.91422E+00
 -1      3138 4.41211E+00
 -1      3139 8.77664E+00
 -1      3140 7.10737E+00
 -1      3141 3.55247E+00
 -1      3142 4.17818E+00
 -1      3143 1.10299E+00
 -1      3144 1.33137E+00
 -1      3145 7.47613E-01
 -1      3146 9.07594E-01
 -1      3147 1.04247E+00
 -1      3148 5.11556E-01
 -1      3149 6.13824E-01
 -1      3150 7.13281E-01
 -1      3151 3.56297E-01
 -1      3152 4.19304E-01
 -1      3153 4.87239E-01
 -1      3154 2.46548E-01
 -1      3155 2.92539E-01
 -1      3156 3.31228E-01
 -1      3157 1.68282E-01
 -1      3158 2.01910E-01
 -1      3159 2.22832E-01
 -1      3160 1.13488E-01
 -1      3161 1.38554E-01
 -1      3162 1.48466E-01
 -1      3163 7.69902E-02
 -1      3164 9.41402E-02
 -1      3165 9.93903E-02
 -1      3166 5.17324E-02
 -1      3167 6.39526E-02
 -1      3168 6.70049E-02
 -1      3169 3.48018E-02
 -1      3170 4.34448E-02
 -1      3171 4.56797E-02
 -1      3172 2.26651E-02
 -1      3173 2.87072E-02
 -1      3174 3.12976E-02
 -1      3175 1.43091E-02
 -1      3176 1.82599E-02
 -1      3177 2.07978E-02
 -1      3178 9.61275E-03
 -1      3179 1.11863E-02
 -1      3180 1.32697E-02
 -1      3181 6.90933E-03
 -1      3182 7.40080E-03
 -1      3183 7.93497E-03
 -1      3184 5.88840E-03
 -1      3185 6.44545E-03
 -1      3186 5.25914E-03
 -1      3187 5.23790E-03
 -1      3188 5.79865E-03
 -1      3189 4.70551E-03
 -1      3190 4.50261E-03
 -1      3191 5.02965E-03
 -1      3192 4.40751E-03
 -1      3193 3.79653E-03
 -1      3194 4.23777E-03
 -1      3195 3.93442E-03
 -1      3196 3.20469E-03
 -1      3197 3.51443E-03
 -1      3198 3.38749E-03
 -1      3199 2.67997E-03
 -1      3200 2.96351E-03
 -1      3201 2.86421E-03
 -1      3202 2.23509E-03
 -1      3203 2.48619E-03
 -1      3204 2.42924E-03
 -1      3205 1.80212E-03
 -1      3206 2.03517E-03
 -1      3207 2.03555E-03
 -1      3208 1.42391E-03
 -1      3209 1.61658E-03
 -1      3210 1.65009E-03
 -1      3211 1.08553E-03
 -1      3212 1.25568E-03
 -1      3213 1.29631E-03
 -1      3214 7.95723E-04
 -1      3215 9.36471E-04
 -1      3216 9.79021E-04
 -1      3217 6.45966E-04
 -1      3218 7.02688E-04
 -1      3219 7.36927E-04
 -1      3220 5.51961E-04
 -1      3221 4.04487E+00
 -1      3222 3.97366E+00
 -1      3223 4.01708E+00
 -1      3224 4.61826E+00
 -1      3225 2.79246E+00
 -1      3226 2.79246E+00
 -1      3227 5.48805E+00
 -1      3228 4.08775E+00
 -1      3229 6.43266E-04
 -1      3230 6.44410E-04
 -1      3231 5.52636E-04
 -1      3232 5.95663E-04
 -1      3233 6.61090E-04
 -1      3234 6.61090E-04
 -1      3235 7.02837E-04
 -1      3236 1.49345E+01
 -1      3237 6.95269E+00
 -1      3238 7.43465E+00
 -1      3239 6.78741E+00
 -1      3240 1.14696E+01
 -1      3241 3.17264E+00
 -1      3242 4.32976E+00
 -1      3243 6.55177E-04
 -1      3244 6.61090E-04
 -1      3245 7.20661E-04
 -1      3246 6.61147E-04
 -1      3247 1.62171E+00
 -1      3248 1.95562E+00
 -1      3249 1.52821E+00
 -1      3250 2.41555E+00
 -1      3251 2.91522E+00
 -1      3252 2.27848E+00
 -1      3253 3.97281E+00
 -1      3254 2.95712E+00
 -1      3255 8.79149E-01
 -1      3256 9.82441E-01
 -1      3257 1.05700E+00
 -1      3258 2.74707E+00
 -1      3259 3.40395E+00
 -1      3260 3.15343E+00
 -1      3261 2.79952E+00
 -1      3262 2.79952E+00
 -1      3263 8.71041E+00
 -1      3264 1.08043E+01
 -1      3265 4.63423E+00
 -1      3266 6.41536E+00
 -1      3267 1.07492E+01
 -1      3268 1.08477E+01
 -1      3269 9.72469E+00
 -1      3270 7.32353E+00
 -1      3271 9.12382E+00
 -1      3272 8.88993E-01
 -1      3273 8.16843E+00
 -1      3274 5.72723E+00
 -1      3275 5.78225E+00
 -1      3276 4.74364E+00
 -1      3277 4.99656E+00
 -1      3278 1.16053E+01
 -1      3279 1.43865E+01
 -1      3280 8.39468E+00
 -1      3281 1.47492E+01
 -1      3282 1.31857E+01
 -1      3283 9.61340E+00
 -1      3284 6.92589E+00
 -1      3285 6.34679E+00
 -1      3286 1.18318E+01
 -1      3287 1.36401E+01
 -1      3288 2.29751E+00
 -1      3289 2.21706E+00
 -1      3290 3.25409E+00
 -1      3291 4.23490E+00
 -1      3292 4.05652E+00
 -1      3293 3.69281E+00
 -1      3294 6.19400E+00
 -1      3295 9.97606E+00
 -1      3296 1.03016E+01
 -1      3297 6.60752E-04
 -1      3298 6.19322E-04
 -1      3299 9.75576E+00
 -1      3300 1.25571E+01
 -1      3301 1.14696E+01
 -1      3302 3.58652E+00
 -1      3303 7.27907E+00
 -1      3304 5.97440E+00
 -1      3305 3.39642E+00
 -1      3306 3.37566E+00
 -1      3307 3.71208E+00
 -1      3308 4.70825E+00
 -1      3309 3.62974E+00
 -1      3310 6.65030E-04
 -1      3311 6.63916E-04
 -1      3312 7.23088E-04
 -1      3313 5.15379E+00
 -1      3314 3.36073E+00
 -1      3315 2.74707E+00
 -1      3316 6.65030E-04
 -1      3317 6.65030E-04
 -1      3318 7.26252E-04
 -1      3319 7.05633E-04
 -1      3320 3.76730E+00
 -1      3321 3.69281E+00
 -1      3322 3.47240E+00
 -1      3323 4.42897E+00
 -1      3324 5.10891E+00
 -1      3325 7.89060E-01
 -1      3326 9.50989E+00
 -1      3327 7.99469E-01
 -1      3328 8.66985E-01
 -1      3329 7.29278E-01
 -1      3330 9.40633E+00
 -1      3331 1.61165E+00
 -1      3332 1.45648E+00
 -1      3333 1.19547E+00
 -1      3334 1.00769E+00
 -1      3335 1.36954E+00
 -1      3336 7.71682E+00
 -1      3337 5.92785E-04
 -1      3338 5.83254E-04
 -1      3339 6.32250E-04
 -1      3340 7.13073E-04
 -1      3341 8.47087E-01
 -1      3342 4.26650E+00
 -1      3343 3.40777E+00
 -1      3344 4.99057E+00
 -1      3345 4.80909E+00
 -1      3346 1.32518E+00
 -1      3347 1.39497E+00
 -1      3348 2.02867E+00
 -1      3349 2.18236E+00
 -1      3350 2.01014E+00
 -1      3351 2.21049E+00
 -1      3352 2.52168E+00
 -1      3353 2.67197E+00
 -1      3354 2.88351E+00
 -1      3355 2.94597E+00
 -1      3356 1.94970E+00
 -1      3357 1.82480E+00
 -1      3358 1.73890E+00
 -1      3359 1.69173E+00
 -1      3360 2.20294E+00
 -1      3361 1.74964E+00
 -1      3362 1.71580E+00
 -1      3363 2.17495E+00
 -1      3364 1.31040E+00
 -1      3365 1.18793E+00
 -1      3366 1.82746E+00
 -1      3367 1.00595E+00
 -1      3368 9.02655E-01
 -1      3369 1.24008E+00
 -1      3370 7.87865E-01
 -1      3371 7.12590E-01
 -1      3372 9.43300E-01
 -1      3373 5.97530E-01
 -1      3374 5.20372E-01
 -1      3375 7.13451E-01
 -1      3376 4.43600E-01
 -1      3377 3.75902E-01
 -1      3378 5.21619E-01
 -1      3379 3.27365E-01
 -1      3380 2.94498E-01
 -1      3381 3.96310E-01
 -1      3382 2.52354E-01
 -1      3383 2.29494E-01
 -1      3384 3.05629E-01
 -1      3385 1.99552E-01
 -1      3386 1.80563E-01
 -1      3387 2.33543E-01
 -1      3388 1.59178E-01
 -1      3389 1.44823E-01
 -1      3390 1.82216E-01
 -1      3391 1.26352E-01
 -1      3392 1.14424E-01
 -1      3393 1.42360E-01
 -1      3394 9.99392E-02
 -1      3395 8.86640E-02
 -1      3396 1.09405E-01
 -1      3397 7.84375E-02
 -1      3398 6.85651E-02
 -1      3399 8.46936E-02
 -1      3400 6.07492E-02
 -1      3401 5.26693E-02
 -1      3402 6.66512E-02
 -1      3403 4.57588E-02
 -1      3404 3.95329E-02
 -1      3405 5.19248E-02
 -1      3406 3.35824E-02
 -1      3407 2.86954E-02
 -1      3408 3.90639E-02
 -1      3409 2.38257E-02
 -1      3410 2.00738E-02
 -1      3411 2.82437E-02
 -1      3412 1.63899E-02
 -1      3413 1.35715E-02
 -1      3414 1.96901E-02
 -1      3415 1.08561E-02
 -1      3416 8.78697E-03
 -1      3417 1.32908E-02
 -1      3418 6.76343E-03
 -1      3419 5.28284E-03
 -1      3420 8.55191E-03
 -1      3421 3.82484E-03
 -1      3422 3.05759E-03
 -1      3423 5.07038E-03
 -1      3424 2.28533E-03
 -1      3425 2.47275E-03
 -1      3426 2.84012E-03
 -1      3427 2.34857E-03
 -1      3428 2.37496E-03
 -1      3429 1.94369E-03
 -1      3430 2.50913E-03
 -1      3431 2.42749E-03
 -1      3432 1.95369E-03
 -1      3433 2.43869E-03
 -1      3434 2.29475E-03
 -1      3435 2.09907E-03
 -1      3436 2.22899E-03
 -1      3437 2.05507E-03
 -1      3438 2.04452E-03
 -1      3439 1.94562E-03
 -1      3440 1.81700E-03
 -1      3441 1.86931E-03
 -1      3442 1.71077E-03
 -1      3443 1.57195E-03
 -1      3444 1.65363E-03
 -1      3445 1.46756E-03
 -1      3446 1.32275E-03
 -1      3447 1.44301E-03
 -1      3448 1.20769E-03
 -1      3449 1.06738E-03
 -1      3450 1.22356E-03
 -1      3451 9.76899E+00
 -1      3452 9.76899E+00
 -1      3453 9.44564E+00
 -1      3454 8.58240E-01
 -1      3455 1.05364E+00
 -1      3456 2.89768E-01
 -1      3457 3.53526E-01
 -1      3458 1.98446E-01
 -1      3459 2.43084E-01
 -1      3460 2.65382E-01
 -1      3461 1.34822E-01
 -1      3462 1.64551E-01
 -1      3463 1.84802E-01
 -1      3464 9.21093E-02
 -1      3465 1.11457E-01
 -1      3466 1.27541E-01
 -1      3467 6.23982E-02
 -1      3468 7.54358E-02
 -1      3469 8.75026E-02
 -1      3470 4.28416E-02
 -1      3471 5.11292E-02
 -1      3472 5.95600E-02
 -1      3473 2.87388E-02
 -1      3474 3.48334E-02
 -1      3475 4.02828E-02
 -1      3476 1.87187E-02
 -1      3477 2.31239E-02
 -1      3478 2.66597E-02
 -1      3479 1.15532E-02
 -1      3480 1.46761E-02
 -1      3481 1.70022E-02
 -1      3482 6.60681E-03
 -1      3483 8.81876E-03
 -1      3484 1.02251E-02
 -1      3485 4.51403E-03
 -1      3486 4.97791E-03
 -1      3487 5.86170E-03
 -1      3488 3.62626E-03
 -1      3489 3.71602E-03
 -1      3490 3.43478E-03
 -1      3491 3.56243E-03
 -1      3492 3.77068E-03
 -1      3493 2.78118E-03
 -1      3494 3.30746E-03
 -1      3495 3.57230E-03
 -1      3496 2.93548E-03
 -1      3497 2.93124E-03
 -1      3498 3.21333E-03
 -1      3499 2.85121E-03
 -1      3500 2.53885E-03
 -1      3501 2.78004E-03
 -1      3502 2.60588E-03
 -1      3503 2.16363E-03
 -1      3504 2.35741E-03
 -1      3505 2.27324E-03
 -1      3506 1.82432E-03
 -1      3507 2.02423E-03
 -1      3508 1.95240E-03
 -1      3509 1.49999E-03
 -1      3510 1.68554E-03
 -1      3511 1.67423E-03
 -1      3512 1.18977E-03
 -1      3513 1.35800E-03
 -1      3514 1.39345E-03
 -1      3515 9.75577E-04
 -1      3516 1.12464E-03
 -1      3517 1.18632E-03
 -1      3518 2.67489E+00
 -1      3519 3.90517E+00
 -1      3520 6.19985E-04
 -1      3521 5.90639E-04
 -1      3522 6.82571E-04
 -1      3523 7.20587E-04
 -1      3524 7.74723E-04
 -1      3525 7.56900E-04
 -1      3526 2.80048E+00
 -1      3527 2.59043E+00
 -1      3528 2.72830E+00
 -1      3529 4.37081E+00
 -1      3530 7.14532E+00
 -1      3531 4.67327E+00
 -1      3532 4.01708E+00
 -1      3533 4.89109E+00
 -1      3534 5.78225E+00
 -1      3535 1.23353E+00
 -1      3536 1.52388E+00
 -1      3537 1.04930E+00
 -1      3538 2.17595E+00
 -1      3539 2.19485E+00
 -1      3540 2.21706E+00
 -1      3541 1.80308E+00
 -1      3542 2.26301E+00
 -1      3543 1.50841E+00
 -1      3544 2.85148E+00
 -1      3545 3.48873E+00
 -1      3546 3.84663E+00
 -1      3547 2.37608E+00
 -1      3548 5.98934E-01
 -1      3549 7.32724E-01
 -1      3550 7.43893E-01
 -1      3551 1.05700E+00
 -1      3552 1.16734E+00
 -1      3553 4.08251E+00
 -1      3554 5.05933E+00
 -1      3555 1.36823E+00
 -1      3556 1.42151E+00
 -1      3557 1.47278E+00
 -1      3558 7.57442E+00
 -1      3559 8.60189E+00
 -1      3560 2.35762E+00
 -1      3561 2.73073E+00
 -1      3562 3.30446E+00
 -1      3563 2.86517E+00
 -1      3564 3.02913E+00
 -1      3565 3.44302E+00
 -1      3566 2.58723E+00
 -1      3567 4.17590E-01
 -1      3568 5.09842E-01
 -1      3569 5.29285E-01
 -1      3570 3.76130E-01
 -1      3571 8.24465E+00
 -1      3572 8.00891E+00
 -1      3573 9.76899E+00
 -1      3574 8.16843E+00
 -1      3575 6.40786E+00
 -1      3576 7.17346E+00
 -1      3577 3.26396E+00
 -1      3578 2.32964E+00
 -1      3579 7.90174E+00
 -1      3580 6.62453E+00
 -1      3581 5.51555E+00
 -1      3582 8.21186E+00
 -1      3583 9.56191E+00
 -1      3584 7.14532E+00
 -1      3585 4.63143E+00
 -1      3586 2.88542E+00
 -1      3587 3.42800E+00
 -1      3588 3.06193E+00
 -1      3589 2.19485E+00
 -1      3590 1.63055E+00
 -1      3591 9.47913E-01
 -1      3592 2.94597E+00
 -1      3593 2.46817E+00
 -1      3594 1.56552E+00
 -1      3595 1.56552E+00
 -1      3596 1.30450E+00
 -1      3597 7.67650E+00
 -1      3598 7.88358E+00
 -1      3599 2.03937E+00
 -1      3600 9.45713E-04
 -1      3601 8.14216E-04
 -1      3602 7.64012E-04
 -1      3603 9.86825E-04
 -1      3604 6.26546E+00
 -1      3605 1.36823E+00
 -1      3606 6.15489E+00
 -1      3607 2.99010E+00
 -1      3608 7.75606E-04
 -1      3609 8.41367E-04
 -1      3610 8.95430E-04
 -1      3611 8.41367E-04
 -1      3612 2.75914E+00
 -1      3613 2.26085E+00
 -1      3614 2.70853E+00
 -1      3615 7.29325E-04
 -1      3616 7.49944E-04
 -1      3617 8.01211E-04
 -1      3618 9.20558E-04
 -1      3619 9.21221E-04
 -1      3620 6.30918E+00
 -1      3621 9.22409E-04
 -1      3622 9.19245E-04
 -1      3623 3.18631E+00
 -1      3624 2.69136E+00
 -1      3625 2.37850E+00
 -1      3626 2.52048E+00
 -1      3627 3.40777E+00
 -1      3628 2.37667E+00
 -1      3629 7.03133E+00
 -1      3630 5.91257E+00
 -1      3631 4.52766E+00
 -1      3632 6.86061E+00
 -1      3633 1.22358E+00
 -1      3634 1.33391E+00
 -1      3635 3.40924E+00
 -1      3636 5.30113E+00
 -1      3637 4.75778E+00
 -1      3638 3.26790E+00
 -1      3639 5.88766E+00
 -1      3640 5.20772E+00
 -1      3641 7.33393E-04
 -1      3642 1.14390E+00
 -1      3643 1.11988E-03
 -1      3644 9.13614E-04
 -1      3645 7.81853E-04
 -1      3646 8.41367E-04
 -1      3647 1.03528E-03
 -1      3648 8.73894E-01
 -1      3649 1.05379E+00
 -1      3650 1.98581E+00
 -1      3651 1.92078E+00
 -1      3652 4.80677E+00
 -1      3653 3.20509E+00
 -1      3654 2.64080E+00
 -1      3655 7.14532E+00
 -1      3656 5.25990E+00
 -1      3657 4.72872E+00
 -1      3658 2.17495E+00
 -1      3659 2.23286E+00
 -1      3660 2.37667E+00
 -1      3661 1.97127E+00
 -1      3662 1.14170E+00
 -1      3663 1.02691E+00
 -1      3664 1.02605E+00
 -1      3665 9.10993E-01
 -1      3666 1.22445E+00
 -1      3667 6.32830E-01
 -1      3668 5.56058E-01
 -1      3669 9.45431E-01
 -1      3670 4.64264E-01
 -1      3671 4.15727E-01
 -1      3672 5.75475E-01
 -1      3673 3.62361E-01
 -1      3674 3.20217E-01
 -1      3675 4.30315E-01
 -1      3676 2.72233E-01
 -1      3677 2.42291E-01
 -1      3678 3.28965E-01
 -1      3679 2.04117E-01
 -1      3680 1.82732E-01
 -1      3681 2.42807E-01
 -1      3682 1.57266E-01
 -1      3683 1.38795E-01
 -1      3684 1.79167E-01
 -1      3685 1.21620E-01
 -1      3686 1.07136E-01
 -1      3687 1.36526E-01
 -1      3688 9.49200E-02
 -1      3689 8.46936E-02
 -1      3690 1.07136E-01
 -1      3691 7.44671E-02
 -1      3692 6.66512E-02
 -1      3693 8.46936E-02
 -1      3694 5.77474E-02
 -1      3695 5.08369E-02
 -1      3696 6.55633E-02
 -1      3697 4.34476E-02
 -1      3698 3.74971E-02
 -1      3699 4.92702E-02
 -1      3700 3.15798E-02
 -1      3701 2.67101E-02
 -1      3702 3.59636E-02
 -1      3703 2.21010E-02
 -1      3704 1.84171E-02
 -1      3705 2.54371E-02
 -1      3706 1.49864E-02
 -1      3707 1.22710E-02
 -1      3708 1.73972E-02
 -1      3709 9.88689E-03
 -1      3710 7.86336E-03
 -1      3711 1.15824E-02
 -1      3712 6.12278E-03
 -1      3713 4.66477E-03
 -1      3714 7.45775E-03
 -1      3715 3.51958E-03
 -1      3716 2.74732E-03
 -1      3717 4.57198E-03
 -1      3718 2.06787E-03
 -1      3719 1.94369E-03
 -1      3720 2.74732E-03
 -1      3721 1.51563E-03
 -1      3722 1.64980E-03
 -1      3723 1.63980E-03
 -1      3724 1.81424E-03
 -1      3725 1.82544E-03
 -1      3726 1.37617E-03
 -1      3727 1.87287E-03
 -1      3728 1.80712E-03
 -1      3729 1.58804E-03
 -1      3730 1.77944E-03
 -1      3731 1.66999E-03
 -1      3732 1.60780E-03
 -1      3733 1.59756E-03
 -1      3734 1.49133E-03
 -1      3735 1.50769E-03
 -1      3736 1.40125E-03
 -1      3737 1.29686E-03
 -1      3738 1.34518E-03
 -1      3739 1.21377E-03
 -1      3740 1.09871E-03
 -1      3741 1.17201E-03
 -1      3742 3.23429E+00
 -1      3743 2.14800E-01
 -1      3744 2.61484E-01
 -1      3745 7.67435E-02
 -1      3746 9.34171E-02
 -1      3747 5.32624E-02
 -1      3748 6.45314E-02
 -1      3749 7.04458E-02
 -1      3750 3.62071E-02
 -1      3751 4.42153E-02
 -1      3752 4.91866E-02
 -1      3753 2.42718E-02
 -1      3754 2.98867E-02
 -1      3755 3.38191E-02
 -1      3756 1.56180E-02
 -1      3757 1.96606E-02
 -1      3758 2.28876E-02
 -1      3759 9.54041E-03
 -1      3760 1.22749E-02
 -1      3761 1.49333E-02
 -1      3762 5.66750E-03
 -1      3763 7.29641E-03
 -1      3764 9.34621E-03
 -1      3765 3.32347E-03
 -1      3766 4.12148E-03
 -1      3767 5.55619E-03
 -1      3768 2.41860E-03
 -1      3769 2.27419E-03
 -1      3770 2.96089E-03
 -1      3771 2.37675E-03
 -1      3772 2.36688E-03
 -1      3773 1.85988E-03
 -1      3774 2.40425E-03
 -1      3775 2.49839E-03
 -1      3776 1.92979E-03
 -1      3777 2.25464E-03
 -1      3778 2.40584E-03
 -1      3779 2.05301E-03
 -1      3780 2.00048E-03
 -1      3781 2.18192E-03
 -1      3782 1.98188E-03
 -1      3783 1.74926E-03
 -1      3784 1.88866E-03
 -1      3785 1.79734E-03
 -1      3786 1.49147E-03
 -1      3787 1.63025E-03
 -1      3788 1.56650E-03
 -1      3789 1.25135E-03
 -1      3790 1.39334E-03
 -1      3791 1.34936E-03
 -1      3792 1.12119E-03
 -1      3793 1.18632E-03
 -1      3794 1.18621E-03
 -1      3795 1.11988E-03
 -1      3796 1.09669E-01
 -1      3797 1.33034E-01
 -1      3798 9.89100E-02
 -1      3799 2.73665E+00
 -1      3800 5.53042E+00
 -1      3801 2.30147E+00
 -1      3802 2.38593E+00
 -1      3803 5.53042E+00
 -1      3804 5.31260E+00
 -1      3805 1.56180E-01
 -1      3806 1.90075E-01
 -1      3807 1.38307E-01
 -1      3808 3.20509E+00
 -1      3809 2.20294E+00
 -1      3810 1.26612E+00
 -1      3811 1.54532E+00
 -1      3812 1.09071E+00
 -1      3813 6.09409E-01
 -1      3814 7.34925E-01
 -1      3815 7.39411E-01
 -1      3816 1.76410E+00
 -1      3817 1.66777E+00
 -1      3818 1.36823E+00
 -1      3819 1.56911E+00
 -1      3820 8.20721E-04
 -1      3821 8.20721E-04
 -1      3822 1.01688E-03
 -1      3823 8.44414E-04
 -1      3824 2.67690E+00
 -1      3825 2.32304E+00
 -1      3826 2.50037E+00
 -1      3827 5.62037E+00
 -1      3828 2.70853E+00
 -1      3829 2.64384E+00
 -1      3830 2.58723E+00
 -1      3831 2.28883E+00
 -1      3832 2.30147E+00
 -1      3833 3.11640E+00
 -1      3834 2.93875E+00
 -1      3835 3.43671E+00
 -1      3836 2.94745E+00
 -1      3837 4.35871E+00
 -1      3838 4.26319E+00
 -1      3839 4.79437E+00
 -1      3840 2.49099E-01
 -1      3841 2.99680E-01
 -1      3842 3.63744E-01
 -1      3843 2.14427E+00
 -1      3844 2.38656E+00
 -1      3845 2.97503E+00
 -1      3846 2.99606E+00
 -1      3847 1.99412E+00
 -1      3848 1.44491E+00
 -1      3849 1.02550E-03
 -1      3850 1.26292E+00
 -1      3851 1.86177E-01
 -1      3852 1.03673E-03
 -1      3853 1.03805E-03
 -1      3854 9.35044E-04
 -1      3855 4.62366E+00
 -1      3856 9.62073E-04
 -1      3857 9.21878E-04
 -1      3858 8.55234E-04
 -1      3859 8.38686E-04
 -1      3860 8.11111E-04
 -1      3861 8.65134E-04
 -1      3862 3.13731E+00
 -1      3863 2.36472E+00
 -1      3864 2.36472E+00
 -1      3865 1.83836E+00
 -1      3866 2.72966E+00
 -1      3867 5.13237E-01
 -1      3868 5.04269E-01
 -1      3869 4.24145E-01
 -1      3870 1.76410E+00
 -1      3871 2.75425E+00
 -1      3872 1.34654E+00
 -1      3873 3.84663E+00
 -1      3874 1.75420E+00
 -1      3875 4.24404E+00
 -1      3876 3.85712E+00
 -1      3877 3.39158E+00
 -1      3878 4.15546E-02
 -1      3879 5.06017E-02
 -1      3880 6.03112E-01
 -1      3881 7.42081E-01
 -1      3882 1.02550E-03
 -1      3883 1.22359E+00
 -1      3884 9.45431E-01
 -1      3885 7.00728E-01
 -1      3886 6.08934E-01
 -1      3887 9.78891E-01
 -1      3888 5.12706E-01
 -1      3889 4.59340E-01
 -1      3890 6.37959E-01
 -1      3891 3.77149E-01
 -1      3892 3.29165E-01
 -1      3893 4.59540E-01
 -1      3894 2.73537E-01
 -1      3895 2.35362E-01
 -1      3896 3.21721E-01
 -1      3897 2.00204E-01
 -1      3898 1.74738E-01
 -1      3899 2.30934E-01
 -1      3900 1.53701E-01
 -1      3901 1.36526E-01
 -1      3902 1.74738E-01
 -1      3903 1.19351E-01
 -1      3904 1.07136E-01
 -1      3905 1.36526E-01
 -1      3906 9.25459E-02
 -1      3907 8.23194E-02
 -1      3908 1.04761E-01
 -1      3909 7.06255E-02
 -1      3910 6.17216E-02
 -1      3911 7.84778E-02
 -1      3912 5.26011E-02
 -1      3913 4.52118E-02
 -1      3914 5.76633E-02
 -1      3915 3.82345E-02
 -1      3916 3.23172E-02
 -1      3917 4.15654E-02
 -1      3918 2.70467E-02
 -1      3919 2.24376E-02
 -1      3920 2.93177E-02
 -1      3921 1.85078E-02
 -1      3922 1.50770E-02
 -1      3923 2.01174E-02
 -1      3924 1.26029E-02
 -1      3925 1.02188E-02
 -1      3926 1.37134E-02
 -1      3927 8.58027E-03
 -1      3928 6.83970E-03
 -1      3929 9.60076E-03
 -1      3930 5.53062E-03
 -1      3931 4.38542E-03
 -1      3932 6.65314E-03
 -1      3933 3.42678E-03
 -1      3934 2.74732E-03
 -1      3935 4.38542E-03
 -1      3936 2.03948E-03
 -1      3937 1.61141E-03
 -1      3938 2.71893E-03
 -1      3939 1.14789E-03
 -1      3940 1.31233E-03
 -1      3941 1.54756E-03
 -1      3942 1.36070E-03
 -1      3943 1.40813E-03
 -1      3944 1.13242E-03
 -1      3945 1.45639E-03
 -1      3946 1.42871E-03
 -1      3947 1.22904E-03
 -1      3948 1.41426E-03
 -1      3949 1.34183E-03
 -1      3950 1.26285E-03
 -1      3951 1.28929E-03
 -1      3952 1.19921E-03
 -1      3953 1.19586E-03
 -1      3954 1.15339E-03
 -1      3955 1.07030E-03
 -1      3956 1.09750E-03
 -1      3957 2.90149E-02
 -1      3958 3.53352E-02
 -1      3959 3.67503E-02
 -1      3960 1.95509E+00
 -1      3961 5.85899E-02
 -1      3962 7.08021E-02
 -1      3963 5.09579E-02
 -1      3964 1.95648E-02
 -1      3965 2.41760E-02
 -1      3966 2.56921E-02
 -1      3967 1.28716E-02
 -1      3968 1.62147E-02
 -1      3969 1.75031E-02
 -1      3970 8.25442E-03
 -1      3971 1.04984E-02
 -1      3972 1.17798E-02
 -1      3973 4.99648E-03
 -1      3974 6.54250E-03
 -1      3975 7.69471E-03
 -1      3976 2.72559E-03
 -1      3977 3.77488E-03
 -1      3978 4.76119E-03
 -1      3979 1.88546E-03
 -1      3980 1.93718E-03
 -1      3981 2.75117E-03
 -1      3982 1.58631E-03
 -1      3983 1.46467E-03
 -1      3984 1.54198E-03
 -1      3985 1.74471E-03
 -1      3986 1.74313E-03
 -1      3987 1.27801E-03
 -1      3988 1.71712E-03
 -1      3989 1.78984E-03
 -1      3990 1.47995E-03
 -1      3991 1.57689E-03
 -1      3992 1.68871E-03
 -1      3993 1.49667E-03
 -1      3994 1.38824E-03
 -1      3995 1.50726E-03
 -1      3996 1.39863E-03
 -1      3997 1.19858E-03
 -1      3998 1.29670E-03
 -1      3999 1.23746E-03
 -1      4000 1.08723E-03
 -1      4001 1.15225E-03
 -1      4002 1.09959E-03
 -1      4003 1.00408E-03
 -1      4004 8.12434E-02
 -1      4005 9.74954E-02
 -1      4006 6.93875E-02
 -1      4007 1.16341E-01
 -1      4008 1.39486E-01
 -1      4009 9.86744E-02
 -1      4010 8.08669E-04
 -1      4011 8.79446E-04
 -1      4012 8.99299E-04
 -1      4013 8.46143E-04
 -1      4014 9.10413E-01
 -1      4015 1.12274E+00
 -1      4016 7.74114E-01
 -1      4017 1.64876E+00
 -1      4018 1.52754E+00
 -1      4019 2.01937E+00
 -1      4020 1.89620E+00
 -1      4021 3.53271E+00
 -1      4022 1.62013E-01
 -1      4023 1.86738E-01
 -1      4024 1.40047E-01
 -1      4025 1.52668E+00
 -1      4026 2.08719E+00
 -1      4027 1.70121E+00
 -1      4028 3.85712E+00
 -1      4029 2.41846E+00
 -1      4030 2.73006E+00
 -1      4031 2.20937E+00
 -1      4032 2.58347E+00
 -1      4033 2.26316E+00
 -1      4034 1.58578E+00
 -1      4035 2.42702E+00
 -1      4036 1.40549E+00
 -1      4037 2.21889E-01
 -1      4038 2.60086E-01
 -1      4039 1.97725E-01
 -1      4040 9.85302E-04
 -1      4041 3.47696E-01
 -1      4042 1.52668E+00
 -1      4043 9.04646E-04
 -1      4044 8.88097E-04
 -1      4045 4.28219E-01
 -1      4046 5.24391E-01
 -1      4047 5.27062E-01
 -1      4048 1.86447E+00
 -1      4049 2.22846E+00
 -1      4050 2.01978E+00
 -1      4051 9.66684E-04
 -1      4052 9.89647E-04
 -1      4053 3.03175E+00
 -1      4054 2.76681E+00
 -1      4055 2.08251E+00
 -1      4056 2.62568E+00
 -1      4057 8.83723E-02
 -1      4058 1.07218E-01
 -1      4059 2.98551E+00
 -1      4060 2.33532E-02
 -1      4061 2.81920E-02
 -1      4062 3.33380E-02
 -1      4063 3.95574E-02
 -1      4064 3.09991E-02
 -1      4065 1.01316E+00
 -1      4066 9.16931E-01
 -1      4067 6.81085E-01
 -1      4068 5.98894E-01
 -1      4069 1.05628E+00
 -1      4070 3.57943E-01
 -1      4071 3.02314E-01
 -1      4072 5.79488E-01
 -1      4073 2.66092E-01
 -1      4074 2.30934E-01
 -1      4075 3.02314E-01
 -1      4076 1.95775E-01
 -1      4077 1.74738E-01
 -1      4078 2.30934E-01
 -1      4079 1.62457E-01
 -1      4080 1.45282E-01
 -1      4081 1.83494E-01
 -1      4082 1.19249E-01
 -1      4083 1.04659E-01
 -1      4084 1.45180E-01
 -1      4085 8.42812E-02
 -1      4086 7.25873E-02
 -1      4087 9.87685E-02
 -1      4088 6.09623E-02
 -1      4089 5.18417E-02
 -1      4090 6.67657E-02
 -1      4091 4.51076E-02
 -1      4092 3.81303E-02
 -1      4093 4.84066E-02
 -1      4094 3.25042E-02
 -1      4095 2.72338E-02
 -1      4096 3.60464E-02
 -1      4097 2.35869E-02
 -1      4098 1.96571E-02
 -1      4099 2.67734E-02
 -1      4100 1.84285E-02
 -1      4101 1.59544E-02
 -1      4102 2.18981E-02
 -1      4103 1.17744E-02
 -1      4104 1.01358E-02
 -1      4105 1.64895E-02
 -1      4106 7.71506E-03
 -1      4107 6.40598E-03
 -1      4108 9.88868E-03
 -1      4109 4.98892E-03
 -1      4110 4.03028E-03
 -1      4111 6.05083E-03
 -1      4112 3.11015E-03
 -1      4113 2.40230E-03
 -1      4114 3.71365E-03
 -1      4115 1.75772E-03
 -1      4116 1.29420E-03
 -1      4117 2.14894E-03
 -1      4118 9.45608E-04
 -1      4119 9.93974E-04
 -1      4120 1.15576E-03
 -1      4121 1.05094E-03
 -1      4122 1.09921E-03
 -1      4123 8.64136E-04
 -1      4124 1.13092E-03
 -1      4125 1.11646E-03
 -1      4126 9.52817E-04
 -1      4127 1.10328E-03
 -1      4128 1.05074E-03
 -1      4129 9.71348E-04
 -1      4130 1.09750E-03
 -1      4131 1.05169E-03
 -1      4132 9.89647E-04
 -1      4133 1.00493E-03
 -1      4134 1.59431E-02
 -1      4135 1.92933E-02
 -1      4136 2.17932E-02
 -1      4137 4.67951E-02
 -1      4138 5.47834E-02
 -1      4139 4.33828E-02
 -1      4140 8.76599E-01
 -1      4141 1.04493E+00
 -1      4142 1.05311E-02
 -1      4143 1.29043E-02
 -1      4144 1.46944E-02
 -1      4145 9.14612E-03
 -1      4146 1.08580E-02
 -1      4147 1.19825E-02
 -1      4148 4.99585E-03
 -1      4149 6.21745E-03
 -1      4150 9.38078E-03
 -1      4151 3.05776E-03
 -1      4152 3.84617E-03
 -1      4153 5.30244E-03
 -1      4154 1.74641E-03
 -1      4155 2.16719E-03
 -1      4156 3.26219E-03
 -1      4157 1.27586E-03
 -1      4158 1.11905E-03
 -1      4159 1.74426E-03
 -1      4160 1.28053E-03
 -1      4161 1.23540E-03
 -1      4162 1.07644E-03
 -1      4163 1.30496E-03
 -1      4164 1.33337E-03
 -1      4165 1.08882E-03
 -1      4166 1.22657E-03
 -1      4167 1.29621E-03
 -1      4168 1.13291E-03
 -1      4169 1.08659E-03
 -1      4170 1.17813E-03
 -1      4171 1.07571E-03
 -1      4172 6.38767E-02
 -1      4173 7.43180E-02
 -1      4174 8.28616E-02
 -1      4175 3.07463E-01
 -1      4176 3.67865E-01
 -1      4177 3.87987E-01
 -1      4178 2.80254E-01
 -1      4179 2.01978E+00
 -1      4180 9.08778E-04
 -1      4181 8.69266E-04
 -1      4182 8.66823E-04
 -1      4183 1.23513E-01
 -1      4184 1.46040E-01
 -1      4185 1.13211E-01
 -1      4186 1.40425E+00
 -1      4187 1.15955E+00
 -1      4188 1.43852E+00
 -1      4189 2.42702E+00
 -1      4190 1.82977E+00
 -1      4191 1.52668E+00
 -1      4192 5.97139E-02
 -1      4193 1.36616E+00
 -1      4194 1.26368E+00
 -1      4195 1.72672E+00
 -1      4196 1.97374E-01
 -1      4197 2.32526E-01
 -1      4198 1.80841E-01
 -1      4199 2.06719E+00
 -1      4200 5.83223E-01
 -1      4201 8.54040E-01
 -1      4202 5.04503E-01
 -1      4203 1.01793E-03
 -1      4204 9.58604E-04
 -1      4205 9.48482E-04
 -1      4206 1.74204E+00
 -1      4207 1.70734E+00
 -1      4208 9.29976E-04
 -1      4209 9.11144E-04
 -1      4210 9.79802E-04
 -1      4211 9.92014E-04
 -1      4212 2.04299E-02
 -1      4213 2.44898E-02
 -1      4214 7.49806E-01
 -1      4215 5.08854E-01
 -1      4216 3.64457E-01
 -1      4217 3.28234E-01
 -1      4218 5.34774E-01
 -1      4219 2.53740E-01
 -1      4220 2.18581E-01
 -1      4221 3.15882E-01
 -1      4222 2.13975E-01
 -1      4223 2.01694E-01
 -1      4224 1.50360E-01
 -1      4225 1.24327E-01
 -1      4226 1.08031E-01
 -1      4227 8.76533E-02
 -1      4228 7.35990E-02
 -1      4229 6.19740E-02
 -1      4230 5.28806E-02
 -1      4231 4.61465E-02
 -1      4232 3.89088E-02
 -1      4233 3.32827E-02
 -1      4234 2.31266E-02
 -1      4235 2.18981E-02
 -1      4236 2.06695E-02
 -1      4237 1.64895E-02
 -1      4238 1.23095E-02
 -1      4239 9.88868E-03
 -1      4240 6.96000E-03
 -1      4241 5.54294E-03
 -1      4242 4.39327E-03
 -1      4243 3.47314E-03
 -1      4244 2.58257E-03
 -1      4245 1.93799E-03
 -1      4246 1.31063E-03
 -1      4247 9.62032E-04
 -1      4248 9.21572E-04
 -1      4249 9.78541E-04
 -1      4250 1.03138E-03
 -1      4251 1.06309E-03
 -1      4252 1.05434E-03
 -1      4253 1.04116E-03
 -1      4254 9.45255E-04
 -1      4255 9.94811E-04
 -1      4256 1.61625E-02
 -1      4257 1.92014E-02
 -1      4258 1.02825E-03
 -1      4259 1.65717E+00
 -1      4260 1.50004E+00
 -1      4261 1.58491E+00
 -1      4262 1.43852E+00
 -1      4263 1.70734E+00
 -1      4264 1.21977E+00
 -1      4265 9.83928E-01
 -1      4266 1.84051E+00
 -1      4267 2.81367E-02
 -1      4268 2.18981E-02
 -1      4269 2.36781E-01
 -1      4270 1.64185E+00
 -1      4271 1.50004E+00
 -1      4272 1.58491E+00
 -1      4273 2.67734E-02
 -1      4274 1.64895E-02
 -1      4275 9.13294E-01
 -1      4276 6.19918E-01
 -1      4277 2.32526E-01
 -1      4278 2.32877E-01
 -1      4279 2.80254E-01
 -1      4280 2.37132E-01
 -1      4281 3.59005E-01
 -1      4282 4.19359E-01
 -1      4283 4.75521E-01
 -1      4284 3.11627E-01
 -1      4285 4.75521E-01
 -1      4286 1.58491E+00
 -1      4287 3.11627E-01
 -1      4288 3.90377E-01
 -3
 9999
