    1C
    1UUSER                                                              
    1UDATE              26.october.2022                                 
    1UTIME              23:46:36                                        
    1UHOST                                                              
    1UPGM               CalculiX                                        
    1UVERSION           Version 2.17                             
    1UCOMPILETIME       Thu Jul 23 21:43:50 CEST 2020                    
    1UDIR                                                               
    1UDBN                                                               
    1UMAT    1SOLIDMATERIAL                                             
    2C                          4344                                     1
 -1         1 9.81818E+01 3.13674E+01 0.00000E+00
 -1         2 1.10620E+02 2.69603E+01 0.00000E+00
 -1         3 1.50000E+02 0.00000E+00 0.00000E+00
 -1         4 1.50000E+02 5.00000E+01 0.00000E+00
 -1         5 0.00000E+00 0.00000E+00 0.00000E+00
 -1         6 0.00000E+00 5.00000E+01 0.00000E+00
 -1         7 0.00000E+00 4.70500E+01 0.00000E+00
 -1         8 0.00000E+00 4.41000E+01 0.00000E+00
 -1         9 0.00000E+00 4.11500E+01 0.00000E+00
 -1        10 0.00000E+00 3.82000E+01 0.00000E+00
 -1        11 0.00000E+00 3.52500E+01 0.00000E+00
 -1        12 0.00000E+00 3.23500E+01 0.00000E+00
 -1        13 0.00000E+00 2.94000E+01 0.00000E+00
 -1        14 0.00000E+00 2.64500E+01 0.00000E+00
 -1        15 0.00000E+00 2.35000E+01 0.00000E+00
 -1        16 0.00000E+00 2.05500E+01 0.00000E+00
 -1        17 0.00000E+00 1.76000E+01 0.00000E+00
 -1        18 0.00000E+00 1.47000E+01 0.00000E+00
 -1        19 0.00000E+00 1.17500E+01 0.00000E+00
 -1        20 0.00000E+00 8.80000E+00 0.00000E+00
 -1        21 0.00000E+00 5.85000E+00 0.00000E+00
 -1        22 0.00000E+00 2.90000E+00 0.00000E+00
 -1        23 3.15000E+00 5.00000E+01 0.00000E+00
 -1        24 6.15000E+00 5.00000E+01 0.00000E+00
 -1        25 9.15000E+00 5.00000E+01 0.00000E+00
 -1        26 1.21500E+01 5.00000E+01 0.00000E+00
 -1        27 1.51500E+01 5.00000E+01 0.00000E+00
 -1        28 1.81500E+01 5.00000E+01 0.00000E+00
 -1        29 2.11500E+01 5.00000E+01 0.00000E+00
 -1        30 2.41500E+01 5.00000E+01 0.00000E+00
 -1        31 2.71500E+01 5.00000E+01 0.00000E+00
 -1        32 3.01500E+01 5.00000E+01 0.00000E+00
 -1        33 3.31500E+01 5.00000E+01 0.00000E+00
 -1        34 3.61500E+01 5.00000E+01 0.00000E+00
 -1        35 3.91500E+01 5.00000E+01 0.00000E+00
 -1        36 4.21500E+01 5.00000E+01 0.00000E+00
 -1        37 4.51500E+01 5.00000E+01 0.00000E+00
 -1        38 4.81500E+01 5.00000E+01 0.00000E+00
 -1        39 5.11500E+01 5.00000E+01 0.00000E+00
 -1        40 5.41500E+01 5.00000E+01 0.00000E+00
 -1        41 5.71500E+01 5.00000E+01 0.00000E+00
 -1        42 6.01500E+01 5.00000E+01 0.00000E+00
 -1        43 6.31500E+01 5.00000E+01 0.00000E+00
 -1        44 6.61500E+01 5.00000E+01 0.00000E+00
 -1        45 6.91500E+01 5.00000E+01 0.00000E+00
 -1        46 7.21500E+01 5.00000E+01 0.00000E+00
 -1        47 7.51500E+01 5.00000E+01 0.00000E+00
 -1        48 7.81500E+01 5.00000E+01 0.00000E+00
 -1        49 8.11500E+01 5.00000E+01 0.00000E+00
 -1        50 8.41500E+01 5.00000E+01 0.00000E+00
 -1        51 8.71500E+01 5.00000E+01 0.00000E+00
 -1        52 9.01500E+01 5.00000E+01 0.00000E+00
 -1        53 9.31500E+01 5.00000E+01 0.00000E+00
 -1        54 9.61500E+01 5.00000E+01 0.00000E+00
 -1        55 9.91500E+01 5.00000E+01 0.00000E+00
 -1        56 1.02150E+02 5.00000E+01 0.00000E+00
 -1        57 1.05150E+02 5.00000E+01 0.00000E+00
 -1        58 1.08150E+02 5.00000E+01 0.00000E+00
 -1        59 1.11150E+02 5.00000E+01 0.00000E+00
 -1        60 1.14150E+02 5.00000E+01 0.00000E+00
 -1        61 1.17150E+02 5.00000E+01 0.00000E+00
 -1        62 1.20150E+02 5.00000E+01 0.00000E+00
 -1        63 1.23150E+02 5.00000E+01 0.00000E+00
 -1        64 1.26150E+02 5.00000E+01 0.00000E+00
 -1        65 1.29150E+02 5.00000E+01 0.00000E+00
 -1        66 1.32150E+02 5.00000E+01 0.00000E+00
 -1        67 1.35150E+02 5.00000E+01 0.00000E+00
 -1        68 1.38150E+02 5.00000E+01 0.00000E+00
 -1        69 1.41150E+02 5.00000E+01 0.00000E+00
 -1        70 1.44150E+02 5.00000E+01 0.00000E+00
 -1        71 1.47150E+02 5.00000E+01 0.00000E+00
 -1        72 3.15000E+00 0.00000E+00 0.00000E+00
 -1        73 6.15000E+00 0.00000E+00 0.00000E+00
 -1        74 9.15000E+00 0.00000E+00 0.00000E+00
 -1        75 1.21500E+01 0.00000E+00 0.00000E+00
 -1        76 1.51500E+01 0.00000E+00 0.00000E+00
 -1        77 1.81500E+01 0.00000E+00 0.00000E+00
 -1        78 2.11500E+01 0.00000E+00 0.00000E+00
 -1        79 2.41500E+01 0.00000E+00 0.00000E+00
 -1        80 2.71500E+01 0.00000E+00 0.00000E+00
 -1        81 3.01500E+01 0.00000E+00 0.00000E+00
 -1        82 3.31500E+01 0.00000E+00 0.00000E+00
 -1        83 3.61500E+01 0.00000E+00 0.00000E+00
 -1        84 3.91500E+01 0.00000E+00 0.00000E+00
 -1        85 4.21500E+01 0.00000E+00 0.00000E+00
 -1        86 4.51500E+01 0.00000E+00 0.00000E+00
 -1        87 4.81500E+01 0.00000E+00 0.00000E+00
 -1        88 5.11500E+01 0.00000E+00 0.00000E+00
 -1        89 5.41500E+01 0.00000E+00 0.00000E+00
 -1        90 5.71500E+01 0.00000E+00 0.00000E+00
 -1        91 6.01500E+01 0.00000E+00 0.00000E+00
 -1        92 6.31500E+01 0.00000E+00 0.00000E+00
 -1        93 6.61500E+01 0.00000E+00 0.00000E+00
 -1        94 6.91500E+01 0.00000E+00 0.00000E+00
 -1        95 7.21500E+01 0.00000E+00 0.00000E+00
 -1        96 7.51500E+01 0.00000E+00 0.00000E+00
 -1        97 7.81500E+01 0.00000E+00 0.00000E+00
 -1        98 8.11500E+01 0.00000E+00 0.00000E+00
 -1        99 8.41500E+01 0.00000E+00 0.00000E+00
 -1       100 8.71500E+01 0.00000E+00 0.00000E+00
 -1       101 9.01500E+01 0.00000E+00 0.00000E+00
 -1       102 9.31500E+01 0.00000E+00 0.00000E+00
 -1       103 9.61500E+01 0.00000E+00 0.00000E+00
 -1       104 9.91500E+01 0.00000E+00 0.00000E+00
 -1       105 1.02150E+02 0.00000E+00 0.00000E+00
 -1       106 1.05150E+02 0.00000E+00 0.00000E+00
 -1       107 1.08150E+02 0.00000E+00 0.00000E+00
 -1       108 1.11150E+02 0.00000E+00 0.00000E+00
 -1       109 1.14150E+02 0.00000E+00 0.00000E+00
 -1       110 1.17150E+02 0.00000E+00 0.00000E+00
 -1       111 1.20150E+02 0.00000E+00 0.00000E+00
 -1       112 1.23150E+02 0.00000E+00 0.00000E+00
 -1       113 1.26150E+02 0.00000E+00 0.00000E+00
 -1       114 1.29150E+02 0.00000E+00 0.00000E+00
 -1       115 1.32150E+02 0.00000E+00 0.00000E+00
 -1       116 1.35150E+02 0.00000E+00 0.00000E+00
 -1       117 1.38150E+02 0.00000E+00 0.00000E+00
 -1       118 1.41150E+02 0.00000E+00 0.00000E+00
 -1       119 1.44150E+02 0.00000E+00 0.00000E+00
 -1       120 1.47150E+02 0.00000E+00 0.00000E+00
 -1       121 1.50000E+02 2.95000E+00 0.00000E+00
 -1       122 1.50000E+02 5.90000E+00 0.00000E+00
 -1       123 1.50000E+02 8.85000E+00 0.00000E+00
 -1       124 1.50000E+02 1.18000E+01 0.00000E+00
 -1       125 1.50000E+02 1.47500E+01 0.00000E+00
 -1       126 1.50000E+02 1.76500E+01 0.00000E+00
 -1       127 1.50000E+02 2.06000E+01 0.00000E+00
 -1       128 1.50000E+02 2.35500E+01 0.00000E+00
 -1       129 1.50000E+02 2.65000E+01 0.00000E+00
 -1       130 1.50000E+02 2.94500E+01 0.00000E+00
 -1       131 1.50000E+02 3.24000E+01 0.00000E+00
 -1       132 1.50000E+02 3.53000E+01 0.00000E+00
 -1       133 1.50000E+02 3.82500E+01 0.00000E+00
 -1       134 1.50000E+02 4.12000E+01 0.00000E+00
 -1       135 1.50000E+02 4.41500E+01 0.00000E+00
 -1       136 1.50000E+02 4.71000E+01 0.00000E+00
 -1       137 1.10468E+02 2.55063E+01 0.00000E+00
 -1       138 1.10023E+02 2.41312E+01 0.00000E+00
 -1       139 1.09285E+02 2.28474E+01 0.00000E+00
 -1       140 1.08263E+02 2.17216E+01 0.00000E+00
 -1       141 1.07023E+02 2.08428E+01 0.00000E+00
 -1       142 1.05662E+02 2.02646E+01 0.00000E+00
 -1       143 1.04228E+02 1.99867E+01 0.00000E+00
 -1       144 1.02742E+02 2.00156E+01 0.00000E+00
 -1       145 1.01330E+02 2.03456E+01 0.00000E+00
 -1       146 9.99804E+01 2.09811E+01 0.00000E+00
 -1       147 9.87113E+01 2.19701E+01 0.00000E+00
 -1       148 9.77627E+01 2.31278E+01 0.00000E+00
 -1       149 9.70673E+01 2.44989E+01 0.00000E+00
 -1       150 9.66894E+01 2.59795E+01 0.00000E+00
 -1       151 9.66350E+01 2.74134E+01 0.00000E+00
 -1       152 9.68767E+01 2.88374E+01 0.00000E+00
 -1       153 9.74013E+01 3.01734E+01 0.00000E+00
 -1       154 9.92215E+01 3.24055E+01 0.00000E+00
 -1       155 1.00408E+02 3.31798E+01 0.00000E+00
 -1       156 1.01693E+02 3.36897E+01 0.00000E+00
 -1       157 1.03179E+02 3.39464E+01 0.00000E+00
 -1       158 1.04547E+02 3.38987E+01 0.00000E+00
 -1       159 1.05995E+02 3.35453E+01 0.00000E+00
 -1       160 1.07233E+02 3.29559E+01 0.00000E+00
 -1       161 1.08344E+02 3.21258E+01 0.00000E+00
 -1       162 1.09357E+02 3.09712E+01 0.00000E+00
 -1       163 1.10042E+02 2.97460E+01 0.00000E+00
 -1       164 1.10487E+02 2.83188E+01 0.00000E+00
 -1       165 2.59800E+00 4.55750E+01 0.00000E+00
 -1       166 2.59800E+00 4.26250E+01 0.00000E+00
 -1       167 2.59800E+00 3.96750E+01 0.00000E+00
 -1       168 2.59800E+00 3.67250E+01 0.00000E+00
 -1       169 2.59800E+00 3.38250E+01 0.00000E+00
 -1       170 2.59800E+00 3.08750E+01 0.00000E+00
 -1       171 2.59800E+00 2.79250E+01 0.00000E+00
 -1       172 2.59800E+00 2.49750E+01 0.00000E+00
 -1       173 2.59800E+00 2.20250E+01 0.00000E+00
 -1       174 2.59800E+00 1.90750E+01 0.00000E+00
 -1       175 2.59800E+00 1.61750E+01 0.00000E+00
 -1       176 2.59800E+00 1.32250E+01 0.00000E+00
 -1       177 2.59800E+00 1.02750E+01 0.00000E+00
 -1       178 2.59800E+00 7.32500E+00 0.00000E+00
 -1       179 2.59800E+00 4.37500E+00 0.00000E+00
 -1       180 2.87400E+00 2.18750E+00 0.00000E+00
 -1       181 4.65000E+00 4.74020E+01 0.00000E+00
 -1       182 7.65000E+00 4.74020E+01 0.00000E+00
 -1       183 1.06500E+01 4.74020E+01 0.00000E+00
 -1       184 1.36500E+01 4.74020E+01 0.00000E+00
 -1       185 1.66500E+01 4.74020E+01 0.00000E+00
 -1       186 1.96500E+01 4.74020E+01 0.00000E+00
 -1       187 2.26500E+01 4.74020E+01 0.00000E+00
 -1       188 2.56500E+01 4.74020E+01 0.00000E+00
 -1       189 2.86500E+01 4.74020E+01 0.00000E+00
 -1       190 3.16500E+01 4.74020E+01 0.00000E+00
 -1       191 3.46500E+01 4.74020E+01 0.00000E+00
 -1       192 3.76500E+01 4.74020E+01 0.00000E+00
 -1       193 4.06500E+01 4.74020E+01 0.00000E+00
 -1       194 4.36500E+01 4.74020E+01 0.00000E+00
 -1       195 4.66500E+01 4.74020E+01 0.00000E+00
 -1       196 4.96500E+01 4.74020E+01 0.00000E+00
 -1       197 5.26500E+01 4.74020E+01 0.00000E+00
 -1       198 5.56500E+01 4.74020E+01 0.00000E+00
 -1       199 5.86500E+01 4.74020E+01 0.00000E+00
 -1       200 6.16500E+01 4.74020E+01 0.00000E+00
 -1       201 6.46500E+01 4.74020E+01 0.00000E+00
 -1       202 6.76500E+01 4.74020E+01 0.00000E+00
 -1       203 7.06500E+01 4.74020E+01 0.00000E+00
 -1       204 7.36500E+01 4.74020E+01 0.00000E+00
 -1       205 7.66500E+01 4.74020E+01 0.00000E+00
 -1       206 7.96500E+01 4.74020E+01 0.00000E+00
 -1       207 8.26500E+01 4.74020E+01 0.00000E+00
 -1       208 8.56500E+01 4.74020E+01 0.00000E+00
 -1       209 8.86500E+01 4.74020E+01 0.00000E+00
 -1       210 9.16500E+01 4.74020E+01 0.00000E+00
 -1       211 9.46500E+01 4.74020E+01 0.00000E+00
 -1       212 9.76500E+01 4.74020E+01 0.00000E+00
 -1       213 1.00650E+02 4.74020E+01 0.00000E+00
 -1       214 1.03650E+02 4.74020E+01 0.00000E+00
 -1       215 1.06650E+02 4.74020E+01 0.00000E+00
 -1       216 1.09650E+02 4.74020E+01 0.00000E+00
 -1       217 1.12650E+02 4.74020E+01 0.00000E+00
 -1       218 1.15650E+02 4.74020E+01 0.00000E+00
 -1       219 1.18650E+02 4.74020E+01 0.00000E+00
 -1       220 1.21650E+02 4.74020E+01 0.00000E+00
 -1       221 1.24650E+02 4.74020E+01 0.00000E+00
 -1       222 1.27650E+02 4.74020E+01 0.00000E+00
 -1       223 1.30650E+02 4.74020E+01 0.00000E+00
 -1       224 1.33650E+02 4.74020E+01 0.00000E+00
 -1       225 1.36650E+02 4.74020E+01 0.00000E+00
 -1       226 1.39650E+02 4.74020E+01 0.00000E+00
 -1       227 1.42650E+02 4.74020E+01 0.00000E+00
 -1       228 1.45650E+02 4.74020E+01 0.00000E+00
 -1       229 5.87400E+00 2.18750E+00 0.00000E+00
 -1       230 8.87400E+00 2.18750E+00 0.00000E+00
 -1       231 1.18740E+01 2.18750E+00 0.00000E+00
 -1       232 1.48740E+01 2.18750E+00 0.00000E+00
 -1       233 1.78740E+01 2.18750E+00 0.00000E+00
 -1       234 2.08740E+01 2.18750E+00 0.00000E+00
 -1       235 2.38740E+01 2.18750E+00 0.00000E+00
 -1       236 2.68740E+01 2.18750E+00 0.00000E+00
 -1       237 2.98740E+01 2.18750E+00 0.00000E+00
 -1       238 3.28740E+01 2.18750E+00 0.00000E+00
 -1       239 3.58740E+01 2.18750E+00 0.00000E+00
 -1       240 3.88740E+01 2.18750E+00 0.00000E+00
 -1       241 4.18740E+01 2.18750E+00 0.00000E+00
 -1       242 4.48740E+01 2.18750E+00 0.00000E+00
 -1       243 4.78740E+01 2.18750E+00 0.00000E+00
 -1       244 5.08740E+01 2.18750E+00 0.00000E+00
 -1       245 5.38740E+01 2.18750E+00 0.00000E+00
 -1       246 5.68740E+01 2.18750E+00 0.00000E+00
 -1       247 5.98740E+01 2.18750E+00 0.00000E+00
 -1       248 6.28740E+01 2.18750E+00 0.00000E+00
 -1       249 6.58740E+01 2.18750E+00 0.00000E+00
 -1       250 6.88740E+01 2.18750E+00 0.00000E+00
 -1       251 7.18740E+01 2.18750E+00 0.00000E+00
 -1       252 7.48740E+01 2.18750E+00 0.00000E+00
 -1       253 7.78740E+01 2.18750E+00 0.00000E+00
 -1       254 8.08740E+01 2.18750E+00 0.00000E+00
 -1       255 8.38740E+01 2.18750E+00 0.00000E+00
 -1       256 8.68740E+01 2.18750E+00 0.00000E+00
 -1       257 8.98740E+01 2.18750E+00 0.00000E+00
 -1       258 9.28740E+01 2.18750E+00 0.00000E+00
 -1       259 9.58740E+01 2.18750E+00 0.00000E+00
 -1       260 9.88740E+01 2.18750E+00 0.00000E+00
 -1       261 1.01874E+02 2.18750E+00 0.00000E+00
 -1       262 1.04874E+02 2.18750E+00 0.00000E+00
 -1       263 1.07874E+02 2.18750E+00 0.00000E+00
 -1       264 1.10874E+02 2.18750E+00 0.00000E+00
 -1       265 1.13874E+02 2.18750E+00 0.00000E+00
 -1       266 1.16874E+02 2.18750E+00 0.00000E+00
 -1       267 1.19874E+02 2.18750E+00 0.00000E+00
 -1       268 1.22874E+02 2.18750E+00 0.00000E+00
 -1       269 1.25874E+02 2.18750E+00 0.00000E+00
 -1       270 1.28874E+02 2.18750E+00 0.00000E+00
 -1       271 1.31874E+02 2.18750E+00 0.00000E+00
 -1       272 1.34874E+02 2.18750E+00 0.00000E+00
 -1       273 1.37874E+02 2.18750E+00 0.00000E+00
 -1       274 1.40874E+02 2.18750E+00 0.00000E+00
 -1       275 1.43874E+02 2.18750E+00 0.00000E+00
 -1       276 1.46874E+02 2.18750E+00 0.00000E+00
 -1       277 1.47402E+02 4.42500E+00 0.00000E+00
 -1       278 1.47402E+02 7.37500E+00 0.00000E+00
 -1       279 1.47402E+02 1.03250E+01 0.00000E+00
 -1       280 1.47402E+02 1.32750E+01 0.00000E+00
 -1       281 1.47402E+02 1.61750E+01 0.00000E+00
 -1       282 1.47402E+02 1.91250E+01 0.00000E+00
 -1       283 1.47402E+02 2.20750E+01 0.00000E+00
 -1       284 1.47402E+02 2.50250E+01 0.00000E+00
 -1       285 1.47402E+02 2.79750E+01 0.00000E+00
 -1       286 1.47402E+02 3.09250E+01 0.00000E+00
 -1       287 1.47402E+02 3.38250E+01 0.00000E+00
 -1       288 1.47402E+02 3.67750E+01 0.00000E+00
 -1       289 1.47402E+02 3.97250E+01 0.00000E+00
 -1       290 1.47402E+02 4.26750E+01 0.00000E+00
 -1       291 1.46526E+02 4.50385E+01 0.00000E+00
 -1       292 1.11750E+02 2.61067E+01 0.00000E+00
 -1       293 1.11399E+02 2.44458E+01 0.00000E+00
 -1       294 1.10777E+02 2.28429E+01 0.00000E+00
 -1       295 1.09672E+02 2.14699E+01 0.00000E+00
 -1       296 1.08441E+02 2.01562E+01 0.00000E+00
 -1       297 1.06849E+02 1.93607E+01 0.00000E+00
 -1       298 1.05175E+02 1.89354E+01 0.00000E+00
 -1       299 1.03459E+02 1.87052E+01 0.00000E+00
 -1       300 1.01760E+02 1.90000E+01 0.00000E+00
 -1       301 1.00139E+02 1.95665E+01 0.00000E+00
 -1       302 9.84976E+01 2.03872E+01 0.00000E+00
 -1       303 9.72992E+01 2.17805E+01 0.00000E+00
 -1       304 9.61843E+01 2.31892E+01 0.00000E+00
 -1       305 9.55413E+01 2.48979E+01 0.00000E+00
 -1       306 9.54507E+01 2.66505E+01 0.00000E+00
 -1       307 9.54779E+01 2.83423E+01 0.00000E+00
 -1       308 9.60105E+01 2.99486E+01 0.00000E+00
 -1       309 9.67768E+01 3.14338E+01 0.00000E+00
 -1       310 9.77858E+01 3.28037E+01 0.00000E+00
 -1       311 9.90608E+01 3.39484E+01 0.00000E+00
 -1       312 1.00603E+02 3.45616E+01 0.00000E+00
 -1       313 1.02215E+02 3.50953E+01 0.00000E+00
 -1       314 1.03905E+02 3.51342E+01 0.00000E+00
 -1       315 1.05598E+02 3.50626E+01 0.00000E+00
 -1       316 1.07135E+02 3.43453E+01 0.00000E+00
 -1       317 1.08514E+02 3.35122E+01 0.00000E+00
 -1       318 1.09888E+02 3.24585E+01 0.00000E+00
 -1       319 1.10758E+02 3.09501E+01 0.00000E+00
 -1       320 1.11502E+02 2.94183E+01 0.00000E+00
 -1       321 1.11760E+02 2.77578E+01 0.00000E+00
 -1       322 5.19600E+00 4.11500E+01 0.00000E+00
 -1       323 5.19600E+00 4.41000E+01 0.00000E+00
 -1       324 5.19600E+00 3.52750E+01 0.00000E+00
 -1       325 5.19600E+00 3.23250E+01 0.00000E+00
 -1       326 5.19600E+00 2.93750E+01 0.00000E+00
 -1       327 5.19600E+00 2.64250E+01 0.00000E+00
 -1       328 5.19600E+00 2.34750E+01 0.00000E+00
 -1       329 5.19600E+00 2.05250E+01 0.00000E+00
 -1       330 5.19600E+00 1.76250E+01 0.00000E+00
 -1       331 5.19600E+00 1.46750E+01 0.00000E+00
 -1       332 5.19600E+00 1.17250E+01 0.00000E+00
 -1       333 5.19600E+00 8.77500E+00 0.00000E+00
 -1       334 5.19600E+00 5.82500E+00 0.00000E+00
 -1       335 5.53500E+00 4.00625E+00 0.00000E+00
 -1       336 8.53500E+00 4.00625E+00 0.00000E+00
 -1       337 9.15000E+00 4.48040E+01 0.00000E+00
 -1       338 1.21500E+01 4.48040E+01 0.00000E+00
 -1       339 1.51500E+01 4.48040E+01 0.00000E+00
 -1       340 1.81500E+01 4.48040E+01 0.00000E+00
 -1       341 2.11500E+01 4.48040E+01 0.00000E+00
 -1       342 2.41500E+01 4.48040E+01 0.00000E+00
 -1       343 2.71500E+01 4.48040E+01 0.00000E+00
 -1       344 3.01500E+01 4.48040E+01 0.00000E+00
 -1       345 3.31500E+01 4.48040E+01 0.00000E+00
 -1       346 3.61500E+01 4.48040E+01 0.00000E+00
 -1       347 3.91500E+01 4.48040E+01 0.00000E+00
 -1       348 4.21500E+01 4.48040E+01 0.00000E+00
 -1       349 4.51500E+01 4.48040E+01 0.00000E+00
 -1       350 4.81500E+01 4.48040E+01 0.00000E+00
 -1       351 5.11500E+01 4.48040E+01 0.00000E+00
 -1       352 5.41500E+01 4.48040E+01 0.00000E+00
 -1       353 5.71500E+01 4.48040E+01 0.00000E+00
 -1       354 6.01500E+01 4.48040E+01 0.00000E+00
 -1       355 6.31500E+01 4.48040E+01 0.00000E+00
 -1       356 6.61500E+01 4.48040E+01 0.00000E+00
 -1       357 6.91500E+01 4.48040E+01 0.00000E+00
 -1       358 7.21500E+01 4.48040E+01 0.00000E+00
 -1       359 7.51500E+01 4.48040E+01 0.00000E+00
 -1       360 7.81500E+01 4.48040E+01 0.00000E+00
 -1       361 8.11500E+01 4.48040E+01 0.00000E+00
 -1       362 8.41500E+01 4.48040E+01 0.00000E+00
 -1       363 8.71500E+01 4.48040E+01 0.00000E+00
 -1       364 9.01500E+01 4.48040E+01 0.00000E+00
 -1       365 9.31500E+01 4.48040E+01 0.00000E+00
 -1       366 9.61500E+01 4.48040E+01 0.00000E+00
 -1       367 9.91500E+01 4.48040E+01 0.00000E+00
 -1       368 1.02150E+02 4.48040E+01 0.00000E+00
 -1       369 1.05150E+02 4.48040E+01 0.00000E+00
 -1       370 1.08150E+02 4.48040E+01 0.00000E+00
 -1       371 1.11150E+02 4.48040E+01 0.00000E+00
 -1       372 1.14150E+02 4.48040E+01 0.00000E+00
 -1       373 1.17150E+02 4.48040E+01 0.00000E+00
 -1       374 1.20150E+02 4.48040E+01 0.00000E+00
 -1       375 1.23150E+02 4.48040E+01 0.00000E+00
 -1       376 1.26150E+02 4.48040E+01 0.00000E+00
 -1       377 1.29150E+02 4.48040E+01 0.00000E+00
 -1       378 1.32150E+02 4.48040E+01 0.00000E+00
 -1       379 1.35150E+02 4.48040E+01 0.00000E+00
 -1       380 1.38150E+02 4.48040E+01 0.00000E+00
 -1       381 1.41150E+02 4.48040E+01 0.00000E+00
 -1       382 1.43838E+02 4.49212E+01 0.00000E+00
 -1       383 1.15350E+01 4.00625E+00 0.00000E+00
 -1       384 1.45350E+01 4.00625E+00 0.00000E+00
 -1       385 1.75350E+01 4.00625E+00 0.00000E+00
 -1       386 2.05350E+01 4.00625E+00 0.00000E+00
 -1       387 2.35350E+01 4.00625E+00 0.00000E+00
 -1       388 2.65350E+01 4.00625E+00 0.00000E+00
 -1       389 2.95350E+01 4.00625E+00 0.00000E+00
 -1       390 3.25350E+01 4.00625E+00 0.00000E+00
 -1       391 3.55350E+01 4.00625E+00 0.00000E+00
 -1       392 3.85350E+01 4.00625E+00 0.00000E+00
 -1       393 4.15350E+01 4.00625E+00 0.00000E+00
 -1       394 4.45350E+01 4.00625E+00 0.00000E+00
 -1       395 4.75350E+01 4.00625E+00 0.00000E+00
 -1       396 5.05350E+01 4.00625E+00 0.00000E+00
 -1       397 5.35350E+01 4.00625E+00 0.00000E+00
 -1       398 5.65350E+01 4.00625E+00 0.00000E+00
 -1       399 5.95350E+01 4.00625E+00 0.00000E+00
 -1       400 6.25350E+01 4.00625E+00 0.00000E+00
 -1       401 6.55350E+01 4.00625E+00 0.00000E+00
 -1       402 6.85350E+01 4.00625E+00 0.00000E+00
 -1       403 7.15350E+01 4.00625E+00 0.00000E+00
 -1       404 7.45350E+01 4.00625E+00 0.00000E+00
 -1       405 7.75350E+01 4.00625E+00 0.00000E+00
 -1       406 8.05350E+01 4.00625E+00 0.00000E+00
 -1       407 8.35350E+01 4.00625E+00 0.00000E+00
 -1       408 8.65350E+01 4.00625E+00 0.00000E+00
 -1       409 8.95350E+01 4.00625E+00 0.00000E+00
 -1       410 9.25350E+01 4.00625E+00 0.00000E+00
 -1       411 9.55350E+01 4.00625E+00 0.00000E+00
 -1       412 9.85350E+01 4.00625E+00 0.00000E+00
 -1       413 1.01535E+02 4.00625E+00 0.00000E+00
 -1       414 1.04535E+02 4.00625E+00 0.00000E+00
 -1       415 1.07535E+02 4.00625E+00 0.00000E+00
 -1       416 1.10535E+02 4.00625E+00 0.00000E+00
 -1       417 1.13535E+02 4.00625E+00 0.00000E+00
 -1       418 1.16535E+02 4.00625E+00 0.00000E+00
 -1       419 1.19535E+02 4.00625E+00 0.00000E+00
 -1       420 1.22535E+02 4.00625E+00 0.00000E+00
 -1       421 1.25535E+02 4.00625E+00 0.00000E+00
 -1       422 1.28535E+02 4.00625E+00 0.00000E+00
 -1       423 1.31535E+02 4.00625E+00 0.00000E+00
 -1       424 1.34535E+02 4.00625E+00 0.00000E+00
 -1       425 1.37535E+02 4.00625E+00 0.00000E+00
 -1       426 1.40535E+02 4.00625E+00 0.00000E+00
 -1       427 1.43535E+02 4.00625E+00 0.00000E+00
 -1       428 1.45469E+02 4.21562E+00 0.00000E+00
 -1       429 1.44804E+02 1.18000E+01 0.00000E+00
 -1       430 1.44804E+02 8.85000E+00 0.00000E+00
 -1       431 1.45136E+02 6.53281E+00 0.00000E+00
 -1       432 1.44804E+02 1.47000E+01 0.00000E+00
 -1       433 1.44804E+02 1.76500E+01 0.00000E+00
 -1       434 1.44804E+02 2.06000E+01 0.00000E+00
 -1       435 1.44804E+02 2.35500E+01 0.00000E+00
 -1       436 1.44804E+02 2.65000E+01 0.00000E+00
 -1       437 1.44804E+02 2.94500E+01 0.00000E+00
 -1       438 1.44804E+02 3.23500E+01 0.00000E+00
 -1       439 1.44804E+02 3.53000E+01 0.00000E+00
 -1       440 1.44804E+02 3.82500E+01 0.00000E+00
 -1       441 1.44804E+02 4.12000E+01 0.00000E+00
 -1       442 1.12375E+02 2.31454E+01 0.00000E+00
 -1       443 1.13051E+02 2.69239E+01 0.00000E+00
 -1       444 1.12925E+02 2.49911E+01 0.00000E+00
 -1       445 1.11561E+02 2.10808E+01 0.00000E+00
 -1       446 1.10329E+02 1.97671E+01 0.00000E+00
 -1       447 5.19600E+00 3.82125E+01 0.00000E+00
 -1       448 1.06352E+02 1.78106E+01 0.00000E+00
 -1       449 1.04501E+02 1.74526E+01 0.00000E+00
 -1       450 1.02345E+02 1.73278E+01 0.00000E+00
 -1       451 1.00439E+02 1.78223E+01 0.00000E+00
 -1       452 9.86634E+01 1.86676E+01 0.00000E+00
 -1       453 9.67251E+01 2.00747E+01 0.00000E+00
 -1       454 9.56101E+01 2.14834E+01 0.00000E+00
 -1       455 9.42576E+01 2.34395E+01 0.00000E+00
 -1       456 9.37831E+01 2.56856E+01 0.00000E+00
 -1       457 9.38104E+01 2.73774E+01 0.00000E+00
 -1       458 9.41958E+01 2.96588E+01 0.00000E+00
 -1       459 9.49620E+01 3.11440E+01 0.00000E+00
 -1       460 9.62377E+01 3.28875E+01 0.00000E+00
 -1       461 9.75574E+01 3.43406E+01 0.00000E+00
 -1       462 9.93531E+01 3.54595E+01 0.00000E+00
 -1       463 1.00976E+02 3.61385E+01 0.00000E+00
 -1       464 1.03025E+02 3.66619E+01 0.00000E+00
 -1       465 1.04718E+02 3.65903E+01 0.00000E+00
 -1       466 1.06950E+02 3.59544E+01 0.00000E+00
 -1       467 1.08330E+02 3.51213E+01 0.00000E+00
 -1       468 1.10041E+02 3.40804E+01 0.00000E+00
 -1       469 1.11591E+02 3.24355E+01 0.00000E+00
 -1       470 1.12335E+02 3.09036E+01 0.00000E+00
 -1       471 1.12912E+02 2.87873E+01 0.00000E+00
 -1       472 1.08337E+02 1.83742E+01 0.00000E+00
 -1       473 1.00350E+01 6.60425E+00 0.00000E+00
 -1       474 7.79400E+00 3.08500E+01 0.00000E+00
 -1       475 7.79400E+00 3.38000E+01 0.00000E+00
 -1       476 7.79400E+00 2.49500E+01 0.00000E+00
 -1       477 7.79400E+00 2.20000E+01 0.00000E+00
 -1       478 7.79400E+00 1.91000E+01 0.00000E+00
 -1       479 7.79400E+00 1.61500E+01 0.00000E+00
 -1       480 7.79400E+00 1.32000E+01 0.00000E+00
 -1       481 7.79400E+00 1.02500E+01 0.00000E+00
 -1       482 1.30350E+01 6.60425E+00 0.00000E+00
 -1       483 1.06500E+01 4.22060E+01 0.00000E+00
 -1       484 1.10508E+02 1.73902E+01 0.00000E+00
 -1       485 1.36500E+01 4.22060E+01 0.00000E+00
 -1       486 1.66500E+01 4.22060E+01 0.00000E+00
 -1       487 1.96500E+01 4.22060E+01 0.00000E+00
 -1       488 2.26500E+01 4.22060E+01 0.00000E+00
 -1       489 2.56500E+01 4.22060E+01 0.00000E+00
 -1       490 2.86500E+01 4.22060E+01 0.00000E+00
 -1       491 3.16500E+01 4.22060E+01 0.00000E+00
 -1       492 3.46500E+01 4.22060E+01 0.00000E+00
 -1       493 3.76500E+01 4.22060E+01 0.00000E+00
 -1       494 4.06500E+01 4.22060E+01 0.00000E+00
 -1       495 4.36500E+01 4.22060E+01 0.00000E+00
 -1       496 4.66500E+01 4.22060E+01 0.00000E+00
 -1       497 4.96500E+01 4.22060E+01 0.00000E+00
 -1       498 5.26500E+01 4.22060E+01 0.00000E+00
 -1       499 5.56500E+01 4.22060E+01 0.00000E+00
 -1       500 5.86500E+01 4.22060E+01 0.00000E+00
 -1       501 6.16500E+01 4.22060E+01 0.00000E+00
 -1       502 6.46500E+01 4.22060E+01 0.00000E+00
 -1       503 6.76500E+01 4.22060E+01 0.00000E+00
 -1       504 7.06500E+01 4.22060E+01 0.00000E+00
 -1       505 7.36500E+01 4.22060E+01 0.00000E+00
 -1       506 7.66500E+01 4.22060E+01 0.00000E+00
 -1       507 7.96500E+01 4.22060E+01 0.00000E+00
 -1       508 8.26500E+01 4.22060E+01 0.00000E+00
 -1       509 8.56500E+01 4.22060E+01 0.00000E+00
 -1       510 8.86500E+01 4.22060E+01 0.00000E+00
 -1       511 9.16500E+01 4.22060E+01 0.00000E+00
 -1       512 9.46500E+01 4.22060E+01 0.00000E+00
 -1       513 9.76500E+01 4.22060E+01 0.00000E+00
 -1       514 1.00650E+02 4.22060E+01 0.00000E+00
 -1       515 1.03650E+02 4.22060E+01 0.00000E+00
 -1       516 1.06650E+02 4.22060E+01 0.00000E+00
 -1       517 1.09650E+02 4.22060E+01 0.00000E+00
 -1       518 1.12650E+02 4.22060E+01 0.00000E+00
 -1       519 1.15650E+02 4.22060E+01 0.00000E+00
 -1       520 1.18650E+02 4.22060E+01 0.00000E+00
 -1       521 1.21650E+02 4.22060E+01 0.00000E+00
 -1       522 1.24650E+02 4.22060E+01 0.00000E+00
 -1       523 1.27650E+02 4.22060E+01 0.00000E+00
 -1       524 1.30650E+02 4.22060E+01 0.00000E+00
 -1       525 1.33650E+02 4.22060E+01 0.00000E+00
 -1       526 1.36650E+02 4.22060E+01 0.00000E+00
 -1       527 1.39650E+02 4.22060E+01 0.00000E+00
 -1       528 1.90350E+01 6.60425E+00 0.00000E+00
 -1       529 2.20350E+01 6.60425E+00 0.00000E+00
 -1       530 2.50350E+01 6.60425E+00 0.00000E+00
 -1       531 2.80350E+01 6.60425E+00 0.00000E+00
 -1       532 3.10350E+01 6.60425E+00 0.00000E+00
 -1       533 3.40350E+01 6.60425E+00 0.00000E+00
 -1       534 3.70350E+01 6.60425E+00 0.00000E+00
 -1       535 4.00350E+01 6.60425E+00 0.00000E+00
 -1       536 4.30350E+01 6.60425E+00 0.00000E+00
 -1       537 4.60350E+01 6.60425E+00 0.00000E+00
 -1       538 4.90350E+01 6.60425E+00 0.00000E+00
 -1       539 5.20350E+01 6.60425E+00 0.00000E+00
 -1       540 5.50350E+01 6.60425E+00 0.00000E+00
 -1       541 5.80350E+01 6.60425E+00 0.00000E+00
 -1       542 6.10350E+01 6.60425E+00 0.00000E+00
 -1       543 6.40350E+01 6.60425E+00 0.00000E+00
 -1       544 6.70350E+01 6.60425E+00 0.00000E+00
 -1       545 7.00350E+01 6.60425E+00 0.00000E+00
 -1       546 7.30350E+01 6.60425E+00 0.00000E+00
 -1       547 7.60350E+01 6.60425E+00 0.00000E+00
 -1       548 7.90350E+01 6.60425E+00 0.00000E+00
 -1       549 8.20350E+01 6.60425E+00 0.00000E+00
 -1       550 8.50350E+01 6.60425E+00 0.00000E+00
 -1       551 8.80350E+01 6.60425E+00 0.00000E+00
 -1       552 9.10350E+01 6.60425E+00 0.00000E+00
 -1       553 9.40350E+01 6.60425E+00 0.00000E+00
 -1       554 9.70350E+01 6.60425E+00 0.00000E+00
 -1       555 1.00035E+02 6.60425E+00 0.00000E+00
 -1       556 1.03035E+02 6.60425E+00 0.00000E+00
 -1       557 1.06035E+02 6.60425E+00 0.00000E+00
 -1       558 1.09035E+02 6.60425E+00 0.00000E+00
 -1       559 1.12035E+02 6.60425E+00 0.00000E+00
 -1       560 1.15035E+02 6.60425E+00 0.00000E+00
 -1       561 1.18035E+02 6.60425E+00 0.00000E+00
 -1       562 1.21035E+02 6.60425E+00 0.00000E+00
 -1       563 1.24035E+02 6.60425E+00 0.00000E+00
 -1       564 1.27035E+02 6.60425E+00 0.00000E+00
 -1       565 1.30035E+02 6.60425E+00 0.00000E+00
 -1       566 1.33035E+02 6.60425E+00 0.00000E+00
 -1       567 1.36035E+02 6.60425E+00 0.00000E+00
 -1       568 1.39035E+02 6.60425E+00 0.00000E+00
 -1       569 1.42035E+02 6.60425E+00 0.00000E+00
 -1       570 1.42206E+02 1.61750E+01 0.00000E+00
 -1       571 1.42206E+02 1.91250E+01 0.00000E+00
 -1       572 1.42206E+02 1.03250E+01 0.00000E+00
 -1       573 1.42206E+02 1.32500E+01 0.00000E+00
 -1       574 1.42206E+02 2.20750E+01 0.00000E+00
 -1       575 1.42206E+02 2.50250E+01 0.00000E+00
 -1       576 1.42206E+02 2.79750E+01 0.00000E+00
 -1       577 1.42206E+02 3.08750E+01 0.00000E+00
 -1       578 1.42206E+02 3.38250E+01 0.00000E+00
 -1       579 1.42206E+02 3.67750E+01 0.00000E+00
 -1       580 1.42206E+02 3.97250E+01 0.00000E+00
 -1       581 1.14699E+02 2.58454E+01 0.00000E+00
 -1       582 1.13485E+02 2.15146E+01 0.00000E+00
 -1       583 1.60350E+01 6.60425E+00 0.00000E+00
 -1       584 1.14608E+02 2.79771E+01 0.00000E+00
 -1       585 1.12196E+02 1.92511E+01 0.00000E+00
 -1       586 7.92300E+00 4.16780E+01 0.00000E+00
 -1       587 1.10033E+02 3.59946E+01 0.00000E+00
 -1       588 1.01576E+02 3.80620E+01 0.00000E+00
 -1       589 9.36610E+01 2.15813E+01 0.00000E+00
 -1       590 9.67359E+01 1.80510E+01 0.00000E+00
 -1       591 7.79400E+00 2.79000E+01 0.00000E+00
 -1       592 1.03522E+02 1.56780E+01 0.00000E+00
 -1       593 9.23423E+01 2.42081E+01 0.00000E+00
 -1       594 1.05736E+02 1.60299E+01 0.00000E+00
 -1       595 1.00919E+02 1.57527E+01 0.00000E+00
 -1       596 9.88499E+01 1.67720E+01 0.00000E+00
 -1       597 9.47760E+01 2.01726E+01 0.00000E+00
 -1       598 9.56279E+01 3.47671E+01 0.00000E+00
 -1       599 9.20819E+01 2.65592E+01 0.00000E+00
 -1       600 9.24673E+01 2.88406E+01 0.00000E+00
 -1       601 9.31292E+01 3.11494E+01 0.00000E+00
 -1       602 1.11942E+02 3.43193E+01 0.00000E+00
 -1       603 9.43523E+01 3.30237E+01 0.00000E+00
 -1       604 9.76368E+01 3.62135E+01 0.00000E+00
 -1       605 9.95346E+01 3.73039E+01 0.00000E+00
 -1       606 1.03930E+02 3.80048E+01 0.00000E+00
 -1       607 1.06258E+02 3.77607E+01 0.00000E+00
 -1       608 1.08654E+02 3.68278E+01 0.00000E+00
 -1       609 1.13280E+02 3.23091E+01 0.00000E+00
 -1       610 1.14117E+02 3.02523E+01 0.00000E+00
 -1       611 1.07721E+02 1.65935E+01 0.00000E+00
 -1       612 7.61550E+00 6.21462E+00 0.00000E+00
 -1       613 1.14133E+02 2.36265E+01 0.00000E+00
 -1       614 7.79400E+00 3.67375E+01 0.00000E+00
 -1       615 7.85850E+00 3.92077E+01 0.00000E+00
 -1       616 9.47868E+01 1.81489E+01 0.00000E+00
 -1       617 9.17457E+01 2.23499E+01 0.00000E+00
 -1       618 1.41678E+02 4.22645E+01 0.00000E+00
 -1       619 1.03920E+01 2.05500E+01 0.00000E+00
 -1       620 1.03920E+01 2.35000E+01 0.00000E+00
 -1       621 1.03920E+01 1.46750E+01 0.00000E+00
 -1       622 1.03920E+01 1.17250E+01 0.00000E+00
 -1       623 1.15350E+01 9.20225E+00 0.00000E+00
 -1       624 1.39206E+02 1.03250E+01 0.00000E+00
 -1       625 1.10403E+02 3.81661E+01 0.00000E+00
 -1       626 1.12313E+02 3.64908E+01 0.00000E+00
 -1       627 1.51500E+01 3.96080E+01 0.00000E+00
 -1       628 1.81500E+01 3.96080E+01 0.00000E+00
 -1       629 2.11500E+01 3.96080E+01 0.00000E+00
 -1       630 2.41500E+01 3.96080E+01 0.00000E+00
 -1       631 2.71500E+01 3.96080E+01 0.00000E+00
 -1       632 3.01500E+01 3.96080E+01 0.00000E+00
 -1       633 3.31500E+01 3.96080E+01 0.00000E+00
 -1       634 3.61500E+01 3.96080E+01 0.00000E+00
 -1       635 3.91500E+01 3.96080E+01 0.00000E+00
 -1       636 4.21500E+01 3.96080E+01 0.00000E+00
 -1       637 4.51500E+01 3.96080E+01 0.00000E+00
 -1       638 4.81500E+01 3.96080E+01 0.00000E+00
 -1       639 5.11500E+01 3.96080E+01 0.00000E+00
 -1       640 5.41500E+01 3.96080E+01 0.00000E+00
 -1       641 5.71500E+01 3.96080E+01 0.00000E+00
 -1       642 6.01500E+01 3.96080E+01 0.00000E+00
 -1       643 6.31500E+01 3.96080E+01 0.00000E+00
 -1       644 6.61500E+01 3.96080E+01 0.00000E+00
 -1       645 6.91500E+01 3.96080E+01 0.00000E+00
 -1       646 7.21500E+01 3.96080E+01 0.00000E+00
 -1       647 7.51500E+01 3.96080E+01 0.00000E+00
 -1       648 7.81500E+01 3.96080E+01 0.00000E+00
 -1       649 8.11500E+01 3.96080E+01 0.00000E+00
 -1       650 8.41500E+01 3.96080E+01 0.00000E+00
 -1       651 8.71500E+01 3.96080E+01 0.00000E+00
 -1       652 9.01500E+01 3.96080E+01 0.00000E+00
 -1       653 9.31500E+01 3.96080E+01 0.00000E+00
 -1       654 9.61500E+01 3.96080E+01 0.00000E+00
 -1       655 9.91500E+01 4.01557E+01 0.00000E+00
 -1       656 1.02150E+02 3.98206E+01 0.00000E+00
 -1       657 1.05150E+02 4.01557E+01 0.00000E+00
 -1       658 1.08150E+02 3.96530E+01 0.00000E+00
 -1       659 1.17150E+02 3.96080E+01 0.00000E+00
 -1       660 1.20150E+02 3.96080E+01 0.00000E+00
 -1       661 1.23150E+02 3.96080E+01 0.00000E+00
 -1       662 1.26150E+02 3.96080E+01 0.00000E+00
 -1       663 1.29150E+02 3.96080E+01 0.00000E+00
 -1       664 1.32150E+02 3.96080E+01 0.00000E+00
 -1       665 1.35150E+02 3.96080E+01 0.00000E+00
 -1       666 1.38150E+02 3.96080E+01 0.00000E+00
 -1       667 2.35350E+01 9.20225E+00 0.00000E+00
 -1       668 1.40178E+02 3.96665E+01 0.00000E+00
 -1       669 2.05350E+01 9.20225E+00 0.00000E+00
 -1       670 2.95350E+01 9.20225E+00 0.00000E+00
 -1       671 3.25350E+01 9.20225E+00 0.00000E+00
 -1       672 3.55350E+01 9.20225E+00 0.00000E+00
 -1       673 3.85350E+01 9.20225E+00 0.00000E+00
 -1       674 4.15350E+01 9.20225E+00 0.00000E+00
 -1       675 4.45350E+01 9.20225E+00 0.00000E+00
 -1       676 4.75350E+01 9.20225E+00 0.00000E+00
 -1       677 5.05350E+01 9.20225E+00 0.00000E+00
 -1       678 5.35350E+01 9.20225E+00 0.00000E+00
 -1       679 5.65350E+01 9.20225E+00 0.00000E+00
 -1       680 5.95350E+01 9.20225E+00 0.00000E+00
 -1       681 6.25350E+01 9.20225E+00 0.00000E+00
 -1       682 6.55350E+01 9.20225E+00 0.00000E+00
 -1       683 6.85350E+01 9.20225E+00 0.00000E+00
 -1       684 7.15350E+01 9.20225E+00 0.00000E+00
 -1       685 7.45350E+01 9.20225E+00 0.00000E+00
 -1       686 7.75350E+01 9.20225E+00 0.00000E+00
 -1       687 8.05350E+01 9.20225E+00 0.00000E+00
 -1       688 8.35350E+01 9.20225E+00 0.00000E+00
 -1       689 8.65350E+01 9.20225E+00 0.00000E+00
 -1       690 8.95350E+01 9.20225E+00 0.00000E+00
 -1       691 9.25350E+01 9.20225E+00 0.00000E+00
 -1       692 9.55350E+01 9.20225E+00 0.00000E+00
 -1       693 9.85350E+01 9.20225E+00 0.00000E+00
 -1       694 1.01535E+02 9.20225E+00 0.00000E+00
 -1       695 1.04535E+02 9.20225E+00 0.00000E+00
 -1       696 1.07535E+02 9.20225E+00 0.00000E+00
 -1       697 1.10535E+02 9.20225E+00 0.00000E+00
 -1       698 1.13535E+02 9.20225E+00 0.00000E+00
 -1       699 1.16535E+02 9.20225E+00 0.00000E+00
 -1       700 1.19535E+02 9.20225E+00 0.00000E+00
 -1       701 1.22535E+02 9.20225E+00 0.00000E+00
 -1       702 1.25535E+02 9.20225E+00 0.00000E+00
 -1       703 1.28535E+02 9.20225E+00 0.00000E+00
 -1       704 1.31535E+02 9.20225E+00 0.00000E+00
 -1       705 1.34535E+02 9.20225E+00 0.00000E+00
 -1       706 1.36870E+02 9.76363E+00 0.00000E+00
 -1       707 1.14622E+02 1.93683E+01 0.00000E+00
 -1       708 1.39608E+02 2.35500E+01 0.00000E+00
 -1       709 1.39608E+02 1.76500E+01 0.00000E+00
 -1       710 1.39608E+02 2.65000E+01 0.00000E+00
 -1       711 1.39608E+02 2.06000E+01 0.00000E+00
 -1       712 9.36735E+01 3.48587E+01 0.00000E+00
 -1       713 1.39608E+02 2.94000E+01 0.00000E+00
 -1       714 1.39608E+02 3.23500E+01 0.00000E+00
 -1       715 1.39608E+02 3.53000E+01 0.00000E+00
 -1       716 1.16240E+02 2.42702E+01 0.00000E+00
 -1       717 1.05855E+01 3.97357E+01 0.00000E+00
 -1       718 1.07174E+02 1.47424E+01 0.00000E+00
 -1       719 9.28736E+01 1.98125E+01 0.00000E+00
 -1       720 1.16367E+02 2.69843E+01 0.00000E+00
 -1       721 1.16039E+02 2.94770E+01 0.00000E+00
 -1       722 9.89787E+01 1.44231E+01 0.00000E+00
 -1       723 1.75350E+01 9.20225E+00 0.00000E+00
 -1       724 2.65350E+01 9.20225E+00 0.00000E+00
 -1       725 1.28678E+01 3.96719E+01 0.00000E+00
 -1       726 9.11495E+01 3.04676E+01 0.00000E+00
 -1       727 1.45350E+01 9.20225E+00 0.00000E+00
 -1       728 1.03920E+01 1.76125E+01 0.00000E+00
 -1       729 9.01743E+01 2.51580E+01 0.00000E+00
 -1       730 1.15593E+02 2.21582E+01 0.00000E+00
 -1       731 9.56792E+01 3.68142E+01 0.00000E+00
 -1       732 1.03920E+01 3.23250E+01 0.00000E+00
 -1       733 1.09586E+02 1.53428E+01 0.00000E+00
 -1       734 9.05834E+01 2.79855E+01 0.00000E+00
 -1       735 1.12746E+02 1.70555E+01 0.00000E+00
 -1       736 9.23745E+01 3.29781E+01 0.00000E+00
 -1       737 9.75643E+01 3.85364E+01 0.00000E+00
 -1       738 1.15209E+02 3.18955E+01 0.00000E+00
 -1       739 9.68647E+01 1.57021E+01 0.00000E+00
 -1       740 9.99580E+01 3.92907E+01 0.00000E+00
 -1       741 1.14039E+02 3.42643E+01 0.00000E+00
 -1       742 1.02167E+02 1.38334E+01 0.00000E+00
 -1       743 1.04885E+02 1.42428E+01 0.00000E+00
 -1       744 1.03920E+01 3.52625E+01 0.00000E+00
 -1       745 1.03920E+01 2.64500E+01 0.00000E+00
 -1       746 9.49156E+01 1.58000E+01 0.00000E+00
 -1       747 1.11824E+02 1.50081E+01 0.00000E+00
 -1       748 8.95777E+01 2.32998E+01 0.00000E+00
 -1       749 1.13981E+02 3.93484E+01 0.00000E+00
 -1       750 1.39608E+02 1.47250E+01 0.00000E+00
 -1       751 1.03920E+01 2.93875E+01 0.00000E+00
 -1       752 1.38879E+02 3.74540E+01 0.00000E+00
 -1       753 1.06467E+02 1.24895E+01 0.00000E+00
 -1       754 1.29900E+01 1.32000E+01 0.00000E+00
 -1       755 1.04888E+01 3.74991E+01 0.00000E+00
 -1       756 1.15702E+02 1.65752E+01 0.00000E+00
 -1       757 1.90350E+01 1.18003E+01 0.00000E+00
 -1       758 1.96500E+01 3.70100E+01 0.00000E+00
 -1       759 2.26500E+01 3.70100E+01 0.00000E+00
 -1       760 2.56500E+01 3.70100E+01 0.00000E+00
 -1       761 2.86500E+01 3.70100E+01 0.00000E+00
 -1       762 3.16500E+01 3.70100E+01 0.00000E+00
 -1       763 3.46500E+01 3.70100E+01 0.00000E+00
 -1       764 3.76500E+01 3.70100E+01 0.00000E+00
 -1       765 4.06500E+01 3.70100E+01 0.00000E+00
 -1       766 4.36500E+01 3.70100E+01 0.00000E+00
 -1       767 4.66500E+01 3.70100E+01 0.00000E+00
 -1       768 4.96500E+01 3.70100E+01 0.00000E+00
 -1       769 5.26500E+01 3.70100E+01 0.00000E+00
 -1       770 5.56500E+01 3.70100E+01 0.00000E+00
 -1       771 5.86500E+01 3.70100E+01 0.00000E+00
 -1       772 6.16500E+01 3.70100E+01 0.00000E+00
 -1       773 6.46500E+01 3.70100E+01 0.00000E+00
 -1       774 6.76500E+01 3.70100E+01 0.00000E+00
 -1       775 7.06500E+01 3.70100E+01 0.00000E+00
 -1       776 7.36500E+01 3.70100E+01 0.00000E+00
 -1       777 7.66500E+01 3.70100E+01 0.00000E+00
 -1       778 7.96500E+01 3.70100E+01 0.00000E+00
 -1       779 8.26500E+01 3.70100E+01 0.00000E+00
 -1       780 8.56500E+01 3.70100E+01 0.00000E+00
 -1       781 8.86500E+01 3.70100E+01 0.00000E+00
 -1       782 9.16500E+01 3.70100E+01 0.00000E+00
 -1       783 1.15595E+02 3.69361E+01 0.00000E+00
 -1       784 1.21650E+02 3.70100E+01 0.00000E+00
 -1       785 1.24650E+02 3.70100E+01 0.00000E+00
 -1       786 1.27650E+02 3.70100E+01 0.00000E+00
 -1       787 1.30650E+02 3.70100E+01 0.00000E+00
 -1       788 1.33650E+02 3.70100E+01 0.00000E+00
 -1       789 1.36264E+02 3.72320E+01 0.00000E+00
 -1       790 2.20350E+01 1.18003E+01 0.00000E+00
 -1       791 9.14749E+01 3.49884E+01 0.00000E+00
 -1       792 3.40350E+01 1.18003E+01 0.00000E+00
 -1       793 3.10350E+01 1.18003E+01 0.00000E+00
 -1       794 4.00350E+01 1.18003E+01 0.00000E+00
 -1       795 4.30350E+01 1.18003E+01 0.00000E+00
 -1       796 4.60350E+01 1.18003E+01 0.00000E+00
 -1       797 4.90350E+01 1.18003E+01 0.00000E+00
 -1       798 5.20350E+01 1.18003E+01 0.00000E+00
 -1       799 5.50350E+01 1.18003E+01 0.00000E+00
 -1       800 5.80350E+01 1.18003E+01 0.00000E+00
 -1       801 6.10350E+01 1.18003E+01 0.00000E+00
 -1       802 6.40350E+01 1.18003E+01 0.00000E+00
 -1       803 6.70350E+01 1.18003E+01 0.00000E+00
 -1       804 7.00350E+01 1.18003E+01 0.00000E+00
 -1       805 7.30350E+01 1.18003E+01 0.00000E+00
 -1       806 7.60350E+01 1.18003E+01 0.00000E+00
 -1       807 7.90350E+01 1.18003E+01 0.00000E+00
 -1       808 8.20350E+01 1.18003E+01 0.00000E+00
 -1       809 8.50350E+01 1.18003E+01 0.00000E+00
 -1       810 8.80350E+01 1.18003E+01 0.00000E+00
 -1       811 9.10350E+01 1.18003E+01 0.00000E+00
 -1       812 9.40350E+01 1.18003E+01 0.00000E+00
 -1       813 9.70350E+01 1.18003E+01 0.00000E+00
 -1       814 1.03035E+02 1.18003E+01 0.00000E+00
 -1       815 1.12035E+02 1.18003E+01 0.00000E+00
 -1       816 1.15035E+02 1.18003E+01 0.00000E+00
 -1       817 1.18035E+02 1.18003E+01 0.00000E+00
 -1       818 1.21035E+02 1.18003E+01 0.00000E+00
 -1       819 1.24035E+02 1.18003E+01 0.00000E+00
 -1       820 1.27035E+02 1.18003E+01 0.00000E+00
 -1       821 1.30035E+02 1.18003E+01 0.00000E+00
 -1       822 1.33035E+02 1.18003E+01 0.00000E+00
 -1       823 1.37010E+02 2.50250E+01 0.00000E+00
 -1       824 1.37010E+02 3.38250E+01 0.00000E+00
 -1       825 1.37010E+02 2.79250E+01 0.00000E+00
 -1       826 1.18070E+02 2.84766E+01 0.00000E+00
 -1       827 1.29900E+01 2.20250E+01 0.00000E+00
 -1       828 1.37010E+02 3.08750E+01 0.00000E+00
 -1       829 3.70350E+01 1.18003E+01 0.00000E+00
 -1       830 9.00700E+01 3.25485E+01 0.00000E+00
 -1       831 1.18650E+02 3.70100E+01 0.00000E+00
 -1       832 1.00169E+02 1.19474E+01 0.00000E+00
 -1       833 1.17246E+02 3.12428E+01 0.00000E+00
 -1       834 1.17202E+02 2.00348E+01 0.00000E+00
 -1       835 8.88675E+01 2.96825E+01 0.00000E+00
 -1       836 9.33621E+01 3.71845E+01 0.00000E+00
 -1       837 1.16312E+02 3.39138E+01 0.00000E+00
 -1       838 1.17850E+02 2.21468E+01 0.00000E+00
 -1       839 1.66500E+01 3.70100E+01 0.00000E+00
 -1       840 8.81839E+01 2.68894E+01 0.00000E+00
 -1       841 1.18352E+02 2.55313E+01 0.00000E+00
 -1       842 1.37625E+01 1.12011E+01 0.00000E+00
 -1       843 1.08878E+02 1.30899E+01 0.00000E+00
 -1       844 9.24849E+01 1.74336E+01 0.00000E+00
 -1       845 9.05893E+01 2.03165E+01 0.00000E+00
 -1       846 1.29900E+01 2.49750E+01 0.00000E+00
 -1       847 1.29900E+01 1.61375E+01 0.00000E+00
 -1       848 1.27710E+01 3.74352E+01 0.00000E+00
 -1       849 8.75873E+01 2.50312E+01 0.00000E+00
 -1       850 1.36637E+02 3.55285E+01 0.00000E+00
 -1       851 2.50350E+01 1.18003E+01 0.00000E+00
 -1       852 2.80350E+01 1.18003E+01 0.00000E+00
 -1       853 1.09035E+02 1.18003E+01 0.00000E+00
 -1       854 1.35370E+02 1.23616E+01 0.00000E+00
 -1       855 1.37273E+02 1.41636E+01 0.00000E+00
 -1       856 1.37010E+02 1.91250E+01 0.00000E+00
 -1       857 1.37141E+02 1.66443E+01 0.00000E+00
 -1       858 1.14780E+02 1.45278E+01 0.00000E+00
 -1       859 1.37010E+02 2.20750E+01 0.00000E+00
 -1       860 1.29900E+01 1.90875E+01 0.00000E+00
 -1       861 1.63988E+01 1.15007E+01 0.00000E+00
 -1       862 9.02005E+01 1.79375E+01 0.00000E+00
 -1       863 1.29900E+01 3.08563E+01 0.00000E+00
 -1       864 1.29900E+01 3.37938E+01 0.00000E+00
 -1       865 1.20461E+02 2.34891E+01 0.00000E+00
 -1       866 2.41500E+01 3.44120E+01 0.00000E+00
 -1       867 2.71500E+01 3.44120E+01 0.00000E+00
 -1       868 3.01500E+01 3.44120E+01 0.00000E+00
 -1       869 3.31500E+01 3.44120E+01 0.00000E+00
 -1       870 3.61500E+01 3.44120E+01 0.00000E+00
 -1       871 3.91500E+01 3.44120E+01 0.00000E+00
 -1       872 4.21500E+01 3.44120E+01 0.00000E+00
 -1       873 4.51500E+01 3.44120E+01 0.00000E+00
 -1       874 4.81500E+01 3.44120E+01 0.00000E+00
 -1       875 5.11500E+01 3.44120E+01 0.00000E+00
 -1       876 5.41500E+01 3.44120E+01 0.00000E+00
 -1       877 5.71500E+01 3.44120E+01 0.00000E+00
 -1       878 6.01500E+01 3.44120E+01 0.00000E+00
 -1       879 6.31500E+01 3.44120E+01 0.00000E+00
 -1       880 6.61500E+01 3.44120E+01 0.00000E+00
 -1       881 6.91500E+01 3.44120E+01 0.00000E+00
 -1       882 7.21500E+01 3.44120E+01 0.00000E+00
 -1       883 7.51500E+01 3.44120E+01 0.00000E+00
 -1       884 7.81500E+01 3.44120E+01 0.00000E+00
 -1       885 8.11500E+01 3.44120E+01 0.00000E+00
 -1       886 8.41500E+01 3.44120E+01 0.00000E+00
 -1       887 8.71500E+01 3.44120E+01 0.00000E+00
 -1       888 1.23150E+02 3.44120E+01 0.00000E+00
 -1       889 1.26150E+02 3.44120E+01 0.00000E+00
 -1       890 1.29150E+02 3.44120E+01 0.00000E+00
 -1       891 1.32150E+02 3.44120E+01 0.00000E+00
 -1       892 9.24631E+01 1.47760E+01 0.00000E+00
 -1       893 4.45350E+01 1.43982E+01 0.00000E+00
 -1       894 4.15350E+01 1.43982E+01 0.00000E+00
 -1       895 5.05350E+01 1.43982E+01 0.00000E+00
 -1       896 5.35350E+01 1.43982E+01 0.00000E+00
 -1       897 5.65350E+01 1.43982E+01 0.00000E+00
 -1       898 5.95350E+01 1.43982E+01 0.00000E+00
 -1       899 6.25350E+01 1.43982E+01 0.00000E+00
 -1       900 6.55350E+01 1.43982E+01 0.00000E+00
 -1       901 6.85350E+01 1.43982E+01 0.00000E+00
 -1       902 7.15350E+01 1.43982E+01 0.00000E+00
 -1       903 7.45350E+01 1.43982E+01 0.00000E+00
 -1       904 7.75350E+01 1.43982E+01 0.00000E+00
 -1       905 8.05350E+01 1.43982E+01 0.00000E+00
 -1       906 8.35350E+01 1.43982E+01 0.00000E+00
 -1       907 8.65350E+01 1.43982E+01 0.00000E+00
 -1       908 8.95350E+01 1.43982E+01 0.00000E+00
 -1       909 8.63715E+01 2.88132E+01 0.00000E+00
 -1       910 1.22535E+02 1.43982E+01 0.00000E+00
 -1       911 1.25535E+02 1.43982E+01 0.00000E+00
 -1       912 1.28535E+02 1.43982E+01 0.00000E+00
 -1       913 1.31535E+02 1.43982E+01 0.00000E+00
 -1       914 1.34412E+02 2.64750E+01 0.00000E+00
 -1       915 1.19944E+02 3.05401E+01 0.00000E+00
 -1       916 1.19967E+02 2.03424E+01 0.00000E+00
 -1       917 1.20150E+02 3.44120E+01 0.00000E+00
 -1       918 1.19535E+02 1.43982E+01 0.00000E+00
 -1       919 8.67607E+01 3.16126E+01 0.00000E+00
 -1       920 1.17157E+02 1.44630E+01 0.00000E+00
 -1       921 1.18836E+02 1.72713E+01 0.00000E+00
 -1       922 1.81500E+01 3.44120E+01 0.00000E+00
 -1       923 1.29900E+01 2.79188E+01 0.00000E+00
 -1       924 1.18715E+02 3.32553E+01 0.00000E+00
 -1       925 4.75350E+01 1.43982E+01 0.00000E+00
 -1       926 3.25350E+01 1.43982E+01 0.00000E+00
 -1       927 2.11500E+01 3.44120E+01 0.00000E+00
 -1       928 8.76657E+01 2.09883E+01 0.00000E+00
 -1       929 1.20419E+02 2.72154E+01 0.00000E+00
 -1       930 2.05350E+01 1.43982E+01 0.00000E+00
 -1       931 1.44274E+01 3.46401E+01 0.00000E+00
 -1       932 1.55880E+01 1.46687E+01 0.00000E+00
 -1       933 2.35350E+01 1.43982E+01 0.00000E+00
 -1       934 8.57749E+01 2.69550E+01 0.00000E+00
 -1       935 8.72770E+01 1.86094E+01 0.00000E+00
 -1       936 1.34394E+02 3.49702E+01 0.00000E+00
 -1       937 2.95350E+01 1.43982E+01 0.00000E+00
 -1       938 1.78988E+01 1.40987E+01 0.00000E+00
 -1       939 3.85350E+01 1.43982E+01 0.00000E+00
 -1       940 1.34481E+02 1.77474E+01 0.00000E+00
 -1       941 1.34481E+02 2.06974E+01 0.00000E+00
 -1       942 1.34412E+02 2.94250E+01 0.00000E+00
 -1       943 1.34447E+02 2.35862E+01 0.00000E+00
 -1       944 3.55350E+01 1.43982E+01 0.00000E+00
 -1       945 1.55880E+01 2.35000E+01 0.00000E+00
 -1       946 1.55880E+01 2.05625E+01 0.00000E+00
 -1       947 1.55880E+01 2.93875E+01 0.00000E+00
 -1       948 8.56754E+01 2.27197E+01 0.00000E+00
 -1       949 1.22780E+02 2.15132E+01 0.00000E+00
 -1       950 2.86500E+01 3.18140E+01 0.00000E+00
 -1       951 3.16500E+01 3.18140E+01 0.00000E+00
 -1       952 3.46500E+01 3.18140E+01 0.00000E+00
 -1       953 3.76500E+01 3.18140E+01 0.00000E+00
 -1       954 4.06500E+01 3.18140E+01 0.00000E+00
 -1       955 4.36500E+01 3.18140E+01 0.00000E+00
 -1       956 4.66500E+01 3.18140E+01 0.00000E+00
 -1       957 4.96500E+01 3.18140E+01 0.00000E+00
 -1       958 5.26500E+01 3.18140E+01 0.00000E+00
 -1       959 5.56500E+01 3.18140E+01 0.00000E+00
 -1       960 5.86500E+01 3.18140E+01 0.00000E+00
 -1       961 6.16500E+01 3.18140E+01 0.00000E+00
 -1       962 6.46500E+01 3.18140E+01 0.00000E+00
 -1       963 6.76500E+01 3.18140E+01 0.00000E+00
 -1       964 7.06500E+01 3.18140E+01 0.00000E+00
 -1       965 7.36500E+01 3.18140E+01 0.00000E+00
 -1       966 7.66500E+01 3.18140E+01 0.00000E+00
 -1       967 7.96500E+01 3.18140E+01 0.00000E+00
 -1       968 8.26500E+01 3.18140E+01 0.00000E+00
 -1       969 1.22992E+02 2.53810E+01 0.00000E+00
 -1       970 4.30350E+01 1.69963E+01 0.00000E+00
 -1       971 1.33899E+02 3.21700E+01 0.00000E+00
 -1       972 1.27650E+02 3.18140E+01 0.00000E+00
 -1       973 1.30650E+02 3.18140E+01 0.00000E+00
 -1       974 1.96500E+01 3.18140E+01 0.00000E+00
 -1       975 5.50350E+01 1.69963E+01 0.00000E+00
 -1       976 5.20350E+01 1.69963E+01 0.00000E+00
 -1       977 6.10350E+01 1.69963E+01 0.00000E+00
 -1       978 6.40350E+01 1.69963E+01 0.00000E+00
 -1       979 6.70350E+01 1.69963E+01 0.00000E+00
 -1       980 7.00350E+01 1.69963E+01 0.00000E+00
 -1       981 7.30350E+01 1.69963E+01 0.00000E+00
 -1       982 7.60350E+01 1.69963E+01 0.00000E+00
 -1       983 7.90350E+01 1.69963E+01 0.00000E+00
 -1       984 8.20350E+01 1.69963E+01 0.00000E+00
 -1       985 8.50350E+01 1.69963E+01 0.00000E+00
 -1       986 2.65350E+01 1.43982E+01 0.00000E+00
 -1       987 1.22377E+02 2.91909E+01 0.00000E+00
 -1       988 1.24650E+02 3.18140E+01 0.00000E+00
 -1       989 1.33596E+02 1.46070E+01 0.00000E+00
 -1       990 1.24035E+02 1.69963E+01 0.00000E+00
 -1       991 1.55880E+01 1.76156E+01 0.00000E+00
 -1       992 1.55880E+01 2.64438E+01 0.00000E+00
 -1       993 1.55676E+01 3.23835E+01 0.00000E+00
 -1       994 1.32421E+02 1.75387E+01 0.00000E+00
 -1       995 1.81757E+01 3.09032E+01 0.00000E+00
 -1       996 1.29421E+02 1.75387E+01 0.00000E+00
 -1       997 2.26500E+01 3.18140E+01 0.00000E+00
 -1       998 1.26728E+02 1.72675E+01 0.00000E+00
 -1       999 5.80350E+01 1.69963E+01 0.00000E+00
 -1      1000 1.21435E+02 1.71338E+01 0.00000E+00
 -1      1001 2.56500E+01 3.18140E+01 0.00000E+00
 -1      1002 8.35995E+01 2.86782E+01 0.00000E+00
 -1      1003 8.52866E+01 2.03408E+01 0.00000E+00
 -1      1004 3.10350E+01 1.69963E+01 0.00000E+00
 -1      1005 4.60350E+01 1.69963E+01 0.00000E+00
 -1      1006 4.00350E+01 1.69963E+01 0.00000E+00
 -1      1007 1.22421E+02 3.21374E+01 0.00000E+00
 -1      1008 1.89235E+01 1.68299E+01 0.00000E+00
 -1      1009 1.23408E+02 1.92547E+01 0.00000E+00
 -1      1010 1.32421E+02 2.04887E+01 0.00000E+00
 -1      1011 1.31831E+02 2.49995E+01 0.00000E+00
 -1      1012 2.19235E+01 1.68299E+01 0.00000E+00
 -1      1013 3.40350E+01 1.69963E+01 0.00000E+00
 -1      1014 1.81860E+01 2.20313E+01 0.00000E+00
 -1      1015 1.81757E+01 2.79595E+01 0.00000E+00
 -1      1016 4.90350E+01 1.69963E+01 0.00000E+00
 -1      1017 1.81860E+01 2.49750E+01 0.00000E+00
 -1      1018 8.38629E+01 2.46435E+01 0.00000E+00
 -1      1019 1.31163E+02 2.90690E+01 0.00000E+00
 -1      1020 2.49235E+01 1.68299E+01 0.00000E+00
 -1      1021 3.31500E+01 2.92160E+01 0.00000E+00
 -1      1022 3.61500E+01 2.92160E+01 0.00000E+00
 -1      1023 3.91500E+01 2.92160E+01 0.00000E+00
 -1      1024 4.21500E+01 2.92160E+01 0.00000E+00
 -1      1025 4.51500E+01 2.92160E+01 0.00000E+00
 -1      1026 4.81500E+01 2.92160E+01 0.00000E+00
 -1      1027 5.11500E+01 2.92160E+01 0.00000E+00
 -1      1028 5.41500E+01 2.92160E+01 0.00000E+00
 -1      1029 5.71500E+01 2.92160E+01 0.00000E+00
 -1      1030 6.01500E+01 2.92160E+01 0.00000E+00
 -1      1031 6.31500E+01 2.92160E+01 0.00000E+00
 -1      1032 6.61500E+01 2.92160E+01 0.00000E+00
 -1      1033 6.91500E+01 2.92160E+01 0.00000E+00
 -1      1034 7.21500E+01 2.92160E+01 0.00000E+00
 -1      1035 7.51500E+01 2.92160E+01 0.00000E+00
 -1      1036 7.81500E+01 2.92160E+01 0.00000E+00
 -1      1037 8.08748E+01 2.89471E+01 0.00000E+00
 -1      1038 5.65350E+01 1.95942E+01 0.00000E+00
 -1      1039 6.55350E+01 1.95942E+01 0.00000E+00
 -1      1040 6.25350E+01 1.95942E+01 0.00000E+00
 -1      1041 7.15350E+01 1.95942E+01 0.00000E+00
 -1      1042 7.45350E+01 1.95942E+01 0.00000E+00
 -1      1043 7.75350E+01 1.95942E+01 0.00000E+00
 -1      1044 8.05350E+01 1.95942E+01 0.00000E+00
 -1      1045 8.39060E+01 1.91018E+01 0.00000E+00
 -1      1046 8.23689E+01 2.67953E+01 0.00000E+00
 -1      1047 5.05350E+01 1.95942E+01 0.00000E+00
 -1      1048 1.28934E+02 2.66130E+01 0.00000E+00
 -1      1049 3.70350E+01 1.69963E+01 0.00000E+00
 -1      1050 1.85548E+01 1.94306E+01 0.00000E+00
 -1      1051 1.26150E+02 2.92610E+01 0.00000E+00
 -1      1052 1.32126E+02 2.27441E+01 0.00000E+00
 -1      1053 1.28656E+02 2.91650E+01 0.00000E+00
 -1      1054 2.80350E+01 1.69963E+01 0.00000E+00
 -1      1055 1.25435E+02 2.33074E+01 0.00000E+00
 -1      1056 5.95350E+01 1.95942E+01 0.00000E+00
 -1      1057 1.25249E+02 2.77001E+01 0.00000E+00
 -1      1058 5.35350E+01 1.95942E+01 0.00000E+00
 -1      1059 3.01500E+01 2.92160E+01 0.00000E+00
 -1      1060 6.85350E+01 1.95942E+01 0.00000E+00
 -1      1061 2.04129E+01 2.98867E+01 0.00000E+00
 -1      1062 8.34742E+01 2.22646E+01 0.00000E+00
 -1      1063 4.45350E+01 1.95942E+01 0.00000E+00
 -1      1064 1.29099E+02 2.08661E+01 0.00000E+00
 -1      1065 4.15350E+01 1.95942E+01 0.00000E+00
 -1      1066 3.25350E+01 1.95942E+01 0.00000E+00
 -1      1067 2.32271E+01 2.88820E+01 0.00000E+00
 -1      1068 2.71500E+01 2.92160E+01 0.00000E+00
 -1      1069 1.26101E+02 1.95259E+01 0.00000E+00
 -1      1070 1.25768E+02 2.14167E+01 0.00000E+00
 -1      1071 2.95350E+01 1.95942E+01 0.00000E+00
 -1      1072 1.29119E+02 2.35364E+01 0.00000E+00
 -1      1073 2.15548E+01 1.94306E+01 0.00000E+00
 -1      1074 2.07840E+01 2.35031E+01 0.00000E+00
 -1      1075 4.75350E+01 1.95942E+01 0.00000E+00
 -1      1076 2.11694E+01 2.14668E+01 0.00000E+00
 -1      1077 3.46500E+01 2.66180E+01 0.00000E+00
 -1      1078 4.60350E+01 2.21922E+01 0.00000E+00
 -1      1079 3.76500E+01 2.66180E+01 0.00000E+00
 -1      1080 4.06500E+01 2.66180E+01 0.00000E+00
 -1      1081 4.36500E+01 2.66180E+01 0.00000E+00
 -1      1082 4.66500E+01 2.66180E+01 0.00000E+00
 -1      1083 4.96500E+01 2.66180E+01 0.00000E+00
 -1      1084 5.26500E+01 2.66180E+01 0.00000E+00
 -1      1085 5.56500E+01 2.66180E+01 0.00000E+00
 -1      1086 5.86500E+01 2.66180E+01 0.00000E+00
 -1      1087 6.16500E+01 2.66180E+01 0.00000E+00
 -1      1088 6.46500E+01 2.66180E+01 0.00000E+00
 -1      1089 6.76500E+01 2.66180E+01 0.00000E+00
 -1      1090 7.06500E+01 2.66180E+01 0.00000E+00
 -1      1091 7.36500E+01 2.66180E+01 0.00000E+00
 -1      1092 7.66500E+01 2.66180E+01 0.00000E+00
 -1      1093 7.95094E+01 2.67067E+01 0.00000E+00
 -1      1094 7.90350E+01 2.21922E+01 0.00000E+00
 -1      1095 3.55350E+01 1.95942E+01 0.00000E+00
 -1      1096 2.45548E+01 1.94306E+01 0.00000E+00
 -1      1097 6.40350E+01 2.21922E+01 0.00000E+00
 -1      1098 7.60350E+01 2.21922E+01 0.00000E+00
 -1      1099 7.30350E+01 2.21922E+01 0.00000E+00
 -1      1100 8.21608E+01 2.12665E+01 0.00000E+00
 -1      1101 1.27092E+02 2.71566E+01 0.00000E+00
 -1      1102 2.70449E+01 1.95124E+01 0.00000E+00
 -1      1103 5.50350E+01 2.21922E+01 0.00000E+00
 -1      1104 4.90350E+01 2.21922E+01 0.00000E+00
 -1      1105 6.70350E+01 2.21922E+01 0.00000E+00
 -1      1106 5.80350E+01 2.21922E+01 0.00000E+00
 -1      1107 5.20350E+01 2.21922E+01 0.00000E+00
 -1      1108 2.07737E+01 2.64876E+01 0.00000E+00
 -1      1109 7.00350E+01 2.21922E+01 0.00000E+00
 -1      1110 3.16500E+01 2.66180E+01 0.00000E+00
 -1      1111 6.10350E+01 2.21922E+01 0.00000E+00
 -1      1112 4.30350E+01 2.21922E+01 0.00000E+00
 -1      1113 3.40350E+01 2.21922E+01 0.00000E+00
 -1      1114 2.35294E+01 2.29681E+01 0.00000E+00
 -1      1115 2.86500E+01 2.66180E+01 0.00000E+00
 -1      1116 3.85350E+01 1.95942E+01 0.00000E+00
 -1      1117 3.10350E+01 2.21922E+01 0.00000E+00
 -1      1118 2.47271E+01 2.62840E+01 0.00000E+00
 -1      1119 8.19801E+01 2.44164E+01 0.00000E+00
 -1      1120 3.70350E+01 2.21922E+01 0.00000E+00
 -1      1121 4.21500E+01 2.40200E+01 0.00000E+00
 -1      1122 4.00350E+01 2.21922E+01 0.00000E+00
 -1      1123 2.40421E+01 2.11993E+01 0.00000E+00
 -1      1124 3.91500E+01 2.40200E+01 0.00000E+00
 -1      1125 2.65322E+01 2.12812E+01 0.00000E+00
 -1      1126 2.65717E+01 2.37435E+01 0.00000E+00
 -1      1127 2.87836E+01 2.17367E+01 0.00000E+00
 -1      1128 0.00000E+00 4.85250E+01 0.00000E+00
 -1      1129 0.00000E+00 4.55750E+01 0.00000E+00
 -1      1130 0.00000E+00 4.26250E+01 0.00000E+00
 -1      1131 0.00000E+00 3.96750E+01 0.00000E+00
 -1      1132 0.00000E+00 3.67250E+01 0.00000E+00
 -1      1133 0.00000E+00 3.38000E+01 0.00000E+00
 -1      1134 0.00000E+00 3.08750E+01 0.00000E+00
 -1      1135 0.00000E+00 2.79250E+01 0.00000E+00
 -1      1136 0.00000E+00 2.49750E+01 0.00000E+00
 -1      1137 0.00000E+00 2.20250E+01 0.00000E+00
 -1      1138 0.00000E+00 1.90750E+01 0.00000E+00
 -1      1139 0.00000E+00 1.61500E+01 0.00000E+00
 -1      1140 0.00000E+00 1.32250E+01 0.00000E+00
 -1      1141 0.00000E+00 1.02750E+01 0.00000E+00
 -1      1142 0.00000E+00 7.32500E+00 0.00000E+00
 -1      1143 0.00000E+00 4.37500E+00 0.00000E+00
 -1      1144 0.00000E+00 1.45000E+00 0.00000E+00
 -1      1145 1.57500E+00 5.00000E+01 0.00000E+00
 -1      1146 4.65000E+00 5.00000E+01 0.00000E+00
 -1      1147 7.65000E+00 5.00000E+01 0.00000E+00
 -1      1148 1.06500E+01 5.00000E+01 0.00000E+00
 -1      1149 1.36500E+01 5.00000E+01 0.00000E+00
 -1      1150 1.66500E+01 5.00000E+01 0.00000E+00
 -1      1151 1.96500E+01 5.00000E+01 0.00000E+00
 -1      1152 2.26500E+01 5.00000E+01 0.00000E+00
 -1      1153 2.56500E+01 5.00000E+01 0.00000E+00
 -1      1154 2.86500E+01 5.00000E+01 0.00000E+00
 -1      1155 3.16500E+01 5.00000E+01 0.00000E+00
 -1      1156 3.46500E+01 5.00000E+01 0.00000E+00
 -1      1157 3.76500E+01 5.00000E+01 0.00000E+00
 -1      1158 4.06500E+01 5.00000E+01 0.00000E+00
 -1      1159 4.36500E+01 5.00000E+01 0.00000E+00
 -1      1160 4.66500E+01 5.00000E+01 0.00000E+00
 -1      1161 4.96500E+01 5.00000E+01 0.00000E+00
 -1      1162 5.26500E+01 5.00000E+01 0.00000E+00
 -1      1163 5.56500E+01 5.00000E+01 0.00000E+00
 -1      1164 5.86500E+01 5.00000E+01 0.00000E+00
 -1      1165 6.16500E+01 5.00000E+01 0.00000E+00
 -1      1166 6.46500E+01 5.00000E+01 0.00000E+00
 -1      1167 6.76500E+01 5.00000E+01 0.00000E+00
 -1      1168 7.06500E+01 5.00000E+01 0.00000E+00
 -1      1169 7.36500E+01 5.00000E+01 0.00000E+00
 -1      1170 7.66500E+01 5.00000E+01 0.00000E+00
 -1      1171 7.96500E+01 5.00000E+01 0.00000E+00
 -1      1172 8.26500E+01 5.00000E+01 0.00000E+00
 -1      1173 8.56500E+01 5.00000E+01 0.00000E+00
 -1      1174 8.86500E+01 5.00000E+01 0.00000E+00
 -1      1175 9.16500E+01 5.00000E+01 0.00000E+00
 -1      1176 9.46500E+01 5.00000E+01 0.00000E+00
 -1      1177 9.76500E+01 5.00000E+01 0.00000E+00
 -1      1178 1.00650E+02 5.00000E+01 0.00000E+00
 -1      1179 1.03650E+02 5.00000E+01 0.00000E+00
 -1      1180 1.06650E+02 5.00000E+01 0.00000E+00
 -1      1181 1.09650E+02 5.00000E+01 0.00000E+00
 -1      1182 1.12650E+02 5.00000E+01 0.00000E+00
 -1      1183 1.15650E+02 5.00000E+01 0.00000E+00
 -1      1184 1.18650E+02 5.00000E+01 0.00000E+00
 -1      1185 1.21650E+02 5.00000E+01 0.00000E+00
 -1      1186 1.24650E+02 5.00000E+01 0.00000E+00
 -1      1187 1.27650E+02 5.00000E+01 0.00000E+00
 -1      1188 1.30650E+02 5.00000E+01 0.00000E+00
 -1      1189 1.33650E+02 5.00000E+01 0.00000E+00
 -1      1190 1.36650E+02 5.00000E+01 0.00000E+00
 -1      1191 1.39650E+02 5.00000E+01 0.00000E+00
 -1      1192 1.42650E+02 5.00000E+01 0.00000E+00
 -1      1193 1.45650E+02 5.00000E+01 0.00000E+00
 -1      1194 1.48575E+02 5.00000E+01 0.00000E+00
 -1      1195 1.57500E+00 0.00000E+00 0.00000E+00
 -1      1196 4.65000E+00 0.00000E+00 0.00000E+00
 -1      1197 7.65000E+00 0.00000E+00 0.00000E+00
 -1      1198 1.06500E+01 0.00000E+00 0.00000E+00
 -1      1199 1.36500E+01 0.00000E+00 0.00000E+00
 -1      1200 1.66500E+01 0.00000E+00 0.00000E+00
 -1      1201 1.96500E+01 0.00000E+00 0.00000E+00
 -1      1202 2.26500E+01 0.00000E+00 0.00000E+00
 -1      1203 2.56500E+01 0.00000E+00 0.00000E+00
 -1      1204 2.86500E+01 0.00000E+00 0.00000E+00
 -1      1205 3.16500E+01 0.00000E+00 0.00000E+00
 -1      1206 3.46500E+01 0.00000E+00 0.00000E+00
 -1      1207 3.76500E+01 0.00000E+00 0.00000E+00
 -1      1208 4.06500E+01 0.00000E+00 0.00000E+00
 -1      1209 4.36500E+01 0.00000E+00 0.00000E+00
 -1      1210 4.66500E+01 0.00000E+00 0.00000E+00
 -1      1211 4.96500E+01 0.00000E+00 0.00000E+00
 -1      1212 5.26500E+01 0.00000E+00 0.00000E+00
 -1      1213 5.56500E+01 0.00000E+00 0.00000E+00
 -1      1214 5.86500E+01 0.00000E+00 0.00000E+00
 -1      1215 6.16500E+01 0.00000E+00 0.00000E+00
 -1      1216 6.46500E+01 0.00000E+00 0.00000E+00
 -1      1217 6.76500E+01 0.00000E+00 0.00000E+00
 -1      1218 7.06500E+01 0.00000E+00 0.00000E+00
 -1      1219 7.36500E+01 0.00000E+00 0.00000E+00
 -1      1220 7.66500E+01 0.00000E+00 0.00000E+00
 -1      1221 7.96500E+01 0.00000E+00 0.00000E+00
 -1      1222 8.26500E+01 0.00000E+00 0.00000E+00
 -1      1223 8.56500E+01 0.00000E+00 0.00000E+00
 -1      1224 8.86500E+01 0.00000E+00 0.00000E+00
 -1      1225 9.16500E+01 0.00000E+00 0.00000E+00
 -1      1226 9.46500E+01 0.00000E+00 0.00000E+00
 -1      1227 9.76500E+01 0.00000E+00 0.00000E+00
 -1      1228 1.00650E+02 0.00000E+00 0.00000E+00
 -1      1229 1.03650E+02 0.00000E+00 0.00000E+00
 -1      1230 1.06650E+02 0.00000E+00 0.00000E+00
 -1      1231 1.09650E+02 0.00000E+00 0.00000E+00
 -1      1232 1.12650E+02 0.00000E+00 0.00000E+00
 -1      1233 1.15650E+02 0.00000E+00 0.00000E+00
 -1      1234 1.18650E+02 0.00000E+00 0.00000E+00
 -1      1235 1.21650E+02 0.00000E+00 0.00000E+00
 -1      1236 1.24650E+02 0.00000E+00 0.00000E+00
 -1      1237 1.27650E+02 0.00000E+00 0.00000E+00
 -1      1238 1.30650E+02 0.00000E+00 0.00000E+00
 -1      1239 1.33650E+02 0.00000E+00 0.00000E+00
 -1      1240 1.36650E+02 0.00000E+00 0.00000E+00
 -1      1241 1.39650E+02 0.00000E+00 0.00000E+00
 -1      1242 1.42650E+02 0.00000E+00 0.00000E+00
 -1      1243 1.45650E+02 0.00000E+00 0.00000E+00
 -1      1244 1.48575E+02 0.00000E+00 0.00000E+00
 -1      1245 1.50000E+02 1.47500E+00 0.00000E+00
 -1      1246 1.50000E+02 4.42500E+00 0.00000E+00
 -1      1247 1.50000E+02 7.37500E+00 0.00000E+00
 -1      1248 1.50000E+02 1.03250E+01 0.00000E+00
 -1      1249 1.50000E+02 1.32750E+01 0.00000E+00
 -1      1250 1.50000E+02 1.62000E+01 0.00000E+00
 -1      1251 1.50000E+02 1.91250E+01 0.00000E+00
 -1      1252 1.50000E+02 2.20750E+01 0.00000E+00
 -1      1253 1.50000E+02 2.50250E+01 0.00000E+00
 -1      1254 1.50000E+02 2.79750E+01 0.00000E+00
 -1      1255 1.50000E+02 3.09250E+01 0.00000E+00
 -1      1256 1.50000E+02 3.38500E+01 0.00000E+00
 -1      1257 1.50000E+02 3.67750E+01 0.00000E+00
 -1      1258 1.50000E+02 3.97250E+01 0.00000E+00
 -1      1259 1.50000E+02 4.26750E+01 0.00000E+00
 -1      1260 1.50000E+02 4.56250E+01 0.00000E+00
 -1      1261 1.50000E+02 4.85500E+01 0.00000E+00
 -1      1262 1.10582E+02 2.62293E+01 0.00000E+00
 -1      1263 1.10281E+02 2.48072E+01 0.00000E+00
 -1      1264 1.09688E+02 2.34697E+01 0.00000E+00
 -1      1265 1.08805E+02 2.22567E+01 0.00000E+00
 -1      1266 1.07667E+02 2.12484E+01 0.00000E+00
 -1      1267 1.06358E+02 2.05176E+01 0.00000E+00
 -1      1268 1.04952E+02 2.00881E+01 0.00000E+00
 -1      1269 1.03484E+02 1.99616E+01 0.00000E+00
 -1      1270 1.02027E+02 2.01439E+01 0.00000E+00
 -1      1271 1.00638E+02 2.06273E+01 0.00000E+00
 -1      1272 9.93173E+01 2.14390E+01 0.00000E+00
 -1      1273 9.82060E+01 2.25235E+01 0.00000E+00
 -1      1274 9.73773E+01 2.37942E+01 0.00000E+00
 -1      1275 9.68378E+01 2.52288E+01 0.00000E+00
 -1      1276 9.66254E+01 2.66950E+01 0.00000E+00
 -1      1277 9.67190E+01 2.81316E+01 0.00000E+00
 -1      1278 9.71047E+01 2.95189E+01 0.00000E+00
 -1      1279 9.77611E+01 3.07904E+01 0.00000E+00
 -1      1280 9.86744E+01 3.19138E+01 0.00000E+00
 -1      1281 9.97952E+01 3.28228E+01 0.00000E+00
 -1      1282 1.01038E+02 3.34665E+01 0.00000E+00
 -1      1283 1.02429E+02 3.38582E+01 0.00000E+00
 -1      1284 1.03864E+02 3.39560E+01 0.00000E+00
 -1      1285 1.05280E+02 3.37606E+01 0.00000E+00
 -1      1286 1.06628E+02 3.32810E+01 0.00000E+00
 -1      1287 1.07809E+02 3.25684E+01 0.00000E+00
 -1      1288 1.08883E+02 3.15764E+01 0.00000E+00
 -1      1289 1.09731E+02 3.03758E+01 0.00000E+00
 -1      1290 1.10303E+02 2.90443E+01 0.00000E+00
 -1      1291 1.10587E+02 2.76428E+01 0.00000E+00
 -1      1292 1.57500E+00 4.85250E+01 0.00000E+00
 -1      1293 1.29900E+00 4.48375E+01 0.00000E+00
 -1      1294 1.29900E+00 4.63125E+01 0.00000E+00
 -1      1295 1.29900E+00 4.18875E+01 0.00000E+00
 -1      1296 1.29900E+00 4.33625E+01 0.00000E+00
 -1      1297 2.59800E+00 4.41000E+01 0.00000E+00
 -1      1298 1.29900E+00 3.89375E+01 0.00000E+00
 -1      1299 1.29900E+00 4.04125E+01 0.00000E+00
 -1      1300 2.59800E+00 4.11500E+01 0.00000E+00
 -1      1301 1.29900E+00 3.59875E+01 0.00000E+00
 -1      1302 1.29900E+00 3.74625E+01 0.00000E+00
 -1      1303 2.59800E+00 3.82000E+01 0.00000E+00
 -1      1304 1.29900E+00 3.30875E+01 0.00000E+00
 -1      1305 1.29900E+00 3.45375E+01 0.00000E+00
 -1      1306 2.59800E+00 3.52750E+01 0.00000E+00
 -1      1307 1.29900E+00 3.01375E+01 0.00000E+00
 -1      1308 1.29900E+00 3.16125E+01 0.00000E+00
 -1      1309 2.59800E+00 3.23500E+01 0.00000E+00
 -1      1310 1.29900E+00 2.71875E+01 0.00000E+00
 -1      1311 1.29900E+00 2.86625E+01 0.00000E+00
 -1      1312 2.59800E+00 2.94000E+01 0.00000E+00
 -1      1313 1.29900E+00 2.42375E+01 0.00000E+00
 -1      1314 1.29900E+00 2.57125E+01 0.00000E+00
 -1      1315 2.59800E+00 2.64500E+01 0.00000E+00
 -1      1316 1.29900E+00 2.12875E+01 0.00000E+00
 -1      1317 1.29900E+00 2.27625E+01 0.00000E+00
 -1      1318 2.59800E+00 2.35000E+01 0.00000E+00
 -1      1319 1.29900E+00 1.83375E+01 0.00000E+00
 -1      1320 1.29900E+00 1.98125E+01 0.00000E+00
 -1      1321 2.59800E+00 2.05500E+01 0.00000E+00
 -1      1322 1.29900E+00 1.54375E+01 0.00000E+00
 -1      1323 1.29900E+00 1.68875E+01 0.00000E+00
 -1      1324 2.59800E+00 1.76250E+01 0.00000E+00
 -1      1325 1.29900E+00 1.24875E+01 0.00000E+00
 -1      1326 1.29900E+00 1.39625E+01 0.00000E+00
 -1      1327 2.59800E+00 1.47000E+01 0.00000E+00
 -1      1328 1.29900E+00 9.53750E+00 0.00000E+00
 -1      1329 1.29900E+00 1.10125E+01 0.00000E+00
 -1      1330 2.59800E+00 1.17500E+01 0.00000E+00
 -1      1331 1.29900E+00 6.58750E+00 0.00000E+00
 -1      1332 1.29900E+00 8.06250E+00 0.00000E+00
 -1      1333 2.59800E+00 8.80000E+00 0.00000E+00
 -1      1334 1.29900E+00 3.63750E+00 0.00000E+00
 -1      1335 1.29900E+00 5.11250E+00 0.00000E+00
 -1      1336 2.59800E+00 5.85000E+00 0.00000E+00
 -1      1337 1.43700E+00 1.09375E+00 0.00000E+00
 -1      1338 1.43700E+00 2.54375E+00 0.00000E+00
 -1      1339 2.73600E+00 3.28125E+00 0.00000E+00
 -1      1340 3.01200E+00 1.09375E+00 0.00000E+00
 -1      1341 3.90000E+00 4.87010E+01 0.00000E+00
 -1      1342 5.40000E+00 4.87010E+01 0.00000E+00
 -1      1343 6.90000E+00 4.87010E+01 0.00000E+00
 -1      1344 8.40000E+00 4.87010E+01 0.00000E+00
 -1      1345 6.15000E+00 4.74020E+01 0.00000E+00
 -1      1346 9.90000E+00 4.87010E+01 0.00000E+00
 -1      1347 1.14000E+01 4.87010E+01 0.00000E+00
 -1      1348 9.15000E+00 4.74020E+01 0.00000E+00
 -1      1349 1.29000E+01 4.87010E+01 0.00000E+00
 -1      1350 1.44000E+01 4.87010E+01 0.00000E+00
 -1      1351 1.21500E+01 4.74020E+01 0.00000E+00
 -1      1352 1.59000E+01 4.87010E+01 0.00000E+00
 -1      1353 1.74000E+01 4.87010E+01 0.00000E+00
 -1      1354 1.51500E+01 4.74020E+01 0.00000E+00
 -1      1355 1.89000E+01 4.87010E+01 0.00000E+00
 -1      1356 2.04000E+01 4.87010E+01 0.00000E+00
 -1      1357 1.81500E+01 4.74020E+01 0.00000E+00
 -1      1358 2.19000E+01 4.87010E+01 0.00000E+00
 -1      1359 2.34000E+01 4.87010E+01 0.00000E+00
 -1      1360 2.11500E+01 4.74020E+01 0.00000E+00
 -1      1361 2.49000E+01 4.87010E+01 0.00000E+00
 -1      1362 2.64000E+01 4.87010E+01 0.00000E+00
 -1      1363 2.41500E+01 4.74020E+01 0.00000E+00
 -1      1364 2.79000E+01 4.87010E+01 0.00000E+00
 -1      1365 2.94000E+01 4.87010E+01 0.00000E+00
 -1      1366 2.71500E+01 4.74020E+01 0.00000E+00
 -1      1367 3.09000E+01 4.87010E+01 0.00000E+00
 -1      1368 3.24000E+01 4.87010E+01 0.00000E+00
 -1      1369 3.01500E+01 4.74020E+01 0.00000E+00
 -1      1370 3.39000E+01 4.87010E+01 0.00000E+00
 -1      1371 3.54000E+01 4.87010E+01 0.00000E+00
 -1      1372 3.31500E+01 4.74020E+01 0.00000E+00
 -1      1373 3.69000E+01 4.87010E+01 0.00000E+00
 -1      1374 3.84000E+01 4.87010E+01 0.00000E+00
 -1      1375 3.61500E+01 4.74020E+01 0.00000E+00
 -1      1376 3.99000E+01 4.87010E+01 0.00000E+00
 -1      1377 4.14000E+01 4.87010E+01 0.00000E+00
 -1      1378 3.91500E+01 4.74020E+01 0.00000E+00
 -1      1379 4.29000E+01 4.87010E+01 0.00000E+00
 -1      1380 4.44000E+01 4.87010E+01 0.00000E+00
 -1      1381 4.21500E+01 4.74020E+01 0.00000E+00
 -1      1382 4.59000E+01 4.87010E+01 0.00000E+00
 -1      1383 4.74000E+01 4.87010E+01 0.00000E+00
 -1      1384 4.51500E+01 4.74020E+01 0.00000E+00
 -1      1385 4.89000E+01 4.87010E+01 0.00000E+00
 -1      1386 5.04000E+01 4.87010E+01 0.00000E+00
 -1      1387 4.81500E+01 4.74020E+01 0.00000E+00
 -1      1388 5.19000E+01 4.87010E+01 0.00000E+00
 -1      1389 5.34000E+01 4.87010E+01 0.00000E+00
 -1      1390 5.11500E+01 4.74020E+01 0.00000E+00
 -1      1391 5.49000E+01 4.87010E+01 0.00000E+00
 -1      1392 5.64000E+01 4.87010E+01 0.00000E+00
 -1      1393 5.41500E+01 4.74020E+01 0.00000E+00
 -1      1394 5.79000E+01 4.87010E+01 0.00000E+00
 -1      1395 5.94000E+01 4.87010E+01 0.00000E+00
 -1      1396 5.71500E+01 4.74020E+01 0.00000E+00
 -1      1397 6.09000E+01 4.87010E+01 0.00000E+00
 -1      1398 6.24000E+01 4.87010E+01 0.00000E+00
 -1      1399 6.01500E+01 4.74020E+01 0.00000E+00
 -1      1400 6.39000E+01 4.87010E+01 0.00000E+00
 -1      1401 6.54000E+01 4.87010E+01 0.00000E+00
 -1      1402 6.31500E+01 4.74020E+01 0.00000E+00
 -1      1403 6.69000E+01 4.87010E+01 0.00000E+00
 -1      1404 6.84000E+01 4.87010E+01 0.00000E+00
 -1      1405 6.61500E+01 4.74020E+01 0.00000E+00
 -1      1406 6.99000E+01 4.87010E+01 0.00000E+00
 -1      1407 7.14000E+01 4.87010E+01 0.00000E+00
 -1      1408 6.91500E+01 4.74020E+01 0.00000E+00
 -1      1409 7.29000E+01 4.87010E+01 0.00000E+00
 -1      1410 7.44000E+01 4.87010E+01 0.00000E+00
 -1      1411 7.21500E+01 4.74020E+01 0.00000E+00
 -1      1412 7.59000E+01 4.87010E+01 0.00000E+00
 -1      1413 7.74000E+01 4.87010E+01 0.00000E+00
 -1      1414 7.51500E+01 4.74020E+01 0.00000E+00
 -1      1415 7.89000E+01 4.87010E+01 0.00000E+00
 -1      1416 8.04000E+01 4.87010E+01 0.00000E+00
 -1      1417 7.81500E+01 4.74020E+01 0.00000E+00
 -1      1418 8.19000E+01 4.87010E+01 0.00000E+00
 -1      1419 8.34000E+01 4.87010E+01 0.00000E+00
 -1      1420 8.11500E+01 4.74020E+01 0.00000E+00
 -1      1421 8.49000E+01 4.87010E+01 0.00000E+00
 -1      1422 8.64000E+01 4.87010E+01 0.00000E+00
 -1      1423 8.41500E+01 4.74020E+01 0.00000E+00
 -1      1424 8.79000E+01 4.87010E+01 0.00000E+00
 -1      1425 8.94000E+01 4.87010E+01 0.00000E+00
 -1      1426 8.71500E+01 4.74020E+01 0.00000E+00
 -1      1427 9.09000E+01 4.87010E+01 0.00000E+00
 -1      1428 9.24000E+01 4.87010E+01 0.00000E+00
 -1      1429 9.01500E+01 4.74020E+01 0.00000E+00
 -1      1430 9.39000E+01 4.87010E+01 0.00000E+00
 -1      1431 9.54000E+01 4.87010E+01 0.00000E+00
 -1      1432 9.31500E+01 4.74020E+01 0.00000E+00
 -1      1433 9.69000E+01 4.87010E+01 0.00000E+00
 -1      1434 9.84000E+01 4.87010E+01 0.00000E+00
 -1      1435 9.61500E+01 4.74020E+01 0.00000E+00
 -1      1436 9.99000E+01 4.87010E+01 0.00000E+00
 -1      1437 1.01400E+02 4.87010E+01 0.00000E+00
 -1      1438 9.91500E+01 4.74020E+01 0.00000E+00
 -1      1439 1.02900E+02 4.87010E+01 0.00000E+00
 -1      1440 1.04400E+02 4.87010E+01 0.00000E+00
 -1      1441 1.02150E+02 4.74020E+01 0.00000E+00
 -1      1442 1.05900E+02 4.87010E+01 0.00000E+00
 -1      1443 1.07400E+02 4.87010E+01 0.00000E+00
 -1      1444 1.05150E+02 4.74020E+01 0.00000E+00
 -1      1445 1.08900E+02 4.87010E+01 0.00000E+00
 -1      1446 1.10400E+02 4.87010E+01 0.00000E+00
 -1      1447 1.08150E+02 4.74020E+01 0.00000E+00
 -1      1448 1.11900E+02 4.87010E+01 0.00000E+00
 -1      1449 1.13400E+02 4.87010E+01 0.00000E+00
 -1      1450 1.11150E+02 4.74020E+01 0.00000E+00
 -1      1451 1.14900E+02 4.87010E+01 0.00000E+00
 -1      1452 1.16400E+02 4.87010E+01 0.00000E+00
 -1      1453 1.14150E+02 4.74020E+01 0.00000E+00
 -1      1454 1.17900E+02 4.87010E+01 0.00000E+00
 -1      1455 1.19400E+02 4.87010E+01 0.00000E+00
 -1      1456 1.17150E+02 4.74020E+01 0.00000E+00
 -1      1457 1.20900E+02 4.87010E+01 0.00000E+00
 -1      1458 1.22400E+02 4.87010E+01 0.00000E+00
 -1      1459 1.20150E+02 4.74020E+01 0.00000E+00
 -1      1460 1.23900E+02 4.87010E+01 0.00000E+00
 -1      1461 1.25400E+02 4.87010E+01 0.00000E+00
 -1      1462 1.23150E+02 4.74020E+01 0.00000E+00
 -1      1463 1.26900E+02 4.87010E+01 0.00000E+00
 -1      1464 1.28400E+02 4.87010E+01 0.00000E+00
 -1      1465 1.26150E+02 4.74020E+01 0.00000E+00
 -1      1466 1.29900E+02 4.87010E+01 0.00000E+00
 -1      1467 1.31400E+02 4.87010E+01 0.00000E+00
 -1      1468 1.29150E+02 4.74020E+01 0.00000E+00
 -1      1469 1.32900E+02 4.87010E+01 0.00000E+00
 -1      1470 1.34400E+02 4.87010E+01 0.00000E+00
 -1      1471 1.32150E+02 4.74020E+01 0.00000E+00
 -1      1472 1.35900E+02 4.87010E+01 0.00000E+00
 -1      1473 1.37400E+02 4.87010E+01 0.00000E+00
 -1      1474 1.35150E+02 4.74020E+01 0.00000E+00
 -1      1475 1.38900E+02 4.87010E+01 0.00000E+00
 -1      1476 1.40400E+02 4.87010E+01 0.00000E+00
 -1      1477 1.38150E+02 4.74020E+01 0.00000E+00
 -1      1478 1.41900E+02 4.87010E+01 0.00000E+00
 -1      1479 1.43400E+02 4.87010E+01 0.00000E+00
 -1      1480 1.41150E+02 4.74020E+01 0.00000E+00
 -1      1481 1.44900E+02 4.87010E+01 0.00000E+00
 -1      1482 1.46400E+02 4.87010E+01 0.00000E+00
 -1      1483 1.44150E+02 4.74020E+01 0.00000E+00
 -1      1484 1.48575E+02 4.85500E+01 0.00000E+00
 -1      1485 1.47825E+02 4.72510E+01 0.00000E+00
 -1      1486 6.01200E+00 1.09375E+00 0.00000E+00
 -1      1487 4.51200E+00 1.09375E+00 0.00000E+00
 -1      1488 4.37400E+00 2.18750E+00 0.00000E+00
 -1      1489 9.01200E+00 1.09375E+00 0.00000E+00
 -1      1490 7.51200E+00 1.09375E+00 0.00000E+00
 -1      1491 7.37400E+00 2.18750E+00 0.00000E+00
 -1      1492 1.20120E+01 1.09375E+00 0.00000E+00
 -1      1493 1.05120E+01 1.09375E+00 0.00000E+00
 -1      1494 1.03740E+01 2.18750E+00 0.00000E+00
 -1      1495 1.50120E+01 1.09375E+00 0.00000E+00
 -1      1496 1.35120E+01 1.09375E+00 0.00000E+00
 -1      1497 1.33740E+01 2.18750E+00 0.00000E+00
 -1      1498 1.80120E+01 1.09375E+00 0.00000E+00
 -1      1499 1.65120E+01 1.09375E+00 0.00000E+00
 -1      1500 1.63740E+01 2.18750E+00 0.00000E+00
 -1      1501 2.10120E+01 1.09375E+00 0.00000E+00
 -1      1502 1.95120E+01 1.09375E+00 0.00000E+00
 -1      1503 1.93740E+01 2.18750E+00 0.00000E+00
 -1      1504 2.40120E+01 1.09375E+00 0.00000E+00
 -1      1505 2.25120E+01 1.09375E+00 0.00000E+00
 -1      1506 2.23740E+01 2.18750E+00 0.00000E+00
 -1      1507 2.70120E+01 1.09375E+00 0.00000E+00
 -1      1508 2.55120E+01 1.09375E+00 0.00000E+00
 -1      1509 2.53740E+01 2.18750E+00 0.00000E+00
 -1      1510 3.00120E+01 1.09375E+00 0.00000E+00
 -1      1511 2.85120E+01 1.09375E+00 0.00000E+00
 -1      1512 2.83740E+01 2.18750E+00 0.00000E+00
 -1      1513 3.30120E+01 1.09375E+00 0.00000E+00
 -1      1514 3.15120E+01 1.09375E+00 0.00000E+00
 -1      1515 3.13740E+01 2.18750E+00 0.00000E+00
 -1      1516 3.60120E+01 1.09375E+00 0.00000E+00
 -1      1517 3.45120E+01 1.09375E+00 0.00000E+00
 -1      1518 3.43740E+01 2.18750E+00 0.00000E+00
 -1      1519 3.90120E+01 1.09375E+00 0.00000E+00
 -1      1520 3.75120E+01 1.09375E+00 0.00000E+00
 -1      1521 3.73740E+01 2.18750E+00 0.00000E+00
 -1      1522 4.20120E+01 1.09375E+00 0.00000E+00
 -1      1523 4.05120E+01 1.09375E+00 0.00000E+00
 -1      1524 4.03740E+01 2.18750E+00 0.00000E+00
 -1      1525 4.50120E+01 1.09375E+00 0.00000E+00
 -1      1526 4.35120E+01 1.09375E+00 0.00000E+00
 -1      1527 4.33740E+01 2.18750E+00 0.00000E+00
 -1      1528 4.80120E+01 1.09375E+00 0.00000E+00
 -1      1529 4.65120E+01 1.09375E+00 0.00000E+00
 -1      1530 4.63740E+01 2.18750E+00 0.00000E+00
 -1      1531 5.10120E+01 1.09375E+00 0.00000E+00
 -1      1532 4.95120E+01 1.09375E+00 0.00000E+00
 -1      1533 4.93740E+01 2.18750E+00 0.00000E+00
 -1      1534 5.40120E+01 1.09375E+00 0.00000E+00
 -1      1535 5.25120E+01 1.09375E+00 0.00000E+00
 -1      1536 5.23740E+01 2.18750E+00 0.00000E+00
 -1      1537 5.70120E+01 1.09375E+00 0.00000E+00
 -1      1538 5.55120E+01 1.09375E+00 0.00000E+00
 -1      1539 5.53740E+01 2.18750E+00 0.00000E+00
 -1      1540 6.00120E+01 1.09375E+00 0.00000E+00
 -1      1541 5.85120E+01 1.09375E+00 0.00000E+00
 -1      1542 5.83740E+01 2.18750E+00 0.00000E+00
 -1      1543 6.30120E+01 1.09375E+00 0.00000E+00
 -1      1544 6.15120E+01 1.09375E+00 0.00000E+00
 -1      1545 6.13740E+01 2.18750E+00 0.00000E+00
 -1      1546 6.60120E+01 1.09375E+00 0.00000E+00
 -1      1547 6.45120E+01 1.09375E+00 0.00000E+00
 -1      1548 6.43740E+01 2.18750E+00 0.00000E+00
 -1      1549 6.90120E+01 1.09375E+00 0.00000E+00
 -1      1550 6.75120E+01 1.09375E+00 0.00000E+00
 -1      1551 6.73740E+01 2.18750E+00 0.00000E+00
 -1      1552 7.20120E+01 1.09375E+00 0.00000E+00
 -1      1553 7.05120E+01 1.09375E+00 0.00000E+00
 -1      1554 7.03740E+01 2.18750E+00 0.00000E+00
 -1      1555 7.50120E+01 1.09375E+00 0.00000E+00
 -1      1556 7.35120E+01 1.09375E+00 0.00000E+00
 -1      1557 7.33740E+01 2.18750E+00 0.00000E+00
 -1      1558 7.80120E+01 1.09375E+00 0.00000E+00
 -1      1559 7.65120E+01 1.09375E+00 0.00000E+00
 -1      1560 7.63740E+01 2.18750E+00 0.00000E+00
 -1      1561 8.10120E+01 1.09375E+00 0.00000E+00
 -1      1562 7.95120E+01 1.09375E+00 0.00000E+00
 -1      1563 7.93740E+01 2.18750E+00 0.00000E+00
 -1      1564 8.40120E+01 1.09375E+00 0.00000E+00
 -1      1565 8.25120E+01 1.09375E+00 0.00000E+00
 -1      1566 8.23740E+01 2.18750E+00 0.00000E+00
 -1      1567 8.70120E+01 1.09375E+00 0.00000E+00
 -1      1568 8.55120E+01 1.09375E+00 0.00000E+00
 -1      1569 8.53740E+01 2.18750E+00 0.00000E+00
 -1      1570 9.00120E+01 1.09375E+00 0.00000E+00
 -1      1571 8.85120E+01 1.09375E+00 0.00000E+00
 -1      1572 8.83740E+01 2.18750E+00 0.00000E+00
 -1      1573 9.30120E+01 1.09375E+00 0.00000E+00
 -1      1574 9.15120E+01 1.09375E+00 0.00000E+00
 -1      1575 9.13740E+01 2.18750E+00 0.00000E+00
 -1      1576 9.60120E+01 1.09375E+00 0.00000E+00
 -1      1577 9.45120E+01 1.09375E+00 0.00000E+00
 -1      1578 9.43740E+01 2.18750E+00 0.00000E+00
 -1      1579 9.90120E+01 1.09375E+00 0.00000E+00
 -1      1580 9.75120E+01 1.09375E+00 0.00000E+00
 -1      1581 9.73740E+01 2.18750E+00 0.00000E+00
 -1      1582 1.02012E+02 1.09375E+00 0.00000E+00
 -1      1583 1.00512E+02 1.09375E+00 0.00000E+00
 -1      1584 1.00374E+02 2.18750E+00 0.00000E+00
 -1      1585 1.05012E+02 1.09375E+00 0.00000E+00
 -1      1586 1.03512E+02 1.09375E+00 0.00000E+00
 -1      1587 1.03374E+02 2.18750E+00 0.00000E+00
 -1      1588 1.08012E+02 1.09375E+00 0.00000E+00
 -1      1589 1.06512E+02 1.09375E+00 0.00000E+00
 -1      1590 1.06374E+02 2.18750E+00 0.00000E+00
 -1      1591 1.11012E+02 1.09375E+00 0.00000E+00
 -1      1592 1.09512E+02 1.09375E+00 0.00000E+00
 -1      1593 1.09374E+02 2.18750E+00 0.00000E+00
 -1      1594 1.14012E+02 1.09375E+00 0.00000E+00
 -1      1595 1.12512E+02 1.09375E+00 0.00000E+00
 -1      1596 1.12374E+02 2.18750E+00 0.00000E+00
 -1      1597 1.17012E+02 1.09375E+00 0.00000E+00
 -1      1598 1.15512E+02 1.09375E+00 0.00000E+00
 -1      1599 1.15374E+02 2.18750E+00 0.00000E+00
 -1      1600 1.20012E+02 1.09375E+00 0.00000E+00
 -1      1601 1.18512E+02 1.09375E+00 0.00000E+00
 -1      1602 1.18374E+02 2.18750E+00 0.00000E+00
 -1      1603 1.23012E+02 1.09375E+00 0.00000E+00
 -1      1604 1.21512E+02 1.09375E+00 0.00000E+00
 -1      1605 1.21374E+02 2.18750E+00 0.00000E+00
 -1      1606 1.26012E+02 1.09375E+00 0.00000E+00
 -1      1607 1.24512E+02 1.09375E+00 0.00000E+00
 -1      1608 1.24374E+02 2.18750E+00 0.00000E+00
 -1      1609 1.29012E+02 1.09375E+00 0.00000E+00
 -1      1610 1.27512E+02 1.09375E+00 0.00000E+00
 -1      1611 1.27374E+02 2.18750E+00 0.00000E+00
 -1      1612 1.32012E+02 1.09375E+00 0.00000E+00
 -1      1613 1.30512E+02 1.09375E+00 0.00000E+00
 -1      1614 1.30374E+02 2.18750E+00 0.00000E+00
 -1      1615 1.35012E+02 1.09375E+00 0.00000E+00
 -1      1616 1.33512E+02 1.09375E+00 0.00000E+00
 -1      1617 1.33374E+02 2.18750E+00 0.00000E+00
 -1      1618 1.38012E+02 1.09375E+00 0.00000E+00
 -1      1619 1.36512E+02 1.09375E+00 0.00000E+00
 -1      1620 1.36374E+02 2.18750E+00 0.00000E+00
 -1      1621 1.41012E+02 1.09375E+00 0.00000E+00
 -1      1622 1.39512E+02 1.09375E+00 0.00000E+00
 -1      1623 1.39374E+02 2.18750E+00 0.00000E+00
 -1      1624 1.44012E+02 1.09375E+00 0.00000E+00
 -1      1625 1.42512E+02 1.09375E+00 0.00000E+00
 -1      1626 1.42374E+02 2.18750E+00 0.00000E+00
 -1      1627 1.47012E+02 1.09375E+00 0.00000E+00
 -1      1628 1.45512E+02 1.09375E+00 0.00000E+00
 -1      1629 1.45374E+02 2.18750E+00 0.00000E+00
 -1      1630 1.48575E+02 1.47500E+00 0.00000E+00
 -1      1631 1.48701E+02 5.16250E+00 0.00000E+00
 -1      1632 1.48701E+02 3.68750E+00 0.00000E+00
 -1      1633 1.48701E+02 8.11250E+00 0.00000E+00
 -1      1634 1.48701E+02 6.63750E+00 0.00000E+00
 -1      1635 1.47402E+02 5.90000E+00 0.00000E+00
 -1      1636 1.48701E+02 1.10625E+01 0.00000E+00
 -1      1637 1.48701E+02 9.58750E+00 0.00000E+00
 -1      1638 1.47402E+02 8.85000E+00 0.00000E+00
 -1      1639 1.48701E+02 1.40125E+01 0.00000E+00
 -1      1640 1.48701E+02 1.25375E+01 0.00000E+00
 -1      1641 1.47402E+02 1.18000E+01 0.00000E+00
 -1      1642 1.48701E+02 1.69125E+01 0.00000E+00
 -1      1643 1.48701E+02 1.54625E+01 0.00000E+00
 -1      1644 1.47402E+02 1.47250E+01 0.00000E+00
 -1      1645 1.48701E+02 1.98625E+01 0.00000E+00
 -1      1646 1.48701E+02 1.83875E+01 0.00000E+00
 -1      1647 1.47402E+02 1.76500E+01 0.00000E+00
 -1      1648 1.48701E+02 2.28125E+01 0.00000E+00
 -1      1649 1.48701E+02 2.13375E+01 0.00000E+00
 -1      1650 1.47402E+02 2.06000E+01 0.00000E+00
 -1      1651 1.48701E+02 2.57625E+01 0.00000E+00
 -1      1652 1.48701E+02 2.42875E+01 0.00000E+00
 -1      1653 1.47402E+02 2.35500E+01 0.00000E+00
 -1      1654 1.48701E+02 2.87125E+01 0.00000E+00
 -1      1655 1.48701E+02 2.72375E+01 0.00000E+00
 -1      1656 1.47402E+02 2.65000E+01 0.00000E+00
 -1      1657 1.48701E+02 3.16625E+01 0.00000E+00
 -1      1658 1.48701E+02 3.01875E+01 0.00000E+00
 -1      1659 1.47402E+02 2.94500E+01 0.00000E+00
 -1      1660 1.48701E+02 3.45625E+01 0.00000E+00
 -1      1661 1.48701E+02 3.31125E+01 0.00000E+00
 -1      1662 1.47402E+02 3.23750E+01 0.00000E+00
 -1      1663 1.48701E+02 3.75125E+01 0.00000E+00
 -1      1664 1.48701E+02 3.60375E+01 0.00000E+00
 -1      1665 1.47402E+02 3.53000E+01 0.00000E+00
 -1      1666 1.48701E+02 4.04625E+01 0.00000E+00
 -1      1667 1.48701E+02 3.89875E+01 0.00000E+00
 -1      1668 1.47402E+02 3.82500E+01 0.00000E+00
 -1      1669 1.48701E+02 4.34125E+01 0.00000E+00
 -1      1670 1.48701E+02 4.19375E+01 0.00000E+00
 -1      1671 1.47402E+02 4.12000E+01 0.00000E+00
 -1      1672 1.48263E+02 4.60692E+01 0.00000E+00
 -1      1673 1.48263E+02 4.45942E+01 0.00000E+00
 -1      1674 1.46964E+02 4.38568E+01 0.00000E+00
 -1      1675 1.46088E+02 4.62202E+01 0.00000E+00
 -1      1676 1.11109E+02 2.58065E+01 0.00000E+00
 -1      1677 1.11185E+02 2.65335E+01 0.00000E+00
 -1      1678 1.10711E+02 2.42885E+01 0.00000E+00
 -1      1679 1.10933E+02 2.49761E+01 0.00000E+00
 -1      1680 1.10031E+02 2.28452E+01 0.00000E+00
 -1      1681 1.10400E+02 2.34871E+01 0.00000E+00
 -1      1682 1.08968E+02 2.15957E+01 0.00000E+00
 -1      1683 1.09478E+02 2.21586E+01 0.00000E+00
 -1      1684 1.07732E+02 2.04995E+01 0.00000E+00
 -1      1685 1.08352E+02 2.09389E+01 0.00000E+00
 -1      1686 1.06255E+02 1.98126E+01 0.00000E+00
 -1      1687 1.06936E+02 2.01017E+01 0.00000E+00
 -1      1688 1.04701E+02 1.94610E+01 0.00000E+00
 -1      1689 1.05418E+02 1.96000E+01 0.00000E+00
 -1      1690 1.03101E+02 1.93604E+01 0.00000E+00
 -1      1691 1.03843E+02 1.93459E+01 0.00000E+00
 -1      1692 1.01545E+02 1.96728E+01 0.00000E+00
 -1      1693 1.02251E+02 1.95078E+01 0.00000E+00
 -1      1694 1.00060E+02 2.02738E+01 0.00000E+00
 -1      1695 1.00734E+02 1.99560E+01 0.00000E+00
 -1      1696 9.86044E+01 2.11786E+01 0.00000E+00
 -1      1697 9.92390E+01 2.06841E+01 0.00000E+00
 -1      1698 9.75310E+01 2.24541E+01 0.00000E+00
 -1      1699 9.80053E+01 2.18753E+01 0.00000E+00
 -1      1700 9.66258E+01 2.38440E+01 0.00000E+00
 -1      1701 9.69735E+01 2.31585E+01 0.00000E+00
 -1      1702 9.61153E+01 2.54387E+01 0.00000E+00
 -1      1703 9.63043E+01 2.46984E+01 0.00000E+00
 -1      1704 9.60428E+01 2.70319E+01 0.00000E+00
 -1      1705 9.60700E+01 2.63150E+01 0.00000E+00
 -1      1706 9.61773E+01 2.85898E+01 0.00000E+00
 -1      1707 9.60565E+01 2.78778E+01 0.00000E+00
 -1      1708 9.67059E+01 3.00610E+01 0.00000E+00
 -1      1709 9.64436E+01 2.93930E+01 0.00000E+00
 -1      1710 9.74793E+01 3.14006E+01 0.00000E+00
 -1      1711 9.70891E+01 3.08036E+01 0.00000E+00
 -1      1712 9.85037E+01 3.26046E+01 0.00000E+00
 -1      1713 9.79838E+01 3.20856E+01 0.00000E+00
 -1      1714 9.97345E+01 3.35641E+01 0.00000E+00
 -1      1715 9.91412E+01 3.31770E+01 0.00000E+00
 -1      1716 1.01148E+02 3.41256E+01 0.00000E+00
 -1      1717 1.00506E+02 3.38707E+01 0.00000E+00
 -1      1718 1.02697E+02 3.45208E+01 0.00000E+00
 -1      1719 1.01954E+02 3.43925E+01 0.00000E+00
 -1      1720 1.04226E+02 3.45164E+01 0.00000E+00
 -1      1721 1.03542E+02 3.45403E+01 0.00000E+00
 -1      1722 1.05797E+02 3.43039E+01 0.00000E+00
 -1      1723 1.05073E+02 3.44806E+01 0.00000E+00
 -1      1724 1.07184E+02 3.36506E+01 0.00000E+00
 -1      1725 1.06565E+02 3.39453E+01 0.00000E+00
 -1      1726 1.08429E+02 3.28190E+01 0.00000E+00
 -1      1727 1.07874E+02 3.32340E+01 0.00000E+00
 -1      1728 1.09623E+02 3.17149E+01 0.00000E+00
 -1      1729 1.09116E+02 3.22922E+01 0.00000E+00
 -1      1730 1.10400E+02 3.03481E+01 0.00000E+00
 -1      1731 1.10058E+02 3.09607E+01 0.00000E+00
 -1      1732 1.10995E+02 2.88686E+01 0.00000E+00
 -1      1733 1.10772E+02 2.95821E+01 0.00000E+00
 -1      1734 1.11190E+02 2.73590E+01 0.00000E+00
 -1      1735 1.11124E+02 2.80383E+01 0.00000E+00
 -1      1736 1.09056E+02 2.08130E+01 0.00000E+00
 -1      1737 1.10225E+02 2.21564E+01 0.00000E+00
 -1      1738 1.48437E+02 2.56875E+00 0.00000E+00
 -1      1739 1.47138E+02 3.30625E+00 0.00000E+00
 -1      1740 1.11574E+02 2.52763E+01 0.00000E+00
 -1      1741 1.11088E+02 2.36444E+01 0.00000E+00
 -1      1742 1.11755E+02 2.69322E+01 0.00000E+00
 -1      1743 1.07645E+02 1.97584E+01 0.00000E+00
 -1      1744 1.06012E+02 1.91480E+01 0.00000E+00
 -1      1745 1.04317E+02 1.88203E+01 0.00000E+00
 -1      1746 1.02610E+02 1.88526E+01 0.00000E+00
 -1      1747 1.00949E+02 1.92832E+01 0.00000E+00
 -1      1748 9.93181E+01 1.99768E+01 0.00000E+00
 -1      1749 9.78984E+01 2.10838E+01 0.00000E+00
 -1      1750 9.67418E+01 2.24848E+01 0.00000E+00
 -1      1751 9.58628E+01 2.40435E+01 0.00000E+00
 -1      1752 9.54960E+01 2.57742E+01 0.00000E+00
 -1      1753 9.54643E+01 2.74964E+01 0.00000E+00
 -1      1754 9.57442E+01 2.91454E+01 0.00000E+00
 -1      1755 9.63936E+01 3.06912E+01 0.00000E+00
 -1      1756 9.72813E+01 3.21188E+01 0.00000E+00
 -1      1757 9.84233E+01 3.33761E+01 0.00000E+00
 -1      1758 9.98320E+01 3.42550E+01 0.00000E+00
 -1      1759 1.01409E+02 3.48285E+01 0.00000E+00
 -1      1760 1.03060E+02 3.51147E+01 0.00000E+00
 -1      1761 1.04752E+02 3.50984E+01 0.00000E+00
 -1      1762 1.06367E+02 3.47039E+01 0.00000E+00
 -1      1763 1.07825E+02 3.39287E+01 0.00000E+00
 -1      1764 1.09201E+02 3.29853E+01 0.00000E+00
 -1      1765 1.10323E+02 3.17043E+01 0.00000E+00
 -1      1766 1.11130E+02 3.01842E+01 0.00000E+00
 -1      1767 1.11631E+02 2.85880E+01 0.00000E+00
 -1      1768 2.87400E+00 4.77875E+01 0.00000E+00
 -1      1769 3.89700E+00 4.04125E+01 0.00000E+00
 -1      1770 3.89700E+00 4.18875E+01 0.00000E+00
 -1      1771 3.89700E+00 4.33625E+01 0.00000E+00
 -1      1772 3.89700E+00 4.48375E+01 0.00000E+00
 -1      1773 5.19600E+00 4.26250E+01 0.00000E+00
 -1      1774 3.89700E+00 3.45500E+01 0.00000E+00
 -1      1775 3.89700E+00 3.60000E+01 0.00000E+00
 -1      1776 3.89700E+00 3.16000E+01 0.00000E+00
 -1      1777 3.89700E+00 3.30750E+01 0.00000E+00
 -1      1778 5.19600E+00 3.38000E+01 0.00000E+00
 -1      1779 3.89700E+00 2.86500E+01 0.00000E+00
 -1      1780 3.89700E+00 3.01250E+01 0.00000E+00
 -1      1781 5.19600E+00 3.08500E+01 0.00000E+00
 -1      1782 3.89700E+00 2.57000E+01 0.00000E+00
 -1      1783 3.89700E+00 2.71750E+01 0.00000E+00
 -1      1784 5.19600E+00 2.79000E+01 0.00000E+00
 -1      1785 3.89700E+00 2.27500E+01 0.00000E+00
 -1      1786 3.89700E+00 2.42250E+01 0.00000E+00
 -1      1787 5.19600E+00 2.49500E+01 0.00000E+00
 -1      1788 3.89700E+00 1.98000E+01 0.00000E+00
 -1      1789 3.89700E+00 2.12750E+01 0.00000E+00
 -1      1790 5.19600E+00 2.20000E+01 0.00000E+00
 -1      1791 3.89700E+00 1.69000E+01 0.00000E+00
 -1      1792 3.89700E+00 1.83500E+01 0.00000E+00
 -1      1793 5.19600E+00 1.90750E+01 0.00000E+00
 -1      1794 3.89700E+00 1.39500E+01 0.00000E+00
 -1      1795 3.89700E+00 1.54250E+01 0.00000E+00
 -1      1796 5.19600E+00 1.61500E+01 0.00000E+00
 -1      1797 3.89700E+00 1.10000E+01 0.00000E+00
 -1      1798 3.89700E+00 1.24750E+01 0.00000E+00
 -1      1799 5.19600E+00 1.32000E+01 0.00000E+00
 -1      1800 3.89700E+00 8.05000E+00 0.00000E+00
 -1      1801 3.89700E+00 9.52500E+00 0.00000E+00
 -1      1802 5.19600E+00 1.02500E+01 0.00000E+00
 -1      1803 3.89700E+00 5.10000E+00 0.00000E+00
 -1      1804 3.89700E+00 6.57500E+00 0.00000E+00
 -1      1805 5.19600E+00 7.30000E+00 0.00000E+00
 -1      1806 4.20450E+00 3.09687E+00 0.00000E+00
 -1      1807 4.06650E+00 4.19063E+00 0.00000E+00
 -1      1808 5.36550E+00 4.91563E+00 0.00000E+00
 -1      1809 5.70450E+00 3.09687E+00 0.00000E+00
 -1      1810 3.62400E+00 4.64885E+01 0.00000E+00
 -1      1811 8.70450E+00 3.09687E+00 0.00000E+00
 -1      1812 7.20450E+00 3.09687E+00 0.00000E+00
 -1      1813 7.03500E+00 4.00625E+00 0.00000E+00
 -1      1814 4.92300E+00 4.57510E+01 0.00000E+00
 -1      1815 8.40000E+00 4.61030E+01 0.00000E+00
 -1      1816 9.90000E+00 4.61030E+01 0.00000E+00
 -1      1817 1.14000E+01 4.61030E+01 0.00000E+00
 -1      1818 1.29000E+01 4.61030E+01 0.00000E+00
 -1      1819 1.06500E+01 4.48040E+01 0.00000E+00
 -1      1820 1.44000E+01 4.61030E+01 0.00000E+00
 -1      1821 1.59000E+01 4.61030E+01 0.00000E+00
 -1      1822 1.36500E+01 4.48040E+01 0.00000E+00
 -1      1823 1.74000E+01 4.61030E+01 0.00000E+00
 -1      1824 1.89000E+01 4.61030E+01 0.00000E+00
 -1      1825 1.66500E+01 4.48040E+01 0.00000E+00
 -1      1826 2.04000E+01 4.61030E+01 0.00000E+00
 -1      1827 2.19000E+01 4.61030E+01 0.00000E+00
 -1      1828 1.96500E+01 4.48040E+01 0.00000E+00
 -1      1829 2.34000E+01 4.61030E+01 0.00000E+00
 -1      1830 2.49000E+01 4.61030E+01 0.00000E+00
 -1      1831 2.26500E+01 4.48040E+01 0.00000E+00
 -1      1832 2.64000E+01 4.61030E+01 0.00000E+00
 -1      1833 2.79000E+01 4.61030E+01 0.00000E+00
 -1      1834 2.56500E+01 4.48040E+01 0.00000E+00
 -1      1835 2.94000E+01 4.61030E+01 0.00000E+00
 -1      1836 3.09000E+01 4.61030E+01 0.00000E+00
 -1      1837 2.86500E+01 4.48040E+01 0.00000E+00
 -1      1838 3.24000E+01 4.61030E+01 0.00000E+00
 -1      1839 3.39000E+01 4.61030E+01 0.00000E+00
 -1      1840 3.16500E+01 4.48040E+01 0.00000E+00
 -1      1841 3.54000E+01 4.61030E+01 0.00000E+00
 -1      1842 3.69000E+01 4.61030E+01 0.00000E+00
 -1      1843 3.46500E+01 4.48040E+01 0.00000E+00
 -1      1844 3.84000E+01 4.61030E+01 0.00000E+00
 -1      1845 3.99000E+01 4.61030E+01 0.00000E+00
 -1      1846 3.76500E+01 4.48040E+01 0.00000E+00
 -1      1847 4.14000E+01 4.61030E+01 0.00000E+00
 -1      1848 4.29000E+01 4.61030E+01 0.00000E+00
 -1      1849 4.06500E+01 4.48040E+01 0.00000E+00
 -1      1850 4.44000E+01 4.61030E+01 0.00000E+00
 -1      1851 4.59000E+01 4.61030E+01 0.00000E+00
 -1      1852 4.36500E+01 4.48040E+01 0.00000E+00
 -1      1853 4.74000E+01 4.61030E+01 0.00000E+00
 -1      1854 4.89000E+01 4.61030E+01 0.00000E+00
 -1      1855 4.66500E+01 4.48040E+01 0.00000E+00
 -1      1856 5.04000E+01 4.61030E+01 0.00000E+00
 -1      1857 5.19000E+01 4.61030E+01 0.00000E+00
 -1      1858 4.96500E+01 4.48040E+01 0.00000E+00
 -1      1859 5.34000E+01 4.61030E+01 0.00000E+00
 -1      1860 5.49000E+01 4.61030E+01 0.00000E+00
 -1      1861 5.26500E+01 4.48040E+01 0.00000E+00
 -1      1862 5.64000E+01 4.61030E+01 0.00000E+00
 -1      1863 5.79000E+01 4.61030E+01 0.00000E+00
 -1      1864 5.56500E+01 4.48040E+01 0.00000E+00
 -1      1865 5.94000E+01 4.61030E+01 0.00000E+00
 -1      1866 6.09000E+01 4.61030E+01 0.00000E+00
 -1      1867 5.86500E+01 4.48040E+01 0.00000E+00
 -1      1868 6.24000E+01 4.61030E+01 0.00000E+00
 -1      1869 6.39000E+01 4.61030E+01 0.00000E+00
 -1      1870 6.16500E+01 4.48040E+01 0.00000E+00
 -1      1871 6.54000E+01 4.61030E+01 0.00000E+00
 -1      1872 6.69000E+01 4.61030E+01 0.00000E+00
 -1      1873 6.46500E+01 4.48040E+01 0.00000E+00
 -1      1874 6.84000E+01 4.61030E+01 0.00000E+00
 -1      1875 6.99000E+01 4.61030E+01 0.00000E+00
 -1      1876 6.76500E+01 4.48040E+01 0.00000E+00
 -1      1877 7.14000E+01 4.61030E+01 0.00000E+00
 -1      1878 7.29000E+01 4.61030E+01 0.00000E+00
 -1      1879 7.06500E+01 4.48040E+01 0.00000E+00
 -1      1880 7.44000E+01 4.61030E+01 0.00000E+00
 -1      1881 7.59000E+01 4.61030E+01 0.00000E+00
 -1      1882 7.36500E+01 4.48040E+01 0.00000E+00
 -1      1883 7.74000E+01 4.61030E+01 0.00000E+00
 -1      1884 7.89000E+01 4.61030E+01 0.00000E+00
 -1      1885 7.66500E+01 4.48040E+01 0.00000E+00
 -1      1886 8.04000E+01 4.61030E+01 0.00000E+00
 -1      1887 8.19000E+01 4.61030E+01 0.00000E+00
 -1      1888 7.96500E+01 4.48040E+01 0.00000E+00
 -1      1889 8.34000E+01 4.61030E+01 0.00000E+00
 -1      1890 8.49000E+01 4.61030E+01 0.00000E+00
 -1      1891 8.26500E+01 4.48040E+01 0.00000E+00
 -1      1892 8.64000E+01 4.61030E+01 0.00000E+00
 -1      1893 8.79000E+01 4.61030E+01 0.00000E+00
 -1      1894 8.56500E+01 4.48040E+01 0.00000E+00
 -1      1895 8.94000E+01 4.61030E+01 0.00000E+00
 -1      1896 9.09000E+01 4.61030E+01 0.00000E+00
 -1      1897 8.86500E+01 4.48040E+01 0.00000E+00
 -1      1898 9.24000E+01 4.61030E+01 0.00000E+00
 -1      1899 9.39000E+01 4.61030E+01 0.00000E+00
 -1      1900 9.16500E+01 4.48040E+01 0.00000E+00
 -1      1901 9.54000E+01 4.61030E+01 0.00000E+00
 -1      1902 9.69000E+01 4.61030E+01 0.00000E+00
 -1      1903 9.46500E+01 4.48040E+01 0.00000E+00
 -1      1904 9.84000E+01 4.61030E+01 0.00000E+00
 -1      1905 9.99000E+01 4.61030E+01 0.00000E+00
 -1      1906 9.76500E+01 4.48040E+01 0.00000E+00
 -1      1907 1.01400E+02 4.61030E+01 0.00000E+00
 -1      1908 1.02900E+02 4.61030E+01 0.00000E+00
 -1      1909 1.00650E+02 4.48040E+01 0.00000E+00
 -1      1910 1.04400E+02 4.61030E+01 0.00000E+00
 -1      1911 1.05900E+02 4.61030E+01 0.00000E+00
 -1      1912 1.03650E+02 4.48040E+01 0.00000E+00
 -1      1913 1.07400E+02 4.61030E+01 0.00000E+00
 -1      1914 1.08900E+02 4.61030E+01 0.00000E+00
 -1      1915 1.06650E+02 4.48040E+01 0.00000E+00
 -1      1916 1.10400E+02 4.61030E+01 0.00000E+00
 -1      1917 1.11900E+02 4.61030E+01 0.00000E+00
 -1      1918 1.09650E+02 4.48040E+01 0.00000E+00
 -1      1919 1.13400E+02 4.61030E+01 0.00000E+00
 -1      1920 1.14900E+02 4.61030E+01 0.00000E+00
 -1      1921 1.12650E+02 4.48040E+01 0.00000E+00
 -1      1922 1.16400E+02 4.61030E+01 0.00000E+00
 -1      1923 1.17900E+02 4.61030E+01 0.00000E+00
 -1      1924 1.15650E+02 4.48040E+01 0.00000E+00
 -1      1925 1.19400E+02 4.61030E+01 0.00000E+00
 -1      1926 1.20900E+02 4.61030E+01 0.00000E+00
 -1      1927 1.18650E+02 4.48040E+01 0.00000E+00
 -1      1928 1.22400E+02 4.61030E+01 0.00000E+00
 -1      1929 1.23900E+02 4.61030E+01 0.00000E+00
 -1      1930 1.21650E+02 4.48040E+01 0.00000E+00
 -1      1931 1.25400E+02 4.61030E+01 0.00000E+00
 -1      1932 1.26900E+02 4.61030E+01 0.00000E+00
 -1      1933 1.24650E+02 4.48040E+01 0.00000E+00
 -1      1934 1.28400E+02 4.61030E+01 0.00000E+00
 -1      1935 1.29900E+02 4.61030E+01 0.00000E+00
 -1      1936 1.27650E+02 4.48040E+01 0.00000E+00
 -1      1937 1.31400E+02 4.61030E+01 0.00000E+00
 -1      1938 1.32900E+02 4.61030E+01 0.00000E+00
 -1      1939 1.30650E+02 4.48040E+01 0.00000E+00
 -1      1940 1.34400E+02 4.61030E+01 0.00000E+00
 -1      1941 1.35900E+02 4.61030E+01 0.00000E+00
 -1      1942 1.33650E+02 4.48040E+01 0.00000E+00
 -1      1943 1.37400E+02 4.61030E+01 0.00000E+00
 -1      1944 1.38900E+02 4.61030E+01 0.00000E+00
 -1      1945 1.36650E+02 4.48040E+01 0.00000E+00
 -1      1946 1.40400E+02 4.61030E+01 0.00000E+00
 -1      1947 1.41900E+02 4.61030E+01 0.00000E+00
 -1      1948 1.39650E+02 4.48040E+01 0.00000E+00
 -1      1949 1.43244E+02 4.61616E+01 0.00000E+00
 -1      1950 1.44744E+02 4.61616E+01 0.00000E+00
 -1      1951 1.45182E+02 4.49799E+01 0.00000E+00
 -1      1952 1.42494E+02 4.48626E+01 0.00000E+00
 -1      1953 1.17045E+01 3.09687E+00 0.00000E+00
 -1      1954 1.02045E+01 3.09687E+00 0.00000E+00
 -1      1955 1.00350E+01 4.00625E+00 0.00000E+00
 -1      1956 1.47045E+01 3.09687E+00 0.00000E+00
 -1      1957 1.32045E+01 3.09687E+00 0.00000E+00
 -1      1958 1.30350E+01 4.00625E+00 0.00000E+00
 -1      1959 1.77045E+01 3.09687E+00 0.00000E+00
 -1      1960 1.62045E+01 3.09687E+00 0.00000E+00
 -1      1961 1.60350E+01 4.00625E+00 0.00000E+00
 -1      1962 2.07045E+01 3.09687E+00 0.00000E+00
 -1      1963 1.92045E+01 3.09687E+00 0.00000E+00
 -1      1964 1.90350E+01 4.00625E+00 0.00000E+00
 -1      1965 2.37045E+01 3.09687E+00 0.00000E+00
 -1      1966 2.22045E+01 3.09687E+00 0.00000E+00
 -1      1967 2.20350E+01 4.00625E+00 0.00000E+00
 -1      1968 2.67045E+01 3.09687E+00 0.00000E+00
 -1      1969 2.52045E+01 3.09687E+00 0.00000E+00
 -1      1970 2.50350E+01 4.00625E+00 0.00000E+00
 -1      1971 2.97045E+01 3.09687E+00 0.00000E+00
 -1      1972 2.82045E+01 3.09687E+00 0.00000E+00
 -1      1973 2.80350E+01 4.00625E+00 0.00000E+00
 -1      1974 3.27045E+01 3.09687E+00 0.00000E+00
 -1      1975 3.12045E+01 3.09687E+00 0.00000E+00
 -1      1976 3.10350E+01 4.00625E+00 0.00000E+00
 -1      1977 3.57045E+01 3.09687E+00 0.00000E+00
 -1      1978 3.42045E+01 3.09687E+00 0.00000E+00
 -1      1979 3.40350E+01 4.00625E+00 0.00000E+00
 -1      1980 3.87045E+01 3.09687E+00 0.00000E+00
 -1      1981 3.72045E+01 3.09687E+00 0.00000E+00
 -1      1982 3.70350E+01 4.00625E+00 0.00000E+00
 -1      1983 4.17045E+01 3.09687E+00 0.00000E+00
 -1      1984 4.02045E+01 3.09687E+00 0.00000E+00
 -1      1985 4.00350E+01 4.00625E+00 0.00000E+00
 -1      1986 4.47045E+01 3.09687E+00 0.00000E+00
 -1      1987 4.32045E+01 3.09687E+00 0.00000E+00
 -1      1988 4.30350E+01 4.00625E+00 0.00000E+00
 -1      1989 4.77045E+01 3.09687E+00 0.00000E+00
 -1      1990 4.62045E+01 3.09687E+00 0.00000E+00
 -1      1991 4.60350E+01 4.00625E+00 0.00000E+00
 -1      1992 5.07045E+01 3.09687E+00 0.00000E+00
 -1      1993 4.92045E+01 3.09687E+00 0.00000E+00
 -1      1994 4.90350E+01 4.00625E+00 0.00000E+00
 -1      1995 5.37045E+01 3.09687E+00 0.00000E+00
 -1      1996 5.22045E+01 3.09687E+00 0.00000E+00
 -1      1997 5.20350E+01 4.00625E+00 0.00000E+00
 -1      1998 5.67045E+01 3.09687E+00 0.00000E+00
 -1      1999 5.52045E+01 3.09687E+00 0.00000E+00
 -1      2000 5.50350E+01 4.00625E+00 0.00000E+00
 -1      2001 5.97045E+01 3.09687E+00 0.00000E+00
 -1      2002 5.82045E+01 3.09687E+00 0.00000E+00
 -1      2003 5.80350E+01 4.00625E+00 0.00000E+00
 -1      2004 6.27045E+01 3.09687E+00 0.00000E+00
 -1      2005 6.12045E+01 3.09687E+00 0.00000E+00
 -1      2006 6.10350E+01 4.00625E+00 0.00000E+00
 -1      2007 6.57045E+01 3.09687E+00 0.00000E+00
 -1      2008 6.42045E+01 3.09687E+00 0.00000E+00
 -1      2009 6.40350E+01 4.00625E+00 0.00000E+00
 -1      2010 6.87045E+01 3.09687E+00 0.00000E+00
 -1      2011 6.72045E+01 3.09687E+00 0.00000E+00
 -1      2012 6.70350E+01 4.00625E+00 0.00000E+00
 -1      2013 7.17045E+01 3.09687E+00 0.00000E+00
 -1      2014 7.02045E+01 3.09687E+00 0.00000E+00
 -1      2015 7.00350E+01 4.00625E+00 0.00000E+00
 -1      2016 7.47045E+01 3.09687E+00 0.00000E+00
 -1      2017 7.32045E+01 3.09687E+00 0.00000E+00
 -1      2018 7.30350E+01 4.00625E+00 0.00000E+00
 -1      2019 7.77045E+01 3.09687E+00 0.00000E+00
 -1      2020 7.62045E+01 3.09687E+00 0.00000E+00
 -1      2021 7.60350E+01 4.00625E+00 0.00000E+00
 -1      2022 8.07045E+01 3.09687E+00 0.00000E+00
 -1      2023 7.92045E+01 3.09687E+00 0.00000E+00
 -1      2024 7.90350E+01 4.00625E+00 0.00000E+00
 -1      2025 8.37045E+01 3.09687E+00 0.00000E+00
 -1      2026 8.22045E+01 3.09687E+00 0.00000E+00
 -1      2027 8.20350E+01 4.00625E+00 0.00000E+00
 -1      2028 8.67045E+01 3.09687E+00 0.00000E+00
 -1      2029 8.52045E+01 3.09687E+00 0.00000E+00
 -1      2030 8.50350E+01 4.00625E+00 0.00000E+00
 -1      2031 8.97045E+01 3.09687E+00 0.00000E+00
 -1      2032 8.82045E+01 3.09687E+00 0.00000E+00
 -1      2033 8.80350E+01 4.00625E+00 0.00000E+00
 -1      2034 9.27045E+01 3.09687E+00 0.00000E+00
 -1      2035 9.12045E+01 3.09687E+00 0.00000E+00
 -1      2036 9.10350E+01 4.00625E+00 0.00000E+00
 -1      2037 9.57045E+01 3.09687E+00 0.00000E+00
 -1      2038 9.42045E+01 3.09687E+00 0.00000E+00
 -1      2039 9.40350E+01 4.00625E+00 0.00000E+00
 -1      2040 9.87045E+01 3.09687E+00 0.00000E+00
 -1      2041 9.72045E+01 3.09687E+00 0.00000E+00
 -1      2042 9.70350E+01 4.00625E+00 0.00000E+00
 -1      2043 1.01704E+02 3.09687E+00 0.00000E+00
 -1      2044 1.00204E+02 3.09687E+00 0.00000E+00
 -1      2045 1.00035E+02 4.00625E+00 0.00000E+00
 -1      2046 1.04704E+02 3.09687E+00 0.00000E+00
 -1      2047 1.03204E+02 3.09687E+00 0.00000E+00
 -1      2048 1.03035E+02 4.00625E+00 0.00000E+00
 -1      2049 1.07704E+02 3.09687E+00 0.00000E+00
 -1      2050 1.06204E+02 3.09687E+00 0.00000E+00
 -1      2051 1.06035E+02 4.00625E+00 0.00000E+00
 -1      2052 1.10704E+02 3.09687E+00 0.00000E+00
 -1      2053 1.09204E+02 3.09687E+00 0.00000E+00
 -1      2054 1.09035E+02 4.00625E+00 0.00000E+00
 -1      2055 1.13704E+02 3.09687E+00 0.00000E+00
 -1      2056 1.12204E+02 3.09687E+00 0.00000E+00
 -1      2057 1.12035E+02 4.00625E+00 0.00000E+00
 -1      2058 1.16704E+02 3.09687E+00 0.00000E+00
 -1      2059 1.15204E+02 3.09687E+00 0.00000E+00
 -1      2060 1.15035E+02 4.00625E+00 0.00000E+00
 -1      2061 1.19704E+02 3.09687E+00 0.00000E+00
 -1      2062 1.18204E+02 3.09687E+00 0.00000E+00
 -1      2063 1.18035E+02 4.00625E+00 0.00000E+00
 -1      2064 1.22704E+02 3.09687E+00 0.00000E+00
 -1      2065 1.21204E+02 3.09687E+00 0.00000E+00
 -1      2066 1.21035E+02 4.00625E+00 0.00000E+00
 -1      2067 1.25704E+02 3.09687E+00 0.00000E+00
 -1      2068 1.24204E+02 3.09687E+00 0.00000E+00
 -1      2069 1.24035E+02 4.00625E+00 0.00000E+00
 -1      2070 1.28704E+02 3.09687E+00 0.00000E+00
 -1      2071 1.27204E+02 3.09687E+00 0.00000E+00
 -1      2072 1.27035E+02 4.00625E+00 0.00000E+00
 -1      2073 1.31704E+02 3.09687E+00 0.00000E+00
 -1      2074 1.30204E+02 3.09687E+00 0.00000E+00
 -1      2075 1.30035E+02 4.00625E+00 0.00000E+00
 -1      2076 1.34704E+02 3.09687E+00 0.00000E+00
 -1      2077 1.33204E+02 3.09687E+00 0.00000E+00
 -1      2078 1.33035E+02 4.00625E+00 0.00000E+00
 -1      2079 1.37704E+02 3.09687E+00 0.00000E+00
 -1      2080 1.36204E+02 3.09687E+00 0.00000E+00
 -1      2081 1.36035E+02 4.00625E+00 0.00000E+00
 -1      2082 1.40704E+02 3.09687E+00 0.00000E+00
 -1      2083 1.39204E+02 3.09687E+00 0.00000E+00
 -1      2084 1.39035E+02 4.00625E+00 0.00000E+00
 -1      2085 1.43704E+02 3.09687E+00 0.00000E+00
 -1      2086 1.42204E+02 3.09687E+00 0.00000E+00
 -1      2087 1.42035E+02 4.00625E+00 0.00000E+00
 -1      2088 1.46171E+02 3.20156E+00 0.00000E+00
 -1      2089 1.44671E+02 3.20156E+00 0.00000E+00
 -1      2090 1.44502E+02 4.11094E+00 0.00000E+00
 -1      2091 1.46435E+02 4.32031E+00 0.00000E+00
 -1      2092 1.46103E+02 1.25375E+01 0.00000E+00
 -1      2093 1.46103E+02 1.10625E+01 0.00000E+00
 -1      2094 1.46103E+02 9.58750E+00 0.00000E+00
 -1      2095 1.46103E+02 8.11250E+00 0.00000E+00
 -1      2096 1.44804E+02 1.03250E+01 0.00000E+00
 -1      2097 1.46269E+02 6.95391E+00 0.00000E+00
 -1      2098 1.46269E+02 5.47891E+00 0.00000E+00
 -1      2099 1.45302E+02 5.37422E+00 0.00000E+00
 -1      2100 1.44970E+02 7.69141E+00 0.00000E+00
 -1      2101 1.46103E+02 1.54375E+01 0.00000E+00
 -1      2102 1.46103E+02 1.39875E+01 0.00000E+00
 -1      2103 1.44804E+02 1.32500E+01 0.00000E+00
 -1      2104 1.46103E+02 1.83875E+01 0.00000E+00
 -1      2105 1.46103E+02 1.69125E+01 0.00000E+00
 -1      2106 1.44804E+02 1.61750E+01 0.00000E+00
 -1      2107 1.46103E+02 2.13375E+01 0.00000E+00
 -1      2108 1.46103E+02 1.98625E+01 0.00000E+00
 -1      2109 1.44804E+02 1.91250E+01 0.00000E+00
 -1      2110 1.46103E+02 2.42875E+01 0.00000E+00
 -1      2111 1.46103E+02 2.28125E+01 0.00000E+00
 -1      2112 1.44804E+02 2.20750E+01 0.00000E+00
 -1      2113 1.46103E+02 2.72375E+01 0.00000E+00
 -1      2114 1.46103E+02 2.57625E+01 0.00000E+00
 -1      2115 1.44804E+02 2.50250E+01 0.00000E+00
 -1      2116 1.46103E+02 3.01875E+01 0.00000E+00
 -1      2117 1.46103E+02 2.87125E+01 0.00000E+00
 -1      2118 1.44804E+02 2.79750E+01 0.00000E+00
 -1      2119 1.46103E+02 3.30875E+01 0.00000E+00
 -1      2120 1.46103E+02 3.16375E+01 0.00000E+00
 -1      2121 1.44804E+02 3.09000E+01 0.00000E+00
 -1      2122 1.46103E+02 3.60375E+01 0.00000E+00
 -1      2123 1.46103E+02 3.45625E+01 0.00000E+00
 -1      2124 1.44804E+02 3.38250E+01 0.00000E+00
 -1      2125 1.46103E+02 3.89875E+01 0.00000E+00
 -1      2126 1.46103E+02 3.75125E+01 0.00000E+00
 -1      2127 1.44804E+02 3.67750E+01 0.00000E+00
 -1      2128 1.46103E+02 4.19375E+01 0.00000E+00
 -1      2129 1.46103E+02 4.04625E+01 0.00000E+00
 -1      2130 1.44804E+02 3.97250E+01 0.00000E+00
 -1      2131 1.11576E+02 2.29942E+01 0.00000E+00
 -1      2132 1.11887E+02 2.37956E+01 0.00000E+00
 -1      2133 1.12400E+02 2.65153E+01 0.00000E+00
 -1      2134 1.12406E+02 2.73408E+01 0.00000E+00
 -1      2135 1.12162E+02 2.47185E+01 0.00000E+00
 -1      2136 1.12337E+02 2.55489E+01 0.00000E+00
 -1      2137 1.10616E+02 2.12753E+01 0.00000E+00
 -1      2138 1.11169E+02 2.19618E+01 0.00000E+00
 -1      2139 1.09385E+02 1.99616E+01 0.00000E+00
 -1      2140 1.10001E+02 2.06185E+01 0.00000E+00
 -1      2141 1.10945E+02 2.04239E+01 0.00000E+00
 -1      2142 3.89700E+00 3.74688E+01 0.00000E+00
 -1      2143 3.89700E+00 3.89437E+01 0.00000E+00
 -1      2144 5.19600E+00 3.96813E+01 0.00000E+00
 -1      2145 5.19600E+00 3.67438E+01 0.00000E+00
 -1      2146 1.05764E+02 1.83730E+01 0.00000E+00
 -1      2147 1.06601E+02 1.85856E+01 0.00000E+00
 -1      2148 1.03980E+02 1.80789E+01 0.00000E+00
 -1      2149 1.04838E+02 1.81940E+01 0.00000E+00
 -1      2150 1.02053E+02 1.81639E+01 0.00000E+00
 -1      2151 1.02902E+02 1.80165E+01 0.00000E+00
 -1      2152 1.00289E+02 1.86944E+01 0.00000E+00
 -1      2153 1.01100E+02 1.84111E+01 0.00000E+00
 -1      2154 9.85805E+01 1.95274E+01 0.00000E+00
 -1      2155 9.94011E+01 1.91170E+01 0.00000E+00
 -1      2156 9.70122E+01 2.09276E+01 0.00000E+00
 -1      2157 9.76113E+01 2.02310E+01 0.00000E+00
 -1      2158 9.58972E+01 2.23363E+01 0.00000E+00
 -1      2159 9.64547E+01 2.16320E+01 0.00000E+00
 -1      2160 9.61676E+01 2.07791E+01 0.00000E+00
 -1      2161 9.48994E+01 2.41687E+01 0.00000E+00
 -1      2162 9.52209E+01 2.33143E+01 0.00000E+00
 -1      2163 9.46169E+01 2.61681E+01 0.00000E+00
 -1      2164 9.46622E+01 2.52917E+01 0.00000E+00
 -1      2165 9.46442E+01 2.78598E+01 0.00000E+00
 -1      2166 9.46305E+01 2.70139E+01 0.00000E+00
 -1      2167 9.37968E+01 2.65315E+01 0.00000E+00
 -1      2168 9.51031E+01 2.98037E+01 0.00000E+00
 -1      2169 9.48369E+01 2.90005E+01 0.00000E+00
 -1      2170 9.58694E+01 3.12889E+01 0.00000E+00
 -1      2171 9.54863E+01 3.05463E+01 0.00000E+00
 -1      2172 9.45789E+01 3.04014E+01 0.00000E+00
 -1      2173 9.70117E+01 3.28456E+01 0.00000E+00
 -1      2174 9.65072E+01 3.21606E+01 0.00000E+00
 -1      2175 9.83091E+01 3.41445E+01 0.00000E+00
 -1      2176 9.76716E+01 3.35721E+01 0.00000E+00
 -1      2177 9.99782E+01 3.50106E+01 0.00000E+00
 -1      2178 9.92070E+01 3.47039E+01 0.00000E+00
 -1      2179 1.01595E+02 3.56169E+01 0.00000E+00
 -1      2180 1.00789E+02 3.53501E+01 0.00000E+00
 -1      2181 1.03465E+02 3.58980E+01 0.00000E+00
 -1      2182 1.02620E+02 3.58786E+01 0.00000E+00
 -1      2183 1.05158E+02 3.58264E+01 0.00000E+00
 -1      2184 1.04312E+02 3.58622E+01 0.00000E+00
 -1      2185 1.03871E+02 3.66261E+01 0.00000E+00
 -1      2186 1.07043E+02 3.51499E+01 0.00000E+00
 -1      2187 1.06274E+02 3.55085E+01 0.00000E+00
 -1      2188 1.08422E+02 3.43167E+01 0.00000E+00
 -1      2189 1.07732E+02 3.47333E+01 0.00000E+00
 -1      2190 1.07640E+02 3.55378E+01 0.00000E+00
 -1      2191 1.09965E+02 3.32694E+01 0.00000E+00
 -1      2192 1.09278E+02 3.37963E+01 0.00000E+00
 -1      2193 1.11175E+02 3.16928E+01 0.00000E+00
 -1      2194 1.10740E+02 3.24470E+01 0.00000E+00
 -1      2195 1.11919E+02 3.01610E+01 0.00000E+00
 -1      2196 1.11547E+02 3.09269E+01 0.00000E+00
 -1      2197 1.11963E+02 3.16696E+01 0.00000E+00
 -1      2198 1.12336E+02 2.82725E+01 0.00000E+00
 -1      2199 1.12207E+02 2.91028E+01 0.00000E+00
 -1      2200 1.07593E+02 1.88674E+01 0.00000E+00
 -1      2201 1.08389E+02 1.92652E+01 0.00000E+00
 -1      2202 6.42300E+00 4.57510E+01 0.00000E+00
 -1      2203 1.09333E+02 1.90706E+01 0.00000E+00
 -1      2204 1.07344E+02 1.80924E+01 0.00000E+00
 -1      2205 7.17300E+00 4.44520E+01 0.00000E+00
 -1      2206 1.12650E+02 2.40683E+01 0.00000E+00
 -1      2207 1.12988E+02 2.59575E+01 0.00000E+00
 -1      2208 1.45665E+02 4.31193E+01 0.00000E+00
 -1      2209 1.11968E+02 2.21131E+01 0.00000E+00
 -1      2210 1.12982E+02 2.78556E+01 0.00000E+00
 -1      2211 1.12624E+02 2.98454E+01 0.00000E+00
 -1      2212 1.09185E+02 3.46008E+01 0.00000E+00
 -1      2213 1.05834E+02 3.62723E+01 0.00000E+00
 -1      2214 1.02000E+02 3.64002E+01 0.00000E+00
 -1      2215 1.00164E+02 3.57990E+01 0.00000E+00
 -1      2216 9.84553E+01 3.49000E+01 0.00000E+00
 -1      2217 9.55998E+01 3.20158E+01 0.00000E+00
 -1      2218 9.40031E+01 2.85181E+01 0.00000E+00
 -1      2219 9.49338E+01 2.24614E+01 0.00000E+00
 -1      2220 9.76943E+01 1.93712E+01 0.00000E+00
 -1      2221 9.95512E+01 1.82450E+01 0.00000E+00
 -1      2222 1.01392E+02 1.75751E+01 0.00000E+00
 -1      2223 1.05426E+02 1.76316E+01 0.00000E+00
 -1      2224 1.03423E+02 1.73902E+01 0.00000E+00
 -1      2225 9.40203E+01 2.45625E+01 0.00000E+00
 -1      2226 9.68975E+01 3.36140E+01 0.00000E+00
 -1      2227 1.10816E+02 3.32579E+01 0.00000E+00
 -1      2228 1.07850E+01 5.30525E+00 0.00000E+00
 -1      2229 9.28500E+00 5.30525E+00 0.00000E+00
 -1      2230 6.49500E+00 3.01125E+01 0.00000E+00
 -1      2231 6.49500E+00 3.15875E+01 0.00000E+00
 -1      2232 6.49500E+00 3.30625E+01 0.00000E+00
 -1      2233 6.49500E+00 3.45375E+01 0.00000E+00
 -1      2234 7.79400E+00 3.23250E+01 0.00000E+00
 -1      2235 6.49500E+00 2.42125E+01 0.00000E+00
 -1      2236 6.49500E+00 2.56875E+01 0.00000E+00
 -1      2237 6.49500E+00 2.12625E+01 0.00000E+00
 -1      2238 6.49500E+00 2.27375E+01 0.00000E+00
 -1      2239 7.79400E+00 2.34750E+01 0.00000E+00
 -1      2240 6.49500E+00 1.83625E+01 0.00000E+00
 -1      2241 6.49500E+00 1.98125E+01 0.00000E+00
 -1      2242 7.79400E+00 2.05500E+01 0.00000E+00
 -1      2243 6.49500E+00 1.54125E+01 0.00000E+00
 -1      2244 6.49500E+00 1.68875E+01 0.00000E+00
 -1      2245 7.79400E+00 1.76250E+01 0.00000E+00
 -1      2246 6.49500E+00 1.24625E+01 0.00000E+00
 -1      2247 6.49500E+00 1.39375E+01 0.00000E+00
 -1      2248 7.79400E+00 1.46750E+01 0.00000E+00
 -1      2249 6.49500E+00 9.51250E+00 0.00000E+00
 -1      2250 6.49500E+00 1.09875E+01 0.00000E+00
 -1      2251 7.79400E+00 1.17250E+01 0.00000E+00
 -1      2252 1.37850E+01 5.30525E+00 0.00000E+00
 -1      2253 1.22850E+01 5.30525E+00 0.00000E+00
 -1      2254 1.15350E+01 6.60425E+00 0.00000E+00
 -1      2255 9.90000E+00 4.35050E+01 0.00000E+00
 -1      2256 1.14000E+01 4.35050E+01 0.00000E+00
 -1      2257 1.09422E+02 1.78822E+01 0.00000E+00
 -1      2258 1.10419E+02 1.85787E+01 0.00000E+00
 -1      2259 1.29000E+01 4.35050E+01 0.00000E+00
 -1      2260 1.44000E+01 4.35050E+01 0.00000E+00
 -1      2261 1.21500E+01 4.22060E+01 0.00000E+00
 -1      2262 1.59000E+01 4.35050E+01 0.00000E+00
 -1      2263 1.74000E+01 4.35050E+01 0.00000E+00
 -1      2264 1.51500E+01 4.22060E+01 0.00000E+00
 -1      2265 1.89000E+01 4.35050E+01 0.00000E+00
 -1      2266 2.04000E+01 4.35050E+01 0.00000E+00
 -1      2267 1.81500E+01 4.22060E+01 0.00000E+00
 -1      2268 2.19000E+01 4.35050E+01 0.00000E+00
 -1      2269 2.34000E+01 4.35050E+01 0.00000E+00
 -1      2270 2.11500E+01 4.22060E+01 0.00000E+00
 -1      2271 2.49000E+01 4.35050E+01 0.00000E+00
 -1      2272 2.64000E+01 4.35050E+01 0.00000E+00
 -1      2273 2.41500E+01 4.22060E+01 0.00000E+00
 -1      2274 2.79000E+01 4.35050E+01 0.00000E+00
 -1      2275 2.94000E+01 4.35050E+01 0.00000E+00
 -1      2276 2.71500E+01 4.22060E+01 0.00000E+00
 -1      2277 3.09000E+01 4.35050E+01 0.00000E+00
 -1      2278 3.24000E+01 4.35050E+01 0.00000E+00
 -1      2279 3.01500E+01 4.22060E+01 0.00000E+00
 -1      2280 3.39000E+01 4.35050E+01 0.00000E+00
 -1      2281 3.54000E+01 4.35050E+01 0.00000E+00
 -1      2282 3.31500E+01 4.22060E+01 0.00000E+00
 -1      2283 3.69000E+01 4.35050E+01 0.00000E+00
 -1      2284 3.84000E+01 4.35050E+01 0.00000E+00
 -1      2285 3.61500E+01 4.22060E+01 0.00000E+00
 -1      2286 3.99000E+01 4.35050E+01 0.00000E+00
 -1      2287 4.14000E+01 4.35050E+01 0.00000E+00
 -1      2288 3.91500E+01 4.22060E+01 0.00000E+00
 -1      2289 4.29000E+01 4.35050E+01 0.00000E+00
 -1      2290 4.44000E+01 4.35050E+01 0.00000E+00
 -1      2291 4.21500E+01 4.22060E+01 0.00000E+00
 -1      2292 4.59000E+01 4.35050E+01 0.00000E+00
 -1      2293 4.74000E+01 4.35050E+01 0.00000E+00
 -1      2294 4.51500E+01 4.22060E+01 0.00000E+00
 -1      2295 4.89000E+01 4.35050E+01 0.00000E+00
 -1      2296 5.04000E+01 4.35050E+01 0.00000E+00
 -1      2297 4.81500E+01 4.22060E+01 0.00000E+00
 -1      2298 5.19000E+01 4.35050E+01 0.00000E+00
 -1      2299 5.34000E+01 4.35050E+01 0.00000E+00
 -1      2300 5.11500E+01 4.22060E+01 0.00000E+00
 -1      2301 5.49000E+01 4.35050E+01 0.00000E+00
 -1      2302 5.64000E+01 4.35050E+01 0.00000E+00
 -1      2303 5.41500E+01 4.22060E+01 0.00000E+00
 -1      2304 5.79000E+01 4.35050E+01 0.00000E+00
 -1      2305 5.94000E+01 4.35050E+01 0.00000E+00
 -1      2306 5.71500E+01 4.22060E+01 0.00000E+00
 -1      2307 6.09000E+01 4.35050E+01 0.00000E+00
 -1      2308 6.24000E+01 4.35050E+01 0.00000E+00
 -1      2309 6.01500E+01 4.22060E+01 0.00000E+00
 -1      2310 6.39000E+01 4.35050E+01 0.00000E+00
 -1      2311 6.54000E+01 4.35050E+01 0.00000E+00
 -1      2312 6.31500E+01 4.22060E+01 0.00000E+00
 -1      2313 6.69000E+01 4.35050E+01 0.00000E+00
 -1      2314 6.84000E+01 4.35050E+01 0.00000E+00
 -1      2315 6.61500E+01 4.22060E+01 0.00000E+00
 -1      2316 6.99000E+01 4.35050E+01 0.00000E+00
 -1      2317 7.14000E+01 4.35050E+01 0.00000E+00
 -1      2318 6.91500E+01 4.22060E+01 0.00000E+00
 -1      2319 7.29000E+01 4.35050E+01 0.00000E+00
 -1      2320 7.44000E+01 4.35050E+01 0.00000E+00
 -1      2321 7.21500E+01 4.22060E+01 0.00000E+00
 -1      2322 7.59000E+01 4.35050E+01 0.00000E+00
 -1      2323 7.74000E+01 4.35050E+01 0.00000E+00
 -1      2324 7.51500E+01 4.22060E+01 0.00000E+00
 -1      2325 7.89000E+01 4.35050E+01 0.00000E+00
 -1      2326 8.04000E+01 4.35050E+01 0.00000E+00
 -1      2327 7.81500E+01 4.22060E+01 0.00000E+00
 -1      2328 8.19000E+01 4.35050E+01 0.00000E+00
 -1      2329 8.34000E+01 4.35050E+01 0.00000E+00
 -1      2330 8.11500E+01 4.22060E+01 0.00000E+00
 -1      2331 8.49000E+01 4.35050E+01 0.00000E+00
 -1      2332 8.64000E+01 4.35050E+01 0.00000E+00
 -1      2333 8.41500E+01 4.22060E+01 0.00000E+00
 -1      2334 8.79000E+01 4.35050E+01 0.00000E+00
 -1      2335 8.94000E+01 4.35050E+01 0.00000E+00
 -1      2336 8.71500E+01 4.22060E+01 0.00000E+00
 -1      2337 9.09000E+01 4.35050E+01 0.00000E+00
 -1      2338 9.24000E+01 4.35050E+01 0.00000E+00
 -1      2339 9.01500E+01 4.22060E+01 0.00000E+00
 -1      2340 9.39000E+01 4.35050E+01 0.00000E+00
 -1      2341 9.54000E+01 4.35050E+01 0.00000E+00
 -1      2342 9.31500E+01 4.22060E+01 0.00000E+00
 -1      2343 9.69000E+01 4.35050E+01 0.00000E+00
 -1      2344 9.84000E+01 4.35050E+01 0.00000E+00
 -1      2345 9.61500E+01 4.22060E+01 0.00000E+00
 -1      2346 9.99000E+01 4.35050E+01 0.00000E+00
 -1      2347 1.01400E+02 4.35050E+01 0.00000E+00
 -1      2348 9.91500E+01 4.22060E+01 0.00000E+00
 -1      2349 1.02900E+02 4.35050E+01 0.00000E+00
 -1      2350 1.04400E+02 4.35050E+01 0.00000E+00
 -1      2351 1.02150E+02 4.22060E+01 0.00000E+00
 -1      2352 1.05900E+02 4.35050E+01 0.00000E+00
 -1      2353 1.07400E+02 4.35050E+01 0.00000E+00
 -1      2354 1.05150E+02 4.22060E+01 0.00000E+00
 -1      2355 1.08900E+02 4.35050E+01 0.00000E+00
 -1      2356 1.10400E+02 4.35050E+01 0.00000E+00
 -1      2357 1.08150E+02 4.22060E+01 0.00000E+00
 -1      2358 1.11900E+02 4.35050E+01 0.00000E+00
 -1      2359 1.13400E+02 4.35050E+01 0.00000E+00
 -1      2360 1.11150E+02 4.22060E+01 0.00000E+00
 -1      2361 1.14900E+02 4.35050E+01 0.00000E+00
 -1      2362 1.16400E+02 4.35050E+01 0.00000E+00
 -1      2363 1.14150E+02 4.22060E+01 0.00000E+00
 -1      2364 1.17900E+02 4.35050E+01 0.00000E+00
 -1      2365 1.19400E+02 4.35050E+01 0.00000E+00
 -1      2366 1.17150E+02 4.22060E+01 0.00000E+00
 -1      2367 1.20900E+02 4.35050E+01 0.00000E+00
 -1      2368 1.22400E+02 4.35050E+01 0.00000E+00
 -1      2369 1.20150E+02 4.22060E+01 0.00000E+00
 -1      2370 1.23900E+02 4.35050E+01 0.00000E+00
 -1      2371 1.25400E+02 4.35050E+01 0.00000E+00
 -1      2372 1.23150E+02 4.22060E+01 0.00000E+00
 -1      2373 1.26900E+02 4.35050E+01 0.00000E+00
 -1      2374 1.28400E+02 4.35050E+01 0.00000E+00
 -1      2375 1.26150E+02 4.22060E+01 0.00000E+00
 -1      2376 1.29900E+02 4.35050E+01 0.00000E+00
 -1      2377 1.31400E+02 4.35050E+01 0.00000E+00
 -1      2378 1.29150E+02 4.22060E+01 0.00000E+00
 -1      2379 1.32900E+02 4.35050E+01 0.00000E+00
 -1      2380 1.34400E+02 4.35050E+01 0.00000E+00
 -1      2381 1.32150E+02 4.22060E+01 0.00000E+00
 -1      2382 1.35900E+02 4.35050E+01 0.00000E+00
 -1      2383 1.37400E+02 4.35050E+01 0.00000E+00
 -1      2384 1.35150E+02 4.22060E+01 0.00000E+00
 -1      2385 1.38900E+02 4.35050E+01 0.00000E+00
 -1      2386 1.40400E+02 4.35050E+01 0.00000E+00
 -1      2387 1.38150E+02 4.22060E+01 0.00000E+00
 -1      2388 1.97850E+01 5.30525E+00 0.00000E+00
 -1      2389 1.82850E+01 5.30525E+00 0.00000E+00
 -1      2390 2.27850E+01 5.30525E+00 0.00000E+00
 -1      2391 2.12850E+01 5.30525E+00 0.00000E+00
 -1      2392 2.05350E+01 6.60425E+00 0.00000E+00
 -1      2393 2.57850E+01 5.30525E+00 0.00000E+00
 -1      2394 2.42850E+01 5.30525E+00 0.00000E+00
 -1      2395 2.35350E+01 6.60425E+00 0.00000E+00
 -1      2396 2.87850E+01 5.30525E+00 0.00000E+00
 -1      2397 2.72850E+01 5.30525E+00 0.00000E+00
 -1      2398 2.65350E+01 6.60425E+00 0.00000E+00
 -1      2399 3.17850E+01 5.30525E+00 0.00000E+00
 -1      2400 3.02850E+01 5.30525E+00 0.00000E+00
 -1      2401 2.95350E+01 6.60425E+00 0.00000E+00
 -1      2402 3.47850E+01 5.30525E+00 0.00000E+00
 -1      2403 3.32850E+01 5.30525E+00 0.00000E+00
 -1      2404 3.25350E+01 6.60425E+00 0.00000E+00
 -1      2405 3.77850E+01 5.30525E+00 0.00000E+00
 -1      2406 3.62850E+01 5.30525E+00 0.00000E+00
 -1      2407 3.55350E+01 6.60425E+00 0.00000E+00
 -1      2408 4.07850E+01 5.30525E+00 0.00000E+00
 -1      2409 3.92850E+01 5.30525E+00 0.00000E+00
 -1      2410 3.85350E+01 6.60425E+00 0.00000E+00
 -1      2411 4.37850E+01 5.30525E+00 0.00000E+00
 -1      2412 4.22850E+01 5.30525E+00 0.00000E+00
 -1      2413 4.15350E+01 6.60425E+00 0.00000E+00
 -1      2414 4.67850E+01 5.30525E+00 0.00000E+00
 -1      2415 4.52850E+01 5.30525E+00 0.00000E+00
 -1      2416 4.45350E+01 6.60425E+00 0.00000E+00
 -1      2417 4.97850E+01 5.30525E+00 0.00000E+00
 -1      2418 4.82850E+01 5.30525E+00 0.00000E+00
 -1      2419 4.75350E+01 6.60425E+00 0.00000E+00
 -1      2420 5.27850E+01 5.30525E+00 0.00000E+00
 -1      2421 5.12850E+01 5.30525E+00 0.00000E+00
 -1      2422 5.05350E+01 6.60425E+00 0.00000E+00
 -1      2423 5.57850E+01 5.30525E+00 0.00000E+00
 -1      2424 5.42850E+01 5.30525E+00 0.00000E+00
 -1      2425 5.35350E+01 6.60425E+00 0.00000E+00
 -1      2426 5.87850E+01 5.30525E+00 0.00000E+00
 -1      2427 5.72850E+01 5.30525E+00 0.00000E+00
 -1      2428 5.65350E+01 6.60425E+00 0.00000E+00
 -1      2429 6.17850E+01 5.30525E+00 0.00000E+00
 -1      2430 6.02850E+01 5.30525E+00 0.00000E+00
 -1      2431 5.95350E+01 6.60425E+00 0.00000E+00
 -1      2432 6.47850E+01 5.30525E+00 0.00000E+00
 -1      2433 6.32850E+01 5.30525E+00 0.00000E+00
 -1      2434 6.25350E+01 6.60425E+00 0.00000E+00
 -1      2435 6.77850E+01 5.30525E+00 0.00000E+00
 -1      2436 6.62850E+01 5.30525E+00 0.00000E+00
 -1      2437 6.55350E+01 6.60425E+00 0.00000E+00
 -1      2438 7.07850E+01 5.30525E+00 0.00000E+00
 -1      2439 6.92850E+01 5.30525E+00 0.00000E+00
 -1      2440 6.85350E+01 6.60425E+00 0.00000E+00
 -1      2441 7.37850E+01 5.30525E+00 0.00000E+00
 -1      2442 7.22850E+01 5.30525E+00 0.00000E+00
 -1      2443 7.15350E+01 6.60425E+00 0.00000E+00
 -1      2444 7.67850E+01 5.30525E+00 0.00000E+00
 -1      2445 7.52850E+01 5.30525E+00 0.00000E+00
 -1      2446 7.45350E+01 6.60425E+00 0.00000E+00
 -1      2447 7.97850E+01 5.30525E+00 0.00000E+00
 -1      2448 7.82850E+01 5.30525E+00 0.00000E+00
 -1      2449 7.75350E+01 6.60425E+00 0.00000E+00
 -1      2450 8.27850E+01 5.30525E+00 0.00000E+00
 -1      2451 8.12850E+01 5.30525E+00 0.00000E+00
 -1      2452 8.05350E+01 6.60425E+00 0.00000E+00
 -1      2453 8.57850E+01 5.30525E+00 0.00000E+00
 -1      2454 8.42850E+01 5.30525E+00 0.00000E+00
 -1      2455 8.35350E+01 6.60425E+00 0.00000E+00
 -1      2456 8.87850E+01 5.30525E+00 0.00000E+00
 -1      2457 8.72850E+01 5.30525E+00 0.00000E+00
 -1      2458 8.65350E+01 6.60425E+00 0.00000E+00
 -1      2459 9.17850E+01 5.30525E+00 0.00000E+00
 -1      2460 9.02850E+01 5.30525E+00 0.00000E+00
 -1      2461 8.95350E+01 6.60425E+00 0.00000E+00
 -1      2462 9.47850E+01 5.30525E+00 0.00000E+00
 -1      2463 9.32850E+01 5.30525E+00 0.00000E+00
 -1      2464 9.25350E+01 6.60425E+00 0.00000E+00
 -1      2465 9.77850E+01 5.30525E+00 0.00000E+00
 -1      2466 9.62850E+01 5.30525E+00 0.00000E+00
 -1      2467 9.55350E+01 6.60425E+00 0.00000E+00
 -1      2468 1.00785E+02 5.30525E+00 0.00000E+00
 -1      2469 9.92850E+01 5.30525E+00 0.00000E+00
 -1      2470 9.85350E+01 6.60425E+00 0.00000E+00
 -1      2471 1.03785E+02 5.30525E+00 0.00000E+00
 -1      2472 1.02285E+02 5.30525E+00 0.00000E+00
 -1      2473 1.01535E+02 6.60425E+00 0.00000E+00
 -1      2474 1.06785E+02 5.30525E+00 0.00000E+00
 -1      2475 1.05285E+02 5.30525E+00 0.00000E+00
 -1      2476 1.04535E+02 6.60425E+00 0.00000E+00
 -1      2477 1.09785E+02 5.30525E+00 0.00000E+00
 -1      2478 1.08285E+02 5.30525E+00 0.00000E+00
 -1      2479 1.07535E+02 6.60425E+00 0.00000E+00
 -1      2480 1.12785E+02 5.30525E+00 0.00000E+00
 -1      2481 1.11285E+02 5.30525E+00 0.00000E+00
 -1      2482 1.10535E+02 6.60425E+00 0.00000E+00
 -1      2483 1.15785E+02 5.30525E+00 0.00000E+00
 -1      2484 1.14285E+02 5.30525E+00 0.00000E+00
 -1      2485 1.13535E+02 6.60425E+00 0.00000E+00
 -1      2486 1.18785E+02 5.30525E+00 0.00000E+00
 -1      2487 1.17285E+02 5.30525E+00 0.00000E+00
 -1      2488 1.16535E+02 6.60425E+00 0.00000E+00
 -1      2489 1.21785E+02 5.30525E+00 0.00000E+00
 -1      2490 1.20285E+02 5.30525E+00 0.00000E+00
 -1      2491 1.19535E+02 6.60425E+00 0.00000E+00
 -1      2492 1.24785E+02 5.30525E+00 0.00000E+00
 -1      2493 1.23285E+02 5.30525E+00 0.00000E+00
 -1      2494 1.22535E+02 6.60425E+00 0.00000E+00
 -1      2495 1.27785E+02 5.30525E+00 0.00000E+00
 -1      2496 1.26285E+02 5.30525E+00 0.00000E+00
 -1      2497 1.25535E+02 6.60425E+00 0.00000E+00
 -1      2498 1.30785E+02 5.30525E+00 0.00000E+00
 -1      2499 1.29285E+02 5.30525E+00 0.00000E+00
 -1      2500 1.28535E+02 6.60425E+00 0.00000E+00
 -1      2501 1.33785E+02 5.30525E+00 0.00000E+00
 -1      2502 1.32285E+02 5.30525E+00 0.00000E+00
 -1      2503 1.31535E+02 6.60425E+00 0.00000E+00
 -1      2504 1.36785E+02 5.30525E+00 0.00000E+00
 -1      2505 1.35285E+02 5.30525E+00 0.00000E+00
 -1      2506 1.34535E+02 6.60425E+00 0.00000E+00
 -1      2507 1.39785E+02 5.30525E+00 0.00000E+00
 -1      2508 1.38285E+02 5.30525E+00 0.00000E+00
 -1      2509 1.37535E+02 6.60425E+00 0.00000E+00
 -1      2510 1.42785E+02 5.30525E+00 0.00000E+00
 -1      2511 1.41285E+02 5.30525E+00 0.00000E+00
 -1      2512 1.40535E+02 6.60425E+00 0.00000E+00
 -1      2513 1.44336E+02 5.26953E+00 0.00000E+00
 -1      2514 1.43505E+02 1.69125E+01 0.00000E+00
 -1      2515 1.43505E+02 1.54375E+01 0.00000E+00
 -1      2516 1.43505E+02 1.98625E+01 0.00000E+00
 -1      2517 1.43505E+02 1.83875E+01 0.00000E+00
 -1      2518 1.42206E+02 1.76500E+01 0.00000E+00
 -1      2519 1.43505E+02 1.10625E+01 0.00000E+00
 -1      2520 1.43505E+02 9.58750E+00 0.00000E+00
 -1      2521 1.43505E+02 1.39750E+01 0.00000E+00
 -1      2522 1.43505E+02 1.25250E+01 0.00000E+00
 -1      2523 1.42206E+02 1.17875E+01 0.00000E+00
 -1      2524 1.42206E+02 1.47125E+01 0.00000E+00
 -1      2525 1.43505E+02 2.28125E+01 0.00000E+00
 -1      2526 1.43505E+02 2.13375E+01 0.00000E+00
 -1      2527 1.42206E+02 2.06000E+01 0.00000E+00
 -1      2528 1.43505E+02 2.57625E+01 0.00000E+00
 -1      2529 1.43505E+02 2.42875E+01 0.00000E+00
 -1      2530 1.42206E+02 2.35500E+01 0.00000E+00
 -1      2531 1.43505E+02 2.87125E+01 0.00000E+00
 -1      2532 1.43505E+02 2.72375E+01 0.00000E+00
 -1      2533 1.42206E+02 2.65000E+01 0.00000E+00
 -1      2534 1.43505E+02 3.16125E+01 0.00000E+00
 -1      2535 1.43505E+02 3.01625E+01 0.00000E+00
 -1      2536 1.42206E+02 2.94250E+01 0.00000E+00
 -1      2537 1.43505E+02 3.45625E+01 0.00000E+00
 -1      2538 1.43505E+02 3.30875E+01 0.00000E+00
 -1      2539 1.42206E+02 3.23500E+01 0.00000E+00
 -1      2540 1.43505E+02 3.75125E+01 0.00000E+00
 -1      2541 1.43505E+02 3.60375E+01 0.00000E+00
 -1      2542 1.42206E+02 3.53000E+01 0.00000E+00
 -1      2543 1.43505E+02 4.04625E+01 0.00000E+00
 -1      2544 1.43505E+02 3.89875E+01 0.00000E+00
 -1      2545 1.42206E+02 3.82500E+01 0.00000E+00
 -1      2546 1.13812E+02 2.54182E+01 0.00000E+00
 -1      2547 1.13875E+02 2.63846E+01 0.00000E+00
 -1      2548 1.12523E+02 2.12977E+01 0.00000E+00
 -1      2549 1.12930E+02 2.23300E+01 0.00000E+00
 -1      2550 1.67850E+01 5.30525E+00 0.00000E+00
 -1      2551 1.52850E+01 5.30525E+00 0.00000E+00
 -1      2552 1.75350E+01 6.60425E+00 0.00000E+00
 -1      2553 1.44321E+02 4.30606E+01 0.00000E+00
 -1      2554 1.13830E+02 2.74505E+01 0.00000E+00
 -1      2555 1.13760E+02 2.83822E+01 0.00000E+00
 -1      2556 1.11263E+02 1.95091E+01 0.00000E+00
 -1      2557 1.11878E+02 2.01659E+01 0.00000E+00
 -1      2558 6.55950E+00 4.28890E+01 0.00000E+00
 -1      2559 8.53650E+00 4.32410E+01 0.00000E+00
 -1      2560 9.28650E+00 4.19420E+01 0.00000E+00
 -1      2561 6.55950E+00 4.14140E+01 0.00000E+00
 -1      2562 1.10037E+02 3.50375E+01 0.00000E+00
 -1      2563 1.09181E+02 3.55579E+01 0.00000E+00
 -1      2564 1.02300E+02 3.73619E+01 0.00000E+00
 -1      2565 1.01276E+02 3.71002E+01 0.00000E+00
 -1      2566 9.39593E+01 2.25104E+01 0.00000E+00
 -1      2567 9.46356E+01 2.15323E+01 0.00000E+00
 -1      2568 9.67305E+01 1.90629E+01 0.00000E+00
 -1      2569 9.76997E+01 1.83593E+01 0.00000E+00
 -1      2570 6.49500E+00 2.71625E+01 0.00000E+00
 -1      2571 6.49500E+00 2.86375E+01 0.00000E+00
 -1      2572 7.79400E+00 2.93750E+01 0.00000E+00
 -1      2573 7.79400E+00 2.64250E+01 0.00000E+00
 -1      2574 1.02934E+02 1.65029E+01 0.00000E+00
 -1      2575 1.04011E+02 1.65653E+01 0.00000E+00
 -1      2576 9.30627E+01 2.49469E+01 0.00000E+00
 -1      2577 9.32999E+01 2.38238E+01 0.00000E+00
 -1      2578 1.05118E+02 1.67412E+01 0.00000E+00
 -1      2579 1.06044E+02 1.69202E+01 0.00000E+00
 -1      2580 1.00679E+02 1.67875E+01 0.00000E+00
 -1      2581 1.01632E+02 1.65403E+01 0.00000E+00
 -1      2582 9.87567E+01 1.77198E+01 0.00000E+00
 -1      2583 9.96445E+01 1.72972E+01 0.00000E+00
 -1      2584 9.51930E+01 2.08280E+01 0.00000E+00
 -1      2585 9.57505E+01 2.01237E+01 0.00000E+00
 -1      2586 9.42185E+01 2.08769E+01 0.00000E+00
 -1      2587 9.65926E+01 3.45538E+01 0.00000E+00
 -1      2588 9.59328E+01 3.38273E+01 0.00000E+00
 -1      2589 9.29462E+01 2.69683E+01 0.00000E+00
 -1      2590 9.29325E+01 2.61224E+01 0.00000E+00
 -1      2591 9.33315E+01 2.92497E+01 0.00000E+00
 -1      2592 9.31388E+01 2.81090E+01 0.00000E+00
 -1      2593 9.22746E+01 2.76999E+01 0.00000E+00
 -1      2594 9.40456E+01 3.11467E+01 0.00000E+00
 -1      2595 9.36625E+01 3.04041E+01 0.00000E+00
 -1      2596 1.11767E+02 3.33774E+01 0.00000E+00
 -1      2597 1.10992E+02 3.41998E+01 0.00000E+00
 -1      2598 9.52950E+01 3.29556E+01 0.00000E+00
 -1      2599 9.46572E+01 3.20839E+01 0.00000E+00
 -1      2600 9.49901E+01 3.38954E+01 0.00000E+00
 -1      2601 9.84950E+01 3.58365E+01 0.00000E+00
 -1      2602 9.75971E+01 3.52770E+01 0.00000E+00
 -1      2603 1.00255E+02 3.67212E+01 0.00000E+00
 -1      2604 9.94438E+01 3.63817E+01 0.00000E+00
 -1      2605 1.04324E+02 3.72975E+01 0.00000E+00
 -1      2606 1.03477E+02 3.73333E+01 0.00000E+00
 -1      2607 1.06604E+02 3.68576E+01 0.00000E+00
 -1      2608 1.05488E+02 3.71755E+01 0.00000E+00
 -1      2609 1.08492E+02 3.59745E+01 0.00000E+00
 -1      2610 1.07802E+02 3.63911E+01 0.00000E+00
 -1      2611 1.09343E+02 3.64112E+01 0.00000E+00
 -1      2612 1.12808E+02 3.16064E+01 0.00000E+00
 -1      2613 1.12436E+02 3.23723E+01 0.00000E+00
 -1      2614 1.13514E+02 2.95198E+01 0.00000E+00
 -1      2615 1.13226E+02 3.05780E+01 0.00000E+00
 -1      2616 1.07036E+02 1.72020E+01 0.00000E+00
 -1      2617 1.08029E+02 1.74838E+01 0.00000E+00
 -1      2618 1.06728E+02 1.63117E+01 0.00000E+00
 -1      2619 8.07525E+00 5.11044E+00 0.00000E+00
 -1      2620 6.57525E+00 5.11044E+00 0.00000E+00
 -1      2621 6.40575E+00 6.01981E+00 0.00000E+00
 -1      2622 8.82525E+00 6.40944E+00 0.00000E+00
 -1      2623 1.13254E+02 2.33860E+01 0.00000E+00
 -1      2624 1.13529E+02 2.43088E+01 0.00000E+00
 -1      2625 1.04629E+02 1.58539E+01 0.00000E+00
 -1      2626 7.79400E+00 3.52687E+01 0.00000E+00
 -1      2627 6.49500E+00 3.60062E+01 0.00000E+00
 -1      2628 6.49500E+00 3.74750E+01 0.00000E+00
 -1      2629 1.45350E+01 6.60425E+00 0.00000E+00
 -1      2630 6.40575E+00 7.49481E+00 0.00000E+00
 -1      2631 1.13809E+02 2.25705E+01 0.00000E+00
 -1      2632 6.52725E+00 3.87101E+01 0.00000E+00
 -1      2633 6.52725E+00 4.01789E+01 0.00000E+00
 -1      2634 7.89075E+00 4.04429E+01 0.00000E+00
 -1      2635 7.82625E+00 3.79726E+01 0.00000E+00
 -1      2636 1.14363E+02 2.91147E+01 0.00000E+00
 -1      2637 1.10988E+02 3.51569E+01 0.00000E+00
 -1      2638 1.11352E+02 1.83207E+01 0.00000E+00
 -1      2639 1.07456E+02 3.72942E+01 0.00000E+00
 -1      2640 1.05094E+02 3.78828E+01 0.00000E+00
 -1      2641 1.00555E+02 3.76829E+01 0.00000E+00
 -1      2642 1.43586E+02 6.56853E+00 0.00000E+00
 -1      2643 1.12841E+02 2.03828E+01 0.00000E+00
 -1      2644 1.43419E+02 7.72713E+00 0.00000E+00
 -1      2645 1.14654E+02 2.69112E+01 0.00000E+00
 -1      2646 1.14416E+02 2.47359E+01 0.00000E+00
 -1      2647 1.12611E+02 3.33142E+01 0.00000E+00
 -1      2648 9.27982E+01 2.99950E+01 0.00000E+00
 -1      2649 7.70475E+00 8.23231E+00 0.00000E+00
 -1      2650 1.42120E+02 8.46463E+00 0.00000E+00
 -1      2651 1.02753E+02 3.80334E+01 0.00000E+00
 -1      2652 9.77929E+01 1.74115E+01 0.00000E+00
 -1      2653 9.98847E+01 1.62624E+01 0.00000E+00
 -1      2654 9.66324E+01 3.54903E+01 0.00000E+00
 -1      2655 9.57559E+01 1.91118E+01 0.00000E+00
 -1      2656 9.57613E+01 1.81000E+01 0.00000E+00
 -1      2657 9.47814E+01 1.91607E+01 0.00000E+00
 -1      2658 9.30016E+01 2.28947E+01 0.00000E+00
 -1      2659 9.27033E+01 2.19656E+01 0.00000E+00
 -1      2660 9.20440E+01 2.32790E+01 0.00000E+00
 -1      2661 9.22121E+01 2.53836E+01 0.00000E+00
 -1      2662 1.09114E+02 1.69919E+01 0.00000E+00
 -1      2663 1.02221E+02 1.57153E+01 0.00000E+00
 -1      2664 9.37407E+01 3.20865E+01 0.00000E+00
 -1      2665 9.85857E+01 3.67587E+01 0.00000E+00
 -1      2666 1.13698E+02 3.12807E+01 0.00000E+00
 -1      2667 1.42758E+02 4.35929E+01 0.00000E+00
 -1      2668 1.43241E+02 4.17323E+01 0.00000E+00
 -1      2669 1.41942E+02 4.09948E+01 0.00000E+00
 -1      2670 1.41414E+02 4.35342E+01 0.00000E+00
 -1      2671 1.40664E+02 4.22352E+01 0.00000E+00
 -1      2672 9.09300E+00 1.98250E+01 0.00000E+00
 -1      2673 9.09300E+00 2.12750E+01 0.00000E+00
 -1      2674 9.09300E+00 2.27500E+01 0.00000E+00
 -1      2675 9.09300E+00 2.42250E+01 0.00000E+00
 -1      2676 1.03920E+01 2.20250E+01 0.00000E+00
 -1      2677 9.09300E+00 1.39375E+01 0.00000E+00
 -1      2678 9.09300E+00 1.54125E+01 0.00000E+00
 -1      2679 9.09300E+00 1.09875E+01 0.00000E+00
 -1      2680 9.09300E+00 1.24625E+01 0.00000E+00
 -1      2681 1.03920E+01 1.32000E+01 0.00000E+00
 -1      2682 1.22850E+01 7.90325E+00 0.00000E+00
 -1      2683 1.07850E+01 7.90325E+00 0.00000E+00
 -1      2684 1.40706E+02 1.03250E+01 0.00000E+00
 -1      2685 1.40620E+02 8.46463E+00 0.00000E+00
 -1      2686 1.39120E+02 8.46463E+00 0.00000E+00
 -1      2687 1.10218E+02 3.70804E+01 0.00000E+00
 -1      2688 1.09529E+02 3.74969E+01 0.00000E+00
 -1      2689 1.12128E+02 3.54050E+01 0.00000E+00
 -1      2690 1.11173E+02 3.62427E+01 0.00000E+00
 -1      2691 1.11358E+02 3.73285E+01 0.00000E+00
 -1      2692 1.44000E+01 4.09070E+01 0.00000E+00
 -1      2693 1.59000E+01 4.09070E+01 0.00000E+00
 -1      2694 1.74000E+01 4.09070E+01 0.00000E+00
 -1      2695 1.89000E+01 4.09070E+01 0.00000E+00
 -1      2696 1.66500E+01 3.96080E+01 0.00000E+00
 -1      2697 2.04000E+01 4.09070E+01 0.00000E+00
 -1      2698 2.19000E+01 4.09070E+01 0.00000E+00
 -1      2699 1.96500E+01 3.96080E+01 0.00000E+00
 -1      2700 2.34000E+01 4.09070E+01 0.00000E+00
 -1      2701 2.49000E+01 4.09070E+01 0.00000E+00
 -1      2702 2.26500E+01 3.96080E+01 0.00000E+00
 -1      2703 2.64000E+01 4.09070E+01 0.00000E+00
 -1      2704 2.79000E+01 4.09070E+01 0.00000E+00
 -1      2705 2.56500E+01 3.96080E+01 0.00000E+00
 -1      2706 2.94000E+01 4.09070E+01 0.00000E+00
 -1      2707 3.09000E+01 4.09070E+01 0.00000E+00
 -1      2708 2.86500E+01 3.96080E+01 0.00000E+00
 -1      2709 3.24000E+01 4.09070E+01 0.00000E+00
 -1      2710 3.39000E+01 4.09070E+01 0.00000E+00
 -1      2711 3.16500E+01 3.96080E+01 0.00000E+00
 -1      2712 3.54000E+01 4.09070E+01 0.00000E+00
 -1      2713 3.69000E+01 4.09070E+01 0.00000E+00
 -1      2714 3.46500E+01 3.96080E+01 0.00000E+00
 -1      2715 3.84000E+01 4.09070E+01 0.00000E+00
 -1      2716 3.99000E+01 4.09070E+01 0.00000E+00
 -1      2717 3.76500E+01 3.96080E+01 0.00000E+00
 -1      2718 4.14000E+01 4.09070E+01 0.00000E+00
 -1      2719 4.29000E+01 4.09070E+01 0.00000E+00
 -1      2720 4.06500E+01 3.96080E+01 0.00000E+00
 -1      2721 4.44000E+01 4.09070E+01 0.00000E+00
 -1      2722 4.59000E+01 4.09070E+01 0.00000E+00
 -1      2723 4.36500E+01 3.96080E+01 0.00000E+00
 -1      2724 4.74000E+01 4.09070E+01 0.00000E+00
 -1      2725 4.89000E+01 4.09070E+01 0.00000E+00
 -1      2726 4.66500E+01 3.96080E+01 0.00000E+00
 -1      2727 5.04000E+01 4.09070E+01 0.00000E+00
 -1      2728 5.19000E+01 4.09070E+01 0.00000E+00
 -1      2729 4.96500E+01 3.96080E+01 0.00000E+00
 -1      2730 5.34000E+01 4.09070E+01 0.00000E+00
 -1      2731 5.49000E+01 4.09070E+01 0.00000E+00
 -1      2732 5.26500E+01 3.96080E+01 0.00000E+00
 -1      2733 5.64000E+01 4.09070E+01 0.00000E+00
 -1      2734 5.79000E+01 4.09070E+01 0.00000E+00
 -1      2735 5.56500E+01 3.96080E+01 0.00000E+00
 -1      2736 5.94000E+01 4.09070E+01 0.00000E+00
 -1      2737 6.09000E+01 4.09070E+01 0.00000E+00
 -1      2738 5.86500E+01 3.96080E+01 0.00000E+00
 -1      2739 6.24000E+01 4.09070E+01 0.00000E+00
 -1      2740 6.39000E+01 4.09070E+01 0.00000E+00
 -1      2741 6.16500E+01 3.96080E+01 0.00000E+00
 -1      2742 6.54000E+01 4.09070E+01 0.00000E+00
 -1      2743 6.69000E+01 4.09070E+01 0.00000E+00
 -1      2744 6.46500E+01 3.96080E+01 0.00000E+00
 -1      2745 6.84000E+01 4.09070E+01 0.00000E+00
 -1      2746 6.99000E+01 4.09070E+01 0.00000E+00
 -1      2747 6.76500E+01 3.96080E+01 0.00000E+00
 -1      2748 7.14000E+01 4.09070E+01 0.00000E+00
 -1      2749 7.29000E+01 4.09070E+01 0.00000E+00
 -1      2750 7.06500E+01 3.96080E+01 0.00000E+00
 -1      2751 7.44000E+01 4.09070E+01 0.00000E+00
 -1      2752 7.59000E+01 4.09070E+01 0.00000E+00
 -1      2753 7.36500E+01 3.96080E+01 0.00000E+00
 -1      2754 7.74000E+01 4.09070E+01 0.00000E+00
 -1      2755 7.89000E+01 4.09070E+01 0.00000E+00
 -1      2756 7.66500E+01 3.96080E+01 0.00000E+00
 -1      2757 8.04000E+01 4.09070E+01 0.00000E+00
 -1      2758 8.19000E+01 4.09070E+01 0.00000E+00
 -1      2759 7.96500E+01 3.96080E+01 0.00000E+00
 -1      2760 8.34000E+01 4.09070E+01 0.00000E+00
 -1      2761 8.49000E+01 4.09070E+01 0.00000E+00
 -1      2762 8.26500E+01 3.96080E+01 0.00000E+00
 -1      2763 8.64000E+01 4.09070E+01 0.00000E+00
 -1      2764 8.79000E+01 4.09070E+01 0.00000E+00
 -1      2765 8.56500E+01 3.96080E+01 0.00000E+00
 -1      2766 8.94000E+01 4.09070E+01 0.00000E+00
 -1      2767 9.09000E+01 4.09070E+01 0.00000E+00
 -1      2768 8.86500E+01 3.96080E+01 0.00000E+00
 -1      2769 9.24000E+01 4.09070E+01 0.00000E+00
 -1      2770 9.39000E+01 4.09070E+01 0.00000E+00
 -1      2771 9.16500E+01 3.96080E+01 0.00000E+00
 -1      2772 9.54000E+01 4.09070E+01 0.00000E+00
 -1      2773 9.69000E+01 4.09070E+01 0.00000E+00
 -1      2774 9.46500E+01 3.96080E+01 0.00000E+00
 -1      2775 9.84000E+01 4.11809E+01 0.00000E+00
 -1      2776 9.99000E+01 4.11809E+01 0.00000E+00
 -1      2777 1.01400E+02 4.10133E+01 0.00000E+00
 -1      2778 1.02900E+02 4.10133E+01 0.00000E+00
 -1      2779 1.04400E+02 4.11809E+01 0.00000E+00
 -1      2780 1.05900E+02 4.11809E+01 0.00000E+00
 -1      2781 1.07400E+02 4.09295E+01 0.00000E+00
 -1      2782 1.08900E+02 4.09295E+01 0.00000E+00
 -1      2783 1.10027E+02 4.01861E+01 0.00000E+00
 -1      2784 1.11527E+02 4.01861E+01 0.00000E+00
 -1      2785 1.16400E+02 4.09070E+01 0.00000E+00
 -1      2786 1.17900E+02 4.09070E+01 0.00000E+00
 -1      2787 1.19400E+02 4.09070E+01 0.00000E+00
 -1      2788 1.20900E+02 4.09070E+01 0.00000E+00
 -1      2789 1.18650E+02 3.96080E+01 0.00000E+00
 -1      2790 1.22400E+02 4.09070E+01 0.00000E+00
 -1      2791 1.23900E+02 4.09070E+01 0.00000E+00
 -1      2792 1.21650E+02 3.96080E+01 0.00000E+00
 -1      2793 1.25400E+02 4.09070E+01 0.00000E+00
 -1      2794 1.26900E+02 4.09070E+01 0.00000E+00
 -1      2795 1.24650E+02 3.96080E+01 0.00000E+00
 -1      2796 1.28400E+02 4.09070E+01 0.00000E+00
 -1      2797 1.29900E+02 4.09070E+01 0.00000E+00
 -1      2798 1.27650E+02 3.96080E+01 0.00000E+00
 -1      2799 1.31400E+02 4.09070E+01 0.00000E+00
 -1      2800 1.32900E+02 4.09070E+01 0.00000E+00
 -1      2801 1.30650E+02 3.96080E+01 0.00000E+00
 -1      2802 1.34400E+02 4.09070E+01 0.00000E+00
 -1      2803 1.35900E+02 4.09070E+01 0.00000E+00
 -1      2804 1.33650E+02 3.96080E+01 0.00000E+00
 -1      2805 1.37400E+02 4.09070E+01 0.00000E+00
 -1      2806 1.38900E+02 4.09070E+01 0.00000E+00
 -1      2807 1.36650E+02 3.96080E+01 0.00000E+00
 -1      2808 2.42850E+01 7.90325E+00 0.00000E+00
 -1      2809 2.27850E+01 7.90325E+00 0.00000E+00
 -1      2810 1.39914E+02 4.09362E+01 0.00000E+00
 -1      2811 1.40928E+02 4.09655E+01 0.00000E+00
 -1      2812 1.39164E+02 3.96372E+01 0.00000E+00
 -1      2813 2.12850E+01 7.90325E+00 0.00000E+00
 -1      2814 1.97850E+01 7.90325E+00 0.00000E+00
 -1      2815 2.20350E+01 9.20225E+00 0.00000E+00
 -1      2816 3.02850E+01 7.90325E+00 0.00000E+00
 -1      2817 2.87850E+01 7.90325E+00 0.00000E+00
 -1      2818 3.32850E+01 7.90325E+00 0.00000E+00
 -1      2819 3.17850E+01 7.90325E+00 0.00000E+00
 -1      2820 3.10350E+01 9.20225E+00 0.00000E+00
 -1      2821 3.62850E+01 7.90325E+00 0.00000E+00
 -1      2822 3.47850E+01 7.90325E+00 0.00000E+00
 -1      2823 3.40350E+01 9.20225E+00 0.00000E+00
 -1      2824 3.92850E+01 7.90325E+00 0.00000E+00
 -1      2825 3.77850E+01 7.90325E+00 0.00000E+00
 -1      2826 3.70350E+01 9.20225E+00 0.00000E+00
 -1      2827 4.22850E+01 7.90325E+00 0.00000E+00
 -1      2828 4.07850E+01 7.90325E+00 0.00000E+00
 -1      2829 4.00350E+01 9.20225E+00 0.00000E+00
 -1      2830 4.52850E+01 7.90325E+00 0.00000E+00
 -1      2831 4.37850E+01 7.90325E+00 0.00000E+00
 -1      2832 4.30350E+01 9.20225E+00 0.00000E+00
 -1      2833 4.82850E+01 7.90325E+00 0.00000E+00
 -1      2834 4.67850E+01 7.90325E+00 0.00000E+00
 -1      2835 4.60350E+01 9.20225E+00 0.00000E+00
 -1      2836 5.12850E+01 7.90325E+00 0.00000E+00
 -1      2837 4.97850E+01 7.90325E+00 0.00000E+00
 -1      2838 4.90350E+01 9.20225E+00 0.00000E+00
 -1      2839 5.42850E+01 7.90325E+00 0.00000E+00
 -1      2840 5.27850E+01 7.90325E+00 0.00000E+00
 -1      2841 5.20350E+01 9.20225E+00 0.00000E+00
 -1      2842 5.72850E+01 7.90325E+00 0.00000E+00
 -1      2843 5.57850E+01 7.90325E+00 0.00000E+00
 -1      2844 5.50350E+01 9.20225E+00 0.00000E+00
 -1      2845 6.02850E+01 7.90325E+00 0.00000E+00
 -1      2846 5.87850E+01 7.90325E+00 0.00000E+00
 -1      2847 5.80350E+01 9.20225E+00 0.00000E+00
 -1      2848 6.32850E+01 7.90325E+00 0.00000E+00
 -1      2849 6.17850E+01 7.90325E+00 0.00000E+00
 -1      2850 6.10350E+01 9.20225E+00 0.00000E+00
 -1      2851 6.62850E+01 7.90325E+00 0.00000E+00
 -1      2852 6.47850E+01 7.90325E+00 0.00000E+00
 -1      2853 6.40350E+01 9.20225E+00 0.00000E+00
 -1      2854 6.92850E+01 7.90325E+00 0.00000E+00
 -1      2855 6.77850E+01 7.90325E+00 0.00000E+00
 -1      2856 6.70350E+01 9.20225E+00 0.00000E+00
 -1      2857 7.22850E+01 7.90325E+00 0.00000E+00
 -1      2858 7.07850E+01 7.90325E+00 0.00000E+00
 -1      2859 7.00350E+01 9.20225E+00 0.00000E+00
 -1      2860 7.52850E+01 7.90325E+00 0.00000E+00
 -1      2861 7.37850E+01 7.90325E+00 0.00000E+00
 -1      2862 7.30350E+01 9.20225E+00 0.00000E+00
 -1      2863 7.82850E+01 7.90325E+00 0.00000E+00
 -1      2864 7.67850E+01 7.90325E+00 0.00000E+00
 -1      2865 7.60350E+01 9.20225E+00 0.00000E+00
 -1      2866 8.12850E+01 7.90325E+00 0.00000E+00
 -1      2867 7.97850E+01 7.90325E+00 0.00000E+00
 -1      2868 7.90350E+01 9.20225E+00 0.00000E+00
 -1      2869 8.42850E+01 7.90325E+00 0.00000E+00
 -1      2870 8.27850E+01 7.90325E+00 0.00000E+00
 -1      2871 8.20350E+01 9.20225E+00 0.00000E+00
 -1      2872 8.72850E+01 7.90325E+00 0.00000E+00
 -1      2873 8.57850E+01 7.90325E+00 0.00000E+00
 -1      2874 8.50350E+01 9.20225E+00 0.00000E+00
 -1      2875 9.02850E+01 7.90325E+00 0.00000E+00
 -1      2876 8.87850E+01 7.90325E+00 0.00000E+00
 -1      2877 8.80350E+01 9.20225E+00 0.00000E+00
 -1      2878 9.32850E+01 7.90325E+00 0.00000E+00
 -1      2879 9.17850E+01 7.90325E+00 0.00000E+00
 -1      2880 9.10350E+01 9.20225E+00 0.00000E+00
 -1      2881 9.62850E+01 7.90325E+00 0.00000E+00
 -1      2882 9.47850E+01 7.90325E+00 0.00000E+00
 -1      2883 9.40350E+01 9.20225E+00 0.00000E+00
 -1      2884 9.92850E+01 7.90325E+00 0.00000E+00
 -1      2885 9.77850E+01 7.90325E+00 0.00000E+00
 -1      2886 9.70350E+01 9.20225E+00 0.00000E+00
 -1      2887 1.02285E+02 7.90325E+00 0.00000E+00
 -1      2888 1.00785E+02 7.90325E+00 0.00000E+00
 -1      2889 1.00035E+02 9.20225E+00 0.00000E+00
 -1      2890 1.05285E+02 7.90325E+00 0.00000E+00
 -1      2891 1.03785E+02 7.90325E+00 0.00000E+00
 -1      2892 1.03035E+02 9.20225E+00 0.00000E+00
 -1      2893 1.08285E+02 7.90325E+00 0.00000E+00
 -1      2894 1.06785E+02 7.90325E+00 0.00000E+00
 -1      2895 1.06035E+02 9.20225E+00 0.00000E+00
 -1      2896 1.11285E+02 7.90325E+00 0.00000E+00
 -1      2897 1.09785E+02 7.90325E+00 0.00000E+00
 -1      2898 1.09035E+02 9.20225E+00 0.00000E+00
 -1      2899 1.14285E+02 7.90325E+00 0.00000E+00
 -1      2900 1.12785E+02 7.90325E+00 0.00000E+00
 -1      2901 1.12035E+02 9.20225E+00 0.00000E+00
 -1      2902 1.17285E+02 7.90325E+00 0.00000E+00
 -1      2903 1.15785E+02 7.90325E+00 0.00000E+00
 -1      2904 1.15035E+02 9.20225E+00 0.00000E+00
 -1      2905 1.20285E+02 7.90325E+00 0.00000E+00
 -1      2906 1.18785E+02 7.90325E+00 0.00000E+00
 -1      2907 1.18035E+02 9.20225E+00 0.00000E+00
 -1      2908 1.23285E+02 7.90325E+00 0.00000E+00
 -1      2909 1.21785E+02 7.90325E+00 0.00000E+00
 -1      2910 1.21035E+02 9.20225E+00 0.00000E+00
 -1      2911 1.26285E+02 7.90325E+00 0.00000E+00
 -1      2912 1.24785E+02 7.90325E+00 0.00000E+00
 -1      2913 1.24035E+02 9.20225E+00 0.00000E+00
 -1      2914 1.29285E+02 7.90325E+00 0.00000E+00
 -1      2915 1.27785E+02 7.90325E+00 0.00000E+00
 -1      2916 1.27035E+02 9.20225E+00 0.00000E+00
 -1      2917 1.32285E+02 7.90325E+00 0.00000E+00
 -1      2918 1.30785E+02 7.90325E+00 0.00000E+00
 -1      2919 1.30035E+02 9.20225E+00 0.00000E+00
 -1      2920 1.35285E+02 7.90325E+00 0.00000E+00
 -1      2921 1.33785E+02 7.90325E+00 0.00000E+00
 -1      2922 1.33035E+02 9.20225E+00 0.00000E+00
 -1      2923 1.37953E+02 8.18394E+00 0.00000E+00
 -1      2924 1.36453E+02 8.18394E+00 0.00000E+00
 -1      2925 1.35703E+02 9.48294E+00 0.00000E+00
 -1      2926 1.38038E+02 1.00443E+01 0.00000E+00
 -1      2927 1.13409E+02 1.93097E+01 0.00000E+00
 -1      2928 1.14054E+02 2.04414E+01 0.00000E+00
 -1      2929 1.40907E+02 2.42875E+01 0.00000E+00
 -1      2930 1.40907E+02 2.28125E+01 0.00000E+00
 -1      2931 1.03040E+02 3.89127E+01 0.00000E+00
 -1      2932 1.01863E+02 3.89413E+01 0.00000E+00
 -1      2933 1.40907E+02 1.83875E+01 0.00000E+00
 -1      2934 1.40907E+02 1.69125E+01 0.00000E+00
 -1      2935 1.40907E+02 2.72375E+01 0.00000E+00
 -1      2936 1.40907E+02 2.57625E+01 0.00000E+00
 -1      2937 1.39608E+02 2.50250E+01 0.00000E+00
 -1      2938 1.40907E+02 2.13375E+01 0.00000E+00
 -1      2939 1.40907E+02 1.98625E+01 0.00000E+00
 -1      2940 1.39608E+02 1.91250E+01 0.00000E+00
 -1      2941 1.39608E+02 2.20750E+01 0.00000E+00
 -1      2942 9.46507E+01 3.48129E+01 0.00000E+00
 -1      2943 9.40129E+01 3.39412E+01 0.00000E+00
 -1      2944 1.40907E+02 3.01375E+01 0.00000E+00
 -1      2945 1.40907E+02 2.86875E+01 0.00000E+00
 -1      2946 1.39608E+02 2.79500E+01 0.00000E+00
 -1      2947 1.40907E+02 3.30875E+01 0.00000E+00
 -1      2948 1.40907E+02 3.16125E+01 0.00000E+00
 -1      2949 1.39608E+02 3.08750E+01 0.00000E+00
 -1      2950 1.40907E+02 3.60375E+01 0.00000E+00
 -1      2951 1.40907E+02 3.45625E+01 0.00000E+00
 -1      2952 1.39608E+02 3.38250E+01 0.00000E+00
 -1      2953 1.08402E+02 3.82404E+01 0.00000E+00
 -1      2954 1.07204E+02 3.87069E+01 0.00000E+00
 -1      2955 8.91450E+00 8.42712E+00 0.00000E+00
 -1      2956 1.15187E+02 2.39484E+01 0.00000E+00
 -1      2957 1.15470E+02 2.50578E+01 0.00000E+00
 -1      2958 9.25425E+00 4.07069E+01 0.00000E+00
 -1      2959 1.06178E+01 4.09709E+01 0.00000E+00
 -1      2960 9.22200E+00 3.94717E+01 0.00000E+00
 -1      2961 1.06455E+02 1.53862E+01 0.00000E+00
 -1      2962 1.07447E+02 1.56680E+01 0.00000E+00
 -1      2963 9.32673E+01 2.06969E+01 0.00000E+00
 -1      2964 9.38248E+01 1.99925E+01 0.00000E+00
 -1      2965 1.15533E+02 2.64148E+01 0.00000E+00
 -1      2966 1.15488E+02 2.74807E+01 0.00000E+00
 -1      2967 1.15324E+02 2.87270E+01 0.00000E+00
 -1      2968 1.15078E+02 2.98647E+01 0.00000E+00
 -1      2969 9.89143E+01 1.55976E+01 0.00000E+00
 -1      2970 9.99491E+01 1.50879E+01 0.00000E+00
 -1      2971 1.82850E+01 7.90325E+00 0.00000E+00
 -1      2972 1.67850E+01 7.90325E+00 0.00000E+00
 -1      2973 1.90350E+01 9.20225E+00 0.00000E+00
 -1      2974 2.72850E+01 7.90325E+00 0.00000E+00
 -1      2975 2.57850E+01 7.90325E+00 0.00000E+00
 -1      2976 2.50350E+01 9.20225E+00 0.00000E+00
 -1      2977 2.80350E+01 9.20225E+00 0.00000E+00
 -1      2978 1.17589E+01 4.09389E+01 0.00000E+00
 -1      2979 1.32589E+01 4.09389E+01 0.00000E+00
 -1      2980 1.40089E+01 3.96399E+01 0.00000E+00
 -1      2981 1.17266E+01 3.97038E+01 0.00000E+00
 -1      2982 9.21393E+01 3.08085E+01 0.00000E+00
 -1      2983 9.18084E+01 2.96541E+01 0.00000E+00
 -1      2984 1.52850E+01 7.90325E+00 0.00000E+00
 -1      2985 1.37850E+01 7.90325E+00 0.00000E+00
 -1      2986 1.30350E+01 9.20225E+00 0.00000E+00
 -1      2987 1.60350E+01 9.20225E+00 0.00000E+00
 -1      2988 9.09300E+00 1.68813E+01 0.00000E+00
 -1      2989 9.09300E+00 1.83563E+01 0.00000E+00
 -1      2990 1.03920E+01 1.90812E+01 0.00000E+00
 -1      2991 1.03920E+01 1.61437E+01 0.00000E+00
 -1      2992 9.11281E+01 2.58586E+01 0.00000E+00
 -1      2993 9.12583E+01 2.46830E+01 0.00000E+00
 -1      2994 1.14539E+02 2.18364E+01 0.00000E+00
 -1      2995 1.14863E+02 2.28924E+01 0.00000E+00
 -1      2996 1.15916E+02 2.32142E+01 0.00000E+00
 -1      2997 9.66580E+01 3.65138E+01 0.00000E+00
 -1      2998 9.56536E+01 3.57907E+01 0.00000E+00
 -1      2999 9.09300E+00 3.15875E+01 0.00000E+00
 -1      3000 9.09300E+00 3.30625E+01 0.00000E+00
 -1      3001 1.08653E+02 1.59682E+01 0.00000E+00
 -1      3002 1.10047E+02 1.63665E+01 0.00000E+00
 -1      3003 9.15253E+01 2.84130E+01 0.00000E+00
 -1      3004 9.13327E+01 2.72723E+01 0.00000E+00
 -1      3005 1.11627E+02 1.72229E+01 0.00000E+00
 -1      3006 1.12471E+02 1.81533E+01 0.00000E+00
 -1      3007 9.33634E+01 3.30009E+01 0.00000E+00
 -1      3008 9.27518E+01 3.20637E+01 0.00000E+00
 -1      3009 9.85494E+01 3.79201E+01 0.00000E+00
 -1      3010 9.76005E+01 3.73749E+01 0.00000E+00
 -1      3011 1.14663E+02 3.10739E+01 0.00000E+00
 -1      3012 1.14245E+02 3.21023E+01 0.00000E+00
 -1      3013 9.68003E+01 1.68766E+01 0.00000E+00
 -1      3014 9.78573E+01 1.62371E+01 0.00000E+00
 -1      3015 9.79217E+01 1.50626E+01 0.00000E+00
 -1      3016 1.00767E+02 3.86763E+01 0.00000E+00
 -1      3017 9.97463E+01 3.82973E+01 0.00000E+00
 -1      3018 1.05704E+02 3.89582E+01 0.00000E+00
 -1      3019 1.04540E+02 3.90803E+01 0.00000E+00
 -1      3020 1.13659E+02 3.32867E+01 0.00000E+00
 -1      3021 1.12991E+02 3.42918E+01 0.00000E+00
 -1      3022 1.41192E+02 3.96958E+01 0.00000E+00
 -1      3023 1.01543E+02 1.47930E+01 0.00000E+00
 -1      3024 1.02844E+02 1.47557E+01 0.00000E+00
 -1      3025 1.04204E+02 1.49604E+01 0.00000E+00
 -1      3026 1.05311E+02 1.51364E+01 0.00000E+00
 -1      3027 9.09300E+00 3.45313E+01 0.00000E+00
 -1      3028 9.09300E+00 3.60000E+01 0.00000E+00
 -1      3029 1.03920E+01 3.37938E+01 0.00000E+00
 -1      3030 1.03526E+02 1.40381E+01 0.00000E+00
 -1      3031 1.03920E+01 2.49750E+01 0.00000E+00
 -1      3032 9.09300E+00 2.57000E+01 0.00000E+00
 -1      3033 9.09300E+00 2.71750E+01 0.00000E+00
 -1      3034 1.15108E+02 2.07633E+01 0.00000E+00
 -1      3035 1.00650E+02 3.99882E+01 0.00000E+00
 -1      3036 1.14624E+02 3.30799E+01 0.00000E+00
 -1      3037 9.58257E+01 1.69255E+01 0.00000E+00
 -1      3038 9.58901E+01 1.57510E+01 0.00000E+00
 -1      3039 9.48512E+01 1.69744E+01 0.00000E+00
 -1      3040 9.87611E+01 3.89135E+01 0.00000E+00
 -1      3041 9.30240E+01 3.39184E+01 0.00000E+00
 -1      3042 1.11166E+02 1.61992E+01 0.00000E+00
 -1      3043 1.12285E+02 1.60318E+01 0.00000E+00
 -1      3044 1.10705E+02 1.51755E+01 0.00000E+00
 -1      3045 8.98760E+01 2.42289E+01 0.00000E+00
 -1      3046 9.09600E+01 2.37539E+01 0.00000E+00
 -1      3047 9.06617E+01 2.28248E+01 0.00000E+00
 -1      3048 9.08665E+01 2.92266E+01 0.00000E+00
 -1      3049 9.17620E+01 3.17228E+01 0.00000E+00
 -1      3050 9.76500E+01 3.98819E+01 0.00000E+00
 -1      3051 1.03650E+02 3.99882E+01 0.00000E+00
 -1      3052 1.06650E+02 3.99044E+01 0.00000E+00
 -1      3053 1.09277E+02 3.89096E+01 0.00000E+00
 -1      3054 1.12192E+02 3.87573E+01 0.00000E+00
 -1      3055 1.13316E+02 4.07772E+01 0.00000E+00
 -1      3056 1.14816E+02 4.07772E+01 0.00000E+00
 -1      3057 1.13147E+02 3.79196E+01 0.00000E+00
 -1      3058 1.13684E+02 1.82119E+01 0.00000E+00
 -1      3059 1.16203E+02 2.82306E+01 0.00000E+00
 -1      3060 1.39608E+02 1.61875E+01 0.00000E+00
 -1      3061 1.40907E+02 1.54500E+01 0.00000E+00
 -1      3062 1.40907E+02 1.39875E+01 0.00000E+00
 -1      3063 1.40706E+02 1.17875E+01 0.00000E+00
 -1      3064 1.16304E+02 2.56273E+01 0.00000E+00
 -1      3065 9.23097E+01 2.10812E+01 0.00000E+00
 -1      3066 1.41192E+02 3.82207E+01 0.00000E+00
 -1      3067 1.08380E+02 1.50426E+01 0.00000E+00
 -1      3068 9.46764E+01 3.58365E+01 0.00000E+00
 -1      3069 9.66450E+00 9.72612E+00 0.00000E+00
 -1      3070 1.06030E+02 1.44926E+01 0.00000E+00
 -1      3071 9.38302E+01 1.89807E+01 0.00000E+00
 -1      3072 1.15624E+02 3.06863E+01 0.00000E+00
 -1      3073 1.15566E+02 3.94782E+01 0.00000E+00
 -1      3074 1.00573E+02 1.41283E+01 0.00000E+00
 -1      3075 9.09300E+00 2.86437E+01 0.00000E+00
 -1      3076 9.09300E+00 3.01187E+01 0.00000E+00
 -1      3077 1.03920E+01 3.08563E+01 0.00000E+00
 -1      3078 1.03920E+01 2.79188E+01 0.00000E+00
 -1      3079 9.66217E+01 3.76753E+01 0.00000E+00
 -1      3080 9.03789E+01 2.65717E+01 0.00000E+00
 -1      3081 1.13176E+02 3.53775E+01 0.00000E+00
 -1      3082 1.09635E+01 1.04636E+01 0.00000E+00
 -1      3083 1.39529E+02 3.85602E+01 0.00000E+00
 -1      3084 1.40542E+02 3.71145E+01 0.00000E+00
 -1      3085 1.39243E+02 3.63770E+01 0.00000E+00
 -1      3086 1.38514E+02 3.85310E+01 0.00000E+00
 -1      3087 1.05676E+02 1.33662E+01 0.00000E+00
 -1      3088 1.06820E+02 1.36160E+01 0.00000E+00
 -1      3089 1.16910E+01 1.24625E+01 0.00000E+00
 -1      3090 1.16910E+01 1.39375E+01 0.00000E+00
 -1      3091 9.14137E+00 3.71183E+01 0.00000E+00
 -1      3092 9.17362E+00 3.83534E+01 0.00000E+00
 -1      3093 1.05371E+01 3.86174E+01 0.00000E+00
 -1      3094 1.04404E+01 3.63808E+01 0.00000E+00
 -1      3095 1.14224E+02 1.68153E+01 0.00000E+00
 -1      3096 1.15162E+02 1.79718E+01 0.00000E+00
 -1      3097 1.97850E+01 1.05013E+01 0.00000E+00
 -1      3098 1.82850E+01 1.05013E+01 0.00000E+00
 -1      3099 1.89000E+01 3.83090E+01 0.00000E+00
 -1      3100 2.04000E+01 3.83090E+01 0.00000E+00
 -1      3101 2.19000E+01 3.83090E+01 0.00000E+00
 -1      3102 2.34000E+01 3.83090E+01 0.00000E+00
 -1      3103 2.11500E+01 3.70100E+01 0.00000E+00
 -1      3104 2.49000E+01 3.83090E+01 0.00000E+00
 -1      3105 2.64000E+01 3.83090E+01 0.00000E+00
 -1      3106 2.41500E+01 3.70100E+01 0.00000E+00
 -1      3107 2.79000E+01 3.83090E+01 0.00000E+00
 -1      3108 2.94000E+01 3.83090E+01 0.00000E+00
 -1      3109 2.71500E+01 3.70100E+01 0.00000E+00
 -1      3110 3.09000E+01 3.83090E+01 0.00000E+00
 -1      3111 3.24000E+01 3.83090E+01 0.00000E+00
 -1      3112 3.01500E+01 3.70100E+01 0.00000E+00
 -1      3113 3.39000E+01 3.83090E+01 0.00000E+00
 -1      3114 3.54000E+01 3.83090E+01 0.00000E+00
 -1      3115 3.31500E+01 3.70100E+01 0.00000E+00
 -1      3116 3.69000E+01 3.83090E+01 0.00000E+00
 -1      3117 3.84000E+01 3.83090E+01 0.00000E+00
 -1      3118 3.61500E+01 3.70100E+01 0.00000E+00
 -1      3119 3.99000E+01 3.83090E+01 0.00000E+00
 -1      3120 4.14000E+01 3.83090E+01 0.00000E+00
 -1      3121 3.91500E+01 3.70100E+01 0.00000E+00
 -1      3122 4.29000E+01 3.83090E+01 0.00000E+00
 -1      3123 4.44000E+01 3.83090E+01 0.00000E+00
 -1      3124 4.21500E+01 3.70100E+01 0.00000E+00
 -1      3125 4.59000E+01 3.83090E+01 0.00000E+00
 -1      3126 4.74000E+01 3.83090E+01 0.00000E+00
 -1      3127 4.51500E+01 3.70100E+01 0.00000E+00
 -1      3128 4.89000E+01 3.83090E+01 0.00000E+00
 -1      3129 5.04000E+01 3.83090E+01 0.00000E+00
 -1      3130 4.81500E+01 3.70100E+01 0.00000E+00
 -1      3131 5.19000E+01 3.83090E+01 0.00000E+00
 -1      3132 5.34000E+01 3.83090E+01 0.00000E+00
 -1      3133 5.11500E+01 3.70100E+01 0.00000E+00
 -1      3134 5.49000E+01 3.83090E+01 0.00000E+00
 -1      3135 5.64000E+01 3.83090E+01 0.00000E+00
 -1      3136 5.41500E+01 3.70100E+01 0.00000E+00
 -1      3137 5.79000E+01 3.83090E+01 0.00000E+00
 -1      3138 5.94000E+01 3.83090E+01 0.00000E+00
 -1      3139 5.71500E+01 3.70100E+01 0.00000E+00
 -1      3140 6.09000E+01 3.83090E+01 0.00000E+00
 -1      3141 6.24000E+01 3.83090E+01 0.00000E+00
 -1      3142 6.01500E+01 3.70100E+01 0.00000E+00
 -1      3143 6.39000E+01 3.83090E+01 0.00000E+00
 -1      3144 6.54000E+01 3.83090E+01 0.00000E+00
 -1      3145 6.31500E+01 3.70100E+01 0.00000E+00
 -1      3146 6.69000E+01 3.83090E+01 0.00000E+00
 -1      3147 6.84000E+01 3.83090E+01 0.00000E+00
 -1      3148 6.61500E+01 3.70100E+01 0.00000E+00
 -1      3149 6.99000E+01 3.83090E+01 0.00000E+00
 -1      3150 7.14000E+01 3.83090E+01 0.00000E+00
 -1      3151 6.91500E+01 3.70100E+01 0.00000E+00
 -1      3152 7.29000E+01 3.83090E+01 0.00000E+00
 -1      3153 7.44000E+01 3.83090E+01 0.00000E+00
 -1      3154 7.21500E+01 3.70100E+01 0.00000E+00
 -1      3155 7.59000E+01 3.83090E+01 0.00000E+00
 -1      3156 7.74000E+01 3.83090E+01 0.00000E+00
 -1      3157 7.51500E+01 3.70100E+01 0.00000E+00
 -1      3158 7.89000E+01 3.83090E+01 0.00000E+00
 -1      3159 8.04000E+01 3.83090E+01 0.00000E+00
 -1      3160 7.81500E+01 3.70100E+01 0.00000E+00
 -1      3161 8.19000E+01 3.83090E+01 0.00000E+00
 -1      3162 8.34000E+01 3.83090E+01 0.00000E+00
 -1      3163 8.11500E+01 3.70100E+01 0.00000E+00
 -1      3164 8.49000E+01 3.83090E+01 0.00000E+00
 -1      3165 8.64000E+01 3.83090E+01 0.00000E+00
 -1      3166 8.41500E+01 3.70100E+01 0.00000E+00
 -1      3167 8.79000E+01 3.83090E+01 0.00000E+00
 -1      3168 8.94000E+01 3.83090E+01 0.00000E+00
 -1      3169 8.71500E+01 3.70100E+01 0.00000E+00
 -1      3170 9.09000E+01 3.83090E+01 0.00000E+00
 -1      3171 9.24000E+01 3.83090E+01 0.00000E+00
 -1      3172 9.01500E+01 3.70100E+01 0.00000E+00
 -1      3173 1.13954E+02 3.67135E+01 0.00000E+00
 -1      3174 1.14788E+02 3.81423E+01 0.00000E+00
 -1      3175 1.16372E+02 3.82721E+01 0.00000E+00
 -1      3176 1.14817E+02 3.56002E+01 0.00000E+00
 -1      3177 1.20900E+02 3.83090E+01 0.00000E+00
 -1      3178 1.22400E+02 3.83090E+01 0.00000E+00
 -1      3179 1.23900E+02 3.83090E+01 0.00000E+00
 -1      3180 1.25400E+02 3.83090E+01 0.00000E+00
 -1      3181 1.23150E+02 3.70100E+01 0.00000E+00
 -1      3182 1.26900E+02 3.83090E+01 0.00000E+00
 -1      3183 1.28400E+02 3.83090E+01 0.00000E+00
 -1      3184 1.26150E+02 3.70100E+01 0.00000E+00
 -1      3185 1.29900E+02 3.83090E+01 0.00000E+00
 -1      3186 1.31400E+02 3.83090E+01 0.00000E+00
 -1      3187 1.29150E+02 3.70100E+01 0.00000E+00
 -1      3188 1.32900E+02 3.83090E+01 0.00000E+00
 -1      3189 1.34400E+02 3.83090E+01 0.00000E+00
 -1      3190 1.32150E+02 3.70100E+01 0.00000E+00
 -1      3191 1.35707E+02 3.84200E+01 0.00000E+00
 -1      3192 1.37207E+02 3.84200E+01 0.00000E+00
 -1      3193 1.37572E+02 3.73430E+01 0.00000E+00
 -1      3194 1.34957E+02 3.71210E+01 0.00000E+00
 -1      3195 2.27850E+01 1.05013E+01 0.00000E+00
 -1      3196 2.12850E+01 1.05013E+01 0.00000E+00
 -1      3197 2.05350E+01 1.18003E+01 0.00000E+00
 -1      3198 9.25742E+01 3.49235E+01 0.00000E+00
 -1      3199 9.19247E+01 3.39832E+01 0.00000E+00
 -1      3200 3.47850E+01 1.05013E+01 0.00000E+00
 -1      3201 3.32850E+01 1.05013E+01 0.00000E+00
 -1      3202 3.17850E+01 1.05013E+01 0.00000E+00
 -1      3203 3.02850E+01 1.05013E+01 0.00000E+00
 -1      3204 3.25350E+01 1.18003E+01 0.00000E+00
 -1      3205 4.07850E+01 1.05013E+01 0.00000E+00
 -1      3206 3.92850E+01 1.05013E+01 0.00000E+00
 -1      3207 4.37850E+01 1.05013E+01 0.00000E+00
 -1      3208 4.22850E+01 1.05013E+01 0.00000E+00
 -1      3209 4.15350E+01 1.18003E+01 0.00000E+00
 -1      3210 4.67850E+01 1.05013E+01 0.00000E+00
 -1      3211 4.52850E+01 1.05013E+01 0.00000E+00
 -1      3212 4.45350E+01 1.18003E+01 0.00000E+00
 -1      3213 4.97850E+01 1.05013E+01 0.00000E+00
 -1      3214 4.82850E+01 1.05013E+01 0.00000E+00
 -1      3215 4.75350E+01 1.18003E+01 0.00000E+00
 -1      3216 5.27850E+01 1.05013E+01 0.00000E+00
 -1      3217 5.12850E+01 1.05013E+01 0.00000E+00
 -1      3218 5.05350E+01 1.18003E+01 0.00000E+00
 -1      3219 5.57850E+01 1.05013E+01 0.00000E+00
 -1      3220 5.42850E+01 1.05013E+01 0.00000E+00
 -1      3221 5.35350E+01 1.18003E+01 0.00000E+00
 -1      3222 5.87850E+01 1.05013E+01 0.00000E+00
 -1      3223 5.72850E+01 1.05013E+01 0.00000E+00
 -1      3224 5.65350E+01 1.18003E+01 0.00000E+00
 -1      3225 6.17850E+01 1.05013E+01 0.00000E+00
 -1      3226 6.02850E+01 1.05013E+01 0.00000E+00
 -1      3227 5.95350E+01 1.18003E+01 0.00000E+00
 -1      3228 6.47850E+01 1.05013E+01 0.00000E+00
 -1      3229 6.32850E+01 1.05013E+01 0.00000E+00
 -1      3230 6.25350E+01 1.18003E+01 0.00000E+00
 -1      3231 6.77850E+01 1.05013E+01 0.00000E+00
 -1      3232 6.62850E+01 1.05013E+01 0.00000E+00
 -1      3233 6.55350E+01 1.18003E+01 0.00000E+00
 -1      3234 7.07850E+01 1.05013E+01 0.00000E+00
 -1      3235 6.92850E+01 1.05013E+01 0.00000E+00
 -1      3236 6.85350E+01 1.18003E+01 0.00000E+00
 -1      3237 7.37850E+01 1.05013E+01 0.00000E+00
 -1      3238 7.22850E+01 1.05013E+01 0.00000E+00
 -1      3239 7.15350E+01 1.18003E+01 0.00000E+00
 -1      3240 7.67850E+01 1.05013E+01 0.00000E+00
 -1      3241 7.52850E+01 1.05013E+01 0.00000E+00
 -1      3242 7.45350E+01 1.18003E+01 0.00000E+00
 -1      3243 7.97850E+01 1.05013E+01 0.00000E+00
 -1      3244 7.82850E+01 1.05013E+01 0.00000E+00
 -1      3245 7.75350E+01 1.18003E+01 0.00000E+00
 -1      3246 8.27850E+01 1.05013E+01 0.00000E+00
 -1      3247 8.12850E+01 1.05013E+01 0.00000E+00
 -1      3248 8.05350E+01 1.18003E+01 0.00000E+00
 -1      3249 8.57850E+01 1.05013E+01 0.00000E+00
 -1      3250 8.42850E+01 1.05013E+01 0.00000E+00
 -1      3251 8.35350E+01 1.18003E+01 0.00000E+00
 -1      3252 8.87850E+01 1.05013E+01 0.00000E+00
 -1      3253 8.72850E+01 1.05013E+01 0.00000E+00
 -1      3254 8.65350E+01 1.18003E+01 0.00000E+00
 -1      3255 9.17850E+01 1.05013E+01 0.00000E+00
 -1      3256 9.02850E+01 1.05013E+01 0.00000E+00
 -1      3257 8.95350E+01 1.18003E+01 0.00000E+00
 -1      3258 9.47850E+01 1.05013E+01 0.00000E+00
 -1      3259 9.32850E+01 1.05013E+01 0.00000E+00
 -1      3260 9.25350E+01 1.18003E+01 0.00000E+00
 -1      3261 9.77850E+01 1.05013E+01 0.00000E+00
 -1      3262 9.62850E+01 1.05013E+01 0.00000E+00
 -1      3263 9.55350E+01 1.18003E+01 0.00000E+00
 -1      3264 1.03785E+02 1.05013E+01 0.00000E+00
 -1      3265 1.02285E+02 1.05013E+01 0.00000E+00
 -1      3266 1.07001E+02 1.08459E+01 0.00000E+00
 -1      3267 1.05501E+02 1.08459E+01 0.00000E+00
 -1      3268 1.12785E+02 1.05013E+01 0.00000E+00
 -1      3269 1.11285E+02 1.05013E+01 0.00000E+00
 -1      3270 1.15785E+02 1.05013E+01 0.00000E+00
 -1      3271 1.14285E+02 1.05013E+01 0.00000E+00
 -1      3272 1.13535E+02 1.18003E+01 0.00000E+00
 -1      3273 1.18785E+02 1.05013E+01 0.00000E+00
 -1      3274 1.17285E+02 1.05013E+01 0.00000E+00
 -1      3275 1.16535E+02 1.18003E+01 0.00000E+00
 -1      3276 1.21785E+02 1.05013E+01 0.00000E+00
 -1      3277 1.20285E+02 1.05013E+01 0.00000E+00
 -1      3278 1.19535E+02 1.18003E+01 0.00000E+00
 -1      3279 1.24785E+02 1.05013E+01 0.00000E+00
 -1      3280 1.23285E+02 1.05013E+01 0.00000E+00
 -1      3281 1.22535E+02 1.18003E+01 0.00000E+00
 -1      3282 1.27785E+02 1.05013E+01 0.00000E+00
 -1      3283 1.26285E+02 1.05013E+01 0.00000E+00
 -1      3284 1.25535E+02 1.18003E+01 0.00000E+00
 -1      3285 1.30785E+02 1.05013E+01 0.00000E+00
 -1      3286 1.29285E+02 1.05013E+01 0.00000E+00
 -1      3287 1.28535E+02 1.18003E+01 0.00000E+00
 -1      3288 1.33785E+02 1.05013E+01 0.00000E+00
 -1      3289 1.32285E+02 1.05013E+01 0.00000E+00
 -1      3290 1.31535E+02 1.18003E+01 0.00000E+00
 -1      3291 1.01054E+02 3.95557E+01 0.00000E+00
 -1      3292 1.38309E+02 2.57625E+01 0.00000E+00
 -1      3293 1.38309E+02 2.42875E+01 0.00000E+00
 -1      3294 1.38309E+02 3.45625E+01 0.00000E+00
 -1      3295 1.38309E+02 3.30875E+01 0.00000E+00
 -1      3296 1.38309E+02 2.86625E+01 0.00000E+00
 -1      3297 1.38309E+02 2.72125E+01 0.00000E+00
 -1      3298 1.37010E+02 2.64750E+01 0.00000E+00
 -1      3299 1.17219E+02 2.77304E+01 0.00000E+00
 -1      3300 1.17054E+02 2.89768E+01 0.00000E+00
 -1      3301 1.16910E+01 2.12875E+01 0.00000E+00
 -1      3302 1.16910E+01 2.27625E+01 0.00000E+00
 -1      3303 1.38309E+02 3.16125E+01 0.00000E+00
 -1      3304 1.38309E+02 3.01375E+01 0.00000E+00
 -1      3305 1.37010E+02 2.94000E+01 0.00000E+00
 -1      3306 1.37010E+02 3.23500E+01 0.00000E+00
 -1      3307 3.77850E+01 1.05013E+01 0.00000E+00
 -1      3308 3.62850E+01 1.05013E+01 0.00000E+00
 -1      3309 3.55350E+01 1.18003E+01 0.00000E+00
 -1      3310 3.85350E+01 1.18003E+01 0.00000E+00
 -1      3311 9.12223E+01 3.27633E+01 0.00000E+00
 -1      3312 9.06098E+01 3.15081E+01 0.00000E+00
 -1      3313 1.17900E+02 3.83090E+01 0.00000E+00
 -1      3314 1.19400E+02 3.83090E+01 0.00000E+00
 -1      3315 1.20150E+02 3.70100E+01 0.00000E+00
 -1      3316 9.95740E+01 1.31853E+01 0.00000E+00
 -1      3317 1.01168E+02 1.28904E+01 0.00000E+00
 -1      3318 1.16643E+02 3.03599E+01 0.00000E+00
 -1      3319 1.16228E+02 3.15692E+01 0.00000E+00
 -1      3320 1.15912E+02 1.97016E+01 0.00000E+00
 -1      3321 1.16397E+02 2.10965E+01 0.00000E+00
 -1      3322 9.00085E+01 3.00750E+01 0.00000E+00
 -1      3323 8.97255E+01 2.88340E+01 0.00000E+00
 -1      3324 1.39407E+02 1.25250E+01 0.00000E+00
 -1      3325 9.45207E+01 3.69993E+01 0.00000E+00
 -1      3326 9.35178E+01 3.60216E+01 0.00000E+00
 -1      3327 1.15761E+02 3.29047E+01 0.00000E+00
 -1      3328 1.15176E+02 3.40891E+01 0.00000E+00
 -1      3329 1.16721E+02 2.21525E+01 0.00000E+00
 -1      3330 1.17045E+02 2.32085E+01 0.00000E+00
 -1      3331 1.17526E+02 2.10908E+01 0.00000E+00
 -1      3332 1.59000E+01 3.83090E+01 0.00000E+00
 -1      3333 1.74000E+01 3.83090E+01 0.00000E+00
 -1      3334 1.81500E+01 3.70100E+01 0.00000E+00
 -1      3335 1.02601E+02 1.28168E+01 0.00000E+00
 -1      3336 1.03960E+02 1.30215E+01 0.00000E+00
 -1      3337 8.93837E+01 2.74374E+01 0.00000E+00
 -1      3338 8.91791E+01 2.60237E+01 0.00000E+00
 -1      3339 1.17296E+02 2.49008E+01 0.00000E+00
 -1      3340 1.17360E+02 2.62578E+01 0.00000E+00
 -1      3341 9.69499E+01 1.37512E+01 0.00000E+00
 -1      3342 9.80069E+01 1.31117E+01 0.00000E+00
 -1      3343 1.26488E+01 1.02017E+01 0.00000E+00
 -1      3344 1.20772E+01 1.14631E+01 0.00000E+00
 -1      3345 1.33763E+01 1.22006E+01 0.00000E+00
 -1      3346 1.41488E+01 1.02017E+01 0.00000E+00
 -1      3347 1.08026E+02 1.39162E+01 0.00000E+00
 -1      3348 1.09232E+02 1.42164E+01 0.00000E+00
 -1      3349 1.07673E+02 1.27897E+01 0.00000E+00
 -1      3350 9.26793E+01 1.86230E+01 0.00000E+00
 -1      3351 9.36358E+01 1.77912E+01 0.00000E+00
 -1      3352 9.11675E+01 2.13332E+01 0.00000E+00
 -1      3353 9.17315E+01 2.00645E+01 0.00000E+00
 -1      3354 1.16910E+01 2.42375E+01 0.00000E+00
 -1      3355 1.16910E+01 2.57125E+01 0.00000E+00
 -1      3356 1.29900E+01 2.35000E+01 0.00000E+00
 -1      3357 1.29900E+01 1.46687E+01 0.00000E+00
 -1      3358 1.16910E+01 1.54063E+01 0.00000E+00
 -1      3359 1.16910E+01 1.68750E+01 0.00000E+00
 -1      3360 1.16299E+01 3.74672E+01 0.00000E+00
 -1      3361 1.16783E+01 3.85855E+01 0.00000E+00
 -1      3362 1.28194E+01 3.85536E+01 0.00000E+00
 -1      3363 9.37002E+01 1.66168E+01 0.00000E+00
 -1      3364 9.07725E+01 3.37684E+01 0.00000E+00
 -1      3365 1.10351E+02 1.40490E+01 0.00000E+00
 -1      3366 8.88808E+01 2.50946E+01 0.00000E+00
 -1      3367 8.85825E+01 2.41655E+01 0.00000E+00
 -1      3368 8.78856E+01 2.59603E+01 0.00000E+00
 -1      3369 9.25060E+01 3.70972E+01 0.00000E+00
 -1      3370 9.32560E+01 3.83962E+01 0.00000E+00
 -1      3371 1.17122E+02 3.69731E+01 0.00000E+00
 -1      3372 1.15953E+02 3.54250E+01 0.00000E+00
 -1      3373 9.44146E+01 3.82111E+01 0.00000E+00
 -1      3374 9.59146E+01 3.82111E+01 0.00000E+00
 -1      3375 1.37758E+02 3.64912E+01 0.00000E+00
 -1      3376 1.38123E+02 3.54142E+01 0.00000E+00
 -1      3377 1.36824E+02 3.46768E+01 0.00000E+00
 -1      3378 1.36451E+02 3.63802E+01 0.00000E+00
 -1      3379 1.39605E+01 3.85216E+01 0.00000E+00
 -1      3380 2.57850E+01 1.05013E+01 0.00000E+00
 -1      3381 2.42850E+01 1.05013E+01 0.00000E+00
 -1      3382 2.35350E+01 1.18003E+01 0.00000E+00
 -1      3383 1.47105E+01 3.72226E+01 0.00000E+00
 -1      3384 9.68571E+01 3.90722E+01 0.00000E+00
 -1      3385 9.24185E+01 3.60864E+01 0.00000E+00
 -1      3386 8.94688E+01 3.11155E+01 0.00000E+00
 -1      3387 2.95350E+01 1.18003E+01 0.00000E+00
 -1      3388 2.87850E+01 1.05013E+01 0.00000E+00
 -1      3389 2.72850E+01 1.05013E+01 0.00000E+00
 -1      3390 9.93522E+01 1.05748E+01 0.00000E+00
 -1      3391 9.86022E+01 1.18738E+01 0.00000E+00
 -1      3392 1.04751E+02 1.21449E+01 0.00000E+00
 -1      3393 1.00852E+02 1.05748E+01 0.00000E+00
 -1      3394 1.01602E+02 1.18738E+01 0.00000E+00
 -1      3395 1.09785E+02 1.05013E+01 0.00000E+00
 -1      3396 1.08285E+02 1.05013E+01 0.00000E+00
 -1      3397 1.34953E+02 1.07819E+01 0.00000E+00
 -1      3398 1.34203E+02 1.20809E+01 0.00000E+00
 -1      3399 1.36120E+02 1.10626E+01 0.00000E+00
 -1      3400 1.38239E+02 1.22443E+01 0.00000E+00
 -1      3401 1.37072E+02 1.19636E+01 0.00000E+00
 -1      3402 1.38440E+02 1.44443E+01 0.00000E+00
 -1      3403 1.38309E+02 1.98625E+01 0.00000E+00
 -1      3404 1.38309E+02 1.83875E+01 0.00000E+00
 -1      3405 1.38375E+02 1.71472E+01 0.00000E+00
 -1      3406 1.38375E+02 1.56847E+01 0.00000E+00
 -1      3407 1.37207E+02 1.54040E+01 0.00000E+00
 -1      3408 1.37076E+02 1.78847E+01 0.00000E+00
 -1      3409 1.13302E+02 1.47679E+01 0.00000E+00
 -1      3410 1.13763E+02 1.57916E+01 0.00000E+00
 -1      3411 1.15241E+02 1.55515E+01 0.00000E+00
 -1      3412 1.17658E+02 2.98597E+01 0.00000E+00
 -1      3413 1.38309E+02 2.28125E+01 0.00000E+00
 -1      3414 1.38309E+02 2.13375E+01 0.00000E+00
 -1      3415 1.37010E+02 2.35500E+01 0.00000E+00
 -1      3416 1.18211E+02 2.70039E+01 0.00000E+00
 -1      3417 9.54499E+01 1.37512E+01 0.00000E+00
 -1      3418 8.85257E+01 2.82859E+01 0.00000E+00
 -1      3419 1.16779E+02 3.25783E+01 0.00000E+00
 -1      3420 1.16452E+02 1.83050E+01 0.00000E+00
 -1      3421 1.16910E+01 1.98188E+01 0.00000E+00
 -1      3422 1.29900E+01 2.05562E+01 0.00000E+00
 -1      3423 1.16910E+01 1.83500E+01 0.00000E+00
 -1      3424 1.69669E+01 1.03515E+01 0.00000E+00
 -1      3425 1.54669E+01 1.03515E+01 0.00000E+00
 -1      3426 1.50806E+01 1.13509E+01 0.00000E+00
 -1      3427 1.77169E+01 1.16505E+01 0.00000E+00
 -1      3428 1.18101E+02 2.38391E+01 0.00000E+00
 -1      3429 9.83571E+01 3.93461E+01 0.00000E+00
 -1      3430 1.10535E+02 1.18003E+01 0.00000E+00
 -1      3431 9.95540E+01 3.97232E+01 0.00000E+00
 -1      3432 9.00835E+01 2.18081E+01 0.00000E+00
 -1      3433 9.15371E+01 1.88750E+01 0.00000E+00
 -1      3434 9.13427E+01 1.76855E+01 0.00000E+00
 -1      3435 9.03949E+01 1.91270E+01 0.00000E+00
 -1      3436 1.16910E+01 3.01219E+01 0.00000E+00
 -1      3437 1.16910E+01 3.15906E+01 0.00000E+00
 -1      3438 1.29900E+01 3.23250E+01 0.00000E+00
 -1      3439 1.16910E+01 3.30594E+01 0.00000E+00
 -1      3440 1.16910E+01 3.45281E+01 0.00000E+00
 -1      3441 1.15815E+01 3.63489E+01 0.00000E+00
 -1      3442 1.19155E+02 2.28180E+01 0.00000E+00
 -1      3443 1.19406E+02 2.45102E+01 0.00000E+00
 -1      3444 1.17481E+02 3.54619E+01 0.00000E+00
 -1      3445 2.34000E+01 3.57110E+01 0.00000E+00
 -1      3446 2.49000E+01 3.57110E+01 0.00000E+00
 -1      3447 2.64000E+01 3.57110E+01 0.00000E+00
 -1      3448 2.79000E+01 3.57110E+01 0.00000E+00
 -1      3449 2.56500E+01 3.44120E+01 0.00000E+00
 -1      3450 2.94000E+01 3.57110E+01 0.00000E+00
 -1      3451 3.09000E+01 3.57110E+01 0.00000E+00
 -1      3452 2.86500E+01 3.44120E+01 0.00000E+00
 -1      3453 3.24000E+01 3.57110E+01 0.00000E+00
 -1      3454 3.39000E+01 3.57110E+01 0.00000E+00
 -1      3455 3.16500E+01 3.44120E+01 0.00000E+00
 -1      3456 3.54000E+01 3.57110E+01 0.00000E+00
 -1      3457 3.69000E+01 3.57110E+01 0.00000E+00
 -1      3458 3.46500E+01 3.44120E+01 0.00000E+00
 -1      3459 3.84000E+01 3.57110E+01 0.00000E+00
 -1      3460 3.99000E+01 3.57110E+01 0.00000E+00
 -1      3461 3.76500E+01 3.44120E+01 0.00000E+00
 -1      3462 4.14000E+01 3.57110E+01 0.00000E+00
 -1      3463 4.29000E+01 3.57110E+01 0.00000E+00
 -1      3464 4.06500E+01 3.44120E+01 0.00000E+00
 -1      3465 4.44000E+01 3.57110E+01 0.00000E+00
 -1      3466 4.59000E+01 3.57110E+01 0.00000E+00
 -1      3467 4.36500E+01 3.44120E+01 0.00000E+00
 -1      3468 4.74000E+01 3.57110E+01 0.00000E+00
 -1      3469 4.89000E+01 3.57110E+01 0.00000E+00
 -1      3470 4.66500E+01 3.44120E+01 0.00000E+00
 -1      3471 5.04000E+01 3.57110E+01 0.00000E+00
 -1      3472 5.19000E+01 3.57110E+01 0.00000E+00
 -1      3473 4.96500E+01 3.44120E+01 0.00000E+00
 -1      3474 5.34000E+01 3.57110E+01 0.00000E+00
 -1      3475 5.49000E+01 3.57110E+01 0.00000E+00
 -1      3476 5.26500E+01 3.44120E+01 0.00000E+00
 -1      3477 5.64000E+01 3.57110E+01 0.00000E+00
 -1      3478 5.79000E+01 3.57110E+01 0.00000E+00
 -1      3479 5.56500E+01 3.44120E+01 0.00000E+00
 -1      3480 5.94000E+01 3.57110E+01 0.00000E+00
 -1      3481 6.09000E+01 3.57110E+01 0.00000E+00
 -1      3482 5.86500E+01 3.44120E+01 0.00000E+00
 -1      3483 6.24000E+01 3.57110E+01 0.00000E+00
 -1      3484 6.39000E+01 3.57110E+01 0.00000E+00
 -1      3485 6.16500E+01 3.44120E+01 0.00000E+00
 -1      3486 6.54000E+01 3.57110E+01 0.00000E+00
 -1      3487 6.69000E+01 3.57110E+01 0.00000E+00
 -1      3488 6.46500E+01 3.44120E+01 0.00000E+00
 -1      3489 6.84000E+01 3.57110E+01 0.00000E+00
 -1      3490 6.99000E+01 3.57110E+01 0.00000E+00
 -1      3491 6.76500E+01 3.44120E+01 0.00000E+00
 -1      3492 7.14000E+01 3.57110E+01 0.00000E+00
 -1      3493 7.29000E+01 3.57110E+01 0.00000E+00
 -1      3494 7.06500E+01 3.44120E+01 0.00000E+00
 -1      3495 7.44000E+01 3.57110E+01 0.00000E+00
 -1      3496 7.59000E+01 3.57110E+01 0.00000E+00
 -1      3497 7.36500E+01 3.44120E+01 0.00000E+00
 -1      3498 7.74000E+01 3.57110E+01 0.00000E+00
 -1      3499 7.89000E+01 3.57110E+01 0.00000E+00
 -1      3500 7.66500E+01 3.44120E+01 0.00000E+00
 -1      3501 8.04000E+01 3.57110E+01 0.00000E+00
 -1      3502 8.19000E+01 3.57110E+01 0.00000E+00
 -1      3503 7.96500E+01 3.44120E+01 0.00000E+00
 -1      3504 8.34000E+01 3.57110E+01 0.00000E+00
 -1      3505 8.49000E+01 3.57110E+01 0.00000E+00
 -1      3506 8.26500E+01 3.44120E+01 0.00000E+00
 -1      3507 8.64000E+01 3.57110E+01 0.00000E+00
 -1      3508 8.79000E+01 3.57110E+01 0.00000E+00
 -1      3509 8.56500E+01 3.44120E+01 0.00000E+00
 -1      3510 1.22400E+02 3.57110E+01 0.00000E+00
 -1      3511 1.23900E+02 3.57110E+01 0.00000E+00
 -1      3512 1.25400E+02 3.57110E+01 0.00000E+00
 -1      3513 1.26900E+02 3.57110E+01 0.00000E+00
 -1      3514 1.24650E+02 3.44120E+01 0.00000E+00
 -1      3515 1.28400E+02 3.57110E+01 0.00000E+00
 -1      3516 1.29900E+02 3.57110E+01 0.00000E+00
 -1      3517 1.27650E+02 3.44120E+01 0.00000E+00
 -1      3518 1.31400E+02 3.57110E+01 0.00000E+00
 -1      3519 1.32900E+02 3.57110E+01 0.00000E+00
 -1      3520 1.30650E+02 3.44120E+01 0.00000E+00
 -1      3521 9.24740E+01 1.61048E+01 0.00000E+00
 -1      3522 9.36893E+01 1.52880E+01 0.00000E+00
 -1      3523 4.52850E+01 1.30992E+01 0.00000E+00
 -1      3524 4.37850E+01 1.30992E+01 0.00000E+00
 -1      3525 4.22850E+01 1.30992E+01 0.00000E+00
 -1      3526 4.07850E+01 1.30992E+01 0.00000E+00
 -1      3527 4.30350E+01 1.43982E+01 0.00000E+00
 -1      3528 5.12850E+01 1.30992E+01 0.00000E+00
 -1      3529 4.97850E+01 1.30992E+01 0.00000E+00
 -1      3530 5.42850E+01 1.30992E+01 0.00000E+00
 -1      3531 5.27850E+01 1.30992E+01 0.00000E+00
 -1      3532 5.20350E+01 1.43982E+01 0.00000E+00
 -1      3533 5.72850E+01 1.30992E+01 0.00000E+00
 -1      3534 5.57850E+01 1.30992E+01 0.00000E+00
 -1      3535 5.50350E+01 1.43982E+01 0.00000E+00
 -1      3536 6.02850E+01 1.30992E+01 0.00000E+00
 -1      3537 5.87850E+01 1.30992E+01 0.00000E+00
 -1      3538 5.80350E+01 1.43982E+01 0.00000E+00
 -1      3539 6.32850E+01 1.30992E+01 0.00000E+00
 -1      3540 6.17850E+01 1.30992E+01 0.00000E+00
 -1      3541 6.10350E+01 1.43982E+01 0.00000E+00
 -1      3542 6.62850E+01 1.30992E+01 0.00000E+00
 -1      3543 6.47850E+01 1.30992E+01 0.00000E+00
 -1      3544 6.40350E+01 1.43982E+01 0.00000E+00
 -1      3545 6.92850E+01 1.30992E+01 0.00000E+00
 -1      3546 6.77850E+01 1.30992E+01 0.00000E+00
 -1      3547 6.70350E+01 1.43982E+01 0.00000E+00
 -1      3548 7.22850E+01 1.30992E+01 0.00000E+00
 -1      3549 7.07850E+01 1.30992E+01 0.00000E+00
 -1      3550 7.00350E+01 1.43982E+01 0.00000E+00
 -1      3551 7.52850E+01 1.30992E+01 0.00000E+00
 -1      3552 7.37850E+01 1.30992E+01 0.00000E+00
 -1      3553 7.30350E+01 1.43982E+01 0.00000E+00
 -1      3554 7.82850E+01 1.30992E+01 0.00000E+00
 -1      3555 7.67850E+01 1.30992E+01 0.00000E+00
 -1      3556 7.60350E+01 1.43982E+01 0.00000E+00
 -1      3557 8.12850E+01 1.30992E+01 0.00000E+00
 -1      3558 7.97850E+01 1.30992E+01 0.00000E+00
 -1      3559 7.90350E+01 1.43982E+01 0.00000E+00
 -1      3560 8.42850E+01 1.30992E+01 0.00000E+00
 -1      3561 8.27850E+01 1.30992E+01 0.00000E+00
 -1      3562 8.20350E+01 1.43982E+01 0.00000E+00
 -1      3563 8.72850E+01 1.30992E+01 0.00000E+00
 -1      3564 8.57850E+01 1.30992E+01 0.00000E+00
 -1      3565 8.50350E+01 1.43982E+01 0.00000E+00
 -1      3566 9.02850E+01 1.30992E+01 0.00000E+00
 -1      3567 8.87850E+01 1.30992E+01 0.00000E+00
 -1      3568 8.80350E+01 1.43982E+01 0.00000E+00
 -1      3569 9.32491E+01 1.32881E+01 0.00000E+00
 -1      3570 9.17491E+01 1.32881E+01 0.00000E+00
 -1      3571 8.76195E+01 2.92478E+01 0.00000E+00
 -1      3572 8.72777E+01 2.78513E+01 0.00000E+00
 -1      3573 1.14907E+02 1.31640E+01 0.00000E+00
 -1      3574 1.13407E+02 1.31640E+01 0.00000E+00
 -1      3575 1.23285E+02 1.30992E+01 0.00000E+00
 -1      3576 1.21785E+02 1.30992E+01 0.00000E+00
 -1      3577 1.26285E+02 1.30992E+01 0.00000E+00
 -1      3578 1.24785E+02 1.30992E+01 0.00000E+00
 -1      3579 1.24035E+02 1.43982E+01 0.00000E+00
 -1      3580 1.29285E+02 1.30992E+01 0.00000E+00
 -1      3581 1.27785E+02 1.30992E+01 0.00000E+00
 -1      3582 1.27035E+02 1.43982E+01 0.00000E+00
 -1      3583 1.32285E+02 1.30992E+01 0.00000E+00
 -1      3584 1.30785E+02 1.30992E+01 0.00000E+00
 -1      3585 1.30035E+02 1.43982E+01 0.00000E+00
 -1      3586 1.37010E+02 2.06000E+01 0.00000E+00
 -1      3587 1.35711E+02 2.72000E+01 0.00000E+00
 -1      3588 1.35711E+02 2.57500E+01 0.00000E+00
 -1      3589 1.19007E+02 2.95084E+01 0.00000E+00
 -1      3590 1.18595E+02 3.08914E+01 0.00000E+00
 -1      3591 1.18585E+02 2.01886E+01 0.00000E+00
 -1      3592 1.18908E+02 2.12446E+01 0.00000E+00
 -1      3593 1.19400E+02 3.57110E+01 0.00000E+00
 -1      3594 1.20900E+02 3.57110E+01 0.00000E+00
 -1      3595 1.21650E+02 3.44120E+01 0.00000E+00
 -1      3596 8.93125E+01 3.47002E+01 0.00000E+00
 -1      3597 8.86100E+01 3.34802E+01 0.00000E+00
 -1      3598 1.20285E+02 1.30992E+01 0.00000E+00
 -1      3599 1.18785E+02 1.30992E+01 0.00000E+00
 -1      3600 1.21035E+02 1.43982E+01 0.00000E+00
 -1      3601 8.84154E+01 3.20805E+01 0.00000E+00
 -1      3602 8.78141E+01 3.06475E+01 0.00000E+00
 -1      3603 8.65661E+01 3.02129E+01 0.00000E+00
 -1      3604 8.69554E+01 3.30123E+01 0.00000E+00
 -1      3605 1.17596E+02 1.31316E+01 0.00000E+00
 -1      3606 1.16096E+02 1.31316E+01 0.00000E+00
 -1      3607 1.15969E+02 1.44954E+01 0.00000E+00
 -1      3608 1.18346E+02 1.44306E+01 0.00000E+00
 -1      3609 1.17269E+02 1.69233E+01 0.00000E+00
 -1      3610 1.18019E+02 1.86531E+01 0.00000E+00
 -1      3611 1.74000E+01 3.57110E+01 0.00000E+00
 -1      3612 1.89000E+01 3.57110E+01 0.00000E+00
 -1      3613 1.16910E+01 2.71844E+01 0.00000E+00
 -1      3614 1.16910E+01 2.86531E+01 0.00000E+00
 -1      3615 1.29900E+01 2.93875E+01 0.00000E+00
 -1      3616 1.17981E+02 3.22490E+01 0.00000E+00
 -1      3617 1.17513E+02 3.35846E+01 0.00000E+00
 -1      3618 4.82850E+01 1.30992E+01 0.00000E+00
 -1      3619 4.67850E+01 1.30992E+01 0.00000E+00
 -1      3620 4.60350E+01 1.43982E+01 0.00000E+00
 -1      3621 4.90350E+01 1.43982E+01 0.00000E+00
 -1      3622 3.32850E+01 1.30992E+01 0.00000E+00
 -1      3623 3.17850E+01 1.30992E+01 0.00000E+00
 -1      3624 2.04000E+01 3.57110E+01 0.00000E+00
 -1      3625 2.19000E+01 3.57110E+01 0.00000E+00
 -1      3626 2.26500E+01 3.44120E+01 0.00000E+00
 -1      3627 8.86217E+01 2.21440E+01 0.00000E+00
 -1      3628 8.91275E+01 2.06524E+01 0.00000E+00
 -1      3629 1.19385E+02 2.63733E+01 0.00000E+00
 -1      3630 1.19244E+02 2.78460E+01 0.00000E+00
 -1      3631 2.12850E+01 1.30992E+01 0.00000E+00
 -1      3632 1.97850E+01 1.30992E+01 0.00000E+00
 -1      3633 1.35992E+01 3.60377E+01 0.00000E+00
 -1      3634 1.55387E+01 3.58251E+01 0.00000E+00
 -1      3635 1.42890E+01 1.39344E+01 0.00000E+00
 -1      3636 1.42890E+01 1.54031E+01 0.00000E+00
 -1      3637 1.20214E+02 2.19158E+01 0.00000E+00
 -1      3638 2.42850E+01 1.30992E+01 0.00000E+00
 -1      3639 2.27850E+01 1.30992E+01 0.00000E+00
 -1      3640 2.20350E+01 1.43982E+01 0.00000E+00
 -1      3641 1.07751E+02 1.21449E+01 0.00000E+00
 -1      3642 1.08957E+02 1.24451E+01 0.00000E+00
 -1      3643 1.18231E+02 3.41629E+01 0.00000E+00
 -1      3644 8.69794E+01 2.69222E+01 0.00000E+00
 -1      3645 8.66811E+01 2.59931E+01 0.00000E+00
 -1      3646 8.60732E+01 2.78841E+01 0.00000E+00
 -1      3647 9.15625E+01 3.59992E+01 0.00000E+00
 -1      3648 8.74714E+01 1.97988E+01 0.00000E+00
 -1      3649 8.89331E+01 1.94629E+01 0.00000E+00
 -1      3650 8.87387E+01 1.82734E+01 0.00000E+00
 -1      3651 9.00625E+01 3.59992E+01 0.00000E+00
 -1      3652 2.65350E+01 1.18003E+01 0.00000E+00
 -1      3653 1.34022E+02 3.59901E+01 0.00000E+00
 -1      3654 1.35329E+02 3.61011E+01 0.00000E+00
 -1      3655 1.35515E+02 3.52494E+01 0.00000E+00
 -1      3656 1.33272E+02 3.46911E+01 0.00000E+00
 -1      3657 3.10350E+01 1.43982E+01 0.00000E+00
 -1      3658 3.02850E+01 1.30992E+01 0.00000E+00
 -1      3659 2.87850E+01 1.30992E+01 0.00000E+00
 -1      3660 1.84669E+01 1.29495E+01 0.00000E+00
 -1      3661 1.71488E+01 1.27997E+01 0.00000E+00
 -1      3662 1.92169E+01 1.42485E+01 0.00000E+00
 -1      3663 4.00350E+01 1.43982E+01 0.00000E+00
 -1      3664 3.92850E+01 1.30992E+01 0.00000E+00
 -1      3665 3.77850E+01 1.30992E+01 0.00000E+00
 -1      3666 9.09991E+01 1.45871E+01 0.00000E+00
 -1      3667 1.11930E+02 1.34042E+01 0.00000E+00
 -1      3668 1.35746E+02 1.84362E+01 0.00000E+00
 -1      3669 1.35811E+02 1.71959E+01 0.00000E+00
 -1      3670 1.35746E+02 2.13862E+01 0.00000E+00
 -1      3671 1.35746E+02 1.99112E+01 0.00000E+00
 -1      3672 1.34481E+02 1.92224E+01 0.00000E+00
 -1      3673 1.20181E+02 2.88778E+01 0.00000E+00
 -1      3674 1.35711E+02 2.86750E+01 0.00000E+00
 -1      3675 1.34412E+02 2.79500E+01 0.00000E+00
 -1      3676 1.35711E+02 3.01500E+01 0.00000E+00
 -1      3677 1.35728E+02 2.43056E+01 0.00000E+00
 -1      3678 1.35728E+02 2.28306E+01 0.00000E+00
 -1      3679 1.34464E+02 2.21418E+01 0.00000E+00
 -1      3680 1.34429E+02 2.50306E+01 0.00000E+00
 -1      3681 3.62850E+01 1.30992E+01 0.00000E+00
 -1      3682 3.47850E+01 1.30992E+01 0.00000E+00
 -1      3683 3.40350E+01 1.43982E+01 0.00000E+00
 -1      3684 3.70350E+01 1.43982E+01 0.00000E+00
 -1      3685 1.19329E+02 3.18977E+01 0.00000E+00
 -1      3686 1.42890E+01 2.27625E+01 0.00000E+00
 -1      3687 1.42890E+01 2.42375E+01 0.00000E+00
 -1      3688 1.29900E+01 1.76125E+01 0.00000E+00
 -1      3689 1.42890E+01 2.12938E+01 0.00000E+00
 -1      3690 1.55880E+01 2.20313E+01 0.00000E+00
 -1      3691 1.42890E+01 1.98250E+01 0.00000E+00
 -1      3692 1.19401E+02 1.88068E+01 0.00000E+00
 -1      3693 1.29900E+01 2.64469E+01 0.00000E+00
 -1      3694 1.62887E+01 3.45261E+01 0.00000E+00
 -1      3695 1.10457E+02 1.24451E+01 0.00000E+00
 -1      3696 1.96500E+01 3.44120E+01 0.00000E+00
 -1      3697 1.42890E+01 2.86531E+01 0.00000E+00
 -1      3698 1.42890E+01 3.01219E+01 0.00000E+00
 -1      3699 1.16430E+02 1.55191E+01 0.00000E+00
 -1      3700 1.20440E+02 2.53523E+01 0.00000E+00
 -1      3701 1.17997E+02 1.58672E+01 0.00000E+00
 -1      3702 8.66313E+01 2.38754E+01 0.00000E+00
 -1      3703 8.76265E+01 2.30097E+01 0.00000E+00
 -1      3704 8.66706E+01 2.18540E+01 0.00000E+00
 -1      3705 9.44753E+01 1.38001E+01 0.00000E+00
 -1      3706 8.98678E+01 1.61679E+01 0.00000E+00
 -1      3707 9.10099E+01 1.59159E+01 0.00000E+00
 -1      3708 1.28805E+01 3.56145E+01 0.00000E+00
 -1      3709 1.21374E+02 2.09278E+01 0.00000E+00
 -1      3710 1.21620E+02 2.25012E+01 0.00000E+00
 -1      3711 2.79000E+01 3.31130E+01 0.00000E+00
 -1      3712 2.94000E+01 3.31130E+01 0.00000E+00
 -1      3713 3.09000E+01 3.31130E+01 0.00000E+00
 -1      3714 3.24000E+01 3.31130E+01 0.00000E+00
 -1      3715 3.01500E+01 3.18140E+01 0.00000E+00
 -1      3716 3.39000E+01 3.31130E+01 0.00000E+00
 -1      3717 3.54000E+01 3.31130E+01 0.00000E+00
 -1      3718 3.31500E+01 3.18140E+01 0.00000E+00
 -1      3719 3.69000E+01 3.31130E+01 0.00000E+00
 -1      3720 3.84000E+01 3.31130E+01 0.00000E+00
 -1      3721 3.61500E+01 3.18140E+01 0.00000E+00
 -1      3722 3.99000E+01 3.31130E+01 0.00000E+00
 -1      3723 4.14000E+01 3.31130E+01 0.00000E+00
 -1      3724 3.91500E+01 3.18140E+01 0.00000E+00
 -1      3725 4.29000E+01 3.31130E+01 0.00000E+00
 -1      3726 4.44000E+01 3.31130E+01 0.00000E+00
 -1      3727 4.21500E+01 3.18140E+01 0.00000E+00
 -1      3728 4.59000E+01 3.31130E+01 0.00000E+00
 -1      3729 4.74000E+01 3.31130E+01 0.00000E+00
 -1      3730 4.51500E+01 3.18140E+01 0.00000E+00
 -1      3731 4.89000E+01 3.31130E+01 0.00000E+00
 -1      3732 5.04000E+01 3.31130E+01 0.00000E+00
 -1      3733 4.81500E+01 3.18140E+01 0.00000E+00
 -1      3734 5.19000E+01 3.31130E+01 0.00000E+00
 -1      3735 5.34000E+01 3.31130E+01 0.00000E+00
 -1      3736 5.11500E+01 3.18140E+01 0.00000E+00
 -1      3737 5.49000E+01 3.31130E+01 0.00000E+00
 -1      3738 5.64000E+01 3.31130E+01 0.00000E+00
 -1      3739 5.41500E+01 3.18140E+01 0.00000E+00
 -1      3740 5.79000E+01 3.31130E+01 0.00000E+00
 -1      3741 5.94000E+01 3.31130E+01 0.00000E+00
 -1      3742 5.71500E+01 3.18140E+01 0.00000E+00
 -1      3743 6.09000E+01 3.31130E+01 0.00000E+00
 -1      3744 6.24000E+01 3.31130E+01 0.00000E+00
 -1      3745 6.01500E+01 3.18140E+01 0.00000E+00
 -1      3746 6.39000E+01 3.31130E+01 0.00000E+00
 -1      3747 6.54000E+01 3.31130E+01 0.00000E+00
 -1      3748 6.31500E+01 3.18140E+01 0.00000E+00
 -1      3749 6.69000E+01 3.31130E+01 0.00000E+00
 -1      3750 6.84000E+01 3.31130E+01 0.00000E+00
 -1      3751 6.61500E+01 3.18140E+01 0.00000E+00
 -1      3752 6.99000E+01 3.31130E+01 0.00000E+00
 -1      3753 7.14000E+01 3.31130E+01 0.00000E+00
 -1      3754 6.91500E+01 3.18140E+01 0.00000E+00
 -1      3755 7.29000E+01 3.31130E+01 0.00000E+00
 -1      3756 7.44000E+01 3.31130E+01 0.00000E+00
 -1      3757 7.21500E+01 3.18140E+01 0.00000E+00
 -1      3758 7.59000E+01 3.31130E+01 0.00000E+00
 -1      3759 7.74000E+01 3.31130E+01 0.00000E+00
 -1      3760 7.51500E+01 3.18140E+01 0.00000E+00
 -1      3761 7.89000E+01 3.31130E+01 0.00000E+00
 -1      3762 8.04000E+01 3.31130E+01 0.00000E+00
 -1      3763 7.81500E+01 3.18140E+01 0.00000E+00
 -1      3764 8.19000E+01 3.31130E+01 0.00000E+00
 -1      3765 8.34000E+01 3.31130E+01 0.00000E+00
 -1      3766 8.11500E+01 3.18140E+01 0.00000E+00
 -1      3767 8.54554E+01 3.30123E+01 0.00000E+00
 -1      3768 1.21726E+02 2.44351E+01 0.00000E+00
 -1      3769 1.21705E+02 2.62982E+01 0.00000E+00
 -1      3770 4.37850E+01 1.56973E+01 0.00000E+00
 -1      3771 4.22850E+01 1.56973E+01 0.00000E+00
 -1      3772 1.35702E+02 3.43976E+01 0.00000E+00
 -1      3773 1.33025E+02 3.32910E+01 0.00000E+00
 -1      3774 1.34146E+02 3.35701E+01 0.00000E+00
 -1      3775 1.26900E+02 3.31130E+01 0.00000E+00
 -1      3776 1.28400E+02 3.31130E+01 0.00000E+00
 -1      3777 1.29900E+02 3.31130E+01 0.00000E+00
 -1      3778 1.31400E+02 3.31130E+01 0.00000E+00
 -1      3779 1.29150E+02 3.18140E+01 0.00000E+00
 -1      3780 1.37087E+01 3.42169E+01 0.00000E+00
 -1      3781 1.89000E+01 3.31130E+01 0.00000E+00
 -1      3782 2.04000E+01 3.31130E+01 0.00000E+00
 -1      3783 5.57850E+01 1.56973E+01 0.00000E+00
 -1      3784 5.42850E+01 1.56973E+01 0.00000E+00
 -1      3785 5.27850E+01 1.56973E+01 0.00000E+00
 -1      3786 5.12850E+01 1.56973E+01 0.00000E+00
 -1      3787 5.35350E+01 1.69963E+01 0.00000E+00
 -1      3788 6.17850E+01 1.56973E+01 0.00000E+00
 -1      3789 6.02850E+01 1.56973E+01 0.00000E+00
 -1      3790 6.47850E+01 1.56973E+01 0.00000E+00
 -1      3791 6.32850E+01 1.56973E+01 0.00000E+00
 -1      3792 6.25350E+01 1.69963E+01 0.00000E+00
 -1      3793 6.77850E+01 1.56973E+01 0.00000E+00
 -1      3794 6.62850E+01 1.56973E+01 0.00000E+00
 -1      3795 6.55350E+01 1.69963E+01 0.00000E+00
 -1      3796 7.07850E+01 1.56973E+01 0.00000E+00
 -1      3797 6.92850E+01 1.56973E+01 0.00000E+00
 -1      3798 6.85350E+01 1.69963E+01 0.00000E+00
 -1      3799 7.37850E+01 1.56973E+01 0.00000E+00
 -1      3800 7.22850E+01 1.56973E+01 0.00000E+00
 -1      3801 7.15350E+01 1.69963E+01 0.00000E+00
 -1      3802 7.67850E+01 1.56973E+01 0.00000E+00
 -1      3803 7.52850E+01 1.56973E+01 0.00000E+00
 -1      3804 7.45350E+01 1.69963E+01 0.00000E+00
 -1      3805 7.97850E+01 1.56973E+01 0.00000E+00
 -1      3806 7.82850E+01 1.56973E+01 0.00000E+00
 -1      3807 7.75350E+01 1.69963E+01 0.00000E+00
 -1      3808 8.27850E+01 1.56973E+01 0.00000E+00
 -1      3809 8.12850E+01 1.56973E+01 0.00000E+00
 -1      3810 8.05350E+01 1.69963E+01 0.00000E+00
 -1      3811 8.57850E+01 1.56973E+01 0.00000E+00
 -1      3812 8.42850E+01 1.56973E+01 0.00000E+00
 -1      3813 8.35350E+01 1.69963E+01 0.00000E+00
 -1      3814 8.84060E+01 1.65038E+01 0.00000E+00
 -1      3815 8.69060E+01 1.65038E+01 0.00000E+00
 -1      3816 2.72850E+01 1.30992E+01 0.00000E+00
 -1      3817 2.57850E+01 1.30992E+01 0.00000E+00
 -1      3818 2.80350E+01 1.43982E+01 0.00000E+00
 -1      3819 1.21398E+02 2.82031E+01 0.00000E+00
 -1      3820 1.21161E+02 2.98655E+01 0.00000E+00
 -1      3821 1.36322E+02 1.32626E+01 0.00000E+00
 -1      3822 1.23900E+02 3.31130E+01 0.00000E+00
 -1      3823 1.25400E+02 3.31130E+01 0.00000E+00
 -1      3824 1.26150E+02 3.18140E+01 0.00000E+00
 -1      3825 1.34483E+02 1.34843E+01 0.00000E+00
 -1      3826 1.33315E+02 1.32036E+01 0.00000E+00
 -1      3827 1.24785E+02 1.56973E+01 0.00000E+00
 -1      3828 1.23285E+02 1.56973E+01 0.00000E+00
 -1      3829 1.32565E+02 1.45026E+01 0.00000E+00
 -1      3830 1.34038E+02 1.61772E+01 0.00000E+00
 -1      3831 1.35368E+02 1.56257E+01 0.00000E+00
 -1      3832 1.42890E+01 1.68766E+01 0.00000E+00
 -1      3833 1.42890E+01 1.83516E+01 0.00000E+00
 -1      3834 1.55880E+01 1.90891E+01 0.00000E+00
 -1      3835 1.55880E+01 1.61422E+01 0.00000E+00
 -1      3836 1.46944E+01 1.23503E+01 0.00000E+00
 -1      3837 1.59934E+01 1.30847E+01 0.00000E+00
 -1      3838 1.42890E+01 2.71812E+01 0.00000E+00
 -1      3839 1.55880E+01 2.79156E+01 0.00000E+00
 -1      3840 1.42890E+01 2.57094E+01 0.00000E+00
 -1      3841 1.55880E+01 2.49719E+01 0.00000E+00
 -1      3842 1.55778E+01 3.08855E+01 0.00000E+00
 -1      3843 1.42788E+01 3.16199E+01 0.00000E+00
 -1      3844 1.42788E+01 3.30886E+01 0.00000E+00
 -1      3845 1.35455E+02 3.29975E+01 0.00000E+00
 -1      3846 1.35455E+02 3.15225E+01 0.00000E+00
 -1      3847 1.32275E+02 3.19920E+01 0.00000E+00
 -1      3848 1.49975E+01 3.35118E+01 0.00000E+00
 -1      3849 1.68588E+01 3.33977E+01 0.00000E+00
 -1      3850 1.35434E+02 1.43853E+01 0.00000E+00
 -1      3851 1.33008E+02 1.60728E+01 0.00000E+00
 -1      3852 1.31978E+02 1.59685E+01 0.00000E+00
 -1      3853 1.33451E+02 1.76430E+01 0.00000E+00
 -1      3854 1.34156E+02 3.07975E+01 0.00000E+00
 -1      3855 1.68819E+01 3.01454E+01 0.00000E+00
 -1      3856 1.68716E+01 3.16433E+01 0.00000E+00
 -1      3857 1.30478E+02 1.59685E+01 0.00000E+00
 -1      3858 1.28978E+02 1.59685E+01 0.00000E+00
 -1      3859 1.30921E+02 1.75387E+01 0.00000E+00
 -1      3860 2.19000E+01 3.31130E+01 0.00000E+00
 -1      3861 2.34000E+01 3.31130E+01 0.00000E+00
 -1      3862 2.11500E+01 3.18140E+01 0.00000E+00
 -1      3863 1.19185E+02 1.58348E+01 0.00000E+00
 -1      3864 1.27631E+02 1.58329E+01 0.00000E+00
 -1      3865 1.26131E+02 1.58329E+01 0.00000E+00
 -1      3866 1.25381E+02 1.71319E+01 0.00000E+00
 -1      3867 1.28074E+02 1.74031E+01 0.00000E+00
 -1      3868 5.87850E+01 1.56973E+01 0.00000E+00
 -1      3869 5.72850E+01 1.56973E+01 0.00000E+00
 -1      3870 5.95350E+01 1.69963E+01 0.00000E+00
 -1      3871 1.21985E+02 1.57660E+01 0.00000E+00
 -1      3872 1.20485E+02 1.57660E+01 0.00000E+00
 -1      3873 1.20135E+02 1.72026E+01 0.00000E+00
 -1      3874 1.22735E+02 1.70650E+01 0.00000E+00
 -1      3875 1.67434E+01 1.43837E+01 0.00000E+00
 -1      3876 2.49000E+01 3.31130E+01 0.00000E+00
 -1      3877 2.64000E+01 3.31130E+01 0.00000E+00
 -1      3878 2.71500E+01 3.18140E+01 0.00000E+00
 -1      3879 2.41500E+01 3.18140E+01 0.00000E+00
 -1      3880 1.20701E+02 1.87381E+01 0.00000E+00
 -1      3881 8.47054E+01 3.17133E+01 0.00000E+00
 -1      3882 2.50350E+01 1.43982E+01 0.00000E+00
 -1      3883 8.49855E+01 2.87457E+01 0.00000E+00
 -1      3884 8.46872E+01 2.78166E+01 0.00000E+00
 -1      3885 8.64762E+01 2.06645E+01 0.00000E+00
 -1      3886 8.62818E+01 1.94751E+01 0.00000E+00
 -1      3887 8.54810E+01 2.15302E+01 0.00000E+00
 -1      3888 3.17850E+01 1.56973E+01 0.00000E+00
 -1      3889 3.02850E+01 1.56973E+01 0.00000E+00
 -1      3890 4.52850E+01 1.56973E+01 0.00000E+00
 -1      3891 4.45350E+01 1.69963E+01 0.00000E+00
 -1      3892 4.67850E+01 1.56973E+01 0.00000E+00
 -1      3893 1.22886E+02 2.34471E+01 0.00000E+00
 -1      3894 4.15350E+01 1.69963E+01 0.00000E+00
 -1      3895 4.07850E+01 1.56973E+01 0.00000E+00
 -1      3896 3.92850E+01 1.56973E+01 0.00000E+00
 -1      3897 1.22399E+02 3.06641E+01 0.00000E+00
 -1      3898 1.21183E+02 3.13388E+01 0.00000E+00
 -1      3899 5.65350E+01 1.69963E+01 0.00000E+00
 -1      3900 1.97293E+01 1.56141E+01 0.00000E+00
 -1      3901 1.84111E+01 1.54643E+01 0.00000E+00
 -1      3902 1.20568E+02 3.26964E+01 0.00000E+00
 -1      3903 8.61560E+01 1.78028E+01 0.00000E+00
 -1      3904 1.22422E+02 1.81943E+01 0.00000E+00
 -1      3905 1.21687E+02 1.97985E+01 0.00000E+00
 -1      3906 1.23094E+02 2.03840E+01 0.00000E+00
 -1      3907 1.23721E+02 1.81255E+01 0.00000E+00
 -1      3908 1.22685E+02 2.72859E+01 0.00000E+00
 -1      3909 1.33451E+02 1.91180E+01 0.00000E+00
 -1      3910 1.32421E+02 1.90137E+01 0.00000E+00
 -1      3911 1.33451E+02 2.05930E+01 0.00000E+00
 -1      3912 1.22785E+02 3.32747E+01 0.00000E+00
 -1      3913 1.23535E+02 3.19757E+01 0.00000E+00
 -1      3914 1.72558E+01 1.57493E+01 0.00000E+00
 -1      3915 8.45107E+01 3.03136E+01 0.00000E+00
 -1      3916 1.33122E+02 2.57372E+01 0.00000E+00
 -1      3917 1.33139E+02 2.42928E+01 0.00000E+00
 -1      3918 2.27293E+01 1.56141E+01 0.00000E+00
 -1      3919 2.12293E+01 1.56141E+01 0.00000E+00
 -1      3920 2.04235E+01 1.68299E+01 0.00000E+00
 -1      3921 3.47850E+01 1.56973E+01 0.00000E+00
 -1      3922 3.32850E+01 1.56973E+01 0.00000E+00
 -1      3923 3.25350E+01 1.69963E+01 0.00000E+00
 -1      3924 1.21285E+02 3.32747E+01 0.00000E+00
 -1      3925 1.68870E+01 2.12969E+01 0.00000E+00
 -1      3926 1.68870E+01 2.27656E+01 0.00000E+00
 -1      3927 1.68819E+01 2.86735E+01 0.00000E+00
 -1      3928 1.81757E+01 2.94313E+01 0.00000E+00
 -1      3929 1.68819E+01 2.72016E+01 0.00000E+00
 -1      3930 4.97850E+01 1.56973E+01 0.00000E+00
 -1      3931 4.82850E+01 1.56973E+01 0.00000E+00
 -1      3932 4.75350E+01 1.69963E+01 0.00000E+00
 -1      3933 1.72558E+01 1.72227E+01 0.00000E+00
 -1      3934 1.68870E+01 2.42375E+01 0.00000E+00
 -1      3935 1.68870E+01 2.57094E+01 0.00000E+00
 -1      3936 1.81860E+01 2.35031E+01 0.00000E+00
 -1      3937 8.48189E+01 2.57992E+01 0.00000E+00
 -1      3938 8.57251E+01 2.48373E+01 0.00000E+00
 -1      3939 8.47691E+01 2.36816E+01 0.00000E+00
 -1      3940 1.81629E+01 3.26576E+01 0.00000E+00
 -1      3941 1.32531E+02 3.06195E+01 0.00000E+00
 -1      3942 1.32787E+02 2.92470E+01 0.00000E+00
 -1      3943 1.30906E+02 3.04415E+01 0.00000E+00
 -1      3944 1.32787E+02 2.77720E+01 0.00000E+00
 -1      3945 1.31497E+02 2.70342E+01 0.00000E+00
 -1      3946 5.05350E+01 1.69963E+01 0.00000E+00
 -1      3947 8.31248E+01 3.02461E+01 0.00000E+00
 -1      3948 1.19432E+02 3.38336E+01 0.00000E+00
 -1      3949 2.57293E+01 1.56141E+01 0.00000E+00
 -1      3950 2.42293E+01 1.56141E+01 0.00000E+00
 -1      3951 2.34235E+01 1.68299E+01 0.00000E+00
 -1      3952 3.24000E+01 3.05150E+01 0.00000E+00
 -1      3953 3.39000E+01 3.05150E+01 0.00000E+00
 -1      3954 3.54000E+01 3.05150E+01 0.00000E+00
 -1      3955 3.69000E+01 3.05150E+01 0.00000E+00
 -1      3956 3.46500E+01 2.92160E+01 0.00000E+00
 -1      3957 3.84000E+01 3.05150E+01 0.00000E+00
 -1      3958 3.99000E+01 3.05150E+01 0.00000E+00
 -1      3959 3.76500E+01 2.92160E+01 0.00000E+00
 -1      3960 4.14000E+01 3.05150E+01 0.00000E+00
 -1      3961 4.29000E+01 3.05150E+01 0.00000E+00
 -1      3962 4.06500E+01 2.92160E+01 0.00000E+00
 -1      3963 4.44000E+01 3.05150E+01 0.00000E+00
 -1      3964 4.59000E+01 3.05150E+01 0.00000E+00
 -1      3965 4.36500E+01 2.92160E+01 0.00000E+00
 -1      3966 4.74000E+01 3.05150E+01 0.00000E+00
 -1      3967 4.89000E+01 3.05150E+01 0.00000E+00
 -1      3968 4.66500E+01 2.92160E+01 0.00000E+00
 -1      3969 5.04000E+01 3.05150E+01 0.00000E+00
 -1      3970 5.19000E+01 3.05150E+01 0.00000E+00
 -1      3971 4.96500E+01 2.92160E+01 0.00000E+00
 -1      3972 5.34000E+01 3.05150E+01 0.00000E+00
 -1      3973 5.49000E+01 3.05150E+01 0.00000E+00
 -1      3974 5.26500E+01 2.92160E+01 0.00000E+00
 -1      3975 5.64000E+01 3.05150E+01 0.00000E+00
 -1      3976 5.79000E+01 3.05150E+01 0.00000E+00
 -1      3977 5.56500E+01 2.92160E+01 0.00000E+00
 -1      3978 5.94000E+01 3.05150E+01 0.00000E+00
 -1      3979 6.09000E+01 3.05150E+01 0.00000E+00
 -1      3980 5.86500E+01 2.92160E+01 0.00000E+00
 -1      3981 6.24000E+01 3.05150E+01 0.00000E+00
 -1      3982 6.39000E+01 3.05150E+01 0.00000E+00
 -1      3983 6.16500E+01 2.92160E+01 0.00000E+00
 -1      3984 6.54000E+01 3.05150E+01 0.00000E+00
 -1      3985 6.69000E+01 3.05150E+01 0.00000E+00
 -1      3986 6.46500E+01 2.92160E+01 0.00000E+00
 -1      3987 6.84000E+01 3.05150E+01 0.00000E+00
 -1      3988 6.99000E+01 3.05150E+01 0.00000E+00
 -1      3989 6.76500E+01 2.92160E+01 0.00000E+00
 -1      3990 7.14000E+01 3.05150E+01 0.00000E+00
 -1      3991 7.29000E+01 3.05150E+01 0.00000E+00
 -1      3992 7.06500E+01 2.92160E+01 0.00000E+00
 -1      3993 7.44000E+01 3.05150E+01 0.00000E+00
 -1      3994 7.59000E+01 3.05150E+01 0.00000E+00
 -1      3995 7.36500E+01 2.92160E+01 0.00000E+00
 -1      3996 7.74000E+01 3.05150E+01 0.00000E+00
 -1      3997 7.89000E+01 3.05150E+01 0.00000E+00
 -1      3998 7.66500E+01 2.92160E+01 0.00000E+00
 -1      3999 8.02624E+01 3.03806E+01 0.00000E+00
 -1      4000 8.17624E+01 3.03806E+01 0.00000E+00
 -1      4001 8.22372E+01 2.88127E+01 0.00000E+00
 -1      4002 7.95124E+01 2.90816E+01 0.00000E+00
 -1      4003 1.23514E+02 3.05024E+01 0.00000E+00
 -1      4004 5.72850E+01 1.82952E+01 0.00000E+00
 -1      4005 5.57850E+01 1.82952E+01 0.00000E+00
 -1      4006 1.89129E+01 3.13586E+01 0.00000E+00
 -1      4007 6.62850E+01 1.82952E+01 0.00000E+00
 -1      4008 6.47850E+01 1.82952E+01 0.00000E+00
 -1      4009 6.32850E+01 1.82952E+01 0.00000E+00
 -1      4010 6.17850E+01 1.82952E+01 0.00000E+00
 -1      4011 6.40350E+01 1.95942E+01 0.00000E+00
 -1      4012 7.22850E+01 1.82952E+01 0.00000E+00
 -1      4013 7.07850E+01 1.82952E+01 0.00000E+00
 -1      4014 7.52850E+01 1.82952E+01 0.00000E+00
 -1      4015 7.37850E+01 1.82952E+01 0.00000E+00
 -1      4016 7.30350E+01 1.95942E+01 0.00000E+00
 -1      4017 7.82850E+01 1.82952E+01 0.00000E+00
 -1      4018 7.67850E+01 1.82952E+01 0.00000E+00
 -1      4019 7.60350E+01 1.95942E+01 0.00000E+00
 -1      4020 8.12850E+01 1.82952E+01 0.00000E+00
 -1      4021 7.97850E+01 1.82952E+01 0.00000E+00
 -1      4022 7.90350E+01 1.95942E+01 0.00000E+00
 -1      4023 8.44705E+01 1.80490E+01 0.00000E+00
 -1      4024 8.29705E+01 1.80490E+01 0.00000E+00
 -1      4025 8.22205E+01 1.93480E+01 0.00000E+00
 -1      4026 8.55915E+01 1.88556E+01 0.00000E+00
 -1      4027 8.29842E+01 2.77368E+01 0.00000E+00
 -1      4028 8.40719E+01 2.68752E+01 0.00000E+00
 -1      4029 8.31159E+01 2.57194E+01 0.00000E+00
 -1      4030 8.16218E+01 2.78712E+01 0.00000E+00
 -1      4031 5.12850E+01 1.82952E+01 0.00000E+00
 -1      4032 4.97850E+01 1.82952E+01 0.00000E+00
 -1      4033 1.30048E+02 2.78410E+01 0.00000E+00
 -1      4034 1.30383E+02 2.58062E+01 0.00000E+00
 -1      4035 3.77850E+01 1.56973E+01 0.00000E+00
 -1      4036 3.62850E+01 1.56973E+01 0.00000E+00
 -1      4037 3.55350E+01 1.69963E+01 0.00000E+00
 -1      4038 3.85350E+01 1.69963E+01 0.00000E+00
 -1      4039 1.70714E+01 1.85231E+01 0.00000E+00
 -1      4040 1.70714E+01 1.99965E+01 0.00000E+00
 -1      4041 1.83704E+01 2.07309E+01 0.00000E+00
 -1      4042 1.87392E+01 1.81302E+01 0.00000E+00
 -1      4043 1.25400E+02 3.05375E+01 0.00000E+00
 -1      4044 1.26900E+02 3.05375E+01 0.00000E+00
 -1      4045 1.33286E+02 2.31651E+01 0.00000E+00
 -1      4046 1.33304E+02 2.17207E+01 0.00000E+00
 -1      4047 1.32273E+02 2.16164E+01 0.00000E+00
 -1      4048 1.31979E+02 2.38718E+01 0.00000E+00
 -1      4049 1.28153E+02 3.04895E+01 0.00000E+00
 -1      4050 1.29653E+02 3.04895E+01 0.00000E+00
 -1      4051 1.29910E+02 2.91170E+01 0.00000E+00
 -1      4052 1.27403E+02 2.92130E+01 0.00000E+00
 -1      4053 2.95350E+01 1.69963E+01 0.00000E+00
 -1      4054 2.87850E+01 1.56973E+01 0.00000E+00
 -1      4055 2.72850E+01 1.56973E+01 0.00000E+00
 -1      4056 1.24108E+02 2.24103E+01 0.00000E+00
 -1      4057 1.24214E+02 2.43442E+01 0.00000E+00
 -1      4058 6.02850E+01 1.82952E+01 0.00000E+00
 -1      4059 5.87850E+01 1.82952E+01 0.00000E+00
 -1      4060 5.80350E+01 1.95942E+01 0.00000E+00
 -1      4061 1.24121E+02 2.65406E+01 0.00000E+00
 -1      4062 1.23813E+02 2.84455E+01 0.00000E+00
 -1      4063 5.42850E+01 1.82952E+01 0.00000E+00
 -1      4064 5.27850E+01 1.82952E+01 0.00000E+00
 -1      4065 5.50350E+01 1.95942E+01 0.00000E+00
 -1      4066 2.94000E+01 3.05150E+01 0.00000E+00
 -1      4067 3.09000E+01 3.05150E+01 0.00000E+00
 -1      4068 3.16500E+01 2.92160E+01 0.00000E+00
 -1      4069 1.30921E+02 1.90137E+01 0.00000E+00
 -1      4070 6.92850E+01 1.82952E+01 0.00000E+00
 -1      4071 6.77850E+01 1.82952E+01 0.00000E+00
 -1      4072 6.70350E+01 1.95942E+01 0.00000E+00
 -1      4073 1.92943E+01 3.03950E+01 0.00000E+00
 -1      4074 2.00314E+01 3.08504E+01 0.00000E+00
 -1      4075 2.15314E+01 3.08504E+01 0.00000E+00
 -1      4076 1.92943E+01 2.89231E+01 0.00000E+00
 -1      4077 8.45748E+01 2.24921E+01 0.00000E+00
 -1      4078 8.43804E+01 2.13027E+01 0.00000E+00
 -1      4079 8.36686E+01 2.34540E+01 0.00000E+00
 -1      4080 4.52850E+01 1.82952E+01 0.00000E+00
 -1      4081 4.37850E+01 1.82952E+01 0.00000E+00
 -1      4082 1.30760E+02 2.06774E+01 0.00000E+00
 -1      4083 1.29260E+02 1.92024E+01 0.00000E+00
 -1      4084 1.24264E+02 2.92260E+01 0.00000E+00
 -1      4085 4.22850E+01 1.82952E+01 0.00000E+00
 -1      4086 4.07850E+01 1.82952E+01 0.00000E+00
 -1      4087 4.30350E+01 1.95942E+01 0.00000E+00
 -1      4088 3.32850E+01 1.82952E+01 0.00000E+00
 -1      4089 3.17850E+01 1.82952E+01 0.00000E+00
 -1      4090 2.18200E+01 2.93844E+01 0.00000E+00
 -1      4091 2.29386E+01 3.03480E+01 0.00000E+00
 -1      4092 2.64000E+01 3.05150E+01 0.00000E+00
 -1      4093 2.79000E+01 3.05150E+01 0.00000E+00
 -1      4094 2.86500E+01 2.92160E+01 0.00000E+00
 -1      4095 6.10350E+01 1.95942E+01 0.00000E+00
 -1      4096 1.25068E+02 1.82611E+01 0.00000E+00
 -1      4097 1.24754E+02 1.93903E+01 0.00000E+00
 -1      4098 1.26414E+02 1.83967E+01 0.00000E+00
 -1      4099 1.24588E+02 2.03357E+01 0.00000E+00
 -1      4100 1.24274E+02 2.14649E+01 0.00000E+00
 -1      4101 1.25602E+02 2.23620E+01 0.00000E+00
 -1      4102 1.25934E+02 2.04713E+01 0.00000E+00
 -1      4103 1.28795E+02 2.78890E+01 0.00000E+00
 -1      4104 3.10350E+01 1.95942E+01 0.00000E+00
 -1      4105 3.02850E+01 1.82952E+01 0.00000E+00
 -1      4106 2.87850E+01 1.82952E+01 0.00000E+00
 -1      4107 1.81809E+01 2.64672E+01 0.00000E+00
 -1      4108 1.29026E+02 2.50747E+01 0.00000E+00
 -1      4109 1.30475E+02 2.42679E+01 0.00000E+00
 -1      4110 1.30622E+02 2.31402E+01 0.00000E+00
 -1      4111 2.17392E+01 1.81302E+01 0.00000E+00
 -1      4112 2.02392E+01 1.81302E+01 0.00000E+00
 -1      4113 2.00548E+01 1.94306E+01 0.00000E+00
 -1      4114 2.64793E+01 1.69131E+01 0.00000E+00
 -1      4115 1.94850E+01 2.27672E+01 0.00000E+00
 -1      4116 1.94850E+01 2.42391E+01 0.00000E+00
 -1      4117 5.20350E+01 1.95942E+01 0.00000E+00
 -1      4118 1.25342E+02 2.55038E+01 0.00000E+00
 -1      4119 7.00350E+01 1.95942E+01 0.00000E+00
 -1      4120 1.27913E+02 1.90668E+01 0.00000E+00
 -1      4121 4.82850E+01 1.82952E+01 0.00000E+00
 -1      4122 4.67850E+01 1.82952E+01 0.00000E+00
 -1      4123 4.60350E+01 1.95942E+01 0.00000E+00
 -1      4124 2.44386E+01 3.03480E+01 0.00000E+00
 -1      4125 1.98621E+01 2.04487E+01 0.00000E+00
 -1      4126 1.96777E+01 2.17490E+01 0.00000E+00
 -1      4127 2.09767E+01 2.24850E+01 0.00000E+00
 -1      4128 2.13621E+01 2.04487E+01 0.00000E+00
 -1      4129 4.90350E+01 1.95942E+01 0.00000E+00
 -1      4130 2.51886E+01 2.90490E+01 0.00000E+00
 -1      4131 8.45963E+01 1.97213E+01 0.00000E+00
 -1      4132 3.39000E+01 2.79170E+01 0.00000E+00
 -1      4133 3.54000E+01 2.79170E+01 0.00000E+00
 -1      4134 4.67850E+01 2.08932E+01 0.00000E+00
 -1      4135 4.52850E+01 2.08932E+01 0.00000E+00
 -1      4136 1.25700E+02 2.84806E+01 0.00000E+00
 -1      4137 3.69000E+01 2.79170E+01 0.00000E+00
 -1      4138 3.84000E+01 2.79170E+01 0.00000E+00
 -1      4139 3.61500E+01 2.66180E+01 0.00000E+00
 -1      4140 3.99000E+01 2.79170E+01 0.00000E+00
 -1      4141 4.14000E+01 2.79170E+01 0.00000E+00
 -1      4142 3.91500E+01 2.66180E+01 0.00000E+00
 -1      4143 4.29000E+01 2.79170E+01 0.00000E+00
 -1      4144 4.44000E+01 2.79170E+01 0.00000E+00
 -1      4145 4.21500E+01 2.66180E+01 0.00000E+00
 -1      4146 4.59000E+01 2.79170E+01 0.00000E+00
 -1      4147 4.74000E+01 2.79170E+01 0.00000E+00
 -1      4148 4.51500E+01 2.66180E+01 0.00000E+00
 -1      4149 4.89000E+01 2.79170E+01 0.00000E+00
 -1      4150 5.04000E+01 2.79170E+01 0.00000E+00
 -1      4151 4.81500E+01 2.66180E+01 0.00000E+00
 -1      4152 5.19000E+01 2.79170E+01 0.00000E+00
 -1      4153 5.34000E+01 2.79170E+01 0.00000E+00
 -1      4154 5.11500E+01 2.66180E+01 0.00000E+00
 -1      4155 5.49000E+01 2.79170E+01 0.00000E+00
 -1      4156 5.64000E+01 2.79170E+01 0.00000E+00
 -1      4157 5.41500E+01 2.66180E+01 0.00000E+00
 -1      4158 5.79000E+01 2.79170E+01 0.00000E+00
 -1      4159 5.94000E+01 2.79170E+01 0.00000E+00
 -1      4160 5.71500E+01 2.66180E+01 0.00000E+00
 -1      4161 6.09000E+01 2.79170E+01 0.00000E+00
 -1      4162 6.24000E+01 2.79170E+01 0.00000E+00
 -1      4163 6.01500E+01 2.66180E+01 0.00000E+00
 -1      4164 6.39000E+01 2.79170E+01 0.00000E+00
 -1      4165 6.54000E+01 2.79170E+01 0.00000E+00
 -1      4166 6.31500E+01 2.66180E+01 0.00000E+00
 -1      4167 6.69000E+01 2.79170E+01 0.00000E+00
 -1      4168 6.84000E+01 2.79170E+01 0.00000E+00
 -1      4169 6.61500E+01 2.66180E+01 0.00000E+00
 -1      4170 6.99000E+01 2.79170E+01 0.00000E+00
 -1      4171 7.14000E+01 2.79170E+01 0.00000E+00
 -1      4172 6.91500E+01 2.66180E+01 0.00000E+00
 -1      4173 7.29000E+01 2.79170E+01 0.00000E+00
 -1      4174 7.44000E+01 2.79170E+01 0.00000E+00
 -1      4175 7.21500E+01 2.66180E+01 0.00000E+00
 -1      4176 7.59000E+01 2.79170E+01 0.00000E+00
 -1      4177 7.74000E+01 2.79170E+01 0.00000E+00
 -1      4178 7.51500E+01 2.66180E+01 0.00000E+00
 -1      4179 7.88297E+01 2.79613E+01 0.00000E+00
 -1      4180 8.01921E+01 2.78269E+01 0.00000E+00
 -1      4181 8.09391E+01 2.67510E+01 0.00000E+00
 -1      4182 7.80797E+01 2.66623E+01 0.00000E+00
 -1      4183 7.97850E+01 2.08932E+01 0.00000E+00
 -1      4184 7.82850E+01 2.08932E+01 0.00000E+00
 -1      4185 3.47850E+01 1.82952E+01 0.00000E+00
 -1      4186 3.40350E+01 1.95942E+01 0.00000E+00
 -1      4187 3.62850E+01 1.82952E+01 0.00000E+00
 -1      4188 1.30613E+02 2.18051E+01 0.00000E+00
 -1      4189 2.47392E+01 1.81302E+01 0.00000E+00
 -1      4190 2.32392E+01 1.81302E+01 0.00000E+00
 -1      4191 2.30548E+01 1.94306E+01 0.00000E+00
 -1      4192 6.47850E+01 2.08932E+01 0.00000E+00
 -1      4193 6.32850E+01 2.08932E+01 0.00000E+00
 -1      4194 7.67850E+01 2.08932E+01 0.00000E+00
 -1      4195 7.52850E+01 2.08932E+01 0.00000E+00
 -1      4196 7.75350E+01 2.21922E+01 0.00000E+00
 -1      4197 7.37850E+01 2.08932E+01 0.00000E+00
 -1      4198 7.22850E+01 2.08932E+01 0.00000E+00
 -1      4199 7.45350E+01 2.21922E+01 0.00000E+00
 -1      4200 8.30334E+01 2.01842E+01 0.00000E+00
 -1      4201 8.13479E+01 2.04304E+01 0.00000E+00
 -1      4202 8.05979E+01 2.17294E+01 0.00000E+00
 -1      4203 8.37237E+01 2.08036E+01 0.00000E+00
 -1      4204 1.26621E+02 2.82088E+01 0.00000E+00
 -1      4205 1.27874E+02 2.81608E+01 0.00000E+00
 -1      4206 1.28013E+02 2.68848E+01 0.00000E+00
 -1      4207 1.26170E+02 2.74283E+01 0.00000E+00
 -1      4208 1.27185E+02 2.49602E+01 0.00000E+00
 -1      4209 1.27277E+02 2.34219E+01 0.00000E+00
 -1      4210 1.29109E+02 2.22012E+01 0.00000E+00
 -1      4211 2.75399E+01 1.82543E+01 0.00000E+00
 -1      4212 2.59842E+01 1.81711E+01 0.00000E+00
 -1      4213 2.57998E+01 1.94715E+01 0.00000E+00
 -1      4214 2.82899E+01 1.95533E+01 0.00000E+00
 -1      4215 5.57850E+01 2.08932E+01 0.00000E+00
 -1      4216 5.42850E+01 2.08932E+01 0.00000E+00
 -1      4217 4.97850E+01 2.08932E+01 0.00000E+00
 -1      4218 4.82850E+01 2.08932E+01 0.00000E+00
 -1      4219 4.75350E+01 2.21922E+01 0.00000E+00
 -1      4220 6.77850E+01 2.08932E+01 0.00000E+00
 -1      4221 6.62850E+01 2.08932E+01 0.00000E+00
 -1      4222 6.55350E+01 2.21922E+01 0.00000E+00
 -1      4223 5.87850E+01 2.08932E+01 0.00000E+00
 -1      4224 5.72850E+01 2.08932E+01 0.00000E+00
 -1      4225 5.65350E+01 2.21922E+01 0.00000E+00
 -1      4226 5.27850E+01 2.08932E+01 0.00000E+00
 -1      4227 5.12850E+01 2.08932E+01 0.00000E+00
 -1      4228 5.35350E+01 2.21922E+01 0.00000E+00
 -1      4229 1.94799E+01 2.57313E+01 0.00000E+00
 -1      4230 1.94747E+01 2.72235E+01 0.00000E+00
 -1      4231 2.07789E+01 2.49954E+01 0.00000E+00
 -1      4232 7.07850E+01 2.08932E+01 0.00000E+00
 -1      4233 6.92850E+01 2.08932E+01 0.00000E+00
 -1      4234 6.85350E+01 2.21922E+01 0.00000E+00
 -1      4235 7.15350E+01 2.21922E+01 0.00000E+00
 -1      4236 3.09000E+01 2.79170E+01 0.00000E+00
 -1      4237 3.24000E+01 2.79170E+01 0.00000E+00
 -1      4238 3.31500E+01 2.66180E+01 0.00000E+00
 -1      4239 6.17850E+01 2.08932E+01 0.00000E+00
 -1      4240 6.02850E+01 2.08932E+01 0.00000E+00
 -1      4241 6.25350E+01 2.21922E+01 0.00000E+00
 -1      4242 2.05933E+01 2.81872E+01 0.00000E+00
 -1      4243 2.20004E+01 2.76848E+01 0.00000E+00
 -1      4244 1.27267E+02 2.20867E+01 0.00000E+00
 -1      4245 5.95350E+01 2.21922E+01 0.00000E+00
 -1      4246 4.45350E+01 2.21922E+01 0.00000E+00
 -1      4247 4.37850E+01 2.08932E+01 0.00000E+00
 -1      4248 4.22850E+01 2.08932E+01 0.00000E+00
 -1      4249 3.47850E+01 2.08932E+01 0.00000E+00
 -1      4250 3.32850E+01 2.08932E+01 0.00000E+00
 -1      4251 5.05350E+01 2.21922E+01 0.00000E+00
 -1      4252 2.23494E+01 2.22175E+01 0.00000E+00
 -1      4253 2.21567E+01 2.32356E+01 0.00000E+00
 -1      4254 2.79000E+01 2.79170E+01 0.00000E+00
 -1      4255 2.94000E+01 2.79170E+01 0.00000E+00
 -1      4256 3.01500E+01 2.66180E+01 0.00000E+00
 -1      4257 3.92850E+01 1.82952E+01 0.00000E+00
 -1      4258 3.77850E+01 1.82952E+01 0.00000E+00
 -1      4259 3.70350E+01 1.95942E+01 0.00000E+00
 -1      4260 3.17850E+01 2.08932E+01 0.00000E+00
 -1      4261 3.02850E+01 2.08932E+01 0.00000E+00
 -1      4262 3.25350E+01 2.21922E+01 0.00000E+00
 -1      4263 2.39771E+01 2.75830E+01 0.00000E+00
 -1      4264 2.59386E+01 2.77500E+01 0.00000E+00
 -1      4265 2.66886E+01 2.64510E+01 0.00000E+00
 -1      4266 2.27504E+01 2.63858E+01 0.00000E+00
 -1      4267 4.00350E+01 1.95942E+01 0.00000E+00
 -1      4268 2.27556E+01 2.48936E+01 0.00000E+00
 -1      4269 1.26263E+02 2.52320E+01 0.00000E+00
 -1      4270 8.29215E+01 2.45299E+01 0.00000E+00
 -1      4271 8.27271E+01 2.33405E+01 0.00000E+00
 -1      4272 8.21745E+01 2.56059E+01 0.00000E+00
 -1      4273 1.27600E+02 2.01960E+01 0.00000E+00
 -1      4274 6.58425E+01 2.44051E+01 0.00000E+00
 -1      4275 6.43425E+01 2.44051E+01 0.00000E+00
 -1      4276 3.62850E+01 2.08932E+01 0.00000E+00
 -1      4277 3.55350E+01 2.21922E+01 0.00000E+00
 -1      4278 3.77850E+01 2.08932E+01 0.00000E+00
 -1      4279 3.58425E+01 2.44051E+01 0.00000E+00
 -1      4280 3.73425E+01 2.44051E+01 0.00000E+00
 -1      4281 4.14000E+01 2.53190E+01 0.00000E+00
 -1      4282 4.29000E+01 2.53190E+01 0.00000E+00
 -1      4283 4.48425E+01 2.44051E+01 0.00000E+00
 -1      4284 4.63425E+01 2.44051E+01 0.00000E+00
 -1      4285 4.78425E+01 2.44051E+01 0.00000E+00
 -1      4286 4.93425E+01 2.44051E+01 0.00000E+00
 -1      4287 5.08425E+01 2.44051E+01 0.00000E+00
 -1      4288 5.23425E+01 2.44051E+01 0.00000E+00
 -1      4289 5.38425E+01 2.44051E+01 0.00000E+00
 -1      4290 5.53425E+01 2.44051E+01 0.00000E+00
 -1      4291 5.68425E+01 2.44051E+01 0.00000E+00
 -1      4292 5.83425E+01 2.44051E+01 0.00000E+00
 -1      4293 5.98425E+01 2.44051E+01 0.00000E+00
 -1      4294 6.13425E+01 2.44051E+01 0.00000E+00
 -1      4295 6.28425E+01 2.44051E+01 0.00000E+00
 -1      4296 6.73425E+01 2.44051E+01 0.00000E+00
 -1      4297 6.88425E+01 2.44051E+01 0.00000E+00
 -1      4298 7.03425E+01 2.44051E+01 0.00000E+00
 -1      4299 7.18425E+01 2.44051E+01 0.00000E+00
 -1      4300 7.33425E+01 2.44051E+01 0.00000E+00
 -1      4301 7.48425E+01 2.44051E+01 0.00000E+00
 -1      4302 7.63425E+01 2.44051E+01 0.00000E+00
 -1      4303 7.78425E+01 2.44051E+01 0.00000E+00
 -1      4304 2.41282E+01 2.46261E+01 0.00000E+00
 -1      4305 8.28175E+01 2.17655E+01 0.00000E+00
 -1      4306 3.28425E+01 2.44051E+01 0.00000E+00
 -1      4307 3.43425E+01 2.44051E+01 0.00000E+00
 -1      4308 4.07850E+01 2.08932E+01 0.00000E+00
 -1      4309 3.92850E+01 2.08932E+01 0.00000E+00
 -1      4310 3.85350E+01 2.21922E+01 0.00000E+00
 -1      4311 4.15350E+01 2.21922E+01 0.00000E+00
 -1      4312 1.27434E+02 2.11414E+01 0.00000E+00
 -1      4313 2.27984E+01 2.03149E+01 0.00000E+00
 -1      4314 2.26057E+01 2.13331E+01 0.00000E+00
 -1      4315 2.37857E+01 2.20837E+01 0.00000E+00
 -1      4316 2.42984E+01 2.03149E+01 0.00000E+00
 -1      4317 7.92722E+01 2.44495E+01 0.00000E+00
 -1      4318 3.13425E+01 2.44051E+01 0.00000E+00
 -1      4319 3.84000E+01 2.53190E+01 0.00000E+00
 -1      4320 3.99000E+01 2.53190E+01 0.00000E+00
 -1      4321 2.55435E+01 2.03559E+01 0.00000E+00
 -1      4322 2.52871E+01 2.12403E+01 0.00000E+00
 -1      4323 2.67885E+01 2.03968E+01 0.00000E+00
 -1      4324 8.20704E+01 2.28414E+01 0.00000E+00
 -1      4325 2.50506E+01 2.33558E+01 0.00000E+00
 -1      4326 2.56494E+01 2.50138E+01 0.00000E+00
 -1      4327 8.07448E+01 2.55615E+01 0.00000E+00
 -1      4328 2.98425E+01 2.44051E+01 0.00000E+00
 -1      4329 8.05075E+01 2.33043E+01 0.00000E+00
 -1      4330 2.76109E+01 2.51807E+01 0.00000E+00
 -1      4331 4.06500E+01 2.40200E+01 0.00000E+00
 -1      4332 2.91593E+01 2.06655E+01 0.00000E+00
 -1      4333 2.79142E+01 2.06246E+01 0.00000E+00
 -1      4334 2.76579E+01 2.15089E+01 0.00000E+00
 -1      4335 2.99093E+01 2.19645E+01 0.00000E+00
 -1      4336 4.40925E+01 2.31061E+01 0.00000E+00
 -1      4337 3.95925E+01 2.31061E+01 0.00000E+00
 -1      4338 4.10925E+01 2.31061E+01 0.00000E+00
 -1      4339 2.50308E+01 2.21246E+01 0.00000E+00
 -1      4340 2.65520E+01 2.25123E+01 0.00000E+00
 -1      4341 3.80925E+01 2.31061E+01 0.00000E+00
 -1      4342 2.76777E+01 2.27401E+01 0.00000E+00
 -1      4343 4.25925E+01 2.31061E+01 0.00000E+00
 -1      4344 2.88034E+01 2.29679E+01 0.00000E+00
 -3
    3C                          2090                                     1
 -1       165    8    0    1
 -2         6         7        23      1128      1292      1145
 -1       166    8    0    1
 -2         7         8       165      1129      1293      1294
 -1       167    8    0    1
 -2         8         9       166      1130      1295      1296
 -1       168    8    0    1
 -2         8       166       165      1296      1297      1293
 -1       169    8    0    1
 -2         9        10       167      1131      1298      1299
 -1       170    8    0    1
 -2         9       167       166      1299      1300      1295
 -1       171    8    0    1
 -2        10        11       168      1132      1301      1302
 -1       172    8    0    1
 -2        10       168       167      1302      1303      1298
 -1       173    8    0    1
 -2        11        12       169      1133      1304      1305
 -1       174    8    0    1
 -2        11       169       168      1305      1306      1301
 -1       175    8    0    1
 -2        12        13       170      1134      1307      1308
 -1       176    8    0    1
 -2        12       170       169      1308      1309      1304
 -1       177    8    0    1
 -2        13        14       171      1135      1310      1311
 -1       178    8    0    1
 -2        13       171       170      1311      1312      1307
 -1       179    8    0    1
 -2        14        15       172      1136      1313      1314
 -1       180    8    0    1
 -2        14       172       171      1314      1315      1310
 -1       181    8    0    1
 -2        15        16       173      1137      1316      1317
 -1       182    8    0    1
 -2        15       173       172      1317      1318      1313
 -1       183    8    0    1
 -2        16        17       174      1138      1319      1320
 -1       184    8    0    1
 -2        16       174       173      1320      1321      1316
 -1       185    8    0    1
 -2        17        18       175      1139      1322      1323
 -1       186    8    0    1
 -2        17       175       174      1323      1324      1319
 -1       187    8    0    1
 -2        18        19       176      1140      1325      1326
 -1       188    8    0    1
 -2        18       176       175      1326      1327      1322
 -1       189    8    0    1
 -2        19        20       177      1141      1328      1329
 -1       190    8    0    1
 -2        19       177       176      1329      1330      1325
 -1       191    8    0    1
 -2        20        21       178      1142      1331      1332
 -1       192    8    0    1
 -2        20       178       177      1332      1333      1328
 -1       193    8    0    1
 -2        21        22       179      1143      1334      1335
 -1       194    8    0    1
 -2        21       179       178      1335      1336      1331
 -1       195    8    0    1
 -2        22         5       180      1144      1337      1338
 -1       196    8    0    1
 -2       179        22       180      1334      1338      1339
 -1       197    8    0    1
 -2         5        72       180      1195      1340      1337
 -1       198    8    0    1
 -2        24        23       181      1146      1341      1342
 -1       199    8    0    1
 -2        25        24       182      1147      1343      1344
 -1       200    8    0    1
 -2        24       181       182      1342      1345      1343
 -1       201    8    0    1
 -2        26        25       183      1148      1346      1347
 -1       202    8    0    1
 -2        25       182       183      1344      1348      1346
 -1       203    8    0    1
 -2        27        26       184      1149      1349      1350
 -1       204    8    0    1
 -2        26       183       184      1347      1351      1349
 -1       205    8    0    1
 -2        28        27       185      1150      1352      1353
 -1       206    8    0    1
 -2        27       184       185      1350      1354      1352
 -1       207    8    0    1
 -2        29        28       186      1151      1355      1356
 -1       208    8    0    1
 -2        28       185       186      1353      1357      1355
 -1       209    8    0    1
 -2        30        29       187      1152      1358      1359
 -1       210    8    0    1
 -2        29       186       187      1356      1360      1358
 -1       211    8    0    1
 -2        31        30       188      1153      1361      1362
 -1       212    8    0    1
 -2        30       187       188      1359      1363      1361
 -1       213    8    0    1
 -2        32        31       189      1154      1364      1365
 -1       214    8    0    1
 -2        31       188       189      1362      1366      1364
 -1       215    8    0    1
 -2        33        32       190      1155      1367      1368
 -1       216    8    0    1
 -2        32       189       190      1365      1369      1367
 -1       217    8    0    1
 -2        34        33       191      1156      1370      1371
 -1       218    8    0    1
 -2        33       190       191      1368      1372      1370
 -1       219    8    0    1
 -2        35        34       192      1157      1373      1374
 -1       220    8    0    1
 -2        34       191       192      1371      1375      1373
 -1       221    8    0    1
 -2        36        35       193      1158      1376      1377
 -1       222    8    0    1
 -2        35       192       193      1374      1378      1376
 -1       223    8    0    1
 -2        37        36       194      1159      1379      1380
 -1       224    8    0    1
 -2        36       193       194      1377      1381      1379
 -1       225    8    0    1
 -2        38        37       195      1160      1382      1383
 -1       226    8    0    1
 -2        37       194       195      1380      1384      1382
 -1       227    8    0    1
 -2        39        38       196      1161      1385      1386
 -1       228    8    0    1
 -2        38       195       196      1383      1387      1385
 -1       229    8    0    1
 -2        40        39       197      1162      1388      1389
 -1       230    8    0    1
 -2        39       196       197      1386      1390      1388
 -1       231    8    0    1
 -2        41        40       198      1163      1391      1392
 -1       232    8    0    1
 -2        40       197       198      1389      1393      1391
 -1       233    8    0    1
 -2        42        41       199      1164      1394      1395
 -1       234    8    0    1
 -2        41       198       199      1392      1396      1394
 -1       235    8    0    1
 -2        43        42       200      1165      1397      1398
 -1       236    8    0    1
 -2        42       199       200      1395      1399      1397
 -1       237    8    0    1
 -2        44        43       201      1166      1400      1401
 -1       238    8    0    1
 -2        43       200       201      1398      1402      1400
 -1       239    8    0    1
 -2        45        44       202      1167      1403      1404
 -1       240    8    0    1
 -2        44       201       202      1401      1405      1403
 -1       241    8    0    1
 -2        46        45       203      1168      1406      1407
 -1       242    8    0    1
 -2        45       202       203      1404      1408      1406
 -1       243    8    0    1
 -2        47        46       204      1169      1409      1410
 -1       244    8    0    1
 -2        46       203       204      1407      1411      1409
 -1       245    8    0    1
 -2        48        47       205      1170      1412      1413
 -1       246    8    0    1
 -2        47       204       205      1410      1414      1412
 -1       247    8    0    1
 -2        49        48       206      1171      1415      1416
 -1       248    8    0    1
 -2        48       205       206      1413      1417      1415
 -1       249    8    0    1
 -2        50        49       207      1172      1418      1419
 -1       250    8    0    1
 -2        49       206       207      1416      1420      1418
 -1       251    8    0    1
 -2        51        50       208      1173      1421      1422
 -1       252    8    0    1
 -2        50       207       208      1419      1423      1421
 -1       253    8    0    1
 -2        52        51       209      1174      1424      1425
 -1       254    8    0    1
 -2        51       208       209      1422      1426      1424
 -1       255    8    0    1
 -2        53        52       210      1175      1427      1428
 -1       256    8    0    1
 -2        52       209       210      1425      1429      1427
 -1       257    8    0    1
 -2        54        53       211      1176      1430      1431
 -1       258    8    0    1
 -2        53       210       211      1428      1432      1430
 -1       259    8    0    1
 -2        55        54       212      1177      1433      1434
 -1       260    8    0    1
 -2        54       211       212      1431      1435      1433
 -1       261    8    0    1
 -2        56        55       213      1178      1436      1437
 -1       262    8    0    1
 -2        55       212       213      1434      1438      1436
 -1       263    8    0    1
 -2        57        56       214      1179      1439      1440
 -1       264    8    0    1
 -2        56       213       214      1437      1441      1439
 -1       265    8    0    1
 -2        58        57       215      1180      1442      1443
 -1       266    8    0    1
 -2        57       214       215      1440      1444      1442
 -1       267    8    0    1
 -2        59        58       216      1181      1445      1446
 -1       268    8    0    1
 -2        58       215       216      1443      1447      1445
 -1       269    8    0    1
 -2        60        59       217      1182      1448      1449
 -1       270    8    0    1
 -2        59       216       217      1446      1450      1448
 -1       271    8    0    1
 -2        61        60       218      1183      1451      1452
 -1       272    8    0    1
 -2        60       217       218      1449      1453      1451
 -1       273    8    0    1
 -2        62        61       219      1184      1454      1455
 -1       274    8    0    1
 -2        61       218       219      1452      1456      1454
 -1       275    8    0    1
 -2        63        62       220      1185      1457      1458
 -1       276    8    0    1
 -2        62       219       220      1455      1459      1457
 -1       277    8    0    1
 -2        64        63       221      1186      1460      1461
 -1       278    8    0    1
 -2        63       220       221      1458      1462      1460
 -1       279    8    0    1
 -2        65        64       222      1187      1463      1464
 -1       280    8    0    1
 -2        64       221       222      1461      1465      1463
 -1       281    8    0    1
 -2        66        65       223      1188      1466      1467
 -1       282    8    0    1
 -2        65       222       223      1464      1468      1466
 -1       283    8    0    1
 -2        67        66       224      1189      1469      1470
 -1       284    8    0    1
 -2        66       223       224      1467      1471      1469
 -1       285    8    0    1
 -2        68        67       225      1190      1472      1473
 -1       286    8    0    1
 -2        67       224       225      1470      1474      1472
 -1       287    8    0    1
 -2        69        68       226      1191      1475      1476
 -1       288    8    0    1
 -2        68       225       226      1473      1477      1475
 -1       289    8    0    1
 -2        70        69       227      1192      1478      1479
 -1       290    8    0    1
 -2        69       226       227      1476      1480      1478
 -1       291    8    0    1
 -2        71        70       228      1193      1481      1482
 -1       292    8    0    1
 -2        70       227       228      1479      1483      1481
 -1       293    8    0    1
 -2         4        71       136      1194      1484      1261
 -1       294    8    0    1
 -2       136        71       228      1484      1482      1485
 -1       295    8    0    1
 -2        72        73       229      1196      1486      1487
 -1       296    8    0    1
 -2        72       229       180      1487      1488      1340
 -1       297    8    0    1
 -2        73        74       230      1197      1489      1490
 -1       298    8    0    1
 -2        73       230       229      1490      1491      1486
 -1       299    8    0    1
 -2        74        75       231      1198      1492      1493
 -1       300    8    0    1
 -2        74       231       230      1493      1494      1489
 -1       301    8    0    1
 -2        75        76       232      1199      1495      1496
 -1       302    8    0    1
 -2        75       232       231      1496      1497      1492
 -1       303    8    0    1
 -2        76        77       233      1200      1498      1499
 -1       304    8    0    1
 -2        76       233       232      1499      1500      1495
 -1       305    8    0    1
 -2        77        78       234      1201      1501      1502
 -1       306    8    0    1
 -2        77       234       233      1502      1503      1498
 -1       307    8    0    1
 -2        78        79       235      1202      1504      1505
 -1       308    8    0    1
 -2        78       235       234      1505      1506      1501
 -1       309    8    0    1
 -2        79        80       236      1203      1507      1508
 -1       310    8    0    1
 -2        79       236       235      1508      1509      1504
 -1       311    8    0    1
 -2        80        81       237      1204      1510      1511
 -1       312    8    0    1
 -2        80       237       236      1511      1512      1507
 -1       313    8    0    1
 -2        81        82       238      1205      1513      1514
 -1       314    8    0    1
 -2        81       238       237      1514      1515      1510
 -1       315    8    0    1
 -2        82        83       239      1206      1516      1517
 -1       316    8    0    1
 -2        82       239       238      1517      1518      1513
 -1       317    8    0    1
 -2        83        84       240      1207      1519      1520
 -1       318    8    0    1
 -2        83       240       239      1520      1521      1516
 -1       319    8    0    1
 -2        84        85       241      1208      1522      1523
 -1       320    8    0    1
 -2        84       241       240      1523      1524      1519
 -1       321    8    0    1
 -2        85        86       242      1209      1525      1526
 -1       322    8    0    1
 -2        85       242       241      1526      1527      1522
 -1       323    8    0    1
 -2        86        87       243      1210      1528      1529
 -1       324    8    0    1
 -2        86       243       242      1529      1530      1525
 -1       325    8    0    1
 -2        87        88       244      1211      1531      1532
 -1       326    8    0    1
 -2        87       244       243      1532      1533      1528
 -1       327    8    0    1
 -2        88        89       245      1212      1534      1535
 -1       328    8    0    1
 -2        88       245       244      1535      1536      1531
 -1       329    8    0    1
 -2        89        90       246      1213      1537      1538
 -1       330    8    0    1
 -2        89       246       245      1538      1539      1534
 -1       331    8    0    1
 -2        90        91       247      1214      1540      1541
 -1       332    8    0    1
 -2        90       247       246      1541      1542      1537
 -1       333    8    0    1
 -2        91        92       248      1215      1543      1544
 -1       334    8    0    1
 -2        91       248       247      1544      1545      1540
 -1       335    8    0    1
 -2        92        93       249      1216      1546      1547
 -1       336    8    0    1
 -2        92       249       248      1547      1548      1543
 -1       337    8    0    1
 -2        93        94       250      1217      1549      1550
 -1       338    8    0    1
 -2        93       250       249      1550      1551      1546
 -1       339    8    0    1
 -2        94        95       251      1218      1552      1553
 -1       340    8    0    1
 -2        94       251       250      1553      1554      1549
 -1       341    8    0    1
 -2        95        96       252      1219      1555      1556
 -1       342    8    0    1
 -2        95       252       251      1556      1557      1552
 -1       343    8    0    1
 -2        96        97       253      1220      1558      1559
 -1       344    8    0    1
 -2        96       253       252      1559      1560      1555
 -1       345    8    0    1
 -2        97        98       254      1221      1561      1562
 -1       346    8    0    1
 -2        97       254       253      1562      1563      1558
 -1       347    8    0    1
 -2        98        99       255      1222      1564      1565
 -1       348    8    0    1
 -2        98       255       254      1565      1566      1561
 -1       349    8    0    1
 -2        99       100       256      1223      1567      1568
 -1       350    8    0    1
 -2        99       256       255      1568      1569      1564
 -1       351    8    0    1
 -2       100       101       257      1224      1570      1571
 -1       352    8    0    1
 -2       100       257       256      1571      1572      1567
 -1       353    8    0    1
 -2       101       102       258      1225      1573      1574
 -1       354    8    0    1
 -2       101       258       257      1574      1575      1570
 -1       355    8    0    1
 -2       102       103       259      1226      1576      1577
 -1       356    8    0    1
 -2       102       259       258      1577      1578      1573
 -1       357    8    0    1
 -2       103       104       260      1227      1579      1580
 -1       358    8    0    1
 -2       103       260       259      1580      1581      1576
 -1       359    8    0    1
 -2       104       105       261      1228      1582      1583
 -1       360    8    0    1
 -2       104       261       260      1583      1584      1579
 -1       361    8    0    1
 -2       105       106       262      1229      1585      1586
 -1       362    8    0    1
 -2       105       262       261      1586      1587      1582
 -1       363    8    0    1
 -2       106       107       263      1230      1588      1589
 -1       364    8    0    1
 -2       106       263       262      1589      1590      1585
 -1       365    8    0    1
 -2       107       108       264      1231      1591      1592
 -1       366    8    0    1
 -2       107       264       263      1592      1593      1588
 -1       367    8    0    1
 -2       108       109       265      1232      1594      1595
 -1       368    8    0    1
 -2       108       265       264      1595      1596      1591
 -1       369    8    0    1
 -2       109       110       266      1233      1597      1598
 -1       370    8    0    1
 -2       109       266       265      1598      1599      1594
 -1       371    8    0    1
 -2       110       111       267      1234      1600      1601
 -1       372    8    0    1
 -2       110       267       266      1601      1602      1597
 -1       373    8    0    1
 -2       111       112       268      1235      1603      1604
 -1       374    8    0    1
 -2       111       268       267      1604      1605      1600
 -1       375    8    0    1
 -2       112       113       269      1236      1606      1607
 -1       376    8    0    1
 -2       112       269       268      1607      1608      1603
 -1       377    8    0    1
 -2       113       114       270      1237      1609      1610
 -1       378    8    0    1
 -2       113       270       269      1610      1611      1606
 -1       379    8    0    1
 -2       114       115       271      1238      1612      1613
 -1       380    8    0    1
 -2       114       271       270      1613      1614      1609
 -1       381    8    0    1
 -2       115       116       272      1239      1615      1616
 -1       382    8    0    1
 -2       115       272       271      1616      1617      1612
 -1       383    8    0    1
 -2       116       117       273      1240      1618      1619
 -1       384    8    0    1
 -2       116       273       272      1619      1620      1615
 -1       385    8    0    1
 -2       117       118       274      1241      1621      1622
 -1       386    8    0    1
 -2       117       274       273      1622      1623      1618
 -1       387    8    0    1
 -2       118       119       275      1242      1624      1625
 -1       388    8    0    1
 -2       118       275       274      1625      1626      1621
 -1       389    8    0    1
 -2       119       120       276      1243      1627      1628
 -1       390    8    0    1
 -2       119       276       275      1628      1629      1624
 -1       391    8    0    1
 -2       120         3       121      1244      1245      1630
 -1       392    8    0    1
 -2       121       122       277      1246      1631      1632
 -1       393    8    0    1
 -2       122       123       278      1247      1633      1634
 -1       394    8    0    1
 -2       122       278       277      1634      1635      1631
 -1       395    8    0    1
 -2       123       124       279      1248      1636      1637
 -1       396    8    0    1
 -2       123       279       278      1637      1638      1633
 -1       397    8    0    1
 -2       124       125       280      1249      1639      1640
 -1       398    8    0    1
 -2       124       280       279      1640      1641      1636
 -1       399    8    0    1
 -2       125       126       281      1250      1642      1643
 -1       400    8    0    1
 -2       125       281       280      1643      1644      1639
 -1       401    8    0    1
 -2       126       127       282      1251      1645      1646
 -1       402    8    0    1
 -2       126       282       281      1646      1647      1642
 -1       403    8    0    1
 -2       127       128       283      1252      1648      1649
 -1       404    8    0    1
 -2       127       283       282      1649      1650      1645
 -1       405    8    0    1
 -2       128       129       284      1253      1651      1652
 -1       406    8    0    1
 -2       128       284       283      1652      1653      1648
 -1       407    8    0    1
 -2       129       130       285      1254      1654      1655
 -1       408    8    0    1
 -2       129       285       284      1655      1656      1651
 -1       409    8    0    1
 -2       130       131       286      1255      1657      1658
 -1       410    8    0    1
 -2       130       286       285      1658      1659      1654
 -1       411    8    0    1
 -2       131       132       287      1256      1660      1661
 -1       412    8    0    1
 -2       131       287       286      1661      1662      1657
 -1       413    8    0    1
 -2       132       133       288      1257      1663      1664
 -1       414    8    0    1
 -2       132       288       287      1664      1665      1660
 -1       415    8    0    1
 -2       133       134       289      1258      1666      1667
 -1       416    8    0    1
 -2       133       289       288      1667      1668      1663
 -1       417    8    0    1
 -2       134       135       290      1259      1669      1670
 -1       418    8    0    1
 -2       134       290       289      1670      1671      1666
 -1       419    8    0    1
 -2       135       136       291      1260      1672      1673
 -1       420    8    0    1
 -2       290       135       291      1669      1673      1674
 -1       421    8    0    1
 -2       136       228       291      1485      1675      1672
 -1       422    8    0    1
 -2         2       137       292      1262      1676      1677
 -1       423    8    0    1
 -2       137       138       293      1263      1678      1679
 -1       424    8    0    1
 -2       138       139       294      1264      1680      1681
 -1       425    8    0    1
 -2       139       140       295      1265      1682      1683
 -1       426    8    0    1
 -2       140       141       296      1266      1684      1685
 -1       427    8    0    1
 -2       141       142       297      1267      1686      1687
 -1       428    8    0    1
 -2       142       143       298      1268      1688      1689
 -1       429    8    0    1
 -2       143       144       299      1269      1690      1691
 -1       430    8    0    1
 -2       144       145       300      1270      1692      1693
 -1       431    8    0    1
 -2       145       146       301      1271      1694      1695
 -1       432    8    0    1
 -2       146       147       302      1272      1696      1697
 -1       433    8    0    1
 -2       147       148       303      1273      1698      1699
 -1       434    8    0    1
 -2       148       149       304      1274      1700      1701
 -1       435    8    0    1
 -2       149       150       305      1275      1702      1703
 -1       436    8    0    1
 -2       150       151       306      1276      1704      1705
 -1       437    8    0    1
 -2       151       152       307      1277      1706      1707
 -1       438    8    0    1
 -2       152       153       308      1278      1708      1709
 -1       439    8    0    1
 -2       153         1       309      1279      1710      1711
 -1       440    8    0    1
 -2         1       154       310      1280      1712      1713
 -1       441    8    0    1
 -2       154       155       311      1281      1714      1715
 -1       442    8    0    1
 -2       155       156       312      1282      1716      1717
 -1       443    8    0    1
 -2       156       157       313      1283      1718      1719
 -1       444    8    0    1
 -2       157       158       314      1284      1720      1721
 -1       445    8    0    1
 -2       158       159       315      1285      1722      1723
 -1       446    8    0    1
 -2       159       160       316      1286      1724      1725
 -1       447    8    0    1
 -2       160       161       317      1287      1726      1727
 -1       448    8    0    1
 -2       161       162       318      1288      1728      1729
 -1       449    8    0    1
 -2       162       163       319      1289      1730      1731
 -1       450    8    0    1
 -2       163       164       320      1290      1732      1733
 -1       451    8    0    1
 -2       164         2       321      1291      1734      1735
 -1       452    8    0    1
 -2       295       140       296      1682      1685      1736
 -1       453    8    0    1
 -2       294       139       295      1680      1683      1737
 -1       454    8    0    1
 -2       120       121       276      1630      1738      1627
 -1       455    8    0    1
 -2       121       277       276      1632      1739      1738
 -1       456    8    0    1
 -2       292       137       293      1676      1679      1740
 -1       457    8    0    1
 -2       293       138       294      1678      1681      1741
 -1       458    8    0    1
 -2         2       292       321      1677      1742      1734
 -1       459    8    0    1
 -2       141       297       296      1687      1743      1684
 -1       460    8    0    1
 -2       142       298       297      1689      1744      1686
 -1       461    8    0    1
 -2       143       299       298      1691      1745      1688
 -1       462    8    0    1
 -2       144       300       299      1693      1746      1690
 -1       463    8    0    1
 -2       145       301       300      1695      1747      1692
 -1       464    8    0    1
 -2       146       302       301      1697      1748      1694
 -1       465    8    0    1
 -2       147       303       302      1699      1749      1696
 -1       466    8    0    1
 -2       148       304       303      1701      1750      1698
 -1       467    8    0    1
 -2       149       305       304      1703      1751      1700
 -1       468    8    0    1
 -2       150       306       305      1705      1752      1702
 -1       469    8    0    1
 -2       151       307       306      1707      1753      1704
 -1       470    8    0    1
 -2       152       308       307      1709      1754      1706
 -1       471    8    0    1
 -2       153       309       308      1711      1755      1708
 -1       472    8    0    1
 -2         1       310       309      1713      1756      1710
 -1       473    8    0    1
 -2       154       311       310      1715      1757      1712
 -1       474    8    0    1
 -2       155       312       311      1717      1758      1714
 -1       475    8    0    1
 -2       156       313       312      1719      1759      1716
 -1       476    8    0    1
 -2       157       314       313      1721      1760      1718
 -1       477    8    0    1
 -2       158       315       314      1723      1761      1720
 -1       478    8    0    1
 -2       159       316       315      1725      1762      1722
 -1       479    8    0    1
 -2       160       317       316      1727      1763      1724
 -1       480    8    0    1
 -2       161       318       317      1729      1764      1726
 -1       481    8    0    1
 -2       162       319       318      1731      1765      1728
 -1       482    8    0    1
 -2       163       320       319      1733      1766      1730
 -1       483    8    0    1
 -2       164       321       320      1735      1767      1732
 -1       484    8    0    1
 -2        23         7       165      1292      1294      1768
 -1       485    8    0    1
 -2       166       167       322      1300      1769      1770
 -1       486    8    0    1
 -2       165       166       323      1297      1771      1772
 -1       487    8    0    1
 -2       166       322       323      1770      1773      1771
 -1       488    8    0    1
 -2       168       169       324      1306      1774      1775
 -1       489    8    0    1
 -2       169       170       325      1309      1776      1777
 -1       490    8    0    1
 -2       169       325       324      1777      1778      1774
 -1       491    8    0    1
 -2       170       171       326      1312      1779      1780
 -1       492    8    0    1
 -2       170       326       325      1780      1781      1776
 -1       493    8    0    1
 -2       171       172       327      1315      1782      1783
 -1       494    8    0    1
 -2       171       327       326      1783      1784      1779
 -1       495    8    0    1
 -2       172       173       328      1318      1785      1786
 -1       496    8    0    1
 -2       172       328       327      1786      1787      1782
 -1       497    8    0    1
 -2       173       174       329      1321      1788      1789
 -1       498    8    0    1
 -2       173       329       328      1789      1790      1785
 -1       499    8    0    1
 -2       174       175       330      1324      1791      1792
 -1       500    8    0    1
 -2       174       330       329      1792      1793      1788
 -1       501    8    0    1
 -2       175       176       331      1327      1794      1795
 -1       502    8    0    1
 -2       175       331       330      1795      1796      1791
 -1       503    8    0    1
 -2       176       177       332      1330      1797      1798
 -1       504    8    0    1
 -2       176       332       331      1798      1799      1794
 -1       505    8    0    1
 -2       177       178       333      1333      1800      1801
 -1       506    8    0    1
 -2       177       333       332      1801      1802      1797
 -1       507    8    0    1
 -2       178       179       334      1336      1803      1804
 -1       508    8    0    1
 -2       178       334       333      1804      1805      1800
 -1       509    8    0    1
 -2       179       180       335      1339      1806      1807
 -1       510    8    0    1
 -2       334       179       335      1803      1807      1808
 -1       511    8    0    1
 -2       180       229       335      1488      1809      1806
 -1       512    8    0    1
 -2       181        23       165      1341      1768      1810
 -1       513    8    0    1
 -2       229       230       336      1491      1811      1812
 -1       514    8    0    1
 -2       229       336       335      1812      1813      1809
 -1       515    8    0    1
 -2       181       165       323      1810      1772      1814
 -1       516    8    0    1
 -2       183       182       337      1348      1815      1816
 -1       517    8    0    1
 -2       184       183       338      1351      1817      1818
 -1       518    8    0    1
 -2       183       337       338      1816      1819      1817
 -1       519    8    0    1
 -2       185       184       339      1354      1820      1821
 -1       520    8    0    1
 -2       184       338       339      1818      1822      1820
 -1       521    8    0    1
 -2       186       185       340      1357      1823      1824
 -1       522    8    0    1
 -2       185       339       340      1821      1825      1823
 -1       523    8    0    1
 -2       187       186       341      1360      1826      1827
 -1       524    8    0    1
 -2       186       340       341      1824      1828      1826
 -1       525    8    0    1
 -2       188       187       342      1363      1829      1830
 -1       526    8    0    1
 -2       187       341       342      1827      1831      1829
 -1       527    8    0    1
 -2       189       188       343      1366      1832      1833
 -1       528    8    0    1
 -2       188       342       343      1830      1834      1832
 -1       529    8    0    1
 -2       190       189       344      1369      1835      1836
 -1       530    8    0    1
 -2       189       343       344      1833      1837      1835
 -1       531    8    0    1
 -2       191       190       345      1372      1838      1839
 -1       532    8    0    1
 -2       190       344       345      1836      1840      1838
 -1       533    8    0    1
 -2       192       191       346      1375      1841      1842
 -1       534    8    0    1
 -2       191       345       346      1839      1843      1841
 -1       535    8    0    1
 -2       193       192       347      1378      1844      1845
 -1       536    8    0    1
 -2       192       346       347      1842      1846      1844
 -1       537    8    0    1
 -2       194       193       348      1381      1847      1848
 -1       538    8    0    1
 -2       193       347       348      1845      1849      1847
 -1       539    8    0    1
 -2       195       194       349      1384      1850      1851
 -1       540    8    0    1
 -2       194       348       349      1848      1852      1850
 -1       541    8    0    1
 -2       196       195       350      1387      1853      1854
 -1       542    8    0    1
 -2       195       349       350      1851      1855      1853
 -1       543    8    0    1
 -2       197       196       351      1390      1856      1857
 -1       544    8    0    1
 -2       196       350       351      1854      1858      1856
 -1       545    8    0    1
 -2       198       197       352      1393      1859      1860
 -1       546    8    0    1
 -2       197       351       352      1857      1861      1859
 -1       547    8    0    1
 -2       199       198       353      1396      1862      1863
 -1       548    8    0    1
 -2       198       352       353      1860      1864      1862
 -1       549    8    0    1
 -2       200       199       354      1399      1865      1866
 -1       550    8    0    1
 -2       199       353       354      1863      1867      1865
 -1       551    8    0    1
 -2       201       200       355      1402      1868      1869
 -1       552    8    0    1
 -2       200       354       355      1866      1870      1868
 -1       553    8    0    1
 -2       202       201       356      1405      1871      1872
 -1       554    8    0    1
 -2       201       355       356      1869      1873      1871
 -1       555    8    0    1
 -2       203       202       357      1408      1874      1875
 -1       556    8    0    1
 -2       202       356       357      1872      1876      1874
 -1       557    8    0    1
 -2       204       203       358      1411      1877      1878
 -1       558    8    0    1
 -2       203       357       358      1875      1879      1877
 -1       559    8    0    1
 -2       205       204       359      1414      1880      1881
 -1       560    8    0    1
 -2       204       358       359      1878      1882      1880
 -1       561    8    0    1
 -2       206       205       360      1417      1883      1884
 -1       562    8    0    1
 -2       205       359       360      1881      1885      1883
 -1       563    8    0    1
 -2       207       206       361      1420      1886      1887
 -1       564    8    0    1
 -2       206       360       361      1884      1888      1886
 -1       565    8    0    1
 -2       208       207       362      1423      1889      1890
 -1       566    8    0    1
 -2       207       361       362      1887      1891      1889
 -1       567    8    0    1
 -2       209       208       363      1426      1892      1893
 -1       568    8    0    1
 -2       208       362       363      1890      1894      1892
 -1       569    8    0    1
 -2       210       209       364      1429      1895      1896
 -1       570    8    0    1
 -2       209       363       364      1893      1897      1895
 -1       571    8    0    1
 -2       211       210       365      1432      1898      1899
 -1       572    8    0    1
 -2       210       364       365      1896      1900      1898
 -1       573    8    0    1
 -2       212       211       366      1435      1901      1902
 -1       574    8    0    1
 -2       211       365       366      1899      1903      1901
 -1       575    8    0    1
 -2       213       212       367      1438      1904      1905
 -1       576    8    0    1
 -2       212       366       367      1902      1906      1904
 -1       577    8    0    1
 -2       214       213       368      1441      1907      1908
 -1       578    8    0    1
 -2       213       367       368      1905      1909      1907
 -1       579    8    0    1
 -2       215       214       369      1444      1910      1911
 -1       580    8    0    1
 -2       214       368       369      1908      1912      1910
 -1       581    8    0    1
 -2       216       215       370      1447      1913      1914
 -1       582    8    0    1
 -2       215       369       370      1911      1915      1913
 -1       583    8    0    1
 -2       217       216       371      1450      1916      1917
 -1       584    8    0    1
 -2       216       370       371      1914      1918      1916
 -1       585    8    0    1
 -2       218       217       372      1453      1919      1920
 -1       586    8    0    1
 -2       217       371       372      1917      1921      1919
 -1       587    8    0    1
 -2       219       218       373      1456      1922      1923
 -1       588    8    0    1
 -2       218       372       373      1920      1924      1922
 -1       589    8    0    1
 -2       220       219       374      1459      1925      1926
 -1       590    8    0    1
 -2       219       373       374      1923      1927      1925
 -1       591    8    0    1
 -2       221       220       375      1462      1928      1929
 -1       592    8    0    1
 -2       220       374       375      1926      1930      1928
 -1       593    8    0    1
 -2       222       221       376      1465      1931      1932
 -1       594    8    0    1
 -2       221       375       376      1929      1933      1931
 -1       595    8    0    1
 -2       223       222       377      1468      1934      1935
 -1       596    8    0    1
 -2       222       376       377      1932      1936      1934
 -1       597    8    0    1
 -2       224       223       378      1471      1937      1938
 -1       598    8    0    1
 -2       223       377       378      1935      1939      1937
 -1       599    8    0    1
 -2       225       224       379      1474      1940      1941
 -1       600    8    0    1
 -2       224       378       379      1938      1942      1940
 -1       601    8    0    1
 -2       226       225       380      1477      1943      1944
 -1       602    8    0    1
 -2       225       379       380      1941      1945      1943
 -1       603    8    0    1
 -2       227       226       381      1480      1946      1947
 -1       604    8    0    1
 -2       226       380       381      1944      1948      1946
 -1       605    8    0    1
 -2       228       227       382      1483      1949      1950
 -1       606    8    0    1
 -2       291       228       382      1675      1950      1951
 -1       607    8    0    1
 -2       227       381       382      1947      1952      1949
 -1       608    8    0    1
 -2       230       231       383      1494      1953      1954
 -1       609    8    0    1
 -2       230       383       336      1954      1955      1811
 -1       610    8    0    1
 -2       231       232       384      1497      1956      1957
 -1       611    8    0    1
 -2       231       384       383      1957      1958      1953
 -1       612    8    0    1
 -2       232       233       385      1500      1959      1960
 -1       613    8    0    1
 -2       232       385       384      1960      1961      1956
 -1       614    8    0    1
 -2       233       234       386      1503      1962      1963
 -1       615    8    0    1
 -2       233       386       385      1963      1964      1959
 -1       616    8    0    1
 -2       234       235       387      1506      1965      1966
 -1       617    8    0    1
 -2       234       387       386      1966      1967      1962
 -1       618    8    0    1
 -2       235       236       388      1509      1968      1969
 -1       619    8    0    1
 -2       235       388       387      1969      1970      1965
 -1       620    8    0    1
 -2       236       237       389      1512      1971      1972
 -1       621    8    0    1
 -2       236       389       388      1972      1973      1968
 -1       622    8    0    1
 -2       237       238       390      1515      1974      1975
 -1       623    8    0    1
 -2       237       390       389      1975      1976      1971
 -1       624    8    0    1
 -2       238       239       391      1518      1977      1978
 -1       625    8    0    1
 -2       238       391       390      1978      1979      1974
 -1       626    8    0    1
 -2       239       240       392      1521      1980      1981
 -1       627    8    0    1
 -2       239       392       391      1981      1982      1977
 -1       628    8    0    1
 -2       240       241       393      1524      1983      1984
 -1       629    8    0    1
 -2       240       393       392      1984      1985      1980
 -1       630    8    0    1
 -2       241       242       394      1527      1986      1987
 -1       631    8    0    1
 -2       241       394       393      1987      1988      1983
 -1       632    8    0    1
 -2       242       243       395      1530      1989      1990
 -1       633    8    0    1
 -2       242       395       394      1990      1991      1986
 -1       634    8    0    1
 -2       243       244       396      1533      1992      1993
 -1       635    8    0    1
 -2       243       396       395      1993      1994      1989
 -1       636    8    0    1
 -2       244       245       397      1536      1995      1996
 -1       637    8    0    1
 -2       244       397       396      1996      1997      1992
 -1       638    8    0    1
 -2       245       246       398      1539      1998      1999
 -1       639    8    0    1
 -2       245       398       397      1999      2000      1995
 -1       640    8    0    1
 -2       246       247       399      1542      2001      2002
 -1       641    8    0    1
 -2       246       399       398      2002      2003      1998
 -1       642    8    0    1
 -2       247       248       400      1545      2004      2005
 -1       643    8    0    1
 -2       247       400       399      2005      2006      2001
 -1       644    8    0    1
 -2       248       249       401      1548      2007      2008
 -1       645    8    0    1
 -2       248       401       400      2008      2009      2004
 -1       646    8    0    1
 -2       249       250       402      1551      2010      2011
 -1       647    8    0    1
 -2       249       402       401      2011      2012      2007
 -1       648    8    0    1
 -2       250       251       403      1554      2013      2014
 -1       649    8    0    1
 -2       250       403       402      2014      2015      2010
 -1       650    8    0    1
 -2       251       252       404      1557      2016      2017
 -1       651    8    0    1
 -2       251       404       403      2017      2018      2013
 -1       652    8    0    1
 -2       252       253       405      1560      2019      2020
 -1       653    8    0    1
 -2       252       405       404      2020      2021      2016
 -1       654    8    0    1
 -2       253       254       406      1563      2022      2023
 -1       655    8    0    1
 -2       253       406       405      2023      2024      2019
 -1       656    8    0    1
 -2       254       255       407      1566      2025      2026
 -1       657    8    0    1
 -2       254       407       406      2026      2027      2022
 -1       658    8    0    1
 -2       255       256       408      1569      2028      2029
 -1       659    8    0    1
 -2       255       408       407      2029      2030      2025
 -1       660    8    0    1
 -2       256       257       409      1572      2031      2032
 -1       661    8    0    1
 -2       256       409       408      2032      2033      2028
 -1       662    8    0    1
 -2       257       258       410      1575      2034      2035
 -1       663    8    0    1
 -2       257       410       409      2035      2036      2031
 -1       664    8    0    1
 -2       258       259       411      1578      2037      2038
 -1       665    8    0    1
 -2       258       411       410      2038      2039      2034
 -1       666    8    0    1
 -2       259       260       412      1581      2040      2041
 -1       667    8    0    1
 -2       259       412       411      2041      2042      2037
 -1       668    8    0    1
 -2       260       261       413      1584      2043      2044
 -1       669    8    0    1
 -2       260       413       412      2044      2045      2040
 -1       670    8    0    1
 -2       261       262       414      1587      2046      2047
 -1       671    8    0    1
 -2       261       414       413      2047      2048      2043
 -1       672    8    0    1
 -2       262       263       415      1590      2049      2050
 -1       673    8    0    1
 -2       262       415       414      2050      2051      2046
 -1       674    8    0    1
 -2       263       264       416      1593      2052      2053
 -1       675    8    0    1
 -2       263       416       415      2053      2054      2049
 -1       676    8    0    1
 -2       264       265       417      1596      2055      2056
 -1       677    8    0    1
 -2       264       417       416      2056      2057      2052
 -1       678    8    0    1
 -2       265       266       418      1599      2058      2059
 -1       679    8    0    1
 -2       265       418       417      2059      2060      2055
 -1       680    8    0    1
 -2       266       267       419      1602      2061      2062
 -1       681    8    0    1
 -2       266       419       418      2062      2063      2058
 -1       682    8    0    1
 -2       267       268       420      1605      2064      2065
 -1       683    8    0    1
 -2       267       420       419      2065      2066      2061
 -1       684    8    0    1
 -2       268       269       421      1608      2067      2068
 -1       685    8    0    1
 -2       268       421       420      2068      2069      2064
 -1       686    8    0    1
 -2       269       270       422      1611      2070      2071
 -1       687    8    0    1
 -2       269       422       421      2071      2072      2067
 -1       688    8    0    1
 -2       270       271       423      1614      2073      2074
 -1       689    8    0    1
 -2       270       423       422      2074      2075      2070
 -1       690    8    0    1
 -2       271       272       424      1617      2076      2077
 -1       691    8    0    1
 -2       271       424       423      2077      2078      2073
 -1       692    8    0    1
 -2       272       273       425      1620      2079      2080
 -1       693    8    0    1
 -2       272       425       424      2080      2081      2076
 -1       694    8    0    1
 -2       273       274       426      1623      2082      2083
 -1       695    8    0    1
 -2       273       426       425      2083      2084      2079
 -1       696    8    0    1
 -2       274       275       427      1626      2085      2086
 -1       697    8    0    1
 -2       274       427       426      2086      2087      2082
 -1       698    8    0    1
 -2       275       276       428      1629      2088      2089
 -1       699    8    0    1
 -2       427       275       428      2085      2089      2090
 -1       700    8    0    1
 -2       276       277       428      1739      2091      2088
 -1       701    8    0    1
 -2       279       280       429      1641      2092      2093
 -1       702    8    0    1
 -2       278       279       430      1638      2094      2095
 -1       703    8    0    1
 -2       279       429       430      2093      2096      2094
 -1       704    8    0    1
 -2       277       278       431      1635      2097      2098
 -1       705    8    0    1
 -2       428       277       431      2091      2098      2099
 -1       706    8    0    1
 -2       278       430       431      2095      2100      2097
 -1       707    8    0    1
 -2       280       281       432      1644      2101      2102
 -1       708    8    0    1
 -2       280       432       429      2102      2103      2092
 -1       709    8    0    1
 -2       281       282       433      1647      2104      2105
 -1       710    8    0    1
 -2       281       433       432      2105      2106      2101
 -1       711    8    0    1
 -2       282       283       434      1650      2107      2108
 -1       712    8    0    1
 -2       282       434       433      2108      2109      2104
 -1       713    8    0    1
 -2       283       284       435      1653      2110      2111
 -1       714    8    0    1
 -2       283       435       434      2111      2112      2107
 -1       715    8    0    1
 -2       284       285       436      1656      2113      2114
 -1       716    8    0    1
 -2       284       436       435      2114      2115      2110
 -1       717    8    0    1
 -2       285       286       437      1659      2116      2117
 -1       718    8    0    1
 -2       285       437       436      2117      2118      2113
 -1       719    8    0    1
 -2       286       287       438      1662      2119      2120
 -1       720    8    0    1
 -2       286       438       437      2120      2121      2116
 -1       721    8    0    1
 -2       287       288       439      1665      2122      2123
 -1       722    8    0    1
 -2       287       439       438      2123      2124      2119
 -1       723    8    0    1
 -2       288       289       440      1668      2125      2126
 -1       724    8    0    1
 -2       288       440       439      2126      2127      2122
 -1       725    8    0    1
 -2       289       290       441      1671      2128      2129
 -1       726    8    0    1
 -2       289       441       440      2129      2130      2125
 -1       727    8    0    1
 -2       293       294       442      1741      2131      2132
 -1       728    8    0    1
 -2       321       292       443      1742      2133      2134
 -1       729    8    0    1
 -2       292       293       444      1740      2135      2136
 -1       730    8    0    1
 -2       294       295       445      1737      2137      2138
 -1       731    8    0    1
 -2       295       296       446      1736      2139      2140
 -1       732    8    0    1
 -2       295       446       445      2140      2141      2137
 -1       733    8    0    1
 -2       167       168       447      1303      2142      2143
 -1       734    8    0    1
 -2       322       167       447      1769      2143      2144
 -1       735    8    0    1
 -2       168       324       447      1775      2145      2142
 -1       736    8    0    1
 -2       297       298       448      1744      2146      2147
 -1       737    8    0    1
 -2       298       299       449      1745      2148      2149
 -1       738    8    0    1
 -2       299       300       450      1746      2150      2151
 -1       739    8    0    1
 -2       300       301       451      1747      2152      2153
 -1       740    8    0    1
 -2       301       302       452      1748      2154      2155
 -1       741    8    0    1
 -2       302       303       453      1749      2156      2157
 -1       742    8    0    1
 -2       303       304       454      1750      2158      2159
 -1       743    8    0    1
 -2       303       454       453      2159      2160      2156
 -1       744    8    0    1
 -2       304       305       455      1751      2161      2162
 -1       745    8    0    1
 -2       305       306       456      1752      2163      2164
 -1       746    8    0    1
 -2       306       307       457      1753      2165      2166
 -1       747    8    0    1
 -2       306       457       456      2166      2167      2163
 -1       748    8    0    1
 -2       307       308       458      1754      2168      2169
 -1       749    8    0    1
 -2       308       309       459      1755      2170      2171
 -1       750    8    0    1
 -2       308       459       458      2171      2172      2168
 -1       751    8    0    1
 -2       309       310       460      1756      2173      2174
 -1       752    8    0    1
 -2       310       311       461      1757      2175      2176
 -1       753    8    0    1
 -2       311       312       462      1758      2177      2178
 -1       754    8    0    1
 -2       312       313       463      1759      2179      2180
 -1       755    8    0    1
 -2       313       314       464      1760      2181      2182
 -1       756    8    0    1
 -2       314       315       465      1761      2183      2184
 -1       757    8    0    1
 -2       314       465       464      2184      2185      2181
 -1       758    8    0    1
 -2       315       316       466      1762      2186      2187
 -1       759    8    0    1
 -2       316       317       467      1763      2188      2189
 -1       760    8    0    1
 -2       316       467       466      2189      2190      2186
 -1       761    8    0    1
 -2       317       318       468      1764      2191      2192
 -1       762    8    0    1
 -2       318       319       469      1765      2193      2194
 -1       763    8    0    1
 -2       319       320       470      1766      2195      2196
 -1       764    8    0    1
 -2       319       470       469      2196      2197      2193
 -1       765    8    0    1
 -2       320       321       471      1767      2198      2199
 -1       766    8    0    1
 -2       296       297       472      1743      2200      2201
 -1       767    8    0    1
 -2       181       323       182      1814      2202      1345
 -1       768    8    0    1
 -2       446       296       472      2139      2201      2203
 -1       769    8    0    1
 -2       297       448       472      2147      2204      2200
 -1       770    8    0    1
 -2       337       182       323      1815      2202      2205
 -1       771    8    0    1
 -2       444       293       442      2135      2132      2206
 -1       772    8    0    1
 -2       443       292       444      2133      2136      2207
 -1       773    8    0    1
 -2       441       290       291      2128      1674      2208
 -1       774    8    0    1
 -2       442       294       445      2131      2138      2209
 -1       775    8    0    1
 -2       321       443       471      2134      2210      2198
 -1       776    8    0    1
 -2       470       320       471      2195      2199      2211
 -1       777    8    0    1
 -2       467       317       468      2188      2192      2212
 -1       778    8    0    1
 -2       465       315       466      2183      2187      2213
 -1       779    8    0    1
 -2       463       313       464      2179      2182      2214
 -1       780    8    0    1
 -2       462       312       463      2177      2180      2215
 -1       781    8    0    1
 -2       461       311       462      2175      2178      2216
 -1       782    8    0    1
 -2       459       309       460      2170      2174      2217
 -1       783    8    0    1
 -2       457       307       458      2165      2169      2218
 -1       784    8    0    1
 -2       454       304       455      2158      2162      2219
 -1       785    8    0    1
 -2       452       302       453      2154      2157      2220
 -1       786    8    0    1
 -2       451       301       452      2152      2155      2221
 -1       787    8    0    1
 -2       450       300       451      2150      2153      2222
 -1       788    8    0    1
 -2       448       298       449      2146      2149      2223
 -1       789    8    0    1
 -2       449       299       450      2148      2151      2224
 -1       790    8    0    1
 -2       455       305       456      2161      2164      2225
 -1       791    8    0    1
 -2       460       310       461      2173      2176      2226
 -1       792    8    0    1
 -2       468       318       469      2191      2194      2227
 -1       793    8    0    1
 -2       336       383       473      1955      2228      2229
 -1       794    8    0    1
 -2       325       326       474      1781      2230      2231
 -1       795    8    0    1
 -2       324       325       475      1778      2232      2233
 -1       796    8    0    1
 -2       325       474       475      2231      2234      2232
 -1       797    8    0    1
 -2       327       328       476      1787      2235      2236
 -1       798    8    0    1
 -2       328       329       477      1790      2237      2238
 -1       799    8    0    1
 -2       328       477       476      2238      2239      2235
 -1       800    8    0    1
 -2       329       330       478      1793      2240      2241
 -1       801    8    0    1
 -2       329       478       477      2241      2242      2237
 -1       802    8    0    1
 -2       330       331       479      1796      2243      2244
 -1       803    8    0    1
 -2       330       479       478      2244      2245      2240
 -1       804    8    0    1
 -2       331       332       480      1799      2246      2247
 -1       805    8    0    1
 -2       331       480       479      2247      2248      2243
 -1       806    8    0    1
 -2       332       333       481      1802      2249      2250
 -1       807    8    0    1
 -2       332       481       480      2250      2251      2246
 -1       808    8    0    1
 -2       383       384       482      1958      2252      2253
 -1       809    8    0    1
 -2       383       482       473      2253      2254      2228
 -1       810    8    0    1
 -2       338       337       483      1819      2255      2256
 -1       811    8    0    1
 -2       446       472       484      2203      2257      2258
 -1       812    8    0    1
 -2       339       338       485      1822      2259      2260
 -1       813    8    0    1
 -2       338       483       485      2256      2261      2259
 -1       814    8    0    1
 -2       340       339       486      1825      2262      2263
 -1       815    8    0    1
 -2       339       485       486      2260      2264      2262
 -1       816    8    0    1
 -2       341       340       487      1828      2265      2266
 -1       817    8    0    1
 -2       340       486       487      2263      2267      2265
 -1       818    8    0    1
 -2       342       341       488      1831      2268      2269
 -1       819    8    0    1
 -2       341       487       488      2266      2270      2268
 -1       820    8    0    1
 -2       343       342       489      1834      2271      2272
 -1       821    8    0    1
 -2       342       488       489      2269      2273      2271
 -1       822    8    0    1
 -2       344       343       490      1837      2274      2275
 -1       823    8    0    1
 -2       343       489       490      2272      2276      2274
 -1       824    8    0    1
 -2       345       344       491      1840      2277      2278
 -1       825    8    0    1
 -2       344       490       491      2275      2279      2277
 -1       826    8    0    1
 -2       346       345       492      1843      2280      2281
 -1       827    8    0    1
 -2       345       491       492      2278      2282      2280
 -1       828    8    0    1
 -2       347       346       493      1846      2283      2284
 -1       829    8    0    1
 -2       346       492       493      2281      2285      2283
 -1       830    8    0    1
 -2       348       347       494      1849      2286      2287
 -1       831    8    0    1
 -2       347       493       494      2284      2288      2286
 -1       832    8    0    1
 -2       349       348       495      1852      2289      2290
 -1       833    8    0    1
 -2       348       494       495      2287      2291      2289
 -1       834    8    0    1
 -2       350       349       496      1855      2292      2293
 -1       835    8    0    1
 -2       349       495       496      2290      2294      2292
 -1       836    8    0    1
 -2       351       350       497      1858      2295      2296
 -1       837    8    0    1
 -2       350       496       497      2293      2297      2295
 -1       838    8    0    1
 -2       352       351       498      1861      2298      2299
 -1       839    8    0    1
 -2       351       497       498      2296      2300      2298
 -1       840    8    0    1
 -2       353       352       499      1864      2301      2302
 -1       841    8    0    1
 -2       352       498       499      2299      2303      2301
 -1       842    8    0    1
 -2       354       353       500      1867      2304      2305
 -1       843    8    0    1
 -2       353       499       500      2302      2306      2304
 -1       844    8    0    1
 -2       355       354       501      1870      2307      2308
 -1       845    8    0    1
 -2       354       500       501      2305      2309      2307
 -1       846    8    0    1
 -2       356       355       502      1873      2310      2311
 -1       847    8    0    1
 -2       355       501       502      2308      2312      2310
 -1       848    8    0    1
 -2       357       356       503      1876      2313      2314
 -1       849    8    0    1
 -2       356       502       503      2311      2315      2313
 -1       850    8    0    1
 -2       358       357       504      1879      2316      2317
 -1       851    8    0    1
 -2       357       503       504      2314      2318      2316
 -1       852    8    0    1
 -2       359       358       505      1882      2319      2320
 -1       853    8    0    1
 -2       358       504       505      2317      2321      2319
 -1       854    8    0    1
 -2       360       359       506      1885      2322      2323
 -1       855    8    0    1
 -2       359       505       506      2320      2324      2322
 -1       856    8    0    1
 -2       361       360       507      1888      2325      2326
 -1       857    8    0    1
 -2       360       506       507      2323      2327      2325
 -1       858    8    0    1
 -2       362       361       508      1891      2328      2329
 -1       859    8    0    1
 -2       361       507       508      2326      2330      2328
 -1       860    8    0    1
 -2       363       362       509      1894      2331      2332
 -1       861    8    0    1
 -2       362       508       509      2329      2333      2331
 -1       862    8    0    1
 -2       364       363       510      1897      2334      2335
 -1       863    8    0    1
 -2       363       509       510      2332      2336      2334
 -1       864    8    0    1
 -2       365       364       511      1900      2337      2338
 -1       865    8    0    1
 -2       364       510       511      2335      2339      2337
 -1       866    8    0    1
 -2       366       365       512      1903      2340      2341
 -1       867    8    0    1
 -2       365       511       512      2338      2342      2340
 -1       868    8    0    1
 -2       367       366       513      1906      2343      2344
 -1       869    8    0    1
 -2       366       512       513      2341      2345      2343
 -1       870    8    0    1
 -2       368       367       514      1909      2346      2347
 -1       871    8    0    1
 -2       367       513       514      2344      2348      2346
 -1       872    8    0    1
 -2       369       368       515      1912      2349      2350
 -1       873    8    0    1
 -2       368       514       515      2347      2351      2349
 -1       874    8    0    1
 -2       370       369       516      1915      2352      2353
 -1       875    8    0    1
 -2       369       515       516      2350      2354      2352
 -1       876    8    0    1
 -2       371       370       517      1918      2355      2356
 -1       877    8    0    1
 -2       370       516       517      2353      2357      2355
 -1       878    8    0    1
 -2       372       371       518      1921      2358      2359
 -1       879    8    0    1
 -2       371       517       518      2356      2360      2358
 -1       880    8    0    1
 -2       373       372       519      1924      2361      2362
 -1       881    8    0    1
 -2       372       518       519      2359      2363      2361
 -1       882    8    0    1
 -2       374       373       520      1927      2364      2365
 -1       883    8    0    1
 -2       373       519       520      2362      2366      2364
 -1       884    8    0    1
 -2       375       374       521      1930      2367      2368
 -1       885    8    0    1
 -2       374       520       521      2365      2369      2367
 -1       886    8    0    1
 -2       376       375       522      1933      2370      2371
 -1       887    8    0    1
 -2       375       521       522      2368      2372      2370
 -1       888    8    0    1
 -2       377       376       523      1936      2373      2374
 -1       889    8    0    1
 -2       376       522       523      2371      2375      2373
 -1       890    8    0    1
 -2       378       377       524      1939      2376      2377
 -1       891    8    0    1
 -2       377       523       524      2374      2378      2376
 -1       892    8    0    1
 -2       379       378       525      1942      2379      2380
 -1       893    8    0    1
 -2       378       524       525      2377      2381      2379
 -1       894    8    0    1
 -2       380       379       526      1945      2382      2383
 -1       895    8    0    1
 -2       379       525       526      2380      2384      2382
 -1       896    8    0    1
 -2       381       380       527      1948      2385      2386
 -1       897    8    0    1
 -2       380       526       527      2383      2387      2385
 -1       898    8    0    1
 -2       385       386       528      1964      2388      2389
 -1       899    8    0    1
 -2       386       387       529      1967      2390      2391
 -1       900    8    0    1
 -2       386       529       528      2391      2392      2388
 -1       901    8    0    1
 -2       387       388       530      1970      2393      2394
 -1       902    8    0    1
 -2       387       530       529      2394      2395      2390
 -1       903    8    0    1
 -2       388       389       531      1973      2396      2397
 -1       904    8    0    1
 -2       388       531       530      2397      2398      2393
 -1       905    8    0    1
 -2       389       390       532      1976      2399      2400
 -1       906    8    0    1
 -2       389       532       531      2400      2401      2396
 -1       907    8    0    1
 -2       390       391       533      1979      2402      2403
 -1       908    8    0    1
 -2       390       533       532      2403      2404      2399
 -1       909    8    0    1
 -2       391       392       534      1982      2405      2406
 -1       910    8    0    1
 -2       391       534       533      2406      2407      2402
 -1       911    8    0    1
 -2       392       393       535      1985      2408      2409
 -1       912    8    0    1
 -2       392       535       534      2409      2410      2405
 -1       913    8    0    1
 -2       393       394       536      1988      2411      2412
 -1       914    8    0    1
 -2       393       536       535      2412      2413      2408
 -1       915    8    0    1
 -2       394       395       537      1991      2414      2415
 -1       916    8    0    1
 -2       394       537       536      2415      2416      2411
 -1       917    8    0    1
 -2       395       396       538      1994      2417      2418
 -1       918    8    0    1
 -2       395       538       537      2418      2419      2414
 -1       919    8    0    1
 -2       396       397       539      1997      2420      2421
 -1       920    8    0    1
 -2       396       539       538      2421      2422      2417
 -1       921    8    0    1
 -2       397       398       540      2000      2423      2424
 -1       922    8    0    1
 -2       397       540       539      2424      2425      2420
 -1       923    8    0    1
 -2       398       399       541      2003      2426      2427
 -1       924    8    0    1
 -2       398       541       540      2427      2428      2423
 -1       925    8    0    1
 -2       399       400       542      2006      2429      2430
 -1       926    8    0    1
 -2       399       542       541      2430      2431      2426
 -1       927    8    0    1
 -2       400       401       543      2009      2432      2433
 -1       928    8    0    1
 -2       400       543       542      2433      2434      2429
 -1       929    8    0    1
 -2       401       402       544      2012      2435      2436
 -1       930    8    0    1
 -2       401       544       543      2436      2437      2432
 -1       931    8    0    1
 -2       402       403       545      2015      2438      2439
 -1       932    8    0    1
 -2       402       545       544      2439      2440      2435
 -1       933    8    0    1
 -2       403       404       546      2018      2441      2442
 -1       934    8    0    1
 -2       403       546       545      2442      2443      2438
 -1       935    8    0    1
 -2       404       405       547      2021      2444      2445
 -1       936    8    0    1
 -2       404       547       546      2445      2446      2441
 -1       937    8    0    1
 -2       405       406       548      2024      2447      2448
 -1       938    8    0    1
 -2       405       548       547      2448      2449      2444
 -1       939    8    0    1
 -2       406       407       549      2027      2450      2451
 -1       940    8    0    1
 -2       406       549       548      2451      2452      2447
 -1       941    8    0    1
 -2       407       408       550      2030      2453      2454
 -1       942    8    0    1
 -2       407       550       549      2454      2455      2450
 -1       943    8    0    1
 -2       408       409       551      2033      2456      2457
 -1       944    8    0    1
 -2       408       551       550      2457      2458      2453
 -1       945    8    0    1
 -2       409       410       552      2036      2459      2460
 -1       946    8    0    1
 -2       409       552       551      2460      2461      2456
 -1       947    8    0    1
 -2       410       411       553      2039      2462      2463
 -1       948    8    0    1
 -2       410       553       552      2463      2464      2459
 -1       949    8    0    1
 -2       411       412       554      2042      2465      2466
 -1       950    8    0    1
 -2       411       554       553      2466      2467      2462
 -1       951    8    0    1
 -2       412       413       555      2045      2468      2469
 -1       952    8    0    1
 -2       412       555       554      2469      2470      2465
 -1       953    8    0    1
 -2       413       414       556      2048      2471      2472
 -1       954    8    0    1
 -2       413       556       555      2472      2473      2468
 -1       955    8    0    1
 -2       414       415       557      2051      2474      2475
 -1       956    8    0    1
 -2       414       557       556      2475      2476      2471
 -1       957    8    0    1
 -2       415       416       558      2054      2477      2478
 -1       958    8    0    1
 -2       415       558       557      2478      2479      2474
 -1       959    8    0    1
 -2       416       417       559      2057      2480      2481
 -1       960    8    0    1
 -2       416       559       558      2481      2482      2477
 -1       961    8    0    1
 -2       417       418       560      2060      2483      2484
 -1       962    8    0    1
 -2       417       560       559      2484      2485      2480
 -1       963    8    0    1
 -2       418       419       561      2063      2486      2487
 -1       964    8    0    1
 -2       418       561       560      2487      2488      2483
 -1       965    8    0    1
 -2       419       420       562      2066      2489      2490
 -1       966    8    0    1
 -2       419       562       561      2490      2491      2486
 -1       967    8    0    1
 -2       420       421       563      2069      2492      2493
 -1       968    8    0    1
 -2       420       563       562      2493      2494      2489
 -1       969    8    0    1
 -2       421       422       564      2072      2495      2496
 -1       970    8    0    1
 -2       421       564       563      2496      2497      2492
 -1       971    8    0    1
 -2       422       423       565      2075      2498      2499
 -1       972    8    0    1
 -2       422       565       564      2499      2500      2495
 -1       973    8    0    1
 -2       423       424       566      2078      2501      2502
 -1       974    8    0    1
 -2       423       566       565      2502      2503      2498
 -1       975    8    0    1
 -2       424       425       567      2081      2504      2505
 -1       976    8    0    1
 -2       424       567       566      2505      2506      2501
 -1       977    8    0    1
 -2       425       426       568      2084      2507      2508
 -1       978    8    0    1
 -2       425       568       567      2508      2509      2504
 -1       979    8    0    1
 -2       426       427       569      2087      2510      2511
 -1       980    8    0    1
 -2       426       569       568      2511      2512      2507
 -1       981    8    0    1
 -2       427       428       431      2090      2099      2513
 -1       982    8    0    1
 -2       432       433       570      2106      2514      2515
 -1       983    8    0    1
 -2       433       434       571      2109      2516      2517
 -1       984    8    0    1
 -2       433       571       570      2517      2518      2514
 -1       985    8    0    1
 -2       430       429       572      2096      2519      2520
 -1       986    8    0    1
 -2       429       432       573      2103      2521      2522
 -1       987    8    0    1
 -2       572       429       573      2519      2522      2523
 -1       988    8    0    1
 -2       432       570       573      2515      2524      2521
 -1       989    8    0    1
 -2       434       435       574      2112      2525      2526
 -1       990    8    0    1
 -2       434       574       571      2526      2527      2516
 -1       991    8    0    1
 -2       435       436       575      2115      2528      2529
 -1       992    8    0    1
 -2       435       575       574      2529      2530      2525
 -1       993    8    0    1
 -2       436       437       576      2118      2531      2532
 -1       994    8    0    1
 -2       436       576       575      2532      2533      2528
 -1       995    8    0    1
 -2       437       438       577      2121      2534      2535
 -1       996    8    0    1
 -2       437       577       576      2535      2536      2531
 -1       997    8    0    1
 -2       438       439       578      2124      2537      2538
 -1       998    8    0    1
 -2       438       578       577      2538      2539      2534
 -1       999    8    0    1
 -2       439       440       579      2127      2540      2541
 -1      1000    8    0    1
 -2       439       579       578      2541      2542      2537
 -1      1001    8    0    1
 -2       440       441       580      2130      2543      2544
 -1      1002    8    0    1
 -2       440       580       579      2544      2545      2540
 -1      1003    8    0    1
 -2       443       444       581      2207      2546      2547
 -1      1004    8    0    1
 -2       442       445       582      2209      2548      2549
 -1      1005    8    0    1
 -2       384       385       583      1961      2550      2551
 -1      1006    8    0    1
 -2       385       528       583      2389      2552      2550
 -1      1007    8    0    1
 -2       441       291       382      2208      1951      2553
 -1      1008    8    0    1
 -2       471       443       584      2210      2554      2555
 -1      1009    8    0    1
 -2       445       446       585      2141      2556      2557
 -1      1010    8    0    1
 -2       337       323       586      2205      2558      2559
 -1      1011    8    0    1
 -2       483       337       586      2255      2559      2560
 -1      1012    8    0    1
 -2       323       322       586      1773      2561      2558
 -1      1013    8    0    1
 -2       467       468       587      2212      2562      2563
 -1      1014    8    0    1
 -2       463       464       588      2214      2564      2565
 -1      1015    8    0    1
 -2       454       455       589      2219      2566      2567
 -1      1016    8    0    1
 -2       452       453       590      2220      2568      2569
 -1      1017    8    0    1
 -2       326       327       591      1784      2570      2571
 -1      1018    8    0    1
 -2       474       326       591      2230      2571      2572
 -1      1019    8    0    1
 -2       327       476       591      2236      2573      2570
 -1      1020    8    0    1
 -2       449       450       592      2224      2574      2575
 -1      1021    8    0    1
 -2       455       456       593      2225      2576      2577
 -1      1022    8    0    1
 -2       448       449       594      2223      2578      2579
 -1      1023    8    0    1
 -2       450       451       595      2222      2580      2581
 -1      1024    8    0    1
 -2       451       452       596      2221      2582      2583
 -1      1025    8    0    1
 -2       453       454       597      2160      2584      2585
 -1      1026    8    0    1
 -2       454       589       597      2567      2586      2584
 -1      1027    8    0    1
 -2       460       461       598      2226      2587      2588
 -1      1028    8    0    1
 -2       456       457       599      2167      2589      2590
 -1      1029    8    0    1
 -2       457       458       600      2218      2591      2592
 -1      1030    8    0    1
 -2       457       600       599      2592      2593      2589
 -1      1031    8    0    1
 -2       458       459       601      2172      2594      2595
 -1      1032    8    0    1
 -2       468       469       602      2227      2596      2597
 -1      1033    8    0    1
 -2       459       460       603      2217      2598      2599
 -1      1034    8    0    1
 -2       460       598       603      2588      2600      2598
 -1      1035    8    0    1
 -2       461       462       604      2216      2601      2602
 -1      1036    8    0    1
 -2       462       463       605      2215      2603      2604
 -1      1037    8    0    1
 -2       464       465       606      2185      2605      2606
 -1      1038    8    0    1
 -2       465       466       607      2213      2607      2608
 -1      1039    8    0    1
 -2       466       467       608      2190      2609      2610
 -1      1040    8    0    1
 -2       467       587       608      2563      2611      2609
 -1      1041    8    0    1
 -2       469       470       609      2197      2612      2613
 -1      1042    8    0    1
 -2       470       471       610      2211      2614      2615
 -1      1043    8    0    1
 -2       472       448       611      2204      2616      2617
 -1      1044    8    0    1
 -2       448       594       611      2579      2618      2616
 -1      1045    8    0    1
 -2       335       336       612      1813      2619      2620
 -1      1046    8    0    1
 -2       334       335       612      1808      2620      2621
 -1      1047    8    0    1
 -2       336       473       612      2229      2622      2619
 -1      1048    8    0    1
 -2       444       442       613      2206      2623      2624
 -1      1049    8    0    1
 -2       449       592       594      2575      2625      2578
 -1      1050    8    0    1
 -2       324       475       614      2233      2626      2627
 -1      1051    8    0    1
 -2       324       614       447      2627      2628      2145
 -1      1052    8    0    1
 -2       482       384       583      2252      2551      2629
 -1      1053    8    0    1
 -2       333       334       612      1805      2621      2630
 -1      1054    8    0    1
 -2       613       442       582      2623      2549      2631
 -1      1055    8    0    1
 -2       322       447       615      2144      2632      2633
 -1      1056    8    0    1
 -2       586       322       615      2561      2633      2634
 -1      1057    8    0    1
 -2       447       614       615      2628      2635      2632
 -1      1058    8    0    1
 -2       610       471       584      2614      2555      2636
 -1      1059    8    0    1
 -2       587       468       602      2562      2597      2637
 -1      1060    8    0    1
 -2       446       484       585      2258      2638      2556
 -1      1061    8    0    1
 -2       607       466       608      2607      2610      2639
 -1      1062    8    0    1
 -2       606       465       607      2605      2608      2640
 -1      1063    8    0    1
 -2       605       463       588      2603      2565      2641
 -1      1064    8    0    1
 -2       427       431       569      2513      2642      2510
 -1      1065    8    0    1
 -2       582       445       585      2548      2557      2643
 -1      1066    8    0    1
 -2       431       430       569      2100      2644      2642
 -1      1067    8    0    1
 -2       443       581       584      2547      2645      2554
 -1      1068    8    0    1
 -2       581       444       613      2546      2624      2646
 -1      1069    8    0    1
 -2       602       469       609      2596      2613      2647
 -1      1070    8    0    1
 -2       600       458       601      2591      2595      2648
 -1      1071    8    0    1
 -2       333       612       481      2630      2649      2249
 -1      1072    8    0    1
 -2       569       430       572      2644      2520      2650
 -1      1073    8    0    1
 -2       588       464       606      2564      2606      2651
 -1      1074    8    0    1
 -2       596       452       590      2582      2569      2652
 -1      1075    8    0    1
 -2       595       451       596      2580      2583      2653
 -1      1076    8    0    1
 -2       461       604       598      2602      2654      2587
 -1      1077    8    0    1
 -2       590       453       616      2568      2655      2656
 -1      1078    8    0    1
 -2       453       597       616      2585      2657      2655
 -1      1079    8    0    1
 -2       589       455       617      2566      2658      2659
 -1      1080    8    0    1
 -2       455       593       617      2577      2660      2658
 -1      1081    8    0    1
 -2       593       456       599      2576      2590      2661
 -1      1082    8    0    1
 -2       484       472       611      2257      2617      2662
 -1      1083    8    0    1
 -2       450       595       592      2581      2663      2574
 -1      1084    8    0    1
 -2       601       459       603      2594      2599      2664
 -1      1085    8    0    1
 -2       604       462       605      2601      2604      2665
 -1      1086    8    0    1
 -2       609       470       610      2612      2615      2666
 -1      1087    8    0    1
 -2       441       382       618      2553      2667      2668
 -1      1088    8    0    1
 -2       580       441       618      2543      2668      2669
 -1      1089    8    0    1
 -2       382       381       618      1952      2670      2667
 -1      1090    8    0    1
 -2       618       381       527      2670      2386      2671
 -1      1091    8    0    1
 -2       477       478       619      2242      2672      2673
 -1      1092    8    0    1
 -2       476       477       620      2239      2674      2675
 -1      1093    8    0    1
 -2       477       619       620      2673      2676      2674
 -1      1094    8    0    1
 -2       479       480       621      2248      2677      2678
 -1      1095    8    0    1
 -2       480       481       622      2251      2679      2680
 -1      1096    8    0    1
 -2       480       622       621      2680      2681      2677
 -1      1097    8    0    1
 -2       473       482       623      2254      2682      2683
 -1      1098    8    0    1
 -2       569       572       624      2650      2684      2685
 -1      1099    8    0    1
 -2       569       624       568      2685      2686      2512
 -1      1100    8    0    1
 -2       608       587       625      2611      2687      2688
 -1      1101    8    0    1
 -2       587       602       626      2637      2689      2690
 -1      1102    8    0    1
 -2       587       626       625      2690      2691      2687
 -1      1103    8    0    1
 -2       486       485       627      2264      2692      2693
 -1      1104    8    0    1
 -2       487       486       628      2267      2694      2695
 -1      1105    8    0    1
 -2       486       627       628      2693      2696      2694
 -1      1106    8    0    1
 -2       488       487       629      2270      2697      2698
 -1      1107    8    0    1
 -2       487       628       629      2695      2699      2697
 -1      1108    8    0    1
 -2       489       488       630      2273      2700      2701
 -1      1109    8    0    1
 -2       488       629       630      2698      2702      2700
 -1      1110    8    0    1
 -2       490       489       631      2276      2703      2704
 -1      1111    8    0    1
 -2       489       630       631      2701      2705      2703
 -1      1112    8    0    1
 -2       491       490       632      2279      2706      2707
 -1      1113    8    0    1
 -2       490       631       632      2704      2708      2706
 -1      1114    8    0    1
 -2       492       491       633      2282      2709      2710
 -1      1115    8    0    1
 -2       491       632       633      2707      2711      2709
 -1      1116    8    0    1
 -2       493       492       634      2285      2712      2713
 -1      1117    8    0    1
 -2       492       633       634      2710      2714      2712
 -1      1118    8    0    1
 -2       494       493       635      2288      2715      2716
 -1      1119    8    0    1
 -2       493       634       635      2713      2717      2715
 -1      1120    8    0    1
 -2       495       494       636      2291      2718      2719
 -1      1121    8    0    1
 -2       494       635       636      2716      2720      2718
 -1      1122    8    0    1
 -2       496       495       637      2294      2721      2722
 -1      1123    8    0    1
 -2       495       636       637      2719      2723      2721
 -1      1124    8    0    1
 -2       497       496       638      2297      2724      2725
 -1      1125    8    0    1
 -2       496       637       638      2722      2726      2724
 -1      1126    8    0    1
 -2       498       497       639      2300      2727      2728
 -1      1127    8    0    1
 -2       497       638       639      2725      2729      2727
 -1      1128    8    0    1
 -2       499       498       640      2303      2730      2731
 -1      1129    8    0    1
 -2       498       639       640      2728      2732      2730
 -1      1130    8    0    1
 -2       500       499       641      2306      2733      2734
 -1      1131    8    0    1
 -2       499       640       641      2731      2735      2733
 -1      1132    8    0    1
 -2       501       500       642      2309      2736      2737
 -1      1133    8    0    1
 -2       500       641       642      2734      2738      2736
 -1      1134    8    0    1
 -2       502       501       643      2312      2739      2740
 -1      1135    8    0    1
 -2       501       642       643      2737      2741      2739
 -1      1136    8    0    1
 -2       503       502       644      2315      2742      2743
 -1      1137    8    0    1
 -2       502       643       644      2740      2744      2742
 -1      1138    8    0    1
 -2       504       503       645      2318      2745      2746
 -1      1139    8    0    1
 -2       503       644       645      2743      2747      2745
 -1      1140    8    0    1
 -2       505       504       646      2321      2748      2749
 -1      1141    8    0    1
 -2       504       645       646      2746      2750      2748
 -1      1142    8    0    1
 -2       506       505       647      2324      2751      2752
 -1      1143    8    0    1
 -2       505       646       647      2749      2753      2751
 -1      1144    8    0    1
 -2       507       506       648      2327      2754      2755
 -1      1145    8    0    1
 -2       506       647       648      2752      2756      2754
 -1      1146    8    0    1
 -2       508       507       649      2330      2757      2758
 -1      1147    8    0    1
 -2       507       648       649      2755      2759      2757
 -1      1148    8    0    1
 -2       509       508       650      2333      2760      2761
 -1      1149    8    0    1
 -2       508       649       650      2758      2762      2760
 -1      1150    8    0    1
 -2       510       509       651      2336      2763      2764
 -1      1151    8    0    1
 -2       509       650       651      2761      2765      2763
 -1      1152    8    0    1
 -2       511       510       652      2339      2766      2767
 -1      1153    8    0    1
 -2       510       651       652      2764      2768      2766
 -1      1154    8    0    1
 -2       512       511       653      2342      2769      2770
 -1      1155    8    0    1
 -2       511       652       653      2767      2771      2769
 -1      1156    8    0    1
 -2       513       512       654      2345      2772      2773
 -1      1157    8    0    1
 -2       512       653       654      2770      2774      2772
 -1      1158    8    0    1
 -2       514       513       655      2348      2775      2776
 -1      1159    8    0    1
 -2       515       514       656      2351      2777      2778
 -1      1160    8    0    1
 -2       516       515       657      2354      2779      2780
 -1      1161    8    0    1
 -2       517       516       658      2357      2781      2782
 -1      1162    8    0    1
 -2       518       517       625      2360      2783      2784
 -1      1163    8    0    1
 -2       520       519       659      2366      2785      2786
 -1      1164    8    0    1
 -2       521       520       660      2369      2787      2788
 -1      1165    8    0    1
 -2       520       659       660      2786      2789      2787
 -1      1166    8    0    1
 -2       522       521       661      2372      2790      2791
 -1      1167    8    0    1
 -2       521       660       661      2788      2792      2790
 -1      1168    8    0    1
 -2       523       522       662      2375      2793      2794
 -1      1169    8    0    1
 -2       522       661       662      2791      2795      2793
 -1      1170    8    0    1
 -2       524       523       663      2378      2796      2797
 -1      1171    8    0    1
 -2       523       662       663      2794      2798      2796
 -1      1172    8    0    1
 -2       525       524       664      2381      2799      2800
 -1      1173    8    0    1
 -2       524       663       664      2797      2801      2799
 -1      1174    8    0    1
 -2       526       525       665      2384      2802      2803
 -1      1175    8    0    1
 -2       525       664       665      2800      2804      2802
 -1      1176    8    0    1
 -2       527       526       666      2387      2805      2806
 -1      1177    8    0    1
 -2       526       665       666      2803      2807      2805
 -1      1178    8    0    1
 -2       529       530       667      2395      2808      2809
 -1      1179    8    0    1
 -2       618       527       668      2671      2810      2811
 -1      1180    8    0    1
 -2       527       666       668      2806      2812      2810
 -1      1181    8    0    1
 -2       528       529       669      2392      2813      2814
 -1      1182    8    0    1
 -2       529       667       669      2809      2815      2813
 -1      1183    8    0    1
 -2       531       532       670      2401      2816      2817
 -1      1184    8    0    1
 -2       532       533       671      2404      2818      2819
 -1      1185    8    0    1
 -2       532       671       670      2819      2820      2816
 -1      1186    8    0    1
 -2       533       534       672      2407      2821      2822
 -1      1187    8    0    1
 -2       533       672       671      2822      2823      2818
 -1      1188    8    0    1
 -2       534       535       673      2410      2824      2825
 -1      1189    8    0    1
 -2       534       673       672      2825      2826      2821
 -1      1190    8    0    1
 -2       535       536       674      2413      2827      2828
 -1      1191    8    0    1
 -2       535       674       673      2828      2829      2824
 -1      1192    8    0    1
 -2       536       537       675      2416      2830      2831
 -1      1193    8    0    1
 -2       536       675       674      2831      2832      2827
 -1      1194    8    0    1
 -2       537       538       676      2419      2833      2834
 -1      1195    8    0    1
 -2       537       676       675      2834      2835      2830
 -1      1196    8    0    1
 -2       538       539       677      2422      2836      2837
 -1      1197    8    0    1
 -2       538       677       676      2837      2838      2833
 -1      1198    8    0    1
 -2       539       540       678      2425      2839      2840
 -1      1199    8    0    1
 -2       539       678       677      2840      2841      2836
 -1      1200    8    0    1
 -2       540       541       679      2428      2842      2843
 -1      1201    8    0    1
 -2       540       679       678      2843      2844      2839
 -1      1202    8    0    1
 -2       541       542       680      2431      2845      2846
 -1      1203    8    0    1
 -2       541       680       679      2846      2847      2842
 -1      1204    8    0    1
 -2       542       543       681      2434      2848      2849
 -1      1205    8    0    1
 -2       542       681       680      2849      2850      2845
 -1      1206    8    0    1
 -2       543       544       682      2437      2851      2852
 -1      1207    8    0    1
 -2       543       682       681      2852      2853      2848
 -1      1208    8    0    1
 -2       544       545       683      2440      2854      2855
 -1      1209    8    0    1
 -2       544       683       682      2855      2856      2851
 -1      1210    8    0    1
 -2       545       546       684      2443      2857      2858
 -1      1211    8    0    1
 -2       545       684       683      2858      2859      2854
 -1      1212    8    0    1
 -2       546       547       685      2446      2860      2861
 -1      1213    8    0    1
 -2       546       685       684      2861      2862      2857
 -1      1214    8    0    1
 -2       547       548       686      2449      2863      2864
 -1      1215    8    0    1
 -2       547       686       685      2864      2865      2860
 -1      1216    8    0    1
 -2       548       549       687      2452      2866      2867
 -1      1217    8    0    1
 -2       548       687       686      2867      2868      2863
 -1      1218    8    0    1
 -2       549       550       688      2455      2869      2870
 -1      1219    8    0    1
 -2       549       688       687      2870      2871      2866
 -1      1220    8    0    1
 -2       550       551       689      2458      2872      2873
 -1      1221    8    0    1
 -2       550       689       688      2873      2874      2869
 -1      1222    8    0    1
 -2       551       552       690      2461      2875      2876
 -1      1223    8    0    1
 -2       551       690       689      2876      2877      2872
 -1      1224    8    0    1
 -2       552       553       691      2464      2878      2879
 -1      1225    8    0    1
 -2       552       691       690      2879      2880      2875
 -1      1226    8    0    1
 -2       553       554       692      2467      2881      2882
 -1      1227    8    0    1
 -2       553       692       691      2882      2883      2878
 -1      1228    8    0    1
 -2       554       555       693      2470      2884      2885
 -1      1229    8    0    1
 -2       554       693       692      2885      2886      2881
 -1      1230    8    0    1
 -2       555       556       694      2473      2887      2888
 -1      1231    8    0    1
 -2       555       694       693      2888      2889      2884
 -1      1232    8    0    1
 -2       556       557       695      2476      2890      2891
 -1      1233    8    0    1
 -2       556       695       694      2891      2892      2887
 -1      1234    8    0    1
 -2       557       558       696      2479      2893      2894
 -1      1235    8    0    1
 -2       557       696       695      2894      2895      2890
 -1      1236    8    0    1
 -2       558       559       697      2482      2896      2897
 -1      1237    8    0    1
 -2       558       697       696      2897      2898      2893
 -1      1238    8    0    1
 -2       559       560       698      2485      2899      2900
 -1      1239    8    0    1
 -2       559       698       697      2900      2901      2896
 -1      1240    8    0    1
 -2       560       561       699      2488      2902      2903
 -1      1241    8    0    1
 -2       560       699       698      2903      2904      2899
 -1      1242    8    0    1
 -2       561       562       700      2491      2905      2906
 -1      1243    8    0    1
 -2       561       700       699      2906      2907      2902
 -1      1244    8    0    1
 -2       562       563       701      2494      2908      2909
 -1      1245    8    0    1
 -2       562       701       700      2909      2910      2905
 -1      1246    8    0    1
 -2       563       564       702      2497      2911      2912
 -1      1247    8    0    1
 -2       563       702       701      2912      2913      2908
 -1      1248    8    0    1
 -2       564       565       703      2500      2914      2915
 -1      1249    8    0    1
 -2       564       703       702      2915      2916      2911
 -1      1250    8    0    1
 -2       565       566       704      2503      2917      2918
 -1      1251    8    0    1
 -2       565       704       703      2918      2919      2914
 -1      1252    8    0    1
 -2       566       567       705      2506      2920      2921
 -1      1253    8    0    1
 -2       566       705       704      2921      2922      2917
 -1      1254    8    0    1
 -2       567       568       706      2509      2923      2924
 -1      1255    8    0    1
 -2       705       567       706      2920      2924      2925
 -1      1256    8    0    1
 -2       568       624       706      2686      2926      2923
 -1      1257    8    0    1
 -2       582       585       707      2643      2927      2928
 -1      1258    8    0    1
 -2       574       575       708      2530      2929      2930
 -1      1259    8    0    1
 -2       588       606       656      2651      2931      2932
 -1      1260    8    0    1
 -2       570       571       709      2518      2933      2934
 -1      1261    8    0    1
 -2       575       576       710      2533      2935      2936
 -1      1262    8    0    1
 -2       575       710       708      2936      2937      2929
 -1      1263    8    0    1
 -2       571       574       711      2527      2938      2939
 -1      1264    8    0    1
 -2       709       571       711      2933      2939      2940
 -1      1265    8    0    1
 -2       574       708       711      2930      2941      2938
 -1      1266    8    0    1
 -2       603       598       712      2600      2942      2943
 -1      1267    8    0    1
 -2       576       577       713      2536      2944      2945
 -1      1268    8    0    1
 -2       576       713       710      2945      2946      2935
 -1      1269    8    0    1
 -2       577       578       714      2539      2947      2948
 -1      1270    8    0    1
 -2       577       714       713      2948      2949      2944
 -1      1271    8    0    1
 -2       578       579       715      2542      2950      2951
 -1      1272    8    0    1
 -2       578       715       714      2951      2952      2947
 -1      1273    8    0    1
 -2       607       608       658      2639      2953      2954
 -1      1274    8    0    1
 -2       481       612       473      2649      2622      2955
 -1      1275    8    0    1
 -2       581       613       716      2646      2956      2957
 -1      1276    8    0    1
 -2       483       586       717      2560      2958      2959
 -1      1277    8    0    1
 -2       586       615       717      2634      2960      2958
 -1      1278    8    0    1
 -2       611       594       718      2618      2961      2962
 -1      1279    8    0    1
 -2       597       589       719      2586      2963      2964
 -1      1280    8    0    1
 -2       584       581       720      2645      2965      2966
 -1      1281    8    0    1
 -2       610       584       721      2636      2967      2968
 -1      1282    8    0    1
 -2       595       596       722      2653      2969      2970
 -1      1283    8    0    1
 -2       583       528       723      2552      2971      2972
 -1      1284    8    0    1
 -2       528       669       723      2814      2973      2971
 -1      1285    8    0    1
 -2       530       531       724      2398      2974      2975
 -1      1286    8    0    1
 -2       667       530       724      2808      2975      2976
 -1      1287    8    0    1
 -2       531       670       724      2817      2977      2974
 -1      1288    8    0    1
 -2       485       483       725      2261      2978      2979
 -1      1289    8    0    1
 -2       627       485       725      2692      2979      2980
 -1      1290    8    0    1
 -2       483       717       725      2959      2981      2978
 -1      1291    8    0    1
 -2       600       601       726      2648      2982      2983
 -1      1292    8    0    1
 -2       482       583       727      2629      2984      2985
 -1      1293    8    0    1
 -2       623       482       727      2682      2985      2986
 -1      1294    8    0    1
 -2       583       723       727      2972      2987      2984
 -1      1295    8    0    1
 -2       478       479       728      2245      2988      2989
 -1      1296    8    0    1
 -2       619       478       728      2672      2989      2990
 -1      1297    8    0    1
 -2       479       621       728      2678      2991      2988
 -1      1298    8    0    1
 -2       593       599       729      2661      2992      2993
 -1      1299    8    0    1
 -2       613       582       730      2631      2994      2995
 -1      1300    8    0    1
 -2       613       730       716      2995      2996      2956
 -1      1301    8    0    1
 -2       598       604       731      2654      2997      2998
 -1      1302    8    0    1
 -2       475       474       732      2234      2999      3000
 -1      1303    8    0    1
 -2       484       611       733      2662      3001      3002
 -1      1304    8    0    1
 -2       599       600       734      2593      3003      3004
 -1      1305    8    0    1
 -2       585       484       735      2638      3005      3006
 -1      1306    8    0    1
 -2       601       603       736      2664      3007      3008
 -1      1307    8    0    1
 -2       604       605       737      2665      3009      3010
 -1      1308    8    0    1
 -2       609       610       738      2666      3011      3012
 -1      1309    8    0    1
 -2       596       590       739      2652      3013      3014
 -1      1310    8    0    1
 -2       596       739       722      3014      3015      2969
 -1      1311    8    0    1
 -2       605       588       740      2641      3016      3017
 -1      1312    8    0    1
 -2       606       607       657      2640      3018      3019
 -1      1313    8    0    1
 -2       602       609       741      2647      3020      3021
 -1      1314    8    0    1
 -2       580       618       668      2669      2811      3022
 -1      1315    8    0    1
 -2       592       595       742      2663      3023      3024
 -1      1316    8    0    1
 -2       594       592       743      2625      3025      3026
 -1      1317    8    0    1
 -2       614       475       744      2626      3027      3028
 -1      1318    8    0    1
 -2       475       732       744      3000      3029      3027
 -1      1319    8    0    1
 -2       743       592       742      3025      3024      3030
 -1      1320    8    0    1
 -2       476       620       745      2675      3031      3032
 -1      1321    8    0    1
 -2       476       745       591      3032      3033      2573
 -1      1322    8    0    1
 -2       582       707       730      2928      3034      2994
 -1      1323    8    0    1
 -2       514       655       656      2776      3035      2777
 -1      1324    8    0    1
 -2       741       609       738      3020      3012      3036
 -1      1325    8    0    1
 -2       739       590       746      3013      3037      3038
 -1      1326    8    0    1
 -2       590       616       746      2656      3039      3037
 -1      1327    8    0    1
 -2       737       605       740      3009      3017      3040
 -1      1328    8    0    1
 -2       736       603       712      3007      2943      3041
 -1      1329    8    0    1
 -2       735       484       747      3005      3042      3043
 -1      1330    8    0    1
 -2       484       733       747      3002      3044      3042
 -1      1331    8    0    1
 -2       593       729       748      2993      3045      3046
 -1      1332    8    0    1
 -2       593       748       617      3046      3047      2660
 -1      1333    8    0    1
 -2       734       600       726      3003      2983      3048
 -1      1334    8    0    1
 -2       726       601       736      2982      3008      3049
 -1      1335    8    0    1
 -2       513       654       655      2773      3050      2775
 -1      1336    8    0    1
 -2       515       656       657      2778      3051      2779
 -1      1337    8    0    1
 -2       516       657       658      2780      3052      2781
 -1      1338    8    0    1
 -2       517       658       625      2782      3053      2783
 -1      1339    8    0    1
 -2       518       625       749      2784      3054      3055
 -1      1340    8    0    1
 -2       519       518       749      2363      3055      3056
 -1      1341    8    0    1
 -2       625       626       749      2691      3057      3054
 -1      1342    8    0    1
 -2       707       585       735      2927      3006      3058
 -1      1343    8    0    1
 -2       608       625       658      2688      3053      2953
 -1      1344    8    0    1
 -2       721       584       720      2967      2966      3059
 -1      1345    8    0    1
 -2       570       709       750      2934      3060      3061
 -1      1346    8    0    1
 -2       570       750       573      3061      3062      2524
 -1      1347    8    0    1
 -2       572       573       624      2523      3063      2684
 -1      1348    8    0    1
 -2       720       581       716      2965      2957      3064
 -1      1349    8    0    1
 -2       719       589       617      2963      2659      3065
 -1      1350    8    0    1
 -2       607       658       657      2954      3052      3018
 -1      1351    8    0    1
 -2       579       580       668      2545      3022      3066
 -1      1352    8    0    1
 -2       611       718       733      2962      3067      3001
 -1      1353    8    0    1
 -2       712       598       731      2942      2998      3068
 -1      1354    8    0    1
 -2       656       606       657      2931      3019      3051
 -1      1355    8    0    1
 -2       481       473       623      2955      2683      3069
 -1      1356    8    0    1
 -2       718       594       743      2961      3026      3070
 -1      1357    8    0    1
 -2       597       719       616      2964      3071      2657
 -1      1358    8    0    1
 -2       610       721       738      2968      3072      3011
 -1      1359    8    0    1
 -2       659       519       749      2785      3056      3073
 -1      1360    8    0    1
 -2       595       722       742      2970      3074      3023
 -1      1361    8    0    1
 -2       474       591       751      2572      3075      3076
 -1      1362    8    0    1
 -2       732       474       751      2999      3076      3077
 -1      1363    8    0    1
 -2       591       745       751      3033      3078      3075
 -1      1364    8    0    1
 -2       731       604       737      2997      3010      3079
 -1      1365    8    0    1
 -2       599       734       729      3004      3080      2992
 -1      1366    8    0    1
 -2       626       602       741      2689      3021      3081
 -1      1367    8    0    1
 -2       622       481       623      2679      3069      3082
 -1      1368    8    0    1
 -2       579       668       752      3066      3083      3084
 -1      1369    8    0    1
 -2       715       579       752      2950      3084      3085
 -1      1370    8    0    1
 -2       668       666       752      2812      3086      3083
 -1      1371    8    0    1
 -2       718       743       753      3070      3087      3088
 -1      1372    8    0    1
 -2       621       622       754      2681      3089      3090
 -1      1373    8    0    1
 -2       615       614       755      2635      3091      3092
 -1      1374    8    0    1
 -2       717       615       755      2960      3092      3093
 -1      1375    8    0    1
 -2       614       744       755      3028      3094      3091
 -1      1376    8    0    1
 -2       707       735       756      3058      3095      3096
 -1      1377    8    0    1
 -2       723       669       757      2973      3097      3098
 -1      1378    8    0    1
 -2       629       628       758      2699      3099      3100
 -1      1379    8    0    1
 -2       630       629       759      2702      3101      3102
 -1      1380    8    0    1
 -2       629       758       759      3100      3103      3101
 -1      1381    8    0    1
 -2       631       630       760      2705      3104      3105
 -1      1382    8    0    1
 -2       630       759       760      3102      3106      3104
 -1      1383    8    0    1
 -2       632       631       761      2708      3107      3108
 -1      1384    8    0    1
 -2       631       760       761      3105      3109      3107
 -1      1385    8    0    1
 -2       633       632       762      2711      3110      3111
 -1      1386    8    0    1
 -2       632       761       762      3108      3112      3110
 -1      1387    8    0    1
 -2       634       633       763      2714      3113      3114
 -1      1388    8    0    1
 -2       633       762       763      3111      3115      3113
 -1      1389    8    0    1
 -2       635       634       764      2717      3116      3117
 -1      1390    8    0    1
 -2       634       763       764      3114      3118      3116
 -1      1391    8    0    1
 -2       636       635       765      2720      3119      3120
 -1      1392    8    0    1
 -2       635       764       765      3117      3121      3119
 -1      1393    8    0    1
 -2       637       636       766      2723      3122      3123
 -1      1394    8    0    1
 -2       636       765       766      3120      3124      3122
 -1      1395    8    0    1
 -2       638       637       767      2726      3125      3126
 -1      1396    8    0    1
 -2       637       766       767      3123      3127      3125
 -1      1397    8    0    1
 -2       639       638       768      2729      3128      3129
 -1      1398    8    0    1
 -2       638       767       768      3126      3130      3128
 -1      1399    8    0    1
 -2       640       639       769      2732      3131      3132
 -1      1400    8    0    1
 -2       639       768       769      3129      3133      3131
 -1      1401    8    0    1
 -2       641       640       770      2735      3134      3135
 -1      1402    8    0    1
 -2       640       769       770      3132      3136      3134
 -1      1403    8    0    1
 -2       642       641       771      2738      3137      3138
 -1      1404    8    0    1
 -2       641       770       771      3135      3139      3137
 -1      1405    8    0    1
 -2       643       642       772      2741      3140      3141
 -1      1406    8    0    1
 -2       642       771       772      3138      3142      3140
 -1      1407    8    0    1
 -2       644       643       773      2744      3143      3144
 -1      1408    8    0    1
 -2       643       772       773      3141      3145      3143
 -1      1409    8    0    1
 -2       645       644       774      2747      3146      3147
 -1      1410    8    0    1
 -2       644       773       774      3144      3148      3146
 -1      1411    8    0    1
 -2       646       645       775      2750      3149      3150
 -1      1412    8    0    1
 -2       645       774       775      3147      3151      3149
 -1      1413    8    0    1
 -2       647       646       776      2753      3152      3153
 -1      1414    8    0    1
 -2       646       775       776      3150      3154      3152
 -1      1415    8    0    1
 -2       648       647       777      2756      3155      3156
 -1      1416    8    0    1
 -2       647       776       777      3153      3157      3155
 -1      1417    8    0    1
 -2       649       648       778      2759      3158      3159
 -1      1418    8    0    1
 -2       648       777       778      3156      3160      3158
 -1      1419    8    0    1
 -2       650       649       779      2762      3161      3162
 -1      1420    8    0    1
 -2       649       778       779      3159      3163      3161
 -1      1421    8    0    1
 -2       651       650       780      2765      3164      3165
 -1      1422    8    0    1
 -2       650       779       780      3162      3166      3164
 -1      1423    8    0    1
 -2       652       651       781      2768      3167      3168
 -1      1424    8    0    1
 -2       651       780       781      3165      3169      3167
 -1      1425    8    0    1
 -2       653       652       782      2771      3170      3171
 -1      1426    8    0    1
 -2       652       781       782      3168      3172      3170
 -1      1427    8    0    1
 -2       749       626       783      3057      3173      3174
 -1      1428    8    0    1
 -2       659       749       783      3073      3174      3175
 -1      1429    8    0    1
 -2       626       741       783      3081      3176      3173
 -1      1430    8    0    1
 -2       661       660       784      2792      3177      3178
 -1      1431    8    0    1
 -2       662       661       785      2795      3179      3180
 -1      1432    8    0    1
 -2       661       784       785      3178      3181      3179
 -1      1433    8    0    1
 -2       663       662       786      2798      3182      3183
 -1      1434    8    0    1
 -2       662       785       786      3180      3184      3182
 -1      1435    8    0    1
 -2       664       663       787      2801      3185      3186
 -1      1436    8    0    1
 -2       663       786       787      3183      3187      3185
 -1      1437    8    0    1
 -2       665       664       788      2804      3188      3189
 -1      1438    8    0    1
 -2       664       787       788      3186      3190      3188
 -1      1439    8    0    1
 -2       666       665       789      2807      3191      3192
 -1      1440    8    0    1
 -2       752       666       789      3086      3192      3193
 -1      1441    8    0    1
 -2       665       788       789      3189      3194      3191
 -1      1442    8    0    1
 -2       669       667       790      2815      3195      3196
 -1      1443    8    0    1
 -2       669       790       757      3196      3197      3097
 -1      1444    8    0    1
 -2       736       712       791      3041      3198      3199
 -1      1445    8    0    1
 -2       671       672       792      2823      3200      3201
 -1      1446    8    0    1
 -2       670       671       793      2820      3202      3203
 -1      1447    8    0    1
 -2       671       792       793      3201      3204      3202
 -1      1448    8    0    1
 -2       673       674       794      2829      3205      3206
 -1      1449    8    0    1
 -2       674       675       795      2832      3207      3208
 -1      1450    8    0    1
 -2       674       795       794      3208      3209      3205
 -1      1451    8    0    1
 -2       675       676       796      2835      3210      3211
 -1      1452    8    0    1
 -2       675       796       795      3211      3212      3207
 -1      1453    8    0    1
 -2       676       677       797      2838      3213      3214
 -1      1454    8    0    1
 -2       676       797       796      3214      3215      3210
 -1      1455    8    0    1
 -2       677       678       798      2841      3216      3217
 -1      1456    8    0    1
 -2       677       798       797      3217      3218      3213
 -1      1457    8    0    1
 -2       678       679       799      2844      3219      3220
 -1      1458    8    0    1
 -2       678       799       798      3220      3221      3216
 -1      1459    8    0    1
 -2       679       680       800      2847      3222      3223
 -1      1460    8    0    1
 -2       679       800       799      3223      3224      3219
 -1      1461    8    0    1
 -2       680       681       801      2850      3225      3226
 -1      1462    8    0    1
 -2       680       801       800      3226      3227      3222
 -1      1463    8    0    1
 -2       681       682       802      2853      3228      3229
 -1      1464    8    0    1
 -2       681       802       801      3229      3230      3225
 -1      1465    8    0    1
 -2       682       683       803      2856      3231      3232
 -1      1466    8    0    1
 -2       682       803       802      3232      3233      3228
 -1      1467    8    0    1
 -2       683       684       804      2859      3234      3235
 -1      1468    8    0    1
 -2       683       804       803      3235      3236      3231
 -1      1469    8    0    1
 -2       684       685       805      2862      3237      3238
 -1      1470    8    0    1
 -2       684       805       804      3238      3239      3234
 -1      1471    8    0    1
 -2       685       686       806      2865      3240      3241
 -1      1472    8    0    1
 -2       685       806       805      3241      3242      3237
 -1      1473    8    0    1
 -2       686       687       807      2868      3243      3244
 -1      1474    8    0    1
 -2       686       807       806      3244      3245      3240
 -1      1475    8    0    1
 -2       687       688       808      2871      3246      3247
 -1      1476    8    0    1
 -2       687       808       807      3247      3248      3243
 -1      1477    8    0    1
 -2       688       689       809      2874      3249      3250
 -1      1478    8    0    1
 -2       688       809       808      3250      3251      3246
 -1      1479    8    0    1
 -2       689       690       810      2877      3252      3253
 -1      1480    8    0    1
 -2       689       810       809      3253      3254      3249
 -1      1481    8    0    1
 -2       690       691       811      2880      3255      3256
 -1      1482    8    0    1
 -2       690       811       810      3256      3257      3252
 -1      1483    8    0    1
 -2       691       692       812      2883      3258      3259
 -1      1484    8    0    1
 -2       691       812       811      3259      3260      3255
 -1      1485    8    0    1
 -2       692       693       813      2886      3261      3262
 -1      1486    8    0    1
 -2       692       813       812      3262      3263      3258
 -1      1487    8    0    1
 -2       694       695       814      2892      3264      3265
 -1      1488    8    0    1
 -2       695       696       753      2895      3266      3267
 -1      1489    8    0    1
 -2       697       698       815      2901      3268      3269
 -1      1490    8    0    1
 -2       698       699       816      2904      3270      3271
 -1      1491    8    0    1
 -2       698       816       815      3271      3272      3268
 -1      1492    8    0    1
 -2       699       700       817      2907      3273      3274
 -1      1493    8    0    1
 -2       699       817       816      3274      3275      3270
 -1      1494    8    0    1
 -2       700       701       818      2910      3276      3277
 -1      1495    8    0    1
 -2       700       818       817      3277      3278      3273
 -1      1496    8    0    1
 -2       701       702       819      2913      3279      3280
 -1      1497    8    0    1
 -2       701       819       818      3280      3281      3276
 -1      1498    8    0    1
 -2       702       703       820      2916      3282      3283
 -1      1499    8    0    1
 -2       702       820       819      3283      3284      3279
 -1      1500    8    0    1
 -2       703       704       821      2919      3285      3286
 -1      1501    8    0    1
 -2       703       821       820      3286      3287      3282
 -1      1502    8    0    1
 -2       704       705       822      2922      3288      3289
 -1      1503    8    0    1
 -2       704       822       821      3289      3290      3285
 -1      1504    8    0    1
 -2       588       656       740      2932      3291      3016
 -1      1505    8    0    1
 -2       708       710       823      2937      3292      3293
 -1      1506    8    0    1
 -2       714       715       824      2952      3294      3295
 -1      1507    8    0    1
 -2       710       713       825      2946      3296      3297
 -1      1508    8    0    1
 -2       710       825       823      3297      3298      3292
 -1      1509    8    0    1
 -2       721       720       826      3059      3299      3300
 -1      1510    8    0    1
 -2       620       619       827      2676      3301      3302
 -1      1511    8    0    1
 -2       713       714       828      2949      3303      3304
 -1      1512    8    0    1
 -2       825       713       828      3296      3304      3305
 -1      1513    8    0    1
 -2       714       824       828      3295      3306      3303
 -1      1514    8    0    1
 -2       672       673       829      2826      3307      3308
 -1      1515    8    0    1
 -2       792       672       829      3200      3308      3309
 -1      1516    8    0    1
 -2       673       794       829      3206      3310      3307
 -1      1517    8    0    1
 -2       726       736       830      3049      3311      3312
 -1      1518    8    0    1
 -2       660       659       831      2789      3313      3314
 -1      1519    8    0    1
 -2       660       831       784      3314      3315      3177
 -1      1520    8    0    1
 -2       742       722       832      3074      3316      3317
 -1      1521    8    0    1
 -2       738       721       833      3072      3318      3319
 -1      1522    8    0    1
 -2       730       707       834      3034      3320      3321
 -1      1523    8    0    1
 -2       734       726       835      3048      3322      3323
 -1      1524    8    0    1
 -2       624       573       750      3063      3062      3324
 -1      1525    8    0    1
 -2       712       731       836      3068      3325      3326
 -1      1526    8    0    1
 -2       741       738       837      3036      3327      3328
 -1      1527    8    0    1
 -2       716       730       838      2996      3329      3330
 -1      1528    8    0    1
 -2       730       834       838      3321      3331      3329
 -1      1529    8    0    1
 -2       628       627       839      2696      3332      3333
 -1      1530    8    0    1
 -2       628       839       758      3333      3334      3099
 -1      1531    8    0    1
 -2       743       742       814      3030      3335      3336
 -1      1532    8    0    1
 -2       729       734       840      3080      3337      3338
 -1      1533    8    0    1
 -2       720       716       841      3064      3339      3340
 -1      1534    8    0    1
 -2       722       739       813      3015      3341      3342
 -1      1535    8    0    1
 -2       622       623       842      3082      3343      3344
 -1      1536    8    0    1
 -2       754       622       842      3089      3344      3345
 -1      1537    8    0    1
 -2       623       727       842      2986      3346      3343
 -1      1538    8    0    1
 -2       733       718       843      3067      3347      3348
 -1      1539    8    0    1
 -2       718       753       843      3088      3349      3347
 -1      1540    8    0    1
 -2       616       719       844      3071      3350      3351
 -1      1541    8    0    1
 -2       719       617       845      3065      3352      3353
 -1      1542    8    0    1
 -2       745       620       846      3031      3354      3355
 -1      1543    8    0    1
 -2       620       827       846      3302      3356      3354
 -1      1544    8    0    1
 -2       621       754       847      3090      3357      3358
 -1      1545    8    0    1
 -2       621       847       728      3358      3359      2991
 -1      1546    8    0    1
 -2       717       755       848      3093      3360      3361
 -1      1547    8    0    1
 -2       717       848       725      3361      3362      2981
 -1      1548    8    0    1
 -2       746       616       844      3039      3351      3363
 -1      1549    8    0    1
 -2       736       791       830      3199      3364      3311
 -1      1550    8    0    1
 -2       747       733       843      3044      3348      3365
 -1      1551    8    0    1
 -2       748       729       849      3045      3366      3367
 -1      1552    8    0    1
 -2       729       840       849      3338      3368      3366
 -1      1553    8    0    1
 -2       653       782       836      3171      3369      3370
 -1      1554    8    0    1
 -2       659       783       831      3175      3371      3313
 -1      1555    8    0    1
 -2       783       741       837      3176      3328      3372
 -1      1556    8    0    1
 -2       654       653       731      2774      3373      3374
 -1      1557    8    0    1
 -2       715       752       850      3085      3375      3376
 -1      1558    8    0    1
 -2       824       715       850      3294      3376      3377
 -1      1559    8    0    1
 -2       752       789       850      3193      3378      3375
 -1      1560    8    0    1
 -2       627       725       848      2980      3362      3379
 -1      1561    8    0    1
 -2       667       724       851      2976      3380      3381
 -1      1562    8    0    1
 -2       667       851       790      3381      3382      3195
 -1      1563    8    0    1
 -2       627       848       839      3379      3383      3332
 -1      1564    8    0    1
 -2       731       737       654      3079      3384      3374
 -1      1565    8    0    1
 -2       791       712       836      3198      3326      3385
 -1      1566    8    0    1
 -2       726       830       835      3312      3386      3322
 -1      1567    8    0    1
 -2       670       793       852      3203      3387      3388
 -1      1568    8    0    1
 -2       670       852       724      3388      3389      2977
 -1      1569    8    0    1
 -2       813       693       832      3261      3390      3391
 -1      1570    8    0    1
 -2       814       695       753      3264      3267      3392
 -1      1571    8    0    1
 -2       693       694       832      2889      3393      3390
 -1      1572    8    0    1
 -2       832       694       814      3393      3265      3394
 -1      1573    8    0    1
 -2       696       697       853      2898      3395      3396
 -1      1574    8    0    1
 -2       822       705       854      3288      3397      3398
 -1      1575    8    0    1
 -2       705       706       854      2925      3399      3397
 -1      1576    8    0    1
 -2       706       624       855      2926      3400      3401
 -1      1577    8    0    1
 -2       624       750       855      3324      3402      3400
 -1      1578    8    0    1
 -2       709       711       856      2940      3403      3404
 -1      1579    8    0    1
 -2       750       709       857      3060      3405      3406
 -1      1580    8    0    1
 -2       855       750       857      3402      3406      3407
 -1      1581    8    0    1
 -2       709       856       857      3404      3408      3405
 -1      1582    8    0    1
 -2       735       747       858      3043      3409      3410
 -1      1583    8    0    1
 -2       735       858       756      3410      3411      3095
 -1      1584    8    0    1
 -2       721       826       833      3300      3412      3318
 -1      1585    8    0    1
 -2       711       708       859      2941      3413      3414
 -1      1586    8    0    1
 -2       708       823       859      3293      3415      3413
 -1      1587    8    0    1
 -2       826       720       841      3299      3340      3416
 -1      1588    8    0    1
 -2       813       739       812      3341      3417      3263
 -1      1589    8    0    1
 -2       753       743       814      3087      3336      3392
 -1      1590    8    0    1
 -2       840       734       835      3337      3323      3418
 -1      1591    8    0    1
 -2       837       738       833      3327      3319      3419
 -1      1592    8    0    1
 -2       834       707       756      3320      3096      3420
 -1      1593    8    0    1
 -2       827       619       860      3301      3421      3422
 -1      1594    8    0    1
 -2       619       728       860      2990      3423      3421
 -1      1595    8    0    1
 -2       832       722       813      3316      3342      3391
 -1      1596    8    0    1
 -2       742       832       814      3317      3394      3335
 -1      1597    8    0    1
 -2       727       723       861      2987      3424      3425
 -1      1598    8    0    1
 -2       842       727       861      3346      3425      3426
 -1      1599    8    0    1
 -2       723       757       861      3098      3427      3424
 -1      1600    8    0    1
 -2       841       716       838      3339      3330      3428
 -1      1601    8    0    1
 -2       654       737       655      3384      3429      3050
 -1      1602    8    0    1
 -2       731       653       836      3373      3370      3325
 -1      1603    8    0    1
 -2       853       697       815      3395      3269      3430
 -1      1604    8    0    1
 -2       655       737       740      3429      3040      3431
 -1      1605    8    0    1
 -2       617       748       845      3047      3432      3352
 -1      1606    8    0    1
 -2       844       719       862      3350      3433      3434
 -1      1607    8    0    1
 -2       719       845       862      3353      3435      3433
 -1      1608    8    0    1
 -2       732       751       863      3077      3436      3437
 -1      1609    8    0    1
 -2       732       863       864      3437      3438      3439
 -1      1610    8    0    1
 -2       732       864       744      3439      3440      3029
 -1      1611    8    0    1
 -2       848       755       744      3360      3094      3441
 -1      1612    8    0    1
 -2       841       838       865      3428      3442      3443
 -1      1613    8    0    1
 -2       831       783       837      3371      3372      3444
 -1      1614    8    0    1
 -2       760       759       866      3106      3445      3446
 -1      1615    8    0    1
 -2       761       760       867      3109      3447      3448
 -1      1616    8    0    1
 -2       760       866       867      3446      3449      3447
 -1      1617    8    0    1
 -2       762       761       868      3112      3450      3451
 -1      1618    8    0    1
 -2       761       867       868      3448      3452      3450
 -1      1619    8    0    1
 -2       763       762       869      3115      3453      3454
 -1      1620    8    0    1
 -2       762       868       869      3451      3455      3453
 -1      1621    8    0    1
 -2       764       763       870      3118      3456      3457
 -1      1622    8    0    1
 -2       763       869       870      3454      3458      3456
 -1      1623    8    0    1
 -2       765       764       871      3121      3459      3460
 -1      1624    8    0    1
 -2       764       870       871      3457      3461      3459
 -1      1625    8    0    1
 -2       766       765       872      3124      3462      3463
 -1      1626    8    0    1
 -2       765       871       872      3460      3464      3462
 -1      1627    8    0    1
 -2       767       766       873      3127      3465      3466
 -1      1628    8    0    1
 -2       766       872       873      3463      3467      3465
 -1      1629    8    0    1
 -2       768       767       874      3130      3468      3469
 -1      1630    8    0    1
 -2       767       873       874      3466      3470      3468
 -1      1631    8    0    1
 -2       769       768       875      3133      3471      3472
 -1      1632    8    0    1
 -2       768       874       875      3469      3473      3471
 -1      1633    8    0    1
 -2       770       769       876      3136      3474      3475
 -1      1634    8    0    1
 -2       769       875       876      3472      3476      3474
 -1      1635    8    0    1
 -2       771       770       877      3139      3477      3478
 -1      1636    8    0    1
 -2       770       876       877      3475      3479      3477
 -1      1637    8    0    1
 -2       772       771       878      3142      3480      3481
 -1      1638    8    0    1
 -2       771       877       878      3478      3482      3480
 -1      1639    8    0    1
 -2       773       772       879      3145      3483      3484
 -1      1640    8    0    1
 -2       772       878       879      3481      3485      3483
 -1      1641    8    0    1
 -2       774       773       880      3148      3486      3487
 -1      1642    8    0    1
 -2       773       879       880      3484      3488      3486
 -1      1643    8    0    1
 -2       775       774       881      3151      3489      3490
 -1      1644    8    0    1
 -2       774       880       881      3487      3491      3489
 -1      1645    8    0    1
 -2       776       775       882      3154      3492      3493
 -1      1646    8    0    1
 -2       775       881       882      3490      3494      3492
 -1      1647    8    0    1
 -2       777       776       883      3157      3495      3496
 -1      1648    8    0    1
 -2       776       882       883      3493      3497      3495
 -1      1649    8    0    1
 -2       778       777       884      3160      3498      3499
 -1      1650    8    0    1
 -2       777       883       884      3496      3500      3498
 -1      1651    8    0    1
 -2       779       778       885      3163      3501      3502
 -1      1652    8    0    1
 -2       778       884       885      3499      3503      3501
 -1      1653    8    0    1
 -2       780       779       886      3166      3504      3505
 -1      1654    8    0    1
 -2       779       885       886      3502      3506      3504
 -1      1655    8    0    1
 -2       781       780       887      3169      3507      3508
 -1      1656    8    0    1
 -2       780       886       887      3505      3509      3507
 -1      1657    8    0    1
 -2       785       784       888      3181      3510      3511
 -1      1658    8    0    1
 -2       786       785       889      3184      3512      3513
 -1      1659    8    0    1
 -2       785       888       889      3511      3514      3512
 -1      1660    8    0    1
 -2       787       786       890      3187      3515      3516
 -1      1661    8    0    1
 -2       786       889       890      3513      3517      3515
 -1      1662    8    0    1
 -2       788       787       891      3190      3518      3519
 -1      1663    8    0    1
 -2       787       890       891      3516      3520      3518
 -1      1664    8    0    1
 -2       746       844       892      3363      3521      3522
 -1      1665    8    0    1
 -2       795       796       893      3212      3523      3524
 -1      1666    8    0    1
 -2       794       795       894      3209      3525      3526
 -1      1667    8    0    1
 -2       795       893       894      3524      3527      3525
 -1      1668    8    0    1
 -2       797       798       895      3218      3528      3529
 -1      1669    8    0    1
 -2       798       799       896      3221      3530      3531
 -1      1670    8    0    1
 -2       798       896       895      3531      3532      3528
 -1      1671    8    0    1
 -2       799       800       897      3224      3533      3534
 -1      1672    8    0    1
 -2       799       897       896      3534      3535      3530
 -1      1673    8    0    1
 -2       800       801       898      3227      3536      3537
 -1      1674    8    0    1
 -2       800       898       897      3537      3538      3533
 -1      1675    8    0    1
 -2       801       802       899      3230      3539      3540
 -1      1676    8    0    1
 -2       801       899       898      3540      3541      3536
 -1      1677    8    0    1
 -2       802       803       900      3233      3542      3543
 -1      1678    8    0    1
 -2       802       900       899      3543      3544      3539
 -1      1679    8    0    1
 -2       803       804       901      3236      3545      3546
 -1      1680    8    0    1
 -2       803       901       900      3546      3547      3542
 -1      1681    8    0    1
 -2       804       805       902      3239      3548      3549
 -1      1682    8    0    1
 -2       804       902       901      3549      3550      3545
 -1      1683    8    0    1
 -2       805       806       903      3242      3551      3552
 -1      1684    8    0    1
 -2       805       903       902      3552      3553      3548
 -1      1685    8    0    1
 -2       806       807       904      3245      3554      3555
 -1      1686    8    0    1
 -2       806       904       903      3555      3556      3551
 -1      1687    8    0    1
 -2       807       808       905      3248      3557      3558
 -1      1688    8    0    1
 -2       807       905       904      3558      3559      3554
 -1      1689    8    0    1
 -2       808       809       906      3251      3560      3561
 -1      1690    8    0    1
 -2       808       906       905      3561      3562      3557
 -1      1691    8    0    1
 -2       809       810       907      3254      3563      3564
 -1      1692    8    0    1
 -2       809       907       906      3564      3565      3560
 -1      1693    8    0    1
 -2       810       811       908      3257      3566      3567
 -1      1694    8    0    1
 -2       810       908       907      3567      3568      3563
 -1      1695    8    0    1
 -2       811       812       892      3260      3569      3570
 -1      1696    8    0    1
 -2       840       835       909      3418      3571      3572
 -1      1697    8    0    1
 -2       815       816       858      3272      3573      3574
 -1      1698    8    0    1
 -2       818       819       910      3281      3575      3576
 -1      1699    8    0    1
 -2       819       820       911      3284      3577      3578
 -1      1700    8    0    1
 -2       819       911       910      3578      3579      3575
 -1      1701    8    0    1
 -2       820       821       912      3287      3580      3581
 -1      1702    8    0    1
 -2       820       912       911      3581      3582      3577
 -1      1703    8    0    1
 -2       821       822       913      3290      3583      3584
 -1      1704    8    0    1
 -2       821       913       912      3584      3585      3580
 -1      1705    8    0    1
 -2       856       711       859      3403      3414      3586
 -1      1706    8    0    1
 -2       823       825       914      3298      3587      3588
 -1      1707    8    0    1
 -2       833       826       915      3412      3589      3590
 -1      1708    8    0    1
 -2       838       834       916      3331      3591      3592
 -1      1709    8    0    1
 -2       784       831       917      3315      3593      3594
 -1      1710    8    0    1
 -2       784       917       888      3594      3595      3510
 -1      1711    8    0    1
 -2       830       791       887      3364      3596      3597
 -1      1712    8    0    1
 -2       817       818       918      3278      3598      3599
 -1      1713    8    0    1
 -2       818       910       918      3576      3600      3598
 -1      1714    8    0    1
 -2       835       830       919      3386      3601      3602
 -1      1715    8    0    1
 -2       909       835       919      3571      3602      3603
 -1      1716    8    0    1
 -2       830       887       919      3597      3604      3601
 -1      1717    8    0    1
 -2       816       817       920      3275      3605      3606
 -1      1718    8    0    1
 -2       858       816       920      3573      3606      3607
 -1      1719    8    0    1
 -2       817       918       920      3599      3608      3605
 -1      1720    8    0    1
 -2       834       756       921      3420      3609      3610
 -1      1721    8    0    1
 -2       758       839       922      3334      3611      3612
 -1      1722    8    0    1
 -2       751       745       923      3078      3613      3614
 -1      1723    8    0    1
 -2       751       923       863      3614      3615      3436
 -1      1724    8    0    1
 -2       837       833       924      3419      3616      3617
 -1      1725    8    0    1
 -2       796       797       925      3215      3618      3619
 -1      1726    8    0    1
 -2       893       796       925      3523      3619      3620
 -1      1727    8    0    1
 -2       797       895       925      3529      3621      3618
 -1      1728    8    0    1
 -2       793       792       926      3204      3622      3623
 -1      1729    8    0    1
 -2       759       758       927      3103      3624      3625
 -1      1730    8    0    1
 -2       759       927       866      3625      3626      3445
 -1      1731    8    0    1
 -2       845       748       928      3432      3627      3628
 -1      1732    8    0    1
 -2       826       841       929      3416      3629      3630
 -1      1733    8    0    1
 -2       757       790       930      3197      3631      3632
 -1      1734    8    0    1
 -2       839       848       931      3383      3633      3634
 -1      1735    8    0    1
 -2       847       754       932      3357      3635      3636
 -1      1736    8    0    1
 -2       865       838       916      3442      3592      3637
 -1      1737    8    0    1
 -2       790       851       933      3382      3638      3639
 -1      1738    8    0    1
 -2       790       933       930      3639      3640      3631
 -1      1739    8    0    1
 -2       843       753       853      3349      3641      3642
 -1      1740    8    0    1
 -2       831       837       917      3444      3643      3593
 -1      1741    8    0    1
 -2       849       840       934      3368      3644      3645
 -1      1742    8    0    1
 -2       840       909       934      3572      3646      3644
 -1      1743    8    0    1
 -2       836       782       791      3369      3647      3385
 -1      1744    8    0    1
 -2       845       928       935      3628      3648      3649
 -1      1745    8    0    1
 -2       845       935       862      3649      3650      3435
 -1      1746    8    0    1
 -2       781       887       791      3508      3596      3651
 -1      1747    8    0    1
 -2       782       781       791      3172      3651      3647
 -1      1748    8    0    1
 -2       851       724       852      3380      3389      3652
 -1      1749    8    0    1
 -2       789       788       936      3194      3653      3654
 -1      1750    8    0    1
 -2       850       789       936      3378      3654      3655
 -1      1751    8    0    1
 -2       788       891       936      3519      3656      3653
 -1      1752    8    0    1
 -2       793       926       937      3623      3657      3658
 -1      1753    8    0    1
 -2       793       937       852      3658      3659      3387
 -1      1754    8    0    1
 -2       861       757       938      3427      3660      3661
 -1      1755    8    0    1
 -2       757       930       938      3632      3662      3660
 -1      1756    8    0    1
 -2       794       894       939      3526      3663      3664
 -1      1757    8    0    1
 -2       794       939       829      3664      3665      3310
 -1      1758    8    0    1
 -2       811       892       908      3570      3666      3566
 -1      1759    8    0    1
 -2       696       853       753      3396      3641      3266
 -1      1760    8    0    1
 -2       815       858       747      3574      3409      3667
 -1      1761    8    0    1
 -2       857       856       940      3408      3668      3669
 -1      1762    8    0    1
 -2       655       740       656      3431      3291      3035
 -1      1763    8    0    1
 -2       856       859       941      3586      3670      3671
 -1      1764    8    0    1
 -2       856       941       940      3671      3672      3668
 -1      1765    8    0    1
 -2       915       826       929      3589      3630      3673
 -1      1766    8    0    1
 -2       914       825       942      3587      3674      3675
 -1      1767    8    0    1
 -2       825       828       942      3305      3676      3674
 -1      1768    8    0    1
 -2       859       823       943      3415      3677      3678
 -1      1769    8    0    1
 -2       941       859       943      3670      3678      3679
 -1      1770    8    0    1
 -2       823       914       943      3588      3680      3677
 -1      1771    8    0    1
 -2       792       829       944      3309      3681      3682
 -1      1772    8    0    1
 -2       926       792       944      3622      3682      3683
 -1      1773    8    0    1
 -2       829       939       944      3665      3684      3681
 -1      1774    8    0    1
 -2       833       915       924      3590      3685      3616
 -1      1775    8    0    1
 -2       846       827       945      3356      3686      3687
 -1      1776    8    0    1
 -2       728       847       860      3359      3688      3423
 -1      1777    8    0    1
 -2       945       827       946      3686      3689      3690
 -1      1778    8    0    1
 -2       827       860       946      3422      3691      3689
 -1      1779    8    0    1
 -2       834       921       916      3610      3692      3591
 -1      1780    8    0    1
 -2       923       745       846      3613      3355      3693
 -1      1781    8    0    1
 -2       922       839       931      3611      3634      3694
 -1      1782    8    0    1
 -2       815       747       843      3667      3365      3695
 -1      1783    8    0    1
 -2       758       922       927      3612      3696      3624
 -1      1784    8    0    1
 -2       863       923       947      3615      3697      3698
 -1      1785    8    0    1
 -2       756       858       920      3411      3607      3699
 -1      1786    8    0    1
 -2       929       841       865      3629      3443      3700
 -1      1787    8    0    1
 -2       921       756       920      3609      3699      3701
 -1      1788    8    0    1
 -2       748       849       948      3367      3702      3703
 -1      1789    8    0    1
 -2       748       948       928      3703      3704      3627
 -1      1790    8    0    1
 -2       812       739       746      3417      3038      3705
 -1      1791    8    0    1
 -2       844       862       908      3434      3706      3707
 -1      1792    8    0    1
 -2       812       746       892      3705      3522      3569
 -1      1793    8    0    1
 -2       844       908       892      3707      3666      3521
 -1      1794    8    0    1
 -2       848       744       864      3441      3440      3708
 -1      1795    8    0    1
 -2       865       916       949      3637      3709      3710
 -1      1796    8    0    1
 -2       868       867       950      3452      3711      3712
 -1      1797    8    0    1
 -2       869       868       951      3455      3713      3714
 -1      1798    8    0    1
 -2       868       950       951      3712      3715      3713
 -1      1799    8    0    1
 -2       870       869       952      3458      3716      3717
 -1      1800    8    0    1
 -2       869       951       952      3714      3718      3716
 -1      1801    8    0    1
 -2       871       870       953      3461      3719      3720
 -1      1802    8    0    1
 -2       870       952       953      3717      3721      3719
 -1      1803    8    0    1
 -2       872       871       954      3464      3722      3723
 -1      1804    8    0    1
 -2       871       953       954      3720      3724      3722
 -1      1805    8    0    1
 -2       873       872       955      3467      3725      3726
 -1      1806    8    0    1
 -2       872       954       955      3723      3727      3725
 -1      1807    8    0    1
 -2       874       873       956      3470      3728      3729
 -1      1808    8    0    1
 -2       873       955       956      3726      3730      3728
 -1      1809    8    0    1
 -2       875       874       957      3473      3731      3732
 -1      1810    8    0    1
 -2       874       956       957      3729      3733      3731
 -1      1811    8    0    1
 -2       876       875       958      3476      3734      3735
 -1      1812    8    0    1
 -2       875       957       958      3732      3736      3734
 -1      1813    8    0    1
 -2       877       876       959      3479      3737      3738
 -1      1814    8    0    1
 -2       876       958       959      3735      3739      3737
 -1      1815    8    0    1
 -2       878       877       960      3482      3740      3741
 -1      1816    8    0    1
 -2       877       959       960      3738      3742      3740
 -1      1817    8    0    1
 -2       879       878       961      3485      3743      3744
 -1      1818    8    0    1
 -2       878       960       961      3741      3745      3743
 -1      1819    8    0    1
 -2       880       879       962      3488      3746      3747
 -1      1820    8    0    1
 -2       879       961       962      3744      3748      3746
 -1      1821    8    0    1
 -2       881       880       963      3491      3749      3750
 -1      1822    8    0    1
 -2       880       962       963      3747      3751      3749
 -1      1823    8    0    1
 -2       882       881       964      3494      3752      3753
 -1      1824    8    0    1
 -2       881       963       964      3750      3754      3752
 -1      1825    8    0    1
 -2       883       882       965      3497      3755      3756
 -1      1826    8    0    1
 -2       882       964       965      3753      3757      3755
 -1      1827    8    0    1
 -2       884       883       966      3500      3758      3759
 -1      1828    8    0    1
 -2       883       965       966      3756      3760      3758
 -1      1829    8    0    1
 -2       885       884       967      3503      3761      3762
 -1      1830    8    0    1
 -2       884       966       967      3759      3763      3761
 -1      1831    8    0    1
 -2       886       885       968      3506      3764      3765
 -1      1832    8    0    1
 -2       885       967       968      3762      3766      3764
 -1      1833    8    0    1
 -2       887       886       919      3509      3767      3604
 -1      1834    8    0    1
 -2       929       865       969      3700      3768      3769
 -1      1835    8    0    1
 -2       894       893       970      3527      3770      3771
 -1      1836    8    0    1
 -2       824       850       936      3377      3655      3772
 -1      1837    8    0    1
 -2       936       891       971      3656      3773      3774
 -1      1838    8    0    1
 -2       890       889       972      3517      3775      3776
 -1      1839    8    0    1
 -2       891       890       973      3520      3777      3778
 -1      1840    8    0    1
 -2       890       972       973      3776      3779      3777
 -1      1841    8    0    1
 -2       848       864       931      3708      3780      3633
 -1      1842    8    0    1
 -2       927       922       974      3696      3781      3782
 -1      1843    8    0    1
 -2       896       897       975      3535      3783      3784
 -1      1844    8    0    1
 -2       895       896       976      3532      3785      3786
 -1      1845    8    0    1
 -2       896       975       976      3784      3787      3785
 -1      1846    8    0    1
 -2       898       899       977      3541      3788      3789
 -1      1847    8    0    1
 -2       899       900       978      3544      3790      3791
 -1      1848    8    0    1
 -2       899       978       977      3791      3792      3788
 -1      1849    8    0    1
 -2       900       901       979      3547      3793      3794
 -1      1850    8    0    1
 -2       900       979       978      3794      3795      3790
 -1      1851    8    0    1
 -2       901       902       980      3550      3796      3797
 -1      1852    8    0    1
 -2       901       980       979      3797      3798      3793
 -1      1853    8    0    1
 -2       902       903       981      3553      3799      3800
 -1      1854    8    0    1
 -2       902       981       980      3800      3801      3796
 -1      1855    8    0    1
 -2       903       904       982      3556      3802      3803
 -1      1856    8    0    1
 -2       903       982       981      3803      3804      3799
 -1      1857    8    0    1
 -2       904       905       983      3559      3805      3806
 -1      1858    8    0    1
 -2       904       983       982      3806      3807      3802
 -1      1859    8    0    1
 -2       905       906       984      3562      3808      3809
 -1      1860    8    0    1
 -2       905       984       983      3809      3810      3805
 -1      1861    8    0    1
 -2       906       907       985      3565      3811      3812
 -1      1862    8    0    1
 -2       906       985       984      3812      3813      3808
 -1      1863    8    0    1
 -2       907       908       935      3568      3814      3815
 -1      1864    8    0    1
 -2       851       852       986      3652      3816      3817
 -1      1865    8    0    1
 -2       852       937       986      3659      3818      3816
 -1      1866    8    0    1
 -2       915       929       987      3673      3819      3820
 -1      1867    8    0    1
 -2       854       706       855      3399      3401      3821
 -1      1868    8    0    1
 -2       889       888       988      3514      3822      3823
 -1      1869    8    0    1
 -2       889       988       972      3823      3824      3775
 -1      1870    8    0    1
 -2       822       854       989      3398      3825      3826
 -1      1871    8    0    1
 -2       910       911       990      3579      3827      3828
 -1      1872    8    0    1
 -2       913       822       989      3583      3826      3829
 -1      1873    8    0    1
 -2       857       940       989      3669      3830      3831
 -1      1874    8    0    1
 -2       860       847       991      3688      3832      3833
 -1      1875    8    0    1
 -2       946       860       991      3691      3833      3834
 -1      1876    8    0    1
 -2       847       932       991      3636      3835      3832
 -1      1877    8    0    1
 -2       932       754       861      3635      3836      3837
 -1      1878    8    0    1
 -2       843       853       815      3642      3430      3695
 -1      1879    8    0    1
 -2       947       923       992      3697      3838      3839
 -1      1880    8    0    1
 -2       923       846       992      3693      3840      3838
 -1      1881    8    0    1
 -2       846       945       992      3687      3841      3840
 -1      1882    8    0    1
 -2       863       947       993      3698      3842      3843
 -1      1883    8    0    1
 -2       863       993       864      3843      3844      3438
 -1      1884    8    0    1
 -2       824       936       971      3772      3774      3845
 -1      1885    8    0    1
 -2       824       971       828      3845      3846      3306
 -1      1886    8    0    1
 -2       971       891       973      3773      3778      3847
 -1      1887    8    0    1
 -2       931       864       993      3780      3844      3848
 -1      1888    8    0    1
 -2       931       993       922      3848      3849      3694
 -1      1889    8    0    1
 -2       854       855       989      3821      3850      3825
 -1      1890    8    0    1
 -2       913       989       994      3829      3851      3852
 -1      1891    8    0    1
 -2       989       940       994      3830      3853      3851
 -1      1892    8    0    1
 -2       861       754       842      3836      3345      3426
 -1      1893    8    0    1
 -2       828       971       942      3846      3854      3676
 -1      1894    8    0    1
 -2       993       947       995      3842      3855      3856
 -1      1895    8    0    1
 -2       912       913       996      3585      3857      3858
 -1      1896    8    0    1
 -2       913       994       996      3852      3859      3857
 -1      1897    8    0    1
 -2       866       927       997      3626      3860      3861
 -1      1898    8    0    1
 -2       927       974       997      3782      3862      3860
 -1      1899    8    0    1
 -2       920       918       921      3608      3863      3701
 -1      1900    8    0    1
 -2       911       912       998      3582      3864      3865
 -1      1901    8    0    1
 -2       990       911       998      3827      3865      3866
 -1      1902    8    0    1
 -2       912       996       998      3858      3867      3864
 -1      1903    8    0    1
 -2       897       898       999      3538      3868      3869
 -1      1904    8    0    1
 -2       898       977       999      3789      3870      3868
 -1      1905    8    0    1
 -2       908       862       935      3706      3650      3814
 -1      1906    8    0    1
 -2       918       910      1000      3600      3871      3872
 -1      1907    8    0    1
 -2       921       918      1000      3863      3872      3873
 -1      1908    8    0    1
 -2       910       990      1000      3828      3874      3871
 -1      1909    8    0    1
 -2       932       861       938      3837      3661      3875
 -1      1910    8    0    1
 -2       867       866      1001      3449      3876      3877
 -1      1911    8    0    1
 -2       950       867      1001      3711      3877      3878
 -1      1912    8    0    1
 -2       866       997      1001      3861      3879      3876
 -1      1913    8    0    1
 -2       989       855       857      3850      3407      3831
 -1      1914    8    0    1
 -2       916       921      1000      3692      3873      3880
 -1      1915    8    0    1
 -2       886       968       919      3765      3881      3767
 -1      1916    8    0    1
 -2       933       851       986      3638      3817      3882
 -1      1917    8    0    1
 -2       934       909      1002      3646      3883      3884
 -1      1918    8    0    1
 -2       935       928      1003      3648      3885      3886
 -1      1919    8    0    1
 -2       928       948      1003      3704      3887      3885
 -1      1920    8    0    1
 -2       937       926      1004      3657      3888      3889
 -1      1921    8    0    1
 -2       970       893      1005      3770      3890      3891
 -1      1922    8    0    1
 -2       893       925      1005      3620      3892      3890
 -1      1923    8    0    1
 -2       969       865       949      3768      3710      3893
 -1      1924    8    0    1
 -2       894       970      1006      3771      3894      3895
 -1      1925    8    0    1
 -2       894      1006       939      3895      3896      3663
 -1      1926    8    0    1
 -2       915       987      1007      3820      3897      3898
 -1      1927    8    0    1
 -2       975       897       999      3783      3869      3899
 -1      1928    8    0    1
 -2       938       930      1008      3662      3900      3901
 -1      1929    8    0    1
 -2       915      1007       924      3898      3902      3685
 -1      1930    8    0    1
 -2       907       935       985      3815      3903      3811
 -1      1931    8    0    1
 -2       916      1000      1009      3880      3904      3905
 -1      1932    8    0    1
 -2       949       916      1009      3709      3905      3906
 -1      1933    8    0    1
 -2      1000       990      1009      3874      3907      3904
 -1      1934    8    0    1
 -2       987       929       969      3819      3769      3908
 -1      1935    8    0    1
 -2       994       940      1010      3853      3909      3910
 -1      1936    8    0    1
 -2       940       941      1010      3672      3911      3909
 -1      1937    8    0    1
 -2       988       888      1007      3822      3912      3913
 -1      1938    8    0    1
 -2       932       938      1008      3875      3901      3914
 -1      1939    8    0    1
 -2       909       919       968      3603      3881      3915
 -1      1940    8    0    1
 -2       943       914      1011      3680      3916      3917
 -1      1941    8    0    1
 -2       930       933      1012      3640      3918      3919
 -1      1942    8    0    1
 -2       930      1012      1008      3919      3920      3900
 -1      1943    8    0    1
 -2       926       944      1013      3683      3921      3922
 -1      1944    8    0    1
 -2       926      1013      1004      3922      3923      3888
 -1      1945    8    0    1
 -2       888       917      1007      3595      3924      3912
 -1      1946    8    0    1
 -2       945       946      1014      3690      3925      3926
 -1      1947    8    0    1
 -2       995       947      1015      3855      3927      3928
 -1      1948    8    0    1
 -2       947       992      1015      3839      3929      3927
 -1      1949    8    0    1
 -2       925       895      1016      3621      3930      3931
 -1      1950    8    0    1
 -2       925      1016      1005      3931      3932      3892
 -1      1951    8    0    1
 -2       991       932      1008      3835      3914      3933
 -1      1952    8    0    1
 -2       992       945      1017      3841      3934      3935
 -1      1953    8    0    1
 -2       945      1014      1017      3926      3936      3934
 -1      1954    8    0    1
 -2       849       934      1018      3645      3937      3938
 -1      1955    8    0    1
 -2       849      1018       948      3938      3939      3702
 -1      1956    8    0    1
 -2       922       993       995      3849      3856      3940
 -1      1957    8    0    1
 -2       942       971      1019      3854      3941      3942
 -1      1958    8    0    1
 -2       971       973      1019      3847      3943      3941
 -1      1959    8    0    1
 -2       914       942      1019      3675      3942      3944
 -1      1960    8    0    1
 -2       914      1019      1011      3944      3945      3916
 -1      1961    8    0    1
 -2      1016       895       976      3930      3786      3946
 -1      1962    8    0    1
 -2      1002       909       968      3883      3915      3947
 -1      1963    8    0    1
 -2       917       837       924      3643      3617      3948
 -1      1964    8    0    1
 -2      1007       917       924      3924      3948      3902
 -1      1965    8    0    1
 -2       933       986      1020      3882      3949      3950
 -1      1966    8    0    1
 -2       933      1020      1012      3950      3951      3918
 -1      1967    8    0    1
 -2       952       951      1021      3718      3952      3953
 -1      1968    8    0    1
 -2       953       952      1022      3721      3954      3955
 -1      1969    8    0    1
 -2       952      1021      1022      3953      3956      3954
 -1      1970    8    0    1
 -2       954       953      1023      3724      3957      3958
 -1      1971    8    0    1
 -2       953      1022      1023      3955      3959      3957
 -1      1972    8    0    1
 -2       955       954      1024      3727      3960      3961
 -1      1973    8    0    1
 -2       954      1023      1024      3958      3962      3960
 -1      1974    8    0    1
 -2       956       955      1025      3730      3963      3964
 -1      1975    8    0    1
 -2       955      1024      1025      3961      3965      3963
 -1      1976    8    0    1
 -2       957       956      1026      3733      3966      3967
 -1      1977    8    0    1
 -2       956      1025      1026      3964      3968      3966
 -1      1978    8    0    1
 -2       958       957      1027      3736      3969      3970
 -1      1979    8    0    1
 -2       957      1026      1027      3967      3971      3969
 -1      1980    8    0    1
 -2       959       958      1028      3739      3972      3973
 -1      1981    8    0    1
 -2       958      1027      1028      3970      3974      3972
 -1      1982    8    0    1
 -2       960       959      1029      3742      3975      3976
 -1      1983    8    0    1
 -2       959      1028      1029      3973      3977      3975
 -1      1984    8    0    1
 -2       961       960      1030      3745      3978      3979
 -1      1985    8    0    1
 -2       960      1029      1030      3976      3980      3978
 -1      1986    8    0    1
 -2       962       961      1031      3748      3981      3982
 -1      1987    8    0    1
 -2       961      1030      1031      3979      3983      3981
 -1      1988    8    0    1
 -2       963       962      1032      3751      3984      3985
 -1      1989    8    0    1
 -2       962      1031      1032      3982      3986      3984
 -1      1990    8    0    1
 -2       964       963      1033      3754      3987      3988
 -1      1991    8    0    1
 -2       963      1032      1033      3985      3989      3987
 -1      1992    8    0    1
 -2       965       964      1034      3757      3990      3991
 -1      1993    8    0    1
 -2       964      1033      1034      3988      3992      3990
 -1      1994    8    0    1
 -2       966       965      1035      3760      3993      3994
 -1      1995    8    0    1
 -2       965      1034      1035      3991      3995      3993
 -1      1996    8    0    1
 -2       967       966      1036      3763      3996      3997
 -1      1997    8    0    1
 -2       966      1035      1036      3994      3998      3996
 -1      1998    8    0    1
 -2       968       967      1037      3766      3999      4000
 -1      1999    8    0    1
 -2      1002       968      1037      3947      4000      4001
 -1      2000    8    0    1
 -2       967      1036      1037      3997      4002      3999
 -1      2001    8    0    1
 -2      1007       987       988      3897      4003      3913
 -1      2002    8    0    1
 -2       975       999      1038      3899      4004      4005
 -1      2003    8    0    1
 -2       974       922       995      3781      3940      4006
 -1      2004    8    0    1
 -2       978       979      1039      3795      4007      4008
 -1      2005    8    0    1
 -2       977       978      1040      3792      4009      4010
 -1      2006    8    0    1
 -2       978      1039      1040      4008      4011      4009
 -1      2007    8    0    1
 -2       980       981      1041      3801      4012      4013
 -1      2008    8    0    1
 -2       981       982      1042      3804      4014      4015
 -1      2009    8    0    1
 -2       981      1042      1041      4015      4016      4012
 -1      2010    8    0    1
 -2       982       983      1043      3807      4017      4018
 -1      2011    8    0    1
 -2       982      1043      1042      4018      4019      4014
 -1      2012    8    0    1
 -2       983       984      1044      3810      4020      4021
 -1      2013    8    0    1
 -2       983      1044      1043      4021      4022      4017
 -1      2014    8    0    1
 -2       984       985      1045      3813      4023      4024
 -1      2015    8    0    1
 -2      1044       984      1045      4020      4024      4025
 -1      2016    8    0    1
 -2       985       935      1045      3903      4026      4023
 -1      2017    8    0    1
 -2       934      1002      1046      3884      4027      4028
 -1      2018    8    0    1
 -2      1018       934      1046      3937      4028      4029
 -1      2019    8    0    1
 -2      1002      1037      1046      4001      4030      4027
 -1      2020    8    0    1
 -2      1016       976      1047      3946      4031      4032
 -1      2021    8    0    1
 -2      1011      1019      1048      3945      4033      4034
 -1      2022    8    0    1
 -2       944       939      1049      3684      4035      4036
 -1      2023    8    0    1
 -2      1013       944      1049      3921      4036      4037
 -1      2024    8    0    1
 -2       939      1006      1049      3896      4038      4035
 -1      2025    8    0    1
 -2       946       991      1050      3834      4039      4040
 -1      2026    8    0    1
 -2      1014       946      1050      3925      4040      4041
 -1      2027    8    0    1
 -2       991      1008      1050      3933      4042      4039
 -1      2028    8    0    1
 -2       972       988      1051      3824      4043      4044
 -1      2029    8    0    1
 -2       941       943      1052      3679      4045      4046
 -1      2030    8    0    1
 -2      1010       941      1052      3911      4046      4047
 -1      2031    8    0    1
 -2       943      1011      1052      3917      4048      4045
 -1      2032    8    0    1
 -2       973       972      1053      3779      4049      4050
 -1      2033    8    0    1
 -2      1019       973      1053      3943      4050      4051
 -1      2034    8    0    1
 -2       972      1051      1053      4044      4052      4049
 -1      2035    8    0    1
 -2       937      1004      1054      3889      4053      4054
 -1      2036    8    0    1
 -2       937      1054       986      4054      4055      3818
 -1      2037    8    0    1
 -2       969       949      1055      3893      4056      4057
 -1      2038    8    0    1
 -2       999       977      1056      3870      4058      4059
 -1      2039    8    0    1
 -2       999      1056      1038      4059      4060      4004
 -1      2040    8    0    1
 -2       987       969      1057      3908      4061      4062
 -1      2041    8    0    1
 -2       976       975      1058      3787      4063      4064
 -1      2042    8    0    1
 -2       975      1038      1058      4005      4065      4063
 -1      2043    8    0    1
 -2       951       950      1059      3715      4066      4067
 -1      2044    8    0    1
 -2       951      1059      1021      4067      4068      3952
 -1      2045    8    0    1
 -2       996       994      1010      3859      3910      4069
 -1      2046    8    0    1
 -2       979       980      1060      3798      4070      4071
 -1      2047    8    0    1
 -2       979      1060      1039      4071      4072      4007
 -1      2048    8    0    1
 -2       974       995      1061      4006      4073      4074
 -1      2049    8    0    1
 -2       997       974      1061      3862      4074      4075
 -1      2050    8    0    1
 -2       995      1015      1061      3928      4076      4073
 -1      2051    8    0    1
 -2      1003       948      1062      3887      4077      4078
 -1      2052    8    0    1
 -2       948      1018      1062      3939      4079      4077
 -1      2053    8    0    1
 -2       970      1005      1063      3891      4080      4081
 -1      2054    8    0    1
 -2       996      1010      1064      4069      4082      4083
 -1      2055    8    0    1
 -2       988       987      1051      4003      4084      4043
 -1      2056    8    0    1
 -2      1006       970      1065      3894      4085      4086
 -1      2057    8    0    1
 -2       970      1063      1065      4081      4087      4085
 -1      2058    8    0    1
 -2      1004      1013      1066      3923      4088      4089
 -1      2059    8    0    1
 -2       997      1061      1067      4075      4090      4091
 -1      2060    8    0    1
 -2       950      1001      1068      3878      4092      4093
 -1      2061    8    0    1
 -2       950      1068      1059      4093      4094      4066
 -1      2062    8    0    1
 -2       977      1040      1056      4010      4095      4058
 -1      2063    8    0    1
 -2      1009       990      1069      3907      4096      4097
 -1      2064    8    0    1
 -2       990       998      1069      3866      4098      4096
 -1      2065    8    0    1
 -2       949      1009      1070      3906      4099      4100
 -1      2066    8    0    1
 -2      1055       949      1070      4056      4100      4101
 -1      2067    8    0    1
 -2      1009      1069      1070      4097      4102      4099
 -1      2068    8    0    1
 -2      1019      1053      1048      4051      4103      4033
 -1      2069    8    0    1
 -2      1004      1066      1071      4089      4104      4105
 -1      2070    8    0    1
 -2      1004      1071      1054      4105      4106      4053
 -1      2071    8    0    1
 -2       992      1017      1015      3935      4107      3929
 -1      2072    8    0    1
 -2      1011      1048      1072      4034      4108      4109
 -1      2073    8    0    1
 -2      1052      1011      1072      4048      4109      4110
 -1      2074    8    0    1
 -2      1008      1012      1073      3920      4111      4112
 -1      2075    8    0    1
 -2      1008      1073      1050      4112      4113      4042
 -1      2076    8    0    1
 -2      1020       986      1054      3949      4055      4114
 -1      2077    8    0    1
 -2      1017      1014      1074      3936      4115      4116
 -1      2078    8    0    1
 -2      1047       976      1058      4031      4064      4117
 -1      2079    8    0    1
 -2      1057       969      1055      4061      4057      4118
 -1      2080    8    0    1
 -2       980      1041      1060      4013      4119      4070
 -1      2081    8    0    1
 -2       998       996      1064      3867      4083      4120
 -1      2082    8    0    1
 -2      1005      1016      1075      3932      4121      4122
 -1      2083    8    0    1
 -2      1005      1075      1063      4122      4123      4080
 -1      2084    8    0    1
 -2      1001       997      1067      3879      4091      4124
 -1      2085    8    0    1
 -2      1014      1050      1076      4041      4125      4126
 -1      2086    8    0    1
 -2      1074      1014      1076      4115      4126      4127
 -1      2087    8    0    1
 -2      1050      1073      1076      4113      4128      4125
 -1      2088    8    0    1
 -2      1075      1016      1047      4121      4032      4129
 -1      2089    8    0    1
 -2      1001      1067      1068      4124      4130      4092
 -1      2090    8    0    1
 -2       935      1003      1045      3886      4131      4026
 -1      2091    8    0    1
 -2      1022      1021      1077      3956      4132      4133
 -1      2092    8    0    1
 -2      1063      1075      1078      4123      4134      4135
 -1      2093    8    0    1
 -2      1051       987      1057      4084      4062      4136
 -1      2094    8    0    1
 -2      1023      1022      1079      3959      4137      4138
 -1      2095    8    0    1
 -2      1022      1077      1079      4133      4139      4137
 -1      2096    8    0    1
 -2      1024      1023      1080      3962      4140      4141
 -1      2097    8    0    1
 -2      1023      1079      1080      4138      4142      4140
 -1      2098    8    0    1
 -2      1025      1024      1081      3965      4143      4144
 -1      2099    8    0    1
 -2      1024      1080      1081      4141      4145      4143
 -1      2100    8    0    1
 -2      1026      1025      1082      3968      4146      4147
 -1      2101    8    0    1
 -2      1025      1081      1082      4144      4148      4146
 -1      2102    8    0    1
 -2      1027      1026      1083      3971      4149      4150
 -1      2103    8    0    1
 -2      1026      1082      1083      4147      4151      4149
 -1      2104    8    0    1
 -2      1028      1027      1084      3974      4152      4153
 -1      2105    8    0    1
 -2      1027      1083      1084      4150      4154      4152
 -1      2106    8    0    1
 -2      1029      1028      1085      3977      4155      4156
 -1      2107    8    0    1
 -2      1028      1084      1085      4153      4157      4155
 -1      2108    8    0    1
 -2      1030      1029      1086      3980      4158      4159
 -1      2109    8    0    1
 -2      1029      1085      1086      4156      4160      4158
 -1      2110    8    0    1
 -2      1031      1030      1087      3983      4161      4162
 -1      2111    8    0    1
 -2      1030      1086      1087      4159      4163      4161
 -1      2112    8    0    1
 -2      1032      1031      1088      3986      4164      4165
 -1      2113    8    0    1
 -2      1031      1087      1088      4162      4166      4164
 -1      2114    8    0    1
 -2      1033      1032      1089      3989      4167      4168
 -1      2115    8    0    1
 -2      1032      1088      1089      4165      4169      4167
 -1      2116    8    0    1
 -2      1034      1033      1090      3992      4170      4171
 -1      2117    8    0    1
 -2      1033      1089      1090      4168      4172      4170
 -1      2118    8    0    1
 -2      1035      1034      1091      3995      4173      4174
 -1      2119    8    0    1
 -2      1034      1090      1091      4171      4175      4173
 -1      2120    8    0    1
 -2      1036      1035      1092      3998      4176      4177
 -1      2121    8    0    1
 -2      1035      1091      1092      4174      4178      4176
 -1      2122    8    0    1
 -2      1037      1036      1093      4002      4179      4180
 -1      2123    8    0    1
 -2      1046      1037      1093      4030      4180      4181
 -1      2124    8    0    1
 -2      1036      1092      1093      4177      4182      4179
 -1      2125    8    0    1
 -2      1043      1044      1094      4022      4183      4184
 -1      2126    8    0    1
 -2      1066      1013      1095      4088      4185      4186
 -1      2127    8    0    1
 -2      1013      1049      1095      4037      4187      4185
 -1      2128    8    0    1
 -2      1064      1010      1052      4082      4047      4188
 -1      2129    8    0    1
 -2      1012      1020      1096      3951      4189      4190
 -1      2130    8    0    1
 -2      1012      1096      1073      4190      4191      4111
 -1      2131    8    0    1
 -2      1040      1039      1097      4011      4192      4193
 -1      2132    8    0    1
 -2      1042      1043      1098      4019      4194      4195
 -1      2133    8    0    1
 -2      1043      1094      1098      4184      4196      4194
 -1      2134    8    0    1
 -2      1041      1042      1099      4016      4197      4198
 -1      2135    8    0    1
 -2      1042      1098      1099      4195      4199      4197
 -1      2136    8    0    1
 -2      1044      1045      1100      4025      4200      4201
 -1      2137    8    0    1
 -2      1094      1044      1100      4183      4201      4202
 -1      2138    8    0    1
 -2      1045      1003      1100      4131      4203      4200
 -1      2139    8    0    1
 -2      1053      1051      1101      4052      4204      4205
 -1      2140    8    0    1
 -2      1048      1053      1101      4103      4205      4206
 -1      2141    8    0    1
 -2      1051      1057      1101      4136      4207      4204
 -1      2142    8    0    1
 -2      1072      1048      1055      4108      4208      4209
 -1      2143    8    0    1
 -2      1052      1072      1064      4110      4210      4188
 -1      2144    8    0    1
 -2      1020      1054      1102      4114      4211      4212
 -1      2145    8    0    1
 -2      1096      1020      1102      4189      4212      4213
 -1      2146    8    0    1
 -2      1054      1071      1102      4106      4214      4211
 -1      2147    8    0    1
 -2      1058      1038      1103      4065      4215      4216
 -1      2148    8    0    1
 -2      1075      1047      1104      4129      4217      4218
 -1      2149    8    0    1
 -2      1075      1104      1078      4218      4219      4134
 -1      2150    8    0    1
 -2      1039      1060      1105      4072      4220      4221
 -1      2151    8    0    1
 -2      1039      1105      1097      4221      4222      4192
 -1      2152    8    0    1
 -2      1038      1056      1106      4060      4223      4224
 -1      2153    8    0    1
 -2      1038      1106      1103      4224      4225      4215
 -1      2154    8    0    1
 -2      1047      1058      1107      4117      4226      4227
 -1      2155    8    0    1
 -2      1058      1103      1107      4216      4228      4226
 -1      2156    8    0    1
 -2      1015      1017      1108      4107      4229      4230
 -1      2157    8    0    1
 -2      1017      1074      1108      4116      4231      4229
 -1      2158    8    0    1
 -2      1060      1041      1109      4119      4232      4233
 -1      2159    8    0    1
 -2      1105      1060      1109      4220      4233      4234
 -1      2160    8    0    1
 -2      1041      1099      1109      4198      4235      4232
 -1      2161    8    0    1
 -2      1021      1059      1110      4068      4236      4237
 -1      2162    8    0    1
 -2      1021      1110      1077      4237      4238      4132
 -1      2163    8    0    1
 -2      1056      1040      1111      4095      4239      4240
 -1      2164    8    0    1
 -2      1040      1097      1111      4193      4241      4239
 -1      2165    8    0    1
 -2      1067      1061      1108      4090      4242      4243
 -1      2166    8    0    1
 -2      1061      1015      1108      4076      4230      4242
 -1      2167    8    0    1
 -2      1072      1055      1064      4209      4244      4210
 -1      2168    8    0    1
 -2      1056      1111      1106      4240      4245      4223
 -1      2169    8    0    1
 -2      1063      1078      1112      4135      4246      4247
 -1      2170    8    0    1
 -2      1063      1112      1065      4247      4248      4087
 -1      2171    8    0    1
 -2      1066      1095      1113      4186      4249      4250
 -1      2172    8    0    1
 -2      1047      1107      1104      4227      4251      4217
 -1      2173    8    0    1
 -2      1074      1076      1114      4127      4252      4253
 -1      2174    8    0    1
 -2      1059      1068      1115      4094      4254      4255
 -1      2175    8    0    1
 -2      1059      1115      1110      4255      4256      4236
 -1      2176    8    0    1
 -2      1049      1006      1116      4038      4257      4258
 -1      2177    8    0    1
 -2      1049      1116      1095      4258      4259      4187
 -1      2178    8    0    1
 -2      1071      1066      1117      4104      4260      4261
 -1      2179    8    0    1
 -2      1066      1113      1117      4250      4262      4260
 -1      2180    8    0    1
 -2      1068      1067      1118      4130      4263      4264
 -1      2181    8    0    1
 -2      1068      1118      1115      4264      4265      4254
 -1      2182    8    0    1
 -2      1067      1108      1118      4243      4266      4263
 -1      2183    8    0    1
 -2      1006      1065      1116      4086      4267      4257
 -1      2184    8    0    1
 -2      1108      1074      1118      4231      4268      4266
 -1      2185    8    0    1
 -2      1057      1055      1101      4118      4269      4207
 -1      2186    8    0    1
 -2      1062      1018      1119      4079      4270      4271
 -1      2187    8    0    1
 -2      1018      1046      1119      4029      4272      4270
 -1      2188    8    0    1
 -2       998      1064      1069      4120      4273      4098
 -1      2189    8    0    1
 -2      1097      1105      1088      4222      4274      4275
 -1      2190    8    0    1
 -2      1113      1095      1120      4249      4276      4277
 -1      2191    8    0    1
 -2      1095      1116      1120      4259      4278      4276
 -1      2192    8    0    1
 -2      1079      1077      1120      4139      4279      4280
 -1      2193    8    0    1
 -2      1081      1080      1121      4145      4281      4282
 -1      2194    8    0    1
 -2      1082      1081      1078      4148      4283      4284
 -1      2195    8    0    1
 -2      1083      1082      1104      4151      4285      4286
 -1      2196    8    0    1
 -2      1084      1083      1107      4154      4287      4288
 -1      2197    8    0    1
 -2      1085      1084      1103      4157      4289      4290
 -1      2198    8    0    1
 -2      1086      1085      1106      4160      4291      4292
 -1      2199    8    0    1
 -2      1087      1086      1111      4163      4293      4294
 -1      2200    8    0    1
 -2      1088      1087      1097      4166      4295      4275
 -1      2201    8    0    1
 -2      1089      1088      1105      4169      4274      4296
 -1      2202    8    0    1
 -2      1090      1089      1109      4172      4297      4298
 -1      2203    8    0    1
 -2      1091      1090      1099      4175      4299      4300
 -1      2204    8    0    1
 -2      1092      1091      1098      4178      4301      4302
 -1      2205    8    0    1
 -2      1104      1107      1083      4251      4287      4286
 -1      2206    8    0    1
 -2      1098      1094      1092      4196      4303      4302
 -1      2207    8    0    1
 -2      1118      1074      1114      4268      4253      4304
 -1      2208    8    0    1
 -2      1103      1106      1085      4225      4291      4290
 -1      2209    8    0    1
 -2      1089      1105      1109      4296      4234      4297
 -1      2210    8    0    1
 -2      1099      1098      1091      4199      4301      4300
 -1      2211    8    0    1
 -2      1100      1003      1062      4203      4078      4305
 -1      2212    8    0    1
 -2      1077      1110      1113      4238      4306      4307
 -1      2213    8    0    1
 -2      1116      1065      1122      4267      4308      4309
 -1      2214    8    0    1
 -2      1120      1116      1122      4278      4309      4310
 -1      2215    8    0    1
 -2      1065      1112      1122      4248      4311      4308
 -1      2216    8    0    1
 -2      1103      1084      1107      4289      4288      4228
 -1      2217    8    0    1
 -2      1106      1111      1086      4245      4293      4292
 -1      2218    8    0    1
 -2      1104      1082      1078      4285      4284      4219
 -1      2219    8    0    1
 -2      1077      1113      1120      4307      4277      4279
 -1      2220    8    0    1
 -2      1055      1048      1101      4208      4206      4269
 -1      2221    8    0    1
 -2      1111      1097      1087      4241      4295      4294
 -1      2222    8    0    1
 -2      1064      1055      1070      4244      4101      4312
 -1      2223    8    0    1
 -2      1069      1064      1070      4273      4312      4102
 -1      2224    8    0    1
 -2      1076      1073      1123      4128      4313      4314
 -1      2225    8    0    1
 -2      1114      1076      1123      4252      4314      4315
 -1      2226    8    0    1
 -2      1073      1096      1123      4191      4316      4313
 -1      2227    8    0    1
 -2      1092      1094      1093      4303      4317      4182
 -1      2228    8    0    1
 -2      1099      1090      1109      4299      4298      4235
 -1      2229    8    0    1
 -2      1113      1110      1117      4306      4318      4262
 -1      2230    8    0    1
 -2      1080      1079      1124      4142      4319      4320
 -1      2231    8    0    1
 -2      1123      1096      1125      4316      4321      4322
 -1      2232    8    0    1
 -2      1096      1102      1125      4213      4323      4321
 -1      2233    8    0    1
 -2      1100      1062      1119      4305      4271      4324
 -1      2234    8    0    1
 -2      1118      1114      1126      4304      4325      4326
 -1      2235    8    0    1
 -2      1046      1093      1119      4181      4327      4272
 -1      2236    8    0    1
 -2      1110      1115      1117      4256      4328      4318
 -1      2237    8    0    1
 -2      1094      1100      1119      4202      4324      4329
 -1      2238    8    0    1
 -2      1118      1126      1115      4326      4330      4265
 -1      2239    8    0    1
 -2      1080      1124      1121      4320      4331      4281
 -1      2240    8    0    1
 -2      1102      1071      1127      4214      4332      4333
 -1      2241    8    0    1
 -2      1125      1102      1127      4323      4333      4334
 -1      2242    8    0    1
 -2      1071      1117      1127      4261      4335      4332
 -1      2243    8    0    1
 -2      1093      1094      1119      4317      4329      4327
 -1      2244    8    0    1
 -2      1078      1081      1121      4283      4282      4336
 -1      2245    8    0    1
 -2      1121      1124      1122      4331      4337      4338
 -1      2246    8    0    1
 -2      1126      1114      1125      4325      4339      4340
 -1      2247    8    0    1
 -2      1124      1079      1120      4319      4280      4341
 -1      2248    8    0    1
 -2      1114      1123      1125      4315      4322      4339
 -1      2249    8    0    1
 -2      1126      1125      1127      4340      4334      4342
 -1      2250    8    0    1
 -2      1124      1120      1122      4341      4310      4337
 -1      2251    8    0    1
 -2      1112      1078      1121      4246      4336      4343
 -1      2252    8    0    1
 -2      1121      1122      1112      4338      4311      4343
 -1      2253    8    0    1
 -2      1115      1126      1117      4330      4344      4328
 -1      2254    8    0    1
 -2      1117      1126      1127      4344      4342      4335
 -3
    1PSTEP                         1           1           1          
  100CL  101 1.000000000        4344                     0    1           1
 -4  DISP        4    1
 -5  D1          1    2    1    0
 -5  D2          1    2    2    0
 -5  D3          1    2    3    0
 -5  ALL         1    2    0    0    1ALL
 -1         1 8.60310E-03-6.51483E-04-1.70641E-14
 -1         2 1.25006E-02-1.83899E-04-2.24265E-14
 -1         3 1.48635E-02 1.65638E-04-4.34684E-14
 -1         4 1.53177E-02-1.00609E-03-4.52659E-14
 -1         5 0.00000E+00 0.00000E+00 0.00000E+00
 -1         6 0.00000E+00 0.00000E+00 0.00000E+00
 -1         7 0.00000E+00 0.00000E+00 0.00000E+00
 -1         8 0.00000E+00 0.00000E+00 0.00000E+00
 -1         9 0.00000E+00 0.00000E+00 0.00000E+00
 -1        10 0.00000E+00 0.00000E+00 0.00000E+00
 -1        11 0.00000E+00 0.00000E+00 0.00000E+00
 -1        12 0.00000E+00 0.00000E+00 0.00000E+00
 -1        13 0.00000E+00 0.00000E+00 0.00000E+00
 -1        14 0.00000E+00 0.00000E+00 0.00000E+00
 -1        15 0.00000E+00 0.00000E+00 0.00000E+00
 -1        16 0.00000E+00 0.00000E+00 0.00000E+00
 -1        17 0.00000E+00 0.00000E+00 0.00000E+00
 -1        18 0.00000E+00 0.00000E+00 0.00000E+00
 -1        19 0.00000E+00 0.00000E+00 0.00000E+00
 -1        20 0.00000E+00 0.00000E+00 0.00000E+00
 -1        21 0.00000E+00 0.00000E+00 0.00000E+00
 -1        22 0.00000E+00 0.00000E+00 0.00000E+00
 -1        23 4.11304E-04-2.60746E-04 5.10591E-18
 -1        24 7.03186E-04-4.01009E-04-1.91802E-17
 -1        25 9.73121E-04-4.98372E-04-7.16556E-17
 -1        26 1.23745E-03-5.67055E-04-1.51839E-16
 -1        27 1.50080E-03-6.16193E-04-2.58548E-16
 -1        28 1.76525E-03-6.51153E-04-3.92163E-16
 -1        29 2.03176E-03-6.75622E-04-5.54735E-16
 -1        30 2.30070E-03-6.92269E-04-7.46819E-16
 -1        31 2.57213E-03-7.03075E-04-9.71709E-16
 -1        32 2.84594E-03-7.09526E-04-1.23022E-15
 -1        33 3.12191E-03-7.12722E-04-1.52269E-15
 -1        34 3.39984E-03-7.13466E-04-1.84567E-15
 -1        35 3.67951E-03-7.12327E-04-2.20346E-15
 -1        36 3.96078E-03-7.09693E-04-2.59765E-15
 -1        37 4.24357E-03-7.05816E-04-3.02561E-15
 -1        38 4.52789E-03-7.00855E-04-3.49116E-15
 -1        39 4.81390E-03-6.94915E-04-3.99062E-15
 -1        40 5.10189E-03-6.88095E-04-4.52491E-15
 -1        41 5.39233E-03-6.80537E-04-5.09479E-15
 -1        42 5.68588E-03-6.72489E-04-5.70292E-15
 -1        43 5.98345E-03-6.64393E-04-6.35489E-15
 -1        44 6.28619E-03-6.56991E-04-7.05198E-15
 -1        45 6.59551E-03-6.51471E-04-7.79171E-15
 -1        46 6.91303E-03-6.49652E-04-8.58220E-15
 -1        47 7.24045E-03-6.54190E-04-9.41884E-15
 -1        48 7.57925E-03-6.68774E-04-1.02990E-14
 -1        49 7.93012E-03-6.98189E-04-1.12239E-14
 -1        50 8.29208E-03-7.47999E-04-1.21960E-14
 -1        51 8.66124E-03-8.23447E-04-1.32243E-14
 -1        52 9.02974E-03-9.27077E-04-1.43062E-14
 -1        53 9.38578E-03-1.05499E-03-1.54332E-14
 -1        54 9.71642E-03-1.19301E-03-1.66052E-14
 -1        55 1.00137E-02-1.31607E-03-1.78289E-14
 -1        56 1.02817E-02-1.39481E-03-1.91052E-14
 -1        57 1.05378E-02-1.40888E-03-2.04446E-14
 -1        58 1.08056E-02-1.35839E-03-2.18418E-14
 -1        59 1.11024E-02-1.26387E-03-2.32916E-14
 -1        60 1.14320E-02-1.15462E-03-2.47814E-14
 -1        61 1.17861E-02-1.05549E-03-2.63098E-14
 -1        62 1.21518E-02-9.80382E-04-2.78780E-14
 -1        63 1.25171E-02-9.32909E-04-2.94999E-14
 -1        64 1.28740E-02-9.10198E-04-3.11603E-14
 -1        65 1.32185E-02-9.06603E-04-3.28575E-14
 -1        66 1.35495E-02-9.16032E-04-3.45939E-14
 -1        67 1.38674E-02-9.33004E-04-3.63657E-14
 -1        68 1.41738E-02-9.52959E-04-3.81450E-14
 -1        69 1.44708E-02-9.72236E-04-3.99229E-14
 -1        70 1.47607E-02-9.88079E-04-4.17104E-14
 -1        71 1.50468E-02-9.99093E-04-4.35161E-14
 -1        72 4.13748E-04 2.61450E-04 2.82096E-17
 -1        73 7.03006E-04 4.03712E-04 4.49876E-17
 -1        74 9.73656E-04 5.00140E-04 4.76676E-17
 -1        75 1.23828E-03 5.68764E-04 3.19772E-17
 -1        76 1.50176E-03 6.17951E-04-6.28498E-18
 -1        77 1.76628E-03 6.53001E-04-6.62922E-17
 -1        78 2.03283E-03 6.77581E-04-1.50054E-16
 -1        79 2.30180E-03 6.94348E-04-2.58623E-16
 -1        80 2.57325E-03 7.05284E-04-3.97750E-16
 -1        81 2.84707E-03 7.11869E-04-5.70277E-16
 -1        82 3.12307E-03 7.15206E-04-7.78538E-16
 -1        83 3.40102E-03 7.16100E-04-1.01487E-15
 -1        84 3.68072E-03 7.15125E-04-1.28710E-15
 -1        85 3.96203E-03 7.12678E-04-1.60213E-15
 -1        86 4.24485E-03 7.09024E-04-1.95812E-15
 -1        87 4.52922E-03 7.04342E-04-2.35194E-15
 -1        88 4.81526E-03 6.98769E-04-2.78529E-15
 -1        89 5.10324E-03 6.92443E-04-3.26153E-15
 -1        90 5.39356E-03 6.85558E-04-3.79212E-15
 -1        91 5.68680E-03 6.78427E-04-4.37419E-15
 -1        92 5.98368E-03 6.71559E-04-5.00861E-15
 -1        93 6.28507E-03 6.65743E-04-5.68871E-15
 -1        94 6.59191E-03 6.62151E-04-6.41307E-15
 -1        95 6.90513E-03 6.62438E-04-7.17732E-15
 -1        96 7.22545E-03 6.68801E-04-7.99380E-15
 -1        97 7.55307E-03 6.83964E-04-8.86216E-15
 -1        98 7.88721E-03 7.10952E-04-9.78918E-15
 -1        99 8.22563E-03 7.52554E-04-1.07607E-14
 -1       100 8.56413E-03 8.10283E-04-1.17706E-14
 -1       101 8.89655E-03 8.82858E-04-1.28240E-14
 -1       102 9.21567E-03 9.64524E-04-1.39375E-14
 -1       103 9.51527E-03 1.04413E-03-1.51020E-14
 -1       104 9.79322E-03 1.10634E-03-1.63103E-14
 -1       105 1.00539E-02 1.13562E-03-1.75754E-14
 -1       106 1.03078E-02 1.12212E-03-1.89167E-14
 -1       107 1.05682E-02 1.06589E-03-2.03149E-14
 -1       108 1.08456E-02 9.76911E-04-2.17614E-14
 -1       109 1.11442E-02 8.70688E-04-2.32626E-14
 -1       110 1.14617E-02 7.62458E-04-2.48080E-14
 -1       111 1.17916E-02 6.63173E-04-2.63992E-14
 -1       112 1.21266E-02 5.78325E-04-2.80425E-14
 -1       113 1.24603E-02 5.08859E-04-2.97069E-14
 -1       114 1.27884E-02 4.52832E-04-3.14031E-14
 -1       115 1.31085E-02 4.06914E-04-3.31264E-14
 -1       116 1.34197E-02 3.67387E-04-3.48572E-14
 -1       117 1.37222E-02 3.30700E-04-3.65929E-14
 -1       118 1.40173E-02 2.93729E-04-3.83313E-14
 -1       119 1.43065E-02 2.53994E-04-4.00700E-14
 -1       120 1.45924E-02 2.10147E-04-4.18147E-14
 -1       121 1.49103E-02 8.09553E-05-4.35840E-14
 -1       122 1.49601E-02-3.07120E-06-4.37014E-14
 -1       123 1.50137E-02-8.38351E-05-4.38058E-14
 -1       124 1.50694E-02-1.59249E-04-4.39124E-14
 -1       125 1.51247E-02-2.28267E-04-4.40106E-14
 -1       126 1.51758E-02-2.89825E-04-4.41404E-14
 -1       127 1.52216E-02-3.46880E-04-4.42895E-14
 -1       128 1.52592E-02-3.99929E-04-4.44160E-14
 -1       129 1.52871E-02-4.51173E-04-4.45105E-14
 -1       130 1.53050E-02-5.03124E-04-4.45752E-14
 -1       131 1.53138E-02-5.58271E-04-4.46522E-14
 -1       132 1.53156E-02-6.17644E-04-4.47413E-14
 -1       133 1.53131E-02-6.84651E-04-4.48557E-14
 -1       134 1.53096E-02-7.58686E-04-4.49716E-14
 -1       135 1.53084E-02-8.38919E-04-4.50933E-14
 -1       136 1.53114E-02-9.22732E-04-4.51891E-14
 -1       137 1.24432E-02-1.30287E-05-2.23430E-14
 -1       138 1.22959E-02 1.50409E-04-2.21137E-14
 -1       139 1.20580E-02 3.05629E-04-2.17438E-14
 -1       140 1.17327E-02 4.45784E-04-2.12381E-14
 -1       141 1.13409E-02 5.59182E-04-2.06448E-14
 -1       142 1.09122E-02 6.37432E-04-2.00087E-14
 -1       143 1.04608E-02 6.78647E-04-1.93580E-14
 -1       144 9.99641E-03 6.81268E-04-1.87082E-14
 -1       145 9.55575E-03 6.45800E-04-1.81091E-14
 -1       146 9.13663E-03 5.72790E-04-1.75575E-14
 -1       147 8.74565E-03 4.57846E-04-1.70508E-14
 -1       148 8.45463E-03 3.23682E-04-1.66828E-14
 -1       149 8.24300E-03 1.66198E-04-1.64302E-14
 -1       150 8.12933E-03-3.32928E-06-1.63079E-14
 -1       151 8.11525E-03-1.70336E-04-1.63174E-14
 -1       152 8.19249E-03-3.37901E-04-1.64528E-14
 -1       153 8.35742E-03-5.00536E-04-1.67095E-14
 -1       154 8.93166E-03-7.88797E-04-1.75176E-14
 -1       155 9.30759E-03-8.97341E-04-1.80241E-14
 -1       156 9.71771E-03-9.73421E-04-1.85639E-14
 -1       157 1.01917E-02-1.01688E-03-1.91965E-14
 -1       158 1.06291E-02-1.01728E-03-1.97866E-14
 -1       159 1.10871E-02-9.75612E-04-2.04175E-14
 -1       160 1.14777E-02-9.02384E-04-2.09629E-14
 -1       161 1.18238E-02-7.99066E-04-2.14535E-14
 -1       162 1.21342E-02-6.58336E-04-2.18931E-14
 -1       163 1.23400E-02-5.11352E-04-2.21856E-14
 -1       164 1.24688E-02-3.43351E-04-2.23757E-14
 -1       165 2.40352E-04-1.25555E-04-6.12574E-18
 -1       166 2.25236E-04-9.46681E-05-9.57486E-18
 -1       167 2.19517E-04-7.28377E-05-1.11165E-17
 -1       168 2.16726E-04-5.51569E-05-1.16450E-17
 -1       169 2.15250E-04-4.00095E-05-1.13469E-17
 -1       170 2.14429E-04-2.59455E-05-1.04795E-17
 -1       171 2.14019E-04-1.26597E-05-9.45966E-18
 -1       172 2.13900E-04 2.73080E-07-8.70072E-18
 -1       173 2.14038E-04 1.32182E-05-8.00954E-18
 -1       174 2.14470E-04 2.65438E-05-6.91179E-18
 -1       175 2.15300E-04 4.04360E-05-5.47522E-18
 -1       176 2.16830E-04 5.59651E-05-3.39491E-18
 -1       177 2.19664E-04 7.38714E-05-5.52265E-19
 -1       178 2.25413E-04 9.60696E-05 3.51010E-18
 -1       179 2.39282E-04 1.27636E-04 9.67650E-18
 -1       180 2.97636E-04 1.85528E-04 1.71372E-17
 -1       181 4.68507E-04-2.63598E-04-1.67814E-17
 -1       182 7.66554E-04-3.82198E-04-5.94109E-17
 -1       183 1.05029E-03-4.65046E-04-1.28159E-16
 -1       184 1.32755E-03-5.23736E-04-2.23508E-16
 -1       185 1.60201E-03-5.65275E-04-3.44925E-16
 -1       186 1.87575E-03-5.94329E-04-4.94054E-16
 -1       187 2.14989E-03-6.14176E-04-6.71673E-16
 -1       188 2.42505E-03-6.27205E-04-8.78939E-16
 -1       189 2.70151E-03-6.35187E-04-1.11817E-15
 -1       190 2.97936E-03-6.39429E-04-1.39080E-15
 -1       191 3.25859E-03-6.40886E-04-1.69598E-15
 -1       192 3.53915E-03-6.40236E-04-2.03432E-15
 -1       193 3.82099E-03-6.37943E-04-2.40862E-15
 -1       194 4.10410E-03-6.34307E-04-2.81703E-15
 -1       195 4.38850E-03-6.29504E-04-3.26219E-15
 -1       196 4.67431E-03-6.23637E-04-3.74376E-15
 -1       197 4.96172E-03-6.16769E-04-4.26011E-15
 -1       198 5.25105E-03-6.08973E-04-4.81249E-15
 -1       199 5.54276E-03-6.00392E-04-5.40224E-15
 -1       200 5.83744E-03-5.91309E-04-6.03238E-15
 -1       201 6.13585E-03-5.82245E-04-6.70710E-15
 -1       202 6.43891E-03-5.74090E-04-7.42529E-15
 -1       203 6.74767E-03-5.68277E-04-8.19168E-15
 -1       204 7.06325E-03-5.66996E-04-9.00414E-15
 -1       205 7.38671E-03-5.73436E-04-9.86296E-15
 -1       206 7.71877E-03-5.91986E-04-1.07650E-14
 -1       207 8.05947E-03-6.28215E-04-1.17095E-14
 -1       208 8.40763E-03-6.88299E-04-1.27085E-14
 -1       209 8.76020E-03-7.77365E-04-1.37583E-14
 -1       210 9.11188E-03-8.96218E-04-1.48576E-14
 -1       211 9.45564E-03-1.03673E-03-1.60026E-14
 -1       212 9.78483E-03-1.17818E-03-1.71969E-14
 -1       213 1.00971E-02-1.28933E-03-1.84429E-14
 -1       214 1.03977E-02-1.34000E-03-1.97459E-14
 -1       215 1.06981E-02-1.31753E-03-2.11127E-14
 -1       216 1.10100E-02-1.23486E-03-2.25379E-14
 -1       217 1.13384E-02-1.12223E-03-2.40090E-14
 -1       218 1.16808E-02-1.01071E-03-2.55207E-14
 -1       219 1.20304E-02-9.20755E-04-2.70710E-14
 -1       220 1.23802E-02-8.60211E-04-2.86664E-14
 -1       221 1.27248E-02-8.27969E-04-3.03057E-14
 -1       222 1.30611E-02-8.18554E-04-3.19804E-14
 -1       223 1.33877E-02-8.25326E-04-3.36873E-14
 -1       224 1.37047E-02-8.42098E-04-3.54355E-14
 -1       225 1.40127E-02-8.63669E-04-3.71999E-14
 -1       226 1.43131E-02-8.85847E-04-3.89708E-14
 -1       227 1.46072E-02-9.05340E-04-4.07544E-14
 -1       228 1.48967E-02-9.19863E-04-4.25481E-14
 -1       229 6.04402E-04 3.31084E-04 2.66341E-17
 -1       230 8.93389E-04 4.32690E-04 2.24870E-17
 -1       231 1.17216E-03 5.04382E-04 6.16640E-19
 -1       232 1.44636E-03 5.55357E-04-4.17384E-17
 -1       233 1.71902E-03 5.91420E-04-1.06645E-16
 -1       234 1.99175E-03 6.16527E-04-1.95146E-16
 -1       235 2.26540E-03 6.33521E-04-3.09594E-16
 -1       236 2.54039E-03 6.44499E-04-4.53861E-16
 -1       237 2.81687E-03 6.51018E-04-6.28969E-16
 -1       238 3.09487E-03 6.54228E-04-8.38014E-16
 -1       239 3.37434E-03 6.54964E-04-1.07998E-15
 -1       240 3.65519E-03 6.53814E-04-1.35602E-15
 -1       241 3.93736E-03 6.51181E-04-1.67164E-15
 -1       242 4.22085E-03 6.47323E-04-2.02753E-15
 -1       243 4.50570E-03 6.42409E-04-2.42247E-15
 -1       244 4.79205E-03 6.36551E-04-2.85511E-15
 -1       245 5.08010E-03 6.29861E-04-3.33515E-15
 -1       246 5.37021E-03 6.22496E-04-3.86563E-15
 -1       247 5.66281E-03 6.14725E-04-4.44496E-15
 -1       248 5.95846E-03 6.07005E-04-5.07575E-15
 -1       249 6.25780E-03 6.00072E-04-5.75308E-15
 -1       250 6.56153E-03 5.95051E-04-6.47564E-15
 -1       251 6.87032E-03 5.93561E-04-7.23806E-15
 -1       252 7.18467E-03 5.97809E-04-8.04946E-15
 -1       253 7.50470E-03 6.10598E-04-8.91471E-15
 -1       254 7.82994E-03 6.35158E-04-9.83366E-15
 -1       255 8.15893E-03 6.74647E-04-1.07984E-14
 -1       256 8.48904E-03 7.31141E-04-1.18061E-14
 -1       257 8.81641E-03 8.04051E-04-1.28577E-14
 -1       258 9.13647E-03 8.88215E-04-1.39665E-14
 -1       259 9.44512E-03 9.72595E-04-1.51243E-14
 -1       260 9.74061E-03 1.04108E-03-1.63295E-14
 -1       261 1.00251E-02 1.07655E-03-1.75941E-14
 -1       262 1.03047E-02 1.06732E-03-1.89274E-14
 -1       263 1.05875E-02 1.01240E-03-2.03184E-14
 -1       264 1.08802E-02 9.21994E-04-2.17572E-14
 -1       265 1.11856E-02 8.12743E-04-2.32439E-14
 -1       266 1.15023E-02 7.01205E-04-2.47805E-14
 -1       267 1.18266E-02 5.99264E-04-2.63674E-14
 -1       268 1.21536E-02 5.12815E-04-2.80030E-14
 -1       269 1.24791E-02 4.42809E-04-2.96665E-14
 -1       270 1.28003E-02 3.87108E-04-3.13579E-14
 -1       271 1.31154E-02 3.42127E-04-3.30694E-14
 -1       272 1.34238E-02 3.03918E-04-3.47903E-14
 -1       273 1.37255E-02 2.68730E-04-3.65187E-14
 -1       274 1.40213E-02 2.33270E-04-3.82525E-14
 -1       275 1.43124E-02 1.94872E-04-3.99914E-14
 -1       276 1.46000E-02 1.51907E-04-4.17351E-14
 -1       277 1.46874E-02 8.06816E-05-4.21299E-14
 -1       278 1.47400E-02-4.20706E-07-4.22407E-14
 -1       279 1.47963E-02-7.79120E-05-4.23531E-14
 -1       280 1.48537E-02-1.50996E-04-4.24687E-14
 -1       281 1.49082E-02-2.18273E-04-4.25875E-14
 -1       282 1.49588E-02-2.82380E-04-4.27085E-14
 -1       283 1.50017E-02-3.43002E-04-4.28271E-14
 -1       284 1.50349E-02-4.01507E-04-4.29321E-14
 -1       285 1.50577E-02-4.59587E-04-4.30226E-14
 -1       286 1.50701E-02-5.19032E-04-4.31040E-14
 -1       287 1.50739E-02-5.80401E-04-4.31877E-14
 -1       288 1.50716E-02-6.47050E-04-4.32777E-14
 -1       289 1.50665E-02-7.18627E-04-4.33703E-14
 -1       290 1.50623E-02-7.95078E-04-4.34684E-14
 -1       291 1.49781E-02-8.56675E-04-4.30129E-14
 -1       292 1.25049E-02-1.44377E-04-2.30223E-14
 -1       293 1.23632E-02-4.06710E-05-2.28165E-14
 -1       294 1.21062E-02 8.45124E-05-2.24817E-14
 -1       295 1.17689E-02 2.55636E-04-2.19154E-14
 -1       296 1.13650E-02 4.32319E-04-2.12994E-14
 -1       297 1.09782E-02 6.03746E-04-2.05335E-14
 -1       298 1.06043E-02 7.18214E-04-1.97550E-14
 -1       299 1.02312E-02 7.62640E-04-1.89852E-14
 -1       300 9.86098E-03 7.18458E-04-1.82579E-14
 -1       301 9.48425E-03 6.07179E-04-1.75887E-14
 -1       302 9.09827E-03 4.38322E-04-1.69338E-14
 -1       303 8.70737E-03 2.71397E-04-1.64839E-14
 -1       304 8.39850E-03 1.10591E-04-1.60828E-14
 -1       305 8.17377E-03-7.58713E-06-1.58759E-14
 -1       306 8.08476E-03-9.75795E-05-1.58805E-14
 -1       307 8.12794E-03-1.86611E-04-1.59365E-14
 -1       308 8.29616E-03-2.99256E-04-1.61830E-14
 -1       309 8.56410E-03-4.37764E-04-1.65228E-14
 -1       310 8.91194E-03-6.02017E-04-1.69577E-14
 -1       311 9.29597E-03-7.82853E-04-1.75002E-14
 -1       312 9.65397E-03-9.46871E-04-1.81438E-14
 -1       313 1.00354E-02-1.06324E-03-1.88293E-14
 -1       314 1.04009E-02-1.09721E-03-1.95535E-14
 -1       315 1.07600E-02-1.05485E-03-2.03025E-14
 -1       316 1.11398E-02-9.34076E-04-2.09823E-14
 -1       317 1.14997E-02-7.82115E-04-2.16082E-14
 -1       318 1.18532E-02-6.01867E-04-2.22438E-14
 -1       319 1.21794E-02-4.56878E-04-2.26259E-14
 -1       320 1.24060E-02-3.29008E-04-2.29646E-14
 -1       321 1.25186E-02-2.34147E-04-2.30590E-14
 -1       322 4.55252E-04-1.64824E-04-3.79572E-17
 -1       323 4.74168E-04-2.13051E-04-3.31698E-17
 -1       324 4.40496E-04-9.40852E-05-4.04543E-17
 -1       325 4.37567E-04-6.49661E-05-3.90211E-17
 -1       326 4.35970E-04-3.79401E-05-3.69679E-17
 -1       327 4.35272E-04-1.20287E-05-3.45589E-17
 -1       328 4.35303E-04 1.35487E-05-3.21906E-17
 -1       329 4.36067E-04 3.95175E-05-2.94395E-17
 -1       330 4.37709E-04 6.61943E-05-2.56922E-17
 -1       331 4.40730E-04 9.54857E-05-2.08404E-17
 -1       332 4.46074E-04 1.28407E-04-1.45452E-17
 -1       333 4.55857E-04 1.67387E-04-5.95295E-18
 -1       334 4.75798E-04 2.17118E-04 5.63108E-18
 -1       335 5.31887E-04 2.70034E-04 1.46672E-17
 -1       336 8.24283E-04 3.73563E-04 5.72933E-18
 -1       337 8.63081E-04-3.57467E-04-1.03355E-16
 -1       338 1.14936E-03-4.26166E-04-1.87415E-16
 -1       339 1.43206E-03-4.75220E-04-2.97136E-16
 -1       340 1.71269E-03-5.09764E-04-4.32915E-16
 -1       341 1.99238E-03-5.33568E-04-5.96450E-16
 -1       342 2.27190E-03-5.49425E-04-7.88151E-16
 -1       343 2.55174E-03-5.59411E-04-1.00911E-15
 -1       344 2.83216E-03-5.65065E-04-1.26282E-15
 -1       345 3.11332E-03-5.67520E-04-1.54941E-15
 -1       346 3.39529E-03-5.67585E-04-1.86795E-15
 -1       347 3.67811E-03-5.65821E-04-2.22181E-15
 -1       348 3.96178E-03-5.62596E-04-2.61265E-15
 -1       349 4.24637E-03-5.58131E-04-3.03713E-15
 -1       350 4.53194E-03-5.52546E-04-3.49870E-15
 -1       351 4.81863E-03-5.45896E-04-3.99616E-15
 -1       352 5.10662E-03-5.38223E-04-4.52843E-15
 -1       353 5.39619E-03-5.29597E-04-5.09959E-15
 -1       354 5.68768E-03-5.20188E-04-5.71022E-15
 -1       355 5.98154E-03-5.10343E-04-6.36409E-15
 -1       356 6.27832E-03-5.00695E-04-7.06040E-15
 -1       357 6.57867E-03-4.92315E-04-7.80219E-15
 -1       358 6.88336E-03-4.86901E-04-8.59171E-15
 -1       359 7.19323E-03-4.87003E-04-9.42643E-15
 -1       360 7.50925E-03-4.96274E-04-1.03063E-14
 -1       361 7.83242E-03-5.19640E-04-1.12289E-14
 -1       362 8.16367E-03-5.63200E-04-1.21977E-14
 -1       363 8.50350E-03-6.33480E-04-1.32209E-14
 -1       364 8.85119E-03-7.35378E-04-1.42897E-14
 -1       365 9.20357E-03-8.68131E-04-1.54060E-14
 -1       366 9.55420E-03-1.01943E-03-1.65706E-14
 -1       367 9.89544E-03-1.16106E-03-1.77850E-14
 -1       368 1.02243E-02-1.25399E-03-1.90529E-14
 -1       369 1.05473E-02-1.26804E-03-2.03827E-14
 -1       370 1.08760E-02-1.20344E-03-2.17792E-14
 -1       371 1.12168E-02-1.09052E-03-2.32316E-14
 -1       372 1.15665E-02-9.68355E-04-2.47333E-14
 -1       373 1.19176E-02-8.64746E-04-2.62655E-14
 -1       374 1.22635E-02-7.91748E-04-2.78378E-14
 -1       375 1.26010E-02-7.49849E-04-2.94554E-14
 -1       376 1.29295E-02-7.33851E-04-3.11100E-14
 -1       377 1.32493E-02-7.36844E-04-3.27985E-14
 -1       378 1.35612E-02-7.52203E-04-3.45174E-14
 -1       379 1.38664E-02-7.74296E-04-3.62690E-14
 -1       380 1.41657E-02-7.98565E-04-3.80263E-14
 -1       381 1.44601E-02-8.21377E-04-3.97978E-14
 -1       382 1.47203E-02-8.41519E-04-4.13987E-14
 -1       383 1.10967E-03 4.47835E-04-2.01120E-17
 -1       384 1.39032E-03 5.00794E-04-6.56518E-17
 -1       385 1.66852E-03 5.38229E-04-1.33431E-16
 -1       386 1.94580E-03 5.64241E-04-2.24925E-16
 -1       387 2.22312E-03 5.81807E-04-3.42381E-16
 -1       388 2.50101E-03 5.93127E-04-4.88846E-16
 -1       389 2.77977E-03 5.99835E-04-6.65473E-16
 -1       390 3.05954E-03 6.03132E-04-8.75564E-16
 -1       391 3.34035E-03 6.03892E-04-1.11893E-15
 -1       392 3.62222E-03 6.02726E-04-1.39559E-15
 -1       393 3.90515E-03 6.00049E-04-1.71087E-15
 -1       394 4.18914E-03 5.96127E-04-2.06574E-15
 -1       395 4.47426E-03 5.91122E-04-2.46050E-15
 -1       396 4.76062E-03 5.85138E-04-2.89263E-15
 -1       397 5.04842E-03 5.78267E-04-3.37182E-15
 -1       398 5.33790E-03 5.70638E-04-3.89936E-15
 -1       399 5.62943E-03 5.62484E-04-4.47599E-15
 -1       400 5.92344E-03 5.54212E-04-5.10292E-15
 -1       401 6.22043E-03 5.46501E-04-5.77705E-15
 -1       402 6.52098E-03 5.40403E-04-6.49472E-15
 -1       403 6.82564E-03 5.37464E-04-7.25454E-15
 -1       404 7.13492E-03 5.39826E-04-8.06144E-15
 -1       405 7.44914E-03 5.50262E-04-8.92069E-15
 -1       406 7.76830E-03 5.72066E-04-9.83187E-15
 -1       407 8.09179E-03 6.08632E-04-1.07907E-14
 -1       408 8.41822E-03 6.62554E-04-1.17920E-14
 -1       409 8.74510E-03 7.34082E-04-1.28405E-14
 -1       410 9.06897E-03 8.19088E-04-1.39417E-14
 -1       411 9.38599E-03 9.07275E-04-1.50934E-14
 -1       412 9.69349E-03 9.82247E-04-1.62929E-14
 -1       413 9.99190E-03 1.02517E-03-1.75513E-14
 -1       414 1.02856E-02 1.02190E-03-1.88784E-14
 -1       415 1.05812E-02 9.69762E-04-2.02598E-14
 -1       416 1.08843E-02 8.78956E-04-2.16930E-14
 -1       417 1.11969E-02 7.67432E-04-2.31713E-14
 -1       418 1.15172E-02 6.53186E-04-2.46983E-14
 -1       419 1.18415E-02 5.49002E-04-2.62776E-14
 -1       420 1.21661E-02 4.61102E-04-2.79087E-14
 -1       421 1.24880E-02 3.90425E-04-2.95686E-14
 -1       422 1.28052E-02 3.34697E-04-3.12550E-14
 -1       423 1.31169E-02 2.90182E-04-3.29592E-14
 -1       424 1.34228E-02 2.52799E-04-3.46703E-14
 -1       425 1.37231E-02 2.18698E-04-3.63921E-14
 -1       426 1.40184E-02 1.84496E-04-3.81260E-14
 -1       427 1.43096E-02 1.47419E-04-3.98621E-14
 -1       428 1.44990E-02 1.15138E-04-4.09936E-14
 -1       429 1.45801E-02-7.88639E-05-4.09046E-14
 -1       430 1.45213E-02-2.52963E-06-4.07857E-14
 -1       431 1.45086E-02 5.54471E-05-4.08894E-14
 -1       432 1.46376E-02-1.50111E-04-4.10234E-14
 -1       433 1.46926E-02-2.18814E-04-4.11401E-14
 -1       434 1.47409E-02-2.84196E-04-4.12514E-14
 -1       435 1.47799E-02-3.47162E-04-4.13564E-14
 -1       436 1.48082E-02-4.08960E-04-4.14527E-14
 -1       437 1.48252E-02-4.71037E-04-4.15412E-14
 -1       438 1.48319E-02-5.33747E-04-4.16249E-14
 -1       439 1.48308E-02-6.00491E-04-4.17091E-14
 -1       440 1.48248E-02-6.71104E-04-4.17883E-14
 -1       441 1.48178E-02-7.46001E-04-4.18726E-14
 -1       442 1.22376E-02-5.09030E-05-2.32969E-14
 -1       443 1.25437E-02-1.96505E-04-2.37279E-14
 -1       444 1.24557E-02-1.38577E-04-2.36190E-14
 -1       445 1.18770E-02 9.51252E-05-2.28429E-14
 -1       446 1.15431E-02 2.62635E-04-2.22043E-14
 -1       447 4.45687E-04-1.26568E-04-4.01900E-17
 -1       448 1.07227E-02 6.86101E-04-2.02655E-14
 -1       449 1.04038E-02 7.79718E-04-1.94131E-14
 -1       450 1.00543E-02 7.80925E-04-1.84630E-14
 -1       451 9.72776E-03 6.82374E-04-1.76678E-14
 -1       452 9.37752E-03 5.19582E-04-1.69580E-14
 -1       453 8.93387E-03 2.91752E-04-1.62219E-14
 -1       454 8.61459E-03 1.42578E-04-1.58277E-14
 -1       455 8.27356E-03-2.91096E-06-1.53717E-14
 -1       456 8.08712E-03-7.79679E-05-1.52551E-14
 -1       457 8.06571E-03-1.17104E-04-1.53103E-14
 -1       458 8.20304E-03-1.86378E-04-1.55099E-14
 -1       459 8.40896E-03-2.74734E-04-1.58332E-14
 -1       460 8.77296E-03-4.47446E-04-1.63642E-14
 -1       461 9.15581E-03-6.43767E-04-1.69165E-14
 -1       462 9.56682E-03-8.69252E-04-1.76616E-14
 -1       463 9.89024E-03-1.02423E-03-1.83442E-14
 -1       464 1.02495E-02-1.12811E-03-1.92250E-14
 -1       465 1.05244E-02-1.12477E-03-1.99651E-14
 -1       466 1.09206E-02-1.00186E-03-2.09611E-14
 -1       467 1.12199E-02-8.60986E-04-2.15864E-14
 -1       468 1.15987E-02-6.59803E-04-2.23915E-14
 -1       469 1.20092E-02-4.56046E-04-2.31199E-14
 -1       470 1.22695E-02-3.45288E-04-2.34580E-14
 -1       471 1.24910E-02-2.51055E-04-2.37009E-14
 -1       472 1.10840E-02 5.09911E-04-2.12115E-14
 -1       473 9.31089E-04 3.46089E-04-3.10455E-17
 -1       474 6.65999E-04-7.51835E-05-8.26941E-17
 -1       475 6.69909E-04-1.15963E-04-8.55537E-17
 -1       476 6.63369E-04 1.10571E-06-7.42712E-17
 -1       477 6.64078E-04 3.87934E-05-6.92026E-17
 -1       478 6.66187E-04 7.68707E-05-6.29142E-17
 -1       479 6.70229E-04 1.17803E-04-5.49250E-17
 -1       480 6.77170E-04 1.62435E-04-4.49131E-17
 -1       481 6.89003E-04 2.12804E-04-3.18586E-17
 -1       482 1.21692E-03 4.06504E-04-7.47964E-17
 -1       483 9.76174E-04-3.28693E-04-1.51443E-16
 -1       484 1.12991E-02 3.77457E-04-2.22318E-14
 -1       485 1.26203E-03-3.83476E-04-2.49441E-16
 -1       486 1.54703E-03-4.23084E-04-3.72142E-16
 -1       487 1.83112E-03-4.50907E-04-5.21952E-16
 -1       488 2.11464E-03-4.69824E-04-6.98758E-16
 -1       489 2.39790E-03-4.82090E-04-9.03557E-16
 -1       490 2.68117E-03-4.89430E-04-1.13866E-15
 -1       491 2.96462E-03-4.93132E-04-1.40532E-15
 -1       492 3.24837E-03-4.94139E-04-1.70548E-15
 -1       493 3.53249E-03-4.93114E-04-2.03978E-15
 -1       494 3.81703E-03-4.90505E-04-2.40930E-15
 -1       495 4.10204E-03-4.86590E-04-2.81492E-15
 -1       496 4.38756E-03-4.81525E-04-3.25569E-15
 -1       497 4.67367E-03-4.75382E-04-3.73270E-15
 -1       498 4.96046E-03-4.68194E-04-4.24563E-15
 -1       499 5.24803E-03-4.59995E-04-4.79646E-15
 -1       500 5.53656E-03-4.50876E-04-5.38695E-15
 -1       501 5.82623E-03-4.41050E-04-6.02211E-15
 -1       502 6.11731E-03-4.30941E-04-6.69976E-15
 -1       503 6.41011E-03-4.21295E-04-7.41821E-15
 -1       504 6.70507E-03-4.13328E-04-8.18200E-15
 -1       505 7.00280E-03-4.08904E-04-8.99265E-15
 -1       506 7.30422E-03-4.10759E-04-9.84878E-15
 -1       507 7.61072E-03-4.22725E-04-1.07495E-14
 -1       508 7.92440E-03-4.49931E-04-1.16953E-14
 -1       509 8.24817E-03-4.98836E-04-1.26876E-14
 -1       510 8.58528E-03-5.76747E-04-1.37300E-14
 -1       511 8.93764E-03-6.89827E-04-1.48178E-14
 -1       512 9.30263E-03-8.37928E-04-1.59493E-14
 -1       513 9.67041E-03-1.00462E-03-1.71339E-14
 -1       514 1.00286E-02-1.14843E-03-1.83647E-14
 -1       515 1.03741E-02-1.21461E-03-1.96562E-14
 -1       516 1.07197E-02-1.17631E-03-2.10184E-14
 -1       517 1.10780E-02-1.06108E-03-2.24483E-14
 -1       518 1.14452E-02-9.23685E-04-2.39331E-14
 -1       519 1.18094E-02-8.04769E-04-2.54575E-14
 -1       520 1.21608E-02-7.20832E-04-2.70130E-14
 -1       521 1.24967E-02-6.71666E-04-2.86062E-14
 -1       522 1.28190E-02-6.50853E-04-3.02406E-14
 -1       523 1.31310E-02-6.50796E-04-3.19095E-14
 -1       524 1.34355E-02-6.64616E-04-3.36108E-14
 -1       525 1.37346E-02-6.86605E-04-3.53400E-14
 -1       526 1.40295E-02-7.12165E-04-3.70909E-14
 -1       527 1.43212E-02-7.37602E-04-3.88468E-14
 -1       528 1.78365E-03 4.80712E-04-2.26222E-16
 -1       529 2.06560E-03 5.01733E-04-3.38068E-16
 -1       530 2.34731E-03 5.15574E-04-4.76747E-16
 -1       531 2.62914E-03 5.24103E-04-6.44965E-16
 -1       532 2.91132E-03 5.28713E-04-8.44895E-16
 -1       533 3.19398E-03 5.30427E-04-1.07830E-15
 -1       534 3.47721E-03 5.29972E-04-1.34525E-15
 -1       535 3.76103E-03 5.27849E-04-1.64703E-15
 -1       536 4.04551E-03 5.24380E-04-1.98864E-15
 -1       537 4.33068E-03 5.19764E-04-2.36894E-15
 -1       538 4.61663E-03 5.14114E-04-2.78728E-15
 -1       539 4.90346E-03 5.07504E-04-3.24773E-15
 -1       540 5.19134E-03 5.00015E-04-3.75588E-15
 -1       541 5.48046E-03 4.91792E-04-4.31205E-15
 -1       542 5.77109E-03 4.83109E-04-4.91823E-15
 -1       543 6.06358E-03 4.74446E-04-5.57193E-15
 -1       544 6.35832E-03 4.66592E-04-6.26941E-15
 -1       545 6.65582E-03 4.60749E-04-7.00902E-15
 -1       546 6.95665E-03 4.58654E-04-7.79348E-15
 -1       547 7.26150E-03 4.62673E-04-8.62865E-15
 -1       548 7.57110E-03 4.75822E-04-9.51339E-15
 -1       549 7.88619E-03 5.01636E-04-1.04476E-14
 -1       550 8.20723E-03 5.43696E-04-1.14255E-14
 -1       551 8.53392E-03 6.04599E-04-1.24510E-14
 -1       552 8.86453E-03 6.84093E-04-1.35242E-14
 -1       553 9.19535E-03 7.76461E-04-1.46463E-14
 -1       554 9.52133E-03 8.68061E-04-1.58207E-14
 -1       555 9.83867E-03 9.37786E-04-1.70513E-14
 -1       556 1.01482E-02 9.63489E-04-1.83456E-14
 -1       557 1.04561E-02 9.33139E-04-1.96997E-14
 -1       558 1.07697E-02 8.52156E-04-2.11057E-14
 -1       559 1.10920E-02 7.40150E-04-2.25589E-14
 -1       560 1.14209E-02 6.19721E-04-2.40590E-14
 -1       561 1.17511E-02 5.07723E-04-2.56110E-14
 -1       562 1.20783E-02 4.12646E-04-2.72169E-14
 -1       563 1.24000E-02 3.36335E-04-2.88618E-14
 -1       564 1.27153E-02 2.76737E-04-3.05288E-14
 -1       565 1.30244E-02 2.30068E-04-3.22188E-14
 -1       566 1.33280E-02 1.92123E-04-3.39259E-14
 -1       567 1.36267E-02 1.58909E-04-3.56373E-14
 -1       568 1.39213E-02 1.26891E-04-3.73622E-14
 -1       569 1.42123E-02 9.30399E-05-3.90935E-14
 -1       570 1.44235E-02-1.56777E-04-3.95735E-14
 -1       571 1.44775E-02-2.25545E-04-3.96835E-14
 -1       572 1.43038E-02-9.86352E-06-3.93382E-14
 -1       573 1.43646E-02-8.51156E-05-3.94569E-14
 -1       574 1.45229E-02-2.91400E-04-3.97870E-14
 -1       575 1.45575E-02-3.55328E-04-3.98835E-14
 -1       576 1.45800E-02-4.18639E-04-3.99740E-14
 -1       577 1.45906E-02-4.81697E-04-4.00562E-14
 -1       578 1.45914E-02-5.48049E-04-4.01337E-14
 -1       579 1.45849E-02-6.17743E-04-4.02105E-14
 -1       580 1.45751E-02-6.91491E-04-4.02890E-14
 -1       581 1.25500E-02-1.86967E-04-2.45699E-14
 -1       582 1.21103E-02-2.73793E-05-2.38293E-14
 -1       583 1.50097E-03 4.50041E-04-1.38883E-16
 -1       584 1.25646E-02-2.21781E-04-2.45785E-14
 -1       585 1.17072E-02 1.56337E-04-2.31175E-14
 -1       586 7.12598E-04-2.51961E-04-8.50929E-17
 -1       587 1.13801E-02-7.64822E-04-2.24574E-14
 -1       588 1.00684E-02-1.10026E-03-1.86510E-14
 -1       589 8.43504E-03 5.68436E-05-1.51022E-14
 -1       590 9.16640E-03 4.02920E-04-1.61690E-14
 -1       591 6.63967E-04-3.65464E-05-7.87131E-17
 -1       592 1.02381E-02 8.13543E-04-1.89284E-14
 -1       593 8.12118E-03-5.17635E-05-1.46954E-14
 -1       594 1.05449E-02 7.56320E-04-1.99333E-14
 -1       595 9.88713E-03 7.56349E-04-1.78076E-14
 -1       596 9.55840E-03 6.10591E-04-1.69778E-14
 -1       597 8.69902E-03 1.68407E-04-1.54771E-14
 -1       598 8.96100E-03-5.07295E-04-1.61826E-14
 -1       599 8.02600E-03-9.42388E-05-1.46673E-14
 -1       600 8.08638E-03-1.32801E-04-1.48631E-14
 -1       601 8.29697E-03-2.06283E-04-1.51590E-14
 -1       602 1.18044E-02-5.39965E-04-2.33692E-14
 -1       603 8.60607E-03-3.32975E-04-1.56573E-14
 -1       604 9.38760E-03-7.48940E-04-1.69982E-14
 -1       605 9.74550E-03-9.53154E-04-1.77869E-14
 -1       606 1.03950E-02-1.15387E-03-1.96628E-14
 -1       607 1.07260E-02-1.09067E-03-2.07051E-14
 -1       608 1.11169E-02-9.09081E-04-2.18071E-14
 -1       609 1.21713E-02-3.73271E-04-2.39985E-14
 -1       610 1.24275E-02-2.76443E-04-2.43800E-14
 -1       611 1.08482E-02 6.24772E-04-2.08725E-14
 -1       612 7.03681E-04 2.90973E-04-6.49844E-18
 -1       613 1.23818E-02-1.27438E-04-2.42171E-14
 -1       614 6.76640E-04-1.60148E-04-8.68649E-17
 -1       615 6.91801E-04-2.02983E-04-8.72376E-17
 -1       616 8.90196E-03 2.84997E-04-1.54185E-14
 -1       617 8.22102E-03-1.71742E-06-1.44262E-14
 -1       618 1.45165E-02-7.54748E-04-4.00458E-14
 -1       619 9.00035E-04 7.41440E-05-1.18452E-16
 -1       620 8.97974E-04 2.51901E-05-1.27794E-16
 -1       621 9.11965E-04 1.78293E-04-9.33396E-17
 -1       622 9.24233E-04 2.36865E-04-7.61652E-17
 -1       623 1.04881E-03 3.13970E-04-7.62533E-17
 -1       624 1.40172E-02 2.18527E-05-3.76066E-14
 -1       625 1.12886E-02-8.52427E-04-2.27134E-14
 -1       626 1.16510E-02-6.49269E-04-2.36261E-14
 -1       627 1.38328E-03-3.37000E-04-3.13345E-16
 -1       628 1.66947E-03-3.67723E-04-4.49114E-16
 -1       629 1.95569E-03-3.89225E-04-6.11314E-16
 -1       630 2.24175E-03-4.03619E-04-8.01175E-16
 -1       631 2.52763E-03-4.12653E-04-1.01896E-15
 -1       632 2.81337E-03-4.17697E-04-1.26679E-15
 -1       633 3.09904E-03-4.19781E-04-1.54705E-15
 -1       634 3.38469E-03-4.19654E-04-1.86107E-15
 -1       635 3.67034E-03-4.17836E-04-2.21088E-15
 -1       636 3.95604E-03-4.14666E-04-2.59554E-15
 -1       637 4.24179E-03-4.10344E-04-3.01473E-15
 -1       638 4.52762E-03-4.04972E-04-3.47187E-15
 -1       639 4.81354E-03-3.98593E-04-3.96492E-15
 -1       640 5.09955E-03-3.91230E-04-4.49389E-15
 -1       641 5.38567E-03-3.82928E-04-5.06457E-15
 -1       642 5.67190E-03-3.73810E-04-5.67941E-15
 -1       643 5.95825E-03-3.64141E-04-6.33819E-15
 -1       644 6.24477E-03-3.54405E-04-7.03707E-15
 -1       645 6.53155E-03-3.45409E-04-7.77744E-15
 -1       646 6.81886E-03-3.38401E-04-8.56302E-15
 -1       647 7.10726E-03-3.35218E-04-9.39480E-15
 -1       648 7.39788E-03-3.38465E-04-1.02715E-14
 -1       649 7.69281E-03-3.51754E-04-1.11954E-14
 -1       650 7.99563E-03-3.80082E-04-1.21619E-14
 -1       651 8.31180E-03-4.30427E-04-1.31766E-14
 -1       652 8.64815E-03-5.12384E-04-1.42366E-14
 -1       653 9.01020E-03-6.36879E-04-1.53398E-14
 -1       654 9.39576E-03-8.08248E-04-1.64894E-14
 -1       655 9.80591E-03-1.02012E-03-1.77007E-14
 -1       656 1.01775E-02-1.15049E-03-1.89434E-14
 -1       657 1.05487E-02-1.16959E-03-2.02743E-14
 -1       658 1.09350E-02-1.04598E-03-2.16557E-14
 -1       659 1.20767E-02-6.41822E-04-2.61891E-14
 -1       660 1.24127E-02-5.88891E-04-2.77660E-14
 -1       661 1.27285E-02-5.66961E-04-2.93773E-14
 -1       662 1.30309E-02-5.66327E-04-3.10262E-14
 -1       663 1.33255E-02-5.79705E-04-3.27100E-14
 -1       664 1.36157E-02-6.01651E-04-3.44227E-14
 -1       665 1.39036E-02-6.27944E-04-3.61549E-14
 -1       666 1.41900E-02-6.55193E-04-3.79044E-14
 -1       667 2.19054E-03 4.36579E-04-4.59048E-16
 -1       668 1.43827E-02-6.74197E-04-3.90934E-14
 -1       669 1.90555E-03 4.20212E-04-3.27121E-16
 -1       670 2.76003E-03 4.53146E-04-8.09204E-16
 -1       671 3.04477E-03 4.56002E-04-1.03204E-15
 -1       672 3.32962E-03 4.56451E-04-1.28856E-15
 -1       673 3.61465E-03 4.55076E-04-1.57971E-15
 -1       674 3.89988E-03 4.52266E-04-1.90728E-15
 -1       675 4.18537E-03 4.48263E-04-2.27392E-15
 -1       676 4.47115E-03 4.43204E-04-2.67791E-15
 -1       677 4.75727E-03 4.37163E-04-3.12206E-15
 -1       678 5.04380E-03 4.30194E-04-3.61119E-15
 -1       679 5.33084E-03 4.22378E-04-4.14718E-15
 -1       680 5.61851E-03 4.13876E-04-4.73250E-15
 -1       681 5.90700E-03 4.04992E-04-5.36594E-15
 -1       682 6.19656E-03 3.96257E-04-6.04316E-15
 -1       683 6.48756E-03 3.88517E-04-6.76430E-15
 -1       684 6.78057E-03 3.83039E-04-7.52752E-15
 -1       685 7.07636E-03 3.81627E-04-8.33707E-15
 -1       686 7.37611E-03 3.86725E-04-9.19850E-15
 -1       687 7.68135E-03 4.01486E-04-1.01079E-14
 -1       688 7.99402E-03 4.29725E-04-1.10623E-14
 -1       689 8.31598E-03 4.75606E-04-1.20636E-14
 -1       690 8.64811E-03 5.42613E-04-1.31116E-14
 -1       691 8.98872E-03 6.31090E-04-1.42057E-14
 -1       692 9.33223E-03 7.34101E-04-1.53501E-14
 -1       693 9.67034E-03 8.32591E-04-1.65531E-14
 -1       694 9.99768E-03 8.96115E-04-1.78185E-14
 -1       695 1.03179E-02 8.96937E-04-1.91397E-14
 -1       696 1.06411E-02 8.29333E-04-2.05189E-14
 -1       697 1.09752E-02 7.14435E-04-2.19461E-14
 -1       698 1.13173E-02 5.83924E-04-2.34211E-14
 -1       699 1.16597E-02 4.62015E-04-2.49498E-14
 -1       700 1.19951E-02 3.59888E-04-2.65279E-14
 -1       701 1.23205E-02 2.79289E-04-2.81530E-14
 -1       702 1.26358E-02 2.17332E-04-2.98050E-14
 -1       703 1.29428E-02 1.69607E-04-3.14829E-14
 -1       704 1.32433E-02 1.31639E-04-3.31761E-14
 -1       705 1.35390E-02 9.93813E-05-3.48837E-14
 -1       706 1.37796E-02 6.02829E-05-3.62436E-14
 -1       707 1.19926E-02 4.05795E-05-2.43529E-14
 -1       708 1.43061E-02-3.01189E-04-3.83240E-14
 -1       709 1.42112E-02-1.67659E-04-3.81215E-14
 -1       710 1.43353E-02-3.64854E-04-3.84132E-14
 -1       711 1.42640E-02-2.35867E-04-3.82283E-14
 -1       712 8.73612E-03-4.01851E-04-1.54452E-14
 -1       713 1.43509E-02-4.27372E-04-3.84940E-14
 -1       714 1.43543E-02-4.92552E-04-3.85702E-14
 -1       715 1.43478E-02-5.60766E-04-3.86445E-14
 -1       716 1.25319E-02-1.70001E-04-2.53358E-14
 -1       717 9.50370E-04-2.70100E-04-1.54526E-16
 -1       718 1.06968E-02 7.09863E-04-2.05603E-14
 -1       719 8.53579E-03 1.23077E-04-1.47572E-14
 -1       720 1.26265E-02-2.13432E-04-2.54803E-14
 -1       721 1.25647E-02-2.50717E-04-2.53742E-14
 -1       722 9.66378E-03 6.97617E-04-1.69530E-14
 -1       723 1.62022E-03 3.95995E-04-2.20381E-16
 -1       724 2.47533E-03 4.47051E-04-6.18863E-16
 -1       725 1.16636E-03-3.07534E-04-2.26818E-16
 -1       726 8.12507E-03-1.55099E-04-1.44277E-14
 -1       727 1.33453E-03 3.61498E-04-1.37497E-16
 -1       728 9.04428E-04 1.24667E-04-1.07248E-16
 -1       729 7.98285E-03-6.69494E-05-1.39502E-14
 -1       730 1.23391E-02-1.04940E-04-2.49365E-14
 -1       731 9.16600E-03-6.31404E-04-1.62489E-14
 -1       732 9.04057E-04-1.22255E-04-1.47126E-16
 -1       733 1.10379E-02 5.39990E-04-2.17221E-14
 -1       734 7.98728E-03-1.06295E-04-1.41699E-14
 -1       735 1.15685E-02 2.52739E-04-2.33288E-14
 -1       736 8.42009E-03-2.60825E-04-1.49253E-14
 -1       737 9.53516E-03-8.55093E-04-1.70254E-14
 -1       738 1.23610E-02-3.20306E-04-2.50008E-14
 -1       739 9.34044E-03 5.30544E-04-1.61404E-14
 -1       740 9.88618E-03-1.04243E-03-1.80107E-14
 -1       741 1.20467E-02-4.50152E-04-2.44529E-14
 -1       742 1.00680E-02 8.22828E-04-1.82784E-14
 -1       743 1.03988E-02 8.09318E-04-1.94928E-14
 -1       744 9.11359E-04-1.75690E-04-1.50342E-16
 -1       745 8.97912E-04-2.31666E-05-1.35424E-16
 -1       746 9.07820E-03 4.22155E-04-1.53858E-14
 -1       747 1.13157E-02 4.14349E-04-2.28023E-14
 -1       748 8.02291E-03-2.95537E-05-1.36851E-14
 -1       749 1.17050E-02-7.30386E-04-2.45505E-14
 -1       750 1.41515E-02-9.64537E-05-3.80094E-14
 -1       751 8.99829E-04-7.18557E-05-1.41915E-16
 -1       752 1.42707E-02-6.06697E-04-3.82759E-14
 -1       753 1.05632E-02 7.89426E-04-2.01541E-14
 -1       754 1.16164E-03 2.43641E-04-1.39893E-16
 -1       755 9.28962E-04-2.20957E-04-1.53428E-16
 -1       756 1.18927E-02 1.50360E-04-2.48150E-14
 -1       757 1.74577E-03 3.38775E-04-3.09912E-16
 -1       758 1.79748E-03-3.09150E-04-5.26319E-16
 -1       759 2.08517E-03-3.24923E-04-7.01143E-16
 -1       760 2.37299E-03-3.35258E-04-9.02575E-16
 -1       761 2.66070E-03-3.41464E-04-1.13309E-15
 -1       762 2.94818E-03-3.44580E-04-1.39443E-15
 -1       763 3.23539E-03-3.45389E-04-1.68870E-15
 -1       764 3.52230E-03-3.44454E-04-2.01758E-15
 -1       765 3.80889E-03-3.42159E-04-2.38022E-15
 -1       766 4.09515E-03-3.38744E-04-2.77853E-15
 -1       767 4.38104E-03-3.34345E-04-3.21376E-15
 -1       768 4.66653E-03-3.29025E-04-3.68620E-15
 -1       769 4.95155E-03-3.22813E-04-4.19424E-15
 -1       770 5.23598E-03-3.15737E-04-4.74545E-15
 -1       771 5.51970E-03-3.07866E-04-5.33848E-15
 -1       772 5.80253E-03-2.99356E-04-5.97621E-15
 -1       773 6.08429E-03-2.90509E-04-6.65647E-15
 -1       774 6.36480E-03-2.81831E-04-7.37598E-15
 -1       775 6.64391E-03-2.74101E-04-8.13991E-15
 -1       776 6.92169E-03-2.68448E-04-8.94725E-15
 -1       777 7.19856E-03-2.66432E-04-9.79957E-15
 -1       778 7.47568E-03-2.70173E-04-1.06992E-14
 -1       779 7.75555E-03-2.82644E-04-1.16434E-14
 -1       780 8.04283E-03-3.08345E-04-1.26302E-14
 -1       781 8.34580E-03-3.55247E-04-1.36639E-14
 -1       782 8.67535E-03-4.37174E-04-1.47396E-14
 -1       783 1.20253E-02-5.49626E-04-2.53285E-14
 -1       784 1.26608E-02-4.80656E-04-2.85202E-14
 -1       785 1.29488E-02-4.82913E-04-3.01505E-14
 -1       786 1.32297E-02-4.97720E-04-3.18175E-14
 -1       787 1.35080E-02-5.20192E-04-3.35158E-14
 -1       788 1.37860E-02-5.46909E-04-3.52310E-14
 -1       789 1.40275E-02-5.77046E-04-3.67475E-14
 -1       790 2.03284E-03 3.57032E-04-4.36100E-16
 -1       791 8.50794E-03-3.30248E-04-1.46386E-14
 -1       792 3.18016E-03 3.82087E-04-1.22750E-15
 -1       793 2.89360E-03 3.80651E-04-9.82599E-16
 -1       794 3.75277E-03 3.79591E-04-1.82260E-15
 -1       795 4.03884E-03 3.76386E-04-2.17532E-15
 -1       796 4.32475E-03 3.72139E-04-2.56400E-15
 -1       797 4.61051E-03 3.66937E-04-2.99348E-15
 -1       798 4.89612E-03 3.60823E-04-3.46521E-15
 -1       799 5.18158E-03 3.53836E-04-3.98183E-15
 -1       800 5.46689E-03 3.46052E-04-4.54647E-15
 -1       801 5.75211E-03 3.37635E-04-5.15863E-15
 -1       802 6.03731E-03 3.28892E-04-5.81534E-15
 -1       803 6.32271E-03 3.20344E-04-6.51821E-15
 -1       804 6.60868E-03 3.12802E-04-7.26189E-15
 -1       805 6.89589E-03 3.07467E-04-8.05021E-15
 -1       806 7.18546E-03 3.06041E-04-8.88490E-15
 -1       807 7.47917E-03 3.10885E-04-9.76980E-15
 -1       808 7.77960E-03 3.25222E-04-1.07031E-14
 -1       809 8.09018E-03 3.53387E-04-1.16808E-14
 -1       810 8.41478E-03 4.01039E-04-1.27046E-14
 -1       811 8.75578E-03 4.74234E-04-1.37735E-14
 -1       812 9.11135E-03 5.76029E-04-1.48886E-14
 -1       813 9.47268E-03 6.97519E-04-1.60590E-14
 -1       814 1.01672E-02 8.58982E-04-1.85820E-14
 -1       815 1.12130E-02 5.48974E-04-2.27848E-14
 -1       816 1.15725E-02 4.10869E-04-2.42912E-14
 -1       817 1.19201E-02 2.99873E-04-2.58463E-14
 -1       818 1.22513E-02 2.16270E-04-2.74441E-14
 -1       819 1.25673E-02 1.54237E-04-2.90823E-14
 -1       820 1.28716E-02 1.07496E-04-3.07459E-14
 -1       821 1.31680E-02 7.08430E-05-3.24273E-14
 -1       822 1.34592E-02 4.01550E-05-3.41286E-14
 -1       823 1.40911E-02-3.11632E-04-3.68689E-14
 -1       824 1.41151E-02-5.02444E-04-3.70940E-14
 -1       825 1.41134E-02-3.73100E-04-3.69470E-14
 -1       826 1.26912E-02-2.42186E-04-2.64243E-14
 -1       827 1.13863E-03 5.90600E-05-1.93733E-16
 -1       828 1.41208E-02-4.36388E-04-3.70226E-14
 -1       829 3.46655E-03 3.81586E-04-1.50767E-15
 -1       830 8.19447E-03-2.04091E-04-1.40863E-14
 -1       831 1.23576E-02-4.99066E-04-2.69269E-14
 -1       832 9.84141E-03 8.08907E-04-1.73553E-14
 -1       833 1.25459E-02-2.93997E-04-2.60596E-14
 -1       834 1.23002E-02-4.94527E-05-2.57103E-14
 -1       835 7.95697E-03-1.24977E-04-1.36042E-14
 -1       836 8.89309E-03-5.18423E-04-1.53765E-14
 -1       837 1.23012E-02-3.90635E-04-2.56329E-14
 -1       838 1.24993E-02-1.29520E-04-2.61187E-14
 -1       839 1.51037E-03-2.86374E-04-3.78546E-16
 -1       840 7.86555E-03-8.18610E-05-1.32998E-14
 -1       841 1.26885E-02-2.02960E-04-2.64884E-14
 -1       842 1.24623E-03 3.00836E-04-1.40740E-16
 -1       843 1.08646E-02 6.64821E-04-2.13065E-14
 -1       844 8.67740E-03 2.37909E-04-1.45345E-14
 -1       845 8.27879E-03 6.60206E-05-1.39457E-14
 -1       846 1.13728E-03 1.19724E-06-2.05832E-16
 -1       847 1.15004E-03 1.79127E-04-1.61099E-16
 -1       848 1.14356E-03-2.53608E-04-2.25158E-16
 -1       849 7.85001E-03-5.30580E-05-1.30436E-14
 -1       850 1.40729E-02-5.38917E-04-3.69210E-14
 -1       851 2.31991E-03 3.69156E-04-5.89108E-16
 -1       852 2.60684E-03 3.76637E-04-7.70322E-16
 -1       853 1.08528E-02 6.97619E-04-2.13325E-14
 -1       854 1.36975E-02 2.97364E-06-3.54841E-14
 -1       855 1.39202E-02-6.14219E-05-3.66439E-14
 -1       856 1.40021E-02-1.80961E-04-3.66794E-14
 -1       857 1.39633E-02-1.22661E-04-3.66615E-14
 -1       858 1.16619E-02 2.90804E-04-2.42683E-14
 -1       859 1.40533E-02-2.47813E-04-3.67776E-14
 -1       860 1.14269E-03 1.17818E-04-1.79012E-16
 -1       861 1.49565E-03 3.24008E-04-2.15871E-16
 -1       862 8.39447E-03 1.64970E-04-1.37234E-14
 -1       863 1.14235E-03-1.15201E-04-2.23847E-16
 -1       864 1.14946E-03-1.76134E-04-2.29793E-16
 -1       865 1.27467E-02-1.76126E-04-2.75492E-14
 -1       866 2.21873E-03-2.58129E-04-7.90573E-16
 -1       867 2.50780E-03-2.64977E-04-1.00467E-15
 -1       868 2.79675E-03-2.68829E-04-1.24800E-15
 -1       869 3.08537E-03-2.70429E-04-1.52263E-15
 -1       870 3.37353E-03-2.70335E-04-1.83012E-15
 -1       871 3.66112E-03-2.68941E-04-2.17124E-15
 -1       872 3.94810E-03-2.66508E-04-2.54850E-15
 -1       873 4.23438E-03-2.63197E-04-2.96122E-15
 -1       874 4.51987E-03-2.59093E-04-3.41205E-15
 -1       875 4.80445E-03-2.54237E-04-3.89982E-15
 -1       876 5.08794E-03-2.48657E-04-4.42842E-15
 -1       877 5.37013E-03-2.42396E-04-5.00169E-15
 -1       878 5.65072E-03-2.35552E-04-5.61579E-15
 -1       879 5.92936E-03-2.28310E-04-6.27467E-15
 -1       880 6.20565E-03-2.20983E-04-6.97762E-15
 -1       881 6.47915E-03-2.14050E-04-7.72074E-15
 -1       882 6.74941E-03-2.08175E-04-8.50586E-15
 -1       883 7.01612E-03-2.04231E-04-9.33239E-15
 -1       884 7.27923E-03-2.03300E-04-1.02070E-14
 -1       885 7.53929E-03-2.06736E-04-1.11282E-14
 -1       886 7.79812E-03-2.16587E-04-1.20938E-14
 -1       887 8.06017E-03-2.36614E-04-1.31009E-14
 -1       888 1.28854E-02-4.01802E-04-2.92829E-14
 -1       889 1.31462E-02-4.19744E-04-3.09307E-14
 -1       890 1.34086E-02-4.43215E-04-3.26119E-14
 -1       891 1.36743E-02-4.70014E-04-3.43165E-14
 -1       892 8.82030E-03 3.76790E-04-1.44238E-14
 -1       893 4.17791E-03 3.00646E-04-2.44862E-15
 -1       894 3.89158E-03 3.03927E-04-2.07392E-15
 -1       895 4.74884E-03 2.91481E-04-3.31690E-15
 -1       896 5.03330E-03 2.85660E-04-3.81560E-15
 -1       897 5.31698E-03 2.79041E-04-4.35987E-15
 -1       898 5.59979E-03 2.71687E-04-4.95167E-15
 -1       899 5.88167E-03 2.63737E-04-5.58820E-15
 -1       900 6.16262E-03 2.55451E-04-6.27104E-15
 -1       901 6.44275E-03 2.47262E-04-6.99707E-15
 -1       902 6.72244E-03 2.39835E-04-7.76319E-15
 -1       903 7.00242E-03 2.34144E-04-8.57596E-15
 -1       904 7.28407E-03 2.31610E-04-9.43772E-15
 -1       905 7.56971E-03 2.34340E-04-1.03469E-14
 -1       906 7.86298E-03 2.45590E-04-1.13029E-14
 -1       907 8.16874E-03 2.70394E-04-1.23046E-14
 -1       908 8.49496E-03 3.17804E-04-1.33478E-14
 -1       909 7.78466E-03-1.02806E-04-1.27259E-14
 -1       910 1.25134E-02 8.58893E-05-2.83585E-14
 -1       911 1.28123E-02 4.28706E-05-3.00101E-14
 -1       912 1.31020E-02 9.45530E-06-3.16836E-14
 -1       913 1.33865E-02-1.85887E-05-3.33742E-14
 -1       914 1.38782E-02-3.20998E-04-3.54154E-14
 -1       915 1.27530E-02-2.89194E-04-2.74735E-14
 -1       916 1.25595E-02-9.19535E-05-2.71820E-14
 -1       917 1.26218E-02-3.93643E-04-2.76682E-14
 -1       918 1.21995E-02 1.45040E-04-2.67393E-14
 -1       919 7.89675E-03-1.56898E-04-1.29181E-14
 -1       920 1.19384E-02 2.06976E-04-2.54903E-14
 -1       921 1.22764E-02 3.75237E-05-2.64723E-14
 -1       922 1.64192E-03-2.31550E-04-4.45651E-16
 -1       923 1.13847E-03-5.65186E-05-2.15611E-16
 -1       924 1.25518E-02-3.55379E-04-2.68846E-14
 -1       925 4.46369E-03 2.96482E-04-2.86235E-15
 -1       926 3.02963E-03 3.06972E-04-1.16369E-15
 -1       927 1.92991E-03-2.47352E-04-6.04944E-16
 -1       928 7.99576E-03 3.58236E-05-1.29435E-14
 -1       929 1.28254E-02-2.37198E-04-2.76400E-14
 -1       930 1.87618E-03 2.78355E-04-4.07633E-16
 -1       931 1.28798E-03-2.08475E-04-2.83322E-16
 -1       932 1.40151E-03 2.36997E-04-2.24406E-16
 -1       933 2.16452E-03 2.91319E-04-5.54180E-16
 -1       934 7.72821E-03-7.36001E-05-1.24790E-14
 -1       935 8.07202E-03 1.13386E-04-1.27262E-14
 -1       936 1.38716E-02-5.04282E-04-3.56153E-14
 -1       937 2.74149E-03 3.04649E-04-9.29412E-16
 -1       938 1.62476E-03 2.69884E-04-2.97000E-16
 -1       939 3.60473E-03 3.06223E-04-1.73452E-15
 -1       940 1.37440E-02-1.28854E-04-3.51741E-14
 -1       941 1.38056E-02-1.98071E-04-3.52739E-14
 -1       942 1.38916E-02-3.82003E-04-3.54939E-14
 -1       943 1.38500E-02-2.60998E-04-3.53490E-14
 -1       944 3.31740E-03 3.07342E-04-1.43166E-15
 -1       945 1.38150E-03 3.40983E-05-2.89323E-16
 -1       946 1.38461E-03 9.97980E-05-2.71257E-16
 -1       947 1.38434E-03-9.70509E-05-3.16058E-16
 -1       948 7.78181E-03-1.41561E-06-1.23238E-14
 -1       949 1.28418E-02-1.42875E-04-2.87412E-14
 -1       950 2.64570E-03-1.93027E-04-1.10665E-15
 -1       951 2.93543E-03-1.95059E-04-1.36147E-15
 -1       952 3.22468E-03-1.95595E-04-1.64907E-15
 -1       953 3.51328E-03-1.94996E-04-1.96912E-15
 -1       954 3.80108E-03-1.93510E-04-2.32475E-15
 -1       955 4.08796E-03-1.91300E-04-2.71612E-15
 -1       956 4.37380E-03-1.88461E-04-3.14395E-15
 -1       957 4.65845E-03-1.85048E-04-3.60962E-15
 -1       958 4.94169E-03-1.81094E-04-4.11694E-15
 -1       959 5.22324E-03-1.76637E-04-4.66780E-15
 -1       960 5.50278E-03-1.71742E-04-5.25906E-15
 -1       961 5.77985E-03-1.66532E-04-5.89437E-15
 -1       962 6.05393E-03-1.61212E-04-6.57669E-15
 -1       963 6.32439E-03-1.56086E-04-7.30132E-15
 -1       964 6.59048E-03-1.51571E-04-8.06532E-15
 -1       965 6.85136E-03-1.48179E-04-8.87126E-15
 -1       966 7.10608E-03-1.46480E-04-9.72005E-15
 -1       967 7.35359E-03-1.47036E-04-1.06160E-14
 -1       968 7.59275E-03-1.50416E-04-1.15582E-14
 -1       969 1.29683E-02-2.22293E-04-2.89726E-14
 -1       970 4.03104E-03 2.28499E-04-2.33124E-15
 -1       971 1.38435E-02-4.35904E-04-3.52650E-14
 -1       972 1.33134E-02-3.72240E-04-3.17129E-14
 -1       973 1.35644E-02-3.98369E-04-3.34067E-14
 -1       974 1.77723E-03-1.72474E-04-5.13492E-16
 -1       975 5.16912E-03 2.12196E-04-4.17345E-15
 -1       976 4.88634E-03 2.17327E-04-3.64754E-15
 -1       977 5.73016E-03 1.99848E-04-5.36197E-15
 -1       978 6.00802E-03 1.92745E-04-6.02270E-15
 -1       979 6.28391E-03 1.85210E-04-6.72963E-15
 -1       980 6.55780E-03 1.77513E-04-7.47699E-15
 -1       981 6.82991E-03 1.70060E-04-8.26952E-15
 -1       982 7.10086E-03 1.63457E-04-9.10790E-15
 -1       983 7.37195E-03 1.58656E-04-9.99397E-15
 -1       984 7.64566E-03 1.57345E-04-1.09273E-14
 -1       985 7.92642E-03 1.62524E-04-1.19064E-14
 -1       986 2.45306E-03 2.99720E-04-7.27063E-16
 -1       987 1.29418E-02-2.80709E-04-2.87433E-14
 -1       988 1.30712E-02-3.48324E-04-3.00475E-14
 -1       989 1.35859E-02-4.19096E-05-3.45558E-14
 -1       990 1.27681E-02-2.39556E-05-2.92764E-14
 -1       991 1.39107E-03 1.67186E-04-2.49729E-16
 -1       992 1.38141E-03-3.12418E-05-3.03888E-16
 -1       993 1.38877E-03-1.65381E-04-3.24410E-16
 -1       994 1.35519E-02-1.08308E-04-3.39890E-14
 -1       995 1.63363E-03-1.43477E-04-4.35903E-16
 -1       996 1.32804E-02-8.59681E-05-3.22915E-14
 -1       997 2.06607E-03-1.82411E-04-6.83383E-16
 -1       998 1.30272E-02-5.71507E-05-3.07752E-14
 -1       999 5.45047E-03 2.06360E-04-4.74431E-15
 -1      1000 1.25270E-02 1.81093E-06-2.78622E-14
 -1      1001 2.35578E-03-1.89016E-04-8.80948E-16
 -1      1002 7.59983E-03-9.40911E-05-1.17991E-14
 -1      1003 7.82828E-03 5.81229E-05-1.21145E-14
 -1      1004 2.87890E-03 2.31392E-04-1.09698E-15
 -1      1005 4.31715E-03 2.25481E-04-2.72982E-15
 -1      1006 3.74407E-03 2.30756E-04-1.96904E-15
 -1      1007 1.28891E-02-3.40107E-04-2.88383E-14
 -1      1008 1.71197E-03 2.05964E-04-3.68144E-16
 -1      1009 1.28037E-02-8.70299E-05-2.90115E-14
 -1      1010 1.36202E-02-1.78699E-04-3.40868E-14
 -1      1011 1.36454E-02-2.70969E-04-3.38971E-14
 -1      1012 2.00038E-03 2.18874E-04-5.06478E-16
 -1      1013 3.16790E-03 2.32455E-04-1.35318E-15
 -1      1014 1.62981E-03 7.31149E-05-3.84492E-16
 -1      1015 1.62868E-03-7.11023E-05-4.22348E-16
 -1      1016 4.60229E-03 2.21754E-04-3.16779E-15
 -1      1017 1.62808E-03 1.49092E-06-4.05481E-16
 -1      1018 7.61593E-03-3.01227E-05-1.17797E-14
 -1      1019 1.36156E-02-3.46510E-04-3.36305E-14
 -1      1020 2.28966E-03 2.27616E-04-6.71135E-16
 -1      1021 3.07641E-03-1.20490E-04-1.47462E-15
 -1      1022 3.36586E-03-1.20434E-04-1.77467E-15
 -1      1023 3.65447E-03-1.19736E-04-2.10841E-15
 -1      1024 3.94207E-03-1.18530E-04-2.47837E-15
 -1      1025 4.22850E-03-1.16901E-04-2.88400E-15
 -1      1026 4.51358E-03-1.14905E-04-3.32721E-15
 -1      1027 4.79710E-03-1.12577E-04-3.81099E-15
 -1      1028 5.07878E-03-1.09955E-04-4.33815E-15
 -1      1029 5.35825E-03-1.07092E-04-4.90842E-15
 -1      1030 5.63507E-03-1.04079E-04-5.51939E-15
 -1      1031 5.90867E-03-1.01059E-04-6.17650E-15
 -1      1032 6.17836E-03-9.82436E-05-6.87969E-15
 -1      1033 6.44332E-03-9.59239E-05-7.62478E-15
 -1      1034 6.70249E-03-9.44587E-05-8.41088E-15
 -1      1035 6.95454E-03-9.42439E-05-9.23702E-15
 -1      1036 7.19772E-03-9.56764E-05-1.01080E-14
 -1      1037 7.40576E-03-9.38411E-05-1.09328E-14
 -1      1038 5.30413E-03 1.40862E-04-4.53734E-15
 -1      1039 6.13241E-03 1.25108E-04-6.46235E-15
 -1      1040 5.85900E-03 1.30978E-04-5.77582E-15
 -1      1041 6.66954E-03 1.11627E-04-7.96531E-15
 -1      1042 6.93280E-03 1.04154E-04-8.78189E-15
 -1      1043 7.19256E-03 9.63734E-05-9.64411E-15
 -1      1044 7.44945E-03 8.86893E-05-1.05528E-14
 -1      1045 7.75199E-03 9.51859E-05-1.16127E-14
 -1      1046 7.50063E-03-6.05551E-05-1.13523E-14
 -1      1047 4.74078E-03 1.48364E-04-3.47982E-15
 -1      1048 1.34248E-02-2.81393E-04-3.23013E-14
 -1      1049 3.45633E-03 2.32140E-04-1.64315E-15
 -1      1050 1.66943E-03 1.38434E-04-3.78397E-16
 -1      1051 1.32146E-02-3.09626E-04-3.08140E-14
 -1      1052 1.36378E-02-2.26340E-04-3.39932E-14
 -1      1053 1.34110E-02-3.27661E-04-3.22156E-14
 -1      1054 2.58949E-03 2.28511E-04-8.73108E-16
 -1      1055 1.31032E-02-1.96471E-04-3.02536E-14
 -1      1056 5.58278E-03 1.36229E-04-5.13587E-15
 -1      1057 1.31493E-02-2.75144E-04-3.02768E-14
 -1      1058 5.02336E-03 1.44897E-04-3.98615E-15
 -1      1059 2.78631E-03-1.19710E-04-1.20784E-15
 -1      1060 6.40269E-03 1.18640E-04-7.19307E-15
 -1      1061 1.84614E-03-1.25079E-04-5.44842E-16
 -1      1062 7.62941E-03 1.73122E-05-1.15794E-14
 -1      1063 4.17116E-03 1.53695E-04-2.59555E-15
 -1      1064 1.33421E-02-1.65177E-04-3.22193E-14
 -1      1065 3.88449E-03 1.55566E-04-2.21085E-15
 -1      1066 3.01876E-03 1.57188E-04-1.27289E-15
 -1      1067 2.11583E-03-1.04040E-04-7.01611E-16
 -1      1068 2.49588E-03-1.17823E-04-9.70581E-16
 -1      1069 1.30473E-02-1.13666E-04-3.05022E-14
 -1      1070 1.30789E-02-1.57582E-04-3.03791E-14
 -1      1071 2.72880E-03 1.55803E-04-1.02787E-15
 -1      1072 1.34004E-02-2.22957E-04-3.23143E-14
 -1      1073 1.95774E-03 1.47981E-04-5.19953E-16
 -1      1074 1.87779E-03 3.97543E-05-5.20746E-16
 -1      1075 4.45665E-03 1.51291E-04-3.01764E-15
 -1      1076 1.91694E-03 9.33405E-05-5.22074E-16
 -1      1077 3.21936E-03-4.54896E-05-1.58636E-15
 -1      1078 4.31198E-03 7.98529E-05-2.86606E-15
 -1      1079 3.50866E-03-4.52969E-05-1.89892E-15
 -1      1080 3.79694E-03-4.48890E-05-2.24766E-15
 -1      1081 4.08405E-03-4.43118E-05-2.63100E-15
 -1      1082 4.36979E-03-4.36041E-05-3.05185E-15
 -1      1083 4.65397E-03-4.27873E-05-3.51243E-15
 -1      1084 4.93630E-03-4.18988E-05-4.01516E-15
 -1      1085 5.21646E-03-4.09848E-05-4.56166E-15
 -1      1086 5.49402E-03-4.01153E-05-5.14955E-15
 -1      1087 5.76846E-03-3.93960E-05-5.78143E-15
 -1      1088 6.03916E-03-3.89802E-05-6.46211E-15
 -1      1089 6.30532E-03-3.90792E-05-7.18634E-15
 -1      1090 6.56599E-03-3.99673E-05-7.95067E-15
 -1      1091 6.81993E-03-4.19792E-05-8.75633E-15
 -1      1092 7.06546E-03-4.54930E-05-9.60428E-15
 -1      1093 7.28927E-03-5.21624E-05-1.04557E-14
 -1      1094 7.28059E-03 3.44161E-05-1.01831E-14
 -1      1095 3.30815E-03 1.57451E-04-1.54961E-15
 -1      1096 2.24738E-03 1.54543E-04-6.87401E-16
 -1      1097 5.98767E-03 6.53388E-05-6.19521E-15
 -1      1098 7.03404E-03 4.29377E-05-9.29648E-15
 -1      1099 6.78051E-03 5.00764E-05-8.45686E-15
 -1      1100 7.54835E-03 4.42281E-05-1.11228E-14
 -1      1101 1.32846E-02-2.78515E-04-3.12840E-14
 -1      1102 2.48805E-03 1.55865E-04-8.47517E-16
 -1      1103 5.16045E-03 7.44941E-05-4.33223E-15
 -1      1104 4.59658E-03 7.84021E-05-3.31162E-15
 -1      1105 6.25657E-03 6.10931E-05-6.90820E-15
 -1      1106 5.43909E-03 7.19480E-05-4.90905E-15
 -1      1107 4.87950E-03 7.66280E-05-3.80066E-15
 -1      1108 1.87673E-03-3.76006E-05-5.43524E-16
 -1      1109 6.52109E-03 5.60596E-05-7.66198E-15
 -1      1110 2.92928E-03-4.53991E-05-1.30782E-15
 -1      1111 5.71499E-03 6.89235E-05-5.53040E-15
 -1      1112 4.02591E-03 8.09971E-05-2.46021E-15
 -1      1113 3.16074E-03 8.23936E-05-1.45575E-15
 -1      1114 2.14311E-03 5.61931E-05-6.68861E-16
 -1      1115 2.63868E-03-4.49186E-05-1.05955E-15
 -1      1116 3.59678E-03 1.56852E-04-1.86295E-15
 -1      1117 2.87063E-03 8.19470E-05-1.19109E-15
 -1      1118 2.25844E-03-3.43475E-05-7.76370E-16
 -1      1119 7.48331E-03-1.89323E-05-1.11622E-14
 -1      1120 3.45013E-03 8.23190E-05-1.75531E-15
 -1      1121 3.94054E-03 2.92734E-05-2.38589E-15
 -1      1122 3.73857E-03 8.18279E-05-2.09024E-15
 -1      1123 2.19467E-03 1.05026E-04-6.79273E-16
 -1      1124 3.65281E-03 2.95081E-05-2.02354E-15
 -1      1125 2.43555E-03 1.05498E-04-8.38935E-16
 -1      1126 2.43716E-03 3.63490E-05-8.73911E-16
 -1      1127 2.65305E-03 9.41231E-05-1.00592E-15
 -1      1128 0.00000E+00 0.00000E+00 0.00000E+00
 -1      1129 0.00000E+00 0.00000E+00 0.00000E+00
 -1      1130 0.00000E+00 0.00000E+00 0.00000E+00
 -1      1131 0.00000E+00 0.00000E+00 0.00000E+00
 -1      1132 0.00000E+00 0.00000E+00 0.00000E+00
 -1      1133 0.00000E+00 0.00000E+00 0.00000E+00
 -1      1134 0.00000E+00 0.00000E+00 0.00000E+00
 -1      1135 0.00000E+00 0.00000E+00 0.00000E+00
 -1      1136 0.00000E+00 0.00000E+00 0.00000E+00
 -1      1137 0.00000E+00 0.00000E+00 0.00000E+00
 -1      1138 0.00000E+00 0.00000E+00 0.00000E+00
 -1      1139 0.00000E+00 0.00000E+00 0.00000E+00
 -1      1140 0.00000E+00 0.00000E+00 0.00000E+00
 -1      1141 0.00000E+00 0.00000E+00 0.00000E+00
 -1      1142 0.00000E+00 0.00000E+00 0.00000E+00
 -1      1143 0.00000E+00 0.00000E+00 0.00000E+00
 -1      1144 0.00000E+00 0.00000E+00 0.00000E+00
 -1      1145 2.11628E-04-1.48331E-04 2.08709E-18
 -1      1146 5.51498E-04-3.37533E-04-1.07878E-17
 -1      1147 8.33193E-04-4.59027E-04-4.87349E-17
 -1      1148 1.10262E-03-5.40668E-04-1.14939E-16
 -1      1149 1.36786E-03-5.97824E-04-2.09183E-16
 -1      1150 1.63247E-03-6.38378E-04-3.29814E-16
 -1      1151 1.89831E-03-6.66958E-04-4.77876E-16
 -1      1152 2.16622E-03-6.86657E-04-6.55156E-16
 -1      1153 2.43650E-03-6.99731E-04-8.63675E-16
 -1      1154 2.70917E-03-7.07863E-04-1.10517E-15
 -1      1155 2.98409E-03-7.12312E-04-1.38142E-15
 -1      1156 3.26105E-03-7.14004E-04-1.68881E-15
 -1      1157 3.53986E-03-7.13604E-04-2.02875E-15
 -1      1158 3.82034E-03-7.11573E-04-2.40602E-15
 -1      1159 4.10238E-03-7.08214E-04-2.81737E-15
 -1      1160 4.38596E-03-7.03715E-04-3.26383E-15
 -1      1161 4.67116E-03-6.98192E-04-3.74664E-15
 -1      1162 4.95821E-03-6.91727E-04-4.26338E-15
 -1      1163 5.24750E-03-6.84415E-04-4.81467E-15
 -1      1164 5.53957E-03-6.76424E-04-5.40312E-15
 -1      1165 5.83523E-03-6.68062E-04-6.03441E-15
 -1      1166 6.13549E-03-6.59873E-04-6.71261E-15
 -1      1167 6.44163E-03-6.52768E-04-7.42983E-15
 -1      1168 6.75513E-03-6.48192E-04-8.19162E-15
 -1      1169 7.07763E-03-6.48335E-04-9.00555E-15
 -1      1170 7.41068E-03-6.56371E-04-9.86582E-15
 -1      1171 7.75534E-03-6.76650E-04-1.07679E-14
 -1      1172 8.11145E-03-7.14675E-04-1.17161E-14
 -1      1173 8.47666E-03-7.76496E-04-1.27191E-14
 -1      1174 8.84529E-03-8.66986E-04-1.37751E-14
 -1      1175 9.20769E-03-9.86498E-04-1.48774E-14
 -1      1176 9.55150E-03-1.12635E-03-1.60269E-14
 -1      1177 9.86590E-03-1.26566E-03-1.72212E-14
 -1      1178 1.01484E-02-1.37421E-03-1.84718E-14
 -1      1179 1.04097E-02-1.42365E-03-1.97824E-14
 -1      1180 1.06709E-02-1.40236E-03-2.11512E-14
 -1      1181 1.09531E-02-1.32221E-03-2.25725E-14
 -1      1182 1.12667E-02-1.21159E-03-2.40437E-14
 -1      1183 1.16090E-02-1.10060E-03-2.55502E-14
 -1      1184 1.19691E-02-1.00985E-03-2.70980E-14
 -1      1185 1.23343E-02-9.47734E-04-2.86918E-14
 -1      1186 1.26951E-02-9.13600E-04-3.03339E-14
 -1      1187 1.30455E-02-9.02221E-04-3.20185E-14
 -1      1188 1.33831E-02-9.07091E-04-3.37331E-14
 -1      1189 1.37075E-02-9.22099E-04-3.54869E-14
 -1      1190 1.40197E-02-9.42092E-04-3.72565E-14
 -1      1191 1.43216E-02-9.62904E-04-3.90356E-14
 -1      1192 1.46152E-02-9.81249E-04-4.08230E-14
 -1      1193 1.49031E-02-9.94865E-04-4.26180E-14
 -1      1194 1.51814E-02-1.00349E-03-4.43957E-14
 -1      1195 2.28384E-04 1.60709E-04 1.39862E-17
 -1      1196 5.53668E-04 3.42164E-04 3.53450E-17
 -1      1197 8.34121E-04 4.61190E-04 4.46149E-17
 -1      1198 1.10352E-03 5.42351E-04 3.77302E-17
 -1      1199 1.36876E-03 5.99503E-04 1.00560E-17
 -1      1200 1.63343E-03 6.40145E-04-3.99800E-17
 -1      1201 1.89932E-03 6.68830E-04-1.12581E-16
 -1      1202 2.16727E-03 6.88648E-04-2.07842E-16
 -1      1203 2.43759E-03 7.01849E-04-3.31942E-16
 -1      1204 2.71028E-03 7.10116E-04-4.87647E-16
 -1      1205 2.98522E-03 7.14705E-04-6.79456E-16
 -1      1206 3.26221E-03 7.16544E-04-9.02232E-16
 -1      1207 3.54105E-03 7.16302E-04-1.15611E-15
 -1      1208 3.82156E-03 7.14446E-04-1.45089E-15
 -1      1209 4.10364E-03 7.11289E-04-1.78574E-15
 -1      1210 4.38725E-03 7.07037E-04-2.16049E-15
 -1      1211 4.67249E-03 7.01829E-04-2.57669E-15
 -1      1212 4.95954E-03 6.95782E-04-3.03200E-15
 -1      1213 5.24874E-03 6.89043E-04-3.53423E-15
 -1      1214 5.54058E-03 6.81838E-04-4.09019E-15
 -1      1215 5.83571E-03 6.74548E-04-4.69806E-15
 -1      1216 6.13490E-03 6.67793E-04-5.35618E-15
 -1      1217 6.43906E-03 6.62525E-04-6.05719E-15
 -1      1218 6.74911E-03 6.60140E-04-6.80146E-15
 -1      1219 7.06585E-03 6.62581E-04-7.59413E-15
 -1      1220 7.38971E-03 6.72378E-04-8.43687E-15
 -1      1221 7.72042E-03 6.92574E-04-9.33097E-15
 -1      1222 8.05647E-03 7.26372E-04-1.02816E-14
 -1      1223 8.39470E-03 7.76348E-04-1.12747E-14
 -1      1224 8.73003E-03 8.43096E-04-1.23036E-14
 -1      1225 9.05583E-03 9.23407E-04-1.33859E-14
 -1      1226 9.36535E-03 1.00866E-03-1.45260E-14
 -1      1227 9.65429E-03 1.08469E-03-1.57147E-14
 -1      1228 9.92363E-03 1.13453E-03-1.69492E-14
 -1      1229 1.01808E-02 1.14396E-03-1.82528E-14
 -1      1230 1.04379E-02 1.10742E-03-1.96202E-14
 -1      1231 1.07068E-02 1.03062E-03-2.10399E-14
 -1      1232 1.09949E-02 9.27862E-04-2.25205E-14
 -1      1233 1.13031E-02 8.16081E-04-2.40447E-14
 -1      1234 1.16268E-02 7.09284E-04-2.56133E-14
 -1      1235 1.19592E-02 6.15830E-04-2.72287E-14
 -1      1236 1.22933E-02 5.38596E-04-2.88776E-14
 -1      1237 1.26240E-02 4.76595E-04-3.05552E-14
 -1      1238 1.29479E-02 4.26767E-04-3.22649E-14
 -1      1239 1.32634E-02 3.85296E-04-3.39903E-14
 -1      1240 1.35704E-02 3.48367E-04-3.57252E-14
 -1      1241 1.38692E-02 3.12522E-04-3.74651E-14
 -1      1242 1.41615E-02 2.74836E-04-3.92045E-14
 -1      1243 1.44490E-02 2.33235E-04-4.09417E-14
 -1      1244 1.47273E-02 1.88679E-04-4.26430E-14
 -1      1245 1.48861E-02 1.23956E-04-4.35271E-14
 -1      1246 1.49341E-02 3.94189E-05-4.36471E-14
 -1      1247 1.49861E-02-4.30499E-05-4.37539E-14
 -1      1248 1.50414E-02-1.21121E-04-4.38599E-14
 -1      1249 1.50979E-02-1.93320E-04-4.39595E-14
 -1      1250 1.51520E-02-2.58613E-04-4.40643E-14
 -1      1251 1.52013E-02-3.18031E-04-4.42135E-14
 -1      1252 1.52436E-02-3.73216E-04-4.43564E-14
 -1      1253 1.52766E-02-4.25522E-04-4.44692E-14
 -1      1254 1.52994E-02-4.77284E-04-4.45426E-14
 -1      1255 1.53123E-02-5.30976E-04-4.46083E-14
 -1      1256 1.53167E-02-5.88363E-04-4.46944E-14
 -1      1257 1.53154E-02-6.51573E-04-4.48026E-14
 -1      1258 1.53113E-02-7.22093E-04-4.49165E-14
 -1      1259 1.53081E-02-7.99217E-04-4.50316E-14
 -1      1260 1.53086E-02-8.81355E-04-4.51466E-14
 -1      1261 1.53136E-02-9.65197E-04-4.52380E-14
 -1      1262 1.25230E-02-1.11343E-04-2.24100E-14
 -1      1263 1.24046E-02 3.55398E-05-2.22587E-14
 -1      1264 1.21869E-02 1.87546E-04-2.19626E-14
 -1      1265 1.18795E-02 3.44374E-04-2.15194E-14
 -1      1266 1.15036E-02 4.93404E-04-2.09649E-14
 -1      1267 1.10917E-02 6.16483E-04-2.03534E-14
 -1      1268 1.06657E-02 6.97187E-04-1.97105E-14
 -1      1269 1.02306E-02 7.25454E-04-1.90549E-14
 -1      1270 9.79984E-03 6.99369E-04-1.84235E-14
 -1      1271 9.38137E-03 6.22789E-04-1.78421E-14
 -1      1272 8.97044E-03 5.01342E-04-1.73108E-14
 -1      1273 8.61022E-03 3.56250E-04-1.68685E-14
 -1      1274 8.33153E-03 2.05672E-04-1.65498E-14
 -1      1275 8.14458E-03 5.38331E-05-1.63551E-14
 -1      1276 8.06991E-03-9.17524E-05-1.62946E-14
 -1      1277 8.10623E-03-2.34467E-04-1.63665E-14
 -1      1278 8.24564E-03-3.82192E-04-1.65695E-14
 -1      1279 8.47689E-03-5.35364E-04-1.68862E-14
 -1      1280 8.78815E-03-6.91589E-04-1.72979E-14
 -1      1281 9.15519E-03-8.37896E-04-1.77848E-14
 -1      1282 9.54746E-03-9.56522E-04-1.83083E-14
 -1      1283 9.97366E-03-1.03677E-03-1.88979E-14
 -1      1284 1.04065E-02-1.06392E-03-1.95191E-14
 -1      1285 1.08333E-02-1.03244E-03-2.01367E-14
 -1      1286 1.12459E-02-9.52070E-04-2.07244E-14
 -1      1287 1.16178E-02-8.38133E-04-2.12392E-14
 -1      1288 1.19660E-02-6.95195E-04-2.17057E-14
 -1      1289 1.22492E-02-5.43601E-04-2.20626E-14
 -1      1290 1.24421E-02-3.95162E-04-2.22973E-14
 -1      1291 1.25352E-02-2.51891E-04-2.24166E-14
 -1      1292 1.66659E-04-1.10351E-04-1.72117E-18
 -1      1293 1.12517E-04-5.69997E-05-5.97666E-18
 -1      1294 1.17594E-04-6.76023E-05-4.75694E-18
 -1      1295 1.08402E-04-4.35255E-05-7.72494E-18
 -1      1296 1.10259E-04-4.96348E-05-7.23705E-18
 -1      1297 2.26277E-04-1.07672E-04-1.71575E-17
 -1      1298 1.06845E-04-3.36560E-05-8.49743E-18
 -1      1299 1.07683E-04-3.83811E-05-8.29415E-18
 -1      1300 2.19076E-04-8.25327E-05-2.00713E-17
 -1      1301 1.06076E-04-2.53821E-05-8.82270E-18
 -1      1302 1.06504E-04-2.94163E-05-8.80914E-18
 -1      1303 2.15884E-04-6.33459E-05-2.14672E-17
 -1      1304 1.05676E-04-1.81183E-05-8.60585E-18
 -1      1305 1.05902E-04-2.16892E-05-8.70072E-18
 -1      1306 2.14236E-04-4.72429E-05-2.17111E-17
 -1      1307 1.05462E-04-1.12577E-05-8.14507E-18
 -1      1308 1.05583E-04-1.46470E-05-8.33480E-18
 -1      1309 2.13333E-04-3.27973E-05-2.09929E-17
 -1      1310 1.05366E-04-4.69742E-06-7.58942E-18
 -1      1311 1.05417E-04-7.95539E-06-7.79270E-18
 -1      1312 2.12849E-04-1.92181E-05-1.99222E-17
 -1      1313 1.05356E-04 1.74552E-06-7.14218E-18
 -1      1314 1.05354E-04-1.47273E-06-7.26415E-18
 -1      1315 2.12640E-04-6.16973E-06-1.87296E-17
 -1      1316 1.05426E-04 8.23792E-06-6.51877E-18
 -1      1317 1.05371E-04 4.97346E-06-6.68140E-18
 -1      1318 2.12648E-04 6.71844E-06-1.74963E-17
 -1      1319 1.05599E-04 1.49549E-05-5.78693E-18
 -1      1320 1.05474E-04 1.15508E-05-6.07153E-18
 -1      1321 2.12874E-04 1.97928E-05-1.59513E-17
 -1      1322 1.05925E-04 2.19816E-05-4.64852E-18
 -1      1323 1.05693E-04 1.83872E-05-5.02799E-18
 -1      1324 2.13374E-04 3.33116E-05-1.39184E-17
 -1      1325 1.06539E-04 2.98537E-05-3.21195E-18
 -1      1326 1.06105E-04 2.57749E-05-3.68629E-18
 -1      1327 2.14298E-04 4.78523E-05-1.10995E-17
 -1      1328 1.07718E-04 3.89541E-05-1.36881E-18
 -1      1329 1.06873E-04 3.41604E-05-2.07354E-18
 -1      1330 2.15982E-04 6.42729E-05-7.65718E-18
 -1      1331 1.10246E-04 5.03775E-05 1.21973E-18
 -1      1332 1.08414E-04 4.41961E-05 8.13152E-20
 -1      1333 2.19184E-04 8.37713E-05-3.13063E-18
 -1      1334 1.16909E-04 6.76400E-05 5.01444E-18
 -1      1335 1.12163E-04 5.78013E-05 3.25261E-18
 -1      1336 2.26273E-04 1.09498E-04 3.07642E-18
 -1      1337 1.57542E-04 1.09866E-04 1.02322E-17
 -1      1338 1.35626E-04 8.61068E-05 7.42678E-18
 -1      1339 2.55972E-04 1.52129E-04 1.05168E-17
 -1      1340 3.34999E-04 2.20755E-04 1.98816E-17
 -1      1341 4.21429E-04-2.61766E-04-1.26039E-17
 -1      1342 5.74474E-04-3.36835E-04-2.54381E-17
 -1      1343 7.21605E-04-3.97439E-04-4.59566E-17
 -1      1344 8.64712E-04-4.46726E-04-7.31023E-17
 -1      1345 6.11898E-04-3.30945E-04-4.22026E-17
 -1      1346 1.00467E-03-4.87779E-04-1.06875E-16
 -1      1347 1.14244E-03-5.21736E-04-1.47194E-16
 -1      1348 9.05024E-04-4.31628E-04-9.79306E-17
 -1      1349 1.27886E-03-5.50464E-04-1.94208E-16
 -1      1350 1.41443E-03-5.74441E-04-2.48797E-16
 -1      1351 1.18733E-03-5.00988E-04-1.79910E-16
 -1      1352 1.54958E-03-5.94729E-04-3.09553E-16
 -1      1353 1.68459E-03-6.11660E-04-3.76611E-16
 -1      1354 1.46413E-03-5.49642E-04-2.88547E-16
 -1      1355 1.81968E-03-6.25858E-04-4.51015E-16
 -1      1356 1.95497E-03-6.37613E-04-5.32384E-16
 -1      1357 1.73867E-03-5.83754E-04-4.23923E-16
 -1      1358 2.09058E-03-6.47323E-04-6.20909E-16
 -1      1359 2.22656E-03-6.55234E-04-7.17579E-16
 -1      1360 2.01283E-03-6.07280E-04-5.87299E-16
 -1      1361 2.36296E-03-6.61617E-04-8.21785E-16
 -1      1362 2.49980E-03-6.66671E-04-9.33498E-16
 -1      1363 2.28759E-03-6.23003E-04-7.79812E-16
 -1      1364 2.63710E-03-6.70585E-04-1.05407E-15
 -1      1365 2.77483E-03-6.73518E-04-1.18301E-15
 -1      1366 2.56345E-03-6.32957E-04-1.00335E-15
 -1      1367 2.91302E-03-6.75601E-04-1.31968E-15
 -1      1368 3.05164E-03-6.76957E-04-1.46507E-15
 -1      1369 2.84062E-03-6.38648E-04-1.25914E-15
 -1      1370 3.19067E-03-6.77676E-04-1.61832E-15
 -1      1371 3.33011E-03-6.77849E-04-1.77928E-15
 -1      1372 3.11917E-03-6.41181E-04-1.54805E-15
 -1      1373 3.46994E-03-6.77534E-04-1.94935E-15
 -1      1374 3.61015E-03-6.76800E-04-2.12803E-15
 -1      1375 3.39907E-03-6.41351E-04-1.86995E-15
 -1      1376 3.75073E-03-6.75678E-04-2.31584E-15
 -1      1377 3.89166E-03-6.74221E-04-2.51311E-15
 -1      1378 3.68027E-03-6.39711E-04-2.22715E-15
 -1      1379 4.03295E-03-6.72440E-04-2.71818E-15
 -1      1380 4.17460E-03-6.70374E-04-2.93157E-15
 -1      1381 3.96276E-03-6.36624E-04-2.61923E-15
 -1      1382 4.31662E-03-6.68021E-04-3.15510E-15
 -1      1383 4.45900E-03-6.65412E-04-3.38698E-15
 -1      1384 4.24653E-03-6.32314E-04-3.04628E-15
 -1      1385 4.60179E-03-6.62537E-04-3.62644E-15
 -1      1386 4.74500E-03-6.59425E-04-3.87677E-15
 -1      1387 4.53166E-03-6.26903E-04-3.50861E-15
 -1      1388 4.88868E-03-6.56059E-04-4.13531E-15
 -1      1389 5.03285E-03-6.52475E-04-4.40178E-15
 -1      1390 4.81831E-03-6.20456E-04-4.00648E-15
 -1      1391 5.17758E-03-6.48655E-04-4.67835E-15
 -1      1392 5.32294E-03-6.44648E-04-4.96414E-15
 -1      1393 5.10675E-03-6.13021E-04-4.54155E-15
 -1      1394 5.46899E-03-6.40444E-04-5.25881E-15
 -1      1395 5.61582E-03-6.36114E-04-5.56277E-15
 -1      1396 5.39735E-03-6.04680E-04-5.11227E-15
 -1      1397 5.76354E-03-6.31665E-04-5.87800E-15
 -1      1398 5.91226E-03-6.27203E-04-6.20573E-15
 -1      1399 5.69065E-03-5.95613E-04-5.72312E-15
 -1      1400 6.06209E-03-6.22766E-04-6.54410E-15
 -1      1401 6.21317E-03-6.18509E-04-6.89330E-15
 -1      1402 5.98731E-03-5.86183E-04-6.37631E-15
 -1      1403 6.36565E-03-6.14522E-04-7.25369E-15
 -1      1404 6.51969E-03-6.11029E-04-7.62221E-15
 -1      1405 6.28818E-03-5.77045E-04-7.07510E-15
 -1      1406 6.67545E-03-6.08202E-04-8.00454E-15
 -1      1407 6.83309E-03-6.06351E-04-8.39857E-15
 -1      1408 6.59422E-03-5.69306E-04-7.81681E-15
 -1      1409 6.99278E-03-6.05774E-04-8.80336E-15
 -1      1410 7.15467E-03-6.06886E-04-9.22374E-15
 -1      1411 6.90649E-03-5.64721E-04-8.60488E-15
 -1      1412 7.31890E-03-6.10157E-04-9.65310E-15
 -1      1413 7.48554E-03-6.16119E-04-1.00921E-14
 -1      1414 7.22604E-03-5.65950E-04-9.43946E-15
 -1      1415 7.65467E-03-6.25458E-04-1.05438E-14
 -1      1416 7.82624E-03-6.38804E-04-1.10061E-14
 -1      1417 7.55369E-03-5.76817E-04-1.03195E-14
 -1      1418 8.00015E-03-6.57059E-04-1.14801E-14
 -1      1419 8.17614E-03-6.80876E-04-1.19682E-14
 -1      1420 7.88980E-03-6.02483E-04-1.12450E-14
 -1      1421 8.35385E-03-7.11250E-04-1.24671E-14
 -1      1422 8.53272E-03-7.48665E-04-1.29803E-14
 -1      1423 8.23378E-03-6.49262E-04-1.22169E-14
 -1      1424 8.71205E-03-7.93865E-04-1.35072E-14
 -1      1425 8.89092E-03-8.46795E-04-1.40452E-14
 -1      1426 8.58361E-03-7.23601E-04-1.32406E-14
 -1      1427 9.06833E-03-9.07326E-04-1.45962E-14
 -1      1428 9.24308E-03-9.74321E-04-1.51590E-14
 -1      1429 8.93537E-03-8.29576E-04-1.43164E-14
 -1      1430 9.41411E-03-1.04604E-03-1.57332E-14
 -1      1431 9.58036E-03-1.11982E-03-1.63169E-14
 -1      1432 9.28313E-03-9.64510E-04-1.54387E-14
 -1      1433 9.74115E-03-1.19204E-03-1.69150E-14
 -1      1434 9.89622E-03-1.25875E-03-1.75242E-14
 -1      1435 9.62004E-03-1.11386E-03-1.66078E-14
 -1      1436 1.00458E-02-1.31540E-03-1.81487E-14
 -1      1437 1.01910E-02-1.35822E-03-1.87894E-14
 -1      1438 9.94118E-03-1.24946E-03-1.78279E-14
 -1      1439 1.03331E-02-1.38393E-03-1.94427E-14
 -1      1440 1.04742E-02-1.39096E-03-2.01117E-14
 -1      1441 1.02475E-02-1.33665E-03-1.91037E-14
 -1      1442 1.06162E-02-1.37933E-03-2.07947E-14
 -1      1443 1.07613E-02-1.35065E-03-2.14902E-14
 -1      1444 1.05477E-02-1.35073E-03-2.04380E-14
 -1      1445 1.09107E-02-1.30822E-03-2.22010E-14
 -1      1446 1.10655E-02-1.25581E-03-2.29262E-14
 -1      1447 1.08538E-02-1.29185E-03-2.18308E-14
 -1      1448 1.12258E-02-1.19798E-03-2.36608E-14
 -1      1449 1.13915E-02-1.13866E-03-2.44083E-14
 -1      1450 1.11743E-02-1.18492E-03-2.32788E-14
 -1      1451 1.15618E-02-1.08142E-03-2.51634E-14
 -1      1452 1.17356E-02-1.02890E-03-2.59231E-14
 -1      1453 1.15101E-02-1.06454E-03-2.47713E-14
 -1      1454 1.19119E-02-9.82816E-04-2.66991E-14
 -1      1455 1.20895E-02-9.44250E-04-2.74886E-14
 -1      1456 1.18562E-02-9.58654E-04-2.63034E-14
 -1      1457 1.22673E-02-9.13307E-04-2.82846E-14
 -1      1458 1.24443E-02-8.89997E-04-2.90911E-14
 -1      1459 1.22055E-02-8.81504E-04-2.78744E-14
 -1      1460 1.26200E-02-8.73544E-04-2.99115E-14
 -1      1461 1.27938E-02-8.63413E-04-3.07436E-14
 -1      1462 1.25522E-02-8.35481E-04-2.94922E-14
 -1      1463 1.29651E-02-8.58568E-04-3.15811E-14
 -1      1464 1.31338E-02-8.58294E-04-3.24313E-14
 -1      1465 1.28922E-02-8.16193E-04-3.11493E-14
 -1      1466 1.32998E-02-8.61628E-04-3.32878E-14
 -1      1467 1.34630E-02-8.67861E-04-3.41499E-14
 -1      1468 1.32233E-02-8.16798E-04-3.28401E-14
 -1      1469 1.36234E-02-8.76217E-04-3.50226E-14
 -1      1470 1.37812E-02-8.86068E-04-3.59032E-14
 -1      1471 1.35450E-02-8.30450E-04-3.45668E-14
 -1      1472 1.39365E-02-8.96821E-04-3.67886E-14
 -1      1473 1.40895E-02-9.07942E-04-3.76722E-14
 -1      1474 1.38576E-02-8.51270E-04-3.63212E-14
 -1      1475 1.42403E-02-9.18980E-04-3.85610E-14
 -1      1476 1.43892E-02-9.29498E-04-3.94521E-14
 -1      1477 1.41620E-02-8.74499E-04-3.80901E-14
 -1      1478 1.45364E-02-9.39162E-04-4.03435E-14
 -1      1479 1.46823E-02-9.47634E-04-4.12375E-14
 -1      1480 1.44594E-02-8.96355E-04-3.98662E-14
 -1      1481 1.48269E-02-9.54752E-04-4.21372E-14
 -1      1482 1.49707E-02-9.60353E-04-4.30412E-14
 -1      1483 1.47514E-02-9.13965E-04-4.16538E-14
 -1      1484 1.51778E-02-9.62102E-04-4.43605E-14
 -1      1485 1.51036E-02-9.23312E-04-4.38683E-14
 -1      1486 6.42889E-04 3.72044E-04 3.21873E-17
 -1      1487 4.92817E-04 3.03718E-04 2.75252E-17
 -1      1488 4.44758E-04 2.65932E-04 2.05998E-17
 -1      1489 9.28350E-04 4.71992E-04 3.01002E-17
 -1      1490 7.87551E-04 4.26514E-04 3.31901E-17
 -1      1491 7.44516E-04 3.90757E-04 2.28767E-17
 -1      1492 1.20310E-03 5.41352E-04 1.04083E-17
 -1      1493 1.06651E-03 5.09709E-04 2.25921E-17
 -1      1494 1.03045E-03 4.76164E-04 9.17506E-18
 -1      1495 1.47348E-03 5.90431E-04-3.07371E-17
 -1      1496 1.33851E-03 5.68039E-04-7.27771E-18
 -1      1497 1.30823E-03 5.35905E-04-2.36085E-17
 -1      1498 1.74282E-03 6.25134E-04-9.41901E-17
 -1      1499 1.60811E-03 6.09340E-04-5.94685E-17
 -1      1500 1.58230E-03 5.78046E-04-7.77644E-17
 -1      1501 2.01282E-03 6.49306E-04-1.80520E-16
 -1      1502 1.87766E-03 6.38366E-04-1.34278E-16
 -1      1503 1.85531E-03 6.07542E-04-1.54865E-16
 -1      1504 2.28429E-03 6.65666E-04-2.92518E-16
 -1      1505 2.14834E-03 6.58334E-04-2.33253E-16
 -1      1506 2.12865E-03 6.27750E-04-2.56536E-16
 -1      1507 2.55756E-03 6.76217E-04-4.34480E-16
 -1      1508 2.42069E-03 6.71569E-04-3.59521E-16
 -1      1509 2.40304E-03 6.41087E-04-3.85840E-16
 -1      1510 2.83270E-03 6.82457E-04-6.09240E-16
 -1      1511 2.69490E-03 6.79802E-04-5.17679E-16
 -1      1512 2.67882E-03 6.49337E-04-5.45543E-16
 -1      1513 3.10967E-03 6.85492E-04-8.18207E-16
 -1      1514 2.97096E-03 6.84320E-04-7.09651E-16
 -1      1515 2.95607E-03 6.53823E-04-7.38423E-16
 -1      1516 3.38833E-03 6.86128E-04-1.05777E-15
 -1      1517 3.24879E-03 6.86070E-04-9.33850E-16
 -1      1518 3.23481E-03 6.55513E-04-9.64073E-16
 -1      1519 3.66857E-03 6.84931E-04-1.33334E-15
 -1      1520 3.52826E-03 6.85730E-04-1.19075E-15
 -1      1521 3.51496E-03 6.55097E-04-1.22289E-15
 -1      1522 3.95030E-03 6.82290E-04-1.64932E-15
 -1      1523 3.80926E-03 6.83771E-04-1.48618E-15
 -1      1524 3.79648E-03 6.53054E-04-1.51948E-15
 -1      1525 4.23348E-03 6.78453E-04-2.00377E-15
 -1      1526 4.09171E-03 6.80506E-04-1.82185E-15
 -1      1527 4.07932E-03 6.49696E-04-1.85510E-15
 -1      1528 4.51815E-03 6.73583E-04-2.39782E-15
 -1      1529 4.37562E-03 6.76135E-04-2.19616E-15
 -1      1530 4.36351E-03 6.45220E-04-2.23058E-15
 -1      1531 4.80444E-03 6.67790E-04-2.83580E-15
 -1      1532 4.66108E-03 6.70788E-04-2.61168E-15
 -1      1533 4.64913E-03 6.39750E-04-2.64571E-15
 -1      1534 5.09260E-03 6.61184E-04-3.31371E-15
 -1      1535 4.94827E-03 6.64571E-04-3.06859E-15
 -1      1536 4.93638E-03 6.33380E-04-3.10315E-15
 -1      1537 5.38301E-03 6.53925E-04-3.84308E-15
 -1      1538 5.23750E-03 6.57610E-04-3.57245E-15
 -1      1539 5.22551E-03 6.26221E-04-3.60804E-15
 -1      1540 5.67616E-03 6.46286E-04-4.42497E-15
 -1      1541 5.52921E-03 6.50114E-04-4.12772E-15
 -1      1542 5.51694E-03 6.18463E-04-4.16289E-15
 -1      1543 5.97269E-03 6.38728E-04-5.05542E-15
 -1      1544 5.82397E-03 6.42439E-04-4.73403E-15
 -1      1545 5.81114E-03 6.10441E-04-4.76816E-15
 -1      1546 6.27333E-03 6.31998E-04-5.73491E-15
 -1      1547 6.12245E-03 6.35178E-04-5.38934E-15
 -1      1548 6.10872E-03 6.02724E-04-5.42182E-15
 -1      1549 6.57886E-03 6.27230E-04-6.45510E-15
 -1      1550 6.42543E-03 6.29259E-04-6.08953E-15
 -1      1551 6.41032E-03 5.96212E-04-6.12032E-15
 -1      1552 6.89001E-03 6.26068E-04-7.22224E-15
 -1      1553 6.73369E-03 6.26058E-04-6.83363E-15
 -1      1554 6.71663E-03 5.92262E-04-6.86312E-15
 -1      1555 7.20729E-03 6.30750E-04-8.04029E-15
 -1      1556 7.04785E-03 6.27511E-04-7.62420E-15
 -1      1557 7.02818E-03 5.92796E-04-7.65256E-15
 -1      1558 7.53077E-03 6.44125E-04-8.90444E-15
 -1      1559 7.36826E-03 6.36170E-04-8.46561E-15
 -1      1560 7.34527E-03 6.00378E-04-8.49165E-15
 -1      1561 7.85968E-03 6.69485E-04-9.82343E-15
 -1      1562 7.69461E-03 6.55146E-04-9.35771E-15
 -1      1563 7.66770E-03 6.18170E-04-9.38183E-15
 -1      1564 8.19215E-03 7.10046E-04-1.07936E-14
 -1      1565 8.02563E-03 6.87784E-04-1.03024E-14
 -1      1566 7.99451E-03 6.49630E-04-1.03233E-14
 -1      1567 8.52483E-03 7.67895E-04-1.18020E-14
 -1      1568 8.35872E-03 7.36896E-04-1.12930E-14
 -1      1569 8.32369E-03 6.97775E-04-1.13105E-14
 -1      1570 8.85304E-03 8.42340E-04-1.28558E-14
 -1      1571 8.68984E-03 8.03399E-04-1.23231E-14
 -1      1572 8.65210E-03 7.63824E-04-1.23393E-14
 -1      1573 9.17138E-03 9.27938E-04-1.39659E-14
 -1      1574 9.01381E-03 8.84437E-04-1.34032E-14
 -1      1575 8.97563E-03 8.45275E-04-1.34186E-14
 -1      1576 9.47533E-03 1.01322E-03-1.51256E-14
 -1      1577 9.32540E-03 9.71606E-04-1.45402E-14
 -1      1578 9.29001E-03 9.33984E-04-1.45519E-14
 -1      1579 9.76332E-03 1.08166E-03-1.63376E-14
 -1      1580 9.62128E-03 1.05060E-03-1.57258E-14
 -1      1581 9.59228E-03 1.01560E-03-1.57350E-14
 -1      1582 1.00384E-02 1.11597E-03-1.76043E-14
 -1      1583 9.90209E-03 1.10383E-03-1.69616E-14
 -1      1584 9.88253E-03 1.07199E-03-1.69700E-14
 -1      1585 1.03082E-02 1.10466E-03-1.89371E-14
 -1      1586 1.01733E-02 1.11613E-03-1.82625E-14
 -1      1587 1.01648E-02 1.08710E-03-1.82687E-14
 -1      1588 1.05821E-02 1.04726E-03-2.03266E-14
 -1      1589 1.04440E-02 1.08112E-03-1.96261E-14
 -1      1590 1.04463E-02 1.05374E-03-1.96290E-14
 -1      1591 1.08681E-02 9.54519E-04-2.17726E-14
 -1      1592 1.07232E-02 1.00425E-03-2.10425E-14
 -1      1593 1.07343E-02 9.77060E-04-2.10429E-14
 -1      1594 1.11696E-02 8.43483E-04-2.32692E-14
 -1      1595 1.10169E-02 9.00181E-04-2.25142E-14
 -1      1596 1.10336E-02 8.72045E-04-2.25085E-14
 -1      1597 1.14851E-02 7.30907E-04-2.48107E-14
 -1      1598 1.13258E-02 7.86569E-04-2.40342E-14
 -1      1599 1.13447E-02 7.56956E-04-2.40209E-14
 -1      1600 1.18103E-02 6.28615E-04-2.64000E-14
 -1      1601 1.16469E-02 6.78055E-04-2.55993E-14
 -1      1602 1.16650E-02 6.47005E-04-2.55840E-14
 -1      1603 1.21395E-02 5.42295E-04-2.80319E-14
 -1      1604 1.19747E-02 5.83377E-04-2.72108E-14
 -1      1605 1.19903E-02 5.51267E-04-2.71922E-14
 -1      1606 1.24679E-02 4.72653E-04-2.96924E-14
 -1      1607 1.23041E-02 5.05522E-04-2.88598E-14
 -1      1608 1.23162E-02 4.72840E-04-2.88392E-14
 -1      1609 1.27917E-02 4.17351E-04-3.13859E-14
 -1      1610 1.26305E-02 4.43443E-04-3.05350E-14
 -1      1611 1.26393E-02 4.10644E-04-3.05143E-14
 -1      1612 1.31090E-02 3.72681E-04-3.30965E-14
 -1      1613 1.29513E-02 3.93945E-04-3.22401E-14
 -1      1614 1.29572E-02 3.61390E-04-3.22148E-14
 -1      1615 1.34189E-02 3.34636E-04-3.48275E-14
 -1      1616 1.32649E-02 3.53074E-04-3.39612E-14
 -1      1617 1.32688E-02 3.21015E-04-3.39305E-14
 -1      1618 1.37214E-02 2.99448E-04-3.65573E-14
 -1      1619 1.35710E-02 3.16895E-04-3.56911E-14
 -1      1620 1.35739E-02 2.85485E-04-3.56570E-14
 -1      1621 1.40173E-02 2.63814E-04-3.82957E-14
 -1      1622 1.38701E-02 2.81855E-04-3.74257E-14
 -1      1623 1.38728E-02 2.51165E-04-3.73889E-14
 -1      1624 1.43081E-02 2.25077E-04-4.00336E-14
 -1      1625 1.41633E-02 2.44946E-04-3.91639E-14
 -1      1626 1.41663E-02 2.14976E-04-3.91241E-14
 -1      1627 1.45954E-02 1.81686E-04-4.17725E-14
 -1      1628 1.44520E-02 2.03965E-04-4.09023E-14
 -1      1629 1.44557E-02 1.74625E-04-4.08627E-14
 -1      1630 1.47503E-02 1.46568E-04-4.26988E-14
 -1      1631 1.48231E-02 4.02834E-05-4.29137E-14
 -1      1632 1.47980E-02 8.16602E-05-4.28591E-14
 -1      1633 1.48766E-02-4.01993E-05-4.30249E-14
 -1      1634 1.48493E-02-4.06203E-07-4.29711E-14
 -1      1635 1.47126E-02 4.05527E-05-4.21849E-14
 -1      1636 1.49332E-02-1.16480E-04-4.31334E-14
 -1      1637 1.49046E-02-7.89362E-05-4.30779E-14
 -1      1638 1.47676E-02-3.86910E-05-4.22959E-14
 -1      1639 1.49903E-02-1.87679E-04-4.32402E-14
 -1      1640 1.49619E-02-1.52744E-04-4.31884E-14
 -1      1641 1.48253E-02-1.13925E-04-4.24074E-14
 -1      1642 1.50438E-02-2.52537E-04-4.33564E-14
 -1      1643 1.50175E-02-2.20730E-04-4.32952E-14
 -1      1644 1.48822E-02-1.84085E-04-4.25225E-14
 -1      1645 1.50925E-02-3.13801E-04-4.34940E-14
 -1      1646 1.50690E-02-2.83707E-04-4.34240E-14
 -1      1647 1.49357E-02-2.49868E-04-4.26421E-14
 -1      1648 1.51331E-02-3.71473E-04-4.36169E-14
 -1      1649 1.51140E-02-3.42995E-04-4.35577E-14
 -1      1650 1.49832E-02-3.12369E-04-4.27651E-14
 -1      1651 1.51637E-02-4.27225E-04-4.37200E-14
 -1      1652 1.51497E-02-3.99473E-04-4.36724E-14
 -1      1653 1.50217E-02-3.72117E-04-4.28789E-14
 -1      1654 1.51838E-02-4.83039E-04-4.37962E-14
 -1      1655 1.51751E-02-4.55000E-04-4.37601E-14
 -1      1656 1.50498E-02-4.30614E-04-4.29746E-14
 -1      1657 1.51939E-02-5.40936E-04-4.38746E-14
 -1      1658 1.51900E-02-5.11610E-04-4.38345E-14
 -1      1659 1.50671E-02-4.89573E-04-4.30563E-14
 -1      1660 1.51959E-02-6.01608E-04-4.39614E-14
 -1      1661 1.51958E-02-5.70719E-04-4.39166E-14
 -1      1662 1.50745E-02-5.50153E-04-4.31377E-14
 -1      1663 1.51927E-02-6.68391E-04-4.40651E-14
 -1      1664 1.51948E-02-6.34312E-04-4.40110E-14
 -1      1665 1.50743E-02-6.14241E-04-4.32266E-14
 -1      1666 1.51877E-02-7.40800E-04-4.41678E-14
 -1      1667 1.51902E-02-7.03893E-04-4.41191E-14
 -1      1668 1.50695E-02-6.83373E-04-4.33212E-14
 -1      1669 1.51844E-02-8.18470E-04-4.42770E-14
 -1      1670 1.51856E-02-7.79041E-04-4.42231E-14
 -1      1671 1.50638E-02-7.57353E-04-4.34194E-14
 -1      1672 1.51437E-02-8.91051E-04-4.40999E-14
 -1      1673 1.51427E-02-8.50004E-04-4.40522E-14
 -1      1674 1.50193E-02-8.26601E-04-4.32443E-14
 -1      1675 1.49362E-02-8.88882E-04-4.27874E-14
 -1      1676 1.25142E-02-1.15395E-04-2.26866E-14
 -1      1677 1.25508E-02-1.61461E-04-2.27317E-14
 -1      1678 1.23453E-02-2.49939E-06-2.24768E-14
 -1      1679 1.24380E-02-5.71695E-05-2.25930E-14
 -1      1680 1.20652E-02 1.34846E-04-2.21268E-14
 -1      1681 1.22060E-02 6.54367E-05-2.23153E-14
 -1      1682 1.17099E-02 3.12899E-04-2.15873E-14
 -1      1683 1.18839E-02 2.29733E-04-2.18461E-14
 -1      1684 1.13009E-02 4.90472E-04-2.09854E-14
 -1      1685 1.14861E-02 4.05444E-04-2.12828E-14
 -1      1686 1.09085E-02 6.50077E-04-2.02928E-14
 -1      1687 1.10891E-02 5.82764E-04-2.06091E-14
 -1      1688 1.05275E-02 7.47632E-04-1.95816E-14
 -1      1689 1.07035E-02 7.10973E-04-1.99086E-14
 -1      1690 1.01462E-02 7.70396E-04-1.88718E-14
 -1      1691 1.03208E-02 7.71082E-04-1.91973E-14
 -1      1692 9.76669E-03 7.09783E-04-1.82028E-14
 -1      1693 9.94040E-03 7.46202E-04-1.85049E-14
 -1      1694 9.37813E-03 5.85326E-04-1.75915E-14
 -1      1695 9.55924E-03 6.50192E-04-1.78649E-14
 -1      1696 8.97892E-03 4.08443E-04-1.70131E-14
 -1      1697 9.16892E-03 4.93324E-04-1.72618E-14
 -1      1698 8.60213E-03 2.45240E-04-1.66002E-14
 -1      1699 8.76246E-03 3.20503E-04-1.67826E-14
 -1      1700 8.30739E-03 9.03367E-05-1.62664E-14
 -1      1701 8.43648E-03 1.54211E-04-1.63912E-14
 -1      1702 8.11065E-03-2.66848E-05-1.60948E-14
 -1      1703 8.18546E-03 2.30804E-05-1.61560E-14
 -1      1704 8.05212E-03-1.20650E-04-1.60969E-14
 -1      1705 8.06210E-03-7.73663E-05-1.60923E-14
 -1      1706 8.12594E-03-2.17375E-04-1.61923E-14
 -1      1707 8.07564E-03-1.71412E-04-1.61250E-14
 -1      1708 8.31852E-03-3.39916E-04-1.64489E-14
 -1      1709 8.21561E-03-2.81503E-04-1.63208E-14
 -1      1710 8.60635E-03-4.88280E-04-1.68028E-14
 -1      1711 8.46333E-03-4.15973E-04-1.66263E-14
 -1      1712 8.96829E-03-6.61322E-04-1.72550E-14
 -1      1713 8.79597E-03-5.76141E-04-1.70282E-14
 -1      1714 9.35532E-03-8.39524E-04-1.77803E-14
 -1      1715 9.18059E-03-7.57325E-04-1.75294E-14
 -1      1716 9.72096E-03-9.92078E-04-1.83726E-14
 -1      1717 9.54902E-03-9.28358E-04-1.81030E-14
 -1      1718 1.01146E-02-1.09182E-03-1.90362E-14
 -1      1719 9.93253E-03-1.05402E-03-1.87164E-14
 -1      1720 1.04824E-02-1.10660E-03-1.96994E-14
 -1      1721 1.03172E-02-1.10948E-03-1.93994E-14
 -1      1722 1.08587E-02-1.04164E-03-2.03915E-14
 -1      1723 1.06811E-02-1.08399E-03-2.00737E-14
 -1      1724 1.12401E-02-9.13847E-04-2.10010E-14
 -1      1725 1.10714E-02-9.77321E-04-2.07273E-14
 -1      1726 1.16051E-02-7.56014E-04-2.15530E-14
 -1      1727 1.14373E-02-8.31865E-04-2.13069E-14
 -1      1728 1.19647E-02-5.74257E-04-2.20875E-14
 -1      1729 1.17955E-02-6.56121E-04-2.18633E-14
 -1      1730 1.22683E-02-4.33690E-04-2.24155E-14
 -1      1731 1.21443E-02-4.97363E-04-2.22699E-14
 -1      1732 1.24743E-02-3.07991E-04-2.26671E-14
 -1      1733 1.23903E-02-3.61340E-04-2.25754E-14
 -1      1734 1.25577E-02-2.12414E-04-2.27421E-14
 -1      1735 1.25351E-02-2.54661E-04-2.27153E-14
 -1      1736 1.15344E-02 3.17448E-04-2.16198E-14
 -1      1737 1.19305E-02 1.26659E-04-2.22115E-14
 -1      1738 1.47546E-02 1.17564E-04-4.26612E-14
 -1      1739 1.46427E-02 1.16868E-04-4.19306E-14
 -1      1740 1.24777E-02-1.19073E-04-2.29267E-14
 -1      1741 1.22558E-02-2.04504E-05-2.26622E-14
 -1      1742 1.25637E-02-1.90057E-04-2.30389E-14
 -1      1743 1.11316E-02 5.19767E-04-2.09317E-14
 -1      1744 1.07601E-02 6.90053E-04-2.01651E-14
 -1      1745 1.04052E-02 7.84127E-04-1.93937E-14
 -1      1746 1.00636E-02 7.81989E-04-1.86424E-14
 -1      1747 9.70785E-03 6.86751E-04-1.79402E-14
 -1      1748 9.32897E-03 5.19568E-04-1.72770E-14
 -1      1749 8.93004E-03 3.23854E-04-1.67250E-14
 -1      1750 8.55278E-03 1.46046E-04-1.62938E-14
 -1      1751 8.25730E-03 1.17726E-05-1.59842E-14
 -1      1752 8.08081E-03-6.97554E-05-1.58772E-14
 -1      1753 8.05522E-03-1.34922E-04-1.59044E-14
 -1      1754 8.17386E-03-2.09468E-04-1.60582E-14
 -1      1755 8.41579E-03-3.23432E-04-1.63578E-14
 -1      1756 8.75163E-03-4.78594E-04-1.67534E-14
 -1      1757 9.13955E-03-6.69762E-04-1.72468E-14
 -1      1758 9.51445E-03-8.70670E-04-1.78397E-14
 -1      1759 9.87770E-03-1.03605E-03-1.85045E-14
 -1      1760 1.02253E-02-1.12611E-03-1.92125E-14
 -1      1761 1.05668E-02-1.11884E-03-1.99530E-14
 -1      1762 1.09103E-02-1.01706E-03-2.06687E-14
 -1      1763 1.12781E-02-8.54680E-04-2.13177E-14
 -1      1764 1.16478E-02-6.62589E-04-2.19422E-14
 -1      1765 1.20114E-02-4.84952E-04-2.24446E-14
 -1      1766 1.23160E-02-3.49328E-04-2.27947E-14
 -1      1767 1.25069E-02-2.57131E-04-2.30054E-14
 -1      1768 2.85166E-04-1.76257E-04-1.10182E-17
 -1      1769 3.32125E-04-1.16866E-04-3.15232E-17
 -1      1770 3.36207E-04-1.33067E-04-3.01002E-17
 -1      1771 3.42141E-04-1.52064E-04-2.81893E-17
 -1      1772 3.51686E-04-1.74065E-04-2.51941E-17
 -1      1773 4.58227E-04-1.88142E-04-4.38289E-17
 -1      1774 3.24604E-04-6.54427E-05-3.30004E-17
 -1      1775 3.25736E-04-7.67421E-05-3.32850E-17
 -1      1776 3.23141E-04-4.39336E-05-3.17942E-17
 -1      1777 3.23781E-04-5.44308E-05-3.26074E-17
 -1      1778 4.36576E-04-7.93519E-05-4.85994E-17
 -1      1779 3.22376E-04-2.37968E-05-3.02357E-17
 -1      1780 3.22699E-04-3.37198E-05-3.11030E-17
 -1      1781 4.34615E-04-5.13610E-05-4.68104E-17
 -1      1782 3.22090E-04-4.34190E-06-2.83654E-17
 -1      1783 3.22184E-04-1.40045E-05-2.93548E-17
 -1      1784 4.33617E-04-2.49459E-05-4.44658E-17
 -1      1785 3.22210E-04 1.49968E-05-2.64139E-17
 -1      1786 3.22098E-04 5.32409E-06-2.74981E-17
 -1      1787 4.33327E-04 7.58062E-07-4.17418E-17
 -1      1788 3.22763E-04 3.47653E-05-2.39338E-17
 -1      1789 3.22419E-04 2.48099E-05-2.52484E-17
 -1      1790 4.33675E-04 2.64906E-05-3.87060E-17
 -1      1791 3.23869E-04 5.52190E-05-2.05592E-17
 -1      1792 3.23218E-04 4.48487E-05-2.24430E-17
 -1      1793 4.34730E-04 5.27666E-05-3.48571E-17
 -1      1794 3.25895E-04 7.78821E-05-1.62766E-17
 -1      1795 3.24713E-04 6.62960E-05-1.86347E-17
 -1      1796 4.36751E-04 8.06632E-05-2.99104E-17
 -1      1797 3.29545E-04 1.03725E-04-1.07878E-17
 -1      1798 3.27417E-04 9.03734E-05-1.38100E-17
 -1      1799 4.40354E-04 1.11644E-04-2.36221E-17
 -1      1800 3.36537E-04 1.35180E-04-3.45589E-18
 -1      1801 3.32377E-04 1.18684E-04-7.44034E-18
 -1      1802 4.46770E-04 1.47416E-04-1.54770E-17
 -1      1803 3.52222E-04 1.77659E-04 6.47811E-18
 -1      1804 3.42747E-04 1.54822E-04 1.04354E-18
 -1      1805 4.59246E-04 1.91531E-04-4.56720E-18
 -1      1806 4.07588E-04 2.33727E-04 1.55041E-17
 -1      1807 3.77994E-04 2.02712E-04 1.02999E-17
 -1      1808 4.95738E-04 2.44056E-04 6.49166E-18
 -1      1809 5.58390E-04 3.02550E-04 1.72659E-17
 -1      1810 3.39934E-04-1.90950E-04-1.86618E-17
 -1      1811 8.53314E-04 4.07148E-04 9.41901E-18
 -1      1812 7.06960E-04 3.59419E-04 1.52466E-17
 -1      1813 6.73221E-04 3.28861E-04 8.42967E-18
 -1      1814 4.58843E-04-2.36775E-04-3.28378E-17
 -1      1815 8.07012E-04-3.74164E-04-8.85658E-17
 -1      1816 9.52231E-04-4.15328E-04-1.23545E-16
 -1      1817 1.09502E-03-4.49979E-04-1.64907E-16
 -1      1818 1.23664E-03-4.78827E-04-2.12856E-16
 -1      1819 1.00369E-03-3.97940E-04-1.49918E-16
 -1      1820 1.37699E-03-5.03249E-04-2.67256E-16
 -1      1821 1.51662E-03-5.23541E-04-3.28649E-16
 -1      1822 1.28929E-03-4.55807E-04-2.46466E-16
 -1      1823 1.65573E-03-5.40619E-04-3.96764E-16
 -1      1824 1.79452E-03-5.54719E-04-4.71398E-16
 -1      1825 1.57162E-03-4.96593E-04-3.69157E-16
 -1      1826 1.93318E-03-5.66445E-04-5.53065E-16
 -1      1827 2.07178E-03-5.75998E-04-6.41834E-16
 -1      1828 1.85216E-03-5.24888E-04-5.18859E-16
 -1      1829 2.21048E-03-5.83789E-04-7.38396E-16
 -1      1830 2.34927E-03-5.89986E-04-8.41842E-16
 -1      1831 2.13198E-03-5.44002E-04-6.96790E-16
 -1      1832 2.48827E-03-5.94879E-04-9.53054E-16
 -1      1833 2.62745E-03-5.98602E-04-1.07247E-15
 -1      1834 2.41179E-03-5.56352E-04-9.03669E-16
 -1      1835 2.76690E-03-6.01360E-04-1.20013E-15
 -1      1836 2.90657E-03-6.03258E-04-1.33559E-15
 -1      1837 2.69200E-03-5.63725E-04-1.14120E-15
 -1      1838 3.04652E-03-6.04439E-04-1.47950E-15
 -1      1839 3.18672E-03-6.04985E-04-1.63107E-15
 -1      1840 2.97284E-03-5.67434E-04-1.41160E-15
 -1      1841 3.32721E-03-6.04989E-04-1.79145E-15
 -1      1842 3.46794E-03-6.04514E-04-1.96045E-15
 -1      1843 3.25444E-03-5.68432E-04-1.71380E-15
 -1      1844 3.60896E-03-6.03618E-04-2.13848E-15
 -1      1845 3.75023E-03-6.02346E-04-2.32511E-15
 -1      1846 3.53685E-03-5.67387E-04-2.05077E-15
 -1      1847 3.89179E-03-6.00729E-04-2.52049E-15
 -1      1848 4.03361E-03-5.98801E-04-2.72507E-15
 -1      1849 3.82012E-03-5.64748E-04-2.42283E-15
 -1      1850 4.17572E-03-5.96572E-04-2.93828E-15
 -1      1851 4.31811E-03-5.94067E-04-3.16034E-15
 -1      1852 4.10427E-03-5.60794E-04-2.83072E-15
 -1      1853 4.46082E-03-5.91283E-04-3.39105E-15
 -1      1854 4.60384E-03-5.88240E-04-3.62999E-15
 -1      1855 4.38938E-03-5.55679E-04-3.27334E-15
 -1      1856 4.74721E-03-5.84927E-04-3.87899E-15
 -1      1857 4.89097E-03-5.81364E-04-4.13706E-15
 -1      1858 4.67555E-03-5.49476E-04-3.75242E-15
 -1      1859 5.03512E-03-5.77539E-04-4.40374E-15
 -1      1860 5.17974E-03-5.73478E-04-4.68022E-15
 -1      1861 4.96293E-03-5.42214E-04-4.26670E-15
 -1      1862 5.32484E-03-5.69174E-04-4.96659E-15
 -1      1863 5.47052E-03-5.64667E-04-5.26184E-15
 -1      1864 5.25177E-03-5.33927E-04-4.81922E-15
 -1      1865 5.61679E-03-5.59964E-04-5.56711E-15
 -1      1866 5.76377E-03-5.55128E-04-5.88264E-15
 -1      1867 5.54237E-03-5.24709E-04-5.41119E-15
 -1      1868 5.91148E-03-5.50197E-04-6.20996E-15
 -1      1869 6.06009E-03-5.45266E-04-6.54850E-15
 -1      1870 5.83512E-03-5.14783E-04-6.04384E-15
 -1      1871 6.20959E-03-5.40422E-04-6.89692E-15
 -1      1872 6.36018E-03-5.35808E-04-7.25736E-15
 -1      1873 6.13052E-03-5.04599E-04-6.72047E-15
 -1      1874 6.51186E-03-5.31590E-04-7.62815E-15
 -1      1875 6.66487E-03-5.27973E-04-8.01015E-15
 -1      1876 6.42915E-03-4.94963E-04-7.43944E-15
 -1      1877 6.81918E-03-5.25243E-04-8.40486E-15
 -1      1878 6.97504E-03-5.23689E-04-8.80977E-15
 -1      1879 6.73170E-03-4.87208E-04-8.20486E-15
 -1      1880 7.13243E-03-5.23756E-04-9.22686E-15
 -1      1881 7.29158E-03-5.25848E-04-9.65595E-15
 -1      1882 7.03895E-03-4.83419E-04-9.01536E-15
 -1      1883 7.45250E-03-5.30606E-04-1.00954E-14
 -1      1884 7.61528E-03-5.38576E-04-1.05462E-14
 -1      1885 7.35176E-03-4.86691E-04-9.87182E-15
 -1      1886 7.78006E-03-5.50596E-04-1.10097E-14
 -1      1887 7.94666E-03-5.67365E-04-1.14836E-14
 -1      1888 7.67111E-03-5.01391E-04-1.07743E-14
 -1      1889 8.11539E-03-5.89840E-04-1.19690E-14
 -1      1890 8.28567E-03-6.18811E-04-1.24673E-14
 -1      1891 7.99798E-03-5.33268E-04-1.17215E-14
 -1      1892 8.45804E-03-6.55115E-04-1.29784E-14
 -1      1893 8.63129E-03-6.99412E-04-1.35023E-14
 -1      1894 8.33325E-03-5.89145E-04-1.27180E-14
 -1      1895 8.80621E-03-7.51948E-04-1.40382E-14
 -1      1896 8.98088E-03-8.12736E-04-1.45858E-14
 -1      1897 8.67714E-03-6.75623E-04-1.37627E-14
 -1      1898 9.15612E-03-8.80777E-04-1.51471E-14
 -1      1899 9.32959E-03-9.54579E-04-1.57184E-14
 -1      1900 9.02808E-03-7.96006E-04-1.48558E-14
 -1      1901 9.50172E-03-1.03135E-03-1.63028E-14
 -1      1902 9.67073E-03-1.10743E-03-1.68980E-14
 -1      1903 9.38122E-03-9.44785E-04-1.59984E-14
 -1      1904 9.83630E-03-1.17842E-03-1.75050E-14
 -1      1905 9.99874E-03-1.23917E-03-1.81278E-14
 -1      1906 9.72850E-03-1.10115E-03-1.71867E-14
 -1      1907 1.01569E-02-1.28530E-03-1.87646E-14
 -1      1908 1.03142E-02-1.31282E-03-1.94162E-14
 -1      1909 1.00628E-02-1.22805E-03-1.84275E-14
 -1      1910 1.04691E-02-1.31986E-03-2.00839E-14
 -1      1911 1.06263E-02-1.30643E-03-2.07640E-14
 -1      1912 1.03857E-02-1.28562E-03-1.97268E-14
 -1      1913 1.07844E-02-1.27443E-03-2.14608E-14
 -1      1914 1.09467E-02-1.22794E-03-2.21727E-14
 -1      1915 1.07086E-02-1.25619E-03-2.10904E-14
 -1      1916 1.11120E-02-1.17135E-03-2.28959E-14
 -1      1917 1.12806E-02-1.10973E-03-2.36327E-14
 -1      1918 1.10426E-02-1.15785E-03-2.25135E-14
 -1      1919 1.14522E-02-1.04748E-03-2.43800E-14
 -1      1920 1.16250E-02-9.88247E-04-2.51366E-14
 -1      1921 1.13893E-02-1.03050E-03-2.39864E-14
 -1      1922 1.17995E-02-9.34764E-04-2.59042E-14
 -1      1923 1.19733E-02-8.88508E-04-2.66802E-14
 -1      1924 1.17413E-02-9.10903E-04-2.55049E-14
 -1      1925 1.21471E-02-8.50436E-04-2.74671E-14
 -1      1926 1.23192E-02-8.20492E-04-2.82643E-14
 -1      1927 1.20907E-02-8.19639E-04-2.70589E-14
 -1      1928 1.24902E-02-7.98395E-04-2.90712E-14
 -1      1929 1.26589E-02-7.83450E-04-2.98899E-14
 -1      1930 1.24325E-02-7.61926E-04-2.86528E-14
 -1      1931 1.28260E-02-7.74774E-04-3.07170E-14
 -1      1932 1.29907E-02-7.71537E-04-3.15542E-14
 -1      1933 1.27652E-02-7.34161E-04-3.02870E-14
 -1      1934 1.31533E-02-7.72716E-04-3.23999E-14
 -1      1935 1.33138E-02-7.77558E-04-3.32524E-14
 -1      1936 1.30890E-02-7.29417E-04-3.19594E-14
 -1      1937 1.34723E-02-7.85135E-04-3.41161E-14
 -1      1938 1.36287E-02-7.94825E-04-3.49834E-14
 -1      1939 1.34047E-02-7.40427E-04-3.36636E-14
 -1      1940 1.37832E-02-8.05868E-04-3.58563E-14
 -1      1941 1.39360E-02-8.17763E-04-3.67369E-14
 -1      1942 1.37132E-02-7.60826E-04-3.53984E-14
 -1      1943 1.40870E-02-8.29914E-04-3.76178E-14
 -1      1944 1.42366E-02-8.41906E-04-3.85020E-14
 -1      1945 1.40154E-02-7.85434E-04-3.71486E-14
 -1      1946 1.43847E-02-8.53298E-04-3.93917E-14
 -1      1947 1.45316E-02-8.63728E-04-4.02811E-14
 -1      1948 1.43124E-02-8.10129E-04-3.89160E-14
 -1      1949 1.46622E-02-8.73707E-04-4.10815E-14
 -1      1950 1.48071E-02-8.81521E-04-4.19791E-14
 -1      1951 1.48487E-02-8.50447E-04-4.22077E-14
 -1      1952 1.45897E-02-8.32311E-04-4.06043E-14
 -1      1953 1.13826E-03 4.80053E-04-1.55447E-17
 -1      1954 9.96543E-04 4.46837E-04-6.23416E-19
 -1      1955 9.64199E-04 4.17395E-04-9.60874E-18
 -1      1956 1.41725E-03 5.31418E-04-6.01868E-17
 -1      1957 1.27816E-03 5.08035E-04-3.52230E-17
 -1      1958 1.24858E-03 4.79915E-04-4.59837E-17
 -1      1959 1.69350E-03 5.67523E-04-1.27407E-16
 -1      1960 1.55553E-03 5.51135E-04-9.08155E-17
 -1      1961 1.52874E-03 5.23985E-04-1.03013E-16
 -1      1962 1.96893E-03 5.92522E-04-2.17667E-16
 -1      1963 1.83122E-03 5.81242E-04-1.69461E-16
 -1      1964 1.80687E-03 5.54736E-04-1.83068E-16
 -1      1965 2.24463E-03 6.09341E-04-3.34354E-16
 -1      1966 2.10670E-03 6.01831E-04-2.72514E-16
 -1      1967 2.08438E-03 5.75738E-04-2.87652E-16
 -1      1968 2.52117E-03 6.20119E-04-4.79827E-16
 -1      1969 2.38278E-03 6.15394E-04-4.03472E-16
 -1      1970 2.36210E-03 5.89558E-04-4.19627E-16
 -1      1971 2.79883E-03 6.26439E-04-6.56796E-16
 -1      1972 2.65986E-03 6.23769E-04-5.64287E-16
 -1      1973 2.64049E-03 5.98084E-04-5.81769E-16
 -1      1974 3.07772E-03 6.29462E-04-8.66454E-16
 -1      1975 2.93813E-03 6.28313E-04-7.57288E-16
 -1      1976 2.91979E-03 6.02711E-04-7.75096E-16
 -1      1977 3.35785E-03 6.30032E-04-1.10885E-15
 -1      1978 3.21763E-03 6.30019E-04-9.83331E-16
 -1      1979 3.20011E-03 6.04454E-04-1.00184E-15
 -1      1980 3.63920E-03 6.28737E-04-1.38641E-15
 -1      1981 3.49838E-03 6.29593E-04-1.24296E-15
 -1      1982 3.48146E-03 6.04037E-04-1.26174E-15
 -1      1983 3.92175E-03 6.25973E-04-1.70290E-15
 -1      1984 3.78033E-03 6.27522E-04-1.53963E-15
 -1      1985 3.76387E-03 6.01957E-04-1.55827E-15
 -1      1986 4.20551E-03 6.21994E-04-2.05803E-15
 -1      1987 4.06348E-03 6.24124E-04-1.87568E-15
 -1      1988 4.04734E-03 5.98539E-04-1.89455E-15
 -1      1989 4.49054E-03 6.16952E-04-2.45158E-15
 -1      1990 4.34786E-03 6.19597E-04-2.25021E-15
 -1      1991 4.33192E-03 5.93979E-04-2.26898E-15
 -1      1992 4.77697E-03 6.10944E-04-2.88876E-15
 -1      1993 4.63357E-03 6.14060E-04-2.66459E-15
 -1      1994 4.61769E-03 5.88395E-04-2.68287E-15
 -1      1995 5.06500E-03 6.04057E-04-3.36826E-15
 -1      1996 4.92077E-03 6.07599E-04-3.12235E-15
 -1      1997 4.90480E-03 5.81868E-04-3.13993E-15
 -1      1998 5.35494E-03 5.96420E-04-3.89649E-15
 -1      1999 5.20971E-03 6.00315E-04-3.62618E-15
 -1      2000 5.19349E-03 5.74486E-04-3.64299E-15
 -1      2001 5.64717E-03 5.88268E-04-4.47587E-15
 -1      2002 5.50073E-03 5.92381E-04-4.17991E-15
 -1      2003 5.48406E-03 5.66408E-04-4.19562E-15
 -1      2004 5.94218E-03 5.80016E-04-5.10326E-15
 -1      2005 5.79429E-03 5.84112E-04-4.78365E-15
 -1      2006 5.77689E-03 5.57929E-04-4.79757E-15
 -1      2007 6.24054E-03 5.72357E-04-5.77834E-15
 -1      2008 6.09090E-03 5.76049E-04-5.43494E-15
 -1      2009 6.07245E-03 5.49563E-04-5.44752E-15
 -1      2010 6.54284E-03 5.66372E-04-6.49632E-15
 -1      2011 6.39114E-03 5.69066E-04-6.13236E-15
 -1      2012 6.37126E-03 5.42150E-04-6.14241E-15
 -1      2013 6.84965E-03 5.63652E-04-7.26104E-15
 -1      2014 6.69563E-03 5.64485E-04-6.87338E-15
 -1      2015 6.67387E-03 5.36971E-04-6.88264E-15
 -1      2016 7.16142E-03 5.66406E-04-8.07290E-15
 -1      2017 7.00488E-03 5.64194E-04-7.65937E-15
 -1      2018 6.98080E-03 5.35876E-04-7.66665E-15
 -1      2019 7.47832E-03 5.77506E-04-8.93373E-15
 -1      2020 7.31923E-03 5.70738E-04-8.49735E-15
 -1      2021 7.29244E-03 5.41370E-04-8.50086E-15
 -1      2022 7.80003E-03 6.00356E-04-9.84718E-15
 -1      2023 7.63863E-03 5.87284E-04-9.38489E-15
 -1      2024 7.60894E-03 5.56612E-04-9.38578E-15
 -1      2025 8.12554E-03 6.38444E-04-1.08087E-14
 -1      2026 7.96245E-03 6.17362E-04-1.03218E-14
 -1      2027 7.93002E-03 5.85186E-04-1.03210E-14
 -1      2028 8.45288E-03 6.94357E-04-1.18132E-14
 -1      2029 8.28923E-03 6.64164E-04-1.13058E-14
 -1      2030 8.25476E-03 6.30459E-04-1.13000E-14
 -1      2031 8.77910E-03 7.68133E-04-1.28647E-14
 -1      2032 8.61648E-03 7.29242E-04-1.23327E-14
 -1      2033 8.58133E-03 6.94332E-04-1.23250E-14
 -1      2034 9.10043E-03 8.55139E-04-1.39683E-14
 -1      2035 8.94076E-03 8.10556E-04-1.34094E-14
 -1      2036 8.90686E-03 7.75293E-04-1.33990E-14
 -1      2037 9.41318E-03 9.44381E-04-1.51209E-14
 -1      2038 9.25817E-03 9.00409E-04-1.45383E-14
 -1      2039 9.22769E-03 8.66192E-04-1.45246E-14
 -1      2040 9.71528E-03 1.01891E-03-1.63288E-14
 -1      2041 9.56558E-03 9.84580E-04-1.57195E-14
 -1      2042 9.54030E-03 9.53005E-04-1.57013E-14
 -1      2043 1.00079E-02 1.05989E-03-1.75923E-14
 -1      2044 9.86242E-03 1.04445E-03-1.69522E-14
 -1      2045 9.84325E-03 1.01660E-03-1.69321E-14
 -1      2046 1.02960E-02 1.05382E-03-1.89190E-14
 -1      2047 1.01519E-02 1.06296E-03-1.82478E-14
 -1      2048 1.01388E-02 1.03872E-03-1.82253E-14
 -1      2049 1.05864E-02 9.98812E-04-2.03014E-14
 -1      2050 1.04403E-02 1.03188E-03-1.96038E-14
 -1      2051 1.04329E-02 1.00997E-03-1.95772E-14
 -1      2052 1.08850E-02 9.05608E-04-2.17388E-14
 -1      2053 1.07343E-02 9.55926E-04-2.10133E-14
 -1      2054 1.07321E-02 9.34596E-04-2.09831E-14
 -1      2055 1.11938E-02 7.92296E-04-2.32223E-14
 -1      2056 1.10381E-02 8.50357E-04-2.24751E-14
 -1      2057 1.10401E-02 8.28290E-04-2.24408E-14
 -1      2058 1.15115E-02 6.76905E-04-2.47565E-14
 -1      2059 1.13518E-02 7.34060E-04-2.39824E-14
 -1      2060 1.13570E-02 7.10708E-04-2.39437E-14
 -1      2061 1.18347E-02 5.72168E-04-2.63391E-14
 -1      2062 1.16728E-02 6.22815E-04-2.55417E-14
 -1      2063 1.16796E-02 5.98242E-04-2.54994E-14
 -1      2064 1.21594E-02 4.84198E-04-2.79636E-14
 -1      2065 1.19972E-02 5.26033E-04-2.71457E-14
 -1      2066 1.20040E-02 5.00574E-04-2.70997E-14
 -1      2067 1.24822E-02 4.13772E-04-2.96227E-14
 -1      2068 1.23213E-02 4.46939E-04-2.87904E-14
 -1      2069 1.23271E-02 4.20974E-04-2.87419E-14
 -1      2070 1.28009E-02 3.58441E-04-3.13109E-14
 -1      2071 1.26422E-02 3.84453E-04-3.04629E-14
 -1      2072 1.26464E-02 3.58313E-04-3.04111E-14
 -1      2073 1.31140E-02 3.14325E-04-3.30133E-14
 -1      2074 1.29582E-02 3.35229E-04-3.21616E-14
 -1      2075 1.29606E-02 3.09177E-04-3.21063E-14
 -1      2076 1.34211E-02 2.77243E-04-3.47338E-14
 -1      2077 1.32684E-02 2.95133E-04-3.38726E-14
 -1      2078 1.32693E-02 2.69373E-04-3.38152E-14
 -1      2079 1.37224E-02 2.43276E-04-3.64581E-14
 -1      2080 1.35725E-02 2.60066E-04-3.55953E-14
 -1      2081 1.35724E-02 2.34756E-04-3.55335E-14
 -1      2082 1.40183E-02 2.08999E-04-3.81925E-14
 -1      2083 1.38710E-02 2.26337E-04-3.73252E-14
 -1      2084 1.38703E-02 2.01599E-04-3.72620E-14
 -1      2085 1.43098E-02 1.71619E-04-3.99301E-14
 -1      2086 1.41645E-02 1.90812E-04-3.90617E-14
 -1      2087 1.41636E-02 1.66732E-04-3.89981E-14
 -1      2088 1.45486E-02 1.34247E-04-4.13651E-14
 -1      2089 1.44047E-02 1.55590E-04-4.04943E-14
 -1      2090 1.44037E-02 1.32082E-04-4.04312E-14
 -1      2091 1.45926E-02 9.88713E-05-4.15626E-14
 -1      2092 1.47176E-02-1.13505E-04-4.16877E-14
 -1      2093 1.46882E-02-7.66875E-05-4.16286E-14
 -1      2094 1.46590E-02-3.88246E-05-4.15700E-14
 -1      2095 1.46302E-02-3.53322E-08-4.15149E-14
 -1      2096 1.45506E-02-4.05156E-05-4.08476E-14
 -1      2097 1.46240E-02 2.87341E-05-4.15667E-14
 -1      2098 1.45971E-02 6.90513E-05-4.15091E-14
 -1      2099 1.45028E-02 8.57246E-05-4.09439E-14
 -1      2100 1.45143E-02 2.68599E-05-4.08398E-14
 -1      2101 1.47743E-02-1.82938E-04-4.18022E-14
 -1      2102 1.47463E-02-1.48712E-04-4.17453E-14
 -1      2103 1.46097E-02-1.14278E-04-4.09656E-14
 -1      2104 1.48275E-02-2.49701E-04-4.19215E-14
 -1      2105 1.48016E-02-2.16758E-04-4.18606E-14
 -1      2106 1.46668E-02-1.84287E-04-4.10808E-14
 -1      2107 1.48735E-02-3.13209E-04-4.20367E-14
 -1      2108 1.48516E-02-2.81770E-04-4.19797E-14
 -1      2109 1.47193E-02-2.51373E-04-4.11937E-14
 -1      2110 1.49098E-02-3.74535E-04-4.21420E-14
 -1      2111 1.48929E-02-3.44019E-04-4.20893E-14
 -1      2112 1.47635E-02-3.15610E-04-4.13026E-14
 -1      2113 1.49351E-02-4.35068E-04-4.22351E-14
 -1      2114 1.49239E-02-4.04757E-04-4.21918E-14
 -1      2115 1.47974E-02-3.78060E-04-4.14034E-14
 -1      2116 1.49495E-02-4.96347E-04-4.23195E-14
 -1      2117 1.49437E-02-4.65472E-04-4.22773E-14
 -1      2118 1.48199E-02-4.40061E-04-4.14958E-14
 -1      2119 1.49542E-02-5.58744E-04-4.24032E-14
 -1      2120 1.49530E-02-5.27161E-04-4.23598E-14
 -1      2121 1.48313E-02-5.02514E-04-4.15801E-14
 -1      2122 1.49519E-02-6.25600E-04-4.24900E-14
 -1      2123 1.49538E-02-5.91665E-04-4.24460E-14
 -1      2124 1.48334E-02-5.67258E-04-4.16630E-14
 -1      2125 1.49457E-02-6.96635E-04-4.25780E-14
 -1      2126 1.49490E-02-6.60568E-04-4.25330E-14
 -1      2127 1.48288E-02-6.35940E-04-4.17446E-14
 -1      2128 1.49395E-02-7.72106E-04-4.26695E-14
 -1      2129 1.49423E-02-7.33846E-04-4.26240E-14
 -1      2130 1.48213E-02-7.08682E-04-4.18304E-14
 -1      2131 1.21739E-02-3.62450E-05-2.28993E-14
 -1      2132 1.23133E-02-8.60274E-05-2.30698E-14
 -1      2133 1.25626E-02-1.85004E-04-2.33760E-14
 -1      2134 1.25700E-02-2.02546E-04-2.33921E-14
 -1      2135 1.24349E-02-1.30701E-04-2.32263E-14
 -1      2136 1.25139E-02-1.58146E-04-2.33285E-14
 -1      2137 1.17941E-02 1.24751E-04-2.23897E-14
 -1      2138 1.19716E-02 4.05018E-05-2.26785E-14
 -1      2139 1.14142E-02 3.20174E-04-2.17621E-14
 -1      2140 1.16082E-02 2.18803E-04-2.20739E-14
 -1      2141 1.16899E-02 1.44724E-04-2.25349E-14
 -1      2142 3.27219E-04-8.90498E-05-3.31088E-17
 -1      2143 3.29308E-04-1.02229E-04-3.25667E-17
 -1      2144 4.46319E-04-1.45212E-04-4.76236E-17
 -1      2145 4.40069E-04-1.10032E-04-4.90330E-17
 -1      2146 1.06404E-02 7.33175E-04-2.00318E-14
 -1      2147 1.07967E-02 6.61772E-04-2.04206E-14
 -1      2148 1.03246E-02 8.12062E-04-1.92243E-14
 -1      2149 1.04714E-02 7.85787E-04-1.96102E-14
 -1      2150 9.99723E-03 7.83392E-04-1.83808E-14
 -1      2151 1.01416E-02 8.11932E-04-1.87462E-14
 -1      2152 9.66510E-03 6.56117E-04-1.76450E-14
 -1      2153 9.82196E-03 7.27232E-04-1.79798E-14
 -1      2154 9.29525E-03 4.61928E-04-1.69652E-14
 -1      2155 9.47520E-03 5.63302E-04-1.72894E-14
 -1      2156 8.86193E-03 2.38841E-04-1.63714E-14
 -1      2157 9.05400E-03 3.33438E-04-1.65928E-14
 -1      2158 8.51654E-03 8.02819E-05-1.59681E-14
 -1      2159 8.68406E-03 1.55604E-04-1.61685E-14
 -1      2160 8.79099E-03 1.80861E-04-1.60387E-14
 -1      2161 8.20560E-03-3.97957E-05-1.56308E-14
 -1      2162 8.32866E-03 7.48207E-07-1.57340E-14
 -1      2163 8.05080E-03-9.43824E-05-1.55698E-14
 -1      2164 8.09925E-03-7.72012E-05-1.55677E-14
 -1      2165 8.05960E-03-1.28438E-04-1.56224E-14
 -1      2166 8.03840E-03-1.13374E-04-1.55947E-14
 -1      2167 8.03462E-03-1.02342E-04-1.52852E-14
 -1      2168 8.23168E-03-1.94277E-04-1.58481E-14
 -1      2169 8.13753E-03-1.61923E-04-1.57246E-14
 -1      2170 8.48936E-03-2.99620E-04-1.61847E-14
 -1      2171 8.34661E-03-2.42228E-04-1.60148E-14
 -1      2172 8.28398E-03-1.92638E-04-1.56759E-14
 -1      2173 8.87117E-03-4.80530E-04-1.66741E-14
 -1      2174 8.69135E-03-3.94684E-04-1.64555E-14
 -1      2175 9.26843E-03-6.92713E-04-1.72241E-14
 -1      2176 9.08172E-03-5.88883E-04-1.69553E-14
 -1      2177 9.65269E-03-9.17239E-04-1.79203E-14
 -1      2178 9.48862E-03-8.19033E-04-1.75997E-14
 -1      2179 9.98376E-03-1.07602E-03-1.86066E-14
 -1      2180 9.82618E-03-1.00483E-03-1.82628E-14
 -1      2181 1.03151E-02-1.15597E-03-1.94151E-14
 -1      2182 1.01734E-02-1.13420E-03-1.90497E-14
 -1      2183 1.06034E-02-1.12397E-03-2.01634E-14
 -1      2184 1.04611E-02-1.15269E-03-1.97860E-14
 -1      2185 1.03835E-02-1.16707E-03-1.96184E-14
 -1      2186 1.09717E-02-9.77871E-04-2.10010E-14
 -1      2187 1.08118E-02-1.05278E-03-2.06587E-14
 -1      2188 1.13010E-02-8.06339E-04-2.16232E-14
 -1      2189 1.11340E-02-8.98115E-04-2.13106E-14
 -1      2190 1.10293E-02-9.39826E-04-2.12989E-14
 -1      2191 1.16846E-02-5.92125E-04-2.23358E-14
 -1      2192 1.15055E-02-6.91898E-04-2.20169E-14
 -1      2193 1.20794E-02-4.06450E-04-2.28846E-14
 -1      2194 1.19098E-02-4.78937E-04-2.26924E-14
 -1      2195 1.23529E-02-2.98134E-04-2.32093E-14
 -1      2196 1.22254E-02-3.47074E-04-2.30452E-14
 -1      2197 1.21439E-02-3.58397E-04-2.32913E-14
 -1      2198 1.25395E-02-2.27677E-04-2.33742E-14
 -1      2199 1.24759E-02-2.51587E-04-2.33276E-14
 -1      2200 1.09882E-02 5.61701E-04-2.08872E-14
 -1      2201 1.11642E-02 4.58989E-04-2.12693E-14
 -1      2202 6.07728E-04-2.98192E-04-5.35596E-17
 -1      2203 1.12783E-02 3.73735E-04-2.17172E-14
 -1      2204 1.08693E-02 6.13420E-04-2.07521E-14
 -1      2205 6.63463E-04-2.92490E-04-7.09746E-17
 -1      2206 1.23769E-02-1.28707E-04-2.34665E-14
 -1      2207 1.25456E-02-1.80545E-04-2.36758E-14
 -1      2208 1.48961E-02-8.01715E-04-4.24426E-14
 -1      2209 1.20625E-02-1.96765E-05-2.30813E-14
 -1      2210 1.25632E-02-2.12132E-04-2.37089E-14
 -1      2211 1.24156E-02-2.63567E-04-2.35729E-14
 -1      2212 1.13742E-02-7.45134E-04-2.20064E-14
 -1      2213 1.06944E-02-1.09948E-03-2.04855E-14
 -1      2214 1.00926E-02-1.11539E-03-1.88022E-14
 -1      2215 9.76549E-03-9.63697E-04-1.80191E-14
 -1      2216 9.39914E-03-7.48313E-04-1.73029E-14
 -1      2217 8.58718E-03-3.15980E-04-1.61069E-14
 -1      2218 8.08625E-03-1.31571E-04-1.54114E-14
 -1      2219 8.42783E-03 2.55989E-05-1.56091E-14
 -1      2220 9.18827E-03 3.88546E-04-1.66045E-14
 -1      2221 9.59060E-03 6.11000E-04-1.73272E-14
 -1      2222 9.91717E-03 7.63199E-04-1.80798E-14
 -1      2223 1.05415E-02 7.67901E-04-1.98589E-14
 -1      2224 1.02293E-02 8.24109E-04-1.89568E-14
 -1      2225 8.14053E-03-6.83232E-05-1.53191E-14
 -1      2226 8.98950E-03-5.13053E-04-1.66529E-14
 -1      2227 1.17884E-02-5.19858E-04-2.27655E-14
 -1      2228 1.01634E-03 3.99831E-04-3.15909E-17
 -1      2229 8.71919E-04 3.63474E-04-1.60191E-17
 -1      2230 5.47926E-04-5.53453E-05-6.62990E-17
 -1      2231 5.48945E-04-7.20736E-05-6.76813E-17
 -1      2232 5.50342E-04-8.94074E-05-6.87113E-17
 -1      2233 5.52184E-04-1.07393E-04-6.96193E-17
 -1      2234 6.65429E-04-9.55550E-05-9.30110E-17
 -1      2235 5.46569E-04 8.86414E-06-5.92381E-17
 -1      2236 5.46549E-04-6.98699E-06-6.11626E-17
 -1      2237 5.47311E-04 4.09018E-05-5.46573E-17
 -1      2238 5.46819E-04 2.48142E-05-5.70561E-17
 -1      2239 6.61542E-04 1.99447E-05-7.99599E-17
 -1      2240 5.49110E-04 7.35473E-05-4.91957E-17
 -1      2241 5.48063E-04 5.70435E-05-5.21637E-17
 -1      2242 6.62849E-04 5.78256E-05-7.38071E-17
 -1      2243 5.52459E-04 1.09039E-04-4.21077E-17
 -1      2244 5.50559E-04 9.09555E-05-4.57940E-17
 -1      2245 6.65672E-04 9.73166E-05-6.60957E-17
 -1      2246 5.58283E-04 1.48385E-04-3.31766E-17
 -1      2247 5.54994E-04 1.28156E-04-3.79335E-17
 -1      2248 6.70706E-04 1.40104E-04-5.65140E-17
 -1      2249 5.68546E-04 1.93985E-04-2.14130E-17
 -1      2250 5.62741E-04 1.70268E-04-2.76201E-17
 -1      2251 6.79284E-04 1.87657E-04-4.42490E-17
 -1      2252 1.30172E-03 4.56675E-04-7.68428E-17
 -1      2253 1.15944E-03 4.30790E-04-5.17435E-17
 -1      2254 1.07157E-03 3.81343E-04-5.54705E-17
 -1      2255 9.15021E-04-3.46424E-04-1.34658E-16
 -1      2256 1.05909E-03-3.79717E-04-1.76928E-16
 -1      2257 1.11590E-02 4.32351E-04-2.17305E-14
 -1      2258 1.13746E-02 3.01919E-04-2.22315E-14
 -1      2259 1.20230E-03-4.08053E-04-2.25677E-16
 -1      2260 1.34508E-03-4.31866E-04-2.80605E-16
 -1      2261 1.11684E-03-3.60528E-04-2.04833E-16
 -1      2262 1.48722E-03-4.51996E-04-3.42025E-16
 -1      2263 1.62897E-03-4.68732E-04-4.10398E-16
 -1      2264 1.40311E-03-4.07154E-04-3.15367E-16
 -1      2265 1.77036E-03-4.82738E-04-4.85438E-16
 -1      2266 1.91151E-03-4.94223E-04-5.67011E-16
 -1      2267 1.68820E-03-4.40186E-04-4.51760E-16
 -1      2268 2.05252E-03-5.03676E-04-6.55332E-16
 -1      2269 2.19341E-03-5.11272E-04-7.51420E-16
 -1      2270 1.97235E-03-4.62925E-04-6.15054E-16
 -1      2271 2.33430E-03-5.17364E-04-8.54148E-16
 -1      2272 2.47517E-03-5.22090E-04-9.64750E-16
 -1      2273 2.25597E-03-4.77976E-04-8.05603E-16
 -1      2274 2.61612E-03-5.25707E-04-1.08328E-15
 -1      2275 2.75713E-03-5.28323E-04-1.20967E-15
 -1      2276 2.53939E-03-4.87337E-04-1.02605E-15
 -1      2277 2.89826E-03-5.30119E-04-1.34429E-15
 -1      2278 3.03948E-03-5.31179E-04-1.48659E-15
 -1      2279 2.82285E-03-4.92505E-04-1.27768E-15
 -1      2280 3.18086E-03-5.31630E-04-1.63712E-15
 -1      2281 3.32236E-03-5.31533E-04-1.79614E-15
 -1      2282 3.10653E-03-4.94583E-04-1.56144E-15
 -1      2283 3.46402E-03-5.30971E-04-1.96394E-15
 -1      2284 3.60582E-03-5.29989E-04-2.14070E-15
 -1      2285 3.39051E-03-4.94362E-04-1.87816E-15
 -1      2286 3.74780E-03-5.28636E-04-2.32603E-15
 -1      2287 3.88993E-03-5.26945E-04-2.52051E-15
 -1      2288 3.67488E-03-4.92383E-04-2.23027E-15
 -1      2289 4.03224E-03-5.24940E-04-2.72334E-15
 -1      2290 4.17473E-03-5.22643E-04-2.93579E-15
 -1      2291 3.95969E-03-4.88996E-04-2.61751E-15
 -1      2292 4.31741E-03-5.20060E-04-3.15735E-15
 -1      2293 4.46029E-03-5.17207E-04-3.38722E-15
 -1      2294 4.24499E-03-4.84406E-04-3.04051E-15
 -1      2295 4.60339E-03-5.14079E-04-3.62550E-15
 -1      2296 4.74672E-03-5.10689E-04-3.87339E-15
 -1      2297 4.53084E-03-4.78711E-04-3.49964E-15
 -1      2298 4.89029E-03-5.07028E-04-4.13101E-15
 -1      2299 5.03414E-03-5.03111E-04-4.39644E-15
 -1      2300 4.81733E-03-4.71948E-04-3.99451E-15
 -1      2301 5.17828E-03-4.98929E-04-4.67255E-15
 -1      2302 5.32276E-03-4.94505E-04-4.95934E-15
 -1      2303 5.10455E-03-4.64131E-04-4.52672E-15
 -1      2304 5.46758E-03-4.89843E-04-5.25559E-15
 -1      2305 5.61282E-03-4.84979E-04-5.56140E-15
 -1      2306 5.39265E-03-4.55300E-04-5.09861E-15
 -1      2307 5.75846E-03-4.79942E-04-5.87730E-15
 -1      2308 5.90462E-03-4.74788E-04-6.20586E-15
 -1      2309 5.68180E-03-4.45581E-04-5.71189E-15
 -1      2310 6.05127E-03-4.69588E-04-6.54378E-15
 -1      2311 6.19856E-03-4.64431E-04-6.89216E-15
 -1      2312 5.97221E-03-4.35260E-04-6.36728E-15
 -1      2313 6.34644E-03-4.59450E-04-7.25318E-15
 -1      2314 6.49510E-03-4.54785E-04-7.62384E-15
 -1      2315 6.26416E-03-4.24884E-04-7.06634E-15
 -1      2316 6.64449E-03-4.50656E-04-8.00621E-15
 -1      2317 6.79482E-03-4.47279E-04-8.39950E-15
 -1      2318 6.55801E-03-4.15390E-04-7.80830E-15
 -1      2319 6.94606E-03-4.44992E-04-8.80584E-15
 -1      2320 7.09844E-03-4.44117E-04-9.22225E-15
 -1      2321 6.85425E-03-4.08278E-04-8.59515E-15
 -1      2322 7.25199E-03-4.45138E-04-9.65038E-15
 -1      2323 7.40692E-03-4.48530E-04-1.00897E-14
 -1      2324 7.15363E-03-4.05817E-04-9.42909E-15
 -1      2325 7.56338E-03-4.54928E-04-1.05396E-14
 -1      2326 7.72154E-03-4.65022E-04-1.10028E-14
 -1      2327 7.45726E-03-4.11287E-04-1.03070E-14
 -1      2328 7.88176E-03-4.79559E-04-1.14752E-14
 -1      2329 8.04404E-03-4.99497E-04-1.19603E-14
 -1      2330 7.76696E-03-4.29233E-04-1.12297E-14
 -1      2331 8.20906E-03-5.25571E-04-1.24580E-14
 -1      2332 8.37646E-03-5.58988E-04-1.29668E-14
 -1      2333 8.08537E-03-4.65647E-04-1.21985E-14
 -1      2334 8.54729E-03-6.00216E-04-1.34896E-14
 -1      2335 8.72049E-03-6.50426E-04-1.40227E-14
 -1      2336 8.41599E-03-5.27895E-04-1.32171E-14
 -1      2337 8.89730E-03-7.09423E-04-1.45675E-14
 -1      2338 9.07561E-03-7.77460E-04-1.51253E-14
 -1      2339 8.76203E-03-6.23756E-04-1.42821E-14
 -1      2340 9.25637E-03-8.53103E-04-1.56935E-14
 -1      2341 9.43647E-03-9.34011E-04-1.62751E-14
 -1      2342 9.12370E-03-7.58117E-04-1.53910E-14
 -1      2343 9.61597E-03-1.01688E-03-1.68674E-14
 -1      2344 9.79233E-03-1.09565E-03-1.74718E-14
 -1      2345 9.49407E-03-9.24566E-04-1.65489E-14
 -1      2346 9.96432E-03-1.16577E-03-1.80917E-14
 -1      2347 1.01333E-02-1.21858E-03-1.87242E-14
 -1      2348 9.85836E-03-1.09346E-03-1.77577E-14
 -1      2349 1.02973E-02-1.25051E-03-1.93739E-14
 -1      2350 1.04624E-02-1.25751E-03-2.00388E-14
 -1      2351 1.02054E-02-1.20979E-03-1.90204E-14
 -1      2352 1.06265E-02-1.23954E-03-2.07195E-14
 -1      2353 1.07955E-02-1.20086E-03-2.14170E-14
 -1      2354 1.05428E-02-1.22362E-03-2.03488E-14
 -1      2355 1.09674E-02-1.14509E-03-2.21289E-14
 -1      2356 1.11436E-02-1.08069E-03-2.28545E-14
 -1      2357 1.08899E-02-1.13557E-03-2.17423E-14
 -1      2358 1.13230E-02-1.01252E-03-2.35911E-14
 -1      2359 1.15027E-02-9.46240E-04-2.43417E-14
 -1      2360 1.12542E-02-9.95544E-04-2.31962E-14
 -1      2361 1.16829E-02-8.85133E-04-2.51016E-14
 -1      2362 1.18606E-02-8.31726E-04-2.58708E-14
 -1      2363 1.16240E-02-8.58558E-04-2.46985E-14
 -1      2364 1.20367E-02-7.87319E-04-2.66508E-14
 -1      2365 1.22092E-02-7.51632E-04-2.74396E-14
 -1      2366 1.19846E-02-7.53424E-04-2.62394E-14
 -1      2367 1.23792E-02-7.24808E-04-2.82359E-14
 -1      2368 1.25457E-02-7.05655E-04-2.90409E-14
 -1      2369 1.23295E-02-6.86620E-04-2.78188E-14
 -1      2370 1.27097E-02-6.93663E-04-2.98582E-14
 -1      2371 1.28709E-02-6.87595E-04-3.06846E-14
 -1      2372 1.26587E-02-6.52908E-04-2.94312E-14
 -1      2373 1.30299E-02-6.86661E-04-3.15195E-14
 -1      2374 1.31868E-02-6.89863E-04-3.23635E-14
 -1      2375 1.29756E-02-6.44256E-04-3.10812E-14
 -1      2376 1.33418E-02-6.96376E-04-3.32138E-14
 -1      2377 1.34952E-02-7.05451E-04-3.40734E-14
 -1      2378 1.32835E-02-6.52952E-04-3.27658E-14
 -1      2379 1.36471E-02-7.16351E-04-3.49398E-14
 -1      2380 1.37977E-02-7.28515E-04-3.58089E-14
 -1      2381 1.35850E-02-6.72514E-04-3.44803E-14
 -1      2382 1.39471E-02-7.41334E-04-3.66821E-14
 -1      2383 1.40953E-02-7.54371E-04-3.75604E-14
 -1      2384 1.38819E-02-6.97726E-04-3.62181E-14
 -1      2385 1.42425E-02-7.67143E-04-3.84415E-14
 -1      2386 1.43889E-02-7.79286E-04-3.93278E-14
 -1      2387 1.41751E-02-7.24434E-04-3.79704E-14
 -1      2388 1.86471E-03 5.24738E-04-2.33415E-16
 -1      2389 1.72453E-03 5.12139E-04-1.85575E-16
 -1      2390 2.14471E-03 5.43614E-04-3.48801E-16
 -1      2391 2.00476E-03 5.35171E-04-2.87747E-16
 -1      2392 1.92417E-03 4.94049E-04-2.86094E-16
 -1      2393 2.42469E-03 5.55829E-04-4.91631E-16
 -1      2394 2.28469E-03 5.50451E-04-4.16483E-16
 -1      2395 2.20622E-03 5.10870E-04-4.11739E-16
 -1      2396 2.70507E-03 5.63139E-04-6.65117E-16
 -1      2397 2.56483E-03 5.60018E-04-5.74519E-16
 -1      2398 2.48813E-03 5.21561E-04-5.65655E-16
 -1      2399 2.98607E-03 5.66842E-04-8.70398E-16
 -1      2400 2.84549E-03 5.65382E-04-7.63441E-16
 -1      2401 2.77023E-03 5.27738E-04-7.50092E-16
 -1      2402 3.26780E-03 5.67876E-04-1.10830E-15
 -1      2403 3.12684E-03 5.67649E-04-9.85309E-16
 -1      2404 3.05271E-03 5.30595E-04-9.66932E-16
 -1      2405 3.55032E-03 5.66903E-04-1.38053E-15
 -1      2406 3.40896E-03 5.67609E-04-1.23991E-15
 -1      2407 3.33570E-03 5.30991E-04-1.21677E-15
 -1      2408 3.83368E-03 5.64368E-04-1.69069E-15
 -1      2409 3.69190E-03 5.65809E-04-1.53076E-15
 -1      2410 3.61925E-03 5.29525E-04-1.50170E-15
 -1      2411 4.11791E-03 5.60558E-04-2.03848E-15
 -1      2412 3.97568E-03 5.62608E-04-1.85941E-15
 -1      2413 3.90343E-03 5.26594E-04-1.82376E-15
 -1      2414 4.40306E-03 5.55639E-04-2.42528E-15
 -1      2415 4.26036E-03 5.58227E-04-2.22760E-15
 -1      2416 4.18828E-03 5.22444E-04-2.18440E-15
 -1      2417 4.68924E-03 5.49707E-04-2.85344E-15
 -1      2418 4.54601E-03 5.52792E-04-2.63353E-15
 -1      2419 4.47387E-03 5.17216E-04-2.58443E-15
 -1      2420 4.97660E-03 5.42831E-04-3.32389E-15
 -1      2421 4.83276E-03 5.46379E-04-3.08301E-15
 -1      2422 4.76029E-03 5.10988E-04-3.02468E-15
 -1      2423 5.26534E-03 5.35102E-04-3.84163E-15
 -1      2424 5.12077E-03 5.39062E-04-3.57696E-15
 -1      2425 5.04768E-03 5.03820E-04-3.50986E-15
 -1      2426 5.55573E-03 5.26691E-04-4.40873E-15
 -1      2427 5.41030E-03 5.30963E-04-4.11846E-15
 -1      2428 5.33621E-03 4.95805E-04-4.04205E-15
 -1      2429 5.84811E-03 5.17920E-04-5.02467E-15
 -1      2430 5.70163E-03 5.22320E-04-4.71080E-15
 -1      2431 5.62612E-03 4.87130E-04-4.62331E-15
 -1      2432 6.14290E-03 5.09355E-04-5.68714E-15
 -1      2433 5.99516E-03 5.13565E-04-5.34994E-15
 -1      2434 5.91771E-03 4.78148E-04-5.25270E-15
 -1      2435 6.44056E-03 5.01907E-04-6.39362E-15
 -1      2436 6.29132E-03 5.05421E-04-6.03494E-15
 -1      2437 6.21133E-03 4.69469E-04-5.92741E-15
 -1      2438 6.74160E-03 4.96956E-04-7.14604E-15
 -1      2439 6.59061E-03 4.99019E-04-6.76419E-15
 -1      2440 6.50742E-03 4.62067E-04-6.64700E-15
 -1      2441 7.04655E-03 4.96475E-04-7.94357E-15
 -1      2442 6.89355E-03 4.96020E-04-7.53831E-15
 -1      2443 6.80651E-03 4.57406E-04-7.40999E-15
 -1      2444 7.35592E-03 5.03110E-04-8.78919E-15
 -1      2445 7.20066E-03 4.98726E-04-8.35939E-15
 -1      2446 7.10922E-03 4.57552E-04-8.21935E-15
 -1      2447 7.67009E-03 5.20164E-04-9.68754E-15
 -1      2448 7.51243E-03 5.10122E-04-9.23262E-15
 -1      2449 7.41627E-03 4.65261E-04-9.07947E-15
 -1      2450 7.98922E-03 5.51329E-04-1.06318E-14
 -1      2451 7.82913E-03 5.33760E-04-1.01536E-14
 -1      2452 7.72844E-03 4.83950E-04-9.98869E-15
 -1      2453 8.31293E-03 5.99995E-04-1.16222E-14
 -1      2454 8.15069E-03 5.73302E-04-1.11217E-14
 -1      2455 8.04642E-03 5.17431E-04-1.09445E-14
 -1      2456 8.63995E-03 6.67883E-04-1.26601E-14
 -1      2457 8.47633E-03 6.31531E-04-1.21349E-14
 -1      2458 8.37046E-03 5.69200E-04-1.19455E-14
 -1      2459 8.96771E-03 7.52921E-04-1.37456E-14
 -1      2460 8.80415E-03 7.08591E-04-1.31964E-14
 -1      2461 8.69971E-03 6.40974E-04-1.29953E-14
 -1      2462 9.29226E-03 8.46758E-04-1.48823E-14
 -1      2463 9.13078E-03 7.99565E-04-1.43090E-14
 -1      2464 9.03146E-03 7.30276E-04-1.40931E-14
 -1      2465 9.60944E-03 9.33437E-04-1.60732E-14
 -1      2466 9.45194E-03 8.92285E-04-1.54698E-14
 -1      2467 9.36091E-03 8.27454E-04-1.52416E-14
 -1      2468 9.91737E-03 9.91794E-04-1.73207E-14
 -1      2469 9.76428E-03 9.67541E-04-1.66896E-14
 -1      2470 9.68278E-03 9.14085E-04-1.64461E-14
 -1      2471 1.02188E-02 1.00302E-03-1.86287E-14
 -1      2472 1.00681E-02 1.00412E-03-1.79673E-14
 -1      2473 9.99496E-03 9.66319E-04-1.77095E-14
 -1      2474 1.05204E-02 9.59989E-04-1.99936E-14
 -1      2475 1.03687E-02 9.88073E-04-1.93045E-14
 -1      2476 1.03014E-02 9.64845E-04-1.90326E-14
 -1      2477 1.08286E-02 8.71387E-04-2.14106E-14
 -1      2478 1.06732E-02 9.20276E-04-2.06947E-14
 -1      2479 1.06104E-02 9.05926E-04-2.04091E-14
 -1      2480 1.11459E-02 7.56726E-04-2.28777E-14
 -1      2481 1.09862E-02 8.15906E-04-2.21386E-14
 -1      2482 1.09280E-02 8.03737E-04-2.18381E-14
 -1      2483 1.14699E-02 6.36927E-04-2.43936E-14
 -1      2484 1.13074E-02 6.96360E-04-2.36293E-14
 -1      2485 1.12544E-02 6.81848E-04-2.33161E-14
 -1      2486 1.17963E-02 5.27071E-04-2.59599E-14
 -1      2487 1.16332E-02 5.80146E-04-2.51705E-14
 -1      2488 1.15851E-02 5.61565E-04-2.48434E-14
 -1      2489 1.21213E-02 4.34582E-04-2.75710E-14
 -1      2490 1.19593E-02 4.78477E-04-2.67599E-14
 -1      2491 1.19146E-02 4.55880E-04-2.64209E-14
 -1      2492 1.24423E-02 3.60755E-04-2.92180E-14
 -1      2493 1.22825E-02 3.95422E-04-2.83911E-14
 -1      2494 1.22394E-02 3.69571E-04-2.80421E-14
 -1      2495 1.27580E-02 3.03259E-04-3.08939E-14
 -1      2496 1.26009E-02 3.30177E-04-3.00525E-14
 -1      2497 1.25579E-02 3.01975E-04-2.96942E-14
 -1      2498 1.30682E-02 2.58149E-04-3.25894E-14
 -1      2499 1.29139E-02 2.79404E-04-3.17408E-14
 -1      2500 1.28700E-02 2.49716E-04-3.13741E-14
 -1      2501 1.33730E-02 2.21125E-04-3.42995E-14
 -1      2502 1.32213E-02 2.38868E-04-3.34428E-14
 -1      2503 1.31762E-02 2.08488E-04-3.30722E-14
 -1      2504 1.36728E-02 1.88140E-04-3.60182E-14
 -1      2505 1.35235E-02 2.04347E-04-3.51578E-14
 -1      2506 1.34772E-02 1.74009E-04-3.47821E-14
 -1      2507 1.39681E-02 1.55633E-04-3.77460E-14
 -1      2508 1.38210E-02 1.72021E-04-3.68809E-14
 -1      2509 1.37738E-02 1.42412E-04-3.65019E-14
 -1      2510 1.42596E-02 1.20625E-04-3.94818E-14
 -1      2511 1.41143E-02 1.38611E-04-3.86121E-14
 -1      2512 1.40666E-02 1.10347E-04-3.82286E-14
 -1      2513 1.44082E-02 1.01786E-04-4.03787E-14
 -1      2514 1.45596E-02-1.87210E-04-4.03541E-14
 -1      2515 1.45313E-02-1.52341E-04-4.02984E-14
 -1      2516 1.46111E-02-2.54492E-04-4.04648E-14
 -1      2517 1.45863E-02-2.21204E-04-4.04095E-14
 -1      2518 1.44526E-02-1.91370E-04-3.96283E-14
 -1      2519 1.44425E-02-4.36191E-05-4.01245E-14
 -1      2520 1.44123E-02-5.14905E-06-4.00651E-14
 -1      2521 1.45022E-02-1.16910E-04-4.02411E-14
 -1      2522 1.44726E-02-8.08718E-05-4.01824E-14
 -1      2523 1.43345E-02-4.76881E-05-3.93993E-14
 -1      2524 1.43953E-02-1.21168E-04-3.95148E-14
 -1      2525 1.46535E-02-3.19178E-04-4.05689E-14
 -1      2526 1.46336E-02-2.87063E-04-4.05192E-14
 -1      2527 1.45030E-02-2.58642E-04-3.97368E-14
 -1      2528 1.46849E-02-3.82352E-04-4.06693E-14
 -1      2529 1.46706E-02-3.50832E-04-4.06205E-14
 -1      2530 1.45435E-02-3.23461E-04-3.98396E-14
 -1      2531 1.47044E-02-4.45354E-04-4.07561E-14
 -1      2532 1.46961E-02-4.13741E-04-4.07120E-14
 -1      2533 1.45721E-02-3.86981E-04-3.99319E-14
 -1      2534 1.47126E-02-5.08491E-04-4.08384E-14
 -1      2535 1.47098E-02-4.76652E-04-4.07977E-14
 -1      2536 1.45884E-02-4.50060E-04-4.00150E-14
 -1      2537 1.47119E-02-5.75216E-04-4.09194E-14
 -1      2538 1.47133E-02-5.41441E-04-4.08795E-14
 -1      2539 1.45935E-02-5.14650E-04-4.00959E-14
 -1      2540 1.47051E-02-6.45447E-04-4.10021E-14
 -1      2541 1.47090E-02-6.09831E-04-4.09627E-14
 -1      2542 1.45897E-02-5.82589E-04-4.01781E-14
 -1      2543 1.46961E-02-7.19777E-04-4.10831E-14
 -1      2544 1.47006E-02-6.82084E-04-4.10389E-14
 -1      2545 1.45805E-02-6.54275E-04-4.02568E-14
 -1      2546 1.25313E-02-1.84533E-04-2.41000E-14
 -1      2547 1.25763E-02-1.94782E-04-2.41518E-14
 -1      2548 1.19900E-02-7.73403E-06-2.33446E-14
 -1      2549 1.21703E-02-7.60919E-05-2.35745E-14
 -1      2550 1.58406E-03 4.96830E-04-1.43670E-16
 -1      2551 1.44317E-03 4.78601E-04-1.07458E-16
 -1      2552 1.64149E-03 4.68930E-04-1.86171E-16
 -1      2553 1.47678E-02-7.93533E-04-4.16404E-14
 -1      2554 1.25847E-02-2.07310E-04-2.41526E-14
 -1      2555 1.25571E-02-2.16212E-04-2.41373E-14
 -1      2556 1.16000E-02 1.78100E-04-2.26713E-14
 -1      2557 1.17657E-02 9.32176E-05-2.29945E-14
 -1      2558 5.88426E-04-2.38076E-04-6.42254E-17
 -1      2559 7.81170E-04-3.04920E-04-1.02579E-16
 -1      2560 8.40673E-04-2.93667E-04-1.23599E-16
 -1      2561 5.78897E-04-2.10257E-04-6.71663E-17
 -1      2562 1.14454E-02-6.92503E-04-2.24432E-14
 -1      2563 1.12634E-02-8.00725E-04-2.20424E-14
 -1      2564 1.01649E-02-1.14579E-03-1.89612E-14
 -1      2565 1.00141E-02-1.08790E-03-1.85183E-14
 -1      2566 8.35066E-03-6.13066E-06-1.52484E-14
 -1      2567 8.52943E-03 5.73306E-05-1.54758E-14
 -1      2568 9.09121E-03 3.26367E-04-1.62148E-14
 -1      2569 9.30461E-03 4.47106E-04-1.65785E-14
 -1      2570 5.46759E-04-2.29204E-05-6.30057E-17
 -1      2571 5.47208E-04-3.89746E-05-6.47811E-17
 -1      2572 6.62700E-04-5.58538E-05-8.96364E-17
 -1      2573 6.61490E-04-1.77175E-05-8.51912E-17
 -1      2574 1.01636E-02 8.30133E-04-1.87149E-14
 -1      2575 1.03077E-02 8.29660E-04-1.91939E-14
 -1      2576 8.08200E-03-8.14728E-05-1.49823E-14
 -1      2577 8.17699E-03-5.93632E-05-1.50398E-14
 -1      2578 1.04652E-02 7.97577E-04-1.96948E-14
 -1      2579 1.05995E-02 7.45579E-04-2.01198E-14
 -1      2580 9.84598E-03 7.39701E-04-1.77545E-14
 -1      2581 9.98369E-03 7.94732E-04-1.81527E-14
 -1      2582 9.51480E-03 5.65885E-04-1.69865E-14
 -1      2583 9.67251E-03 6.55985E-04-1.73383E-14
 -1      2584 8.67651E-03 1.19404E-04-1.56670E-14
 -1      2585 8.83459E-03 1.93902E-04-1.58621E-14
 -1      2586 8.56956E-03 7.88703E-05-1.53022E-14
 -1      2587 9.08713E-03-5.45227E-04-1.65611E-14
 -1      2588 8.89993E-03-4.43245E-04-1.62854E-14
 -1      2589 8.01814E-03-1.02941E-04-1.49897E-14
 -1      2590 8.02836E-03-9.77889E-05-1.49642E-14
 -1      2591 8.11944E-03-1.32653E-04-1.51897E-14
 -1      2592 8.04650E-03-1.16541E-04-1.50903E-14
 -1      2593 8.01550E-03-1.06179E-04-1.47702E-14
 -1      2594 8.34627E-03-2.00690E-04-1.55023E-14
 -1      2595 8.23719E-03-1.66932E-04-1.53400E-14
 -1      2596 1.18828E-02-4.62414E-04-2.32563E-14
 -1      2597 1.16768E-02-5.65794E-04-2.28917E-14
 -1      2598 8.70261E-03-3.47004E-04-1.60193E-14
 -1      2599 8.51437E-03-2.65847E-04-1.57551E-14
 -1      2600 8.79432E-03-3.87592E-04-1.59278E-14
 -1      2601 9.51204E-03-8.03254E-04-1.73438E-14
 -1      2602 9.31802E-03-6.81111E-04-1.69730E-14
 -1      2603 9.84554E-03-1.00451E-03-1.80831E-14
 -1      2604 9.70263E-03-9.18535E-04-1.77428E-14
 -1      2605 1.04455E-02-1.17158E-03-1.98402E-14
 -1      2606 1.03300E-02-1.17409E-03-1.94677E-14
 -1      2607 1.07833E-02-1.06689E-03-2.08616E-14
 -1      2608 1.06132E-02-1.13685E-03-2.03602E-14
 -1      2609 1.11217E-02-8.83296E-04-2.17237E-14
 -1      2610 1.09878E-02-9.62952E-04-2.14080E-14
 -1      2611 1.12172E-02-8.33748E-04-2.21521E-14
 -1      2612 1.22187E-02-3.21852E-04-2.37295E-14
 -1      2613 1.20855E-02-3.72383E-04-2.35643E-14
 -1      2614 1.24797E-02-2.39599E-04-2.40353E-14
 -1      2615 1.23647E-02-2.71341E-04-2.39159E-14
 -1      2616 1.07576E-02 6.70011E-04-2.05829E-14
 -1      2617 1.09212E-02 5.74117E-04-2.10535E-14
 -1      2618 1.06718E-02 7.14224E-04-2.04141E-14
 -1      2619 7.57702E-04 3.34281E-04-5.38035E-18
 -1      2620 6.11326E-04 2.84927E-04 2.15485E-18
 -1      2621 5.84628E-04 2.58164E-04-2.94090E-18
 -1      2622 8.13553E-04 3.22956E-04-2.15485E-17
 -1      2623 1.23240E-02-1.27301E-04-2.37638E-14
 -1      2624 1.24373E-02-1.57977E-04-2.39263E-14
 -1      2625 1.03815E-02 8.21118E-04-1.94464E-14
 -1      2626 6.70293E-04-1.38048E-04-9.50032E-17
 -1      2627 5.54635E-04-1.26302E-04-7.00395E-17
 -1      2628 5.57813E-04-1.46281E-04-6.98497E-17
 -1      2629 1.35753E-03 4.32634E-04-1.10033E-16
 -1      2630 5.72164E-04 2.27976E-04-1.12486E-17
 -1      2631 1.22625E-02-1.10004E-04-2.40306E-14
 -1      2632 5.64282E-04-1.65051E-04-6.96329E-17
 -1      2633 5.69682E-04-1.88119E-04-6.82912E-17
 -1      2634 6.97785E-04-2.27859E-04-9.45153E-17
 -1      2635 6.80723E-04-1.81761E-04-9.55453E-17
 -1      2636 1.25344E-02-2.28150E-04-2.44781E-14
 -1      2637 1.15689E-02-6.29768E-04-2.29244E-14
 -1      2638 1.14784E-02 2.48622E-04-2.26841E-14
 -1      2639 1.08913E-02-1.02139E-03-2.12752E-14
 -1      2640 1.05475E-02-1.15952E-03-2.02039E-14
 -1      2641 9.93281E-03-1.05274E-03-1.82353E-14
 -1      2642 1.43603E-02 7.54103E-05-3.99933E-14
 -1      2643 1.19040E-02 3.10097E-05-2.34831E-14
 -1      2644 1.43668E-02 4.57746E-05-3.99419E-14
 -1      2645 1.25985E-02-2.04590E-04-2.45775E-14
 -1      2646 1.25025E-02-1.78496E-04-2.43987E-14
 -1      2647 1.19850E-02-4.20394E-04-2.36884E-14
 -1      2648 8.15920E-03-1.43112E-04-1.50172E-14
 -1      2649 6.89451E-04 2.51327E-04-2.45843E-17
 -1      2650 1.42571E-02 4.11336E-05-3.92182E-14
 -1      2651 1.02375E-02-1.16636E-03-1.91749E-14
 -1      2652 9.39440E-03 5.05553E-04-1.65867E-14
 -1      2653 9.75206E-03 7.04144E-04-1.74064E-14
 -1      2654 9.19992E-03-6.09740E-04-1.65993E-14
 -1      2655 8.95533E-03 2.57252E-04-1.58359E-14
 -1      2656 9.05368E-03 3.23705E-04-1.58070E-14
 -1      2657 8.82370E-03 2.02452E-04-1.54636E-14
 -1      2658 8.24662E-03-3.46733E-05-1.49070E-14
 -1      2659 8.31844E-03-3.07136E-06-1.47735E-14
 -1      2660 8.15694E-03-4.78376E-05-1.45714E-14
 -1      2661 8.03574E-03-8.63927E-05-1.46879E-14
 -1      2662 1.10460E-02 5.04008E-04-2.15568E-14
 -1      2663 1.00730E-02 8.22206E-04-1.83815E-14
 -1      2664 8.43895E-03-2.32983E-04-1.54149E-14
 -1      2665 9.59988E-03-8.56863E-04-1.74054E-14
 -1      2666 1.23186E-02-2.90314E-04-2.41880E-14
 -1      2667 1.46169E-02-7.98653E-04-4.07247E-14
 -1      2668 1.46673E-02-7.51431E-04-4.09599E-14
 -1      2669 1.45455E-02-7.22855E-04-4.01709E-14
 -1      2670 1.44872E-02-7.87772E-04-3.99265E-14
 -1      2671 1.44185E-02-7.46316E-04-3.94479E-14
 -1      2672 7.80412E-04 7.73764E-05-9.57893E-17
 -1      2673 7.79169E-04 5.55034E-05-1.00072E-16
 -1      2674 7.78335E-04 3.35794E-05-1.03812E-16
 -1      2675 7.77919E-04 1.19032E-05-1.07580E-16
 -1      2676 8.96782E-04 4.97008E-05-1.31107E-16
 -1      2677 7.91625E-04 1.73209E-04-7.28042E-17
 -1      2678 7.87660E-04 1.47788E-04-7.95127E-17
 -1      2679 8.03393E-04 2.28413E-04-5.68935E-17
 -1      2680 7.96820E-04 2.00020E-04-6.55129E-17
 -1      2681 9.14916E-04 2.07891E-04-9.12492E-17
 -1      2682 1.12965E-03 3.61967E-04-8.16811E-17
 -1      2683 9.86068E-04 3.32938E-04-5.75305E-17
 -1      2684 1.41607E-02 6.48019E-06-3.84752E-14
 -1      2685 1.41130E-02 5.77045E-05-3.83513E-14
 -1      2686 1.39682E-02 7.34312E-05-3.74884E-14
 -1      2687 1.12999E-02-8.02994E-04-2.26029E-14
 -1      2688 1.11774E-02-8.77712E-04-2.22777E-14
 -1      2689 1.16997E-02-5.74212E-04-2.35089E-14
 -1      2690 1.14949E-02-6.87682E-04-2.30533E-14
 -1      2691 1.14477E-02-7.42509E-04-2.31786E-14
 -1      2692 1.32003E-03-3.62695E-04-2.88777E-16
 -1      2693 1.46324E-03-3.81608E-04-3.50414E-16
 -1      2694 1.60627E-03-3.97596E-04-4.18488E-16
 -1      2695 1.74920E-03-4.10884E-04-4.93271E-16
 -1      2696 1.52495E-03-3.55246E-04-3.85786E-16
 -1      2697 1.89197E-03-4.21940E-04-5.74695E-16
 -1      2698 2.03462E-03-4.30949E-04-6.62664E-16
 -1      2699 1.81163E-03-3.80910E-04-5.34688E-16
 -1      2700 2.17717E-03-4.38283E-04-7.58047E-16
 -1      2701 2.31964E-03-4.44089E-04-8.60233E-16
 -1      2702 2.09810E-03-3.98407E-04-7.10898E-16
 -1      2703 2.46207E-03-4.48650E-04-9.69941E-16
 -1      2704 2.60445E-03-4.52081E-04-1.08724E-15
 -1      2705 2.38430E-03-4.09721E-04-9.14890E-16
 -1      2706 2.74682E-03-4.54592E-04-1.21267E-15
 -1      2707 2.88919E-03-4.56272E-04-1.34556E-15
 -1      2708 2.67028E-03-4.16424E-04-1.14840E-15
 -1      2709 3.03158E-03-4.57271E-04-1.48641E-15
 -1      2710 3.17398E-03-4.57655E-04-1.63561E-15
 -1      2711 2.95611E-03-4.19715E-04-1.41295E-15
 -1      2712 3.31643E-03-4.57529E-04-1.79377E-15
 -1      2713 3.45891E-03-4.56938E-04-1.96070E-15
 -1      2714 3.24185E-03-4.20478E-04-1.71046E-15
 -1      2715 3.60145E-03-4.55952E-04-2.13563E-15
 -1      2716 3.74404E-03-4.54601E-04-2.31995E-15
 -1      2717 3.52757E-03-4.19337E-04-2.04265E-15
 -1      2718 3.88669E-03-4.52926E-04-2.51311E-15
 -1      2719 4.02940E-03-4.50946E-04-2.71423E-15
 -1      2720 3.81330E-03-4.16711E-04-2.40885E-15
 -1      2721 4.17219E-03-4.48681E-04-2.92516E-15
 -1      2722 4.31505E-03-4.46142E-04-3.14556E-15
 -1      2723 4.09907E-03-4.12858E-04-2.81101E-15
 -1      2724 4.45799E-03-4.43337E-04-3.37381E-15
 -1      2725 4.60102E-03-4.40269E-04-3.61110E-15
 -1      2726 4.38490E-03-4.07918E-04-3.24861E-15
 -1      2727 4.74414E-03-4.36939E-04-3.85874E-15
 -1      2728 4.88737E-03-4.33350E-04-4.11533E-15
 -1      2729 4.67081E-03-4.01949E-04-3.72358E-15
 -1      2730 5.03069E-03-4.29501E-04-4.38117E-15
 -1      2731 5.17415E-03-4.25398E-04-4.65674E-15
 -1      2732 4.95681E-03-3.94968E-04-4.23576E-15
 -1      2733 5.31771E-03-4.21048E-04-4.94265E-15
 -1      2734 5.46144E-03-4.16464E-04-5.23930E-15
 -1      2735 5.24292E-03-3.86992E-04-4.78702E-15
 -1      2736 5.60529E-03-4.11671E-04-5.54569E-15
 -1      2737 5.74933E-03-4.06694E-04-5.86323E-15
 -1      2738 5.52911E-03-3.78085E-04-5.37997E-15
 -1      2739 5.89352E-03-4.01590E-04-6.19058E-15
 -1      2740 6.03794E-03-3.96407E-04-6.52931E-15
 -1      2741 5.81541E-03-3.68414E-04-6.01528E-15
 -1      2742 6.18254E-03-3.91244E-04-6.88010E-15
 -1      2743 6.32743E-03-3.86186E-04-7.24060E-15
 -1      2744 6.10183E-03-3.58324E-04-6.69386E-15
 -1      2745 6.47255E-03-3.81397E-04-7.61125E-15
 -1      2746 6.61806E-03-3.77011E-04-7.99235E-15
 -1      2747 6.38841E-03-3.48427E-04-7.41447E-15
 -1      2748 6.76389E-03-3.73276E-04-8.38720E-15
 -1      2749 6.91025E-03-3.70408E-04-8.79250E-15
 -1      2750 6.67531E-03-3.39715E-04-8.17869E-15
 -1      2751 7.05713E-03-3.68749E-04-9.20776E-15
 -1      2752 7.20479E-03-3.68641E-04-9.63475E-15
 -1      2753 6.96292E-03-3.33690E-04-8.98856E-15
 -1      2754 7.35330E-03-3.70527E-04-1.00743E-14
 -1      2755 7.50302E-03-3.74943E-04-1.05240E-14
 -1      2756 7.25204E-03-3.32534E-04-9.84208E-15
 -1      2757 7.65421E-03-3.82405E-04-1.09854E-14
 -1      2758 7.80729E-03-3.93773E-04-1.14582E-14
 -1      2759 7.54431E-03-3.39308E-04-1.07424E-14
 -1      2760 7.96285E-03-4.09564E-04-1.19423E-14
 -1      2761 8.12130E-03-4.31132E-04-1.24380E-14
 -1      2762 7.84264E-03-3.58271E-04-1.16876E-14
 -1      2763 8.28369E-03-4.58896E-04-1.29458E-14
 -1      2764 8.45014E-03-4.94843E-04-1.34664E-14
 -1      2765 8.15190E-03-3.95406E-04-1.26773E-14
 -1      2766 8.62216E-03-5.39139E-04-1.39986E-14
 -1      2767 8.79892E-03-5.94085E-04-1.45400E-14
 -1      2768 8.47898E-03-4.59394E-04-1.37155E-14
 -1      2769 8.98228E-03-6.59305E-04-1.50933E-14
 -1      2770 9.16917E-03-7.36086E-04-1.56579E-14
 -1      2771 8.83128E-03-5.61754E-04-1.47971E-14
 -1      2772 9.36126E-03-8.22332E-04-1.62347E-14
 -1      2773 9.55262E-03-9.15121E-04-1.68232E-14
 -1      2774 9.21183E-03-7.13746E-04-1.59231E-14
 -1      2775 9.74872E-03-1.01947E-03-1.74308E-14
 -1      2776 9.93257E-03-1.10239E-03-1.80456E-14
 -1      2777 1.01080E-02-1.16611E-03-1.86736E-14
 -1      2778 1.02836E-02-1.20512E-03-1.93205E-14
 -1      2779 1.04546E-02-1.21467E-03-1.99862E-14
 -1      2780 1.06293E-02-1.19006E-03-2.06657E-14
 -1      2781 1.08083E-02-1.13047E-03-2.13568E-14
 -1      2782 1.09935E-02-1.06000E-03-2.20712E-14
 -1      2783 1.11517E-02-9.68006E-04-2.25979E-14
 -1      2784 1.13468E-02-8.85590E-04-2.33381E-14
 -1      2785 1.19369E-02-7.16363E-04-2.58296E-14
 -1      2786 1.21133E-02-6.76062E-04-2.66128E-14
 -1      2787 1.22850E-02-6.46347E-04-2.74011E-14
 -1      2788 1.24510E-02-6.24821E-04-2.81971E-14
 -1      2789 1.22456E-02-6.03540E-04-2.69830E-14
 -1      2790 1.26130E-02-6.11326E-04-2.90050E-14
 -1      2791 1.27710E-02-6.03856E-04-2.98200E-14
 -1      2792 1.25723E-02-5.68401E-04-2.85781E-14
 -1      2793 1.29261E-02-6.01954E-04-3.06450E-14
 -1      2794 1.30787E-02-6.04240E-04-3.14781E-14
 -1      2795 1.28813E-02-5.59427E-04-3.02102E-14
 -1      2796 1.32294E-02-6.10131E-04-3.23184E-14
 -1      2797 1.33785E-02-6.18729E-04-3.31684E-14
 -1      2798 1.31793E-02-5.67777E-04-3.18748E-14
 -1      2799 1.35264E-02-6.29436E-04-3.40252E-14
 -1      2800 1.36734E-02-6.41644E-04-3.48874E-14
 -1      2801 1.34713E-02-5.87104E-04-3.35725E-14
 -1      2802 1.38195E-02-6.54807E-04-3.57555E-14
 -1      2803 1.39651E-02-6.68490E-04-3.66268E-14
 -1      2804 1.37600E-02-6.12632E-04-3.52937E-14
 -1      2805 1.41100E-02-6.82222E-04-3.74993E-14
 -1      2806 1.42544E-02-6.95666E-04-3.83775E-14
 -1      2807 1.40470E-02-6.40585E-04-3.70330E-14
 -1      2808 2.26888E-03 4.77481E-04-4.76642E-16
 -1      2809 2.12707E-03 4.70886E-04-4.05329E-16
 -1      2810 1.43516E-02-7.05170E-04-3.89751E-14
 -1      2811 1.44487E-02-7.14261E-04-3.95713E-14
 -1      2812 1.42864E-02-6.64404E-04-3.85015E-14
 -1      2813 1.98516E-03 4.62627E-04-3.41144E-16
 -1      2814 1.84313E-03 4.52544E-04-2.83153E-16
 -1      2815 2.04747E-03 4.30616E-04-3.97943E-16
 -1      2816 2.83598E-03 4.91876E-04-8.37424E-16
 -1      2817 2.69419E-03 4.89759E-04-7.35604E-16
 -1      2818 3.11975E-03 4.93974E-04-1.06539E-15
 -1      2819 2.97784E-03 4.93257E-04-9.47457E-16
 -1      2820 2.90233E-03 4.55652E-04-9.26627E-16
 -1      2821 3.40382E-03 4.93812E-04-1.32732E-15
 -1      2822 3.26175E-03 4.94141E-04-1.19201E-15
 -1      2823 3.18720E-03 4.57063E-04-1.16624E-15
 -1      2824 3.68826E-03 4.91927E-04-1.62489E-15
 -1      2825 3.54600E-03 4.93062E-04-1.47140E-15
 -1      2826 3.47220E-03 4.56413E-04-1.44028E-15
 -1      2827 3.97312E-03 4.88668E-04-1.95945E-15
 -1      2828 3.83064E-03 4.90454E-04-1.78771E-15
 -1      2829 3.75737E-03 4.54175E-04-1.74950E-15
 -1      2830 4.25846E-03 4.84246E-04-2.33212E-15
 -1      2831 4.11573E-03 4.86593E-04-2.14057E-15
 -1      2832 4.04277E-03 4.50653E-04-2.09701E-15
 -1      2833 4.54432E-03 4.78776E-04-2.74493E-15
 -1      2834 4.40132E-03 4.81636E-04-2.53390E-15
 -1      2835 4.32844E-03 4.46023E-04-2.48213E-15
 -1      2836 4.83081E-03 4.72320E-04-3.19878E-15
 -1      2837 4.68748E-03 4.75667E-04-2.96623E-15
 -1      2838 4.61442E-03 4.40378E-04-2.90711E-15
 -1      2839 5.11801E-03 4.64934E-04-3.69766E-15
 -1      2840 4.97430E-03 4.68738E-04-3.44223E-15
 -1      2841 4.90077E-03 4.33767E-04-3.37392E-15
 -1      2842 5.40609E-03 4.56715E-04-4.24400E-15
 -1      2843 5.26192E-03 4.60919E-04-3.96502E-15
 -1      2844 5.18758E-03 4.26240E-04-3.88727E-15
 -1      2845 5.69523E-03 4.47863E-04-4.83947E-15
 -1      2846 5.55050E-03 4.52350E-04-4.53546E-15
 -1      2847 5.47495E-03 4.17900E-04-4.44776E-15
 -1      2848 5.98568E-03 4.38758E-04-5.48131E-15
 -1      2849 5.84026E-03 4.43311E-04-5.15470E-15
 -1      2850 5.76303E-03 4.08959E-04-5.05627E-15
 -1      2851 6.27778E-03 4.30044E-04-6.16854E-15
 -1      2852 6.13149E-03 4.34302E-04-5.81940E-15
 -1      2853 6.05203E-03 3.99814E-04-5.71120E-15
 -1      2854 6.57194E-03 4.22741E-04-6.89951E-15
 -1      2855 6.42455E-03 4.26140E-04-6.52793E-15
 -1      2856 6.34225E-03 3.91130E-04-6.41022E-15
 -1      2857 6.86875E-03 4.18363E-04-7.67538E-15
 -1      2858 6.71996E-03 4.20074E-04-7.28181E-15
 -1      2859 6.63414E-03 3.83948E-04-7.15316E-15
 -1      2860 7.16898E-03 4.19032E-04-8.49684E-15
 -1      2861 7.01838E-03 4.17909E-04-8.08057E-15
 -1      2862 6.92838E-03 3.79797E-04-7.94063E-15
 -1      2863 7.47364E-03 4.27568E-04-9.37087E-15
 -1      2864 7.32070E-03 4.22105E-04-8.92694E-15
 -1      2865 7.22593E-03 3.80815E-04-8.77616E-15
 -1      2866 7.78401E-03 4.47482E-04-1.02900E-14
 -1      2867 7.62808E-03 4.35838E-04-9.82436E-15
 -1      2868 7.52819E-03 3.89850E-04-9.66072E-15
 -1      2869 8.10144E-03 4.82746E-04-1.12577E-14
 -1      2870 7.94186E-03 4.62898E-04-1.07686E-14
 -1      2871 7.83702E-03 4.10507E-04-1.05934E-14
 -1      2872 8.42686E-03 5.37123E-04-1.22714E-14
 -1      2873 8.26328E-03 5.07287E-04-1.17589E-14
 -1      2874 8.15452E-03 4.47021E-04-1.15726E-14
 -1      2875 8.75983E-03 6.12621E-04-1.33300E-14
 -1      2876 8.59273E-03 5.72184E-04-1.27940E-14
 -1      2877 8.48237E-03 5.03704E-04-1.25954E-14
 -1      2878 9.09729E-03 7.06734E-04-1.44397E-14
 -1      2879 8.92855E-03 6.57819E-04-1.38792E-14
 -1      2880 8.82039E-03 5.83298E-04-1.36661E-14
 -1      2881 9.43304E-03 8.08461E-04-1.56013E-14
 -1      2882 9.26599E-03 7.57903E-04-1.50146E-14
 -1      2883 9.16474E-03 6.83463E-04-1.47875E-14
 -1      2884 9.76013E-03 8.96052E-04-1.68204E-14
 -1      2885 9.59791E-03 8.55980E-04-1.62016E-14
 -1      2886 9.50728E-03 7.91251E-04-1.59618E-14
 -1      2887 1.00761E-02 9.41776E-04-1.80977E-14
 -1      2888 9.91890E-03 9.26044E-04-1.74509E-14
 -1      2889 9.83913E-03 8.80090E-04-1.71934E-14
 -1      2890 1.03872E-02 9.25256E-04-1.94351E-14
 -1      2891 1.02311E-02 9.41760E-04-1.87606E-14
 -1      2892 1.01588E-02 9.16691E-04-1.84874E-14
 -1      2893 1.07036E-02 8.47901E-04-2.08223E-14
 -1      2894 1.05437E-02 8.93036E-04-2.01214E-14
 -1      2895 1.04757E-02 8.81495E-04-1.98349E-14
 -1      2896 1.10313E-02 7.31077E-04-2.22646E-14
 -1      2897 1.08660E-02 7.92294E-04-2.15384E-14
 -1      2898 1.08021E-02 7.83080E-04-2.12375E-14
 -1      2899 1.13670E-02 6.02979E-04-2.37553E-14
 -1      2900 1.11987E-02 6.66771E-04-2.30036E-14
 -1      2901 1.11411E-02 6.52575E-04-2.26907E-14
 -1      2902 1.17036E-02 4.84161E-04-2.52941E-14
 -1      2903 1.15359E-02 5.41547E-04-2.45175E-14
 -1      2904 1.14856E-02 5.20861E-04-2.41934E-14
 -1      2905 1.20350E-02 3.84457E-04-2.68825E-14
 -1      2906 1.18704E-02 4.31741E-04-2.60831E-14
 -1      2907 1.18265E-02 4.06178E-04-2.57446E-14
 -1      2908 1.23585E-02 3.05488E-04-2.85117E-14
 -1      2909 1.21980E-02 3.42542E-04-2.76939E-14
 -1      2910 1.21580E-02 3.14162E-04-2.73448E-14
 -1      2911 1.26738E-02 2.44660E-04-3.01714E-14
 -1      2912 1.25173E-02 2.73095E-04-2.93381E-14
 -1      2913 1.24788E-02 2.43305E-04-2.89817E-14
 -1      2914 1.29819E-02 1.97742E-04-3.18522E-14
 -1      2915 1.28287E-02 2.19764E-04-3.10083E-14
 -1      2916 1.27900E-02 1.89372E-04-3.06447E-14
 -1      2917 1.32840E-02 1.60266E-04-3.35519E-14
 -1      2918 1.31336E-02 1.78096E-04-3.27006E-14
 -1      2919 1.30936E-02 1.47596E-04-3.23292E-14
 -1      2920 1.35814E-02 1.28109E-04-3.52636E-14
 -1      2921 1.34332E-02 1.43754E-04-3.44054E-14
 -1      2922 1.33915E-02 1.13561E-04-3.40297E-14
 -1      2923 1.38488E-02 9.31457E-05-3.68021E-14
 -1      2924 1.37024E-02 1.08212E-04-3.59426E-14
 -1      2925 1.36596E-02 7.87215E-05-3.55631E-14
 -1      2926 1.38987E-02 4.05879E-05-3.69262E-14
 -1      2927 1.18432E-02 6.89871E-05-2.37414E-14
 -1      2928 1.20389E-02-1.98487E-05-2.41017E-14
 -1      2929 1.44338E-02-3.28227E-04-3.91063E-14
 -1      2930 1.44161E-02-2.96084E-04-3.90574E-14
 -1      2931 1.02825E-02-1.18225E-03-1.93255E-14
 -1      2932 1.01380E-02-1.14881E-03-1.88198E-14
 -1      2933 1.43461E-02-1.96509E-04-3.89022E-14
 -1      2934 1.43182E-02-1.61782E-04-3.88471E-14
 -1      2935 1.44594E-02-3.91780E-04-3.91933E-14
 -1      2936 1.44482E-02-3.60010E-04-3.91526E-14
 -1      2937 1.43243E-02-3.33141E-04-3.83733E-14
 -1      2938 1.43954E-02-2.63561E-04-3.90078E-14
 -1      2939 1.43720E-02-2.30368E-04-3.89553E-14
 -1      2940 1.42402E-02-2.02323E-04-3.81777E-14
 -1      2941 1.42883E-02-2.68908E-04-3.82792E-14
 -1      2942 8.86138E-03-4.26135E-04-1.58237E-14
 -1      2943 8.68660E-03-3.39809E-04-1.55634E-14
 -1      2944 1.44722E-02-4.54642E-04-3.92757E-14
 -1      2945 1.44673E-02-4.23030E-04-3.92355E-14
 -1      2946 1.43465E-02-3.95933E-04-3.84583E-14
 -1      2947 1.44737E-02-5.20478E-04-3.93544E-14
 -1      2948 1.44742E-02-4.87201E-04-3.93159E-14
 -1      2949 1.43556E-02-4.59480E-04-3.85378E-14
 -1      2950 1.44667E-02-5.89498E-04-3.94359E-14
 -1      2951 1.44711E-02-5.54498E-04-3.93934E-14
 -1      2952 1.43533E-02-5.25937E-04-3.86145E-14
 -1      2953 1.09874E-02-9.89169E-04-2.17559E-14
 -1      2954 1.08137E-02-1.08217E-03-2.12021E-14
 -1      2955 8.02989E-04 2.78319E-04-3.77980E-17
 -1      2956 1.24751E-02-1.71508E-04-2.47819E-14
 -1      2957 1.25611E-02-1.90236E-04-2.49606E-14
 -1      2958 8.27958E-04-2.65364E-04-1.25334E-16
 -1      2959 9.59560E-04-3.00599E-04-1.61085E-16
 -1      2960 8.17406E-04-2.38732E-04-1.26350E-16
 -1      2961 1.06058E-02 7.51489E-04-2.02615E-14
 -1      2962 1.07433E-02 6.82174E-04-2.07272E-14
 -1      2963 8.49354E-03 6.32341E-05-1.49426E-14
 -1      2964 8.62623E-03 1.15974E-04-1.51283E-14
 -1      2965 1.26137E-02-2.06000E-04-2.50273E-14
 -1      2966 1.26202E-02-2.12026E-04-2.50304E-14
 -1      2967 1.25866E-02-2.24863E-04-2.49772E-14
 -1      2968 1.25164E-02-2.40633E-04-2.48748E-14
 -1      2969 9.64344E-03 6.63789E-04-1.69829E-14
 -1      2970 9.79155E-03 7.41248E-04-1.73943E-14
 -1      2971 1.70094E-03 4.40225E-04-2.30922E-16
 -1      2972 1.55850E-03 4.25466E-04-1.85385E-16
 -1      2973 1.76198E-03 4.10848E-04-2.78206E-16
 -1      2974 2.55241E-03 4.86741E-04-6.41672E-16
 -1      2975 2.41066E-03 4.82724E-04-5.55545E-16
 -1      2976 2.33259E-03 4.43579E-04-5.44053E-16
 -1      2977 2.61749E-03 4.51483E-04-7.19707E-16
 -1      2978 1.06806E-03-3.21663E-04-1.95441E-16
 -1      2979 1.21135E-03-3.46847E-04-2.45992E-16
 -1      2980 1.27285E-03-3.24801E-04-2.75957E-16
 -1      2981 1.05579E-03-2.91455E-04-1.96552E-16
 -1      2982 8.19470E-03-1.54487E-04-1.47998E-14
 -1      2983 8.08879E-03-1.27535E-04-1.46534E-14
 -1      2984 1.41585E-03 4.07738E-04-1.45446E-16
 -1      2985 1.27282E-03 3.86778E-04-1.10914E-16
 -1      2986 1.18956E-03 3.41493E-04-1.10128E-16
 -1      2987 1.47598E-03 3.82053E-04-1.82702E-16
 -1      2988 7.84549E-04 1.23524E-04-8.54893E-17
 -1      2989 7.82192E-04 1.00077E-04-9.08832E-17
 -1      2990 8.99852E-04 9.94882E-05-1.20374E-16
 -1      2991 9.05520E-04 1.51644E-04-1.07200E-16
 -1      2992 7.98433E-03-8.59820E-05-1.43128E-14
 -1      2993 8.03154E-03-7.48036E-05-1.43290E-14
 -1      2994 1.22339E-02-9.72890E-05-2.43898E-14
 -1      2995 1.23665E-02-1.40221E-04-2.45844E-14
 -1      2996 1.24571E-02-1.58281E-04-2.51431E-14
 -1      2997 9.30060E-03-6.76134E-04-1.66351E-14
 -1      2998 9.09305E-03-5.52373E-04-1.62281E-14
 -1      2999 7.81925E-04-9.80225E-05-1.21268E-16
 -1      3000 7.84203E-04-1.21389E-04-1.23030E-16
 -1      3001 1.09197E-02 5.85362E-04-2.13063E-14
 -1      3002 1.11354E-02 4.59522E-04-2.19884E-14
 -1      3003 8.01459E-03-1.08068E-04-1.45203E-14
 -1      3004 7.98163E-03-9.94731E-05-1.44216E-14
 -1      3005 1.14157E-02 2.98506E-04-2.27889E-14
 -1      3006 1.16114E-02 1.86737E-04-2.32370E-14
 -1      3007 8.51323E-03-2.64222E-04-1.52997E-14
 -1      3008 8.35570E-03-2.06671E-04-1.50525E-14
 -1      3009 9.66347E-03-9.07433E-04-1.74202E-14
 -1      3010 9.49839E-03-8.01134E-04-1.70257E-14
 -1      3011 1.24024E-02-2.73299E-04-2.46891E-14
 -1      3012 1.22736E-02-3.14414E-04-2.45011E-14
 -1      3013 9.28956E-03 4.62290E-04-1.61750E-14
 -1      3014 9.47287E-03 5.68814E-04-1.65754E-14
 -1      3015 9.52571E-03 6.22992E-04-1.65601E-14
 -1      3016 9.99105E-03-1.09051E-03-1.83501E-14
 -1      3017 9.84536E-03-1.01250E-03-1.79181E-14
 -1      3018 1.06146E-02-1.15562E-03-2.05148E-14
 -1      3019 1.04705E-02-1.18716E-03-1.99902E-14
 -1      3020 1.20988E-02-3.83026E-04-2.42297E-14
 -1      3021 1.19171E-02-4.63754E-04-2.39160E-14
 -1      3022 1.44790E-02-6.83102E-04-3.96945E-14
 -1      3023 9.99704E-03 8.13997E-04-1.80579E-14
 -1      3024 1.01533E-02 8.43017E-04-1.86208E-14
 -1      3025 1.03194E-02 8.37593E-04-1.92285E-14
 -1      3026 1.04551E-02 8.06917E-04-1.97321E-14
 -1      3027 7.87209E-04-1.45552E-04-1.24060E-16
 -1      3028 7.91043E-04-1.70732E-04-1.24751E-16
 -1      3029 9.05048E-04-1.49129E-04-1.57426E-16
 -1      3030 1.02323E-02 8.49390E-04-1.88948E-14
 -1      3031 8.95771E-04 1.01128E-06-1.39849E-16
 -1      3032 7.77889E-04-9.72605E-06-1.10711E-16
 -1      3033 7.78247E-04-3.13858E-05-1.13828E-16
 -1      3034 1.21735E-02-5.99155E-05-2.46529E-14
 -1      3035 1.00025E-02-1.11173E-03-1.83322E-14
 -1      3036 1.22126E-02-3.55148E-04-2.47280E-14
 -1      3037 9.15198E-03 3.98454E-04-1.57930E-14
 -1      3038 9.22584E-03 4.69844E-04-1.57770E-14
 -1      3039 9.01523E-03 3.42501E-04-1.54185E-14
 -1      3040 9.73204E-03-9.62031E-04-1.75303E-14
 -1      3041 8.57682E-03-3.02823E-04-1.51967E-14
 -1      3042 1.12789E-02 3.88110E-04-2.25310E-14
 -1      3043 1.14207E-02 3.27077E-04-2.30792E-14
 -1      3044 1.11599E-02 4.74365E-04-2.22711E-14
 -1      3045 7.98561E-03-5.89823E-05-1.38253E-14
 -1      3046 8.06550E-03-5.71302E-05-1.41962E-14
 -1      3047 8.10651E-03-3.45484E-05-1.40630E-14
 -1      3048 8.02479E-03-1.16284E-04-1.43062E-14
 -1      3049 8.25039E-03-1.79794E-04-1.46859E-14
 -1      3050 9.61724E-03-9.22395E-04-1.71030E-14
 -1      3051 1.03647E-02-1.19862E-03-1.96220E-14
 -1      3052 1.07268E-02-1.13710E-03-2.09772E-14
 -1      3053 1.10875E-02-9.59592E-04-2.21964E-14
 -1      3054 1.14869E-02-7.77515E-04-2.36367E-14
 -1      3055 1.15603E-02-8.26261E-04-2.42473E-14
 -1      3056 1.17475E-02-7.63496E-04-2.50100E-14
 -1      3057 1.16554E-02-6.79826E-04-2.40974E-14
 -1      3058 1.17714E-02 1.24078E-04-2.38481E-14
 -1      3059 1.26310E-02-2.23281E-04-2.54284E-14
 -1      3060 1.41831E-02-1.32697E-04-3.80697E-14
 -1      3061 1.42889E-02-1.26511E-04-3.87930E-14
 -1      3062 1.42584E-02-9.03247E-05-3.87361E-14
 -1      3063 1.41923E-02-3.20924E-05-3.85327E-14
 -1      3064 1.26156E-02-2.00597E-04-2.54137E-14
 -1      3065 8.36751E-03 3.19714E-05-1.46027E-14
 -1      3066 1.44850E-02-6.45502E-04-3.96586E-14
 -1      3067 1.08458E-02 6.38235E-04-2.11482E-14
 -1      3068 8.96491E-03-4.94240E-04-1.58574E-14
 -1      3069 8.64796E-04 2.66633E-04-5.64734E-17
 -1      3070 1.05336E-02 7.86165E-04-2.00367E-14
 -1      3071 8.72471E-03 1.77620E-04-1.50993E-14
 -1      3072 1.24893E-02-2.61735E-04-2.51875E-14
 -1      3073 1.18885E-02-6.72574E-04-2.53725E-14
 -1      3074 9.88237E-03 7.89483E-04-1.76226E-14
 -1      3075 7.79014E-04-5.31829E-05-1.16660E-16
 -1      3076 7.80213E-04-7.53840E-05-1.19045E-16
 -1      3077 8.99571E-04-9.71362E-05-1.53333E-16
 -1      3078 8.96653E-04-4.75461E-05-1.47194E-16
 -1      3079 9.37634E-03-7.40505E-04-1.66472E-14
 -1      3080 7.94945E-03-8.82866E-05-1.40665E-14
 -1      3081 1.18385E-02-5.25234E-04-2.40433E-14
 -1      3082 9.82918E-04 2.75849E-04-8.24536E-17
 -1      3083 1.43266E-02-6.39904E-04-3.86892E-14
 -1      3084 1.44286E-02-6.12565E-04-3.92491E-14
 -1      3085 1.43105E-02-5.83041E-04-3.84672E-14
 -1      3086 1.42310E-02-6.30008E-04-3.80942E-14
 -1      3087 1.04755E-02 8.17235E-04-1.98376E-14
 -1      3088 1.06125E-02 7.66460E-04-2.03705E-14
 -1      3089 1.04033E-03 2.43312E-04-1.11402E-16
 -1      3090 1.03378E-03 2.11587E-04-1.21634E-16
 -1      3091 7.99262E-04-1.91662E-04-1.25849E-16
 -1      3092 8.07220E-04-2.15538E-04-1.26011E-16
 -1      3093 9.36487E-04-2.46307E-04-1.62034E-16
 -1      3094 9.17365E-04-1.98816E-04-1.60055E-16
 -1      3095 1.17238E-02 1.82546E-04-2.40788E-14
 -1      3096 1.19267E-02 8.06183E-05-2.45962E-14
 -1      3097 1.82454E-03 3.80747E-04-3.26941E-16
 -1      3098 1.68118E-03 3.69290E-04-2.71403E-16
 -1      3099 1.73174E-03-3.40154E-04-4.95806E-16
 -1      3100 1.87543E-03-3.50221E-04-5.76646E-16
 -1      3101 2.01910E-03-3.58540E-04-6.64236E-16
 -1      3102 2.16275E-03-3.65263E-04-7.58887E-16
 -1      3103 1.94035E-03-3.18852E-04-6.18822E-16
 -1      3104 2.30637E-03-3.70660E-04-8.60585E-16
 -1      3105 2.44993E-03-3.74853E-04-9.69114E-16
 -1      3106 2.22842E-03-3.31584E-04-8.06877E-16
 -1      3107 2.59343E-03-3.78055E-04-1.08523E-15
 -1      3108 2.73688E-03-3.80362E-04-1.20940E-15
 -1      3109 2.51642E-03-3.39563E-04-1.02343E-15
 -1      3110 2.88028E-03-3.81934E-04-1.34078E-15
 -1      3111 3.02361E-03-3.82842E-04-1.48003E-15
 -1      3112 2.80419E-03-3.43975E-04-1.26979E-15
 -1      3113 3.16690E-03-3.83205E-04-1.62821E-15
 -1      3114 3.31014E-03-3.83069E-04-1.78530E-15
 -1      3115 3.09166E-03-3.45732E-04-1.54773E-15
 -1      3116 3.45334E-03-3.82520E-04-1.95057E-15
 -1      3117 3.59648E-03-3.81587E-04-2.12371E-15
 -1      3118 3.37882E-03-3.45505E-04-1.85954E-15
 -1      3119 3.73959E-03-3.80326E-04-2.30615E-15
 -1      3120 3.88266E-03-3.78754E-04-2.49758E-15
 -1      3121 3.66564E-03-3.43760E-04-2.20491E-15
 -1      3122 4.02569E-03-3.76906E-04-2.69792E-15
 -1      3123 4.16868E-03-3.74788E-04-2.90732E-15
 -1      3124 3.95213E-03-3.40799E-04-2.58603E-15
 -1      3125 4.31163E-03-3.72419E-04-3.12567E-15
 -1      3126 4.45455E-03-3.69800E-04-3.35291E-15
 -1      3127 4.23825E-03-3.36801E-04-3.00270E-15
 -1      3128 4.59741E-03-3.66940E-04-3.58874E-15
 -1      3129 4.74023E-03-3.63835E-04-3.83480E-15
 -1      3130 4.52399E-03-3.31856E-04-3.45631E-15
 -1      3131 4.88299E-03-3.60492E-04-4.09193E-15
 -1      3132 5.02570E-03-3.56906E-04-4.35714E-15
 -1      3133 4.80928E-03-3.25996E-04-3.94751E-15
 -1      3134 5.16833E-03-3.53089E-04-4.63185E-15
 -1      3135 5.31090E-03-3.49038E-04-4.91840E-15
 -1      3136 5.09403E-03-3.19236E-04-4.47846E-15
 -1      3137 5.45336E-03-3.44776E-04-5.21474E-15
 -1      3138 5.59575E-03-3.40307E-04-5.52198E-15
 -1      3139 5.37812E-03-3.11608E-04-5.04982E-15
 -1      3140 5.73801E-03-3.35678E-04-5.84027E-15
 -1      3141 5.88017E-03-3.30903E-04-6.16849E-15
 -1      3142 5.66139E-03-3.03207E-04-5.66406E-15
 -1      3143 6.02216E-03-3.26064E-04-6.50718E-15
 -1      3144 6.16405E-03-3.21192E-04-6.85792E-15
 -1      3145 5.94366E-03-2.94240E-04-6.32248E-15
 -1      3146 6.30575E-03-3.16416E-04-7.21916E-15
 -1      3147 6.44734E-03-3.11797E-04-7.58943E-15
 -1      3148 6.22470E-03-2.85085E-04-7.02259E-15
 -1      3149 6.58874E-03-3.07520E-04-7.97131E-15
 -1      3150 6.73009E-03-3.03691E-04-8.36577E-15
 -1      3151 6.50435E-03-2.76357E-04-7.76590E-15
 -1      3152 6.87130E-03-3.00558E-04-8.77006E-15
 -1      3153 7.01260E-03-2.98303E-04-9.18439E-15
 -1      3154 6.78254E-03-2.68976E-04-8.55177E-15
 -1      3155 7.15395E-03-2.97231E-04-9.61109E-15
 -1      3156 7.29570E-03-2.97652E-04-1.00496E-14
 -1      3157 7.05945E-03-2.64239E-04-9.38193E-15
 -1      3158 7.43792E-03-2.99906E-04-1.04995E-14
 -1      3159 7.58117E-03-3.04530E-04-1.09608E-14
 -1      3160 7.33587E-03-2.63914E-04-1.02576E-14
 -1      3161 7.72572E-03-3.11844E-04-1.14333E-14
 -1      3162 7.87242E-03-3.22862E-04-1.19164E-14
 -1      3163 7.61363E-03-2.70379E-04-1.11798E-14
 -1      3164 8.02190E-03-3.37786E-04-1.24102E-14
 -1      3165 8.17535E-03-3.58526E-04-1.29160E-14
 -1      3166 7.89647E-03-2.87102E-04-1.21449E-14
 -1      3167 8.33394E-03-3.85316E-04-1.34343E-14
 -1      3168 8.49879E-03-4.21327E-04-1.39640E-14
 -1      3169 8.19124E-03-3.19847E-04-1.31556E-14
 -1      3170 8.67219E-03-4.66171E-04-1.45029E-14
 -1      3171 8.85356E-03-5.25541E-04-1.50525E-14
 -1      3172 8.50946E-03-3.79863E-04-1.42108E-14
 -1      3173 1.18326E-02-5.75964E-04-2.44810E-14
 -1      3174 1.18549E-02-6.27507E-04-2.49414E-14
 -1      3175 1.20403E-02-5.87066E-04-2.57664E-14
 -1      3176 1.20185E-02-4.82535E-04-2.48966E-14
 -1      3177 1.25386E-02-5.24236E-04-2.81530E-14
 -1      3178 1.26921E-02-5.17711E-04-2.89597E-14
 -1      3179 1.28417E-02-5.16824E-04-2.97748E-14
 -1      3180 1.29886E-02-5.19695E-04-3.05998E-14
 -1      3181 1.28075E-02-4.73742E-04-2.93422E-14
 -1      3182 1.31333E-02-5.26030E-04-3.14312E-14
 -1      3183 1.32768E-02-5.34823E-04-3.22704E-14
 -1      3184 1.30913E-02-4.84733E-04-3.09885E-14
 -1      3185 1.34193E-02-5.45676E-04-3.31194E-14
 -1      3186 1.35612E-02-5.58003E-04-3.39741E-14
 -1      3187 1.33702E-02-5.05125E-04-3.26682E-14
 -1      3188 1.37028E-02-5.71378E-04-3.48363E-14
 -1      3189 1.38443E-02-5.85422E-04-3.56992E-14
 -1      3190 1.36479E-02-5.31085E-04-3.43769E-14
 -1      3191 1.39667E-02-6.00727E-04-3.64571E-14
 -1      3192 1.41082E-02-6.15002E-04-3.73268E-14
 -1      3193 1.41495E-02-5.91245E-04-3.75145E-14
 -1      3194 1.39073E-02-5.60572E-04-3.59928E-14
 -1      3195 2.11106E-03 3.97977E-04-4.56286E-16
 -1      3196 1.96782E-03 3.90253E-04-3.88578E-16
 -1      3197 1.88835E-03 3.49976E-04-3.77519E-16
 -1      3198 8.62506E-03-3.42373E-04-1.50528E-14
 -1      3199 8.46969E-03-2.74992E-04-1.47948E-14
 -1      3200 3.25507E-03 4.19877E-04-1.26875E-15
 -1      3201 3.11218E-03 4.19746E-04-1.13895E-15
 -1      3202 2.96926E-03 4.19070E-04-1.01752E-15
 -1      3203 2.82634E-03 4.17792E-04-9.04631E-16
 -1      3204 3.03676E-03 3.82212E-04-1.11071E-15
 -1      3205 3.82659E-03 4.16304E-04-1.87688E-15
 -1      3206 3.68371E-03 4.17726E-04-1.71135E-15
 -1      3207 4.11238E-03 4.12595E-04-2.23504E-15
 -1      3208 3.96948E-03 4.14589E-04-2.05143E-15
 -1      3209 3.89591E-03 3.78382E-04-2.00511E-15
 -1      3210 4.39822E-03 4.07835E-04-2.63288E-15
 -1      3211 4.25529E-03 4.10341E-04-2.42895E-15
 -1      3212 4.18194E-03 3.74559E-04-2.37579E-15
 -1      3213 4.68415E-03 4.02096E-04-3.07106E-15
 -1      3214 4.54117E-03 4.05086E-04-2.84691E-15
 -1      3215 4.46781E-03 3.69745E-04-2.78559E-15
 -1      3216 4.97020E-03 3.95416E-04-3.55130E-15
 -1      3217 4.82715E-03 3.98872E-04-3.30510E-15
 -1      3218 4.75353E-03 3.63993E-04-3.23610E-15
 -1      3219 5.25640E-03 3.87842E-04-4.07905E-15
 -1      3220 5.11327E-03 3.91738E-04-3.80960E-15
 -1      3221 5.03908E-03 3.57333E-04-3.73100E-15
 -1      3222 5.54283E-03 3.79479E-04-4.65312E-15
 -1      3223 5.39957E-03 3.83751E-04-4.35964E-15
 -1      3224 5.32447E-03 3.49805E-04-4.27174E-15
 -1      3225 5.82958E-03 3.70544E-04-5.27539E-15
 -1      3226 5.68614E-03 3.75066E-04-4.95901E-15
 -1      3227 5.60972E-03 3.41514E-04-4.86084E-15
 -1      3228 6.11683E-03 3.61441E-04-5.94234E-15
 -1      3229 5.97311E-03 3.65984E-04-5.60295E-15
 -1      3230 5.89489E-03 3.32676E-04-5.49476E-15
 -1      3231 6.40487E-03 3.52837E-04-6.65287E-15
 -1      3232 6.26071E-03 3.57027E-04-6.29214E-15
 -1      3233 6.18011E-03 3.23686E-04-6.17402E-15
 -1      3234 6.69417E-03 3.45764E-04-7.40803E-15
 -1      3235 6.54930E-03 3.49031E-04-7.02449E-15
 -1      3236 6.46566E-03 3.15189E-04-6.89700E-15
 -1      3237 6.98550E-03 3.41724E-04-8.20723E-15
 -1      3238 6.83950E-03 3.43246E-04-7.80201E-15
 -1      3239 6.75204E-03 3.08173E-04-7.66292E-15
 -1      3240 7.28009E-03 3.42820E-04-9.05595E-15
 -1      3241 7.13229E-03 3.41457E-04-8.62553E-15
 -1      3242 7.04017E-03 3.04071E-04-8.47557E-15
 -1      3243 7.57975E-03 3.51890E-04-9.95192E-15
 -1      3244 7.42916E-03 3.46113E-04-9.49806E-15
 -1      3245 7.33150E-03 3.04899E-04-9.33579E-15
 -1      3246 7.88695E-03 3.72631E-04-1.08964E-14
 -1      3247 7.73227E-03 3.60462E-04-1.04182E-14
 -1      3248 7.62829E-03 3.13448E-04-1.02446E-14
 -1      3249 8.20469E-03 4.09656E-04-1.18869E-14
 -1      3250 8.04442E-03 3.88677E-04-1.13851E-14
 -1      3251 7.93375E-03 3.33547E-04-1.12001E-14
 -1      3252 8.53556E-03 4.68120E-04-1.29199E-14
 -1      3253 8.36857E-03 4.35747E-04-1.23982E-14
 -1      3254 8.25188E-03 3.70357E-04-1.22005E-14
 -1      3255 8.87976E-03 5.52011E-04-1.40029E-14
 -1      3256 8.70641E-03 5.06703E-04-1.34556E-14
 -1      3257 8.58630E-03 4.30525E-04-1.32475E-14
 -1      3258 9.23275E-03 6.59769E-04-1.51352E-14
 -1      3259 9.05615E-03 6.03572E-04-1.45619E-14
 -1      3260 8.93779E-03 5.19883E-04-1.43398E-14
 -1      3261 9.58390E-03 7.75955E-04-1.63237E-14
 -1      3262 9.40972E-03 7.18754E-04-1.57230E-14
 -1      3263 9.30064E-03 6.37775E-04-1.54839E-14
 -1      3264 1.02446E-02 8.92455E-04-1.88766E-14
 -1      3265 1.00831E-02 8.90697E-04-1.82156E-14
 -1      3266 1.05960E-02 8.18343E-04-2.03492E-14
 -1      3267 1.04302E-02 8.61417E-04-1.96620E-14
 -1      3268 1.12584E-02 5.67387E-04-2.31187E-14
 -1      3269 1.10820E-02 6.38769E-04-2.23793E-14
 -1      3270 1.16109E-02 4.35253E-04-2.46327E-14
 -1      3271 1.14358E-02 4.98503E-04-2.38684E-14
 -1      3272 1.13868E-02 4.76097E-04-2.35454E-14
 -1      3273 1.19540E-02 3.27725E-04-2.61972E-14
 -1      3274 1.17843E-02 3.78283E-04-2.54092E-14
 -1      3275 1.17441E-02 3.48484E-04-2.50737E-14
 -1      3276 1.22834E-02 2.45242E-04-2.78067E-14
 -1      3277 1.21206E-02 2.83735E-04-2.69976E-14
 -1      3278 1.20858E-02 2.51104E-04-2.66499E-14
 -1      3279 1.25997E-02 1.83242E-04-2.94499E-14
 -1      3280 1.24431E-02 2.12138E-04-2.86239E-14
 -1      3281 1.24103E-02 1.79302E-04-2.82678E-14
 -1      3282 1.29058E-02 1.36259E-04-3.11172E-14
 -1      3283 1.27539E-02 1.58264E-04-3.02817E-14
 -1      3284 1.27206E-02 1.26202E-04-2.99170E-14
 -1      3285 1.32046E-02 9.93685E-05-3.28048E-14
 -1      3286 1.30560E-02 1.16859E-04-3.19582E-14
 -1      3287 1.30208E-02 8.57440E-05-3.15890E-14
 -1      3288 1.34983E-02 6.84290E-05-3.45067E-14
 -1      3289 1.33519E-02 8.33919E-05-3.36527E-14
 -1      3290 1.33144E-02 5.32028E-05-3.32780E-14
 -1      3291 1.00461E-02-1.12224E-03-1.84932E-14
 -1      3292 1.42152E-02-3.38097E-04-3.76407E-14
 -1      3293 1.42003E-02-3.06476E-04-3.75970E-14
 -1      3294 1.42319E-02-5.31138E-04-3.78743E-14
 -1      3295 1.42365E-02-4.97103E-04-3.78368E-14
 -1      3296 1.42337E-02-3.99938E-04-3.77217E-14
 -1      3297 1.42262E-02-3.68943E-04-3.76831E-14
 -1      3298 1.41062E-02-3.42323E-04-3.69103E-14
 -1      3299 1.26784E-02-2.24521E-04-2.59507E-14
 -1      3300 1.26470E-02-2.35774E-04-2.58975E-14
 -1      3301 1.01688E-03 6.82216E-05-1.61221E-16
 -1      3302 1.01573E-03 4.12336E-05-1.67048E-16
 -1      3303 1.42386E-02-4.64061E-04-3.77999E-14
 -1      3304 1.42378E-02-4.31690E-04-3.77611E-14
 -1      3305 1.41208E-02-4.04171E-04-3.69897E-14
 -1      3306 1.41209E-02-4.68359E-04-3.70652E-14
 -1      3307 3.54083E-03 4.18818E-04-1.55452E-15
 -1      3308 3.39795E-03 4.19555E-04-1.40702E-15
 -1      3309 3.32333E-03 3.82494E-04-1.37354E-15
 -1      3310 3.60971E-03 3.81099E-04-1.67154E-15
 -1      3311 8.29909E-03-2.09154E-04-1.45158E-14
 -1      3312 8.15174E-03-1.62053E-04-1.42692E-14
 -1      3313 1.22152E-02-5.57981E-04-2.65658E-14
 -1      3314 1.23800E-02-5.36548E-04-2.73547E-14
 -1      3315 1.25122E-02-4.78123E-04-2.77287E-14
 -1      3316 9.77252E-03 7.69525E-04-1.71689E-14
 -1      3317 9.96027E-03 8.32171E-04-1.78294E-14
 -1      3318 1.25683E-02-2.57483E-04-2.57179E-14
 -1      3319 1.24663E-02-2.85896E-04-2.55307E-14
 -1      3320 1.21513E-02-2.75256E-05-2.50377E-14
 -1      3321 1.23170E-02-9.55801E-05-2.53323E-14
 -1      3322 8.02513E-03-1.25698E-04-1.40235E-14
 -1      3323 7.95626E-03-1.07719E-04-1.38934E-14
 -1      3324 1.40852E-02-3.86651E-05-3.78149E-14
 -1      3325 9.04185E-03-5.57120E-04-1.58230E-14
 -1      3326 8.83298E-03-4.43130E-04-1.54252E-14
 -1      3327 1.23302E-02-3.34767E-04-2.53192E-14
 -1      3328 1.21764E-02-3.95253E-04-2.50438E-14
 -1      3329 1.24273E-02-1.35244E-04-2.55342E-14
 -1      3330 1.25255E-02-1.64152E-04-2.57367E-14
 -1      3331 1.24093E-02-1.06127E-04-2.59242E-14
 -1      3332 1.44463E-03-3.13648E-04-3.53762E-16
 -1      3333 1.58815E-03-3.28016E-04-4.21565E-16
 -1      3334 1.65253E-03-2.99907E-04-4.57588E-16
 -1      3335 1.01239E-02 8.59594E-04-1.84451E-14
 -1      3336 1.02757E-02 8.57082E-04-1.90525E-14
 -1      3337 7.91070E-03-9.14520E-05-1.37387E-14
 -1      3338 7.90391E-03-7.87126E-05-1.36315E-14
 -1      3339 1.26298E-02-1.96558E-04-2.59169E-14
 -1      3340 1.26755E-02-2.10725E-04-2.59873E-14
 -1      3341 9.43672E-03 6.21772E-04-1.61225E-14
 -1      3342 9.58247E-03 7.01271E-04-1.65227E-14
 -1      3343 1.14496E-03 3.10587E-04-1.11944E-16
 -1      3344 1.08238E-03 2.71679E-04-1.11564E-16
 -1      3345 1.20153E-03 2.73074E-04-1.46693E-16
 -1      3346 1.28811E-03 3.32501E-04-1.45717E-16
 -1      3347 1.07662E-02 6.96385E-04-2.09441E-14
 -1      3348 1.09272E-02 6.11160E-04-2.15260E-14
 -1      3349 1.07002E-02 7.44249E-04-2.07386E-14
 -1      3350 8.62008E-03 1.63129E-04-1.46586E-14
 -1      3351 8.80101E-03 2.41231E-04-1.49869E-14
 -1      3352 8.24936E-03 1.28359E-05-1.41978E-14
 -1      3353 8.40302E-03 7.06797E-05-1.43601E-14
 -1      3354 1.01514E-03 1.44520E-05-1.72239E-16
 -1      3355 1.01510E-03-1.22305E-05-1.76928E-16
 -1      3356 1.13586E-03 3.01666E-05-2.07828E-16
 -1      3357 1.15324E-03 2.11824E-04-1.57426E-16
 -1      3358 1.02850E-03 1.81205E-04-1.31188E-16
 -1      3359 1.02437E-03 1.51872E-04-1.39971E-16
 -1      3360 1.03367E-03-2.39255E-04-1.95495E-16
 -1      3361 1.04415E-03-2.64886E-04-1.96417E-16
 -1      3362 1.15234E-03-2.81601E-04-2.34133E-16
 -1      3363 8.88795E-03 3.14234E-04-1.49688E-14
 -1      3364 8.34162E-03-2.44531E-04-1.43750E-14
 -1      3365 1.10672E-02 5.48099E-04-2.20605E-14
 -1      3366 7.90615E-03-6.60438E-05-1.35015E-14
 -1      3367 7.91782E-03-5.08276E-05-1.33710E-14
 -1      3368 7.84079E-03-7.02895E-05-1.31807E-14
 -1      3369 8.79052E-03-4.62284E-04-1.50701E-14
 -1      3370 8.96732E-03-5.69315E-04-1.53735E-14
 -1      3371 1.21927E-02-5.07438E-04-2.61300E-14
 -1      3372 1.21592E-02-4.50854E-04-2.54833E-14
 -1      3373 9.10858E-03-6.22002E-04-1.58072E-14
 -1      3374 9.31021E-03-7.18015E-04-1.63831E-14
 -1      3375 1.41719E-02-5.72024E-04-3.76038E-14
 -1      3376 1.42112E-02-5.49474E-04-3.77894E-14
 -1      3377 1.40956E-02-5.19679E-04-3.70155E-14
 -1      3378 1.40514E-02-5.56785E-04-3.68402E-14
 -1      3379 1.26081E-03-2.96356E-04-2.75401E-16
 -1      3380 2.39732E-03 4.09142E-04-6.13509E-16
 -1      3381 2.25422E-03 4.04229E-04-5.31137E-16
 -1      3382 2.17573E-03 3.64792E-04-5.17368E-16
 -1      3383 1.32477E-03-2.73539E-04-3.04783E-16
 -1      3384 9.48255E-03-8.30792E-04-1.67702E-14
 -1      3385 8.70444E-03-4.02533E-04-1.50187E-14
 -1      3386 8.05162E-03-1.46482E-04-1.38573E-14
 -1      3387 2.74998E-03 3.79721E-04-8.81836E-16
 -1      3388 2.68337E-03 4.15780E-04-7.99721E-16
 -1      3389 2.54037E-03 4.12957E-04-7.02671E-16
 -1      3390 9.76160E-03 8.28289E-04-1.69690E-14
 -1      3391 9.66738E-03 7.65870E-04-1.67160E-14
 -1      3392 1.03591E-02 8.55803E-04-1.93723E-14
 -1      3393 9.92855E-03 8.67155E-04-1.76011E-14
 -1      3394 1.00105E-02 8.57607E-04-1.79769E-14
 -1      3395 1.09070E-02 7.10689E-04-2.16512E-14
 -1      3396 1.07355E-02 7.76491E-04-2.09363E-14
 -1      3397 1.36186E-02 4.93616E-05-3.51847E-14
 -1      3398 1.35792E-02 2.01085E-05-3.48060E-14
 -1      3399 1.37380E-02 3.07218E-05-3.58627E-14
 -1      3400 1.39682E-02-2.04907E-05-3.71307E-14
 -1      3401 1.38505E-02-2.41355E-06-3.64449E-14
 -1      3402 1.40368E-02-7.92187E-05-3.73294E-14
 -1      3403 1.41351E-02-2.08661E-04-3.74519E-14
 -1      3404 1.41076E-02-1.74423E-04-3.73983E-14
 -1      3405 1.40888E-02-1.45463E-04-3.73936E-14
 -1      3406 1.40579E-02-1.09728E-04-3.73390E-14
 -1      3407 1.39431E-02-9.29951E-05-3.66563E-14
 -1      3408 1.39848E-02-1.52708E-04-3.66710E-14
 -1      3409 1.14800E-02 3.42455E-04-2.35428E-14
 -1      3410 1.15970E-02 2.61544E-04-2.38098E-14
 -1      3411 1.17672E-02 2.11508E-04-2.45532E-14
 -1      3412 1.26463E-02-2.54087E-04-2.62423E-14
 -1      3413 1.41818E-02-2.74546E-04-3.75501E-14
 -1      3414 1.41600E-02-2.41951E-04-3.75017E-14
 -1      3415 1.40760E-02-2.80183E-04-3.68229E-14
 -1      3416 1.27207E-02-2.22081E-04-2.64585E-14
 -1      3417 9.24555E-03 5.47347E-04-1.55304E-14
 -1      3418 7.88474E-03-9.77209E-05-1.34627E-14
 -1      3419 1.24383E-02-3.20328E-04-2.58476E-14
 -1      3420 1.20957E-02 2.95257E-05-2.52728E-14
 -1      3421 1.01866E-03 9.54891E-05-1.54689E-16
 -1      3422 1.13849E-03 8.85637E-05-1.94032E-16
 -1      3423 1.02110E-03 1.23265E-04-1.47560E-16
 -1      3424 1.55627E-03 3.61313E-04-2.25595E-16
 -1      3425 1.41290E-03 3.45219E-04-1.81401E-16
 -1      3426 1.36913E-03 3.14996E-04-1.82132E-16
 -1      3427 1.61935E-03 3.33665E-04-2.67337E-16
 -1      3428 1.26230E-02-1.80387E-04-2.63116E-14
 -1      3429 9.69363E-03-9.49069E-04-1.73747E-14
 -1      3430 1.10231E-02 6.28025E-04-2.20666E-14
 -1      3431 9.86058E-03-1.04346E-03-1.78720E-14
 -1      3432 8.13222E-03-2.91717E-06-1.38255E-14
 -1      3433 8.47573E-03 1.25493E-04-1.42502E-14
 -1      3434 8.53691E-03 1.84246E-04-1.41375E-14
 -1      3435 8.34015E-03 1.00326E-04-1.38478E-14
 -1      3436 1.01839E-03-9.30120E-05-1.89098E-16
 -1      3437 1.02074E-03-1.20730E-04-1.92121E-16
 -1      3438 1.14356E-03-1.45903E-04-2.35516E-16
 -1      3439 1.02389E-03-1.49142E-04-1.94641E-16
 -1      3440 1.02790E-03-1.78382E-04-1.96268E-16
 -1      3441 1.02418E-03-2.14594E-04-1.94059E-16
 -1      3442 1.26375E-02-1.64113E-04-2.68417E-14
 -1      3443 1.27283E-02-1.95909E-04-2.70248E-14
 -1      3444 1.23176E-02-4.31939E-04-2.62847E-14
 -1      3445 2.15071E-03-2.92663E-04-7.54374E-16
 -1      3446 2.29508E-03-2.97355E-04-8.55029E-16
 -1      3447 2.43943E-03-3.01052E-04-9.62582E-16
 -1      3448 2.58375E-03-3.03847E-04-1.07786E-15
 -1      3449 2.36260E-03-2.62626E-04-9.03154E-16
 -1      3450 2.72801E-03-3.05897E-04-1.20006E-15
 -1      3451 2.87218E-03-3.07270E-04-1.33033E-15
 -1      3452 2.65184E-03-2.67769E-04-1.13181E-15
 -1      3453 3.01626E-03-3.08089E-04-1.46878E-15
 -1      3454 3.16024E-03-3.08403E-04-1.61530E-15
 -1      3455 2.94080E-03-2.70317E-04-1.39092E-15
 -1      3456 3.30412E-03-3.08300E-04-1.77016E-15
 -1      3457 3.44788E-03-3.07812E-04-1.93339E-15
 -1      3458 3.22932E-03-2.70923E-04-1.68226E-15
 -1      3459 3.59152E-03-3.07004E-04-2.10555E-15
 -1      3460 3.73504E-03-3.05892E-04-2.28593E-15
 -1      3461 3.51730E-03-2.70059E-04-2.00706E-15
 -1      3462 3.87843E-03-3.04519E-04-2.47546E-15
 -1      3463 4.02169E-03-3.02891E-04-2.67417E-15
 -1      3464 3.80467E-03-2.68049E-04-2.36687E-15
 -1      3465 4.16481E-03-3.01037E-04-2.88200E-15
 -1      3466 4.30779E-03-2.98955E-04-3.09880E-15
 -1      3467 4.09136E-03-2.65095E-04-2.76236E-15
 -1      3468 4.45061E-03-2.96663E-04-3.32458E-15
 -1      3469 4.59326E-03-2.94153E-04-3.55899E-15
 -1      3470 4.37729E-03-2.61312E-04-3.19386E-15
 -1      3471 4.73573E-03-2.91440E-04-3.80409E-15
 -1      3472 4.87800E-03-2.88512E-04-4.06035E-15
 -1      3473 4.66237E-03-2.56754E-04-3.66338E-15
 -1      3474 5.02005E-03-2.85387E-04-4.32526E-15
 -1      3475 5.16188E-03-2.82050E-04-4.60062E-15
 -1      3476 4.94643E-03-2.51446E-04-4.17262E-15
 -1      3477 5.30342E-03-2.78529E-04-4.88615E-15
 -1      3478 5.44469E-03-2.74811E-04-5.18270E-15
 -1      3479 5.22929E-03-2.45411E-04-4.72333E-15
 -1      3480 5.58561E-03-2.70939E-04-5.49024E-15
 -1      3481 5.72619E-03-2.66904E-04-5.80864E-15
 -1      3482 5.51067E-03-2.38707E-04-5.31641E-15
 -1      3483 5.86635E-03-2.62776E-04-6.13736E-15
 -1      3484 6.00610E-03-2.58553E-04-6.47668E-15
 -1      3485 5.79025E-03-2.31458E-04-5.95247E-15
 -1      3486 6.14533E-03-2.54337E-04-6.82729E-15
 -1      3487 6.28408E-03-2.50139E-04-7.18917E-15
 -1      3488 6.06763E-03-2.23898E-04-6.63263E-15
 -1      3489 6.42223E-03-2.46102E-04-7.56064E-15
 -1      3490 6.55983E-03-2.42251E-04-7.94292E-15
 -1      3491 6.34237E-03-2.16402E-04-7.35563E-15
 -1      3492 6.69676E-03-2.38778E-04-8.33547E-15
 -1      3493 6.83312E-03-2.35732E-04-8.73898E-15
 -1      3494 6.61400E-03-2.09520E-04-8.11990E-15
 -1      3495 6.96879E-03-2.33344E-04-9.15385E-15
 -1      3496 7.10398E-03-2.31708E-04-9.57967E-15
 -1      3497 6.88210E-03-2.03985E-04-8.92625E-15
 -1      3498 7.23857E-03-2.31082E-04-1.00177E-14
 -1      3499 7.37299E-03-2.31644E-04-1.04670E-14
 -1      3500 7.14644E-03-2.00715E-04-9.77781E-15
 -1      3501 7.50713E-03-2.33640E-04-1.09269E-14
 -1      3502 7.64178E-03-2.37448E-04-1.13988E-14
 -1      3503 7.40724E-03-2.00803E-04-1.06757E-14
 -1      3504 7.77695E-03-2.43208E-04-1.18815E-14
 -1      3505 7.91404E-03-2.51942E-04-1.23747E-14
 -1      3506 7.66563E-03-2.05475E-04-1.16178E-14
 -1      3507 8.05319E-03-2.63886E-04-1.28797E-14
 -1      3508 8.19669E-03-2.80733E-04-1.33955E-14
 -1      3509 7.92476E-03-2.16999E-04-1.26058E-14
 -1      3510 1.27795E-02-4.31227E-04-2.89111E-14
 -1      3511 1.29173E-02-4.36447E-04-2.97267E-14
 -1      3512 1.30532E-02-4.44445E-04-3.05529E-14
 -1      3513 1.31887E-02-4.54304E-04-3.13832E-14
 -1      3514 1.30190E-02-4.05099E-04-3.01139E-14
 -1      3515 1.33237E-02-4.65785E-04-3.22206E-14
 -1      3516 1.34591E-02-4.78441E-04-3.30674E-14
 -1      3517 1.32796E-02-4.27655E-04-3.17769E-14
 -1      3518 1.35947E-02-4.91957E-04-3.39209E-14
 -1      3519 1.37309E-02-5.06152E-04-3.47804E-14
 -1      3520 1.35429E-02-4.54096E-04-3.34675E-14
 -1      3521 8.76434E-03 2.98715E-04-1.44923E-14
 -1      3522 8.95949E-03 3.88547E-04-1.49154E-14
 -1      3523 4.25146E-03 3.36597E-04-2.51810E-15
 -1      3524 4.10844E-03 3.38646E-04-2.32195E-15
 -1      3525 3.96533E-03 3.40450E-04-2.13530E-15
 -1      3526 3.82213E-03 3.42008E-04-1.95876E-15
 -1      3527 4.03485E-03 3.02575E-04-2.26804E-15
 -1      3528 4.82257E-03 3.26145E-04-3.40429E-15
 -1      3529 4.67994E-03 3.29094E-04-3.16731E-15
 -1      3530 5.10746E-03 3.19603E-04-3.91244E-15
 -1      3531 4.96507E-03 3.22985E-04-3.65208E-15
 -1      3532 4.89128E-03 2.88614E-04-3.57409E-15
 -1      3533 5.39186E-03 3.12225E-04-4.46657E-15
 -1      3534 5.24972E-03 3.16018E-04-4.18367E-15
 -1      3535 5.17536E-03 2.82287E-04-4.09505E-15
 -1      3536 5.67573E-03 3.04110E-04-5.06855E-15
 -1      3537 5.53385E-03 3.08255E-04-4.76186E-15
 -1      3538 5.45859E-03 2.75161E-04-4.66314E-15
 -1      3539 5.95908E-03 2.95463E-04-5.71533E-15
 -1      3540 5.81746E-03 2.99840E-04-5.38671E-15
 -1      3541 5.74089E-03 2.67322E-04-5.27765E-15
 -1      3542 6.24201E-03 2.86655E-04-6.40685E-15
 -1      3543 6.10058E-03 2.91054E-04-6.05536E-15
 -1      3544 6.02221E-03 2.58953E-04-5.93719E-15
 -1      3545 6.52478E-03 2.78286E-04-7.14118E-15
 -1      3546 6.38338E-03 2.82372E-04-6.76899E-15
 -1      3547 6.30261E-03 2.50383E-04-6.64055E-15
 -1      3548 6.80792E-03 2.71262E-04-7.91988E-15
 -1      3549 6.66624E-03 2.74535E-04-7.52514E-15
 -1      3550 6.58230E-03 2.42137E-04-7.38704E-15
 -1      3551 7.09242E-03 2.66900E-04-8.74496E-15
 -1      3552 6.94989E-03 2.68636E-04-8.32623E-15
 -1      3553 6.86184E-03 2.35004E-04-8.17749E-15
 -1      3554 7.37999E-03 2.67084E-04-9.61748E-15
 -1      3555 7.23566E-03 2.66246E-04-9.17526E-15
 -1      3556 7.14228E-03 2.30133E-04-9.01528E-15
 -1      3557 7.67331E-03 2.74513E-04-1.05373E-14
 -1      3558 7.52571E-03 2.69609E-04-1.00715E-14
 -1      3559 7.42550E-03 2.29211E-04-9.90026E-15
 -1      3560 7.97629E-03 2.93138E-04-1.15051E-14
 -1      3561 7.82332E-03 2.81976E-04-1.10157E-14
 -1      3562 7.71462E-03 2.34805E-04-1.08322E-14
 -1      3563 8.29419E-03 3.28846E-04-1.25156E-14
 -1      3564 8.13311E-03 3.08123E-04-1.20049E-14
 -1      3565 8.01429E-03 2.51075E-04-1.18105E-14
 -1      3566 8.63209E-03 3.90112E-04-1.35743E-14
 -1      3567 8.46066E-03 3.55506E-04-1.30405E-14
 -1      3568 8.33110E-03 2.84704E-04-1.28329E-14
 -1      3569 8.98197E-03 4.74685E-04-1.46703E-14
 -1      3570 8.79960E-03 4.22070E-04-1.41126E-14
 -1      3571 7.85915E-03-1.07627E-04-1.31724E-14
 -1      3572 7.81142E-03-8.98231E-05-1.30212E-14
 -1      3573 1.16052E-02 3.48579E-04-2.42922E-14
 -1      3574 1.14212E-02 4.18322E-04-2.35363E-14
 -1      3575 1.25381E-02 1.16769E-04-2.87296E-14
 -1      3576 1.23818E-02 1.44651E-04-2.79125E-14
 -1      3577 1.28408E-02 7.24055E-05-3.03839E-14
 -1      3578 1.26908E-02 9.31625E-05-2.95521E-14
 -1      3579 1.26647E-02 5.88547E-05-2.91899E-14
 -1      3580 1.31343E-02 3.79077E-05-3.20581E-14
 -1      3581 1.29884E-02 5.42763E-05-3.12186E-14
 -1      3582 1.29588E-02 2.22989E-05-3.08489E-14
 -1      3583 1.34226E-02 9.11441E-06-3.37532E-14
 -1      3584 1.32789E-02 2.30363E-05-3.29044E-14
 -1      3585 1.32456E-02-7.16889E-06-3.25295E-14
 -1      3586 1.40309E-02-2.15240E-04-3.67256E-14
 -1      3587 1.39977E-02-3.46610E-04-3.61834E-14
 -1      3588 1.39866E-02-3.16417E-04-3.61411E-14
 -1      3589 1.27342E-02-2.57811E-04-2.69496E-14
 -1      3590 1.26615E-02-2.79309E-04-2.67682E-14
 -1      3591 1.24362E-02-8.45861E-05-2.64530E-14
 -1      3592 1.25311E-02-1.21420E-04-2.66608E-14
 -1      3593 1.24957E-02-4.31578E-04-2.73033E-14
 -1      3594 1.26399E-02-4.28910E-04-2.81032E-14
 -1      3595 1.27581E-02-3.88807E-04-2.84789E-14
 -1      3596 8.27274E-03-2.59722E-04-1.38722E-14
 -1      3597 8.12988E-03-2.07397E-04-1.36043E-14
 -1      3598 1.22212E-02 1.76920E-04-2.71038E-14
 -1      3599 1.20558E-02 2.15828E-04-2.63048E-14
 -1      3600 1.23579E-02 1.07772E-04-2.75580E-14
 -1      3601 8.03319E-03-1.64986E-04-1.35091E-14
 -1      3602 7.92036E-03-1.31715E-04-1.32698E-14
 -1      3603 7.82432E-03-1.21739E-04-1.28345E-14
 -1      3604 7.96834E-03-1.84611E-04-1.30236E-14
 -1      3605 1.19221E-02 2.49791E-04-2.56809E-14
 -1      3606 1.17471E-02 3.02582E-04-2.49021E-14
 -1      3607 1.17961E-02 2.39860E-04-2.48887E-14
 -1      3608 1.20680E-02 1.67555E-04-2.61250E-14
 -1      3609 1.20876E-02 7.70070E-05-2.56533E-14
 -1      3610 1.22812E-02-1.75871E-05-2.61049E-14
 -1      3611 1.57424E-03-2.60538E-04-4.19912E-16
 -1      3612 1.71807E-03-2.70897E-04-4.93841E-16
 -1      3613 1.01562E-03-3.89420E-05-1.81265E-16
 -1      3614 1.01670E-03-6.57876E-05-1.85385E-16
 -1      3615 1.13824E-03-8.59816E-05-2.28428E-16
 -1      3616 1.25527E-02-3.10713E-04-2.64753E-14
 -1      3617 1.24345E-02-3.54815E-04-2.62582E-14
 -1      3618 4.53722E-03 3.31816E-04-2.94030E-15
 -1      3619 4.39439E-03 3.34322E-04-2.72383E-15
 -1      3620 4.32095E-03 2.98772E-04-2.66242E-15
 -1      3621 4.60645E-03 2.94112E-04-3.09693E-15
 -1      3622 3.10482E-03 3.45093E-04-1.20654E-15
 -1      3623 2.96111E-03 3.44486E-04-1.08214E-15
 -1      3624 1.86214E-03-2.79600E-04-5.74126E-16
 -1      3625 2.00639E-03-2.86783E-04-6.60699E-16
 -1      3626 2.07337E-03-2.54040E-04-7.02902E-16
 -1      3627 8.00611E-03-8.48766E-06-1.33225E-14
 -1      3628 8.12829E-03 3.41200E-05-1.34509E-14
 -1      3629 1.27731E-02-2.21627E-04-2.70688E-14
 -1      3630 1.27725E-02-2.36624E-04-2.70331E-14
 -1      3631 1.95336E-03 3.18502E-04-4.30374E-16
 -1      3632 1.80936E-03 3.10062E-04-3.65403E-16
 -1      3633 1.21334E-03-2.32974E-04-2.62255E-16
 -1      3634 1.39687E-03-2.47819E-04-3.37729E-16
 -1      3635 1.27944E-03 2.42868E-04-1.85954E-16
 -1      3636 1.27338E-03 2.08671E-04-1.98585E-16
 -1      3637 1.26678E-02-1.45828E-04-2.73783E-14
 -1      3638 2.24147E-03 3.31039E-04-5.80672E-16
 -1      3639 2.09740E-03 3.25449E-04-5.02094E-16
 -1      3640 2.01940E-03 2.86352E-04-4.85601E-16
 -1      3641 1.06993E-02 7.57170E-04-2.07512E-14
 -1      3642 1.08466E-02 6.89045E-04-2.13315E-14
 -1      3643 1.24650E-02-3.74795E-04-2.66515E-14
 -1      3644 7.78800E-03-7.75649E-05-1.28952E-14
 -1      3645 7.77416E-03-6.53889E-05-1.27693E-14
 -1      3646 7.74273E-03-8.61337E-05-1.26132E-14
 -1      3647 8.59844E-03-3.68675E-04-1.47033E-14
 -1      3648 8.03132E-03 6.38824E-05-1.28465E-14
 -1      3649 8.17985E-03 7.69958E-05-1.33421E-14
 -1      3650 8.22827E-03 1.24696E-04-1.32318E-14
 -1      3651 8.43414E-03-3.29125E-04-1.41621E-14
 -1      3652 2.46297E-03 3.74258E-04-6.84714E-16
 -1      3653 1.38307E-02-5.23700E-04-3.54298E-14
 -1      3654 1.39498E-02-5.39126E-04-3.61829E-14
 -1      3655 1.39729E-02-5.20493E-04-3.62738E-14
 -1      3656 1.37739E-02-4.85524E-04-3.49698E-14
 -1      3657 2.88530E-03 3.06611E-04-1.05273E-15
 -1      3658 2.81731E-03 3.43306E-04-9.66078E-16
 -1      3659 2.67344E-03 3.41497E-04-8.58363E-16
 -1      3660 1.68372E-03 3.05174E-04-3.11437E-16
 -1      3661 1.55825E-03 2.98657E-04-2.62309E-16
 -1      3662 1.74917E-03 2.75809E-04-3.57407E-16
 -1      3663 3.74820E-03 3.05455E-04-1.91028E-15
 -1      3664 3.67884E-03 3.43288E-04-1.79026E-15
 -1      3665 3.53546E-03 3.44280E-04-1.63042E-15
 -1      3666 8.66071E-03 3.36431E-04-1.38940E-14
 -1      3667 1.12440E-02 4.83775E-04-2.28113E-14
 -1      3668 1.38752E-02-1.55719E-04-3.59258E-14
 -1      3669 1.38543E-02-1.26355E-04-3.59221E-14
 -1      3670 1.39318E-02-2.23359E-04-3.60259E-14
 -1      3671 1.39050E-02-1.90075E-04-3.59767E-14
 -1      3672 1.37779E-02-1.64928E-04-3.52293E-14
 -1      3673 1.28139E-02-2.56888E-04-2.75623E-14
 -1      3674 1.40047E-02-3.77266E-04-3.62220E-14
 -1      3675 1.38895E-02-3.51016E-04-3.54568E-14
 -1      3676 1.40076E-02-4.08417E-04-3.62600E-14
 -1      3677 1.39729E-02-2.86311E-04-3.61087E-14
 -1      3678 1.39533E-02-2.54793E-04-3.60619E-14
 -1      3679 1.38318E-02-2.30547E-04-3.53142E-14
 -1      3680 1.38686E-02-2.91357E-04-3.53838E-14
 -1      3681 3.39200E-03 3.44935E-04-1.48023E-15
 -1      3682 3.24845E-03 3.45230E-04-1.33925E-15
 -1      3683 3.17339E-03 3.07786E-04-1.30398E-15
 -1      3684 3.46103E-03 3.07273E-04-1.58902E-15
 -1      3685 1.26695E-02-3.08014E-04-2.71819E-14
 -1      3686 1.25789E-03 4.78434E-05-2.46656E-16
 -1      3687 1.25716E-03 1.67831E-05-2.53730E-16
 -1      3688 1.14402E-03 1.48715E-04-1.77484E-16
 -1      3689 1.25933E-03 7.89878E-05-2.38863E-16
 -1      3690 1.38109E-03 6.70680E-05-2.88357E-16
 -1      3691 1.26150E-03 1.10468E-04-2.29959E-16
 -1      3692 1.24239E-02-4.16551E-05-2.68440E-14
 -1      3693 1.13578E-03-2.76975E-05-2.18982E-16
 -1      3694 1.46295E-03-2.22352E-04-3.67829E-16
 -1      3695 1.10295E-02 6.08073E-04-2.20536E-14
 -1      3696 1.78459E-03-2.40974E-04-5.30419E-16
 -1      3697 1.25911E-03-7.63205E-05-2.71742E-16
 -1      3698 1.26119E-03-1.07766E-04-2.76594E-16
 -1      3699 1.19068E-02 1.70872E-04-2.51645E-14
 -1      3700 1.28123E-02-2.11892E-04-2.76028E-14
 -1      3701 1.21054E-02 1.09866E-04-2.59961E-14
 -1      3702 7.80722E-03-3.34237E-05-1.26920E-14
 -1      3703 7.89952E-03-2.38688E-05-1.30056E-14
 -1      3704 7.87705E-03 7.47732E-06-1.26423E-14
 -1      3705 9.11893E-03 4.98939E-04-1.51563E-14
 -1      3706 8.45587E-03 2.32426E-04-1.35511E-14
 -1      3707 8.59989E-03 2.68112E-04-1.39503E-14
 -1      3708 1.14355E-03-2.15230E-04-2.36343E-16
 -1      3709 1.27100E-02-1.26394E-04-2.79684E-14
 -1      3710 1.27983E-02-1.65464E-04-2.81506E-14
 -1      3711 2.57584E-03-2.29686E-04-1.06492E-15
 -1      3712 2.72066E-03-2.31339E-04-1.18575E-15
 -1      3713 2.86540E-03-2.32473E-04-1.31478E-15
 -1      3714 3.01003E-03-2.33133E-04-1.45168E-15
 -1      3715 2.79015E-03-1.94616E-04-1.24007E-15
 -1      3716 3.15453E-03-2.33405E-04-1.59630E-15
 -1      3717 3.29888E-03-2.33318E-04-1.74898E-15
 -1      3718 3.07981E-03-1.95782E-04-1.51151E-15
 -1      3719 3.44306E-03-2.32937E-04-1.91028E-15
 -1      3720 3.58707E-03-2.32277E-04-2.08057E-15
 -1      3721 3.36887E-03-1.95652E-04-1.81559E-15
 -1      3722 3.73090E-03-2.31386E-04-2.25931E-15
 -1      3723 3.87452E-03-2.30269E-04-2.44694E-15
 -1      3724 3.65717E-03-1.94529E-04-2.15351E-15
 -1      3725 4.01794E-03-2.28960E-04-2.64373E-15
 -1      3726 4.16113E-03-2.27454E-04-2.84988E-15
 -1      3727 3.94459E-03-1.92613E-04-2.52721E-15
 -1      3728 4.30409E-03-2.25779E-04-3.06526E-15
 -1      3729 4.44680E-03-2.23922E-04-3.28881E-15
 -1      3730 4.23102E-03-1.90028E-04-2.93732E-15
 -1      3731 4.58923E-03-2.21907E-04-3.52293E-15
 -1      3732 4.73137E-03-2.19717E-04-3.76743E-15
 -1      3733 4.51631E-03-1.86843E-04-3.38481E-15
 -1      3734 4.87318E-03-2.17375E-04-4.02202E-15
 -1      3735 5.01465E-03-2.14861E-04-4.28721E-15
 -1      3736 4.80028E-03-1.83094E-04-3.87226E-15
 -1      3737 5.15572E-03-2.12206E-04-4.56109E-15
 -1      3738 5.29638E-03-2.09389E-04-4.84648E-15
 -1      3739 5.08270E-03-1.78808E-04-4.40065E-15
 -1      3740 5.43656E-03-2.06450E-04-5.14370E-15
 -1      3741 5.57624E-03-2.03369E-04-5.45077E-15
 -1      3742 5.36324E-03-1.74029E-04-4.97184E-15
 -1      3743 5.71532E-03-2.00208E-04-5.76880E-15
 -1      3744 5.85380E-03-1.96943E-04-6.09709E-15
 -1      3745 5.64150E-03-1.68841E-04-5.58529E-15
 -1      3746 5.99156E-03-1.93664E-04-6.43729E-15
 -1      3747 6.12857E-03-1.90349E-04-6.78921E-15
 -1      3748 5.91700E-03-1.63395E-04-6.24308E-15
 -1      3749 6.26472E-03-1.87121E-04-7.15025E-15
 -1      3750 6.39998E-03-1.83953E-04-7.52202E-15
 -1      3751 6.18913E-03-1.57937E-04-6.94551E-15
 -1      3752 6.53420E-03-1.81008E-04-7.90504E-15
 -1      3753 6.66738E-03-1.78253E-04-8.29737E-15
 -1      3754 6.45719E-03-1.52812E-04-7.68918E-15
 -1      3755 6.79934E-03-1.75890E-04-8.70036E-15
 -1      3756 6.93013E-03-1.73872E-04-9.11422E-15
 -1      3757 6.72033E-03-1.48468E-04-8.47483E-15
 -1      3758 7.05950E-03-1.72436E-04-9.53977E-15
 -1      3759 7.18763E-03-1.71516E-04-9.97695E-15
 -1      3760 6.97763E-03-1.45413E-04-9.30275E-15
 -1      3761 7.31418E-03-1.71380E-04-1.04256E-14
 -1      3762 7.43953E-03-1.71934E-04-1.08845E-14
 -1      3763 7.22801E-03-1.44148E-04-1.01760E-14
 -1      3764 7.56321E-03-1.73412E-04-1.13557E-14
 -1      3765 7.68603E-03-1.75723E-04-1.18388E-14
 -1      3766 7.47035E-03-1.45041E-04-1.10944E-14
 -1      3767 7.84785E-03-1.78508E-04-1.25150E-14
 -1      3768 1.28703E-02-2.03296E-04-2.82711E-14
 -1      3769 1.29063E-02-2.30885E-04-2.83126E-14
 -1      3770 4.10448E-03 2.64799E-04-2.40164E-15
 -1      3771 3.96123E-03 2.66329E-04-2.21259E-15
 -1      3772 1.39951E-02-5.02292E-04-3.63601E-14
 -1      3773 1.37625E-02-4.51127E-04-3.47945E-14
 -1      3774 1.38602E-02-4.68285E-04-3.54432E-14
 -1      3775 1.32369E-02-3.91313E-04-3.13324E-14
 -1      3776 1.33637E-02-4.04299E-04-3.21687E-14
 -1      3777 1.34918E-02-4.17755E-04-3.30135E-14
 -1      3778 1.36216E-02-4.31753E-04-3.38659E-14
 -1      3779 1.34410E-02-3.83001E-04-3.25636E-14
 -1      3780 1.21665E-03-1.92966E-04-2.64342E-16
 -1      3781 1.70787E-03-2.03237E-04-4.87715E-16
 -1      3782 1.85207E-03-2.10157E-04-5.66875E-16
 -1      3783 5.24285E-03 2.45461E-04-4.28050E-15
 -1      3784 5.10143E-03 2.48565E-04-4.00725E-15
 -1      3785 4.95973E-03 2.51465E-04-3.74565E-15
 -1      3786 4.81775E-03 2.54179E-04-3.49555E-15
 -1      3787 5.02793E-03 2.14755E-04-3.91904E-15
 -1      3788 5.80534E-03 2.31238E-04-5.48865E-15
 -1      3789 5.66522E-03 2.35054E-04-5.16907E-15
 -1      3790 6.08445E-03 2.23239E-04-6.16055E-15
 -1      3791 5.94507E-03 2.27301E-04-5.81932E-15
 -1      3792 5.86917E-03 1.95904E-04-5.70049E-15
 -1      3793 6.36210E-03 2.14969E-04-6.87513E-15
 -1      3794 6.22344E-03 2.19124E-04-6.51202E-15
 -1      3795 6.14590E-03 1.88360E-04-6.38408E-15
 -1      3796 6.63844E-03 2.06856E-04-7.63341E-15
 -1      3797 6.50039E-03 2.10866E-04-7.24827E-15
 -1      3798 6.42059E-03 1.80443E-04-7.11060E-15
 -1      3799 6.91398E-03 1.99542E-04-8.43656E-15
 -1      3800 6.77623E-03 2.03050E-04-8.02945E-15
 -1      3801 6.69329E-03 1.72460E-04-7.88143E-15
 -1      3802 7.18978E-03 1.93968E-04-9.28695E-15
 -1      3803 7.05171E-03 1.96449E-04-8.85560E-15
 -1      3804 6.96442E-03 1.64868E-04-8.69694E-15
 -1      3805 7.46779E-03 1.91576E-04-1.01831E-14
 -1      3806 7.32827E-03 1.92212E-04-9.72929E-15
 -1      3807 7.23492E-03 1.58353E-04-9.55891E-15
 -1      3808 7.75136E-03 1.94741E-04-1.11285E-14
 -1      3809 7.60850E-03 1.92165E-04-1.06495E-14
 -1      3810 7.50668E-03 1.54031E-04-1.04678E-14
 -1      3811 8.04597E-03 2.07824E-04-1.21159E-14
 -1      3812 7.89669E-03 1.99438E-04-1.16164E-14
 -1      3813 7.78314E-03 1.53995E-04-1.14230E-14
 -1      3814 8.28188E-03 1.98098E-04-1.30483E-14
 -1      3815 8.12768E-03 1.84183E-04-1.25294E-14
 -1      3816 2.52950E-03 3.38919E-04-7.58020E-16
 -1      3817 2.38551E-03 3.35493E-04-6.65497E-16
 -1      3818 2.59684E-03 3.03193E-04-8.33575E-16
 -1      3819 1.28944E-02-2.55962E-04-2.81994E-14
 -1      3820 1.28588E-02-2.79131E-04-2.81122E-14
 -1      3821 1.38101E-02-3.03886E-05-3.60654E-14
 -1      3822 1.29878E-02-3.67712E-04-2.96750E-14
 -1      3823 1.31119E-02-3.79082E-04-3.05004E-14
 -1      3824 1.31953E-02-3.56775E-04-3.08854E-14
 -1      3825 1.36416E-02-2.06057E-05-3.50205E-14
 -1      3826 1.35236E-02-2.91890E-06-3.43435E-14
 -1      3827 1.27893E-02 5.74800E-06-2.96487E-14
 -1      3828 1.26435E-02 2.37436E-05-2.88265E-14
 -1      3829 1.34873E-02-3.18901E-05-3.39674E-14
 -1      3830 1.36676E-02-8.74086E-05-3.48678E-14
 -1      3831 1.37773E-02-8.38046E-05-3.56093E-14
 -1      3832 1.26842E-03 1.75248E-04-2.09915E-16
 -1      3833 1.26452E-03 1.42532E-04-2.20269E-16
 -1      3834 1.38579E-03 1.33754E-04-2.68462E-16
 -1      3835 1.39411E-03 2.02543E-04-2.44772E-16
 -1      3836 1.32621E-03 2.85544E-04-1.82065E-16
 -1      3837 1.44618E-03 2.80868E-04-2.27940E-16
 -1      3838 1.25776E-03-4.51318E-05-2.66267E-16
 -1      3839 1.38091E-03-6.42595E-05-3.18728E-16
 -1      3840 1.25712E-03-1.41480E-05-2.60358E-16
 -1      3841 1.37951E-03 1.43016E-06-3.04837E-16
 -1      3842 1.38450E-03-1.31470E-04-3.29001E-16
 -1      3843 1.26320E-03-1.40255E-04-2.80185E-16
 -1      3844 1.26699E-03-1.72759E-04-2.83370E-16
 -1      3845 1.39797E-02-4.68013E-04-3.61823E-14
 -1      3846 1.39842E-02-4.35449E-04-3.61451E-14
 -1      3847 1.37050E-02-4.15573E-04-3.43354E-14
 -1      3848 1.33640E-03-1.88112E-04-3.12264E-16
 -1      3849 1.51333E-03-1.98717E-04-3.90692E-16
 -1      3850 1.37536E-02-5.23742E-05-3.56002E-14
 -1      3851 1.35699E-02-7.68479E-05-3.42748E-14
 -1      3852 1.34720E-02-6.61727E-05-3.36854E-14
 -1      3853 1.36495E-02-1.19726E-04-3.45832E-14
 -1      3854 1.38717E-02-4.07820E-04-3.53798E-14
 -1      3855 1.50704E-03-1.20212E-04-3.82005E-16
 -1      3856 1.50938E-03-1.56085E-04-3.86586E-16
 -1      3857 1.33333E-02-5.43981E-05-3.28389E-14
 -1      3858 1.31941E-02-4.21262E-05-3.19927E-14
 -1      3859 1.34177E-02-9.88048E-05-3.31410E-14
 -1      3860 1.99657E-03-2.15920E-04-6.52541E-16
 -1      3861 2.14128E-03-2.20625E-04-7.45091E-16
 -1      3862 1.92042E-03-1.78444E-04-6.03508E-16
 -1      3863 1.22324E-02 8.42215E-05-2.66224E-14
 -1      3864 1.30642E-02-2.66657E-05-3.12332E-14
 -1      3865 1.29228E-02-1.24645E-05-3.03994E-14
 -1      3866 1.29004E-02-4.49354E-05-3.00308E-14
 -1      3867 1.31561E-02-7.44002E-05-3.15364E-14
 -1      3868 5.52477E-03 2.38696E-04-4.86135E-15
 -1      3869 5.38396E-03 2.42177E-04-4.56522E-15
 -1      3870 5.59047E-03 2.02878E-04-5.06138E-15
 -1      3871 1.25177E-02 3.86565E-05-2.81233E-14
 -1      3872 1.23651E-02 6.28597E-05-2.73126E-14
 -1      3873 1.24037E-02 1.04107E-05-2.71791E-14
 -1      3874 1.26498E-02-1.71530E-05-2.85768E-14
 -1      3875 1.51148E-03 2.54745E-04-2.66456E-16
 -1      3876 2.28610E-03-2.24427E-04-8.44553E-16
 -1      3877 2.43098E-03-2.27402E-04-9.51198E-16
 -1      3878 2.50011E-03-1.91734E-04-9.99133E-16
 -1      3879 2.21002E-03-1.86564E-04-7.87266E-16
 -1      3880 1.25410E-02-5.34194E-05-2.75350E-14
 -1      3881 7.74196E-03-1.46841E-04-1.22408E-14
 -1      3882 2.30813E-03 2.96771E-04-6.45575E-16
 -1      3883 7.68622E-03-9.57475E-05-1.22689E-14
 -1      3884 7.65548E-03-8.21132E-05-1.21472E-14
 -1      3885 7.90912E-03 3.91895E-05-1.25359E-14
 -1      3886 7.94227E-03 7.56620E-05-1.24288E-14
 -1      3887 7.79792E-03 2.10702E-05-1.22294E-14
 -1      3888 2.95393E-03 2.69646E-04-1.14087E-15
 -1      3889 2.80949E-03 2.68644E-04-1.02191E-15
 -1      3890 4.24755E-03 2.63072E-04-2.59993E-15
 -1      3891 4.17422E-03 2.27184E-04-2.53706E-15
 -1      3892 4.39043E-03 2.61137E-04-2.80784E-15
 -1      3893 1.29222E-02-1.89463E-04-2.88676E-14
 -1      3894 3.88762E-03 2.29889E-04-2.15669E-15
 -1      3895 3.81780E-03 2.67634E-04-2.03255E-15
 -1      3896 3.67420E-03 2.68715E-04-1.86139E-15
 -1      3897 1.29282E-02-3.03769E-04-2.88021E-14
 -1      3898 1.28249E-02-3.07574E-04-2.81592E-14
 -1      3899 5.30999E-03 2.09177E-04-4.46736E-15
 -1      3900 1.79257E-03 2.42586E-04-3.96195E-16
 -1      3901 1.66659E-03 2.39039E-04-3.39843E-16
 -1      3902 1.27317E-02-3.34897E-04-2.78621E-14
 -1      3903 8.00008E-03 1.31357E-04-1.23248E-14
 -1      3904 1.26719E-02-5.14050E-05-2.84451E-14
 -1      3905 1.26826E-02-9.61469E-05-2.81010E-14
 -1      3906 1.28273E-02-1.20890E-04-2.88829E-14
 -1      3907 1.27878E-02-6.06874E-05-2.91508E-14
 -1      3908 1.29758E-02-2.50782E-04-2.88726E-14
 -1      3909 1.36836E-02-1.55176E-04-3.46361E-14
 -1      3910 1.35895E-02-1.45557E-04-3.40426E-14
 -1      3911 1.37148E-02-1.89197E-04-3.46847E-14
 -1      3912 1.28921E-02-3.64187E-04-2.90710E-14
 -1      3913 1.29855E-02-3.38943E-04-2.94510E-14
 -1      3914 1.55475E-03 2.24268E-04-2.98996E-16
 -1      3915 7.68692E-03-1.20519E-04-1.21473E-14
 -1      3916 1.37644E-02-2.95721E-04-3.46561E-14
 -1      3917 1.37497E-02-2.66416E-04-3.46216E-14
 -1      3918 2.08137E-03 2.55619E-04-5.39133E-16
 -1      3919 1.93687E-03 2.49734E-04-4.64364E-16
 -1      3920 1.85492E-03 2.13676E-04-4.42368E-16
 -1      3921 3.24246E-03 2.70310E-04-1.40346E-15
 -1      3922 3.09826E-03 2.70189E-04-1.26827E-15
 -1      3923 3.02315E-03 2.32478E-04-1.23131E-15
 -1      3924 1.27685E-02-3.54919E-04-2.82601E-14
 -1      3925 1.50535E-03 8.77273E-05-3.33514E-16
 -1      3926 1.50373E-03 5.31480E-05-3.43611E-16
 -1      3927 1.50466E-03-8.53058E-05-3.76069E-16
 -1      3928 1.62935E-03-1.07510E-04-4.38140E-16
 -1      3929 1.50312E-03-5.06764E-05-3.69022E-16
 -1      3930 4.67554E-03 2.56690E-04-3.25571E-15
 -1      3931 4.53309E-03 2.59015E-04-3.02636E-15
 -1      3932 4.45989E-03 2.23750E-04-2.95596E-15
 -1      3933 1.54962E-03 1.87619E-04-3.13348E-16
 -1      3934 1.50290E-03 1.86740E-05-3.52732E-16
 -1      3935 1.50286E-03-1.57403E-05-3.61365E-16
 -1      3936 1.62717E-03 3.73762E-05-4.04272E-16
 -1      3937 7.66161E-03-5.37199E-05-1.21396E-14
 -1      3938 7.72936E-03-4.43914E-05-1.24148E-14
 -1      3939 7.68753E-03-2.01494E-05-1.20615E-14
 -1      3940 1.63572E-03-1.87863E-04-4.49876E-16
 -1      3941 1.37322E-02-3.89173E-04-3.44508E-14
 -1      3942 1.37548E-02-3.63338E-04-3.45636E-14
 -1      3943 1.35954E-02-3.70743E-04-3.35248E-14
 -1      3944 1.37506E-02-3.33649E-04-3.45253E-14
 -1      3945 1.36390E-02-3.08720E-04-3.37700E-14
 -1      3946 4.74451E-03 2.19609E-04-3.41627E-15
 -1      3947 7.58672E-03-1.17483E-04-1.16913E-14
 -1      3948 1.25894E-02-3.63951E-04-2.72804E-14
 -1      3949 2.37060E-03 2.64212E-04-7.07632E-16
 -1      3950 2.22596E-03 2.60407E-04-6.20272E-16
 -1      3951 2.14411E-03 2.24316E-04-5.94007E-16
 -1      3952 3.00528E-03-1.58105E-04-1.42869E-15
 -1      3953 3.15013E-03-1.58289E-04-1.57146E-15
 -1      3954 3.29481E-03-1.58236E-04-1.72249E-15
 -1      3955 3.43929E-03-1.57954E-04-1.88182E-15
 -1      3956 3.22093E-03-1.20716E-04-1.63124E-15
 -1      3957 3.58355E-03-1.57491E-04-2.05023E-15
 -1      3958 3.72758E-03-1.56846E-04-2.22703E-15
 -1      3959 3.51009E-03-1.20283E-04-1.94824E-15
 -1      3960 3.87136E-03-1.56056E-04-2.41209E-15
 -1      3961 4.01488E-03-1.55114E-04-2.60724E-15
 -1      3962 3.79829E-03-1.19284E-04-2.29984E-15
 -1      3963 4.15811E-03-1.54050E-04-2.81195E-15
 -1      3964 4.30103E-03-1.52851E-04-3.02548E-15
 -1      3965 4.08538E-03-1.17824E-04-2.68795E-15
 -1      3966 4.44363E-03-1.51544E-04-3.24775E-15
 -1      3967 4.58588E-03-1.50110E-04-3.48036E-15
 -1      3968 4.37119E-03-1.15972E-04-3.11304E-15
 -1      3969 4.72774E-03-1.48577E-04-3.72404E-15
 -1      3970 4.86920E-03-1.46924E-04-3.97807E-15
 -1      3971 4.65553E-03-1.13768E-04-3.57746E-15
 -1      3972 5.01019E-03-1.45181E-04-4.24159E-15
 -1      3973 5.15070E-03-1.43324E-04-4.51498E-15
 -1      3974 4.93816E-03-1.11244E-04-4.08296E-15
 -1      3975 5.29066E-03-1.41395E-04-4.80016E-15
 -1      3976 5.43002E-03-1.39366E-04-5.09645E-15
 -1      3977 5.21873E-03-1.08440E-04-4.63087E-15
 -1      3978 5.56872E-03-1.37293E-04-5.40318E-15
 -1      3979 5.70670E-03-1.35147E-04-5.72018E-15
 -1      3980 5.49685E-03-1.05422E-04-5.22178E-15
 -1      3981 5.84387E-03-1.33004E-04-6.04966E-15
 -1      3982 5.98017E-03-1.30830E-04-6.38995E-15
 -1      3983 5.77199E-03-1.02301E-04-5.85640E-15
 -1      3984 6.11548E-03-1.28731E-04-6.74017E-15
 -1      3985 6.24973E-03-1.26661E-04-7.10167E-15
 -1      3986 6.04352E-03-9.92493E-05-6.53617E-15
 -1      3987 6.38278E-03-1.24763E-04-7.47389E-15
 -1      3988 6.51455E-03-1.22971E-04-7.85631E-15
 -1      3989 6.31065E-03-9.65129E-05-7.25896E-15
 -1      3990 6.64484E-03-1.21473E-04-8.24894E-15
 -1      3991 6.77358E-03-1.20163E-04-8.65235E-15
 -1      3992 6.57242E-03-9.44119E-05-8.02325E-15
 -1      3993 6.90051E-03-1.19283E-04-9.06596E-15
 -1      3994 7.02557E-03-1.18656E-04-9.49105E-15
 -1      3995 6.82760E-03-9.33169E-05-8.83019E-15
 -1      3996 7.14837E-03-1.18595E-04-9.92816E-15
 -1      3997 7.26887E-03-1.18795E-04-1.03752E-14
 -1      3998 7.07458E-03-9.35837E-05-9.67991E-15
 -1      3999 7.37373E-03-1.17104E-04-1.07890E-14
 -1      4000 7.48854E-03-1.18069E-04-1.12585E-14
 -1      4001 7.49895E-03-9.18558E-05-1.13739E-14
 -1      4002 7.29918E-03-9.29743E-05-1.05303E-14
 -1      4003 1.30121E-02-3.09440E-04-2.94048E-14
 -1      4004 5.37689E-03 1.73490E-04-4.65537E-15
 -1      4005 5.23666E-03 1.76104E-04-4.36897E-15
 -1      4006 1.70403E-03-1.58400E-04-4.82321E-16
 -1      4007 6.20682E-03 1.54391E-04-6.60896E-15
 -1      4008 6.07001E-03 1.57971E-04-6.25577E-15
 -1      4009 5.93257E-03 1.61384E-04-5.91256E-15
 -1      4010 5.79449E-03 1.64668E-04-5.58113E-15
 -1      4011 5.99568E-03 1.27714E-04-6.12592E-15
 -1      4012 6.74719E-03 1.39091E-04-8.13127E-15
 -1      4013 6.61309E-03 1.43036E-04-7.73391E-15
 -1      4014 7.01348E-03 1.31218E-04-8.95842E-15
 -1      4015 6.88058E-03 1.35152E-04-8.53912E-15
 -1      4016 6.80032E-03 1.06779E-04-8.38161E-15
 -1      4017 7.27794E-03 1.23690E-04-9.83194E-15
 -1      4018 7.14579E-03 1.27373E-04-9.38956E-15
 -1      4019 7.06131E-03 9.86156E-05-9.22060E-15
 -1      4020 7.54216E-03 1.17274E-04-1.07528E-14
 -1      4021 7.40983E-03 1.20270E-04-1.02862E-14
 -1      4022 7.31893E-03 8.99893E-05-1.01060E-14
 -1      4023 7.83455E-03 1.21339E-04-1.17702E-14
 -1      4024 7.69880E-03 1.21823E-04-1.12808E-14
 -1      4025 7.59651E-03 8.71410E-05-1.10873E-14
 -1      4026 7.90635E-03 9.54433E-05-1.21748E-14
 -1      4027 7.54130E-03-7.64071E-05-1.15871E-14
 -1      4028 7.61044E-03-6.67211E-05-1.19208E-14
 -1      4029 7.54844E-03-4.61582E-05-1.15778E-14
 -1      4030 7.44604E-03-7.56795E-05-1.11557E-14
 -1      4031 4.81340E-03 1.82915E-04-3.57823E-15
 -1      4032 4.67155E-03 1.84869E-04-3.33646E-15
 -1      4033 1.35247E-02-3.12780E-04-3.29719E-14
 -1      4034 1.35378E-02-2.76471E-04-3.30999E-14
 -1      4035 3.53044E-03 2.69535E-04-1.69980E-15
 -1      4036 3.38652E-03 2.70085E-04-1.54708E-15
 -1      4037 3.31199E-03 2.32734E-04-1.50463E-15
 -1      4038 3.60018E-03 2.31788E-04-1.81277E-15
 -1      4039 1.52832E-03 1.54813E-04-3.18227E-16
 -1      4040 1.52507E-03 1.19300E-04-3.30546E-16
 -1      4041 1.64792E-03 1.05865E-04-3.90543E-16
 -1      4042 1.68902E-03 1.72491E-04-3.81978E-16
 -1      4043 1.31527E-02-3.25174E-04-3.04396E-14
 -1      4044 1.32694E-02-3.37858E-04-3.12717E-14
 -1      4045 1.37463E-02-2.44072E-04-3.46732E-14
 -1      4046 1.37236E-02-2.13167E-04-3.46378E-14
 -1      4047 1.36325E-02-2.03868E-04-3.40470E-14
 -1      4048 1.36458E-02-2.49488E-04-3.39487E-14
 -1      4049 1.33694E-02-3.47494E-04-3.19718E-14
 -1      4050 1.34914E-02-3.60645E-04-3.28156E-14
 -1      4051 1.35158E-02-3.35943E-04-3.29273E-14
 -1      4052 1.33161E-02-3.17025E-04-3.15180E-14
 -1      4053 2.73378E-03 2.30649E-04-9.90825E-16
 -1      4054 2.66496E-03 2.67083E-04-9.11394E-16
 -1      4055 2.52035E-03 2.64906E-04-8.08097E-16
 -1      4056 1.29817E-02-1.74321E-04-2.95007E-14
 -1      4057 1.30411E-02-2.12004E-04-2.96203E-14
 -1      4058 5.65584E-03 1.67769E-04-5.26194E-15
 -1      4059 5.51662E-03 1.70723E-04-4.95287E-15
 -1      4060 5.44362E-03 1.38445E-04-4.84477E-15
 -1      4061 1.30683E-02-2.48338E-04-2.96342E-14
 -1      4062 1.30527E-02-2.76072E-04-2.95156E-14
 -1      4063 5.09599E-03 1.78535E-04-4.09380E-15
 -1      4064 4.95489E-03 1.80813E-04-3.83022E-15
 -1      4065 5.16394E-03 1.42851E-04-4.27018E-15
 -1      4066 2.71517E-03-1.56825E-04-1.16678E-15
 -1      4067 2.86029E-03-1.57623E-04-1.29395E-15
 -1      4068 2.93100E-03-1.20422E-04-1.34765E-15
 -1      4069 1.34564E-02-1.35357E-04-3.31939E-14
 -1      4070 6.47838E-03 1.46902E-04-7.34746E-15
 -1      4071 6.34292E-03 1.50713E-04-6.97301E-15
 -1      4072 6.26735E-03 1.21366E-04-6.83545E-15
 -1      4073 1.73843E-03-1.35258E-04-4.97581E-16
 -1      4074 1.81029E-03-1.49411E-04-5.37764E-16
 -1      4075 1.95480E-03-1.53892E-04-6.20855E-16
 -1      4076 1.73578E-03-9.78640E-05-4.90236E-16
 -1      4077 7.70107E-03 3.69904E-06-1.19620E-14
 -1      4078 7.71960E-03 3.11253E-05-1.18581E-14
 -1      4079 7.61392E-03-1.04747E-05-1.16941E-14
 -1      4080 4.24407E-03 1.89769E-04-2.67421E-15
 -1      4081 4.10099E-03 1.91097E-04-2.47372E-15
 -1      4082 1.34826E-02-1.73207E-04-3.31588E-14
 -1      4083 1.33152E-02-1.28843E-04-3.22643E-14
 -1      4084 1.30809E-02-2.92439E-04-2.97815E-14
 -1      4085 3.95766E-03 1.92255E-04-2.28267E-15
 -1      4086 3.81407E-03 1.93253E-04-2.09994E-15
 -1      4087 4.02790E-03 1.54789E-04-2.41019E-15
 -1      4088 3.09294E-03 1.95130E-04-1.32399E-15
 -1      4089 2.94817E-03 1.94707E-04-1.19424E-15
 -1      4090 1.97971E-03-1.15456E-04-6.29501E-16
 -1      4091 2.08956E-03-1.43717E-04-7.01899E-16
 -1      4092 2.42477E-03-1.54028E-04-9.34447E-16
 -1      4093 2.56999E-03-1.55635E-04-1.04673E-15
 -1      4094 2.64053E-03-1.19170E-04-1.09466E-15
 -1      4095 5.72099E-03 1.33406E-04-5.46309E-15
 -1      4096 1.29144E-02-7.53202E-05-2.98979E-14
 -1      4097 1.29293E-02-1.04595E-04-2.97617E-14
 -1      4098 1.30397E-02-8.90935E-05-3.06455E-14
 -1      4099 1.29499E-02-1.28178E-04-2.97013E-14
 -1      4100 1.29641E-02-1.54041E-04-2.95650E-14
 -1      4101 1.30969E-02-1.80140E-04-3.03236E-14
 -1      4102 1.30673E-02-1.39146E-04-3.04492E-14
 -1      4103 1.34245E-02-3.03727E-04-3.22642E-14
 -1      4104 2.87340E-03 1.56926E-04-1.15657E-15
 -1      4105 2.80328E-03 1.93910E-04-1.07247E-15
 -1      4106 2.65828E-03 1.92709E-04-9.59248E-16
 -1      4107 1.62660E-03-3.48783E-05-4.22947E-16
 -1      4108 1.34203E-02-2.53224E-04-3.23153E-14
 -1      4109 1.35265E-02-2.47289E-04-3.31070E-14
 -1      4110 1.35207E-02-2.25388E-04-3.31573E-14
 -1      4111 1.97771E-03 1.83786E-04-5.22220E-16
 -1      4112 1.83317E-03 1.78641E-04-4.48778E-16
 -1      4113 1.81217E-03 1.44067E-04-4.54240E-16
 -1      4114 2.43892E-03 2.28989E-04-7.77251E-16
 -1      4115 1.75222E-03 5.73072E-05-4.58414E-16
 -1      4116 1.75135E-03 2.01213E-05-4.69825E-16
 -1      4117 4.88227E-03 1.46657E-04-3.74165E-15
 -1      4118 1.31430E-02-2.38079E-04-3.02738E-14
 -1      4119 6.53564E-03 1.14376E-04-7.58685E-15
 -1      4120 1.31933E-02-1.16752E-04-3.15033E-14
 -1      4121 4.52937E-03 1.86654E-04-3.10545E-15
 -1      4122 4.38687E-03 1.88294E-04-2.88460E-15
 -1      4123 4.31404E-03 1.52609E-04-2.81331E-15
 -1      4124 2.23460E-03-1.46505E-04-7.97851E-16
 -1      4125 1.79158E-03 1.17204E-04-4.55446E-16
 -1      4126 1.77184E-03 8.34788E-05-4.59078E-16
 -1      4127 1.89602E-03 6.66134E-05-5.30107E-16
 -1      4128 1.93605E-03 1.20884E-04-5.29728E-16
 -1      4129 4.59889E-03 1.49901E-04-3.25650E-15
 -1      4130 2.30495E-03-1.11480E-04-8.38929E-16
 -1      4131 7.78776E-03 7.12287E-05-1.18726E-14
 -1      4132 3.14732E-03-8.31405E-05-1.54164E-15
 -1      4133 3.29219E-03-8.30934E-05-1.69041E-15
 -1      4134 4.38416E-03 1.15733E-04-2.95427E-15
 -1      4135 4.24143E-03 1.16685E-04-2.74195E-15
 -1      4136 1.31883E-02-2.90736E-04-3.05522E-14
 -1      4137 3.43684E-03-8.29365E-05-1.84791E-15
 -1      4138 3.58126E-03-8.26675E-05-2.01464E-15
 -1      4139 3.36386E-03-4.54705E-05-1.74927E-15
 -1      4140 3.72541E-03-8.23147E-05-2.18946E-15
 -1      4141 3.86928E-03-8.18691E-05-2.37267E-15
 -1      4142 3.65276E-03-4.51579E-05-2.08006E-15
 -1      4143 4.01285E-03-8.13581E-05-2.56536E-15
 -1      4144 4.15610E-03-8.07674E-05-2.76833E-15
 -1      4145 3.94055E-03-4.46471E-05-2.44562E-15
 -1      4146 4.29900E-03-8.01247E-05-2.98068E-15
 -1      4147 4.44152E-03-7.94125E-05-3.20184E-15
 -1      4148 4.22704E-03-4.39842E-05-2.84835E-15
 -1      4149 4.58365E-03-7.86540E-05-3.43214E-15
 -1      4150 4.72534E-03-7.78335E-05-3.67444E-15
 -1      4151 4.51205E-03-4.32041E-05-3.29007E-15
 -1      4152 4.86656E-03-7.69769E-05-3.92694E-15
 -1      4153 5.00726E-03-7.60656E-05-4.18907E-15
 -1      4154 4.79533E-03-4.23323E-05-3.77140E-15
 -1      4155 5.14741E-03-7.51328E-05-4.46291E-15
 -1      4156 5.28694E-03-7.41568E-05-4.74723E-15
 -1      4157 5.07658E-03-4.14073E-05-4.29615E-15
 -1      4158 5.42580E-03-7.31826E-05-5.04210E-15
 -1      4159 5.56392E-03-7.21841E-05-5.34822E-15
 -1      4160 5.35543E-03-4.04852E-05-4.86422E-15
 -1      4161 5.70122E-03-7.12235E-05-5.66424E-15
 -1      4162 5.83764E-03-7.02684E-05-5.99295E-15
 -1      4163 5.63138E-03-3.96523E-05-5.47408E-15
 -1      4164 5.97306E-03-6.94045E-05-6.33307E-15
 -1      4165 6.10741E-03-6.85888E-05-6.68251E-15
 -1      4166 5.90384E-03-3.90374E-05-6.12937E-15
 -1      4167 6.24055E-03-6.79383E-05-7.04486E-15
 -1      4168 6.37239E-03-6.73915E-05-7.41691E-15
 -1      4169 6.17211E-03-3.88237E-05-6.83163E-15
 -1      4170 6.50273E-03-6.71073E-05-7.79902E-15
 -1      4171 6.63149E-03-6.69891E-05-8.19196E-15
 -1      4172 6.43527E-03-3.92580E-05-7.57525E-15
 -1      4173 6.75841E-03-6.72545E-05-8.59482E-15
 -1      4174 6.88334E-03-6.77394E-05-9.00815E-15
 -1      4175 6.69221E-03-4.06533E-05-8.36003E-15
 -1      4176 7.00595E-03-6.87511E-05-9.43229E-15
 -1      4177 7.12602E-03-6.99794E-05-9.86902E-15
 -1      4178 6.94141E-03-4.33800E-05-9.18608E-15
 -1      4179 7.23789E-03-7.25663E-05-1.02972E-14
 -1      4180 7.34067E-03-7.21786E-05-1.07096E-14
 -1      4181 7.39176E-03-5.59142E-05-1.09125E-14
 -1      4182 7.17524E-03-4.84861E-05-1.00386E-14
 -1      4183 7.35861E-03 5.78008E-05-1.03797E-14
 -1      4184 7.23412E-03 6.27817E-05-9.92591E-15
 -1      4185 3.23754E-03 1.95250E-04-1.46145E-15
 -1      4186 3.16323E-03 1.57662E-04-1.41784E-15
 -1      4187 3.38198E-03 1.95084E-04-1.60760E-15
 -1      4188 1.34944E-02-1.97240E-04-3.31116E-14
 -1      4189 2.26745E-03 1.91454E-04-6.88238E-16
 -1      4190 2.12249E-03 1.88024E-04-6.01854E-16
 -1      4191 2.10151E-03 1.52011E-04-6.08522E-16
 -1      4192 6.05877E-03 9.49286E-05-6.34279E-15
 -1      4193 5.92285E-03 9.74705E-05-5.99859E-15
 -1      4194 7.10856E-03 6.73706E-05-9.48285E-15
 -1      4195 6.98145E-03 7.16871E-05-9.05190E-15
 -1      4196 7.15556E-03 3.75903E-05-9.74583E-15
 -1      4197 6.85319E-03 7.56779E-05-8.63268E-15
 -1      4198 6.72355E-03 7.94484E-05-8.22411E-15
 -1      4199 6.90614E-03 4.58605E-05-8.88360E-15
 -1      4200 7.64256E-03 6.35529E-05-1.13791E-14
 -1      4201 7.49665E-03 6.31513E-05-1.08507E-14
 -1      4202 7.41005E-03 3.67022E-05-1.06592E-14
 -1      4203 7.68175E-03 4.56012E-05-1.16242E-14
 -1      4204 1.32571E-02-2.92950E-04-3.10558E-14
 -1      4205 1.33531E-02-3.01730E-04-3.17539E-14
 -1      4206 1.33584E-02-2.79664E-04-3.17967E-14
 -1      4207 1.32215E-02-2.76276E-04-3.07856E-14
 -1      4208 1.32740E-02-2.39657E-04-3.12804E-14
 -1      4209 1.32541E-02-2.10628E-04-3.12868E-14
 -1      4210 1.33767E-02-1.96214E-04-3.22760E-14
 -1      4211 2.53798E-03 1.92507E-04-8.70154E-16
 -1      4212 2.38772E-03 1.92615E-04-7.65813E-16
 -1      4213 2.36695E-03 1.55768E-04-7.73619E-16
 -1      4214 2.60785E-03 1.56302E-04-9.44259E-16
 -1      4215 5.23190E-03 1.07731E-04-4.44864E-15
 -1      4216 5.09180E-03 1.09369E-04-4.17221E-15
 -1      4217 4.66850E-03 1.13520E-04-3.40968E-15
 -1      4218 4.52652E-03 1.14685E-04-3.17651E-15
 -1      4219 4.45443E-03 7.91820E-05-3.09667E-15
 -1      4220 6.32783E-03 8.93299E-05-7.06340E-15
 -1      4221 6.19376E-03 9.22360E-05-6.69765E-15
 -1      4222 6.12201E-03 6.30607E-05-6.56043E-15
 -1      4223 5.51034E-03 1.04068E-04-5.03569E-15
 -1      4224 5.37142E-03 1.05978E-04-4.73657E-15
 -1      4225 5.29995E-03 7.32119E-05-4.62906E-15
 -1      4226 4.95117E-03 1.10866E-04-3.90709E-15
 -1      4227 4.81006E-03 1.12256E-04-3.65285E-15
 -1      4228 5.02017E-03 7.55768E-05-4.07464E-15
 -1      4229 1.75081E-03-1.75294E-05-4.80437E-16
 -1      4230 1.75113E-03-5.52148E-05-4.89693E-16
 -1      4231 1.87569E-03 1.07134E-06-5.41003E-16
 -1      4232 6.59280E-03 8.29469E-05-7.82649E-15
 -1      4233 6.46083E-03 8.62577E-05-7.43875E-15
 -1      4234 6.38849E-03 5.83228E-05-7.29328E-15
 -1      4235 6.65013E-03 5.26636E-05-8.06638E-15
 -1      4236 2.85705E-03-8.28004E-05-1.26747E-15
 -1      4237 3.00226E-03-8.30444E-05-1.40036E-15
 -1      4238 3.07402E-03-4.55410E-05-1.45290E-15
 -1      4239 5.78612E-03 9.98199E-05-5.66576E-15
 -1      4240 5.64858E-03 1.02031E-04-5.34551E-15
 -1      4241 5.85136E-03 6.70425E-05-5.87121E-15
 -1      4242 1.85970E-03-8.16478E-05-5.53756E-16
 -1      4243 1.99483E-03-7.04279E-05-6.28959E-16
 -1      4244 1.32232E-02-1.83208E-04-3.12409E-14
 -1      4245 5.57717E-03 7.03934E-05-5.22781E-15
 -1      4246 4.16904E-03 8.04948E-05-2.66985E-15
 -1      4247 4.09837E-03 1.17520E-04-2.53901E-15
 -1      4248 3.95499E-03 1.18262E-04-2.34587E-15
 -1      4249 3.23402E-03 1.20104E-04-1.51360E-15
 -1      4250 3.08915E-03 1.20021E-04-1.37425E-15
 -1      4251 4.73823E-03 7.75510E-05-3.56408E-15
 -1      4252 2.02878E-03 7.54442E-05-6.01285E-16
 -1      4253 2.00925E-03 4.80021E-05-6.00526E-16
 -1      4254 2.56633E-03-8.17433E-05-1.02395E-15
 -1      4255 2.71173E-03-8.23663E-05-1.14244E-15
 -1      4256 2.78350E-03-4.52877E-05-1.18904E-15
 -1      4257 3.67026E-03 1.94063E-04-1.92698E-15
 -1      4258 3.52622E-03 1.94687E-04-1.76294E-15
 -1      4259 3.45237E-03 1.57421E-04-1.71274E-15
 -1      4260 2.94411E-03 1.19727E-04-1.24217E-15
 -1      4261 2.79893E-03 1.19209E-04-1.11798E-15
 -1      4262 3.01535E-03 8.23606E-05-1.32981E-15
 -1      4263 2.18587E-03-6.97270E-05-7.47720E-16
 -1      4264 2.37603E-03-7.58747E-05-8.79600E-16
 -1      4265 2.44779E-03-3.97616E-05-9.20461E-16
 -1      4266 2.06630E-03-3.62721E-05-6.62624E-16
 -1      4267 3.74064E-03 1.56418E-04-2.04372E-15
 -1      4268 2.06648E-03 3.86694E-06-6.50115E-16
 -1      4269 1.32077E-02-2.38828E-04-3.07756E-14
 -1      4270 7.54455E-03-2.61255E-05-1.14833E-14
 -1      4271 7.54724E-03-4.24403E-06-1.13868E-14
 -1      4272 7.48301E-03-4.09107E-05-1.12729E-14
 -1      4273 1.31997E-02-1.42524E-04-3.13662E-14
 -1      4274 6.14501E-03 1.15749E-05-6.69815E-15
 -1      4275 6.01107E-03 1.26837E-05-6.34512E-15
 -1      4276 3.37870E-03 1.20023E-04-1.66262E-15
 -1      4277 3.30525E-03 8.25092E-05-1.61196E-15
 -1      4278 3.52315E-03 1.19775E-04-1.82043E-15
 -1      4279 3.33396E-03 1.84957E-05-1.68241E-15
 -1      4280 3.47860E-03 1.84987E-05-1.84051E-15
 -1      4281 3.86849E-03-7.71400E-06-2.32767E-15
 -1      4282 4.01208E-03-7.63670E-06-2.51830E-15
 -1      4283 4.19757E-03 1.81378E-05-2.76054E-15
 -1      4284 4.34035E-03 1.80105E-05-2.97348E-15
 -1      4285 4.48273E-03 1.78378E-05-3.19550E-15
 -1      4286 4.62470E-03 1.76564E-05-3.42741E-15
 -1      4287 4.76620E-03 1.74213E-05-3.66989E-15
 -1      4288 4.90720E-03 1.71715E-05-3.92388E-15
 -1      4289 5.04766E-03 1.68530E-05-4.18816E-15
 -1      4290 5.18754E-03 1.65112E-05-4.46281E-15
 -1      4291 5.32678E-03 1.60784E-05-4.74875E-15
 -1      4292 5.46531E-03 1.56103E-05-5.04577E-15
 -1      4293 5.60308E-03 1.50198E-05-5.35306E-15
 -1      4294 5.74002E-03 1.43767E-05-5.67192E-15
 -1      4295 5.87605E-03 1.35682E-05-6.00342E-15
 -1      4296 6.27774E-03 1.03593E-05-7.06321E-15
 -1      4297 6.40918E-03 8.84023E-06-7.43722E-15
 -1      4298 6.53918E-03 7.17611E-06-7.82127E-15
 -1      4299 6.66762E-03 5.10127E-06-8.21730E-15
 -1      4300 6.79430E-03 2.83943E-06-8.62214E-15
 -1      4301 6.91911E-03 2.03619E-08-9.03767E-15
 -1      4302 7.04174E-03-3.01634E-06-9.46503E-15
 -1      4303 7.16209E-03-6.84547E-06-9.90382E-15
 -1      4304 2.19933E-03 1.13134E-05-7.30793E-16
 -1      4305 7.58491E-03 2.73098E-05-1.13652E-14
 -1      4306 3.04401E-03 1.84262E-05-1.39274E-15
 -1      4307 3.18909E-03 1.84845E-05-1.53343E-15
 -1      4308 3.81132E-03 1.18883E-04-2.16183E-15
 -1      4309 3.66736E-03 1.19397E-04-1.98649E-15
 -1      4310 3.59429E-03 8.21996E-05-1.92954E-15
 -1      4311 3.88227E-03 8.15094E-05-2.28143E-15
 -1      4312 1.32122E-02-1.63502E-04-3.13051E-14
 -1      4313 2.07496E-03 1.27446E-04-6.04958E-16
 -1      4314 2.05467E-03 9.95809E-05-6.06055E-16
 -1      4315 2.16783E-03 8.07323E-05-6.82492E-16
 -1      4316 2.22002E-03 1.30029E-04-6.91748E-16
 -1      4317 7.27395E-03-1.14240E-05-1.03356E-14
 -1      4318 2.89877E-03 1.83563E-05-1.26036E-15
 -1      4319 3.58038E-03-7.84605E-06-1.97222E-15
 -1      4320 3.72458E-03-7.77701E-06-2.14509E-15
 -1      4321 2.34048E-03 1.30648E-04-7.69743E-16
 -1      4322 2.31426E-03 1.05647E-04-7.65027E-16
 -1      4323 2.46099E-03 1.30919E-04-8.52237E-16
 -1      4324 7.50616E-03 8.41538E-06-1.11602E-14
 -1      4325 2.28918E-03 4.66688E-05-7.75516E-16
 -1      4326 2.34670E-03 6.88009E-07-8.33155E-16
 -1      4327 7.37930E-03-3.56955E-05-1.08221E-14
 -1      4328 2.75340E-03 1.82208E-05-1.13591E-15
 -1      4329 7.37946E-03 5.56872E-06-1.06817E-14
 -1      4330 2.53690E-03-4.00476E-06-9.73315E-16
 -1      4331 3.79668E-03 2.94323E-05-2.21070E-15
 -1      4332 2.69023E-03 1.25154E-04-1.02673E-15
 -1      4333 2.56968E-03 1.25470E-04-9.34149E-16
 -1      4334 2.54363E-03 1.00152E-04-9.28999E-16
 -1      4335 2.76131E-03 8.82746E-05-1.10552E-15
 -1      4336 4.12638E-03 5.48617E-05-2.63095E-15
 -1      4337 3.69546E-03 5.57501E-05-2.06749E-15
 -1      4338 3.83941E-03 5.55151E-05-2.24652E-15
 -1      4339 2.28833E-03 8.08000E-05-7.59958E-16
 -1      4340 2.43536E-03 7.10792E-05-8.65058E-16
 -1      4341 3.55122E-03 5.59339E-05-1.89807E-15
 -1      4342 2.54431E-03 6.52268E-05-9.47593E-16
 -1      4343 3.98307E-03 5.52169E-05-2.43390E-15
 -1      4344 2.65327E-03 5.91589E-05-1.03422E-15
 -3
    1PSTEP                         2           1           1          
  100CL  101 1.000000000        4344                     0    1           1
 -4  STRESS      6    1
 -5  SXX         1    4    1    1
 -5  SYY         1    4    2    2
 -5  SZZ         1    4    3    3
 -5  SXY         1    4    1    2
 -5  SYZ         1    4    2    3
 -5  SZX         1    4    3    1
 -1         1 4.61989E+00 5.08617E+00-8.84593E-01 5.05166E+00-1.22669E-12-1.00842E-12
 -1         2-6.44743E-01-2.46959E+01-3.37990E+00-1.63755E-02 2.05998E-12 9.33559E-14
 -1         3 1.99872E+01-1.35491E-02 3.13154E-02-1.34824E-02-4.12373E-13-4.21248E-13
 -1         4 1.99859E+01-1.44825E-02 3.77464E-02 1.46742E-02 1.72762E-13 4.53121E-14
 -1         5 3.27617E+01 6.14144E+00 2.74233E+00 6.22384E+00-1.56680E-14 8.12683E-13
 -1         6 3.57462E+01 1.22615E+01 5.12526E+00-8.64601E+00-3.46390E-14 4.77784E-13
 -1         7 2.08130E+01 6.09811E+00-1.28898E-01-4.72624E+00-4.77396E-15 6.75085E-14
 -1         8 1.96676E+01 5.93370E+00 5.06590E-02-3.27638E+00-5.88418E-15-5.84233E-14
 -1         9 1.91350E+01 5.77134E+00 4.89828E-02-2.52897E+00-3.02883E-15-1.15677E-13
 -1        10 1.88960E+01 5.69230E+00 5.12967E-02-1.95347E+00 1.12410E-15-1.40878E-13
 -1        11 1.87757E+01 5.65192E+00 5.05010E-02-1.45797E+00-2.13718E-15-1.40782E-13
 -1        12 1.87136E+01 5.63063E+00 4.88965E-02-1.01666E+00 2.66735E-15-1.28853E-13
 -1        13 1.86811E+01 5.61950E+00 4.75453E-02-5.96305E-01 2.42428E-16-1.04545E-13
 -1        14 1.86675E+01 5.61483E+00 4.68278E-02-1.91524E-01 3.95072E-15-8.08466E-14
 -1        15 1.86680E+01 5.61498E+00 4.68681E-02 2.08537E-01 4.42192E-15-7.10350E-14
 -1        16 1.86826E+01 5.61999E+00 4.76808E-02 6.14146E-01 8.81966E-15-5.85064E-14
 -1        17 1.87164E+01 5.63138E+00 4.91797E-02 1.03647E+00 7.36802E-15-3.57893E-14
 -1        18 1.87797E+01 5.65297E+00 5.09033E-02 1.48099E+00 5.56543E-15 4.23468E-15
 -1        19 1.89011E+01 5.69380E+00 5.15736E-02 1.98237E+00 1.01204E-14 4.89990E-14
 -1        20 1.91405E+01 5.77391E+00 4.87671E-02 2.56596E+00 9.91915E-15 1.24407E-13
 -1        21 1.96634E+01 5.94842E+00 4.58183E-02 3.31057E+00 1.06928E-14 2.54544E-13
 -1        22 2.11960E+01 6.37991E+00 1.39512E-01 4.52391E+00 1.38778E-17 4.62849E-13
 -1        23 2.30222E+01-1.37882E+00-9.38085E-01-7.11543E-01-1.92797E-14 3.64347E-13
 -1        24 1.93574E+01-9.94617E-02-3.09827E-01 6.30997E-02-5.56586E-15 2.54467E-13
 -1        25 1.86672E+01-5.63195E-02-6.87656E-02 6.06766E-02-6.83373E-15 1.76918E-13
 -1        26 1.84630E+01-2.20902E-02-6.41811E-03 3.29084E-02 7.65197E-15 7.20188E-14
 -1        27 1.84725E+01-1.18112E-02 1.62508E-03 2.24951E-02 1.43552E-14 3.89775E-14
 -1        28 1.85845E+01-6.26525E-03 1.80749E-03 1.61674E-02-7.18295E-15 9.66406E-14
 -1        29 1.87425E+01-3.14125E-03 1.71941E-03 1.19874E-02 1.67834E-15 5.35240E-14
 -1        30 1.89152E+01-1.32839E-03 1.87270E-03 8.99210E-03 4.51550E-15 4.26196E-14
 -1        31 1.90857E+01-2.95756E-04 1.98279E-03 6.72792E-03-2.15366E-15 2.10977E-14
 -1        32 1.92448E+01 2.42318E-04 1.93652E-03 4.96705E-03-2.31293E-14-9.54829E-14
 -1        33 1.93888E+01 4.48233E-04 1.73397E-03 3.58376E-03 4.30877E-14-3.54257E-14
 -1        34 1.95177E+01 4.19054E-04 1.40216E-03 2.50269E-03-3.03181E-14-2.24257E-14
 -1        35 1.96340E+01 2.13534E-04 9.62760E-04 1.67688E-03 3.56673E-15-2.53760E-13
 -1        36 1.97422E+01-1.33967E-04 4.24746E-04 1.07877E-03 2.02832E-14-1.70119E-13
 -1        37 1.98483E+01-6.05496E-04-2.15606E-04 6.97560E-04-3.13859E-14-8.63326E-14
 -1        38 1.99602E+01-1.19396E-03-9.73167E-04 5.39828E-04-1.50100E-14-1.24646E-13
 -1        39 2.00873E+01-1.89808E-03-1.87176E-03 6.32373E-04 4.60091E-15-1.59870E-13
 -1        40 2.02408E+01-2.71630E-03-2.94059E-03 1.02672E-03 1.78282E-14-7.05106E-14
 -1        41 2.04337E+01-3.63795E-03-4.20740E-03 1.80496E-03 8.84625E-15-9.94458E-14
 -1        42 2.06812E+01-4.62903E-03-5.68427E-03 3.08580E-03-6.32311E-14-2.03760E-13
 -1        43 2.10004E+01-5.60917E-03-7.33832E-03 5.02745E-03-2.05780E-14-2.79421E-13
 -1        44 2.14093E+01-6.41516E-03-9.03353E-03 7.81874E-03 8.90206E-14-2.21732E-14
 -1        45 2.19247E+01-6.74778E-03-1.04222E-02 1.16386E-02-4.63171E-15 2.64489E-13
 -1        46 2.25577E+01-6.10587E-03-1.07624E-02 1.65435E-02-5.24335E-14-1.48282E-13
 -1        47 2.33050E+01-3.73587E-03-8.66454E-03 2.22109E-02 1.65445E-14 9.75782E-15
 -1        48 2.41345E+01 1.32056E-03-1.88163E-03 2.74392E-02-1.10811E-14 3.86323E-15
 -1        49 2.49640E+01 9.89990E-03 1.24430E-02 2.93568E-02-1.74973E-14-5.12958E-14
 -1        50 2.56366E+01 2.18501E-02 3.62033E-02 2.26201E-02-2.36710E-14-1.32084E-13
 -1        51 2.59084E+01 3.45370E-02 6.64561E-02-2.19329E-04-9.63292E-15 7.74511E-15
 -1        52 2.54854E+01 4.15190E-02 8.99858E-02-4.46942E-02-4.14703E-14 1.38719E-13
 -1        53 2.41547E+01 3.37425E-02 8.22307E-02-1.04631E-01 4.95400E-14 3.49196E-13
 -1        54 2.20165E+01 6.03191E-03 2.20503E-02-1.51836E-01 3.96903E-14 5.55653E-13
 -1        55 1.96759E+01-3.37630E-02-7.83486E-02-1.43369E-01-1.09435E-13 3.36120E-13
 -1        56 1.81119E+01-6.36773E-02-1.59380E-01-5.94221E-02-7.82933E-14-1.08835E-13
 -1        57 1.81071E+01-6.33876E-02-1.58545E-01 6.06071E-02 6.48756E-14 1.91602E-13
 -1        58 1.96544E+01-3.30021E-02-7.61760E-02 1.43636E-01-2.70773E-14 1.06269E-13
 -1        59 2.19623E+01 6.85033E-03 2.40995E-02 1.51050E-01 8.20091E-15-1.24692E-13
 -1        60 2.40515E+01 3.44402E-02 8.35955E-02 1.03286E-01-1.01245E-13 1.10464E-13
 -1        61 2.53219E+01 4.20752E-02 9.07374E-02 4.31967E-02 7.16163E-14-6.56107E-14
 -1        62 2.56762E+01 3.50787E-02 6.70996E-02-1.38532E-03 9.01557E-15-3.38857E-13
 -1        63 2.53270E+01 2.24243E-02 3.71128E-02-2.45022E-02-1.44571E-13-7.32884E-13
 -1        64 2.45667E+01 1.04407E-02 1.36039E-02-3.17782E-02 2.40465E-14-1.09198E-12
 -1        65 2.36377E+01 1.65952E-03-6.94968E-04-3.06318E-02-9.47059E-14-5.63260E-13
 -1        66 2.26985E+01-3.88527E-03-7.89332E-03-2.63150E-02 3.95236E-14-4.18053E-13
 -1        67 2.18375E+01-7.16251E-03-1.12303E-02-2.15058E-02 1.33732E-13-2.74016E-13
 -1        68 2.11011E+01-9.25731E-03-1.35985E-02-1.69372E-02 2.11199E-14 1.19784E-13
 -1        69 2.05189E+01-1.08260E-02-1.68966E-02-1.17679E-02 4.32820E-14-1.22931E-14
 -1        70 2.01262E+01-1.02486E-02-1.89603E-02-2.22899E-03 9.07425E-14 3.90403E-13
 -1        71 1.99691E+01 1.94617E-03-3.80845E-03 1.13306E-02-5.23187E-14 5.56943E-13
 -1        72 2.10347E+01-4.04802E-01-9.80252E-01-3.11364E-01 8.06299E-15 8.14016E-13
 -1        73 1.93220E+01-6.58803E-02-2.91135E-01-5.37686E-02-4.06446E-15 7.25477E-13
 -1        74 1.86768E+01-2.05064E-02-6.42709E-02-2.02946E-02-1.11890E-16 6.67945E-13
 -1        75 1.84721E+01-9.88347E-03-9.29556E-03-1.53827E-02 9.98225E-16 6.03776E-13
 -1        76 1.84815E+01-5.18005E-03 6.97671E-04-1.22882E-02-5.61888E-16 5.25533E-13
 -1        77 1.85928E+01-2.64498E-03 1.75118E-03-9.98028E-03 6.63014E-15 5.38279E-13
 -1        78 1.87497E+01-1.19975E-03 1.86377E-03-8.19349E-03-1.85597E-14 6.72645E-13
 -1        79 1.89216E+01-3.71880E-04 2.01852E-03-6.70156E-03 1.92475E-14 6.29363E-13
 -1        80 1.90912E+01 7.66614E-05 2.10066E-03-5.39738E-03-1.07481E-14 4.78230E-13
 -1        81 1.92496E+01 2.77139E-04 2.02591E-03-4.23855E-03 3.48313E-14 3.65645E-13
 -1        82 1.93931E+01 3.06962E-04 1.79612E-03-3.20709E-03 4.77781E-15 3.20869E-13
 -1        83 1.95217E+01 2.13425E-04 1.43856E-03-2.29356E-03-1.12708E-14 3.80948E-13
 -1        84 1.96378E+01 2.58618E-05 9.76457E-04-1.49218E-03 2.53053E-14 2.30471E-13
 -1        85 1.97458E+01-2.37376E-04 4.22180E-04-8.00902E-04-4.47135E-16 2.62930E-13
 -1        86 1.98517E+01-5.64077E-04-2.21450E-04-2.23634E-04-1.41668E-14 2.12336E-13
 -1        87 1.99629E+01-9.43870E-04-9.57432E-04 2.26072E-04 2.37495E-14 6.63044E-14
 -1        88 2.00879E+01-1.36343E-03-1.78916E-03 5.20193E-04-7.01806E-14 2.85402E-13
 -1        89 2.02365E+01-1.80037E-03-2.71232E-03 6.10256E-04 4.12209E-14 3.74516E-13
 -1        90 2.04195E+01-2.21487E-03-3.70206E-03 4.20570E-04-2.36690E-14 1.56018E-13
 -1        91 2.06479E+01-2.53866E-03-4.69259E-03-1.58154E-04 3.65998E-14 5.90064E-14
 -1        92 2.09325E+01-2.66097E-03-5.54499E-03-1.27150E-03-2.09409E-14 5.25994E-14
 -1        93 2.12817E+01-2.41411E-03-5.99961E-03-3.09268E-03-1.46476E-14 1.47526E-13
 -1        94 2.16983E+01-1.56557E-03-5.61356E-03-5.78678E-03-3.30934E-14 2.22819E-13
 -1        95 2.21750E+01 1.66152E-04-3.70033E-03-9.41972E-03-1.63460E-14 2.70249E-13
 -1        96 2.26871E+01 3.03969E-03 6.71276E-04-1.37709E-02 2.76739E-14 4.17079E-13
 -1        97 2.31833E+01 7.11433E-03 8.48501E-03-1.80123E-02 1.89455E-14 4.98518E-13
 -1        98 2.35777E+01 1.19348E-02 2.01728E-02-2.02885E-02 1.80255E-14 2.61822E-13
 -1        99 2.37474E+01 1.61524E-02 3.44264E-02-1.74597E-02-5.88103E-14 2.32536E-13
 -1       100 2.35482E+01 1.73917E-02 4.67025E-02-5.66110E-03-2.03715E-14 8.08341E-13
 -1       101 2.28608E+01 1.29479E-02 4.87243E-02 1.74397E-02 5.24390E-14 4.42747E-13
 -1       102 2.16720E+01 1.76077E-03 3.14174E-02 4.85895E-02-5.33549E-14 1.58099E-13
 -1       103 2.01614E+01-1.33062E-02-7.41073E-03 7.57565E-02-2.40449E-14 3.15747E-13
 -1       104 1.87234E+01-2.55692E-02-5.54236E-02 8.15456E-02-6.10703E-14 4.21010E-13
 -1       105 1.78455E+01-2.85789E-02-8.82660E-02 5.55496E-02 9.06150E-14-4.77934E-14
 -1       106 1.78657E+01-2.09336E-02-8.58677E-02 6.02852E-03-1.29591E-13-3.39418E-13
 -1       107 1.87699E+01-7.16585E-03-4.97216E-02-4.32740E-02-3.46278E-14-4.52995E-13
 -1       108 2.01990E+01 6.14193E-03-1.19785E-03-7.06654E-02 1.17713E-13-1.03483E-12
 -1       109 2.16615E+01 1.44571E-02 3.57564E-02-7.07209E-02-6.88561E-14-6.61630E-13
 -1       110 2.27731E+01 1.68195E-02 5.08035E-02-5.26070E-02 3.15736E-14-4.36913E-13
 -1       111 2.33673E+01 1.47597E-02 4.72945E-02-2.92049E-02 4.81134E-14-3.49221E-13
 -1       112 2.34664E+01 1.05765E-02 3.44595E-02-9.21911E-03-8.34375E-14 1.94712E-13
 -1       113 2.31930E+01 6.08886E-03 2.01824E-02 4.28634E-03 1.58663E-13-2.14971E-13
 -1       114 2.26914E+01 2.25123E-03 8.55639E-03 1.18313E-02-8.19232E-14-8.42292E-13
 -1       115 2.20848E+01-7.02522E-04 4.74931E-04 1.52403E-02 1.53828E-13-1.16362E-12
 -1       116 2.14641E+01-2.94117E-03-4.96665E-03 1.62795E-02-1.68459E-14-1.13396E-12
 -1       117 2.08929E+01-4.75261E-03-9.40207E-03 1.60543E-02-6.34028E-15-1.28038E-12
 -1       118 2.04204E+01-6.19275E-03-1.40860E-02 1.46294E-02 2.89836E-14-8.38698E-13
 -1       119 2.00963E+01-6.13474E-03-1.68104E-02 9.43111E-03 1.57516E-14-6.54443E-13
 -1       120 1.99755E+01 6.25533E-03-1.15739E-03-5.62172E-03 1.91725E-13-6.69146E-13
 -1       121 1.99993E+01-1.58881E-02-2.01144E-03-1.06333E-02-6.10174E-13 9.65514E-14
 -1       122 1.99918E+01 1.09521E-01-1.58309E-02 4.18571E-03 6.31563E-14-1.26525E-14
 -1       123 1.99941E+01 4.26869E-01-1.10500E-02 1.23929E-02 2.93977E-13 2.60303E-13
 -1       124 1.99977E+01 8.54493E-01-4.01352E-03 1.56547E-02 4.07928E-13 1.02777E-13
 -1       125 2.00016E+01 1.31937E+00 2.35908E-03 1.58304E-02 6.12838E-13-2.84411E-13
 -1       126 2.00054E+01 1.74867E+00 7.78229E-03 1.39209E-02-1.26882E-12-1.64807E-13
 -1       127 2.00083E+01 2.09689E+00 1.21153E-02 1.00474E-02-1.08409E-12 3.43785E-13
 -1       128 2.00102E+01 2.30757E+00 1.50352E-02 4.67349E-03-3.48094E-13 1.96340E-13
 -1       129 2.00108E+01 2.34805E+00 1.60536E-02-1.59896E-03 8.87338E-13 1.09533E-13
 -1       130 2.00099E+01 2.20756E+00 1.48548E-02-7.95932E-03 5.27861E-13-1.42936E-13
 -1       131 2.00074E+01 1.90062E+00 1.13013E-02-1.36713E-02-1.23833E-13-3.86910E-13
 -1       132 2.00037E+01 1.47474E+00 5.69932E-03-1.72337E-02-8.58463E-13 3.47384E-13
 -1       133 1.99991E+01 9.77878E-01-2.13289E-03-1.84067E-02-1.27252E-12-2.51153E-13
 -1       134 1.99931E+01 4.95936E-01-1.22892E-02-1.67674E-02-1.25707E-12-5.51411E-14
 -1       135 1.99925E+01 1.35477E-01-1.59138E-02-8.34965E-03-1.42201E-12-1.49362E-13
 -1       136 1.99922E+01-1.20348E-02-1.82863E-03 2.22236E-02-7.06704E-13 1.46477E-13
 -1       137-1.33045E+00-1.99607E+01-3.08332E+00-3.79758E+00 2.44649E-12 4.25496E-13
 -1       138-1.57309E+00-8.75772E+00-2.28021E+00-3.10511E+00 1.83675E-12 8.20372E-13
 -1       139 2.75544E+00 3.30886E+00-1.09316E+00 3.34449E+00 1.35530E-12 8.15736E-13
 -1       140 1.53393E+01 1.04508E+01 3.91323E-01 1.25160E+01 6.70075E-13 9.47298E-13
 -1       141 3.43782E+01 1.01177E+01 1.79850E+00 1.80878E+01 6.16229E-13 9.54070E-13
 -1       142 5.33634E+01 5.30085E+00 2.89193E+00 1.56541E+01 2.68938E-13 6.51201E-13
 -1       143 6.47535E+01 1.24192E+00 3.47651E+00 5.32979E+00 7.97834E-14 9.35779E-14
 -1       144 6.34439E+01 1.70869E+00 3.41314E+00-7.61603E+00 1.61729E-13-4.12254E-13
 -1       145 5.02801E+01 6.21107E+00 2.73179E+00-1.67200E+01 2.27970E-13-9.12992E-13
 -1       146 3.04487E+01 1.07115E+01 1.54098E+00-1.76346E+01 5.33573E-13-7.55895E-13
 -1       147 1.15635E+01 9.43006E+00 2.76719E-02-1.04331E+01 1.49608E-12-1.48531E-12
 -1       148 1.20664E+00 6.91839E-01-1.40556E+00-1.49367E+00 1.87766E-12-1.45023E-12
 -1       149-1.74639E+00-1.20681E+01-2.53521E+00 3.66896E+00 1.71962E-12-5.80161E-13
 -1       150-1.08895E+00-2.21080E+01-3.20510E+00 2.90749E+00 1.44079E-12-2.34117E-13
 -1       151-7.81751E-01-2.40687E+01-3.33708E+00-1.48520E+00 2.46692E-13-3.20993E-14
 -1       152-1.67346E+00-1.75240E+01-2.95589E+00-4.25669E+00-1.31617E-12-6.75349E-13
 -1       153-1.20876E+00-5.86806E+00-2.10407E+00-2.21655E+00-1.99907E-12-8.60895E-13
 -1       154 1.85428E+01 1.05601E+01 5.74744E-01 1.37897E+01-6.29274E-13-6.32716E-13
 -1       155 3.72390E+01 9.51808E+00 1.94719E+00 1.82565E+01 1.69670E-13 4.95881E-13
 -1       156 5.54417E+01 4.83073E+00 3.06139E+00 1.50438E+01 2.62179E-13 6.59472E-13
 -1       157 6.63919E+01 1.10617E+00 3.65984E+00 4.16350E+00 2.80817E-14 4.63102E-13
 -1       158 6.41678E+01 1.97778E+00 3.54888E+00-8.39468E+00-2.21803E-13 1.06992E-12
 -1       159 5.00278E+01 6.50862E+00 2.76525E+00-1.69606E+01-8.04079E-13 1.94472E-12
 -1       160 3.10676E+01 1.05618E+01 1.55489E+00-1.77351E+01-1.36963E-12 2.39703E-12
 -1       161 1.36690E+01 9.83504E+00 1.47332E-01-1.15451E+01-1.84364E-12 1.95055E-12
 -1       162 1.89037E+00 1.83393E+00-1.30806E+00-2.26410E+00-2.29872E-12 1.57108E-12
 -1       163-1.71717E+00-1.00034E+01-2.43667E+00 3.48962E+00-1.19404E-12 5.49422E-13
 -1       164-1.35784E+00-2.08505E+01-3.16857E+00 3.78880E+00 8.65141E-13 4.94951E-14
 -1       165 2.10080E+01 3.69344E+00-5.74132E-02-3.61164E+00-5.50116E-14 5.55805E-15
 -1       166 1.99867E+01 4.20804E+00-4.59589E-02-2.81031E+00-5.80586E-14-6.63532E-14
 -1       167 1.95093E+01 4.47626E+00-3.13446E-02-2.19791E+00-2.71627E-14-1.02456E-13
 -1       168 1.92690E+01 4.61512E+00-2.34892E-02-1.67653E+00-1.52781E-14-1.18596E-13
 -1       169 1.91402E+01 4.69703E+00-1.95328E-02-1.22061E+00-3.02861E-15-1.04760E-13
 -1       170 1.90678E+01 4.74820E+00-1.74403E-02-7.93148E-01 8.92244E-15-9.08310E-14
 -1       171 1.90315E+01 4.77618E+00-1.64280E-02-3.87435E-01 3.13642E-14-6.46497E-14
 -1       172 1.90210E+01 4.78476E+00-1.61365E-02 8.27792E-03 5.73226E-14-5.13010E-14
 -1       173 1.90332E+01 4.77491E+00-1.64691E-02 4.04323E-01 7.21326E-14-4.17747E-14
 -1       174 1.90715E+01 4.74523E+00-1.75214E-02 8.11093E-01 7.66142E-14-3.45678E-14
 -1       175 1.91447E+01 4.69262E+00-1.96874E-02 1.23302E+00 8.34346E-14-5.43489E-15
 -1       176 1.92784E+01 4.60526E+00-2.40045E-02 1.70003E+00 1.04561E-13 3.46320E-14
 -1       177 1.95230E+01 4.45927E+00-3.28480E-02 2.22854E+00 1.12281E-13 8.86478E-14
 -1       178 2.00101E+01 4.18346E+00-4.72142E-02 2.84869E+00 1.07610E-13 1.82975E-13
 -1       179 2.11295E+01 3.46340E+00-5.97934E-02 3.53825E+00 7.66175E-14 3.19113E-13
 -1       180 2.24124E+01 1.14351E+00-3.36447E-01 3.01593E+00 3.96844E-14 4.81254E-13
 -1       181 2.19647E+01 8.58261E-01 6.83345E-04-1.96046E+00-5.64548E-14 1.09510E-13
 -1       182 2.04391E+01 1.90354E-01-9.92940E-03-7.65542E-01-5.04024E-14 8.83408E-14
 -1       183 1.96625E+01 1.01652E-01 1.36123E-02-2.87025E-01-4.53292E-14 7.95466E-14
 -1       184 1.93217E+01 4.71367E-02 1.00175E-02-6.93389E-02-3.92600E-14 3.80793E-14
 -1       185 1.91911E+01 2.25948E-02 5.17870E-03 3.79646E-02 6.27276E-15 2.00265E-14
 -1       186 1.91771E+01 9.63739E-03 2.44478E-03 9.08442E-02-1.99660E-14 1.74808E-14
 -1       187 1.92257E+01 2.37269E-03 1.15623E-03 1.13794E-01 1.66763E-14 3.77130E-14
 -1       188 1.93059E+01-1.65422E-03 5.39116E-04 1.19758E-01-1.27690E-14 6.06284E-14
 -1       189 1.93996E+01-3.65374E-03 2.25949E-04 1.16380E-01-4.82757E-14 8.69318E-14
 -1       190 1.94966E+01-4.30221E-03 6.88121E-05 1.08550E-01 6.77258E-15 9.45633E-14
 -1       191 1.95918E+01-4.00262E-03 6.65356E-06 9.95844E-02-2.46471E-14-3.76059E-14
 -1       192 1.96835E+01-2.99938E-03 1.01549E-05 9.18548E-02-7.63446E-14-6.24804E-14
 -1       193 1.97729E+01-1.43316E-03 6.30188E-05 8.71653E-02-1.84406E-14-5.90608E-14
 -1       194 1.98627E+01 6.29450E-04 1.55601E-04 8.70019E-02 8.59098E-14-3.39262E-14
 -1       195 1.99575E+01 3.17654E-03 2.82078E-04 9.27101E-02-3.79097E-14 6.61499E-14
 -1       196 2.00633E+01 6.23476E-03 4.38469E-04 1.05619E-01-1.69244E-14 7.12568E-14
 -1       197 2.01874E+01 9.85111E-03 6.20566E-04 1.27118E-01-1.25418E-14-1.52703E-15
 -1       198 2.03385E+01 1.40664E-02 8.21145E-04 1.58666E-01-2.86351E-14-3.44549E-14
 -1       199 2.05264E+01 1.88707E-02 1.02585E-03 2.01714E-01-1.02104E-13-5.03501E-14
 -1       200 2.07618E+01 2.41235E-02 1.20713E-03 2.57460E-01-2.00199E-14-9.55800E-14
 -1       201 2.10558E+01 2.94130E-02 1.31600E-03 3.26329E-01 1.07395E-13-6.88795E-14
 -1       202 2.14185E+01 3.38146E-02 1.27333E-03 4.06992E-01 1.20057E-13-1.47344E-13
 -1       203 2.18564E+01 3.55088E-02 9.66258E-04 4.94642E-01-7.38522E-14 6.51356E-15
 -1       204 2.23690E+01 3.12551E-02 2.63382E-04 5.78227E-01 9.96759E-14 1.38338E-13
 -1       205 2.29418E+01 1.58772E-02-9.29142E-04 6.36557E-01-7.37809E-14 5.62733E-14
 -1       206 2.35385E+01-1.76309E-02-2.54184E-03 6.34077E-01-2.36243E-14-3.49471E-14
 -1       207 2.40915E+01-7.58753E-02-4.17356E-03 5.19547E-01-5.09889E-14-3.89185E-14
 -1       208 2.44954E+01-1.58148E-01-5.01690E-03 2.35351E-01 5.35075E-14-1.01304E-14
 -1       209 2.46136E+01-2.43314E-01-4.16720E-03-2.50181E-01 7.68786E-14 1.05965E-13
 -1       210 2.43145E+01-2.76761E-01-1.54400E-03-8.80096E-01 8.16317E-14 9.90583E-14
 -1       211 2.35513E+01-1.82562E-01 9.20228E-04-1.44230E+00 2.79646E-14 1.22432E-13
 -1       212 2.24751E+01 6.89483E-02 3.77543E-04-1.59302E+00-9.95759E-14 4.23359E-14
 -1       213 2.14857E+01 3.71778E-01-3.40331E-03-1.07074E+00-1.44293E-13 2.32046E-13
 -1       214 2.10745E+01 5.10176E-01-5.40392E-03-5.45523E-03 1.39272E-13 3.10463E-13
 -1       215 2.14678E+01 3.67830E-01-3.15989E-03 1.05470E+00-1.81142E-13-6.31223E-14
 -1       216 2.24324E+01 6.38659E-02 8.65823E-04 1.56586E+00-1.20511E-13-9.74880E-14
 -1       217 2.34743E+01-1.86327E-01 1.32960E-03 1.40344E+00 5.65485E-14-2.55059E-13
 -1       218 2.41954E+01-2.79418E-01-1.67309E-03 8.33105E-01-3.86219E-14-9.65348E-14
 -1       219 2.44465E+01-2.45724E-01-4.47527E-03 1.96756E-01-2.01982E-13-1.62712E-13
 -1       220 2.42744E+01-1.60953E-01-5.22035E-03-2.95361E-01-1.87632E-13-2.83415E-13
 -1       221 2.38106E+01-7.92120E-02-4.27142E-03-5.87185E-01-1.60503E-13-1.90421E-13
 -1       222 2.31914E+01-2.09910E-02-2.53659E-03-7.09777E-01 3.11974E-13-2.33881E-13
 -1       223 2.25237E+01 1.35708E-02-7.84088E-04-7.18695E-01 1.10018E-13 9.77003E-14
 -1       224 2.18791E+01 3.17765E-02 6.02494E-04-6.61623E-01 1.80120E-13-9.64940E-16
 -1       225 2.13010E+01 4.16666E-02 1.50069E-03-5.68613E-01 2.79487E-13 1.45895E-13
 -1       226 2.08152E+01 4.98889E-02 1.83075E-03-4.52775E-01-2.73442E-14 1.43837E-13
 -1       227 2.04380E+01 6.12119E-02 1.83588E-03-3.15136E-01 1.96586E-13 2.31168E-13
 -1       228 2.01695E+01 7.46677E-02 1.30400E-03-1.55367E-01 1.77476E-14 3.53342E-13
 -1       229 2.09556E+01 2.77051E-01-5.13431E-02 1.16602E+00 5.07441E-14 4.35046E-13
 -1       230 1.98597E+01 1.26834E-01 8.30714E-03 4.44323E-01 4.30741E-14 3.56569E-13
 -1       231 1.93521E+01 5.80434E-02 1.27390E-02 1.51308E-01 4.51770E-14 2.95644E-13
 -1       232 1.91413E+01 2.77101E-02 7.63790E-03 1.20458E-02 2.94504E-14 2.72752E-13
 -1       233 1.90905E+01 1.31051E-02 3.83736E-03-5.71778E-02-3.17422E-15 2.79002E-13
 -1       234 1.91257E+01 5.23426E-03 1.92648E-03-8.99031E-02-3.85615E-14 2.86746E-13
 -1       235 1.92050E+01 8.09708E-04 1.03244E-03-1.02285E-01 5.27771E-14 2.67132E-13
 -1       236 1.93041E+01-1.60259E-03 5.84241E-04-1.03196E-01 6.57406E-14 2.11074E-13
 -1       237 1.94093E+01-2.72994E-03 3.36995E-04-9.80446E-02 5.91236E-14 1.56497E-13
 -1       238 1.95130E+01-2.98759E-03 1.96745E-04-9.03687E-02 1.50803E-14 1.72221E-13
 -1       239 1.96123E+01-2.62852E-03 1.23916E-04-8.26051E-02 4.09282E-14 1.34831E-13
 -1       240 1.97069E+01-1.80912E-03 9.76309E-05-7.65128E-02 6.93542E-14 8.86279E-14
 -1       241 1.97990E+01-6.23124E-04 1.04442E-04-7.34327E-02 4.57363E-15 6.86518E-14
 -1       242 1.98922E+01 8.76836E-04 1.34417E-04-7.44544E-02 3.96761E-14 4.14019E-14
 -1       243 1.99917E+01 2.66195E-03 1.79124E-04-8.05182E-02 4.07415E-14 6.36644E-14
 -1       244 2.01038E+01 4.70945E-03 2.30035E-04-9.24599E-02-1.55387E-13 8.02199E-14
 -1       245 2.02355E+01 6.98036E-03 2.76998E-04-1.10991E-01 1.47643E-14 8.03667E-14
 -1       246 2.03945E+01 9.38825E-03 3.06728E-04-1.36598E-01 5.74942E-14 1.02535E-13
 -1       247 2.05888E+01 1.17537E-02 3.01603E-04-1.69318E-01 4.05412E-14 8.74889E-14
 -1       248 2.08253E+01 1.37379E-02 2.39633E-04-2.08357E-01-1.18345E-13 1.75425E-13
 -1       249 2.11091E+01 1.47516E-02 9.74956E-05-2.51469E-01-2.24169E-14 1.73554E-13
 -1       250 2.14408E+01 1.38432E-02-1.40117E-04-2.94066E-01 2.13069E-14 9.27050E-14
 -1       251 2.18134E+01 9.60045E-03-4.60950E-04-3.28039E-01-2.59983E-14-9.60271E-14
 -1       252 2.22082E+01 1.61857E-04-7.94416E-04-3.40526E-01-1.07137E-13-2.18445E-15
 -1       253 2.25901E+01-1.64457E-02-9.80079E-04-3.13264E-01-3.41636E-14 3.42054E-13
 -1       254 2.29035E+01-4.12667E-02-7.75571E-04-2.24009E-01 2.09279E-14 4.35328E-13
 -1       255 2.30727E+01-7.22666E-02 3.86028E-05-5.25513E-02-7.82148E-14 4.89987E-13
 -1       256 2.30127E+01-1.01284E-01 1.42492E-03 2.05939E-01-1.67154E-13 4.26110E-13
 -1       257 2.26547E+01-1.12134E-01 2.76331E-03 5.20688E-01 9.58543E-14 3.81116E-13
 -1       258 2.19902E+01-8.43694E-02 2.80398E-03 8.07777E-01 5.91081E-14 5.23053E-13
 -1       259 2.11183E+01-7.45185E-03 5.16767E-04 9.38121E-01-6.12209E-14 3.66267E-13
 -1       260 2.02617E+01 9.97642E-02-3.46780E-03 7.94929E-01 1.20083E-13 2.30000E-13
 -1       261 1.97064E+01 1.86003E-01-6.42773E-03 3.66111E-01 3.03346E-13 6.10562E-14
 -1       262 1.96653E+01 1.99531E-01-5.63964E-03-2.05613E-01 4.01372E-14-7.58000E-14
 -1       263 2.01506E+01 1.31708E-01-1.52111E-03-6.88695E-01 1.86235E-13-4.16671E-13
 -1       264 2.09646E+01 2.50258E-02 2.80914E-03-9.06584E-01 1.31059E-13-5.84143E-13
 -1       265 2.18178E+01-6.47313E-02 4.42756E-03-8.33227E-01-2.63616E-13-3.33972E-13
 -1       266 2.24736E+01-1.08194E-01 3.34796E-03-5.67556E-01-1.09253E-14-2.92998E-13
 -1       267 2.28186E+01-1.08515E-01 1.13222E-03-2.42900E-01-3.95647E-15-1.45952E-13
 -1       268 2.28521E+01-8.44437E-02-7.05590E-04 4.27140E-02-1.79597E-13-2.12448E-13
 -1       269 2.26393E+01-5.37090E-02-1.56778E-03 2.45476E-01 3.71161E-13-1.65969E-13
 -1       270 2.22662E+01-2.64956E-02-1.55570E-03 3.61871E-01 9.62046E-14-2.12793E-13
 -1       271 2.18130E+01-6.12638E-03-1.04652E-03 4.07529E-01 2.44238E-13-3.25139E-13
 -1       272 2.13433E+01 8.12942E-03-4.39106E-04 4.01591E-01 6.52207E-15-3.49295E-13
 -1       273 2.09043E+01 1.87634E-02-1.05046E-04 3.58572E-01 8.36123E-14-1.65943E-13
 -1       274 2.05311E+01 2.85635E-02-3.40510E-04 2.85790E-01-1.83471E-13-4.69479E-13
 -1       275 2.02509E+01 4.05097E-02-1.60772E-04 1.84346E-01-1.25859E-13-2.52264E-13
 -1       276 2.00744E+01 4.33334E-02 1.52258E-03 6.35760E-02-2.43534E-14-2.02181E-13
 -1       277 2.00606E+01 1.50145E-01 1.25065E-03 1.35273E-01 5.55130E-14 4.42904E-13
 -1       278 2.00445E+01 3.62372E-01 6.34894E-04 2.54997E-01 1.59356E-13-7.69128E-14
 -1       279 2.00216E+01 6.44471E-01 3.52627E-04 3.33507E-01 2.29197E-14 2.43698E-14
 -1       280 2.00005E+01 9.64538E-01-6.12987E-05 3.60273E-01-4.29702E-13 1.21553E-13
 -1       281 1.99812E+01 1.27798E+00-7.42377E-04 3.37760E-01-2.39023E-13-9.22289E-13
 -1       282 1.99641E+01 1.55507E+00-1.36374E-03 2.69285E-01 4.73437E-14-6.68851E-14
 -1       283 1.99511E+01 1.75249E+00-1.83532E-03 1.62978E-01 5.24430E-14 5.51573E-13
 -1       284 1.99442E+01 1.84205E+00-2.05241E-03 3.15992E-02 1.56312E-13 6.06767E-13
 -1       285 1.99446E+01 1.80876E+00-1.98009E-03-1.07908E-01 2.21236E-14-3.56456E-13
 -1       286 1.99531E+01 1.65421E+00-1.61161E-03-2.36137E-01-1.19306E-13-1.36035E-13
 -1       287 1.99688E+01 1.40268E+00-9.84776E-04-3.32314E-01-2.59144E-13-5.18689E-13
 -1       288 1.99911E+01 1.07944E+00-3.14781E-04-3.82652E-01-3.31288E-13-2.37752E-13
 -1       289 2.00180E+01 7.34452E-01 2.25983E-04-3.72205E-01-3.07677E-13 1.24722E-14
 -1       290 2.00503E+01 4.20022E-01 1.34561E-03-2.91909E-01-3.29822E-13-1.18429E-13
 -1       291 2.01104E+01 2.32360E-01 1.63895E-03-2.54099E-01-1.11478E-13 3.80746E-13
 -1       292-8.72631E-01-1.09655E+01-1.00995E+00 1.15109E+00 6.09027E-13 4.19317E-13
 -1       293 2.44896E+00-8.70312E+00-8.28791E-01 3.28351E+00 7.38437E-13-1.02633E-13
 -1       294 9.29730E+00-5.13618E+00-4.75910E-01 5.68799E+00 8.19622E-13 2.38844E-13
 -1       295 1.80842E+01-9.84367E-01-1.14076E-01 7.19886E+00 6.25167E-13 1.52794E-13
 -1       296 2.89157E+01 1.87264E+00 2.70885E-01 6.95921E+00 1.40915E-13 2.85522E-13
 -1       297 3.79038E+01 4.83443E+00 6.41598E-01 5.91418E+00 4.11197E-13 1.15186E-14
 -1       298 4.47820E+01 6.26702E+00 9.72567E-01 3.55453E+00 1.56680E-13-6.53089E-14
 -1       299 4.59566E+01 6.83775E+00 9.68572E-01-3.21239E-01 2.59903E-13-3.02518E-13
 -1       300 4.38383E+01 6.11720E+00 9.43867E-01-4.11561E+00 4.30891E-13-4.20247E-13
 -1       301 3.66363E+01 4.61846E+00 6.51822E-01-6.76522E+00 2.86007E-13-7.05158E-13
 -1       302 2.67397E+01 1.22463E+00 1.91152E-01-7.12798E+00 6.53894E-13-3.10502E-13
 -1       303 1.56852E+01-1.84253E+00-2.15750E-01-6.85076E+00 6.71629E-13-3.43975E-13
 -1       304 7.71086E+00-5.99262E+00-5.02489E-01-5.42861E+00 6.03406E-13-5.97859E-13
 -1       305 1.49831E+00-8.64084E+00-7.13953E-01-3.21722E+00 6.34964E-13-3.99555E-13
 -1       306-1.21760E+00-1.09315E+01-9.69438E-01-5.28852E-01 3.24019E-13-7.25586E-13
 -1       307-2.21022E-01-9.93271E+00-8.80141E-01 1.74679E+00-5.16115E-14-8.25298E-13
 -1       308 3.83044E+00-7.95946E+00-7.71464E-01 3.66982E+00-3.52857E-13-5.28140E-13
 -1       309 1.07876E+01-4.31177E+00-4.75870E-01 5.72485E+00-7.06213E-13-1.94872E-13
 -1       310 2.06940E+01-8.26394E-01-4.79960E-02 7.09890E+00-5.89029E-13 1.31228E-13
 -1       311 3.07689E+01 2.02310E+00 3.02011E-01 6.50954E+00-4.64975E-13 6.03045E-13
 -1       312 3.95617E+01 4.92510E+00 7.46138E-01 5.90614E+00 5.67992E-14 3.06061E-13
 -1       313 4.50648E+01 6.45397E+00 9.53581E-01 2.69675E+00 1.50990E-14 4.69430E-13
 -1       314 4.72788E+01 6.65372E+00 1.07117E+00-6.32897E-01-2.61569E-13 5.28098E-13
 -1       315 4.29325E+01 6.14251E+00 8.05136E-01-3.37105E+00-5.83200E-13 4.55025E-13
 -1       316 3.69798E+01 4.33407E+00 6.48840E-01-6.65655E+00-8.19664E-13 6.91558E-13
 -1       317 2.75544E+01 1.85997E+00 2.51157E-01-7.52692E+00-7.99194E-13 1.01541E-12
 -1       318 1.80307E+01-2.28991E+00-1.60263E-01-6.82816E+00-8.44214E-13 7.87148E-13
 -1       319 8.28185E+00-5.59550E+00-5.67841E-01-5.14528E+00-3.30264E-13 1.13104E-12
 -1       320 2.22689E+00-8.76369E+00-8.00469E-01-3.19948E+00 3.94629E-13 1.08463E-12
 -1       321-9.51126E-01-1.10218E+01-1.00274E+00-8.43346E-01 7.53078E-13 4.23425E-13
 -1       322 2.01344E+01 3.00060E+00-2.19669E-02-2.09909E+00-4.39791E-14-4.79625E-14
 -1       323 2.07519E+01 2.20813E+00-1.76849E-02-2.36615E+00-5.85352E-14-2.32089E-14
 -1       324 1.95861E+01 3.69141E+00-1.55945E-02-1.31870E+00-1.41312E-14-8.20728E-14
 -1       325 1.94646E+01 3.84853E+00-1.37163E-02-9.24800E-01-9.74798E-15-7.22920E-14
 -1       326 1.93968E+01 3.93945E+00-1.27249E-02-5.44588E-01 2.47415E-14-3.30378E-14
 -1       327 1.93669E+01 3.98084E+00-1.23050E-02-1.73473E-01 5.09574E-14-1.43089E-14
 -1       328 1.93682E+01 3.97923E+00-1.23229E-02 1.94654E-01 8.58945E-14-9.87752E-15
 -1       329 1.94010E+01 3.93427E+00-1.27677E-02 5.66096E-01 9.77966E-14-1.74288E-14
 -1       330 1.94706E+01 3.84088E+00-1.37727E-02 9.40477E-01 9.73518E-14 5.21892E-15
 -1       331 1.95958E+01 3.67853E+00-1.56570E-02 1.33489E+00 1.11111E-13 3.83057E-14
 -1       332 1.98091E+01 3.40976E+00-1.88307E-02 1.74046E+00 1.22947E-13 8.12414E-14
 -1       333 2.01772E+01 2.95500E+00-2.29383E-02 2.12915E+00 1.23970E-13 1.29540E-13
 -1       334 2.07442E+01 2.12935E+00-3.04688E-02 2.32403E+00 1.04836E-13 2.22692E-13
 -1       335 2.10891E+01 1.18773E+00-2.49279E-02 1.92356E+00 7.06969E-14 3.02102E-13
 -1       336 2.03848E+01 4.89257E-01 8.33101E-03 9.29060E-01 8.66807E-14 2.44899E-13
 -1       337 2.04528E+01 6.74984E-01 1.25715E-02-1.02692E+00-4.85918E-14-7.68558E-15
 -1       338 2.00303E+01 3.37182E-01 7.18824E-03-4.59707E-01-5.76568E-14 2.66279E-14
 -1       339 1.97760E+01 1.76647E-01 4.14344E-03-1.50704E-01-2.52017E-14 2.22293E-14
 -1       340 1.96406E+01 9.09426E-02 1.87410E-03 2.09660E-02-1.88467E-14-5.11364E-16
 -1       341 1.95858E+01 4.23112E-02 7.94139E-04 1.13100E-01-1.35295E-14-4.34266E-15
 -1       342 1.95820E+01 1.41089E-02 2.93026E-04 1.57986E-01 6.17322E-15 1.49524E-14
 -1       343 1.96087E+01-1.74995E-03 5.09565E-05 1.74896E-01-3.76601E-15 3.46890E-14
 -1       344 1.96529E+01-9.63107E-03-6.40642E-05 1.76031E-01-2.79075E-14 4.88408E-14
 -1       345 1.97062E+01-1.20731E-02-1.05076E-04 1.69540E-01-5.97736E-14 2.12562E-14
 -1       346 1.97643E+01-1.06208E-02-9.60707E-05 1.61123E-01-7.56810E-14 2.59402E-14
 -1       347 1.98253E+01-6.21607E-03-4.98436E-05 1.54956E-01-3.37157E-14 2.95908E-14
 -1       348 1.98894E+01 6.01310E-04 2.64329E-05 1.54278E-01 7.57784E-14 1.40363E-13
 -1       349 1.99582E+01 9.57426E-03 1.29074E-04 1.61794E-01 5.93921E-14 8.84947E-14
 -1       350 2.00349E+01 2.06428E-02 2.56615E-04 1.79946E-01-1.61008E-14 1.09065E-13
 -1       351 2.01233E+01 3.38644E-02 4.08597E-04 2.11089E-01-5.57955E-14 8.93536E-14
 -1       352 2.02283E+01 4.93163E-02 5.84010E-04 2.57561E-01-1.34348E-13-2.59233E-14
 -1       353 2.03556E+01 6.69520E-02 7.78895E-04 3.21630E-01-7.15022E-14-1.40761E-13
 -1       354 2.05113E+01 8.63632E-02 9.82449E-04 4.05226E-01-3.29304E-14-1.84341E-13
 -1       355 2.07018E+01 1.06380E-01 1.17082E-03 5.09383E-01 1.04961E-13-1.23052E-13
 -1       356 2.09333E+01 1.24404E-01 1.29788E-03 6.33157E-01 1.37782E-13-1.20692E-14
 -1       357 2.12116E+01 1.35361E-01 1.28338E-03 7.71797E-01 1.59451E-13 8.47836E-14
 -1       358 2.15407E+01 1.30222E-01 1.00237E-03 9.13796E-01 9.35878E-15 1.75518E-13
 -1       359 2.19231E+01 9.43387E-02 2.85174E-04 1.03661E+00 6.65193E-15 1.09329E-13
 -1       360 2.23580E+01 6.74365E-03-1.04983E-03 1.10132E+00-1.92784E-14 1.04870E-13
 -1       361 2.28399E+01-1.56427E-01-3.05798E-03 1.04797E+00-2.90952E-14 1.24703E-13
 -1       362 2.33537E+01-4.08000E-01-5.44435E-03 7.97265E-01 3.02544E-14 2.01508E-13
 -1       363 2.38604E+01-7.17134E-01-7.37213E-03 2.70687E-01 6.01671E-14 1.36303E-13
 -1       364 2.42741E+01-9.61019E-01-7.66879E-03-5.51681E-01 1.33542E-13 2.35402E-14
 -1       365 2.44459E+01-9.01478E-01-6.09075E-03-1.52506E+00 4.95190E-14 6.69346E-14
 -1       366 2.42246E+01-3.01305E-01-6.11430E-03-2.23731E+00 7.24598E-14 2.24370E-13
 -1       367 2.36506E+01 7.62884E-01-1.01484E-02-2.11133E+00 1.25004E-14 4.29772E-13
 -1       368 2.31232E+01 1.65921E+00-1.50534E-02-8.86461E-01-1.60360E-13 2.47351E-13
 -1       369 2.31182E+01 1.64991E+00-1.42641E-02 8.60541E-01-2.35376E-13-3.86938E-14
 -1       370 2.36244E+01 7.48118E-01-1.01427E-02 2.06896E+00-2.50143E-13-3.94712E-14
 -1       371 2.41783E+01-3.23128E-01-4.69779E-03 2.17500E+00-7.77119E-14-1.49253E-13
 -1       372 2.43647E+01-9.13316E-01-6.38422E-03 1.45074E+00 9.45043E-14-9.00703E-14
 -1       373 2.41621E+01-9.70672E-01-8.58486E-03 4.66723E-01 5.50449E-15-2.20749E-14
 -1       374 2.37155E+01-7.27096E-01-7.85319E-03-3.65632E-01-2.76725E-14 2.97228E-13
 -1       375 2.31729E+01-4.19572E-01-5.65214E-03-9.03265E-01-1.23232E-13 4.33011E-13
 -1       376 2.26199E+01-1.68557E-01-3.14865E-03-1.16595E+00-5.68623E-14 4.50114E-13
 -1       377 2.20960E+01-2.80407E-03-1.07172E-03-1.22973E+00 2.56731E-13 9.29796E-14
 -1       378 2.16181E+01 9.26274E-02 3.77768E-04-1.16963E+00 1.50310E-13 2.67960E-13
 -1       379 2.11944E+01 1.44240E-01 1.29534E-03-1.03926E+00 1.53305E-13 1.85159E-13
 -1       380 2.08289E+01 1.76239E-01 1.83090E-03-8.69160E-01 3.99418E-14 8.39906E-14
 -1       381 2.05246E+01 2.06592E-01 2.53976E-03-6.72158E-01 9.35576E-14 1.71513E-13
 -1       382 2.03024E+01 2.23002E-01 2.25488E-03-4.67909E-01 2.52766E-13 2.92530E-13
 -1       383 1.98825E+01 2.28444E-01 1.07970E-02 4.00452E-01 5.77125E-14 2.12752E-13
 -1       384 1.95933E+01 1.15357E-01 6.17934E-03 1.21731E-01 4.44475E-14 2.13935E-13
 -1       385 1.94583E+01 5.78255E-02 2.81598E-03-2.73252E-02-6.36763E-15 1.66377E-13
 -1       386 1.94186E+01 2.62087E-02 1.19185E-03-1.04776E-01-1.64711E-14 1.58256E-13
 -1       387 1.94352E+01 8.17704E-03 4.72721E-04-1.41113E-01 3.33763E-14 1.07425E-13
 -1       388 1.94834E+01-1.90955E-03 1.39153E-04-1.53533E-01 8.92242E-14 1.23962E-13
 -1       389 1.95477E+01-6.95178E-03-2.28434E-05-1.52587E-01 9.57266E-14 1.07348E-13
 -1       390 1.96191E+01-8.60306E-03-9.19054E-05-1.45167E-01-1.01015E-14 1.23446E-13
 -1       391 1.96928E+01-7.86790E-03-1.00439E-04-1.36001E-01 7.55779E-14 1.27092E-13
 -1       392 1.97669E+01-5.37131E-03-6.54773E-05-1.28477E-01 5.81965E-14 9.24864E-14
 -1       393 1.98419E+01-1.49799E-03 2.41986E-06-1.25141E-01 9.00435E-14 8.45345E-14
 -1       394 1.99199E+01 3.52173E-03 9.61678E-05-1.28009E-01-5.42385E-15 1.01439E-13
 -1       395 2.00042E+01 9.54530E-03 2.10401E-04-1.38759E-01 3.33314E-14 1.83799E-13
 -1       396 2.00993E+01 1.64527E-02 3.39767E-04-1.58822E-01-1.07395E-13 4.46265E-14
 -1       397 2.02103E+01 2.40681E-02 4.76944E-04-1.89358E-01-1.58370E-14-2.93555E-14
 -1       398 2.03430E+01 3.20546E-02 6.10119E-04-2.31103E-01 6.28914E-14 5.21453E-14
 -1       399 2.05029E+01 3.97648E-02 7.19792E-04-2.84040E-01 2.34908E-14 3.62332E-14
 -1       400 2.06955E+01 4.60331E-02 7.75103E-04-3.46811E-01-1.17512E-13 8.17872E-14
 -1       401 2.09247E+01 4.88990E-02 7.30600E-04-4.15831E-01-4.19524E-14 1.26041E-13
 -1       402 2.11917E+01 4.52880E-02 5.25934E-04-4.83997E-01 1.63816E-13 4.93311E-14
 -1       403 2.14934E+01 3.07619E-02 9.32900E-05-5.39065E-01 8.65723E-14-9.15724E-14
 -1       404 2.18199E+01-3.62164E-04-6.20663E-04-5.61977E-01-2.06597E-13-9.85170E-14
 -1       405 2.21519E+01-5.38958E-02-1.61083E-03-5.26024E-01-2.16279E-13 2.93820E-14
 -1       406 2.24577E+01-1.32617E-01-2.75017E-03-3.98760E-01-1.05347E-13 2.74994E-13
 -1       407 2.26918E+01-2.29961E-01-3.75074E-03-1.49991E-01-3.80080E-14 5.68422E-13
 -1       408 2.27956E+01-3.21119E-01-4.14550E-03 2.30221E-01-5.86857E-14 4.71870E-13
 -1       409 2.27077E+01-3.57280E-01-3.41954E-03 7.03045E-01 9.70643E-15 4.26960E-13
 -1       410 2.23881E+01-2.75715E-01-1.56243E-03 1.15297E+00 1.06939E-13 5.57801E-13
 -1       411 2.18616E+01-4.04241E-02 7.26842E-04 1.39066E+00 1.75312E-13 2.49572E-13
 -1       412 2.12607E+01 2.97236E-01 2.56816E-03 1.22803E+00 1.64417E-13-1.01695E-13
 -1       413 2.08123E+01 5.80814E-01 3.65669E-03 6.19694E-01 1.94753E-13 7.52690E-14
 -1       414 2.07245E+01 6.40547E-01 4.55667E-03-2.37709E-01 2.17204E-13 8.36844E-14
 -1       415 2.10377E+01 4.36781E-01 4.81540E-03-9.87796E-01 2.75367E-13 6.38413E-14
 -1       416 2.15920E+01 9.66895E-02 3.50928E-03-1.34149E+00 1.95310E-13 2.92335E-13
 -1       417 2.21450E+01-1.98497E-01 2.48281E-04-1.24550E+00-2.64174E-13 1.25038E-13
 -1       418 2.25196E+01-3.47923E-01-2.93571E-03-8.47479E-01-3.58765E-14-6.35893E-14
 -1       419 2.26531E+01-3.56249E-01-4.74608E-03-3.52196E-01-1.47722E-13-1.04288E-13
 -1       420 2.25684E+01-2.81795E-01-4.87338E-03 8.86728E-02-9.90119E-14-7.43383E-14
 -1       421 2.23246E+01-1.82143E-01-3.89787E-03 4.05795E-01 1.99080E-13-2.26830E-13
 -1       422 2.19846E+01-9.16360E-02-2.48056E-03 5.91068E-01 2.54945E-13-5.29877E-14
 -1       423 2.16018E+01-2.25040E-02-1.08454E-03 6.66231E-01 3.05752E-13-1.58166E-13
 -1       424 2.12165E+01 2.64809E-02 7.31777E-05 6.59679E-01-7.32845E-14 3.92882E-14
 -1       425 2.08577E+01 6.24058E-02 8.62815E-04 5.94392E-01-7.88454E-15 1.99167E-13
 -1       426 2.05457E+01 9.27988E-02 1.24779E-03 4.84362E-01 4.53162E-14 2.66272E-13
 -1       427 2.02922E+01 1.21286E-01 1.34458E-03 3.37373E-01-2.86745E-13 2.74373E-13
 -1       428 2.01635E+01 1.43476E-01 1.20657E-03 2.40440E-01-1.23390E-13 4.09836E-13
 -1       429 2.00393E+01 7.16276E-01 4.16130E-04 6.03782E-01-3.25800E-13-3.07970E-13
 -1       430 2.01173E+01 4.69959E-01 1.38563E-03 5.27770E-01-7.53028E-14-2.49695E-13
 -1       431 2.01541E+01 2.96694E-01 1.77395E-03 3.96139E-01-1.55473E-13 3.82200E-13
 -1       432 1.99631E+01 9.64451E-01-3.67159E-04 6.03055E-01-4.16828E-13-5.22040E-13
 -1       433 1.98909E+01 1.19895E+00-1.06166E-03 5.24101E-01 1.96578E-14-4.92575E-15
 -1       434 1.98309E+01 1.38756E+00-1.63374E-03 3.74697E-01 1.70925E-13 1.92843E-13
 -1       435 1.97909E+01 1.50518E+00-1.99783E-03 1.71242E-01-3.56305E-14 6.44705E-13
 -1       436 1.97777E+01 1.53389E+00-2.09828E-03-6.13034E-02-1.14179E-13 3.14580E-14
 -1       437 1.97955E+01 1.46709E+00-1.89339E-03-2.91660E-01-1.87882E-13-4.99203E-13
 -1       438 1.98430E+01 1.31514E+00-1.39654E-03-4.83752E-01-3.94405E-13-4.49218E-13
 -1       439 1.99177E+01 1.09158E+00-6.98151E-04-6.14493E-01-7.24885E-14 5.32351E-14
 -1       440 2.00120E+01 8.26231E-01 2.07820E-04-6.57172E-01 1.03042E-13-6.12689E-14
 -1       441 2.01172E+01 5.49999E-01 1.49166E-03-6.02179E-01-4.48106E-14-1.40406E-13
 -1       442 9.73649E+00-5.54674E+00-5.48760E-02 6.85040E+00-9.70612E-14 5.67948E-14
 -1       443 8.46090E-01-4.94854E+00-1.24911E-01 2.54047E-01 7.43771E-14 2.37782E-13
 -1       444 3.43648E+00-5.03307E+00-8.76965E-02 4.35161E+00-1.02696E-13-1.03667E-14
 -1       445 1.93986E+01-5.44891E+00 2.69334E-02 6.70461E+00 5.34711E-14-5.04079E-13
 -1       446 2.58149E+01-3.98150E+00-3.24970E-02 4.51880E+00 9.36057E-14-1.23027E-13
 -1       447 1.97911E+01 3.43290E+00-1.86932E-02-1.72178E+00-2.72431E-14-7.14429E-14
 -1       448 3.50037E+01 5.27562E+00 6.67028E-02 2.58117E-01 3.96405E-13 1.41553E-13
 -1       449 3.60334E+01 7.78269E+00 7.86484E-02-4.82753E-02 3.74312E-13-3.48950E-13
 -1       450 3.50882E+01 7.47379E+00 2.31823E-02 2.99896E-01 3.03535E-13-3.16788E-13
 -1       451 3.41135E+01 4.34699E+00 2.13331E-02-1.33484E-01 2.03934E-13-1.50907E-13
 -1       452 3.12449E+01 9.77692E-02 2.99351E-02-2.05419E+00 1.56283E-13-1.20903E-13
 -1       453 2.45381E+01-4.28044E+00-2.10572E-02-5.09953E+00 1.98230E-13 1.46799E-13
 -1       454 1.74374E+01-5.44893E+00 6.95404E-04-6.94346E+00-6.89726E-15 2.35471E-14
 -1       455 8.99359E+00-4.79701E+00 5.52102E-02-6.68543E+00 5.35266E-14-1.31235E-13
 -1       456 2.83085E+00-3.63846E+00 4.24927E-02-3.08425E+00-2.73045E-14-5.84227E-13
 -1       457 1.71720E+00-3.69307E+00 2.52103E-02 8.05475E-01 9.75574E-14-8.69194E-13
 -1       458 5.72208E+00-4.60439E+00 1.84125E-02 5.30900E+00 3.61641E-13-5.31353E-13
 -1       459 1.11864E+01-5.72315E+00-5.52252E-02 6.77711E+00 1.32866E-13-4.13003E-14
 -1       460 1.99712E+01-5.20537E+00-4.09528E-02 6.30595E+00-2.06335E-13 3.52940E-13
 -1       461 2.76809E+01-2.89663E+00 1.23633E-03 3.95715E+00-4.45324E-13 5.91846E-13
 -1       462 3.33174E+01 1.47049E+00 7.21848E-02 1.32498E+00-2.47601E-13 2.94570E-13
 -1       463 3.55763E+01 5.19965E+00 6.80377E-02-1.08846E-01 1.89015E-14 1.22208E-13
 -1       464 3.57214E+01 7.82182E+00 3.44513E-02-2.75025E-01-2.76001E-13 3.19286E-13
 -1       465 3.58718E+01 7.47318E+00 5.82475E-02 3.33866E-01-3.46556E-13 1.78649E-13
 -1       466 3.47400E+01 3.85409E+00 6.16413E-02-2.46001E-01-5.46160E-13 3.63043E-14
 -1       467 3.22839E+01 3.60186E-01 6.76605E-02-2.21257E+00-4.21631E-13 6.74460E-15
 -1       468 2.62992E+01-3.66068E+00 2.17684E-03-4.55712E+00-2.90018E-13 1.39250E-13
 -1       469 1.74856E+01-5.74049E+00-4.50647E-02-6.77709E+00 7.74797E-14 6.36123E-13
 -1       470 1.01193E+01-5.63094E+00-4.13038E-02-6.71185E+00 3.80640E-13 1.13011E-12
 -1       471 2.91065E+00-5.16147E+00-1.13266E-01-3.77801E+00 2.29303E-13 9.57512E-13
 -1       472 3.17659E+01 6.92825E-01 4.17320E-03 1.36349E+00 1.42917E-13-1.54127E-13
 -1       473 2.03689E+01 8.31930E-01 4.00965E-03 9.74073E-01 8.39242E-14 1.55897E-13
 -1       474 1.97383E+01 3.10402E+00-5.41179E-03-6.34844E-01 1.08674E-14-2.61176E-14
 -1       475 1.98326E+01 2.93078E+00-5.99340E-03-9.52057E-01-6.94770E-15-5.99870E-14
 -1       476 1.96718E+01 3.22691E+00-5.02925E-03 8.83964E-03 6.01826E-14 1.93135E-14
 -1       477 1.96900E+01 3.19386E+00-5.10807E-03 3.30877E-01 8.46916E-14 3.65018E-15
 -1       478 1.97429E+01 3.09694E+00-5.41731E-03 6.46716E-01 9.41415E-14-1.27437E-14
 -1       479 1.98399E+01 2.91896E+00-5.94720E-03 9.62766E-01 1.14936E-13 3.72940E-14
 -1       480 1.99932E+01 2.63379E+00-6.52795E-03 1.25835E+00 1.13231E-13 6.27460E-14
 -1       481 2.02328E+01 2.18761E+00-5.70320E-03 1.50345E+00 1.10628E-13 9.40140E-14
 -1       482 2.01071E+01 4.53677E-01 5.07562E-03 4.66095E-01 5.73632E-14 1.27360E-13
 -1       483 2.03379E+01 9.73703E-01 2.87907E-03-9.40938E-01-3.17596E-14-3.78031E-14
 -1       484 2.83146E+01-3.09841E+00-6.67625E-02 6.67173E-01-6.53729E-14-2.61700E-13
 -1       485 2.01676E+01 5.46869E-01 2.30453E-03-4.69606E-01-3.68885E-14-2.77657E-14
 -1       486 2.00217E+01 3.04494E-01 9.44308E-04-1.67905E-01-3.06457E-14-1.07638E-14
 -1       487 1.99218E+01 1.63403E-01 4.27397E-04 1.47554E-02-5.14850E-14-2.83240E-14
 -1       488 1.98643E+01 7.85221E-02 1.60029E-04 1.19301E-01 1.06127E-14-2.47501E-14
 -1       489 1.98390E+01 2.79102E-02 3.29492E-05 1.73908E-01 4.95372E-15-5.20332E-14
 -1       490 1.98363E+01-6.33461E-04-2.81722E-05 1.97636E-01 1.48564E-15-1.30647E-14
 -1       491 1.98486E+01-1.42662E-02-5.37900E-05 2.03683E-01-3.21567E-14 3.03509E-14
 -1       492 1.98708E+01-1.73988E-02-5.61040E-05 2.01395E-01-4.41188E-14 1.03037E-13
 -1       493 1.98998E+01-1.28039E-02-4.13588E-05 1.97576E-01-2.61311E-14 1.17352E-13
 -1       494 1.99339E+01-2.19019E-03-1.31231E-05 1.97360E-01 4.85818E-14 1.19520E-13
 -1       495 1.99730E+01 1.34664E-02 2.66403E-05 2.04824E-01 1.76641E-14 4.46023E-14
 -1       496 2.00175E+01 3.37032E-02 7.71145E-05 2.23411E-01-1.03514E-14 6.48494E-15
 -1       497 2.00688E+01 5.83905E-02 1.38194E-04 2.56224E-01-6.21448E-14 1.43513E-15
 -1       498 2.01288E+01 8.75455E-02 2.10002E-04 3.06184E-01-1.15758E-13-8.22516E-14
 -1       499 2.01996E+01 1.21092E-01 2.92118E-04 3.76063E-01-1.45362E-13-4.76081E-14
 -1       500 2.02839E+01 1.58502E-01 3.82363E-04 4.68335E-01-1.15926E-13-9.62756E-15
 -1       501 2.03844E+01 1.98222E-01 4.74788E-04 5.84789E-01 5.59462E-15-2.07145E-14
 -1       502 2.05041E+01 2.36745E-01 5.56405E-04 7.25796E-01 1.72432E-13-1.98065E-13
 -1       503 2.06469E+01 2.67152E-01 6.02287E-04 8.89057E-01 1.96652E-13-1.80565E-13
 -1       504 2.08186E+01 2.76965E-01 5.68891E-04 1.06760E+00 1.79438E-13-1.61104E-13
 -1       505 2.10290E+01 2.45394E-01 3.87153E-04 1.24680E+00-2.15669E-14 1.59532E-14
 -1       506 2.12960E+01 1.40803E-01-4.71480E-05 1.40000E+00 2.49073E-15 9.43863E-14
 -1       507 2.16498E+01-7.88229E-02-8.73581E-04 1.48278E+00-7.48635E-14 6.13785E-14
 -1       508 2.21361E+01-4.55362E-01-2.05670E-03 1.42606E+00 3.09488E-14-1.36530E-14
 -1       509 2.28068E+01-9.96620E-01-3.26914E-03 1.13164E+00 2.99409E-14-9.95660E-14
 -1       510 2.36787E+01-1.60046E+00-4.13926E-03 4.87024E-01 5.00846E-14-1.07794E-14
 -1       511 2.46554E+01-1.95773E+00-5.63958E-03-5.64947E-01 8.62381E-14 8.12195E-14
 -1       512 2.54297E+01-1.51700E+00-1.27667E-02-1.83748E+00 1.06554E-13 1.26012E-13
 -1       513 2.55751E+01 1.58599E-01-4.18530E-02-2.65429E+00 6.89943E-14 1.41503E-13
 -1       514 2.51768E+01 2.44909E+00-5.58796E-02-2.06439E+00-2.62667E-13-1.10610E-13
 -1       515 2.48643E+01 3.58871E+00-6.97693E-02-1.93454E-02-2.10998E-13-1.74809E-14
 -1       516 2.51477E+01 2.42952E+00-6.56600E-02 2.03474E+00-3.05089E-13 1.09682E-13
 -1       517 2.55042E+01 1.40758E-01-5.46409E-02 2.63078E+00-1.68055E-13 1.02422E-13
 -1       518 2.53939E+01-1.55819E+00-7.51797E-03 1.77476E+00 5.15191E-14 6.92372E-14
 -1       519 2.45932E+01-1.98313E+00-8.59648E-03 4.71389E-01 1.13143E-14 1.13694E-14
 -1       520 2.35959E+01-1.61977E+00-5.34803E-03-5.97934E-01 2.24448E-13 2.59458E-14
 -1       521 2.27075E+01-1.01781E+00-3.66903E-03-1.25433E+00 9.72241E-14 4.49480E-13
 -1       522 2.20204E+01-4.78914E-01-2.08654E-03-1.56240E+00-1.51546E-13 4.83964E-13
 -1       523 2.15158E+01-1.00013E-01-8.59344E-04-1.63258E+00-1.37451E-13 3.54157E-13
 -1       524 2.11423E+01 1.30088E-01-4.64487E-05-1.55882E+00 2.51888E-13 2.30264E-13
 -1       525 2.08550E+01 2.57243E-01 4.74102E-04-1.40467E+00 2.96232E-14 4.64951E-13
 -1       526 2.06235E+01 3.27794E-01 7.43007E-04-1.20742E+00 1.16577E-13 3.61749E-13
 -1       527 2.04306E+01 3.78265E-01 1.01203E-03-9.84705E-01 1.00571E-13 4.26454E-13
 -1       528 1.98054E+01 1.30015E-01 1.00808E-03-1.88040E-02 2.06184E-14 1.17479E-13
 -1       529 1.97485E+01 6.15892E-02 3.77217E-04-1.18864E-01 4.24363E-14 8.18969E-14
 -1       530 1.97316E+01 2.12796E-02 1.02010E-04-1.69623E-01 4.38690E-14 5.54944E-14
 -1       531 1.97409E+01-1.42872E-03-2.36789E-05-1.90417E-01 7.36583E-14 9.76610E-14
 -1       532 1.97664E+01-1.24801E-02-7.91059E-05-1.94146E-01 2.73514E-14 1.97454E-13
 -1       533 1.98018E+01-1.54708E-02-9.23992E-05-1.89711E-01 8.93677E-14 1.80528E-13
 -1       534 1.98433E+01-1.26597E-02-7.64605E-05-1.83444E-01 1.14760E-13 1.10479E-13
 -1       535 1.98892E+01-5.47984E-03-3.88844E-05-1.80001E-01 2.23443E-14 1.20248E-13
 -1       536 1.99393E+01 5.16582E-03 1.54113E-05-1.82946E-01-3.65777E-14 1.26916E-13
 -1       537 1.99947E+01 1.87011E-02 8.30947E-05-1.95120E-01 2.38441E-15 1.41254E-13
 -1       538 2.00574E+01 3.47034E-02 1.61394E-04-2.18856E-01 7.57678E-14 1.36214E-13
 -1       539 2.01299E+01 5.27216E-02 2.47051E-04-2.56051E-01-1.84488E-14 5.71735E-15
 -1       540 2.02153E+01 7.20506E-02 3.34982E-04-3.08073E-01-1.47617E-14 3.68669E-14
 -1       541 2.03173E+01 9.14317E-02 4.16542E-04-3.75478E-01 2.78485E-14-9.95695E-15
 -1       542 2.04394E+01 1.08643E-01 4.77310E-04-4.57472E-01-4.51158E-14 4.28206E-14
 -1       543 2.05855E+01 1.19959E-01 4.94477E-04-5.51060E-01-2.39620E-14-7.17266E-14
 -1       544 2.07591E+01 1.19494E-01 4.34562E-04-6.49788E-01 8.55499E-14-2.49953E-13
 -1       545 2.09638E+01 9.85687E-02 2.53028E-04-7.42076E-01 1.22664E-13 6.05360E-14
 -1       546 2.12027E+01 4.55231E-02-1.00492E-04-8.09222E-01-5.18813E-14 2.41927E-13
 -1       547 2.14782E+01-5.31104E-02-6.66423E-04-8.23570E-01-1.66576E-13 3.97773E-14
 -1       548 2.17904E+01-2.08328E-01-1.43580E-03-7.47975E-01-1.82582E-13-4.92077E-14
 -1       549 2.21332E+01-4.18726E-01-2.28856E-03-5.39059E-01-2.00631E-13-6.65846E-14
 -1       550 2.24846E+01-6.52933E-01-3.00777E-03-1.59017E-01-7.97633E-14-3.05737E-14
 -1       551 2.27938E+01-8.28739E-01-3.12965E-03 3.97025E-01-5.91081E-14 9.03267E-14
 -1       552 2.29750E+01-8.09516E-01-2.02766E-03 1.05651E+00-6.96500E-14 1.57580E-14
 -1       553 2.29281E+01-4.50772E-01-3.25217E-04 1.62491E+00 3.20587E-13 1.45051E-13
 -1       554 2.26219E+01 2.63940E-01-7.24848E-05 1.79855E+00 3.75499E-13 7.81622E-14
 -1       555 2.21957E+01 1.08305E+00-1.24410E-03 1.32374E+00 1.29262E-13-2.72949E-14
 -1       556 2.19360E+01 1.54312E+00-2.23033E-03 2.65994E-01 8.52508E-14 2.05493E-13
 -1       557 2.20433E+01 1.33234E+00-1.73752E-03-9.07992E-01 1.77602E-13 4.95895E-13
 -1       558 2.24264E+01 5.89960E-01 2.89531E-04-1.64135E+00 2.85120E-14 4.47882E-13
 -1       559 2.27901E+01-2.18060E-01-3.81591E-04-1.69558E+00 2.24687E-13 3.42021E-13
 -1       560 2.29242E+01-7.33061E-01-2.11662E-03-1.23191E+00 4.62110E-14 1.63364E-13
 -1       561 2.28003E+01-8.75165E-01-3.53189E-03-5.62614E-01-7.98486E-14 9.12437E-14
 -1       562 2.25045E+01-7.58665E-01-3.67076E-03 6.48522E-02-1.14646E-13-5.32922E-14
 -1       563 2.21343E+01-5.33666E-01-3.00721E-03 5.32860E-01 1.85282E-13-1.67937E-13
 -1       564 2.17547E+01-3.04002E-01-2.00164E-03 8.20099E-01 1.42579E-13-1.72851E-13
 -1       565 2.13981E+01-1.16826E-01-1.01517E-03 9.52510E-01 1.90773E-13-3.05390E-15
 -1       566 2.10770E+01 1.95784E-02-1.61685E-04 9.68795E-01 7.91670E-14 1.62456E-13
 -1       567 2.07960E+01 1.16761E-01 8.74855E-04 9.04123E-01-2.38042E-13-3.51837E-14
 -1       568 2.05517E+01 1.91716E-01 1.14669E-03 7.80454E-01-2.11596E-13 3.29106E-13
 -1       569 2.03384E+01 2.53756E-01 1.31127E-03 6.12566E-01-1.18967E-13 5.42708E-13
 -1       570 1.98451E+01 9.36853E-01-3.15897E-04 7.65307E-01 1.02073E-13-9.60287E-14
 -1       571 1.97058E+01 1.12743E+00-6.39751E-04 6.14496E-01 1.76249E-13 2.72458E-13
 -1       572 2.01497E+01 5.09990E-01 1.12902E-04 7.81041E-01-2.18820E-13-5.46167E-13
 -1       573 1.99984E+01 7.23576E-01 6.09874E-04 8.19282E-01-3.48910E-13-4.17136E-13
 -1       574 1.95984E+01 1.27163E+00-8.27269E-04 3.79043E-01 2.00812E-13 2.73287E-13
 -1       575 1.95401E+01 1.34753E+00-9.39040E-04 8.50122E-02-9.10167E-14 2.63448E-13
 -1       576 1.95439E+01 1.34106E+00-9.11685E-04-2.29561E-01-2.44677E-14-2.07260E-13
 -1       577 1.96118E+01 1.25264E+00-7.31604E-04-5.15698E-01 4.37132E-14-6.18157E-13
 -1       578 1.97401E+01 1.08962E+00-5.42843E-04-7.41050E-01 1.45164E-13-2.37594E-13
 -1       579 1.99120E+01 8.72761E-01-3.09297E-04-8.67390E-01 5.10085E-14-7.35025E-14
 -1       580 2.01139E+01 6.28538E-01 5.05968E-04-8.71174E-01-2.36217E-13-2.38964E-13
 -1       581 5.03333E+00-1.67913E+00 1.69960E-01 2.49004E+00-3.49720E-13 5.15699E-14
 -1       582 1.63892E+01-5.06374E+00 8.07953E-02 6.89751E+00-2.91669E-13-3.56964E-13
 -1       583 1.99199E+01 2.46762E-01 2.46067E-03 1.60430E-01 2.62511E-14 1.19174E-13
 -1       584 4.72422E+00-1.75931E+00 1.68925E-01-1.99189E+00-2.37390E-13 4.57190E-13
 -1       585 2.40922E+01-5.38636E+00 2.89727E-02 4.48362E+00 8.51402E-14-1.99323E-13
 -1       586 2.03877E+01 1.75476E+00-5.26228E-03-1.52403E+00-4.89990E-14-3.87565E-14
 -1       587 2.92365E+01-3.03677E+00-3.80436E-02-9.11819E-01-9.93997E-14-2.28088E-13
 -1       588 3.05195E+01 5.64822E+00-1.76800E-01-1.71770E+00-6.96804E-14 2.97297E-13
 -1       589 1.59482E+01-4.76871E+00 9.41402E-02-6.76175E+00-1.66728E-13 9.50351E-14
 -1       590 2.79371E+01-3.38782E+00-6.91933E-02-1.55756E+00 6.31960E-14-1.43913E-13
 -1       591 1.96872E+01 3.19824E+00-5.11628E-03-3.13295E-01 3.76880E-14-4.96001E-15
 -1       592 2.98425E+01 7.33709E+00-1.79273E-01 1.14576E-01 4.22926E-13-9.30119E-14
 -1       593 8.45792E+00-2.06984E+00 1.75909E-01-5.01740E+00-2.34791E-13-2.44457E-13
 -1       594 3.04164E+01 5.95498E+00-1.65179E-01-1.37168E+00 6.23404E-13-1.72397E-13
 -1       595 2.96289E+01 5.02823E+00-1.68896E-01 1.81597E+00 2.25042E-13-2.04947E-13
 -1       596 3.01687E+01 9.96656E-01-1.13707E-01 1.20912E+00 1.50331E-13-3.68310E-13
 -1       597 2.12781E+01-5.44466E+00 3.37561E-02-5.67379E+00-1.05992E-13 1.49980E-13
 -1       598 2.52433E+01-5.34992E+00-6.07129E-03 3.76804E+00 5.67602E-14 7.80750E-13
 -1       599 5.28586E+00-9.56751E-01 1.80289E-01-9.90089E-01 1.26251E-13-4.78353E-13
 -1       600 6.21945E+00-1.80042E+00 1.65621E-01 3.50107E+00 5.58626E-13-5.04374E-13
 -1       601 1.19000E+01-3.80553E+00 1.31468E-01 6.39942E+00 5.13527E-13-9.87058E-14
 -1       602 2.38569E+01-5.65185E+00 1.76308E-02-4.69524E+00 7.96654E-14-6.18776E-14
 -1       603 1.88054E+01-5.53383E+00 7.64721E-02 6.32761E+00 2.70062E-13 4.23358E-13
 -1       604 2.98469E+01-2.21233E+00-6.64970E-02 2.35463E-01-2.18510E-13 3.46514E-13
 -1       605 3.10326E+01 2.06320E+00-1.25038E-01-1.81754E+00-1.05770E-13 1.52947E-13
 -1       606 3.09377E+01 7.14237E+00-1.59511E-01 2.14468E-01-1.81868E-13 1.65124E-13
 -1       607 3.10533E+01 4.92346E+00-1.44577E-01 1.83281E+00-3.34732E-13 1.35655E-14
 -1       608 3.06772E+01 7.65606E-03-1.15863E-01 1.09154E+00-2.32866E-13-1.11439E-13
 -1       609 1.61277E+01-5.21893E+00 8.02744E-02-6.78881E+00 4.57287E-13 7.55240E-13
 -1       610 9.03017E+00-3.38260E+00 1.34904E-01-5.82627E+00 3.05110E-13 8.37844E-13
 -1       611 3.05192E+01 2.40646E+00-1.15569E-01-1.45685E+00 1.30132E-13-6.17839E-14
 -1       612 2.05805E+01 1.30517E+00-9.99945E-04 1.54992E+00 1.04374E-13 1.84737E-13
 -1       613 9.32687E+00-3.39203E+00 1.39148E-01 6.11130E+00-4.42188E-13-1.32783E-13
 -1       614 1.99820E+01 2.65188E+00-6.52111E-03-1.24645E+00-2.77163E-14-6.10161E-14
 -1       615 2.01655E+01 2.27887E+00-5.76980E-03-1.43841E+00-4.01991E-14-6.36659E-14
 -1       616 2.52796E+01-4.93470E+00 1.13188E-02-2.95778E+00 4.49935E-14-3.73090E-13
 -1       617 1.36390E+01-2.89411E+00 1.08603E-01-5.98362E+00-1.90088E-13-1.36835E-13
 -1       618 2.03169E+01 4.08112E-01 1.28523E-03-8.19371E-01-7.80972E-14 4.07187E-13
 -1       619 1.99667E+01 2.45008E+00-1.58975E-03 3.94725E-01 8.51633E-14 4.47621E-15
 -1       620 1.99354E+01 2.52514E+00-1.51844E-03 1.35935E-01 6.18265E-14 1.46792E-14
 -1       621 2.01237E+01 2.04629E+00-1.58255E-03 8.51808E-01 9.33170E-14 5.54471E-14
 -1       622 2.02404E+01 1.67542E+00-2.22079E-03 9.93651E-01 1.03361E-13 6.61343E-14
 -1       623 2.03176E+01 1.03693E+00 2.86190E-03 8.33583E-01 8.60073E-14 8.01187E-14
 -1       624 2.02519E+01 4.03069E-01 3.52498E-04 9.85444E-01-2.53208E-13-4.84537E-13
 -1       625 2.82282E+01-2.06716E+00-6.70321E-02 1.34655E+00-1.81369E-13 8.70796E-14
 -1       626 2.64092E+01-4.72065E+00-9.50411E-03-1.78449E+00-2.63747E-14-1.12039E-13
 -1       627 2.02404E+01 6.71632E-01-4.44633E-04-3.96936E-01-3.24655E-14-2.44106E-14
 -1       628 2.01687E+01 3.93996E-01 1.96916E-04-1.40220E-01-3.62353E-14-5.08600E-15
 -1       629 2.01039E+01 2.16606E-01 4.45541E-05 2.35490E-02-1.58056E-14 2.91721E-14
 -1       630 2.00551E+01 1.05338E-01 7.90300E-06 1.21696E-01-1.02436E-14 1.53305E-14
 -1       631 2.00220E+01 3.78708E-02-1.06864E-05 1.75370E-01 2.05748E-14-1.40397E-14
 -1       632 2.00023E+01 3.44698E-04-1.94964E-05 2.00800E-01 3.99706E-14 5.92905E-14
 -1       633 1.99930E+01-1.60868E-02-2.14780E-05 2.10119E-01-1.83261E-14 9.24944E-14
 -1       634 1.99916E+01-1.71816E-02-1.83853E-05 2.12389E-01-5.54843E-15 1.22947E-13
 -1       635 1.99962E+01-6.66497E-03-1.10912E-05 2.14452E-01-4.19959E-14 1.18356E-13
 -1       636 2.00054E+01 1.31457E-02-1.96243E-07 2.21616E-01-5.98746E-14 2.57303E-14
 -1       637 2.00185E+01 4.09306E-02 1.40228E-05 2.38179E-01-4.65167E-14-4.54598E-14
 -1       638 2.00348E+01 7.60546E-02 3.15169E-05 2.67802E-01-3.08443E-14-4.39748E-14
 -1       639 2.00540E+01 1.18279E-01 5.24718E-05 3.13763E-01-1.42072E-13-8.77025E-14
 -1       640 2.00757E+01 1.67440E-01 7.71031E-05 3.79081E-01-1.38867E-13-4.07808E-14
 -1       641 2.00996E+01 2.23022E-01 1.05464E-04 4.66505E-01-8.32137E-14 1.77918E-14
 -1       642 2.01254E+01 2.83530E-01 1.37134E-04 5.78357E-01-3.89226E-15 2.18416E-14
 -1       643 2.01529E+01 3.45521E-01 1.70608E-04 7.16205E-01 5.63035E-15 1.27648E-14
 -1       644 2.01828E+01 4.02107E-01 2.02251E-04 8.80321E-01 9.65137E-14-1.46488E-13
 -1       645 2.02185E+01 4.40703E-01 2.24494E-04 1.06888E+00 2.39631E-13-2.31056E-13
 -1       646 2.02685E+01 4.39890E-01 2.22130E-04 1.27682E+00 2.19149E-13-9.37657E-14
 -1       647 2.03521E+01 3.65588E-01 1.67800E-04 1.49404E+00-2.01046E-14 4.83590E-14
 -1       648 2.05073E+01 1.67798E-01-1.27252E-05 1.70220E+00-4.72113E-14-2.86538E-14
 -1       649 2.08019E+01-2.18165E-01-4.88192E-04 1.86783E+00-1.40066E-14 1.80776E-14
 -1       650 2.13436E+01-8.55205E-01-7.28582E-04 1.92774E+00 2.36048E-14 5.95959E-14
 -1       651 2.22716E+01-1.74914E+00 4.02295E-05 1.75648E+00 8.10554E-14 3.02815E-14
 -1       652 2.36865E+01-2.70354E+00 1.15634E-03 1.16013E+00 1.38769E-13 1.90969E-14
 -1       653 2.55345E+01-3.15179E+00 4.08377E-03-8.33684E-02 9.52986E-14 4.94904E-14
 -1       654 2.70504E+01-1.87615E+00-6.55935E-02-1.81363E+00-4.29240E-14-1.87558E-14
 -1       655 2.72451E+01 1.57920E+00-9.93462E-02-2.74819E+00-7.60815E-14-1.54560E-13
 -1       656 2.74346E+01 5.08894E+00-1.32471E-01-1.39763E+00-1.50782E-13 1.05202E-13
 -1       657 2.69402E+01 4.77183E+00-1.53651E-01 1.35088E+00-1.89383E-13 1.02304E-13
 -1       658 2.77636E+01 1.55943E+00-1.10038E-01 2.69014E+00-4.11379E-13 1.22860E-13
 -1       659 2.36462E+01-2.73033E+00 2.28101E-03-1.27418E+00 1.97826E-13-5.93610E-14
 -1       660 2.22361E+01-1.77835E+00-5.50309E-05-1.87880E+00 1.17865E-13-1.48801E-13
 -1       661 2.13103E+01-8.90481E-01-5.01954E-04-2.06267E+00 2.60979E-14-3.43594E-13
 -1       662 2.07704E+01-2.53585E-01-2.17364E-04-2.01853E+00-1.06748E-13 3.27994E-14
 -1       663 2.04758E+01 1.42194E-01-4.26658E-05-1.86574E+00 7.07495E-14 2.00169E-13
 -1       664 2.03197E+01 3.64498E-01 1.65304E-04-1.66335E+00 2.90628E-13-5.59842E-14
 -1       665 2.02341E+01 4.83163E-01 2.85315E-04-1.43924E+00 6.04675E-14 1.14059E-13
 -1       666 2.01783E+01 5.54240E-01 4.00874E-04-1.20457E+00 8.36716E-14 4.47053E-14
 -1       667 1.99747E+01 9.31333E-02 5.92163E-05-1.22791E-01 6.79479E-14 2.91725E-14
 -1       668 2.01480E+01 5.90708E-01 5.25991E-04-1.04094E+00 7.93000E-14-2.17006E-13
 -1       669 2.00270E+01 1.92373E-01 1.80414E-04-2.16279E-02 5.50601E-14 2.83281E-14
 -1       670 1.99325E+01-3.17029E-04-1.73291E-05-2.01667E-01-1.14573E-15 1.20355E-13
 -1       671 1.99324E+01-1.56810E-02-2.77093E-05-2.09445E-01 6.49162E-14 9.32297E-14
 -1       672 1.99412E+01-1.80639E-02-2.72576E-05-2.09511E-01 8.82120E-14 1.50446E-13
 -1       673 1.99565E+01-1.08639E-02-1.83349E-05-2.08656E-01 2.20656E-14 2.10475E-13
 -1       674 1.99769E+01 3.71061E-03-2.88063E-06-2.12012E-01 3.42743E-14 2.41370E-13
 -1       675 2.00019E+01 2.42239E-02 1.79467E-05-2.23583E-01-2.05189E-14 1.54521E-13
 -1       676 2.00316E+01 4.96889E-02 4.32595E-05-2.46588E-01 7.74442E-14 1.19730E-13
 -1       677 2.00666E+01 7.92638E-02 7.22362E-05-2.83655E-01 9.59768E-14 9.57511E-14
 -1       678 2.01081E+01 1.11911E-01 1.03684E-04-3.36851E-01-1.76040E-14 6.91333E-14
 -1       679 2.01576E+01 1.45974E-01 1.35599E-04-4.07548E-01 9.27501E-16 3.56811E-14
 -1       680 2.02173E+01 1.78612E-01 1.64573E-04-4.96083E-01-1.39484E-14 4.18805E-14
 -1       681 2.02899E+01 2.05075E-01 1.84791E-04-6.01164E-01 6.57473E-14-1.51733E-14
 -1       682 2.03797E+01 2.17765E-01 1.86993E-04-7.18987E-01 3.90196E-14 2.61723E-14
 -1       683 2.04933E+01 2.05203E-01 1.57174E-04-8.41966E-01 6.90591E-15 8.55894E-14
 -1       684 2.06406E+01 1.51193E-01 7.51010E-05-9.57039E-01-1.13392E-14 1.10195E-13
 -1       685 2.08369E+01 3.50286E-02-8.44838E-05-1.04349E+00-2.90412E-14 2.02387E-13
 -1       686 2.11033E+01-1.65518E-01-3.46907E-04-1.07046E+00-7.88194E-14 6.55480E-14
 -1       687 2.14656E+01-4.65342E-01-6.90653E-04-9.94704E-01-1.83119E-13 3.30733E-15
 -1       688 2.19457E+01-8.52583E-01-9.74326E-04-7.60423E-01-1.05100E-13-4.90845E-14
 -1       689 2.25382E+01-1.25370E+00-1.43833E-03-3.08475E-01-1.99243E-13 2.43814E-14
 -1       690 2.31715E+01-1.49189E+00-1.83912E-03 3.84827E-01-4.83935E-14 9.96438E-14
 -1       691 2.36883E+01-1.29862E+00-1.98498E-03 1.23625E+00 4.55370E-14 1.60797E-13
 -1       692 2.38626E+01-4.11967E-01-5.28907E-03 1.94276E+00 3.04597E-13 2.75088E-13
 -1       693 2.36006E+01 1.07784E+00-1.39760E-02 2.01059E+00 3.04032E-13 2.48431E-13
 -1       694 2.31865E+01 2.43322E+00-2.14569E-02 1.09461E+00-1.26610E-13 1.87455E-13
 -1       695 2.30736E+01 2.72673E+00-2.59283E-02-4.55820E-01 3.12059E-14 2.54940E-13
 -1       696 2.34273E+01 1.66401E+00-1.36539E-02-1.70547E+00 2.29867E-13 2.09300E-13
 -1       697 2.37861E+01 1.06998E-01-9.14311E-03-2.00380E+00 3.52103E-13-1.85542E-14
 -1       698 2.37822E+01-1.06925E+00-4.46038E-03-1.47778E+00 2.55851E-13 5.06178E-14
 -1       699 2.33644E+01-1.51836E+00-3.00433E-03-6.17232E-01-7.73023E-14 2.72351E-14
 -1       700 2.27426E+01-1.41601E+00-1.93279E-03 1.75637E-01-5.69129E-14-6.17594E-15
 -1       701 2.21100E+01-1.05225E+00-1.43482E-03 7.40899E-01 1.75568E-13-1.21474E-13
 -1       702 2.15717E+01-6.43044E-01-9.48488E-04 1.07108E+00 7.64987E-14-3.39656E-14
 -1       703 2.11536E+01-2.95001E-01-5.41465E-04 1.21540E+00 1.08080E-13-4.34539E-14
 -1       704 2.08410E+01-3.57574E-02-1.22720E-04 1.22926E+00 3.49768E-14-2.51203E-13
 -1       705 2.06068E+01 1.45739E-01 5.94204E-05 1.15669E+00-1.30157E-13 4.53156E-14
 -1       706 2.04058E+01 2.76711E-01 1.54732E-04 1.09076E+00-1.91954E-13-1.85157E-13
 -1       707 2.09886E+01-4.79885E+00 4.70721E-02 5.04973E+00-2.33483E-13-1.98548E-13
 -1       708 1.92723E+01 1.21004E+00-3.13959E-04 3.09778E-01 9.75551E-14 2.14368E-13
 -1       709 1.96282E+01 9.09417E-01-2.57986E-04 8.69585E-01-2.87800E-14 2.71093E-13
 -1       710 1.92219E+01 1.25926E+00-3.15574E-04-7.25596E-02 1.05608E-13 2.63319E-15
 -1       711 1.94173E+01 1.08537E+00-2.77173E-04 6.36752E-01 1.05850E-13 4.79384E-14
 -1       712 2.27503E+01-5.26629E+00 3.29161E-02 4.32412E+00 1.82913E-13 7.14724E-13
 -1       713 1.92797E+01 1.22237E+00-2.75137E-04-4.49971E-01 8.81862E-14-4.50075E-13
 -1       714 1.94443E+01 1.10228E+00-2.27176E-04-7.78387E-01 2.42164E-13-3.76839E-13
 -1       715 1.96976E+01 9.16213E-01-3.42834E-04-1.00209E+00 4.17126E-14-1.94675E-13
 -1       716 9.82120E+00-1.10733E+00 1.42409E-01 4.22365E+00-4.05835E-13-1.92797E-13
 -1       717 2.02884E+01 1.42626E+00 1.88226E-04-9.95577E-01-3.23384E-14-2.82185E-14
 -1       718 2.79074E+01 3.38218E+00-1.40510E-01-2.16118E+00 2.47170E-13-4.14207E-13
 -1       719 2.02988E+01-4.80172E+00 7.08678E-02-5.40366E+00-1.53801E-14-8.87831E-14
 -1       720 7.40277E+00-1.49312E-01 1.58900E-01 1.13143E-01-3.88541E-13 3.73770E-13
 -1       721 9.24478E+00-1.10738E+00 1.50023E-01-3.86844E+00-1.18350E-13 4.68792E-13
 -1       722 2.74294E+01 1.79022E+00-1.10398E-01 2.36072E+00 1.45581E-13 2.83246E-14
 -1       723 2.01045E+01 3.54655E-01 6.37061E-04 1.50010E-01 4.41282E-14 5.98821E-14
 -1       724 1.99450E+01 3.32439E-02 7.45708E-06-1.76990E-01 4.52871E-15 5.08072E-14
 -1       725 2.02762E+01 9.91273E-01 5.05136E-04-6.61074E-01-2.19147E-14-2.18983E-14
 -1       726 1.11619E+01-1.61284E+00 1.24038E-01 4.77328E+00 6.17565E-13-2.45380E-13
 -1       727 2.02046E+01 6.14449E-01 9.81900E-04 4.22028E-01 4.84731E-14 8.04395E-14
 -1       728 2.00293E+01 2.29534E+00-1.65294E-03 6.38852E-01 9.38786E-14 1.83221E-14
 -1       729 9.47282E+00-1.11980E-01 1.37949E-01-2.70395E+00-1.03402E-13-1.20522E-13
 -1       730 1.42323E+01-3.03756E+00 1.11433E-01 5.99546E+00-2.44901E-13-2.11636E-14
 -1       731 2.74542E+01-4.09214E+00-2.00024E-02 7.71407E-01 1.07416E-13 3.32716E-13
 -1       732 2.00243E+01 2.30549E+00-1.62151E-03-6.30068E-01-4.22102E-15-2.16078E-14
 -1       733 2.79022E+01-3.73415E-01-9.18961E-02-1.58847E+00-2.96603E-14-3.72941E-13
 -1       734 8.15290E+00-4.39554E-02 1.44105E-01 1.43535E+00 2.02400E-13-2.07279E-13
 -1       735 2.57574E+01-4.43497E+00-5.49237E-03 1.88874E+00-7.51638E-14-4.35372E-13
 -1       736 1.72648E+01-4.10093E+00 9.12424E-02 5.88440E+00 4.89553E-13 3.24490E-13
 -1       737 2.84899E+01-9.09818E-01-7.57237E-02-1.98827E+00-7.14585E-14 1.67508E-13
 -1       738 1.44403E+01-3.34690E+00 1.09532E-01-6.02378E+00 1.94435E-13 6.54168E-13
 -1       739 2.76697E+01-1.63887E+00-7.86605E-02 1.08881E+00 5.79016E-14-2.45765E-13
 -1       740 2.82569E+01 2.67015E+00-1.62052E-01-2.56078E+00-7.42253E-14-6.13329E-14
 -1       741 2.11389E+01-5.13168E+00 4.84559E-02-5.11447E+00 3.82309E-13 1.36800E-13
 -1       742 2.66499E+01 5.37902E+00-1.45643E-01 1.22804E+00 2.67716E-13 4.51028E-16
 -1       743 2.71584E+01 5.81879E+00-1.48244E-01-9.82218E-01 4.22246E-13-1.31010E-13
 -1       744 2.01189E+01 2.06087E+00-1.11959E-03-8.45701E-01-1.86467E-14-4.92313E-14
 -1       745 1.99345E+01 2.52683E+00-1.51208E-03-1.26707E-01 4.36119E-14 2.40113E-14
 -1       746 2.63917E+01-3.43950E+00-8.23726E-03-2.63237E-01 7.11180E-14-1.67737E-13
 -1       747 2.65953E+01-2.67445E+00-4.48343E-02-5.97101E-01-1.04401E-13-2.83043E-13
 -1       748 1.26714E+01-8.87527E-01 8.03662E-02-4.17208E+00-3.36569E-13-9.63968E-14
 -1       749 2.55026E+01-3.29680E+00-5.32627E-03-9.80023E-02 5.16605E-14-1.46925E-13
 -1       750 1.98692E+01 7.11062E-01-4.34558E-04 9.90018E-01-6.99454E-14 2.05231E-13
 -1       751 1.99638E+01 2.45574E+00-1.56409E-03-3.84892E-01 1.54211E-14 1.57435E-14
 -1       752 1.99027E+01 7.40132E-01 2.00962E-06-1.14061E+00-1.30179E-13-4.65339E-13
 -1       753 2.53714E+01 3.53789E+00-8.28303E-02-1.81021E+00 2.08240E-13-5.72337E-14
 -1       754 2.02743E+01 1.30217E+00 8.29546E-04 6.32140E-01 8.88075E-14 5.31068E-14
 -1       755 2.02056E+01 1.78067E+00-2.77114E-05-9.54848E-01-1.80153E-14-4.85892E-14
 -1       756 2.32818E+01-3.99116E+00 2.44852E-02 2.67283E+00-2.06936E-13-1.72876E-13
 -1       757 2.02220E+01 4.18245E-01-1.10819E-04 1.10774E-01 5.49767E-14 3.90418E-14
 -1       758 2.02661E+01 4.37713E-01 4.04140E-05-9.22193E-02 7.25896E-15 1.01978E-14
 -1       759 2.02266E+01 2.42564E-01-8.63898E-06 3.95330E-02-1.66883E-14 1.98532E-14
 -1       760 2.01859E+01 1.17289E-01-8.04579E-06 1.20920E-01-3.67320E-14 4.13033E-14
 -1       761 2.01492E+01 4.13204E-02-9.44720E-06 1.66846E-01 3.32091E-14-3.76207E-14
 -1       762 2.01180E+01 6.75550E-04-8.21674E-06 1.90044E-01 5.76738E-14-5.75311E-14
 -1       763 2.00923E+01-1.41991E-02-6.69884E-06 2.00678E-01 3.50397E-14 4.45603E-14
 -1       764 2.00714E+01-9.80028E-03-4.79061E-06 2.06638E-01-4.02868E-14 4.34264E-14
 -1       765 2.00542E+01 9.58685E-03-2.50032E-06 2.14058E-01-9.16051E-14 8.73601E-14
 -1       766 2.00393E+01 4.12820E-02 3.15698E-07 2.27796E-01-7.71986E-14 5.03435E-14
 -1       767 2.00252E+01 8.37585E-02 3.76627E-06 2.51836E-01-7.33879E-14 4.75478E-14
 -1       768 2.00099E+01 1.36247E-01 8.14537E-06 2.89584E-01-1.45883E-13-6.47282E-14
 -1       769 1.99916E+01 1.98334E-01 1.35953E-05 3.44054E-01-1.49165E-13-7.10951E-15
 -1       770 1.99676E+01 2.69503E-01 2.02811E-05 4.17962E-01-2.81231E-14 5.62187E-14
 -1       771 1.99352E+01 3.48529E-01 2.86268E-05 5.13732E-01-3.34065E-14 1.26609E-13
 -1       772 1.98913E+01 4.32614E-01 3.92863E-05 6.33456E-01-4.27138E-14 6.96109E-14
 -1       773 1.98332E+01 5.16107E-01 5.32063E-05 7.78863E-01-5.76890E-14-8.03852E-15
 -1       774 1.97594E+01 5.88631E-01 7.17248E-05 9.51397E-01 1.64115E-13-2.35811E-14
 -1       775 1.96721E+01 6.32369E-01 9.64224E-05 1.15254E+00 3.01198E-13-1.48179E-13
 -1       776 1.95809E+01 6.18363E-01 1.27591E-04 1.38447E+00 1.32347E-13-1.46942E-13
 -1       777 1.95101E+01 5.01921E-01 1.74405E-04 1.65082E+00-2.00207E-14-9.41296E-14
 -1       778 1.95110E+01 2.17657E-01 1.81132E-04 1.95612E+00-6.86349E-14-5.21178E-14
 -1       779 1.96810E+01-3.22458E-01-1.34587E-04 2.29711E+00-1.13998E-14 9.52810E-15
 -1       780 2.01851E+01-1.21712E+00 7.42945E-04 2.64599E+00 1.60803E-13-5.38371E-15
 -1       781 2.13194E+01-2.51198E+00 1.16695E-02 2.82497E+00 8.41263E-14 1.33327E-13
 -1       782 2.32618E+01-3.90142E+00-8.10537E-03 2.54411E+00 7.22061E-14 1.89947E-13
 -1       783 2.33598E+01-3.99484E+00 2.71184E-02-2.71663E+00 1.89876E-13-1.86708E-14
 -1       784 2.02160E+01-1.25708E+00 2.37495E-03-2.76096E+00 7.63498E-14 1.41611E-13
 -1       785 1.97290E+01-3.72727E-01 8.87473E-04-2.43365E+00 9.28757E-14 1.28688E-13
 -1       786 1.95744E+01 1.74127E-01 3.86223E-05-2.10659E+00 3.87104E-14-2.28874E-13
 -1       787 1.95894E+01 4.80683E-01-1.50880E-06-1.81174E+00 7.11051E-14-4.23334E-13
 -1       788 1.96780E+01 6.39843E-01 7.05870E-05-1.54710E+00 2.41123E-13-3.23869E-13
 -1       789 1.98082E+01 7.00326E-01 3.03954E-04-1.33961E+00 4.01223E-15-2.49697E-13
 -1       790 2.01740E+01 2.30510E-01-5.67624E-06-3.51561E-02 8.91935E-14 5.75504E-14
 -1       791 2.07853E+01-3.96899E+00 4.69684E-02 4.30949E+00 2.35137E-13 3.87078E-13
 -1       792 2.00509E+01-1.57236E-02-9.27582E-06-2.06821E-01 1.14473E-14 1.23114E-13
 -1       793 2.00693E+01 1.51456E-04-9.11586E-06-1.96872E-01 2.20340E-14 8.33267E-14
 -1       794 2.00312E+01 4.71757E-05-4.21089E-06-2.15878E-01 2.51089E-15 1.49147E-13
 -1       795 2.00276E+01 2.46984E-02 6.98622E-07-2.26344E-01 2.51475E-14 1.20785E-13
 -1       796 2.00268E+01 5.77105E-02 7.05934E-06-2.46376E-01 7.01270E-14 1.11415E-13
 -1       797 2.00279E+01 9.76754E-02 1.48365E-05-2.79204E-01 9.73734E-14 1.15454E-13
 -1       798 2.00306E+01 1.43224E-01 2.37225E-05-3.27491E-01 1.94307E-14 1.76788E-13
 -1       799 2.00346E+01 1.92511E-01 3.33786E-05-3.93356E-01 3.69186E-14 8.44344E-14
 -1       800 2.00402E+01 2.42579E-01 4.37053E-05-4.78263E-01-6.28509E-14 7.52090E-14
 -1       801 2.00488E+01 2.88534E-01 5.41054E-05-5.82745E-01-9.84961E-15 5.62846E-14
 -1       802 2.00632E+01 3.22502E-01 6.35180E-05-7.05976E-01 6.09938E-14 2.34847E-13
 -1       803 2.00895E+01 3.32355E-01 6.99765E-05-8.45129E-01-3.90601E-14 1.67898E-13
 -1       804 2.01385E+01 3.00348E-01 6.91167E-05-9.94444E-01-7.48034E-14 2.89231E-13
 -1       805 2.02288E+01 2.02099E-01 4.97785E-05-1.14374E+00-9.04849E-14 2.57661E-13
 -1       806 2.03901E+01 7.10520E-03-4.46881E-06-1.27585E+00-2.35411E-14 2.07468E-13
 -1       807 2.06660E+01-3.16703E-01-1.15368E-04-1.36218E+00-6.72918E-14 2.70474E-13
 -1       808 2.11132E+01-7.89707E-01-2.11889E-04-1.35588E+00-1.31171E-13 1.02547E-13
 -1       809 2.17970E+01-1.39415E+00 5.52740E-04-1.18067E+00-2.07691E-13 1.00348E-13
 -1       810 2.27310E+01-1.99516E+00-1.44148E-05-7.16311E-01-3.10972E-13 2.75180E-13
 -1       811 2.38423E+01-2.29664E+00-1.62607E-03 1.21999E-01-8.08336E-14 2.14870E-13
 -1       812 2.48056E+01-1.77803E+00-7.10317E-03 1.28739E+00-9.92329E-14 2.70097E-13
 -1       813 2.51404E+01 3.44516E-02-4.57150E-02 2.24753E+00 2.87031E-13 4.60785E-13
 -1       814 2.45966E+01 4.32343E+00-7.96769E-02 4.44826E-01 1.92721E-13 2.61673E-13
 -1       815 2.50674E+01-1.28503E+00-2.05885E-02-1.63690E+00 1.42482E-13 1.36702E-13
 -1       816 2.42764E+01-2.24477E+00 2.78876E-03-4.54703E-01 8.22823E-14 2.38257E-13
 -1       817 2.31635E+01-2.21781E+00 1.19789E-03 5.45133E-01-3.86263E-14-7.16682E-14
 -1       818 2.21415E+01-1.69465E+00-2.16096E-04 1.16328E+00 5.82932E-14-2.25547E-13
 -1       819 2.13611E+01-1.06584E+00-1.97714E-04 1.45322E+00 1.80486E-13-1.59510E-13
 -1       820 2.08327E+01-5.26149E-01-1.17998E-04 1.53048E+00-6.37277E-14-5.60874E-14
 -1       821 2.05020E+01-1.24035E-01-7.01766E-05 1.48413E+00 4.16209E-14 2.49327E-13
 -1       822 2.03077E+01 1.54335E-01 1.35031E-04 1.36583E+00-3.84914E-14-1.98643E-14
 -1       823 1.88613E+01 1.19237E+00-1.54619E-05 1.74786E-01 2.72538E-13 1.25788E-13
 -1       824 1.93423E+01 9.67899E-01-4.69133E-04-1.07060E+00 8.54928E-14-3.59112E-13
 -1       825 1.88601E+01 1.21232E+00-2.18386E-04-2.90864E-01 2.73708E-13-1.48195E-13
 -1       826 1.04472E+01 2.66045E-01 9.45193E-02-1.78759E+00-3.27660E-13-2.82344E-14
 -1       827 2.01461E+01 1.89090E+00-3.31529E-04 1.99397E-01 5.92616E-14 3.24624E-14
 -1       828 1.90269E+01 1.13350E+00-2.48704E-04-7.32054E-01 1.50106E-13-5.38431E-13
 -1       829 2.00386E+01-1.43581E-02-7.52259E-06-2.11026E-01 4.39854E-14 1.48829E-13
 -1       830 1.57925E+01-2.15051E+00 6.24116E-02 4.82217E+00 4.52185E-13-7.90340E-15
 -1       831 2.13384E+01-2.54888E+00 2.95994E-03-2.93735E+00 2.50760E-13 1.63483E-13
 -1       832 2.50189E+01 2.80817E+00-6.76179E-02 2.04032E+00 1.07934E-13 6.06449E-13
 -1       833 1.34896E+01-1.43998E+00 8.42760E-02-4.61130E+00 5.79415E-14 4.24986E-13
 -1       834 1.82292E+01-3.01920E+00 3.91718E-02 4.84928E+00-3.22570E-13-2.31452E-13
 -1       835 1.18071E+01 7.42969E-03 7.20813E-02 2.85307E+00 3.40048E-13-4.53942E-14
 -1       836 2.49686E+01-4.29452E+00 5.44922E-03 1.79562E+00 5.64288E-14 1.99458E-13
 -1       837 1.87344E+01-3.44046E+00 5.35240E-02-4.93559E+00 3.75281E-13 2.01299E-13
 -1       838 1.46242E+01-1.50929E+00 7.18774E-02 4.66855E+00-3.35452E-13 1.82051E-13
 -1       839 2.02933E+01 7.29189E-01 1.62491E-04-2.90015E-01-3.06230E-14 5.60049E-15
 -1       840 1.09865E+01 7.55238E-01 7.47996E-02-1.85137E-01 4.86609E-14 7.03534E-14
 -1       841 1.06855E+01 3.26756E-01 8.48000E-02 1.86730E+00-6.46194E-13 1.21625E-13
 -1       842 2.02771E+01 9.44544E-01 3.62448E-05 5.54525E-01 6.94379E-14 8.87457E-14
 -1       843 2.62215E+01 1.04534E+00-6.46158E-02-2.30530E+00 1.71033E-13-2.52758E-13
 -1       844 2.33616E+01-4.40841E+00 1.51110E-02-3.01067E+00-1.22942E-13-1.15543E-13
 -1       845 1.77816E+01-3.08591E+00 6.25140E-02-5.08910E+00-3.15860E-13-1.40582E-14
 -1       846 2.01347E+01 1.92936E+00-3.14931E-04 3.28228E-03 5.07668E-14 3.23432E-14
 -1       847 2.02240E+01 1.58361E+00-2.40415E-04 5.35139E-01 7.12186E-14 4.16707E-14
 -1       848 2.02743E+01 1.28053E+00-1.83663E-04-6.70333E-01-2.25649E-14-5.24319E-14
 -1       849 1.23052E+01 5.15078E-01 5.05056E-02-1.91872E+00-3.40768E-14 1.36438E-13
 -1       850 1.95557E+01 8.39583E-01 8.24169E-04-1.22977E+00-1.12335E-13-5.10470E-13
 -1       851 2.01304E+01 1.11692E-01-6.66100E-06-1.23634E-01 7.25660E-15 7.87633E-14
 -1       852 2.00955E+01 3.95322E-02-7.17757E-06-1.72802E-01-4.23446E-14 7.29522E-14
 -1       853 2.51810E+01 1.01773E+00-2.70247E-02-2.24275E+00 2.26583E-13 8.65627E-15
 -1       854 2.01376E+01 3.42285E-01 6.44224E-04 1.25791E+00-1.74643E-13-1.58485E-13
 -1       855 1.98906E+01 5.57180E-01-1.01419E-03 1.16271E+00-6.03140E-15-1.70097E-13
 -1       856 1.92986E+01 8.96695E-01-7.67581E-05 9.30615E-01-2.50448E-13 4.49888E-13
 -1       857 1.95896E+01 7.30236E-01 5.77484E-04 1.09130E+00-3.08305E-13 6.47386E-14
 -1       858 2.46366E+01-3.42146E+00-1.27977E-02 7.38184E-01-3.21709E-14-1.59318E-13
 -1       859 1.90200E+01 1.07752E+00-2.60272E-04 6.05052E-01 5.99593E-14 2.49095E-13
 -1       860 2.01776E+01 1.77741E+00-3.50559E-04 3.81830E-01 6.21750E-14-3.51442E-15
 -1       861 2.02554E+01 6.32064E-01-4.85165E-04 2.97514E-01 6.66994E-14 2.70905E-14
 -1       862 2.09216E+01-3.41451E+00 4.55087E-03-3.64626E+00-2.46578E-13-2.53111E-13
 -1       863 2.01753E+01 1.78412E+00-2.34418E-04-3.76315E-01 9.24636E-15 2.28810E-14
 -1       864 2.02173E+01 1.59822E+00-6.00982E-04-5.30288E-01-1.50677E-14-7.14365E-15
 -1       865 1.40694E+01 8.91617E-02 3.24420E-02 2.79791E+00-4.45313E-13 3.25026E-13
 -1       866 2.03102E+01 2.41545E-01-3.75310E-05 5.33468E-02-2.63992E-14 6.97438E-15
 -1       867 2.02733E+01 1.14260E-01-4.53852E-06 1.13932E-01-1.06966E-14 3.70828E-14
 -1       868 2.02325E+01 3.84314E-02-7.18632E-06 1.48795E-01 2.17466E-15 3.93490E-14
 -1       869 2.01917E+01 9.35654E-04-4.44070E-06 1.67438E-01 3.47214E-14-5.20454E-14
 -1       870 2.01522E+01-7.86728E-03-2.31204E-06 1.77721E-01-8.41609E-15-1.00021E-13
 -1       871 2.01142E+01 5.32305E-03-1.10258E-06 1.85887E-01-5.13635E-14-9.70107E-14
 -1       872 2.00769E+01 3.60337E-02-1.30639E-06 1.96893E-01-3.79022E-14-1.20494E-14
 -1       873 2.00385E+01 8.14633E-02-2.27473E-06 2.14700E-01-4.61467E-14 9.83300E-14
 -1       874 1.99965E+01 1.40012E-01-2.52859E-06 2.42571E-01-1.76796E-13 1.61734E-13
 -1       875 1.99480E+01 2.10783E-01-2.24384E-06 2.83276E-01-1.18997E-13 1.24283E-13
 -1       876 1.98890E+01 2.93105E-01-1.90290E-06 3.39208E-01-2.86051E-14 1.90164E-13
 -1       877 1.98152E+01 3.85965E-01-1.36566E-06 4.12471E-01-4.19544E-14 2.34019E-13
 -1       878 1.97214E+01 4.87281E-01-2.40491E-07 5.04964E-01-3.08109E-15 2.49057E-13
 -1       879 1.96018E+01 5.92935E-01 2.08463E-06 6.18550E-01-1.75697E-13 1.63141E-13
 -1       880 1.94506E+01 6.95437E-01 6.74684E-06 7.55498E-01 1.82015E-14 1.16888E-13
 -1       881 1.92625E+01 7.82080E-01 1.61595E-05 9.19432E-01 1.28943E-13 3.04690E-14
 -1       882 1.90350E+01 8.32371E-01 3.58938E-05 1.11717E+00 2.13607E-13-8.71762E-14
 -1       883 1.87711E+01 8.14496E-01 8.87643E-05 1.36180E+00 5.99871E-14-1.88941E-13
 -1       884 1.84855E+01 6.80811E-01 3.54507E-04 1.67720E+00-2.96754E-14-1.25412E-13
 -1       885 1.82157E+01 3.59665E-01 5.56031E-04 2.10568E+00-8.42280E-14-1.62607E-13
 -1       886 1.80734E+01-2.65457E-01-6.01964E-04 2.69339E+00 1.12764E-13-1.39680E-13
 -1       887 1.81987E+01-1.30192E+00 2.31778E-02 3.49468E+00 2.74295E-13-1.32498E-14
 -1       888 1.81562E+01-3.27297E-01 1.70763E-03-2.80731E+00 8.11289E-14-1.67559E-13
 -1       889 1.83511E+01 2.96635E-01-1.09536E-04-2.22699E+00-3.44257E-14-4.13595E-14
 -1       890 1.86471E+01 6.36156E-01-1.63754E-04-1.81440E+00-2.14123E-14 1.15305E-14
 -1       891 1.89645E+01 8.08070E-01 7.43065E-05-1.50607E+00 1.12210E-13 2.25439E-14
 -1       892 2.44764E+01-3.37880E+00-1.52720E-02-8.55946E-01-5.41724E-14-3.85039E-14
 -1       893 2.00427E+01 5.80285E-02-3.87156E-07-2.22759E-01 1.85839E-14 1.13960E-13
 -1       894 2.00696E+01 2.11015E-02-1.20063E-06-2.06578E-01 7.12423E-14 1.54107E-13
 -1       895 1.99860E+01 1.61439E-01 4.33394E-06-2.88791E-01-1.26049E-14 1.99972E-13
 -1       896 1.99528E+01 2.24206E-01 6.43116E-06-3.44225E-01 4.46710E-14 1.89208E-13
 -1       897 1.99145E+01 2.90953E-01 9.30677E-06-4.17704E-01 1.41576E-14 1.67177E-13
 -1       898 1.98703E+01 3.57303E-01 1.32824E-05-5.11108E-01-2.20184E-14 3.07655E-14
 -1       899 1.98208E+01 4.16234E-01 1.89000E-05-6.25913E-01-7.67188E-14 8.37507E-14
 -1       900 1.97690E+01 4.56823E-01 2.70797E-05-7.63122E-01 6.82787E-14 1.79367E-13
 -1       901 1.97222E+01 4.62734E-01 3.88393E-05-9.23177E-01-1.51590E-14 1.55316E-13
 -1       902 1.96948E+01 4.10546E-01 5.24638E-05-1.10570E+00-7.53199E-14 1.11469E-13
 -1       903 1.97122E+01 2.68266E-01 5.28049E-05-1.30859E+00-1.63717E-14 1.08704E-13
 -1       904 1.98175E+01-4.83490E-03 4.01144E-05-1.52500E+00-1.36828E-13 5.43232E-14
 -1       905 2.00777E+01-4.53856E-01-3.31003E-05-1.73561E+00-9.25757E-14 7.75286E-15
 -1       906 2.05889E+01-1.11093E+00 9.74944E-04-1.89174E+00-2.53559E-13-6.71180E-14
 -1       907 2.14726E+01-1.98336E+00-5.41008E-03-1.91222E+00-4.24933E-13-5.78296E-14
 -1       908 2.29564E+01-2.90237E+00 1.52425E-02-1.55908E+00-9.04379E-14-1.48749E-13
 -1       909 1.32114E+01 7.91354E-01 2.92141E-02 1.40772E+00 2.08290E-13 1.47372E-13
 -1       910 2.09559E+01-1.49809E+00 1.77902E-03 2.05009E+00 2.64584E-14 1.58943E-13
 -1       911 2.03289E+01-7.45962E-01 1.22185E-03 1.94963E+00-4.08913E-14 5.46444E-13
 -1       912 2.00045E+01-2.00047E-01 5.45297E-04 1.76232E+00 4.66722E-14 1.59901E-13
 -1       913 1.98685E+01 1.70509E-01 2.34991E-04 1.55170E+00-7.46679E-14-4.71950E-15
 -1       914 1.83726E+01 1.19921E+00-5.00526E-04-2.93295E-02 5.33323E-14-7.87201E-14
 -1       915 1.39414E+01 4.21146E-02 4.30060E-02-2.88838E+00-8.25184E-14-7.51838E-14
 -1       916 1.73043E+01-1.41025E+00 2.19581E-02 3.82522E+00-3.93329E-13-2.64515E-13
 -1       917 1.82787E+01-1.34760E+00 2.02024E-02-3.56883E+00 2.20874E-13-5.08021E-14
 -1       918 2.20095E+01-2.41424E+00-2.55931E-03 1.93822E+00-2.61801E-14 6.94112E-14
 -1       919 1.52261E+01-1.45797E-01 3.11815E-02 3.07976E+00 3.08092E-13-8.90555E-14
 -1       920 2.32084E+01-3.10404E+00-7.74003E-04 1.54430E+00 7.76970E-14-7.52376E-14
 -1       921 2.07105E+01-2.73721E+00 1.25536E-02 3.26844E+00-2.07982E-13 1.44949E-13
 -1       922 2.03398E+01 7.29986E-01-1.07490E-04-1.87695E-01-1.65413E-14 1.89935E-15
 -1       923 2.01447E+01 1.89413E+00-3.11320E-04-1.92810E-01 2.70421E-14 3.31004E-14
 -1       924 1.69332E+01-1.60157E+00 3.87660E-02-4.12970E+00 3.21948E-13 9.27626E-14
 -1       925 2.00154E+01 1.05404E-01 1.83579E-06-2.49164E-01 7.79100E-16 1.41645E-13
 -1       926 2.01610E+01 2.24267E-04-2.09635E-06-1.79465E-01-3.04818E-14 9.62992E-14
 -1       927 2.03359E+01 4.39247E-01-6.46549E-05-4.38569E-02-9.94480E-15 7.45971E-15
 -1       928 1.63666E+01-1.18175E+00 2.36771E-02-3.86738E+00-1.63310E-13-9.90388E-14
 -1       929 1.23791E+01 8.65909E-01 3.48990E-02-1.40668E-01-4.82710E-13-1.39748E-13
 -1       930 2.03057E+01 4.36701E-01-6.49850E-05 6.15480E-02 3.26941E-14 1.06964E-13
 -1       931 2.02849E+01 1.24802E+00-1.77221E-04-4.47411E-01 1.32541E-15-1.57787E-14
 -1       932 2.03067E+01 1.00428E+00-5.20042E-04 3.64635E-01 6.66910E-14 5.59561E-14
 -1       933 2.02741E+01 2.41008E-01-5.34687E-05-5.02504E-02 4.14901E-14 1.52931E-13
 -1       934 1.32231E+01 1.01568E+00 2.92502E-02-8.57846E-02 1.90075E-13 1.85262E-13
 -1       935 1.90026E+01-1.93443E+00 2.74771E-03-3.48494E+00-2.57104E-13-2.14433E-13
 -1       936 1.92960E+01 8.31948E-01 5.66949E-04-1.36327E+00 1.28510E-13-3.86869E-13
 -1       937 2.01975E+01 3.92534E-02-4.74278E-06-1.58995E-01-9.55427E-15 3.56597E-14
 -1       938 2.03109E+01 6.71543E-01 5.64598E-04 2.07025E-01 4.90996E-14 6.39771E-14
 -1       939 2.00975E+01-3.17608E-03-1.23046E-06-1.97057E-01 4.75255E-14 1.33074E-13
 -1       940 1.92849E+01 6.71439E-01-1.51606E-04 1.23441E+00 9.57695E-15 1.82172E-13
 -1       941 1.88390E+01 9.10487E-01-3.58555E-04 9.48428E-01 5.89900E-14 5.49391E-13
 -1       942 1.85043E+01 1.16704E+00 1.26817E-03-5.95391E-01 1.68589E-13-4.46288E-13
 -1       943 1.85117E+01 1.10127E+00-2.00440E-04 5.09668E-01 9.27275E-14 2.74524E-13
 -1       944 2.01277E+01-1.16733E-02-5.44232E-07-1.89840E-01 1.46768E-14 8.58552E-14
 -1       945 2.02828E+01 1.41053E+00-4.92498E-05 6.97258E-02 5.35607E-14 3.27401E-14
 -1       946 2.02921E+01 1.34155E+00-1.69927E-04 1.97084E-01 3.99761E-14 7.50222E-15
 -1       947 2.02915E+01 1.34582E+00 9.91412E-06-1.93641E-01 2.56649E-14 3.26188E-14
 -1       948 1.51605E+01 1.24783E-01 1.58036E-02-2.67225E+00 4.77439E-15 4.18576E-14
 -1       949 1.65183E+01-8.63353E-02 9.53592E-03 2.68509E+00-4.45232E-14 4.51204E-14
 -1       950 2.03263E+01 9.92229E-02 5.36131E-06 9.74258E-02-3.20390E-15 4.16185E-15
 -1       951 2.02800E+01 3.12134E-02-6.27619E-06 1.20519E-01-1.05547E-14 1.26199E-14
 -1       952 2.02300E+01 2.33789E-03-1.88029E-06 1.33683E-01-3.70409E-15 2.49247E-14
 -1       953 2.01783E+01 3.33738E-03 1.13899E-06 1.42308E-01-3.07519E-14 3.06480E-14
 -1       954 2.01252E+01 2.77513E-02 6.03874E-07 1.50844E-01-8.49341E-15 3.70265E-14
 -1       955 2.00695E+01 7.11718E-02-5.82339E-06 1.62784E-01 6.36988E-14 8.44382E-14
 -1       956 2.00090E+01 1.30920E-01-1.01147E-05 1.80906E-01-4.41553E-14 1.78351E-13
 -1       957 1.99401E+01 2.05383E-01-1.35055E-05 2.07508E-01-1.35926E-13 2.71305E-13
 -1       958 1.98587E+01 2.93503E-01-1.78114E-05 2.44430E-01-8.14370E-14 3.64164E-13
 -1       959 1.97594E+01 3.94261E-01-2.38683E-05 2.93162E-01-2.88918E-14 3.12788E-13
 -1       960 1.96359E+01 5.06039E-01-3.18684E-05 3.54932E-01-1.08379E-14 3.77852E-13
 -1       961 1.94807E+01 6.25885E-01-4.24813E-05 4.30849E-01-7.82025E-14 3.66433E-13
 -1       962 1.92852E+01 7.48643E-01-5.69871E-05 5.22273E-01-9.16133E-14 4.09078E-13
 -1       963 1.90395E+01 8.65896E-01-7.70128E-05 6.31646E-01 1.56366E-16 3.35909E-13
 -1       964 1.87317E+01 9.64681E-01-1.02488E-04 7.64175E-01 1.22335E-15 1.57840E-13
 -1       965 1.83483E+01 1.02582E+00-1.19474E-04 9.30907E-01 1.04561E-13 1.12241E-13
 -1       966 1.78727E+01 1.02152E+00-1.33415E-04 1.15405E+00 2.75919E-14 1.75267E-13
 -1       967 1.72847E+01 9.11015E-01 5.22350E-04 1.47697E+00-5.82794E-14-5.39849E-14
 -1       968 1.65905E+01 6.45635E-01 1.58821E-03 1.97941E+00-1.59827E-14-3.43495E-14
 -1       969 1.45156E+01 9.26710E-01 9.34261E-03 1.01189E+00-2.11181E-13 4.48826E-13
 -1       970 2.00756E+01 5.18218E-02-3.94288E-06-1.81054E-01 1.78977E-14 1.73589E-13
 -1       971 1.87390E+01 1.03106E+00-6.55881E-04-1.08638E+00-1.06090E-13-4.40573E-13
 -1       972 1.75020E+01 8.44776E-01-4.59398E-04-1.57830E+00-1.10448E-15-1.68992E-13
 -1       973 1.81318E+01 9.85945E-01-5.90303E-05-1.26783E+00 3.67002E-14-3.73071E-13
 -1       974 2.03811E+01 6.84256E-01 1.70593E-04-1.01541E-01-1.61579E-15 2.13714E-14
 -1       975 1.98410E+01 3.17831E-01-5.00723E-06-3.28322E-01 3.30804E-14 1.51581E-14
 -1       976 1.99119E+01 2.37645E-01-2.41372E-06-2.71340E-01 4.92900E-14 2.32477E-14
 -1       977 1.96590E+01 4.84595E-01-9.83958E-06-4.97899E-01-4.54862E-14 7.33346E-14
 -1       978 1.95452E+01 5.56871E-01-1.20428E-05-6.16327E-01-7.87818E-15 2.70230E-15
 -1       979 1.94176E+01 6.05730E-01-1.42096E-05-7.62294E-01-2.48308E-14 1.15042E-13
 -1       980 1.92824E+01 6.12085E-01-1.89230E-05-9.41503E-01-5.81242E-14 1.46884E-13
 -1       981 1.91531E+01 5.48922E-01-4.16823E-05-1.16220E+00-1.01257E-13 5.86332E-14
 -1       982 1.90558E+01 3.78799E-01-1.35112E-04-1.43560E+00-2.39044E-15 1.69396E-13
 -1       983 1.90380E+01 5.12667E-02-4.78415E-04-1.77440E+00 3.79567E-14 6.04048E-14
 -1       984 1.91848E+01-4.96036E-01-8.99382E-04-2.17933E+00-1.01672E-13-2.93112E-14
 -1       985 1.96880E+01-1.33701E+00 8.54163E-03-2.62654E+00-2.55459E-13-2.63863E-13
 -1       986 2.02361E+01 1.14965E-01-4.18715E-05-1.19541E-01 1.18760E-14 1.23339E-13
 -1       987 1.44729E+01 8.23688E-01 1.35747E-02-1.40092E+00-6.50926E-14-4.58577E-13
 -1       988 1.67525E+01 5.55202E-01 1.38803E-03-2.06096E+00 1.11073E-13-1.29618E-13
 -1       989 1.97965E+01 3.66496E-01-1.79604E-04 1.40854E+00-9.37360E-14-7.51797E-14
 -1       990 1.94332E+01-8.59775E-01 5.40154E-04 2.47410E+00-1.80224E-13 6.19265E-13
 -1       991 2.03055E+01 1.20492E+00-2.51957E-05 3.01083E-01 6.00338E-14 4.32545E-14
 -1       992 2.02826E+01 1.41187E+00 1.03155E-05-6.53161E-02 3.16175E-14 6.21789E-14
 -1       993 2.03051E+01 1.21296E+00 7.87220E-04-3.02711E-01 6.22835E-15 1.65984E-14
 -1       994 1.91995E+01 5.11176E-01-4.06280E-04 1.43426E+00 2.11739E-13 2.92292E-13
 -1       995 2.03662E+01 8.97443E-01-3.33053E-04-1.43296E-01-3.71074E-15 5.54805E-14
 -1       996 1.90483E+01 2.27865E-01-8.65726E-04 1.75385E+00 2.37240E-13 4.50220E-13
 -1       997 2.03858E+01 4.06156E-01-1.95630E-04-6.43921E-03 1.26015E-14 5.83366E-14
 -1       998 1.91245E+01-2.14619E-01 7.45953E-04 2.10414E+00 2.37868E-13 5.63901E-13
 -1       999 1.97574E+01 4.02013E-01-7.47249E-06-4.02946E-01 2.10444E-15 4.16578E-14
 -1      1000 1.98499E+01-1.67812E+00-2.80511E-03 2.88663E+00-2.60168E-13 4.03069E-13
 -1      1001 2.03648E+01 2.17698E-01-8.97848E-05 5.73502E-02-1.60988E-14 4.03286E-14
 -1      1002 1.48635E+01 1.06072E+00 5.31607E-03 9.00216E-01 5.84680E-14-1.83445E-14
 -1      1003 1.71615E+01-5.98781E-01 1.09651E-02-3.02973E+00-8.56379E-14 2.62750E-14
 -1      1004 2.02605E+01 3.37451E-02-1.40456E-06-1.35194E-01-2.21000E-14 1.40646E-13
 -1      1005 2.00264E+01 1.02401E-01-7.28374E-07-2.00281E-01 4.25354E-14 1.75645E-13
 -1      1006 2.01223E+01 1.56623E-02-1.02771E-06-1.68825E-01 4.14797E-14 9.17077E-14
 -1      1007 1.63259E+01 1.02240E-01 1.06733E-02-2.68685E+00-6.59828E-14-1.42791E-13
 -1      1008 2.03610E+01 7.04060E-01 2.65961E-04 1.37914E-01 1.16793E-14 6.15079E-14
 -1      1009 1.81662E+01-5.81335E-01 3.34103E-03 2.74093E+00-2.03752E-13-1.12710E-13
 -1      1010 1.85991E+01 8.04849E-01-4.17961E-04 1.15324E+00 9.43233E-14 4.21370E-13
 -1      1011 1.78696E+01 1.14346E+00 3.00390E-04 3.60064E-01-1.50010E-13 3.73496E-13
 -1      1012 2.03611E+01 4.23074E-01 1.23709E-04 2.08601E-02 1.76994E-14 7.84431E-14
 -1      1013 2.02146E+01 9.19102E-04 1.06388E-05-1.50669E-01 8.41839E-16 1.06089E-13
 -1      1014 2.03747E+01 9.75658E-01-2.37940E-04 7.84100E-02 4.19121E-14 2.29142E-14
 -1      1015 2.03751E+01 9.79932E-01 1.62359E-04-7.86224E-02 1.13359E-14 4.30094E-14
 -1      1016 1.99728E+01 1.65022E-01 3.32393E-07-2.29498E-01 1.77215E-14 9.78873E-14
 -1      1017 2.03759E+01 1.00640E+00 3.15221E-05 1.50175E-03 3.30249E-14 5.53295E-14
 -1      1018 1.48593E+01 8.92291E-01 4.26410E-03-1.32529E+00 6.12329E-14 3.33233E-13
 -1      1019 1.77718E+01 1.17215E+00-3.83188E-04-6.31685E-01-7.34222E-14-6.22393E-13
 -1      1020 2.03376E+01 2.31152E-01 1.56226E-04-5.86015E-02 3.64584E-14 1.25421E-13
 -1      1021 2.02971E+01 2.22785E-02-3.13875E-05 8.18500E-02-3.42966E-15 8.91920E-14
 -1      1022 2.02388E+01 5.99431E-03-1.63161E-05 8.95026E-02-3.08192E-14 5.30365E-14
 -1      1023 2.01767E+01 1.92929E-02 1.02588E-05 9.54119E-02 1.90239E-14 7.20302E-14
 -1      1024 2.01109E+01 5.59776E-02-1.15668E-06 1.02223E-01 8.33122E-14 1.13360E-13
 -1      1025 2.00397E+01 1.11984E-01-2.95391E-05 1.11785E-01 3.60526E-14 4.94195E-14
 -1      1026 1.99597E+01 1.85163E-01-4.13646E-05 1.25739E-01 6.30722E-15 4.81646E-14
 -1      1027 1.98671E+01 2.73654E-01-4.99443E-05 1.45137E-01-5.12531E-14 1.45075E-13
 -1      1028 1.97562E+01 3.76233E-01-6.44388E-05 1.70719E-01-4.05316E-14 2.59593E-13
 -1      1029 1.96207E+01 4.91401E-01-8.32698E-05 2.02869E-01 3.03520E-15 2.24902E-13
 -1      1030 1.94526E+01 6.16805E-01-1.07551E-04 2.41629E-01 4.07144E-15 2.19108E-13
 -1      1031 1.92425E+01 7.48607E-01-1.40367E-04 2.86831E-01-7.07766E-14 2.67645E-13
 -1      1032 1.89789E+01 8.80873E-01-1.87735E-04 3.38445E-01-9.50571E-14 3.22400E-13
 -1      1033 1.86469E+01 1.00506E+00-2.59151E-04 3.97369E-01-9.05070E-14 3.18904E-13
 -1      1034 1.82259E+01 1.10973E+00-3.67575E-04 4.67058E-01 1.28530E-14 3.23569E-13
 -1      1035 1.76858E+01 1.18003E+00-5.76231E-04 5.56774E-01 2.15233E-14 1.03501E-13
 -1      1036 1.69850E+01 1.19509E+00 1.15554E-04 6.83262E-01-9.10273E-14 1.93559E-14
 -1      1037 1.60795E+01 1.17071E+00 2.44611E-03 7.70426E-01 3.87830E-15 1.46098E-13
 -1      1038 1.97068E+01 4.18171E-01-4.06142E-05-2.75212E-01 5.32435E-14 1.16876E-13
 -1      1039 1.92381E+01 7.05046E-01-7.50307E-05-5.43469E-01 5.86745E-15-1.74548E-14
 -1      1040 1.94219E+01 6.17960E-01-6.16400E-05-4.30797E-01 9.14720E-15 2.61192E-14
 -1      1041 1.87785E+01 7.83546E-01-1.39090E-04-8.77506E-01-2.74841E-14 1.19022E-13
 -1      1042 1.85072E+01 7.28924E-01-2.70176E-04-1.12852E+00-1.75489E-13 1.43045E-13
 -1      1043 1.82239E+01 5.63821E-01-5.07596E-04-1.46979E+00-1.69106E-14 1.90137E-13
 -1      1044 1.79546E+01 2.38070E-01 3.59218E-04-1.93215E+00-1.59114E-14 2.22191E-13
 -1      1045 1.80814E+01-5.37878E-01 3.63441E-03-2.65566E+00-4.16425E-14 5.23917E-14
 -1      1046 1.52235E+01 1.16964E+00-2.51927E-03-1.04113E-01 3.58494E-14 2.39494E-13
 -1      1047 1.99069E+01 2.32601E-01-2.14728E-05-1.85313E-01 8.57423E-14 1.28359E-13
 -1      1048 1.69892E+01 1.18344E+00-9.54734E-04 1.91869E-02-3.52476E-14 1.63729E-13
 -1      1049 2.01684E+01-2.85723E-03 7.60275E-06-1.60105E-01-1.63678E-15 1.19122E-13
 -1      1050 2.03770E+01 8.54932E-01 5.29764E-05 1.22037E-01 3.41014E-14 2.92245E-14
 -1      1051 1.63111E+01 1.04303E+00 7.68423E-04-9.67293E-01-1.21373E-13-6.55698E-13
 -1      1052 1.81824E+01 9.96994E-01 6.35500E-05 8.11924E-01-3.85374E-14 4.55203E-13
 -1      1053 1.71212E+01 1.12616E+00-6.97436E-05-7.68802E-01-2.43907E-13-8.57078E-13
 -1      1054 2.03040E+01 1.05605E-01 6.40975E-05-1.07380E-01 4.85205E-15 1.30082E-13
 -1      1055 1.63137E+01 7.49615E-01-3.67327E-03 1.49012E+00-1.07266E-13 7.17005E-13
 -1      1056 1.95770E+01 5.19171E-01-5.06817E-05-3.43066E-01-8.13086E-15 9.99835E-14
 -1      1057 1.55894E+01 1.11568E+00-4.46350E-03-3.62075E-01-8.94594E-14-5.37820E-13
 -1      1058 1.98154E+01 3.21278E-01-3.09448E-05-2.23580E-01 5.55794E-14 1.37602E-13
 -1      1059 2.03498E+01 7.65606E-02-2.75377E-05 6.92979E-02-2.70278E-14 4.55896E-14
 -1      1060 1.90235E+01 7.66674E-01-9.55851E-05-6.88546E-01-8.99664E-14 2.52822E-14
 -1      1061 2.04047E+01 6.61834E-01 1.79840E-04-5.98529E-02 1.53925E-14 6.25294E-14
 -1      1062 1.61439E+01 3.78388E-01 9.71187E-03-2.13485E+00-6.08362E-14 5.97458E-14
 -1      1063 2.00553E+01 9.03430E-02-2.41200E-05-1.39317E-01 4.12563E-14 1.94913E-13
 -1      1064 1.80295E+01 6.45407E-01-6.16839E-04 1.47892E+00-1.13440E-14 6.07411E-14
 -1      1065 2.01188E+01 4.14471E-02-1.76039E-05-1.27035E-01-1.05053E-14 2.21014E-13
 -1      1066 2.02910E+01 2.53335E-02-8.72236E-06-1.01099E-01-2.60243E-14 1.36753E-13
 -1      1067 2.04258E+01 4.18651E-01-7.72114E-05-1.22215E-03 4.35970E-15 5.36977E-14
 -1      1068 2.03933E+01 1.78831E-01-1.08019E-05 4.80544E-02-2.85473E-14 4.76888E-14
 -1      1069 1.81180E+01 4.29033E-02-5.76612E-03 2.14273E+00 9.84804E-14-3.03175E-13
 -1      1070 1.72503E+01 3.73952E-01 1.98848E-03 1.94169E+00 5.70489E-14-1.88687E-13
 -1      1071 2.03404E+01 8.60852E-02-6.36450E-05-8.39156E-02-2.11252E-14 7.80385E-14
 -1      1072 1.74146E+01 9.61215E-01 1.94668E-03 9.20547E-01-1.10106E-13 3.17914E-13
 -1      1073 2.04041E+01 5.29667E-01-1.67551E-05 3.28192E-02-1.06236E-14 2.23950E-15
 -1      1074 2.04265E+01 6.74367E-01 2.37361E-04 1.57705E-02 1.52309E-14 3.62945E-14
 -1      1075 1.99857E+01 1.54903E-01-8.72694E-06-1.57994E-01 1.01210E-13 1.42609E-13
 -1      1076 2.04208E+01 6.09205E-01 1.92954E-04 3.06470E-02 3.91166E-15 3.12562E-14
 -1      1077 2.02894E+01 1.52990E-02 6.13325E-05 3.38671E-02-5.43437E-14 1.08139E-15
 -1      1078 2.00165E+01 1.33884E-01-3.37848E-05-8.13787E-02 9.16730E-14 2.30510E-14
 -1      1079 2.02236E+01 1.37721E-02-8.23192E-06 3.64286E-02 7.92178E-15 7.30836E-14
 -1      1080 2.01542E+01 3.89742E-02 1.77728E-05 3.86880E-02 4.74309E-14 1.28322E-13
 -1      1081 2.00796E+01 8.74428E-02 9.23449E-05 4.17050E-02 3.36836E-14 2.36658E-14
 -1      1082 1.99960E+01 1.55481E-01 6.14397E-05 4.56744E-02-1.85378E-14 4.59670E-14
 -1      1083 1.99010E+01 2.39603E-01 4.81663E-05 5.07477E-02 5.41459E-14 8.05601E-14
 -1      1084 1.97894E+01 3.38775E-01 5.36592E-05 5.70115E-02 3.82295E-14 9.69933E-14
 -1      1085 1.96550E+01 4.51302E-01 5.94340E-05 6.39641E-02-1.02893E-13 1.47403E-13
 -1      1086 1.94907E+01 5.74980E-01 6.57603E-05 7.06800E-02-8.55327E-15 1.94579E-13
 -1      1087 1.92876E+01 7.06467E-01 7.16553E-05 7.56696E-02 2.08927E-14 2.27410E-13
 -1      1088 1.90351E+01 8.40765E-01 7.47595E-05 7.67839E-02-1.23861E-13 1.44968E-13
 -1      1089 1.87194E+01 9.70890E-01 7.03491E-05 7.11436E-02-2.76643E-14 1.20837E-13
 -1      1090 1.83218E+01 1.08784E+00 4.82761E-05 5.50568E-02-2.45071E-14 2.05088E-13
 -1      1091 1.78140E+01 1.18105E+00-1.66839E-05 2.37261E-02-1.54037E-13 1.54094E-13
 -1      1092 1.71508E+01 1.24048E+00 2.33535E-04-3.10461E-02-3.15388E-14 1.57275E-13
 -1      1093 1.63466E+01 1.23930E+00 2.18345E-03-6.46959E-02-5.49757E-14 3.01283E-13
 -1      1094 1.71846E+01 8.42693E-01-1.99846E-03-1.31032E+00 8.38837E-14 1.57242E-13
 -1      1095 2.02363E+01 3.40824E-03 4.79687E-06-1.11129E-01 2.14150E-14 1.27373E-13
 -1      1096 2.03961E+01 3.01515E-01-1.23210E-04-2.91639E-02 9.64377E-15 3.77248E-14
 -1      1097 1.91735E+01 7.50503E-01-9.29362E-05-3.02413E-01-4.56550E-14 2.21644E-13
 -1      1098 1.77566E+01 9.51897E-01-1.69674E-04-9.45468E-01-6.90081E-14 2.98122E-13
 -1      1099 1.82202E+01 9.73332E-01-1.60364E-04-6.98383E-01-1.04518E-13 3.64153E-13
 -1      1100 1.69483E+01 3.52984E-01 4.38867E-03-2.06087E+00 3.57754E-14 1.86632E-15
 -1      1101 1.63960E+01 1.18151E+00 1.63075E-02-1.27263E-01 2.59610E-14-1.79925E-13
 -1      1102 2.03731E+01 1.73689E-01 2.05945E-05-6.26377E-02 1.03723E-15 3.19911E-14
 -1      1103 1.97071E+01 4.07034E-01-4.40024E-05-1.43312E-01 3.55792E-14 1.88490E-13
 -1      1104 1.99288E+01 2.12158E-01-2.42950E-05-9.55589E-02 6.64750E-14 9.30400E-14
 -1      1105 1.89145E+01 8.54087E-01-1.13177E-04-3.95793E-01-1.18066E-13 3.64552E-13
 -1      1106 1.95624E+01 5.19150E-01-5.78232E-05-1.81516E-01 3.90473E-14 2.53799E-13
 -1      1107 1.98273E+01 3.03739E-01-3.29232E-05-1.15425E-01 3.72701E-14 1.41795E-13
 -1      1108 2.04249E+01 6.78488E-01 2.51457E-04-1.84879E-02 7.80085E-15 9.09820E-14
 -1      1109 1.86006E+01 9.33886E-01-1.37423E-04-5.22860E-01-8.49172E-14 3.02890E-13
 -1      1110 2.03485E+01 5.27392E-02 1.47647E-04 3.00391E-02-3.87165E-14 7.13106E-14
 -1      1111 1.93868E+01 6.35781E-01-7.43695E-05-2.33107E-01 2.72555E-14 2.48543E-13
 -1      1112 2.00939E+01 7.28419E-02 1.24767E-04-7.27185E-02 6.21529E-14 4.58324E-14
 -1      1113 2.02949E+01 1.75144E-02-2.65606E-05-5.66809E-02-1.79505E-14 4.17606E-14
 -1      1114 2.04354E+01 4.17119E-01-2.61069E-04 6.73042E-05-4.40278E-15 4.69211E-14
 -1      1115 2.03973E+01 1.33377E-01 4.50770E-06 2.26371E-02-5.60534E-14 6.09542E-14
 -1      1116 2.01788E+01 1.09707E-02 1.33541E-05-1.18632E-01-3.06808E-14 1.36900E-13
 -1      1117 2.03514E+01 6.08383E-02 3.98308E-05-4.82782E-02-8.04083E-14-2.16926E-14
 -1      1118 2.04397E+01 3.31152E-01 7.97248E-05 4.02400E-03 1.04871E-14 6.06035E-14
 -1      1119 1.57047E+01 9.84313E-01-2.61145E-03-1.10339E+00 7.03335E-14 3.52624E-13
 -1      1120 2.02324E+01 9.16251E-03-7.81502E-05-6.19444E-02-4.60318E-15 1.18361E-13
 -1      1121 2.01180E+01 6.00859E-02-8.54707E-05-2.54450E-02 2.23385E-14-1.81598E-14
 -1      1122 2.01648E+01 2.95044E-02 9.45628E-06-6.65758E-02-6.11844E-14 4.49255E-14
 -1      1123 2.04207E+01 3.63071E-01 2.27138E-04-1.09660E-02-1.28120E-15-1.17706E-14
 -1      1124 2.01911E+01 2.31148E-02 3.03885E-05-2.34948E-02 3.05906E-14 6.28516E-14
 -1      1125 2.04040E+01 2.14022E-01-1.27290E-04-3.62065E-02 2.18468E-14-8.11437E-15
 -1      1126 2.04249E+01 2.24755E-01 3.72387E-04-1.14684E-02-5.53655E-15 6.18644E-14
 -1      1127 2.03797E+01 1.22259E-01-6.89637E-04-4.85752E-02-8.75034E-14 1.20878E-14
 -1      1128 2.79573E+01 9.08476E+00 2.32505E+00-6.69831E+00-9.49241E-15 2.68507E-13
 -1      1129 2.05425E+01 6.22560E+00 2.09442E-01-3.90538E+00-5.35683E-15 1.59317E-14
 -1      1130 1.94313E+01 5.85190E+00 7.50496E-02-2.89015E+00-2.91434E-15-8.19275E-14
 -1      1131 1.90251E+01 5.72565E+00 6.03580E-02-2.23765E+00-1.79717E-15-1.26840E-13
 -1      1132 1.88412E+01 5.66973E+00 5.78931E-02-1.70363E+00-2.93168E-16-1.39768E-13
 -1      1133 1.87487E+01 5.64132E+00 5.56766E-02-1.23597E+00 5.20417E-18-1.32335E-13
 -1      1134 1.87010E+01 5.62648E+00 5.39111E-02-8.05653E-01 7.69350E-16-1.14100E-13
 -1      1135 1.86778E+01 5.61915E+00 5.26792E-02-3.93523E-01 3.30682E-16-8.96254E-14
 -1      1136 1.86712E+01 5.61706E+00 5.22871E-02 8.48683E-03 2.48521E-15-7.41083E-14
 -1      1137 1.86789E+01 5.61950E+00 5.27942E-02 4.10903E-01 2.31521E-15-5.87048E-14
 -1      1138 1.87032E+01 5.62721E+00 5.41675E-02 8.24379E-01 2.74347E-15-4.69616E-14
 -1      1139 1.87526E+01 5.64269E+00 5.63484E-02 1.25733E+00 4.13298E-15-1.30772E-14
 -1      1140 1.88461E+01 5.67140E+00 5.85180E-02 1.72950E+00 3.54404E-15 3.10169E-14
 -1      1141 1.90306E+01 5.72731E+00 6.04067E-02 2.27070E+00 4.07313E-15 8.97832E-14
 -1      1142 1.94281E+01 5.84919E+00 6.91286E-02 2.93067E+00 5.17641E-15 1.91619E-13
 -1      1143 2.04488E+01 6.18056E+00 1.53069E-01 3.88006E+00 3.55271E-15 3.60975E-13
 -1      1144 2.52115E+01 7.99251E+00 1.43012E+00 5.84677E+00-1.99840E-15 6.35103E-13
 -1      1145 2.88065E+01 3.61611E+00 1.27147E+00-4.21711E+00-3.85803E-14 4.22939E-13
 -1      1146 2.02195E+01-1.77657E-01-6.16192E-01-1.10135E-01-1.41762E-14 3.27488E-13
 -1      1147 1.88231E+01-9.63704E-02-2.36352E-01 6.24463E-02-5.21458E-15 2.13853E-13
 -1      1148 1.84874E+01-4.80603E-02-5.95503E-02 4.04542E-02 1.87784E-15 1.26225E-13
 -1      1149 1.84305E+01-2.46222E-02-1.51506E-02 2.67054E-02 9.36837E-15 3.38271E-14
 -1      1150 1.85102E+01-1.30819E-02-4.96060E-03 1.89437E-02 2.32063E-15 7.44960E-14
 -1      1151 1.86551E+01-6.68107E-03-1.50564E-03 1.39726E-02-4.55083E-15 8.95117E-14
 -1      1152 1.88260E+01-2.96545E-03 4.73269E-04 1.05093E-02-2.20429E-15 4.89955E-14
 -1      1153 1.90006E+01-8.18693E-04 1.70540E-03 7.93467E-03-1.20494E-15 2.49393E-14
 -1      1154 1.91670E+01 3.52087E-04 2.31980E-03 5.94426E-03 1.34108E-15-3.69774E-14
 -1      1155 1.93192E+01 8.78325E-04 2.44062E-03 4.37886E-03 1.18901E-14-1.01135E-13
 -1      1156 1.94556E+01 9.56890E-04 2.18566E-03 3.14689E-03 8.97001E-15 1.99983E-14
 -1      1157 1.95776E+01 7.07773E-04 1.64167E-03 2.19228E-03-2.46018E-14-1.34258E-13
 -1      1158 1.96888E+01 2.02815E-04 8.60679E-04 1.48099E-03 2.34720E-14-2.64419E-13
 -1      1159 1.97946E+01-5.18650E-04-1.35282E-04 9.96113E-04-1.28433E-14-9.60882E-14
 -1      1160 1.99020E+01-1.43985E-03-1.34825E-03 7.37332E-04-1.17586E-14-1.13409E-13
 -1      1161 2.00196E+01-2.55858E-03-2.79832E-03 7.22836E-04-9.21054E-15-1.49891E-13
 -1      1162 2.01575E+01-3.87881E-03-4.51633E-03 9.92956E-04 1.81017E-14-9.65966E-14
 -1      1163 2.03279E+01-5.39926E-03-6.53257E-03 1.61504E-03 6.82635E-15-1.16024E-13
 -1      1164 2.05451E+01-7.09571E-03-8.85655E-03 2.68875E-03-4.37237E-15-1.50483E-13
 -1      1165 2.08251E+01-8.89177E-03-1.14389E-02 4.34931E-03-2.89187E-14-2.28222E-13
 -1      1166 2.11860E+01-1.06105E-02-1.41001E-02 6.76247E-03 2.17469E-14-2.19410E-13
 -1      1167 2.16456E+01-1.18980E-02-1.64030E-02 1.00970E-02 4.29245E-14 2.46780E-13
 -1      1168 2.22192E+01-1.21121E-02-1.74407E-02 1.44453E-02-5.32721E-14 4.39961E-14
 -1      1169 2.29128E+01-1.01867E-02-1.55357E-02 1.96377E-02 3.53385E-14-1.55733E-13
 -1      1170 2.37119E+01-4.53770E-03-7.94141E-03 2.48727E-02-1.82416E-14 8.54143E-14
 -1      1171 2.45633E+01 6.80258E-03 9.07935E-03 2.80965E-02 1.32796E-14-4.97172E-14
 -1      1172 2.53508E+01 2.54045E-02 3.89074E-02 2.52531E-02-3.59773E-14-8.49182E-14
 -1      1173 2.58719E+01 5.03934E-02 8.06323E-02 1.01024E-02-2.02720E-14-4.25779E-14
 -1      1174 2.58432E+01 7.49389E-02 1.22228E-01-2.36581E-02 4.28910E-15 1.95434E-14
 -1      1175 2.49787E+01 8.31893E-02 1.35278E-01-7.57178E-02-6.57911E-14 2.37962E-13
 -1      1176 2.31824E+01 5.40294E-02 8.40812E-02-1.29225E-01 7.57471E-14 5.27092E-13
 -1      1177 2.07983E+01-1.99483E-02-4.04049E-02-1.48774E-01 1.69983E-14 4.16805E-13
 -1      1178 1.86816E+01-1.08158E-01-1.83774E-01-1.02397E-01-5.74991E-14 1.13548E-13
 -1      1179 1.78240E+01-1.48153E-01-2.47751E-01 5.89675E-04-1.43392E-14-5.54244E-14
 -1      1180 1.86706E+01-1.06930E-01-1.81542E-01 1.03089E-01 2.86455E-14 2.82538E-13
 -1      1181 2.07635E+01-1.82626E-02-3.73009E-02 1.48500E-01-1.82343E-14-1.69254E-13
 -1      1182 2.31063E+01 5.54182E-02 8.65838E-02 1.28109E-01-3.06686E-14 3.70537E-15
 -1      1183 2.48472E+01 8.41501E-02 1.36883E-01 7.42536E-02-4.04963E-14 5.02237E-14
 -1      1184 2.56469E+01 7.58072E-02 1.23401E-01 2.20573E-02 3.88786E-14-1.85050E-13
 -1      1185 2.56028E+01 5.13720E-02 8.19555E-02-1.19028E-02-4.02386E-14-5.06485E-13
 -1      1186 2.49993E+01 2.64710E-02 4.05591E-02-2.74655E-02-4.30424E-14-9.45074E-13
 -1      1187 2.41182E+01 7.75886E-03 1.08271E-02-3.09607E-02-7.39935E-15-9.04332E-13
 -1      1188 2.31613E+01-4.07751E-03-6.64661E-03-2.85621E-02-9.39545E-15-3.35221E-13
 -1      1189 2.22486E+01-1.08172E-02-1.56625E-02-2.41793E-02-3.05652E-14-4.21451E-13
 -1      1190 2.14427E+01-1.46810E-02-2.06276E-02-1.95328E-02 7.98779E-14-4.89053E-14
 -1      1191 2.07779E+01-1.74796E-02-2.50392E-02-1.46445E-02 4.91189E-14 8.68108E-14
 -1      1192 2.02839E+01-1.98521E-02-2.96671E-02-7.74920E-03 6.32740E-15 2.27659E-13
 -1      1193 2.00078E+01-2.31711E-02-2.60741E-02 5.36026E-03 1.70675E-14 4.53248E-13
 -1      1194 1.99726E+01 9.29020E-03 1.87941E-02 9.73707E-03 7.95566E-14 2.96451E-13
 -1      1195 2.77862E+01 5.25696E-01 3.77332E-01 1.96659E+00-1.22402E-14 8.30780E-13
 -1      1196 2.00769E+01-6.62177E-02-5.73565E-01 1.29539E-01 1.33227E-15 7.78599E-13
 -1      1197 1.88979E+01-4.05927E-02-1.93223E-01 1.94560E-02-1.29671E-15 6.96290E-13
 -1      1198 1.85164E+01-2.14104E-02-5.05445E-02 1.50013E-03-3.90096E-15 6.52978E-13
 -1      1199 1.84432E+01-1.24081E-02-1.33894E-02-4.02252E-03 1.00939E-15 5.53793E-13
 -1      1200 1.85167E+01-7.42202E-03-4.65485E-03-5.45107E-03 5.64837E-15 5.31519E-13
 -1      1201 1.86586E+01-4.37543E-03-1.95339E-03-5.60057E-03-1.06405E-14 6.00756E-13
 -1      1202 1.88279E+01-2.45080E-03-4.16350E-04-5.26770E-03-8.19039E-15 6.92654E-13
 -1      1203 1.90017E+01-1.24834E-03 6.24892E-04-4.70190E-03-5.80956E-16 5.70481E-13
 -1      1204 1.91677E+01-5.43513E-04 1.21962E-03-4.01473E-03 8.77566E-15 4.32325E-13
 -1      1205 1.93199E+01-1.98599E-04 1.41889E-03-3.27110E-03 1.79495E-14 3.06750E-13
 -1      1206 1.94566E+01-1.26272E-04 1.29465E-03-2.51169E-03-1.24755E-14 3.68735E-13
 -1      1207 1.95791E+01-2.71535E-04 9.07611E-04-1.76190E-03 3.82803E-15 3.35811E-13
 -1      1208 1.96909E+01-6.01165E-04 2.96564E-04-1.03792E-03 1.05555E-15 2.17804E-13
 -1      1209 1.97973E+01-1.09627E-03-5.19827E-04-3.52013E-04-1.60050E-14 2.62734E-13
 -1      1210 1.99048E+01-1.74572E-03-1.53703E-03 2.82057E-04 1.14793E-14 1.71206E-13
 -1      1211 2.00216E+01-2.53879E-03-2.75641E-03 8.43010E-04-2.63426E-14 8.21916E-14
 -1      1212 2.01567E+01-3.45531E-03-4.17351E-03 1.29473E-03 5.01254E-16 4.07774E-13
 -1      1213 2.03204E+01-4.45142E-03-5.76033E-03 1.57726E-03 9.66306E-15 2.75243E-13
 -1      1214 2.05238E+01-5.43879E-03-7.43741E-03 1.59598E-03 8.55528E-15 1.36244E-13
 -1      1215 2.07780E+01-6.25492E-03-9.03045E-03 1.21002E-03 1.59300E-14 4.26889E-14
 -1      1216 2.10928E+01-6.62414E-03-1.02061E-02 2.23762E-04-2.83829E-14 6.14118E-14
 -1      1217 2.14746E+01-6.11502E-03-1.03861E-02-1.60873E-03-4.39720E-15 2.09643E-13
 -1      1218 2.19222E+01-4.11422E-03-8.65493E-03-4.54524E-03-2.01838E-14 2.72903E-13
 -1      1219 2.24211E+01 1.33209E-04-3.72154E-03-8.74477E-03 8.85473E-15 2.79436E-13
 -1      1220 2.29353E+01 7.32141E-03 5.92256E-03-1.40306E-02-1.67370E-14 4.79327E-13
 -1      1221 2.33980E+01 1.75814E-02 2.13876E-02-1.94872E-02 5.45412E-14 3.74385E-13
 -1      1222 2.37050E+01 2.96070E-02 4.20286E-02-2.29686E-02-1.19306E-15 1.77669E-13
 -1      1223 2.37189E+01 3.96925E-02 6.34417E-02-2.08975E-02-5.56621E-14 5.34527E-13
 -1      1224 2.32984E+01 4.16307E-02 7.59794E-02-9.15302E-03 1.28808E-14 7.02969E-13
 -1      1225 2.23620E+01 2.90668E-02 6.65244E-02 1.41328E-02 9.59259E-15 1.70142E-13
 -1      1226 2.09797E+01 9.76444E-04 2.63321E-02 4.44609E-02-3.56054E-14 2.75849E-13
 -1      1227 1.94399E+01-3.33580E-02-3.75551E-02 6.91421E-02-6.35867E-14 3.60836E-13
 -1      1228 1.82073E+01-5.69760E-02-9.84193E-02 7.26729E-02-1.93005E-14 2.19720E-13
 -1      1229 1.77309E+01-5.71962E-02-1.23790E-01 4.83486E-02 3.28878E-14-2.29927E-13
 -1      1230 1.81953E+01-3.60558E-02-1.00061E-01 5.64469E-03-7.11271E-14-3.35197E-13
 -1      1231 1.94061E+01-7.47114E-03-4.31933E-02-3.53120E-02 8.61763E-14-7.57519E-13
 -1      1232 2.09093E+01 1.47878E-02 1.53342E-02-5.82147E-02 1.20505E-14-9.23692E-13
 -1      1233 2.22411E+01 2.53214E-02 5.21229E-02-5.94948E-02 1.03715E-14-5.63244E-13
 -1      1234 2.31158E+01 2.59029E-02 6.22959E-02-4.61410E-02-1.07752E-14-4.08042E-13
 -1      1235 2.34653E+01 2.09909E-02 5.38615E-02-2.77714E-02-5.41451E-15-2.24374E-13
 -1      1236 2.33702E+01 1.43606E-02 3.77412E-02-1.11788E-02 4.04472E-14 1.81512E-13
 -1      1237 2.29713E+01 8.13619E-03 2.16227E-02 8.72373E-04 1.28324E-14-5.21895E-13
 -1      1238 2.24062E+01 3.02807E-03 8.82572E-03 8.38101E-03 7.00922E-14-9.61571E-13
 -1      1239 2.17831E+01-1.11241E-03-4.75437E-04 1.25349E-02 5.68189E-15-1.18239E-12
 -1      1240 2.11788E+01-4.82980E-03-7.74576E-03 1.46287E-02 2.59923E-14-1.17810E-12
 -1      1241 2.06482E+01-8.71920E-03-1.48268E-02 1.54300E-02-1.54245E-14-1.10211E-12
 -1      1242 2.02388E+01-1.24096E-02-2.16114E-02 1.42138E-02 1.71974E-14-7.95839E-13
 -1      1243 2.00047E+01-1.09965E-02-1.91859E-02 6.89649E-03 1.07741E-13-6.34355E-13
 -1      1244 1.99795E+01 7.23453E-03 1.67953E-02-7.40312E-03-1.24161E-14-5.52505E-13
 -1      1245 2.00069E+01-2.13580E-02 1.56454E-02-7.02681E-03-6.10522E-13-7.33587E-14
 -1      1246 1.99855E+01 9.42634E-03-2.04127E-02-4.41763E-03-3.58829E-13 2.73208E-14
 -1      1247 1.99866E+01 2.42075E-01-2.12834E-02 8.44731E-03 2.91722E-13 7.87820E-14
 -1      1248 1.99927E+01 6.27054E-01-1.16156E-02 1.40288E-02 3.17765E-13 1.27922E-13
 -1      1249 1.99998E+01 1.08658E+00-8.56789E-04 1.56904E-02 7.77748E-13 4.65850E-15
 -1      1250 2.00066E+01 1.54585E+00 8.89712E-03 1.47137E-02-4.65223E-13-2.99464E-13
 -1      1251 2.00126E+01 1.94520E+00 1.70642E-02 1.19460E-02-1.42763E-12 1.03820E-13
 -1      1252 2.00172E+01 2.23280E+00 2.32964E-02 7.31526E-03-6.37420E-13 1.46517E-13
 -1      1253 2.00197E+01 2.36268E+00 2.66374E-02 1.50760E-03 2.81041E-13 1.17794E-13
 -1      1254 2.00194E+01 2.31230E+00 2.64260E-02-4.79623E-03 9.15291E-13-5.28275E-14
 -1      1255 2.00162E+01 2.08315E+00 2.23198E-02-1.07373E-02 1.77625E-13-1.95042E-13
 -1      1256 2.00109E+01 1.70649E+00 1.46428E-02-1.54260E-02-4.31028E-13-7.32976E-14
 -1      1257 2.00030E+01 1.23161E+00 3.59860E-03-1.77799E-02-1.24045E-12-6.87434E-14
 -1      1258 1.99940E+01 7.25714E-01-1.03570E-02-1.71749E-02-1.19261E-12-1.78493E-13
 -1      1259 1.99851E+01 2.78166E-01-2.53405E-02-1.30237E-02-1.52971E-12-5.88423E-14
 -1      1260 1.99789E+01 2.21686E-02-2.19571E-02 1.03353E-02-9.32560E-13-2.27071E-14
 -1      1261 2.00096E+01-2.74315E-02 1.85274E-02 8.97431E-03-3.11704E-13 1.19283E-13
 -1      1262-1.00673E+00-2.39716E+01-3.67533E+00-2.17012E+00 2.43572E-12 2.93134E-13
 -1      1263-1.71617E+00-1.54431E+01-3.04316E+00-4.09159E+00 2.07079E-12 6.10678E-13
 -1      1264 6.43006E-02-2.95108E+00-1.88272E+00-4.42332E-01 1.74549E-12 8.92841E-13
 -1      1265 8.56607E+00 7.45969E+00-3.11698E-01 7.89756E+00 9.45466E-13 8.06466E-13
 -1      1266 2.51095E+01 1.11506E+01 1.41096E+00 1.58682E+01 7.59393E-13 1.12310E-12
 -1      1267 4.50877E+01 8.31763E+00 2.84857E+00 1.77308E+01 4.26326E-13 8.90843E-13
 -1      1268 6.12292E+01 3.44959E+00 3.83609E+00 1.11000E+01 1.39111E-13 3.16858E-13
 -1      1269 6.64117E+01 1.64244E+00 4.12926E+00-1.20959E+00 1.26663E-13 1.84575E-14
 -1      1270 5.88279E+01 4.23659E+00 3.69837E+00-1.28214E+01 2.12302E-13-8.47766E-13
 -1      1271 4.14030E+01 9.04868E+00 2.58122E+00-1.80561E+01 3.04978E-13-6.90559E-13
 -1      1272 2.09873E+01 1.08978E+01 1.00990E+00-1.44834E+01 9.45022E-13-1.20259E-12
 -1      1273 5.80604E+00 5.44648E+00-7.32317E-01-5.71896E+00 1.88827E-12-1.57740E-12
 -1      1274-8.42756E-01-6.22190E+00-2.26924E+00 1.75952E+00 1.76970E-12-1.00620E-12
 -1      1275-1.66505E+00-1.84734E+01-3.30295E+00 3.89122E+00 1.70131E-12-4.70984E-13
 -1      1276-8.90330E-01-2.49870E+01-3.77619E+00 8.26142E-01 9.08107E-13-1.29875E-13
 -1      1277-1.38816E+00-2.23203E+01-3.60284E+00-3.26171E+00-4.82947E-13-3.18669E-13
 -1      1278-1.81551E+00-1.26255E+01-2.88248E+00-3.91758E+00-1.93223E-12-8.44158E-13
 -1      1279 1.15067E+00-4.34505E-01-1.64838E+00 9.44069E-01-1.60294E-12-1.00631E-12
 -1      1280 1.12453E+01 8.47897E+00-5.29590E-02 9.51932E+00-9.92095E-13-8.71081E-13
 -1      1281 2.82238E+01 1.08464E+01 1.57948E+00 1.65884E+01-1.96065E-13-1.21902E-13
 -1      1282 4.76819E+01 7.75114E+00 3.04609E+00 1.75283E+01 2.65454E-13 7.56728E-13
 -1      1283 6.30978E+01 3.21679E+00 4.02421E+00 1.01348E+01 1.26260E-13 4.57523E-13
 -1      1284 6.78936E+01 1.66548E+00 4.37821E+00-2.25370E+00-1.06117E-13 6.96498E-13
 -1      1285 5.90129E+01 4.69615E+00 3.80913E+00-1.33275E+01-4.97713E-13 1.62848E-12
 -1      1286 4.16043E+01 9.22919E+00 2.66134E+00-1.81850E+01-1.05382E-12 2.29439E-12
 -1      1287 2.24336E+01 1.09253E+01 1.06809E+00-1.51231E+01-1.62736E-12 2.20224E-12
 -1      1288 7.25395E+00 6.28562E+00-5.91228E-01-6.77431E+00-2.11831E-12 1.84719E-12
 -1      1289-4.50673E-01-4.44300E+00-2.11198E+00 1.24743E+00-1.90248E-12 1.21281E-12
 -1      1290-1.82870E+00-1.65944E+01-3.18825E+00 4.25567E+00-1.87628E-13 1.86628E-13
 -1      1291-1.06428E+00-2.44510E+01-3.75520E+00 2.12806E+00 1.53311E-12 9.74949E-14
 -1      1292 2.22604E+01 1.83783E+00-7.25800E-01-2.79124E+00-1.22957E-14 2.13940E-13
 -1      1293 2.03546E+01 4.68942E+00-4.87709E-02-3.30854E+00-2.76307E-14-2.95527E-14
 -1      1294 2.08612E+01 4.80975E+00-1.13481E-01-4.16247E+00-4.08840E-14 2.57502E-14
 -1      1295 1.95285E+01 4.99346E+00-1.97098E-02-2.65665E+00-2.99483E-14-1.03580E-13
 -1      1296 1.98255E+01 5.08953E+00-3.97184E-05-3.04732E+00-3.60476E-14-7.52176E-14
 -1      1297 2.05214E+01 3.95237E+00-2.60295E-02-3.07622E+00-4.96582E-14-2.30926E-14
 -1      1298 1.91847E+01 5.08402E+00-3.36353E-03-2.07302E+00-1.30278E-14-1.34212E-13
 -1      1299 1.93317E+01 5.13885E+00 1.04868E-02-2.36636E+00-1.87038E-14-1.19595E-13
 -1      1300 1.97527E+01 4.36677E+00-2.38850E-02-2.49250E+00-4.17565E-14-8.07132E-14
 -1      1301 1.90109E+01 5.13122E+00 3.51849E-03-1.56656E+00-8.36657E-15-1.41614E-13
 -1      1302 1.90879E+01 5.16061E+00 1.28120E-02-1.81667E+00-8.40994E-15-1.40794E-13
 -1      1303 1.93931E+01 4.55490E+00-1.94876E-02-1.93340E+00-1.97949E-14-1.12001E-13
 -1      1304 1.89188E+01 5.16120E+00 6.61302E-03-1.11865E+00 1.29497E-15-1.28647E-13
 -1      1305 1.89604E+01 5.17733E+00 1.27930E-02-1.34029E+00-2.54397E-15-1.33910E-13
 -1      1306 1.92079E+01 4.66148E+00-1.60278E-02-1.44648E+00-1.02093E-14-1.08351E-13
 -1      1307 1.88687E+01 5.18123E+00 8.23680E-03-6.94892E-01 6.34562E-15-1.07202E-13
 -1      1308 1.88910E+01 5.18992E+00 1.20302E-02-9.05363E-01 5.66214E-15-1.20152E-13
 -1      1309 1.91067E+01 4.72704E+00-1.39829E-02-1.00561E+00-7.28584E-17-1.00864E-13
 -1      1310 1.88454E+01 5.19328E+00 9.33217E-03-2.89632E-01 2.16432E-14-8.11868E-14
 -1      1311 1.88550E+01 5.19702E+00 1.11018E-02-4.92032E-01 1.41718E-14-9.11111E-14
 -1      1312 1.90521E+01 4.76615E+00-1.29124E-02-5.89620E-01 1.57195E-14-7.19182E-14
 -1      1313 1.88419E+01 5.19825E+00 1.02615E-02 1.08371E-01 3.33050E-14-7.00620E-14
 -1      1314 1.88415E+01 5.19811E+00 1.01903E-02-9.15905E-02 2.97710E-14-7.50962E-14
 -1      1315 1.90286E+01 4.78425E+00-1.24613E-02-1.89376E-01 4.30572E-14-5.82069E-14
 -1      1316 1.88568E+01 5.19667E+00 1.11953E-02 5.09396E-01 4.37888E-14-5.96363E-14
 -1      1317 1.88464E+01 5.19265E+00 9.26858E-03 3.06577E-01 3.95706E-14-6.62699E-14
 -1      1318 1.90294E+01 4.78361E+00-1.24782E-02 2.06062E-01 6.33152E-14-4.53595E-14
 -1      1319 1.88943E+01 5.18876E+00 1.21220E-02 9.24210E-01 4.46370E-14-4.26846E-14
 -1      1320 1.88711E+01 5.17990E+00 8.17775E-03 7.12777E-01 4.53051E-14-5.40991E-14
 -1      1321 1.90548E+01 4.76409E+00-1.29650E-02 6.06990E-01 7.08981E-14-3.63806E-14
 -1      1322 1.89648E+01 5.17546E+00 1.29169E-02 1.35787E+00 4.79547E-14-8.23300E-15
 -1      1323 1.89223E+01 5.15896E+00 6.49068E-03 1.13478E+00 4.81221E-14-2.90531E-14
 -1      1324 1.91110E+01 4.72349E+00-1.39890E-02 1.02079E+00 7.63374E-14-1.88599E-14
 -1      1325 1.90956E+01 5.15663E+00 1.28289E-02 1.84284E+00 6.39887E-14 3.54647E-14
 -1      1326 1.90171E+01 5.12658E+00 3.18075E-03 1.58991E+00 5.73621E-14 1.38795E-14
 -1      1327 1.92149E+01 4.65491E+00-1.61359E-02 1.46429E+00 8.84705E-14 1.72050E-14
 -1      1328 1.93421E+01 5.13300E+00 1.01487E-02 2.40002E+00 6.92502E-14 1.03202E-13
 -1      1329 1.91931E+01 5.07621E+00-4.34999E-03 2.10274E+00 6.37580E-14 6.29635E-14
 -1      1330 1.94054E+01 4.54225E+00-1.99799E-02 1.96022E+00 1.01142E-13 6.08749E-14
 -1      1331 1.98514E+01 5.09863E+00 5.99145E-03 3.08592E+00 6.49897E-14 2.13995E-13
 -1      1332 1.95406E+01 4.98395E+00-2.05331E-02 2.69870E+00 6.26027E-14 1.47684E-13
 -1      1333 1.97724E+01 4.34607E+00-2.45681E-02 2.53013E+00 1.07581E-13 1.40686E-13
 -1      1334 2.10973E+01 4.90615E+00 8.23103E-03 4.05533E+00 4.27158E-14 3.85192E-13
 -1      1335 2.03292E+01 4.73318E+00-4.79889E-02 3.41809E+00 4.39926E-14 2.84550E-13
 -1      1336 2.05598E+01 3.91554E+00-2.24404E-02 3.18026E+00 8.46025E-14 2.52756E-13
 -1      1337 2.71958E+01 3.20494E+00 9.29013E-01 4.58269E+00 4.55191E-15 6.39933E-13
 -1      1338 2.20135E+01 3.52166E+00-1.82005E-01 3.88605E+00 1.39611E-14 4.70873E-13
 -1      1339 2.21057E+01 2.56158E+00-3.26101E-02 3.45805E+00 6.43357E-14 4.01429E-13
 -1      1340 2.14193E+01 3.59663E-01-7.63471E-01 1.18468E+00 2.28706E-14 6.46261E-13
 -1      1341 2.19935E+01 1.31373E-01-4.00843E-01-1.28665E+00-3.60129E-14 2.32148E-13
 -1      1342 2.06698E+01 3.06771E-01-1.64816E-01-8.06611E-01-3.69912E-14 1.77823E-13
 -1      1343 2.00715E+01 1.53519E-01-7.35215E-02-4.02895E-01-2.21281E-14 1.65038E-13
 -1      1344 1.96008E+01 9.12243E-02-1.48975E-02-3.30706E-01-2.72178E-14 1.30129E-13
 -1      1345 2.09645E+01 3.69361E-01-1.04169E-01-1.27548E+00-5.89390E-14 9.91013E-14
 -1      1346 1.92428E+01 6.45036E-02 3.06933E-03-1.36070E-01-2.62654E-14 1.26572E-13
 -1      1347 1.90875E+01 4.12668E-02 1.32592E-02-1.18273E-01-2.21385E-14 8.46719E-14
 -1      1348 1.99126E+01 1.33956E-01-3.50864E-02-5.05401E-01-4.67543E-14 8.73693E-14
 -1      1349 1.89266E+01 3.15037E-02 1.32750E-02-2.87755E-02-1.37824E-14 5.54348E-14
 -1      1350 1.89061E+01 1.93791E-02 1.10816E-02-1.94163E-02-1.08416E-14 3.01495E-14
 -1      1351 1.94342E+01 5.53863E-02-8.50852E-03-1.71443E-01-4.75175E-14 6.08905E-14
 -1      1352 1.88495E+01 1.60118E-02 8.80546E-03 2.42291E-02 1.75090E-14 3.60198E-14
 -1      1353 1.88909E+01 9.11351E-03 6.46057E-03 2.88636E-02 2.20136E-15 5.66769E-14
 -1      1354 1.92241E+01 2.43826E-02-3.50205E-03-1.26376E-02-1.12844E-14 2.59541E-14
 -1      1355 1.88904E+01 7.89606E-03 4.70325E-03 5.01234E-02-1.10746E-14 4.50629E-14
 -1      1356 1.89599E+01 3.58914E-03 3.66782E-03 5.20384E-02-7.19726E-15 3.39199E-14
 -1      1357 1.91664E+01 1.02247E-02-2.23833E-03 6.61730E-02-1.20960E-14 1.09179E-14
 -1      1358 1.89892E+01 3.28552E-03 2.48201E-03 6.10565E-02 1.64671E-14 4.10522E-14
 -1      1359 1.90691E+01 4.92895E-04 2.25322E-03 6.13800E-02 8.02754E-15 4.26950E-14
 -1      1360 1.91920E+01 2.89318E-03-1.36133E-03 1.03396E-01 6.37262E-15 3.46407E-14
 -1      1361 1.91130E+01 6.31407E-04 1.38636E-03 6.34779E-02 8.80574E-15 5.05151E-14
 -1      1362 1.91938E+01-1.18626E-03 1.49984E-03 6.29011E-02-1.03412E-14 4.04507E-14
 -1      1363 1.92613E+01-1.06547E-03-6.22196E-04 1.17439E-01 2.48212E-15 5.26942E-14
 -1      1364 1.92435E+01-8.17386E-04 8.16967E-04 6.12175E-02-2.42195E-14 5.54834E-14
 -1      1365 1.93200E+01-1.96388E-03 1.05325E-03 6.01969E-02-4.35042E-14 1.46367E-15
 -1      1366 1.93511E+01-3.07640E-03-1.02156E-04 1.18461E-01-3.20353E-14 6.77894E-14
 -1      1367 1.93707E+01-1.47298E-03 4.98269E-04 5.67363E-02-1.90747E-14 1.51862E-14
 -1      1368 1.94407E+01-2.13538E-03 7.69940E-04 5.55858E-02 1.47041E-14 1.18620E-14
 -1      1369 1.94480E+01-3.85696E-03 1.95115E-04 1.12669E-01-2.76872E-14 9.35275E-14
 -1      1370 1.94899E+01-1.57797E-03 3.14631E-04 5.17060E-02 1.97132E-14-3.07050E-14
 -1      1371 1.95532E+01-1.87907E-03 5.90133E-04 5.06500E-02-2.43192E-14-4.58006E-14
 -1      1372 1.95448E+01-3.80724E-03 3.10152E-04 1.04134E-01-1.39683E-15 2.94176E-14
 -1      1373 1.96002E+01-1.27959E-03 2.13115E-04 4.73216E-02-6.15357E-14-5.05412E-14
 -1      1374 1.96578E+01-1.30327E-03 4.84415E-04 4.65285E-02-5.21005E-14-1.35997E-13
 -1      1375 1.96383E+01-3.16243E-03 2.85832E-04 9.56832E-02-5.18003E-14-5.77043E-14
 -1      1376 1.97032E+01-6.65111E-04 1.64649E-04 4.44904E-02 5.02393E-15-1.47866E-13
 -1      1377 1.97572E+01-4.69716E-04 4.35233E-04 4.40958E-02 1.19615E-14-1.28240E-13
 -1      1378 1.97284E+01-2.05893E-03 1.53983E-04 8.93918E-02-5.60294E-14-4.16590E-14
 -1      1379 1.98026E+01 2.19735E-04 1.50038E-04 4.39581E-02 5.54381E-14-9.60859E-14
 -1      1380 1.98560E+01 5.93027E-04 4.30350E-04 4.40829E-02 1.82527E-14-5.53883E-14
 -1      1381 1.98172E+01-5.66197E-04-6.53582E-05 8.68967E-02 3.97304E-14-6.56660E-14
 -1      1382 1.99038E+01 1.35950E-03 1.54328E-04 4.64000E-02-2.92361E-14-3.00694E-14
 -1      1383 1.99603E+01 1.88015E-03 4.59771E-04 4.71633E-02-2.80546E-14-3.67361E-14
 -1      1384 1.99084E+01 1.29526E-03-3.61639E-04 8.96076E-02 2.50081E-14 2.20795E-14
 -1      1385 2.00135E+01 2.76055E-03 1.63681E-04 5.24861E-02-2.08904E-14-4.30443E-14
 -1      1386 2.00778E+01 3.40209E-03 5.13451E-04 5.40149E-02-2.42605E-14-7.13126E-14
 -1      1387 2.00074E+01 3.54103E-03-7.31249E-04 9.88582E-02-2.55183E-14 7.63890E-14
 -1      1388 2.01403E+01 4.44245E-03 1.62888E-04 6.29213E-02 4.19857E-16-8.35270E-14
 -1      1389 2.02177E+01 5.17436E-03 5.78865E-04 6.53567E-02-4.06278E-15-6.72069E-14
 -1      1390 2.01207E+01 6.21011E-03-1.17503E-03 1.16006E-01-2.40223E-14 4.48241E-14
 -1      1391 2.02939E+01 6.42627E-03 1.32871E-04 7.84576E-02 2.80386E-15-4.28636E-14
 -1      1392 2.03910E+01 7.20238E-03 6.37951E-04 8.19539E-02-3.08400E-14-4.55923E-14
 -1      1393 2.02564E+01 9.34778E-03-1.69545E-03 1.42477E-01-1.20736E-14-3.11810E-14
 -1      1394 2.04859E+01 8.71569E-03 4.80848E-05 9.98590E-02-4.00156E-14-5.66014E-14
 -1      1395 2.06100E+01 9.45620E-03 6.63346E-04 1.04574E-01-8.19044E-14-1.46155E-13
 -1      1396 2.04237E+01 1.29773E-02-2.29271E-03 1.79733E-01-8.06950E-14-3.74849E-14
 -1      1397 2.07293E+01 1.12637E-02-1.25555E-04 1.27790E-01-4.81525E-14-1.44886E-13
 -1      1398 2.08886E+01 1.18267E-02 6.14656E-04 1.33855E-01-2.92670E-14-1.99734E-13
 -1      1399 2.06331E+01 1.70490E-02-2.95852E-03 2.29116E-01-6.32662E-14-5.43453E-14
 -1      1400 2.10379E+01 1.39133E-02-4.29973E-04 1.62568E-01 2.88968E-14-1.52807E-13
 -1      1401 2.12409E+01 1.40502E-02 4.37613E-04 1.70026E-01 1.08375E-13-8.59833E-14
 -1      1402 2.08956E+01 2.13478E-02-3.66542E-03 2.91468E-01 2.05801E-14-9.75775E-14
 -1      1403 2.14257E+01 1.62961E-02-9.05852E-04 2.03684E-01 1.32045E-13-8.20758E-14
 -1      1404 2.16800E+01 1.55863E-02 7.34074E-05 2.12370E-01 5.96040E-14 4.28303E-14
 -1      1405 2.12222E+01 2.53303E-02-4.34782E-03 3.66397E-01 1.40942E-13-1.15466E-13
 -1      1406 2.19040E+01 1.76674E-02-1.56357E-03 2.48955E-01-3.38403E-14 5.18162E-14
 -1      1407 2.22139E+01 1.54349E-02-5.07534E-04 2.58274E-01-9.48998E-14-6.12774E-14
 -1      1408 2.16218E+01 2.78562E-02-4.86872E-03 4.50931E-01 1.95078E-14-8.06216E-14
 -1      1409 2.24769E+01 1.66703E-02-2.31561E-03 2.93124E-01 3.64329E-14 7.69697E-15
 -1      1410 2.28395E+01 1.19125E-02-1.22708E-03 3.01686E-01 6.87323E-14 1.89449E-14
 -1      1411 2.20985E+01 2.67920E-02-4.96511E-03 5.37293E-01-1.06731E-14 1.44649E-13
 -1      1412 2.31343E+01 1.10751E-02-2.85299E-03 3.25841E-01-1.84100E-14 6.00908E-14
 -1      1413 2.35319E+01 2.50640E-03-1.76344E-03 3.30929E-01-4.18038E-14 8.81066E-15
 -1      1414 2.26463E+01 1.85549E-02-4.17088E-03 6.09568E-01 2.47792E-14 6.47269E-14
 -1      1415 2.38399E+01-2.28854E-03-2.48174E-03 3.29334E-01-1.46172E-15-3.23838E-14
 -1      1416 2.42306E+01-1.58313E-02-1.40745E-03 3.26314E-01 9.35189E-15-7.51690E-14
 -1      1417 2.32418E+01-2.06891E-03-1.74307E-03 6.39569E-01-6.79475E-14-1.57981E-14
 -1      1418 2.45163E+01-2.68199E-02-7.02521E-05 2.77287E-01-4.49523E-14-6.21204E-14
 -1      1419 2.48238E+01-4.51725E-02 8.86724E-04 2.59466E-01-6.86734E-14-9.57134E-14
 -1      1420 2.38346E+01-4.08787E-02 3.30267E-03 5.83839E-01 4.12908E-15-4.79200E-14
 -1      1421 2.50310E+01-6.35399E-02 5.51841E-03 1.38766E-01 3.71231E-14-5.27790E-14
 -1      1422 2.51418E+01-8.28377E-02 5.85378E-03 9.89754E-02 3.76886E-14-7.13893E-15
 -1      1423 2.43381E+01-1.00188E-01 1.17753E-02 3.87115E-01-1.78278E-14-8.60770E-15
 -1      1424 2.51971E+01-1.05580E-01 1.40205E-02-1.06296E-01-1.62179E-14 5.41962E-14
 -1      1425 2.49817E+01-1.15430E-01 1.23682E-02-1.70398E-01 2.68917E-14 8.34229E-14
 -1      1426 2.46267E+01-1.70080E-01 2.30938E-02 2.39446E-03 1.32047E-14 5.13057E-14
 -1      1427 2.48130E+01-1.31374E-01 2.15708E-02-4.35134E-01 4.49692E-14 1.52770E-13
 -1      1428 2.41880E+01-1.15354E-01 1.56637E-02-5.11258E-01 4.54289E-14 2.57572E-13
 -1      1429 2.45543E+01-2.17296E-01 3.32361E-02-5.61733E-01 1.29024E-13 5.88661E-14
 -1      1430 2.37688E+01-1.06154E-01 2.00871E-02-7.45061E-01 7.06822E-14 2.99226E-13
 -1      1431 2.27961E+01-5.22357E-02 8.42660E-03-7.98441E-01 1.82710E-14 3.50400E-13
 -1      1432 2.40120E+01-1.86587E-01 3.31240E-02-1.17373E+00 4.55018E-14 1.63954E-13
 -1      1433 2.22072E+01-7.10489E-03 3.04228E-03-8.57606E-01-3.87672E-14 2.85952E-13
 -1      1434 2.11647E+01 7.26362E-02-1.21375E-02-8.42200E-01-1.01544E-13 1.75318E-13
 -1      1435 2.30361E+01-3.79639E-02 1.21932E-02-1.55042E+00-6.38959E-14 7.03014E-14
 -1      1436 2.06239E+01 1.33693E-01-2.40803E-02-6.20613E-01-1.33156E-13 2.93959E-13
 -1      1437 1.99360E+01 1.95515E-01-3.53253E-02-5.19070E-01-1.37342E-13 7.01245E-14
 -1      1438 2.19132E+01 1.90121E-01-2.83398E-02-1.37176E+00-7.63209E-14 1.09052E-13
 -1      1439 1.97115E+01 2.24563E-01-4.15251E-02-7.33659E-02 1.96232E-14 1.33827E-13
 -1      1440 1.97083E+01 2.24042E-01-4.14288E-02 6.82195E-02 1.30954E-13 2.14578E-13
 -1      1441 2.11403E+01 3.66269E-01-6.36771E-02-5.56444E-01-5.77802E-14 2.92709E-13
 -1      1442 1.99242E+01 1.94097E-01-3.48935E-02 5.11859E-01-5.72320E-14 1.48603E-13
 -1      1443 2.06028E+01 1.31643E-01-2.34296E-02 6.12270E-01-1.10578E-13 8.21773E-14
 -1      1444 2.11321E+01 3.64996E-01-6.31256E-02 5.43480E-01 2.85501E-14 1.29117E-13
 -1      1445 2.11314E+01 7.03434E-02-1.12946E-02 8.29178E-01-8.90416E-14-3.54022E-14
 -1      1446 2.21574E+01-9.42373E-03 3.74509E-03 8.43168E-01-4.26284E-14-7.84928E-14
 -1      1447 2.18844E+01 1.86018E-01-2.74778E-02 1.35031E+00-1.88544E-13-1.68768E-13
 -1      1448 2.27289E+01-5.42933E-02 9.08682E-03 7.79145E-01 6.46393E-14-1.37307E-13
 -1      1449 2.36778E+01-1.07768E-01 2.04934E-02 7.24770E-01 3.71491E-15-7.45029E-14
 -1      1450 2.29781E+01-4.10698E-02 1.35675E-02 1.51723E+00-1.29159E-14-1.31360E-13
 -1      1451 2.40755E+01-1.16831E-01 1.59101E-02 4.87455E-01-1.04122E-13 9.80743E-14
 -1      1452 2.46712E+01-1.32485E-01 2.14972E-02 4.10701E-01-1.38778E-17-5.39777E-14
 -1      1453 2.39153E+01-1.89401E-01 3.37442E-02 1.13061E+00 4.59355E-15-1.80144E-13
 -1      1454 2.48153E+01-1.16694E-01 1.23668E-02 1.43271E-01-6.41882E-14-1.71675E-13
 -1      1455 2.49969E+01-1.06652E-01 1.37898E-02 7.85935E-02-1.45602E-13-3.34600E-13
 -1      1456 2.44124E+01-2.19392E-01 3.34426E-02 5.11455E-01-1.22496E-13-1.56641E-13
 -1      1457 2.49140E+01-8.42328E-02 5.88312E-03-1.29438E-01-4.42328E-14-3.55865E-13
 -1      1458 2.47651E+01-6.47930E-02 5.40925E-03-1.69926E-01-1.51918E-13-5.90685E-13
 -1      1459 2.44339E+01-1.72190E-01 2.32986E-02-5.91034E-02-1.70749E-13-1.63067E-13
 -1      1460 2.45271E+01-4.68271E-02 1.08657E-03-2.93825E-01-1.89306E-13-5.35167E-13
 -1      1461 2.41766E+01-2.82280E-02-1.51393E-05-3.12516E-01-7.47228E-14-6.79505E-13
 -1      1462 2.40884E+01-1.02705E-01 1.21161E-02-4.50925E-01-1.87142E-13-3.02373E-13
 -1      1463 2.38568E+01-1.75782E-02-1.03133E-03-3.64937E-01 1.16364E-13-6.90961E-13
 -1      1464 2.34178E+01-3.52606E-03-2.26616E-03-3.68869E-01 1.08436E-13-4.83977E-13
 -1      1465 2.35217E+01-4.36739E-02 3.71978E-03-6.55567E-01 9.70795E-15-2.30226E-13
 -1      1466 2.30730E+01 1.10507E-03-1.22585E-03-3.73196E-01-4.86452E-14-1.25547E-13
 -1      1467 2.26228E+01 1.06002E-02-2.49227E-03-3.68798E-01 7.61972E-14-8.73052E-14
 -1      1468 2.28598E+01-4.51296E-03-1.38131E-03-7.18682E-01 2.71889E-13 2.62091E-14
 -1      1469 2.22903E+01 1.16054E-02-5.84991E-04-3.45212E-01 6.73489E-14-2.29403E-13
 -1      1470 2.18741E+01 1.78839E-02-1.89911E-03-3.36682E-01 1.42434E-13-1.49722E-13
 -1      1471 2.21918E+01 1.76385E-02-4.05123E-03-6.92740E-01 1.26013E-13-3.43701E-14
 -1      1472 2.15766E+01 1.74146E-02 2.48008E-05-2.97905E-01 2.64518E-13-9.65564E-14
 -1      1473 2.12191E+01 2.19722E-02-1.38636E-03-2.87249E-01 1.44430E-13 8.65627E-14
 -1      1474 2.15734E+01 2.93405E-02-5.37749E-03-6.16696E-01 2.73595E-13 5.16332E-14
 -1      1475 2.09696E+01 2.16605E-02-6.03059E-05-2.38790E-01-4.38347E-14 1.44945E-13
 -1      1476 2.06869E+01 2.56044E-02-1.55401E-03-2.26247E-01-2.84122E-14 6.01871E-14
 -1      1477 2.10371E+01 3.69557E-02-6.25885E-03-5.12004E-01 7.41586E-14 1.88871E-13
 -1      1478 2.04938E+01 2.65072E-02-1.22947E-03-1.68592E-01 1.49636E-13 1.05428E-13
 -1      1479 2.03018E+01 3.00277E-02-1.94304E-03-1.52997E-01 1.78551E-13 3.77486E-13
 -1      1480 2.06031E+01 4.53986E-02-7.04628E-03-3.85335E-01 6.05301E-14 9.08622E-14
 -1      1481 2.01678E+01 3.48824E-02-1.77745E-03-8.46610E-02 9.63103E-14 3.29734E-13
 -1      1482 2.00810E+01 3.12370E-02 8.79761E-04-6.59580E-02-4.24285E-14 5.31961E-13
 -1      1483 2.02816E+01 5.72759E-02-7.21819E-03-2.37073E-01 1.81930E-13 2.52148E-13
 -1      1484 1.99971E+01 7.68979E-03 3.68435E-03 6.44857E-03-3.58952E-13 3.80646E-13
 -1      1485 2.00588E+01 4.71510E-02-2.47982E-03-6.14164E-02-3.56626E-13 3.11704E-13
 -1      1486 2.02504E+01 7.54883E-02-1.52117E-01 4.84538E-01 2.90497E-14 5.80772E-13
 -1      1487 2.15217E+01 2.16101E-01-2.29287E-01 7.21554E-01 3.04617E-14 6.17201E-13
 -1      1488 2.17209E+01 8.81849E-01-8.54251E-02 2.06605E+00 4.79894E-14 4.69971E-13
 -1      1489 1.93205E+01 3.23781E-02-2.13444E-02 1.86686E-01 2.70339E-14 5.09565E-13
 -1      1490 1.97421E+01 1.13599E-01-6.27167E-02 2.38685E-01 1.70107E-14 5.34601E-13
 -1      1491 2.02944E+01 1.87711E-01-5.51762E-02 7.87427E-01 4.30073E-14 4.02167E-13
 -1      1492 1.89370E+01 1.50993E-02 5.66690E-03 5.42045E-02 2.52246E-14 4.51781E-13
 -1      1493 1.90766E+01 5.16014E-02 9.70693E-04 8.04933E-02 1.87966E-14 4.75085E-13
 -1      1494 1.95481E+01 7.18389E-02-1.21416E-02 3.00257E-01 4.36387E-14 3.29353E-13
 -1      1495 1.88248E+01 7.12164E-03 6.98076E-03-8.27470E-03 2.14022E-14 4.01042E-13
 -1      1496 1.88404E+01 2.58371E-02 1.10912E-02 6.09630E-03 2.03392E-14 4.32859E-13
 -1      1497 1.92114E+01 3.10306E-02-2.44596E-03 8.47894E-02 3.83339E-14 2.89916E-13
 -1      1498 1.88492E+01 3.22805E-03 4.78623E-03-3.85588E-02-1.49186E-16 4.02775E-13
 -1      1499 1.88064E+01 1.38023E-02 8.52794E-03-3.04615E-02-7.95891E-15 3.86668E-13
 -1      1500 1.90936E+01 1.32774E-02-1.60182E-03-2.02186E-02 1.25655E-14 2.64092E-13
 -1      1501 1.89419E+01 1.10126E-03 3.29305E-03-5.21193E-02-2.18965E-14 4.68701E-13
 -1      1502 1.88724E+01 7.30815E-03 5.37950E-03-4.76511E-02-2.12107E-14 4.11539E-13
 -1      1503 1.90938E+01 4.59901E-03-1.62125E-03-7.18793E-02-2.61111E-14 3.04089E-13
 -1      1504 1.90655E+01-9.98566E-05 2.50291E-03-5.63595E-02 4.15870E-14 4.34514E-13
 -1      1505 1.89860E+01 3.53263E-03 3.44831E-03-5.41172E-02 1.09141E-14 4.63077E-13
 -1      1506 1.91560E+01 2.17629E-05-1.37571E-03-9.49389E-02 3.25792E-15 2.99893E-13
 -1      1507 1.91986E+01-7.37633E-04 2.02639E-03-5.53943E-02 3.62701E-14 3.43795E-13
 -1      1508 1.91185E+01 1.29195E-03 2.35356E-03-5.45187E-02 3.85849E-14 4.04138E-13
 -1      1509 1.92485E+01-2.38052E-03-1.01728E-03-1.01937E-01 5.88831E-14 2.42497E-13
 -1      1510 1.93297E+01-1.00180E-03 1.66503E-03-5.17655E-02 4.66894E-14 2.59800E-13
 -1      1511 1.92539E+01 1.92913E-05 1.68573E-03-5.16868E-02 2.16780E-14 3.07377E-13
 -1      1512 1.93528E+01-3.48218E-03-7.01960E-04-1.00054E-01 5.55391E-14 1.97501E-13
 -1      1513 1.94530E+01-1.00520E-03 1.35063E-03-4.71513E-02 2.51907E-14 2.53114E-13
 -1      1514 1.93837E+01-5.96664E-04 1.23927E-03-4.74711E-02 2.87089E-14 2.63855E-13
 -1      1515 1.94586E+01-3.74840E-03-4.79486E-04-9.37929E-02 4.31617E-14 1.58362E-13
 -1      1516 1.95669E+01-8.18602E-04 1.06325E-03-4.27147E-02 2.04758E-14 2.41521E-13
 -1      1517 1.95042E+01-7.42345E-04 9.25369E-04-4.31410E-02 1.42212E-14 2.36393E-13
 -1      1518 1.95609E+01-3.45219E-03-3.51289E-04-8.61587E-02 3.19701E-14 1.72177E-13
 -1      1519 1.96724E+01-4.86112E-04 7.95832E-04-3.93011E-02 5.45704E-14 1.52717E-13
 -1      1520 1.96153E+01-5.33161E-04 7.02826E-04-3.96078E-02 2.76441E-14 1.93742E-13
 -1      1521 1.96582E+01-2.76077E-03-3.08174E-04-7.92615E-02 5.35046E-14 9.67412E-14
 -1      1522 1.97727E+01-3.38817E-05 5.43309E-04-3.75611E-02-1.17853E-14 1.61579E-13
 -1      1523 1.97192E+01-3.94196E-05 5.48524E-04-3.75611E-02 5.18100E-15 1.43582E-13
 -1      1524 1.97516E+01-1.77600E-03-3.42799E-04-7.46582E-02 5.02198E-14 1.05922E-13
 -1      1525 1.98727E+01 5.23630E-04 3.00116E-04-3.80309E-02 5.19246E-15 1.32968E-13
 -1      1526 1.98200E+01 6.98530E-04 4.46881E-04-3.75579E-02 2.08061E-14 1.69150E-13
 -1      1527 1.98439E+01-5.57152E-04-4.52006E-04-7.35680E-02 1.89469E-14 6.26772E-14
 -1      1528 1.99786E+01 1.17797E-03 5.99709E-05-4.11816E-02 2.86385E-14 8.12206E-14
 -1      1529 1.99231E+01 1.65918E-03 3.85815E-04-4.00770E-02 2.65622E-14 1.11360E-13
 -1      1530 1.99397E+01 8.63177E-04-6.36277E-04-7.70080E-02 4.16924E-14 4.29095E-14
 -1      1531 2.00978E+01 1.92024E-03-1.83516E-04-4.74397E-02-1.29317E-13 1.62559E-13
 -1      1532 2.00353E+01 2.82929E-03 3.54691E-04-4.55471E-02-6.36776E-14 6.68010E-14
 -1      1533 2.00446E+01 2.46488E-03-8.98289E-04-8.58681E-02-4.62094E-14 7.61615E-14
 -1      1534 2.02387E+01 2.73266E-03-4.35479E-04-5.71752E-02 3.49574E-14 2.29896E-13
 -1      1535 2.01645E+01 4.19109E-03 3.42859E-04-5.43415E-02-1.97803E-14 1.94824E-13
 -1      1536 2.01654E+01 4.22440E-03-1.24058E-03-1.00926E-01-8.99164E-14 7.79514E-14
 -1      1537 2.04105E+01 3.57639E-03-6.97199E-04-7.06455E-02-6.19470E-15 1.28000E-13
 -1      1538 2.03194E+01 5.70461E-03 3.38456E-04-6.67341E-02 4.53492E-14 2.04042E-13
 -1      1539 2.03094E+01 6.09378E-03-1.66166E-03-1.22787E-01 7.31769E-14 9.65037E-14
 -1      1540 2.06227E+01 4.37393E-03-9.61218E-04-8.78763E-02 3.31260E-14 6.48886E-14
 -1      1541 2.05094E+01 7.28152E-03 3.27655E-04-8.27978E-02 6.22506E-15 9.85637E-14
 -1      1542 2.04845E+01 7.97073E-03-2.14955E-03-1.51732E-01 2.76796E-14 9.37661E-14
 -1      1543 2.08839E+01 4.98393E-03-1.20235E-03-1.08453E-01-6.89195E-14 1.36849E-13
 -1      1544 2.07435E+01 8.74668E-03 2.95092E-04-1.02223E-01-2.44982E-14 1.01699E-13
 -1      1545 2.06984E+01 9.65514E-03-2.67102E-03-1.87414E-01-2.61425E-14 1.33338E-13
 -1      1546 2.12007E+01 5.16777E-03-1.36199E-03-1.31186E-01-2.78619E-14 1.30096E-13
 -1      1547 2.10293E+01 9.78367E-03 2.27171E-04-1.24024E-01-1.92824E-14 1.26565E-13
 -1      1548 2.09573E+01 1.07873E-02-3.15456E-03-2.28371E-01-6.55795E-14 2.04001E-13
 -1      1549 2.15745E+01 4.55181E-03-1.32322E-03-1.53620E-01-1.46766E-14 1.72858E-13
 -1      1550 2.13711E+01 9.86535E-03 1.21145E-04-1.46101E-01-1.47147E-14 1.27111E-13
 -1      1551 2.12644E+01 1.07676E-02-3.46521E-03-2.71279E-01-1.98888E-14 1.20692E-13
 -1      1552 2.19977E+01 2.60175E-03-8.78414E-04-1.71383E-01-1.02233E-14 1.15820E-13
 -1      1553 2.17665E+01 8.18449E-03 3.54277E-06-1.64658E-01-1.17358E-14 5.94446E-14
 -1      1554 2.16172E+01 8.66996E-03-3.37258E-03-3.09924E-01 1.47453E-14 5.09879E-15
 -1      1555 2.24478E+01-1.34866E-03 2.94909E-04-1.77502E-01-2.85890E-14 2.21904E-13
 -1      1556 2.22015E+01 3.63260E-03-4.10271E-05-1.73550E-01-5.81010E-14 1.09913E-13
 -1      1557 2.20040E+01 3.19914E-03-2.52312E-03-3.33996E-01-5.53594E-14-4.83238E-14
 -1      1558 2.28812E+01-7.92722E-03 2.60181E-03-1.62030E-01-1.54668E-14 4.03993E-13
 -1      1559 2.26450E+01-5.06037E-03 1.58954E-04-1.63861E-01-2.11740E-14 3.97841E-13
 -1      1560 2.23987E+01-7.18881E-03-4.50008E-04-3.28106E-01-1.16852E-13 2.07447E-13
 -1      1561 2.32269E+01-1.72737E-02 6.34376E-03-1.12828E-01 2.47181E-14 3.86877E-13
 -1      1562 2.30423E+01-1.88233E-02 8.51932E-04-1.24367E-01 4.69351E-14 4.65499E-13
 -1      1563 2.27569E+01-2.37639E-02 3.30783E-03-2.72062E-01 1.77835E-14 3.84016E-13
 -1      1564 2.33868E+01-2.82035E-02 1.12681E-02-1.89311E-02-6.13468E-14 3.86353E-13
 -1      1565 2.33116E+01-3.71389E-02 2.24144E-03-4.41123E-02-1.64200E-14 3.87032E-13
 -1      1566 2.30131E+01-4.62746E-02 8.87283E-03-1.44384E-01-1.26912E-14 4.56423E-13
 -1      1567 2.32489E+01-3.71829E-02 1.58865E-02 1.21985E-01-9.24217E-14 6.26759E-13
 -1      1568 2.33492E+01-5.63612E-02 4.18582E-03 8.14608E-02-1.54422E-13 3.52689E-13
 -1      1569 2.30847E+01-7.08131E-02 1.54625E-02 6.82794E-02-1.63432E-13 4.65798E-13
 -1      1570 2.27242E+01-3.80203E-02 1.70008E-02 2.92370E-01 9.81455E-14 4.61419E-13
 -1      1571 2.30520E+01-6.83450E-02 5.76588E-03 2.40613E-01 6.10085E-14 5.90555E-13
 -1      1572 2.28896E+01-8.75783E-02 2.08213E-02 3.54416E-01-1.58571E-14 4.06427E-13
 -1      1573 2.18065E+01-2.39920E-02 1.05210E-02 4.45368E-01-7.08461E-15 3.35926E-13
 -1      1574 2.23635E+01-6.16188E-02 5.10321E-03 3.95512E-01 5.86180E-14 4.52013E-13
 -1      1575 2.23812E+01-8.11959E-02 2.13115E-02 6.58212E-01 1.03016E-13 4.29785E-13
 -1      1576 2.06366E+01 6.46220E-03-5.32564E-03 5.10060E-01-3.85807E-14 3.90500E-13
 -1      1577 2.13361E+01-2.77415E-02 2.54398E-04 4.83007E-01-6.21298E-14 3.28855E-13
 -1      1578 2.15975E+01-3.74745E-02 1.37828E-02 8.73311E-01-1.23686E-14 4.19196E-13
 -1      1579 1.95167E+01 4.36525E-02-2.59276E-02 4.24102E-01 1.50557E-14 3.35260E-13
 -1      1580 2.01769E+01 2.84163E-02-8.58020E-03 4.38842E-01 1.27676E-14 3.17267E-13
 -1      1581 2.06999E+01 4.22128E-02-1.06306E-03 8.74089E-01 8.70311E-15 3.34389E-13
 -1      1582 1.88210E+01 6.84078E-02-4.02265E-02 1.84258E-01 1.84585E-13-3.96107E-14
 -1      1583 1.92215E+01 8.39206E-02-1.73647E-02 2.43043E-01 1.40844E-13 1.82829E-13
 -1      1584 1.99543E+01 1.28981E-01-1.69643E-02 5.91525E-01 2.19508E-13 1.02683E-13
 -1      1585 1.88144E+01 6.54861E-02-3.80003E-02-1.28287E-01-7.07030E-14-1.91456E-13
 -1      1586 1.88037E+01 1.09322E-01-2.00114E-02-4.67049E-02 8.12683E-14-7.33606E-14
 -1      1587 1.96278E+01 1.75923E-01-2.55201E-02 8.86549E-02 1.72742E-13-1.42909E-14
 -1      1588 1.94949E+01 3.67317E-02-1.94893E-02-3.86515E-01 2.91807E-14-4.15834E-13
 -1      1589 1.90799E+01 9.09683E-02-1.35655E-02-3.15744E-01 2.45116E-15-3.30333E-13
 -1      1590 1.98443E+01 1.51880E-01-2.31135E-02-4.44857E-01 1.37074E-13-2.09336E-13
 -1      1591 2.05932E+01-4.09404E-04 4.52042E-03-4.96814E-01 1.54976E-13-7.51857E-13
 -1      1592 1.99356E+01 4.19869E-02-1.44639E-03-4.61436E-01 1.06799E-13-5.73479E-13
 -1      1593 2.05091E+01 6.96801E-02-1.32728E-02-8.00103E-01 1.69944E-13-5.70743E-13
 -1      1594 2.17302E+01-2.79680E-02 2.15772E-02-4.49189E-01-1.52080E-13-4.85820E-13
 -1      1595 2.10532E+01-9.89458E-03 9.47274E-03-4.52534E-01-1.08867E-13-6.69208E-13
 -1      1596 2.13672E+01-2.40377E-02-2.68300E-03-8.73567E-01-1.10596E-13-4.08873E-13
 -1      1597 2.26020E+01-3.87368E-02 2.68615E-02-3.00696E-01 1.77393E-14-3.66571E-13
 -1      1598 2.20829E+01-4.36894E-02 1.44049E-02-3.29588E-01-4.78723E-14-4.94410E-13
 -1      1599 2.21447E+01-8.68170E-02 4.40311E-03-7.02928E-01-9.53864E-14-3.52138E-13
 -1      1600 2.30688E+01-3.58880E-02 2.28955E-02-1.24559E-01 4.66641E-15-3.04985E-13
 -1      1601 2.27878E+01-5.44789E-02 1.33085E-02-1.61973E-01 3.70450E-15-3.61666E-13
 -1      1602 2.26605E+01-1.05657E-01 7.30181E-03-4.06359E-01 1.75727E-15-2.61325E-13
 -1      1603 2.31385E+01-2.63390E-02 1.50113E-02 2.72610E-02-1.45672E-13-8.05537E-14
 -1      1604 2.30890E+01-4.86964E-02 8.91520E-03-6.51818E-03-6.63506E-14-2.54493E-13
 -1      1605 2.28566E+01-9.18616E-02 7.29204E-03-1.00482E-01-8.18061E-14-1.67382E-13
 -1      1606 2.29013E+01-1.57176E-02 7.34403E-03 1.32941E-01 2.79570E-13-2.15834E-13
 -1      1607 2.30288E+01-3.54618E-02 4.12975E-03 1.08132E-01 1.36445E-13 3.97677E-14
 -1      1608 2.27673E+01-6.38756E-02 5.93147E-03 1.43855E-01 6.61624E-14-2.62124E-13
 -1      1609 2.24700E+01-6.86909E-03 1.75117E-03 1.92126E-01-9.06870E-15-6.02011E-13
 -1      1610 2.27080E+01-2.14047E-02 5.72928E-04 1.76813E-01 1.08875E-13-2.86229E-13
 -1      1611 2.24709E+01-3.54001E-02 4.27681E-03 3.03366E-01 2.53114E-13-1.64053E-13
 -1      1612 2.19453E+01-4.61280E-04-1.62327E-03 2.14087E-01 2.13875E-13-7.34218E-13
 -1      1613 2.22353E+01-9.64008E-03-1.39437E-03 2.06629E-01 9.77670E-14-5.45059E-13
 -1      1614 2.20528E+01-1.27634E-02 2.79433E-03 3.84391E-01 1.95601E-13-2.16863E-13
 -1      1615 2.14042E+01 4.00293E-03-3.47683E-03 2.09358E-01-3.69474E-14-7.77552E-13
 -1      1616 2.17024E+01-6.98694E-04-2.14152E-03 2.07810E-01 5.20621E-14-8.34034E-13
 -1      1617 2.15859E+01 3.07858E-03 1.51630E-03 4.04452E-01 1.12615E-13-3.82666E-13
 -1      1618 2.09027E+01 7.44163E-03-4.77987E-03 1.85570E-01-2.29083E-14-6.95459E-13
 -1      1619 2.11777E+01 6.28458E-03-2.31390E-03 1.88663E-01-1.04010E-14-6.20892E-13
 -1      1620 2.11263E+01 1.38566E-02 1.88488E-04 3.80438E-01 3.42391E-14-1.89158E-13
 -1      1621 2.04835E+01 1.07726E-02-6.21072E-03 1.46198E-01-9.97314E-14-6.51233E-13
 -1      1622 2.07108E+01 1.26810E-02-2.55348E-03 1.53737E-01-8.99066E-14-8.22799E-13
 -1      1623 2.07148E+01 2.22426E-02-1.52679E-03 3.23289E-01-2.04676E-14-3.08930E-13
 -1      1624 2.01837E+01 1.44995E-02-6.70408E-03 9.10013E-02-9.87101E-14-4.21101E-13
 -1      1625 2.03403E+01 1.96755E-02-2.94612E-03 1.04256E-01-6.85858E-14-4.90425E-13
 -1      1626 2.03821E+01 3.10600E-02-3.43634E-03 2.37465E-01-2.01706E-13-4.09512E-13
 -1      1627 2.00340E+01 1.70136E-02 7.87850E-04 2.63460E-02 2.80348E-14-4.65380E-13
 -1      1628 2.00971E+01 2.41659E-02-1.80962E-03 4.28838E-02 5.94186E-14-3.80117E-13
 -1      1629 2.01487E+01 3.85511E-02-4.09048E-03 1.25535E-01 7.79411E-15-1.72512E-13
 -1      1630 2.00004E+01 7.18033E-03 3.95529E-03-2.79337E-03-2.26194E-13-2.29709E-13
 -1      1631 2.00249E+01 1.42846E-01-3.37188E-03 7.42062E-02 5.49547E-14 2.62684E-13
 -1      1632 2.00270E+01 7.19439E-02 1.37428E-03 5.71731E-02-2.57799E-13 1.98130E-13
 -1      1633 2.00170E+01 4.02876E-01-2.07266E-03 1.36502E-01 2.28434E-13 8.47920E-14
 -1      1634 2.00224E+01 2.51222E-01-2.28062E-03 1.25534E-01 1.46346E-13-1.47690E-14
 -1      1635 2.00470E+01 2.40753E-01-4.70089E-03 1.96004E-01 1.19809E-13 2.31439E-13
 -1      1636 2.00069E+01 7.50359E-01-6.82630E-04 1.74873E-01 1.98242E-13-3.20805E-14
 -1      1637 2.00132E+01 5.47785E-01-1.60692E-03 1.69395E-01 1.50041E-13 1.85607E-13
 -1      1638 2.00271E+01 4.91895E-01-4.10965E-03 2.96857E-01 1.13899E-13-1.20130E-14
 -1      1639 1.99971E+01 1.13632E+00 7.98589E-05 1.86381E-01 1.07853E-13 3.38913E-15
 -1      1640 2.00032E+01 9.15867E-01-7.42372E-04 1.86269E-01 7.11584E-15 2.47785E-13
 -1      1641 2.00093E+01 8.00333E-01-1.46035E-03 3.49544E-01-1.32171E-13 3.30494E-14
 -1      1642 1.99882E+01 1.50209E+00 3.50288E-04 1.72372E-01-5.95508E-13-4.94551E-13
 -1      1643 1.99937E+01 1.29850E+00-2.74618E-04 1.77019E-01 1.07045E-13-6.35331E-13
 -1      1644 1.99928E+01 1.12592E+00 1.35946E-03 3.51411E-01-4.29470E-13-5.25424E-13
 -1      1645 1.99805E+01 1.81082E+00 4.74782E-04 1.34786E-01-5.53199E-13 2.25476E-13
 -1      1646 1.99852E+01 1.64581E+00 6.90129E-05 1.43837E-01-5.72769E-13-1.50351E-13
 -1      1647 1.99783E+01 1.42961E+00 3.92595E-03 3.05756E-01-5.19198E-14-5.31042E-13
 -1      1648 1.99753E+01 2.01273E+00 5.35174E-04 7.81372E-02-1.10858E-13 2.99857E-13
 -1      1649 1.99783E+01 1.91318E+00 3.17778E-04 9.04787E-02-4.44430E-13 4.81019E-13
 -1      1650 1.99664E+01 1.67390E+00 6.10852E-03 2.17802E-01-4.90816E-14 4.64099E-13
 -1      1651 1.99731E+01 2.07792E+00 5.67507E-04 9.25373E-03 4.52293E-13 3.47991E-13
 -1      1652 1.99739E+01 2.05918E+00 5.54863E-04 2.33981E-02-8.39172E-14 4.61257E-13
 -1      1653 1.99585E+01 1.82207E+00 7.58394E-03 9.81748E-02 1.48198E-13 4.78116E-13
 -1      1654 1.99745E+01 1.99362E+00 5.30455E-04-6.29230E-02 2.10508E-13-2.71115E-13
 -1      1655 1.99730E+01 2.06064E+00 7.47627E-04-4.88633E-02 3.72282E-13-5.01400E-14
 -1      1656 1.99559E+01 1.85166E+00 8.09228E-03-3.82424E-02 8.59297E-14 2.00717E-13
 -1      1657 1.99796E+01 1.76776E+00 3.77931E-04-1.28267E-01-6.66680E-14-2.67752E-13
 -1      1658 1.99759E+01 1.91345E+00 8.79344E-04-1.16338E-01 1.54494E-13-1.08833E-13
 -1      1659 1.99594E+01 1.75556E+00 7.46116E-03-1.73145E-01-3.65441E-14-2.75064E-13
 -1      1660 1.99881E+01 1.43576E+00 1.09376E-04-1.76147E-01-4.38012E-13-7.44587E-15
 -1      1661 1.99823E+01 1.63715E+00 7.81525E-04-1.68382E-01-1.32950E-13-5.30131E-13
 -1      1662 1.99693E+01 1.54648E+00 5.79013E-03-2.86242E-01-2.02970E-13-4.36959E-13
 -1      1663 1.99994E+01 1.03346E+00-5.50920E-04-1.99430E-01-8.42994E-13-2.81782E-13
 -1      1664 1.99921E+01 1.26794E+00 3.71492E-04-1.97029E-01-6.58367E-13 1.08801E-13
 -1      1665 1.99842E+01 1.25069E+00 3.06483E-03-3.60327E-01-3.45947E-13-1.97344E-13
 -1      1666 2.00121E+01 6.28496E-01-1.85527E-03-1.90643E-01-8.47170E-13-1.43787E-15
 -1      1667 2.00043E+01 8.54730E-01-6.80000E-04-1.94820E-01-7.83405E-13-1.37140E-13
 -1      1668 2.00043E+01 9.06030E-01-3.84837E-04-3.80854E-01-2.88963E-13-2.42493E-13
 -1      1669 2.00271E+01 2.95890E-01-7.74874E-04-1.45759E-01-9.01195E-13-1.54671E-13
 -1      1670 2.00169E+01 4.66981E-01-2.48895E-03-1.57995E-01-7.83728E-13-7.86738E-14
 -1      1671 2.00273E+01 5.65938E-01-3.87118E-03-3.36507E-01-4.25515E-13-4.80302E-16
 -1      1672 2.00498E+01 1.18494E-01 3.42884E-03-1.03656E-01-4.01912E-13 2.48430E-13
 -1      1673 2.00456E+01 2.04865E-01-2.12890E-03-1.32605E-01-6.43475E-13 1.54981E-13
 -1      1674 2.00731E+01 3.14462E-01-4.34044E-03-2.73269E-01-1.80142E-13 1.75410E-13
 -1      1675 2.01427E+01 1.50220E-01 9.23893E-04-2.06011E-01-7.36930E-14 3.69565E-13
 -1      1676-6.33741E-01-1.49795E+01-1.74251E+00-1.00130E+00 1.51462E-12 3.33455E-13
 -1      1677-6.07518E-01-1.70733E+01-1.92454E+00 3.13706E-01 1.29735E-12 3.50359E-13
 -1      1678 1.04844E+00-8.52162E+00-1.27483E+00 1.99684E-01 1.22369E-12 3.44558E-13
 -1      1679 4.26665E-01-1.35384E+01-1.78022E+00-2.89215E-01 1.50990E-12 1.06339E-13
 -1      1680 6.56951E+00-9.02111E-01-5.63691E-01 4.33963E+00 1.08780E-12 4.14335E-13
 -1      1681 3.69391E+00-6.41468E+00-1.30889E+00 1.60902E+00 1.31462E-12 5.34461E-13
 -1      1682 1.65492E+01 4.90832E+00 1.90076E-01 9.45815E+00 6.17395E-13 5.66436E-13
 -1      1683 1.01068E+01 1.25376E+00-7.17073E-01 5.62167E+00 9.30589E-13 5.52558E-13
 -1      1684 3.09879E+01 6.04602E+00 9.05059E-01 1.20859E+01 3.95239E-13 5.90861E-13
 -1      1685 2.21566E+01 5.47941E+00 7.30214E-02 9.98728E+00 4.24771E-13 6.02185E-13
 -1      1686 4.45949E+01 5.21871E+00 1.53183E+00 1.06812E+01 3.42462E-13 3.55938E-13
 -1      1687 3.59179E+01 6.61300E+00 8.47864E-01 1.18693E+01 4.53082E-13 4.62075E-13
 -1      1688 5.36375E+01 3.63471E+00 1.86031E+00 4.74227E+00 1.14575E-13-9.82547E-15
 -1      1689 4.85082E+01 5.04491E+00 1.51615E+00 9.22855E+00 1.92277E-13 2.38920E-13
 -1      1690 5.38111E+01 3.77094E+00 1.76289E+00-3.44959E+00 2.26208E-13-2.80248E-13
 -1      1691 5.44085E+01 3.61266E+00 1.80486E+00 2.04027E+00 1.58706E-13-8.00471E-14
 -1      1692 4.66065E+01 5.37003E+00 1.43427E+00-1.00800E+01 3.44919E-13-7.40297E-13
 -1      1693 5.25019E+01 3.81901E+00 1.82348E+00-6.13043E+00 3.05728E-13-4.97047E-13
 -1      1694 3.33430E+01 6.89870E+00 7.61618E-01-1.22228E+01 3.86358E-13-6.98552E-13
 -1      1695 4.25091E+01 5.62929E+00 1.50205E+00-1.16820E+01 2.38587E-13-8.15903E-13
 -1      1696 1.92182E+01 4.79145E+00-9.51624E-02-9.11718E+00 9.57567E-13-7.91367E-13
 -1      1697 2.81106E+01 6.03852E+00 7.99961E-01-1.18930E+01 6.22391E-13-5.29354E-13
 -1      1698 8.14361E+00-3.13071E-01-8.63523E-01-4.51353E+00 1.23590E-12-9.65006E-13
 -1      1699 1.36305E+01 3.94631E+00 5.07295E-03-8.25579E+00 1.14464E-12-9.12159E-13
 -1      1700 2.85072E+00-8.26700E+00-1.37297E+00-1.11924E+00 1.13110E-12-5.93720E-13
 -1      1701 5.13155E+00-2.61852E+00-6.90599E-01-3.35524E+00 1.23102E-12-9.50073E-13
 -1      1702 1.57360E-01-1.44792E+01-1.72246E+00-6.24733E-02 1.01025E-12-3.14387E-13
 -1      1703 5.77436E-01-1.00588E+01-1.28599E+00-1.34782E-02 1.19715E-12-4.33140E-13
 -1      1704-7.44797E-01-1.68336E+01-1.86863E+00-6.89011E-01 3.17746E-13-4.03899E-13
 -1      1705-7.50365E-01-1.59224E+01-1.77140E+00 8.62489E-01 8.60256E-13-4.65850E-13
 -1      1706-3.39245E-01-1.32965E+01-1.58304E+00-9.47432E-01-6.10845E-13-7.37854E-13
 -1      1707-3.89688E-01-1.61514E+01-1.83032E+00-8.79743E-02 6.10068E-14-4.08618E-13
 -1      1708 1.90524E+00-6.72280E+00-1.16573E+00 7.57514E-01-1.19049E-12-5.99465E-13
 -1      1709 9.03727E-01-1.19423E+01-1.70212E+00-2.71326E-01-8.33889E-13-6.36477E-13
 -1      1710 8.06210E+00 4.30688E-01-5.17206E-01 5.13300E+00-9.51683E-13-5.55000E-13
 -1      1711 4.58684E+00-4.64934E+00-1.26330E+00 2.06822E+00-1.24478E-12-4.77840E-13
 -1      1712 1.94406E+01 4.83894E+00 2.56421E-01 9.99589E+00-6.04516E-13-2.62679E-13
 -1      1713 1.25819E+01 1.98625E+00-5.83149E-01 6.47930E+00-8.35443E-13-4.98712E-13
 -1      1714 3.33423E+01 5.78918E+00 9.83534E-01 1.18986E+01-1.81355E-13 5.13811E-13
 -1      1715 2.47449E+01 5.58642E+00 1.95579E-01 1.03062E+01-5.13700E-13 3.24185E-14
 -1      1716 4.63700E+01 5.01426E+00 1.63537E+00 1.04553E+01 1.93359E-13 5.31353E-13
 -1      1717 3.80782E+01 6.46450E+00 9.86497E-01 1.19762E+01 8.97060E-14 4.39426E-13
 -1      1718 5.45402E+01 3.62443E+00 1.91236E+00 3.76496E+00-1.27121E-14 4.95104E-13
 -1      1719 4.96933E+01 4.88216E+00 1.58076E+00 8.43601E+00 8.79158E-14 5.04929E-13
 -1      1720 5.47817E+01 3.77007E+00 1.85301E+00-4.08055E+00-2.52159E-13 6.85008E-13
 -1      1721 5.58098E+01 3.49504E+00 1.93816E+00 1.30301E+00-1.51046E-13 5.21083E-13
 -1      1722 4.60245E+01 5.46987E+00 1.35550E+00-9.73718E+00-6.95555E-13 1.10656E-12
 -1      1723 5.22430E+01 4.00468E+00 1.78984E+00-6.04000E+00-4.19303E-13 7.47180E-13
 -1      1724 3.37719E+01 6.73504E+00 7.74660E-01-1.21611E+01-1.05677E-12 1.50413E-12
 -1      1725 4.23934E+01 5.53193E+00 1.44479E+00-1.16537E+01-8.17457E-13 1.23468E-12
 -1      1726 2.05106E+01 5.45141E+00 1.79900E-03-9.81161E+00-1.28419E-12 1.42752E-12
 -1      1727 2.88234E+01 6.35677E+00 8.44778E-01-1.22440E+01-1.09912E-12 1.61515E-12
 -1      1728 9.97648E+00-2.02119E-01-7.80540E-01-5.03547E+00-1.41975E-12 1.21680E-12
 -1      1729 1.60130E+01 3.67639E+00 7.51333E-02-8.74537E+00-1.32427E-12 1.36069E-12
 -1      1730 3.02877E+00-7.19984E+00-1.43073E+00-1.03761E+00-7.27640E-13 8.77742E-13
 -1      1731 5.52972E+00-1.77950E+00-7.28700E-01-3.53464E+00-1.28697E-12 1.22147E-12
 -1      1732 3.75993E-01-1.39456E+01-1.76457E+00 2.84004E-01 6.30496E-13 5.22457E-13
 -1      1733 9.30879E-01-9.17535E+00-1.31527E+00-4.53523E-02-3.89022E-13 7.46389E-13
 -1      1734-6.36172E-01-1.70706E+01-1.91128E+00-1.69837E-01 1.32684E-12 1.71335E-13
 -1      1735-6.94136E-01-1.53625E+01-1.76393E+00 1.15146E+00 8.15792E-13 2.27041E-13
 -1      1736 2.39549E+01 7.71583E-01 2.85319E-01 7.34121E+00 3.75588E-13 2.30482E-13
 -1      1737 1.35359E+01-3.26862E+00-3.75844E-01 6.34587E+00 7.68718E-13 1.36113E-13
 -1      1738 2.00268E+01 2.37036E-02-1.30621E-03 2.43091E-02-3.09370E-13-1.39248E-13
 -1      1739 2.00647E+01 9.31475E-02-1.14495E-03 9.76764E-02-1.18622E-13 1.11976E-13
 -1      1740 3.38123E-01-1.06175E+01-1.24617E+00 2.13773E+00 7.31359E-13-3.58602E-14
 -1      1741 5.54081E+00-7.35265E+00-8.56804E-01 4.42979E+00 7.98361E-13 3.14995E-13
 -1      1742-1.37949E+00-1.18845E+01-1.37252E+00 1.47602E-01 7.15532E-13 5.38625E-13
 -1      1743 3.40595E+01 3.83705E+00 7.78077E-01 6.53611E+00 2.95347E-13 2.20379E-13
 -1      1744 4.23968E+01 6.17026E+00 1.27236E+00 4.90800E+00 2.62401E-13-3.44169E-14
 -1      1745 4.67539E+01 7.19856E+00 1.52950E+00 1.64894E+00 1.85130E-13-1.39222E-13
 -1      1746 4.62514E+01 7.17077E+00 1.52250E+00-2.27922E+00 4.23273E-13-3.50386E-13
 -1      1747 4.13486E+01 5.98550E+00 1.27540E+00-5.63094E+00 3.00593E-13-5.81091E-13
 -1      1748 3.21540E+01 3.33714E+00 6.80856E-01-7.00091E+00 5.12257E-13-5.55556E-13
 -1      1749 2.15268E+01-1.13257E-01 1.17138E-01-7.21888E+00 7.12763E-13-2.42806E-13
 -1      1750 1.13981E+01-4.31954E+00-5.29137E-01-5.96023E+00 6.32494E-13-5.38014E-13
 -1      1751 4.20918E+00-7.98392E+00-8.92007E-01-4.24913E+00 6.74794E-13-5.26412E-13
 -1      1752-4.09684E-01-1.06598E+01-1.22575E+00-1.81980E+00 4.94771E-13-5.87141E-13
 -1      1753-1.24127E+00-1.14247E+01-1.33416E+00 6.06775E-01 1.40554E-13-7.37577E-13
 -1      1754 1.34043E+00-9.79117E+00-1.17839E+00 2.58908E+00-2.07001E-13-7.82430E-13
 -1      1755 6.98704E+00-6.58625E+00-8.27818E-01 4.63269E+00-6.06404E-13-2.54310E-13
 -1      1756 1.57410E+01-2.55725E+00-2.59719E-01 6.47427E+00-6.57252E-13-1.00586E-13
 -1      1757 2.61667E+01 8.70002E-01 3.20243E-01 6.96653E+00-5.39180E-13 3.58047E-13
 -1      1758 3.57087E+01 3.95121E+00 8.26666E-01 6.28358E+00-2.41446E-13 4.78950E-13
 -1      1759 4.35762E+01 6.27892E+00 1.35712E+00 4.45808E+00 8.55427E-14 4.11116E-13
 -1      1760 4.75714E+01 7.29706E+00 1.60839E+00 1.09142E+00-1.47327E-13 5.58664E-13
 -1      1761 4.63687E+01 7.12978E+00 1.49959E+00-2.09180E+00-4.30433E-13 4.52749E-13
 -1      1762 4.11526E+01 5.78847E+00 1.20693E+00-5.19506E+00-6.80539E-13 5.81091E-13
 -1      1763 3.28642E+01 3.52172E+00 7.36084E-01-7.26166E+00-8.39051E-13 9.49574E-13
 -1      1764 2.28598E+01-1.44525E-01 1.05851E-01-7.10906E+00-8.75966E-13 9.09828E-13
 -1      1765 1.30606E+01-4.01307E+00-4.16901E-01-6.10126E+00-6.12177E-13 9.77329E-13
 -1      1766 4.87087E+00-7.79549E+00-9.41426E-01-4.01948E+00-2.38698E-14 1.18942E-12
 -1      1767 1.81516E-01-1.06479E+01-1.23014E+00-1.94786E+00 6.41598E-13 7.15872E-13
 -1      1768 2.28531E+01 1.98471E+00-2.35642E-02-2.72338E+00-3.96835E-14 1.73833E-13
 -1      1769 1.98206E+01 3.71828E+00-3.48969E-02-2.15702E+00-3.24020E-14-6.41570E-14
 -1      1770 2.00485E+01 3.56026E+00-4.29594E-02-2.44355E+00-5.41164E-14-4.52138E-14
 -1      1771 2.03610E+01 3.18212E+00-4.52071E-02-2.58690E+00-5.69410E-14-2.73045E-14
 -1      1772 2.05788E+01 2.80900E+00-1.42650E-01-2.85501E+00-5.46889E-14-1.59595E-15
 -1      1773 2.04266E+01 2.69101E+00-3.00963E-03-2.22334E+00-5.32931E-14-3.08781E-14
 -1      1774 1.93576E+01 4.18896E+00-2.01836E-02-1.27200E+00-9.70187E-15-8.41965E-14
 -1      1775 1.94300E+01 4.14912E+00-1.71844E-02-1.49657E+00-1.54625E-14-9.04658E-14
 -1      1776 1.92625E+01 4.29481E+00-1.68124E-02-8.60738E-01-2.33732E-15-7.41577E-14
 -1      1777 1.93045E+01 4.27076E+00-1.43707E-02-1.07171E+00-9.75240E-15-7.96967E-14
 -1      1778 1.95300E+01 3.78290E+00-9.28222E-03-1.12086E+00-1.53131E-14-7.85570E-14
 -1      1779 1.92120E+01 4.35531E+00-1.48175E-02-4.67403E-01 2.71438E-14-4.24417E-14
 -1      1780 1.92335E+01 4.34241E+00-1.33414E-02-6.67928E-01 1.77976E-14-5.37886E-14
 -1      1781 1.94344E+01 3.90332E+00-9.22072E-03-7.34108E-01 9.44503E-15-5.16306E-14
 -1      1782 1.91931E+01 4.38098E+00-1.36836E-02-8.37445E-02 5.51375E-14-2.38594E-14
 -1      1783 1.91994E+01 4.37703E+00-1.32324E-02-2.79424E-01 4.22198E-14-3.55133E-14
 -1      1784 1.93850E+01 3.96787E+00-9.15938E-03-3.58740E-01 3.63424E-14-2.38160E-14
 -1      1785 1.92010E+01 4.37566E+00-1.31853E-02 2.98503E-01 8.16146E-14-1.33747E-14
 -1      1786 1.91936E+01 4.38015E+00-1.37658E-02 1.02665E-01 7.59191E-14-2.19668E-14
 -1      1787 1.93705E+01 3.98732E+00-9.14098E-03 1.05789E-02 6.80540E-14-1.34424E-14
 -1      1788 1.92376E+01 4.33839E+00-1.33429E-02 6.87713E-01 8.91336E-14-1.99736E-14
 -1      1789 1.92148E+01 4.35214E+00-1.49270E-02 4.86692E-01 8.67189E-14-2.03101E-14
 -1      1790 1.93877E+01 3.96458E+00-9.18281E-03 3.80080E-01 9.00514E-14-1.21222E-14
 -1      1791 1.93099E+01 4.26485E+00-1.44226E-02 1.08579E+00 9.29938E-14 1.03043E-14
 -1      1792 1.92672E+01 4.28941E+00-1.69775E-02 8.77638E-01 8.56177E-14-6.70297E-15
 -1      1793 1.94396E+01 3.89700E+00-9.18884E-03 7.52679E-01 9.44305E-14-7.39513E-15
 -1      1794 1.94398E+01 4.13750E+00-1.74138E-02 1.51613E+00 1.10329E-13 4.39926E-14
 -1      1795 1.93643E+01 4.18019E+00-2.04995E-02 1.28646E+00 9.67564E-14 2.51275E-14
 -1      1796 1.95379E+01 3.77299E+00-9.23646E-03 1.13683E+00 1.02061E-13 2.43694E-14
 -1      1797 1.96669E+01 3.92084E+00-2.52031E-02 1.98141E+00 1.19137E-13 8.61949E-14
 -1      1798 1.95352E+01 3.99771E+00-2.68927E-02 1.72401E+00 1.12420E-13 5.93969E-14
 -1      1799 1.97094E+01 3.56582E+00-8.69488E-03 1.53686E+00 1.15589E-13 5.63577E-14
 -1      1800 2.00733E+01 3.52249E+00-4.51959E-02 2.47386E+00 1.19802E-13 1.60611E-13
 -1      1801 1.98344E+01 3.68302E+00-3.97060E-02 2.18480E+00 1.18905E-13 1.14055E-13
 -1      1802 2.00036E+01 3.22265E+00-5.27400E-03 1.93638E+00 1.21863E-13 1.09728E-13
 -1      1803 2.09163E+01 2.68165E+00-5.76584E-02 2.85935E+00 9.08136E-14 2.71790E-13
 -1      1804 2.04100E+01 3.09675E+00-5.04117E-02 2.61773E+00 1.04756E-13 2.04642E-13
 -1      1805 2.05144E+01 2.60977E+00 3.18627E-03 2.24637E+00 1.14484E-13 1.75606E-13
 -1      1806 2.17252E+01 1.21300E+00-1.22091E-01 2.33112E+00 6.18325E-14 3.95739E-13
 -1      1807 2.12694E+01 2.26296E+00 1.23306E-04 2.74189E+00 7.53911E-14 3.17385E-13
 -1      1808 2.09325E+01 1.68498E+00-2.29749E-02 2.14184E+00 8.99263E-14 2.63588E-13
 -1      1809 2.09461E+01 7.78687E-01-6.24706E-02 1.52549E+00 5.99937E-14 3.68049E-13
 -1      1810 2.17916E+01 2.45794E+00 9.09136E-02-3.04956E+00-5.06852E-14 7.19425E-14
 -1      1811 2.00944E+01 2.97929E-01-8.93058E-03 6.58366E-01 6.68077E-14 3.00242E-13
 -1      1812 2.06471E+01 4.40410E-01-1.24715E-02 1.03537E+00 6.31648E-14 3.34199E-13
 -1      1813 2.07390E+01 8.45133E-01 2.25710E-03 1.41669E+00 7.39062E-14 2.72298E-13
 -1      1814 2.15024E+01 1.74225E+00 7.95257E-02-2.33893E+00-5.31415E-14 4.12656E-14
 -1      1815 2.05146E+01 5.00700E-01 3.24854E-02-9.23151E-01-4.91100E-14 4.27039E-14
 -1      1816 2.00827E+01 3.52010E-01 7.71285E-03-6.31323E-01-3.94840E-14 3.25269E-14
 -1      1817 1.98877E+01 2.57336E-01 2.74137E-02-3.92931E-01-5.38146E-14 4.28997E-14
 -1      1818 1.96964E+01 1.78092E-01 1.04345E-02-2.55034E-01-5.24641E-14 2.98910E-14
 -1      1819 2.01936E+01 4.83332E-01-5.91610E-03-7.24740E-01-5.33271E-14 8.77770E-15
 -1      1820 1.95742E+01 1.32667E-01 1.66641E-02-1.21539E-01-3.38180E-14 3.29389E-14
 -1      1821 1.94957E+01 9.31337E-02 6.99219E-03-5.07324E-02-1.23521E-14 1.70289E-14
 -1      1822 1.98674E+01 2.43955E-01-5.75686E-03-2.97566E-01-4.10167E-14 2.51292E-14
 -1      1823 1.94308E+01 6.85530E-02 8.70077E-03 2.29200E-02-1.25976E-14 1.37971E-14
 -1      1824 1.94159E+01 4.69794E-02 4.12787E-03 5.92240E-02-2.23688E-14 2.17495E-14
 -1      1825 1.96846E+01 1.25334E-01-4.68457E-03-6.05645E-02-2.23157E-14 3.84935E-15
 -1      1826 1.93901E+01 3.27730E-02 4.26382E-03 9.82600E-02-1.86283E-14 1.61861E-14
 -1      1827 1.94098E+01 2.05192E-02 2.48758E-03 1.15332E-01 1.56537E-15 1.10421E-14
 -1      1828 1.95982E+01 6.14318E-02-3.51158E-03 6.95606E-02-1.95779E-14-6.02708E-15
 -1      1829 1.94087E+01 1.20941E-02 1.90485E-03 1.33871E-01 8.87997E-15 2.22667E-14
 -1      1830 1.94461E+01 5.21151E-03 1.55025E-03 1.39868E-01 1.86347E-15 3.27530E-14
 -1      1831 1.95747E+01 2.50790E-02-2.40039E-03 1.37056E-01-8.58810E-15 7.31023E-15
 -1      1832 1.94598E+01 3.37126E-04 6.29837E-04 1.46336E-01-1.48980E-14 5.75251E-14
 -1      1833 1.95053E+01-3.20777E-03 9.97754E-04 1.46103E-01-1.75326E-14 6.34719E-14
 -1      1834 1.95900E+01 4.39560E-03-1.52783E-03 1.67330E-01 2.02513E-15 2.99377E-14
 -1      1835 1.95273E+01-5.74800E-03-5.81829E-05 1.45824E-01-3.44578E-14 7.34744E-14
 -1      1836 1.95753E+01-7.09497E-03 6.84822E-04 1.42471E-01-4.45416E-15 8.39575E-14
 -1      1837 1.96278E+01-6.62857E-03-9.21744E-04 1.75942E-01-1.61643E-14 2.67038E-14
 -1      1838 1.96017E+01-8.01970E-03-4.01610E-04 1.38996E-01-7.80336E-15 5.98785E-14
 -1      1839 1.96493E+01-7.84431E-03 5.44283E-04 1.34633E-01-3.77746E-14 1.42604E-14
 -1      1840 1.96779E+01-1.12999E-02-5.41447E-04 1.72980E-01-4.87686E-14 3.80530E-14
 -1      1841 1.96780E+01-7.59925E-03-5.28023E-04 1.30445E-01-6.64442E-14-4.59984E-15
 -1      1842 1.97242E+01-6.30959E-03 5.40997E-04 1.26580E-01-6.41158E-14-3.11293E-14
 -1      1843 1.97343E+01-1.15625E-02-3.35323E-04 1.65320E-01-6.55462E-14 2.46709E-14
 -1      1844 1.97543E+01-5.17263E-03-5.12150E-04 1.23498E-01-5.99728E-14-1.62252E-14
 -1      1845 1.97996E+01-3.00602E-03 6.55392E-04 1.21275E-01-4.62182E-14-1.31861E-14
 -1      1846 1.97941E+01-8.59342E-03-2.60579E-04 1.57872E-01-5.68955E-14 9.72001E-15
 -1      1847 1.98312E+01-1.14191E-03-4.01258E-04 1.20713E-01 3.93737E-14 2.33629E-14
 -1      1848 1.98770E+01 1.78236E-03 8.77579E-04 1.21063E-01 9.91047E-14 6.77647E-14
 -1      1849 1.98564E+01-3.08878E-03-2.85841E-04 1.54324E-01 2.65541E-14 6.85120E-14
 -1      1850 1.99108E+01 4.28898E-03-2.26560E-04 1.24207E-01 7.28598E-14 3.46714E-14
 -1      1851 1.99594E+01 7.93583E-03 1.20421E-03 1.27959E-01 1.95712E-14 1.07699E-13
 -1      1852 1.99224E+01 4.58265E-03-3.88964E-04 1.57634E-01 6.62355E-14 1.13733E-13
 -1      1853 1.99970E+01 1.10561E-02-9.46689E-06 1.35887E-01-3.86854E-14 1.05005E-13
 -1      1854 2.00513E+01 1.54475E-02 1.63559E-03 1.43844E-01 6.64182E-16 1.24950E-13
 -1      1855 1.99944E+01 1.42818E-02-5.54243E-04 1.70366E-01 1.47077E-14 9.32363E-14
 -1      1856 2.00947E+01 1.91852E-02 2.34168E-04 1.57604E-01-3.30940E-14 9.27585E-14
 -1      1857 2.01584E+01 2.43710E-02 2.17202E-03 1.70584E-01-3.22897E-14 6.66439E-14
 -1      1858 2.00760E+01 2.60208E-02-7.69887E-04 1.94912E-01-3.20302E-14 7.03639E-14
 -1      1859 2.02099E+01 2.87341E-02 4.90576E-04 1.91228E-01-7.28534E-14-3.00870E-14
 -1      1860 2.02874E+01 3.47525E-02 2.80814E-03 2.10073E-01-8.45390E-14-7.98625E-14
 -1      1861 2.01715E+01 3.98784E-02-1.02577E-03 2.33619E-01-8.86902E-14 5.18441E-14
 -1      1862 2.03499E+01 3.97108E-02 7.44835E-04 2.38631E-01-4.63502E-14-1.36603E-13
 -1      1863 2.04460E+01 4.65245E-02 3.52380E-03 2.64151E-01-6.49775E-14-1.03826E-13
 -1      1864 2.02864E+01 5.58835E-02-1.31151E-03 2.88797E-01-1.10783E-13-1.13791E-13
 -1      1865 2.05224E+01 5.19401E-02 9.77743E-04 3.01516E-01-8.63536E-14-8.03575E-14
 -1      1866 2.06425E+01 5.93284E-02 4.26923E-03 3.34349E-01-2.99838E-14-9.61805E-14
 -1      1867 2.04266E+01 7.38303E-02-1.61516E-03 3.62560E-01-5.29245E-14-1.50675E-13
 -1      1868 2.07361E+01 6.48383E-02 1.16319E-03 3.81021E-01 2.97501E-14-1.09882E-13
 -1      1869 2.08855E+01 7.22127E-02 4.94196E-03 4.21330E-01 1.01934E-13-9.75316E-14
 -1      1870 2.05984E+01 9.29656E-02-1.92303E-03 4.56423E-01 2.07258E-14-1.91219E-13
 -1      1871 2.09996E+01 7.70328E-02 1.26743E-03 4.76931E-01 1.03690E-13-2.62106E-14
 -1      1872 2.11830E+01 8.31352E-02 5.35380E-03 5.23841E-01 8.89592E-14-6.03268E-14
 -1      1873 2.08083E+01 1.11463E-01-2.22183E-03 5.70494E-01 1.40651E-13-3.77767E-14
 -1      1874 2.13205E+01 8.57501E-02 1.25354E-03 5.86268E-01 1.07467E-13-1.83056E-14
 -1      1875 2.15407E+01 8.81945E-02 5.19076E-03 6.36916E-01 5.76926E-14 4.42410E-14
 -1      1876 2.10625E+01 1.25576E-01-2.50434E-03 7.02029E-01 1.30963E-13 3.50084E-14
 -1      1877 2.17042E+01 8.59141E-02 1.09652E-03 7.00974E-01-1.39680E-14 1.22594E-13
 -1      1878 2.19598E+01 8.05873E-02 3.98055E-03 7.49003E-01 5.60366E-14 1.75065E-13
 -1      1879 2.13662E+01 1.28375E-01-2.77864E-03 8.43061E-01 8.77990E-14 1.32210E-13
 -1      1880 2.21510E+01 6.90410E-02 8.13340E-04 8.04384E-01 4.30296E-14 1.37222E-13
 -1      1881 2.24337E+01 4.95702E-02 1.10660E-03 8.37882E-01-6.71155E-14 1.40419E-13
 -1      1882 2.17230E+01 1.08172E-01-3.07563E-03 9.76801E-01 3.24693E-14 1.53856E-13
 -1      1883 2.26533E+01 2.24737E-02 4.99498E-04 8.66603E-01-6.01338E-14 1.19802E-13
 -1      1884 2.29431E+01-1.95195E-02-4.04053E-03 8.65941E-01-3.53699E-14 7.45593E-14
 -1      1885 2.21339E+01 4.73205E-02-3.43476E-03 1.07279E+00-3.28673E-14 6.86742E-14
 -1      1886 2.31899E+01-6.93623E-02 3.39572E-04 8.40100E-01-3.92564E-14 7.80790E-14
 -1      1887 2.34515E+01-1.41530E-01-1.16277E-02 7.77398E-01-2.13492E-14 6.13034E-14
 -1      1888 2.25961E+01-7.64741E-02-3.80265E-03 1.08179E+00-6.53752E-15 1.10899E-13
 -1      1889 2.37190E+01-2.18029E-01 4.40912E-04 6.59933E-01-1.89362E-14 9.12452E-14
 -1      1890 2.38994E+01-3.19216E-01-2.05192E-02 5.04085E-01 1.29081E-14 6.20008E-14
 -1      1891 2.30996E+01-2.81460E-01-3.75527E-03 9.33952E-01 6.32133E-15 2.03029E-13
 -1      1892 2.41677E+01-4.12962E-01 3.39972E-04 2.58647E-01 5.97352E-14 4.30528E-14
 -1      1893 2.42029E+01-5.18117E-01-2.72167E-02-7.71650E-03 1.22926E-13 1.19451E-13
 -1      1894 2.36182E+01-5.58261E-01-2.11318E-03 5.48862E-01 2.18983E-14 1.12080E-13
 -1      1895 2.44244E+01-5.91356E-01-1.61619E-03-3.88828E-01 1.14277E-13 8.45463E-14
 -1      1896 2.42603E+01-6.36046E-01-2.55809E-02-7.36643E-01 7.87738E-14 2.22921E-14
 -1      1897 2.40909E+01-8.29528E-01 2.77967E-03-1.26530E-01 7.15808E-14 1.36182E-13
 -1      1898 2.43505E+01-6.14969E-01-7.83471E-03-1.18217E+00 6.42385E-14 5.90960E-14
 -1      1899 2.39823E+01-5.07922E-01-1.06503E-02-1.49886E+00 4.47463E-14 1.24718E-13
 -1      1900 2.43993E+01-9.13431E-01 1.13102E-02-1.03681E+00 1.44985E-13-1.41150E-14
 -1      1901 2.38543E+01-3.18380E-01-1.82092E-02-1.81525E+00 5.75208E-14 1.20624E-13
 -1      1902 2.33686E+01-2.09093E-02 1.20741E-02-1.91120E+00-3.69279E-15 1.81197E-13
 -1      1903 2.43813E+01-5.75810E-01 1.62038E-02-1.90816E+00 3.97126E-14 1.39330E-13
 -1      1904 2.30454E+01 3.12942E-01-2.37392E-02-1.83965E+00-4.76078E-14 2.24014E-13
 -1      1905 2.26183E+01 6.76322E-01 2.36754E-02-1.56076E+00-4.43222E-14 2.82914E-13
 -1      1906 2.39620E+01 2.44946E-01 2.23728E-03-2.23272E+00 2.57372E-14 3.73824E-13
 -1      1907 2.23224E+01 9.57702E-01-1.24052E-02-9.96109E-01-1.40440E-13 2.68974E-13
 -1      1908 2.21487E+01 1.12472E+00 1.11272E-02-4.06824E-01-2.22704E-14 2.57480E-13
 -1      1909 2.33608E+01 1.19601E+00-2.84122E-02-1.55259E+00-7.72021E-14 3.87125E-13
 -1      1910 2.21464E+01 1.12199E+00 1.18621E-02 3.88250E-01-9.97917E-14 1.05350E-13
 -1      1911 2.23101E+01 9.49890E-01-1.25264E-02 9.74464E-01-2.08854E-13-1.15651E-13
 -1      1912 2.30652E+01 1.61920E+00-4.64573E-02-1.22990E-02-1.95698E-13 4.79417E-14
 -1      1913 2.25969E+01 6.66502E-01 2.39609E-02 1.53184E+00-2.16584E-13-7.86159E-14
 -1      1914 2.30102E+01 3.01399E-01-2.40308E-02 1.80489E+00-1.76749E-13-1.25013E-13
 -1      1915 2.33472E+01 1.18323E+00-2.76778E-02 1.51817E+00-2.07667E-13-2.24453E-14
 -1      1916 2.33231E+01-3.29923E-02 1.29783E-02 1.86780E+00-1.15771E-13-1.43597E-13
 -1      1917 2.37908E+01-3.29226E-01-1.76484E-02 1.76457E+00-6.69343E-14-1.93420E-13
 -1      1918 2.39261E+01 2.27297E-01 3.11624E-03 2.18299E+00-1.52821E-13-9.41727E-14
 -1      1919 2.39023E+01-5.16014E-01-1.06831E-02 1.44233E+00 7.16753E-14-1.98846E-13
 -1      1920 2.42499E+01-6.21908E-01-8.24896E-03 1.12107E+00 1.20940E-13-9.27262E-14
 -1      1921 2.43151E+01-5.92563E-01 1.61224E-02 1.83848E+00-2.39587E-14-1.65949E-13
 -1      1922 2.41444E+01-6.42422E-01-2.59790E-02 6.70999E-01-1.74322E-14-1.31155E-13
 -1      1923 2.42843E+01-5.97618E-01-2.54265E-03 3.19367E-01-7.42531E-14-1.22491E-14
 -1      1924 2.43032E+01-9.23934E-01 1.07504E-02 9.56856E-01 2.91199E-14-8.82597E-14
 -1      1925 2.40464E+01-5.24343E-01-2.74786E-02-6.62458E-02-3.28314E-14 1.50893E-13
 -1      1926 2.39841E+01-4.19728E-01-4.54563E-04-3.36421E-01-1.21274E-13 1.46165E-13
 -1      1927 2.39632E+01-8.39037E-01 2.36172E-03 3.65693E-02 6.86994E-14 1.42665E-13
 -1      1928 2.36981E+01-3.26367E-01-2.05316E-02-5.86876E-01-1.91150E-13 1.22279E-13
 -1      1929 2.34875E+01-2.25807E-01-1.99576E-04-7.47061E-01-5.80863E-14 2.15319E-13
 -1      1930 2.34560E+01-5.68728E-01-2.18192E-03-6.49248E-01-1.49604E-13 3.81045E-13
 -1      1931 2.32006E+01-1.49370E-01-1.15127E-02-8.69994E-01-1.30572E-13 2.19877E-13
 -1      1932 2.29060E+01-7.71208E-02-1.12027E-04-9.37150E-01 1.06766E-13 2.19883E-13
 -1      1933 2.28997E+01-2.93000E-01-3.64961E-03-1.04593E+00-5.37825E-14 4.16120E-13
 -1      1934 2.26384E+01-2.63811E-02-3.83745E-03-9.67846E-01 3.85466E-13-4.38798E-15
 -1      1935 2.23135E+01 1.71242E-02 3.57280E-04-9.71870E-01 3.10181E-13 3.82563E-14
 -1      1936 2.23552E+01-8.71452E-02-3.71869E-03-1.20514E+00 8.09548E-14 3.05557E-13
 -1      1937 2.20722E+01 4.67029E-02 1.42669E-03-9.45444E-01 8.19039E-14 1.40454E-13
 -1      1938 2.17545E+01 6.99467E-02 1.19373E-03-9.12188E-01 1.54426E-13 2.50209E-13
 -1      1939 2.18500E+01 4.16065E-02-3.46996E-03-1.20389E+00 2.15228E-13 1.66637E-13
 -1      1940 2.15422E+01 8.63668E-02 4.43971E-03-8.53661E-01 2.46873E-13 1.60132E-13
 -1      1941 2.12553E+01 9.88285E-02 2.25139E-03-7.99710E-01 2.67969E-13 2.11301E-13
 -1      1942 2.13960E+01 1.13850E-01-3.26719E-03-1.10677E+00 1.78525E-13 2.24134E-13
 -1      1943 2.10727E+01 1.09399E-01 5.69954E-03-7.23147E-01 7.02372E-14 1.23437E-13
 -1      1944 2.08307E+01 1.18696E-01 3.29782E-03-6.56174E-01 2.57021E-14 1.12604E-13
 -1      1945 2.09994E+01 1.54839E-01-3.12995E-03-9.55652E-01 8.08654E-14 9.40263E-14
 -1      1946 2.06769E+01 1.28773E-01 5.61860E-03-5.67389E-01 7.24329E-14 7.71489E-14
 -1      1947 2.04886E+01 1.39045E-01 4.05338E-03-4.88601E-01 8.73806E-14 1.70038E-13
 -1      1948 2.06630E+01 1.85215E-01-2.79857E-03-7.71875E-01 6.53780E-14 5.14914E-14
 -1      1949 2.03762E+01 1.45328E-01 4.81763E-03-3.94426E-01 2.43838E-13 2.69269E-13
 -1      1950 2.02426E+01 1.54849E-01 4.96318E-03-3.07175E-01 1.67385E-13 2.58836E-13
 -1      1951 2.02021E+01 2.16960E-01-2.50418E-03-3.61438E-01 2.14835E-14 3.11030E-13
 -1      1952 2.03981E+01 2.09045E-01-3.81553E-03-5.69435E-01 2.01675E-13 1.92996E-13
 -1      1953 1.96109E+01 1.42019E-01 7.87573E-03 2.60759E-01 5.61391E-14 2.47160E-13
 -1      1954 1.98835E+01 2.04076E-01 1.64352E-02 4.33724E-01 5.12836E-14 2.69753E-13
 -1      1955 2.00961E+01 3.50537E-01-1.52797E-03 6.56565E-01 6.89448E-14 2.29436E-13
 -1      1956 1.93677E+01 7.19414E-02 6.94850E-03 5.77506E-02 3.83482E-14 2.33862E-13
 -1      1957 1.94833E+01 1.01801E-01 1.42045E-02 1.46251E-01 4.38781E-14 2.49155E-13
 -1      1958 1.97027E+01 1.65192E-01-1.94316E-03 2.57793E-01 4.96903E-14 2.21577E-13
 -1      1959 1.92766E+01 3.62948E-02 4.43944E-03-4.79033E-02-1.43939E-15 2.22626E-13
 -1      1960 1.93072E+01 5.20534E-02 8.35379E-03-6.43757E-04 1.51333E-15 2.01744E-13
 -1      1961 1.95020E+01 8.07918E-02-2.82850E-03 4.56479E-02 2.34756E-14 1.81665E-13
 -1      1962 1.92748E+01 1.65507E-02 2.88263E-03-1.00884E-01-2.66837E-14 2.19670E-13
 -1      1963 1.92598E+01 2.53282E-02 4.38143E-03-7.60836E-02-8.58276E-15 2.42572E-13
 -1      1964 1.94228E+01 3.78019E-02-2.85440E-03-6.67042E-02-1.76786E-14 1.79066E-13
 -1      1965 1.93226E+01 5.21535E-03 2.02601E-03-1.23916E-01 4.91033E-14 1.98014E-13
 -1      1966 1.92841E+01 1.01253E-02 2.19393E-03-1.12111E-01-1.26239E-15 1.92400E-13
 -1      1967 1.94168E+01 1.43082E-02-2.33725E-03-1.23170E-01 3.94308E-15 1.26705E-13
 -1      1968 1.93960E+01-1.14109E-03 1.51073E-03-1.29731E-01 7.29759E-14 1.70529E-13
 -1      1969 1.93467E+01 1.43122E-03 1.02052E-03-1.25559E-01 7.09878E-14 1.84694E-13
 -1      1970 1.94529E+01 1.22589E-03-1.73467E-03-1.47323E-01 6.50195E-14 1.12554E-13
 -1      1971 1.94805E+01-4.30310E-03 1.16833E-03-1.26144E-01 5.88846E-14 1.28087E-13
 -1      1972 1.94276E+01-3.21802E-03 3.82561E-04-1.26268E-01 6.80233E-14 1.50381E-13
 -1      1973 1.95115E+01-5.66148E-03-1.23630E-03-1.52932E-01 9.29805E-14 1.30692E-13
 -1      1974 1.95678E+01-5.29801E-03 9.37422E-04-1.18277E-01-2.60595E-14 1.48854E-13
 -1      1975 1.95153E+01-5.18857E-03 4.62778E-05-1.20470E-01 3.09922E-14 1.20144E-13
 -1      1976 1.95809E+01-8.56945E-03-8.76674E-04-1.48667E-01 5.00400E-14 1.15639E-13
 -1      1977 1.96541E+01-4.75419E-03 7.94804E-04-1.09654E-01 6.34351E-14 1.53389E-13
 -1      1978 1.96037E+01-5.29756E-03-1.01239E-04-1.12356E-01 3.86446E-14 1.32615E-13
 -1      1979 1.96543E+01-8.77462E-03-6.39270E-04-1.40313E-01 3.16257E-14 1.33209E-13
 -1      1980 1.97384E+01-3.06346E-03 7.29330E-04-1.02814E-01 6.01769E-14 1.15196E-13
 -1      1981 1.96902E+01-4.05209E-03-1.20873E-04-1.04874E-01 4.99184E-14 1.23757E-13
 -1      1982 1.97286E+01-7.05231E-03-5.00652E-04-1.31913E-01 6.73167E-14 1.22187E-13
 -1      1983 1.98219E+01-4.66560E-04 7.34315E-04-9.96775E-02 6.45572E-14 7.68993E-14
 -1      1984 1.97749E+01-1.76681E-03-4.94839E-05-1.00199E-01 8.81986E-14 1.29938E-13
 -1      1985 1.98032E+01-3.87908E-03-4.41807E-04-1.26425E-01 7.92148E-14 8.94391E-14
 -1      1986 1.99076E+01 2.89270E-03 8.05035E-04-1.01783E-01 3.07882E-14 5.04596E-14
 -1      1987 1.98600E+01 1.36780E-03 8.88238E-05-1.00025E-01 3.45181E-15 7.04161E-14
 -1      1988 1.98794E+01 4.57087E-04-4.49121E-04-1.26123E-01 2.85746E-14 8.92314E-14
 -1      1989 1.99997E+01 6.92425E-03 9.36898E-04-1.10433E-01 2.42766E-14 1.44061E-13
 -1      1990 1.99490E+01 5.23684E-03 2.77070E-04-1.05746E-01 2.42361E-14 8.05700E-14
 -1      1991 1.99601E+01 5.78318E-03-5.13110E-04-1.32849E-01 4.27086E-15 1.23244E-13
 -1      1992 2.01036E+01 1.15482E-02 1.12303E-03-1.26751E-01-1.27695E-13 6.73987E-14
 -1      1993 2.00466E+01 9.75680E-03 5.01479E-04-1.18550E-01-3.86613E-14 4.49407E-14
 -1      1994 2.00491E+01 1.19780E-02-6.26999E-04-1.48158E-01-1.57951E-14 1.06869E-13
 -1      1995 2.02254E+01 1.66413E-02 1.35073E-03-1.51667E-01-1.84304E-14 3.50120E-14
 -1      1996 2.01585E+01 1.48259E-02 7.47893E-04-1.39443E-01-1.02981E-13 1.81744E-14
 -1      1997 2.01513E+01 1.89033E-02-7.85341E-04-1.73347E-01-7.55949E-14 1.33760E-14
 -1      1998 2.03717E+01 2.19646E-02 1.59634E-03-1.85774E-01 8.06200E-14 1.11020E-13
 -1      1999 2.02911E+01 2.02587E-02 9.97899E-04-1.69157E-01 5.10738E-14 5.39735E-14
 -1      2000 2.02722E+01 2.63163E-02-9.82530E-04-2.09376E-01 2.93743E-14 1.32798E-14
 -1      2001 2.05493E+01 2.70599E-02 1.81809E-03-2.29050E-01 1.85838E-14 7.54455E-14
 -1      2002 2.04512E+01 2.56954E-02 1.22437E-03-2.07947E-01 2.91310E-14 7.51728E-14
 -1      2003 2.04175E+01 3.37469E-02-1.21103E-03-2.56624E-01 4.91883E-14 6.56818E-14
 -1      2004 2.07643E+01 3.11060E-02 1.94729E-03-2.80365E-01-1.23984E-13 1.17460E-13
 -1      2005 2.06453E+01 3.04728E-02 1.38649E-03-2.55193E-01-2.89410E-14 9.79705E-14
 -1      2006 2.05928E+01 4.03267E-02-1.45904E-03-3.14440E-01-3.90677E-14 4.49597E-14
 -1      2007 2.10209E+01 3.27292E-02 1.87967E-03-3.36704E-01-2.38098E-14 1.28763E-13
 -1      2008 2.08788E+01 3.34502E-02 1.42516E-03-3.08779E-01-9.27570E-14 1.17207E-13
 -1      2009 2.08031E+01 4.45551E-02-1.70681E-03-3.80413E-01-9.54834E-14 8.98452E-14
 -1      2010 2.13198E+01 2.97892E-02 1.47261E-03-3.92069E-01 9.90744E-14 1.92023E-14
 -1      2011 2.11547E+01 3.27954E-02 1.26107E-03-3.64154E-01 4.56965E-14 1.09479E-13
 -1      2012 2.10511E+01 4.40135E-02-1.92058E-03-4.49288E-01 5.67531E-14 1.29019E-13
 -1      2013 2.16557E+01 1.92266E-02 5.60137E-04-4.36058E-01-3.01896E-15-1.14160E-13
 -1      2014 2.14714E+01 2.57846E-02 7.99872E-04-4.13096E-01 5.56871E-14-3.47513E-14
 -1      2015 2.13363E+01 3.50925E-02-2.04182E-03-5.11516E-01 1.38621E-13-6.47400E-14
 -1      2016 2.20137E+01-2.80823E-03-9.94945E-04-4.52418E-01-1.37547E-13-7.23571E-14
 -1      2017 2.18202E+01 8.76918E-03-4.85318E-05-4.42305E-01-1.37668E-13-1.29466E-13
 -1      2018 2.16525E+01 1.29360E-02-1.97009E-03-5.51585E-01-6.81428E-14-1.14589E-13
 -1      2019 2.23662E+01-4.00921E-02-3.18782E-03-4.18343E-01-1.41657E-13 1.63234E-13
 -1      2020 2.21816E+01-2.23432E-02-1.32998E-03-4.32354E-01-2.12024E-13 1.35382E-14
 -1      2021 2.19858E+01-2.79476E-02-1.54037E-03-5.46719E-01-2.25637E-13 3.53398E-14
 -1      2022 2.26700E+01-9.40058E-02-5.69503E-03-3.06286E-01-7.65460E-14 3.48696E-13
 -1      2023 2.25218E+01-7.04661E-02-2.98515E-03-3.58266E-01-3.68720E-14 3.10758E-13
 -1      2024 2.23109E+01-9.15881E-02-5.06692E-04-4.67283E-01-1.20791E-13 9.89905E-14
 -1      2025 2.28656E+01-1.59092E-01-7.70941E-03-9.12389E-02-7.32127E-14 5.14956E-13
 -1      2026 2.27898E+01-1.33771E-01-4.79477E-03-1.94013E-01-4.23524E-14 4.88753E-13
 -1      2027 2.25892E+01-1.75908E-01 1.42415E-03-2.81501E-01-9.45216E-14 4.24395E-13
 -1      2028 2.28839E+01-2.17180E-01-7.97914E-03 2.33146E-01-1.02891E-13 4.28410E-13
 -1      2029 2.29192E+01-2.00021E-01-6.33389E-03 7.58817E-02-7.91329E-14 4.83204E-13
 -1      2030 2.27677E+01-2.65383E-01 4.41362E-03 3.18436E-02-3.81136E-14 5.31000E-13
 -1      2031 2.26631E+01-2.34457E-01-5.41233E-03 6.29897E-01 3.59565E-14 3.95796E-13
 -1      2032 2.28385E+01-2.41382E-01-6.97575E-03 4.35976E-01-3.64942E-14 4.09540E-13
 -1      2033 2.27839E+01-3.24226E-01 8.09683E-03 4.60142E-01-1.78763E-14 3.75295E-13
 -1      2034 2.21805E+01-1.70332E-01-4.69552E-04 9.96335E-01 8.41180E-14 5.32106E-13
 -1      2035 2.24965E+01-2.16838E-01-6.10540E-03 8.16128E-01 5.41459E-14 4.26588E-13
 -1      2036 2.25826E+01-2.98816E-01 1.10336E-02 9.27961E-01 3.04175E-14 5.03231E-13
 -1      2037 2.14946E+01-6.46078E-03 3.90619E-03 1.17149E+00 4.32080E-14 2.40172E-13
 -1      2038 2.19047E+01-9.26233E-02-3.29760E-03 1.08327E+00 9.17972E-14 3.80199E-13
 -1      2039 2.21513E+01-1.43533E-01 1.03676E-02 1.28221E+00 1.68732E-13 4.15145E-13
 -1      2040 2.07744E+01 2.15163E-01 3.89114E-03 1.00523E+00 1.67644E-13 4.98924E-14
 -1      2041 2.11802E+01 1.18940E-01 1.50062E-03 1.07961E+00 3.80360E-14 7.76601E-14
 -1      2042 2.15670E+01 1.31145E-01 3.92249E-03 1.32862E+00 1.49366E-13 1.39125E-14
 -1      2043 2.02702E+01 3.88452E-01-1.02227E-03 4.75554E-01 2.77117E-13 1.17006E-13
 -1      2044 2.05447E+01 3.33860E-01 7.37572E-03 7.18762E-01 2.25613E-13 1.23256E-13
 -1      2045 2.10167E+01 4.24979E-01-6.00503E-03 9.42060E-01 1.88368E-13 6.79665E-15
 -1      2046 2.01958E+01 4.09776E-01-5.98753E-03-2.42034E-01 9.43880E-14 3.46936E-14
 -1      2047 2.02376E+01 4.33376E-01 1.20129E-02 8.41203E-02 2.07466E-13 1.64534E-13
 -1      2048 2.07323E+01 5.86506E-01-1.20022E-02 1.95962E-01 1.90780E-13 1.01399E-13
 -1      2049 2.05880E+01 2.65304E-01-5.90792E-03-8.53594E-01 3.12913E-13-1.74329E-13
 -1      2050 2.03792E+01 3.55373E-01 1.24879E-02-5.78827E-01 1.90918E-13-4.49059E-14
 -1      2051 2.08475E+01 5.19323E-01-9.08548E-03-6.23890E-01 2.37449E-13 5.10737E-14
 -1      2052 2.12743E+01 4.43291E-02-7.43899E-04-1.13126E+00 1.47158E-13-1.87739E-13
 -1      2053 2.08942E+01 1.49341E-01 7.81362E-03-1.00546E+00 2.19508E-13-1.46204E-13
 -1      2054 2.12978E+01 2.62472E-01-7.14791E-04-1.18299E+00 2.34439E-13 1.63911E-13
 -1      2055 2.19851E+01-1.39428E-01 4.71145E-03-1.03930E+00-3.03463E-13-1.62781E-13
 -1      2056 2.15676E+01-6.77732E-02 2.63769E-04-1.07357E+00-1.40744E-13-2.52492E-13
 -1      2057 2.18685E+01-4.37437E-02 4.61770E-03-1.30751E+00-1.10887E-14 2.52219E-13
 -1      2058 2.25069E+01-2.27565E-01 7.17590E-03-7.02723E-01-2.14863E-14-1.10124E-13
 -1      2059 2.21714E+01-2.05401E-01-6.37309E-03-8.41583E-01-1.56354E-13-1.68446E-13
 -1      2060 2.23426E+01-2.62328E-01 4.78164E-03-1.05154E+00-1.66952E-13-1.90360E-14
 -1      2061 2.27479E+01-2.27418E-01 6.29935E-03-2.90604E-01-5.79727E-14-3.15447E-14
 -1      2062 2.25594E+01-2.42938E-01-9.76954E-03-4.62473E-01-5.62597E-14-1.19567E-13
 -1      2063 2.26003E+01-3.43046E-01 2.28587E-03-5.97815E-01-5.81367E-14-9.15713E-14
 -1      2064 2.27199E+01-1.77249E-01 3.76901E-03 7.27736E-02-1.29711E-13-8.94441E-14
 -1      2065 2.26864E+01-2.09844E-01-9.91289E-03-8.02219E-02-5.15621E-14 4.29665E-14
 -1      2066 2.26246E+01-3.13173E-01 7.10494E-05-1.26667E-01-1.43737E-13-1.08594E-13
 -1      2067 2.24874E+01-1.13040E-01 1.23073E-03 3.31600E-01 2.68700E-13-1.40235E-13
 -1      2068 2.25807E+01-1.46831E-01-7.97905E-03 2.20967E-01 2.94582E-14-2.13574E-13
 -1      2069 2.24582E+01-2.28783E-01-9.04158E-04 2.52448E-01 9.28233E-14-2.07821E-13
 -1      2070 2.21271E+01-5.56074E-02-4.57046E-04 4.80759E-01 1.48542E-13-5.26536E-14
 -1      2071 2.23051E+01-8.28640E-02-5.22735E-03 4.15127E-01 2.89371E-13-3.50523E-14
 -1      2072 2.21633E+01-1.35486E-01-9.61995E-04 5.02453E-01 1.94534E-13-1.84295E-13
 -1      2073 2.17065E+01-1.19530E-02-1.14637E-03 5.39398E-01 2.42634E-13-2.46147E-13
 -1      2074 2.19286E+01-3.10931E-02-2.50440E-03 5.11385E-01 1.92732E-13-1.94090E-13
 -1      2075 2.17984E+01-5.68444E-02-6.72877E-04 6.31305E-01 3.06559E-13-1.40394E-13
 -1      2076 2.12780E+01 1.91725E-02-1.04905E-03 5.31478E-01 3.34807E-14-1.80879E-13
 -1      2077 2.15110E+01 6.53637E-03-2.25450E-04 5.31706E-01 1.09114E-13-1.69901E-13
 -1      2078 2.14108E+01 1.32585E-03-4.22301E-04 6.64613E-01 1.18696E-13 1.57736E-14
 -1      2079 2.08794E+01 4.24900E-02-5.46956E-04 4.75753E-01 1.35231E-13-6.20964E-14
 -1      2080 2.10985E+01 3.36820E-02 1.44103E-03 4.97102E-01 8.31453E-15 1.83408E-14
 -1      2081 2.10354E+01 4.29030E-02-4.14868E-04 6.28244E-01-8.98684E-14 1.77172E-13
 -1      2082 2.05381E+01 6.29248E-02-3.11776E-05 3.82881E-01-9.14915E-14-9.56084E-14
 -1      2083 2.07250E+01 5.55513E-02 2.41223E-03 4.21790E-01 1.08684E-13 4.93709E-14
 -1      2084 2.06971E+01 7.50726E-02-7.41327E-04 5.40557E-01 6.17395E-14 1.17153E-13
 -1      2085 2.02743E+01 8.35627E-02 1.26624E-03 2.57856E-01-1.81901E-13-8.50442E-14
 -1      2086 2.04134E+01 7.55659E-02 2.44225E-03 3.13439E-01-2.64203E-13-1.50646E-13
 -1      2087 2.04123E+01 1.04194E-01-1.09932E-03 4.12473E-01-1.62464E-13 1.84346E-13
 -1      2088 2.01206E+01 9.65236E-02 2.84589E-03 1.48163E-01-7.27241E-14 1.37279E-13
 -1      2089 2.02122E+01 9.35043E-02 2.00368E-03 2.13080E-01-4.88463E-14-3.87299E-15
 -1      2090 2.02226E+01 1.28707E-01-1.45226E-03 2.88692E-01-1.80772E-13 3.70177E-13
 -1      2091 2.01115E+01 1.45257E-01 1.75363E-05 1.87075E-01-1.02036E-13 4.36308E-13
 -1      2092 2.00127E+01 8.38591E-01-8.74778E-04 4.81423E-01-3.58228E-13-2.10499E-13
 -1      2093 2.00388E+01 6.84453E-01 2.28744E-03 4.66544E-01-1.65865E-13-1.40457E-13
 -1      2094 2.00640E+01 5.57651E-01 4.09026E-04 4.32340E-01-8.08559E-14-1.48523E-13
 -1      2095 2.00888E+01 4.20828E-01 3.00233E-03 3.87396E-01 8.33756E-14-1.62237E-13
 -1      2096 2.00765E+01 5.89201E-01-8.00801E-04 5.70250E-01-2.40667E-13-2.41674E-13
 -1      2097 2.00969E+01 3.32751E-01 1.14979E-03 3.25899E-01-5.33985E-14 9.62587E-14
 -1      2098 2.01131E+01 2.24781E-01 2.83631E-03 2.60231E-01-5.75316E-15 4.20182E-13
 -1      2099 2.01615E+01 2.19338E-01 1.87606E-03 3.16709E-01-1.32537E-13 4.29708E-13
 -1      2100 2.01304E+01 3.80663E-01-8.76966E-04 4.61890E-01-7.97929E-14 5.13864E-14
 -1      2101 1.99639E+01 1.11604E+00-2.65491E-03 4.67795E-01-4.36230E-13-7.53442E-13
 -1      2102 1.99888E+01 9.65227E-01 5.24434E-04 4.81100E-01-4.59330E-13-2.27459E-13
 -1      2103 2.00009E+01 8.40998E-01 8.77773E-05 6.07011E-01-3.83826E-13-3.64911E-13
 -1      2104 1.99188E+01 1.36875E+00-4.36896E-03 3.92388E-01 8.90532E-14-1.39356E-13
 -1      2105 1.99412E+01 1.23601E+00-1.31106E-03 4.32511E-01-1.59779E-13-3.95193E-13
 -1      2106 1.99297E+01 1.08816E+00 1.73602E-03 5.67132E-01-2.44651E-13-2.55057E-13
 -1      2107 1.98830E+01 1.55956E+00-5.59567E-03 2.63225E-01 1.01196E-13 4.11990E-13
 -1      2108 1.99001E+01 1.46529E+00-3.08238E-03 3.25447E-01 1.26027E-13 1.03630E-13
 -1      2109 1.98662E+01 1.30533E+00 3.28927E-03 4.52405E-01 1.56267E-13 9.70187E-15
 -1      2110 1.98614E+01 1.66230E+00-6.07658E-03 9.52052E-02 8.76170E-14 5.36131E-13
 -1      2111 1.98706E+01 1.61996E+00-4.52752E-03 1.72129E-01 2.21070E-14 5.56953E-13
 -1      2112 1.98182E+01 1.46289E+00 4.58622E-03 2.75006E-01 7.13075E-14 3.78655E-13
 -1      2113 1.98579E+01 1.66072E+00-5.68695E-03-9.05534E-02 3.60988E-14-2.25799E-13
 -1      2114 1.98573E+01 1.67728E+00-5.44641E-03-8.87188E-03 3.44540E-14 3.43282E-13
 -1      2115 1.97928E+01 1.53850E+00 5.34027E-03 5.56485E-02-6.98970E-14 4.18191E-13
 -1      2116 1.98745E+01 1.55232E+00-4.47286E-03-2.68642E-01-1.90378E-13-2.82696E-13
 -1      2117 1.98636E+01 1.62687E+00-5.63078E-03-1.93653E-01-5.76029E-14-4.41925E-13
 -1      2118 1.97950E+01 1.51934E+00 5.33919E-03-1.77377E-01-1.53951E-13-3.41709E-13
 -1      2119 1.99099E+01 1.35403E+00-2.50167E-03-4.10870E-01-4.02105E-13-5.35907E-13
 -1      2120 1.98895E+01 1.47472E+00-5.09258E-03-3.54609E-01-3.26235E-13-2.37300E-13
 -1      2121 1.98267E+01 1.40690E+00 4.64735E-03-3.90054E-01-2.67339E-13-4.27016E-13
 -1      2122 1.99621E+01 1.08488E+00-9.73894E-05-4.99102E-01-1.71329E-13-7.84160E-15
 -1      2123 1.99334E+01 1.23959E+00-3.86644E-03-4.69391E-01-2.32464E-13-1.52632E-13
 -1      2124 1.98851E+01 1.21433E+00 3.21002E-03-5.52782E-01-2.73789E-13-3.08673E-13
 -1      2125 2.00255E+01 7.83606E-01 2.31899E-03-5.12810E-01 2.41077E-14-4.11323E-14
 -1      2126 1.99916E+01 9.48692E-01-2.26459E-03-5.17902E-01-2.17491E-14-1.46243E-13
 -1      2127 1.99665E+01 9.63492E-01 1.45294E-03-6.40311E-01 7.45741E-14 7.45057E-14
 -1      2128 2.00930E+01 4.82940E-01 1.70056E-03-4.44533E-01-1.49569E-13-1.20699E-13
 -1      2129 2.00569E+01 6.41075E-01-9.88569E-04-4.86477E-01-1.38757E-13-4.30220E-14
 -1      2130 2.00623E+01 6.87265E-01 2.64513E-05-6.33014E-01-3.82750E-14-1.86210E-13
 -1      2131 9.62018E+00-5.25834E+00-1.80862E-01 6.35636E+00 3.91021E-13 2.24657E-13
 -1      2132 6.05538E+00-6.92488E+00-4.41121E-01 5.00843E+00 2.98983E-13 7.52176E-14
 -1      2133 1.11030E-01-7.68226E+00-4.61962E-01 9.20341E-01 3.46889E-13 3.23075E-13
 -1      2134 6.77732E-02-7.73630E+00-4.67350E-01-5.04243E-01 4.02303E-13 3.70592E-13
 -1      2135 3.16110E+00-6.70835E+00-3.36762E-01 4.02905E+00 3.43281E-13-1.91624E-13
 -1      2136 1.29836E+00-7.67608E+00-4.83956E-01 2.60417E+00 1.92069E-13 1.15907E-13
 -1      2137 1.89261E+01-3.42135E+00 1.12642E-02 6.92907E+00 3.78531E-13-2.49079E-13
 -1      2138 1.44376E+01-5.26327E+00-2.64198E-01 6.26854E+00 4.08673E-13-1.09135E-13
 -1      2139 2.70165E+01-1.09407E+00 8.30165E-02 5.70712E+00 8.62643E-14 1.14131E-13
 -1      2140 2.20591E+01-2.80633E+00-1.83560E-01 5.81050E+00 3.17635E-13-9.81992E-14
 -1      2141 2.28132E+01-4.71221E+00 7.28703E-02 5.59156E+00 8.81517E-14-3.95239E-13
 -1      2142 1.95237E+01 4.01580E+00-2.56347E-02-1.70263E+00-2.18553E-14-8.73572E-14
 -1      2143 1.96508E+01 3.94214E+00-2.43604E-02-1.95788E+00-2.88849E-14-7.74589E-14
 -1      2144 1.99724E+01 3.25283E+00-7.96832E-03-1.91109E+00-3.57999E-14-5.85799E-14
 -1      2145 1.96951E+01 3.58285E+00-9.24741E-03-1.51925E+00-1.88851E-14-8.01650E-14
 -1      2146 3.93914E+01 5.78393E+00 4.18708E-01 2.07703E+00 2.82441E-13-3.78031E-14
 -1      2147 3.61798E+01 4.72154E+00 1.50788E-01 2.84210E+00 4.34930E-13 2.35922E-14
 -1      2148 4.04216E+01 7.16521E+00 3.29967E-01 9.70368E-02 2.95486E-13-3.40734E-13
 -1      2149 4.00386E+01 6.76373E+00 3.47111E-01 1.38175E+00 2.92821E-13-2.32925E-13
 -1      2150 3.90197E+01 6.50245E+00 2.72651E-01-1.47486E+00 3.43892E-13-2.86104E-13
 -1      2151 3.99066E+01 7.04209E+00 3.09457E-01-2.99187E-01 2.81164E-13-3.43253E-13
 -1      2152 3.51709E+01 4.04801E+00 1.17655E-01-3.11017E+00 2.54685E-13-3.42171E-13
 -1      2153 3.83062E+01 5.21073E+00 3.29986E-01-2.21716E+00 2.94847E-13-2.13551E-13
 -1      2154 2.88576E+01 4.24780E-01-4.82892E-02-4.44012E+00 3.90826E-13-3.39950E-13
 -1      2155 3.35907E+01 2.35950E+00 2.97069E-01-4.36890E+00 2.66696E-13-3.64264E-13
 -1      2156 2.02185E+01-3.22044E+00-1.99998E-01-6.00294E+00 4.43479E-13-5.82867E-15
 -1      2157 2.53791E+01-1.50328E+00 8.07734E-02-6.11003E+00 4.63685E-13-1.13576E-13
 -1      2158 1.25248E+01-5.52068E+00-2.71641E-01-6.23144E+00 2.25653E-13-3.57006E-13
 -1      2159 1.68319E+01-3.70306E+00-1.42809E-02-6.95186E+00 3.23297E-13-2.06946E-13
 -1      2160 2.10591E+01-4.84587E+00 1.27257E-02-6.10330E+00 1.25566E-13 8.78742E-14
 -1      2161 5.25249E+00-6.35477E+00-2.73757E-01-4.90558E+00 3.07476E-13-2.98039E-13
 -1      2162 8.55022E+00-5.28828E+00-9.71088E-02-6.26570E+00 3.30014E-13-3.52260E-13
 -1      2163 8.82003E-01-6.83381E+00-3.52630E-01-1.65888E+00 8.18512E-14-6.47593E-13
 -1      2164 2.28281E+00-5.81663E+00-1.93573E-01-3.35409E+00 2.83995E-13-5.07261E-13
 -1      2165 8.22458E-01-6.41645E+00-2.84273E-01 1.49286E+00 2.02061E-14-8.44269E-13
 -1      2166 4.01437E-01-6.86239E+00-3.33908E-01-7.41862E-02 1.82951E-13-7.13318E-13
 -1      2167 2.09878E+00-4.02653E+00-1.24690E-01-1.14736E+00 1.30798E-14-6.53089E-13
 -1      2168 5.09746E+00-6.09303E+00-2.21755E-01 4.74842E+00-1.72640E-14-5.97328E-13
 -1      2169 2.75765E+00-6.83608E+00-3.43802E-01 3.48084E+00 1.61093E-13-6.66911E-13
 -1      2170 1.11460E+01-5.04570E+00-1.62580E-01 6.35052E+00-2.95208E-13-7.96932E-14
 -1      2171 7.53273E+00-6.63215E+00-3.96268E-01 5.22981E+00-8.77076E-14-2.09818E-13
 -1      2172 8.35770E+00-5.45244E+00-1.25891E-01 5.99888E+00 2.40585E-13-3.28793E-13
 -1      2173 2.02691E+01-2.95687E+00 3.05894E-04 6.70967E+00-4.39537E-13 3.10418E-13
 -1      2174 1.53442E+01-4.79000E+00-3.26084E-01 6.00394E+00-4.17333E-13-2.16216E-14
 -1      2175 2.89767E+01-3.70161E-01 1.48779E-01 5.30520E+00-4.36429E-13 6.39822E-13
 -1      2176 2.41840E+01-2.08060E+00-1.35564E-01 5.43375E+00-5.34350E-13 4.69291E-13
 -1      2177 3.61155E+01 3.20738E+00 3.69993E-01 3.66603E+00-9.03617E-14 2.51577E-13
 -1      2178 3.18672E+01 1.53841E+00 3.40454E-02 3.80146E+00-3.16566E-13 4.11893E-13
 -1      2179 3.97158E+01 5.76157E+00 3.52060E-01 1.47807E+00 5.02931E-14 2.74558E-13
 -1      2180 3.74030E+01 4.70124E+00 2.33888E-01 2.58054E+00 4.77673E-14 1.73861E-13
 -1      2181 4.09044E+01 7.07019E+00 3.59783E-01-1.48189E-01-2.31704E-13 4.41727E-13
 -1      2182 3.98934E+01 6.92062E+00 2.85364E-01 8.15441E-01-1.21736E-13 3.36509E-13
 -1      2183 3.90253E+01 6.58533E+00 2.40230E-01-1.18405E+00-4.76175E-13 3.74256E-13
 -1      2184 4.09992E+01 6.95181E+00 4.09185E-01-3.91371E-01-3.37508E-13 3.55715E-13
 -1      2185 3.63462E+01 8.03996E+00 3.22227E-01 3.90918E-02-3.04534E-13 2.12028E-13
 -1      2186 3.57592E+01 3.70979E+00 1.99618E-01-3.15712E+00-6.61027E-13 2.71783E-13
 -1      2187 3.82998E+01 4.92508E+00 2.95396E-01-1.97645E+00-5.66658E-13 3.33233E-13
 -1      2188 2.99031E+01 8.44030E-01 1.33888E-02-4.78417E+00-5.45564E-13 5.54556E-13
 -1      2189 3.43532E+01 2.37288E+00 3.24830E-01-4.46263E+00-6.70713E-13 3.67040E-13
 -1      2190 3.39908E+01 2.36520E+00 2.73608E-01-1.29322E+00-5.50476E-13-7.23310E-14
 -1      2191 2.21025E+01-3.03987E+00-1.70504E-01-5.64898E+00-5.47062E-13 4.17888E-13
 -1      2192 2.69264E+01-9.06909E-01 1.76598E-01-6.02922E+00-5.14366E-13 6.64580E-13
 -1      2193 1.29511E+01-5.66502E+00-3.48768E-01-6.01287E+00-9.65894E-15 9.51822E-13
 -1      2194 1.77416E+01-3.98659E+00-4.49714E-02-6.84137E+00-4.42424E-13 6.49675E-13
 -1      2195 6.12327E+00-6.93835E+00-4.07647E-01-4.92269E+00 3.86469E-13 1.15519E-12
 -1      2196 9.49438E+00-5.57966E+00-1.94466E-01-6.06654E+00-2.19824E-14 1.14212E-12
 -1      2197 1.38343E+01-5.80299E+00-7.20576E-02-6.77073E+00 2.76168E-13 9.33965E-13
 -1      2198 1.00468E+00-7.83372E+00-5.10062E-01-2.13608E+00 5.55944E-13 6.73128E-13
 -1      2199 2.74541E+00-6.78287E+00-3.45211E-01-3.66483E+00 3.07698E-13 1.04472E-12
 -1      2200 3.44851E+01 2.77300E+00 2.82918E-01 3.65221E+00 2.78050E-13-8.73190E-14
 -1      2201 3.02672E+01 9.81198E-01-1.98848E-02 3.93131E+00 1.05832E-13 8.80407E-14
 -1      2202 2.07301E+01 1.10873E+00-2.05665E-02-1.61770E+00-5.56881E-14 3.02206E-14
 -1      2203 2.92609E+01-1.59627E+00 1.20854E-01 2.99996E+00 1.15782E-13-5.29576E-14
 -1      2204 3.37966E+01 3.24739E+00 2.13276E-01 7.79766E-01 2.97595E-13 3.30846E-14
 -1      2205 2.06213E+01 1.32940E+00-1.88028E-02-1.67947E+00-5.48121E-14-1.09739E-14
 -1      2206 6.42588E+00-5.55534E+00-1.62206E-01 5.62122E+00-5.33462E-14 9.06497E-14
 -1      2207 1.88691E+00-5.33680E+00-2.43122E-01 2.32427E+00 1.59317E-14 1.11355E-13
 -1      2208 2.01250E+01 3.89659E-01 2.36280E-03-4.29510E-01-5.02922E-14 8.20704E-14
 -1      2209 1.45956E+01-5.60466E+00-3.50763E-02 6.96046E+00-7.38298E-15-2.25478E-13
 -1      2210 1.64880E+00-5.38882E+00-2.51022E-01-1.76759E+00 1.76137E-13 5.38070E-13
 -1      2211 6.28550E+00-5.67445E+00-1.73491E-01-5.31657E+00 3.18412E-13 1.18708E-12
 -1      2212 2.95477E+01-1.56932E+00 1.23331E-01-3.34312E+00-2.97457E-13 1.71363E-13
 -1      2213 3.60284E+01 5.95480E+00 2.78721E-01 4.70929E-02-4.23328E-13 2.44749E-13
 -1      2214 3.63868E+01 6.88145E+00 3.16403E-01-1.85253E-01-1.64146E-13 2.70062E-13
 -1      2215 3.49637E+01 3.63215E+00 2.92548E-01 6.08900E-01-4.19664E-14 2.37921E-13
 -1      2216 3.08897E+01-6.21002E-01 1.57050E-01 2.67248E+00-3.70190E-13 4.39149E-13
 -1      2217 1.55285E+01-5.65395E+00-6.88211E-02 6.59233E+00-5.06262E-14 5.01196E-14
 -1      2218 3.37055E+00-4.52787E+00-1.17671E-01 3.09678E+00 2.61874E-13-7.54008E-13
 -1      2219 1.29789E+01-5.50206E+00-8.48299E-02-6.84547E+00 3.38618E-15-1.11036E-13
 -1      2220 2.81882E+01-2.13702E+00 6.85168E-02-3.63656E+00 2.14356E-13-1.27287E-13
 -1      2221 3.32111E+01 2.48970E+00 2.34103E-01-1.10967E+00 1.90611E-13-8.28781E-14
 -1      2222 3.52622E+01 6.30392E+00 3.05979E-01 8.81951E-02 2.39531E-13-2.03337E-13
 -1      2223 3.61557E+01 6.92615E+00 3.47086E-01 1.10353E-01 4.08229E-13-1.15241E-13
 -1      2224 3.62892E+01 8.02810E+00 3.24871E-01 1.19569E-01 3.37730E-13-3.92655E-13
 -1      2225 5.64004E+00-4.48999E+00-5.06983E-02-4.95335E+00 5.20695E-14-3.65041E-13
 -1      2226 2.40784E+01-4.03008E+00 5.50349E-02 5.20511E+00-3.80418E-13 4.83447E-13
 -1      2227 2.20419E+01-4.83333E+00 7.33902E-03-5.73768E+00-2.21101E-13 3.31374E-13
 -1      2228 2.01421E+01 5.06435E-01 3.73198E-03 6.79835E-01 6.65475E-14 1.89369E-13
 -1      2229 2.04103E+01 6.99949E-01 2.07878E-02 9.71431E-01 8.62140E-14 2.02094E-13
 -1      2230 1.95653E+01 3.51613E+00-1.11421E-02-5.92368E-01 1.79827E-14-2.86871E-14
 -1      2231 1.96002E+01 3.47024E+00-1.05286E-02-7.76946E-01 2.82971E-15-5.31649E-14
 -1      2232 1.96461E+01 3.38219E+00-1.28132E-02-9.41727E-01-5.30739E-15-6.72865E-14
 -1      2233 1.97061E+01 3.30157E+00-1.28681E-02-1.13109E+00-1.48922E-14-6.55908E-14
 -1      2234 1.97914E+01 3.03338E+00 1.86102E-04-7.93564E-01 3.30530E-15-4.76849E-14
 -1      2235 1.95189E+01 3.59876E+00-9.63489E-03 9.95849E-02 7.39817E-14 1.30278E-15
 -1      2236 1.95182E+01 3.59958E+00-9.64145E-03-8.01424E-02 5.51446E-14 2.14932E-15
 -1      2237 1.95446E+01 3.55930E+00-9.73438E-03 4.46161E-01 9.29425E-14-9.33021E-15
 -1      2238 1.95274E+01 3.58190E+00-1.01537E-02 2.65083E-01 8.23759E-14-7.74728E-15
 -1      2239 1.96852E+01 3.22165E+00-8.88430E-04 1.69847E-01 7.06598E-14 1.26925E-14
 -1      2240 1.96054E+01 3.46268E+00-1.06185E-02 7.90645E-01 9.76854E-14-8.12371E-15
 -1      2241 1.95697E+01 3.50973E+00-1.12206E-02 6.08975E-01 9.51232E-14-1.83057E-14
 -1      2242 1.97214E+01 3.15805E+00-4.91225E-04 4.88790E-01 8.75521E-14-8.38218E-15
 -1      2243 1.97145E+01 3.28883E+00-1.29571E-02 1.14448E+00 1.13865E-13 3.85473E-14
 -1      2244 1.96527E+01 3.37221E+00-1.28787E-02 9.54999E-01 1.04753E-13 1.68069E-14
 -1      2245 1.97973E+01 3.02426E+00 2.80077E-04 8.04973E-01 1.00487E-13 7.65533E-15
 -1      2246 1.98917E+01 3.00320E+00-1.81733E-02 1.49188E+00 1.18981E-13 7.33354E-14
 -1      2247 1.97932E+01 3.14452E+00-1.51781E-02 1.30133E+00 1.09018E-13 4.37723E-14
 -1      2248 1.99247E+01 2.79901E+00 1.96520E-03 1.11169E+00 1.09645E-13 4.89695E-14
 -1      2249 2.01677E+01 2.54363E+00-2.84107E-02 1.79647E+00 1.17958E-13 1.12323E-13
 -1      2250 2.00177E+01 2.78300E+00-1.70834E-02 1.62191E+00 1.14426E-13 9.09255E-14
 -1      2251 2.01172E+01 2.44825E+00 5.82053E-03 1.37779E+00 1.09490E-13 8.48262E-14
 -1      2252 1.98647E+01 2.68323E-01 4.74193E-03 2.87200E-01 5.03768E-14 1.80228E-13
 -1      2253 2.00256E+01 3.68015E-01 2.01784E-02 4.44397E-01 5.73890E-14 1.83285E-13
 -1      2254 2.02062E+01 6.34617E-01-2.25873E-03 7.06839E-01 6.99779E-14 1.39344E-13
 -1      2255 2.03960E+01 8.53284E-01 1.24506E-02-1.00322E+00-3.73208E-14-2.26761E-14
 -1      2256 2.01862E+01 6.28440E-01-3.82952E-03-6.93845E-01-3.96887E-14-4.36500E-15
 -1      2257 2.97325E+01-1.45957E+00-1.26031E-01 1.11544E+00 4.26690E-14-1.57430E-13
 -1      2258 2.72825E+01-3.40412E+00-1.50529E-02 2.47473E+00 4.64906E-15-1.37473E-13
 -1      2259 2.01183E+01 4.69182E-01 1.55853E-02-4.76567E-01-4.66571E-14 1.36695E-14
 -1      2260 1.99791E+01 3.44648E-01 1.73345E-04-3.05195E-01-3.35673E-14 5.09206E-15
 -1      2261 2.02406E+01 7.47957E-01-1.28261E-03-6.94722E-01-3.49566E-14-3.37181E-14
 -1      2262 1.99152E+01 2.59799E-01 1.07352E-02-1.67904E-01-3.22914E-14 1.52461E-14
 -1      2263 1.98367E+01 1.88747E-01 6.87040E-04-7.03780E-02-2.90111E-14-6.91173E-15
 -1      2264 2.00777E+01 4.15343E-01-4.09646E-03-3.12214E-01-3.40524E-14-1.78328E-14
 -1      2265 1.97927E+01 1.39524E-01 6.37728E-03 1.22079E-02-2.73031E-14-1.34216E-14
 -1      2266 1.97580E+01 9.75774E-02 7.57953E-04 6.60203E-02-2.45324E-14-3.62000E-15
 -1      2267 1.99571E+01 2.28459E-01-3.73537E-03-7.24400E-02-3.94125E-14-2.90727E-14
 -1      2268 1.97326E+01 6.81379E-02 3.58276E-03 1.12535E-01-6.20184E-16-2.28891E-14
 -1      2269 1.97261E+01 4.32460E-02 7.12059E-04 1.40000E-01 8.16851E-15-5.73087E-15
 -1      2270 1.98823E+01 1.17030E-01-2.99813E-03 6.96455E-02-2.66300E-14-2.22916E-14
 -1      2271 1.97153E+01 2.57014E-02 1.87187E-03 1.63632E-01-5.38117E-16-1.01365E-14
 -1      2272 1.97259E+01 1.13892E-02 6.45745E-04 1.75261E-01-3.84514E-15-1.25738E-14
 -1      2273 1.98442E+01 5.05541E-02-2.19979E-03 1.48251E-01 1.31924E-14-2.17093E-14
 -1      2274 1.97254E+01 1.47979E-03 8.16839E-04 1.84855E-01 6.39197E-15-8.85913E-15
 -1      2275 1.97460E+01-5.89594E-03 5.99510E-04 1.87383E-01-5.28656E-15 1.88865E-16
 -1      2276 1.98327E+01 1.18799E-02-1.53875E-03 1.86758E-01 5.69841E-15-4.89913E-14
 -1      2277 1.97524E+01-1.06416E-02 1.72998E-04 1.89034E-01-3.80439E-14 3.37951E-14
 -1      2278 1.97785E+01-1.32592E-02 5.95239E-04 1.86995E-01-6.79472E-14 3.13670E-14
 -1      2279 1.98391E+01-8.59481E-03-1.05503E-03 2.01184E-01-1.63786E-14 1.49146E-14
 -1      2280 1.97894E+01-1.43588E-02-2.04026E-04 1.85009E-01-4.64908E-14 6.51291E-14
 -1      2281 1.98185E+01-1.35671E-02 6.44656E-04 1.81586E-01-4.35254E-14 9.01983E-14
 -1      2282 1.98575E+01-1.65904E-02-7.30814E-04 2.02732E-01-3.65424E-14 6.42672E-14
 -1      2283 1.98324E+01-1.19751E-02-4.05341E-04 1.79095E-01-4.69330E-14 9.10184E-14
 -1      2284 1.98635E+01-8.60881E-03 7.54139E-04 1.76620E-01-1.71674E-14 8.29605E-14
 -1      2285 1.98837E+01-1.56463E-02-5.35305E-04 1.99432E-01-4.21568E-14 1.00551E-13
 -1      2286 1.98798E+01-4.91463E-03-4.92149E-04 1.75990E-01 1.64946E-14 1.00455E-13
 -1      2287 1.99128E+01 5.36698E-04 9.28421E-04 1.76270E-01 4.00032E-14 1.32237E-13
 -1      2288 1.99155E+01-7.96204E-03-4.39501E-04 1.97224E-01 1.58646E-14 1.33271E-13
 -1      2289 1.99313E+01 5.99555E-03-5.07127E-04 1.79383E-01 3.13792E-14 9.52777E-14
 -1      2290 1.99671E+01 1.32841E-02 1.17213E-03 1.83912E-01 4.21566E-14 6.54007E-14
 -1      2291 1.99521E+01 5.15120E-03-4.19425E-04 2.00691E-01 3.61505E-14 5.58645E-14
 -1      2292 1.99881E+01 2.03470E-02-4.80701E-04 1.92370E-01 2.38165E-14 4.31329E-14
 -1      2293 2.00280E+01 2.93921E-02 1.48968E-03 2.02479E-01-1.41719E-15 6.99095E-14
 -1      2294 1.99937E+01 2.29981E-02-4.55635E-04 2.13580E-01-5.79838E-16 3.71214E-14
 -1      2295 2.00523E+01 3.80132E-02-4.34848E-04 2.17738E-01-4.41726E-14 7.51027E-14
 -1      2296 2.00984E+01 4.88321E-02 1.88379E-03 2.34690E-01-6.03662E-14 4.90122E-14
 -1      2297 2.00412E+01 4.53016E-02-5.31892E-04 2.39153E-01-3.67866E-14 1.67870E-14
 -1      2298 2.01267E+01 5.90156E-02-3.85359E-04 2.58137E-01-8.39468E-14 4.38956E-15
 -1      2299 2.01814E+01 7.16437E-02 2.35265E-03 2.83165E-01-1.13909E-13-1.15240E-14
 -1      2300 2.00964E+01 7.20224E-02-6.33740E-04 2.80418E-01-9.67160E-14-6.49385E-14
 -1      2301 2.02149E+01 8.33581E-02-3.42751E-04 3.16135E-01-1.27693E-13-2.10361E-14
 -1      2302 2.02811E+01 9.77339E-02 2.88514E-03 3.50405E-01-9.69498E-14-6.23380E-14
 -1      2303 2.01613E+01 1.03148E-01-7.47761E-04 3.40225E-01-1.35654E-13-7.72279E-14
 -1      2304 2.03210E+01 1.10783E-01-3.11393E-04 3.94108E-01-1.29146E-13-4.29243E-14
 -1      2305 2.04016E+01 1.26567E-01 3.45309E-03 4.38586E-01-7.25027E-14-7.62560E-14
 -1      2306 2.02384E+01 1.38395E-01-8.62256E-04 4.21206E-01-1.14384E-13-5.66328E-14
 -1      2307 2.04493E+01 1.40378E-01-2.85905E-04 4.93927E-01 1.17609E-15-1.38632E-13
 -1      2308 2.05476E+01 1.56658E-01 3.99973E-03 5.49081E-01 6.90389E-14-1.08386E-13
 -1      2309 2.03303E+01 1.76743E-01-9.70692E-04 5.25515E-01-7.36042E-14 5.06373E-16
 -1      2310 2.06047E+01 1.69941E-01-2.43193E-04 6.16293E-01 1.67365E-13-1.41806E-13
 -1      2311 2.07235E+01 1.84748E-01 4.42299E-03 6.81555E-01 2.00740E-13-1.18284E-13
 -1      2312 2.04400E+01 2.15677E-01-1.08034E-03 6.54276E-01 8.22282E-14-1.11813E-13
 -1      2313 2.07923E+01 1.94947E-01-1.27876E-04 7.59574E-01 1.85009E-13-1.25653E-13
 -1      2314 2.09339E+01 2.04518E-01 4.55366E-03 8.32421E-01 1.81418E-13-5.58270E-14
 -1      2315 2.05709E+01 2.49988E-01-1.22956E-03 8.06591E-01 1.90874E-13-2.10728E-13
 -1      2316 2.10178E+01 2.07002E-01 1.70702E-04 9.17864E-01 1.81629E-13-3.78117E-14
 -1      2317 2.11839E+01 2.04740E-01 4.13084E-03 9.92391E-01 7.20214E-14 1.02621E-14
 -1      2318 2.07277E+01 2.69943E-01-1.51756E-03 9.77934E-01 1.86585E-13-1.59561E-13
 -1      2319 2.12887E+01 1.91764E-01 8.47789E-04 1.07798E+00-2.81020E-15 8.13069E-14
 -1      2320 2.14794E+01 1.67061E-01 2.78008E-03 1.14286E+00 2.56301E-14 5.90968E-14
 -1      2321 2.09177E+01 2.58794E-01-2.14668E-03 1.15766E+00 8.70545E-14-8.47003E-14
 -1      2322 2.16155E+01 1.26834E-01 2.19874E-03 1.21511E+00 4.27466E-15 3.44178E-14
 -1      2323 2.18289E+01 6.44518E-02 4.15670E-06 1.25113E+00-1.48694E-14 9.29973E-14
 -1      2324 2.11542E+01 1.90063E-01-3.46445E-03 1.32535E+00-1.98052E-14 5.14371E-14
 -1      2325 2.20135E+01-1.85469E-02 4.56313E-03 1.28726E+00-3.40681E-14 1.01700E-13
 -1      2326 2.22447E+01-1.36544E-01-4.73598E-03 1.26521E+00-3.25342E-14 7.54715E-14
 -1      2327 2.14599E+01 2.64567E-02-5.94987E-03 1.44578E+00-3.21743E-14 9.62641E-14
 -1      2328 2.25029E+01-2.77205E-01 8.14903E-03 1.22966E+00 1.49665E-14 4.98928E-14
 -1      2329 2.27416E+01-4.62715E-01-1.17045E-02 1.11111E+00 7.39422E-14 1.30946E-13
 -1      2330 2.18719E+01-2.74649E-01-9.92978E-03 1.46255E+00-3.76515E-14 2.49993E-15
 -1      2331 2.31002E+01-6.61924E-01 1.23195E-02 9.54102E-01 2.59020E-14 5.52869E-14
 -1      2332 2.33255E+01-8.98295E-01-1.99513E-02 7.00119E-01 3.19519E-14 3.72376E-14
 -1      2333 2.24395E+01-7.38628E-01-1.47549E-02 1.29237E+00 1.78984E-14-6.66777E-14
 -1      2334 2.37893E+01-1.11451E+00 1.41393E-02 3.67795E-01 3.00324E-14 7.24000E-14
 -1      2335 2.39618E+01-1.31974E+00-2.61593E-02-3.46646E-02 6.74634E-14 5.01535E-14
 -1      2336 2.32031E+01-1.31634E+00-1.74765E-02 8.28571E-01 6.66257E-14-8.33395E-14
 -1      2337 2.44695E+01-1.43491E+00 6.98519E-03-5.61491E-01 1.59740E-13 3.08824E-15
 -1      2338 2.45335E+01-1.43052E+00-2.25711E-02-1.05156E+00 9.72365E-14 3.34166E-14
 -1      2339 2.41348E+01-1.79774E+00-1.37622E-02-1.74835E-02 4.45024E-14 5.54487E-14
 -1      2340 2.49082E+01-1.24696E+00-1.75009E-02-1.66262E+00 2.41369E-14 6.78038E-14
 -1      2341 2.48244E+01-8.24401E-01-4.29467E-03-2.04596E+00 4.45750E-14 1.74704E-13
 -1      2342 2.50461E+01-1.73827E+00-8.32972E-04-1.19752E+00 1.11174E-13 9.79065E-14
 -1      2343 2.48441E+01-2.06235E-01-5.73210E-02-2.40330E+00 6.75605E-14 1.76965E-13
 -1      2344 2.46412E+01 6.12712E-01 9.39557E-03-2.37601E+00 5.81271E-14 2.86019E-13
 -1      2345 2.55627E+01-6.52686E-01 3.32681E-03-2.29872E+00 8.49269E-14 1.36580E-13
 -1      2346 2.43552E+01 1.45224E+00-7.19428E-02-2.06257E+00-9.79147E-14 2.06696E-13
 -1      2347 2.41667E+01 2.17239E+00-4.02745E-03-1.45458E+00-2.34514E-13 1.03273E-13
 -1      2348 2.54472E+01 1.32392E+00-2.76274E-02-2.44777E+00-1.09045E-13 6.43756E-14
 -1      2349 2.39756E+01 2.58016E+00-4.65303E-02-4.60977E-01-2.19297E-13 6.42012E-14
 -1      2350 2.39739E+01 2.57248E+00-4.61333E-02 4.34241E-01-2.14606E-13 5.97738E-14
 -1      2351 2.50341E+01 3.03642E+00-7.06701E-02-1.09565E+00-2.31266E-13-1.28481E-13
 -1      2352 2.41634E+01 2.15078E+00-3.16505E-03 1.41787E+00-2.14280E-13 4.79976E-14
 -1      2353 2.43318E+01 1.42433E+00-7.62130E-02 2.01511E+00-2.55115E-13 5.35302E-14
 -1      2354 2.50403E+01 3.02984E+00-6.81246E-02 1.05899E+00-2.48024E-13 3.85560E-14
 -1      2355 2.46253E+01 5.92535E-01 1.33998E-02 2.31971E+00-2.62044E-13 3.36432E-14
 -1      2356 2.48035E+01-2.41792E-01-5.93862E-02 2.33836E+00-8.98214E-14 8.29029E-14
 -1      2357 2.54507E+01 1.31405E+00-1.55249E-02 2.42484E+00-2.50341E-13 1.03147E-13
 -1      2358 2.47799E+01-8.40761E-01-2.48449E-04 1.96141E+00-1.23103E-14 1.06226E-14
 -1      2359 2.48399E+01-1.25650E+00-1.70810E-02 1.58198E+00 2.42788E-14 3.55965E-14
 -1      2360 2.55149E+01-6.92808E-01-3.60387E-04 2.27178E+00-4.69676E-14 8.10255E-14
 -1      2361 2.44591E+01-1.44698E+00-2.39669E-02 9.63358E-01 1.52161E-14-7.25808E-15
 -1      2362 2.43796E+01-1.44904E+00 5.35099E-03 4.69057E-01-3.70320E-14 2.26442E-14
 -1      2363 2.49763E+01-1.76985E+00-1.18146E-02 1.12666E+00 7.17189E-15 2.66280E-15
 -1      2364 2.38635E+01-1.33430E+00-2.73393E-02-6.36303E-02 1.33682E-13 4.81364E-15
 -1      2365 2.36749E+01-1.12899E+00 1.30766E-02-4.71007E-01 1.15932E-13 6.35715E-14
 -1      2366 2.40578E+01-1.82057E+00-1.71882E-02-8.58273E-02 9.39505E-14 3.26813E-14
 -1      2367 2.32032E+01-9.13744E-01-2.01829E-02-8.08957E-01-3.85143E-14 3.38781E-13
 -1      2368 2.29598E+01-6.78612E-01 1.16289E-02-1.06862E+00-4.47598E-14 3.95024E-13
 -1      2369 2.31117E+01-1.33670E+00-1.83035E-02-9.45374E-01 1.60303E-13 2.39524E-13
 -1      2370 2.25933E+01-4.80206E-01-1.15617E-02-1.23219E+00-1.35958E-13 4.17740E-13
 -1      2371 2.23348E+01-2.95076E-01 7.75415E-03-1.35686E+00-7.41416E-14 3.77220E-13
 -1      2372 2.23321E+01-7.60773E-01-1.48227E-02-1.42178E+00-1.16995E-14 5.39196E-13
 -1      2373 2.20676E+01-1.53494E-01-4.57220E-03-1.39902E+00-9.04715E-14 3.86196E-13
 -1      2374 2.18157E+01-3.33660E-02 4.41588E-03-1.42621E+00-1.20119E-15 3.03303E-13
 -1      2375 2.17469E+01-2.96998E-01-9.88566E-03-1.60572E+00-1.41889E-13 3.67742E-13
 -1      2376 2.16211E+01 5.35147E-02 9.01677E-05-1.39470E+00 2.00060E-13 1.14727E-13
 -1      2377 2.13869E+01 1.22003E-01 2.40013E-03-1.36062E+00 2.90897E-13 1.41358E-13
 -1      2378 2.13156E+01 1.03357E-02-6.02070E-03-1.60039E+00 2.53711E-14 2.77655E-13
 -1      2379 2.12399E+01 1.70591E-01 2.76347E-03-1.28828E+00 1.05300E-13 1.74829E-13
 -1      2380 2.10299E+01 2.07169E-01 1.59175E-03-1.21893E+00 1.59616E-14 2.88845E-13
 -1      2381 2.09895E+01 1.90294E-01-3.60090E-03-1.48428E+00 1.59662E-13 3.12482E-13
 -1      2382 2.09130E+01 2.34733E-01 3.93522E-03-1.12497E+00 1.19887E-13 2.82041E-13
 -1      2383 2.07308E+01 2.56672E-01 1.58608E-03-1.03548E+00 1.78143E-13 3.03205E-13
 -1      2384 2.07321E+01 2.89687E-01-2.26042E-03-1.30741E+00 5.88466E-14 3.82064E-13
 -1      2385 2.06326E+01 2.76943E-01 4.08010E-03-9.29050E-01 4.04696E-14 2.69222E-13
 -1      2386 2.04824E+01 2.95781E-01 2.44620E-03-8.25840E-01 5.29301E-14 3.60269E-13
 -1      2387 2.05200E+01 3.50240E-01-1.46949E-03-1.09719E+00 9.45456E-14 3.58361E-13
 -1      2388 1.96174E+01 7.34573E-02 2.12303E-03-6.53280E-02 1.32912E-15 1.29243E-13
 -1      2389 1.96446E+01 1.04903E-01 6.93030E-03-1.88001E-02 8.21023E-15 1.48563E-13
 -1      2390 1.95949E+01 3.23591E-02 1.42268E-03-1.32422E-01 3.47383E-14 7.87646E-14
 -1      2391 1.95912E+01 5.08508E-02 3.71030E-03-1.09212E-01 1.64959E-14 9.96094E-14
 -1      2392 1.97646E+01 9.13645E-02-3.22163E-03-7.14079E-02 2.59979E-14 9.81857E-14
 -1      2393 1.96090E+01 8.41299E-03 1.00274E-03-1.63234E-01 6.96136E-14 8.32907E-14
 -1      2394 1.95878E+01 1.90491E-02 1.85529E-03-1.53824E-01 3.89691E-14 8.81956E-14
 -1      2395 1.97319E+01 3.85607E-02-2.35414E-03-1.45831E-01 4.30950E-14 7.42710E-14
 -1      2396 1.96450E+01-4.66115E-03 7.47554E-04-1.72637E-01 9.73096E-14 1.07185E-13
 -1      2397 1.96144E+01 9.12368E-04 7.72991E-04-1.71114E-01 8.26953E-14 1.15697E-13
 -1      2398 1.97310E+01 8.11935E-03-1.61371E-03-1.80971E-01 5.87059E-14 6.34727E-14
 -1      2399 1.96930E+01-1.04585E-02 6.11176E-04-1.70471E-01 5.24988E-15 1.58642E-13
 -1      2400 1.96580E+01-8.30941E-03 1.42076E-04-1.72933E-01 7.18992E-14 1.47324E-13
 -1      2401 1.97503E+01-8.05750E-03-1.07460E-03-1.92797E-01 6.30752E-14 1.53012E-13
 -1      2402 1.97474E+01-1.11704E-02 5.73999E-04-1.63507E-01 8.30599E-14 1.40345E-13
 -1      2403 1.97107E+01-1.14353E-02-2.05310E-04-1.67260E-01 5.16786E-14 1.47675E-13
 -1      2404 1.97820E+01-1.46479E-02-7.18640E-04-1.92136E-01 4.69641E-14 2.06298E-13
 -1      2405 1.98053E+01-8.17560E-03 6.24329E-04-1.56573E-01 8.38794E-14 7.64581E-14
 -1      2406 1.97680E+01-1.02187E-02-3.66536E-04-1.59677E-01 1.00922E-13 1.13550E-13
 -1      2407 1.98211E+01-1.45118E-02-5.08627E-04-1.86559E-01 1.14146E-13 1.41419E-13
 -1      2408 1.98661E+01-2.34455E-03 7.53866E-04-1.53251E-01 5.90557E-14 7.85947E-14
 -1      2409 1.98279E+01-5.76831E-03-4.03531E-04-1.54245E-01 4.86775E-14 7.59272E-14
 -1      2410 1.98651E+01-9.44452E-03-4.10661E-04-1.81535E-01 5.73931E-14 9.39917E-14
 -1      2411 1.99305E+01 5.77855E-03 9.56125E-04-1.56313E-01-1.70825E-14 1.33017E-13
 -1      2412 1.98907E+01 1.21905E-03-3.57770E-04-1.54043E-01 3.17442E-14 1.15561E-13
 -1      2413 1.99130E+01-5.77373E-04-3.98263E-04-1.81152E-01-1.65458E-16 1.34726E-13
 -1      2414 2.00009E+01 1.58435E-02 1.22457E-03-1.68008E-01 2.03319E-14 1.70564E-13
 -1      2415 1.99577E+01 1.03064E-02-2.57667E-04-1.61516E-01-9.57464E-15 1.76199E-13
 -1      2416 1.99655E+01 1.13774E-02-4.51165E-04-1.88603E-01-2.53500E-14 1.33378E-13
 -1      2417 2.00803E+01 2.75738E-02 1.54965E-03-1.90205E-01-1.48458E-14 9.89427E-14
 -1      2418 2.00316E+01 2.11936E-02-1.23008E-04-1.78685E-01 6.96140E-14 1.51926E-13
 -1      2419 2.00241E+01 2.59416E-02-5.53556E-04-2.06469E-01 5.28672E-14 9.66431E-14
 -1      2420 2.01726E+01 4.06324E-02 1.91459E-03-2.24418E-01-3.13660E-15-4.02710E-14
 -1      2421 2.01158E+01 3.35932E-02 3.21289E-05-2.07222E-01-6.06206E-14 5.32249E-14
 -1      2422 2.00911E+01 4.26966E-02-6.92545E-04-2.36864E-01 2.56834E-14 1.14238E-13
 -1      2423 2.02822E+01 5.44498E-02 2.28940E-03-2.71674E-01 1.47067E-14 1.32664E-14
 -1      2424 2.02146E+01 4.70812E-02 1.97433E-04-2.48402E-01 3.98065E-15 1.97760E-14
 -1      2425 2.01694E+01 6.10823E-02-8.57075E-04-2.81430E-01-2.56182E-14 1.40973E-14
 -1      2426 2.04135E+01 6.79904E-02 2.62291E-03-3.32201E-01 4.23678E-14 9.48848E-15
 -1      2427 2.03324E+01 6.08994E-02 3.65213E-04-3.02878E-01 5.19267E-14 2.09804E-14
 -1      2428 2.02624E+01 8.01372E-02-1.03750E-03-3.41145E-01 6.20662E-15 1.31643E-14
 -1      2429 2.05710E+01 7.94325E-02 2.83275E-03-4.04864E-01-9.04280E-14 6.22260E-14
 -1      2430 2.04739E+01 7.36832E-02 5.30157E-04-3.70248E-01-5.03308E-15 3.93908E-14
 -1      2431 2.03739E+01 9.81458E-02-1.22631E-03-4.15919E-01-2.52749E-15 3.39668E-15
 -1      2432 2.07584E+01 8.57492E-02 2.79432E-03-4.86276E-01-5.29457E-14 2.54285E-14
 -1      2433 2.06435E+01 8.30947E-02 6.90298E-04-4.48338E-01-9.76426E-14 3.69356E-14
 -1      2434 2.05075E+01 1.12164E-01-1.42035E-03-5.03904E-01-4.78479E-14 5.13704E-15
 -1      2435 2.09778E+01 8.22195E-02 2.33247E-03-5.69527E-01 1.17571E-13-7.86131E-14
 -1      2436 2.08450E+01 8.53624E-02 8.49265E-04-5.32120E-01 3.01246E-14-4.88378E-14
 -1      2437 2.06670E+01 1.17419E-01-1.62442E-03-6.00438E-01 4.10985E-14-1.86828E-13
 -1      2438 2.12294E+01 6.20136E-02 1.22450E-03-6.42532E-01 1.59512E-13 3.12371E-14
 -1      2439 2.10807E+01 7.47978E-02 1.01890E-03-6.12230E-01 1.75622E-13 4.56732E-14
 -1      2440 2.08562E+01 1.06662E-01-1.85419E-03-6.96588E-01 9.66254E-14-1.43690E-13
 -1      2441 2.15096E+01 1.62435E-02-7.69183E-04-6.86214E-01-1.28322E-13 6.29868E-14
 -1      2442 2.13504E+01 4.35310E-02 1.21860E-03-6.73155E-01 4.39632E-14 7.70421E-14
 -1      2443 2.10782E+01 6.97488E-02-2.13240E-03-7.77306E-01 4.71996E-14 1.75615E-13
 -1      2444 2.18097E+01-6.46855E-02-3.81939E-03-6.73212E-01-1.84957E-13 8.42905E-14
 -1      2445 2.16504E+01-1.79598E-02 1.46123E-03-6.91485E-01-2.16389E-13 6.80348E-14
 -1      2446 2.13360E+01-5.86446E-03-2.46518E-03-8.19488E-01-1.50337E-13 1.75739E-13
 -1      2447 2.21144E+01-1.86964E-01-7.84827E-03-5.68665E-01-1.73510E-13 8.20343E-14
 -1      2448 2.19709E+01-1.18403E-01 1.70905E-03-6.35272E-01-1.79587E-13-2.73152E-14
 -1      2449 2.16310E+01-1.32379E-01-2.77533E-03-7.90722E-01-1.40838E-13-1.32897E-14
 -1      2450 2.23983E+01-3.44633E-01-1.22263E-02-3.35976E-01-1.22532E-13 2.35228E-13
 -1      2451 2.22928E+01-2.59631E-01 1.77306E-03-4.66732E-01-1.67139E-13 1.36387E-13
 -1      2452 2.19604E+01-3.14490E-01-2.76670E-03-6.50507E-01-1.90325E-13-2.57293E-14
 -1      2453 2.26227E+01-5.05797E-01-1.53719E-02 4.80270E-02-5.80712E-14 2.70381E-13
 -1      2454 2.25820E+01-4.25191E-01 1.12898E-03-1.52362E-01-2.79403E-14 2.59713E-13
 -1      2455 2.23112E+01-5.35376E-01-1.76233E-03-3.57490E-01-1.35894E-13-6.94573E-14
 -1      2456 2.27341E+01-6.00016E-01-1.46448E-02 5.64705E-01-6.18889E-14 2.56339E-13
 -1      2457 2.27836E+01-5.65460E-01-9.99528E-04 3.14295E-01-5.61812E-14 2.84484E-13
 -1      2458 2.26483E+01-7.37408E-01 1.19508E-03 1.11376E-01-3.55577E-14 1.56772E-14
 -1      2459 2.26729E+01-5.24678E-01-7.37817E-03 1.11767E+00 2.20284E-14 3.45447E-13
 -1      2460 2.28247E+01-5.91248E-01-5.08375E-03 8.76667E-01-5.65043E-14 3.27838E-13
 -1      2461 2.29034E+01-8.11023E-01 6.48018E-03 7.24633E-01-1.06087E-13 1.01975E-13
 -1      2462 2.24030E+01-1.96178E-01 5.73730E-03 1.51204E+00 3.14626E-13 2.94491E-13
 -1      2463 2.26384E+01-3.97837E-01-1.05760E-02 1.38029E+00 2.61104E-13 4.08029E-13
 -1      2464 2.29797E+01-6.15734E-01 1.25060E-02 1.35119E+00 1.17491E-13 2.93166E-14
 -1      2465 2.19695E+01 3.47506E-01 1.76747E-02 1.50291E+00 2.53297E-13-3.12948E-14
 -1      2466 2.22272E+01 5.37643E-02-1.41613E-02 1.58273E+00 2.98652E-13 1.84869E-13
 -1      2467 2.28010E+01-7.78249E-02 1.22407E-02 1.73877E+00 3.70135E-13 1.76819E-13
 -1      2468 2.15416E+01 8.78714E-01 1.87479E-02 9.49856E-01 1.22792E-13-2.31954E-14
 -1      2469 2.17310E+01 6.32771E-01-1.01145E-02 1.26896E+00 1.64454E-13-2.05209E-14
 -1      2470 2.24137E+01 6.76515E-01 4.88733E-05 1.59664E+00 2.34833E-13-3.29099E-15
 -1      2471 2.13574E+01 1.08511E+00 7.15620E-03-4.89715E-03 1.88065E-13 1.21260E-13
 -1      2472 2.13997E+01 1.03950E+00 2.88901E-03 4.47107E-01 1.22886E-13 8.54139E-14
 -1      2473 2.20448E+01 1.29867E+00-1.52891E-02 8.16258E-01 9.06358E-14 3.27911E-14
 -1      2474 2.15420E+01 8.28299E-01-7.53989E-03-9.51362E-01 1.40334E-13 2.88279E-13
 -1      2475 2.14215E+01 1.01407E+00 1.68107E-02-5.61304E-01 2.12204E-13 1.79054E-13
 -1      2476 2.19632E+01 1.41836E+00-1.89387E-02-3.31314E-01 1.60412E-13 3.84687E-13
 -1      2477 2.19889E+01 2.74514E-01-1.37628E-02-1.48027E+00 1.07596E-13 3.70483E-13
 -1      2478 2.17601E+01 5.71226E-01 2.04235E-02-1.30605E+00 1.36412E-13 2.95053E-13
 -1      2479 2.22299E+01 9.59695E-01-4.82413E-03-1.30841E+00 1.09259E-13 4.53446E-13
 -1      2480 2.24381E+01-2.55627E-01-1.19530E-02-1.45637E+00 6.25520E-15 3.42623E-13
 -1      2481 2.21960E+01-8.76058E-03 1.06384E-02-1.51687E+00 1.82117E-13 4.00353E-13
 -1      2482 2.26289E+01 1.97636E-01 8.99536E-03-1.70045E+00 1.11274E-13 3.60518E-13
 -1      2483 2.26955E+01-5.55881E-01-6.32686E-03-1.03042E+00-3.04101E-14 5.34230E-14
 -1      2484 2.25185E+01-4.39206E-01-3.41256E-03-1.24236E+00-1.27518E-13 2.02301E-13
 -1      2485 2.28864E+01-4.59793E-01 1.28617E-02-1.48054E+00 1.41848E-13 2.30407E-13
 -1      2486 2.27084E+01-6.07595E-01-1.64445E-03-4.53948E-01-1.20722E-13-5.11472E-14
 -1      2487 2.26340E+01-6.09575E-01-1.29338E-02-7.10468E-01-1.80689E-14-4.96840E-14
 -1      2488 2.28848E+01-7.93859E-01 7.99018E-03-8.99048E-01-5.33427E-16 1.13044E-13
 -1      2489 2.25264E+01-5.01699E-01 8.34491E-04 7.67480E-02-1.30657E-13-9.01873E-14
 -1      2490 2.25534E+01-5.69598E-01-1.55077E-02-1.48886E-01-1.89349E-13-8.91360E-14
 -1      2491 2.26644E+01-8.12059E-01 2.11625E-03-2.42673E-01-1.48390E-13 4.92096E-14
 -1      2492 2.22257E+01-3.38356E-01 1.57629E-03 4.68055E-01 2.04315E-13-1.42306E-13
 -1      2493 2.23320E+01-4.24277E-01-1.33083E-02 3.06635E-01 5.88891E-14-1.44190E-13
 -1      2494 2.23233E+01-6.44905E-01-1.57115E-03 3.07304E-01 5.98853E-14-1.30475E-13
 -1      2495 2.18704E+01-1.81642E-01 1.58002E-03 7.04131E-01 2.17903E-13-1.84985E-13
 -1      2496 2.20276E+01-2.58358E-01-9.17698E-03 6.10205E-01 1.65054E-13-1.86006E-13
 -1      2497 2.19438E+01-4.19418E-01-2.97151E-03 6.84169E-01 1.39123E-13-1.12699E-13
 -1      2498 2.15037E+01-5.77396E-02 1.51856E-03 8.07936E-01 3.24246E-13-3.14086E-14
 -1      2499 2.16859E+01-1.16100E-01-4.99581E-03 7.70401E-01 3.20444E-13-6.97749E-15
 -1      2500 2.15733E+01-2.11932E-01-3.06103E-03 8.92244E-01 1.66338E-13-1.06338E-13
 -1      2501 2.11525E+01 3.16429E-02 1.71945E-03 8.12589E-01-8.23449E-14 1.44934E-13
 -1      2502 2.13389E+01-9.75528E-03-1.62408E-03 8.17238E-01 1.51031E-13 8.05164E-14
 -1      2503 2.12328E+01-5.07325E-02-2.71226E-03 9.64839E-01 1.26792E-13 6.31057E-14
 -1      2504 2.08326E+01 9.60583E-02 2.10032E-03 7.46448E-01-1.34947E-13 1.11811E-13
 -1      2505 2.10081E+01 6.59679E-02 7.09804E-04 7.81837E-01-2.19808E-13 5.79643E-14
 -1      2506 2.09290E+01 6.50277E-02-2.55426E-03 9.39238E-01-1.12125E-13 4.47413E-14
 -1      2507 2.05537E+01 1.47091E-01 2.48246E-03 6.28351E-01-4.94513E-14 3.75801E-13
 -1      2508 2.07081E+01 1.22869E-01 2.19293E-03 6.87412E-01-1.26675E-13 2.17726E-13
 -1      2509 2.06637E+01 1.50383E-01-2.72184E-03 8.44349E-01-1.86873E-13 1.23911E-13
 -1      2510 2.03201E+01 1.92143E-01 2.96235E-03 4.71158E-01-2.48039E-13 4.34245E-13
 -1      2511 2.04478E+01 1.70204E-01 2.83188E-03 5.48511E-01-1.57751E-14 4.37805E-13
 -1      2512 2.04357E+01 2.18780E-01-2.75128E-03 6.97014E-01-1.23684E-13 5.26518E-13
 -1      2513 2.02274E+01 2.06800E-01 2.46237E-03 3.68137E-01-2.19973E-13 4.07579E-13
 -1      2514 1.98564E+01 1.06126E+00-4.58147E-03 6.41572E-01 1.98662E-14-2.31271E-14
 -1      2515 1.99136E+01 9.52458E-01 1.67671E-03 6.83493E-01-1.40326E-13-3.88772E-13
 -1      2516 1.97577E+01 1.24929E+00-5.45276E-03 4.90361E-01 1.56510E-13 2.16165E-13
 -1      2517 1.98059E+01 1.16227E+00 1.51481E-04 5.69910E-01 1.29785E-13 1.81831E-13
 -1      2518 1.97778E+01 1.03826E+00 1.90185E-03 6.94255E-01 1.45841E-13 1.33182E-13
 -1      2519 2.00844E+01 6.12206E-01-1.62021E-03 6.90126E-01-2.63031E-13-3.40180E-13
 -1      2520 2.01443E+01 4.93183E-01 3.57603E-03 6.52933E-01-1.61094E-13-3.69591E-13
 -1      2521 1.99712E+01 8.39601E-01-2.97258E-03 7.09025E-01-3.75271E-13-4.73445E-13
 -1      2522 2.00300E+01 7.23515E-01 3.02237E-03 7.08271E-01-3.52633E-13-3.35773E-13
 -1      2523 2.00661E+01 6.16760E-01-1.33724E-03 8.01110E-01-2.84232E-13-4.31852E-13
 -1      2524 1.99236E+01 8.32309E-01 7.67486E-04 7.97821E-01-1.47909E-13-2.77592E-13
 -1      2525 1.96864E+01 1.37960E+00-5.59559E-03 2.70453E-01 9.70360E-14 4.77385E-13
 -1      2526 1.97190E+01 1.32593E+00-1.52404E-03 3.79019E-01 1.64934E-13 2.08801E-13
 -1      2527 1.96565E+01 1.20953E+00 3.31095E-03 5.00199E-01 1.62363E-13 1.76524E-13
 -1      2528 1.96545E+01 1.43260E+00-4.88835E-03 7.41339E-03-1.28915E-13 3.06292E-13
 -1      2529 1.96655E+01 1.42015E+00-3.21977E-03 1.31678E-01-1.02657E-13 5.67814E-13
 -1      2530 1.95752E+01 1.32259E+00 4.45757E-03 2.33948E-01 6.50890E-14 3.06371E-13
 -1      2531 1.96700E+01 1.39788E+00-3.42906E-03-2.64043E-01-8.00745E-14-4.07554E-13
 -1      2532 1.96561E+01 1.42945E+00-4.58339E-03-1.40932E-01-1.45472E-13-1.18768E-13
 -1      2533 1.95484E+01 1.35857E+00 4.93933E-03-7.23267E-02-7.21426E-14 3.16592E-14
 -1      2534 1.97326E+01 1.28051E+00-1.37471E-03-5.01636E-01-1.79079E-13-4.11032E-13
 -1      2535 1.96949E+01 1.35098E+00-5.38815E-03-3.98946E-01-9.08716E-14-5.30826E-13
 -1      2536 1.95841E+01 1.30993E+00 4.70989E-03-3.74673E-01 4.54586E-14-5.14364E-13
 -1      2537 1.98384E+01 1.09041E+00 7.81989E-04-6.77852E-01 2.23974E-14-1.04533E-13
 -1      2538 1.97796E+01 1.19397E+00-5.45556E-03-6.07911E-01-1.07663E-13-4.34624E-13
 -1      2539 1.96804E+01 1.18159E+00 3.63627E-03-6.32333E-01 8.08901E-14-4.12012E-13
 -1      2540 1.99757E+01 8.51668E-01 2.62896E-03-7.59997E-01 8.50273E-14 1.38219E-14
 -1      2541 1.99029E+01 9.75753E-01-4.59913E-03-7.37123E-01 4.34635E-14 9.21956E-14
 -1      2542 1.98285E+01 9.87794E-01 1.81218E-03-8.09171E-01 1.10945E-13-8.77940E-14
 -1      2543 2.01272E+01 5.92354E-01 3.84827E-03-7.32146E-01-1.85770E-13-1.68837E-13
 -1      2544 2.00505E+01 7.23876E-01-2.82537E-03-7.62643E-01-1.27373E-13-2.26687E-13
 -1      2545 2.00090E+01 7.52747E-01-1.94330E-04-8.73733E-01-5.70489E-14-2.64351E-13
 -1      2546 4.19305E+00-3.26681E+00 4.98253E-02 3.48970E+00-2.56128E-13-9.32587E-15
 -1      2547 3.01389E+00-3.14728E+00 5.83997E-02 1.30812E+00-1.49249E-13 1.40721E-13
 -1      2548 1.75282E+01-5.37845E+00-4.66628E-02 6.84364E+00-1.39305E-13-4.50022E-13
 -1      2549 1.33115E+01-5.17615E+00 7.09128E-02 6.80432E+00-2.56295E-13-2.25819E-13
 -1      2550 1.96981E+01 1.43726E-01 3.30027E-03 6.15207E-02 1.75378E-14 1.51092E-13
 -1      2551 1.97768E+01 1.98364E-01 1.23941E-02 1.47902E-01 3.52806E-14 1.72152E-13
 -1      2552 1.98448E+01 1.81659E-01-3.89518E-03 6.66883E-02 2.00204E-14 1.18003E-13
 -1      2553 2.02108E+01 3.83618E-01 2.65988E-03-5.41618E-01 7.22937E-14 1.56744E-13
 -1      2554 2.82801E+00-3.20719E+00 4.62939E-02-8.00651E-01-1.05402E-13 3.14304E-13
 -1      2555 3.79663E+00-3.35558E+00 4.01567E-02-2.96887E+00-2.92266E-14 6.15397E-13
 -1      2556 2.46756E+01-4.79815E+00-8.42972E-02 4.59195E+00 1.13298E-13-2.19574E-13
 -1      2557 2.19000E+01-5.29971E+00 6.85875E-02 5.42286E+00 7.57172E-14-3.15456E-13
 -1      2558 2.05428E+01 1.95519E+00-1.39193E-02-1.90346E+00-5.02792E-14-3.72775E-14
 -1      2559 2.04082E+01 1.21687E+00-5.72002E-03-1.28911E+00-5.28128E-14-2.90955E-14
 -1      2560 2.03698E+01 1.37248E+00 3.15250E-03-1.23180E+00-4.05405E-14-3.25850E-14
 -1      2561 2.02846E+01 2.36604E+00-7.47861E-03-1.82906E+00-4.38464E-14-3.98466E-14
 -1      2562 2.78818E+01-3.26300E+00-1.56959E-02-2.59027E+00-1.64826E-13-1.32061E-13
 -1      2563 3.04670E+01-1.47355E+00-5.69608E-02-1.59581E+00-2.12455E-13-7.13873E-14
 -1      2564 3.29001E+01 6.63067E+00-1.43775E-01-8.71157E-01-1.84575E-13 3.02439E-13
 -1      2565 3.29539E+01 5.39028E+00-9.39512E-02-1.10230E+00-6.05627E-14 2.52715E-13
 -1      2566 1.25627E+01-4.69092E+00 8.16353E-02-6.76788E+00-3.38340E-14-8.11295E-14
 -1      2567 1.65867E+01-5.18400E+00 3.72567E-02-6.91809E+00-5.99520E-14 1.22159E-13
 -1      2568 2.64261E+01-3.69252E+00-6.89249E-03-3.31997E+00 1.11772E-13-6.23945E-14
 -1      2569 2.93598E+01-1.77384E+00-6.84433E-02-1.94020E+00 7.96446E-14-1.06304E-13
 -1      2570 1.95254E+01 3.58492E+00-1.01139E-02-2.45652E-01 4.65828E-14-1.00111E-14
 -1      2571 1.95411E+01 3.56422E+00-9.68363E-03-4.26620E-01 2.89706E-14-1.76022E-14
 -1      2572 1.97175E+01 3.16374E+00-5.83417E-04-4.74068E-01 2.42215E-14-8.82541E-15
 -1      2573 1.96838E+01 3.22375E+00-9.07787E-04-1.52220E-01 4.69379E-14 4.68982E-15
 -1      2574 3.22505E+01 7.38583E+00-1.40851E-01 3.33356E-01 3.76477E-13-2.17867E-13
 -1      2575 3.27243E+01 7.48453E+00-1.11502E-01-1.28984E-01 3.63376E-13-2.55906E-13
 -1      2576 5.71736E+00-2.83351E+00 1.18957E-01-4.00558E+00-1.16157E-13-4.67848E-13
 -1      2577 8.54264E+00-3.46029E+00 7.36724E-02-5.83807E+00-7.31637E-14-1.59456E-13
 -1      2578 3.29010E+01 6.76762E+00-1.29072E-01-5.99065E-01 5.06484E-13-1.91569E-13
 -1      2579 3.25653E+01 5.57441E+00-1.03886E-01-7.21996E-01 4.92717E-13-3.01703E-14
 -1      2580 3.17836E+01 4.65491E+00-1.06231E-01 1.02063E+00 1.59928E-13-2.72615E-13
 -1      2581 3.20284E+01 6.11051E+00-1.60854E-01 9.41924E-01 2.89269E-13-2.60764E-13
 -1      2582 3.07127E+01 5.90456E-01-5.25440E-02-2.45339E-01 1.62884E-13-1.98341E-13
 -1      2583 3.18187E+01 2.52125E+00-1.40473E-01 4.29043E-01 1.71585E-13-2.85577E-13
 -1      2584 1.94452E+01-5.44893E+00 8.85779E-03-6.14159E+00-4.04954E-14 1.82694E-13
 -1      2585 2.26382E+01-4.93345E+00-3.59779E-02-5.36920E+00-6.63358E-15 1.85796E-13
 -1      2586 1.87809E+01-5.21716E+00 9.67792E-02-6.22567E+00-1.44690E-13 1.64851E-13
 -1      2587 2.61869E+01-4.31566E+00-8.51765E-02 3.92949E+00-1.96537E-13 6.13037E-13
 -1      2588 2.28009E+01-5.21370E+00-5.26664E-03 4.95261E+00-5.50671E-14 6.03850E-13
 -1      2589 3.63087E+00-2.26053E+00 1.19027E-01-2.79738E-02 1.09694E-13-6.64024E-13
 -1      2590 4.05252E+00-2.26686E+00 9.32726E-02-2.07454E+00 6.12566E-14-5.24580E-13
 -1      2591 5.90583E+00-3.21278E+00 7.81475E-02 4.45109E+00 4.85667E-13-4.60409E-13
 -1      2592 3.95505E+00-2.70430E+00 8.72041E-02 2.10887E+00 3.59067E-13-6.88505E-13
 -1      2593 5.66161E+00-1.40532E+00 1.75033E-01 1.21825E+00 3.39010E-13-4.81171E-13
 -1      2594 1.15596E+01-4.74893E+00 3.31891E-02 6.67023E+00 3.19966E-13-6.82787E-14
 -1      2595 8.91962E+00-4.09472E+00 8.93798E-02 5.79017E+00 4.50612E-13-2.77667E-13
 -1      2596 2.08493E+01-5.54059E+00 3.61341E-02-5.65837E+00 1.72085E-14 2.17090E-13
 -1      2597 2.48117E+01-4.83850E+00-7.41419E-02-4.70982E+00-1.54210E-13-2.15106E-14
 -1      2598 1.92669E+01-5.47960E+00-1.56483E-02 6.39439E+00 5.75651E-14 3.73174E-13
 -1      2599 1.50766E+01-5.48196E+00 2.57851E-02 6.54550E+00 1.58429E-13 1.10210E-13
 -1      2600 2.21964E+01-5.48621E+00 7.34885E-02 5.11869E+00 1.61926E-13 6.14689E-13
 -1      2601 3.12481E+01-5.36798E-01-9.51884E-02 8.51265E-01-3.22815E-13 3.72369E-13
 -1      2602 2.88662E+01-2.47908E+00-2.21015E-02 1.96485E+00-2.94868E-13 4.30211E-13
 -1      2603 3.29462E+01 3.46786E+00-1.32039E-01-8.79641E-01-1.69864E-14 1.95677E-13
 -1      2604 3.21199E+01 1.75936E+00-6.02646E-02-4.50704E-01-1.51074E-13 2.07834E-13
 -1      2605 3.32614E+01 7.24140E+00-8.77319E-02 4.21238E-01-2.18270E-13 1.50643E-13
 -1      2606 3.31450E+01 7.36115E+00-1.29516E-01-1.52056E-01-2.39586E-13 2.27408E-13
 -1      2607 3.29568E+01 4.40155E+00-4.47376E-02 9.79073E-01-4.32349E-13 3.43059E-14
 -1      2608 3.32130E+01 6.04882E+00-1.38722E-01 9.27134E-01-3.20077E-13 7.03881E-14
 -1      2609 3.13942E+01 9.09923E-02-6.75474E-02-4.31755E-01-3.64576E-13-1.10967E-13
 -1      2610 3.23100E+01 1.73500E+00-1.45864E-01 3.26231E-01-3.96211E-13-1.11022E-16
 -1      2611 3.01852E+01-1.42142E+00 2.48848E-02 5.90438E-02-1.76345E-13-1.84797E-13
 -1      2612 1.32854E+01-5.32707E+00 5.12989E-02-6.63592E+00 4.73788E-13 9.50365E-13
 -1      2613 1.66012E+01-5.54159E+00-4.33369E-02-6.85838E+00 2.46581E-13 7.14345E-13
 -1      2614 6.06099E+00-4.12963E+00 4.08919E-02-4.76416E+00 2.22822E-13 9.74998E-13
 -1      2615 9.42190E+00-4.55867E+00 1.30126E-02-6.32830E+00 3.64653E-13 9.76164E-13
 -1      2616 3.25214E+01 3.69483E+00-9.71604E-02-4.82007E-01 2.08167E-13 1.88682E-13
 -1      2617 3.10750E+01 1.67601E+00-6.73634E-02-1.66795E-01 1.22485E-13-3.30846E-14
 -1      2618 3.07192E+01 4.31977E+00-5.33519E-02-1.42689E+00 3.79752E-13-1.42442E-13
 -1      2619 2.04846E+01 8.74902E-01-7.31893E-03 1.22863E+00 9.86451E-14 2.08891E-13
 -1      2620 2.08354E+01 1.25690E+00-6.05327E-03 1.72928E+00 8.71629E-14 2.37081E-13
 -1      2621 2.06421E+01 1.71555E+00-1.57956E-02 1.92355E+00 1.02505E-13 2.04552E-13
 -1      2622 2.04445E+01 1.05797E+00-9.40713E-03 1.24358E+00 9.77690E-14 1.74678E-13
 -1      2623 9.40002E+00-4.50414E+00 8.58060E-03 6.55222E+00-3.47999E-13-9.34808E-14
 -1      2624 6.47944E+00-4.08420E+00 5.49543E-02 5.16069E+00-2.94598E-13-1.34337E-14
 -1      2625 3.04173E+01 6.82842E+00-6.71591E-02-6.49709E-01 5.38292E-13-1.16560E-13
 -1      2626 1.99148E+01 2.81431E+00 1.54574E-03-1.10077E+00-2.03256E-14-5.78114E-14
 -1      2627 1.97839E+01 3.16170E+00-1.46353E-02-1.28811E+00-1.79180E-14-7.15183E-14
 -1      2628 1.98791E+01 3.02480E+00-1.73838E-02-1.47764E+00-2.33169E-14-7.09346E-14
 -1      2629 1.99903E+01 3.40495E-01-3.55166E-03 3.06454E-01 4.52351E-14 1.20150E-13
 -1      2630 2.04191E+01 2.11565E+00-1.27676E-02 1.87661E+00 1.11263E-13 1.55979E-13
 -1      2631 1.28943E+01-4.27036E+00 1.23545E-01 6.61785E+00-4.00818E-13-2.34077E-13
 -1      2632 1.99861E+01 2.83960E+00-1.48986E-02-1.58838E+00-2.78518E-14-6.62179E-14
 -1      2633 2.01302E+01 2.61190E+00-2.25199E-02-1.75440E+00-4.06571E-14-6.45144E-14
 -1      2634 2.02833E+01 2.05175E+00 3.95601E-03-1.48866E+00-4.43851E-14-5.15430E-14
 -1      2635 2.00858E+01 2.49433E+00 4.06489E-03-1.34518E+00-3.39787E-14-5.73768E-14
 -1      2636 6.78729E+00-2.63435E+00 1.48018E-01-3.95899E+00 6.75987E-14 6.99163E-13
 -1      2637 2.68153E+01-4.44501E+00 2.85433E-02-2.81610E+00-4.72955E-14-1.59650E-13
 -1      2638 2.65082E+01-4.22506E+00 4.59885E-02 2.58349E+00 9.31200E-15-2.55476E-13
 -1      2639 3.12961E+01 2.59052E+00-1.59216E-02 1.55865E+00-2.97262E-13 1.87905E-14
 -1      2640 3.12628E+01 6.21145E+00-5.91548E-02 1.04998E+00-2.25486E-13 8.84154E-14
 -1      2641 3.10841E+01 4.02656E+00-4.43360E-02-1.80074E+00-6.13121E-14 3.39090E-13
 -1      2642 2.02418E+01 2.74495E-01 8.22468E-04 5.04674E-01-1.71600E-13 4.87689E-13
 -1      2643 2.04060E+01-5.32306E+00 8.53216E-02 5.82586E+00-7.65221E-14-2.23644E-13
 -1      2644 2.02176E+01 3.58495E-01 1.88905E-04 5.71302E-01-5.35395E-14 8.38669E-14
 -1      2645 4.82367E+00-1.80486E+00 1.56044E-01 2.70562E-01-3.05414E-13 2.55740E-13
 -1      2646 7.09023E+00-2.62009E+00 1.46953E-01 4.33779E+00-3.45099E-13 9.85323E-15
 -1      2647 2.01433E+01-5.49923E+00 8.61798E-02-5.83692E+00 2.27707E-13 3.29198E-13
 -1      2648 8.99984E+00-2.86328E+00 1.51378E-01 5.04279E+00 5.39707E-13-3.49526E-13
 -1      2649 2.04339E+01 1.80791E+00 1.25411E-02 1.56440E+00 1.07348E-13 1.41814E-13
 -1      2650 2.02515E+01 3.79258E-01 1.35631E-03 7.00969E-01-1.50329E-13-1.20406E-13
 -1      2651 3.09960E+01 6.57328E+00-7.81613E-02-7.32357E-01-1.52156E-13 2.08590E-13
 -1      2652 2.93703E+01-1.23838E+00-3.09490E-02-1.79027E-01 1.27086E-13-2.22794E-13
 -1      2653 3.02101E+01 3.11715E+00-5.12419E-02 1.52339E+00 1.50491E-13-3.06560E-13
 -1      2654 2.78136E+01-3.83043E+00 3.11134E-02 2.00073E+00-4.05093E-14 5.74013E-13
 -1      2655 2.50478E+01-4.74051E+00-6.43556E-03-3.94224E+00 5.85920E-14-9.65339E-14
 -1      2656 2.64258E+01-4.22106E+00-7.04083E-02-2.18563E+00 5.56083E-14-2.58224E-13
 -1      2657 2.35124E+01-5.08894E+00 8.53355E-02-4.35371E+00-2.46747E-14-1.47153E-13
 -1      2658 1.16496E+01-3.71871E+00 1.34708E-01-6.28655E+00-8.92064E-14-1.10648E-13
 -1      2659 1.45510E+01-3.95951E+00 5.88997E-03-6.36378E+00-1.61829E-13-3.92741E-14
 -1      2660 1.11589E+01-2.43263E+00 1.64240E-01-5.60639E+00-2.07917E-13-1.68116E-13
 -1      2661 6.79576E+00-1.58865E+00 1.80248E-01-3.06054E+00-6.46011E-14-4.17777E-13
 -1      2662 2.95813E+01-4.29855E-01-6.15896E-02-4.73847E-01 4.31530E-14-1.95233E-13
 -1      2663 3.00114E+01 6.37536E+00-8.05051E-02 1.02654E+00 3.35926E-13-1.21153E-13
 -1      2664 1.53682E+01-4.75351E+00 1.10971E-01 6.38574E+00 3.44141E-13 9.67143E-14
 -1      2665 3.07309E+01 1.28855E-02-8.61815E-03-8.14639E-01-2.06626E-13 1.38389E-13
 -1      2666 1.26010E+01-4.35681E+00 1.25584E-01-6.39896E+00 4.64934E-13 8.50486E-13
 -1      2667 2.03195E+01 3.19917E-01 4.28645E-03-6.41531E-01 7.75146E-14 3.28991E-13
 -1      2668 2.02024E+01 4.75164E-01-2.11772E-03-7.11192E-01-9.23199E-14 6.28618E-14
 -1      2669 2.02169E+01 5.17792E-01 1.49862E-03-8.48149E-01-1.70811E-13 1.28533E-13
 -1      2670 2.04305E+01 3.08807E-01 5.05070E-03-7.46276E-01 3.03243E-14 3.43645E-13
 -1      2671 2.03669E+01 3.88481E-01-2.39116E-03-9.00353E-01 3.71942E-14 4.20811E-13
 -1      2672 1.98510E+01 2.76540E+00-6.30691E-03 5.16997E-01 8.78747E-14 1.59811E-16
 -1      2673 1.98266E+01 2.81520E+00-5.71238E-03 3.65923E-01 8.57357E-14 2.99370E-15
 -1      2674 1.98100E+01 2.85280E+00-5.62583E-03 2.30178E-01 7.24237E-14 9.63335E-15
 -1      2675 1.98016E+01 2.86971E+00-5.44904E-03 7.53597E-02 6.42153E-14 1.95607E-14
 -1      2676 1.99565E+01 2.50193E+00 3.66134E-03 2.65611E-01 7.40289E-14-7.59809E-16
 -1      2677 2.00462E+01 2.32404E+00-1.07308E-02 1.04759E+00 1.06812E-13 5.07298E-14
 -1      2678 1.99831E+01 2.47304E+00-6.31181E-03 9.11826E-01 1.04907E-13 4.41166E-14
 -1      2679 2.02171E+01 1.90809E+00-1.20339E-02 1.22924E+00 1.05596E-13 7.42453E-14
 -1      2680 2.01259E+01 2.14624E+00-4.80084E-03 1.13565E+00 1.10665E-13 6.83889E-14
 -1      2681 2.01915E+01 1.88680E+00 6.44955E-03 9.28154E-01 1.02617E-13 6.77825E-14
 -1      2682 2.02097E+01 7.27076E-01-3.47888E-03 6.44772E-01 6.86916E-14 1.02987E-13
 -1      2683 2.03517E+01 9.51818E-01 9.15021E-03 9.08667E-01 8.24809E-14 1.17885E-13
 -1      2684 2.01987E+01 4.57007E-01 9.07503E-05 8.82018E-01-2.69756E-13-5.56412E-13
 -1      2685 2.03118E+01 3.36512E-01 2.71964E-03 7.97043E-01-1.73863E-13-3.95273E-15
 -1      2686 2.04120E+01 2.96007E-01 2.44057E-03 8.85723E-01-2.39484E-13-6.48303E-14
 -1      2687 2.87611E+01-2.43168E+00-2.66123E-02 3.10657E-01-1.84654E-13-3.19189E-14
 -1      2688 2.91471E+01-1.19718E+00-1.96391E-01 1.10286E+00-2.28123E-13 3.24740E-14
 -1      2689 2.53806E+01-4.99203E+00 8.68788E-02-3.08987E+00 5.02515E-14-1.22721E-13
 -1      2690 2.75242E+01-4.07036E+00-1.28192E-01-1.42013E+00-1.24248E-13-1.54807E-13
 -1      2691 2.75098E+01-3.48810E+00-2.31973E-02-2.78378E-01-1.76522E-13-2.84078E-14
 -1      2692 2.02135E+01 6.26720E-01 7.09617E-03-4.41111E-01-2.76801E-14-3.02277E-14
 -1      2693 2.01309E+01 4.78353E-01-2.99696E-03-2.80270E-01-2.53657E-14-2.29584E-14
 -1      2694 2.01058E+01 3.64149E-01 6.62940E-03-1.59509E-01-2.39335E-14-1.92655E-14
 -1      2695 2.00468E+01 2.69976E-01-1.74719E-03-6.11913E-02-4.36621E-14-3.09957E-14
 -1      2696 2.01955E+01 5.31639E-01-1.57653E-03-2.62268E-01-3.57070E-14-1.86047E-14
 -1      2697 2.00211E+01 2.00488E-01 4.48811E-03 1.49696E-02-4.54179E-14-1.25805E-14
 -1      2698 1.99860E+01 1.41973E-01-7.55741E-04 7.26361E-02-1.10922E-14-5.63365E-16
 -1      2699 2.01279E+01 3.02007E-01-2.12012E-03-5.49654E-02-2.53677E-14 1.62817E-14
 -1      2700 1.99657E+01 9.90070E-02 2.87347E-03 1.17514E-01 1.60017E-14 3.21625E-15
 -1      2701 1.99488E+01 6.32258E-02-1.68180E-04 1.48741E-01 7.00672E-15-8.80987E-15
 -1      2702 2.00725E+01 1.58315E-01-1.95101E-03 7.49344E-02-1.20439E-14 2.40843E-14
 -1      2703 1.99346E+01 3.74188E-02 1.69666E-03 1.72584E-01 1.44279E-14-3.26595E-14
 -1      2704 1.99307E+01 1.67476E-02 1.84422E-04 1.87231E-01 1.14110E-14 1.57636E-15
 -1      2705 2.00331E+01 6.95785E-02-1.58558E-03 1.50036E-01-6.54934E-15-8.16006E-15
 -1      2706 1.99220E+01 2.53253E-03 8.71977E-04 1.97846E-01 1.80071E-14 1.88804E-14
 -1      2707 1.99268E+01-7.74008E-03 4.11423E-04 2.02825E-01 1.13910E-14 4.68908E-14
 -1      2708 2.00080E+01 1.76037E-02-1.22260E-03 1.88993E-01 4.43554E-14 1.41553E-14
 -1      2709 1.99225E+01-1.38385E-02 3.05425E-04 2.06013E-01-6.67814E-15 5.02916E-14
 -1      2710 1.99331E+01-1.67132E-02 5.78973E-04 2.06260E-01-3.72692E-14 7.70827E-14
 -1      2711 1.99946E+01-8.97765E-03-9.22006E-04 2.05927E-01 1.04886E-14 1.12523E-13
 -1      2712 1.99322E+01-1.69249E-02-7.84543E-05 2.06336E-01-3.77795E-14 1.04349E-13
 -1      2713 1.99469E+01-1.43336E-02 7.26411E-04 2.05459E-01-2.01985E-14 8.93472E-14
 -1      2714 1.99900E+01-1.74583E-02-6.95507E-04 2.11393E-01-1.78980E-14 1.12599E-13
 -1      2715 1.99485E+01-1.00880E-02-3.38816E-04 2.05675E-01-1.77755E-14 1.22205E-13
 -1      2716 1.99663E+01-3.24715E-03 8.78647E-04 2.06401E-01 8.75459E-15 1.15183E-13
 -1      2717 1.99921E+01-1.25586E-02-5.35143E-04 2.13308E-01-1.20548E-14 1.02438E-13
 -1      2718 1.99699E+01 4.57405E-03-5.21368E-04 2.09284E-01-6.30486E-15 4.87579E-14
 -1      2719 1.99905E+01 1.49492E-02 1.05226E-03 2.13769E-01-1.35670E-14 2.39290E-14
 -1      2720 1.99994E+01 2.72076E-03-4.27443E-04 2.17723E-01-6.56276E-14 6.76459E-14
 -1      2721 1.99958E+01 2.58504E-02-6.61173E-04 2.21373E-01-2.08976E-14-2.25455E-14
 -1      2722 2.00195E+01 3.93972E-02 1.25850E-03 2.31424E-01-2.96419E-14-5.21448E-14
 -1      2723 2.00107E+01 2.65814E-02-3.57599E-04 2.29421E-01-4.20466E-14 2.41447E-15
 -1      2724 2.00260E+01 5.31473E-02-7.84925E-04 2.45515E-01-3.87095E-14-3.13713E-14
 -1      2725 2.00535E+01 6.97327E-02 1.50418E-03 2.62740E-01-4.78429E-14-1.05164E-14
 -1      2726 2.00255E+01 5.80644E-02-3.11136E-04 2.52369E-01-3.42336E-14-5.55109E-14
 -1      2727 2.00612E+01 8.62523E-02-9.12293E-04 2.84915E-01-8.29798E-14-7.52818E-14
 -1      2728 2.00933E+01 1.05848E-01 1.79149E-03 3.10804E-01-1.18042E-13-5.37441E-14
 -1      2729 2.00433E+01 9.67509E-02-2.73933E-04 2.90030E-01-9.00266E-14-8.29489E-14
 -1      2730 2.01019E+01 1.25081E-01-1.05621E-03 3.42557E-01-1.24233E-13-4.09481E-14
 -1      2731 2.01399E+01 1.47607E-01 2.11704E-03 3.78497E-01-1.61275E-13-2.04838E-14
 -1      2732 2.00638E+01 1.42458E-01-2.32461E-04 3.45548E-01-1.36477E-13-3.69570E-14
 -1      2733 2.01493E+01 1.69349E-01-1.22137E-03 4.21212E-01-1.29983E-13-9.84497E-15
 -1      2734 2.01942E+01 1.94451E-01 2.47038E-03 4.68411E-01-7.22690E-14-2.45374E-14
 -1      2735 2.00868E+01 1.94862E-01-1.75443E-04 4.21811E-01-1.22919E-13-7.89979E-15
 -1      2736 2.02042E+01 2.18084E-01-1.39998E-03 5.23281E-01-5.65147E-14 5.11247E-15
 -1      2737 2.02575E+01 2.44789E-01 2.83246E-03 5.82584E-01-1.20236E-14 3.85768E-14
 -1      2738 2.01118E+01 2.52974E-01-9.79934E-05 5.21366E-01-2.36716E-14-2.88228E-16
 -1      2739 2.02681E+01 2.68873E-01-1.56328E-03 6.50439E-01 4.88598E-15 3.24162E-14
 -1      2740 2.03312E+01 2.95047E-01 3.17455E-03 7.21969E-01 6.54052E-14-5.91445E-14
 -1      2741 2.01387E+01 3.14330E-01-1.07693E-05 6.46177E-01-1.59862E-14 1.58008E-14
 -1      2742 2.03430E+01 3.16668E-01-1.64666E-03 8.02974E-01 1.24604E-13-1.53245E-13
 -1      2743 2.04176E+01 3.38177E-01 3.45829E-03 8.85553E-01 1.61561E-13-1.78978E-13
 -1      2744 2.01677E+01 3.73745E-01 4.21644E-05 7.97191E-01 4.76288E-14-5.92219E-14
 -1      2745 2.04326E+01 3.51968E-01-1.52522E-03 9.78745E-01 2.15862E-13-1.89307E-13
 -1      2746 2.05215E+01 3.61454E-01 3.63613E-03 1.06899E+00 2.03474E-13-2.03716E-13
 -1      2747 2.02005E+01 4.21410E-01-4.81659E-05 9.73674E-01 1.68279E-13-2.05835E-13
 -1      2748 2.05446E+01 3.58236E-01-9.77529E-04 1.17156E+00 1.98547E-13-1.35753E-13
 -1      2749 2.06522E+01 3.43506E-01 3.64632E-03 1.26256E+00 9.28634E-14-3.17458E-14
 -1      2750 2.02425E+01 4.40144E-01-5.06171E-04 1.17224E+00 2.55807E-13-1.79711E-13
 -1      2751 2.06942E+01 3.08689E-01 3.63954E-04 1.36871E+00-2.38685E-14 1.50277E-14
 -1      2752 2.08289E+01 2.51069E-01 3.37436E-03 1.44819E+00 6.02743E-15 5.48546E-14
 -1      2753 2.03066E+01 4.01836E-01-1.74262E-03 1.38538E+00 7.45234E-14-1.04914E-14
 -1      2754 2.09106E+01 1.63547E-01 3.05056E-03 1.54710E+00-2.72902E-14 2.47300E-14
 -1      2755 2.10862E+01 3.74089E-02 2.50725E-03 1.59498E+00-7.37010E-14 7.66577E-15
 -1      2756 2.04194E+01 2.63784E-01-4.44032E-03 1.59905E+00-3.89528E-14-1.09154E-14
 -1      2757 2.12442E+01-1.29008E-01 7.78495E-03 1.66692E+00-4.35918E-14 1.45341E-14
 -1      2758 2.14812E+01-3.52033E-01 3.95854E-04 1.65222E+00 1.61795E-14-1.94954E-14
 -1      2759 2.06313E+01-3.24142E-02-9.59089E-03 1.78775E+00-4.42386E-14-2.20854E-14
 -1      2760 2.17721E+01-6.19457E-01 1.55261E-02 1.66095E+00 1.37497E-14 2.36682E-14
 -1      2761 2.20916E+01-9.54792E-01-4.20518E-03 1.53962E+00 7.58855E-15-6.16851E-14
 -1      2762 2.10268E+01-5.52089E-01-1.79511E-02 1.90403E+00 2.06308E-14 5.86751E-14
 -1      2763 2.25875E+01-1.31561E+00 2.59203E-02 1.41818E+00 6.35941E-14-5.67877E-14
 -1      2764 2.29921E+01-1.71964E+00-1.18532E-02 1.13560E+00 9.07330E-14-6.30774E-14
 -1      2765 2.17300E+01-1.33292E+00-2.87841E-02 1.85651E+00 2.70640E-14 3.53302E-14
 -1      2766 2.37351E+01-2.07750E+00 3.29831E-02 7.89051E-01 1.19876E-13 5.68989E-16
 -1      2767 2.41791E+01-2.38150E+00-2.24534E-02 3.12115E-01 8.09500E-14 7.83570E-14
 -1      2768 2.28695E+01-2.26987E+00-3.58442E-02 1.48419E+00 1.24837E-13-2.43421E-14
 -1      2769 2.50975E+01-2.49046E+00 1.84125E-02-3.47811E-01 9.47636E-14 9.43273E-14
 -1      2770 2.54745E+01-2.31177E+00-1.93932E-02-9.58213E-01 1.53766E-13 1.21187E-13
 -1      2771 2.44732E+01-2.97220E+00-3.77870E-02 5.72697E-01 9.92435E-14 3.49070E-15
 -1      2772 2.62144E+01-1.78954E+00-5.12138E-02-1.79440E+00 6.00631E-14 8.82558E-14
 -1      2773 2.63735E+01-7.05832E-01-2.22336E-02-2.26388E+00 2.55698E-14 6.19938E-14
 -1      2774 2.62606E+01-2.55814E+00-1.98397E-02-9.56821E-01 1.57374E-14 4.59840E-14
 -1      2775 2.63066E+01 6.45168E-01-1.36728E-01-2.64523E+00-1.82215E-14 7.06726E-15
 -1      2776 2.62011E+01 2.21144E+00-3.45503E-02-2.41036E+00-2.26277E-13-1.06165E-13
 -1      2777 2.62082E+01 3.57036E+00-1.37803E-01-1.70298E+00-2.17215E-13-8.19102E-14
 -1      2778 2.60858E+01 4.38057E+00-9.91441E-02-7.09369E-01-1.44149E-13 1.04743E-14
 -1      2779 2.58957E+01 4.26968E+00-8.52653E-02 6.62175E-01-1.78482E-13-8.83321E-15
 -1      2780 2.59599E+01 3.43956E+00-1.56929E-01 1.64523E+00-2.61416E-13 9.77933E-14
 -1      2781 2.64305E+01 2.21425E+00-5.17472E-02 2.35309E+00-4.07563E-13 1.05145E-13
 -1      2782 2.64225E+01 6.31400E-01-1.79236E-01 2.55703E+00-2.85751E-13 6.48960E-14
 -1      2783 2.69243E+01-7.16108E-01-3.50539E-02 2.10513E+00-1.53842E-13 3.29875E-14
 -1      2784 2.66929E+01-1.89358E+00-4.72451E-02 1.59343E+00 3.34559E-14 3.12458E-14
 -1      2785 2.41410E+01-2.40505E+00-1.78883E-02-4.18950E-01 1.39169E-13-1.69712E-14
 -1      2786 2.36783E+01-2.10000E+00 3.35074E-02-9.04393E-01 2.15011E-13 2.67841E-14
 -1      2787 2.29339E+01-1.74247E+00-1.14899E-02-1.25286E+00 1.81369E-13-1.86600E-14
 -1      2788 2.25191E+01-1.34063E+00 2.52757E-02-1.54107E+00 1.48947E-13 9.80433E-14
 -1      2789 2.28286E+01-2.30327E+00-3.86652E-02-1.60209E+00 1.61834E-13-3.61274E-14
 -1      2790 2.20258E+01-9.82483E-01-3.84724E-03-1.66837E+00 9.17855E-14 7.18778E-14
 -1      2791 2.16976E+01-6.49099E-01 1.52695E-02-1.79666E+00-5.87898E-14 1.16194E-13
 -1      2792 2.16946E+01-1.36425E+00-2.87070E-02-1.98506E+00 7.67476E-14-2.91627E-13
 -1      2793 2.14077E+01-3.81606E-01 7.31258E-04-1.79576E+00-1.91666E-13 2.40637E-13
 -1      2794 2.11616E+01-1.56918E-01 7.76708E-03-1.81696E+00-1.23680E-13 1.36332E-13
 -1      2795 2.09943E+01-5.87462E-01-1.76607E-02-2.04693E+00-6.95992E-14-1.81525E-13
 -1      2796 2.10036E+01 1.34805E-02 2.62286E-03-1.75167E+00-1.09607E-13 2.13042E-13
 -1      2797 2.08187E+01 1.46458E-01 3.13630E-03-1.70791E+00 1.22784E-13 1.88222E-13
 -1      2798 2.05992E+01-6.32313E-02-9.62625E-03-1.94507E+00-4.08064E-14 1.40781E-13
 -1      2799 2.07359E+01 2.43976E-01 3.28306E-03-1.61228E+00 3.07989E-13 2.35118E-13
 -1      2800 2.05921E+01 3.15952E-01 7.83177E-04-1.53175E+00 1.79151E-13 3.05517E-13
 -1      2801 2.03867E+01 2.50121E-01-4.61278E-03-1.76591E+00 2.44099E-13 3.42836E-14
 -1      2802 2.05472E+01 3.69174E-01 3.37633E-03-1.42272E+00 2.51296E-15 3.97234E-13
 -1      2803 2.04309E+01 4.08147E-01-7.85087E-05-1.32197E+00 3.31397E-15 2.28137E-13
 -1      2804 2.02720E+01 4.22865E-01-1.69556E-03-1.55190E+00 1.36876E-13-2.08510E-14
 -1      2805 2.04011E+01 4.40829E-01 2.87751E-03-1.20737E+00 7.15530E-14 2.83831E-13
 -1      2806 2.03064E+01 4.68376E-01 3.08719E-04-1.09425E+00 1.73271E-13 2.44366E-13
 -1      2807 2.02026E+01 5.17762E-01-9.44567E-04-1.32228E+00 7.51591E-14 1.19217E-13
 -1      2808 1.98554E+01 5.39429E-02 1.63455E-04-1.47296E-01 5.97776E-14 4.96808E-14
 -1      2809 1.98682E+01 8.47530E-02 3.15699E-03-1.17542E-01 6.18173E-14 8.02243E-14
 -1      2810 2.02948E+01 4.86842E-01 3.08270E-03-1.01387E+00 1.79503E-13 2.64078E-13
 -1      2811 2.02372E+01 5.01858E-01 8.93688E-04-9.30626E-01 3.87385E-15 1.89883E-13
 -1      2812 2.01606E+01 5.70894E-01-1.07163E-03-1.12212E+00 9.39908E-14-9.12355E-14
 -1      2813 1.98906E+01 1.21513E-01-1.76164E-04-7.17777E-02 4.08558E-14 6.73996E-14
 -1      2814 1.99256E+01 1.72374E-01 5.19909E-03-1.54004E-02 4.00070E-14 8.09512E-14
 -1      2815 1.99924E+01 1.39595E-01-2.38948E-03-7.46614E-02 5.91221E-14 2.28584E-14
 -1      2816 1.98508E+01-7.14578E-03 4.83561E-04-1.98468E-01 1.29400E-14 1.56514E-13
 -1      2817 1.98395E+01 1.86679E-03 8.59148E-04-1.94651E-01 3.53824E-14 1.15370E-13
 -1      2818 1.98682E+01-1.55731E-02 5.82638E-04-2.00025E-01 7.44215E-14 1.60459E-13
 -1      2819 1.98511E+01-1.26922E-02 2.63215E-04-2.00936E-01 4.26089E-14 1.65588E-13
 -1      2820 1.99293E+01-9.12465E-03-9.75443E-04-2.06053E-01 2.02769E-14 1.12643E-13
 -1      2821 1.98933E+01-1.47824E-02 6.87336E-04-1.96885E-01 1.05664E-13 1.45087E-13
 -1      2822 1.98724E+01-1.63335E-02-1.15505E-04-1.99098E-01 1.00523E-13 1.47305E-13
 -1      2823 1.99345E+01-1.76733E-02-7.09396E-04-2.09645E-01 8.59950E-14 1.06751E-13
 -1      2824 1.99239E+01-7.12068E-03 8.14415E-04-1.94756E-01 6.71760E-15 1.93321E-13
 -1      2825 1.99004E+01-1.20075E-02-3.47166E-04-1.95748E-01 5.85704E-14 1.89405E-13
 -1      2826 1.99471E+01-1.50671E-02-5.37246E-04-2.09004E-01 5.74516E-14 1.89543E-13
 -1      2827 1.99593E+01 5.90000E-03 9.73173E-04-1.97973E-01-1.54403E-14 1.72242E-13
 -1      2828 1.99333E+01-1.62112E-03-4.82150E-04-1.95817E-01 3.36187E-14 1.98246E-13
 -1      2829 1.99653E+01-4.08093E-03-4.39828E-04-2.10065E-01 2.55329E-14 2.14827E-13
 -1      2830 1.99997E+01 2.32987E-02 1.16797E-03-2.09945E-01-2.27584E-14 1.06621E-13
 -1      2831 1.99707E+01 1.35978E-02-5.56098E-04-2.03115E-01-4.61459E-14 1.32192E-13
 -1      2832 1.99881E+01 1.34869E-02-3.99952E-04-2.17378E-01 2.66754E-15 2.30596E-13
 -1      2833 2.00461E+01 4.43786E-02 1.39829E-03-2.33439E-01 7.49362E-14 1.29386E-13
 -1      2834 2.00133E+01 3.28313E-02-5.93389E-04-2.20692E-01 4.30090E-14 1.13782E-13
 -1      2835 2.00154E+01 3.64444E-02-4.03243E-04-2.34543E-01 2.96599E-14 1.07063E-13
 -1      2836 2.01002E+01 6.84828E-02 1.65742E-03-2.70703E-01 3.37159E-14 6.01242E-14
 -1      2837 2.00622E+01 5.54314E-02-6.08977E-04-2.51041E-01 6.93821E-14 1.36607E-13
 -1      2838 2.00476E+01 6.38932E-02-4.38337E-04-2.64480E-01 7.89052E-14 1.21574E-13
 -1      2839 2.01640E+01 9.47078E-02 1.92991E-03-3.23441E-01-1.97489E-14 4.08694E-14
 -1      2840 2.01193E+01 8.06607E-02-6.08694E-04-2.96154E-01-1.21482E-14 3.26054E-14
 -1      2841 2.00857E+01 9.49067E-02-4.97446E-04-3.09537E-01 5.14358E-14 9.15307E-14
 -1      2842 2.02400E+01 1.21535E-01 2.18802E-03-3.92597E-01 1.38899E-14 2.65887E-14
 -1      2843 2.01869E+01 1.07370E-01-5.88020E-04-3.57408E-01 1.39000E-15 3.88586E-14
 -1      2844 2.01309E+01 1.28147E-01-5.77582E-04-3.71445E-01-2.17532E-14 4.99464E-14
 -1      2845 2.03310E+01 1.46339E-01 2.38727E-03-4.77922E-01-1.65159E-14 2.82339E-14
 -1      2846 2.02679E+01 1.33579E-01-5.29128E-04-4.35245E-01 5.04249E-15 2.18929E-14
 -1      2847 2.01852E+01 1.61371E-01-6.83344E-04-4.51077E-01-3.61377E-15 4.08724E-14
 -1      2848 2.04404E+01 1.64743E-01 2.46103E-03-5.77251E-01 1.38257E-14-7.20244E-14
 -1      2849 2.03656E+01 1.55907E-01-3.95842E-04-5.28614E-01 1.84165E-15-2.57664E-14
 -1      2850 2.02510E+01 1.90779E-01-8.32507E-04-5.47988E-01 3.15124E-14-6.91664E-15
 -1      2851 2.05720E+01 1.69821E-01 2.31489E-03-6.85436E-01 7.20435E-14-8.70564E-14
 -1      2852 2.04840E+01 1.68858E-01-1.26588E-04-6.34088E-01 4.43814E-14-4.79710E-14
 -1      2853 2.03318E+01 2.10174E-01-1.06449E-03-6.59674E-01 4.31023E-14-6.35989E-15
 -1      2854 2.07309E+01 1.51259E-01 1.82098E-03-7.92893E-01 3.26239E-14 4.83365E-14
 -1      2855 2.06284E+01 1.63975E-01 3.72968E-04-7.44599E-01 4.05499E-14-6.07432E-14
 -1      2856 2.04327E+01 2.09964E-01-1.45103E-03-7.80505E-01 2.80707E-14 6.24587E-14
 -1      2857 2.09234E+01 9.48671E-02 8.14846E-04-8.83762E-01-2.72726E-14 1.42011E-13
 -1      2858 2.08056E+01 1.29103E-01 1.23177E-03-8.47742E-01 3.37907E-14 8.89970E-14
 -1      2859 2.05619E+01 1.76211E-01-2.10435E-03-9.00241E-01 2.65962E-15 1.03916E-13
 -1      2860 2.11585E+01-1.66723E-02-8.99497E-04-9.33907E-01-8.95125E-14 4.32785E-14
 -1      2861 2.10251E+01 4.83506E-02 2.59704E-03-9.23698E-01-3.38074E-14 1.95964E-13
 -1      2862 2.07314E+01 9.03078E-02-3.16837E-03-1.00210E+00-1.53990E-14 1.50918E-13
 -1      2863 2.14467E+01-2.00015E-01-3.51604E-03-9.09380E-01-1.41629E-13-2.36671E-14
 -1      2864 2.12987E+01-9.59746E-02 4.57164E-03-9.43101E-01-1.09906E-13-3.56109E-14
 -1      2865 2.09592E+01-6.94019E-02-4.76203E-03-1.06041E+00-6.04735E-14 1.41158E-13
 -1      2866 2.17973E+01-4.61424E-01-7.12074E-03-7.66866E-01-2.00958E-13-1.88897E-14
 -1      2867 2.16392E+01-3.17122E-01 7.07400E-03-8.65792E-01-1.67598E-13-1.25084E-14
 -1      2868 2.12687E+01-3.21601E-01-6.82019E-03-1.03822E+00-1.27684E-13 5.33043E-14
 -1      2869 2.22099E+01-7.77211E-01-1.13594E-02-4.59261E-01-7.21790E-14-4.52352E-14
 -1      2870 2.20532E+01-6.09977E-01 9.52808E-03-6.42674E-01-1.08586E-13-6.97876E-14
 -1      2871 2.16848E+01-6.67756E-01-8.77099E-03-8.86053E-01-1.50171E-13-7.83385E-15
 -1      2872 2.26569E+01-1.06417E+00-1.45916E-02 4.61069E-02-1.29106E-13 4.73787E-14
 -1      2873 2.25241E+01-9.26313E-01 1.01199E-02-2.26907E-01-1.75987E-13-4.11803E-14
 -1      2874 2.22194E+01-1.06377E+00-9.04204E-03-5.45791E-01-1.41535E-13-5.92291E-14
 -1      2875 2.30616E+01-1.15816E+00-1.34384E-02 7.24425E-01-2.69021E-14-1.20092E-14
 -1      2876 2.29873E+01-1.14408E+00 6.15080E-03 3.93458E-01-1.90883E-14 1.07564E-13
 -1      2877 2.28400E+01-1.38162E+00-5.39776E-03 2.68599E-02-1.23277E-13 1.27841E-13
 -1      2878 2.33007E+01-8.42363E-01-3.28708E-03 1.43588E+00 1.51223E-13 4.00585E-14
 -1      2879 2.33180E+01-1.06692E+00-4.63093E-03 1.13745E+00 1.18917E-14-1.52593E-14
 -1      2880 2.34350E+01-1.39579E+00 3.39283E-03 8.04743E-01-2.68448E-15 1.47559E-13
 -1      2881 2.32514E+01 7.24251E-03 1.25312E-02 1.87202E+00 3.65569E-13 2.03347E-13
 -1      2882 2.33593E+01-4.91722E-01-2.24321E-02 1.76115E+00 2.84165E-13 1.54286E-13
 -1      2883 2.38064E+01-8.38306E-01 1.33000E-02 1.60600E+00 1.40206E-13 1.90325E-13
 -1      2884 2.29237E+01 1.17599E+00 1.89056E-02 1.65528E+00 2.26664E-13 4.04247E-14
 -1      2885 2.30688E+01 5.72019E-01-3.74780E-02 1.87793E+00 3.68998E-13 1.36540E-13
 -1      2886 2.37779E+01 3.58146E-01 9.06985E-03 2.02572E+00 3.40969E-13 3.05015E-13
 -1      2887 2.25793E+01 2.02772E+00 3.91627E-03 6.64821E-01-5.45675E-14 1.54238E-13
 -1      2888 2.26698E+01 1.67990E+00-3.10938E-02 1.19899E+00 3.02189E-15 9.02837E-14
 -1      2889 2.34209E+01 1.75776E+00-1.54857E-02 1.60339E+00 7.90687E-14 1.79672E-13
 -1      2890 2.25450E+01 1.96606E+00-2.82992E-02-6.73268E-01 1.26739E-13 4.45107E-13
 -1      2891 2.25252E+01 2.12799E+00-6.12270E-03-8.01196E-02 3.97269E-14 2.23015E-13
 -1      2892 2.31521E+01 2.57015E+00-2.93300E-02 3.28009E-01-7.44751E-14 1.84992E-13
 -1      2893 2.28888E+01 1.02873E+00-3.69982E-02-1.65289E+00 6.21523E-14 3.94958E-13
 -1      2894 2.27612E+01 1.58830E+00 1.79452E-02-1.29883E+00 2.02307E-13 4.31705E-13
 -1      2895 2.32698E+01 2.23094E+00-1.31771E-02-1.13301E+00 1.63970E-13 2.29657E-13
 -1      2896 2.32479E+01-1.33801E-01-2.95191E-02-1.82273E+00 3.14497E-13 1.28273E-13
 -1      2897 2.31211E+01 4.41971E-01 1.68230E-02-1.81961E+00 1.88581E-13 2.48933E-13
 -1      2898 2.36491E+01 9.05875E-01 2.03559E-03-1.90588E+00 2.78997E-13 6.44276E-14
 -1      2899 2.33309E+01-9.29869E-01-1.17815E-02-1.33917E+00 1.92824E-13 3.44684E-14
 -1      2900 2.32825E+01-5.89574E-01 1.99789E-03-1.59123E+00 2.95434E-13 1.45951E-13
 -1      2901 2.38218E+01-4.60746E-01 1.15865E-02-1.76898E+00 3.14126E-13 4.13350E-14
 -1      2902 2.30808E+01-1.18857E+00 2.04693E-03-5.88043E-01-6.25064E-14 7.61865E-14
 -1      2903 2.31323E+01-1.11949E+00-1.14199E-02-9.28723E-01 2.05001E-14 1.23373E-13
 -1      2904 2.35871E+01-1.29173E+00 4.86513E-03-1.04696E+00 7.31405E-14-2.04349E-14
 -1      2905 2.26338E+01-1.06203E+00 8.72990E-03 1.14631E-01-6.87576E-14-7.58556E-14
 -1      2906 2.27604E+01-1.16392E+00-1.52047E-02-1.95972E-01-4.58802E-14 1.26324E-13
 -1      2907 2.30446E+01-1.47443E+00-3.49792E-03-2.10312E-01-6.11948E-14 6.08485E-14
 -1      2908 2.21359E+01-7.65422E-01 9.62429E-03 6.29549E-01 1.72967E-13-1.79347E-13
 -1      2909 2.23004E+01-9.29938E-01-1.29936E-02 4.01807E-01 1.30705E-14-1.15688E-13
 -1      2910 2.24051E+01-1.24459E+00-8.53248E-03 4.70151E-01 1.78714E-14-1.30856E-13
 -1      2911 2.16757E+01-4.50624E-01 7.84148E-03 9.39192E-01 1.34634E-13-1.04596E-13
 -1      2912 2.18498E+01-6.09927E-01-8.79429E-03 8.01644E-01 1.53880E-13-1.63106E-13
 -1      2913 2.18184E+01-8.57383E-01-9.41822E-03 9.15747E-01 1.46388E-13-8.41721E-14
 -1      2914 2.12856E+01-1.89118E-01 5.49916E-03 1.07907E+00 5.51336E-14-1.22589E-13
 -1      2915 2.14533E+01-3.15470E-01-4.84406E-03 1.01771E+00 1.10099E-13-1.71763E-13
 -1      2916 2.13443E+01-4.76348E-01-7.83824E-03 1.15017E+00 1.19084E-13 2.61688E-14
 -1      2917 2.09663E+01 3.78136E-03 3.80429E-03 1.09529E+00 1.57233E-13-1.17955E-13
 -1      2918 2.11200E+01-8.70139E-02-1.88937E-03 1.09102E+00 8.51719E-14-1.87531E-13
 -1      2919 2.09839E+01-1.70596E-01-5.71873E-03 1.22691E+00 6.56120E-14-1.55028E-13
 -1      2920 2.07099E+01 1.39321E-01 3.75331E-03 1.02546E+00-1.94040E-13-6.56404E-14
 -1      2921 2.08431E+01 7.61783E-02 7.97657E-05 1.06176E+00 5.64075E-14 9.27766E-14
 -1      2922 2.07127E+01 5.14239E-02-4.40583E-03 1.19609E+00-3.50793E-14-1.31135E-13
 -1      2923 2.04917E+01 2.41487E-01 3.57697E-03 9.30565E-01-2.60334E-13 6.49508E-14
 -1      2924 2.06044E+01 1.93184E-01 1.38115E-03 9.96771E-01-2.44892E-13 7.53316E-15
 -1      2925 2.04863E+01 2.04265E-01-6.95884E-03 1.12477E+00-1.62686E-13-4.69250E-14
 -1      2926 2.03144E+01 3.32673E-01-6.03510E-03 1.03824E+00-2.16922E-13-3.85952E-13
 -1      2927 2.21279E+01-5.28555E+00-9.68067E-02 4.85287E+00-7.60780E-14-2.53226E-13
 -1      2928 1.90083E+01-4.75353E+00 1.64635E-01 5.87482E+00-2.55754E-13-1.99230E-13
 -1      2929 1.93992E+01 1.27137E+00-4.61895E-03 1.93498E-01 1.71662E-14 1.51865E-13
 -1      2930 1.94403E+01 1.23854E+00-2.68171E-04 3.45921E-01 1.53027E-13 3.20206E-13
 -1      2931 2.90227E+01 6.15299E+00-1.69880E-01-5.32963E-01-1.48548E-13 1.58432E-13
 -1      2932 2.88772E+01 5.29911E+00-1.85902E-01-1.60345E+00-1.10190E-13 2.15591E-13
 -1      2933 1.96531E+01 1.01144E+00-5.36476E-03 7.38536E-01 1.15048E-13 1.66402E-13
 -1      2934 1.97483E+01 9.25493E-01 2.76652E-03 8.16310E-01 1.62022E-13 8.20356E-14
 -1      2935 1.93817E+01 1.29461E+00-2.90426E-03-1.54098E-01 8.09879E-15-3.22351E-14
 -1      2936 1.93801E+01 1.29819E+00-2.41322E-03 9.25528E-03 2.06465E-14 7.79179E-14
 -1      2937 1.92522E+01 1.24563E+00 4.69120E-03 1.20017E-01 9.35892E-14 4.45701E-14
 -1      2938 1.94966E+01 1.17057E+00-5.46546E-03 5.03921E-01 1.31646E-13 1.33669E-13
 -1      2939 1.95709E+01 1.10695E+00 1.58422E-03 6.25469E-01 1.38446E-13 1.36117E-13
 -1      2940 1.95238E+01 1.00257E+00 1.86713E-03 7.57752E-01-2.95525E-15 1.61640E-13
 -1      2941 1.93487E+01 1.15617E+00 3.55582E-03 4.76894E-01 1.17134E-13 1.49221E-13
 -1      2942 2.36832E+01-5.46783E+00-9.82991E-02 4.15008E+00 1.23707E-13 7.33968E-13
 -1      2943 2.09398E+01-5.26097E+00 1.07120E-01 5.20955E+00 2.73670E-13 6.32681E-13
 -1      2944 1.94508E+01 1.23489E+00-5.82285E-04-4.84445E-01 9.07004E-14-6.76081E-13
 -1      2945 1.94049E+01 1.27422E+00-4.32729E-03-3.35823E-01 2.09991E-14-3.03775E-13
 -1      2946 1.92564E+01 1.25200E+00 4.93828E-03-2.62465E-01 5.92458E-14-1.65253E-13
 -1      2947 1.96026E+01 1.09647E+00 1.55658E-03-7.59633E-01 1.62261E-13-2.18779E-13
 -1      2948 1.95159E+01 1.16902E+00-5.52983E-03-6.42721E-01 1.59609E-13-5.05271E-13
 -1      2949 1.93664E+01 1.17195E+00 4.15690E-03-6.18010E-01 1.63181E-13-4.92208E-13
 -1      2950 1.98150E+01 8.96505E-01 1.52617E-03-9.31657E-01 6.86468E-14-1.59399E-13
 -1      2951 1.97041E+01 9.95922E-01-5.21769E-03-8.68937E-01 1.55634E-13-1.85731E-13
 -1      2952 1.95710E+01 1.01665E+00 2.40225E-03-8.97262E-01 1.60829E-13-1.61520E-13
 -1      2953 2.93110E+01 9.57036E-01-6.87926E-02 2.05931E+00-2.91017E-13 4.24105E-14
 -1      2954 2.90844E+01 2.97528E+00-2.36327E-01 2.19925E+00-3.41588E-13 9.96148E-14
 -1      2955 2.03355E+01 1.50019E+00-1.88766E-03 1.26917E+00 1.00115E-13 1.24158E-13
 -1      2956 9.42518E+00-2.26804E+00 8.88017E-02 5.16482E+00-3.93935E-13-9.97535E-14
 -1      2957 7.49409E+00-1.35055E+00 1.63284E-01 3.36263E+00-3.73611E-13 1.72085E-14
 -1      2958 2.03199E+01 1.57870E+00-8.98938E-03-1.24399E+00-4.25653E-14-3.42503E-14
 -1      2959 2.03034E+01 1.21372E+00 7.42509E-04-9.72757E-01-4.02530E-14-3.68419E-14
 -1      2960 2.02396E+01 1.84348E+00-4.35474E-04-1.22087E+00-3.40797E-14-4.21477E-14
 -1      2961 2.90294E+01 4.53931E+00-2.03576E-01-1.68437E+00 4.29018E-13-2.79027E-13
 -1      2962 2.92230E+01 3.04797E+00-8.91776E-02-1.88364E+00 1.91042E-13-2.16577E-13
 -1      2963 1.83232E+01-4.67618E+00 1.48106E-01-6.03708E+00-1.20862E-13 6.37407E-14
 -1      2964 2.06725E+01-5.20932E+00 3.17063E-03-5.62818E+00-2.53964E-14-1.07726E-15
 -1      2965 6.14947E+00-9.45381E-01 1.21490E-01 1.30570E+00-3.22475E-13 1.91375E-13
 -1      2966 6.08026E+00-9.55137E-01 1.47494E-01-9.57539E-01-3.76671E-13 4.02622E-13
 -1      2967 7.02330E+00-1.41101E+00 1.52504E-01-2.92338E+00-1.50942E-13 5.41289E-13
 -1      2968 8.99505E+00-2.27639E+00 8.93350E-02-4.86369E+00 6.20615E-14 6.46955E-13
 -1      2969 2.88526E+01 1.50947E+00-6.13133E-02 1.89937E+00 1.33143E-13-2.13551E-13
 -1      2970 2.83442E+01 3.22294E+00-2.16194E-01 2.02429E+00 2.27596E-13-3.03924E-14
 -1      2971 1.99588E+01 2.32689E-01-7.20951E-04 6.34616E-02 3.25298E-14 8.25917E-14
 -1      2972 2.00241E+01 3.16040E-01 7.81794E-03 1.61746E-01 3.07028E-14 9.03966E-14
 -1      2973 2.00559E+01 2.68207E-01-2.75673E-03 6.06389E-02 4.61824E-14 3.63430E-14
 -1      2974 1.98446E+01 1.41294E-02 3.60411E-04-1.84473E-01 4.11220E-14 5.80304E-14
 -1      2975 1.98427E+01 3.19229E-02 1.77273E-03-1.71135E-01 3.27717E-14 4.58471E-14
 -1      2976 1.99536E+01 6.09008E-02-1.84330E-03-1.51463E-01 4.01373E-14 2.98751E-14
 -1      2977 1.99343E+01 1.48520E-02-1.35329E-03-1.90276E-01 2.13275E-15 9.13825E-14
 -1      2978 2.03040E+01 9.88524E-01 2.84018E-03-7.99831E-01-2.98975E-14-3.14575E-14
 -1      2979 2.02175E+01 7.61394E-01-3.53411E-03-5.63679E-01-3.13371E-14-3.43791E-14
 -1      2980 2.02521E+01 8.23334E-01-3.57290E-03-5.25347E-01-2.98052E-14-1.75274E-14
 -1      2981 2.02844E+01 1.21545E+00 3.45259E-03-8.31318E-01-2.45215E-14-2.41175E-14
 -1      2982 1.13458E+01-2.77337E+00 6.38124E-02 5.60962E+00 5.45064E-13-1.86046E-13
 -1      2983 8.77244E+00-1.67870E+00 1.43872E-01 4.12334E+00 5.70918E-13-4.55608E-13
 -1      2984 2.00673E+01 4.16095E-01-1.51512E-03 2.89562E-01 4.36550E-14 9.86214E-14
 -1      2985 2.01683E+01 5.54083E-01 1.04330E-02 4.52482E-01 5.18599E-14 1.01138E-13
 -1      2986 2.02521E+01 8.21859E-01 5.91649E-04 6.19163E-01 6.21532E-14 7.89145E-14
 -1      2987 2.01449E+01 4.78146E-01-2.15452E-03 2.81805E-01 5.04071E-14 7.39518E-14
 -1      2988 1.99281E+01 2.59614E+00-7.89107E-03 7.95669E-01 1.07478E-13 2.73371E-14
 -1      2989 1.98851E+01 2.68836E+00-6.13298E-03 6.46472E-01 9.71584E-14 5.74020E-15
 -1      2990 2.00042E+01 2.38917E+00 4.34189E-03 5.17567E-01 8.82703E-14 1.12501E-14
 -1      2991 2.00841E+01 2.19114E+00 5.60882E-03 7.47007E-01 8.66948E-14 3.64920E-14
 -1      2992 7.48146E+00-4.93786E-01 1.81315E-01-1.87209E+00 1.63966E-14-3.09974E-13
 -1      2993 8.84956E+00-1.12913E+00 1.10909E-01-3.83873E+00-1.70634E-13-1.93845E-13
 -1      2994 1.49512E+01-4.15275E+00-1.04442E-02 6.50095E+00-3.26447E-13-1.47715E-13
 -1      2995 1.19769E+01-3.12459E+00 1.74682E-01 5.95619E+00-3.82000E-13-1.33213E-13
 -1      2996 1.21269E+01-2.06459E+00 1.73273E-01 5.09766E+00-3.21090E-13-1.39097E-13
 -1      2997 2.83255E+01-3.34575E+00-1.55391E-01 6.20879E-01 1.21986E-14 3.30347E-13
 -1      2998 2.65157E+01-4.52286E+00 6.08421E-02 2.17616E+00 1.38473E-13 5.58387E-13
 -1      2999 1.98803E+01 2.69683E+00-6.15249E-03-6.36169E-01 1.56424E-15-2.91238E-14
 -1      3000 1.99226E+01 2.60734E+00-7.68539E-03-7.85875E-01-5.88659E-15-4.55183E-14
 -1      3001 2.91022E+01 7.94591E-01-1.53191E-01-1.45488E+00 6.00908E-14-3.07684E-13
 -1      3002 2.81669E+01-1.57425E+00-4.90911E-02-4.71399E-01-5.38597E-14-2.99358E-13
 -1      3003 7.21180E+00-9.20602E-01 1.45863E-01 2.47725E+00 3.59608E-13-3.55438E-13
 -1      3004 6.59608E+00-5.54123E-01 1.03757E-01 2.22713E-01 1.55086E-13-3.13777E-13
 -1      3005 2.67210E+01-3.86957E+00-1.22618E-01 1.36805E+00-7.09849E-14-4.12899E-13
 -1      3006 2.51715E+01-4.76246E+00 9.11385E-02 3.02921E+00-5.31519E-15-3.79127E-13
 -1      3007 1.78341E+01-4.90646E+00 1.26479E-02 6.13867E+00 3.75144E-13 3.91048E-13
 -1      3008 1.46964E+01-3.89884E+00 1.33263E-01 6.08486E+00 5.03014E-13 1.34143E-13
 -1      3009 2.94838E+01 3.66005E-01-1.86850E-01-1.81687E+00-1.18877E-13 1.09884E-13
 -1      3010 2.92528E+01-1.44482E+00-2.86370E-02-1.02942E+00-1.15311E-13 1.81216E-13
 -1      3011 1.19015E+01-3.27407E+00 1.61082E-01-5.86287E+00 2.65690E-13 7.52787E-13
 -1      3012 1.50057E+01-4.39020E+00-3.68014E-03-6.46010E+00 3.24796E-13 7.17940E-13
 -1      3013 2.79523E+01-2.40822E+00-4.44468E-02-1.99659E-01 3.02397E-14-2.02685E-13
 -1      3014 2.87075E+01-4.77836E-01-1.66754E-01 1.04828E+00 8.36969E-14-2.79582E-13
 -1      3015 2.78117E+01 8.31671E-02-3.47699E-02 1.77838E+00 1.15019E-13-8.29059E-14
 -1      3016 2.92211E+01 4.10349E+00-2.00399E-01-2.04433E+00-8.85680E-14 1.54585E-13
 -1      3017 2.96484E+01 2.47936E+00-1.10642E-01-2.28881E+00-8.75133E-14 1.21098E-13
 -1      3018 2.88607E+01 4.97944E+00-1.39515E-01 1.67846E+00-2.43860E-13 1.02487E-13
 -1      3019 2.87364E+01 5.84780E+00-2.10155E-01 7.02414E-01-1.94317E-13 1.27391E-13
 -1      3020 1.88709E+01-5.01649E+00 1.43948E-01-5.86409E+00 4.03289E-13 4.03174E-13
 -1      3021 2.21288E+01-5.57193E+00-9.57301E-02-4.99924E+00 2.23266E-13 1.03020E-13
 -1      3022 2.01311E+01 6.09686E-01 7.93321E-04-9.56312E-01-6.50568E-14-2.83972E-13
 -1      3023 2.81360E+01 5.34773E+00-1.24696E-01 1.58185E+00 2.68147E-13-9.31200E-14
 -1      3024 2.81700E+01 6.24479E+00-1.91174E-01 5.85685E-01 3.41532E-13-1.00015E-13
 -1      3025 2.83974E+01 6.54733E+00-1.85871E-01-3.89934E-01 4.28768E-13-1.05405E-13
 -1      3026 2.87874E+01 5.89367E+00-1.47577E-01-1.23797E+00 5.18641E-13-1.75165E-13
 -1      3027 1.99753E+01 2.48638E+00-6.58143E-03-9.04215E-01-1.33640E-14-5.36758E-14
 -1      3028 2.00388E+01 2.34078E+00-1.00352E-02-1.03790E+00-2.58269E-14-5.54860E-14
 -1      3029 2.00789E+01 2.20327E+00 5.69304E-03-7.40154E-01-1.05048E-14-3.07819E-14
 -1      3030 2.69837E+01 5.68257E+00-1.28616E-01 1.00391E-01 3.59435E-13-6.41718E-14
 -1      3031 1.99402E+01 2.53957E+00 3.45452E-03 4.62079E-03 5.82586E-14 2.92409E-14
 -1      3032 1.98010E+01 2.87055E+00-5.50244E-03-6.19739E-02 5.26349E-14 2.53315E-14
 -1      3033 1.98083E+01 2.85589E+00-5.56050E-03-2.16883E-01 3.83423E-14 5.30955E-15
 -1      3034 1.76692E+01-3.95099E+00 9.95925E-02 5.70167E+00-2.54130E-13 3.80251E-15
 -1      3035 2.73870E+01 3.33119E+00-1.14418E-01-2.16963E+00-1.78579E-13-5.34017E-14
 -1      3036 1.78937E+01-4.24477E+00 1.24628E-01-5.68143E+00 3.43545E-13 4.43159E-13
 -1      3037 2.71485E+01-3.55086E+00-6.58021E-02-8.99550E-01 1.02592E-13-1.65770E-13
 -1      3038 2.70241E+01-2.56814E+00-3.65778E-02 4.57539E-01 4.98282E-14-2.00714E-13
 -1      3039 2.59066E+01-4.02028E+00 4.25302E-02-1.62604E+00 9.03756E-14-1.86358E-13
 -1      3040 2.84998E+01 9.57258E-01-6.95824E-02-2.36562E+00-6.66411E-14 1.01252E-13
 -1      3041 2.01368E+01-4.68442E+00 1.08150E-01 5.12045E+00 3.29251E-13 5.31615E-13
 -1      3042 2.74647E+01-2.84672E+00-2.47124E-02 1.12912E-02-1.01507E-13-3.33594E-13
 -1      3043 2.61917E+01-3.50192E+00-1.79291E-02 7.13377E-01-7.44474E-14-3.28109E-13
 -1      3044 2.71445E+01-1.64609E+00-1.22660E-01-1.09151E+00-8.59798E-14-3.46487E-13
 -1      3045 1.10717E+01-5.45767E-01 8.98535E-02-3.49379E+00-2.12080E-13-9.50073E-14
 -1      3046 1.08443E+01-1.42131E+00 1.70183E-01-4.51732E+00-2.64240E-13-1.27939E-13
 -1      3047 1.28637E+01-1.95959E+00 4.65937E-03-5.04432E+00-2.63990E-13-1.62814E-13
 -1      3048 9.69368E+00-7.74852E-01 1.85792E-01 3.13388E+00 4.25576E-13-2.80165E-13
 -1      3049 1.42179E+01-2.86319E+00 1.43198E-01 5.43611E+00 5.55084E-13 5.86198E-14
 -1      3050 2.73213E+01-1.57048E-01-3.43700E-02-2.35275E+00-5.23678E-14-9.35363E-14
 -1      3051 2.72681E+01 5.09160E+00-1.17316E-01 1.18892E-02-1.27315E-13 1.03769E-13
 -1      3052 2.75229E+01 3.25840E+00-8.08419E-02 2.10800E+00-2.90656E-13 1.24289E-13
 -1      3053 2.83289E+01-1.28808E-01-2.14773E-03 2.13922E+00-3.14831E-13 1.33685E-13
 -1      3054 2.66843E+01-2.85560E+00-6.12666E-02 5.85840E-01-3.66686E-14-9.02039E-14
 -1      3055 2.54911E+01-2.42693E+00-1.20256E-02 8.19950E-01 5.09506E-14-8.57114E-14
 -1      3056 2.51032E+01-2.57966E+00 1.90337E-02 2.05491E-01 3.60044E-14-7.01696E-14
 -1      3057 2.60349E+01-3.88874E+00 4.67654E-02-8.03605E-01 4.31534E-15-1.07345E-13
 -1      3058 2.36071E+01-4.73501E+00 5.59927E-02 3.48790E+00-1.60441E-13-4.16910E-13
 -1      3059 8.32515E+00-5.80958E-01 1.96982E-01-1.89258E+00-3.09551E-13 3.54244E-13
 -1      3060 1.97503E+01 8.13581E-01 1.26256E-03 9.32053E-01-6.20684E-14 2.50580E-13
 -1      3061 1.98403E+01 8.19667E-01-5.17902E-03 8.72912E-01 7.97639E-15 5.45833E-14
 -1      3062 1.99460E+01 7.22330E-01 4.22992E-03 9.05999E-01-1.72700E-13-1.53908E-13
 -1      3063 2.01045E+01 5.56339E-01-2.54669E-03 9.03049E-01-3.27591E-13-3.98634E-13
 -1      3064 8.56692E+00-5.80597E-01 1.89882E-01 2.23668E+00-3.41824E-13 6.61415E-14
 -1      3065 1.69954E+01-3.87468E+00 1.26896E-01-5.83179E+00-8.08381E-14-2.48274E-14
 -1      3066 2.00199E+01 7.28552E-01-1.96882E-04-9.55505E-01 5.31466E-14-3.10107E-13
 -1      3067 2.80770E+01 1.46051E+00-8.72111E-02-1.96400E+00 1.00614E-13-3.77948E-13
 -1      3068 2.53179E+01-4.74318E+00 5.38552E-02 2.60154E+00 1.48215E-13 5.30118E-13
 -1      3069 2.02894E+01 1.58788E+00-1.13703E-03 1.16806E+00 1.01003E-13 8.43449E-14
 -1      3070 2.76632E+01 4.62534E+00-1.23337E-01-1.59384E+00 3.42920E-13-2.98039E-13
 -1      3071 2.27994E+01-5.00624E+00 2.53064E-02-4.20472E+00 4.23273E-14-2.83988E-13
 -1      3072 1.18574E+01-2.19397E+00 1.75146E-01-5.01391E+00 4.13419E-14 5.82839E-13
 -1      3073 2.44429E+01-3.07568E+00-4.57853E-02-7.30553E-01 1.21995E-13-1.17382E-13
 -1      3074 2.71637E+01 3.71528E+00-1.00627E-01 1.88999E+00 2.01381E-13 5.25968E-14
 -1      3075 1.98236E+01 2.82030E+00-5.72562E-03-3.52254E-01 2.78463E-14 8.18876E-15
 -1      3076 1.98473E+01 2.77190E+00-6.23531E-03-5.06131E-01 1.30112E-14 1.05103E-15
 -1      3077 2.00003E+01 2.39688E+00 4.32736E-03-5.08340E-01 5.75286E-15-4.79835E-15
 -1      3078 1.99546E+01 2.50549E+00 3.66491E-03-2.56069E-01 2.64574E-14 1.12680E-14
 -1      3079 2.81964E+01-2.50748E+00-1.66400E-02-6.63153E-01 4.96521E-14 1.96593E-13
 -1      3080 8.70601E+00-3.91566E-02 1.61909E-01-7.11237E-01 6.81469E-14-1.89626E-13
 -1      3081 2.39999E+01-5.02975E+00 4.86022E-02-3.50936E+00 1.55348E-13-1.86517E-14
 -1      3082 2.02801E+01 1.36672E+00 2.32284E-03 9.21914E-01 9.73142E-14 6.80880E-14
 -1      3083 2.00229E+01 6.66108E-01-5.91921E-04-1.08908E+00-1.00142E-14-3.81030E-13
 -1      3084 1.99006E+01 8.04345E-01-1.23421E-03-1.00317E+00-3.19730E-14-2.77394E-13
 -1      3085 1.98036E+01 8.28558E-01 1.82760E-03-1.07287E+00-4.46366E-14-3.35212E-13
 -1      3086 2.00443E+01 6.48716E-01 2.47809E-03-1.17148E+00-2.91689E-14-3.37610E-13
 -1      3087 2.61670E+01 4.60131E+00-1.48015E-01-1.35825E+00 2.87950E-13-9.04346E-14
 -1      3088 2.66167E+01 3.54758E+00-9.06165E-02-2.01084E+00 2.40696E-13-2.84481E-13
 -1      3089 2.02415E+01 1.47577E+00-8.02034E-03 8.02670E-01 9.47293E-14 5.81348E-14
 -1      3090 2.02032E+01 1.67046E+00-4.65507E-04 7.47667E-01 9.38954E-14 6.40819E-14
 -1      3091 2.01011E+01 2.20125E+00-4.83163E-03-1.10475E+00-2.09205E-14-4.95537E-14
 -1      3092 2.01727E+01 2.01055E+00-1.03144E-02-1.18672E+00-3.43261E-14-5.19472E-14
 -1      3093 2.02487E+01 1.61699E+00 3.01754E-03-9.76009E-01-2.67688E-14-3.82426E-14
 -1      3094 2.01744E+01 1.93748E+00 6.84421E-03-9.03555E-01-1.33311E-14-4.91126E-14
 -1      3095 2.42527E+01-4.33587E+00-7.03913E-02 2.32791E+00-1.21384E-13-2.66757E-13
 -1      3096 2.24229E+01-4.23973E+00 1.29328E-01 3.73398E+00-2.19436E-13-2.86122E-13
 -1      3097 2.01256E+01 2.97207E-01-1.93525E-03 4.35135E-02 5.89772E-14 4.29251E-14
 -1      3098 2.01704E+01 3.97210E-01 4.33282E-03 1.34844E-01 5.50339E-14 4.73091E-14
 -1      3099 2.02238E+01 4.26806E-01 4.26149E-03-1.19637E-01-3.04903E-14 2.64525E-14
 -1      3100 2.01847E+01 3.19834E-01-2.27246E-03-3.39544E-02-1.21413E-14 2.83976E-14
 -1      3101 2.01708E+01 2.37696E-01 3.11752E-03 2.86511E-02-9.72155E-15 3.94712E-14
 -1      3102 2.01414E+01 1.68994E-01-1.21286E-03 8.12237E-02-2.47054E-14 2.25749E-14
 -1      3103 2.02419E+01 3.38289E-01-8.72011E-04-2.39240E-02-9.81632E-15 5.56865E-15
 -1      3104 2.01249E+01 1.17067E-01 2.17310E-03 1.19071E-01-3.86145E-14 3.78362E-14
 -1      3105 2.01049E+01 7.44940E-02-4.93293E-04 1.48765E-01-1.69272E-14 9.65134E-15
 -1      3106 2.02019E+01 1.78276E-01-1.03010E-03 8.20614E-02-2.49431E-14 3.97788E-14
 -1      3107 2.00888E+01 4.33929E-02 1.37132E-03 1.69452E-01 2.90087E-14-1.54057E-14
 -1      3108 2.00768E+01 1.91640E-02-1.20868E-05 1.84412E-01 3.34648E-14 3.47583E-15
 -1      3109 2.01637E+01 7.78600E-02-9.94791E-04 1.45100E-01-2.40332E-15 6.47125E-15
 -1      3110 2.00624E+01 2.77066E-03 7.44406E-04 1.94246E-01 4.30259E-14 2.73223E-14
 -1      3111 2.00566E+01-8.31275E-03 3.16096E-04 2.00637E-01 9.29287E-15 3.36565E-14
 -1      3112 2.01303E+01 1.98101E-02-8.64550E-04 1.79172E-01 4.47543E-14-5.54308E-14
 -1      3113 2.00441E+01-1.40630E-02 2.67997E-04 2.04597E-01-4.22741E-15 5.37025E-14
 -1      3114 2.00431E+01-1.54965E-02 5.48676E-04 2.07060E-01 1.20717E-14 9.74232E-14
 -1      3115 2.01025E+01-7.71414E-03-7.12313E-04 1.95709E-01 4.44253E-14-1.96050E-14
 -1      3116 2.00324E+01-1.33172E-02-9.43951E-05 2.08999E-01-1.25917E-14 9.16752E-14
 -1      3117 2.00350E+01-7.41896E-03 7.26489E-04 2.11053E-01-3.83743E-14 6.47511E-14
 -1      3118 2.00798E+01-1.27433E-02-5.61347E-04 2.03714E-01-1.22069E-14 5.91688E-14
 -1      3119 2.00256E+01 9.24359E-04-3.80002E-04 2.13960E-01-7.74768E-14 1.11034E-13
 -1      3120 2.00310E+01 1.26798E-02 8.77689E-04 2.18336E-01-8.42504E-14 5.31379E-14
 -1      3121 2.00613E+01-6.69568E-04-4.18882E-04 2.10176E-01-5.04225E-14 8.73820E-14
 -1      3122 2.00224E+01 2.60981E-02-6.21302E-04 2.24585E-01-7.56414E-14 4.61343E-14
 -1      3123 2.00301E+01 4.28437E-02 1.02158E-03 2.33483E-01-6.84413E-14 1.95508E-14
 -1      3124 2.00457E+01 2.50333E-02-2.82115E-04 2.20572E-01-9.38085E-14 5.67651E-14
 -1      3125 2.00215E+01 6.07296E-02-8.45431E-04 2.45031E-01-6.14383E-14 3.09441E-14
 -1      3126 2.00312E+01 8.20205E-02 1.17048E-03 2.60310E-01-3.98926E-14 3.79132E-17
 -1      3127 2.00316E+01 6.22740E-02-1.43486E-04 2.39309E-01-6.63271E-14 3.89022E-14
 -1      3128 2.00217E+01 1.04080E-01-1.07384E-03 2.78850E-01-7.86309E-14-5.58703E-14
 -1      3129 2.00332E+01 1.29719E-01 1.33095E-03 3.02149E-01-1.41687E-13-9.34655E-14
 -1      3130 2.00173E+01 1.09918E-01 6.81738E-06 2.70070E-01-1.18198E-13-1.11472E-14
 -1      3131 2.00218E+01 1.55802E-01-1.32248E-03 3.29201E-01-1.69309E-13-3.79505E-14
 -1      3132 2.00349E+01 1.85651E-01 1.50494E-03 3.62005E-01-1.46396E-13-3.49293E-14
 -1      3133 2.00010E+01 1.67391E-01 1.80530E-04 3.16060E-01-1.43060E-13-6.74619E-14
 -1      3134 2.00203E+01 2.15546E-01-1.60131E-03 3.98966E-01-7.53484E-14-1.88688E-14
 -1      3135 2.00348E+01 2.49287E-01 1.69161E-03 4.42595E-01-5.31398E-14 3.84668E-14
 -1      3136 1.99805E+01 2.34247E-01 3.88926E-04 3.80143E-01-8.87855E-14 2.04092E-14
 -1      3137 2.00156E+01 2.82449E-01-1.91207E-03 4.90739E-01-6.28000E-14 1.19722E-13
 -1      3138 2.00313E+01 3.19245E-01 1.89077E-03 5.46280E-01-2.22481E-14 7.81565E-14
 -1      3139 1.99530E+01 3.09629E-01 6.39676E-04 4.64889E-01-2.30688E-14 1.13736E-13
 -1      3140 2.00061E+01 3.54390E-01-2.24422E-03 6.06728E-01-3.36542E-14 5.46305E-14
 -1      3141 2.00229E+01 3.92382E-01 2.10966E-03 6.74887E-01-2.59648E-14 2.10126E-14
 -1      3142 1.99158E+01 3.91536E-01 9.30511E-04 5.72562E-01-3.84003E-14 8.43090E-14
 -1      3143 1.99904E+01 4.26872E-01-2.56745E-03 7.48567E-01-2.42097E-14-5.35792E-15
 -1      3144 2.00087E+01 4.62420E-01 2.37524E-03 8.29434E-01-3.93592E-16-8.67021E-14
 -1      3145 1.98658E+01 4.75737E-01 1.23672E-03 7.05072E-01-4.38986E-14 6.37103E-14
 -1      3146 1.99682E+01 4.91341E-01-2.81825E-03 9.17058E-01 9.87364E-14-8.87721E-14
 -1      3147 1.99897E+01 5.17901E-01 2.75356E-03 1.00980E+00 1.85884E-13-1.45647E-13
 -1      3148 1.98008E+01 5.54172E-01 1.48881E-03 8.63998E-01 2.14106E-14-1.51265E-14
 -1      3149 1.99426E+01 5.32729E-01-2.87537E-03 1.11191E+00 2.76802E-13-1.58374E-13
 -1      3150 1.99717E+01 5.39282E-01 3.37327E-03 1.21435E+00 2.84485E-13-1.70622E-13
 -1      3151 1.97207E+01 6.12622E-01 1.53416E-03 1.05078E+00 2.45490E-13-4.10773E-14
 -1      3152 1.99234E+01 5.26105E-01-2.51414E-03 1.33142E+00 1.55466E-13-1.24315E-13
 -1      3153 1.99699E+01 4.95144E-01 4.44322E-03 1.43945E+00 3.03146E-14-1.11045E-14
 -1      3154 1.96307E+01 6.27444E-01 1.07448E-03 1.26721E+00 2.29896E-13-1.94869E-13
 -1      3155 1.99334E+01 4.32644E-01-1.30600E-03 1.57185E+00-2.40956E-14 4.85086E-14
 -1      3156 2.00166E+01 3.38044E-01 6.19002E-03 1.67830E+00-2.96811E-14 2.76666E-14
 -1      3157 1.95462E+01 5.61320E-01-4.28531E-04 1.51612E+00 5.40365E-14-1.24926E-13
 -1      3158 2.00191E+01 1.96061E-01 1.53860E-03 1.82531E+00-7.24567E-14-7.04355E-15
 -1      3159 2.01726E+01 1.93741E-03 8.47151E-03 1.91740E+00-7.89756E-14 1.46259E-14
 -1      3160 1.95020E+01 3.58359E-01-3.93515E-03 1.80160E+00-5.72441E-14-8.20252E-14
 -1      3161 2.02661E+01-2.56866E-01 7.45409E-03 2.07220E+00-4.17891E-14 2.00159E-14
 -1      3162 2.05421E+01-5.90816E-01 1.10775E-02 2.12475E+00 3.02789E-14 6.15800E-14
 -1      3163 1.95675E+01-6.01473E-02-1.12259E-02 2.12515E+00-4.67942E-14-3.68978E-14
 -1      3164 2.08174E+01-1.00055E+00 2.04262E-02 2.26313E+00 8.22233E-14 9.82502E-14
 -1      3165 2.12732E+01-1.50717E+00 9.28322E-03 2.22641E+00 8.16357E-14 1.22891E-13
 -1      3166 1.98669E+01-7.90513E-01-2.44763E-02 2.47088E+00 1.02099E-13-1.80511E-14
 -1      3167 2.18862E+01-2.05496E+00 4.47550E-02 2.24846E+00 7.50369E-14 1.37219E-13
 -1      3168 2.25629E+01-2.64810E+00 9.58649E-03 2.02450E+00 1.12313E-13 1.20832E-13
 -1      3169 2.06264E+01-1.93127E+00-4.43253E-02 2.76337E+00 1.10489E-13 3.87607E-14
 -1      3170 2.36194E+01-3.22110E+00 5.27563E-02 1.80182E+00 8.29340E-14 9.73475E-14
 -1      3171 2.45169E+01-3.62257E+00-1.75614E-02 1.25240E+00 7.61023E-14 1.05413E-13
 -1      3172 2.21443E+01-3.18197E+00-2.10794E-02 2.68535E+00 6.84448E-14 1.59787E-13
 -1      3173 2.45570E+01-4.48699E+00-7.29740E-02-2.31708E+00 8.56572E-14-6.06251E-14
 -1      3174 2.45216E+01-3.72963E+00 4.54279E-03-1.43889E+00 1.36956E-13-1.51267E-13
 -1      3175 2.36061E+01-3.24862E+00 6.75904E-02-1.91427E+00 1.89049E-13-1.90928E-13
 -1      3176 2.25282E+01-4.41691E+00 1.24749E-01-3.78709E+00 2.07955E-13 6.72153E-14
 -1      3177 2.12740E+01-1.53987E+00 1.14623E-02-2.34498E+00 6.51840E-14-5.02528E-15
 -1      3178 2.08153E+01-1.04045E+00 2.02775E-02-2.38770E+00 4.42168E-14-5.77468E-14
 -1      3179 2.05497E+01-6.34330E-01 1.16711E-02-2.26011E+00 3.02026E-14-8.34202E-14
 -1      3180 2.02746E+01-2.99643E-01 7.80094E-03-2.21500E+00 2.16825E-14 8.74668E-14
 -1      3181 1.99083E+01-8.35537E-01-2.21957E-02-2.59622E+00 8.32180E-14 1.75838E-13
 -1      3182 2.01890E+01-3.77654E-02 8.78415E-03-2.06803E+00-3.15518E-14-4.72008E-14
 -1      3183 2.00358E+01 1.62211E-01 1.53121E-03-1.98194E+00 7.48087E-14 1.45199E-14
 -1      3184 1.96225E+01-1.07304E-01-1.10567E-02-2.26848E+00 4.22735E-14-3.05871E-14
 -1      3185 2.00407E+01 3.13825E-01 6.09284E-03-1.84073E+00 1.21475E-13-2.20904E-14
 -1      3186 1.99579E+01 4.22856E-01-1.11179E-03-1.73658E+00 1.64000E-13-2.07865E-13
 -1      3187 1.95723E+01 3.25630E-01-4.27880E-03-1.95760E+00 6.24528E-14-3.84565E-13
 -1      3188 2.00003E+01 5.04289E-01 4.07225E-03-1.60599E+00 2.05575E-13-2.26164E-13
 -1      3189 1.99566E+01 5.60811E-01-1.56027E-03-1.49353E+00 1.74075E-13-1.13283E-13
 -1      3190 1.96324E+01 5.62692E-01-1.82631E-04-1.67845E+00 1.30438E-13-3.85356E-13
 -1      3191 2.00224E+01 5.92707E-01 2.85375E-03-1.38927E+00 8.90224E-14-9.97919E-15
 -1      3192 1.99948E+01 6.27529E-01-8.81769E-04-1.27121E+00-2.36884E-14-6.66868E-14
 -1      3193 1.98554E+01 7.19078E-01-7.86813E-04-1.23913E+00-1.50565E-13-3.98535E-13
 -1      3194 1.97451E+01 6.69867E-01 2.94983E-04-1.44315E+00 2.22368E-13-2.97140E-13
 -1      3195 2.00755E+01 1.56591E-01-1.04704E-03-7.98084E-02 7.16776E-14 4.18490E-14
 -1      3196 2.01072E+01 2.20528E-01 3.66330E-03-2.49659E-02 7.68073E-14 5.00805E-14
 -1      3197 2.01925E+01 3.21106E-01-1.51766E-03 3.45314E-02 7.25319E-14 5.63063E-14
 -1      3198 2.15436E+01-4.73349E+00-4.64187E-02 4.36863E+00 1.72869E-13 5.90389E-13
 -1      3199 1.91836E+01-3.91164E+00 1.20203E-01 4.99383E+00 3.39596E-13 3.58460E-13
 -1      3200 1.99972E+01-1.67822E-02 5.63835E-04-2.08682E-01 5.41778E-14 1.47599E-13
 -1      3201 1.99932E+01-1.45010E-02 2.95910E-04-2.07292E-01 5.84014E-14 1.07582E-13
 -1      3202 2.00021E+01-8.45721E-03 3.56870E-04-2.03723E-01 3.45224E-14 8.38305E-14
 -1      3203 2.00034E+01 2.36353E-03 8.08199E-04-1.98011E-01 6.29577E-15 9.32032E-14
 -1      3204 2.00573E+01-8.80431E-03-7.99292E-04-2.02247E-01 1.74782E-14 1.00629E-13
 -1      3205 2.00053E+01 3.10390E-03 8.74647E-04-2.14442E-01-5.17978E-16 1.88269E-13
 -1      3206 1.99943E+01-5.83213E-03-3.40369E-04-2.11945E-01 1.72065E-14 1.71476E-13
 -1      3207 2.00160E+01 2.61009E-02 1.02207E-03-2.25481E-01 5.17135E-15 1.72431E-13
 -1      3208 2.00024E+01 1.32427E-02-5.43517E-04-2.19006E-01 2.94874E-14 2.04729E-13
 -1      3209 2.00281E+01 1.19006E-02-3.69763E-04-2.20785E-01 9.64991E-17 1.28541E-13
 -1      3210 2.00305E+01 5.56980E-02 1.17978E-03-2.47033E-01 8.99185E-14 9.92032E-14
 -1      3211 2.00142E+01 3.95797E-02-7.07420E-04-2.34910E-01 6.23391E-14 1.53724E-13
 -1      3212 2.00262E+01 4.08306E-02-2.82881E-04-2.35885E-01 5.40880E-14 1.52202E-13
 -1      3213 2.00487E+01 9.07782E-02 1.35188E-03-2.82018E-01 9.98900E-14 1.01864E-13
 -1      3214 2.00295E+01 7.19527E-02-8.49104E-04-2.62897E-01 8.55788E-14 1.06097E-13
 -1      3215 2.00265E+01 7.73943E-02-2.13926E-04-2.62192E-01 6.86463E-14 6.71090E-14
 -1      3216 2.00710E+01 1.30129E-01 1.53673E-03-3.32794E-01-9.25480E-15 1.26402E-13
 -1      3217 2.00482E+01 1.09247E-01-9.76449E-04-3.05619E-01 5.75842E-14 1.42976E-13
 -1      3218 2.00287E+01 1.20212E-01-1.59469E-04-3.02650E-01 5.37473E-14 1.68665E-13
 -1      3219 2.00978E+01 1.71972E-01 1.72704E-03-4.01099E-01 3.30247E-15 4.70396E-14
 -1      3220 2.00709E+01 1.50037E-01-1.08636E-03-3.65172E-01 6.37183E-15 8.81632E-14
 -1      3221 2.00321E+01 1.67679E-01-1.21651E-04-3.59650E-01 3.93913E-14 1.32261E-13
 -1      3222 2.01306E+01 2.13360E-01 1.91027E-03-4.87828E-01-4.97514E-14 5.15382E-14
 -1      3223 2.00984E+01 1.92054E-01-1.16160E-03-4.42970E-01-1.88859E-14 6.32830E-14
 -1      3224 2.00371E+01 2.17393E-01-1.10949E-04-4.34993E-01-1.83896E-14 8.22122E-14
 -1      3225 2.01712E+01 2.49402E-01 2.06874E-03-5.92606E-01 4.60290E-14 6.33438E-14
 -1      3226 2.01326E+01 2.31508E-01-1.16586E-03-5.39427E-01-2.15560E-14 6.19650E-14
 -1      3227 2.00441E+01 2.65408E-01-1.53281E-04-5.29693E-01-4.56391E-14 4.94979E-14
 -1      3228 2.02235E+01 2.72272E-01 2.18001E-03-7.13136E-01 3.42842E-14 1.09440E-13
 -1      3229 2.01764E+01 2.62206E-01-1.03583E-03-6.53446E-01 9.47003E-14 1.52591E-13
 -1      3230 2.00554E+01 3.05300E-01-2.99933E-04-6.43625E-01 3.28326E-14 1.54230E-13
 -1      3231 2.02938E+01 2.70043E-01 2.21429E-03-8.44262E-01-1.89456E-14 1.25499E-13
 -1      3232 2.02352E+01 2.74466E-01-6.70114E-04-7.81636E-01 1.97140E-15 1.26054E-13
 -1      3233 2.00751E+01 3.26988E-01-6.41876E-04-7.74994E-01 2.50922E-14 1.81791E-13
 -1      3234 2.03925E+01 2.25575E-01 2.12217E-03-9.76659E-01-2.02160E-14 2.61619E-13
 -1      3235 2.03179E+01 2.53943E-01 8.40119E-05-9.17199E-01-2.72276E-15 2.14169E-13
 -1      3236 2.01112E+01 3.15392E-01-1.32815E-03-9.19553E-01-6.55484E-14 1.79088E-13
 -1      3237 2.05368E+01 1.16063E-01 1.80247E-03-1.09502E+00-1.01320E-13 2.72049E-13
 -1      3238 2.04391E+01 1.80730E-01 1.44059E-03-1.04832E+00-6.78366E-14 2.15590E-13
 -1      3239 2.01778E+01 2.49213E-01-2.58305E-03-1.06940E+00-6.17209E-14 3.04149E-13
 -1      3240 2.07521E+01-8.52600E-02 1.04091E-03-1.17547E+00-3.34747E-14 1.90838E-13
 -1      3241 2.06218E+01 2.97447E-02 3.67100E-03-1.15578E+00-3.32226E-14 2.63541E-13
 -1      3242 2.02983E+01 1.00660E-01-4.69990E-03-1.21101E+00-6.86705E-14 2.48353E-13
 -1      3243 2.10730E+01-4.02415E-01-5.36403E-04-1.18219E+00-9.84109E-14 1.02600E-13
 -1      3244 2.08988E+01-2.25563E-01 7.04441E-03-1.20958E+00-2.42009E-14 1.83744E-13
 -1      3245 2.05083E+01-1.61979E-01-7.96007E-03-1.32175E+00-5.28276E-14 2.58231E-13
 -1      3246 2.15377E+01-8.40548E-01-3.57796E-03-1.06375E+00-1.66491E-13 1.69711E-14
 -1      3247 2.13112E+01-6.02471E-01 1.17063E-02-1.16449E+00-1.38167E-13 5.01651E-14
 -1      3248 2.08578E+01-5.65261E-01-1.23737E-02-1.36421E+00-8.41798E-14 1.83850E-13
 -1      3249 2.21725E+01-1.35223E+00-8.80361E-03-7.51363E-01-1.71201E-13 1.56982E-14
 -1      3250 2.18989E+01-1.08585E+00 1.72188E-02-9.54850E-01-1.47601E-13 3.57015E-14
 -1      3251 2.14071E+01-1.10975E+00-1.70351E-02-1.27823E+00-1.57031E-13 9.04021E-14
 -1      3252 2.29492E+01-1.77539E+00-1.53372E-02-1.71571E-01-1.88024E-13 1.72329E-13
 -1      3253 2.26654E+01-1.58170E+00 1.99974E-02-4.95709E-01-1.95033E-13 1.43234E-13
 -1      3254 2.22085E+01-1.72243E+00-1.95246E-02-9.63287E-01-2.80101E-13 1.44377E-13
 -1      3255 2.37468E+01-1.80717E+00-1.77246E-02 6.71608E-01-5.20287E-15 2.61187E-13
 -1      3256 2.35163E+01-1.85464E+00 1.45717E-02 2.60306E-01-9.18303E-14 2.06647E-13
 -1      3257 2.32274E+01-2.17464E+00-1.85042E-02-3.20718E-01-2.22971E-13 2.83403E-13
 -1      3258 2.43336E+01-1.02455E+00-2.06194E-03 1.59873E+00 8.69560E-14 3.57559E-13
 -1      3259 2.42259E+01-1.53828E+00-7.65267E-03 1.24001E+00-3.22480E-14 3.10074E-13
 -1      3260 2.42834E+01-2.06808E+00-2.28213E-02 6.99934E-01-8.69075E-14 2.07591E-13
 -1      3261 2.44194E+01 6.85792E-01 4.83834E-03 2.11031E+00 2.66571E-13 4.62307E-13
 -1      3262 2.44705E+01-3.00417E-01-5.45602E-02 2.04103E+00 3.05612E-13 3.93754E-13
 -1      3263 2.50448E+01-8.86282E-01 3.38925E-03 1.80545E+00 1.23498E-13 3.53096E-13
 -1      3264 2.37841E+01 3.51598E+00-5.94095E-02-3.68894E-03 1.10613E-13 2.26464E-13
 -1      3265 2.38595E+01 3.31380E+00-5.64244E-02 7.63274E-01 1.43462E-14 2.97703E-13
 -1      3266 2.43278E+01 2.44969E+00-7.31235E-02-1.70604E+00 2.54727E-13 1.10298E-14
 -1      3267 2.41828E+01 3.24423E+00-3.60066E-02-1.10667E+00 1.71509E-13 1.10828E-13
 -1      3268 2.43996E+01-1.18467E+00-1.25899E-02-1.54306E+00 1.93549E-13 1.59489E-13
 -1      3269 2.44081E+01-4.74319E-01-1.68398E-03-1.80613E+00 2.75611E-13 8.61720E-14
 -1      3270 2.38172E+01-1.85350E+00 1.18463E-02-5.43768E-01-3.96211E-15 6.18143E-14
 -1      3271 2.39934E+01-1.65553E+00-1.89905E-02-9.53392E-01 1.43518E-13 1.72483E-13
 -1      3272 2.46302E+01-1.83720E+00-3.47665E-02-1.02951E+00 9.62858E-14 2.53787E-13
 -1      3273 2.29771E+01-1.77457E+00 1.90835E-02 3.44304E-01-9.75992E-14 2.92240E-14
 -1      3274 2.32543E+01-1.90051E+00-1.83831E-02-2.83205E-02-1.31601E-13 5.34792E-14
 -1      3275 2.36575E+01-2.28762E+00-2.18448E-02 7.02922E-02-4.06710E-14 6.23039E-14
 -1      3276 2.21555E+01-1.33262E+00 1.82379E-02 9.34913E-01 1.39285E-13-1.22205E-13
 -1      3277 2.24459E+01-1.58607E+00-1.12595E-02 6.75850E-01 1.62825E-15-1.29268E-13
 -1      3278 2.25921E+01-1.98560E+00-1.97600E-02 8.70315E-01 2.98398E-14-1.90546E-13
 -1      3279 2.14913E+01-8.24424E-01 1.36618E-02 1.24919E+00 5.56598E-14-1.47264E-13
 -1      3280 2.17434E+01-1.08210E+00-5.39656E-03 1.10333E+00 1.89956E-13-1.53341E-13
 -1      3281 2.16984E+01-1.40154E+00-1.89192E-02 1.32016E+00 1.28563E-13-1.19892E-13
 -1      3282 2.10107E+01-3.90771E-01 8.78631E-03 1.36435E+00 9.20856E-14 2.40042E-14
 -1      3283 2.12102E+01-5.99184E-01-1.43722E-03 1.30532E+00 1.67854E-14-5.52865E-14
 -1      3284 2.10583E+01-8.10658E-01-1.45101E-02 1.49873E+00 4.51956E-14-1.95086E-13
 -1      3285 2.06831E+01-6.71586E-02 5.28624E-03 1.35138E+00 5.43413E-14 1.06775E-13
 -1      3286 2.08341E+01-2.18160E-01 5.42203E-04 1.35254E+00 1.58069E-13 1.57015E-13
 -1      3287 2.06422E+01-3.34482E-01-9.85649E-03 1.51104E+00 2.35027E-14 1.51085E-13
 -1      3288 2.04692E+01 1.58457E-01 4.50480E-03 1.25896E+00-1.11201E-13-1.19128E-14
 -1      3289 2.05790E+01 5.40076E-02 1.52829E-03 1.29901E+00-2.44697E-14-3.34382E-15
 -1      3290 2.03882E+01 1.05841E-02-6.13565E-03 1.42731E+00 3.26574E-14 2.02329E-13
 -1      3291 2.80027E+01 4.07508E+00-6.17506E-02-1.97372E+00-1.49047E-13 3.30222E-14
 -1      3292 1.90368E+01 1.21986E+00-3.59827E-03 4.77927E-02 1.81691E-13 3.09091E-14
 -1      3293 1.90711E+01 1.19913E+00-5.19932E-05 2.43662E-01 1.48068E-13 1.53930E-13
 -1      3294 1.95297E+01 9.44660E-01 1.63334E-03-1.03477E+00-2.40624E-14-2.83130E-13
 -1      3295 1.93779E+01 1.02660E+00-5.97651E-03-9.21664E-01 2.38804E-13-3.52872E-13
 -1      3296 1.90733E+01 1.21448E+00-9.48082E-04-3.71976E-01 1.70845E-13-3.36491E-13
 -1      3297 1.90376E+01 1.23011E+00-2.98243E-03-1.78517E-01 2.49455E-13-6.18764E-14
 -1      3298 1.88666E+01 1.21232E+00 5.34519E-03-5.77816E-02 3.25117E-13 5.79876E-14
 -1      3299 8.88454E+00 1.94674E-02 8.73245E-02-8.52907E-01-3.56286E-13 1.86212E-13
 -1      3300 9.77308E+00-4.52411E-01 8.27302E-02-2.81193E+00-2.05502E-13 1.67019E-13
 -1      3301 2.00518E+01 2.16204E+00-4.30647E-03 2.93049E-01 7.36073E-14 1.73633E-14
 -1      3302 2.00389E+01 2.20093E+00-3.33186E-03 1.71129E-01 5.81870E-14 1.90141E-14
 -1      3303 1.92467E+01 1.11846E+00 1.99303E-03-7.55537E-01 1.92664E-13-5.80505E-13
 -1      3304 1.91425E+01 1.16999E+00-5.17496E-03-5.87199E-01 1.89123E-13-4.63130E-13
 -1      3305 1.89458E+01 1.18170E+00 3.92279E-03-5.14417E-01 1.58987E-13-3.93029E-13
 -1      3306 1.91886E+01 1.05704E+00 3.40092E-03-9.09419E-01 1.54614E-13-3.98380E-13
 -1      3307 1.99987E+01-1.18813E-02 7.27617E-04-2.10335E-01 3.95158E-14 1.53235E-13
 -1      3308 1.99908E+01-1.59365E-02-7.22217E-05-2.09731E-01 4.92450E-14 1.67979E-13
 -1      3309 2.00426E+01-1.58233E-02-6.22208E-04-2.09017E-01 2.61960E-14 1.41514E-13
 -1      3310 2.00333E+01-7.76018E-03-4.80753E-04-2.13311E-01 3.90758E-14 1.53352E-13
 -1      3311 1.63443E+01-3.25135E+00-3.58375E-03 5.39758E+00 4.57287E-13 1.45293E-13
 -1      3312 1.35790E+01-1.84807E+00 1.12665E-01 4.79251E+00 5.20084E-13-5.62328E-14
 -1      3313 2.25557E+01-2.67988E+00 1.17756E-02-2.15201E+00 2.13278E-13-1.83631E-14
 -1      3314 2.18668E+01-2.07933E+00 4.42915E-02-2.37021E+00 1.57771E-13-2.01957E-14
 -1      3315 2.06317E+01-1.95382E+00-4.50246E-02-2.86709E+00 1.50700E-13 1.22588E-13
 -1      3316 2.62084E+01 2.48068E+00-5.66444E-02 2.22048E+00 1.08247E-13 2.56371E-13
 -1      3317 2.57387E+01 3.99162E+00-1.42739E-01 1.61621E+00 1.90126E-13 2.95895E-13
 -1      3318 1.14461E+01-1.26714E+00 1.24247E-01-4.21986E+00-5.79398E-15 4.59521E-13
 -1      3319 1.37491E+01-2.47687E+00 1.46251E-02-5.32926E+00 1.27010E-13 5.13201E-13
 -1      3320 1.92597E+01-4.05851E+00-7.61986E-02 5.02453E+00-2.38698E-13-9.27036E-14
 -1      3321 1.64443E+01-2.90581E+00 1.40291E-01 5.35296E+00-1.83929E-13-2.92821E-14
 -1      3322 1.13963E+01-8.47843E-01 5.22934E-02 3.80596E+00 4.61256E-13-1.52753E-13
 -1      3323 9.96283E+00-4.38175E-02 7.51747E-02 2.16076E+00 2.52354E-13-1.30410E-13
 -1      3324 2.00629E+01 5.56622E-01 1.98009E-03 9.97743E-01-9.79726E-14-1.24834E-13
 -1      3325 2.59967E+01-4.31663E+00-6.38188E-02 1.31902E+00 6.02435E-14 2.92120E-13
 -1      3326 2.40505E+01-4.68883E+00 7.28328E-02 2.96720E+00 9.56873E-14 4.66203E-13
 -1      3327 1.67930E+01-3.30619E+00 1.43970E-01-5.43280E+00 2.70436E-13 3.71508E-13
 -1      3328 1.96096E+01-4.40226E+00-5.69943E-02-5.07129E+00 4.06487E-13 1.59185E-13
 -1      3329 1.42915E+01-2.33686E+00 1.79450E-02 5.31151E+00-2.10824E-13 3.69843E-14
 -1      3330 1.23603E+01-1.28625E+00 1.25714E-01 4.45330E+00-3.10904E-13-1.00545E-13
 -1      3331 1.65483E+01-2.24979E+00 9.47414E-02 4.73110E+00-3.59591E-13 9.24261E-15
 -1      3332 2.02759E+01 7.15475E-01 6.31026E-03-3.45523E-01-3.40598E-14-1.57949E-14
 -1      3333 2.02285E+01 5.51783E-01-4.15754E-03-2.16166E-01-3.25487E-14-5.53767E-15
 -1      3334 2.02751E+01 5.84187E-01-2.76764E-04-1.88734E-01-5.45541E-15 1.74600E-14
 -1      3335 2.55822E+01 4.85261E+00-1.03539E-01 8.62408E-01 2.49287E-13 2.12316E-13
 -1      3336 2.58366E+01 5.13812E+00-9.96709E-02-2.92291E-01 3.52940E-13 4.85376E-14
 -1      3337 9.63955E+00 4.09886E-01 1.26252E-01 5.85470E-01 1.34095E-13-7.72993E-14
 -1      3338 1.00914E+01 2.91630E-01 6.29371E-02-1.38880E+00-7.75942E-15 4.60187E-14
 -1      3339 1.00841E+01-4.62938E-01 4.29270E-02 3.02527E+00-4.96575E-13-1.55487E-13
 -1      3340 9.11289E+00 1.06789E-01 1.25397E-01 9.97391E-01-4.98568E-13 2.40266E-13
 -1      3341 2.64186E+01-6.52343E-01-4.10487E-02 1.73742E+00 2.00701E-13 3.98431E-14
 -1      3342 2.61021E+01 7.12986E-01-1.49295E-01 2.21157E+00 1.91736E-13 2.21375E-13
 -1      3343 2.02893E+01 9.90185E-01-7.79008E-04 6.91833E-01 7.87046E-14 8.15764E-14
 -1      3344 2.02695E+01 1.31181E+00 4.56519E-03 7.75045E-01 8.14751E-14 7.85655E-14
 -1      3345 2.02849E+01 1.13188E+00 5.36935E-03 5.98749E-01 7.68053E-14 6.35589E-14
 -1      3346 2.02319E+01 7.76592E-01-3.82553E-03 4.84461E-01 5.92035E-14 8.50812E-14
 -1      3347 2.69210E+01 2.06375E+00-1.56967E-01-2.15510E+00 1.95996E-13-3.44266E-13
 -1      3348 2.71837E+01 5.11827E-01-1.28756E-02-2.03851E+00 9.81298E-14-3.17003E-13
 -1      3349 2.58354E+01 2.29600E+00-7.50540E-02-2.07608E+00 1.94851E-13-1.12847E-13
 -1      3350 2.18821E+01-4.52124E+00 5.12284E-02-4.17273E+00-1.97758E-14-1.49968E-13
 -1      3351 2.41130E+01-4.72606E+00-3.63378E-02-3.08889E+00-1.94428E-14-2.55030E-13
 -1      3352 1.58744E+01-2.91418E+00 1.45969E-01-5.51190E+00-2.71665E-13-6.23390E-14
 -1      3353 1.87913E+01-4.00625E+00-1.52048E-03-5.26371E+00-1.73542E-13-6.40044E-14
 -1      3354 2.00320E+01 2.21978E+00-3.68943E-03 6.60629E-02 5.84499E-14 3.12190E-14
 -1      3355 2.00316E+01 2.22067E+00-3.64525E-03-5.81494E-02 4.63782E-14 3.35263E-14
 -1      3356 2.01461E+01 1.92480E+00 4.99575E-03 1.01595E-01 5.76511E-14 2.79644E-14
 -1      3357 2.02550E+01 1.46359E+00 6.37662E-03 5.87557E-01 8.56351E-14 5.47864E-14
 -1      3358 2.01628E+01 1.80192E+00-6.99306E-03 6.86801E-01 7.88060E-14 4.49582E-14
 -1      3359 2.01287E+01 1.93175E+00-2.49510E-03 5.91009E-01 7.67081E-14 2.75253E-14
 -1      3360 2.02348E+01 1.52544E+00-2.77120E-03-8.13007E-01-1.91113E-14-5.52139E-14
 -1      3361 2.02760E+01 1.35304E+00-1.65174E-03-8.28381E-01-1.51390E-14-4.35924E-14
 -1      3362 2.02810E+01 1.14892E+00 5.10394E-03-6.68546E-01-1.34264E-14-4.09509E-14
 -1      3363 2.49940E+01-4.07837E+00 5.79472E-03-1.69896E+00-5.10113E-14-8.87623E-14
 -1      3364 1.83067E+01-3.13459E+00 5.19346E-02 4.67426E+00 3.59344E-13 1.73171E-13
 -1      3365 2.65683E+01-7.90173E-01-4.13592E-02-1.56014E+00 5.37834E-14-2.89616E-13
 -1      3366 1.10963E+01 2.42034E-01 1.44632E-01-2.25830E+00-9.01414E-14 2.18783E-14
 -1      3367 1.23579E+01-1.65584E-01 5.01044E-02-2.95995E+00-1.83581E-13 5.75442E-14
 -1      3368 1.15624E+01 5.89028E-01 3.35754E-02-1.11952E+00 3.06153E-14 1.07102E-13
 -1      3369 2.40066E+01-4.20327E+00-5.54022E-02 2.22190E+00 7.25218E-14 1.67219E-13
 -1      3370 2.53686E+01-3.59325E+00 6.36327E-02 8.36335E-01 9.55364E-14 9.44115E-14
 -1      3371 2.21161E+01-3.35435E+00-6.70364E-02-2.84989E+00 2.55485E-13 3.18721E-14
 -1      3372 2.12634E+01-3.77901E+00 6.24260E-02-3.88887E+00 2.78146E-13 2.60091E-13
 -1      3373 2.63852E+01-3.68686E+00-2.75821E-02 3.01953E-01 3.92152E-14 1.76952E-13
 -1      3374 2.73500E+01-2.80815E+00-8.32036E-03-5.87377E-01 2.40884E-14 1.47736E-13
 -1      3375 1.97313E+01 7.89543E-01-1.11822E-03-1.18422E+00-1.83203E-13-4.77098E-13
 -1      3376 1.96209E+01 8.74330E-01-2.64470E-03-1.11501E+00-1.00823E-13-3.46430E-13
 -1      3377 1.94494E+01 9.05207E-01 1.74726E-03-1.15237E+00-5.93712E-14-4.08563E-13
 -1      3378 1.96837E+01 7.71258E-01 1.86537E-03-1.28376E+00-6.84904E-14-4.50197E-13
 -1      3379 2.02585E+01 9.61804E-01-3.44596E-03-5.33365E-01-3.14490E-14-3.87617E-14
 -1      3380 2.00390E+01 6.92287E-02-3.73690E-04-1.51055E-01 3.09214E-15 7.30072E-14
 -1      3381 2.00576E+01 1.08725E-01 2.45684E-03-1.20671E-01 2.96019E-14 4.83395E-14
 -1      3382 2.01468E+01 1.69020E-01-1.42043E-03-8.14347E-02 4.51465E-14 5.46215E-14
 -1      3383 2.02808E+01 9.94198E-01-8.28576E-04-4.71274E-01-3.31327E-14-1.50655E-14
 -1      3384 2.76223E+01-1.60789E+00-1.69412E-01-1.82078E+00-6.90142E-14 5.74055E-14
 -1      3385 2.30343E+01-4.26137E+00 3.80083E-02 3.10300E+00 1.30240E-13 3.50815E-13
 -1      3386 1.37709E+01-1.01205E+00 1.07235E-01 3.92022E+00 3.99052E-13-1.05936E-13
 -1      3387 2.00788E+01 1.85253E-02-1.00894E-03-1.85644E-01-1.61941E-14 8.68907E-14
 -1      3388 2.00152E+01 1.78369E-02 6.56099E-05-1.87878E-01-2.38522E-14 9.23215E-14
 -1      3389 2.00238E+01 4.05000E-02 1.51272E-03-1.73076E-01-2.74619E-14 6.48990E-14
 -1      3390 2.42454E+01 1.78392E+00-7.85709E-02 1.99003E+00 1.64067E-13 5.39013E-13
 -1      3391 2.52063E+01 1.41440E+00-2.05623E-02 2.22560E+00 1.92721E-13 5.78298E-13
 -1      3392 2.50202E+01 4.07799E+00-7.38019E-02-7.10414E-01 2.11692E-13 4.45399E-14
 -1      3393 2.41050E+01 2.72436E+00-1.54868E-02 1.54677E+00-1.92901E-14 4.40341E-13
 -1      3394 2.48673E+01 3.56412E+00-7.17857E-02 1.27070E+00 1.41748E-13 4.49980E-13
 -1      3395 2.44226E+01 4.42341E-01-5.51024E-02-2.10444E+00 2.96223E-13-2.12851E-15
 -1      3396 2.42680E+01 1.45817E+00-7.23810E-03-1.95332E+00 2.88634E-13 1.21032E-13
 -1      3397 2.03814E+01 2.40163E-01 3.05941E-03 1.21301E+00-1.61524E-13-5.15026E-14
 -1      3398 2.02082E+01 2.41497E-01-5.34943E-03 1.31421E+00-1.28703E-13-1.24902E-13
 -1      3399 2.02881E+01 3.16826E-01 6.43688E-03 1.17488E+00-1.27781E-13-1.97207E-13
 -1      3400 2.00884E+01 4.86991E-01 3.67100E-03 1.07339E+00-7.55941E-14-3.44618E-13
 -1      3401 2.01563E+01 4.16357E-01 2.82720E-03 1.13452E+00-8.67348E-14-2.79710E-13
 -1      3402 1.98678E+01 6.27829E-01-6.18078E-03 1.07639E+00 1.78621E-14 1.14936E-13
 -1      3403 1.93433E+01 9.83734E-01-5.76377E-03 7.80720E-01-7.24124E-14 2.35446E-13
 -1      3404 1.94759E+01 9.06709E-01 3.36269E-03 8.97009E-01-2.52957E-13 4.21997E-13
 -1      3405 1.95986E+01 8.11885E-01-4.98930E-03 9.78230E-01-2.32404E-13 2.41776E-13
 -1      3406 1.97452E+01 7.24689E-01 3.74337E-03 1.03395E+00-2.32472E-13 2.02309E-13
 -1      3407 1.97378E+01 6.44950E-01-8.20656E-05 1.12806E+00-1.14648E-13 1.00913E-15
 -1      3408 1.94458E+01 8.10900E-01-8.65552E-05 1.01692E+00-3.29064E-13 2.89096E-13
 -1      3409 2.54474E+01-3.14069E+00-7.55745E-02 1.33707E-01-2.76315E-14-1.51089E-13
 -1      3410 2.52208E+01-3.82750E+00 3.31548E-02 1.23461E+00-2.73514E-14-2.69717E-13
 -1      3411 2.39379E+01-3.69966E+00-1.10064E-03 1.72560E+00-1.07253E-13-1.35054E-13
 -1      3412 1.19805E+01-5.12477E-01 1.42783E-01-3.23338E+00-1.39035E-13 2.12705E-13
 -1      3413 1.91346E+01 1.13643E+00-5.51276E-03 4.53529E-01 8.68278E-14 1.98222E-13
 -1      3414 1.92293E+01 1.08318E+00 2.42652E-03 6.20360E-01 1.16353E-13 1.15819E-13
 -1      3415 1.89442E+01 1.14328E+00 4.13392E-03 3.93400E-01 1.20033E-13 1.33002E-13
 -1      3416 1.05866E+01 3.92341E-01 1.47481E-01 5.57985E-02-4.82472E-13 2.86715E-14
 -1      3417 2.60791E+01-1.84578E+00-6.77921E-02 1.14997E+00 1.67279E-14-6.74200E-14
 -1      3418 1.13744E+01 4.46966E-01 1.09922E-01 1.30721E+00 1.82464E-13-1.91097E-14
 -1      3419 1.61874E+01-2.42867E+00 1.15343E-01-4.87684E+00 2.27589E-13 3.45057E-13
 -1      3420 2.09014E+01-3.62079E+00 4.03939E-02 3.87534E+00-2.81698E-13-2.62118E-13
 -1      3421 2.00717E+01 2.10646E+00-3.07183E-03 3.91818E-01 7.48989E-14 3.55754E-15
 -1      3422 2.01679E+01 1.84971E+00 5.27850E-03 2.91456E-01 6.07488E-14 1.57694E-14
 -1      3423 2.00963E+01 2.02603E+00-5.43285E-03 5.05368E-01 7.95005E-14 8.01106E-15
 -1      3424 2.01769E+01 4.90521E-01-2.02523E-03 2.21964E-01 6.23040E-14 4.81780E-14
 -1      3425 2.02328E+01 6.36011E-01 4.12856E-03 3.63667E-01 5.87660E-14 4.90841E-14
 -1      3426 2.02575E+01 7.78137E-01-4.83003E-03 4.20780E-01 7.27766E-14 5.09010E-14
 -1      3427 2.02310E+01 5.26910E-01-1.34035E-03 2.00104E-01 5.90215E-14 3.77351E-14
 -1      3428 1.26013E+01-5.29875E-01 1.17109E-01 3.38282E+00-4.07226E-13 1.45974E-13
 -1      3429 2.79629E+01 6.00239E-01-6.95483E-03-2.38403E+00-5.51920E-14 5.82590E-14
 -1      3430 2.51476E+01-2.07165E-01-2.39023E-02-1.94210E+00 2.37714E-13 4.62755E-14
 -1      3431 2.76566E+01 1.93040E+00-2.16020E-01-2.62157E+00-2.19685E-14-2.02977E-13
 -1      3432 1.52056E+01-2.00600E+00 1.03252E-01-4.78628E+00-3.69177E-13-3.21826E-14
 -1      3433 2.07261E+01-4.07002E+00 5.81270E-02-4.44097E+00-1.62627E-13-2.01394E-13
 -1      3434 2.20621E+01-3.85916E+00 1.19753E-02-3.27554E+00-1.77912E-13-1.83191E-13
 -1      3435 1.94006E+01-3.28272E+00 2.14132E-02-4.41981E+00-2.52527E-13-1.81084E-13
 -1      3436 2.00689E+01 2.11248E+00-3.11141E-03-3.84160E-01 1.83950E-14 1.75831E-14
 -1      3437 2.00929E+01 2.03462E+00-5.25415E-03-4.98442E-01 1.87993E-15 2.16916E-15
 -1      3438 2.02048E+01 1.70502E+00 5.46728E-03-4.54775E-01-6.52738E-15 8.63700E-15
 -1      3439 2.01241E+01 1.94169E+00-2.75044E-03-5.84705E-01-8.79882E-15-9.61644E-15
 -1      3440 2.01607E+01 1.81945E+00-5.23644E-03-6.82884E-01-1.52136E-14-2.97394E-14
 -1      3441 2.02015E+01 1.66474E+00-2.10557E-03-7.67806E-01-2.72501E-14-5.44386E-14
 -1      3442 1.41220E+01-7.78525E-01-2.25305E-02 3.71637E+00-4.44821E-13 2.09652E-13
 -1      3443 1.25039E+01 2.37683E-01 8.65929E-02 2.35210E+00-5.48634E-13 2.31946E-13
 -1      3444 2.02617E+01-2.91309E+00 7.18906E-02-3.84307E+00 3.36035E-13 2.02406E-13
 -1      3445 2.02721E+01 2.48008E-01 2.09215E-03 4.45277E-02-2.77621E-14 5.52808E-17
 -1      3446 2.02480E+01 1.75546E-01-1.20060E-03 8.73640E-02-2.94566E-14 9.74119E-15
 -1      3447 2.02327E+01 1.20073E-01 1.51569E-03 1.15817E-01-2.30365E-14 2.27747E-14
 -1      3448 2.02117E+01 7.53608E-02-5.33085E-04 1.40799E-01 6.80567E-15 7.55077E-15
 -1      3449 2.02891E+01 1.76970E-01-4.36249E-04 8.49474E-02-1.45047E-14 1.89950E-14
 -1      3450 2.01932E+01 4.27316E-02 9.78154E-04 1.56569E-01 2.06868E-14-8.31996E-15
 -1      3451 2.01761E+01 1.83030E-02-6.13400E-05 1.69902E-01 3.53785E-14-2.20942E-14
 -1      3452 2.02503E+01 7.53786E-02-5.48802E-04 1.32242E-01-9.99126E-15 5.23394E-14
 -1      3453 2.01565E+01 2.46658E-03 5.18626E-04 1.77809E-01 5.71347E-14-7.27517E-14
 -1      3454 2.01429E+01-6.97001E-03 2.67418E-04 1.84558E-01 5.53142E-14-2.77395E-14
 -1      3455 2.02097E+01 1.87811E-02-5.63440E-04 1.58623E-01 1.67455E-14-8.13253E-15
 -1      3456 2.01233E+01-1.03340E-02 1.38195E-04 1.88553E-01 2.67060E-14-3.14005E-14
 -1      3457 2.01128E+01-8.48274E-03 4.94112E-04 1.92664E-01-3.47777E-14-4.44463E-14
 -1      3458 2.01699E+01-4.22367E-03-4.96333E-04 1.72790E-01 2.70025E-14-8.16037E-14
 -1      3459 2.00934E+01-2.31758E-03-1.82944E-04 1.95865E-01-5.53130E-14-1.00217E-14
 -1      3460 2.00852E+01 8.33045E-03 6.52439E-04 2.00422E-01-6.30917E-14 1.46609E-14
 -1      3461 2.01316E+01-1.85497E-03-3.79719E-04 1.81780E-01-4.36916E-14-8.66004E-14
 -1      3462 2.00657E+01 2.20890E-02-4.66670E-04 2.05301E-01-7.20527E-14 1.04842E-14
 -1      3463 2.00590E+01 3.99391E-02 7.66978E-04 2.12740E-01-6.01630E-14 4.75049E-14
 -1      3464 2.00945E+01 2.02913E-02-2.28804E-04 1.91181E-01-4.64899E-14-7.92961E-14
 -1      3465 2.00385E+01 6.00987E-02-7.34953E-04 2.21283E-01-5.26299E-14 6.14615E-14
 -1      3466 2.00326E+01 8.42147E-02 8.55532E-04 2.33589E-01-5.29713E-14 5.16593E-14
 -1      3467 2.00572E+01 5.85836E-02-4.49404E-05 2.05438E-01-4.24556E-14 5.90118E-14
 -1      3468 2.00100E+01 1.10109E-01-1.00697E-03 2.47448E-01-1.19411E-13 7.61525E-14
 -1      3469 2.00039E+01 1.39992E-01 9.28807E-04 2.66299E-01-1.72843E-13 8.14876E-14
 -1      3470 2.00177E+01 1.10824E-01 1.74056E-04 2.28152E-01-8.33517E-14 1.01811E-13
 -1      3471 1.99777E+01 1.71262E-01-1.29852E-03 2.86897E-01-1.43568E-13 2.30696E-14
 -1      3472 1.99702E+01 2.06624E-01 9.91650E-04 3.13751E-01-1.10950E-13 5.85129E-14
 -1      3473 1.99732E+01 1.75779E-01 4.36135E-04 2.62334E-01-1.68380E-13 1.45653E-13
 -1      3474 1.99385E+01 2.42996E-01-1.62315E-03 3.42348E-01-8.07767E-14 1.04654E-13
 -1      3475 1.99285E+01 2.83519E-01 1.04644E-03 3.78487E-01-4.55271E-14 1.24778E-13
 -1      3476 1.99204E+01 2.52680E-01 7.51274E-04 3.10561E-01-5.68110E-14 1.61531E-13
 -1      3477 1.98890E+01 3.24531E-01-1.99117E-03 4.16224E-01-2.82918E-14 1.32710E-13
 -1      3478 1.98750E+01 3.69557E-01 1.09767E-03 4.62760E-01-2.13412E-14 1.33571E-13
 -1      3479 1.98551E+01 3.40702E-01 1.12961E-03 3.75079E-01-3.72754E-14 2.03695E-13
 -1      3480 1.98251E+01 4.14204E-01-2.40983E-03 5.10697E-01-1.34307E-15 1.34517E-13
 -1      3481 1.98056E+01 4.62309E-01 1.15979E-03 5.68557E-01 7.58779E-15 1.27684E-13
 -1      3482 1.97727E+01 4.38315E-01 1.57968E-03 4.57885E-01-4.75621E-14 2.37746E-13
 -1      3483 1.97426E+01 5.08532E-01-2.88426E-03 6.27753E-01-1.09823E-13 1.16521E-13
 -1      3484 1.97162E+01 5.56942E-01 1.27166E-03 6.97685E-01-1.21696E-13 5.87136E-14
 -1      3485 1.96676E+01 5.42432E-01 2.10248E-03 5.60853E-01-5.96042E-14 2.33135E-13
 -1      3486 1.96370E+01 6.00901E-01-3.41779E-03 7.69381E-01-6.23617E-15 1.94924E-14
 -1      3487 1.96033E+01 6.44645E-01 1.52063E-03 8.52040E-01 1.12926E-13 4.88090E-14
 -1      3488 1.95340E+01 6.47250E-01 2.68217E-03 6.86022E-01-1.03145E-13 1.04675E-13
 -1      3489 1.95053E+01 6.79684E-01-4.00975E-03 9.38080E-01 1.89245E-13-6.98813E-15
 -1      3490 1.94655E+01 7.10405E-01 2.07914E-03 1.03428E+00 2.14748E-13-5.71921E-14
 -1      3491 1.93664E+01 7.42643E-01 3.26972E-03 8.36281E-01 8.48070E-14 7.79733E-14
 -1      3492 1.93473E+01 7.25595E-01-4.64213E-03 1.13791E+00 2.62595E-13-1.70022E-13
 -1      3493 1.93070E+01 7.29919E-01 3.25201E-03 1.24912E+00 2.08596E-13-1.33190E-13
 -1      3494 1.91605E+01 8.11927E-01 3.75388E-03 1.01675E+00 1.63596E-13-1.27150E-14
 -1      3495 1.91701E+01 7.08131E-01-5.23224E-03 1.37628E+00 9.63834E-14-1.39860E-13
 -1      3496 1.91424E+01 6.65541E-01 5.55824E-03 1.50530E+00 1.14464E-14-1.44392E-13
 -1      3497 1.89159E+01 8.28770E-01 3.91271E-03 1.23720E+00 1.51274E-13-1.46611E-13
 -1      3498 1.89943E+01 5.81140E-01-5.43176E-03 1.66647E+00-3.55985E-14-1.29704E-13
 -1      3499 1.90068E+01 4.61317E-01 9.86112E-03 1.81768E+00-2.67035E-14-9.65405E-14
 -1      3500 1.86402E+01 7.52955E-01 3.37331E-03 1.51583E+00 8.43059E-15-1.58798E-13
 -1      3501 1.88681E+01 2.77526E-01-4.23412E-03 2.03022E+00-7.09618E-14-1.28500E-13
 -1      3502 1.89705E+01 3.44367E-02 1.58822E-02 2.20802E+00-6.15278E-14-8.06000E-14
 -1      3503 1.83568E+01 5.24863E-01 1.42801E-03 1.88448E+00-7.04367E-14-1.34289E-13
 -1      3504 1.88952E+01-2.91719E-01 3.23086E-03 2.48801E+00 6.83203E-14-7.78914E-14
 -1      3505 1.91658E+01-7.21908E-01 2.46062E-02 2.69283E+00 1.80771E-13-1.28301E-13
 -1      3506 1.81246E+01 4.55850E-02-5.77283E-03 2.39056E+00 3.88743E-14-1.95291E-13
 -1      3507 1.92642E+01-1.21695E+00 3.44397E-02 3.03025E+00 2.14000E-13-6.54750E-14
 -1      3508 1.97467E+01-1.95244E+00 1.56907E-02 3.24314E+00 1.72072E-13 2.09390E-14
 -1      3509 1.80739E+01-8.56625E-01-3.42570E-02 3.07721E+00 1.84672E-13-6.89986E-14
 -1      3510 1.92338E+01-7.76942E-01 2.49497E-02-2.79648E+00 8.40747E-14 6.14088E-14
 -1      3511 1.89704E+01-3.57587E-01 9.81390E-04-2.61250E+00 1.23809E-13 7.52479E-14
 -1      3512 1.90617E+01-1.94126E-02 1.68830E-02-2.33677E+00 2.24421E-14 4.81616E-14
 -1      3513 1.89669E+01 2.25302E-01-4.63489E-03-2.16669E+00 1.54473E-14-7.65546E-14
 -1      3514 1.82425E+01-1.63471E-02-5.99122E-03-2.50677E+00-3.84458E-15-1.28525E-13
 -1      3515 1.91193E+01 4.16950E-01 9.52399E-03-1.96183E+00 1.36413E-15-1.45558E-13
 -1      3516 1.91153E+01 5.49612E-01-5.54005E-03-1.81503E+00 1.18859E-14-2.98139E-13
 -1      3517 1.85027E+01 4.69939E-01 6.78946E-05-2.01506E+00-2.75103E-14-7.78219E-15
 -1      3518 1.92770E+01 6.49677E-01 4.56689E-03-1.65855E+00 1.00776E-13-3.15598E-13
 -1      3519 1.93202E+01 7.18185E-01-3.53653E-03-1.53046E+00 1.99860E-13-1.93156E-13
 -1      3520 1.88152E+01 7.27774E-01 2.95755E-03-1.65618E+00 2.86937E-14 1.47111E-14
 -1      3521 2.40232E+01-3.86537E+00 2.32787E-02-1.90743E+00-1.13979E-13-6.11880E-14
 -1      3522 2.52993E+01-3.46443E+00-4.66035E-02-6.15670E-01-5.22542E-15-1.60429E-13
 -1      3523 2.00358E+01 5.95300E-02 9.47559E-04-2.34989E-01 3.42177E-14 9.76786E-14
 -1      3524 2.00350E+01 4.02054E-02-6.47518E-04-2.24495E-01 3.23574E-14 9.70798E-14
 -1      3525 2.00497E+01 2.41977E-02 8.28330E-04-2.16914E-01 2.85292E-14 1.12363E-13
 -1      3526 2.00507E+01 9.95645E-03-4.08733E-04-2.10991E-01 2.60667E-14 1.33068E-13
 -1      3527 2.00553E+01 3.92593E-02-1.94240E-04-2.14309E-01 4.19537E-14 1.58593E-13
 -1      3528 2.00093E+01 1.54550E-01 1.18648E-03-3.08481E-01 1.65336E-15 1.83982E-13
 -1      3529 2.00062E+01 1.27545E-01-1.07833E-03-2.84244E-01 5.08373E-14 1.72890E-13
 -1      3530 1.99947E+01 2.10784E-01 1.32023E-03-3.69077E-01 4.08960E-14 1.66411E-13
 -1      3531 1.99906E+01 1.81361E-01-1.28486E-03-3.36238E-01 3.40834E-14 1.81379E-13
 -1      3532 1.99700E+01 1.93060E-01 2.54813E-04-3.15798E-01 5.28306E-15 1.82488E-13
 -1      3533 1.99783E+01 2.69342E-01 1.47262E-03-4.48209E-01-4.36480E-14 1.00182E-13
 -1      3534 1.99732E+01 2.39105E-01-1.47866E-03-4.06029E-01 1.89532E-14 1.52323E-13
 -1      3535 1.99347E+01 2.58005E-01 3.94819E-04-3.80171E-01 3.74865E-14 2.07708E-13
 -1      3536 1.99605E+01 3.25577E-01 1.65488E-03-5.47099E-01-7.95965E-15 2.77614E-14
 -1      3537 1.99538E+01 2.97139E-01-1.63875E-03-4.95275E-01-2.13862E-14 4.14499E-14
 -1      3538 1.98939E+01 3.24726E-01 5.01182E-04-4.63546E-01 4.62243E-15 7.17166E-14
 -1      3539 1.99431E+01 3.72032E-01 1.88842E-03-6.66101E-01-2.17069E-14 1.98043E-13
 -1      3540 1.99332E+01 3.49564E-01-1.72567E-03-6.04947E-01-3.80942E-14 8.37105E-14
 -1      3541 1.98473E+01 3.87489E-01 5.30083E-04-5.67603E-01-6.98411E-14 5.12844E-14
 -1      3542 1.99308E+01 3.97178E-01 2.21046E-03-8.04370E-01 1.26705E-14 2.10583E-13
 -1      3543 1.99148E+01 3.87072E-01-1.67245E-03-7.35074E-01 4.94397E-14 2.12644E-13
 -1      3544 1.97965E+01 4.37254E-01 4.04021E-04-6.93584E-01-5.39802E-15 1.01180E-13
 -1      3545 1.99329E+01 3.83956E-01 2.67388E-03-9.59357E-01-8.32349E-14 1.80148E-13
 -1      3546 1.99054E+01 3.95584E-01-1.36919E-03-8.84351E-01-2.95169E-14 1.33989E-13
 -1      3547 1.97464E+01 4.60268E-01-8.09062E-06-8.42214E-01 3.43025E-14 1.82487E-13
 -1      3548 1.99661E+01 3.08374E-01 3.32338E-03-1.12597E+00-4.36797E-14 1.49123E-13
 -1      3549 1.99180E+01 3.54784E-01-6.36419E-04-1.04952E+00-8.52561E-14 1.81291E-13
 -1      3550 1.97072E+01 4.36446E-01-9.21716E-04-1.01354E+00-5.12117E-14 1.45700E-13
 -1      3551 2.00585E+01 1.38868E-01 4.12531E-03-1.29481E+00-3.48520E-14 8.35050E-14
 -1      3552 1.99752E+01 2.36989E-01 8.15468E-04-1.22412E+00-3.83285E-14 1.42080E-13
 -1      3553 1.96978E+01 3.37735E-01-2.68143E-03-1.20636E+00-3.95173E-14 1.09505E-13
 -1      3554 2.02536E+01-1.61782E-01 4.81065E-03-1.44849E+00-1.34486E-13 1.82680E-13
 -1      3555 2.01143E+01 7.53816E-03 3.45840E-03-1.39565E+00-9.28954E-14 9.93332E-14
 -1      3556 1.97510E+01 1.27217E-01-5.79086E-03-1.41638E+00-7.78290E-14 7.93420E-14
 -1      3557 2.06127E+01-6.27951E-01 4.61800E-03-1.55406E+00-1.09253E-13 9.86281E-14
 -1      3558 2.03917E+01-3.70653E-01 7.96443E-03-1.53953E+00-7.93278E-14 1.79461E-13
 -1      3559 1.99200E+01-2.38990E-01-1.08943E-02-1.63099E+00-8.39677E-14 2.90033E-14
 -1      3560 2.12190E+01-1.26571E+00 5.44785E-03-1.54871E+00-2.28192E-13 7.32077E-14
 -1      3561 2.08838E+01-9.22478E-01 1.53348E-02-1.60806E+00-1.90000E-13 4.49187E-14
 -1      3562 2.02849E+01-8.02239E-01-1.84119E-02-1.81834E+00-1.88241E-13-4.88528E-14
 -1      3563 2.21362E+01-2.03140E+00-3.74200E-03-1.33565E+00-4.04926E-13 1.74039E-13
 -1      3564 2.16786E+01-1.64091E+00 2.27610E-02-1.52529E+00-3.43778E-13 7.32251E-14
 -1      3565 2.09352E+01-1.55976E+00-2.82339E-02-1.90800E+00-3.21851E-13-6.53314E-14
 -1      3566 2.33925E+01-2.61478E+00-2.71125E-03-7.19243E-01-8.23421E-14 4.90389E-14
 -1      3567 2.28731E+01-2.34661E+00 4.48935E-02-1.08576E+00-2.17545E-13 9.83037E-14
 -1      3568 2.20854E+01-2.51422E+00-4.07665E-02-1.77119E+00-2.84552E-13-1.35843E-13
 -1      3569 2.47964E+01-2.61557E+00-1.02209E-02 2.54427E-01-8.79722E-14 5.94112E-14
 -1      3570 2.42651E+01-2.79050E+00 2.96246E-02-3.23053E-01-6.89357E-14 5.12724E-14
 -1      3571 1.24744E+01 4.04698E-01 3.61357E-02 2.09559E+00 2.81241E-13 1.28973E-13
 -1      3572 1.20388E+01 7.35775E-01 2.72157E-02 6.40158E-01 1.03752E-13 7.74728E-14
 -1      3573 2.45797E+01-2.72313E+00 4.62581E-02 1.00020E-01 2.58439E-14 3.37889E-14
 -1      3574 2.50215E+01-2.37873E+00-4.03824E-03-5.08079E-01-1.36566E-14 1.09496E-14
 -1      3575 2.11963E+01-1.24691E+00 1.85251E-02 1.73177E+00 1.27737E-13 8.38204E-14
 -1      3576 2.15756E+01-1.61892E+00 2.20997E-03 1.62084E+00 1.68485E-15-3.36118E-14
 -1      3577 2.06050E+01-6.16443E-01 1.08466E-02 1.72673E+00-1.22804E-13 2.19685E-13
 -1      3578 2.08637E+01-9.15441E-01 4.71120E-03 1.71047E+00 1.33986E-13 1.98784E-13
 -1      3579 2.05771E+01-1.14065E+00-2.09897E-02 2.00531E+00 8.01326E-14 3.50408E-13
 -1      3580 2.02657E+01-1.51556E-01 5.30655E-03 1.61526E+00-1.56971E-14 1.45987E-13
 -1      3581 2.04301E+01-3.65449E-01 5.06340E-03 1.65221E+00-4.87588E-14 7.19432E-14
 -1      3582 2.01256E+01-4.87190E-01-1.47957E-02 1.85731E+00-4.59924E-14 3.23262E-13
 -1      3583 2.00965E+01 1.69604E-01 3.35265E-03 1.45456E+00-2.98204E-14-7.67857E-14
 -1      3584 2.01918E+01 2.37403E-02 4.35839E-03 1.52170E+00-3.94111E-14 3.30616E-14
 -1      3585 1.99107E+01-2.35576E-02-9.76013E-03 1.65718E+00 7.87917E-15 9.26179E-14
 -1      3586 1.91612E+01 9.91422E-01 2.29148E-03 7.74148E-01-1.01988E-14 3.59021E-13
 -1      3587 1.86177E+01 1.20348E+00-1.59720E-03-1.63425E-01 1.44924E-13-6.96192E-14
 -1      3588 1.86205E+01 1.19157E+00-1.29739E-03 7.40999E-02 1.80125E-13-2.37663E-15
 -1      3589 1.22128E+01 1.34897E-01 5.17096E-02-2.36672E+00-2.48306E-13-3.08226E-14
 -1      3590 1.36080E+01-7.45178E-01 1.16092E-02-3.73601E+00-5.39881E-14 2.06613E-13
 -1      3591 1.75071E+01-2.25365E+00-5.09156E-02 4.32982E+00-4.16119E-13-2.80997E-13
 -1      3592 1.61183E+01-1.41326E+00 8.72626E-02 4.16548E+00-4.52025E-13 5.00260E-14
 -1      3593 1.98975E+01-1.96635E+00 3.48778E-02-3.29804E+00 2.15514E-13 2.20136E-13
 -1      3594 1.93274E+01-1.28600E+00 2.78127E-02-3.14292E+00 1.11095E-13 1.23161E-13
 -1      3595 1.81910E+01-8.61498E-01-5.30373E-03-3.17304E+00 1.33704E-13-1.15810E-13
 -1      3596 1.91709E+01-2.60164E+00-1.56166E-02 3.92263E+00 2.71288E-13 1.30798E-13
 -1      3597 1.71674E+01-1.62278E+00 9.26735E-02 4.06171E+00 3.88374E-13 5.79987E-14
 -1      3598 2.21292E+01-1.99754E+00 2.69969E-02 1.51955E+00-2.97999E-14-1.25003E-13
 -1      3599 2.26298E+01-2.35288E+00-2.66343E-03 1.24722E+00 3.91510E-14-5.98333E-14
 -1      3600 2.13849E+01-1.98443E+00-3.07144E-02 2.00950E+00-4.07440E-14 8.79132E-14
 -1      3601 1.53073E+01-1.10831E+00 8.85267E-03 3.92079E+00 3.80855E-13-5.87308E-14
 -1      3602 1.35623E+01-7.31446E-02 4.98786E-02 2.96258E+00 3.17507E-13-3.72237E-14
 -1      3603 1.42646E+01 3.52700E-01 6.33559E-02 2.25385E+00 2.39203E-13 2.78250E-14
 -1      3604 1.67772E+01-7.51003E-01 4.18006E-02 3.34742E+00 3.17010E-13-1.94064E-14
 -1      3605 2.32737E+01-2.57543E+00 4.35641E-02 1.00079E+00 5.98820E-14-1.49591E-13
 -1      3606 2.38161E+01-2.70841E+00 2.67838E-03 5.32718E-01 7.73682E-14 6.38439E-14
 -1      3607 2.37452E+01-3.30246E+00-6.42708E-02 1.19375E+00 3.27399E-14-1.63505E-13
 -1      3608 2.24960E+01-2.83627E+00-5.12344E-02 1.77353E+00 1.72709E-14-1.02869E-15
 -1      3609 2.17504E+01-3.48510E+00-6.45741E-02 3.02857E+00-2.06921E-13-2.12243E-14
 -1      3610 1.96721E+01-2.78658E+00 8.78069E-02 4.01578E+00-3.12943E-13-2.14608E-13
 -1      3611 2.03219E+01 7.42146E-01 4.56075E-03-2.40979E-01-2.65078E-14-1.88933E-15
 -1      3612 2.03007E+01 5.76340E-01-3.22027E-03-1.40417E-01 6.40291E-15-1.13838E-14
 -1      3613 2.00377E+01 2.20330E+00-3.36341E-03-1.63159E-01 4.08340E-14 3.38149E-14
 -1      3614 2.00498E+01 2.16654E+00-4.24694E-03-2.84848E-01 1.45061E-14 2.89154E-14
 -1      3615 2.01661E+01 1.85458E+00 5.31716E-03-2.85352E-01 1.28185E-14 2.95640E-14
 -1      3616 1.53643E+01-1.51416E+00 8.39618E-02-4.35901E+00 1.82613E-13 2.80526E-13
 -1      3617 1.77110E+01-2.56456E+00 1.71852E-02-4.52934E+00 3.54279E-13 1.38042E-13
 -1      3618 2.00227E+01 1.03503E-01 1.06418E-03-2.64570E-01 4.95035E-14 1.22797E-13
 -1      3619 2.00206E+01 7.99415E-02-8.66951E-04-2.47872E-01 1.67816E-14 1.18830E-13
 -1      3620 2.00287E+01 8.15866E-02-4.77446E-05-2.35467E-01 2.06946E-14 1.24038E-13
 -1      3621 2.00008E+01 1.33473E-01 1.03950E-04-2.68368E-01 2.99805E-15 1.65298E-13
 -1      3622 2.01069E+01-8.20290E-03 2.91843E-04-1.93663E-01-2.34487E-14 9.89852E-14
 -1      3623 2.01171E+01 2.10206E-03 6.17818E-04-1.87136E-01 6.52275E-15 9.55993E-14
 -1      3624 2.03049E+01 4.45764E-01 2.54195E-03-7.03035E-02 8.66429E-15-3.01156E-15
 -1      3625 2.02803E+01 3.35278E-01-2.08077E-03-2.17684E-03-1.91952E-14 4.12810E-17
 -1      3626 2.03208E+01 3.39432E-01-1.96232E-04 6.65399E-03-1.97050E-14 5.93967E-15
 -1      3627 1.46157E+01-1.03474E+00 6.18388E-02-4.05684E+00-3.08493E-13-1.02002E-13
 -1      3628 1.69223E+01-2.15851E+00 7.70250E-03-4.47764E+00-2.54199E-13-1.45023E-14
 -1      3629 1.14038E+01 5.21518E-01-7.77836E-03 8.28825E-01-6.19797E-13 3.53051E-14
 -1      3630 1.14318E+01 5.46295E-01 4.99442E-02-9.51808E-01-3.95949E-13-1.18974E-13
 -1      3631 2.02393E+01 3.27731E-01-1.98574E-03 1.30331E-02 6.90882E-14 8.91672E-14
 -1      3632 2.02684E+01 4.35721E-01 2.84797E-03 8.82931E-02 4.47590E-14 6.53162E-14
 -1      3633 2.02773E+01 1.27738E+00 2.01178E-03-5.56892E-01-1.38983E-14-3.04447E-14
 -1      3634 2.02852E+01 9.74857E-01-4.94965E-03-3.68415E-01-1.86353E-14-3.14833E-15
 -1      3635 2.02806E+01 1.14309E+00-5.18225E-03 4.94348E-01 7.55162E-14 5.78312E-14
 -1      3636 2.02708E+01 1.28876E+00 1.18304E-04 4.55215E-01 6.96071E-14 5.49914E-14
 -1      3637 1.57164E+01-6.71920E-01 4.44689E-02 3.37201E+00-4.36595E-13 6.50036E-14
 -1      3638 2.02026E+01 1.72123E-01-1.20033E-03-8.73183E-02 1.80387E-14 1.20195E-13
 -1      3639 2.02286E+01 2.42617E-01 2.46936E-03-4.03876E-02 5.83626E-14 9.77143E-14
 -1      3640 2.02865E+01 3.37231E-01-6.20851E-04 3.41688E-03 4.12640E-14 1.29387E-13
 -1      3641 2.53030E+01 2.25358E+00-5.22613E-02-2.06697E+00 2.12039E-13 3.04270E-15
 -1      3642 2.57214E+01 1.05641E+00-2.47982E-02-2.27416E+00 1.68282E-13-1.60573E-13
 -1      3643 1.83671E+01-2.37774E+00-2.96455E-03-4.20206E+00 3.06342E-13 6.79665E-15
 -1      3644 1.22522E+01 9.15480E-01 9.14987E-02-1.08988E-01 1.19444E-13 1.25028E-13
 -1      3645 1.26635E+01 7.50027E-01 1.56383E-02-9.51088E-01 1.01838E-13 2.02977E-13
 -1      3646 1.31962E+01 9.09611E-01 3.74553E-02 6.15865E-01 2.05194E-13 8.96366E-14
 -1      3647 2.21752E+01-3.91521E+00 5.68323E-02 3.41222E+00 1.76324E-13 3.44521E-13
 -1      3648 1.76934E+01-1.55870E+00 1.26387E-02-3.70881E+00-1.71381E-13-1.67054E-13
 -1      3649 1.85297E+01-2.43741E+00 6.61766E-02-4.16221E+00-2.35716E-13-1.52656E-13
 -1      3650 1.98112E+01-2.75781E+00-5.10801E-02-3.59942E+00-2.41831E-13-2.42098E-13
 -1      3651 2.11078E+01-3.14767E+00 5.57390E-02 3.48005E+00 1.66158E-13 2.22832E-13
 -1      3652 2.01084E+01 7.39298E-02-1.23477E-03-1.49558E-01-1.29430E-14 7.16653E-14
 -1      3653 1.94869E+01 7.36726E-01 1.35515E-03-1.45181E+00 2.42368E-13-3.06431E-13
 -1      3654 1.95540E+01 7.63576E-01-1.72031E-03-1.35194E+00 1.66747E-13-4.66961E-13
 -1      3655 1.94310E+01 8.34573E-01 1.25133E-03-1.29253E+00 6.76019E-14-5.59135E-13
 -1      3656 1.91441E+01 8.26512E-01 5.47731E-03-1.43497E+00 1.23607E-13-9.82621E-14
 -1      3657 2.01765E+01 1.87117E-02-6.86316E-04-1.69825E-01-1.98862E-14 5.31345E-14
 -1      3658 2.01343E+01 1.82710E-02-3.97368E-05-1.78451E-01 8.96038E-15 5.29529E-14
 -1      3659 2.01492E+01 4.26485E-02 1.14559E-03-1.64483E-01-2.25606E-14 6.88067E-14
 -1      3660 2.02648E+01 5.39102E-01-2.25327E-03 1.57981E-01 5.33016E-14 4.66701E-14
 -1      3661 2.02835E+01 6.54866E-01-2.86193E-04 2.54519E-01 5.78701E-14 4.88219E-14
 -1      3662 2.03054E+01 5.53427E-01-1.10922E-04 1.30611E-01 3.73824E-14 8.24119E-14
 -1      3663 2.00822E+01 8.48062E-03-3.34566E-04-2.01622E-01 5.86313E-14 1.43667E-13
 -1      3664 2.00654E+01-7.13017E-04 6.93545E-04-2.06948E-01 4.18730E-14 1.31552E-13
 -1      3665 2.00688E+01-8.72708E-03-1.33600E-04-2.03589E-01 6.15673E-14 1.36108E-13
 -1      3666 2.35366E+01-3.13650E+00-3.45553E-02-1.19980E+00-4.93620E-14-5.61114E-14
 -1      3667 2.59324E+01-1.81595E+00 2.67566E-02-1.20114E+00-3.73659E-15-1.27148E-13
 -1      3668 1.92740E+01 7.83206E-01-4.70743E-03 1.07695E+00-1.78244E-13 3.36675E-13
 -1      3669 1.94490E+01 7.08356E-01 5.29755E-03 1.15906E+00-1.38927E-13 2.36689E-14
 -1      3670 1.89118E+01 9.88511E-01-6.50093E-03 7.72498E-01 2.87839E-14 3.87265E-13
 -1      3671 1.90825E+01 9.07989E-01 3.91430E-03 9.37300E-01-5.67656E-15 4.99900E-13
 -1      3672 1.90650E+01 7.94864E-01 2.47286E-03 1.09627E+00 7.90860E-14 5.62382E-13
 -1      3673 1.31562E+01 5.44530E-01 8.57979E-02-1.55234E+00-2.20256E-13-2.04722E-13
 -1      3674 1.86716E+01 1.18187E+00-4.56386E-03-4.42430E-01 1.56411E-13-2.94105E-13
 -1      3675 1.84338E+01 1.19201E+00 3.10711E-03-3.18554E-01 8.99846E-14-2.77918E-13
 -1      3676 1.87684E+01 1.14706E+00-6.42396E-04-6.60851E-01 1.32988E-13-4.34160E-13
 -1      3677 1.86760E+01 1.14048E+00-5.07345E-03 3.38326E-01 2.03920E-13 1.60886E-13
 -1      3678 1.87758E+01 1.09026E+00 1.97638E-03 5.56706E-01 6.01040E-14 2.41029E-13
 -1      3679 1.86752E+01 1.01328E+00 3.29910E-03 7.34634E-01 2.13418E-14 3.15601E-13
 -1      3680 1.84495E+01 1.15854E+00 5.53915E-03 2.42530E-01 6.18666E-14 2.74521E-14
 -1      3681 2.00842E+01-1.27306E-02 5.24193E-04-2.00937E-01 3.37506E-14 1.21555E-13
 -1      3682 2.00905E+01-1.28335E-02 2.00507E-04-1.97618E-01 3.52468E-15 1.14605E-13
 -1      3683 2.01421E+01-6.56377E-03-5.86766E-04-1.84920E-01-6.00932E-15 8.83578E-14
 -1      3684 2.01108E+01-8.08418E-03-4.66381E-04-1.93457E-01 3.16991E-14 1.12372E-13
 -1      3685 1.54948E+01-7.84263E-01 6.97148E-02-3.57467E+00 1.15856E-13 1.50397E-13
 -1      3686 2.02102E+01 1.64273E+00-3.40177E-03 1.30694E-01 5.80626E-14 3.34326E-14
 -1      3687 2.02064E+01 1.66281E+00-2.65872E-03 4.00485E-02 5.90351E-14 2.09370E-14
 -1      3688 2.02076E+01 1.69763E+00 5.80000E-03 4.60346E-01 6.38416E-14 2.20144E-14
 -1      3689 2.02188E+01 1.61001E+00-1.96280E-03 2.01430E-01 5.14778E-14 2.18459E-14
 -1      3690 2.02930E+01 1.39090E+00 5.07595E-03 1.34086E-01 4.16618E-14 2.63882E-14
 -1      3691 2.02286E+01 1.55032E+00-4.35449E-03 2.84973E-01 4.98054E-14-3.34699E-15
 -1      3692 1.91146E+01-2.08133E+00 5.03691E-02 3.59718E+00-3.56598E-13-1.12446E-13
 -1      3693 2.01454E+01 1.92635E+00 5.00084E-03-9.49862E-02 4.62758E-14 3.27678E-14
 -1      3694 2.03120E+01 9.79868E-01-6.42523E-04-3.12052E-01-7.26025E-15-9.02951E-16
 -1      3695 2.55329E+01-2.51919E-01-7.90785E-02-1.93735E+00 1.97089E-13-1.07681E-13
 -1      3696 2.03362E+01 5.83700E-01 1.01224E-04-1.13546E-01-1.14668E-14 2.21728E-14
 -1      3697 2.02173E+01 1.61313E+00-2.11392E-03-1.96667E-01 1.95909E-14 2.03168E-14
 -1      3698 2.02275E+01 1.55630E+00-3.90834E-03-2.80457E-01 1.82220E-14 3.06413E-14
 -1      3699 2.33463E+01-3.42424E+00 7.45402E-02 2.03423E+00-6.58974E-14-7.61197E-14
 -1      3700 1.32140E+01 5.71361E-01 8.06667E-02 1.38771E+00-4.73700E-13 7.61995E-14
 -1      3701 2.19738E+01-2.96824E+00 3.18394E-03 2.46336E+00-5.50063E-14 1.10601E-13
 -1      3702 1.37073E+01 2.89555E-01 4.01841E-03-2.36584E+00-3.30786E-14 8.89532E-14
 -1      3703 1.40455E+01-3.34644E-01 6.24635E-02-3.38431E+00-1.63146E-13 2.32279E-14
 -1      3704 1.57522E+01-5.21386E-01 2.51015E-02-3.22260E+00-9.35077E-14 4.25007E-15
 -1      3705 2.55510E+01-2.42210E+00 2.00775E-02 5.79572E-01-4.12240E-14-5.36116E-14
 -1      3706 2.21179E+01-3.12925E+00 5.28484E-02-2.57574E+00-1.72569E-13-1.98181E-13
 -1      3707 2.31912E+01-3.64087E+00 1.51373E-02-2.21973E+00-1.20938E-13-1.23613E-13
 -1      3708 2.02472E+01 1.45866E+00 2.73568E-03-6.05168E-01-2.17306E-14-2.79836E-14
 -1      3709 1.67798E+01-7.65151E-01-1.95893E-02 3.23314E+00-2.15014E-13-1.06705E-13
 -1      3710 1.54462E+01 3.06637E-02 5.79703E-02 2.73652E+00-2.66865E-13 4.16169E-13
 -1      3711 2.03019E+01 1.09716E-01 9.83126E-04 1.04610E-01 7.59288E-15 3.39760E-14
 -1      3712 2.02797E+01 6.71415E-02-4.36092E-04 1.23436E-01 2.79013E-16 3.16028E-14
 -1      3713 2.02579E+01 3.67255E-02 5.93833E-04 1.33746E-01-6.45741E-15 3.79085E-14
 -1      3714 2.02365E+01 1.53075E-02-3.48456E-05 1.44395E-01-7.64735E-15 4.06305E-16
 -1      3715 2.03013E+01 6.45403E-02-2.57609E-04 1.09507E-01-7.53410E-15 1.72690E-15
 -1      3716 2.02120E+01 2.68872E-03 2.83655E-04 1.49864E-01 3.63210E-15 3.99327E-15
 -1      3717 2.01919E+01-2.84114E-03 2.34992E-04 1.56135E-01-8.28344E-16-3.54377E-14
 -1      3718 2.02532E+01 1.61077E-02-3.35578E-04 1.27400E-01-2.06461E-14 1.82111E-14
 -1      3719 2.01660E+01-1.93918E-03-4.49156E-06 1.59543E-01-3.18580E-14-1.66654E-14
 -1      3720 2.01471E+01 4.76969E-03 4.08966E-04 1.64498E-01-4.66080E-14-3.65105E-14
 -1      3721 2.02027E+01 2.27562E-03-2.97387E-04 1.38088E-01-2.52301E-15 3.05912E-14
 -1      3722 2.01200E+01 1.62438E-02-2.75365E-04 1.68116E-01-2.69952E-14-5.89376E-14
 -1      3723 2.01017E+01 3.26993E-02 5.08941E-04 1.74193E-01-1.61210E-14-1.21534E-14
 -1      3724 2.01507E+01 1.51536E-02-1.83016E-04 1.46498E-01-3.97578E-14 4.14414E-14
 -1      3725 2.00730E+01 5.27752E-02-5.41495E-04 1.79821E-01 1.71609E-14 4.27748E-14
 -1      3726 2.00545E+01 7.73844E-02 5.55886E-04 1.88951E-01-1.06177E-14 1.10516E-13
 -1      3727 2.00969E+01 4.93087E-02-2.55460E-06 1.56609E-01 3.77129E-14 4.87182E-14
 -1      3728 2.00230E+01 1.04875E-01-8.15756E-04 1.98030E-01-4.21752E-14 1.69662E-13
 -1      3729 2.00030E+01 1.36708E-01 5.66259E-04 2.11796E-01-1.07835E-13 1.96319E-13
 -1      3730 2.00396E+01 1.01187E-01 2.38004E-04 1.71533E-01 6.99902E-15 1.26616E-13
 -1      3731 1.99670E+01 1.70920E-01-1.10761E-03 2.25532E-01-1.76483E-13 2.38152E-13
 -1      3732 1.99439E+01 2.09425E-01 5.44868E-04 2.45250E-01-1.56214E-13 2.29230E-13
 -1      3733 1.99757E+01 1.68635E-01 5.35443E-04 1.93809E-01-9.08882E-14 1.92753E-13
 -1      3734 1.99014E+01 2.49914E-01-1.43051E-03 2.64647E-01-1.01974E-13 2.50898E-13
 -1      3735 1.98733E+01 2.94675E-01 4.93598E-04 2.91421E-01-4.13925E-14 2.88799E-13
 -1      3736 1.99017E+01 2.50347E-01 9.02184E-04 2.25504E-01-1.11576E-13 3.22230E-13
 -1      3737 1.98216E+01 3.40989E-01-1.79826E-03 3.17331E-01-2.42045E-14 2.47752E-13
 -1      3738 1.97862E+01 3.91445E-01 4.14158E-04 3.52092E-01-2.64840E-14 2.75464E-13
 -1      3739 1.98126E+01 3.45293E-01 1.34435E-03 2.68277E-01-5.59364E-14 3.58297E-13
 -1      3740 1.97220E+01 4.42806E-01-2.22557E-03 3.85265E-01-3.74672E-14 3.31984E-13
 -1      3741 1.96767E+01 4.97899E-01 3.13297E-04 4.28814E-01-3.40544E-14 3.25359E-13
 -1      3742 1.97028E+01 4.52176E-01 1.87624E-03 3.23485E-01-1.12826E-14 3.24978E-13
 -1      3743 1.95965E+01 5.52803E-01-2.73514E-03 4.69975E-01-4.86845E-14 3.35222E-13
 -1      3744 1.95385E+01 6.10549E-01 2.12581E-04 5.23064E-01-1.14860E-13 2.82656E-13
 -1      3745 1.95654E+01 5.68738E-01 2.51578E-03 3.92289E-01-5.02965E-14 3.74549E-13
 -1      3746 1.94377E+01 6.66254E-01-3.36658E-03 5.73098E-01-1.26185E-13 2.95253E-13
 -1      3747 1.93641E+01 7.23185E-01 1.65564E-04 6.36657E-01-5.57488E-14 3.02784E-13
 -1      3748 1.93925E+01 6.90957E-01 3.28527E-03 4.75901E-01-8.74356E-14 3.58941E-13
 -1      3749 1.92376E+01 7.75034E-01-4.19084E-03 6.97024E-01 2.93806E-14 2.72629E-13
 -1      3750 1.91461E+01 8.25481E-01 2.86474E-04 7.72652E-01 7.22649E-14 1.82108E-13
 -1      3751 1.91749E+01 8.12089E-01 4.21421E-03 5.76175E-01-5.20139E-14 3.95997E-13
 -1      3752 1.89878E+01 8.65996E-01-5.32879E-03 8.46209E-01 6.99869E-14 1.24921E-13
 -1      3753 1.88776E+01 9.01144E-01 7.95579E-04 9.37125E-01 9.91864E-14 6.94862E-14
 -1      3754 1.89018E+01 9.21500E-01 5.34462E-03 6.96840E-01 3.83314E-15 2.39749E-13
 -1      3755 1.86800E+01 9.18812E-01-6.96340E-03 1.02963E+00 1.42778E-13 3.14857E-14
 -1      3756 1.85536E+01 9.25417E-01 2.10138E-03 1.14229E+00 1.08365E-13-4.52865E-14
 -1      3757 1.85609E+01 1.00319E+00 6.73839E-03 8.45851E-01 3.97465E-14 1.11350E-13
 -1      3758 1.83077E+01 9.02886E-01-9.32672E-03 1.26495E+00 6.26710E-14-1.96795E-14
 -1      3759 1.81739E+01 8.61522E-01 4.89700E-03 1.41133E+00 2.53301E-14 2.01479E-14
 -1      3760 1.81373E+01 1.03384E+00 8.49770E-03 1.03951E+00 9.11867E-14 1.22545E-13
 -1      3761 1.78702E+01 7.72966E-01-1.22501E-02 1.58403E+00-3.60130E-14-1.17780E-13
 -1      3762 1.77506E+01 6.55499E-01 1.08241E-02 1.78399E+00-5.65436E-14-7.59889E-14
 -1      3763 1.76159E+01 9.79531E-01 1.15528E-02 1.31010E+00-2.44697E-14 4.88551E-14
 -1      3764 1.73758E+01 4.68229E-01-1.41480E-02 2.04610E+00-4.21744E-14-7.18943E-14
 -1      3765 1.73551E+01 2.17676E-01 2.39877E-02 2.32723E+00 3.12519E-14-5.78097E-14
 -1      3766 1.69768E+01 7.95408E-01 1.91571E-02 1.71017E+00-4.03642E-14-5.10811E-15
 -1      3767 1.67019E+01-2.09303E-01 9.53710E-03 2.87457E+00 2.05461E-13-6.30876E-14
 -1      3768 1.41351E+01 4.45534E-01-4.26732E-02 1.86690E+00-2.31182E-13 3.66124E-13
 -1      3769 1.35167E+01 9.14061E-01 3.53242E-02 4.63297E-01-3.83316E-13 8.11295E-14
 -1      3770 2.00599E+01 5.61548E-02 6.94349E-04-2.02230E-01 1.11908E-14 1.63922E-13
 -1      3771 2.00725E+01 3.56666E-02-4.97663E-04-1.93716E-01 5.46436E-14 1.57615E-13
 -1      3772 1.93042E+01 8.95278E-01-4.60995E-03-1.21407E+00 5.37416E-14-4.31567E-13
 -1      3773 1.88375E+01 9.18196E-01-2.20342E-03-1.28820E+00-6.31943E-14-2.24711E-13
 -1      3774 1.90119E+01 9.29179E-01-1.01426E-03-1.23157E+00-8.82332E-14-3.84366E-13
 -1      3775 1.79274E+01 5.92852E-01 1.11181E-02-1.89987E+00-9.94170E-15-6.35507E-14
 -1      3776 1.80584E+01 7.20097E-01-1.24725E-02-1.70259E+00 3.53051E-14-1.91175E-14
 -1      3777 1.83833E+01 8.23044E-01 5.33096E-03-1.53744E+00 9.05182E-14-8.66184E-14
 -1      3778 1.85335E+01 8.87312E-01-7.94503E-03-1.39097E+00 7.74360E-14-6.46025E-14
 -1      3779 1.78455E+01 9.24406E-01 8.16219E-03-1.41823E+00 3.10355E-14-3.07688E-13
 -1      3780 2.02481E+01 1.42440E+00-1.58851E-03-4.92162E-01-1.02091E-14-9.85778E-15
 -1      3781 2.03598E+01 7.12845E-01 4.69502E-04-1.44906E-01-4.90612E-15 1.85997E-14
 -1      3782 2.03566E+01 5.56779E-01-2.17393E-03-7.26310E-02-1.31226E-14 1.48690E-14
 -1      3783 1.98779E+01 3.06521E-01 1.00987E-03-3.72877E-01 8.05207E-15 9.39452E-14
 -1      3784 1.98951E+01 2.68375E-01-1.55042E-03-3.37037E-01 3.30095E-14 1.02309E-13
 -1      3785 1.99327E+01 2.32865E-01 9.14248E-04-3.07783E-01 6.57246E-14 8.26095E-14
 -1      3786 1.99476E+01 1.97326E-01-1.27281E-03-2.80608E-01 1.68231E-14 9.58183E-14
 -1      3787 1.98785E+01 2.78545E-01 7.55369E-04-2.99151E-01 4.71002E-14 1.31453E-14
 -1      3788 1.97399E+01 4.52993E-01 1.37374E-03-5.61525E-01-8.07041E-14 3.97182E-14
 -1      3789 1.97620E+01 4.17486E-01-2.11574E-03-5.05695E-01-6.94016E-14 6.28830E-14
 -1      3790 1.96573E+01 5.09798E-01 1.74361E-03-6.89316E-01 2.21938E-14 4.83134E-14
 -1      3791 1.96800E+01 4.82708E-01-2.37006E-03-6.22466E-01-3.43019E-14 2.41828E-15
 -1      3792 1.96064E+01 5.22478E-01 1.37769E-03-5.56075E-01-1.32496E-14 2.15976E-14
 -1      3793 1.95707E+01 5.37789E-01 2.36273E-03-8.42473E-01 4.86969E-15 1.39966E-13
 -1      3794 1.95904E+01 5.27088E-01-2.55884E-03-7.64098E-01 5.08963E-14 1.41076E-13
 -1      3795 1.94860E+01 5.83219E-01 1.37240E-03-6.88080E-01-2.11414E-14 6.34845E-14
 -1      3796 1.94909E+01 5.15849E-01 3.38092E-03-1.02382E+00-6.05240E-14 1.53486E-13
 -1      3797 1.94999E+01 5.32970E-01-2.60741E-03-9.33546E-01 1.43250E-14 1.69051E-13
 -1      3798 1.93542E+01 6.10770E-01 1.07637E-03-8.50382E-01-2.96631E-14 1.61692E-13
 -1      3799 1.94378E+01 4.14525E-01 4.96486E-03-1.23669E+00-6.97743E-14 1.53920E-13
 -1      3800 1.94231E+01 4.75329E-01-2.36157E-03-1.13453E+00-9.91705E-14 1.16295E-13
 -1      3801 1.92202E+01 5.81875E-01 2.46003E-04-1.04990E+00-6.67262E-14 7.65362E-14
 -1      3802 1.94470E+01 1.94469E-01 7.25105E-03-1.48370E+00-6.37056E-14 1.54686E-13
 -1      3803 1.93868E+01 3.20027E-01-1.48885E-03-1.37119E+00-1.34479E-14 1.95360E-13
 -1      3804 1.91026E+01 4.63898E-01-1.58250E-03-1.29636E+00-9.14549E-14 9.87065E-14
 -1      3805 1.95763E+01-1.94249E-01 9.60429E-03-1.76243E+00-2.86382E-14-2.52513E-14
 -1      3806 1.94382E+01 2.29577E-02 8.28747E-04-1.64560E+00-3.12486E-14 5.99135E-14
 -1      3807 1.90359E+01 2.12018E-01-5.28670E-03-1.60158E+00 5.01545E-14 1.47272E-13
 -1      3808 1.99123E+01-8.02263E-01 1.02995E-02-2.05194E+00-1.88457E-13-9.51213E-14
 -1      3809 1.96577E+01-4.64949E-01 7.06398E-03-1.94750E+00-1.21310E-13-3.17838E-14
 -1      3810 1.90840E+01-2.35564E-01-1.27268E-02-1.97479E+00-5.69379E-14 5.19739E-15
 -1      3811 2.06371E+01-1.64459E+00 2.04563E-02-2.26378E+00-3.14618E-13-1.80246E-13
 -1      3812 2.01783E+01-1.20559E+00 1.75131E-02-2.23232E+00-2.48252E-13-1.55074E-13
 -1      3813 1.93656E+01-9.40861E-01-2.20116E-02-2.40817E+00-1.83417E-13-1.64377E-13
 -1      3814 2.10959E+01-2.52820E+00 1.79412E-02-2.65325E+00-2.12349E-13-2.52387E-13
 -1      3815 2.04349E+01-1.97291E+00 3.17041E-02-2.69916E+00-3.13835E-13-2.27771E-13
 -1      3816 2.01665E+01 7.45791E-02-5.23223E-04-1.46658E-01-8.76546E-15 9.29238E-14
 -1      3817 2.01869E+01 1.18267E-01 1.77250E-03-1.19738E-01 1.28637E-14 1.02085E-13
 -1      3818 2.02137E+01 7.59953E-02-7.29479E-04-1.40276E-01-3.82283E-16 8.69504E-14
 -1      3819 1.33765E+01 8.00088E-01-5.29701E-03-8.02655E-01-2.15679E-13-2.79190E-13
 -1      3820 1.41233E+01 4.10067E-01-7.75356E-04-2.13197E+00-5.65153E-14-3.07268E-13
 -1      3821 2.00005E+01 4.46877E-01-3.66913E-03 1.20850E+00-1.48663E-13-2.72593E-13
 -1      3822 1.74462E+01 1.40353E-01 1.62164E-02-2.44316E+00 7.35265E-14-2.79409E-13
 -1      3823 1.75361E+01 3.98168E-01-1.45416E-02-2.15306E+00 8.06638E-14-1.54660E-13
 -1      3824 1.71627E+01 7.16662E-01 1.18603E-02-1.80739E+00 6.58918E-14-1.21427E-13
 -1      3825 1.99720E+01 3.58486E-01 5.99464E-04 1.33057E+00-1.27345E-13-5.28427E-14
 -1      3826 2.00625E+01 2.56277E-01 2.13215E-03 1.38905E+00-1.06290E-13-7.05646E-14
 -1      3827 1.99222E+01-7.92683E-01 1.07334E-02 2.19715E+00-1.00890E-13 6.21082E-13
 -1      3828 2.02451E+01-1.17694E+00 1.75841E-02 2.26937E+00-3.60202E-14 4.33699E-13
 -1      3829 1.98222E+01 2.58133E-01-5.99766E-03 1.47824E+00-1.17128E-13-8.33965E-14
 -1      3830 1.95394E+01 5.15751E-01 7.86348E-04 1.32982E+00-9.35362E-15-8.20119E-14
 -1      3831 1.96710E+01 5.50921E-01-2.05546E-03 1.24843E+00-1.81127E-13-5.61587E-14
 -1      3832 2.02560E+01 1.38392E+00-5.29638E-03 4.13612E-01 7.05920E-14 4.08141E-14
 -1      3833 2.02435E+01 1.48575E+00-1.08970E-03 3.45266E-01 5.65470E-14 2.04954E-14
 -1      3834 2.03045E+01 1.28880E+00 5.16408E-03 2.50412E-01 4.68765E-14 3.09241E-14
 -1      3835 2.03127E+01 1.11802E+00 4.61157E-03 3.34979E-01 6.99266E-14 5.05955E-14
 -1      3836 2.02741E+01 9.57809E-01 2.00933E-03 4.64274E-01 7.46833E-14 3.37548E-14
 -1      3837 2.02891E+01 8.25300E-01 2.31192E-03 3.36450E-01 6.32153E-14 4.13744E-14
 -1      3838 2.02096E+01 1.64509E+00-3.28558E-03-1.25192E-01 3.27398E-14 3.79265E-14
 -1      3839 2.02928E+01 1.39304E+00 5.13810E-03-1.30143E-01 1.85988E-14 4.53462E-14
 -1      3840 2.02061E+01 1.66334E+00-2.71014E-03-3.45444E-02 4.54398E-14 4.44384E-14
 -1      3841 2.02884E+01 1.42521E+00 5.04462E-03 2.21963E-03 5.31594E-14 4.80045E-14
 -1      3842 2.03038E+01 1.29384E+00 5.25201E-03-2.50450E-01 1.59424E-14 4.00270E-14
 -1      3843 2.02402E+01 1.49289E+00-1.27435E-03-3.44101E-01-9.38513E-17 2.32011E-14
 -1      3844 2.02545E+01 1.40088E+00-2.43301E-03-4.10760E-01-7.05244E-15 6.22573E-15
 -1      3845 1.90595E+01 1.00230E+00 3.10969E-03-1.07527E+00-1.09953E-14-4.19894E-13
 -1      3846 1.88716E+01 1.07900E+00-4.12079E-03-9.03630E-01 5.17148E-14-4.83728E-13
 -1      3847 1.84611E+01 1.01449E+00 6.34979E-03-1.17668E+00-6.02383E-14-3.68786E-13
 -1      3848 2.03004E+01 1.24147E+00 5.08364E-03-3.73609E-01 1.12885E-14-4.19865E-15
 -1      3849 2.03213E+01 9.59360E-01-2.95107E-03-2.47561E-01-1.01197E-15 2.74242E-15
 -1      3850 1.98475E+01 4.70803E-01 2.36362E-03 1.27951E+00-5.39869E-14-5.51489E-14
 -1      3851 1.95079E+01 4.38955E-01 1.31879E-03 1.42152E+00 6.53425E-14 3.55881E-14
 -1      3852 1.95481E+01 3.48181E-01 7.37983E-03 1.49384E+00 5.90809E-14 1.66794E-13
 -1      3853 1.92355E+01 5.80204E-01-5.94960E-03 1.33689E+00 1.38675E-13 1.87641E-13
 -1      3854 1.86130E+01 1.10501E+00 1.19252E-03-8.42422E-01 1.19595E-13-3.73305E-13
 -1      3855 2.03305E+01 1.11436E+00-1.25755E-03-1.71713E-01 2.13163E-14 4.93677E-14
 -1      3856 2.03315E+01 1.04595E+00-3.34464E-03-2.19729E-01 4.87978E-15 4.17155E-14
 -1      3857 1.94823E+01 1.97522E-01 1.08793E-03 1.65061E+00 8.75635E-14 3.08462E-13
 -1      3858 1.95590E+01 1.18338E-02 9.16971E-03 1.76134E+00 1.83087E-13 3.53628E-13
 -1      3859 1.91214E+01 3.82658E-01 1.34353E-03 1.58690E+00 2.08988E-13 3.93127E-13
 -1      3860 2.03636E+01 4.28309E-01 1.68284E-03-2.63884E-02-7.87754E-16 1.14057E-14
 -1      3861 2.03466E+01 3.20167E-01-1.82509E-03 2.39439E-02-7.81788E-15 2.99411E-14
 -1      3862 2.03830E+01 5.41993E-01-6.43827E-05-5.16739E-02 7.81083E-16 3.36885E-14
 -1      3863 2.14438E+01-2.50238E+00 4.01457E-02 2.55688E+00-8.13381E-14 1.74198E-13
 -1      3864 1.95935E+01-2.03243E-01 4.65338E-03 1.92466E+00 1.53213E-13 3.90754E-13
 -1      3865 1.97624E+01-4.80211E-01 1.18063E-02 2.03219E+00 4.56565E-14 5.97888E-13
 -1      3866 1.92452E+01-5.45439E-01-1.19553E-02 2.28448E+00-6.04833E-15 6.49828E-13
 -1      3867 1.90734E+01 9.41980E-03-3.15876E-03 1.92289E+00 2.86527E-13 4.44889E-13
 -1      3868 1.98139E+01 3.81986E-01 1.15040E-03-4.56755E-01-1.69774E-14 5.83763E-14
 -1      3869 1.98337E+01 3.43423E-01-1.83522E-03-4.11311E-01 3.25138E-14 1.07620E-13
 -1      3870 1.97118E+01 4.44765E-01 1.22877E-03-4.49525E-01-3.39120E-14 4.63631E-14
 -1      3871 2.04620E+01-1.56649E+00 1.81547E-02 2.45152E+00-1.50910E-13 3.26120E-13
 -1      3872 2.09946E+01-2.05016E+00 2.07263E-02 2.44368E+00-1.70443E-13 2.52285E-13
 -1      3873 2.01605E+01-2.27378E+00-4.74192E-02 3.07719E+00-2.41500E-13 2.87216E-13
 -1      3874 1.95862E+01-1.28014E+00-1.84255E-02 2.67722E+00-2.43866E-13 5.54902E-13
 -1      3875 2.03087E+01 8.36989E-01 1.35337E-04 2.86614E-01 5.59418E-14 6.10427E-14
 -1      3876 2.03402E+01 2.34305E-01 1.50871E-03 5.38756E-02-1.54552E-14 1.62838E-14
 -1      3877 2.03183E+01 1.63913E-01-9.97125E-04 8.57735E-02-1.06725E-14 2.16240E-14
 -1      3878 2.03434E+01 1.59043E-01 2.80141E-05 7.84809E-02-1.01140E-14 2.78228E-14
 -1      3879 2.03738E+01 3.10663E-01-3.81527E-04 2.76902E-02-6.28072E-15 5.75465E-14
 -1      3880 1.86813E+01-1.54806E+00 2.10165E-02 3.34789E+00-2.70254E-13 1.45205E-14
 -1      3881 1.59323E+01 2.42563E-01 1.47112E-03 2.49753E+00 1.38857E-13-5.84064E-14
 -1      3882 2.02518E+01 1.76585E-01-7.54005E-04-8.64269E-02 3.05660E-14 1.47842E-13
 -1      3883 1.40853E+01 9.04896E-01 1.41420E-02 1.16809E+00 1.45705E-13 5.60333E-14
 -1      3884 1.39973E+01 9.93078E-01-1.12182E-02 4.27470E-01 1.50955E-13 2.90983E-14
 -1      3885 1.68571E+01-8.62296E-01 4.77812E-02-3.43596E+00-1.04394E-13-9.12326E-14
 -1      3886 1.80064E+01-1.23888E+00 5.52475E-03-3.24464E+00-1.95973E-13-8.58744E-14
 -1      3887 1.61103E+01-2.95423E-01-1.05420E-02-2.89457E+00-3.43996E-14 4.69477E-14
 -1      3888 2.02115E+01 1.60199E-02-3.46626E-05-1.57775E-01-3.30755E-14 1.14188E-13
 -1      3889 2.02309E+01 3.87561E-02 7.41995E-04-1.46031E-01-1.19332E-14 9.01161E-14
 -1      3890 2.00341E+01 7.89061E-02-7.51819E-04-2.11634E-01 2.36802E-14 1.31927E-13
 -1      3891 2.00508E+01 7.70660E-02 5.31427E-05-1.90309E-01 4.34186E-14 1.77826E-13
 -1      3892 2.00216E+01 1.05408E-01 7.71277E-04-2.24959E-01 1.11837E-14 1.48096E-13
 -1      3893 1.55374E+01 4.35111E-01 3.21380E-02 1.91175E+00-3.74874E-14 4.18159E-13
 -1      3894 2.00982E+01 3.34518E-02-1.39238E-04-1.74714E-01 2.43941E-14 1.13853E-13
 -1      3895 2.00968E+01 1.92628E-02 5.98650E-04-1.88098E-01 6.76725E-14 1.10789E-13
 -1      3896 2.01103E+01 6.03090E-03-2.31719E-04-1.82625E-01 2.80827E-14 1.08565E-13
 -1      3897 1.54599E+01 4.53116E-01 3.07727E-02-2.09488E+00-8.53753E-14-1.79130E-13
 -1      3898 1.52428E+01 8.59654E-02 4.40549E-02-2.75398E+00-8.02468E-14-6.82614E-14
 -1      3899 1.98020E+01 3.61058E-01 1.00566E-03-3.64850E-01 2.09718E-14 2.17045E-14
 -1      3900 2.03326E+01 5.65546E-01-1.93538E-03 1.02260E-01 1.30958E-14 8.48498E-14
 -1      3901 2.03371E+01 6.98458E-01 3.19743E-03 1.73279E-01 2.54179E-14 7.09950E-14
 -1      3902 1.64881E+01-7.26271E-01-2.88492E-03-3.40667E+00 9.60495E-14-7.25392E-14
 -1      3903 1.93238E+01-1.64367E+00-1.17967E-02-3.02953E+00-2.54475E-13-2.13149E-13
 -1      3904 1.90272E+01-1.09782E+00 1.96533E-02 2.80734E+00-2.19128E-13 1.68689E-13
 -1      3905 1.77859E+01-9.96825E-01 1.23690E-02 3.22962E+00-2.91422E-13-1.22441E-13
 -1      3906 1.73114E+01-3.70404E-01-1.74579E-02 2.72718E+00-1.40874E-13-1.33670E-13
 -1      3907 1.87861E+01-7.44156E-01-8.86949E-03 2.60434E+00-2.24455E-13 2.01737E-13
 -1      3908 1.44636E+01 9.48972E-01 4.33269E-02-1.76504E-01-2.03719E-13-1.41501E-13
 -1      3909 1.89559E+01 7.39548E-01 1.54176E-03 1.19287E+00 1.26359E-13 4.17206E-13
 -1      3910 1.88819E+01 6.54424E-01-4.67926E-03 1.29919E+00 2.10716E-13 4.27090E-13
 -1      3911 1.87210E+01 8.44196E-01-5.09322E-03 1.05020E+00 5.86689E-14 5.23149E-13
 -1      3912 1.72072E+01-1.32651E-01-9.09165E-03-2.74691E+00 2.29790E-14-2.49972E-13
 -1      3913 1.65580E+01 2.97349E-01-4.64044E-04-2.36235E+00 1.41545E-14-1.34920E-13
 -1      3914 2.03270E+01 8.49627E-01-2.67153E-03 2.44152E-01 4.68140E-14 5.89156E-14
 -1      3915 1.49804E+01 7.14193E-01 9.88384E-03 1.74960E+00 1.05568E-13 1.97273E-14
 -1      3916 1.81154E+01 1.16344E+00-4.19057E-03 1.61722E-01-6.62529E-15 1.53015E-13
 -1      3917 1.82022E+01 1.12041E+00 8.79671E-04 4.31397E-01-4.34010E-14 2.86137E-13
 -1      3918 2.03175E+01 3.27028E-01-1.46277E-03-1.43967E-02 3.37587E-14 1.10109E-13
 -1      3919 2.03356E+01 4.35160E-01 1.78084E-03 4.31753E-02 1.36430E-14 9.19305E-14
 -1      3920 2.03596E+01 5.62699E-01 2.31009E-04 7.94227E-02 7.59606E-15 7.14056E-14
 -1      3921 2.01720E+01-5.55090E-03 2.64140E-04-1.70715E-01 9.58553E-15 8.56675E-14
 -1      3922 2.01892E+01 1.87180E-03 3.88739E-04-1.64274E-01-1.69083E-14 9.56175E-14
 -1      3923 2.02355E+01 1.65628E-02-4.21444E-04-1.43329E-01-1.56242E-14 1.10451E-13
 -1      3924 1.72413E+01-6.06242E-01 2.06006E-02-3.14772E+00 1.33691E-13-1.73218E-13
 -1      3925 2.03286E+01 1.14983E+00-3.80402E-03 1.34826E-01 3.87834E-14 2.11066E-14
 -1      3926 2.03283E+01 1.18734E+00-1.73055E-03 7.74183E-02 4.10995E-14 2.89570E-14
 -1      3927 2.03283E+01 1.15500E+00-3.21105E-03-1.32491E-01 1.66940E-14 3.55121E-14
 -1      3928 2.03760E+01 9.49216E-01 3.98116E-03-1.12241E-01 3.29482E-15 4.57162E-14
 -1      3929 2.03272E+01 1.18908E+00-2.01590E-03-7.53385E-02 1.73019E-14 5.79655E-14
 -1      3930 1.99799E+01 1.64969E-01 8.40640E-04-2.59270E-01-1.40463E-14 1.35094E-13
 -1      3931 1.99932E+01 1.33440E-01-1.00684E-03-2.39657E-01-1.40896E-14 9.18586E-14
 -1      3932 2.00001E+01 1.33923E-01 2.68795E-04-2.14418E-01 2.31530E-14 1.51498E-13
 -1      3933 2.03355E+01 9.47738E-01 1.87620E-04 2.20777E-01 3.88742E-14 4.82688E-14
 -1      3934 2.03261E+01 1.20126E+00-2.71333E-03 3.21073E-02 4.35879E-14 4.66129E-14
 -1      3935 2.03265E+01 1.20217E+00-2.49921E-03-2.84693E-02 2.93535E-14 6.02202E-14
 -1      3936 2.03802E+01 1.00423E+00 4.37578E-03 4.01677E-02 3.85250E-14 3.59939E-14
 -1      3937 1.39971E+01 9.45637E-01-1.67148E-03-7.63950E-01 1.18175E-13 3.43963E-13
 -1      3938 1.37470E+01 7.33202E-01 5.61767E-02-1.61702E+00 7.98927E-15 2.52794E-13
 -1      3939 1.49441E+01 5.03586E-01-2.71913E-03-1.96278E+00 2.13421E-14 1.04486E-13
 -1      3940 2.03554E+01 8.26162E-01 2.34523E-03-1.67814E-01-5.39079E-15 2.26324E-14
 -1      3941 1.82591E+01 1.09306E+00-5.26419E-03-8.79691E-01-6.03208E-14-4.78218E-13
 -1      3942 1.81594E+01 1.16635E+00 1.89252E-03-6.11352E-01 8.29264E-14-4.71694E-13
 -1      3943 1.79473E+01 1.07743E+00-2.29050E-05-9.50384E-01-5.65645E-14-6.25977E-13
 -1      3944 1.80630E+01 1.18937E+00-1.27425E-03-3.11493E-01 5.39645E-14-1.84263E-13
 -1      3945 1.77962E+01 1.17604E+00 4.51863E-03-1.26293E-01-9.19727E-14-1.07349E-14
 -1      3946 1.99435E+01 2.01828E-01 5.04911E-04-2.49840E-01 3.23024E-14 7.13505E-14
 -1      3947 1.57142E+01 8.43986E-01 2.39376E-03 1.48051E+00 2.55664E-14-4.73094E-14
 -1      3948 1.75779E+01-1.43617E+00 2.83176E-02-3.80240E+00 3.05516E-13-1.00465E-13
 -1      3949 2.02870E+01 1.69226E-01-9.07618E-04-8.92083E-02 1.79348E-14 1.29725E-13
 -1      3950 2.03079E+01 2.40460E-01 1.48938E-03-5.25920E-02 4.58314E-14 1.36381E-13
 -1      3951 2.03483E+01 3.24933E-01-3.99075E-05-1.96297E-02 3.94808E-14 9.60651E-14
 -1      3952 2.02896E+01 2.79177E-02 2.82894E-04 1.00542E-01-2.19138E-15 2.89837E-14
 -1      3953 2.02641E+01 1.20517E-02 2.10463E-05 1.08112E-01-1.28802E-14 5.07348E-14
 -1      3954 2.02351E+01 4.75619E-03 9.33965E-05 1.11088E-01-4.11935E-15 3.40164E-14
 -1      3955 2.02092E+01 4.81080E-03 1.96234E-04 1.16241E-01-8.15011E-15 3.41694E-14
 -1      3956 2.02665E+01 1.35686E-02-2.59422E-04 8.57677E-02-2.09715E-14 8.95300E-14
 -1      3957 2.01779E+01 1.13713E-02-1.05405E-04 1.18529E-01-9.08588E-15 3.41354E-14
 -1      3958 2.01515E+01 2.39403E-02 2.83645E-04 1.23402E-01 1.94614E-16 7.87669E-14
 -1      3959 2.02067E+01 1.21767E-02-1.76821E-04 9.24384E-02-1.23107E-14 3.81965E-14
 -1      3960 2.01181E+01 4.14677E-02-3.22368E-04 1.26431E-01 3.58836E-14 8.72926E-14
 -1      3961 2.00905E+01 6.41453E-02 2.91557E-04 1.32655E-01 7.50868E-14 9.74089E-14
 -1      3962 2.01433E+01 3.74580E-02 1.17351E-05 9.87267E-02 6.05493E-14 1.05337E-13
 -1      3963 2.00541E+01 9.07948E-02-5.72568E-04 1.37439E-01 5.96066E-14 6.90969E-14
 -1      3964 2.00243E+01 1.22149E-01 2.53167E-04 1.46317E-01-1.02293E-14 1.19554E-13
 -1      3965 2.00755E+01 8.41130E-02 2.28654E-04 1.06874E-01 6.15282E-14 8.92943E-14
 -1      3966 1.99833E+01 1.56844E-01-8.40479E-04 1.53730E-01-1.65901E-14 1.18815E-13
 -1      3967 1.99495E+01 1.95950E-01 1.67545E-04 1.66355E-01-5.28203E-14 1.60906E-13
 -1      3968 2.00008E+01 1.49026E-01 4.90507E-04 1.18524E-01 2.20706E-14 3.43265E-14
 -1      3969 1.99019E+01 2.37926E-01-1.13029E-03 1.77040E-01-7.20000E-14 1.87133E-13
 -1      3970 1.98619E+01 2.84156E-01 3.35632E-05 1.94222E-01-7.10457E-14 2.32870E-13
 -1      3971 1.99157E+01 2.30303E-01 8.74398E-04 1.35167E-01-2.36644E-14 7.72463E-14
 -1      3972 1.98050E+01 3.32869E-01-1.46212E-03 2.08652E-01-6.80219E-14 2.71589E-13
 -1      3973 1.97561E+01 3.85635E-01-1.51635E-04 2.31012E-01-3.61636E-14 2.71406E-13
 -1      3974 1.98153E+01 3.26374E-01 1.33783E-03 1.57630E-01-6.21763E-14 2.16982E-13
 -1      3975 1.96867E+01 4.40396E-01-1.84659E-03 2.49519E-01-2.36444E-14 2.51181E-13
 -1      3976 1.96257E+01 4.98823E-01-3.92042E-04 2.77513E-01 9.31748E-15 2.89704E-13
 -1      3977 1.96938E+01 4.35897E-01 1.89665E-03 1.86485E-01-1.89554E-14 2.19852E-13
 -1      3978 1.95398E+01 5.58486E-01-2.30592E-03 3.00299E-01 4.44771E-15 3.25147E-13
 -1      3979 1.94630E+01 6.21082E-01-6.89814E-04 3.34281E-01-3.08845E-14 3.19394E-13
 -1      3980 1.95440E+01 5.56973E-01 2.57500E-03 2.21944E-01 6.15086E-15 2.15016E-13
 -1      3981 1.93559E+01 6.83670E-01-2.88202E-03 3.61498E-01-8.08834E-14 3.14837E-13
 -1      3982 1.92589E+01 7.47957E-01-1.03944E-03 4.01885E-01-8.41461E-14 2.94183E-13
 -1      3983 1.93575E+01 6.86552E-01 3.41050E-03 2.63935E-01-4.26988E-14 2.23378E-13
 -1      3984 1.91246E+01 8.10257E-01-3.65546E-03 4.33839E-01-1.19671E-13 3.60494E-13
 -1      3985 1.90025E+01 8.72385E-01-1.41802E-03 4.81495E-01-9.86870E-14 3.02303E-13
 -1      3986 1.91240E+01 8.19816E-01 4.46565E-03 3.12339E-01-7.53459E-14 3.14156E-13
 -1      3987 1.88334E+01 9.29491E-01-4.77649E-03 5.19094E-01-6.29573E-14 3.16104E-13
 -1      3988 1.86804E+01 9.83844E-01-1.76715E-03 5.76110E-01-6.00979E-14 2.13268E-13
 -1      3989 1.88306E+01 9.49643E-01 5.85026E-03 3.67543E-01-9.53281E-14 3.16274E-13
 -1      3990 1.84656E+01 1.02866E+00-6.51067E-03 6.21770E-01 9.46300E-15 2.13143E-13
 -1      3991 1.82754E+01 1.06743E+00-1.95952E-03 6.92900E-01 5.99264E-14 1.90466E-13
 -1      3992 1.84603E+01 1.06624E+00 7.76200E-03 4.31628E-01-3.02424E-14 3.31719E-13
 -1      3993 1.79988E+01 1.09004E+00-9.29370E-03 7.52203E-01 7.69901E-14 1.60895E-13
 -1      3994 1.77633E+01 1.10214E+00-2.08080E-03 8.47571E-01 2.86582E-14 1.26225E-13
 -1      3995 1.79888E+01 1.15686E+00 1.05252E-02 5.10665E-01 1.75092E-14 2.64950E-13
 -1      3996 1.73995E+01 1.09044E+00-1.36867E-02 9.30408E-01-6.57346E-14 1.07055E-13
 -1      3997 1.71021E+01 1.05724E+00-3.96356E-03 1.07301E+00-8.57842E-14 2.85062E-14
 -1      3998 1.73804E+01 1.20426E+00 1.45923E-02 6.17974E-01-3.47731E-14-3.03915E-14
 -1      3999 1.66289E+01 1.01319E+00-1.93636E-02 1.14470E+00-3.65360E-14 7.94046E-14
 -1      4000 1.62576E+01 9.13774E-01-3.76882E-03 1.35963E+00 6.86170E-15 1.07622E-13
 -1      4001 1.55476E+01 1.16007E+00 3.63542E-02 8.31375E-01 9.30007E-15 9.91308E-14
 -1      4002 1.66001E+01 1.20651E+00 2.40694E-02 7.21588E-01-2.77152E-14 1.15264E-13
 -1      4003 1.56315E+01 6.66149E-01-4.22891E-03-1.78250E+00-1.15520E-14-2.48431E-13
 -1      4004 1.97313E+01 4.11724E-01 5.72010E-04-3.38439E-01 2.40717E-14 6.63357E-14
 -1      4005 1.97713E+01 3.65096E-01-1.79657E-03-3.02929E-01 7.06503E-14 6.09616E-14
 -1      4006 2.03718E+01 7.91290E-01-6.75065E-04-1.24380E-01-2.04699E-15 4.05955E-14
 -1      4007 1.93266E+01 6.58441E-01 1.40202E-03-6.51698E-01-4.24804E-14 3.27911E-14
 -1      4008 1.93868E+01 6.25668E-01-3.21638E-03-5.82095E-01 9.64756E-15 1.15450E-14
 -1      4009 1.94822E+01 5.89725E-01 9.36893E-04-5.22499E-01 5.50275E-15 2.92985E-14
 -1      4010 1.95364E+01 5.46961E-01-2.67064E-03-4.66194E-01 5.38252E-15 6.60316E-14
 -1      4011 1.93378E+01 6.64673E-01 2.58971E-03-4.85906E-01 2.13115E-14 9.51566E-15
 -1      4012 1.89666E+01 6.72789E-01 3.69485E-03-1.01907E+00-4.64210E-14 5.42254E-14
 -1      4013 1.90246E+01 6.89474E-01-4.66129E-03-9.12249E-01-6.73582E-14 7.54531E-14
 -1      4014 1.87857E+01 5.63823E-01 6.08758E-03-1.28228E+00-1.23373E-13 8.39898E-14
 -1      4015 1.88246E+01 6.28274E-01-5.57812E-03-1.14808E+00-1.51514E-13 5.04343E-14
 -1      4016 1.86543E+01 7.61120E-01 3.26970E-03-9.99642E-01-8.41460E-14 1.36798E-13
 -1      4017 1.86405E+01 3.21606E-01 9.34526E-03-1.62482E+00 2.56088E-14 1.59422E-13
 -1      4018 1.86362E+01 4.58769E-01-6.27085E-03-1.45469E+00 1.36918E-14 1.55971E-13
 -1      4019 1.83756E+01 6.51551E-01 2.45198E-03-1.29405E+00-1.18167E-13 1.68203E-13
 -1      4020 1.85809E+01-1.15840E-01 1.12770E-02-2.07114E+00-3.76222E-14 9.80852E-14
 -1      4021 1.85029E+01 1.35093E-01-3.54557E-03-1.85556E+00 1.36753E-14 1.92357E-13
 -1      4022 1.80959E+01 3.95584E-01-1.99408E-03-1.69425E+00 3.57678E-15 2.50521E-13
 -1      4023 1.88781E+01-9.37269E-01 8.77802E-03-2.67064E+00-1.69053E-13-1.79523E-13
 -1      4024 1.86619E+01-5.05583E-01 6.74569E-03-2.39994E+00-4.13934E-14 8.03827E-15
 -1      4025 1.79855E+01-1.56852E-01-1.08319E-02-2.29087E+00-3.02245E-14 1.25311E-13
 -1      4026 1.84065E+01-1.18076E+00-9.43978E-03-3.05230E+00-1.93366E-13-8.69929E-14
 -1      4027 1.50205E+01 1.12760E+00-9.48333E-05 3.59203E-01 1.49069E-14 8.51458E-14
 -1      4028 1.43331E+01 1.10694E+00 3.30711E-02-1.03378E-01 1.13557E-13 2.06787E-13
 -1      4029 1.49733E+01 1.01431E+00-1.68517E-02-6.95996E-01 1.09991E-13 3.29488E-13
 -1      4030 1.56174E+01 1.14741E+00-1.58767E-02 3.58502E-01-2.73670E-14 1.60421E-13
 -1      4031 1.99092E+01 2.36452E-01 5.04956E-04-2.28115E-01 6.44006E-14 9.61770E-14
 -1      4032 1.99385E+01 1.96972E-01-1.11516E-03-2.07971E-01 8.09534E-14 1.22622E-13
 -1      4033 1.73722E+01 1.15944E+00-9.93682E-03-3.12734E-01-1.47073E-13-2.88607E-13
 -1      4034 1.74621E+01 1.17763E+00 1.06066E-02 1.93219E-01-1.41058E-13 3.23402E-13
 -1      4035 2.01339E+01-2.59104E-03 4.64849E-04-1.79027E-01 4.69352E-15 1.23913E-13
 -1      4036 2.01490E+01-6.79453E-03 6.04354E-05-1.74428E-01 7.25415E-15 9.70994E-14
 -1      4037 2.01898E+01-1.61036E-03-3.73990E-04-1.55521E-01 5.28872E-15 1.25078E-13
 -1      4038 2.01441E+01 5.91918E-03-2.80399E-04-1.64402E-01 1.63949E-14 1.12094E-13
 -1      4039 2.03353E+01 1.02017E+00-3.99740E-03 2.07552E-01 4.65598E-14 3.94761E-14
 -1      4040 2.03367E+01 1.09188E+00-6.35491E-04 1.62641E-01 4.11751E-14 3.35664E-14
 -1      4041 2.03808E+01 9.26146E-01 3.85296E-03 1.01286E-01 3.73996E-14 3.76093E-14
 -1      4042 2.03717E+01 7.88053E-01 2.76073E-03 1.30890E-01 2.12627E-14 3.54528E-14
 -1      4043 1.65186E+01 8.26345E-01 9.08395E-03-1.49346E+00-3.63351E-14-2.74468E-13
 -1      4044 1.68577E+01 9.16650E-01-2.00553E-02-1.28833E+00-1.02370E-13-4.22727E-13
 -1      4045 1.83400E+01 1.03492E+00-6.60171E-03 6.60994E-01 4.05546E-14 3.47914E-13
 -1      4046 1.85210E+01 9.54446E-01 1.64752E-03 8.80002E-01-1.58070E-14 4.25913E-13
 -1      4047 1.83864E+01 8.95179E-01-2.97484E-03 9.90461E-01-2.92370E-14 4.62717E-13
 -1      4048 1.80340E+01 1.06607E+00 1.68730E-03 5.93938E-01-1.27695E-13 3.78655E-13
 -1      4049 1.72943E+01 9.97157E-01 2.07923E-03-1.16821E+00-1.04320E-13-6.09345E-13
 -1      4050 1.76031E+01 1.04162E+00-1.23729E-02-1.02854E+00-1.15081E-13-6.91655E-13
 -1      4051 1.74809E+01 1.15537E+00 9.49564E-03-7.05839E-01-1.57264E-13-7.67209E-13
 -1      4052 1.67539E+01 1.09759E+00 1.41462E-02-8.66721E-01-2.18711E-13-8.10308E-13
 -1      4053 2.02802E+01 6.84271E-02-4.15057E-04-1.21931E-01-9.30367E-15 1.45276E-13
 -1      4054 2.02513E+01 7.02244E-02-4.34637E-04-1.33540E-01 8.35847E-15 9.18059E-14
 -1      4055 2.02722E+01 1.13646E-01 1.12228E-03-1.12137E-01 1.23791E-14 1.22068E-13
 -1      4056 1.63542E+01 2.98812E-01-1.99264E-02 2.07778E+00-2.53395E-14 2.83068E-13
 -1      4057 1.55119E+01 8.65596E-01 3.22785E-02 1.27308E+00-1.19978E-13 7.13450E-13
 -1      4058 1.96169E+01 5.03767E-01 6.91438E-04-4.19618E-01-3.52690E-14 7.88096E-14
 -1      4059 1.96639E+01 4.57046E-01-2.20379E-03-3.74502E-01-2.86913E-14 3.87751E-14
 -1      4060 1.96469E+01 4.70674E-01 1.73846E-03-3.08371E-01 1.89958E-14 7.73495E-14
 -1      4061 1.49774E+01 9.83748E-01-3.01601E-02 2.99025E-01-2.46521E-13-8.68056E-15
 -1      4062 1.50901E+01 9.90590E-01 2.15295E-02-8.27840E-01-6.43123E-14-5.88241E-13
 -1      4063 1.98277E+01 3.21019E-01 5.21493E-04-2.75534E-01 7.10984E-14 7.46918E-14
 -1      4064 1.98617E+01 2.77115E-01-1.43650E-03-2.48312E-01 4.98355E-14 1.00439E-13
 -1      4065 1.97648E+01 3.71209E-01 1.32976E-03-2.48768E-01 6.72799E-14 1.31743E-13
 -1      4066 2.03393E+01 8.97430E-02 4.98970E-04 8.26678E-02-1.58967E-14 1.03690E-14
 -1      4067 2.03152E+01 5.30363E-02-2.73502E-04 9.52016E-02-3.36152E-15 2.58996E-14
 -1      4068 2.03219E+01 4.88510E-02-2.09921E-04 7.57959E-02-7.86641E-15 7.14148E-14
 -1      4069 1.87908E+01 5.32629E-01 8.02981E-05 1.45440E+00 1.43581E-13 3.42852E-13
 -1      4070 1.91523E+01 6.93732E-01 2.23916E-03-8.13884E-01-7.99188E-14 7.47576E-14
 -1      4071 1.92151E+01 6.79619E-01-3.86937E-03-7.27938E-01-4.97614E-14 6.87238E-14
 -1      4072 1.91401E+01 7.39645E-01 2.97521E-03-6.14368E-01-4.62827E-14 1.24274E-14
 -1      4073 2.03817E+01 7.76765E-01-1.57706E-03-9.89893E-02-1.00315E-14 6.31952E-14
 -1      4074 2.03958E+01 6.79078E-01 2.89210E-03-8.05040E-02 5.18829E-15 4.84569E-14
 -1      4075 2.03935E+01 5.27075E-01-2.12481E-03-3.44439E-02 1.87778E-14 6.56348E-14
 -1      4076 2.03890E+01 8.17059E-01-1.28564E-03-7.27282E-02 1.33761E-14 4.32046E-14
 -1      4077 1.57214E+01 2.88443E-01 4.56483E-02-2.38343E+00-1.72858E-14 6.66758E-14
 -1      4078 1.66163E+01-1.03312E-01 6.74275E-03-2.59146E+00-9.12691E-14 7.06588E-14
 -1      4079 1.54310E+01 5.95497E-01-1.75604E-02-1.76047E+00 2.78423E-16 1.65837E-13
 -1      4080 2.00412E+01 9.74087E-02 4.75490E-04-1.69920E-01 3.94263E-14 1.85245E-13
 -1      4081 2.00651E+01 7.02140E-02-5.64954E-04-1.60256E-01 2.08248E-14 1.94677E-13
 -1      4082 1.83436E+01 7.38810E-01 1.05482E-02 1.30055E+00 1.37336E-15 2.62883E-13
 -1      4083 1.85112E+01 4.17034E-01-9.78570E-03 1.64048E+00 1.18244E-13 1.81636E-13
 -1      4084 1.54761E+01 9.31411E-01 9.79473E-03-1.15054E+00-6.63792E-14-5.29553E-13
 -1      4085 2.00978E+01 4.74156E-02 4.32201E-04-1.54314E-01 2.07538E-14 1.93519E-13
 -1      4086 2.01207E+01 2.81489E-02-3.21054E-04-1.47769E-01 1.56264E-14 1.77257E-13
 -1      4087 2.00869E+01 6.57828E-02 4.44827E-05-1.32992E-01 2.40528E-14 1.86162E-13
 -1      4088 2.02534E+01 1.27055E-02 1.99519E-05-1.26242E-01-1.66173E-14 1.21814E-13
 -1      4089 2.02770E+01 3.10229E-02 4.14224E-04-1.17383E-01-2.03617E-14 1.22098E-13
 -1      4090 2.04134E+01 5.37240E-01-1.10970E-03-2.66694E-02 2.12398E-14 6.15296E-14
 -1      4091 2.04092E+01 4.21489E-01 2.62158E-03-5.50314E-03 1.42559E-14 5.89165E-14
 -1      4092 2.03812E+01 2.01714E-01 1.17784E-03 5.22113E-02-1.87514E-14 5.31630E-14
 -1      4093 2.03591E+01 1.37605E-01-9.13957E-04 7.29049E-02-3.05317E-14 1.98033E-14
 -1      4094 2.03700E+01 1.28619E-01 1.79204E-04 5.90750E-02-3.14645E-14 3.85228E-14
 -1      4095 1.95058E+01 5.71134E-01 2.16551E-03-3.85975E-01-4.78007E-15 8.74535E-14
 -1      4096 1.87816E+01-3.76556E-01 1.45630E-02 2.31785E+00-3.68640E-14 1.13931E-13
 -1      4097 1.81412E+01-2.46683E-01 6.12508E-03 2.42962E+00-4.12490E-14-2.05422E-13
 -1      4098 1.86228E+01-9.72094E-02-4.80271E-03 2.12488E+00 1.50197E-13 1.41458E-13
 -1      4099 1.76706E+01-7.65356E-02 8.40273E-03 2.34532E+00-3.16986E-14-2.08917E-13
 -1      4100 1.69432E+01 1.69018E-01 2.54849E-02 2.27234E+00 1.28825E-14-2.13949E-13
 -1      4101 1.68106E+01 5.29606E-01-6.26034E-03 1.73284E+00-2.62403E-14 1.24882E-13
 -1      4102 1.76512E+01 1.89982E-01-1.71448E-02 2.04841E+00 6.96266E-14-1.82906E-13
 -1      4103 1.70616E+01 1.14380E+00-2.69725E-04-3.60098E-01-1.73862E-13-3.50727E-13
 -1      4104 2.03142E+01 5.44788E-02-3.44952E-04-9.30148E-02-1.97031E-14 8.83497E-14
 -1      4105 2.03010E+01 5.86508E-02-2.45042E-04-1.09957E-01-1.30666E-14 9.83302E-14
 -1      4106 2.03236E+01 9.74394E-02 3.98459E-04-9.48337E-02-1.02655E-14 1.01447E-13
 -1      4107 2.03807E+01 1.00517E+00 4.44831E-03-3.86867E-02 1.93442E-14 5.55149E-14
 -1      4108 1.71618E+01 1.08094E+00-4.28258E-03 4.83644E-01-5.49651E-14 3.33022E-13
 -1      4109 1.76101E+01 1.04231E+00-1.11989E-02 6.38336E-01-1.68622E-13 3.60066E-13
 -1      4110 1.78225E+01 9.90877E-01 9.34045E-03 8.56945E-01-1.00397E-13 3.61390E-13
 -1      4111 2.03820E+01 4.79628E-01 1.23019E-04 2.63800E-02 7.67081E-15 4.47516E-14
 -1      4112 2.03810E+01 6.15281E-01-1.28839E-03 8.37736E-02 3.38348E-15 3.15064E-14
 -1      4113 2.03909E+01 6.92359E-01 7.27007E-04 7.85266E-02 8.58664E-15 1.02912E-14
 -1      4114 2.03192E+01 1.66430E-01-2.62215E-04-8.40361E-02 1.48879E-14 1.22924E-13
 -1      4115 2.03958E+01 8.20027E-01-2.62463E-03 4.55135E-02 2.95764E-14 2.55088E-14
 -1      4116 2.03985E+01 8.35287E-01-1.98506E-03 1.35311E-02 2.50275E-14 4.48957E-14
 -1      4117 1.98637E+01 2.77958E-01 9.52095E-04-2.03931E-01 7.00409E-14 1.44319E-13
 -1      4118 1.59003E+01 9.72891E-01 1.06181E-02 6.15216E-01-9.01187E-14 3.52606E-13
 -1      4119 1.89116E+01 7.79485E-01 3.25530E-03-7.80737E-01-5.91640E-14 5.99605E-14
 -1      4120 1.85314E+01 2.32701E-01 3.98855E-03 1.82630E+00 1.98274E-13 9.59683E-14
 -1      4121 1.99793E+01 1.61159E-01 5.00338E-04-1.93714E-01 6.58248E-14 1.47609E-13
 -1      4122 2.00052E+01 1.27307E-01-8.24195E-04-1.79441E-01 5.82050E-14 1.79372E-13
 -1      4123 2.00211E+01 1.22904E-01 3.16680E-04-1.48341E-01 6.67102E-14 1.55914E-13
 -1      4124 2.03948E+01 3.13786E-01-1.51522E-03 2.62810E-02-9.65235E-15 4.68318E-14
 -1      4125 2.03950E+01 7.27500E-01-2.47236E-03 7.42708E-02 1.11632E-14 2.21301E-14
 -1      4126 2.03980E+01 7.89275E-01-2.27158E-04 5.65588E-02 2.31796E-14 3.02306E-14
 -1      4127 2.04279E+01 6.52721E-01 4.32024E-03 2.31166E-02 1.75715E-14 4.58784E-14
 -1      4128 2.04141E+01 5.75349E-01 1.92495E-03 3.18094E-02-8.98322E-15 1.54201E-14
 -1      4129 1.99478E+01 1.94356E-01 6.12804E-04-1.71231E-01 8.80064E-14 1.49641E-13
 -1      4130 2.04091E+01 2.96419E-01 3.46528E-04 2.45492E-02-1.79829E-14 4.56910E-14
 -1      4131 1.76328E+01-5.64847E-01 9.68696E-03-2.81592E+00-5.94298E-14 1.00308E-13
 -1      4132 2.02931E+01 1.91226E-02 5.36184E-05 5.69492E-02-1.99880E-14 4.70301E-14
 -1      4133 2.02644E+01 1.07924E-02 2.74210E-04 6.21810E-02-5.42362E-14 3.30470E-14
 -1      4134 2.00010E+01 1.45137E-01 1.99912E-04-1.19778E-01 1.19790E-13 7.99764E-14
 -1      4135 2.00357E+01 1.11362E-01-4.64172E-04-1.10595E-01 8.25512E-14 1.25191E-13
 -1      4136 1.59420E+01 1.04456E+00-2.04551E-02-6.89991E-01-4.04893E-14-6.62899E-13
 -1      4137 2.02315E+01 9.69422E-03-5.71577E-05 6.22242E-02-3.25305E-14 6.63629E-14
 -1      4138 2.02005E+01 1.65465E-02 1.63678E-04 6.60896E-02 7.78137E-15 7.13775E-14
 -1      4139 2.02549E+01 1.32205E-02-4.22877E-04 3.49018E-02-2.77014E-14 2.05853E-14
 -1      4140 2.01657E+01 2.91022E-02-1.05651E-04 6.68659E-02 4.31632E-14 1.19480E-13
 -1      4141 2.01328E+01 4.77149E-02 1.02898E-04 7.05796E-02 7.58121E-14 1.01576E-13
 -1      4142 2.01880E+01 2.58260E-02-6.06484E-05 3.76466E-02 3.14403E-14 1.23468E-13
 -1      4143 2.00950E+01 7.12765E-02-2.91924E-04 7.18298E-02 5.89218E-14 5.89702E-14
 -1      4144 2.00595E+01 9.97951E-02 2.75272E-05 7.65147E-02 1.91961E-14 4.62248E-14
 -1      4145 2.01170E+01 6.32448E-02 2.75641E-04 4.01261E-02 4.89544E-14 7.74859E-14
 -1      4146 2.00172E+01 1.32653E-01-5.90722E-04 7.86324E-02 1.41004E-14 4.31417E-14
 -1      4147 1.99777E+01 1.70146E-01-3.62043E-05 8.51454E-02-2.82616E-15 4.83206E-14
 -1      4148 2.00390E+01 1.22204E-01 7.24861E-04 4.34441E-02-1.74063E-15 2.83933E-14
 -1      4149 1.99295E+01 2.10759E-01-8.79207E-04 8.84311E-02 2.52274E-14 5.26276E-14
 -1      4150 1.98837E+01 2.56056E-01-2.56568E-04 9.69297E-02 8.27406E-15 1.22335E-13
 -1      4151 1.99519E+01 1.98854E-01 1.47663E-03 4.81396E-02 1.87663E-14 5.23417E-14
 -1      4152 1.98271E+01 3.04029E-01-1.18661E-03 1.01578E-01-1.16704E-14 1.66816E-13
 -1      4153 1.97721E+01 3.56384E-01-5.47403E-04 1.12288E-01 5.65357E-16 2.63945E-13
 -1      4154 1.98511E+01 2.91575E-01 2.37617E-03 5.39791E-02 4.40647E-14 8.41192E-14
 -1      4155 1.97041E+01 4.10952E-01-1.54361E-03 1.18237E-01-5.64100E-14 2.41428E-13
 -1      4156 1.96367E+01 4.69508E-01-9.27924E-04 1.31157E-01-3.54976E-14 2.31637E-13
 -1      4157 1.97311E+01 3.98688E-01 3.46589E-03 6.08100E-02-2.47034E-14 1.26854E-13
 -1      4158 1.95538E+01 5.29649E-01-1.95927E-03 1.38166E-01-1.47671E-14 2.44364E-13
 -1      4159 1.94699E+01 5.93110E-01-1.42361E-03 1.53063E-01-2.21791E-14 2.29956E-13
 -1      4160 1.95854E+01 5.18341E-01 4.79807E-03 6.79587E-02-6.35637E-14 1.77130E-13
 -1      4161 1.93679E+01 6.57216E-01-2.45899E-03 1.60687E-01 6.33742E-15 2.57195E-13
 -1      4162 1.92625E+01 7.23547E-01-2.07165E-03 1.77126E-01-2.33061E-14 2.60881E-13
 -1      4163 1.94063E+01 6.47865E-01 6.45511E-03 7.42510E-02 2.20607E-14 2.26712E-13
 -1      4164 1.91361E+01 7.89128E-01-3.09664E-03 1.84705E-01-7.51243E-14 2.60461E-13
 -1      4165 1.90034E+01 8.55289E-01-2.92803E-03 2.02177E-01-6.24046E-14 2.41528E-13
 -1      4166 1.91843E+01 7.83250E-01 8.57103E-03 7.79102E-02-6.08530E-14 1.98901E-13
 -1      4167 1.88459E+01 9.18717E-01-3.97885E-03 2.08878E-01-3.43567E-14 1.97726E-13
 -1      4168 1.86781E+01 9.80484E-01-4.08452E-03 2.27091E-01-5.61775E-14 2.38680E-13
 -1      4169 1.89080E+01 9.18767E-01 1.13709E-02 7.64803E-02-8.64302E-14 7.33463E-14
 -1      4170 1.84801E+01 1.03686E+00-5.30485E-03 2.32034E-01-2.95488E-14 2.62107E-13
 -1      4171 1.82666E+01 1.08879E+00-5.70320E-03 2.51542E-01 3.18886E-15 2.77186E-13
 -1      4172 1.85622E+01 1.04684E+00 1.52306E-02 6.67681E-02-1.58175E-14 1.91578E-13
 -1      4173 1.80138E+01 1.13207E+00-7.41252E-03 2.54095E-01-8.46432E-14 2.16067E-13
 -1      4174 1.77389E+01 1.16747E+00-8.04057E-03 2.77512E-01-9.17903E-14 1.37633E-13
 -1      4175 1.81251E+01 1.15826E+00 2.07077E-02 4.46894E-02-8.86371E-14 1.43281E-13
 -1      4176 1.74083E+01 1.19189E+00-1.05245E-02 2.78724E-01-8.31185E-15 5.43741E-14
 -1      4177 1.70544E+01 1.20227E+00-9.24995E-03 3.11879E-01-3.68338E-14 3.93367E-14
 -1      4178 1.75616E+01 1.24227E+00 2.80283E-02 4.58776E-03-1.02693E-13 1.73105E-13
 -1      4179 1.66323E+01 1.19756E+00-1.44316E-02 3.37399E-01-6.62436E-14 1.81185E-13
 -1      4180 1.62002E+01 1.18712E+00-6.86418E-03 3.43153E-01-2.88944E-14 1.79397E-13
 -1      4181 1.58764E+01 1.23004E+00 2.95580E-02-7.14487E-02-2.66111E-14 2.90359E-13
 -1      4182 1.68138E+01 1.28462E+00 3.02116E-02-4.77003E-02-1.54414E-14 2.71663E-13
 -1      4183 1.75902E+01 5.44142E-01 8.44822E-03-1.62066E+00-2.55492E-14 1.92024E-13
 -1      4184 1.77019E+01 6.73332E-01-1.42056E-02-1.40230E+00-2.75569E-14 2.08399E-13
 -1      4185 2.02264E+01 2.96182E-03 1.91973E-04-1.30327E-01 1.51365E-14 1.10671E-13
 -1      4186 2.02620E+01 1.37434E-02-3.04919E-04-1.06325E-01-2.10952E-15 1.48155E-13
 -1      4187 2.02031E+01 3.99277E-04 2.42022E-04-1.35987E-01 1.53891E-14 1.04507E-13
 -1      4188 1.80845E+01 8.23359E-01-3.78740E-03 1.12478E+00-4.10236E-14 3.72961E-13
 -1      4189 2.03669E+01 2.68198E-01-4.37577E-05-4.44317E-02 2.38427E-14 9.47210E-14
 -1      4190 2.03789E+01 3.61160E-01-6.05166E-04-5.45566E-03 1.34100E-14 6.32964E-14
 -1      4191 2.04004E+01 4.13831E-01 2.10890E-04 2.21375E-03-5.52948E-15 1.88248E-14
 -1      4192 1.92064E+01 7.27851E-01 1.06544E-04-4.19988E-01-6.40839E-15 1.14646E-13
 -1      4193 1.92949E+01 6.76898E-01-3.74030E-03-3.69752E-01-2.75988E-15 1.34776E-13
 -1      4194 1.80033E+01 7.66008E-01 5.81603E-03-1.19876E+00-6.54319E-14 2.14499E-13
 -1      4195 1.81267E+01 8.15013E-01-1.22427E-02-1.04423E+00-1.12624E-13 2.57589E-13
 -1      4196 1.75372E+01 9.27544E-01 2.33795E-02-1.11101E+00-1.29877E-14 2.16725E-13
 -1      4197 1.83702E+01 8.54857E-01 2.67052E-03-9.06324E-01-1.06610E-13 2.63953E-13
 -1      4198 1.84947E+01 8.60310E-01-8.86957E-03-7.93546E-01-5.29808E-14 2.60271E-13
 -1      4199 1.80444E+01 9.87725E-01 2.01231E-02-8.13779E-01-8.36973E-14 3.55764E-13
 -1      4200 1.75140E+01-8.47543E-02 1.07258E-02-2.36235E+00-9.32761E-15 1.38334E-13
 -1      4201 1.74592E+01 2.88698E-01-9.64859E-04-1.97800E+00 4.97936E-15 1.27803E-13
 -1      4202 1.70648E+01 5.76651E-01-1.12965E-02-1.68047E+00 6.36350E-14 8.45110E-14
 -1      4203 1.70055E+01-1.06375E-01-1.53664E-03-2.53589E+00-3.55818E-14 5.86892E-14
 -1      4204 1.63465E+01 1.11883E+00 1.06535E-02-5.29571E-01-3.11657E-14-5.44960E-13
 -1      4205 1.67246E+01 1.12676E+00-1.22400E-02-4.45557E-01-1.70418E-13-5.18704E-13
 -1      4206 1.67108E+01 1.18265E+00 1.21455E-02-6.37867E-02 1.75615E-14 2.70140E-15
 -1      4207 1.60269E+01 1.17984E+00 2.52761E-02-2.31148E-01 7.71150E-15-3.73940E-13
 -1      4208 1.66047E+01 9.91682E-01-3.75638E-03 7.10115E-01 1.35092E-15 4.64409E-13
 -1      4209 1.69280E+01 8.61320E-01 8.72943E-03 1.17457E+00-1.34981E-13 4.18527E-13
 -1      4210 1.77372E+01 7.94098E-01 1.57258E-03 1.20105E+00-4.65949E-14 2.56851E-13
 -1      4211 2.03390E+01 1.38903E-01-2.87346E-04-8.53738E-02-5.48026E-15 8.73785E-14
 -1      4212 2.03566E+01 2.02964E-01 4.44537E-05-6.04621E-02 2.19312E-14 9.57512E-14
 -1      4213 2.03834E+01 2.37655E-01-3.62756E-05-4.50795E-02 1.40807E-14 4.05288E-14
 -1      4214 2.03554E+01 1.29904E-01-3.68492E-05-7.34473E-02-1.84371E-14 4.64198E-14
 -1      4215 1.97067E+01 4.12645E-01-6.24837E-05-2.08176E-01 3.47788E-14 1.77909E-13
 -1      4216 1.97598E+01 3.60895E-01-1.67313E-03-1.84805E-01 4.49443E-14 1.75736E-13
 -1      4217 1.99177E+01 2.22716E-01 1.06433E-04-1.40053E-01 8.12548E-14 1.13181E-13
 -1      4218 1.99565E+01 1.81830E-01-8.60271E-04-1.27230E-01 1.22311E-13 1.28194E-13
 -1      4219 1.99748E+01 1.74129E-01 9.28211E-04-8.86336E-02 9.24488E-14 6.90555E-14
 -1      4220 1.89706E+01 8.10952E-01 5.07192E-04-5.38208E-01-1.39127E-13 2.07992E-13
 -1      4221 1.90729E+01 7.69850E-01-4.90046E-03-4.73506E-01-4.71702E-14 1.77470E-13
 -1      4222 1.90681E+01 8.12988E-01 8.75144E-03-3.46519E-01-6.36835E-14 2.74626E-13
 -1      4223 1.95695E+01 5.19090E-01-1.02340E-04-2.60722E-01 4.65897E-14 1.90743E-13
 -1      4224 1.96328E+01 4.64368E-01-2.20667E-03-2.30256E-01 4.30320E-14 2.12738E-13
 -1      4225 1.96448E+01 4.67347E-01 3.73815E-03-1.61604E-01 3.58831E-14 2.12849E-13
 -1      4226 1.98211E+01 3.12699E-01 1.52801E-05-1.68806E-01 4.73351E-14 1.58049E-13
 -1      4227 1.98661E+01 2.65753E-01-1.23545E-03-1.51254E-01 7.03672E-14 1.39632E-13
 -1      4228 1.97743E+01 3.58285E-01 2.64306E-03-1.28856E-01 3.84832E-14 2.04307E-13
 -1      4229 2.03985E+01 8.36285E-01-1.97103E-03-1.18148E-02 2.73055E-14 7.56047E-14
 -1      4230 2.03973E+01 8.25088E-01-1.65096E-03-4.51465E-02 1.65326E-14 6.18098E-14
 -1      4231 2.04311E+01 6.85879E-01 3.94148E-03-1.76399E-03 8.08892E-15 7.36524E-14
 -1      4232 1.86930E+01 8.60347E-01 1.27705E-03-6.94878E-01-5.19042E-14 2.24771E-13
 -1      4233 1.88081E+01 8.37155E-01-6.52070E-03-6.10378E-01-1.31331E-13 1.80391E-13
 -1      4234 1.87892E+01 9.08209E-01 1.14659E-02-4.55564E-01-1.27626E-13 3.37239E-13
 -1      4235 1.84523E+01 9.72599E-01 1.51622E-02-6.05123E-01-8.22436E-14 2.98010E-13
 -1      4236 2.03488E+01 6.53940E-02 1.68711E-04 4.86290E-02-3.18650E-14 5.37951E-14
 -1      4237 2.03228E+01 3.73542E-02 1.89351E-04 5.65256E-02-8.96894E-15 5.22210E-14
 -1      4238 2.03162E+01 3.21814E-02-6.62178E-04 3.13841E-02-4.27838E-14 8.66099E-15
 -1      4239 1.94044E+01 6.26781E-01-6.58630E-05-3.29775E-01 5.07697E-15 1.27539E-13
 -1      4240 1.94797E+01 5.71874E-01-2.87543E-03-2.90573E-01 2.70311E-14 2.23223E-13
 -1      4241 1.92985E+01 7.01158E-01 6.68772E-03-2.65985E-01-1.55637E-14 2.29205E-13
 -1      4242 2.04180E+01 6.82073E-01 3.35907E-03-4.03142E-02 1.90944E-14 6.81694E-14
 -1      4243 2.04227E+01 5.42028E-01-2.56068E-03-1.03947E-02 8.47776E-15 7.50099E-14
 -1      4244 1.72609E+01 6.85169E-01 1.02551E-03 1.48635E+00-1.17447E-13 3.06195E-13
 -1      4245 1.94884E+01 5.83392E-01 5.06007E-03-2.06100E-01 3.64072E-14 2.62596E-13
 -1      4246 2.00555E+01 1.01876E-01-1.37168E-04-7.67990E-02 7.49935E-14 3.54641E-14
 -1      4247 2.00747E+01 8.18850E-02 1.30485E-04-1.06292E-01 6.80155E-14 1.31046E-13
 -1      4248 2.01063E+01 5.66099E-02-3.41015E-04-9.98322E-02 1.46756E-14 1.40263E-13
 -1      4249 2.02653E+01 1.04214E-02 8.08346E-05-8.46306E-02 8.49630E-15 9.88094E-14
 -1      4250 2.02935E+01 2.23503E-02 4.01766E-04-7.81037E-02-1.83367E-14 8.32577E-14
 -1      4251 1.98825E+01 2.59727E-01 1.72476E-03-1.05210E-01 3.90250E-14 1.20341E-13
 -1      4252 2.04250E+01 5.06243E-01-2.91923E-03 1.44707E-02 7.60796E-15 2.98624E-14
 -1      4253 2.04293E+01 5.39285E-01-1.93819E-03 8.56943E-03 8.40734E-15 3.18199E-14
 -1      4254 2.03955E+01 1.58356E-01 4.19903E-04 3.46871E-02-3.29304E-14 5.80992E-14
 -1      4255 2.03734E+01 1.04431E-01-4.10845E-04 4.67068E-02-5.11380E-14 4.09140E-14
 -1      4256 2.03704E+01 9.29183E-02-3.39058E-04 2.55882E-02-4.86673E-14 8.04981E-14
 -1      4257 2.01513E+01 1.38228E-02 3.73955E-04-1.44065E-01 1.15959E-14 1.32244E-13
 -1      4258 2.01742E+01 4.21704E-03-6.24798E-05-1.38979E-01-6.11324E-15 1.25317E-13
 -1      4259 2.02063E+01 6.73083E-03-2.30154E-04-1.14892E-01-7.46495E-15 1.14783E-13
 -1      4260 2.03206E+01 4.38061E-02 4.90326E-05-7.59072E-02-5.57137E-14 5.00910E-14
 -1      4261 2.03464E+01 7.58504E-02 5.42051E-04-6.57002E-02-5.82035E-14 4.06393E-14
 -1      4262 2.03199E+01 3.81645E-02-8.65170E-04-5.39462E-02-4.89234E-14-1.97855E-14
 -1      4263 2.04353E+01 3.80511E-01 2.06467E-03 1.38346E-03 2.88025E-15 6.55221E-14
 -1      4264 2.04152E+01 2.52657E-01-1.15109E-03 2.61165E-02-9.88677E-15 5.02901E-14
 -1      4265 2.04168E+01 2.30930E-01 2.46049E-04 1.46690E-02-1.80636E-14 5.59264E-14
 -1      4266 2.04316E+01 4.97078E-01-8.60302E-04-4.89835E-03-3.59603E-16 8.23646E-14
 -1      4267 2.01480E+01 2.59247E-02-1.01812E-04-1.22706E-01-2.92809E-14 1.83489E-13
 -1      4268 2.04323E+01 4.96573E-01-1.32539E-03 4.39433E-03 1.15500E-14 4.57208E-14
 -1      4269 1.62407E+01 9.63123E-01-1.16296E-02 6.67084E-01 4.78567E-15 4.83414E-13
 -1      4270 1.53573E+01 9.83294E-01 3.88088E-02-1.19907E+00 7.27320E-14 3.55099E-13
 -1      4271 1.58567E+01 6.54062E-01-1.90362E-02-1.62211E+00 2.01418E-14 1.81926E-13
 -1      4272 1.54152E+01 1.07224E+00-1.19389E-02-6.23068E-01 6.35308E-14 3.53211E-13
 -1      4273 1.80496E+01 3.53266E-01-5.68932E-03 1.80645E+00 7.43484E-14-2.33136E-13
 -1      4274 1.89443E+01 8.45747E-01-6.75764E-03-1.56924E-01-1.27417E-13 2.48468E-13
 -1      4275 1.90782E+01 7.91527E-01-6.42913E-03-1.17669E-01-1.04336E-13 1.64708E-13
 -1      4276 2.02348E+01 6.83851E-03 1.99661E-04-8.57557E-02-5.00813E-15 1.24147E-13
 -1      4277 2.02610E+01 1.21174E-02-7.20550E-04-6.01065E-02-1.34217E-14 7.74641E-14
 -1      4278 2.02056E+01 1.05857E-02 2.57671E-04-9.05545E-02-3.56153E-14 1.34167E-13
 -1      4279 2.02639E+01 1.21254E-02 1.63319E-04-1.36504E-02-2.17897E-14 7.84550E-14
 -1      4280 2.02307E+01 1.32154E-02 3.91808E-04-1.23489E-02 2.56867E-14 9.55417E-14
 -1      4281 2.01362E+01 4.98092E-02-8.88258E-05 6.43376E-03 2.47327E-14 5.76316E-14
 -1      4282 2.00984E+01 7.36202E-02-2.16518E-04 8.38897E-03 4.25825E-14 4.05092E-14
 -1      4283 2.00469E+01 1.11168E-01-2.79272E-04-1.93997E-02 7.27625E-14 6.68292E-15
 -1      4284 2.00044E+01 1.45452E-01-4.95214E-04-1.82447E-02 3.12388E-14 4.55516E-14
 -1      4285 1.99595E+01 1.83388E-01-9.03045E-04-2.40066E-02 7.25230E-15 6.69221E-14
 -1      4286 1.99108E+01 2.26091E-01-1.01840E-03-2.29350E-02 3.00756E-14 9.22178E-14
 -1      4287 1.98588E+01 2.71036E-01-1.49128E-03-3.10557E-02 2.80937E-14 9.36094E-14
 -1      4288 1.98015E+01 3.21066E-01-1.65311E-03-3.01879E-02 2.82278E-14 4.80378E-14
 -1      4289 1.97399E+01 3.72037E-01-2.17532E-03-4.15062E-02 2.95398E-14 9.62934E-14
 -1      4290 1.96709E+01 4.28436E-01-2.43854E-03-4.12433E-02-3.66921E-14 1.02509E-13
 -1      4291 1.95967E+01 4.84124E-01-2.98933E-03-5.67806E-02-6.75964E-14 1.69427E-13
 -1      4292 1.95123E+01 5.45572E-01-3.43201E-03-5.77665E-02 9.86535E-15 1.94118E-13
 -1      4293 1.94221E+01 6.04059E-01-3.97163E-03-7.89158E-02 2.78520E-14 2.06972E-13
 -1      4294 1.93178E+01 6.68549E-01-4.71788E-03-8.21202E-02 3.12042E-14 1.89455E-13
 -1      4295 1.92079E+01 7.26968E-01-5.18882E-03-1.10864E-01-3.48509E-14 1.99116E-13
 -1      4296 1.87818E+01 9.06219E-01-8.77994E-03-1.69234E-01-8.52366E-14 2.34122E-13
 -1      4297 1.86186E+01 9.50586E-01-8.87075E-03-2.23390E-01-4.32014E-14 2.58970E-13
 -1      4298 1.84135E+01 1.00153E+00-1.21041E-02-2.43822E-01-6.86999E-14 2.71481E-13
 -1      4299 1.82142E+01 1.02873E+00-1.17750E-02-3.19527E-01-9.62764E-14 2.86278E-13
 -1      4300 1.79522E+01 1.06345E+00-1.67890E-02-3.51876E-01-1.29381E-13 2.70906E-13
 -1      4301 1.77082E+01 1.06495E+00-1.53149E-02-4.58791E-01-9.22427E-14 2.67011E-13
 -1      4302 1.73695E+01 1.07648E+00-2.19133E-02-5.10217E-01-5.58997E-14 2.32582E-13
 -1      4303 1.70708E+01 1.04392E+00-1.64455E-02-6.58229E-01 4.14013E-14 1.67260E-13
 -1      4304 2.04408E+01 3.84059E-01 2.52582E-03 1.95079E-04 2.67122E-15 5.56360E-14
 -1      4305 1.65791E+01 3.79162E-01 1.98381E-02-2.09352E+00-2.48636E-14-4.88576E-14
 -1      4306 2.03254E+01 3.48356E-02 2.65509E-04-1.25168E-02-4.44600E-14 7.63604E-14
 -1      4307 2.02955E+01 1.85930E-02 6.54883E-04-1.04746E-02-5.01031E-14 5.67211E-14
 -1      4308 2.01424E+01 3.59406E-02 2.37406E-04-9.70627E-02-3.78769E-14 1.56702E-13
 -1      4309 2.01721E+01 2.01686E-02-1.50986E-04-9.23614E-02-4.56364E-14 1.12405E-13
 -1      4310 2.01969E+01 1.89471E-02-1.66349E-04-6.42035E-02-3.82086E-14 7.29573E-14
 -1      4311 2.01292E+01 5.08338E-02 9.57431E-05-6.93584E-02-5.25153E-15 4.17224E-14
 -1      4312 1.76712E+01 5.06018E-01-1.46017E-04 1.69014E+00 1.12605E-15-4.03774E-14
 -1      4313 2.04106E+01 4.41802E-01-1.67195E-03 1.03100E-02-1.04326E-14-5.82160E-15
 -1      4314 2.04213E+01 4.83238E-01 4.58014E-05 1.11238E-02 1.04312E-15 8.29349E-15
 -1      4315 2.04310E+01 3.95408E-01 2.20850E-03-4.45531E-03-3.53487E-15 1.78141E-14
 -1      4316 2.04088E+01 3.34665E-01 6.70065E-04-2.07364E-02 1.13247E-14 5.68521E-15
 -1      4317 1.66870E+01 1.04383E+00-1.07253E-02-7.24248E-01 7.38199E-14 1.78389E-13
 -1      4318 2.03535E+01 5.96311E-02 5.45515E-04-7.93250E-03-6.30388E-14 5.25509E-14
 -1      4319 2.02082E+01 1.84336E-02-1.46125E-05 6.77514E-03 3.44305E-14 8.52456E-14
 -1      4320 2.01729E+01 3.09962E-02-8.85123E-06 7.93583E-03 4.17339E-14 1.00218E-13
 -1      4321 2.03998E+01 2.57548E-01-4.01640E-04-3.24672E-02 2.84457E-14 2.87996E-15
 -1      4322 2.04108E+01 2.84732E-01-1.21178E-03-2.38018E-02 2.05613E-14-1.78455E-14
 -1      4323 2.03883E+01 1.96657E-01 4.85670E-04-5.01758E-02 8.50734E-15 6.68113E-15
 -1      4324 1.63391E+01 6.60240E-01 7.14134E-03-1.60836E+00 6.32888E-14 7.14084E-14
 -1      4325 2.04289E+01 3.21464E-01 1.68526E-05-9.45738E-03-6.37351E-15 6.21283E-14
 -1      4326 2.04305E+01 2.77145E-01-1.23559E-03-3.36701E-03 1.20928E-14 4.88491E-14
 -1      4327 1.59647E+01 1.09175E+00-2.42102E-02-5.83699E-01-1.85058E-14 3.38816E-13
 -1      4328 2.03781E+01 9.78193E-02 3.38697E-04-1.19454E-02-6.39565E-14 3.61465E-14
 -1      4329 1.65228E+01 9.33789E-01 1.77403E-02-1.20761E+00 1.36117E-13 2.02293E-13
 -1      4330 2.04117E+01 1.77951E-01-1.90996E-04 5.42701E-03-3.00641E-14 5.42466E-14
 -1      4331 2.01541E+01 4.14205E-02-8.72991E-06-2.44047E-02 1.52922E-14 8.64457E-15
 -1      4332 2.03606E+01 1.04444E-01-4.13711E-04-6.63488E-02-6.61412E-14 4.98868E-14
 -1      4333 2.03771E+01 1.48567E-01-2.16624E-04-5.55301E-02-4.90932E-14 1.40767E-14
 -1      4334 2.03903E+01 1.69651E-01-4.07262E-04-4.34162E-02-4.00647E-14 1.51531E-14
 -1      4335 2.03639E+01 8.93765E-02-7.74014E-04-4.85584E-02-8.69069E-14-9.20011E-15
 -1      4336 2.00675E+01 9.67086E-02 2.07200E-04-5.24282E-02 5.57162E-14 4.99436E-15
 -1      4337 2.01780E+01 2.70734E-02 3.17526E-04-4.52788E-02-2.20435E-14 3.02026E-14
 -1      4338 2.01412E+01 4.38118E-02-3.99860E-04-4.62511E-02-2.60897E-14-9.20141E-15
 -1      4339 2.04203E+01 3.12732E-01-2.70969E-04-1.64412E-02 1.22661E-14 1.95808E-14
 -1      4340 2.04160E+01 2.24374E-01 1.45271E-03-2.33781E-02-5.17125E-15 3.30232E-14
 -1      4341 2.02110E+01 1.56827E-02-3.84171E-04-4.33015E-02 2.10062E-14 7.93611E-14
 -1      4342 2.04028E+01 1.73886E-01 3.65644E-04-2.79076E-02-4.64762E-14 4.28968E-14
 -1      4343 2.01063E+01 6.72372E-02 3.85562E-04-4.89873E-02 4.83957E-14-7.38364E-15
 -1      4344 2.03878E+01 1.37294E-01-3.12187E-05-2.85767E-02-4.08610E-14 2.89570E-14
 -3
    1PSTEP                         3           1           1          
  100CL  101 1.000000000        4344                     0    1           1
 -4  TOSTRAIN    6    1
 -5  EXX         1    4    1    1
 -5  EYY         1    4    2    2
 -5  EZZ         1    4    3    3
 -5  EXY         1    4    1    2
 -5  EYZ         1    4    2    3
 -5  EZX         1    4    3    1
 -1         1 1.59972E-05 1.88837E-05-1.80782E-05 3.12722E-05-7.59026E-18-6.24306E-18
 -1         2 3.70381E-05-1.11850E-04 2.01062E-05-1.01372E-07 1.27523E-17 5.77862E-19
 -1         3 9.51517E-05-2.86624E-05-2.83846E-05-8.34625E-08-2.55278E-18-2.60772E-18
 -1         4 9.51376E-05-2.86741E-05-2.83508E-05 9.08404E-08 1.06948E-18 2.80502E-19
 -1         5 1.43317E-04-2.14752E-05-4.25172E-05 3.85286E-05-9.72500E-20 5.03053E-18
 -1         6 1.45382E-04 2.57491E-10-4.41764E-05-5.35229E-05-2.14299E-19 2.95826E-18
 -1         7 9.05820E-05-5.10090E-07-3.90582E-05-2.92577E-05-2.98579E-20 4.17931E-19
 -1         8 8.51060E-05 8.68301E-08-3.63320E-05-2.02824E-05-3.64224E-20-3.61660E-19
 -1         9 8.28041E-05 7.69404E-08-3.53472E-05-1.56555E-05-1.86744E-20-7.16094E-19
 -1        10 8.17760E-05 3.85848E-08-3.48819E-05-1.20929E-05 6.94832E-21-8.72118E-19
 -1        11 8.12620E-05 1.92858E-08-3.46562E-05-9.02555E-06-1.32217E-20-8.71503E-19
 -1        12 8.09987E-05 8.96897E-09-3.45446E-05-6.29361E-06 1.65122E-20-7.97662E-19
 -1        13 8.08618E-05 4.32270E-09-3.44887E-05-3.69141E-06 1.50133E-21-6.47179E-19
 -1        14 8.08050E-05 2.44687E-09-3.44661E-05-1.18563E-06 2.44568E-20-5.00477E-19
 -1        15 8.08071E-05 2.43437E-09-3.44669E-05 1.29095E-06 2.73757E-20-4.39739E-19
 -1        16 8.08683E-05 4.24059E-09-3.44910E-05 3.80186E-06 5.45923E-20-3.62188E-19
 -1        17 8.10105E-05 8.16192E-09-3.45483E-05 6.41627E-06 4.56074E-20-2.21552E-19
 -1        18 8.12790E-05 1.79846E-08-3.46615E-05 9.16802E-06 3.44438E-20 2.62167E-20
 -1        19 8.17975E-05 3.80987E-08-3.48900E-05 1.22718E-05 6.26407E-20 3.03334E-19
 -1        20 8.28271E-05 8.15711E-08-3.53598E-05 1.58845E-05 6.14628E-20 7.70150E-19
 -1        21 8.50721E-05 1.69774E-07-3.63702E-05 2.04940E-05 6.60421E-20 1.57576E-18
 -1        22 9.16198E-05-9.87571E-08-3.87298E-05 2.80052E-05 2.11758E-22 2.86532E-18
 -1        23 1.12940E-04-3.81146E-05-3.53862E-05-4.40479E-06-1.19299E-19 2.25523E-18
 -1        24 9.27629E-05-2.76845E-05-2.89867E-05 3.90617E-07-3.44372E-20 1.57527E-18
 -1        25 8.90703E-05-2.68374E-05-2.69145E-05 3.75617E-07-4.23053E-20 1.09517E-18
 -1        26 8.79600E-05-2.64718E-05-2.63748E-05 2.03719E-07 4.73702E-20 4.45804E-19
 -1        27 8.79786E-05-2.64478E-05-2.63646E-05 1.39256E-07 8.88607E-20 2.41299E-19
 -1        28 8.85042E-05-2.65818E-05-2.65318E-05 1.00084E-07-4.44661E-20 5.98270E-19
 -1        29 8.92518E-05-2.67923E-05-2.67623E-05 7.42080E-08 1.03894E-20 3.31365E-19
 -1        30 9.00718E-05-2.70308E-05-2.70109E-05 5.56654E-08 2.79533E-20 2.63847E-19
 -1        31 9.08817E-05-2.72695E-05-2.72554E-05 4.16490E-08-1.33322E-20 1.30600E-19
 -1        32 9.16386E-05-2.74941E-05-2.74836E-05 3.07484E-08-1.43181E-19-5.91088E-19
 -1        33 9.23246E-05-2.76987E-05-2.76907E-05 2.21852E-08 2.66734E-19-2.19298E-19
 -1        34 9.29390E-05-2.78825E-05-2.78764E-05 1.54929E-08-1.87683E-19-1.38824E-19
 -1        35 9.34937E-05-2.80490E-05-2.80443E-05 1.03807E-08 2.20799E-20-1.57089E-18
 -1        36 9.40099E-05-2.82043E-05-2.82009E-05 6.67809E-09 1.25563E-19-1.05312E-18
 -1        37 9.45169E-05-2.83573E-05-2.83549E-05 4.31823E-09-1.94294E-19-5.34440E-19
 -1        38 9.50519E-05-2.85189E-05-2.85176E-05 3.34180E-09-9.29192E-20-7.71616E-19
 -1        39 9.56594E-05-2.87026E-05-2.87024E-05 3.91469E-09 2.84815E-20-9.89671E-19
 -1        40 9.63928E-05-2.89241E-05-2.89255E-05 6.35589E-09 1.10365E-19-4.36494E-19
 -1        41 9.73145E-05-2.92023E-05-2.92058E-05 1.11736E-08 5.47629E-20-6.15620E-19
 -1        42 9.84967E-05-2.95585E-05-2.95651E-05 1.91026E-08-3.91430E-19-1.26138E-18
 -1        43 1.00021E-04-3.00168E-05-3.00275E-05 3.11223E-08-1.27389E-19-1.72975E-18
 -1        44 1.01971E-04-3.06024E-05-3.06186E-05 4.84017E-08 5.51081E-19-1.37262E-19
 -1        45 1.04428E-04-3.13383E-05-3.13610E-05 7.20485E-08-2.86726E-20 1.63731E-18
 -1        46 1.07442E-04-3.22390E-05-3.22678E-05 1.02412E-07-3.24588E-19-9.17912E-19
 -1        47 1.10994E-04-3.32982E-05-3.33288E-05 1.37496E-07 1.02419E-19 6.04305E-20
 -1        48 1.14927E-04-3.44689E-05-3.44887E-05 1.69862E-07-6.85977E-20 2.39022E-20
 -1        49 1.18844E-04-3.56335E-05-3.56178E-05 1.81733E-07-1.08316E-19-3.17485E-19
 -1        50 1.21996E-04-3.65713E-05-3.64825E-05 1.40029E-07-1.46535E-19-8.17645E-19
 -1        51 1.23229E-04-3.69425E-05-3.67449E-05-1.35775E-09-5.96381E-20 4.79434E-20
 -1        52 1.21171E-04-3.63386E-05-3.60386E-05-2.76679E-07-2.56707E-19 8.58772E-19
 -1        53 1.14857E-04-3.44635E-05-3.41633E-05-6.47714E-07 3.06679E-19 2.16171E-18
 -1        54 1.04800E-04-3.14549E-05-3.13557E-05-9.39937E-07 2.45705E-19 3.43969E-18
 -1        55 9.38547E-05-2.81572E-05-2.84332E-05-8.87525E-07-6.77456E-19 2.08071E-18
 -1        56 8.65659E-05-2.59497E-05-2.65421E-05-3.67851E-07-4.84695E-19-6.73762E-19
 -1        57 8.65412E-05-2.59426E-05-2.65317E-05 3.75187E-07 4.01593E-19 1.18608E-18
 -1        58 9.37485E-05-2.81261E-05-2.83933E-05 8.89177E-07-1.67625E-19 6.57906E-19
 -1        59 1.04538E-04-3.13765E-05-3.12697E-05 9.35072E-07 5.07674E-20-7.71859E-19
 -1        60 1.14363E-04-3.43148E-05-3.40105E-05 6.39388E-07-6.26770E-19 6.83900E-19
 -1        61 1.20391E-04-3.61035E-05-3.58022E-05 2.67408E-07 4.43344E-19-4.06152E-19
 -1        62 1.22122E-04-3.66091E-05-3.64108E-05-8.57578E-09 5.58066E-20-2.09769E-18
 -1        63 1.20520E-04-3.61276E-05-3.60367E-05-1.51680E-07-8.94957E-19-4.53688E-18
 -1        64 1.16950E-04-3.50650E-05-3.50454E-05-1.96722E-07 1.48859E-19-6.75986E-18
 -1        65 1.12559E-04-3.37592E-05-3.37738E-05-1.89626E-07-5.86274E-19-3.48686E-18
 -1        66 1.08105E-04-3.24336E-05-3.24584E-05-1.62902E-07 2.44669E-19-2.58795E-18
 -1        67 1.04014E-04-3.12145E-05-3.12397E-05-1.33131E-07 8.27862E-19-1.69628E-18
 -1        68 1.00514E-04-3.01690E-05-3.01959E-05-1.04849E-07 1.30742E-19 7.41498E-19
 -1        69 9.77488E-05-2.93402E-05-2.93778E-05-7.28491E-08 2.67936E-19-7.61105E-20
 -1        70 9.58806E-05-2.87734E-05-2.88273E-05-1.37985E-08 5.61739E-19 2.41678E-18
 -1        71 9.50934E-05-2.85125E-05-2.85481E-05 7.01420E-08-3.23877E-19 3.44774E-18
 -1        72 1.02144E-04-3.05769E-05-3.41392E-05-1.92749E-06 4.98161E-20 5.03910E-18
 -1        73 9.25193E-05-2.75006E-05-2.88950E-05-3.32853E-07-2.51562E-20 4.49107E-18
 -1        74 8.90582E-05-2.66870E-05-2.69579E-05-1.25633E-07-6.90696E-22 4.13491E-18
 -1        75 8.79900E-05-2.64226E-05-2.64189E-05-9.52262E-08 6.18069E-21 3.73765E-18
 -1        76 8.80133E-05-2.64277E-05-2.63914E-05-7.60696E-08-3.47664E-21 3.25331E-18
 -1        77 8.85384E-05-2.65762E-05-2.65490E-05-6.17827E-08 4.10435E-20 3.33221E-18
 -1        78 8.92836E-05-2.67937E-05-2.67748E-05-5.07216E-08-1.14894E-19 4.16401E-18
 -1        79 9.01004E-05-2.70355E-05-2.70207E-05-4.14859E-08 1.19151E-19 3.89605E-18
 -1        80 9.09072E-05-2.72757E-05-2.72632E-05-3.34124E-08-6.65360E-20 2.96048E-18
 -1        81 9.16613E-05-2.75010E-05-2.74901E-05-2.62386E-08 2.15622E-19 2.26352E-18
 -1        82 9.23451E-05-2.77055E-05-2.76963E-05-1.98534E-08 2.95769E-20 1.98634E-18
 -1        83 9.29581E-05-2.78892E-05-2.78816E-05-1.41982E-08-6.97716E-20 2.35825E-18
 -1        84 9.35119E-05-2.80553E-05-2.80494E-05-9.23733E-09 1.56652E-19 1.42672E-18
 -1        85 9.40274E-05-2.82100E-05-2.82060E-05-4.95796E-09-2.76802E-21 1.62766E-18
 -1        86 9.45332E-05-2.83620E-05-2.83599E-05-1.38440E-09-8.76995E-20 1.31446E-18
 -1        87 9.50642E-05-2.85216E-05-2.85216E-05 1.39950E-09 1.47020E-19 4.10455E-19
 -1        88 9.56612E-05-2.87010E-05-2.87036E-05 3.22024E-09-4.34451E-19 1.76678E-18
 -1        89 9.63709E-05-2.89140E-05-2.89197E-05 3.77778E-09 2.55177E-19 2.31843E-18
 -1        90 9.72441E-05-2.91759E-05-2.91852E-05 2.60353E-09-1.46523E-19 9.65827E-19
 -1        91 9.83338E-05-2.95024E-05-2.95158E-05-9.79046E-10 2.26570E-19 3.65276E-19
 -1        92 9.96905E-05-2.99084E-05-2.99262E-05-7.87117E-09-1.29633E-19 3.25616E-19
 -1        93 1.01353E-04-3.04053E-05-3.04275E-05-1.91452E-08-9.06753E-20 9.13260E-19
 -1        94 1.03336E-04-3.09970E-05-3.10221E-05-3.58229E-08-2.04863E-19 1.37936E-18
 -1        95 1.05600E-04-3.16726E-05-3.16965E-05-5.83125E-08-1.01189E-19 1.67298E-18
 -1        96 1.08028E-04-3.23966E-05-3.24113E-05-8.52485E-08 1.71314E-19 2.58191E-18
 -1        97 1.10374E-04-3.30972E-05-3.30887E-05-1.11505E-07 1.17281E-19 3.08608E-18
 -1        98 1.12229E-04-3.36544E-05-3.36034E-05-1.25595E-07 1.11588E-19 1.62081E-18
 -1        99 1.13011E-04-3.38971E-05-3.37840E-05-1.08084E-07-3.64064E-19 1.43950E-18
 -1       100 1.12043E-04-3.36242E-05-3.34427E-05-3.50449E-08-1.26114E-19 5.00400E-18
 -1       101 1.08773E-04-3.26663E-05-3.24448E-05 1.07960E-07 3.24625E-19 2.74083E-18
 -1       102 1.03152E-04-3.09964E-05-3.08128E-05 3.00792E-07-3.30292E-19 9.78694E-19
 -1       103 9.60363E-05-2.88548E-05-2.88183E-05 4.68969E-07-1.48849E-19 1.95461E-18
 -1       104 8.92748E-05-2.67903E-05-2.69751E-05 5.04806E-07-3.78050E-19 2.60614E-18
 -1       105 8.51454E-05-2.55035E-05-2.58730E-05 3.43879E-07 5.60939E-19-2.95859E-19
 -1       106 8.52275E-05-2.54995E-05-2.59015E-05 3.73194E-08-8.02225E-19-2.10112E-18
 -1       107 8.94620E-05-2.67773E-05-2.70407E-05-2.67887E-07-2.14361E-19-2.80429E-18
 -1       108 9.61789E-05-2.88248E-05-2.88703E-05-4.37452E-07 7.28700E-19-6.40614E-18
 -1       109 1.03078E-04-3.09273E-05-3.07954E-05-4.37796E-07-4.26253E-19-4.09585E-18
 -1       110 1.08347E-04-3.25255E-05-3.23151E-05-3.25663E-07 1.95457E-19-2.70464E-18
 -1       111 1.11184E-04-3.33791E-05-3.31777E-05-1.80792E-07 2.97841E-19-2.16182E-18
 -1       112 1.11680E-04-3.35223E-05-3.33744E-05-5.70707E-08-5.16513E-19 1.20537E-18
 -1       113 1.10405E-04-3.31327E-05-3.30455E-05 2.65345E-08 9.82196E-19-1.33077E-18
 -1       114 1.08039E-04-3.24177E-05-3.23787E-05 7.32416E-08-5.07145E-19-5.21418E-18
 -1       115 1.05166E-04-3.15538E-05-3.15465E-05 9.43445E-08 9.52269E-19-7.20337E-18
 -1       116 1.02221E-04-3.06699E-05-3.06825E-05 1.00778E-07-1.04284E-19-7.01973E-18
 -1       117 9.95100E-05-2.98561E-05-2.98849E-05 9.93838E-08-3.92483E-20-7.92617E-18
 -1       118 9.72689E-05-2.91813E-05-2.92302E-05 9.05630E-08 1.79423E-19-5.19195E-18
 -1       119 9.57293E-05-2.87142E-05-2.87802E-05 5.83831E-08 9.75105E-20-4.05131E-18
 -1       120 9.51139E-05-2.85049E-05-2.85508E-05-3.48011E-08 1.18687E-18-4.14232E-18
 -1       121 9.52606E-05-2.86433E-05-2.85574E-05-6.58251E-08-3.77727E-18 5.97699E-19
 -1       122 9.50652E-05-2.80156E-05-2.87916E-05 2.59115E-08 3.90970E-19-7.83253E-20
 -1       123 9.46160E-05-2.65145E-05-2.92254E-05 7.67178E-08 1.81985E-18 1.61140E-18
 -1       124 9.40123E-05-2.44934E-05-2.98080E-05 9.69102E-08 2.52528E-18 6.36237E-19
 -1       125 9.33575E-05-2.22944E-05-3.04473E-05 9.79978E-08 3.79373E-18-1.76064E-18
 -1       126 9.27545E-05-2.02632E-05-3.10402E-05 8.61771E-08-7.85463E-18-1.02023E-18
 -1       127 9.22647E-05-1.86154E-05-3.15211E-05 6.21983E-08-6.71106E-18 2.12819E-18
 -1       128 9.19689E-05-1.76191E-05-3.18110E-05 2.89311E-08-2.15487E-18 1.21543E-18
 -1       129 9.19125E-05-1.74286E-05-3.18648E-05-9.89835E-09 5.49305E-18 6.78058E-19
 -1       130 9.21106E-05-1.80946E-05-3.16686E-05-4.92720E-08 3.26771E-18-8.84839E-19
 -1       131 9.25419E-05-1.95476E-05-3.12433E-05-8.46320E-08-7.66598E-19-2.39516E-18
 -1       132 9.31409E-05-2.15623E-05-3.06564E-05-1.06685E-07-5.31431E-18 2.15047E-18
 -1       133 9.38398E-05-2.39105E-05-2.99772E-05-1.13947E-07-7.87750E-18-1.55476E-18
 -1       134 9.45144E-05-2.61825E-05-2.93286E-05-1.03798E-07-7.78188E-18-3.41349E-19
 -1       135 9.50314E-05-2.78928E-05-2.88300E-05-5.16883E-08-8.80293E-18-9.24623E-19
 -1       136 9.52207E-05-2.86150E-05-2.85518E-05 1.37575E-07-4.37484E-18 9.06761E-19
 -1       137 2.65845E-05-8.87454E-05 1.57334E-05-2.35088E-05 1.51445E-17 2.63409E-18
 -1       138 8.27757E-06-3.61987E-05 3.90015E-06-1.92221E-05 1.13701E-17 5.07881E-18
 -1       139 9.95587E-06 1.33818E-05-1.38688E-05 2.07040E-05 8.38986E-18 5.05086E-18
 -1       140 5.75554E-05 2.72933E-05-3.49795E-05 7.74799E-05 4.14750E-18 5.86274E-18
 -1       141 1.46682E-04-3.50128E-06-5.50013E-05 1.11972E-04 3.81440E-18 5.90678E-18
 -1       142 2.42407E-04-5.51226E-05-7.00349E-05 9.69062E-05 1.66506E-18 4.02976E-18
 -1       143 3.01609E-04-9.15575E-05-7.77243E-05 3.29939E-05 4.93847E-19 5.79582E-19
 -1       144 2.94797E-04-8.73734E-05-7.68221E-05-4.71468E-05 1.00117E-18-2.55190E-18
 -1       145 2.26653E-04-4.61547E-05-6.76931E-05-1.03505E-04 1.41105E-18-5.65140E-18
 -1       146 1.27490E-04 5.30738E-06-5.14623E-05-1.09167E-04 3.30279E-18-4.67943E-18
 -1       147 4.15531E-05 2.83462E-05-2.98590E-05-6.45859E-05 9.26019E-18-9.19454E-18
 -1       148 6.76549E-06 3.57865E-06-9.40525E-06-9.24650E-06 1.16238E-17-8.97749E-18
 -1       149 1.25457E-05-5.13504E-05 7.66253E-06 2.27126E-05 1.06455E-17-3.59131E-18
 -1       150 3.09761E-05-9.91418E-05 1.78761E-05 1.79987E-05 8.91968E-18-1.44917E-18
 -1       151 3.54285E-05-1.08729E-04 1.96098E-05-9.19408E-06 1.52678E-18-1.98709E-19
 -1       152 2.12882E-05-7.68343E-05 1.33493E-05-2.63510E-05-8.14825E-18-4.18074E-18
 -1       153 5.63278E-06-2.32105E-05 9.03535E-08-1.37215E-05-1.23718E-17-5.32847E-18
 -1       154 7.23922E-05 2.29755E-05-3.88387E-05 8.53647E-05-3.89678E-18-3.91753E-18
 -1       155 1.60950E-04-1.06561E-05-5.75236E-05 1.13017E-04 1.04990E-18 3.06922E-18
 -1       156 2.52734E-04-6.05724E-05-7.15255E-05 9.31281E-05 1.62334E-18 4.08228E-18
 -1       157 3.09343E-04-9.48064E-05-7.89980E-05 2.57741E-05 1.73986E-19 2.86689E-18
 -1       158 2.97666E-04-8.73201E-05-7.75942E-05-5.19671E-05-1.37298E-18 6.62274E-18
 -1       159 2.24979E-04-4.44252E-05-6.75985E-05-1.04994E-04-4.97780E-18 1.20401E-17
 -1       160 1.30631E-04 3.69091E-06-5.20663E-05-1.09789E-04-8.47880E-18 1.48379E-17
 -1       161 5.08299E-05 2.70959E-05-3.28756E-05-7.14698E-05-1.14100E-17 1.20732E-17
 -1       162 8.25050E-06 7.90115E-06-1.15493E-05-1.40159E-05-1.42323E-17 9.72479E-18
 -1       163 9.59455E-06-4.17013E-05 5.14053E-06 2.16024E-05-7.39036E-18 3.40073E-18
 -1       164 2.78471E-05-9.28219E-05 1.66378E-05 2.34545E-05 5.35515E-18 3.06599E-19
 -1       165 9.48436E-05-1.23415E-05-3.55611E-05-2.23578E-05-3.40547E-19 3.43578E-20
 -1       166 8.92288E-05-8.44843E-06-3.47827E-05-1.73971E-05-3.59427E-19-4.10745E-19
 -1       167 8.65515E-05-6.51011E-06-3.44143E-05-1.36061E-05-1.68146E-19-6.34229E-19
 -1       168 8.51976E-05-5.51680E-06-3.42320E-05-1.03785E-05-9.45798E-20-7.34172E-19
 -1       169 8.44618E-05-4.94850E-06-3.41462E-05-7.55614E-06-1.87489E-20-6.48523E-19
 -1       170 8.40410E-05-4.60440E-06-3.41060E-05-4.90997E-06 5.52337E-20-5.62291E-19
 -1       171 8.38267E-05-4.42071E-06-3.40893E-05-2.39840E-06 1.94159E-19-4.00216E-19
 -1       172 8.37636E-05-4.36515E-06-3.40850E-05 5.12442E-08 3.54854E-19-3.17565E-19
 -1       173 8.38366E-05-4.42913E-06-3.40900E-05 2.50295E-06 4.46536E-19-2.58603E-19
 -1       174 8.40630E-05-4.62367E-06-3.41074E-05 5.02105E-06 4.74279E-19-2.13968E-19
 -1       175 8.44897E-05-4.97566E-06-3.41471E-05 7.63297E-06 5.16498E-19-3.36497E-20
 -1       176 8.52572E-05-5.57647E-06-3.42338E-05 1.05240E-05 6.47277E-19 2.14399E-19
 -1       177 8.66433E-05-6.60847E-06-3.44168E-05 1.37957E-05 6.95080E-19 5.48824E-19
 -1       178 8.93773E-05-8.59718E-06-3.47871E-05 1.76348E-05 6.66138E-19 1.13269E-18
 -1       179 9.57544E-05-1.36072E-05-3.54175E-05 2.19035E-05 4.74312E-19 1.97565E-18
 -1       180 1.05573E-04-2.60918E-05-3.52534E-05 1.86700E-05 2.45719E-19 2.97917E-18
 -1       181 1.03367E-04-2.72921E-05-3.26009E-05-1.21362E-05-3.49401E-19 6.77838E-19
 -1       182 9.70715E-05-2.82781E-05-2.95180E-05-4.73907E-06-3.11999E-19 5.46876E-19
 -1       183 9.34665E-05-2.76247E-05-2.81697E-05-1.77682E-06-2.80626E-19 4.92444E-19
 -1       184 9.19266E-05-2.73923E-05-2.76221E-05-4.29241E-07-2.43034E-19 2.35737E-19
 -1       185 9.13466E-05-2.73157E-05-2.74235E-05 2.35019E-07 3.88328E-20 1.23978E-19
 -1       186 9.13021E-05-2.73534E-05-2.73979E-05 5.62369E-07-1.23599E-19 1.08213E-19
 -1       187 9.15458E-05-2.74556E-05-2.74631E-05 7.04442E-07 1.03234E-19 2.33459E-19
 -1       188 9.19344E-05-2.75885E-05-2.75749E-05 7.41359E-07-7.90463E-20 3.75320E-19
 -1       189 9.23840E-05-2.77315E-05-2.77074E-05 7.20448E-07-2.98850E-19 5.38149E-19
 -1       190 9.28470E-05-2.78729E-05-2.78458E-05 6.71977E-07 4.19254E-20 5.85392E-19
 -1       191 9.32999E-05-2.80073E-05-2.79825E-05 6.16475E-07-1.52577E-19-2.32799E-19
 -1       192 9.37355E-05-2.81337E-05-2.81150E-05 5.68625E-07-4.72610E-19-3.86783E-19
 -1       193 9.41585E-05-2.82539E-05-2.82446E-05 5.39595E-07-1.14156E-19-3.65614E-19
 -1       194 9.45830E-05-2.83725E-05-2.83754E-05 5.38583E-07 5.31822E-19-2.10019E-19
 -1       195 9.50306E-05-2.84959E-05-2.85139E-05 5.73920E-07-2.34679E-19 4.09500E-19
 -1       196 9.55299E-05-2.86328E-05-2.86686E-05 6.53834E-07-1.04769E-19 4.41113E-19
 -1       197 9.61155E-05-2.87931E-05-2.88503E-05 7.86920E-07-7.76402E-20-9.45292E-21
 -1       198 9.68287E-05-2.89892E-05-2.90712E-05 9.82219E-07-1.77266E-19-2.13292E-19
 -1       199 9.77162E-05-2.92350E-05-2.93454E-05 1.24871E-06-6.32070E-19-3.11691E-19
 -1       200 9.88295E-05-2.95465E-05-2.96884E-05 1.59380E-06-1.23931E-19-5.91686E-19
 -1       201 1.00222E-04-2.99416E-05-3.01155E-05 2.02013E-06 6.64826E-19-4.26397E-19
 -1       202 1.01943E-04-3.04386E-05-3.06401E-05 2.51948E-06 7.43207E-19-9.12132E-19
 -1       203 1.04026E-04-3.10558E-05-3.12696E-05 3.06207E-06-4.57181E-19 4.03238E-20
 -1       204 1.06474E-04-3.18072E-05-3.19991E-05 3.57950E-06 6.17043E-19 8.56380E-19
 -1       205 1.09225E-04-3.26970E-05-3.28010E-05 3.94059E-06-4.56739E-19 3.48357E-19
 -1       206 1.12117E-04-3.37068E-05-3.36134E-05 3.92524E-06-1.46246E-19-2.16342E-19
 -1       207 1.14836E-04-3.47718E-05-3.43280E-05 3.21624E-06-3.15642E-19-2.40928E-19
 -1       208 1.16878E-04-3.57393E-05-3.47913E-05 1.45693E-06 3.31240E-19-6.27102E-20
 -1       209 1.17561E-04-3.63150E-05-3.48346E-05-1.54874E-06 4.75910E-19 6.55977E-19
 -1       210 1.16181E-04-3.60508E-05-3.43470E-05-5.44821E-06 5.05348E-19 6.13199E-19
 -1       211 1.12409E-04-3.45154E-05-3.33796E-05-8.92854E-06 1.73102E-19 7.57896E-19
 -1       212 1.06925E-04-3.17795E-05-3.22040E-05-9.86155E-06-6.16421E-19 2.62064E-19
 -1       213 1.01787E-04-2.89187E-05-3.12412E-05-6.62842E-06-8.93262E-19 1.43648E-18
 -1       214 9.96336E-05-2.76693E-05-3.08610E-05-3.37705E-08 8.62174E-19 1.92191E-18
 -1       215 1.01707E-04-2.89123E-05-3.12089E-05 6.52909E-06-1.12135E-18-3.90773E-19
 -1       216 1.06728E-04-3.17434E-05-3.21334E-05 9.69345E-06-7.46022E-19-6.03498E-19
 -1       217 1.12046E-04-3.44238E-05-3.32621E-05 8.68797E-06 3.50066E-19-1.57894E-18
 -1       218 1.15618E-04-3.58930E-05-3.41736E-05 5.15732E-06-2.39095E-19-5.97602E-19
 -1       219 1.16769E-04-3.60872E-05-3.45938E-05 1.21801E-06-1.25037E-18-1.00726E-18
 -1       220 1.15830E-04-3.54367E-05-3.44726E-05-1.82843E-06-1.16153E-18-1.75448E-18
 -1       221 1.13503E-04-3.43862E-05-3.39223E-05-3.63495E-06-9.93589E-19-1.17880E-18
 -1       222 1.10469E-04-3.32269E-05-3.31127E-05-4.39386E-06 1.93127E-18-1.44784E-18
 -1       223 1.07238E-04-3.21110E-05-3.21999E-05-4.44907E-06 6.81061E-19 6.04813E-19
 -1       224 1.04140E-04-3.11053E-05-3.12983E-05-4.09576E-06 1.11503E-18-5.97473E-21
 -1       225 1.01372E-04-3.02338E-05-3.04824E-05-3.51998E-06 1.73015E-18 9.03157E-19
 -1       226 9.90463E-05-2.95011E-05-2.97986E-05-2.80289E-06-1.69271E-19 8.90416E-19
 -1       227 9.72339E-05-2.89083E-05-2.92759E-05-1.95084E-06 1.21696E-18 1.43104E-18
 -1       228 9.59365E-05-2.84598E-05-2.89140E-05-9.61796E-07 1.09866E-19 2.18736E-18
 -1       229 9.94660E-05-2.85439E-05-3.05768E-05 7.21823E-06 3.14170E-19 2.69310E-18
 -1       230 9.43769E-05-2.77789E-05-2.85126E-05 2.75057E-06 2.66643E-19 2.20733E-18
 -1       231 9.20519E-05-2.73877E-05-2.76682E-05 9.36668E-07 2.79663E-19 1.83017E-18
 -1       232 9.10986E-05-2.72237E-05-2.73479E-05 7.45695E-08 1.82313E-19 1.68846E-18
 -1       233 9.08830E-05-2.72152E-05-2.72726E-05-3.53958E-07-1.96476E-20 1.72716E-18
 -1       234 9.10646E-05-2.73003E-05-2.73208E-05-5.56543E-07-2.38714E-19 1.77509E-18
 -1       235 9.14496E-05-2.74333E-05-2.74319E-05-6.33195E-07 3.26716E-19 1.65367E-18
 -1       236 9.19258E-05-2.75858E-05-2.75722E-05-6.38833E-07 4.06966E-19 1.30665E-18
 -1       237 9.24285E-05-2.77410E-05-2.77220E-05-6.06943E-07 3.66003E-19 9.68791E-19
 -1       238 9.29231E-05-2.78902E-05-2.78705E-05-5.59426E-07 9.33540E-20 1.06613E-18
 -1       239 9.33954E-05-2.80302E-05-2.80132E-05-5.11365E-07 2.53365E-19 8.34667E-19
 -1       240 9.38448E-05-2.81615E-05-2.81497E-05-4.73650E-07 4.29336E-19 5.48649E-19
 -1       241 9.42815E-05-2.82874E-05-2.82828E-05-4.54583E-07 2.83129E-20 4.24987E-19
 -1       242 9.47234E-05-2.84135E-05-2.84181E-05-4.60908E-07 2.45614E-19 2.56297E-19
 -1       243 9.51947E-05-2.85472E-05-2.85626E-05-4.98446E-07 2.52209E-19 3.94113E-19
 -1       244 9.57253E-05-2.86976E-05-2.87253E-05-5.72371E-07-9.61919E-19 4.96599E-19
 -1       245 9.63491E-05-2.88750E-05-2.89165E-05-6.87089E-07 9.13983E-20 4.97508E-19
 -1       246 9.71030E-05-2.90908E-05-2.91470E-05-8.45607E-07 3.55918E-19 6.34738E-19
 -1       247 9.80246E-05-2.93570E-05-2.94279E-05-1.04816E-06 2.50969E-19 5.41597E-19
 -1       248 9.91483E-05-2.96854E-05-2.97690E-05-1.28983E-06-7.32609E-19 1.08596E-18
 -1       249 1.00498E-04-3.00858E-05-3.01765E-05-1.55671E-06-1.38771E-19 1.07438E-18
 -1       250 1.02079E-04-3.05636E-05-3.06501E-05-1.82041E-06 1.31899E-19 5.73890E-19
 -1       251 1.03860E-04-3.11156E-05-3.11779E-05-2.03072E-06-1.60942E-19-5.94453E-19
 -1       252 1.05754E-04-3.17241E-05-3.17301E-05-2.10802E-06-6.63229E-19-1.35252E-20
 -1       253 1.07597E-04-3.23485E-05-3.22528E-05-1.93925E-06-2.11489E-19 2.11747E-18
 -1       254 1.09124E-04-3.29147E-05-3.26640E-05-1.38672E-06 1.29556E-19 2.69488E-18
 -1       255 1.09973E-04-3.33052E-05-3.28576E-05-3.25318E-07-4.84189E-19 3.03326E-18
 -1       256 1.09727E-04-3.33596E-05-3.27238E-05 1.27486E-06-1.03476E-18 2.63783E-18
 -1       257 1.08036E-04-3.29018E-05-3.21906E-05 3.22330E-06 5.93383E-19 2.35929E-18
 -1       258 1.04832E-04-3.18204E-05-3.12808E-05 5.00052E-06 3.65905E-19 3.23794E-18
 -1       259 1.00573E-04-3.02053E-05-3.01560E-05 5.80742E-06-3.78985E-19 2.26737E-18
 -1       260 9.63468E-05-2.84653E-05-2.91043E-05 4.92099E-06 7.43371E-19 1.42379E-18
 -1       261 9.35835E-05-2.72571E-05-2.84484E-05 2.26640E-06 1.87784E-18 3.77964E-19
 -1       262 9.33674E-05-2.71351E-05-2.84052E-05-1.27284E-06 2.48465E-19-4.69225E-19
 -1       263 9.57695E-05-2.81573E-05-2.89820E-05-4.26335E-06 1.15288E-18-2.57941E-18
 -1       264 9.97916E-05-2.98343E-05-2.99718E-05-5.61219E-06 8.11319E-19-3.61613E-18
 -1       265 1.03980E-04-3.14828E-05-3.10547E-05-5.15807E-06-1.63191E-18-2.06747E-18
 -1       266 1.07167E-04-3.26252E-05-3.19347E-05-3.51344E-06-6.76402E-20-1.81379E-18
 -1       267 1.08813E-04-3.31163E-05-3.24376E-05-1.50366E-06-2.44945E-20-9.03510E-19
 -1       268 1.08941E-04-3.30470E-05-3.25286E-05 2.64420E-07-1.11179E-18-1.31515E-18
 -1       269 1.07885E-04-3.25954E-05-3.22726E-05 1.51961E-06 2.29767E-18-1.02742E-18
 -1       270 1.06070E-04-3.19329E-05-3.17785E-05 2.24015E-06 5.95553E-19-1.31729E-18
 -1       271 1.03882E-04-3.11892E-05-3.11577E-05 2.52280E-06 1.51195E-18-2.01276E-18
 -1       272 1.01624E-04-3.04511E-05-3.05041E-05 2.48604E-06 4.03747E-20-2.16231E-18
 -1       273 9.95176E-05-2.97738E-05-2.98906E-05 2.21973E-06 5.17598E-19-1.02727E-18
 -1       274 9.77268E-05-2.91936E-05-2.93726E-05 1.76918E-06-1.13577E-18-2.90630E-18
 -1       275 9.63750E-05-2.87367E-05-2.89884E-05 1.14119E-06-7.79126E-19-1.56163E-18
 -1       276 9.55284E-05-2.84736E-05-2.87324E-05 3.93566E-07-1.50759E-19-1.25160E-18
 -1       277 9.53105E-05-2.79448E-05-2.88666E-05 8.37402E-07 3.43651E-19 2.74179E-18
 -1       278 9.49315E-05-2.69103E-05-2.91497E-05 1.57855E-06 9.86490E-19-4.76126E-19
 -1       279 9.44198E-05-2.55339E-05-2.95213E-05 2.06457E-06 1.41885E-19 1.50861E-19
 -1       280 9.38629E-05-2.39791E-05-2.99504E-05 2.23026E-06-2.66006E-18 7.52474E-19
 -1       281 9.33239E-05-2.24579E-05-3.03738E-05 2.09089E-06-1.47967E-18-5.70941E-18
 -1       282 9.28475E-05-2.11131E-05-3.07481E-05 1.66700E-06 2.93082E-19-4.14050E-19
 -1       283 9.25045E-05-2.01538E-05-3.10139E-05 1.00891E-06 3.24649E-19 3.41450E-18
 -1       284 9.23436E-05-1.97171E-05-3.11329E-05 1.95614E-07 9.67644E-19 3.75618E-18
 -1       285 9.23932E-05-1.98763E-05-3.10857E-05-6.68000E-07 1.36954E-19-2.20663E-18
 -1       286 9.26540E-05-2.06250E-05-3.08753E-05-1.46180E-06-7.38565E-19-8.42120E-19
 -1       287 9.30872E-05-2.18460E-05-3.05354E-05-2.05718E-06-1.60423E-18-3.21093E-18
 -1       288 9.36543E-05-2.34181E-05-3.01023E-05-2.36880E-06-2.05083E-18-1.47180E-18
 -1       289 9.42742E-05-2.51000E-05-2.96453E-05-2.30413E-06-1.90467E-18 7.72105E-20
 -1       290 9.48757E-05-2.66451E-05-2.92369E-05-1.80706E-06-2.04175E-18-7.33135E-19
 -1       291 9.54296E-05-2.76250E-05-2.90533E-05-1.57299E-06-6.90104E-19 2.35700E-18
 -1       292 1.29524E-05-4.95271E-05 1.21023E-05 7.12581E-06 3.77020E-18 2.59563E-18
 -1       293 2.52787E-05-4.37580E-05 4.98789E-06 2.03265E-05 4.57080E-18-6.35328E-19
 -1       294 5.22901E-05-3.70600E-05-8.21069E-06 3.52114E-05 5.07352E-18 1.47860E-18
 -1       295 8.76846E-05-3.03591E-05-2.49716E-05 4.45643E-05 3.86861E-18 9.46136E-19
 -1       296 1.34631E-04-3.27777E-05-4.26934E-05 4.30808E-05 8.72444E-19 1.76839E-18
 -1       297 1.72671E-04-3.20438E-05-5.79994E-05 3.66116E-05 2.54556E-18 7.11508E-20
 -1       298 2.02905E-04-3.55207E-05-6.82959E-05 2.20043E-05 9.70170E-19-4.04352E-19
 -1       299 2.07689E-04-3.44752E-05-7.08082E-05-1.98862E-06 1.60883E-18-1.87263E-18
 -1       300 1.98667E-04-3.48450E-05-6.68704E-05-2.54776E-05 2.66762E-18-2.60166E-18
 -1       301 1.66929E-04-3.12760E-05-5.58314E-05-4.18799E-05 1.77054E-18-4.36497E-18
 -1       302 1.25309E-04-3.26411E-05-3.90388E-05-4.41256E-05 4.04797E-18-1.92255E-18
 -1       303 7.76320E-05-3.08732E-05-2.08027E-05-4.24095E-05 4.15766E-18-2.12923E-18
 -1       304 4.59971E-05-3.88340E-05-4.84743E-06-3.36057E-05 3.73605E-18-3.70095E-18
 -1       305 2.04988E-05-4.22674E-05 6.80383E-06-1.99161E-05 3.93023E-18-2.47302E-18
 -1       306 1.12033E-05-4.89305E-05 1.27395E-05-3.27385E-06 2.00588E-18-4.49182E-18
 -1       307 1.43944E-05-4.57255E-05 1.03142E-05 1.08135E-05-3.19755E-19-5.10930E-18
 -1       308 3.07129E-05-4.22721E-05 2.22496E-06 2.27179E-05-2.18450E-18-3.26949E-18
 -1       309 5.82091E-05-3.52633E-05-1.15173E-05 3.54396E-05-4.37133E-18-1.20607E-18
 -1       310 9.97920E-05-3.34295E-05-2.86109E-05 4.39456E-05-3.64669E-18 8.12728E-19
 -1       311 1.43197E-04-3.47533E-05-4.54076E-05 4.02971E-05-2.87832E-18 3.73372E-18
 -1       312 1.80287E-04-3.41297E-05-5.99995E-05 3.65618E-05 3.51704E-19 1.89375E-18
 -1       313 2.04012E-04-3.50074E-05-6.90574E-05 1.66942E-05 9.31736E-20 2.90649E-18
 -1       314 2.14101E-04-3.73870E-05-7.19456E-05-3.91793E-06-1.61889E-18 3.26920E-18
 -1       315 1.94515E-04-3.32323E-05-6.62732E-05-2.08684E-05-3.61027E-18 2.81660E-18
 -1       316 1.68976E-04-3.31167E-05-5.59301E-05-4.12072E-05-5.07404E-18 4.28048E-18
 -1       317 1.28196E-04-3.08653E-05-4.08246E-05-4.65952E-05-4.94699E-18 6.28520E-18
 -1       318 8.93608E-05-3.64335E-05-2.32500E-05-4.22696E-05-5.22683E-18 4.87319E-18
 -1       319 4.82421E-05-3.76652E-05-6.54165E-06-3.18517E-05-2.04495E-18 7.00184E-18
 -1       320 2.42673E-05-4.37696E-05 5.52653E-06-1.98063E-05 2.44263E-18 6.71438E-18
 -1       321 1.26487E-05-4.96935E-05 1.23292E-05-5.22071E-06 4.66180E-18 2.62157E-18
 -1       322 9.16230E-05-1.44435E-05-3.31546E-05-1.29944E-05-2.72253E-19-2.96945E-19
 -1       323 9.56893E-05-1.91054E-05-3.28842E-05-1.46476E-05-3.62355E-19-1.43691E-19
 -1       324 8.80161E-05-1.03798E-05-3.33279E-05-8.16337E-06-8.74781E-20-5.08064E-19
 -1       325 8.72101E-05-9.46061E-06-3.33697E-05-5.72495E-06-6.03455E-20-4.47531E-19
 -1       326 8.67562E-05-8.93230E-06-3.33981E-05-3.37126E-06 1.53161E-19-2.04522E-19
 -1       327 8.65540E-05-8.69304E-06-3.34125E-05-1.07388E-06 3.15450E-19-8.85712E-20
 -1       328 8.65625E-05-8.70252E-06-3.34122E-05 1.20500E-06 5.31728E-19-6.11584E-20
 -1       329 8.67835E-05-8.96283E-06-3.33969E-05 3.50440E-06 6.05408E-19-1.07904E-19
 -1       330 8.72500E-05-9.50558E-06-3.33677E-05 5.82200E-06 6.02653E-19 3.23130E-20
 -1       331 8.80807E-05-1.04548E-05-3.33236E-05 8.26363E-06 6.87833E-19 2.37139E-19
 -1       332 8.94851E-05-1.20349E-05-3.32595E-05 1.07742E-05 7.61102E-19 5.02936E-19
 -1       333 9.18930E-05-1.47203E-05-3.31552E-05 1.31805E-05 7.67435E-19 8.01902E-19
 -1       334 9.57837E-05-1.94513E-05-3.28216E-05 1.43868E-05 6.48982E-19 1.37856E-18
 -1       335 9.87632E-05-2.44358E-05-3.19428E-05 1.19078E-05 4.37678E-19 1.87018E-18
 -1       336 9.63597E-05-2.68033E-05-2.97804E-05 5.75133E-06 5.36595E-19 1.51603E-18
 -1       337 9.64120E-05-2.60220E-05-3.01227E-05-6.35713E-06-3.00809E-19-4.75794E-20
 -1       338 9.48902E-05-2.70193E-05-2.90621E-05-2.84580E-06-3.56920E-19 1.64844E-19
 -1       339 9.39131E-05-2.74162E-05-2.84840E-05-9.32931E-07-1.56011E-19 1.37611E-19
 -1       340 9.33943E-05-2.76277E-05-2.81790E-05 1.29790E-07-1.16670E-19-3.16603E-21
 -1       341 9.32044E-05-2.77794E-05-2.80364E-05 7.00145E-07-8.37540E-20-2.68833E-20
 -1       342 9.32270E-05-2.79075E-05-2.79930E-05 9.78007E-07 3.82152E-20 9.25628E-20
 -1       343 9.33773E-05-2.80209E-05-2.80097E-05 1.08269E-06-2.33133E-20 2.14741E-19
 -1       344 9.35989E-05-2.81213E-05-2.80620E-05 1.08972E-06-1.72761E-19 3.02348E-19
 -1       345 9.38564E-05-2.82091E-05-2.81350E-05 1.04954E-06-3.70027E-19 1.31586E-19
 -1       346 9.41309E-05-2.82851E-05-2.82200E-05 9.97429E-07-4.68501E-19 1.60582E-19
 -1       347 9.44150E-05-2.83513E-05-2.83132E-05 9.59249E-07-2.08716E-19 1.83181E-19
 -1       348 9.47103E-05-2.84105E-05-2.84141E-05 9.55055E-07 4.69104E-19 8.68912E-19
 -1       349 9.50254E-05-2.84664E-05-2.85248E-05 1.00158E-06 3.67666E-19 5.47824E-19
 -1       350 9.53744E-05-2.85233E-05-2.86495E-05 1.11395E-06-9.96716E-20 6.75167E-19
 -1       351 9.57763E-05-2.85869E-05-2.87940E-05 1.30674E-06-3.45401E-19 5.53141E-19
 -1       352 9.62542E-05-2.86636E-05-2.89653E-05 1.59443E-06-8.31679E-19-1.60478E-19
 -1       353 9.68348E-05-2.87618E-05-2.91714E-05 1.99104E-06-4.42634E-19-8.71379E-19
 -1       354 9.75481E-05-2.88920E-05-2.94206E-05 2.50854E-06-2.03855E-19-1.14116E-18
 -1       355 9.84262E-05-2.90691E-05-2.97204E-05 3.15332E-06 6.49761E-19-7.61752E-19
 -1       356 9.95029E-05-2.93142E-05-3.00763E-05 3.91954E-06 8.52939E-19-7.47140E-20
 -1       357 1.00812E-04-2.96595E-05-3.04895E-05 4.77779E-06 9.87076E-19 5.24851E-19
 -1       358 1.02387E-04-3.01538E-05-3.09537E-05 5.65683E-06 5.79353E-20 1.08654E-18
 -1       359 1.04261E-04-3.08699E-05-3.14521E-05 6.41714E-06 4.11787E-20 6.76799E-19
 -1       360 1.06458E-04-3.19063E-05-3.19546E-05 6.81768E-06-1.19343E-19 6.49191E-19
 -1       361 1.08989E-04-3.33690E-05-3.24196E-05 6.48745E-06-1.80113E-19 7.71968E-19
 -1       362 1.11799E-04-3.52976E-05-3.28055E-05 4.93545E-06 1.87286E-19 1.24743E-18
 -1       363 1.14656E-04-3.74907E-05-3.30969E-05 1.67568E-06 3.72463E-19 8.43780E-19
 -1       364 1.16975E-04-3.92426E-05-3.33409E-05-3.41517E-06 8.26686E-19 1.45725E-19
 -1       365 1.17706E-04-3.92068E-05-3.36639E-05-9.44086E-06 3.06553E-19 4.14355E-19
 -1       366 1.15795E-04-3.60327E-05-3.42053E-05-1.38500E-05 4.48561E-19 1.38896E-18
 -1       367 1.11546E-04-3.01392E-05-3.49247E-05-1.30701E-05 7.73877E-20 2.66050E-18
 -1       368 1.07762E-04-2.51106E-05-3.54751E-05-5.48762E-06-9.92663E-19 1.53122E-18
 -1       369 1.07750E-04-2.51490E-05-3.54510E-05 5.32716E-06-1.45711E-18-2.39531E-19
 -1       370 1.11443E-04-3.01722E-05-3.48662E-05 1.28078E-05-1.54848E-18-2.44352E-19
 -1       371 1.15603E-04-3.60724E-05-3.41012E-05 1.34643E-05-4.81072E-19-9.23950E-19
 -1       372 1.17336E-04-3.91468E-05-3.35324E-05 8.98074E-06 5.85028E-19-5.57580E-19
 -1       373 1.16457E-04-3.91273E-05-3.31715E-05 2.88924E-06 3.40749E-20-1.36652E-19
 -1       374 1.13981E-04-3.73304E-05-3.28779E-05-2.26344E-06-1.71311E-19 1.83999E-18
 -1       375 1.10954E-04-3.50940E-05-3.25316E-05-5.59164E-06-7.62865E-19 2.68055E-18
 -1       376 1.07959E-04-3.31123E-05-3.20883E-05-7.21777E-06-3.52003E-19 2.78642E-18
 -1       377 1.05224E-04-3.15775E-05-3.15667E-05-7.61264E-06 1.58929E-18 5.75587E-19
 -1       378 1.02811E-04-3.04425E-05-3.10135E-05-7.24056E-06 9.30492E-19 1.65880E-18
 -1       379 1.00718E-04-2.95928E-05-3.04777E-05-6.43352E-06 9.49031E-19 1.14622E-18
 -1       380 9.89311E-05-2.89190E-05-2.99987E-05-5.38051E-06 2.47258E-19 5.19942E-19
 -1       381 9.74375E-05-2.83407E-05-2.96039E-05-4.16098E-06 5.79167E-19 1.06175E-18
 -1       382 9.63561E-05-2.79447E-05-2.93112E-05-2.89658E-06 1.56474E-18 1.81090E-18
 -1       383 9.43369E-05-2.73312E-05-2.86785E-05 2.47899E-06 3.57269E-19 1.31703E-18
 -1       384 9.31279E-05-2.74500E-05-2.81258E-05 7.53572E-07 2.75157E-19 1.32436E-18
 -1       385 9.25721E-05-2.75263E-05-2.78668E-05-1.69156E-07-3.94193E-20 1.02996E-18
 -1       386 9.24303E-05-2.76177E-05-2.77726E-05-6.48611E-07-1.01964E-19 9.79677E-19
 -1       387 9.25363E-05-2.77263E-05-2.77740E-05-8.73557E-07 2.06615E-19 6.65013E-19
 -1       388 9.27806E-05-2.78427E-05-2.78300E-05-9.50441E-07 5.52340E-19 7.67383E-19
 -1       389 9.30944E-05-2.79584E-05-2.79155E-05-9.44585E-07 5.92594E-19 6.64535E-19
 -1       390 9.34369E-05-2.80682E-05-2.80155E-05-8.98651E-07-6.25328E-20 7.64192E-19
 -1       391 9.37865E-05-2.81699E-05-2.81218E-05-8.41908E-07 4.67863E-19 7.86759E-19
 -1       392 9.41358E-05-2.82639E-05-2.82310E-05-7.95333E-07 3.60264E-19 5.72535E-19
 -1       393 9.44873E-05-2.83527E-05-2.83434E-05-7.74681E-07 5.57412E-19 5.23309E-19
 -1       394 9.48513E-05-2.84403E-05-2.84615E-05-7.92434E-07-3.35763E-20 6.27955E-19
 -1       395 9.52442E-05-2.85323E-05-2.85901E-05-8.58984E-07 2.06337E-19 1.13780E-18
 -1       396 9.56870E-05-2.86354E-05-2.87352E-05-9.83182E-07-6.64826E-19 2.76260E-19
 -1       397 9.62047E-05-2.87580E-05-2.89040E-05-1.17221E-06-9.80392E-20-1.81724E-19
 -1       398 9.68245E-05-2.89096E-05-2.91042E-05-1.43064E-06 3.89328E-19 3.22804E-19
 -1       399 9.75751E-05-2.91016E-05-2.93433E-05-1.75834E-06 1.45420E-19 2.24301E-19
 -1       400 9.84832E-05-2.93469E-05-2.96271E-05-2.14693E-06-7.27456E-19 5.06302E-19
 -1       401 9.95705E-05-2.96606E-05-2.99588E-05-2.57419E-06-2.59707E-19 7.80252E-19
 -1       402 1.00847E-04-3.00590E-05-3.03361E-05-2.99617E-06 1.01410E-18 3.05383E-19
 -1       403 1.02306E-04-3.05585E-05-3.07484E-05-3.33707E-06 5.35924E-19-5.66877E-19
 -1       404 1.03906E-04-3.11722E-05-3.11738E-05-3.47891E-06-1.27894E-18-6.09866E-19
 -1       405 1.05565E-04-3.18999E-05-3.15762E-05-3.25634E-06-1.33887E-18 1.81889E-19
 -1       406 1.07135E-04-3.27101E-05-3.19061E-05-2.46851E-06-6.52148E-19 1.70234E-18
 -1       407 1.08390E-04-3.35065E-05-3.21062E-05-9.28518E-07-2.35285E-19 3.51880E-18
 -1       408 1.09015E-04-3.40883E-05-3.21261E-05 1.42518E-06-3.63289E-19 2.92110E-18
 -1       409 1.08647E-04-3.41360E-05-3.19454E-05 4.35218E-06 6.00847E-20 2.64309E-18
 -1       410 1.07006E-04-3.32937E-05-3.15965E-05 7.13742E-06 6.62011E-19 3.45306E-18
 -1       411 1.04159E-04-3.14244E-05-3.11696E-05 8.60883E-06 1.08526E-18 1.54497E-18
 -1       412 1.00813E-04-2.89607E-05-3.07848E-05 7.60210E-06 1.01782E-18-6.29547E-19
 -1       413 9.82714E-05-2.69713E-05-3.05442E-05 3.83620E-06 1.20562E-18 4.65952E-19
 -1       414 9.77665E-05-2.65627E-05-3.04998E-05-1.47153E-06 1.34459E-18 5.18046E-19
 -1       415 9.95484E-05-2.79808E-05-3.06548E-05-6.11493E-06 1.70466E-18 3.95199E-19
 -1       416 1.02676E-04-3.03903E-05-3.09671E-05-8.30448E-06 1.20906E-18 1.80969E-18
 -1       417 1.05736E-04-3.25813E-05-3.13510E-05-7.71023E-06-1.63536E-18 7.74043E-19
 -1       418 1.07737E-04-3.38234E-05-3.16878E-05-5.24630E-06-2.22088E-19-3.93650E-19
 -1       419 1.08388E-04-3.40512E-05-3.18752E-05-2.18026E-06-9.14460E-19-6.45593E-19
 -1       420 1.07878E-04-3.35755E-05-3.18613E-05 5.48927E-07-6.12928E-19-4.60190E-19
 -1       421 1.06573E-04-3.27540E-05-3.16506E-05 2.51207E-06 1.23240E-18-1.40418E-18
 -1       422 1.04823E-04-3.18394E-05-3.12875E-05 3.65899E-06 1.57823E-18-3.28018E-19
 -1       423 1.02899E-04-3.09653E-05-3.08327E-05 4.12429E-06 1.89275E-18-9.79125E-19
 -1       424 1.00993E-04-3.01833E-05-3.03468E-05 4.08373E-06-4.53667E-19 2.43212E-19
 -1       425 9.92321E-05-2.95008E-05-2.98818E-05 3.67957E-06-4.88074E-20 1.23294E-18
 -1       426 9.77022E-05-2.89109E-05-2.94776E-05 2.99843E-06 2.80529E-19 1.64835E-18
 -1       427 9.64541E-05-2.84132E-05-2.91557E-05 2.08850E-06-1.77509E-18 1.69850E-18
 -1       428 9.58100E-05-2.81235E-05-2.90042E-05 1.48844E-06-7.63844E-19 2.53708E-18
 -1       429 9.44014E-05-2.52173E-05-2.96488E-05 3.73770E-06-2.01685E-18-1.90648E-18
 -1       430 9.51232E-05-2.65030E-05-2.94037E-05 3.26714E-06-4.66160E-19-1.54573E-18
 -1       431 9.55457E-05-2.73813E-05-2.92070E-05 2.45229E-06-9.62449E-19 2.36600E-18
 -1       432 9.36851E-05-2.39256E-05-2.98982E-05 3.73320E-06-2.58037E-18-3.23168E-18
 -1       433 9.30071E-05-2.27047E-05-3.01334E-05 3.24443E-06 1.21690E-19-3.04919E-20
 -1       434 9.24530E-05-2.17201E-05-3.03199E-05 2.31955E-06 1.05810E-18 1.19379E-18
 -1       435 9.20948E-05-2.11023E-05-3.04324E-05 1.06007E-06-2.20570E-19 3.99103E-18
 -1       436 9.19911E-05-2.09466E-05-3.04551E-05-3.79497E-07-7.06820E-19 1.94741E-19
 -1       437 9.21713E-05-2.12905E-05-3.03842E-05-1.80551E-06-1.16308E-18-3.09030E-18
 -1       438 9.26137E-05-2.20825E-05-3.02326E-05-2.99466E-06-2.44155E-18-2.78087E-18
 -1       439 9.32878E-05-2.32549E-05-3.00166E-05-3.80401E-06-4.48738E-19 3.29551E-19
 -1       440 9.41146E-05-2.46544E-05-2.97679E-05-4.06821E-06 6.37880E-19-3.79284E-19
 -1       441 9.50085E-05-2.61220E-05-2.95175E-05-3.72778E-06-2.77399E-19-8.69183E-19
 -1       442 5.43665E-05-4.02439E-05-6.24667E-06 4.24072E-05-6.01076E-19 3.51625E-19
 -1       443 1.12768E-05-2.45947E-05 5.26582E-06 1.57267E-06 4.60432E-19 1.47151E-18
 -1       444 2.36796E-05-2.87510E-05 1.86324E-06 2.69385E-05-6.35486E-19-6.44804E-20
 -1       445 1.00120E-04-5.36980E-05-1.97999E-05 4.15047E-05 3.30766E-19-3.12039E-18
 -1       446 1.28662E-04-5.57915E-05-3.13453E-05 2.79735E-05 5.79582E-19-7.62224E-19
 -1       447 8.93658E-05-1.18991E-05-3.32661E-05-1.06586E-05-1.68646E-19-4.42274E-19
 -1       448 1.59052E-04-2.49785E-05-5.72242E-05 1.59787E-06 2.45385E-18 8.76361E-19
 -1       449 1.60357E-04-1.45282E-05-6.22199E-05-2.98847E-07 2.31716E-18-2.16025E-18
 -1       450 1.56377E-04-1.45697E-05-6.06925E-05 1.85650E-06 1.87893E-18-1.96099E-18
 -1       451 1.56205E-04-2.80641E-05-5.48420E-05-8.26330E-07 1.26245E-18-9.34171E-19
 -1       452 1.48603E-04-4.42127E-05-4.46326E-05-1.27164E-05 9.67464E-19-7.48354E-19
 -1       453 1.22993E-04-5.54074E-05-2.90398E-05-3.15685E-05 1.22661E-18 9.08866E-19
 -1       454 9.08183E-05-5.08588E-05-1.71230E-05-4.29833E-05-4.28810E-20 1.45822E-19
 -1       455 4.96006E-05-3.57698E-05-5.73220E-06-4.13860E-05 3.31296E-19-8.12093E-19
 -1       456 1.86173E-05-2.14308E-05 1.35607E-06-1.90929E-05-1.68930E-19-3.61662E-18
 -1       457 1.34169E-05-2.00752E-05 2.94271E-06 4.98628E-06 6.03921E-19-5.38046E-18
 -1       458 3.37994E-05-3.01264E-05-1.50901E-06 3.28652E-05 2.23881E-18-3.28924E-18
 -1       459 6.15234E-05-4.31548E-05-8.06763E-06 4.19535E-05 8.22257E-19-2.55539E-19
 -1       460 1.02595E-04-5.32592E-05-2.12890E-05 3.90368E-05-1.27743E-18 2.18471E-18
 -1       461 1.35950E-04-5.33394E-05-3.54002E-05 2.44966E-05-2.75693E-18 3.66374E-18
 -1       462 1.56450E-04-4.06971E-05-4.93532E-05 8.20225E-06-1.53281E-18 1.82366E-18
 -1       463 1.61886E-04-2.61602E-05-5.79274E-05-6.73808E-07 1.17102E-19 7.56400E-19
 -1       464 1.58879E-04-1.38331E-05-6.20406E-05-1.70253E-06-1.70825E-18 1.97647E-18
 -1       465 1.60059E-04-1.57421E-05-6.16440E-05 2.06679E-06-2.14564E-18 1.10591E-18
 -1       466 1.59835E-04-3.13638E-05-5.48409E-05-1.52286E-06-3.38104E-18 2.24887E-19
 -1       467 1.53121E-04-4.45013E-05-4.63122E-05-1.36969E-05-2.61007E-18 4.21399E-20
 -1       468 1.30461E-04-5.50052E-05-3.23304E-05-2.82107E-05-1.79550E-18 8.62174E-19
 -1       469 9.15297E-05-5.22507E-05-1.69933E-05-4.19534E-05 4.79738E-19 3.93791E-18
 -1       470 5.62903E-05-4.12111E-05-6.60861E-06-4.15495E-05 2.35592E-18 6.99602E-18
 -1       471 2.13956E-05-2.85747E-05 2.67610E-06-2.33877E-05 1.41931E-18 5.92764E-18
 -1       472 1.50270E-04-4.20866E-05-4.63497E-05 8.44066E-06 8.84699E-19-9.54077E-19
 -1       473 9.58004E-05-2.51425E-05-3.02678E-05 6.02998E-06 5.19527E-19 9.65077E-19
 -1       474 8.95654E-05-1.34088E-05-3.26577E-05-3.92999E-06 6.72746E-20-1.61677E-19
 -1       475 9.02629E-05-1.43677E-05-3.25477E-05-5.89369E-06-4.30093E-20-3.71349E-19
 -1       476 8.90727E-05-1.27292E-05-3.27364E-05 5.47215E-08 3.72559E-19 1.19561E-19
 -1       477 8.92066E-05-1.29125E-05-3.27156E-05 2.04829E-06 5.24281E-19 2.25994E-20
 -1       478 8.95972E-05-1.34490E-05-3.26541E-05 4.00348E-06 5.82781E-19-7.88882E-20
 -1       479 9.03144E-05-1.44344E-05-3.25410E-05 5.95998E-06 7.11511E-19 2.30866E-19
 -1       480 9.14524E-05-1.60105E-05-3.23553E-05 7.78981E-06 7.00955E-19 3.88431E-19
 -1       481 9.32299E-05-1.84787E-05-3.20564E-05 9.30707E-06 6.84841E-19 5.81991E-19
 -1       482 9.50928E-05-2.65713E-05-2.93484E-05 2.88535E-06 3.55105E-19 7.88425E-19
 -1       483 9.54521E-05-2.44216E-05-3.04315E-05-5.82485E-06-1.96606E-19-2.34016E-19
 -1       484 1.39353E-04-5.51084E-05-3.63411E-05 4.13012E-06-4.04712E-19-1.61995E-18
 -1       485 9.52517E-05-2.62100E-05-2.95811E-05-2.90709E-06-2.28358E-19-1.71884E-19
 -1       486 9.49050E-05-2.71538E-05-2.90329E-05-1.03941E-06-1.89711E-19-6.66333E-20
 -1       487 9.46315E-05-2.76822E-05-2.86911E-05 9.13426E-08-3.18716E-19-1.75339E-19
 -1       488 9.44795E-05-2.80039E-05-2.84890E-05 7.38529E-07 6.56974E-20-1.53215E-19
 -1       489 9.44317E-05-2.82086E-05-2.83812E-05 1.07658E-06 3.06661E-20-3.22110E-19
 -1       490 9.44595E-05-2.83406E-05-2.83368E-05 1.22346E-06 9.19688E-21-8.08771E-20
 -1       491 9.45376E-05-2.84230E-05-2.83350E-05 1.26090E-06-1.99065E-19 1.87887E-19
 -1       492 9.46479E-05-2.84697E-05-2.83623E-05 1.24673E-06-2.73116E-19 6.37850E-19
 -1       493 9.47792E-05-2.84892E-05-2.84102E-05 1.22309E-06-1.61764E-19 7.26466E-19
 -1       494 9.49267E-05-2.84875E-05-2.84740E-05 1.22176E-06 3.00745E-19 7.39885E-19
 -1       495 9.50901E-05-2.84687E-05-2.85519E-05 1.26796E-06 1.09349E-19 2.76110E-19
 -1       496 9.52731E-05-2.84360E-05-2.86442E-05 1.38302E-06-6.40798E-20 4.01449E-20
 -1       497 9.54821E-05-2.83918E-05-2.87525E-05 1.58615E-06-3.84706E-19 8.88413E-21
 -1       498 9.57259E-05-2.83388E-05-2.88794E-05 1.89543E-06-7.16596E-19-5.09177E-19
 -1       499 9.60153E-05-2.82804E-05-2.90282E-05 2.32801E-06-8.99858E-19-2.94717E-19
 -1       500 9.63632E-05-2.82228E-05-2.92017E-05 2.89921E-06-7.17636E-19-5.95992E-20
 -1       501 9.67848E-05-2.81774E-05-2.94015E-05 3.62012E-06 3.46334E-20-1.28232E-19
 -1       502 9.72997E-05-2.81650E-05-2.96272E-05 4.49302E-06 1.06743E-18-1.22612E-18
 -1       503 9.79362E-05-2.82243E-05-2.98744E-05 5.50368E-06 1.21737E-18-1.11778E-18
 -1       504 9.87397E-05-2.84228E-05-3.01338E-05 6.60898E-06 1.11080E-18-9.97312E-19
 -1       505 9.97872E-05-2.88735E-05-3.03902E-05 7.71827E-06-1.33510E-19 9.87583E-20
 -1       506 1.01208E-04-2.97523E-05-3.06242E-05 8.66668E-06 1.54191E-20 5.84296E-19
 -1       507 1.03208E-04-3.13024E-05-3.08198E-05 9.17912E-06-4.63441E-19 3.79962E-19
 -1       508 1.06064E-04-3.37885E-05-3.09823E-05 8.82801E-06 1.91588E-19-8.45181E-20
 -1       509 1.10032E-04-3.73223E-05-3.11730E-05 7.00539E-06 1.85347E-19-6.16360E-19
 -1       510 1.15048E-04-4.14420E-05-3.15601E-05 3.01491E-06 3.10048E-19-6.67291E-20
 -1       511 1.20212E-04-4.45365E-05-3.24521E-05-3.49729E-06 5.33854E-19 5.02789E-19
 -1       512 1.23279E-04-4.35338E-05-3.42219E-05-1.13749E-05 6.59614E-19 7.80064E-19
 -1       513 1.21620E-04-3.57209E-05-3.69618E-05-1.64313E-05 4.27063E-19 8.75968E-19
 -1       514 1.16471E-04-2.42247E-05-3.97317E-05-1.27796E-05-1.62604E-18-6.84729E-19
 -1       515 1.13374E-04-1.83317E-05-4.09794E-05-1.19758E-07-1.30626E-18-1.08212E-19
 -1       516 1.16374E-04-2.42624E-05-3.97087E-05 1.25960E-05-1.88866E-18 6.78970E-19
 -1       517 1.21325E-04-3.56862E-05-3.68958E-05 1.62858E-05-1.04032E-18 6.34029E-19
 -1       518 1.23160E-04-4.36862E-05-3.40868E-05 1.09866E-05 3.18918E-19 4.28619E-19
 -1       519 1.19956E-04-4.45644E-05-3.23411E-05 2.91812E-06 7.00390E-20 7.03831E-20
 -1       520 1.14683E-04-4.14140E-05-3.14199E-05-3.70150E-06 1.38945E-18 1.60619E-19
 -1       521 1.09590E-04-3.72807E-05-3.10027E-05-7.76493E-06 6.01864E-19 2.78250E-18
 -1       522 1.05546E-04-3.37353E-05-3.07835E-05-9.67203E-06-9.38145E-19 2.99597E-18
 -1       523 1.02600E-04-3.12118E-05-3.05980E-05-1.01064E-05-8.50890E-19 2.19240E-18
 -1       524 1.00492E-04-2.95838E-05-3.03894E-05-9.64986E-06 1.55931E-18 1.42544E-18
 -1       525 9.89416E-05-2.85686E-05-3.01582E-05-8.69555E-06 1.83381E-19 2.87827E-18
 -1       526 9.77378E-05-2.79023E-05-2.99269E-05-7.47448E-06 7.21665E-19 2.23940E-18
 -1       527 9.67466E-05-2.73867E-05-2.97221E-05-6.09579E-06 6.22582E-19 2.63996E-18
 -1       528 9.41244E-05-2.76758E-05-2.84744E-05-1.16406E-07 1.27638E-19 7.27254E-19
 -1       529 9.39521E-05-2.79195E-05-2.82984E-05-7.35827E-07 2.62701E-19 5.06981E-19
 -1       530 9.39297E-05-2.80869E-05-2.82180E-05-1.05005E-06 2.71570E-19 3.43537E-19
 -1       531 9.40064E-05-2.82081E-05-2.81994E-05-1.17877E-06 4.55980E-19 6.04568E-19
 -1       532 9.41438E-05-2.82971E-05-2.82203E-05-1.20186E-06 1.69318E-19 1.22234E-18
 -1       533 9.43165E-05-2.83618E-05-2.82666E-05-1.17440E-06 5.53228E-19 1.11756E-18
 -1       534 9.45100E-05-2.84077E-05-2.83298E-05-1.13560E-06 7.10417E-19 6.83918E-19
 -1       535 9.47182E-05-2.84391E-05-2.84055E-05-1.11429E-06 1.38322E-19 7.44395E-19
 -1       536 9.49417E-05-2.84602E-05-2.84920E-05-1.13252E-06-2.26433E-19 7.85668E-19
 -1       537 9.51862E-05-2.84750E-05-2.85902E-05-1.20789E-06 1.47607E-20 8.74431E-19
 -1       538 9.54616E-05-2.84884E-05-2.87022E-05-1.35482E-06 4.69038E-19 8.43227E-19
 -1       539 9.57808E-05-2.85063E-05-2.88311E-05-1.58508E-06-1.14207E-19 3.53931E-20
 -1       540 9.61601E-05-2.85364E-05-2.89804E-05-1.90712E-06-9.13820E-20 2.28224E-19
 -1       541 9.66178E-05-2.85899E-05-2.91533E-05-2.32438E-06 1.72395E-19-6.16382E-20
 -1       542 9.71748E-05-2.86825E-05-2.93521E-05-2.83197E-06-2.79289E-19 2.65080E-19
 -1       543 9.78541E-05-2.88373E-05-2.95769E-05-3.41132E-06-1.48336E-19-4.44022E-19
 -1       544 9.86817E-05-2.90875E-05-2.98246E-05-4.02250E-06 5.29594E-19-1.54733E-18
 -1       545 9.96865E-05-2.94793E-05-3.00879E-05-4.59380E-06 7.59348E-19 3.74747E-19
 -1       546 1.00900E-04-3.00726E-05-3.03551E-05-5.00947E-06-3.21170E-19 1.49764E-18
 -1       547 1.02354E-04-3.09350E-05-3.06104E-05-5.09829E-06-1.03118E-18 2.46240E-19
 -1       548 1.04064E-04-3.21191E-05-3.08384E-05-4.63032E-06-1.13027E-18-3.04619E-19
 -1       549 1.05998E-04-3.36095E-05-3.10315E-05-3.33703E-06-1.24200E-18-4.12190E-19
 -1       550 1.08007E-04-3.52257E-05-3.12024E-05-9.84393E-07-4.93773E-19-1.89266E-19
 -1       551 1.09730E-04-3.65045E-05-3.13936E-05 2.45778E-06-3.65907E-19 5.59166E-19
 -1       552 1.10564E-04-3.66734E-05-3.16746E-05 6.54033E-06-4.31170E-19 9.75494E-20
 -1       553 1.09826E-04-3.49005E-05-3.21120E-05 1.00590E-05 1.98459E-18 8.97935E-19
 -1       554 1.07347E-04-3.10601E-05-3.26945E-05 1.11339E-05 2.32452E-18 4.83854E-19
 -1       555 1.04148E-04-2.65490E-05-3.32613E-05 8.19460E-06 8.00190E-19-1.68965E-19
 -1       556 1.02256E-04-2.39857E-05-3.35522E-05 1.64663E-06 5.27738E-19 1.27210E-18
 -1       557 1.03067E-04-2.51436E-05-3.34021E-05-5.62090E-06 1.09944E-18 3.06982E-18
 -1       558 1.05949E-04-2.92288E-05-3.28791E-05-1.01607E-05 1.76502E-19 2.77260E-18
 -1       559 1.08837E-04-3.35952E-05-3.22476E-05-1.04965E-05 1.39092E-18 2.11727E-18
 -1       560 1.10213E-04-3.62366E-05-3.17117E-05-7.62611E-06 2.86068E-19 1.01130E-18
 -1       561 1.09828E-04-3.67343E-05-3.13384E-05-3.48285E-06-4.94298E-19 5.64841E-19
 -1       562 1.08254E-04-3.57568E-05-3.10830E-05 4.01466E-07-7.09711E-19-3.29904E-19
 -1       563 1.06168E-04-3.41574E-05-3.08723E-05 3.29866E-06 1.14698E-18-1.03961E-18
 -1       564 1.04031E-04-3.25229E-05-3.06534E-05 5.07680E-06 8.82631E-19-1.07003E-18
 -1       565 1.02064E-04-3.11236E-05-3.04067E-05 5.89649E-06 1.18097E-18-1.89053E-20
 -1       566 1.00339E-04-3.00166E-05-3.01388E-05 5.99730E-06 4.90081E-19 1.00568E-18
 -1       567 9.88604E-05-2.91538E-05-2.98712E-05 5.59695E-06-1.47359E-18-2.17804E-19
 -1       568 9.75898E-05-2.84483E-05-2.96280E-05 4.83138E-06-1.30988E-18 2.03732E-18
 -1       569 9.64853E-05-2.78484E-05-2.94112E-05 3.79207E-06-7.36464E-19 3.35962E-18
 -1       570 9.31626E-05-2.38885E-05-2.96900E-05 4.73762E-06 6.31882E-19-5.94463E-19
 -1       571 9.22274E-05-2.27815E-05-2.97648E-05 3.80403E-06 1.09106E-18 1.68664E-18
 -1       572 9.52225E-05-2.63570E-05-2.95134E-05 4.83502E-06-1.35460E-18-3.38103E-18
 -1       573 9.41961E-05-2.51245E-05-2.96000E-05 5.07175E-06-2.15992E-18-2.58227E-18
 -1       574 9.15105E-05-2.19412E-05-2.98183E-05 2.34646E-06 1.24312E-18 1.69177E-18
 -1       575 9.11245E-05-2.14963E-05-2.98440E-05 5.26266E-07-5.63436E-19 1.63087E-18
 -1       576 9.11516E-05-2.15326E-05-2.98400E-05-1.42109E-06-1.51466E-19-1.28304E-18
 -1       577 9.16009E-05-2.20508E-05-2.98098E-05-3.19242E-06 2.70606E-19-3.82669E-18
 -1       578 9.24447E-05-2.30107E-05-2.97594E-05-4.58745E-06 8.98636E-19-1.47082E-18
 -1       579 9.35726E-05-2.42893E-05-2.96940E-05-5.36956E-06 3.15767E-19-4.55016E-19
 -1       580 9.48821E-05-2.57419E-05-2.96297E-05-5.39298E-06-1.46230E-18-1.47930E-18
 -1       581 2.61242E-05-1.54291E-05-3.98237E-06 1.54145E-05-2.16496E-18 3.19226E-19
 -1       582 8.51623E-05-4.76416E-05-1.57945E-05 4.26989E-05-1.80593E-18-2.20988E-18
 -1       583 9.45004E-05-2.72854E-05-2.87977E-05 9.93136E-07 1.62508E-19 7.37744E-19
 -1       584 2.47683E-05-1.53679E-05-3.43119E-06-1.23308E-05-1.46955E-18 2.82994E-18
 -1       585 1.22378E-04-6.01081E-05-2.65846E-05 2.77557E-05 5.27066E-19-1.23389E-18
 -1       586 9.45852E-05-2.07619E-05-3.16572E-05-9.43448E-06-3.03325E-19-2.39924E-19
 -1       587 1.43614E-04-5.61729E-05-3.76094E-05-5.64459E-06-6.15373E-19-1.41200E-18
 -1       588 1.37515E-04-1.64505E-05-5.25101E-05-1.06334E-05-4.31669E-19 1.84026E-18
 -1       589 8.26215E-05-4.56257E-05-1.55223E-05-4.18585E-05-1.03190E-18 5.88344E-19
 -1       590 1.37972E-04-5.59438E-05-3.53999E-05-9.64204E-06 3.91157E-19-8.90761E-19
 -1       591 8.91869E-05-1.28875E-05-3.27178E-05-1.93945E-06 2.33306E-19-3.07041E-20
 -1       592 1.31882E-04-7.43756E-06-5.39675E-05 7.09281E-07 2.61818E-18-5.75785E-19
 -1       593 4.29814E-05-2.21904E-05-8.28817E-06-3.10601E-05-1.45364E-18-1.51333E-18
 -1       594 1.36569E-04-1.48589E-05-5.27457E-05-8.49137E-06 3.85908E-18-1.06710E-18
 -1       595 1.34148E-04-1.81418E-05-5.03145E-05 1.12417E-05 1.39316E-18-1.26867E-18
 -1       596 1.42399E-04-3.81897E-05-4.50634E-05 7.48504E-06 9.30572E-19-2.27995E-18
 -1       597 1.09054E-04-5.63725E-05-2.24585E-05-3.51234E-05-6.56186E-19 9.28444E-19
 -1       598 1.27857E-04-6.15289E-05-2.84480E-05 2.33260E-05 3.51466E-19 4.83325E-18
 -1       599 2.62800E-05-1.23647E-05-5.32592E-06-6.12912E-06 7.81547E-19-2.96112E-18
 -1       600 3.19519E-05-1.76949E-05-5.52423E-06 2.16733E-05 3.45817E-18-3.12227E-18
 -1       601 6.19153E-05-3.53094E-05-1.09375E-05 3.96155E-05 3.17870E-18-6.10923E-19
 -1       602 1.21653E-04-6.10200E-05-2.59232E-05-2.90657E-05 4.93079E-19-3.83018E-19
 -1       603 9.73457E-05-5.33257E-05-1.85952E-05 3.91709E-05 1.67151E-18 2.62081E-18
 -1       604 1.45384E-04-5.30784E-05-3.97947E-05 1.45763E-06-1.35270E-18 2.14511E-18
 -1       605 1.45005E-04-3.43288E-05-4.78751E-05-1.12515E-05-6.54915E-19 9.46824E-19
 -1       606 1.37347E-04-9.95748E-06-5.51596E-05 1.32766E-06-1.12550E-18 1.02219E-18
 -1       607 1.41046E-04-2.07103E-05-5.20838E-05 1.13460E-05-2.07216E-18 8.39092E-20
 -1       608 1.46236E-04-4.36225E-05-4.43872E-05 6.75716E-06-1.44149E-18-6.89961E-19
 -1       609 8.41395E-05-4.80063E-05-1.52017E-05-4.20260E-05 2.83078E-18 4.67533E-18
 -1       610 4.76404E-05-2.92006E-05-7.42556E-06-3.60674E-05 1.88857E-18 5.18686E-18
 -1       611 1.42057E-04-3.19744E-05-4.75870E-05-9.01860E-06 8.05528E-19-3.82488E-19
 -1       612 9.61392E-05-2.31842E-05-3.12700E-05 9.59475E-06 6.46107E-19 1.14361E-18
 -1       613 4.90606E-05-2.96754E-05-7.81574E-06 3.78318E-05-2.73750E-18-8.21887E-19
 -1       614 9.13734E-05-1.59084E-05-3.23652E-05-7.71609E-06-1.71576E-19-3.77716E-19
 -1       615 9.27789E-05-1.79479E-05-3.20909E-05-8.90442E-06-2.48850E-19-3.94124E-19
 -1       616 1.27412E-04-5.96284E-05-2.90102E-05-1.83101E-05 2.78528E-19-2.30966E-18
 -1       617 6.89269E-05-3.34209E-05-1.48327E-05-3.70415E-05-1.17650E-18-8.47059E-19
 -1       618 9.61624E-05-2.70826E-05-2.96011E-05-5.07230E-06-4.83460E-19 2.52068E-18
 -1       619 9.15816E-05-1.68545E-05-3.20315E-05 2.44353E-06 5.27201E-19 2.77110E-20
 -1       620 9.13254E-05-1.64525E-05-3.20937E-05 8.41505E-07 3.82735E-19 9.08705E-20
 -1       621 9.29059E-05-1.90016E-05-3.16789E-05 5.27310E-06 5.77676E-19 3.43245E-19
 -1       622 9.39924E-05-2.09334E-05-3.13188E-05 6.15118E-06 6.39856E-19 4.09404E-19
 -1       623 9.52652E-05-2.40915E-05-3.04929E-05 5.16028E-06 5.32424E-19 4.95971E-19
 -1       624 9.58611E-05-2.70124E-05-2.95054E-05 6.10037E-06-1.56748E-18-2.99952E-18
 -1       625 1.37469E-04-5.00739E-05-3.76921E-05 8.33579E-06-1.12275E-18 5.39057E-19
 -1       626 1.32515E-04-6.01931E-05-3.10288E-05-1.10468E-05-1.63266E-19-6.93588E-19
 -1       627 9.54239E-05-2.57159E-05-2.98764E-05-2.45722E-06-2.00977E-19-1.51113E-19
 -1       628 9.54782E-05-2.69365E-05-2.93743E-05-8.68031E-07-2.24314E-19-3.14852E-20
 -1       629 9.54235E-05-2.76885E-05-2.90291E-05 1.45779E-07-9.78443E-20 1.80590E-19
 -1       630 9.53499E-05-2.81485E-05-2.88006E-05 7.53357E-07-6.34129E-20 9.49034E-20
 -1       631 9.52889E-05-2.84225E-05-2.86571E-05 1.08562E-06 1.27368E-19-8.69124E-20
 -1       632 9.52487E-05-2.85731E-05-2.85753E-05 1.24305E-06 2.47437E-19 3.67036E-19
 -1       633 9.52279E-05-2.86380E-05-2.85386E-05 1.30074E-06-1.13447E-19 5.72584E-19
 -1       634 9.52227E-05-2.86412E-05-2.85350E-05 1.31479E-06-3.43474E-20 7.61100E-19
 -1       635 9.52295E-05-2.85977E-05-2.85565E-05 1.32756E-06-2.59975E-19 7.32678E-19
 -1       636 9.52452E-05-2.85166E-05-2.85980E-05 1.37191E-06-3.70652E-19 1.59283E-19
 -1       637 9.52677E-05-2.84030E-05-2.86563E-05 1.47444E-06-2.87960E-19-2.81418E-19
 -1       638 9.52951E-05-2.82590E-05-2.87296E-05 1.65782E-06-1.90941E-19-2.72225E-19
 -1       639 9.53260E-05-2.80854E-05-2.88172E-05 1.94234E-06-8.79491E-19-5.42920E-19
 -1       640 9.53592E-05-2.78823E-05-2.89184E-05 2.34669E-06-8.59650E-19-2.52452E-19
 -1       641 9.53937E-05-2.76519E-05-2.90318E-05 2.88789E-06-5.15132E-19 1.10140E-19
 -1       642 9.54299E-05-2.74006E-05-2.91549E-05 3.58031E-06-2.40949E-20 1.35210E-19
 -1       643 9.54721E-05-2.71447E-05-2.92826E-05 4.43365E-06 3.48544E-20 7.90200E-20
 -1       644 9.55339E-05-2.69181E-05-2.94061E-05 5.44961E-06 5.97466E-19-9.06828E-19
 -1       645 9.56486E-05-2.67853E-05-2.95120E-05 6.61690E-06 1.48343E-18-1.43035E-18
 -1       646 9.58879E-05-2.68606E-05-2.95823E-05 7.90413E-06 1.35664E-18-5.80454E-19
 -1       647 9.63921E-05-2.73337E-05-2.95958E-05 9.24882E-06-1.24457E-19 2.99366E-19
 -1       648 9.74140E-05-2.84970E-05-2.95359E-05 1.05374E-05-2.92260E-19-1.77381E-19
 -1       649 9.93690E-05-3.07552E-05-2.94077E-05 1.15628E-05-8.67077E-20 1.11909E-19
 -1       650 1.02859E-04-3.45622E-05-2.92725E-05 1.19336E-05 1.46124E-19 3.68928E-19
 -1       651 1.08554E-04-4.01458E-05-2.93176E-05 1.08734E-05 5.01766E-19 1.87459E-19
 -1       652 1.16654E-04-4.67135E-05-2.99702E-05 7.18178E-06 8.59042E-19 1.18223E-19
 -1       653 1.26089E-04-5.14922E-05-3.19558E-05-5.16090E-07 5.89944E-19 3.06371E-19
 -1       654 1.31585E-04-4.74837E-05-3.62755E-05-1.12272E-05-2.65704E-19-1.16116E-19
 -1       655 1.27624E-04-3.12596E-05-4.16506E-05-1.70126E-05-4.70977E-19-9.56856E-19
 -1       656 1.23560E-04-1.47699E-05-4.70930E-05-8.65201E-06-9.33271E-19 6.51262E-19
 -1       657 1.21689E-04-1.55435E-05-4.60346E-05 8.36259E-06-1.17251E-18 6.33303E-19
 -1       658 1.30137E-04-3.20793E-05-4.24140E-05 1.66532E-05-2.54660E-18 7.60556E-19
 -1       659 1.16498E-04-4.67851E-05-2.98689E-05-7.88779E-06 1.22463E-18-3.67474E-19
 -1       660 1.08427E-04-4.02341E-05-2.92256E-05-1.16307E-05 7.29647E-19-9.21152E-19
 -1       661 1.02751E-04-3.46830E-05-2.91736E-05-1.27689E-05 1.61561E-19-2.12701E-18
 -1       662 9.92691E-05-3.08792E-05-2.93107E-05-1.24957E-05-6.60824E-19 2.03044E-19
 -1       663 9.73009E-05-2.85740E-05-2.94545E-05-1.15498E-05 4.37973E-19 1.23914E-18
 -1       664 9.62396E-05-2.72927E-05-2.95481E-05-1.02970E-05 1.79913E-18-3.46569E-19
 -1       665 9.56622E-05-2.66055E-05-2.95947E-05-8.90959E-06 3.74323E-19 7.06080E-19
 -1       666 9.52948E-05-2.61875E-05-2.96160E-05-7.45688E-06 5.17967E-19 2.76747E-19
 -1       667 9.49846E-05-2.80919E-05-2.86681E-05-7.60135E-07 4.20630E-19 1.80592E-19
 -1       668 9.50982E-05-2.59707E-05-2.96242E-05-6.44394E-06 4.90904E-19-1.34337E-18
 -1       669 9.50915E-05-2.76942E-05-2.88839E-05-1.33887E-07 3.40848E-19 1.75364E-19
 -1       670 9.49171E-05-2.84765E-05-2.84746E-05-1.24842E-06-7.09262E-21 7.45053E-19
 -1       671 9.49387E-05-2.85495E-05-2.84526E-05-1.29656E-06 4.01862E-19 5.77136E-19
 -1       672 9.49840E-05-2.85734E-05-2.84618E-05-1.29698E-06 5.46075E-19 9.31335E-19
 -1       673 9.50464E-05-2.85610E-05-2.84938E-05-1.29168E-06 1.36597E-19 1.30294E-18
 -1       674 9.51227E-05-2.85207E-05-2.85437E-05-1.31245E-06 2.12174E-19 1.49419E-18
 -1       675 9.52124E-05-2.84588E-05-2.86086E-05-1.38408E-06-1.27022E-19 9.56557E-19
 -1       676 9.53174E-05-2.83800E-05-2.86873E-05-1.52650E-06 4.79417E-19 7.41184E-19
 -1       677 9.54420E-05-2.82893E-05-2.87795E-05-1.75596E-06 5.94142E-19 5.92745E-19
 -1       678 9.55930E-05-2.81931E-05-2.88853E-05-2.08527E-06-1.08977E-19 4.27968E-19
 -1       679 9.57801E-05-2.81017E-05-2.90045E-05-2.52292E-06 5.74163E-21 2.20883E-19
 -1       680 9.60173E-05-2.80315E-05-2.91362E-05-3.07099E-06-8.63473E-20 2.59260E-19
 -1       681 9.63252E-05-2.80092E-05-2.92776E-05-3.72149E-06 4.07007E-19-9.39297E-20
 -1       682 9.67349E-05-2.80772E-05-2.94241E-05-4.45087E-06 2.41550E-19 1.62019E-19
 -1       683 9.72937E-05-2.82992E-05-2.95685E-05-5.21217E-06 4.27509E-20 5.29839E-19
 -1       684 9.80725E-05-2.87667E-05-2.97022E-05-5.92453E-06-7.01954E-20 6.82157E-19
 -1       685 9.91732E-05-2.96000E-05-2.98174E-05-6.45973E-06-1.79779E-19 1.25287E-18
 -1       686 1.00729E-04-3.09352E-05-2.99127E-05-6.62666E-06-4.87930E-19 4.05774E-19
 -1       687 1.02883E-04-3.28801E-05-3.00037E-05-6.15769E-06-1.13360E-18 2.04743E-20
 -1       688 1.05723E-04-3.54096E-05-3.01377E-05-4.70738E-06-6.50617E-19-3.03857E-19
 -1       689 1.09118E-04-3.81654E-05-3.04133E-05-1.90961E-06-1.23341E-18 1.50930E-19
 -1       690 1.12475E-04-4.02038E-05-3.09797E-05 2.38226E-06-2.99581E-19 6.16844E-19
 -1       691 1.14659E-04-4.00215E-05-3.19947E-05 7.65299E-06 2.81898E-19 9.95409E-19
 -1       692 1.14227E-04-3.60436E-05-3.35261E-05 1.20266E-05 1.88560E-18 1.70292E-18
 -1       693 1.10864E-04-2.85625E-05-3.53214E-05 1.24465E-05 1.88210E-18 1.53790E-18
 -1       694 1.06967E-04-2.15061E-05-3.67018E-05 6.77618E-06-7.83780E-19 1.16044E-18
 -1       695 1.06016E-04-1.99408E-05-3.69811E-05-2.82174E-06 1.93183E-19 1.57820E-18
 -1       696 1.09201E-04-2.55241E-05-3.59097E-05-1.05577E-05 1.42298E-18 1.29567E-18
 -1       697 1.13127E-04-3.34576E-05-3.41766E-05-1.24045E-05 2.17970E-18-1.14858E-19
 -1       698 1.14783E-04-3.90599E-05-3.24684E-05-9.14816E-06 1.58384E-18 3.13348E-19
 -1       699 1.13432E-04-4.06037E-05-3.12229E-05-3.82096E-06-4.78539E-19 1.68596E-19
 -1       700 1.10324E-04-3.92296E-05-3.04758E-05 1.08728E-06-3.52319E-19-3.82319E-20
 -1       701 1.06791E-04-3.65944E-05-3.00894E-05 4.58652E-06 1.08685E-18-7.51984E-19
 -1       702 1.03642E-04-3.38775E-05-2.99026E-05 6.63052E-06 4.73562E-19-2.10264E-19
 -1       703 1.01154E-04-3.16234E-05-2.98006E-05 7.52390E-06 6.69067E-19-2.69000E-19
 -1       704 9.92941E-05-2.99430E-05-2.97224E-05 7.60972E-06 2.16523E-19-1.55506E-18
 -1       705 9.79195E-05-2.87444E-05-2.96463E-05 7.16049E-06-8.05736E-19 2.80525E-19
 -1       706 9.67748E-05-2.78336E-05-2.95457E-05 6.75233E-06-1.18829E-18-1.14621E-18
 -1       707 1.06734E-04-5.29026E-05-2.29040E-05 3.12602E-05-1.44545E-18-1.22910E-18
 -1       708 9.00448E-05-2.17694E-05-2.92620E-05 1.91767E-06 6.03912E-19 1.32704E-18
 -1       709 9.21688E-05-2.37093E-05-2.93407E-05 5.38314E-06-1.78162E-19 1.67820E-18
 -1       710 8.97343E-05-2.14629E-05-2.92603E-05-4.49179E-07 6.53764E-19 1.63003E-20
 -1       711 9.09131E-05-2.25702E-05-2.92908E-05 3.94180E-06 6.55262E-19 2.96762E-19
 -1       712 1.15811E-04-5.76250E-05-2.48204E-05 2.67684E-05 1.13227E-18 4.42449E-18
 -1       713 9.00624E-05-2.17213E-05-2.92900E-05-2.78553E-06 5.45914E-19-2.78618E-18
 -1       714 9.10174E-05-2.25282E-05-2.93533E-05-4.81859E-06 1.49911E-18-2.33281E-18
 -1       715 9.24899E-05-2.37761E-05-2.94500E-05-6.20339E-06 2.58221E-19-1.20513E-18
 -1       716 4.81461E-05-1.95067E-05-1.17702E-05 2.61464E-05-2.51233E-18-1.19336E-18
 -1       717 9.45736E-05-2.21920E-05-3.10200E-05-6.16310E-06-2.00191E-19-1.74686E-19
 -1       718 1.28262E-04-2.35614E-05-4.53685E-05-1.33787E-05 1.53009E-18-2.56413E-18
 -1       719 1.03419E-04-5.19648E-05-2.18012E-05-3.34512E-05-9.51589E-20-5.49599E-19
 -1       720 3.52376E-05-1.15134E-05-9.60541E-06 7.00407E-07-2.40526E-18 2.31383E-18
 -1       721 4.53904E-05-1.86944E-05-1.09105E-05-2.39475E-05-7.32604E-19 2.90178E-18
 -1       722 1.28216E-04-3.05022E-05-4.22680E-05 1.46140E-05 9.01270E-19 1.75362E-19
 -1       723 9.52283E-05-2.70328E-05-2.92244E-05 9.28631E-07 2.73175E-19 3.70699E-19
 -1       724 9.49288E-05-2.83346E-05-2.85403E-05-1.09565E-06 2.80349E-20 3.14521E-19
 -1       725 9.51365E-05-2.42464E-05-3.03797E-05-4.09237E-06-1.35662E-19-1.35561E-19
 -1       726 5.52790E-05-2.38030E-05-1.30509E-05 2.95489E-05 3.82300E-18-1.51915E-18
 -1       727 9.53333E-05-2.59392E-05-2.97369E-05 2.61255E-06 3.00071E-19 4.97958E-19
 -1       728 9.21008E-05-1.76807E-05-3.19002E-05 3.95480E-06 5.81154E-19 1.13422E-19
 -1       729 4.50715E-05-1.42629E-05-1.27157E-05-1.67388E-05-6.40119E-19-7.46051E-19
 -1       730 7.19529E-05-3.49556E-05-1.54618E-05 3.71148E-05-1.51611E-18-1.30893E-19
 -1       731 1.36609E-04-5.86781E-05-3.34696E-05 4.77538E-06 6.64980E-19 2.05964E-18
 -1       732 9.20626E-05-1.76253E-05-3.19074E-05-3.90042E-06-2.61302E-20-1.33762E-19
 -1       733 1.33532E-04-4.15072E-05-3.97645E-05-9.83336E-06-1.83647E-19-2.30864E-18
 -1       734 3.86803E-05-1.20622E-05-1.08980E-05 8.88549E-06 1.25295E-18-1.28310E-18
 -1       735 1.28998E-04-5.79073E-05-3.04867E-05 1.16922E-05-4.65306E-19-2.69517E-18
 -1       736 8.79412E-05-4.43225E-05-1.83710E-05 3.64272E-05 3.03055E-18 2.00867E-18
 -1       737 1.37074E-04-4.49241E-05-3.97607E-05-1.23083E-05-4.42429E-19 1.03693E-18
 -1       738 7.33880E-05-3.67231E-05-1.53261E-05-3.72901E-05 1.20355E-18 4.04969E-18
 -1       739 1.34214E-04-4.72199E-05-3.75615E-05 6.74025E-06 3.58480E-19-1.52138E-18
 -1       740 1.30973E-04-2.74204E-05-4.49531E-05-1.58525E-05-4.59489E-19-3.79762E-19
 -1       741 1.07923E-04-5.47042E-05-2.26367E-05-3.16610E-05 2.36664E-18 8.46870E-19
 -1       742 1.19428E-04-1.22488E-05-4.64491E-05 7.60214E-06 1.65743E-18 2.76609E-21
 -1       743 1.21225E-04-1.08774E-05-4.78162E-05-6.08039E-06 2.61389E-18-8.11034E-19
 -1       744 9.28619E-05-1.89260E-05-3.16908E-05-5.23529E-06-1.15431E-19-3.04765E-19
 -1       745 9.13186E-05-1.64432E-05-3.20948E-05-7.84377E-07 2.69978E-19 1.48641E-19
 -1       746 1.30600E-04-5.40692E-05-3.28281E-05-1.62956E-06 4.40254E-19-1.03834E-18
 -1       747 1.30529E-04-5.06647E-05-3.43861E-05-3.69634E-06-6.46313E-19-1.75213E-18
 -1       748 6.14931E-05-2.24431E-05-1.64514E-05-2.58272E-05-2.08351E-18-5.96761E-19
 -1       749 1.26158E-04-5.21238E-05-3.17480E-05-6.06681E-07 3.19808E-19-9.09541E-19
 -1       750 9.36000E-05-2.49979E-05-2.94024E-05 6.12868E-06-4.32995E-19 1.27048E-18
 -1       751 9.15595E-05-1.68234E-05-3.20353E-05-2.38266E-06 9.54639E-20 9.74597E-20
 -1       752 9.37175E-05-2.49080E-05-2.94898E-05-7.06094E-06-8.05872E-19-2.88067E-18
 -1       753 1.15880E-04-1.92794E-05-4.16934E-05-1.12060E-05 1.28910E-18-3.54305E-19
 -1       754 9.46828E-05-2.27636E-05-3.08195E-05 3.91325E-06 5.49761E-19 3.28757E-19
 -1       755 9.36735E-05-2.03858E-05-3.14091E-05-5.91096E-06-1.11524E-19-3.00790E-19
 -1       756 1.16532E-04-5.23002E-05-2.74415E-05 1.65461E-05-1.28101E-18-1.07020E-18
 -1       757 9.56981E-05-2.68968E-05-2.94866E-05 6.85744E-07 3.40332E-19 2.41687E-19
 -1       758 9.58799E-05-2.68673E-05-2.95767E-05-5.70881E-07 4.49364E-20 6.31293E-20
 -1       759 9.59706E-05-2.77401E-05-2.92417E-05 2.44728E-07-1.03308E-19 1.22901E-19
 -1       760 9.59560E-05-2.82785E-05-2.90047E-05 7.48550E-07-2.27389E-19 2.55687E-19
 -1       761 9.58894E-05-2.85878E-05-2.88436E-05 1.03286E-06 2.05580E-19-2.32890E-19
 -1       762 9.57988E-05-2.87367E-05-2.87409E-05 1.17647E-06 3.57029E-19-3.56145E-19
 -1       763 9.56979E-05-2.87709E-05-2.86830E-05 1.24229E-06 2.16912E-19 2.75850E-19
 -1       764 9.55922E-05-2.87201E-05-2.86595E-05 1.27919E-06-2.49395E-19 2.68830E-19
 -1       765 9.54826E-05-2.86032E-05-2.86626E-05 1.32512E-06-5.67079E-19 5.40801E-19
 -1       766 9.53663E-05-2.84310E-05-2.86866E-05 1.41017E-06-4.77896E-19 3.11650E-19
 -1       767 9.52382E-05-2.82085E-05-2.87270E-05 1.55899E-06-4.54306E-19 2.94344E-19
 -1       768 9.50908E-05-2.79369E-05-2.87802E-05 1.79266E-06-9.03084E-19-4.00698E-19
 -1       769 9.49147E-05-2.76150E-05-2.88427E-05 2.12986E-06-9.23403E-19-4.40112E-20
 -1       770 9.46989E-05-2.72419E-05-2.89101E-05 2.58739E-06-1.74096E-19 3.48021E-19
 -1       771 9.44316E-05-2.68192E-05-2.89766E-05 3.18024E-06-2.06802E-19 7.83767E-19
 -1       772 9.41026E-05-2.63562E-05-2.90340E-05 3.92139E-06-2.64419E-19 4.30924E-19
 -1       773 9.37065E-05-2.58756E-05-2.90702E-05 4.82153E-06-3.57122E-19-4.97623E-20
 -1       774 9.32515E-05-2.54249E-05-2.90683E-05 5.88960E-06 1.01595E-18-1.45979E-19
 -1       775 9.27731E-05-2.50918E-05-2.90059E-05 7.13477E-06 1.86456E-18-9.17300E-19
 -1       776 9.23587E-05-2.50283E-05-2.88555E-05 8.57052E-06 8.19293E-19-9.09641E-19
 -1       777 9.21882E-05-2.54818E-05-2.85878E-05 1.02193E-05-1.23938E-19-5.82707E-19
 -1       778 9.25985E-05-2.68367E-05-2.81830E-05 1.21093E-05-4.24882E-19-3.22633E-19
 -1       779 9.41797E-05-2.96510E-05-2.76556E-05 1.42202E-05-7.05695E-20 5.89829E-20
 -1       780 9.78570E-05-3.46327E-05-2.70935E-05 1.63799E-05 9.95450E-19-3.33337E-20
 -1       781 1.05093E-04-4.24347E-05-2.68122E-05 1.74879E-05 5.20795E-19 8.25354E-19
 -1       782 1.16355E-04-5.17977E-05-2.76962E-05 1.57492E-05 4.47008E-19 1.17586E-18
 -1       783 1.16905E-04-5.24329E-05-2.75350E-05-1.68172E-05 1.17540E-18-1.15587E-19
 -1       784 9.80590E-05-3.48694E-05-2.70729E-05-1.70917E-05 4.72646E-19 8.76642E-19
 -1       785 9.44788E-05-2.99604E-05-2.76476E-05-1.50655E-05 5.74943E-19 7.96640E-19
 -1       786 9.29628E-05-2.71344E-05-2.82121E-05-1.30408E-05 2.39636E-19-1.41684E-18
 -1       787 9.25963E-05-2.56959E-05-2.86716E-05-1.12156E-05 4.40175E-19-2.62064E-18
 -1       788 9.27908E-05-2.50647E-05-2.90252E-05-9.57728E-06 1.49266E-18-2.00490E-18
 -1       789 9.33239E-05-2.49630E-05-2.92964E-05-8.29280E-06 2.48376E-20-1.54575E-18
 -1       790 9.57376E-05-2.77224E-05-2.91494E-05-2.17633E-07 5.52150E-19 3.56265E-19
 -1       791 1.04580E-04-4.86603E-05-2.37996E-05 2.66778E-05 1.45556E-18 2.39621E-18
 -1       792 9.55028E-05-2.87189E-05-2.86217E-05-1.28032E-06 7.08641E-20 7.62137E-19
 -1       793 9.55681E-05-2.86698E-05-2.86708E-05-1.21873E-06 1.36401E-19 5.15832E-19
 -1       794 9.53868E-05-2.86158E-05-2.86161E-05-1.33639E-06 1.55435E-20 9.23293E-19
 -1       795 9.53343E-05-2.84933E-05-2.86462E-05-1.40117E-06 1.55675E-19 7.47716E-19
 -1       796 9.52831E-05-2.83349E-05-2.86921E-05-1.52518E-06 4.34120E-19 6.89709E-19
 -1       797 9.52316E-05-2.81462E-05-2.87508E-05-1.72841E-06 6.02788E-19 7.14716E-19
 -1       798 9.51793E-05-2.79332E-05-2.88197E-05-2.02732E-06 1.20285E-19 1.09440E-18
 -1       799 9.51279E-05-2.77042E-05-2.88957E-05-2.43506E-06 2.28543E-19 5.22689E-19
 -1       800 9.50831E-05-2.74738E-05-2.89752E-05-2.96067E-06-3.89077E-19 4.65580E-19
 -1       801 9.50581E-05-2.72672E-05-2.90530E-05-3.60747E-06-6.09738E-20 3.48428E-19
 -1       802 9.50783E-05-2.71261E-05-2.91222E-05-4.37033E-06 3.77581E-19 1.45381E-18
 -1       803 9.51895E-05-2.71168E-05-2.91738E-05-5.23175E-06-2.41800E-19 1.03937E-18
 -1       804 9.54686E-05-2.73392E-05-2.91981E-05-6.15608E-06-4.63068E-19 1.79048E-18
 -1       805 9.60390E-05-2.79360E-05-2.91868E-05-7.08028E-06-5.60144E-19 1.59504E-18
 -1       806 9.70855E-05-2.90949E-05-2.91389E-05-7.89813E-06-1.45731E-19 1.28432E-18
 -1       807 9.88621E-05-3.10308E-05-2.90710E-05-8.43252E-06-4.16569E-19 1.67436E-18
 -1       808 1.01667E-04-3.39219E-05-2.90346E-05-8.39355E-06-8.12008E-19 6.34814E-19
 -1       809 1.05786E-04-3.77781E-05-2.91443E-05-7.30893E-06-1.28571E-18 6.21205E-19
 -1       810 1.11093E-04-4.19736E-05-2.96227E-05-4.43431E-06-1.92506E-18 1.70350E-18
 -1       811 1.16818E-04-4.49945E-05-3.07872E-05 7.55233E-07-5.00401E-19 1.33015E-18
 -1       812 1.20672E-04-4.38932E-05-3.29304E-05 7.96958E-06-6.14302E-19 1.67202E-18
 -1       813 1.19732E-04-3.56854E-05-3.61817E-05 1.39133E-05 1.77681E-18 2.85247E-18
 -1       814 1.11064E-04-1.44364E-05-4.16937E-05 2.75369E-06 1.19299E-18 1.61988E-18
 -1       815 1.21233E-04-4.19003E-05-3.40728E-05-1.01332E-05 8.82026E-19 8.46262E-19
 -1       816 1.18805E-04-4.53740E-05-3.14605E-05-2.81483E-06 5.09368E-19 1.47494E-18
 -1       817 1.13469E-04-4.36535E-05-2.99167E-05 3.37463E-06-2.39119E-19-4.43663E-19
 -1       818 1.07857E-04-3.97002E-05-2.92109E-05 7.20126E-06 3.60861E-19-1.39625E-18
 -1       819 1.03243E-04-3.55911E-05-2.89942E-05 8.99610E-06 1.11730E-18-9.87442E-19
 -1       820 9.99553E-05-3.22664E-05-2.90100E-05 9.47441E-06-3.94504E-19-3.47207E-19
 -1       821 9.78059E-05-2.98791E-05-2.91117E-05 9.18746E-06 2.57654E-19 1.54346E-18
 -1       822 9.64828E-05-2.82763E-05-2.92309E-05 8.45513E-06-2.38280E-19-1.22970E-19
 -1       823 8.81125E-05-2.12668E-05-2.86482E-05 1.08201E-06 1.68714E-18 7.78691E-19
 -1       824 9.07244E-05-2.30222E-05-2.90169E-05-6.62750E-06 5.29241E-19-2.22307E-18
 -1       825 8.80787E-05-2.11698E-05-2.86760E-05-1.80059E-06 1.69439E-18-9.17400E-19
 -1       826 4.92333E-05-1.37927E-05-1.48545E-05-1.10660E-05-2.02836E-18-1.74780E-19
 -1       827 9.32331E-05-1.97754E-05-3.14831E-05 1.23436E-06 3.66857E-19 2.00957E-19
 -1       828 8.89855E-05-2.17833E-05-2.88018E-05-4.53176E-06 9.29228E-19-3.33314E-18
 -1       829 9.54425E-05-2.86949E-05-2.86061E-05-1.30635E-06 2.72291E-19 9.21324E-19
 -1       830 7.81854E-05-3.28904E-05-1.91914E-05 2.98515E-05 2.79925E-18-4.88897E-20
 -1       831 1.05249E-04-4.26252E-05-2.68281E-05-1.81836E-05 1.55232E-18 1.01202E-18
 -1       832 1.15223E-04-2.22725E-05-4.00750E-05 1.26306E-05 6.68177E-19 3.75422E-18
 -1       833 6.61730E-05-2.62483E-05-1.68125E-05-2.85461E-05 3.58705E-19 2.63086E-18
 -1       834 9.10629E-05-4.04748E-05-2.15420E-05 3.00194E-05-1.99686E-18-1.43284E-18
 -1       835 5.61107E-05-1.69349E-05-1.65347E-05 1.76619E-05 2.10508E-18-2.80963E-19
 -1       836 1.25025E-04-5.61273E-05-2.95084E-05 1.11158E-05 3.49325E-19 1.23473E-18
 -1       837 9.40497E-05-4.32230E-05-2.15936E-05-3.05537E-05 2.32315E-18 1.24613E-18
 -1       838 7.16923E-05-2.81814E-05-1.83933E-05 2.89005E-05-2.07665E-18 1.12698E-18
 -1       839 9.55927E-05-2.55183E-05-3.00313E-05-1.79533E-06-1.89571E-19 3.46698E-20
 -1       840 5.11308E-05-1.22055E-05-1.64177E-05-1.14609E-06 3.01244E-19 4.35415E-19
 -1       841 5.02954E-05-1.38302E-05-1.53280E-05 1.15595E-05-4.00024E-18 7.52827E-19
 -1       842 9.52080E-05-2.44695E-05-3.03164E-05 3.43277E-06 4.29854E-19 5.49378E-19
 -1       843 1.23463E-04-3.23892E-05-3.92604E-05-1.42709E-05 1.05875E-18-1.56469E-18
 -1       844 1.17522E-04-5.43877E-05-2.70040E-05-1.86375E-05-7.61059E-19-7.15255E-19
 -1       845 8.89936E-05-4.01864E-05-2.06962E-05-3.15040E-05-1.95532E-18-8.70194E-20
 -1       846 9.31236E-05-1.95759E-05-3.15215E-05 2.03189E-08 3.14271E-19 2.00220E-19
 -1       847 9.40427E-05-2.13500E-05-3.11549E-05 3.31277E-06 4.40877E-19 2.57962E-19
 -1       848 9.47152E-05-2.28653E-05-3.07935E-05-4.14968E-06-1.39687E-19-3.24578E-19
 -1       849 5.77883E-05-1.51983E-05-1.80742E-05-1.18778E-05-2.10949E-19 8.44591E-19
 -1       850 9.19220E-05-2.39399E-05-2.91323E-05-7.61285E-06-6.95410E-19-3.16005E-18
 -1       851 9.56994E-05-2.82258E-05-2.89173E-05-7.65354E-07 4.49218E-20 4.87582E-19
 -1       852 9.56363E-05-2.85196E-05-2.87643E-05-1.06973E-06-2.62133E-19 4.51609E-19
 -1       853 1.18494E-04-3.10880E-05-3.75555E-05-1.38837E-05 1.40267E-18 5.36079E-20
 -1       854 9.54036E-05-2.71390E-05-2.92540E-05 7.78706E-06-1.08112E-18-9.81095E-19
 -1       855 9.39225E-05-2.57604E-05-2.92159E-05 7.19773E-06-3.73374E-20-1.05298E-18
 -1       856 9.06171E-05-2.32993E-05-2.88508E-05 5.76095E-06-1.55039E-18 2.78502E-18
 -1       857 9.22398E-05-2.45087E-05-2.90256E-05 6.75566E-06-1.90856E-18 4.00762E-19
 -1       858 1.22223E-04-5.14695E-05-3.03683E-05 4.56971E-06-1.99152E-19-9.86246E-19
 -1       859 8.90326E-05-2.20400E-05-2.87120E-05 3.74556E-06 3.71177E-19 1.54201E-18
 -1       860 9.35451E-05-2.03608E-05-3.13660E-05 2.36371E-06 3.84893E-19-2.17562E-20
 -1       861 9.55521E-05-2.59258E-05-2.98416E-05 1.84175E-06 4.12901E-19 1.67703E-19
 -1       862 1.04498E-04-4.61541E-05-2.49885E-05-2.25721E-05-1.52644E-18-1.56688E-18
 -1       863 9.35243E-05-2.03257E-05-3.13717E-05-2.32957E-06 5.72391E-20 1.41644E-19
 -1       864 9.39905E-05-2.12704E-05-3.11679E-05-3.28273E-06-9.32761E-20-4.42225E-20
 -1       865 6.68236E-05-1.97210E-05-2.00721E-05 1.73204E-05-2.75671E-18 2.01204E-18
 -1       866 9.63703E-05-2.78643E-05-2.93598E-05 3.30242E-07-1.63424E-19 4.31748E-20
 -1       867 9.63763E-05-2.84177E-05-2.91251E-05 7.05293E-07-6.62172E-20 2.29560E-19
 -1       868 9.62906E-05-2.87206E-05-2.89586E-05 9.21113E-07 1.34622E-20 2.43589E-19
 -1       869 9.61494E-05-2.88408E-05-2.88466E-05 1.03652E-06 2.14942E-19-3.22186E-19
 -1       870 9.59740E-05-2.88263E-05-2.87776E-05 1.10018E-06-5.20996E-20-6.19179E-19
 -1       871 9.57744E-05-2.87093E-05-2.87422E-05 1.15073E-06-3.17965E-19-6.00543E-19
 -1       872 9.55527E-05-2.85097E-05-2.87327E-05 1.21886E-06-2.34633E-19-7.45917E-20
 -1       873 9.53049E-05-2.82384E-05-2.87428E-05 1.32909E-06-2.85670E-19 6.08709E-19
 -1       874 9.50215E-05-2.78997E-05-2.87665E-05 1.50163E-06-1.09445E-18 1.00121E-18
 -1       875 9.46892E-05-2.74934E-05-2.87982E-05 1.75361E-06-7.36648E-19 7.69372E-19
 -1       876 9.42910E-05-2.70172E-05-2.88316E-05 2.09986E-06-1.77079E-19 1.17721E-18
 -1       877 9.38069E-05-2.64696E-05-2.88589E-05 2.55339E-06-2.59718E-19 1.44869E-18
 -1       878 9.32153E-05-2.58531E-05-2.88696E-05 3.12597E-06-1.90736E-20 1.54178E-18
 -1       879 9.24949E-05-2.51791E-05-2.88496E-05 3.82912E-06-1.08765E-18 1.00992E-18
 -1       880 9.16282E-05-2.44749E-05-2.87800E-05 4.67690E-06 1.12676E-19 7.23595E-19
 -1       881 9.06091E-05-2.37938E-05-2.86351E-05 5.69172E-06 7.98221E-19 1.88618E-19
 -1       882 8.94539E-05-2.32293E-05-2.83818E-05 6.91581E-06 1.32233E-18-5.39663E-19
 -1       883 8.82226E-05-2.29375E-05-2.79790E-05 8.43021E-06 3.71349E-19-1.16964E-18
 -1       884 8.70531E-05-2.31664E-05-2.73788E-05 1.03827E-05-1.83704E-19-7.76362E-19
 -1       885 8.62269E-05-2.43105E-05-2.65336E-05 1.30352E-05-5.21411E-19-1.00662E-18
 -1       886 8.64439E-05-2.70824E-05-2.54428E-05 1.66734E-05 6.98071E-19-8.64692E-19
 -1       887 8.84874E-05-3.22309E-05-2.40279E-05 2.16337E-05 1.69801E-18-8.20183E-20
 -1       888 8.69231E-05-2.74984E-05-2.54617E-05-1.73786E-05 5.02224E-19-1.03727E-18
 -1       889 8.69627E-05-2.48032E-05-2.66402E-05-1.37861E-05-2.13110E-19-2.56035E-19
 -1       890 8.78870E-05-2.36091E-05-2.75482E-05-1.12320E-05-1.32552E-19 7.13786E-20
 -1       891 8.91527E-05-2.32443E-05-2.82462E-05-9.32328E-06 6.94634E-19 1.39558E-19
 -1       892 1.21403E-04-5.10340E-05-3.02122E-05-5.29872E-06-3.35355E-19-2.38360E-19
 -1       893 9.53586E-05-2.83561E-05-2.87154E-05-1.37898E-06 1.15043E-19 7.05469E-19
 -1       894 9.55392E-05-2.85703E-05-2.87010E-05-1.27881E-06 4.41024E-19 9.53996E-19
 -1       895 9.49408E-05-2.77827E-05-2.87820E-05-1.78775E-06-7.80303E-20 1.23792E-18
 -1       896 9.46932E-05-2.74364E-05-2.88243E-05-2.13092E-06 2.76535E-19 1.17129E-18
 -1       897 9.44154E-05-2.70638E-05-2.88649E-05-2.58579E-06 8.76424E-20 1.03490E-18
 -1       898 9.41101E-05-2.66847E-05-2.88965E-05-3.16400E-06-1.36304E-19 1.90453E-19
 -1       899 9.37901E-05-2.63334E-05-2.89099E-05-3.87470E-06-4.74926E-19 5.18457E-19
 -1       900 9.34855E-05-2.60661E-05-2.88939E-05-4.72409E-06 4.22677E-19 1.11037E-18
 -1       901 9.32542E-05-2.59712E-05-2.88355E-05-5.71491E-06-9.38413E-20 9.61482E-19
 -1       902 9.31980E-05-2.61805E-05-2.87216E-05-6.84484E-06-4.66266E-19 6.90046E-19
 -1       903 9.34843E-05-2.68829E-05-2.85433E-05-8.10077E-06-1.01349E-19 6.72931E-19
 -1       904 9.43760E-05-2.83338E-05-2.83037E-05-9.44045E-06-8.47029E-19 3.36286E-19
 -1       905 9.62566E-05-3.08436E-05-2.80342E-05-1.07442E-05-5.73089E-19 4.79943E-20
 -1       906 9.96280E-05-3.47042E-05-2.78210E-05-1.17108E-05-1.56965E-18-4.15490E-19
 -1       907 1.05092E-04-4.01120E-05-2.78675E-05-1.18376E-05-2.63054E-18-3.57992E-19
 -1       908 1.13441E-04-4.66375E-05-2.85761E-05-9.65143E-06-5.59862E-19-9.20832E-19
 -1       909 6.17394E-05-1.51469E-05-1.98649E-05 8.71443E-06 1.28942E-18 9.12294E-19
 -1       910 1.01927E-04-3.70732E-05-2.77883E-05 1.26910E-05 1.63790E-19 9.83931E-19
 -1       911 9.78681E-05-3.25952E-05-2.79698E-05 1.20691E-05-2.53137E-19 3.38275E-18
 -1       912 9.55446E-05-2.95313E-05-2.82895E-05 1.09096E-05 2.88924E-19 9.89862E-19
 -1       913 9.43681E-05-2.75720E-05-2.86261E-05 9.60574E-06-4.62230E-19-2.92162E-20
 -1       914 8.57760E-05-2.05353E-05-2.79621E-05-1.81564E-07 3.30152E-19-4.87315E-19
 -1       915 6.62661E-05-1.97772E-05-1.97717E-05-1.78804E-05-5.10823E-19-4.65412E-19
 -1       916 8.43846E-05-3.14672E-05-2.26012E-05 2.36799E-05-2.43489E-18-1.63747E-18
 -1       917 8.89375E-05-3.25584E-05-2.40910E-05-2.20927E-05 1.36731E-18-3.14487E-19
 -1       918 1.08260E-04-4.29349E-05-2.80054E-05 1.19985E-05-1.62073E-19 4.29687E-19
 -1       919 7.26691E-05-2.24904E-05-2.13948E-05 1.90652E-05 1.90723E-18-5.51296E-19
 -1       920 1.14952E-04-4.79349E-05-2.87242E-05 9.55994E-06 4.80974E-19-4.65754E-19
 -1       921 1.02514E-04-4.26387E-05-2.56164E-05 2.02332E-05-1.28752E-18 8.97299E-19
 -1       922 9.58133E-05-2.55805E-05-3.01002E-05-1.16192E-06-1.02399E-19 1.17579E-20
 -1       923 9.32219E-05-1.97581E-05-3.14856E-05-1.19358E-06 1.67403E-19 2.04907E-19
 -1       924 8.28670E-05-3.18722E-05-2.17178E-05-2.55648E-05 1.99300E-18 5.74216E-19
 -1       925 9.51609E-05-2.80915E-05-2.87440E-05-1.54244E-06 4.82299E-21 8.76849E-19
 -1       926 9.60043E-05-2.88003E-05-2.88017E-05-1.11097E-06-1.88697E-19 5.96138E-19
 -1       927 9.62101E-05-2.69595E-05-2.96791E-05-2.71495E-07-6.15630E-20 4.61791E-20
 -1       928 7.95904E-05-2.90420E-05-2.15798E-05-2.39409E-05-1.01097E-18-6.13093E-19
 -1       929 5.76610E-05-1.36108E-05-1.87552E-05-8.70803E-07-2.98821E-18-8.65112E-19
 -1       930 9.60700E-05-2.69285E-05-2.96323E-05 3.81011E-07 2.02392E-19 6.62156E-19
 -1       931 9.48123E-05-2.30353E-05-3.07622E-05-2.76969E-06 8.20542E-21-9.76777E-20
 -1       932 9.52648E-05-2.42266E-05-3.04468E-05 2.25726E-06 4.12849E-19 3.46395E-19
 -1       933 9.61991E-05-2.78153E-05-2.93076E-05-3.11074E-07 2.56843E-19 9.46716E-19
 -1       934 6.14742E-05-1.40953E-05-2.02018E-05-5.31047E-07 1.17666E-18 1.14685E-18
 -1       935 9.32481E-05-3.63621E-05-2.43700E-05-2.15734E-05-1.59160E-18-1.32745E-18
 -1       936 9.06966E-05-2.36049E-05-2.87516E-05-8.43927E-06 7.95538E-19-2.39491E-18
 -1       937 9.61224E-05-2.86666E-05-2.89096E-05-9.84256E-07-5.91456E-20 2.20750E-19
 -1       938 9.57583E-05-2.58185E-05-2.99722E-05 1.28159E-06 3.03950E-19 3.96049E-19
 -1       939 9.57068E-05-2.87258E-05-2.87061E-05-1.21988E-06 2.94206E-19 8.23792E-19
 -1       940 9.08741E-05-2.43524E-05-2.85098E-05 7.64157E-06 5.92857E-20 1.12773E-18
 -1       941 8.84094E-05-2.25767E-05-2.82153E-05 5.87122E-06 3.65176E-19 3.40099E-18
 -1       942 8.64465E-05-2.08791E-05-2.80958E-05-3.68575E-06 1.04364E-18-2.76274E-18
 -1       943 8.65779E-05-2.12009E-05-2.80195E-05 3.15509E-06 5.74027E-19 1.69944E-18
 -1       944 9.58627E-05-2.88094E-05-2.87371E-05-1.17520E-06 9.08563E-20 5.31485E-19
 -1       945 9.45700E-05-2.22586E-05-3.09908E-05 4.31636E-07 3.31566E-19 2.02677E-19
 -1       946 9.47126E-05-2.26001E-05-3.09060E-05 1.22004E-06 2.47471E-19 4.64424E-20
 -1       947 9.47036E-05-2.25792E-05-3.09104E-05-1.19873E-06 1.58878E-19 2.01926E-19
 -1       948 7.19922E-05-2.10863E-05-2.17609E-05-1.65425E-05 2.95560E-20 2.59119E-19
 -1       949 7.87681E-05-2.40223E-05-2.34288E-05 1.66220E-05-2.75619E-19 2.79318E-19
 -1       950 9.66499E-05-2.85650E-05-2.91792E-05 6.03112E-07-1.98337E-20 2.57638E-20
 -1       951 9.65268E-05-2.88228E-05-2.90160E-05 7.46067E-07-6.53389E-20 7.81230E-20
 -1       952 9.63301E-05-2.88889E-05-2.89034E-05 8.27559E-07-2.29301E-20 1.54296E-19
 -1       953 9.60825E-05-2.88103E-05-2.88309E-05 8.80957E-07-1.90369E-19 1.89726E-19
 -1       954 9.57946E-05-2.86181E-05-2.87899E-05 9.33795E-07-5.25782E-20 2.29212E-19
 -1       955 9.54675E-05-2.83318E-05-2.87725E-05 1.00771E-06 3.94326E-19 5.22713E-19
 -1       956 9.50937E-05-2.79608E-05-2.87713E-05 1.11989E-06-2.73342E-19 1.10408E-18
 -1       957 9.46596E-05-2.75079E-05-2.87794E-05 1.28457E-06-8.41446E-19 1.67951E-18
 -1       958 9.41460E-05-2.69719E-05-2.87890E-05 1.51314E-06-5.04134E-19 2.25435E-18
 -1       959 9.35292E-05-2.63502E-05-2.87911E-05 1.81481E-06-1.78854E-19 1.93631E-18
 -1       960 9.27813E-05-2.56415E-05-2.87743E-05 2.19720E-06-6.70922E-20 2.33908E-18
 -1       961 9.18711E-05-2.48491E-05-2.87239E-05 2.66716E-06-4.84111E-19 2.26839E-18
 -1       962 9.07650E-05-2.39853E-05-2.86201E-05 3.23312E-06-5.67130E-19 2.53239E-18
 -1       963 8.94272E-05-2.30758E-05-2.84366E-05 3.91019E-06 9.68066E-22 2.07944E-18
 -1       964 8.78206E-05-2.21657E-05-2.81382E-05 4.73061E-06 7.57289E-21 9.77106E-19
 -1       965 8.59074E-05-2.13268E-05-2.76778E-05 5.76276E-06 6.47280E-19 6.94827E-19
 -1       966 8.36490E-05-2.06679E-05-2.69924E-05 7.14414E-06 1.70807E-19 1.08499E-18
 -1       967 8.10058E-05-2.03550E-05-2.59914E-05 9.14317E-06-3.60778E-19-3.34191E-19
 -1       968 7.80778E-05-2.06286E-05-2.46155E-05 1.22535E-05-9.89402E-20-2.12643E-19
 -1       969 6.77846E-05-1.63370E-05-2.20159E-05 6.26407E-06-1.30731E-18 2.77845E-18
 -1       970 9.55238E-05-2.84326E-05-2.87534E-05-1.12081E-06 1.10795E-19 1.07460E-18
 -1       971 8.77615E-05-2.18593E-05-2.82461E-05-6.72520E-06-6.56749E-19-2.72736E-18
 -1       972 8.21368E-05-2.09795E-05-2.62119E-05-9.77045E-06-6.83582E-21-1.04614E-18
 -1       973 8.49337E-05-2.12076E-05-2.73114E-05-7.84849E-06 2.27191E-19-2.30949E-18
 -1       974 9.60751E-05-2.58577E-05-3.00925E-05-6.28590E-07-1.00024E-20 1.32299E-19
 -1       975 9.40270E-05-2.68308E-05-2.87984E-05-2.03247E-06 2.04783E-19 9.38358E-20
 -1       976 9.44791E-05-2.73139E-05-2.87851E-05-1.67972E-06 3.05129E-19 1.43915E-19
 -1       977 9.29223E-05-2.57767E-05-2.87767E-05-3.08223E-06-2.81581E-19 4.53976E-19
 -1       978 9.22768E-05-2.52699E-05-2.87173E-05-3.81536E-06-4.87696E-20 1.67284E-20
 -1       979 9.15995E-05-2.48550E-05-2.86048E-05-4.71897E-06-1.53714E-19 7.12167E-19
 -1       980 9.09466E-05-2.46316E-05-2.84208E-05-5.82835E-06-3.59817E-19 9.09285E-19
 -1       981 9.04209E-05-2.47475E-05-2.81459E-05-7.19460E-06-6.26832E-19 3.62967E-19
 -1       982 9.02009E-05-2.54186E-05-2.77643E-05-8.88707E-06-1.47977E-20 1.04864E-18
 -1       983 9.05844E-05-2.69523E-05-2.72726E-05-1.09844E-05 2.34970E-19 3.73935E-19
 -1       984 9.20660E-05-2.97676E-05-2.67025E-05-1.34911E-05-6.29394E-19-1.81453E-19
 -1       985 9.56500E-05-3.45046E-05-2.61750E-05-1.62596E-05-1.58141E-18-1.63344E-18
 -1       986 9.61980E-05-2.83611E-05-2.90731E-05-7.40013E-07 7.35178E-20 7.63529E-19
 -1       987 6.77226E-05-1.67727E-05-2.17876E-05-8.67236E-06-4.02955E-19-2.83881E-18
 -1       988 7.89787E-05-2.12903E-05-2.47187E-05-1.27583E-05 6.87596E-19-8.02394E-19
 -1       989 9.37459E-05-2.65353E-05-2.88052E-05 8.71954E-06-5.80270E-19-4.65398E-19
 -1       990 9.37665E-05-3.18566E-05-2.65309E-05 1.53159E-05-1.11567E-18 3.83354E-18
 -1       991 9.49714E-05-2.32700E-05-3.07292E-05 1.86385E-06 3.71638E-19 2.67766E-19
 -1       992 9.45670E-05-2.22520E-05-3.09921E-05-4.04338E-07 1.95727E-19 3.84917E-19
 -1       993 9.49568E-05-2.32324E-05-3.07363E-05-1.87393E-06 3.85561E-20 1.02752E-19
 -1       994 9.06964E-05-2.49931E-05-2.81600E-05 8.87873E-06 1.31076E-18 1.80943E-18
 -1       995 9.57003E-05-2.48206E-05-3.03782E-05-8.87073E-07-2.29714E-20 3.43450E-19
 -1       996 9.03821E-05-2.61256E-05-2.75416E-05 1.08572E-05 1.46863E-18 2.78708E-18
 -1       997 9.64952E-05-2.71882E-05-2.97037E-05-3.98618E-08 7.80094E-20 3.61132E-19
 -1       998 9.13748E-05-2.83438E-05-2.70106E-05 1.30257E-05 1.47252E-18 3.49082E-18
 -1       999 9.35086E-05-2.63105E-05-2.87992E-05-2.49443E-06 1.30274E-20 2.57882E-19
 -1      1000 9.69248E-05-3.63441E-05-2.59731E-05 1.78696E-05-1.61057E-18 2.49519E-18
 -1      1001 9.66641E-05-2.80557E-05-2.94039E-05 3.55025E-07-9.96592E-20 2.49653E-19
 -1      1002 6.92558E-05-1.61901E-05-2.27236E-05 5.57277E-06 3.61949E-19-1.13565E-19
 -1      1003 8.25609E-05-2.73834E-05-2.36087E-05-1.87555E-05-5.30139E-19 1.62655E-19
 -1      1004 9.64303E-05-2.87829E-05-2.89918E-05-8.36915E-07-1.36809E-19 8.70668E-19
 -1      1005 9.52177E-05-2.81216E-05-2.87555E-05-1.23984E-06 2.63314E-19 1.08733E-18
 -1      1006 9.57983E-05-2.86716E-05-2.87686E-05-1.04511E-06 2.56779E-19 5.67714E-19
 -1      1007 7.75809E-05-2.28511E-05-2.34179E-05-1.66329E-05-4.08460E-19-8.83948E-19
 -1      1008 9.59508E-05-2.57348E-05-3.00916E-05 8.53753E-07 7.23005E-20 3.80763E-19
 -1      1009 8.73312E-05-2.87247E-05-2.51053E-05 1.69677E-05-1.26132E-18-6.97733E-19
 -1      1010 8.74177E-05-2.27369E-05-2.77219E-05 7.13909E-06 5.83906E-19 2.60848E-18
 -1      1011 8.34594E-05-2.00834E-05-2.71601E-05 2.22897E-06-9.28634E-19 2.31212E-18
 -1      1012 9.63529E-05-2.70728E-05-2.96910E-05 1.29134E-07 1.09568E-19 4.85600E-19
 -1      1013 9.62588E-05-2.88737E-05-2.88793E-05-9.32713E-07 5.21139E-21 6.56740E-19
 -1      1014 9.56288E-05-2.44603E-05-3.05016E-05 4.85395E-07 2.59456E-19 1.41850E-19
 -1      1015 9.56241E-05-2.44412E-05-3.05064E-05-4.86710E-07 7.01749E-20 2.66248E-19
 -1      1016 9.48727E-05-2.77467E-05-2.87683E-05-1.42070E-06 1.09704E-19 6.05969E-19
 -1      1017 9.55904E-05-2.43161E-05-3.05460E-05 9.29657E-09 2.04440E-19 3.42516E-19
 -1      1018 6.94778E-05-1.69847E-05-2.24820E-05-8.20419E-06 3.79056E-19 2.06286E-18
 -1      1019 8.29539E-05-1.98062E-05-2.70647E-05-3.91043E-06-4.54519E-19-3.85291E-18
 -1      1020 9.65154E-05-2.79533E-05-2.93832E-05-3.62771E-07 2.25695E-19 7.76417E-19
 -1      1021 9.66209E-05-2.88897E-05-2.90278E-05 5.06691E-07-2.12312E-20 5.52141E-19
 -1      1022 9.63665E-05-2.88840E-05-2.89212E-05 5.54064E-07-1.90786E-19 3.28321E-19
 -1      1023 9.60520E-05-2.87320E-05-2.88514E-05 5.90645E-07 1.17767E-19 4.45901E-19
 -1      1024 9.56862E-05-2.84633E-05-2.88098E-05 6.32811E-07 5.15742E-19 7.01749E-19
 -1      1025 9.52670E-05-2.80948E-05-2.87882E-05 6.92000E-07 2.23183E-19 3.05930E-19
 -1      1026 9.47819E-05-2.76321E-05-2.87786E-05 7.78384E-07 3.90448E-20 2.98162E-19
 -1      1027 9.42143E-05-2.70784E-05-2.87727E-05 8.98466E-07-3.17281E-19 8.98082E-19
 -1      1028 9.35399E-05-2.64315E-05-2.87610E-05 1.05683E-06-2.50910E-19 1.60700E-18
 -1      1029 9.27299E-05-2.56894E-05-2.87319E-05 1.25586E-06 1.87893E-20 1.39225E-18
 -1      1030 9.17503E-05-2.48521E-05-2.86710E-05 1.49580E-06 2.52044E-20 1.35638E-18
 -1      1031 9.05618E-05-2.39243E-05-2.85594E-05 1.77562E-06-4.38141E-19 1.65685E-18
 -1      1032 8.91178E-05-2.29179E-05-2.83720E-05 2.09513E-06-5.88449E-19 1.99581E-18
 -1      1033 8.73594E-05-2.18521E-05-2.80755E-05 2.45991E-06-5.60281E-19 1.97417E-18
 -1      1034 8.52053E-05-2.07521E-05-2.76241E-05 2.89131E-06 7.95660E-20 2.00304E-18
 -1      1035 8.25329E-05-1.96454E-05-2.69539E-05 3.44670E-06 1.33240E-19 6.40721E-19
 -1      1036 7.91734E-05-1.85735E-05-2.59710E-05 4.22971E-06-5.63503E-19 1.19821E-19
 -1      1037 7.48931E-05-1.73994E-05-2.46315E-05 4.76931E-06 2.40081E-20 9.04417E-19
 -1      1038 9.32446E-05-2.61612E-05-2.87502E-05-1.70370E-06 3.29602E-19 7.23518E-19
 -1      1039 9.06027E-05-2.41255E-05-2.84905E-05-3.36433E-06 3.63225E-20-1.08054E-19
 -1      1040 9.16024E-05-2.48028E-05-2.86286E-05-2.66684E-06 5.66256E-20 1.61690E-19
 -1      1041 8.83021E-05-2.30950E-05-2.79464E-05-5.43218E-06-1.70140E-19 7.36804E-19
 -1      1042 8.70887E-05-2.29674E-05-2.74815E-05-6.98605E-06-1.08636E-18 8.85514E-19
 -1      1043 8.59759E-05-2.33486E-05-2.68421E-05-9.09870E-06-1.04685E-19 1.17704E-18
 -1      1044 8.51573E-05-2.45162E-05-2.59878E-05-1.19609E-05-9.84988E-20 1.37547E-18
 -1      1045 8.68649E-05-2.83970E-05-2.50448E-05-1.64398E-05-2.57787E-19 3.24330E-19
 -1      1046 7.08253E-05-1.61745E-05-2.34307E-05-6.44506E-07 2.21923E-19 1.48258E-18
 -1      1047 9.44627E-05-2.73308E-05-2.87709E-05-1.14718E-06 5.30786E-19 7.94600E-19
 -1      1048 7.92116E-05-1.86335E-05-2.59654E-05 1.18776E-07-2.18199E-19 1.01356E-18
 -1      1049 9.60443E-05-2.88257E-05-2.88079E-05-9.91126E-07-1.01323E-20 7.37421E-19
 -1      1050 9.58121E-05-2.50390E-05-3.03311E-05 7.55467E-07 2.11104E-19 1.80914E-19
 -1      1051 7.61807E-05-1.83358E-05-2.47879E-05-5.98801E-06-7.51356E-19-4.05908E-18
 -1      1052 8.51583E-05-2.12273E-05-2.73988E-05 5.02620E-06-2.38565E-19 2.81793E-18
 -1      1053 7.99209E-05-1.90961E-05-2.60680E-05-4.75925E-06-1.50990E-18-5.30572E-18
 -1      1054 9.65348E-05-2.85029E-05-2.91563E-05-6.64732E-07 3.00366E-20 8.05271E-19
 -1      1055 7.66184E-05-1.97304E-05-2.43936E-05 9.22457E-06-6.64029E-19 4.43860E-18
 -1      1056 9.24822E-05-2.54948E-05-2.87091E-05-2.12374E-06-5.03340E-20 6.18945E-19
 -1      1057 7.26480E-05-1.69515E-05-2.38857E-05-2.24142E-06-5.53799E-19-3.32936E-18
 -1      1058 9.39000E-05-2.67777E-05-2.87668E-05-1.38407E-06 3.44063E-19 8.51824E-19
 -1      1059 9.67946E-05-2.87066E-05-2.91807E-05 4.28987E-07-1.67315E-19 2.82221E-19
 -1      1060 8.94930E-05-2.35255E-05-2.82721E-05-4.26243E-06-5.56935E-19 1.56509E-19
 -1      1061 9.62193E-05-2.59982E-05-3.00941E-05-3.70518E-07 9.52871E-20 3.87087E-19
 -1      1062 7.63212E-05-2.12747E-05-2.35570E-05-1.32158E-05-3.76601E-19 3.69857E-19
 -1      1063 9.53724E-05-2.82202E-05-2.87796E-05-8.62436E-07 2.55396E-19 1.20660E-18
 -1      1064 8.49338E-05-2.26822E-05-2.66814E-05 9.15522E-06-7.02272E-20 3.76017E-19
 -1      1065 9.57448E-05-2.85438E-05-2.88005E-05-7.86409E-07-6.50329E-20 1.36818E-18
 -1      1066 9.65875E-05-2.88665E-05-2.90233E-05-6.25851E-07-1.61103E-19 8.46566E-19
 -1      1067 9.66680E-05-2.71861E-05-2.97782E-05-7.56572E-09 2.69887E-20 3.32414E-19
 -1      1068 9.68554E-05-2.82817E-05-2.93888E-05 2.97479E-07-1.76721E-19 2.95216E-19
 -1      1069 8.62231E-05-2.56703E-05-2.59716E-05 1.32645E-05 6.09641E-19-1.87680E-18
 -1      1070 8.16071E-05-2.28654E-05-2.51680E-05 1.20200E-05 3.53158E-19-1.16806E-18
 -1      1071 9.67364E-05-2.86478E-05-2.91811E-05-5.19477E-07-1.30775E-19 4.83095E-19
 -1      1072 8.15506E-05-2.03035E-05-2.62419E-05 5.69863E-06-6.81608E-19 1.96804E-18
 -1      1073 9.64059E-05-2.66265E-05-2.99055E-05 2.03166E-07-6.57650E-20 1.38636E-20
 -1      1074 9.63051E-05-2.59697E-05-3.01429E-05 9.76270E-08 9.42869E-20 2.24680E-19
 -1      1075 9.49486E-05-2.78133E-05-2.87723E-05-9.78058E-07 6.26537E-19 8.82818E-19
 -1      1076 9.63713E-05-2.62719E-05-3.00419E-05 1.89720E-07 2.42151E-20 1.93490E-19
 -1      1077 9.65944E-05-2.89122E-05-2.90065E-05 2.09654E-07-3.36414E-19 6.69426E-21
 -1      1078 9.51254E-05-2.79574E-05-2.87864E-05-5.03773E-07 5.67500E-19 1.42697E-19
 -1      1079 9.62830E-05-2.88252E-05-2.89105E-05 2.25510E-07 4.90395E-20 4.52422E-19
 -1      1080 9.59168E-05-2.86062E-05-2.88473E-05 2.39497E-07 2.93620E-19 7.94376E-19
 -1      1081 9.54919E-05-2.82688E-05-2.88096E-05 2.58174E-07 2.08518E-19 1.46503E-19
 -1      1082 9.49968E-05-2.78254E-05-2.87875E-05 2.82746E-07-1.14758E-19 2.84558E-19
 -1      1083 9.44242E-05-2.72891E-05-2.87720E-05 3.14152E-07 3.35189E-19 4.98705E-19
 -1      1084 9.37510E-05-2.66574E-05-2.87542E-05 3.52928E-07 2.36659E-19 6.00435E-19
 -1      1085 9.29506E-05-2.59297E-05-2.87231E-05 3.95968E-07-6.36954E-19 9.12495E-19
 -1      1086 9.19913E-05-2.51059E-05-2.86649E-05 4.37543E-07-5.29485E-20 1.20454E-18
 -1      1087 9.08364E-05-2.41897E-05-2.85626E-05 4.68431E-07 1.29336E-19 1.40778E-18
 -1      1088 8.94420E-05-2.31894E-05-2.83937E-05 4.75329E-07-7.66759E-19 8.97419E-19
 -1      1089 8.77529E-05-2.21188E-05-2.81287E-05 4.40413E-07-1.71255E-19 7.48036E-19
 -1      1090 8.56923E-05-2.09938E-05-2.77278E-05 3.40828E-07-1.51711E-19 1.26960E-18
 -1      1091 8.31416E-05-1.98246E-05-2.71359E-05 1.46876E-07-9.53560E-19 9.53913E-19
 -1      1092 7.98980E-05-1.85944E-05-2.62721E-05-1.92190E-07-1.95240E-19 9.73610E-19
 -1      1093 7.60676E-05-1.74540E-05-2.51124E-05-4.00498E-07-3.40327E-19 1.86509E-18
 -1      1094 8.06303E-05-2.05337E-05-2.57628E-05-8.11150E-06 5.19278E-19 9.73405E-19
 -1      1095 9.63586E-05-2.88928E-05-2.89139E-05-6.87942E-07 1.32569E-19 7.88500E-19
 -1      1096 9.66936E-05-2.77013E-05-2.95686E-05-1.80538E-07 5.96996E-20 2.33534E-19
 -1      1097 9.02303E-05-2.38167E-05-2.84633E-05-1.87208E-06-2.82627E-19 1.37208E-18
 -1      1098 8.31958E-05-2.08335E-05-2.67273E-05-5.85290E-06-4.27191E-19 1.84552E-18
 -1      1099 8.53727E-05-2.13937E-05-2.74201E-05-4.32332E-06-6.47014E-19 2.25428E-18
 -1      1100 8.01959E-05-2.25373E-05-2.46953E-05-1.27578E-05 2.21467E-19 1.15528E-20
 -1      1101 7.63652E-05-1.78199E-05-2.50331E-05-7.87821E-07 1.60708E-19-1.11382E-18
 -1      1102 9.67668E-05-2.82774E-05-2.93525E-05-3.87757E-07 6.42088E-21 1.98040E-19
 -1      1103 9.32619E-05-2.62147E-05-2.87347E-05-8.87170E-07 2.20252E-19 1.16684E-18
 -1      1104 9.45958E-05-2.74593E-05-2.87729E-05-5.91555E-07 4.11512E-19 5.75962E-19
 -1      1105 8.88489E-05-2.29534E-05-2.82413E-05-2.45015E-06-7.30886E-19 2.25675E-18
 -1      1106 9.24126E-05-2.54740E-05-2.86882E-05-1.12367E-06 2.41722E-19 1.57114E-18
 -1      1107 9.39820E-05-2.68783E-05-2.87588E-05-7.14537E-07 2.30720E-19 8.77781E-19
 -1      1108 9.62920E-05-2.59479E-05-3.01465E-05-1.14449E-07 4.82910E-20 5.63222E-19
 -1      1109 8.72402E-05-2.21250E-05-2.79070E-05-3.23675E-06-5.25678E-19 1.87504E-18
 -1      1110 9.68219E-05-2.88183E-05-2.91439E-05 1.85956E-07-2.39674E-19 4.41447E-19
 -1      1111 9.14101E-05-2.46678E-05-2.86041E-05-1.44304E-06 1.68724E-19 1.53860E-18
 -1      1112 9.55812E-05-2.83589E-05-2.88091E-05-4.50162E-07 3.84756E-19 2.83725E-19
 -1      1113 9.66172E-05-2.89092E-05-2.90178E-05-3.50882E-07-1.11122E-19 2.58518E-19
 -1      1114 9.67159E-05-2.72068E-05-2.97905E-05 4.16645E-10-2.72552E-20 2.90464E-19
 -1      1115 9.69394E-05-2.85038E-05-2.93295E-05 1.40135E-07-3.46997E-19 3.77336E-19
 -1      1116 9.60740E-05-2.87747E-05-2.88425E-05-7.34387E-07-1.89929E-19 8.47477E-19
 -1      1117 9.68244E-05-2.87838E-05-2.91601E-05-2.98865E-07-4.97765E-19-1.34287E-19
 -1      1118 9.68587E-05-2.76228E-05-2.96723E-05 2.49105E-08 6.49205E-20 3.75165E-19
 -1      1119 7.33820E-05-1.77444E-05-2.38539E-05-6.83054E-06 4.35399E-19 2.18291E-18
 -1      1120 9.63317E-05-2.88597E-05-2.89169E-05-3.83465E-07-2.84959E-20 7.32710E-19
 -1      1121 9.57143E-05-2.84538E-05-2.88263E-05-1.57517E-07 1.38286E-19-1.12418E-19
 -1      1122 9.59806E-05-2.86663E-05-2.88489E-05-4.12136E-07-3.78761E-19 2.78110E-19
 -1      1123 9.67226E-05-2.74439E-05-2.96901E-05-6.78848E-08-7.93116E-21-7.28655E-20
 -1      1124 9.61153E-05-2.87345E-05-2.88774E-05-1.45444E-07 1.89370E-19 3.89081E-19
 -1      1125 9.68564E-05-2.81293E-05-2.94550E-05-2.24136E-07 1.35242E-19-5.02318E-20
 -1      1126 9.69396E-05-2.81086E-05-2.94977E-05-7.09946E-08-3.42738E-20 3.82970E-19
 -1      1127 9.68725E-05-2.85307E-05-2.92918E-05-3.00703E-07-5.41688E-19 7.48295E-20
 -1      1128 1.16830E-04 2.57491E-10-4.18456E-05-4.14657E-05-5.92923E-20 1.66230E-18
 -1      1129 8.86285E-05 7.18822E-11-3.72428E-05-2.41762E-05-3.32460E-20 9.86793E-20
 -1      1130 8.40627E-05 4.14184E-11-3.57614E-05-1.78914E-05-1.78406E-20-5.07174E-19
 -1      1131 8.23300E-05 3.20348E-11-3.50708E-05-1.38521E-05-1.11173E-20-7.85200E-19
 -1      1132 8.15377E-05 2.73503E-11-3.47399E-05-1.05463E-05-1.82641E-21-8.65244E-19
 -1      1133 8.11410E-05 2.46273E-11-3.45778E-05-7.65122E-06 3.30872E-23-8.19200E-19
 -1      1134 8.09376E-05 2.29785E-11-3.44969E-05-4.98738E-06 4.75794E-21-7.06333E-19
 -1      1135 8.08393E-05 2.20880E-11-3.44591E-05-2.43609E-06 2.04975E-21-5.54826E-19
 -1      1136 8.08115E-05 2.18186E-11-3.44486E-05 5.25375E-08 1.53839E-20-4.58754E-19
 -1      1137 8.08437E-05 2.21320E-11-3.44605E-05 2.54369E-06 1.43317E-20-3.63414E-19
 -1      1138 8.09466E-05 2.30787E-11-3.44998E-05 5.10330E-06 1.69804E-20-2.90731E-19
 -1      1139 8.11566E-05 2.47891E-11-3.45821E-05 7.78347E-06 2.55830E-20-8.09512E-20
 -1      1140 8.15579E-05 2.76532E-11-3.47464E-05 1.07064E-05 2.19170E-20 1.92012E-19
 -1      1141 8.23537E-05 3.24997E-11-3.50808E-05 1.40567E-05 2.53051E-20 5.55819E-19
 -1      1142 8.40602E-05 4.19075E-11-3.57813E-05 1.81422E-05 3.20284E-20 1.18622E-18
 -1      1143 8.83270E-05 6.67031E-11-3.73130E-05 2.40194E-05 2.17052E-20 2.23468E-18
 -1      1144 1.06594E-04 1.63854E-10-4.06241E-05 3.61943E-05-1.22820E-20 3.93140E-18
 -1      1145 1.30191E-04-2.57490E-05-4.02633E-05-2.61059E-05-2.38969E-19 2.61818E-18
 -1      1146 9.74176E-05-2.88508E-05-3.15655E-05-6.81788E-07-8.76679E-20 2.02716E-18
 -1      1147 9.01093E-05-2.70115E-05-2.78780E-05 3.86572E-07-3.22534E-20 1.32387E-18
 -1      1148 8.81891E-05-2.65544E-05-2.66255E-05 2.50431E-07 1.16269E-20 7.81388E-19
 -1      1149 8.78210E-05-2.64249E-05-2.63662E-05 1.65319E-07 5.79936E-20 2.09402E-19
 -1      1150 8.81697E-05-2.64984E-05-2.64481E-05 1.17270E-07 1.43665E-20 4.61183E-19
 -1      1151 8.88455E-05-2.66798E-05-2.66478E-05 8.64972E-08-2.81721E-20 5.54171E-19
 -1      1152 8.96510E-05-2.69090E-05-2.68877E-05 6.50575E-08-1.36452E-20 3.03330E-19
 -1      1153 9.04779E-05-2.71501E-05-2.71345E-05 4.91194E-08-7.45920E-21 1.54385E-19
 -1      1154 9.12675E-05-2.73830E-05-2.73708E-05 3.67978E-08 8.30197E-21-2.28904E-19
 -1      1155 9.19912E-05-2.75981E-05-2.75884E-05 2.71072E-08 7.36056E-20-6.26076E-19
 -1      1156 9.26410E-05-2.77922E-05-2.77846E-05 1.94807E-08 5.55287E-20 1.23802E-19
 -1      1157 9.32232E-05-2.79670E-05-2.79612E-05 1.35713E-08-1.52297E-19-8.31121E-19
 -1      1158 9.37548E-05-2.81271E-05-2.81231E-05 9.16804E-09 1.45303E-19-1.63688E-18
 -1      1159 9.42611E-05-2.82803E-05-2.82780E-05 6.16642E-09-7.95062E-20-5.94832E-19
 -1      1160 9.47756E-05-2.84364E-05-2.84358E-05 4.56443E-09-7.27913E-20-7.02055E-19
 -1      1161 9.53389E-05-2.86076E-05-2.86090E-05 4.47470E-09-5.70178E-20-9.27897E-19
 -1      1162 9.60000E-05-2.88084E-05-2.88124E-05 6.14687E-09 1.12058E-19-5.97979E-19
 -1      1163 9.68167E-05-2.90563E-05-2.90633E-05 9.99789E-09 4.22586E-20-7.18243E-19
 -1      1164 9.78565E-05-2.93712E-05-2.93821E-05 1.66447E-08-2.70670E-20-9.31567E-19
 -1      1165 9.91964E-05-2.97762E-05-2.97920E-05 2.69243E-08-1.79021E-19-1.41279E-18
 -1      1166 1.00921E-04-3.02960E-05-3.03176E-05 4.18629E-08 1.34623E-19-1.35824E-18
 -1      1167 1.03115E-04-3.09555E-05-3.09834E-05 6.25055E-08 2.65723E-19 1.52769E-18
 -1      1168 1.05848E-04-3.17745E-05-3.18074E-05 8.94231E-08-3.29780E-19 2.72334E-19
 -1      1169 1.09145E-04-3.27588E-05-3.27920E-05 1.21567E-07 2.18764E-19-9.64056E-19
 -1      1170 1.12931E-04-3.38843E-05-3.39054E-05 1.53974E-07-1.12925E-19 5.28760E-19
 -1      1171 1.16946E-04-3.50710E-05-3.50569E-05 1.73931E-07 8.22077E-20-3.07738E-19
 -1      1172 1.20626E-04-3.61500E-05-3.60664E-05 1.56329E-07-2.22715E-19-5.25690E-19
 -1      1173 1.23012E-04-3.68351E-05-3.66479E-05 6.25386E-08-1.25490E-19-2.63563E-19
 -1      1174 1.22781E-04-3.67366E-05-3.64439E-05-1.46455E-07 2.65492E-20 1.21020E-19
 -1      1175 1.18634E-04-3.54809E-05-3.51585E-05-4.68729E-07-4.07264E-19 1.47310E-18
 -1      1176 1.10195E-04-3.29805E-05-3.27945E-05-7.99963E-07 4.68922E-19 3.26288E-18
 -1      1177 9.91257E-05-2.97491E-05-2.98758E-05-9.20982E-07 1.05234E-19 2.58038E-18
 -1      1178 8.93769E-05-2.69405E-05-2.74086E-05-6.33887E-07-3.55959E-19 7.02826E-19
 -1      1179 8.54417E-05-2.58144E-05-2.64310E-05 3.65037E-09-8.87796E-20-3.43075E-19
 -1      1180 8.93198E-05-2.69222E-05-2.73840E-05 6.38172E-07 1.77328E-19 1.74923E-18
 -1      1181 9.89532E-05-2.96958E-05-2.98137E-05 9.19285E-07-1.12879E-19-1.04778E-18
 -1      1182 1.09827E-04-3.28688E-05-3.26758E-05 7.93054E-07-1.89858E-19 2.30816E-20
 -1      1183 1.18004E-04-3.52908E-05-3.49644E-05 4.59665E-07-2.50715E-19 3.10914E-19
 -1      1184 1.21844E-04-3.64538E-05-3.61592E-05 1.36545E-07 2.40683E-19-1.14551E-18
 -1      1185 1.21728E-04-3.64479E-05-3.62585E-05-7.36841E-08-2.49091E-19-3.13539E-18
 -1      1186 1.18949E-04-3.56452E-05-3.55580E-05-1.70025E-07-2.66453E-19-5.85040E-18
 -1      1187 1.14822E-04-3.44331E-05-3.44141E-05-1.91662E-07-4.58060E-20-5.59825E-18
 -1      1188 1.10307E-04-3.30975E-05-3.31134E-05-1.76813E-07-5.81620E-20-2.07515E-18
 -1      1189 1.05984E-04-3.18129E-05-3.18429E-05-1.49681E-07-1.89213E-19-2.60899E-18
 -1      1190 1.02159E-04-3.06729E-05-3.07097E-05-1.20918E-07 4.94480E-19-3.02761E-19
 -1      1191 9.90031E-05-2.97302E-05-2.97770E-05-9.06563E-08 3.04072E-19 5.37389E-19
 -1      1192 9.66608E-05-2.90292E-05-2.90899E-05-4.79713E-08 3.91687E-20 1.40932E-18
 -1      1193 9.53457E-05-2.86557E-05-2.86737E-05 3.31826E-08 1.05657E-19 2.80582E-18
 -1      1194 9.50676E-05-2.85149E-05-2.84561E-05 6.02771E-08 4.92493E-19 1.83517E-18
 -1      1195 1.31025E-04-3.77303E-05-3.86487E-05 1.21741E-05-7.58359E-20 5.14276E-18
 -1      1196 9.65183E-05-2.81772E-05-3.13180E-05 8.01906E-07 8.23210E-21 4.81983E-18
 -1      1197 9.03239E-05-2.69142E-05-2.78591E-05 1.20442E-07-8.02696E-21 4.31039E-18
 -1      1198 8.82761E-05-2.64818E-05-2.66621E-05 9.28652E-09-2.41437E-20 4.04220E-18
 -1      1199 8.78617E-05-2.63874E-05-2.63935E-05-2.49013E-08 6.25018E-21 3.42823E-18
 -1      1200 8.81921E-05-2.64811E-05-2.64640E-05-3.37447E-08 3.49666E-20 3.29038E-18
 -1      1201 8.88594E-05-2.66732E-05-2.66582E-05-3.46702E-08-6.58705E-20 3.71898E-18
 -1      1202 8.96605E-05-2.69080E-05-2.68954E-05-3.26096E-08-5.07029E-20 4.28788E-18
 -1      1203 9.04853E-05-2.71522E-05-2.71406E-05-2.91070E-08-3.59648E-21 3.53155E-18
 -1      1204 9.12740E-05-2.73868E-05-2.73759E-05-2.48531E-08 5.43256E-20 2.67629E-18
 -1      1205 9.19980E-05-2.76029E-05-2.75929E-05-2.02497E-08 1.11116E-19 1.89894E-18
 -1      1206 9.26490E-05-2.77976E-05-2.77888E-05-1.55486E-08-7.72296E-20 2.28265E-18
 -1      1207 9.32330E-05-2.79728E-05-2.79655E-05-1.09070E-08 2.36972E-20 2.07883E-18
 -1      1208 9.37667E-05-2.81332E-05-2.81276E-05-6.42519E-09 6.53429E-21 1.34831E-18
 -1      1209 9.42750E-05-2.82863E-05-2.82827E-05-2.17913E-09-9.90785E-20 1.62645E-18
 -1      1210 9.47895E-05-2.84416E-05-2.84403E-05 1.74607E-09 7.10621E-20 1.05985E-18
 -1      1211 9.53483E-05-2.86104E-05-2.86117E-05 5.21863E-09-1.63073E-19 5.08805E-19
 -1      1212 9.59951E-05-2.88057E-05-2.88102E-05 8.01501E-09 3.10317E-21 2.52431E-18
 -1      1213 9.67785E-05-2.90422E-05-2.90503E-05 9.76401E-09 5.98184E-20 1.70388E-18
 -1      1214 9.77509E-05-2.93350E-05-2.93474E-05 9.87988E-09 5.29611E-20 8.43413E-19
 -1      1215 9.89647E-05-2.96997E-05-2.97169E-05 7.49060E-09 9.86148E-20 2.64261E-19
 -1      1216 1.00466E-04-3.01495E-05-3.01717E-05 1.38519E-09-1.75704E-19 3.80179E-19
 -1      1217 1.02284E-04-3.06923E-05-3.07187E-05-9.95882E-09-2.72209E-20 1.29779E-18
 -1      1218 1.04410E-04-3.13247E-05-3.13528E-05-2.81372E-08-1.24948E-19 1.68941E-18
 -1      1219 1.06772E-04-3.20242E-05-3.20481E-05-5.41343E-08 5.48152E-20 1.72985E-18
 -1      1220 1.09197E-04-3.27384E-05-3.27470E-05-8.68562E-08-1.03611E-19 2.96724E-18
 -1      1221 1.11364E-04-3.33726E-05-3.33490E-05-1.20635E-07 3.37638E-19 2.31764E-18
 -1      1222 1.12779E-04-3.37833E-05-3.37064E-05-1.42187E-07-7.38341E-21 1.09985E-18
 -1      1223 1.12800E-04-3.37858E-05-3.36388E-05-1.29366E-07-3.44574E-19 3.30895E-18
 -1      1224 1.10777E-04-3.31937E-05-3.29811E-05-5.66615E-08 7.97369E-20 4.35174E-18
 -1      1225 1.06349E-04-3.19023E-05-3.16704E-05 8.74885E-08 5.93783E-20 1.05339E-18
 -1      1226 9.98644E-05-3.00040E-05-2.98470E-05 2.75234E-07-2.20414E-19 1.70762E-18
 -1      1227 9.26721E-05-2.78764E-05-2.79024E-05 4.28023E-07-3.93635E-19 2.23363E-18
 -1      1228 8.69233E-05-2.61411E-05-2.63977E-05 4.49880E-07-1.19471E-19 1.36018E-18
 -1      1229 8.46914E-05-2.54254E-05-2.58376E-05 2.99301E-07 2.03592E-19-1.42337E-18
 -1      1230 8.68385E-05-2.60220E-05-2.64182E-05 3.49433E-08-4.40298E-19-2.07497E-18
 -1      1231 9.24822E-05-2.76968E-05-2.79180E-05-2.18598E-07 5.33480E-19-4.68949E-18
 -1      1232 9.95252E-05-2.98220E-05-2.98186E-05-3.60377E-07 7.45993E-20-5.71816E-18
 -1      1233 1.05799E-04-3.17268E-05-3.15609E-05-3.68301E-07 6.42058E-20-3.48676E-18
 -1      1234 1.09949E-04-3.29883E-05-3.27630E-05-2.85635E-07-6.67038E-20-2.52591E-18
 -1      1235 1.11632E-04-3.34988E-05-3.32953E-05-1.71918E-07-3.35207E-20-1.38898E-18
 -1      1236 1.11212E-04-3.33716E-05-3.32268E-05-6.92023E-08 2.50391E-19 1.12366E-18
 -1      1237 1.09345E-04-3.28083E-05-3.27248E-05 5.40040E-09 7.94342E-20-3.23074E-18
 -1      1238 1.06679E-04-3.20070E-05-3.19711E-05 5.18824E-08 4.33904E-19-5.95260E-18
 -1      1239 1.03731E-04-3.11234E-05-3.11194E-05 7.75967E-08 3.51735E-20-7.31953E-18
 -1      1240 1.00869E-04-3.02674E-05-3.02854E-05 9.05589E-08 1.60905E-19-7.29298E-18
 -1      1241 9.83583E-05-2.95177E-05-2.95555E-05 9.55189E-08-9.54839E-20-6.82260E-18
 -1      1242 9.64238E-05-2.89408E-05-2.89977E-05 8.79902E-08 1.06459E-19-4.92662E-18
 -1      1243 9.53038E-05-2.86032E-05-2.86539E-05 4.26925E-08 6.66968E-19-3.92696E-18
 -1      1244 9.51063E-05-2.85317E-05-2.84725E-05-4.58288E-08-7.68616E-20-3.42026E-18
 -1      1245 9.52793E-05-2.87054E-05-2.84763E-05-4.34993E-08-3.77942E-18-4.54123E-19
 -1      1246 9.51847E-05-2.84766E-05-2.86614E-05-2.73472E-08-2.22132E-18 1.69127E-19
 -1      1247 9.48590E-05-2.73692E-05-2.89995E-05 5.22929E-08 1.80589E-18 4.87698E-19
 -1      1248 9.43241E-05-2.55584E-05-2.95121E-05 8.68448E-08 1.96713E-18 7.91895E-19
 -1      1249 9.36860E-05-2.33957E-05-3.01274E-05 9.71313E-08 4.81461E-18 2.88385E-20
 -1      1250 9.30483E-05-2.12323E-05-3.07468E-05 9.10845E-08-2.87996E-18-1.85382E-18
 -1      1251 9.24948E-05-1.93509E-05-3.12870E-05 7.39514E-08-8.83769E-18 6.42699E-19
 -1      1252 9.20970E-05-1.79969E-05-3.16748E-05 4.52850E-08-3.94594E-18 9.07012E-19
 -1      1253 9.19184E-05-1.73867E-05-3.18479E-05 9.33279E-09 1.73977E-18 7.29199E-19
 -1      1254 9.19896E-05-1.76260E-05-3.17766E-05-2.96909E-08 5.66608E-18-3.27026E-19
 -1      1255 9.23076E-05-1.87068E-05-3.14643E-05-6.64690E-08 1.09957E-18-1.20741E-18
 -1      1256 9.28314E-05-2.04818E-05-3.09552E-05-9.54942E-08-2.66826E-18-4.53747E-19
 -1      1257 9.34880E-05-2.27161E-05-3.03181E-05-1.10066E-07-7.67903E-18-4.25555E-19
 -1      1258 9.41876E-05-2.50923E-05-2.96489E-05-1.06321E-07-7.38278E-18-1.10496E-18
 -1      1259 9.48060E-05-2.71893E-05-2.90682E-05-8.06229E-08-9.46964E-18-3.64261E-19
 -1      1260 9.51373E-05-2.84043E-05-2.86775E-05 6.39806E-08-5.77299E-18-1.40567E-19
 -1      1261 9.52964E-05-2.87422E-05-2.84577E-05 5.55553E-08-1.92960E-18 7.38418E-19
 -1      1262 3.47017E-05-1.07462E-04 1.81818E-05-1.34341E-05 1.50789E-17 1.81461E-18
 -1      1263 1.82367E-05-6.67394E-05 1.00220E-05-2.53289E-05 1.28207E-17 3.78031E-18
 -1      1264 7.21163E-06-1.14550E-05-4.84137E-06-2.73824E-06 1.08064E-17 5.52689E-18
 -1      1265 3.05794E-05 2.37304E-05-2.43782E-05 4.88897E-05 5.85130E-18 4.99241E-18
 -1      1266 1.01624E-04 1.52116E-05-4.50812E-05 9.82318E-05 4.70103E-18 6.95245E-18
 -1      1267 1.98752E-04-2.88726E-05-6.27287E-05 1.09762E-04 2.63935E-18 5.51503E-18
 -1      1268 2.81160E-04-7.65238E-05-7.41312E-05 6.87142E-05 8.61221E-19 1.96088E-18
 -1      1269 3.08001E-04-9.29516E-05-7.75570E-05-7.48793E-06 7.84035E-19 1.14244E-19
 -1      1270 2.68797E-04-6.91490E-05-7.24808E-05-7.93708E-05 1.31407E-18-5.24737E-18
 -1      1271 1.80543E-04-1.97456E-05-5.97823E-05-1.11776E-04 1.88804E-18-4.27752E-18
 -1      1272 8.29287E-05 2.04696E-05-4.07411E-05-8.96590E-05 5.85130E-18-7.44373E-18
 -1      1273 2.09133E-05 1.86874E-05-1.95623E-05-3.54031E-05 1.16857E-17-9.76714E-18
 -1      1274 8.11707E-06-2.51824E-05-7.13524E-07 1.08923E-05 1.09572E-17-6.22908E-18
 -1      1275 2.31803E-05-8.08716E-05 1.30409E-05 2.40885E-05 1.05312E-17-2.91549E-18
 -1      1276 3.68507E-05-1.12319E-04 1.89858E-05 5.11421E-06 5.62133E-18-8.03967E-19
 -1      1277 3.04227E-05-9.91570E-05 1.67128E-05-2.01915E-05-2.99045E-18-1.97269E-18
 -1      1278 1.35089E-05-5.34098E-05 6.90385E-06-2.42517E-05-1.19584E-17-5.22535E-18
 -1      1279 8.45493E-06-1.35806E-06-8.87251E-06 5.84424E-06-9.91876E-18-6.22908E-18
 -1      1280 4.15120E-05 2.43869E-05-2.84298E-05 5.89291E-05-6.14438E-18-5.39221E-18
 -1      1281 1.16648E-04 9.07347E-06-4.82932E-05 1.02690E-04-1.21465E-18-7.58942E-19
 -1      1282 2.11632E-04-3.55583E-05-6.46849E-05 1.08509E-04 1.64409E-18 4.68579E-18
 -1      1283 2.90121E-04-8.05705E-05-7.55722E-05 6.27393E-05 7.81706E-19 2.83248E-18
 -1      1284 3.14669E-04-9.53146E-05-7.85215E-05-1.39515E-05-6.56821E-19 4.31097E-18
 -1      1285 2.68863E-04-6.73831E-05-7.28742E-05-8.25036E-05-3.08087E-18 1.00805E-17
 -1      1286 1.81129E-04-1.92881E-05-5.99462E-05-1.12574E-04-6.52427E-18 1.42064E-17
 -1      1287 8.96932E-05 1.84514E-05-4.25694E-05-9.36195E-05-1.00721E-17 1.36338E-17
 -1      1288 2.64078E-05 2.04134E-05-2.21576E-05-4.19362E-05-1.31121E-17 1.14324E-17
 -1      1289 7.21819E-06-1.74962E-05-3.06608E-06 7.72216E-06-1.17771E-17 7.50725E-18
 -1      1290 1.95528E-05-7.18538E-05 1.11366E-05 2.63446E-05-1.16044E-18 1.15493E-18
 -1      1291 3.52266E-05-1.09549E-04 1.85685E-05 1.31737E-05 9.48973E-18 6.03590E-19
 -1      1292 1.04413E-04-2.20121E-05-3.78822E-05-1.72791E-05-7.62330E-20 1.32391E-18
 -1      1293 9.02970E-05-6.67771E-06-3.60094E-05-2.04814E-05-1.71048E-19-1.82959E-19
 -1      1294 9.26300E-05-6.73597E-06-3.72131E-05-2.57677E-05-2.53263E-19 1.59454E-19
 -1      1295 8.58874E-05-4.09129E-06-3.51252E-05-1.64460E-05-1.85341E-19-6.41230E-19
 -1      1296 8.71366E-05-4.08628E-06-3.55931E-05-1.88644E-05-2.23140E-19-4.65603E-19
 -1      1297 9.21120E-05-1.04583E-05-3.50865E-05-1.90433E-05-3.07420E-19-1.42990E-19
 -1      1298 8.40975E-05-3.19226E-06-3.46856E-05-1.28330E-05-8.06534E-20-8.30860E-19
 -1      1299 8.46993E-05-3.16093E-06-3.49079E-05-1.46489E-05-1.15779E-19-7.40360E-19
 -1      1300 8.78563E-05-7.38986E-06-3.45701E-05-1.54298E-05-2.58504E-19-4.99617E-19
 -1      1301 8.31926E-05-2.72904E-06-3.44720E-05-9.69777E-06-5.17881E-20-8.76679E-19
 -1      1302 8.35044E-05-2.71246E-06-3.45798E-05-1.12460E-05-5.20925E-20-8.71623E-19
 -1      1303 8.58691E-05-5.98662E-06-3.43043E-05-1.19687E-05-1.22542E-19-6.93349E-19
 -1      1304 8.27071E-05-2.45919E-06-3.43686E-05-6.92498E-06 8.01703E-21-7.96383E-19
 -1      1305 8.28733E-05-2.45065E-06-3.44216E-05-8.29705E-06-1.57429E-20-8.28967E-19
 -1      1306 8.48298E-05-5.21943E-06-3.41754E-05-8.95442E-06-6.31966E-20-6.70744E-19
 -1      1307 8.24372E-05-2.29447E-06-3.43178E-05-4.30171E-06 3.92812E-20-6.63637E-19
 -1      1308 8.25259E-05-2.29047E-06-3.43441E-05-5.60463E-06 3.50493E-20-7.43801E-19
 -1      1309 8.42513E-05-4.76561E-06-3.41148E-05-6.22523E-06-4.51641E-22-6.24369E-19
 -1      1310 8.23079E-05-2.20546E-06-3.42966E-05-1.79296E-06 1.33982E-19-5.02608E-19
 -1      1311 8.23456E-05-2.20386E-06-3.43072E-05-3.04591E-06 8.77291E-20-5.64018E-19
 -1      1312 8.39341E-05-4.50294E-06-3.40876E-05-3.65003E-06 9.73112E-20-4.45169E-19
 -1      1313 8.22825E-05-2.17804E-06-3.42942E-05 6.70868E-07 2.06174E-19-4.33707E-19
 -1      1314 8.22811E-05-2.17809E-06-3.42938E-05-5.66989E-07 1.84297E-19-4.64836E-19
 -1      1315 8.37953E-05-4.38373E-06-3.40776E-05-1.17233E-06 2.66545E-19-3.60333E-19
 -1      1316 8.23543E-05-2.20817E-06-3.43087E-05 3.15340E-06 2.71074E-19-3.69174E-19
 -1      1317 8.23136E-05-2.20982E-06-3.42974E-05 1.89785E-06 2.44961E-19-4.10255E-19
 -1      1318 8.38003E-05-4.38792E-06-3.40780E-05 1.27562E-06 3.91952E-19-2.80778E-19
 -1      1319 8.25432E-05-2.30084E-06-3.43467E-05 5.72130E-06 2.76321E-19-2.64221E-19
 -1      1320 8.24510E-05-2.30424E-06-3.43197E-05 4.41243E-06 2.80459E-19-3.34896E-19
 -1      1321 8.39496E-05-4.51644E-06-3.40887E-05 3.75756E-06 4.38895E-19-2.25178E-19
 -1      1322 8.28965E-05-2.46593E-06-3.44246E-05 8.40588E-06 2.96865E-19-5.09543E-20
 -1      1323 8.27270E-05-2.47467E-06-3.43709E-05 7.02484E-06 2.97894E-19-1.79862E-19
 -1      1324 8.42771E-05-4.78869E-06-3.41159E-05 6.31918E-06 4.72563E-19-1.16732E-19
 -1      1325 8.35463E-05-2.74232E-06-3.45849E-05 1.14080E-05 3.96120E-19 2.19527E-19
 -1      1326 8.32292E-05-2.75950E-06-3.44758E-05 9.84232E-06 3.55079E-19 8.59209E-20
 -1      1327 8.48726E-05-5.26053E-06-3.41765E-05 9.06467E-06 5.47673E-19 1.06514E-19
 -1      1328 8.47578E-05-3.20322E-06-3.49161E-05 1.48573E-05 4.28757E-19 6.38901E-19
 -1      1329 8.41502E-05-3.24008E-06-3.46911E-05 1.30170E-05 3.94691E-19 3.89794E-19
 -1      1330 8.59465E-05-6.06375E-06-3.43061E-05 1.21347E-05 6.26110E-19 3.76877E-19
 -1      1331 8.72383E-05-4.08855E-06-3.56144E-05 1.91033E-05 4.02341E-19 1.32471E-18
 -1      1332 8.59597E-05-4.15266E-06-3.51328E-05 1.67063E-05 3.87491E-19 9.14160E-19
 -1      1333 8.79809E-05-7.51567E-06-3.45720E-05 1.56627E-05 6.65966E-19 8.70909E-19
 -1      1334 9.34428E-05-6.78817E-06-3.71086E-05 2.51044E-05 2.64486E-19 2.38461E-18
 -1      1335 9.01126E-05-6.43421E-06-3.60319E-05 2.11596E-05 2.72374E-19 1.76156E-18
 -1      1336 9.23423E-05-1.06937E-05-3.50717E-05 1.96873E-05 5.23784E-19 1.56473E-18
 -1      1337 1.23598E-04-2.49167E-05-3.90058E-05 2.83691E-05 2.79521E-20 3.96115E-18
 -1      1338 1.00055E-04-1.44180E-05-3.73455E-05 2.40565E-05 8.65032E-20 2.91485E-18
 -1      1339 1.01652E-04-1.93349E-05-3.53942E-05 2.14070E-05 3.98304E-19 2.48498E-18
 -1      1340 1.02573E-04-2.77956E-05-3.47484E-05 7.33374E-06 1.41481E-19 4.00054E-18
 -1      1341 1.05116E-04-3.02211E-05-3.35157E-05-7.96495E-06-2.22770E-19 1.43678E-18
 -1      1342 9.82249E-05-2.78320E-05-3.07514E-05-4.99331E-06-2.28911E-19 1.10072E-18
 -1      1343 9.54644E-05-2.78375E-05-2.92430E-05-2.49411E-06-1.36981E-19 1.02166E-18
 -1      1344 9.32281E-05-2.75454E-05-2.82024E-05-2.04723E-06-1.68507E-19 8.05528E-19
 -1      1345 9.94522E-05-2.80416E-05-3.09730E-05-7.89583E-06-3.64859E-19 6.13437E-19
 -1      1346 9.15357E-05-2.71869E-05-2.75672E-05-8.42336E-07-1.62604E-19 7.83532E-19
 -1      1347 9.08152E-05-2.70903E-05-2.72637E-05-7.32165E-07-1.37067E-19 5.24155E-19
 -1      1348 9.46807E-05-2.77586E-05-2.88050E-05-3.12867E-06-2.89421E-19 5.40857E-19
 -1      1349 9.00625E-05-2.69069E-05-2.70197E-05-1.78134E-07-8.53187E-20 3.43181E-19
 -1      1350 8.99857E-05-2.69323E-05-2.69837E-05-1.20196E-07-6.71075E-20 1.86638E-19
 -1      1351 9.24766E-05-2.74872E-05-2.78827E-05-1.06132E-06-2.94159E-19 3.76956E-19
 -1      1352 8.97241E-05-2.68642E-05-2.69088E-05 1.49990E-07 1.08385E-19 2.22995E-19
 -1      1353 8.99342E-05-2.69528E-05-2.69692E-05 1.78679E-07 1.36286E-20 3.50857E-19
 -1      1354 9.15137E-05-2.73419E-05-2.75146E-05-7.82328E-08-6.98537E-20 1.60672E-19
 -1      1355 8.99365E-05-2.69555E-05-2.69752E-05 3.10288E-07-6.85576E-20 2.78965E-19
 -1      1356 9.02747E-05-2.70737E-05-2.70732E-05 3.22142E-07-4.45561E-20 2.09991E-19
 -1      1357 9.12570E-05-2.73286E-05-2.74058E-05 4.09642E-07-7.48764E-20 6.75840E-20
 -1      1358 9.04165E-05-2.71153E-05-2.71203E-05 3.77969E-07 1.01939E-19 2.54130E-19
 -1      1359 9.08014E-05-2.72425E-05-2.72316E-05 3.79971E-07 4.96949E-20 2.64314E-19
 -1      1360 9.13882E-05-2.74014E-05-2.74277E-05 6.40069E-07 3.94482E-20 2.14442E-19
 -1      1361 9.10115E-05-2.73033E-05-2.72986E-05 3.92958E-07 5.45118E-20 3.12714E-19
 -1      1362 9.13985E-05-2.74275E-05-2.74108E-05 3.89388E-07-6.40169E-20 2.50407E-19
 -1      1363 9.17228E-05-2.75203E-05-2.75176E-05 7.27005E-07 1.53657E-20 3.26204E-19
 -1      1364 9.16358E-05-2.74958E-05-2.74857E-05 3.78965E-07-1.49930E-19 3.43465E-19
 -1      1365 9.20014E-05-2.76109E-05-2.75922E-05 3.72647E-07-2.69312E-19 9.05928E-21
 -1      1366 9.21526E-05-2.76589E-05-2.76405E-05 7.33332E-07-1.98314E-19 4.19649E-19
 -1      1367 9.22427E-05-2.76801E-05-2.76679E-05 3.51224E-07-1.18082E-19 9.40074E-20
 -1      1368 9.25768E-05-2.77837E-05-2.77658E-05 3.44102E-07 9.10253E-20 7.34354E-20
 -1      1369 9.26148E-05-2.78015E-05-2.77764E-05 6.97475E-07-1.71397E-19 5.78979E-19
 -1      1370 9.28108E-05-2.78507E-05-2.78389E-05 3.20085E-07 1.22034E-19-1.90079E-19
 -1      1371 9.31122E-05-2.79429E-05-2.79276E-05 3.13547E-07-1.50548E-19-2.83528E-19
 -1      1372 9.30753E-05-2.79397E-05-2.79142E-05 6.44641E-07-8.64724E-21 1.82109E-19
 -1      1373 9.33357E-05-2.80067E-05-2.79974E-05 2.92943E-07-3.80935E-19-3.12873E-19
 -1      1374 9.36096E-05-2.80894E-05-2.80784E-05 2.88033E-07-3.22527E-19-8.41885E-19
 -1      1375 9.35198E-05-2.80702E-05-2.80488E-05 5.92325E-07-3.20668E-19-3.57217E-19
 -1      1376 9.38255E-05-2.81508E-05-2.81457E-05 2.75417E-07 3.11006E-20-9.15361E-19
 -1      1377 9.40819E-05-2.82274E-05-2.82218E-05 2.72974E-07 7.40472E-20-7.93867E-19
 -1      1378 9.39476E-05-2.81935E-05-2.81798E-05 5.53378E-07-3.46849E-19-2.57889E-19
 -1      1379 9.42977E-05-2.82886E-05-2.82891E-05 2.72121E-07 3.43188E-19-5.94819E-19
 -1      1380 9.45508E-05-2.83635E-05-2.83645E-05 2.72894E-07 1.12993E-19-3.42879E-19
 -1      1381 9.43686E-05-2.83129E-05-2.83098E-05 5.37932E-07 2.45950E-19-4.06504E-19
 -1      1382 9.47777E-05-2.84277E-05-2.84352E-05 2.87238E-07-1.80985E-19-1.86144E-19
 -1      1383 9.50456E-05-2.85064E-05-2.85152E-05 2.91963E-07-1.73672E-19-2.27414E-19
 -1      1384 9.48007E-05-2.84339E-05-2.84442E-05 5.54714E-07 1.54812E-19 1.36682E-19
 -1      1385 9.52984E-05-2.85778E-05-2.85939E-05 3.24914E-07-1.29321E-19-2.66465E-19
 -1      1386 9.56029E-05-2.86671E-05-2.86850E-05 3.34378E-07-1.50184E-19-4.41458E-19
 -1      1387 9.52691E-05-2.85640E-05-2.85905E-05 6.11979E-07-1.57970E-19 4.72884E-19
 -1      1388 9.58994E-05-2.87509E-05-2.87774E-05 3.89513E-07 2.59900E-21-5.17073E-19
 -1      1389 9.62668E-05-2.88587E-05-2.88871E-05 4.04589E-07-2.51504E-20-4.16044E-19
 -1      1390 9.58056E-05-2.87126E-05-2.87583E-05 7.18131E-07-1.48710E-19 2.77483E-19
 -1      1391 9.66282E-05-2.89608E-05-2.89998E-05 4.85690E-07 1.73567E-20-2.65347E-19
 -1      1392 9.70888E-05-2.90966E-05-2.91373E-05 5.07334E-07-1.90915E-19-2.82239E-19
 -1      1393 9.64480E-05-2.88907E-05-2.89591E-05 8.81997E-07-7.47416E-20-1.93025E-19
 -1      1394 9.75394E-05-2.92241E-05-2.92778E-05 6.18175E-07-2.47715E-19-3.50390E-19
 -1      1395 9.81286E-05-2.93988E-05-2.94533E-05 6.47362E-07-5.07028E-19-9.04773E-19
 -1      1396 9.72406E-05-2.91117E-05-2.92062E-05 1.11263E-06-4.99542E-19-2.32049E-19
 -1      1397 9.86949E-05-2.95594E-05-2.96299E-05 7.91080E-07-2.98085E-19-8.96912E-19
 -1      1398 9.94517E-05-2.97854E-05-2.98548E-05 8.28625E-07-1.81176E-19-1.23645E-18
 -1      1399 9.82328E-05-2.93905E-05-2.95143E-05 1.41833E-06-3.91649E-19-3.36423E-19
 -1      1400 1.00161E-04-2.99873E-05-3.00761E-05 1.00637E-06 1.78884E-19-9.45954E-19
 -1      1401 1.01127E-04-3.02779E-05-3.03622E-05 1.05254E-06 6.70895E-19-5.32274E-19
 -1      1402 9.94777E-05-2.97440E-05-2.98988E-05 1.80433E-06 1.27404E-19-6.04053E-19
 -1      1403 1.02005E-04-3.05293E-05-3.06358E-05 1.26090E-06 8.17420E-19-5.08084E-19
 -1      1404 1.03216E-04-3.08973E-05-3.09934E-05 1.31467E-06 3.68975E-19 2.65135E-19
 -1      1405 1.01028E-04-3.01906E-05-3.03743E-05 2.26817E-06 8.72500E-19-7.14791E-19
 -1      1406 1.04282E-04-3.12050E-05-3.13241E-05 1.54115E-06-2.09487E-19 3.20767E-19
 -1      1407 1.05759E-04-3.16600E-05-3.17587E-05 1.59884E-06-5.87475E-19-3.79319E-19
 -1      1408 1.02928E-04-3.07487E-05-3.09513E-05 2.79148E-06 1.20760E-19-4.99085E-19
 -1      1409 1.07012E-04-3.20272E-05-3.21447E-05 1.81458E-06 2.25537E-19 4.76721E-20
 -1      1410 1.08744E-04-3.25693E-05-3.26507E-05 1.86758E-06 4.25487E-19 1.17274E-19
 -1      1411 1.05200E-04-3.14347E-05-3.16313E-05 3.32610E-06-6.60719E-20 8.95446E-19
 -1      1412 1.10152E-04-3.29922E-05-3.30785E-05 2.01711E-06-1.13967E-19 3.71993E-19
 -1      1413 1.12055E-04-3.36025E-05-3.36289E-05 2.04861E-06-2.58786E-19 5.45410E-20
 -1      1414 1.07819E-04-3.22576E-05-3.23982E-05 3.77351E-06 1.53397E-19 4.00690E-19
 -1      1415 1.13530E-04-3.40644E-05-3.40656E-05 2.03873E-06-9.05184E-21-2.00482E-19
 -1      1416 1.15408E-04-3.46885E-05-3.45992E-05 2.02004E-06 5.78935E-20-4.65299E-19
 -1      1417 1.10681E-04-3.32099E-05-3.32079E-05 3.95924E-06-4.20630E-19-9.77893E-20
 -1      1418 1.16783E-04-3.51509E-05-3.49853E-05 1.71654E-06-2.78273E-19-3.84553E-19
 -1      1419 1.18272E-04-3.56789E-05-3.53938E-05 1.60622E-06-4.25118E-19-5.92513E-19
 -1      1420 1.13552E-04-3.42488E-05-3.39753E-05 3.61424E-06 2.55665E-20-2.96653E-19
 -1      1421 1.19278E-04-3.60690E-05-3.56415E-05 8.59025E-07 2.29804E-19-3.26716E-19
 -1      1422 1.19833E-04-3.63197E-05-3.57707E-05 6.12705E-07 2.33305E-19-4.41946E-20
 -1      1423 1.16022E-04-3.52626E-05-3.45695E-05 2.39643E-06-1.10353E-19-5.32903E-20
 -1      1424 1.20117E-04-3.65186E-05-3.57782E-05-6.58025E-07-1.00406E-19 3.35491E-19
 -1      1425 1.19108E-04-3.62555E-05-3.54644E-05-1.05485E-06 1.66468E-19 5.16425E-19
 -1      1426 1.17480E-04-3.60239E-05-3.48281E-05 1.48228E-08 8.17519E-20 3.17604E-19
 -1      1427 1.18314E-04-3.61036E-05-3.51568E-05-2.69369E-06 2.78383E-19 9.45712E-19
 -1      1428 1.15324E-04-3.51260E-05-3.43150E-05-3.16493E-06 2.81228E-19 1.59449E-18
 -1      1429 1.17188E-04-3.61598E-05-3.46089E-05-3.47739E-06 7.98712E-19 3.64403E-19
 -1      1430 1.13308E-04-3.44896E-05-3.37081E-05-4.61228E-06 4.37552E-19 1.85241E-18
 -1      1431 1.08616E-04-3.28267E-05-3.24512E-05-4.94273E-06 1.13112E-19 2.16909E-18
 -1      1432 1.14562E-04-3.52387E-05-3.38786E-05-7.26594E-06 2.81665E-19 1.01493E-18
 -1      1433 1.05754E-04-3.17628E-05-3.16999E-05-5.30899E-06-2.39985E-19 1.77009E-18
 -1      1434 1.00698E-04-2.98721E-05-3.03969E-05-5.21362E-06-6.28601E-19 1.08547E-18
 -1      1435 1.09732E-04-3.31069E-05-3.27964E-05-9.59787E-06-3.95545E-19 4.35216E-19
 -1      1436 9.80523E-05-2.87916E-05-2.97683E-05-3.84189E-06-8.24322E-19 1.81969E-18
 -1      1437 9.47045E-05-2.74985E-05-2.89275E-05-3.21329E-06-8.50262E-19 4.34078E-19
 -1      1438 1.04117E-04-3.03587E-05-3.17111E-05-8.49182E-06-4.72486E-19 6.75085E-19
 -1      1439 9.36026E-05-2.70306E-05-2.86778E-05-4.54170E-07 1.21430E-19 8.28451E-19
 -1      1440 9.35881E-05-2.70286E-05-2.86720E-05 4.22311E-07 8.10663E-19 1.32837E-18
 -1      1441 1.00236E-04-2.83653E-05-3.10269E-05-3.44465E-06-3.57713E-19 1.81201E-18
 -1      1442 9.46497E-05-2.74890E-05-2.89066E-05 3.16865E-06-3.54298E-19 9.19904E-19
 -1      1443 9.79542E-05-2.87723E-05-2.97323E-05 3.79025E-06-6.84548E-19 5.08749E-19
 -1      1444 1.00198E-04-2.83605E-05-3.10107E-05 3.36440E-06 1.76739E-19 7.99308E-19
 -1      1445 1.00541E-04-2.98365E-05-3.03419E-05 5.13301E-06-5.51207E-19-2.19223E-19
 -1      1446 1.05519E-04-3.17036E-05-3.16221E-05 5.21961E-06-2.63894E-19-4.85879E-19
 -1      1447 1.03985E-04-3.03384E-05-3.16601E-05 8.35908E-06-1.16717E-18-1.04478E-18
 -1      1448 1.08297E-04-3.27414E-05-3.23490E-05 4.82328E-06 4.00144E-19-8.49998E-19
 -1      1449 1.12876E-04-3.43679E-05-3.35739E-05 4.48667E-06 2.30022E-20-4.61104E-19
 -1      1450 1.09459E-04-3.30408E-05-3.27026E-05 9.39237E-06-7.99619E-20-8.13178E-19
 -1      1451 1.14790E-04-3.49727E-05-3.41510E-05 3.01758E-06-6.44579E-19 6.07164E-19
 -1      1452 1.17640E-04-3.59061E-05-3.49529E-05 2.54244E-06-9.26442E-23-3.34154E-19
 -1      1453 1.14105E-04-3.51148E-05-3.37335E-05 6.99904E-06 2.84418E-20-1.11519E-18
 -1      1454 1.18317E-04-3.60237E-05-3.52248E-05 8.86913E-07-3.97331E-19-1.06268E-18
 -1      1455 1.19165E-04-3.62374E-05-3.54918E-05 4.86531E-07-9.01342E-19-2.07134E-18
 -1      1456 1.16515E-04-3.59673E-05-3.44021E-05 3.16615E-06-7.58293E-19-9.69694E-19
 -1      1457 1.18750E-04-3.60010E-05-3.54431E-05-8.01286E-07-2.73823E-19-2.20297E-18
 -1      1458 1.18014E-04-3.56950E-05-3.52605E-05-1.05192E-06-9.40445E-19-3.65661E-18
 -1      1459 1.16565E-04-3.57588E-05-3.45486E-05-3.65878E-07-1.05700E-18-1.00946E-18
 -1      1460 1.16861E-04-3.52633E-05-3.49667E-05-1.81892E-06-1.17189E-18-3.31293E-18
 -1      1461 1.15167E-04-3.46725E-05-3.44978E-05-1.93462E-06-4.62566E-19-4.20645E-18
 -1      1462 1.14836E-04-3.49183E-05-3.42076E-05-2.79144E-06-1.15850E-18-1.87183E-18
 -1      1463 1.13631E-04-3.41634E-05-3.40610E-05-2.25913E-06 7.20352E-19-4.27740E-18
 -1      1464 1.11522E-04-3.34676E-05-3.34598E-05-2.28348E-06 6.71267E-19-2.99609E-18
 -1      1465 1.12065E-04-3.38157E-05-3.35223E-05-4.05827E-06 6.00963E-20-1.42522E-18
 -1      1466 1.09872E-04-3.29544E-05-3.29688E-05-2.31026E-06-3.01138E-19-7.77206E-19
 -1      1467 1.07716E-04-3.22642E-05-3.23452E-05-2.28303E-06 4.71697E-19-5.40460E-19
 -1      1468 1.08865E-04-3.26764E-05-3.26570E-05-4.44899E-06 1.68312E-18 1.62240E-19
 -1      1469 1.06129E-04-3.17872E-05-3.18627E-05-2.13703E-06 4.16922E-19-1.42013E-18
 -1      1470 1.04139E-04-3.11608E-05-3.12833E-05-2.08422E-06 8.81735E-19-9.26866E-19
 -1      1471 1.05656E-04-3.16128E-05-3.17471E-05-4.28839E-06 7.80080E-19-2.12767E-19
 -1      1472 1.02721E-04-3.07408E-05-3.08484E-05-1.84417E-06 1.63749E-18-5.97727E-19
 -1      1473 1.01014E-04-3.02063E-05-3.03509E-05-1.77821E-06 8.94086E-19 5.35841E-19
 -1      1474 1.02696E-04-3.06717E-05-3.08866E-05-3.81764E-06 1.69369E-18 3.19633E-19
 -1      1475 9.98244E-05-2.98533E-05-2.99878E-05-1.47822E-06-2.71360E-19 8.97266E-19
 -1      1476 9.84745E-05-2.94285E-05-2.95966E-05-1.40057E-06-1.75883E-19 3.72575E-19
 -1      1477 1.00133E-04-2.98681E-05-3.01356E-05-3.16955E-06 4.59079E-19 1.16920E-18
 -1      1478 9.75535E-05-2.91489E-05-2.93206E-05-1.04367E-06 9.26315E-19 6.52639E-19
 -1      1479 9.66349E-05-2.88568E-05-2.90547E-05-9.47125E-07 1.10531E-18 2.33682E-18
 -1      1480 9.80551E-05-2.92067E-05-2.95314E-05-2.38541E-06 3.74710E-19 5.62478E-19
 -1      1481 9.59897E-05-2.86425E-05-2.88694E-05-5.24092E-07 5.96207E-19 2.04121E-18
 -1      1482 9.55778E-05-2.85396E-05-2.87275E-05-4.08312E-07-2.62651E-19 3.29309E-18
 -1      1483 9.65075E-05-2.86906E-05-2.90899E-05-1.46759E-06 1.12623E-18 1.56092E-18
 -1      1484 9.52081E-05-2.85359E-05-2.85607E-05 3.99197E-08-2.22208E-18 2.35638E-18
 -1      1485 9.54541E-05-2.84273E-05-2.87345E-05-3.80197E-07-2.20769E-18 1.92959E-18
 -1      1486 9.65397E-05-2.83523E-05-2.97613E-05 2.99952E-06 1.79836E-19 3.59528E-18
 -1      1487 1.02503E-04-2.93886E-05-3.21458E-05 4.46676E-06 1.88571E-19 3.82054E-18
 -1      1488 1.02295E-04-2.67085E-05-3.26964E-05 1.27898E-05 2.97150E-19 2.90913E-18
 -1      1489 9.19864E-05-2.74160E-05-2.77485E-05 1.15568E-06 1.67342E-19 3.15446E-18
 -1      1490 9.39372E-05-2.75724E-05-2.86639E-05 1.47757E-06 1.05323E-19 3.30944E-18
 -1      1491 9.64509E-05-2.80194E-05-2.95230E-05 4.87455E-06 2.66233E-19 2.48961E-18
 -1      1492 9.01465E-05-2.69891E-05-2.70474E-05 3.35552E-07 1.56152E-19 2.79674E-18
 -1      1493 9.07657E-05-2.70079E-05-2.73213E-05 4.98292E-07 1.16368E-19 2.94100E-18
 -1      1494 9.30007E-05-2.75664E-05-2.80862E-05 1.85873E-06 2.70124E-19 2.03885E-18
 -1      1495 8.96218E-05-2.68687E-05-2.68695E-05-5.12243E-08 1.32494E-19 2.48265E-18
 -1      1496 8.96636E-05-2.68077E-05-2.68990E-05 3.77390E-08 1.25907E-19 2.67960E-18
 -1      1497 9.14420E-05-2.72936E-05-2.75008E-05 5.24886E-07 2.37302E-19 1.79472E-18
 -1      1498 8.97466E-05-2.69189E-05-2.69092E-05-2.38697E-07-9.23134E-22 2.49336E-18
 -1      1499 8.95225E-05-2.68128E-05-2.68454E-05-1.88571E-07-4.92694E-20 2.39368E-18
 -1      1500 9.09050E-05-2.72110E-05-2.73031E-05-1.25163E-07 7.77914E-20 1.63487E-18
 -1      1501 9.01933E-05-2.70593E-05-2.70458E-05-3.22643E-07-1.35550E-19 2.90148E-18
 -1      1502 8.98504E-05-2.69334E-05-2.69454E-05-2.94983E-07-1.31306E-19 2.54762E-18
 -1      1503 9.09184E-05-2.72526E-05-2.72911E-05-4.44967E-07-1.61643E-19 1.88246E-18
 -1      1504 9.07845E-05-2.72404E-05-2.72243E-05-3.48892E-07 2.57442E-19 2.68985E-18
 -1      1505 9.03996E-05-2.71110E-05-2.71115E-05-3.35011E-07 6.75635E-20 2.86668E-18
 -1      1506 9.12211E-05-2.73637E-05-2.73723E-05-5.87717E-07 2.01691E-20 1.85648E-18
 -1      1507 9.14202E-05-2.74330E-05-2.74159E-05-3.42917E-07 2.24529E-19 2.12826E-18
 -1      1508 9.10355E-05-2.73094E-05-2.73028E-05-3.37497E-07 2.38859E-19 2.50179E-18
 -1      1509 9.16644E-05-2.75077E-05-2.74993E-05-6.31039E-07 3.64514E-19 1.50117E-18
 -1      1510 9.20454E-05-2.76210E-05-2.76045E-05-3.20453E-07 2.89029E-19 1.60829E-18
 -1      1511 9.16829E-05-2.75079E-05-2.74976E-05-3.19966E-07 1.34197E-19 1.90281E-18
 -1      1512 9.21621E-05-2.76624E-05-2.76452E-05-6.19384E-07 3.43813E-19 1.22262E-18
 -1      1513 9.26331E-05-2.77968E-05-2.77822E-05-2.91889E-07 1.55942E-19 1.56689E-18
 -1      1514 9.23022E-05-2.76956E-05-2.76842E-05-2.93869E-07 1.77722E-19 1.63339E-18
 -1      1515 9.26662E-05-2.78152E-05-2.77950E-05-5.80622E-07 2.67191E-19 9.80339E-19
 -1      1516 9.31753E-05-2.79581E-05-2.79465E-05-2.64425E-07 1.26755E-19 1.49513E-18
 -1      1517 9.28769E-05-2.78680E-05-2.78577E-05-2.67063E-07 8.80358E-20 1.46339E-18
 -1      1518 9.31528E-05-2.79601E-05-2.79409E-05-5.33364E-07 1.97910E-19 1.06586E-18
 -1      1519 9.36775E-05-2.81068E-05-2.80989E-05-2.43293E-07 3.37817E-19 9.45391E-19
 -1      1520 9.34061E-05-2.80254E-05-2.80178E-05-2.45191E-07 1.71130E-19 1.19936E-18
 -1      1521 9.36151E-05-2.80959E-05-2.80807E-05-4.90667E-07 3.31219E-19 5.98874E-19
 -1      1522 9.41549E-05-2.82476E-05-2.82441E-05-2.32521E-07-7.29569E-20 1.00025E-18
 -1      1523 9.39004E-05-2.81713E-05-2.81677E-05-2.32521E-07 3.20729E-20 8.88842E-19
 -1      1524 9.40582E-05-2.82245E-05-2.82157E-05-4.62170E-07 3.10885E-19 6.55707E-19
 -1      1525 9.46306E-05-2.83875E-05-2.83889E-05-2.35430E-07 3.21438E-20 8.23137E-19
 -1      1526 9.43792E-05-2.83116E-05-2.83131E-05-2.32501E-07 1.28800E-19 1.04712E-18
 -1      1527 9.44964E-05-2.83505E-05-2.83498E-05-4.55421E-07 1.17290E-19 3.88001E-19
 -1      1528 9.51343E-05-2.85353E-05-2.85422E-05-2.54934E-07 1.77286E-19 5.02794E-19
 -1      1529 9.48688E-05-2.84542E-05-2.84620E-05-2.48096E-07 1.64433E-19 6.89368E-19
 -1      1530 9.49507E-05-2.84803E-05-2.84896E-05-4.76716E-07 2.58096E-19 2.65630E-19
 -1      1531 9.57011E-05-2.87017E-05-2.87147E-05-2.93675E-07-8.00534E-19 1.00632E-18
 -1      1532 9.54015E-05-2.86088E-05-2.86242E-05-2.81958E-07-3.94195E-19 4.13530E-19
 -1      1533 9.54484E-05-2.86222E-05-2.86430E-05-5.31564E-07-2.86058E-19 4.71476E-19
 -1      1534 9.63713E-05-2.88987E-05-2.89184E-05-3.53942E-07 2.16402E-19 1.42316E-18
 -1      1535 9.60149E-05-2.87869E-05-2.88108E-05-3.36400E-07-1.22449E-19 1.20606E-18
 -1      1536 9.60213E-05-2.87858E-05-2.88196E-05-6.24777E-07-5.56624E-19 4.82556E-19
 -1      1537 9.71887E-05-2.91398E-05-2.91663E-05-4.37329E-07-3.83481E-20 7.92383E-19
 -1      1538 9.67506E-05-2.90011E-05-2.90343E-05-4.13116E-07 2.80735E-19 1.26312E-18
 -1      1539 9.67050E-05-2.89820E-05-2.90300E-05-7.60111E-07 4.53002E-19 5.97404E-19
 -1      1540 9.81982E-05-2.94387E-05-2.94718E-05-5.43996E-07 2.05066E-19 4.01690E-19
 -1      1541 9.76530E-05-2.92650E-05-2.93080E-05-5.12558E-07 3.85359E-20 6.10162E-19
 -1      1542 9.75370E-05-2.92226E-05-2.92852E-05-9.39293E-07 1.71349E-19 5.80457E-19
 -1      1543 9.94418E-05-2.98087E-05-2.98470E-05-6.71377E-07-4.26643E-19 8.47162E-19
 -1      1544 9.87656E-05-2.95923E-05-2.96446E-05-6.32811E-07-1.51654E-19 6.29562E-19
 -1      1545 9.85537E-05-2.95193E-05-2.95956E-05-1.16018E-06-1.61835E-19 8.25426E-19
 -1      1546 1.00950E-04-3.02602E-05-3.03006E-05-8.12106E-07-1.72479E-19 8.05353E-19
 -1      1547 1.00125E-04-2.99956E-05-3.00548E-05-7.67768E-07-1.19367E-19 7.83499E-19
 -1      1548 9.97856E-05-2.98831E-05-2.99694E-05-1.41373E-06-4.05969E-19 1.26286E-18
 -1      1549 1.02731E-04-3.07972E-05-3.08336E-05-9.50979E-07-9.08550E-20 1.07008E-18
 -1      1550 1.01753E-04-3.04834E-05-3.05437E-05-9.04435E-07-9.10916E-20 7.86874E-19
 -1      1551 1.01249E-04-3.03215E-05-3.04096E-05-1.67935E-06-1.23122E-19 7.47139E-19
 -1      1552 1.04748E-04-3.14116E-05-3.14331E-05-1.06094E-06-6.32863E-20 7.16980E-19
 -1      1553 1.03638E-04-3.10560E-05-3.11066E-05-1.01931E-06-7.26496E-20 3.67996E-19
 -1      1554 1.02932E-04-3.08357E-05-3.09102E-05-1.91858E-06 9.12794E-20 3.15602E-20
 -1      1555 1.06896E-04-3.20751E-05-3.20650E-05-1.09882E-06-1.76979E-19 1.37368E-18
 -1      1556 1.05716E-04-3.16990E-05-3.17218E-05-1.07436E-06-3.59672E-19 6.80412E-19
 -1      1557 1.04780E-04-3.14154E-05-3.14508E-05-2.06759E-06-3.42701E-19-2.99148E-19
 -1      1558 1.08966E-04-3.27289E-05-3.26637E-05-1.00304E-06-9.57462E-20 2.50092E-18
 -1      1559 1.07840E-04-3.23743E-05-3.23420E-05-1.01438E-06-1.31077E-19 2.46281E-18
 -1      1560 1.06671E-04-3.20317E-05-3.19900E-05-2.03113E-06-7.23373E-19 1.28420E-18
 -1      1561 1.10620E-04-3.32726E-05-3.31264E-05-6.98458E-07 1.53018E-19 2.39497E-18
 -1      1562 1.09751E-04-3.30084E-05-3.28866E-05-7.69892E-07 2.90552E-19 2.88167E-18
 -1      1563 1.08396E-04-3.26278E-05-3.24602E-05-1.68420E-06 1.10091E-19 2.37724E-18
 -1      1564 1.11390E-04-3.35601E-05-3.33157E-05-1.17193E-07-3.79765E-19 2.39170E-18
 -1      1565 1.11057E-04-3.34823E-05-3.32385E-05-2.73076E-07-1.01651E-19 2.39592E-18
 -1      1566 1.09640E-04-3.31089E-05-3.27675E-05-8.93803E-07-7.85689E-20 2.82547E-18
 -1      1567 1.10739E-04-3.34125E-05-3.30839E-05 7.55147E-07-5.72141E-19 3.87995E-18
 -1      1568 1.11261E-04-3.36303E-05-3.32555E-05 5.04281E-07-9.55949E-19 2.18331E-18
 -1      1569 1.10006E-04-3.33374E-05-3.28034E-05 4.22682E-07-1.01172E-18 2.88352E-18
 -1      1570 1.08240E-04-3.26684E-05-3.23278E-05 1.80991E-06 6.07567E-19 2.85643E-18
 -1      1571 1.09861E-04-3.32652E-05-3.28064E-05 1.48951E-06 3.77658E-19 3.65581E-18
 -1      1572 1.09093E-04-3.31462E-05-3.24752E-05 2.19400E-06-9.81632E-20 2.51599E-18
 -1      1573 1.03860E-04-3.12815E-05-3.10678E-05 2.75704E-06-4.38604E-20 2.07957E-18
 -1      1574 1.06574E-04-3.22486E-05-3.18356E-05 2.44841E-06 3.62871E-19 2.79823E-18
 -1      1575 1.06663E-04-3.23902E-05-3.17556E-05 4.07465E-06 6.37710E-19 2.66056E-18
 -1      1576 9.82681E-05-2.94425E-05-2.95155E-05 3.15751E-06-2.38832E-19 2.41743E-18
 -1      1577 1.01640E-04-3.06125E-05-3.04392E-05 2.99004E-06-3.84612E-19 2.03574E-18
 -1      1578 1.02879E-04-3.10518E-05-3.07345E-05 5.40621E-06-7.65721E-20 2.59503E-18
 -1      1579 9.29112E-05-2.76361E-05-2.80668E-05 2.62540E-06 9.31968E-20 2.07536E-18
 -1      1580 9.60520E-05-2.86765E-05-2.89056E-05 2.71664E-06 7.90321E-20 1.96400E-18
 -1      1581 9.85123E-05-2.93688E-05-2.96367E-05 5.41103E-06 5.38726E-20 2.07002E-18
 -1      1582 8.95835E-05-2.65039E-05-2.71764E-05 1.14065E-06 1.14266E-18-2.45216E-19
 -1      1583 9.14357E-05-2.70348E-05-2.76618E-05 1.50455E-06 8.71908E-19 1.13179E-18
 -1      1584 9.48605E-05-2.78677E-05-2.87712E-05 3.66182E-06 1.35887E-18 6.35645E-19
 -1      1585 8.95530E-05-2.65116E-05-2.71522E-05-7.94157E-07-4.37691E-19-1.18517E-18
 -1      1586 8.94136E-05-2.63132E-05-2.71138E-05-2.89125E-07 5.03098E-19-4.54132E-19
 -1      1587 9.32508E-05-2.71655E-05-2.84126E-05 5.48816E-07 1.06935E-18-8.84603E-20
 -1      1588 9.28084E-05-2.76472E-05-2.79952E-05-2.39271E-06 1.80636E-19-2.57421E-18
 -1      1589 9.07459E-05-2.68044E-05-2.74515E-05-1.95460E-06 1.51738E-20-2.04490E-18
 -1      1590 9.43129E-05-2.75928E-05-2.86761E-05-2.75388E-06 8.48542E-19-1.29588E-18
 -1      1591 9.80572E-05-2.94273E-05-2.93968E-05-3.07551E-06 9.59377E-19-4.65439E-18
 -1      1592 9.48735E-05-2.82774E-05-2.85463E-05-2.85651E-06 6.61139E-19-3.55013E-18
 -1      1593 9.75816E-05-2.89479E-05-2.94614E-05-4.95302E-06 1.05203E-18-3.53317E-18
 -1      1594 1.03486E-04-3.12072E-05-3.09005E-05-2.78069E-06-9.41444E-19-3.00750E-18
 -1      1595 1.00254E-04-3.01366E-05-3.00167E-05-2.80140E-06-6.73940E-19-4.14273E-18
 -1      1596 1.01787E-04-3.06352E-05-3.05030E-05-5.40779E-06-6.84641E-19-2.53111E-18
 -1      1597 1.07645E-04-3.25114E-05-3.21053E-05-1.86145E-06 1.09813E-19-2.26923E-18
 -1      1598 1.05199E-04-3.17756E-05-3.14160E-05-2.04031E-06-2.96356E-19-3.06059E-18
 -1      1599 1.05569E-04-3.20550E-05-3.14903E-05-4.35146E-06-5.90488E-19-2.17991E-18
 -1      1600 1.09870E-04-3.31590E-05-3.27951E-05-7.71081E-07 2.88785E-20-1.88798E-18
 -1      1601 1.08572E-04-3.28325E-05-3.24128E-05-1.00269E-06 2.29361E-20-2.23887E-18
 -1      1602 1.08047E-04-3.28856E-05-3.21864E-05-2.51556E-06 1.08791E-20-1.61772E-18
 -1      1603 1.10199E-04-3.32018E-05-3.29458E-05 1.68759E-07-9.01776E-19-4.98664E-19
 -1      1604 1.10004E-04-3.32289E-05-3.28722E-05-4.03506E-08-4.10745E-19-1.57542E-18
 -1      1605 1.08962E-04-3.31001E-05-3.24863E-05-6.22031E-07-5.06433E-19-1.03617E-18
 -1      1606 1.09066E-04-3.28015E-05-3.26587E-05 8.22969E-07 1.73067E-18-1.33612E-18
 -1      1607 1.09706E-04-3.30731E-05-3.28280E-05 6.69386E-07 8.44664E-19 2.46185E-19
 -1      1608 1.08498E-04-3.28373E-05-3.24052E-05 8.90528E-07 4.09574E-19-1.62267E-18
 -1      1609 1.07007E-04-3.21352E-05-3.20818E-05 1.18935E-06-5.61424E-20-3.72672E-18
 -1      1610 1.08163E-04-3.25427E-05-3.24066E-05 1.09456E-06 6.73985E-19-1.77189E-18
 -1      1611 1.07049E-04-3.22760E-05-3.20304E-05 1.87798E-06 1.56690E-18-1.01556E-18
 -1      1612 1.04504E-04-3.13503E-05-3.13575E-05 1.32530E-06 1.32399E-18-4.54515E-18
 -1      1613 1.05898E-04-3.18086E-05-3.17576E-05 1.27913E-06 6.05224E-19-3.37418E-18
 -1      1614 1.05027E-04-3.15687E-05-3.14724E-05 2.37956E-06 1.21087E-18-1.34248E-18
 -1      1615 1.01924E-04-3.05534E-05-3.05997E-05 1.29603E-06-2.28723E-19-4.81341E-18
 -1      1616 1.03349E-04-3.10037E-05-3.10126E-05 1.28644E-06 3.22289E-19-5.16308E-18
 -1      1617 1.02784E-04-3.08246E-05-3.08342E-05 2.50375E-06 6.97143E-19-2.36889E-18
 -1      1618 9.95328E-05-2.98187E-05-2.98944E-05 1.14877E-06-1.41813E-19-4.30524E-18
 -1      1619 1.00840E-04-3.02206E-05-3.02738E-05 1.16791E-06-6.43869E-20-3.84361E-18
 -1      1620 1.00581E-04-3.01147E-05-3.01993E-05 2.35509E-06 2.11958E-19-1.17098E-18
 -1      1621 9.75338E-05-2.92019E-05-2.93070E-05 9.05037E-07-6.17386E-19-4.03144E-18
 -1      1622 9.86084E-05-2.95228E-05-2.96171E-05 9.51703E-07-5.56565E-19-5.09352E-18
 -1      1623 9.86123E-05-2.94845E-05-2.96316E-05 2.00131E-06-1.26708E-19-1.91242E-18
 -1      1624 9.61018E-05-2.87553E-05-2.88865E-05 5.63341E-07-6.11063E-19-2.60682E-18
 -1      1625 9.68345E-05-2.89596E-05-2.90997E-05 6.45393E-07-4.24580E-19-3.03597E-18
 -1      1626 9.70182E-05-2.89645E-05-2.91780E-05 1.47002E-06-1.24866E-18-2.53507E-18
 -1      1627 9.53744E-05-2.85400E-05-2.86405E-05 1.63094E-07 1.73548E-19-2.88092E-18
 -1      1628 9.56685E-05-2.85925E-05-2.87533E-05 2.65471E-07 3.67830E-19-2.35310E-18
 -1      1629 9.58968E-05-2.85944E-05-2.88584E-05 7.77120E-07 4.82478E-20-1.06793E-18
 -1      1630 9.52241E-05-2.85434E-05-2.85634E-05-1.72923E-08-1.40025E-18-1.42201E-18
 -1      1631 9.51572E-05-2.79219E-05-2.88271E-05 4.59371E-07 3.40195E-19 1.62614E-18
 -1      1632 9.52621E-05-2.82694E-05-2.87063E-05 3.53929E-07-1.59590E-18 1.22652E-18
 -1      1633 9.47464E-05-2.66743E-05-2.91811E-05 8.45013E-07 1.41411E-18 5.24902E-19
 -1      1634 9.49892E-05-2.74039E-05-2.89732E-05 7.77112E-07 9.05955E-19-9.14266E-20
 -1      1635 9.51247E-05-2.74854E-05-2.90049E-05 1.21336E-06 7.41672E-19 1.43272E-18
 -1      1636 9.41999E-05-2.50071E-05-2.96564E-05 1.08255E-06 1.22722E-18-1.98592E-19
 -1      1637 9.45205E-05-2.59794E-05-2.93804E-05 1.04863E-06 9.28825E-19 1.14900E-18
 -1      1638 9.46702E-05-2.62619E-05-2.93324E-05 1.83769E-06 7.05089E-19-7.43668E-20
 -1      1639 9.36006E-05-2.31563E-05-3.01901E-05 1.15379E-06 6.67647E-19 2.09805E-20
 -1      1640 9.39461E-05-2.42137E-05-2.98879E-05 1.15309E-06 4.40523E-20 1.53391E-18
 -1      1641 9.41412E-05-2.47715E-05-2.97350E-05 2.16384E-06-8.18199E-19 2.04592E-19
 -1      1642 9.30354E-05-2.14022E-05-3.06987E-05 1.06707E-06-3.68648E-18-3.06151E-18
 -1      1643 9.33535E-05-2.23787E-05-3.04187E-05 1.09583E-06 6.62638E-19-3.93300E-18
 -1      1644 9.35932E-05-2.32015E-05-3.01631E-05 2.17540E-06-2.65862E-18-3.25262E-18
 -1      1645 9.25579E-05-1.99214E-05-3.11282E-05 8.34393E-07-3.42457E-18 1.39580E-18
 -1      1646 9.28165E-05-2.07132E-05-3.09012E-05 8.90418E-07-3.54571E-18-9.30745E-19
 -1      1647 9.30868E-05-2.17384E-05-3.05640E-05 1.89277E-06-3.21404E-19-3.28740E-18
 -1      1648 9.22441E-05-1.89524E-05-3.14088E-05 4.83707E-07-6.86269E-19 1.85625E-18
 -1      1649 9.24012E-05-1.94305E-05-3.12720E-05 5.60106E-07-2.75123E-18 2.97774E-18
 -1      1650 9.26779E-05-2.05612E-05-3.08856E-05 1.34830E-06-3.03840E-19 2.87299E-18
 -1      1651 9.21405E-05-1.86389E-05-3.14987E-05 5.72850E-08 2.79991E-18 2.15423E-18
 -1      1652 9.21715E-05-1.87294E-05-3.14733E-05 1.44846E-07-5.19488E-19 2.85539E-18
 -1      1653 9.24267E-05-1.98464E-05-3.10790E-05 6.07749E-07 9.17421E-19 2.95977E-18
 -1      1654 9.22678E-05-1.90423E-05-3.13805E-05-3.89523E-07 1.30314E-18-1.67833E-18
 -1      1655 9.21646E-05-1.87213E-05-3.14730E-05-3.02487E-07 2.30460E-18-3.10391E-19
 -1      1656 9.23715E-05-1.97026E-05-3.11152E-05-2.36739E-07 5.31946E-19 1.24254E-18
 -1      1657 9.26151E-05-2.01250E-05-3.10659E-05-7.94035E-07-4.12717E-19-1.65751E-18
 -1      1658 9.23887E-05-1.94266E-05-3.12664E-05-7.20190E-07 9.56390E-19-6.73735E-19
 -1      1659 9.25262E-05-2.01643E-05-3.09858E-05-1.07185E-06-2.26229E-19-1.70277E-18
 -1      1660 9.31301E-05-2.17176E-05-3.06050E-05-1.09044E-06-2.71150E-18-4.60922E-20
 -1      1661 9.28140E-05-2.07514E-05-3.08812E-05-1.04236E-06-8.23025E-19-3.28176E-18
 -1      1662 9.28743E-05-2.11716E-05-3.07092E-05-1.77198E-06-1.25648E-18-2.70498E-18
 -1      1663 9.37599E-05-2.36486E-05-3.00496E-05-1.23456E-06-5.21854E-18-1.74436E-18
 -1      1664 9.33885E-05-2.25228E-05-3.03697E-05-1.21971E-06-4.07562E-18 6.73532E-19
 -1      1665 9.33720E-05-2.25976E-05-3.03210E-05-2.23060E-06-2.14158E-18-1.22165E-18
 -1      1666 9.44007E-05-2.55933E-05-2.94955E-05-1.18017E-06-5.24439E-18-8.89964E-21
 -1      1667 9.40383E-05-2.45064E-05-2.98018E-05-1.20603E-06-4.84965E-18-8.48960E-19
 -1      1668 9.39646E-05-2.42626E-05-2.98737E-05-2.35767E-06-1.78881E-18-1.50115E-18
 -1      1669 9.49453E-05-2.72000E-05-2.90365E-05-9.02318E-07-5.57883E-18-9.57488E-19
 -1      1670 9.46549E-05-2.63683E-05-2.92745E-05-9.78065E-07-4.85165E-18-4.87029E-19
 -1      1671 9.45654E-05-2.59100E-05-2.94374E-05-2.08314E-06-2.63414E-18-2.97123E-21
 -1      1672 9.53009E-05-2.80832E-05-2.87955E-05-6.41678E-07-2.48802E-18 1.53790E-18
 -1      1673 9.51655E-05-2.76579E-05-2.89393E-05-8.20887E-07-3.98342E-18 9.59410E-19
 -1      1674 9.51432E-05-2.71722E-05-2.91458E-05-1.69166E-06-1.11516E-18 1.08587E-18
 -1      1675 9.57017E-05-2.80613E-05-2.89855E-05-1.27530E-06-4.56195E-19 2.28778E-18
 -1      1676 2.08707E-05-6.79362E-05 1.40069E-05-6.19852E-06 9.37538E-18 2.06422E-18
 -1      1677 2.42468E-05-7.76840E-05 1.60938E-05 1.94199E-06 8.03135E-18 2.16904E-18
 -1      1678 1.89875E-05-4.02557E-05 4.60536E-06 1.23614E-06 7.57417E-18 2.13283E-18
 -1      1679 2.39155E-05-6.25349E-05 1.02538E-05-1.79038E-06 9.34616E-18 6.58198E-19
 -1      1680 3.33774E-05-1.28755E-05-1.07805E-05 2.68644E-05 6.73391E-18 2.56482E-18
 -1      1681 2.86237E-05-3.39533E-05-2.34598E-06 9.96061E-06 8.13829E-18 3.30851E-18
 -1      1682 7.15221E-05-5.40241E-07-2.97484E-05 5.85504E-05 3.82097E-18 3.50587E-18
 -1      1683 4.73607E-05-7.44354E-06-1.96439E-05 3.48008E-05 5.75982E-18 3.42117E-18
 -1      1684 1.37631E-04-1.67708E-05-4.85958E-05 7.48176E-05 2.44750E-18 3.65918E-18
 -1      1685 9.75756E-05-5.66418E-06-3.91323E-05 6.18260E-05 2.63004E-18 3.72864E-18
 -1      1686 2.02713E-04-4.10443E-05-6.38679E-05 6.61215E-05 2.12002E-18 2.20229E-18
 -1      1687 1.60379E-04-2.10320E-05-5.67209E-05 7.34766E-05 2.80453E-18 2.86128E-18
 -1      1688 2.47566E-04-6.19744E-05-7.29588E-05 2.93569E-05 7.09178E-19-6.09864E-20
 -1      1689 2.21618E-04-4.74400E-05-6.92846E-05 5.71291E-05 1.19029E-18 1.47892E-18
 -1      1690 2.48338E-04-6.14346E-05-7.38654E-05-2.13546E-05 1.39993E-18-1.73430E-18
 -1      1691 2.51349E-04-6.31017E-05-7.42928E-05 1.26303E-05 9.82135E-19-4.95514E-19
 -1      1692 2.12215E-04-4.30581E-05-6.74223E-05-6.24001E-05 2.13516E-18-4.58075E-18
 -1      1693 2.41948E-04-5.94220E-05-7.17752E-05-3.79503E-05 1.89248E-18-3.07685E-18
 -1      1694 1.47833E-04-1.58699E-05-5.38614E-05-7.56651E-05 2.39202E-18-4.32495E-18
 -1      1695 1.92237E-04-3.60669E-05-6.16166E-05-7.23174E-05 1.47723E-18-5.05170E-18
 -1      1696 8.48063E-05-4.50221E-06-3.47527E-05-5.64397E-05 5.92923E-18-4.89924E-18
 -1      1697 1.24091E-04-1.25460E-05-4.49751E-05-7.36232E-05 3.85231E-18-3.27548E-18
 -1      1698 4.04599E-05-1.18909E-05-1.52985E-05-2.79409E-05 7.65125E-18-5.97412E-18
 -1      1699 5.92624E-05-6.87482E-07-2.50856E-05-5.11072E-05 7.08458E-18-5.64802E-18
 -1      1700 2.73463E-05-4.14777E-05 1.19957E-06-6.92863E-06 7.00327E-18-3.67528E-18
 -1      1701 2.91633E-05-1.88134E-05-6.87861E-06-2.07705E-05 7.62160E-18-5.88180E-18
 -1      1702 2.38946E-05-6.67128E-05 1.22576E-05-3.86739E-07 6.25364E-18-1.94606E-18
 -1      1703 1.89565E-05-4.68867E-05 7.42100E-06-8.34363E-08 7.41069E-18-2.68102E-18
 -1      1704 2.31709E-05-7.64267E-05 1.62138E-05-4.26531E-06 1.96702E-18-2.50044E-18
 -1      1705 2.17037E-05-7.22185E-05 1.53830E-05 5.33922E-06 5.32530E-18-2.88372E-18
 -1      1706 1.96410E-05-6.05704E-05 1.19413E-05-5.86506E-06-3.78243E-18-4.56763E-18
 -1      1707 2.38325E-05-7.37399E-05 1.49143E-05-5.44603E-07 3.77353E-19-2.52945E-18
 -1      1708 2.03419E-05-3.30698E-05 1.33113E-06 4.68937E-06-7.36749E-18-3.71085E-18
 -1      1709 2.37955E-05-5.57277E-05 7.66413E-06-1.67964E-06-5.16351E-18-3.94013E-18
 -1      1710 3.85146E-05-8.72753E-06-1.45954E-05 3.17757E-05-5.88857E-18-3.43557E-18
 -1      1711 3.02887E-05-2.68876E-05-5.92645E-06 1.28032E-05-7.70376E-18-2.95699E-18
 -1      1712 8.52953E-05-5.09606E-06-3.34640E-05 6.18793E-05-3.74219E-18-1.62715E-18
 -1      1713 5.79093E-05-7.68271E-06-2.35885E-05 4.01099E-05-5.17114E-18-3.08659E-18
 -1      1714 1.49098E-04-2.14695E-05-5.12187E-05 7.36583E-05-1.12317E-18 3.18061E-18
 -1      1715 1.09573E-04-9.02732E-06-4.23992E-05 6.38002E-05-3.18061E-18 1.99900E-19
 -1      1716 2.11310E-04-4.47017E-05-6.56186E-05 6.47232E-05 1.19728E-18 3.28818E-18
 -1      1717 1.70681E-04-2.50234E-05-5.89349E-05 7.41386E-05 5.55230E-19 2.71898E-18
 -1      1718 2.51806E-04-6.33874E-05-7.39859E-05 2.33069E-05-7.83505E-20 3.06499E-18
 -1      1719 2.27402E-04-5.00003E-05-7.04376E-05 5.22229E-05 5.44219E-19 3.12555E-18
 -1      1720 2.52832E-04-6.29541E-05-7.48216E-05-2.52605E-05-1.56108E-18 4.24067E-18
 -1      1721 2.57999E-04-6.58541E-05-7.54919E-05 8.06623E-06-9.34701E-19 3.22561E-18
 -1      1722 2.09414E-04-4.16387E-05-6.71086E-05-6.02778E-05-4.30610E-18 6.84996E-18
 -1      1723 2.40498E-04-5.81198E-05-7.18307E-05-3.73905E-05-2.59573E-18 4.62480E-18
 -1      1724 1.50091E-04-1.72806E-05-5.41782E-05-7.52830E-05-6.54164E-18 9.30974E-18
 -1      1725 1.91906E-04-3.62834E-05-6.15847E-05-7.21420E-05-5.06039E-18 7.64447E-18
 -1      1726 8.98791E-05-3.34427E-06-3.70800E-05-6.07385E-05-7.94771E-18 8.83709E-18
 -1      1727 1.26966E-04-1.21128E-05-4.62346E-05-7.57962E-05-6.80422E-18 9.99838E-18
 -1      1728 4.89108E-05-1.40995E-05-1.76802E-05-3.11719E-05-8.78881E-18 7.53182E-18
 -1      1729 7.08929E-05-5.47637E-06-2.77699E-05-5.41380E-05-8.19674E-18 8.42374E-18
 -1      1730 2.67521E-05-3.65679E-05-8.54308E-07-6.42329E-06-4.50452E-18 5.43372E-18
 -1      1731 2.99151E-05-1.53324E-05-8.82745E-06-2.18811E-05-7.96973E-18 7.56104E-18
 -1      1732 2.42336E-05-6.44241E-05 1.09825E-05 1.75812E-06 3.90186E-18 3.23424E-18
 -1      1733 1.94194E-05-4.31430E-05 5.51460E-06-2.80753E-07-2.40811E-18 4.62035E-18
 -1      1734 2.40876E-05-7.76493E-05 1.61940E-05-1.05137E-06 8.21357E-18 1.06091E-18
 -1      1735 2.11610E-05-6.96435E-05 1.45385E-05 7.12811E-06 5.04959E-18 1.40565E-18
 -1      1736 1.12561E-04-3.09547E-05-3.39649E-05 4.54456E-05 2.32341E-18 1.42725E-18
 -1      1737 6.96630E-05-3.43649E-05-1.64573E-05 3.92839E-05 4.75863E-18 8.41951E-19
 -1      1738 9.53339E-05-2.84950E-05-2.86498E-05 1.50485E-07-1.91515E-18-8.62008E-19
 -1      1739 9.54147E-05-2.82187E-05-2.88024E-05 6.04664E-07-7.34327E-19 6.93184E-19
 -1      1740 1.85583E-05-4.92624E-05 8.75070E-06 1.32336E-05 4.52697E-18-2.21923E-19
 -1      1741 3.81126E-05-4.17040E-05-1.49169E-06 2.74225E-05 4.94244E-18 1.94995E-18
 -1      1742 1.23696E-05-5.26616E-05 1.24128E-05 9.13726E-07 4.42929E-18 3.33477E-18
 -1      1743 1.55595E-04-3.14962E-05-5.04328E-05 4.04616E-05 1.82853E-18 1.36542E-18
 -1      1744 1.91257E-04-3.30024E-05-6.33228E-05 3.03828E-05 1.62461E-18-2.11758E-19
 -1      1745 2.10169E-04-3.46974E-05-6.97916E-05 1.02077E-05 1.14561E-18-8.62280E-19
 -1      1746 2.07826E-04-3.41019E-05-6.90674E-05-1.41095E-05 2.62030E-18-2.16883E-18
 -1      1747 1.86525E-04-3.23890E-05-6.15468E-05-3.48582E-05 1.86083E-18-3.59650E-18
 -1      1748 1.47374E-04-3.10158E-05-4.74595E-05-4.33390E-05 3.17129E-18-3.43895E-18
 -1      1749 1.02503E-04-3.14593E-05-3.00330E-05-4.46883E-05 4.41304E-18-1.50348E-18
 -1      1750 6.12035E-05-3.60964E-05-1.26320E-05-3.68967E-05 3.91668E-18-3.33032E-18
 -1      1751 3.27236E-05-4.27575E-05 1.14484E-06-2.63041E-05 4.17672E-18-3.25864E-18
 -1      1752 1.50285E-05-4.84246E-05 9.97662E-06-1.12654E-05 3.06287E-18-3.63462E-18
 -1      1753 1.23161E-05-5.07241E-05 1.17411E-05 3.75623E-06 8.70009E-19-4.56720E-18
 -1      1754 2.20538E-05-4.68561E-05 6.46112E-06 1.60277E-05-1.28156E-18-4.84355E-18
 -1      1755 4.38631E-05-4.01620E-05-4.51454E-06 2.86785E-05-3.75405E-18-1.57442E-18
 -1      1756 7.89812E-05-3.42934E-05-2.00706E-05 4.00788E-05-4.06830E-18-6.22146E-19
 -1      1757 1.22903E-04-3.36956E-05-3.70989E-05 4.31261E-05-3.33731E-18 2.21753E-18
 -1      1758 1.63216E-04-3.33781E-05-5.27205E-05 3.88983E-05-1.49448E-18 2.96462E-18
 -1      1759 1.96597E-04-3.42909E-05-6.47592E-05 2.75976E-05 5.29396E-19 2.54406E-18
 -1      1760 2.13809E-04-3.55090E-05-7.07246E-05 6.75638E-06-9.11831E-19 3.45844E-18
 -1      1761 2.08476E-04-3.44319E-05-6.92855E-05-1.29492E-05-2.66392E-18 2.80326E-18
 -1      1762 1.85971E-04-3.29495E-05-6.13114E-05-3.21599E-05-4.21314E-18 3.59735E-18
 -1      1763 1.50414E-04-3.12304E-05-4.84748E-05-4.49532E-05-5.19401E-18 5.87671E-18
 -1      1764 1.08911E-04-3.34962E-05-3.19463E-05-4.40085E-05-5.42270E-18 5.63277E-18
 -1      1765 6.85220E-05-3.71723E-05-1.49103E-05-3.77697E-05-3.79047E-18 6.05078E-18
 -1      1766 3.56759E-05-4.27349E-05-3.04957E-07-2.48825E-05-1.47384E-19 7.36315E-18
 -1      1767 1.78330E-05-4.92062E-05 9.09416E-06-1.20582E-05 3.97174E-18 4.43168E-18
 -1      1768 1.06023E-04-2.31626E-05-3.55948E-05-1.68590E-05-2.45626E-19 1.07616E-18
 -1      1769 8.91217E-05-1.05592E-05-3.37931E-05-1.33530E-05-2.00588E-19-3.97126E-19
 -1      1770 9.04446E-05-1.16258E-05-3.39314E-05-1.51267E-05-3.35002E-19-2.79891E-19
 -1      1771 9.24761E-05-1.38697E-05-3.38484E-05-1.60141E-05-3.52498E-19-1.69036E-19
 -1      1772 9.41854E-05-1.58184E-05-3.40905E-05-1.76738E-05-3.38522E-19-9.89970E-21
 -1      1773 9.34296E-05-1.63623E-05-3.30395E-05-1.37635E-05-3.29911E-19-1.91165E-19
 -1      1774 8.62237E-05-7.67747E-06-3.37341E-05-7.87427E-06-6.00599E-20-5.21243E-19
 -1      1775 8.66210E-05-7.97487E-06-3.37663E-05-9.26447E-06-9.57213E-20-5.60034E-19
 -1      1776 8.56149E-05-7.04243E-06-3.37334E-05-5.32838E-06-1.44690E-20-4.59079E-19
 -1      1777 8.58457E-05-7.22038E-06-3.37474E-05-6.63438E-06-6.03701E-20-4.93397E-19
 -1      1778 8.76092E-05-9.87295E-06-3.33484E-05-6.93865E-06-9.47957E-20-4.86303E-19
 -1      1779 8.52852E-05-6.68502E-06-3.37382E-05-2.89345E-06 1.68033E-19-2.62739E-19
 -1      1780 8.54039E-05-6.77930E-06-3.37434E-05-4.13479E-06 1.10175E-19-3.32950E-19
 -1      1781 8.69816E-05-9.16300E-06-3.33835E-05-4.54448E-06 5.84688E-20-3.19609E-19
 -1      1782 8.51566E-05-6.53733E-06-3.37424E-05-5.18418E-07 3.41327E-19-1.47701E-19
 -1      1783 8.51915E-05-6.56573E-06-3.37436E-05-1.72977E-06 2.61361E-19-2.19832E-19
 -1      1784 8.66542E-05-8.78515E-06-3.34049E-05-2.22077E-06 2.24977E-19-1.47430E-19
 -1      1785 8.52013E-05-6.57468E-06-3.37437E-05 1.84788E-06 5.05233E-19-8.28107E-20
 -1      1786 8.51602E-05-6.54186E-06-3.37423E-05 6.35546E-07 4.69976E-19-1.35988E-19
 -1      1787 8.65575E-05-8.67188E-06-3.34119E-05 6.54884E-08 4.21287E-19-8.32144E-20
 -1      1788 8.54289E-05-6.80423E-06-3.37435E-05 4.25727E-06 5.51780E-19-1.23640E-19
 -1      1789 8.53030E-05-6.70389E-06-3.37381E-05 3.01285E-06 5.36831E-19-1.25731E-19
 -1      1790 8.66717E-05-8.80462E-06-3.34041E-05 2.35287E-06 5.57461E-19-7.50617E-20
 -1      1791 8.58799E-05-7.25618E-06-3.37469E-05 6.72158E-06 5.75676E-19 6.37922E-20
 -1      1792 8.56451E-05-7.07456E-06-3.37332E-05 5.43300E-06 5.30013E-19-4.14914E-20
 -1      1793 8.70157E-05-9.20065E-06-3.33818E-05 4.65944E-06 5.84570E-19-4.57729E-20
 -1      1794 8.66847E-05-8.04392E-06-3.37648E-05 9.38559E-06 6.82993E-19 2.72334E-19
 -1      1795 8.62683E-05-7.72825E-06-3.37325E-05 7.96383E-06 5.98968E-19 1.55563E-19
 -1      1796 8.76609E-05-9.93151E-06-3.33453E-05 7.03753E-06 6.31809E-19 1.50878E-19
 -1      1797 8.80869E-05-9.38898E-06-3.38169E-05 1.22659E-05 7.37514E-19 5.33551E-19
 -1      1798 8.73521E-05-8.83226E-06-3.37465E-05 1.06724E-05 6.95927E-19 3.67705E-19
 -1      1799 8.87729E-05-1.11638E-05-3.32918E-05 9.51387E-06 7.15554E-19 3.48885E-19
 -1      1800 9.06195E-05-1.18378E-05-3.39235E-05 1.53144E-05 7.41617E-19 9.94205E-19
 -1      1801 8.92448E-05-1.07400E-05-3.37854E-05 1.35249E-05 7.36078E-19 7.06081E-19
 -1      1802 9.06592E-05-1.32231E-05-3.32055E-05 1.19871E-05 7.54392E-19 6.79307E-19
 -1      1803 9.58529E-05-1.70283E-05-3.39859E-05 1.77008E-05 5.62185E-19 1.68253E-18
 -1      1804 9.28388E-05-1.43387E-05-3.38212E-05 1.62050E-05 6.48486E-19 1.26679E-18
 -1      1805 9.39548E-05-1.68833E-05-3.30193E-05 1.39061E-05 7.08702E-19 1.08709E-18
 -1      1806 1.01895E-04-2.50854E-05-3.33502E-05 1.44307E-05 3.82859E-19 2.44983E-18
 -1      1807 9.80500E-05-1.96091E-05-3.36171E-05 1.69736E-05 4.66722E-19 1.96490E-18
 -1      1808 9.73042E-05-2.18470E-05-3.24201E-05 1.32590E-05 5.56712E-19 1.63176E-18
 -1      1809 9.87200E-05-2.61257E-05-3.13328E-05 9.44354E-06 3.71450E-19 2.27839E-18
 -1      1810 1.00128E-04-1.95562E-05-3.42092E-05-1.88783E-05-3.13746E-19 4.45433E-19
 -1      1811 9.52749E-05-2.72749E-05-2.91745E-05 4.07560E-06 4.13577E-19 1.85865E-18
 -1      1812 9.77080E-05-2.73808E-05-3.01843E-05 6.40943E-06 3.91038E-19 2.06886E-18
 -1      1813 9.75466E-05-2.56059E-05-3.08237E-05 8.76996E-06 4.57504E-19 1.68567E-18
 -1      1814 9.97899E-05-2.25349E-05-3.28280E-05-1.44791E-05-3.29019E-19 2.55486E-19
 -1      1815 9.69270E-05-2.69687E-05-2.98672E-05-5.71475E-06-3.04032E-19 2.64360E-19
 -1      1816 9.51182E-05-2.70244E-05-2.91558E-05-3.90819E-06-2.44448E-19 2.01362E-19
 -1      1817 9.42966E-05-2.72248E-05-2.86481E-05-2.43243E-06-3.33155E-19 2.65578E-19
 -1      1818 9.35229E-05-2.73045E-05-2.83424E-05-1.57878E-06-3.24784E-19 1.85030E-19
 -1      1819 9.54782E-05-2.65380E-05-2.95667E-05-4.48649E-06-3.30118E-19 5.43408E-20
 -1      1820 9.29973E-05-2.73552E-05-2.80734E-05-7.52385E-07-2.09353E-19 2.03903E-19
 -1      1821 9.26935E-05-2.74175E-05-2.79507E-05-3.14058E-07-7.64646E-20 1.05419E-19
 -1      1822 9.42663E-05-2.72121E-05-2.87579E-05-1.84207E-06-2.53915E-19 1.55563E-19
 -1      1823 9.24172E-05-2.74442E-05-2.78148E-05 1.41885E-07-7.79816E-20 8.54130E-20
 -1      1824 9.23838E-05-2.75192E-05-2.77845E-05 3.66624E-07-1.38470E-19 1.34637E-19
 -1      1825 9.35638E-05-2.75173E-05-2.83222E-05-3.74923E-07-1.38144E-19 2.38311E-20
 -1      1826 9.22808E-05-2.75502E-05-2.77266E-05 6.08276E-07-1.15318E-19 1.00199E-19
 -1      1827 9.23948E-05-2.76341E-05-2.77458E-05 7.13959E-07 9.69042E-21 6.83553E-20
 -1      1828 9.32421E-05-2.76999E-05-2.81019E-05 4.30613E-07-1.21196E-19-3.73125E-20
 -1      1829 9.24022E-05-2.76718E-05-2.77349E-05 8.28724E-07 5.49713E-20 1.37842E-19
 -1      1830 9.25910E-05-2.77576E-05-2.77803E-05 8.65848E-07 1.15359E-20 2.02757E-19
 -1      1831 9.31806E-05-2.78410E-05-2.80112E-05 8.48445E-07-5.31643E-20 4.52546E-20
 -1      1832 9.26644E-05-2.77990E-05-2.77972E-05 9.05887E-07-9.22259E-20 3.56107E-19
 -1      1833 9.28855E-05-2.78814E-05-2.78554E-05 9.04450E-07-1.08535E-19 3.92921E-19
 -1      1834 9.32814E-05-2.79625E-05-2.79992E-05 1.03585E-06 1.25367E-20 1.85329E-19
 -1      1835 9.29956E-05-2.79235E-05-2.78883E-05 9.02723E-07-2.13310E-19 4.54841E-19
 -1      1836 9.32247E-05-2.79994E-05-2.79513E-05 8.81962E-07-2.75734E-20 5.19737E-19
 -1      1837 9.34764E-05-2.80699E-05-2.80346E-05 1.08916E-06-1.00065E-19 1.65310E-19
 -1      1838 9.33536E-05-2.80401E-05-2.79929E-05 8.60454E-07-4.83065E-20 3.70676E-19
 -1      1839 9.35785E-05-2.81086E-05-2.80566E-05 8.33441E-07-2.33843E-19 8.82789E-20
 -1      1840 9.37213E-05-2.81644E-05-2.80978E-05 1.07083E-06-3.01901E-19 2.35567E-19
 -1      1841 9.37164E-05-2.81469E-05-2.81031E-05 8.07516E-07-4.11321E-19-2.84752E-20
 -1      1842 9.39332E-05-2.82083E-05-2.81659E-05 7.83593E-07-3.96907E-19-1.92705E-19
 -1      1843 9.39900E-05-2.82465E-05-2.81770E-05 1.02341E-06-4.05762E-19 1.52725E-19
 -1      1844 9.40763E-05-2.82443E-05-2.82155E-05 7.64512E-07-3.71260E-19-1.00442E-19
 -1      1845 9.42874E-05-2.83005E-05-2.82778E-05 7.50750E-07-2.86113E-19-8.16285E-20
 -1      1846 9.42701E-05-2.83178E-05-2.82662E-05 9.77304E-07-3.52210E-19 6.01715E-20
 -1      1847 9.44363E-05-2.83351E-05-2.83305E-05 7.47271E-07 2.43742E-19 1.44627E-19
 -1      1848 9.46485E-05-2.83885E-05-2.83941E-05 7.49438E-07 6.13506E-19 4.19495E-19
 -1      1849 9.45591E-05-2.83806E-05-2.83632E-05 9.55339E-07 1.64383E-19 4.24122E-19
 -1      1850 9.48076E-05-2.84233E-05-2.84512E-05 7.68900E-07 4.51037E-19 2.14632E-19
 -1      1851 9.50317E-05-2.84773E-05-2.85190E-05 7.92128E-07 1.21155E-19 6.66710E-19
 -1      1852 9.48625E-05-2.84382E-05-2.84689E-05 9.75830E-07 4.10029E-19 7.04061E-19
 -1      1853 9.52080E-05-2.85145E-05-2.85830E-05 8.41205E-07-2.39481E-19 6.50029E-19
 -1      1854 9.54580E-05-2.85735E-05-2.86590E-05 8.90462E-07 4.11233E-21 7.73502E-19
 -1      1855 9.51918E-05-2.84946E-05-2.85865E-05 1.05465E-06 9.10478E-20 5.77177E-19
 -1      1856 9.56612E-05-2.86157E-05-2.87330E-05 9.75643E-07-2.04868E-19 5.74219E-19
 -1      1857 9.59545E-05-2.86848E-05-2.88222E-05 1.05600E-06-1.99889E-19 4.12557E-19
 -1      1858 9.55637E-05-2.85549E-05-2.87208E-05 1.20660E-06-1.98282E-19 4.35586E-19
 -1      1859 9.61960E-05-2.87352E-05-2.89100E-05 1.18379E-06-4.50998E-19-1.86252E-19
 -1      1860 9.65529E-05-2.88205E-05-2.90183E-05 1.30045E-06-5.23337E-19-4.94387E-19
 -1      1861 9.59994E-05-2.86251E-05-2.88783E-05 1.44622E-06-5.49035E-19 3.20940E-19
 -1      1862 9.68463E-05-2.88832E-05-2.91244E-05 1.47724E-06-2.86932E-19-8.45639E-19
 -1      1863 9.72902E-05-2.89920E-05-2.92582E-05 1.63522E-06-4.02244E-19-6.42731E-19
 -1      1864 9.65241E-05-2.87126E-05-2.90667E-05 1.78779E-06-6.85798E-19-7.04421E-19
 -1      1865 9.76502E-05-2.90718E-05-2.93873E-05 1.86653E-06-5.34570E-19-4.97452E-19
 -1      1866 9.82066E-05-2.92128E-05-2.95537E-05 2.06978E-06-1.85614E-19-5.95403E-19
 -1      1867 9.71663E-05-2.88269E-05-2.92940E-05 2.24442E-06-3.27627E-19-9.32749E-19
 -1      1868 9.86493E-05-2.93160E-05-2.97102E-05 2.35870E-06 1.84168E-19-6.80223E-19
 -1      1869 9.93446E-05-2.94996E-05-2.99161E-05 2.60823E-06 6.31018E-19-6.03767E-19
 -1      1870 9.79574E-05-2.89808E-05-2.95682E-05 2.82548E-06 1.28303E-19-1.18374E-18
 -1      1871 9.98863E-05-2.96344E-05-3.01035E-05 2.95243E-06 6.41892E-19-1.62256E-19
 -1      1872 1.00745E-04-2.98732E-05-3.03547E-05 3.24282E-06 5.50699E-19-3.73452E-19
 -1      1873 9.89310E-05-2.91922E-05-2.98959E-05 3.53163E-06 8.70697E-19-2.33856E-19
 -1      1874 1.01402E-04-3.00514E-05-3.05744E-05 3.62928E-06 6.65268E-19-1.13320E-19
 -1      1875 1.02441E-04-3.03599E-05-3.08737E-05 3.94281E-06 3.57144E-19 2.73871E-19
 -1      1876 1.00122E-04-2.94877E-05-3.02806E-05 4.34589E-06 8.10722E-19 2.16719E-19
 -1      1877 1.03229E-04-3.05984E-05-3.11234E-05 4.33936E-06-8.64702E-20 7.58914E-19
 -1      1878 1.04450E-04-3.09931E-05-3.14674E-05 4.63669E-06 3.46893E-19 1.08374E-18
 -1      1879 1.01564E-04-2.99079E-05-3.07198E-05 5.21895E-06 5.43517E-19 8.18445E-19
 -1      1880 1.05381E-04-3.13167E-05-3.17390E-05 4.97952E-06 2.66374E-19 8.49470E-19
 -1      1881 1.06755E-04-3.18136E-05-3.21137E-05 5.18689E-06-4.15476E-19 8.69258E-19
 -1      1882 1.03293E-04-3.05134E-05-3.12020E-05 6.04686E-06 2.01000E-19 9.52441E-19
 -1      1883 1.07840E-04-3.22555E-05-3.23916E-05 5.36468E-06-3.72257E-19 7.41630E-19
 -1      1884 1.09287E-04-3.28631E-05-3.27673E-05 5.36059E-06-2.18958E-19 4.61557E-19
 -1      1885 1.05337E-04-3.13896E-05-3.17038E-05 6.64107E-06-2.03465E-19 4.25125E-19
 -1      1886 1.10527E-04-3.34592E-05-3.30278E-05 5.20062E-06-2.43016E-19 4.83345E-19
 -1      1887 1.11892E-04-3.41594E-05-3.33553E-05 4.81247E-06-1.32154E-19 3.79494E-19
 -1      1888 1.07715E-04-3.26388E-05-3.21890E-05 6.69680E-06-4.04698E-20 6.86519E-19
 -1      1889 1.13258E-04-3.49231E-05-3.35707E-05 4.08530E-06-1.17225E-19 5.64852E-19
 -1      1890 1.14292E-04-3.56328E-05-3.37837E-05 3.12052E-06 7.99056E-20 3.83815E-19
 -1      1891 1.10405E-04-3.43343E-05-3.26152E-05 5.78161E-06 3.91290E-20 1.25685E-18
 -1      1892 1.15674E-04-3.64922E-05-3.39337E-05 1.60115E-06 3.69783E-19 2.66521E-19
 -1      1893 1.16031E-04-3.70039E-05-3.39650E-05-4.77688E-08 7.60966E-19 7.39461E-19
 -1      1894 1.13268E-04-3.63957E-05-3.29529E-05 3.39772E-06 1.35555E-19 6.93831E-19
 -1      1895 1.17154E-04-3.77057E-05-3.40549E-05-2.40703E-06 7.07445E-19 5.23382E-19
 -1      1896 1.16470E-04-3.76498E-05-3.38707E-05-4.56017E-06 4.87653E-19 1.37994E-19
 -1      1897 1.15900E-04-3.83697E-05-3.32173E-05-7.83281E-07 4.43124E-19 8.43032E-19
 -1      1898 1.16845E-04-3.77037E-05-3.39452E-05-7.31817E-06 3.97675E-19 3.65832E-19
 -1      1899 1.14942E-04-3.66639E-05-3.35856E-05-9.27864E-06 2.76993E-19 7.72057E-19
 -1      1900 1.17476E-04-3.92219E-05-3.34973E-05-6.41836E-06 8.97517E-19-8.73784E-20
 -1      1901 1.14073E-04-3.55677E-05-3.37095E-05-1.12373E-05 3.56078E-19 7.46739E-19
 -1      1902 1.11292E-04-3.35005E-05-3.32964E-05-1.18313E-05-2.28633E-20 1.12170E-18
 -1      1903 1.16901E-04-3.75956E-05-3.39307E-05-1.18124E-05 2.45841E-19 8.62521E-19
 -1      1904 1.09327E-04-3.13978E-05-3.34821E-05-1.13883E-05-2.94728E-19 1.38674E-18
 -1      1905 1.06706E-04-2.91251E-05-3.31653E-05-9.66186E-06-2.74373E-19 1.75139E-18
 -1      1906 1.13751E-04-3.30682E-05-3.45706E-05-1.38216E-05 1.59328E-19 2.31415E-18
 -1      1907 1.04947E-04-2.73109E-05-3.33164E-05-6.16639E-06-8.69400E-19 1.66509E-18
 -1      1908 1.03847E-04-2.63011E-05-3.31948E-05-2.51844E-06-1.37855E-19 1.59393E-18
 -1      1909 1.09574E-04-2.76368E-05-3.52165E-05-9.61127E-06-4.77872E-19 2.39648E-18
 -1      1910 1.03839E-04-2.63118E-05-3.31840E-05 2.40345E-06-6.17752E-19 6.52167E-19
 -1      1911 1.04899E-04-2.73304E-05-3.32882E-05 6.03240E-06-1.29286E-18-7.15941E-19
 -1      1912 1.07588E-04-2.51735E-05-3.54847E-05-7.61367E-08-1.21147E-18 2.96784E-19
 -1      1913 1.06618E-04-2.91417E-05-3.31193E-05 9.48282E-06-1.34073E-18-4.86700E-19
 -1      1914 1.09176E-04-3.14021E-05-3.34167E-05 1.11731E-05-1.09415E-18-7.73910E-19
 -1      1915 1.09527E-04-2.76792E-05-3.51753E-05 9.39819E-06-1.28556E-18-1.38946E-19
 -1      1916 1.11091E-04-3.34944E-05-3.32098E-05 1.15626E-05-7.16677E-19-8.88921E-19
 -1      1917 1.13785E-04-3.55294E-05-3.36005E-05 1.09235E-05-4.14345E-19-1.19735E-18
 -1      1918 1.13605E-04-3.31022E-05-3.44900E-05 1.35137E-05-9.46030E-19-5.82974E-19
 -1      1919 1.14573E-04-3.65881E-05-3.34599E-05 8.92871E-06 4.43713E-19-1.23095E-18
 -1      1920 1.16376E-04-3.75924E-05-3.37936E-05 6.93997E-06 7.48691E-19-5.74024E-19
 -1      1921 1.16610E-04-3.75807E-05-3.38126E-05 1.13811E-05-1.48313E-19-1.02730E-18
 -1      1922 1.15928E-04-3.75140E-05-3.36979E-05 4.15380E-06-1.07911E-19-8.11904E-19
 -1      1923 1.16497E-04-3.75341E-05-3.38503E-05 1.97703E-06-4.59668E-19-7.58276E-20
 -1      1924 1.17034E-04-3.91339E-05-3.33477E-05 5.92339E-06 1.80272E-19-5.46368E-19
 -1      1925 1.15295E-04-3.68096E-05-3.37338E-05-4.10093E-07-2.03255E-19 9.34101E-19
 -1      1926 1.14810E-04-3.62611E-05-3.36656E-05-2.08260E-06-7.50749E-19 9.04830E-19
 -1      1927 1.15306E-04-3.82320E-05-3.30233E-05 2.26381E-07 4.25277E-19 8.83162E-19
 -1      1928 1.13344E-04-3.53793E-05-3.34860E-05-3.63304E-06-1.18331E-18 7.56963E-19
 -1      1929 1.12168E-04-3.46286E-05-3.32320E-05-4.62466E-06-3.59582E-19 1.33293E-18
 -1      1930 1.12511E-04-3.62137E-05-3.27065E-05-4.01915E-06-9.26128E-19 2.35885E-18
 -1      1931 1.10709E-04-3.38386E-05-3.29852E-05-5.38568E-06-8.08308E-19 1.36114E-18
 -1      1932 1.09187E-04-3.30900E-05-3.26133E-05-5.80140E-06 6.60934E-19 1.36119E-18
 -1      1933 1.09470E-04-3.41038E-05-3.23126E-05-6.47480E-06-3.32930E-19 2.57598E-18
 -1      1934 1.07845E-04-3.24607E-05-3.23211E-05-5.99143E-06 2.38622E-18-2.71646E-20
 -1      1935 1.06230E-04-3.17953E-05-3.18991E-05-6.01634E-06 1.92017E-18 2.36820E-19
 -1      1936 1.06583E-04-3.23457E-05-3.18293E-05-7.46036E-06 5.01149E-19 1.89154E-18
 -1      1937 1.05037E-04-3.13114E-05-3.15917E-05-5.85275E-06 5.07024E-19 8.69474E-19
 -1      1938 1.03491E-04-3.07465E-05-3.11721E-05-5.64688E-06 9.55972E-19 1.54891E-18
 -1      1939 1.03993E-04-3.10111E-05-3.12902E-05-7.45267E-06 1.33236E-18 1.03156E-18
 -1      1940 1.02452E-04-3.03697E-05-3.08769E-05-5.28456E-06 1.52827E-18 9.91297E-19
 -1      1941 1.01072E-04-2.98974E-05-3.04952E-05-4.95059E-06 1.65886E-18 1.30805E-18
 -1      1942 1.01728E-04-3.00189E-05-3.07439E-05-6.85141E-06 1.10515E-18 1.38749E-18
 -1      1943 1.00182E-04-2.95911E-05-3.02330E-05-4.47662E-06 4.34804E-19 7.64135E-19
 -1      1944 9.90195E-05-2.91976E-05-2.99120E-05-4.06203E-06 1.59111E-19 6.97070E-19
 -1      1945 9.97804E-05-2.92573E-05-3.02352E-05-5.91594E-06 5.00596E-19 5.82068E-19
 -1      1946 9.82692E-05-2.89332E-05-2.96956E-05-3.51241E-06 4.48398E-19 4.77588E-19
 -1      1947 9.73603E-05-2.86131E-05-2.94488E-05-3.02468E-06 5.40930E-19 1.05261E-18
 -1      1948 9.81345E-05-2.86326E-05-2.97965E-05-4.77827E-06 4.04720E-19 3.18757E-19
 -1      1949 9.68150E-05-2.84237E-05-2.92935E-05-2.44168E-06 1.50947E-18 1.66690E-18
 -1      1950 9.61651E-05-2.81877E-05-2.91156E-05-1.90156E-06 1.03619E-18 1.60232E-18
 -1      1951 9.58939E-05-2.78234E-05-2.91820E-05-2.23748E-06 1.32992E-19 1.92542E-18
 -1      1952 9.68407E-05-2.81393E-05-2.94570E-05-3.52507E-06 1.24847E-18 1.19474E-18
 -1      1953 9.31709E-05-2.73505E-05-2.81809E-05 1.61422E-06 3.47515E-19 1.53003E-18
 -1      1954 9.43683E-05-2.74567E-05-2.86183E-05 2.68496E-06 3.17465E-19 1.66990E-18
 -1      1955 9.51970E-05-2.70373E-05-2.92167E-05 4.06445E-06 4.26799E-19 1.42032E-18
 -1      1956 9.21145E-05-2.73355E-05-2.77379E-05 3.57504E-07 2.37391E-19 1.44771E-18
 -1      1957 9.26117E-05-2.73687E-05-2.79110E-05 9.05363E-07 2.71620E-19 1.54240E-18
 -1      1958 9.35893E-05-2.73574E-05-2.83920E-05 1.59586E-06 3.07612E-19 1.37168E-18
 -1      1959 9.17354E-05-2.73716E-05-2.75688E-05-2.96544E-07-8.91039E-21 1.37816E-18
 -1      1960 9.18529E-05-2.73458E-05-2.76164E-05-3.98516E-09 9.37030E-21 1.24890E-18
 -1      1961 9.27554E-05-2.74713E-05-2.79889E-05 2.82583E-07 1.45326E-19 1.12460E-18
 -1      1962 9.17569E-05-2.74607E-05-2.75453E-05-6.24520E-07-1.65185E-19 1.35986E-18
 -1      1963 9.16708E-05-2.73996E-05-2.75293E-05-4.70994E-07-5.31323E-20 1.50164E-18
 -1      1964 9.24398E-05-2.75628E-05-2.78145E-05-4.12931E-07-1.09441E-19 1.10850E-18
 -1      1965 9.20021E-05-2.75818E-05-2.76015E-05-7.67099E-07 3.03973E-19 1.22580E-18
 -1      1966 9.18115E-05-2.75036E-05-2.75527E-05-6.94020E-07-7.81479E-21 1.19105E-18
 -1      1967 9.24439E-05-2.76668E-05-2.77699E-05-7.62481E-07 2.44093E-20 7.84363E-19
 -1      1968 9.23614E-05-2.77162E-05-2.76998E-05-8.03096E-07 4.51756E-19 1.05565E-18
 -1      1969 9.21236E-05-2.76328E-05-2.76353E-05-7.77272E-07 4.39448E-19 1.14334E-18
 -1      1970 9.26334E-05-2.77815E-05-2.77998E-05-9.12000E-07 4.02501E-19 6.96763E-19
 -1      1971 9.27687E-05-2.78514E-05-2.78176E-05-7.80892E-07 3.64524E-19 7.92918E-19
 -1      1972 9.25165E-05-2.77696E-05-2.77473E-05-7.81657E-07 4.21097E-19 9.30930E-19
 -1      1973 9.29218E-05-2.78988E-05-2.78714E-05-9.46719E-07 5.75594E-19 8.09046E-19
 -1      1974 9.31863E-05-2.79806E-05-2.79420E-05-7.32190E-07-1.61320E-19 9.21480E-19
 -1      1975 9.29376E-05-2.79038E-05-2.78714E-05-7.45770E-07 1.91856E-19 7.43746E-19
 -1      1976 9.32558E-05-2.80122E-05-2.79646E-05-9.20318E-07 3.09771E-19 7.15860E-19
 -1      1977 9.35966E-05-2.81010E-05-2.80667E-05-6.78811E-07 3.92694E-19 9.49553E-19
 -1      1978 9.33587E-05-2.80304E-05-2.79982E-05-6.95539E-07 2.39228E-19 8.20949E-19
 -1      1979 9.36052E-05-2.81184E-05-2.80680E-05-8.68603E-07 1.95778E-19 8.24627E-19
 -1      1980 9.39955E-05-2.82133E-05-2.81898E-05-6.36469E-07 3.72524E-19 7.13118E-19
 -1      1981 9.37688E-05-2.81480E-05-2.81236E-05-6.49220E-07 3.09019E-19 7.66113E-19
 -1      1982 9.39563E-05-2.82165E-05-2.81760E-05-8.16606E-07 4.16722E-19 7.56396E-19
 -1      1983 9.43895E-05-2.83202E-05-2.83128E-05-6.17051E-07 3.99640E-19 4.76043E-19
 -1      1984 9.41690E-05-2.82583E-05-2.82476E-05-6.20281E-07 5.45991E-19 8.04379E-19
 -1      1985 9.43069E-05-2.83081E-05-2.82868E-05-7.82632E-07 4.90377E-19 5.53670E-19
 -1      1986 9.47927E-05-2.84268E-05-2.84397E-05-6.30088E-07 1.90593E-19 3.12369E-19
 -1      1987 9.45694E-05-2.83651E-05-2.83730E-05-6.19205E-07 2.13683E-20 4.35909E-19
 -1      1988 9.46638E-05-2.83963E-05-2.84019E-05-7.80759E-07 1.76891E-19 5.52385E-19
 -1      1989 9.52255E-05-2.85394E-05-2.85765E-05-6.83631E-07 1.50284E-19 8.91803E-19
 -1      1990 9.49872E-05-2.84740E-05-2.85047E-05-6.54616E-07 1.50034E-19 4.98766E-19
 -1      1991 9.50404E-05-2.84861E-05-2.85251E-05-8.22399E-07 2.64388E-20 7.62939E-19
 -1      1992 9.57133E-05-2.86660E-05-2.87306E-05-7.84651E-07-7.90492E-19 4.17230E-19
 -1      1993 9.54452E-05-2.85922E-05-2.86495E-05-7.33882E-07-2.39332E-19 2.78204E-19
 -1      1994 9.54557E-05-2.85836E-05-2.86617E-05-9.17167E-07-9.77792E-20 6.61567E-19
 -1      1995 9.62856E-05-2.88161E-05-2.89107E-05-9.38889E-07-1.14093E-19 2.16741E-19
 -1      1996 9.59706E-05-2.87283E-05-2.88155E-05-8.63217E-07-6.37501E-19 1.12508E-19
 -1      1997 9.59328E-05-2.86965E-05-2.88183E-05-1.07310E-06-4.67968E-19 8.28042E-20
 -1      1998 9.69744E-05-2.90001E-05-2.91262E-05-1.15003E-06 4.99075E-19 6.87266E-19
 -1      1999 9.65941E-05-2.88923E-05-2.90115E-05-1.04716E-06 3.16172E-19 3.34122E-19
 -1      2000 9.64980E-05-2.88335E-05-2.90025E-05-1.29614E-06 1.81840E-19 8.22081E-20
 -1      2001 9.78125E-05-2.92299E-05-2.93861E-05-1.41793E-06 1.15043E-19 4.67043E-19
 -1      2002 9.73484E-05-2.90954E-05-2.92469E-05-1.28729E-06 1.80334E-19 4.65356E-19
 -1      2003 9.71796E-05-2.90054E-05-2.92218E-05-1.58863E-06 3.04499E-19 4.06602E-19
 -1      2004 9.88304E-05-2.95179E-05-2.96984E-05-1.73559E-06-7.67523E-19 7.27137E-19
 -1      2005 9.82655E-05-2.93502E-05-2.95302E-05-1.57977E-06-1.79161E-19 6.06484E-19
 -1      2006 9.80056E-05-2.92242E-05-2.94829E-05-1.94654E-06-2.41848E-19 2.78322E-19
 -1      2007 1.00050E-04-2.98767E-05-3.00677E-05-2.08436E-06-1.47393E-19 7.97103E-19
 -1      2008 9.93730E-05-2.96696E-05-2.98679E-05-1.91149E-06-5.74211E-19 7.25568E-19
 -1      2009 9.90012E-05-2.95041E-05-2.97905E-05-2.35494E-06-5.91088E-19 5.56184E-19
 -1      2010 1.01478E-04-3.03172E-05-3.04925E-05-2.42709E-06 6.13318E-19 1.18874E-19
 -1      2011 1.00688E-04-3.00666E-05-3.02618E-05-2.25428E-06 2.82883E-19 6.77729E-19
 -1      2012 1.00183E-04-2.98607E-05-3.01450E-05-2.78131E-06 3.51328E-19 7.98688E-19
 -1      2013 1.03094E-04-3.08459E-05-3.09615E-05-2.69941E-06-1.86893E-20-7.06705E-19
 -1      2014 1.02207E-04-3.05518E-05-3.07064E-05-2.55726E-06 3.44729E-19-2.15127E-19
 -1      2015 1.01554E-04-3.03104E-05-3.05402E-05-3.16653E-06 8.58130E-19-4.00771E-19
 -1      2016 1.04832E-04-3.14600E-05-3.14488E-05-2.80068E-06-8.51479E-19-4.47923E-19
 -1      2017 1.03893E-04-3.11299E-05-3.11845E-05-2.73808E-06-8.52231E-19-8.01455E-19
 -1      2018 1.03092E-04-3.08678E-05-3.09601E-05-3.41457E-06-4.21836E-19-7.09362E-19
 -1      2019 1.06568E-04-3.21381E-05-3.19096E-05-2.58975E-06-8.76922E-19 1.01049E-18
 -1      2020 1.05661E-04-3.17925E-05-3.16624E-05-2.67648E-06-1.31253E-18 8.38083E-20
 -1      2021 1.04736E-04-3.15392E-05-3.13757E-05-3.38445E-06-1.39680E-18 2.18773E-19
 -1      2022 1.08095E-04-3.28252E-05-3.22785E-05-1.89606E-06-4.73855E-19 2.15859E-18
 -1      2023 1.07351E-04-3.25052E-05-3.20875E-05-2.21784E-06-2.28256E-19 1.92373E-18
 -1      2024 1.06374E-04-3.23081E-05-3.17443E-05-2.89271E-06-7.47760E-19 6.12795E-19
 -1      2025 1.09122E-04-3.34117E-05-3.24746E-05-5.64812E-07-4.53222E-19 3.18782E-18
 -1      2026 1.08721E-04-3.31870E-05-3.23886E-05-1.20103E-06-2.62177E-19 3.02561E-18
 -1      2027 1.07817E-04-3.31100E-05-3.20122E-05-1.74263E-06-5.85134E-19 2.62721E-18
 -1      2028 1.09292E-04-3.37140E-05-3.24190E-05 1.44328E-06-6.36936E-19 2.65207E-18
 -1      2029 1.09434E-04-3.36852E-05-3.24862E-05 4.69744E-07-4.89870E-19 2.99126E-18
 -1      2030 1.08790E-04-3.37953E-05-3.21252E-05 1.97127E-07-2.35945E-19 3.28714E-18
 -1      2031 1.08262E-04-3.34845E-05-3.20666E-05 3.89936E-06 2.22591E-19 2.45018E-18
 -1      2032 1.09110E-04-3.37659E-05-3.23149E-05 2.69890E-06-2.25913E-19 2.53525E-18
 -1      2033 1.08946E-04-3.41039E-05-3.20466E-05 2.84850E-06-1.10664E-19 2.32326E-18
 -1      2034 1.05865E-04-3.24968E-05-3.14453E-05 6.16779E-06 5.20733E-19 3.29398E-18
 -1      2035 1.07445E-04-3.31617E-05-3.18572E-05 5.05222E-06 3.35180E-19 2.64079E-18
 -1      2036 1.07947E-04-3.36996E-05-3.17815E-05 5.74452E-06 1.88299E-19 3.11524E-18
 -1      2037 1.02359E-04-3.07429E-05-3.06787E-05 7.25208E-06 2.67478E-19 1.48681E-18
 -1      2038 1.04445E-04-3.17287E-05-3.11758E-05 6.70596E-06 5.68266E-19 2.35364E-18
 -1      2039 1.05673E-04-3.23430E-05-3.13903E-05 7.93749E-06 1.04453E-18 2.56995E-18
 -1      2040 9.86127E-05-2.86586E-05-2.99665E-05 6.22287E-06 1.03780E-18 3.08882E-19
 -1      2041 1.00686E-04-2.96932E-05-3.04202E-05 6.68328E-06 2.35459E-19 4.80757E-19
 -1      2042 1.02507E-04-3.01911E-05-3.09787E-05 8.22476E-06 9.24646E-19 8.61194E-20
 -1      2043 9.59711E-05-2.71061E-05-2.95172E-05 2.94391E-06 1.71547E-18 7.24324E-19
 -1      2044 9.73443E-05-2.77702E-05-2.97913E-05 4.44948E-06 1.39666E-18 7.63011E-19
 -1      2045 9.94809E-05-2.79915E-05-3.06595E-05 5.83180E-06 1.16609E-18 4.20737E-20
 -1      2046 9.55934E-05-2.68912E-05-2.94650E-05-1.49830E-06 5.84314E-19 2.14776E-19
 -1      2047 9.57334E-05-2.68644E-05-2.94728E-05 5.20744E-07 1.28429E-18 1.01854E-18
 -1      2048 9.79046E-05-2.68076E-05-3.05126E-05 1.21310E-06 1.18102E-18 6.27709E-19
 -1      2049 9.76677E-05-2.81397E-05-2.98186E-05-5.28415E-06 1.93708E-18-1.07921E-18
 -1      2050 9.65182E-05-2.74387E-05-2.95613E-05-3.58322E-06 1.18188E-18-2.77999E-19
 -1      2051 9.85451E-05-2.72963E-05-3.05674E-05-3.86217E-06 1.46992E-18 3.16175E-19
 -1      2052 1.01244E-04-3.01796E-05-3.04587E-05-7.00306E-06 9.10978E-19-1.16221E-18
 -1      2053 9.92719E-05-2.91489E-05-3.00251E-05-6.22428E-06 1.35885E-18-9.05081E-19
 -1      2054 1.01044E-04-2.91746E-05-3.08039E-05-7.32324E-06 1.45129E-18 1.01467E-18
 -1      2055 1.04884E-04-3.20780E-05-3.11857E-05-6.43373E-06-1.87858E-18-1.00769E-18
 -1      2056 1.02799E-04-3.11339E-05-3.07128E-05-6.64590E-06-8.71273E-19-1.56305E-18
 -1      2057 1.04192E-04-3.14557E-05-3.11563E-05-8.09409E-06-6.86436E-20 1.56136E-18
 -1      2058 1.07490E-04-3.32466E-05-3.17934E-05-4.35019E-06-1.33021E-19-6.81709E-19
 -1      2059 1.05881E-04-3.26425E-05-3.14104E-05-5.20980E-06-9.67901E-19-1.04277E-18
 -1      2060 1.06761E-04-3.31741E-05-3.15205E-05-6.50953E-06-1.03351E-18-1.17834E-19
 -1      2061 1.08639E-04-3.35889E-05-3.21421E-05-1.79898E-06-3.58877E-19-1.95277E-19
 -1      2062 1.07787E-04-3.33706E-05-3.19272E-05-2.86293E-06-3.48270E-19-7.40171E-19
 -1      2063 1.08107E-04-3.39230E-05-3.17853E-05-3.70076E-06-3.59896E-19-5.66872E-19
 -1      2064 1.08438E-04-3.33064E-05-3.21858E-05 4.50503E-07-8.02977E-19-5.53695E-19
 -1      2065 1.08345E-04-3.33943E-05-3.21566E-05-4.96612E-07-3.19192E-19 2.65986E-19
 -1      2066 1.08183E-04-3.38122E-05-3.18731E-05-7.84128E-07-8.89788E-19-6.72246E-19
 -1      2067 1.07243E-04-3.26649E-05-3.19575E-05 2.05276E-06 1.66338E-18-8.68126E-19
 -1      2068 1.07748E-04-3.29459E-05-3.20864E-05 1.36789E-06 1.82357E-19-1.32212E-18
 -1      2069 1.07272E-04-3.31713E-05-3.17606E-05 1.56277E-06 5.74619E-19-1.28651E-18
 -1      2070 1.05447E-04-3.18742E-05-3.15328E-05 2.97613E-06 9.19542E-19-3.25946E-19
 -1      2071 1.06341E-04-3.22516E-05-3.17710E-05 2.56983E-06 1.79135E-18-2.16989E-19
 -1      2072 1.05734E-04-3.23056E-05-3.14728E-05 3.11042E-06 1.20425E-18-1.14088E-18
 -1      2073 1.03383E-04-3.10645E-05-3.09976E-05 3.33913E-06 1.50202E-18-1.52377E-18
 -1      2074 1.04470E-04-3.14711E-05-3.12941E-05 3.16572E-06 1.19310E-18-1.20150E-18
 -1      2075 1.03884E-04-3.14103E-05-3.10625E-05 3.90808E-06 1.89775E-18-8.69105E-19
 -1      2076 1.01298E-04-3.03043E-05-3.04295E-05 3.29010E-06 2.07261E-19-1.11973E-18
 -1      2077 1.02424E-04-3.06985E-05-3.07404E-05 3.29151E-06 6.75465E-19-1.05177E-18
 -1      2078 1.01955E-04-3.05799E-05-3.05907E-05 4.11427E-06 7.34785E-19 9.76470E-20
 -1      2079 9.93659E-05-2.96246E-05-2.98911E-05 2.94513E-06 8.37146E-19-3.84407E-19
 -1      2080 1.00419E-04-2.99824E-05-3.01820E-05 3.07730E-06 5.14738E-20 1.13537E-19
 -1      2081 1.00108E-04-2.98457E-05-3.01139E-05 3.88913E-06-5.56329E-19 1.09678E-18
 -1      2082 9.77106E-05-2.90404E-05-2.94302E-05 2.37021E-06-5.66374E-19-5.91863E-19
 -1      2083 9.86075E-05-2.93460E-05-2.96750E-05 2.61108E-06 6.72806E-19 3.05630E-19
 -1      2084 9.84515E-05-2.92088E-05-2.96781E-05 3.34630E-06 3.82197E-19 7.25236E-19
 -1      2085 9.64229E-05-2.85671E-05-2.90766E-05 1.59625E-06-1.12606E-18-5.26464E-19
 -1      2086 9.70954E-05-2.88057E-05-2.92584E-05 1.94034E-06-1.63554E-18-9.32573E-19
 -1      2087 9.70540E-05-2.86626E-05-2.93145E-05 2.55341E-06-1.00573E-18 1.14119E-18
 -1      2088 9.56705E-05-2.82882E-05-2.88681E-05 9.17197E-07-4.50196E-19 8.49820E-19
 -1      2089 9.61121E-05-2.84322E-05-2.89986E-05 1.31907E-06-3.02382E-19-2.39759E-20
 -1      2090 9.61161E-05-2.82744E-05-2.90802E-05 1.78714E-06-1.11906E-18 2.29157E-18
 -1      2091 9.55616E-05-2.80391E-05-2.89382E-05 1.15808E-06-6.31654E-19 2.70095E-18
 -1      2092 9.41020E-05-2.45951E-05-2.97918E-05 2.98024E-06-2.21760E-18-1.30309E-18
 -1      2093 9.44420E-05-2.53709E-05-2.95938E-05 2.88813E-06-1.02679E-18-8.69493E-19
 -1      2094 9.47456E-05-2.60079E-05-2.94575E-05 2.67639E-06-5.00539E-19-9.19429E-19
 -1      2095 9.50555E-05-2.66986E-05-2.92852E-05 2.39816E-06 5.16135E-19-1.00432E-18
 -1      2096 9.47617E-05-2.58738E-05-2.95262E-05 3.53012E-06-1.48985E-18-1.49608E-18
 -1      2097 9.52224E-05-2.71269E-05-2.91797E-05 2.01747E-06-3.30561E-19 5.95888E-19
 -1      2098 9.54515E-05-2.76667E-05-2.90406E-05 1.61095E-06-3.56147E-20 2.60113E-18
 -1      2099 9.56912E-05-2.77604E-05-2.91066E-05 1.96058E-06-8.20469E-19 2.66010E-18
 -1      2100 9.53163E-05-2.69437E-05-2.93056E-05 2.85932E-06-4.93956E-19 3.18106E-19
 -1      2101 9.34757E-05-2.32016E-05-3.01269E-05 2.89587E-06-2.70047E-18-4.66417E-18
 -1      2102 9.38052E-05-2.39599E-05-2.99319E-05 2.97824E-06-2.84348E-18-1.40808E-18
 -1      2103 9.40410E-05-2.45681E-05-2.97738E-05 3.75769E-06-2.37607E-18-2.25898E-18
 -1      2104 9.29022E-05-2.19313E-05-3.04315E-05 2.42907E-06 5.51281E-19-8.62680E-19
 -1      2105 9.31942E-05-2.25998E-05-3.02594E-05 2.67745E-06-9.89104E-19-2.44643E-18
 -1      2106 9.33466E-05-2.32918E-05-3.00173E-05 3.51082E-06-1.51450E-18-1.57892E-18
 -1      2107 9.24611E-05-2.09699E-05-3.06589E-05 1.62949E-06 6.26448E-19 2.55042E-18
 -1      2108 9.26736E-05-2.14467E-05-3.05367E-05 2.01467E-06 7.80169E-19 6.41520E-19
 -1      2109 9.27313E-05-2.21691E-05-3.02293E-05 2.80060E-06 9.67365E-19 6.00599E-20
 -1      2110 9.22119E-05-2.04490E-05-3.07770E-05 5.89366E-07 5.42391E-19 3.31891E-18
 -1      2111 9.23141E-05-2.06660E-05-3.07223E-05 1.06556E-06 1.36855E-19 3.44781E-18
 -1      2112 9.22762E-05-2.13522E-05-3.03798E-05 1.70242E-06 4.41427E-19 2.34406E-18
 -1      2113 9.21971E-05-2.04521E-05-3.07680E-05-5.60568E-07 2.23469E-19-1.39781E-18
 -1      2114 9.21704E-05-2.03728E-05-3.07897E-05-5.49211E-08 2.13287E-19 2.12507E-18
 -1      2115 9.20458E-05-2.09568E-05-3.04478E-05 3.44491E-07-4.32696E-19 2.58880E-18
 -1      2116 9.24295E-05-2.09938E-05-3.06311E-05-1.66302E-06-1.17853E-18-1.75002E-18
 -1      2117 9.22727E-05-2.06216E-05-3.07275E-05-1.19881E-06-3.56589E-19-2.73572E-18
 -1      2118 9.20836E-05-2.10512E-05-3.04236E-05-1.09805E-06-9.53031E-19-2.11534E-18
 -1      2119 9.28783E-05-2.19914E-05-3.03890E-05-2.54348E-06-2.48922E-18-3.31752E-18
 -1      2120 9.26123E-05-2.13838E-05-3.05445E-05-2.19520E-06-2.01955E-18-1.46900E-18
 -1      2121 9.23962E-05-2.16309E-05-3.03115E-05-2.41462E-06-1.65496E-18-2.64343E-18
 -1      2122 9.35078E-05-2.33510E-05-3.00675E-05-3.08968E-06-1.06061E-18-4.85439E-20
 -1      2123 9.31558E-05-2.25680E-05-3.02656E-05-2.90575E-06-1.43906E-18-9.44861E-19
 -1      2124 9.29515E-05-2.26293E-05-3.01267E-05-3.42198E-06-1.69489E-18-1.91083E-18
 -1      2125 9.42366E-05-2.48797E-05-2.97162E-05-3.17454E-06 1.49237E-19-2.54629E-19
 -1      2126 9.38458E-05-2.40385E-05-2.99254E-05-3.20606E-06-1.34639E-19-9.05316E-19
 -1      2127 9.37002E-05-2.39376E-05-2.98931E-05-3.96383E-06 4.61649E-19 4.61226E-19
 -1      2128 9.49886E-05-2.64070E-05-2.93861E-05-2.75187E-06-9.25905E-19-7.47186E-19
 -1      2129 9.45947E-05-2.55986E-05-2.95733E-05-3.01152E-06-8.58971E-19-2.66326E-19
 -1      2130 9.45527E-05-2.53877E-05-2.96421E-05-3.91866E-06-2.36941E-19-1.15273E-18
 -1      2131 5.35807E-05-3.85244E-05-7.09246E-06 3.93489E-05 2.41997E-18 1.39080E-18
 -1      2132 3.93580E-05-4.09960E-05-8.58427E-07 3.10046E-05 1.85034E-18 4.65868E-19
 -1      2133 1.21633E-05-3.60809E-05 8.61622E-06 5.69735E-06 2.14744E-18 1.99942E-18
 -1      2134 1.20422E-05-3.62687E-05 8.72956E-06-3.12150E-06 2.49028E-18 2.29461E-18
 -1      2135 2.51173E-05-3.59793E-05 3.46387E-06 2.49418E-05 2.12436E-18-1.18606E-18
 -1      2136 1.78399E-05-3.77162E-05 6.80647E-06 1.61210E-05 1.18902E-18 7.17437E-19
 -1      2137 9.49958E-05-4.33455E-05-2.20960E-05 4.28943E-05 2.34247E-18-1.54181E-18
 -1      2138 7.66470E-05-4.53110E-05-1.43643E-05 3.88053E-05 2.52966E-18-6.75403E-19
 -1      2139 1.30094E-04-4.39234E-05-3.66367E-05 3.53298E-05 5.33843E-19 7.06849E-19
 -1      2140 1.09315E-04-4.46143E-05-2.83781E-05 3.59698E-05 1.96512E-18-6.07746E-19
 -1      2141 1.15262E-04-5.51334E-05-2.55115E-05 3.46144E-05 5.45913E-19-2.44687E-18
 -1      2142 8.72697E-05-8.73151E-06-3.37499E-05-1.05401E-05-1.35294E-19-5.40778E-19
 -1      2143 8.79785E-05-9.26567E-06-3.38202E-05-1.21202E-05-1.78803E-19-4.79474E-19
 -1      2144 9.04710E-05-1.30309E-05-3.32168E-05-1.18305E-05-2.21618E-19-3.62676E-19
 -1      2145 8.86808E-05-1.10614E-05-3.32982E-05-9.40491E-06-1.16907E-19-4.96255E-19
 -1      2146 1.78717E-04-2.93290E-05-6.25423E-05 1.28578E-05 1.74870E-18-2.34205E-19
 -1      2147 1.65324E-04-2.94173E-05-5.77125E-05 1.75940E-05 2.69272E-18 1.46960E-19
 -1      2148 1.81777E-04-2.40965E-05-6.64099E-05 6.00704E-07 1.82959E-18-2.10935E-18
 -1      2149 1.80501E-04-2.54856E-05-6.52075E-05 8.55372E-06 1.81223E-18-1.44207E-18
 -1      2150 1.76130E-04-2.51679E-05-6.37334E-05-9.13009E-06 2.12944E-18-1.77115E-18
 -1      2151 1.79529E-04-2.39177E-05-6.55959E-05-1.85211E-06 1.74023E-18-2.12489E-18
 -1      2152 1.61529E-04-3.11360E-05-5.54667E-05-1.92534E-05 1.57665E-18-2.11843E-18
 -1      2153 1.74495E-04-3.03816E-05-6.05957E-05-1.37253E-05 1.82557E-18-1.32222E-18
 -1      2154 1.36879E-04-3.91334E-05-4.20620E-05-2.74865E-05 2.41934E-18-2.10403E-18
 -1      2155 1.56160E-04-3.71753E-05-4.99428E-05-2.70456E-05 1.65103E-18-2.25480E-18
 -1      2156 1.01165E-04-4.39333E-05-2.52353E-05-3.71611E-05 2.74439E-18-3.64224E-20
 -1      2157 1.22885E-04-4.35297E-05-3.37237E-05-3.78240E-05 2.87059E-18-7.02190E-19
 -1      2158 6.79165E-05-4.37934E-05-1.12994E-05-3.85756E-05 1.39676E-18-2.20980E-18
 -1      2159 8.54626E-05-4.16589E-05-1.88235E-05-4.30353E-05 2.00069E-18-1.28071E-18
 -1      2160 1.07186E-04-5.31782E-05-2.31012E-05-3.77823E-05 7.76729E-19 5.44007E-19
 -1      2161 3.44812E-05-3.73733E-05 2.71080E-07-3.03679E-05 1.90328E-18-1.84463E-18
 -1      2162 4.84088E-05-3.72582E-05-5.12234E-06-3.87877E-05 2.04304E-18-2.18037E-18
 -1      2163 1.44664E-05-3.32982E-05 6.82338E-06-1.02692E-05 5.06632E-19-4.00901E-18
 -1      2164 1.94565E-05-3.06828E-05 4.12653E-06-2.07634E-05 1.75717E-18-3.13910E-18
 -1      2165 1.34889E-05-3.13233E-05 6.63773E-06 9.24151E-06 1.25149E-19-5.22662E-18
 -1      2166 1.21920E-05-3.27745E-05 7.63989E-06-4.59248E-07 1.13262E-18-4.41558E-18
 -1      2167 1.59245E-05-2.19941E-05 2.16018E-06-7.10269E-06 8.09975E-20-4.04289E-18
 -1      2168 3.32948E-05-3.59797E-05 3.66269E-07 2.93950E-05-1.06726E-19-3.69793E-18
 -1      2169 2.33887E-05-3.60011E-05 4.18916E-06 2.15480E-05 9.97381E-19-4.12844E-18
 -1      2170 6.05164E-05-3.97177E-05-9.48887E-06 3.93127E-05-1.82790E-18-4.93317E-19
 -1      2171 4.59107E-05-4.17766E-05-3.17354E-06 3.23750E-05-5.43372E-19-1.29887E-18
 -1      2172 4.77676E-05-3.77237E-05-4.74986E-06 3.71359E-05 1.48930E-18-2.03500E-18
 -1      2173 1.00743E-04-4.30367E-05-2.47303E-05 4.15361E-05-2.72067E-18 1.92107E-18
 -1      2174 8.03762E-05-4.42639E-05-1.66302E-05 3.71672E-05-2.58303E-18-1.34043E-19
 -1      2175 1.38301E-04-4.33705E-05-4.01581E-05 3.28417E-05-2.70140E-18 3.96200E-18
 -1      2176 1.18328E-04-4.42626E-05-3.22219E-05 3.36375E-05-3.30809E-18 2.90532E-18
 -1      2177 1.66868E-04-3.68489E-05-5.44137E-05 2.26945E-05-5.59412E-19 1.55769E-18
 -1      2178 1.49502E-04-3.82474E-05-4.75601E-05 2.35328E-05-1.95977E-18 2.55042E-18
 -1      2179 1.80389E-04-2.98038E-05-6.32913E-05 9.14997E-06 3.11285E-19 1.69957E-18
 -1      2180 1.71060E-04-3.13802E-05-5.90352E-05 1.59748E-05 2.95826E-19 1.07488E-18
 -1      2181 1.84169E-04-2.52813E-05-6.68219E-05-9.17358E-07-1.43445E-18 2.73453E-18
 -1      2182 1.79675E-04-2.44430E-05-6.55184E-05 5.04797E-06-7.53436E-19 2.08307E-18
 -1      2183 1.76084E-04-2.47350E-05-6.40142E-05-7.32985E-06-2.94725E-18 2.31706E-18
 -1      2184 1.84719E-04-2.60510E-05-6.65530E-05-2.42277E-06-2.08878E-18 2.20207E-18
 -1      2185 1.61131E-04-1.40979E-05-6.18743E-05 2.41997E-07-1.88550E-18 1.31240E-18
 -1      2186 1.64697E-04-3.37040E-05-5.54336E-05-1.95441E-05-4.09223E-18 1.68348E-18
 -1      2187 1.74922E-04-3.16832E-05-6.03432E-05-1.22352E-05-3.50778E-18 2.06295E-18
 -1      2188 1.41171E-04-3.87187E-05-4.38607E-05-2.96163E-05-3.37754E-18 3.43387E-18
 -1      2189 1.59733E-04-3.82406E-05-5.09190E-05-2.76258E-05-4.15200E-18 2.27217E-18
 -1      2190 1.58091E-04-3.76862E-05-5.06342E-05-8.00565E-06-3.40783E-18-4.47233E-19
 -1      2191 1.09836E-04-4.58071E-05-2.80443E-05-3.49699E-05-3.38728E-18 2.58642E-18
 -1      2192 1.29264E-04-4.30372E-05-3.63298E-05-3.73237E-05-3.18442E-18 4.11319E-18
 -1      2193 7.02630E-05-4.49796E-05-1.20695E-05-3.72225E-05-6.01393E-20 5.89249E-18
 -1      2194 9.02432E-05-4.42647E-05-1.98642E-05-4.23513E-05-2.73973E-18 4.02214E-18
 -1      2195 3.96527E-05-4.12049E-05-7.76775E-07-3.04738E-05 2.39202E-18 7.15129E-18
 -1      2196 5.34601E-05-3.98554E-05-6.51847E-06-3.75548E-05-1.35949E-19 7.07042E-18
 -1      2197 7.42707E-05-4.72937E-05-1.18165E-05-4.19140E-05 1.70974E-18 5.78161E-18
 -1      2198 1.67039E-05-3.80100E-05 7.32690E-06-1.32233E-05 3.44128E-18 4.16740E-18
 -1      2199 2.32563E-05-3.57282E-05 4.12394E-06-2.26871E-05 1.90455E-18 6.46731E-18
 -1      2200 1.59849E-04-3.64639E-05-5.18787E-05 2.26089E-05 1.72129E-18-5.40407E-19
 -1      2201 1.42756E-04-3.85381E-05-4.47352E-05 2.43367E-05 6.55180E-19 5.44642E-19
 -1      2202 9.71601E-05-2.43053E-05-3.12962E-05-1.00143E-05-3.44742E-19 1.87075E-19
 -1      2203 1.41445E-04-4.95752E-05-3.89454E-05 1.85712E-05 7.16590E-19-3.28649E-19
 -1      2204 1.55992E-04-3.31218E-05-5.19043E-05 4.82713E-06 1.84240E-18 2.04982E-19
 -1      2205 9.63242E-05-2.31016E-05-3.14476E-05-1.03967E-05-3.39316E-19-6.79744E-20
 -1      2206 3.87674E-05-3.54021E-05-2.01605E-06 3.47980E-05-3.29496E-19 5.60736E-19
 -1      2207 1.69566E-05-2.77616E-05 3.77069E-06 1.43884E-05 9.86793E-20 6.89061E-19
 -1      2208 9.52732E-05-2.68978E-05-2.92954E-05-2.65887E-06-3.11332E-19 5.08054E-19
 -1      2209 7.75598E-05-4.74897E-05-1.30113E-05 4.30886E-05-4.61633E-20-1.39583E-18
 -1      2210 1.59083E-05-2.76579E-05 4.14755E-06-1.09422E-05 1.09034E-18 3.33053E-18
 -1      2211 3.82852E-05-3.57526E-05-1.69908E-06-3.29121E-05 1.97105E-18 7.34865E-18
 -1      2212 1.42769E-04-4.98601E-05-3.93818E-05-2.06955E-05-1.84156E-18 1.06049E-18
 -1      2213 1.62659E-04-2.35112E-05-5.86488E-05 2.91527E-07-2.62114E-18 1.51534E-18
 -1      2214 1.62988E-04-1.96643E-05-6.03051E-05-1.14680E-06-1.01644E-18 1.67204E-18
 -1      2215 1.60887E-04-3.30701E-05-5.37438E-05 3.76938E-06-2.59827E-19 1.47299E-18
 -1      2216 1.47756E-04-4.73096E-05-4.24931E-05 1.65439E-05-2.29175E-18 2.71855E-18
 -1      2217 8.21207E-05-4.90088E-05-1.44343E-05 4.08097E-05-3.13826E-19 3.10491E-19
 -1      2218 2.26867E-05-2.62083E-05 1.09298E-06 1.91705E-05 1.62122E-18-4.66715E-18
 -1      2219 6.97857E-05-4.46205E-05-1.10852E-05-4.23767E-05 2.11758E-20-6.87103E-19
 -1      2220 1.37185E-04-5.05430E-05-3.68897E-05-2.25120E-05 1.32709E-18-7.88164E-19
 -1      2221 1.54257E-04-3.59232E-05-4.98864E-05-6.86940E-06 1.18002E-18-5.13302E-19
 -1      2222 1.58473E-04-2.07931E-05-5.79232E-05 5.45969E-07 1.48358E-18-1.25869E-18
 -1      2223 1.61780E-04-1.91652E-05-5.98927E-05 6.83136E-07 2.52712E-18-7.13625E-19
 -1      2224 1.60873E-04-1.40767E-05-6.17633E-05 7.40192E-07 2.09048E-18-2.43069E-18
 -1      2225 3.33441E-05-2.93657E-05-1.88435E-06-3.06636E-05 3.22508E-19-2.25946E-18
 -1      2226 1.20338E-04-5.36672E-05-2.83784E-05 3.22221E-05-2.35518E-18 2.99257E-18
 -1      2227 1.11856E-04-5.45148E-05-2.45487E-05-3.55190E-05-1.36881E-18 2.05151E-18
 -1      2228 9.51858E-05-2.63681E-05-2.94801E-05 4.20850E-06 4.11962E-19 1.17229E-18
 -1      2229 9.61621E-05-2.58541E-05-3.00585E-05 6.01362E-06 5.33710E-19 1.25105E-18
 -1      2230 8.81612E-05-1.11911E-05-3.30266E-05-3.66704E-06 1.11322E-19-1.77573E-19
 -1      2231 8.83920E-05-1.14603E-05-3.30080E-05-4.80966E-06 1.75176E-20-3.29112E-19
 -1      2232 8.87393E-05-1.19418E-05-3.29585E-05-5.82974E-06-3.28548E-20-4.16542E-19
 -1      2233 8.91404E-05-1.24114E-05-3.29294E-05-7.00200E-06-9.21901E-20-4.06040E-19
 -1      2234 8.99111E-05-1.38290E-05-3.26059E-05-4.91254E-06 2.04616E-20-2.95188E-19
 -1      2235 8.78199E-05-1.07334E-05-3.30711E-05 6.16478E-07 4.57982E-19 8.05343E-21
 -1      2236 8.78155E-05-1.07286E-05-3.30714E-05-4.96119E-07 3.41371E-19 1.33143E-20
 -1      2237 8.79986E-05-1.09579E-05-3.30519E-05 2.76195E-06 5.75359E-19-5.77637E-20
 -1      2238 8.78853E-05-1.08252E-05-3.30617E-05 1.64099E-06 5.09946E-19-4.79632E-20
 -1      2239 8.91380E-05-1.27793E-05-3.27283E-05 1.05143E-06 4.37418E-19 7.85755E-20
 -1      2240 8.84277E-05-1.15037E-05-3.30050E-05 4.89447E-06 6.04719E-19-5.02926E-20
 -1      2241 8.81912E-05-1.12277E-05-3.30241E-05 3.76985E-06 5.88858E-19-1.13317E-19
 -1      2242 8.94008E-05-1.31345E-05-3.26873E-05 3.02584E-06 5.41990E-19-5.18940E-20
 -1      2243 8.91990E-05-1.24840E-05-3.29237E-05 7.08487E-06 7.04877E-19 2.38638E-19
 -1      2244 8.87855E-05-1.19988E-05-3.29541E-05 5.91190E-06 6.48469E-19 1.04046E-19
 -1      2245 8.99521E-05-1.38810E-05-3.26009E-05 4.98317E-06 6.22060E-19 4.73875E-20
 -1      2246 9.04580E-05-1.40898E-05-3.27935E-05 9.23544E-06 7.36545E-19 4.53990E-19
 -1      2247 8.97830E-05-1.32805E-05-3.28405E-05 8.05586E-06 6.74871E-19 2.70984E-19
 -1      2248 9.08784E-05-1.51381E-05-3.24531E-05 6.88192E-06 6.78753E-19 3.03145E-19
 -1      2249 9.24434E-05-1.66579E-05-3.25800E-05 1.11210E-05 7.30218E-19 6.95354E-19
 -1      2250 9.13712E-05-1.53200E-05-3.26538E-05 1.00404E-05 7.08351E-19 5.62880E-19
 -1      2251 9.22903E-05-1.70888E-05-3.22086E-05 8.52918E-06 6.77793E-19 5.25111E-19
 -1      2252 9.42035E-05-2.71071E-05-2.87388E-05 1.77791E-06 3.11864E-19 1.11570E-18
 -1      2253 9.48056E-05-2.68844E-05-2.90377E-05 2.75103E-06 3.55264E-19 1.13463E-18
 -1      2254 9.53168E-05-2.58408E-05-2.97834E-05 4.37567E-06 4.33194E-19 8.62607E-19
 -1      2255 9.58871E-05-2.50917E-05-3.02968E-05-6.21040E-06-2.31035E-19-1.40373E-19
 -1      2256 9.52323E-05-2.58393E-05-2.97534E-05-4.29523E-06-2.45686E-19-2.70182E-20
 -1      2257 1.43848E-04-4.92453E-05-4.09900E-05 6.90509E-06 2.64076E-19-9.74300E-19
 -1      2258 1.34801E-04-5.51636E-05-3.41837E-05 1.53198E-05 2.86932E-20-8.50845E-19
 -1      2259 9.51090E-05-2.65285E-05-2.93365E-05-2.95017E-06-2.88832E-19 8.46206E-20
 -1      2260 9.46461E-05-2.69007E-05-2.90331E-05-1.88930E-06-2.07798E-19 3.15222E-20
 -1      2261 9.53174E-05-2.53517E-05-2.99898E-05-4.30066E-06-2.16399E-19-2.08732E-19
 -1      2262 9.44480E-05-2.72285E-05-2.87704E-05-1.03940E-06-1.99900E-19 9.43797E-20
 -1      2263 9.41900E-05-2.74404E-05-2.86046E-05-4.35673E-07-1.79592E-19-4.27876E-20
 -1      2264 9.50208E-05-2.66988E-05-2.92953E-05-1.93275E-06-2.10801E-19-1.10393E-19
 -1      2265 9.40426E-05-2.76200E-05-2.84443E-05 7.55725E-08-1.69019E-19-8.30859E-20
 -1      2266 9.39451E-05-2.77621E-05-2.83615E-05 4.08697E-07-1.51867E-19-2.24093E-20
 -1      2267 9.47127E-05-2.74169E-05-2.88543E-05-4.48438E-07-2.43982E-19-1.79974E-19
 -1      2268 9.38625E-05-2.78701E-05-2.82698E-05 6.96644E-07-3.83972E-21-1.41694E-19
 -1      2269 9.38708E-05-2.79752E-05-2.82385E-05 8.66668E-07 5.05674E-20-3.54768E-20
 -1      2270 9.45149E-05-2.78418E-05-2.85848E-05 4.31139E-07-1.64853E-19-1.37996E-19
 -1      2271 9.38430E-05-2.80450E-05-2.81925E-05 1.01296E-06-3.33095E-21-6.27495E-20
 -1      2272 9.39156E-05-2.81265E-05-2.81930E-05 1.08495E-06-2.38032E-20-7.78380E-20
 -1      2273 9.44273E-05-2.81050E-05-2.84316E-05 9.17744E-07 8.16676E-20-1.34391E-19
 -1      2274 9.39272E-05-2.81733E-05-2.81774E-05 1.14434E-06 3.95693E-20-5.48424E-20
 -1      2275 9.40360E-05-2.82375E-05-2.81973E-05 1.15999E-06-3.27263E-20 1.16914E-21
 -1      2276 9.44265E-05-2.82736E-05-2.83567E-05 1.15612E-06 3.52760E-20-3.03280E-19
 -1      2277 9.40739E-05-2.82686E-05-2.82016E-05 1.17021E-06-2.35510E-19 2.09208E-19
 -1      2278 9.42013E-05-2.83189E-05-2.82332E-05 1.15759E-06-4.20626E-19 1.94177E-19
 -1      2279 9.44858E-05-2.83810E-05-2.83343E-05 1.24543E-06-1.01391E-19 9.23289E-20
 -1      2280 9.42559E-05-2.83386E-05-2.82510E-05 1.14530E-06-2.87800E-19 4.03180E-19
 -1      2281 9.43922E-05-2.83776E-05-2.82897E-05 1.12410E-06-2.69443E-19 5.58371E-19
 -1      2282 9.45841E-05-2.84458E-05-2.83476E-05 1.25501E-06-2.26215E-19 3.97845E-19
 -1      2283 9.44579E-05-2.83885E-05-2.83169E-05 1.10868E-06-2.90538E-19 5.63447E-19
 -1      2284 9.45993E-05-2.84185E-05-2.83605E-05 1.09336E-06-1.06274E-19 5.13565E-19
 -1      2285 9.47072E-05-2.84790E-05-2.83854E-05 1.23458E-06-2.60970E-19 6.22459E-19
 -1      2286 9.46735E-05-2.84224E-05-2.83951E-05 1.08946E-06 1.02109E-19 6.21867E-19
 -1      2287 9.48208E-05-2.84456E-05-2.84432E-05 1.09120E-06 2.47639E-19 8.18609E-19
 -1      2288 9.48477E-05-2.84880E-05-2.84414E-05 1.22091E-06 9.82095E-20 8.25012E-19
 -1      2289 9.49033E-05-2.84441E-05-2.84843E-05 1.11047E-06 1.94252E-19 5.89814E-19
 -1      2290 9.50606E-05-2.84628E-05-2.85378E-05 1.13850E-06 2.60969E-19 4.04861E-19
 -1      2291 9.50032E-05-2.84779E-05-2.85123E-05 1.24237E-06 2.23789E-19 3.45828E-19
 -1      2292 9.51531E-05-2.84569E-05-2.85858E-05 1.19086E-06 1.47435E-19 2.67013E-19
 -1      2293 9.53275E-05-2.84736E-05-2.86464E-05 1.25344E-06-8.77308E-21 4.32773E-19
 -1      2294 9.51757E-05-2.84522E-05-2.85974E-05 1.32216E-06-3.58934E-21 2.29799E-19
 -1      2295 9.54333E-05-2.84645E-05-2.87025E-05 1.34790E-06-2.73450E-19 4.64921E-19
 -1      2296 9.56341E-05-2.84821E-05-2.87728E-05 1.45284E-06-3.73696E-19 3.03409E-19
 -1      2297 9.53704E-05-2.84138E-05-2.86975E-05 1.48047E-06-2.27727E-19 1.03920E-19
 -1      2298 9.57576E-05-2.84708E-05-2.88385E-05 1.59799E-06-5.19670E-19 2.71735E-20
 -1      2299 9.59963E-05-2.84928E-05-2.89218E-05 1.75293E-06-7.05150E-19-7.13388E-20
 -1      2300 9.55951E-05-2.83653E-05-2.88150E-05 1.73592E-06-5.98718E-19-4.02001E-19
 -1      2301 9.61428E-05-2.84810E-05-2.89991E-05 1.95702E-06-7.90478E-19-1.30223E-19
 -1      2302 9.64328E-05-2.85117E-05-2.90989E-05 2.16917E-06-6.00166E-19-3.85902E-19
 -1      2303 9.58599E-05-2.83096E-05-2.89528E-05 2.10615E-06-8.39764E-19-4.78077E-19
 -1      2304 9.66087E-05-2.85020E-05-2.91897E-05 2.43972E-06-7.99475E-19-2.65722E-19
 -1      2305 9.69648E-05-2.85474E-05-2.93095E-05 2.71505E-06-4.48827E-19-4.72061E-19
 -1      2306 9.61768E-05-2.82517E-05-2.91138E-05 2.60746E-06-7.08091E-19-3.50584E-19
 -1      2307 9.71776E-05-2.85444E-05-2.94152E-05 3.05764E-06 7.28043E-21-8.58195E-19
 -1      2308 9.76160E-05-2.86134E-05-2.95584E-05 3.39907E-06 4.27382E-19-6.70961E-19
 -1      2309 9.65599E-05-2.82003E-05-2.93004E-05 3.25319E-06-4.55645E-19 3.13476E-21
 -1      2310 9.78753E-05-2.86257E-05-2.96792E-05 3.81515E-06 1.03607E-18-8.77850E-19
 -1      2311 9.84129E-05-2.87315E-05-2.98478E-05 4.21915E-06 1.24268E-18-7.32232E-19
 -1      2312 9.70267E-05-2.81714E-05-2.95132E-05 4.05028E-06 5.09032E-19-6.92177E-19
 -1      2313 9.87325E-05-2.87747E-05-2.99823E-05 4.70213E-06 1.14529E-18-7.77850E-19
 -1      2314 9.93868E-05-2.89382E-05-3.01761E-05 5.15308E-06 1.12306E-18-3.45596E-19
 -1      2315 9.76013E-05-2.81948E-05-2.97500E-05 4.99318E-06 1.18160E-18-1.30450E-18
 -1      2316 9.97889E-05-2.90400E-05-3.03204E-05 5.68201E-06 1.12437E-18-2.34072E-19
 -1      2317 1.00577E-04-2.92937E-05-3.05356E-05 6.14337E-06 4.45846E-19 6.35275E-20
 -1      2318 9.83197E-05-2.83233E-05-3.00038E-05 6.05388E-06 1.15505E-18-9.87756E-19
 -1      2319 1.01100E-04-2.95005E-05-3.06824E-05 6.67319E-06-1.73964E-20 5.03328E-19
 -1      2320 1.02040E-04-2.98933E-05-3.09103E-05 7.07486E-06 1.58663E-19 3.65837E-19
 -1      2321 9.92417E-05-2.86471E-05-3.02624E-05 7.16646E-06 5.38909E-19-5.24336E-19
 -1      2322 1.02747E-04-3.02785E-05-3.10500E-05 7.52212E-06 2.64624E-20 2.13062E-19
 -1      2323 1.03855E-04-3.08772E-05-3.12761E-05 7.74511E-06-9.20488E-20 5.75698E-19
 -1      2324 1.00468E-04-2.93103E-05-3.05083E-05 8.20457E-06-1.22603E-19 3.18420E-19
 -1      2325 1.04846E-04-3.15427E-05-3.13996E-05 7.96874E-06-2.10897E-19 6.29570E-19
 -1      2326 1.06129E-04-3.24216E-05-3.16056E-05 7.83224E-06-2.01404E-19 4.67203E-19
 -1      2327 1.02161E-04-3.05226E-05-3.07232E-05 8.95008E-06-1.99175E-19 5.95921E-19
 -1      2328 1.07541E-04-3.34786E-05-3.17121E-05 7.61219E-06 9.26500E-20 3.08858E-19
 -1      2329 1.08971E-04-3.46747E-05-3.18828E-05 6.87830E-06 4.57735E-19 8.10617E-19
 -1      2330 1.04558E-04-3.25392E-05-3.09005E-05 9.05390E-06-2.33080E-19 1.54759E-20
 -1      2331 1.10929E-04-3.61699E-05-3.19960E-05 5.90635E-06 1.60346E-19 3.42253E-19
 -1      2332 1.12386E-04-3.75712E-05-3.21339E-05 4.33407E-06 1.97795E-19 2.30518E-19
 -1      2333 1.07931E-04-3.55527E-05-3.10715E-05 8.00038E-06 1.10800E-19-4.12765E-19
 -1      2334 1.14854E-04-3.93120E-05-3.23252E-05 2.27683E-06 1.85914E-19 4.48190E-19
 -1      2335 1.16027E-04-4.04783E-05-3.24704E-05-2.14590E-07 4.17634E-19 3.10475E-19
 -1      2336 1.12396E-04-3.93906E-05-3.13500E-05 5.12925E-06 4.12449E-19-5.15911E-19
 -1      2337 1.18561E-04-4.17993E-05-3.28733E-05-3.47590E-06 9.88868E-19 1.91161E-20
 -1      2338 1.18902E-04-4.18276E-05-3.31118E-05-6.50967E-06 6.01936E-19 2.06865E-19
 -1      2339 1.17516E-04-4.30193E-05-3.19757E-05-1.08231E-07 2.75491E-19 3.43254E-19
 -1      2340 1.20417E-04-4.14960E-05-3.38850E-05-1.02924E-05 1.49422E-19 4.19738E-19
 -1      2341 1.19395E-04-3.93830E-05-3.43062E-05-1.26655E-05 2.75938E-19 1.08150E-18
 -1      2342 1.21752E-04-4.40564E-05-3.33009E-05-7.41323E-06 6.88218E-19 6.06085E-19
 -1      2343 1.18682E-04-3.63917E-05-3.54699E-05-1.48776E-05 4.18229E-19 1.09550E-18
 -1      2344 1.16450E-04-3.22974E-05-3.60322E-05-1.47086E-05 3.59804E-19 1.77060E-18
 -1      2345 1.22655E-04-3.96309E-05-3.55698E-05-1.42302E-05 5.25730E-19 8.45484E-19
 -1      2346 1.14006E-04-2.77750E-05-3.72104E-05-1.27683E-05-6.06105E-19 1.27955E-18
 -1      2347 1.11982E-04-2.41733E-05-3.76464E-05-9.00453E-06-1.45166E-18 6.39311E-19
 -1      2348 1.19325E-04-3.00092E-05-3.83760E-05-1.51529E-05-6.75059E-19 3.98503E-19
 -1      2349 1.10550E-04-2.18979E-05-3.81583E-05-2.85367E-06-1.35758E-18 3.97439E-19
 -1      2350 1.10552E-04-2.19326E-05-3.81431E-05 2.68816E-06-1.32852E-18 3.70034E-19
 -1      2351 1.14973E-04-2.12029E-05-4.04373E-05-6.78261E-06-1.43170E-18-7.95351E-19
 -1      2352 1.11996E-04-2.42728E-05-3.76068E-05 8.77731E-06-1.32648E-18 2.97133E-19
 -1      2353 1.13940E-04-2.78683E-05-3.71574E-05 1.24745E-05-1.57929E-18 3.31378E-19
 -1      2354 1.15008E-04-2.12467E-05-4.04246E-05 6.55564E-06-1.53541E-18 2.38691E-19
 -1      2355 1.16398E-04-3.23766E-05-3.59617E-05 1.43601E-05-1.62217E-18 2.08256E-19
 -1      2356 1.18542E-04-3.65001E-05-3.53710E-05 1.44756E-05-5.56044E-19 5.13213E-19
 -1      2357 1.19339E-04-3.00786E-05-3.83093E-05 1.50109E-05-1.54973E-18 6.38530E-19
 -1      2358 1.19201E-04-3.94032E-05-3.42000E-05 1.21421E-05-7.62086E-20 6.57509E-20
 -1      2359 1.20105E-04-4.14445E-05-3.37719E-05 9.79322E-06 1.50295E-19 2.20361E-19
 -1      2360 1.22490E-04-3.97484E-05-3.54618E-05 1.40634E-05-2.90771E-19 5.01563E-19
 -1      2361 1.18573E-04-4.17978E-05-3.29886E-05 5.96365E-06 9.41960E-20-4.49308E-20
 -1      2362 1.18156E-04-4.17358E-05-3.27324E-05 2.90368E-06-2.29242E-19 1.40177E-19
 -1      2363 1.21480E-04-4.40915E-05-3.32084E-05 6.97455E-06 4.43964E-20 1.64907E-20
 -1      2364 1.15581E-04-4.04054E-05-3.23148E-05-3.93902E-07 8.27558E-19 2.98000E-20
 -1      2365 1.14332E-04-3.92161E-05-3.21461E-05-2.91575E-06 7.17675E-19 3.93543E-19
 -1      2366 1.17186E-04-4.30131E-05-3.18493E-05-5.31312E-07 5.81594E-19 2.02312E-19
 -1      2367 1.11826E-04-3.74698E-05-3.19382E-05-5.00783E-06-2.38420E-19 2.09722E-18
 -1      2368 1.10285E-04-3.60479E-05-3.17749E-05-6.61524E-06-2.77086E-19 2.44539E-18
 -1      2369 1.11991E-04-3.93558E-05-3.11943E-05-5.85232E-06 9.92357E-19 1.48277E-18
 -1      2370 1.08290E-04-3.45463E-05-3.16452E-05-7.62782E-06-8.41646E-19 2.58601E-18
 -1      2371 1.06767E-04-3.33231E-05-3.14485E-05-8.39961E-06-4.58974E-19 2.33517E-18
 -1      2372 1.07451E-04-3.55046E-05-3.08868E-05-8.80150E-06-7.24288E-20 3.33788E-18
 -1      2373 1.05310E-04-3.22496E-05-3.13277E-05-8.66059E-06-5.60061E-19 2.39074E-18
 -1      2374 1.03926E-04-3.13305E-05-3.10966E-05-8.82891E-06-7.43594E-21 1.87759E-18
 -1      2375 1.03995E-04-3.24671E-05-3.06898E-05-9.94017E-06-8.78359E-19 2.27650E-18
 -1      2376 1.02881E-04-3.06325E-05-3.09632E-05-8.63389E-06 1.23847E-18 7.10217E-19
 -1      2377 1.01665E-04-2.99752E-05-3.07156E-05-8.42287E-06 1.80079E-18 8.75071E-19
 -1      2378 1.01497E-04-3.03931E-05-3.04943E-05-9.90718E-06 1.57060E-19 1.71882E-18
 -1      2379 1.00895E-04-2.95343E-05-3.05733E-05-7.97509E-06 6.51857E-19 1.08228E-18
 -1      2380 9.98441E-05-2.90584E-05-3.03311E-05-7.54573E-06 9.88088E-20 1.78809E-18
 -1      2381 9.96835E-05-2.90737E-05-3.02741E-05-9.18842E-06 9.88384E-19 1.93442E-18
 -1      2382 9.92448E-05-2.87636E-05-3.01923E-05-6.96412E-06 7.42161E-19 1.74597E-18
 -1      2383 9.83489E-05-2.83954E-05-2.99745E-05-6.41012E-06 1.10279E-18 1.87698E-18
 -1      2384 9.83136E-05-2.82346E-05-3.00419E-05-8.09348E-06 3.64288E-19 2.36516E-18
 -1      2385 9.78490E-05-2.81622E-05-2.98513E-05-5.75126E-06 2.50527E-19 1.66661E-18
 -1      2386 9.71093E-05-2.78556E-05-2.96715E-05-5.11234E-06 3.27662E-19 2.23024E-18
 -1      2387 9.72160E-05-2.76444E-05-2.98216E-05-6.79212E-06 5.85281E-19 2.21843E-18
 -1      2388 9.33081E-05-2.76781E-05-2.81197E-05-4.04411E-07 8.22797E-21 8.00074E-19
 -1      2389 9.33861E-05-2.75741E-05-2.81806E-05-1.16382E-07 5.08245E-20 9.19676E-19
 -1      2390 9.32606E-05-2.78406E-05-2.80321E-05-8.19756E-07 2.15047E-19 4.87590E-19
 -1      2391 9.32137E-05-2.77506E-05-2.80425E-05-6.76075E-07 1.02118E-19 6.16628E-19
 -1      2392 9.39912E-05-2.77955E-05-2.83810E-05-4.42049E-07 1.60940E-19 6.07816E-19
 -1      2393 9.33629E-05-2.79743E-05-2.80202E-05-1.01050E-06 4.30941E-19 5.15609E-19
 -1      2394 9.32453E-05-2.78945E-05-2.80009E-05-9.52247E-07 2.41237E-19 5.45973E-19
 -1      2395 9.39095E-05-2.80014E-05-2.82547E-05-9.02764E-07 2.66779E-19 4.59772E-19
 -1      2396 9.35531E-05-2.80875E-05-2.80540E-05-1.06871E-06 6.02393E-19 6.63526E-19
 -1      2397 9.33995E-05-2.80173E-05-2.80182E-05-1.05927E-06 5.11923E-19 7.16221E-19
 -1      2398 9.39478E-05-2.81462E-05-2.82064E-05-1.12030E-06 3.63417E-19 3.92927E-19
 -1      2399 9.37904E-05-2.81836E-05-2.81151E-05-1.05530E-06 3.24993E-20 9.82071E-19
 -1      2400 9.36214E-05-2.81227E-05-2.80704E-05-1.07054E-06 4.45090E-19 9.12006E-19
 -1      2401 9.40623E-05-2.82516E-05-2.82084E-05-1.19350E-06 3.90466E-19 9.47219E-19
 -1      2402 9.40505E-05-2.82646E-05-2.81919E-05-1.01218E-06 5.14180E-19 8.68801E-19
 -1      2403 9.38772E-05-2.82123E-05-2.81428E-05-1.03542E-06 3.19915E-19 9.14177E-19
 -1      2404 9.42220E-05-2.83287E-05-2.82425E-05-1.18941E-06 2.90730E-19 1.27708E-18
 -1      2405 9.43220E-05-2.83332E-05-2.82787E-05-9.69262E-07 5.19254E-19 4.73312E-19
 -1      2406 9.41484E-05-2.82881E-05-2.82271E-05-9.88480E-07 6.24755E-19 7.02929E-19
 -1      2407 9.44077E-05-2.83843E-05-2.82976E-05-1.15489E-06 7.06617E-19 8.75453E-19
 -1      2408 9.46026E-05-2.83923E-05-2.83732E-05-9.48694E-07 3.65583E-19 4.86539E-19
 -1      2409 9.44276E-05-2.83525E-05-2.83193E-05-9.54853E-07 3.01337E-19 4.70025E-19
 -1      2410 9.46096E-05-2.84230E-05-2.83671E-05-1.12379E-06 3.55291E-19 5.81853E-19
 -1      2411 9.48977E-05-2.84460E-05-2.84759E-05-9.67650E-07-1.05749E-19 8.23436E-19
 -1      2412 9.47163E-05-2.84089E-05-2.84187E-05-9.53598E-07 1.96512E-19 7.15376E-19
 -1      2413 9.48253E-05-2.84494E-05-2.84483E-05-1.12142E-06-1.02428E-21 8.34016E-19
 -1      2414 9.52181E-05-2.84990E-05-2.85895E-05-1.04005E-06 1.25864E-19 1.05587E-18
 -1      2415 9.50223E-05-2.84615E-05-2.85269E-05-9.99861E-07-5.92715E-20 1.09076E-18
 -1      2416 9.50583E-05-2.84674E-05-2.85406E-05-1.16754E-06-1.56928E-19 8.25672E-19
 -1      2417 9.55790E-05-2.85571E-05-2.87182E-05-1.17746E-06-9.19025E-20 6.12503E-19
 -1      2418 9.53584E-05-2.85155E-05-2.86474E-05-1.10614E-06 4.30944E-19 9.40496E-19
 -1      2419 9.53166E-05-2.84815E-05-2.86455E-05-1.27814E-06 3.27273E-19 5.98267E-19
 -1      2420 9.59994E-05-2.86273E-05-2.88670E-05-1.38925E-06-1.94172E-20-2.49297E-19
 -1      2421 9.57417E-05-2.85770E-05-2.87848E-05-1.28281E-06-3.75270E-19 3.29487E-19
 -1      2422 9.56118E-05-2.84972E-05-2.87658E-05-1.46630E-06 1.58993E-19 7.07189E-19
 -1      2423 9.65007E-05-2.87185E-05-2.90414E-05-1.68179E-06 9.10412E-20 8.21255E-20
 -1      2424 9.61924E-05-2.86541E-05-2.89443E-05-1.53773E-06 2.46421E-20 1.22423E-19
 -1      2425 9.59587E-05-2.85213E-05-2.89048E-05-1.74219E-06-1.58589E-19 8.72690E-20
 -1      2426 9.71063E-05-2.88421E-05-2.92468E-05-2.05648E-06 2.62277E-19 5.87382E-20
 -1      2427 9.67333E-05-2.87568E-05-2.91315E-05-1.87496E-06 3.21451E-19 1.29879E-19
 -1      2428 9.63748E-05-2.85632E-05-2.90657E-05-2.11185E-06 3.84221E-20 8.14931E-20
 -1      2429 9.78397E-05-2.90130E-05-2.94871E-05-2.50630E-06-5.59793E-19 3.85208E-19
 -1      2430 9.73885E-05-2.88983E-05-2.93511E-05-2.29201E-06-3.11574E-20 2.43848E-19
 -1      2431 9.68799E-05-2.86364E-05-2.92516E-05-2.57474E-06-1.56467E-20 2.10271E-20
 -1      2432 9.87229E-05-2.92505E-05-2.97640E-05-3.01028E-06-3.27760E-19 1.57415E-19
 -1      2433 9.81827E-05-2.90960E-05-2.96061E-05-2.77543E-06-6.04455E-19 2.28649E-19
 -1      2434 9.74964E-05-2.87602E-05-2.94634E-05-3.11940E-06-2.96202E-19 3.18007E-20
 -1      2435 9.97737E-05-2.95802E-05-3.00747E-05-3.52564E-06 7.27821E-19-4.86653E-19
 -1      2436 9.91388E-05-2.93733E-05-2.98965E-05-3.29408E-06 1.86485E-19-3.02329E-19
 -1      2437 9.82490E-05-2.89629E-05-2.96998E-05-3.71700E-06 2.54419E-19-1.15655E-18
 -1      2438 1.01002E-04-3.00342E-05-3.04105E-05-3.97758E-06 9.87457E-19 1.93372E-19
 -1      2439 1.00276E-04-2.97605E-05-3.02173E-05-3.79000E-06 1.08718E-18 2.82739E-19
 -1      2440 9.91653E-05-2.92839E-05-2.99557E-05-4.31221E-06 5.98157E-19-8.89511E-19
 -1      2441 1.02404E-04-3.06495E-05-3.07548E-05-4.24799E-06-7.94377E-19 3.89919E-19
 -1      2442 1.01605E-04-3.02951E-05-3.05570E-05-4.16715E-06 2.72153E-19 4.76927E-19
 -1      2443 1.00276E-04-2.97765E-05-3.02215E-05-4.81189E-06 2.92188E-19 1.08714E-18
 -1      2444 1.03954E-04-3.14593E-05-3.10826E-05-4.16750E-06-1.14497E-18 5.21799E-19
 -1      2445 1.03121E-04-3.10168E-05-3.08965E-05-4.28062E-06-1.33955E-18 4.21169E-19
 -1      2446 1.01612E-04-3.05044E-05-3.04834E-05-5.07302E-06-9.30658E-19 1.08791E-18
 -1      2447 1.05585E-04-3.24712E-05-3.13623E-05-3.52031E-06-1.07411E-18 5.07831E-19
 -1      2448 1.04790E-04-3.19533E-05-3.12097E-05-3.93263E-06-1.11173E-18-1.69094E-19
 -1      2449 1.03198E-04-3.15278E-05-3.07255E-05-4.89495E-06-8.71855E-19-8.22701E-20
 -1      2450 1.07168E-04-3.36212E-05-3.15635E-05-2.07985E-06-7.58535E-19 1.45617E-18
 -1      2451 1.06525E-04-3.30858E-05-3.14675E-05-2.88929E-06-1.03467E-18 8.44300E-19
 -1      2452 1.05026E-04-3.28656E-05-3.09359E-05-4.02695E-06-1.17820E-18-1.59277E-19
 -1      2453 1.08472E-04-3.47048E-05-3.16688E-05 2.97310E-07-3.59483E-19 1.67378E-18
 -1      2454 1.08139E-04-3.42863E-05-3.16472E-05-9.43192E-07-1.72967E-19 1.60775E-18
 -1      2455 1.07011E-04-3.44200E-05-3.11167E-05-2.21303E-06-8.41249E-19-4.29974E-19
 -1      2456 1.09136E-04-3.53136E-05-3.16899E-05 3.49580E-06-3.83117E-19 1.58686E-18
 -1      2457 1.09303E-04-3.52393E-05-3.17450E-05 1.94564E-06-3.47786E-19 1.76109E-18
 -1      2458 1.08901E-04-3.58679E-05-3.12956E-05 6.89473E-07-2.20119E-19 9.70495E-20
 -1      2459 1.08726E-04-3.48778E-05-3.16754E-05 6.91890E-06 1.36366E-19 2.13847E-18
 -1      2460 1.09541E-04-3.54149E-05-3.17863E-05 5.42699E-06-3.49785E-19 2.02947E-18
 -1      2461 1.10213E-04-3.65905E-05-3.15297E-05 4.48582E-06-6.56732E-19 6.31275E-19
 -1      2462 1.06953E-04-3.29467E-05-3.16968E-05 9.36027E-06 1.94769E-18 1.82304E-18
 -1      2463 1.08385E-04-3.42199E-05-3.18226E-05 8.54464E-06 1.61636E-18 2.52589E-18
 -1      2464 1.10289E-04-3.57781E-05-3.18890E-05 8.36450E-06 7.27320E-19 1.81483E-19
 -1      2465 1.04095E-04-2.97554E-05-3.17973E-05 9.30372E-06 1.56803E-18-1.93739E-19
 -1      2466 1.05787E-04-3.14769E-05-3.18974E-05 9.79782E-06 1.84880E-18 1.14443E-18
 -1      2467 1.08670E-04-3.29609E-05-3.24033E-05 1.07638E-05 2.29131E-18 1.09459E-18
 -1      2468 1.01297E-04-2.66162E-05-3.19398E-05 5.88006E-06 7.60133E-19-1.43595E-19
 -1      2469 1.02591E-04-2.80166E-05-3.19963E-05 7.85544E-06 1.01804E-18-1.27042E-19
 -1      2470 1.05765E-04-2.87981E-05-3.29858E-05 9.88395E-06 1.45372E-18-2.03710E-20
 -1      2471 1.00142E-04-2.53537E-05-3.20267E-05-3.03157E-08 1.16421E-18 7.50654E-19
 -1      2472 1.00414E-04-2.56252E-05-3.20423E-05 2.76780E-06 7.60715E-19 5.28754E-19
 -1      2473 1.03142E-04-2.52865E-05-3.34206E-05 5.05302E-06 5.61067E-19 2.02993E-19
 -1      2474 1.01408E-04-2.68193E-05-3.19935E-05-5.88938E-06 8.68738E-19 1.78459E-18
 -1      2475 1.00534E-04-2.57972E-05-3.19707E-05-3.47474E-06 1.31362E-18 1.10843E-18
 -1      2476 1.02587E-04-2.45948E-05-3.34924E-05-2.05099E-06 9.93020E-19 2.38140E-18
 -1      2477 1.04336E-04-3.00858E-05-3.18704E-05-9.16357E-06 6.66074E-19 2.29347E-18
 -1      2478 1.02774E-04-2.83949E-05-3.18046E-05-8.08507E-06 8.44452E-19 1.82651E-18
 -1      2479 1.04492E-04-2.71801E-05-3.31509E-05-8.09966E-06 6.76369E-19 2.80704E-18
 -1      2480 1.07231E-04-3.32547E-05-3.17462E-05-9.01562E-06 3.87220E-20 2.12100E-18
 -1      2481 1.05692E-04-3.17655E-05-3.16454E-05-9.39016E-06 1.12739E-18 2.47839E-18
 -1      2482 1.07461E-04-3.13987E-05-3.25664E-05-1.05266E-05 6.88835E-19 2.23178E-18
 -1      2483 1.08877E-04-3.50601E-05-3.16581E-05-6.37882E-06-1.88253E-19 3.30713E-19
 -1      2484 1.07863E-04-3.42559E-05-3.15581E-05-7.69080E-06-7.89398E-19 1.25234E-18
 -1      2485 1.09621E-04-3.49027E-05-3.19767E-05-9.16523E-06 8.78103E-19 1.42633E-18
 -1      2486 1.09005E-04-3.53315E-05-3.15804E-05-2.81015E-06-7.47328E-19-3.16625E-19
 -1      2487 1.08670E-04-3.52186E-05-3.15251E-05-4.39813E-06-1.11855E-19-3.07566E-19
 -1      2488 1.10098E-04-3.64842E-05-3.15204E-05-5.56553E-06-3.29880E-21 6.99795E-19
 -1      2489 1.07984E-04-3.45707E-05-3.14598E-05 4.75107E-07-8.08824E-19-5.58304E-19
 -1      2490 1.08233E-04-3.49094E-05-3.14793E-05-9.21676E-07-1.17216E-18-5.51794E-19
 -1      2491 1.09083E-04-3.62476E-05-3.12075E-05-1.50226E-06-9.18604E-19 3.04630E-19
 -1      2492 1.06318E-04-3.33644E-05-3.12601E-05 2.89748E-06 1.26481E-18-8.80940E-19
 -1      2493 1.06968E-04-3.39042E-05-3.13601E-05 1.89821E-06 3.64555E-19-8.92606E-19
 -1      2494 1.07225E-04-3.49592E-05-3.09767E-05 1.90236E-06 3.70719E-19-8.07705E-19
 -1      2495 1.04402E-04-3.21106E-05-3.09764E-05 4.35891E-06 1.34892E-18-1.14514E-18
 -1      2496 1.05276E-04-3.26852E-05-3.11426E-05 3.77746E-06 1.02176E-18-1.15146E-18
 -1      2497 1.05098E-04-3.33413E-05-3.07633E-05 4.23533E-06 8.61237E-19-6.97664E-19
 -1      2498 1.02479E-04-3.09967E-05-3.06298E-05 5.00151E-06 2.00724E-18-1.94434E-19
 -1      2499 1.03439E-04-3.15256E-05-3.08378E-05 4.76915E-06 1.98370E-18-4.31921E-20
 -1      2500 1.03037E-04-3.18238E-05-3.05308E-05 5.52342E-06 1.02971E-18-6.58281E-19
 -1      2501 1.00678E-04-3.00696E-05-3.02549E-05 5.03031E-06-5.09754E-19 8.97212E-19
 -1      2502 1.01630E-04-3.05283E-05-3.04780E-05 5.05909E-06 9.34954E-19 4.98436E-19
 -1      2503 1.01185E-04-3.05703E-05-3.02730E-05 5.97281E-06 7.84905E-19 3.90655E-19
 -1      2504 9.90628E-05-2.93065E-05-2.98881E-05 4.62087E-06-8.35386E-19 6.92165E-19
 -1      2505 9.99435E-05-2.96985E-05-3.01025E-05 4.83994E-06-1.36072E-18 3.58827E-19
 -1      2506 9.95728E-05-2.95853E-05-3.00037E-05 5.81433E-06-6.94108E-19 2.76969E-19
 -1      2507 9.76610E-05-2.86655E-05-2.95607E-05 3.88979E-06-3.06128E-19 2.32639E-18
 -1      2508 9.84312E-05-2.90010E-05-2.97480E-05 4.25541E-06-7.84177E-19 1.34783E-18
 -1      2509 9.81875E-05-2.87995E-05-2.97473E-05 5.22692E-06-1.15683E-18 7.67069E-19
 -1      2510 9.64837E-05-2.81180E-05-2.92891E-05 2.91669E-06-1.53548E-18 2.68818E-18
 -1      2511 9.71230E-05-2.84046E-05-2.94407E-05 3.39554E-06-9.76569E-20 2.71022E-18
 -1      2512 9.70041E-05-2.81481E-05-2.95195E-05 4.31485E-06-7.65661E-19 3.25940E-18
 -1      2513 9.60222E-05-2.79151E-05-2.91800E-05 2.27894E-06-1.36174E-18 2.52311E-18
 -1      2514 9.30450E-05-2.33062E-05-2.99043E-05 3.97163E-06 1.22981E-19-1.43168E-19
 -1      2515 9.34637E-05-2.39149E-05-2.98007E-05 4.23114E-06-8.68688E-19-2.40668E-18
 -1      2516 9.23074E-05-2.22685E-05-3.00360E-05 3.03557E-06 9.68870E-19 1.33816E-18
 -1      2517 9.26531E-05-2.27597E-05-2.99538E-05 3.52801E-06 8.03428E-19 1.12562E-18
 -1      2518 9.26942E-05-2.33127E-05-2.97282E-05 4.29777E-06 9.02824E-19 8.24458E-19
 -1      2519 9.47679E-05-2.57745E-05-2.95743E-05 4.27221E-06-1.62829E-18-2.10588E-18
 -1      2520 9.52154E-05-2.64341E-05-2.94650E-05 4.04196E-06-9.97247E-19-2.28794E-18
 -1      2521 9.39059E-05-2.45280E-05-2.97439E-05 4.38920E-06-2.32311E-18-2.93085E-18
 -1      2522 9.43433E-05-2.51734E-05-2.96336E-05 4.38453E-06-2.18297E-18-2.07859E-18
 -1      2523 9.46736E-05-2.57270E-05-2.95533E-05 4.95925E-06-1.75953E-18-2.67337E-18
 -1      2524 9.36843E-05-2.45000E-05-2.96477E-05 4.93889E-06-9.15626E-19-1.71843E-18
 -1      2525 9.17819E-05-2.15459E-05-3.01209E-05 1.67423E-06 6.00699E-19 2.95524E-18
 -1      2526 9.20078E-05-2.18538E-05-3.00714E-05 2.34631E-06 1.02102E-18 1.29258E-18
 -1      2527 9.18699E-05-2.23258E-05-2.97929E-05 3.09647E-06 1.00511E-18 1.09277E-18
 -1      2528 9.15533E-05-2.12490E-05-3.01477E-05 4.58924E-08-7.98048E-19 1.89609E-18
 -1      2529 9.16209E-05-2.13263E-05-3.01376E-05 8.15147E-07-6.35493E-19 3.51504E-18
 -1      2530 9.13195E-05-2.16729E-05-2.98328E-05 1.44825E-06 4.02932E-19 1.89658E-18
 -1      2531 9.16747E-05-2.14385E-05-3.01133E-05-1.63455E-06-4.95699E-19-2.52295E-18
 -1      2532 9.15650E-05-2.12667E-05-3.01441E-05-8.72436E-07-9.00540E-19-7.35227E-19
 -1      2533 9.11398E-05-2.14640E-05-2.98436E-05-4.47736E-07-4.46597E-19 1.95986E-19
 -1      2534 9.21376E-05-2.20899E-05-3.00253E-05-3.10536E-06-1.10858E-18-2.54448E-18
 -1      2535 9.18628E-05-2.16946E-05-3.00911E-05-2.46967E-06-5.62539E-19-3.28606E-18
 -1      2536 9.13797E-05-2.17463E-05-2.98262E-05-2.31940E-06 2.81411E-19-3.18416E-18
 -1      2537 9.29098E-05-2.31493E-05-2.98946E-05-4.19623E-06 1.38651E-19-6.47108E-19
 -1      2538 9.24906E-05-2.25632E-05-2.99882E-05-3.76326E-06-6.66489E-19-2.69053E-18
 -1      2539 9.20230E-05-2.24934E-05-2.97855E-05-3.91444E-06 5.00748E-19-2.55055E-18
 -1      2540 9.39022E-05-2.44850E-05-2.97409E-05-4.70475E-06 5.26360E-19 8.55644E-20
 -1      2541 9.33885E-05-2.37797E-05-2.98486E-05-4.56314E-06 2.69061E-19 5.70735E-19
 -1      2542 9.30079E-05-2.36253E-05-2.97290E-05-5.00916E-06 6.86804E-19-5.43487E-19
 -1      2543 9.49919E-05-2.59378E-05-2.95810E-05-4.53233E-06-1.15001E-18-1.04518E-18
 -1      2544 9.44485E-05-2.51925E-05-2.96911E-05-4.72112E-06-7.88498E-19-1.40330E-18
 -1      2545 9.42061E-05-2.49996E-05-2.96606E-05-5.40882E-06-3.53160E-19-1.63646E-18
 -1      2546 2.45626E-05-2.16175E-05-1.08593E-06 2.16029E-05-1.58554E-18-5.84453E-20
 -1      2547 1.87646E-05-1.93760E-05 4.68651E-07 8.09790E-06-9.23981E-19 8.70326E-19
 -1      2548 9.12177E-05-5.05853E-05-1.75790E-05 4.23654E-05-8.62703E-19-2.78592E-18
 -1      2549 7.06812E-05-4.37660E-05-1.12842E-05 4.21220E-05-1.58692E-18-1.39813E-18
 -1      2550 9.35905E-05-2.74605E-05-2.83298E-05 3.80842E-07 1.08569E-19 9.35334E-19
 -1      2551 9.38741E-05-2.73257E-05-2.84769E-05 9.15586E-07 2.18402E-19 1.06570E-18
 -1      2552 9.42453E-05-2.74792E-05-2.86278E-05 4.12833E-07 1.23938E-19 7.30495E-19
 -1      2553 9.56903E-05-2.70497E-05-2.94080E-05-3.35287E-06 4.47534E-19 9.70318E-19
 -1      2554 1.79823E-05-1.93785E-05 7.62132E-07-4.95641E-06-6.52493E-19 1.94563E-18
 -1      2555 2.28155E-05-2.14601E-05-4.38843E-07-1.83787E-05-1.80736E-19 3.80953E-18
 -1      2556 1.24478E-04-5.79788E-05-2.87978E-05 2.84264E-05 7.01767E-19-1.35938E-18
 -1      2557 1.11759E-04-5.66204E-05-2.33881E-05 3.35701E-05 4.68833E-19-1.95283E-18
 -1      2558 9.50496E-05-2.00165E-05-3.22063E-05-1.17833E-05-3.11245E-19-2.30777E-19
 -1      2559 9.54518E-05-2.33518E-05-3.09202E-05-7.98019E-06-3.26928E-19-1.80119E-19
 -1      2560 9.50338E-05-2.25685E-05-3.10454E-05-7.62545E-06-2.50960E-19-2.01713E-19
 -1      2561 9.32237E-05-1.77004E-05-3.23936E-05-1.13227E-05-2.71431E-19-2.46685E-19
 -1      2562 1.37454E-04-5.53468E-05-3.52445E-05-1.60350E-05-1.02025E-18-8.17387E-19
 -1      2563 1.47267E-04-5.04597E-05-4.16904E-05-9.87884E-06-1.31520E-18-4.41939E-19
 -1      2564 1.47400E-04-1.52201E-05-5.71572E-05-5.39288E-06-1.14265E-18 1.87194E-18
 -1      2565 1.49357E-04-2.12748E-05-5.52248E-05-6.82376E-06-3.74812E-19 1.56426E-18
 -1      2566 6.64070E-05-4.04010E-05-1.08567E-05-4.18964E-05-2.09429E-19-5.01867E-19
 -1      2567 8.63367E-05-4.84342E-05-1.61121E-05-4.28263E-05-3.70789E-19 7.56295E-19
 -1      2568 1.31123E-04-5.53251E-05-3.25094E-05-2.05522E-05 6.91708E-19-3.85824E-19
 -1      2569 1.42440E-04-5.02916E-05-3.97344E-05-1.20108E-05 4.93026E-19-6.58356E-19
 -1      2570 8.78713E-05-1.08079E-05-3.30629E-05-1.52070E-06 2.88370E-19-6.19724E-20
 -1      2571 8.79752E-05-1.09296E-05-3.30538E-05-2.64098E-06 1.79341E-19-1.08956E-19
 -1      2572 8.93741E-05-1.31016E-05-3.26903E-05-2.93471E-06 1.49943E-19-5.46336E-20
 -1      2573 8.91283E-05-1.27672E-05-3.27294E-05-9.42313E-07 2.90568E-19 2.90340E-20
 -1      2574 1.43224E-04-1.07004E-05-5.72941E-05 2.06363E-06 2.33061E-18-1.34869E-18
 -1      2575 1.45297E-04-1.09491E-05-5.79721E-05-7.98472E-07 2.24972E-18-1.58422E-18
 -1      2576 3.11035E-05-2.18305E-05-3.55332E-06-2.47965E-05-7.18919E-19-2.89579E-18
 -1      2577 4.55173E-05-2.87866E-05-6.90968E-06-3.61404E-05-4.52739E-19-9.86793E-19
 -1      2578 1.47188E-04-1.45903E-05-5.72841E-05-3.70850E-06 3.13487E-18-1.18595E-18
 -1      2579 1.47258E-04-1.98286E-05-5.49799E-05-4.46950E-06 3.04953E-18-1.86559E-19
 -1      2580 1.44853E-04-2.30872E-05-5.25609E-05 6.31818E-06 9.89758E-19-1.68814E-18
 -1      2581 1.44016E-04-1.64273E-05-5.52501E-05 5.83096E-06 1.79063E-18-1.61413E-18
 -1      2582 1.45483E-04-4.09886E-05-4.49690E-05-1.51877E-06 1.00818E-18-1.22841E-18
 -1      2583 1.48117E-04-3.32487E-05-4.97260E-05 2.65598E-06 1.06218E-18-1.76776E-18
 -1      2584 1.00368E-04-5.37387E-05-1.99524E-05-3.80194E-05-2.50510E-19 1.13095E-18
 -1      2585 1.14900E-04-5.57816E-05-2.54639E-05-3.32379E-05-4.10811E-20 1.15016E-18
 -1      2586 9.67476E-05-5.18117E-05-1.89159E-05-3.85399E-05-8.95526E-19 1.02046E-18
 -1      2587 1.30986E-04-5.78389E-05-3.16502E-05 2.43254E-05-1.21676E-18 3.79492E-18
 -1      2588 1.16031E-04-5.73923E-05-2.51496E-05 3.06590E-05-3.40931E-19 3.73827E-18
 -1      2589 2.03491E-05-1.61214E-05-1.39083E-06-1.73171E-07 6.79029E-19-4.11107E-18
 -1      2590 2.24028E-05-1.67171E-05-2.10678E-06-1.28424E-05 3.79206E-19-3.24752E-18
 -1      2591 3.26010E-05-2.38475E-05-3.47508E-06 2.75544E-05 3.00654E-18-2.85027E-18
 -1      2592 2.25723E-05-1.86523E-05-1.37153E-06 1.30549E-05 2.22272E-18-4.26185E-18
 -1      2593 2.87176E-05-1.50300E-05-5.24692E-06 7.54154E-06 2.09863E-18-2.97859E-18
 -1      2594 6.17827E-05-3.91751E-05-9.57153E-06 4.12919E-05 1.98036E-18-4.22564E-19
 -1      2595 4.81963E-05-3.23687E-05-6.46709E-06 3.58439E-05 2.78928E-18-1.71863E-18
 -1      2596 1.07146E-04-5.62201E-05-2.16974E-05-3.50280E-05 1.06726E-19 1.34382E-18
 -1      2597 1.25169E-04-5.83798E-05-2.88862E-05-2.91560E-05-9.54818E-19-1.33196E-19
 -1      2598 9.95975E-05-5.35951E-05-1.97707E-05 3.95843E-05 3.55754E-19 2.30996E-18
 -1      2599 7.95879E-05-4.76794E-05-1.35839E-05 4.05197E-05 9.80229E-19 6.82285E-19
 -1      2600 1.13430E-04-5.79390E-05-2.35218E-05 3.16871E-05 1.00268E-18 3.80530E-18
 -1      2601 1.49703E-04-4.70604E-05-4.43266E-05 5.26973E-06-1.99836E-18 2.30478E-18
 -1      2602 1.41031E-04-5.30110E-05-3.78011E-05 1.21633E-05-1.82546E-18 2.66286E-18
 -1      2603 1.52121E-04-3.03638E-05-5.26489E-05-5.44540E-06-1.04820E-19 1.21147E-18
 -1      2604 1.50524E-04-3.74215E-05-4.86859E-05-2.79007E-06-9.35230E-19 1.28664E-18
 -1      2605 1.48168E-04-1.29081E-05-5.82789E-05 2.60766E-06-1.35102E-18 9.32530E-19
 -1      2606 1.47503E-04-1.21119E-05-5.84827E-05-9.41300E-07-1.48315E-18 1.40774E-18
 -1      2607 1.50713E-04-2.60575E-05-5.35821E-05 6.06093E-06-2.67662E-18 2.12182E-19
 -1      2608 1.49714E-04-1.84451E-05-5.67489E-05 5.73940E-06-1.98206E-18 4.35798E-19
 -1      2609 1.49463E-04-4.43191E-05-4.53005E-05-2.67277E-06-2.25695E-18-6.86520E-19
 -1      2610 1.51587E-04-3.76868E-05-4.93303E-05 2.01953E-06-2.45280E-18-6.35275E-22
 -1      2611 1.45734E-04-4.99260E-05-4.09727E-05 3.65509E-07-1.09165E-18-1.14413E-18
 -1      2612 7.08005E-05-4.44194E-05-1.11247E-05-4.10795E-05 2.93264E-18 5.88296E-18
 -1      2613 8.70318E-05-5.00426E-05-1.60058E-05-4.24566E-05 1.52657E-18 4.42209E-18
 -1      2614 3.47029E-05-2.83819E-05-2.56437E-06-2.94924E-05 1.37918E-18 6.03596E-18
 -1      2615 5.13600E-05-3.51864E-05-6.88551E-06-3.91752E-05 2.25713E-18 6.04273E-18
 -1      2616 1.49724E-04-2.87258E-05-5.22001E-05-2.98385E-06 1.28855E-18 1.16806E-18
 -1      2617 1.45678E-04-3.63156E-05-4.71079E-05-1.03254E-06 7.58306E-19-2.04770E-19
 -1      2618 1.40187E-04-2.32380E-05-5.03097E-05-8.83311E-06 2.35094E-18-8.81655E-19
 -1      2619 9.63062E-05-2.50870E-05-3.05484E-05 7.60579E-06 6.10658E-19 1.29313E-18
 -1      2620 9.74293E-05-2.37710E-05-3.15893E-05 1.07051E-05 5.39560E-19 1.46763E-18
 -1      2621 9.58675E-05-2.12969E-05-3.20147E-05 1.19077E-05 6.34547E-19 1.26629E-18
 -1      2622 9.58570E-05-2.41551E-05-3.07626E-05 7.69837E-06 6.05245E-19 1.08134E-18
 -1      2623 5.11842E-05-3.48892E-05-6.95325E-06 4.05614E-05-2.15443E-18-5.78735E-19
 -1      2624 3.66106E-05-2.87834E-05-3.16009E-06 3.19471E-05-1.82366E-18-8.34327E-20
 -1      2625 1.35185E-04-1.08411E-05-5.35280E-05-4.02201E-06 3.33223E-18-7.21460E-19
 -1      2626 9.08098E-05-1.50504E-05-3.24628E-05-6.81428E-06-1.25825E-19-3.57885E-19
 -1      2627 8.97134E-05-1.31861E-05-3.28492E-05-7.97401E-06-1.10921E-19-4.42740E-19
 -1      2628 9.03659E-05-1.39700E-05-3.28026E-05-9.14731E-06-1.44343E-19-4.39120E-19
 -1      2629 9.47105E-05-2.69311E-05-2.90609E-05 1.89710E-06 2.80027E-19 7.43788E-19
 -1      2630 9.42299E-05-1.90774E-05-3.22533E-05 1.16171E-05 6.88767E-19 9.65591E-19
 -1      2631 6.73254E-05-3.89319E-05-1.17316E-05 4.09676E-05-2.48159E-18-1.44906E-18
 -1      2632 9.11367E-05-1.50084E-05-3.26791E-05-9.83282E-06-1.72413E-19-4.09937E-19
 -1      2633 9.21591E-05-1.62877E-05-3.25960E-05-1.08606E-05-2.51685E-19-3.99389E-19
 -1      2634 9.36506E-05-1.92116E-05-3.18884E-05-9.21553E-06-2.74766E-19-3.19073E-19
 -1      2635 9.20775E-05-1.68220E-05-3.22379E-05-8.32731E-06-2.10343E-19-3.55188E-19
 -1      2636 3.58723E-05-2.24521E-05-5.22792E-06-2.45080E-05 4.18434E-19 4.32834E-18
 -1      2637 1.34001E-04-5.95150E-05-3.18216E-05-1.74330E-05-2.92862E-19-9.88064E-19
 -1      2638 1.32200E-04-5.80539E-05-3.16141E-05 1.59931E-05 5.76512E-20-1.58130E-18
 -1      2639 1.45351E-04-3.23502E-05-4.84853E-05 9.64877E-06-1.84018E-18 1.16467E-19
 -1      2640 1.40081E-04-1.49982E-05-5.38163E-05 6.49987E-06-1.39506E-18 5.47501E-19
 -1      2641 1.42331E-04-2.51685E-05-5.03693E-05-1.11474E-05-3.79683E-19 2.09905E-18
 -1      2642 9.59961E-05-2.76109E-05-2.93051E-05 3.12417E-06-1.06229E-18 3.01903E-18
 -1      2643 1.04654E-04-5.46213E-05-2.11408E-05 3.60649E-05-4.73915E-19-1.38450E-18
 -1      2644 9.57618E-05-2.71754E-05-2.93935E-05 3.53663E-06-3.31436E-19 5.19176E-19
 -1      2645 2.53253E-05-1.57085E-05-3.56952E-06 1.67491E-06-1.89070E-18 1.58247E-18
 -1      2646 3.72960E-05-2.28154E-05-5.68613E-06 2.68530E-05-2.13632E-18 6.11981E-20
 -1      2647 1.03654E-04-5.50861E-05-2.05098E-05-3.61333E-05 1.40967E-18 2.03791E-18
 -1      2648 4.67305E-05-2.67078E-05-8.04567E-06 3.12173E-05 3.34091E-18-2.16332E-18
 -1      2649 9.47035E-05-2.06001E-05-3.17143E-05 9.68437E-06 6.64537E-19 8.77910E-19
 -1      2650 9.58922E-05-2.71267E-05-2.94661E-05 4.33933E-06-9.30605E-19-7.45370E-19
 -1      2651 1.38321E-04-1.28670E-05-5.40426E-05-4.53364E-06-9.42112E-19 1.29120E-18
 -1      2652 1.41672E-04-4.78104E-05-4.03359E-05-1.10826E-06 7.86629E-19-1.37939E-18
 -1      2653 1.39478E-04-2.82405E-05-4.78543E-05 9.43051E-06 9.31842E-19-1.89746E-18
 -1      2654 1.37873E-04-5.80184E-05-3.41136E-05 1.23855E-05-2.50828E-19 3.55351E-18
 -1      2655 1.26057E-04-5.83473E-05-2.90411E-05-2.44044E-05 3.62742E-19-5.97476E-19
 -1      2656 1.31968E-04-5.77508E-05-3.20563E-05-1.35301E-05 3.44160E-19-1.59835E-18
 -1      2657 1.19112E-04-5.79442E-05-2.59129E-05-2.69516E-05-1.52889E-19-9.11037E-19
 -1      2658 6.05942E-05-3.45428E-05-1.06883E-05-3.89167E-05-5.51948E-19-6.84932E-19
 -1      2659 7.49383E-05-3.96503E-05-1.51026E-05-3.93948E-05-1.00162E-18-2.43098E-19
 -1      2660 5.63783E-05-2.77599E-05-1.16840E-05-3.47062E-05-1.28717E-18-1.04079E-18
 -1      2661 3.43728E-05-1.75307E-05-6.58041E-06-1.89462E-05-4.00064E-19-2.58620E-18
 -1      2662 1.41565E-04-4.42179E-05-4.19382E-05-2.93334E-06 2.67133E-19-1.20829E-18
 -1      2663 1.33919E-04-1.23995E-05-5.23644E-05 6.35476E-06 2.07947E-18-7.49942E-19
 -1      2664 7.98143E-05-4.47489E-05-1.46355E-05 3.95308E-05 2.13029E-18 5.98852E-19
 -1      2665 1.46332E-04-4.38276E-05-4.39608E-05-5.04300E-06-1.27923E-18 8.56774E-19
 -1      2666 6.60491E-05-3.89275E-05-1.11793E-05-3.96126E-05 2.87822E-18 5.26516E-18
 -1      2667 9.62964E-05-2.75106E-05-2.94645E-05-3.97138E-06 4.79854E-19 2.03661E-18
 -1      2668 9.55260E-05-2.65948E-05-2.95494E-05-4.40262E-06-5.71506E-19 3.89144E-19
 -1      2669 9.55291E-05-2.64178E-05-2.96139E-05-5.25045E-06-1.05740E-18 7.95683E-19
 -1      2670 9.68399E-05-2.77232E-05-2.96036E-05-4.61980E-06 1.87722E-19 2.12733E-18
 -1      2671 9.64335E-05-2.72422E-05-2.96619E-05-5.57361E-06 2.30250E-19 2.60502E-18
 -1      2672 9.05870E-05-1.51810E-05-3.23392E-05 3.20046E-06 5.43986E-19 9.92617E-22
 -1      2673 9.03989E-05-1.49098E-05-3.23727E-05 2.26524E-06 5.30745E-19 1.85355E-20
 -1      2674 9.02659E-05-1.47072E-05-3.24022E-05 1.42491E-06 4.48337E-19 5.96348E-20
 -1      2675 9.02015E-05-1.46149E-05-3.24135E-05 4.66512E-07 3.97523E-19 1.21091E-19
 -1      2676 9.14515E-05-1.66006E-05-3.20660E-05 1.64426E-06 4.58274E-19-4.70252E-21
 -1      2677 9.21533E-05-1.75552E-05-3.20086E-05 6.48508E-06 6.61216E-19 3.14041E-19
 -1      2678 9.16338E-05-1.67619E-05-3.21103E-05 5.64464E-06 6.49426E-19 2.73105E-19
 -1      2679 9.35631E-05-1.97782E-05-3.16647E-05 7.60958E-06 6.53688E-19 4.59613E-19
 -1      2680 9.27782E-05-1.85242E-05-3.18402E-05 7.03024E-06 6.85070E-19 4.23358E-19
 -1      2681 9.34456E-05-1.98695E-05-3.15098E-05 5.74571E-06 6.35250E-19 4.19606E-19
 -1      2682 9.52030E-05-2.54038E-05-2.99263E-05 3.99145E-06 4.25230E-19 6.37540E-19
 -1      2683 9.55400E-05-2.45545E-05-3.03900E-05 5.62508E-06 5.10595E-19 7.29764E-19
 -1      2684 9.55311E-05-2.66791E-05-2.95077E-05 5.46011E-06-1.66992E-18-3.44445E-18
 -1      2685 9.62381E-05-2.74183E-05-2.94846E-05 4.93408E-06-1.07629E-18-2.44692E-20
 -1      2686 9.67738E-05-2.77540E-05-2.95713E-05 5.48305E-06-1.48252E-18-4.01331E-19
 -1      2687 1.40470E-04-5.26287E-05-3.77402E-05 1.92312E-06-1.14312E-18-1.97570E-19
 -1      2688 1.40787E-04-4.70590E-05-4.08637E-05 6.82724E-06-1.41211E-18 2.00853E-19
 -1      2689 1.27867E-04-6.01536E-05-2.87128E-05-1.91278E-05 3.11073E-19-7.59789E-19
 -1      2690 1.37066E-04-5.85198E-05-3.41159E-05-8.79126E-06-7.69106E-19-9.58418E-19
 -1      2691 1.36015E-04-5.58767E-05-3.44272E-05-1.72329E-06-1.09273E-18-1.75865E-19
 -1      2692 9.53492E-05-2.59021E-05-2.97379E-05-2.73068E-06-1.71354E-19-1.87125E-19
 -1      2693 9.51823E-05-2.64763E-05-2.94561E-05-1.73501E-06-1.57025E-19-1.42124E-19
 -1      2694 9.52124E-05-2.69980E-05-2.92113E-05-9.87438E-07-1.48159E-19-1.19263E-19
 -1      2695 9.50780E-05-2.73503E-05-2.90323E-05-3.78803E-07-2.70288E-19-1.91879E-19
 -1      2696 9.54117E-05-2.63168E-05-2.96177E-05-1.62356E-06-2.21043E-19-1.15172E-19
 -1      2697 9.50457E-05-2.76533E-05-2.88666E-05 9.26691E-08-2.81158E-19-7.78793E-20
 -1      2698 9.49698E-05-2.78743E-05-2.87579E-05 4.49652E-07-6.86661E-20-3.48739E-21
 -1      2699 9.54190E-05-2.73130E-05-2.91957E-05-3.40262E-07-1.57038E-19 1.00792E-19
 -1      2700 9.49290E-05-2.80550E-05-2.86501E-05 7.27467E-07 9.90581E-20 1.99101E-20
 -1      2701 9.49042E-05-2.81970E-05-2.85894E-05 9.20779E-07 4.33749E-20-5.45371E-20
 -1      2702 9.53600E-05-2.79183E-05-2.89105E-05 4.63879E-07-7.45578E-20 1.49093E-19
 -1      2703 9.48710E-05-2.83023E-05-2.85234E-05 1.06838E-06 8.93154E-20-2.02178E-19
 -1      2704 9.48838E-05-2.83929E-05-2.84954E-05 1.15905E-06 7.06398E-20 9.75830E-21
 -1      2705 9.52984E-05-2.82851E-05-2.87256E-05 9.28793E-07-4.05434E-20-5.05146E-20
 -1      2706 9.48619E-05-2.84492E-05-2.84595E-05 1.22476E-06 1.11472E-19 1.16879E-19
 -1      2707 9.48998E-05-2.85043E-05-2.84538E-05 1.25558E-06 7.05158E-20 2.90276E-19
 -1      2708 9.52529E-05-2.84973E-05-2.86139E-05 1.16996E-06 2.74581E-19 8.76283E-20
 -1      2709 9.48884E-05-2.85271E-05-2.84395E-05 1.27532E-06-4.13408E-20 3.11329E-19
 -1      2710 9.49426E-05-2.85563E-05-2.84492E-05 1.27685E-06-2.30714E-19 4.77178E-19
 -1      2711 9.52265E-05-2.86051E-05-2.85553E-05 1.27479E-06 6.49292E-20 6.96572E-19
 -1      2712 9.49396E-05-2.85551E-05-2.84508E-05 1.27732E-06-2.33873E-19 6.45973E-19
 -1      2713 9.50045E-05-2.85648E-05-2.84716E-05 1.27189E-06-1.25038E-19 5.53102E-19
 -1      2714 9.52164E-05-2.86393E-05-2.85355E-05 1.30862E-06-1.10797E-19 6.97042E-19
 -1      2715 9.50078E-05-2.85454E-05-2.84851E-05 1.27323E-06-1.10039E-19 7.56509E-19
 -1      2716 9.50809E-05-2.85400E-05-2.85144E-05 1.27772E-06 5.41951E-20 7.13040E-19
 -1      2717 9.52193E-05-2.86192E-05-2.85448E-05 1.32048E-06-7.46252E-20 6.34139E-19
 -1      2718 9.50890E-05-2.85059E-05-2.85375E-05 1.29557E-06-3.90301E-20 3.01834E-19
 -1      2719 9.51702E-05-2.84882E-05-2.85743E-05 1.32333E-06-8.39859E-20 1.48132E-19
 -1      2720 9.52319E-05-2.85570E-05-2.85765E-05 1.34781E-06-4.06266E-19 4.18760E-19
 -1      2721 9.51819E-05-2.84413E-05-2.86054E-05 1.37041E-06-1.29366E-19-1.39568E-19
 -1      2722 9.52729E-05-2.84135E-05-2.86496E-05 1.43263E-06-1.83498E-19-3.22801E-19
 -1      2723 9.52517E-05-2.84597E-05-2.86264E-05 1.42023E-06-2.60289E-19 1.49467E-20
 -1      2724 9.52872E-05-2.83544E-05-2.86883E-05 1.51985E-06-2.39630E-19-1.94203E-19
 -1      2725 9.53912E-05-2.83180E-05-2.87403E-05 1.62648E-06-2.96171E-19-6.51015E-20
 -1      2726 9.52771E-05-2.83309E-05-2.86923E-05 1.56229E-06-2.11922E-19-3.43639E-19
 -1      2727 9.54075E-05-2.82468E-05-2.87864E-05 1.76376E-06-5.13684E-19-4.66030E-19
 -1      2728 9.55288E-05-2.82033E-05-2.88474E-05 1.92403E-06-7.30737E-19-3.32702E-19
 -1      2729 9.53065E-05-2.81722E-05-2.87728E-05 1.79542E-06-5.57307E-19-5.13493E-19
 -1      2730 9.55463E-05-2.81199E-05-2.89008E-05 2.12059E-06-7.69060E-19-2.53488E-19
 -1      2731 9.56903E-05-2.80714E-05-2.89721E-05 2.34308E-06-9.98370E-19-1.26804E-19
 -1      2732 9.53389E-05-2.79839E-05-2.88672E-05 2.13911E-06-8.44857E-19-2.28782E-19
 -1      2733 9.57086E-05-2.79765E-05-2.90324E-05 2.60750E-06-8.04654E-19-6.09451E-20
 -1      2734 9.58816E-05-2.79265E-05-2.91149E-05 2.89969E-06-4.47380E-19-1.51898E-19
 -1      2735 9.53733E-05-2.77673E-05-2.89746E-05 2.61121E-06-7.60928E-19-4.89035E-20
 -1      2736 9.59009E-05-2.78226E-05-2.91813E-05 3.23936E-06-3.49853E-19 3.16488E-20
 -1      2737 9.61106E-05-2.77777E-05-2.92755E-05 3.60647E-06-7.44318E-20 2.38809E-19
 -1      2738 9.54095E-05-2.75264E-05-2.90931E-05 3.22751E-06-1.46539E-19-1.78423E-21
 -1      2739 9.61328E-05-2.76718E-05-2.93459E-05 4.02653E-06 3.02462E-20 2.00672E-19
 -1      2740 9.63892E-05-2.76441E-05-2.94509E-05 4.46933E-06 4.04889E-19-3.66133E-19
 -1      2741 9.54498E-05-2.72728E-05-2.92187E-05 4.00014E-06-9.89620E-20 9.78146E-20
 -1      2742 9.64212E-05-2.75511E-05-2.95216E-05 4.97079E-06 7.71360E-19-9.48662E-19
 -1      2743 9.67388E-05-2.75626E-05-2.96347E-05 5.48199E-06 1.00014E-18-1.10796E-18
 -1      2744 9.55028E-05-2.70314E-05-2.93448E-05 4.93499E-06 2.94845E-19-3.66612E-19
 -1      2745 9.67973E-05-2.75112E-05-2.96995E-05 6.05890E-06 1.33629E-18-1.17190E-18
 -1      2746 9.71996E-05-2.76003E-05-2.98154E-05 6.61756E-06 1.25960E-18-1.26110E-18
 -1      2747 9.55911E-05-2.68511E-05-2.94602E-05 6.02751E-06 1.04172E-18-1.27422E-18
 -1      2748 9.73209E-05-2.76421E-05-2.98658E-05 7.25250E-06 1.22910E-18-8.40378E-19
 -1      2749 9.78479E-05-2.78726E-05-2.99765E-05 7.81587E-06 5.74868E-19-1.96522E-19
 -1      2750 9.57650E-05-2.68213E-05-2.95491E-05 7.25670E-06 1.58356E-18-1.11250E-18
 -1      2751 9.81025E-05-2.80938E-05-3.00025E-05 8.47294E-06-1.47758E-19 9.30285E-20
 -1      2752 9.88216E-05-2.85648E-05-3.00981E-05 8.96501E-06 3.73125E-20 3.39576E-19
 -1      2753 9.61264E-05-2.70934E-05-2.95918E-05 8.57618E-06 4.61335E-19-6.49467E-20
 -1      2754 9.93365E-05-2.90979E-05-3.00915E-05 9.57731E-06-1.68940E-19 1.53091E-19
 -1      2755 1.00354E-04-2.99486E-05-3.01647E-05 9.87371E-06-4.56245E-19 4.74551E-20
 -1      2756 9.68650E-05-2.79082E-05-2.95686E-05 9.89891E-06-2.41136E-19-6.75715E-20
 -1      2757 1.01336E-04-3.09743E-05-3.01275E-05 1.03190E-05-2.69853E-19 8.99724E-20
 -1      2758 1.02794E-04-3.23644E-05-3.01826E-05 1.02280E-05 1.00159E-19-1.20685E-19
 -1      2759 9.83045E-05-2.96140E-05-2.94727E-05 1.10671E-05-2.73858E-19-1.36719E-19
 -1      2760 1.04539E-04-3.40749E-05-3.01441E-05 1.02820E-05 8.51161E-20 1.46520E-19
 -1      2761 1.06568E-04-3.61000E-05-3.02155E-05 9.53101E-06 4.69756E-20-3.81860E-19
 -1      2762 1.00942E-04-3.26416E-05-2.93351E-05 1.17869E-05 1.27713E-19 3.63225E-19
 -1      2763 1.09402E-04-3.85697E-05-3.02649E-05 8.77924E-06 3.93677E-19-3.51543E-19
 -1      2764 1.11960E-04-4.10176E-05-3.04456E-05 7.02988E-06 5.61679E-19-3.90476E-19
 -1      2765 1.05422E-04-3.73490E-05-2.92758E-05 1.14927E-05 1.67539E-19 2.18707E-19
 -1      2766 1.15945E-04-4.38472E-05-3.07823E-05 4.88460E-06 7.42089E-19 3.52048E-21
 -1      2767 1.18573E-04-4.58500E-05-3.12463E-05 1.93214E-06 5.01119E-19 4.85072E-19
 -1      2768 1.12196E-04-4.34284E-05-2.95987E-05 9.18784E-06 7.72793E-19-1.50692E-19
 -1      2769 1.23043E-04-4.77392E-05-3.22081E-05-2.15311E-06 5.86632E-19 5.83943E-19
 -1      2770 1.24638E-04-4.73729E-05-3.31820E-05-5.93180E-06 9.51883E-19 7.50213E-19
 -1      2771 1.20839E-04-4.90611E-05-3.08957E-05 3.54527E-06 6.14359E-19 2.16126E-20
 -1      2772 1.27460E-04-4.58976E-05-3.51366E-05-1.11082E-05 3.71821E-19 5.46363E-19
 -1      2773 1.26628E-04-4.10057E-05-3.67739E-05-1.40145E-05 1.58289E-19 3.83785E-19
 -1      2774 1.28733E-04-4.96684E-05-3.39551E-05-5.92318E-06 9.74220E-20 2.84682E-19
 -1      2775 1.24543E-04-3.43132E-05-3.91535E-05-1.63752E-05-1.12788E-19 4.37810E-20
 -1      2776 1.21657E-04-2.68501E-05-4.07539E-05-1.49212E-05-1.40073E-18-6.57245E-19
 -1      2777 1.19897E-04-2.02418E-05-4.31970E-05-1.05423E-05-1.34477E-18-5.07029E-19
 -1      2778 1.18102E-04-1.62640E-05-4.39956E-05-4.39133E-06-8.92349E-19 6.48113E-20
 -1      2779 1.17335E-04-1.65402E-05-4.34994E-05 4.09918E-06-1.10485E-18-5.46601E-20
 -1      2780 1.18929E-04-2.04825E-05-4.27465E-05 1.01848E-05-1.61836E-18 6.05390E-19
 -1      2781 1.22770E-04-2.71398E-05-4.11674E-05 1.45667E-05-2.52294E-18 6.50839E-19
 -1      2782 1.25176E-04-3.44838E-05-3.95020E-05 1.58293E-05-1.76887E-18 4.01705E-19
 -1      2783 1.29284E-04-4.18233E-05-3.76072E-05 1.30317E-05-9.52277E-19 2.04135E-19
 -1      2784 1.29882E-04-4.70823E-05-3.56526E-05 9.86411E-06 2.07113E-19 1.93441E-19
 -1      2785 1.18419E-04-4.59142E-05-3.11366E-05-2.59350E-06 8.61512E-19-1.05059E-19
 -1      2786 1.15706E-04-4.38740E-05-3.06665E-05-5.59862E-06 1.33102E-18 1.65813E-19
 -1      2787 1.11715E-04-4.10438E-05-3.03283E-05-7.75579E-06 1.12277E-18-1.15511E-19
 -1      2788 1.09113E-04-3.85901E-05-3.01346E-05-9.53995E-06 9.22053E-19 6.06937E-19
 -1      2789 1.12053E-04-4.35251E-05-2.95061E-05-9.91772E-06 1.00184E-18-2.23643E-19
 -1      2790 1.06294E-04-3.61384E-05-3.00802E-05-1.03280E-05 5.68195E-19 4.44961E-19
 -1      2791 1.04227E-04-3.41093E-05-2.99965E-05-1.11222E-05-3.63939E-19 7.19296E-19
 -1      2792 1.05298E-04-3.74477E-05-2.91801E-05-1.22885E-05 4.75109E-19-1.80531E-18
 -1      2793 1.02485E-04-3.24006E-05-3.00337E-05-1.11166E-05-1.18651E-18 1.48966E-18
 -1      2794 1.00983E-04-3.09892E-05-2.99698E-05-1.12479E-05-7.65641E-19 8.43960E-19
 -1      2795 1.00837E-04-3.27641E-05-2.92367E-05-1.26715E-05-4.30852E-19-1.12372E-18
 -1      2796 9.99941E-05-2.99447E-05-3.00119E-05-1.08437E-05-6.78522E-19 1.31883E-18
 -1      2797 9.89231E-05-2.90481E-05-2.99353E-05-1.05728E-05 7.60094E-19 1.16518E-18
 -1      2798 9.81957E-05-2.97148E-05-2.93830E-05-1.20409E-05-2.52612E-19 8.71498E-19
 -1      2799 9.83889E-05-2.84655E-05-2.99556E-05-9.98077E-06 1.90660E-18 1.45549E-18
 -1      2800 9.76051E-05-2.79139E-05-2.98649E-05-9.48229E-06 1.10903E-18 1.89130E-18
 -1      2801 9.67288E-05-2.79262E-05-2.95031E-05-1.09318E-05 1.51109E-18 2.12232E-19
 -1      2802 9.73117E-05-2.76000E-05-2.98645E-05-8.80730E-06 1.55564E-20 2.45907E-18
 -1      2803 9.67071E-05-2.72433E-05-2.97705E-05-8.18363E-06 2.05151E-20 1.41227E-18
 -1      2804 9.59317E-05-2.69439E-05-2.95722E-05-9.60698E-06 8.47325E-19-1.29078E-19
 -1      2805 9.65143E-05-2.70494E-05-2.97605E-05-7.47420E-06 4.42947E-19 1.75705E-18
 -1      2806 9.60276E-05-2.67792E-05-2.96768E-05-6.77392E-06 1.07263E-18 1.51274E-18
 -1      2807 9.54645E-05-2.63940E-05-2.96050E-05-8.18555E-06 4.65271E-19 7.38012E-19
 -1      2808 9.44722E-05-2.81082E-05-2.84411E-05-9.11831E-07 3.70052E-19 3.07548E-19
 -1      2809 9.44851E-05-2.79841E-05-2.84892E-05-7.27640E-07 3.82678E-19 4.96627E-19
 -1      2810 9.59421E-05-2.66787E-05-2.96734E-05-6.27633E-06 1.11121E-18 1.63477E-18
 -1      2811 9.56494E-05-2.65218E-05-2.96230E-05-5.76102E-06 2.39804E-20 1.17547E-18
 -1      2812 9.51888E-05-2.60808E-05-2.96215E-05-6.94644E-06 5.81848E-19-5.64791E-19
 -1      2813 9.45436E-05-2.78362E-05-2.85895E-05-4.44338E-07 2.52918E-19 4.17236E-19
 -1      2814 9.46302E-05-2.76518E-05-2.86867E-05-9.53358E-08 2.47662E-19 5.01127E-19
 -1      2815 9.50058E-05-2.78924E-05-2.87713E-05-4.62190E-07 3.65994E-19 1.41504E-19
 -1      2816 9.45370E-05-2.83930E-05-2.83457E-05-1.22861E-06 8.01045E-20 9.68895E-19
 -1      2817 9.44698E-05-2.83344E-05-2.83407E-05-1.20498E-06 2.19034E-19 7.14192E-19
 -1      2818 9.46320E-05-2.84582E-05-2.83581E-05-1.23825E-06 4.60704E-19 9.93317E-19
 -1      2819 9.45468E-05-2.84195E-05-2.83393E-05-1.24389E-06 2.63769E-19 1.02507E-18
 -1      2820 9.49157E-05-2.85124E-05-2.84620E-05-1.27556E-06 1.25524E-19 6.97312E-19
 -1      2821 9.47500E-05-2.84903E-05-2.83946E-05-1.21881E-06 6.54113E-19 8.98156E-19
 -1      2822 9.46542E-05-2.84668E-05-2.83664E-05-1.23251E-06 6.22286E-19 9.11888E-19
 -1      2823 9.49525E-05-2.85610E-05-2.84560E-05-1.29780E-06 5.32350E-19 6.60840E-19
 -1      2824 9.48847E-05-2.84978E-05-2.84487E-05-1.20563E-06 4.15852E-20 1.19675E-18
 -1      2825 9.47813E-05-2.84858E-05-2.84136E-05-1.21178E-06 3.62579E-19 1.17251E-18
 -1      2826 9.50085E-05-2.85669E-05-2.84769E-05-1.29383E-06 3.55653E-19 1.17336E-18
 -1      2827 9.50345E-05-2.84866E-05-2.85171E-05-1.22554E-06-9.55827E-20 1.06626E-18
 -1      2828 9.49233E-05-2.84831E-05-2.84761E-05-1.21220E-06 2.08116E-19 1.22724E-18
 -1      2829 9.50791E-05-2.85406E-05-2.85181E-05-1.30040E-06 1.58061E-19 1.32988E-18
 -1      2830 9.52018E-05-2.84618E-05-2.85988E-05-1.29966E-06-1.40886E-19 6.60035E-19
 -1      2831 9.50800E-05-2.84640E-05-2.85517E-05-1.25738E-06-2.85665E-19 8.18331E-19
 -1      2832 9.51625E-05-2.84896E-05-2.85755E-05-1.34567E-06 1.65134E-20 1.42750E-18
 -1      2833 9.53924E-05-2.84280E-05-2.86941E-05-1.44510E-06 4.63891E-19 8.00960E-19
 -1      2834 9.52552E-05-2.84332E-05-2.86401E-05-1.36619E-06 2.66246E-19 7.04363E-19
 -1      2835 9.52598E-05-2.84193E-05-2.86474E-05-1.45193E-06 1.83609E-19 6.62769E-19
 -1      2836 9.56151E-05-2.83908E-05-2.88045E-05-1.67578E-06 2.08717E-19 3.72198E-19
 -1      2837 9.54558E-05-2.83954E-05-2.87423E-05-1.55406E-06 4.29508E-19 8.45665E-19
 -1      2838 9.53741E-05-2.83346E-05-2.87328E-05-1.63726E-06 4.88461E-19 7.52601E-19
 -1      2839 9.58809E-05-2.83575E-05-2.89318E-05-2.00225E-06-1.22255E-19 2.53001E-19
 -1      2840 9.56917E-05-2.83568E-05-2.88599E-05-1.83334E-06-7.52034E-20 2.01843E-19
 -1      2841 9.55112E-05-2.82412E-05-2.88318E-05-1.91618E-06 3.18412E-19 5.66619E-19
 -1      2842 9.62041E-05-2.83386E-05-2.90774E-05-2.43036E-06 8.59852E-20 1.64597E-19
 -1      2843 9.59756E-05-2.83263E-05-2.89946E-05-2.21252E-06 8.60485E-21 2.40553E-19
 -1      2844 9.56794E-05-2.81474E-05-2.89443E-05-2.29942E-06-1.34663E-19 3.09192E-19
 -1      2845 9.66019E-05-2.83509E-05-2.92420E-05-2.95857E-06-1.02241E-19 1.74782E-19
 -1      2846 9.63238E-05-2.83173E-05-2.91475E-05-2.69437E-06 3.12153E-20 1.35527E-19
 -1      2847 9.58906E-05-2.80666E-05-2.90698E-05-2.79238E-06-2.23710E-20 2.53020E-19
 -1      2848 9.70964E-05-2.84196E-05-2.94242E-05-3.57346E-06 8.55878E-20-4.45865E-19
 -1      2849 9.67568E-05-2.83507E-05-2.93183E-05-3.27237E-06 1.14004E-20-1.59507E-19
 -1      2850 9.61620E-05-2.80203E-05-2.92065E-05-3.39230E-06 1.95077E-19-4.28173E-20
 -1      2851 9.77162E-05-2.85833E-05-2.96202E-05-4.24318E-06 4.45983E-19-5.38921E-19
 -1      2852 9.73019E-05-2.84586E-05-2.95047E-05-3.92531E-06 2.74742E-19-2.96963E-19
 -1      2853 9.65192E-05-2.80430E-05-2.93507E-05-4.08370E-06 2.66823E-19-3.93707E-20
 -1      2854 9.84997E-05-2.88978E-05-2.98229E-05-4.90838E-06 2.01958E-19 2.99226E-19
 -1      2855 9.79956E-05-2.86888E-05-2.97016E-05-4.60942E-06 2.51024E-19-3.76029E-19
 -1      2856 9.70008E-05-2.81877E-05-2.94965E-05-4.83170E-06 1.73771E-19 3.86649E-19
 -1      2857 9.94987E-05-2.94400E-05-3.00223E-05-5.47091E-06-1.68830E-19 8.79116E-19
 -1      2858 9.88881E-05-2.91093E-05-2.99009E-05-5.24792E-06 2.09181E-19 5.50934E-19
 -1      2859 9.76649E-05-2.85320E-05-2.96358E-05-5.57292E-06 1.64641E-20 6.43293E-19
 -1      2860 1.00780E-04-3.03045E-05-3.02069E-05-5.78133E-06-5.54125E-19 2.67915E-19
 -1      2861 1.00047E-04-2.98093E-05-3.00925E-05-5.71813E-06-2.09284E-19 1.21311E-18
 -1      2862 9.85966E-05-2.91818E-05-2.97604E-05-6.20347E-06-9.53274E-20 9.34254E-19
 -1      2863 1.02418E-04-3.15856E-05-3.03691E-05-5.62949E-06-8.76753E-19-1.46510E-19
 -1      2864 1.01553E-04-3.08903E-05-3.02679E-05-5.83825E-06-6.80373E-19-2.20448E-19
 -1      2865 9.99117E-05-3.02654E-05-2.98653E-05-6.56443E-06-3.74360E-19 8.73834E-19
 -1      2866 1.04466E-04-3.33262E-05-3.05138E-05-4.74726E-06-1.24403E-18-1.16936E-19
 -1      2867 1.03487E-04-3.24334E-05-3.04265E-05-5.35966E-06-1.03751E-18-7.74332E-20
 -1      2868 1.01749E-04-3.19055E-05-2.99569E-05-6.42705E-06-7.90427E-19 3.29979E-19
 -1      2869 1.06888E-04-3.54133E-05-3.06723E-05-2.84305E-06-4.46825E-19-2.80028E-19
 -1      2870 1.05873E-04-3.44228E-05-3.05877E-05-3.97846E-06-6.72202E-19-4.32018E-19
 -1      2871 1.04227E-04-3.41455E-05-3.00661E-05-5.48509E-06-9.29631E-19-4.84951E-20
 -1      2872 1.09431E-04-3.74136E-05-3.09162E-05 2.85423E-07-7.99225E-19 2.93298E-19
 -1      2873 1.08567E-04-3.66028E-05-3.08058E-05-1.40467E-06-1.08944E-18-2.54924E-19
 -1      2874 1.07339E-04-3.67947E-05-3.02654E-05-3.37871E-06-8.76163E-19-3.66657E-19
 -1      2875 1.11491E-04-3.84410E-05-3.13547E-05 4.48453E-06-1.66536E-19-7.43424E-20
 -1      2876 1.11089E-04-3.82958E-05-3.11753E-05 2.43569E-06-1.18166E-19 6.65877E-19
 -1      2877 1.10744E-04-3.92000E-05-3.06806E-05 1.66275E-07-7.63144E-19 7.91397E-19
 -1      2878 1.12164E-04-3.72933E-05-3.20991E-05 8.88880E-06 9.36139E-19 2.47980E-19
 -1      2879 1.12569E-04-3.83854E-05-3.18093E-05 7.04137E-06 7.36141E-20-9.44621E-20
 -1      2880 1.13584E-04-4.01300E-05-3.14684E-05 4.98174E-06-1.66210E-20 9.13461E-19
 -1      2881 1.10693E-04-3.31997E-05-3.31669E-05 1.15887E-05 2.26305E-18 1.25881E-18
 -1      2882 1.11969E-04-3.56800E-05-3.27748E-05 1.09023E-05 1.75912E-18 9.55105E-19
 -1      2883 1.14542E-04-3.80201E-05-3.27482E-05 9.94188E-06 8.67947E-19 1.17820E-18
 -1      2884 1.07453E-04-2.71752E-05-3.43380E-05 1.02470E-05 1.40316E-18 2.50255E-19
 -1      2885 1.09088E-04-3.01780E-05-3.39511E-05 1.16253E-05 2.28427E-18 8.45240E-19
 -1      2886 1.12703E-04-3.22759E-05-3.44368E-05 1.25402E-05 2.11075E-18 1.88819E-18
 -1      2887 1.04618E-04-2.26060E-05-3.51343E-05 4.11556E-06-3.37794E-19 9.54809E-19
 -1      2888 1.05596E-04-2.43415E-05-3.49334E-05 7.42233E-06 1.87009E-20 5.58909E-19
 -1      2889 1.09039E-04-2.50661E-05-3.60433E-05 9.92577E-06 4.89479E-19 1.11225E-18
 -1      2890 1.04589E-04-2.28046E-05-3.51506E-05-4.16785E-06 7.84564E-19 2.75543E-18
 -1      2891 1.04232E-04-2.20369E-05-3.52481E-05-4.95979E-07 2.45931E-19 1.38057E-18
 -1      2892 1.06619E-04-2.07938E-05-3.68858E-05 2.03053E-06-4.61024E-19 1.14518E-18
 -1      2893 1.07577E-04-2.77467E-05-3.43441E-05-1.02322E-05 3.84753E-19 2.44498E-18
 -1      2894 1.06092E-04-2.49783E-05-3.46995E-05-8.04037E-06 1.25238E-18 2.67246E-18
 -1      2895 1.07640E-04-2.26001E-05-3.64923E-05-7.01385E-06 1.01505E-18 1.42169E-18
 -1      2896 1.10937E-04-3.38062E-05-3.31607E-05-1.12835E-05 1.94689E-18 7.94070E-19
 -1      2897 1.09445E-04-3.09496E-05-3.35814E-05-1.12643E-05 1.16742E-18 1.54101E-18
 -1      2898 1.11318E-04-2.94736E-05-3.50688E-05-1.17983E-05 1.72713E-18 3.98840E-19
 -1      2899 1.12445E-04-3.77409E-05-3.20575E-05-8.29010E-06 1.19367E-18 2.13376E-19
 -1      2900 1.11708E-04-3.60711E-05-3.24089E-05-9.85048E-06 1.82887E-18 9.03505E-19
 -1      2901 1.14079E-04-3.62417E-05-3.33177E-05-1.09508E-05 1.94459E-18 2.55883E-19
 -1      2902 1.11604E-04-3.86354E-05-3.12649E-05-3.64027E-06-3.86945E-19 4.71630E-19
 -1      2903 1.11769E-04-3.83607E-05-3.15013E-05-5.74924E-06 1.26909E-19 7.63734E-19
 -1      2904 1.14158E-04-3.98539E-05-3.18274E-05-6.48115E-06 4.52776E-19-1.26504E-19
 -1      2905 1.09285E-04-3.74037E-05-3.07752E-05 7.09621E-07-4.25643E-19-4.69582E-19
 -1      2906 1.10068E-04-3.80357E-05-3.09246E-05-1.21316E-06-2.84019E-19 7.82003E-19
 -1      2907 1.11848E-04-3.99370E-05-3.08312E-05-1.30193E-06-3.78827E-19 3.76681E-19
 -1      2908 1.06489E-04-3.52813E-05-3.04834E-05 3.89721E-06 1.07075E-18-1.11025E-18
 -1      2909 1.07539E-04-3.62674E-05-3.05911E-05 2.48737E-06 8.09132E-20-7.16162E-19
 -1      2910 1.08481E-04-3.79218E-05-3.02700E-05 2.91046E-06 1.10631E-19-8.10064E-19
 -1      2911 1.03850E-04-3.31223E-05-3.02842E-05 5.81404E-06 8.33451E-19-6.47499E-19
 -1      2912 1.04930E-04-3.41058E-05-3.03845E-05 4.96256E-06 9.52589E-19-1.00970E-18
 -1      2913 1.05136E-04-3.52385E-05-2.99892E-05 5.66891E-06 9.06206E-19-5.21065E-19
 -1      2914 1.01622E-04-3.13164E-05-3.01116E-05 6.67995E-06 3.41303E-19-7.58884E-19
 -1      2915 1.02616E-04-3.21429E-05-3.02200E-05 6.30014E-06 6.81567E-19-1.06330E-18
 -1      2916 1.02331E-04-3.27490E-05-2.98487E-05 7.12009E-06 7.37189E-19 1.61998E-19
 -1      2917 9.98288E-05-2.99393E-05-2.99392E-05 6.78035E-06 9.73350E-19-7.30197E-19
 -1      2918 1.00698E-04-3.05831E-05-3.00561E-05 6.75392E-06 5.27254E-19-1.16091E-18
 -1      2919 1.00175E-04-3.07812E-05-2.97605E-05 7.59519E-06 4.06170E-19-9.59700E-19
 -1      2920 9.84141E-05-2.89275E-05-2.97667E-05 6.34806E-06-1.20120E-18-4.06346E-19
 -1      2921 9.91437E-05-2.94132E-05-2.98842E-05 6.57283E-06 3.49189E-19 5.74332E-19
 -1      2922 9.85646E-05-2.93384E-05-2.96840E-05 7.40439E-06-2.17157E-19-8.11791E-19
 -1      2923 9.72297E-05-2.81291E-05-2.96019E-05 5.76064E-06-1.61159E-18 4.02076E-19
 -1      2924 9.78383E-05-2.85169E-05-2.97043E-05 6.17049E-06-1.51600E-18 4.66337E-20
 -1      2925 9.72720E-05-2.82835E-05-2.95911E-05 6.96287E-06-1.00710E-18-2.90488E-19
 -1      2926 9.62686E-05-2.74278E-05-2.95245E-05 6.42722E-06-1.34285E-18-2.38922E-18
 -1      2927 1.13060E-04-5.66424E-05-2.45215E-05 3.00416E-05-4.71056E-19-1.56757E-18
 -1      2928 9.70715E-05-5.00259E-05-1.95800E-05 3.63679E-05-1.58332E-18-1.23333E-18
 -1      2929 9.05676E-05-2.16524E-05-2.95514E-05 1.19785E-06 1.06267E-19 9.40118E-19
 -1      2930 9.08040E-05-2.18737E-05-2.95425E-05 2.14142E-06 9.47312E-19 1.98223E-18
 -1      2931 1.29656E-04-1.19184E-05-5.10600E-05-3.29929E-06-9.19454E-19 9.80811E-19
 -1      2932 1.30206E-04-1.57537E-05-4.97085E-05-9.92612E-06-6.82073E-19 1.33450E-18
 -1      2933 9.21491E-05-2.32519E-05-2.95464E-05 4.57189E-06 7.12202E-19 1.03011E-18
 -1      2934 9.27136E-05-2.38087E-05-2.95209E-05 5.05335E-06 1.00299E-18 5.07839E-19
 -1      2935 9.04483E-05-2.15191E-05-2.95514E-05-9.53943E-07 5.01355E-20-1.99550E-19
 -1      2936 9.04349E-05-2.15005E-05-2.95518E-05 5.72946E-08 1.27812E-19 4.82349E-19
 -1      2937 8.98909E-05-2.15782E-05-2.92603E-05 7.42965E-07 5.79361E-19 2.75910E-19
 -1      2938 9.11766E-05-2.22703E-05-2.95506E-05 3.11951E-06 8.14950E-19 8.27478E-19
 -1      2939 9.16113E-05-2.26895E-05-2.95323E-05 3.87195E-06 8.57049E-19 8.42628E-19
 -1      2940 9.15357E-05-2.31197E-05-2.93145E-05 4.69084E-06-1.82943E-20 1.00063E-18
 -1      2941 9.04800E-05-2.21405E-05-2.92758E-05 2.95220E-06 7.25116E-19 9.23751E-19
 -1      2942 1.20729E-04-5.97300E-05-2.64901E-05 2.56909E-05 7.65718E-19 4.54359E-18
 -1      2943 1.07076E-04-5.51193E-05-2.18882E-05 3.22496E-05 1.69396E-18 3.91663E-18
 -1      2944 9.08597E-05-2.19057E-05-2.95538E-05-2.99895E-06 5.61479E-19-4.18526E-18
 -1      2945 9.05899E-05-2.16473E-05-2.95621E-05-2.07890E-06 1.29995E-19-1.88051E-18
 -1      2946 8.99016E-05-2.15543E-05-2.92742E-05-1.62478E-06 3.66760E-19-1.02300E-18
 -1      2947 9.17769E-05-2.27846E-05-2.95626E-05-4.70249E-06 1.00447E-18-1.35435E-18
 -1      2948 9.12708E-05-2.23052E-05-2.95762E-05-3.97875E-06 9.88056E-19-3.12787E-18
 -1      2949 9.05408E-05-2.20915E-05-2.93207E-05-3.82577E-06 1.01017E-18-3.04700E-18
 -1      2950 9.30743E-05-2.40403E-05-2.95806E-05-5.76740E-06 4.24956E-19-9.86753E-19
 -1      2951 9.24138E-05-2.33988E-05-2.95963E-05-5.37913E-06 9.63448E-19-1.14976E-18
 -1      2952 9.17393E-05-2.31208E-05-2.93994E-05-5.55448E-06 9.95606E-19-9.99885E-19
 -1      2953 1.38307E-04-3.72173E-05-4.35677E-05 1.27481E-05-1.80132E-18 2.62580E-19
 -1      2954 1.34584E-04-2.70435E-05-4.69248E-05 1.36144E-05-2.11451E-18 6.16640E-19
 -1      2955 9.46955E-05-2.19043E-05-3.12029E-05 7.85679E-06 6.19760E-19 7.68596E-19
 -1      2956 4.79950E-05-2.43916E-05-9.80161E-06 3.19727E-05-2.43850E-18-6.17699E-19
 -1      2957 3.73822E-05-1.73703E-05-7.99895E-06 2.08163E-05-2.31272E-18 1.06726E-19
 -1      2958 9.45190E-05-2.14980E-05-3.13265E-05-7.70091E-06-2.63510E-19-2.12028E-19
 -1      2959 9.49478E-05-2.32263E-05-3.07352E-05-6.02183E-06-2.49185E-19-2.28067E-19
 -1      2960 9.37462E-05-2.01346E-05-3.15493E-05-7.55777E-06-2.10971E-19-2.60913E-19
 -1      2961 1.32041E-04-1.95640E-05-4.89247E-05-1.04271E-05 2.65608E-18-1.72721E-18
 -1      2962 1.34930E-04-2.71056E-05-4.65260E-05-1.16607E-05 1.18288E-18-1.34085E-18
 -1      2963 9.37221E-05-4.86552E-05-1.87905E-05-3.73724E-05-7.48142E-19 3.94506E-19
 -1      2964 1.05878E-04-5.43429E-05-2.20752E-05-3.48411E-05-1.57230E-19-6.66377E-21
 -1      2965 3.04602E-05-1.34603E-05-6.85589E-06 8.08289E-06-1.99630E-18 1.18500E-18
 -1      2966 3.01074E-05-1.34451E-05-6.61926E-06-5.92762E-06-2.33183E-18 2.49218E-18
 -1      2967 3.52422E-05-1.69702E-05-7.29135E-06-1.80971E-05-9.34436E-19 3.35086E-18
 -1      2968 4.59579E-05-2.38176E-05-9.17268E-06-3.01085E-05 3.84129E-19 4.00477E-18
 -1      2969 1.35325E-04-3.39425E-05-4.36664E-05 1.17580E-05 8.24269E-19-1.32201E-18
 -1      2970 1.30677E-04-2.48355E-05-4.61254E-05 1.25313E-05 1.40904E-18-1.88147E-19
 -1      2971 9.47107E-05-2.74036E-05-2.88485E-05 3.92857E-07 2.01374E-19 5.11282E-19
 -1      2972 9.48901E-05-2.71121E-05-2.90201E-05 1.00129E-06 1.90066E-19 5.59598E-19
 -1      2973 9.51249E-05-2.73701E-05-2.90475E-05 3.75384E-07 2.85891E-19 2.24981E-19
 -1      2974 9.44776E-05-2.82827E-05-2.83680E-05-1.14197E-06 2.54565E-19 3.59236E-19
 -1      2975 9.44410E-05-2.81973E-05-2.83839E-05-1.05941E-06 2.02872E-19 2.83815E-19
 -1      2976 9.49328E-05-2.82125E-05-2.86009E-05-9.37629E-07 2.48469E-19 1.84941E-19
 -1      2977 9.49057E-05-2.84049E-05-2.85052E-05-1.17790E-06 1.32027E-20 5.65701E-19
 -1      2978 9.52696E-05-2.43026E-05-3.04044E-05-4.95133E-06-1.85079E-19-1.94737E-19
 -1      2979 9.51912E-05-2.52514E-05-2.99867E-05-3.48944E-06-1.93992E-19-2.12823E-19
 -1      2980 9.52675E-05-2.50058E-05-3.01248E-05-3.25215E-06-1.84508E-19-1.08503E-19
 -1      2981 9.48513E-05-2.31948E-05-3.06977E-05-5.14625E-06-1.51799E-19-1.49299E-19
 -1      2982 5.78984E-05-2.95060E-05-1.19425E-05 3.47262E-05 3.37416E-18-1.15165E-18
 -1      2983 4.39662E-05-2.07314E-05-9.44881E-06 2.55255E-05 3.53414E-18-2.82020E-18
 -1      2984 9.49662E-05-2.66840E-05-2.92692E-05 1.79253E-06 2.70244E-19 6.10512E-19
 -1      2985 9.52332E-05-2.61883E-05-2.95538E-05 2.80108E-06 3.21037E-19 6.26095E-19
 -1      2986 9.52638E-05-2.50189E-05-3.01029E-05 3.83291E-06 3.84756E-19 4.88517E-19
 -1      2987 9.52483E-05-2.64985E-05-2.94718E-05 1.74451E-06 3.12044E-19 4.57797E-19
 -1      2988 9.11984E-05-1.60949E-05-3.22151E-05 4.92557E-06 6.65341E-19 1.69228E-19
 -1      2989 9.08592E-05-1.55968E-05-3.22770E-05 4.00197E-06 6.01457E-19 3.55340E-20
 -1      2990 9.18390E-05-1.72067E-05-3.19699E-05 3.20398E-06 5.46435E-19 6.96436E-20
 -1      2991 9.25004E-05-1.82656E-05-3.17951E-05 4.62433E-06 5.36683E-19 2.25903E-19
 -1      2992 3.60724E-05-1.32982E-05-9.11898E-06-1.15891E-05 1.01538E-19-1.91895E-18
 -1      2993 4.35954E-05-1.81775E-05-1.05010E-05-2.37636E-05-1.05636E-18-1.19993E-18
 -1      2994 7.71436E-05-4.11189E-05-1.54761E-05 4.02440E-05-2.02091E-18-9.14478E-19
 -1      2995 6.12470E-05-3.22384E-05-1.18143E-05 3.68716E-05-2.36492E-18-8.24904E-19
 -1      2996 6.04492E-05-2.74031E-05-1.35497E-05 3.15570E-05-1.98777E-18-8.61009E-19
 -1      2997 1.39885E-04-5.61751E-05-3.64253E-05 3.84354E-06 7.55183E-20 2.04506E-18
 -1      2998 1.32640E-04-5.95039E-05-3.11286E-05 1.34715E-05 8.57144E-19 3.45674E-18
 -1      2999 9.08243E-05-1.55496E-05-3.22823E-05-3.93819E-06 9.68370E-21-1.80289E-19
 -1      3000 9.11556E-05-1.60339E-05-3.22222E-05-4.86494E-06-3.64408E-20-2.81782E-19
 -1      3001 1.37666E-04-3.75720E-05-4.34392E-05-9.00641E-06 3.71847E-19-1.90477E-18
 -1      3002 1.36447E-04-4.76648E-05-3.82233E-05-2.91818E-06-3.33413E-19-1.85310E-18
 -1      3003 3.54487E-05-1.48948E-05-8.29284E-06 1.53354E-05 2.22621E-18-2.20059E-18
 -1      3004 3.20533E-05-1.22099E-05-8.13729E-06 1.37870E-06 9.60085E-19-1.94225E-18
 -1      3005 1.32946E-04-5.64243E-05-3.32289E-05 8.46887E-06-4.39425E-19-2.55597E-18
 -1      3006 1.26538E-04-5.87679E-05-2.87218E-05 1.87522E-05-3.28755E-20-2.34697E-18
 -1      3007 9.19154E-05-4.88594E-05-1.84078E-05 3.80013E-05 2.32214E-18 2.42082E-18
 -1      3008 7.53621E-05-3.97511E-05-1.47905E-05 3.76682E-05 3.11380E-18 8.30516E-19
 -1      3009 1.40143E-04-4.01099E-05-4.35323E-05-1.12473E-05-7.35966E-19 6.80273E-19
 -1      3010 1.41404E-04-4.86290E-05-3.98621E-05-6.37261E-06-7.13943E-19 1.12179E-18
 -1      3011 6.11209E-05-3.28231E-05-1.15578E-05-3.62940E-05 1.64473E-18 4.65995E-18
 -1      3012 7.77327E-05-4.23372E-05-1.51825E-05-3.99911E-05 2.01096E-18 4.44438E-18
 -1      3013 1.36610E-04-5.13362E-05-3.67033E-05-1.23598E-06 1.87221E-19-1.25477E-18
 -1      3014 1.37623E-04-4.30479E-05-4.11222E-05 6.48935E-06 5.18067E-19-1.73091E-18
 -1      3015 1.32368E-04-3.92854E-05-4.00154E-05 1.10090E-05 7.12037E-19-5.13090E-19
 -1      3016 1.33572E-04-2.19178E-05-4.85609E-05-1.26554E-05-5.48454E-19 9.56830E-19
 -1      3017 1.37799E-04-3.03903E-05-4.64237E-05-1.41688E-05-5.42101E-19 7.49836E-19
 -1      3018 1.30518E-04-1.73187E-05-4.90074E-05 1.03905E-05-1.50941E-18 6.34481E-19
 -1      3019 1.28786E-04-1.29051E-05-5.04067E-05 4.34828E-06-1.20300E-18 7.88601E-19
 -1      3020 9.68223E-05-5.10522E-05-1.91066E-05-3.63015E-05 2.49652E-18 2.49584E-18
 -1      3021 1.13472E-04-5.80089E-05-2.41086E-05-3.09476E-05 1.38225E-18 6.37783E-19
 -1      3022 9.49904E-05-2.58566E-05-2.96260E-05-5.92002E-06-4.02733E-19-1.75792E-18
 -1      3023 1.26519E-04-1.45508E-05-4.84277E-05 9.79241E-06 1.66018E-18-5.76565E-19
 -1      3024 1.25495E-04-1.02326E-05-5.00743E-05 3.62567E-06 2.11441E-18-6.19141E-19
 -1      3025 1.26138E-04-9.12443E-06-5.08062E-05-2.41388E-06 2.65418E-18-6.52559E-19
 -1      3026 1.28874E-04-1.28489E-05-5.02471E-05-7.66365E-06 3.21068E-18-1.08431E-18
 -1      3027 9.15781E-05-1.66869E-05-3.21195E-05-5.59752E-06-8.27291E-20-3.32282E-19
 -1      3028 9.20933E-05-1.74660E-05-3.20186E-05-6.42513E-06-1.59880E-19-3.43483E-19
 -1      3029 9.24583E-05-1.82006E-05-3.18046E-05-4.58191E-06-6.50298E-20-1.90554E-19
 -1      3030 1.20560E-04-1.13046E-05-4.72786E-05 6.21467E-07 2.22516E-18-3.97272E-19
 -1      3031 9.13204E-05-1.63977E-05-3.20975E-05 2.86049E-08 3.60649E-19 1.81015E-19
 -1      3032 9.01974E-05-1.46100E-05-3.24141E-05-3.83648E-07 3.25835E-19 1.56814E-19
 -1      3033 9.02534E-05-1.46902E-05-3.24039E-05-1.34261E-06 2.37357E-19 3.28672E-20
 -1      3034 8.96410E-05-4.41982E-05-1.91232E-05 3.52961E-05-1.57336E-18 2.35846E-20
 -1      3035 1.25819E-04-2.30981E-05-4.44280E-05-1.34311E-05-1.10538E-18-3.30660E-19
 -1      3036 9.10941E-05-4.59537E-05-1.89050E-05-3.51707E-05 2.12658E-18 2.74338E-18
 -1      3037 1.34445E-04-5.55984E-05-3.40242E-05-5.56864E-06 6.35050E-19-1.02597E-18
 -1      3038 1.32407E-04-5.07829E-05-3.51113E-05 2.83239E-06 3.08505E-19-1.24254E-18
 -1      3039 1.29047E-04-5.62144E-05-3.10637E-05-1.00660E-05 5.59439E-19-1.15366E-18
 -1      3040 1.34445E-04-3.60562E-05-4.24128E-05-1.46443E-05-4.12399E-19 6.26804E-19
 -1      3041 1.02427E-04-5.12280E-05-2.15598E-05 3.16980E-05 2.03838E-18 3.29099E-18
 -1      3042 1.34886E-04-5.27558E-05-3.52862E-05 6.98981E-08-6.28386E-19-2.06528E-18
 -1      3043 1.29751E-04-5.40669E-05-3.24993E-05 4.41614E-06-4.60865E-19-2.03116E-18
 -1      3044 1.31786E-04-4.64412E-05-3.70104E-05-6.75698E-06-5.32254E-19-2.14479E-18
 -1      3045 5.33736E-05-1.85439E-05-1.46092E-05-2.16282E-05-1.31295E-18-5.88053E-19
 -1      3046 5.34268E-05-2.25031E-05-1.26510E-05-2.79644E-05-1.63583E-18-7.91976E-19
 -1      3047 6.40483E-05-2.77147E-05-1.55551E-05-3.12267E-05-1.63414E-18-1.00786E-18
 -1      3048 4.70019E-05-1.78033E-05-1.18565E-05 1.94002E-05 2.63448E-18-1.73451E-18
 -1      3049 7.15899E-05-3.41500E-05-1.55391E-05 3.36521E-05 3.43620E-18 3.62742E-19
 -1      3050 1.30375E-04-3.97291E-05-3.89697E-05-1.45646E-05-3.24202E-19-5.79053E-19
 -1      3051 1.22742E-04-1.45411E-05-4.67867E-05 7.36000E-08-7.88270E-19 6.42382E-19
 -1      3052 1.26522E-04-2.36867E-05-4.43583E-05 1.30495E-05-1.79931E-18 7.69424E-19
 -1      3053 1.35087E-04-4.10802E-05-4.02961E-05 1.32428E-05-1.94886E-18 8.27551E-19
 -1      3054 1.31235E-04-5.16310E-05-3.43327E-05 3.62663E-06-2.27005E-19-5.58367E-19
 -1      3055 1.24871E-04-4.79555E-05-3.30061E-05 5.07588E-06 3.15401E-19-5.30593E-19
 -1      3056 1.23197E-04-4.81730E-05-3.20858E-05 1.27208E-06 2.22885E-19-4.34382E-19
 -1      3057 1.29464E-04-5.57773E-05-3.14146E-05-4.97470E-06 2.67212E-20-6.64497E-19
 -1      3058 1.19099E-04-5.63521E-05-2.66935E-05 2.15918E-05-9.93252E-19-2.58086E-18
 -1      3059 4.01921E-05-1.49409E-05-1.01251E-05-1.17159E-05-1.91625E-18 2.19297E-18
 -1      3060 9.28852E-05-2.43424E-05-2.93710E-05 5.76985E-06-3.84233E-19 1.55121E-18
 -1      3061 9.33140E-05-2.44327E-05-2.95389E-05 5.40374E-06 4.93773E-20 3.37897E-19
 -1      3062 9.39432E-05-2.50607E-05-2.95061E-05 5.60857E-06-1.06910E-18-9.52764E-19
 -1      3063 9.49448E-05-2.60679E-05-2.95277E-05 5.59030E-06-2.02794E-18-2.46774E-18
 -1      3064 4.13530E-05-1.52745E-05-1.05048E-05 1.38461E-05-2.11607E-18 4.09646E-19
 -1      3065 8.62844E-05-4.29113E-05-1.81396E-05-3.61015E-05-5.00279E-19-1.53631E-19
 -1      3066 9.42923E-05-2.51303E-05-2.96416E-05-5.91503E-06 3.29003E-19-1.91971E-18
 -1      3067 1.31738E-04-3.30306E-05-4.26118E-05-1.21581E-05 6.22781E-19-2.33951E-18
 -1      3068 1.27260E-04-5.88319E-05-2.91360E-05 1.61048E-05 9.17548E-19 3.28172E-18
 -1      3069 9.43495E-05-2.14219E-05-3.12587E-05 7.23085E-06 6.25258E-19 5.22133E-19
 -1      3070 1.25298E-04-1.73172E-05-4.67137E-05-9.86663E-06 2.12288E-18-1.84505E-18
 -1      3071 1.15684E-04-5.64460E-05-2.52983E-05-2.60292E-05 2.61945E-19-1.75807E-18
 -1      3072 5.93480E-05-2.76369E-05-1.29709E-05-3.10385E-05 2.55804E-19 3.60794E-18
 -1      3073 1.20854E-04-4.94991E-05-3.07426E-05-4.52247E-06 7.55211E-19-7.26655E-19
 -1      3074 1.24187E-04-2.09697E-05-4.45920E-05 1.16999E-05 1.24641E-18 3.25631E-19
 -1      3075 9.03775E-05-1.48813E-05-3.23757E-05-2.18062E-06 1.72382E-19 5.06913E-20
 -1      3076 9.05602E-05-1.51449E-05-3.23429E-05-3.13319E-06 8.05452E-20 6.50495E-21
 -1      3077 9.18092E-05-1.71643E-05-3.19754E-05-3.14687E-06 3.56126E-20-2.97032E-20
 -1      3078 9.14375E-05-1.65810E-05-3.20684E-05-1.58519E-06 1.63784E-19 6.97545E-20
 -1      3079 1.37874E-04-5.21971E-05-3.67776E-05-4.10523E-06 3.07354E-19 1.21697E-18
 -1      3080 4.12818E-05-1.28549E-05-1.16102E-05-4.40289E-06 4.21889E-19-1.17399E-18
 -1      3081 1.21401E-04-5.83061E-05-2.68687E-05-2.17246E-05 9.61806E-19-1.15514E-19
 -1      3082 9.46160E-05-2.24667E-05-3.09129E-05 5.70708E-06 6.02421E-19 4.21496E-19
 -1      3083 9.43964E-05-2.54314E-05-2.95585E-05-6.74194E-06-6.19925E-20-2.35876E-18
 -1      3084 9.36177E-05-2.45975E-05-2.95844E-05-6.21010E-06-1.97928E-19-1.71720E-18
 -1      3085 9.31165E-05-2.43479E-05-2.94658E-05-6.64156E-06-2.76322E-19-2.07512E-18
 -1      3086 9.45189E-05-2.55492E-05-2.95497E-05-7.25201E-06-1.80569E-19-2.08997E-18
 -1      3087 1.18243E-04-1.52589E-05-4.46595E-05-8.40821E-06 1.78269E-18-5.59809E-19
 -1      3088 1.21807E-04-2.10011E-05-4.35233E-05-1.24480E-05 1.49004E-18-1.76109E-18
 -1      3089 9.42914E-05-2.18775E-05-3.10629E-05 4.96891E-06 5.86420E-19 3.59882E-19
 -1      3090 9.38201E-05-2.09065E-05-3.12503E-05 4.62841E-06 5.81257E-19 3.96698E-19
 -1      3091 9.25816E-05-1.82267E-05-3.18834E-05-6.83895E-06-1.29509E-19-3.06758E-19
 -1      3092 9.32031E-05-1.92294E-05-3.17395E-05-7.34637E-06-2.12496E-19-3.21580E-19
 -1      3093 9.41079E-05-2.12310E-05-3.12223E-05-6.04196E-06-1.65711E-19-2.36740E-19
 -1      3094 9.32908E-05-1.96042E-05-3.15558E-05-5.59344E-06-8.25257E-20-3.04031E-19
 -1      3095 1.21784E-04-5.51932E-05-2.87879E-05 1.44109E-05-7.51424E-19-1.65137E-18
 -1      3096 1.12648E-04-5.24067E-05-2.53601E-05 2.31151E-05-1.35843E-18-1.77125E-18
 -1      3097 9.54146E-05-2.73329E-05-2.91847E-05 2.69369E-07 3.65097E-19 2.65727E-19
 -1      3098 9.54758E-05-2.69296E-05-2.93617E-05 8.34749E-07 3.40686E-19 2.92865E-19
 -1      3099 9.56882E-05-2.68649E-05-2.94806E-05-7.40608E-07-1.88749E-19 1.63754E-19
 -1      3100 9.56640E-05-2.73090E-05-2.93030E-05-2.10194E-07-7.51602E-20 1.75795E-19
 -1      3101 9.57075E-05-2.76880E-05-2.91402E-05 1.77364E-07-6.01807E-20 2.44346E-19
 -1      3102 9.56718E-05-2.79670E-05-2.90206E-05 5.02813E-07-1.52938E-19 1.39750E-19
 -1      3103 9.59081E-05-2.73049E-05-2.94045E-05-1.48101E-07-6.07676E-20 3.44725E-20
 -1      3104 9.56625E-05-2.81955E-05-2.89067E-05 7.37104E-07-2.39043E-19 2.34224E-19
 -1      3105 9.56320E-05-2.83659E-05-2.88301E-05 9.20929E-07-1.04787E-19 5.97462E-20
 -1      3106 9.59464E-05-2.80095E-05-2.91195E-05 5.07999E-07-1.54410E-19 2.46249E-19
 -1      3107 9.55971E-05-2.84936E-05-2.87538E-05 1.04899E-06 1.79578E-19-9.53689E-20
 -1      3108 9.55766E-05-2.85899E-05-2.87086E-05 1.14160E-06 2.07163E-19 2.15172E-20
 -1      3109 9.59078E-05-2.84331E-05-2.89213E-05 8.98238E-07-1.48777E-20 4.00600E-20
 -1      3110 9.55301E-05-2.86484E-05-2.86610E-05 1.20248E-06 2.66351E-19 1.69138E-19
 -1      3111 9.55191E-05-2.86923E-05-2.86389E-05 1.24204E-06 5.75272E-20 2.08350E-19
 -1      3112 9.58317E-05-2.86621E-05-2.87901E-05 1.10916E-06 2.77050E-19-3.43143E-19
 -1      3113 9.54679E-05-2.87018E-05-2.86131E-05 1.26655E-06-2.61697E-20 3.32444E-19
 -1      3114 9.54647E-05-2.87076E-05-2.86082E-05 1.28180E-06 7.47296E-20 6.03096E-19
 -1      3115 9.57384E-05-2.87536E-05-2.87103E-05 1.21153E-06 2.75014E-19-1.21364E-19
 -1      3116 9.54114E-05-2.86810E-05-2.85991E-05 1.29380E-06-7.79484E-20 5.67513E-19
 -1      3117 9.54142E-05-2.86577E-05-2.86073E-05 1.30652E-06-2.37555E-19 4.00840E-19
 -1      3118 9.56372E-05-2.87453E-05-2.86699E-05 1.26109E-06-7.55664E-20 3.66283E-19
 -1      3119 9.53592E-05-2.86030E-05-2.86111E-05 1.32451E-06-4.79618E-19 6.87351E-19
 -1      3120 9.53664E-05-2.85566E-05-2.86297E-05 1.35161E-06-5.21550E-19 3.28949E-19
 -1      3121 9.55315E-05-2.86616E-05-2.86600E-05 1.30109E-06-3.12139E-19 5.40937E-19
 -1      3122 9.53083E-05-2.84782E-05-2.86436E-05 1.39029E-06-4.68256E-19 2.85594E-19
 -1      3123 9.53188E-05-2.84119E-05-2.86708E-05 1.44537E-06-4.23684E-19 1.21029E-19
 -1      3124 9.54202E-05-2.85171E-05-2.86738E-05 1.36545E-06-5.80720E-19 3.51403E-19
 -1      3125 9.52549E-05-2.83117E-05-2.86929E-05 1.51686E-06-3.80332E-19 1.91558E-19
 -1      3126 9.52678E-05-2.82271E-05-2.87276E-05 1.61144E-06-2.46954E-19 2.34661E-22
 -1      3127 9.52996E-05-2.83198E-05-2.87062E-05 1.48144E-06-4.10596E-19 2.40823E-19
 -1      3128 9.51944E-05-2.81053E-05-2.87563E-05 1.72621E-06-4.86763E-19-3.45864E-19
 -1      3129 9.52089E-05-2.80030E-05-2.87978E-05 1.87045E-06-8.77109E-19-5.78596E-19
 -1      3130 9.51635E-05-2.80728E-05-2.87532E-05 1.67186E-06-7.31699E-19-6.90062E-20
 -1      3131 9.51212E-05-2.78588E-05-2.88314E-05 2.03791E-06-1.04811E-18-2.34932E-19
 -1      3132 9.51367E-05-2.77393E-05-2.88793E-05 2.24098E-06-9.06258E-19-2.16229E-19
 -1      3133 9.50036E-05-2.77761E-05-2.88112E-05 1.95656E-06-8.85609E-19-4.17621E-19
 -1      3134 9.50291E-05-2.75717E-05-2.89160E-05 2.46979E-06-4.66443E-19-1.16807E-19
 -1      3135 9.50451E-05-2.74364E-05-2.89692E-05 2.73987E-06-3.28961E-19 2.38128E-19
 -1      3136 9.48099E-05-2.74286E-05-2.88763E-05 2.35326E-06-5.49625E-19 1.26343E-19
 -1      3137 9.49118E-05-2.72461E-05-2.90064E-05 3.03791E-06-3.88762E-19 7.41135E-19
 -1      3138 9.49284E-05-2.70986E-05-2.90632E-05 3.38174E-06-1.37726E-19 4.83826E-19
 -1      3139 9.45712E-05-2.70308E-05-2.89436E-05 2.87789E-06-1.42807E-19 7.04082E-19
 -1      3140 9.47643E-05-2.68894E-05-2.90972E-05 3.75594E-06-2.08336E-19 3.38189E-19
 -1      3141 9.47837E-05-2.67387E-05-2.91547E-05 4.17787E-06-1.60735E-19 1.30078E-19
 -1      3142 9.42764E-05-2.65880E-05-2.90060E-05 3.54443E-06-2.37716E-19 5.21913E-19
 -1      3143 9.45862E-05-2.65213E-05-2.91797E-05 4.63398E-06-1.49870E-19-3.31680E-20
 -1      3144 9.46155E-05-2.63852E-05-2.92331E-05 5.13459E-06-2.43625E-21-5.36728E-19
 -1      3145 9.39176E-05-2.61161E-05-2.90534E-05 4.36473E-06-2.71753E-19 3.94397E-19
 -1      3146 9.43889E-05-2.61823E-05-2.92414E-05 5.67703E-06 6.11225E-19-5.49541E-19
 -1      3147 9.44452E-05-2.60944E-05-2.92834E-05 6.25114E-06 1.15071E-18-9.01625E-19
 -1      3148 9.34957E-05-2.56501E-05-2.90714E-05 5.34856E-06 1.32542E-19-9.36407E-20
 -1      3149 9.42081E-05-2.59486E-05-2.92642E-05 6.88325E-06 1.71354E-18-9.80410E-19
 -1      3150 9.43281E-05-2.59678E-05-2.92853E-05 7.51742E-06 1.76110E-18-1.05623E-18
 -1      3151 9.30309E-05-2.52574E-05-2.90403E-05 6.50484E-06 1.51970E-18-2.54288E-19
 -1      3152 9.41253E-05-2.59531E-05-2.92255E-05 8.24211E-06 9.62411E-19-7.69566E-19
 -1      3153 9.43809E-05-2.61769E-05-2.92146E-05 8.91087E-06 1.87662E-19-6.87415E-20
 -1      3154 9.25816E-05-2.50576E-05-2.89351E-05 7.84461E-06 1.42317E-18-1.20633E-18
 -1      3155 9.43047E-05-2.64142E-05-2.91005E-05 9.73049E-06-1.49163E-19 3.00292E-19
 -1      3156 9.48252E-05-2.69942E-05-2.90485E-05 1.03895E-05-1.83740E-19 1.71270E-19
 -1      3157 9.22757E-05-2.52495E-05-2.87270E-05 9.38548E-06 3.34512E-19-7.73350E-19
 -1      3158 9.50469E-05-2.76673E-05-2.88715E-05 1.12996E-05-4.48541E-19-4.36030E-20
 -1      3159 9.60452E-05-2.88209E-05-2.87804E-05 1.18696E-05-4.88896E-19 9.05424E-20
 -1      3160 9.23603E-05-2.61479E-05-2.83907E-05 1.11528E-05-3.54368E-19-5.07775E-19
 -1      3161 9.68618E-05-3.01855E-05-2.85492E-05 1.28279E-05-2.58694E-19 1.23908E-19
 -1      3162 9.86476E-05-3.21750E-05-2.84490E-05 1.31532E-05 1.87441E-19 3.81211E-19
 -1      3163 9.32808E-05-2.82240E-05-2.79212E-05 1.31557E-05-2.89677E-19-2.28414E-19
 -1      3164 1.00531E-04-3.45329E-05-2.82126E-05 1.40098E-05 5.08999E-19 6.08212E-19
 -1      3165 1.03441E-04-3.75806E-05-2.81930E-05 1.37825E-05 5.05361E-19 7.60748E-19
 -1      3166 9.57685E-05-3.21107E-05-2.73685E-05 1.52959E-05 6.32037E-19-1.11745E-19
 -1      3167 1.07092E-04-4.11155E-05-2.81172E-05 1.39191E-05 4.64514E-19 8.49453E-19
 -1      3168 1.11212E-04-4.48565E-05-2.84041E-05 1.25326E-05 6.95282E-19 7.48010E-19
 -1      3169 1.01043E-04-3.85995E-05-2.69184E-05 1.71066E-05 6.83992E-19 2.39949E-19
 -1      3170 1.17000E-04-4.91559E-05-2.88892E-05 1.11541E-05 5.13391E-19 6.02636E-19
 -1      3171 1.21947E-04-5.22494E-05-2.99327E-05 7.75297E-06 4.71109E-19 6.52533E-19
 -1      3172 1.10025E-04-4.67568E-05-2.71894E-05 1.66236E-05 4.23725E-19 9.89176E-19
 -1      3173 1.23452E-04-5.63438E-05-2.90189E-05-1.43438E-05 5.30243E-19-3.75328E-19
 -1      3174 1.22091E-04-5.27975E-05-2.96811E-05-8.90740E-06 8.47867E-19-9.36412E-19
 -1      3175 1.16954E-04-4.92892E-05-2.87603E-05-1.18503E-05 1.17031E-18-1.18194E-18
 -1      3176 1.13409E-04-5.33943E-05-2.52793E-05-2.34439E-05 1.28730E-18 4.16078E-19
 -1      3177 1.03488E-04-3.77405E-05-2.81371E-05-1.45166E-05 4.03522E-19-3.11165E-20
 -1      3178 1.00578E-04-3.47196E-05-2.81532E-05-1.47810E-05 2.73726E-19-3.57481E-19
 -1      3179 9.87451E-05-3.23940E-05-2.83949E-05-1.39912E-05 1.86969E-19-5.16408E-19
 -1      3180 9.69629E-05-3.04018E-05-2.84986E-05-1.37119E-05 1.34224E-19 5.41462E-19
 -1      3181 9.60270E-05-3.23875E-05-2.73526E-05-1.60718E-05 5.15159E-19 1.08852E-18
 -1      3182 9.61793E-05-2.90338E-05-2.87456E-05-1.28021E-05-1.95321E-19-2.92195E-19
 -1      3183 9.51744E-05-2.78523E-05-2.88469E-05-1.22691E-05 4.63102E-19 8.98848E-20
 -1      3184 9.36097E-05-2.85274E-05-2.79316E-05-1.40430E-05 2.61692E-19-1.89350E-19
 -1      3185 9.49748E-05-2.71439E-05-2.90489E-05-1.13950E-05 7.51990E-19-1.36750E-19
 -1      3186 9.44349E-05-2.64960E-05-2.91206E-05-1.07503E-05 1.01524E-18-1.28678E-18
 -1      3187 9.27425E-05-2.64038E-05-2.84460E-05-1.21185E-05 3.86613E-19-2.38064E-18
 -1      3188 9.45135E-05-2.61764E-05-2.92729E-05-9.94182E-06 1.27261E-18-1.40006E-18
 -1      3189 9.42324E-05-2.58367E-05-2.93180E-05-9.24568E-06 1.07761E-18-7.01276E-19
 -1      3190 9.26839E-05-2.53665E-05-2.88510E-05-1.03904E-05 8.07474E-19-2.38554E-18
 -1      3191 9.44940E-05-2.57851E-05-2.94366E-05-8.60023E-06 5.51091E-19-6.17756E-20
 -1      3192 9.43181E-05-2.55745E-05-2.94647E-05-7.86939E-06-1.46642E-19-4.12823E-19
 -1      3193 9.35234E-05-2.49396E-05-2.93959E-05-7.67083E-06-9.32068E-19-2.46712E-18
 -1      3194 9.30671E-05-2.50179E-05-2.91629E-05-8.93379E-06 1.37656E-18-1.83944E-18
 -1      3195 9.53754E-05-2.79321E-05-2.89080E-05-4.94052E-07 4.43718E-19 2.59065E-19
 -1      3196 9.54281E-05-2.76796E-05-2.90221E-05-1.54551E-07 4.75474E-19 3.10022E-19
 -1      3197 9.56982E-05-2.73152E-05-2.93124E-05 2.13766E-07 4.49007E-19 3.48563E-19
 -1      3198 1.09417E-04-5.32507E-05-2.42355E-05 2.70439E-05 1.07017E-18 3.65478E-18
 -1      3199 9.67669E-05-4.62037E-05-2.12447E-05 3.09142E-05 2.10218E-18 2.21899E-18
 -1      3200 9.52479E-05-2.86481E-05-2.85408E-05-1.29184E-06 3.35386E-19 9.13706E-19
 -1      3201 9.52260E-05-2.86312E-05-2.85396E-05-1.28324E-06 3.61532E-19 6.65982E-19
 -1      3202 9.52596E-05-2.86152E-05-2.85606E-05-1.26114E-06 2.13710E-19 5.18951E-19
 -1      3203 9.52496E-05-2.85661E-05-2.85758E-05-1.22578E-06 3.89740E-20 5.76972E-19
 -1      3204 9.55247E-05-2.86941E-05-2.86445E-05-1.25200E-06 1.08198E-19 6.22939E-19
 -1      3205 9.52574E-05-2.85654E-05-2.85792E-05-1.32750E-06-3.20649E-21 1.16547E-18
 -1      3206 9.52199E-05-2.85906E-05-2.85566E-05-1.31204E-06 1.06516E-19 1.06152E-18
 -1      3207 9.52755E-05-2.84715E-05-2.86267E-05-1.39584E-06 3.20131E-20 1.06743E-18
 -1      3208 9.52313E-05-2.85110E-05-2.85963E-05-1.35575E-06 1.82541E-19 1.26737E-18
 -1      3209 9.53556E-05-2.85544E-05-2.86304E-05-1.36676E-06 5.97379E-22 7.95727E-19
 -1      3210 9.53022E-05-2.83515E-05-2.86890E-05-1.52925E-06 5.56639E-19 6.14115E-19
 -1      3211 9.52502E-05-2.84022E-05-2.86516E-05-1.45421E-06 3.85909E-19 9.51623E-19
 -1      3212 9.53048E-05-2.84140E-05-2.86685E-05-1.46024E-06 3.34831E-19 9.42203E-19
 -1      3213 9.53386E-05-2.82107E-05-2.87643E-05-1.74583E-06 6.18366E-19 6.30584E-19
 -1      3214 9.52768E-05-2.82697E-05-2.87204E-05-1.62746E-06 5.29773E-19 6.56793E-19
 -1      3215 9.52543E-05-2.82405E-05-2.87209E-05-1.62309E-06 4.24953E-19 4.15437E-19
 -1      3216 9.53879E-05-2.80553E-05-2.88514E-05-2.06015E-06-5.72916E-20 7.82491E-19
 -1      3217 9.53130E-05-2.81187E-05-2.88010E-05-1.89192E-06 3.56474E-19 8.85091E-19
 -1      3218 9.52031E-05-2.80397E-05-2.87849E-05-1.87354E-06 3.32722E-19 1.04412E-18
 -1      3219 9.54558E-05-2.78947E-05-2.89486E-05-2.48299E-06 2.04437E-20 2.91197E-19
 -1      3220 9.53628E-05-2.79567E-05-2.88922E-05-2.26059E-06 3.94447E-20 5.45772E-19
 -1      3221 9.51518E-05-2.78187E-05-2.88575E-05-2.22640E-06 2.43851E-19 8.18759E-19
 -1      3222 9.55523E-05-2.77447E-05-2.90536E-05-3.01989E-06-3.07985E-19 3.19046E-19
 -1      3223 9.54341E-05-2.77958E-05-2.89919E-05-2.74219E-06-1.16913E-19 3.91752E-19
 -1      3224 9.51041E-05-2.75890E-05-2.89354E-05-2.69282E-06-1.13841E-19 5.08932E-19
 -1      3225 9.56943E-05-2.76314E-05-2.91625E-05-3.66851E-06 2.84942E-19 3.92129E-19
 -1      3226 9.55405E-05-2.76568E-05-2.90971E-05-3.33931E-06-1.33442E-19 3.83593E-19
 -1      3227 9.50693E-05-2.73704E-05-2.90143E-05-3.27905E-06-2.82528E-19 3.06416E-19
 -1      3228 9.59105E-05-2.75974E-05-2.92694E-05-4.41465E-06 2.12236E-19 6.77486E-19
 -1      3229 9.57052E-05-2.75734E-05-2.92030E-05-4.04514E-06 5.86240E-19 9.44613E-19
 -1      3230 9.50661E-05-2.71963E-05-2.90881E-05-3.98435E-06 2.03249E-19 9.54757E-19
 -1      3231 9.62480E-05-2.77083E-05-2.93663E-05-5.22638E-06-1.17282E-19 7.76896E-19
 -1      3232 9.59671E-05-2.75995E-05-2.93027E-05-4.83870E-06 1.22039E-20 7.80336E-19
 -1      3233 9.51294E-05-2.71207E-05-2.91489E-05-4.79758E-06 1.55333E-19 1.12537E-18
 -1      3234 9.67819E-05-2.80610E-05-2.94443E-05-6.04599E-06-1.25147E-19 1.61955E-18
 -1      3235 9.63889E-05-2.78164E-05-2.93879E-05-5.67790E-06-1.68551E-20 1.32581E-18
 -1      3236 9.53189E-05-2.72265E-05-2.91872E-05-5.69247E-06-4.05776E-19 1.10864E-18
 -1      3237 9.76258E-05-2.87881E-05-2.94955E-05-6.77867E-06-6.27221E-19 1.68411E-18
 -1      3238 9.70689E-05-2.83402E-05-2.94501E-05-6.48957E-06-4.19941E-19 1.33461E-18
 -1      3239 9.57326E-05-2.76351E-05-2.91938E-05-6.62011E-06-3.82082E-19 1.88283E-18
 -1      3240 9.89399E-05-3.00534E-05-2.95191E-05-7.27674E-06-2.07224E-19 1.18138E-18
 -1      3241 9.81513E-05-2.93233E-05-2.94847E-05-7.15484E-06-2.05664E-19 1.63145E-18
 -1      3242 9.65214E-05-2.85115E-05-2.91637E-05-7.49675E-06-4.25103E-19 1.53742E-18
 -1      3243 1.00923E-04-3.20198E-05-2.95319E-05-7.31833E-06-6.09210E-19 6.35146E-19
 -1      3244 9.98301E-05-3.09396E-05-2.94996E-05-7.48789E-06-1.49815E-19 1.13747E-18
 -1      3245 9.79015E-05-3.00576E-05-2.91041E-05-8.18229E-06-3.27028E-19 1.59858E-18
 -1      3246 1.03767E-04-3.47657E-05-2.95844E-05-6.58511E-06-1.03066E-18 1.05058E-19
 -1      3247 1.02326E-04-3.33302E-05-2.95281E-05-7.20877E-06-8.55322E-19 3.10546E-19
 -1      3248 1.00148E-04-3.24708E-05-2.90482E-05-8.44510E-06-5.21114E-19 1.13812E-18
 -1      3249 1.07527E-04-3.81016E-05-2.97851E-05-4.65130E-06-1.05982E-18 9.71772E-20
 -1      3250 1.05807E-04-3.64795E-05-2.96510E-05-5.91098E-06-9.13720E-19 2.21009E-19
 -1      3251 1.03548E-04-3.58417E-05-2.90773E-05-7.91283E-06-9.72099E-19 5.59632E-19
 -1      3252 1.11840E-04-4.12169E-05-3.03213E-05-1.06210E-06-1.16396E-18 1.06680E-18
 -1      3253 1.10161E-04-3.99396E-05-3.00243E-05-3.06868E-06-1.20735E-18 8.86680E-19
 -1      3254 1.08243E-04-3.99005E-05-2.93587E-05-5.96321E-06-1.73396E-18 8.93765E-19
 -1      3255 1.15687E-04-4.25043E-05-3.14268E-05 4.15757E-06-3.22104E-20 1.61687E-18
 -1      3256 1.14611E-04-4.24471E-05-3.08758E-05 1.61142E-06-5.68475E-19 1.27925E-18
 -1      3257 1.13740E-04-4.35111E-05-3.01635E-05-1.98540E-06-1.38030E-18 1.75440E-18
 -1      3258 1.17341E-04-3.96381E-05-3.33084E-05 9.89687E-06 5.38299E-19 2.21346E-18
 -1      3259 1.17570E-04-4.19226E-05-3.24473E-05 7.67625E-06-1.99627E-19 1.91950E-18
 -1      3260 1.18622E-04-4.45060E-05-3.18449E-05 4.33293E-06-5.37998E-19 1.28509E-18
 -1      3261 1.15296E-04-3.16261E-05-3.58415E-05 1.30638E-05 1.65021E-18 2.86189E-18
 -1      3262 1.17033E-04-3.63105E-05-3.47885E-05 1.26349E-05 1.89187E-18 2.43753E-18
 -1      3263 1.20522E-04-4.00035E-05-3.44961E-05 1.11766E-05 7.64480E-19 2.18583E-18
 -1      3264 1.08320E-04-1.71497E-05-3.92830E-05-2.28363E-08 6.84747E-19 1.40191E-18
 -1      3265 1.08963E-04-1.82244E-05-3.90877E-05 4.72503E-06 8.88326E-20 1.84293E-18
 -1      3266 1.12452E-04-2.29843E-05-3.86017E-05-1.05612E-05 1.57687E-18 6.82755E-20
 -1      3267 1.10573E-04-1.90467E-05-3.93529E-05-6.85084E-06 1.06176E-18 6.86077E-19
 -1      3268 1.17899E-04-4.04799E-05-3.32241E-05-9.55226E-06 1.19817E-18 9.87303E-19
 -1      3269 1.16909E-04-3.71249E-05-3.41991E-05-1.11808E-05 1.70617E-18 5.33442E-19
 -1      3270 1.16046E-04-4.28677E-05-3.13203E-05-3.36618E-06-2.45276E-20 3.82657E-19
 -1      3271 1.16646E-04-4.21326E-05-3.20016E-05-5.90195E-06 8.88447E-19 1.06775E-18
 -1      3272 1.19961E-04-4.38849E-05-3.27269E-05-6.37319E-06 5.96046E-19 1.57107E-18
 -1      3273 1.11923E-04-4.13021E-05-3.01985E-05 2.13141E-06-6.04189E-19 1.80909E-19
 -1      3274 1.13476E-04-4.22442E-05-3.05929E-05-1.75318E-07-8.14676E-19 3.31061E-19
 -1      3275 1.15954E-04-4.46587E-05-3.06324E-05 4.35142E-07-2.51776E-19 3.85695E-19
 -1      3276 1.07380E-04-3.80227E-05-2.96602E-05 5.78755E-06 8.62239E-19-7.56507E-19
 -1      3277 1.09167E-04-3.96022E-05-2.98533E-05 4.18383E-06 1.00784E-20-8.00235E-19
 -1      3278 1.10446E-04-4.17014E-05-2.95319E-05 5.38766E-06 1.84720E-19-1.17957E-18
 -1      3279 1.03498E-04-3.46473E-05-2.94591E-05 7.73310E-06 3.44560E-19-9.11633E-19
 -1      3280 1.05094E-04-3.62072E-05-2.95419E-05 6.83012E-06 1.17591E-18-9.49251E-19
 -1      3281 1.05355E-04-3.76448E-05-2.90857E-05 8.17243E-06 7.95865E-19-7.42194E-19
 -1      3282 1.00597E-04-3.18887E-05-2.94152E-05 8.44598E-06 5.70054E-19 1.48597E-19
 -1      3283 1.01859E-04-3.31515E-05-2.94511E-05 8.08057E-06 1.03909E-19-3.42249E-19
 -1      3284 1.01456E-04-3.39229E-05-2.89943E-05 9.27788E-06 2.79782E-19-1.20767E-18
 -1      3285 9.85792E-05-2.98746E-05-2.94261E-05 8.36567E-06 3.36398E-19 6.60989E-19
 -1      3286 9.95207E-05-3.08026E-05-2.94487E-05 8.37284E-06 9.78523E-19 9.72001E-19
 -1      3287 9.87882E-05-3.10676E-05-2.90580E-05 9.35405E-06 1.45494E-19 9.35289E-19
 -1      3288 9.72397E-05-2.84936E-05-2.94467E-05 7.79356E-06-6.88387E-19-7.37462E-20
 -1      3289 9.79158E-05-2.91435E-05-2.94684E-05 8.04146E-06-1.51479E-19-2.06997E-20
 -1      3290 9.70803E-05-2.90668E-05-2.91703E-05 8.83575E-06 2.02165E-19 1.25251E-18
 -1      3291 1.27613E-04-2.05106E-05-4.61195E-05-1.22183E-05-9.22631E-19 2.04347E-19
 -1      3292 8.89139E-05-2.13815E-05-2.89552E-05 2.95860E-07 1.12475E-18 1.91342E-19
 -1      3293 8.91019E-05-2.15342E-05-2.89578E-05 1.50838E-06 9.16611E-19 9.52900E-19
 -1      3294 9.16469E-05-2.34036E-05-2.92413E-05-6.40575E-06-1.48958E-19-1.75271E-18
 -1      3295 9.08178E-05-2.27856E-05-2.91778E-05-5.70554E-06 1.47831E-18-2.18444E-18
 -1      3296 8.90914E-05-2.14629E-05-2.89870E-05-2.30271E-06 1.05762E-18-2.08304E-18
 -1      3297 8.89023E-05-2.13347E-05-2.89681E-05-1.10511E-06 1.54424E-18-3.83045E-19
 -1      3298 8.81012E-05-2.11869E-05-2.86587E-05-3.57696E-07 2.01263E-18 3.58971E-19
 -1      3299 4.21548E-05-1.27243E-05-1.23042E-05-5.27990E-06-2.20558E-18 1.15271E-18
 -1      3300 4.70666E-05-1.62341E-05-1.29213E-05-1.74072E-05-1.27219E-18 1.03391E-18
 -1      3301 9.24024E-05-1.83439E-05-3.17546E-05 1.81411E-06 4.55664E-19 1.07487E-19
 -1      3302 9.22841E-05-1.81417E-05-3.17871E-05 1.05937E-06 3.60205E-19 1.17706E-19
 -1      3303 9.00505E-05-2.21722E-05-2.90836E-05-4.67713E-06 1.19268E-18-3.59360E-18
 -1      3304 8.94907E-05-2.17676E-05-2.90425E-05-3.63504E-06 1.17076E-18-2.86700E-18
 -1      3305 8.85243E-05-2.14439E-05-2.87349E-05-3.18449E-06 9.84204E-19-2.43304E-18
 -1      3306 8.98596E-05-2.23837E-05-2.89062E-05-5.62974E-06 9.57133E-19-2.46617E-18
 -1      3307 9.52478E-05-2.86272E-05-2.85491E-05-1.30208E-06 2.44621E-19 9.48600E-19
 -1      3308 9.52173E-05-2.86341E-05-2.85359E-05-1.29834E-06 3.04850E-19 1.03987E-18
 -1      3309 9.54643E-05-2.87067E-05-2.86126E-05-1.29392E-06 1.62166E-19 8.76036E-19
 -1      3310 9.54082E-05-2.86552E-05-2.86101E-05-1.32050E-06 2.41898E-19 9.49324E-19
 -1      3311 8.24801E-05-3.88266E-05-1.87213E-05 3.34136E-05 2.83089E-18 8.99337E-19
 -1      3312 6.71411E-05-2.83599E-05-1.62220E-05 2.96679E-05 3.21947E-18-3.48342E-19
 -1      3313 1.11220E-04-4.50007E-05-2.83380E-05-1.33220E-05 1.32030E-18-1.13677E-19
 -1      3314 1.07035E-04-4.12031E-05-2.80569E-05-1.46727E-05 9.76685E-19-1.25025E-19
 -1      3315 1.01102E-04-3.87134E-05-2.68971E-05-1.77487E-05 9.32917E-19 7.58875E-19
 -1      3316 1.21339E-04-2.55469E-05-4.12542E-05 1.37458E-05 6.70056E-19 1.58705E-18
 -1      3317 1.17067E-04-1.75580E-05-4.31516E-05 1.00051E-05 1.17706E-18 1.83174E-18
 -1      3318 5.61380E-05-2.25631E-05-1.39497E-05-2.61230E-05-3.58930E-20 2.84465E-18
 -1      3319 6.89896E-05-3.14571E-05-1.60336E-05-3.29906E-05 7.86205E-19 3.17701E-18
 -1      3320 9.76194E-05-4.67312E-05-2.20788E-05 3.11042E-05-1.47760E-18-5.73944E-19
 -1      3321 8.22570E-05-3.75295E-05-1.86727E-05 3.31373E-05-1.13857E-18-1.81265E-19
 -1      3322 5.54044E-05-2.03924E-05-1.48201E-05 2.35607E-05 2.85543E-18-9.45712E-19
 -1      3323 4.73972E-05-1.45487E-05-1.38120E-05 1.33761E-05 1.56218E-18-8.07117E-19
 -1      3324 9.47395E-05-2.60135E-05-2.94470E-05 6.17650E-06-6.06497E-19-7.72784E-19
 -1      3325 1.30052E-04-5.76024E-05-3.12755E-05 8.16538E-06 3.72933E-19 1.80836E-18
 -1      3326 1.21120E-04-5.67897E-05-2.73127E-05 1.83684E-05 5.92367E-19 2.88600E-18
 -1      3327 8.44842E-05-3.99395E-05-1.85813E-05-3.36316E-05 1.67405E-18 2.29985E-18
 -1      3328 9.97493E-05-4.88954E-05-2.19961E-05-3.13937E-05 2.51638E-18 9.85470E-19
 -1      3329 7.13673E-05-3.15699E-05-1.69926E-05 3.28808E-05-1.30517E-18 2.28911E-19
 -1      3330 6.05164E-05-2.39621E-05-1.52214E-05 2.75681E-05-1.92470E-18-6.22357E-19
 -1      3331 8.18801E-05-3.44891E-05-1.99753E-05 2.92878E-05-2.22611E-18 5.72277E-20
 -1      3332 9.55208E-05-2.55676E-05-2.99576E-05-2.13895E-06-2.10847E-19-9.77779E-20
 -1      3333 9.55440E-05-2.62644E-05-2.97059E-05-1.33817E-06-2.01492E-19-3.42807E-20
 -1      3334 9.57138E-05-2.61821E-05-2.98003E-05-1.16835E-06-3.37717E-20 1.08086E-19
 -1      3335 1.15035E-04-1.32904E-05-4.39713E-05 5.33872E-06 1.54329E-18 1.31433E-18
 -1      3336 1.15834E-04-1.22998E-05-4.47242E-05-1.80942E-06 2.18482E-18 3.00455E-19
 -1      3337 4.51367E-05-1.19993E-05-1.37551E-05 3.62434E-06 8.30106E-19-4.78468E-19
 -1      3338 4.75476E-05-1.31174E-05-1.45331E-05-8.59731E-06-4.80228E-20 2.84921E-19
 -1      3339 4.86195E-05-1.66716E-05-1.35401E-05 1.87279E-05-3.07401E-18-9.62441E-19
 -1      3340 4.30630E-05-1.26890E-05-1.25738E-05 6.17432E-06-3.08637E-18 1.48739E-18
 -1      3341 1.26793E-04-4.07886E-05-3.70044E-05 1.07554E-05 1.24244E-18 2.46672E-19
 -1      3342 1.23490E-04-3.36802E-05-3.90182E-05 1.36907E-05 1.18690E-18 1.37043E-18
 -1      3343 9.52024E-05-2.42685E-05-3.04030E-05 4.28277E-06 4.87219E-19 5.04996E-19
 -1      3344 9.46407E-05-2.27162E-05-3.08086E-05 4.79789E-06 5.04370E-19 4.86358E-19
 -1      3345 9.49703E-05-2.35962E-05-3.05699E-05 3.70654E-06 4.75462E-19 3.93461E-19
 -1      3346 9.52382E-05-2.51991E-05-3.00303E-05 2.99905E-06 3.66499E-19 5.26693E-19
 -1      3347 1.25471E-04-2.84070E-05-4.21543E-05-1.33411E-05 1.21332E-18-2.13119E-18
 -1      3348 1.28733E-04-3.63782E-05-3.96263E-05-1.26193E-05 6.07429E-19-1.96247E-18
 -1      3349 1.19853E-04-2.58671E-05-4.05451E-05-1.28519E-05 1.20617E-18-6.98590E-19
 -1      3350 1.10586E-04-5.28630E-05-2.45573E-05-2.58312E-05-1.22555E-19-9.28356E-19
 -1      3351 1.21627E-04-5.69003E-05-2.78687E-05-1.91217E-05-1.20437E-19-1.57876E-18
 -1      3352 7.95467E-05-3.67632E-05-1.78194E-05-3.41213E-05-1.68168E-18-3.85982E-19
 -1      3353 9.52076E-05-4.59199E-05-2.11287E-05-3.25849E-05-1.07430E-18-3.96253E-19
 -1      3354 9.22244E-05-1.80414E-05-3.18058E-05 4.08961E-07 3.61833E-19 1.93259E-19
 -1      3355 9.22213E-05-1.80367E-05-3.18063E-05-3.59973E-07 2.87103E-19 2.07543E-19
 -1      3356 9.31769E-05-1.96216E-05-3.15061E-05 6.28924E-07 3.56888E-19 1.73113E-19
 -1      3357 9.43523E-05-2.19753E-05-3.09961E-05 3.63726E-06 5.30122E-19 3.39155E-19
 -1      3358 9.34494E-05-2.02135E-05-3.14115E-05 4.25162E-06 4.87847E-19 2.78314E-19
 -1      3359 9.30947E-05-1.95529E-05-3.15267E-05 3.65863E-06 4.74860E-19 1.70395E-19
 -1      3360 9.41812E-05-2.16390E-05-3.10993E-05-5.03290E-06-1.18308E-19-3.41800E-19
 -1      3361 9.46217E-05-2.25203E-05-3.09065E-05-5.12807E-06-9.37179E-20-2.69857E-19
 -1      3362 9.49275E-05-2.35091E-05-3.05898E-05-4.13862E-06-8.31159E-20-2.53505E-19
 -1      3363 1.24837E-04-5.51349E-05-2.98519E-05-1.05174E-05-3.15784E-19-5.49460E-19
 -1      3364 9.15784E-05-4.11532E-05-2.14271E-05 2.89359E-05 2.22447E-18 1.07205E-18
 -1      3365 1.27704E-04-4.16584E-05-3.70229E-05-9.65801E-06 3.32884E-19-1.79280E-18
 -1      3366 5.22870E-05-1.49059E-05-1.55089E-05-1.39799E-05-5.58023E-19 1.35525E-19
 -1      3367 5.90120E-05-1.85142E-05-1.71790E-05-1.83235E-05-1.13647E-18 3.56177E-19
 -1      3368 5.41697E-05-1.37608E-05-1.71993E-05-6.93037E-06 1.89524E-19 6.62909E-19
 -1      3369 1.20401E-04-5.42316E-05-2.85543E-05 1.37546E-05 4.48967E-19 1.03517E-18
 -1      3370 1.25845E-04-5.34425E-05-3.08047E-05 5.17731E-06 5.91421E-19 5.84420E-19
 -1      3371 1.10202E-04-4.74717E-05-2.71217E-05-1.76422E-05 1.58154E-18 1.97306E-19
 -1      3372 1.06564E-04-4.84608E-05-2.46805E-05-2.40739E-05 1.72186E-18 1.61010E-18
 -1      3373 1.30950E-04-5.52102E-05-3.25575E-05 1.86923E-06 2.42754E-19 1.09543E-18
 -1      3374 1.34262E-04-5.24316E-05-3.50994E-05-3.63614E-06 1.49144E-19 9.14478E-19
 -1      3375 9.28322E-05-2.44262E-05-2.93208E-05-7.33088E-06-1.13412E-18-2.95347E-18
 -1      3376 9.21875E-05-2.38626E-05-2.92915E-05-6.90245E-06-6.24141E-19-2.14457E-18
 -1      3377 9.13203E-05-2.34768E-05-2.90696E-05-7.13370E-06-3.67536E-19-2.52920E-18
 -1      3378 9.26272E-05-2.44495E-05-2.92124E-05-7.94708E-06-4.23988E-19-2.78693E-18
 -1      3379 9.51000E-05-2.43558E-05-3.03312E-05-3.30179E-06-1.94684E-19-2.39953E-19
 -1      3380 9.53252E-05-2.82969E-05-2.87278E-05-9.35102E-07 1.91417E-20 4.51949E-19
 -1      3381 9.53535E-05-2.81395E-05-2.87973E-05-7.47009E-07 1.83250E-19 2.99245E-19
 -1      3382 9.56977E-05-2.79743E-05-2.90294E-05-5.04119E-07 2.79478E-19 3.38133E-19
 -1      3383 9.51560E-05-2.42371E-05-3.03968E-05-2.91741E-06-2.05107E-19-9.32625E-20
 -1      3384 1.34074E-04-4.68750E-05-3.79702E-05-1.12715E-05-4.27222E-19 3.55436E-19
 -1      3385 1.15721E-04-5.32528E-05-2.66375E-05 1.92091E-05 8.06243E-19 2.17173E-18
 -1      3386 6.68685E-05-2.46453E-05-1.77163E-05 2.42680E-05 2.47035E-18-6.55762E-19
 -1      3387 9.55884E-05-2.85944E-05-2.87153E-05-1.14922E-06-1.00249E-19 5.37895E-19
 -1      3388 9.52850E-05-2.85083E-05-2.86183E-05-1.16305E-06-1.47657E-19 5.71514E-19
 -1      3389 9.52916E-05-2.84148E-05-2.86561E-05-1.07142E-06-1.70002E-19 4.01756E-19
 -1      3390 1.13018E-04-2.60292E-05-3.75590E-05 1.23193E-05 1.01567E-18 3.33676E-18
 -1      3391 1.18039E-04-2.92443E-05-3.81274E-05 1.37775E-05 1.19305E-18 3.57993E-18
 -1      3392 1.13423E-04-1.62187E-05-4.19203E-05-4.39780E-06 1.31057E-18 2.75749E-19
 -1      3393 1.10916E-04-2.14405E-05-3.84014E-05 9.57521E-06-1.19379E-19 2.72594E-18
 -1      3394 1.13427E-04-1.84501E-05-4.09581E-05 7.86624E-06 8.77526E-19 2.78559E-18
 -1      3395 1.15745E-04-3.27043E-05-3.57837E-05-1.30275E-05 1.83377E-18-1.31621E-20
 -1      3396 1.13489E-04-2.77146E-05-3.67862E-05-1.20920E-05 1.78679E-18 7.49252E-19
 -1      3397 9.67068E-05-2.79770E-05-2.94448E-05 7.50909E-06-9.99911E-19-3.18825E-19
 -1      3398 9.58923E-05-2.77113E-05-2.92394E-05 8.13558E-06-7.96733E-19-7.73203E-19
 -1      3399 9.61483E-05-2.74835E-05-2.94050E-05 7.27308E-06-7.91026E-19-1.22081E-18
 -1      3400 9.49583E-05-2.63840E-05-2.93760E-05 6.64478E-06-4.67963E-19-2.13335E-18
 -1      3401 9.53837E-05-2.68162E-05-2.93761E-05 7.02321E-06-5.36931E-19-1.73154E-18
 -1      3402 9.37204E-05-2.53841E-05-2.93089E-05 6.66336E-06 1.10575E-19 7.11511E-19
 -1      3403 9.07137E-05-2.29406E-05-2.90660E-05 4.83303E-06-4.48267E-19 1.45753E-18
 -1      3404 9.14424E-05-2.35099E-05-2.91020E-05 5.55291E-06-1.56592E-18 2.61236E-18
 -1      3405 9.21737E-05-2.41247E-05-2.91815E-05 6.05571E-06-1.43869E-18 1.49671E-18
 -1      3406 9.29844E-05-2.47619E-05-2.92249E-05 6.40065E-06-1.43911E-18 1.25239E-18
 -1      3407 9.30681E-05-2.51255E-05-2.91186E-05 6.98325E-06-7.09725E-19 6.24656E-21
 -1      3408 9.14405E-05-2.39181E-05-2.89385E-05 6.29524E-06-2.03706E-18 1.78964E-18
 -1      3409 1.25773E-04-5.12011E-05-3.22266E-05 8.27710E-07-1.71061E-19-9.35310E-19
 -1      3410 1.25520E-04-5.43033E-05-3.04040E-05 7.64281E-06-1.69334E-19-1.66971E-18
 -1      3411 1.19277E-04-5.18129E-05-2.89170E-05 1.06823E-05-6.63935E-19-8.36051E-19
 -1      3412 5.75782E-05-1.97594E-05-1.57030E-05-2.00162E-05-8.60665E-19 1.31671E-18
 -1      3413 8.95018E-05-2.19158E-05-2.89849E-05 2.80756E-06 5.37505E-19 1.22709E-18
 -1      3414 9.00172E-05-2.23159E-05-2.90063E-05 3.84033E-06 7.20278E-19 7.16975E-19
 -1      3415 8.85715E-05-2.16249E-05-2.86768E-05 2.43533E-06 7.43064E-19 8.23344E-19
 -1      3416 4.96414E-05-1.34662E-05-1.49820E-05 3.45420E-07-2.98673E-18 1.77506E-19
 -1      3417 1.26920E-04-4.59484E-05-3.49418E-05 7.11888E-06 1.03563E-19-4.17375E-19
 -1      3418 5.33684E-05-1.42778E-05-1.63643E-05 8.09223E-06 1.12954E-18-1.18320E-19
 -1      3419 8.03878E-05-3.48548E-05-1.91061E-05-3.01900E-05 1.40883E-18 2.13611E-18
 -1      3420 1.04645E-04-4.71587E-05-2.44942E-05 2.39902E-05-1.74388E-18-1.62266E-18
 -1      3421 9.25749E-05-1.86388E-05-3.16978E-05 2.42554E-06 4.63660E-19 2.20237E-20
 -1      3422 9.33879E-05-2.00108E-05-3.14287E-05 1.80425E-06 3.76064E-19 9.76195E-20
 -1      3423 9.28102E-05-1.90535E-05-3.16292E-05 3.12847E-06 4.92146E-19 4.95915E-20
 -1      3424 9.53828E-05-2.64855E-05-2.95346E-05 1.37406E-06 3.85692E-19 2.98245E-19
 -1      3425 9.54323E-05-2.58813E-05-2.97929E-05 2.25127E-06 3.63790E-19 3.03855E-19
 -1      3426 9.53596E-05-2.52270E-05-3.00739E-05 2.60483E-06 4.50522E-19 3.15102E-19
 -1      3427 9.55873E-05-2.63904E-05-2.96605E-05 1.23874E-06 3.65371E-19 2.33598E-19
 -1      3428 6.05960E-05-2.06924E-05-1.66873E-05 2.09413E-05-2.52088E-18 9.03572E-19
 -1      3429 1.32309E-04-3.70788E-05-4.08376E-05-1.47583E-05-3.41778E-19 3.60624E-19
 -1      3430 1.20081E-04-3.68775E-05-3.57430E-05-1.20225E-05 1.47155E-18 2.86509E-19
 -1      3431 1.29249E-04-3.00084E-05-4.32957E-05-1.62288E-05-1.35896E-19-1.25657E-18
 -1      3432 7.51260E-05-3.14222E-05-1.83649E-05-2.96293E-05-2.28540E-18-1.99238E-19
 -1      3433 1.04427E-04-4.90728E-05-2.35176E-05-2.74917E-05-1.00675E-18-1.24673E-18
 -1      3434 1.10554E-04-4.99114E-05-2.59472E-05-2.02771E-05-1.10135E-18-1.13404E-18
 -1      3435 9.70429E-05-4.33778E-05-2.29236E-05-2.73607E-05-1.56325E-18-1.12100E-18
 -1      3436 9.25527E-05-1.86060E-05-3.17025E-05-2.37814E-06 1.13873E-19 1.08848E-19
 -1      3437 9.27812E-05-1.90079E-05-3.16357E-05-3.08559E-06 1.16374E-20 1.34289E-20
 -1      3438 9.37698E-05-2.07526E-05-3.12737E-05-2.81527E-06-4.04077E-20 5.34667E-20
 -1      3439 9.30593E-05-1.94987E-05-3.15357E-05-3.61960E-06-5.44692E-20-5.95309E-20
 -1      3440 9.34115E-05-2.01294E-05-3.14251E-05-4.22738E-06-9.41795E-20-1.84101E-19
 -1      3441 9.38223E-05-2.09289E-05-3.12475E-05-4.75309E-06-1.68690E-19-3.37001E-19
 -1      3442 6.83922E-05-2.38494E-05-1.91695E-05 2.30061E-05-2.75368E-18 1.29792E-18
 -1      3443 5.90791E-05-1.68546E-05-1.77899E-05 1.45606E-05-3.39630E-18 1.43583E-18
 -1      3444 1.00543E-04-4.29199E-05-2.44414E-05-2.37905E-05 2.08022E-18 1.25296E-18
 -1      3445 9.61763E-05-2.77821E-05-2.93044E-05 2.75648E-07-1.71861E-19 3.42298E-22
 -1      3446 9.61700E-05-2.80881E-05-2.91822E-05 5.40824E-07-1.82350E-19 6.03027E-20
 -1      3447 9.61723E-05-2.83342E-05-2.90681E-05 7.16959E-07-1.42607E-19 1.40986E-19
 -1      3448 9.61394E-05-2.85143E-05-2.89841E-05 8.71614E-07 4.21303E-20 4.67429E-20
 -1      3449 9.63624E-05-2.81410E-05-2.92393E-05 5.25865E-07-8.97907E-20 1.17588E-19
 -1      3450 9.60958E-05-2.86454E-05-2.89039E-05 9.69235E-07 1.28061E-19-5.15045E-20
 -1      3451 9.60504E-05-2.87357E-05-2.88494E-05 1.05178E-06 2.19010E-19-1.36773E-19
 -1      3452 9.63229E-05-2.85692E-05-2.90392E-05 8.18638E-07-6.18507E-20 3.24006E-19
 -1      3453 9.59791E-05-2.87840E-05-2.87961E-05 1.10072E-06 3.53691E-19-4.50367E-19
 -1      3454 9.59283E-05-2.88092E-05-2.87644E-05 1.14250E-06 3.42421E-19-1.71721E-19
 -1      3455 9.62106E-05-2.87808E-05-2.89005E-05 9.81951E-07 1.03663E-19-5.03441E-20
 -1      3456 9.58400E-05-2.87970E-05-2.87322E-05 1.16723E-06 1.65323E-19-1.94384E-19
 -1      3457 9.57867E-05-2.87737E-05-2.87181E-05 1.19268E-06-2.15290E-19-2.75144E-19
 -1      3458 9.60538E-05-2.88335E-05-2.88105E-05 1.06965E-06 1.67158E-19-5.05166E-19
 -1      3459 9.56865E-05-2.87156E-05-2.87024E-05 1.21250E-06-3.42414E-19-6.20389E-20
 -1      3460 9.56310E-05-2.86544E-05-2.87019E-05 1.24071E-06-3.90568E-19 9.07581E-20
 -1      3461 9.58681E-05-2.87678E-05-2.87586E-05 1.12530E-06-2.70472E-19-5.36098E-19
 -1      3462 9.55199E-05-2.85594E-05-2.86990E-05 1.27091E-06-4.46041E-19 6.49020E-20
 -1      3463 9.54610E-05-2.84667E-05-2.87092E-05 1.31696E-06-3.72438E-19 2.94078E-19
 -1      3464 9.56595E-05-2.86095E-05-2.87365E-05 1.18350E-06-2.87795E-19-4.90881E-19
 -1      3465 9.53369E-05-2.83393E-05-2.87159E-05 1.36985E-06-3.25804E-19 3.80476E-19
 -1      3466 9.52719E-05-2.82182E-05-2.87343E-05 1.44603E-06-3.27918E-19 3.19796E-19
 -1      3467 9.54269E-05-2.83741E-05-2.87371E-05 1.27176E-06-2.62820E-19 3.65311E-19
 -1      3468 9.51301E-05-2.80600E-05-2.87479E-05 1.53182E-06-7.39211E-19 4.71420E-19
 -1      3469 9.50553E-05-2.79117E-05-2.87726E-05 1.64852E-06-1.06998E-18 5.04447E-19
 -1      3470 9.51637E-05-2.80692E-05-2.87542E-05 1.41237E-06-5.15987E-19 6.30257E-19
 -1      3471 9.48890E-05-2.77221E-05-2.87904E-05 1.77603E-06-8.88756E-19 1.42812E-19
 -1      3472 9.47997E-05-2.75464E-05-2.88193E-05 1.94227E-06-6.86833E-19 3.62223E-19
 -1      3473 9.48587E-05-2.76967E-05-2.87822E-05 1.62397E-06-1.04235E-18 9.01662E-19
 -1      3474 9.46003E-05-2.73241E-05-2.88384E-05 2.11930E-06-5.00046E-19 6.47861E-19
 -1      3475 9.44909E-05-2.71206E-05-2.88693E-05 2.34302E-06-2.81835E-19 7.72436E-19
 -1      3476 9.44969E-05-2.72555E-05-2.88151E-05 1.92252E-06-3.51687E-19 9.99955E-19
 -1      3477 9.42486E-05-2.68646E-05-2.88859E-05 2.57663E-06-1.75140E-19 8.21538E-19
 -1      3478 9.41132E-05-2.66346E-05-2.89155E-05 2.86470E-06-1.32112E-19 8.26866E-19
 -1      3479 9.40599E-05-2.67437E-05-2.88458E-05 2.32191E-06-2.30753E-19 1.26097E-18
 -1      3480 9.38170E-05-2.63458E-05-2.89248E-05 3.16146E-06-8.31425E-21 8.32726E-19
 -1      3481 9.36504E-05-2.60939E-05-2.89487E-05 3.51964E-06 4.69720E-20 7.90428E-19
 -1      3482 9.35272E-05-2.61617E-05-2.88653E-05 2.83453E-06-2.94432E-19 1.47176E-18
 -1      3483 9.32898E-05-2.57779E-05-2.89439E-05 3.88609E-06-6.79858E-19 7.21319E-19
 -1      3484 9.30894E-05-2.55158E-05-2.89556E-05 4.31900E-06-7.53354E-19 3.63465E-19
 -1      3485 9.28772E-05-2.55165E-05-2.88614E-05 3.47195E-06-3.68979E-19 1.44321E-18
 -1      3486 9.26559E-05-2.51865E-05-2.89276E-05 4.76283E-06-3.86046E-20 1.20667E-19
 -1      3487 9.24258E-05-2.49371E-05-2.89183E-05 5.27453E-06 6.99068E-19 3.02151E-19
 -1      3488 9.20906E-05-2.48274E-05-2.88176E-05 4.24680E-06-6.38515E-19 6.47988E-19
 -1      3489 9.19169E-05-2.46223E-05-2.88547E-05 5.80716E-06 1.17152E-18-4.32603E-20
 -1      3490 9.16750E-05-2.44279E-05-2.88128E-05 6.40269E-06 1.32940E-18-3.54046E-19
 -1      3491 9.11553E-05-2.41345E-05-2.87116E-05 5.17698E-06 5.24996E-19 4.82692E-19
 -1      3492 9.11001E-05-2.41772E-05-2.86977E-05 7.04419E-06 1.62559E-18-1.05252E-18
 -1      3493 9.08906E-05-2.41102E-05-2.86086E-05 7.73265E-06 1.29131E-18-8.24512E-19
 -1      3494 9.00752E-05-2.35112E-05-2.85141E-05 6.29415E-06 1.01274E-18-7.87118E-20
 -1      3495 9.02818E-05-2.40063E-05-2.84223E-05 8.51983E-06 5.96659E-19-8.65802E-19
 -1      3496 9.01955E-05-2.41850E-05-2.82706E-05 9.31854E-06 7.08587E-20-8.93853E-19
 -1      3497 8.88860E-05-2.30817E-05-2.81880E-05 7.65888E-06 9.36460E-19-9.07589E-19
 -1      3498 8.96268E-05-2.43597E-05-2.79908E-05 1.03162E-05-2.20371E-19-8.02931E-19
 -1      3499 8.98352E-05-2.49698E-05-2.77646E-05 1.12523E-05-1.65307E-19-5.97632E-19
 -1      3500 8.76823E-05-2.30481E-05-2.76884E-05 9.38372E-06 5.21895E-20-9.83034E-19
 -1      3501 8.94576E-05-2.56268E-05-2.73710E-05 1.25680E-05-4.39287E-19-7.95476E-19
 -1      3502 9.02638E-05-2.69594E-05-2.70743E-05 1.36687E-05-3.80884E-19-4.98952E-19
 -1      3503 8.66615E-05-2.37267E-05-2.69670E-05 1.16658E-05-4.36036E-19-8.31311E-19
 -1      3504 9.03891E-05-2.83869E-05-2.65610E-05 1.54020E-05 4.22934E-19-4.82186E-19
 -1      3505 9.22617E-05-3.08525E-05-2.62312E-05 1.66699E-05 1.11906E-18-7.94246E-19
 -1      3506 8.62507E-05-2.56669E-05-2.59849E-05 1.47987E-05 2.40652E-19-1.20894E-18
 -1      3507 9.34237E-05-3.33645E-05-2.56178E-05 1.87587E-05 1.32477E-18-4.05332E-19
 -1      3508 9.67985E-05-3.75293E-05-2.53456E-05 2.00766E-05 1.06521E-18 1.29616E-19
 -1      3509 8.73388E-05-2.98501E-05-2.47592E-05 1.90494E-05 1.14322E-18-4.27130E-19
 -1      3510 9.26637E-05-3.12122E-05-2.62481E-05-1.73116E-05 5.20459E-19 3.80149E-19
 -1      3511 9.08449E-05-2.88048E-05-2.65851E-05-1.61726E-05 7.66434E-19 4.65823E-19
 -1      3512 9.07734E-05-2.73475E-05-2.71228E-05-1.44657E-05 1.38928E-19 2.98142E-19
 -1      3513 9.00032E-05-2.60161E-05-2.74395E-05-1.34129E-05 9.56266E-20-4.73911E-19
 -1      3514 8.69011E-05-2.61300E-05-2.60659E-05-1.55181E-05-2.37996E-20-7.95628E-19
 -1      3515 9.04349E-05-2.53414E-05-2.78635E-05-1.21447E-05 8.44438E-21-9.01075E-19
 -1      3516 9.02482E-05-2.46825E-05-2.81192E-05-1.12359E-05 7.35796E-20-1.84562E-18
 -1      3517 8.74366E-05-2.41947E-05-2.71034E-05-1.24742E-05-1.70300E-19-4.81758E-20
 -1      3518 9.08606E-05-2.44514E-05-2.84449E-05-1.02672E-05 6.23850E-19-1.95370E-18
 -1      3519 9.09799E-05-2.41753E-05-2.86431E-05-9.47426E-06 1.23723E-18-1.19573E-18
 -1      3520 8.85525E-05-2.34175E-05-2.79045E-05-1.02525E-05 1.77628E-19 9.10684E-20
 -1      3521 1.19885E-04-5.27586E-05-2.86860E-05-1.18079E-05-7.05578E-19-3.78766E-19
 -1      3522 1.25488E-04-5.25725E-05-3.14146E-05-3.81129E-06-3.23494E-20-9.93146E-19
 -1      3523 9.53221E-05-2.83404E-05-2.87031E-05-1.45470E-06 2.11824E-19 6.04677E-19
 -1      3524 9.53484E-05-2.84291E-05-2.86820E-05-1.38973E-06 2.00307E-19 6.00970E-19
 -1      3525 9.54388E-05-2.85283E-05-2.86730E-05-1.34280E-06 1.76609E-19 6.95579E-19
 -1      3526 9.54657E-05-2.85958E-05-2.86600E-05-1.30613E-06 1.61365E-19 8.23757E-19
 -1      3527 9.54456E-05-2.84632E-05-2.87074E-05-1.32667E-06 2.59713E-19 9.81767E-19
 -1      3528 9.50599E-05-2.78505E-05-2.87999E-05-1.90965E-06 1.02350E-20 1.13893E-18
 -1      3529 9.50868E-05-2.79714E-05-2.87676E-05-1.75961E-06 3.14707E-19 1.07027E-18
 -1      3530 9.49098E-05-2.75620E-05-2.88587E-05-2.28476E-06 2.53166E-19 1.03016E-18
 -1      3531 9.49363E-05-2.76926E-05-2.88233E-05-2.08147E-06 2.10992E-19 1.12282E-18
 -1      3532 9.48190E-05-2.76096E-05-2.88031E-05-1.95494E-06 3.27048E-20 1.12969E-18
 -1      3533 9.47480E-05-2.72600E-05-2.89182E-05-2.77463E-06-2.70202E-19 6.20175E-19
 -1      3534 9.47711E-05-2.73925E-05-2.88818E-05-2.51351E-06 1.17330E-19 9.42950E-19
 -1      3535 9.45581E-05-2.72501E-05-2.88449E-05-2.35344E-06 2.32059E-19 1.28581E-18
 -1      3536 9.45826E-05-2.69670E-05-2.89723E-05-3.38680E-06-4.92740E-20 1.71856E-19
 -1      3537 9.45957E-05-2.70881E-05-2.89376E-05-3.06599E-06-1.32391E-19 2.56594E-19
 -1      3538 9.42681E-05-2.68742E-05-2.88813E-05-2.86957E-06 2.86152E-20 4.43960E-19
 -1      3539 9.44332E-05-2.67213E-05-2.90127E-05-4.12348E-06-1.34376E-19 1.22598E-18
 -1      3540 9.44233E-05-2.68090E-05-2.89836E-05-3.74491E-06-2.35821E-19 5.18208E-19
 -1      3541 9.39565E-05-2.65088E-05-2.89043E-05-3.51373E-06-4.32350E-19 3.17475E-19
 -1      3542 9.43381E-05-2.65844E-05-2.90295E-05-4.97943E-06 7.84365E-20 1.30361E-18
 -1      3543 9.42820E-05-2.66042E-05-2.90107E-05-4.55045E-06 3.06055E-19 1.31637E-18
 -1      3544 9.36439E-05-2.61992E-05-2.89035E-05-4.29361E-06-3.34165E-20 6.26351E-19
 -1      3545 9.43661E-05-2.66510E-05-2.90113E-05-5.93887E-06-5.15264E-19 1.11520E-18
 -1      3546 9.42246E-05-2.65506E-05-2.90080E-05-5.47456E-06-1.82723E-19 8.29454E-19
 -1      3547 9.33731E-05-2.60174E-05-2.88668E-05-5.21371E-06 2.12349E-19 1.12968E-18
 -1      3548 9.46312E-05-2.70593E-05-2.89477E-05-6.97026E-06-2.70398E-19 9.23139E-19
 -1      3549 9.43416E-05-2.67639E-05-2.89641E-05-6.49704E-06-5.27776E-19 1.12227E-18
 -1      3550 9.32216E-05-2.60735E-05-2.87810E-05-6.27428E-06-3.17025E-19 9.01950E-19
 -1      3551 9.53122E-05-2.79996E-05-2.88337E-05-8.01552E-06-2.15750E-19 5.16936E-19
 -1      3552 9.47804E-05-2.74087E-05-2.88707E-05-7.57787E-06-2.37272E-19 8.79543E-19
 -1      3553 9.33203E-05-2.65276E-05-2.86349E-05-7.46792E-06-2.44631E-19 6.77886E-19
 -1      3554 9.66698E-05-2.97109E-05-2.86796E-05-8.96687E-06-8.32531E-19 1.13087E-18
 -1      3555 9.57668E-05-2.87038E-05-2.87290E-05-8.63972E-06-5.75068E-19 6.14920E-19
 -1      3556 9.38789E-05-2.76016E-05-2.84250E-05-8.76806E-06-4.81799E-19 4.91165E-19
 -1      3557 9.90462E-05-3.24435E-05-2.85276E-05-9.62039E-06-6.76331E-19 6.10555E-19
 -1      3558 9.76213E-05-3.09073E-05-2.85635E-05-9.53042E-06-4.91077E-19 1.11095E-18
 -1      3559 9.52140E-05-2.95796E-05-2.81676E-05-1.00966E-05-5.19800E-19 1.79545E-19
 -1      3560 1.02843E-04-3.63478E-05-2.84788E-05-9.58727E-06-1.41262E-18 4.53188E-19
 -1      3561 1.00743E-04-3.42487E-05-2.84432E-05-9.95466E-06-1.17619E-18 2.78067E-19
 -1      3562 9.77673E-05-3.27724E-05-2.79201E-05-1.12564E-05-1.16530E-18-3.02422E-19
 -1      3563 1.08318E-04-4.12911E-05-2.87389E-05-8.26831E-06-2.50668E-18 1.07738E-18
 -1      3564 1.05543E-04-3.88159E-05-2.85169E-05-9.44224E-06-2.12815E-18 4.53292E-19
 -1      3565 1.01960E-04-3.72945E-05-2.78137E-05-1.18114E-05-1.99241E-18-4.04432E-19
 -1      3566 1.15132E-04-4.58653E-05-2.96954E-05-4.45246E-06-5.09742E-19 3.03562E-19
 -1      3567 1.12208E-04-4.39143E-05-2.91097E-05-6.72135E-06-1.34671E-18 6.08540E-19
 -1      3568 1.08818E-04-4.34648E-05-2.81529E-05-1.09645E-05-1.76152E-18-8.40925E-19
 -1      3569 1.21829E-04-4.78639E-05-3.17355E-05 1.57503E-06-5.44589E-19 3.67778E-19
 -1      3570 1.19492E-04-4.79949E-05-3.05369E-05-1.99985E-06-4.26747E-19 3.17402E-19
 -1      3571 5.87723E-05-1.59451E-05-1.82267E-05 1.29727E-05 1.74101E-18 7.98355E-19
 -1      3572 5.62377E-05-1.37335E-05-1.81198E-05 3.96289E-06 6.42283E-19 4.79579E-19
 -1      3573 1.20870E-04-4.81472E-05-3.10033E-05 6.19173E-07 1.59983E-19 2.09204E-19
 -1      3574 1.22554E-04-4.70665E-05-3.23660E-05-3.14525E-06-8.45445E-20 6.78156E-20
 -1      3575 1.02689E-04-3.62445E-05-2.84109E-05 1.07205E-05 7.90755E-19 5.18886E-19
 -1      3576 1.05051E-04-3.85347E-05-2.84991E-05 1.00337E-05 1.04274E-20-2.08073E-19
 -1      3577 9.89843E-05-3.23867E-05-2.85035E-05 1.06893E-05-7.60213E-19 1.35995E-18
 -1      3578 1.00652E-04-3.41713E-05-2.84751E-05 1.05886E-05 8.29440E-19 1.23057E-18
 -1      3579 9.96454E-05-3.47975E-05-2.78662E-05 1.24139E-05 4.96059E-19 2.16919E-18
 -1      3580 9.67122E-05-2.96803E-05-2.87092E-05 9.99924E-06-9.71722E-20 9.03729E-19
 -1      3581 9.78011E-05-3.09333E-05-2.86397E-05 1.02280E-05-3.01839E-19 4.45362E-19
 -1      3582 9.65533E-05-3.10497E-05-2.81253E-05 1.14976E-05-2.84713E-19 2.00114E-18
 -1      3583 9.54504E-05-2.79064E-05-2.89356E-05 9.00441E-06-1.84602E-19-4.75340E-19
 -1      3584 9.61111E-05-2.87386E-05-2.88585E-05 9.42002E-06-2.43974E-19 2.04667E-19
 -1      3585 9.48603E-05-2.85420E-05-2.84566E-05 1.02587E-05 4.87755E-20 5.73348E-19
 -1      3586 8.98243E-05-2.26554E-05-2.87786E-05 4.79235E-06-6.31349E-20 2.22251E-18
 -1      3587 8.69385E-05-2.08635E-05-2.83235E-05-1.01168E-06 8.97147E-19-4.30976E-19
 -1      3588 8.69687E-05-2.09247E-05-2.83091E-05 4.58714E-07 1.11506E-18-1.47118E-20
 -1      3589 5.78897E-05-1.68784E-05-1.73934E-05-1.46511E-05-1.53713E-18-1.90794E-19
 -1      3590 6.58478E-05-2.30050E-05-1.83201E-05-2.31277E-05-3.34207E-19 1.27902E-18
 -1      3591 8.66594E-05-3.56691E-05-2.20331E-05 2.68037E-05-2.57599E-18-1.73951E-18
 -1      3592 7.86480E-05-2.98806E-05-2.05917E-05 2.57863E-05-2.79826E-18 3.09670E-19
 -1      3593 9.75092E-05-3.78384E-05-2.54498E-05-2.04164E-05 1.33413E-18 1.36273E-18
 -1      3594 9.38325E-05-3.37741E-05-2.56409E-05-1.94562E-05 6.87731E-19 7.62426E-19
 -1      3595 8.78623E-05-3.00820E-05-2.47817E-05-1.96426E-05 8.27690E-19-7.16917E-19
 -1      3596 9.50290E-05-3.97535E-05-2.37448E-05 2.42829E-05 1.67935E-18 8.09711E-19
 -1      3597 8.39352E-05-3.23847E-05-2.17653E-05 2.51439E-05 2.40421E-18 3.59063E-19
 -1      3598 1.08192E-04-4.11639E-05-2.86310E-05 9.40676E-06-1.84475E-19-7.73830E-19
 -1      3599 1.11126E-04-4.35287E-05-2.89797E-05 7.72087E-06 2.42359E-19-3.70402E-19
 -1      3600 1.04712E-04-3.99556E-05-2.78612E-05 1.24397E-05-2.52228E-19 5.44229E-19
 -1      3601 7.44626E-05-2.71579E-05-2.02421E-05 2.42715E-05 2.35769E-18-3.63483E-19
 -1      3602 6.46154E-05-1.97942E-05-1.90326E-05 1.83398E-05 1.96551E-18-2.30446E-19
 -1      3603 6.73324E-05-1.87890E-05-2.05802E-05 1.39524E-05 1.48077E-18 1.72226E-19
 -1      3604 8.09046E-05-2.76033E-05-2.26955E-05 2.07221E-05 1.96242E-18-1.20120E-19
 -1      3605 1.14444E-04-4.55743E-05-2.93615E-05 6.19539E-06 3.70693E-19-9.26042E-19
 -1      3606 1.17275E-04-4.69240E-05-3.01411E-05 3.29778E-06 4.78948E-19 3.95240E-19
 -1      3607 1.17882E-04-4.95558E-05-2.95099E-05 7.38989E-06 2.02676E-19-1.01217E-18
 -1      3608 1.11249E-04-4.55700E-05-2.83293E-05 1.09790E-05 1.06898E-19-6.37260E-21
 -1      3609 1.08644E-04-4.75754E-05-2.64007E-05 1.87483E-05-1.28094E-18-1.31396E-19
 -1      3610 9.75321E-05-4.14979E-05-2.37041E-05 2.48596E-05-1.93729E-18-1.32854E-18
 -1      3611 9.57043E-05-2.55038E-05-3.00698E-05-1.49178E-06-1.64096E-19-1.16963E-20
 -1      3612 9.58513E-05-2.62520E-05-2.98397E-05-8.69249E-07 3.96372E-20-7.04714E-20
 -1      3613 9.22748E-05-1.81286E-05-3.17889E-05-1.01003E-06 2.52782E-19 2.09330E-19
 -1      3614 9.23860E-05-1.83196E-05-3.17578E-05-1.76335E-06 8.97996E-20 1.78999E-19
 -1      3615 9.33718E-05-1.99849E-05-3.14327E-05-1.76647E-06 7.93529E-20 1.83015E-19
 -1      3616 7.52064E-05-2.92792E-05-1.93861E-05-2.69844E-05 1.13044E-18 1.73658E-18
 -1      3617 8.79773E-05-3.75382E-05-2.15560E-05-2.80387E-05 2.19314E-18 8.54550E-19
 -1      3618 9.51968E-05-2.81125E-05-2.87466E-05-1.63781E-06 3.06450E-19 7.60172E-19
 -1      3619 9.52233E-05-2.82190E-05-2.87192E-05-1.53445E-06 1.03886E-19 7.35617E-19
 -1      3620 9.52582E-05-2.82238E-05-2.87292E-05-1.45765E-06 1.28109E-19 7.67857E-19
 -1      3621 9.50511E-05-2.79371E-05-2.87627E-05-1.66132E-06 1.85594E-20 1.02327E-18
 -1      3622 9.57586E-05-2.87637E-05-2.87111E-05-1.19887E-06-1.45159E-19 6.12766E-19
 -1      3623 9.57918E-05-2.87296E-05-2.87388E-05-1.15846E-06 4.03789E-20 5.91805E-19
 -1      3624 9.60495E-05-2.68879E-05-2.96317E-05-4.35212E-07 5.36360E-20-1.86431E-20
 -1      3625 9.60970E-05-2.73724E-05-2.94608E-05-1.34757E-08-1.18828E-19 2.55495E-22
 -1      3626 9.62811E-05-2.74131E-05-2.95155E-05 4.11914E-08-1.21983E-19 3.67693E-20
 -1      3627 7.09885E-05-2.58953E-05-1.91069E-05-2.51138E-05-1.90970E-18-6.31463E-19
 -1      3628 8.36551E-05-3.44644E-05-2.10545E-05-2.77187E-05-1.57363E-18-8.98384E-20
 -1      3629 5.35700E-05-1.37966E-05-1.70732E-05 5.13082E-06-3.83683E-18 2.18535E-19
 -1      3630 5.35855E-05-1.38011E-05-1.68738E-05-5.89214E-06-2.45110E-18-7.36495E-19
 -1      3631 9.59124E-05-2.73499E-05-2.93910E-05 8.06812E-08 4.27689E-19 5.51988E-19
 -1      3632 9.58895E-05-2.68840E-05-2.95637E-05 5.46576E-07 2.77080E-19 4.04338E-19
 -1      3633 9.47308E-05-2.28877E-05-3.07828E-05-3.44743E-06-8.60367E-20-1.88467E-19
 -1      3634 9.52105E-05-2.43296E-05-3.03950E-05-2.28066E-06-1.15361E-19-1.94899E-20
 -1      3635 9.49486E-05-2.35216E-05-3.06299E-05 3.06025E-06 4.67482E-19 3.58003E-19
 -1      3636 9.46865E-05-2.28215E-05-3.07988E-05 2.81800E-06 4.30900E-19 3.40423E-19
 -1      3637 7.57364E-05-2.57151E-05-2.12804E-05 2.08743E-05-2.70274E-18 4.02407E-19
 -1      3638 9.59585E-05-2.80395E-05-2.91124E-05-5.40542E-07 1.11668E-19 7.44063E-19
 -1      3639 9.59764E-05-2.77462E-05-2.92328E-05-2.50019E-07 3.61293E-19 6.04898E-19
 -1      3640 9.61217E-05-2.73740E-05-2.94655E-05 2.11521E-08 2.55444E-19 8.00966E-19
 -1      3641 1.17346E-04-2.53411E-05-3.96154E-05-1.27955E-05 1.31264E-18 1.88200E-20
 -1      3642 1.21009E-04-3.16788E-05-3.83720E-05-1.40781E-05 1.04177E-18-9.93993E-19
 -1      3643 9.08634E-05-3.75570E-05-2.28561E-05-2.60128E-05 1.89640E-18 4.20605E-20
 -1      3644 5.69054E-05-1.32745E-05-1.83753E-05-6.74688E-07 7.39423E-19 7.73976E-19
 -1      3645 5.92086E-05-1.45415E-05-1.90877E-05-5.88769E-06 6.30424E-19 1.25652E-18
 -1      3646 6.14862E-05-1.45738E-05-1.99728E-05 3.81250E-06 1.27025E-18 5.54899E-19
 -1      3647 1.11108E-04-5.04039E-05-2.58151E-05 2.11233E-05 1.09151E-18 2.13277E-18
 -1      3648 8.64630E-05-3.27168E-05-2.29894E-05-2.29593E-05-1.06094E-18-1.03415E-18
 -1      3649 9.16241E-05-3.81723E-05-2.26738E-05-2.57661E-05-1.45919E-18-9.44998E-19
 -1      3650 9.83519E-05-4.13612E-05-2.46053E-05-2.22821E-05-1.49706E-18-1.49872E-18
 -1      3651 1.04931E-04-4.52226E-05-2.53920E-05 2.15431E-05 1.02862E-18 1.37943E-18
 -1      3652 9.56506E-05-2.83725E-05-2.88378E-05-9.25833E-07-8.01229E-20 4.43642E-19
 -1      3653 9.17404E-05-2.43322E-05-2.88845E-05-8.98739E-06 1.50037E-18-1.89695E-18
 -1      3654 9.20259E-05-2.42957E-05-2.90333E-05-8.36912E-06 1.03224E-18-2.89071E-18
 -1      3655 9.13346E-05-2.37862E-05-2.89449E-05-8.00140E-06 4.18488E-19-3.46131E-18
 -1      3656 8.99740E-05-2.34208E-05-2.85034E-05-8.88314E-06 7.65187E-19-6.08290E-19
 -1      3657 9.60528E-05-2.87335E-05-2.88536E-05-1.05130E-06-1.23105E-19 3.28928E-19
 -1      3658 9.58517E-05-2.86763E-05-2.87896E-05-1.10470E-06 5.54689E-20 3.27804E-19
 -1      3659 9.58860E-05-2.85831E-05-2.88400E-05-1.01823E-06-1.39661E-19 4.25946E-19
 -1      3660 9.57320E-05-2.63793E-05-2.97306E-05 9.77976E-07 3.29962E-19 2.88910E-19
 -1      3661 9.56530E-05-2.58576E-05-2.99133E-05 1.57559E-06 3.58244E-19 3.02230E-19
 -1      3662 9.59019E-05-2.63722E-05-2.97989E-05 8.08546E-07 2.31415E-19 5.10169E-19
 -1      3663 9.56180E-05-2.86480E-05-2.87026E-05-1.24814E-06 3.62955E-19 8.89366E-19
 -1      3664 9.55497E-05-2.86693E-05-2.86606E-05-1.28111E-06 2.59214E-19 8.14368E-19
 -1      3665 9.55782E-05-2.87110E-05-2.86578E-05-1.26032E-06 3.81131E-19 8.42576E-19
 -1      3666 1.16609E-04-4.85101E-05-2.93075E-05-7.42734E-06-3.05577E-19-3.47363E-19
 -1      3667 1.26044E-04-4.57319E-05-3.43247E-05-7.43561E-06-2.31611E-20-7.87105E-19
 -1      3668 9.06691E-05-2.37981E-05-2.86756E-05 6.66682E-06-1.10341E-18 2.08418E-18
 -1      3669 9.15949E-05-2.44188E-05-2.87710E-05 7.17511E-06-8.60023E-19 1.46522E-19
 -1      3670 8.86534E-05-2.23004E-05-2.84600E-05 4.78213E-06 1.78186E-19 2.39736E-18
 -1      3671 8.95663E-05-2.29425E-05-2.85392E-05 5.80233E-06-3.51400E-20 3.09462E-18
 -1      3672 8.96467E-05-2.34542E-05-2.83595E-05 6.78644E-06 4.89580E-19 3.48141E-18
 -1      3673 6.17482E-05-1.63242E-05-1.91639E-05-9.60971E-06-1.36349E-18-1.26729E-18
 -1      3674 8.72304E-05-2.10392E-05-2.83838E-05-2.73885E-06 9.68259E-19-1.82065E-18
 -1      3675 8.60729E-05-2.06622E-05-2.80221E-05-1.97200E-06 5.57047E-19-1.72045E-18
 -1      3676 8.77357E-05-2.13489E-05-2.84537E-05-4.09098E-06 8.23261E-19-2.68766E-18
 -1      3677 8.73114E-05-2.12419E-05-2.83334E-05 2.09440E-06 1.26236E-18 9.95964E-19
 -1      3678 8.78484E-05-2.16337E-05-2.83707E-05 3.44627E-06 3.72072E-19 1.49208E-18
 -1      3679 8.74774E-05-2.18585E-05-2.81107E-05 4.54773E-06 1.32116E-19 1.95372E-18
 -1      3680 8.61919E-05-2.08475E-05-2.79851E-05 1.50138E-06 3.82984E-19 1.69942E-19
 -1      3681 9.56565E-05-2.87531E-05-2.86710E-05-1.24389E-06 2.08932E-19 7.52485E-19
 -1      3682 9.56873E-05-2.87622E-05-2.86815E-05-1.22335E-06 2.18195E-20 7.09461E-19
 -1      3683 9.59248E-05-2.88048E-05-2.87678E-05-1.14474E-06-3.72005E-20 5.46977E-19
 -1      3684 9.57779E-05-2.87675E-05-2.87204E-05-1.19759E-06 1.96232E-19 6.95637E-19
 -1      3685 7.48055E-05-2.59696E-05-2.06831E-05-2.21289E-05 7.17219E-19 9.30995E-19
 -1      3686 9.38973E-05-2.10444E-05-3.12347E-05 8.09061E-07 3.59435E-19 2.06964E-19
 -1      3687 9.38493E-05-2.09443E-05-3.12544E-05 2.47919E-07 3.65455E-19 1.29610E-19
 -1      3688 9.37932E-05-2.07923E-05-3.12656E-05 2.84976E-06 3.95210E-19 1.36279E-19
 -1      3689 9.39826E-05-2.12144E-05-3.11933E-05 1.24695E-06 3.18672E-19 1.35236E-19
 -1      3690 9.46390E-05-2.23739E-05-3.09528E-05 8.30056E-07 2.57906E-19 1.63356E-19
 -1      3691 9.41183E-05-2.15093E-05-3.11335E-05 1.76412E-06 3.08319E-19-2.07192E-20
 -1      3692 9.39235E-05-3.72897E-05-2.40934E-05 2.22682E-05-2.20751E-18-6.96097E-19
 -1      3693 9.31715E-05-1.96132E-05-3.15073E-05-5.88010E-07 2.86469E-19 2.02848E-19
 -1      3694 9.53248E-05-2.43502E-05-3.04200E-05-1.93175E-06-4.49449E-20-5.58978E-21
 -1      3695 1.22058E-04-3.75621E-05-3.64922E-05-1.19931E-05 1.22008E-18-6.66588E-19
 -1      3696 9.60048E-05-2.62723E-05-2.98850E-05-7.02902E-07-7.09852E-20 1.37260E-19
 -1      3697 9.39714E-05-2.11973E-05-3.11964E-05-1.21746E-06 1.21277E-19 1.25771E-19
 -1      3698 9.41036E-05-2.14799E-05-3.11383E-05-1.73616E-06 1.12803E-19 1.89684E-19
 -1      3699 1.15958E-04-4.97642E-05-2.81051E-05 1.25929E-05-4.07932E-19-4.71215E-19
 -1      3700 6.19925E-05-1.62717E-05-1.93093E-05 8.59056E-06-2.93243E-18 4.71691E-19
 -1      3701 1.08873E-04-4.55302E-05-2.71357E-05 1.52494E-05-3.40534E-19 6.84685E-19
 -1      3702 6.48535E-05-1.82088E-05-1.99764E-05-1.46456E-05-2.04764E-19 5.50638E-19
 -1      3703 6.72720E-05-2.17477E-05-1.92894E-05-2.09505E-05-1.00993E-18 1.43784E-19
 -1      3704 7.57196E-05-2.50218E-05-2.16388E-05-1.99494E-05-5.78861E-19 2.63242E-20
 -1      3705 1.25103E-04-4.80638E-05-3.29456E-05 3.58783E-06-2.55182E-19-3.31918E-19
 -1      3706 1.09718E-04-4.65737E-05-2.68750E-05-1.59451E-05-1.06828E-18-1.22684E-18
 -1      3707 1.15614E-04-5.04893E-05-2.78569E-05-1.37412E-05-7.48665E-19-7.65230E-19
 -1      3708 9.43277E-05-2.19825E-05-3.09954E-05-3.74628E-06-1.34523E-19-1.73231E-19
 -1      3709 8.10248E-05-2.75867E-05-2.29713E-05 2.00147E-05-1.33104E-18-6.60553E-19
 -1      3710 7.34266E-05-2.20028E-05-2.18337E-05 1.69404E-05-1.65202E-18 2.57628E-18
 -1      3711 9.65174E-05-2.84816E-05-2.91547E-05 6.47585E-07 4.70035E-20 2.10327E-19
 -1      3712 9.64747E-05-2.86507E-05-2.90690E-05 7.64127E-07 1.72720E-21 1.95636E-19
 -1      3713 9.64129E-05-2.87658E-05-2.89895E-05 8.27951E-07-3.99745E-20 2.34672E-19
 -1      3714 9.63424E-05-2.88363E-05-2.89313E-05 8.93876E-07-4.73408E-20 2.51520E-21
 -1      3715 9.65810E-05-2.86941E-05-2.90953E-05 6.77901E-07-4.66396E-20 1.06904E-20
 -1      3716 9.62435E-05-2.88619E-05-2.88768E-05 9.27727E-07 2.24844E-20 2.47203E-20
 -1      3717 9.61555E-05-2.88594E-05-2.88404E-05 9.66551E-07-5.12785E-21-2.19376E-19
 -1      3718 9.64214E-05-2.88560E-05-2.89578E-05 7.88667E-07-1.27809E-19 1.12735E-19
 -1      3719 9.60313E-05-2.88178E-05-2.88058E-05 9.87646E-07-1.97216E-19-1.03167E-19
 -1      3720 9.59310E-05-2.87594E-05-2.87864E-05 1.01832E-06-2.88526E-19-2.26017E-19
 -1      3721 9.62004E-05-2.88497E-05-2.88656E-05 8.54828E-07-1.56187E-20 1.89374E-19
 -1      3722 9.57867E-05-2.86651E-05-2.87674E-05 1.04072E-06-1.67113E-19-3.64852E-19
 -1      3723 9.56751E-05-2.85618E-05-2.87611E-05 1.07834E-06-9.97964E-20-7.52350E-20
 -1      3724 9.59345E-05-2.87143E-05-2.88093E-05 9.06894E-07-2.46120E-19 2.56542E-19
 -1      3725 9.55111E-05-2.84236E-05-2.87537E-05 1.11318E-06 1.06234E-19 2.64797E-19
 -1      3726 9.53863E-05-2.82816E-05-2.87572E-05 1.16970E-06-6.57283E-20 6.84149E-19
 -1      3727 9.56293E-05-2.84751E-05-2.87804E-05 9.69485E-07 2.33461E-19 3.01589E-19
 -1      3728 9.51989E-05-2.81037E-05-2.87580E-05 1.22590E-06-2.61085E-19 1.05029E-18
 -1      3729 9.50562E-05-2.79255E-05-2.87683E-05 1.31112E-06-6.67551E-19 1.21531E-18
 -1      3730 9.52816E-05-2.81464E-05-2.87714E-05 1.06187E-06 4.33272E-20 7.83814E-19
 -1      3731 9.48386E-05-2.77089E-05-2.87738E-05 1.39615E-06-1.09252E-18 1.47428E-18
 -1      3732 9.46712E-05-2.74949E-05-2.87879E-05 1.51822E-06-9.67041E-19 1.41905E-18
 -1      3733 9.48809E-05-2.77345E-05-2.87751E-05 1.19977E-06-5.62642E-19 1.19323E-18
 -1      3734 9.44137E-05-2.72385E-05-2.87944E-05 1.63829E-06-6.31268E-19 1.55318E-18
 -1      3735 9.42131E-05-2.69879E-05-2.88090E-05 1.80403E-06-2.56239E-19 1.78780E-18
 -1      3736 9.44111E-05-2.72402E-05-2.87843E-05 1.39598E-06-6.90706E-19 1.99476E-18
 -1      3737 9.39039E-05-2.66902E-05-2.88122E-05 1.96443E-06-1.49838E-19 1.53370E-18
 -1      3738 9.36600E-05-2.64025E-05-2.88232E-05 2.17962E-06-1.63948E-19 1.70525E-18
 -1      3739 9.38507E-05-2.66614E-05-2.87906E-05 1.66076E-06-3.46273E-19 2.21803E-18
 -1      3740 9.32850E-05-2.60626E-05-2.88175E-05 2.38498E-06-2.31940E-19 2.05514E-18
 -1      3741 9.29870E-05-2.57391E-05-2.88194E-05 2.65456E-06-2.10813E-19 2.01413E-18
 -1      3742 9.31743E-05-2.59963E-05-2.87839E-05 2.00253E-06-6.98446E-20 2.01177E-18
 -1      3743 9.25308E-05-2.53587E-05-2.87977E-05 2.90937E-06-3.01381E-19 2.07518E-18
 -1      3744 9.21677E-05-2.50050E-05-2.87833E-05 3.23802E-06-7.11036E-19 1.74978E-18
 -1      3745 9.23526E-05-2.52459E-05-2.87511E-05 2.42846E-06-3.11360E-19 2.31864E-18
 -1      3746 9.16134E-05-2.45907E-05-2.87359E-05 3.54775E-06-7.81147E-19 1.82775E-18
 -1      3747 9.11766E-05-2.42195E-05-2.86953E-05 3.94121E-06-3.45112E-19 1.87438E-18
 -1      3748 9.13535E-05-2.44180E-05-2.86750E-05 2.94605E-06-5.41268E-19 2.22202E-18
 -1      3749 9.05065E-05-2.37857E-05-2.86095E-05 4.31491E-06 1.81880E-19 1.68771E-18
 -1      3750 8.99924E-05-2.34212E-05-2.85295E-05 4.78308E-06 4.47355E-19 1.12734E-18
 -1      3751 9.01427E-05-2.35316E-05-2.85327E-05 3.56680E-06-3.21991E-19 2.45141E-18
 -1      3752 8.91886E-05-2.29940E-05-2.83879E-05 5.23843E-06 4.33252E-19 7.73324E-19
 -1      3753 8.86048E-05-2.26780E-05-2.82516E-05 5.80125E-06 6.14012E-19 4.30153E-19
 -1      3754 8.86846E-05-2.26221E-05-2.82936E-05 4.31377E-06 2.37289E-20 1.48416E-18
 -1      3755 8.76496E-05-2.23004E-05-2.80314E-05 6.37393E-06 8.83862E-19 1.94911E-19
 -1      3756 8.70253E-05-2.21014E-05-2.78171E-05 7.07131E-06 6.70830E-19-2.80345E-19
 -1      3757 8.69424E-05-2.17480E-05-2.79166E-05 5.23622E-06 2.46050E-19 6.89311E-19
 -1      3758 8.59028E-05-2.18410E-05-2.74881E-05 7.83067E-06 3.87964E-19-1.21826E-19
 -1      3759 8.53048E-05-2.18673E-05-2.71702E-05 8.73680E-06 1.56805E-19 1.24724E-19
 -1      3760 8.48792E-05-2.09995E-05-2.73469E-05 6.43506E-06 5.64489E-19 7.58614E-19
 -1      3761 8.40092E-05-2.18305E-05-2.66914E-05 9.80590E-06-2.22936E-19-7.29114E-19
 -1      3762 8.35750E-05-2.22521E-05-2.62430E-05 1.10437E-05-3.50032E-19-4.70407E-19
 -1      3763 8.24692E-05-2.05176E-05-2.65098E-05 8.11016E-06-1.51479E-19 3.02437E-19
 -1      3764 8.20932E-05-2.25727E-05-2.55588E-05 1.26663E-05-2.61079E-19-4.45060E-19
 -1      3765 8.22979E-05-2.37907E-05-2.49897E-05 1.44066E-05 1.93464E-19-3.57871E-19
 -1      3766 7.96784E-05-2.04923E-05-2.52977E-05 1.05868E-05-2.49875E-19-3.16248E-20
 -1      3767 7.98180E-05-2.48701E-05-2.35154E-05 1.77949E-05 1.27190E-18-3.90548E-19
 -1      3768 6.67344E-05-1.80104E-05-2.10327E-05 1.15570E-05-1.43112E-18 2.26647E-18
 -1      3769 6.30091E-05-1.50074E-05-2.04472E-05 2.86803E-06-2.37290E-18 5.02224E-19
 -1      3770 9.54422E-05-2.83906E-05-2.87339E-05-1.25190E-06 6.92766E-20 1.01476E-18
 -1      3771 9.55333E-05-2.85045E-05-2.87284E-05-1.19920E-06 3.38270E-19 9.75713E-19
 -1      3772 9.06524E-05-2.33076E-05-2.88784E-05-7.51567E-06 3.32686E-19-2.67160E-18
 -1      3773 8.83939E-05-2.25352E-05-2.82329E-05-7.97454E-06-3.91203E-19-1.39107E-18
 -1      3774 8.92071E-05-2.27338E-05-2.84921E-05-7.62399E-06-5.46205E-19-2.37941E-18
 -1      3775 8.45060E-05-2.28034E-05-2.64046E-05-1.17611E-05-6.15431E-20-3.93408E-19
 -1      3776 8.49816E-05-2.23509E-05-2.68859E-05-1.05399E-05 2.18555E-19-1.18348E-19
 -1      3777 8.63560E-05-2.23502E-05-2.74122E-05-9.51746E-06 5.60351E-19-5.36210E-19
 -1      3778 8.69983E-05-2.22397E-05-2.77818E-05-8.61079E-06 4.79366E-19-3.99919E-19
 -1      3779 8.36464E-05-2.11033E-05-2.67753E-05-8.77950E-06 1.92124E-19-1.90473E-18
 -1      3780 9.43867E-05-2.21407E-05-3.09682E-05-3.04672E-06-6.31987E-20-6.10238E-20
 -1      3781 9.59325E-05-2.56916E-05-3.01016E-05-8.97036E-07-3.03713E-20 1.15141E-19
 -1      3782 9.61439E-05-2.64264E-05-2.98866E-05-4.49621E-07-8.12352E-20 9.20460E-20
 -1      3783 9.42174E-05-2.69388E-05-2.88301E-05-2.30828E-06 4.98461E-20 5.81566E-19
 -1      3784 9.43574E-05-2.71414E-05-2.88123E-05-2.08642E-06 2.04345E-19 6.33343E-19
 -1      3785 9.45836E-05-2.73677E-05-2.88036E-05-1.90532E-06 4.06867E-19 5.11392E-19
 -1      3786 9.47084E-05-2.75551E-05-2.87845E-05-1.73709E-06 1.04143E-19 5.93161E-19
 -1      3787 9.42603E-05-2.70725E-05-2.87921E-05-1.85188E-06 2.91573E-19 8.13759E-20
 -1      3788 9.33503E-05-2.60447E-05-2.88404E-05-3.47611E-06-4.99597E-19 2.45875E-19
 -1      3789 9.35114E-05-2.62404E-05-2.88379E-05-3.13049E-06-4.29629E-19 3.89276E-19
 -1      3790 9.28752E-05-2.56567E-05-2.88018E-05-4.26719E-06 1.37390E-19 2.99083E-19
 -1      3791 9.30283E-05-2.58123E-05-2.88152E-05-3.85336E-06-2.12345E-19 1.49704E-20
 -1      3792 9.26154E-05-2.55231E-05-2.87490E-05-3.44237E-06-8.20214E-20 1.33699E-19
 -1      3793 9.24223E-05-2.54007E-05-2.87152E-05-5.21531E-06 3.01458E-20 8.66457E-19
 -1      3794 9.25381E-05-2.54726E-05-2.87514E-05-4.73013E-06 3.15072E-19 8.73329E-19
 -1      3795 9.19554E-05-2.50619E-05-2.86638E-05-4.25954E-06-1.30876E-19 3.92999E-19
 -1      3796 9.20720E-05-2.53925E-05-2.85649E-05-6.33793E-06-3.74672E-19 9.50154E-19
 -1      3797 9.20991E-05-2.53153E-05-2.86308E-05-5.77909E-06 8.86785E-20 1.04651E-18
 -1      3798 9.12890E-05-2.47420E-05-2.85163E-05-5.26427E-06-1.83628E-19 1.00095E-18
 -1      3799 9.19619E-05-2.58015E-05-2.83369E-05-7.65569E-06-4.31936E-19 9.52836E-19
 -1      3800 9.18154E-05-2.54805E-05-2.84376E-05-7.02327E-06-6.13913E-19 7.19919E-19
 -1      3801 9.06933E-05-2.46870E-05-2.82875E-05-6.49939E-06-4.13067E-19 4.73795E-19
 -1      3802 9.23168E-05-2.68658E-05-2.80248E-05-9.18482E-06-3.94368E-19 9.57579E-19
 -1      3803 9.18629E-05-2.61693E-05-2.81597E-05-8.48831E-06-8.32490E-20 1.20937E-18
 -1      3804 9.03041E-05-2.50781E-05-2.79596E-05-8.02509E-06-5.66150E-19 6.11040E-19
 -1      3805 9.34843E-05-2.89049E-05-2.76429E-05-1.09103E-05-1.77284E-19-1.56318E-19
 -1      3806 9.25289E-05-2.76607E-05-2.77977E-05-1.01870E-05-1.93444E-19 3.70893E-19
 -1      3807 9.03516E-05-2.61769E-05-2.75221E-05-9.91451E-06 3.10480E-19 9.11682E-19
 -1      3808 9.59518E-05-3.22811E-05-2.72510E-05-1.27025E-05-1.16664E-18-5.88848E-19
 -1      3809 9.42621E-05-3.03065E-05-2.73846E-05-1.20559E-05-7.50969E-19-1.96761E-19
 -1      3810 9.12307E-05-2.83664E-05-2.69869E-05-1.22249E-05-3.52472E-19 3.21757E-20
 -1      3811 1.00592E-04-3.73422E-05-2.70348E-05-1.40139E-05-1.94764E-18-1.11581E-18
 -1      3812 9.77846E-05-3.45921E-05-2.70205E-05-1.38191E-05-1.53681E-18-9.59986E-19
 -1      3813 9.35926E-05-3.21140E-05-2.64258E-05-1.49077E-05-1.13544E-18-1.01757E-18
 -1      3814 1.04043E-04-4.22016E-05-2.64398E-05-1.64249E-05-1.31457E-18-1.56239E-18
 -1      3815 1.00082E-04-3.86328E-05-2.62232E-05-1.67091E-05-1.94279E-18-1.41000E-18
 -1      3816 9.59252E-05-2.84534E-05-2.89183E-05-9.07884E-07-5.42623E-20 5.75243E-19
 -1      3817 9.59564E-05-2.82777E-05-2.89989E-05-7.41234E-07 7.96323E-20 6.31953E-19
 -1      3818 9.61482E-05-2.85138E-05-2.89888E-05-8.68378E-07-2.36658E-21 5.38264E-19
 -1      3819 6.25623E-05-1.52918E-05-2.02775E-05-4.96882E-06-1.33515E-18-1.72832E-18
 -1      3820 6.66689E-05-1.82223E-05-2.07656E-05-1.31979E-05-3.49852E-19-1.90212E-18
 -1      3821 9.46074E-05-2.64389E-05-2.92280E-05 7.48119E-06-9.20295E-19-1.68748E-18
 -1      3822 8.28537E-05-2.42780E-05-2.50465E-05-1.51243E-05 4.55164E-19-1.72967E-18
 -1      3823 8.29573E-05-2.31348E-05-2.56896E-05-1.33284E-05 4.99346E-19-9.57418E-19
 -1      3824 8.06866E-05-2.11225E-05-2.54855E-05-1.11886E-05 4.07904E-19-7.51688E-19
 -1      3825 9.45916E-05-2.68252E-05-2.90406E-05 8.23684E-06-7.88328E-19-3.27122E-19
 -1      3826 9.51667E-05-2.74434E-05-2.90167E-05 8.59887E-06-6.57988E-19-4.36828E-19
 -1      3827 9.59846E-05-3.22503E-05-2.72768E-05 1.36014E-05-6.24557E-19 3.84479E-18
 -1      3828 9.80613E-05-3.45511E-05-2.71565E-05 1.40485E-05-2.22985E-19 2.68481E-18
 -1      3829 9.40314E-05-2.70797E-05-2.87148E-05 9.15100E-06-7.25075E-19-5.16264E-19
 -1      3830 9.23067E-05-2.54585E-05-2.86464E-05 8.23220E-06-5.79033E-20-5.07693E-19
 -1      3831 9.28875E-05-2.54751E-05-2.88983E-05 7.72841E-06-1.12126E-18-3.47649E-19
 -1      3832 9.44876E-05-2.23395E-05-3.09394E-05 2.56046E-06 4.36998E-19 2.52659E-19
 -1      3833 9.42767E-05-2.18428E-05-3.10470E-05 2.13736E-06 3.50053E-19 1.26876E-19
 -1      3834 9.48395E-05-2.28766E-05-3.08230E-05 1.55017E-06 2.90188E-19 1.91435E-19
 -1      3835 9.51232E-05-2.37008E-05-3.05933E-05 2.07368E-06 4.32879E-19 3.13210E-19
 -1      3836 9.51722E-05-2.44049E-05-3.03217E-05 2.87408E-06 4.62325E-19 2.08959E-19
 -1      3837 9.54327E-05-2.50578E-05-3.01525E-05 2.08278E-06 3.91333E-19 2.56127E-19
 -1      3838 9.38907E-05-2.10324E-05-3.12366E-05-7.74997E-07 2.02675E-19 2.34784E-19
 -1      3839 9.46349E-05-2.23635E-05-3.09553E-05-8.05649E-07 1.15136E-19 2.80714E-19
 -1      3840 9.38473E-05-2.09414E-05-3.12550E-05-2.13846E-07 2.81294E-19 2.75095E-19
 -1      3841 9.45680E-05-2.22039E-05-3.09954E-05 1.37406E-08 3.29082E-19 2.97170E-19
 -1      3842 9.48291E-05-2.28519E-05-3.08288E-05-1.55040E-06 9.86908E-20 2.47787E-19
 -1      3843 9.42511E-05-2.18038E-05-3.10534E-05-2.13015E-06-5.80991E-22 1.43626E-19
 -1      3844 9.44521E-05-2.22607E-05-3.09478E-05-2.54280E-06-4.36578E-20 3.85404E-20
 -1      3845 8.93233E-05-2.24595E-05-2.86449E-05-6.65646E-06-6.80658E-20-2.59934E-18
 -1      3846 8.83291E-05-2.18154E-05-2.85204E-05-5.59390E-06 3.20139E-19-2.99451E-18
 -1      3847 8.64518E-05-2.15512E-05-2.77921E-05-7.28420E-06-3.72904E-19-2.28296E-18
 -1      3848 9.48880E-05-2.30961E-05-3.07500E-05-2.31282E-06 6.98809E-20-2.59916E-20
 -1      3849 9.54019E-05-2.44579E-05-3.04150E-05-1.53252E-06-6.26465E-21 1.69770E-20
 -1      3850 9.38360E-05-2.61151E-05-2.90149E-05 7.92075E-06-3.34205E-19-3.41398E-19
 -1      3851 9.22658E-05-2.57800E-05-2.84892E-05 8.79991E-06 4.04502E-19 2.20308E-19
 -1      3852 9.25780E-05-2.62783E-05-2.83880E-05 9.24757E-06 3.65739E-19 1.03253E-18
 -1      3853 9.07770E-05-2.47078E-05-2.83364E-05 8.27597E-06 8.58463E-19 1.16159E-18
 -1      3854 8.70529E-05-2.13297E-05-2.81629E-05-5.21499E-06 7.40347E-19-2.31093E-18
 -1      3855 9.52217E-05-2.37353E-05-3.06415E-05-1.06298E-06 1.31958E-19 3.05610E-19
 -1      3856 9.53271E-05-2.40595E-05-3.05551E-05-1.36023E-06 3.02082E-20 2.58239E-19
 -1      3857 9.24889E-05-2.68928E-05-2.81088E-05 1.02181E-05 5.42060E-19 1.90953E-18
 -1      3858 9.31081E-05-2.78982E-05-2.79147E-05 1.09036E-05 1.13339E-18 2.18913E-18
 -1      3859 9.05055E-05-2.54960E-05-2.78565E-05 9.82365E-06 1.29373E-18 2.43365E-18
 -1      3860 9.63553E-05-2.70537E-05-2.96947E-05-1.63357E-07-4.87675E-21 7.06065E-20
 -1      3861 9.64340E-05-2.75394E-05-2.95327E-05 1.48224E-07-4.83964E-20 1.85350E-19
 -1      3862 9.62878E-05-2.65376E-05-2.98932E-05-3.19886E-07 4.83525E-21 2.08548E-19
 -1      3863 1.05631E-04-4.26075E-05-2.68681E-05 1.58283E-05-5.03521E-19 1.07836E-18
 -1      3864 9.35862E-05-2.89652E-05-2.76782E-05 1.19145E-05 9.48463E-19 2.41895E-18
 -1      3865 9.47757E-05-3.05355E-05-2.74897E-05 1.25802E-05 2.82635E-19 3.70121E-18
 -1      3866 9.24400E-05-3.00734E-05-2.67708E-05 1.41420E-05-3.74411E-20 4.02274E-18
 -1      3867 9.08170E-05-2.71984E-05-2.72763E-05 1.19036E-05 1.77374E-18 2.75407E-18
 -1      3868 9.38044E-05-2.64882E-05-2.88457E-05-2.82753E-06-1.05099E-19 3.61377E-19
 -1      3869 9.39581E-05-2.66959E-05-2.88332E-05-2.54621E-06 2.01276E-19 6.66222E-19
 -1      3870 9.32288E-05-2.60436E-05-2.87893E-05-2.78277E-06-2.09932E-19 2.87010E-19
 -1      3871 9.96500E-05-3.67168E-05-2.69071E-05 1.51761E-05-9.34195E-19 2.01883E-18
 -1      3872 1.02873E-04-3.97845E-05-2.69648E-05 1.51275E-05-1.05512E-18 1.56176E-18
 -1      3873 9.93186E-05-3.95606E-05-2.57783E-05 1.90493E-05-1.49500E-18 1.77800E-18
 -1      3874 9.51225E-05-3.40498E-05-2.62392E-05 1.65732E-05-1.50965E-18 3.43511E-18
 -1      3875 9.55122E-05-2.50270E-05-3.02075E-05 1.77428E-06 3.46306E-19 3.77883E-19
 -1      3876 9.65212E-05-2.79438E-05-2.93850E-05 3.33515E-07-9.56750E-20 1.00804E-19
 -1      3877 9.65211E-05-2.82442E-05-2.92651E-05 5.30979E-07-6.60679E-20 1.33863E-19
 -1      3878 9.66459E-05-2.83046E-05-2.92890E-05 4.85834E-07-6.26108E-20 1.72236E-19
 -1      3879 9.65748E-05-2.76255E-05-2.95510E-05 1.71416E-07-3.88805E-20 3.56240E-19
 -1      3880 9.11402E-05-3.40894E-05-2.43760E-05 2.07250E-05-1.67301E-18 8.98897E-20
 -1      3881 7.55195E-05-2.16075E-05-2.30999E-05 1.54609E-05 8.59593E-19-3.61571E-19
 -1      3882 9.61859E-05-2.80892E-05-2.91870E-05-5.35024E-07 1.89218E-19 9.15214E-19
 -1      3883 6.57597E-05-1.58330E-05-2.13472E-05 7.23105E-06 9.01984E-19 3.46873E-19
 -1      3884 6.52512E-05-1.52512E-05-2.14682E-05 2.64624E-06 9.34479E-19 1.80114E-19
 -1      3885 8.14356E-05-2.82560E-05-2.26222E-05-2.12702E-05-6.46253E-19-5.64759E-19
 -1      3886 8.75068E-05-3.16308E-05-2.39273E-05-2.00859E-05-1.21317E-18-5.31606E-19
 -1      3887 7.71526E-05-2.44064E-05-2.26428E-05-1.79187E-05-2.12949E-19 2.90625E-19
 -1      3888 9.62222E-05-2.87972E-05-2.88966E-05-9.76702E-07-2.04753E-19 7.06880E-19
 -1      3889 9.62812E-05-2.87178E-05-2.89531E-05-9.04002E-07-7.38724E-20 5.57862E-19
 -1      3890 9.52889E-05-2.82433E-05-2.87365E-05-1.31012E-06 1.46592E-19 8.16693E-19
 -1      3891 9.53699E-05-2.82771E-05-2.87539E-05-1.17810E-06 2.68782E-19 1.10083E-18
 -1      3892 9.51892E-05-2.81014E-05-2.87492E-05-1.39260E-06 6.92327E-20 9.16787E-19
 -1      3893 7.33202E-05-2.01703E-05-2.26649E-05 1.18347E-05-2.32064E-19 2.58861E-18
 -1      3894 9.56580E-05-2.85522E-05-2.87601E-05-1.08156E-06 1.51011E-19 7.04807E-19
 -1      3895 9.56708E-05-2.86189E-05-2.87344E-05-1.16441E-06 4.18925E-19 6.85836E-19
 -1      3896 9.57552E-05-2.87000E-05-2.87388E-05-1.13053E-06 1.73845E-19 6.72066E-19
 -1      3897 7.29275E-05-1.99719E-05-2.25864E-05-1.29683E-05-5.28509E-19-1.10891E-18
 -1      3898 7.23991E-05-2.14290E-05-2.16885E-05-1.70485E-05-4.96758E-19-4.22577E-19
 -1      3899 9.37781E-05-2.65707E-05-2.87996E-05-2.25860E-06 1.29825E-19 1.34362E-19
 -1      3900 9.60168E-05-2.63508E-05-2.98637E-05 6.33036E-07 8.10695E-20 5.25261E-19
 -1      3901 9.58412E-05-2.57316E-05-3.00356E-05 1.07268E-06 1.57349E-19 4.39493E-19
 -1      3902 7.95565E-05-2.70088E-05-2.25307E-05-2.10889E-05 5.94592E-19-4.49086E-19
 -1      3903 9.43832E-05-3.54156E-05-2.53135E-05-1.87542E-05-1.57533E-18-1.31949E-18
 -1      3904 9.21459E-05-3.24375E-05-2.55198E-05 1.73788E-05-1.35650E-18 1.04426E-18
 -1      3905 8.61012E-05-3.01729E-05-2.39255E-05 1.99929E-05-1.80404E-18-7.57970E-19
 -1      3906 8.29895E-05-2.64695E-05-2.42846E-05 1.68825E-05-8.72080E-19-8.27478E-19
 -1      3907 9.05335E-05-3.03683E-05-2.58165E-05 1.61221E-05-1.38948E-18 1.24885E-18
 -1      3908 6.74567E-05-1.62053E-05-2.18116E-05-1.09264E-06-1.26112E-18-8.75951E-19
 -1      3909 8.92077E-05-2.35605E-05-2.81291E-05 7.38441E-06 7.82220E-19 2.58270E-18
 -1      3910 8.89856E-05-2.38512E-05-2.79313E-05 8.04260E-06 1.30443E-18 2.64389E-18
 -1      3911 8.79487E-05-2.27170E-05-2.79745E-05 6.50125E-06 3.63188E-19 3.23854E-18
 -1      3912 8.21414E-05-2.52004E-05-2.44355E-05-1.70047E-05 1.42262E-19-1.54744E-18
 -1      3913 7.84235E-05-2.22377E-05-2.40813E-05-1.46241E-05 8.76249E-20-8.35221E-19
 -1      3914 9.55855E-05-2.49890E-05-3.02651E-05 1.51142E-06 2.89801E-19 3.64716E-19
 -1      3915 7.03008E-05-1.80138E-05-2.23738E-05 1.08308E-05 6.53526E-19 1.22105E-19
 -1      3916 8.46077E-05-2.03329E-05-2.75611E-05 1.00114E-06-4.10137E-20 9.47235E-19
 -1      3917 8.50752E-05-2.06691E-05-2.75995E-05 2.67055E-06-2.68673E-19 1.77133E-18
 -1      3918 9.62849E-05-2.74656E-05-2.94992E-05-8.91225E-08 2.08982E-19 6.81629E-19
 -1      3919 9.62122E-05-2.69813E-05-2.96641E-05 2.67275E-07 8.44568E-20 5.69094E-19
 -1      3920 9.61463E-05-2.64059E-05-2.98879E-05 4.91664E-07 4.70234E-20 4.42035E-19
 -1      3921 9.60648E-05-2.88440E-05-2.88080E-05-1.05681E-06 5.93391E-20 5.30323E-19
 -1      3922 9.61359E-05-2.88334E-05-2.88426E-05-1.01693E-06-1.04671E-19 5.91918E-19
 -1      3923 9.63366E-05-2.88284E-05-2.89336E-05-8.87272E-07-9.67215E-20 6.83745E-19
 -1      3924 8.29379E-05-2.75467E-05-2.36662E-05-1.94859E-05 8.27604E-19-1.07230E-18
 -1      3925 9.51657E-05-2.35601E-05-3.07016E-05 8.34636E-07 2.40088E-19 1.30660E-19
 -1      3926 9.51077E-05-2.33840E-05-3.07449E-05 4.79256E-07 2.54425E-19 1.79258E-19
 -1      3927 9.51558E-05-2.35358E-05-3.07057E-05-8.20184E-07 1.03344E-19 2.19837E-19
 -1      3928 9.56670E-05-2.45942E-05-3.04457E-05-6.94826E-07 2.03965E-20 2.83005E-19
 -1      3929 9.51002E-05-2.33736E-05-3.07471E-05-4.66381E-07 1.07107E-19 3.58834E-19
 -1      3930 9.49054E-05-2.77583E-05-2.87744E-05-1.60501E-06-8.69534E-20 8.36297E-19
 -1      3931 9.50164E-05-2.79248E-05-2.87571E-05-1.48359E-06-8.72215E-20 5.68648E-19
 -1      3932 9.50468E-05-2.79342E-05-2.87616E-05-1.32735E-06 1.43328E-19 9.37846E-19
 -1      3933 9.54818E-05-2.45380E-05-3.04038E-05 1.36671E-06 2.40650E-19 2.98807E-19
 -1      3934 9.50789E-05-2.33132E-05-3.07664E-05 1.98759E-07 2.69830E-19 2.88556E-19
 -1      3935 9.50789E-05-2.33096E-05-3.07671E-05-1.76238E-07 1.81712E-19 3.72791E-19
 -1      3936 9.56076E-05-2.43387E-05-3.05283E-05 2.48657E-07 2.38488E-19 2.22820E-19
 -1      3937 6.53042E-05-1.54904E-05-2.13547E-05-4.72921E-06 7.31545E-19 2.12928E-18
 -1      3938 6.43340E-05-1.62273E-05-2.04184E-05-1.00101E-05 4.94588E-20 1.56492E-18
 -1      3939 7.04468E-05-1.89468E-05-2.20810E-05-1.21506E-05 1.32121E-19 6.46809E-19
 -1      3940 9.57469E-05-2.51484E-05-3.02482E-05-1.03885E-06-3.33714E-20 1.40106E-19
 -1      3941 8.53940E-05-2.08718E-05-2.76710E-05-5.44570E-06-3.73415E-19-2.96039E-18
 -1      3942 8.48046E-05-2.03907E-05-2.75993E-05-3.78456E-06 5.13354E-19-2.92001E-18
 -1      3943 8.39241E-05-2.05083E-05-2.71783E-05-5.88333E-06-3.50161E-19-3.87510E-18
 -1      3944 8.43169E-05-2.01387E-05-2.75094E-05-1.92829E-06 3.34067E-19-1.14068E-18
 -1      3945 8.30575E-05-1.98294E-05-2.70817E-05-7.81816E-07-5.69353E-19-6.64538E-20
 -1      3946 9.46802E-05-2.75304E-05-2.87767E-05-1.54663E-06 1.99967E-19 4.41693E-19
 -1      3947 7.36205E-05-1.84333E-05-2.36432E-05 9.16504E-06 1.58269E-19-2.92872E-19
 -1      3948 8.57156E-05-3.19906E-05-2.29248E-05-2.35387E-05 1.89128E-18-6.21934E-19
 -1      3949 9.63643E-05-2.81743E-05-2.92275E-05-5.52242E-07 1.11025E-19 8.03057E-19
 -1      3950 9.63588E-05-2.78684E-05-2.93478E-05-3.25570E-07 2.83719E-19 8.44261E-19
 -1      3951 9.64324E-05-2.75216E-05-2.95333E-05-1.21517E-07 2.44405E-19 5.94689E-19
 -1      3952 9.65767E-05-2.88525E-05-2.90236E-05 6.22404E-07-1.35657E-20 1.79423E-19
 -1      3953 9.64785E-05-2.88914E-05-2.89658E-05 6.69268E-07-7.97347E-20 3.14073E-19
 -1      3954 9.63509E-05-2.88848E-05-2.89137E-05 6.87689E-07-2.55007E-20 2.10577E-19
 -1      3955 9.62270E-05-2.88476E-05-2.88762E-05 7.19588E-07-5.04531E-20 2.11525E-19
 -1      3956 9.64880E-05-2.88871E-05-2.89727E-05 5.30943E-07-1.29823E-19 5.54233E-19
 -1      3957 9.60692E-05-2.87713E-05-2.88424E-05 7.33751E-07-5.62458E-20 2.11314E-19
 -1      3958 9.59248E-05-2.86742E-05-2.88207E-05 7.63917E-07 1.20479E-21 4.87604E-19
 -1      3959 9.62050E-05-2.88084E-05-2.88849E-05 5.72238E-07-7.62092E-20 2.36454E-19
 -1      3960 9.57415E-05-2.85422E-05-2.88009E-05 7.82668E-07 2.22136E-19 5.40383E-19
 -1      3961 9.55771E-05-2.83957E-05-2.87910E-05 8.21197E-07 4.64823E-19 6.03007E-19
 -1      3962 9.58670E-05-2.85978E-05-2.88296E-05 6.11165E-07 3.74829E-19 6.52086E-19
 -1      3963 9.53668E-05-2.82155E-05-2.87811E-05 8.50813E-07 3.68993E-19 4.27743E-19
 -1      3964 9.51789E-05-2.80248E-05-2.87794E-05 9.05774E-07-6.33246E-20 7.40096E-19
 -1      3965 9.54772E-05-2.82791E-05-2.87984E-05 6.61600E-07 3.80889E-19 5.52774E-19
 -1      3966 9.49356E-05-2.77995E-05-2.87756E-05 9.51661E-07-1.02701E-19 7.35520E-19
 -1      3967 9.47174E-05-2.75664E-05-2.87784E-05 1.02982E-06-3.26983E-19 9.96085E-19
 -1      3968 9.50283E-05-2.78636E-05-2.87831E-05 7.33717E-07 1.36628E-19 2.12498E-19
 -1      3969 9.44327E-05-2.72967E-05-2.87766E-05 1.09596E-06-4.45714E-19 1.15844E-18
 -1      3970 9.41745E-05-2.70211E-05-2.87799E-05 1.20232E-06-4.39807E-19 1.44158E-18
 -1      3971 9.45062E-05-2.73555E-05-2.87758E-05 8.36746E-07-1.46494E-19 4.78191E-19
 -1      3972 9.38362E-05-2.67057E-05-2.87754E-05 1.29165E-06-4.21088E-19 1.68127E-18
 -1      3973 9.35262E-05-2.63865E-05-2.87747E-05 1.43007E-06-2.23870E-19 1.68013E-18
 -1      3974 9.38903E-05-2.67553E-05-2.87674E-05 9.75802E-07-3.84901E-19 1.34322E-18
 -1      3975 9.31198E-05-2.60241E-05-2.87618E-05 1.54464E-06-1.46370E-19 1.55493E-18
 -1      3976 9.27438E-05-2.56608E-05-2.87512E-05 1.71794E-06 5.76796E-20 1.79340E-18
 -1      3977 9.31544E-05-2.60609E-05-2.87476E-05 1.15443E-06-1.17343E-19 1.36099E-18
 -1      3978 9.22523E-05-2.52513E-05-2.87229E-05 1.85900E-06 2.75332E-20 2.01281E-18
 -1      3979 9.17946E-05-2.48457E-05-2.86948E-05 2.06936E-06-1.91189E-19 1.97720E-18
 -1      3980 9.22672E-05-2.52714E-05-2.87034E-05 1.37394E-06 3.80767E-20 1.33105E-18
 -1      3981 9.11983E-05-2.43916E-05-2.86417E-05 2.23785E-06-5.00707E-19 1.94899E-18
 -1      3982 9.06418E-05-2.39495E-05-2.85861E-05 2.48786E-06-5.20904E-19 1.82113E-18
 -1      3983 9.11929E-05-2.43891E-05-2.86181E-05 1.63388E-06-2.64326E-19 1.38281E-18
 -1      3984 8.99174E-05-2.34573E-05-2.84958E-05 2.68567E-06-7.40821E-19 2.23163E-18
 -1      3985 8.92438E-05-2.29902E-05-2.83994E-05 2.98068E-06-6.10919E-19 1.87140E-18
 -1      3986 8.98891E-05-2.34225E-05-2.84699E-05 1.93352E-06-4.66426E-19 1.94477E-18
 -1      3987 8.83617E-05-2.24718E-05-2.82554E-05 3.21344E-06-3.89736E-19 1.95684E-18
 -1      3988 8.75514E-05-2.19988E-05-2.81002E-05 3.56639E-06-3.72035E-19 1.32023E-18
 -1      3989 8.83047E-05-2.23872E-05-2.82297E-05 2.27526E-06-5.90127E-19 1.95789E-18
 -1      3990 8.64712E-05-2.14717E-05-2.78799E-05 3.84905E-06 5.85803E-20 1.31946E-18
 -1      3991 8.55037E-05-2.10219E-05-2.76420E-05 4.28938E-06 3.70974E-19 1.17908E-18
 -1      3992 8.63721E-05-2.13057E-05-2.78581E-05 2.67198E-06-1.87216E-19 2.05350E-18
 -1      3993 8.41644E-05-2.05086E-05-2.73140E-05 4.65650E-06 4.76607E-19 9.96014E-19
 -1      3994 8.30158E-05-2.01249E-05-2.69606E-05 5.24687E-06 1.77408E-19 7.81394E-19
 -1      3995 8.39932E-05-2.02044E-05-2.73008E-05 3.16126E-06 1.08390E-19 1.64017E-18
 -1      3996 8.13165E-05-1.96443E-05-2.64794E-05 5.75967E-06-4.06928E-19 6.62722E-19
 -1      3997 7.99339E-05-1.93914E-05-2.59608E-05 6.64244E-06-5.31046E-19 1.76468E-19
 -1      3998 8.10226E-05-1.91154E-05-2.64800E-05 3.82555E-06-2.15261E-19-1.88136E-19
 -1      3999 7.77654E-05-1.89032E-05-2.52952E-05 7.08623E-06-2.26178E-19 4.91555E-19
 -1      4000 7.61173E-05-1.88685E-05-2.45485E-05 8.41673E-06 4.24741E-20 6.66231E-19
 -1      4001 7.23270E-05-1.67387E-05-2.36950E-05 5.14660E-06 5.75718E-20 6.13669E-19
 -1      4002 7.72904E-05-1.80036E-05-2.53235E-05 4.46697E-06-1.71570E-19 7.13539E-19
 -1      4003 7.34899E-05-1.91525E-05-2.33024E-05-1.10345E-05-7.15147E-20-1.53790E-18
 -1      4004 9.33694E-05-2.62278E-05-2.87730E-05-2.09510E-06 1.49015E-19 4.10649E-19
 -1      4005 9.36300E-05-2.65036E-05-2.87748E-05-1.87528E-06 4.37359E-19 3.77381E-19
 -1      4006 9.58790E-05-2.53335E-05-3.02362E-05-7.69973E-07-1.26720E-20 2.51306E-19
 -1      4007 9.10888E-05-2.44760E-05-2.85434E-05-4.03432E-06-2.62974E-19 2.02993E-19
 -1      4008 9.14291E-05-2.47115E-05-2.86046E-05-3.60345E-06 5.97231E-20 7.14689E-20
 -1      4009 9.19287E-05-2.50249E-05-2.86697E-05-3.23451E-06 3.40646E-20 1.81371E-19
 -1      4010 9.22530E-05-2.53008E-05-2.87032E-05-2.88596E-06 3.33203E-20 4.08768E-19
 -1      4011 9.11315E-05-2.44640E-05-2.85626E-05-3.00799E-06 1.31929E-19 5.89063E-20
 -1      4012 8.93508E-05-2.38967E-05-2.80387E-05-6.30852E-06-2.87368E-19 3.35681E-19
 -1      4013 8.96150E-05-2.38881E-05-2.81852E-05-5.64726E-06-4.16979E-19 4.67090E-19
 -1      4014 8.86414E-05-2.41605E-05-2.76131E-05-7.93792E-06-7.63735E-19 5.19938E-19
 -1      4015 8.87516E-05-2.38926E-05-2.78164E-05-7.10715E-06-9.37944E-19 3.12212E-19
 -1      4016 8.77381E-05-2.30293E-05-2.77208E-05-6.18826E-06-5.20904E-19 8.46845E-19
 -1      4017 8.82913E-05-2.51111E-05-2.70442E-05-1.00584E-05 1.58530E-19 9.86897E-19
 -1      4018 8.80976E-05-2.44296E-05-2.73084E-05-9.00525E-06 8.47589E-20 9.65537E-19
 -1      4019 8.65687E-05-2.31518E-05-2.71700E-05-8.01078E-06-7.31510E-19 1.04125E-18
 -1      4020 8.86296E-05-2.71118E-05-2.63249E-05-1.28214E-05-2.32900E-19 6.07196E-19
 -1      4021 8.79211E-05-2.57843E-05-2.66426E-05-1.14868E-05 8.46556E-20 1.19078E-18
 -1      4022 8.56086E-05-2.39647E-05-2.64259E-05-1.04882E-05 2.21416E-20 1.55085E-18
 -1      4023 9.12220E-05-3.14444E-05-2.55879E-05-1.65325E-05-1.04652E-18-1.11133E-18
 -1      4024 8.95789E-05-2.90770E-05-2.59055E-05-1.48568E-05-2.56245E-19 4.97590E-20
 -1      4025 8.58850E-05-2.64251E-05-2.55211E-05-1.41816E-05-1.87105E-19 7.75737E-19
 -1      4026 8.93501E-05-3.19041E-05-2.46531E-05-1.88952E-05-1.19703E-18-5.38528E-19
 -1      4027 6.99153E-05-1.60881E-05-2.30691E-05 2.22364E-06 9.22803E-20 5.27086E-19
 -1      4028 6.66241E-05-1.52519E-05-2.18997E-05-6.39961E-07 7.02977E-19 1.28011E-18
 -1      4029 6.98764E-05-1.65363E-05-2.29197E-05-4.30854E-06 6.80899E-19 2.03969E-18
 -1      4030 7.27519E-05-1.68240E-05-2.40253E-05 2.21930E-06-1.69413E-19 9.93082E-19
 -1      4031 9.44673E-05-2.73165E-05-2.87771E-05-1.41214E-06 3.98670E-19 5.95381E-19
 -1      4032 9.46653E-05-2.75440E-05-2.87702E-05-1.28744E-06 5.01140E-19 7.59089E-19
 -1      4033 8.10825E-05-1.92821E-05-2.65210E-05-1.93597E-06-9.10450E-19-1.78662E-18
 -1      4034 8.14556E-05-1.93533E-05-2.65777E-05 1.19612E-06-8.73219E-19 2.00201E-18
 -1      4035 9.58786E-05-2.87757E-05-2.87567E-05-1.10826E-06 2.90552E-20 7.67081E-19
 -1      4036 9.59571E-05-2.88167E-05-2.87742E-05-1.07979E-06 4.49068E-20 6.01092E-19
 -1      4037 9.61448E-05-2.88497E-05-2.88421E-05-9.62750E-07 3.27398E-20 7.74293E-19
 -1      4038 9.59162E-05-2.87487E-05-2.87871E-05-1.01772E-06 1.01492E-19 6.93918E-19
 -1      4039 9.53830E-05-2.41867E-05-3.05268E-05 1.28485E-06 2.88227E-19 2.44376E-19
 -1      4040 9.52823E-05-2.38520E-05-3.06152E-05 1.00682E-06 2.54893E-19 2.07792E-19
 -1      4041 9.57228E-05-2.47107E-05-3.04201E-05 6.27011E-07 2.31521E-19 2.32820E-19
 -1      4042 9.58783E-05-2.53537E-05-3.02150E-05 8.10270E-07 1.31626E-19 2.19470E-19
 -1      4043 7.74667E-05-1.96761E-05-2.47353E-05-9.24526E-06-2.24927E-19-1.69908E-18
 -1      4044 7.89941E-05-1.96888E-05-2.54875E-05-7.97535E-06-6.33720E-19-2.61688E-18
 -1      4045 8.58643E-05-2.12624E-05-2.77099E-05 4.09187E-06 2.51052E-19 2.15376E-18
 -1      4046 8.68292E-05-2.19159E-05-2.78142E-05 5.44763E-06-9.78527E-20 2.63661E-18
 -1      4047 8.62796E-05-2.19993E-05-2.75593E-05 6.13142E-06-1.80991E-19 2.86444E-18
 -1      4048 8.43508E-05-2.06887E-05-2.72778E-05 3.67676E-06-7.90492E-19 2.34405E-18
 -1      4049 8.09264E-05-1.99608E-05-2.61208E-05-7.23179E-06-6.45793E-19-3.77214E-18
 -1      4050 8.23538E-05-2.01695E-05-2.66942E-05-6.36716E-06-7.12404E-19-4.28168E-18
 -1      4051 8.15782E-05-1.94845E-05-2.65780E-05-4.36948E-06-9.73540E-19-4.74939E-18
 -1      4052 7.81921E-05-1.87277E-05-2.54347E-05-5.36542E-06-1.35393E-18-5.01620E-18
 -1      4053 9.64752E-05-2.86453E-05-2.90714E-05-7.54813E-07-5.75941E-20 8.99328E-19
 -1      4054 9.63349E-05-2.85954E-05-2.90328E-05-8.26674E-07 5.17429E-20 5.68322E-19
 -1      4055 9.63703E-05-2.84207E-05-2.91173E-05-6.94183E-07 7.66324E-20 7.55662E-19
 -1      4056 7.74786E-05-2.19117E-05-2.38849E-05 1.28624E-05-1.56863E-19 1.75232E-18
 -1      4057 7.25836E-05-1.80841E-05-2.32427E-05 7.88097E-06-7.42722E-19 4.41660E-18
 -1      4058 9.26931E-05-2.56262E-05-2.87405E-05-2.59763E-06-2.18332E-19 4.87869E-19
 -1      4059 9.29878E-05-2.59117E-05-2.87547E-05-2.31834E-06-1.77613E-19 2.40036E-19
 -1      4060 9.28817E-05-2.58281E-05-2.87311E-05-1.90896E-06 1.17593E-19 4.78830E-19
 -1      4061 6.99587E-05-1.66687E-05-2.29453E-05 1.85111E-06-1.52609E-18-5.37337E-20
 -1      4062 7.04119E-05-1.68710E-05-2.28700E-05-5.12473E-06-3.98128E-19-3.64149E-18
 -1      4063 9.39582E-05-2.67973E-05-2.87814E-05-1.70569E-06 4.40133E-19 4.62378E-19
 -1      4064 9.41855E-05-2.70521E-05-2.87765E-05-1.53717E-06 3.08506E-19 6.21762E-19
 -1      4065 9.35858E-05-2.64696E-05-2.87594E-05-1.53999E-06 4.16495E-19 8.15554E-19
 -1      4066 9.67247E-05-2.86295E-05-2.91819E-05 5.11753E-07-9.84083E-20 6.41890E-20
 -1      4067 9.66636E-05-2.87688E-05-2.90988E-05 5.89343E-07-2.08093E-20 1.60331E-19
 -1      4068 9.67015E-05-2.87984E-05-2.91021E-05 4.69213E-07-4.86967E-20 4.42092E-19
 -1      4069 8.87189E-05-2.43078E-05-2.76045E-05 9.00340E-06 8.88837E-19 2.12241E-18
 -1      4070 9.02071E-05-2.40601E-05-2.83408E-05-5.03833E-06-4.94736E-19 4.62785E-19
 -1      4071 9.05352E-05-2.42084E-05-2.84395E-05-4.50628E-06-3.08046E-19 4.25433E-19
 -1      4072 9.00824E-05-2.38251E-05-2.83855E-05-3.80323E-06-2.86511E-19 7.69319E-20
 -1      4073 9.59485E-05-2.54156E-05-3.02339E-05-6.12791E-07-6.20999E-20 3.91209E-19
 -1      4074 9.61486E-05-2.59073E-05-3.00932E-05-4.98358E-07 3.21180E-20 2.99971E-19
 -1      4075 9.63620E-05-2.66207E-05-2.98967E-05-2.13224E-07 1.16244E-19 4.06310E-19
 -1      4076 9.59251E-05-2.52345E-05-3.03005E-05-4.50222E-07 8.28044E-20 2.67457E-19
 -1      4077 7.43864E-05-2.11508E-05-2.26538E-05-1.47546E-05-1.07002E-19 4.12753E-19
 -1      4078 7.92630E-05-2.42391E-05-2.35578E-05-1.60424E-05-5.64995E-19 4.37400E-19
 -1      4079 7.26552E-05-1.91835E-05-2.29786E-05-1.08981E-05 1.72384E-21 1.02661E-18
 -1      4080 9.52945E-05-2.81671E-05-2.87672E-05-1.05188E-06 2.44068E-19 1.14675E-18
 -1      4081 9.54485E-05-2.83293E-05-2.87674E-05-9.92060E-07 1.28916E-19 1.20515E-18
 -1      4082 8.62799E-05-2.27021E-05-2.72103E-05 8.05104E-06 8.50259E-21 1.62737E-18
 -1      4083 8.75670E-05-2.44448E-05-2.70870E-05 1.01553E-05 7.31989E-19 1.12442E-18
 -1      4084 7.23511E-05-1.76874E-05-2.33926E-05-7.12239E-06-4.10914E-19-3.27818E-18
 -1      4085 9.56352E-05-2.84859E-05-2.87768E-05-9.55280E-07 1.28476E-19 1.19797E-18
 -1      4086 9.57732E-05-2.86094E-05-2.87856E-05-9.14759E-07 9.67347E-20 1.09731E-18
 -1      4087 9.55578E-05-2.83824E-05-2.87893E-05-8.23283E-07 1.48898E-19 1.15243E-18
 -1      4088 9.64265E-05-2.88729E-05-2.89514E-05-7.81500E-07-1.02869E-19 7.54088E-19
 -1      4089 9.65122E-05-2.88200E-05-2.90095E-05-7.26658E-07-1.26048E-19 7.55847E-19
 -1      4090 9.64407E-05-2.66021E-05-2.99348E-05-1.65096E-07 1.31485E-19 3.80898E-19
 -1      4091 9.65808E-05-2.71527E-05-2.97457E-05-3.40671E-08 8.82509E-20 3.64721E-19
 -1      4092 9.67636E-05-2.81572E-05-2.93986E-05 3.23213E-07-1.16080E-19 3.29104E-19
 -1      4093 9.67529E-05-2.84279E-05-2.92854E-05 4.51316E-07-1.89006E-19 1.22592E-19
 -1      4094 9.68161E-05-2.84878E-05-2.92829E-05 3.65702E-07-1.94780E-19 2.38475E-19
 -1      4095 9.20658E-05-2.51488E-05-2.86710E-05-2.38937E-06-2.95910E-20 5.41379E-19
 -1      4096 8.99532E-05-2.86447E-05-2.62235E-05 1.43486E-05-2.28203E-19 7.05283E-19
 -1      4097 8.67302E-05-2.70994E-05-2.55344E-05 1.50405E-05-2.55351E-19-1.27166E-18
 -1      4098 8.88258E-05-2.70600E-05-2.64880E-05 1.31540E-05 9.29792E-19 8.75695E-19
 -1      4099 8.42429E-05-2.56201E-05-2.50943E-05 1.45186E-05-1.96227E-19-1.29329E-18
 -1      4100 8.04042E-05-2.34362E-05-2.43247E-05 1.40668E-05 7.97468E-20-1.32444E-18
 -1      4101 7.93029E-05-2.14843E-05-2.48015E-05 1.07271E-05-1.62442E-19 7.73076E-19
 -1      4102 8.38064E-05-2.42868E-05-2.55690E-05 1.26807E-05 4.31021E-19-1.13228E-18
 -1      4103 7.96119E-05-1.89266E-05-2.60090E-05-2.22918E-06-1.07629E-18-2.17117E-18
 -1      4104 9.66567E-05-2.87603E-05-2.90997E-05-5.75806E-07-1.21972E-19 5.46927E-19
 -1      4105 9.65881E-05-2.87218E-05-2.90864E-05-6.80689E-07-8.08884E-20 6.08711E-19
 -1      4106 9.66392E-05-2.85703E-05-2.91710E-05-5.87066E-07-6.35483E-20 6.28004E-19
 -1      4107 9.56086E-05-2.43351E-05-3.05300E-05-2.39489E-07 1.19750E-19 3.43663E-19
 -1      4108 8.01849E-05-1.93634E-05-2.60815E-05 2.99399E-06-3.40259E-19 2.06156E-18
 -1      4109 8.23848E-05-2.01779E-05-2.66997E-05 3.95160E-06-1.04385E-18 2.22898E-18
 -1      4110 8.34400E-05-2.07556E-05-2.68317E-05 5.30490E-06-6.21508E-19 2.23718E-18
 -1      4111 9.63718E-05-2.68334E-05-2.98017E-05 1.63305E-07 4.74860E-20 2.77034E-19
 -1      4112 9.61754E-05-2.61840E-05-3.00009E-05 5.18599E-07 2.09454E-20 1.95040E-19
 -1      4113 9.61096E-05-2.58340E-05-3.01155E-05 4.86117E-07 5.31553E-20 6.37073E-20
 -1      4114 9.65205E-05-2.82345E-05-2.92664E-05-5.20224E-07 9.21634E-20 7.60955E-19
 -1      4115 9.59552E-05-2.52282E-05-3.03208E-05 2.81750E-07 1.83092E-19 1.57912E-19
 -1      4116 9.59454E-05-2.51604E-05-3.03435E-05 8.37640E-08 1.54932E-19 2.77926E-19
 -1      4117 9.41905E-05-2.70544E-05-2.87692E-05-1.26243E-06 4.33586E-19 8.93402E-19
 -1      4118 7.43106E-05-1.80970E-05-2.40540E-05 3.80848E-06-5.57877E-19 2.18280E-18
 -1      4119 8.89372E-05-2.33094E-05-2.81147E-05-4.83313E-06-3.66254E-19 3.71184E-19
 -1      4120 8.79068E-05-2.53711E-05-2.67869E-05 1.13057E-05 1.22741E-18 5.94089E-19
 -1      4121 9.49087E-05-2.77752E-05-2.87697E-05-1.19918E-06 4.07487E-19 9.13767E-19
 -1      4122 9.50822E-05-2.79715E-05-2.87647E-05-1.11083E-06 3.60317E-19 1.11040E-18
 -1      4123 9.51623E-05-2.80167E-05-2.87756E-05-9.18301E-07 4.12968E-19 9.65179E-19
 -1      4124 9.66718E-05-2.76390E-05-2.95908E-05 1.62692E-07-5.97527E-20 2.89911E-19
 -1      4125 9.60833E-05-2.56679E-05-3.01868E-05 4.59772E-07 6.91056E-20 1.36995E-19
 -1      4126 9.60061E-05-2.53812E-05-3.02686E-05 3.50126E-07 1.43493E-19 1.87142E-19
 -1      4127 9.63371E-05-2.60807E-05-3.00946E-05 1.43103E-07 1.08776E-19 2.84010E-19
 -1      4128 9.63852E-05-2.64259E-05-2.99757E-05 1.96915E-07-5.56105E-20 9.54577E-20
 -1      4129 9.47109E-05-2.75722E-05-2.87716E-05-1.06000E-06 5.44801E-19 9.26350E-19
 -1      4130 9.67620E-05-2.77448E-05-2.95776E-05 1.51972E-07-1.11322E-19 2.82849E-19
 -1      4131 8.47586E-05-2.78932E-05-2.43366E-05-1.74319E-05-3.67899E-19 6.20958E-19
 -1      4132 9.66065E-05-2.88992E-05-2.90172E-05 3.52542E-07-1.23735E-19 2.91139E-19
 -1      4133 9.64811E-05-2.88981E-05-2.89632E-05 3.84930E-07-3.35748E-19 2.04577E-19
 -1      4134 9.50352E-05-2.78820E-05-2.87792E-05-7.41481E-07 7.41556E-19 4.95092E-19
 -1      4135 9.52495E-05-2.80914E-05-2.87837E-05-6.84635E-07 5.11032E-19 7.74993E-19
 -1      4136 7.44511E-05-1.77709E-05-2.43639E-05-4.27137E-06-2.50646E-19-4.10366E-18
 -1      4137 9.63266E-05-2.88559E-05-2.89162E-05 3.85198E-07-2.01380E-19 4.10818E-19
 -1      4138 9.61688E-05-2.87792E-05-2.88807E-05 4.09126E-07 4.81704E-20 4.41861E-19
 -1      4139 9.64335E-05-2.88720E-05-2.89564E-05 2.16059E-07-1.71485E-19 1.27433E-19
 -1      4140 9.59856E-05-2.86694E-05-2.88502E-05 4.13932E-07 2.67201E-19 7.39637E-19
 -1      4141 9.58020E-05-2.85340E-05-2.88288E-05 4.36921E-07 4.69313E-19 6.28805E-19
 -1      4142 9.60963E-05-2.87169E-05-2.88771E-05 2.33050E-07 1.94630E-19 7.64324E-19
 -1      4143 9.55890E-05-2.83673E-05-2.88103E-05 4.44661E-07 3.64754E-19 3.65053E-19
 -1      4144 9.53788E-05-2.81812E-05-2.87988E-05 4.73662E-07 1.18833E-19 2.86154E-19
 -1      4145 9.57044E-05-2.84378E-05-2.88276E-05 2.48400E-07 3.03051E-19 4.79674E-19
 -1      4146 9.51313E-05-2.79635E-05-2.87883E-05 4.86772E-07 8.72885E-20 2.67067E-19
 -1      4147 9.48890E-05-2.77293E-05-2.87828E-05 5.27091E-07-1.74953E-20 2.99128E-19
 -1      4148 9.52480E-05-2.80462E-05-2.87982E-05 2.68940E-07-1.07755E-20 1.75768E-19
 -1      4149 9.46024E-05-2.74658E-05-2.87760E-05 5.47431E-07 1.56170E-19 3.25790E-19
 -1      4150 9.43187E-05-2.71855E-05-2.87722E-05 6.00041E-07 5.12205E-20 7.57312E-19
 -1      4151 9.47231E-05-2.75580E-05-2.87798E-05 2.98007E-07 1.16172E-19 3.24020E-19
 -1      4152 9.39819E-05-2.68749E-05-2.87643E-05 6.28817E-07-7.22454E-20 1.03267E-18
 -1      4153 9.36445E-05-2.65480E-05-2.87576E-05 6.95118E-07 3.49959E-21 1.63395E-18
 -1      4154 9.41091E-05-2.69736E-05-2.87639E-05 3.34156E-07 2.72782E-19 5.20738E-19
 -1      4155 9.32444E-05-2.61897E-05-2.87432E-05 7.31942E-07-3.49205E-19 1.49455E-18
 -1      4156 9.28387E-05-2.58153E-05-2.87276E-05 8.11927E-07-2.19747E-19 1.43395E-18
 -1      4157 9.33831E-05-2.62937E-05-2.87403E-05 3.76443E-07-1.52926E-19 7.85284E-19
 -1      4158 9.23597E-05-2.54091E-05-2.87000E-05 8.55315E-07-9.14155E-20 1.51273E-18
 -1      4159 9.18685E-05-2.49878E-05-2.86682E-05 9.47533E-07-1.37299E-19 1.42354E-18
 -1      4160 9.25166E-05-2.55177E-05-2.86968E-05 4.20696E-07-3.93490E-19 1.09652E-18
 -1      4161 9.12926E-05-2.45353E-05-2.86190E-05 9.94728E-07 3.92316E-20 1.59216E-18
 -1      4162 9.06957E-05-2.40695E-05-2.85614E-05 1.09650E-06-1.44276E-19 1.61498E-18
 -1      4163 9.14761E-05-2.46474E-05-2.86180E-05 4.59649E-07 1.36567E-19 1.40346E-18
 -1      4164 9.00015E-05-2.35751E-05-2.84794E-05 1.14341E-06-4.65055E-19 1.61238E-18
 -1      4165 8.92749E-05-2.30708E-05-2.83836E-05 1.25157E-06-3.86314E-19 1.49517E-18
 -1      4166 9.02228E-05-2.36887E-05-2.84843E-05 4.82301E-07-3.76708E-19 1.23129E-18
 -1      4167 8.84356E-05-2.25422E-05-2.82541E-05 1.29305E-06-2.12684E-19 1.22402E-18
 -1      4168 8.75486E-05-2.20082E-05-2.81032E-05 1.40580E-06-3.47765E-19 1.47754E-18
 -1      4169 8.87095E-05-2.26526E-05-2.82699E-05 4.73449E-07-5.35044E-19 4.54049E-19
 -1      4170 8.65267E-05-2.14551E-05-2.79066E-05 1.43640E-06-1.82921E-19 1.62257E-18
 -1      4171 8.54364E-05-2.09023E-05-2.76777E-05 1.55717E-06 1.97407E-20 1.71592E-18
 -1      4172 8.68743E-05-2.15543E-05-2.79404E-05 4.13327E-07-9.79183E-20 1.18596E-18
 -1      4173 8.41734E-05-2.03326E-05-2.73866E-05 1.57297E-06-5.23982E-19 1.33756E-18
 -1      4174 8.28146E-05-1.97704E-05-2.70474E-05 1.71793E-06-5.68226E-19 8.52011E-19
 -1      4175 8.46259E-05-2.04071E-05-2.74491E-05 2.76649E-07-5.48705E-19 8.86977E-19
 -1      4176 8.12092E-05-1.91784E-05-2.66219E-05 1.72543E-06-5.14548E-20 3.36604E-19
 -1      4177 7.95071E-05-1.86251E-05-2.61250E-05 1.93068E-06-2.28019E-19 2.43512E-19
 -1      4178 8.18119E-05-1.92125E-05-2.67292E-05 2.84004E-08-6.35725E-19 1.07160E-18
 -1      4179 7.75112E-05-1.80371E-05-2.55399E-05 2.08866E-06-4.10079E-19 1.12162E-18
 -1      4180 7.54575E-05-1.74803E-05-2.48716E-05 2.12428E-06-1.78870E-19 1.11056E-18
 -1      4181 7.38023E-05-1.68654E-05-2.42970E-05-4.42302E-07-1.64738E-19 1.79746E-18
 -1      4182 7.81872E-05-1.79456E-05-2.57110E-05-2.95288E-07-9.55890E-20 1.68172E-18
 -1      4183 8.29732E-05-2.25497E-05-2.58659E-05-1.00327E-05-1.58163E-19 1.18872E-18
 -1      4184 8.33531E-05-2.20618E-05-2.63180E-05-8.68088E-06-1.70592E-19 1.29009E-18
 -1      4185 9.63118E-05-2.88811E-05-2.88982E-05-8.06787E-07 9.37022E-20 6.85109E-19
 -1      4186 9.64665E-05-2.88798E-05-2.89668E-05-6.58203E-07-1.30590E-20 9.17147E-19
 -1      4187 9.62042E-05-2.88600E-05-2.88609E-05-8.41827E-07 9.52658E-20 6.46947E-19
 -1      4188 8.49456E-05-2.19088E-05-2.70292E-05 6.96290E-06-2.53958E-19 2.30880E-18
 -1      4189 9.66023E-05-2.78184E-05-2.94790E-05-2.75053E-07 1.47598E-19 5.86368E-19
 -1      4190 9.65275E-05-2.73921E-05-2.96316E-05-3.37731E-08 8.30141E-20 3.91835E-19
 -1      4191 9.65531E-05-2.71731E-05-2.97336E-05 1.37042E-08-3.42300E-20 1.16534E-19
 -1      4192 9.04191E-05-2.39719E-05-2.84770E-05-2.59993E-06-3.96712E-20 7.09715E-19
 -1      4193 9.09189E-05-2.43355E-05-2.85490E-05-2.28894E-06-1.70847E-20 8.34328E-19
 -1      4194 8.46272E-05-2.20796E-05-2.67856E-05-7.42088E-06-4.05055E-19 1.32785E-18
 -1      4195 8.51706E-05-2.19967E-05-2.71178E-05-6.46427E-06-6.97199E-19 1.59460E-18
 -1      4196 8.21522E-05-2.06697E-05-2.62669E-05-6.87771E-06-8.03970E-20 1.34163E-18
 -1      4197 8.62520E-05-2.21762E-05-2.74516E-05-5.61058E-06-6.59968E-19 1.63399E-18
 -1      4198 8.68537E-05-2.23116E-05-2.76923E-05-4.91243E-06-3.27976E-19 1.61120E-18
 -1      4199 8.44861E-05-2.11031E-05-2.70930E-05-5.03768E-06-5.18125E-19 2.20235E-18
 -1      4200 8.35056E-05-2.54389E-05-2.48478E-05-1.46241E-05-5.77438E-20 8.56351E-19
 -1      4201 8.27280E-05-2.35656E-05-2.53587E-05-1.22448E-05 3.08245E-20 7.91162E-19
 -1      4202 8.04531E-05-2.16161E-05-2.52558E-05-1.04029E-05 3.93927E-19 5.23164E-19
 -1      4203 8.11326E-05-2.47979E-05-2.41489E-05-1.56983E-05-2.20270E-19 3.63314E-19
 -1      4204 7.62268E-05-1.80396E-05-2.48997E-05-3.27829E-06-1.92931E-19-3.37356E-18
 -1      4205 7.80487E-05-1.85092E-05-2.55602E-05-2.75821E-06-1.05497E-18-3.21102E-18
 -1      4206 7.78686E-05-1.82583E-05-2.55043E-05-3.94870E-07 1.08711E-19 1.67239E-20
 -1      4207 7.45969E-05-1.73134E-05-2.44607E-05-1.43092E-06 4.77349E-20-2.31486E-18
 -1      4208 7.76585E-05-1.89933E-05-2.51555E-05 4.39595E-06 8.36445E-21 2.87491E-18
 -1      4209 7.93666E-05-2.00938E-05-2.53718E-05 7.27112E-06-8.35600E-19 2.59088E-18
 -1      4210 8.33262E-05-2.15597E-05-2.64658E-05 7.43505E-06-2.88444E-19 1.59003E-18
 -1      4211 9.66544E-05-2.83939E-05-2.92555E-05-5.28505E-07-3.39254E-20 5.40914E-19
 -1      4212 9.66461E-05-2.81144E-05-2.93706E-05-3.74289E-07 1.35764E-19 5.92746E-19
 -1      4213 9.67245E-05-2.79874E-05-2.94589E-05-2.79063E-07 8.71664E-20 2.50893E-19
 -1      4214 9.67452E-05-2.84606E-05-2.92650E-05-4.54674E-07-1.14135E-19 2.87361E-19
 -1      4215 9.32522E-05-2.61874E-05-2.87423E-05-1.28871E-06 2.15297E-19 1.10134E-18
 -1      4216 9.35812E-05-2.65074E-05-2.87518E-05-1.14403E-06 2.78227E-19 1.08789E-18
 -1      4217 9.45279E-05-2.73935E-05-2.87715E-05-8.66996E-07 5.03006E-19 7.00647E-19
 -1      4218 9.47724E-05-2.76422E-05-2.87731E-05-7.87615E-07 7.57162E-19 7.93583E-19
 -1      4219 9.48682E-05-2.77076E-05-2.87798E-05-5.48684E-07 5.72302E-19 4.27487E-19
 -1      4220 8.91771E-05-2.32399E-05-2.82570E-05-3.33176E-06-8.61261E-19 1.28757E-18
 -1      4221 8.97308E-05-2.35741E-05-2.83702E-05-2.93123E-06-2.92006E-19 1.09862E-18
 -1      4222 8.96264E-05-2.33812E-05-2.83598E-05-2.14512E-06-3.94231E-19 1.70007E-18
 -1      4223 9.24468E-05-2.54845E-05-2.86985E-05-1.61399E-06 2.88412E-19 1.18079E-18
 -1      4224 9.28292E-05-2.58324E-05-2.87207E-05-1.42539E-06 2.66388E-19 1.31695E-18
 -1      4225 9.28739E-05-2.58439E-05-2.87139E-05-1.00041E-06 2.22134E-19 1.31764E-18
 -1      4226 9.39397E-05-2.68269E-05-2.87626E-05-1.04499E-06 2.93027E-19 9.78399E-19
 -1      4227 9.42225E-05-2.71129E-05-2.87656E-05-9.36337E-07 4.35607E-19 8.64388E-19
 -1      4228 9.36476E-05-2.65466E-05-2.87482E-05-7.97677E-07 2.38229E-19 1.26476E-18
 -1      4229 9.59440E-05-2.51556E-05-3.03448E-05-7.31391E-08 1.69034E-19 4.68029E-19
 -1      4230 9.59536E-05-2.52076E-05-3.03255E-05-2.79478E-07 1.02345E-19 3.82632E-19
 -1      4231 9.63054E-05-2.59268E-05-3.01483E-05-1.09199E-08 5.00742E-20 4.55943E-19
 -1      4232 8.77832E-05-2.26092E-05-2.79272E-05-4.30163E-06-3.21313E-19 1.39144E-18
 -1      4233 8.83758E-05-2.28730E-05-2.80957E-05-3.77853E-06-8.12999E-19 1.11671E-18
 -1      4234 8.81583E-05-2.25332E-05-2.80845E-05-2.82016E-06-7.90064E-19 2.08767E-18
 -1      4235 8.64570E-05-2.17507E-05-2.76776E-05-3.74600E-06-5.09127E-19 1.84482E-18
 -1      4236 9.68055E-05-2.87586E-05-2.91624E-05 3.01037E-07-1.97260E-19 3.33017E-19
 -1      4237 9.67218E-05-2.88550E-05-2.90851E-05 3.49921E-07-5.55220E-20 3.23273E-19
 -1      4238 9.66986E-05-2.88689E-05-2.90722E-05 1.94283E-07-2.64852E-19 5.36157E-20
 -1      4239 9.15068E-05-2.47359E-05-2.86163E-05-2.04146E-06 3.14289E-20 7.89528E-19
 -1      4240 9.19474E-05-2.51008E-05-2.86587E-05-1.79879E-06 1.67335E-19 1.38185E-18
 -1      4241 9.08864E-05-2.42400E-05-2.85391E-05-1.64657E-06-9.63457E-20 1.41889E-18
 -1      4242 9.62492E-05-2.59253E-05-3.01269E-05-2.49564E-07 1.18203E-19 4.22001E-19
 -1      4243 9.64804E-05-2.65906E-05-2.99618E-05-6.43484E-08 5.24814E-20 4.64347E-19
 -1      4244 8.12147E-05-2.13973E-05-2.56324E-05 9.20124E-06-7.27054E-19 1.89549E-18
 -1      4245 9.19612E-05-2.50697E-05-2.86499E-05-1.27586E-06 2.25378E-19 1.62560E-18
 -1      4246 9.53572E-05-2.81654E-05-2.87970E-05-4.75422E-07 4.64246E-19 2.19539E-19
 -1      4247 9.54764E-05-2.82883E-05-2.87944E-05-6.57997E-07 4.21049E-19 8.11240E-19
 -1      4248 9.56637E-05-2.84532E-05-2.88057E-05-6.18009E-07 9.08492E-20 8.68296E-19
 -1      4249 9.64865E-05-2.89009E-05-2.89650E-05-5.23904E-07 5.25962E-20 6.11677E-19
 -1      4250 9.66032E-05-2.88849E-05-2.90207E-05-4.83499E-07-1.13513E-19 5.15405E-19
 -1      4251 9.43053E-05-2.71693E-05-2.87665E-05-6.51301E-07 2.41583E-19 7.44970E-19
 -1      4252 9.65428E-05-2.67637E-05-2.99156E-05 8.95806E-08 4.70970E-20 1.84863E-19
 -1      4253 9.65148E-05-2.66139E-05-2.99644E-05 5.30488E-08 5.20456E-20 1.96980E-19
 -1      4254 9.68948E-05-2.83830E-05-2.93607E-05 2.14730E-07-2.03855E-19 3.59662E-19
 -1      4255 9.68673E-05-2.86069E-05-2.92559E-05 2.89138E-07-3.16569E-19 2.53277E-19
 -1      4256 9.68695E-05-2.86576E-05-2.92349E-05 1.58403E-07-3.01274E-19 4.98321E-19
 -1      4257 9.59381E-05-2.87222E-05-2.88055E-05-8.91833E-07 7.17841E-20 8.18656E-19
 -1      4258 9.60615E-05-2.88001E-05-2.88266E-05-8.60346E-07-3.78438E-20 7.75772E-19
 -1      4259 9.62110E-05-2.88337E-05-2.88768E-05-7.11236E-07-4.62117E-20 7.10558E-19
 -1      4260 9.67023E-05-2.88210E-05-2.90918E-05-4.69902E-07-3.44894E-19 3.10087E-19
 -1      4261 9.67785E-05-2.87059E-05-2.91721E-05-4.06715E-07-3.60307E-19 2.51577E-19
 -1      4262 9.67081E-05-2.88455E-05-2.90871E-05-3.33953E-07-3.02859E-19-1.22482E-19
 -1      4263 9.67645E-05-2.73843E-05-2.97271E-05 8.56427E-09 1.78303E-20 4.05613E-19
 -1      4264 9.68560E-05-2.79598E-05-2.95310E-05 1.61674E-07-6.12037E-20 3.11320E-19
 -1      4265 9.68925E-05-2.80675E-05-2.94955E-05 9.08080E-08-1.11822E-19 3.46211E-19
 -1      4266 9.65843E-05-2.68197E-05-2.99022E-05-3.03231E-08-2.22605E-21 5.09876E-19
 -1      4267 9.59062E-05-2.86593E-05-2.88204E-05-7.59607E-07-1.81263E-19 1.13588E-18
 -1      4268 9.65892E-05-2.68225E-05-2.99047E-05 2.72030E-08 7.15000E-20 2.83034E-19
 -1      4269 7.59772E-05-1.85980E-05-2.46322E-05 4.12957E-06 2.96263E-20 2.99256E-18
 -1      4270 7.16697E-05-1.73120E-05-2.31588E-05-7.42283E-06 4.50243E-19 2.19824E-18
 -1      4271 7.46009E-05-1.95106E-05-2.36774E-05-1.00417E-05 1.24689E-19 1.12622E-18
 -1      4272 7.18912E-05-1.68988E-05-2.36104E-05-3.85709E-06 3.93285E-19 2.18654E-18
 -1      4273 8.54539E-05-2.40948E-05-2.63169E-05 1.11828E-05 4.60251E-19-1.44322E-18
 -1      4274 8.90122E-05-2.30262E-05-2.83036E-05-9.71432E-07-7.88776E-19 1.53813E-18
 -1      4275 8.97268E-05-2.34762E-05-2.84159E-05-7.28427E-07-6.45888E-19 1.01962E-18
 -1      4276 9.63461E-05-2.88746E-05-2.89157E-05-5.30868E-07-3.10028E-20 7.68531E-19
 -1      4277 9.64648E-05-2.88856E-05-2.89651E-05-3.72088E-07-8.30870E-20 4.79540E-19
 -1      4278 9.62016E-05-2.88151E-05-2.88790E-05-5.60575E-07-2.20476E-19 8.30555E-19
 -1      4279 9.64772E-05-2.88909E-05-2.89650E-05-8.45023E-08-1.34889E-19 4.85674E-19
 -1      4280 9.63173E-05-2.88387E-05-2.89180E-05-7.64459E-08 1.59013E-19 5.91448E-19
 -1      4281 9.58156E-05-2.85287E-05-2.88376E-05 3.98280E-08 1.53107E-19 3.56767E-19
 -1      4282 9.56020E-05-2.83612E-05-2.88183E-05 5.19317E-08 2.63606E-19 2.50772E-19
 -1      4283 9.53031E-05-2.81087E-05-2.87986E-05-1.20094E-07 4.50435E-19 4.13704E-20
 -1      4284 9.50518E-05-2.78843E-05-2.87878E-05-1.12943E-07 1.93383E-19 2.81986E-19
 -1      4285 9.47847E-05-2.76391E-05-2.87799E-05-1.48613E-07 4.48951E-20 4.14280E-19
 -1      4286 9.44916E-05-2.73659E-05-2.87718E-05-1.41979E-07 1.86182E-19 5.70872E-19
 -1      4287 9.41807E-05-2.70769E-05-2.87640E-05-1.92250E-07 1.73913E-19 5.79486E-19
 -1      4288 9.38366E-05-2.67566E-05-2.87544E-05-1.86877E-07 1.74743E-19 2.97377E-19
 -1      4289 9.34711E-05-2.64251E-05-2.87417E-05-2.56943E-07 1.82865E-19 5.96102E-19
 -1      4290 9.30625E-05-2.60577E-05-2.87250E-05-2.55316E-07-2.27142E-19 6.34580E-19
 -1      4291 9.26302E-05-2.56856E-05-2.87011E-05-3.51499E-07-4.18454E-19 1.04883E-18
 -1      4292 9.21413E-05-2.52719E-05-2.86705E-05-3.57602E-07 6.10718E-20 1.20168E-18
 -1      4293 9.16290E-05-2.48637E-05-2.86277E-05-4.88527E-07 1.72417E-19 1.28125E-18
 -1      4294 9.10413E-05-2.44066E-05-2.85744E-05-5.08363E-07 1.93169E-19 1.17282E-18
 -1      4295 9.04353E-05-2.39708E-05-2.85032E-05-6.86301E-07-2.15743E-19 1.23262E-18
 -1      4296 8.81550E-05-2.25033E-05-2.81675E-05-1.04764E-06-5.27655E-19 1.44932E-18
 -1      4297 8.73147E-05-2.20587E-05-2.79982E-05-1.38289E-06-2.67437E-19 1.60315E-18
 -1      4298 8.62699E-05-2.15185E-05-2.77934E-05-1.50938E-06-4.25285E-19 1.68059E-18
 -1      4299 8.52817E-05-2.11048E-05-2.75460E-05-1.97802E-06-5.95997E-19 1.77220E-18
 -1      4300 8.39912E-05-2.05579E-05-2.72451E-05-2.17828E-06-8.00928E-19 1.67704E-18
 -1      4301 8.28251E-05-2.02043E-05-2.68917E-05-2.84014E-06-5.71029E-19 1.65293E-18
 -1      4302 8.12053E-05-1.96562E-05-2.64557E-05-3.15848E-06-3.46044E-19 1.43980E-18
 -1      4303 7.98216E-05-1.93923E-05-2.59565E-05-4.07475E-06 2.56295E-19 1.03542E-18
 -1      4304 9.67847E-05-2.73758E-05-2.97377E-05 1.20763E-09 1.65362E-20 3.44413E-19
 -1      4305 7.83779E-05-2.19072E-05-2.41316E-05-1.29599E-05-1.53916E-19-3.02452E-19
 -1      4306 9.67373E-05-2.88707E-05-2.90847E-05-7.74849E-08-2.75229E-19 4.72707E-19
 -1      4307 9.66176E-05-2.89059E-05-2.90170E-05-6.48428E-08-3.10162E-19 3.51131E-19
 -1      4308 9.58643E-05-2.86040E-05-2.88250E-05-6.00865E-07-2.34476E-19 9.70061E-19
 -1      4309 9.60292E-05-2.87211E-05-2.88469E-05-5.71761E-07-2.82511E-19 6.95843E-19
 -1      4310 9.61488E-05-2.87622E-05-2.88806E-05-3.97450E-07-2.36529E-19 4.51640E-19
 -1      4311 9.57807E-05-2.85141E-05-2.88282E-05-4.29361E-07-3.25094E-20 2.58282E-19
 -1      4312 8.34260E-05-2.28348E-05-2.59682E-05 1.04628E-05 6.96817E-21-2.49956E-19
 -1      4313 9.65647E-05-2.70518E-05-2.97971E-05 6.38240E-08-6.45828E-20-3.60384E-20
 -1      4314 9.65538E-05-2.68722E-05-2.98634E-05 6.88614E-08 6.45739E-21 5.13405E-20
 -1      4315 9.67223E-05-2.73074E-05-2.97414E-05-2.75805E-08-2.18825E-20 1.10277E-19
 -1      4316 9.67055E-05-2.75627E-05-2.96303E-05-1.28368E-07 7.01053E-20 3.51942E-20
 -1      4317 7.79862E-05-1.88527E-05-2.53809E-05-4.48344E-06 4.56978E-19 1.10431E-18
 -1      4318 9.68353E-05-2.87932E-05-2.91590E-05-4.91060E-08-3.90240E-19 3.25316E-19
 -1      4319 9.62033E-05-2.87811E-05-2.88953E-05 4.19414E-08 2.13141E-19 5.27711E-19
 -1      4320 9.60171E-05-2.86708E-05-2.88627E-05 4.91266E-08 2.58353E-19 6.20394E-19
 -1      4321 9.67745E-05-2.79156E-05-2.95124E-05-2.00987E-07 1.76092E-19 1.78284E-20
 -1      4322 9.67891E-05-2.78006E-05-2.95708E-05-1.47344E-07 1.27285E-19-1.10472E-19
 -1      4323 9.68056E-05-2.81904E-05-2.94048E-05-3.10612E-07 5.26644E-20 4.13594E-20
 -1      4324 7.68517E-05-2.02077E-05-2.42507E-05-9.95654E-06 3.91783E-19 4.42057E-19
 -1      4325 9.68213E-05-2.76534E-05-2.96433E-05-5.85457E-08-3.94551E-20 3.84604E-19
 -1      4326 9.68941E-05-2.78650E-05-2.95883E-05-2.08434E-08 7.48599E-20 3.02399E-19
 -1      4327 7.44974E-05-1.75733E-05-2.44817E-05-3.61338E-06-1.14563E-19 2.09743E-18
 -1      4328 9.68984E-05-2.86463E-05-2.92497E-05-7.39479E-08-3.95921E-19 2.23764E-19
 -1      4329 7.73206E-05-1.91827E-05-2.48535E-05-7.47567E-06 8.42624E-19 1.25229E-18
 -1      4330 9.69444E-05-2.83118E-05-2.94146E-05 3.35958E-08-1.86111E-19 3.35812E-19
 -1      4331 9.59126E-05-2.85943E-05-2.88507E-05-1.51076E-07 9.46661E-20 5.35141E-20
 -1      4332 9.68068E-05-2.85887E-05-2.92378E-05-4.10730E-07-4.09445E-19 3.08823E-19
 -1      4333 9.68221E-05-2.84024E-05-2.93235E-05-3.43758E-07-3.03910E-19 8.71414E-20
 -1      4334 9.68551E-05-2.83206E-05-2.93734E-05-2.68767E-07-2.48020E-19 9.38052E-20
 -1      4335 9.68443E-05-2.86645E-05-2.92226E-05-3.00599E-07-5.37995E-19-5.69530E-20
 -1      4336 9.54211E-05-2.82076E-05-2.88050E-05-3.24555E-07 3.44910E-19 3.09174E-20
 -1      4337 9.60466E-05-2.86973E-05-2.88629E-05-2.80297E-07-1.36460E-19 1.86968E-19
 -1      4338 9.58485E-05-2.85640E-05-2.88377E-05-2.86316E-07-1.61508E-19-5.69611E-20
 -1      4339 9.67931E-05-2.76822E-05-2.96199E-05-1.01779E-07 7.59334E-20 1.21214E-19
 -1      4340 9.68964E-05-2.80993E-05-2.94793E-05-1.44721E-07-3.20125E-20 2.04429E-19
 -1      4341 9.62210E-05-2.87976E-05-2.88971E-05-2.68057E-07 1.30038E-19 4.91283E-19
 -1      4342 9.69070E-05-2.83193E-05-2.93935E-05-1.72761E-07-2.87710E-19 2.65552E-19
 -1      4343 9.56479E-05-2.84037E-05-2.88176E-05-3.03255E-07 2.99592E-19-4.57083E-20
 -1      4344 9.68885E-05-2.84715E-05-2.93217E-05-1.76903E-07-2.52949E-19 1.79257E-19
 -3
    1PSTEP                         4           1           1          
  100CL  101 1.000000000        4344                     0    1           1
 -4  ERROR       1    1
 -5  STR(%)      1    1    0    0
 -1         1 4.52806E+01
 -1         2 2.37485E+01
 -1         3 6.74927E-02
 -1         4 9.25336E-02
 -1         5 1.40432E+01
 -1         6 1.31473E+01
 -1         7 1.31473E+01
 -1         8 3.66241E+00
 -1         9 1.82422E+00
 -1        10 1.28851E+00
 -1        11 1.04238E+00
 -1        12 8.99093E-01
 -1        13 8.08486E-01
 -1        14 7.54419E-01
 -1        15 7.56382E-01
 -1        16 8.12767E-01
 -1        17 8.99999E-01
 -1        18 1.05126E+00
 -1        19 1.30605E+00
 -1        20 1.83313E+00
 -1        21 3.50398E+00
 -1        22 8.64374E+00
 -1        23 1.31473E+01
 -1        24 4.32206E+00
 -1        25 3.34687E+00
 -1        26 2.11798E+00
 -1        27 1.37021E+00
 -1        28 1.02073E+00
 -1        29 7.84029E-01
 -1        30 6.07210E-01
 -1        31 4.70905E-01
 -1        32 3.65550E-01
 -1        33 2.90708E-01
 -1        34 2.33017E-01
 -1        35 1.89719E-01
 -1        36 1.58757E-01
 -1        37 1.44045E-01
 -1        38 1.54665E-01
 -1        39 1.88610E-01
 -1        40 2.36667E-01
 -1        41 2.99981E-01
 -1        42 3.78743E-01
 -1        43 4.71210E-01
 -1        44 5.72199E-01
 -1        45 6.81496E-01
 -1        46 8.89454E-01
 -1        47 1.10976E+00
 -1        48 1.39515E+00
 -1        49 1.62997E+00
 -1        50 1.69226E+00
 -1        51 1.69804E+00
 -1        52 1.69804E+00
 -1        53 2.01508E+00
 -1        54 3.21818E+00
 -1        55 4.70496E+00
 -1        56 4.70496E+00
 -1        57 4.68373E+00
 -1        58 4.68373E+00
 -1        59 3.18637E+00
 -1        60 1.98069E+00
 -1        61 1.66309E+00
 -1        62 1.70372E+00
 -1        63 1.70372E+00
 -1        64 1.62829E+00
 -1        65 1.37173E+00
 -1        66 1.05215E+00
 -1        67 8.85773E-01
 -1        68 8.12439E-01
 -1        69 6.89599E-01
 -1        70 5.45650E-01
 -1        71 4.08641E-01
 -1        72 1.40432E+01
 -1        73 3.39778E+00
 -1        74 2.41726E+00
 -1        75 1.67083E+00
 -1        76 1.15065E+00
 -1        77 9.10808E-01
 -1        78 7.38230E-01
 -1        79 5.97762E-01
 -1        80 4.82338E-01
 -1        81 3.88411E-01
 -1        82 3.16350E-01
 -1        83 2.61922E-01
 -1        84 2.20156E-01
 -1        85 1.90467E-01
 -1        86 1.77023E-01
 -1        87 1.84060E-01
 -1        88 2.00268E-01
 -1        89 2.21258E-01
 -1        90 2.71822E-01
 -1        91 3.30833E-01
 -1        92 3.93549E-01
 -1        93 4.52017E-01
 -1        94 4.93720E-01
 -1        95 5.06351E-01
 -1        96 6.10817E-01
 -1        97 7.68834E-01
 -1        98 8.78132E-01
 -1        99 1.02546E+00
 -1       100 1.23648E+00
 -1       101 1.23648E+00
 -1       102 1.52311E+00
 -1       103 1.86201E+00
 -1       104 2.66681E+00
 -1       105 2.85115E+00
 -1       106 3.26426E+00
 -1       107 3.26426E+00
 -1       108 2.78432E+00
 -1       109 1.79009E+00
 -1       110 1.15143E+00
 -1       111 8.61525E-01
 -1       112 1.02875E+00
 -1       113 1.06639E+00
 -1       114 1.06639E+00
 -1       115 9.68183E-01
 -1       116 7.90762E-01
 -1       117 6.19595E-01
 -1       118 5.52259E-01
 -1       119 4.15782E-01
 -1       120 2.50099E-01
 -1       121 1.17991E-01
 -1       122 1.17991E-01
 -1       123 9.78871E-02
 -1       124 5.72248E-02
 -1       125 3.68793E-02
 -1       126 7.54211E-02
 -1       127 1.04769E-01
 -1       128 1.19812E-01
 -1       129 1.19812E-01
 -1       130 1.18791E-01
 -1       131 9.87979E-02
 -1       132 6.36487E-02
 -1       133 5.27008E-02
 -1       134 1.08527E-01
 -1       135 1.84567E-01
 -1       136 2.14622E-01
 -1       137 2.43506E+01
 -1       138 4.79019E+01
 -1       139 4.79019E+01
 -1       140 2.17506E+01
 -1       141 1.20481E+01
 -1       142 1.20481E+01
 -1       143 1.19703E+01
 -1       144 1.19859E+01
 -1       145 1.19859E+01
 -1       146 1.28304E+01
 -1       147 2.72271E+01
 -1       148 2.90529E+01
 -1       149 2.90529E+01
 -1       150 2.54797E+01
 -1       151 2.48616E+01
 -1       152 2.48616E+01
 -1       153 4.52806E+01
 -1       154 1.79726E+01
 -1       155 1.19061E+01
 -1       156 1.23638E+01
 -1       157 1.23638E+01
 -1       158 1.27799E+01
 -1       159 1.27799E+01
 -1       160 1.17021E+01
 -1       161 2.41845E+01
 -1       162 3.19601E+01
 -1       163 3.19601E+01
 -1       164 2.48992E+01
 -1       165 6.07701E+00
 -1       166 2.29855E+00
 -1       167 1.50408E+00
 -1       168 1.15683E+00
 -1       169 9.71121E-01
 -1       170 8.64000E-01
 -1       171 7.96146E-01
 -1       172 7.56382E-01
 -1       173 7.99570E-01
 -1       174 8.66867E-01
 -1       175 9.80077E-01
 -1       176 1.17104E+00
 -1       177 1.52572E+00
 -1       178 2.25890E+00
 -1       179 3.93036E+00
 -1       180 1.40432E+01
 -1       181 4.32206E+00
 -1       182 3.34687E+00
 -1       183 2.11798E+00
 -1       184 1.45373E+00
 -1       185 1.03301E+00
 -1       186 7.84029E-01
 -1       187 6.07210E-01
 -1       188 4.80930E-01
 -1       189 3.84444E-01
 -1       190 3.06714E-01
 -1       191 2.50859E-01
 -1       192 2.05508E-01
 -1       193 1.68328E-01
 -1       194 1.44045E-01
 -1       195 1.39890E-01
 -1       196 1.56183E-01
 -1       197 1.91929E-01
 -1       198 2.38929E-01
 -1       199 2.99981E-01
 -1       200 3.81316E-01
 -1       201 5.14422E-01
 -1       202 6.70028E-01
 -1       203 8.39173E-01
 -1       204 1.00205E+00
 -1       205 1.16106E+00
 -1       206 1.39515E+00
 -1       207 1.62997E+00
 -1       208 1.69226E+00
 -1       209 1.69804E+00
 -1       210 1.58229E+00
 -1       211 2.01508E+00
 -1       212 3.21818E+00
 -1       213 4.70496E+00
 -1       214 4.65344E+00
 -1       215 4.68373E+00
 -1       216 3.18637E+00
 -1       217 1.98069E+00
 -1       218 1.56302E+00
 -1       219 1.66309E+00
 -1       220 1.70372E+00
 -1       221 1.62829E+00
 -1       222 1.37173E+00
 -1       223 1.09683E+00
 -1       224 8.97029E-01
 -1       225 8.12439E-01
 -1       226 6.89599E-01
 -1       227 5.45650E-01
 -1       228 4.08641E-01
 -1       229 3.39778E+00
 -1       230 2.41726E+00
 -1       231 1.67083E+00
 -1       232 1.15065E+00
 -1       233 9.10808E-01
 -1       234 7.38230E-01
 -1       235 5.97762E-01
 -1       236 4.82338E-01
 -1       237 3.88411E-01
 -1       238 3.16350E-01
 -1       239 2.61922E-01
 -1       240 2.20156E-01
 -1       241 1.90467E-01
 -1       242 1.77023E-01
 -1       243 1.75592E-01
 -1       244 1.84060E-01
 -1       245 2.00268E-01
 -1       246 2.40630E-01
 -1       247 2.88639E-01
 -1       248 3.38558E-01
 -1       249 3.93549E-01
 -1       250 4.52017E-01
 -1       251 4.93720E-01
 -1       252 5.31754E-01
 -1       253 6.35745E-01
 -1       254 7.68834E-01
 -1       255 8.78132E-01
 -1       256 1.02546E+00
 -1       257 1.23648E+00
 -1       258 1.21692E+00
 -1       259 1.52311E+00
 -1       260 1.92642E+00
 -1       261 2.66681E+00
 -1       262 2.85115E+00
 -1       263 3.26426E+00
 -1       264 2.78432E+00
 -1       265 1.79009E+00
 -1       266 1.15143E+00
 -1       267 7.73895E-01
 -1       268 8.61525E-01
 -1       269 1.02875E+00
 -1       270 1.06639E+00
 -1       271 9.68183E-01
 -1       272 7.90762E-01
 -1       273 6.19595E-01
 -1       274 5.52259E-01
 -1       275 4.15782E-01
 -1       276 2.50937E-01
 -1       277 1.53270E-01
 -1       278 1.54566E-01
 -1       279 1.54566E-01
 -1       280 8.19907E-02
 -1       281 1.27249E-01
 -1       282 1.86049E-01
 -1       283 2.21674E-01
 -1       284 2.27445E-01
 -1       285 2.27445E-01
 -1       286 2.17361E-01
 -1       287 1.75647E-01
 -1       288 1.05729E-01
 -1       289 1.64597E-01
 -1       290 1.64597E-01
 -1       291 2.27287E-01
 -1       292 2.83800E+01
 -1       293 2.98440E+01
 -1       294 4.79019E+01
 -1       295 2.26551E+01
 -1       296 1.13221E+01
 -1       297 1.20481E+01
 -1       298 1.19703E+01
 -1       299 1.18039E+01
 -1       300 1.19859E+01
 -1       301 1.15971E+01
 -1       302 1.28304E+01
 -1       303 2.78062E+01
 -1       304 3.29152E+01
 -1       305 3.29152E+01
 -1       306 3.17885E+01
 -1       307 3.17885E+01
 -1       308 3.86277E+01
 -1       309 4.52806E+01
 -1       310 1.92534E+01
 -1       311 1.04495E+01
 -1       312 1.19061E+01
 -1       313 1.23638E+01
 -1       314 1.17458E+01
 -1       315 1.27799E+01
 -1       316 1.17021E+01
 -1       317 1.15174E+01
 -1       318 2.66499E+01
 -1       319 3.19601E+01
 -1       320 3.17162E+01
 -1       321 2.83800E+01
 -1       322 1.06757E+00
 -1       323 2.47757E+00
 -1       324 7.87541E-01
 -1       325 6.94184E-01
 -1       326 6.31443E-01
 -1       327 5.87540E-01
 -1       328 5.90741E-01
 -1       329 6.34042E-01
 -1       330 7.00339E-01
 -1       331 7.95152E-01
 -1       332 9.30283E-01
 -1       333 1.15739E+00
 -1       334 1.32653E+00
 -1       335 2.20266E+00
 -1       336 1.91647E+00
 -1       337 1.73465E+00
 -1       338 1.27332E+00
 -1       339 9.13981E-01
 -1       340 6.63953E-01
 -1       341 5.47627E-01
 -1       342 4.53073E-01
 -1       343 3.70657E-01
 -1       344 3.04846E-01
 -1       345 2.50859E-01
 -1       346 2.05508E-01
 -1       347 1.68328E-01
 -1       348 1.40059E-01
 -1       349 1.22139E-01
 -1       350 1.30765E-01
 -1       351 1.56183E-01
 -1       352 1.91929E-01
 -1       353 2.56019E-01
 -1       354 3.54069E-01
 -1       355 4.72689E-01
 -1       356 6.10985E-01
 -1       357 7.63183E-01
 -1       358 9.15673E-01
 -1       359 1.04381E+00
 -1       360 1.15377E+00
 -1       361 1.28409E+00
 -1       362 1.28750E+00
 -1       363 1.18744E+00
 -1       364 1.23588E+00
 -1       365 1.32986E+00
 -1       366 1.98125E+00
 -1       367 2.63435E+00
 -1       368 2.91872E+00
 -1       369 2.87155E+00
 -1       370 2.61751E+00
 -1       371 1.98189E+00
 -1       372 1.32378E+00
 -1       373 1.22598E+00
 -1       374 1.13144E+00
 -1       375 1.26109E+00
 -1       376 1.23607E+00
 -1       377 1.07295E+00
 -1       378 9.35739E-01
 -1       379 7.84108E-01
 -1       380 6.09797E-01
 -1       381 4.95654E-01
 -1       382 3.59342E-01
 -1       383 1.13412E+00
 -1       384 8.96702E-01
 -1       385 7.10026E-01
 -1       386 5.52023E-01
 -1       387 4.46518E-01
 -1       388 3.82036E-01
 -1       389 3.20601E-01
 -1       390 2.65566E-01
 -1       391 2.23131E-01
 -1       392 1.90812E-01
 -1       393 1.65118E-01
 -1       394 1.49526E-01
 -1       395 1.43445E-01
 -1       396 1.44098E-01
 -1       397 1.65836E-01
 -1       398 2.04729E-01
 -1       399 2.79978E-01
 -1       400 3.66240E-01
 -1       401 4.59616E-01
 -1       402 5.51760E-01
 -1       403 6.28438E-01
 -1       404 7.02111E-01
 -1       405 7.27646E-01
 -1       406 7.27646E-01
 -1       407 6.64920E-01
 -1       408 5.15241E-01
 -1       409 5.64125E-01
 -1       410 1.00766E+00
 -1       411 1.51828E+00
 -1       412 1.73593E+00
 -1       413 1.73593E+00
 -1       414 1.69793E+00
 -1       415 1.91874E+00
 -1       416 1.84249E+00
 -1       417 1.34436E+00
 -1       418 8.33910E-01
 -1       419 5.17848E-01
 -1       420 5.75127E-01
 -1       421 6.87054E-01
 -1       422 7.58925E-01
 -1       423 7.39729E-01
 -1       424 6.45399E-01
 -1       425 5.57347E-01
 -1       426 4.71960E-01
 -1       427 3.81824E-01
 -1       428 2.50937E-01
 -1       429 1.70093E-01
 -1       430 2.83343E-01
 -1       431 2.83343E-01
 -1       432 1.56655E-01
 -1       433 2.43121E-01
 -1       434 3.04697E-01
 -1       435 3.24518E-01
 -1       436 3.27395E-01
 -1       437 3.27395E-01
 -1       438 3.05067E-01
 -1       439 2.34119E-01
 -1       440 1.79391E-01
 -1       441 2.80493E-01
 -1       442 2.98440E+01
 -1       443 3.17011E+01
 -1       444 3.02198E+01
 -1       445 1.71233E+01
 -1       446 9.34715E+00
 -1       447 9.11437E-01
 -1       448 9.68571E+00
 -1       449 1.01961E+01
 -1       450 1.06625E+01
 -1       451 9.76977E+00
 -1       452 7.70996E+00
 -1       453 1.12017E+01
 -1       454 2.00033E+01
 -1       455 3.29152E+01
 -1       456 3.81239E+01
 -1       457 3.81239E+01
 -1       458 2.82809E+01
 -1       459 2.60327E+01
 -1       460 1.56980E+01
 -1       461 8.68011E+00
 -1       462 7.23609E+00
 -1       463 9.55859E+00
 -1       464 1.11117E+01
 -1       465 1.08313E+01
 -1       466 8.66170E+00
 -1       467 6.97683E+00
 -1       468 1.03417E+01
 -1       469 1.83232E+01
 -1       470 3.17162E+01
 -1       471 3.17011E+01
 -1       472 6.96533E+00
 -1       473 1.05244E+00
 -1       474 4.85776E-01
 -1       475 5.09821E-01
 -1       476 4.31540E-01
 -1       477 4.57106E-01
 -1       478 4.86297E-01
 -1       479 5.10011E-01
 -1       480 5.10011E-01
 -1       481 6.04677E-01
 -1       482 8.96702E-01
 -1       483 8.04000E-01
 -1       484 5.47988E+00
 -1       485 7.07471E-01
 -1       486 5.94597E-01
 -1       487 4.82799E-01
 -1       488 3.84545E-01
 -1       489 3.33222E-01
 -1       490 2.85013E-01
 -1       491 2.39516E-01
 -1       492 1.98832E-01
 -1       493 1.63578E-01
 -1       494 1.33409E-01
 -1       495 1.07308E-01
 -1       496 9.69252E-02
 -1       497 1.13700E-01
 -1       498 1.46430E-01
 -1       499 2.16261E-01
 -1       500 3.01626E-01
 -1       501 4.05120E-01
 -1       502 5.28226E-01
 -1       503 6.70205E-01
 -1       504 8.26417E-01
 -1       505 9.86029E-01
 -1       506 1.12936E+00
 -1       507 1.25124E+00
 -1       508 1.47725E+00
 -1       509 1.69387E+00
 -1       510 1.80371E+00
 -1       511 2.22279E+00
 -1       512 2.16471E+00
 -1       513 2.23303E+00
 -1       514 2.91872E+00
 -1       515 4.06416E+00
 -1       516 3.64630E+00
 -1       517 3.10666E+00
 -1       518 2.95322E+00
 -1       519 2.27033E+00
 -1       520 1.77009E+00
 -1       521 1.62100E+00
 -1       522 1.39011E+00
 -1       523 1.14318E+00
 -1       524 1.02167E+00
 -1       525 8.59742E-01
 -1       526 6.82318E-01
 -1       527 5.11648E-01
 -1       528 5.52023E-01
 -1       529 4.46518E-01
 -1       530 3.82036E-01
 -1       531 3.20601E-01
 -1       532 2.65566E-01
 -1       533 2.19458E-01
 -1       534 1.80247E-01
 -1       535 1.46894E-01
 -1       536 1.20771E-01
 -1       537 1.02349E-01
 -1       538 1.17314E-01
 -1       539 1.38405E-01
 -1       540 1.81612E-01
 -1       541 2.50348E-01
 -1       542 3.28920E-01
 -1       543 4.15114E-01
 -1       544 5.03539E-01
 -1       545 5.84454E-01
 -1       546 6.53832E-01
 -1       547 7.02111E-01
 -1       548 7.56895E-01
 -1       549 7.58654E-01
 -1       550 7.11647E-01
 -1       551 8.26783E-01
 -1       552 9.52146E-01
 -1       553 1.27507E+00
 -1       554 1.53801E+00
 -1       555 1.85717E+00
 -1       556 1.80925E+00
 -1       557 1.96395E+00
 -1       558 1.63967E+00
 -1       559 1.41511E+00
 -1       560 1.12677E+00
 -1       561 8.44574E-01
 -1       562 7.74003E-01
 -1       563 6.61211E-01
 -1       564 6.74278E-01
 -1       565 6.23922E-01
 -1       566 5.56963E-01
 -1       567 4.79390E-01
 -1       568 3.87296E-01
 -1       569 3.27908E-01
 -1       570 2.80662E-01
 -1       571 3.80237E-01
 -1       572 3.44534E-01
 -1       573 3.49192E-01
 -1       574 4.31804E-01
 -1       575 4.31804E-01
 -1       576 4.43020E-01
 -1       577 4.43020E-01
 -1       578 3.92633E-01
 -1       579 3.26061E-01
 -1       580 3.26061E-01
 -1       581 3.02198E+01
 -1       582 1.33348E+01
 -1       583 7.10026E-01
 -1       584 3.17011E+01
 -1       585 9.93129E+00
 -1       586 8.78664E-01
 -1       587 6.28285E+00
 -1       588 7.27050E+00
 -1       589 1.44858E+01
 -1       590 5.23915E+00
 -1       591 4.57048E-01
 -1       592 8.45391E+00
 -1       593 2.22692E+01
 -1       594 7.49172E+00
 -1       595 7.10346E+00
 -1       596 4.67557E+00
 -1       597 7.91144E+00
 -1       598 8.06055E+00
 -1       599 3.81239E+01
 -1       600 2.82809E+01
 -1       601 1.76725E+01
 -1       602 9.93806E+00
 -1       603 1.33675E+01
 -1       604 5.40576E+00
 -1       605 5.41329E+00
 -1       606 7.49693E+00
 -1       607 6.48927E+00
 -1       608 4.48684E+00
 -1       609 1.35892E+01
 -1       610 2.31851E+01
 -1       611 5.13768E+00
 -1       612 1.32944E+00
 -1       613 2.12525E+01
 -1       614 5.09821E-01
 -1       615 4.62831E-01
 -1       616 5.95960E+00
 -1       617 1.26066E+01
 -1       618 3.12294E-01
 -1       619 3.58409E-01
 -1       620 3.43145E-01
 -1       621 3.61510E-01
 -1       622 3.37123E-01
 -1       623 5.44413E-01
 -1       624 5.08482E-01
 -1       625 3.36356E+00
 -1       626 6.65098E+00
 -1       627 4.01034E-01
 -1       628 3.88452E-01
 -1       629 3.47639E-01
 -1       630 2.97617E-01
 -1       631 2.46866E-01
 -1       632 2.13735E-01
 -1       633 1.82250E-01
 -1       634 1.51453E-01
 -1       635 1.21845E-01
 -1       636 9.32842E-02
 -1       637 6.48558E-02
 -1       638 7.00767E-02
 -1       639 1.05386E-01
 -1       640 1.63149E-01
 -1       641 2.33127E-01
 -1       642 3.18380E-01
 -1       643 4.22211E-01
 -1       644 5.48135E-01
 -1       645 6.99792E-01
 -1       646 8.82221E-01
 -1       647 1.09251E+00
 -1       648 1.33193E+00
 -1       649 1.58054E+00
 -1       650 1.94452E+00
 -1       651 2.50859E+00
 -1       652 3.14413E+00
 -1       653 3.27173E+00
 -1       654 2.16471E+00
 -1       655 2.85080E+00
 -1       656 5.65072E+00
 -1       657 6.10016E+00
 -1       658 4.09773E+00
 -1       659 3.01718E+00
 -1       660 2.44740E+00
 -1       661 1.84999E+00
 -1       662 1.49236E+00
 -1       663 1.22785E+00
 -1       664 9.73050E-01
 -1       665 7.47001E-01
 -1       666 5.11680E-01
 -1       667 3.32880E-01
 -1       668 3.36248E-01
 -1       669 4.01659E-01
 -1       670 2.43037E-01
 -1       671 2.06274E-01
 -1       672 1.71539E-01
 -1       673 1.39682E-01
 -1       674 1.10562E-01
 -1       675 8.33468E-02
 -1       676 8.10029E-02
 -1       677 9.46026E-02
 -1       678 1.45362E-01
 -1       679 2.06739E-01
 -1       680 2.77987E-01
 -1       681 3.59141E-01
 -1       682 4.48573E-01
 -1       683 5.42112E-01
 -1       684 6.31959E-01
 -1       685 7.05553E-01
 -1       686 8.17824E-01
 -1       687 9.38480E-01
 -1       688 1.02795E+00
 -1       689 1.13260E+00
 -1       690 1.39169E+00
 -1       691 1.42586E+00
 -1       692 1.65824E+00
 -1       693 1.93909E+00
 -1       694 2.79082E+00
 -1       695 3.44606E+00
 -1       696 2.23643E+00
 -1       697 1.61771E+00
 -1       698 1.65506E+00
 -1       699 1.46831E+00
 -1       700 1.25126E+00
 -1       701 9.66095E-01
 -1       702 8.91986E-01
 -1       703 7.65771E-01
 -1       704 6.28312E-01
 -1       705 5.79445E-01
 -1       706 6.79709E-01
 -1       707 9.61340E+00
 -1       708 5.58390E-01
 -1       709 4.28674E-01
 -1       710 5.72615E-01
 -1       711 5.40627E-01
 -1       712 7.13800E+00
 -1       713 5.72615E-01
 -1       714 5.71015E-01
 -1       715 4.55017E-01
 -1       716 1.55263E+01
 -1       717 3.46614E-01
 -1       718 3.94564E+00
 -1       719 9.83694E+00
 -1       720 1.39864E+01
 -1       721 1.68160E+01
 -1       722 3.79757E+00
 -1       723 4.69119E-01
 -1       724 2.79501E-01
 -1       725 3.93153E-01
 -1       726 1.44008E+01
 -1       727 5.19971E-01
 -1       728 3.61510E-01
 -1       729 1.41131E+01
 -1       730 1.08655E+01
 -1       731 5.76079E+00
 -1       732 3.59582E-01
 -1       733 2.28692E+00
 -1       734 1.41131E+01
 -1       735 6.18997E+00
 -1       736 1.01458E+01
 -1       737 2.81259E+00
 -1       738 1.18386E+01
 -1       739 3.46856E+00
 -1       740 4.18692E+00
 -1       741 9.20154E+00
 -1       742 5.15866E+00
 -1       743 5.49907E+00
 -1       744 3.59582E-01
 -1       745 3.42731E-01
 -1       746 3.61551E+00
 -1       747 3.16963E+00
 -1       748 8.63135E+00
 -1       749 3.56665E+00
 -1       750 5.08482E-01
 -1       751 3.57777E-01
 -1       752 4.17365E-01
 -1       753 3.86188E+00
 -1       754 2.40176E-01
 -1       755 3.00559E-01
 -1       756 6.46487E+00
 -1       757 3.09310E-01
 -1       758 2.57686E-01
 -1       759 2.50983E-01
 -1       760 2.28099E-01
 -1       761 1.97779E-01
 -1       762 1.70114E-01
 -1       763 1.45494E-01
 -1       764 1.18046E-01
 -1       765 8.90585E-02
 -1       766 5.87708E-02
 -1       767 5.32823E-02
 -1       768 7.52805E-02
 -1       769 1.24437E-01
 -1       770 1.88942E-01
 -1       771 2.68620E-01
 -1       772 3.66757E-01
 -1       773 4.86373E-01
 -1       774 6.29433E-01
 -1       775 7.95283E-01
 -1       776 9.86921E-01
 -1       777 1.26453E+00
 -1       778 1.68469E+00
 -1       779 2.25513E+00
 -1       780 2.99715E+00
 -1       781 4.27191E+00
 -1       782 3.68581E+00
 -1       783 6.15871E+00
 -1       784 2.85786E+00
 -1       785 2.18796E+00
 -1       786 1.59021E+00
 -1       787 1.15215E+00
 -1       788 8.52879E-01
 -1       789 6.24141E-01
 -1       790 2.89806E-01
 -1       791 6.53278E+00
 -1       792 1.59111E-01
 -1       793 1.88059E-01
 -1       794 9.71560E-02
 -1       795 6.90427E-02
 -1       796 4.30123E-02
 -1       797 5.79808E-02
 -1       798 1.02181E-01
 -1       799 1.54043E-01
 -1       800 2.15467E-01
 -1       801 2.88376E-01
 -1       802 3.76752E-01
 -1       803 4.79904E-01
 -1       804 5.95030E-01
 -1       805 7.19217E-01
 -1       806 8.52194E-01
 -1       807 1.00892E+00
 -1       808 1.25997E+00
 -1       809 1.55223E+00
 -1       810 1.67840E+00
 -1       811 2.09952E+00
 -1       812 3.46856E+00
 -1       813 2.90729E+00
 -1       814 4.20452E+00
 -1       815 2.30713E+00
 -1       816 1.95668E+00
 -1       817 1.66272E+00
 -1       818 1.53665E+00
 -1       819 1.28846E+00
 -1       820 1.01484E+00
 -1       821 8.02612E-01
 -1       822 6.55706E-01
 -1       823 7.18540E-01
 -1       824 8.01580E-01
 -1       825 7.37981E-01
 -1       826 1.00764E+01
 -1       827 2.88665E-01
 -1       828 8.01580E-01
 -1       829 1.28341E-01
 -1       830 9.05169E+00
 -1       831 3.94828E+00
 -1       832 3.44628E+00
 -1       833 9.88404E+00
 -1       834 6.60836E+00
 -1       835 9.31324E+00
 -1       836 5.11425E+00
 -1       837 7.84928E+00
 -1       838 8.83346E+00
 -1       839 2.36468E-01
 -1       840 9.31324E+00
 -1       841 1.00764E+01
 -1       842 2.81787E-01
 -1       843 2.28692E+00
 -1       844 5.12877E+00
 -1       845 8.63135E+00
 -1       846 2.82124E-01
 -1       847 2.79914E-01
 -1       848 2.38287E-01
 -1       849 5.46016E+00
 -1       850 5.87774E-01
 -1       851 2.56383E-01
 -1       852 2.17976E-01
 -1       853 2.23643E+00
 -1       854 6.79709E-01
 -1       855 6.79709E-01
 -1       856 6.34859E-01
 -1       857 5.32729E-01
 -1       858 3.08884E+00
 -1       859 7.18540E-01
 -1       860 2.88665E-01
 -1       861 2.75772E-01
 -1       862 4.80564E+00
 -1       863 2.89019E-01
 -1       864 2.80834E-01
 -1       865 7.66349E+00
 -1       866 1.83427E-01
 -1       867 1.74549E-01
 -1       868 1.56376E-01
 -1       869 1.34801E-01
 -1       870 1.16990E-01
 -1       871 9.55986E-02
 -1       872 7.18957E-02
 -1       873 7.44491E-02
 -1       874 8.18331E-02
 -1       875 1.16701E-01
 -1       876 1.74396E-01
 -1       877 2.46120E-01
 -1       878 3.35671E-01
 -1       879 4.47736E-01
 -1       880 5.88243E-01
 -1       881 7.64795E-01
 -1       882 9.86921E-01
 -1       883 1.26453E+00
 -1       884 1.60927E+00
 -1       885 2.18698E+00
 -1       886 3.84038E+00
 -1       887 4.81637E+00
 -1       888 2.93289E+00
 -1       889 2.15095E+00
 -1       890 1.52165E+00
 -1       891 1.15215E+00
 -1       892 2.86584E+00
 -1       893 6.21232E-02
 -1       894 7.86356E-02
 -1       895 9.05683E-02
 -1       896 1.40172E-01
 -1       897 1.98845E-01
 -1       898 2.67619E-01
 -1       899 3.46673E-01
 -1       900 4.34595E-01
 -1       901 5.35836E-01
 -1       902 6.66422E-01
 -1       903 8.55657E-01
 -1       904 1.10691E+00
 -1       905 1.39356E+00
 -1       906 1.70873E+00
 -1       907 3.16050E+00
 -1       908 4.80564E+00
 -1       909 6.21835E+00
 -1       910 1.89486E+00
 -1       911 1.49213E+00
 -1       912 1.21242E+00
 -1       913 1.01238E+00
 -1       914 9.91816E-01
 -1       915 7.53888E+00
 -1       916 5.40591E+00
 -1       917 3.94828E+00
 -1       918 2.52164E+00
 -1       919 6.32929E+00
 -1       920 3.39912E+00
 -1       921 4.64961E+00
 -1       922 1.47118E-01
 -1       923 2.89019E-01
 -1       924 6.10431E+00
 -1       925 6.55786E-02
 -1       926 1.49537E-01
 -1       927 1.76501E-01
 -1       928 6.64476E+00
 -1       929 7.66349E+00
 -1       930 2.10153E-01
 -1       931 1.50344E-01
 -1       932 1.66862E-01
 -1       933 2.11013E-01
 -1       934 4.60533E+00
 -1       935 4.80564E+00
 -1       936 8.32765E-01
 -1       937 1.73543E-01
 -1       938 1.69177E-01
 -1       939 1.04776E-01
 -1       940 8.94999E-01
 -1       941 9.03916E-01
 -1       942 1.23594E+00
 -1       943 9.30148E-01
 -1       944 1.28821E-01
 -1       945 2.17706E-01
 -1       946 2.17706E-01
 -1       947 2.17669E-01
 -1       948 5.46016E+00
 -1       949 4.49129E+00
 -1       950 1.33628E-01
 -1       951 1.22482E-01
 -1       952 1.06256E-01
 -1       953 9.33060E-02
 -1       954 8.25617E-02
 -1       955 8.67896E-02
 -1       956 9.45879E-02
 -1       957 1.07903E-01
 -1       958 1.46588E-01
 -1       959 2.05054E-01
 -1       960 2.78534E-01
 -1       961 3.71656E-01
 -1       962 4.91197E-01
 -1       963 6.47788E-01
 -1       964 8.58895E-01
 -1       965 1.15413E+00
 -1       966 1.57169E+00
 -1       967 2.18698E+00
 -1       968 5.52920E+00
 -1       969 4.85179E+00
 -1       970 7.88083E-02
 -1       971 1.38755E+00
 -1       972 2.15095E+00
 -1       973 1.56353E+00
 -1       974 9.45826E-02
 -1       975 1.83375E-01
 -1       976 1.29305E-01
 -1       977 3.28287E-01
 -1       978 4.23322E-01
 -1       979 5.35836E-01
 -1       980 6.66422E-01
 -1       981 8.22875E-01
 -1       982 1.07342E+00
 -1       983 1.46265E+00
 -1       984 1.71484E+00
 -1       985 2.49053E+00
 -1       986 1.96594E-01
 -1       987 4.85179E+00
 -1       988 3.41387E+00
 -1       989 7.51237E-01
 -1       990 2.09187E+00
 -1       991 2.05322E-01
 -1       992 2.17669E-01
 -1       993 2.03494E-01
 -1       994 1.01238E+00
 -1       995 1.42177E-01
 -1       996 1.51530E+00
 -1       997 1.24836E-01
 -1       998 1.62961E+00
 -1       999 2.48996E-01
 -1      1000 3.33237E+00
 -1      1001 1.36214E-01
 -1      1002 5.52920E+00
 -1      1003 3.49830E+00
 -1      1004 1.36733E-01
 -1      1005 8.38279E-02
 -1      1006 8.45691E-02
 -1      1007 4.09417E+00
 -1      1008 1.23480E-01
 -1      1009 2.59837E+00
 -1      1010 1.17931E+00
 -1      1011 1.28506E+00
 -1      1012 1.42969E-01
 -1      1013 1.18328E-01
 -1      1014 1.55305E-01
 -1      1015 1.52925E-01
 -1      1016 9.22990E-02
 -1      1017 1.54076E-01
 -1      1018 4.41431E+00
 -1      1019 1.39780E+00
 -1      1020 1.51673E-01
 -1      1021 9.49724E-02
 -1      1022 8.65391E-02
 -1      1023 8.72402E-02
 -1      1024 9.11277E-02
 -1      1025 9.90822E-02
 -1      1026 1.10379E-01
 -1      1027 1.32626E-01
 -1      1028 1.65882E-01
 -1      1029 2.09802E-01
 -1      1030 2.75486E-01
 -1      1031 3.61335E-01
 -1      1032 4.73973E-01
 -1      1033 6.27749E-01
 -1      1034 8.49932E-01
 -1      1035 1.18696E+00
 -1      1036 1.62776E+00
 -1      1037 2.47082E+00
 -1      1038 2.10940E-01
 -1      1039 4.85423E-01
 -1      1040 3.71447E-01
 -1      1041 8.22875E-01
 -1      1042 1.07342E+00
 -1      1043 1.39033E+00
 -1      1044 1.69896E+00
 -1      1045 2.24631E+00
 -1      1046 3.65077E+00
 -1      1047 1.18735E-01
 -1      1048 1.38188E+00
 -1      1049 1.03221E-01
 -1      1050 1.55305E-01
 -1      1051 3.41387E+00
 -1      1052 1.11575E+00
 -1      1053 1.73635E+00
 -1      1054 1.50754E-01
 -1      1055 3.47074E+00
 -1      1056 2.81863E-01
 -1      1057 3.47074E+00
 -1      1058 1.54517E-01
 -1      1059 1.01857E-01
 -1      1060 6.31959E-01
 -1      1061 9.78361E-02
 -1      1062 2.70432E+00
 -1      1063 9.08035E-02
 -1      1064 2.36443E+00
 -1      1065 8.76264E-02
 -1      1066 1.06809E-01
 -1      1067 1.03577E-01
 -1      1068 1.01616E-01
 -1      1069 1.67684E+00
 -1      1070 2.10023E+00
 -1      1071 1.15670E-01
 -1      1072 2.36443E+00
 -1      1073 8.41355E-02
 -1      1074 1.01367E-01
 -1      1075 1.01638E-01
 -1      1076 1.01367E-01
 -1      1077 8.89890E-02
 -1      1078 1.20281E-01
 -1      1079 8.72402E-02
 -1      1080 9.11277E-02
 -1      1081 1.20281E-01
 -1      1082 1.10379E-01
 -1      1083 1.32046E-01
 -1      1084 1.62550E-01
 -1      1085 2.02759E-01
 -1      1086 2.55005E-01
 -1      1087 3.22604E-01
 -1      1088 4.10778E-01
 -1      1089 5.28405E-01
 -1      1090 6.91483E-01
 -1      1091 9.87470E-01
 -1      1092 1.44190E+00
 -1      1093 2.44588E+00
 -1      1094 2.44588E+00
 -1      1095 9.30551E-02
 -1      1096 9.90067E-02
 -1      1097 3.84177E-01
 -1      1098 1.44190E+00
 -1      1099 9.87470E-01
 -1      1100 2.54165E+00
 -1      1101 1.62000E+00
 -1      1102 1.07739E-01
 -1      1103 1.79575E-01
 -1      1104 1.18735E-01
 -1      1105 5.14848E-01
 -1      1106 2.23448E-01
 -1      1107 1.45159E-01
 -1      1108 1.00602E-01
 -1      1109 6.97036E-01
 -1      1110 9.06927E-02
 -1      1111 2.87953E-01
 -1      1112 1.19253E-01
 -1      1113 9.06927E-02
 -1      1114 6.71170E-02
 -1      1115 1.00376E-01
 -1      1116 8.48178E-02
 -1      1117 1.06236E-01
 -1      1118 7.69221E-02
 -1      1119 2.54165E+00
 -1      1120 8.89890E-02
 -1      1121 1.20281E-01
 -1      1122 9.10730E-02
 -1      1123 6.71170E-02
 -1      1124 9.10730E-02
 -1      1125 7.22369E-02
 -1      1126 1.06236E-01
 -1      1127 1.06236E-01
 -1      1128 1.31473E+01
 -1      1129 8.40486E+00
 -1      1130 2.74332E+00
 -1      1131 1.55637E+00
 -1      1132 1.16545E+00
 -1      1133 9.70737E-01
 -1      1134 8.53790E-01
 -1      1135 7.81453E-01
 -1      1136 7.55401E-01
 -1      1137 7.84574E-01
 -1      1138 8.56383E-01
 -1      1139 9.75631E-01
 -1      1140 1.17866E+00
 -1      1141 1.56959E+00
 -1      1142 2.66855E+00
 -1      1143 6.07386E+00
 -1      1144 1.13435E+01
 -1      1145 1.31473E+01
 -1      1146 8.73468E+00
 -1      1147 3.83446E+00
 -1      1148 2.73242E+00
 -1      1149 1.74410E+00
 -1      1150 1.19547E+00
 -1      1151 9.02378E-01
 -1      1152 6.95619E-01
 -1      1153 5.39057E-01
 -1      1154 4.18227E-01
 -1      1155 3.28129E-01
 -1      1156 2.61862E-01
 -1      1157 2.11368E-01
 -1      1158 1.74238E-01
 -1      1159 1.51401E-01
 -1      1160 1.49355E-01
 -1      1161 1.71638E-01
 -1      1162 2.12638E-01
 -1      1163 2.68324E-01
 -1      1164 3.39362E-01
 -1      1165 4.24976E-01
 -1      1166 5.21704E-01
 -1      1167 6.26847E-01
 -1      1168 7.85475E-01
 -1      1169 9.99606E-01
 -1      1170 1.25245E+00
 -1      1171 1.51256E+00
 -1      1172 1.66111E+00
 -1      1173 1.69515E+00
 -1      1174 1.69804E+00
 -1      1175 1.85656E+00
 -1      1176 2.61663E+00
 -1      1177 3.96157E+00
 -1      1178 4.70496E+00
 -1      1179 4.69434E+00
 -1      1180 4.68373E+00
 -1      1181 3.93505E+00
 -1      1182 2.58353E+00
 -1      1183 1.82189E+00
 -1      1184 1.68341E+00
 -1      1185 1.70372E+00
 -1      1186 1.66601E+00
 -1      1187 1.50001E+00
 -1      1188 1.21194E+00
 -1      1189 9.68963E-01
 -1      1190 8.49106E-01
 -1      1191 7.51019E-01
 -1      1192 6.17624E-01
 -1      1193 4.77145E-01
 -1      1194 2.50587E-01
 -1      1195 1.40432E+01
 -1      1196 8.72049E+00
 -1      1197 2.90752E+00
 -1      1198 2.04404E+00
 -1      1199 1.41074E+00
 -1      1200 1.03073E+00
 -1      1201 8.24519E-01
 -1      1202 6.67996E-01
 -1      1203 5.40050E-01
 -1      1204 4.35375E-01
 -1      1205 3.52381E-01
 -1      1206 2.89136E-01
 -1      1207 2.41039E-01
 -1      1208 2.05311E-01
 -1      1209 1.83745E-01
 -1      1210 1.80541E-01
 -1      1211 1.92164E-01
 -1      1212 2.10763E-01
 -1      1213 2.46540E-01
 -1      1214 3.01328E-01
 -1      1215 3.62191E-01
 -1      1216 4.22783E-01
 -1      1217 4.72869E-01
 -1      1218 5.00035E-01
 -1      1219 5.58584E-01
 -1      1220 6.89825E-01
 -1      1221 8.23483E-01
 -1      1222 9.51796E-01
 -1      1223 1.13097E+00
 -1      1224 1.23648E+00
 -1      1225 1.37979E+00
 -1      1226 1.69256E+00
 -1      1227 2.26441E+00
 -1      1228 2.75898E+00
 -1      1229 3.05771E+00
 -1      1230 3.26426E+00
 -1      1231 3.02429E+00
 -1      1232 2.28720E+00
 -1      1233 1.47076E+00
 -1      1234 1.00648E+00
 -1      1235 9.45137E-01
 -1      1236 1.04757E+00
 -1      1237 1.06639E+00
 -1      1238 1.01729E+00
 -1      1239 8.79472E-01
 -1      1240 7.05178E-01
 -1      1241 5.85927E-01
 -1      1242 4.84020E-01
 -1      1243 3.32940E-01
 -1      1244 1.58796E-01
 -1      1245 9.27417E-02
 -1      1246 1.17991E-01
 -1      1247 1.07939E-01
 -1      1248 7.75560E-02
 -1      1249 4.70521E-02
 -1      1250 5.61502E-02
 -1      1251 9.00950E-02
 -1      1252 1.12291E-01
 -1      1253 1.19812E-01
 -1      1254 1.19302E-01
 -1      1255 1.08795E-01
 -1      1256 8.12233E-02
 -1      1257 5.81747E-02
 -1      1258 8.06140E-02
 -1      1259 1.46547E-01
 -1      1260 1.99594E-01
 -1      1261 1.53578E-01
 -1      1262 2.40495E+01
 -1      1263 3.61263E+01
 -1      1264 4.79019E+01
 -1      1265 3.48263E+01
 -1      1266 1.68994E+01
 -1      1267 1.20481E+01
 -1      1268 1.20092E+01
 -1      1269 1.19781E+01
 -1      1270 1.19859E+01
 -1      1271 1.24081E+01
 -1      1272 2.00288E+01
 -1      1273 2.81400E+01
 -1      1274 2.90529E+01
 -1      1275 2.72663E+01
 -1      1276 2.51707E+01
 -1      1277 2.48616E+01
 -1      1278 3.50711E+01
 -1      1279 4.52806E+01
 -1      1280 3.16266E+01
 -1      1281 1.49394E+01
 -1      1282 1.21350E+01
 -1      1283 1.23638E+01
 -1      1284 1.25719E+01
 -1      1285 1.27799E+01
 -1      1286 1.22410E+01
 -1      1287 1.79433E+01
 -1      1288 2.80723E+01
 -1      1289 3.19601E+01
 -1      1290 2.84297E+01
 -1      1291 2.43238E+01
 -1      1292 1.31473E+01
 -1      1293 4.86971E+00
 -1      1294 9.61216E+00
 -1      1295 2.06139E+00
 -1      1296 2.98048E+00
 -1      1297 4.18778E+00
 -1      1298 1.39629E+00
 -1      1299 1.66415E+00
 -1      1300 1.90132E+00
 -1      1301 1.09961E+00
 -1      1302 1.22267E+00
 -1      1303 1.33046E+00
 -1      1304 9.35107E-01
 -1      1305 1.00675E+00
 -1      1306 1.06398E+00
 -1      1307 8.36243E-01
 -1      1308 8.81547E-01
 -1      1309 9.17561E-01
 -1      1310 7.75283E-01
 -1      1311 8.02316E-01
 -1      1312 8.30073E-01
 -1      1313 7.56382E-01
 -1      1314 7.55401E-01
 -1      1315 7.76264E-01
 -1      1316 8.06168E-01
 -1      1317 7.77976E-01
 -1      1318 7.77976E-01
 -1      1319 8.83433E-01
 -1      1320 8.39817E-01
 -1      1321 8.33218E-01
 -1      1322 1.01567E+00
 -1      1323 9.40038E-01
 -1      1324 9.23472E-01
 -1      1325 1.23855E+00
 -1      1326 1.11115E+00
 -1      1327 1.07556E+00
 -1      1328 1.67943E+00
 -1      1329 1.41589E+00
 -1      1330 1.34838E+00
 -1      1331 2.88144E+00
 -1      1332 2.04601E+00
 -1      1333 1.89231E+00
 -1      1334 6.28705E+00
 -1      1335 3.71717E+00
 -1      1336 3.09463E+00
 -1      1337 1.40432E+01
 -1      1338 1.13435E+01
 -1      1339 8.98678E+00
 -1      1340 1.40432E+01
 -1      1341 8.73468E+00
 -1      1342 4.32206E+00
 -1      1343 3.83446E+00
 -1      1344 3.34687E+00
 -1      1345 3.83446E+00
 -1      1346 2.73242E+00
 -1      1347 2.11798E+00
 -1      1348 2.73242E+00
 -1      1349 1.78585E+00
 -1      1350 1.41197E+00
 -1      1351 1.78585E+00
 -1      1352 1.20161E+00
 -1      1353 1.02687E+00
 -1      1354 1.24337E+00
 -1      1355 9.02378E-01
 -1      1356 7.84029E-01
 -1      1357 9.08517E-01
 -1      1358 6.95619E-01
 -1      1359 6.07210E-01
 -1      1360 6.95619E-01
 -1      1361 5.44070E-01
 -1      1362 4.75918E-01
 -1      1363 5.44070E-01
 -1      1364 4.27674E-01
 -1      1365 3.74997E-01
 -1      1366 4.32687E-01
 -1      1367 3.36132E-01
 -1      1368 2.98711E-01
 -1      1369 3.45579E-01
 -1      1370 2.70783E-01
 -1      1371 2.41938E-01
 -1      1372 2.78786E-01
 -1      1373 2.19262E-01
 -1      1374 1.97614E-01
 -1      1375 2.28183E-01
 -1      1376 1.79024E-01
 -1      1377 1.63542E-01
 -1      1378 1.86918E-01
 -1      1379 1.51401E-01
 -1      1380 1.44045E-01
 -1      1381 1.56187E-01
 -1      1382 1.41968E-01
 -1      1383 1.47278E-01
 -1      1384 1.41968E-01
 -1      1385 1.55424E-01
 -1      1386 1.72397E-01
 -1      1387 1.48037E-01
 -1      1388 1.90269E-01
 -1      1389 2.14298E-01
 -1      1390 1.74056E-01
 -1      1391 2.37798E-01
 -1      1392 2.69455E-01
 -1      1393 2.15429E-01
 -1      1394 2.99981E-01
 -1      1395 3.39362E-01
 -1      1396 2.69455E-01
 -1      1397 3.80029E-01
 -1      1398 4.26263E-01
 -1      1399 3.40649E-01
 -1      1400 4.92816E-01
 -1      1401 5.43310E-01
 -1      1402 4.47869E-01
 -1      1403 6.21113E-01
 -1      1404 6.75762E-01
 -1      1405 5.92225E-01
 -1      1406 7.60334E-01
 -1      1407 8.64313E-01
 -1      1408 7.54600E-01
 -1      1409 9.45750E-01
 -1      1410 1.05590E+00
 -1      1411 9.20610E-01
 -1      1412 1.13541E+00
 -1      1413 1.27811E+00
 -1      1414 1.08155E+00
 -1      1415 1.39515E+00
 -1      1416 1.51256E+00
 -1      1417 1.27811E+00
 -1      1418 1.62997E+00
 -1      1419 1.66111E+00
 -1      1420 1.51256E+00
 -1      1421 1.69226E+00
 -1      1422 1.69515E+00
 -1      1423 1.66111E+00
 -1      1424 1.69804E+00
 -1      1425 1.69804E+00
 -1      1426 1.69515E+00
 -1      1427 1.64016E+00
 -1      1428 1.79868E+00
 -1      1429 1.64016E+00
 -1      1430 2.01508E+00
 -1      1431 2.61663E+00
 -1      1432 1.79868E+00
 -1      1433 3.21818E+00
 -1      1434 3.96157E+00
 -1      1435 2.61663E+00
 -1      1436 4.70496E+00
 -1      1437 4.70496E+00
 -1      1438 3.96157E+00
 -1      1439 4.67920E+00
 -1      1440 4.66858E+00
 -1      1441 4.67920E+00
 -1      1442 4.68373E+00
 -1      1443 4.68373E+00
 -1      1444 4.66858E+00
 -1      1445 3.93505E+00
 -1      1446 3.18637E+00
 -1      1447 3.93505E+00
 -1      1448 2.58353E+00
 -1      1449 1.98069E+00
 -1      1450 2.58353E+00
 -1      1451 1.77185E+00
 -1      1452 1.61306E+00
 -1      1453 1.77185E+00
 -1      1454 1.66309E+00
 -1      1455 1.68341E+00
 -1      1456 1.61306E+00
 -1      1457 1.70372E+00
 -1      1458 1.70372E+00
 -1      1459 1.68341E+00
 -1      1460 1.66601E+00
 -1      1461 1.62829E+00
 -1      1462 1.66601E+00
 -1      1463 1.50001E+00
 -1      1464 1.37173E+00
 -1      1465 1.50001E+00
 -1      1466 1.23428E+00
 -1      1467 1.07449E+00
 -1      1468 1.23428E+00
 -1      1469 9.74591E-01
 -1      1470 8.91401E-01
 -1      1471 9.96928E-01
 -1      1472 8.49106E-01
 -1      1473 8.12439E-01
 -1      1474 8.54734E-01
 -1      1475 7.51019E-01
 -1      1476 6.89599E-01
 -1      1477 7.51019E-01
 -1      1478 6.17624E-01
 -1      1479 5.45650E-01
 -1      1480 6.17624E-01
 -1      1481 4.77145E-01
 -1      1482 4.08641E-01
 -1      1483 4.77145E-01
 -1      1484 3.11631E-01
 -1      1485 3.11631E-01
 -1      1486 3.39778E+00
 -1      1487 8.72049E+00
 -1      1488 8.72049E+00
 -1      1489 2.41726E+00
 -1      1490 2.90752E+00
 -1      1491 2.90752E+00
 -1      1492 1.67083E+00
 -1      1493 2.04404E+00
 -1      1494 2.04404E+00
 -1      1495 1.15065E+00
 -1      1496 1.41074E+00
 -1      1497 1.41074E+00
 -1      1498 9.10808E-01
 -1      1499 1.03073E+00
 -1      1500 1.03073E+00
 -1      1501 7.38230E-01
 -1      1502 8.24519E-01
 -1      1503 8.24519E-01
 -1      1504 5.97762E-01
 -1      1505 6.67996E-01
 -1      1506 6.67996E-01
 -1      1507 4.82338E-01
 -1      1508 5.40050E-01
 -1      1509 5.40050E-01
 -1      1510 3.88411E-01
 -1      1511 4.35375E-01
 -1      1512 4.35375E-01
 -1      1513 3.16350E-01
 -1      1514 3.52381E-01
 -1      1515 3.52381E-01
 -1      1516 2.61922E-01
 -1      1517 2.89136E-01
 -1      1518 2.89136E-01
 -1      1519 2.20156E-01
 -1      1520 2.41039E-01
 -1      1521 2.41039E-01
 -1      1522 1.90467E-01
 -1      1523 2.05311E-01
 -1      1524 2.05311E-01
 -1      1525 1.77023E-01
 -1      1526 1.83745E-01
 -1      1527 1.83745E-01
 -1      1528 1.79826E-01
 -1      1529 1.76307E-01
 -1      1530 1.76307E-01
 -1      1531 1.92164E-01
 -1      1532 1.84060E-01
 -1      1533 1.79826E-01
 -1      1534 2.10763E-01
 -1      1535 2.00268E-01
 -1      1536 1.92164E-01
 -1      1537 2.56226E-01
 -1      1538 2.30944E-01
 -1      1539 2.20449E-01
 -1      1540 3.09736E-01
 -1      1541 2.80230E-01
 -1      1542 2.64635E-01
 -1      1543 3.66053E-01
 -1      1544 3.34696E-01
 -1      1545 3.13599E-01
 -1      1546 4.22783E-01
 -1      1547 3.93549E-01
 -1      1548 3.66053E-01
 -1      1549 4.72869E-01
 -1      1550 4.52017E-01
 -1      1551 4.22783E-01
 -1      1552 5.00035E-01
 -1      1553 4.93720E-01
 -1      1554 4.72869E-01
 -1      1555 5.71285E-01
 -1      1556 5.19052E-01
 -1      1557 5.12737E-01
 -1      1558 7.02289E-01
 -1      1559 6.23281E-01
 -1      1560 5.83749E-01
 -1      1561 8.23483E-01
 -1      1562 7.68834E-01
 -1      1563 7.02289E-01
 -1      1564 9.51796E-01
 -1      1565 8.78132E-01
 -1      1566 8.23483E-01
 -1      1567 1.13097E+00
 -1      1568 1.02546E+00
 -1      1569 9.51796E-01
 -1      1570 1.23648E+00
 -1      1571 1.23648E+00
 -1      1572 1.13097E+00
 -1      1573 1.37001E+00
 -1      1574 1.22670E+00
 -1      1575 1.22670E+00
 -1      1576 1.69256E+00
 -1      1577 1.52311E+00
 -1      1578 1.37001E+00
 -1      1579 2.29662E+00
 -1      1580 1.89422E+00
 -1      1581 1.72477E+00
 -1      1582 2.75898E+00
 -1      1583 2.66681E+00
 -1      1584 2.29662E+00
 -1      1585 3.05771E+00
 -1      1586 2.85115E+00
 -1      1587 2.75898E+00
 -1      1588 3.26426E+00
 -1      1589 3.26426E+00
 -1      1590 3.05771E+00
 -1      1591 2.78432E+00
 -1      1592 3.02429E+00
 -1      1593 3.02429E+00
 -1      1594 1.79009E+00
 -1      1595 2.28720E+00
 -1      1596 2.28720E+00
 -1      1597 1.15143E+00
 -1      1598 1.47076E+00
 -1      1599 1.47076E+00
 -1      1600 8.17710E-01
 -1      1601 9.62661E-01
 -1      1602 9.62661E-01
 -1      1603 9.45137E-01
 -1      1604 8.61525E-01
 -1      1605 8.17710E-01
 -1      1606 1.04757E+00
 -1      1607 1.02875E+00
 -1      1608 9.45137E-01
 -1      1609 1.06639E+00
 -1      1610 1.06639E+00
 -1      1611 1.04757E+00
 -1      1612 9.68183E-01
 -1      1613 1.01729E+00
 -1      1614 1.01729E+00
 -1      1615 7.90762E-01
 -1      1616 8.79472E-01
 -1      1617 8.79472E-01
 -1      1618 6.19595E-01
 -1      1619 7.05178E-01
 -1      1620 7.05178E-01
 -1      1621 5.52259E-01
 -1      1622 5.85927E-01
 -1      1623 5.85927E-01
 -1      1624 4.15782E-01
 -1      1625 4.84020E-01
 -1      1626 4.84020E-01
 -1      1627 2.50518E-01
 -1      1628 3.33359E-01
 -1      1629 3.33359E-01
 -1      1630 1.84045E-01
 -1      1631 1.35630E-01
 -1      1632 1.35630E-01
 -1      1633 1.26227E-01
 -1      1634 1.36278E-01
 -1      1635 1.53918E-01
 -1      1636 1.05896E-01
 -1      1637 1.26227E-01
 -1      1638 1.54566E-01
 -1      1639 5.94350E-02
 -1      1640 6.96078E-02
 -1      1641 1.18279E-01
 -1      1642 1.01335E-01
 -1      1643 8.20639E-02
 -1      1644 1.04620E-01
 -1      1645 1.45409E-01
 -1      1646 1.30735E-01
 -1      1647 1.56649E-01
 -1      1648 1.70743E-01
 -1      1649 1.63221E-01
 -1      1650 2.03861E-01
 -1      1651 1.73628E-01
 -1      1652 1.73628E-01
 -1      1653 2.24559E-01
 -1      1654 1.73118E-01
 -1      1655 1.73628E-01
 -1      1656 2.27445E-01
 -1      1657 1.58079E-01
 -1      1658 1.68076E-01
 -1      1659 2.22403E-01
 -1      1660 1.19648E-01
 -1      1661 1.37223E-01
 -1      1662 1.96504E-01
 -1      1663 7.92148E-02
 -1      1664 8.46888E-02
 -1      1665 1.40688E-01
 -1      1666 1.36562E-01
 -1      1667 1.08649E-01
 -1      1668 1.35163E-01
 -1      1669 1.74582E-01
 -1      1670 1.36562E-01
 -1      1671 1.64597E-01
 -1      1672 2.20954E-01
 -1      1673 2.05927E-01
 -1      1674 1.95942E-01
 -1      1675 3.17964E-01
 -1      1676 2.63653E+01
 -1      1677 2.60642E+01
 -1      1678 3.88729E+01
 -1      1679 2.70973E+01
 -1      1680 4.79019E+01
 -1      1681 4.79019E+01
 -1      1682 2.22029E+01
 -1      1683 3.52785E+01
 -1      1684 1.16851E+01
 -1      1685 1.65364E+01
 -1      1686 1.20481E+01
 -1      1687 1.20481E+01
 -1      1688 1.19703E+01
 -1      1689 1.20092E+01
 -1      1690 1.18949E+01
 -1      1691 1.18871E+01
 -1      1692 1.19859E+01
 -1      1693 1.19859E+01
 -1      1694 1.22138E+01
 -1      1695 1.17915E+01
 -1      1696 2.00288E+01
 -1      1697 1.28304E+01
 -1      1698 2.84296E+01
 -1      1699 2.75167E+01
 -1      1700 3.09840E+01
 -1      1701 3.09840E+01
 -1      1702 2.91975E+01
 -1      1703 3.09840E+01
 -1      1704 2.83251E+01
 -1      1705 2.86341E+01
 -1      1706 2.83251E+01
 -1      1707 2.83251E+01
 -1      1708 4.19541E+01
 -1      1709 3.17447E+01
 -1      1710 4.52806E+01
 -1      1711 4.52806E+01
 -1      1712 1.86130E+01
 -1      1713 3.22670E+01
 -1      1714 1.11778E+01
 -1      1715 1.42110E+01
 -1      1716 1.21350E+01
 -1      1717 1.19061E+01
 -1      1718 1.23638E+01
 -1      1719 1.23638E+01
 -1      1720 1.22628E+01
 -1      1721 1.20548E+01
 -1      1722 1.27799E+01
 -1      1723 1.27799E+01
 -1      1724 1.17021E+01
 -1      1725 1.22410E+01
 -1      1726 1.78509E+01
 -1      1727 1.16097E+01
 -1      1728 2.93050E+01
 -1      1729 2.54172E+01
 -1      1730 3.19601E+01
 -1      1731 3.19601E+01
 -1      1732 2.83077E+01
 -1      1733 3.18382E+01
 -1      1734 2.60642E+01
 -1      1735 2.66396E+01
 -1      1736 1.69886E+01
 -1      1737 3.52785E+01
 -1      1738 1.84464E-01
 -1      1739 2.02103E-01
 -1      1740 2.91120E+01
 -1      1741 3.88729E+01
 -1      1742 2.83800E+01
 -1      1743 1.16851E+01
 -1      1744 1.20092E+01
 -1      1745 1.18871E+01
 -1      1746 1.18949E+01
 -1      1747 1.17915E+01
 -1      1748 1.22138E+01
 -1      1749 2.03183E+01
 -1      1750 3.03607E+01
 -1      1751 3.29152E+01
 -1      1752 3.23518E+01
 -1      1753 3.17885E+01
 -1      1754 3.52081E+01
 -1      1755 4.19541E+01
 -1      1756 3.22670E+01
 -1      1757 1.48514E+01
 -1      1758 1.11778E+01
 -1      1759 1.21350E+01
 -1      1760 1.20548E+01
 -1      1761 1.22628E+01
 -1      1762 1.22410E+01
 -1      1763 1.16097E+01
 -1      1764 1.90836E+01
 -1      1765 2.93050E+01
 -1      1766 3.18382E+01
 -1      1767 3.00481E+01
 -1      1768 9.61216E+00
 -1      1769 1.28583E+00
 -1      1770 1.68306E+00
 -1      1771 2.38806E+00
 -1      1772 4.27729E+00
 -1      1773 1.77257E+00
 -1      1774 8.79331E-01
 -1      1775 9.72187E-01
 -1      1776 7.79092E-01
 -1      1777 8.32653E-01
 -1      1778 7.40862E-01
 -1      1779 7.13795E-01
 -1      1780 7.47722E-01
 -1      1781 6.62813E-01
 -1      1782 6.71961E-01
 -1      1783 6.91843E-01
 -1      1784 6.09491E-01
 -1      1785 6.95155E-01
 -1      1786 6.73562E-01
 -1      1787 5.89141E-01
 -1      1788 7.50454E-01
 -1      1789 7.16806E-01
 -1      1790 6.12392E-01
 -1      1791 8.40208E-01
 -1      1792 7.83603E-01
 -1      1793 6.67191E-01
 -1      1794 9.83098E-01
 -1      1795 8.87614E-01
 -1      1796 7.47746E-01
 -1      1797 1.22800E+00
 -1      1798 1.05066E+00
 -1      1799 8.62718E-01
 -1      1800 1.70814E+00
 -1      1801 1.34155E+00
 -1      1802 1.04383E+00
 -1      1803 2.62845E+00
 -1      1804 1.79272E+00
 -1      1805 1.24196E+00
 -1      1806 8.12293E+00
 -1      1807 3.06651E+00
 -1      1808 1.76460E+00
 -1      1809 2.80022E+00
 -1      1810 5.19953E+00
 -1      1811 2.16686E+00
 -1      1812 2.65713E+00
 -1      1813 2.05957E+00
 -1      1814 3.39981E+00
 -1      1815 2.54076E+00
 -1      1816 1.92631E+00
 -1      1817 1.69565E+00
 -1      1818 1.36353E+00
 -1      1819 1.50398E+00
 -1      1820 1.18386E+00
 -1      1821 9.73493E-01
 -1      1822 1.09365E+00
 -1      1823 8.48480E-01
 -1      1824 7.23991E-01
 -1      1825 7.88967E-01
 -1      1826 6.65828E-01
 -1      1827 5.77419E-01
 -1      1828 6.05790E-01
 -1      1829 5.30142E-01
 -1      1830 4.67002E-01
 -1      1831 5.00350E-01
 -1      1832 4.25794E-01
 -1      1833 3.77551E-01
 -1      1834 4.11865E-01
 -1      1835 3.44645E-01
 -1      1836 3.05780E-01
 -1      1837 3.37751E-01
 -1      1838 2.78786E-01
 -1      1839 2.50859E-01
 -1      1840 2.77852E-01
 -1      1841 2.28183E-01
 -1      1842 2.05508E-01
 -1      1843 2.28183E-01
 -1      1844 1.86918E-01
 -1      1845 1.68328E-01
 -1      1846 1.86918E-01
 -1      1847 1.54193E-01
 -1      1848 1.42052E-01
 -1      1849 1.54193E-01
 -1      1850 1.33092E-01
 -1      1851 1.31015E-01
 -1      1852 1.31099E-01
 -1      1853 1.35328E-01
 -1      1854 1.43474E-01
 -1      1855 1.26452E-01
 -1      1856 1.56183E-01
 -1      1857 1.74056E-01
 -1      1858 1.43474E-01
 -1      1859 1.91929E-01
 -1      1860 2.15429E-01
 -1      1861 1.74056E-01
 -1      1862 2.47474E-01
 -1      1863 2.78000E-01
 -1      1864 2.23974E-01
 -1      1865 3.27025E-01
 -1      1866 3.67693E-01
 -1      1867 3.05044E-01
 -1      1868 4.27003E-01
 -1      1869 4.93556E-01
 -1      1870 4.13379E-01
 -1      1871 5.62703E-01
 -1      1872 6.40506E-01
 -1      1873 5.41837E-01
 -1      1874 7.16605E-01
 -1      1875 8.01178E-01
 -1      1876 6.87084E-01
 -1      1877 8.77423E-01
 -1      1878 9.58860E-01
 -1      1879 8.39428E-01
 -1      1880 1.02293E+00
 -1      1881 1.10243E+00
 -1      1882 9.79739E-01
 -1      1883 1.15742E+00
 -1      1884 1.27446E+00
 -1      1885 1.09879E+00
 -1      1886 1.33962E+00
 -1      1887 1.45703E+00
 -1      1888 1.21893E+00
 -1      1889 1.45874E+00
 -1      1890 1.48988E+00
 -1      1891 1.28579E+00
 -1      1892 1.43985E+00
 -1      1893 1.44274E+00
 -1      1894 1.23747E+00
 -1      1895 1.46696E+00
 -1      1896 1.40908E+00
 -1      1897 1.21166E+00
 -1      1898 1.45608E+00
 -1      1899 1.67247E+00
 -1      1900 1.28287E+00
 -1      1901 1.99816E+00
 -1      1902 2.59971E+00
 -1      1903 1.65555E+00
 -1      1904 2.92627E+00
 -1      1905 3.66965E+00
 -1      1906 2.30780E+00
 -1      1907 3.81184E+00
 -1      1908 3.78608E+00
 -1      1909 2.77653E+00
 -1      1910 3.76249E+00
 -1      1911 3.77764E+00
 -1      1912 2.89513E+00
 -1      1913 3.65062E+00
 -1      1914 2.90194E+00
 -1      1915 2.74453E+00
 -1      1916 2.58413E+00
 -1      1917 1.98129E+00
 -1      1918 2.29970E+00
 -1      1919 1.65223E+00
 -1      1920 1.44340E+00
 -1      1921 1.65284E+00
 -1      1922 1.39450E+00
 -1      1923 1.44454E+00
 -1      1924 1.27488E+00
 -1      1925 1.39727E+00
 -1      1926 1.41758E+00
 -1      1927 1.17871E+00
 -1      1928 1.48240E+00
 -1      1929 1.44469E+00
 -1      1930 1.19627E+00
 -1      1931 1.43218E+00
 -1      1932 1.30390E+00
 -1      1933 1.24858E+00
 -1      1934 1.22234E+00
 -1      1935 1.08489E+00
 -1      1936 1.15451E+00
 -1      1937 1.01628E+00
 -1      1938 9.16384E-01
 -1      1939 1.00434E+00
 -1      1940 8.40568E-01
 -1      1941 7.98274E-01
 -1      1942 8.59924E-01
 -1      1943 7.11118E-01
 -1      1944 6.49698E-01
 -1      1945 6.96952E-01
 -1      1946 5.92626E-01
 -1      1947 5.20652E-01
 -1      1948 5.52725E-01
 -1      1949 4.52496E-01
 -1      1950 3.83991E-01
 -1      1951 2.93314E-01
 -1      1952 4.27498E-01
 -1      1953 1.40247E+00
 -1      1954 1.77569E+00
 -1      1955 1.52530E+00
 -1      1956 1.02368E+00
 -1      1957 1.28376E+00
 -1      1958 1.01541E+00
 -1      1959 8.10417E-01
 -1      1960 9.30340E-01
 -1      1961 8.03364E-01
 -1      1962 6.45126E-01
 -1      1963 7.31416E-01
 -1      1964 6.31024E-01
 -1      1965 5.22140E-01
 -1      1966 5.92374E-01
 -1      1967 4.99271E-01
 -1      1968 4.32187E-01
 -1      1969 4.89899E-01
 -1      1970 4.14277E-01
 -1      1971 3.54506E-01
 -1      1972 4.01469E-01
 -1      1973 3.51318E-01
 -1      1974 2.90958E-01
 -1      1975 3.26989E-01
 -1      1976 2.93084E-01
 -1      1977 2.42527E-01
 -1      1978 2.69741E-01
 -1      1979 2.44349E-01
 -1      1980 2.05484E-01
 -1      1981 2.26367E-01
 -1      1982 2.06971E-01
 -1      1983 1.77793E-01
 -1      1984 1.92637E-01
 -1      1985 1.77965E-01
 -1      1986 1.63274E-01
 -1      1987 1.69996E-01
 -1      1988 1.57322E-01
 -1      1989 1.59519E-01
 -1      1990 1.60234E-01
 -1      1991 1.46485E-01
 -1      1992 1.64079E-01
 -1      1993 1.59845E-01
 -1      1994 1.43772E-01
 -1      1995 1.83052E-01
 -1      1996 1.74948E-01
 -1      1997 1.54967E-01
 -1      1998 2.22680E-01
 -1      1999 2.02499E-01
 -1      2000 1.85283E-01
 -1      2001 2.84308E-01
 -1      2002 2.60304E-01
 -1      2003 2.42354E-01
 -1      2004 3.52399E-01
 -1      2005 3.27440E-01
 -1      2006 3.23109E-01
 -1      2007 4.26582E-01
 -1      2008 3.99087E-01
 -1      2009 4.12928E-01
 -1      2010 5.01889E-01
 -1      2011 4.72654E-01
 -1      2012 5.05688E-01
 -1      2013 5.61079E-01
 -1      2014 5.40228E-01
 -1      2015 5.90099E-01
 -1      2016 6.16932E-01
 -1      2017 5.97915E-01
 -1      2018 6.65275E-01
 -1      2019 6.81696E-01
 -1      2020 6.29700E-01
 -1      2021 7.14879E-01
 -1      2022 7.48240E-01
 -1      2023 6.81696E-01
 -1      2024 7.27646E-01
 -1      2025 7.71526E-01
 -1      2026 7.16877E-01
 -1      2027 6.96283E-01
 -1      2028 7.70351E-01
 -1      2029 6.96686E-01
 -1      2030 5.90081E-01
 -1      2031 9.00301E-01
 -1      2032 7.94793E-01
 -1      2033 5.39683E-01
 -1      2034 1.11229E+00
 -1      2035 1.12207E+00
 -1      2036 7.85894E-01
 -1      2037 1.52070E+00
 -1      2038 1.36760E+00
 -1      2039 1.26297E+00
 -1      2040 1.83118E+00
 -1      2041 1.62952E+00
 -1      2042 1.62710E+00
 -1      2043 2.20137E+00
 -1      2044 1.83118E+00
 -1      2045 1.73593E+00
 -1      2046 2.27454E+00
 -1      2047 2.18237E+00
 -1      2048 1.71693E+00
 -1      2049 2.59150E+00
 -1      2050 2.38494E+00
 -1      2051 1.80833E+00
 -1      2052 2.31340E+00
 -1      2053 2.55338E+00
 -1      2054 1.88061E+00
 -1      2055 1.56722E+00
 -1      2056 2.06434E+00
 -1      2057 1.59343E+00
 -1      2058 9.92668E-01
 -1      2059 1.31200E+00
 -1      2060 1.08914E+00
 -1      2061 6.45872E-01
 -1      2062 8.34637E-01
 -1      2063 6.75879E-01
 -1      2064 7.18326E-01
 -1      2065 6.74511E-01
 -1      2066 5.46487E-01
 -1      2067 8.57901E-01
 -1      2068 7.74290E-01
 -1      2069 6.31090E-01
 -1      2070 9.12657E-01
 -1      2071 8.93837E-01
 -1      2072 7.22989E-01
 -1      2073 8.53956E-01
 -1      2074 9.03060E-01
 -1      2075 7.49327E-01
 -1      2076 7.18080E-01
 -1      2077 8.06791E-01
 -1      2078 6.92564E-01
 -1      2079 5.88471E-01
 -1      2080 6.74055E-01
 -1      2081 6.01373E-01
 -1      2082 5.12110E-01
 -1      2083 5.45778E-01
 -1      2084 5.14654E-01
 -1      2085 3.98803E-01
 -1      2086 4.67041E-01
 -1      2087 4.26892E-01
 -1      2088 2.50937E-01
 -1      2089 3.33359E-01
 -1      2090 3.16380E-01
 -1      2091 2.02103E-01
 -1      2092 1.26042E-01
 -1      2093 1.62330E-01
 -1      2094 2.18955E-01
 -1      2095 2.18955E-01
 -1      2096 2.26718E-01
 -1      2097 2.18955E-01
 -1      2098 2.18307E-01
 -1      2099 2.67140E-01
 -1      2100 2.83343E-01
 -1      2101 1.41952E-01
 -1      2102 1.19323E-01
 -1      2103 1.63374E-01
 -1      2104 2.14585E-01
 -1      2105 1.85185E-01
 -1      2106 1.99888E-01
 -1      2107 2.63185E-01
 -1      2108 2.45373E-01
 -1      2109 2.73909E-01
 -1      2110 2.75982E-01
 -1      2111 2.73096E-01
 -1      2112 3.14607E-01
 -1      2113 2.77420E-01
 -1      2114 2.77420E-01
 -1      2115 3.25957E-01
 -1      2116 2.72378E-01
 -1      2117 2.77420E-01
 -1      2118 3.27395E-01
 -1      2119 2.40357E-01
 -1      2120 2.61214E-01
 -1      2121 3.16231E-01
 -1      2122 1.69924E-01
 -1      2123 2.04883E-01
 -1      2124 2.69593E-01
 -1      2125 1.71994E-01
 -1      2126 1.42560E-01
 -1      2127 2.06755E-01
 -1      2128 2.22545E-01
 -1      2129 2.22545E-01
 -1      2130 2.29942E-01
 -1      2131 3.88729E+01
 -1      2132 2.98440E+01
 -1      2133 3.00406E+01
 -1      2134 3.00406E+01
 -1      2135 3.00319E+01
 -1      2136 2.92999E+01
 -1      2137 1.98892E+01
 -1      2138 3.25126E+01
 -1      2139 1.03346E+01
 -1      2140 1.60011E+01
 -1      2141 1.32352E+01
 -1      2142 1.03414E+00
 -1      2143 1.20776E+00
 -1      2144 9.89505E-01
 -1      2145 8.49489E-01
 -1      2146 1.08280E+01
 -1      2147 1.08669E+01
 -1      2148 1.10000E+01
 -1      2149 1.10832E+01
 -1      2150 1.13242E+01
 -1      2151 1.12332E+01
 -1      2152 1.06835E+01
 -1      2153 1.08778E+01
 -1      2154 1.02702E+01
 -1      2155 9.65355E+00
 -1      2156 1.95040E+01
 -1      2157 1.20161E+01
 -1      2158 2.64592E+01
 -1      2159 2.39048E+01
 -1      2160 1.56025E+01
 -1      2161 3.29152E+01
 -1      2162 3.29152E+01
 -1      2163 3.49562E+01
 -1      2164 3.55195E+01
 -1      2165 3.49562E+01
 -1      2166 3.49562E+01
 -1      2167 3.81239E+01
 -1      2168 3.34543E+01
 -1      2169 3.00347E+01
 -1      2170 3.56566E+01
 -1      2171 3.23302E+01
 -1      2172 2.71568E+01
 -1      2173 1.74757E+01
 -1      2174 3.04893E+01
 -1      2175 9.56479E+00
 -1      2176 1.39668E+01
 -1      2177 9.57111E+00
 -1      2178 8.84278E+00
 -1      2179 1.09612E+01
 -1      2180 1.07324E+01
 -1      2181 1.14287E+01
 -1      2182 1.17378E+01
 -1      2183 1.18056E+01
 -1      2184 1.12886E+01
 -1      2185 1.09715E+01
 -1      2186 1.01819E+01
 -1      2187 1.07208E+01
 -1      2188 9.24710E+00
 -1      2189 9.33945E+00
 -1      2190 7.81927E+00
 -1      2191 1.84958E+01
 -1      2192 1.09295E+01
 -1      2193 2.51417E+01
 -1      2194 2.24866E+01
 -1      2195 3.17162E+01
 -1      2196 3.18382E+01
 -1      2197 2.50197E+01
 -1      2198 3.00406E+01
 -1      2199 3.17087E+01
 -1      2200 9.50669E+00
 -1      2201 9.14372E+00
 -1      2202 2.91222E+00
 -1      2203 8.15624E+00
 -1      2204 8.32552E+00
 -1      2205 2.10611E+00
 -1      2206 3.00319E+01
 -1      2207 3.09604E+01
 -1      2208 2.53890E-01
 -1      2209 2.34836E+01
 -1      2210 3.17011E+01
 -1      2211 3.17087E+01
 -1      2212 8.65929E+00
 -1      2213 9.74651E+00
 -1      2214 1.03351E+01
 -1      2215 8.39734E+00
 -1      2216 7.95810E+00
 -1      2217 2.08653E+01
 -1      2218 3.32024E+01
 -1      2219 2.64592E+01
 -1      2220 9.45585E+00
 -1      2221 8.73986E+00
 -1      2222 1.02161E+01
 -1      2223 9.94089E+00
 -1      2224 1.04293E+01
 -1      2225 3.55195E+01
 -1      2226 1.21890E+01
 -1      2227 1.43325E+01
 -1      2228 1.09328E+00
 -1      2229 1.48446E+00
 -1      2230 5.58609E-01
 -1      2231 5.89980E-01
 -1      2232 6.02003E-01
 -1      2233 6.48681E-01
 -1      2234 4.97799E-01
 -1      2235 5.11141E-01
 -1      2236 5.09540E-01
 -1      2237 5.45574E-01
 -1      2238 5.23923E-01
 -1      2239 4.44323E-01
 -1      2240 5.93318E-01
 -1      2241 5.60170E-01
 -1      2242 4.71701E-01
 -1      2243 6.52582E-01
 -1      2244 6.05175E-01
 -1      2245 4.98154E-01
 -1      2246 7.20147E-01
 -1      2247 6.52582E-01
 -1      2248 5.10011E-01
 -1      2249 8.81031E-01
 -1      2250 7.67480E-01
 -1      2251 5.57344E-01
 -1      2252 8.96702E-01
 -1      2253 1.01541E+00
 -1      2254 9.74573E-01
 -1      2255 1.26932E+00
 -1      2256 1.03866E+00
 -1      2257 6.22260E+00
 -1      2258 7.41352E+00
 -1      2259 9.90395E-01
 -1      2260 8.10726E-01
 -1      2261 7.55736E-01
 -1      2262 7.54289E-01
 -1      2263 6.29275E-01
 -1      2264 6.51034E-01
 -1      2265 5.73376E-01
 -1      2266 5.15213E-01
 -1      2267 5.38698E-01
 -1      2268 4.66086E-01
 -1      2269 4.18809E-01
 -1      2270 4.33672E-01
 -1      2271 3.93148E-01
 -1      2272 3.51940E-01
 -1      2273 3.58884E-01
 -1      2274 3.27835E-01
 -1      2275 2.94929E-01
 -1      2276 3.09118E-01
 -1      2277 2.72181E-01
 -1      2278 2.45187E-01
 -1      2279 2.62265E-01
 -1      2280 2.24845E-01
 -1      2281 2.02170E-01
 -1      2282 2.19174E-01
 -1      2283 1.84543E-01
 -1      2284 1.65953E-01
 -1      2285 1.81205E-01
 -1      2286 1.50869E-01
 -1      2287 1.36734E-01
 -1      2288 1.48493E-01
 -1      2289 1.23683E-01
 -1      2290 1.14724E-01
 -1      2291 1.20359E-01
 -1      2292 1.09532E-01
 -1      2293 1.13845E-01
 -1      2294 1.02117E-01
 -1      2295 1.22232E-01
 -1      2296 1.34942E-01
 -1      2297 1.05313E-01
 -1      2298 1.51307E-01
 -1      2299 1.69180E-01
 -1      2300 1.30065E-01
 -1      2301 2.04095E-01
 -1      2302 2.36140E-01
 -1      2303 1.81346E-01
 -1      2304 2.78823E-01
 -1      2305 3.27848E-01
 -1      2306 2.58944E-01
 -1      2307 3.79595E-01
 -1      2308 4.38905E-01
 -1      2309 3.53373E-01
 -1      2310 5.00458E-01
 -1      2311 5.69605E-01
 -1      2312 4.66673E-01
 -1      2313 6.40595E-01
 -1      2314 7.16694E-01
 -1      2315 5.99216E-01
 -1      2316 7.94800E-01
 -1      2317 8.71045E-01
 -1      2318 7.48311E-01
 -1      2319 9.50851E-01
 -1      2320 1.01492E+00
 -1      2321 9.06223E-01
 -1      2322 1.08658E+00
 -1      2323 1.14157E+00
 -1      2324 1.05770E+00
 -1      2325 1.20251E+00
 -1      2326 1.26766E+00
 -1      2327 1.19030E+00
 -1      2328 1.38067E+00
 -1      2329 1.38237E+00
 -1      2330 1.36424E+00
 -1      2331 1.49069E+00
 -1      2332 1.44065E+00
 -1      2333 1.58556E+00
 -1      2334 1.49557E+00
 -1      2335 1.51979E+00
 -1      2336 1.74879E+00
 -1      2337 1.72934E+00
 -1      2338 1.77633E+00
 -1      2339 2.01325E+00
 -1      2340 1.74728E+00
 -1      2341 2.07298E+00
 -1      2342 2.19375E+00
 -1      2343 2.10714E+00
 -1      2344 2.43369E+00
 -1      2345 2.19887E+00
 -1      2346 2.77653E+00
 -1      2347 2.91872E+00
 -1      2348 2.57587E+00
 -1      2349 3.49144E+00
 -1      2350 3.46786E+00
 -1      2351 3.49144E+00
 -1      2352 3.25892E+00
 -1      2353 3.13191E+00
 -1      2354 3.85523E+00
 -1      2355 2.86208E+00
 -1      2356 2.54427E+00
 -1      2357 3.37648E+00
 -1      2358 2.46755E+00
 -1      2359 2.13850E+00
 -1      2360 3.02994E+00
 -1      2361 1.79706E+00
 -1      2362 1.74816E+00
 -1      2363 2.61178E+00
 -1      2364 1.49804E+00
 -1      2365 1.45077E+00
 -1      2366 2.02021E+00
 -1      2367 1.37622E+00
 -1      2368 1.44105E+00
 -1      2369 1.69555E+00
 -1      2370 1.32560E+00
 -1      2371 1.31309E+00
 -1      2372 1.50556E+00
 -1      2373 1.18963E+00
 -1      2374 1.10806E+00
 -1      2375 1.26665E+00
 -1      2376 1.04731E+00
 -1      2377 9.78706E-01
 -1      2378 1.08243E+00
 -1      2379 8.97741E-01
 -1      2380 8.21925E-01
 -1      2381 9.40708E-01
 -1      2382 7.33213E-01
 -1      2383 6.46057E-01
 -1      2384 7.71030E-01
 -1      2385 5.60722E-01
 -1      2386 5.03651E-01
 -1      2387 5.96983E-01
 -1      2388 5.52023E-01
 -1      2389 6.31024E-01
 -1      2390 4.46518E-01
 -1      2391 4.99271E-01
 -1      2392 4.99271E-01
 -1      2393 3.82036E-01
 -1      2394 4.14277E-01
 -1      2395 4.14277E-01
 -1      2396 3.20601E-01
 -1      2397 3.51318E-01
 -1      2398 3.51318E-01
 -1      2399 2.65566E-01
 -1      2400 2.93084E-01
 -1      2401 2.93084E-01
 -1      2402 2.21295E-01
 -1      2403 2.42512E-01
 -1      2404 2.42512E-01
 -1      2405 1.85529E-01
 -1      2406 2.01689E-01
 -1      2407 1.99852E-01
 -1      2408 1.56006E-01
 -1      2409 1.68853E-01
 -1      2410 1.63571E-01
 -1      2411 1.35148E-01
 -1      2412 1.42945E-01
 -1      2413 1.33833E-01
 -1      2414 1.22897E-01
 -1      2415 1.25937E-01
 -1      2416 1.11560E-01
 -1      2417 1.30706E-01
 -1      2418 1.30379E-01
 -1      2419 1.09831E-01
 -1      2420 1.52120E-01
 -1      2421 1.41251E-01
 -1      2422 1.27859E-01
 -1      2423 1.93171E-01
 -1      2424 1.73724E-01
 -1      2425 1.60009E-01
 -1      2426 2.65163E-01
 -1      2427 2.27539E-01
 -1      2428 2.15980E-01
 -1      2429 3.47580E-01
 -1      2430 3.04449E-01
 -1      2431 2.89634E-01
 -1      2432 4.37365E-01
 -1      2433 3.90677E-01
 -1      2434 3.72017E-01
 -1      2435 5.27650E-01
 -1      2436 4.81578E-01
 -1      2437 4.59326E-01
 -1      2438 6.06446E-01
 -1      2439 5.68107E-01
 -1      2440 5.43996E-01
 -1      2441 6.77971E-01
 -1      2442 6.41135E-01
 -1      2443 6.19143E-01
 -1      2444 7.14879E-01
 -1      2445 7.02111E-01
 -1      2446 6.77971E-01
 -1      2447 7.42270E-01
 -1      2448 7.42270E-01
 -1      2449 7.29503E-01
 -1      2450 7.11787E-01
 -1      2451 7.43150E-01
 -1      2452 7.57774E-01
 -1      2453 6.13444E-01
 -1      2454 6.88284E-01
 -1      2455 7.35150E-01
 -1      2456 6.95454E-01
 -1      2457 6.71012E-01
 -1      2458 7.69215E-01
 -1      2459 9.79905E-01
 -1      2460 7.58135E-01
 -1      2461 8.89465E-01
 -1      2462 1.39668E+00
 -1      2463 1.14137E+00
 -1      2464 1.11361E+00
 -1      2465 1.63697E+00
 -1      2466 1.52814E+00
 -1      2467 1.40654E+00
 -1      2468 1.79655E+00
 -1      2469 1.79655E+00
 -1      2470 1.69759E+00
 -1      2471 1.75359E+00
 -1      2472 1.77259E+00
 -1      2473 1.83321E+00
 -1      2474 1.94134E+00
 -1      2475 1.83094E+00
 -1      2476 1.88660E+00
 -1      2477 1.74108E+00
 -1      2478 1.77920E+00
 -1      2479 1.80181E+00
 -1      2480 1.37973E+00
 -1      2481 1.62880E+00
 -1      2482 1.52739E+00
 -1      2483 9.80338E-01
 -1      2484 1.23556E+00
 -1      2485 1.27094E+00
 -1      2486 6.81211E-01
 -1      2487 8.39242E-01
 -1      2488 9.85670E-01
 -1      2489 6.74565E-01
 -1      2490 6.45925E-01
 -1      2491 8.09288E-01
 -1      2492 6.74133E-01
 -1      2493 6.18169E-01
 -1      2494 7.17607E-01
 -1      2495 7.16602E-01
 -1      2496 6.80666E-01
 -1      2497 6.67745E-01
 -1      2498 6.81826E-01
 -1      2499 6.91423E-01
 -1      2500 6.49100E-01
 -1      2501 6.01181E-01
 -1      2502 6.48346E-01
 -1      2503 5.90443E-01
 -1      2504 5.18369E-01
 -1      2505 5.62394E-01
 -1      2506 5.18177E-01
 -1      2507 4.29628E-01
 -1      2508 4.72322E-01
 -1      2509 4.33343E-01
 -1      2510 3.54866E-01
 -1      2511 3.99934E-01
 -1      2512 3.57602E-01
 -1      2513 3.32584E-01
 -1      2514 2.61892E-01
 -1      2515 2.18658E-01
 -1      2516 3.42467E-01
 -1      2517 3.11679E-01
 -1      2518 3.30449E-01
 -1      2519 2.57314E-01
 -1      2520 3.13939E-01
 -1      2521 2.52923E-01
 -1      2522 2.59643E-01
 -1      2523 3.46863E-01
 -1      2524 3.14927E-01
 -1      2525 3.78161E-01
 -1      2526 3.68250E-01
 -1      2527 4.06020E-01
 -1      2528 3.79599E-01
 -1      2529 3.78161E-01
 -1      2530 4.31804E-01
 -1      2531 3.85207E-01
 -1      2532 3.85207E-01
 -1      2533 4.37412E-01
 -1      2534 3.74044E-01
 -1      2535 3.85207E-01
 -1      2536 4.43020E-01
 -1      2537 3.13376E-01
 -1      2538 3.48850E-01
 -1      2539 4.17827E-01
 -1      2540 2.52726E-01
 -1      2541 2.80090E-01
 -1      2542 3.59347E-01
 -1      2543 3.03277E-01
 -1      2544 2.52726E-01
 -1      2545 3.26061E-01
 -1      2546 3.02198E+01
 -1      2547 3.09604E+01
 -1      2548 1.52290E+01
 -1      2549 2.15894E+01
 -1      2550 7.10026E-01
 -1      2551 8.03364E-01
 -1      2552 6.31024E-01
 -1      2553 3.19917E-01
 -1      2554 3.17011E+01
 -1      2555 3.17011E+01
 -1      2556 9.63922E+00
 -1      2557 1.35273E+01
 -1      2558 1.67811E+00
 -1      2559 1.30666E+00
 -1      2560 8.41332E-01
 -1      2561 9.73118E-01
 -1      2562 8.31230E+00
 -1      2563 6.62984E+00
 -1      2564 9.19110E+00
 -1      2565 8.41455E+00
 -1      2566 2.37005E+01
 -1      2567 1.72445E+01
 -1      2568 8.22045E+00
 -1      2569 6.47455E+00
 -1      2570 5.22294E-01
 -1      2571 5.44245E-01
 -1      2572 4.71412E-01
 -1      2573 4.44294E-01
 -1      2574 9.55819E+00
 -1      2575 9.32499E+00
 -1      2576 3.01965E+01
 -1      2577 2.75922E+01
 -1      2578 8.84389E+00
 -1      2579 8.58871E+00
 -1      2580 8.43662E+00
 -1      2581 8.88297E+00
 -1      2582 6.19277E+00
 -1      2583 7.22267E+00
 -1      2584 1.39574E+01
 -1      2585 9.55659E+00
 -1      2586 1.11986E+01
 -1      2587 8.37033E+00
 -1      2588 1.18793E+01
 -1      2589 3.81239E+01
 -1      2590 3.81239E+01
 -1      2591 2.82809E+01
 -1      2592 3.32024E+01
 -1      2593 3.32024E+01
 -1      2594 2.18526E+01
 -1      2595 2.29767E+01
 -1      2596 1.41306E+01
 -1      2597 1.01399E+01
 -1      2598 1.45327E+01
 -1      2599 1.97001E+01
 -1      2600 1.07140E+01
 -1      2601 6.32093E+00
 -1      2602 7.04294E+00
 -1      2603 7.48594E+00
 -1      2604 6.32469E+00
 -1      2605 9.16413E+00
 -1      2606 9.30432E+00
 -1      2607 7.57548E+00
 -1      2608 8.66030E+00
 -1      2609 5.73184E+00
 -1      2610 6.57427E+00
 -1      2611 5.38485E+00
 -1      2612 2.26527E+01
 -1      2613 1.59562E+01
 -1      2614 2.74431E+01
 -1      2615 2.74507E+01
 -1      2616 7.41170E+00
 -1      2617 6.05151E+00
 -1      2618 6.31470E+00
 -1      2619 1.62296E+00
 -1      2620 1.76605E+00
 -1      2621 1.32799E+00
 -1      2622 1.19094E+00
 -1      2623 2.55482E+01
 -1      2624 2.57361E+01
 -1      2625 7.97281E+00
 -1      2626 5.09821E-01
 -1      2627 6.48681E-01
 -1      2628 7.10629E-01
 -1      2629 8.03364E-01
 -1      2630 1.24341E+00
 -1      2631 1.72936E+01
 -1      2632 6.87134E-01
 -1      2633 7.65202E-01
 -1      2634 6.70748E-01
 -1      2635 4.86326E-01
 -1      2636 2.74431E+01
 -1      2637 8.11046E+00
 -1      2638 7.70559E+00
 -1      2639 5.48805E+00
 -1      2640 6.99310E+00
 -1      2641 6.34189E+00
 -1      2642 3.05626E-01
 -1      2643 1.16331E+01
 -1      2644 3.05626E-01
 -1      2645 3.09604E+01
 -1      2646 2.57361E+01
 -1      2647 1.17636E+01
 -1      2648 2.29767E+01
 -1      2649 9.67059E-01
 -1      2650 3.36221E-01
 -1      2651 7.38371E+00
 -1      2652 4.95736E+00
 -1      2653 5.88952E+00
 -1      2654 6.73316E+00
 -1      2655 8.58068E+00
 -1      2656 5.59937E+00
 -1      2657 6.93552E+00
 -1      2658 2.27609E+01
 -1      2659 1.35462E+01
 -1      2660 1.74379E+01
 -1      2661 3.01965E+01
 -1      2662 5.30878E+00
 -1      2663 7.77869E+00
 -1      2664 1.55200E+01
 -1      2665 5.40953E+00
 -1      2666 1.83872E+01
 -1      2667 3.35818E-01
 -1      2668 2.96393E-01
 -1      2669 3.19177E-01
 -1      2670 4.03974E-01
 -1      2671 4.11971E-01
 -1      2672 4.22353E-01
 -1      2673 4.07757E-01
 -1      2674 4.00125E-01
 -1      2675 3.87343E-01
 -1      2676 3.50777E-01
 -1      2677 4.35761E-01
 -1      2678 4.35761E-01
 -1      2679 4.70900E-01
 -1      2680 4.23567E-01
 -1      2681 3.49317E-01
 -1      2682 7.20558E-01
 -1      2683 7.98429E-01
 -1      2684 4.26508E-01
 -1      2685 4.18195E-01
 -1      2686 4.47889E-01
 -1      2687 4.82321E+00
 -1      2688 3.92520E+00
 -1      2689 8.29452E+00
 -1      2690 6.46692E+00
 -1      2691 5.00727E+00
 -1      2692 5.54253E-01
 -1      2693 4.97815E-01
 -1      2694 4.91524E-01
 -1      2695 4.35626E-01
 -1      2696 3.94743E-01
 -1      2697 4.15219E-01
 -1      2698 3.66092E-01
 -1      2699 3.68045E-01
 -1      2700 3.41081E-01
 -1      2701 3.15419E-01
 -1      2702 3.22628E-01
 -1      2703 2.90044E-01
 -1      2704 2.65940E-01
 -1      2705 2.72242E-01
 -1      2706 2.49374E-01
 -1      2707 2.26626E-01
 -1      2708 2.30301E-01
 -1      2709 2.10883E-01
 -1      2710 1.90541E-01
 -1      2711 1.97992E-01
 -1      2712 1.75143E-01
 -1      2713 1.57515E-01
 -1      2714 1.66852E-01
 -1      2715 1.42711E-01
 -1      2716 1.27627E-01
 -1      2717 1.36649E-01
 -1      2718 1.13347E-01
 -1      2719 1.00296E-01
 -1      2720 1.07564E-01
 -1      2721 8.60820E-02
 -1      2722 8.08905E-02
 -1      2723 7.90700E-02
 -1      2724 8.35009E-02
 -1      2725 9.18882E-02
 -1      2726 6.74663E-02
 -1      2727 1.09543E-01
 -1      2728 1.25908E-01
 -1      2729 8.77312E-02
 -1      2730 1.54790E-01
 -1      2731 1.89705E-01
 -1      2732 1.34267E-01
 -1      2733 2.24694E-01
 -1      2734 2.67377E-01
 -1      2735 1.98138E-01
 -1      2736 3.10003E-01
 -1      2737 3.61750E-01
 -1      2738 2.75753E-01
 -1      2739 4.13666E-01
 -1      2740 4.75219E-01
 -1      2741 3.70295E-01
 -1      2742 5.38180E-01
 -1      2743 6.09170E-01
 -1      2744 4.85173E-01
 -1      2745 6.84999E-01
 -1      2746 7.63104E-01
 -1      2747 6.23963E-01
 -1      2748 8.54319E-01
 -1      2749 9.34125E-01
 -1      2750 7.91006E-01
 -1      2751 1.03927E+00
 -1      2752 1.11094E+00
 -1      2753 9.87365E-01
 -1      2754 1.23065E+00
 -1      2755 1.29159E+00
 -1      2756 1.21222E+00
 -1      2757 1.41589E+00
 -1      2758 1.52889E+00
 -1      2759 1.45624E+00
 -1      2760 1.71088E+00
 -1      2761 1.81920E+00
 -1      2762 1.76253E+00
 -1      2763 2.10123E+00
 -1      2764 2.15615E+00
 -1      2765 2.22656E+00
 -1      2766 2.47392E+00
 -1      2767 2.68346E+00
 -1      2768 2.82636E+00
 -1      2769 2.74726E+00
 -1      2770 2.71822E+00
 -1      2771 3.20793E+00
 -1      2772 2.16471E+00
 -1      2773 2.19887E+00
 -1      2774 2.71822E+00
 -1      2775 2.54192E+00
 -1      2776 2.88476E+00
 -1      2777 4.28472E+00
 -1      2778 4.85744E+00
 -1      2779 5.08216E+00
 -1      2780 4.87323E+00
 -1      2781 3.87201E+00
 -1      2782 3.60219E+00
 -1      2783 3.23511E+00
 -1      2784 3.15839E+00
 -1      2785 2.64376E+00
 -1      2786 2.39364E+00
 -1      2787 2.10875E+00
 -1      2788 2.03420E+00
 -1      2789 2.73229E+00
 -1      2790 1.73549E+00
 -1      2791 1.62005E+00
 -1      2792 2.14869E+00
 -1      2793 1.44124E+00
 -1      2794 1.31777E+00
 -1      2795 1.67117E+00
 -1      2796 1.18552E+00
 -1      2797 1.12476E+00
 -1      2798 1.36011E+00
 -1      2799 9.97361E-01
 -1      2800 9.16396E-01
 -1      2801 1.10045E+00
 -1      2802 8.03371E-01
 -1      2803 7.14659E-01
 -1      2804 8.60025E-01
 -1      2805 5.96999E-01
 -1      2806 5.11664E-01
 -1      2807 6.29340E-01
 -1      2808 3.57458E-01
 -1      2809 3.89699E-01
 -1      2810 4.23948E-01
 -1      2811 3.24271E-01
 -1      2812 4.23964E-01
 -1      2813 4.24089E-01
 -1      2814 4.76841E-01
 -1      2815 3.67269E-01
 -1      2816 2.54302E-01
 -1      2817 2.81819E-01
 -1      2818 2.12866E-01
 -1      2819 2.35920E-01
 -1      2820 2.24656E-01
 -1      2821 1.75893E-01
 -1      2822 1.95499E-01
 -1      2823 1.88907E-01
 -1      2824 1.43288E-01
 -1      2825 1.59965E-01
 -1      2826 1.55611E-01
 -1      2827 1.15666E-01
 -1      2828 1.28728E-01
 -1      2829 1.25122E-01
 -1      2830 9.28478E-02
 -1      2831 1.02059E-01
 -1      2832 9.69542E-02
 -1      2833 9.91583E-02
 -1      2834 9.16758E-02
 -1      2835 8.21748E-02
 -1      2836 1.16504E-01
 -1      2837 1.05958E-01
 -1      2838 8.78028E-02
 -1      2839 1.63487E-01
 -1      2840 1.41883E-01
 -1      2841 1.19982E-01
 -1      2842 2.28543E-01
 -1      2843 1.94176E-01
 -1      2844 1.76050E-01
 -1      2845 3.03453E-01
 -1      2846 2.64168E-01
 -1      2847 2.42363E-01
 -1      2848 3.87127E-01
 -1      2849 3.44030E-01
 -1      2850 3.18564E-01
 -1      2851 4.76056E-01
 -1      2852 4.31843E-01
 -1      2853 4.03857E-01
 -1      2854 5.63283E-01
 -1      2855 5.22826E-01
 -1      2856 4.95342E-01
 -1      2857 6.42895E-01
 -1      2858 6.08206E-01
 -1      2859 5.87035E-01
 -1      2860 7.03832E-01
 -1      2861 6.79693E-01
 -1      2862 6.68756E-01
 -1      2863 7.87359E-01
 -1      2864 7.59968E-01
 -1      2865 7.61689E-01
 -1      2866 8.48567E-01
 -1      2867 8.47687E-01
 -1      2868 8.78152E-01
 -1      2869 8.69799E-01
 -1      2870 8.93302E-01
 -1      2871 9.83216E-01
 -1      2872 9.79692E-01
 -1      2873 9.22124E-01
 -1      2874 1.08028E+00
 -1      2875 1.17192E+00
 -1      2876 1.10924E+00
 -1      2877 1.26215E+00
 -1      2878 1.35046E+00
 -1      2879 1.18900E+00
 -1      2880 1.40877E+00
 -1      2881 1.59813E+00
 -1      2882 1.46666E+00
 -1      2883 1.54205E+00
 -1      2884 1.89813E+00
 -1      2885 1.73855E+00
 -1      2886 1.79867E+00
 -1      2887 2.30003E+00
 -1      2888 2.32400E+00
 -1      2889 2.36495E+00
 -1      2890 2.70500E+00
 -1      2891 2.62765E+00
 -1      2892 3.11844E+00
 -1      2893 1.93805E+00
 -1      2894 2.10019E+00
 -1      2895 2.84124E+00
 -1      2896 1.51641E+00
 -1      2897 1.62869E+00
 -1      2898 1.92707E+00
 -1      2899 1.39091E+00
 -1      2900 1.53508E+00
 -1      2901 1.63638E+00
 -1      2902 1.15644E+00
 -1      2903 1.29754E+00
 -1      2904 1.56168E+00
 -1      2905 1.01263E+00
 -1      2906 1.04792E+00
 -1      2907 1.35978E+00
 -1      2908 8.13653E-01
 -1      2909 8.70049E-01
 -1      2910 1.10868E+00
 -1      2911 7.83132E-01
 -1      2912 7.76599E-01
 -1      2913 9.29041E-01
 -1      2914 6.94847E-01
 -1      2915 7.20025E-01
 -1      2916 8.28878E-01
 -1      2917 5.92638E-01
 -1      2918 6.26117E-01
 -1      2919 6.97041E-01
 -1      2920 5.29418E-01
 -1      2921 5.68204E-01
 -1      2922 6.03878E-01
 -1      2923 5.33503E-01
 -1      2924 5.79550E-01
 -1      2925 6.29577E-01
 -1      2926 5.94096E-01
 -1      2927 9.77234E+00
 -1      2928 1.14741E+01
 -1      2929 4.95097E-01
 -1      2930 4.95097E-01
 -1      2931 6.57382E+00
 -1      2932 6.46061E+00
 -1      2933 4.04455E-01
 -1      2934 3.54668E-01
 -1      2935 5.07817E-01
 -1      2936 5.02209E-01
 -1      2937 5.65502E-01
 -1      2938 4.86215E-01
 -1      2939 4.60432E-01
 -1      2940 4.84651E-01
 -1      2941 5.49508E-01
 -1      2942 7.59927E+00
 -1      2943 1.02528E+01
 -1      2944 5.07817E-01
 -1      2945 5.07817E-01
 -1      2946 5.72615E-01
 -1      2947 4.81824E-01
 -1      2948 5.07018E-01
 -1      2949 5.71815E-01
 -1      2950 3.90539E-01
 -1      2951 4.23825E-01
 -1      2952 5.13016E-01
 -1      2953 4.29228E+00
 -1      2954 5.29350E+00
 -1      2955 8.28561E-01
 -1      2956 1.83894E+01
 -1      2957 2.28730E+01
 -1      2958 6.12639E-01
 -1      2959 5.75307E-01
 -1      2960 4.04723E-01
 -1      2961 5.71868E+00
 -1      2962 4.54166E+00
 -1      2963 1.21614E+01
 -1      2964 8.87419E+00
 -1      2965 2.21031E+01
 -1      2966 2.28438E+01
 -1      2967 2.42586E+01
 -1      2968 2.00006E+01
 -1      2969 4.23657E+00
 -1      2970 5.45051E+00
 -1      2971 5.10571E-01
 -1      2972 5.89572E-01
 -1      2973 4.35389E-01
 -1      2974 3.00051E-01
 -1      2975 3.30769E-01
 -1      2976 3.06190E-01
 -1      2977 2.61269E-01
 -1      2978 5.98576E-01
 -1      2979 5.50312E-01
 -1      2980 3.97093E-01
 -1      2981 3.69883E-01
 -1      2982 1.60366E+01
 -1      2983 2.13408E+01
 -1      2984 6.14998E-01
 -1      2985 7.08336E-01
 -1      2986 5.32192E-01
 -1      2987 4.94545E-01
 -1      2988 4.35761E-01
 -1      2989 4.23903E-01
 -1      2990 3.59959E-01
 -1      2991 3.61510E-01
 -1      2992 2.61185E+01
 -1      2993 1.81912E+01
 -1      2994 1.21002E+01
 -1      2995 1.60590E+01
 -1      2996 1.31959E+01
 -1      2997 5.58328E+00
 -1      2998 6.91067E+00
 -1      2999 4.22679E-01
 -1      3000 4.34701E-01
 -1      3001 3.71230E+00
 -1      3002 3.88340E+00
 -1      3003 2.11970E+01
 -1      3004 2.61185E+01
 -1      3005 5.83493E+00
 -1      3006 8.06063E+00
 -1      3007 1.17567E+01
 -1      3008 1.39091E+01
 -1      3009 4.11294E+00
 -1      3010 4.10918E+00
 -1      3011 1.75118E+01
 -1      3012 1.27139E+01
 -1      3013 4.35385E+00
 -1      3014 4.07207E+00
 -1      3015 3.63306E+00
 -1      3016 5.72871E+00
 -1      3017 4.80011E+00
 -1      3018 6.29471E+00
 -1      3019 6.79854E+00
 -1      3020 1.13954E+01
 -1      3021 9.56980E+00
 -1      3022 3.31154E-01
 -1      3023 6.13106E+00
 -1      3024 6.80628E+00
 -1      3025 6.97649E+00
 -1      3026 6.49539E+00
 -1      3027 4.34701E-01
 -1      3028 4.34701E-01
 -1      3029 3.59582E-01
 -1      3030 5.32886E+00
 -1      3031 3.42938E-01
 -1      3032 3.87136E-01
 -1      3033 3.99889E-01
 -1      3034 1.02394E+01
 -1      3035 4.25076E+00
 -1      3036 1.05201E+01
 -1      3037 4.42733E+00
 -1      3038 3.54203E+00
 -1      3039 4.78755E+00
 -1      3040 3.49976E+00
 -1      3041 8.64190E+00
 -1      3042 4.32476E+00
 -1      3043 4.67980E+00
 -1      3044 2.72827E+00
 -1      3045 1.13722E+01
 -1      3046 1.54503E+01
 -1      3047 1.06190E+01
 -1      3048 1.42569E+01
 -1      3049 1.22733E+01
 -1      3050 2.50776E+00
 -1      3051 5.87544E+00
 -1      3052 5.09894E+00
 -1      3053 3.73064E+00
 -1      3054 3.46510E+00
 -1      3055 3.25993E+00
 -1      3056 2.91849E+00
 -1      3057 5.10881E+00
 -1      3058 7.90168E+00
 -1      3059 1.54012E+01
 -1      3060 4.68578E-01
 -1      3061 3.94572E-01
 -1      3062 4.28837E-01
 -1      3063 4.28837E-01
 -1      3064 1.47563E+01
 -1      3065 1.12218E+01
 -1      3066 3.31154E-01
 -1      3067 3.11628E+00
 -1      3068 6.44939E+00
 -1      3069 5.74545E-01
 -1      3070 4.72235E+00
 -1      3071 7.89827E+00
 -1      3072 1.43273E+01
 -1      3073 3.29191E+00
 -1      3074 4.47811E+00
 -1      3075 4.07413E-01
 -1      3076 4.21777E-01
 -1      3077 3.58680E-01
 -1      3078 3.50254E-01
 -1      3079 4.28669E+00
 -1      3080 1.41131E+01
 -1      3081 7.92626E+00
 -1      3082 4.40768E-01
 -1      3083 3.76807E-01
 -1      3084 3.71713E-01
 -1      3085 4.36191E-01
 -1      3086 4.64522E-01
 -1      3087 4.68048E+00
 -1      3088 3.90376E+00
 -1      3089 2.88650E-01
 -1      3090 3.00843E-01
 -1      3091 4.05190E-01
 -1      3092 3.81695E-01
 -1      3093 3.23586E-01
 -1      3094 3.30071E-01
 -1      3095 6.32742E+00
 -1      3096 8.03913E+00
 -1      3097 3.55485E-01
 -1      3098 3.89215E-01
 -1      3099 3.23069E-01
 -1      3100 3.02662E-01
 -1      3101 2.99311E-01
 -1      3102 2.74300E-01
 -1      3103 2.54334E-01
 -1      3104 2.62858E-01
 -1      3105 2.37483E-01
 -1      3106 2.39541E-01
 -1      3107 2.22323E-01
 -1      3108 2.05757E-01
 -1      3109 2.12939E-01
 -1      3110 1.91924E-01
 -1      3111 1.76182E-01
 -1      3112 1.83947E-01
 -1      3113 1.63872E-01
 -1      3114 1.48474E-01
 -1      3115 1.57804E-01
 -1      3116 1.34750E-01
 -1      3117 1.19945E-01
 -1      3118 1.31770E-01
 -1      3119 1.05452E-01
 -1      3120 9.11713E-02
 -1      3121 1.03552E-01
 -1      3122 7.60275E-02
 -1      3123 6.18133E-02
 -1      3124 7.39146E-02
 -1      3125 5.90691E-02
 -1      3126 6.16795E-02
 -1      3127 5.60266E-02
 -1      3128 7.26786E-02
 -1      3129 9.03331E-02
 -1      3130 6.42814E-02
 -1      3131 1.14911E-01
 -1      3132 1.43793E-01
 -1      3133 9.98587E-02
 -1      3134 1.76046E-01
 -1      3135 2.11035E-01
 -1      3136 1.56690E-01
 -1      3137 2.50874E-01
 -1      3138 2.93500E-01
 -1      3139 2.28781E-01
 -1      3140 3.42569E-01
 -1      3141 3.94484E-01
 -1      3142 3.17689E-01
 -1      3143 4.54292E-01
 -1      3144 5.17254E-01
 -1      3145 4.26565E-01
 -1      3146 5.88784E-01
 -1      3147 6.64613E-01
 -1      3148 5.57903E-01
 -1      3149 7.47537E-01
 -1      3150 8.38752E-01
 -1      3151 7.12358E-01
 -1      3152 9.34571E-01
 -1      3153 1.03972E+00
 -1      3154 8.91102E-01
 -1      3155 1.17852E+00
 -1      3156 1.29823E+00
 -1      3157 1.12573E+00
 -1      3158 1.50831E+00
 -1      3159 1.63261E+00
 -1      3160 1.47461E+00
 -1      3161 1.91783E+00
 -1      3162 2.09982E+00
 -1      3163 1.96991E+00
 -1      3164 2.47084E+00
 -1      3165 2.75287E+00
 -1      3166 2.62614E+00
 -1      3167 3.39025E+00
 -1      3168 3.70802E+00
 -1      3169 3.63453E+00
 -1      3170 3.41497E+00
 -1      3171 3.47877E+00
 -1      3172 3.97886E+00
 -1      3173 6.40484E+00
 -1      3174 4.86268E+00
 -1      3175 4.58794E+00
 -1      3176 7.68013E+00
 -1      3177 2.65263E+00
 -1      3178 2.35392E+00
 -1      3179 2.01897E+00
 -1      3180 1.84016E+00
 -1      3181 2.52291E+00
 -1      3182 1.54129E+00
 -1      3183 1.40903E+00
 -1      3184 1.88909E+00
 -1      3185 1.19000E+00
 -1      3186 1.06260E+00
 -1      3187 1.37118E+00
 -1      3188 9.12965E-01
 -1      3189 7.99940E-01
 -1      3190 1.00251E+00
 -1      3191 6.85571E-01
 -1      3192 5.67910E-01
 -1      3193 5.20753E-01
 -1      3194 7.38510E-01
 -1      3195 3.11343E-01
 -1      3196 3.45733E-01
 -1      3197 2.99558E-01
 -1      3198 6.83539E+00
 -1      3199 8.33929E+00
 -1      3200 1.65325E-01
 -1      3201 1.82693E-01
 -1      3202 1.97167E-01
 -1      3203 2.15548E-01
 -1      3204 1.73585E-01
 -1      3205 1.03859E-01
 -1      3206 1.18419E-01
 -1      3207 7.61947E-02
 -1      3208 8.98021E-02
 -1      3209 8.30993E-02
 -1      3210 6.20076E-02
 -1      3211 6.31795E-02
 -1      3212 5.60275E-02
 -1      3213 7.62917E-02
 -1      3214 6.94919E-02
 -1      3215 5.04966E-02
 -1      3216 1.23771E-01
 -1      3217 9.83917E-02
 -1      3218 8.00809E-02
 -1      3219 1.80391E-01
 -1      3220 1.49702E-01
 -1      3221 1.28112E-01
 -1      3222 2.46727E-01
 -1      3223 2.11103E-01
 -1      3224 1.84755E-01
 -1      3225 3.23758E-01
 -1      3226 2.83182E-01
 -1      3227 2.51921E-01
 -1      3228 4.12662E-01
 -1      3229 3.67946E-01
 -1      3230 3.32564E-01
 -1      3231 5.11008E-01
 -1      3232 4.64238E-01
 -1      3233 4.28328E-01
 -1      3234 6.13494E-01
 -1      3235 5.68571E-01
 -1      3236 5.37467E-01
 -1      3237 7.12385E-01
 -1      3238 6.75588E-01
 -1      3239 6.57124E-01
 -1      3240 8.35009E-01
 -1      3241 7.78874E-01
 -1      3242 7.85706E-01
 -1      3243 9.73698E-01
 -1      3244 9.13370E-01
 -1      3245 9.30555E-01
 -1      3246 1.14396E+00
 -1      3247 1.09923E+00
 -1      3248 1.13444E+00
 -1      3249 1.34242E+00
 -1      3250 1.29009E+00
 -1      3251 1.40610E+00
 -1      3252 1.53504E+00
 -1      3253 1.40550E+00
 -1      3254 1.61532E+00
 -1      3255 1.76269E+00
 -1      3256 1.74561E+00
 -1      3257 1.88896E+00
 -1      3258 2.56340E+00
 -1      3259 2.44721E+00
 -1      3260 2.78404E+00
 -1      3261 2.42319E+00
 -1      3262 2.28277E+00
 -1      3263 3.18792E+00
 -1      3264 3.82529E+00
 -1      3265 3.49767E+00
 -1      3266 3.04916E+00
 -1      3267 3.65397E+00
 -1      3268 1.98109E+00
 -1      3269 1.96242E+00
 -1      3270 1.71250E+00
 -1      3271 1.80587E+00
 -1      3272 2.13191E+00
 -1      3273 1.45699E+00
 -1      3274 1.56551E+00
 -1      3275 1.80970E+00
 -1      3276 1.25137E+00
 -1      3277 1.39395E+00
 -1      3278 1.59968E+00
 -1      3279 1.09022E+00
 -1      3280 1.12728E+00
 -1      3281 1.41255E+00
 -1      3282 8.90305E-01
 -1      3283 9.53413E-01
 -1      3284 1.15165E+00
 -1      3285 7.15462E-01
 -1      3286 7.84191E-01
 -1      3287 9.08726E-01
 -1      3288 6.17575E-01
 -1      3289 6.42009E-01
 -1      3290 7.29159E-01
 -1      3291 4.91882E+00
 -1      3292 6.45577E-01
 -1      3293 6.38465E-01
 -1      3294 6.28299E-01
 -1      3295 6.86298E-01
 -1      3296 6.55298E-01
 -1      3297 6.55298E-01
 -1      3298 7.28260E-01
 -1      3299 1.20314E+01
 -1      3300 1.34462E+01
 -1      3301 3.23537E-01
 -1      3302 3.15905E-01
 -1      3303 6.86298E-01
 -1      3304 6.87097E-01
 -1      3305 7.69781E-01
 -1      3306 8.01580E-01
 -1      3307 1.34012E-01
 -1      3308 1.49940E-01
 -1      3309 1.43726E-01
 -1      3310 1.12749E-01
 -1      3311 9.59875E+00
 -1      3312 1.17262E+01
 -1      3313 3.48273E+00
 -1      3314 3.19784E+00
 -1      3315 3.40307E+00
 -1      3316 3.62192E+00
 -1      3317 4.30247E+00
 -1      3318 1.33500E+01
 -1      3319 1.08613E+01
 -1      3320 8.11088E+00
 -1      3321 8.73692E+00
 -1      3322 1.18570E+01
 -1      3323 1.17132E+01
 -1      3324 5.08482E-01
 -1      3325 5.43752E+00
 -1      3326 6.12612E+00
 -1      3327 9.84392E+00
 -1      3328 8.52541E+00
 -1      3329 9.84947E+00
 -1      3330 1.21799E+01
 -1      3331 7.72091E+00
 -1      3332 3.18751E-01
 -1      3333 3.12460E-01
 -1      3334 2.47077E-01
 -1      3335 4.68159E+00
 -1      3336 4.85179E+00
 -1      3337 1.17132E+01
 -1      3338 1.17132E+01
 -1      3339 1.28013E+01
 -1      3340 1.20314E+01
 -1      3341 3.18792E+00
 -1      3342 3.35243E+00
 -1      3343 4.13100E-01
 -1      3344 3.09455E-01
 -1      3345 2.60981E-01
 -1      3346 4.00879E-01
 -1      3347 3.11628E+00
 -1      3348 2.28692E+00
 -1      3349 3.07440E+00
 -1      3350 7.48286E+00
 -1      3351 5.54418E+00
 -1      3352 1.06190E+01
 -1      3353 9.23415E+00
 -1      3354 3.12635E-01
 -1      3355 3.12428E-01
 -1      3356 2.85395E-01
 -1      3357 2.60045E-01
 -1      3358 3.20712E-01
 -1      3359 3.20712E-01
 -1      3360 2.69423E-01
 -1      3361 2.92450E-01
 -1      3362 3.15720E-01
 -1      3363 4.37214E+00
 -1      3364 7.79223E+00
 -1      3365 2.72827E+00
 -1      3366 9.78664E+00
 -1      3367 7.04575E+00
 -1      3368 7.38670E+00
 -1      3369 4.40003E+00
 -1      3370 4.19299E+00
 -1      3371 5.05349E+00
 -1      3372 7.00399E+00
 -1      3373 4.51626E+00
 -1      3374 3.96275E+00
 -1      3375 5.02570E-01
 -1      3376 5.21396E-01
 -1      3377 6.94677E-01
 -1      3378 6.05958E-01
 -1      3379 3.19660E-01
 -1      3380 2.67942E-01
 -1      3381 2.94631E-01
 -1      3382 2.73095E-01
 -1      3383 2.37377E-01
 -1      3384 2.48865E+00
 -1      3385 5.82351E+00
 -1      3386 9.18247E+00
 -1      3387 2.03018E-01
 -1      3388 2.30506E-01
 -1      3389 2.48739E-01
 -1      3390 2.69268E+00
 -1      3391 3.17678E+00
 -1      3392 4.03320E+00
 -1      3393 3.11855E+00
 -1      3394 3.82540E+00
 -1      3395 1.92707E+00
 -1      3396 2.23643E+00
 -1      3397 6.29577E-01
 -1      3398 6.67707E-01
 -1      3399 6.79709E-01
 -1      3400 5.94096E-01
 -1      3401 6.79709E-01
 -1      3402 5.94096E-01
 -1      3403 5.87743E-01
 -1      3404 5.31767E-01
 -1      3405 4.80701E-01
 -1      3406 5.20605E-01
 -1      3407 6.06219E-01
 -1      3408 5.83794E-01
 -1      3409 3.12924E+00
 -1      3410 4.63940E+00
 -1      3411 4.77685E+00
 -1      3412 9.98023E+00
 -1      3413 6.38465E-01
 -1      3414 6.29583E-01
 -1      3415 7.18540E-01
 -1      3416 1.00764E+01
 -1      3417 3.46856E+00
 -1      3418 9.31324E+00
 -1      3419 8.86666E+00
 -1      3420 6.53661E+00
 -1      3421 3.23537E-01
 -1      3422 2.88665E-01
 -1      3423 3.25087E-01
 -1      3424 3.72445E-01
 -1      3425 3.97871E-01
 -1      3426 2.78779E-01
 -1      3427 2.92541E-01
 -1      3428 9.45494E+00
 -1      3429 2.83170E+00
 -1      3430 2.27178E+00
 -1      3431 3.51886E+00
 -1      3432 8.63135E+00
 -1      3433 7.32129E+00
 -1      3434 4.96721E+00
 -1      3435 6.71850E+00
 -1      3436 3.23398E-01
 -1      3437 3.24300E-01
 -1      3438 2.84927E-01
 -1      3439 3.20208E-01
 -1      3440 3.20208E-01
 -1      3441 2.98934E-01
 -1      3442 8.24848E+00
 -1      3443 8.86996E+00
 -1      3444 5.89878E+00
 -1      3445 2.17205E-01
 -1      3446 2.05763E-01
 -1      3447 2.01324E-01
 -1      3448 1.86164E-01
 -1      3449 1.78988E-01
 -1      3450 1.77077E-01
 -1      3451 1.63245E-01
 -1      3452 1.65462E-01
 -1      3453 1.52458E-01
 -1      3454 1.40148E-01
 -1      3455 1.45588E-01
 -1      3456 1.31242E-01
 -1      3457 1.17518E-01
 -1      3458 1.25896E-01
 -1      3459 1.06822E-01
 -1      3460 9.23285E-02
 -1      3461 1.06294E-01
 -1      3462 8.04771E-02
 -1      3463 6.53332E-02
 -1      3464 8.37472E-02
 -1      3465 6.66100E-02
 -1      3466 6.38657E-02
 -1      3467 7.31724E-02
 -1      3468 6.75577E-02
 -1      3469 7.85568E-02
 -1      3470 7.81411E-02
 -1      3471 9.59907E-02
 -1      3472 1.20569E-01
 -1      3473 9.92670E-02
 -1      3474 1.49416E-01
 -1      3475 1.81669E-01
 -1      3476 1.45548E-01
 -1      3477 2.17531E-01
 -1      3478 2.57370E-01
 -1      3479 2.10258E-01
 -1      3480 3.02146E-01
 -1      3481 3.51214E-01
 -1      3482 2.90895E-01
 -1      3483 4.07247E-01
 -1      3484 4.67054E-01
 -1      3485 3.91703E-01
 -1      3486 5.37308E-01
 -1      3487 6.08838E-01
 -1      3488 5.17989E-01
 -1      3489 6.97114E-01
 -1      3490 7.80039E-01
 -1      3491 6.76519E-01
 -1      3492 8.91102E-01
 -1      3493 9.86921E-01
 -1      3494 8.75858E-01
 -1      3495 1.12573E+00
 -1      3496 1.26453E+00
 -1      3497 1.12573E+00
 -1      3498 1.43690E+00
 -1      3499 1.64698E+00
 -1      3500 1.43690E+00
 -1      3501 1.93583E+00
 -1      3502 2.22105E+00
 -1      3503 1.89812E+00
 -1      3504 3.04775E+00
 -1      3505 3.41877E+00
 -1      3506 3.01368E+00
 -1      3507 3.90676E+00
 -1      3508 4.54414E+00
 -1      3509 4.32838E+00
 -1      3510 2.89537E+00
 -1      3511 2.56042E+00
 -1      3512 2.16945E+00
 -1      3513 1.87058E+00
 -1      3514 2.54192E+00
 -1      3515 1.55593E+00
 -1      3516 1.33690E+00
 -1      3517 1.83630E+00
 -1      3518 1.15215E+00
 -1      3519 1.00251E+00
 -1      3520 1.33690E+00
 -1      3521 3.99731E+00
 -1      3522 3.24067E+00
 -1      3523 5.25678E-02
 -1      3524 6.55830E-02
 -1      3525 7.38392E-02
 -1      3526 8.78958E-02
 -1      3527 7.03794E-02
 -1      3528 9.63746E-02
 -1      3529 7.42746E-02
 -1      3530 1.47107E-01
 -1      3531 1.21177E-01
 -1      3532 1.15370E-01
 -1      3533 2.07156E-01
 -1      3534 1.76444E-01
 -1      3535 1.69509E-01
 -1      3536 2.77998E-01
 -1      3537 2.41543E-01
 -1      3538 2.33232E-01
 -1      3539 3.61712E-01
 -1      3540 3.17524E-01
 -1      3541 3.07146E-01
 -1      3542 4.57249E-01
 -1      3543 4.05673E-01
 -1      3544 3.90634E-01
 -1      3545 5.65433E-01
 -1      3546 5.07870E-01
 -1      3547 4.85216E-01
 -1      3548 6.92820E-01
 -1      3549 6.30726E-01
 -1      3550 6.01129E-01
 -1      3551 8.53925E-01
 -1      3552 7.87437E-01
 -1      3553 7.61039E-01
 -1      3554 1.05791E+00
 -1      3555 9.79551E-01
 -1      3556 9.81283E-01
 -1      3557 1.32677E+00
 -1      3558 1.20124E+00
 -1      3559 1.25024E+00
 -1      3560 1.63048E+00
 -1      3561 1.48435E+00
 -1      3562 1.55115E+00
 -1      3563 2.41945E+00
 -1      3564 2.35637E+00
 -1      3565 2.43461E+00
 -1      3566 3.45258E+00
 -1      3567 3.24202E+00
 -1      3568 3.98307E+00
 -1      3569 3.16720E+00
 -1      3570 2.48268E+00
 -1      3571 7.76580E+00
 -1      3572 7.76580E+00
 -1      3573 2.52276E+00
 -1      3574 2.69798E+00
 -1      3575 1.59166E+00
 -1      3576 1.71576E+00
 -1      3577 1.25349E+00
 -1      3578 1.39030E+00
 -1      3579 1.69350E+00
 -1      3580 1.00751E+00
 -1      3581 1.11363E+00
 -1      3582 1.35228E+00
 -1      3583 8.34041E-01
 -1      3584 9.07494E-01
 -1      3585 1.11240E+00
 -1      3586 6.76699E-01
 -1      3587 8.64899E-01
 -1      3588 8.55178E-01
 -1      3589 8.80765E+00
 -1      3590 8.71146E+00
 -1      3591 6.00713E+00
 -1      3592 7.11969E+00
 -1      3593 3.94828E+00
 -1      3594 3.40307E+00
 -1      3595 3.44058E+00
 -1      3596 5.67457E+00
 -1      3597 6.93403E+00
 -1      3598 2.02914E+00
 -1      3599 2.09218E+00
 -1      3600 2.20825E+00
 -1      3601 7.69049E+00
 -1      3602 7.82127E+00
 -1      3603 6.27382E+00
 -1      3604 5.57283E+00
 -1      3605 2.53092E+00
 -1      3606 2.67790E+00
 -1      3607 3.24398E+00
 -1      3608 2.96038E+00
 -1      3609 5.55724E+00
 -1      3610 5.62898E+00
 -1      3611 1.91793E-01
 -1      3612 2.02402E-01
 -1      3613 3.15875E-01
 -1      3614 3.23398E-01
 -1      3615 2.89019E-01
 -1      3616 7.99417E+00
 -1      3617 6.97679E+00
 -1      3618 6.17797E-02
 -1      3619 5.42955E-02
 -1      3620 6.38509E-02
 -1      3621 7.80735E-02
 -1      3622 1.54324E-01
 -1      3623 1.68798E-01
 -1      3624 2.17094E-01
 -1      3625 2.13742E-01
 -1      3626 1.79964E-01
 -1      3627 7.63806E+00
 -1      3628 7.63806E+00
 -1      3629 8.86996E+00
 -1      3630 8.86996E+00
 -1      3631 2.49979E-01
 -1      3632 2.59732E-01
 -1      3633 1.94315E-01
 -1      3634 1.93406E-01
 -1      3635 2.03519E-01
 -1      3636 2.23388E-01
 -1      3637 6.53470E+00
 -1      3638 2.33698E-01
 -1      3639 2.50410E-01
 -1      3640 2.10583E-01
 -1      3641 3.04916E+00
 -1      3642 2.26167E+00
 -1      3643 5.89878E+00
 -1      3644 6.95929E+00
 -1      3645 5.03274E+00
 -1      3646 5.41184E+00
 -1      3647 5.10929E+00
 -1      3648 5.72520E+00
 -1      3649 6.71850E+00
 -1      3650 4.80564E+00
 -1      3651 5.40235E+00
 -1      3652 2.37180E-01
 -1      3653 8.42822E-01
 -1      3654 7.28453E-01
 -1      3655 7.10270E-01
 -1      3656 9.92456E-01
 -1      3657 1.61540E-01
 -1      3658 1.80801E-01
 -1      3659 1.95760E-01
 -1      3660 2.39244E-01
 -1      3661 2.22474E-01
 -1      3662 1.89665E-01
 -1      3663 9.17059E-02
 -1      3664 1.00966E-01
 -1      3665 1.16559E-01
 -1      3666 3.83574E+00
 -1      3667 2.73838E+00
 -1      3668 7.64929E-01
 -1      3669 7.13864E-01
 -1      3670 8.11228E-01
 -1      3671 7.69387E-01
 -1      3672 8.99457E-01
 -1      3673 7.60118E+00
 -1      3674 9.86959E-01
 -1      3675 1.11388E+00
 -1      3676 1.01876E+00
 -1      3677 8.24344E-01
 -1      3678 8.24344E-01
 -1      3679 9.17032E-01
 -1      3680 9.60982E-01
 -1      3681 1.28581E-01
 -1      3682 1.43966E-01
 -1      3683 1.39179E-01
 -1      3684 1.16799E-01
 -1      3685 6.82159E+00
 -1      3686 2.53185E-01
 -1      3687 2.49915E-01
 -1      3688 2.84289E-01
 -1      3689 2.53185E-01
 -1      3690 2.17706E-01
 -1      3691 2.53185E-01
 -1      3692 5.02776E+00
 -1      3693 2.85572E-01
 -1      3694 1.48731E-01
 -1      3695 2.29702E+00
 -1      3696 1.61810E-01
 -1      3697 2.53344E-01
 -1      3698 2.53344E-01
 -1      3699 4.93199E+00
 -1      3700 7.66349E+00
 -1      3701 4.02437E+00
 -1      3702 5.46016E+00
 -1      3703 7.04575E+00
 -1      3704 6.05246E+00
 -1      3705 3.54203E+00
 -1      3706 4.80564E+00
 -1      3707 4.96721E+00
 -1      3708 2.59561E-01
 -1      3709 4.94860E+00
 -1      3710 6.07739E+00
 -1      3711 1.54088E-01
 -1      3712 1.45002E-01
 -1      3713 1.39429E-01
 -1      3714 1.28642E-01
 -1      3715 1.28055E-01
 -1      3716 1.20528E-01
 -1      3717 1.11623E-01
 -1      3718 1.14369E-01
 -1      3719 1.05148E-01
 -1      3720 9.44523E-02
 -1      3721 9.97808E-02
 -1      3722 8.90802E-02
 -1      3723 7.72287E-02
 -1      3724 8.79338E-02
 -1      3725 7.93427E-02
 -1      3726 8.06194E-02
 -1      3727 8.46757E-02
 -1      3728 8.45185E-02
 -1      3729 8.82105E-02
 -1      3730 9.06888E-02
 -1      3731 9.48683E-02
 -1      3732 1.12302E-01
 -1      3733 1.01246E-01
 -1      3734 1.31645E-01
 -1      3735 1.60492E-01
 -1      3736 1.27246E-01
 -1      3737 1.89725E-01
 -1      3738 2.25587E-01
 -1      3739 1.75821E-01
 -1      3740 2.62327E-01
 -1      3741 3.07102E-01
 -1      3742 2.41794E-01
 -1      3743 3.53663E-01
 -1      3744 4.09696E-01
 -1      3745 3.25095E-01
 -1      3746 4.69466E-01
 -1      3747 5.39720E-01
 -1      3748 4.31426E-01
 -1      3749 6.18016E-01
 -1      3750 7.06292E-01
 -1      3751 5.69492E-01
 -1      3752 8.11845E-01
 -1      3753 9.22908E-01
 -1      3754 7.53341E-01
 -1      3755 1.07052E+00
 -1      3756 1.20933E+00
 -1      3757 1.00651E+00
 -1      3758 1.41811E+00
 -1      3759 1.59048E+00
 -1      3760 1.36291E+00
 -1      3761 1.89812E+00
 -1      3762 2.18698E+00
 -1      3763 1.87934E+00
 -1      3764 3.85809E+00
 -1      3765 4.68479E+00
 -1      3766 3.85809E+00
 -1      3767 5.08484E+00
 -1      3768 6.25764E+00
 -1      3769 6.25764E+00
 -1      3770 7.04658E-02
 -1      3771 7.87220E-02
 -1      3772 8.17173E-01
 -1      3773 1.26985E+00
 -1      3774 1.11016E+00
 -1      3775 2.15095E+00
 -1      3776 1.83630E+00
 -1      3777 1.54259E+00
 -1      3778 1.35784E+00
 -1      3779 1.85724E+00
 -1      3780 2.15589E-01
 -1      3781 1.20850E-01
 -1      3782 1.35542E-01
 -1      3783 1.91110E-01
 -1      3784 1.61774E-01
 -1      3785 1.34739E-01
 -1      3786 1.09937E-01
 -1      3787 1.56340E-01
 -1      3788 3.37480E-01
 -1      3789 2.97953E-01
 -1      3790 4.28958E-01
 -1      3791 3.84997E-01
 -1      3792 3.75804E-01
 -1      3793 5.35836E-01
 -1      3794 4.85216E-01
 -1      3795 4.79579E-01
 -1      3796 6.66422E-01
 -1      3797 6.01129E-01
 -1      3798 6.01129E-01
 -1      3799 8.39266E-01
 -1      3800 7.44648E-01
 -1      3801 7.44648E-01
 -1      3802 1.09017E+00
 -1      3803 9.64540E-01
 -1      3804 9.48149E-01
 -1      3805 1.42811E+00
 -1      3806 1.28478E+00
 -1      3807 1.26804E+00
 -1      3808 1.71178E+00
 -1      3809 1.55420E+00
 -1      3810 1.58875E+00
 -1      3811 2.82552E+00
 -1      3812 2.09963E+00
 -1      3813 2.10269E+00
 -1      3814 4.80564E+00
 -1      3815 3.98307E+00
 -1      3816 2.07285E-01
 -1      3817 2.26489E-01
 -1      3818 1.85069E-01
 -1      3819 6.25764E+00
 -1      3820 6.19533E+00
 -1      3821 6.79709E-01
 -1      3822 3.17338E+00
 -1      3823 2.78241E+00
 -1      3824 2.78241E+00
 -1      3825 7.15473E-01
 -1      3826 7.03471E-01
 -1      3827 1.79200E+00
 -1      3828 1.99337E+00
 -1      3829 8.81807E-01
 -1      3830 8.23118E-01
 -1      3831 6.41983E-01
 -1      3832 2.42618E-01
 -1      3833 2.46994E-01
 -1      3834 2.11514E-01
 -1      3835 1.86092E-01
 -1      3836 2.57974E-01
 -1      3837 2.21317E-01
 -1      3838 2.53344E-01
 -1      3839 2.17669E-01
 -1      3840 2.49896E-01
 -1      3841 2.17687E-01
 -1      3842 2.10581E-01
 -1      3843 2.46256E-01
 -1      3844 2.42164E-01
 -1      3845 1.09456E+00
 -1      3846 1.09456E+00
 -1      3847 1.47554E+00
 -1      3848 1.76919E-01
 -1      3849 1.75306E-01
 -1      3850 7.15473E-01
 -1      3851 8.81807E-01
 -1      3852 1.01238E+00
 -1      3853 9.53688E-01
 -1      3854 1.31174E+00
 -1      3855 1.79923E-01
 -1      3856 1.72835E-01
 -1      3857 1.26384E+00
 -1      3858 1.36386E+00
 -1      3859 1.26384E+00
 -1      3860 1.50669E-01
 -1      3861 1.54132E-01
 -1      3862 1.09709E-01
 -1      3863 3.58562E+00
 -1      3864 1.42102E+00
 -1      3865 1.56087E+00
 -1      3866 1.86074E+00
 -1      3867 1.57245E+00
 -1      3868 2.58307E-01
 -1      3869 2.23921E-01
 -1      3870 2.88641E-01
 -1      3871 2.61362E+00
 -1      3872 2.92701E+00
 -1      3873 3.99099E+00
 -1      3874 2.71212E+00
 -1      3875 1.68019E-01
 -1      3876 1.59820E-01
 -1      3877 1.55381E-01
 -1      3878 1.34921E-01
 -1      3879 1.30525E-01
 -1      3880 4.36914E+00
 -1      3881 5.92925E+00
 -1      3882 2.03804E-01
 -1      3883 5.87378E+00
 -1      3884 5.06727E+00
 -1      3885 5.07153E+00
 -1      3886 4.15197E+00
 -1      3887 4.47923E+00
 -1      3888 1.43135E-01
 -1      3889 1.55138E-01
 -1      3890 7.29756E-02
 -1      3891 8.13181E-02
 -1      3892 7.47033E-02
 -1      3893 4.67154E+00
 -1      3894 8.16887E-02
 -1      3895 8.16023E-02
 -1      3896 9.46726E-02
 -1      3897 4.47298E+00
 -1      3898 5.81652E+00
 -1      3899 2.16185E-01
 -1      3900 1.66817E-01
 -1      3901 1.46329E-01
 -1      3902 5.09924E+00
 -1      3903 3.64809E+00
 -1      3904 2.96537E+00
 -1      3905 4.00214E+00
 -1      3906 3.54483E+00
 -1      3907 2.34512E+00
 -1      3908 4.85179E+00
 -1      3909 1.03715E+00
 -1      3910 1.09584E+00
 -1      3911 1.04161E+00
 -1      3912 3.51353E+00
 -1      3913 3.75402E+00
 -1      3914 1.45171E-01
 -1      3915 5.87378E+00
 -1      3916 1.13844E+00
 -1      3917 1.10761E+00
 -1      3918 1.76991E-01
 -1      3919 1.76561E-01
 -1      3920 1.33225E-01
 -1      3921 1.23575E-01
 -1      3922 1.33933E-01
 -1      3923 1.27531E-01
 -1      3924 4.02122E+00
 -1      3925 1.86505E-01
 -1      3926 1.86505E-01
 -1      3927 1.85297E-01
 -1      3928 1.47551E-01
 -1      3929 1.85297E-01
 -1      3930 9.14337E-02
 -1      3931 7.89388E-02
 -1      3932 8.80634E-02
 -1      3933 1.64401E-01
 -1      3934 1.85891E-01
 -1      3935 1.85872E-01
 -1      3936 1.54690E-01
 -1      3937 4.50982E+00
 -1      3938 4.93723E+00
 -1      3939 4.93723E+00
 -1      3940 1.44647E-01
 -1      3941 1.39267E+00
 -1      3942 1.31687E+00
 -1      3943 1.48066E+00
 -1      3944 1.19481E+00
 -1      3945 1.34143E+00
 -1      3946 1.10802E-01
 -1      3947 5.52920E+00
 -1      3948 5.02629E+00
 -1      3949 1.74133E-01
 -1      3950 1.81343E-01
 -1      3951 1.47321E-01
 -1      3952 1.08727E-01
 -1      3953 1.00614E-01
 -1      3954 9.63973E-02
 -1      3955 8.99226E-02
 -1      3956 9.07558E-02
 -1      3957 9.02731E-02
 -1      3958 8.49010E-02
 -1      3959 8.68897E-02
 -1      3960 8.68447E-02
 -1      3961 8.89587E-02
 -1      3962 8.91840E-02
 -1      3963 9.29359E-02
 -1      3964 9.68351E-02
 -1      3965 9.51049E-02
 -1      3966 1.02483E-01
 -1      3967 1.09141E-01
 -1      3968 1.04730E-01
 -1      3969 1.20265E-01
 -1      3970 1.39607E-01
 -1      3971 1.21502E-01
 -1      3972 1.56235E-01
 -1      3973 1.85468E-01
 -1      3974 1.49254E-01
 -1      3975 2.07428E-01
 -1      3976 2.44168E-01
 -1      3977 1.87842E-01
 -1      3978 2.77010E-01
 -1      3979 3.23571E-01
 -1      3980 2.42644E-01
 -1      3981 3.66495E-01
 -1      3982 4.26266E-01
 -1      3983 3.18410E-01
 -1      3984 4.82585E-01
 -1      3985 5.60881E-01
 -1      3986 4.17654E-01
 -1      3987 6.37768E-01
 -1      3988 7.43322E-01
 -1      3989 5.50861E-01
 -1      3990 8.54413E-01
 -1      3991 1.00203E+00
 -1      3992 7.38840E-01
 -1      3993 1.17054E+00
 -1      3994 1.37933E+00
 -1      3995 1.01845E+00
 -1      3996 1.59973E+00
 -1      3997 1.90737E+00
 -1      3998 1.40736E+00
 -1      3999 2.32890E+00
 -1      4000 4.00001E+00
 -1      4001 4.00001E+00
 -1      4002 2.04929E+00
 -1      4003 4.13283E+00
 -1      4004 2.29968E-01
 -1      4005 1.97157E-01
 -1      4006 1.18380E-01
 -1      4007 5.10630E-01
 -1      4008 4.54372E-01
 -1      4009 3.97384E-01
 -1      4010 3.49867E-01
 -1      4011 4.28435E-01
 -1      4012 8.22875E-01
 -1      4013 7.44648E-01
 -1      4014 1.07342E+00
 -1      4015 9.48149E-01
 -1      4016 9.48149E-01
 -1      4017 1.42649E+00
 -1      4018 1.23188E+00
 -1      4019 1.23188E+00
 -1      4020 1.70690E+00
 -1      4021 1.58081E+00
 -1      4022 1.54464E+00
 -1      4023 2.36842E+00
 -1      4024 1.98058E+00
 -1      4025 1.97264E+00
 -1      4026 3.52598E+00
 -1      4027 4.58999E+00
 -1      4028 4.12805E+00
 -1      4029 4.03254E+00
 -1      4030 3.06080E+00
 -1      4031 1.24020E-01
 -1      4032 1.05517E-01
 -1      4033 1.38984E+00
 -1      4034 1.33347E+00
 -1      4035 1.03999E-01
 -1      4036 1.16021E-01
 -1      4037 1.10775E-01
 -1      4038 9.38951E-02
 -1      4039 1.80314E-01
 -1      4040 1.86505E-01
 -1      4041 1.55305E-01
 -1      4042 1.39393E-01
 -1      4043 3.41387E+00
 -1      4044 2.78241E+00
 -1      4045 1.02295E+00
 -1      4046 1.00983E+00
 -1      4047 1.14753E+00
 -1      4048 1.20041E+00
 -1      4049 1.94365E+00
 -1      4050 1.64994E+00
 -1      4051 1.56708E+00
 -1      4052 2.57511E+00
 -1      4053 1.43744E-01
 -1      4054 1.62149E-01
 -1      4055 1.73674E-01
 -1      4056 3.98101E+00
 -1      4057 4.16126E+00
 -1      4058 3.05075E-01
 -1      4059 2.65429E-01
 -1      4060 2.46401E-01
 -1      4061 4.16126E+00
 -1      4062 4.16126E+00
 -1      4063 1.68946E-01
 -1      4064 1.41911E-01
 -1      4065 1.82729E-01
 -1      4066 1.17742E-01
 -1      4067 1.12170E-01
 -1      4068 9.84148E-02
 -1      4069 1.34730E+00
 -1      4070 6.49190E-01
 -1      4071 5.83897E-01
 -1      4072 5.58691E-01
 -1      4073 1.20006E-01
 -1      4074 9.62094E-02
 -1      4075 1.11336E-01
 -1      4076 1.25381E-01
 -1      4077 4.08224E+00
 -1      4078 3.10131E+00
 -1      4079 3.55932E+00
 -1      4080 8.73157E-02
 -1      4081 8.48059E-02
 -1      4082 1.77187E+00
 -1      4083 1.93986E+00
 -1      4084 4.13283E+00
 -1      4085 8.32173E-02
 -1      4086 8.60977E-02
 -1      4087 8.92150E-02
 -1      4088 1.12568E-01
 -1      4089 1.21771E-01
 -1      4090 1.00707E-01
 -1      4091 1.14207E-01
 -1      4092 1.18915E-01
 -1      4093 1.17622E-01
 -1      4094 1.01737E-01
 -1      4095 3.26655E-01
 -1      4096 1.88436E+00
 -1      4097 2.13761E+00
 -1      4098 1.65323E+00
 -1      4099 2.34930E+00
 -1      4100 3.29576E+00
 -1      4101 2.78548E+00
 -1      4102 1.88853E+00
 -1      4103 1.55912E+00
 -1      4104 1.11239E-01
 -1      4105 1.26201E-01
 -1      4106 1.33212E-01
 -1      4107 1.53500E-01
 -1      4108 1.87316E+00
 -1      4109 1.82475E+00
 -1      4110 1.74009E+00
 -1      4111 1.13552E-01
 -1      4112 1.03808E-01
 -1      4113 1.19720E-01
 -1      4114 1.51213E-01
 -1      4115 1.28336E-01
 -1      4116 1.27721E-01
 -1      4117 1.36626E-01
 -1      4118 3.47074E+00
 -1      4119 7.27417E-01
 -1      4120 1.99702E+00
 -1      4121 9.69683E-02
 -1      4122 9.27327E-02
 -1      4123 9.62206E-02
 -1      4124 1.19896E-01
 -1      4125 1.28336E-01
 -1      4126 1.28336E-01
 -1      4127 1.01367E-01
 -1      4128 9.27513E-02
 -1      4129 1.10187E-01
 -1      4130 1.02597E-01
 -1      4131 2.87231E+00
 -1      4132 9.19807E-02
 -1      4133 8.77640E-02
 -1      4134 1.10959E-01
 -1      4135 1.05542E-01
 -1      4136 3.44230E+00
 -1      4137 8.68897E-02
 -1      4138 8.72402E-02
 -1      4139 8.81146E-02
 -1      4140 8.91840E-02
 -1      4141 9.11277E-02
 -1      4142 8.91840E-02
 -1      4143 1.05705E-01
 -1      4144 1.09682E-01
 -1      4145 1.05705E-01
 -1      4146 1.04730E-01
 -1      4147 1.10379E-01
 -1      4148 1.15330E-01
 -1      4149 1.21212E-01
 -1      4150 1.32336E-01
 -1      4151 1.21212E-01
 -1      4152 1.47588E-01
 -1      4153 1.64216E-01
 -1      4154 1.47298E-01
 -1      4155 1.84321E-01
 -1      4156 2.06281E-01
 -1      4157 1.82655E-01
 -1      4158 2.32404E-01
 -1      4159 2.65245E-01
 -1      4160 2.28882E-01
 -1      4161 2.99045E-01
 -1      4162 3.41970E-01
 -1      4163 2.88805E-01
 -1      4164 3.86056E-01
 -1      4165 4.42375E-01
 -1      4166 3.66691E-01
 -1      4167 5.01189E-01
 -1      4168 5.78077E-01
 -1      4169 4.69592E-01
 -1      4170 6.59616E-01
 -1      4171 7.70707E-01
 -1      4172 6.09944E-01
 -1      4173 9.18701E-01
 -1      4174 1.08722E+00
 -1      4175 8.39477E-01
 -1      4176 1.31443E+00
 -1      4177 1.53483E+00
 -1      4178 1.21468E+00
 -1      4179 2.03682E+00
 -1      4180 2.45835E+00
 -1      4181 3.04832E+00
 -1      4182 1.94389E+00
 -1      4183 2.07242E+00
 -1      4184 1.91810E+00
 -1      4185 1.05692E-01
 -1      4186 9.99320E-02
 -1      4187 9.81382E-02
 -1      4188 1.74009E+00
 -1      4189 1.25340E-01
 -1      4190 1.20988E-01
 -1      4191 9.15711E-02
 -1      4192 4.34800E-01
 -1      4193 3.77812E-01
 -1      4194 1.41611E+00
 -1      4195 1.25766E+00
 -1      4196 1.94389E+00
 -1      4197 1.03045E+00
 -1      4198 9.05173E-01
 -1      4199 1.21468E+00
 -1      4200 2.39398E+00
 -1      4201 2.12030E+00
 -1      4202 2.49376E+00
 -1      4203 3.01997E+00
 -1      4204 2.51693E+00
 -1      4205 1.67818E+00
 -1      4206 1.50094E+00
 -1      4207 2.54537E+00
 -1      4208 2.42631E+00
 -1      4209 2.91758E+00
 -1      4210 2.36443E+00
 -1      4211 1.29246E-01
 -1      4212 1.29706E-01
 -1      4213 1.03373E-01
 -1      4214 1.11704E-01
 -1      4215 1.95257E-01
 -1      4216 1.67046E-01
 -1      4217 1.18735E-01
 -1      4218 1.10187E-01
 -1      4219 1.19508E-01
 -1      4220 5.73403E-01
 -1      4221 5.00136E-01
 -1      4222 4.49513E-01
 -1      4223 2.52656E-01
 -1      4224 2.17194E-01
 -1      4225 2.01511E-01
 -1      4226 1.49838E-01
 -1      4227 1.31947E-01
 -1      4228 1.62367E-01
 -1      4229 1.27339E-01
 -1      4230 1.26763E-01
 -1      4231 1.00985E-01
 -1      4232 7.59955E-01
 -1      4233 6.64497E-01
 -1      4234 6.05942E-01
 -1      4235 8.42253E-01
 -1      4236 9.62750E-02
 -1      4237 9.28326E-02
 -1      4238 8.98408E-02
 -1      4239 3.29700E-01
 -1      4240 2.84908E-01
 -1      4241 3.36065E-01
 -1      4242 9.92190E-02
 -1      4243 1.02090E-01
 -1      4244 2.91758E+00
 -1      4245 2.55701E-01
 -1      4246 1.19767E-01
 -1      4247 1.05028E-01
 -1      4248 1.03440E-01
 -1      4249 9.18739E-02
 -1      4250 9.87508E-02
 -1      4251 1.31947E-01
 -1      4252 8.42421E-02
 -1      4253 8.42421E-02
 -1      4254 1.00996E-01
 -1      4255 1.01117E-01
 -1      4256 9.55343E-02
 -1      4257 8.46935E-02
 -1      4258 9.40195E-02
 -1      4259 8.89365E-02
 -1      4260 1.06522E-01
 -1      4261 1.10953E-01
 -1      4262 9.84643E-02
 -1      4263 9.02498E-02
 -1      4264 8.92691E-02
 -1      4265 8.86489E-02
 -1      4266 8.87620E-02
 -1      4267 8.62221E-02
 -1      4268 8.91446E-02
 -1      4269 2.54537E+00
 -1      4270 3.47798E+00
 -1      4271 2.62299E+00
 -1      4272 3.09621E+00
 -1      4273 2.02064E+00
 -1      4274 4.62813E-01
 -1      4275 3.97477E-01
 -1      4276 9.10220E-02
 -1      4277 8.98408E-02
 -1      4278 8.69034E-02
 -1      4279 8.89890E-02
 -1      4280 8.81146E-02
 -1      4281 1.05705E-01
 -1      4282 1.20281E-01
 -1      4283 1.20281E-01
 -1      4284 1.15330E-01
 -1      4285 1.14557E-01
 -1      4286 1.25391E-01
 -1      4287 1.38603E-01
 -1      4288 1.53855E-01
 -1      4289 1.71062E-01
 -1      4290 1.91167E-01
 -1      4291 2.13104E-01
 -1      4292 2.39227E-01
 -1      4293 2.71479E-01
 -1      4294 3.05279E-01
 -1      4295 3.53391E-01
 -1      4296 5.21627E-01
 -1      4297 6.12721E-01
 -1      4298 6.94259E-01
 -1      4299 8.39477E-01
 -1      4300 9.87470E-01
 -1      4301 1.21468E+00
 -1      4302 1.44190E+00
 -1      4303 1.94389E+00
 -1      4304 7.20195E-02
 -1      4305 2.62299E+00
 -1      4306 9.06927E-02
 -1      4307 8.98408E-02
 -1      4308 8.93497E-02
 -1      4309 8.79454E-02
 -1      4310 9.00310E-02
 -1      4311 1.05163E-01
 -1      4312 2.23233E+00
 -1      4313 7.56263E-02
 -1      4314 8.42421E-02
 -1      4315 6.71170E-02
 -1      4316 8.30618E-02
 -1      4317 2.44588E+00
 -1      4318 9.84643E-02
 -1      4319 8.91566E-02
 -1      4320 9.11004E-02
 -1      4321 8.56218E-02
 -1      4322 6.96770E-02
 -1      4323 8.99878E-02
 -1      4324 2.54165E+00
 -1      4325 8.66764E-02
 -1      4326 9.15790E-02
 -1      4327 2.49376E+00
 -1      4328 1.03306E-01
 -1      4329 2.49376E+00
 -1      4330 1.03306E-01
 -1      4331 1.05677E-01
 -1      4332 1.10953E-01
 -1      4333 1.06987E-01
 -1      4334 8.92364E-02
 -1      4335 1.06236E-01
 -1      4336 1.20281E-01
 -1      4337 9.10730E-02
 -1      4338 1.05677E-01
 -1      4339 6.96770E-02
 -1      4340 8.92364E-02
 -1      4341 9.00310E-02
 -1      4342 1.06236E-01
 -1      4343 1.19767E-01
 -1      4344 1.06236E-01
 -3
 9999
