    1C
    1UUSER                                                              
    1UDATE              27.october.2022                                 
    1UTIME              00:44:21                                        
    1UHOST                                                              
    1UPGM               CalculiX                                        
    1UVERSION           Version 2.17                             
    1UCOMPILETIME       Thu Jul 23 21:43:50 CEST 2020                    
    1UDIR                                                               
    1UDBN                                                               
    1UMAT    1SOLIDMATERIAL                                             
    2C                          4357                                     1
 -1         1 8.29502E+01 3.12504E+01 0.00000E+00
 -1         2 8.99521E+01 2.42504E+01 0.00000E+00
 -1         3 1.50000E+02 0.00000E+00 0.00000E+00
 -1         4 1.50000E+02 5.00000E+01 0.00000E+00
 -1         5 0.00000E+00 0.00000E+00 0.00000E+00
 -1         6 0.00000E+00 5.00000E+01 0.00000E+00
 -1         7 0.00000E+00 4.70500E+01 0.00000E+00
 -1         8 0.00000E+00 4.41000E+01 0.00000E+00
 -1         9 0.00000E+00 4.11500E+01 0.00000E+00
 -1        10 0.00000E+00 3.82000E+01 0.00000E+00
 -1        11 0.00000E+00 3.52500E+01 0.00000E+00
 -1        12 0.00000E+00 3.23500E+01 0.00000E+00
 -1        13 0.00000E+00 2.94000E+01 0.00000E+00
 -1        14 0.00000E+00 2.64500E+01 0.00000E+00
 -1        15 0.00000E+00 2.35000E+01 0.00000E+00
 -1        16 0.00000E+00 2.05500E+01 0.00000E+00
 -1        17 0.00000E+00 1.76000E+01 0.00000E+00
 -1        18 0.00000E+00 1.47000E+01 0.00000E+00
 -1        19 0.00000E+00 1.17500E+01 0.00000E+00
 -1        20 0.00000E+00 8.80000E+00 0.00000E+00
 -1        21 0.00000E+00 5.85000E+00 0.00000E+00
 -1        22 0.00000E+00 2.90000E+00 0.00000E+00
 -1        23 3.15000E+00 5.00000E+01 0.00000E+00
 -1        24 6.15000E+00 5.00000E+01 0.00000E+00
 -1        25 9.15000E+00 5.00000E+01 0.00000E+00
 -1        26 1.21500E+01 5.00000E+01 0.00000E+00
 -1        27 1.51500E+01 5.00000E+01 0.00000E+00
 -1        28 1.81500E+01 5.00000E+01 0.00000E+00
 -1        29 2.11500E+01 5.00000E+01 0.00000E+00
 -1        30 2.41500E+01 5.00000E+01 0.00000E+00
 -1        31 2.71500E+01 5.00000E+01 0.00000E+00
 -1        32 3.01500E+01 5.00000E+01 0.00000E+00
 -1        33 3.31500E+01 5.00000E+01 0.00000E+00
 -1        34 3.61500E+01 5.00000E+01 0.00000E+00
 -1        35 3.91500E+01 5.00000E+01 0.00000E+00
 -1        36 4.21500E+01 5.00000E+01 0.00000E+00
 -1        37 4.51500E+01 5.00000E+01 0.00000E+00
 -1        38 4.81500E+01 5.00000E+01 0.00000E+00
 -1        39 5.11500E+01 5.00000E+01 0.00000E+00
 -1        40 5.41500E+01 5.00000E+01 0.00000E+00
 -1        41 5.71500E+01 5.00000E+01 0.00000E+00
 -1        42 6.01500E+01 5.00000E+01 0.00000E+00
 -1        43 6.31500E+01 5.00000E+01 0.00000E+00
 -1        44 6.61500E+01 5.00000E+01 0.00000E+00
 -1        45 6.91500E+01 5.00000E+01 0.00000E+00
 -1        46 7.21500E+01 5.00000E+01 0.00000E+00
 -1        47 7.51500E+01 5.00000E+01 0.00000E+00
 -1        48 7.81500E+01 5.00000E+01 0.00000E+00
 -1        49 8.11500E+01 5.00000E+01 0.00000E+00
 -1        50 8.41500E+01 5.00000E+01 0.00000E+00
 -1        51 8.71500E+01 5.00000E+01 0.00000E+00
 -1        52 9.01500E+01 5.00000E+01 0.00000E+00
 -1        53 9.31500E+01 5.00000E+01 0.00000E+00
 -1        54 9.61500E+01 5.00000E+01 0.00000E+00
 -1        55 9.91500E+01 5.00000E+01 0.00000E+00
 -1        56 1.02150E+02 5.00000E+01 0.00000E+00
 -1        57 1.05150E+02 5.00000E+01 0.00000E+00
 -1        58 1.08150E+02 5.00000E+01 0.00000E+00
 -1        59 1.11150E+02 5.00000E+01 0.00000E+00
 -1        60 1.14150E+02 5.00000E+01 0.00000E+00
 -1        61 1.17150E+02 5.00000E+01 0.00000E+00
 -1        62 1.20150E+02 5.00000E+01 0.00000E+00
 -1        63 1.23150E+02 5.00000E+01 0.00000E+00
 -1        64 1.26150E+02 5.00000E+01 0.00000E+00
 -1        65 1.29150E+02 5.00000E+01 0.00000E+00
 -1        66 1.32150E+02 5.00000E+01 0.00000E+00
 -1        67 1.35150E+02 5.00000E+01 0.00000E+00
 -1        68 1.38150E+02 5.00000E+01 0.00000E+00
 -1        69 1.41150E+02 5.00000E+01 0.00000E+00
 -1        70 1.44150E+02 5.00000E+01 0.00000E+00
 -1        71 1.47150E+02 5.00000E+01 0.00000E+00
 -1        72 3.15000E+00 0.00000E+00 0.00000E+00
 -1        73 6.15000E+00 0.00000E+00 0.00000E+00
 -1        74 9.15000E+00 0.00000E+00 0.00000E+00
 -1        75 1.21500E+01 0.00000E+00 0.00000E+00
 -1        76 1.51500E+01 0.00000E+00 0.00000E+00
 -1        77 1.81500E+01 0.00000E+00 0.00000E+00
 -1        78 2.11500E+01 0.00000E+00 0.00000E+00
 -1        79 2.41500E+01 0.00000E+00 0.00000E+00
 -1        80 2.71500E+01 0.00000E+00 0.00000E+00
 -1        81 3.01500E+01 0.00000E+00 0.00000E+00
 -1        82 3.31500E+01 0.00000E+00 0.00000E+00
 -1        83 3.61500E+01 0.00000E+00 0.00000E+00
 -1        84 3.91500E+01 0.00000E+00 0.00000E+00
 -1        85 4.21500E+01 0.00000E+00 0.00000E+00
 -1        86 4.51500E+01 0.00000E+00 0.00000E+00
 -1        87 4.81500E+01 0.00000E+00 0.00000E+00
 -1        88 5.11500E+01 0.00000E+00 0.00000E+00
 -1        89 5.41500E+01 0.00000E+00 0.00000E+00
 -1        90 5.71500E+01 0.00000E+00 0.00000E+00
 -1        91 6.01500E+01 0.00000E+00 0.00000E+00
 -1        92 6.31500E+01 0.00000E+00 0.00000E+00
 -1        93 6.61500E+01 0.00000E+00 0.00000E+00
 -1        94 6.91500E+01 0.00000E+00 0.00000E+00
 -1        95 7.21500E+01 0.00000E+00 0.00000E+00
 -1        96 7.51500E+01 0.00000E+00 0.00000E+00
 -1        97 7.81500E+01 0.00000E+00 0.00000E+00
 -1        98 8.11500E+01 0.00000E+00 0.00000E+00
 -1        99 8.41500E+01 0.00000E+00 0.00000E+00
 -1       100 8.71500E+01 0.00000E+00 0.00000E+00
 -1       101 9.01500E+01 0.00000E+00 0.00000E+00
 -1       102 9.31500E+01 0.00000E+00 0.00000E+00
 -1       103 9.61500E+01 0.00000E+00 0.00000E+00
 -1       104 9.91500E+01 0.00000E+00 0.00000E+00
 -1       105 1.02150E+02 0.00000E+00 0.00000E+00
 -1       106 1.05150E+02 0.00000E+00 0.00000E+00
 -1       107 1.08150E+02 0.00000E+00 0.00000E+00
 -1       108 1.11150E+02 0.00000E+00 0.00000E+00
 -1       109 1.14150E+02 0.00000E+00 0.00000E+00
 -1       110 1.17150E+02 0.00000E+00 0.00000E+00
 -1       111 1.20150E+02 0.00000E+00 0.00000E+00
 -1       112 1.23150E+02 0.00000E+00 0.00000E+00
 -1       113 1.26150E+02 0.00000E+00 0.00000E+00
 -1       114 1.29150E+02 0.00000E+00 0.00000E+00
 -1       115 1.32150E+02 0.00000E+00 0.00000E+00
 -1       116 1.35150E+02 0.00000E+00 0.00000E+00
 -1       117 1.38150E+02 0.00000E+00 0.00000E+00
 -1       118 1.41150E+02 0.00000E+00 0.00000E+00
 -1       119 1.44150E+02 0.00000E+00 0.00000E+00
 -1       120 1.47150E+02 0.00000E+00 0.00000E+00
 -1       121 1.50000E+02 2.95000E+00 0.00000E+00
 -1       122 1.50000E+02 5.90000E+00 0.00000E+00
 -1       123 1.50000E+02 8.85000E+00 0.00000E+00
 -1       124 1.50000E+02 1.18000E+01 0.00000E+00
 -1       125 1.50000E+02 1.47500E+01 0.00000E+00
 -1       126 1.50000E+02 1.76500E+01 0.00000E+00
 -1       127 1.50000E+02 2.06000E+01 0.00000E+00
 -1       128 1.50000E+02 2.35500E+01 0.00000E+00
 -1       129 1.50000E+02 2.65000E+01 0.00000E+00
 -1       130 1.50000E+02 2.94500E+01 0.00000E+00
 -1       131 1.50000E+02 3.24000E+01 0.00000E+00
 -1       132 1.50000E+02 3.53000E+01 0.00000E+00
 -1       133 1.50000E+02 3.82500E+01 0.00000E+00
 -1       134 1.50000E+02 4.12000E+01 0.00000E+00
 -1       135 1.50000E+02 4.41500E+01 0.00000E+00
 -1       136 1.50000E+02 4.71000E+01 0.00000E+00
 -1       137 8.97771E+01 2.26948E+01 0.00000E+00
 -1       138 8.93073E+01 2.13159E+01 0.00000E+00
 -1       139 8.84652E+01 1.99370E+01 0.00000E+00
 -1       140 8.74996E+01 1.89288E+01 0.00000E+00
 -1       141 8.61352E+01 1.80160E+01 0.00000E+00
 -1       142 8.48425E+01 1.75105E+01 0.00000E+00
 -1       143 8.34085E+01 1.72653E+01 0.00000E+00
 -1       144 8.19752E+01 1.73189E+01 0.00000E+00
 -1       145 8.05465E+01 1.76768E+01 0.00000E+00
 -1       146 7.92632E+01 1.83013E+01 0.00000E+00
 -1       147 7.81284E+01 1.91777E+01 0.00000E+00
 -1       148 7.71600E+01 2.03196E+01 0.00000E+00
 -1       149 7.64654E+01 2.16194E+01 0.00000E+00
 -1       150 7.60483E+01 2.30939E+01 0.00000E+00
 -1       151 7.59570E+01 2.45116E+01 0.00000E+00
 -1       152 7.61836E+01 2.60356E+01 0.00000E+00
 -1       153 7.66768E+01 2.73521E+01 0.00000E+00
 -1       154 7.75023E+01 2.86436E+01 0.00000E+00
 -1       155 7.85141E+01 2.96637E+01 0.00000E+00
 -1       156 7.98759E+01 3.05383E+01 0.00000E+00
 -1       157 8.14517E+01 3.10877E+01 0.00000E+00
 -1       158 8.44737E+01 3.10831E+01 0.00000E+00
 -1       159 8.59682E+01 3.05673E+01 0.00000E+00
 -1       160 8.73150E+01 2.97245E+01 0.00000E+00
 -1       161 8.83785E+01 2.86724E+01 0.00000E+00
 -1       162 8.92253E+01 2.73565E+01 0.00000E+00
 -1       163 8.97594E+01 2.58814E+01 0.00000E+00
 -1       164 2.59800E+00 4.55750E+01 0.00000E+00
 -1       165 2.59800E+00 4.26250E+01 0.00000E+00
 -1       166 2.59800E+00 3.96750E+01 0.00000E+00
 -1       167 2.59800E+00 3.67250E+01 0.00000E+00
 -1       168 2.59800E+00 3.38250E+01 0.00000E+00
 -1       169 2.59800E+00 3.08750E+01 0.00000E+00
 -1       170 2.59800E+00 2.79250E+01 0.00000E+00
 -1       171 2.59800E+00 2.49750E+01 0.00000E+00
 -1       172 2.59800E+00 2.20250E+01 0.00000E+00
 -1       173 2.59800E+00 1.90750E+01 0.00000E+00
 -1       174 2.59800E+00 1.61750E+01 0.00000E+00
 -1       175 2.59800E+00 1.32250E+01 0.00000E+00
 -1       176 2.59800E+00 1.02750E+01 0.00000E+00
 -1       177 2.59800E+00 7.32500E+00 0.00000E+00
 -1       178 2.59800E+00 4.37500E+00 0.00000E+00
 -1       179 2.87400E+00 2.18750E+00 0.00000E+00
 -1       180 4.65000E+00 4.74020E+01 0.00000E+00
 -1       181 7.65000E+00 4.74020E+01 0.00000E+00
 -1       182 1.06500E+01 4.74020E+01 0.00000E+00
 -1       183 1.36500E+01 4.74020E+01 0.00000E+00
 -1       184 1.66500E+01 4.74020E+01 0.00000E+00
 -1       185 1.96500E+01 4.74020E+01 0.00000E+00
 -1       186 2.26500E+01 4.74020E+01 0.00000E+00
 -1       187 2.56500E+01 4.74020E+01 0.00000E+00
 -1       188 2.86500E+01 4.74020E+01 0.00000E+00
 -1       189 3.16500E+01 4.74020E+01 0.00000E+00
 -1       190 3.46500E+01 4.74020E+01 0.00000E+00
 -1       191 3.76500E+01 4.74020E+01 0.00000E+00
 -1       192 4.06500E+01 4.74020E+01 0.00000E+00
 -1       193 4.36500E+01 4.74020E+01 0.00000E+00
 -1       194 4.66500E+01 4.74020E+01 0.00000E+00
 -1       195 4.96500E+01 4.74020E+01 0.00000E+00
 -1       196 5.26500E+01 4.74020E+01 0.00000E+00
 -1       197 5.56500E+01 4.74020E+01 0.00000E+00
 -1       198 5.86500E+01 4.74020E+01 0.00000E+00
 -1       199 6.16500E+01 4.74020E+01 0.00000E+00
 -1       200 6.46500E+01 4.74020E+01 0.00000E+00
 -1       201 6.76500E+01 4.74020E+01 0.00000E+00
 -1       202 7.06500E+01 4.74020E+01 0.00000E+00
 -1       203 7.36500E+01 4.74020E+01 0.00000E+00
 -1       204 7.66500E+01 4.74020E+01 0.00000E+00
 -1       205 7.96500E+01 4.74020E+01 0.00000E+00
 -1       206 8.26500E+01 4.74020E+01 0.00000E+00
 -1       207 8.56500E+01 4.74020E+01 0.00000E+00
 -1       208 8.86500E+01 4.74020E+01 0.00000E+00
 -1       209 9.16500E+01 4.74020E+01 0.00000E+00
 -1       210 9.46500E+01 4.74020E+01 0.00000E+00
 -1       211 9.76500E+01 4.74020E+01 0.00000E+00
 -1       212 1.00650E+02 4.74020E+01 0.00000E+00
 -1       213 1.03650E+02 4.74020E+01 0.00000E+00
 -1       214 1.06650E+02 4.74020E+01 0.00000E+00
 -1       215 1.09650E+02 4.74020E+01 0.00000E+00
 -1       216 1.12650E+02 4.74020E+01 0.00000E+00
 -1       217 1.15650E+02 4.74020E+01 0.00000E+00
 -1       218 1.18650E+02 4.74020E+01 0.00000E+00
 -1       219 1.21650E+02 4.74020E+01 0.00000E+00
 -1       220 1.24650E+02 4.74020E+01 0.00000E+00
 -1       221 1.27650E+02 4.74020E+01 0.00000E+00
 -1       222 1.30650E+02 4.74020E+01 0.00000E+00
 -1       223 1.33650E+02 4.74020E+01 0.00000E+00
 -1       224 1.36650E+02 4.74020E+01 0.00000E+00
 -1       225 1.39650E+02 4.74020E+01 0.00000E+00
 -1       226 1.42650E+02 4.74020E+01 0.00000E+00
 -1       227 1.45650E+02 4.74020E+01 0.00000E+00
 -1       228 5.87400E+00 2.18750E+00 0.00000E+00
 -1       229 8.87400E+00 2.18750E+00 0.00000E+00
 -1       230 1.18740E+01 2.18750E+00 0.00000E+00
 -1       231 1.48740E+01 2.18750E+00 0.00000E+00
 -1       232 1.78740E+01 2.18750E+00 0.00000E+00
 -1       233 2.08740E+01 2.18750E+00 0.00000E+00
 -1       234 2.38740E+01 2.18750E+00 0.00000E+00
 -1       235 2.68740E+01 2.18750E+00 0.00000E+00
 -1       236 2.98740E+01 2.18750E+00 0.00000E+00
 -1       237 3.28740E+01 2.18750E+00 0.00000E+00
 -1       238 3.58740E+01 2.18750E+00 0.00000E+00
 -1       239 3.88740E+01 2.18750E+00 0.00000E+00
 -1       240 4.18740E+01 2.18750E+00 0.00000E+00
 -1       241 4.48740E+01 2.18750E+00 0.00000E+00
 -1       242 4.78740E+01 2.18750E+00 0.00000E+00
 -1       243 5.08740E+01 2.18750E+00 0.00000E+00
 -1       244 5.38740E+01 2.18750E+00 0.00000E+00
 -1       245 5.68740E+01 2.18750E+00 0.00000E+00
 -1       246 5.98740E+01 2.18750E+00 0.00000E+00
 -1       247 6.28740E+01 2.18750E+00 0.00000E+00
 -1       248 6.58740E+01 2.18750E+00 0.00000E+00
 -1       249 6.88740E+01 2.18750E+00 0.00000E+00
 -1       250 7.18740E+01 2.18750E+00 0.00000E+00
 -1       251 7.48740E+01 2.18750E+00 0.00000E+00
 -1       252 7.78740E+01 2.18750E+00 0.00000E+00
 -1       253 8.08740E+01 2.18750E+00 0.00000E+00
 -1       254 8.38740E+01 2.18750E+00 0.00000E+00
 -1       255 8.68740E+01 2.18750E+00 0.00000E+00
 -1       256 8.98740E+01 2.18750E+00 0.00000E+00
 -1       257 9.28740E+01 2.18750E+00 0.00000E+00
 -1       258 9.58740E+01 2.18750E+00 0.00000E+00
 -1       259 9.88740E+01 2.18750E+00 0.00000E+00
 -1       260 1.01874E+02 2.18750E+00 0.00000E+00
 -1       261 1.04874E+02 2.18750E+00 0.00000E+00
 -1       262 1.07874E+02 2.18750E+00 0.00000E+00
 -1       263 1.10874E+02 2.18750E+00 0.00000E+00
 -1       264 1.13874E+02 2.18750E+00 0.00000E+00
 -1       265 1.16874E+02 2.18750E+00 0.00000E+00
 -1       266 1.19874E+02 2.18750E+00 0.00000E+00
 -1       267 1.22874E+02 2.18750E+00 0.00000E+00
 -1       268 1.25874E+02 2.18750E+00 0.00000E+00
 -1       269 1.28874E+02 2.18750E+00 0.00000E+00
 -1       270 1.31874E+02 2.18750E+00 0.00000E+00
 -1       271 1.34874E+02 2.18750E+00 0.00000E+00
 -1       272 1.37874E+02 2.18750E+00 0.00000E+00
 -1       273 1.40874E+02 2.18750E+00 0.00000E+00
 -1       274 1.43874E+02 2.18750E+00 0.00000E+00
 -1       275 1.46874E+02 2.18750E+00 0.00000E+00
 -1       276 1.47402E+02 4.42500E+00 0.00000E+00
 -1       277 1.47402E+02 7.37500E+00 0.00000E+00
 -1       278 1.47402E+02 1.03250E+01 0.00000E+00
 -1       279 1.47402E+02 1.32750E+01 0.00000E+00
 -1       280 1.47402E+02 1.61750E+01 0.00000E+00
 -1       281 1.47402E+02 1.91250E+01 0.00000E+00
 -1       282 1.47402E+02 2.20750E+01 0.00000E+00
 -1       283 1.47402E+02 2.50250E+01 0.00000E+00
 -1       284 1.47402E+02 2.79750E+01 0.00000E+00
 -1       285 1.47402E+02 3.09250E+01 0.00000E+00
 -1       286 1.47402E+02 3.38250E+01 0.00000E+00
 -1       287 1.47402E+02 3.67750E+01 0.00000E+00
 -1       288 1.47402E+02 3.97250E+01 0.00000E+00
 -1       289 1.47402E+02 4.26750E+01 0.00000E+00
 -1       290 1.46526E+02 4.50385E+01 0.00000E+00
 -1       291 9.13192E+01 2.33089E+01 0.00000E+00
 -1       292 9.07691E+01 2.15873E+01 0.00000E+00
 -1       293 9.01355E+01 1.98635E+01 0.00000E+00
 -1       294 8.89185E+01 1.85364E+01 0.00000E+00
 -1       295 8.76313E+01 1.72558E+01 0.00000E+00
 -1       296 8.59304E+01 1.66341E+01 0.00000E+00
 -1       297 8.43298E+01 1.61929E+01 0.00000E+00
 -1       298 8.26434E+01 1.59969E+01 0.00000E+00
 -1       299 8.09460E+01 1.62405E+01 0.00000E+00
 -1       300 7.93743E+01 1.68989E+01 0.00000E+00
 -1       301 7.79547E+01 1.77800E+01 0.00000E+00
 -1       302 7.65918E+01 1.88561E+01 0.00000E+00
 -1       303 7.57434E+01 2.03981E+01 0.00000E+00
 -1       304 7.50902E+01 2.20267E+01 0.00000E+00
 -1       305 7.47927E+01 2.37249E+01 0.00000E+00
 -1       306 7.47053E+01 2.54766E+01 0.00000E+00
 -1       307 7.52948E+01 2.71192E+01 0.00000E+00
 -1       308 7.60680E+01 2.86508E+01 0.00000E+00
 -1       309 7.71474E+01 3.00074E+01 0.00000E+00
 -1       310 7.84493E+01 3.12621E+01 0.00000E+00
 -1       311 8.01542E+01 3.22743E+01 0.00000E+00
 -1       312 8.20520E+01 3.25410E+01 0.00000E+00
 -1       313 8.38444E+01 3.23719E+01 0.00000E+00
 -1       314 8.57258E+01 3.22881E+01 0.00000E+00
 -1       315 8.73292E+01 3.12447E+01 0.00000E+00
 -1       316 8.86994E+01 3.00604E+01 0.00000E+00
 -1       317 8.98919E+01 2.87158E+01 0.00000E+00
 -1       318 9.06323E+01 2.70318E+01 0.00000E+00
 -1       319 9.12262E+01 2.52278E+01 0.00000E+00
 -1       320 5.19600E+00 4.11500E+01 0.00000E+00
 -1       321 5.19600E+00 4.41000E+01 0.00000E+00
 -1       322 5.19600E+00 3.52750E+01 0.00000E+00
 -1       323 5.19600E+00 3.23250E+01 0.00000E+00
 -1       324 5.19600E+00 2.93750E+01 0.00000E+00
 -1       325 5.19600E+00 2.64250E+01 0.00000E+00
 -1       326 5.19600E+00 2.34750E+01 0.00000E+00
 -1       327 5.19600E+00 2.05250E+01 0.00000E+00
 -1       328 5.19600E+00 1.76250E+01 0.00000E+00
 -1       329 5.19600E+00 1.46750E+01 0.00000E+00
 -1       330 5.19600E+00 1.17250E+01 0.00000E+00
 -1       331 5.19600E+00 8.77500E+00 0.00000E+00
 -1       332 5.19600E+00 5.82500E+00 0.00000E+00
 -1       333 5.53500E+00 4.00625E+00 0.00000E+00
 -1       334 8.53500E+00 4.00625E+00 0.00000E+00
 -1       335 9.15000E+00 4.48040E+01 0.00000E+00
 -1       336 1.21500E+01 4.48040E+01 0.00000E+00
 -1       337 1.51500E+01 4.48040E+01 0.00000E+00
 -1       338 1.81500E+01 4.48040E+01 0.00000E+00
 -1       339 2.11500E+01 4.48040E+01 0.00000E+00
 -1       340 2.41500E+01 4.48040E+01 0.00000E+00
 -1       341 2.71500E+01 4.48040E+01 0.00000E+00
 -1       342 3.01500E+01 4.48040E+01 0.00000E+00
 -1       343 3.31500E+01 4.48040E+01 0.00000E+00
 -1       344 3.61500E+01 4.48040E+01 0.00000E+00
 -1       345 3.91500E+01 4.48040E+01 0.00000E+00
 -1       346 4.21500E+01 4.48040E+01 0.00000E+00
 -1       347 4.51500E+01 4.48040E+01 0.00000E+00
 -1       348 4.81500E+01 4.48040E+01 0.00000E+00
 -1       349 5.11500E+01 4.48040E+01 0.00000E+00
 -1       350 5.41500E+01 4.48040E+01 0.00000E+00
 -1       351 5.71500E+01 4.48040E+01 0.00000E+00
 -1       352 6.01500E+01 4.48040E+01 0.00000E+00
 -1       353 6.31500E+01 4.48040E+01 0.00000E+00
 -1       354 6.61500E+01 4.48040E+01 0.00000E+00
 -1       355 6.91500E+01 4.48040E+01 0.00000E+00
 -1       356 7.21500E+01 4.48040E+01 0.00000E+00
 -1       357 7.51500E+01 4.48040E+01 0.00000E+00
 -1       358 7.81500E+01 4.48040E+01 0.00000E+00
 -1       359 8.11500E+01 4.48040E+01 0.00000E+00
 -1       360 8.41500E+01 4.48040E+01 0.00000E+00
 -1       361 8.71500E+01 4.48040E+01 0.00000E+00
 -1       362 9.01500E+01 4.48040E+01 0.00000E+00
 -1       363 9.31500E+01 4.48040E+01 0.00000E+00
 -1       364 9.61500E+01 4.48040E+01 0.00000E+00
 -1       365 9.91500E+01 4.48040E+01 0.00000E+00
 -1       366 1.02150E+02 4.48040E+01 0.00000E+00
 -1       367 1.05150E+02 4.48040E+01 0.00000E+00
 -1       368 1.08150E+02 4.48040E+01 0.00000E+00
 -1       369 1.11150E+02 4.48040E+01 0.00000E+00
 -1       370 1.14150E+02 4.48040E+01 0.00000E+00
 -1       371 1.17150E+02 4.48040E+01 0.00000E+00
 -1       372 1.20150E+02 4.48040E+01 0.00000E+00
 -1       373 1.23150E+02 4.48040E+01 0.00000E+00
 -1       374 1.26150E+02 4.48040E+01 0.00000E+00
 -1       375 1.29150E+02 4.48040E+01 0.00000E+00
 -1       376 1.32150E+02 4.48040E+01 0.00000E+00
 -1       377 1.35150E+02 4.48040E+01 0.00000E+00
 -1       378 1.38150E+02 4.48040E+01 0.00000E+00
 -1       379 1.41150E+02 4.48040E+01 0.00000E+00
 -1       380 1.43838E+02 4.49212E+01 0.00000E+00
 -1       381 1.15350E+01 4.00625E+00 0.00000E+00
 -1       382 1.45350E+01 4.00625E+00 0.00000E+00
 -1       383 1.75350E+01 4.00625E+00 0.00000E+00
 -1       384 2.05350E+01 4.00625E+00 0.00000E+00
 -1       385 2.35350E+01 4.00625E+00 0.00000E+00
 -1       386 2.65350E+01 4.00625E+00 0.00000E+00
 -1       387 2.95350E+01 4.00625E+00 0.00000E+00
 -1       388 3.25350E+01 4.00625E+00 0.00000E+00
 -1       389 3.55350E+01 4.00625E+00 0.00000E+00
 -1       390 3.85350E+01 4.00625E+00 0.00000E+00
 -1       391 4.15350E+01 4.00625E+00 0.00000E+00
 -1       392 4.45350E+01 4.00625E+00 0.00000E+00
 -1       393 4.75350E+01 4.00625E+00 0.00000E+00
 -1       394 5.05350E+01 4.00625E+00 0.00000E+00
 -1       395 5.35350E+01 4.00625E+00 0.00000E+00
 -1       396 5.65350E+01 4.00625E+00 0.00000E+00
 -1       397 5.95350E+01 4.00625E+00 0.00000E+00
 -1       398 6.25350E+01 4.00625E+00 0.00000E+00
 -1       399 6.55350E+01 4.00625E+00 0.00000E+00
 -1       400 6.85350E+01 4.00625E+00 0.00000E+00
 -1       401 7.15350E+01 4.00625E+00 0.00000E+00
 -1       402 7.45350E+01 4.00625E+00 0.00000E+00
 -1       403 7.75350E+01 4.00625E+00 0.00000E+00
 -1       404 8.05350E+01 4.00625E+00 0.00000E+00
 -1       405 8.35350E+01 4.00625E+00 0.00000E+00
 -1       406 8.65350E+01 4.00625E+00 0.00000E+00
 -1       407 8.95350E+01 4.00625E+00 0.00000E+00
 -1       408 9.25350E+01 4.00625E+00 0.00000E+00
 -1       409 9.55350E+01 4.00625E+00 0.00000E+00
 -1       410 9.85350E+01 4.00625E+00 0.00000E+00
 -1       411 1.01535E+02 4.00625E+00 0.00000E+00
 -1       412 1.04535E+02 4.00625E+00 0.00000E+00
 -1       413 1.07535E+02 4.00625E+00 0.00000E+00
 -1       414 1.10535E+02 4.00625E+00 0.00000E+00
 -1       415 1.13535E+02 4.00625E+00 0.00000E+00
 -1       416 1.16535E+02 4.00625E+00 0.00000E+00
 -1       417 1.19535E+02 4.00625E+00 0.00000E+00
 -1       418 1.22535E+02 4.00625E+00 0.00000E+00
 -1       419 1.25535E+02 4.00625E+00 0.00000E+00
 -1       420 1.28535E+02 4.00625E+00 0.00000E+00
 -1       421 1.31535E+02 4.00625E+00 0.00000E+00
 -1       422 1.34535E+02 4.00625E+00 0.00000E+00
 -1       423 1.37535E+02 4.00625E+00 0.00000E+00
 -1       424 1.40535E+02 4.00625E+00 0.00000E+00
 -1       425 1.43535E+02 4.00625E+00 0.00000E+00
 -1       426 1.45469E+02 4.21562E+00 0.00000E+00
 -1       427 1.44804E+02 1.18000E+01 0.00000E+00
 -1       428 1.44804E+02 8.85000E+00 0.00000E+00
 -1       429 1.45136E+02 6.53281E+00 0.00000E+00
 -1       430 1.44804E+02 1.47000E+01 0.00000E+00
 -1       431 1.44804E+02 1.76500E+01 0.00000E+00
 -1       432 1.44804E+02 2.06000E+01 0.00000E+00
 -1       433 1.44804E+02 2.35500E+01 0.00000E+00
 -1       434 1.44804E+02 2.65000E+01 0.00000E+00
 -1       435 1.44804E+02 2.94500E+01 0.00000E+00
 -1       436 1.44804E+02 3.23500E+01 0.00000E+00
 -1       437 1.44804E+02 3.53000E+01 0.00000E+00
 -1       438 1.44804E+02 3.82500E+01 0.00000E+00
 -1       439 1.44804E+02 4.12000E+01 0.00000E+00
 -1       440 9.20621E+01 2.01337E+01 0.00000E+00
 -1       441 9.28184E+01 2.43432E+01 0.00000E+00
 -1       442 9.22788E+01 2.20536E+01 0.00000E+00
 -1       443 9.05441E+01 1.82673E+01 0.00000E+00
 -1       444 8.93663E+01 1.67990E+01 0.00000E+00
 -1       445 5.19600E+00 3.82125E+01 0.00000E+00
 -1       446 8.54969E+01 1.50832E+01 0.00000E+00
 -1       447 8.36363E+01 1.48073E+01 0.00000E+00
 -1       448 8.16105E+01 1.48356E+01 0.00000E+00
 -1       449 7.96269E+01 1.52969E+01 0.00000E+00
 -1       450 7.79368E+01 1.61670E+01 0.00000E+00
 -1       451 7.63662E+01 1.71692E+01 0.00000E+00
 -1       452 7.48117E+01 1.88811E+01 0.00000E+00
 -1       453 7.41360E+01 2.06987E+01 0.00000E+00
 -1       454 7.34172E+01 2.26088E+01 0.00000E+00
 -1       455 7.33708E+01 2.45319E+01 0.00000E+00
 -1       456 7.35435E+01 2.68207E+01 0.00000E+00
 -1       457 7.43167E+01 2.83523E+01 0.00000E+00
 -1       458 7.53967E+01 3.02926E+01 0.00000E+00
 -1       459 7.66986E+01 3.15474E+01 0.00000E+00
 -1       460 7.84690E+01 3.31710E+01 0.00000E+00
 -1       461 8.09227E+01 3.36912E+01 0.00000E+00
 -1       462 8.30936E+01 3.39971E+01 0.00000E+00
 -1       463 8.49750E+01 3.39133E+01 0.00000E+00
 -1       464 8.73259E+01 3.29932E+01 0.00000E+00
 -1       465 8.89167E+01 3.16966E+01 0.00000E+00
 -1       466 9.05161E+01 3.04706E+01 0.00000E+00
 -1       467 9.16021E+01 2.84629E+01 0.00000E+00
 -1       468 9.23992E+01 2.66137E+01 0.00000E+00
 -1       469 8.71978E+01 1.57048E+01 0.00000E+00
 -1       470 8.89328E+01 1.52480E+01 0.00000E+00
 -1       471 8.65750E+01 3.46185E+01 0.00000E+00
 -1       472 7.92375E+01 3.45879E+01 0.00000E+00
 -1       473 1.00350E+01 6.60425E+00 0.00000E+00
 -1       474 7.79400E+00 3.08500E+01 0.00000E+00
 -1       475 7.79400E+00 3.38000E+01 0.00000E+00
 -1       476 7.79400E+00 2.49500E+01 0.00000E+00
 -1       477 7.79400E+00 2.20000E+01 0.00000E+00
 -1       478 7.79400E+00 1.91000E+01 0.00000E+00
 -1       479 7.79400E+00 1.61500E+01 0.00000E+00
 -1       480 7.79400E+00 1.32000E+01 0.00000E+00
 -1       481 7.79400E+00 1.02500E+01 0.00000E+00
 -1       482 1.30350E+01 6.60425E+00 0.00000E+00
 -1       483 1.06500E+01 4.22060E+01 0.00000E+00
 -1       484 9.10971E+01 1.66173E+01 0.00000E+00
 -1       485 1.36500E+01 4.22060E+01 0.00000E+00
 -1       486 1.66500E+01 4.22060E+01 0.00000E+00
 -1       487 1.96500E+01 4.22060E+01 0.00000E+00
 -1       488 2.26500E+01 4.22060E+01 0.00000E+00
 -1       489 2.56500E+01 4.22060E+01 0.00000E+00
 -1       490 2.86500E+01 4.22060E+01 0.00000E+00
 -1       491 3.16500E+01 4.22060E+01 0.00000E+00
 -1       492 3.46500E+01 4.22060E+01 0.00000E+00
 -1       493 3.76500E+01 4.22060E+01 0.00000E+00
 -1       494 4.06500E+01 4.22060E+01 0.00000E+00
 -1       495 4.36500E+01 4.22060E+01 0.00000E+00
 -1       496 4.66500E+01 4.22060E+01 0.00000E+00
 -1       497 4.96500E+01 4.22060E+01 0.00000E+00
 -1       498 5.26500E+01 4.22060E+01 0.00000E+00
 -1       499 5.56500E+01 4.22060E+01 0.00000E+00
 -1       500 5.86500E+01 4.22060E+01 0.00000E+00
 -1       501 6.16500E+01 4.22060E+01 0.00000E+00
 -1       502 6.46500E+01 4.22060E+01 0.00000E+00
 -1       503 6.76500E+01 4.22060E+01 0.00000E+00
 -1       504 7.06500E+01 4.22060E+01 0.00000E+00
 -1       505 7.36500E+01 4.22060E+01 0.00000E+00
 -1       506 7.66500E+01 4.22060E+01 0.00000E+00
 -1       507 7.96500E+01 4.22060E+01 0.00000E+00
 -1       508 8.26500E+01 4.22060E+01 0.00000E+00
 -1       509 8.56500E+01 4.22060E+01 0.00000E+00
 -1       510 8.86500E+01 4.22060E+01 0.00000E+00
 -1       511 9.16500E+01 4.22060E+01 0.00000E+00
 -1       512 9.46500E+01 4.22060E+01 0.00000E+00
 -1       513 9.76500E+01 4.22060E+01 0.00000E+00
 -1       514 1.00650E+02 4.22060E+01 0.00000E+00
 -1       515 1.03650E+02 4.22060E+01 0.00000E+00
 -1       516 1.06650E+02 4.22060E+01 0.00000E+00
 -1       517 1.09650E+02 4.22060E+01 0.00000E+00
 -1       518 1.12650E+02 4.22060E+01 0.00000E+00
 -1       519 1.15650E+02 4.22060E+01 0.00000E+00
 -1       520 1.18650E+02 4.22060E+01 0.00000E+00
 -1       521 1.21650E+02 4.22060E+01 0.00000E+00
 -1       522 1.24650E+02 4.22060E+01 0.00000E+00
 -1       523 1.27650E+02 4.22060E+01 0.00000E+00
 -1       524 1.30650E+02 4.22060E+01 0.00000E+00
 -1       525 1.33650E+02 4.22060E+01 0.00000E+00
 -1       526 1.36650E+02 4.22060E+01 0.00000E+00
 -1       527 1.39650E+02 4.22060E+01 0.00000E+00
 -1       528 1.90350E+01 6.60425E+00 0.00000E+00
 -1       529 2.20350E+01 6.60425E+00 0.00000E+00
 -1       530 2.50350E+01 6.60425E+00 0.00000E+00
 -1       531 2.80350E+01 6.60425E+00 0.00000E+00
 -1       532 3.10350E+01 6.60425E+00 0.00000E+00
 -1       533 3.40350E+01 6.60425E+00 0.00000E+00
 -1       534 3.70350E+01 6.60425E+00 0.00000E+00
 -1       535 4.00350E+01 6.60425E+00 0.00000E+00
 -1       536 4.30350E+01 6.60425E+00 0.00000E+00
 -1       537 4.60350E+01 6.60425E+00 0.00000E+00
 -1       538 4.90350E+01 6.60425E+00 0.00000E+00
 -1       539 5.20350E+01 6.60425E+00 0.00000E+00
 -1       540 5.50350E+01 6.60425E+00 0.00000E+00
 -1       541 5.80350E+01 6.60425E+00 0.00000E+00
 -1       542 6.10350E+01 6.60425E+00 0.00000E+00
 -1       543 6.40350E+01 6.60425E+00 0.00000E+00
 -1       544 6.70350E+01 6.60425E+00 0.00000E+00
 -1       545 7.00350E+01 6.60425E+00 0.00000E+00
 -1       546 7.30350E+01 6.60425E+00 0.00000E+00
 -1       547 7.60350E+01 6.60425E+00 0.00000E+00
 -1       548 7.90350E+01 6.60425E+00 0.00000E+00
 -1       549 8.20350E+01 6.60425E+00 0.00000E+00
 -1       550 8.50350E+01 6.60425E+00 0.00000E+00
 -1       551 8.80350E+01 6.60425E+00 0.00000E+00
 -1       552 9.10350E+01 6.60425E+00 0.00000E+00
 -1       553 9.40350E+01 6.60425E+00 0.00000E+00
 -1       554 9.70350E+01 6.60425E+00 0.00000E+00
 -1       555 1.00035E+02 6.60425E+00 0.00000E+00
 -1       556 1.03035E+02 6.60425E+00 0.00000E+00
 -1       557 1.06035E+02 6.60425E+00 0.00000E+00
 -1       558 1.09035E+02 6.60425E+00 0.00000E+00
 -1       559 1.12035E+02 6.60425E+00 0.00000E+00
 -1       560 1.15035E+02 6.60425E+00 0.00000E+00
 -1       561 1.18035E+02 6.60425E+00 0.00000E+00
 -1       562 1.21035E+02 6.60425E+00 0.00000E+00
 -1       563 1.24035E+02 6.60425E+00 0.00000E+00
 -1       564 1.27035E+02 6.60425E+00 0.00000E+00
 -1       565 1.30035E+02 6.60425E+00 0.00000E+00
 -1       566 1.33035E+02 6.60425E+00 0.00000E+00
 -1       567 1.36035E+02 6.60425E+00 0.00000E+00
 -1       568 1.39035E+02 6.60425E+00 0.00000E+00
 -1       569 1.42035E+02 6.60425E+00 0.00000E+00
 -1       570 1.42206E+02 1.61750E+01 0.00000E+00
 -1       571 1.42206E+02 1.91250E+01 0.00000E+00
 -1       572 1.42206E+02 1.03250E+01 0.00000E+00
 -1       573 1.42206E+02 1.32500E+01 0.00000E+00
 -1       574 1.42206E+02 2.20750E+01 0.00000E+00
 -1       575 1.42206E+02 2.50250E+01 0.00000E+00
 -1       576 1.42206E+02 2.79750E+01 0.00000E+00
 -1       577 1.42206E+02 3.08750E+01 0.00000E+00
 -1       578 1.42206E+02 3.38250E+01 0.00000E+00
 -1       579 1.42206E+02 3.67750E+01 0.00000E+00
 -1       580 1.42206E+02 3.97250E+01 0.00000E+00
 -1       581 9.40549E+01 2.28435E+01 0.00000E+00
 -1       582 9.26337E+01 1.81183E+01 0.00000E+00
 -1       583 1.60350E+01 6.60425E+00 0.00000E+00
 -1       584 9.42954E+01 2.57899E+01 0.00000E+00
 -1       585 9.38382E+01 2.09235E+01 0.00000E+00
 -1       586 8.69361E+01 1.37831E+01 0.00000E+00
 -1       587 9.34218E+01 2.81509E+01 0.00000E+00
 -1       588 8.17922E+01 3.53766E+01 0.00000E+00
 -1       589 7.15798E+01 2.58180E+01 0.00000E+00
 -1       590 7.79400E+00 2.79000E+01 0.00000E+00
 -1       591 8.25995E+01 1.31065E+01 0.00000E+00
 -1       592 8.48181E+01 1.32487E+01 0.00000E+00
 -1       593 8.02303E+01 1.33957E+01 0.00000E+00
 -1       594 7.80736E+01 1.43560E+01 0.00000E+00
 -1       595 7.63190E+01 1.53635E+01 0.00000E+00
 -1       596 7.43813E+01 1.69285E+01 0.00000E+00
 -1       597 7.30233E+01 1.92506E+01 0.00000E+00
 -1       598 7.23045E+01 2.11607E+01 0.00000E+00
 -1       599 7.16794E+01 2.35290E+01 0.00000E+00
 -1       600 7.23990E+01 2.83594E+01 0.00000E+00
 -1       601 7.34790E+01 3.02997E+01 0.00000E+00
 -1       602 7.50319E+01 3.19739E+01 0.00000E+00
 -1       603 8.91800E+01 3.36438E+01 0.00000E+00
 -1       604 7.65945E+01 3.34380E+01 0.00000E+00
 -1       605 8.41106E+01 3.56686E+01 0.00000E+00
 -1       606 9.07794E+01 3.24178E+01 0.00000E+00
 -1       607 9.25676E+01 3.02828E+01 0.00000E+00
 -1       608 7.92300E+00 4.16780E+01 0.00000E+00
 -1       609 7.61550E+00 6.21462E+00 0.00000E+00
 -1       610 7.79400E+00 3.67375E+01 0.00000E+00
 -1       611 8.57107E+01 3.63738E+01 0.00000E+00
 -1       612 9.06636E+01 1.50663E+01 0.00000E+00
 -1       613 7.73630E+01 3.48549E+01 0.00000E+00
 -1       614 9.55319E+01 2.42901E+01 0.00000E+00
 -1       615 9.44098E+01 1.89081E+01 0.00000E+00
 -1       616 8.84292E+01 3.52690E+01 0.00000E+00
 -1       617 7.85850E+00 3.92077E+01 0.00000E+00
 -1       618 1.41678E+02 4.22645E+01 0.00000E+00
 -1       619 1.03920E+01 2.05500E+01 0.00000E+00
 -1       620 1.03920E+01 2.35000E+01 0.00000E+00
 -1       621 1.03920E+01 1.46750E+01 0.00000E+00
 -1       622 1.03920E+01 1.17250E+01 0.00000E+00
 -1       623 1.15350E+01 9.20225E+00 0.00000E+00
 -1       624 8.63787E+01 1.15279E+01 0.00000E+00
 -1       625 1.51500E+01 3.96080E+01 0.00000E+00
 -1       626 1.81500E+01 3.96080E+01 0.00000E+00
 -1       627 2.11500E+01 3.96080E+01 0.00000E+00
 -1       628 2.41500E+01 3.96080E+01 0.00000E+00
 -1       629 2.71500E+01 3.96080E+01 0.00000E+00
 -1       630 3.01500E+01 3.96080E+01 0.00000E+00
 -1       631 3.31500E+01 3.96080E+01 0.00000E+00
 -1       632 3.61500E+01 3.96080E+01 0.00000E+00
 -1       633 3.91500E+01 3.96080E+01 0.00000E+00
 -1       634 4.21500E+01 3.96080E+01 0.00000E+00
 -1       635 4.51500E+01 3.96080E+01 0.00000E+00
 -1       636 4.81500E+01 3.96080E+01 0.00000E+00
 -1       637 5.11500E+01 3.96080E+01 0.00000E+00
 -1       638 5.41500E+01 3.96080E+01 0.00000E+00
 -1       639 5.71500E+01 3.96080E+01 0.00000E+00
 -1       640 6.01500E+01 3.96080E+01 0.00000E+00
 -1       641 6.31500E+01 3.96080E+01 0.00000E+00
 -1       642 6.61500E+01 3.96080E+01 0.00000E+00
 -1       643 6.91500E+01 3.96080E+01 0.00000E+00
 -1       644 7.21500E+01 3.96080E+01 0.00000E+00
 -1       645 7.51500E+01 3.96080E+01 0.00000E+00
 -1       646 7.81500E+01 3.96080E+01 0.00000E+00
 -1       647 8.11500E+01 3.96080E+01 0.00000E+00
 -1       648 8.41500E+01 3.96080E+01 0.00000E+00
 -1       649 8.71500E+01 3.96080E+01 0.00000E+00
 -1       650 9.01500E+01 3.96080E+01 0.00000E+00
 -1       651 9.31500E+01 3.96080E+01 0.00000E+00
 -1       652 9.61500E+01 3.96080E+01 0.00000E+00
 -1       653 9.91500E+01 3.96080E+01 0.00000E+00
 -1       654 1.02150E+02 3.96080E+01 0.00000E+00
 -1       655 1.05150E+02 3.96080E+01 0.00000E+00
 -1       656 1.08150E+02 3.96080E+01 0.00000E+00
 -1       657 1.11150E+02 3.96080E+01 0.00000E+00
 -1       658 1.14150E+02 3.96080E+01 0.00000E+00
 -1       659 1.17150E+02 3.96080E+01 0.00000E+00
 -1       660 1.20150E+02 3.96080E+01 0.00000E+00
 -1       661 1.23150E+02 3.96080E+01 0.00000E+00
 -1       662 1.26150E+02 3.96080E+01 0.00000E+00
 -1       663 1.29150E+02 3.96080E+01 0.00000E+00
 -1       664 1.32150E+02 3.96080E+01 0.00000E+00
 -1       665 1.35150E+02 3.96080E+01 0.00000E+00
 -1       666 1.38150E+02 3.96080E+01 0.00000E+00
 -1       667 2.35350E+01 9.20225E+00 0.00000E+00
 -1       668 1.39206E+02 1.03250E+01 0.00000E+00
 -1       669 8.89490E+01 1.31327E+01 0.00000E+00
 -1       670 2.05350E+01 9.20225E+00 0.00000E+00
 -1       671 2.95350E+01 9.20225E+00 0.00000E+00
 -1       672 3.25350E+01 9.20225E+00 0.00000E+00
 -1       673 3.55350E+01 9.20225E+00 0.00000E+00
 -1       674 3.85350E+01 9.20225E+00 0.00000E+00
 -1       675 4.15350E+01 9.20225E+00 0.00000E+00
 -1       676 4.45350E+01 9.20225E+00 0.00000E+00
 -1       677 4.75350E+01 9.20225E+00 0.00000E+00
 -1       678 5.05350E+01 9.20225E+00 0.00000E+00
 -1       679 5.35350E+01 9.20225E+00 0.00000E+00
 -1       680 5.65350E+01 9.20225E+00 0.00000E+00
 -1       681 5.95350E+01 9.20225E+00 0.00000E+00
 -1       682 6.25350E+01 9.20225E+00 0.00000E+00
 -1       683 6.55350E+01 9.20225E+00 0.00000E+00
 -1       684 6.85350E+01 9.20225E+00 0.00000E+00
 -1       685 7.15350E+01 9.20225E+00 0.00000E+00
 -1       686 7.45350E+01 9.20225E+00 0.00000E+00
 -1       687 7.75350E+01 9.20225E+00 0.00000E+00
 -1       688 8.05350E+01 9.20225E+00 0.00000E+00
 -1       689 8.35350E+01 9.20225E+00 0.00000E+00
 -1       690 8.95350E+01 9.15721E+00 0.00000E+00
 -1       691 9.25350E+01 9.15721E+00 0.00000E+00
 -1       692 9.55350E+01 9.15721E+00 0.00000E+00
 -1       693 9.85350E+01 9.15721E+00 0.00000E+00
 -1       694 1.01535E+02 9.15721E+00 0.00000E+00
 -1       695 1.04535E+02 9.15721E+00 0.00000E+00
 -1       696 1.07535E+02 9.15721E+00 0.00000E+00
 -1       697 1.10535E+02 9.15721E+00 0.00000E+00
 -1       698 1.13535E+02 9.15721E+00 0.00000E+00
 -1       699 1.16535E+02 9.15721E+00 0.00000E+00
 -1       700 1.19535E+02 9.15721E+00 0.00000E+00
 -1       701 1.22535E+02 9.15721E+00 0.00000E+00
 -1       702 1.25535E+02 9.15721E+00 0.00000E+00
 -1       703 1.28535E+02 9.15721E+00 0.00000E+00
 -1       704 1.31535E+02 9.15721E+00 0.00000E+00
 -1       705 1.34535E+02 9.15721E+00 0.00000E+00
 -1       706 1.36870E+02 9.74111E+00 0.00000E+00
 -1       707 1.39608E+02 2.35500E+01 0.00000E+00
 -1       708 1.40178E+02 3.96665E+01 0.00000E+00
 -1       709 1.39608E+02 1.76500E+01 0.00000E+00
 -1       710 1.39608E+02 2.65000E+01 0.00000E+00
 -1       711 1.39608E+02 2.06000E+01 0.00000E+00
 -1       712 1.39608E+02 2.94000E+01 0.00000E+00
 -1       713 1.39608E+02 3.23500E+01 0.00000E+00
 -1       714 1.39608E+02 3.53000E+01 0.00000E+00
 -1       715 7.01716E+01 2.18644E+01 0.00000E+00
 -1       716 9.58173E+01 2.16723E+01 0.00000E+00
 -1       717 7.27523E+01 3.25311E+01 0.00000E+00
 -1       718 1.75350E+01 9.20225E+00 0.00000E+00
 -1       719 2.65350E+01 9.20225E+00 0.00000E+00
 -1       720 1.21500E+01 3.96080E+01 0.00000E+00
 -1       721 1.03920E+01 1.76125E+01 0.00000E+00
 -1       722 1.45350E+01 9.20225E+00 0.00000E+00
 -1       723 8.11868E+01 1.13823E+01 0.00000E+00
 -1       724 9.32453E+01 3.26667E+01 0.00000E+00
 -1       725 1.03920E+01 3.23250E+01 0.00000E+00
 -1       726 7.22218E+01 1.72238E+01 0.00000E+00
 -1       727 9.47423E+01 2.99170E+01 0.00000E+00
 -1       728 9.56160E+01 2.75560E+01 0.00000E+00
 -1       729 7.03570E+01 2.76149E+01 0.00000E+00
 -1       730 6.95813E+01 2.45844E+01 0.00000E+00
 -1       731 7.42725E+01 1.48117E+01 0.00000E+00
 -1       732 7.10587E+01 1.96015E+01 0.00000E+00
 -1       733 7.83180E+01 1.20029E+01 0.00000E+00
 -1       734 8.27370E+01 3.72243E+01 0.00000E+00
 -1       735 7.14404E+01 3.01637E+01 0.00000E+00
 -1       736 7.65635E+01 1.30104E+01 0.00000E+00
 -1       737 7.46978E+01 3.38964E+01 0.00000E+00
 -1       738 9.12270E+01 3.46580E+01 0.00000E+00
 -1       739 8.38077E+01 1.16332E+01 0.00000E+00
 -1       740 9.32980E+01 1.59012E+01 0.00000E+00
 -1       741 8.00584E+01 3.64609E+01 0.00000E+00
 -1       742 1.00042E+01 3.94079E+01 0.00000E+00
 -1       743 1.03920E+01 3.52625E+01 0.00000E+00
 -1       744 1.03920E+01 2.64500E+01 0.00000E+00
 -1       745 8.75648E+01 3.70243E+01 0.00000E+00
 -1       746 7.81838E+01 3.67279E+01 0.00000E+00
 -1       747 1.39608E+02 1.47250E+01 0.00000E+00
 -1       748 8.65350E+01 9.17973E+00 0.00000E+00
 -1       749 9.63889E+01 1.96569E+01 0.00000E+00
 -1       750 9.50741E+01 1.66910E+01 0.00000E+00
 -1       751 9.68524E+01 2.60562E+01 0.00000E+00
 -1       752 7.21130E+01 1.51070E+01 0.00000E+00
 -1       753 1.03920E+01 2.93875E+01 0.00000E+00
 -1       754 7.54663E+01 3.53133E+01 0.00000E+00
 -1       755 1.38879E+02 3.74540E+01 0.00000E+00
 -1       756 1.29900E+01 1.32000E+01 0.00000E+00
 -1       757 1.96500E+01 3.70100E+01 0.00000E+00
 -1       758 2.26500E+01 3.70100E+01 0.00000E+00
 -1       759 2.56500E+01 3.70100E+01 0.00000E+00
 -1       760 2.86500E+01 3.70100E+01 0.00000E+00
 -1       761 3.16500E+01 3.70100E+01 0.00000E+00
 -1       762 3.46500E+01 3.70100E+01 0.00000E+00
 -1       763 3.76500E+01 3.70100E+01 0.00000E+00
 -1       764 4.06500E+01 3.70100E+01 0.00000E+00
 -1       765 4.36500E+01 3.70100E+01 0.00000E+00
 -1       766 4.66500E+01 3.70100E+01 0.00000E+00
 -1       767 4.96500E+01 3.70100E+01 0.00000E+00
 -1       768 5.26500E+01 3.70100E+01 0.00000E+00
 -1       769 5.56500E+01 3.70100E+01 0.00000E+00
 -1       770 5.86500E+01 3.70100E+01 0.00000E+00
 -1       771 6.16500E+01 3.70100E+01 0.00000E+00
 -1       772 6.46500E+01 3.70100E+01 0.00000E+00
 -1       773 6.76500E+01 3.70100E+01 0.00000E+00
 -1       774 7.06500E+01 3.70100E+01 0.00000E+00
 -1       775 7.66500E+01 3.75577E+01 0.00000E+00
 -1       776 9.16500E+01 3.70100E+01 0.00000E+00
 -1       777 9.46500E+01 3.70100E+01 0.00000E+00
 -1       778 9.76500E+01 3.70100E+01 0.00000E+00
 -1       779 1.00650E+02 3.70100E+01 0.00000E+00
 -1       780 1.03650E+02 3.70100E+01 0.00000E+00
 -1       781 1.06650E+02 3.70100E+01 0.00000E+00
 -1       782 1.09650E+02 3.70100E+01 0.00000E+00
 -1       783 1.12650E+02 3.70100E+01 0.00000E+00
 -1       784 1.15650E+02 3.70100E+01 0.00000E+00
 -1       785 1.18650E+02 3.70100E+01 0.00000E+00
 -1       786 1.21650E+02 3.70100E+01 0.00000E+00
 -1       787 1.24650E+02 3.70100E+01 0.00000E+00
 -1       788 1.27650E+02 3.70100E+01 0.00000E+00
 -1       789 1.30650E+02 3.70100E+01 0.00000E+00
 -1       790 1.33650E+02 3.70100E+01 0.00000E+00
 -1       791 1.36264E+02 3.72320E+01 0.00000E+00
 -1       792 1.37010E+02 2.79500E+01 0.00000E+00
 -1       793 3.40350E+01 1.18003E+01 0.00000E+00
 -1       794 3.10350E+01 1.18003E+01 0.00000E+00
 -1       795 4.00350E+01 1.18003E+01 0.00000E+00
 -1       796 4.30350E+01 1.18003E+01 0.00000E+00
 -1       797 4.60350E+01 1.18003E+01 0.00000E+00
 -1       798 4.90350E+01 1.18003E+01 0.00000E+00
 -1       799 5.20350E+01 1.18003E+01 0.00000E+00
 -1       800 5.50350E+01 1.18003E+01 0.00000E+00
 -1       801 5.80350E+01 1.18003E+01 0.00000E+00
 -1       802 6.10350E+01 1.18003E+01 0.00000E+00
 -1       803 6.40350E+01 1.18003E+01 0.00000E+00
 -1       804 6.70350E+01 1.18003E+01 0.00000E+00
 -1       805 7.00350E+01 1.18003E+01 0.00000E+00
 -1       806 7.30350E+01 1.18003E+01 0.00000E+00
 -1       807 9.40350E+01 1.17552E+01 0.00000E+00
 -1       808 1.00035E+02 1.17552E+01 0.00000E+00
 -1       809 1.03035E+02 1.17552E+01 0.00000E+00
 -1       810 1.06035E+02 1.17552E+01 0.00000E+00
 -1       811 1.09035E+02 1.17552E+01 0.00000E+00
 -1       812 1.12035E+02 1.17552E+01 0.00000E+00
 -1       813 1.15035E+02 1.17552E+01 0.00000E+00
 -1       814 1.18035E+02 1.17552E+01 0.00000E+00
 -1       815 1.21035E+02 1.17552E+01 0.00000E+00
 -1       816 1.24035E+02 1.17552E+01 0.00000E+00
 -1       817 1.27035E+02 1.17552E+01 0.00000E+00
 -1       818 1.30035E+02 1.17552E+01 0.00000E+00
 -1       819 1.33035E+02 1.17552E+01 0.00000E+00
 -1       820 1.29900E+01 2.20250E+01 0.00000E+00
 -1       821 1.37010E+02 3.38250E+01 0.00000E+00
 -1       822 1.37010E+02 2.50000E+01 0.00000E+00
 -1       823 8.40838E+01 3.78974E+01 0.00000E+00
 -1       824 6.78728E+01 2.27895E+01 0.00000E+00
 -1       825 6.88624E+01 2.00458E+01 0.00000E+00
 -1       826 1.36500E+01 3.70100E+01 0.00000E+00
 -1       827 7.01564E+01 3.24223E+01 0.00000E+00
 -1       828 9.73796E+01 2.31671E+01 0.00000E+00
 -1       829 7.24511E+01 3.50291E+01 0.00000E+00
 -1       830 1.90350E+01 1.18003E+01 0.00000E+00
 -1       831 1.37010E+02 3.08875E+01 0.00000E+00
 -1       832 9.70350E+01 1.17552E+01 0.00000E+00
 -1       833 3.70350E+01 1.18003E+01 0.00000E+00
 -1       834 1.01981E+01 3.73352E+01 0.00000E+00
 -1       835 1.37625E+01 1.12011E+01 0.00000E+00
 -1       836 7.00254E+01 1.76680E+01 0.00000E+00
 -1       837 2.20350E+01 1.18003E+01 0.00000E+00
 -1       838 6.81453E+01 2.65665E+01 0.00000E+00
 -1       839 9.71020E+01 2.94480E+01 0.00000E+00
 -1       840 1.66500E+01 3.70100E+01 0.00000E+00
 -1       841 8.87496E+01 1.05912E+01 0.00000E+00
 -1       842 9.10896E+01 1.29616E+01 0.00000E+00
 -1       843 9.57945E+01 3.22722E+01 0.00000E+00
 -1       844 6.88576E+01 2.97568E+01 0.00000E+00
 -1       845 7.55492E+01 1.11063E+01 0.00000E+00
 -1       846 1.29900E+01 2.49750E+01 0.00000E+00
 -1       847 1.29900E+01 1.90875E+01 0.00000E+00
 -1       848 1.37010E+02 1.61875E+01 0.00000E+00
 -1       849 9.79512E+01 2.11517E+01 0.00000E+00
 -1       850 7.41101E+01 3.72733E+01 0.00000E+00
 -1       851 1.29900E+01 3.37938E+01 0.00000E+00
 -1       852 2.50350E+01 1.18003E+01 0.00000E+00
 -1       853 2.80350E+01 1.18003E+01 0.00000E+00
 -1       854 1.35370E+02 1.23391E+01 0.00000E+00
 -1       855 1.37010E+02 1.91375E+01 0.00000E+00
 -1       856 1.37010E+02 2.20688E+01 0.00000E+00
 -1       857 9.70533E+01 1.74398E+01 0.00000E+00
 -1       858 9.50192E+01 1.44227E+01 0.00000E+00
 -1       859 6.64368E+01 2.47716E+01 0.00000E+00
 -1       860 6.99167E+01 1.55512E+01 0.00000E+00
 -1       861 1.36940E+02 1.29643E+01 0.00000E+00
 -1       862 1.29900E+01 3.08563E+01 0.00000E+00
 -1       863 1.29900E+01 1.61437E+01 0.00000E+00
 -1       864 9.83384E+01 2.79483E+01 0.00000E+00
 -1       865 9.40291E+01 3.54797E+01 0.00000E+00
 -1       866 1.36637E+02 3.55285E+01 0.00000E+00
 -1       867 1.63988E+01 1.15007E+01 0.00000E+00
 -1       868 6.63369E+01 2.86450E+01 0.00000E+00
 -1       869 2.41500E+01 3.44120E+01 0.00000E+00
 -1       870 2.71500E+01 3.44120E+01 0.00000E+00
 -1       871 3.01500E+01 3.44120E+01 0.00000E+00
 -1       872 3.31500E+01 3.44120E+01 0.00000E+00
 -1       873 3.61500E+01 3.44120E+01 0.00000E+00
 -1       874 3.91500E+01 3.44120E+01 0.00000E+00
 -1       875 4.21500E+01 3.44120E+01 0.00000E+00
 -1       876 4.51500E+01 3.44120E+01 0.00000E+00
 -1       877 4.81500E+01 3.44120E+01 0.00000E+00
 -1       878 5.11500E+01 3.44120E+01 0.00000E+00
 -1       879 5.41500E+01 3.44120E+01 0.00000E+00
 -1       880 5.71500E+01 3.44120E+01 0.00000E+00
 -1       881 6.01500E+01 3.44120E+01 0.00000E+00
 -1       882 6.31500E+01 3.44120E+01 0.00000E+00
 -1       883 6.61500E+01 3.44120E+01 0.00000E+00
 -1       884 9.86129E+01 3.18623E+01 0.00000E+00
 -1       885 6.74516E+01 1.78824E+01 0.00000E+00
 -1       886 9.91500E+01 3.44120E+01 0.00000E+00
 -1       887 1.02150E+02 3.44120E+01 0.00000E+00
 -1       888 1.05150E+02 3.44120E+01 0.00000E+00
 -1       889 1.08150E+02 3.44120E+01 0.00000E+00
 -1       890 1.11150E+02 3.44120E+01 0.00000E+00
 -1       891 1.14150E+02 3.44120E+01 0.00000E+00
 -1       892 1.17150E+02 3.44120E+01 0.00000E+00
 -1       893 1.20150E+02 3.44120E+01 0.00000E+00
 -1       894 1.23150E+02 3.44120E+01 0.00000E+00
 -1       895 1.26150E+02 3.44120E+01 0.00000E+00
 -1       896 1.29150E+02 3.44120E+01 0.00000E+00
 -1       897 1.32150E+02 3.44120E+01 0.00000E+00
 -1       898 4.45350E+01 1.43982E+01 0.00000E+00
 -1       899 4.15350E+01 1.43982E+01 0.00000E+00
 -1       900 5.05350E+01 1.43982E+01 0.00000E+00
 -1       901 5.35350E+01 1.43982E+01 0.00000E+00
 -1       902 5.65350E+01 1.43982E+01 0.00000E+00
 -1       903 5.95350E+01 1.43982E+01 0.00000E+00
 -1       904 6.25350E+01 1.43982E+01 0.00000E+00
 -1       905 6.55350E+01 1.43982E+01 0.00000E+00
 -1       906 1.01535E+02 1.43532E+01 0.00000E+00
 -1       907 1.10535E+02 1.43532E+01 0.00000E+00
 -1       908 1.13535E+02 1.43532E+01 0.00000E+00
 -1       909 1.16535E+02 1.43532E+01 0.00000E+00
 -1       910 1.19535E+02 1.43532E+01 0.00000E+00
 -1       911 1.22535E+02 1.43532E+01 0.00000E+00
 -1       912 1.25535E+02 1.43532E+01 0.00000E+00
 -1       913 1.28535E+02 1.43532E+01 0.00000E+00
 -1       914 1.31535E+02 1.43532E+01 0.00000E+00
 -1       915 6.64390E+01 2.07221E+01 0.00000E+00
 -1       916 1.34412E+02 2.64750E+01 0.00000E+00
 -1       917 1.51500E+01 3.44120E+01 0.00000E+00
 -1       918 1.07535E+02 1.43532E+01 0.00000E+00
 -1       919 1.04535E+02 1.43532E+01 0.00000E+00
 -1       920 9.91330E+01 2.49797E+01 0.00000E+00
 -1       921 2.05350E+01 1.43982E+01 0.00000E+00
 -1       922 4.75350E+01 1.43982E+01 0.00000E+00
 -1       923 1.29900E+01 2.79188E+01 0.00000E+00
 -1       924 9.69983E+01 1.51715E+01 0.00000E+00
 -1       925 3.25350E+01 1.43982E+01 0.00000E+00
 -1       926 9.67222E+01 3.46411E+01 0.00000E+00
 -1       927 1.81500E+01 3.44120E+01 0.00000E+00
 -1       928 2.11500E+01 3.44120E+01 0.00000E+00
 -1       929 6.62435E+01 3.15285E+01 0.00000E+00
 -1       930 1.34412E+02 3.23563E+01 0.00000E+00
 -1       931 9.86156E+01 1.89346E+01 0.00000E+00
 -1       932 9.97046E+01 2.29643E+01 0.00000E+00
 -1       933 9.98493E+01 3.03625E+01 0.00000E+00
 -1       934 1.75351E+01 1.43983E+01 0.00000E+00
 -1       935 1.34394E+02 3.49702E+01 0.00000E+00
 -1       936 2.35350E+01 1.43982E+01 0.00000E+00
 -1       937 2.95350E+01 1.43982E+01 0.00000E+00
 -1       938 3.85350E+01 1.43982E+01 0.00000E+00
 -1       939 1.55880E+01 2.35000E+01 0.00000E+00
 -1       940 3.55350E+01 1.43982E+01 0.00000E+00
 -1       941 1.33870E+02 1.49371E+01 0.00000E+00
 -1       942 6.50030E+01 2.27042E+01 0.00000E+00
 -1       943 1.34412E+02 2.94125E+01 0.00000E+00
 -1       944 1.34412E+02 1.76625E+01 0.00000E+00
 -1       945 1.55880E+01 2.05625E+01 0.00000E+00
 -1       946 1.34412E+02 2.35438E+01 0.00000E+00
 -1       947 6.46285E+01 2.68501E+01 0.00000E+00
 -1       948 1.55880E+01 1.46719E+01 0.00000E+00
 -1       949 1.51500E+01 3.14745E+01 0.00000E+00
 -1       950 2.56500E+01 3.18140E+01 0.00000E+00
 -1       951 1.55880E+01 1.76156E+01 0.00000E+00
 -1       952 2.86500E+01 3.18140E+01 0.00000E+00
 -1       953 3.16500E+01 3.18140E+01 0.00000E+00
 -1       954 3.46500E+01 3.18140E+01 0.00000E+00
 -1       955 3.76500E+01 3.18140E+01 0.00000E+00
 -1       956 4.06500E+01 3.18140E+01 0.00000E+00
 -1       957 4.36500E+01 3.18140E+01 0.00000E+00
 -1       958 4.66500E+01 3.18140E+01 0.00000E+00
 -1       959 4.96500E+01 3.18140E+01 0.00000E+00
 -1       960 5.26500E+01 3.18140E+01 0.00000E+00
 -1       961 5.56500E+01 3.18140E+01 0.00000E+00
 -1       962 5.86500E+01 3.18140E+01 0.00000E+00
 -1       963 6.16500E+01 3.18140E+01 0.00000E+00
 -1       964 6.39467E+01 3.16712E+01 0.00000E+00
 -1       965 1.90351E+01 1.69963E+01 0.00000E+00
 -1       966 5.80350E+01 1.69963E+01 0.00000E+00
 -1       967 1.03650E+02 3.18140E+01 0.00000E+00
 -1       968 1.06650E+02 3.18140E+01 0.00000E+00
 -1       969 1.09650E+02 3.18140E+01 0.00000E+00
 -1       970 1.12650E+02 3.18140E+01 0.00000E+00
 -1       971 1.15650E+02 3.18140E+01 0.00000E+00
 -1       972 1.18650E+02 3.18140E+01 0.00000E+00
 -1       973 1.21650E+02 3.18140E+01 0.00000E+00
 -1       974 1.24650E+02 3.18140E+01 0.00000E+00
 -1       975 1.27650E+02 3.18140E+01 0.00000E+00
 -1       976 1.30650E+02 3.18140E+01 0.00000E+00
 -1       977 5.50350E+01 1.69963E+01 0.00000E+00
 -1       978 5.20350E+01 1.69963E+01 0.00000E+00
 -1       979 6.10350E+01 1.69963E+01 0.00000E+00
 -1       980 6.42433E+01 1.74393E+01 0.00000E+00
 -1       981 2.65350E+01 1.43982E+01 0.00000E+00
 -1       982 1.01202E+02 2.71241E+01 0.00000E+00
 -1       983 1.09035E+02 1.69512E+01 0.00000E+00
 -1       984 1.18035E+02 1.69512E+01 0.00000E+00
 -1       985 1.55880E+01 2.64438E+01 0.00000E+00
 -1       986 1.53690E+01 2.89591E+01 0.00000E+00
 -1       987 1.03035E+02 1.69512E+01 0.00000E+00
 -1       988 1.12035E+02 1.69512E+01 0.00000E+00
 -1       989 1.21035E+02 1.69512E+01 0.00000E+00
 -1       990 1.24035E+02 1.69512E+01 0.00000E+00
 -1       991 1.27035E+02 1.69512E+01 0.00000E+00
 -1       992 1.30035E+02 1.69512E+01 0.00000E+00
 -1       993 1.34412E+02 2.05938E+01 0.00000E+00
 -1       994 2.26500E+01 3.18140E+01 0.00000E+00
 -1       995 1.00044E+02 1.71955E+01 0.00000E+00
 -1       996 1.32223E+02 1.73069E+01 0.00000E+00
 -1       997 4.30350E+01 1.69963E+01 0.00000E+00
 -1       998 1.01000E+02 3.23872E+01 0.00000E+00
 -1       999 1.73115E+01 1.73059E+01 0.00000E+00
 -1      1000 1.96500E+01 3.18140E+01 0.00000E+00
 -1      1001 1.15035E+02 1.69512E+01 0.00000E+00
 -1      1002 1.06035E+02 1.69512E+01 0.00000E+00
 -1      1003 1.00369E+02 2.07472E+01 0.00000E+00
 -1      1004 6.42876E+01 2.92607E+01 0.00000E+00
 -1      1005 1.81860E+01 2.49719E+01 0.00000E+00
 -1      1006 3.10350E+01 1.69963E+01 0.00000E+00
 -1      1007 4.00350E+01 1.69963E+01 0.00000E+00
 -1      1008 1.01773E+02 2.51087E+01 0.00000E+00
 -1      1009 3.40350E+01 1.69963E+01 0.00000E+00
 -1      1010 1.32223E+02 2.02381E+01 0.00000E+00
 -1      1011 4.60350E+01 1.69963E+01 0.00000E+00
 -1      1012 6.31946E+01 2.47827E+01 0.00000E+00
 -1      1013 6.30190E+01 1.98502E+01 0.00000E+00
 -1      1014 1.81860E+01 2.20344E+01 0.00000E+00
 -1      1015 1.31814E+02 2.50094E+01 0.00000E+00
 -1      1016 1.31814E+02 2.79469E+01 0.00000E+00
 -1      1017 4.90350E+01 1.69963E+01 0.00000E+00
 -1      1018 2.20351E+01 1.69963E+01 0.00000E+00
 -1      1019 1.02500E+02 2.97893E+01 0.00000E+00
 -1      1020 1.01606E+02 1.86903E+01 0.00000E+00
 -1      1021 2.71500E+01 2.92160E+01 0.00000E+00
 -1      1022 3.01500E+01 2.92160E+01 0.00000E+00
 -1      1023 3.31500E+01 2.92160E+01 0.00000E+00
 -1      1024 3.61500E+01 2.92160E+01 0.00000E+00
 -1      1025 3.91500E+01 2.92160E+01 0.00000E+00
 -1      1026 4.21500E+01 2.92160E+01 0.00000E+00
 -1      1027 4.51500E+01 2.92160E+01 0.00000E+00
 -1      1028 4.81500E+01 2.92160E+01 0.00000E+00
 -1      1029 5.11500E+01 2.92160E+01 0.00000E+00
 -1      1030 5.41500E+01 2.92160E+01 0.00000E+00
 -1      1031 5.71500E+01 2.92160E+01 0.00000E+00
 -1      1032 6.01500E+01 2.92160E+01 0.00000E+00
 -1      1033 2.50351E+01 1.69963E+01 0.00000E+00
 -1      1034 1.05500E+02 2.97893E+01 0.00000E+00
 -1      1035 2.11500E+01 2.92160E+01 0.00000E+00
 -1      1036 1.08500E+02 2.97893E+01 0.00000E+00
 -1      1037 1.11500E+02 2.97893E+01 0.00000E+00
 -1      1038 1.14500E+02 2.97893E+01 0.00000E+00
 -1      1039 1.17500E+02 2.97893E+01 0.00000E+00
 -1      1040 1.20500E+02 2.97893E+01 0.00000E+00
 -1      1041 1.23500E+02 2.97893E+01 0.00000E+00
 -1      1042 1.26500E+02 2.97893E+01 0.00000E+00
 -1      1043 1.29500E+02 2.97893E+01 0.00000E+00
 -1      1044 5.65350E+01 1.95942E+01 0.00000E+00
 -1      1045 1.82595E+01 2.90876E+01 0.00000E+00
 -1      1046 5.35350E+01 1.95942E+01 0.00000E+00
 -1      1047 2.80350E+01 1.69963E+01 0.00000E+00
 -1      1048 1.19535E+02 1.95492E+01 0.00000E+00
 -1      1049 3.70350E+01 1.69963E+01 0.00000E+00
 -1      1050 1.22535E+02 1.95492E+01 0.00000E+00
 -1      1051 1.10535E+02 1.95492E+01 0.00000E+00
 -1      1052 1.25535E+02 1.95492E+01 0.00000E+00
 -1      1053 1.28535E+02 1.95492E+01 0.00000E+00
 -1      1054 1.04535E+02 1.95492E+01 0.00000E+00
 -1      1055 1.77488E+01 1.96702E+01 0.00000E+00
 -1      1056 2.41500E+01 2.92160E+01 0.00000E+00
 -1      1057 1.13535E+02 1.95492E+01 0.00000E+00
 -1      1058 1.32019E+02 2.26237E+01 0.00000E+00
 -1      1059 5.05350E+01 1.95942E+01 0.00000E+00
 -1      1060 1.30379E+02 1.98937E+01 0.00000E+00
 -1      1061 1.16535E+02 1.95492E+01 0.00000E+00
 -1      1062 5.95350E+01 1.95942E+01 0.00000E+00
 -1      1063 1.07535E+02 1.95492E+01 0.00000E+00
 -1      1064 6.19302E+01 2.76979E+01 0.00000E+00
 -1      1065 4.75350E+01 1.95942E+01 0.00000E+00
 -1      1066 2.95350E+01 1.95943E+01 0.00000E+00
 -1      1067 1.02438E+02 2.28915E+01 0.00000E+00
 -1      1068 1.03987E+02 2.68253E+01 0.00000E+00
 -1      1069 2.07488E+01 1.96702E+01 0.00000E+00
 -1      1070 3.25350E+01 1.95943E+01 0.00000E+00
 -1      1071 1.29216E+02 2.64781E+01 0.00000E+00
 -1      1072 4.45350E+01 1.95942E+01 0.00000E+00
 -1      1073 4.15350E+01 1.95942E+01 0.00000E+00
 -1      1074 1.29421E+02 2.40925E+01 0.00000E+00
 -1      1075 2.10765E+01 2.51003E+01 0.00000E+00
 -1      1076 1.12035E+02 2.21472E+01 0.00000E+00
 -1      1077 3.16500E+01 2.66180E+01 0.00000E+00
 -1      1078 3.46500E+01 2.66180E+01 0.00000E+00
 -1      1079 3.76500E+01 2.66180E+01 0.00000E+00
 -1      1080 4.06500E+01 2.66180E+01 0.00000E+00
 -1      1081 4.36500E+01 2.66180E+01 0.00000E+00
 -1      1082 4.66500E+01 2.66180E+01 0.00000E+00
 -1      1083 4.96500E+01 2.66180E+01 0.00000E+00
 -1      1084 5.26500E+01 2.66180E+01 0.00000E+00
 -1      1085 5.56500E+01 2.66180E+01 0.00000E+00
 -1      1086 5.86500E+01 2.66180E+01 0.00000E+00
 -1      1087 1.03486E+02 2.12204E+01 0.00000E+00
 -1      1088 5.50350E+01 2.21922E+01 0.00000E+00
 -1      1089 2.65351E+01 1.95943E+01 0.00000E+00
 -1      1090 1.10000E+02 2.71913E+01 0.00000E+00
 -1      1091 1.13000E+02 2.71913E+01 0.00000E+00
 -1      1092 1.16000E+02 2.71913E+01 0.00000E+00
 -1      1093 1.19000E+02 2.71913E+01 0.00000E+00
 -1      1094 1.22000E+02 2.71913E+01 0.00000E+00
 -1      1095 1.25000E+02 2.71913E+01 0.00000E+00
 -1      1096 1.21035E+02 2.21472E+01 0.00000E+00
 -1      1097 2.40765E+01 2.51003E+01 0.00000E+00
 -1      1098 2.36419E+01 1.96322E+01 0.00000E+00
 -1      1099 1.06993E+02 2.70083E+01 0.00000E+00
 -1      1100 1.27035E+02 2.21472E+01 0.00000E+00
 -1      1101 1.29900E+02 2.19931E+01 0.00000E+00
 -1      1102 5.20350E+01 2.21922E+01 0.00000E+00
 -1      1103 1.04651E+02 2.46081E+01 0.00000E+00
 -1      1104 1.24035E+02 2.21472E+01 0.00000E+00
 -1      1105 1.18035E+02 2.21472E+01 0.00000E+00
 -1      1106 6.20523E+01 2.26388E+01 0.00000E+00
 -1      1107 1.15035E+02 2.21472E+01 0.00000E+00
 -1      1108 2.15216E+01 2.17852E+01 0.00000E+00
 -1      1109 1.06486E+02 2.12204E+01 0.00000E+00
 -1      1110 2.86500E+01 2.66180E+01 0.00000E+00
 -1      1111 5.80350E+01 2.21922E+01 0.00000E+00
 -1      1112 2.63633E+01 2.58592E+01 0.00000E+00
 -1      1113 1.09035E+02 2.21472E+01 0.00000E+00
 -1      1114 5.99826E+01 2.49451E+01 0.00000E+00
 -1      1115 4.90350E+01 2.21922E+01 0.00000E+00
 -1      1116 3.85350E+01 1.95942E+01 0.00000E+00
 -1      1117 2.80350E+01 2.21923E+01 0.00000E+00
 -1      1118 1.25204E+02 2.48056E+01 0.00000E+00
 -1      1119 3.55350E+01 1.95943E+01 0.00000E+00
 -1      1120 4.60350E+01 2.21922E+01 0.00000E+00
 -1      1121 4.30350E+01 2.21922E+01 0.00000E+00
 -1      1122 3.10350E+01 2.21923E+01 0.00000E+00
 -1      1123 5.68425E+01 2.44051E+01 0.00000E+00
 -1      1124 1.05569E+02 2.29142E+01 0.00000E+00
 -1      1125 3.61500E+01 2.40200E+01 0.00000E+00
 -1      1126 3.91500E+01 2.40200E+01 0.00000E+00
 -1      1127 1.11500E+02 2.45933E+01 0.00000E+00
 -1      1128 1.08076E+02 2.46007E+01 0.00000E+00
 -1      1129 3.35925E+01 2.31061E+01 0.00000E+00
 -1      1130 2.50026E+01 2.27457E+01 0.00000E+00
 -1      1131 0.00000E+00 4.85250E+01 0.00000E+00
 -1      1132 0.00000E+00 4.55750E+01 0.00000E+00
 -1      1133 0.00000E+00 4.26250E+01 0.00000E+00
 -1      1134 0.00000E+00 3.96750E+01 0.00000E+00
 -1      1135 0.00000E+00 3.67250E+01 0.00000E+00
 -1      1136 0.00000E+00 3.38000E+01 0.00000E+00
 -1      1137 0.00000E+00 3.08750E+01 0.00000E+00
 -1      1138 0.00000E+00 2.79250E+01 0.00000E+00
 -1      1139 0.00000E+00 2.49750E+01 0.00000E+00
 -1      1140 0.00000E+00 2.20250E+01 0.00000E+00
 -1      1141 0.00000E+00 1.90750E+01 0.00000E+00
 -1      1142 0.00000E+00 1.61500E+01 0.00000E+00
 -1      1143 0.00000E+00 1.32250E+01 0.00000E+00
 -1      1144 0.00000E+00 1.02750E+01 0.00000E+00
 -1      1145 0.00000E+00 7.32500E+00 0.00000E+00
 -1      1146 0.00000E+00 4.37500E+00 0.00000E+00
 -1      1147 0.00000E+00 1.45000E+00 0.00000E+00
 -1      1148 1.57500E+00 5.00000E+01 0.00000E+00
 -1      1149 4.65000E+00 5.00000E+01 0.00000E+00
 -1      1150 7.65000E+00 5.00000E+01 0.00000E+00
 -1      1151 1.06500E+01 5.00000E+01 0.00000E+00
 -1      1152 1.36500E+01 5.00000E+01 0.00000E+00
 -1      1153 1.66500E+01 5.00000E+01 0.00000E+00
 -1      1154 1.96500E+01 5.00000E+01 0.00000E+00
 -1      1155 2.26500E+01 5.00000E+01 0.00000E+00
 -1      1156 2.56500E+01 5.00000E+01 0.00000E+00
 -1      1157 2.86500E+01 5.00000E+01 0.00000E+00
 -1      1158 3.16500E+01 5.00000E+01 0.00000E+00
 -1      1159 3.46500E+01 5.00000E+01 0.00000E+00
 -1      1160 3.76500E+01 5.00000E+01 0.00000E+00
 -1      1161 4.06500E+01 5.00000E+01 0.00000E+00
 -1      1162 4.36500E+01 5.00000E+01 0.00000E+00
 -1      1163 4.66500E+01 5.00000E+01 0.00000E+00
 -1      1164 4.96500E+01 5.00000E+01 0.00000E+00
 -1      1165 5.26500E+01 5.00000E+01 0.00000E+00
 -1      1166 5.56500E+01 5.00000E+01 0.00000E+00
 -1      1167 5.86500E+01 5.00000E+01 0.00000E+00
 -1      1168 6.16500E+01 5.00000E+01 0.00000E+00
 -1      1169 6.46500E+01 5.00000E+01 0.00000E+00
 -1      1170 6.76500E+01 5.00000E+01 0.00000E+00
 -1      1171 7.06500E+01 5.00000E+01 0.00000E+00
 -1      1172 7.36500E+01 5.00000E+01 0.00000E+00
 -1      1173 7.66500E+01 5.00000E+01 0.00000E+00
 -1      1174 7.96500E+01 5.00000E+01 0.00000E+00
 -1      1175 8.26500E+01 5.00000E+01 0.00000E+00
 -1      1176 8.56500E+01 5.00000E+01 0.00000E+00
 -1      1177 8.86500E+01 5.00000E+01 0.00000E+00
 -1      1178 9.16500E+01 5.00000E+01 0.00000E+00
 -1      1179 9.46500E+01 5.00000E+01 0.00000E+00
 -1      1180 9.76500E+01 5.00000E+01 0.00000E+00
 -1      1181 1.00650E+02 5.00000E+01 0.00000E+00
 -1      1182 1.03650E+02 5.00000E+01 0.00000E+00
 -1      1183 1.06650E+02 5.00000E+01 0.00000E+00
 -1      1184 1.09650E+02 5.00000E+01 0.00000E+00
 -1      1185 1.12650E+02 5.00000E+01 0.00000E+00
 -1      1186 1.15650E+02 5.00000E+01 0.00000E+00
 -1      1187 1.18650E+02 5.00000E+01 0.00000E+00
 -1      1188 1.21650E+02 5.00000E+01 0.00000E+00
 -1      1189 1.24650E+02 5.00000E+01 0.00000E+00
 -1      1190 1.27650E+02 5.00000E+01 0.00000E+00
 -1      1191 1.30650E+02 5.00000E+01 0.00000E+00
 -1      1192 1.33650E+02 5.00000E+01 0.00000E+00
 -1      1193 1.36650E+02 5.00000E+01 0.00000E+00
 -1      1194 1.39650E+02 5.00000E+01 0.00000E+00
 -1      1195 1.42650E+02 5.00000E+01 0.00000E+00
 -1      1196 1.45650E+02 5.00000E+01 0.00000E+00
 -1      1197 1.48575E+02 5.00000E+01 0.00000E+00
 -1      1198 1.57500E+00 0.00000E+00 0.00000E+00
 -1      1199 4.65000E+00 0.00000E+00 0.00000E+00
 -1      1200 7.65000E+00 0.00000E+00 0.00000E+00
 -1      1201 1.06500E+01 0.00000E+00 0.00000E+00
 -1      1202 1.36500E+01 0.00000E+00 0.00000E+00
 -1      1203 1.66500E+01 0.00000E+00 0.00000E+00
 -1      1204 1.96500E+01 0.00000E+00 0.00000E+00
 -1      1205 2.26500E+01 0.00000E+00 0.00000E+00
 -1      1206 2.56500E+01 0.00000E+00 0.00000E+00
 -1      1207 2.86500E+01 0.00000E+00 0.00000E+00
 -1      1208 3.16500E+01 0.00000E+00 0.00000E+00
 -1      1209 3.46500E+01 0.00000E+00 0.00000E+00
 -1      1210 3.76500E+01 0.00000E+00 0.00000E+00
 -1      1211 4.06500E+01 0.00000E+00 0.00000E+00
 -1      1212 4.36500E+01 0.00000E+00 0.00000E+00
 -1      1213 4.66500E+01 0.00000E+00 0.00000E+00
 -1      1214 4.96500E+01 0.00000E+00 0.00000E+00
 -1      1215 5.26500E+01 0.00000E+00 0.00000E+00
 -1      1216 5.56500E+01 0.00000E+00 0.00000E+00
 -1      1217 5.86500E+01 0.00000E+00 0.00000E+00
 -1      1218 6.16500E+01 0.00000E+00 0.00000E+00
 -1      1219 6.46500E+01 0.00000E+00 0.00000E+00
 -1      1220 6.76500E+01 0.00000E+00 0.00000E+00
 -1      1221 7.06500E+01 0.00000E+00 0.00000E+00
 -1      1222 7.36500E+01 0.00000E+00 0.00000E+00
 -1      1223 7.66500E+01 0.00000E+00 0.00000E+00
 -1      1224 7.96500E+01 0.00000E+00 0.00000E+00
 -1      1225 8.26500E+01 0.00000E+00 0.00000E+00
 -1      1226 8.56500E+01 0.00000E+00 0.00000E+00
 -1      1227 8.86500E+01 0.00000E+00 0.00000E+00
 -1      1228 9.16500E+01 0.00000E+00 0.00000E+00
 -1      1229 9.46500E+01 0.00000E+00 0.00000E+00
 -1      1230 9.76500E+01 0.00000E+00 0.00000E+00
 -1      1231 1.00650E+02 0.00000E+00 0.00000E+00
 -1      1232 1.03650E+02 0.00000E+00 0.00000E+00
 -1      1233 1.06650E+02 0.00000E+00 0.00000E+00
 -1      1234 1.09650E+02 0.00000E+00 0.00000E+00
 -1      1235 1.12650E+02 0.00000E+00 0.00000E+00
 -1      1236 1.15650E+02 0.00000E+00 0.00000E+00
 -1      1237 1.18650E+02 0.00000E+00 0.00000E+00
 -1      1238 1.21650E+02 0.00000E+00 0.00000E+00
 -1      1239 1.24650E+02 0.00000E+00 0.00000E+00
 -1      1240 1.27650E+02 0.00000E+00 0.00000E+00
 -1      1241 1.30650E+02 0.00000E+00 0.00000E+00
 -1      1242 1.33650E+02 0.00000E+00 0.00000E+00
 -1      1243 1.36650E+02 0.00000E+00 0.00000E+00
 -1      1244 1.39650E+02 0.00000E+00 0.00000E+00
 -1      1245 1.42650E+02 0.00000E+00 0.00000E+00
 -1      1246 1.45650E+02 0.00000E+00 0.00000E+00
 -1      1247 1.48575E+02 0.00000E+00 0.00000E+00
 -1      1248 1.50000E+02 1.47500E+00 0.00000E+00
 -1      1249 1.50000E+02 4.42500E+00 0.00000E+00
 -1      1250 1.50000E+02 7.37500E+00 0.00000E+00
 -1      1251 1.50000E+02 1.03250E+01 0.00000E+00
 -1      1252 1.50000E+02 1.32750E+01 0.00000E+00
 -1      1253 1.50000E+02 1.62000E+01 0.00000E+00
 -1      1254 1.50000E+02 1.91250E+01 0.00000E+00
 -1      1255 1.50000E+02 2.20750E+01 0.00000E+00
 -1      1256 1.50000E+02 2.50250E+01 0.00000E+00
 -1      1257 1.50000E+02 2.79750E+01 0.00000E+00
 -1      1258 1.50000E+02 3.09250E+01 0.00000E+00
 -1      1259 1.50000E+02 3.38500E+01 0.00000E+00
 -1      1260 1.50000E+02 3.67750E+01 0.00000E+00
 -1      1261 1.50000E+02 3.97250E+01 0.00000E+00
 -1      1262 1.50000E+02 4.26750E+01 0.00000E+00
 -1      1263 1.50000E+02 4.56250E+01 0.00000E+00
 -1      1264 1.50000E+02 4.85500E+01 0.00000E+00
 -1      1265 8.99082E+01 2.34677E+01 0.00000E+00
 -1      1266 8.95781E+01 2.19931E+01 0.00000E+00
 -1      1267 8.89262E+01 2.06021E+01 0.00000E+00
 -1      1268 8.80076E+01 1.94088E+01 0.00000E+00
 -1      1269 8.68443E+01 1.84323E+01 0.00000E+00
 -1      1270 8.55014E+01 1.77312E+01 0.00000E+00
 -1      1271 8.41319E+01 1.73506E+01 0.00000E+00
 -1      1272 8.26905E+01 1.72553E+01 0.00000E+00
 -1      1273 8.12514E+01 1.74602E+01 0.00000E+00
 -1      1274 7.98889E+01 1.79562E+01 0.00000E+00
 -1      1275 7.86733E+01 1.87104E+01 0.00000E+00
 -1      1276 7.76136E+01 1.97227E+01 0.00000E+00
 -1      1277 7.67784E+01 2.09511E+01 0.00000E+00
 -1      1278 7.62164E+01 2.23452E+01 0.00000E+00
 -1      1279 7.59666E+01 2.38005E+01 0.00000E+00
 -1      1280 7.60282E+01 2.52799E+01 0.00000E+00
 -1      1281 7.63970E+01 2.67063E+01 0.00000E+00
 -1      1282 7.70541E+01 2.80205E+01 0.00000E+00
 -1      1283 7.79819E+01 2.91797E+01 0.00000E+00
 -1      1284 7.91696E+01 3.01405E+01 0.00000E+00
 -1      1285 8.06473E+01 3.08601E+01 0.00000E+00
 -1      1286 8.21966E+01 3.12095E+01 0.00000E+00
 -1      1287 8.37166E+01 3.12086E+01 0.00000E+00
 -1      1288 8.52356E+01 3.08675E+01 0.00000E+00
 -1      1289 8.66656E+01 3.01842E+01 0.00000E+00
 -1      1290 8.78749E+01 2.92270E+01 0.00000E+00
 -1      1291 8.88388E+01 2.80382E+01 0.00000E+00
 -1      1292 8.95338E+01 2.66340E+01 0.00000E+00
 -1      1293 8.99038E+01 2.50716E+01 0.00000E+00
 -1      1294 1.57500E+00 4.85250E+01 0.00000E+00
 -1      1295 1.29900E+00 4.48375E+01 0.00000E+00
 -1      1296 1.29900E+00 4.63125E+01 0.00000E+00
 -1      1297 1.29900E+00 4.18875E+01 0.00000E+00
 -1      1298 1.29900E+00 4.33625E+01 0.00000E+00
 -1      1299 2.59800E+00 4.41000E+01 0.00000E+00
 -1      1300 1.29900E+00 3.89375E+01 0.00000E+00
 -1      1301 1.29900E+00 4.04125E+01 0.00000E+00
 -1      1302 2.59800E+00 4.11500E+01 0.00000E+00
 -1      1303 1.29900E+00 3.59875E+01 0.00000E+00
 -1      1304 1.29900E+00 3.74625E+01 0.00000E+00
 -1      1305 2.59800E+00 3.82000E+01 0.00000E+00
 -1      1306 1.29900E+00 3.30875E+01 0.00000E+00
 -1      1307 1.29900E+00 3.45375E+01 0.00000E+00
 -1      1308 2.59800E+00 3.52750E+01 0.00000E+00
 -1      1309 1.29900E+00 3.01375E+01 0.00000E+00
 -1      1310 1.29900E+00 3.16125E+01 0.00000E+00
 -1      1311 2.59800E+00 3.23500E+01 0.00000E+00
 -1      1312 1.29900E+00 2.71875E+01 0.00000E+00
 -1      1313 1.29900E+00 2.86625E+01 0.00000E+00
 -1      1314 2.59800E+00 2.94000E+01 0.00000E+00
 -1      1315 1.29900E+00 2.42375E+01 0.00000E+00
 -1      1316 1.29900E+00 2.57125E+01 0.00000E+00
 -1      1317 2.59800E+00 2.64500E+01 0.00000E+00
 -1      1318 1.29900E+00 2.12875E+01 0.00000E+00
 -1      1319 1.29900E+00 2.27625E+01 0.00000E+00
 -1      1320 2.59800E+00 2.35000E+01 0.00000E+00
 -1      1321 1.29900E+00 1.83375E+01 0.00000E+00
 -1      1322 1.29900E+00 1.98125E+01 0.00000E+00
 -1      1323 2.59800E+00 2.05500E+01 0.00000E+00
 -1      1324 1.29900E+00 1.54375E+01 0.00000E+00
 -1      1325 1.29900E+00 1.68875E+01 0.00000E+00
 -1      1326 2.59800E+00 1.76250E+01 0.00000E+00
 -1      1327 1.29900E+00 1.24875E+01 0.00000E+00
 -1      1328 1.29900E+00 1.39625E+01 0.00000E+00
 -1      1329 2.59800E+00 1.47000E+01 0.00000E+00
 -1      1330 1.29900E+00 9.53750E+00 0.00000E+00
 -1      1331 1.29900E+00 1.10125E+01 0.00000E+00
 -1      1332 2.59800E+00 1.17500E+01 0.00000E+00
 -1      1333 1.29900E+00 6.58750E+00 0.00000E+00
 -1      1334 1.29900E+00 8.06250E+00 0.00000E+00
 -1      1335 2.59800E+00 8.80000E+00 0.00000E+00
 -1      1336 1.29900E+00 3.63750E+00 0.00000E+00
 -1      1337 1.29900E+00 5.11250E+00 0.00000E+00
 -1      1338 2.59800E+00 5.85000E+00 0.00000E+00
 -1      1339 1.43700E+00 1.09375E+00 0.00000E+00
 -1      1340 1.43700E+00 2.54375E+00 0.00000E+00
 -1      1341 2.73600E+00 3.28125E+00 0.00000E+00
 -1      1342 3.01200E+00 1.09375E+00 0.00000E+00
 -1      1343 3.90000E+00 4.87010E+01 0.00000E+00
 -1      1344 5.40000E+00 4.87010E+01 0.00000E+00
 -1      1345 6.90000E+00 4.87010E+01 0.00000E+00
 -1      1346 8.40000E+00 4.87010E+01 0.00000E+00
 -1      1347 6.15000E+00 4.74020E+01 0.00000E+00
 -1      1348 9.90000E+00 4.87010E+01 0.00000E+00
 -1      1349 1.14000E+01 4.87010E+01 0.00000E+00
 -1      1350 9.15000E+00 4.74020E+01 0.00000E+00
 -1      1351 1.29000E+01 4.87010E+01 0.00000E+00
 -1      1352 1.44000E+01 4.87010E+01 0.00000E+00
 -1      1353 1.21500E+01 4.74020E+01 0.00000E+00
 -1      1354 1.59000E+01 4.87010E+01 0.00000E+00
 -1      1355 1.74000E+01 4.87010E+01 0.00000E+00
 -1      1356 1.51500E+01 4.74020E+01 0.00000E+00
 -1      1357 1.89000E+01 4.87010E+01 0.00000E+00
 -1      1358 2.04000E+01 4.87010E+01 0.00000E+00
 -1      1359 1.81500E+01 4.74020E+01 0.00000E+00
 -1      1360 2.19000E+01 4.87010E+01 0.00000E+00
 -1      1361 2.34000E+01 4.87010E+01 0.00000E+00
 -1      1362 2.11500E+01 4.74020E+01 0.00000E+00
 -1      1363 2.49000E+01 4.87010E+01 0.00000E+00
 -1      1364 2.64000E+01 4.87010E+01 0.00000E+00
 -1      1365 2.41500E+01 4.74020E+01 0.00000E+00
 -1      1366 2.79000E+01 4.87010E+01 0.00000E+00
 -1      1367 2.94000E+01 4.87010E+01 0.00000E+00
 -1      1368 2.71500E+01 4.74020E+01 0.00000E+00
 -1      1369 3.09000E+01 4.87010E+01 0.00000E+00
 -1      1370 3.24000E+01 4.87010E+01 0.00000E+00
 -1      1371 3.01500E+01 4.74020E+01 0.00000E+00
 -1      1372 3.39000E+01 4.87010E+01 0.00000E+00
 -1      1373 3.54000E+01 4.87010E+01 0.00000E+00
 -1      1374 3.31500E+01 4.74020E+01 0.00000E+00
 -1      1375 3.69000E+01 4.87010E+01 0.00000E+00
 -1      1376 3.84000E+01 4.87010E+01 0.00000E+00
 -1      1377 3.61500E+01 4.74020E+01 0.00000E+00
 -1      1378 3.99000E+01 4.87010E+01 0.00000E+00
 -1      1379 4.14000E+01 4.87010E+01 0.00000E+00
 -1      1380 3.91500E+01 4.74020E+01 0.00000E+00
 -1      1381 4.29000E+01 4.87010E+01 0.00000E+00
 -1      1382 4.44000E+01 4.87010E+01 0.00000E+00
 -1      1383 4.21500E+01 4.74020E+01 0.00000E+00
 -1      1384 4.59000E+01 4.87010E+01 0.00000E+00
 -1      1385 4.74000E+01 4.87010E+01 0.00000E+00
 -1      1386 4.51500E+01 4.74020E+01 0.00000E+00
 -1      1387 4.89000E+01 4.87010E+01 0.00000E+00
 -1      1388 5.04000E+01 4.87010E+01 0.00000E+00
 -1      1389 4.81500E+01 4.74020E+01 0.00000E+00
 -1      1390 5.19000E+01 4.87010E+01 0.00000E+00
 -1      1391 5.34000E+01 4.87010E+01 0.00000E+00
 -1      1392 5.11500E+01 4.74020E+01 0.00000E+00
 -1      1393 5.49000E+01 4.87010E+01 0.00000E+00
 -1      1394 5.64000E+01 4.87010E+01 0.00000E+00
 -1      1395 5.41500E+01 4.74020E+01 0.00000E+00
 -1      1396 5.79000E+01 4.87010E+01 0.00000E+00
 -1      1397 5.94000E+01 4.87010E+01 0.00000E+00
 -1      1398 5.71500E+01 4.74020E+01 0.00000E+00
 -1      1399 6.09000E+01 4.87010E+01 0.00000E+00
 -1      1400 6.24000E+01 4.87010E+01 0.00000E+00
 -1      1401 6.01500E+01 4.74020E+01 0.00000E+00
 -1      1402 6.39000E+01 4.87010E+01 0.00000E+00
 -1      1403 6.54000E+01 4.87010E+01 0.00000E+00
 -1      1404 6.31500E+01 4.74020E+01 0.00000E+00
 -1      1405 6.69000E+01 4.87010E+01 0.00000E+00
 -1      1406 6.84000E+01 4.87010E+01 0.00000E+00
 -1      1407 6.61500E+01 4.74020E+01 0.00000E+00
 -1      1408 6.99000E+01 4.87010E+01 0.00000E+00
 -1      1409 7.14000E+01 4.87010E+01 0.00000E+00
 -1      1410 6.91500E+01 4.74020E+01 0.00000E+00
 -1      1411 7.29000E+01 4.87010E+01 0.00000E+00
 -1      1412 7.44000E+01 4.87010E+01 0.00000E+00
 -1      1413 7.21500E+01 4.74020E+01 0.00000E+00
 -1      1414 7.59000E+01 4.87010E+01 0.00000E+00
 -1      1415 7.74000E+01 4.87010E+01 0.00000E+00
 -1      1416 7.51500E+01 4.74020E+01 0.00000E+00
 -1      1417 7.89000E+01 4.87010E+01 0.00000E+00
 -1      1418 8.04000E+01 4.87010E+01 0.00000E+00
 -1      1419 7.81500E+01 4.74020E+01 0.00000E+00
 -1      1420 8.19000E+01 4.87010E+01 0.00000E+00
 -1      1421 8.34000E+01 4.87010E+01 0.00000E+00
 -1      1422 8.11500E+01 4.74020E+01 0.00000E+00
 -1      1423 8.49000E+01 4.87010E+01 0.00000E+00
 -1      1424 8.64000E+01 4.87010E+01 0.00000E+00
 -1      1425 8.41500E+01 4.74020E+01 0.00000E+00
 -1      1426 8.79000E+01 4.87010E+01 0.00000E+00
 -1      1427 8.94000E+01 4.87010E+01 0.00000E+00
 -1      1428 8.71500E+01 4.74020E+01 0.00000E+00
 -1      1429 9.09000E+01 4.87010E+01 0.00000E+00
 -1      1430 9.24000E+01 4.87010E+01 0.00000E+00
 -1      1431 9.01500E+01 4.74020E+01 0.00000E+00
 -1      1432 9.39000E+01 4.87010E+01 0.00000E+00
 -1      1433 9.54000E+01 4.87010E+01 0.00000E+00
 -1      1434 9.31500E+01 4.74020E+01 0.00000E+00
 -1      1435 9.69000E+01 4.87010E+01 0.00000E+00
 -1      1436 9.84000E+01 4.87010E+01 0.00000E+00
 -1      1437 9.61500E+01 4.74020E+01 0.00000E+00
 -1      1438 9.99000E+01 4.87010E+01 0.00000E+00
 -1      1439 1.01400E+02 4.87010E+01 0.00000E+00
 -1      1440 9.91500E+01 4.74020E+01 0.00000E+00
 -1      1441 1.02900E+02 4.87010E+01 0.00000E+00
 -1      1442 1.04400E+02 4.87010E+01 0.00000E+00
 -1      1443 1.02150E+02 4.74020E+01 0.00000E+00
 -1      1444 1.05900E+02 4.87010E+01 0.00000E+00
 -1      1445 1.07400E+02 4.87010E+01 0.00000E+00
 -1      1446 1.05150E+02 4.74020E+01 0.00000E+00
 -1      1447 1.08900E+02 4.87010E+01 0.00000E+00
 -1      1448 1.10400E+02 4.87010E+01 0.00000E+00
 -1      1449 1.08150E+02 4.74020E+01 0.00000E+00
 -1      1450 1.11900E+02 4.87010E+01 0.00000E+00
 -1      1451 1.13400E+02 4.87010E+01 0.00000E+00
 -1      1452 1.11150E+02 4.74020E+01 0.00000E+00
 -1      1453 1.14900E+02 4.87010E+01 0.00000E+00
 -1      1454 1.16400E+02 4.87010E+01 0.00000E+00
 -1      1455 1.14150E+02 4.74020E+01 0.00000E+00
 -1      1456 1.17900E+02 4.87010E+01 0.00000E+00
 -1      1457 1.19400E+02 4.87010E+01 0.00000E+00
 -1      1458 1.17150E+02 4.74020E+01 0.00000E+00
 -1      1459 1.20900E+02 4.87010E+01 0.00000E+00
 -1      1460 1.22400E+02 4.87010E+01 0.00000E+00
 -1      1461 1.20150E+02 4.74020E+01 0.00000E+00
 -1      1462 1.23900E+02 4.87010E+01 0.00000E+00
 -1      1463 1.25400E+02 4.87010E+01 0.00000E+00
 -1      1464 1.23150E+02 4.74020E+01 0.00000E+00
 -1      1465 1.26900E+02 4.87010E+01 0.00000E+00
 -1      1466 1.28400E+02 4.87010E+01 0.00000E+00
 -1      1467 1.26150E+02 4.74020E+01 0.00000E+00
 -1      1468 1.29900E+02 4.87010E+01 0.00000E+00
 -1      1469 1.31400E+02 4.87010E+01 0.00000E+00
 -1      1470 1.29150E+02 4.74020E+01 0.00000E+00
 -1      1471 1.32900E+02 4.87010E+01 0.00000E+00
 -1      1472 1.34400E+02 4.87010E+01 0.00000E+00
 -1      1473 1.32150E+02 4.74020E+01 0.00000E+00
 -1      1474 1.35900E+02 4.87010E+01 0.00000E+00
 -1      1475 1.37400E+02 4.87010E+01 0.00000E+00
 -1      1476 1.35150E+02 4.74020E+01 0.00000E+00
 -1      1477 1.38900E+02 4.87010E+01 0.00000E+00
 -1      1478 1.40400E+02 4.87010E+01 0.00000E+00
 -1      1479 1.38150E+02 4.74020E+01 0.00000E+00
 -1      1480 1.41900E+02 4.87010E+01 0.00000E+00
 -1      1481 1.43400E+02 4.87010E+01 0.00000E+00
 -1      1482 1.41150E+02 4.74020E+01 0.00000E+00
 -1      1483 1.44900E+02 4.87010E+01 0.00000E+00
 -1      1484 1.46400E+02 4.87010E+01 0.00000E+00
 -1      1485 1.44150E+02 4.74020E+01 0.00000E+00
 -1      1486 1.48575E+02 4.85500E+01 0.00000E+00
 -1      1487 1.47825E+02 4.72510E+01 0.00000E+00
 -1      1488 6.01200E+00 1.09375E+00 0.00000E+00
 -1      1489 4.51200E+00 1.09375E+00 0.00000E+00
 -1      1490 4.37400E+00 2.18750E+00 0.00000E+00
 -1      1491 9.01200E+00 1.09375E+00 0.00000E+00
 -1      1492 7.51200E+00 1.09375E+00 0.00000E+00
 -1      1493 7.37400E+00 2.18750E+00 0.00000E+00
 -1      1494 1.20120E+01 1.09375E+00 0.00000E+00
 -1      1495 1.05120E+01 1.09375E+00 0.00000E+00
 -1      1496 1.03740E+01 2.18750E+00 0.00000E+00
 -1      1497 1.50120E+01 1.09375E+00 0.00000E+00
 -1      1498 1.35120E+01 1.09375E+00 0.00000E+00
 -1      1499 1.33740E+01 2.18750E+00 0.00000E+00
 -1      1500 1.80120E+01 1.09375E+00 0.00000E+00
 -1      1501 1.65120E+01 1.09375E+00 0.00000E+00
 -1      1502 1.63740E+01 2.18750E+00 0.00000E+00
 -1      1503 2.10120E+01 1.09375E+00 0.00000E+00
 -1      1504 1.95120E+01 1.09375E+00 0.00000E+00
 -1      1505 1.93740E+01 2.18750E+00 0.00000E+00
 -1      1506 2.40120E+01 1.09375E+00 0.00000E+00
 -1      1507 2.25120E+01 1.09375E+00 0.00000E+00
 -1      1508 2.23740E+01 2.18750E+00 0.00000E+00
 -1      1509 2.70120E+01 1.09375E+00 0.00000E+00
 -1      1510 2.55120E+01 1.09375E+00 0.00000E+00
 -1      1511 2.53740E+01 2.18750E+00 0.00000E+00
 -1      1512 3.00120E+01 1.09375E+00 0.00000E+00
 -1      1513 2.85120E+01 1.09375E+00 0.00000E+00
 -1      1514 2.83740E+01 2.18750E+00 0.00000E+00
 -1      1515 3.30120E+01 1.09375E+00 0.00000E+00
 -1      1516 3.15120E+01 1.09375E+00 0.00000E+00
 -1      1517 3.13740E+01 2.18750E+00 0.00000E+00
 -1      1518 3.60120E+01 1.09375E+00 0.00000E+00
 -1      1519 3.45120E+01 1.09375E+00 0.00000E+00
 -1      1520 3.43740E+01 2.18750E+00 0.00000E+00
 -1      1521 3.90120E+01 1.09375E+00 0.00000E+00
 -1      1522 3.75120E+01 1.09375E+00 0.00000E+00
 -1      1523 3.73740E+01 2.18750E+00 0.00000E+00
 -1      1524 4.20120E+01 1.09375E+00 0.00000E+00
 -1      1525 4.05120E+01 1.09375E+00 0.00000E+00
 -1      1526 4.03740E+01 2.18750E+00 0.00000E+00
 -1      1527 4.50120E+01 1.09375E+00 0.00000E+00
 -1      1528 4.35120E+01 1.09375E+00 0.00000E+00
 -1      1529 4.33740E+01 2.18750E+00 0.00000E+00
 -1      1530 4.80120E+01 1.09375E+00 0.00000E+00
 -1      1531 4.65120E+01 1.09375E+00 0.00000E+00
 -1      1532 4.63740E+01 2.18750E+00 0.00000E+00
 -1      1533 5.10120E+01 1.09375E+00 0.00000E+00
 -1      1534 4.95120E+01 1.09375E+00 0.00000E+00
 -1      1535 4.93740E+01 2.18750E+00 0.00000E+00
 -1      1536 5.40120E+01 1.09375E+00 0.00000E+00
 -1      1537 5.25120E+01 1.09375E+00 0.00000E+00
 -1      1538 5.23740E+01 2.18750E+00 0.00000E+00
 -1      1539 5.70120E+01 1.09375E+00 0.00000E+00
 -1      1540 5.55120E+01 1.09375E+00 0.00000E+00
 -1      1541 5.53740E+01 2.18750E+00 0.00000E+00
 -1      1542 6.00120E+01 1.09375E+00 0.00000E+00
 -1      1543 5.85120E+01 1.09375E+00 0.00000E+00
 -1      1544 5.83740E+01 2.18750E+00 0.00000E+00
 -1      1545 6.30120E+01 1.09375E+00 0.00000E+00
 -1      1546 6.15120E+01 1.09375E+00 0.00000E+00
 -1      1547 6.13740E+01 2.18750E+00 0.00000E+00
 -1      1548 6.60120E+01 1.09375E+00 0.00000E+00
 -1      1549 6.45120E+01 1.09375E+00 0.00000E+00
 -1      1550 6.43740E+01 2.18750E+00 0.00000E+00
 -1      1551 6.90120E+01 1.09375E+00 0.00000E+00
 -1      1552 6.75120E+01 1.09375E+00 0.00000E+00
 -1      1553 6.73740E+01 2.18750E+00 0.00000E+00
 -1      1554 7.20120E+01 1.09375E+00 0.00000E+00
 -1      1555 7.05120E+01 1.09375E+00 0.00000E+00
 -1      1556 7.03740E+01 2.18750E+00 0.00000E+00
 -1      1557 7.50120E+01 1.09375E+00 0.00000E+00
 -1      1558 7.35120E+01 1.09375E+00 0.00000E+00
 -1      1559 7.33740E+01 2.18750E+00 0.00000E+00
 -1      1560 7.80120E+01 1.09375E+00 0.00000E+00
 -1      1561 7.65120E+01 1.09375E+00 0.00000E+00
 -1      1562 7.63740E+01 2.18750E+00 0.00000E+00
 -1      1563 8.10120E+01 1.09375E+00 0.00000E+00
 -1      1564 7.95120E+01 1.09375E+00 0.00000E+00
 -1      1565 7.93740E+01 2.18750E+00 0.00000E+00
 -1      1566 8.40120E+01 1.09375E+00 0.00000E+00
 -1      1567 8.25120E+01 1.09375E+00 0.00000E+00
 -1      1568 8.23740E+01 2.18750E+00 0.00000E+00
 -1      1569 8.70120E+01 1.09375E+00 0.00000E+00
 -1      1570 8.55120E+01 1.09375E+00 0.00000E+00
 -1      1571 8.53740E+01 2.18750E+00 0.00000E+00
 -1      1572 9.00120E+01 1.09375E+00 0.00000E+00
 -1      1573 8.85120E+01 1.09375E+00 0.00000E+00
 -1      1574 8.83740E+01 2.18750E+00 0.00000E+00
 -1      1575 9.30120E+01 1.09375E+00 0.00000E+00
 -1      1576 9.15120E+01 1.09375E+00 0.00000E+00
 -1      1577 9.13740E+01 2.18750E+00 0.00000E+00
 -1      1578 9.60120E+01 1.09375E+00 0.00000E+00
 -1      1579 9.45120E+01 1.09375E+00 0.00000E+00
 -1      1580 9.43740E+01 2.18750E+00 0.00000E+00
 -1      1581 9.90120E+01 1.09375E+00 0.00000E+00
 -1      1582 9.75120E+01 1.09375E+00 0.00000E+00
 -1      1583 9.73740E+01 2.18750E+00 0.00000E+00
 -1      1584 1.02012E+02 1.09375E+00 0.00000E+00
 -1      1585 1.00512E+02 1.09375E+00 0.00000E+00
 -1      1586 1.00374E+02 2.18750E+00 0.00000E+00
 -1      1587 1.05012E+02 1.09375E+00 0.00000E+00
 -1      1588 1.03512E+02 1.09375E+00 0.00000E+00
 -1      1589 1.03374E+02 2.18750E+00 0.00000E+00
 -1      1590 1.08012E+02 1.09375E+00 0.00000E+00
 -1      1591 1.06512E+02 1.09375E+00 0.00000E+00
 -1      1592 1.06374E+02 2.18750E+00 0.00000E+00
 -1      1593 1.11012E+02 1.09375E+00 0.00000E+00
 -1      1594 1.09512E+02 1.09375E+00 0.00000E+00
 -1      1595 1.09374E+02 2.18750E+00 0.00000E+00
 -1      1596 1.14012E+02 1.09375E+00 0.00000E+00
 -1      1597 1.12512E+02 1.09375E+00 0.00000E+00
 -1      1598 1.12374E+02 2.18750E+00 0.00000E+00
 -1      1599 1.17012E+02 1.09375E+00 0.00000E+00
 -1      1600 1.15512E+02 1.09375E+00 0.00000E+00
 -1      1601 1.15374E+02 2.18750E+00 0.00000E+00
 -1      1602 1.20012E+02 1.09375E+00 0.00000E+00
 -1      1603 1.18512E+02 1.09375E+00 0.00000E+00
 -1      1604 1.18374E+02 2.18750E+00 0.00000E+00
 -1      1605 1.23012E+02 1.09375E+00 0.00000E+00
 -1      1606 1.21512E+02 1.09375E+00 0.00000E+00
 -1      1607 1.21374E+02 2.18750E+00 0.00000E+00
 -1      1608 1.26012E+02 1.09375E+00 0.00000E+00
 -1      1609 1.24512E+02 1.09375E+00 0.00000E+00
 -1      1610 1.24374E+02 2.18750E+00 0.00000E+00
 -1      1611 1.29012E+02 1.09375E+00 0.00000E+00
 -1      1612 1.27512E+02 1.09375E+00 0.00000E+00
 -1      1613 1.27374E+02 2.18750E+00 0.00000E+00
 -1      1614 1.32012E+02 1.09375E+00 0.00000E+00
 -1      1615 1.30512E+02 1.09375E+00 0.00000E+00
 -1      1616 1.30374E+02 2.18750E+00 0.00000E+00
 -1      1617 1.35012E+02 1.09375E+00 0.00000E+00
 -1      1618 1.33512E+02 1.09375E+00 0.00000E+00
 -1      1619 1.33374E+02 2.18750E+00 0.00000E+00
 -1      1620 1.38012E+02 1.09375E+00 0.00000E+00
 -1      1621 1.36512E+02 1.09375E+00 0.00000E+00
 -1      1622 1.36374E+02 2.18750E+00 0.00000E+00
 -1      1623 1.41012E+02 1.09375E+00 0.00000E+00
 -1      1624 1.39512E+02 1.09375E+00 0.00000E+00
 -1      1625 1.39374E+02 2.18750E+00 0.00000E+00
 -1      1626 1.44012E+02 1.09375E+00 0.00000E+00
 -1      1627 1.42512E+02 1.09375E+00 0.00000E+00
 -1      1628 1.42374E+02 2.18750E+00 0.00000E+00
 -1      1629 1.47012E+02 1.09375E+00 0.00000E+00
 -1      1630 1.45512E+02 1.09375E+00 0.00000E+00
 -1      1631 1.45374E+02 2.18750E+00 0.00000E+00
 -1      1632 1.48575E+02 1.47500E+00 0.00000E+00
 -1      1633 1.48701E+02 5.16250E+00 0.00000E+00
 -1      1634 1.48701E+02 3.68750E+00 0.00000E+00
 -1      1635 1.48701E+02 8.11250E+00 0.00000E+00
 -1      1636 1.48701E+02 6.63750E+00 0.00000E+00
 -1      1637 1.47402E+02 5.90000E+00 0.00000E+00
 -1      1638 1.48701E+02 1.10625E+01 0.00000E+00
 -1      1639 1.48701E+02 9.58750E+00 0.00000E+00
 -1      1640 1.47402E+02 8.85000E+00 0.00000E+00
 -1      1641 1.48701E+02 1.40125E+01 0.00000E+00
 -1      1642 1.48701E+02 1.25375E+01 0.00000E+00
 -1      1643 1.47402E+02 1.18000E+01 0.00000E+00
 -1      1644 1.48701E+02 1.69125E+01 0.00000E+00
 -1      1645 1.48701E+02 1.54625E+01 0.00000E+00
 -1      1646 1.47402E+02 1.47250E+01 0.00000E+00
 -1      1647 1.48701E+02 1.98625E+01 0.00000E+00
 -1      1648 1.48701E+02 1.83875E+01 0.00000E+00
 -1      1649 1.47402E+02 1.76500E+01 0.00000E+00
 -1      1650 1.48701E+02 2.28125E+01 0.00000E+00
 -1      1651 1.48701E+02 2.13375E+01 0.00000E+00
 -1      1652 1.47402E+02 2.06000E+01 0.00000E+00
 -1      1653 1.48701E+02 2.57625E+01 0.00000E+00
 -1      1654 1.48701E+02 2.42875E+01 0.00000E+00
 -1      1655 1.47402E+02 2.35500E+01 0.00000E+00
 -1      1656 1.48701E+02 2.87125E+01 0.00000E+00
 -1      1657 1.48701E+02 2.72375E+01 0.00000E+00
 -1      1658 1.47402E+02 2.65000E+01 0.00000E+00
 -1      1659 1.48701E+02 3.16625E+01 0.00000E+00
 -1      1660 1.48701E+02 3.01875E+01 0.00000E+00
 -1      1661 1.47402E+02 2.94500E+01 0.00000E+00
 -1      1662 1.48701E+02 3.45625E+01 0.00000E+00
 -1      1663 1.48701E+02 3.31125E+01 0.00000E+00
 -1      1664 1.47402E+02 3.23750E+01 0.00000E+00
 -1      1665 1.48701E+02 3.75125E+01 0.00000E+00
 -1      1666 1.48701E+02 3.60375E+01 0.00000E+00
 -1      1667 1.47402E+02 3.53000E+01 0.00000E+00
 -1      1668 1.48701E+02 4.04625E+01 0.00000E+00
 -1      1669 1.48701E+02 3.89875E+01 0.00000E+00
 -1      1670 1.47402E+02 3.82500E+01 0.00000E+00
 -1      1671 1.48701E+02 4.34125E+01 0.00000E+00
 -1      1672 1.48701E+02 4.19375E+01 0.00000E+00
 -1      1673 1.47402E+02 4.12000E+01 0.00000E+00
 -1      1674 1.48263E+02 4.60692E+01 0.00000E+00
 -1      1675 1.48263E+02 4.45942E+01 0.00000E+00
 -1      1676 1.46964E+02 4.38568E+01 0.00000E+00
 -1      1677 1.46088E+02 4.62202E+01 0.00000E+00
 -1      1678 9.05481E+01 2.30019E+01 0.00000E+00
 -1      1679 9.06356E+01 2.37797E+01 0.00000E+00
 -1      1680 9.00382E+01 2.14516E+01 0.00000E+00
 -1      1681 9.02731E+01 2.21411E+01 0.00000E+00
 -1      1682 8.93003E+01 1.99003E+01 0.00000E+00
 -1      1683 8.97214E+01 2.05897E+01 0.00000E+00
 -1      1684 8.82091E+01 1.87326E+01 0.00000E+00
 -1      1685 8.86919E+01 1.92367E+01 0.00000E+00
 -1      1686 8.68833E+01 1.76359E+01 0.00000E+00
 -1      1687 8.75654E+01 1.80923E+01 0.00000E+00
 -1      1688 8.53865E+01 1.70723E+01 0.00000E+00
 -1      1689 8.60328E+01 1.73251E+01 0.00000E+00
 -1      1690 8.38692E+01 1.67291E+01 0.00000E+00
 -1      1691 8.45862E+01 1.68517E+01 0.00000E+00
 -1      1692 8.23093E+01 1.66579E+01 0.00000E+00
 -1      1693 8.30260E+01 1.66311E+01 0.00000E+00
 -1      1694 8.07463E+01 1.69586E+01 0.00000E+00
 -1      1695 8.14606E+01 1.67797E+01 0.00000E+00
 -1      1696 7.93187E+01 1.76001E+01 0.00000E+00
 -1      1697 7.99604E+01 1.72878E+01 0.00000E+00
 -1      1698 7.80416E+01 1.84789E+01 0.00000E+00
 -1      1699 7.86090E+01 1.80407E+01 0.00000E+00
 -1      1700 7.68759E+01 1.95878E+01 0.00000E+00
 -1      1701 7.73601E+01 1.90169E+01 0.00000E+00
 -1      1702 7.61044E+01 2.10087E+01 0.00000E+00
 -1      1703 7.64517E+01 2.03588E+01 0.00000E+00
 -1      1704 7.55692E+01 2.25603E+01 0.00000E+00
 -1      1705 7.57778E+01 2.18230E+01 0.00000E+00
 -1      1706 7.53749E+01 2.41182E+01 0.00000E+00
 -1      1707 7.54205E+01 2.34094E+01 0.00000E+00
 -1      1708 7.54444E+01 2.57561E+01 0.00000E+00
 -1      1709 7.53311E+01 2.49941E+01 0.00000E+00
 -1      1710 7.59858E+01 2.72356E+01 0.00000E+00
 -1      1711 7.57392E+01 2.65774E+01 0.00000E+00
 -1      1712 7.67852E+01 2.86472E+01 0.00000E+00
 -1      1713 7.63724E+01 2.80014E+01 0.00000E+00
 -1      1714 7.78307E+01 2.98356E+01 0.00000E+00
 -1      1715 7.73248E+01 2.93255E+01 0.00000E+00
 -1      1716 7.91626E+01 3.09002E+01 0.00000E+00
 -1      1717 7.84817E+01 3.04629E+01 0.00000E+00
 -1      1718 8.08030E+01 3.16810E+01 0.00000E+00
 -1      1719 8.00150E+01 3.14063E+01 0.00000E+00
 -1      1720 8.25011E+01 3.18957E+01 0.00000E+00
 -1      1721 8.17518E+01 3.18144E+01 0.00000E+00
 -1      1722 8.41590E+01 3.17275E+01 0.00000E+00
 -1      1723 8.33973E+01 3.18112E+01 0.00000E+00
 -1      1724 8.58470E+01 3.14277E+01 0.00000E+00
 -1      1725 8.50997E+01 3.16856E+01 0.00000E+00
 -1      1726 8.73221E+01 3.04846E+01 0.00000E+00
 -1      1727 8.66487E+01 3.09060E+01 0.00000E+00
 -1      1728 8.85389E+01 2.93664E+01 0.00000E+00
 -1      1729 8.80072E+01 2.98924E+01 0.00000E+00
 -1      1730 8.95586E+01 2.80361E+01 0.00000E+00
 -1      1731 8.91352E+01 2.86941E+01 0.00000E+00
 -1      1732 9.01959E+01 2.64566E+01 0.00000E+00
 -1      1733 8.99288E+01 2.71941E+01 0.00000E+00
 -1      1734 9.05892E+01 2.47391E+01 0.00000E+00
 -1      1735 9.04928E+01 2.55546E+01 0.00000E+00
 -1      1736 8.82749E+01 1.78961E+01 0.00000E+00
 -1      1737 8.95270E+01 1.92000E+01 0.00000E+00
 -1      1738 1.48437E+02 2.56875E+00 0.00000E+00
 -1      1739 1.47138E+02 3.30625E+00 0.00000E+00
 -1      1740 9.10441E+01 2.24481E+01 0.00000E+00
 -1      1741 9.04523E+01 2.07254E+01 0.00000E+00
 -1      1742 9.12727E+01 2.42684E+01 0.00000E+00
 -1      1743 8.67808E+01 1.69450E+01 0.00000E+00
 -1      1744 8.51301E+01 1.64135E+01 0.00000E+00
 -1      1745 8.34866E+01 1.60949E+01 0.00000E+00
 -1      1746 8.17947E+01 1.61187E+01 0.00000E+00
 -1      1747 8.01601E+01 1.65697E+01 0.00000E+00
 -1      1748 7.86645E+01 1.73394E+01 0.00000E+00
 -1      1749 7.72733E+01 1.83180E+01 0.00000E+00
 -1      1750 7.61676E+01 1.96271E+01 0.00000E+00
 -1      1751 7.54168E+01 2.12124E+01 0.00000E+00
 -1      1752 7.49415E+01 2.28758E+01 0.00000E+00
 -1      1753 7.47490E+01 2.46007E+01 0.00000E+00
 -1      1754 7.50001E+01 2.62979E+01 0.00000E+00
 -1      1755 7.56814E+01 2.78850E+01 0.00000E+00
 -1      1756 7.66077E+01 2.93291E+01 0.00000E+00
 -1      1757 7.77983E+01 3.06348E+01 0.00000E+00
 -1      1758 7.93018E+01 3.17682E+01 0.00000E+00
 -1      1759 8.11031E+01 3.24076E+01 0.00000E+00
 -1      1760 8.29482E+01 3.24564E+01 0.00000E+00
 -1      1761 8.47851E+01 3.23300E+01 0.00000E+00
 -1      1762 8.65275E+01 3.17664E+01 0.00000E+00
 -1      1763 8.80143E+01 3.06525E+01 0.00000E+00
 -1      1764 8.92956E+01 2.93881E+01 0.00000E+00
 -1      1765 9.02621E+01 2.78738E+01 0.00000E+00
 -1      1766 9.09293E+01 2.61298E+01 0.00000E+00
 -1      1767 2.87400E+00 4.77875E+01 0.00000E+00
 -1      1768 3.89700E+00 4.04125E+01 0.00000E+00
 -1      1769 3.89700E+00 4.18875E+01 0.00000E+00
 -1      1770 3.89700E+00 4.33625E+01 0.00000E+00
 -1      1771 3.89700E+00 4.48375E+01 0.00000E+00
 -1      1772 5.19600E+00 4.26250E+01 0.00000E+00
 -1      1773 3.89700E+00 3.45500E+01 0.00000E+00
 -1      1774 3.89700E+00 3.60000E+01 0.00000E+00
 -1      1775 3.89700E+00 3.16000E+01 0.00000E+00
 -1      1776 3.89700E+00 3.30750E+01 0.00000E+00
 -1      1777 5.19600E+00 3.38000E+01 0.00000E+00
 -1      1778 3.89700E+00 2.86500E+01 0.00000E+00
 -1      1779 3.89700E+00 3.01250E+01 0.00000E+00
 -1      1780 5.19600E+00 3.08500E+01 0.00000E+00
 -1      1781 3.89700E+00 2.57000E+01 0.00000E+00
 -1      1782 3.89700E+00 2.71750E+01 0.00000E+00
 -1      1783 5.19600E+00 2.79000E+01 0.00000E+00
 -1      1784 3.89700E+00 2.27500E+01 0.00000E+00
 -1      1785 3.89700E+00 2.42250E+01 0.00000E+00
 -1      1786 5.19600E+00 2.49500E+01 0.00000E+00
 -1      1787 3.89700E+00 1.98000E+01 0.00000E+00
 -1      1788 3.89700E+00 2.12750E+01 0.00000E+00
 -1      1789 5.19600E+00 2.20000E+01 0.00000E+00
 -1      1790 3.89700E+00 1.69000E+01 0.00000E+00
 -1      1791 3.89700E+00 1.83500E+01 0.00000E+00
 -1      1792 5.19600E+00 1.90750E+01 0.00000E+00
 -1      1793 3.89700E+00 1.39500E+01 0.00000E+00
 -1      1794 3.89700E+00 1.54250E+01 0.00000E+00
 -1      1795 5.19600E+00 1.61500E+01 0.00000E+00
 -1      1796 3.89700E+00 1.10000E+01 0.00000E+00
 -1      1797 3.89700E+00 1.24750E+01 0.00000E+00
 -1      1798 5.19600E+00 1.32000E+01 0.00000E+00
 -1      1799 3.89700E+00 8.05000E+00 0.00000E+00
 -1      1800 3.89700E+00 9.52500E+00 0.00000E+00
 -1      1801 5.19600E+00 1.02500E+01 0.00000E+00
 -1      1802 3.89700E+00 5.10000E+00 0.00000E+00
 -1      1803 3.89700E+00 6.57500E+00 0.00000E+00
 -1      1804 5.19600E+00 7.30000E+00 0.00000E+00
 -1      1805 4.20450E+00 3.09687E+00 0.00000E+00
 -1      1806 4.06650E+00 4.19063E+00 0.00000E+00
 -1      1807 5.36550E+00 4.91563E+00 0.00000E+00
 -1      1808 5.70450E+00 3.09687E+00 0.00000E+00
 -1      1809 3.62400E+00 4.64885E+01 0.00000E+00
 -1      1810 8.70450E+00 3.09687E+00 0.00000E+00
 -1      1811 7.20450E+00 3.09687E+00 0.00000E+00
 -1      1812 7.03500E+00 4.00625E+00 0.00000E+00
 -1      1813 4.92300E+00 4.57510E+01 0.00000E+00
 -1      1814 8.40000E+00 4.61030E+01 0.00000E+00
 -1      1815 9.90000E+00 4.61030E+01 0.00000E+00
 -1      1816 1.14000E+01 4.61030E+01 0.00000E+00
 -1      1817 1.29000E+01 4.61030E+01 0.00000E+00
 -1      1818 1.06500E+01 4.48040E+01 0.00000E+00
 -1      1819 1.44000E+01 4.61030E+01 0.00000E+00
 -1      1820 1.59000E+01 4.61030E+01 0.00000E+00
 -1      1821 1.36500E+01 4.48040E+01 0.00000E+00
 -1      1822 1.74000E+01 4.61030E+01 0.00000E+00
 -1      1823 1.89000E+01 4.61030E+01 0.00000E+00
 -1      1824 1.66500E+01 4.48040E+01 0.00000E+00
 -1      1825 2.04000E+01 4.61030E+01 0.00000E+00
 -1      1826 2.19000E+01 4.61030E+01 0.00000E+00
 -1      1827 1.96500E+01 4.48040E+01 0.00000E+00
 -1      1828 2.34000E+01 4.61030E+01 0.00000E+00
 -1      1829 2.49000E+01 4.61030E+01 0.00000E+00
 -1      1830 2.26500E+01 4.48040E+01 0.00000E+00
 -1      1831 2.64000E+01 4.61030E+01 0.00000E+00
 -1      1832 2.79000E+01 4.61030E+01 0.00000E+00
 -1      1833 2.56500E+01 4.48040E+01 0.00000E+00
 -1      1834 2.94000E+01 4.61030E+01 0.00000E+00
 -1      1835 3.09000E+01 4.61030E+01 0.00000E+00
 -1      1836 2.86500E+01 4.48040E+01 0.00000E+00
 -1      1837 3.24000E+01 4.61030E+01 0.00000E+00
 -1      1838 3.39000E+01 4.61030E+01 0.00000E+00
 -1      1839 3.16500E+01 4.48040E+01 0.00000E+00
 -1      1840 3.54000E+01 4.61030E+01 0.00000E+00
 -1      1841 3.69000E+01 4.61030E+01 0.00000E+00
 -1      1842 3.46500E+01 4.48040E+01 0.00000E+00
 -1      1843 3.84000E+01 4.61030E+01 0.00000E+00
 -1      1844 3.99000E+01 4.61030E+01 0.00000E+00
 -1      1845 3.76500E+01 4.48040E+01 0.00000E+00
 -1      1846 4.14000E+01 4.61030E+01 0.00000E+00
 -1      1847 4.29000E+01 4.61030E+01 0.00000E+00
 -1      1848 4.06500E+01 4.48040E+01 0.00000E+00
 -1      1849 4.44000E+01 4.61030E+01 0.00000E+00
 -1      1850 4.59000E+01 4.61030E+01 0.00000E+00
 -1      1851 4.36500E+01 4.48040E+01 0.00000E+00
 -1      1852 4.74000E+01 4.61030E+01 0.00000E+00
 -1      1853 4.89000E+01 4.61030E+01 0.00000E+00
 -1      1854 4.66500E+01 4.48040E+01 0.00000E+00
 -1      1855 5.04000E+01 4.61030E+01 0.00000E+00
 -1      1856 5.19000E+01 4.61030E+01 0.00000E+00
 -1      1857 4.96500E+01 4.48040E+01 0.00000E+00
 -1      1858 5.34000E+01 4.61030E+01 0.00000E+00
 -1      1859 5.49000E+01 4.61030E+01 0.00000E+00
 -1      1860 5.26500E+01 4.48040E+01 0.00000E+00
 -1      1861 5.64000E+01 4.61030E+01 0.00000E+00
 -1      1862 5.79000E+01 4.61030E+01 0.00000E+00
 -1      1863 5.56500E+01 4.48040E+01 0.00000E+00
 -1      1864 5.94000E+01 4.61030E+01 0.00000E+00
 -1      1865 6.09000E+01 4.61030E+01 0.00000E+00
 -1      1866 5.86500E+01 4.48040E+01 0.00000E+00
 -1      1867 6.24000E+01 4.61030E+01 0.00000E+00
 -1      1868 6.39000E+01 4.61030E+01 0.00000E+00
 -1      1869 6.16500E+01 4.48040E+01 0.00000E+00
 -1      1870 6.54000E+01 4.61030E+01 0.00000E+00
 -1      1871 6.69000E+01 4.61030E+01 0.00000E+00
 -1      1872 6.46500E+01 4.48040E+01 0.00000E+00
 -1      1873 6.84000E+01 4.61030E+01 0.00000E+00
 -1      1874 6.99000E+01 4.61030E+01 0.00000E+00
 -1      1875 6.76500E+01 4.48040E+01 0.00000E+00
 -1      1876 7.14000E+01 4.61030E+01 0.00000E+00
 -1      1877 7.29000E+01 4.61030E+01 0.00000E+00
 -1      1878 7.06500E+01 4.48040E+01 0.00000E+00
 -1      1879 7.44000E+01 4.61030E+01 0.00000E+00
 -1      1880 7.59000E+01 4.61030E+01 0.00000E+00
 -1      1881 7.36500E+01 4.48040E+01 0.00000E+00
 -1      1882 7.74000E+01 4.61030E+01 0.00000E+00
 -1      1883 7.89000E+01 4.61030E+01 0.00000E+00
 -1      1884 7.66500E+01 4.48040E+01 0.00000E+00
 -1      1885 8.04000E+01 4.61030E+01 0.00000E+00
 -1      1886 8.19000E+01 4.61030E+01 0.00000E+00
 -1      1887 7.96500E+01 4.48040E+01 0.00000E+00
 -1      1888 8.34000E+01 4.61030E+01 0.00000E+00
 -1      1889 8.49000E+01 4.61030E+01 0.00000E+00
 -1      1890 8.26500E+01 4.48040E+01 0.00000E+00
 -1      1891 8.64000E+01 4.61030E+01 0.00000E+00
 -1      1892 8.79000E+01 4.61030E+01 0.00000E+00
 -1      1893 8.56500E+01 4.48040E+01 0.00000E+00
 -1      1894 8.94000E+01 4.61030E+01 0.00000E+00
 -1      1895 9.09000E+01 4.61030E+01 0.00000E+00
 -1      1896 8.86500E+01 4.48040E+01 0.00000E+00
 -1      1897 9.24000E+01 4.61030E+01 0.00000E+00
 -1      1898 9.39000E+01 4.61030E+01 0.00000E+00
 -1      1899 9.16500E+01 4.48040E+01 0.00000E+00
 -1      1900 9.54000E+01 4.61030E+01 0.00000E+00
 -1      1901 9.69000E+01 4.61030E+01 0.00000E+00
 -1      1902 9.46500E+01 4.48040E+01 0.00000E+00
 -1      1903 9.84000E+01 4.61030E+01 0.00000E+00
 -1      1904 9.99000E+01 4.61030E+01 0.00000E+00
 -1      1905 9.76500E+01 4.48040E+01 0.00000E+00
 -1      1906 1.01400E+02 4.61030E+01 0.00000E+00
 -1      1907 1.02900E+02 4.61030E+01 0.00000E+00
 -1      1908 1.00650E+02 4.48040E+01 0.00000E+00
 -1      1909 1.04400E+02 4.61030E+01 0.00000E+00
 -1      1910 1.05900E+02 4.61030E+01 0.00000E+00
 -1      1911 1.03650E+02 4.48040E+01 0.00000E+00
 -1      1912 1.07400E+02 4.61030E+01 0.00000E+00
 -1      1913 1.08900E+02 4.61030E+01 0.00000E+00
 -1      1914 1.06650E+02 4.48040E+01 0.00000E+00
 -1      1915 1.10400E+02 4.61030E+01 0.00000E+00
 -1      1916 1.11900E+02 4.61030E+01 0.00000E+00
 -1      1917 1.09650E+02 4.48040E+01 0.00000E+00
 -1      1918 1.13400E+02 4.61030E+01 0.00000E+00
 -1      1919 1.14900E+02 4.61030E+01 0.00000E+00
 -1      1920 1.12650E+02 4.48040E+01 0.00000E+00
 -1      1921 1.16400E+02 4.61030E+01 0.00000E+00
 -1      1922 1.17900E+02 4.61030E+01 0.00000E+00
 -1      1923 1.15650E+02 4.48040E+01 0.00000E+00
 -1      1924 1.19400E+02 4.61030E+01 0.00000E+00
 -1      1925 1.20900E+02 4.61030E+01 0.00000E+00
 -1      1926 1.18650E+02 4.48040E+01 0.00000E+00
 -1      1927 1.22400E+02 4.61030E+01 0.00000E+00
 -1      1928 1.23900E+02 4.61030E+01 0.00000E+00
 -1      1929 1.21650E+02 4.48040E+01 0.00000E+00
 -1      1930 1.25400E+02 4.61030E+01 0.00000E+00
 -1      1931 1.26900E+02 4.61030E+01 0.00000E+00
 -1      1932 1.24650E+02 4.48040E+01 0.00000E+00
 -1      1933 1.28400E+02 4.61030E+01 0.00000E+00
 -1      1934 1.29900E+02 4.61030E+01 0.00000E+00
 -1      1935 1.27650E+02 4.48040E+01 0.00000E+00
 -1      1936 1.31400E+02 4.61030E+01 0.00000E+00
 -1      1937 1.32900E+02 4.61030E+01 0.00000E+00
 -1      1938 1.30650E+02 4.48040E+01 0.00000E+00
 -1      1939 1.34400E+02 4.61030E+01 0.00000E+00
 -1      1940 1.35900E+02 4.61030E+01 0.00000E+00
 -1      1941 1.33650E+02 4.48040E+01 0.00000E+00
 -1      1942 1.37400E+02 4.61030E+01 0.00000E+00
 -1      1943 1.38900E+02 4.61030E+01 0.00000E+00
 -1      1944 1.36650E+02 4.48040E+01 0.00000E+00
 -1      1945 1.40400E+02 4.61030E+01 0.00000E+00
 -1      1946 1.41900E+02 4.61030E+01 0.00000E+00
 -1      1947 1.39650E+02 4.48040E+01 0.00000E+00
 -1      1948 1.43244E+02 4.61616E+01 0.00000E+00
 -1      1949 1.44744E+02 4.61616E+01 0.00000E+00
 -1      1950 1.45182E+02 4.49799E+01 0.00000E+00
 -1      1951 1.42494E+02 4.48626E+01 0.00000E+00
 -1      1952 1.17045E+01 3.09687E+00 0.00000E+00
 -1      1953 1.02045E+01 3.09687E+00 0.00000E+00
 -1      1954 1.00350E+01 4.00625E+00 0.00000E+00
 -1      1955 1.47045E+01 3.09687E+00 0.00000E+00
 -1      1956 1.32045E+01 3.09687E+00 0.00000E+00
 -1      1957 1.30350E+01 4.00625E+00 0.00000E+00
 -1      1958 1.77045E+01 3.09687E+00 0.00000E+00
 -1      1959 1.62045E+01 3.09687E+00 0.00000E+00
 -1      1960 1.60350E+01 4.00625E+00 0.00000E+00
 -1      1961 2.07045E+01 3.09687E+00 0.00000E+00
 -1      1962 1.92045E+01 3.09687E+00 0.00000E+00
 -1      1963 1.90350E+01 4.00625E+00 0.00000E+00
 -1      1964 2.37045E+01 3.09687E+00 0.00000E+00
 -1      1965 2.22045E+01 3.09687E+00 0.00000E+00
 -1      1966 2.20350E+01 4.00625E+00 0.00000E+00
 -1      1967 2.67045E+01 3.09687E+00 0.00000E+00
 -1      1968 2.52045E+01 3.09687E+00 0.00000E+00
 -1      1969 2.50350E+01 4.00625E+00 0.00000E+00
 -1      1970 2.97045E+01 3.09687E+00 0.00000E+00
 -1      1971 2.82045E+01 3.09687E+00 0.00000E+00
 -1      1972 2.80350E+01 4.00625E+00 0.00000E+00
 -1      1973 3.27045E+01 3.09687E+00 0.00000E+00
 -1      1974 3.12045E+01 3.09687E+00 0.00000E+00
 -1      1975 3.10350E+01 4.00625E+00 0.00000E+00
 -1      1976 3.57045E+01 3.09687E+00 0.00000E+00
 -1      1977 3.42045E+01 3.09687E+00 0.00000E+00
 -1      1978 3.40350E+01 4.00625E+00 0.00000E+00
 -1      1979 3.87045E+01 3.09687E+00 0.00000E+00
 -1      1980 3.72045E+01 3.09687E+00 0.00000E+00
 -1      1981 3.70350E+01 4.00625E+00 0.00000E+00
 -1      1982 4.17045E+01 3.09687E+00 0.00000E+00
 -1      1983 4.02045E+01 3.09687E+00 0.00000E+00
 -1      1984 4.00350E+01 4.00625E+00 0.00000E+00
 -1      1985 4.47045E+01 3.09687E+00 0.00000E+00
 -1      1986 4.32045E+01 3.09687E+00 0.00000E+00
 -1      1987 4.30350E+01 4.00625E+00 0.00000E+00
 -1      1988 4.77045E+01 3.09687E+00 0.00000E+00
 -1      1989 4.62045E+01 3.09687E+00 0.00000E+00
 -1      1990 4.60350E+01 4.00625E+00 0.00000E+00
 -1      1991 5.07045E+01 3.09687E+00 0.00000E+00
 -1      1992 4.92045E+01 3.09687E+00 0.00000E+00
 -1      1993 4.90350E+01 4.00625E+00 0.00000E+00
 -1      1994 5.37045E+01 3.09687E+00 0.00000E+00
 -1      1995 5.22045E+01 3.09687E+00 0.00000E+00
 -1      1996 5.20350E+01 4.00625E+00 0.00000E+00
 -1      1997 5.67045E+01 3.09687E+00 0.00000E+00
 -1      1998 5.52045E+01 3.09687E+00 0.00000E+00
 -1      1999 5.50350E+01 4.00625E+00 0.00000E+00
 -1      2000 5.97045E+01 3.09687E+00 0.00000E+00
 -1      2001 5.82045E+01 3.09687E+00 0.00000E+00
 -1      2002 5.80350E+01 4.00625E+00 0.00000E+00
 -1      2003 6.27045E+01 3.09687E+00 0.00000E+00
 -1      2004 6.12045E+01 3.09687E+00 0.00000E+00
 -1      2005 6.10350E+01 4.00625E+00 0.00000E+00
 -1      2006 6.57045E+01 3.09687E+00 0.00000E+00
 -1      2007 6.42045E+01 3.09687E+00 0.00000E+00
 -1      2008 6.40350E+01 4.00625E+00 0.00000E+00
 -1      2009 6.87045E+01 3.09687E+00 0.00000E+00
 -1      2010 6.72045E+01 3.09687E+00 0.00000E+00
 -1      2011 6.70350E+01 4.00625E+00 0.00000E+00
 -1      2012 7.17045E+01 3.09687E+00 0.00000E+00
 -1      2013 7.02045E+01 3.09687E+00 0.00000E+00
 -1      2014 7.00350E+01 4.00625E+00 0.00000E+00
 -1      2015 7.47045E+01 3.09687E+00 0.00000E+00
 -1      2016 7.32045E+01 3.09687E+00 0.00000E+00
 -1      2017 7.30350E+01 4.00625E+00 0.00000E+00
 -1      2018 7.77045E+01 3.09687E+00 0.00000E+00
 -1      2019 7.62045E+01 3.09687E+00 0.00000E+00
 -1      2020 7.60350E+01 4.00625E+00 0.00000E+00
 -1      2021 8.07045E+01 3.09687E+00 0.00000E+00
 -1      2022 7.92045E+01 3.09687E+00 0.00000E+00
 -1      2023 7.90350E+01 4.00625E+00 0.00000E+00
 -1      2024 8.37045E+01 3.09687E+00 0.00000E+00
 -1      2025 8.22045E+01 3.09687E+00 0.00000E+00
 -1      2026 8.20350E+01 4.00625E+00 0.00000E+00
 -1      2027 8.67045E+01 3.09687E+00 0.00000E+00
 -1      2028 8.52045E+01 3.09687E+00 0.00000E+00
 -1      2029 8.50350E+01 4.00625E+00 0.00000E+00
 -1      2030 8.97045E+01 3.09687E+00 0.00000E+00
 -1      2031 8.82045E+01 3.09687E+00 0.00000E+00
 -1      2032 8.80350E+01 4.00625E+00 0.00000E+00
 -1      2033 9.27045E+01 3.09687E+00 0.00000E+00
 -1      2034 9.12045E+01 3.09687E+00 0.00000E+00
 -1      2035 9.10350E+01 4.00625E+00 0.00000E+00
 -1      2036 9.57045E+01 3.09687E+00 0.00000E+00
 -1      2037 9.42045E+01 3.09687E+00 0.00000E+00
 -1      2038 9.40350E+01 4.00625E+00 0.00000E+00
 -1      2039 9.87045E+01 3.09687E+00 0.00000E+00
 -1      2040 9.72045E+01 3.09687E+00 0.00000E+00
 -1      2041 9.70350E+01 4.00625E+00 0.00000E+00
 -1      2042 1.01704E+02 3.09687E+00 0.00000E+00
 -1      2043 1.00204E+02 3.09687E+00 0.00000E+00
 -1      2044 1.00035E+02 4.00625E+00 0.00000E+00
 -1      2045 1.04704E+02 3.09687E+00 0.00000E+00
 -1      2046 1.03204E+02 3.09687E+00 0.00000E+00
 -1      2047 1.03035E+02 4.00625E+00 0.00000E+00
 -1      2048 1.07704E+02 3.09687E+00 0.00000E+00
 -1      2049 1.06204E+02 3.09687E+00 0.00000E+00
 -1      2050 1.06035E+02 4.00625E+00 0.00000E+00
 -1      2051 1.10704E+02 3.09687E+00 0.00000E+00
 -1      2052 1.09204E+02 3.09687E+00 0.00000E+00
 -1      2053 1.09035E+02 4.00625E+00 0.00000E+00
 -1      2054 1.13704E+02 3.09687E+00 0.00000E+00
 -1      2055 1.12204E+02 3.09687E+00 0.00000E+00
 -1      2056 1.12035E+02 4.00625E+00 0.00000E+00
 -1      2057 1.16704E+02 3.09687E+00 0.00000E+00
 -1      2058 1.15204E+02 3.09687E+00 0.00000E+00
 -1      2059 1.15035E+02 4.00625E+00 0.00000E+00
 -1      2060 1.19704E+02 3.09687E+00 0.00000E+00
 -1      2061 1.18204E+02 3.09687E+00 0.00000E+00
 -1      2062 1.18035E+02 4.00625E+00 0.00000E+00
 -1      2063 1.22704E+02 3.09687E+00 0.00000E+00
 -1      2064 1.21204E+02 3.09687E+00 0.00000E+00
 -1      2065 1.21035E+02 4.00625E+00 0.00000E+00
 -1      2066 1.25704E+02 3.09687E+00 0.00000E+00
 -1      2067 1.24204E+02 3.09687E+00 0.00000E+00
 -1      2068 1.24035E+02 4.00625E+00 0.00000E+00
 -1      2069 1.28704E+02 3.09687E+00 0.00000E+00
 -1      2070 1.27204E+02 3.09687E+00 0.00000E+00
 -1      2071 1.27035E+02 4.00625E+00 0.00000E+00
 -1      2072 1.31704E+02 3.09687E+00 0.00000E+00
 -1      2073 1.30204E+02 3.09687E+00 0.00000E+00
 -1      2074 1.30035E+02 4.00625E+00 0.00000E+00
 -1      2075 1.34704E+02 3.09687E+00 0.00000E+00
 -1      2076 1.33204E+02 3.09687E+00 0.00000E+00
 -1      2077 1.33035E+02 4.00625E+00 0.00000E+00
 -1      2078 1.37704E+02 3.09687E+00 0.00000E+00
 -1      2079 1.36204E+02 3.09687E+00 0.00000E+00
 -1      2080 1.36035E+02 4.00625E+00 0.00000E+00
 -1      2081 1.40704E+02 3.09687E+00 0.00000E+00
 -1      2082 1.39204E+02 3.09687E+00 0.00000E+00
 -1      2083 1.39035E+02 4.00625E+00 0.00000E+00
 -1      2084 1.43704E+02 3.09687E+00 0.00000E+00
 -1      2085 1.42204E+02 3.09687E+00 0.00000E+00
 -1      2086 1.42035E+02 4.00625E+00 0.00000E+00
 -1      2087 1.46171E+02 3.20156E+00 0.00000E+00
 -1      2088 1.44671E+02 3.20156E+00 0.00000E+00
 -1      2089 1.44502E+02 4.11094E+00 0.00000E+00
 -1      2090 1.46435E+02 4.32031E+00 0.00000E+00
 -1      2091 1.46103E+02 1.25375E+01 0.00000E+00
 -1      2092 1.46103E+02 1.10625E+01 0.00000E+00
 -1      2093 1.46103E+02 9.58750E+00 0.00000E+00
 -1      2094 1.46103E+02 8.11250E+00 0.00000E+00
 -1      2095 1.44804E+02 1.03250E+01 0.00000E+00
 -1      2096 1.46269E+02 6.95391E+00 0.00000E+00
 -1      2097 1.46269E+02 5.47891E+00 0.00000E+00
 -1      2098 1.45302E+02 5.37422E+00 0.00000E+00
 -1      2099 1.44970E+02 7.69141E+00 0.00000E+00
 -1      2100 1.46103E+02 1.54375E+01 0.00000E+00
 -1      2101 1.46103E+02 1.39875E+01 0.00000E+00
 -1      2102 1.44804E+02 1.32500E+01 0.00000E+00
 -1      2103 1.46103E+02 1.83875E+01 0.00000E+00
 -1      2104 1.46103E+02 1.69125E+01 0.00000E+00
 -1      2105 1.44804E+02 1.61750E+01 0.00000E+00
 -1      2106 1.46103E+02 2.13375E+01 0.00000E+00
 -1      2107 1.46103E+02 1.98625E+01 0.00000E+00
 -1      2108 1.44804E+02 1.91250E+01 0.00000E+00
 -1      2109 1.46103E+02 2.42875E+01 0.00000E+00
 -1      2110 1.46103E+02 2.28125E+01 0.00000E+00
 -1      2111 1.44804E+02 2.20750E+01 0.00000E+00
 -1      2112 1.46103E+02 2.72375E+01 0.00000E+00
 -1      2113 1.46103E+02 2.57625E+01 0.00000E+00
 -1      2114 1.44804E+02 2.50250E+01 0.00000E+00
 -1      2115 1.46103E+02 3.01875E+01 0.00000E+00
 -1      2116 1.46103E+02 2.87125E+01 0.00000E+00
 -1      2117 1.44804E+02 2.79750E+01 0.00000E+00
 -1      2118 1.46103E+02 3.30875E+01 0.00000E+00
 -1      2119 1.46103E+02 3.16375E+01 0.00000E+00
 -1      2120 1.44804E+02 3.09000E+01 0.00000E+00
 -1      2121 1.46103E+02 3.60375E+01 0.00000E+00
 -1      2122 1.46103E+02 3.45625E+01 0.00000E+00
 -1      2123 1.44804E+02 3.38250E+01 0.00000E+00
 -1      2124 1.46103E+02 3.89875E+01 0.00000E+00
 -1      2125 1.46103E+02 3.75125E+01 0.00000E+00
 -1      2126 1.44804E+02 3.67750E+01 0.00000E+00
 -1      2127 1.46103E+02 4.19375E+01 0.00000E+00
 -1      2128 1.46103E+02 4.04625E+01 0.00000E+00
 -1      2129 1.44804E+02 3.97250E+01 0.00000E+00
 -1      2130 9.10988E+01 1.99986E+01 0.00000E+00
 -1      2131 9.14156E+01 2.08605E+01 0.00000E+00
 -1      2132 9.20688E+01 2.38261E+01 0.00000E+00
 -1      2133 9.20223E+01 2.47855E+01 0.00000E+00
 -1      2134 9.15240E+01 2.18205E+01 0.00000E+00
 -1      2135 9.17990E+01 2.26813E+01 0.00000E+00
 -1      2136 8.97313E+01 1.84018E+01 0.00000E+00
 -1      2137 9.03398E+01 1.90654E+01 0.00000E+00
 -1      2138 8.84988E+01 1.70274E+01 0.00000E+00
 -1      2139 8.91424E+01 1.76677E+01 0.00000E+00
 -1      2140 3.89700E+00 3.74688E+01 0.00000E+00
 -1      2141 3.89700E+00 3.89437E+01 0.00000E+00
 -1      2142 5.19600E+00 3.96813E+01 0.00000E+00
 -1      2143 5.19600E+00 3.67438E+01 0.00000E+00
 -1      2144 8.49134E+01 1.56380E+01 0.00000E+00
 -1      2145 8.57136E+01 1.58587E+01 0.00000E+00
 -1      2146 8.31399E+01 1.54021E+01 0.00000E+00
 -1      2147 8.39831E+01 1.55001E+01 0.00000E+00
 -1      2148 8.12783E+01 1.55381E+01 0.00000E+00
 -1      2149 8.21270E+01 1.54162E+01 0.00000E+00
 -1      2150 7.95006E+01 1.60979E+01 0.00000E+00
 -1      2151 8.02865E+01 1.57687E+01 0.00000E+00
 -1      2152 7.79458E+01 1.69735E+01 0.00000E+00
 -1      2153 7.86556E+01 1.65329E+01 0.00000E+00
 -1      2154 7.64790E+01 1.80126E+01 0.00000E+00
 -1      2155 7.71605E+01 1.74746E+01 0.00000E+00
 -1      2156 7.52776E+01 1.96396E+01 0.00000E+00
 -1      2157 7.57018E+01 1.88686E+01 0.00000E+00
 -1      2158 7.46131E+01 2.13627E+01 0.00000E+00
 -1      2159 7.49397E+01 2.05484E+01 0.00000E+00
 -1      2160 7.41049E+01 2.31668E+01 0.00000E+00
 -1      2161 7.42537E+01 2.23177E+01 0.00000E+00
 -1      2162 7.40380E+01 2.50042E+01 0.00000E+00
 -1      2163 7.40817E+01 2.41284E+01 0.00000E+00
 -1      2164 7.44192E+01 2.69699E+01 0.00000E+00
 -1      2165 7.41244E+01 2.61486E+01 0.00000E+00
 -1      2166 7.51923E+01 2.85015E+01 0.00000E+00
 -1      2167 7.48057E+01 2.77357E+01 0.00000E+00
 -1      2168 7.39301E+01 2.75865E+01 0.00000E+00
 -1      2169 7.62720E+01 3.01500E+01 0.00000E+00
 -1      2170 7.57323E+01 2.94717E+01 0.00000E+00
 -1      2171 7.75739E+01 3.14048E+01 0.00000E+00
 -1      2172 7.69230E+01 3.07774E+01 0.00000E+00
 -1      2173 7.60476E+01 3.09200E+01 0.00000E+00
 -1      2174 7.93116E+01 3.27226E+01 0.00000E+00
 -1      2175 7.84592E+01 3.22166E+01 0.00000E+00
 -1      2176 8.14874E+01 3.31161E+01 0.00000E+00
 -1      2177 8.05385E+01 3.29827E+01 0.00000E+00
 -1      2178 8.34690E+01 3.31845E+01 0.00000E+00
 -1      2179 8.25728E+01 3.32691E+01 0.00000E+00
 -1      2180 8.53504E+01 3.31007E+01 0.00000E+00
 -1      2181 8.44097E+01 3.31426E+01 0.00000E+00
 -1      2182 8.40343E+01 3.39552E+01 0.00000E+00
 -1      2183 8.73275E+01 3.21189E+01 0.00000E+00
 -1      2184 8.65258E+01 3.26406E+01 0.00000E+00
 -1      2185 8.88080E+01 3.08785E+01 0.00000E+00
 -1      2186 8.81229E+01 3.14706E+01 0.00000E+00
 -1      2187 9.02040E+01 2.95932E+01 0.00000E+00
 -1      2188 8.96077E+01 3.02655E+01 0.00000E+00
 -1      2189 9.11172E+01 2.77473E+01 0.00000E+00
 -1      2190 9.07470E+01 2.85894E+01 0.00000E+00
 -1      2191 9.18127E+01 2.59208E+01 0.00000E+00
 -1      2192 9.15158E+01 2.68227E+01 0.00000E+00
 -1      2193 8.65641E+01 1.61695E+01 0.00000E+00
 -1      2194 8.74145E+01 1.64803E+01 0.00000E+00
 -1      2195 8.63473E+01 1.53940E+01 0.00000E+00
 -1      2196 8.99552E+01 1.75331E+01 0.00000E+00
 -1      2197 6.42300E+00 4.57510E+01 0.00000E+00
 -1      2198 8.82821E+01 1.62519E+01 0.00000E+00
 -1      2199 8.91496E+01 1.60235E+01 0.00000E+00
 -1      2200 8.80653E+01 1.54764E+01 0.00000E+00
 -1      2201 7.17300E+00 4.44520E+01 0.00000E+00
 -1      2202 9.21705E+01 2.10937E+01 0.00000E+00
 -1      2203 9.25486E+01 2.31984E+01 0.00000E+00
 -1      2204 1.45665E+02 4.31193E+01 0.00000E+00
 -1      2205 9.13031E+01 1.92005E+01 0.00000E+00
 -1      2206 9.26088E+01 2.54785E+01 0.00000E+00
 -1      2207 9.20006E+01 2.75383E+01 0.00000E+00
 -1      2208 9.10591E+01 2.94667E+01 0.00000E+00
 -1      2209 8.97164E+01 3.10836E+01 0.00000E+00
 -1      2210 8.61504E+01 3.34533E+01 0.00000E+00
 -1      2211 8.57750E+01 3.42659E+01 0.00000E+00
 -1      2212 8.69505E+01 3.38058E+01 0.00000E+00
 -1      2213 8.20081E+01 3.38442E+01 0.00000E+00
 -1      2214 7.75838E+01 3.23592E+01 0.00000E+00
 -1      2215 7.48567E+01 2.93224E+01 0.00000E+00
 -1      2216 7.34571E+01 2.56763E+01 0.00000E+00
 -1      2217 7.33940E+01 2.35703E+01 0.00000E+00
 -1      2218 7.37766E+01 2.16537E+01 0.00000E+00
 -1      2219 7.44739E+01 1.97899E+01 0.00000E+00
 -1      2220 7.55890E+01 1.80251E+01 0.00000E+00
 -1      2221 7.71515E+01 1.66681E+01 0.00000E+00
 -1      2222 7.87819E+01 1.57319E+01 0.00000E+00
 -1      2223 8.06187E+01 1.50663E+01 0.00000E+00
 -1      2224 8.45666E+01 1.49453E+01 0.00000E+00
 -1      2225 8.26234E+01 1.48215E+01 0.00000E+00
 -1      2226 7.96959E+01 3.34311E+01 0.00000E+00
 -1      2227 7.88533E+01 3.38794E+01 0.00000E+00
 -1      2228 8.00801E+01 3.41396E+01 0.00000E+00
 -1      2229 8.81213E+01 3.23449E+01 0.00000E+00
 -1      2230 1.07850E+01 5.30525E+00 0.00000E+00
 -1      2231 9.28500E+00 5.30525E+00 0.00000E+00
 -1      2232 6.49500E+00 3.01125E+01 0.00000E+00
 -1      2233 6.49500E+00 3.15875E+01 0.00000E+00
 -1      2234 6.49500E+00 3.30625E+01 0.00000E+00
 -1      2235 6.49500E+00 3.45375E+01 0.00000E+00
 -1      2236 7.79400E+00 3.23250E+01 0.00000E+00
 -1      2237 6.49500E+00 2.42125E+01 0.00000E+00
 -1      2238 6.49500E+00 2.56875E+01 0.00000E+00
 -1      2239 6.49500E+00 2.12625E+01 0.00000E+00
 -1      2240 6.49500E+00 2.27375E+01 0.00000E+00
 -1      2241 7.79400E+00 2.34750E+01 0.00000E+00
 -1      2242 6.49500E+00 1.83625E+01 0.00000E+00
 -1      2243 6.49500E+00 1.98125E+01 0.00000E+00
 -1      2244 7.79400E+00 2.05500E+01 0.00000E+00
 -1      2245 6.49500E+00 1.54125E+01 0.00000E+00
 -1      2246 6.49500E+00 1.68875E+01 0.00000E+00
 -1      2247 7.79400E+00 1.76250E+01 0.00000E+00
 -1      2248 6.49500E+00 1.24625E+01 0.00000E+00
 -1      2249 6.49500E+00 1.39375E+01 0.00000E+00
 -1      2250 7.79400E+00 1.46750E+01 0.00000E+00
 -1      2251 6.49500E+00 9.51250E+00 0.00000E+00
 -1      2252 6.49500E+00 1.09875E+01 0.00000E+00
 -1      2253 7.79400E+00 1.17250E+01 0.00000E+00
 -1      2254 1.37850E+01 5.30525E+00 0.00000E+00
 -1      2255 1.22850E+01 5.30525E+00 0.00000E+00
 -1      2256 1.15350E+01 6.60425E+00 0.00000E+00
 -1      2257 9.90000E+00 4.35050E+01 0.00000E+00
 -1      2258 1.14000E+01 4.35050E+01 0.00000E+00
 -1      2259 9.02317E+01 1.67081E+01 0.00000E+00
 -1      2260 9.08206E+01 1.74423E+01 0.00000E+00
 -1      2261 1.29000E+01 4.35050E+01 0.00000E+00
 -1      2262 1.44000E+01 4.35050E+01 0.00000E+00
 -1      2263 1.21500E+01 4.22060E+01 0.00000E+00
 -1      2264 1.59000E+01 4.35050E+01 0.00000E+00
 -1      2265 1.74000E+01 4.35050E+01 0.00000E+00
 -1      2266 1.51500E+01 4.22060E+01 0.00000E+00
 -1      2267 1.89000E+01 4.35050E+01 0.00000E+00
 -1      2268 2.04000E+01 4.35050E+01 0.00000E+00
 -1      2269 1.81500E+01 4.22060E+01 0.00000E+00
 -1      2270 2.19000E+01 4.35050E+01 0.00000E+00
 -1      2271 2.34000E+01 4.35050E+01 0.00000E+00
 -1      2272 2.11500E+01 4.22060E+01 0.00000E+00
 -1      2273 2.49000E+01 4.35050E+01 0.00000E+00
 -1      2274 2.64000E+01 4.35050E+01 0.00000E+00
 -1      2275 2.41500E+01 4.22060E+01 0.00000E+00
 -1      2276 2.79000E+01 4.35050E+01 0.00000E+00
 -1      2277 2.94000E+01 4.35050E+01 0.00000E+00
 -1      2278 2.71500E+01 4.22060E+01 0.00000E+00
 -1      2279 3.09000E+01 4.35050E+01 0.00000E+00
 -1      2280 3.24000E+01 4.35050E+01 0.00000E+00
 -1      2281 3.01500E+01 4.22060E+01 0.00000E+00
 -1      2282 3.39000E+01 4.35050E+01 0.00000E+00
 -1      2283 3.54000E+01 4.35050E+01 0.00000E+00
 -1      2284 3.31500E+01 4.22060E+01 0.00000E+00
 -1      2285 3.69000E+01 4.35050E+01 0.00000E+00
 -1      2286 3.84000E+01 4.35050E+01 0.00000E+00
 -1      2287 3.61500E+01 4.22060E+01 0.00000E+00
 -1      2288 3.99000E+01 4.35050E+01 0.00000E+00
 -1      2289 4.14000E+01 4.35050E+01 0.00000E+00
 -1      2290 3.91500E+01 4.22060E+01 0.00000E+00
 -1      2291 4.29000E+01 4.35050E+01 0.00000E+00
 -1      2292 4.44000E+01 4.35050E+01 0.00000E+00
 -1      2293 4.21500E+01 4.22060E+01 0.00000E+00
 -1      2294 4.59000E+01 4.35050E+01 0.00000E+00
 -1      2295 4.74000E+01 4.35050E+01 0.00000E+00
 -1      2296 4.51500E+01 4.22060E+01 0.00000E+00
 -1      2297 4.89000E+01 4.35050E+01 0.00000E+00
 -1      2298 5.04000E+01 4.35050E+01 0.00000E+00
 -1      2299 4.81500E+01 4.22060E+01 0.00000E+00
 -1      2300 5.19000E+01 4.35050E+01 0.00000E+00
 -1      2301 5.34000E+01 4.35050E+01 0.00000E+00
 -1      2302 5.11500E+01 4.22060E+01 0.00000E+00
 -1      2303 5.49000E+01 4.35050E+01 0.00000E+00
 -1      2304 5.64000E+01 4.35050E+01 0.00000E+00
 -1      2305 5.41500E+01 4.22060E+01 0.00000E+00
 -1      2306 5.79000E+01 4.35050E+01 0.00000E+00
 -1      2307 5.94000E+01 4.35050E+01 0.00000E+00
 -1      2308 5.71500E+01 4.22060E+01 0.00000E+00
 -1      2309 6.09000E+01 4.35050E+01 0.00000E+00
 -1      2310 6.24000E+01 4.35050E+01 0.00000E+00
 -1      2311 6.01500E+01 4.22060E+01 0.00000E+00
 -1      2312 6.39000E+01 4.35050E+01 0.00000E+00
 -1      2313 6.54000E+01 4.35050E+01 0.00000E+00
 -1      2314 6.31500E+01 4.22060E+01 0.00000E+00
 -1      2315 6.69000E+01 4.35050E+01 0.00000E+00
 -1      2316 6.84000E+01 4.35050E+01 0.00000E+00
 -1      2317 6.61500E+01 4.22060E+01 0.00000E+00
 -1      2318 6.99000E+01 4.35050E+01 0.00000E+00
 -1      2319 7.14000E+01 4.35050E+01 0.00000E+00
 -1      2320 6.91500E+01 4.22060E+01 0.00000E+00
 -1      2321 7.29000E+01 4.35050E+01 0.00000E+00
 -1      2322 7.44000E+01 4.35050E+01 0.00000E+00
 -1      2323 7.21500E+01 4.22060E+01 0.00000E+00
 -1      2324 7.59000E+01 4.35050E+01 0.00000E+00
 -1      2325 7.74000E+01 4.35050E+01 0.00000E+00
 -1      2326 7.51500E+01 4.22060E+01 0.00000E+00
 -1      2327 7.89000E+01 4.35050E+01 0.00000E+00
 -1      2328 8.04000E+01 4.35050E+01 0.00000E+00
 -1      2329 7.81500E+01 4.22060E+01 0.00000E+00
 -1      2330 8.19000E+01 4.35050E+01 0.00000E+00
 -1      2331 8.34000E+01 4.35050E+01 0.00000E+00
 -1      2332 8.11500E+01 4.22060E+01 0.00000E+00
 -1      2333 8.49000E+01 4.35050E+01 0.00000E+00
 -1      2334 8.64000E+01 4.35050E+01 0.00000E+00
 -1      2335 8.41500E+01 4.22060E+01 0.00000E+00
 -1      2336 8.79000E+01 4.35050E+01 0.00000E+00
 -1      2337 8.94000E+01 4.35050E+01 0.00000E+00
 -1      2338 8.71500E+01 4.22060E+01 0.00000E+00
 -1      2339 9.09000E+01 4.35050E+01 0.00000E+00
 -1      2340 9.24000E+01 4.35050E+01 0.00000E+00
 -1      2341 9.01500E+01 4.22060E+01 0.00000E+00
 -1      2342 9.39000E+01 4.35050E+01 0.00000E+00
 -1      2343 9.54000E+01 4.35050E+01 0.00000E+00
 -1      2344 9.31500E+01 4.22060E+01 0.00000E+00
 -1      2345 9.69000E+01 4.35050E+01 0.00000E+00
 -1      2346 9.84000E+01 4.35050E+01 0.00000E+00
 -1      2347 9.61500E+01 4.22060E+01 0.00000E+00
 -1      2348 9.99000E+01 4.35050E+01 0.00000E+00
 -1      2349 1.01400E+02 4.35050E+01 0.00000E+00
 -1      2350 9.91500E+01 4.22060E+01 0.00000E+00
 -1      2351 1.02900E+02 4.35050E+01 0.00000E+00
 -1      2352 1.04400E+02 4.35050E+01 0.00000E+00
 -1      2353 1.02150E+02 4.22060E+01 0.00000E+00
 -1      2354 1.05900E+02 4.35050E+01 0.00000E+00
 -1      2355 1.07400E+02 4.35050E+01 0.00000E+00
 -1      2356 1.05150E+02 4.22060E+01 0.00000E+00
 -1      2357 1.08900E+02 4.35050E+01 0.00000E+00
 -1      2358 1.10400E+02 4.35050E+01 0.00000E+00
 -1      2359 1.08150E+02 4.22060E+01 0.00000E+00
 -1      2360 1.11900E+02 4.35050E+01 0.00000E+00
 -1      2361 1.13400E+02 4.35050E+01 0.00000E+00
 -1      2362 1.11150E+02 4.22060E+01 0.00000E+00
 -1      2363 1.14900E+02 4.35050E+01 0.00000E+00
 -1      2364 1.16400E+02 4.35050E+01 0.00000E+00
 -1      2365 1.14150E+02 4.22060E+01 0.00000E+00
 -1      2366 1.17900E+02 4.35050E+01 0.00000E+00
 -1      2367 1.19400E+02 4.35050E+01 0.00000E+00
 -1      2368 1.17150E+02 4.22060E+01 0.00000E+00
 -1      2369 1.20900E+02 4.35050E+01 0.00000E+00
 -1      2370 1.22400E+02 4.35050E+01 0.00000E+00
 -1      2371 1.20150E+02 4.22060E+01 0.00000E+00
 -1      2372 1.23900E+02 4.35050E+01 0.00000E+00
 -1      2373 1.25400E+02 4.35050E+01 0.00000E+00
 -1      2374 1.23150E+02 4.22060E+01 0.00000E+00
 -1      2375 1.26900E+02 4.35050E+01 0.00000E+00
 -1      2376 1.28400E+02 4.35050E+01 0.00000E+00
 -1      2377 1.26150E+02 4.22060E+01 0.00000E+00
 -1      2378 1.29900E+02 4.35050E+01 0.00000E+00
 -1      2379 1.31400E+02 4.35050E+01 0.00000E+00
 -1      2380 1.29150E+02 4.22060E+01 0.00000E+00
 -1      2381 1.32900E+02 4.35050E+01 0.00000E+00
 -1      2382 1.34400E+02 4.35050E+01 0.00000E+00
 -1      2383 1.32150E+02 4.22060E+01 0.00000E+00
 -1      2384 1.35900E+02 4.35050E+01 0.00000E+00
 -1      2385 1.37400E+02 4.35050E+01 0.00000E+00
 -1      2386 1.35150E+02 4.22060E+01 0.00000E+00
 -1      2387 1.38900E+02 4.35050E+01 0.00000E+00
 -1      2388 1.40400E+02 4.35050E+01 0.00000E+00
 -1      2389 1.38150E+02 4.22060E+01 0.00000E+00
 -1      2390 1.97850E+01 5.30525E+00 0.00000E+00
 -1      2391 1.82850E+01 5.30525E+00 0.00000E+00
 -1      2392 2.27850E+01 5.30525E+00 0.00000E+00
 -1      2393 2.12850E+01 5.30525E+00 0.00000E+00
 -1      2394 2.05350E+01 6.60425E+00 0.00000E+00
 -1      2395 2.57850E+01 5.30525E+00 0.00000E+00
 -1      2396 2.42850E+01 5.30525E+00 0.00000E+00
 -1      2397 2.35350E+01 6.60425E+00 0.00000E+00
 -1      2398 2.87850E+01 5.30525E+00 0.00000E+00
 -1      2399 2.72850E+01 5.30525E+00 0.00000E+00
 -1      2400 2.65350E+01 6.60425E+00 0.00000E+00
 -1      2401 3.17850E+01 5.30525E+00 0.00000E+00
 -1      2402 3.02850E+01 5.30525E+00 0.00000E+00
 -1      2403 2.95350E+01 6.60425E+00 0.00000E+00
 -1      2404 3.47850E+01 5.30525E+00 0.00000E+00
 -1      2405 3.32850E+01 5.30525E+00 0.00000E+00
 -1      2406 3.25350E+01 6.60425E+00 0.00000E+00
 -1      2407 3.77850E+01 5.30525E+00 0.00000E+00
 -1      2408 3.62850E+01 5.30525E+00 0.00000E+00
 -1      2409 3.55350E+01 6.60425E+00 0.00000E+00
 -1      2410 4.07850E+01 5.30525E+00 0.00000E+00
 -1      2411 3.92850E+01 5.30525E+00 0.00000E+00
 -1      2412 3.85350E+01 6.60425E+00 0.00000E+00
 -1      2413 4.37850E+01 5.30525E+00 0.00000E+00
 -1      2414 4.22850E+01 5.30525E+00 0.00000E+00
 -1      2415 4.15350E+01 6.60425E+00 0.00000E+00
 -1      2416 4.67850E+01 5.30525E+00 0.00000E+00
 -1      2417 4.52850E+01 5.30525E+00 0.00000E+00
 -1      2418 4.45350E+01 6.60425E+00 0.00000E+00
 -1      2419 4.97850E+01 5.30525E+00 0.00000E+00
 -1      2420 4.82850E+01 5.30525E+00 0.00000E+00
 -1      2421 4.75350E+01 6.60425E+00 0.00000E+00
 -1      2422 5.27850E+01 5.30525E+00 0.00000E+00
 -1      2423 5.12850E+01 5.30525E+00 0.00000E+00
 -1      2424 5.05350E+01 6.60425E+00 0.00000E+00
 -1      2425 5.57850E+01 5.30525E+00 0.00000E+00
 -1      2426 5.42850E+01 5.30525E+00 0.00000E+00
 -1      2427 5.35350E+01 6.60425E+00 0.00000E+00
 -1      2428 5.87850E+01 5.30525E+00 0.00000E+00
 -1      2429 5.72850E+01 5.30525E+00 0.00000E+00
 -1      2430 5.65350E+01 6.60425E+00 0.00000E+00
 -1      2431 6.17850E+01 5.30525E+00 0.00000E+00
 -1      2432 6.02850E+01 5.30525E+00 0.00000E+00
 -1      2433 5.95350E+01 6.60425E+00 0.00000E+00
 -1      2434 6.47850E+01 5.30525E+00 0.00000E+00
 -1      2435 6.32850E+01 5.30525E+00 0.00000E+00
 -1      2436 6.25350E+01 6.60425E+00 0.00000E+00
 -1      2437 6.77850E+01 5.30525E+00 0.00000E+00
 -1      2438 6.62850E+01 5.30525E+00 0.00000E+00
 -1      2439 6.55350E+01 6.60425E+00 0.00000E+00
 -1      2440 7.07850E+01 5.30525E+00 0.00000E+00
 -1      2441 6.92850E+01 5.30525E+00 0.00000E+00
 -1      2442 6.85350E+01 6.60425E+00 0.00000E+00
 -1      2443 7.37850E+01 5.30525E+00 0.00000E+00
 -1      2444 7.22850E+01 5.30525E+00 0.00000E+00
 -1      2445 7.15350E+01 6.60425E+00 0.00000E+00
 -1      2446 7.67850E+01 5.30525E+00 0.00000E+00
 -1      2447 7.52850E+01 5.30525E+00 0.00000E+00
 -1      2448 7.45350E+01 6.60425E+00 0.00000E+00
 -1      2449 7.97850E+01 5.30525E+00 0.00000E+00
 -1      2450 7.82850E+01 5.30525E+00 0.00000E+00
 -1      2451 7.75350E+01 6.60425E+00 0.00000E+00
 -1      2452 8.27850E+01 5.30525E+00 0.00000E+00
 -1      2453 8.12850E+01 5.30525E+00 0.00000E+00
 -1      2454 8.05350E+01 6.60425E+00 0.00000E+00
 -1      2455 8.57850E+01 5.30525E+00 0.00000E+00
 -1      2456 8.42850E+01 5.30525E+00 0.00000E+00
 -1      2457 8.35350E+01 6.60425E+00 0.00000E+00
 -1      2458 8.87850E+01 5.30525E+00 0.00000E+00
 -1      2459 8.72850E+01 5.30525E+00 0.00000E+00
 -1      2460 8.65350E+01 6.60425E+00 0.00000E+00
 -1      2461 9.17850E+01 5.30525E+00 0.00000E+00
 -1      2462 9.02850E+01 5.30525E+00 0.00000E+00
 -1      2463 8.95350E+01 6.60425E+00 0.00000E+00
 -1      2464 9.47850E+01 5.30525E+00 0.00000E+00
 -1      2465 9.32850E+01 5.30525E+00 0.00000E+00
 -1      2466 9.25350E+01 6.60425E+00 0.00000E+00
 -1      2467 9.77850E+01 5.30525E+00 0.00000E+00
 -1      2468 9.62850E+01 5.30525E+00 0.00000E+00
 -1      2469 9.55350E+01 6.60425E+00 0.00000E+00
 -1      2470 1.00785E+02 5.30525E+00 0.00000E+00
 -1      2471 9.92850E+01 5.30525E+00 0.00000E+00
 -1      2472 9.85350E+01 6.60425E+00 0.00000E+00
 -1      2473 1.03785E+02 5.30525E+00 0.00000E+00
 -1      2474 1.02285E+02 5.30525E+00 0.00000E+00
 -1      2475 1.01535E+02 6.60425E+00 0.00000E+00
 -1      2476 1.06785E+02 5.30525E+00 0.00000E+00
 -1      2477 1.05285E+02 5.30525E+00 0.00000E+00
 -1      2478 1.04535E+02 6.60425E+00 0.00000E+00
 -1      2479 1.09785E+02 5.30525E+00 0.00000E+00
 -1      2480 1.08285E+02 5.30525E+00 0.00000E+00
 -1      2481 1.07535E+02 6.60425E+00 0.00000E+00
 -1      2482 1.12785E+02 5.30525E+00 0.00000E+00
 -1      2483 1.11285E+02 5.30525E+00 0.00000E+00
 -1      2484 1.10535E+02 6.60425E+00 0.00000E+00
 -1      2485 1.15785E+02 5.30525E+00 0.00000E+00
 -1      2486 1.14285E+02 5.30525E+00 0.00000E+00
 -1      2487 1.13535E+02 6.60425E+00 0.00000E+00
 -1      2488 1.18785E+02 5.30525E+00 0.00000E+00
 -1      2489 1.17285E+02 5.30525E+00 0.00000E+00
 -1      2490 1.16535E+02 6.60425E+00 0.00000E+00
 -1      2491 1.21785E+02 5.30525E+00 0.00000E+00
 -1      2492 1.20285E+02 5.30525E+00 0.00000E+00
 -1      2493 1.19535E+02 6.60425E+00 0.00000E+00
 -1      2494 1.24785E+02 5.30525E+00 0.00000E+00
 -1      2495 1.23285E+02 5.30525E+00 0.00000E+00
 -1      2496 1.22535E+02 6.60425E+00 0.00000E+00
 -1      2497 1.27785E+02 5.30525E+00 0.00000E+00
 -1      2498 1.26285E+02 5.30525E+00 0.00000E+00
 -1      2499 1.25535E+02 6.60425E+00 0.00000E+00
 -1      2500 1.30785E+02 5.30525E+00 0.00000E+00
 -1      2501 1.29285E+02 5.30525E+00 0.00000E+00
 -1      2502 1.28535E+02 6.60425E+00 0.00000E+00
 -1      2503 1.33785E+02 5.30525E+00 0.00000E+00
 -1      2504 1.32285E+02 5.30525E+00 0.00000E+00
 -1      2505 1.31535E+02 6.60425E+00 0.00000E+00
 -1      2506 1.36785E+02 5.30525E+00 0.00000E+00
 -1      2507 1.35285E+02 5.30525E+00 0.00000E+00
 -1      2508 1.34535E+02 6.60425E+00 0.00000E+00
 -1      2509 1.39785E+02 5.30525E+00 0.00000E+00
 -1      2510 1.38285E+02 5.30525E+00 0.00000E+00
 -1      2511 1.37535E+02 6.60425E+00 0.00000E+00
 -1      2512 1.42785E+02 5.30525E+00 0.00000E+00
 -1      2513 1.41285E+02 5.30525E+00 0.00000E+00
 -1      2514 1.40535E+02 6.60425E+00 0.00000E+00
 -1      2515 1.44336E+02 5.26953E+00 0.00000E+00
 -1      2516 1.43505E+02 1.69125E+01 0.00000E+00
 -1      2517 1.43505E+02 1.54375E+01 0.00000E+00
 -1      2518 1.43505E+02 1.98625E+01 0.00000E+00
 -1      2519 1.43505E+02 1.83875E+01 0.00000E+00
 -1      2520 1.42206E+02 1.76500E+01 0.00000E+00
 -1      2521 1.43505E+02 1.10625E+01 0.00000E+00
 -1      2522 1.43505E+02 9.58750E+00 0.00000E+00
 -1      2523 1.43505E+02 1.39750E+01 0.00000E+00
 -1      2524 1.43505E+02 1.25250E+01 0.00000E+00
 -1      2525 1.42206E+02 1.17875E+01 0.00000E+00
 -1      2526 1.42206E+02 1.47125E+01 0.00000E+00
 -1      2527 1.43505E+02 2.28125E+01 0.00000E+00
 -1      2528 1.43505E+02 2.13375E+01 0.00000E+00
 -1      2529 1.42206E+02 2.06000E+01 0.00000E+00
 -1      2530 1.43505E+02 2.57625E+01 0.00000E+00
 -1      2531 1.43505E+02 2.42875E+01 0.00000E+00
 -1      2532 1.42206E+02 2.35500E+01 0.00000E+00
 -1      2533 1.43505E+02 2.87125E+01 0.00000E+00
 -1      2534 1.43505E+02 2.72375E+01 0.00000E+00
 -1      2535 1.42206E+02 2.65000E+01 0.00000E+00
 -1      2536 1.43505E+02 3.16125E+01 0.00000E+00
 -1      2537 1.43505E+02 3.01625E+01 0.00000E+00
 -1      2538 1.42206E+02 2.94250E+01 0.00000E+00
 -1      2539 1.43505E+02 3.45625E+01 0.00000E+00
 -1      2540 1.43505E+02 3.30875E+01 0.00000E+00
 -1      2541 1.42206E+02 3.23500E+01 0.00000E+00
 -1      2542 1.43505E+02 3.75125E+01 0.00000E+00
 -1      2543 1.43505E+02 3.60375E+01 0.00000E+00
 -1      2544 1.42206E+02 3.53000E+01 0.00000E+00
 -1      2545 1.43505E+02 4.04625E+01 0.00000E+00
 -1      2546 1.43505E+02 3.89875E+01 0.00000E+00
 -1      2547 1.42206E+02 3.82500E+01 0.00000E+00
 -1      2548 9.31669E+01 2.24486E+01 0.00000E+00
 -1      2549 9.34367E+01 2.35933E+01 0.00000E+00
 -1      2550 9.15889E+01 1.81928E+01 0.00000E+00
 -1      2551 9.23479E+01 1.91260E+01 0.00000E+00
 -1      2552 1.67850E+01 5.30525E+00 0.00000E+00
 -1      2553 1.52850E+01 5.30525E+00 0.00000E+00
 -1      2554 1.75350E+01 6.60425E+00 0.00000E+00
 -1      2555 1.44321E+02 4.30606E+01 0.00000E+00
 -1      2556 9.35569E+01 2.50666E+01 0.00000E+00
 -1      2557 9.33473E+01 2.62018E+01 0.00000E+00
 -1      2558 9.29501E+01 2.05286E+01 0.00000E+00
 -1      2559 9.30585E+01 2.14886E+01 0.00000E+00
 -1      2560 9.39465E+01 2.18835E+01 0.00000E+00
 -1      2561 8.62165E+01 1.44331E+01 0.00000E+00
 -1      2562 8.70669E+01 1.47439E+01 0.00000E+00
 -1      2563 9.29105E+01 2.73823E+01 0.00000E+00
 -1      2564 9.25119E+01 2.83069E+01 0.00000E+00
 -1      2565 8.24429E+01 3.46869E+01 0.00000E+00
 -1      2566 8.13574E+01 3.45339E+01 0.00000E+00
 -1      2567 7.25616E+01 2.63193E+01 0.00000E+00
 -1      2568 7.24753E+01 2.51749E+01 0.00000E+00
 -1      2569 6.49500E+00 2.71625E+01 0.00000E+00
 -1      2570 6.49500E+00 2.86375E+01 0.00000E+00
 -1      2571 7.79400E+00 2.93750E+01 0.00000E+00
 -1      2572 7.79400E+00 2.64250E+01 0.00000E+00
 -1      2573 8.21050E+01 1.39711E+01 0.00000E+00
 -1      2574 8.31179E+01 1.39569E+01 0.00000E+00
 -1      2575 8.42272E+01 1.40280E+01 0.00000E+00
 -1      2576 8.51575E+01 1.41659E+01 0.00000E+00
 -1      2577 7.99286E+01 1.43463E+01 0.00000E+00
 -1      2578 8.09204E+01 1.41157E+01 0.00000E+00
 -1      2579 7.80052E+01 1.52615E+01 0.00000E+00
 -1      2580 7.88503E+01 1.48264E+01 0.00000E+00
 -1      2581 7.63426E+01 1.62663E+01 0.00000E+00
 -1      2582 7.71279E+01 1.57652E+01 0.00000E+00
 -1      2583 7.45965E+01 1.79048E+01 0.00000E+00
 -1      2584 7.53737E+01 1.70488E+01 0.00000E+00
 -1      2585 7.35797E+01 1.99746E+01 0.00000E+00
 -1      2586 7.39175E+01 1.90658E+01 0.00000E+00
 -1      2587 7.28608E+01 2.18847E+01 0.00000E+00
 -1      2588 7.32202E+01 2.09297E+01 0.00000E+00
 -1      2589 7.26639E+01 2.02057E+01 0.00000E+00
 -1      2590 7.25251E+01 2.40304E+01 0.00000E+00
 -1      2591 7.25483E+01 2.30689E+01 0.00000E+00
 -1      2592 7.33578E+01 2.83558E+01 0.00000E+00
 -1      2593 7.29712E+01 2.75900E+01 0.00000E+00
 -1      2594 7.44378E+01 3.02962E+01 0.00000E+00
 -1      2595 7.38978E+01 2.93260E+01 0.00000E+00
 -1      2596 7.29390E+01 2.93295E+01 0.00000E+00
 -1      2597 7.58652E+01 3.17606E+01 0.00000E+00
 -1      2598 7.52143E+01 3.11333E+01 0.00000E+00
 -1      2599 8.90483E+01 3.26702E+01 0.00000E+00
 -1      2600 8.82529E+01 3.33185E+01 0.00000E+00
 -1      2601 7.75318E+01 3.33045E+01 0.00000E+00
 -1      2602 7.66465E+01 3.24927E+01 0.00000E+00
 -1      2603 8.45428E+01 3.47910E+01 0.00000E+00
 -1      2604 8.36021E+01 3.48329E+01 0.00000E+00
 -1      2605 9.06477E+01 3.14442E+01 0.00000E+00
 -1      2606 8.98480E+01 3.20572E+01 0.00000E+00
 -1      2607 8.99797E+01 3.30308E+01 0.00000E+00
 -1      2608 9.20849E+01 2.93728E+01 0.00000E+00
 -1      2609 9.15419E+01 3.03767E+01 0.00000E+00
 -1      2610 6.55950E+00 4.28890E+01 0.00000E+00
 -1      2611 8.53650E+00 4.32410E+01 0.00000E+00
 -1      2612 9.28650E+00 4.19420E+01 0.00000E+00
 -1      2613 6.55950E+00 4.14140E+01 0.00000E+00
 -1      2614 8.07525E+00 5.11044E+00 0.00000E+00
 -1      2615 6.57525E+00 5.11044E+00 0.00000E+00
 -1      2616 6.40575E+00 6.01981E+00 0.00000E+00
 -1      2617 8.82525E+00 6.40944E+00 0.00000E+00
 -1      2618 8.37088E+01 1.31776E+01 0.00000E+00
 -1      2619 7.79400E+00 3.52687E+01 0.00000E+00
 -1      2620 6.49500E+00 3.60062E+01 0.00000E+00
 -1      2621 6.49500E+00 3.74750E+01 0.00000E+00
 -1      2622 1.45350E+01 6.60425E+00 0.00000E+00
 -1      2623 6.40575E+00 7.49481E+00 0.00000E+00
 -1      2624 9.16735E+01 3.13503E+01 0.00000E+00
 -1      2625 8.79345E+01 1.45155E+01 0.00000E+00
 -1      2626 8.53428E+01 3.51436E+01 0.00000E+00
 -1      2627 8.49106E+01 3.60212E+01 0.00000E+00
 -1      2628 8.61429E+01 3.54961E+01 0.00000E+00
 -1      2629 9.18654E+01 1.73678E+01 0.00000E+00
 -1      2630 8.97982E+01 1.51571E+01 0.00000E+00
 -1      2631 9.00150E+01 1.59326E+01 0.00000E+00
 -1      2632 9.08803E+01 1.58418E+01 0.00000E+00
 -1      2633 7.79160E+01 3.40129E+01 0.00000E+00
 -1      2634 7.69787E+01 3.41464E+01 0.00000E+00
 -1      2635 7.83002E+01 3.47214E+01 0.00000E+00
 -1      2636 9.38586E+01 2.69704E+01 0.00000E+00
 -1      2637 1.43586E+02 6.56853E+00 0.00000E+00
 -1      2638 1.43419E+02 7.72713E+00 0.00000E+00
 -1      2639 7.42554E+01 3.11368E+01 0.00000E+00
 -1      2640 9.47934E+01 2.35668E+01 0.00000E+00
 -1      2641 9.41752E+01 2.43167E+01 0.00000E+00
 -1      2642 9.49137E+01 2.50400E+01 0.00000E+00
 -1      2643 9.35217E+01 1.85132E+01 0.00000E+00
 -1      2644 9.32359E+01 1.95209E+01 0.00000E+00
 -1      2645 9.41240E+01 1.99158E+01 0.00000E+00
 -1      2646 7.19919E+01 2.23448E+01 0.00000E+00
 -1      2647 7.70475E+00 8.23231E+00 0.00000E+00
 -1      2648 8.58771E+01 1.35159E+01 0.00000E+00
 -1      2649 9.29947E+01 2.92168E+01 0.00000E+00
 -1      2650 8.05148E+01 3.49822E+01 0.00000E+00
 -1      2651 7.37023E+01 1.80895E+01 0.00000E+00
 -1      2652 7.53502E+01 1.61460E+01 0.00000E+00
 -1      2653 8.78775E+01 3.41311E+01 0.00000E+00
 -1      2654 8.75021E+01 3.49437E+01 0.00000E+00
 -1      2655 8.88046E+01 3.44564E+01 0.00000E+00
 -1      2656 7.71963E+01 1.48598E+01 0.00000E+00
 -1      2657 7.16296E+01 2.46735E+01 0.00000E+00
 -1      2658 7.91519E+01 1.38759E+01 0.00000E+00
 -1      2659 7.19894E+01 2.70887E+01 0.00000E+00
 -1      2660 8.29514E+01 3.55226E+01 0.00000E+00
 -1      2661 6.52725E+00 3.87101E+01 0.00000E+00
 -1      2662 6.52725E+00 4.01789E+01 0.00000E+00
 -1      2663 7.89075E+00 4.04429E+01 0.00000E+00
 -1      2664 7.82625E+00 3.79726E+01 0.00000E+00
 -1      2665 8.14149E+01 1.32511E+01 0.00000E+00
 -1      2666 7.58132E+01 3.27059E+01 0.00000E+00
 -1      2667 1.42758E+02 4.35929E+01 0.00000E+00
 -1      2668 1.43241E+02 4.17323E+01 0.00000E+00
 -1      2669 1.41942E+02 4.09948E+01 0.00000E+00
 -1      2670 1.41414E+02 4.35342E+01 0.00000E+00
 -1      2671 1.42120E+02 8.46463E+00 0.00000E+00
 -1      2672 1.40664E+02 4.22352E+01 0.00000E+00
 -1      2673 9.09300E+00 1.98250E+01 0.00000E+00
 -1      2674 9.09300E+00 2.12750E+01 0.00000E+00
 -1      2675 9.09300E+00 2.27500E+01 0.00000E+00
 -1      2676 9.09300E+00 2.42250E+01 0.00000E+00
 -1      2677 1.03920E+01 2.20250E+01 0.00000E+00
 -1      2678 9.09300E+00 1.39375E+01 0.00000E+00
 -1      2679 9.09300E+00 1.54125E+01 0.00000E+00
 -1      2680 9.09300E+00 1.09875E+01 0.00000E+00
 -1      2681 9.09300E+00 1.24625E+01 0.00000E+00
 -1      2682 1.03920E+01 1.32000E+01 0.00000E+00
 -1      2683 1.22850E+01 7.90325E+00 0.00000E+00
 -1      2684 1.07850E+01 7.90325E+00 0.00000E+00
 -1      2685 8.55984E+01 1.23883E+01 0.00000E+00
 -1      2686 8.66574E+01 1.26555E+01 0.00000E+00
 -1      2687 8.91450E+00 8.42712E+00 0.00000E+00
 -1      2688 1.44000E+01 4.09070E+01 0.00000E+00
 -1      2689 1.59000E+01 4.09070E+01 0.00000E+00
 -1      2690 1.74000E+01 4.09070E+01 0.00000E+00
 -1      2691 1.89000E+01 4.09070E+01 0.00000E+00
 -1      2692 1.66500E+01 3.96080E+01 0.00000E+00
 -1      2693 2.04000E+01 4.09070E+01 0.00000E+00
 -1      2694 2.19000E+01 4.09070E+01 0.00000E+00
 -1      2695 1.96500E+01 3.96080E+01 0.00000E+00
 -1      2696 2.34000E+01 4.09070E+01 0.00000E+00
 -1      2697 2.49000E+01 4.09070E+01 0.00000E+00
 -1      2698 2.26500E+01 3.96080E+01 0.00000E+00
 -1      2699 2.64000E+01 4.09070E+01 0.00000E+00
 -1      2700 2.79000E+01 4.09070E+01 0.00000E+00
 -1      2701 2.56500E+01 3.96080E+01 0.00000E+00
 -1      2702 2.94000E+01 4.09070E+01 0.00000E+00
 -1      2703 3.09000E+01 4.09070E+01 0.00000E+00
 -1      2704 2.86500E+01 3.96080E+01 0.00000E+00
 -1      2705 3.24000E+01 4.09070E+01 0.00000E+00
 -1      2706 3.39000E+01 4.09070E+01 0.00000E+00
 -1      2707 3.16500E+01 3.96080E+01 0.00000E+00
 -1      2708 3.54000E+01 4.09070E+01 0.00000E+00
 -1      2709 3.69000E+01 4.09070E+01 0.00000E+00
 -1      2710 3.46500E+01 3.96080E+01 0.00000E+00
 -1      2711 3.84000E+01 4.09070E+01 0.00000E+00
 -1      2712 3.99000E+01 4.09070E+01 0.00000E+00
 -1      2713 3.76500E+01 3.96080E+01 0.00000E+00
 -1      2714 4.14000E+01 4.09070E+01 0.00000E+00
 -1      2715 4.29000E+01 4.09070E+01 0.00000E+00
 -1      2716 4.06500E+01 3.96080E+01 0.00000E+00
 -1      2717 4.44000E+01 4.09070E+01 0.00000E+00
 -1      2718 4.59000E+01 4.09070E+01 0.00000E+00
 -1      2719 4.36500E+01 3.96080E+01 0.00000E+00
 -1      2720 4.74000E+01 4.09070E+01 0.00000E+00
 -1      2721 4.89000E+01 4.09070E+01 0.00000E+00
 -1      2722 4.66500E+01 3.96080E+01 0.00000E+00
 -1      2723 5.04000E+01 4.09070E+01 0.00000E+00
 -1      2724 5.19000E+01 4.09070E+01 0.00000E+00
 -1      2725 4.96500E+01 3.96080E+01 0.00000E+00
 -1      2726 5.34000E+01 4.09070E+01 0.00000E+00
 -1      2727 5.49000E+01 4.09070E+01 0.00000E+00
 -1      2728 5.26500E+01 3.96080E+01 0.00000E+00
 -1      2729 5.64000E+01 4.09070E+01 0.00000E+00
 -1      2730 5.79000E+01 4.09070E+01 0.00000E+00
 -1      2731 5.56500E+01 3.96080E+01 0.00000E+00
 -1      2732 5.94000E+01 4.09070E+01 0.00000E+00
 -1      2733 6.09000E+01 4.09070E+01 0.00000E+00
 -1      2734 5.86500E+01 3.96080E+01 0.00000E+00
 -1      2735 6.24000E+01 4.09070E+01 0.00000E+00
 -1      2736 6.39000E+01 4.09070E+01 0.00000E+00
 -1      2737 6.16500E+01 3.96080E+01 0.00000E+00
 -1      2738 6.54000E+01 4.09070E+01 0.00000E+00
 -1      2739 6.69000E+01 4.09070E+01 0.00000E+00
 -1      2740 6.46500E+01 3.96080E+01 0.00000E+00
 -1      2741 6.84000E+01 4.09070E+01 0.00000E+00
 -1      2742 6.99000E+01 4.09070E+01 0.00000E+00
 -1      2743 6.76500E+01 3.96080E+01 0.00000E+00
 -1      2744 7.14000E+01 4.09070E+01 0.00000E+00
 -1      2745 7.29000E+01 4.09070E+01 0.00000E+00
 -1      2746 7.06500E+01 3.96080E+01 0.00000E+00
 -1      2747 7.44000E+01 4.09070E+01 0.00000E+00
 -1      2748 7.59000E+01 4.09070E+01 0.00000E+00
 -1      2749 7.36500E+01 3.96080E+01 0.00000E+00
 -1      2750 7.74000E+01 4.09070E+01 0.00000E+00
 -1      2751 7.89000E+01 4.09070E+01 0.00000E+00
 -1      2752 7.66500E+01 3.96080E+01 0.00000E+00
 -1      2753 8.04000E+01 4.09070E+01 0.00000E+00
 -1      2754 8.19000E+01 4.09070E+01 0.00000E+00
 -1      2755 7.96500E+01 3.96080E+01 0.00000E+00
 -1      2756 8.34000E+01 4.09070E+01 0.00000E+00
 -1      2757 8.49000E+01 4.09070E+01 0.00000E+00
 -1      2758 8.26500E+01 3.96080E+01 0.00000E+00
 -1      2759 8.64000E+01 4.09070E+01 0.00000E+00
 -1      2760 8.79000E+01 4.09070E+01 0.00000E+00
 -1      2761 8.56500E+01 3.96080E+01 0.00000E+00
 -1      2762 8.94000E+01 4.09070E+01 0.00000E+00
 -1      2763 9.09000E+01 4.09070E+01 0.00000E+00
 -1      2764 8.86500E+01 3.96080E+01 0.00000E+00
 -1      2765 9.24000E+01 4.09070E+01 0.00000E+00
 -1      2766 9.39000E+01 4.09070E+01 0.00000E+00
 -1      2767 9.16500E+01 3.96080E+01 0.00000E+00
 -1      2768 9.54000E+01 4.09070E+01 0.00000E+00
 -1      2769 9.69000E+01 4.09070E+01 0.00000E+00
 -1      2770 9.46500E+01 3.96080E+01 0.00000E+00
 -1      2771 9.84000E+01 4.09070E+01 0.00000E+00
 -1      2772 9.99000E+01 4.09070E+01 0.00000E+00
 -1      2773 9.76500E+01 3.96080E+01 0.00000E+00
 -1      2774 1.01400E+02 4.09070E+01 0.00000E+00
 -1      2775 1.02900E+02 4.09070E+01 0.00000E+00
 -1      2776 1.00650E+02 3.96080E+01 0.00000E+00
 -1      2777 1.04400E+02 4.09070E+01 0.00000E+00
 -1      2778 1.05900E+02 4.09070E+01 0.00000E+00
 -1      2779 1.03650E+02 3.96080E+01 0.00000E+00
 -1      2780 1.07400E+02 4.09070E+01 0.00000E+00
 -1      2781 1.08900E+02 4.09070E+01 0.00000E+00
 -1      2782 1.06650E+02 3.96080E+01 0.00000E+00
 -1      2783 1.10400E+02 4.09070E+01 0.00000E+00
 -1      2784 1.11900E+02 4.09070E+01 0.00000E+00
 -1      2785 1.09650E+02 3.96080E+01 0.00000E+00
 -1      2786 1.13400E+02 4.09070E+01 0.00000E+00
 -1      2787 1.14900E+02 4.09070E+01 0.00000E+00
 -1      2788 1.12650E+02 3.96080E+01 0.00000E+00
 -1      2789 1.16400E+02 4.09070E+01 0.00000E+00
 -1      2790 1.17900E+02 4.09070E+01 0.00000E+00
 -1      2791 1.15650E+02 3.96080E+01 0.00000E+00
 -1      2792 1.19400E+02 4.09070E+01 0.00000E+00
 -1      2793 1.20900E+02 4.09070E+01 0.00000E+00
 -1      2794 1.18650E+02 3.96080E+01 0.00000E+00
 -1      2795 1.22400E+02 4.09070E+01 0.00000E+00
 -1      2796 1.23900E+02 4.09070E+01 0.00000E+00
 -1      2797 1.21650E+02 3.96080E+01 0.00000E+00
 -1      2798 1.25400E+02 4.09070E+01 0.00000E+00
 -1      2799 1.26900E+02 4.09070E+01 0.00000E+00
 -1      2800 1.24650E+02 3.96080E+01 0.00000E+00
 -1      2801 1.28400E+02 4.09070E+01 0.00000E+00
 -1      2802 1.29900E+02 4.09070E+01 0.00000E+00
 -1      2803 1.27650E+02 3.96080E+01 0.00000E+00
 -1      2804 1.31400E+02 4.09070E+01 0.00000E+00
 -1      2805 1.32900E+02 4.09070E+01 0.00000E+00
 -1      2806 1.30650E+02 3.96080E+01 0.00000E+00
 -1      2807 1.34400E+02 4.09070E+01 0.00000E+00
 -1      2808 1.35900E+02 4.09070E+01 0.00000E+00
 -1      2809 1.33650E+02 3.96080E+01 0.00000E+00
 -1      2810 1.37400E+02 4.09070E+01 0.00000E+00
 -1      2811 1.38900E+02 4.09070E+01 0.00000E+00
 -1      2812 1.36650E+02 3.96080E+01 0.00000E+00
 -1      2813 2.42850E+01 7.90325E+00 0.00000E+00
 -1      2814 2.27850E+01 7.90325E+00 0.00000E+00
 -1      2815 1.40706E+02 1.03250E+01 0.00000E+00
 -1      2816 1.40620E+02 8.46463E+00 0.00000E+00
 -1      2817 1.39120E+02 8.46463E+00 0.00000E+00
 -1      2818 8.79425E+01 1.34579E+01 0.00000E+00
 -1      2819 8.89409E+01 1.41903E+01 0.00000E+00
 -1      2820 2.12850E+01 7.90325E+00 0.00000E+00
 -1      2821 1.97850E+01 7.90325E+00 0.00000E+00
 -1      2822 2.20350E+01 9.20225E+00 0.00000E+00
 -1      2823 3.02850E+01 7.90325E+00 0.00000E+00
 -1      2824 2.87850E+01 7.90325E+00 0.00000E+00
 -1      2825 3.32850E+01 7.90325E+00 0.00000E+00
 -1      2826 3.17850E+01 7.90325E+00 0.00000E+00
 -1      2827 3.10350E+01 9.20225E+00 0.00000E+00
 -1      2828 3.62850E+01 7.90325E+00 0.00000E+00
 -1      2829 3.47850E+01 7.90325E+00 0.00000E+00
 -1      2830 3.40350E+01 9.20225E+00 0.00000E+00
 -1      2831 3.92850E+01 7.90325E+00 0.00000E+00
 -1      2832 3.77850E+01 7.90325E+00 0.00000E+00
 -1      2833 3.70350E+01 9.20225E+00 0.00000E+00
 -1      2834 4.22850E+01 7.90325E+00 0.00000E+00
 -1      2835 4.07850E+01 7.90325E+00 0.00000E+00
 -1      2836 4.00350E+01 9.20225E+00 0.00000E+00
 -1      2837 4.52850E+01 7.90325E+00 0.00000E+00
 -1      2838 4.37850E+01 7.90325E+00 0.00000E+00
 -1      2839 4.30350E+01 9.20225E+00 0.00000E+00
 -1      2840 4.82850E+01 7.90325E+00 0.00000E+00
 -1      2841 4.67850E+01 7.90325E+00 0.00000E+00
 -1      2842 4.60350E+01 9.20225E+00 0.00000E+00
 -1      2843 5.12850E+01 7.90325E+00 0.00000E+00
 -1      2844 4.97850E+01 7.90325E+00 0.00000E+00
 -1      2845 4.90350E+01 9.20225E+00 0.00000E+00
 -1      2846 5.42850E+01 7.90325E+00 0.00000E+00
 -1      2847 5.27850E+01 7.90325E+00 0.00000E+00
 -1      2848 5.20350E+01 9.20225E+00 0.00000E+00
 -1      2849 5.72850E+01 7.90325E+00 0.00000E+00
 -1      2850 5.57850E+01 7.90325E+00 0.00000E+00
 -1      2851 5.50350E+01 9.20225E+00 0.00000E+00
 -1      2852 6.02850E+01 7.90325E+00 0.00000E+00
 -1      2853 5.87850E+01 7.90325E+00 0.00000E+00
 -1      2854 5.80350E+01 9.20225E+00 0.00000E+00
 -1      2855 6.32850E+01 7.90325E+00 0.00000E+00
 -1      2856 6.17850E+01 7.90325E+00 0.00000E+00
 -1      2857 6.10350E+01 9.20225E+00 0.00000E+00
 -1      2858 6.62850E+01 7.90325E+00 0.00000E+00
 -1      2859 6.47850E+01 7.90325E+00 0.00000E+00
 -1      2860 6.40350E+01 9.20225E+00 0.00000E+00
 -1      2861 6.92850E+01 7.90325E+00 0.00000E+00
 -1      2862 6.77850E+01 7.90325E+00 0.00000E+00
 -1      2863 6.70350E+01 9.20225E+00 0.00000E+00
 -1      2864 7.22850E+01 7.90325E+00 0.00000E+00
 -1      2865 7.07850E+01 7.90325E+00 0.00000E+00
 -1      2866 7.00350E+01 9.20225E+00 0.00000E+00
 -1      2867 7.52850E+01 7.90325E+00 0.00000E+00
 -1      2868 7.37850E+01 7.90325E+00 0.00000E+00
 -1      2869 7.30350E+01 9.20225E+00 0.00000E+00
 -1      2870 7.82850E+01 7.90325E+00 0.00000E+00
 -1      2871 7.67850E+01 7.90325E+00 0.00000E+00
 -1      2872 7.60350E+01 9.20225E+00 0.00000E+00
 -1      2873 8.12850E+01 7.90325E+00 0.00000E+00
 -1      2874 7.97850E+01 7.90325E+00 0.00000E+00
 -1      2875 7.90350E+01 9.20225E+00 0.00000E+00
 -1      2876 8.42850E+01 7.90325E+00 0.00000E+00
 -1      2877 8.27850E+01 7.90325E+00 0.00000E+00
 -1      2878 8.20350E+01 9.20225E+00 0.00000E+00
 -1      2879 9.02850E+01 7.88073E+00 0.00000E+00
 -1      2880 8.87850E+01 7.88073E+00 0.00000E+00
 -1      2881 9.32850E+01 7.88073E+00 0.00000E+00
 -1      2882 9.17850E+01 7.88073E+00 0.00000E+00
 -1      2883 9.10350E+01 9.15721E+00 0.00000E+00
 -1      2884 9.62850E+01 7.88073E+00 0.00000E+00
 -1      2885 9.47850E+01 7.88073E+00 0.00000E+00
 -1      2886 9.40350E+01 9.15721E+00 0.00000E+00
 -1      2887 9.92850E+01 7.88073E+00 0.00000E+00
 -1      2888 9.77850E+01 7.88073E+00 0.00000E+00
 -1      2889 9.70350E+01 9.15721E+00 0.00000E+00
 -1      2890 1.02285E+02 7.88073E+00 0.00000E+00
 -1      2891 1.00785E+02 7.88073E+00 0.00000E+00
 -1      2892 1.00035E+02 9.15721E+00 0.00000E+00
 -1      2893 1.05285E+02 7.88073E+00 0.00000E+00
 -1      2894 1.03785E+02 7.88073E+00 0.00000E+00
 -1      2895 1.03035E+02 9.15721E+00 0.00000E+00
 -1      2896 1.08285E+02 7.88073E+00 0.00000E+00
 -1      2897 1.06785E+02 7.88073E+00 0.00000E+00
 -1      2898 1.06035E+02 9.15721E+00 0.00000E+00
 -1      2899 1.11285E+02 7.88073E+00 0.00000E+00
 -1      2900 1.09785E+02 7.88073E+00 0.00000E+00
 -1      2901 1.09035E+02 9.15721E+00 0.00000E+00
 -1      2902 1.14285E+02 7.88073E+00 0.00000E+00
 -1      2903 1.12785E+02 7.88073E+00 0.00000E+00
 -1      2904 1.12035E+02 9.15721E+00 0.00000E+00
 -1      2905 1.17285E+02 7.88073E+00 0.00000E+00
 -1      2906 1.15785E+02 7.88073E+00 0.00000E+00
 -1      2907 1.15035E+02 9.15721E+00 0.00000E+00
 -1      2908 1.20285E+02 7.88073E+00 0.00000E+00
 -1      2909 1.18785E+02 7.88073E+00 0.00000E+00
 -1      2910 1.18035E+02 9.15721E+00 0.00000E+00
 -1      2911 1.23285E+02 7.88073E+00 0.00000E+00
 -1      2912 1.21785E+02 7.88073E+00 0.00000E+00
 -1      2913 1.21035E+02 9.15721E+00 0.00000E+00
 -1      2914 1.26285E+02 7.88073E+00 0.00000E+00
 -1      2915 1.24785E+02 7.88073E+00 0.00000E+00
 -1      2916 1.24035E+02 9.15721E+00 0.00000E+00
 -1      2917 1.29285E+02 7.88073E+00 0.00000E+00
 -1      2918 1.27785E+02 7.88073E+00 0.00000E+00
 -1      2919 1.27035E+02 9.15721E+00 0.00000E+00
 -1      2920 1.32285E+02 7.88073E+00 0.00000E+00
 -1      2921 1.30785E+02 7.88073E+00 0.00000E+00
 -1      2922 1.30035E+02 9.15721E+00 0.00000E+00
 -1      2923 1.35285E+02 7.88073E+00 0.00000E+00
 -1      2924 1.33785E+02 7.88073E+00 0.00000E+00
 -1      2925 1.33035E+02 9.15721E+00 0.00000E+00
 -1      2926 1.37953E+02 8.17268E+00 0.00000E+00
 -1      2927 1.36453E+02 8.17268E+00 0.00000E+00
 -1      2928 1.35703E+02 9.44916E+00 0.00000E+00
 -1      2929 1.38038E+02 1.00331E+01 0.00000E+00
 -1      2930 1.40907E+02 2.42875E+01 0.00000E+00
 -1      2931 1.40907E+02 2.28125E+01 0.00000E+00
 -1      2932 1.39914E+02 4.09362E+01 0.00000E+00
 -1      2933 1.40928E+02 4.09655E+01 0.00000E+00
 -1      2934 1.39164E+02 3.96372E+01 0.00000E+00
 -1      2935 1.40907E+02 1.83875E+01 0.00000E+00
 -1      2936 1.40907E+02 1.69125E+01 0.00000E+00
 -1      2937 1.40907E+02 2.72375E+01 0.00000E+00
 -1      2938 1.40907E+02 2.57625E+01 0.00000E+00
 -1      2939 1.39608E+02 2.50250E+01 0.00000E+00
 -1      2940 1.40907E+02 2.13375E+01 0.00000E+00
 -1      2941 1.40907E+02 1.98625E+01 0.00000E+00
 -1      2942 1.39608E+02 1.91250E+01 0.00000E+00
 -1      2943 1.39608E+02 2.20750E+01 0.00000E+00
 -1      2944 1.40907E+02 3.01375E+01 0.00000E+00
 -1      2945 1.40907E+02 2.86875E+01 0.00000E+00
 -1      2946 1.39608E+02 2.79500E+01 0.00000E+00
 -1      2947 1.40907E+02 3.30875E+01 0.00000E+00
 -1      2948 1.40907E+02 3.16125E+01 0.00000E+00
 -1      2949 1.39608E+02 3.08750E+01 0.00000E+00
 -1      2950 1.40907E+02 3.60375E+01 0.00000E+00
 -1      2951 1.40907E+02 3.45625E+01 0.00000E+00
 -1      2952 1.39608E+02 3.38250E+01 0.00000E+00
 -1      2953 7.09255E+01 2.26967E+01 0.00000E+00
 -1      2954 7.12380E+01 2.15125E+01 0.00000E+00
 -1      2955 9.48278E+01 2.12979E+01 0.00000E+00
 -1      2956 9.49361E+01 2.22579E+01 0.00000E+00
 -1      2957 7.38921E+01 3.22525E+01 0.00000E+00
 -1      2958 7.31156E+01 3.14154E+01 0.00000E+00
 -1      2959 1.82850E+01 7.90325E+00 0.00000E+00
 -1      2960 1.67850E+01 7.90325E+00 0.00000E+00
 -1      2961 1.90350E+01 9.20225E+00 0.00000E+00
 -1      2962 2.72850E+01 7.90325E+00 0.00000E+00
 -1      2963 2.57850E+01 7.90325E+00 0.00000E+00
 -1      2964 2.50350E+01 9.20225E+00 0.00000E+00
 -1      2965 2.80350E+01 9.20225E+00 0.00000E+00
 -1      2966 1.14000E+01 4.09070E+01 0.00000E+00
 -1      2967 1.29000E+01 4.09070E+01 0.00000E+00
 -1      2968 1.36500E+01 3.96080E+01 0.00000E+00
 -1      2969 9.09300E+00 1.68813E+01 0.00000E+00
 -1      2970 9.09300E+00 1.83563E+01 0.00000E+00
 -1      2971 1.03920E+01 1.90812E+01 0.00000E+00
 -1      2972 1.03920E+01 1.61437E+01 0.00000E+00
 -1      2973 1.52850E+01 7.90325E+00 0.00000E+00
 -1      2974 1.37850E+01 7.90325E+00 0.00000E+00
 -1      2975 1.30350E+01 9.20225E+00 0.00000E+00
 -1      2976 1.60350E+01 9.20225E+00 0.00000E+00
 -1      2977 8.07085E+01 1.23890E+01 0.00000E+00
 -1      2978 8.18931E+01 1.22444E+01 0.00000E+00
 -1      2979 9.29065E+01 3.14747E+01 0.00000E+00
 -1      2980 9.20123E+01 3.25423E+01 0.00000E+00
 -1      2981 9.09300E+00 3.15875E+01 0.00000E+00
 -1      2982 9.09300E+00 3.30625E+01 0.00000E+00
 -1      2983 7.26226E+01 1.82372E+01 0.00000E+00
 -1      2984 7.33015E+01 1.70761E+01 0.00000E+00
 -1      2985 9.40820E+01 2.90340E+01 0.00000E+00
 -1      2986 9.36550E+01 3.00999E+01 0.00000E+00
 -1      2987 9.49557E+01 2.66730E+01 0.00000E+00
 -1      2988 9.45189E+01 2.78535E+01 0.00000E+00
 -1      2989 9.51791E+01 2.87365E+01 0.00000E+00
 -1      2990 7.13780E+01 2.79871E+01 0.00000E+00
 -1      2991 7.09684E+01 2.67164E+01 0.00000E+00
 -1      2992 7.05805E+01 2.52012E+01 0.00000E+00
 -1      2993 7.06303E+01 2.40567E+01 0.00000E+00
 -1      2994 7.43269E+01 1.58701E+01 0.00000E+00
 -1      2995 7.52958E+01 1.50876E+01 0.00000E+00
 -1      2996 7.16816E+01 2.03811E+01 0.00000E+00
 -1      2997 7.20410E+01 1.94261E+01 0.00000E+00
 -1      2998 7.81958E+01 1.31794E+01 0.00000E+00
 -1      2999 7.92741E+01 1.26993E+01 0.00000E+00
 -1      3000 8.34238E+01 3.64464E+01 0.00000E+00
 -1      3001 8.22646E+01 3.63004E+01 0.00000E+00
 -1      3002 7.24597E+01 3.02317E+01 0.00000E+00
 -1      3003 7.19197E+01 2.92615E+01 0.00000E+00
 -1      3004 7.64412E+01 1.41870E+01 0.00000E+00
 -1      3005 7.73185E+01 1.36832E+01 0.00000E+00
 -1      3006 7.74407E+01 1.25066E+01 0.00000E+00
 -1      3007 7.56462E+01 3.36672E+01 0.00000E+00
 -1      3008 7.48649E+01 3.29352E+01 0.00000E+00
 -1      3009 1.41192E+02 3.96958E+01 0.00000E+00
 -1      3010 9.10032E+01 3.35379E+01 0.00000E+00
 -1      3011 9.02035E+01 3.41509E+01 0.00000E+00
 -1      3012 8.32036E+01 1.23699E+01 0.00000E+00
 -1      3013 8.43129E+01 1.24410E+01 0.00000E+00
 -1      3014 9.21976E+01 1.62592E+01 0.00000E+00
 -1      3015 9.29659E+01 1.70097E+01 0.00000E+00
 -1      3016 8.09253E+01 3.59187E+01 0.00000E+00
 -1      3017 7.96479E+01 3.55244E+01 0.00000E+00
 -1      3018 8.96362E+00 4.05429E+01 0.00000E+00
 -1      3019 1.03271E+01 4.08069E+01 0.00000E+00
 -1      3020 1.10771E+01 3.95079E+01 0.00000E+00
 -1      3021 8.93137E+00 3.93078E+01 0.00000E+00
 -1      3022 9.09300E+00 3.45313E+01 0.00000E+00
 -1      3023 9.09300E+00 3.60000E+01 0.00000E+00
 -1      3024 1.03920E+01 3.37938E+01 0.00000E+00
 -1      3025 1.03920E+01 2.49750E+01 0.00000E+00
 -1      3026 9.09300E+00 2.57000E+01 0.00000E+00
 -1      3027 9.09300E+00 2.71750E+01 0.00000E+00
 -1      3028 7.97524E+01 1.16926E+01 0.00000E+00
 -1      3029 8.76638E+01 1.23303E+01 0.00000E+00
 -1      3030 9.66450E+00 9.72612E+00 0.00000E+00
 -1      3031 8.70699E+01 3.58214E+01 0.00000E+00
 -1      3032 8.66377E+01 3.66991E+01 0.00000E+00
 -1      3033 8.79970E+01 3.61467E+01 0.00000E+00
 -1      3034 8.13977E+01 3.68426E+01 0.00000E+00
 -1      3035 8.98063E+01 1.40995E+01 0.00000E+00
 -1      3036 7.87107E+01 3.56579E+01 0.00000E+00
 -1      3037 7.77734E+01 3.57914E+01 0.00000E+00
 -1      3038 7.91211E+01 3.65944E+01 0.00000E+00
 -1      3039 9.19808E+01 1.54837E+01 0.00000E+00
 -1      3040 8.24973E+01 1.15078E+01 0.00000E+00
 -1      3041 1.39608E+02 1.61875E+01 0.00000E+00
 -1      3042 1.40907E+02 1.54500E+01 0.00000E+00
 -1      3043 1.40907E+02 1.39875E+01 0.00000E+00
 -1      3044 1.09635E+01 1.04636E+01 0.00000E+00
 -1      3045 8.72850E+01 7.89199E+00 0.00000E+00
 -1      3046 8.57850E+01 7.89199E+00 0.00000E+00
 -1      3047 8.50350E+01 9.19099E+00 0.00000E+00
 -1      3048 8.80350E+01 9.16847E+00 0.00000E+00
 -1      3049 7.54180E+01 1.39110E+01 0.00000E+00
 -1      3050 8.98281E+01 3.49635E+01 0.00000E+00
 -1      3051 1.40706E+02 1.17875E+01 0.00000E+00
 -1      3052 9.51136E+01 2.02902E+01 0.00000E+00
 -1      3053 9.61031E+01 2.06646E+01 0.00000E+00
 -1      3054 9.53994E+01 1.92825E+01 0.00000E+00
 -1      3055 7.20963E+01 3.13474E+01 0.00000E+00
 -1      3056 9.56746E+01 2.29812E+01 0.00000E+00
 -1      3057 7.06152E+01 2.07330E+01 0.00000E+00
 -1      3058 6.98764E+01 2.32244E+01 0.00000E+00
 -1      3059 1.41192E+02 3.82207E+01 0.00000E+00
 -1      3060 9.38539E+01 1.74046E+01 0.00000E+00
 -1      3061 9.47419E+01 1.77995E+01 0.00000E+00
 -1      3062 9.41861E+01 1.62961E+01 0.00000E+00
 -1      3063 9.61922E+01 2.51732E+01 0.00000E+00
 -1      3064 9.55739E+01 2.59231E+01 0.00000E+00
 -1      3065 9.62342E+01 2.68061E+01 0.00000E+00
 -1      3066 7.37250E+01 3.32137E+01 0.00000E+00
 -1      3067 7.32472E+01 1.60177E+01 0.00000E+00
 -1      3068 7.31928E+01 1.49593E+01 0.00000E+00
 -1      3069 7.21674E+01 1.61654E+01 0.00000E+00
 -1      3070 6.99691E+01 2.60996E+01 0.00000E+00
 -1      3071 9.09300E+00 2.86437E+01 0.00000E+00
 -1      3072 9.09300E+00 3.01187E+01 0.00000E+00
 -1      3073 1.03920E+01 3.08563E+01 0.00000E+00
 -1      3074 1.03920E+01 2.79188E+01 0.00000E+00
 -1      3075 7.16402E+01 1.84127E+01 0.00000E+00
 -1      3076 7.64146E+01 3.50841E+01 0.00000E+00
 -1      3077 7.60304E+01 3.43756E+01 0.00000E+00
 -1      3078 7.50821E+01 3.46049E+01 0.00000E+00
 -1      3079 9.39938E+01 3.12919E+01 0.00000E+00
 -1      3080 9.22361E+01 3.36624E+01 0.00000E+00
 -1      3081 7.08987E+01 2.88893E+01 0.00000E+00
 -1      3082 1.39529E+02 3.85602E+01 0.00000E+00
 -1      3083 1.40542E+02 3.71145E+01 0.00000E+00
 -1      3084 1.39243E+02 3.63770E+01 0.00000E+00
 -1      3085 1.38514E+02 3.85310E+01 0.00000E+00
 -1      3086 8.50932E+01 1.15806E+01 0.00000E+00
 -1      3087 1.16910E+01 1.24625E+01 0.00000E+00
 -1      3088 1.16910E+01 1.39375E+01 0.00000E+00
 -1      3089 1.89000E+01 3.83090E+01 0.00000E+00
 -1      3090 2.04000E+01 3.83090E+01 0.00000E+00
 -1      3091 2.19000E+01 3.83090E+01 0.00000E+00
 -1      3092 2.34000E+01 3.83090E+01 0.00000E+00
 -1      3093 2.11500E+01 3.70100E+01 0.00000E+00
 -1      3094 2.49000E+01 3.83090E+01 0.00000E+00
 -1      3095 2.64000E+01 3.83090E+01 0.00000E+00
 -1      3096 2.41500E+01 3.70100E+01 0.00000E+00
 -1      3097 2.79000E+01 3.83090E+01 0.00000E+00
 -1      3098 2.94000E+01 3.83090E+01 0.00000E+00
 -1      3099 2.71500E+01 3.70100E+01 0.00000E+00
 -1      3100 3.09000E+01 3.83090E+01 0.00000E+00
 -1      3101 3.24000E+01 3.83090E+01 0.00000E+00
 -1      3102 3.01500E+01 3.70100E+01 0.00000E+00
 -1      3103 3.39000E+01 3.83090E+01 0.00000E+00
 -1      3104 3.54000E+01 3.83090E+01 0.00000E+00
 -1      3105 3.31500E+01 3.70100E+01 0.00000E+00
 -1      3106 3.69000E+01 3.83090E+01 0.00000E+00
 -1      3107 3.84000E+01 3.83090E+01 0.00000E+00
 -1      3108 3.61500E+01 3.70100E+01 0.00000E+00
 -1      3109 3.99000E+01 3.83090E+01 0.00000E+00
 -1      3110 4.14000E+01 3.83090E+01 0.00000E+00
 -1      3111 3.91500E+01 3.70100E+01 0.00000E+00
 -1      3112 4.29000E+01 3.83090E+01 0.00000E+00
 -1      3113 4.44000E+01 3.83090E+01 0.00000E+00
 -1      3114 4.21500E+01 3.70100E+01 0.00000E+00
 -1      3115 4.59000E+01 3.83090E+01 0.00000E+00
 -1      3116 4.74000E+01 3.83090E+01 0.00000E+00
 -1      3117 4.51500E+01 3.70100E+01 0.00000E+00
 -1      3118 4.89000E+01 3.83090E+01 0.00000E+00
 -1      3119 5.04000E+01 3.83090E+01 0.00000E+00
 -1      3120 4.81500E+01 3.70100E+01 0.00000E+00
 -1      3121 5.19000E+01 3.83090E+01 0.00000E+00
 -1      3122 5.34000E+01 3.83090E+01 0.00000E+00
 -1      3123 5.11500E+01 3.70100E+01 0.00000E+00
 -1      3124 5.49000E+01 3.83090E+01 0.00000E+00
 -1      3125 5.64000E+01 3.83090E+01 0.00000E+00
 -1      3126 5.41500E+01 3.70100E+01 0.00000E+00
 -1      3127 5.79000E+01 3.83090E+01 0.00000E+00
 -1      3128 5.94000E+01 3.83090E+01 0.00000E+00
 -1      3129 5.71500E+01 3.70100E+01 0.00000E+00
 -1      3130 6.09000E+01 3.83090E+01 0.00000E+00
 -1      3131 6.24000E+01 3.83090E+01 0.00000E+00
 -1      3132 6.01500E+01 3.70100E+01 0.00000E+00
 -1      3133 6.39000E+01 3.83090E+01 0.00000E+00
 -1      3134 6.54000E+01 3.83090E+01 0.00000E+00
 -1      3135 6.31500E+01 3.70100E+01 0.00000E+00
 -1      3136 6.69000E+01 3.83090E+01 0.00000E+00
 -1      3137 6.84000E+01 3.83090E+01 0.00000E+00
 -1      3138 6.61500E+01 3.70100E+01 0.00000E+00
 -1      3139 6.99000E+01 3.83090E+01 0.00000E+00
 -1      3140 7.14000E+01 3.83090E+01 0.00000E+00
 -1      3141 6.91500E+01 3.70100E+01 0.00000E+00
 -1      3142 7.59000E+01 3.85829E+01 0.00000E+00
 -1      3143 7.74000E+01 3.85829E+01 0.00000E+00
 -1      3144 7.91042E+01 3.80345E+01 0.00000E+00
 -1      3145 8.06042E+01 3.80345E+01 0.00000E+00
 -1      3146 8.19435E+01 3.84161E+01 0.00000E+00
 -1      3147 8.34435E+01 3.84161E+01 0.00000E+00
 -1      3148 8.58574E+01 3.83162E+01 0.00000E+00
 -1      3149 8.73574E+01 3.83162E+01 0.00000E+00
 -1      3150 8.88574E+01 3.83162E+01 0.00000E+00
 -1      3151 9.09000E+01 3.83090E+01 0.00000E+00
 -1      3152 9.24000E+01 3.83090E+01 0.00000E+00
 -1      3153 9.39000E+01 3.83090E+01 0.00000E+00
 -1      3154 9.54000E+01 3.83090E+01 0.00000E+00
 -1      3155 9.31500E+01 3.70100E+01 0.00000E+00
 -1      3156 9.69000E+01 3.83090E+01 0.00000E+00
 -1      3157 9.84000E+01 3.83090E+01 0.00000E+00
 -1      3158 9.61500E+01 3.70100E+01 0.00000E+00
 -1      3159 9.99000E+01 3.83090E+01 0.00000E+00
 -1      3160 1.01400E+02 3.83090E+01 0.00000E+00
 -1      3161 9.91500E+01 3.70100E+01 0.00000E+00
 -1      3162 1.02900E+02 3.83090E+01 0.00000E+00
 -1      3163 1.04400E+02 3.83090E+01 0.00000E+00
 -1      3164 1.02150E+02 3.70100E+01 0.00000E+00
 -1      3165 1.05900E+02 3.83090E+01 0.00000E+00
 -1      3166 1.07400E+02 3.83090E+01 0.00000E+00
 -1      3167 1.05150E+02 3.70100E+01 0.00000E+00
 -1      3168 1.08900E+02 3.83090E+01 0.00000E+00
 -1      3169 1.10400E+02 3.83090E+01 0.00000E+00
 -1      3170 1.08150E+02 3.70100E+01 0.00000E+00
 -1      3171 1.11900E+02 3.83090E+01 0.00000E+00
 -1      3172 1.13400E+02 3.83090E+01 0.00000E+00
 -1      3173 1.11150E+02 3.70100E+01 0.00000E+00
 -1      3174 1.14900E+02 3.83090E+01 0.00000E+00
 -1      3175 1.16400E+02 3.83090E+01 0.00000E+00
 -1      3176 1.14150E+02 3.70100E+01 0.00000E+00
 -1      3177 1.17900E+02 3.83090E+01 0.00000E+00
 -1      3178 1.19400E+02 3.83090E+01 0.00000E+00
 -1      3179 1.17150E+02 3.70100E+01 0.00000E+00
 -1      3180 1.20900E+02 3.83090E+01 0.00000E+00
 -1      3181 1.22400E+02 3.83090E+01 0.00000E+00
 -1      3182 1.20150E+02 3.70100E+01 0.00000E+00
 -1      3183 1.23900E+02 3.83090E+01 0.00000E+00
 -1      3184 1.25400E+02 3.83090E+01 0.00000E+00
 -1      3185 1.23150E+02 3.70100E+01 0.00000E+00
 -1      3186 1.26900E+02 3.83090E+01 0.00000E+00
 -1      3187 1.28400E+02 3.83090E+01 0.00000E+00
 -1      3188 1.26150E+02 3.70100E+01 0.00000E+00
 -1      3189 1.29900E+02 3.83090E+01 0.00000E+00
 -1      3190 1.31400E+02 3.83090E+01 0.00000E+00
 -1      3191 1.29150E+02 3.70100E+01 0.00000E+00
 -1      3192 1.32900E+02 3.83090E+01 0.00000E+00
 -1      3193 1.34400E+02 3.83090E+01 0.00000E+00
 -1      3194 1.32150E+02 3.70100E+01 0.00000E+00
 -1      3195 1.35707E+02 3.84200E+01 0.00000E+00
 -1      3196 1.37207E+02 3.84200E+01 0.00000E+00
 -1      3197 1.37572E+02 3.73430E+01 0.00000E+00
 -1      3198 1.34957E+02 3.71210E+01 0.00000E+00
 -1      3199 1.38309E+02 2.86750E+01 0.00000E+00
 -1      3200 1.38309E+02 2.72250E+01 0.00000E+00
 -1      3201 3.47850E+01 1.05013E+01 0.00000E+00
 -1      3202 3.32850E+01 1.05013E+01 0.00000E+00
 -1      3203 3.17850E+01 1.05013E+01 0.00000E+00
 -1      3204 3.02850E+01 1.05013E+01 0.00000E+00
 -1      3205 3.25350E+01 1.18003E+01 0.00000E+00
 -1      3206 4.07850E+01 1.05013E+01 0.00000E+00
 -1      3207 3.92850E+01 1.05013E+01 0.00000E+00
 -1      3208 4.37850E+01 1.05013E+01 0.00000E+00
 -1      3209 4.22850E+01 1.05013E+01 0.00000E+00
 -1      3210 4.15350E+01 1.18003E+01 0.00000E+00
 -1      3211 4.67850E+01 1.05013E+01 0.00000E+00
 -1      3212 4.52850E+01 1.05013E+01 0.00000E+00
 -1      3213 4.45350E+01 1.18003E+01 0.00000E+00
 -1      3214 4.97850E+01 1.05013E+01 0.00000E+00
 -1      3215 4.82850E+01 1.05013E+01 0.00000E+00
 -1      3216 4.75350E+01 1.18003E+01 0.00000E+00
 -1      3217 5.27850E+01 1.05013E+01 0.00000E+00
 -1      3218 5.12850E+01 1.05013E+01 0.00000E+00
 -1      3219 5.05350E+01 1.18003E+01 0.00000E+00
 -1      3220 5.57850E+01 1.05013E+01 0.00000E+00
 -1      3221 5.42850E+01 1.05013E+01 0.00000E+00
 -1      3222 5.35350E+01 1.18003E+01 0.00000E+00
 -1      3223 5.87850E+01 1.05013E+01 0.00000E+00
 -1      3224 5.72850E+01 1.05013E+01 0.00000E+00
 -1      3225 5.65350E+01 1.18003E+01 0.00000E+00
 -1      3226 6.17850E+01 1.05013E+01 0.00000E+00
 -1      3227 6.02850E+01 1.05013E+01 0.00000E+00
 -1      3228 5.95350E+01 1.18003E+01 0.00000E+00
 -1      3229 6.47850E+01 1.05013E+01 0.00000E+00
 -1      3230 6.32850E+01 1.05013E+01 0.00000E+00
 -1      3231 6.25350E+01 1.18003E+01 0.00000E+00
 -1      3232 6.77850E+01 1.05013E+01 0.00000E+00
 -1      3233 6.62850E+01 1.05013E+01 0.00000E+00
 -1      3234 6.55350E+01 1.18003E+01 0.00000E+00
 -1      3235 7.07850E+01 1.05013E+01 0.00000E+00
 -1      3236 6.92850E+01 1.05013E+01 0.00000E+00
 -1      3237 6.85350E+01 1.18003E+01 0.00000E+00
 -1      3238 7.37850E+01 1.05013E+01 0.00000E+00
 -1      3239 7.22850E+01 1.05013E+01 0.00000E+00
 -1      3240 7.15350E+01 1.18003E+01 0.00000E+00
 -1      3241 7.94265E+01 1.06026E+01 0.00000E+00
 -1      3242 7.79265E+01 1.06026E+01 0.00000E+00
 -1      3243 8.23609E+01 1.02923E+01 0.00000E+00
 -1      3244 8.08609E+01 1.02923E+01 0.00000E+00
 -1      3245 7.36538E+01 1.33060E+01 0.00000E+00
 -1      3246 7.47992E+01 1.24053E+01 0.00000E+00
 -1      3247 9.47850E+01 1.04562E+01 0.00000E+00
 -1      3248 9.32850E+01 1.04562E+01 0.00000E+00
 -1      3249 1.00785E+02 1.04562E+01 0.00000E+00
 -1      3250 9.92850E+01 1.04562E+01 0.00000E+00
 -1      3251 1.03785E+02 1.04562E+01 0.00000E+00
 -1      3252 1.02285E+02 1.04562E+01 0.00000E+00
 -1      3253 1.01535E+02 1.17552E+01 0.00000E+00
 -1      3254 1.06785E+02 1.04562E+01 0.00000E+00
 -1      3255 1.05285E+02 1.04562E+01 0.00000E+00
 -1      3256 1.04535E+02 1.17552E+01 0.00000E+00
 -1      3257 1.09785E+02 1.04562E+01 0.00000E+00
 -1      3258 1.08285E+02 1.04562E+01 0.00000E+00
 -1      3259 1.07535E+02 1.17552E+01 0.00000E+00
 -1      3260 1.12785E+02 1.04562E+01 0.00000E+00
 -1      3261 1.11285E+02 1.04562E+01 0.00000E+00
 -1      3262 1.10535E+02 1.17552E+01 0.00000E+00
 -1      3263 1.15785E+02 1.04562E+01 0.00000E+00
 -1      3264 1.14285E+02 1.04562E+01 0.00000E+00
 -1      3265 1.13535E+02 1.17552E+01 0.00000E+00
 -1      3266 1.18785E+02 1.04562E+01 0.00000E+00
 -1      3267 1.17285E+02 1.04562E+01 0.00000E+00
 -1      3268 1.16535E+02 1.17552E+01 0.00000E+00
 -1      3269 1.21785E+02 1.04562E+01 0.00000E+00
 -1      3270 1.20285E+02 1.04562E+01 0.00000E+00
 -1      3271 1.19535E+02 1.17552E+01 0.00000E+00
 -1      3272 1.24785E+02 1.04562E+01 0.00000E+00
 -1      3273 1.23285E+02 1.04562E+01 0.00000E+00
 -1      3274 1.22535E+02 1.17552E+01 0.00000E+00
 -1      3275 1.27785E+02 1.04562E+01 0.00000E+00
 -1      3276 1.26285E+02 1.04562E+01 0.00000E+00
 -1      3277 1.25535E+02 1.17552E+01 0.00000E+00
 -1      3278 1.30785E+02 1.04562E+01 0.00000E+00
 -1      3279 1.29285E+02 1.04562E+01 0.00000E+00
 -1      3280 1.28535E+02 1.17552E+01 0.00000E+00
 -1      3281 1.33785E+02 1.04562E+01 0.00000E+00
 -1      3282 1.32285E+02 1.04562E+01 0.00000E+00
 -1      3283 1.31535E+02 1.17552E+01 0.00000E+00
 -1      3284 8.51714E+01 1.04065E+01 0.00000E+00
 -1      3285 8.64568E+01 1.03538E+01 0.00000E+00
 -1      3286 1.16910E+01 2.12875E+01 0.00000E+00
 -1      3287 1.16910E+01 2.27625E+01 0.00000E+00
 -1      3288 1.38309E+02 3.45625E+01 0.00000E+00
 -1      3289 1.38309E+02 3.30875E+01 0.00000E+00
 -1      3290 1.38309E+02 2.57500E+01 0.00000E+00
 -1      3291 1.38309E+02 2.42750E+01 0.00000E+00
 -1      3292 1.37010E+02 2.64750E+01 0.00000E+00
 -1      3293 8.36714E+01 1.04177E+01 0.00000E+00
 -1      3294 8.48973E+01 3.71356E+01 0.00000E+00
 -1      3295 8.40972E+01 3.67830E+01 0.00000E+00
 -1      3296 8.34104E+01 3.75608E+01 0.00000E+00
 -1      3297 6.87271E+01 2.36870E+01 0.00000E+00
 -1      3298 6.90222E+01 2.23270E+01 0.00000E+00
 -1      3299 6.95170E+01 2.09551E+01 0.00000E+00
 -1      3300 6.99606E+01 1.98237E+01 0.00000E+00
 -1      3301 1.29000E+01 3.83090E+01 0.00000E+00
 -1      3302 1.44000E+01 3.83090E+01 0.00000E+00
 -1      3303 7.14543E+01 3.24767E+01 0.00000E+00
 -1      3304 7.07984E+01 3.12930E+01 0.00000E+00
 -1      3305 9.65985E+01 2.24197E+01 0.00000E+00
 -1      3306 9.64558E+01 2.37286E+01 0.00000E+00
 -1      3307 7.35744E+01 3.44628E+01 0.00000E+00
 -1      3308 7.26017E+01 3.37801E+01 0.00000E+00
 -1      3309 1.39407E+02 1.25250E+01 0.00000E+00
 -1      3310 1.97850E+01 1.05013E+01 0.00000E+00
 -1      3311 1.82850E+01 1.05013E+01 0.00000E+00
 -1      3312 1.38309E+02 3.16187E+01 0.00000E+00
 -1      3313 1.38309E+02 3.01437E+01 0.00000E+00
 -1      3314 1.37010E+02 2.94188E+01 0.00000E+00
 -1      3315 1.37010E+02 3.23563E+01 0.00000E+00
 -1      3316 9.77850E+01 1.04562E+01 0.00000E+00
 -1      3317 9.62850E+01 1.04562E+01 0.00000E+00
 -1      3318 9.55350E+01 1.17552E+01 0.00000E+00
 -1      3319 9.85350E+01 1.17552E+01 0.00000E+00
 -1      3320 3.77850E+01 1.05013E+01 0.00000E+00
 -1      3321 3.62850E+01 1.05013E+01 0.00000E+00
 -1      3322 3.55350E+01 1.18003E+01 0.00000E+00
 -1      3323 3.85350E+01 1.18003E+01 0.00000E+00
 -1      3324 8.99606E+00 3.70363E+01 0.00000E+00
 -1      3325 9.02831E+00 3.82715E+01 0.00000E+00
 -1      3326 1.01012E+01 3.83715E+01 0.00000E+00
 -1      3327 1.02951E+01 3.62988E+01 0.00000E+00
 -1      3328 1.26488E+01 1.02017E+01 0.00000E+00
 -1      3329 1.20772E+01 1.14631E+01 0.00000E+00
 -1      3330 1.33763E+01 1.22006E+01 0.00000E+00
 -1      3331 1.41488E+01 1.02017E+01 0.00000E+00
 -1      3332 7.05421E+01 1.86348E+01 0.00000E+00
 -1      3333 7.11236E+01 1.74459E+01 0.00000E+00
 -1      3334 6.94439E+01 1.88569E+01 0.00000E+00
 -1      3335 2.27850E+01 1.05013E+01 0.00000E+00
 -1      3336 2.12850E+01 1.05013E+01 0.00000E+00
 -1      3337 2.05350E+01 1.18003E+01 0.00000E+00
 -1      3338 6.92511E+01 2.70907E+01 0.00000E+00
 -1      3339 6.88633E+01 2.55754E+01 0.00000E+00
 -1      3340 9.63590E+01 2.85020E+01 0.00000E+00
 -1      3341 9.59221E+01 2.96825E+01 0.00000E+00
 -1      3342 1.59000E+01 3.83090E+01 0.00000E+00
 -1      3343 1.74000E+01 3.83090E+01 0.00000E+00
 -1      3344 1.81500E+01 3.70100E+01 0.00000E+00
 -1      3345 9.14385E+01 3.58340E+01 0.00000E+00
 -1      3346 9.00396E+01 3.61395E+01 0.00000E+00
 -1      3347 8.75641E+01 1.10595E+01 0.00000E+00
 -1      3348 8.88493E+01 1.18619E+01 0.00000E+00
 -1      3349 9.00193E+01 1.30471E+01 0.00000E+00
 -1      3350 9.08766E+01 1.40139E+01 0.00000E+00
 -1      3351 9.52684E+01 3.10946E+01 0.00000E+00
 -1      3352 9.45199E+01 3.24695E+01 0.00000E+00
 -1      3353 7.01490E+01 2.99603E+01 0.00000E+00
 -1      3354 6.96073E+01 2.86858E+01 0.00000E+00
 -1      3355 7.69336E+01 1.15546E+01 0.00000E+00
 -1      3356 7.65421E+01 1.01543E+01 0.00000E+00
 -1      3357 7.50421E+01 1.01543E+01 0.00000E+00
 -1      3358 7.60563E+01 1.20584E+01 0.00000E+00
 -1      3359 1.16910E+01 2.42375E+01 0.00000E+00
 -1      3360 1.16910E+01 2.57125E+01 0.00000E+00
 -1      3361 1.29900E+01 2.35000E+01 0.00000E+00
 -1      3362 1.16910E+01 1.83500E+01 0.00000E+00
 -1      3363 1.16910E+01 1.98188E+01 0.00000E+00
 -1      3364 1.29900E+01 2.05562E+01 0.00000E+00
 -1      3365 1.51500E+01 3.70100E+01 0.00000E+00
 -1      3366 7.39587E+01 3.51712E+01 0.00000E+00
 -1      3367 1.38309E+02 1.69188E+01 0.00000E+00
 -1      3368 1.38309E+02 1.54563E+01 0.00000E+00
 -1      3369 9.68843E+01 2.14120E+01 0.00000E+00
 -1      3370 9.76654E+01 2.21594E+01 0.00000E+00
 -1      3371 9.71701E+01 2.04043E+01 0.00000E+00
 -1      3372 7.46300E+01 3.84407E+01 0.00000E+00
 -1      3373 7.53800E+01 3.74155E+01 0.00000E+00
 -1      3374 7.31300E+01 3.84407E+01 0.00000E+00
 -1      3375 1.16910E+01 3.30594E+01 0.00000E+00
 -1      3376 1.16910E+01 3.45281E+01 0.00000E+00
 -1      3377 8.91423E+01 9.87419E+00 0.00000E+00
 -1      3378 8.76423E+01 9.88545E+00 0.00000E+00
 -1      3379 2.57850E+01 1.05013E+01 0.00000E+00
 -1      3380 2.42850E+01 1.05013E+01 0.00000E+00
 -1      3381 2.35350E+01 1.18003E+01 0.00000E+00
 -1      3382 2.95350E+01 1.18003E+01 0.00000E+00
 -1      3383 2.87850E+01 1.05013E+01 0.00000E+00
 -1      3384 2.72850E+01 1.05013E+01 0.00000E+00
 -1      3385 9.25623E+01 1.23584E+01 0.00000E+00
 -1      3386 9.18123E+01 1.10594E+01 0.00000E+00
 -1      3387 7.13037E+01 3.37257E+01 0.00000E+00
 -1      3388 9.03123E+01 1.10594E+01 0.00000E+00
 -1      3389 1.34953E+02 1.07482E+01 0.00000E+00
 -1      3390 1.34203E+02 1.20472E+01 0.00000E+00
 -1      3391 1.36120E+02 1.10401E+01 0.00000E+00
 -1      3392 1.38309E+02 1.98687E+01 0.00000E+00
 -1      3393 1.38309E+02 1.83937E+01 0.00000E+00
 -1      3394 1.37010E+02 1.76625E+01 0.00000E+00
 -1      3395 7.74169E+01 3.71428E+01 0.00000E+00
 -1      3396 7.70065E+01 3.62063E+01 0.00000E+00
 -1      3397 6.83676E+01 2.14177E+01 0.00000E+00
 -1      3398 1.38309E+02 2.28094E+01 0.00000E+00
 -1      3399 1.38309E+02 2.13344E+01 0.00000E+00
 -1      3400 1.37010E+02 2.06031E+01 0.00000E+00
 -1      3401 1.37010E+02 2.35344E+01 0.00000E+00
 -1      3402 9.57315E+01 1.81739E+01 0.00000E+00
 -1      3403 9.67211E+01 1.85483E+01 0.00000E+00
 -1      3404 9.60637E+01 1.70654E+01 0.00000E+00
 -1      3405 7.25740E+01 1.34536E+01 0.00000E+00
 -1      3406 9.41586E+01 1.51619E+01 0.00000E+00
 -1      3407 9.50466E+01 1.55568E+01 0.00000E+00
 -1      3408 9.71160E+01 2.46117E+01 0.00000E+00
 -1      3409 6.80090E+01 2.46780E+01 0.00000E+00
 -1      3410 6.71548E+01 2.37806E+01 0.00000E+00
 -1      3411 6.72910E+01 2.56691E+01 0.00000E+00
 -1      3412 7.10692E+01 1.63875E+01 0.00000E+00
 -1      3413 7.10149E+01 1.53291E+01 0.00000E+00
 -1      3414 6.99710E+01 1.66096E+01 0.00000E+00
 -1      3415 6.95070E+01 3.10896E+01 0.00000E+00
 -1      3416 1.38274E+02 1.38447E+01 0.00000E+00
 -1      3417 1.38073E+02 1.16447E+01 0.00000E+00
 -1      3418 1.36905E+02 1.13527E+01 0.00000E+00
 -1      3419 1.36975E+02 1.45759E+01 0.00000E+00
 -1      3420 1.16910E+01 3.01219E+01 0.00000E+00
 -1      3421 1.16910E+01 3.15906E+01 0.00000E+00
 -1      3422 1.29900E+01 3.23250E+01 0.00000E+00
 -1      3423 9.64482E+01 3.08601E+01 0.00000E+00
 -1      3424 7.60582E+01 3.64355E+01 0.00000E+00
 -1      3425 1.16910E+01 1.54094E+01 0.00000E+00
 -1      3426 1.16910E+01 1.68781E+01 0.00000E+00
 -1      3427 1.29900E+01 1.76156E+01 0.00000E+00
 -1      3428 1.29900E+01 1.46719E+01 0.00000E+00
 -1      3429 9.69772E+01 2.77521E+01 0.00000E+00
 -1      3430 9.77202E+01 2.86981E+01 0.00000E+00
 -1      3431 9.75954E+01 2.70023E+01 0.00000E+00
 -1      3432 7.81669E+01 3.81680E+01 0.00000E+00
 -1      3433 6.85014E+01 2.81617E+01 0.00000E+00
 -1      3434 9.36372E+01 3.40732E+01 0.00000E+00
 -1      3435 9.26281E+01 3.50688E+01 0.00000E+00
 -1      3436 9.21938E+01 1.44314E+01 0.00000E+00
 -1      3437 9.49118E+01 3.38760E+01 0.00000E+00
 -1      3438 1.37758E+02 3.64912E+01 0.00000E+00
 -1      3439 1.38123E+02 3.54142E+01 0.00000E+00
 -1      3440 1.36824E+02 3.46768E+01 0.00000E+00
 -1      3441 1.36451E+02 3.63802E+01 0.00000E+00
 -1      3442 1.69669E+01 1.03515E+01 0.00000E+00
 -1      3443 1.54669E+01 1.03515E+01 0.00000E+00
 -1      3444 1.50806E+01 1.13509E+01 0.00000E+00
 -1      3445 1.77169E+01 1.16505E+01 0.00000E+00
 -1      3446 1.11741E+01 3.84716E+01 0.00000E+00
 -1      3447 7.23800E+01 3.71417E+01 0.00000E+00
 -1      3448 1.19241E+01 3.71726E+01 0.00000E+00
 -1      3449 9.30544E+01 1.36921E+01 0.00000E+00
 -1      3450 8.49303E+01 3.79909E+01 0.00000E+00
 -1      3451 8.96074E+01 3.70172E+01 0.00000E+00
 -1      3452 6.75973E+01 2.92009E+01 0.00000E+00
 -1      3453 6.72411E+01 2.76057E+01 0.00000E+00
 -1      3454 1.20210E+01 3.61362E+01 0.00000E+00
 -1      3455 2.34000E+01 3.57110E+01 0.00000E+00
 -1      3456 2.49000E+01 3.57110E+01 0.00000E+00
 -1      3457 2.64000E+01 3.57110E+01 0.00000E+00
 -1      3458 2.79000E+01 3.57110E+01 0.00000E+00
 -1      3459 2.56500E+01 3.44120E+01 0.00000E+00
 -1      3460 2.94000E+01 3.57110E+01 0.00000E+00
 -1      3461 3.09000E+01 3.57110E+01 0.00000E+00
 -1      3462 2.86500E+01 3.44120E+01 0.00000E+00
 -1      3463 3.24000E+01 3.57110E+01 0.00000E+00
 -1      3464 3.39000E+01 3.57110E+01 0.00000E+00
 -1      3465 3.16500E+01 3.44120E+01 0.00000E+00
 -1      3466 3.54000E+01 3.57110E+01 0.00000E+00
 -1      3467 3.69000E+01 3.57110E+01 0.00000E+00
 -1      3468 3.46500E+01 3.44120E+01 0.00000E+00
 -1      3469 3.84000E+01 3.57110E+01 0.00000E+00
 -1      3470 3.99000E+01 3.57110E+01 0.00000E+00
 -1      3471 3.76500E+01 3.44120E+01 0.00000E+00
 -1      3472 4.14000E+01 3.57110E+01 0.00000E+00
 -1      3473 4.29000E+01 3.57110E+01 0.00000E+00
 -1      3474 4.06500E+01 3.44120E+01 0.00000E+00
 -1      3475 4.44000E+01 3.57110E+01 0.00000E+00
 -1      3476 4.59000E+01 3.57110E+01 0.00000E+00
 -1      3477 4.36500E+01 3.44120E+01 0.00000E+00
 -1      3478 4.74000E+01 3.57110E+01 0.00000E+00
 -1      3479 4.89000E+01 3.57110E+01 0.00000E+00
 -1      3480 4.66500E+01 3.44120E+01 0.00000E+00
 -1      3481 5.04000E+01 3.57110E+01 0.00000E+00
 -1      3482 5.19000E+01 3.57110E+01 0.00000E+00
 -1      3483 4.96500E+01 3.44120E+01 0.00000E+00
 -1      3484 5.34000E+01 3.57110E+01 0.00000E+00
 -1      3485 5.49000E+01 3.57110E+01 0.00000E+00
 -1      3486 5.26500E+01 3.44120E+01 0.00000E+00
 -1      3487 5.64000E+01 3.57110E+01 0.00000E+00
 -1      3488 5.79000E+01 3.57110E+01 0.00000E+00
 -1      3489 5.56500E+01 3.44120E+01 0.00000E+00
 -1      3490 5.94000E+01 3.57110E+01 0.00000E+00
 -1      3491 6.09000E+01 3.57110E+01 0.00000E+00
 -1      3492 5.86500E+01 3.44120E+01 0.00000E+00
 -1      3493 6.24000E+01 3.57110E+01 0.00000E+00
 -1      3494 6.39000E+01 3.57110E+01 0.00000E+00
 -1      3495 6.16500E+01 3.44120E+01 0.00000E+00
 -1      3496 6.54000E+01 3.57110E+01 0.00000E+00
 -1      3497 6.69000E+01 3.57110E+01 0.00000E+00
 -1      3498 6.46500E+01 3.44120E+01 0.00000E+00
 -1      3499 9.78574E+01 3.06552E+01 0.00000E+00
 -1      3500 9.72037E+01 3.20673E+01 0.00000E+00
 -1      3501 6.81570E+01 1.89641E+01 0.00000E+00
 -1      3502 6.87385E+01 1.77752E+01 0.00000E+00
 -1      3503 8.41169E+01 3.87527E+01 0.00000E+00
 -1      3504 9.84000E+01 3.57110E+01 0.00000E+00
 -1      3505 9.99000E+01 3.57110E+01 0.00000E+00
 -1      3506 1.01400E+02 3.57110E+01 0.00000E+00
 -1      3507 1.02900E+02 3.57110E+01 0.00000E+00
 -1      3508 1.00650E+02 3.44120E+01 0.00000E+00
 -1      3509 1.04400E+02 3.57110E+01 0.00000E+00
 -1      3510 1.05900E+02 3.57110E+01 0.00000E+00
 -1      3511 1.03650E+02 3.44120E+01 0.00000E+00
 -1      3512 1.07400E+02 3.57110E+01 0.00000E+00
 -1      3513 1.08900E+02 3.57110E+01 0.00000E+00
 -1      3514 1.06650E+02 3.44120E+01 0.00000E+00
 -1      3515 1.10400E+02 3.57110E+01 0.00000E+00
 -1      3516 1.11900E+02 3.57110E+01 0.00000E+00
 -1      3517 1.09650E+02 3.44120E+01 0.00000E+00
 -1      3518 1.13400E+02 3.57110E+01 0.00000E+00
 -1      3519 1.14900E+02 3.57110E+01 0.00000E+00
 -1      3520 1.12650E+02 3.44120E+01 0.00000E+00
 -1      3521 1.16400E+02 3.57110E+01 0.00000E+00
 -1      3522 1.17900E+02 3.57110E+01 0.00000E+00
 -1      3523 1.15650E+02 3.44120E+01 0.00000E+00
 -1      3524 1.19400E+02 3.57110E+01 0.00000E+00
 -1      3525 1.20900E+02 3.57110E+01 0.00000E+00
 -1      3526 1.18650E+02 3.44120E+01 0.00000E+00
 -1      3527 1.22400E+02 3.57110E+01 0.00000E+00
 -1      3528 1.23900E+02 3.57110E+01 0.00000E+00
 -1      3529 1.21650E+02 3.44120E+01 0.00000E+00
 -1      3530 1.25400E+02 3.57110E+01 0.00000E+00
 -1      3531 1.26900E+02 3.57110E+01 0.00000E+00
 -1      3532 1.24650E+02 3.44120E+01 0.00000E+00
 -1      3533 1.28400E+02 3.57110E+01 0.00000E+00
 -1      3534 1.29900E+02 3.57110E+01 0.00000E+00
 -1      3535 1.27650E+02 3.44120E+01 0.00000E+00
 -1      3536 1.31400E+02 3.57110E+01 0.00000E+00
 -1      3537 1.32900E+02 3.57110E+01 0.00000E+00
 -1      3538 1.30650E+02 3.44120E+01 0.00000E+00
 -1      3539 7.15505E+01 3.60196E+01 0.00000E+00
 -1      3540 7.32806E+01 3.61512E+01 0.00000E+00
 -1      3541 9.45271E+01 1.30890E+01 0.00000E+00
 -1      3542 4.52850E+01 1.30992E+01 0.00000E+00
 -1      3543 4.37850E+01 1.30992E+01 0.00000E+00
 -1      3544 4.22850E+01 1.30992E+01 0.00000E+00
 -1      3545 4.07850E+01 1.30992E+01 0.00000E+00
 -1      3546 4.30350E+01 1.43982E+01 0.00000E+00
 -1      3547 5.12850E+01 1.30992E+01 0.00000E+00
 -1      3548 4.97850E+01 1.30992E+01 0.00000E+00
 -1      3549 5.42850E+01 1.30992E+01 0.00000E+00
 -1      3550 5.27850E+01 1.30992E+01 0.00000E+00
 -1      3551 5.20350E+01 1.43982E+01 0.00000E+00
 -1      3552 5.72850E+01 1.30992E+01 0.00000E+00
 -1      3553 5.57850E+01 1.30992E+01 0.00000E+00
 -1      3554 5.50350E+01 1.43982E+01 0.00000E+00
 -1      3555 6.02850E+01 1.30992E+01 0.00000E+00
 -1      3556 5.87850E+01 1.30992E+01 0.00000E+00
 -1      3557 5.80350E+01 1.43982E+01 0.00000E+00
 -1      3558 6.32850E+01 1.30992E+01 0.00000E+00
 -1      3559 6.17850E+01 1.30992E+01 0.00000E+00
 -1      3560 6.10350E+01 1.43982E+01 0.00000E+00
 -1      3561 6.62850E+01 1.30992E+01 0.00000E+00
 -1      3562 6.47850E+01 1.30992E+01 0.00000E+00
 -1      3563 6.40350E+01 1.43982E+01 0.00000E+00
 -1      3564 6.99758E+01 1.36757E+01 0.00000E+00
 -1      3565 6.84758E+01 1.36757E+01 0.00000E+00
 -1      3566 7.10740E+01 1.34536E+01 0.00000E+00
 -1      3567 7.42921E+01 1.14533E+01 0.00000E+00
 -1      3568 7.04032E+01 3.47162E+01 0.00000E+00
 -1      3569 1.02285E+02 1.30542E+01 0.00000E+00
 -1      3570 1.00785E+02 1.30542E+01 0.00000E+00
 -1      3571 1.11285E+02 1.30542E+01 0.00000E+00
 -1      3572 1.09785E+02 1.30542E+01 0.00000E+00
 -1      3573 1.14285E+02 1.30542E+01 0.00000E+00
 -1      3574 1.12785E+02 1.30542E+01 0.00000E+00
 -1      3575 1.12035E+02 1.43532E+01 0.00000E+00
 -1      3576 1.17285E+02 1.30542E+01 0.00000E+00
 -1      3577 1.15785E+02 1.30542E+01 0.00000E+00
 -1      3578 1.15035E+02 1.43532E+01 0.00000E+00
 -1      3579 1.20285E+02 1.30542E+01 0.00000E+00
 -1      3580 1.18785E+02 1.30542E+01 0.00000E+00
 -1      3581 1.18035E+02 1.43532E+01 0.00000E+00
 -1      3582 1.23285E+02 1.30542E+01 0.00000E+00
 -1      3583 1.21785E+02 1.30542E+01 0.00000E+00
 -1      3584 1.21035E+02 1.43532E+01 0.00000E+00
 -1      3585 1.26285E+02 1.30542E+01 0.00000E+00
 -1      3586 1.24785E+02 1.30542E+01 0.00000E+00
 -1      3587 1.24035E+02 1.43532E+01 0.00000E+00
 -1      3588 1.29285E+02 1.30542E+01 0.00000E+00
 -1      3589 1.27785E+02 1.30542E+01 0.00000E+00
 -1      3590 1.27035E+02 1.43532E+01 0.00000E+00
 -1      3591 1.32285E+02 1.30542E+01 0.00000E+00
 -1      3592 1.30785E+02 1.30542E+01 0.00000E+00
 -1      3593 1.30035E+02 1.43532E+01 0.00000E+00
 -1      3594 6.71559E+01 2.17558E+01 0.00000E+00
 -1      3595 6.76507E+01 2.03839E+01 0.00000E+00
 -1      3596 1.35711E+02 2.72125E+01 0.00000E+00
 -1      3597 1.35711E+02 2.57375E+01 0.00000E+00
 -1      3598 1.44000E+01 3.57110E+01 0.00000E+00
 -1      3599 1.59000E+01 3.57110E+01 0.00000E+00
 -1      3600 1.08285E+02 1.30542E+01 0.00000E+00
 -1      3601 1.06785E+02 1.30542E+01 0.00000E+00
 -1      3602 1.09035E+02 1.43532E+01 0.00000E+00
 -1      3603 1.05285E+02 1.30542E+01 0.00000E+00
 -1      3604 1.03785E+02 1.30542E+01 0.00000E+00
 -1      3605 1.03035E+02 1.43532E+01 0.00000E+00
 -1      3606 9.82563E+01 2.40734E+01 0.00000E+00
 -1      3607 9.79927E+01 2.55180E+01 0.00000E+00
 -1      3608 6.89032E+01 3.47162E+01 0.00000E+00
 -1      3609 2.12850E+01 1.30992E+01 0.00000E+00
 -1      3610 1.97850E+01 1.30992E+01 0.00000E+00
 -1      3611 7.47882E+01 3.62933E+01 0.00000E+00
 -1      3612 8.92420E+01 1.11449E+01 0.00000E+00
 -1      3613 4.82850E+01 1.30992E+01 0.00000E+00
 -1      3614 4.67850E+01 1.30992E+01 0.00000E+00
 -1      3615 4.60350E+01 1.43982E+01 0.00000E+00
 -1      3616 4.90350E+01 1.43982E+01 0.00000E+00
 -1      3617 1.16910E+01 2.71844E+01 0.00000E+00
 -1      3618 1.16910E+01 2.86531E+01 0.00000E+00
 -1      3619 1.29900E+01 2.93875E+01 0.00000E+00
 -1      3620 9.60087E+01 1.47971E+01 0.00000E+00
 -1      3621 9.60362E+01 1.59312E+01 0.00000E+00
 -1      3622 9.70258E+01 1.63056E+01 0.00000E+00
 -1      3623 3.32850E+01 1.30992E+01 0.00000E+00
 -1      3624 3.17850E+01 1.30992E+01 0.00000E+00
 -1      3625 9.28396E+01 3.62449E+01 0.00000E+00
 -1      3626 9.43396E+01 3.62449E+01 0.00000E+00
 -1      3627 9.60271E+01 1.30890E+01 0.00000E+00
 -1      3628 6.81532E+01 3.34172E+01 0.00000E+00
 -1      3629 9.53757E+01 3.50604E+01 0.00000E+00
 -1      3630 9.56861E+01 3.58256E+01 0.00000E+00
 -1      3631 9.71861E+01 3.58256E+01 0.00000E+00
 -1      3632 9.62583E+01 3.34567E+01 0.00000E+00
 -1      3633 1.74000E+01 3.57110E+01 0.00000E+00
 -1      3634 1.89000E+01 3.57110E+01 0.00000E+00
 -1      3635 1.66500E+01 3.44120E+01 0.00000E+00
 -1      3636 2.04000E+01 3.57110E+01 0.00000E+00
 -1      3637 2.19000E+01 3.57110E+01 0.00000E+00
 -1      3638 2.26500E+01 3.44120E+01 0.00000E+00
 -1      3639 6.81999E+01 3.19754E+01 0.00000E+00
 -1      3640 6.75505E+01 3.06427E+01 0.00000E+00
 -1      3641 6.62902E+01 3.00867E+01 0.00000E+00
 -1      3642 6.61967E+01 3.29702E+01 0.00000E+00
 -1      3643 9.87357E+01 2.64640E+01 0.00000E+00
 -1      3644 1.33200E+01 3.54019E+01 0.00000E+00
 -1      3645 1.35711E+02 3.30906E+01 0.00000E+00
 -1      3646 1.35711E+02 3.16219E+01 0.00000E+00
 -1      3647 9.75023E+01 1.92957E+01 0.00000E+00
 -1      3648 9.82834E+01 2.00432E+01 0.00000E+00
 -1      3649 9.78344E+01 1.81872E+01 0.00000E+00
 -1      3650 9.88279E+01 2.20580E+01 0.00000E+00
 -1      3651 9.85421E+01 2.30657E+01 0.00000E+00
 -1      3652 9.94188E+01 2.39720E+01 0.00000E+00
 -1      3653 9.76675E+01 3.32517E+01 0.00000E+00
 -1      3654 9.84757E+01 2.99053E+01 0.00000E+00
 -1      3655 9.92311E+01 3.11124E+01 0.00000E+00
 -1      3656 9.90939E+01 2.91554E+01 0.00000E+00
 -1      3657 1.90350E+01 1.43983E+01 0.00000E+00
 -1      3658 1.82850E+01 1.30993E+01 0.00000E+00
 -1      3659 6.86842E+01 1.67168E+01 0.00000E+00
 -1      3660 9.92667E+01 1.47623E+01 0.00000E+00
 -1      3661 9.85167E+01 1.34633E+01 0.00000E+00
 -1      3662 1.34022E+02 3.59901E+01 0.00000E+00
 -1      3663 1.35329E+02 3.61011E+01 0.00000E+00
 -1      3664 1.35515E+02 3.52494E+01 0.00000E+00
 -1      3665 1.33272E+02 3.46911E+01 0.00000E+00
 -1      3666 1.36155E+02 1.26517E+01 0.00000E+00
 -1      3667 2.42850E+01 1.30992E+01 0.00000E+00
 -1      3668 2.27850E+01 1.30992E+01 0.00000E+00
 -1      3669 2.20350E+01 1.43982E+01 0.00000E+00
 -1      3670 3.02850E+01 1.30992E+01 0.00000E+00
 -1      3671 2.87850E+01 1.30992E+01 0.00000E+00
 -1      3672 3.10350E+01 1.43982E+01 0.00000E+00
 -1      3673 1.29900E+01 2.64469E+01 0.00000E+00
 -1      3674 4.00350E+01 1.43982E+01 0.00000E+00
 -1      3675 3.92850E+01 1.30992E+01 0.00000E+00
 -1      3676 3.77850E+01 1.30992E+01 0.00000E+00
 -1      3677 6.77258E+01 1.49747E+01 0.00000E+00
 -1      3678 2.65350E+01 1.18003E+01 0.00000E+00
 -1      3679 1.40700E+01 3.41029E+01 0.00000E+00
 -1      3680 1.42890E+01 2.27625E+01 0.00000E+00
 -1      3681 1.42890E+01 2.42375E+01 0.00000E+00
 -1      3682 3.62850E+01 1.30992E+01 0.00000E+00
 -1      3683 3.47850E+01 1.30992E+01 0.00000E+00
 -1      3684 3.40350E+01 1.43982E+01 0.00000E+00
 -1      3685 3.70350E+01 1.43982E+01 0.00000E+00
 -1      3686 6.69453E+01 1.93023E+01 0.00000E+00
 -1      3687 1.33453E+02 1.33462E+01 0.00000E+00
 -1      3688 1.32703E+02 1.46452E+01 0.00000E+00
 -1      3689 1.34620E+02 1.36381E+01 0.00000E+00
 -1      3690 6.64379E+01 2.27469E+01 0.00000E+00
 -1      3691 6.57210E+01 2.17131E+01 0.00000E+00
 -1      3692 6.57199E+01 2.37379E+01 0.00000E+00
 -1      3693 1.35711E+02 2.86812E+01 0.00000E+00
 -1      3694 1.34412E+02 2.79438E+01 0.00000E+00
 -1      3695 1.35711E+02 3.01500E+01 0.00000E+00
 -1      3696 1.35711E+02 1.84000E+01 0.00000E+00
 -1      3697 1.35711E+02 1.69250E+01 0.00000E+00
 -1      3698 1.42890E+01 1.98250E+01 0.00000E+00
 -1      3699 1.42890E+01 2.12938E+01 0.00000E+00
 -1      3700 1.55880E+01 2.20313E+01 0.00000E+00
 -1      3701 1.34412E+02 2.50094E+01 0.00000E+00
 -1      3702 1.35711E+02 2.42719E+01 0.00000E+00
 -1      3703 1.35711E+02 2.28062E+01 0.00000E+00
 -1      3704 1.69669E+01 1.29495E+01 0.00000E+00
 -1      3705 1.06035E+02 1.43532E+01 0.00000E+00
 -1      3706 6.54827E+01 2.77475E+01 0.00000E+00
 -1      3707 6.63869E+01 2.67083E+01 0.00000E+00
 -1      3708 6.55327E+01 2.58109E+01 0.00000E+00
 -1      3709 9.70167E+01 1.34633E+01 0.00000E+00
 -1      3710 1.34141E+02 1.62998E+01 0.00000E+00
 -1      3711 1.35440E+02 1.55623E+01 0.00000E+00
 -1      3712 1.42890E+01 1.39359E+01 0.00000E+00
 -1      3713 1.42890E+01 1.54078E+01 0.00000E+00
 -1      3714 9.79361E+01 3.45266E+01 0.00000E+00
 -1      3715 1.40700E+01 3.26341E+01 0.00000E+00
 -1      3716 1.51500E+01 3.29432E+01 0.00000E+00
 -1      3717 1.40700E+01 3.11654E+01 0.00000E+00
 -1      3718 1.35702E+02 3.43976E+01 0.00000E+00
 -1      3719 1.96500E+01 3.44120E+01 0.00000E+00
 -1      3720 1.34403E+02 3.36632E+01 0.00000E+00
 -1      3721 2.49000E+01 3.31130E+01 0.00000E+00
 -1      3722 2.64000E+01 3.31130E+01 0.00000E+00
 -1      3723 1.42890E+01 1.68797E+01 0.00000E+00
 -1      3724 1.42890E+01 1.83516E+01 0.00000E+00
 -1      3725 1.55880E+01 1.61437E+01 0.00000E+00
 -1      3726 1.34412E+02 3.08844E+01 0.00000E+00
 -1      3727 2.79000E+01 3.31130E+01 0.00000E+00
 -1      3728 2.94000E+01 3.31130E+01 0.00000E+00
 -1      3729 2.71500E+01 3.18140E+01 0.00000E+00
 -1      3730 3.09000E+01 3.31130E+01 0.00000E+00
 -1      3731 3.24000E+01 3.31130E+01 0.00000E+00
 -1      3732 3.01500E+01 3.18140E+01 0.00000E+00
 -1      3733 3.39000E+01 3.31130E+01 0.00000E+00
 -1      3734 3.54000E+01 3.31130E+01 0.00000E+00
 -1      3735 3.31500E+01 3.18140E+01 0.00000E+00
 -1      3736 3.69000E+01 3.31130E+01 0.00000E+00
 -1      3737 3.84000E+01 3.31130E+01 0.00000E+00
 -1      3738 3.61500E+01 3.18140E+01 0.00000E+00
 -1      3739 3.99000E+01 3.31130E+01 0.00000E+00
 -1      3740 4.14000E+01 3.31130E+01 0.00000E+00
 -1      3741 3.91500E+01 3.18140E+01 0.00000E+00
 -1      3742 4.29000E+01 3.31130E+01 0.00000E+00
 -1      3743 4.44000E+01 3.31130E+01 0.00000E+00
 -1      3744 4.21500E+01 3.18140E+01 0.00000E+00
 -1      3745 4.59000E+01 3.31130E+01 0.00000E+00
 -1      3746 4.74000E+01 3.31130E+01 0.00000E+00
 -1      3747 4.51500E+01 3.18140E+01 0.00000E+00
 -1      3748 4.89000E+01 3.31130E+01 0.00000E+00
 -1      3749 5.04000E+01 3.31130E+01 0.00000E+00
 -1      3750 4.81500E+01 3.18140E+01 0.00000E+00
 -1      3751 5.19000E+01 3.31130E+01 0.00000E+00
 -1      3752 5.34000E+01 3.31130E+01 0.00000E+00
 -1      3753 5.11500E+01 3.18140E+01 0.00000E+00
 -1      3754 5.49000E+01 3.31130E+01 0.00000E+00
 -1      3755 5.64000E+01 3.31130E+01 0.00000E+00
 -1      3756 5.41500E+01 3.18140E+01 0.00000E+00
 -1      3757 5.79000E+01 3.31130E+01 0.00000E+00
 -1      3758 5.94000E+01 3.31130E+01 0.00000E+00
 -1      3759 5.71500E+01 3.18140E+01 0.00000E+00
 -1      3760 6.09000E+01 3.31130E+01 0.00000E+00
 -1      3761 6.24000E+01 3.31130E+01 0.00000E+00
 -1      3762 6.01500E+01 3.18140E+01 0.00000E+00
 -1      3763 6.35484E+01 3.30416E+01 0.00000E+00
 -1      3764 6.50484E+01 3.30416E+01 0.00000E+00
 -1      3765 6.50951E+01 3.15999E+01 0.00000E+00
 -1      3766 6.27984E+01 3.17426E+01 0.00000E+00
 -1      3767 1.97850E+01 1.56973E+01 0.00000E+00
 -1      3768 1.82851E+01 1.56973E+01 0.00000E+00
 -1      3769 6.64933E+01 1.61403E+01 0.00000E+00
 -1      3770 1.33281E+02 3.33841E+01 0.00000E+00
 -1      3771 5.87850E+01 1.56973E+01 0.00000E+00
 -1      3772 5.72850E+01 1.56973E+01 0.00000E+00
 -1      3773 1.66500E+01 3.29432E+01 0.00000E+00
 -1      3774 1.02900E+02 3.31130E+01 0.00000E+00
 -1      3775 1.04400E+02 3.31130E+01 0.00000E+00
 -1      3776 1.05900E+02 3.31130E+01 0.00000E+00
 -1      3777 1.07400E+02 3.31130E+01 0.00000E+00
 -1      3778 1.05150E+02 3.18140E+01 0.00000E+00
 -1      3779 1.08900E+02 3.31130E+01 0.00000E+00
 -1      3780 1.10400E+02 3.31130E+01 0.00000E+00
 -1      3781 1.08150E+02 3.18140E+01 0.00000E+00
 -1      3782 1.11900E+02 3.31130E+01 0.00000E+00
 -1      3783 1.13400E+02 3.31130E+01 0.00000E+00
 -1      3784 1.11150E+02 3.18140E+01 0.00000E+00
 -1      3785 1.14900E+02 3.31130E+01 0.00000E+00
 -1      3786 1.16400E+02 3.31130E+01 0.00000E+00
 -1      3787 1.14150E+02 3.18140E+01 0.00000E+00
 -1      3788 1.17900E+02 3.31130E+01 0.00000E+00
 -1      3789 1.19400E+02 3.31130E+01 0.00000E+00
 -1      3790 1.17150E+02 3.18140E+01 0.00000E+00
 -1      3791 1.20900E+02 3.31130E+01 0.00000E+00
 -1      3792 1.22400E+02 3.31130E+01 0.00000E+00
 -1      3793 1.20150E+02 3.18140E+01 0.00000E+00
 -1      3794 1.23900E+02 3.31130E+01 0.00000E+00
 -1      3795 1.25400E+02 3.31130E+01 0.00000E+00
 -1      3796 1.23150E+02 3.18140E+01 0.00000E+00
 -1      3797 1.26900E+02 3.31130E+01 0.00000E+00
 -1      3798 1.28400E+02 3.31130E+01 0.00000E+00
 -1      3799 1.26150E+02 3.18140E+01 0.00000E+00
 -1      3800 1.29900E+02 3.31130E+01 0.00000E+00
 -1      3801 1.31400E+02 3.31130E+01 0.00000E+00
 -1      3802 1.29150E+02 3.18140E+01 0.00000E+00
 -1      3803 5.57850E+01 1.56973E+01 0.00000E+00
 -1      3804 5.42850E+01 1.56973E+01 0.00000E+00
 -1      3805 5.65350E+01 1.69963E+01 0.00000E+00
 -1      3806 5.27850E+01 1.56973E+01 0.00000E+00
 -1      3807 5.12850E+01 1.56973E+01 0.00000E+00
 -1      3808 5.35350E+01 1.69963E+01 0.00000E+00
 -1      3809 6.17850E+01 1.56973E+01 0.00000E+00
 -1      3810 6.02850E+01 1.56973E+01 0.00000E+00
 -1      3811 5.95350E+01 1.69963E+01 0.00000E+00
 -1      3812 6.48892E+01 1.59188E+01 0.00000E+00
 -1      3813 6.33892E+01 1.59188E+01 0.00000E+00
 -1      3814 6.26392E+01 1.72178E+01 0.00000E+00
 -1      3815 6.58475E+01 1.76609E+01 0.00000E+00
 -1      3816 2.72850E+01 1.30992E+01 0.00000E+00
 -1      3817 2.57850E+01 1.30992E+01 0.00000E+00
 -1      3818 2.80350E+01 1.43982E+01 0.00000E+00
 -1      3819 1.00167E+02 2.60519E+01 0.00000E+00
 -1      3820 9.97701E+01 2.75362E+01 0.00000E+00
 -1      3821 1.09785E+02 1.56522E+01 0.00000E+00
 -1      3822 1.08285E+02 1.56522E+01 0.00000E+00
 -1      3823 1.32531E+02 3.20851E+01 0.00000E+00
 -1      3824 1.18785E+02 1.56522E+01 0.00000E+00
 -1      3825 1.17285E+02 1.56522E+01 0.00000E+00
 -1      3826 1.55880E+01 2.49719E+01 0.00000E+00
 -1      3827 1.42890E+01 2.57094E+01 0.00000E+00
 -1      3828 1.42890E+01 2.71812E+01 0.00000E+00
 -1      3829 1.41795E+01 2.84389E+01 0.00000E+00
 -1      3830 1.41795E+01 2.99077E+01 0.00000E+00
 -1      3831 1.52595E+01 3.02168E+01 0.00000E+00
 -1      3832 1.54785E+01 2.77014E+01 0.00000E+00
 -1      3833 1.03785E+02 1.56522E+01 0.00000E+00
 -1      3834 1.02285E+02 1.56522E+01 0.00000E+00
 -1      3835 1.12785E+02 1.56522E+01 0.00000E+00
 -1      3836 1.11285E+02 1.56522E+01 0.00000E+00
 -1      3837 1.10535E+02 1.69512E+01 0.00000E+00
 -1      3838 1.21785E+02 1.56522E+01 0.00000E+00
 -1      3839 1.20285E+02 1.56522E+01 0.00000E+00
 -1      3840 1.19535E+02 1.69512E+01 0.00000E+00
 -1      3841 1.24785E+02 1.56522E+01 0.00000E+00
 -1      3842 1.23285E+02 1.56522E+01 0.00000E+00
 -1      3843 1.22535E+02 1.69512E+01 0.00000E+00
 -1      3844 1.27785E+02 1.56522E+01 0.00000E+00
 -1      3845 1.26285E+02 1.56522E+01 0.00000E+00
 -1      3846 1.25535E+02 1.69512E+01 0.00000E+00
 -1      3847 1.30785E+02 1.56522E+01 0.00000E+00
 -1      3848 1.29285E+02 1.56522E+01 0.00000E+00
 -1      3849 1.28535E+02 1.69512E+01 0.00000E+00
 -1      3850 1.35711E+02 1.98656E+01 0.00000E+00
 -1      3851 1.34412E+02 1.91281E+01 0.00000E+00
 -1      3852 1.35711E+02 2.13312E+01 0.00000E+00
 -1      3853 2.19000E+01 3.31130E+01 0.00000E+00
 -1      3854 2.34000E+01 3.31130E+01 0.00000E+00
 -1      3855 2.41500E+01 3.18140E+01 0.00000E+00
 -1      3856 1.65615E+01 1.45351E+01 0.00000E+00
 -1      3857 1.59934E+01 1.30863E+01 0.00000E+00
 -1      3858 1.00790E+02 1.57743E+01 0.00000E+00
 -1      3859 9.85212E+01 1.61835E+01 0.00000E+00
 -1      3860 9.85487E+01 1.73176E+01 0.00000E+00
 -1      3861 1.01540E+02 1.70733E+01 0.00000E+00
 -1      3862 9.88814E+01 3.31371E+01 0.00000E+00
 -1      3863 1.46944E+01 1.23503E+01 0.00000E+00
 -1      3864 1.33047E+02 1.61220E+01 0.00000E+00
 -1      3865 1.31879E+02 1.58300E+01 0.00000E+00
 -1      3866 1.31129E+02 1.71290E+01 0.00000E+00
 -1      3867 1.33318E+02 1.74847E+01 0.00000E+00
 -1      3868 4.37850E+01 1.56973E+01 0.00000E+00
 -1      3869 4.22850E+01 1.56973E+01 0.00000E+00
 -1      3870 1.35405E+02 1.39507E+01 0.00000E+00
 -1      3871 9.98063E+01 3.21248E+01 0.00000E+00
 -1      3872 1.00075E+02 3.33996E+01 0.00000E+00
 -1      3873 1.01575E+02 3.33996E+01 0.00000E+00
 -1      3874 1.00425E+02 3.13749E+01 0.00000E+00
 -1      3875 1.74233E+01 1.58521E+01 0.00000E+00
 -1      3876 1.64498E+01 1.59889E+01 0.00000E+00
 -1      3877 1.64498E+01 1.74608E+01 0.00000E+00
 -1      3878 1.81733E+01 1.71511E+01 0.00000E+00
 -1      3879 1.89000E+01 3.31130E+01 0.00000E+00
 -1      3880 2.04000E+01 3.31130E+01 0.00000E+00
 -1      3881 2.11500E+01 3.18140E+01 0.00000E+00
 -1      3882 6.53411E+01 1.90807E+01 0.00000E+00
 -1      3883 1.15785E+02 1.56522E+01 0.00000E+00
 -1      3884 1.14285E+02 1.56522E+01 0.00000E+00
 -1      3885 1.16535E+02 1.69512E+01 0.00000E+00
 -1      3886 1.06785E+02 1.56522E+01 0.00000E+00
 -1      3887 1.05285E+02 1.56522E+01 0.00000E+00
 -1      3888 1.07535E+02 1.69512E+01 0.00000E+00
 -1      3889 9.93299E+01 1.80650E+01 0.00000E+00
 -1      3890 1.55880E+01 1.90891E+01 0.00000E+00
 -1      3891 9.94923E+01 1.98409E+01 0.00000E+00
 -1      3892 9.91601E+01 2.09495E+01 0.00000E+00
 -1      3893 1.00037E+02 2.18558E+01 0.00000E+00
 -1      3894 6.52655E+01 3.03946E+01 0.00000E+00
 -1      3895 6.53123E+01 2.89528E+01 0.00000E+00
 -1      3896 6.44580E+01 2.80554E+01 0.00000E+00
 -1      3897 6.41172E+01 3.04660E+01 0.00000E+00
 -1      3898 1.00526E+02 2.87433E+01 0.00000E+00
 -1      3899 1.68870E+01 2.42359E+01 0.00000E+00
 -1      3900 1.68870E+01 2.57078E+01 0.00000E+00
 -1      3901 2.50350E+01 1.43982E+01 0.00000E+00
 -1      3902 1.74000E+01 3.16443E+01 0.00000E+00
 -1      3903 1.02325E+02 3.21006E+01 0.00000E+00
 -1      3904 1.04535E+02 1.69512E+01 0.00000E+00
 -1      3905 3.17850E+01 1.56973E+01 0.00000E+00
 -1      3906 3.02850E+01 1.56973E+01 0.00000E+00
 -1      3907 4.07850E+01 1.56973E+01 0.00000E+00
 -1      3908 3.92850E+01 1.56973E+01 0.00000E+00
 -1      3909 4.15350E+01 1.69963E+01 0.00000E+00
 -1      3910 1.13535E+02 1.69512E+01 0.00000E+00
 -1      3911 1.00453E+02 2.50442E+01 0.00000E+00
 -1      3912 1.01488E+02 2.61164E+01 0.00000E+00
 -1      3913 1.00739E+02 2.40365E+01 0.00000E+00
 -1      3914 1.32531E+02 3.06133E+01 0.00000E+00
 -1      3915 1.34412E+02 2.20688E+01 0.00000E+00
 -1      3916 3.47850E+01 1.56973E+01 0.00000E+00
 -1      3917 3.32850E+01 1.56973E+01 0.00000E+00
 -1      3918 3.25350E+01 1.69963E+01 0.00000E+00
 -1      3919 1.33318E+02 2.04159E+01 0.00000E+00
 -1      3920 1.33318E+02 1.89503E+01 0.00000E+00
 -1      3921 1.32223E+02 1.87725E+01 0.00000E+00
 -1      3922 4.52850E+01 1.56973E+01 0.00000E+00
 -1      3923 4.45350E+01 1.69963E+01 0.00000E+00
 -1      3924 4.67850E+01 1.56973E+01 0.00000E+00
 -1      3925 6.48157E+01 2.47772E+01 0.00000E+00
 -1      3926 6.40988E+01 2.37434E+01 0.00000E+00
 -1      3927 6.39115E+01 2.58164E+01 0.00000E+00
 -1      3928 6.47290E+01 2.02862E+01 0.00000E+00
 -1      3929 6.36311E+01 1.86448E+01 0.00000E+00
 -1      3930 6.20270E+01 1.84232E+01 0.00000E+00
 -1      3931 6.40110E+01 2.12772E+01 0.00000E+00
 -1      3932 1.68870E+01 2.12984E+01 0.00000E+00
 -1      3933 1.68870E+01 2.27672E+01 0.00000E+00
 -1      3934 1.81860E+01 2.35031E+01 0.00000E+00
 -1      3935 1.33113E+02 2.57422E+01 0.00000E+00
 -1      3936 1.33113E+02 2.42766E+01 0.00000E+00
 -1      3937 1.33113E+02 2.86797E+01 0.00000E+00
 -1      3938 1.33113E+02 2.72109E+01 0.00000E+00
 -1      3939 1.31814E+02 2.64781E+01 0.00000E+00
 -1      3940 4.97850E+01 1.56973E+01 0.00000E+00
 -1      3941 4.82850E+01 1.56973E+01 0.00000E+00
 -1      3942 4.75350E+01 1.69963E+01 0.00000E+00
 -1      3943 2.27850E+01 1.56973E+01 0.00000E+00
 -1      3944 2.12850E+01 1.56973E+01 0.00000E+00
 -1      3945 2.05351E+01 1.69963E+01 0.00000E+00
 -1      3946 5.05350E+01 1.69963E+01 0.00000E+00
 -1      3947 1.01750E+02 3.10883E+01 0.00000E+00
 -1      3948 1.03075E+02 3.08016E+01 0.00000E+00
 -1      3949 1.01175E+02 3.00759E+01 0.00000E+00
 -1      3950 1.02321E+02 1.78208E+01 0.00000E+00
 -1      3951 1.00825E+02 1.79429E+01 0.00000E+00
 -1      3952 1.00111E+02 1.88124E+01 0.00000E+00
 -1      3953 2.64000E+01 3.05150E+01 0.00000E+00
 -1      3954 2.79000E+01 3.05150E+01 0.00000E+00
 -1      3955 2.94000E+01 3.05150E+01 0.00000E+00
 -1      3956 3.09000E+01 3.05150E+01 0.00000E+00
 -1      3957 2.86500E+01 2.92160E+01 0.00000E+00
 -1      3958 3.24000E+01 3.05150E+01 0.00000E+00
 -1      3959 3.39000E+01 3.05150E+01 0.00000E+00
 -1      3960 3.16500E+01 2.92160E+01 0.00000E+00
 -1      3961 3.54000E+01 3.05150E+01 0.00000E+00
 -1      3962 3.69000E+01 3.05150E+01 0.00000E+00
 -1      3963 3.46500E+01 2.92160E+01 0.00000E+00
 -1      3964 3.84000E+01 3.05150E+01 0.00000E+00
 -1      3965 3.99000E+01 3.05150E+01 0.00000E+00
 -1      3966 3.76500E+01 2.92160E+01 0.00000E+00
 -1      3967 4.14000E+01 3.05150E+01 0.00000E+00
 -1      3968 4.29000E+01 3.05150E+01 0.00000E+00
 -1      3969 4.06500E+01 2.92160E+01 0.00000E+00
 -1      3970 4.44000E+01 3.05150E+01 0.00000E+00
 -1      3971 4.59000E+01 3.05150E+01 0.00000E+00
 -1      3972 4.36500E+01 2.92160E+01 0.00000E+00
 -1      3973 4.74000E+01 3.05150E+01 0.00000E+00
 -1      3974 4.89000E+01 3.05150E+01 0.00000E+00
 -1      3975 4.66500E+01 2.92160E+01 0.00000E+00
 -1      3976 5.04000E+01 3.05150E+01 0.00000E+00
 -1      3977 5.19000E+01 3.05150E+01 0.00000E+00
 -1      3978 4.96500E+01 2.92160E+01 0.00000E+00
 -1      3979 5.34000E+01 3.05150E+01 0.00000E+00
 -1      3980 5.49000E+01 3.05150E+01 0.00000E+00
 -1      3981 5.26500E+01 2.92160E+01 0.00000E+00
 -1      3982 5.64000E+01 3.05150E+01 0.00000E+00
 -1      3983 5.79000E+01 3.05150E+01 0.00000E+00
 -1      3984 5.56500E+01 2.92160E+01 0.00000E+00
 -1      3985 5.94000E+01 3.05150E+01 0.00000E+00
 -1      3986 6.09000E+01 3.05150E+01 0.00000E+00
 -1      3987 5.86500E+01 2.92160E+01 0.00000E+00
 -1      3988 2.57850E+01 1.56973E+01 0.00000E+00
 -1      3989 2.42850E+01 1.56973E+01 0.00000E+00
 -1      3990 2.35351E+01 1.69963E+01 0.00000E+00
 -1      3991 1.04575E+02 3.08016E+01 0.00000E+00
 -1      3992 1.06075E+02 3.08016E+01 0.00000E+00
 -1      3993 1.04000E+02 2.97893E+01 0.00000E+00
 -1      3994 2.04000E+01 3.05150E+01 0.00000E+00
 -1      3995 2.19000E+01 3.05150E+01 0.00000E+00
 -1      3996 1.07575E+02 3.08016E+01 0.00000E+00
 -1      3997 1.09075E+02 3.08016E+01 0.00000E+00
 -1      3998 1.07000E+02 2.97893E+01 0.00000E+00
 -1      3999 1.10575E+02 3.08016E+01 0.00000E+00
 -1      4000 1.12075E+02 3.08016E+01 0.00000E+00
 -1      4001 1.10000E+02 2.97893E+01 0.00000E+00
 -1      4002 1.13575E+02 3.08016E+01 0.00000E+00
 -1      4003 1.15075E+02 3.08016E+01 0.00000E+00
 -1      4004 1.13000E+02 2.97893E+01 0.00000E+00
 -1      4005 1.16575E+02 3.08016E+01 0.00000E+00
 -1      4006 1.18075E+02 3.08016E+01 0.00000E+00
 -1      4007 1.16000E+02 2.97893E+01 0.00000E+00
 -1      4008 1.19575E+02 3.08016E+01 0.00000E+00
 -1      4009 1.21075E+02 3.08016E+01 0.00000E+00
 -1      4010 1.19000E+02 2.97893E+01 0.00000E+00
 -1      4011 1.22575E+02 3.08016E+01 0.00000E+00
 -1      4012 1.24075E+02 3.08016E+01 0.00000E+00
 -1      4013 1.22000E+02 2.97893E+01 0.00000E+00
 -1      4014 1.25575E+02 3.08016E+01 0.00000E+00
 -1      4015 1.27075E+02 3.08016E+01 0.00000E+00
 -1      4016 1.25000E+02 2.97893E+01 0.00000E+00
 -1      4017 1.28575E+02 3.08016E+01 0.00000E+00
 -1      4018 1.30075E+02 3.08016E+01 0.00000E+00
 -1      4019 1.28000E+02 2.97893E+01 0.00000E+00
 -1      4020 5.72850E+01 1.82952E+01 0.00000E+00
 -1      4021 5.57850E+01 1.82952E+01 0.00000E+00
 -1      4022 1.67048E+01 3.02810E+01 0.00000E+00
 -1      4023 1.89548E+01 3.04508E+01 0.00000E+00
 -1      4024 1.97048E+01 2.91518E+01 0.00000E+00
 -1      4025 1.68143E+01 2.90233E+01 0.00000E+00
 -1      4026 5.42850E+01 1.82952E+01 0.00000E+00
 -1      4027 5.27850E+01 1.82952E+01 0.00000E+00
 -1      4028 5.50350E+01 1.95942E+01 0.00000E+00
 -1      4029 2.87850E+01 1.56973E+01 0.00000E+00
 -1      4030 2.72850E+01 1.56973E+01 0.00000E+00
 -1      4031 2.65350E+01 1.69963E+01 0.00000E+00
 -1      4032 2.95350E+01 1.69963E+01 0.00000E+00
 -1      4033 1.20285E+02 1.82502E+01 0.00000E+00
 -1      4034 1.18785E+02 1.82502E+01 0.00000E+00
 -1      4035 3.77850E+01 1.56973E+01 0.00000E+00
 -1      4036 3.62850E+01 1.56973E+01 0.00000E+00
 -1      4037 3.55350E+01 1.69963E+01 0.00000E+00
 -1      4038 3.85350E+01 1.69963E+01 0.00000E+00
 -1      4039 1.23285E+02 1.82502E+01 0.00000E+00
 -1      4040 1.21785E+02 1.82502E+01 0.00000E+00
 -1      4041 1.21035E+02 1.95492E+01 0.00000E+00
 -1      4042 1.11285E+02 1.82502E+01 0.00000E+00
 -1      4043 1.09785E+02 1.82502E+01 0.00000E+00
 -1      4044 1.26285E+02 1.82502E+01 0.00000E+00
 -1      4045 1.24785E+02 1.82502E+01 0.00000E+00
 -1      4046 1.24035E+02 1.95492E+01 0.00000E+00
 -1      4047 1.29285E+02 1.82502E+01 0.00000E+00
 -1      4048 1.27785E+02 1.82502E+01 0.00000E+00
 -1      4049 1.27035E+02 1.95492E+01 0.00000E+00
 -1      4050 1.05285E+02 1.82502E+01 0.00000E+00
 -1      4051 1.03785E+02 1.82502E+01 0.00000E+00
 -1      4052 1.01851E+02 2.84567E+01 0.00000E+00
 -1      4053 1.66684E+01 1.86429E+01 0.00000E+00
 -1      4054 1.66684E+01 2.01163E+01 0.00000E+00
 -1      4055 1.79674E+01 2.08523E+01 0.00000E+00
 -1      4056 1.75301E+01 1.84881E+01 0.00000E+00
 -1      4057 2.34000E+01 3.05150E+01 0.00000E+00
 -1      4058 2.49000E+01 3.05150E+01 0.00000E+00
 -1      4059 2.56500E+01 2.92160E+01 0.00000E+00
 -1      4060 1.14285E+02 1.82502E+01 0.00000E+00
 -1      4061 1.12785E+02 1.82502E+01 0.00000E+00
 -1      4062 1.12035E+02 1.95492E+01 0.00000E+00
 -1      4063 1.33215E+02 2.30837E+01 0.00000E+00
 -1      4064 1.33215E+02 2.16087E+01 0.00000E+00
 -1      4065 1.32121E+02 2.14309E+01 0.00000E+00
 -1      4066 1.31916E+02 2.38166E+01 0.00000E+00
 -1      4067 5.12850E+01 1.82952E+01 0.00000E+00
 -1      4068 4.97850E+01 1.82952E+01 0.00000E+00
 -1      4069 5.20350E+01 1.95942E+01 0.00000E+00
 -1      4070 1.31301E+02 1.86003E+01 0.00000E+00
 -1      4071 1.30207E+02 1.84224E+01 0.00000E+00
 -1      4072 1.29457E+02 1.97214E+01 0.00000E+00
 -1      4073 1.31301E+02 2.00659E+01 0.00000E+00
 -1      4074 1.17285E+02 1.82502E+01 0.00000E+00
 -1      4075 1.15785E+02 1.82502E+01 0.00000E+00
 -1      4076 1.18035E+02 1.95492E+01 0.00000E+00
 -1      4077 6.02850E+01 1.82952E+01 0.00000E+00
 -1      4078 5.87850E+01 1.82952E+01 0.00000E+00
 -1      4079 5.80350E+01 1.95942E+01 0.00000E+00
 -1      4080 1.08285E+02 1.82502E+01 0.00000E+00
 -1      4081 1.06785E+02 1.82502E+01 0.00000E+00
 -1      4082 1.09035E+02 1.95492E+01 0.00000E+00
 -1      4083 1.00988E+02 1.97187E+01 0.00000E+00
 -1      4084 1.03071E+02 1.91198E+01 0.00000E+00
 -1      4085 6.31089E+01 2.84793E+01 0.00000E+00
 -1      4086 6.32794E+01 2.72740E+01 0.00000E+00
 -1      4087 4.90350E+01 1.95942E+01 0.00000E+00
 -1      4088 4.82850E+01 1.82952E+01 0.00000E+00
 -1      4089 4.67850E+01 1.82952E+01 0.00000E+00
 -1      4090 2.26500E+01 2.92160E+01 0.00000E+00
 -1      4091 1.83919E+01 1.83332E+01 0.00000E+00
 -1      4092 1.15035E+02 1.95492E+01 0.00000E+00
 -1      4093 1.06035E+02 1.95492E+01 0.00000E+00
 -1      4094 3.02850E+01 1.82953E+01 0.00000E+00
 -1      4095 2.87850E+01 1.82953E+01 0.00000E+00
 -1      4096 1.01071E+02 2.29279E+01 0.00000E+00
 -1      4097 1.02106E+02 2.40001E+01 0.00000E+00
 -1      4098 1.01403E+02 2.18194E+01 0.00000E+00
 -1      4099 6.25624E+01 2.62403E+01 0.00000E+00
 -1      4100 1.69237E+01 2.77657E+01 0.00000E+00
 -1      4101 1.02880E+02 2.59670E+01 0.00000E+00
 -1      4102 1.02594E+02 2.69747E+01 0.00000E+00
 -1      4103 2.13919E+01 1.83332E+01 0.00000E+00
 -1      4104 1.98919E+01 1.83332E+01 0.00000E+00
 -1      4105 1.92488E+01 1.96702E+01 0.00000E+00
 -1      4106 1.82227E+01 2.70297E+01 0.00000E+00
 -1      4107 3.32850E+01 1.82953E+01 0.00000E+00
 -1      4108 3.17850E+01 1.82953E+01 0.00000E+00
 -1      4109 3.10350E+01 1.95943E+01 0.00000E+00
 -1      4110 1.03243E+02 2.83073E+01 0.00000E+00
 -1      4111 1.30515E+02 2.72125E+01 0.00000E+00
 -1      4112 1.30515E+02 2.57437E+01 0.00000E+00
 -1      4113 1.31232E+02 2.98804E+01 0.00000E+00
 -1      4114 6.12770E+01 1.97222E+01 0.00000E+00
 -1      4115 4.52850E+01 1.82952E+01 0.00000E+00
 -1      4116 4.37850E+01 1.82952E+01 0.00000E+00
 -1      4117 4.60350E+01 1.95942E+01 0.00000E+00
 -1      4118 4.22850E+01 1.82952E+01 0.00000E+00
 -1      4119 4.07850E+01 1.82952E+01 0.00000E+00
 -1      4120 4.30350E+01 1.95942E+01 0.00000E+00
 -1      4121 1.30617E+02 2.45509E+01 0.00000E+00
 -1      4122 1.30720E+02 2.33581E+01 0.00000E+00
 -1      4123 1.29318E+02 2.52853E+01 0.00000E+00
 -1      4124 1.96313E+01 2.50361E+01 0.00000E+00
 -1      4125 1.96680E+01 2.70939E+01 0.00000E+00
 -1      4126 2.11133E+01 2.71582E+01 0.00000E+00
 -1      4127 1.30657E+02 2.88681E+01 0.00000E+00
 -1      4128 1.96313E+01 2.35673E+01 0.00000E+00
 -1      4129 1.12785E+02 2.08482E+01 0.00000E+00
 -1      4130 1.11285E+02 2.08482E+01 0.00000E+00
 -1      4131 6.22188E+01 2.92383E+01 0.00000E+00
 -1      4132 6.29688E+01 3.05373E+01 0.00000E+00
 -1      4133 3.09000E+01 2.79170E+01 0.00000E+00
 -1      4134 3.24000E+01 2.79170E+01 0.00000E+00
 -1      4135 3.39000E+01 2.79170E+01 0.00000E+00
 -1      4136 3.54000E+01 2.79170E+01 0.00000E+00
 -1      4137 3.31500E+01 2.66180E+01 0.00000E+00
 -1      4138 3.69000E+01 2.79170E+01 0.00000E+00
 -1      4139 3.84000E+01 2.79170E+01 0.00000E+00
 -1      4140 3.61500E+01 2.66180E+01 0.00000E+00
 -1      4141 3.99000E+01 2.79170E+01 0.00000E+00
 -1      4142 4.14000E+01 2.79170E+01 0.00000E+00
 -1      4143 3.91500E+01 2.66180E+01 0.00000E+00
 -1      4144 4.29000E+01 2.79170E+01 0.00000E+00
 -1      4145 4.44000E+01 2.79170E+01 0.00000E+00
 -1      4146 4.21500E+01 2.66180E+01 0.00000E+00
 -1      4147 4.59000E+01 2.79170E+01 0.00000E+00
 -1      4148 4.74000E+01 2.79170E+01 0.00000E+00
 -1      4149 4.51500E+01 2.66180E+01 0.00000E+00
 -1      4150 4.89000E+01 2.79170E+01 0.00000E+00
 -1      4151 5.04000E+01 2.79170E+01 0.00000E+00
 -1      4152 4.81500E+01 2.66180E+01 0.00000E+00
 -1      4153 5.19000E+01 2.79170E+01 0.00000E+00
 -1      4154 5.34000E+01 2.79170E+01 0.00000E+00
 -1      4155 5.11500E+01 2.66180E+01 0.00000E+00
 -1      4156 5.49000E+01 2.79170E+01 0.00000E+00
 -1      4157 5.64000E+01 2.79170E+01 0.00000E+00
 -1      4158 5.41500E+01 2.66180E+01 0.00000E+00
 -1      4159 5.79000E+01 2.79170E+01 0.00000E+00
 -1      4160 5.94000E+01 2.79170E+01 0.00000E+00
 -1      4161 5.71500E+01 2.66180E+01 0.00000E+00
 -1      4162 1.02546E+02 1.99553E+01 0.00000E+00
 -1      4163 1.01928E+02 2.09838E+01 0.00000E+00
 -1      4164 1.02962E+02 2.20560E+01 0.00000E+00
 -1      4165 1.04011E+02 2.03848E+01 0.00000E+00
 -1      4166 1.04743E+02 2.83073E+01 0.00000E+00
 -1      4167 5.57850E+01 2.08932E+01 0.00000E+00
 -1      4168 5.42850E+01 2.08932E+01 0.00000E+00
 -1      4169 2.72850E+01 1.82953E+01 0.00000E+00
 -1      4170 2.57851E+01 1.82953E+01 0.00000E+00
 -1      4171 2.80350E+01 1.95943E+01 0.00000E+00
 -1      4172 1.09250E+02 2.84903E+01 0.00000E+00
 -1      4173 1.10750E+02 2.84903E+01 0.00000E+00
 -1      4174 1.12250E+02 2.84903E+01 0.00000E+00
 -1      4175 1.13750E+02 2.84903E+01 0.00000E+00
 -1      4176 1.11500E+02 2.71913E+01 0.00000E+00
 -1      4177 1.15250E+02 2.84903E+01 0.00000E+00
 -1      4178 1.16750E+02 2.84903E+01 0.00000E+00
 -1      4179 1.14500E+02 2.71913E+01 0.00000E+00
 -1      4180 1.18250E+02 2.84903E+01 0.00000E+00
 -1      4181 1.19750E+02 2.84903E+01 0.00000E+00
 -1      4182 1.17500E+02 2.71913E+01 0.00000E+00
 -1      4183 1.21250E+02 2.84903E+01 0.00000E+00
 -1      4184 1.22750E+02 2.84903E+01 0.00000E+00
 -1      4185 1.20500E+02 2.71913E+01 0.00000E+00
 -1      4186 1.24250E+02 2.84903E+01 0.00000E+00
 -1      4187 1.25750E+02 2.84903E+01 0.00000E+00
 -1      4188 1.23500E+02 2.71913E+01 0.00000E+00
 -1      4189 1.29358E+02 2.81337E+01 0.00000E+00
 -1      4190 1.21785E+02 2.08482E+01 0.00000E+00
 -1      4191 1.20285E+02 2.08482E+01 0.00000E+00
 -1      4192 2.25765E+01 2.51003E+01 0.00000E+00
 -1      4193 2.26133E+01 2.71582E+01 0.00000E+00
 -1      4194 2.41133E+01 2.71582E+01 0.00000E+00
 -1      4195 2.43385E+01 1.83142E+01 0.00000E+00
 -1      4196 2.28385E+01 1.83142E+01 0.00000E+00
 -1      4197 2.21953E+01 1.96512E+01 0.00000E+00
 -1      4198 2.50885E+01 1.96132E+01 0.00000E+00
 -1      4199 1.06247E+02 2.83988E+01 0.00000E+00
 -1      4200 1.07747E+02 2.83988E+01 0.00000E+00
 -1      4201 1.08497E+02 2.70998E+01 0.00000E+00
 -1      4202 1.05490E+02 2.69168E+01 0.00000E+00
 -1      4203 1.27785E+02 2.08482E+01 0.00000E+00
 -1      4204 1.26285E+02 2.08482E+01 0.00000E+00
 -1      4205 1.30959E+02 2.23084E+01 0.00000E+00
 -1      4206 1.31062E+02 2.11156E+01 0.00000E+00
 -1      4207 1.30140E+02 2.09434E+01 0.00000E+00
 -1      4208 1.29660E+02 2.30428E+01 0.00000E+00
 -1      4209 5.27850E+01 2.08932E+01 0.00000E+00
 -1      4210 5.12850E+01 2.08932E+01 0.00000E+00
 -1      4211 5.35350E+01 2.21922E+01 0.00000E+00
 -1      4212 1.03212E+02 2.48584E+01 0.00000E+00
 -1      4213 1.04319E+02 2.57167E+01 0.00000E+00
 -1      4214 1.03545E+02 2.37498E+01 0.00000E+00
 -1      4215 1.24785E+02 2.08482E+01 0.00000E+00
 -1      4216 1.23285E+02 2.08482E+01 0.00000E+00
 -1      4217 1.22535E+02 2.21472E+01 0.00000E+00
 -1      4218 1.25535E+02 2.21472E+01 0.00000E+00
 -1      4219 1.18785E+02 2.08482E+01 0.00000E+00
 -1      4220 1.17285E+02 2.08482E+01 0.00000E+00
 -1      4221 1.19535E+02 2.21472E+01 0.00000E+00
 -1      4222 1.27858E+02 2.81337E+01 0.00000E+00
 -1      4223 1.27108E+02 2.68347E+01 0.00000E+00
 -1      4224 6.35277E+01 2.26715E+01 0.00000E+00
 -1      4225 6.25357E+01 2.12445E+01 0.00000E+00
 -1      4226 1.15785E+02 2.08482E+01 0.00000E+00
 -1      4227 1.14285E+02 2.08482E+01 0.00000E+00
 -1      4228 1.13535E+02 2.21472E+01 0.00000E+00
 -1      4229 6.07937E+01 2.11165E+01 0.00000E+00
 -1      4230 1.98538E+01 2.19098E+01 0.00000E+00
 -1      4231 2.12991E+01 2.34427E+01 0.00000E+00
 -1      4232 1.07011E+02 2.03848E+01 0.00000E+00
 -1      4233 1.05511E+02 2.03848E+01 0.00000E+00
 -1      4234 1.04986E+02 2.12204E+01 0.00000E+00
 -1      4235 2.79000E+01 2.79170E+01 0.00000E+00
 -1      4236 2.94000E+01 2.79170E+01 0.00000E+00
 -1      4237 3.01500E+01 2.66180E+01 0.00000E+00
 -1      4238 6.26235E+01 2.37107E+01 0.00000E+00
 -1      4239 5.87850E+01 2.08932E+01 0.00000E+00
 -1      4240 5.72850E+01 2.08932E+01 0.00000E+00
 -1      4241 5.65350E+01 2.21922E+01 0.00000E+00
 -1      4242 2.52566E+01 2.75376E+01 0.00000E+00
 -1      4243 2.67566E+01 2.75376E+01 0.00000E+00
 -1      4244 2.75066E+01 2.62386E+01 0.00000E+00
 -1      4245 2.52199E+01 2.54797E+01 0.00000E+00
 -1      4246 1.09785E+02 2.08482E+01 0.00000E+00
 -1      4247 1.08285E+02 2.08482E+01 0.00000E+00
 -1      4248 1.10535E+02 2.21472E+01 0.00000E+00
 -1      4249 6.00437E+01 2.24155E+01 0.00000E+00
 -1      4250 1.94674E+01 2.08523E+01 0.00000E+00
 -1      4251 6.15886E+01 2.48639E+01 0.00000E+00
 -1      4252 6.10175E+01 2.37919E+01 0.00000E+00
 -1      4253 5.90088E+01 2.35687E+01 0.00000E+00
 -1      4254 6.09564E+01 2.63215E+01 0.00000E+00
 -1      4255 4.97850E+01 2.08932E+01 0.00000E+00
 -1      4256 4.82850E+01 2.08932E+01 0.00000E+00
 -1      4257 5.05350E+01 2.21922E+01 0.00000E+00
 -1      4258 6.10401E+01 2.84570E+01 0.00000E+00
 -1      4259 1.16535E+02 2.21472E+01 0.00000E+00
 -1      4260 4.00350E+01 1.95942E+01 0.00000E+00
 -1      4261 3.92850E+01 1.82952E+01 0.00000E+00
 -1      4262 3.77850E+01 1.82952E+01 0.00000E+00
 -1      4263 2.87850E+01 2.08933E+01 0.00000E+00
 -1      4264 2.72851E+01 2.08933E+01 0.00000E+00
 -1      4265 6.02901E+01 2.71580E+01 0.00000E+00
 -1      4266 2.27991E+01 2.34427E+01 0.00000E+00
 -1      4267 1.25102E+02 2.59984E+01 0.00000E+00
 -1      4268 1.27210E+02 2.56419E+01 0.00000E+00
 -1      4269 1.27313E+02 2.44491E+01 0.00000E+00
 -1      4270 1.05822E+02 2.58082E+01 0.00000E+00
 -1      4271 1.07761E+02 2.16838E+01 0.00000E+00
 -1      4272 3.62850E+01 1.82953E+01 0.00000E+00
 -1      4273 3.47850E+01 1.82953E+01 0.00000E+00
 -1      4274 3.40350E+01 1.95943E+01 0.00000E+00
 -1      4275 3.70350E+01 1.95943E+01 0.00000E+00
 -1      4276 1.29217E+02 2.07711E+01 0.00000E+00
 -1      4277 2.11352E+01 2.07277E+01 0.00000E+00
 -1      4278 4.67850E+01 2.08932E+01 0.00000E+00
 -1      4279 4.52850E+01 2.08932E+01 0.00000E+00
 -1      4280 4.75350E+01 2.21922E+01 0.00000E+00
 -1      4281 4.37850E+01 2.08932E+01 0.00000E+00
 -1      4282 4.22850E+01 2.08932E+01 0.00000E+00
 -1      4283 4.45350E+01 2.21922E+01 0.00000E+00
 -1      4284 3.17850E+01 2.08933E+01 0.00000E+00
 -1      4285 3.02850E+01 2.08933E+01 0.00000E+00
 -1      4286 2.95350E+01 2.21923E+01 0.00000E+00
 -1      4287 5.93163E+01 2.57815E+01 0.00000E+00
 -1      4288 1.28467E+02 2.20701E+01 0.00000E+00
 -1      4289 5.77463E+01 2.55116E+01 0.00000E+00
 -1      4290 5.84126E+01 2.46751E+01 0.00000E+00
 -1      4291 5.74388E+01 2.32987E+01 0.00000E+00
 -1      4292 5.62463E+01 2.55116E+01 0.00000E+00
 -1      4293 1.28228E+02 2.31199E+01 0.00000E+00
 -1      4294 1.04528E+02 2.20673E+01 0.00000E+00
 -1      4295 1.04003E+02 2.29029E+01 0.00000E+00
 -1      4296 1.05110E+02 2.37612E+01 0.00000E+00
 -1      4297 1.06028E+02 2.20673E+01 0.00000E+00
 -1      4298 3.54000E+01 2.53190E+01 0.00000E+00
 -1      4299 3.69000E+01 2.53190E+01 0.00000E+00
 -1      4300 3.84000E+01 2.53190E+01 0.00000E+00
 -1      4301 3.99000E+01 2.53190E+01 0.00000E+00
 -1      4302 3.76500E+01 2.40200E+01 0.00000E+00
 -1      4303 4.18425E+01 2.44051E+01 0.00000E+00
 -1      4304 4.33425E+01 2.44051E+01 0.00000E+00
 -1      4305 4.48425E+01 2.44051E+01 0.00000E+00
 -1      4306 4.63425E+01 2.44051E+01 0.00000E+00
 -1      4307 4.78425E+01 2.44051E+01 0.00000E+00
 -1      4308 4.93425E+01 2.44051E+01 0.00000E+00
 -1      4309 5.08425E+01 2.44051E+01 0.00000E+00
 -1      4310 5.23425E+01 2.44051E+01 0.00000E+00
 -1      4311 5.38425E+01 2.44051E+01 0.00000E+00
 -1      4312 5.53425E+01 2.44051E+01 0.00000E+00
 -1      4313 1.26120E+02 2.34764E+01 0.00000E+00
 -1      4314 2.98425E+01 2.44051E+01 0.00000E+00
 -1      4315 3.13425E+01 2.44051E+01 0.00000E+00
 -1      4316 1.10750E+02 2.58923E+01 0.00000E+00
 -1      4317 1.12250E+02 2.58923E+01 0.00000E+00
 -1      4318 1.07534E+02 2.58045E+01 0.00000E+00
 -1      4319 1.09038E+02 2.58960E+01 0.00000E+00
 -1      4320 1.09788E+02 2.45970E+01 0.00000E+00
 -1      4321 1.06363E+02 2.46044E+01 0.00000E+00
 -1      4322 1.14017E+02 2.46692E+01 0.00000E+00
 -1      4323 1.15517E+02 2.46692E+01 0.00000E+00
 -1      4324 1.17017E+02 2.46692E+01 0.00000E+00
 -1      4325 1.18517E+02 2.46692E+01 0.00000E+00
 -1      4326 1.20017E+02 2.46692E+01 0.00000E+00
 -1      4327 1.21517E+02 2.46692E+01 0.00000E+00
 -1      4328 1.23602E+02 2.59984E+01 0.00000E+00
 -1      4329 2.25818E+01 2.07087E+01 0.00000E+00
 -1      4330 3.26213E+01 2.48621E+01 0.00000E+00
 -1      4331 3.41213E+01 2.48621E+01 0.00000E+00
 -1      4332 3.48713E+01 2.35631E+01 0.00000E+00
 -1      4333 3.23138E+01 2.26492E+01 0.00000E+00
 -1      4334 1.11767E+02 2.33702E+01 0.00000E+00
 -1      4335 1.10267E+02 2.33702E+01 0.00000E+00
 -1      4336 2.32621E+01 2.22654E+01 0.00000E+00
 -1      4337 2.45395E+01 2.39230E+01 0.00000E+00
 -1      4338 2.56829E+01 2.43024E+01 0.00000E+00
 -1      4339 2.43222E+01 2.11889E+01 0.00000E+00
 -1      4340 4.03425E+01 2.18071E+01 0.00000E+00
 -1      4341 3.88425E+01 2.18071E+01 0.00000E+00
 -1      4342 4.10925E+01 2.31061E+01 0.00000E+00
 -1      4343 1.24620E+02 2.34764E+01 0.00000E+00
 -1      4344 2.83425E+01 2.44051E+01 0.00000E+00
 -1      4345 2.71991E+01 2.40257E+01 0.00000E+00
 -1      4346 1.23120E+02 2.34764E+01 0.00000E+00
 -1      4347 2.65188E+01 2.24690E+01 0.00000E+00
 -1      4348 2.57688E+01 2.11700E+01 0.00000E+00
 -1      4349 1.06822E+02 2.37575E+01 0.00000E+00
 -1      4350 1.08555E+02 2.33739E+01 0.00000E+00
 -1      4351 1.07281E+02 2.29105E+01 0.00000E+00
 -1      4352 5.59388E+01 2.32987E+01 0.00000E+00
 -1      4353 1.13267E+02 2.33702E+01 0.00000E+00
 -1      4354 3.30638E+01 2.13502E+01 0.00000E+00
 -1      4355 3.45638E+01 2.13502E+01 0.00000E+00
 -1      4356 3.73425E+01 2.18071E+01 0.00000E+00
 -1      4357 3.58425E+01 2.18071E+01 0.00000E+00
 -3
    3C                          2097                                     1
 -1       164    8    0    1
 -2         6         7        23      1131      1294      1148
 -1       165    8    0    1
 -2         7         8       164      1132      1295      1296
 -1       166    8    0    1
 -2         8         9       165      1133      1297      1298
 -1       167    8    0    1
 -2         8       165       164      1298      1299      1295
 -1       168    8    0    1
 -2         9        10       166      1134      1300      1301
 -1       169    8    0    1
 -2         9       166       165      1301      1302      1297
 -1       170    8    0    1
 -2        10        11       167      1135      1303      1304
 -1       171    8    0    1
 -2        10       167       166      1304      1305      1300
 -1       172    8    0    1
 -2        11        12       168      1136      1306      1307
 -1       173    8    0    1
 -2        11       168       167      1307      1308      1303
 -1       174    8    0    1
 -2        12        13       169      1137      1309      1310
 -1       175    8    0    1
 -2        12       169       168      1310      1311      1306
 -1       176    8    0    1
 -2        13        14       170      1138      1312      1313
 -1       177    8    0    1
 -2        13       170       169      1313      1314      1309
 -1       178    8    0    1
 -2        14        15       171      1139      1315      1316
 -1       179    8    0    1
 -2        14       171       170      1316      1317      1312
 -1       180    8    0    1
 -2        15        16       172      1140      1318      1319
 -1       181    8    0    1
 -2        15       172       171      1319      1320      1315
 -1       182    8    0    1
 -2        16        17       173      1141      1321      1322
 -1       183    8    0    1
 -2        16       173       172      1322      1323      1318
 -1       184    8    0    1
 -2        17        18       174      1142      1324      1325
 -1       185    8    0    1
 -2        17       174       173      1325      1326      1321
 -1       186    8    0    1
 -2        18        19       175      1143      1327      1328
 -1       187    8    0    1
 -2        18       175       174      1328      1329      1324
 -1       188    8    0    1
 -2        19        20       176      1144      1330      1331
 -1       189    8    0    1
 -2        19       176       175      1331      1332      1327
 -1       190    8    0    1
 -2        20        21       177      1145      1333      1334
 -1       191    8    0    1
 -2        20       177       176      1334      1335      1330
 -1       192    8    0    1
 -2        21        22       178      1146      1336      1337
 -1       193    8    0    1
 -2        21       178       177      1337      1338      1333
 -1       194    8    0    1
 -2        22         5       179      1147      1339      1340
 -1       195    8    0    1
 -2       178        22       179      1336      1340      1341
 -1       196    8    0    1
 -2         5        72       179      1198      1342      1339
 -1       197    8    0    1
 -2        24        23       180      1149      1343      1344
 -1       198    8    0    1
 -2        25        24       181      1150      1345      1346
 -1       199    8    0    1
 -2        24       180       181      1344      1347      1345
 -1       200    8    0    1
 -2        26        25       182      1151      1348      1349
 -1       201    8    0    1
 -2        25       181       182      1346      1350      1348
 -1       202    8    0    1
 -2        27        26       183      1152      1351      1352
 -1       203    8    0    1
 -2        26       182       183      1349      1353      1351
 -1       204    8    0    1
 -2        28        27       184      1153      1354      1355
 -1       205    8    0    1
 -2        27       183       184      1352      1356      1354
 -1       206    8    0    1
 -2        29        28       185      1154      1357      1358
 -1       207    8    0    1
 -2        28       184       185      1355      1359      1357
 -1       208    8    0    1
 -2        30        29       186      1155      1360      1361
 -1       209    8    0    1
 -2        29       185       186      1358      1362      1360
 -1       210    8    0    1
 -2        31        30       187      1156      1363      1364
 -1       211    8    0    1
 -2        30       186       187      1361      1365      1363
 -1       212    8    0    1
 -2        32        31       188      1157      1366      1367
 -1       213    8    0    1
 -2        31       187       188      1364      1368      1366
 -1       214    8    0    1
 -2        33        32       189      1158      1369      1370
 -1       215    8    0    1
 -2        32       188       189      1367      1371      1369
 -1       216    8    0    1
 -2        34        33       190      1159      1372      1373
 -1       217    8    0    1
 -2        33       189       190      1370      1374      1372
 -1       218    8    0    1
 -2        35        34       191      1160      1375      1376
 -1       219    8    0    1
 -2        34       190       191      1373      1377      1375
 -1       220    8    0    1
 -2        36        35       192      1161      1378      1379
 -1       221    8    0    1
 -2        35       191       192      1376      1380      1378
 -1       222    8    0    1
 -2        37        36       193      1162      1381      1382
 -1       223    8    0    1
 -2        36       192       193      1379      1383      1381
 -1       224    8    0    1
 -2        38        37       194      1163      1384      1385
 -1       225    8    0    1
 -2        37       193       194      1382      1386      1384
 -1       226    8    0    1
 -2        39        38       195      1164      1387      1388
 -1       227    8    0    1
 -2        38       194       195      1385      1389      1387
 -1       228    8    0    1
 -2        40        39       196      1165      1390      1391
 -1       229    8    0    1
 -2        39       195       196      1388      1392      1390
 -1       230    8    0    1
 -2        41        40       197      1166      1393      1394
 -1       231    8    0    1
 -2        40       196       197      1391      1395      1393
 -1       232    8    0    1
 -2        42        41       198      1167      1396      1397
 -1       233    8    0    1
 -2        41       197       198      1394      1398      1396
 -1       234    8    0    1
 -2        43        42       199      1168      1399      1400
 -1       235    8    0    1
 -2        42       198       199      1397      1401      1399
 -1       236    8    0    1
 -2        44        43       200      1169      1402      1403
 -1       237    8    0    1
 -2        43       199       200      1400      1404      1402
 -1       238    8    0    1
 -2        45        44       201      1170      1405      1406
 -1       239    8    0    1
 -2        44       200       201      1403      1407      1405
 -1       240    8    0    1
 -2        46        45       202      1171      1408      1409
 -1       241    8    0    1
 -2        45       201       202      1406      1410      1408
 -1       242    8    0    1
 -2        47        46       203      1172      1411      1412
 -1       243    8    0    1
 -2        46       202       203      1409      1413      1411
 -1       244    8    0    1
 -2        48        47       204      1173      1414      1415
 -1       245    8    0    1
 -2        47       203       204      1412      1416      1414
 -1       246    8    0    1
 -2        49        48       205      1174      1417      1418
 -1       247    8    0    1
 -2        48       204       205      1415      1419      1417
 -1       248    8    0    1
 -2        50        49       206      1175      1420      1421
 -1       249    8    0    1
 -2        49       205       206      1418      1422      1420
 -1       250    8    0    1
 -2        51        50       207      1176      1423      1424
 -1       251    8    0    1
 -2        50       206       207      1421      1425      1423
 -1       252    8    0    1
 -2        52        51       208      1177      1426      1427
 -1       253    8    0    1
 -2        51       207       208      1424      1428      1426
 -1       254    8    0    1
 -2        53        52       209      1178      1429      1430
 -1       255    8    0    1
 -2        52       208       209      1427      1431      1429
 -1       256    8    0    1
 -2        54        53       210      1179      1432      1433
 -1       257    8    0    1
 -2        53       209       210      1430      1434      1432
 -1       258    8    0    1
 -2        55        54       211      1180      1435      1436
 -1       259    8    0    1
 -2        54       210       211      1433      1437      1435
 -1       260    8    0    1
 -2        56        55       212      1181      1438      1439
 -1       261    8    0    1
 -2        55       211       212      1436      1440      1438
 -1       262    8    0    1
 -2        57        56       213      1182      1441      1442
 -1       263    8    0    1
 -2        56       212       213      1439      1443      1441
 -1       264    8    0    1
 -2        58        57       214      1183      1444      1445
 -1       265    8    0    1
 -2        57       213       214      1442      1446      1444
 -1       266    8    0    1
 -2        59        58       215      1184      1447      1448
 -1       267    8    0    1
 -2        58       214       215      1445      1449      1447
 -1       268    8    0    1
 -2        60        59       216      1185      1450      1451
 -1       269    8    0    1
 -2        59       215       216      1448      1452      1450
 -1       270    8    0    1
 -2        61        60       217      1186      1453      1454
 -1       271    8    0    1
 -2        60       216       217      1451      1455      1453
 -1       272    8    0    1
 -2        62        61       218      1187      1456      1457
 -1       273    8    0    1
 -2        61       217       218      1454      1458      1456
 -1       274    8    0    1
 -2        63        62       219      1188      1459      1460
 -1       275    8    0    1
 -2        62       218       219      1457      1461      1459
 -1       276    8    0    1
 -2        64        63       220      1189      1462      1463
 -1       277    8    0    1
 -2        63       219       220      1460      1464      1462
 -1       278    8    0    1
 -2        65        64       221      1190      1465      1466
 -1       279    8    0    1
 -2        64       220       221      1463      1467      1465
 -1       280    8    0    1
 -2        66        65       222      1191      1468      1469
 -1       281    8    0    1
 -2        65       221       222      1466      1470      1468
 -1       282    8    0    1
 -2        67        66       223      1192      1471      1472
 -1       283    8    0    1
 -2        66       222       223      1469      1473      1471
 -1       284    8    0    1
 -2        68        67       224      1193      1474      1475
 -1       285    8    0    1
 -2        67       223       224      1472      1476      1474
 -1       286    8    0    1
 -2        69        68       225      1194      1477      1478
 -1       287    8    0    1
 -2        68       224       225      1475      1479      1477
 -1       288    8    0    1
 -2        70        69       226      1195      1480      1481
 -1       289    8    0    1
 -2        69       225       226      1478      1482      1480
 -1       290    8    0    1
 -2        71        70       227      1196      1483      1484
 -1       291    8    0    1
 -2        70       226       227      1481      1485      1483
 -1       292    8    0    1
 -2         4        71       136      1197      1486      1264
 -1       293    8    0    1
 -2       136        71       227      1486      1484      1487
 -1       294    8    0    1
 -2        72        73       228      1199      1488      1489
 -1       295    8    0    1
 -2        72       228       179      1489      1490      1342
 -1       296    8    0    1
 -2        73        74       229      1200      1491      1492
 -1       297    8    0    1
 -2        73       229       228      1492      1493      1488
 -1       298    8    0    1
 -2        74        75       230      1201      1494      1495
 -1       299    8    0    1
 -2        74       230       229      1495      1496      1491
 -1       300    8    0    1
 -2        75        76       231      1202      1497      1498
 -1       301    8    0    1
 -2        75       231       230      1498      1499      1494
 -1       302    8    0    1
 -2        76        77       232      1203      1500      1501
 -1       303    8    0    1
 -2        76       232       231      1501      1502      1497
 -1       304    8    0    1
 -2        77        78       233      1204      1503      1504
 -1       305    8    0    1
 -2        77       233       232      1504      1505      1500
 -1       306    8    0    1
 -2        78        79       234      1205      1506      1507
 -1       307    8    0    1
 -2        78       234       233      1507      1508      1503
 -1       308    8    0    1
 -2        79        80       235      1206      1509      1510
 -1       309    8    0    1
 -2        79       235       234      1510      1511      1506
 -1       310    8    0    1
 -2        80        81       236      1207      1512      1513
 -1       311    8    0    1
 -2        80       236       235      1513      1514      1509
 -1       312    8    0    1
 -2        81        82       237      1208      1515      1516
 -1       313    8    0    1
 -2        81       237       236      1516      1517      1512
 -1       314    8    0    1
 -2        82        83       238      1209      1518      1519
 -1       315    8    0    1
 -2        82       238       237      1519      1520      1515
 -1       316    8    0    1
 -2        83        84       239      1210      1521      1522
 -1       317    8    0    1
 -2        83       239       238      1522      1523      1518
 -1       318    8    0    1
 -2        84        85       240      1211      1524      1525
 -1       319    8    0    1
 -2        84       240       239      1525      1526      1521
 -1       320    8    0    1
 -2        85        86       241      1212      1527      1528
 -1       321    8    0    1
 -2        85       241       240      1528      1529      1524
 -1       322    8    0    1
 -2        86        87       242      1213      1530      1531
 -1       323    8    0    1
 -2        86       242       241      1531      1532      1527
 -1       324    8    0    1
 -2        87        88       243      1214      1533      1534
 -1       325    8    0    1
 -2        87       243       242      1534      1535      1530
 -1       326    8    0    1
 -2        88        89       244      1215      1536      1537
 -1       327    8    0    1
 -2        88       244       243      1537      1538      1533
 -1       328    8    0    1
 -2        89        90       245      1216      1539      1540
 -1       329    8    0    1
 -2        89       245       244      1540      1541      1536
 -1       330    8    0    1
 -2        90        91       246      1217      1542      1543
 -1       331    8    0    1
 -2        90       246       245      1543      1544      1539
 -1       332    8    0    1
 -2        91        92       247      1218      1545      1546
 -1       333    8    0    1
 -2        91       247       246      1546      1547      1542
 -1       334    8    0    1
 -2        92        93       248      1219      1548      1549
 -1       335    8    0    1
 -2        92       248       247      1549      1550      1545
 -1       336    8    0    1
 -2        93        94       249      1220      1551      1552
 -1       337    8    0    1
 -2        93       249       248      1552      1553      1548
 -1       338    8    0    1
 -2        94        95       250      1221      1554      1555
 -1       339    8    0    1
 -2        94       250       249      1555      1556      1551
 -1       340    8    0    1
 -2        95        96       251      1222      1557      1558
 -1       341    8    0    1
 -2        95       251       250      1558      1559      1554
 -1       342    8    0    1
 -2        96        97       252      1223      1560      1561
 -1       343    8    0    1
 -2        96       252       251      1561      1562      1557
 -1       344    8    0    1
 -2        97        98       253      1224      1563      1564
 -1       345    8    0    1
 -2        97       253       252      1564      1565      1560
 -1       346    8    0    1
 -2        98        99       254      1225      1566      1567
 -1       347    8    0    1
 -2        98       254       253      1567      1568      1563
 -1       348    8    0    1
 -2        99       100       255      1226      1569      1570
 -1       349    8    0    1
 -2        99       255       254      1570      1571      1566
 -1       350    8    0    1
 -2       100       101       256      1227      1572      1573
 -1       351    8    0    1
 -2       100       256       255      1573      1574      1569
 -1       352    8    0    1
 -2       101       102       257      1228      1575      1576
 -1       353    8    0    1
 -2       101       257       256      1576      1577      1572
 -1       354    8    0    1
 -2       102       103       258      1229      1578      1579
 -1       355    8    0    1
 -2       102       258       257      1579      1580      1575
 -1       356    8    0    1
 -2       103       104       259      1230      1581      1582
 -1       357    8    0    1
 -2       103       259       258      1582      1583      1578
 -1       358    8    0    1
 -2       104       105       260      1231      1584      1585
 -1       359    8    0    1
 -2       104       260       259      1585      1586      1581
 -1       360    8    0    1
 -2       105       106       261      1232      1587      1588
 -1       361    8    0    1
 -2       105       261       260      1588      1589      1584
 -1       362    8    0    1
 -2       106       107       262      1233      1590      1591
 -1       363    8    0    1
 -2       106       262       261      1591      1592      1587
 -1       364    8    0    1
 -2       107       108       263      1234      1593      1594
 -1       365    8    0    1
 -2       107       263       262      1594      1595      1590
 -1       366    8    0    1
 -2       108       109       264      1235      1596      1597
 -1       367    8    0    1
 -2       108       264       263      1597      1598      1593
 -1       368    8    0    1
 -2       109       110       265      1236      1599      1600
 -1       369    8    0    1
 -2       109       265       264      1600      1601      1596
 -1       370    8    0    1
 -2       110       111       266      1237      1602      1603
 -1       371    8    0    1
 -2       110       266       265      1603      1604      1599
 -1       372    8    0    1
 -2       111       112       267      1238      1605      1606
 -1       373    8    0    1
 -2       111       267       266      1606      1607      1602
 -1       374    8    0    1
 -2       112       113       268      1239      1608      1609
 -1       375    8    0    1
 -2       112       268       267      1609      1610      1605
 -1       376    8    0    1
 -2       113       114       269      1240      1611      1612
 -1       377    8    0    1
 -2       113       269       268      1612      1613      1608
 -1       378    8    0    1
 -2       114       115       270      1241      1614      1615
 -1       379    8    0    1
 -2       114       270       269      1615      1616      1611
 -1       380    8    0    1
 -2       115       116       271      1242      1617      1618
 -1       381    8    0    1
 -2       115       271       270      1618      1619      1614
 -1       382    8    0    1
 -2       116       117       272      1243      1620      1621
 -1       383    8    0    1
 -2       116       272       271      1621      1622      1617
 -1       384    8    0    1
 -2       117       118       273      1244      1623      1624
 -1       385    8    0    1
 -2       117       273       272      1624      1625      1620
 -1       386    8    0    1
 -2       118       119       274      1245      1626      1627
 -1       387    8    0    1
 -2       118       274       273      1627      1628      1623
 -1       388    8    0    1
 -2       119       120       275      1246      1629      1630
 -1       389    8    0    1
 -2       119       275       274      1630      1631      1626
 -1       390    8    0    1
 -2       120         3       121      1247      1248      1632
 -1       391    8    0    1
 -2       121       122       276      1249      1633      1634
 -1       392    8    0    1
 -2       122       123       277      1250      1635      1636
 -1       393    8    0    1
 -2       122       277       276      1636      1637      1633
 -1       394    8    0    1
 -2       123       124       278      1251      1638      1639
 -1       395    8    0    1
 -2       123       278       277      1639      1640      1635
 -1       396    8    0    1
 -2       124       125       279      1252      1641      1642
 -1       397    8    0    1
 -2       124       279       278      1642      1643      1638
 -1       398    8    0    1
 -2       125       126       280      1253      1644      1645
 -1       399    8    0    1
 -2       125       280       279      1645      1646      1641
 -1       400    8    0    1
 -2       126       127       281      1254      1647      1648
 -1       401    8    0    1
 -2       126       281       280      1648      1649      1644
 -1       402    8    0    1
 -2       127       128       282      1255      1650      1651
 -1       403    8    0    1
 -2       127       282       281      1651      1652      1647
 -1       404    8    0    1
 -2       128       129       283      1256      1653      1654
 -1       405    8    0    1
 -2       128       283       282      1654      1655      1650
 -1       406    8    0    1
 -2       129       130       284      1257      1656      1657
 -1       407    8    0    1
 -2       129       284       283      1657      1658      1653
 -1       408    8    0    1
 -2       130       131       285      1258      1659      1660
 -1       409    8    0    1
 -2       130       285       284      1660      1661      1656
 -1       410    8    0    1
 -2       131       132       286      1259      1662      1663
 -1       411    8    0    1
 -2       131       286       285      1663      1664      1659
 -1       412    8    0    1
 -2       132       133       287      1260      1665      1666
 -1       413    8    0    1
 -2       132       287       286      1666      1667      1662
 -1       414    8    0    1
 -2       133       134       288      1261      1668      1669
 -1       415    8    0    1
 -2       133       288       287      1669      1670      1665
 -1       416    8    0    1
 -2       134       135       289      1262      1671      1672
 -1       417    8    0    1
 -2       134       289       288      1672      1673      1668
 -1       418    8    0    1
 -2       135       136       290      1263      1674      1675
 -1       419    8    0    1
 -2       289       135       290      1671      1675      1676
 -1       420    8    0    1
 -2       136       227       290      1487      1677      1674
 -1       421    8    0    1
 -2         2       137       291      1265      1678      1679
 -1       422    8    0    1
 -2       137       138       292      1266      1680      1681
 -1       423    8    0    1
 -2       138       139       293      1267      1682      1683
 -1       424    8    0    1
 -2       139       140       294      1268      1684      1685
 -1       425    8    0    1
 -2       140       141       295      1269      1686      1687
 -1       426    8    0    1
 -2       141       142       296      1270      1688      1689
 -1       427    8    0    1
 -2       142       143       297      1271      1690      1691
 -1       428    8    0    1
 -2       143       144       298      1272      1692      1693
 -1       429    8    0    1
 -2       144       145       299      1273      1694      1695
 -1       430    8    0    1
 -2       145       146       300      1274      1696      1697
 -1       431    8    0    1
 -2       146       147       301      1275      1698      1699
 -1       432    8    0    1
 -2       147       148       302      1276      1700      1701
 -1       433    8    0    1
 -2       148       149       303      1277      1702      1703
 -1       434    8    0    1
 -2       149       150       304      1278      1704      1705
 -1       435    8    0    1
 -2       150       151       305      1279      1706      1707
 -1       436    8    0    1
 -2       151       152       306      1280      1708      1709
 -1       437    8    0    1
 -2       152       153       307      1281      1710      1711
 -1       438    8    0    1
 -2       153       154       308      1282      1712      1713
 -1       439    8    0    1
 -2       154       155       309      1283      1714      1715
 -1       440    8    0    1
 -2       155       156       310      1284      1716      1717
 -1       441    8    0    1
 -2       156       157       311      1285      1718      1719
 -1       442    8    0    1
 -2       157         1       312      1286      1720      1721
 -1       443    8    0    1
 -2         1       158       313      1287      1722      1723
 -1       444    8    0    1
 -2       158       159       314      1288      1724      1725
 -1       445    8    0    1
 -2       159       160       315      1289      1726      1727
 -1       446    8    0    1
 -2       160       161       316      1290      1728      1729
 -1       447    8    0    1
 -2       161       162       317      1291      1730      1731
 -1       448    8    0    1
 -2       162       163       318      1292      1732      1733
 -1       449    8    0    1
 -2       163         2       319      1293      1734      1735
 -1       450    8    0    1
 -2       294       140       295      1684      1687      1736
 -1       451    8    0    1
 -2       293       139       294      1682      1685      1737
 -1       452    8    0    1
 -2       120       121       275      1632      1738      1629
 -1       453    8    0    1
 -2       121       276       275      1634      1739      1738
 -1       454    8    0    1
 -2       291       137       292      1678      1681      1740
 -1       455    8    0    1
 -2       292       138       293      1680      1683      1741
 -1       456    8    0    1
 -2         2       291       319      1679      1742      1734
 -1       457    8    0    1
 -2       141       296       295      1689      1743      1686
 -1       458    8    0    1
 -2       142       297       296      1691      1744      1688
 -1       459    8    0    1
 -2       143       298       297      1693      1745      1690
 -1       460    8    0    1
 -2       144       299       298      1695      1746      1692
 -1       461    8    0    1
 -2       145       300       299      1697      1747      1694
 -1       462    8    0    1
 -2       146       301       300      1699      1748      1696
 -1       463    8    0    1
 -2       147       302       301      1701      1749      1698
 -1       464    8    0    1
 -2       148       303       302      1703      1750      1700
 -1       465    8    0    1
 -2       149       304       303      1705      1751      1702
 -1       466    8    0    1
 -2       150       305       304      1707      1752      1704
 -1       467    8    0    1
 -2       151       306       305      1709      1753      1706
 -1       468    8    0    1
 -2       152       307       306      1711      1754      1708
 -1       469    8    0    1
 -2       153       308       307      1713      1755      1710
 -1       470    8    0    1
 -2       154       309       308      1715      1756      1712
 -1       471    8    0    1
 -2       155       310       309      1717      1757      1714
 -1       472    8    0    1
 -2       156       311       310      1719      1758      1716
 -1       473    8    0    1
 -2       157       312       311      1721      1759      1718
 -1       474    8    0    1
 -2         1       313       312      1723      1760      1720
 -1       475    8    0    1
 -2       158       314       313      1725      1761      1722
 -1       476    8    0    1
 -2       159       315       314      1727      1762      1724
 -1       477    8    0    1
 -2       160       316       315      1729      1763      1726
 -1       478    8    0    1
 -2       161       317       316      1731      1764      1728
 -1       479    8    0    1
 -2       162       318       317      1733      1765      1730
 -1       480    8    0    1
 -2       163       319       318      1735      1766      1732
 -1       481    8    0    1
 -2        23         7       164      1294      1296      1767
 -1       482    8    0    1
 -2       165       166       320      1302      1768      1769
 -1       483    8    0    1
 -2       164       165       321      1299      1770      1771
 -1       484    8    0    1
 -2       165       320       321      1769      1772      1770
 -1       485    8    0    1
 -2       167       168       322      1308      1773      1774
 -1       486    8    0    1
 -2       168       169       323      1311      1775      1776
 -1       487    8    0    1
 -2       168       323       322      1776      1777      1773
 -1       488    8    0    1
 -2       169       170       324      1314      1778      1779
 -1       489    8    0    1
 -2       169       324       323      1779      1780      1775
 -1       490    8    0    1
 -2       170       171       325      1317      1781      1782
 -1       491    8    0    1
 -2       170       325       324      1782      1783      1778
 -1       492    8    0    1
 -2       171       172       326      1320      1784      1785
 -1       493    8    0    1
 -2       171       326       325      1785      1786      1781
 -1       494    8    0    1
 -2       172       173       327      1323      1787      1788
 -1       495    8    0    1
 -2       172       327       326      1788      1789      1784
 -1       496    8    0    1
 -2       173       174       328      1326      1790      1791
 -1       497    8    0    1
 -2       173       328       327      1791      1792      1787
 -1       498    8    0    1
 -2       174       175       329      1329      1793      1794
 -1       499    8    0    1
 -2       174       329       328      1794      1795      1790
 -1       500    8    0    1
 -2       175       176       330      1332      1796      1797
 -1       501    8    0    1
 -2       175       330       329      1797      1798      1793
 -1       502    8    0    1
 -2       176       177       331      1335      1799      1800
 -1       503    8    0    1
 -2       176       331       330      1800      1801      1796
 -1       504    8    0    1
 -2       177       178       332      1338      1802      1803
 -1       505    8    0    1
 -2       177       332       331      1803      1804      1799
 -1       506    8    0    1
 -2       178       179       333      1341      1805      1806
 -1       507    8    0    1
 -2       332       178       333      1802      1806      1807
 -1       508    8    0    1
 -2       179       228       333      1490      1808      1805
 -1       509    8    0    1
 -2       180        23       164      1343      1767      1809
 -1       510    8    0    1
 -2       228       229       334      1493      1810      1811
 -1       511    8    0    1
 -2       228       334       333      1811      1812      1808
 -1       512    8    0    1
 -2       180       164       321      1809      1771      1813
 -1       513    8    0    1
 -2       182       181       335      1350      1814      1815
 -1       514    8    0    1
 -2       183       182       336      1353      1816      1817
 -1       515    8    0    1
 -2       182       335       336      1815      1818      1816
 -1       516    8    0    1
 -2       184       183       337      1356      1819      1820
 -1       517    8    0    1
 -2       183       336       337      1817      1821      1819
 -1       518    8    0    1
 -2       185       184       338      1359      1822      1823
 -1       519    8    0    1
 -2       184       337       338      1820      1824      1822
 -1       520    8    0    1
 -2       186       185       339      1362      1825      1826
 -1       521    8    0    1
 -2       185       338       339      1823      1827      1825
 -1       522    8    0    1
 -2       187       186       340      1365      1828      1829
 -1       523    8    0    1
 -2       186       339       340      1826      1830      1828
 -1       524    8    0    1
 -2       188       187       341      1368      1831      1832
 -1       525    8    0    1
 -2       187       340       341      1829      1833      1831
 -1       526    8    0    1
 -2       189       188       342      1371      1834      1835
 -1       527    8    0    1
 -2       188       341       342      1832      1836      1834
 -1       528    8    0    1
 -2       190       189       343      1374      1837      1838
 -1       529    8    0    1
 -2       189       342       343      1835      1839      1837
 -1       530    8    0    1
 -2       191       190       344      1377      1840      1841
 -1       531    8    0    1
 -2       190       343       344      1838      1842      1840
 -1       532    8    0    1
 -2       192       191       345      1380      1843      1844
 -1       533    8    0    1
 -2       191       344       345      1841      1845      1843
 -1       534    8    0    1
 -2       193       192       346      1383      1846      1847
 -1       535    8    0    1
 -2       192       345       346      1844      1848      1846
 -1       536    8    0    1
 -2       194       193       347      1386      1849      1850
 -1       537    8    0    1
 -2       193       346       347      1847      1851      1849
 -1       538    8    0    1
 -2       195       194       348      1389      1852      1853
 -1       539    8    0    1
 -2       194       347       348      1850      1854      1852
 -1       540    8    0    1
 -2       196       195       349      1392      1855      1856
 -1       541    8    0    1
 -2       195       348       349      1853      1857      1855
 -1       542    8    0    1
 -2       197       196       350      1395      1858      1859
 -1       543    8    0    1
 -2       196       349       350      1856      1860      1858
 -1       544    8    0    1
 -2       198       197       351      1398      1861      1862
 -1       545    8    0    1
 -2       197       350       351      1859      1863      1861
 -1       546    8    0    1
 -2       199       198       352      1401      1864      1865
 -1       547    8    0    1
 -2       198       351       352      1862      1866      1864
 -1       548    8    0    1
 -2       200       199       353      1404      1867      1868
 -1       549    8    0    1
 -2       199       352       353      1865      1869      1867
 -1       550    8    0    1
 -2       201       200       354      1407      1870      1871
 -1       551    8    0    1
 -2       200       353       354      1868      1872      1870
 -1       552    8    0    1
 -2       202       201       355      1410      1873      1874
 -1       553    8    0    1
 -2       201       354       355      1871      1875      1873
 -1       554    8    0    1
 -2       203       202       356      1413      1876      1877
 -1       555    8    0    1
 -2       202       355       356      1874      1878      1876
 -1       556    8    0    1
 -2       204       203       357      1416      1879      1880
 -1       557    8    0    1
 -2       203       356       357      1877      1881      1879
 -1       558    8    0    1
 -2       205       204       358      1419      1882      1883
 -1       559    8    0    1
 -2       204       357       358      1880      1884      1882
 -1       560    8    0    1
 -2       206       205       359      1422      1885      1886
 -1       561    8    0    1
 -2       205       358       359      1883      1887      1885
 -1       562    8    0    1
 -2       207       206       360      1425      1888      1889
 -1       563    8    0    1
 -2       206       359       360      1886      1890      1888
 -1       564    8    0    1
 -2       208       207       361      1428      1891      1892
 -1       565    8    0    1
 -2       207       360       361      1889      1893      1891
 -1       566    8    0    1
 -2       209       208       362      1431      1894      1895
 -1       567    8    0    1
 -2       208       361       362      1892      1896      1894
 -1       568    8    0    1
 -2       210       209       363      1434      1897      1898
 -1       569    8    0    1
 -2       209       362       363      1895      1899      1897
 -1       570    8    0    1
 -2       211       210       364      1437      1900      1901
 -1       571    8    0    1
 -2       210       363       364      1898      1902      1900
 -1       572    8    0    1
 -2       212       211       365      1440      1903      1904
 -1       573    8    0    1
 -2       211       364       365      1901      1905      1903
 -1       574    8    0    1
 -2       213       212       366      1443      1906      1907
 -1       575    8    0    1
 -2       212       365       366      1904      1908      1906
 -1       576    8    0    1
 -2       214       213       367      1446      1909      1910
 -1       577    8    0    1
 -2       213       366       367      1907      1911      1909
 -1       578    8    0    1
 -2       215       214       368      1449      1912      1913
 -1       579    8    0    1
 -2       214       367       368      1910      1914      1912
 -1       580    8    0    1
 -2       216       215       369      1452      1915      1916
 -1       581    8    0    1
 -2       215       368       369      1913      1917      1915
 -1       582    8    0    1
 -2       217       216       370      1455      1918      1919
 -1       583    8    0    1
 -2       216       369       370      1916      1920      1918
 -1       584    8    0    1
 -2       218       217       371      1458      1921      1922
 -1       585    8    0    1
 -2       217       370       371      1919      1923      1921
 -1       586    8    0    1
 -2       219       218       372      1461      1924      1925
 -1       587    8    0    1
 -2       218       371       372      1922      1926      1924
 -1       588    8    0    1
 -2       220       219       373      1464      1927      1928
 -1       589    8    0    1
 -2       219       372       373      1925      1929      1927
 -1       590    8    0    1
 -2       221       220       374      1467      1930      1931
 -1       591    8    0    1
 -2       220       373       374      1928      1932      1930
 -1       592    8    0    1
 -2       222       221       375      1470      1933      1934
 -1       593    8    0    1
 -2       221       374       375      1931      1935      1933
 -1       594    8    0    1
 -2       223       222       376      1473      1936      1937
 -1       595    8    0    1
 -2       222       375       376      1934      1938      1936
 -1       596    8    0    1
 -2       224       223       377      1476      1939      1940
 -1       597    8    0    1
 -2       223       376       377      1937      1941      1939
 -1       598    8    0    1
 -2       225       224       378      1479      1942      1943
 -1       599    8    0    1
 -2       224       377       378      1940      1944      1942
 -1       600    8    0    1
 -2       226       225       379      1482      1945      1946
 -1       601    8    0    1
 -2       225       378       379      1943      1947      1945
 -1       602    8    0    1
 -2       227       226       380      1485      1948      1949
 -1       603    8    0    1
 -2       290       227       380      1677      1949      1950
 -1       604    8    0    1
 -2       226       379       380      1946      1951      1948
 -1       605    8    0    1
 -2       229       230       381      1496      1952      1953
 -1       606    8    0    1
 -2       229       381       334      1953      1954      1810
 -1       607    8    0    1
 -2       230       231       382      1499      1955      1956
 -1       608    8    0    1
 -2       230       382       381      1956      1957      1952
 -1       609    8    0    1
 -2       231       232       383      1502      1958      1959
 -1       610    8    0    1
 -2       231       383       382      1959      1960      1955
 -1       611    8    0    1
 -2       232       233       384      1505      1961      1962
 -1       612    8    0    1
 -2       232       384       383      1962      1963      1958
 -1       613    8    0    1
 -2       233       234       385      1508      1964      1965
 -1       614    8    0    1
 -2       233       385       384      1965      1966      1961
 -1       615    8    0    1
 -2       234       235       386      1511      1967      1968
 -1       616    8    0    1
 -2       234       386       385      1968      1969      1964
 -1       617    8    0    1
 -2       235       236       387      1514      1970      1971
 -1       618    8    0    1
 -2       235       387       386      1971      1972      1967
 -1       619    8    0    1
 -2       236       237       388      1517      1973      1974
 -1       620    8    0    1
 -2       236       388       387      1974      1975      1970
 -1       621    8    0    1
 -2       237       238       389      1520      1976      1977
 -1       622    8    0    1
 -2       237       389       388      1977      1978      1973
 -1       623    8    0    1
 -2       238       239       390      1523      1979      1980
 -1       624    8    0    1
 -2       238       390       389      1980      1981      1976
 -1       625    8    0    1
 -2       239       240       391      1526      1982      1983
 -1       626    8    0    1
 -2       239       391       390      1983      1984      1979
 -1       627    8    0    1
 -2       240       241       392      1529      1985      1986
 -1       628    8    0    1
 -2       240       392       391      1986      1987      1982
 -1       629    8    0    1
 -2       241       242       393      1532      1988      1989
 -1       630    8    0    1
 -2       241       393       392      1989      1990      1985
 -1       631    8    0    1
 -2       242       243       394      1535      1991      1992
 -1       632    8    0    1
 -2       242       394       393      1992      1993      1988
 -1       633    8    0    1
 -2       243       244       395      1538      1994      1995
 -1       634    8    0    1
 -2       243       395       394      1995      1996      1991
 -1       635    8    0    1
 -2       244       245       396      1541      1997      1998
 -1       636    8    0    1
 -2       244       396       395      1998      1999      1994
 -1       637    8    0    1
 -2       245       246       397      1544      2000      2001
 -1       638    8    0    1
 -2       245       397       396      2001      2002      1997
 -1       639    8    0    1
 -2       246       247       398      1547      2003      2004
 -1       640    8    0    1
 -2       246       398       397      2004      2005      2000
 -1       641    8    0    1
 -2       247       248       399      1550      2006      2007
 -1       642    8    0    1
 -2       247       399       398      2007      2008      2003
 -1       643    8    0    1
 -2       248       249       400      1553      2009      2010
 -1       644    8    0    1
 -2       248       400       399      2010      2011      2006
 -1       645    8    0    1
 -2       249       250       401      1556      2012      2013
 -1       646    8    0    1
 -2       249       401       400      2013      2014      2009
 -1       647    8    0    1
 -2       250       251       402      1559      2015      2016
 -1       648    8    0    1
 -2       250       402       401      2016      2017      2012
 -1       649    8    0    1
 -2       251       252       403      1562      2018      2019
 -1       650    8    0    1
 -2       251       403       402      2019      2020      2015
 -1       651    8    0    1
 -2       252       253       404      1565      2021      2022
 -1       652    8    0    1
 -2       252       404       403      2022      2023      2018
 -1       653    8    0    1
 -2       253       254       405      1568      2024      2025
 -1       654    8    0    1
 -2       253       405       404      2025      2026      2021
 -1       655    8    0    1
 -2       254       255       406      1571      2027      2028
 -1       656    8    0    1
 -2       254       406       405      2028      2029      2024
 -1       657    8    0    1
 -2       255       256       407      1574      2030      2031
 -1       658    8    0    1
 -2       255       407       406      2031      2032      2027
 -1       659    8    0    1
 -2       256       257       408      1577      2033      2034
 -1       660    8    0    1
 -2       256       408       407      2034      2035      2030
 -1       661    8    0    1
 -2       257       258       409      1580      2036      2037
 -1       662    8    0    1
 -2       257       409       408      2037      2038      2033
 -1       663    8    0    1
 -2       258       259       410      1583      2039      2040
 -1       664    8    0    1
 -2       258       410       409      2040      2041      2036
 -1       665    8    0    1
 -2       259       260       411      1586      2042      2043
 -1       666    8    0    1
 -2       259       411       410      2043      2044      2039
 -1       667    8    0    1
 -2       260       261       412      1589      2045      2046
 -1       668    8    0    1
 -2       260       412       411      2046      2047      2042
 -1       669    8    0    1
 -2       261       262       413      1592      2048      2049
 -1       670    8    0    1
 -2       261       413       412      2049      2050      2045
 -1       671    8    0    1
 -2       262       263       414      1595      2051      2052
 -1       672    8    0    1
 -2       262       414       413      2052      2053      2048
 -1       673    8    0    1
 -2       263       264       415      1598      2054      2055
 -1       674    8    0    1
 -2       263       415       414      2055      2056      2051
 -1       675    8    0    1
 -2       264       265       416      1601      2057      2058
 -1       676    8    0    1
 -2       264       416       415      2058      2059      2054
 -1       677    8    0    1
 -2       265       266       417      1604      2060      2061
 -1       678    8    0    1
 -2       265       417       416      2061      2062      2057
 -1       679    8    0    1
 -2       266       267       418      1607      2063      2064
 -1       680    8    0    1
 -2       266       418       417      2064      2065      2060
 -1       681    8    0    1
 -2       267       268       419      1610      2066      2067
 -1       682    8    0    1
 -2       267       419       418      2067      2068      2063
 -1       683    8    0    1
 -2       268       269       420      1613      2069      2070
 -1       684    8    0    1
 -2       268       420       419      2070      2071      2066
 -1       685    8    0    1
 -2       269       270       421      1616      2072      2073
 -1       686    8    0    1
 -2       269       421       420      2073      2074      2069
 -1       687    8    0    1
 -2       270       271       422      1619      2075      2076
 -1       688    8    0    1
 -2       270       422       421      2076      2077      2072
 -1       689    8    0    1
 -2       271       272       423      1622      2078      2079
 -1       690    8    0    1
 -2       271       423       422      2079      2080      2075
 -1       691    8    0    1
 -2       272       273       424      1625      2081      2082
 -1       692    8    0    1
 -2       272       424       423      2082      2083      2078
 -1       693    8    0    1
 -2       273       274       425      1628      2084      2085
 -1       694    8    0    1
 -2       273       425       424      2085      2086      2081
 -1       695    8    0    1
 -2       274       275       426      1631      2087      2088
 -1       696    8    0    1
 -2       425       274       426      2084      2088      2089
 -1       697    8    0    1
 -2       275       276       426      1739      2090      2087
 -1       698    8    0    1
 -2       278       279       427      1643      2091      2092
 -1       699    8    0    1
 -2       277       278       428      1640      2093      2094
 -1       700    8    0    1
 -2       278       427       428      2092      2095      2093
 -1       701    8    0    1
 -2       276       277       429      1637      2096      2097
 -1       702    8    0    1
 -2       426       276       429      2090      2097      2098
 -1       703    8    0    1
 -2       277       428       429      2094      2099      2096
 -1       704    8    0    1
 -2       279       280       430      1646      2100      2101
 -1       705    8    0    1
 -2       279       430       427      2101      2102      2091
 -1       706    8    0    1
 -2       280       281       431      1649      2103      2104
 -1       707    8    0    1
 -2       280       431       430      2104      2105      2100
 -1       708    8    0    1
 -2       281       282       432      1652      2106      2107
 -1       709    8    0    1
 -2       281       432       431      2107      2108      2103
 -1       710    8    0    1
 -2       282       283       433      1655      2109      2110
 -1       711    8    0    1
 -2       282       433       432      2110      2111      2106
 -1       712    8    0    1
 -2       283       284       434      1658      2112      2113
 -1       713    8    0    1
 -2       283       434       433      2113      2114      2109
 -1       714    8    0    1
 -2       284       285       435      1661      2115      2116
 -1       715    8    0    1
 -2       284       435       434      2116      2117      2112
 -1       716    8    0    1
 -2       285       286       436      1664      2118      2119
 -1       717    8    0    1
 -2       285       436       435      2119      2120      2115
 -1       718    8    0    1
 -2       286       287       437      1667      2121      2122
 -1       719    8    0    1
 -2       286       437       436      2122      2123      2118
 -1       720    8    0    1
 -2       287       288       438      1670      2124      2125
 -1       721    8    0    1
 -2       287       438       437      2125      2126      2121
 -1       722    8    0    1
 -2       288       289       439      1673      2127      2128
 -1       723    8    0    1
 -2       288       439       438      2128      2129      2124
 -1       724    8    0    1
 -2       292       293       440      1741      2130      2131
 -1       725    8    0    1
 -2       319       291       441      1742      2132      2133
 -1       726    8    0    1
 -2       291       292       442      1740      2134      2135
 -1       727    8    0    1
 -2       293       294       443      1737      2136      2137
 -1       728    8    0    1
 -2       294       295       444      1736      2138      2139
 -1       729    8    0    1
 -2       166       167       445      1305      2140      2141
 -1       730    8    0    1
 -2       320       166       445      1768      2141      2142
 -1       731    8    0    1
 -2       167       322       445      1774      2143      2140
 -1       732    8    0    1
 -2       296       297       446      1744      2144      2145
 -1       733    8    0    1
 -2       297       298       447      1745      2146      2147
 -1       734    8    0    1
 -2       298       299       448      1746      2148      2149
 -1       735    8    0    1
 -2       299       300       449      1747      2150      2151
 -1       736    8    0    1
 -2       300       301       450      1748      2152      2153
 -1       737    8    0    1
 -2       301       302       451      1749      2154      2155
 -1       738    8    0    1
 -2       302       303       452      1750      2156      2157
 -1       739    8    0    1
 -2       303       304       453      1751      2158      2159
 -1       740    8    0    1
 -2       304       305       454      1752      2160      2161
 -1       741    8    0    1
 -2       305       306       455      1753      2162      2163
 -1       742    8    0    1
 -2       306       307       456      1754      2164      2165
 -1       743    8    0    1
 -2       307       308       457      1755      2166      2167
 -1       744    8    0    1
 -2       307       457       456      2167      2168      2164
 -1       745    8    0    1
 -2       308       309       458      1756      2169      2170
 -1       746    8    0    1
 -2       309       310       459      1757      2171      2172
 -1       747    8    0    1
 -2       309       459       458      2172      2173      2169
 -1       748    8    0    1
 -2       310       311       460      1758      2174      2175
 -1       749    8    0    1
 -2       311       312       461      1759      2176      2177
 -1       750    8    0    1
 -2       312       313       462      1760      2178      2179
 -1       751    8    0    1
 -2       313       314       463      1761      2180      2181
 -1       752    8    0    1
 -2       313       463       462      2181      2182      2178
 -1       753    8    0    1
 -2       314       315       464      1762      2183      2184
 -1       754    8    0    1
 -2       315       316       465      1763      2185      2186
 -1       755    8    0    1
 -2       316       317       466      1764      2187      2188
 -1       756    8    0    1
 -2       317       318       467      1765      2189      2190
 -1       757    8    0    1
 -2       318       319       468      1766      2191      2192
 -1       758    8    0    1
 -2       295       296       469      1743      2193      2194
 -1       759    8    0    1
 -2       296       446       469      2145      2195      2193
 -1       760    8    0    1
 -2       443       294       444      2136      2139      2196
 -1       761    8    0    1
 -2       180       321       181      1813      2197      1347
 -1       762    8    0    1
 -2       444       295       470      2138      2198      2199
 -1       763    8    0    1
 -2       295       469       470      2194      2200      2198
 -1       764    8    0    1
 -2       335       181       321      1814      2197      2201
 -1       765    8    0    1
 -2       442       292       440      2134      2131      2202
 -1       766    8    0    1
 -2       441       291       442      2132      2135      2203
 -1       767    8    0    1
 -2       439       289       290      2127      1676      2204
 -1       768    8    0    1
 -2       440       293       443      2130      2137      2205
 -1       769    8    0    1
 -2       319       441       468      2133      2206      2191
 -1       770    8    0    1
 -2       467       318       468      2189      2192      2207
 -1       771    8    0    1
 -2       466       317       467      2187      2190      2208
 -1       772    8    0    1
 -2       465       316       466      2185      2188      2209
 -1       773    8    0    1
 -2       463       314       471      2180      2210      2211
 -1       774    8    0    1
 -2       314       464       471      2184      2212      2210
 -1       775    8    0    1
 -2       461       312       462      2176      2179      2213
 -1       776    8    0    1
 -2       459       310       460      2171      2175      2214
 -1       777    8    0    1
 -2       457       308       458      2166      2170      2215
 -1       778    8    0    1
 -2       455       306       456      2162      2165      2216
 -1       779    8    0    1
 -2       454       305       455      2160      2163      2217
 -1       780    8    0    1
 -2       453       304       454      2158      2161      2218
 -1       781    8    0    1
 -2       452       303       453      2156      2159      2219
 -1       782    8    0    1
 -2       451       302       452      2154      2157      2220
 -1       783    8    0    1
 -2       450       301       451      2152      2155      2221
 -1       784    8    0    1
 -2       449       300       450      2150      2153      2222
 -1       785    8    0    1
 -2       448       299       449      2148      2151      2223
 -1       786    8    0    1
 -2       446       297       447      2144      2147      2224
 -1       787    8    0    1
 -2       447       298       448      2146      2149      2225
 -1       788    8    0    1
 -2       460       311       472      2174      2226      2227
 -1       789    8    0    1
 -2       311       461       472      2177      2228      2226
 -1       790    8    0    1
 -2       464       315       465      2183      2186      2229
 -1       791    8    0    1
 -2       334       381       473      1954      2230      2231
 -1       792    8    0    1
 -2       323       324       474      1780      2232      2233
 -1       793    8    0    1
 -2       322       323       475      1777      2234      2235
 -1       794    8    0    1
 -2       323       474       475      2233      2236      2234
 -1       795    8    0    1
 -2       325       326       476      1786      2237      2238
 -1       796    8    0    1
 -2       326       327       477      1789      2239      2240
 -1       797    8    0    1
 -2       326       477       476      2240      2241      2237
 -1       798    8    0    1
 -2       327       328       478      1792      2242      2243
 -1       799    8    0    1
 -2       327       478       477      2243      2244      2239
 -1       800    8    0    1
 -2       328       329       479      1795      2245      2246
 -1       801    8    0    1
 -2       328       479       478      2246      2247      2242
 -1       802    8    0    1
 -2       329       330       480      1798      2248      2249
 -1       803    8    0    1
 -2       329       480       479      2249      2250      2245
 -1       804    8    0    1
 -2       330       331       481      1801      2251      2252
 -1       805    8    0    1
 -2       330       481       480      2252      2253      2248
 -1       806    8    0    1
 -2       381       382       482      1957      2254      2255
 -1       807    8    0    1
 -2       381       482       473      2255      2256      2230
 -1       808    8    0    1
 -2       336       335       483      1818      2257      2258
 -1       809    8    0    1
 -2       443       444       484      2196      2259      2260
 -1       810    8    0    1
 -2       337       336       485      1821      2261      2262
 -1       811    8    0    1
 -2       336       483       485      2258      2263      2261
 -1       812    8    0    1
 -2       338       337       486      1824      2264      2265
 -1       813    8    0    1
 -2       337       485       486      2262      2266      2264
 -1       814    8    0    1
 -2       339       338       487      1827      2267      2268
 -1       815    8    0    1
 -2       338       486       487      2265      2269      2267
 -1       816    8    0    1
 -2       340       339       488      1830      2270      2271
 -1       817    8    0    1
 -2       339       487       488      2268      2272      2270
 -1       818    8    0    1
 -2       341       340       489      1833      2273      2274
 -1       819    8    0    1
 -2       340       488       489      2271      2275      2273
 -1       820    8    0    1
 -2       342       341       490      1836      2276      2277
 -1       821    8    0    1
 -2       341       489       490      2274      2278      2276
 -1       822    8    0    1
 -2       343       342       491      1839      2279      2280
 -1       823    8    0    1
 -2       342       490       491      2277      2281      2279
 -1       824    8    0    1
 -2       344       343       492      1842      2282      2283
 -1       825    8    0    1
 -2       343       491       492      2280      2284      2282
 -1       826    8    0    1
 -2       345       344       493      1845      2285      2286
 -1       827    8    0    1
 -2       344       492       493      2283      2287      2285
 -1       828    8    0    1
 -2       346       345       494      1848      2288      2289
 -1       829    8    0    1
 -2       345       493       494      2286      2290      2288
 -1       830    8    0    1
 -2       347       346       495      1851      2291      2292
 -1       831    8    0    1
 -2       346       494       495      2289      2293      2291
 -1       832    8    0    1
 -2       348       347       496      1854      2294      2295
 -1       833    8    0    1
 -2       347       495       496      2292      2296      2294
 -1       834    8    0    1
 -2       349       348       497      1857      2297      2298
 -1       835    8    0    1
 -2       348       496       497      2295      2299      2297
 -1       836    8    0    1
 -2       350       349       498      1860      2300      2301
 -1       837    8    0    1
 -2       349       497       498      2298      2302      2300
 -1       838    8    0    1
 -2       351       350       499      1863      2303      2304
 -1       839    8    0    1
 -2       350       498       499      2301      2305      2303
 -1       840    8    0    1
 -2       352       351       500      1866      2306      2307
 -1       841    8    0    1
 -2       351       499       500      2304      2308      2306
 -1       842    8    0    1
 -2       353       352       501      1869      2309      2310
 -1       843    8    0    1
 -2       352       500       501      2307      2311      2309
 -1       844    8    0    1
 -2       354       353       502      1872      2312      2313
 -1       845    8    0    1
 -2       353       501       502      2310      2314      2312
 -1       846    8    0    1
 -2       355       354       503      1875      2315      2316
 -1       847    8    0    1
 -2       354       502       503      2313      2317      2315
 -1       848    8    0    1
 -2       356       355       504      1878      2318      2319
 -1       849    8    0    1
 -2       355       503       504      2316      2320      2318
 -1       850    8    0    1
 -2       357       356       505      1881      2321      2322
 -1       851    8    0    1
 -2       356       504       505      2319      2323      2321
 -1       852    8    0    1
 -2       358       357       506      1884      2324      2325
 -1       853    8    0    1
 -2       357       505       506      2322      2326      2324
 -1       854    8    0    1
 -2       359       358       507      1887      2327      2328
 -1       855    8    0    1
 -2       358       506       507      2325      2329      2327
 -1       856    8    0    1
 -2       360       359       508      1890      2330      2331
 -1       857    8    0    1
 -2       359       507       508      2328      2332      2330
 -1       858    8    0    1
 -2       361       360       509      1893      2333      2334
 -1       859    8    0    1
 -2       360       508       509      2331      2335      2333
 -1       860    8    0    1
 -2       362       361       510      1896      2336      2337
 -1       861    8    0    1
 -2       361       509       510      2334      2338      2336
 -1       862    8    0    1
 -2       363       362       511      1899      2339      2340
 -1       863    8    0    1
 -2       362       510       511      2337      2341      2339
 -1       864    8    0    1
 -2       364       363       512      1902      2342      2343
 -1       865    8    0    1
 -2       363       511       512      2340      2344      2342
 -1       866    8    0    1
 -2       365       364       513      1905      2345      2346
 -1       867    8    0    1
 -2       364       512       513      2343      2347      2345
 -1       868    8    0    1
 -2       366       365       514      1908      2348      2349
 -1       869    8    0    1
 -2       365       513       514      2346      2350      2348
 -1       870    8    0    1
 -2       367       366       515      1911      2351      2352
 -1       871    8    0    1
 -2       366       514       515      2349      2353      2351
 -1       872    8    0    1
 -2       368       367       516      1914      2354      2355
 -1       873    8    0    1
 -2       367       515       516      2352      2356      2354
 -1       874    8    0    1
 -2       369       368       517      1917      2357      2358
 -1       875    8    0    1
 -2       368       516       517      2355      2359      2357
 -1       876    8    0    1
 -2       370       369       518      1920      2360      2361
 -1       877    8    0    1
 -2       369       517       518      2358      2362      2360
 -1       878    8    0    1
 -2       371       370       519      1923      2363      2364
 -1       879    8    0    1
 -2       370       518       519      2361      2365      2363
 -1       880    8    0    1
 -2       372       371       520      1926      2366      2367
 -1       881    8    0    1
 -2       371       519       520      2364      2368      2366
 -1       882    8    0    1
 -2       373       372       521      1929      2369      2370
 -1       883    8    0    1
 -2       372       520       521      2367      2371      2369
 -1       884    8    0    1
 -2       374       373       522      1932      2372      2373
 -1       885    8    0    1
 -2       373       521       522      2370      2374      2372
 -1       886    8    0    1
 -2       375       374       523      1935      2375      2376
 -1       887    8    0    1
 -2       374       522       523      2373      2377      2375
 -1       888    8    0    1
 -2       376       375       524      1938      2378      2379
 -1       889    8    0    1
 -2       375       523       524      2376      2380      2378
 -1       890    8    0    1
 -2       377       376       525      1941      2381      2382
 -1       891    8    0    1
 -2       376       524       525      2379      2383      2381
 -1       892    8    0    1
 -2       378       377       526      1944      2384      2385
 -1       893    8    0    1
 -2       377       525       526      2382      2386      2384
 -1       894    8    0    1
 -2       379       378       527      1947      2387      2388
 -1       895    8    0    1
 -2       378       526       527      2385      2389      2387
 -1       896    8    0    1
 -2       383       384       528      1963      2390      2391
 -1       897    8    0    1
 -2       384       385       529      1966      2392      2393
 -1       898    8    0    1
 -2       384       529       528      2393      2394      2390
 -1       899    8    0    1
 -2       385       386       530      1969      2395      2396
 -1       900    8    0    1
 -2       385       530       529      2396      2397      2392
 -1       901    8    0    1
 -2       386       387       531      1972      2398      2399
 -1       902    8    0    1
 -2       386       531       530      2399      2400      2395
 -1       903    8    0    1
 -2       387       388       532      1975      2401      2402
 -1       904    8    0    1
 -2       387       532       531      2402      2403      2398
 -1       905    8    0    1
 -2       388       389       533      1978      2404      2405
 -1       906    8    0    1
 -2       388       533       532      2405      2406      2401
 -1       907    8    0    1
 -2       389       390       534      1981      2407      2408
 -1       908    8    0    1
 -2       389       534       533      2408      2409      2404
 -1       909    8    0    1
 -2       390       391       535      1984      2410      2411
 -1       910    8    0    1
 -2       390       535       534      2411      2412      2407
 -1       911    8    0    1
 -2       391       392       536      1987      2413      2414
 -1       912    8    0    1
 -2       391       536       535      2414      2415      2410
 -1       913    8    0    1
 -2       392       393       537      1990      2416      2417
 -1       914    8    0    1
 -2       392       537       536      2417      2418      2413
 -1       915    8    0    1
 -2       393       394       538      1993      2419      2420
 -1       916    8    0    1
 -2       393       538       537      2420      2421      2416
 -1       917    8    0    1
 -2       394       395       539      1996      2422      2423
 -1       918    8    0    1
 -2       394       539       538      2423      2424      2419
 -1       919    8    0    1
 -2       395       396       540      1999      2425      2426
 -1       920    8    0    1
 -2       395       540       539      2426      2427      2422
 -1       921    8    0    1
 -2       396       397       541      2002      2428      2429
 -1       922    8    0    1
 -2       396       541       540      2429      2430      2425
 -1       923    8    0    1
 -2       397       398       542      2005      2431      2432
 -1       924    8    0    1
 -2       397       542       541      2432      2433      2428
 -1       925    8    0    1
 -2       398       399       543      2008      2434      2435
 -1       926    8    0    1
 -2       398       543       542      2435      2436      2431
 -1       927    8    0    1
 -2       399       400       544      2011      2437      2438
 -1       928    8    0    1
 -2       399       544       543      2438      2439      2434
 -1       929    8    0    1
 -2       400       401       545      2014      2440      2441
 -1       930    8    0    1
 -2       400       545       544      2441      2442      2437
 -1       931    8    0    1
 -2       401       402       546      2017      2443      2444
 -1       932    8    0    1
 -2       401       546       545      2444      2445      2440
 -1       933    8    0    1
 -2       402       403       547      2020      2446      2447
 -1       934    8    0    1
 -2       402       547       546      2447      2448      2443
 -1       935    8    0    1
 -2       403       404       548      2023      2449      2450
 -1       936    8    0    1
 -2       403       548       547      2450      2451      2446
 -1       937    8    0    1
 -2       404       405       549      2026      2452      2453
 -1       938    8    0    1
 -2       404       549       548      2453      2454      2449
 -1       939    8    0    1
 -2       405       406       550      2029      2455      2456
 -1       940    8    0    1
 -2       405       550       549      2456      2457      2452
 -1       941    8    0    1
 -2       406       407       551      2032      2458      2459
 -1       942    8    0    1
 -2       406       551       550      2459      2460      2455
 -1       943    8    0    1
 -2       407       408       552      2035      2461      2462
 -1       944    8    0    1
 -2       407       552       551      2462      2463      2458
 -1       945    8    0    1
 -2       408       409       553      2038      2464      2465
 -1       946    8    0    1
 -2       408       553       552      2465      2466      2461
 -1       947    8    0    1
 -2       409       410       554      2041      2467      2468
 -1       948    8    0    1
 -2       409       554       553      2468      2469      2464
 -1       949    8    0    1
 -2       410       411       555      2044      2470      2471
 -1       950    8    0    1
 -2       410       555       554      2471      2472      2467
 -1       951    8    0    1
 -2       411       412       556      2047      2473      2474
 -1       952    8    0    1
 -2       411       556       555      2474      2475      2470
 -1       953    8    0    1
 -2       412       413       557      2050      2476      2477
 -1       954    8    0    1
 -2       412       557       556      2477      2478      2473
 -1       955    8    0    1
 -2       413       414       558      2053      2479      2480
 -1       956    8    0    1
 -2       413       558       557      2480      2481      2476
 -1       957    8    0    1
 -2       414       415       559      2056      2482      2483
 -1       958    8    0    1
 -2       414       559       558      2483      2484      2479
 -1       959    8    0    1
 -2       415       416       560      2059      2485      2486
 -1       960    8    0    1
 -2       415       560       559      2486      2487      2482
 -1       961    8    0    1
 -2       416       417       561      2062      2488      2489
 -1       962    8    0    1
 -2       416       561       560      2489      2490      2485
 -1       963    8    0    1
 -2       417       418       562      2065      2491      2492
 -1       964    8    0    1
 -2       417       562       561      2492      2493      2488
 -1       965    8    0    1
 -2       418       419       563      2068      2494      2495
 -1       966    8    0    1
 -2       418       563       562      2495      2496      2491
 -1       967    8    0    1
 -2       419       420       564      2071      2497      2498
 -1       968    8    0    1
 -2       419       564       563      2498      2499      2494
 -1       969    8    0    1
 -2       420       421       565      2074      2500      2501
 -1       970    8    0    1
 -2       420       565       564      2501      2502      2497
 -1       971    8    0    1
 -2       421       422       566      2077      2503      2504
 -1       972    8    0    1
 -2       421       566       565      2504      2505      2500
 -1       973    8    0    1
 -2       422       423       567      2080      2506      2507
 -1       974    8    0    1
 -2       422       567       566      2507      2508      2503
 -1       975    8    0    1
 -2       423       424       568      2083      2509      2510
 -1       976    8    0    1
 -2       423       568       567      2510      2511      2506
 -1       977    8    0    1
 -2       424       425       569      2086      2512      2513
 -1       978    8    0    1
 -2       424       569       568      2513      2514      2509
 -1       979    8    0    1
 -2       425       426       429      2089      2098      2515
 -1       980    8    0    1
 -2       430       431       570      2105      2516      2517
 -1       981    8    0    1
 -2       431       432       571      2108      2518      2519
 -1       982    8    0    1
 -2       431       571       570      2519      2520      2516
 -1       983    8    0    1
 -2       428       427       572      2095      2521      2522
 -1       984    8    0    1
 -2       427       430       573      2102      2523      2524
 -1       985    8    0    1
 -2       572       427       573      2521      2524      2525
 -1       986    8    0    1
 -2       430       570       573      2517      2526      2523
 -1       987    8    0    1
 -2       432       433       574      2111      2527      2528
 -1       988    8    0    1
 -2       432       574       571      2528      2529      2518
 -1       989    8    0    1
 -2       433       434       575      2114      2530      2531
 -1       990    8    0    1
 -2       433       575       574      2531      2532      2527
 -1       991    8    0    1
 -2       434       435       576      2117      2533      2534
 -1       992    8    0    1
 -2       434       576       575      2534      2535      2530
 -1       993    8    0    1
 -2       435       436       577      2120      2536      2537
 -1       994    8    0    1
 -2       435       577       576      2537      2538      2533
 -1       995    8    0    1
 -2       436       437       578      2123      2539      2540
 -1       996    8    0    1
 -2       436       578       577      2540      2541      2536
 -1       997    8    0    1
 -2       437       438       579      2126      2542      2543
 -1       998    8    0    1
 -2       437       579       578      2543      2544      2539
 -1       999    8    0    1
 -2       438       439       580      2129      2545      2546
 -1      1000    8    0    1
 -2       438       580       579      2546      2547      2542
 -1      1001    8    0    1
 -2       441       442       581      2203      2548      2549
 -1      1002    8    0    1
 -2       440       443       582      2205      2550      2551
 -1      1003    8    0    1
 -2       382       383       583      1960      2552      2553
 -1      1004    8    0    1
 -2       383       528       583      2391      2554      2552
 -1      1005    8    0    1
 -2       439       290       380      2204      1950      2555
 -1      1006    8    0    1
 -2       468       441       584      2206      2556      2557
 -1      1007    8    0    1
 -2       442       440       585      2202      2558      2559
 -1      1008    8    0    1
 -2       442       585       581      2559      2560      2548
 -1      1009    8    0    1
 -2       469       446       586      2195      2561      2562
 -1      1010    8    0    1
 -2       467       468       587      2207      2563      2564
 -1      1011    8    0    1
 -2       461       462       588      2213      2565      2566
 -1      1012    8    0    1
 -2       455       456       589      2216      2567      2568
 -1      1013    8    0    1
 -2       324       325       590      1783      2569      2570
 -1      1014    8    0    1
 -2       474       324       590      2232      2570      2571
 -1      1015    8    0    1
 -2       325       476       590      2238      2572      2569
 -1      1016    8    0    1
 -2       447       448       591      2225      2573      2574
 -1      1017    8    0    1
 -2       446       447       592      2224      2575      2576
 -1      1018    8    0    1
 -2       448       449       593      2223      2577      2578
 -1      1019    8    0    1
 -2       449       450       594      2222      2579      2580
 -1      1020    8    0    1
 -2       450       451       595      2221      2581      2582
 -1      1021    8    0    1
 -2       451       452       596      2220      2583      2584
 -1      1022    8    0    1
 -2       452       453       597      2219      2585      2586
 -1      1023    8    0    1
 -2       453       454       598      2218      2587      2588
 -1      1024    8    0    1
 -2       453       598       597      2588      2589      2585
 -1      1025    8    0    1
 -2       454       455       599      2217      2590      2591
 -1      1026    8    0    1
 -2       456       457       600      2168      2592      2593
 -1      1027    8    0    1
 -2       457       458       601      2215      2594      2595
 -1      1028    8    0    1
 -2       457       601       600      2595      2596      2592
 -1      1029    8    0    1
 -2       458       459       602      2173      2597      2598
 -1      1030    8    0    1
 -2       464       465       603      2229      2599      2600
 -1      1031    8    0    1
 -2       459       460       604      2214      2601      2602
 -1      1032    8    0    1
 -2       462       463       605      2182      2603      2604
 -1      1033    8    0    1
 -2       465       466       606      2209      2605      2606
 -1      1034    8    0    1
 -2       465       606       603      2606      2607      2599
 -1      1035    8    0    1
 -2       466       467       607      2208      2608      2609
 -1      1036    8    0    1
 -2       335       321       608      2201      2610      2611
 -1      1037    8    0    1
 -2       483       335       608      2257      2611      2612
 -1      1038    8    0    1
 -2       321       320       608      1772      2613      2610
 -1      1039    8    0    1
 -2       333       334       609      1812      2614      2615
 -1      1040    8    0    1
 -2       332       333       609      1807      2615      2616
 -1      1041    8    0    1
 -2       334       473       609      2231      2617      2614
 -1      1042    8    0    1
 -2       447       591       592      2574      2618      2575
 -1      1043    8    0    1
 -2       322       475       610      2235      2619      2620
 -1      1044    8    0    1
 -2       322       610       445      2620      2621      2143
 -1      1045    8    0    1
 -2       482       382       583      2254      2553      2622
 -1      1046    8    0    1
 -2       331       332       609      1804      2616      2623
 -1      1047    8    0    1
 -2       606       466       607      2605      2609      2624
 -1      1048    8    0    1
 -2       470       469       586      2200      2562      2625
 -1      1049    8    0    1
 -2       605       463       611      2603      2626      2627
 -1      1050    8    0    1
 -2       463       471       611      2211      2628      2626
 -1      1051    8    0    1
 -2       443       484       582      2260      2629      2550
 -1      1052    8    0    1
 -2       444       470       612      2199      2630      2631
 -1      1053    8    0    1
 -2       444       612       484      2631      2632      2259
 -1      1054    8    0    1
 -2       604       460       613      2601      2633      2634
 -1      1055    8    0    1
 -2       460       472       613      2227      2635      2633
 -1      1056    8    0    1
 -2       468       584       587      2557      2636      2563
 -1      1057    8    0    1
 -2       425       429       569      2515      2637      2512
 -1      1058    8    0    1
 -2       429       428       569      2099      2638      2637
 -1      1059    8    0    1
 -2       601       458       602      2594      2598      2639
 -1      1060    8    0    1
 -2       441       581       614      2549      2640      2641
 -1      1061    8    0    1
 -2       441       614       584      2641      2642      2556
 -1      1062    8    0    1
 -2       440       582       615      2551      2643      2644
 -1      1063    8    0    1
 -2       440       615       585      2644      2645      2558
 -1      1064    8    0    1
 -2       598       454       599      2587      2591      2646
 -1      1065    8    0    1
 -2       331       609       481      2623      2647      2251
 -1      1066    8    0    1
 -2       586       446       592      2561      2576      2648
 -1      1067    8    0    1
 -2       467       587       607      2564      2649      2608
 -1      1068    8    0    1
 -2       461       588       472      2566      2650      2228
 -1      1069    8    0    1
 -2       596       452       597      2583      2586      2651
 -1      1070    8    0    1
 -2       595       451       596      2581      2584      2652
 -1      1071    8    0    1
 -2       471       464       616      2212      2653      2654
 -1      1072    8    0    1
 -2       464       603       616      2600      2655      2653
 -1      1073    8    0    1
 -2       594       450       595      2579      2582      2656
 -1      1074    8    0    1
 -2       455       589       599      2568      2657      2590
 -1      1075    8    0    1
 -2       593       449       594      2577      2580      2658
 -1      1076    8    0    1
 -2       589       456       600      2567      2593      2659
 -1      1077    8    0    1
 -2       588       462       605      2565      2604      2660
 -1      1078    8    0    1
 -2       320       445       617      2142      2661      2662
 -1      1079    8    0    1
 -2       608       320       617      2613      2662      2663
 -1      1080    8    0    1
 -2       445       610       617      2621      2664      2661
 -1      1081    8    0    1
 -2       448       593       591      2578      2665      2573
 -1      1082    8    0    1
 -2       602       459       604      2597      2602      2666
 -1      1083    8    0    1
 -2       439       380       618      2555      2667      2668
 -1      1084    8    0    1
 -2       580       439       618      2545      2668      2669
 -1      1085    8    0    1
 -2       380       379       618      1951      2670      2667
 -1      1086    8    0    1
 -2       569       428       572      2638      2522      2671
 -1      1087    8    0    1
 -2       618       379       527      2670      2388      2672
 -1      1088    8    0    1
 -2       477       478       619      2244      2673      2674
 -1      1089    8    0    1
 -2       476       477       620      2241      2675      2676
 -1      1090    8    0    1
 -2       477       619       620      2674      2677      2675
 -1      1091    8    0    1
 -2       479       480       621      2250      2678      2679
 -1      1092    8    0    1
 -2       480       481       622      2253      2680      2681
 -1      1093    8    0    1
 -2       480       622       621      2681      2682      2678
 -1      1094    8    0    1
 -2       473       482       623      2256      2683      2684
 -1      1095    8    0    1
 -2       586       592       624      2648      2685      2686
 -1      1096    8    0    1
 -2       609       473       481      2617      2687      2647
 -1      1097    8    0    1
 -2       486       485       625      2266      2688      2689
 -1      1098    8    0    1
 -2       487       486       626      2269      2690      2691
 -1      1099    8    0    1
 -2       486       625       626      2689      2692      2690
 -1      1100    8    0    1
 -2       488       487       627      2272      2693      2694
 -1      1101    8    0    1
 -2       487       626       627      2691      2695      2693
 -1      1102    8    0    1
 -2       489       488       628      2275      2696      2697
 -1      1103    8    0    1
 -2       488       627       628      2694      2698      2696
 -1      1104    8    0    1
 -2       490       489       629      2278      2699      2700
 -1      1105    8    0    1
 -2       489       628       629      2697      2701      2699
 -1      1106    8    0    1
 -2       491       490       630      2281      2702      2703
 -1      1107    8    0    1
 -2       490       629       630      2700      2704      2702
 -1      1108    8    0    1
 -2       492       491       631      2284      2705      2706
 -1      1109    8    0    1
 -2       491       630       631      2703      2707      2705
 -1      1110    8    0    1
 -2       493       492       632      2287      2708      2709
 -1      1111    8    0    1
 -2       492       631       632      2706      2710      2708
 -1      1112    8    0    1
 -2       494       493       633      2290      2711      2712
 -1      1113    8    0    1
 -2       493       632       633      2709      2713      2711
 -1      1114    8    0    1
 -2       495       494       634      2293      2714      2715
 -1      1115    8    0    1
 -2       494       633       634      2712      2716      2714
 -1      1116    8    0    1
 -2       496       495       635      2296      2717      2718
 -1      1117    8    0    1
 -2       495       634       635      2715      2719      2717
 -1      1118    8    0    1
 -2       497       496       636      2299      2720      2721
 -1      1119    8    0    1
 -2       496       635       636      2718      2722      2720
 -1      1120    8    0    1
 -2       498       497       637      2302      2723      2724
 -1      1121    8    0    1
 -2       497       636       637      2721      2725      2723
 -1      1122    8    0    1
 -2       499       498       638      2305      2726      2727
 -1      1123    8    0    1
 -2       498       637       638      2724      2728      2726
 -1      1124    8    0    1
 -2       500       499       639      2308      2729      2730
 -1      1125    8    0    1
 -2       499       638       639      2727      2731      2729
 -1      1126    8    0    1
 -2       501       500       640      2311      2732      2733
 -1      1127    8    0    1
 -2       500       639       640      2730      2734      2732
 -1      1128    8    0    1
 -2       502       501       641      2314      2735      2736
 -1      1129    8    0    1
 -2       501       640       641      2733      2737      2735
 -1      1130    8    0    1
 -2       503       502       642      2317      2738      2739
 -1      1131    8    0    1
 -2       502       641       642      2736      2740      2738
 -1      1132    8    0    1
 -2       504       503       643      2320      2741      2742
 -1      1133    8    0    1
 -2       503       642       643      2739      2743      2741
 -1      1134    8    0    1
 -2       505       504       644      2323      2744      2745
 -1      1135    8    0    1
 -2       504       643       644      2742      2746      2744
 -1      1136    8    0    1
 -2       506       505       645      2326      2747      2748
 -1      1137    8    0    1
 -2       505       644       645      2745      2749      2747
 -1      1138    8    0    1
 -2       507       506       646      2329      2750      2751
 -1      1139    8    0    1
 -2       506       645       646      2748      2752      2750
 -1      1140    8    0    1
 -2       508       507       647      2332      2753      2754
 -1      1141    8    0    1
 -2       507       646       647      2751      2755      2753
 -1      1142    8    0    1
 -2       509       508       648      2335      2756      2757
 -1      1143    8    0    1
 -2       508       647       648      2754      2758      2756
 -1      1144    8    0    1
 -2       510       509       649      2338      2759      2760
 -1      1145    8    0    1
 -2       509       648       649      2757      2761      2759
 -1      1146    8    0    1
 -2       511       510       650      2341      2762      2763
 -1      1147    8    0    1
 -2       510       649       650      2760      2764      2762
 -1      1148    8    0    1
 -2       512       511       651      2344      2765      2766
 -1      1149    8    0    1
 -2       511       650       651      2763      2767      2765
 -1      1150    8    0    1
 -2       513       512       652      2347      2768      2769
 -1      1151    8    0    1
 -2       512       651       652      2766      2770      2768
 -1      1152    8    0    1
 -2       514       513       653      2350      2771      2772
 -1      1153    8    0    1
 -2       513       652       653      2769      2773      2771
 -1      1154    8    0    1
 -2       515       514       654      2353      2774      2775
 -1      1155    8    0    1
 -2       514       653       654      2772      2776      2774
 -1      1156    8    0    1
 -2       516       515       655      2356      2777      2778
 -1      1157    8    0    1
 -2       515       654       655      2775      2779      2777
 -1      1158    8    0    1
 -2       517       516       656      2359      2780      2781
 -1      1159    8    0    1
 -2       516       655       656      2778      2782      2780
 -1      1160    8    0    1
 -2       518       517       657      2362      2783      2784
 -1      1161    8    0    1
 -2       517       656       657      2781      2785      2783
 -1      1162    8    0    1
 -2       519       518       658      2365      2786      2787
 -1      1163    8    0    1
 -2       518       657       658      2784      2788      2786
 -1      1164    8    0    1
 -2       520       519       659      2368      2789      2790
 -1      1165    8    0    1
 -2       519       658       659      2787      2791      2789
 -1      1166    8    0    1
 -2       521       520       660      2371      2792      2793
 -1      1167    8    0    1
 -2       520       659       660      2790      2794      2792
 -1      1168    8    0    1
 -2       522       521       661      2374      2795      2796
 -1      1169    8    0    1
 -2       521       660       661      2793      2797      2795
 -1      1170    8    0    1
 -2       523       522       662      2377      2798      2799
 -1      1171    8    0    1
 -2       522       661       662      2796      2800      2798
 -1      1172    8    0    1
 -2       524       523       663      2380      2801      2802
 -1      1173    8    0    1
 -2       523       662       663      2799      2803      2801
 -1      1174    8    0    1
 -2       525       524       664      2383      2804      2805
 -1      1175    8    0    1
 -2       524       663       664      2802      2806      2804
 -1      1176    8    0    1
 -2       526       525       665      2386      2807      2808
 -1      1177    8    0    1
 -2       525       664       665      2805      2809      2807
 -1      1178    8    0    1
 -2       527       526       666      2389      2810      2811
 -1      1179    8    0    1
 -2       526       665       666      2808      2812      2810
 -1      1180    8    0    1
 -2       529       530       667      2397      2813      2814
 -1      1181    8    0    1
 -2       569       572       668      2671      2815      2816
 -1      1182    8    0    1
 -2       569       668       568      2816      2817      2514
 -1      1183    8    0    1
 -2       470       586       669      2625      2818      2819
 -1      1184    8    0    1
 -2       528       529       670      2394      2820      2821
 -1      1185    8    0    1
 -2       529       667       670      2814      2822      2820
 -1      1186    8    0    1
 -2       531       532       671      2403      2823      2824
 -1      1187    8    0    1
 -2       532       533       672      2406      2825      2826
 -1      1188    8    0    1
 -2       532       672       671      2826      2827      2823
 -1      1189    8    0    1
 -2       533       534       673      2409      2828      2829
 -1      1190    8    0    1
 -2       533       673       672      2829      2830      2825
 -1      1191    8    0    1
 -2       534       535       674      2412      2831      2832
 -1      1192    8    0    1
 -2       534       674       673      2832      2833      2828
 -1      1193    8    0    1
 -2       535       536       675      2415      2834      2835
 -1      1194    8    0    1
 -2       535       675       674      2835      2836      2831
 -1      1195    8    0    1
 -2       536       537       676      2418      2837      2838
 -1      1196    8    0    1
 -2       536       676       675      2838      2839      2834
 -1      1197    8    0    1
 -2       537       538       677      2421      2840      2841
 -1      1198    8    0    1
 -2       537       677       676      2841      2842      2837
 -1      1199    8    0    1
 -2       538       539       678      2424      2843      2844
 -1      1200    8    0    1
 -2       538       678       677      2844      2845      2840
 -1      1201    8    0    1
 -2       539       540       679      2427      2846      2847
 -1      1202    8    0    1
 -2       539       679       678      2847      2848      2843
 -1      1203    8    0    1
 -2       540       541       680      2430      2849      2850
 -1      1204    8    0    1
 -2       540       680       679      2850      2851      2846
 -1      1205    8    0    1
 -2       541       542       681      2433      2852      2853
 -1      1206    8    0    1
 -2       541       681       680      2853      2854      2849
 -1      1207    8    0    1
 -2       542       543       682      2436      2855      2856
 -1      1208    8    0    1
 -2       542       682       681      2856      2857      2852
 -1      1209    8    0    1
 -2       543       544       683      2439      2858      2859
 -1      1210    8    0    1
 -2       543       683       682      2859      2860      2855
 -1      1211    8    0    1
 -2       544       545       684      2442      2861      2862
 -1      1212    8    0    1
 -2       544       684       683      2862      2863      2858
 -1      1213    8    0    1
 -2       545       546       685      2445      2864      2865
 -1      1214    8    0    1
 -2       545       685       684      2865      2866      2861
 -1      1215    8    0    1
 -2       546       547       686      2448      2867      2868
 -1      1216    8    0    1
 -2       546       686       685      2868      2869      2864
 -1      1217    8    0    1
 -2       547       548       687      2451      2870      2871
 -1      1218    8    0    1
 -2       547       687       686      2871      2872      2867
 -1      1219    8    0    1
 -2       548       549       688      2454      2873      2874
 -1      1220    8    0    1
 -2       548       688       687      2874      2875      2870
 -1      1221    8    0    1
 -2       549       550       689      2457      2876      2877
 -1      1222    8    0    1
 -2       549       689       688      2877      2878      2873
 -1      1223    8    0    1
 -2       551       552       690      2463      2879      2880
 -1      1224    8    0    1
 -2       552       553       691      2466      2881      2882
 -1      1225    8    0    1
 -2       552       691       690      2882      2883      2879
 -1      1226    8    0    1
 -2       553       554       692      2469      2884      2885
 -1      1227    8    0    1
 -2       553       692       691      2885      2886      2881
 -1      1228    8    0    1
 -2       554       555       693      2472      2887      2888
 -1      1229    8    0    1
 -2       554       693       692      2888      2889      2884
 -1      1230    8    0    1
 -2       555       556       694      2475      2890      2891
 -1      1231    8    0    1
 -2       555       694       693      2891      2892      2887
 -1      1232    8    0    1
 -2       556       557       695      2478      2893      2894
 -1      1233    8    0    1
 -2       556       695       694      2894      2895      2890
 -1      1234    8    0    1
 -2       557       558       696      2481      2896      2897
 -1      1235    8    0    1
 -2       557       696       695      2897      2898      2893
 -1      1236    8    0    1
 -2       558       559       697      2484      2899      2900
 -1      1237    8    0    1
 -2       558       697       696      2900      2901      2896
 -1      1238    8    0    1
 -2       559       560       698      2487      2902      2903
 -1      1239    8    0    1
 -2       559       698       697      2903      2904      2899
 -1      1240    8    0    1
 -2       560       561       699      2490      2905      2906
 -1      1241    8    0    1
 -2       560       699       698      2906      2907      2902
 -1      1242    8    0    1
 -2       561       562       700      2493      2908      2909
 -1      1243    8    0    1
 -2       561       700       699      2909      2910      2905
 -1      1244    8    0    1
 -2       562       563       701      2496      2911      2912
 -1      1245    8    0    1
 -2       562       701       700      2912      2913      2908
 -1      1246    8    0    1
 -2       563       564       702      2499      2914      2915
 -1      1247    8    0    1
 -2       563       702       701      2915      2916      2911
 -1      1248    8    0    1
 -2       564       565       703      2502      2917      2918
 -1      1249    8    0    1
 -2       564       703       702      2918      2919      2914
 -1      1250    8    0    1
 -2       565       566       704      2505      2920      2921
 -1      1251    8    0    1
 -2       565       704       703      2921      2922      2917
 -1      1252    8    0    1
 -2       566       567       705      2508      2923      2924
 -1      1253    8    0    1
 -2       566       705       704      2924      2925      2920
 -1      1254    8    0    1
 -2       567       568       706      2511      2926      2927
 -1      1255    8    0    1
 -2       705       567       706      2923      2927      2928
 -1      1256    8    0    1
 -2       568       668       706      2817      2929      2926
 -1      1257    8    0    1
 -2       574       575       707      2532      2930      2931
 -1      1258    8    0    1
 -2       618       527       708      2672      2932      2933
 -1      1259    8    0    1
 -2       527       666       708      2811      2934      2932
 -1      1260    8    0    1
 -2       570       571       709      2520      2935      2936
 -1      1261    8    0    1
 -2       575       576       710      2535      2937      2938
 -1      1262    8    0    1
 -2       575       710       707      2938      2939      2930
 -1      1263    8    0    1
 -2       571       574       711      2529      2940      2941
 -1      1264    8    0    1
 -2       709       571       711      2935      2941      2942
 -1      1265    8    0    1
 -2       574       707       711      2931      2943      2940
 -1      1266    8    0    1
 -2       576       577       712      2538      2944      2945
 -1      1267    8    0    1
 -2       576       712       710      2945      2946      2937
 -1      1268    8    0    1
 -2       577       578       713      2541      2947      2948
 -1      1269    8    0    1
 -2       577       713       712      2948      2949      2944
 -1      1270    8    0    1
 -2       578       579       714      2544      2950      2951
 -1      1271    8    0    1
 -2       578       714       713      2951      2952      2947
 -1      1272    8    0    1
 -2       598       599       715      2646      2953      2954
 -1      1273    8    0    1
 -2       581       585       716      2560      2955      2956
 -1      1274    8    0    1
 -2       601       602       717      2639      2957      2958
 -1      1275    8    0    1
 -2       583       528       718      2554      2959      2960
 -1      1276    8    0    1
 -2       528       670       718      2821      2961      2959
 -1      1277    8    0    1
 -2       530       531       719      2400      2962      2963
 -1      1278    8    0    1
 -2       667       530       719      2813      2963      2964
 -1      1279    8    0    1
 -2       531       671       719      2824      2965      2962
 -1      1280    8    0    1
 -2       485       483       720      2263      2966      2967
 -1      1281    8    0    1
 -2       485       720       625      2967      2968      2688
 -1      1282    8    0    1
 -2       478       479       721      2247      2969      2970
 -1      1283    8    0    1
 -2       619       478       721      2673      2970      2971
 -1      1284    8    0    1
 -2       479       621       721      2679      2972      2969
 -1      1285    8    0    1
 -2       482       583       722      2622      2973      2974
 -1      1286    8    0    1
 -2       623       482       722      2683      2974      2975
 -1      1287    8    0    1
 -2       583       718       722      2960      2976      2973
 -1      1288    8    0    1
 -2       591       593       723      2665      2977      2978
 -1      1289    8    0    1
 -2       606       607       724      2624      2979      2980
 -1      1290    8    0    1
 -2       475       474       725      2236      2981      2982
 -1      1291    8    0    1
 -2       596       597       726      2651      2983      2984
 -1      1292    8    0    1
 -2       607       587       727      2649      2985      2986
 -1      1293    8    0    1
 -2       587       584       728      2636      2987      2988
 -1      1294    8    0    1
 -2       587       728       727      2988      2989      2985
 -1      1295    8    0    1
 -2       589       600       729      2659      2990      2991
 -1      1296    8    0    1
 -2       599       589       730      2657      2992      2993
 -1      1297    8    0    1
 -2       595       596       731      2652      2994      2995
 -1      1298    8    0    1
 -2       597       598       732      2589      2996      2997
 -1      1299    8    0    1
 -2       593       594       733      2658      2998      2999
 -1      1300    8    0    1
 -2       588       605       734      2660      3000      3001
 -1      1301    8    0    1
 -2       600       601       735      2596      3002      3003
 -1      1302    8    0    1
 -2       594       595       736      2656      3004      3005
 -1      1303    8    0    1
 -2       594       736       733      3005      3006      2998
 -1      1304    8    0    1
 -2       602       604       737      2666      3007      3008
 -1      1305    8    0    1
 -2       580       618       708      2669      2933      3009
 -1      1306    8    0    1
 -2       603       606       738      2607      3010      3011
 -1      1307    8    0    1
 -2       592       591       739      2618      3012      3013
 -1      1308    8    0    1
 -2       582       484       740      2629      3014      3015
 -1      1309    8    0    1
 -2       472       588       741      2650      3016      3017
 -1      1310    8    0    1
 -2       483       608       742      2612      3018      3019
 -1      1311    8    0    1
 -2       720       483       742      2966      3019      3020
 -1      1312    8    0    1
 -2       608       617       742      2663      3021      3018
 -1      1313    8    0    1
 -2       610       475       743      2619      3022      3023
 -1      1314    8    0    1
 -2       475       725       743      2982      3024      3022
 -1      1315    8    0    1
 -2       476       620       744      2676      3025      3026
 -1      1316    8    0    1
 -2       476       744       590      3026      3027      2572
 -1      1317    8    0    1
 -2       723       593       733      2977      2999      3028
 -1      1318    8    0    1
 -2       586       624       669      2686      3029      2818
 -1      1319    8    0    1
 -2       481       473       623      2687      2684      3030
 -1      1320    8    0    1
 -2       611       471       745      2628      3031      3032
 -1      1321    8    0    1
 -2       471       616       745      2654      3033      3031
 -1      1322    8    0    1
 -2       741       588       734      3016      3001      3034
 -1      1323    8    0    1
 -2       612       470       669      2630      2819      3035
 -1      1324    8    0    1
 -2       613       472       746      2635      3036      3037
 -1      1325    8    0    1
 -2       472       741       746      3017      3038      3036
 -1      1326    8    0    1
 -2       740       484       612      3014      2632      3039
 -1      1327    8    0    1
 -2       739       591       723      3012      2978      3040
 -1      1328    8    0    1
 -2       570       709       747      2936      3041      3042
 -1      1329    8    0    1
 -2       570       747       573      3042      3043      2526
 -1      1330    8    0    1
 -2       481       623       622      3030      3044      2680
 -1      1331    8    0    1
 -2       550       551       748      2460      3045      3046
 -1      1332    8    0    1
 -2       689       550       748      2876      3046      3047
 -1      1333    8    0    1
 -2       551       690       748      2880      3048      3045
 -1      1334    8    0    1
 -2       736       595       731      3004      2995      3049
 -1      1335    8    0    1
 -2       603       738       616      3011      3050      2655
 -1      1336    8    0    1
 -2       572       573       668      2525      3051      2815
 -1      1337    8    0    1
 -2       716       585       749      2955      3052      3053
 -1      1338    8    0    1
 -2       585       615       749      2645      3054      3052
 -1      1339    8    0    1
 -2       735       601       717      3002      2958      3055
 -1      1340    8    0    1
 -2       614       581       716      2640      2956      3056
 -1      1341    8    0    1
 -2       598       715       732      2954      3057      2996
 -1      1342    8    0    1
 -2       715       599       730      2953      2993      3058
 -1      1343    8    0    1
 -2       579       580       708      2547      3009      3059
 -1      1344    8    0    1
 -2       615       582       750      2643      3060      3061
 -1      1345    8    0    1
 -2       582       740       750      3015      3062      3060
 -1      1346    8    0    1
 -2       584       614       751      2642      3063      3064
 -1      1347    8    0    1
 -2       584       751       728      3064      3065      2987
 -1      1348    8    0    1
 -2       602       737       717      3008      3066      2957
 -1      1349    8    0    1
 -2       731       596       752      2994      3067      3068
 -1      1350    8    0    1
 -2       596       726       752      2984      3069      3067
 -1      1351    8    0    1
 -2       730       589       729      2992      2991      3070
 -1      1352    8    0    1
 -2       474       590       753      2571      3071      3072
 -1      1353    8    0    1
 -2       725       474       753      2981      3072      3073
 -1      1354    8    0    1
 -2       590       744       753      3027      3074      3071
 -1      1355    8    0    1
 -2       726       597       732      2983      2997      3075
 -1      1356    8    0    1
 -2       604       613       754      2634      3076      3077
 -1      1357    8    0    1
 -2       604       754       737      3077      3078      3007
 -1      1358    8    0    1
 -2       724       607       727      2979      2986      3079
 -1      1359    8    0    1
 -2       606       724       738      2980      3080      3010
 -1      1360    8    0    1
 -2       729       600       735      2990      3003      3081
 -1      1361    8    0    1
 -2       579       708       755      3059      3082      3083
 -1      1362    8    0    1
 -2       714       579       755      2950      3083      3084
 -1      1363    8    0    1
 -2       708       666       755      2934      3085      3082
 -1      1364    8    0    1
 -2       592       739       624      3013      3086      2685
 -1      1365    8    0    1
 -2       621       622       756      2682      3087      3088
 -1      1366    8    0    1
 -2       627       626       757      2695      3089      3090
 -1      1367    8    0    1
 -2       628       627       758      2698      3091      3092
 -1      1368    8    0    1
 -2       627       757       758      3090      3093      3091
 -1      1369    8    0    1
 -2       629       628       759      2701      3094      3095
 -1      1370    8    0    1
 -2       628       758       759      3092      3096      3094
 -1      1371    8    0    1
 -2       630       629       760      2704      3097      3098
 -1      1372    8    0    1
 -2       629       759       760      3095      3099      3097
 -1      1373    8    0    1
 -2       631       630       761      2707      3100      3101
 -1      1374    8    0    1
 -2       630       760       761      3098      3102      3100
 -1      1375    8    0    1
 -2       632       631       762      2710      3103      3104
 -1      1376    8    0    1
 -2       631       761       762      3101      3105      3103
 -1      1377    8    0    1
 -2       633       632       763      2713      3106      3107
 -1      1378    8    0    1
 -2       632       762       763      3104      3108      3106
 -1      1379    8    0    1
 -2       634       633       764      2716      3109      3110
 -1      1380    8    0    1
 -2       633       763       764      3107      3111      3109
 -1      1381    8    0    1
 -2       635       634       765      2719      3112      3113
 -1      1382    8    0    1
 -2       634       764       765      3110      3114      3112
 -1      1383    8    0    1
 -2       636       635       766      2722      3115      3116
 -1      1384    8    0    1
 -2       635       765       766      3113      3117      3115
 -1      1385    8    0    1
 -2       637       636       767      2725      3118      3119
 -1      1386    8    0    1
 -2       636       766       767      3116      3120      3118
 -1      1387    8    0    1
 -2       638       637       768      2728      3121      3122
 -1      1388    8    0    1
 -2       637       767       768      3119      3123      3121
 -1      1389    8    0    1
 -2       639       638       769      2731      3124      3125
 -1      1390    8    0    1
 -2       638       768       769      3122      3126      3124
 -1      1391    8    0    1
 -2       640       639       770      2734      3127      3128
 -1      1392    8    0    1
 -2       639       769       770      3125      3129      3127
 -1      1393    8    0    1
 -2       641       640       771      2737      3130      3131
 -1      1394    8    0    1
 -2       640       770       771      3128      3132      3130
 -1      1395    8    0    1
 -2       642       641       772      2740      3133      3134
 -1      1396    8    0    1
 -2       641       771       772      3131      3135      3133
 -1      1397    8    0    1
 -2       643       642       773      2743      3136      3137
 -1      1398    8    0    1
 -2       642       772       773      3134      3138      3136
 -1      1399    8    0    1
 -2       644       643       774      2746      3139      3140
 -1      1400    8    0    1
 -2       643       773       774      3137      3141      3139
 -1      1401    8    0    1
 -2       646       645       775      2752      3142      3143
 -1      1402    8    0    1
 -2       647       646       741      2755      3144      3145
 -1      1403    8    0    1
 -2       648       647       734      2758      3146      3147
 -1      1404    8    0    1
 -2       649       648       745      2761      3148      3149
 -1      1405    8    0    1
 -2       650       649       745      2764      3149      3150
 -1      1406    8    0    1
 -2       651       650       776      2767      3151      3152
 -1      1407    8    0    1
 -2       652       651       777      2770      3153      3154
 -1      1408    8    0    1
 -2       651       776       777      3152      3155      3153
 -1      1409    8    0    1
 -2       653       652       778      2773      3156      3157
 -1      1410    8    0    1
 -2       652       777       778      3154      3158      3156
 -1      1411    8    0    1
 -2       654       653       779      2776      3159      3160
 -1      1412    8    0    1
 -2       653       778       779      3157      3161      3159
 -1      1413    8    0    1
 -2       655       654       780      2779      3162      3163
 -1      1414    8    0    1
 -2       654       779       780      3160      3164      3162
 -1      1415    8    0    1
 -2       656       655       781      2782      3165      3166
 -1      1416    8    0    1
 -2       655       780       781      3163      3167      3165
 -1      1417    8    0    1
 -2       657       656       782      2785      3168      3169
 -1      1418    8    0    1
 -2       656       781       782      3166      3170      3168
 -1      1419    8    0    1
 -2       658       657       783      2788      3171      3172
 -1      1420    8    0    1
 -2       657       782       783      3169      3173      3171
 -1      1421    8    0    1
 -2       659       658       784      2791      3174      3175
 -1      1422    8    0    1
 -2       658       783       784      3172      3176      3174
 -1      1423    8    0    1
 -2       660       659       785      2794      3177      3178
 -1      1424    8    0    1
 -2       659       784       785      3175      3179      3177
 -1      1425    8    0    1
 -2       661       660       786      2797      3180      3181
 -1      1426    8    0    1
 -2       660       785       786      3178      3182      3180
 -1      1427    8    0    1
 -2       662       661       787      2800      3183      3184
 -1      1428    8    0    1
 -2       661       786       787      3181      3185      3183
 -1      1429    8    0    1
 -2       663       662       788      2803      3186      3187
 -1      1430    8    0    1
 -2       662       787       788      3184      3188      3186
 -1      1431    8    0    1
 -2       664       663       789      2806      3189      3190
 -1      1432    8    0    1
 -2       663       788       789      3187      3191      3189
 -1      1433    8    0    1
 -2       665       664       790      2809      3192      3193
 -1      1434    8    0    1
 -2       664       789       790      3190      3194      3192
 -1      1435    8    0    1
 -2       666       665       791      2812      3195      3196
 -1      1436    8    0    1
 -2       755       666       791      3085      3196      3197
 -1      1437    8    0    1
 -2       665       790       791      3193      3198      3195
 -1      1438    8    0    1
 -2       710       712       792      2946      3199      3200
 -1      1439    8    0    1
 -2       672       673       793      2830      3201      3202
 -1      1440    8    0    1
 -2       671       672       794      2827      3203      3204
 -1      1441    8    0    1
 -2       672       793       794      3202      3205      3203
 -1      1442    8    0    1
 -2       674       675       795      2836      3206      3207
 -1      1443    8    0    1
 -2       675       676       796      2839      3208      3209
 -1      1444    8    0    1
 -2       675       796       795      3209      3210      3206
 -1      1445    8    0    1
 -2       676       677       797      2842      3211      3212
 -1      1446    8    0    1
 -2       676       797       796      3212      3213      3208
 -1      1447    8    0    1
 -2       677       678       798      2845      3214      3215
 -1      1448    8    0    1
 -2       677       798       797      3215      3216      3211
 -1      1449    8    0    1
 -2       678       679       799      2848      3217      3218
 -1      1450    8    0    1
 -2       678       799       798      3218      3219      3214
 -1      1451    8    0    1
 -2       679       680       800      2851      3220      3221
 -1      1452    8    0    1
 -2       679       800       799      3221      3222      3217
 -1      1453    8    0    1
 -2       680       681       801      2854      3223      3224
 -1      1454    8    0    1
 -2       680       801       800      3224      3225      3220
 -1      1455    8    0    1
 -2       681       682       802      2857      3226      3227
 -1      1456    8    0    1
 -2       681       802       801      3227      3228      3223
 -1      1457    8    0    1
 -2       682       683       803      2860      3229      3230
 -1      1458    8    0    1
 -2       682       803       802      3230      3231      3226
 -1      1459    8    0    1
 -2       683       684       804      2863      3232      3233
 -1      1460    8    0    1
 -2       683       804       803      3233      3234      3229
 -1      1461    8    0    1
 -2       684       685       805      2866      3235      3236
 -1      1462    8    0    1
 -2       684       805       804      3236      3237      3232
 -1      1463    8    0    1
 -2       685       686       806      2869      3238      3239
 -1      1464    8    0    1
 -2       685       806       805      3239      3240      3235
 -1      1465    8    0    1
 -2       687       688       733      2875      3241      3242
 -1      1466    8    0    1
 -2       688       689       723      2878      3243      3244
 -1      1467    8    0    1
 -2       736       731       806      3049      3245      3246
 -1      1468    8    0    1
 -2       691       692       807      2886      3247      3248
 -1      1469    8    0    1
 -2       693       694       808      2892      3249      3250
 -1      1470    8    0    1
 -2       694       695       809      2895      3251      3252
 -1      1471    8    0    1
 -2       694       809       808      3252      3253      3249
 -1      1472    8    0    1
 -2       695       696       810      2898      3254      3255
 -1      1473    8    0    1
 -2       695       810       809      3255      3256      3251
 -1      1474    8    0    1
 -2       696       697       811      2901      3257      3258
 -1      1475    8    0    1
 -2       696       811       810      3258      3259      3254
 -1      1476    8    0    1
 -2       697       698       812      2904      3260      3261
 -1      1477    8    0    1
 -2       697       812       811      3261      3262      3257
 -1      1478    8    0    1
 -2       698       699       813      2907      3263      3264
 -1      1479    8    0    1
 -2       698       813       812      3264      3265      3260
 -1      1480    8    0    1
 -2       699       700       814      2910      3266      3267
 -1      1481    8    0    1
 -2       699       814       813      3267      3268      3263
 -1      1482    8    0    1
 -2       700       701       815      2913      3269      3270
 -1      1483    8    0    1
 -2       700       815       814      3270      3271      3266
 -1      1484    8    0    1
 -2       701       702       816      2916      3272      3273
 -1      1485    8    0    1
 -2       701       816       815      3273      3274      3269
 -1      1486    8    0    1
 -2       702       703       817      2919      3275      3276
 -1      1487    8    0    1
 -2       702       817       816      3276      3277      3272
 -1      1488    8    0    1
 -2       703       704       818      2922      3278      3279
 -1      1489    8    0    1
 -2       703       818       817      3279      3280      3275
 -1      1490    8    0    1
 -2       704       705       819      2925      3281      3282
 -1      1491    8    0    1
 -2       704       819       818      3282      3283      3278
 -1      1492    8    0    1
 -2       624       739       748      3086      3284      3285
 -1      1493    8    0    1
 -2       620       619       820      2677      3286      3287
 -1      1494    8    0    1
 -2       713       714       821      2952      3288      3289
 -1      1495    8    0    1
 -2       707       710       822      2939      3290      3291
 -1      1496    8    0    1
 -2       710       792       822      3200      3292      3290
 -1      1497    8    0    1
 -2       739       723       689      3040      3243      3293
 -1      1498    8    0    1
 -2       605       611       823      2627      3294      3295
 -1      1499    8    0    1
 -2       734       605       823      3000      3295      3296
 -1      1500    8    0    1
 -2       715       730       824      3058      3297      3298
 -1      1501    8    0    1
 -2       732       715       825      3057      3299      3300
 -1      1502    8    0    1
 -2       625       720       826      2968      3301      3302
 -1      1503    8    0    1
 -2       735       717       827      3055      3303      3304
 -1      1504    8    0    1
 -2       614       716       828      3056      3305      3306
 -1      1505    8    0    1
 -2       717       737       829      3066      3307      3308
 -1      1506    8    0    1
 -2       668       573       747      3051      3043      3309
 -1      1507    8    0    1
 -2       718       670       830      2961      3310      3311
 -1      1508    8    0    1
 -2       712       713       831      2949      3312      3313
 -1      1509    8    0    1
 -2       792       712       831      3199      3313      3314
 -1      1510    8    0    1
 -2       713       821       831      3289      3315      3312
 -1      1511    8    0    1
 -2       692       693       832      2889      3316      3317
 -1      1512    8    0    1
 -2       807       692       832      3247      3317      3318
 -1      1513    8    0    1
 -2       693       808       832      3250      3319      3316
 -1      1514    8    0    1
 -2       723       733       688      3028      3241      3244
 -1      1515    8    0    1
 -2       673       674       833      2833      3320      3321
 -1      1516    8    0    1
 -2       793       673       833      3201      3321      3322
 -1      1517    8    0    1
 -2       674       795       833      3207      3323      3320
 -1      1518    8    0    1
 -2       617       610       834      2664      3324      3325
 -1      1519    8    0    1
 -2       742       617       834      3021      3325      3326
 -1      1520    8    0    1
 -2       610       743       834      3023      3327      3324
 -1      1521    8    0    1
 -2       622       623       835      3044      3328      3329
 -1      1522    8    0    1
 -2       756       622       835      3087      3329      3330
 -1      1523    8    0    1
 -2       623       722       835      2975      3331      3328
 -1      1524    8    0    1
 -2       734       647       741      3146      3145      3034
 -1      1525    8    0    1
 -2       726       732       836      3075      3332      3333
 -1      1526    8    0    1
 -2       732       825       836      3300      3334      3332
 -1      1527    8    0    1
 -2       670       667       837      2822      3335      3336
 -1      1528    8    0    1
 -2       670       837       830      3336      3337      3310
 -1      1529    8    0    1
 -2       730       729       838      3070      3338      3339
 -1      1530    8    0    1
 -2       727       728       839      2989      3340      3341
 -1      1531    8    0    1
 -2       626       625       840      2692      3342      3343
 -1      1532    8    0    1
 -2       626       840       757      3343      3344      3089
 -1      1533    8    0    1
 -2       616       738       776      3050      3345      3346
 -1      1534    8    0    1
 -2       669       624       841      3029      3347      3348
 -1      1535    8    0    1
 -2       612       669       842      3035      3349      3350
 -1      1536    8    0    1
 -2       724       727       843      3079      3351      3352
 -1      1537    8    0    1
 -2       729       735       844      3081      3353      3354
 -1      1538    8    0    1
 -2       739       689       748      3293      3047      3284
 -1      1539    8    0    1
 -2       687       733       845      3242      3355      3356
 -1      1540    8    0    1
 -2       686       687       845      2872      3356      3357
 -1      1541    8    0    1
 -2       733       736       845      3006      3358      3355
 -1      1542    8    0    1
 -2       744       620       846      3025      3359      3360
 -1      1543    8    0    1
 -2       620       820       846      3287      3361      3359
 -1      1544    8    0    1
 -2       619       721       847      2971      3362      3363
 -1      1545    8    0    1
 -2       619       847       820      3363      3364      3286
 -1      1546    8    0    1
 -2       840       625       826      3342      3302      3365
 -1      1547    8    0    1
 -2       829       737       754      3307      3078      3366
 -1      1548    8    0    1
 -2       747       709       848      3041      3367      3368
 -1      1549    8    0    1
 -2       828       716       849      3305      3369      3370
 -1      1550    8    0    1
 -2       716       749       849      3053      3371      3369
 -1      1551    8    0    1
 -2       775       645       850      3142      3372      3373
 -1      1552    8    0    1
 -2       645       644       850      2749      3374      3372
 -1      1553    8    0    1
 -2       743       725       851      3024      3375      3376
 -1      1554    8    0    1
 -2       748       690       841      3048      3377      3378
 -1      1555    8    0    1
 -2       667       719       852      2964      3379      3380
 -1      1556    8    0    1
 -2       667       852       837      3380      3381      3335
 -1      1557    8    0    1
 -2       671       794       853      3204      3382      3383
 -1      1558    8    0    1
 -2       671       853       719      3383      3384      2965
 -1      1559    8    0    1
 -2       691       807       842      3248      3385      3386
 -1      1560    8    0    1
 -2       827       717       829      3303      3308      3387
 -1      1561    8    0    1
 -2       690       691       842      2883      3386      3388
 -1      1562    8    0    1
 -2       624       748       841      3285      3378      3347
 -1      1563    8    0    1
 -2       819       705       854      3281      3389      3390
 -1      1564    8    0    1
 -2       705       706       854      2928      3391      3389
 -1      1565    8    0    1
 -2       709       711       855      2942      3392      3393
 -1      1566    8    0    1
 -2       709       855       848      3393      3394      3367
 -1      1567    8    0    1
 -2       613       746       775      3037      3395      3396
 -1      1568    8    0    1
 -2       825       715       824      3299      3298      3397
 -1      1569    8    0    1
 -2       711       707       856      2943      3398      3399
 -1      1570    8    0    1
 -2       855       711       856      3392      3399      3400
 -1      1571    8    0    1
 -2       707       822       856      3291      3401      3398
 -1      1572    8    0    1
 -2       749       615       857      3054      3402      3403
 -1      1573    8    0    1
 -2       615       750       857      3061      3404      3402
 -1      1574    8    0    1
 -2       806       731       752      3245      3068      3405
 -1      1575    8    0    1
 -2       750       740       858      3062      3406      3407
 -1      1576    8    0    1
 -2       751       614       828      3063      3306      3408
 -1      1577    8    0    1
 -2       824       730       859      3297      3409      3410
 -1      1578    8    0    1
 -2       730       838       859      3339      3411      3409
 -1      1579    8    0    1
 -2       752       726       860      3069      3412      3413
 -1      1580    8    0    1
 -2       726       836       860      3333      3414      3412
 -1      1581    8    0    1
 -2       735       827       844      3304      3415      3353
 -1      1582    8    0    1
 -2       668       747       861      3309      3416      3417
 -1      1583    8    0    1
 -2       706       668       861      2929      3417      3418
 -1      1584    8    0    1
 -2       747       848       861      3368      3419      3416
 -1      1585    8    0    1
 -2       725       753       862      3073      3420      3421
 -1      1586    8    0    1
 -2       725       862       851      3421      3422      3375
 -1      1587    8    0    1
 -2       843       727       839      3351      3341      3423
 -1      1588    8    0    1
 -2       754       613       775      3076      3396      3424
 -1      1589    8    0    1
 -2       721       621       863      2972      3425      3426
 -1      1590    8    0    1
 -2       847       721       863      3362      3426      3427
 -1      1591    8    0    1
 -2       621       756       863      3088      3428      3425
 -1      1592    8    0    1
 -2       839       728       864      3340      3429      3430
 -1      1593    8    0    1
 -2       728       751       864      3065      3431      3429
 -1      1594    8    0    1
 -2       741       646       746      3144      3432      3038
 -1      1595    8    0    1
 -2       838       729       844      3338      3354      3433
 -1      1596    8    0    1
 -2       738       724       865      3080      3434      3435
 -1      1597    8    0    1
 -2       612       842       740      3350      3436      3039
 -1      1598    8    0    1
 -2       724       843       865      3352      3437      3434
 -1      1599    8    0    1
 -2       714       755       866      3084      3438      3439
 -1      1600    8    0    1
 -2       821       714       866      3288      3439      3440
 -1      1601    8    0    1
 -2       755       791       866      3197      3441      3438
 -1      1602    8    0    1
 -2       722       718       867      2976      3442      3443
 -1      1603    8    0    1
 -2       835       722       867      3331      3443      3444
 -1      1604    8    0    1
 -2       718       830       867      3311      3445      3442
 -1      1605    8    0    1
 -2       746       646       775      3432      3143      3395
 -1      1606    8    0    1
 -2       720       742       834      3020      3326      3446
 -1      1607    8    0    1
 -2       850       644       774      3374      3140      3447
 -1      1608    8    0    1
 -2       720       834       826      3446      3448      3301
 -1      1609    8    0    1
 -2       858       740       842      3406      3436      3449
 -1      1610    8    0    1
 -2       611       745       648      3032      3148      3450
 -1      1611    8    0    1
 -2       745       616       776      3033      3346      3451
 -1      1612    8    0    1
 -2       838       844       868      3433      3452      3453
 -1      1613    8    0    1
 -2       826       834       743      3448      3327      3454
 -1      1614    8    0    1
 -2       759       758       869      3096      3455      3456
 -1      1615    8    0    1
 -2       760       759       870      3099      3457      3458
 -1      1616    8    0    1
 -2       759       869       870      3456      3459      3457
 -1      1617    8    0    1
 -2       761       760       871      3102      3460      3461
 -1      1618    8    0    1
 -2       760       870       871      3458      3462      3460
 -1      1619    8    0    1
 -2       762       761       872      3105      3463      3464
 -1      1620    8    0    1
 -2       761       871       872      3461      3465      3463
 -1      1621    8    0    1
 -2       763       762       873      3108      3466      3467
 -1      1622    8    0    1
 -2       762       872       873      3464      3468      3466
 -1      1623    8    0    1
 -2       764       763       874      3111      3469      3470
 -1      1624    8    0    1
 -2       763       873       874      3467      3471      3469
 -1      1625    8    0    1
 -2       765       764       875      3114      3472      3473
 -1      1626    8    0    1
 -2       764       874       875      3470      3474      3472
 -1      1627    8    0    1
 -2       766       765       876      3117      3475      3476
 -1      1628    8    0    1
 -2       765       875       876      3473      3477      3475
 -1      1629    8    0    1
 -2       767       766       877      3120      3478      3479
 -1      1630    8    0    1
 -2       766       876       877      3476      3480      3478
 -1      1631    8    0    1
 -2       768       767       878      3123      3481      3482
 -1      1632    8    0    1
 -2       767       877       878      3479      3483      3481
 -1      1633    8    0    1
 -2       769       768       879      3126      3484      3485
 -1      1634    8    0    1
 -2       768       878       879      3482      3486      3484
 -1      1635    8    0    1
 -2       770       769       880      3129      3487      3488
 -1      1636    8    0    1
 -2       769       879       880      3485      3489      3487
 -1      1637    8    0    1
 -2       771       770       881      3132      3490      3491
 -1      1638    8    0    1
 -2       770       880       881      3488      3492      3490
 -1      1639    8    0    1
 -2       772       771       882      3135      3493      3494
 -1      1640    8    0    1
 -2       771       881       882      3491      3495      3493
 -1      1641    8    0    1
 -2       773       772       883      3138      3496      3497
 -1      1642    8    0    1
 -2       772       882       883      3494      3498      3496
 -1      1643    8    0    1
 -2       843       839       884      3423      3499      3500
 -1      1644    8    0    1
 -2       836       825       885      3334      3501      3502
 -1      1645    8    0    1
 -2       648       734       823      3147      3296      3503
 -1      1646    8    0    1
 -2       650       745       776      3150      3451      3151
 -1      1647    8    0    1
 -2       779       778       886      3161      3504      3505
 -1      1648    8    0    1
 -2       780       779       887      3164      3506      3507
 -1      1649    8    0    1
 -2       779       886       887      3505      3508      3506
 -1      1650    8    0    1
 -2       781       780       888      3167      3509      3510
 -1      1651    8    0    1
 -2       780       887       888      3507      3511      3509
 -1      1652    8    0    1
 -2       782       781       889      3170      3512      3513
 -1      1653    8    0    1
 -2       781       888       889      3510      3514      3512
 -1      1654    8    0    1
 -2       783       782       890      3173      3515      3516
 -1      1655    8    0    1
 -2       782       889       890      3513      3517      3515
 -1      1656    8    0    1
 -2       784       783       891      3176      3518      3519
 -1      1657    8    0    1
 -2       783       890       891      3516      3520      3518
 -1      1658    8    0    1
 -2       785       784       892      3179      3521      3522
 -1      1659    8    0    1
 -2       784       891       892      3519      3523      3521
 -1      1660    8    0    1
 -2       786       785       893      3182      3524      3525
 -1      1661    8    0    1
 -2       785       892       893      3522      3526      3524
 -1      1662    8    0    1
 -2       787       786       894      3185      3527      3528
 -1      1663    8    0    1
 -2       786       893       894      3525      3529      3527
 -1      1664    8    0    1
 -2       788       787       895      3188      3530      3531
 -1      1665    8    0    1
 -2       787       894       895      3528      3532      3530
 -1      1666    8    0    1
 -2       789       788       896      3191      3533      3534
 -1      1667    8    0    1
 -2       788       895       896      3531      3535      3533
 -1      1668    8    0    1
 -2       790       789       897      3194      3536      3537
 -1      1669    8    0    1
 -2       789       896       897      3534      3538      3536
 -1      1670    8    0    1
 -2       850       774       829      3447      3539      3540
 -1      1671    8    0    1
 -2       842       807       858      3385      3541      3449
 -1      1672    8    0    1
 -2       796       797       898      3213      3542      3543
 -1      1673    8    0    1
 -2       795       796       899      3210      3544      3545
 -1      1674    8    0    1
 -2       796       898       899      3543      3546      3544
 -1      1675    8    0    1
 -2       798       799       900      3219      3547      3548
 -1      1676    8    0    1
 -2       799       800       901      3222      3549      3550
 -1      1677    8    0    1
 -2       799       901       900      3550      3551      3547
 -1      1678    8    0    1
 -2       800       801       902      3225      3552      3553
 -1      1679    8    0    1
 -2       800       902       901      3553      3554      3549
 -1      1680    8    0    1
 -2       801       802       903      3228      3555      3556
 -1      1681    8    0    1
 -2       801       903       902      3556      3557      3552
 -1      1682    8    0    1
 -2       802       803       904      3231      3558      3559
 -1      1683    8    0    1
 -2       802       904       903      3559      3560      3555
 -1      1684    8    0    1
 -2       803       804       905      3234      3561      3562
 -1      1685    8    0    1
 -2       803       905       904      3562      3563      3558
 -1      1686    8    0    1
 -2       804       805       860      3237      3564      3565
 -1      1687    8    0    1
 -2       805       806       752      3240      3405      3566
 -1      1688    8    0    1
 -2       806       686       845      3238      3357      3567
 -1      1689    8    0    1
 -2       736       806       845      3246      3567      3358
 -1      1690    8    0    1
 -2       827       829       774      3387      3539      3568
 -1      1691    8    0    1
 -2       808       809       906      3253      3569      3570
 -1      1692    8    0    1
 -2       811       812       907      3262      3571      3572
 -1      1693    8    0    1
 -2       812       813       908      3265      3573      3574
 -1      1694    8    0    1
 -2       812       908       907      3574      3575      3571
 -1      1695    8    0    1
 -2       813       814       909      3268      3576      3577
 -1      1696    8    0    1
 -2       813       909       908      3577      3578      3573
 -1      1697    8    0    1
 -2       814       815       910      3271      3579      3580
 -1      1698    8    0    1
 -2       814       910       909      3580      3581      3576
 -1      1699    8    0    1
 -2       815       816       911      3274      3582      3583
 -1      1700    8    0    1
 -2       815       911       910      3583      3584      3579
 -1      1701    8    0    1
 -2       816       817       912      3277      3585      3586
 -1      1702    8    0    1
 -2       816       912       911      3586      3587      3582
 -1      1703    8    0    1
 -2       817       818       913      3280      3588      3589
 -1      1704    8    0    1
 -2       817       913       912      3589      3590      3585
 -1      1705    8    0    1
 -2       818       819       914      3283      3591      3592
 -1      1706    8    0    1
 -2       818       914       913      3592      3593      3588
 -1      1707    8    0    1
 -2       825       824       915      3397      3594      3595
 -1      1708    8    0    1
 -2       822       792       916      3292      3596      3597
 -1      1709    8    0    1
 -2       840       826       917      3365      3598      3599
 -1      1710    8    0    1
 -2       810       811       918      3259      3600      3601
 -1      1711    8    0    1
 -2       811       907       918      3572      3602      3600
 -1      1712    8    0    1
 -2       809       810       919      3256      3603      3604
 -1      1713    8    0    1
 -2       809       919       906      3604      3605      3569
 -1      1714    8    0    1
 -2       751       828       920      3408      3606      3607
 -1      1715    8    0    1
 -2       827       774       773      3568      3141      3608
 -1      1716    8    0    1
 -2       830       837       921      3337      3609      3610
 -1      1717    8    0    1
 -2       829       754       850      3366      3611      3540
 -1      1718    8    0    1
 -2       690       842       669      3388      3349      3612
 -1      1719    8    0    1
 -2       797       798       922      3216      3613      3614
 -1      1720    8    0    1
 -2       898       797       922      3542      3614      3615
 -1      1721    8    0    1
 -2       798       900       922      3548      3616      3613
 -1      1722    8    0    1
 -2       753       744       923      3074      3617      3618
 -1      1723    8    0    1
 -2       753       923       862      3618      3619      3420
 -1      1724    8    0    1
 -2       750       858       924      3407      3620      3621
 -1      1725    8    0    1
 -2       750       924       857      3621      3622      3404
 -1      1726    8    0    1
 -2       794       793       925      3205      3623      3624
 -1      1727    8    0    1
 -2       777       776       865      3155      3625      3626
 -1      1728    8    0    1
 -2       754       775       850      3424      3373      3611
 -1      1729    8    0    1
 -2       858       807       832      3541      3318      3627
 -1      1730    8    0    1
 -2       805       752       860      3566      3413      3564
 -1      1731    8    0    1
 -2       827       773       883      3608      3497      3628
 -1      1732    8    0    1
 -2       865       776       738      3625      3345      3435
 -1      1733    8    0    1
 -2       777       865       926      3626      3629      3630
 -1      1734    8    0    1
 -2       778       777       926      3158      3630      3631
 -1      1735    8    0    1
 -2       865       843       926      3437      3632      3629
 -1      1736    8    0    1
 -2       757       840       927      3344      3633      3634
 -1      1737    8    0    1
 -2       840       917       927      3599      3635      3633
 -1      1738    8    0    1
 -2       758       757       928      3093      3636      3637
 -1      1739    8    0    1
 -2       758       928       869      3637      3638      3455
 -1      1740    8    0    1
 -2       844       827       929      3415      3639      3640
 -1      1741    8    0    1
 -2       868       844       929      3452      3640      3641
 -1      1742    8    0    1
 -2       827       883       929      3628      3642      3639
 -1      1743    8    0    1
 -2       864       751       920      3431      3607      3643
 -1      1744    8    0    1
 -2       826       743       851      3454      3376      3644
 -1      1745    8    0    1
 -2       831       821       930      3315      3645      3646
 -1      1746    8    0    1
 -2       849       749       931      3371      3647      3648
 -1      1747    8    0    1
 -2       749       857       931      3403      3649      3647
 -1      1748    8    0    1
 -2       828       849       932      3370      3650      3651
 -1      1749    8    0    1
 -2       828       932       920      3651      3652      3606
 -1      1750    8    0    1
 -2       843       884       926      3500      3653      3632
 -1      1751    8    0    1
 -2       884       839       933      3499      3654      3655
 -1      1752    8    0    1
 -2       839       864       933      3430      3656      3654
 -1      1753    8    0    1
 -2       830       921       934      3610      3657      3658
 -1      1754    8    0    1
 -2       836       885       860      3502      3659      3414
 -1      1755    8    0    1
 -2       648       823       611      3503      3294      3450
 -1      1756    8    0    1
 -2       808       906       924      3570      3660      3661
 -1      1757    8    0    1
 -2       791       790       935      3198      3662      3663
 -1      1758    8    0    1
 -2       866       791       935      3441      3663      3664
 -1      1759    8    0    1
 -2       790       897       935      3537      3665      3662
 -1      1760    8    0    1
 -2       854       706       861      3391      3418      3666
 -1      1761    8    0    1
 -2       837       852       936      3381      3667      3668
 -1      1762    8    0    1
 -2       837       936       921      3668      3669      3609
 -1      1763    8    0    1
 -2       853       794       937      3382      3670      3671
 -1      1764    8    0    1
 -2       794       925       937      3624      3672      3670
 -1      1765    8    0    1
 -2       923       744       846      3617      3360      3673
 -1      1766    8    0    1
 -2       795       899       938      3545      3674      3675
 -1      1767    8    0    1
 -2       795       938       833      3675      3676      3323
 -1      1768    8    0    1
 -2       804       860       905      3565      3677      3561
 -1      1769    8    0    1
 -2       852       719       853      3379      3384      3678
 -1      1770    8    0    1
 -2       917       826       851      3598      3644      3679
 -1      1771    8    0    1
 -2       846       820       939      3361      3680      3681
 -1      1772    8    0    1
 -2       793       833       940      3322      3682      3683
 -1      1773    8    0    1
 -2       925       793       940      3623      3683      3684
 -1      1774    8    0    1
 -2       833       938       940      3676      3685      3682
 -1      1775    8    0    1
 -2       825       915       885      3595      3686      3501
 -1      1776    8    0    1
 -2       914       819       941      3591      3687      3688
 -1      1777    8    0    1
 -2       819       854       941      3390      3689      3687
 -1      1778    8    0    1
 -2       915       824       942      3594      3690      3691
 -1      1779    8    0    1
 -2       824       859       942      3410      3692      3690
 -1      1780    8    0    1
 -2       916       792       943      3596      3693      3694
 -1      1781    8    0    1
 -2       792       831       943      3314      3695      3693
 -1      1782    8    0    1
 -2       848       855       944      3394      3696      3697
 -1      1783    8    0    1
 -2       820       847       945      3364      3698      3699
 -1      1784    8    0    1
 -2       820       945       939      3699      3700      3680
 -1      1785    8    0    1
 -2       822       916       946      3597      3701      3702
 -1      1786    8    0    1
 -2       822       946       856      3702      3703      3401
 -1      1787    8    0    1
 -2       867       830       934      3445      3658      3704
 -1      1788    8    0    1
 -2       810       918       919      3601      3705      3603
 -1      1789    8    0    1
 -2       838       868       947      3453      3706      3707
 -1      1790    8    0    1
 -2       838       947       859      3707      3708      3411
 -1      1791    8    0    1
 -2       858       832       924      3627      3709      3620
 -1      1792    8    0    1
 -2       848       944       941      3697      3710      3711
 -1      1793    8    0    1
 -2       863       756       948      3428      3712      3713
 -1      1794    8    0    1
 -2       886       778       926      3504      3631      3714
 -1      1795    8    0    1
 -2       917       851       949      3679      3715      3716
 -1      1796    8    0    1
 -2       851       862       949      3422      3717      3715
 -1      1797    8    0    1
 -2       821       866       935      3440      3664      3718
 -1      1798    8    0    1
 -2       808       924       832      3661      3709      3319
 -1      1799    8    0    1
 -2       928       757       927      3636      3634      3719
 -1      1800    8    0    1
 -2       821       935       930      3718      3720      3645
 -1      1801    8    0    1
 -2       870       869       950      3459      3721      3722
 -1      1802    8    0    1
 -2       847       863       951      3427      3723      3724
 -1      1803    8    0    1
 -2       863       948       951      3713      3725      3723
 -1      1804    8    0    1
 -2       831       930       943      3646      3726      3695
 -1      1805    8    0    1
 -2       871       870       952      3462      3727      3728
 -1      1806    8    0    1
 -2       870       950       952      3722      3729      3727
 -1      1807    8    0    1
 -2       872       871       953      3465      3730      3731
 -1      1808    8    0    1
 -2       871       952       953      3728      3732      3730
 -1      1809    8    0    1
 -2       873       872       954      3468      3733      3734
 -1      1810    8    0    1
 -2       872       953       954      3731      3735      3733
 -1      1811    8    0    1
 -2       874       873       955      3471      3736      3737
 -1      1812    8    0    1
 -2       873       954       955      3734      3738      3736
 -1      1813    8    0    1
 -2       875       874       956      3474      3739      3740
 -1      1814    8    0    1
 -2       874       955       956      3737      3741      3739
 -1      1815    8    0    1
 -2       876       875       957      3477      3742      3743
 -1      1816    8    0    1
 -2       875       956       957      3740      3744      3742
 -1      1817    8    0    1
 -2       877       876       958      3480      3745      3746
 -1      1818    8    0    1
 -2       876       957       958      3743      3747      3745
 -1      1819    8    0    1
 -2       878       877       959      3483      3748      3749
 -1      1820    8    0    1
 -2       877       958       959      3746      3750      3748
 -1      1821    8    0    1
 -2       879       878       960      3486      3751      3752
 -1      1822    8    0    1
 -2       878       959       960      3749      3753      3751
 -1      1823    8    0    1
 -2       880       879       961      3489      3754      3755
 -1      1824    8    0    1
 -2       879       960       961      3752      3756      3754
 -1      1825    8    0    1
 -2       881       880       962      3492      3757      3758
 -1      1826    8    0    1
 -2       880       961       962      3755      3759      3757
 -1      1827    8    0    1
 -2       882       881       963      3495      3760      3761
 -1      1828    8    0    1
 -2       881       962       963      3758      3762      3760
 -1      1829    8    0    1
 -2       883       882       964      3498      3763      3764
 -1      1830    8    0    1
 -2       929       883       964      3642      3764      3765
 -1      1831    8    0    1
 -2       882       963       964      3761      3766      3763
 -1      1832    8    0    1
 -2       934       921       965      3657      3767      3768
 -1      1833    8    0    1
 -2       860       885       905      3659      3769      3677
 -1      1834    8    0    1
 -2       935       897       930      3665      3770      3720
 -1      1835    8    0    1
 -2       902       903       966      3557      3771      3772
 -1      1836    8    0    1
 -2       927       917       949      3635      3716      3773
 -1      1837    8    0    1
 -2       888       887       967      3511      3774      3775
 -1      1838    8    0    1
 -2       889       888       968      3514      3776      3777
 -1      1839    8    0    1
 -2       888       967       968      3775      3778      3776
 -1      1840    8    0    1
 -2       890       889       969      3517      3779      3780
 -1      1841    8    0    1
 -2       889       968       969      3777      3781      3779
 -1      1842    8    0    1
 -2       891       890       970      3520      3782      3783
 -1      1843    8    0    1
 -2       890       969       970      3780      3784      3782
 -1      1844    8    0    1
 -2       892       891       971      3523      3785      3786
 -1      1845    8    0    1
 -2       891       970       971      3783      3787      3785
 -1      1846    8    0    1
 -2       893       892       972      3526      3788      3789
 -1      1847    8    0    1
 -2       892       971       972      3786      3790      3788
 -1      1848    8    0    1
 -2       894       893       973      3529      3791      3792
 -1      1849    8    0    1
 -2       893       972       973      3789      3793      3791
 -1      1850    8    0    1
 -2       895       894       974      3532      3794      3795
 -1      1851    8    0    1
 -2       894       973       974      3792      3796      3794
 -1      1852    8    0    1
 -2       896       895       975      3535      3797      3798
 -1      1853    8    0    1
 -2       895       974       975      3795      3799      3797
 -1      1854    8    0    1
 -2       897       896       976      3538      3800      3801
 -1      1855    8    0    1
 -2       896       975       976      3798      3802      3800
 -1      1856    8    0    1
 -2       901       902       977      3554      3803      3804
 -1      1857    8    0    1
 -2       902       966       977      3772      3805      3803
 -1      1858    8    0    1
 -2       900       901       978      3551      3806      3807
 -1      1859    8    0    1
 -2       901       977       978      3804      3808      3806
 -1      1860    8    0    1
 -2       903       904       979      3560      3809      3810
 -1      1861    8    0    1
 -2       903       979       966      3810      3811      3771
 -1      1862    8    0    1
 -2       904       905       980      3563      3812      3813
 -1      1863    8    0    1
 -2       979       904       980      3809      3813      3814
 -1      1864    8    0    1
 -2       905       885       980      3769      3815      3812
 -1      1865    8    0    1
 -2       852       853       981      3678      3816      3817
 -1      1866    8    0    1
 -2       853       937       981      3671      3818      3816
 -1      1867    8    0    1
 -2       864       920       982      3643      3819      3820
 -1      1868    8    0    1
 -2       918       907       983      3602      3821      3822
 -1      1869    8    0    1
 -2       930       897       976      3770      3801      3823
 -1      1870    8    0    1
 -2       909       910       984      3581      3824      3825
 -1      1871    8    0    1
 -2       846       939       985      3681      3826      3827
 -1      1872    8    0    1
 -2       846       985       923      3827      3828      3673
 -1      1873    8    0    1
 -2       862       923       986      3619      3829      3830
 -1      1874    8    0    1
 -2       949       862       986      3717      3830      3831
 -1      1875    8    0    1
 -2       923       985       986      3828      3832      3829
 -1      1876    8    0    1
 -2       906       919       987      3605      3833      3834
 -1      1877    8    0    1
 -2       907       908       988      3575      3835      3836
 -1      1878    8    0    1
 -2       907       988       983      3836      3837      3821
 -1      1879    8    0    1
 -2       910       911       989      3584      3838      3839
 -1      1880    8    0    1
 -2       910       989       984      3839      3840      3824
 -1      1881    8    0    1
 -2       911       912       990      3587      3841      3842
 -1      1882    8    0    1
 -2       911       990       989      3842      3843      3838
 -1      1883    8    0    1
 -2       912       913       991      3590      3844      3845
 -1      1884    8    0    1
 -2       912       991       990      3845      3846      3841
 -1      1885    8    0    1
 -2       913       914       992      3593      3847      3848
 -1      1886    8    0    1
 -2       913       992       991      3848      3849      3844
 -1      1887    8    0    1
 -2       944       855       993      3696      3850      3851
 -1      1888    8    0    1
 -2       855       856       993      3400      3852      3850
 -1      1889    8    0    1
 -2       869       928       994      3638      3853      3854
 -1      1890    8    0    1
 -2       869       994       950      3854      3855      3721
 -1      1891    8    0    1
 -2       867       934       948      3704      3856      3857
 -1      1892    8    0    1
 -2       924       906       995      3660      3858      3859
 -1      1893    8    0    1
 -2       857       924       995      3622      3859      3860
 -1      1894    8    0    1
 -2       906       987       995      3834      3861      3858
 -1      1895    8    0    1
 -2       926       884       886      3653      3862      3714
 -1      1896    8    0    1
 -2       948       756       867      3712      3863      3857
 -1      1897    8    0    1
 -2       914       941       996      3688      3864      3865
 -1      1898    8    0    1
 -2       992       914       996      3847      3865      3866
 -1      1899    8    0    1
 -2       941       944       996      3710      3867      3864
 -1      1900    8    0    1
 -2       899       898       997      3546      3868      3869
 -1      1901    8    0    1
 -2       861       848       941      3419      3711      3870
 -1      1902    8    0    1
 -2       886       884       998      3862      3871      3872
 -1      1903    8    0    1
 -2       887       886       998      3508      3872      3873
 -1      1904    8    0    1
 -2       884       933       998      3655      3874      3871
 -1      1905    8    0    1
 -2       948       934       999      3856      3875      3876
 -1      1906    8    0    1
 -2       951       948       999      3725      3876      3877
 -1      1907    8    0    1
 -2       934       965       999      3768      3878      3875
 -1      1908    8    0    1
 -2       867       756       835      3863      3330      3444
 -1      1909    8    0    1
 -2       928       927      1000      3719      3879      3880
 -1      1910    8    0    1
 -2       928      1000       994      3880      3881      3853
 -1      1911    8    0    1
 -2       885       915       980      3686      3882      3815
 -1      1912    8    0    1
 -2       908       909      1001      3578      3883      3884
 -1      1913    8    0    1
 -2       909       984      1001      3825      3885      3883
 -1      1914    8    0    1
 -2       919       918      1002      3705      3886      3887
 -1      1915    8    0    1
 -2       918       983      1002      3822      3888      3886
 -1      1916    8    0    1
 -2       931       857       995      3649      3860      3889
 -1      1917    8    0    1
 -2       847       951       945      3724      3890      3698
 -1      1918    8    0    1
 -2       849       931      1003      3648      3891      3892
 -1      1919    8    0    1
 -2       849      1003       932      3892      3893      3650
 -1      1920    8    0    1
 -2       868       929      1004      3641      3894      3895
 -1      1921    8    0    1
 -2       947       868      1004      3706      3895      3896
 -1      1922    8    0    1
 -2       929       964      1004      3765      3897      3894
 -1      1923    8    0    1
 -2       933       864       982      3656      3820      3898
 -1      1924    8    0    1
 -2       985       939      1005      3826      3899      3900
 -1      1925    8    0    1
 -2       852       981       936      3817      3901      3667
 -1      1926    8    0    1
 -2       927       949      1000      3773      3902      3879
 -1      1927    8    0    1
 -2       690       669       841      3612      3348      3377
 -1      1928    8    0    1
 -2       967       887       998      3774      3873      3903
 -1      1929    8    0    1
 -2       854       861       941      3666      3870      3689
 -1      1930    8    0    1
 -2       919      1002       987      3887      3904      3833
 -1      1931    8    0    1
 -2       937       925      1006      3672      3905      3906
 -1      1932    8    0    1
 -2       938       899      1007      3674      3907      3908
 -1      1933    8    0    1
 -2       899       997      1007      3869      3909      3907
 -1      1934    8    0    1
 -2       908      1001       988      3884      3910      3835
 -1      1935    8    0    1
 -2       982       920      1008      3819      3911      3912
 -1      1936    8    0    1
 -2       920       932      1008      3652      3913      3911
 -1      1937    8    0    1
 -2       930       976       943      3823      3914      3726
 -1      1938    8    0    1
 -2       856       946       993      3703      3915      3852
 -1      1939    8    0    1
 -2       925       940      1009      3684      3916      3917
 -1      1940    8    0    1
 -2       925      1009      1006      3917      3918      3905
 -1      1941    8    0    1
 -2       944       993      1010      3851      3919      3920
 -1      1942    8    0    1
 -2       944      1010       996      3920      3921      3867
 -1      1943    8    0    1
 -2       997       898      1011      3868      3922      3923
 -1      1944    8    0    1
 -2       898       922      1011      3615      3924      3922
 -1      1945    8    0    1
 -2       942       859      1012      3692      3925      3926
 -1      1946    8    0    1
 -2       859       947      1012      3708      3927      3925
 -1      1947    8    0    1
 -2       980       915      1013      3882      3928      3929
 -1      1948    8    0    1
 -2       979       980      1013      3814      3929      3930
 -1      1949    8    0    1
 -2       915       942      1013      3691      3931      3928
 -1      1950    8    0    1
 -2       939       945      1014      3700      3932      3933
 -1      1951    8    0    1
 -2       939      1014      1005      3933      3934      3899
 -1      1952    8    0    1
 -2       946       916      1015      3701      3935      3936
 -1      1953    8    0    1
 -2       916       943      1016      3694      3937      3938
 -1      1954    8    0    1
 -2       916      1016      1015      3938      3939      3935
 -1      1955    8    0    1
 -2       922       900      1017      3616      3940      3941
 -1      1956    8    0    1
 -2       922      1017      1011      3941      3942      3924
 -1      1957    8    0    1
 -2       921       936      1018      3669      3943      3944
 -1      1958    8    0    1
 -2       921      1018       965      3944      3945      3767
 -1      1959    8    0    1
 -2       900       978      1017      3807      3946      3940
 -1      1960    8    0    1
 -2       967       998      1019      3903      3947      3948
 -1      1961    8    0    1
 -2       998       933      1019      3874      3949      3947
 -1      1962    8    0    1
 -2       995       987      1020      3861      3950      3951
 -1      1963    8    0    1
 -2       995      1020       931      3951      3952      3889
 -1      1964    8    0    1
 -2       952       950      1021      3729      3953      3954
 -1      1965    8    0    1
 -2       953       952      1022      3732      3955      3956
 -1      1966    8    0    1
 -2       952      1021      1022      3954      3957      3955
 -1      1967    8    0    1
 -2       954       953      1023      3735      3958      3959
 -1      1968    8    0    1
 -2       953      1022      1023      3956      3960      3958
 -1      1969    8    0    1
 -2       955       954      1024      3738      3961      3962
 -1      1970    8    0    1
 -2       954      1023      1024      3959      3963      3961
 -1      1971    8    0    1
 -2       956       955      1025      3741      3964      3965
 -1      1972    8    0    1
 -2       955      1024      1025      3962      3966      3964
 -1      1973    8    0    1
 -2       957       956      1026      3744      3967      3968
 -1      1974    8    0    1
 -2       956      1025      1026      3965      3969      3967
 -1      1975    8    0    1
 -2       958       957      1027      3747      3970      3971
 -1      1976    8    0    1
 -2       957      1026      1027      3968      3972      3970
 -1      1977    8    0    1
 -2       959       958      1028      3750      3973      3974
 -1      1978    8    0    1
 -2       958      1027      1028      3971      3975      3973
 -1      1979    8    0    1
 -2       960       959      1029      3753      3976      3977
 -1      1980    8    0    1
 -2       959      1028      1029      3974      3978      3976
 -1      1981    8    0    1
 -2       961       960      1030      3756      3979      3980
 -1      1982    8    0    1
 -2       960      1029      1030      3977      3981      3979
 -1      1983    8    0    1
 -2       962       961      1031      3759      3982      3983
 -1      1984    8    0    1
 -2       961      1030      1031      3980      3984      3982
 -1      1985    8    0    1
 -2       963       962      1032      3762      3985      3986
 -1      1986    8    0    1
 -2       962      1031      1032      3983      3987      3985
 -1      1987    8    0    1
 -2       936       981      1033      3901      3988      3989
 -1      1988    8    0    1
 -2       936      1033      1018      3989      3990      3943
 -1      1989    8    0    1
 -2       968       967      1034      3778      3991      3992
 -1      1990    8    0    1
 -2       967      1019      1034      3948      3993      3991
 -1      1991    8    0    1
 -2       994      1000      1035      3881      3994      3995
 -1      1992    8    0    1
 -2       969       968      1036      3781      3996      3997
 -1      1993    8    0    1
 -2       968      1034      1036      3992      3998      3996
 -1      1994    8    0    1
 -2       970       969      1037      3784      3999      4000
 -1      1995    8    0    1
 -2       969      1036      1037      3997      4001      3999
 -1      1996    8    0    1
 -2       971       970      1038      3787      4002      4003
 -1      1997    8    0    1
 -2       970      1037      1038      4000      4004      4002
 -1      1998    8    0    1
 -2       972       971      1039      3790      4005      4006
 -1      1999    8    0    1
 -2       971      1038      1039      4003      4007      4005
 -1      2000    8    0    1
 -2       973       972      1040      3793      4008      4009
 -1      2001    8    0    1
 -2       972      1039      1040      4006      4010      4008
 -1      2002    8    0    1
 -2       974       973      1041      3796      4011      4012
 -1      2003    8    0    1
 -2       973      1040      1041      4009      4013      4011
 -1      2004    8    0    1
 -2       975       974      1042      3799      4014      4015
 -1      2005    8    0    1
 -2       974      1041      1042      4012      4016      4014
 -1      2006    8    0    1
 -2       976       975      1043      3802      4017      4018
 -1      2007    8    0    1
 -2       975      1042      1043      4015      4019      4017
 -1      2008    8    0    1
 -2       977       966      1044      3805      4020      4021
 -1      2009    8    0    1
 -2      1000       949      1045      3902      4022      4023
 -1      2010    8    0    1
 -2      1035      1000      1045      3994      4023      4024
 -1      2011    8    0    1
 -2       949       986      1045      3831      4025      4022
 -1      2012    8    0    1
 -2       978       977      1046      3808      4026      4027
 -1      2013    8    0    1
 -2       977      1044      1046      4021      4028      4026
 -1      2014    8    0    1
 -2       981       937      1047      3818      4029      4030
 -1      2015    8    0    1
 -2      1033       981      1047      3988      4030      4031
 -1      2016    8    0    1
 -2       937      1006      1047      3906      4032      4029
 -1      2017    8    0    1
 -2       984       989      1048      3840      4033      4034
 -1      2018    8    0    1
 -2       940       938      1049      3685      4035      4036
 -1      2019    8    0    1
 -2      1009       940      1049      3916      4036      4037
 -1      2020    8    0    1
 -2       938      1007      1049      3908      4038      4035
 -1      2021    8    0    1
 -2       989       990      1050      3843      4039      4040
 -1      2022    8    0    1
 -2       989      1050      1048      4040      4041      4033
 -1      2023    8    0    1
 -2       983       988      1051      3837      4042      4043
 -1      2024    8    0    1
 -2       990       991      1052      3846      4044      4045
 -1      2025    8    0    1
 -2       990      1052      1050      4045      4046      4039
 -1      2026    8    0    1
 -2       991       992      1053      3849      4047      4048
 -1      2027    8    0    1
 -2       991      1053      1052      4048      4049      4044
 -1      2028    8    0    1
 -2       987      1002      1054      3904      4050      4051
 -1      2029    8    0    1
 -2       933       982      1019      3898      4052      3949
 -1      2030    8    0    1
 -2       945       951      1055      3890      4053      4054
 -1      2031    8    0    1
 -2      1014       945      1055      3932      4054      4055
 -1      2032    8    0    1
 -2       951       999      1055      3877      4056      4053
 -1      2033    8    0    1
 -2       950       994      1056      3855      4057      4058
 -1      2034    8    0    1
 -2       950      1056      1021      4058      4059      3953
 -1      2035    8    0    1
 -2       988      1001      1057      3910      4060      4061
 -1      2036    8    0    1
 -2       988      1057      1051      4061      4062      4042
 -1      2037    8    0    1
 -2       993       946      1058      3915      4063      4064
 -1      2038    8    0    1
 -2      1010       993      1058      3919      4064      4065
 -1      2039    8    0    1
 -2       946      1015      1058      3936      4066      4063
 -1      2040    8    0    1
 -2      1017       978      1059      3946      4067      4068
 -1      2041    8    0    1
 -2       978      1046      1059      4027      4069      4067
 -1      2042    8    0    1
 -2       992       996      1060      3866      4070      4071
 -1      2043    8    0    1
 -2      1053       992      1060      4047      4071      4072
 -1      2044    8    0    1
 -2       996      1010      1060      3921      4073      4070
 -1      2045    8    0    1
 -2      1001       984      1061      3885      4074      4075
 -1      2046    8    0    1
 -2       984      1048      1061      4034      4076      4074
 -1      2047    8    0    1
 -2       966       979      1062      3811      4077      4078
 -1      2048    8    0    1
 -2       966      1062      1044      4078      4079      4020
 -1      2049    8    0    1
 -2      1002       983      1063      3888      4080      4081
 -1      2050    8    0    1
 -2       983      1051      1063      4043      4082      4080
 -1      2051    8    0    1
 -2      1003       931      1020      3891      3952      4083
 -1      2052    8    0    1
 -2      1020       987      1054      3950      4051      4084
 -1      2053    8    0    1
 -2       947      1004      1064      3896      4085      4086
 -1      2054    8    0    1
 -2      1017      1059      1065      4068      4087      4088
 -1      2055    8    0    1
 -2      1017      1065      1011      4088      4089      3942
 -1      2056    8    0    1
 -2      1056       994      1035      4057      3995      4090
 -1      2057    8    0    1
 -2       999       965      1055      3878      4091      4056
 -1      2058    8    0    1
 -2      1001      1061      1057      4075      4092      4060
 -1      2059    8    0    1
 -2      1002      1063      1054      4081      4093      4050
 -1      2060    8    0    1
 -2      1047      1006      1066      4032      4094      4095
 -1      2061    8    0    1
 -2      1008       932      1067      3913      4096      4097
 -1      2062    8    0    1
 -2       932      1003      1067      3893      4098      4096
 -1      2063    8    0    1
 -2       947      1064      1012      4086      4099      3927
 -1      2064    8    0    1
 -2       986       985      1045      3832      4100      4025
 -1      2065    8    0    1
 -2       982      1008      1068      3912      4101      4102
 -1      2066    8    0    1
 -2       965      1018      1069      3945      4103      4104
 -1      2067    8    0    1
 -2       965      1069      1055      4104      4105      4091
 -1      2068    8    0    1
 -2      1045       985      1005      4100      3900      4106
 -1      2069    8    0    1
 -2      1006      1009      1070      3918      4107      4108
 -1      2070    8    0    1
 -2      1006      1070      1066      4108      4109      4094
 -1      2071    8    0    1
 -2      1019       982      1068      4052      4102      4110
 -1      2072    8    0    1
 -2      1015      1016      1071      3939      4111      4112
 -1      2073    8    0    1
 -2       943       976      1016      3914      4113      3937
 -1      2074    8    0    1
 -2       979      1013      1062      3930      4114      4077
 -1      2075    8    0    1
 -2       997      1011      1072      3923      4115      4116
 -1      2076    8    0    1
 -2      1011      1065      1072      4089      4117      4115
 -1      2077    8    0    1
 -2      1007       997      1073      3909      4118      4119
 -1      2078    8    0    1
 -2       997      1072      1073      4116      4120      4118
 -1      2079    8    0    1
 -2      1058      1015      1074      4066      4121      4122
 -1      2080    8    0    1
 -2      1015      1071      1074      4112      4123      4121
 -1      2081    8    0    1
 -2      1045      1005      1075      4106      4124      4125
 -1      2082    8    0    1
 -2      1045      1075      1035      4125      4126      4024
 -1      2083    8    0    1
 -2       976      1043      1016      4018      4127      4113
 -1      2084    8    0    1
 -2      1005      1014      1075      3934      4128      4124
 -1      2085    8    0    1
 -2      1051      1057      1076      4062      4129      4130
 -1      2086    8    0    1
 -2       963      1032      1004      3986      4131      4132
 -1      2087    8    0    1
 -2      1023      1022      1077      3960      4133      4134
 -1      2088    8    0    1
 -2      1024      1023      1078      3963      4135      4136
 -1      2089    8    0    1
 -2      1023      1077      1078      4134      4137      4135
 -1      2090    8    0    1
 -2      1025      1024      1079      3966      4138      4139
 -1      2091    8    0    1
 -2      1024      1078      1079      4136      4140      4138
 -1      2092    8    0    1
 -2      1026      1025      1080      3969      4141      4142
 -1      2093    8    0    1
 -2      1025      1079      1080      4139      4143      4141
 -1      2094    8    0    1
 -2      1027      1026      1081      3972      4144      4145
 -1      2095    8    0    1
 -2      1026      1080      1081      4142      4146      4144
 -1      2096    8    0    1
 -2      1028      1027      1082      3975      4147      4148
 -1      2097    8    0    1
 -2      1027      1081      1082      4145      4149      4147
 -1      2098    8    0    1
 -2      1029      1028      1083      3978      4150      4151
 -1      2099    8    0    1
 -2      1028      1082      1083      4148      4152      4150
 -1      2100    8    0    1
 -2      1030      1029      1084      3981      4153      4154
 -1      2101    8    0    1
 -2      1029      1083      1084      4151      4155      4153
 -1      2102    8    0    1
 -2      1031      1030      1085      3984      4156      4157
 -1      2103    8    0    1
 -2      1030      1084      1085      4154      4158      4156
 -1      2104    8    0    1
 -2      1032      1031      1086      3987      4159      4160
 -1      2105    8    0    1
 -2      1031      1085      1086      4157      4161      4159
 -1      2106    8    0    1
 -2      1003      1020      1087      4083      4162      4163
 -1      2107    8    0    1
 -2      1067      1003      1087      4098      4163      4164
 -1      2108    8    0    1
 -2      1020      1054      1087      4084      4165      4162
 -1      2109    8    0    1
 -2       964       963      1004      3766      4132      3897
 -1      2110    8    0    1
 -2      1034      1019      1068      3993      4110      4166
 -1      2111    8    0    1
 -2      1046      1044      1088      4028      4167      4168
 -1      2112    8    0    1
 -2      1033      1047      1089      4031      4169      4170
 -1      2113    8    0    1
 -2      1047      1066      1089      4095      4171      4169
 -1      2114    8    0    1
 -2      1037      1036      1090      4001      4172      4173
 -1      2115    8    0    1
 -2      1038      1037      1091      4004      4174      4175
 -1      2116    8    0    1
 -2      1037      1090      1091      4173      4176      4174
 -1      2117    8    0    1
 -2      1039      1038      1092      4007      4177      4178
 -1      2118    8    0    1
 -2      1038      1091      1092      4175      4179      4177
 -1      2119    8    0    1
 -2      1040      1039      1093      4010      4180      4181
 -1      2120    8    0    1
 -2      1039      1092      1093      4178      4182      4180
 -1      2121    8    0    1
 -2      1041      1040      1094      4013      4183      4184
 -1      2122    8    0    1
 -2      1040      1093      1094      4181      4185      4183
 -1      2123    8    0    1
 -2      1042      1041      1095      4016      4186      4187
 -1      2124    8    0    1
 -2      1041      1094      1095      4184      4188      4186
 -1      2125    8    0    1
 -2      1016      1043      1071      4127      4189      4111
 -1      2126    8    0    1
 -2      1048      1050      1096      4041      4190      4191
 -1      2127    8    0    1
 -2      1035      1075      1097      4126      4192      4193
 -1      2128    8    0    1
 -2      1035      1097      1056      4193      4194      4090
 -1      2129    8    0    1
 -2      1018      1033      1098      3990      4195      4196
 -1      2130    8    0    1
 -2      1069      1018      1098      4103      4196      4197
 -1      2131    8    0    1
 -2      1033      1089      1098      4170      4198      4195
 -1      2132    8    0    1
 -2      1036      1034      1099      3998      4199      4200
 -1      2133    8    0    1
 -2      1090      1036      1099      4172      4200      4201
 -1      2134    8    0    1
 -2      1034      1068      1099      4166      4202      4199
 -1      2135    8    0    1
 -2      1052      1053      1100      4049      4203      4204
 -1      2136    8    0    1
 -2      1010      1058      1101      4065      4205      4206
 -1      2137    8    0    1
 -2      1060      1010      1101      4073      4206      4207
 -1      2138    8    0    1
 -2      1058      1074      1101      4122      4208      4205
 -1      2139    8    0    1
 -2      1059      1046      1102      4069      4209      4210
 -1      2140    8    0    1
 -2      1046      1088      1102      4168      4211      4209
 -1      2141    8    0    1
 -2      1068      1008      1103      4101      4212      4213
 -1      2142    8    0    1
 -2      1008      1067      1103      4097      4214      4212
 -1      2143    8    0    1
 -2      1050      1052      1104      4046      4215      4216
 -1      2144    8    0    1
 -2      1096      1050      1104      4190      4216      4217
 -1      2145    8    0    1
 -2      1052      1100      1104      4204      4218      4215
 -1      2146    8    0    1
 -2      1061      1048      1105      4076      4219      4220
 -1      2147    8    0    1
 -2      1048      1096      1105      4191      4221      4219
 -1      2148    8    0    1
 -2      1071      1043      1042      4189      4019      4222
 -1      2149    8    0    1
 -2      1071      1042      1095      4222      4187      4223
 -1      2150    8    0    1
 -2      1013       942      1106      3931      4224      4225
 -1      2151    8    0    1
 -2      1057      1061      1107      4092      4226      4227
 -1      2152    8    0    1
 -2      1057      1107      1076      4227      4228      4129
 -1      2153    8    0    1
 -2      1062      1013      1106      4114      4225      4229
 -1      2154    8    0    1
 -2      1075      1014      1108      4128      4230      4231
 -1      2155    8    0    1
 -2      1054      1063      1109      4093      4232      4233
 -1      2156    8    0    1
 -2      1054      1109      1087      4233      4234      4165
 -1      2157    8    0    1
 -2      1022      1021      1110      3957      4235      4236
 -1      2158    8    0    1
 -2      1022      1110      1077      4236      4237      4133
 -1      2159    8    0    1
 -2       942      1012      1106      3926      4238      4224
 -1      2160    8    0    1
 -2      1044      1062      1111      4079      4239      4240
 -1      2161    8    0    1
 -2      1044      1111      1088      4240      4241      4167
 -1      2162    8    0    1
 -2      1021      1056      1112      4059      4242      4243
 -1      2163    8    0    1
 -2      1110      1021      1112      4235      4243      4244
 -1      2164    8    0    1
 -2      1056      1097      1112      4194      4245      4242
 -1      2165    8    0    1
 -2      1063      1051      1113      4082      4246      4247
 -1      2166    8    0    1
 -2      1051      1076      1113      4130      4248      4246
 -1      2167    8    0    1
 -2      1062      1106      1111      4229      4249      4239
 -1      2168    8    0    1
 -2      1014      1055      1069      4055      4105      4250
 -1      2169    8    0    1
 -2      1106      1012      1114      4238      4251      4252
 -1      2170    8    0    1
 -2      1111      1106      1114      4249      4252      4253
 -1      2171    8    0    1
 -2      1012      1064      1114      4099      4254      4251
 -1      2172    8    0    1
 -2      1065      1059      1115      4087      4255      4256
 -1      2173    8    0    1
 -2      1059      1102      1115      4210      4257      4255
 -1      2174    8    0    1
 -2      1064      1004      1032      4085      4131      4258
 -1      2175    8    0    1
 -2      1061      1105      1107      4220      4259      4226
 -1      2176    8    0    1
 -2      1007      1073      1116      4119      4260      4261
 -1      2177    8    0    1
 -2      1007      1116      1049      4261      4262      4038
 -1      2178    8    0    1
 -2      1089      1066      1117      4171      4263      4264
 -1      2179    8    0    1
 -2      1032      1086      1064      4160      4265      4258
 -1      2180    8    0    1
 -2      1075      1108      1097      4231      4266      4192
 -1      2181    8    0    1
 -2      1071      1095      1118      4223      4267      4268
 -1      2182    8    0    1
 -2      1071      1118      1074      4268      4269      4123
 -1      2183    8    0    1
 -2      1068      1103      1099      4213      4270      4202
 -1      2184    8    0    1
 -2      1063      1113      1109      4247      4271      4232
 -1      2185    8    0    1
 -2      1009      1049      1119      4037      4272      4273
 -1      2186    8    0    1
 -2      1070      1009      1119      4107      4273      4274
 -1      2187    8    0    1
 -2      1049      1116      1119      4262      4275      4272
 -1      2188    8    0    1
 -2      1053      1060      1101      4072      4207      4276
 -1      2189    8    0    1
 -2      1108      1014      1069      4230      4250      4277
 -1      2190    8    0    1
 -2      1072      1065      1120      4117      4278      4279
 -1      2191    8    0    1
 -2      1065      1115      1120      4256      4280      4278
 -1      2192    8    0    1
 -2      1073      1072      1121      4120      4281      4282
 -1      2193    8    0    1
 -2      1072      1120      1121      4279      4283      4281
 -1      2194    8    0    1
 -2      1066      1070      1122      4109      4284      4285
 -1      2195    8    0    1
 -2      1066      1122      1117      4285      4286      4263
 -1      2196    8    0    1
 -2      1114      1064      1086      4254      4265      4287
 -1      2197    8    0    1
 -2      1053      1101      1100      4276      4288      4203
 -1      2198    8    0    1
 -2      1114      1086      1123      4287      4289      4290
 -1      2199    8    0    1
 -2      1111      1114      1123      4253      4290      4291
 -1      2200    8    0    1
 -2      1086      1085      1123      4161      4292      4289
 -1      2201    8    0    1
 -2      1100      1101      1074      4288      4208      4293
 -1      2202    8    0    1
 -2      1067      1087      1124      4164      4294      4295
 -1      2203    8    0    1
 -2      1103      1067      1124      4214      4295      4296
 -1      2204    8    0    1
 -2      1087      1109      1124      4234      4297      4294
 -1      2205    8    0    1
 -2      1079      1078      1125      4140      4298      4299
 -1      2206    8    0    1
 -2      1080      1079      1126      4143      4300      4301
 -1      2207    8    0    1
 -2      1079      1125      1126      4299      4302      4300
 -1      2208    8    0    1
 -2      1081      1080      1121      4146      4303      4304
 -1      2209    8    0    1
 -2      1082      1081      1120      4149      4305      4306
 -1      2210    8    0    1
 -2      1083      1082      1115      4152      4307      4308
 -1      2211    8    0    1
 -2      1084      1083      1102      4155      4309      4310
 -1      2212    8    0    1
 -2      1085      1084      1088      4158      4311      4312
 -1      2213    8    0    1
 -2      1100      1074      1118      4293      4269      4313
 -1      2214    8    0    1
 -2      1077      1110      1122      4237      4314      4315
 -1      2215    8    0    1
 -2      1091      1090      1127      4176      4316      4317
 -1      2216    8    0    1
 -2      1090      1099      1128      4201      4318      4319
 -1      2217    8    0    1
 -2      1127      1090      1128      4316      4319      4320
 -1      2218    8    0    1
 -2      1099      1103      1128      4270      4321      4318
 -1      2219    8    0    1
 -2      1092      1091      1107      4179      4322      4323
 -1      2220    8    0    1
 -2      1093      1092      1105      4182      4324      4325
 -1      2221    8    0    1
 -2      1094      1093      1096      4185      4326      4327
 -1      2222    8    0    1
 -2      1095      1094      1118      4188      4328      4267
 -1      2223    8    0    1
 -2      1105      1096      1093      4221      4326      4325
 -1      2224    8    0    1
 -2      1108      1069      1098      4277      4197      4329
 -1      2225    8    0    1
 -2      1120      1081      1121      4305      4304      4283
 -1      2226    8    0    1
 -2      1078      1077      1129      4137      4330      4331
 -1      2227    8    0    1
 -2      1125      1078      1129      4298      4331      4332
 -1      2228    8    0    1
 -2      1077      1122      1129      4315      4333      4330
 -1      2229    8    0    1
 -2      1088      1084      1102      4311      4310      4211
 -1      2230    8    0    1
 -2      1113      1076      1127      4248      4334      4335
 -1      2231    8    0    1
 -2      1107      1105      1092      4259      4324      4323
 -1      2232    8    0    1
 -2      1097      1108      1130      4266      4336      4337
 -1      2233    8    0    1
 -2      1112      1097      1130      4245      4337      4338
 -1      2234    8    0    1
 -2      1108      1098      1130      4329      4339      4336
 -1      2235    8    0    1
 -2      1102      1083      1115      4309      4308      4257
 -1      2236    8    0    1
 -2      1082      1120      1115      4306      4280      4307
 -1      2237    8    0    1
 -2      1116      1073      1126      4260      4340      4341
 -1      2238    8    0    1
 -2      1080      1126      1121      4301      4342      4303
 -1      2239    8    0    1
 -2      1100      1118      1104      4313      4343      4218
 -1      2240    8    0    1
 -2      1122      1110      1117      4314      4344      4286
 -1      2241    8    0    1
 -2      1110      1112      1117      4244      4345      4344
 -1      2242    8    0    1
 -2      1094      1096      1118      4327      4346      4328
 -1      2243    8    0    1
 -2      1089      1117      1130      4264      4347      4348
 -1      2244    8    0    1
 -2      1098      1089      1130      4198      4348      4339
 -1      2245    8    0    1
 -2      1103      1124      1128      4296      4349      4321
 -1      2246    8    0    1
 -2      1109      1113      1128      4271      4350      4351
 -1      2247    8    0    1
 -2      1088      1111      1123      4241      4291      4352
 -1      2248    8    0    1
 -2      1076      1107      1127      4228      4353      4334
 -1      2249    8    0    1
 -2      1107      1091      1127      4322      4317      4353
 -1      2250    8    0    1
 -2      1126      1073      1121      4340      4282      4342
 -1      2251    8    0    1
 -2      1122      1070      1129      4284      4354      4333
 -1      2252    8    0    1
 -2      1117      1112      1130      4345      4338      4347
 -1      2253    8    0    1
 -2      1113      1127      1128      4335      4320      4350
 -1      2254    8    0    1
 -2      1129      1070      1119      4354      4274      4355
 -1      2255    8    0    1
 -2      1116      1126      1125      4341      4302      4356
 -1      2256    8    0    1
 -2      1124      1109      1128      4297      4351      4349
 -1      2257    8    0    1
 -2      1085      1088      1123      4312      4352      4292
 -1      2258    8    0    1
 -2      1119      1116      1125      4275      4356      4357
 -1      2259    8    0    1
 -2      1129      1119      1125      4355      4357      4332
 -1      2260    8    0    1
 -2      1096      1104      1118      4217      4343      4346
 -3
    1PSTEP                         1           1           1          
  100CL  101 1.000000000        4357                     0    1           1
 -4  DISP        4    1
 -5  D1          1    2    1    0
 -5  D2          1    2    2    0
 -5  D3          1    2    3    0
 -5  ALL         1    2    0    0    1ALL
 -1         1 8.30999E-03-7.76114E-04-2.26971E-14
 -1         2 1.05085E-02 7.29778E-05-2.62970E-14
 -1         3 1.52766E-02 9.39985E-04-6.45065E-14
 -1         4 1.51009E-02-4.64291E-04-6.55418E-14
 -1         5 0.00000E+00 0.00000E+00 0.00000E+00
 -1         6 0.00000E+00 0.00000E+00 0.00000E+00
 -1         7 0.00000E+00 0.00000E+00 0.00000E+00
 -1         8 0.00000E+00 0.00000E+00 0.00000E+00
 -1         9 0.00000E+00 0.00000E+00 0.00000E+00
 -1        10 0.00000E+00 0.00000E+00 0.00000E+00
 -1        11 0.00000E+00 0.00000E+00 0.00000E+00
 -1        12 0.00000E+00 0.00000E+00 0.00000E+00
 -1        13 0.00000E+00 0.00000E+00 0.00000E+00
 -1        14 0.00000E+00 0.00000E+00 0.00000E+00
 -1        15 0.00000E+00 0.00000E+00 0.00000E+00
 -1        16 0.00000E+00 0.00000E+00 0.00000E+00
 -1        17 0.00000E+00 0.00000E+00 0.00000E+00
 -1        18 0.00000E+00 0.00000E+00 0.00000E+00
 -1        19 0.00000E+00 0.00000E+00 0.00000E+00
 -1        20 0.00000E+00 0.00000E+00 0.00000E+00
 -1        21 0.00000E+00 0.00000E+00 0.00000E+00
 -1        22 0.00000E+00 0.00000E+00 0.00000E+00
 -1        23 4.10445E-04-2.60110E-04 1.63715E-17
 -1        24 7.01715E-04-3.99642E-04-4.21077E-17
 -1        25 9.71146E-04-4.96040E-04-1.73252E-16
 -1        26 1.23508E-03-5.63484E-04-3.75263E-16
 -1        27 1.49816E-03-6.11051E-04-6.46710E-16
 -1        28 1.76257E-03-6.44051E-04-9.85624E-16
 -1        29 2.02935E-03-6.66113E-04-1.39287E-15
 -1        30 2.29906E-03-6.79854E-04-1.86631E-15
 -1        31 2.57196E-03-6.87228E-04-2.40510E-15
 -1        32 2.84823E-03-6.89730E-04-3.00975E-15
 -1        33 3.12808E-03-6.88538E-04-3.67741E-15
 -1        34 3.41176E-03-6.84631E-04-4.40368E-15
 -1        35 3.69969E-03-6.78906E-04-5.19195E-15
 -1        36 3.99243E-03-6.72295E-04-6.03526E-15
 -1        37 4.29075E-03-6.65890E-04-6.93643E-15
 -1        38 4.59557E-03-6.61085E-04-7.89207E-15
 -1        39 4.90787E-03-6.59717E-04-8.90101E-15
 -1        40 5.22853E-03-6.64200E-04-9.95973E-15
 -1        41 5.55806E-03-6.77577E-04-1.10643E-14
 -1        42 5.89607E-03-7.03404E-04-1.22179E-14
 -1        43 6.24069E-03-7.45295E-04-1.34304E-14
 -1        44 6.58788E-03-8.05898E-04-1.47020E-14
 -1        45 6.93112E-03-8.85188E-04-1.60249E-14
 -1        46 7.26201E-03-9.78290E-04-1.74018E-14
 -1        47 7.57251E-03-1.07380E-03-1.88254E-14
 -1        48 7.85862E-03-1.15438E-03-2.02941E-14
 -1        49 8.12388E-03-1.20109E-03-2.18026E-14
 -1        50 8.37986E-03-1.20070E-03-2.33568E-14
 -1        51 8.64211E-03-1.15185E-03-2.49549E-14
 -1        52 8.92347E-03-1.06575E-03-2.66075E-14
 -1        53 9.22920E-03-9.60794E-04-2.83029E-14
 -1        54 9.55662E-03-8.55096E-04-3.00377E-14
 -1        55 9.89817E-03-7.61399E-04-3.18106E-14
 -1        56 1.02453E-02-6.85791E-04-3.36113E-14
 -1        57 1.05912E-02-6.29085E-04-3.54442E-14
 -1        58 1.09312E-02-5.89006E-04-3.73017E-14
 -1        59 1.12632E-02-5.62043E-04-3.91829E-14
 -1        60 1.15867E-02-5.44606E-04-4.11004E-14
 -1        61 1.19022E-02-5.33585E-04-4.30342E-14
 -1        62 1.22105E-02-5.26532E-04-4.49900E-14
 -1        63 1.25130E-02-5.21640E-04-4.69844E-14
 -1        64 1.28106E-02-5.17644E-04-4.89912E-14
 -1        65 1.31046E-02-5.13700E-04-5.10222E-14
 -1        66 1.33956E-02-5.09270E-04-5.30770E-14
 -1        67 1.36845E-02-5.04034E-04-5.51363E-14
 -1        68 1.39719E-02-4.97823E-04-5.72091E-14
 -1        69 1.42582E-02-4.90572E-04-5.92963E-14
 -1        70 1.45440E-02-4.82320E-04-6.13983E-14
 -1        71 1.48295E-02-4.73254E-04-6.35097E-14
 -1        72 4.12883E-04 2.60811E-04 3.81402E-17
 -1        73 7.01532E-04 4.02340E-04 1.74150E-17
 -1        74 9.71672E-04 4.97805E-04-6.20469E-17
 -1        75 1.23589E-03 5.65186E-04-2.03027E-16
 -1        76 1.49909E-03 6.12797E-04-4.07853E-16
 -1        77 1.76356E-03 6.45876E-04-6.77166E-16
 -1        78 2.03037E-03 6.68029E-04-1.00956E-15
 -1        79 2.30008E-03 6.81858E-04-1.40527E-15
 -1        80 2.57298E-03 6.89305E-04-1.86695E-15
 -1        81 2.84926E-03 6.91853E-04-2.39554E-15
 -1        82 3.12912E-03 6.90660E-04-2.99081E-15
 -1        83 3.41284E-03 6.86688E-04-3.64887E-15
 -1        84 3.70088E-03 6.80809E-04-4.37112E-15
 -1        85 3.99387E-03 6.73927E-04-5.15778E-15
 -1        86 4.29269E-03 6.67118E-04-6.01523E-15
 -1        87 4.59840E-03 6.61778E-04-6.94022E-15
 -1        88 4.91226E-03 6.59803E-04-7.93163E-15
 -1        89 5.23551E-03 6.63768E-04-8.98361E-15
 -1        90 5.56913E-03 6.77064E-04-1.00890E-14
 -1        91 5.91328E-03 7.03884E-04-1.12434E-14
 -1        92 6.26658E-03 7.48853E-04-1.24511E-14
 -1        93 6.62514E-03 8.15988E-04-1.37134E-14
 -1        94 6.98189E-03 9.06701E-04-1.50330E-14
 -1        95 7.32683E-03 1.01689E-03-1.64076E-14
 -1        96 7.64945E-03 1.13419E-03-1.78397E-14
 -1        97 7.94342E-03 1.23785E-03-1.93234E-14
 -1        98 8.21184E-03 1.30391E-03-2.08534E-14
 -1        99 8.46861E-03 1.31506E-03-2.24206E-14
 -1       100 8.73317E-03 1.26950E-03-2.40333E-14
 -1       101 9.02126E-03 1.18191E-03-2.56988E-14
 -1       102 9.33833E-03 1.07576E-03-2.74023E-14
 -1       103 9.67962E-03 9.73035E-04-2.91467E-14
 -1       104 1.00350E-02 8.87931E-04-3.09172E-14
 -1       105 1.03941E-02 8.26051E-04-3.27160E-14
 -1       106 1.07492E-02 7.86847E-04-3.45613E-14
 -1       107 1.10958E-02 7.66631E-04-3.64566E-14
 -1       108 1.14323E-02 7.60796E-04-3.84035E-14
 -1       109 1.17587E-02 7.65037E-04-4.03993E-14
 -1       110 1.20759E-02 7.75841E-04-4.24260E-14
 -1       111 1.23852E-02 7.90564E-04-4.44677E-14
 -1       112 1.26882E-02 8.07323E-04-4.65197E-14
 -1       113 1.29862E-02 8.24841E-04-4.85758E-14
 -1       114 1.32802E-02 8.42288E-04-5.06238E-14
 -1       115 1.35713E-02 8.59153E-04-5.26579E-14
 -1       116 1.38602E-02 8.75141E-04-5.46780E-14
 -1       117 1.41476E-02 8.90102E-04-5.66950E-14
 -1       118 1.44339E-02 9.03991E-04-5.87012E-14
 -1       119 1.47197E-02 9.16858E-04-6.06818E-14
 -1       120 1.50052E-02 9.28898E-04-6.26539E-14
 -1       121 1.52651E-02 8.55622E-04-6.45849E-14
 -1       122 1.52540E-02 7.71185E-04-6.46850E-14
 -1       123 1.52437E-02 6.86968E-04-6.47846E-14
 -1       124 1.52340E-02 6.03310E-04-6.48939E-14
 -1       125 1.52249E-02 5.20426E-04-6.49918E-14
 -1       126 1.52160E-02 4.39747E-04-6.50877E-14
 -1       127 1.52067E-02 3.58388E-04-6.51624E-14
 -1       128 1.51970E-02 2.77511E-04-6.52219E-14
 -1       129 1.51866E-02 1.96801E-04-6.52790E-14
 -1       130 1.51756E-02 1.15916E-04-6.53274E-14
 -1       131 1.51642E-02 3.45433E-05-6.53728E-14
 -1       132 1.51527E-02-4.61493E-05-6.54263E-14
 -1       133 1.51411E-02-1.29045E-04-6.54648E-14
 -1       134 1.51301E-02-2.12708E-04-6.54942E-14
 -1       135 1.51197E-02-2.96934E-04-6.55187E-14
 -1       136 1.51100E-02-3.81350E-04-6.55369E-14
 -1       137 1.04589E-02 2.51766E-04-2.61707E-14
 -1       138 1.03179E-02 4.13621E-04-2.58925E-14
 -1       139 1.00607E-02 5.77122E-04-2.54183E-14
 -1       140 9.76242E-03 7.00210E-04-2.48833E-14
 -1       141 9.33843E-03 8.14627E-04-2.41389E-14
 -1       142 8.93244E-03 8.78518E-04-2.34481E-14
 -1       143 8.47994E-03 9.08825E-04-2.26929E-14
 -1       144 8.02769E-03 8.99189E-04-2.19496E-14
 -1       145 7.57704E-03 8.49222E-04-2.12235E-14
 -1       146 7.17275E-03 7.65830E-04-2.05857E-14
 -1       147 6.81711E-03 6.52925E-04-2.00284E-14
 -1       148 6.51527E-03 5.11552E-04-1.95701E-14
 -1       149 6.29917E-03 3.55199E-04-1.92551E-14
 -1       150 6.16945E-03 1.81989E-04-1.90839E-14
 -1       151 6.14028E-03 1.72986E-05-1.90689E-14
 -1       152 6.20890E-03-1.57346E-04-1.92053E-14
 -1       153 6.35957E-03-3.10497E-04-1.94689E-14
 -1       154 6.61352E-03-4.62364E-04-1.98938E-14
 -1       155 6.92659E-03-5.84391E-04-2.04101E-14
 -1       156 7.35034E-03-6.90625E-04-2.11065E-14
 -1       157 7.84074E-03-7.57973E-04-2.19192E-14
 -1       158 8.79024E-03-7.51899E-04-2.34939E-14
 -1       159 9.25590E-03-6.82911E-04-2.42810E-14
 -1       160 9.67850E-03-5.75893E-04-2.49885E-14
 -1       161 1.00111E-02-4.46072E-04-2.55368E-14
 -1       162 1.02760E-02-2.88818E-04-2.59645E-14
 -1       163 1.04446E-02-1.15437E-04-2.62244E-14
 -1       164 2.40135E-04-1.25196E-04-1.48603E-17
 -1       165 2.25187E-04-9.43141E-05-2.42861E-17
 -1       166 2.19572E-04-7.24798E-05-2.93616E-17
 -1       167 2.16842E-04-5.48140E-05-3.20721E-17
 -1       168 2.15396E-04-3.97112E-05-3.30377E-17
 -1       169 2.14588E-04-2.57248E-05-3.30648E-17
 -1       170 2.14181E-04-1.25431E-05-3.25633E-17
 -1       171 2.14062E-04 2.70699E-07-3.19772E-17
 -1       172 2.14201E-04 1.30971E-05-3.09336E-17
 -1       173 2.14630E-04 2.63192E-05-2.98698E-17
 -1       174 2.15448E-04 4.01359E-05-2.79724E-17
 -1       175 2.16946E-04 5.56207E-05-2.51603E-17
 -1       176 2.19718E-04 7.35130E-05-2.06947E-17
 -1       177 2.25361E-04 9.57150E-05-1.31731E-17
 -1       178 2.39062E-04 1.27275E-04-8.36869E-19
 -1       179 2.97180E-04 1.85060E-04 1.30308E-17
 -1       180 4.67862E-04-2.62748E-04-4.07016E-17
 -1       181 7.65564E-04-3.80484E-04-1.48858E-16
 -1       182 1.04906E-03-4.62209E-04-3.24536E-16
 -1       183 1.32623E-03-5.19463E-04-5.67990E-16
 -1       184 1.60078E-03-5.59188E-04-8.77899E-16
 -1       185 1.87489E-03-5.85983E-04-1.25380E-15
 -1       186 2.14981E-03-6.03057E-04-1.69523E-15
 -1       187 2.42630E-03-6.12746E-04-2.20102E-15
 -1       188 2.70486E-03-6.16790E-04-2.77199E-15
 -1       189 2.98585E-03-6.16516E-04-3.40572E-15
 -1       190 3.26962E-03-6.12978E-04-4.10055E-15
 -1       191 3.55653E-03-6.07075E-04-4.85451E-15
 -1       192 3.84702E-03-5.99670E-04-5.66738E-15
 -1       193 4.14163E-03-5.91722E-04-6.53646E-15
 -1       194 4.44097E-03-5.84423E-04-7.46174E-15
 -1       195 4.74572E-03-5.79354E-04-8.44144E-15
 -1       196 5.05653E-03-5.78645E-04-9.47341E-15
 -1       197 5.37386E-03-5.85102E-04-1.05525E-14
 -1       198 5.69778E-03-6.02228E-04-1.16818E-14
 -1       199 6.02766E-03-6.33997E-04-1.28626E-14
 -1       200 6.36180E-03-6.84160E-04-1.41029E-14
 -1       201 6.69714E-03-7.54842E-04-1.53962E-14
 -1       202 7.02931E-03-8.44352E-04-1.67441E-14
 -1       203 7.35327E-03-9.44738E-04-1.81435E-14
 -1       204 7.66498E-03-1.04057E-03-1.95876E-14
 -1       205 7.96370E-03-1.11118E-03-2.10751E-14
 -1       206 8.25350E-03-1.13752E-03-2.26055E-14
 -1       207 8.54240E-03-1.11075E-03-2.41820E-14
 -1       208 8.83886E-03-1.03685E-03-2.58043E-14
 -1       209 9.14791E-03-9.33456E-04-2.74755E-14
 -1       210 9.46972E-03-8.21564E-04-2.91842E-14
 -1       211 9.80075E-03-7.17966E-04-3.09337E-14
 -1       212 1.01360E-02-6.32094E-04-3.27181E-14
 -1       213 1.04710E-02-5.66695E-04-3.45351E-14
 -1       214 1.08023E-02-5.20204E-04-3.63809E-14
 -1       215 1.11281E-02-4.89058E-04-3.82542E-14
 -1       216 1.14476E-02-4.69267E-04-4.01538E-14
 -1       217 1.17608E-02-4.57240E-04-4.20821E-14
 -1       218 1.20684E-02-4.50092E-04-4.40303E-14
 -1       219 1.23709E-02-4.45673E-04-4.60062E-14
 -1       220 1.26692E-02-4.42465E-04-4.80072E-14
 -1       221 1.29641E-02-4.39453E-04-5.00226E-14
 -1       222 1.32563E-02-4.35993E-04-5.20586E-14
 -1       223 1.35463E-02-4.31698E-04-5.41148E-14
 -1       224 1.38348E-02-4.26360E-04-5.61816E-14
 -1       225 1.41221E-02-4.19888E-04-5.82591E-14
 -1       226 1.44087E-02-4.12285E-04-6.03515E-14
 -1       227 1.46947E-02-4.03662E-04-6.24536E-14
 -1       228 6.03513E-04 3.29892E-04-1.99087E-17
 -1       229 8.92162E-04 4.30538E-04-1.08376E-16
 -1       230 1.17071E-03 5.00989E-04-2.56282E-16
 -1       231 1.44485E-03 5.50385E-04-4.65634E-16
 -1       232 1.71766E-03 5.84461E-04-7.37742E-16
 -1       233 1.99088E-03 6.07103E-04-1.07259E-15
 -1       234 2.26548E-03 6.21088E-04-1.47073E-15
 -1       235 2.54207E-03 6.28459E-04-1.93383E-15
 -1       236 2.82108E-03 6.30751E-04-2.46179E-15
 -1       237 3.10283E-03 6.29145E-04-3.05458E-15
 -1       238 3.38768E-03 6.24598E-04-3.71066E-15
 -1       239 3.67607E-03 6.17955E-04-4.43125E-15
 -1       240 3.96853E-03 6.10075E-04-5.21752E-15
 -1       241 4.26575E-03 6.01969E-04-6.07042E-15
 -1       242 4.56854E-03 5.94959E-04-6.98860E-15
 -1       243 4.87778E-03 5.90867E-04-7.97190E-15
 -1       244 5.19435E-03 5.92213E-04-9.01532E-15
 -1       245 5.51891E-03 6.02389E-04-1.01120E-14
 -1       246 5.85157E-03 6.25712E-04-1.12582E-14
 -1       247 6.19149E-03 6.67140E-04-1.24625E-14
 -1       248 6.53637E-03 7.31338E-04-1.37194E-14
 -1       249 6.88200E-03 8.20707E-04-1.50324E-14
 -1       250 7.22244E-03 9.32293E-04-1.63987E-14
 -1       251 7.55121E-03 1.05446E-03-1.78202E-14
 -1       252 7.86391E-03 1.16591E-03-1.92968E-14
 -1       253 8.16144E-03 1.24041E-03-2.08204E-14
 -1       254 8.45126E-03 1.25759E-03-2.23830E-14
 -1       255 8.74464E-03 1.21367E-03-2.39904E-14
 -1       256 9.05107E-03 1.12369E-03-2.56481E-14
 -1       257 9.37400E-03 1.01303E-03-2.73478E-14
 -1       258 9.71076E-03 9.05766E-04-2.90849E-14
 -1       259 1.00553E-02 8.17306E-04-3.08501E-14
 -1       260 1.04013E-02 7.53583E-04-3.26492E-14
 -1       261 1.07438E-02 7.13846E-04-3.44912E-14
 -1       262 1.10799E-02 6.94013E-04-3.63808E-14
 -1       263 1.14083E-02 6.89096E-04-3.83171E-14
 -1       264 1.17289E-02 6.94497E-04-4.02963E-14
 -1       265 1.20422E-02 7.06509E-04-4.23066E-14
 -1       266 1.23492E-02 7.22374E-04-4.43385E-14
 -1       267 1.26510E-02 7.40151E-04-4.63859E-14
 -1       268 1.29484E-02 7.58543E-04-4.84359E-14
 -1       269 1.32425E-02 7.76719E-04-5.04824E-14
 -1       270 1.35339E-02 7.94180E-04-5.25201E-14
 -1       271 1.38233E-02 8.10645E-04-5.45472E-14
 -1       272 1.41113E-02 8.25980E-04-5.65606E-14
 -1       273 1.43982E-02 8.40150E-04-5.85700E-14
 -1       274 1.46845E-02 8.53207E-04-6.05545E-14
 -1       275 1.49703E-02 8.65331E-04-6.25238E-14
 -1       276 1.50121E-02 8.03525E-04-6.29324E-14
 -1       277 1.50014E-02 7.19542E-04-6.30229E-14
 -1       278 1.49916E-02 6.35996E-04-6.31141E-14
 -1       279 1.49824E-02 5.53032E-04-6.32051E-14
 -1       280 1.49737E-02 4.72098E-04-6.32863E-14
 -1       281 1.49647E-02 3.90357E-04-6.33561E-14
 -1       282 1.49554E-02 3.09073E-04-6.34171E-14
 -1       283 1.49454E-02 2.28033E-04-6.34716E-14
 -1       284 1.49347E-02 1.46990E-04-6.35158E-14
 -1       285 1.49233E-02 6.56943E-05-6.35563E-14
 -1       286 1.49117E-02-1.46714E-05-6.35955E-14
 -1       287 1.48999E-02-9.70125E-05-6.36299E-14
 -1       288 1.48883E-02-1.79991E-04-6.36568E-14
 -1       289 1.48774E-02-2.63541E-04-6.36763E-14
 -1       290 1.47858E-02-3.33558E-04-6.30693E-14
 -1       291 1.05206E-02 1.19493E-04-2.70757E-14
 -1       292 1.03805E-02 2.24926E-04-2.67329E-14
 -1       293 1.01116E-02 3.48911E-04-2.63527E-14
 -1       294 9.77702E-03 5.22770E-04-2.56547E-14
 -1       295 9.37986E-03 6.98181E-04-2.49299E-14
 -1       296 9.00428E-03 8.62697E-04-2.40033E-14
 -1       297 8.63886E-03 9.59720E-04-2.31463E-14
 -1       298 8.27289E-03 9.86533E-04-2.22582E-14
 -1       299 7.90537E-03 9.26302E-04-2.13871E-14
 -1       300 7.52331E-03 7.97279E-04-2.06049E-14
 -1       301 7.14834E-03 6.33089E-04-1.99152E-14
 -1       302 6.79273E-03 4.47739E-04-1.92710E-14
 -1       303 6.46177E-03 3.01606E-04-1.88957E-14
 -1       304 6.22816E-03 1.74440E-04-1.86194E-14
 -1       305 6.11900E-03 7.47529E-05-1.85152E-14
 -1       306 6.14336E-03-1.37953E-05-1.85105E-14
 -1       307 6.30025E-03-1.23629E-04-1.88180E-14
 -1       308 6.56208E-03-2.56732E-04-1.92142E-14
 -1       309 6.90094E-03-4.17193E-04-1.97576E-14
 -1       310 7.30156E-03-5.88029E-04-2.04152E-14
 -1       311 7.73351E-03-7.56237E-04-2.12807E-14
 -1       312 8.12264E-03-8.46274E-04-2.22523E-14
 -1       313 8.50225E-03-8.36736E-04-2.31830E-14
 -1       314 8.87971E-03-7.48426E-04-2.41807E-14
 -1       315 9.30693E-03-5.83303E-04-2.50251E-14
 -1       316 9.70994E-03-4.04196E-04-2.57471E-14
 -1       317 1.00613E-02-2.28274E-04-2.63766E-14
 -1       318 1.03483E-02-9.06744E-05-2.67566E-14
 -1       319 1.05125E-02 2.80562E-05-2.70583E-14
 -1       320 4.55274E-04-1.63927E-04-1.00417E-16
 -1       321 4.73931E-04-2.12129E-04-8.52793E-17
 -1       322 4.40734E-04-9.33307E-05-1.13818E-16
 -1       323 4.37825E-04-6.43691E-05-1.15302E-16
 -1       324 4.36224E-04-3.75581E-05-1.15017E-16
 -1       325 4.35520E-04-1.19014E-05-1.13526E-16
 -1       326 4.35552E-04 1.34077E-05-1.11490E-16
 -1       327 4.36324E-04 3.91232E-05-1.08291E-16
 -1       328 4.37970E-04 6.55905E-05-1.03545E-16
 -1       329 4.40971E-04 9.47258E-05-9.68497E-17
 -1       330 4.46244E-04 1.27553E-04-8.70004E-17
 -1       331 4.55877E-04 1.66488E-04-7.24755E-17
 -1       332 4.75550E-04 2.16192E-04-5.04188E-17
 -1       333 5.31372E-04 2.68989E-04-3.87670E-17
 -1       334 8.23557E-04 3.71580E-04-1.32574E-16
 -1       335 8.62595E-04-3.55286E-04-2.67378E-16
 -1       336 1.14885E-03-4.22694E-04-4.84577E-16
 -1       337 1.43167E-03-4.70110E-04-7.67259E-16
 -1       338 1.71262E-03-5.02585E-04-1.11420E-15
 -1       339 1.99290E-03-5.23820E-04-1.52534E-15
 -1       340 2.27339E-03-5.36536E-04-1.99974E-15
 -1       341 2.55471E-03-5.42753E-04-2.53742E-15
 -1       342 2.83730E-03-5.43991E-04-3.13816E-15
 -1       343 3.12153E-03-5.41420E-04-3.80030E-15
 -1       344 3.40773E-03-5.35983E-04-4.52207E-15
 -1       345 3.69625E-03-5.28520E-04-5.30164E-15
 -1       346 3.98745E-03-5.19890E-04-6.14005E-15
 -1       347 4.28179E-03-5.11103E-04-7.03410E-15
 -1       348 4.57977E-03-5.03472E-04-7.98443E-15
 -1       349 4.88194E-03-4.98776E-04-8.98830E-15
 -1       350 5.18891E-03-4.99415E-04-1.00428E-14
 -1       351 5.50125E-03-5.08527E-04-1.11456E-14
 -1       352 5.81941E-03-5.29961E-04-1.22991E-14
 -1       353 6.14356E-03-5.67954E-04-1.35099E-14
 -1       354 6.47318E-03-6.26262E-04-1.47743E-14
 -1       355 6.80661E-03-7.06417E-04-1.60918E-14
 -1       356 7.14054E-03-8.05078E-04-1.74657E-14
 -1       357 7.47021E-03-9.11095E-04-1.88852E-14
 -1       358 7.79123E-03-1.00447E-03-2.03485E-14
 -1       359 8.10278E-03-1.06071E-03-2.18546E-14
 -1       360 8.40962E-03-1.06130E-03-2.34081E-14
 -1       361 8.71969E-03-1.00433E-03-2.50078E-14
 -1       362 9.03873E-03-9.05576E-04-2.66510E-14
 -1       363 9.36700E-03-7.89325E-04-2.83369E-14
 -1       364 9.70057E-03-6.76994E-04-3.00627E-14
 -1       365 1.00346E-02-5.81564E-04-3.18248E-14
 -1       366 1.03653E-02-5.07717E-04-3.36255E-14
 -1       367 1.06909E-02-4.54634E-04-3.54600E-14
 -1       368 1.10107E-02-4.18829E-04-3.73202E-14
 -1       369 1.13247E-02-3.96074E-04-3.92086E-14
 -1       370 1.16335E-02-3.82424E-04-4.11281E-14
 -1       371 1.19377E-02-3.74636E-04-4.30678E-14
 -1       372 1.22378E-02-3.70247E-04-4.50315E-14
 -1       373 1.25346E-02-3.67494E-04-4.70236E-14
 -1       374 1.28287E-02-3.65180E-04-4.90269E-14
 -1       375 1.31205E-02-3.62533E-04-5.10523E-14
 -1       376 1.34106E-02-3.59088E-04-5.30952E-14
 -1       377 1.36993E-02-3.54584E-04-5.51533E-14
 -1       378 1.39870E-02-3.48903E-04-5.72217E-14
 -1       379 1.42739E-02-3.42017E-04-5.93041E-14
 -1       380 1.45300E-02-3.38204E-04-6.11817E-14
 -1       381 1.10883E-03 4.44631E-04-2.83993E-16
 -1       382 1.38952E-03 4.96030E-04-4.95318E-16
 -1       383 1.66796E-03 5.31494E-04-7.68245E-16
 -1       384 1.94577E-03 5.55048E-04-1.10315E-15
 -1       385 2.22401E-03 5.69595E-04-1.50040E-15
 -1       386 2.50339E-03 5.77272E-04-1.96186E-15
 -1       387 2.78440E-03 5.79675E-04-2.48740E-15
 -1       388 3.06743E-03 5.78019E-04-3.07727E-15
 -1       389 3.35283E-03 5.73270E-04-3.72953E-15
 -1       390 3.64101E-03 5.66261E-04-4.44533E-15
 -1       391 3.93240E-03 5.57820E-04-5.22771E-15
 -1       392 4.22755E-03 5.48901E-04-6.07456E-15
 -1       393 4.52709E-03 5.40750E-04-6.98602E-15
 -1       394 4.83173E-03 5.35087E-04-7.96048E-15
 -1       395 5.14220E-03 5.34312E-04-8.99589E-15
 -1       396 5.45918E-03 5.41702E-04-1.00841E-14
 -1       397 5.78314E-03 5.61506E-04-1.12245E-14
 -1       398 6.11411E-03 5.98773E-04-1.24207E-14
 -1       399 6.45128E-03 6.58601E-04-1.36717E-14
 -1       400 6.79257E-03 7.44383E-04-1.49758E-14
 -1       401 7.13419E-03 8.54792E-04-1.63344E-14
 -1       402 7.47077E-03 9.79955E-04-1.77479E-14
 -1       403 7.79711E-03 1.09909E-03-1.92154E-14
 -1       404 8.11156E-03 1.18381E-03-2.07316E-14
 -1       405 8.41873E-03 1.20950E-03-2.22884E-14
 -1       406 8.72783E-03 1.16914E-03-2.38891E-14
 -1       407 9.04679E-03 1.07785E-03-2.55409E-14
 -1       408 9.37766E-03 9.63459E-04-2.72356E-14
 -1       409 9.71697E-03 8.52368E-04-2.89651E-14
 -1       410 1.00591E-02 7.61092E-04-3.07272E-14
 -1       411 1.03994E-02 6.95702E-04-3.25209E-14
 -1       412 1.07346E-02 6.55211E-04-3.43585E-14
 -1       413 1.10633E-02 6.35256E-04-3.62416E-14
 -1       414 1.13851E-02 6.30617E-04-3.81681E-14
 -1       415 1.17003E-02 6.36526E-04-4.01372E-14
 -1       416 1.20096E-02 6.49157E-04-4.21353E-14
 -1       417 1.23137E-02 6.65671E-04-4.41571E-14
 -1       418 1.26134E-02 6.84076E-04-4.61982E-14
 -1       419 1.29096E-02 7.03047E-04-4.82467E-14
 -1       420 1.32030E-02 7.21738E-04-5.02914E-14
 -1       421 1.34941E-02 7.39645E-04-5.23319E-14
 -1       422 1.37834E-02 7.56492E-04-5.43600E-14
 -1       423 1.40715E-02 7.72148E-04-5.63776E-14
 -1       424 1.43586E-02 7.86583E-04-5.83881E-14
 -1       425 1.46451E-02 7.99846E-04-6.03770E-14
 -1       426 1.48286E-02 8.01863E-04-6.16565E-14
 -1       427 1.47398E-02 5.84486E-04-6.14288E-14
 -1       428 1.47490E-02 6.67549E-04-6.13479E-14
 -1       429 1.47885E-02 7.34561E-04-6.15037E-14
 -1       430 1.47312E-02 5.03458E-04-6.15008E-14
 -1       431 1.47226E-02 4.21641E-04-6.15591E-14
 -1       432 1.47137E-02 3.40331E-04-6.16134E-14
 -1       433 1.47041E-02 2.59351E-04-6.16624E-14
 -1       434 1.46938E-02 1.78482E-04-6.17070E-14
 -1       435 1.46826E-02 9.74912E-05-6.17459E-14
 -1       436 1.46710E-02 1.75431E-05-6.17808E-14
 -1       437 1.46589E-02-6.42879E-05-6.18109E-14
 -1       438 1.46469E-02-1.46732E-04-6.18301E-14
 -1       439 1.46354E-02-2.29812E-04-6.18477E-14
 -1       440 1.02661E-02 2.14822E-04-2.74537E-14
 -1       441 1.05568E-02 7.68409E-05-2.79601E-14
 -1       442 1.04662E-02 1.41016E-04-2.76097E-14
 -1       443 9.89050E-03 3.86648E-04-2.65608E-14
 -1       444 9.54304E-03 5.56490E-04-2.58745E-14
 -1       445 4.45857E-04-1.25717E-04-1.09260E-16
 -1       446 8.77369E-03 9.38145E-04-2.37353E-14
 -1       447 8.45469E-03 1.01422E-03-2.27434E-14
 -1       448 8.11660E-03 9.93543E-04-2.16887E-14
 -1       449 7.76430E-03 8.70095E-04-2.06885E-14
 -1       450 7.40985E-03 6.93006E-04-1.98653E-14
 -1       451 7.05686E-03 5.00429E-04-1.91221E-14
 -1       452 6.63557E-03 2.91046E-04-1.84223E-14
 -1       453 6.34358E-03 1.73689E-04-1.81472E-14
 -1       454 6.14539E-03 8.75837E-05-1.78569E-14
 -1       455 6.09545E-03 3.75273E-05-1.78766E-14
 -1       456 6.21305E-03-2.80715E-05-1.80026E-14
 -1       457 6.41425E-03-1.11906E-04-1.83890E-14
 -1       458 6.77696E-03-2.68598E-04-1.89303E-14
 -1       459 7.11120E-03-4.36529E-04-1.95730E-14
 -1       460 7.55492E-03-6.60818E-04-2.04587E-14
 -1       461 7.97501E-03-8.37414E-04-2.16915E-14
 -1       462 8.32923E-03-8.87652E-04-2.28135E-14
 -1       463 8.62725E-03-8.34856E-04-2.38033E-14
 -1       464 9.06206E-03-6.46851E-04-2.50538E-14
 -1       465 9.45096E-03-4.47557E-04-2.58994E-14
 -1       466 9.82320E-03-2.50102E-04-2.67641E-14
 -1       467 1.02046E-02-8.50049E-05-2.73395E-14
 -1       468 1.04441E-02 1.27218E-05-2.77620E-14
 -1       469 9.09695E-03 7.95898E-04-2.46629E-14
 -1       470 9.30987E-03 6.73585E-04-2.56002E-14
 -1       471 8.83155E-03-7.58348E-04-2.46702E-14
 -1       472 7.76451E-03-7.64688E-04-2.08582E-14
 -1       473 9.30856E-04 3.43590E-04-2.50336E-16
 -1       474 6.66277E-04-7.43310E-05-2.45897E-16
 -1       475 6.70213E-04-1.14773E-04-2.44532E-16
 -1       476 6.63603E-04 1.09468E-06-2.41469E-16
 -1       477 6.64328E-04 3.83318E-05-2.36058E-16
 -1       478 6.66470E-04 7.60073E-05-2.28231E-16
 -1       479 6.70537E-04 1.16606E-04-2.17355E-16
 -1       480 6.77452E-04 1.60998E-04-2.02343E-16
 -1       481 6.89158E-04 2.11219E-04-1.81153E-16
 -1       482 1.21674E-03 4.02624E-04-4.44577E-16
 -1       483 9.76137E-04-3.25976E-04-3.98593E-16
 -1       484 9.74022E-03 4.43100E-04-2.68407E-14
 -1       485 1.26210E-03-3.79334E-04-6.54465E-16
 -1       486 1.54727E-03-4.17108E-04-9.73691E-16
 -1       487 1.83171E-03-4.42639E-04-1.35604E-15
 -1       488 2.11576E-03-4.58721E-04-1.80088E-15
 -1       489 2.39982E-03-4.67540E-04-2.30682E-15
 -1       490 2.68424E-03-4.70774E-04-2.87448E-15
 -1       491 2.96929E-03-4.69706E-04-3.50322E-15
 -1       492 3.25523E-03-4.65342E-04-4.19305E-15
 -1       493 3.54229E-03-4.58522E-04-4.94199E-15
 -1       494 3.83072E-03-4.50028E-04-5.74754E-15
 -1       495 4.12079E-03-4.40712E-04-6.61047E-15
 -1       496 4.41288E-03-4.31620E-04-7.52949E-15
 -1       497 4.70744E-03-4.24144E-04-8.50490E-15
 -1       498 5.00511E-03-4.20173E-04-9.53282E-15
 -1       499 5.30674E-03-4.22248E-04-1.06112E-14
 -1       500 5.61350E-03-4.33673E-04-1.17389E-14
 -1       501 5.92687E-03-4.58518E-04-1.29211E-14
 -1       502 6.24844E-03-5.01352E-04-1.41582E-14
 -1       503 6.57930E-03-5.66401E-04-1.54479E-14
 -1       504 6.91879E-03-6.55509E-04-1.67904E-14
 -1       505 7.26302E-03-7.64579E-04-1.81847E-14
 -1       506 7.60472E-03-8.78614E-04-1.96241E-14
 -1       507 7.93696E-03-9.69955E-04-2.11068E-14
 -1       508 8.25961E-03-1.00686E-03-2.26363E-14
 -1       509 8.58116E-03-9.72871E-04-2.42114E-14
 -1       510 8.91117E-03-8.79200E-04-2.58310E-14
 -1       511 9.25146E-03-7.56324E-04-2.74952E-14
 -1       512 9.59586E-03-6.33664E-04-2.91974E-14
 -1       513 9.93682E-03-5.28881E-04-3.09401E-14
 -1       514 1.02697E-02-4.47918E-04-3.27184E-14
 -1       515 1.05932E-02-3.89712E-04-3.45353E-14
 -1       516 1.09083E-02-3.50294E-04-3.63835E-14
 -1       517 1.12166E-02-3.25073E-04-3.82640E-14
 -1       518 1.15195E-02-3.09855E-04-4.01719E-14
 -1       519 1.18184E-02-3.01207E-04-4.21025E-14
 -1       520 1.21143E-02-2.96499E-04-4.40551E-14
 -1       521 1.24077E-02-2.93821E-04-4.60374E-14
 -1       522 1.26992E-02-2.91848E-04-4.80358E-14
 -1       523 1.29893E-02-2.89712E-04-5.00461E-14
 -1       524 1.32782E-02-2.86871E-04-5.20777E-14
 -1       525 1.35662E-02-2.83019E-04-5.41271E-14
 -1       526 1.38534E-02-2.78003E-04-5.61891E-14
 -1       527 1.41401E-02-2.71771E-04-5.82601E-14
 -1       528 1.78403E-03 4.72850E-04-1.01317E-15
 -1       529 2.06658E-03 4.91115E-04-1.38861E-15
 -1       530 2.34923E-03 5.01585E-04-1.82618E-15
 -1       531 2.63244E-03 5.06069E-04-2.32672E-15
 -1       532 2.91660E-03 5.05936E-04-2.89071E-15
 -1       533 3.20199E-03 5.02240E-04-3.51691E-15
 -1       534 3.48892E-03 4.95843E-04-4.20644E-15
 -1       535 3.77768E-03 4.87523E-04-4.95958E-15
 -1       536 4.06861E-03 4.78106E-04-5.77729E-15
 -1       537 4.36210E-03 4.68603E-04-6.65821E-15
 -1       538 4.65866E-03 4.60373E-04-7.60071E-15
 -1       539 4.95888E-03 4.55314E-04-8.60476E-15
 -1       540 5.26354E-03 4.56061E-04-9.66558E-15
 -1       541 5.57364E-03 4.66172E-04-1.07790E-14
 -1       542 5.89041E-03 4.90209E-04-1.19461E-14
 -1       543 6.21526E-03 5.33560E-04-1.31697E-14
 -1       544 6.54929E-03 6.01644E-04-1.44450E-14
 -1       545 6.89228E-03 6.97914E-04-1.57735E-14
 -1       546 7.24110E-03 8.20137E-04-1.71570E-14
 -1       547 7.58890E-03 9.54785E-04-1.85957E-14
 -1       548 7.92781E-03 1.07351E-03-2.00824E-14
 -1       549 8.25572E-03 1.13982E-03-2.16188E-14
 -1       550 8.58013E-03 1.12953E-03-2.31941E-14
 -1       551 8.91201E-03 1.04903E-03-2.48187E-14
 -1       552 9.25517E-03 9.30190E-04-2.64912E-14
 -1       553 9.60440E-03 8.08118E-04-2.82012E-14
 -1       554 9.95163E-03 7.05334E-04-2.99436E-14
 -1       555 1.02914E-02 6.30307E-04-3.17197E-14
 -1       556 1.06220E-02 5.82440E-04-3.35361E-14
 -1       557 1.09438E-02 5.57173E-04-3.53956E-14
 -1       558 1.12582E-02 5.48942E-04-3.72969E-14
 -1       559 1.15665E-02 5.52637E-04-3.92403E-14
 -1       560 1.18700E-02 5.64110E-04-4.12140E-14
 -1       561 1.21696E-02 5.80232E-04-4.32170E-14
 -1       562 1.24661E-02 5.98771E-04-4.52437E-14
 -1       563 1.27600E-02 6.18207E-04-4.72841E-14
 -1       564 1.30518E-02 6.37554E-04-4.93258E-14
 -1       565 1.33420E-02 6.56209E-04-5.13681E-14
 -1       566 1.36310E-02 6.73834E-04-5.34004E-14
 -1       567 1.39189E-02 6.90260E-04-5.54270E-14
 -1       568 1.42060E-02 7.05430E-04-5.74439E-14
 -1       569 1.44925E-02 7.19363E-04-5.94496E-14
 -1       570 1.44804E-02 4.52050E-04-5.97728E-14
 -1       571 1.44720E-02 3.70904E-04-5.98207E-14
 -1       572 1.44970E-02 6.14973E-04-5.96546E-14
 -1       573 1.44885E-02 5.33151E-04-5.97173E-14
 -1       574 1.44630E-02 2.90233E-04-5.98638E-14
 -1       575 1.44531E-02 2.09810E-04-5.99016E-14
 -1       576 1.44423E-02 1.29377E-04-5.99353E-14
 -1       577 1.44307E-02 5.00520E-05-5.99653E-14
 -1       578 1.44184E-02-3.11208E-05-5.99903E-14
 -1       579 1.44059E-02-1.12942E-04-6.00116E-14
 -1       580 1.43937E-02-1.95501E-04-6.00272E-14
 -1       581 1.05586E-02 1.03554E-04-2.86498E-14
 -1       582 1.00767E-02 2.86514E-04-2.77439E-14
 -1       583 1.50098E-03 4.44399E-04-6.98460E-16
 -1       584 1.05533E-02 5.77124E-05-2.88392E-14
 -1       585 1.04393E-02 1.48097E-04-2.84899E-14
 -1       586 8.91880E-03 8.83298E-04-2.44730E-14
 -1       587 1.03485E-02-1.15661E-05-2.83756E-14
 -1       588 8.14628E-03-8.92603E-04-2.21582E-14
 -1       589 6.08886E-03 1.69983E-05-1.70860E-14
 -1       590 6.64214E-04-3.61058E-05-2.44843E-16
 -1       591 8.29513E-03 1.03877E-03-2.21499E-14
 -1       592 8.60186E-03 1.00668E-03-2.33222E-14
 -1       593 7.96098E-03 9.58072E-04-2.09367E-14
 -1       594 7.60190E-03 7.82795E-04-1.98812E-14
 -1       595 7.26732E-03 5.94793E-04-1.90495E-14
 -1       596 6.84755E-03 3.71113E-04-1.81673E-14
 -1       597 6.44277E-03 1.90945E-04-1.75958E-14
 -1       598 6.21199E-03 1.06891E-04-1.73130E-14
 -1       599 6.06852E-03 5.26813E-05-1.70822E-14
 -1       600 6.29965E-03-5.46730E-05-1.75074E-14
 -1       601 6.58928E-03-1.67235E-04-1.80358E-14
 -1       602 6.95287E-03-3.37528E-04-1.87867E-14
 -1       603 9.27110E-03-5.24451E-04-2.60759E-14
 -1       604 7.30778E-03-5.27061E-04-1.95519E-14
 -1       605 8.45744E-03-8.91809E-04-2.33672E-14
 -1       606 9.60605E-03-3.41011E-04-2.69444E-14
 -1       607 1.00520E-02-1.26689E-04-2.79206E-14
 -1       608 7.12604E-04-2.50279E-04-2.24864E-16
 -1       609 7.03407E-04 2.89347E-04-1.30551E-16
 -1       610 6.76920E-04-1.58727E-04-2.39575E-16
 -1       611 8.65345E-03-8.46557E-04-2.42231E-14
 -1       612 9.53343E-03 5.59805E-04-2.65594E-14
 -1       613 7.51473E-03-6.48810E-04-1.99400E-14
 -1       614 1.06261E-02 8.31291E-05-2.95328E-14
 -1       615 1.03073E-02 2.09106E-04-2.87812E-14
 -1       616 9.05705E-03-6.53506E-04-2.56839E-14
 -1       617 6.91994E-04-2.01411E-04-2.34774E-16
 -1       618 1.43334E-02-2.68531E-04-5.96688E-14
 -1       619 9.00194E-04 7.31193E-05-4.02151E-16
 -1       620 8.98073E-04 2.48321E-05-4.12952E-16
 -1       621 9.12277E-04 1.76231E-04-3.67372E-16
 -1       622 9.24514E-04 2.34482E-04-3.40555E-16
 -1       623 1.04895E-03 3.10937E-04-3.84702E-16
 -1       624 8.77452E-03 9.76976E-04-2.41006E-14
 -1       625 1.38358E-03-3.32224E-04-8.34043E-16
 -1       626 1.66988E-03-3.61009E-04-1.18803E-15
 -1       627 1.95623E-03-3.80074E-04-1.60417E-15
 -1       628 2.24246E-03-3.91469E-04-2.08007E-15
 -1       629 2.52858E-03-3.96884E-04-2.61553E-15
 -1       630 2.81464E-03-3.97653E-04-3.21174E-15
 -1       631 3.10073E-03-3.94822E-04-3.86884E-15
 -1       632 3.38694E-03-3.89230E-04-4.58547E-15
 -1       633 3.67335E-03-3.81603E-04-5.36126E-15
 -1       634 3.96009E-03-3.72656E-04-6.19218E-15
 -1       635 4.24735E-03-3.63197E-04-7.07900E-15
 -1       636 4.53542E-03-3.54247E-04-8.02383E-15
 -1       637 4.82481E-03-3.47165E-04-9.02423E-15
 -1       638 5.11634E-03-3.43794E-04-1.00766E-14
 -1       639 5.41135E-03-3.46610E-04-1.11808E-14
 -1       640 5.71189E-03-3.58903E-04-1.23362E-14
 -1       641 6.02084E-03-3.84954E-04-1.35467E-14
 -1       642 6.34175E-03-4.30140E-04-1.48090E-14
 -1       643 6.67775E-03-5.00426E-04-1.61221E-14
 -1       644 7.02904E-03-5.99976E-04-1.74878E-14
 -1       645 7.38987E-03-7.25384E-04-1.89008E-14
 -1       646 7.74826E-03-8.54301E-04-2.03578E-14
 -1       647 8.09383E-03-9.42578E-04-2.18619E-14
 -1       648 8.43119E-03-9.46591E-04-2.34140E-14
 -1       649 8.77369E-03-8.61932E-04-2.50138E-14
 -1       650 9.13059E-03-7.26100E-04-2.66568E-14
 -1       651 9.49171E-03-5.86645E-04-2.83385E-14
 -1       652 9.84570E-03-4.70112E-04-3.00590E-14
 -1       653 1.01849E-02-3.83101E-04-3.18161E-14
 -1       654 1.05087E-02-3.22223E-04-3.36121E-14
 -1       655 1.08198E-02-2.81546E-04-3.54463E-14
 -1       656 1.11218E-02-2.55507E-04-3.73132E-14
 -1       657 1.14178E-02-2.39611E-04-3.92123E-14
 -1       658 1.17100E-02-2.30400E-04-4.11345E-14
 -1       659 1.19999E-02-2.25288E-04-4.30755E-14
 -1       660 1.22883E-02-2.22391E-04-4.50497E-14
 -1       661 1.25758E-02-2.20382E-04-4.70448E-14
 -1       662 1.28628E-02-2.18365E-04-4.90471E-14
 -1       663 1.31494E-02-2.15769E-04-5.10645E-14
 -1       664 1.34357E-02-2.12257E-04-5.31015E-14
 -1       665 1.37219E-02-2.07653E-04-5.51542E-14
 -1       666 1.40078E-02-2.01883E-04-5.72173E-14
 -1       667 2.19161E-03 4.24723E-04-1.68477E-15
 -1       668 1.42112E-02 6.01220E-04-5.76398E-14
 -1       669 9.16853E-03 7.73416E-04-2.55521E-14
 -1       670 1.90623E-03 4.11333E-04-1.26988E-15
 -1       671 2.76241E-03 4.33373E-04-2.69998E-15
 -1       672 3.04818E-03 4.31235E-04-3.30155E-15
 -1       673 3.33441E-03 4.26062E-04-3.96420E-15
 -1       674 3.62122E-03 4.18610E-04-4.69047E-15
 -1       675 3.90879E-03 4.09606E-04-5.47939E-15
 -1       676 4.19730E-03 3.99864E-04-6.33087E-15
 -1       677 4.48701E-03 3.90413E-04-7.24380E-15
 -1       678 4.77833E-03 3.82650E-04-8.21611E-15
 -1       679 5.07192E-03 3.78505E-04-9.24893E-15
 -1       680 5.36884E-03 3.80629E-04-1.03361E-14
 -1       681 5.67082E-03 3.92590E-04-1.14762E-14
 -1       682 5.98044E-03 4.19057E-04-1.26703E-14
 -1       683 6.30116E-03 4.65902E-04-1.39177E-14
 -1       684 6.63659E-03 5.39785E-04-1.52167E-14
 -1       685 6.98846E-03 6.46287E-04-1.65706E-14
 -1       686 7.35287E-03 7.84314E-04-1.79782E-14
 -1       687 7.71878E-03 9.35345E-04-1.94374E-14
 -1       688 8.07303E-03 1.05490E-03-2.09469E-14
 -1       689 8.41652E-03 1.09159E-03-2.25045E-14
 -1       690 9.12261E-03 9.01754E-04-2.57481E-14
 -1       691 9.48894E-03 7.62704E-04-2.74369E-14
 -1       692 9.84924E-03 6.46014E-04-2.91611E-14
 -1       693 1.01949E-02 5.62645E-04-3.09183E-14
 -1       694 1.05244E-02 5.09967E-04-3.27148E-14
 -1       695 1.08407E-02 4.81630E-04-3.45504E-14
 -1       696 1.11473E-02 4.71185E-04-3.64286E-14
 -1       697 1.14474E-02 4.73215E-04-3.83470E-14
 -1       698 1.17433E-02 4.83502E-04-4.02982E-14
 -1       699 1.20364E-02 4.98884E-04-4.22821E-14
 -1       700 1.23276E-02 5.17074E-04-4.42934E-14
 -1       701 1.26174E-02 5.36475E-04-4.63221E-14
 -1       702 1.29062E-02 5.56020E-04-4.83598E-14
 -1       703 1.31942E-02 5.75034E-04-5.03992E-14
 -1       704 1.34816E-02 5.93121E-04-5.24364E-14
 -1       705 1.37685E-02 6.10071E-04-5.44648E-14
 -1       706 1.39901E-02 6.06029E-04-5.60516E-14
 -1       707 1.42129E-02 2.40534E-04-5.81104E-14
 -1       708 1.42008E-02-1.98957E-04-5.86195E-14
 -1       709 1.42303E-02 4.00551E-04-5.80380E-14
 -1       710 1.42025E-02 1.60890E-04-5.81397E-14
 -1       711 1.42221E-02 3.20320E-04-5.80786E-14
 -1       712 1.41911E-02 8.24305E-05-5.81625E-14
 -1       713 1.41786E-02 2.15772E-06-5.81819E-14
 -1       714 1.41656E-02-7.88166E-05-5.81993E-14
 -1       715 6.07103E-03 7.39503E-05-1.63655E-14
 -1       716 1.05801E-02 1.22289E-04-2.96529E-14
 -1       717 6.73532E-03-2.60745E-04-1.77300E-14
 -1       718 1.62063E-03 3.89528E-04-9.15585E-16
 -1       719 2.47694E-03 4.31580E-04-2.16083E-15
 -1       720 1.09796E-03-2.91443E-04-5.41942E-16
 -1       721 9.04676E-04 1.23062E-04-3.87233E-16
 -1       722 1.33477E-03 3.56954E-04-6.20343E-16
 -1       723 8.12913E-03 1.03345E-03-2.13602E-14
 -1       724 9.88166E-03-2.27743E-04-2.83410E-14
 -1       725 9.04292E-04-1.20668E-04-4.23195E-16
 -1       726 6.58157E-03 2.62715E-04-1.71698E-14
 -1       727 1.02787E-02-5.28716E-05-2.91622E-14
 -1       728 1.05168E-02 3.00823E-05-2.96322E-14
 -1       729 6.12600E-03-1.64761E-05-1.65698E-14
 -1       730 5.99135E-03 3.38434E-05-1.61644E-14
 -1       731 7.04088E-03 4.88334E-04-1.80522E-14
 -1       732 6.26750E-03 1.37541E-04-1.67060E-14
 -1       733 7.74897E-03 8.85570E-04-1.99264E-14
 -1       734 8.27470E-03-9.23611E-04-2.26633E-14
 -1       735 6.39284E-03-1.09168E-04-1.70999E-14
 -1       736 7.47101E-03 7.32061E-04-1.90951E-14
 -1       737 7.08764E-03-4.29131E-04-1.86537E-14
 -1       738 9.47252E-03-4.40336E-04-2.72253E-14
 -1       739 8.45251E-03 1.05299E-03-2.27355E-14
 -1       740 9.93327E-03 3.81951E-04-2.80755E-14
 -1       741 7.93525E-03-8.53124E-04-2.12888E-14
 -1       742 8.93692E-04-2.49566E-04-3.72552E-16
 -1       743 9.11665E-04-1.73614E-04-4.18400E-16
 -1       744 8.98008E-04-2.28279E-05-4.19867E-16
 -1       745 8.87483E-03-7.69984E-04-2.52267E-14
 -1       746 7.69986E-03-7.68713E-04-2.03588E-14
 -1       747 1.42379E-02 4.80791E-04-5.79909E-14
 -1       748 8.76279E-03 1.02870E-03-2.41013E-14
 -1       749 1.05062E-02 1.69288E-04-2.99474E-14
 -1       750 1.01865E-02 2.94394E-04-2.91163E-14
 -1       751 1.06477E-02 6.18684E-05-3.03319E-14
 -1       752 6.75128E-03 3.70947E-04-1.70535E-14
 -1       753 8.99981E-04-7.08523E-05-4.23215E-16
 -1       754 7.28150E-03-5.49825E-04-1.90314E-14
 -1       755 1.40868E-02-1.40198E-04-5.77125E-14
 -1       756 1.16195E-03 2.40387E-04-5.50609E-16
 -1       757 1.79748E-03-3.02016E-04-1.40963E-15
 -1       758 2.08486E-03-3.15327E-04-1.85663E-15
 -1       759 2.37220E-03-3.22657E-04-2.36202E-15
 -1       760 2.65921E-03-3.25266E-04-2.92660E-15
 -1       761 2.94572E-03-3.24174E-04-3.55104E-15
 -1       762 3.23161E-03-3.20193E-04-4.23595E-15
 -1       763 3.51680E-03-3.13995E-04-4.97909E-15
 -1       764 3.80123E-03-3.06179E-04-5.78004E-15
 -1       765 4.08488E-03-2.97360E-04-6.63587E-15
 -1       766 4.36783E-03-2.88246E-04-7.54933E-15
 -1       767 4.65032E-03-2.79733E-04-8.51993E-15
 -1       768 4.93288E-03-2.73005E-04-9.54355E-15
 -1       769 5.21651E-03-2.69653E-04-1.06229E-14
 -1       770 5.50304E-03-2.71862E-04-1.17541E-14
 -1       771 5.79542E-03-2.82732E-04-1.29377E-14
 -1       772 6.09813E-03-3.06880E-04-1.41738E-14
 -1       773 6.41682E-03-3.51489E-04-1.54607E-14
 -1       774 6.75948E-03-4.25649E-04-1.67970E-14
 -1       775 7.52594E-03-7.16676E-04-1.96152E-14
 -1       776 9.40007E-03-5.37922E-04-2.74821E-14
 -1       777 9.77120E-03-4.03393E-04-2.91815E-14
 -1       778 1.01182E-02-3.10162E-04-3.09200E-14
 -1       779 1.04413E-02-2.49556E-04-3.26961E-14
 -1       780 1.07466E-02-2.10876E-04-3.45119E-14
 -1       781 1.10405E-02-1.86537E-04-3.63635E-14
 -1       782 1.13278E-02-1.71532E-04-3.82490E-14
 -1       783 1.16115E-02-1.62530E-04-4.01635E-14
 -1       784 1.18939E-02-1.57220E-04-4.20984E-14
 -1       785 1.21759E-02-1.53959E-04-4.40608E-14
 -1       786 1.24581E-02-1.51577E-04-4.60488E-14
 -1       787 1.27409E-02-1.49263E-04-4.80505E-14
 -1       788 1.30242E-02-1.46481E-04-5.00575E-14
 -1       789 1.33080E-02-1.42903E-04-5.20818E-14
 -1       790 1.35924E-02-1.38351E-04-5.41207E-14
 -1       791 1.38394E-02-1.39647E-04-5.59105E-14
 -1       792 1.39523E-02 1.13606E-04-5.63742E-14
 -1       793 3.17908E-03 3.56492E-04-3.72053E-15
 -1       794 2.89304E-03 3.60023E-04-3.08297E-15
 -1       795 3.74994E-03 3.42654E-04-5.18123E-15
 -1       796 4.03472E-03 3.33659E-04-6.00417E-15
 -1       797 4.31908E-03 3.24259E-04-6.88905E-15
 -1       798 4.60315E-03 3.15425E-04-7.83144E-15
 -1       799 4.88728E-03 3.08454E-04-8.83350E-15
 -1       800 5.17219E-03 3.05097E-04-9.89380E-15
 -1       801 5.45932E-03 3.07732E-04-1.10079E-14
 -1       802 5.75118E-03 3.19628E-04-1.21751E-14
 -1       803 6.05186E-03 3.45432E-04-1.33940E-14
 -1       804 6.36721E-03 3.92159E-04-1.46653E-14
 -1       805 6.70504E-03 4.68986E-04-1.59897E-14
 -1       806 7.06921E-03 5.88577E-04-1.73672E-14
 -1       807 9.76549E-03 5.76427E-04-2.83788E-14
 -1       808 1.04472E-02 4.31303E-04-3.18963E-14
 -1       809 1.07563E-02 4.03527E-04-3.37124E-14
 -1       810 1.10532E-02 3.93615E-04-3.55670E-14
 -1       811 1.13430E-02 3.95543E-04-3.74611E-14
 -1       812 1.16292E-02 4.05271E-04-3.93925E-14
 -1       813 1.19137E-02 4.19926E-04-4.13552E-14
 -1       814 1.21977E-02 4.37434E-04-4.33479E-14
 -1       815 1.24817E-02 4.56311E-04-4.53647E-14
 -1       816 1.27660E-02 4.75527E-04-4.73958E-14
 -1       817 1.30505E-02 4.94398E-04-4.94331E-14
 -1       818 1.33354E-02 5.12503E-04-5.14703E-14
 -1       819 1.36205E-02 5.29604E-04-5.34997E-14
 -1       820 1.13847E-03 5.80584E-05-6.24399E-16
 -1       821 1.39263E-02-4.46635E-05-5.64047E-14
 -1       822 1.39634E-02 1.92301E-04-5.63539E-14
 -1       823 8.43280E-03-9.21233E-04-2.33713E-14
 -1       824 5.92803E-03 5.49595E-05-1.53735E-14
 -1       825 6.09020E-03 1.08765E-04-1.57374E-14
 -1       826 1.22495E-03-2.51438E-04-6.96901E-16
 -1       827 6.44668E-03-1.88859E-04-1.65455E-14
 -1       828 1.06966E-02 1.01309E-04-3.05971E-14
 -1       829 6.87697E-03-3.87158E-04-1.76127E-14
 -1       830 1.74606E-03 3.31713E-04-1.14566E-15
 -1       831 1.39398E-02 3.48404E-05-5.63889E-14
 -1       832 1.01186E-02 4.84997E-04-3.01210E-14
 -1       833 3.46472E-03 3.50485E-04-4.42008E-15
 -1       834 9.01338E-04-2.10686E-04-3.96909E-16
 -1       835 1.24654E-03 2.96927E-04-5.88241E-16
 -1       836 6.33666E-03 1.95786E-04-1.61859E-14
 -1       837 2.03304E-03 3.47474E-04-1.53886E-15
 -1       838 5.95991E-03 2.90496E-06-1.55711E-14
 -1       839 1.04965E-02-1.21374E-05-3.05268E-14
 -1       840 1.51055E-03-2.81232E-04-1.02329E-15
 -1       841 9.05463E-03 8.88035E-04-2.53618E-14
 -1       842 9.44826E-03 6.51295E-04-2.67398E-14
 -1       843 1.01875E-02-1.35339E-04-2.97990E-14
 -1       844 6.15472E-03-7.22361E-05-1.59362E-14
 -1       845 7.41940E-03 7.55724E-04-1.85372E-14
 -1       846 1.13706E-03 1.18543E-06-6.37084E-16
 -1       847 1.14267E-03 1.15909E-04-6.06618E-16
 -1       848 1.39884E-02 4.28774E-04-5.62569E-14
 -1       849 1.06765E-02 1.34886E-04-3.08962E-14
 -1       850 7.19421E-03-5.75334E-04-1.84002E-14
 -1       851 1.14964E-03-1.73487E-04-6.44755E-16
 -1       852 2.31996E-03 3.56540E-04-1.99170E-15
 -1       853 2.60666E-03 3.60341E-04-2.50667E-15
 -1       854 1.38414E-02 5.26010E-04-5.50898E-14
 -1       855 1.39812E-02 3.49014E-04-5.62945E-14
 -1       856 1.39730E-02 2.70475E-04-5.63286E-14
 -1       857 1.04226E-02 2.39266E-04-3.02880E-14
 -1       858 1.00241E-02 4.07367E-04-2.90261E-14
 -1       859 5.83643E-03 2.57695E-05-1.47970E-14
 -1       860 6.47658E-03 2.85778E-04-1.60694E-14
 -1       861 1.39891E-02 5.16725E-04-5.61621E-14
 -1       862 1.14233E-03-1.13320E-04-6.47452E-16
 -1       863 1.15019E-03 1.76318E-04-5.82433E-16
 -1       864 1.06599E-02 2.98960E-05-3.12365E-14
 -1       865 9.77508E-03-3.49366E-04-2.88160E-14
 -1       866 1.38830E-02-9.20249E-05-5.61575E-14
 -1       867 1.49598E-03 3.18675E-04-8.43435E-16
 -1       868 5.91621E-03-4.24017E-05-1.48236E-14
 -1       869 2.21675E-03-2.48763E-04-2.11393E-15
 -1       870 2.50443E-03-2.52803E-04-2.64776E-15
 -1       871 2.79145E-03-2.53323E-04-3.24109E-15
 -1       872 3.07744E-03-2.51058E-04-3.89386E-15
 -1       873 3.36213E-03-2.46605E-04-4.60540E-15
 -1       874 3.64525E-03-2.40462E-04-5.37404E-15
 -1       875 3.92661E-03-2.33089E-04-6.20023E-15
 -1       876 4.20601E-03-2.24959E-04-7.08229E-15
 -1       877 4.48341E-03-2.16615E-04-8.02027E-15
 -1       878 4.75888E-03-2.08729E-04-9.01423E-15
 -1       879 5.03286E-03-2.02158E-04-1.00644E-14
 -1       880 5.30631E-03-1.98048E-04-1.11704E-14
 -1       881 5.58118E-03-1.98052E-04-1.23305E-14
 -1       882 5.86090E-03-2.04767E-04-1.35415E-14
 -1       883 6.15166E-03-2.23095E-04-1.48014E-14
 -1       884 1.04805E-02-8.07517E-05-3.14459E-14
 -1       885 6.10308E-03 1.64078E-04-1.50575E-14
 -1       886 1.03994E-02-1.70678E-04-3.17857E-14
 -1       887 1.06927E-02-1.37868E-04-3.35855E-14
 -1       888 1.09737E-02-1.18101E-04-3.54197E-14
 -1       889 1.12489E-02-1.05804E-04-3.72894E-14
 -1       890 1.15219E-02-9.79723E-05-3.91930E-14
 -1       891 1.17950E-02-9.28122E-05-4.11185E-14
 -1       892 1.20693E-02-8.91334E-05-4.30700E-14
 -1       893 1.23452E-02-8.60861E-05-4.50504E-14
 -1       894 1.26228E-02-8.30580E-05-4.70452E-14
 -1       895 1.29021E-02-7.96262E-05-4.90540E-14
 -1       896 1.31828E-02-7.55225E-05-5.10681E-14
 -1       897 1.34648E-02-7.05821E-05-5.30957E-14
 -1       898 4.15633E-03 2.60674E-04-6.53473E-15
 -1       899 3.87566E-03 2.68953E-04-5.67888E-15
 -1       900 4.71201E-03 2.44510E-04-8.42123E-15
 -1       901 4.98714E-03 2.38482E-04-9.45262E-15
 -1       902 5.26118E-03 2.35523E-04-1.05402E-14
 -1       903 5.53557E-03 2.37438E-04-1.16813E-14
 -1       904 5.81317E-03 2.46874E-04-1.28755E-14
 -1       905 6.09934E-03 2.68218E-04-1.41209E-14
 -1       906 1.06936E-02 3.23452E-04-3.28775E-14
 -1       907 1.15257E-02 3.31211E-04-3.84939E-14
 -1       908 1.17997E-02 3.45347E-04-4.04352E-14
 -1       909 1.20750E-02 3.61948E-04-4.24093E-14
 -1       910 1.23520E-02 3.79847E-04-4.44112E-14
 -1       911 1.26306E-02 3.98183E-04-4.64318E-14
 -1       912 1.29108E-02 4.16347E-04-4.84637E-14
 -1       913 1.31922E-02 4.33936E-04-5.04989E-14
 -1       914 1.34748E-02 4.50711E-04-5.25285E-14
 -1       915 5.90060E-03 8.92740E-05-1.47031E-14
 -1       916 1.37146E-02 1.44543E-04-5.45987E-14
 -1       917 1.35570E-03-2.05923E-04-8.63086E-16
 -1       918 1.12518E-02 3.21128E-04-3.65845E-14
 -1       919 1.09758E-02 3.17362E-04-3.47120E-14
 -1       920 1.07878E-02 8.08061E-05-3.16641E-14
 -1       921 1.87571E-03 2.71117E-04-1.39001E-15
 -1       922 4.43513E-03 2.52255E-04-7.44905E-15
 -1       923 1.13830E-03-5.55437E-05-6.44816E-16
 -1       924 1.02831E-02 3.31485E-04-3.01992E-14
 -1       925 3.02424E-03 2.86797E-04-3.47505E-15
 -1       926 1.01331E-02-2.25027E-04-3.03592E-14
 -1       927 1.64157E-03-2.26382E-04-1.22091E-15
 -1       928 1.92890E-03-2.40305E-04-1.63818E-15
 -1       929 6.03088E-03-1.22163E-04-1.48193E-14
 -1       930 1.36884E-02-1.10098E-05-5.46252E-14
 -1       931 1.06297E-02 1.86912E-04-3.12441E-14
 -1       932 1.08198E-02 1.10055E-04-3.19707E-14
 -1       933 1.06612E-02-2.57791E-05-3.21666E-14
 -1       934 1.58851E-03 2.54251E-04-1.01789E-15
 -1       935 1.36734E-02-8.14221E-05-5.46206E-14
 -1       936 2.16340E-03 2.81664E-04-1.82050E-15
 -1       937 2.73802E-03 2.88547E-04-2.86252E-15
 -1       938 3.59329E-03 2.76438E-04-4.88314E-15
 -1       939 1.38076E-03 3.33942E-05-8.93891E-16
 -1       940 3.30941E-03 2.82566E-04-4.14878E-15
 -1       941 1.36944E-02 4.47311E-04-5.41160E-14
 -1       942 5.76137E-03 5.44374E-05-1.41439E-14
 -1       943 1.37023E-02 6.72143E-05-5.46136E-14
 -1       944 1.37402E-02 3.76796E-04-5.45158E-14
 -1       945 1.38406E-03 9.77830E-05-8.73738E-16
 -1       946 1.37249E-02 2.21430E-04-5.45760E-14
 -1       947 5.74993E-03-1.06757E-05-1.40721E-14
 -1       948 1.40160E-03 2.32770E-04-8.11298E-16
 -1       949 1.34659E-03-1.39248E-04-8.67928E-16
 -1       950 2.35146E-03-1.80766E-04-2.37522E-15
 -1       951 1.39083E-03 1.63997E-04-8.46576E-16
 -1       952 2.63891E-03-1.82406E-04-2.93708E-15
 -1       953 2.92527E-03-1.81640E-04-3.55830E-15
 -1       954 3.21003E-03-1.78953E-04-4.23835E-15
 -1       955 3.49276E-03-1.74738E-04-4.97642E-15
 -1       956 3.77306E-03-1.69326E-04-5.77107E-15
 -1       957 4.05055E-03-1.63020E-04-6.62239E-15
 -1       958 4.32487E-03-1.56122E-04-7.52983E-15
 -1       959 4.59574E-03-1.48964E-04-8.49236E-15
 -1       960 4.86294E-03-1.41920E-04-9.51280E-15
 -1       961 5.12649E-03-1.35430E-04-1.05902E-14
 -1       962 5.38683E-03-1.30047E-04-1.17245E-14
 -1       963 5.64520E-03-1.26790E-04-1.29111E-14
 -1       964 5.83822E-03-1.22625E-04-1.38509E-14
 -1       965 1.72127E-03 1.97227E-04-1.23814E-15
 -1       966 5.34092E-03 1.70708E-04-1.11903E-14
 -1       967 1.09226E-02-5.17940E-05-3.44785E-14
 -1       968 1.11803E-02-4.34967E-05-3.63315E-14
 -1       969 1.14395E-02-3.74798E-05-3.82209E-14
 -1       970 1.17015E-02-3.26589E-05-4.01367E-14
 -1       971 1.19669E-02-2.84470E-05-4.20805E-14
 -1       972 1.22356E-02-2.44238E-05-4.40479E-14
 -1       973 1.25075E-02-2.02585E-05-4.60353E-14
 -1       974 1.27823E-02-1.56996E-05-4.80407E-14
 -1       975 1.30594E-02-1.05777E-05-5.00557E-14
 -1       976 1.33386E-02-4.79401E-06-5.20763E-14
 -1       977 5.08028E-03 1.73508E-04-1.00735E-14
 -1       978 4.81577E-03 1.78409E-04-9.01354E-15
 -1       979 5.59848E-03 1.71022E-04-1.23610E-14
 -1       980 5.85577E-03 1.64554E-04-1.36823E-14
 -1       981 2.45097E-03 2.87122E-04-2.31144E-15
 -1       982 1.08761E-02 4.93569E-05-3.29392E-14
 -1       983 1.14307E-02 2.62086E-04-3.76034E-14
 -1       984 1.22266E-02 3.07716E-04-4.34633E-14
 -1       985 1.38064E-03-3.05703E-05-9.07287E-16
 -1       986 1.36246E-03-8.48547E-05-8.90086E-16
 -1       987 1.09159E-02 2.44001E-04-3.38583E-14
 -1       988 1.16923E-02 2.75805E-04-3.95256E-14
 -1       989 1.24988E-02 3.24616E-04-4.54669E-14
 -1       990 1.27739E-02 3.41487E-04-4.74882E-14
 -1       991 1.30514E-02 3.57989E-04-4.95190E-14
 -1       992 1.33310E-02 3.73908E-04-5.15517E-14
 -1       993 1.37334E-02 2.99019E-04-5.45464E-14
 -1       994 2.06353E-03-1.76125E-04-1.87144E-15
 -1       995 1.06690E-02 2.36361E-04-3.20543E-14
 -1       996 1.35354E-02 3.75664E-04-5.30327E-14
 -1       997 3.99944E-03 1.98307E-04-6.18234E-15
 -1       998 1.06689E-02-8.04910E-05-3.28736E-14
 -1       999 1.55562E-03 1.81187E-04-1.03317E-15
 -1      1000 1.77590E-03-1.67795E-04-1.42574E-15
 -1      1001 1.19577E-02 2.91249E-04-4.14791E-14
 -1      1002 1.11724E-02 2.51013E-04-3.57123E-14
 -1      1003 1.08198E-02 1.49353E-04-3.23277E-14
 -1      1004 5.78599E-03-6.02483E-05-1.39664E-14
 -1      1005 1.62649E-03 1.54761E-06-1.20963E-15
 -1      1006 2.87091E-03 2.16821E-04-3.22866E-15
 -1      1007 3.72080E-03 2.04712E-04-5.35379E-15
 -1      1008 1.09469E-02 8.33172E-05-3.32555E-14
 -1      1009 3.15615E-03 2.14398E-04-3.87667E-15
 -1      1010 1.35297E-02 2.98830E-04-5.30630E-14
 -1      1011 4.27507E-03 1.91441E-04-7.06859E-15
 -1      1012 5.63265E-03 2.03689E-05-1.34384E-14
 -1      1013 5.68202E-03 1.06156E-04-1.32487E-14
 -1      1014 1.62833E-03 7.12005E-05-1.18845E-15
 -1      1015 1.34780E-02 1.73965E-04-5.28252E-14
 -1      1016 1.34663E-02 9.83087E-05-5.28460E-14
 -1      1017 4.54730E-03 1.84613E-04-8.01097E-15
 -1      1018 2.00880E-03 2.07980E-04-1.64705E-15
 -1      1019 1.08942E-02-3.94007E-06-3.37586E-14
 -1      1020 1.08513E-02 1.97340E-04-3.30297E-14
 -1      1021 2.48881E-03-1.11760E-04-2.64004E-15
 -1      1022 2.77563E-03-1.11945E-04-3.22967E-15
 -1      1023 3.06086E-03-1.10740E-04-3.87726E-15
 -1      1024 3.34391E-03-1.08397E-04-4.58448E-15
 -1      1025 3.62424E-03-1.05126E-04-5.34832E-15
 -1      1026 3.90131E-03-1.01099E-04-6.16969E-15
 -1      1027 4.17456E-03-9.64618E-05-7.04699E-15
 -1      1028 4.44342E-03-9.13383E-05-7.97887E-15
 -1      1029 4.70724E-03-8.58398E-05-8.96820E-15
 -1      1030 4.96535E-03-8.00532E-05-1.00157E-14
 -1      1031 5.21696E-03-7.40114E-05-1.11211E-14
 -1      1032 5.46123E-03-6.77519E-05-1.22825E-14
 -1      1033 2.29672E-03 2.14284E-04-2.11449E-15
 -1      1034 1.11337E-02 1.27696E-06-3.55982E-14
 -1      1035 1.91333E-03-1.05809E-04-1.63692E-15
 -1      1036 1.13798E-02 6.06173E-06-3.74730E-14
 -1      1037 1.16320E-02 1.08236E-05-3.93831E-14
 -1      1038 1.18899E-02 1.57008E-05-4.13195E-14
 -1      1039 1.21528E-02 2.07678E-05-4.32818E-14
 -1      1040 1.24201E-02 2.61412E-05-4.52598E-14
 -1      1041 1.26912E-02 3.19166E-05-4.72582E-14
 -1      1042 1.29656E-02 3.81856E-05-4.92712E-14
 -1      1043 1.32425E-02 4.49499E-05-5.12921E-14
 -1      1044 5.17039E-03 1.14465E-04-1.06991E-14
 -1      1045 1.63682E-03-9.64339E-05-1.23598E-15
 -1      1046 4.91763E-03 1.17743E-04-9.60944E-15
 -1      1047 2.58428E-03 2.16986E-04-2.64118E-15
 -1      1048 1.23687E-02 2.55210E-04-4.45076E-14
 -1      1049 3.43958E-03 2.10216E-04-4.58523E-15
 -1      1050 1.26385E-02 2.70205E-04-4.65128E-14
 -1      1051 1.15879E-02 2.11989E-04-3.86167E-14
 -1      1052 1.29120E-02 2.85052E-04-4.85323E-14
 -1      1053 1.31883E-02 2.99564E-04-5.05609E-14
 -1      1054 1.11010E-02 1.87497E-04-3.48404E-14
 -1      1055 1.59081E-03 1.26365E-04-1.11188E-15
 -1      1056 2.20110E-03-1.09847E-04-2.10978E-15
 -1      1057 1.18425E-02 2.25802E-04-4.05522E-14
 -1      1058 1.35046E-02 2.36155E-04-5.29451E-14
 -1      1059 4.65819E-03 1.21861E-04-8.57756E-15
 -1      1060 1.33587E-02 2.99409E-04-5.18127E-14
 -1      1061 1.21030E-02 2.40310E-04-4.25186E-14
 -1      1062 5.41546E-03 1.12271E-04-1.18465E-14
 -1      1063 1.13403E-02 1.99134E-04-3.67112E-14
 -1      1064 5.57276E-03-3.29172E-05-1.29742E-14
 -1      1065 4.39299E-03 1.26481E-04-7.60540E-15
 -1      1066 2.71980E-03 1.46623E-04-2.98136E-15
 -1      1067 1.09929E-02 1.19196E-04-3.36197E-14
 -1      1068 1.10778E-02 5.80882E-05-3.46297E-14
 -1      1069 1.87749E-03 1.35272E-04-1.50339E-15
 -1      1070 3.00547E-03 1.45720E-04-3.60428E-15
 -1      1071 1.32319E-02 1.28062E-04-5.10784E-14
 -1      1072 4.12281E-03 1.31269E-04-6.68992E-15
 -1      1073 3.84834E-03 1.35881E-04-5.83110E-15
 -1      1074 1.32596E-02 1.88781E-04-5.11972E-14
 -1      1075 1.90250E-03-1.55147E-06-1.60454E-15
 -1      1076 1.17252E-02 1.65735E-04-3.96297E-14
 -1      1077 2.91475E-03-4.18807E-05-3.52327E-15
 -1      1078 3.19861E-03-4.10504E-05-4.19795E-15
 -1      1079 3.47978E-03-3.97713E-05-4.93154E-15
 -1      1080 3.75765E-03-3.80811E-05-5.72243E-15
 -1      1081 4.03148E-03-3.60442E-05-6.56960E-15
 -1      1082 4.30066E-03-3.36036E-05-7.47190E-15
 -1      1083 4.56432E-03-3.07707E-05-8.43178E-15
 -1      1084 4.82142E-03-2.74859E-05-9.44795E-15
 -1      1085 5.07054E-03-2.36773E-05-1.05227E-14
 -1      1086 5.31008E-03-1.90003E-05-1.16559E-14
 -1      1087 1.10490E-02 1.51132E-04-3.42287E-14
 -1      1088 5.02224E-03 6.27294E-05-1.02110E-14
 -1      1089 2.43272E-03 1.45741E-04-2.41982E-15
 -1      1090 1.15392E-02 6.17426E-05-3.83945E-14
 -1      1091 1.17877E-02 6.80907E-05-4.03252E-14
 -1      1092 1.20432E-02 7.49384E-05-4.22793E-14
 -1      1093 1.23050E-02 8.22863E-05-4.42494E-14
 -1      1094 1.25716E-02 9.00230E-05-4.62371E-14
 -1      1095 1.28426E-02 9.81214E-05-4.82454E-14
 -1      1096 1.25026E-02 2.02566E-04-4.55443E-14
 -1      1097 2.19009E-03-1.55646E-06-2.07066E-15
 -1      1098 2.15508E-03 1.41754E-04-1.93486E-15
 -1      1099 1.13019E-02 5.95804E-05-3.64934E-14
 -1      1100 1.30456E-02 2.27870E-04-4.95705E-14
 -1      1101 1.33097E-02 2.43698E-04-5.15052E-14
 -1      1102 4.77146E-03 6.41104E-05-9.14986E-15
 -1      1103 1.11482E-02 9.72771E-05-3.50043E-14
 -1      1104 1.27722E-02 2.15278E-04-4.75533E-14
 -1      1105 1.22376E-02 1.89982E-04-4.35547E-14
 -1      1106 5.56218E-03 5.43112E-05-1.29252E-14
 -1      1107 1.19781E-02 1.77614E-04-4.15808E-14
 -1      1108 1.94747E-03 8.27784E-05-1.63970E-15
 -1      1109 1.12750E-02 1.62196E-04-3.60857E-14
 -1      1110 2.62885E-03-4.21765E-05-2.90831E-15
 -1      1111 5.26374E-03 6.20593E-05-1.13311E-14
 -1      1112 2.40954E-03-2.17516E-05-2.47159E-15
 -1      1113 1.14808E-02 1.54270E-04-3.77073E-14
 -1      1114 5.40367E-03 1.33468E-05-1.21466E-14
 -1      1115 4.51283E-03 6.59209E-05-8.14788E-15
 -1      1116 3.57030E-03 1.40046E-04-5.02951E-15
 -1      1117 2.57138E-03 7.64732E-05-2.73560E-15
 -1      1118 1.28712E-02 1.56183E-04-4.83619E-14
 -1      1119 3.28916E-03 1.43419E-04-4.28745E-15
 -1      1120 4.24783E-03 6.80466E-05-7.20286E-15
 -1      1121 3.97750E-03 7.02915E-05-6.31469E-15
 -1      1122 2.85765E-03 7.65070E-05-3.33190E-15
 -1      1123 5.16106E-03 2.03009E-05-1.09259E-14
 -1      1124 1.12157E-02 1.28498E-04-3.55445E-14
 -1      1125 3.33907E-03 2.71503E-05-4.52084E-15
 -1      1126 3.61844E-03 2.67194E-05-5.28090E-15
 -1      1127 1.16789E-02 1.15861E-04-3.93228E-14
 -1      1128 1.14052E-02 1.06044E-04-3.71384E-14
 -1      1129 3.09910E-03 5.16330E-05-3.90432E-15
 -1      1130 2.28015E-03 6.06878E-05-2.20057E-15
 -1      1131 0.00000E+00 0.00000E+00 0.00000E+00
 -1      1132 0.00000E+00 0.00000E+00 0.00000E+00
 -1      1133 0.00000E+00 0.00000E+00 0.00000E+00
 -1      1134 0.00000E+00 0.00000E+00 0.00000E+00
 -1      1135 0.00000E+00 0.00000E+00 0.00000E+00
 -1      1136 0.00000E+00 0.00000E+00 0.00000E+00
 -1      1137 0.00000E+00 0.00000E+00 0.00000E+00
 -1      1138 0.00000E+00 0.00000E+00 0.00000E+00
 -1      1139 0.00000E+00 0.00000E+00 0.00000E+00
 -1      1140 0.00000E+00 0.00000E+00 0.00000E+00
 -1      1141 0.00000E+00 0.00000E+00 0.00000E+00
 -1      1142 0.00000E+00 0.00000E+00 0.00000E+00
 -1      1143 0.00000E+00 0.00000E+00 0.00000E+00
 -1      1144 0.00000E+00 0.00000E+00 0.00000E+00
 -1      1145 0.00000E+00 0.00000E+00 0.00000E+00
 -1      1146 0.00000E+00 0.00000E+00 0.00000E+00
 -1      1147 0.00000E+00 0.00000E+00 0.00000E+00
 -1      1148 2.11194E-04-1.48056E-04 6.91179E-18
 -1      1149 5.50351E-04-3.36633E-04-2.29986E-17
 -1      1150 8.31495E-04-4.57280E-04-1.16226E-16
 -1      1151 1.10047E-03-5.37829E-04-2.83072E-16
 -1      1152 1.36539E-03-5.93596E-04-5.20444E-16
 -1      1153 1.62987E-03-6.32399E-04-8.26027E-16
 -1      1154 1.89583E-03-6.58806E-04-1.19890E-15
 -1      1155 2.16429E-03-6.75852E-04-1.63914E-15
 -1      1156 2.43572E-03-6.85744E-04-2.14523E-15
 -1      1157 2.71040E-03-6.90148E-04-2.71586E-15
 -1      1158 2.98854E-03-6.90355E-04-3.35216E-15
 -1      1159 3.27037E-03-6.87402E-04-4.04951E-15
 -1      1160 3.55624E-03-6.82184E-04-4.80635E-15
 -1      1161 3.84665E-03-6.75574E-04-5.62217E-15
 -1      1162 4.14225E-03-6.68537E-04-6.49432E-15
 -1      1163 4.44388E-03-6.62271E-04-7.42143E-15
 -1      1164 4.75246E-03-6.58358E-04-8.40270E-15
 -1      1165 5.06891E-03-6.58911E-04-9.43681E-15
 -1      1166 5.39391E-03-6.66702E-04-1.05184E-14
 -1      1167 5.72749E-03-6.85174E-04-1.16493E-14
 -1      1168 6.06855E-03-7.18203E-04-1.28333E-14
 -1      1169 6.41418E-03-7.69389E-04-1.40766E-14
 -1      1170 6.75922E-03-8.40634E-04-1.53732E-14
 -1      1171 7.09631E-03-9.29974E-04-1.67215E-14
 -1      1172 7.41722E-03-1.02926E-03-1.81218E-14
 -1      1173 7.71575E-03-1.12320E-03-1.95659E-14
 -1      1174 7.99147E-03-1.19188E-03-2.10539E-14
 -1      1175 8.25190E-03-1.21728E-03-2.25851E-14
 -1      1176 8.51079E-03-1.19115E-03-2.41637E-14
 -1      1177 8.78258E-03-1.11907E-03-2.57879E-14
 -1      1178 9.07634E-03-1.01766E-03-2.74606E-14
 -1      1179 9.39314E-03-9.07068E-04-2.91746E-14
 -1      1180 9.72770E-03-8.03835E-04-3.09301E-14
 -1      1181 1.00719E-02-7.17544E-04-3.27154E-14
 -1      1182 1.04182E-02-6.51223E-04-3.45306E-14
 -1      1183 1.07609E-02-6.03543E-04-3.63754E-14
 -1      1184 1.10967E-02-5.71109E-04-3.82457E-14
 -1      1185 1.14243E-02-5.50039E-04-4.01464E-14
 -1      1186 1.17438E-02-5.36813E-04-4.20712E-14
 -1      1187 1.20557E-02-5.28587E-04-4.40127E-14
 -1      1188 1.23612E-02-5.23231E-04-4.59882E-14
 -1      1189 1.26613E-02-5.19232E-04-4.79893E-14
 -1      1190 1.29572E-02-5.15569E-04-5.00118E-14
 -1      1191 1.32498E-02-5.11585E-04-5.20546E-14
 -1      1192 1.35398E-02-5.06878E-04-5.41128E-14
 -1      1193 1.38280E-02-5.01223E-04-5.61737E-14
 -1      1194 1.41149E-02-4.94512E-04-5.82520E-14
 -1      1195 1.44010E-02-4.86732E-04-6.03502E-14
 -1      1196 1.46867E-02-4.77989E-04-6.24573E-14
 -1      1197 1.49651E-02-4.68870E-04-6.45298E-14
 -1      1198 2.27917E-04 1.60411E-04 1.91497E-17
 -1      1199 5.52515E-04 3.41255E-04 2.10877E-17
 -1      1200 8.32414E-04 4.59441E-04-2.91650E-17
 -1      1201 1.10136E-03 5.39510E-04-1.40255E-16
 -1      1202 1.36627E-03 5.95269E-04-3.13985E-16
 -1      1203 1.63079E-03 6.34154E-04-5.51073E-16
 -1      1204 1.89680E-03 6.60653E-04-8.52644E-16
 -1      1205 2.16528E-03 6.77794E-04-1.21664E-15
 -1      1206 2.43673E-03 6.87773E-04-1.64539E-15
 -1      1207 2.71141E-03 6.92245E-04-2.13948E-15
 -1      1208 2.98956E-03 6.92484E-04-2.70166E-15
 -1      1209 3.27142E-03 6.89506E-04-3.32964E-15
 -1      1210 3.55738E-03 6.84186E-04-4.02014E-15
 -1      1211 3.84798E-03 6.77364E-04-4.77483E-15
 -1      1212 4.14397E-03 6.69979E-04-5.59490E-15
 -1      1213 4.44631E-03 6.63211E-04-6.48680E-15
 -1      1214 4.75615E-03 6.58653E-04-7.44459E-15
 -1      1215 5.07471E-03 6.58507E-04-8.46567E-15
 -1      1216 5.40308E-03 6.65775E-04-9.54496E-15
 -1      1217 5.74179E-03 6.84370E-04-1.06768E-14
 -1      1218 6.09024E-03 7.19009E-04-1.18561E-14
 -1      1219 6.44588E-03 7.74563E-04-1.30896E-14
 -1      1220 6.80335E-03 8.54526E-04-1.43788E-14
 -1      1221 7.15426E-03 9.58322E-04-1.57264E-14
 -1      1222 7.48835E-03 1.07795E-03-1.71334E-14
 -1      1223 7.79695E-03 1.19586E-03-1.85906E-14
 -1      1224 8.07812E-03 1.28735E-03-2.00949E-14
 -1      1225 8.34030E-03 1.32896E-03-2.16433E-14
 -1      1226 8.60051E-03 1.30964E-03-2.32340E-14
 -1      1227 8.87672E-03 1.23683E-03-2.48735E-14
 -1      1228 9.17954E-03 1.13235E-03-2.65565E-14
 -1      1229 9.50903E-03 1.02158E-03-2.82797E-14
 -1      1230 9.85747E-03 9.23891E-04-3.00379E-14
 -1      1231 1.02146E-02 8.49087E-04-3.18219E-14
 -1      1232 1.05714E-02 7.98913E-04-3.36442E-14
 -1      1233 1.09220E-02 7.70425E-04-3.55154E-14
 -1      1234 1.12634E-02 7.58871E-04-3.74337E-14
 -1      1235 1.15948E-02 7.59455E-04-3.94077E-14
 -1      1236 1.19165E-02 7.68124E-04-4.14183E-14
 -1      1237 1.22298E-02 7.81769E-04-4.34504E-14
 -1      1238 1.25361E-02 7.98152E-04-4.54944E-14
 -1      1239 1.28367E-02 8.15738E-04-4.75475E-14
 -1      1240 1.31328E-02 8.33521E-04-4.95969E-14
 -1      1241 1.34254E-02 8.50869E-04-5.16373E-14
 -1      1242 1.37155E-02 8.67410E-04-5.36634E-14
 -1      1243 1.40037E-02 8.82943E-04-5.56818E-14
 -1      1244 1.42906E-02 8.97379E-04-5.76910E-14
 -1      1245 1.45767E-02 9.10722E-04-5.96883E-14
 -1      1246 1.48623E-02 9.23088E-04-6.16692E-14
 -1      1247 1.51408E-02 9.34538E-04-6.35845E-14
 -1      1248 1.52708E-02 8.97893E-04-6.45422E-14
 -1      1249 1.52594E-02 8.13483E-04-6.46388E-14
 -1      1250 1.52486E-02 7.29141E-04-6.47395E-14
 -1      1251 1.52387E-02 6.45199E-04-6.48392E-14
 -1      1252 1.52293E-02 5.61927E-04-6.49410E-14
 -1      1253 1.52204E-02 4.80143E-04-6.50430E-14
 -1      1254 1.52114E-02 3.99108E-04-6.51329E-14
 -1      1255 1.52020E-02 3.17971E-04-6.51968E-14
 -1      1256 1.51920E-02 2.37155E-04-6.52518E-14
 -1      1257 1.51813E-02 1.56336E-04-6.53056E-14
 -1      1258 1.51700E-02 7.51883E-05-6.53470E-14
 -1      1259 1.51584E-02-5.85998E-06-6.54001E-14
 -1      1260 1.51468E-02-8.76562E-05-6.54448E-14
 -1      1261 1.51354E-02-1.70937E-04-6.54779E-14
 -1      1262 1.51246E-02-2.54883E-04-6.55022E-14
 -1      1263 1.51147E-02-3.39216E-04-6.55280E-14
 -1      1264 1.51054E-02-4.22910E-04-6.55480E-14
 -1      1265 1.05350E-02 1.49106E-04-2.62564E-14
 -1      1266 1.04225E-02 2.98921E-04-2.60534E-14
 -1      1267 1.01983E-02 4.55406E-04-2.56855E-14
 -1      1268 9.89206E-03 6.08534E-04-2.51782E-14
 -1      1269 9.51787E-03 7.51816E-04-2.45354E-14
 -1      1270 9.10135E-03 8.67761E-04-2.38085E-14
 -1      1271 8.68790E-03 9.34637E-04-2.30845E-14
 -1      1272 8.25831E-03 9.49803E-04-2.23345E-14
 -1      1273 7.82768E-03 9.09037E-04-2.15952E-14
 -1      1274 7.41095E-03 8.19262E-04-2.09127E-14
 -1      1275 7.02636E-03 6.94971E-04-2.03129E-14
 -1      1276 6.67808E-03 5.47730E-04-1.97960E-14
 -1      1277 6.39230E-03 3.92894E-04-1.94014E-14
 -1      1278 6.19394E-03 2.38797E-04-1.91511E-14
 -1      1279 6.10347E-03 9.19799E-05-1.90605E-14
 -1      1280 6.12548E-03-5.27983E-05-1.91195E-14
 -1      1281 6.25456E-03-1.98430E-04-1.93261E-14
 -1      1282 6.48136E-03-3.47261E-04-1.96702E-14
 -1      1283 6.79104E-03-4.95637E-04-2.01479E-14
 -1      1284 7.17146E-03-6.34891E-04-2.07590E-14
 -1      1285 7.62570E-03-7.50042E-04-2.15214E-14
 -1      1286 8.08795E-03-8.10051E-04-2.23250E-14
 -1      1287 8.53749E-03-8.07883E-04-2.31136E-14
 -1      1288 8.99213E-03-7.43342E-04-2.39056E-14
 -1      1289 9.43357E-03-6.28481E-04-2.46623E-14
 -1      1290 9.82364E-03-4.84251E-04-2.52982E-14
 -1      1291 1.01487E-02-3.28117E-04-2.57843E-14
 -1      1292 1.03935E-02-1.67669E-04-2.61205E-14
 -1      1293 1.05285E-02-7.63250E-06-2.62862E-14
 -1      1294 1.66374E-04-1.10156E-04-3.29326E-18
 -1      1295 1.12439E-04-5.68841E-05-1.49078E-17
 -1      1296 1.17466E-04-6.74816E-05-1.16687E-17
 -1      1297 1.08397E-04-4.33981E-05-2.00984E-17
 -1      1298 1.10221E-04-4.95122E-05-1.84992E-17
 -1      1299 2.26167E-04-1.07376E-04-4.39102E-17
 -1      1300 1.06887E-04-3.35152E-05-2.28767E-17
 -1      1301 1.07704E-04-3.82429E-05-2.20635E-17
 -1      1302 2.19096E-04-8.22216E-05-5.30310E-17
 -1      1303 1.06147E-04-2.52410E-05-2.45572E-17
 -1      1304 1.06562E-04-2.92705E-05-2.41642E-17
 -1      1305 2.15984E-04-6.30260E-05-5.83436E-17
 -1      1306 1.05762E-04-1.79944E-05-2.50857E-17
 -1      1307 1.05982E-04-2.15522E-05-2.50315E-17
 -1      1308 2.14381E-04-4.69415E-05-6.11490E-17
 -1      1309 1.05556E-04-1.11691E-05-2.52484E-17
 -1      1310 1.05674E-04-1.45369E-05-2.52890E-17
 -1      1311 2.13500E-04-3.25485E-05-6.21383E-17
 -1      1312 1.05463E-04-4.65785E-06-2.49638E-17
 -1      1313 1.05513E-04-7.88859E-06-2.50722E-17
 -1      1314 2.13023E-04-1.90546E-05-6.20706E-17
 -1      1315 1.05453E-04 1.72965E-06-2.44488E-17
 -1      1316 1.05451E-04-1.45936E-06-2.46656E-17
 -1      1317 2.12817E-04-6.11419E-06-6.13387E-17
 -1      1318 1.05522E-04 8.16885E-06-2.37847E-17
 -1      1319 1.05468E-04 4.93148E-06-2.39609E-17
 -1      1320 2.12825E-04 6.65809E-06-6.00784E-17
 -1      1321 1.05690E-04 1.48430E-05-2.30257E-17
 -1      1322 1.05568E-04 1.14602E-05-2.32426E-17
 -1      1323 2.13049E-04 1.96250E-05-5.83165E-17
 -1      1324 1.06005E-04 2.18436E-05-2.13859E-17
 -1      1325 1.05780E-04 1.82621E-05-2.18331E-17
 -1      1326 2.13542E-04 3.30601E-05-5.57009E-17
 -1      1327 1.06598E-04 2.97076E-05-1.93124E-17
 -1      1328 1.06176E-04 2.56331E-05-2.00442E-17
 -1      1329 2.14445E-04 4.75492E-05-5.17707E-17
 -1      1330 1.07739E-04 3.88162E-05-1.60462E-17
 -1      1331 1.06914E-04 3.40198E-05-1.72930E-17
 -1      1332 2.16082E-04 6.39525E-05-4.63090E-17
 -1      1333 1.10207E-04 5.02550E-05-1.09640E-17
 -1      1334 1.08408E-04 4.40689E-05-1.31188E-17
 -1      1335 2.19203E-04 8.34604E-05-3.80013E-17
 -1      1336 1.16782E-04 6.75203E-05-3.13063E-18
 -1      1337 1.12085E-04 5.76858E-05-6.96600E-18
 -1      1338 2.26160E-04 1.09201E-04-2.59124E-17
 -1      1339 1.57256E-04 1.09675E-04 8.99888E-18
 -1      1340 1.35436E-04 8.59571E-05 1.59920E-18
 -1      1341 2.55670E-04 1.51790E-04-1.13435E-17
 -1      1342 3.34394E-04 2.20281E-04 9.06664E-18
 -1      1343 4.20699E-04-2.61115E-04-2.97207E-17
 -1      1344 5.73495E-04-3.35808E-04-6.12303E-17
 -1      1345 7.20404E-04-3.95984E-04-1.12079E-16
 -1      1346 8.63314E-04-4.44785E-04-1.80615E-16
 -1      1347 6.11101E-04-3.29762E-04-1.05059E-16
 -1      1348 1.00311E-03-4.85285E-04-2.65955E-16
 -1      1349 1.14074E-03-5.18619E-04-3.68778E-16
 -1      1350 9.03940E-04-4.29457E-04-2.46737E-16
 -1      1351 1.27707E-03-5.46642E-04-4.88785E-16
 -1      1352 1.41258E-03-5.69828E-04-6.26086E-16
 -1      1353 1.18609E-03-4.97550E-04-4.56178E-16
 -1      1354 1.54774E-03-5.89226E-04-7.79989E-16
 -1      1355 1.68281E-03-6.05164E-04-9.50520E-16
 -1      1356 1.46289E-03-5.44593E-04-7.32975E-16
 -1      1357 1.81805E-03-6.18254E-04-1.13765E-15
 -1      1358 1.95358E-03-6.28782E-04-1.34127E-15
 -1      1359 1.73769E-03-5.76681E-04-1.07581E-15
 -1      1360 2.08955E-03-6.37132E-04-1.56155E-15
 -1      1361 2.22603E-03-6.43552E-04-1.79868E-15
 -1      1362 2.01244E-03-5.97697E-04-1.48457E-15
 -1      1363 2.36309E-03-6.48296E-04-2.05197E-15
 -1      1364 2.50077E-03-6.51572E-04-2.32069E-15
 -1      1365 2.28828E-03-6.10358E-04-1.95826E-15
 -1      1366 2.63915E-03-6.53555E-04-2.60607E-15
 -1      1367 2.77823E-03-6.54419E-04-2.90741E-15
 -1      1368 2.56590E-03-6.16648E-04-2.49662E-15
 -1      1369 2.91807E-03-6.54288E-04-3.22424E-15
 -1      1370 3.05869E-03-6.53313E-04-3.55774E-15
 -1      1371 2.84575E-03-6.18058E-04-3.09822E-15
 -1      1372 3.20016E-03-6.51582E-04-3.90543E-15
 -1      1373 3.34249E-03-6.49236E-04-4.26769E-15
 -1      1374 3.12820E-03-6.15737E-04-3.76195E-15
 -1      1375 3.48576E-03-6.46347E-04-4.64596E-15
 -1      1376 3.63002E-03-6.43054E-04-5.03875E-15
 -1      1377 3.41361E-03-6.10624E-04-4.48602E-15
 -1      1378 3.77534E-03-6.39430E-04-5.44536E-15
 -1      1379 3.92178E-03-6.35629E-04-5.86652E-15
 -1      1380 3.70238E-03-6.03558E-04-5.26986E-15
 -1      1381 4.06944E-03-6.31742E-04-6.30172E-15
 -1      1382 4.21840E-03-6.27953E-04-6.75126E-15
 -1      1383 3.99501E-03-5.95407E-04-6.11017E-15
 -1      1384 4.36876E-03-6.24393E-04-7.21471E-15
 -1      1385 4.52060E-03-6.21290E-04-7.69058E-15
 -1      1386 4.29206E-03-5.87202E-04-7.00719E-15
 -1      1387 4.67404E-03-6.18842E-04-8.18052E-15
 -1      1388 4.82916E-03-6.17334E-04-8.68435E-15
 -1      1389 4.59417E-03-5.80290E-04-7.95932E-15
 -1      1390 4.98604E-03-6.17061E-04-9.19959E-15
 -1      1391 5.14475E-03-6.18373E-04-9.72787E-15
 -1      1392 4.90197E-03-5.76499E-04-8.96372E-15
 -1      1393 5.30531E-03-6.21686E-04-1.02690E-14
 -1      1394 5.46773E-03-6.27405E-04-1.08219E-14
 -1      1395 5.21600E-03-5.78306E-04-1.00196E-14
 -1      1396 5.63196E-03-6.36077E-04-1.13873E-14
 -1      1397 5.79786E-03-6.48127E-04-1.19653E-14
 -1      1398 5.53647E-03-5.88944E-04-1.11250E-14
 -1      1399 5.96524E-03-6.64188E-04-1.25565E-14
 -1      1400 6.13381E-03-6.84623E-04-1.31636E-14
 -1      1401 5.86310E-03-6.12347E-04-1.22809E-14
 -1      1402 6.30318E-03-7.10014E-04-1.37842E-14
 -1      1403 6.47283E-03-7.40500E-04-1.44174E-14
 -1      1404 6.19474E-03-6.52742E-04-1.34919E-14
 -1      1405 6.64217E-03-7.76348E-04-1.50664E-14
 -1      1406 6.81047E-03-8.17229E-04-1.57267E-14
 -1      1407 6.52908E-03-7.13610E-04-1.47599E-14
 -1      1408 6.97700E-03-8.62712E-04-1.64002E-14
 -1      1409 7.14096E-03-9.11732E-04-1.70876E-14
 -1      1410 6.86256E-03-7.95783E-04-1.60806E-14
 -1      1411 7.30164E-03-9.62805E-04-1.77854E-14
 -1      1412 7.45845E-03-1.01399E-03-1.84963E-14
 -1      1413 7.19059E-03-8.94822E-04-1.74522E-14
 -1      1414 7.61102E-03-1.06276E-03-1.92189E-14
 -1      1415 7.75933E-03-1.10658E-03-1.99512E-14
 -1      1416 7.50864E-03-9.98695E-04-1.88717E-14
 -1      1417 7.90363E-03-1.14252E-03-2.06954E-14
 -1      1418 8.04469E-03-1.16826E-03-2.14498E-14
 -1      1419 7.81414E-03-1.08795E-03-2.03373E-14
 -1      1420 8.18344E-03-1.18168E-03-2.22156E-14
 -1      1421 8.32128E-03-1.18172E-03-2.29939E-14
 -1      1422 8.10856E-03-1.14054E-03-2.18469E-14
 -1      1423 8.45948E-03-1.16817E-03-2.37823E-14
 -1      1424 8.59949E-03-1.14174E-03-2.45820E-14
 -1      1425 8.39798E-03-1.14074E-03-2.34005E-14
 -1      1426 8.74237E-03-1.10423E-03-2.53945E-14
 -1      1427 8.88903E-03-1.05778E-03-2.62186E-14
 -1      1428 8.69079E-03-1.08693E-03-2.50006E-14
 -1      1429 9.03988E-03-1.00526E-03-2.70537E-14
 -1      1430 9.19504E-03-9.49237E-04-2.78981E-14
 -1      1431 8.99382E-03-9.92464E-04-2.66469E-14
 -1      1432 9.35425E-03-8.92406E-04-2.87552E-14
 -1      1433 9.51701E-03-8.36853E-04-2.96218E-14
 -1      1434 9.30950E-03-8.78858E-04-2.83357E-14
 -1      1435 9.68265E-03-7.84290E-04-3.04969E-14
 -1      1436 9.85039E-03-7.35956E-04-3.13811E-14
 -1      1437 9.63594E-03-7.66630E-04-3.00652E-14
 -1      1438 1.00195E-02-6.92473E-04-3.22749E-14
 -1      1439 1.01892E-02-6.54295E-04-3.31747E-14
 -1      1440 9.96885E-03-6.69429E-04-3.18327E-14
 -1      1441 1.03589E-02-6.21257E-04-3.40805E-14
 -1      1442 1.05280E-02-5.93294E-04-3.49953E-14
 -1      1443 1.03036E-02-5.93069E-04-3.36321E-14
 -1      1444 1.06961E-02-5.69858E-04-3.59180E-14
 -1      1445 1.08629E-02-5.50618E-04-3.68473E-14
 -1      1446 1.06363E-02-5.37537E-04-3.54611E-14
 -1      1447 1.10281E-02-5.34934E-04-3.77835E-14
 -1      1448 1.11916E-02-5.22391E-04-3.87279E-14
 -1      1449 1.09646E-02-4.99694E-04-3.73216E-14
 -1      1450 1.13534E-02-5.12418E-04-3.96773E-14
 -1      1451 1.15134E-02-5.04610E-04-4.06359E-14
 -1      1452 1.12871E-02-4.75360E-04-3.92081E-14
 -1      1453 1.16716E-02-4.98525E-04-4.15981E-14
 -1      1454 1.18282E-02-4.93814E-04-4.25625E-14
 -1      1455 1.16034E-02-4.60517E-04-4.11224E-14
 -1      1456 1.19832E-02-4.90165E-04-4.35381E-14
 -1      1457 1.21367E-02-4.87298E-04-4.45196E-14
 -1      1458 1.19138E-02-4.51824E-04-4.30612E-14
 -1      1459 1.22888E-02-4.85009E-04-4.55039E-14
 -1      1460 1.24397E-02-4.83085E-04-4.64982E-14
 -1      1461 1.22189E-02-4.46739E-04-4.50201E-14
 -1      1462 1.25895E-02-4.81400E-04-4.74983E-14
 -1      1463 1.27382E-02-4.79801E-04-4.85028E-14
 -1      1464 1.25194E-02-4.43444E-04-4.70083E-14
 -1      1465 1.28860E-02-4.78218E-04-4.95132E-14
 -1      1466 1.30330E-02-4.76542E-04-5.05288E-14
 -1      1467 1.28161E-02-4.40701E-04-4.90157E-14
 -1      1468 1.31793E-02-4.74741E-04-5.15502E-14
 -1      1469 1.33250E-02-4.72740E-04-5.25733E-14
 -1      1470 1.31098E-02-4.37715E-04-5.10447E-14
 -1      1471 1.34701E-02-4.70529E-04-5.35995E-14
 -1      1472 1.36147E-02-4.68061E-04-5.46304E-14
 -1      1473 1.34010E-02-4.33999E-04-5.30914E-14
 -1      1474 1.37590E-02-4.65337E-04-5.56638E-14
 -1      1475 1.39029E-02-4.62328E-04-5.66959E-14
 -1      1476 1.36903E-02-4.29280E-04-5.51492E-14
 -1      1477 1.40465E-02-4.59044E-04-5.77361E-14
 -1      1478 1.41899E-02-4.55471E-04-5.87815E-14
 -1      1479 1.39783E-02-4.23422E-04-5.72222E-14
 -1      1480 1.43331E-02-4.51625E-04-5.98272E-14
 -1      1481 1.44762E-02-4.47506E-04-6.08775E-14
 -1      1482 1.42653E-02-4.16388E-04-5.93055E-14
 -1      1483 1.46191E-02-4.43149E-04-6.19303E-14
 -1      1484 1.47620E-02-4.38580E-04-6.29878E-14
 -1      1485 1.45516E-02-4.08229E-04-6.14049E-14
 -1      1486 1.49696E-02-4.27439E-04-6.45296E-14
 -1      1487 1.49023E-02-3.92706E-04-6.39945E-14
 -1      1488 6.41759E-04 3.70837E-04-1.71033E-17
 -1      1489 4.91937E-04 3.02903E-04 3.22550E-18
 -1      1490 4.44102E-04 2.65199E-04-1.19533E-17
 -1      1491 9.26804E-04 4.69825E-04-1.02051E-16
 -1      1492 7.86200E-04 4.24858E-04-5.22450E-17
 -1      1493 7.43479E-04 3.89186E-04-7.19504E-17
 -1      1494 1.20125E-03 5.37950E-04-2.47794E-16
 -1      1495 1.06479E-03 5.06962E-04-1.66981E-16
 -1      1496 1.02913E-03 4.73503E-04-1.90684E-16
 -1      1497 1.47150E-03 5.85459E-04-4.55175E-16
 -1      1498 1.33658E-03 5.63897E-04-3.43787E-16
 -1      1499 1.30678E-03 5.31848E-04-3.69943E-16
 -1      1500 1.74094E-03 6.18190E-04-7.25738E-16
 -1      1501 1.60615E-03 6.03435E-04-5.82352E-16
 -1      1502 1.58092E-03 5.72220E-04-6.10826E-16
 -1      1503 2.01138E-03 6.39918E-04-1.05986E-15
 -1      1504 1.87594E-03 6.30260E-04-8.84804E-16
 -1      1505 1.85426E-03 5.99502E-04-9.14375E-16
 -1      1506 2.28378E-03 6.53295E-04-1.45733E-15
 -1      1507 2.14729E-03 6.47521E-04-1.25087E-15
 -1      1508 2.12835E-03 6.16979E-04-1.28131E-15
 -1      1509 2.55869E-03 6.60276E-04-1.91935E-15
 -1      1510 2.42090E-03 6.57483E-04-1.68001E-15
 -1      1511 2.40406E-03 6.26998E-04-1.71202E-15
 -1      1512 2.83646E-03 6.62338E-04-2.44691E-15
 -1      1513 2.69720E-03 6.61840E-04-2.17495E-15
 -1      1514 2.68194E-03 6.31300E-04-2.20670E-15
 -1      1515 3.11741E-03 6.60623E-04-3.04109E-15
 -1      1516 2.97652E-03 6.61882E-04-2.73596E-15
 -1      1517 2.96238E-03 6.31199E-04-2.76745E-15
 -1      1518 3.40188E-03 6.56059E-04-3.69922E-15
 -1      1519 3.25918E-03 6.58631E-04-3.36189E-15
 -1      1520 3.24575E-03 6.27726E-04-3.39213E-15
 -1      1521 3.69032E-03 6.49475E-04-4.42113E-15
 -1      1522 3.54557E-03 6.52950E-04-4.05214E-15
 -1      1523 3.53245E-03 6.21738E-04-4.08091E-15
 -1      1524 3.98333E-03 6.41719E-04-5.20753E-15
 -1      1525 3.83622E-03 6.45663E-04-4.80602E-15
 -1      1526 3.82297E-03 6.14043E-04-4.83458E-15
 -1      1527 4.28168E-03 6.33800E-04-6.06125E-15
 -1      1528 4.13179E-03 6.37679E-04-5.62564E-15
 -1      1529 4.11791E-03 6.05527E-04-5.65289E-15
 -1      1530 4.58627E-03 6.27041E-04-6.98302E-15
 -1      1531 4.43313E-03 6.30144E-04-6.51378E-15
 -1      1532 4.41802E-03 5.97305E-04-6.53855E-15
 -1      1533 4.89813E-03 6.23279E-04-7.96860E-15
 -1      1534 4.74123E-03 6.24614E-04-7.46823E-15
 -1      1535 4.72412E-03 5.90898E-04-7.48858E-15
 -1      1536 5.21820E-03 6.25061E-04-9.01459E-15
 -1      1537 5.05708E-03 6.23260E-04-8.48468E-15
 -1      1538 5.03707E-03 5.88440E-04-8.50151E-15
 -1      1539 5.54716E-03 6.35840E-04-1.01164E-14
 -1      1540 5.38154E-03 6.29068E-04-9.55899E-15
 -1      1541 5.35759E-03 5.92896E-04-9.57162E-15
 -1      1542 5.88497E-03 6.60025E-04-1.12696E-14
 -1      1543 5.71498E-03 6.45981E-04-1.06863E-14
 -1      1544 5.68602E-03 6.08219E-04-1.06948E-14
 -1      1545 6.23034E-03 7.02706E-04-1.24726E-14
 -1      1546 6.05683E-03 6.78820E-04-1.18645E-14
 -1      1547 6.02199E-03 6.39305E-04-1.18695E-14
 -1      1548 6.58014E-03 7.68669E-04-1.37325E-14
 -1      1549 6.40495E-03 7.32698E-04-1.30952E-14
 -1      1550 6.36394E-03 6.91458E-04-1.30997E-14
 -1      1551 6.92899E-03 8.60318E-04-1.50463E-14
 -1      1552 6.75512E-03 8.11526E-04-1.43826E-14
 -1      1553 6.70874E-03 7.68950E-04-1.43831E-14
 -1      1554 7.26957E-03 9.74417E-04-1.64192E-14
 -1      1555 7.10086E-03 9.15304E-04-1.57255E-14
 -1      1556 7.05149E-03 8.72325E-04-1.57228E-14
 -1      1557 7.59435E-03 1.09868E-03-1.78488E-14
 -1      1558 7.43441E-03 1.03658E-03-1.71268E-14
 -1      1559 7.38612E-03 9.94717E-04-1.71187E-14
 -1      1560 7.89878E-03 1.21096E-03-1.93236E-14
 -1      1561 7.74922E-03 1.15793E-03-1.85800E-14
 -1      1562 7.70713E-03 1.11896E-03-1.85678E-14
 -1      1563 8.18486E-03 1.28453E-03-2.08486E-14
 -1      1564 8.04367E-03 1.25390E-03-2.00807E-14
 -1      1565 8.01252E-03 1.21905E-03-2.00656E-14
 -1      1566 8.46215E-03 1.29915E-03-2.24153E-14
 -1      1567 8.32372E-03 1.29955E-03-2.16266E-14
 -1      1568 8.30632E-03 1.26864E-03-2.16087E-14
 -1      1569 8.74432E-03 1.25184E-03-2.40274E-14
 -1      1570 8.60171E-03 1.28237E-03-2.32151E-14
 -1      1571 8.59802E-03 1.25376E-03-2.31946E-14
 -1      1572 9.04274E-03 1.15852E-03-2.56852E-14
 -1      1573 8.89098E-03 1.20928E-03-2.48507E-14
 -1      1574 8.89818E-03 1.18078E-03-2.48263E-14
 -1      1575 9.36175E-03 1.04534E-03-2.73853E-14
 -1      1576 9.19968E-03 1.10276E-03-2.65301E-14
 -1      1577 9.21318E-03 1.07272E-03-2.65030E-14
 -1      1578 9.69847E-03 9.36681E-04-2.91241E-14
 -1      1579 9.52829E-03 9.89345E-04-2.82496E-14
 -1      1580 9.54317E-03 9.57155E-04-2.82187E-14
 -1      1581 1.00458E-02 8.47891E-04-3.08931E-14
 -1      1582 9.87134E-03 8.89361E-04-3.00056E-14
 -1      1583 9.88363E-03 8.55253E-04-2.99711E-14
 -1      1584 1.03963E-02 7.84519E-04-3.26957E-14
 -1      1585 1.02211E-02 8.13058E-04-3.17901E-14
 -1      1586 1.02285E-02 7.77649E-04-3.17557E-14
 -1      1587 1.07437E-02 7.45425E-04-3.45403E-14
 -1      1588 1.05707E-02 7.62206E-04-3.36116E-14
 -1      1589 1.05722E-02 7.26151E-04-3.35766E-14
 -1      1590 1.10845E-02 7.26236E-04-3.64307E-14
 -1      1591 1.09151E-02 7.33676E-04-3.54799E-14
 -1      1592 1.09112E-02 6.97508E-04-3.54431E-14
 -1      1593 1.14168E-02 7.21814E-04-3.83733E-14
 -1      1594 1.12518E-02 7.22487E-04-3.73953E-14
 -1      1595 1.12432E-02 6.86566E-04-3.73542E-14
 -1      1596 1.17405E-02 7.27518E-04-4.03578E-14
 -1      1597 1.15797E-02 7.23649E-04-3.93601E-14
 -1      1598 1.15676E-02 6.88180E-04-3.93135E-14
 -1      1599 1.20562E-02 7.39657E-04-4.23719E-14
 -1      1600 1.18993E-02 7.32969E-04-4.13624E-14
 -1      1601 1.18846E-02 6.98043E-04-4.13060E-14
 -1      1602 1.23649E-02 7.55516E-04-4.44083E-14
 -1      1603 1.22113E-02 7.47253E-04-4.33891E-14
 -1      1604 1.21949E-02 7.12881E-04-4.33260E-14
 -1      1605 1.26677E-02 7.73200E-04-4.64539E-14
 -1      1606 1.25169E-02 7.64219E-04-4.54295E-14
 -1      1607 1.24994E-02 7.30365E-04-4.53652E-14
 -1      1608 1.29658E-02 7.91448E-04-4.85028E-14
 -1      1609 1.28172E-02 7.82311E-04-4.74786E-14
 -1      1610 1.27991E-02 7.48919E-04-4.74106E-14
 -1      1611 1.32602E-02 8.09459E-04-5.05496E-14
 -1      1612 1.31134E-02 8.00519E-04-4.95271E-14
 -1      1613 1.30950E-02 7.67521E-04-4.94569E-14
 -1      1614 1.35517E-02 8.26751E-04-5.25826E-14
 -1      1615 1.34063E-02 8.18216E-04-5.15678E-14
 -1      1616 1.33878E-02 7.85548E-04-5.14984E-14
 -1      1617 1.38411E-02 8.43054E-04-5.46097E-14
 -1      1618 1.36967E-02 8.35037E-04-5.35967E-14
 -1      1619 1.36783E-02 8.02638E-04-5.35303E-14
 -1      1620 1.41290E-02 8.58239E-04-5.66224E-14
 -1      1621 1.39852E-02 8.50790E-04-5.56171E-14
 -1      1622 1.39671E-02 8.18607E-04-5.55494E-14
 -1      1623 1.44158E-02 8.72270E-04-5.86245E-14
 -1      1624 1.42725E-02 8.65396E-04-5.76254E-14
 -1      1625 1.42546E-02 8.33382E-04-5.75600E-14
 -1      1626 1.47019E-02 8.85198E-04-6.06151E-14
 -1      1627 1.45589E-02 8.78863E-04-5.96212E-14
 -1      1628 1.45412E-02 8.46976E-04-5.95579E-14
 -1      1629 1.49877E-02 8.97220E-04-6.25871E-14
 -1      1630 1.48448E-02 8.91300E-04-6.16032E-14
 -1      1631 1.48273E-02 8.59496E-04-6.15363E-14
 -1      1632 1.51350E-02 8.92392E-04-6.36171E-14
 -1      1633 1.51329E-02 7.87541E-04-6.38116E-14
 -1      1634 1.51385E-02 8.29654E-04-6.37619E-14
 -1      1635 1.51224E-02 7.03523E-04-6.39026E-14
 -1      1636 1.51275E-02 7.45486E-04-6.38572E-14
 -1      1637 1.50065E-02 7.61598E-04-6.29770E-14
 -1      1638 1.51127E-02 6.19970E-04-6.39991E-14
 -1      1639 1.51174E-02 6.61675E-04-6.39506E-14
 -1      1640 1.49962E-02 6.77833E-04-6.30653E-14
 -1      1641 1.51036E-02 5.37043E-04-6.40910E-14
 -1      1642 1.51081E-02 5.78422E-04-6.40478E-14
 -1      1643 1.49868E-02 5.94582E-04-6.31546E-14
 -1      1644 1.50949E-02 4.56185E-04-6.41848E-14
 -1      1645 1.50992E-02 4.96533E-04-6.41379E-14
 -1      1646 1.49780E-02 5.12635E-04-6.32425E-14
 -1      1647 1.50858E-02 3.74541E-04-6.42579E-14
 -1      1648 1.50904E-02 4.15294E-04-6.42240E-14
 -1      1649 1.49693E-02 4.31285E-04-6.33193E-14
 -1      1650 1.50763E-02 2.93344E-04-6.43165E-14
 -1      1651 1.50811E-02 3.33900E-04-6.42881E-14
 -1      1652 1.49602E-02 3.49754E-04-6.33833E-14
 -1      1653 1.50661E-02 2.12349E-04-6.43693E-14
 -1      1654 1.50713E-02 2.52837E-04-6.43440E-14
 -1      1655 1.49506E-02 2.68567E-04-6.34384E-14
 -1      1656 1.50552E-02 1.31281E-04-6.44185E-14
 -1      1657 1.50608E-02 1.71840E-04-6.43975E-14
 -1      1658 1.49402E-02 1.87497E-04-6.34894E-14
 -1      1659 1.50437E-02 4.98758E-05-6.44625E-14
 -1      1660 1.50495E-02 9.06345E-05-6.44389E-14
 -1      1661 1.49291E-02 1.06302E-04-6.35339E-14
 -1      1662 1.50321E-02-3.06796E-05-6.45058E-14
 -1      1663 1.50380E-02 9.67263E-06-6.44850E-14
 -1      1664 1.49175E-02 2.54509E-05-6.35734E-14
 -1      1665 1.50204E-02-1.13279E-04-6.45435E-14
 -1      1666 1.50262E-02-7.18940E-05-6.45273E-14
 -1      1667 1.49057E-02-5.59095E-05-6.36116E-14
 -1      1668 1.50090E-02-1.96541E-04-6.45728E-14
 -1      1669 1.50146E-02-1.54832E-04-6.45595E-14
 -1      1670 1.48939E-02-1.38569E-04-6.36435E-14
 -1      1671 1.49984E-02-2.80357E-04-6.45941E-14
 -1      1672 1.50036E-02-2.38392E-04-6.45845E-14
 -1      1673 1.48826E-02-2.21832E-04-6.36667E-14
 -1      1674 1.49478E-02-3.57563E-04-6.42994E-14
 -1      1675 1.49526E-02-3.15478E-04-6.42906E-14
 -1      1676 1.48314E-02-2.98656E-04-6.33728E-14
 -1      1677 1.47401E-02-3.68715E-04-6.27642E-14
 -1      1678 1.05294E-02 1.44670E-04-2.66226E-14
 -1      1679 1.05626E-02 1.00709E-04-2.66854E-14
 -1      1680 1.03631E-02 2.59515E-04-2.63148E-14
 -1      1681 1.04539E-02 2.06518E-04-2.64545E-14
 -1      1682 1.00637E-02 4.01301E-04-2.58934E-14
 -1      1683 1.02160E-02 3.27023E-04-2.61304E-14
 -1      1684 9.72507E-03 5.74384E-04-2.52808E-14
 -1      1685 9.88328E-03 4.98860E-04-2.55529E-14
 -1      1686 9.30724E-03 7.56542E-04-2.45430E-14
 -1      1687 9.50434E-03 6.67438E-04-2.49206E-14
 -1      1688 8.93454E-03 9.02652E-04-2.37353E-14
 -1      1689 9.10400E-03 8.45239E-04-2.40825E-14
 -1      1690 8.55789E-03 9.84700E-04-2.29313E-14
 -1      1691 8.73311E-03 9.54786E-04-2.33090E-14
 -1      1692 8.18514E-03 9.91118E-04-2.21174E-14
 -1      1693 8.35481E-03 9.99441E-04-2.24878E-14
 -1      1694 7.80379E-03 9.13266E-04-2.13211E-14
 -1      1695 7.98085E-03 9.59128E-04-2.16835E-14
 -1      1696 7.41584E-03 7.75037E-04-2.06129E-14
 -1      1697 7.59194E-03 8.44403E-04-2.09285E-14
 -1      1698 7.03694E-03 6.06783E-04-1.99920E-14
 -1      1699 7.21080E-03 6.86967E-04-2.02680E-14
 -1      1700 6.68065E-03 4.23842E-04-1.94350E-14
 -1      1701 6.84608E-03 5.04235E-04-1.96637E-14
 -1      1702 6.36856E-03 2.80155E-04-1.90831E-14
 -1      1703 6.49858E-03 3.46694E-04-1.92406E-14
 -1      1704 6.15933E-03 1.55174E-04-1.88549E-14
 -1      1705 6.24244E-03 2.09916E-04-1.89406E-14
 -1      1706 6.08202E-03 5.56665E-05-1.87952E-14
 -1      1707 6.10098E-03 9.87129E-05-1.88014E-14
 -1      1708 6.14087E-03-4.07843E-05-1.88619E-14
 -1      1709 6.09518E-03 5.01246E-06-1.87936E-14
 -1      1710 6.32026E-03-1.58334E-04-1.91499E-14
 -1      1711 6.22529E-03-1.04720E-04-1.90176E-14
 -1      1712 6.60989E-03-3.04262E-04-1.95605E-14
 -1      1713 6.46162E-03-2.31842E-04-1.93493E-14
 -1      1714 6.95832E-03-4.68318E-04-2.00925E-14
 -1      1715 6.79421E-03-3.91551E-04-1.98343E-14
 -1      1716 7.37438E-03-6.43686E-04-2.07750E-14
 -1      1717 7.17993E-03-5.58782E-04-2.04269E-14
 -1      1718 7.81374E-03-7.98069E-04-2.16167E-14
 -1      1719 7.61838E-03-7.33648E-04-2.12120E-14
 -1      1720 8.20544E-03-8.63645E-04-2.24943E-14
 -1      1721 8.03043E-03-8.44333E-04-2.21057E-14
 -1      1722 8.59965E-03-8.36222E-04-2.33532E-14
 -1      1723 8.41684E-03-8.58208E-04-2.29582E-14
 -1      1724 8.99245E-03-7.27258E-04-2.42409E-14
 -1      1725 8.80644E-03-7.90518E-04-2.38478E-14
 -1      1726 9.42807E-03-5.55184E-04-2.50231E-14
 -1      1727 9.23449E-03-6.39854E-04-2.46633E-14
 -1      1728 9.82281E-03-3.77499E-04-2.56623E-14
 -1      1729 9.64925E-03-4.59443E-04-2.53848E-14
 -1      1730 1.01668E-02-2.05304E-04-2.61842E-14
 -1      1731 1.00126E-02-2.80481E-04-2.59711E-14
 -1      1732 1.04289E-02-7.06307E-05-2.64927E-14
 -1      1733 1.03230E-02-1.30821E-04-2.63647E-14
 -1      1734 1.05588E-02 4.63559E-05-2.66764E-14
 -1      1735 1.05172E-02-1.88459E-06-2.66388E-14
 -1      1736 9.54426E-03 5.86617E-04-2.53045E-14
 -1      1737 9.93489E-03 3.93142E-04-2.60129E-14
 -1      1738 1.51176E-02 8.60605E-04-6.35557E-14
 -1      1739 1.49910E-02 8.34522E-04-6.27269E-14
 -1      1740 1.04947E-02 1.42704E-04-2.69030E-14
 -1      1741 1.02663E-02 2.43984E-04-2.65463E-14
 -1      1742 1.05715E-02 7.56943E-05-2.70631E-14
 -1      1743 9.15494E-03 7.87077E-04-2.44758E-14
 -1      1744 8.79092E-03 9.42305E-04-2.35851E-14
 -1      1745 8.44546E-03 1.01794E-03-2.27127E-14
 -1      1746 8.10684E-03 9.97843E-04-2.18343E-14
 -1      1747 7.75242E-03 8.83640E-04-2.10102E-14
 -1      1748 7.37638E-03 7.10047E-04-2.02765E-14
 -1      1749 6.99758E-03 5.09712E-04-1.96091E-14
 -1      1750 6.62988E-03 3.30411E-04-1.90955E-14
 -1      1751 6.31794E-03 1.97164E-04-1.87641E-14
 -1      1752 6.12657E-03 1.02749E-04-1.85715E-14
 -1      1753 6.07928E-03 3.38528E-05-1.85173E-14
 -1      1754 6.18234E-03-3.58957E-05-1.86707E-14
 -1      1755 6.41559E-03-1.46003E-04-1.90233E-14
 -1      1756 6.74436E-03-2.96419E-04-1.94927E-14
 -1      1757 7.13676E-03-4.81464E-04-2.00967E-14
 -1      1758 7.56013E-03-6.81885E-04-2.08615E-14
 -1      1759 7.95055E-03-8.38710E-04-2.17822E-14
 -1      1760 8.30807E-03-8.87707E-04-2.27337E-14
 -1      1761 8.67164E-03-8.30873E-04-2.36929E-14
 -1      1762 9.04907E-03-6.76065E-04-2.46137E-14
 -1      1763 9.47319E-03-4.74442E-04-2.54015E-14
 -1      1764 9.87277E-03-2.75737E-04-2.60771E-14
 -1      1765 1.02225E-02-1.16023E-04-2.65740E-14
 -1      1766 1.04747E-02-3.83418E-07-2.69061E-14
 -1      1767 2.84743E-04-1.75871E-04-2.66849E-17
 -1      1768 3.32193E-04-1.16309E-04-8.40528E-17
 -1      1769 3.36200E-04-1.32511E-04-7.90519E-17
 -1      1770 3.42036E-04-1.51511E-04-7.31430E-17
 -1      1771 3.51458E-04-1.73509E-04-6.44694E-17
 -1      1772 4.58163E-04-1.87286E-04-1.15088E-16
 -1      1773 3.24819E-04-6.49616E-05-9.39326E-17
 -1      1774 3.25932E-04-7.62257E-05-9.27264E-17
 -1      1775 3.23375E-04-4.35608E-05-9.50168E-17
 -1      1776 3.24009E-04-5.39976E-05-9.46780E-17
 -1      1777 4.36850E-04-7.86889E-05-1.39157E-16
 -1      1778 3.22611E-04-2.35759E-05-9.44476E-17
 -1      1779 3.22935E-04-3.34181E-05-9.47999E-17
 -1      1780 4.34896E-04-5.08772E-05-1.39943E-16
 -1      1781 3.22325E-04-4.29994E-06-9.32278E-17
 -1      1782 3.22419E-04-1.38707E-05-9.39732E-17
 -1      1783 4.33892E-04-2.46934E-05-1.39130E-16
 -1      1784 3.22445E-04 1.48545E-05-9.13034E-17
 -1      1785 3.22333E-04 5.27339E-06-9.24960E-17
 -1      1786 4.33598E-04 7.51067E-07-1.37152E-16
 -1      1787 3.23000E-04 3.44564E-05-8.83896E-17
 -1      1788 3.22656E-04 2.45810E-05-8.98939E-17
 -1      1789 4.33952E-04 2.62250E-05-1.34021E-16
 -1      1790 3.24098E-04 5.47820E-05-8.38766E-17
 -1      1791 3.23453E-04 4.44706E-05-8.65329E-17
 -1      1792 4.35014E-04 5.22737E-05-1.29237E-16
 -1      1793 3.26093E-04 7.73626E-05-7.77915E-17
 -1      1794 3.24931E-04 6.58116E-05-8.11661E-17
 -1      1795 4.37029E-04 7.99939E-05-1.22596E-16
 -1      1796 3.29670E-04 1.03171E-04-6.88197E-17
 -1      1797 3.27585E-04 8.98311E-05-7.39019E-17
 -1      1798 4.40590E-04 1.10860E-04-1.13150E-16
 -1      1799 3.36526E-04 1.34624E-04-5.54976E-17
 -1      1800 3.32443E-04 1.18127E-04-6.30057E-17
 -1      1801 4.46899E-04 1.46578E-04-9.95704E-17
 -1      1802 3.51987E-04 1.77099E-04-3.57109E-17
 -1      1803 3.42637E-04 1.54268E-04-4.65665E-17
 -1      1804 4.59172E-04 1.90674E-04-7.96618E-17
 -1      1805 4.07094E-04 2.33064E-04-2.10742E-17
 -1      1806 3.77652E-04 2.02104E-04-3.04119E-17
 -1      1807 4.95396E-04 2.43137E-04-6.09728E-17
 -1      1808 5.57732E-04 3.01503E-04-4.51299E-17
 -1      1809 3.39564E-04-1.90437E-04-4.69053E-17
 -1      1810 8.52391E-04 4.05150E-04-1.37192E-16
 -1      1811 7.06158E-04 3.57928E-04-8.40663E-17
 -1      1812 6.72623E-04 3.27445E-04-9.41630E-17
 -1      1813 4.58448E-04-2.35966E-04-8.38630E-17
 -1      1814 8.06312E-04-3.72292E-04-2.25704E-16
 -1      1815 9.51462E-04-4.12892E-04-3.15638E-16
 -1      1816 1.09421E-03-4.46905E-04-4.22202E-16
 -1      1817 1.23583E-03-4.75033E-04-5.45408E-16
 -1      1818 1.00323E-03-3.95215E-04-3.87196E-16
 -1      1819 1.37623E-03-4.98639E-04-6.85040E-16
 -1      1820 1.51596E-03-5.18018E-04-8.41314E-16
 -1      1821 1.28889E-03-4.51630E-04-6.36644E-16
 -1      1822 1.65522E-03-5.34069E-04-1.01370E-15
 -1      1823 1.79424E-03-5.47027E-04-1.20229E-15
 -1      1824 1.57145E-03-4.90570E-04-9.50994E-16
 -1      1825 1.93322E-03-5.57476E-04-1.40713E-15
 -1      1826 2.07224E-03-5.65618E-04-1.62807E-15
 -1      1827 1.85245E-03-5.16552E-04-1.32987E-15
 -1      1828 2.21147E-03-5.71848E-04-1.86506E-15
 -1      1829 2.35094E-03-5.76334E-04-2.11818E-15
 -1      1830 2.13308E-03-5.32806E-04-1.77239E-15
 -1      1831 2.49078E-03-5.79352E-04-2.38730E-15
 -1      1832 2.63101E-03-5.81043E-04-2.67196E-15
 -1      1833 2.41415E-03-5.41681E-04-2.27851E-15
 -1      1834 2.77170E-03-5.81601E-04-2.97273E-15
 -1      1835 2.91288E-03-5.81147E-04-3.28862E-15
 -1      1836 2.69622E-03-5.44916E-04-2.84770E-15
 -1      1837 3.05462E-03-5.79822E-04-3.62014E-15
 -1      1838 3.19695E-03-5.77734E-04-3.96613E-15
 -1      1839 2.97972E-03-5.43825E-04-3.47896E-15
 -1      1840 3.33991E-03-5.74991E-04-4.32708E-15
 -1      1841 3.48357E-03-5.71698E-04-4.70407E-15
 -1      1842 3.26501E-03-5.39429E-04-4.16999E-15
 -1      1843 3.62795E-03-5.67953E-04-5.09522E-15
 -1      1844 3.77314E-03-5.63865E-04-5.50021E-15
 -1      1845 3.55244E-03-5.32584E-04-4.92110E-15
 -1      1846 3.91916E-03-5.59543E-04-5.91924E-15
 -1      1847 4.06612E-03-5.55113E-04-6.35300E-15
 -1      1848 3.84236E-03-5.24104E-04-5.72970E-15
 -1      1849 4.21403E-03-5.50720E-04-6.80134E-15
 -1      1850 4.36301E-03-5.46520E-04-7.26311E-15
 -1      1851 4.13518E-03-5.14881E-04-6.59551E-15
 -1      1852 4.51308E-03-5.42718E-04-7.73807E-15
 -1      1853 4.66438E-03-5.39519E-04-8.22674E-15
 -1      1854 4.43136E-03-5.06041E-04-7.51783E-15
 -1      1855 4.81691E-03-5.37213E-04-8.72890E-15
 -1      1856 4.97079E-03-5.36068E-04-9.24323E-15
 -1      1857 4.73143E-03-4.99098E-04-8.49414E-15
 -1      1858 5.12604E-03-5.36491E-04-9.77033E-15
 -1      1859 5.28273E-03-5.38821E-04-1.03106E-14
 -1      1860 5.03593E-03-4.96133E-04-9.52270E-15
 -1      1861 5.44090E-03-5.43590E-04-1.08631E-14
 -1      1862 5.60049E-03-5.51214E-04-1.14280E-14
 -1      1863 5.34545E-03-4.99946E-04-1.06012E-14
 -1      1864 5.76161E-03-5.62319E-04-1.20059E-14
 -1      1865 5.92398E-03-5.77372E-04-1.25969E-14
 -1      1866 5.66049E-03-5.14142E-04-1.17308E-14
 -1      1867 6.08782E-03-5.96996E-04-1.32023E-14
 -1      1868 6.25251E-03-6.21617E-04-1.38216E-14
 -1      1869 5.98142E-03-5.42999E-04-1.29136E-14
 -1      1870 6.41840E-03-6.51647E-04-1.44544E-14
 -1      1871 6.58446E-03-6.87277E-04-1.51012E-14
 -1      1872 6.30816E-03-5.90923E-04-1.41515E-14
 -1      1873 6.75113E-03-7.28381E-04-1.57608E-14
 -1      1874 6.91703E-03-7.74577E-04-1.64335E-14
 -1      1875 6.63983E-03-6.61144E-04-1.54419E-14
 -1      1876 7.08253E-03-8.24830E-04-1.71190E-14
 -1      1877 7.24622E-03-8.77795E-04-1.78161E-14
 -1      1878 6.97406E-03-7.53387E-04-1.67869E-14
 -1      1879 7.40821E-03-9.31311E-04-1.85259E-14
 -1      1880 7.56764E-03-9.82901E-04-1.92470E-14
 -1      1881 7.30673E-03-8.60704E-04-1.81810E-14
 -1      1882 7.72426E-03-1.02956E-03-1.99794E-14
 -1      1883 7.87854E-03-1.06825E-03-2.07220E-14
 -1      1884 7.63269E-03-9.66847E-04-1.96220E-14
 -1      1885 8.02988E-03-1.09612E-03-2.14779E-14
 -1      1886 8.18035E-03-1.11085E-03-2.22433E-14
 -1      1887 7.94862E-03-1.04757E-03-2.11082E-14
 -1      1888 8.32915E-03-1.11112E-03-2.30187E-14
 -1      1889 8.47922E-03-1.09667E-03-2.38076E-14
 -1      1890 8.25639E-03-1.07873E-03-2.26384E-14
 -1      1891 8.62974E-03-1.06843E-03-2.46066E-14
 -1      1892 8.78308E-03-1.02835E-03-2.54179E-14
 -1      1893 8.56327E-03-1.04869E-03-2.42139E-14
 -1      1894 8.93858E-03-9.79069E-04-2.62409E-14
 -1      1895 9.09702E-03-9.23636E-04-2.70733E-14
 -1      1896 8.87722E-03-9.65341E-04-2.58342E-14
 -1      1897 9.25804E-03-8.65125E-04-2.79171E-14
 -1      1898 9.42105E-03-8.06168E-04-2.87715E-14
 -1      1899 9.20136E-03-8.51300E-04-2.74999E-14
 -1      1900 9.58609E-03-7.49138E-04-2.96366E-14
 -1      1901 9.75178E-03-6.95626E-04-3.05089E-14
 -1      1902 9.53314E-03-7.31648E-04-2.92075E-14
 -1      1903 9.91846E-03-6.46885E-04-3.13913E-14
 -1      1904 1.00847E-02-6.03456E-04-3.22839E-14
 -1      1905 9.86757E-03-6.24501E-04-3.09529E-14
 -1      1906 1.02510E-02-5.65614E-04-3.31825E-14
 -1      1907 1.04162E-02-5.33252E-04-3.40883E-14
 -1      1908 1.02002E-02-5.38553E-04-3.27323E-14
 -1      1909 1.05807E-02-5.06034E-04-3.50047E-14
 -1      1910 1.07438E-02-4.83560E-04-3.59273E-14
 -1      1911 1.05283E-02-4.75121E-04-3.45476E-14
 -1      1912 1.09057E-02-4.65226E-04-3.68580E-14
 -1      1913 1.10662E-02-4.50569E-04-3.77959E-14
 -1      1914 1.08507E-02-4.31437E-04-3.63950E-14
 -1      1915 1.12253E-02-4.38950E-04-3.87389E-14
 -1      1916 1.13829E-02-4.29944E-04-3.96902E-14
 -1      1917 1.11674E-02-4.03200E-04-3.82702E-14
 -1      1918 1.15392E-02-4.22999E-04-4.06472E-14
 -1      1919 1.16942E-02-4.17765E-04-4.16097E-14
 -1      1920 1.14787E-02-3.86052E-04-4.01716E-14
 -1      1921 1.18479E-02-4.13818E-04-4.25816E-14
 -1      1922 1.20004E-02-4.10888E-04-4.35576E-14
 -1      1923 1.17851E-02-3.76264E-04-4.21015E-14
 -1      1924 1.21517E-02-4.08672E-04-4.45395E-14
 -1      1925 1.23021E-02-4.06971E-04-4.55258E-14
 -1      1926 1.20872E-02-3.70934E-04-4.40538E-14
 -1      1927 1.24515E-02-4.05585E-04-4.65169E-14
 -1      1928 1.26001E-02-4.04371E-04-4.75168E-14
 -1      1929 1.23857E-02-3.67947E-04-4.60305E-14
 -1      1930 1.27479E-02-4.03206E-04-4.85214E-14
 -1      1931 1.28950E-02-4.01992E-04-4.95298E-14
 -1      1932 1.26812E-02-3.65843E-04-4.80265E-14
 -1      1933 1.30414E-02-4.00659E-04-5.05436E-14
 -1      1934 1.31873E-02-3.99141E-04-5.15626E-14
 -1      1935 1.29743E-02-3.63666E-04-5.00434E-14
 -1      1936 1.33327E-02-3.97406E-04-5.25849E-14
 -1      1937 1.34777E-02-3.95409E-04-5.36091E-14
 -1      1938 1.32653E-02-3.60827E-04-5.20770E-14
 -1      1939 1.36222E-02-3.93142E-04-5.46369E-14
 -1      1940 1.37665E-02-3.90576E-04-5.56700E-14
 -1      1941 1.35547E-02-3.56986E-04-5.41271E-14
 -1      1942 1.39104E-02-3.87717E-04-5.67060E-14
 -1      1943 1.40542E-02-3.84546E-04-5.77441E-14
 -1      1944 1.38430E-02-3.51973E-04-5.61884E-14
 -1      1945 1.41977E-02-3.81080E-04-5.87881E-14
 -1      1946 1.43410E-02-3.77310E-04-5.98331E-14
 -1      1947 1.41303E-02-3.45726E-04-5.82679E-14
 -1      1948 1.44691E-02-3.75372E-04-6.07685E-14
 -1      1949 1.46122E-02-3.71079E-04-6.18202E-14
 -1      1950 1.46578E-02-3.36092E-04-6.21231E-14
 -1      1951 1.44018E-02-3.40349E-04-6.02458E-14
 -1      1952 1.13718E-03 4.76827E-04-2.87625E-16
 -1      1953 9.95530E-04 4.44263E-04-2.04792E-16
 -1      1954 9.63449E-04 4.14907E-04-2.16949E-16
 -1      1955 1.41619E-03 5.26627E-04-4.98638E-16
 -1      1956 1.27707E-03 5.04072E-04-3.85380E-16
 -1      1957 1.24780E-03 4.76048E-04-3.98620E-16
 -1      1958 1.69267E-03 5.60754E-04-7.70963E-16
 -1      1959 1.55456E-03 5.45408E-04-6.27116E-16
 -1      1960 1.52811E-03 5.18364E-04-6.41075E-16
 -1      1961 1.96866E-03 5.83288E-04-1.10604E-15
 -1      1962 1.83063E-03 5.73304E-04-9.30747E-16
 -1      1963 1.80664E-03 5.46911E-04-9.45085E-16
 -1      1964 2.24537E-03 5.97079E-04-1.50487E-15
 -1      1965 2.10687E-03 5.91154E-04-1.29738E-15
 -1      1966 2.08491E-03 5.65176E-04-1.31163E-15
 -1      1967 2.52355E-03 6.04203E-04-1.96632E-15
 -1      1968 2.38424E-03 6.01382E-04-1.72762E-15
 -1      1969 2.36387E-03 5.75654E-04-1.74113E-15
 -1      1970 2.80370E-03 6.06205E-04-2.49264E-15
 -1      1971 2.66335E-03 6.05772E-04-2.22116E-15
 -1      1972 2.64417E-03 5.80174E-04-2.23385E-15
 -1      1973 3.08622E-03 6.04261E-04-3.08389E-15
 -1      1974 2.94464E-03 6.05667E-04-2.78033E-15
 -1      1975 2.92627E-03 5.80107E-04-2.79137E-15
 -1      1976 3.37150E-03 5.99306E-04-3.73863E-15
 -1      1977 3.22850E-03 6.02107E-04-3.40328E-15
 -1      1978 3.21057E-03 5.76507E-04-3.41251E-15
 -1      1979 3.65996E-03 5.92155E-04-4.45800E-15
 -1      1980 3.51530E-03 5.95952E-04-4.09021E-15
 -1      1981 3.49743E-03 5.70237E-04-4.09784E-15
 -1      1982 3.95209E-03 5.83622E-04-5.24153E-15
 -1      1983 3.80552E-03 5.88001E-04-4.84129E-15
 -1      1984 3.78730E-03 5.62084E-04-4.84652E-15
 -1      1985 4.24850E-03 5.74658E-04-6.09082E-15
 -1      1986 4.09971E-03 5.79117E-04-5.65799E-15
 -1      1987 4.08065E-03 5.52895E-04-5.66046E-15
 -1      1988 4.54990E-03 5.66522E-04-7.00483E-15
 -1      1989 4.39851E-03 5.70385E-04-6.54002E-15
 -1      1990 4.37807E-03 5.43720E-04-6.53958E-15
 -1      1991 4.85703E-03 5.60966E-04-7.98337E-15
 -1      1992 4.70267E-03 5.63284E-04-7.48621E-15
 -1      1993 4.68020E-03 5.35994E-04-7.48171E-15
 -1      1994 5.17064E-03 5.60457E-04-9.01993E-15
 -1      1995 5.01296E-03 5.59898E-04-8.49430E-15
 -1      1996 4.98776E-03 5.31740E-04-8.48615E-15
 -1      1997 5.49130E-03 5.68390E-04-1.01127E-14
 -1      1998 5.33004E-03 5.63137E-04-9.55959E-15
 -1      1999 5.30140E-03 5.33796E-04-9.54687E-15
 -1      2000 5.81923E-03 5.89186E-04-1.12593E-14
 -1      2001 5.65436E-03 5.76909E-04-1.06796E-14
 -1      2002 5.62168E-03 5.46002E-04-1.06629E-14
 -1      2003 6.15394E-03 6.28112E-04-1.24586E-14
 -1      2004 5.98584E-03 6.06109E-04-1.18520E-14
 -1      2005 5.94884E-03 5.73224E-04-1.18325E-14
 -1      2006 6.49391E-03 6.90432E-04-1.37116E-14
 -1      2007 6.32351E-03 6.56162E-04-1.30783E-14
 -1      2008 6.28257E-03 6.20977E-04-1.30561E-14
 -1      2009 6.83619E-03 7.79479E-04-1.50188E-14
 -1      2010 6.66518E-03 7.31680E-04-1.43586E-14
 -1      2011 6.62161E-03 6.94211E-04-1.43325E-14
 -1      2012 7.17626E-03 8.93383E-04-1.63825E-14
 -1      2013 7.00706E-03 8.33862E-04-1.56940E-14
 -1      2014 6.96324E-03 7.94831E-04-1.56640E-14
 -1      2015 7.50860E-03 1.02115E-03-1.78022E-14
 -1      2016 7.34393E-03 9.56704E-04-1.70843E-14
 -1      2017 7.30299E-03 9.17851E-04-1.70507E-14
 -1      2018 7.82864E-03 1.14077E-03-1.92702E-14
 -1      2019 7.67037E-03 1.08364E-03-1.85299E-14
 -1      2020 7.63523E-03 1.04749E-03-1.84908E-14
 -1      2021 8.13584E-03 1.22345E-03-2.07877E-14
 -1      2022 7.98344E-03 1.18825E-03-2.00231E-14
 -1      2023 7.95574E-03 1.15698E-03-1.99803E-14
 -1      2024 8.43588E-03 1.24545E-03-2.23486E-14
 -1      2025 8.28581E-03 1.24257E-03-2.15630E-14
 -1      2026 8.26559E-03 1.21649E-03-2.15167E-14
 -1      2027 8.73851E-03 1.20123E-03-2.39557E-14
 -1      2028 8.58589E-03 1.23082E-03-2.31467E-14
 -1      2029 8.57241E-03 1.20798E-03-2.30965E-14
 -1      2030 9.05190E-03 1.10668E-03-2.56069E-14
 -1      2031 8.89333E-03 1.15857E-03-2.47752E-14
 -1      2032 8.88586E-03 1.13621E-03-2.47229E-14
 -1      2033 9.37855E-03 9.89861E-04-2.73006E-14
 -1      2034 9.21362E-03 1.04938E-03-2.64488E-14
 -1      2035 9.21119E-03 1.02558E-03-2.63939E-14
 -1      2036 9.71554E-03 8.77213E-04-2.90312E-14
 -1      2037 9.54618E-03 9.31943E-04-2.81607E-14
 -1      2038 9.54708E-03 9.06162E-04-2.81029E-14
 -1      2039 1.00575E-02 7.85275E-04-3.07978E-14
 -1      2040 9.88639E-03 8.28271E-04-2.99115E-14
 -1      2041 9.88831E-03 8.00869E-04-2.98500E-14
 -1      2042 1.03993E-02 7.19931E-04-3.25974E-14
 -1      2043 1.02288E-02 7.49351E-04-3.16926E-14
 -1      2044 1.02295E-02 7.20913E-04-3.16290E-14
 -1      2045 1.07372E-02 6.79943E-04-3.44395E-14
 -1      2046 1.05690E-02 6.97056E-04-3.35129E-14
 -1      2047 1.05670E-02 6.68063E-04-3.34468E-14
 -1      2048 1.10691E-02 6.60672E-04-3.63227E-14
 -1      2049 1.09040E-02 6.68051E-04-3.53755E-14
 -1      2050 1.08986E-02 6.38846E-04-3.53076E-14
 -1      2051 1.13941E-02 6.56699E-04-3.82548E-14
 -1      2052 1.12325E-02 6.57069E-04-3.72822E-14
 -1      2053 1.12236E-02 6.27879E-04-3.72096E-14
 -1      2054 1.17121E-02 6.63150E-04-4.02254E-14
 -1      2055 1.15539E-02 6.58853E-04-3.92366E-14
 -1      2056 1.15420E-02 6.29825E-04-3.91580E-14
 -1      2057 1.20236E-02 6.76163E-04-4.22265E-14
 -1      2058 1.18686E-02 6.69003E-04-4.12228E-14
 -1      2059 1.18542E-02 6.40223E-04-4.11395E-14
 -1      2060 1.23295E-02 6.92908E-04-4.42546E-14
 -1      2061 1.21772E-02 6.84183E-04-4.32383E-14
 -1      2062 1.21609E-02 6.55694E-04-4.31507E-14
 -1      2063 1.26306E-02 7.11423E-04-4.62930E-14
 -1      2064 1.24806E-02 7.02019E-04-4.52721E-14
 -1      2065 1.24629E-02 6.73830E-04-4.51805E-14
 -1      2066 1.29278E-02 7.30414E-04-4.83381E-14
 -1      2067 1.27796E-02 7.20906E-04-4.73159E-14
 -1      2068 1.27610E-02 6.93007E-04-4.72213E-14
 -1      2069 1.32217E-02 7.49067E-04-5.03840E-14
 -1      2070 1.30751E-02 7.39810E-04-4.93612E-14
 -1      2071 1.30559E-02 7.12177E-04-4.92652E-14
 -1      2072 1.35132E-02 7.66900E-04-5.24206E-14
 -1      2073 1.33677E-02 7.58100E-04-5.14047E-14
 -1      2074 1.33482E-02 7.30704E-04-5.13091E-14
 -1      2075 1.38028E-02 7.83651E-04-5.44483E-14
 -1      2076 1.36582E-02 7.75416E-04-5.34352E-14
 -1      2077 1.36385E-02 7.48227E-04-5.33417E-14
 -1      2078 1.40910E-02 7.99199E-04-5.64632E-14
 -1      2079 1.39471E-02 7.91576E-04-5.54553E-14
 -1      2080 1.39273E-02 7.64563E-04-5.53620E-14
 -1      2081 1.43781E-02 8.13519E-04-5.84690E-14
 -1      2082 1.42347E-02 8.06510E-04-5.74694E-14
 -1      2083 1.42149E-02 7.79647E-04-5.73761E-14
 -1      2084 1.46646E-02 8.26665E-04-6.04592E-14
 -1      2085 1.45214E-02 8.20231E-04-5.94663E-14
 -1      2086 1.45017E-02 7.93494E-04-5.93766E-14
 -1      2087 1.48993E-02 8.33718E-04-6.20889E-14
 -1      2088 1.47564E-02 8.27685E-04-6.11014E-14
 -1      2089 1.47367E-02 8.01031E-04-6.10126E-14
 -1      2090 1.49202E-02 8.02844E-04-6.22945E-14
 -1      2091 1.48610E-02 5.69021E-04-6.23091E-14
 -1      2092 1.48655E-02 6.10439E-04-6.22676E-14
 -1      2093 1.48702E-02 6.52018E-04-6.22257E-14
 -1      2094 1.48750E-02 6.93728E-04-6.21844E-14
 -1      2095 1.47442E-02 6.26051E-04-6.13815E-14
 -1      2096 1.48948E-02 7.27246E-04-6.22594E-14
 -1      2097 1.49001E-02 7.69176E-04-6.22164E-14
 -1      2098 1.48084E-02 7.68302E-04-6.15762E-14
 -1      2099 1.47686E-02 7.01130E-04-6.14198E-14
 -1      2100 1.48524E-02 4.88023E-04-6.23873E-14
 -1      2101 1.48567E-02 5.28447E-04-6.23493E-14
 -1      2102 1.47354E-02 5.44003E-04-6.14586E-14
 -1      2103 1.48437E-02 4.06197E-04-6.24552E-14
 -1      2104 1.48481E-02 4.47045E-04-6.24229E-14
 -1      2105 1.47269E-02 4.62573E-04-6.15272E-14
 -1      2106 1.48346E-02 3.24825E-04-6.25115E-14
 -1      2107 1.48392E-02 3.65468E-04-6.24843E-14
 -1      2108 1.47182E-02 3.81004E-04-6.15847E-14
 -1      2109 1.48248E-02 2.43728E-04-6.25637E-14
 -1      2110 1.48298E-02 2.84261E-04-6.25387E-14
 -1      2111 1.47091E-02 2.99850E-04-6.16367E-14
 -1      2112 1.48143E-02 1.62684E-04-6.26105E-14
 -1      2113 1.48196E-02 2.03219E-04-6.25861E-14
 -1      2114 1.46991E-02 2.18916E-04-6.16836E-14
 -1      2115 1.48029E-02 8.14657E-05-6.26485E-14
 -1      2116 1.48087E-02 1.22115E-04-6.26296E-14
 -1      2117 1.46883E-02 1.37977E-04-6.17237E-14
 -1      2118 1.47913E-02 1.25827E-06-6.26858E-14
 -1      2119 1.47972E-02 4.14204E-05-6.26668E-14
 -1      2120 1.46769E-02 5.74971E-05-6.17608E-14
 -1      2121 1.47793E-02-8.08514E-05-6.27173E-14
 -1      2122 1.47853E-02-3.97246E-05-6.27029E-14
 -1      2123 1.46649E-02-2.33965E-05-6.17938E-14
 -1      2124 1.47674E-02-1.63560E-04-6.27424E-14
 -1      2125 1.47733E-02-1.22132E-04-6.27308E-14
 -1      2126 1.46528E-02-1.05539E-04-6.18204E-14
 -1      2127 1.47562E-02-2.46863E-04-6.27603E-14
 -1      2128 1.47617E-02-2.05146E-04-6.27520E-14
 -1      2129 1.46409E-02-1.88307E-04-6.18394E-14
 -1      2130 1.01890E-02 2.27241E-04-2.69081E-14
 -1      2131 1.03324E-02 1.77621E-04-2.70991E-14
 -1      2132 1.05770E-02 8.41901E-05-2.75184E-14
 -1      2133 1.05717E-02 6.88057E-05-2.75085E-14
 -1      2134 1.04472E-02 1.41426E-04-2.71737E-14
 -1      2135 1.05269E-02 1.13102E-04-2.73444E-14
 -1      2136 9.80507E-03 4.09085E-04-2.61167E-14
 -1      2137 9.98197E-03 3.22136E-04-2.64650E-14
 -1      2138 9.42100E-03 6.05022E-04-2.54109E-14
 -1      2139 9.61134E-03 5.03251E-04-2.57782E-14
 -1      2140 3.27386E-04-8.85099E-05-9.06257E-17
 -1      2141 3.29433E-04-1.01676E-04-8.77255E-17
 -1      2142 4.46451E-04-1.44375E-04-1.27800E-16
 -1      2143 4.40302E-04-1.09253E-04-1.35485E-16
 -1      2144 8.68550E-03 9.81533E-04-2.34502E-14
 -1      2145 8.83653E-03 9.20009E-04-2.38804E-14
 -1      2146 8.37259E-03 1.04162E-03-2.25103E-14
 -1      2147 8.51763E-03 1.02489E-03-2.29555E-14
 -1      2148 8.04922E-03 9.92097E-04-2.15534E-14
 -1      2149 8.19709E-03 1.02972E-03-2.19862E-14
 -1      2150 7.70189E-03 8.42592E-04-2.06611E-14
 -1      2151 7.86414E-03 9.22540E-04-2.10511E-14
 -1      2152 7.33712E-03 6.44479E-04-1.99103E-14
 -1      2153 7.51091E-03 7.43065E-04-2.02500E-14
 -1      2154 6.96508E-03 4.34338E-04-1.92149E-14
 -1      2155 7.14568E-03 5.35651E-04-1.95355E-14
 -1      2156 6.56173E-03 2.46564E-04-1.86707E-14
 -1      2157 6.73367E-03 3.18498E-04-1.88583E-14
 -1      2158 6.26761E-03 1.37744E-04-1.83908E-14
 -1      2159 6.39644E-03 1.84687E-04-1.85286E-14
 -1      2160 6.09660E-03 7.08147E-05-1.81924E-14
 -1      2161 6.15829E-03 9.34207E-05-1.82441E-14
 -1      2162 6.08222E-03 3.11540E-05-1.81997E-14
 -1      2163 6.06933E-03 4.74604E-05-1.82007E-14
 -1      2164 6.23811E-03-2.93176E-05-1.84167E-14
 -1      2165 6.14904E-03 1.39327E-06-1.82628E-14
 -1      2166 6.49068E-03-1.29133E-04-1.88090E-14
 -1      2167 6.34988E-03-7.44404E-05-1.86129E-14
 -1      2168 6.29094E-03-3.28739E-05-1.82042E-14
 -1      2169 6.87013E-03-2.97321E-04-1.93515E-14
 -1      2170 6.69446E-03-2.14231E-04-1.90822E-14
 -1      2171 7.24626E-03-4.92324E-04-2.00034E-14
 -1      2172 7.05505E-03-3.91751E-04-1.96741E-14
 -1      2173 6.96837E-03-3.20643E-04-1.92595E-14
 -1      2174 7.67961E-03-7.21230E-04-2.08827E-14
 -1      2175 7.49088E-03-6.17734E-04-2.04523E-14
 -1      2176 8.06010E-03-8.77017E-04-2.19916E-14
 -1      2177 7.89859E-03-8.21741E-04-2.15052E-14
 -1      2178 8.39336E-03-9.03288E-04-2.30147E-14
 -1      2179 8.24619E-03-9.07279E-04-2.25511E-14
 -1      2180 8.70744E-03-8.17508E-04-2.40033E-14
 -1      2181 8.55376E-03-8.73706E-04-2.35078E-14
 -1      2182 8.46714E-03-8.99661E-04-2.33209E-14
 -1      2183 9.12296E-03-6.09335E-04-2.50520E-14
 -1      2184 8.93593E-03-7.10688E-04-2.46255E-14
 -1      2185 9.53013E-03-3.93214E-04-2.58396E-14
 -1      2186 9.33632E-03-4.98058E-04-2.54735E-14
 -1      2187 9.91614E-03-1.91241E-04-2.65869E-14
 -1      2188 9.73307E-03-2.81490E-04-2.62709E-14
 -1      2189 1.02845E-02-4.49709E-05-2.70539E-14
 -1      2190 1.01295E-02-1.02344E-04-2.68670E-14
 -1      2191 1.05107E-02 3.88958E-05-2.74106E-14
 -1      2192 1.04174E-02 6.84123E-06-2.72611E-14
 -1      2193 9.00982E-03 8.38693E-04-2.43443E-14
 -1      2194 9.18326E-03 7.40656E-04-2.48107E-14
 -1      2195 8.90033E-03 8.84201E-04-2.42093E-14
 -1      2196 9.69265E-03 4.39578E-04-2.62255E-14
 -1      2197 6.07222E-04-2.96968E-04-1.36582E-16
 -1      2198 9.28382E-03 6.66921E-04-2.52775E-14
 -1      2199 9.38567E-03 5.99577E-04-2.57491E-14
 -1      2200 9.16951E-03 7.28767E-04-2.51426E-14
 -1      2201 6.63135E-04-2.91058E-04-1.83501E-16
 -1      2202 1.03925E-02 1.45304E-04-2.75371E-14
 -1      2203 1.05630E-02 9.29968E-05-2.77873E-14
 -1      2204 1.47103E-02-2.81722E-04-6.24564E-14
 -1      2205 1.00868E-02 2.55523E-04-2.70126E-14
 -1      2206 1.05499E-02 6.16405E-05-2.78628E-14
 -1      2207 1.03515E-02 1.25254E-06-2.75548E-14
 -1      2208 1.00149E-02-1.25060E-04-2.70624E-14
 -1      2209 9.61313E-03-3.17865E-04-2.63439E-14
 -1      2210 8.80759E-03-7.69237E-04-2.44349E-14
 -1      2211 8.70847E-03-8.17780E-04-2.42460E-14
 -1      2212 8.90356E-03-7.13640E-04-2.48714E-14
 -1      2213 8.16497E-03-9.04279E-04-2.22678E-14
 -1      2214 7.37493E-03-5.41760E-04-2.00241E-14
 -1      2215 6.59321E-03-1.47430E-04-1.86690E-14
 -1      2216 6.10628E-03 2.23893E-05-1.79473E-14
 -1      2217 6.07459E-03 5.46935E-05-1.78756E-14
 -1      2218 6.20879E-03 9.82003E-05-1.80108E-14
 -1      2219 6.48032E-03 1.91018E-04-1.82949E-14
 -1      2220 6.85943E-03 3.57233E-04-1.87856E-14
 -1      2221 7.26729E-03 5.78825E-04-1.95098E-14
 -1      2222 7.62632E-03 7.89114E-04-2.02907E-14
 -1      2223 7.96737E-03 9.63501E-04-2.12000E-14
 -1      2224 8.59476E-03 1.01283E-03-2.32470E-14
 -1      2225 8.28933E-03 1.04744E-03-2.22260E-14
 -1      2226 7.79746E-03-7.76315E-04-2.10872E-14
 -1      2227 7.70037E-03-7.23503E-04-2.06736E-14
 -1      2228 7.89106E-03-8.22193E-04-2.12917E-14
 -1      2229 9.21564E-03-5.40976E-04-2.54870E-14
 -1      2230 1.01590E-03 3.97050E-04-2.85186E-16
 -1      2231 8.71489E-04 3.61302E-04-2.05660E-16
 -1      2232 5.48228E-04-5.47678E-05-1.98816E-16
 -1      2233 5.49255E-04-7.13536E-05-1.99032E-16
 -1      2234 5.50657E-04-8.85629E-05-1.98341E-16
 -1      2235 5.52493E-04-1.06445E-04-1.96945E-16
 -1      2236 6.65754E-04-9.45389E-05-2.69275E-16
 -1      2237 5.46851E-04 8.76707E-06-1.94303E-16
 -1      2238 5.46831E-04-6.90780E-06-1.96105E-16
 -1      2239 5.47607E-04 4.04646E-05-1.89288E-16
 -1      2240 5.47107E-04 2.45436E-05-1.92134E-16
 -1      2241 6.61811E-04 1.97082E-05-2.62377E-16
 -1      2242 5.49424E-04 7.28186E-05-1.82281E-16
 -1      2243 5.48369E-04 5.64535E-05-1.86144E-16
 -1      2244 6.63145E-04 5.71643E-05-2.55194E-16
 -1      2245 5.52772E-04 1.08083E-04-1.72483E-16
 -1      2246 5.50877E-04 9.01032E-05-1.77809E-16
 -1      2247 6.66002E-04 9.62911E-05-2.45165E-16
 -1      2248 5.58542E-04 1.47281E-04-1.58429E-16
 -1      2249 5.55289E-04 1.27116E-04-1.66005E-16
 -1      2250 6.71042E-04 1.38800E-04-2.31206E-16
 -1      2251 5.68657E-04 1.92805E-04-1.38927E-16
 -1      2252 5.62940E-04 1.69118E-04-1.49525E-16
 -1      2253 6.79552E-04 1.86171E-04-2.11962E-16
 -1      2254 1.30135E-03 4.52422E-04-4.88365E-16
 -1      2255 1.15901E-03 4.27317E-04-3.79145E-16
 -1      2256 1.07140E-03 3.78254E-04-3.57190E-16
 -1      2257 9.14804E-04-3.44042E-04-3.51349E-16
 -1      2258 1.05889E-03-3.76687E-04-4.61423E-16
 -1      2259 9.61641E-03 4.70511E-04-2.63633E-14
 -1      2260 9.78685E-03 3.82106E-04-2.67084E-14
 -1      2261 1.20216E-03-4.04295E-04-5.87624E-16
 -1      2262 1.34502E-03-4.27289E-04-7.29953E-16
 -1      2263 1.11687E-03-3.57177E-04-5.38320E-16
 -1      2264 1.48728E-03-4.46505E-04-8.88341E-16
 -1      2265 1.62919E-03-4.62208E-04-1.06271E-15
 -1      2266 1.40331E-03-4.02193E-04-8.25593E-16
 -1      2267 1.77080E-03-4.75053E-04-1.25288E-15
 -1      2268 1.91223E-03-4.85248E-04-1.45893E-15
 -1      2269 1.68868E-03-4.33170E-04-1.17591E-15
 -1      2270 2.05358E-03-4.93267E-04-1.68034E-15
 -1      2271 2.19492E-03-4.99279E-04-1.91779E-15
 -1      2272 1.97330E-03-4.53340E-04-1.58898E-15
 -1      2273 2.33633E-03-5.03624E-04-2.17072E-15
 -1      2274 2.47786E-03-5.06440E-04-2.43963E-15
 -1      2275 2.25761E-03-4.65235E-04-2.06394E-15
 -1      2276 2.61959E-03-5.07972E-04-2.72377E-15
 -1      2277 2.76153E-03-5.08335E-04-3.02335E-15
 -1      2278 2.54203E-03-4.70783E-04-2.60081E-15
 -1      2279 2.90374E-03-5.07705E-04-3.33843E-15
 -1      2280 3.04626E-03-5.06180E-04-3.66876E-15
 -1      2281 2.82689E-03-4.71449E-04-3.19876E-15
 -1      2282 3.18913E-03-5.03895E-04-4.01359E-15
 -1      2283 3.33239E-03-5.00937E-04-4.37350E-15
 -1      2284 3.11249E-03-4.68353E-04-3.85790E-15
 -1      2285 3.47606E-03-4.97417E-04-4.74833E-15
 -1      2286 3.62021E-03-4.93423E-04-5.13782E-15
 -1      2287 3.39906E-03-4.62390E-04-4.57672E-15
 -1      2288 3.76483E-03-4.89064E-04-5.54099E-15
 -1      2289 3.91003E-03-4.84438E-04-5.95867E-15
 -1      2290 3.68686E-03-4.54340E-04-5.35361E-15
 -1      2291 4.05578E-03-4.79673E-04-6.39117E-15
 -1      2292 4.20221E-03-4.74889E-04-6.83772E-15
 -1      2293 3.97614E-03-4.44988E-04-6.18810E-15
 -1      2294 4.34930E-03-4.70258E-04-7.29837E-15
 -1      2295 4.49718E-03-4.65940E-04-7.77233E-15
 -1      2296 4.26722E-03-4.35247E-04-7.07892E-15
 -1      2297 4.64585E-03-4.62171E-04-8.25937E-15
 -1      2298 4.79544E-03-4.59170E-04-8.76061E-15
 -1      2299 4.56050E-03-4.26306E-04-8.02571E-15
 -1      2300 4.94599E-03-4.57261E-04-9.27486E-15
 -1      2301 5.09761E-03-4.56745E-04-9.80093E-15
 -1      2302 4.85650E-03-4.19782E-04-9.02636E-15
 -1      2303 5.25040E-03-4.58044E-04-1.03398E-14
 -1      2304 5.40443E-03-4.61570E-04-1.08922E-14
 -1      2305 5.15597E-03-4.17888E-04-1.00792E-14
 -1      2306 5.55990E-03-4.67831E-04-1.14570E-14
 -1      2307 5.71680E-03-4.77364E-04-1.20346E-14
 -1      2308 5.45993E-03-4.23584E-04-1.11831E-14
 -1      2309 5.87544E-03-4.90715E-04-1.26265E-14
 -1      2310 6.03564E-03-5.08533E-04-1.32318E-14
 -1      2311 5.76976E-03-4.40665E-04-1.23391E-14
 -1      2312 6.19790E-03-5.31284E-04-1.38492E-14
 -1      2313 6.36171E-03-5.59623E-04-1.44805E-14
 -1      2314 6.08714E-03-4.73679E-04-1.35491E-14
 -1      2315 6.52767E-03-5.93727E-04-1.51269E-14
 -1      2316 6.69482E-03-6.33962E-04-1.57854E-14
 -1      2317 6.41368E-03-5.27469E-04-1.48122E-14
 -1      2318 6.86375E-03-6.79931E-04-1.64569E-14
 -1      2319 7.03293E-03-7.31122E-04-1.71404E-14
 -1      2320 6.74990E-03-6.05799E-04-1.61277E-14
 -1      2321 7.20266E-03-7.86220E-04-1.78371E-14
 -1      2322 7.37118E-03-8.43151E-04-1.85457E-14
 -1      2323 7.09363E-03-7.08439E-04-1.74944E-14
 -1      2324 7.53827E-03-8.99503E-04-1.92664E-14
 -1      2325 7.70291E-03-9.51297E-04-1.99979E-14
 -1      2326 7.43859E-03-8.26432E-04-1.89105E-14
 -1      2327 7.86434E-03-9.95475E-04-2.07391E-14
 -1      2328 8.02367E-03-1.02756E-03-2.14938E-14
 -1      2329 7.77598E-03-9.37315E-04-2.03724E-14
 -1      2330 8.17994E-03-1.04522E-03-2.22580E-14
 -1      2331 8.33636E-03-1.04593E-03-2.30335E-14
 -1      2332 8.10091E-03-1.00791E-03-2.18767E-14
 -1      2333 8.49195E-03-1.02956E-03-2.38216E-14
 -1      2334 8.65036E-03-9.97680E-04-2.46201E-14
 -1      2335 8.41860E-03-1.01012E-03-2.34289E-14
 -1      2336 8.81062E-03-9.52201E-04-2.54316E-14
 -1      2337 8.97425E-03-8.97705E-04-2.62534E-14
 -1      2338 8.74126E-03-9.40713E-04-2.50282E-14
 -1      2339 9.14037E-03-8.37230E-04-2.70843E-14
 -1      2340 9.30837E-03-7.74842E-04-2.79269E-14
 -1      2341 9.07636E-03-8.24160E-04-2.66712E-14
 -1      2342 9.47790E-03-7.13143E-04-2.87790E-14
 -1      2343 9.64725E-03-6.54694E-04-2.96427E-14
 -1      2344 9.42051E-03-6.94484E-04-2.83530E-14
 -1      2345 9.81661E-03-6.01018E-04-3.05135E-14
 -1      2346 9.98438E-03-5.52862E-04-3.13943E-14
 -1      2347 9.76518E-03-5.76600E-04-3.00756E-14
 -1      2348 1.01511E-02-5.10788E-04-3.22846E-14
 -1      2349 1.03157E-02-4.74541E-04-3.31823E-14
 -1      2350 1.01033E-02-4.82106E-04-3.18357E-14
 -1      2351 1.04788E-02-4.44033E-04-3.40904E-14
 -1      2352 1.06399E-02-4.18629E-04-3.50068E-14
 -1      2353 1.04319E-02-4.12467E-04-3.36333E-14
 -1      2354 1.07994E-02-3.97903E-04-3.59309E-14
 -1      2355 1.09571E-02-3.81192E-04-3.68623E-14
 -1      2356 1.07512E-02-3.64384E-04-3.54668E-14
 -1      2357 1.11133E-02-3.67956E-04-3.78000E-14
 -1      2358 1.12681E-02-3.57633E-04-3.87458E-14
 -1      2359 1.10627E-02-3.33085E-04-3.73294E-14
 -1      2360 1.14217E-02-3.49703E-04-3.96964E-14
 -1      2361 1.15741E-02-3.43734E-04-4.06544E-14
 -1      2362 1.13681E-02-3.13913E-04-3.92210E-14
 -1      2363 1.17254E-02-3.39290E-04-4.16194E-14
 -1      2364 1.18758E-02-3.36056E-04-4.25912E-14
 -1      2365 1.16688E-02-3.02923E-04-4.11385E-14
 -1      2366 1.20253E-02-3.33698E-04-4.35698E-14
 -1      2367 1.21741E-02-3.31995E-04-4.45546E-14
 -1      2368 1.19661E-02-2.97032E-04-4.30821E-14
 -1      2369 1.23221E-02-3.30711E-04-4.55404E-14
 -1      2370 1.24695E-02-3.29691E-04-4.65314E-14
 -1      2371 1.22606E-02-2.93962E-04-4.50508E-14
 -1      2372 1.26163E-02-3.28781E-04-4.75316E-14
 -1      2373 1.27626E-02-3.27877E-04-4.85352E-14
 -1      2374 1.25531E-02-2.92110E-04-4.70372E-14
 -1      2375 1.29084E-02-3.26886E-04-4.95423E-14
 -1      2376 1.30538E-02-3.25739E-04-5.05559E-14
 -1      2377 1.28439E-02-2.90401E-04-4.90430E-14
 -1      2378 1.31988E-02-3.24385E-04-5.15710E-14
 -1      2379 1.33436E-02-3.22783E-04-5.25905E-14
 -1      2380 1.31334E-02-2.88157E-04-5.10654E-14
 -1      2381 1.34879E-02-3.20910E-04-5.36167E-14
 -1      2382 1.36321E-02-3.18740E-04-5.46427E-14
 -1      2383 1.34219E-02-2.84977E-04-5.31042E-14
 -1      2384 1.37760E-02-3.16269E-04-5.56717E-14
 -1      2385 1.39197E-02-3.13481E-04-5.67067E-14
 -1      2386 1.37096E-02-2.80652E-04-5.51575E-14
 -1      2387 1.40633E-02-3.10387E-04-5.77442E-14
 -1      2388 1.42066E-02-3.06976E-04-5.87861E-14
 -1      2389 1.39966E-02-2.75095E-04-5.72234E-14
 -1      2390 1.86507E-03 5.16264E-04-1.07633E-15
 -1      2391 1.72460E-03 5.04902E-04-9.06244E-16
 -1      2392 2.14588E-03 5.32228E-04-1.46348E-15
 -1      2393 2.00547E-03 5.25313E-04-1.26200E-15
 -1      2394 1.92493E-03 4.84927E-04-1.21066E-15
 -1      2395 2.42714E-03 5.40895E-04-1.91234E-15
 -1      2396 2.28642E-03 5.37372E-04-1.68007E-15
 -1      2397 2.20778E-03 4.98675E-04-1.61728E-15
 -1      2398 2.70940E-03 5.43965E-04-2.42508E-15
 -1      2399 2.56812E-03 5.43050E-04-2.16081E-15
 -1      2400 2.49088E-03 5.05631E-04-2.08607E-15
 -1      2401 2.99309E-03 5.42718E-04-3.00176E-15
 -1      2402 2.85104E-03 5.43818E-04-2.70540E-15
 -1      2403 2.77470E-03 5.07361E-04-2.61825E-15
 -1      2404 3.27856E-03 5.38143E-04-3.64156E-15
 -1      2405 3.13558E-03 5.40793E-04-3.31384E-15
 -1      2406 3.05957E-03 5.05049E-04-3.21383E-15
 -1      2407 3.56617E-03 5.31064E-04-4.34489E-15
 -1      2408 3.42207E-03 5.34867E-04-3.98494E-15
 -1      2409 3.34582E-03 4.99623E-04-3.87181E-15
 -1      2410 3.85630E-03 5.22255E-04-5.11153E-15
 -1      2411 3.71088E-03 5.26824E-04-4.71988E-15
 -1      2412 3.63373E-03 4.91868E-04-4.59276E-15
 -1      2413 4.14937E-03 5.12577E-04-5.94311E-15
 -1      2414 4.00242E-03 5.17462E-04-5.51924E-15
 -1      2415 3.92363E-03 4.82546E-04-5.37772E-15
 -1      2416 4.44589E-03 5.03128E-04-6.83869E-15
 -1      2417 4.29714E-03 5.07742E-04-6.38342E-15
 -1      2418 4.21588E-03 4.72535E-04-6.22682E-15
 -1      2419 4.74644E-03 4.95429E-04-7.79659E-15
 -1      2420 4.59560E-03 4.98948E-04-7.31007E-15
 -1      2421 4.51090E-03 4.62976E-04-7.13890E-15
 -1      2422 5.05166E-03 4.91627E-04-8.81464E-15
 -1      2423 4.89840E-03 4.92886E-04-8.29881E-15
 -1      2424 4.80924E-03 4.55459E-04-8.11140E-15
 -1      2425 5.36227E-03 4.94725E-04-9.88853E-15
 -1      2426 5.20624E-03 4.92103E-04-9.34475E-15
 -1      2427 5.11156E-03 4.52227E-04-9.14351E-15
 -1      2428 5.67903E-03 5.08752E-04-1.10169E-14
 -1      2429 5.51986E-03 5.00095E-04-1.04451E-14
 -1      2430 5.41872E-03 4.56393E-04-1.02303E-14
 -1      2431 6.00264E-03 5.38768E-04-1.21992E-14
 -1      2432 5.84001E-03 5.21421E-04-1.16015E-14
 -1      2433 5.73188E-03 4.72114E-04-1.13708E-14
 -1      2434 6.33361E-03 5.90442E-04-1.34356E-14
 -1      2435 6.16735E-03 5.61536E-04-1.28107E-14
 -1      2436 6.05244E-03 5.04596E-04-1.25661E-14
 -1      2437 6.67167E-03 6.68748E-04-1.47245E-14
 -1      2438 6.50206E-03 6.26011E-04-1.40733E-14
 -1      2439 6.38189E-03 5.59717E-04-1.38156E-14
 -1      2440 7.01496E-03 7.75277E-04-1.60693E-14
 -1      2441 6.84318E-03 7.18582E-04-1.53900E-14
 -1      2442 6.72102E-03 6.42702E-04-1.51181E-14
 -1      2443 7.35900E-03 9.03927E-04-1.74681E-14
 -1      2444 7.18756E-03 8.37652E-04-1.67615E-14
 -1      2445 7.06846E-03 7.55239E-04-1.64741E-14
 -1      2446 7.69709E-03 1.03634E-03-1.89176E-14
 -1      2447 7.52933E-03 9.71422E-04-1.81864E-14
 -1      2448 7.41887E-03 8.90283E-04-1.78832E-14
 -1      2449 8.02358E-03 1.14202E-03-2.04191E-14
 -1      2450 7.86161E-03 1.09491E-03-1.96634E-14
 -1      2451 7.76334E-03 1.02629E-03-1.93456E-14
 -1      2452 8.33985E-03 1.18847E-03-2.19645E-14
 -1      2453 8.18190E-03 1.17428E-03-2.11866E-14
 -1      2454 8.09504E-03 1.12709E-03-2.08579E-14
 -1      2455 8.65529E-03 1.16037E-03-2.35567E-14
 -1      2456 8.49624E-03 1.18348E-03-2.27549E-14
 -1      2457 8.41706E-03 1.15742E-03-2.24149E-14
 -1      2458 8.98010E-03 1.07025E-03-2.51922E-14
 -1      2459 8.81582E-03 1.12121E-03-2.43681E-14
 -1      2460 8.74174E-03 1.10685E-03-2.40150E-14
 -1      2461 9.31681E-03 9.49335E-04-2.68716E-14
 -1      2462 9.14721E-03 1.01140E-03-2.60272E-14
 -1      2463 9.07881E-03 9.98054E-04-2.56620E-14
 -1      2464 9.66052E-03 8.29214E-04-2.85897E-14
 -1      2465 9.48850E-03 8.87578E-04-2.77260E-14
 -1      2466 9.42676E-03 8.69048E-04-2.73497E-14
 -1      2467 1.00043E-02 7.29959E-04-3.03438E-14
 -1      2468 9.83304E-03 7.76353E-04-2.94621E-14
 -1      2469 9.77696E-03 7.51284E-04-2.90764E-14
 -1      2470 1.03433E-02 6.58620E-04-3.21323E-14
 -1      2471 1.01748E-02 6.90758E-04-3.12343E-14
 -1      2472 1.01216E-02 6.60216E-04-3.08375E-14
 -1      2473 1.06754E-02 6.14222E-04-3.39604E-14
 -1      2474 1.05104E-02 6.33315E-04-3.30396E-14
 -1      2475 1.04572E-02 5.98622E-04-3.26352E-14
 -1      2476 1.10002E-02 5.91969E-04-3.58295E-14
 -1      2477 1.08388E-02 6.00669E-04-3.48897E-14
 -1      2478 1.07832E-02 5.62964E-04-3.44723E-14
 -1      2479 1.13183E-02 5.86187E-04-3.77436E-14
 -1      2480 1.11601E-02 5.87341E-04-3.67808E-14
 -1      2481 1.11011E-02 5.47512E-04-3.63529E-14
 -1      2482 1.16302E-02 5.91733E-04-3.96960E-14
 -1      2483 1.14749E-02 5.87809E-04-3.87146E-14
 -1      2484 1.14122E-02 5.46563E-04-3.82746E-14
 -1      2485 1.19369E-02 6.04493E-04-4.16801E-14
 -1      2486 1.17842E-02 5.97412E-04-4.06844E-14
 -1      2487 1.17179E-02 5.55315E-04-4.02314E-14
 -1      2488 1.22392E-02 6.21422E-04-4.36929E-14
 -1      2489 1.20886E-02 6.12582E-04-4.26828E-14
 -1      2490 1.20194E-02 5.70068E-04-4.22193E-14
 -1      2491 1.25377E-02 6.40388E-04-4.57220E-14
 -1      2492 1.23889E-02 6.30751E-04-4.47068E-14
 -1      2493 1.23174E-02 5.88139E-04-4.42332E-14
 -1      2494 1.28332E-02 6.59972E-04-4.77629E-14
 -1      2495 1.26858E-02 6.50170E-04-4.67423E-14
 -1      2496 1.26126E-02 6.07677E-04-4.62640E-14
 -1      2497 1.31261E-02 6.79274E-04-4.98073E-14
 -1      2498 1.29799E-02 6.69702E-04-4.87849E-14
 -1      2499 1.29055E-02 6.27463E-04-4.83051E-14
 -1      2500 1.34171E-02 6.97758E-04-5.18443E-14
 -1      2501 1.32718E-02 6.88645E-04-5.08255E-14
 -1      2502 1.31966E-02 6.46738E-04-5.03444E-14
 -1      2503 1.37065E-02 7.15134E-04-5.38751E-14
 -1      2504 1.35619E-02 7.06601E-04-5.28617E-14
 -1      2505 1.34862E-02 6.65062E-04-5.23790E-14
 -1      2506 1.39947E-02 7.31265E-04-5.58971E-14
 -1      2507 1.38507E-02 7.23364E-04-5.48877E-14
 -1      2508 1.37747E-02 6.82205E-04-5.44099E-14
 -1      2509 1.42819E-02 7.46116E-04-5.79099E-14
 -1      2510 1.41384E-02 7.38854E-04-5.69042E-14
 -1      2511 1.40623E-02 6.98068E-04-5.64314E-14
 -1      2512 1.45685E-02 7.59725E-04-5.99060E-14
 -1      2513 1.44253E-02 7.53077E-04-5.89094E-14
 -1      2514 1.43491E-02 7.12646E-04-5.84409E-14
 -1      2515 1.47166E-02 7.67327E-04-6.09320E-14
 -1      2516 1.46015E-02 4.37032E-04-6.06634E-14
 -1      2517 1.46057E-02 4.77866E-04-6.06343E-14
 -1      2518 1.45929E-02 3.55767E-04-6.07128E-14
 -1      2519 1.45972E-02 3.96341E-04-6.06890E-14
 -1      2520 1.44762E-02 4.11451E-04-5.97949E-14
 -1      2521 1.46183E-02 5.99942E-04-6.05338E-14
 -1      2522 1.46228E-02 6.41433E-04-6.04973E-14
 -1      2523 1.46098E-02 5.18509E-04-6.06018E-14
 -1      2524 1.46140E-02 5.58965E-04-6.05677E-14
 -1      2525 1.44926E-02 5.74046E-04-5.96804E-14
 -1      2526 1.44844E-02 4.92573E-04-5.97414E-14
 -1      2527 1.45836E-02 2.74891E-04-6.07592E-14
 -1      2528 1.45883E-02 3.15297E-04-6.07369E-14
 -1      2529 1.44676E-02 3.30551E-04-5.98416E-14
 -1      2530 1.45735E-02 1.94186E-04-6.08031E-14
 -1      2531 1.45786E-02 2.34537E-04-6.07837E-14
 -1      2532 1.44582E-02 2.50016E-04-5.98851E-14
 -1      2533 1.45624E-02 1.13414E-04-6.08393E-14
 -1      2534 1.45680E-02 1.53828E-04-6.08204E-14
 -1      2535 1.44478E-02 1.69600E-04-5.99224E-14
 -1      2536 1.45508E-02 3.37251E-05-6.08711E-14
 -1      2537 1.45567E-02 7.36211E-05-6.08548E-14
 -1      2538 1.44366E-02 8.97302E-05-5.99527E-14
 -1      2539 1.45385E-02-4.78198E-05-6.08999E-14
 -1      2540 1.45447E-02-6.97539E-06-6.08860E-14
 -1      2541 1.44246E-02 9.49060E-06-5.99797E-14
 -1      2542 1.45262E-02-1.29985E-04-6.09225E-14
 -1      2543 1.45324E-02-8.88201E-05-6.09123E-14
 -1      2544 1.44121E-02-7.20054E-05-6.00047E-14
 -1      2545 1.45144E-02-2.12832E-04-6.09359E-14
 -1      2546 1.45202E-02-1.71326E-04-6.09283E-14
 -1      2547 1.43996E-02-1.54207E-04-6.00230E-14
 -1      2548 1.05389E-02 9.90569E-05-2.81334E-14
 -1      2549 1.05900E-02 8.69681E-05-2.83080E-14
 -1      2550 9.97228E-03 2.94558E-04-2.71588E-14
 -1      2551 1.01672E-02 2.16152E-04-2.76080E-14
 -1      2552 1.58392E-03 4.90706E-04-7.51759E-16
 -1      2553 1.44289E-03 4.73465E-04-6.12452E-16
 -1      2554 1.64175E-03 4.62295E-04-8.65532E-16
 -1      2555 1.45824E-02-2.84042E-04-6.15158E-14
 -1      2556 1.05850E-02 7.21917E-05-2.84042E-14
 -1      2557 1.05245E-02 5.95575E-05-2.83037E-14
 -1      2558 1.03697E-02 1.45510E-04-2.79781E-14
 -1      2559 1.04680E-02 1.19010E-04-2.80560E-14
 -1      2560 1.05284E-02 1.06461E-04-2.85769E-14
 -1      2561 8.81973E-03 9.26837E-04-2.41128E-14
 -1      2562 8.96220E-03 8.47430E-04-2.45817E-14
 -1      2563 1.04118E-02 2.79779E-05-2.80733E-14
 -1      2564 1.02859E-02-8.52295E-06-2.78631E-14
 -1      2565 8.23530E-03-9.22846E-04-2.25022E-14
 -1      2566 8.08635E-03-8.93551E-04-2.19443E-14
 -1      2567 6.12383E-03 2.06611E-05-1.75514E-14
 -1      2568 6.06482E-03 3.36424E-05-1.74888E-14
 -1      2569 5.47044E-04-2.26673E-05-1.97609E-16
 -1      2570 5.47501E-04-3.85537E-05-1.98450E-16
 -1      2571 6.62991E-04-5.52088E-05-2.69519E-16
 -1      2572 6.61757E-04-1.75030E-05-2.67310E-16
 -1      2573 8.22530E-03 1.04920E-03-2.19324E-14
 -1      2574 8.36390E-03 1.06065E-03-2.24572E-14
 -1      2575 8.52122E-03 1.04141E-03-2.30400E-14
 -1      2576 8.65422E-03 9.98556E-04-2.35375E-14
 -1      2577 7.90317E-03 9.34024E-04-2.08264E-14
 -1      2578 8.05329E-03 1.00266E-03-2.13265E-14
 -1      2579 7.55380E-03 7.36341E-04-1.98906E-14
 -1      2580 7.71453E-03 8.34119E-04-2.02968E-14
 -1      2581 7.20311E-03 5.26527E-04-1.91050E-14
 -1      2582 7.37424E-03 6.29156E-04-1.94738E-14
 -1      2583 6.76360E-03 2.95979E-04-1.83087E-14
 -1      2584 6.97495E-03 4.01200E-04-1.86581E-14
 -1      2585 6.39194E-03 1.46279E-04-1.78821E-14
 -1      2586 6.53951E-03 1.99011E-04-1.80187E-14
 -1      2587 6.15653E-03 7.61123E-05-1.75952E-14
 -1      2588 6.26133E-03 1.03439E-04-1.77380E-14
 -1      2589 6.30772E-03 1.17410E-04-1.74657E-14
 -1      2590 6.05271E-03 4.63984E-05-1.74885E-14
 -1      2591 6.07766E-03 5.35772E-05-1.74791E-14
 -1      2592 6.35023E-03-4.36256E-05-1.79553E-14
 -1      2593 6.24348E-03-1.28320E-05-1.77624E-14
 -1      2594 6.69469E-03-1.76596E-04-1.84908E-14
 -1      2595 6.51033E-03-1.01894E-04-1.82231E-14
 -1      2596 6.43265E-03-7.61997E-05-1.77802E-14
 -1      2597 7.06099E-03-3.58200E-04-1.91865E-14
 -1      2598 6.89445E-03-2.71221E-04-1.88684E-14
 -1      2599 9.31376E-03-4.70915E-04-2.59993E-14
 -1      2600 9.13430E-03-5.79735E-04-2.55721E-14
 -1      2601 7.46196E-03-5.87747E-04-2.00151E-14
 -1      2602 7.25467E-03-4.64712E-04-1.95727E-14
 -1      2603 8.51881E-03-8.91967E-04-2.35982E-14
 -1      2604 8.39357E-03-9.20458E-04-2.31050E-14
 -1      2605 9.68259E-03-2.65427E-04-2.68706E-14
 -1      2606 9.49695E-03-3.66738E-04-2.64342E-14
 -1      2607 9.41172E-03-4.17255E-04-2.65207E-14
 -1      2608 1.01192E-02-6.83718E-05-2.76384E-14
 -1      2609 9.92800E-03-1.47009E-04-2.73519E-14
 -1      2610 5.88327E-04-2.36851E-04-1.68309E-16
 -1      2611 7.81009E-04-3.03049E-04-2.67744E-16
 -1      2612 8.40676E-04-2.91568E-04-3.26087E-16
 -1      2613 5.78941E-04-2.09043E-04-1.77755E-16
 -1      2614 7.57265E-04 3.32544E-04-1.49091E-16
 -1      2615 6.10949E-04 2.83670E-04-9.59383E-17
 -1      2616 5.84389E-04 2.56969E-04-1.01969E-16
 -1      2617 8.13331E-04 3.20974E-04-2.02190E-16
 -1      2618 8.44159E-03 1.06043E-03-2.27426E-14
 -1      2619 6.70625E-04-1.36757E-04-2.65630E-16
 -1      2620 5.54925E-04-1.25272E-04-1.94601E-16
 -1      2621 5.58069E-04-1.45187E-04-1.91009E-16
 -1      2622 1.35750E-03 4.27982E-04-5.81417E-16
 -1      2623 5.72100E-04 2.26796E-04-1.18124E-16
 -1      2624 9.82076E-03-2.00295E-04-2.74419E-14
 -1      2625 9.07756E-03 7.85986E-04-2.50460E-14
 -1      2626 8.61869E-03-8.60664E-04-2.40264E-14
 -1      2627 8.54640E-03-8.92981E-04-2.38056E-14
 -1      2628 8.71476E-03-8.21524E-04-2.44563E-14
 -1      2629 9.90109E-03 3.32079E-04-2.72989E-14
 -1      2630 9.39636E-03 6.01683E-04-2.60874E-14
 -1      2631 9.49935E-03 5.35071E-04-2.62264E-14
 -1      2632 9.61079E-03 4.81890E-04-2.67078E-14
 -1      2633 7.57173E-03-6.53801E-04-2.02120E-14
 -1      2634 7.44368E-03-5.85748E-04-1.97571E-14
 -1      2635 7.66426E-03-7.14430E-04-2.04107E-14
 -1      2636 1.04863E-02 4.83559E-05-2.86133E-14
 -1      2637 1.46404E-02 7.27227E-04-6.04702E-14
 -1      2638 1.46207E-02 6.93656E-04-6.03908E-14
 -1      2639 6.77993E-03-2.19276E-04-1.84187E-14
 -1      2640 1.06199E-02 8.64938E-05-2.90973E-14
 -1      2641 1.06107E-02 8.10639E-05-2.87494E-14
 -1      2642 1.06180E-02 7.77480E-05-2.91925E-14
 -1      2643 1.01977E-02 2.16471E-04-2.82690E-14
 -1      2644 1.02822E-02 1.76649E-04-2.81234E-14
 -1      2645 1.03831E-02 1.53524E-04-2.86442E-14
 -1      2646 6.10003E-03 6.10761E-05-1.72098E-14
 -1      2647 6.89468E-04 2.49763E-04-1.75600E-16
 -1      2648 8.73685E-03 9.71209E-04-2.39033E-14
 -1      2649 1.02121E-02-3.48937E-05-2.81553E-14
 -1      2650 7.97950E-03-8.62813E-04-2.15197E-14
 -1      2651 6.64392E-03 2.44304E-04-1.78935E-14
 -1      2652 7.07788E-03 4.58901E-04-1.86214E-14
 -1      2653 9.01710E-03-6.49718E-04-2.53783E-14
 -1      2654 8.92089E-03-7.13236E-04-2.51831E-14
 -1      2655 9.13027E-03-5.88988E-04-2.58881E-14
 -1      2656 7.46591E-03 6.85416E-04-1.94792E-14
 -1      2657 6.03793E-03 3.81259E-05-1.70960E-14
 -1      2658 7.81204E-03 8.90744E-04-2.04200E-14
 -1      2659 6.15735E-03 6.97086E-06-1.73059E-14
 -1      2660 8.30446E-03-9.29767E-04-2.27741E-14
 -1      2661 5.64491E-04-1.63905E-04-1.88543E-16
 -1      2662 5.69812E-04-1.86938E-04-1.82539E-16
 -1      2663 6.97915E-04-2.26258E-04-2.51779E-16
 -1      2664 6.80992E-04-1.80290E-04-2.59856E-16
 -1      2665 8.14157E-03 1.03496E-03-2.15523E-14
 -1      2666 7.15743E-03-4.14374E-04-1.91777E-14
 -1      2667 1.44314E-02-3.03500E-04-6.04262E-14
 -1      2668 1.44843E-02-2.49431E-04-6.07583E-14
 -1      2669 1.43634E-02-2.32051E-04-5.98503E-14
 -1      2670 1.43034E-02-3.05333E-04-5.94925E-14
 -1      2671 1.44944E-02 6.67127E-04-5.95444E-14
 -1      2672 1.42366E-02-2.70308E-04-5.89652E-14
 -1      2673 7.80689E-04 7.64250E-05-3.31115E-16
 -1      2674 7.79419E-04 5.48018E-05-3.36577E-16
 -1      2675 7.78563E-04 3.31475E-05-3.40995E-16
 -1      2676 7.78134E-04 1.17507E-05-3.44871E-16
 -1      2677 8.96941E-04 4.90069E-05-4.29995E-16
 -1      2678 7.91974E-04 1.71488E-04-2.98725E-16
 -1      2679 7.88011E-04 1.46217E-04-3.08984E-16
 -1      2680 8.03657E-04 2.26481E-04-2.73382E-16
 -1      2681 7.97144E-04 1.98179E-04-2.87083E-16
 -1      2682 9.15272E-04 2.05680E-04-3.74605E-16
 -1      2683 1.12972E-03 3.58567E-04-4.33152E-16
 -1      2684 9.86093E-04 3.30219E-04-3.32864E-16
 -1      2685 8.67525E-03 1.01094E-03-2.37196E-14
 -1      2686 8.81741E-03 9.46533E-04-2.42993E-14
 -1      2687 8.03043E-04 2.76349E-04-2.34974E-16
 -1      2688 1.32031E-03-3.58280E-04-7.62628E-16
 -1      2689 1.46362E-03-3.76288E-04-9.23117E-16
 -1      2690 1.60675E-03-3.91260E-04-1.09902E-15
 -1      2691 1.74981E-03-4.03418E-04-1.29070E-15
 -1      2692 1.52537E-03-3.49597E-04-1.02265E-15
 -1      2693 1.89273E-03-4.13213E-04-1.49788E-15
 -1      2694 2.03558E-03-4.20822E-04-1.72017E-15
 -1      2695 1.81219E-03-3.73060E-04-1.40708E-15
 -1      2696 2.17836E-03-4.26602E-04-1.95788E-15
 -1      2697 2.32110E-03-4.30697E-04-2.21070E-15
 -1      2698 2.09884E-03-3.87827E-04-1.85264E-15
 -1      2699 2.46385E-03-4.33379E-04-2.47903E-15
 -1      2700 2.60661E-03-4.34762E-04-2.76211E-15
 -1      2701 2.38526E-03-3.95805E-04-2.35823E-15
 -1      2702 2.74943E-03-4.35050E-04-3.06119E-15
 -1      2703 2.89232E-03-4.34336E-04-3.37492E-15
 -1      2704 2.67154E-03-3.98512E-04-2.92455E-15
 -1      2705 3.03530E-03-4.32775E-04-3.70370E-15
 -1      2706 3.17841E-03-4.30444E-04-4.04750E-15
 -1      2707 2.95775E-03-3.97129E-04-3.55111E-15
 -1      2708 3.32165E-03-4.27466E-04-4.40636E-15
 -1      2709 3.46506E-03-4.23912E-04-4.78010E-15
 -1      2710 3.24400E-03-3.92579E-04-4.23767E-15
 -1      2711 3.60864E-03-4.19893E-04-5.16771E-15
 -1      2712 3.75245E-03-4.15480E-04-5.56947E-15
 -1      2713 3.53037E-03-3.85623E-04-4.98314E-15
 -1      2714 3.89647E-03-4.10792E-04-5.98637E-15
 -1      2715 4.04078E-03-4.05911E-04-6.41686E-15
 -1      2716 3.81697E-03-3.76956E-04-5.78602E-15
 -1      2717 4.18536E-03-4.00981E-04-6.86150E-15
 -1      2718 4.33032E-03-3.96113E-04-7.32037E-15
 -1      2719 4.10395E-03-3.67308E-04-6.64537E-15
 -1      2720 4.47565E-03-3.91492E-04-7.79274E-15
 -1      2721 4.62146E-03-3.87276E-04-8.27893E-15
 -1      2722 4.39155E-03-3.57567E-04-7.56121E-15
 -1      2723 4.76779E-03-3.83707E-04-8.77929E-15
 -1      2724 4.91479E-03-3.81017E-04-9.29225E-15
 -1      2725 4.68014E-03-3.48893E-04-8.53306E-15
 -1      2726 5.06253E-03-3.79516E-04-9.81847E-15
 -1      2727 5.21119E-03-3.79546E-04-1.03574E-14
 -1      2728 4.97038E-03-3.42865E-04-9.55826E-15
 -1      2729 5.36096E-03-3.81479E-04-1.09095E-14
 -1      2730 5.51203E-03-3.85815E-04-1.14744E-14
 -1      2731 5.26336E-03-3.41627E-04-1.06366E-14
 -1      2732 5.66473E-03-3.92970E-04-1.20523E-14
 -1      2733 5.81924E-03-4.03654E-04-1.26444E-14
 -1      2734 5.56081E-03-3.48071E-04-1.17665E-14
 -1      2735 5.97610E-03-4.18270E-04-1.32497E-14
 -1      2736 6.13536E-03-4.37779E-04-1.38666E-14
 -1      2737 5.86533E-03-3.66032E-04-1.29502E-14
 -1      2738 6.29778E-03-4.62488E-04-1.44977E-14
 -1      2739 6.46303E-03-4.93527E-04-1.51435E-14
 -1      2740 6.18040E-03-4.00491E-04-1.41861E-14
 -1      2741 6.63199E-03-5.30928E-04-1.58005E-14
 -1      2742 6.80359E-03-5.75528E-04-1.64693E-14
 -1      2743 6.50985E-03-4.57673E-04-1.54732E-14
 -1      2744 6.97865E-03-6.26818E-04-1.71530E-14
 -1      2745 7.15484E-03-6.84388E-04-1.78479E-14
 -1      2746 6.85600E-03-5.43696E-04-1.68120E-14
 -1      2747 7.33237E-03-7.46694E-04-1.85555E-14
 -1      2748 7.50841E-03-8.10292E-04-1.92744E-14
 -1      2749 7.21597E-03-6.60809E-04-1.82019E-14
 -1      2750 7.68226E-03-8.72447E-04-2.00034E-14
 -1      2751 7.85258E-03-9.25929E-04-2.07436E-14
 -1      2752 7.57861E-03-7.97581E-04-1.96358E-14
 -1      2753 8.01785E-03-9.67392E-04-2.14971E-14
 -1      2754 8.18146E-03-9.90092E-04-2.22613E-14
 -1      2755 7.92903E-03-9.18555E-04-2.11158E-14
 -1      2756 8.34181E-03-9.92215E-04-2.30370E-14
 -1      2757 8.50452E-03-9.72361E-04-2.38239E-14
 -1      2758 8.26321E-03-9.71866E-04-2.26446E-14
 -1      2759 8.66854E-03-9.31836E-04-2.46242E-14
 -1      2760 8.83738E-03-8.77326E-04-2.54358E-14
 -1      2761 8.59557E-03-9.26895E-04-2.42202E-14
 -1      2762 9.00959E-03-8.12231E-04-2.62572E-14
 -1      2763 9.18487E-03-7.43748E-04-2.70879E-14
 -1      2764 8.94262E-03-8.03837E-04-2.58428E-14
 -1      2765 9.36226E-03-6.74724E-04-2.79287E-14
 -1      2766 9.53889E-03-6.09596E-04-2.87792E-14
 -1      2767 9.30385E-03-6.56146E-04-2.75056E-14
 -1      2768 9.71481E-03-5.50120E-04-2.96407E-14
 -1      2769 9.88759E-03-4.97207E-04-3.05093E-14
 -1      2770 9.66553E-03-5.22354E-04-2.92055E-14
 -1      2771 1.00579E-02-4.51513E-04-3.13899E-14
 -1      2772 1.02245E-02-4.12334E-04-3.22792E-14
 -1      2773 1.00149E-02-4.18961E-04-3.09453E-14
 -1      2774 1.03882E-02-3.79710E-04-3.31782E-14
 -1      2775 1.05487E-02-3.52497E-04-3.40859E-14
 -1      2776 1.03476E-02-3.45422E-04-3.27232E-14
 -1      2777 1.07066E-02-3.30438E-04-3.50012E-14
 -1      2778 1.08620E-02-3.12527E-04-3.59266E-14
 -1      2779 1.06653E-02-2.95742E-04-3.45387E-14
 -1      2780 1.10155E-02-2.98374E-04-3.68583E-14
 -1      2781 1.11673E-02-2.87215E-04-3.77981E-14
 -1      2782 1.09717E-02-2.63597E-04-3.63874E-14
 -1      2783 1.13177E-02-2.78636E-04-3.87454E-14
 -1      2784 1.14669E-02-2.72101E-04-3.96975E-14
 -1      2785 1.12704E-02-2.43754E-04-3.82675E-14
 -1      2786 1.16151E-02-2.67229E-04-4.06578E-14
 -1      2787 1.17626E-02-2.63654E-04-4.16223E-14
 -1      2788 1.15642E-02-2.32169E-04-4.01765E-14
 -1      2789 1.19093E-02-2.61063E-04-4.25955E-14
 -1      2790 1.20555E-02-2.59210E-04-4.35766E-14
 -1      2791 1.18550E-02-2.25806E-04-4.21100E-14
 -1      2792 1.22013E-02-2.57855E-04-4.45607E-14
 -1      2793 1.23466E-02-2.56838E-04-4.55488E-14
 -1      2794 1.21440E-02-2.22439E-04-4.40679E-14
 -1      2795 1.24916E-02-2.55987E-04-4.65417E-14
 -1      2796 1.26364E-02-2.55199E-04-4.75404E-14
 -1      2797 1.24318E-02-2.20478E-04-4.60480E-14
 -1      2798 1.27808E-02-2.54360E-04-4.85446E-14
 -1      2799 1.29251E-02-2.53407E-04-4.95506E-14
 -1      2800 1.27191E-02-2.18833E-04-4.80452E-14
 -1      2801 1.30691E-02-2.52271E-04-5.05606E-14
 -1      2802 1.32130E-02-2.50913E-04-5.15749E-14
 -1      2803 1.30058E-02-2.16795E-04-5.00572E-14
 -1      2804 1.33567E-02-2.49297E-04-5.25940E-14
 -1      2805 1.35003E-02-2.47402E-04-5.36177E-14
 -1      2806 1.32923E-02-2.13931E-04-5.20858E-14
 -1      2807 1.36438E-02-2.45214E-04-5.46451E-14
 -1      2808 1.37872E-02-2.42720E-04-5.56732E-14
 -1      2809 1.35786E-02-2.10004E-04-5.41307E-14
 -1      2810 1.39304E-02-2.39920E-04-5.67032E-14
 -1      2811 1.40736E-02-2.36810E-04-5.77397E-14
 -1      2812 1.38647E-02-2.04902E-04-5.61868E-14
 -1      2813 2.27055E-03 4.64538E-04-1.77369E-15
 -1      2814 2.12836E-03 4.59627E-04-1.55312E-15
 -1      2815 1.43540E-02 6.08317E-04-5.86423E-14
 -1      2816 1.43514E-02 6.60319E-04-5.85407E-14
 -1      2817 1.42082E-02 6.53216E-04-5.75363E-14
 -1      2818 9.02123E-03 8.33384E-04-2.50226E-14
 -1      2819 9.20154E-03 7.21402E-04-2.55906E-14
 -1      2820 1.98614E-03 4.52894E-04-1.34788E-15
 -1      2821 1.84386E-03 4.44184E-04-1.15772E-15
 -1      2822 2.04845E-03 4.20336E-04-1.48766E-15
 -1      2823 2.84004E-03 4.70436E-04-2.81361E-15
 -1      2824 2.69749E-03 4.70713E-04-2.53000E-15
 -1      2825 3.12572E-03 4.67205E-04-3.42758E-15
 -1      2826 2.98278E-03 4.69238E-04-3.11262E-15
 -1      2827 2.90540E-03 4.33333E-04-3.01111E-15
 -1      2828 3.41233E-03 4.61080E-04-4.10380E-15
 -1      2829 3.26889E-03 4.64460E-04-3.75772E-15
 -1      2830 3.19150E-03 4.29320E-04-3.64315E-15
 -1      2831 3.70012E-03 4.52811E-04-4.84297E-15
 -1      2832 3.55606E-03 4.57172E-04-4.46582E-15
 -1      2833 3.47810E-03 4.22646E-04-4.33759E-15
 -1      2834 3.98933E-03 4.43149E-04-5.64589E-15
 -1      2835 3.84452E-03 4.48107E-04-5.23645E-15
 -1      2836 3.76534E-03 4.14023E-04-5.09487E-15
 -1      2837 4.28024E-03 4.32979E-04-6.51180E-15
 -1      2838 4.13453E-03 4.38068E-04-6.07079E-15
 -1      2839 4.05340E-03 4.04185E-04-5.91531E-15
 -1      2840 4.57323E-03 4.23471E-04-7.43905E-15
 -1      2841 4.42643E-03 4.28060E-04-6.96768E-15
 -1      2842 4.34248E-03 3.94019E-04-6.79715E-15
 -1      2843 4.86880E-03 4.16253E-04-8.42697E-15
 -1      2844 4.72063E-03 4.19459E-04-7.92607E-15
 -1      2845 4.63291E-03 3.84698E-04-7.74008E-15
 -1      2846 5.16768E-03 4.13614E-04-9.47174E-15
 -1      2847 5.01775E-03 4.14194E-04-8.94190E-15
 -1      2848 4.92519E-03 3.77854E-04-8.74173E-15
 -1      2849 5.47099E-03 4.18704E-04-1.05717E-14
 -1      2850 5.31870E-03 4.14955E-04-1.00151E-14
 -1      2851 5.22017E-03 3.75756E-04-9.80063E-15
 -1      2852 5.78036E-03 4.35723E-04-1.17263E-14
 -1      2853 5.62482E-03 4.25392E-04-1.11422E-14
 -1      2854 5.51927E-03 3.81514E-04-1.09141E-14
 -1      2855 6.09805E-03 4.69981E-04-1.29339E-14
 -1      2856 5.93808E-03 4.50261E-04-1.23232E-14
 -1      2857 5.82471E-03 3.99297E-04-1.20808E-14
 -1      2858 6.42672E-03 5.27659E-04-1.41960E-14
 -1      2859 6.26102E-03 4.95373E-04-1.35588E-14
 -1      2860 6.13975E-03 4.34529E-04-1.33022E-14
 -1      2861 6.76836E-03 6.14622E-04-1.55105E-14
 -1      2862 6.59616E-03 5.67053E-04-1.48465E-14
 -1      2863 6.46840E-03 4.93993E-04-1.45761E-14
 -1      2864 7.12215E-03 7.33316E-04-1.68795E-14
 -1      2865 6.94443E-03 6.70022E-04-1.61883E-14
 -1      2866 6.81399E-03 5.84718E-04-1.59029E-14
 -1      2867 7.48147E-03 8.76271E-04-1.82994E-14
 -1      2868 7.30225E-03 8.02957E-04-1.75831E-14
 -1      2869 7.17586E-03 7.10943E-04-1.72833E-14
 -1      2870 7.83380E-03 1.01822E-03-1.97732E-14
 -1      2871 7.65923E-03 9.50459E-04-1.90300E-14
 -1      2872 7.54472E-03 8.64997E-04-1.87161E-14
 -1      2873 8.17094E-03 1.11440E-03-2.12963E-14
 -1      2874 8.00369E-03 1.07556E-03-2.05288E-14
 -1      2875 7.90497E-03 1.01434E-03-2.01996E-14
 -1      2876 8.49843E-03 1.12517E-03-2.28634E-14
 -1      2877 8.33375E-03 1.13180E-03-2.20730E-14
 -1      2878 8.24781E-03 1.10223E-03-2.17345E-14
 -1      2879 9.18324E-03 9.19390E-04-2.61303E-14
 -1      2880 9.00627E-03 9.86593E-04-2.52959E-14
 -1      2881 9.54224E-03 7.84790E-04-2.78258E-14
 -1      2882 9.36307E-03 8.50322E-04-2.69732E-14
 -1      2883 9.29838E-03 8.32904E-04-2.65971E-14
 -1      2884 9.89688E-03 6.72847E-04-2.95606E-14
 -1      2885 9.72102E-03 7.25141E-04-2.86901E-14
 -1      2886 9.66582E-03 6.97926E-04-2.83028E-14
 -1      2887 1.02403E-02 5.92414E-04-3.13320E-14
 -1      2888 1.00705E-02 6.28771E-04-3.04409E-14
 -1      2889 1.00216E-02 5.95586E-04-3.00463E-14
 -1      2890 1.05706E-02 5.41759E-04-3.31377E-14
 -1      2891 1.04071E-02 5.63809E-04-3.22296E-14
 -1      2892 1.03605E-02 5.27736E-04-3.18238E-14
 -1      2893 1.08897E-02 5.15122E-04-3.49840E-14
 -1      2894 1.07315E-02 5.25906E-04-3.40553E-14
 -1      2895 1.06836E-02 4.88392E-04-3.36395E-14
 -1      2896 1.12003E-02 5.06264E-04-3.68745E-14
 -1      2897 1.10459E-02 5.08863E-04-3.59251E-14
 -1      2898 1.09948E-02 4.70445E-04-3.54969E-14
 -1      2899 1.15046E-02 5.09751E-04-3.88027E-14
 -1      2900 1.13531E-02 5.06764E-04-3.78340E-14
 -1      2901 1.12978E-02 4.67608E-04-3.73944E-14
 -1      2902 1.18045E-02 5.21278E-04-4.07629E-14
 -1      2903 1.16550E-02 5.14728E-04-3.97786E-14
 -1      2904 1.15955E-02 4.74957E-04-3.93281E-14
 -1      2905 1.21011E-02 5.37631E-04-4.27554E-14
 -1      2906 1.19531E-02 5.29006E-04-4.17557E-14
 -1      2907 1.18898E-02 4.88769E-04-4.12939E-14
 -1      2908 1.23951E-02 5.56511E-04-4.47713E-14
 -1      2909 1.22483E-02 5.46861E-04-4.37608E-14
 -1      2910 1.21818E-02 5.06327E-04-4.32902E-14
 -1      2911 1.26872E-02 5.76350E-04-4.68023E-14
 -1      2912 1.25414E-02 5.66381E-04-4.57851E-14
 -1      2913 1.24722E-02 5.25711E-04-4.53072E-14
 -1      2914 1.29778E-02 5.96127E-04-4.88433E-14
 -1      2915 1.28327E-02 5.86291E-04-4.78231E-14
 -1      2916 1.27615E-02 5.45619E-04-4.73405E-14
 -1      2917 1.32672E-02 6.15214E-04-5.08784E-14
 -1      2918 1.31226E-02 6.05784E-04-4.98609E-14
 -1      2919 1.30499E-02 5.65211E-04-4.93772E-14
 -1      2920 1.35556E-02 6.33256E-04-5.29127E-14
 -1      2921 1.34115E-02 6.24381E-04-5.18971E-14
 -1      2922 1.33376E-02 5.83979E-04-5.14148E-14
 -1      2923 1.38432E-02 6.50080E-04-5.49421E-14
 -1      2924 1.36994E-02 6.41826E-04-5.39271E-14
 -1      2925 1.36248E-02 6.01645E-04-5.34453E-14
 -1      2926 1.40975E-02 6.55705E-04-5.67474E-14
 -1      2927 1.39541E-02 6.48030E-04-5.57368E-14
 -1      2928 1.38792E-02 6.08126E-04-5.52551E-14
 -1      2929 1.41005E-02 6.03745E-04-5.68421E-14
 -1      2930 1.43330E-02 2.25270E-04-5.90057E-14
 -1      2931 1.43379E-02 2.65317E-04-5.89874E-14
 -1      2932 1.41702E-02-2.35361E-04-5.84425E-14
 -1      2933 1.42668E-02-2.33771E-04-5.91467E-14
 -1      2934 1.41042E-02-2.00526E-04-5.79201E-14
 -1      2935 1.43511E-02 3.85877E-04-5.89255E-14
 -1      2936 1.43552E-02 4.26319E-04-5.89021E-14
 -1      2937 1.43223E-02 1.45195E-04-5.90375E-14
 -1      2938 1.43278E-02 1.85247E-04-5.90240E-14
 -1      2939 1.42078E-02 2.00713E-04-5.81259E-14
 -1      2940 1.43425E-02 3.05405E-04-5.89685E-14
 -1      2941 1.43469E-02 3.45586E-04-5.89470E-14
 -1      2942 1.42263E-02 3.60368E-04-5.80548E-14
 -1      2943 1.42176E-02 2.80391E-04-5.80937E-14
 -1      2944 1.43108E-02 6.62617E-05-5.90615E-14
 -1      2945 1.43167E-02 1.05775E-04-5.90505E-14
 -1      2946 1.41970E-02 1.21696E-04-5.81517E-14
 -1      2947 1.42984E-02-1.45044E-05-5.90872E-14
 -1      2948 1.43047E-02 2.59547E-05-5.90764E-14
 -1      2949 1.41850E-02 4.23617E-05-5.81744E-14
 -1      2950 1.42856E-02-9.59506E-05-5.91082E-14
 -1      2951 1.42920E-02-5.51309E-05-5.90967E-14
 -1      2952 1.41721E-02-3.82440E-05-5.81951E-14
 -1      2953 6.04747E-03 5.40618E-05-1.67356E-14
 -1      2954 6.12214E-03 6.96381E-05-1.68479E-14
 -1      2955 1.05285E-02 1.14766E-04-2.90776E-14
 -1      2956 1.05860E-02 1.01045E-04-2.91566E-14
 -1      2957 6.85913E-03-2.70776E-04-1.82661E-14
 -1      2958 6.67991E-03-1.88133E-04-1.78952E-14
 -1      2959 1.70146E-03 4.33099E-04-9.82938E-16
 -1      2960 1.55886E-03 4.19441E-04-8.23248E-16
 -1      2961 1.76261E-03 4.03270E-04-1.10351E-15
 -1      2962 2.55508E-03 4.69910E-04-2.26249E-15
 -1      2963 2.41278E-03 4.67924E-04-2.01063E-15
 -1      2964 2.33406E-03 4.29981E-04-1.93327E-15
 -1      2965 2.61964E-03 4.33884E-04-2.44107E-15
 -1      2966 1.03377E-03-3.11348E-04-4.89192E-16
 -1      2967 1.17707E-03-3.36713E-04-6.18022E-16
 -1      2968 1.23871E-03-3.15156E-04-7.00286E-16
 -1      2969 7.84883E-04 1.22132E-04-3.17373E-16
 -1      2970 7.82500E-04 9.88937E-05-3.24746E-16
 -1      2971 9.00093E-04 9.81709E-05-4.16686E-16
 -1      2972 9.05848E-04 1.49811E-04-3.98702E-16
 -1      2973 1.41608E-03 4.02695E-04-6.78331E-16
 -1      2974 1.27296E-03 3.82606E-04-5.48403E-16
 -1      2975 1.18981E-03 3.37794E-04-5.13410E-16
 -1      2976 1.47638E-03 3.76642E-04-7.78728E-16
 -1      2977 8.06626E-03 1.01913E-03-2.11620E-14
 -1      2978 8.21419E-03 1.06159E-03-2.17668E-14
 -1      2979 9.94933E-03-1.51819E-04-2.81405E-14
 -1      2980 9.73118E-03-2.56448E-04-2.76515E-14
 -1      2981 7.82224E-04-9.68515E-05-3.52095E-16
 -1      2982 7.84529E-04-1.20005E-04-3.51038E-16
 -1      2983 6.52004E-03 1.98638E-04-1.73965E-14
 -1      2984 6.71958E-03 2.85244E-04-1.76797E-14
 -1      2985 1.03151E-02-6.71696E-06-2.87774E-14
 -1      2986 1.01691E-02-5.84244E-05-2.85491E-14
 -1      2987 1.05530E-02 5.80626E-05-2.92465E-14
 -1      2988 1.04483E-02 3.42572E-05-2.90125E-14
 -1      2989 1.04171E-02 1.23237E-05-2.94094E-14
 -1      2990 6.19614E-03-1.03231E-05-1.70460E-14
 -1      2991 6.08846E-03 1.48983E-05-1.68383E-14
 -1      2992 6.01589E-03 3.36083E-05-1.66347E-14
 -1      2993 6.00788E-03 4.03750E-05-1.66336E-14
 -1      2994 6.96996E-03 4.09966E-04-1.81257E-14
 -1      2995 7.17538E-03 5.22546E-04-1.85655E-14
 -1      2996 6.23067E-03 9.92241E-05-1.70210E-14
 -1      2997 6.34643E-03 1.34107E-04-1.71604E-14
 -1      2998 7.71068E-03 8.43403E-04-1.99203E-14
 -1      2999 7.87237E-03 9.35529E-04-2.04449E-14
 -1      3000 8.35828E-03-9.34410E-04-2.30271E-14
 -1      3001 8.22001E-03-9.32947E-04-2.24262E-14
 -1      3002 6.49017E-03-1.07070E-04-1.75752E-14
 -1      3003 6.34401E-03-5.62855E-05-1.73126E-14
 -1      3004 7.40669E-03 6.59274E-04-1.90904E-14
 -1      3005 7.56335E-03 7.55917E-04-1.95019E-14
 -1      3006 7.63335E-03 8.16557E-04-1.95247E-14
 -1      3007 7.22011E-03-4.62217E-04-1.91112E-14
 -1      3008 7.04972E-03-3.65298E-04-1.87304E-14
 -1      3009 1.42971E-02-1.97370E-04-5.93241E-14
 -1      3010 9.50838E-03-3.75865E-04-2.70980E-14
 -1      3011 9.34829E-03-4.68849E-04-2.66574E-14
 -1      3012 8.37640E-03 1.07287E-03-2.24532E-14
 -1      3013 8.51222E-03 1.05580E-03-2.30373E-14
 -1      3014 9.82131E-03 3.84979E-04-2.74620E-14
 -1      3015 9.98823E-03 3.09778E-04-2.79181E-14
 -1      3016 8.04993E-03-8.96374E-04-2.17383E-14
 -1      3017 7.87882E-03-8.28103E-04-2.10898E-14
 -1      3018 7.99517E-04-2.53338E-04-3.15665E-16
 -1      3019 9.30808E-04-2.88375E-04-4.07362E-16
 -1      3020 9.93082E-04-2.72811E-04-4.74216E-16
 -1      3021 7.89481E-04-2.27444E-04-3.21059E-16
 -1      3022 7.87558E-04-1.43979E-04-3.48828E-16
 -1      3023 7.91384E-04-1.69008E-04-3.45291E-16
 -1      3024 9.05363E-04-1.47299E-04-4.43764E-16
 -1      3025 8.95896E-04 1.00128E-06-4.38953E-16
 -1      3026 7.78103E-04-9.59550E-06-3.47663E-16
 -1      3027 7.78471E-04-3.09753E-05-3.49967E-16
 -1      3028 7.95598E-03 9.86064E-04-2.06520E-14
 -1      3029 8.94439E-03 8.94062E-04-2.48365E-14
 -1      3030 8.64990E-04 2.64434E-04-2.91827E-16
 -1      3031 8.82713E-03-7.73110E-04-2.49586E-14
 -1      3032 8.74981E-03-8.23151E-04-2.47330E-14
 -1      3033 8.94016E-03-7.21393E-04-2.54644E-14
 -1      3034 8.11669E-03-9.20889E-04-2.19853E-14
 -1      3035 9.32100E-03 6.62987E-04-2.60658E-14
 -1      3036 7.75771E-03-7.75648E-04-2.06236E-14
 -1      3037 7.63545E-03-7.17940E-04-2.01615E-14
 -1      3038 7.83315E-03-8.26074E-04-2.08357E-14
 -1      3039 9.72307E-03 4.45485E-04-2.73213E-14
 -1      3040 8.29148E-03 1.07686E-03-2.20554E-14
 -1      3041 1.42341E-02 4.40584E-04-5.80101E-14
 -1      3042 1.43591E-02 4.66583E-04-5.88767E-14
 -1      3043 1.43630E-02 5.07032E-04-5.88494E-14
 -1      3044 9.83196E-04 2.73184E-04-3.81992E-16
 -1      3045 8.83278E-03 1.04771E-03-2.44739E-14
 -1      3046 8.66283E-03 1.09520E-03-2.36631E-14
 -1      3047 8.58397E-03 1.08624E-03-2.33105E-14
 -1      3048 8.93276E-03 9.78422E-04-2.49309E-14
 -1      3049 7.27972E-03 6.02464E-04-1.85858E-14
 -1      3050 9.24481E-03-5.41548E-04-2.64585E-14
 -1      3051 1.43499E-02 5.67354E-04-5.86730E-14
 -1      3052 1.04758E-02 1.37497E-04-2.92253E-14
 -1      3053 1.05581E-02 1.30466E-04-2.98079E-14
 -1      3054 1.04186E-02 1.66858E-04-2.93705E-14
 -1      3055 6.56320E-03-1.57675E-04-1.74248E-14
 -1      3056 1.06369E-02 9.51094E-05-2.96009E-14
 -1      3057 6.14387E-03 8.46850E-05-1.65487E-14
 -1      3058 5.99529E-03 4.69111E-05-1.62783E-14
 -1      3059 1.43033E-02-1.56026E-04-5.93208E-14
 -1      3060 1.01206E-02 2.63485E-04-2.84366E-14
 -1      3061 1.02437E-02 2.30265E-04-2.89571E-14
 -1      3062 1.00584E-02 3.15752E-04-2.86005E-14
 -1      3063 1.06592E-02 7.67733E-05-2.99421E-14
 -1      3064 1.06139E-02 7.00460E-05-2.95921E-14
 -1      3065 1.06035E-02 5.85112E-05-2.99944E-14
 -1      3066 6.92336E-03-3.23747E-04-1.82001E-14
 -1      3067 6.82014E-03 3.45943E-04-1.76237E-14
 -1      3068 6.90522E-03 4.09716E-04-1.75660E-14
 -1      3069 6.67774E-03 2.97248E-04-1.71282E-14
 -1      3070 6.02017E-03 2.16852E-05-1.63802E-14
 -1      3071 7.79258E-04-5.25029E-05-3.51431E-16
 -1      3072 7.80483E-04-7.44484E-05-3.52040E-16
 -1      3073 8.99801E-04-9.58383E-05-4.46271E-16
 -1      3074 8.96807E-04-4.68730E-05-4.44306E-16
 -1      3075 6.41352E-03 1.70954E-04-1.69510E-14
 -1      3076 7.41878E-03-5.94748E-04-1.94947E-14
 -1      3077 7.32490E-03-5.29019E-04-1.93026E-14
 -1      3078 7.20702E-03-4.81219E-04-1.88521E-14
 -1      3079 1.00837E-02-1.11313E-04-2.87605E-14
 -1      3080 9.66318E-03-3.15156E-04-2.77892E-14
 -1      3081 6.23805E-03-3.67967E-05-1.68457E-14
 -1      3082 1.41435E-02-1.69549E-04-5.81686E-14
 -1      3083 1.42463E-02-1.26799E-04-5.88632E-14
 -1      3084 1.41261E-02-1.09493E-04-5.79594E-14
 -1      3085 1.40472E-02-1.71014E-04-5.74668E-14
 -1      3086 8.60308E-03 1.04350E-03-2.34252E-14
 -1      3087 1.04069E-03 2.40531E-04-4.58224E-16
 -1      3088 1.03413E-03 2.08996E-04-4.74610E-16
 -1      3089 1.73211E-03-3.33193E-04-1.31693E-15
 -1      3090 1.87577E-03-3.42083E-04-1.52496E-15
 -1      3091 2.01941E-03-3.49093E-04-1.74792E-15
 -1      3092 2.16303E-03-3.54364E-04-1.98577E-15
 -1      3093 1.94030E-03-3.10546E-04-1.64410E-15
 -1      3094 2.30658E-03-3.58159E-04-2.23846E-15
 -1      3095 2.45007E-03-3.60592E-04-2.50621E-15
 -1      3096 2.22799E-03-3.20525E-04-2.11994E-15
 -1      3097 2.59348E-03-3.61874E-04-2.78934E-15
 -1      3098 2.73681E-03-3.62093E-04-3.08755E-15
 -1      3099 2.51541E-03-3.25167E-04-2.65555E-15
 -1      3100 2.88005E-03-3.61415E-04-3.39958E-15
 -1      3101 3.02322E-03-3.59908E-04-3.72734E-15
 -1      3102 2.80235E-03-3.25619E-04-3.25014E-15
 -1      3103 3.16629E-03-3.57706E-04-4.07068E-15
 -1      3104 3.30930E-03-3.54862E-04-4.42811E-15
 -1      3105 3.08868E-03-3.22789E-04-3.90477E-15
 -1      3106 3.45221E-03-3.51493E-04-4.79982E-15
 -1      3107 3.59506E-03-3.47645E-04-5.18590E-15
 -1      3108 3.37431E-03-3.17405E-04-4.61825E-15
 -1      3109 3.73782E-03-3.43431E-04-5.58698E-15
 -1      3110 3.88054E-03-3.38901E-04-6.00190E-15
 -1      3111 3.65916E-03-3.10085E-04-5.38969E-15
 -1      3112 4.02318E-03-3.34175E-04-6.43097E-15
 -1      3113 4.16582E-03-3.29319E-04-6.87419E-15
 -1      3114 3.94319E-03-3.01412E-04-6.21821E-15
 -1      3115 4.30842E-03-3.24477E-04-7.33165E-15
 -1      3116 4.45108E-03-3.19742E-04-7.80283E-15
 -1      3117 4.22642E-03-2.92024E-04-7.10312E-15
 -1      3118 4.59380E-03-3.15293E-04-8.28770E-15
 -1      3119 4.73672E-03-3.11273E-04-8.78643E-15
 -1      3120 4.50900E-03-2.82695E-04-8.04429E-15
 -1      3121 4.87987E-03-3.07901E-04-9.29969E-15
 -1      3122 5.02345E-03-3.05404E-04-9.82512E-15
 -1      3123 4.79128E-03-2.74437E-04-9.04082E-15
 -1      3124 5.16757E-03-3.04035E-04-1.03635E-14
 -1      3125 5.31253E-03-3.04157E-04-1.09162E-14
 -1      3126 5.07405E-03-2.68599E-04-1.00918E-14
 -1      3127 5.45855E-03-3.06045E-04-1.14817E-14
 -1      3128 5.60607E-03-3.10293E-04-1.20601E-14
 -1      3129 5.35871E-03-2.67014E-04-1.11962E-14
 -1      3130 5.75549E-03-3.17173E-04-1.26519E-14
 -1      3131 5.90732E-03-3.27627E-04-1.32566E-14
 -1      3132 5.64774E-03-2.72252E-04-1.23540E-14
 -1      3133 6.06228E-03-3.41899E-04-1.38745E-14
 -1      3134 6.22080E-03-3.61452E-04-1.45053E-14
 -1      3135 5.94506E-03-2.88074E-04-1.35634E-14
 -1      3136 6.38396E-03-3.86565E-04-1.51491E-14
 -1      3137 6.55172E-03-4.19230E-04-1.58048E-14
 -1      3138 6.25623E-03-3.20291E-04-1.48248E-14
 -1      3139 6.72598E-03-4.59106E-04-1.64737E-14
 -1      3140 6.90454E-03-5.08930E-04-1.71551E-14
 -1      3141 6.58896E-03-3.77529E-04-1.61368E-14
 -1      3142 7.46964E-03-7.22867E-04-1.92696E-14
 -1      3143 7.65422E-03-7.96902E-04-1.99965E-14
 -1      3144 7.85308E-03-8.62312E-04-2.08372E-14
 -1      3145 8.03152E-03-9.17055E-04-2.15909E-14
 -1      3146 8.18429E-03-9.51427E-04-2.22746E-14
 -1      3147 8.35434E-03-9.54485E-04-2.30512E-14
 -1      3148 8.62955E-03-8.92742E-04-2.43241E-14
 -1      3149 8.80803E-03-8.27498E-04-2.51326E-14
 -1      3150 8.99103E-03-7.49842E-04-2.59502E-14
 -1      3151 9.24683E-03-6.37063E-04-2.70800E-14
 -1      3152 9.43414E-03-5.60091E-04-2.79201E-14
 -1      3153 9.62009E-03-4.91960E-04-2.87720E-14
 -1      3154 9.80041E-03-4.32892E-04-2.96312E-14
 -1      3155 9.57891E-03-4.60446E-04-2.83373E-14
 -1      3156 9.97663E-03-3.83598E-04-3.05011E-14
 -1      3157 1.01466E-02-3.42363E-04-3.13813E-14
 -1      3158 9.94335E-03-3.45478E-04-3.00582E-14
 -1      3159 1.03117E-02-3.09198E-04-3.22702E-14
 -1      3160 1.04719E-02-2.81805E-04-3.31685E-14
 -1      3161 1.02808E-02-2.70557E-04-3.18184E-14
 -1      3162 1.06283E-02-2.60089E-04-3.40746E-14
 -1      3163 1.07813E-02-2.42457E-04-3.49911E-14
 -1      3164 1.05957E-02-2.23088E-04-3.36124E-14
 -1      3165 1.09316E-02-2.28680E-04-3.59151E-14
 -1      3166 1.10798E-02-2.17707E-04-3.68480E-14
 -1      3167 1.08952E-02-1.93351E-04-3.54451E-14
 -1      3168 1.12263E-02-2.09274E-04-3.77918E-14
 -1      3169 1.13716E-02-2.02733E-04-3.87401E-14
 -1      3170 1.11853E-02-1.75044E-04-3.73135E-14
 -1      3171 1.15160E-02-1.97810E-04-3.96930E-14
 -1      3172 1.16597E-02-1.94107E-04-4.06545E-14
 -1      3173 1.14704E-02-1.64087E-04-3.92121E-14
 -1      3174 1.18029E-02-1.91369E-04-4.16233E-14
 -1      3175 1.19459E-02-1.89352E-04-4.25978E-14
 -1      3176 1.17531E-02-1.57741E-04-4.11362E-14
 -1      3177 1.20886E-02-1.87840E-04-4.35765E-14
 -1      3178 1.22312E-02-1.86685E-04-4.45622E-14
 -1      3179 1.20350E-02-1.54086E-04-4.30849E-14
 -1      3180 1.23736E-02-1.85717E-04-4.55547E-14
 -1      3181 1.25161E-02-1.84846E-04-4.65481E-14
 -1      3182 1.23170E-02-1.51751E-04-4.50581E-14
 -1      3183 1.26586E-02-1.83952E-04-4.75447E-14
 -1      3184 1.28011E-02-1.82981E-04-4.85484E-14
 -1      3185 1.25994E-02-1.49772E-04-4.70485E-14
 -1      3186 1.29436E-02-1.81851E-04-4.95551E-14
 -1      3187 1.30861E-02-1.80536E-04-5.05637E-14
 -1      3188 1.28823E-02-1.47497E-04-4.90516E-14
 -1      3189 1.32287E-02-1.78985E-04-5.15783E-14
 -1      3190 1.33714E-02-1.77186E-04-5.25953E-14
 -1      3191 1.31659E-02-1.44517E-04-5.10707E-14
 -1      3192 1.35140E-02-1.75113E-04-5.36169E-14
 -1      3193 1.36567E-02-1.72761E-04-5.46413E-14
 -1      3194 1.34500E-02-1.40593E-04-5.31031E-14
 -1      3195 1.37805E-02-1.73554E-04-5.55367E-14
 -1      3196 1.39232E-02-1.70668E-04-5.65661E-14
 -1      3197 1.39629E-02-1.40005E-04-5.68131E-14
 -1      3198 1.37157E-02-1.39015E-04-5.50182E-14
 -1      3199 1.40716E-02 9.81130E-05-5.72676E-14
 -1      3200 1.40774E-02 1.37117E-04-5.72587E-14
 -1      3201 3.25695E-03 3.91508E-04-3.86076E-15
 -1      3202 3.11386E-03 3.94177E-04-3.52778E-15
 -1      3203 2.97077E-03 3.96139E-04-3.21021E-15
 -1      3204 2.82767E-03 3.97331E-04-2.90821E-15
 -1      3205 3.03612E-03 3.58979E-04-3.41184E-15
 -1      3206 3.82948E-03 3.75662E-04-5.34815E-15
 -1      3207 3.68630E-03 3.80244E-04-4.95322E-15
 -1      3208 4.11597E-03 3.65832E-04-6.18517E-15
 -1      3209 3.97268E-03 3.70835E-04-5.75898E-15
 -1      3210 3.89256E-03 3.37844E-04-5.60295E-15
 -1      3211 4.40278E-03 3.55835E-04-7.08273E-15
 -1      3212 4.25930E-03 3.60800E-04-6.62633E-15
 -1      3213 4.17709E-03 3.28191E-04-6.45577E-15
 -1      3214 4.69017E-03 3.46827E-04-8.04108E-15
 -1      3215 4.54635E-03 3.51130E-04-7.55459E-15
 -1      3216 4.46120E-03 3.18513E-04-7.36978E-15
 -1      3217 4.97866E-03 3.40393E-04-9.05672E-15
 -1      3218 4.83421E-03 3.43175E-04-8.54183E-15
 -1      3219 4.74511E-03 3.09909E-04-8.34176E-15
 -1      3220 5.26922E-03 3.38715E-04-1.01296E-14
 -1      3221 5.12358E-03 3.38791E-04-9.58650E-15
 -1      3222 5.02933E-03 3.03867E-04-9.37243E-15
 -1      3223 5.56356E-03 3.44775E-04-1.12561E-14
 -1      3224 5.41576E-03 3.40525E-04-1.06857E-14
 -1      3225 5.31493E-03 3.02405E-04-1.04583E-14
 -1      3226 5.86452E-03 3.62633E-04-1.24367E-14
 -1      3227 5.71299E-03 3.51846E-04-1.18404E-14
 -1      3228 5.60391E-03 3.08279E-04-1.15995E-14
 -1      3229 6.17640E-03 3.97811E-04-1.36704E-14
 -1      3230 6.01882E-03 3.77483E-04-1.30466E-14
 -1      3231 5.89975E-03 3.25362E-04-1.27930E-14
 -1      3232 6.50467E-03 4.57928E-04-1.49561E-14
 -1      3233 6.33827E-03 4.23962E-04-1.43070E-14
 -1      3234 6.20775E-03 3.59370E-04-1.40393E-14
 -1      3235 6.85489E-03 5.51672E-04-1.62960E-14
 -1      3236 6.67735E-03 4.99618E-04-1.56192E-14
 -1      3237 6.53572E-03 4.18884E-04-1.53375E-14
 -1      3238 7.22675E-03 6.86437E-04-1.76871E-14
 -1      3239 7.03929E-03 6.13678E-04-1.69855E-14
 -1      3240 6.89091E-03 5.16272E-04-1.66879E-14
 -1      3241 7.93521E-03 9.95183E-04-2.04494E-14
 -1      3242 7.75020E-03 9.17830E-04-1.96975E-14
 -1      3243 8.28204E-03 1.09016E-03-2.19429E-14
 -1      3244 8.10820E-03 1.06006E-03-2.11681E-14
 -1      3245 7.08029E-03 5.29658E-04-1.77269E-14
 -1      3246 7.28195E-03 6.47469E-04-1.82390E-14
 -1      3247 9.79821E-03 6.07275E-04-2.87793E-14
 -1      3248 9.61418E-03 6.67084E-04-2.79161E-14
 -1      3249 1.04824E-02 4.65686E-04-3.23163E-14
 -1      3250 1.03197E-02 4.88883E-04-3.14188E-14
 -1      3251 1.07962E-02 4.37991E-04-3.41421E-14
 -1      3252 1.06411E-02 4.49288E-04-3.32249E-14
 -1      3253 1.06037E-02 4.08925E-04-3.28097E-14
 -1      3254 1.10984E-02 4.28339E-04-3.60096E-14
 -1      3255 1.09484E-02 4.31401E-04-3.50706E-14
 -1      3256 1.09064E-02 3.92142E-04-3.46472E-14
 -1      3257 1.13936E-02 4.30928E-04-3.79160E-14
 -1      3258 1.12467E-02 4.28430E-04-3.69589E-14
 -1      3259 1.11993E-02 3.89741E-04-3.65226E-14
 -1      3260 1.16848E-02 4.41554E-04-3.98525E-14
 -1      3261 1.15395E-02 4.35456E-04-3.88796E-14
 -1      3262 1.14868E-02 3.96823E-04-3.84346E-14
 -1      3263 1.19737E-02 4.57156E-04-4.18252E-14
 -1      3264 1.18294E-02 4.48884E-04-4.08360E-14
 -1      3265 1.17717E-02 4.09999E-04-4.03783E-14
 -1      3266 1.22614E-02 4.75523E-04-4.38242E-14
 -1      3267 1.21176E-02 4.66096E-04-4.28210E-14
 -1      3268 1.20557E-02 4.26850E-04-4.23539E-14
 -1      3269 1.25484E-02 4.95103E-04-4.58432E-14
 -1      3270 1.24049E-02 4.85230E-04-4.48318E-14
 -1      3271 1.23396E-02 4.45636E-04-4.43575E-14
 -1      3272 1.28351E-02 5.14844E-04-4.78781E-14
 -1      3273 1.26918E-02 5.04997E-04-4.68595E-14
 -1      3274 1.26236E-02 4.65130E-04-4.63801E-14
 -1      3275 1.31216E-02 5.34074E-04-4.99132E-14
 -1      3276 1.29783E-02 5.24549E-04-4.88959E-14
 -1      3277 1.29080E-02 4.84504E-04-4.84131E-14
 -1      3278 1.34078E-02 5.52392E-04-5.19473E-14
 -1      3279 1.32647E-02 5.43361E-04-5.09300E-14
 -1      3280 1.31927E-02 5.03229E-04-5.04476E-14
 -1      3281 1.36940E-02 5.69588E-04-5.39791E-14
 -1      3282 1.35509E-02 5.61137E-04-5.29650E-14
 -1      3283 1.34777E-02 5.20999E-04-5.24810E-14
 -1      3284 8.60520E-03 1.06143E-03-2.34273E-14
 -1      3285 8.75537E-03 1.01613E-03-2.41153E-14
 -1      3286 1.01695E-03 6.71854E-05-5.28698E-16
 -1      3287 1.01575E-03 4.05986E-05-5.35311E-16
 -1      3288 1.40458E-02-6.17182E-05-5.73062E-14
 -1      3289 1.40525E-02-2.13813E-05-5.72982E-14
 -1      3290 1.40829E-02 1.76715E-04-5.72455E-14
 -1      3291 1.40881E-02 2.16295E-04-5.72317E-14
 -1      3292 1.39581E-02 1.52988E-04-5.63657E-14
 -1      3293 8.43009E-03 1.09050E-03-2.26320E-14
 -1      3294 8.52964E-03-9.08004E-04-2.38054E-14
 -1      3295 8.43736E-03-9.27314E-04-2.33814E-14
 -1      3296 8.35282E-03-9.45044E-04-2.30274E-14
 -1      3297 5.94017E-03 4.25908E-05-1.57813E-14
 -1      3298 5.98303E-03 5.56208E-05-1.58799E-14
 -1      3299 6.06812E-03 7.79696E-05-1.60645E-14
 -1      3300 6.16714E-03 1.04132E-04-1.62323E-14
 -1      3301 1.15887E-03-2.73564E-04-6.38785E-16
 -1      3302 1.30177E-03-2.92556E-04-7.85369E-16
 -1      3303 6.59228E-03-2.02212E-04-1.71454E-14
 -1      3304 6.42717E-03-1.30279E-04-1.68335E-14
 -1      3305 1.06600E-02 1.02605E-04-3.01311E-14
 -1      3306 1.06791E-02 9.02549E-05-3.00719E-14
 -1      3307 6.99680E-03-3.92100E-04-1.81423E-14
 -1      3308 6.82442E-03-3.09793E-04-1.76854E-14
 -1      3309 1.42244E-02 5.40793E-04-5.78120E-14
 -1      3310 1.82512E-03 3.72790E-04-1.22653E-15
 -1      3311 1.68169E-03 3.62508E-04-1.04720E-15
 -1      3312 1.40591E-02 1.85647E-05-5.72882E-14
 -1      3313 1.40655E-02 5.85016E-05-5.72769E-14
 -1      3314 1.39462E-02 7.43181E-05-5.63856E-14
 -1      3315 1.39331E-02-4.76986E-06-5.64032E-14
 -1      3316 1.01514E-02 5.18865E-04-3.05295E-14
 -1      3317 9.97821E-03 5.58402E-04-2.96492E-14
 -1      3318 9.93986E-03 5.18808E-04-2.92540E-14
 -1      3319 1.02841E-02 4.47405E-04-3.10132E-14
 -1      3320 3.54317E-03 3.84458E-04-4.57310E-15
 -1      3321 3.40004E-03 3.88250E-04-4.20894E-15
 -1      3322 3.32205E-03 3.53893E-04-4.08026E-15
 -1      3323 3.60754E-03 3.46638E-04-4.81084E-15
 -1      3324 7.85811E-04-1.85827E-04-3.35588E-16
 -1      3325 7.93587E-04-2.09275E-04-3.32525E-16
 -1      3326 8.94502E-04-2.31087E-04-4.06413E-16
 -1      3327 9.03856E-04-1.92876E-04-4.29791E-16
 -1      3328 1.14526E-03 3.07155E-04-4.99831E-16
 -1      3329 1.08272E-03 2.68627E-04-4.74704E-16
 -1      3330 1.20190E-03 2.69520E-04-5.88830E-16
 -1      3331 1.28847E-03 3.28308E-04-6.23552E-16
 -1      3332 6.30087E-03 1.46956E-04-1.64603E-14
 -1      3333 6.45529E-03 2.04617E-04-1.66891E-14
 -1      3334 6.19805E-03 1.31894E-04-1.59760E-14
 -1      3335 2.11179E-03 3.87255E-04-1.62992E-15
 -1      3336 1.96847E-03 3.80985E-04-1.42083E-15
 -1      3337 1.88869E-03 3.41734E-04-1.35302E-15
 -1      3338 6.02588E-03 5.78820E-06-1.60799E-14
 -1      3339 5.95627E-03 2.34143E-05-1.58803E-14
 -1      3340 1.05132E-02 2.39879E-05-3.00938E-14
 -1      3341 1.03967E-02-1.21687E-05-2.98536E-14
 -1      3342 1.44500E-03-3.08669E-04-9.47240E-16
 -1      3343 1.58852E-03-3.22110E-04-1.12456E-15
 -1      3344 1.65271E-03-2.93825E-04-1.22812E-15
 -1      3345 9.41429E-03-4.84292E-04-2.73634E-14
 -1      3346 9.21269E-03-5.87722E-04-2.65864E-14
 -1      3347 8.90185E-03 9.43032E-04-2.47398E-14
 -1      3348 9.08665E-03 8.37223E-04-2.54719E-14
 -1      3349 9.29056E-03 7.07161E-04-2.61552E-14
 -1      3350 9.46373E-03 5.96072E-04-2.66602E-14
 -1      3351 1.02273E-02-7.51193E-05-2.94923E-14
 -1      3352 1.00345E-02-1.58605E-04-2.90774E-14
 -1      3353 6.26533E-03-6.90653E-05-1.65240E-14
 -1      3354 6.13390E-03-2.84042E-05-1.62639E-14
 -1      3355 7.59816E-03 8.23382E-04-1.92428E-14
 -1      3356 7.58609E-03 8.54952E-04-1.90000E-14
 -1      3357 7.39778E-03 7.70637E-04-1.82734E-14
 -1      3358 7.46525E-03 7.43440E-04-1.88325E-14
 -1      3359 1.01514E-03 1.42313E-05-5.40922E-16
 -1      3360 1.01510E-03-1.20325E-05-5.45178E-16
 -1      3361 1.13569E-03 2.96562E-05-6.52568E-16
 -1      3362 1.02129E-03 1.21500E-04-5.11486E-16
 -1      3363 1.01878E-03 9.40744E-05-5.20756E-16
 -1      3364 1.13843E-03 8.70991E-05-6.36915E-16
 -1      3365 1.36587E-03-2.68768E-04-8.72932E-16
 -1      3366 7.08988E-03-4.53265E-04-1.83282E-14
 -1      3367 1.41093E-02 4.14791E-04-5.71428E-14
 -1      3368 1.41129E-02 4.54750E-04-5.71189E-14
 -1      3369 1.06385E-02 1.18037E-04-3.02791E-14
 -1      3370 1.07048E-02 1.10674E-04-3.07534E-14
 -1      3371 1.06082E-02 1.38098E-04-3.04282E-14
 -1      3372 7.30738E-03-6.53224E-04-1.86628E-14
 -1      3373 7.37294E-03-6.45692E-04-1.90148E-14
 -1      3374 7.12120E-03-5.84506E-04-1.79559E-14
 -1      3375 1.02414E-03-1.47082E-04-5.50477E-16
 -1      3376 1.02820E-03-1.76054E-04-5.47387E-16
 -1      3377 9.07654E-03 8.99679E-04-2.55664E-14
 -1      3378 8.89318E-03 9.73613E-04-2.47433E-14
 -1      3379 2.39826E-03 3.95036E-04-2.09561E-15
 -1      3380 2.25505E-03 3.91896E-04-1.85498E-15
 -1      3381 2.17598E-03 3.53759E-04-1.77596E-15
 -1      3382 2.74977E-03 3.61225E-04-2.80522E-15
 -1      3383 2.68456E-03 3.97614E-04-2.62208E-15
 -1      3384 2.54143E-03 3.96909E-04-2.35111E-15
 -1      3385 9.59696E-03 6.01554E-04-2.75653E-14
 -1      3386 9.44766E-03 7.05085E-04-2.70989E-14
 -1      3387 6.66491E-03-2.66884E-04-1.70888E-14
 -1      3388 9.25464E-03 7.84973E-04-2.62566E-14
 -1      3389 1.38047E-02 5.67827E-04-5.47731E-14
 -1      3390 1.37308E-02 5.27817E-04-5.42919E-14
 -1      3391 1.39153E-02 5.65861E-04-5.55684E-14
 -1      3392 1.41016E-02 3.34797E-04-5.71844E-14
 -1      3393 1.41056E-02 3.74706E-04-5.71644E-14
 -1      3394 1.39848E-02 3.88751E-04-5.62725E-14
 -1      3395 7.62797E-03-7.48318E-04-1.99974E-14
 -1      3396 7.54800E-03-6.85530E-04-1.97905E-14
 -1      3397 5.98348E-03 6.95774E-05-1.55707E-14
 -1      3398 1.40929E-02 2.55633E-04-5.72177E-14
 -1      3399 1.40974E-02 2.95293E-04-5.72012E-14
 -1      3400 1.39773E-02 3.09651E-04-5.63102E-14
 -1      3401 1.39684E-02 2.31356E-04-5.63407E-14
 -1      3402 1.03613E-02 2.04561E-04-2.95415E-14
 -1      3403 1.04692E-02 1.88487E-04-3.01277E-14
 -1      3404 1.03099E-02 2.47926E-04-2.97094E-14
 -1      3405 6.93024E-03 4.69747E-04-1.72273E-14
 -1      3406 9.96791E-03 3.77869E-04-2.85570E-14
 -1      3407 1.00986E-02 3.34731E-04-2.90804E-14
 -1      3408 1.07041E-02 8.36527E-05-3.04752E-14
 -1      3409 5.90464E-03 3.12717E-05-1.54875E-14
 -1      3410 5.86421E-03 3.88657E-05-1.50983E-14
 -1      3411 5.88067E-03 1.85777E-05-1.51960E-14
 -1      3412 6.53862E-03 2.54701E-04-1.66324E-14
 -1      3413 6.61491E-03 3.09718E-04-1.65743E-14
 -1      3414 6.40830E-03 2.24227E-04-1.61441E-14
 -1      3415 6.29153E-03-1.10113E-04-1.62522E-14
 -1      3416 1.41135E-02 4.98891E-04-5.70716E-14
 -1      3417 1.40998E-02 5.58882E-04-5.68974E-14
 -1      3418 1.39893E-02 5.61191E-04-5.61048E-14
 -1      3419 1.39886E-02 4.72556E-04-5.62057E-14
 -1      3420 1.01850E-03-9.16220E-05-5.51723E-16
 -1      3421 1.02092E-03-1.18991E-04-5.51750E-16
 -1      3422 1.14366E-03-1.43625E-04-6.68140E-16
 -1      3423 1.03527E-02-5.22710E-05-3.01762E-14
 -1      3424 7.42894E-03-6.37056E-04-1.93334E-14
 -1      3425 1.02880E-03 1.78785E-04-4.88745E-16
 -1      3426 1.02462E-03 1.49730E-04-5.00983E-16
 -1      3427 1.14413E-03 1.46346E-04-6.15502E-16
 -1      3428 1.15353E-03 2.08784E-04-5.87109E-16
 -1      3429 1.05959E-02 4.24128E-05-3.04438E-14
 -1      3430 1.05918E-02 2.16601E-05-3.08948E-14
 -1      3431 1.06667E-02 5.48986E-05-3.07953E-14
 -1      3432 7.74195E-03-8.21565E-04-2.03719E-14
 -1      3433 6.03361E-03-1.86047E-05-1.57672E-14
 -1      3434 9.80885E-03-2.75821E-04-2.85892E-14
 -1      3435 9.61339E-03-3.78971E-04-2.80258E-14
 -1      3436 9.67089E-03 4.99441E-04-2.74150E-14
 -1      3437 9.97477E-03-2.23370E-04-2.93170E-14
 -1      3438 1.39846E-02-1.16047E-04-5.69371E-14
 -1      3439 1.40242E-02-8.55463E-05-5.71822E-14
 -1      3440 1.39046E-02-6.82786E-05-5.62875E-14
 -1      3441 1.38611E-02-1.15760E-04-5.60388E-14
 -1      3442 1.55673E-03 3.55438E-04-8.98573E-16
 -1      3443 1.41331E-03 3.40297E-04-7.47056E-16
 -1      3444 1.36952E-03 3.10438E-04-7.28435E-16
 -1      3445 1.61974E-03 3.27520E-04-1.00707E-15
 -1      3446 9.96189E-04-2.51416E-04-4.88487E-16
 -1      3447 6.98204E-03-4.89091E-04-1.76033E-14
 -1      3448 1.06039E-03-2.34254E-04-5.57795E-16
 -1      3449 9.73368E-03 5.04854E-04-2.78854E-14
 -1      3450 8.52423E-03-9.19708E-04-2.38295E-14
 -1      3451 9.12355E-03-6.55163E-04-2.63546E-14
 -1      3452 6.02349E-03-4.44569E-05-1.53878E-14
 -1      3453 5.93002E-03-1.14256E-05-1.52102E-14
 -1      3454 1.06500E-03-2.13249E-04-5.70778E-16
 -1      3455 2.14974E-03-2.83057E-04-2.00267E-15
 -1      3456 2.29370E-03-2.86334E-04-2.25513E-15
 -1      3457 2.43756E-03-2.88479E-04-2.52265E-15
 -1      3458 2.58129E-03-2.89573E-04-2.80532E-15
 -1      3459 2.36006E-03-2.51867E-04-2.39176E-15
 -1      3460 2.72484E-03-2.89778E-04-3.10201E-15
 -1      3461 2.86820E-03-2.89152E-04-3.41349E-15
 -1      3462 2.64764E-03-2.53902E-04-2.95521E-15
 -1      3463 3.01133E-03-2.87829E-04-3.74023E-15
 -1      3464 3.15421E-03-2.85851E-04-4.08205E-15
 -1      3465 2.93432E-03-2.52791E-04-3.57793E-15
 -1      3466 3.29680E-03-2.83333E-04-4.43841E-15
 -1      3467 3.43912E-03-2.80303E-04-4.80856E-15
 -1      3468 3.21978E-03-2.49196E-04-4.25975E-15
 -1      3469 3.58111E-03-2.76867E-04-5.19397E-15
 -1      3470 3.72279E-03-2.73047E-04-5.59371E-15
 -1      3471 3.50375E-03-2.43653E-04-5.00029E-15
 -1      3472 3.86410E-03-2.68952E-04-6.00656E-15
 -1      3473 4.00509E-03-2.64605E-04-6.43452E-15
 -1      3474 3.78599E-03-2.36625E-04-5.79749E-15
 -1      3475 4.14570E-03-2.60124E-04-6.87669E-15
 -1      3476 4.28598E-03-2.55543E-04-7.33247E-15
 -1      3477 4.06632E-03-2.28560E-04-6.65163E-15
 -1      3478 4.42589E-03-2.51000E-04-7.80218E-15
 -1      3479 4.56553E-03-2.46552E-04-8.28539E-15
 -1      3480 4.34459E-03-2.19945E-04-7.56166E-15
 -1      3481 4.70487E-03-2.42357E-04-8.78341E-15
 -1      3482 4.84407E-03-2.38516E-04-9.29549E-15
 -1      3483 4.62079E-03-2.11359E-04-8.52791E-15
 -1      3484 4.98314E-03-2.35205E-04-9.82028E-15
 -1      3485 5.12236E-03-2.32604E-04-1.03588E-14
 -1      3486 4.89518E-03-2.03530E-04-9.54961E-15
 -1      3487 5.26179E-03-2.30895E-04-1.09114E-14
 -1      3488 5.40189E-03-2.30405E-04-1.14778E-14
 -1      3489 5.16844E-03-1.97394E-04-1.06267E-14
 -1      3490 5.54283E-03-2.31291E-04-1.20568E-14
 -1      3491 5.68534E-03-2.34213E-04-1.26491E-14
 -1      3492 5.44202E-03-1.94213E-04-1.17597E-14
 -1      3493 5.82979E-03-2.39273E-04-1.32535E-14
 -1      3494 5.97726E-03-2.47732E-04-1.38712E-14
 -1      3495 5.71869E-03-1.95970E-04-1.29441E-14
 -1      3496 6.12823E-03-2.59630E-04-1.45019E-14
 -1      3497 6.28444E-03-2.77247E-04-1.51450E-14
 -1      3498 6.00339E-03-2.06227E-04-1.41797E-14
 -1      3499 1.04879E-02-3.41477E-05-3.10006E-14
 -1      3500 1.03391E-02-9.15569E-05-3.06302E-14
 -1      3501 6.09244E-03 1.23441E-04-1.54113E-14
 -1      3502 6.21375E-03 1.63352E-04-1.56319E-14
 -1      3503 8.42756E-03-9.51008E-04-2.34038E-14
 -1      3504 1.02578E-02-2.29845E-04-3.13664E-14
 -1      3505 1.04162E-02-2.04256E-04-3.22572E-14
 -1      3506 1.05691E-02-1.85086E-04-3.31547E-14
 -1      3507 1.07178E-02-1.69639E-04-3.40607E-14
 -1      3508 1.05488E-02-1.45594E-04-3.26956E-14
 -1      3509 1.08631E-02-1.57910E-04-3.49767E-14
 -1      3510 1.10063E-02-1.48491E-04-3.59018E-14
 -1      3511 1.08357E-02-1.22060E-04-3.45101E-14
 -1      3512 1.11476E-02-1.41278E-04-3.68355E-14
 -1      3513 1.12879E-02-1.35552E-04-3.77804E-14
 -1      3514 1.11132E-02-1.07839E-04-3.63602E-14
 -1      3515 1.14273E-02-1.31156E-04-3.87296E-14
 -1      3516 1.15664E-02-1.27715E-04-3.96833E-14
 -1      3517 1.13867E-02-9.89665E-05-3.82465E-14
 -1      3518 1.17053E-02-1.25054E-04-4.06481E-14
 -1      3519 1.18441E-02-1.22970E-04-4.16195E-14
 -1      3520 1.16593E-02-9.32999E-05-4.01603E-14
 -1      3521 1.19831E-02-1.21296E-04-4.25931E-14
 -1      3522 1.21222E-02-1.19920E-04-4.35744E-14
 -1      3523 1.19326E-02-8.94880E-05-4.21004E-14
 -1      3524 1.22616E-02-1.18694E-04-4.45602E-14
 -1      3525 1.24013E-02-1.17562E-04-4.55536E-14
 -1      3526 1.22074E-02-8.65819E-05-4.40639E-14
 -1      3527 1.25412E-02-1.16403E-04-4.65505E-14
 -1      3528 1.26814E-02-1.15191E-04-4.75476E-14
 -1      3529 1.24840E-02-8.38896E-05-4.60485E-14
 -1      3530 1.28220E-02-1.13837E-04-4.85500E-14
 -1      3531 1.29628E-02-1.12333E-04-4.95572E-14
 -1      3532 1.27624E-02-8.09179E-05-4.80491E-14
 -1      3533 1.31038E-02-1.10619E-04-5.05656E-14
 -1      3534 1.32451E-02-1.08696E-04-5.15776E-14
 -1      3535 1.30423E-02-7.73407E-05-5.00615E-14
 -1      3536 1.33866E-02-1.06523E-04-5.25929E-14
 -1      3537 1.35283E-02-1.04117E-04-5.36115E-14
 -1      3538 1.33236E-02-7.29599E-05-5.20839E-14
 -1      3539 6.82913E-03-3.97808E-04-1.72170E-14
 -1      3540 7.05150E-03-4.74860E-04-1.80177E-14
 -1      3541 9.88338E-03 4.81786E-04-2.87121E-14
 -1      3542 4.23698E-03 2.91410E-04-6.72814E-15
 -1      3543 4.09599E-03 2.96112E-04-6.28614E-15
 -1      3544 3.95474E-03 3.00705E-04-5.85896E-15
 -1      3545 3.81317E-03 3.05146E-04-5.44715E-15
 -1      3546 4.01611E-03 2.64342E-04-6.11626E-15
 -1      3547 4.79803E-03 2.74096E-04-8.64387E-15
 -1      3548 4.65812E-03 2.77949E-04-8.14300E-15
 -1      3549 5.07747E-03 2.68434E-04-9.68808E-15
 -1      3550 4.93774E-03 2.70867E-04-9.15887E-15
 -1      3551 4.84910E-03 2.39424E-04-8.94594E-15
 -1      3552 5.35745E-03 2.67004E-04-1.07882E-14
 -1      3553 5.21725E-03 2.67045E-04-1.02315E-14
 -1      3554 5.12324E-03 2.34085E-04-1.00047E-14
 -1      3555 5.64014E-03 2.72251E-04-1.19436E-14
 -1      3556 5.49821E-03 2.68553E-04-1.13590E-14
 -1      3557 5.39686E-03 2.32429E-04-1.11196E-14
 -1      3558 5.92949E-03 2.87772E-04-1.31500E-14
 -1      3559 5.78359E-03 2.78289E-04-1.25403E-14
 -1      3560 5.67218E-03 2.36472E-04-1.22876E-14
 -1      3561 6.23194E-03 3.19441E-04-1.44084E-14
 -1      3562 6.07849E-03 3.00836E-04-1.37721E-14
 -1      3563 5.95342E-03 2.49471E-04-1.35077E-14
 -1      3564 6.60323E-03 3.66547E-04-1.60474E-14
 -1      3565 6.43652E-03 3.30683E-04-1.53805E-14
 -1      3566 6.74605E-03 4.10528E-04-1.65370E-14
 -1      3567 7.25610E-03 6.67117E-04-1.79638E-14
 -1      3568 6.62063E-03-2.95403E-04-1.66877E-14
 -1      3569 1.07228E-02 3.57986E-04-3.33058E-14
 -1      3570 1.05727E-02 3.67565E-04-3.23972E-14
 -1      3571 1.15768E-02 3.65191E-04-3.89500E-14
 -1      3572 1.14370E-02 3.59215E-04-3.79884E-14
 -1      3573 1.18561E-02 3.80190E-04-4.09042E-14
 -1      3574 1.17165E-02 3.72264E-04-3.99238E-14
 -1      3575 1.16635E-02 3.35673E-04-3.94695E-14
 -1      3576 1.21357E-02 3.97764E-04-4.28841E-14
 -1      3577 1.19958E-02 3.88737E-04-4.18906E-14
 -1      3578 1.19378E-02 3.51782E-04-4.14280E-14
 -1      3579 1.24162E-02 4.16593E-04-4.48897E-14
 -1      3580 1.22758E-02 4.07076E-04-4.38840E-14
 -1      3581 1.22136E-02 3.69596E-04-4.34130E-14
 -1      3582 1.26977E-02 4.35736E-04-4.69142E-14
 -1      3583 1.25568E-02 4.26161E-04-4.59003E-14
 -1      3584 1.24912E-02 3.88143E-04-4.54216E-14
 -1      3585 1.29801E-02 4.54553E-04-4.89463E-14
 -1      3586 1.28388E-02 4.45207E-04-4.79295E-14
 -1      3587 1.27705E-02 4.06716E-04-4.74450E-14
 -1      3588 1.32633E-02 4.72640E-04-5.09772E-14
 -1      3589 1.31216E-02 4.63700E-04-4.99623E-14
 -1      3590 1.30513E-02 4.24831E-04-4.94755E-14
 -1      3591 1.35472E-02 4.89768E-04-5.30119E-14
 -1      3592 1.34052E-02 4.81329E-04-5.19955E-14
 -1      3593 1.33333E-02 4.42185E-04-5.15079E-14
 -1      3594 5.90204E-03 6.53211E-05-1.50514E-14
 -1      3595 5.98425E-03 8.83305E-05-1.52301E-14
 -1      3596 1.38334E-02 1.29229E-04-5.54870E-14
 -1      3597 1.38390E-02 1.68266E-04-5.54757E-14
 -1      3598 1.28817E-03-2.30374E-04-7.99653E-16
 -1      3599 1.43098E-03-2.43900E-04-9.62636E-16
 -1      3600 1.12967E-02 3.54586E-04-3.70343E-14
 -1      3601 1.11556E-02 3.51740E-04-3.60869E-14
 -1      3602 1.13900E-02 3.22573E-04-3.75435E-14
 -1      3603 1.10134E-02 3.50901E-04-3.51503E-14
 -1      3604 1.08693E-02 3.52916E-04-3.42231E-14
 -1      3605 1.08374E-02 3.13452E-04-3.38014E-14
 -1      3606 1.07598E-02 9.01051E-05-3.11394E-14
 -1      3607 1.07323E-02 7.55821E-05-3.10081E-14
 -1      3608 6.45292E-03-2.62615E-04-1.60167E-14
 -1      3609 1.95328E-03 3.10105E-04-1.48299E-15
 -1      3610 1.80942E-03 3.02852E-04-1.28468E-15
 -1      3611 7.25576E-03-5.57634E-04-1.87268E-14
 -1      3612 9.11702E-03 8.43504E-04-2.56644E-14
 -1      3613 4.51803E-03 2.82202E-04-7.65697E-15
 -1      3614 4.37763E-03 2.86752E-04-7.18513E-15
 -1      3615 4.29574E-03 2.55572E-04-7.00166E-15
 -1      3616 4.57339E-03 2.46968E-04-7.94436E-15
 -1      3617 1.01564E-03-3.83298E-05-5.48430E-16
 -1      3618 1.01675E-03-6.47773E-05-5.50720E-16
 -1      3619 1.13817E-03-8.45457E-05-6.68275E-16
 -1      3620 1.01542E-02 3.53739E-04-2.96196E-14
 -1      3621 1.02297E-02 2.98432E-04-2.96650E-14
 -1      3622 1.03532E-02 2.71353E-04-3.02543E-14
 -1      3623 3.10148E-03 3.21941E-04-3.61606E-15
 -1      3624 2.95846E-03 3.23728E-04-3.29541E-15
 -1      3625 9.57606E-03-4.34396E-04-2.81549E-14
 -1      3626 9.76359E-03-3.69244E-04-2.90096E-14
 -1      3627 1.00613E-02 4.37318E-04-2.95805E-14
 -1      3628 6.30410E-03-1.94126E-04-1.56775E-14
 -1      3629 9.95320E-03-2.71465E-04-2.95955E-14
 -1      3630 9.94773E-03-3.01251E-04-2.97816E-14
 -1      3631 1.01191E-02-2.60299E-04-3.06536E-14
 -1      3632 1.01525E-02-1.68052E-04-3.00928E-14
 -1      3633 1.57427E-03-2.55316E-04-1.14057E-15
 -1      3634 1.71794E-03-2.64757E-04-1.33365E-15
 -1      3635 1.49691E-03-2.17859E-04-1.05454E-15
 -1      3636 1.86178E-03-2.72431E-04-1.54179E-15
 -1      3637 2.00576E-03-2.78458E-04-1.76490E-15
 -1      3638 2.07199E-03-2.45868E-04-1.88678E-15
 -1      3639 6.22800E-03-1.35670E-04-1.56852E-14
 -1      3640 6.09410E-03-8.59441E-05-1.53863E-14
 -1      3641 5.96545E-03-7.08736E-05-1.48371E-14
 -1      3642 6.09000E-03-1.62656E-04-1.48267E-14
 -1      3643 1.07479E-02 6.30450E-05-3.14640E-14
 -1      3644 1.18452E-03-2.12352E-04-6.92832E-16
 -1      3645 1.38071E-02-2.77138E-05-5.55195E-14
 -1      3646 1.38141E-02 1.18112E-05-5.55107E-14
 -1      3647 1.05730E-02 1.65375E-04-3.06008E-14
 -1      3648 1.06642E-02 1.49902E-04-3.10775E-14
 -1      3649 1.05368E-02 1.98587E-04-3.07736E-14
 -1      3650 1.07654E-02 1.15934E-04-3.14421E-14
 -1      3651 1.07684E-02 1.02250E-04-3.12911E-14
 -1      3652 1.08203E-02 9.45826E-05-3.18307E-14
 -1      3653 1.03117E-02-1.35718E-04-3.09143E-14
 -1      3654 1.05813E-02-8.18143E-06-3.13559E-14
 -1      3655 1.05780E-02-4.22723E-05-3.18167E-14
 -1      3656 1.06664E-02 1.19308E-05-3.17128E-14
 -1      3657 1.73087E-03 2.64520E-04-1.21493E-15
 -1      3658 1.66567E-03 2.93726E-04-1.10028E-15
 -1      3659 6.27763E-03 2.03894E-04-1.55750E-14
 -1      3660 1.04907E-02 3.14336E-04-3.15369E-14
 -1      3661 1.03549E-02 3.74037E-04-3.10553E-14
 -1      3662 1.36329E-02-1.09740E-04-5.43738E-14
 -1      3663 1.37561E-02-1.10337E-04-5.52667E-14
 -1      3664 1.37780E-02-8.66931E-05-5.53910E-14
 -1      3665 1.35689E-02-7.59073E-05-5.38600E-14
 -1      3666 1.39151E-02 5.21368E-04-5.56218E-14
 -1      3667 2.24098E-03 3.19869E-04-1.92520E-15
 -1      3668 2.09714E-03 3.15737E-04-1.69627E-15
 -1      3669 2.01871E-03 2.77953E-04-1.61646E-15
 -1      3670 2.81527E-03 3.24781E-04-2.99080E-15
 -1      3671 2.67190E-03 3.25050E-04-2.70198E-15
 -1      3672 2.88102E-03 2.88391E-04-3.17934E-15
 -1      3673 1.13561E-03-2.72136E-05-6.63057E-16
 -1      3674 3.73461E-03 2.72573E-04-5.29107E-15
 -1      3675 3.67134E-03 3.09308E-04-5.05050E-15
 -1      3676 3.52923E-03 3.13158E-04-4.66851E-15
 -1      3677 6.28789E-03 2.62427E-04-1.50975E-14
 -1      3678 2.46304E-03 3.59824E-04-2.26026E-15
 -1      3679 1.25060E-03-1.90653E-04-7.71139E-16
 -1      3680 1.25751E-03 4.69513E-05-7.74093E-16
 -1      3681 1.25674E-03 1.64744E-05-7.81805E-16
 -1      3682 3.38688E-03 3.16581E-04-4.30241E-15
 -1      3683 3.24428E-03 3.19546E-04-3.95186E-15
 -1      3684 3.16685E-03 2.85135E-04-3.82259E-15
 -1      3685 3.45145E-03 2.79681E-04-4.52637E-15
 -1      3686 5.98606E-03 1.13177E-04-1.48951E-14
 -1      3687 1.36574E-02 4.88183E-04-5.38062E-14
 -1      3688 1.35845E-02 4.48967E-04-5.33182E-14
 -1      3689 1.37675E-02 4.86391E-04-5.45999E-14
 -1      3690 5.83727E-03 5.12016E-05-1.47667E-14
 -1      3691 5.81667E-03 6.62667E-05-1.44360E-14
 -1      3692 5.78492E-03 3.87202E-05-1.44829E-14
 -1      3693 1.38273E-02 9.02768E-05-5.54969E-14
 -1      3694 1.37087E-02 1.05978E-04-5.46093E-14
 -1      3695 1.38209E-02 5.11753E-05-5.55042E-14
 -1      3696 1.38607E-02 3.63012E-04-5.54040E-14
 -1      3697 1.38640E-02 4.02652E-04-5.53849E-14
 -1      3698 1.26130E-03 1.08477E-04-7.54551E-16
 -1      3699 1.25902E-03 7.75316E-05-7.65176E-16
 -1      3700 1.38046E-03 6.56925E-05-9.05106E-16
 -1      3701 1.37201E-02 1.82988E-04-5.45885E-14
 -1      3702 1.38442E-02 2.07010E-04-5.54649E-14
 -1      3703 1.38489E-02 2.45786E-04-5.54511E-14
 -1      3704 1.54029E-03 2.87872E-04-9.48325E-16
 -1      3705 1.11158E-02 3.14259E-04-3.56543E-14
 -1      3706 5.82053E-03-2.00635E-05-1.44597E-14
 -1      3707 5.85012E-03 1.00652E-06-1.48265E-14
 -1      3708 5.78190E-03 1.08002E-05-1.44463E-14
 -1      3709 1.01928E-02 3.98495E-04-3.01704E-14
 -1      3710 1.37174E-02 4.11875E-04-5.43162E-14
 -1      3711 1.38413E-02 4.38177E-04-5.51813E-14
 -1      3712 1.27973E-03 2.39149E-04-6.93496E-16
 -1      3713 1.27354E-03 2.05217E-04-7.12050E-16
 -1      3714 1.02677E-02-1.86206E-04-3.10842E-14
 -1      3715 1.24601E-03-1.58338E-04-7.73890E-16
 -1      3716 1.34906E-03-1.72935E-04-8.87203E-16
 -1      3717 1.24242E-03-1.26765E-04-7.74866E-16
 -1      3718 1.37999E-02-6.31202E-05-5.55162E-14
 -1      3719 1.78401E-03-2.34915E-04-1.44115E-15
 -1      3720 1.36810E-02-4.60082E-05-5.46262E-14
 -1      3721 2.28309E-03-2.15456E-04-2.26228E-15
 -1      3722 2.42708E-03-2.17162E-04-2.52927E-15
 -1      3723 1.26846E-03 1.72234E-04-7.27988E-16
 -1      3724 1.26444E-03 1.40039E-04-7.41838E-16
 -1      3725 1.39408E-03 1.98801E-04-8.48890E-16
 -1      3726 1.36956E-02 2.82922E-05-5.46240E-14
 -1      3727 2.57090E-03-2.18061E-04-2.81058E-15
 -1      3728 2.71449E-03-2.18200E-04-3.10677E-15
 -1      3729 2.49469E-03-1.82289E-04-2.66749E-15
 -1      3730 2.85779E-03-2.17702E-04-3.41713E-15
 -1      3731 3.00076E-03-2.16596E-04-3.74286E-15
 -1      3732 2.78181E-03-1.82551E-04-3.25846E-15
 -1      3733 3.14334E-03-2.14988E-04-4.08328E-15
 -1      3734 3.28549E-03-2.12892E-04-4.43837E-15
 -1      3735 3.06752E-03-1.80652E-04-3.90830E-15
 -1      3736 3.42716E-03-2.10407E-04-4.80787E-15
 -1      3737 3.56833E-03-2.07532E-04-5.19162E-15
 -1      3738 3.35136E-03-1.77025E-04-4.61710E-15
 -1      3739 3.70893E-03-2.04366E-04-5.59017E-15
 -1      3740 3.84896E-03-2.00900E-04-6.00199E-15
 -1      3741 3.63291E-03-1.72022E-04-5.38375E-15
 -1      3742 3.98835E-03-1.97238E-04-6.42818E-15
 -1      3743 4.12711E-03-1.93367E-04-6.86922E-15
 -1      3744 3.91178E-03-1.65949E-04-6.20719E-15
 -1      3745 4.26516E-03-1.89401E-04-7.32345E-15
 -1      3746 4.40254E-03-1.85328E-04-7.79140E-15
 -1      3747 4.18759E-03-1.59093E-04-7.08663E-15
 -1      3748 4.53916E-03-1.81276E-04-8.27416E-15
 -1      3749 4.67513E-03-1.77241E-04-8.77064E-15
 -1      3750 4.45999E-03-1.51752E-04-8.02217E-15
 -1      3751 4.81034E-03-1.73362E-04-9.28108E-15
 -1      3752 4.94498E-03-1.69658E-04-9.80552E-15
 -1      3753 4.72871E-03-1.44247E-04-9.01398E-15
 -1      3754 5.07896E-03-1.66269E-04-1.03440E-14
 -1      3755 5.21261E-03-1.63262E-04-1.08964E-14
 -1      3756 4.99365E-03-1.36941E-04-1.00626E-14
 -1      3757 5.34583E-03-1.60767E-04-1.14626E-14
 -1      3758 5.47922E-03-1.58968E-04-1.20425E-14
 -1      3759 5.25498E-03-1.30229E-04-1.11671E-14
 -1      3760 5.61271E-03-1.57948E-04-1.26348E-14
 -1      3761 5.74736E-03-1.58307E-04-1.32399E-14
 -1      3762 5.51349E-03-1.24564E-04-1.23259E-14
 -1      3763 5.84863E-03-1.57354E-04-1.37105E-14
 -1      3764 5.98623E-03-1.61049E-04-1.43383E-14
 -1      3765 5.93096E-03-1.14660E-04-1.43451E-14
 -1      3766 5.73859E-03-1.19372E-04-1.33905E-14
 -1      3767 1.79698E-03 2.34563E-04-1.33307E-15
 -1      3768 1.65323E-03 2.27032E-04-1.14469E-15
 -1      3769 6.10603E-03 2.06434E-04-1.46037E-14
 -1      3770 1.35768E-02-4.08134E-05-5.38650E-14
 -1      3771 5.43347E-03 1.99098E-04-1.14515E-14
 -1      3772 5.30033E-03 1.99618E-04-1.08799E-14
 -1      3773 1.49161E-03-1.82445E-04-1.05780E-15
 -1      3774 1.08134E-02-8.67384E-05-3.40423E-14
 -1      3775 1.09484E-02-8.02633E-05-3.49574E-14
 -1      3776 1.10820E-02-7.52828E-05-3.58848E-14
 -1      3777 1.12153E-02-7.11744E-05-3.68200E-14
 -1      3778 1.10541E-02-4.35530E-05-3.54090E-14
 -1      3779 1.13482E-02-6.78364E-05-3.77646E-14
 -1      3780 1.14814E-02-6.50476E-05-3.87145E-14
 -1      3781 1.13117E-02-3.77765E-05-3.72809E-14
 -1      3782 1.16148E-02-6.26694E-05-3.96711E-14
 -1      3783 1.17488E-02-6.06321E-05-4.06374E-14
 -1      3784 1.15717E-02-3.31901E-05-3.91839E-14
 -1      3785 1.18833E-02-5.87892E-05-4.16080E-14
 -1      3786 1.20184E-02-5.71279E-05-4.25840E-14
 -1      3787 1.18349E-02-2.92304E-05-4.11139E-14
 -1      3788 1.21542E-02-5.55101E-05-4.35644E-14
 -1      3789 1.22906E-02-5.39456E-05-4.45521E-14
 -1      3790 1.21016E-02-2.55124E-05-4.30664E-14
 -1      3791 1.24276E-02-5.23145E-05-4.55475E-14
 -1      3792 1.25652E-02-5.06370E-05-4.65437E-14
 -1      3793 1.23717E-02-2.17140E-05-4.50438E-14
 -1      3794 1.27034E-02-4.88165E-05-4.75446E-14
 -1      3795 1.28421E-02-4.68784E-05-4.85488E-14
 -1      3796 1.26449E-02-1.75722E-05-4.70388E-14
 -1      3797 1.29813E-02-4.47515E-05-4.95529E-14
 -1      3798 1.31210E-02-4.24629E-05-5.05628E-14
 -1      3799 1.29207E-02-1.28927E-05-4.90467E-14
 -1      3800 1.32611E-02-3.99598E-05-5.15747E-14
 -1      3801 1.34016E-02-3.72664E-05-5.25896E-14
 -1      3802 1.31989E-02-7.56441E-06-5.10641E-14
 -1      3803 5.16705E-03 2.01064E-04-1.03227E-14
 -1      3804 5.03315E-03 2.03274E-04-9.77916E-15
 -1      3805 5.20913E-03 1.69390E-04-1.06416E-14
 -1      3806 4.89872E-03 2.06054E-04-9.24884E-15
 -1      3807 4.76352E-03 2.09341E-04-8.73340E-15
 -1      3808 4.94714E-03 1.74026E-04-9.55300E-15
 -1      3809 5.69992E-03 2.01691E-04-1.26328E-14
 -1      3810 5.56636E-03 1.99651E-04-1.20348E-14
 -1      3811 5.46742E-03 1.66964E-04-1.17841E-14
 -1      3812 5.97040E-03 2.05210E-04-1.39159E-14
 -1      3813 5.83524E-03 1.99204E-04-1.32929E-14
 -1      3814 5.72482E-03 1.62135E-04-1.30284E-14
 -1      3815 5.97615E-03 1.54953E-04-1.43764E-14
 -1      3816 2.52838E-03 3.24387E-04-2.42768E-15
 -1      3817 2.38473E-03 3.22720E-04-2.16876E-15
 -1      3818 2.59421E-03 2.88825E-04-2.59797E-15
 -1      3819 1.08423E-02 6.88262E-05-3.23111E-14
 -1      3820 1.07779E-02 4.62446E-05-3.20947E-14
 -1      3821 1.14788E-02 2.93442E-04-3.80548E-14
 -1      3822 1.13456E-02 2.87222E-04-3.71029E-14
 -1      3823 1.35132E-02-7.84188E-06-5.33513E-14
 -1      3824 1.22893E-02 3.42218E-04-4.39405E-14
 -1      3825 1.21526E-02 3.33308E-04-4.29437E-14
 -1      3826 1.37878E-03 1.41452E-06-9.22006E-16
 -1      3827 1.25669E-03-1.38669E-05-7.87592E-16
 -1      3828 1.25737E-03-4.42614E-05-7.92132E-16
 -1      3829 1.24827E-03-7.00464E-05-7.83851E-16
 -1      3830 1.25032E-03-1.00751E-04-7.85721E-16
 -1      3831 1.35264E-03-1.12426E-04-9.00416E-16
 -1      3832 1.36971E-03-5.79583E-05-9.19973E-16
 -1      3833 1.09462E-02 2.75230E-04-3.42956E-14
 -1      3834 1.08113E-02 2.74674E-04-3.33786E-14
 -1      3835 1.17465E-02 3.08049E-04-3.99895E-14
 -1      3836 1.16123E-02 3.00425E-04-3.90183E-14
 -1      3837 1.15628E-02 2.66531E-04-3.85687E-14
 -1      3838 1.25646E-02 3.60190E-04-4.59508E-14
 -1      3839 1.24266E-02 3.51180E-04-4.49425E-14
 -1      3840 1.23628E-02 3.15310E-04-4.44660E-14
 -1      3841 1.28421E-02 3.77998E-04-4.79752E-14
 -1      3842 1.27031E-02 3.69128E-04-4.69632E-14
 -1      3843 1.26363E-02 3.32485E-04-4.64783E-14
 -1      3844 1.31216E-02 3.95281E-04-5.00037E-14
 -1      3845 1.29816E-02 3.86712E-04-4.89893E-14
 -1      3846 1.29125E-02 3.49388E-04-4.85016E-14
 -1      3847 1.34027E-02 4.11818E-04-5.20356E-14
 -1      3848 1.32619E-02 4.03647E-04-5.10175E-14
 -1      3849 1.31910E-02 3.65756E-04-5.05301E-14
 -1      3850 1.38571E-02 3.23859E-04-5.54216E-14
 -1      3851 1.37370E-02 3.37727E-04-5.45341E-14
 -1      3852 1.38532E-02 2.84877E-04-5.54371E-14
 -1      3853 1.99491E-03-2.09143E-04-1.77254E-15
 -1      3854 2.13901E-03-2.12805E-04-2.00998E-15
 -1      3855 2.20672E-03-1.79323E-04-2.13456E-15
 -1      3856 1.49350E-03 2.44828E-04-9.29974E-16
 -1      3857 1.44646E-03 2.76084E-04-8.47670E-16
 -1      3858 1.06801E-02 2.72139E-04-3.24770E-14
 -1      3859 1.04881E-02 2.65776E-04-3.11318E-14
 -1      3860 1.05500E-02 2.25097E-04-3.11772E-14
 -1      3861 1.07960E-02 2.32612E-04-3.29619E-14
 -1      3862 1.04382E-02-1.16072E-04-3.16306E-14
 -1      3863 1.32658E-03 2.81358E-04-7.08540E-16
 -1      3864 1.36146E-02 4.11145E-04-5.35686E-14
 -1      3865 1.35052E-02 4.12902E-04-5.27757E-14
 -1      3866 1.34331E-02 3.74684E-04-5.22846E-14
 -1      3867 1.36377E-02 3.76191E-04-5.37705E-14
 -1      3868 4.07689E-03 2.28861E-04-6.37538E-15
 -1      3869 3.93750E-03 2.32796E-04-5.94721E-15
 -1      3870 1.38413E-02 4.81870E-04-5.51357E-14
 -1      3871 1.05769E-02-7.17937E-05-3.21694E-14
 -1      3872 1.05395E-02-1.14610E-04-3.23422E-14
 -1      3873 1.06810E-02-1.02953E-04-3.32428E-14
 -1      3874 1.06674E-02-4.52540E-05-3.25311E-14
 -1      3875 1.57019E-03 2.18149E-04-1.04543E-15
 -1      3876 1.47670E-03 2.08547E-04-9.38526E-16
 -1      3877 1.47163E-03 1.73382E-04-9.56564E-16
 -1      3878 1.63707E-03 1.90033E-04-1.15220E-15
 -1      3879 1.70713E-03-1.98266E-04-1.34193E-15
 -1      3880 1.85092E-03-2.04323E-04-1.55007E-15
 -1      3881 1.91859E-03-1.73006E-04-1.66023E-15
 -1      3882 5.87525E-03 1.18241E-04-1.42045E-14
 -1      3883 1.20165E-02 3.24604E-04-4.19514E-14
 -1      3884 1.18811E-02 3.16125E-04-4.09673E-14
 -1      3885 1.20925E-02 2.98245E-04-4.24746E-14
 -1      3886 1.12128E-02 2.81952E-04-3.61589E-14
 -1      3887 1.10796E-02 2.77897E-04-3.52221E-14
 -1      3888 1.13035E-02 2.53155E-04-3.66616E-14
 -1      3889 1.06524E-02 2.02142E-04-3.16579E-14
 -1      3890 1.38542E-03 1.31121E-04-8.80752E-16
 -1      3891 1.07388E-02 1.58186E-04-3.17954E-14
 -1      3892 1.07553E-02 1.35005E-04-3.16191E-14
 -1      3893 1.08332E-02 1.24372E-04-3.21624E-14
 -1      3894 5.89666E-03-8.05159E-05-1.44045E-14
 -1      3895 5.84636E-03-4.50190E-05-1.44060E-14
 -1      3896 5.75780E-03-2.96870E-05-1.40331E-14
 -1      3897 5.80622E-03-8.44687E-05-1.39222E-14
 -1      3898 1.07864E-02 2.21481E-05-3.25625E-14
 -1      3899 1.50180E-03 1.82928E-05-1.06627E-15
 -1      3900 1.50175E-03-1.53255E-05-1.07389E-15
 -1      3901 2.30666E-03 2.85666E-04-2.07702E-15
 -1      3902 1.55920E-03-1.55186E-04-1.15016E-15
 -1      3903 1.08005E-02-5.92601E-05-3.36832E-14
 -1      3904 1.10471E-02 2.42570E-04-3.47905E-14
 -1      3905 2.94708E-03 2.52118E-04-3.37032E-15
 -1      3906 2.80395E-03 2.53001E-04-3.06309E-15
 -1      3907 3.79752E-03 2.36532E-04-5.53428E-15
 -1      3908 3.65696E-03 2.40066E-04-5.13584E-15
 -1      3909 3.86017E-03 2.01266E-04-5.77850E-15
 -1      3910 1.18257E-02 2.81791E-04-4.05068E-14
 -1      3911 1.08745E-02 8.31292E-05-3.24663E-14
 -1      3912 1.09237E-02 6.92158E-05-3.31056E-14
 -1      3913 1.08966E-02 9.62522E-05-3.26210E-14
 -1      3914 1.35207E-02 3.09021E-05-5.33461E-14
 -1      3915 1.37295E-02 2.60128E-04-5.45632E-14
 -1      3916 3.23230E-03 2.48637E-04-4.03091E-15
 -1      3917 3.08987E-03 2.50654E-04-3.69282E-15
 -1      3918 3.01342E-03 2.16054E-04-3.56347E-15
 -1      3919 1.36315E-02 2.98908E-04-5.38065E-14
 -1      3920 1.36348E-02 3.37429E-04-5.37925E-14
 -1      3921 1.35328E-02 3.36985E-04-5.30451E-14
 -1      3922 4.21561E-03 2.24857E-04-6.81779E-15
 -1      3923 4.13723E-03 1.94335E-04-6.63488E-15
 -1      3924 4.35369E-03 2.20790E-04-7.27439E-15
 -1      3925 5.72922E-03 2.36464E-05-1.41237E-14
 -1      3926 5.68554E-03 3.66518E-05-1.38024E-14
 -1      3927 5.67963E-03 6.82848E-06-1.37669E-14
 -1      3928 5.78881E-03 9.21850E-05-1.39810E-14
 -1      3929 5.75904E-03 1.27998E-04-1.34784E-14
 -1      3930 5.63762E-03 1.33270E-04-1.28172E-14
 -1      3931 5.71324E-03 7.51115E-05-1.37079E-14
 -1      3932 1.50443E-03 8.56980E-05-1.04501E-15
 -1      3933 1.50269E-03 5.18971E-05-1.05665E-15
 -1      3934 1.62563E-03 3.64335E-05-1.21978E-15
 -1      3935 1.35962E-02 1.59439E-04-5.37123E-14
 -1      3936 1.36014E-02 1.97496E-04-5.37008E-14
 -1      3937 1.35842E-02 8.29732E-05-5.37311E-14
 -1      3938 1.35905E-02 1.21270E-04-5.37217E-14
 -1      3939 1.34726E-02 1.36214E-04-5.28377E-14
 -1      3940 4.62767E-03 2.12936E-04-8.23354E-15
 -1      3941 4.49102E-03 2.16812E-04-7.74703E-15
 -1      3942 4.41099E-03 1.87126E-04-7.54941E-15
 -1      3943 2.08498E-03 2.45303E-04-1.75263E-15
 -1      3944 1.94092E-03 2.40617E-04-1.53533E-15
 -1      3945 1.86388E-03 2.03869E-04-1.45402E-15
 -1      3946 4.68107E-03 1.80159E-04-8.52218E-15
 -1      3947 1.07909E-02-3.31305E-05-3.33271E-14
 -1      3948 1.09113E-02-2.26529E-05-3.41268E-14
 -1      3949 1.07842E-02-7.69687E-06-3.29690E-14
 -1      3950 1.08866E-02 2.14801E-04-3.34542E-14
 -1      3951 1.07683E-02 2.07922E-04-3.25531E-14
 -1      3952 1.07452E-02 1.83746E-04-3.21424E-14
 -1      3953 2.41914E-03-1.46678E-04-2.52581E-15
 -1      3954 2.56294E-03-1.47291E-04-2.80639E-15
 -1      3955 2.70647E-03-1.47391E-04-3.10146E-15
 -1      3956 2.84965E-03-1.46999E-04-3.41060E-15
 -1      3957 2.63179E-03-1.12233E-04-2.94566E-15
 -1      3958 2.99241E-03-1.46206E-04-3.73547E-15
 -1      3959 3.13469E-03-1.45009E-04-4.07464E-15
 -1      3960 2.91801E-03-1.11621E-04-3.56392E-15
 -1      3961 3.27641E-03-1.43494E-04-4.42833E-15
 -1      3962 3.41753E-03-1.41645E-04-4.79675E-15
 -1      3963 3.20228E-03-1.09739E-04-4.24143E-15
 -1      3964 3.55797E-03-1.39547E-04-5.17937E-15
 -1      3965 3.69769E-03-1.37173E-04-5.57658E-15
 -1      3966 3.48404E-03-1.06820E-04-4.97681E-15
 -1      3967 3.83661E-03-1.34610E-04-5.98732E-15
 -1      3968 3.97469E-03-1.31820E-04-6.41247E-15
 -1      3969 3.76274E-03-1.03045E-04-5.76908E-15
 -1      3970 4.11185E-03-1.28898E-04-6.85141E-15
 -1      3971 4.24807E-03-1.25793E-04-7.30439E-15
 -1      3972 4.03783E-03-9.85691E-05-6.61816E-15
 -1      3973 4.38323E-03-1.22610E-04-7.77134E-15
 -1      3974 4.51733E-03-1.19286E-04-8.25250E-15
 -1      3975 4.30873E-03-9.35121E-05-7.52264E-15
 -1      3976 4.65025E-03-1.15942E-04-8.74844E-15
 -1      3977 4.78203E-03-1.12493E-04-9.25807E-15
 -1      3978 4.57482E-03-8.79754E-05-8.48421E-15
 -1      3979 4.91250E-03-1.09080E-04-9.78186E-15
 -1      3980 5.04177E-03-1.05595E-04-1.03198E-14
 -1      3981 4.83539E-03-8.20260E-05-9.50267E-15
 -1      3982 5.16960E-03-1.02192E-04-1.08729E-14
 -1      3983 5.29626E-03-9.87277E-05-1.14390E-14
 -1      3984 5.08968E-03-7.56870E-05-1.05787E-14
 -1      3985 5.42138E-03-9.53961E-05-1.20181E-14
 -1      3986 5.54551E-03-9.19578E-05-1.26107E-14
 -1      3987 5.33680E-03-6.88284E-05-1.17115E-14
 -1      3988 2.37303E-03 2.51183E-04-2.23171E-15
 -1      3989 2.22903E-03 2.48795E-04-1.98481E-15
 -1      3990 2.15197E-03 2.12202E-04-1.89201E-15
 -1      3991 1.10349E-02-2.00051E-05-3.50459E-14
 -1      3992 1.11596E-02-1.76350E-05-3.59742E-14
 -1      3993 1.10173E-02 2.53122E-06-3.46830E-14
 -1      3994 1.84314E-03-1.37638E-04-1.55007E-15
 -1      3995 1.98704E-03-1.41021E-04-1.77203E-15
 -1      3996 1.12850E-02-1.53797E-05-3.69110E-14
 -1      3997 1.14117E-02-1.32612E-05-3.78562E-14
 -1      3998 1.12590E-02 6.08734E-06-3.65410E-14
 -1      3999 1.15394E-02-1.11483E-05-3.88074E-14
 -1      4000 1.16683E-02-9.11602E-06-3.97681E-14
 -1      4001 1.15074E-02 1.00426E-05-3.84331E-14
 -1      4002 1.17983E-02-7.04524E-06-4.07341E-14
 -1      4003 1.19295E-02-5.01229E-06-4.17072E-14
 -1      4004 1.17619E-02 1.43623E-05-4.03550E-14
 -1      4005 1.20617E-02-2.90644E-06-4.26862E-14
 -1      4006 1.21950E-02-7.86351E-07-4.36679E-14
 -1      4007 1.20219E-02 1.89941E-05-4.23027E-14
 -1      4008 1.23292E-02 1.44529E-06-4.46570E-14
 -1      4009 1.24643E-02 3.73969E-06-4.56514E-14
 -1      4010 1.22867E-02 2.39730E-05-4.42724E-14
 -1      4011 1.26003E-02 6.17717E-06-4.66511E-14
 -1      4012 1.27370E-02 8.71685E-06-4.76537E-14
 -1      4013 1.25557E-02 2.93706E-05-4.62610E-14
 -1      4014 1.28745E-02 1.14246E-05-4.86558E-14
 -1      4015 1.30127E-02 1.42606E-05-4.96615E-14
 -1      4016 1.28283E-02 3.52593E-05-4.82651E-14
 -1      4017 1.31514E-02 1.72597E-05-5.06730E-14
 -1      4018 1.32907E-02 2.04121E-05-5.16858E-14
 -1      4019 1.31039E-02 4.16781E-05-5.02798E-14
 -1      4020 5.25026E-03 1.39397E-04-1.09613E-14
 -1      4021 5.12330E-03 1.41327E-04-1.04029E-14
 -1      4022 1.48971E-03-1.19989E-04-1.06562E-15
 -1      4023 1.70462E-03-1.31956E-04-1.34985E-15
 -1      4024 1.77371E-03-1.01673E-04-1.44955E-15
 -1      4025 1.49782E-03-9.12362E-05-1.07694E-15
 -1      4026 4.99502E-03 1.43500E-04-9.85879E-15
 -1      4027 4.86521E-03 1.46037E-04-9.32796E-15
 -1      4028 5.04273E-03 1.14521E-04-1.01649E-14
 -1      4029 2.66054E-03 2.53185E-04-2.77060E-15
 -1      4030 2.51687E-03 2.52625E-04-2.49368E-15
 -1      4031 2.44000E-03 2.16495E-04-2.38922E-15
 -1      4032 2.72732E-03 2.17554E-04-2.94613E-15
 -1      4033 1.24342E-02 2.88736E-04-4.49900E-14
 -1      4034 1.22994E-02 2.80588E-04-4.39922E-14
 -1      4035 3.51589E-03 2.43283E-04-4.75207E-15
 -1      4036 3.37431E-03 2.46176E-04-4.38417E-15
 -1      4037 3.29786E-03 2.12543E-04-4.24129E-15
 -1      4038 3.58024E-03 2.07476E-04-4.98031E-15
 -1      4039 1.27065E-02 3.04929E-04-4.70023E-14
 -1      4040 1.25699E-02 2.96836E-04-4.59933E-14
 -1      4041 1.25037E-02 2.62205E-04-4.55123E-14
 -1      4042 1.16419E-02 2.41476E-04-3.90801E-14
 -1      4043 1.15141E-02 2.34239E-04-3.81179E-14
 -1      4044 1.29818E-02 3.20813E-04-4.90238E-14
 -1      4045 1.28438E-02 3.12910E-04-4.80124E-14
 -1      4046 1.27752E-02 2.77303E-04-4.75231E-14
 -1      4047 1.32596E-02 3.36202E-04-5.10532E-14
 -1      4048 1.31204E-02 3.28568E-04-5.00385E-14
 -1      4049 1.30500E-02 2.92109E-04-4.95447E-14
 -1      4050 1.11396E-02 2.14885E-04-3.52864E-14
 -1      4051 1.10174E-02 2.09271E-04-3.43596E-14
 -1      4052 1.08922E-02 2.85723E-05-3.33587E-14
 -1      4053 1.48905E-03 1.46687E-04-9.94308E-16
 -1      4054 1.48571E-03 1.12325E-04-1.00954E-15
 -1      4055 1.60795E-03 9.91882E-05-1.17015E-15
 -1      4056 1.57154E-03 1.54350E-04-1.09223E-15
 -1      4057 2.13108E-03-1.43608E-04-2.00855E-15
 -1      4058 2.27515E-03-1.45467E-04-2.25991E-15
 -1      4059 2.34427E-03-1.11281E-04-2.38610E-15
 -1      4060 1.19013E-02 2.56630E-04-4.10232E-14
 -1      4061 1.17709E-02 2.48901E-04-4.00476E-14
 -1      4062 1.17163E-02 2.17486E-04-3.95886E-14
 -1      4063 1.36148E-02 2.28867E-04-5.37604E-14
 -1      4064 1.36189E-02 2.67292E-04-5.37479E-14
 -1      4065 1.35174E-02 2.67335E-04-5.30058E-14
 -1      4066 1.34916E-02 2.04988E-04-5.28868E-14
 -1      4067 4.73412E-03 1.48728E-04-8.81222E-15
 -1      4068 4.60169E-03 1.51659E-04-8.31223E-15
 -1      4069 4.78715E-03 1.18681E-04-9.10452E-15
 -1      4070 1.34470E-02 3.37083E-04-5.24173E-14
 -1      4071 1.33452E-02 3.36356E-04-5.16777E-14
 -1      4072 1.32735E-02 2.99373E-04-5.11838E-14
 -1      4073 1.34442E-02 2.99048E-04-5.24358E-14
 -1      4074 1.21656E-02 2.72517E-04-4.29964E-14
 -1      4075 1.20328E-02 2.64478E-04-4.20074E-14
 -1      4076 1.22361E-02 2.47030E-04-4.35180E-14
 -1      4077 5.49952E-03 1.36734E-04-1.21176E-14
 -1      4078 5.37552E-03 1.37906E-04-1.15328E-14
 -1      4079 5.29088E-03 1.11122E-04-1.12819E-14
 -1      4080 1.13879E-02 2.27408E-04-3.71640E-14
 -1      4081 1.12629E-02 2.20870E-04-3.62209E-14
 -1      4082 1.14659E-02 2.03582E-04-3.76673E-14
 -1      4083 1.08420E-02 1.66635E-04-3.26909E-14
 -1      4084 1.09823E-02 1.87153E-04-3.39410E-14
 -1      4085 5.67057E-03-4.17728E-05-1.34800E-14
 -1      4086 5.65731E-03-1.87839E-05-1.35317E-14
 -1      4087 4.52519E-03 1.23395E-04-8.10190E-15
 -1      4088 4.46808E-03 1.54648E-04-7.82542E-15
 -1      4089 4.33328E-03 1.57754E-04-7.35267E-15
 -1      4090 2.05622E-03-1.08390E-04-1.88508E-15
 -1      4091 1.65426E-03 1.61785E-04-1.19470E-15
 -1      4092 1.19734E-02 2.32024E-04-4.15401E-14
 -1      4093 1.12234E-02 1.90449E-04-3.57804E-14
 -1      4094 2.79461E-03 1.81981E-04-3.12394E-15
 -1      4095 2.65126E-03 1.82112E-04-2.82901E-15
 -1      4096 1.09128E-02 1.12319E-04-3.28031E-14
 -1      4097 1.09820E-02 1.00578E-04-3.34462E-14
 -1      4098 1.09199E-02 1.29837E-04-3.29832E-14
 -1      4099 5.59241E-03-3.43492E-06-1.32199E-14
 -1      4100 1.50659E-03-6.25184E-05-1.08671E-15
 -1      4101 1.10189E-02 7.27918E-05-3.39489E-14
 -1      4102 1.09824E-02 5.65282E-05-3.37899E-14
 -1      4103 1.94172E-03 1.71775E-04-1.59427E-15
 -1      4104 1.79783E-03 1.67322E-04-1.38706E-15
 -1      4105 1.73271E-03 1.31678E-04-1.31957E-15
 -1      4106 1.62943E-03-4.74019E-05-1.24489E-15
 -1      4107 3.08012E-03 1.80254E-04-3.75924E-15
 -1      4108 2.93758E-03 1.81358E-04-3.43424E-15
 -1      4109 2.86238E-03 1.46542E-04-3.30430E-15
 -1      4110 1.09984E-02 3.25605E-05-3.42032E-14
 -1      4111 1.33490E-02 1.13447E-04-5.19622E-14
 -1      4112 1.33550E-02 1.50818E-04-5.19524E-14
 -1      4113 1.34031E-02 4.68729E-05-5.24628E-14
 -1      4114 5.54634E-03 1.05756E-04-1.25527E-14
 -1      4115 4.19744E-03 1.60822E-04-6.89539E-15
 -1      4116 4.06058E-03 1.63896E-04-6.45267E-15
 -1      4117 4.25773E-03 1.28372E-04-7.15756E-15
 -1      4118 3.92280E-03 1.66836E-04-6.02356E-15
 -1      4119 3.78413E-03 1.69678E-04-5.60942E-15
 -1      4120 3.98554E-03 1.33301E-04-6.27056E-15
 -1      4121 1.33688E-02 1.81470E-04-5.20112E-14
 -1      4122 1.33820E-02 2.12200E-04-5.20709E-14
 -1      4123 1.32462E-02 1.58406E-04-5.11380E-14
 -1      4124 1.76304E-03 3.77605E-08-1.41993E-15
 -1      4125 1.76746E-03-5.06514E-05-1.43673E-15
 -1      4126 1.90590E-03-5.36777E-05-1.64225E-15
 -1      4127 1.33547E-02 7.15321E-05-5.20683E-14
 -1      4128 1.76353E-03 3.61668E-05-1.40910E-15
 -1      4129 1.17863E-02 1.94231E-04-4.00982E-14
 -1      4130 1.16610E-02 1.87575E-04-3.91304E-14
 -1      4131 5.62060E-03-5.99967E-05-1.31268E-14
 -1      4132 5.71515E-03-8.81082E-05-1.34485E-14
 -1      4133 2.84436E-03-7.69367E-05-3.39422E-15
 -1      4134 2.98695E-03-7.64540E-05-3.71765E-15
 -1      4135 3.12899E-03-7.57712E-05-4.05561E-15
 -1      4136 3.27041E-03-7.48717E-05-4.40816E-15
 -1      4137 3.05650E-03-4.15517E-05-3.87144E-15
 -1      4138 3.41112E-03-7.38166E-05-4.77553E-15
 -1      4139 3.55106E-03-7.25701E-05-5.15702E-15
 -1      4140 3.33911E-03-4.04597E-05-4.57550E-15
 -1      4141 3.69014E-03-7.11991E-05-5.55216E-15
 -1      4142 3.82830E-03-6.96473E-05-5.96201E-15
 -1      4143 3.61866E-03-3.89407E-05-5.33701E-15
 -1      4144 3.96544E-03-6.80066E-05-6.38617E-15
 -1      4145 4.10150E-03-6.61992E-05-6.82378E-15
 -1      4146 3.89448E-03-3.70371E-05-6.15553E-15
 -1      4147 4.23637E-03-6.43048E-05-7.27597E-15
 -1      4148 4.36999E-03-6.22499E-05-7.74213E-15
 -1      4149 4.16588E-03-3.47345E-05-7.03050E-15
 -1      4150 4.50220E-03-6.01275E-05-8.22186E-15
 -1      4151 4.63298E-03-5.78283E-05-8.71701E-15
 -1      4152 4.43210E-03-3.20305E-05-7.96212E-15
 -1      4153 4.76208E-03-5.54722E-05-9.22652E-15
 -1      4154 4.88950E-03-5.28970E-05-9.74881E-15
 -1      4155 4.69215E-03-2.88730E-05-8.95047E-15
 -1      4156 5.01491E-03-5.02896E-05-1.02865E-14
 -1      4157 5.13835E-03-4.73758E-05-1.08391E-14
 -1      4158 4.94478E-03-2.51661E-05-9.99636E-15
 -1      4159 5.25942E-03-4.43578E-05-1.14051E-14
 -1      4160 5.37809E-03-4.09029E-05-1.19844E-14
 -1      4161 5.18846E-03-2.06445E-05-1.10993E-14
 -1      4162 1.09625E-02 1.67957E-04-3.36382E-14
 -1      4163 1.09406E-02 1.45975E-04-3.32837E-14
 -1      4164 1.10287E-02 1.32458E-04-3.39338E-14
 -1      4165 1.10804E-02 1.65831E-04-3.45446E-14
 -1      4166 1.11117E-02 3.36188E-05-3.51228E-14
 -1      4167 5.09126E-03 8.71708E-05-1.04729E-14
 -1      4168 4.96706E-03 8.85784E-05-9.92807E-15
 -1      4169 2.50761E-03 1.81642E-04-2.54916E-15
 -1      4170 2.36372E-03 1.80539E-04-2.28462E-15
 -1      4171 2.57581E-03 1.46694E-04-2.71202E-15
 -1      4172 1.14650E-02 3.57942E-05-3.79436E-14
 -1      4173 1.15885E-02 3.80576E-05-3.88982E-14
 -1      4174 1.17137E-02 4.06039E-05-3.98596E-14
 -1      4175 1.18408E-02 4.32396E-05-4.08284E-14
 -1      4176 1.16647E-02 6.55270E-05-3.93645E-14
 -1      4177 1.19694E-02 4.60340E-05-4.18024E-14
 -1      4178 1.20995E-02 4.88985E-05-4.27833E-14
 -1      4179 1.19162E-02 7.18600E-05-4.13014E-14
 -1      4180 1.22309E-02 5.19381E-05-4.37701E-14
 -1      4181 1.23635E-02 5.50497E-05-4.47578E-14
 -1      4182 1.21745E-02 7.88477E-05-4.32648E-14
 -1      4183 1.24973E-02 5.83044E-05-4.57529E-14
 -1      4184 1.26321E-02 6.16366E-05-4.67532E-14
 -1      4185 1.24385E-02 8.63098E-05-4.52449E-14
 -1      4186 1.27679E-02 6.51198E-05-4.77567E-14
 -1      4187 1.29045E-02 6.86909E-05-4.87588E-14
 -1      4188 1.27071E-02 9.42005E-05-4.72436E-14
 -1      4189 1.32379E-02 8.68003E-05-5.11867E-14
 -1      4190 1.25713E-02 2.35598E-04-4.60314E-14
 -1      4191 1.24372E-02 2.28580E-04-4.50320E-14
 -1      4192 2.04522E-03-1.58587E-06-1.84936E-15
 -1      4193 2.04977E-03-5.48571E-05-1.86953E-15
 -1      4194 2.19377E-03-5.57184E-05-2.11113E-15
 -1      4195 2.22477E-03 1.78259E-04-2.04342E-15
 -1      4196 2.08068E-03 1.75651E-04-1.80750E-15
 -1      4197 2.01525E-03 1.39243E-04-1.73089E-15
 -1      4198 2.29318E-03 1.44369E-04-2.18904E-15
 -1      4199 1.12260E-02 3.35957E-05-3.60562E-14
 -1      4200 1.13449E-02 3.53805E-05-3.69943E-14
 -1      4201 1.14224E-02 6.16475E-05-3.74506E-14
 -1      4202 1.11928E-02 6.03949E-05-3.55671E-14
 -1      4203 1.31172E-02 2.63221E-04-5.00645E-14
 -1      4204 1.29795E-02 2.56392E-04-4.90530E-14
 -1      4205 1.34072E-02 2.39930E-04-5.22256E-14
 -1      4206 1.34197E-02 2.70940E-04-5.22856E-14
 -1      4207 1.33345E-02 2.71321E-04-5.16565E-14
 -1      4208 1.32850E-02 2.16081E-04-5.13504E-14
 -1      4209 4.84089E-03 9.00223E-05-9.39667E-15
 -1      4210 4.71273E-03 9.16865E-05-8.88093E-15
 -1      4211 4.89579E-03 6.27903E-05-9.69110E-15
 -1      4212 1.10524E-02 9.04687E-05-3.41356E-14
 -1      4213 1.11219E-02 7.90278E-05-3.48275E-14
 -1      4214 1.10782E-02 1.07703E-04-3.43219E-14
 -1      4215 1.28426E-02 2.49523E-04-4.80435E-14
 -1      4216 1.27065E-02 2.42562E-04-4.70364E-14
 -1      4217 1.26375E-02 2.08682E-04-4.65496E-14
 -1      4218 1.29088E-02 2.21418E-04-4.85621E-14
 -1      4219 1.23043E-02 2.21612E-04-4.40350E-14
 -1      4220 1.21725E-02 2.14621E-04-4.30430E-14
 -1      4221 1.23703E-02 1.95975E-04-4.45503E-14
 -1      4222 1.30996E-02 8.28303E-05-5.01730E-14
 -1      4223 1.30369E-02 1.12947E-04-4.96614E-14
 -1      4224 5.65697E-03 5.23455E-05-1.35419E-14
 -1      4225 5.61020E-03 7.62178E-05-1.31006E-14
 -1      4226 1.20423E-02 2.07734E-04-4.20549E-14
 -1      4227 1.19134E-02 2.00866E-04-4.10725E-14
 -1      4228 1.18526E-02 1.71016E-04-4.06069E-14
 -1      4229 5.48365E-03 7.96987E-05-1.23965E-14
 -1      4230 1.78649E-03 7.74202E-05-1.42456E-15
 -1      4231 1.92329E-03 4.05122E-05-1.64282E-15
 -1      4232 1.13115E-02 1.78266E-04-3.64065E-14
 -1      4233 1.11944E-02 1.71922E-04-3.54728E-14
 -1      4234 1.11653E-02 1.54353E-04-3.51634E-14
 -1      4235 2.55785E-03-7.71486E-05-2.79212E-15
 -1      4236 2.70130E-03-7.71650E-05-3.08569E-15
 -1      4237 2.77145E-03-4.21472E-05-3.22673E-15
 -1      4238 5.58792E-03 3.63267E-05-1.31940E-14
 -1      4239 5.33232E-03 8.48617E-05-1.16040E-14
 -1      4240 5.21303E-03 8.60623E-05-1.10313E-14
 -1      4241 5.14126E-03 6.14500E-05-1.07815E-14
 -1      4242 2.30393E-03-6.62920E-05-2.30802E-15
 -1      4243 2.44783E-03-6.67559E-05-2.57577E-15
 -1      4244 2.51855E-03-3.20236E-05-2.70418E-15
 -1      4245 2.29899E-03-1.16290E-05-2.28555E-15
 -1      4246 1.15378E-02 1.81148E-04-3.81717E-14
 -1      4247 1.14168E-02 1.74721E-04-3.72180E-14
 -1      4248 1.16045E-02 1.59115E-04-3.86743E-14
 -1      4249 5.41176E-03 5.66474E-05-1.21317E-14
 -1      4250 1.75119E-03 1.02922E-04-1.36151E-15
 -1      4251 5.51488E-03 1.71168E-05-1.27991E-14
 -1      4252 5.47496E-03 3.36209E-05-1.25477E-14
 -1      4253 5.32709E-03 3.65401E-05-1.17525E-14
 -1      4254 5.47807E-03-8.04294E-06-1.25726E-14
 -1      4255 4.58289E-03 9.33547E-05-8.38022E-15
 -1      4256 4.45141E-03 9.51750E-05-7.89325E-15
 -1      4257 4.64152E-03 6.45454E-05-8.65933E-15
 -1      4258 5.51333E-03-4.74016E-05-1.26406E-14
 -1      4259 1.21083E-02 1.83365E-04-4.25684E-14
 -1      4260 3.70933E-03 1.37889E-04-5.43997E-15
 -1      4261 3.64470E-03 1.72321E-04-5.20927E-15
 -1      4262 3.50450E-03 1.74762E-04-4.82398E-15
 -1      4263 2.64465E-03 1.11693E-04-2.87712E-15
 -1      4264 2.50106E-03 1.11385E-04-2.59519E-15
 -1      4265 5.43706E-03-2.44080E-05-1.23221E-14
 -1      4266 2.06718E-03 4.14085E-05-1.86888E-15
 -1      4267 1.28577E-02 1.27238E-04-4.83079E-14
 -1      4268 1.30513E-02 1.42566E-04-4.97208E-14
 -1      4269 1.30649E-02 1.72224E-04-4.97794E-14
 -1      4270 1.12305E-02 7.99218E-05-3.57588E-14
 -1      4271 1.13813E-02 1.56970E-04-3.69030E-14
 -1      4272 3.36364E-03 1.76908E-04-4.45443E-15
 -1      4273 3.22216E-03 1.78772E-04-4.09910E-15
 -1      4274 3.14720E-03 1.44794E-04-3.95724E-15
 -1      4275 3.42971E-03 1.41810E-04-4.66867E-15
 -1      4276 1.32495E-02 2.71598E-04-5.10327E-14
 -1      4277 1.91117E-03 1.09470E-04-1.59025E-15
 -1      4278 4.31850E-03 9.69781E-05-7.42055E-15
 -1      4279 4.18422E-03 9.88536E-05-6.96258E-15
 -1      4280 4.38000E-03 6.66612E-05-7.68491E-15
 -1      4281 4.04873E-03 1.00669E-04-6.51854E-15
 -1      4282 3.91208E-03 1.02477E-04-6.08849E-15
 -1      4283 4.11251E-03 6.89662E-05-6.76817E-15
 -1      4284 2.93072E-03 1.11277E-04-3.48721E-15
 -1      4285 2.78790E-03 1.11660E-04-3.17476E-15
 -1      4286 2.71412E-03 7.67041E-05-3.04552E-15
 -1      4287 5.35198E-03-1.85595E-06-1.19156E-14
 -1      4288 1.31775E-02 2.35664E-04-5.05366E-14
 -1      4289 5.23027E-03 8.38360E-07-1.13065E-14
 -1      4290 5.28006E-03 1.66017E-05-1.15452E-14
 -1      4291 5.20699E-03 4.07053E-05-1.11457E-14
 -1      4292 5.11169E-03-9.82590E-07-1.07422E-14
 -1      4293 1.31528E-02 2.08511E-04-5.03832E-14
 -1      4294 1.11397E-02 1.37874E-04-3.48962E-14
 -1      4295 1.11080E-02 1.22403E-04-3.45886E-14
 -1      4296 1.11886E-02 1.12235E-04-3.52856E-14
 -1      4297 1.12506E-02 1.43589E-04-3.58257E-14
 -1      4298 3.26801E-03-6.75663E-06-4.37724E-15
 -1      4299 3.40853E-03-6.51202E-06-4.74337E-15
 -1      4300 3.54822E-03-6.25453E-06-5.12391E-15
 -1      4301 3.68699E-03-5.91991E-06-5.51798E-15
 -1      4302 3.47870E-03 2.69343E-05-4.91141E-15
 -1      4303 3.86525E-03 1.68377E-05-6.03502E-15
 -1      4304 4.00163E-03 1.68601E-05-6.46186E-15
 -1      4305 4.13677E-03 1.68308E-05-6.90307E-15
 -1      4306 4.27061E-03 1.69382E-05-7.35806E-15
 -1      4307 4.40298E-03 1.70161E-05-7.82737E-15
 -1      4308 4.53379E-03 1.72880E-05-8.31061E-15
 -1      4309 4.66286E-03 1.75316E-05-8.80765E-15
 -1      4310 4.79007E-03 1.80503E-05-9.31977E-15
 -1      4311 4.91515E-03 1.85290E-05-9.84709E-15
 -1      4312 5.03794E-03 1.94411E-05-1.03883E-14
 -1      4313 1.29589E-02 1.91583E-04-4.89681E-14
 -1      4314 2.74161E-03 1.72263E-05-3.13881E-15
 -1      4315 2.88448E-03 1.72673E-05-3.44927E-15
 -1      4316 1.16137E-02 8.91259E-05-3.88671E-14
 -1      4317 1.17365E-02 9.27576E-05-3.98303E-14
 -1      4318 1.13599E-02 8.35213E-05-3.68277E-14
 -1      4319 1.14766E-02 8.49891E-05-3.77770E-14
 -1      4320 1.15433E-02 1.10830E-04-3.82346E-14
 -1      4321 1.12789E-02 1.01550E-04-3.60772E-14
 -1      4322 1.18895E-02 1.22119E-04-4.09596E-14
 -1      4323 1.20166E-02 1.26751E-04-4.19366E-14
 -1      4324 1.21454E-02 1.31677E-04-4.29207E-14
 -1      4325 1.22757E-02 1.36563E-04-4.39090E-14
 -1      4326 1.24075E-02 1.41645E-04-4.49005E-14
 -1      4327 1.25405E-02 1.46713E-04-4.58979E-14
 -1      4328 1.27220E-02 1.22659E-04-4.73024E-14
 -1      4329 2.05002E-03 1.12296E-04-1.80385E-15
 -1      4330 3.00577E-03 5.07423E-06-3.73193E-15
 -1      4331 3.14761E-03 5.15416E-06-4.07050E-15
 -1      4332 3.21883E-03 3.93200E-05-4.22537E-15
 -1      4333 2.97804E-03 6.41113E-05-3.63144E-15
 -1      4334 1.17059E-02 1.40188E-04-3.94837E-14
 -1      4335 1.15841E-02 1.34966E-04-3.85220E-14
 -1      4336 2.11281E-03 7.23965E-05-1.92867E-15
 -1      4337 2.23395E-03 2.94939E-05-2.15468E-15
 -1      4338 2.34351E-03 1.96695E-05-2.35444E-15
 -1      4339 2.21624E-03 1.01666E-04-2.08533E-15
 -1      4340 3.73128E-03 8.17356E-05-5.57356E-15
 -1      4341 3.59251E-03 8.29484E-05-5.17593E-15
 -1      4342 3.79781E-03 4.89479E-05-5.80384E-15
 -1      4343 1.28226E-02 1.85791E-04-4.79616E-14
 -1      4344 2.59831E-03 1.71769E-05-2.84286E-15
 -1      4345 2.48900E-03 2.72487E-05-2.62343E-15
 -1      4346 1.26873E-02 1.80014E-04-4.69564E-14
 -1      4347 2.42511E-03 6.87968E-05-2.47972E-15
 -1      4348 2.35515E-03 1.03226E-04-2.32930E-15
 -1      4349 1.13152E-02 1.17070E-04-3.63502E-14
 -1      4350 1.14484E-02 1.29349E-04-3.74345E-14
 -1      4351 1.13492E-02 1.33166E-04-3.66235E-14
 -1      4352 5.08787E-03 4.06039E-05-1.05853E-14
 -1      4353 1.18301E-02 1.45556E-04-4.04533E-14
 -1      4354 3.05116E-03 9.85470E-05-3.77389E-15
 -1      4355 3.19294E-03 9.77580E-05-4.11445E-15
 -1      4356 3.45286E-03 8.40078E-05-4.79288E-15
 -1      4357 3.31241E-03 8.49919E-05-4.42528E-15
 -3
    1PSTEP                         2           1           1          
  100CL  101 1.000000000        4357                     0    1           1
 -4  STRESS      6    1
 -5  SXX         1    4    1    1
 -5  SYY         1    4    2    2
 -5  SZZ         1    4    3    3
 -5  SXY         1    4    1    2
 -5  SYZ         1    4    2    3
 -5  SZX         1    4    3    1
 -1         1 6.59312E+01 8.40897E-01 3.56066E+00 1.65221E-01-5.48971E-14-1.61706E-13
 -1         2-8.51746E-01-2.41326E+01-3.34157E+00-3.02209E-02-2.11983E-13-3.49616E-14
 -1         3 1.99992E+01-6.34745E-04 6.12225E-03-6.91713E-04-4.28990E-13-3.81525E-13
 -1         4 1.99991E+01-7.01124E-04 6.05721E-03 7.65569E-04 1.40881E-13 1.53104E-13
 -1         5 3.26936E+01 6.12850E+00 2.73467E+00 6.21343E+00-2.10873E-14 1.57606E-12
 -1         6 3.56722E+01 1.22354E+01 5.11240E+00-8.63037E+00-9.05387E-14 1.32694E-12
 -1         7 2.07864E+01 6.09027E+00-1.28242E-01-4.71846E+00-1.61676E-14 2.22908E-13
 -1         8 1.96568E+01 5.93030E+00 5.11611E-02-3.26922E+00-1.69101E-14-1.06990E-13
 -1         9 1.91358E+01 5.77136E+00 4.94413E-02-2.52081E+00-1.25368E-14-2.84726E-13
 -1        10 1.89045E+01 5.69461E+00 5.15796E-02-1.94457E+00-5.58754E-15-3.75519E-13
 -1        11 1.87889E+01 5.65564E+00 5.05645E-02-1.44931E+00-6.69733E-15-4.13429E-13
 -1        12 1.87293E+01 5.63512E+00 4.87633E-02-1.00936E+00-2.20635E-15-4.13681E-13
 -1        13 1.86981E+01 5.62437E+00 4.72524E-02-5.91455E-01-3.37621E-16-4.04965E-13
 -1        14 1.86850E+01 5.61984E+00 4.64452E-02-1.89871E-01-2.95147E-16-3.90789E-13
 -1        15 1.86856E+01 5.62001E+00 4.64873E-02 2.06731E-01 6.70313E-15-3.67679E-13
 -1        16 1.86997E+01 5.62488E+00 4.73922E-02 6.09161E-01 7.09350E-15-3.57323E-13
 -1        17 1.87322E+01 5.63589E+00 4.90556E-02 1.02908E+00 7.50506E-15-3.40094E-13
 -1        18 1.87929E+01 5.65670E+00 5.09836E-02 1.47227E+00 1.24250E-14-2.95962E-13
 -1        19 1.89095E+01 5.69610E+00 5.18625E-02 1.97347E+00 1.75450E-14-2.27318E-13
 -1        20 1.91412E+01 5.77389E+00 4.92253E-02 2.55781E+00 2.00014E-14-9.74073E-14
 -1        21 1.96524E+01 5.94491E+00 4.63173E-02 3.30344E+00 2.18853E-14 1.42337E-13
 -1        22 2.11678E+01 6.37141E+00 1.39508E-01 4.51650E+00 4.24660E-15 6.05705E-13
 -1        23 2.29734E+01-1.37662E+00-9.37309E-01-7.09985E-01-6.06425E-14 1.00958E-12
 -1        24 1.93188E+01-9.94543E-02-3.09491E-01 6.29493E-02-1.76534E-14 7.63856E-13
 -1        25 1.86354E+01-5.64750E-02-6.87785E-02 6.04263E-02-1.45589E-14 5.06479E-13
 -1        26 1.84396E+01-2.24071E-02-6.64815E-03 3.26110E-02 6.47052E-16 3.01792E-13
 -1        27 1.84611E+01-1.23028E-02 1.20180E-03 2.21911E-02-2.14999E-14 1.80056E-13
 -1        28 1.85917E+01-6.97175E-03 1.14857E-03 1.58860E-02-6.59504E-15 1.24866E-13
 -1        29 1.87775E+01-4.10402E-03 7.79183E-04 1.17817E-02-1.03613E-14 4.89630E-14
 -1        30 1.89915E+01-2.60518E-03 5.58848E-04 8.94480E-03-4.20708E-15 4.48851E-14
 -1        31 1.92212E+01-1.94184E-03 2.04899E-04 6.95497E-03 1.36490E-14-3.82550E-15
 -1        32 1.94635E+01-1.82567E-03-4.06621E-04 5.62944E-03-2.85835E-14-1.30893E-13
 -1        33 1.97215E+01-2.07837E-03-1.27823E-03 4.90250E-03 4.06661E-14-1.62903E-13
 -1        34 2.00028E+01-2.56658E-03-2.36549E-03 4.77318E-03-2.03258E-14-1.28765E-13
 -1        35 2.03183E+01-3.16229E-03-3.59293E-03 5.28026E-03 2.45637E-14-2.38718E-13
 -1        36 2.06805E+01-3.71063E-03-4.83138E-03 6.48308E-03-5.36951E-15-1.93310E-13
 -1        37 2.11016E+01-3.99769E-03-5.84821E-03 8.43156E-03-1.81163E-14-1.73749E-13
 -1        38 2.15900E+01-3.71801E-03-6.23056E-03 1.11067E-02-1.51468E-14-3.82739E-13
 -1        39 2.21459E+01-2.45268E-03-5.28809E-03 1.43046E-02-1.36987E-14-6.31576E-13
 -1        40 2.27533E+01 3.11605E-04-1.97607E-03 1.74328E-02-4.85574E-15-6.17595E-13
 -1        41 2.33697E+01 5.05946E-03 5.03128E-03 1.92033E-02 2.49081E-14-5.83011E-13
 -1        42 2.39139E+01 1.19262E-02 1.68564E-02 1.72985E-02-4.04702E-14-5.09003E-13
 -1        43 2.42578E+01 2.01141E-02 3.31663E-02 8.33363E-03-1.31005E-14-5.63122E-13
 -1        44 2.42339E+01 2.71967E-02 5.01409E-02-1.11496E-02 5.41312E-14-3.86777E-13
 -1        45 2.36775E+01 2.88952E-02 5.87680E-02-4.18460E-02-7.06705E-15-1.84925E-13
 -1        46 2.25170E+01 2.04899E-02 4.65952E-02-7.71764E-02-3.83769E-14-2.80782E-13
 -1        47 2.08930E+01 4.46079E-04 6.15286E-03-1.00453E-01 1.55322E-14 8.10393E-14
 -1        48 1.92240E+01-2.55452E-02-5.22929E-02-9.11416E-02-1.08182E-15 2.34437E-13
 -1        49 1.81001E+01-4.52064E-02-9.90065E-02-4.18447E-02 5.51382E-14 6.36487E-14
 -1        50 1.79875E+01-4.72799E-02-1.03975E-01 2.82998E-02-1.18976E-14-1.16860E-14
 -1        51 1.89355E+01-3.04651E-02-6.37567E-02 8.41257E-02-7.48468E-15 1.57385E-13
 -1        52 2.05438E+01-4.68765E-03-4.86563E-03 1.01654E-01 1.27773E-14-9.75470E-14
 -1        53 2.22202E+01 1.72213E-02 4.05358E-02 8.34351E-02-5.96921E-14-2.57488E-13
 -1        54 2.34969E+01 2.80120E-02 5.82628E-02 4.89399E-02 2.27323E-14-4.41430E-13
 -1        55 2.41787E+01 2.79544E-02 5.27603E-02 1.64358E-02-6.09755E-14-2.75461E-13
 -1        56 2.43046E+01 2.15043E-02 3.64867E-02-5.39253E-03 1.28922E-14-3.02575E-13
 -1        57 2.40306E+01 1.32068E-02 1.94920E-02-1.61605E-02 2.36056E-14-1.51294E-13
 -1        58 2.35296E+01 5.88760E-03 6.56566E-03-1.91013E-02 3.19102E-15-5.93640E-14
 -1        59 2.29403E+01 6.13941E-04-1.46127E-03-1.77349E-02-5.49899E-15-1.01012E-13
 -1        60 2.23544E+01-2.61748E-03-5.55195E-03-1.45901E-02-4.34002E-14 7.53139E-14
 -1        61 2.18229E+01-4.25175E-03-7.04946E-03-1.11201E-02 1.02281E-13-5.30708E-14
 -1        62 2.13681E+01-4.80435E-03-7.06683E-03-8.00997E-03-1.40447E-13-3.47385E-13
 -1        63 2.09948E+01-4.70637E-03-6.35846E-03-5.49828E-03-5.31533E-14-5.50397E-13
 -1        64 2.06978E+01-4.26902E-03-5.38022E-03-3.59977E-03-2.78144E-14-4.45848E-13
 -1        65 2.04677E+01-3.69813E-03-4.38879E-03-2.23317E-03-2.14000E-15-3.34613E-13
 -1        66 2.02937E+01-3.12151E-03-3.52665E-03-1.28313E-03 8.70648E-14-4.66312E-14
 -1        67 2.01659E+01-2.61267E-03-2.88231E-03-6.21683E-04-1.34770E-14 2.07857E-13
 -1        68 2.00764E+01-2.20219E-03-2.51497E-03-9.95442E-05-2.10513E-14 3.08684E-13
 -1        69 2.00193E+01-1.86133E-03-2.38391E-03 4.84321E-04-4.88355E-14-2.76361E-13
 -1        70 1.99916E+01-1.33462E-03-1.96917E-03 1.50321E-03 1.07527E-13 1.59097E-13
 -1        71 1.99913E+01 2.32958E-04 8.18462E-04 2.65565E-03-5.88950E-14 5.84436E-13
 -1        72 2.09890E+01-4.04102E-01-9.79361E-01-3.10620E-01 8.69790E-15 1.49390E-12
 -1        73 1.92830E+01-6.59046E-02-2.90830E-01-5.35598E-02 1.03806E-14 1.22826E-12
 -1        74 1.86444E+01-2.06669E-02-6.42856E-02-1.99838E-02 1.21653E-14 1.00175E-12
 -1        75 1.84478E+01-1.01558E-02-9.52210E-03-1.49347E-02-8.78171E-15 8.40208E-13
 -1        76 1.84690E+01-5.58440E-03 2.67505E-04-1.17027E-02 3.01842E-15 6.73468E-13
 -1        77 1.85984E+01-3.21215E-03 1.07982E-03-9.25897E-03 1.45531E-14 5.48849E-13
 -1        78 1.87829E+01-1.96786E-03 8.88041E-04-7.34043E-03-1.51090E-14 5.58818E-13
 -1        79 1.89957E+01-1.38507E-03 6.53967E-04-5.73152E-03 8.59501E-15 5.13802E-13
 -1        80 1.92244E+01-1.22941E-03 2.44021E-04-4.34639E-03-6.50235E-15 3.90107E-13
 -1        81 1.94664E+01-1.36894E-03-4.43612E-04-3.17631E-03 7.07361E-15 2.05133E-13
 -1        82 1.97253E+01-1.71689E-03-1.41967E-03-2.25509E-03 2.53509E-14 5.95162E-14
 -1        83 2.00097E+01-2.20116E-03-2.65722E-03-1.65202E-03-1.37860E-14 1.44343E-13
 -1        84 2.03321E+01-2.74070E-03-4.10531E-03-1.47826E-03 1.32632E-14 2.16148E-13
 -1        85 2.07074E+01-3.22079E-03-5.66554E-03-1.90044E-03-5.03376E-15 1.83009E-13
 -1        86 2.11515E+01-3.46298E-03-7.13581E-03-3.15408E-03 2.85572E-14-2.70587E-14
 -1        87 2.16783E+01-3.19041E-03-8.11366E-03-5.54259E-03-8.17898E-15-1.83541E-13
 -1        88 2.22948E+01-1.99988E-03-7.85072E-03-9.39003E-03-2.26034E-14-1.98202E-13
 -1        89 2.29931E+01 6.23235E-04-5.08318E-03-1.48800E-02 2.76005E-14-4.17368E-13
 -1        90 2.37374E+01 5.16691E-03 2.02854E-03-2.16677E-02-5.62933E-14-4.89706E-13
 -1        91 2.44468E+01 1.17010E-02 1.54924E-02-2.81425E-02-6.40980E-15-1.75884E-14
 -1        92 2.49787E+01 1.91577E-02 3.59851E-02-3.04354E-02-3.67278E-14 5.29741E-14
 -1        93 2.51265E+01 2.45025E-02 5.98350E-02-2.19566E-02 4.75954E-14-3.10208E-14
 -1        94 2.46581E+01 2.27561E-02 7.55267E-02 4.68171E-03-1.20264E-14-3.16237E-13
 -1        95 2.34267E+01 9.75168E-03 6.45621E-02 5.07905E-02 1.58586E-14-5.70034E-13
 -1        96 2.15462E+01-1.25413E-02 1.34054E-02 1.01424E-01 3.34770E-15-2.98352E-13
 -1        97 1.95217E+01-3.33972E-02-6.58222E-02 1.24308E-01 3.23049E-15-2.38868E-13
 -1        98 1.81380E+01-4.00146E-02-1.29239E-01 9.17398E-02-4.45564E-14-1.81608E-13
 -1        99 1.80360E+01-2.87604E-02-1.32647E-01 1.22025E-02-1.38956E-14-3.27162E-13
 -1       100 1.92672E+01-7.80867E-03-7.30939E-02-6.89410E-02 1.82847E-14-7.66123E-14
 -1       101 2.12541E+01 1.11940E-02 6.99874E-03-1.08940E-01 6.64117E-15-1.06304E-13
 -1       102 2.32006E+01 2.13028E-02 6.19192E-02-1.00726E-01 2.46600E-14-2.93546E-13
 -1       103 2.45460E+01 2.22006E-02 7.63584E-02-6.59278E-02-4.56167E-15-2.40696E-13
 -1       104 2.51255E+01 1.73590E-02 6.25217E-02-2.89956E-02-3.59756E-14 1.53162E-13
 -1       105 2.50611E+01 1.06431E-02 3.86253E-02-2.36452E-03 9.06945E-14 3.04756E-14
 -1       106 2.45822E+01 4.64818E-03 1.71707E-02 1.22370E-02-1.16941E-13-8.36935E-14
 -1       107 2.39038E+01 3.73652E-04 2.61076E-03 1.78448E-02 1.03133E-14-1.26782E-14
 -1       108 2.31790E+01-2.17535E-03-5.36570E-03 1.81753E-02 7.21733E-14-6.04775E-13
 -1       109 2.24983E+01-3.39973E-03-8.70671E-03 1.60231E-02-1.28441E-14-8.91414E-14
 -1       110 2.19046E+01-3.75659E-03-9.33493E-03 1.30581E-02-9.93503E-14-2.05919E-13
 -1       111 2.14113E+01-3.61467E-03-8.61175E-03 1.01274E-02 1.01932E-14-2.65595E-14
 -1       112 2.10153E+01-3.22839E-03-7.35362E-03 7.58872E-03-1.02506E-13-4.76572E-14
 -1       113 2.07057E+01-2.75747E-03-5.99870E-03 5.54450E-03 7.23034E-14-9.25677E-14
 -1       114 2.04690E+01-2.29601E-03-4.76360E-03 3.97882E-03-1.27493E-13-1.32391E-13
 -1       115 2.02921E+01-1.89247E-03-3.75087E-03 2.82360E-03 7.02996E-14-4.87613E-13
 -1       116 2.01634E+01-1.56992E-03-3.01434E-03 1.98679E-03 4.83110E-14-7.30425E-13
 -1       117 2.00739E+01-1.33148E-03-2.60811E-03 1.36772E-03 3.13914E-14-1.41892E-12
 -1       118 2.00174E+01-1.12873E-03-2.47429E-03 7.72840E-04 1.15595E-13-1.61180E-12
 -1       119 1.99909E+01-6.95307E-04-1.96824E-03-3.00112E-04-1.76635E-14-1.54902E-12
 -1       120 1.99916E+01 9.10899E-04 9.68097E-04-2.28363E-03 1.79323E-13-1.10293E-12
 -1       121 2.00000E+01-7.80463E-03 5.78298E-04-3.04711E-03-1.19727E-12-1.30169E-13
 -1       122 1.99988E+01-6.66513E-03-2.21856E-03-8.17954E-04-6.55658E-13-6.38834E-14
 -1       123 1.99989E+01 2.20211E-02-2.06122E-03 7.99214E-04-4.72036E-13 7.24846E-14
 -1       124 1.99994E+01 7.09484E-02-1.03158E-03 1.68322E-03-6.86982E-13-1.89148E-13
 -1       125 2.00000E+01 1.29148E-01 1.04975E-04 1.93267E-03-8.00318E-13-2.43717E-13
 -1       126 2.00006E+01 1.84207E-01 1.05957E-03 1.73154E-03-7.48248E-13 1.99253E-13
 -1       127 2.00011E+01 2.27781E-01 1.74252E-03 1.17495E-03 9.59389E-15 1.54139E-13
 -1       128 2.00013E+01 2.51382E-01 2.09419E-03 4.09683E-04 1.49397E-13 5.58968E-14
 -1       129 2.00013E+01 2.51089E-01 2.08529E-03-4.22091E-04 2.83084E-14 2.11205E-13
 -1       130 2.00010E+01 2.26998E-01 1.71974E-03-1.17768E-03 4.57591E-13-2.38765E-14
 -1       131 2.00006E+01 1.83201E-01 1.02513E-03-1.73414E-03-1.83511E-13-2.47018E-13
 -1       132 2.00000E+01 1.28231E-01 8.83080E-05-1.91487E-03-3.37994E-13 4.13217E-13
 -1       133 1.99994E+01 7.03570E-02-1.02320E-03-1.65098E-03-5.56268E-13-1.90612E-13
 -1       134 1.99987E+01 2.16435E-02-2.14308E-03-9.25276E-04-6.79523E-13 2.95208E-14
 -1       135 1.99990E+01-6.15978E-03-1.97215E-03 1.09530E-03-6.95537E-13-9.05620E-14
 -1       136 1.99991E+01-7.47985E-03 6.06846E-04 4.65569E-03-5.91365E-13 3.71338E-15
 -1       137-1.43993E+00-1.93387E+01-3.04164E+00-3.70149E+00 1.02612E-12 1.98862E-13
 -1       138-1.53587E+00-8.04448E+00-2.24899E+00-2.82490E+00 1.38511E-12 7.24337E-13
 -1       139 4.15957E+00 4.32106E+00-9.51362E-01 4.51174E+00 1.22774E-12 9.94371E-13
 -1       140 1.66480E+01 1.03202E+01 4.46368E-01 1.30006E+01 7.82319E-13 8.60367E-13
 -1       141 3.74384E+01 9.53512E+00 1.98473E+00 1.82590E+01 4.99795E-13 1.17689E-12
 -1       142 5.53916E+01 4.66007E+00 3.03726E+00 1.48708E+01 3.00829E-13 1.32866E-12
 -1       143 6.57333E+01 1.07557E+00 3.58986E+00 4.05044E+00 1.71953E-13 1.02099E-12
 -1       144 6.32735E+01 2.01623E+00 3.46275E+00-8.54237E+00-1.13974E-13 3.83277E-13
 -1       145 4.90789E+01 6.62832E+00 2.68814E+00-1.70589E+01 2.90740E-14-1.25289E-13
 -1       146 2.96706E+01 1.06852E+01 1.46540E+00-1.74477E+01 5.14921E-13-6.77514E-13
 -1       147 1.23386E+01 9.48484E+00 3.68461E-02-1.08244E+01 1.06753E-12-1.09812E-12
 -1       148 1.53560E+00 1.32023E+00-1.35330E+00-1.83400E+00 1.15202E-12-7.37577E-13
 -1       149-1.78677E+00-1.09978E+01-2.49497E+00 3.76022E+00 9.70335E-13-4.39065E-13
 -1       150-1.14969E+00-2.15559E+01-3.19683E+00 3.30914E+00 3.26905E-13-1.10630E-13
 -1       151-7.61958E-01-2.40786E+01-3.33951E+00-9.43121E-01 8.76660E-14 6.04516E-14
 -1       152-1.52333E+00-1.76736E+01-2.93703E+00-3.94872E+00-2.69562E-13-3.06838E-14
 -1       153-1.26989E+00-6.20400E+00-2.09552E+00-2.28854E+00-3.32012E-13-1.26510E-13
 -1       154 4.69918E+00 5.49749E+00-8.16904E-01 5.24545E+00-5.53613E-13-5.47562E-13
 -1       155 1.82600E+01 1.07594E+01 6.01272E-01 1.38638E+01-6.05238E-13-7.50233E-13
 -1       156 3.94814E+01 8.98352E+00 2.09939E+00 1.79603E+01-4.60354E-13-8.81184E-13
 -1       157 5.86743E+01 3.61552E+00 3.18552E+00 1.23919E+01-1.12698E-13-5.73541E-13
 -1       158 5.85653E+01 3.58400E+00 3.16728E+00-1.26935E+01 5.79398E-15 1.22402E-13
 -1       159 4.03603E+01 8.77732E+00 2.14431E+00-1.79522E+01 8.17679E-14-2.13662E-13
 -1       160 1.92375E+01 1.09464E+01 6.84310E-01-1.43544E+01-3.13582E-13 4.29268E-13
 -1       161 4.96849E+00 5.67521E+00-7.78646E-01-5.50862E+00-1.23285E-12 9.54348E-13
 -1       162-1.25245E+00-6.16419E+00-2.07746E+00 2.28064E+00-1.33249E-12 6.73378E-13
 -1       163-1.47876E+00-1.87261E+01-3.00877E+00 3.84826E+00-8.57869E-13 3.80487E-13
 -1       164 2.09901E+01 3.68907E+00-5.72253E-02-3.60180E+00-1.96926E-13 5.29091E-14
 -1       165 1.99830E+01 4.20615E+00-4.57797E-02-2.79969E+00-1.81762E-13-1.52153E-13
 -1       166 1.95147E+01 4.47771E+00-3.12104E-02-2.18662E+00-1.27389E-13-2.61074E-13
 -1       167 1.92796E+01 4.62010E+00-2.33838E-02-1.66540E+00-8.95395E-14-3.24041E-13
 -1       168 1.91533E+01 4.70515E+00-1.94181E-02-1.21078E+00-5.71346E-14-3.37322E-13
 -1       169 1.90819E+01 4.75885E+00-1.73073E-02-7.85807E-01-2.59486E-14-3.36228E-13
 -1       170 1.90458E+01 4.78848E+00-1.62848E-02-3.83537E-01 1.12390E-14-3.27345E-13
 -1       171 1.90352E+01 4.79761E+00-1.59895E-02 8.19878E-03 4.44305E-14-3.13813E-13
 -1       172 1.90475E+01 4.78718E+00-1.63258E-02 4.00278E-01 8.25643E-14-2.93853E-13
 -1       173 1.90857E+01 4.75586E+00-1.73879E-02 8.03626E-01 1.17186E-13-2.92315E-13
 -1       174 1.91580E+01 4.70073E+00-1.95667E-02 1.22313E+00 1.40105E-13-2.55337E-13
 -1       175 1.92891E+01 4.61017E+00-2.38906E-02 1.68886E+00 1.83554E-13-2.06753E-13
 -1       176 1.95284E+01 4.46067E+00-3.27236E-02 2.21724E+00 2.11699E-13-1.32987E-13
 -1       177 2.00062E+01 4.18156E+00-4.70470E-02 2.83810E+00 2.26993E-13 3.47222E-14
 -1       178 2.11108E+01 3.45949E+00-5.96340E-02 3.52868E+00 1.98824E-13 3.21639E-13
 -1       179 2.23791E+01 1.14227E+00-3.35892E-01 3.00879E+00 1.29960E-13 6.95624E-13
 -1       180 2.19368E+01 8.57238E-01 7.03520E-04-1.95374E+00-1.60726E-13 2.96763E-13
 -1       181 2.04187E+01 1.90556E-01-9.86196E-03-7.59194E-01-1.52364E-13 2.08462E-13
 -1       182 1.96509E+01 1.02453E-01 1.36794E-02-2.79188E-01-1.13738E-13 1.51579E-13
 -1       183 1.93218E+01 4.87012E-02 1.01360E-02-5.82281E-02-8.12813E-14 6.60687E-14
 -1       184 1.92079E+01 2.49750E-02 5.33536E-03 5.44823E-02-5.87457E-14 1.82126E-14
 -1       185 1.92177E+01 1.30570E-02 2.68004E-03 1.15199E-01-3.53606E-14 3.58300E-14
 -1       186 1.93000E+01 7.08539E-03 1.46163E-03 1.49039E-01-8.09010E-15 2.91428E-14
 -1       187 1.94271E+01 4.63789E-03 9.27078E-04 1.69635E-01-2.92537E-14 1.44638E-15
 -1       188 1.95848E+01 4.52621E-03 7.06075E-04 1.85370E-01-6.50008E-14 4.46318E-14
 -1       189 1.97674E+01 6.06764E-03 6.44500E-04 2.01877E-01-2.46484E-14 1.45661E-15
 -1       190 1.99748E+01 8.78741E-03 6.70012E-04 2.23090E-01-4.97873E-14-1.17145E-13
 -1       191 2.02106E+01 1.22588E-02 7.33571E-04 2.51641E-01-2.90301E-14-1.32481E-13
 -1       192 2.04804E+01 1.59723E-02 7.86876E-04 2.88854E-01-6.61499E-15-1.33413E-13
 -1       193 2.07905E+01 1.91876E-02 7.72144E-04 3.34376E-01-4.51084E-14-1.65249E-13
 -1       194 2.11457E+01 2.07453E-02 6.17853E-04 3.85393E-01-1.39264E-13-2.35217E-13
 -1       195 2.15462E+01 1.88427E-02 2.42942E-04 4.35358E-01-1.32685E-13-2.36319E-13
 -1       196 2.19845E+01 1.08438E-02-4.22750E-04 4.72259E-01-9.64821E-15-3.12212E-13
 -1       197 2.24399E+01-6.66168E-03-1.39071E-03 4.76796E-01 2.85033E-14-3.23298E-13
 -1       198 2.28736E+01-3.70690E-02-2.54315E-03 4.21661E-01-3.62065E-14-3.97030E-13
 -1       199 2.32244E+01-8.14119E-02-3.56054E-03 2.74571E-01-6.67786E-14-4.35598E-13
 -1       200 2.34100E+01-1.33703E-01-3.92915E-03 9.53889E-03 1.14400E-13-3.74782E-13
 -1       201 2.33402E+01-1.75197E-01-3.14365E-03-3.69619E-01 6.28946E-14-3.41856E-13
 -1       202 2.29491E+01-1.72884E-01-1.22148E-03-7.97137E-01 1.22900E-13-1.28070E-13
 -1       203 2.22485E+01-9.22778E-02 1.01828E-03-1.12562E+00 1.91839E-13 5.47062E-14
 -1       204 2.13814E+01 6.80370E-02 2.20303E-03-1.16168E+00 5.53086E-14 3.14080E-14
 -1       205 2.06251E+01 2.45028E-01 2.22355E-03-7.84206E-01-8.63957E-14-3.63620E-14
 -1       206 2.02853E+01 3.33648E-01 1.95539E-03-7.85271E-02-8.55071E-14-1.10157E-13
 -1       207 2.05159E+01 2.73197E-01 2.27315E-03 6.61924E-01 4.61523E-14-1.77555E-13
 -1       208 2.12119E+01 1.05634E-01 2.46725E-03 1.12053E+00-1.28437E-13-2.65387E-14
 -1       209 2.20836E+01-6.50602E-02 1.28955E-03 1.16356E+00-1.74824E-13-1.09890E-13
 -1       210 2.28366E+01-1.63211E-01-7.70912E-04 8.79863E-01-1.11789E-13-9.64060E-14
 -1       211 2.32984E+01-1.78992E-01-2.87088E-03 4.59313E-01-1.26565E-14-7.05099E-14
 -1       212 2.34349E+01-1.42955E-01-3.85823E-03 6.44430E-02 6.00388E-15 3.39334E-15
 -1       213 2.33017E+01-9.04586E-02-3.65175E-03-2.22601E-01 9.30688E-14-3.01564E-14
 -1       214 2.29883E+01-4.33731E-02-2.68744E-03-3.88213E-01-2.16846E-14-2.93756E-13
 -1       215 2.25811E+01-9.71362E-03-1.50404E-03-4.54646E-01-7.67898E-14-3.80939E-13
 -1       216 2.21467E+01 1.06188E-02-4.59542E-04-4.53989E-01 8.81636E-14-3.91004E-13
 -1       217 2.17294E+01 2.07895E-02 2.92257E-04-4.14800E-01-4.00394E-14-1.27565E-13
 -1       218 2.13542E+01 2.42907E-02 7.43246E-04-3.57853E-01-2.67166E-13-1.99630E-13
 -1       219 2.10321E+01 2.39087E-02 9.53954E-04-2.96399E-01-1.21931E-13-1.39013E-13
 -1       220 2.07651E+01 2.15628E-02 1.00119E-03-2.37943E-01 8.38021E-14-1.55765E-13
 -1       221 2.05500E+01 1.84650E-02 9.52270E-04-1.86090E-01 1.04299E-13-2.32894E-13
 -1       222 2.03810E+01 1.53390E-02 8.56132E-04-1.41991E-01 1.70884E-13 4.24172E-14
 -1       223 2.02515E+01 1.26030E-02 7.41459E-04-1.05326E-01 1.51740E-13 1.03401E-13
 -1       224 2.01551E+01 1.04990E-02 6.16389E-04-7.49324E-02 1.92401E-13 2.64078E-13
 -1       225 2.00865E+01 9.13972E-03 4.74670E-04-4.92140E-02-1.90319E-13 3.49687E-13
 -1       226 2.00410E+01 8.39591E-03 3.65165E-04-2.66828E-02 6.68999E-14 3.55634E-13
 -1       227 2.00133E+01 7.37533E-03 2.80706E-04-7.05887E-03 2.09714E-13 1.74311E-13
 -1       228 2.09283E+01 2.76850E-01-5.12133E-02 1.16080E+00 1.37459E-13 6.14151E-13
 -1       229 1.98399E+01 1.27091E-01 8.37046E-03 4.38934E-01 1.32836E-13 4.88902E-13
 -1       230 1.93419E+01 5.87660E-02 1.28055E-02 1.44155E-01 7.22300E-14 3.60832E-13
 -1       231 1.91443E+01 2.89651E-02 7.72965E-03 1.55960E-03 9.72915E-14 3.07468E-13
 -1       232 1.91126E+01 1.50087E-02 3.96248E-03-7.28628E-02 5.55094E-14 2.54989E-13
 -1       233 1.91754E+01 7.94758E-03 2.09020E-03-1.13086E-01-8.54460E-15 1.94940E-13
 -1       234 1.92939E+01 4.53881E-03 1.23936E-03-1.35828E-01 5.07055E-14 1.89336E-13
 -1       235 1.94478E+01 3.38864E-03 8.37986E-04-1.50646E-01 7.03155E-14 1.81262E-13
 -1       236 1.96280E+01 3.80019E-03 6.38078E-04-1.63724E-01 9.75885E-14 8.94549E-14
 -1       237 1.98326E+01 5.37254E-03 5.39919E-04-1.79427E-01 1.88597E-14 1.07142E-13
 -1       238 2.00647E+01 7.83006E-03 4.93457E-04-2.00969E-01 2.31342E-15 6.60738E-14
 -1       239 2.03311E+01 1.09204E-02 4.60557E-04-2.30665E-01-3.50695E-14 2.29714E-14
 -1       240 2.06406E+01 1.43168E-02 4.01724E-04-2.69854E-01 4.20192E-14 3.41680E-14
 -1       241 2.10025E+01 1.74890E-02 2.71984E-04-3.18479E-01 9.79719E-14 2.98594E-14
 -1       242 2.14243E+01 1.95175E-02 2.48467E-05-3.74205E-01 5.67191E-14 8.56626E-14
 -1       243 2.19081E+01 1.88402E-02-3.68743E-04-4.30923E-01 4.81267E-15-5.06290E-14
 -1       244 2.24454E+01 1.29721E-02-8.75728E-04-4.76537E-01 9.84647E-14-3.79926E-15
 -1       245 2.30098E+01-1.59932E-03-1.32778E-03-4.90326E-01 1.31129E-14 3.51034E-14
 -1       246 2.35485E+01-2.88066E-02-1.35631E-03-4.41207E-01-1.54802E-13-4.54673E-14
 -1       247 2.39751E+01-7.06038E-02-4.35587E-04-2.90368E-01-5.81787E-14 6.53904E-14
 -1       248 2.41712E+01-1.21715E-01 1.75282E-03-4.76996E-03 6.89995E-14 1.31565E-13
 -1       249 2.40094E+01-1.62495E-01 4.54021E-03 4.12300E-01 1.59452E-13 8.99745E-14
 -1       250 2.34082E+01-1.56012E-01 5.64156E-03 8.76559E-01 1.46674E-13-2.13729E-13
 -1       251 2.24211E+01-6.56403E-02 2.19181E-03 1.19731E+00-1.34786E-13-3.06618E-13
 -1       252 2.13090E+01 1.00995E-01-5.89090E-03 1.13948E+00-1.25721E-13-9.70665E-14
 -1       253 2.05020E+01 2.59940E-01-1.33307E-02 6.01500E-01 2.03735E-14 6.74118E-14
 -1       254 2.03798E+01 3.00838E-01-1.32900E-02-2.26610E-01 7.03665E-14-2.06063E-14
 -1       255 2.10073E+01 1.92578E-01-4.86080E-03-9.42207E-01-1.37566E-13-3.01191E-14
 -1       256 2.20812E+01 1.77598E-02 4.42768E-03-1.22885E+00 2.01207E-14-9.72035E-14
 -1       257 2.31540E+01-1.16166E-01 7.83956E-03-1.06145E+00 7.33723E-14-2.12851E-14
 -1       258 2.38966E+01-1.63475E-01 5.56190E-03-6.37773E-01-3.92585E-14 2.65673E-15
 -1       259 2.41970E+01-1.43585E-01 1.64601E-03-1.84099E-01-1.23365E-14-8.14829E-14
 -1       260 2.41069E+01-9.60408E-02-1.29928E-03 1.65335E-01 8.42434E-14-2.06561E-13
 -1       261 2.37488E+01-4.90345E-02-2.41621E-03 3.74671E-01-1.14462E-13-5.85469E-16
 -1       262 2.32481E+01-1.43354E-02-2.21470E-03 4.64291E-01 6.83794E-14-1.40871E-13
 -1       263 2.27025E+01 6.78908E-03-1.45328E-03 4.72334E-01 1.58814E-13-2.28272E-14
 -1       264 2.21757E+01 1.73854E-02-6.49423E-04 4.33967E-01-2.66384E-13 1.17984E-13
 -1       265 2.17028E+01 2.11470E-02-3.38593E-05 3.74540E-01-2.22232E-14 2.26565E-13
 -1       266 2.12985E+01 2.10167E-02 3.51515E-04 3.09804E-01-1.49637E-13 4.23391E-13
 -1       267 2.09650E+01 1.89655E-02 5.47679E-04 2.48374E-01 9.96199E-14 6.93013E-13
 -1       268 2.06973E+01 1.61858E-02 6.14968E-04 1.94228E-01 1.22015E-13 3.75488E-13
 -1       269 2.04875E+01 1.33498E-02 6.05148E-04 1.48581E-01 7.96054E-14 6.27946E-14
 -1       270 2.03266E+01 1.08237E-02 5.54119E-04 1.11097E-01 4.19575E-13-3.47695E-13
 -1       271 2.02063E+01 8.78175E-03 4.74813E-04 8.06052E-02 1.57367E-13-6.27109E-13
 -1       272 2.01194E+01 7.31018E-03 3.57651E-04 5.55994E-02 2.11696E-13-5.01210E-13
 -1       273 2.00601E+01 6.49982E-03 2.02330E-04 3.43768E-02 1.77774E-13-7.56564E-13
 -1       274 2.00239E+01 6.21278E-03 2.13999E-04 1.55056E-02-1.44413E-13-7.98946E-13
 -1       275 2.00057E+01 3.86996E-03 5.45921E-04 1.85690E-04-2.37303E-13-5.97911E-13
 -1       276 2.00074E+01 1.35122E-02 2.48106E-04 8.31464E-03-4.20349E-13 1.84367E-13
 -1       277 2.00072E+01 3.80313E-02 6.96094E-05 2.58468E-02-4.43027E-13-1.42472E-13
 -1       278 2.00043E+01 7.41092E-02 2.18047E-05 3.99899E-02-2.78624E-13-1.94011E-15
 -1       279 2.00007E+01 1.17078E-01-1.68045E-05 4.62481E-02-2.30539E-13-3.95980E-14
 -1       280 1.99974E+01 1.59725E-01-1.06848E-04 4.40504E-02-1.57161E-13-1.37076E-13
 -1       281 1.99946E+01 1.96738E-01-1.91891E-04 3.41188E-02-1.17844E-13 3.95413E-13
 -1       282 1.99928E+01 2.21405E-01-2.55815E-04 1.84342E-02-1.53986E-14 1.06435E-13
 -1       283 1.99922E+01 2.29881E-01-2.78247E-04-2.52943E-04 2.93434E-13 2.82469E-13
 -1       284 1.99928E+01 2.20862E-01-2.55039E-04-1.88625E-02 4.71141E-13 2.16447E-13
 -1       285 1.99947E+01 1.95782E-01-1.91254E-04-3.43473E-02 1.97172E-13-3.76949E-13
 -1       286 1.99974E+01 1.59325E-01-9.97151E-05-4.39347E-02 1.56792E-13-7.61133E-14
 -1       287 2.00008E+01 1.16004E-01-1.72497E-05-4.60365E-02-7.15686E-14-2.35442E-13
 -1       288 2.00043E+01 7.32231E-02 2.20667E-05-3.95897E-02-1.96812E-13-1.45838E-13
 -1       289 2.00072E+01 3.81933E-02 2.07740E-04-2.57364E-02-3.19390E-13 8.04114E-14
 -1       290 2.00128E+01 2.17716E-02 2.05209E-04-1.76821E-02-5.83474E-14 2.21186E-13
 -1       291-5.40988E-01-9.15309E+00-7.19220E-01 1.43919E+00 1.43940E-13 6.45761E-13
 -1       292 2.99843E+00-8.09797E+00-7.13946E-01 3.61861E+00 3.37091E-13 2.42549E-13
 -1       293 1.09187E+01-5.04627E+00-3.79732E-01 6.08161E+00 3.01065E-13 1.85220E-13
 -1       294 1.97196E+01-1.15043E+00-8.07792E-02 7.06838E+00 4.65072E-13 3.31124E-13
 -1       295 3.02826E+01 1.58206E+00 2.56937E-01 6.16483E+00 3.61836E-13 4.89137E-13
 -1       296 3.94929E+01 5.05625E+00 7.63602E-01 5.92718E+00 2.39050E-13 5.89417E-13
 -1       297 4.55008E+01 6.31778E+00 1.02961E+00 3.08796E+00 1.99021E-13 4.26589E-13
 -1       298 4.61567E+01 6.79386E+00 9.84083E-01-6.21854E-01 1.72140E-13 5.76320E-13
 -1       299 4.30800E+01 6.01888E+00 8.64231E-01-3.91550E+00 1.39028E-13 4.55275E-13
 -1       300 3.62829E+01 4.35069E+00 6.36240E-01-6.78472E+00 2.74239E-13 3.42615E-13
 -1       301 2.65560E+01 1.73662E+00 2.19071E-01-7.56397E+00 4.67015E-13 5.43454E-14
 -1       302 1.72237E+01-2.41315E+00-1.74558E-01-6.80010E+00 2.94015E-13-3.34316E-13
 -1       303 7.55405E+00-5.71518E+00-5.91527E-01-4.99222E+00 4.11698E-13-3.30909E-13
 -1       304 1.46862E+00-9.25641E+00-8.97629E-01-2.69589E+00 2.01478E-13-3.96683E-13
 -1       305-1.13554E+00-1.09109E+01-9.96241E-01-5.68936E-01 2.09069E-13-9.52294E-14
 -1       306-2.52103E-01-9.46710E+00-8.05265E-01 1.85119E+00 8.33500E-14-1.57235E-13
 -1       307 3.57664E+00-7.91287E+00-7.65387E-01 3.69828E+00-8.07410E-14-5.86198E-14
 -1       308 1.04725E+01-4.12921E+00-4.67673E-01 5.79778E+00-6.74460E-14-1.75124E-13
 -1       309 2.00785E+01-2.35752E-01-4.31327E-02 7.36724E+00-1.08330E-13-1.24595E-13
 -1       310 3.09215E+01 2.48500E+00 3.36247E-01 6.73472E+00-5.27495E-14-2.20213E-13
 -1       311 3.88311E+01 5.13185E+00 5.05887E-01 3.68029E+00-2.20553E-13-2.53131E-13
 -1       312 4.45023E+01 6.82947E+00 8.43987E-01 1.56651E+00-1.47882E-13-4.09422E-13
 -1       313 4.60180E+01 6.55736E+00 1.01320E+00-2.00338E+00-1.45356E-13-2.90004E-13
 -1       314 3.89053E+01 5.17375E+00 5.11661E-01-3.59076E+00 1.57076E-13 4.32154E-14
 -1       315 3.13865E+01 2.97726E+00 3.97386E-01-7.11212E+00-2.93432E-13-3.35038E-13
 -1       316 2.04951E+01-4.58864E-02-2.31314E-02-7.40060E+00-6.41570E-13 1.41553E-15
 -1       317 1.10713E+01-4.22802E+00-4.09145E-01-6.00638E+00-4.44422E-13 4.54553E-13
 -1       318 3.19725E+00-8.09726E+00-7.91037E-01-3.55201E+00-2.65787E-13 3.48273E-13
 -1       319-6.01023E-01-9.65128E+00-8.10541E-01-1.48852E+00-1.27801E-13 3.34177E-13
 -1       320 2.01366E+01 3.00300E+00-2.19648E-02-2.08475E+00-1.74861E-13-1.28229E-13
 -1       321 2.07436E+01 2.20750E+00-1.75971E-02-2.35430E+00-2.09350E-13-2.79447E-14
 -1       322 1.95968E+01 3.70341E+00-1.55696E-02-1.30447E+00-9.58818E-14-2.39919E-13
 -1       323 1.94757E+01 3.86504E+00-1.36487E-02-9.13133E-01-5.42966E-14-2.51874E-13
 -1       324 1.94074E+01 3.95948E+00-1.26360E-02-5.36966E-01-6.85301E-15-2.47974E-13
 -1       325 1.93770E+01 4.00271E+00-1.22062E-02-1.70915E-01 3.71081E-14-2.42347E-13
 -1       326 1.93784E+01 4.00107E+00-1.22238E-02 1.91820E-01 9.28670E-14-2.15851E-13
 -1       327 1.94117E+01 3.95419E+00-1.26786E-02 5.58246E-01 1.24074E-13-2.18302E-13
 -1       328 1.94819E+01 3.85736E+00-1.37005E-02 9.28688E-01 1.58951E-13-2.03131E-13
 -1       329 1.96067E+01 3.69040E+00-1.56030E-02 1.32058E+00 2.00821E-13-1.57731E-13
 -1       330 1.98175E+01 3.41661E+00-1.87893E-02 1.72535E+00 2.32527E-13-1.01632E-13
 -1       331 2.01795E+01 2.95735E+00-2.28720E-02 2.11491E+00 2.56625E-13-1.48328E-14
 -1       332 2.07355E+01 2.12891E+00-3.03780E-02 2.31237E+00 2.38131E-13 1.57634E-13
 -1       333 2.10716E+01 1.18706E+00-2.48214E-02 1.91465E+00 1.96168E-13 3.32614E-13
 -1       334 2.03738E+01 4.90394E-01 8.39348E-03 9.18963E-01 1.91072E-13 2.45599E-13
 -1       335 2.04485E+01 6.78033E-01 1.26361E-02-1.01285E+00-1.56116E-13 3.98976E-15
 -1       336 2.00354E+01 3.42250E-01 7.23910E-03-4.40706E-01-1.38283E-13-1.11061E-14
 -1       337 1.97936E+01 1.85236E-01 4.20488E-03-1.23289E-01-9.76164E-14-2.49414E-14
 -1       338 1.96759E+01 1.03376E-01 2.04232E-03 6.04961E-02-4.16607E-14-2.64003E-14
 -1       339 1.96453E+01 5.95130E-02 1.00630E-03 1.69500E-01-3.00028E-14-4.30618E-14
 -1       340 1.96743E+01 3.71187E-02 5.66823E-04 2.37070E-01-2.57296E-14-5.65967E-14
 -1       341 1.97450E+01 2.81879E-02 4.02323E-04 2.83578E-01-3.14527E-16-7.46271E-14
 -1       342 1.98469E+01 2.83564E-02 3.75591E-04 3.22369E-01-6.18894E-14-5.87940E-14
 -1       343 1.99749E+01 3.48754E-02 4.28665E-04 3.62583E-01-8.91163E-14-5.62524E-14
 -1       344 2.01275E+01 4.56426E-02 5.27638E-04 4.10460E-01-6.89854E-14-9.58712E-14
 -1       345 2.03059E+01 5.85881E-02 6.41602E-04 4.69789E-01-5.23515E-14-1.20887E-13
 -1       346 2.05129E+01 7.11271E-02 7.32532E-04 5.41747E-01 6.09566E-15-6.84678E-14
 -1       347 2.07514E+01 7.95474E-02 7.48027E-04 6.24162E-01-1.50706E-13-5.23581E-14
 -1       348 2.10239E+01 7.82978E-02 6.15892E-04 7.10140E-01-1.30527E-13-2.25793E-14
 -1       349 2.13312E+01 5.93032E-02 2.44181E-04 7.86063E-01-1.03882E-13-2.80040E-14
 -1       350 2.16708E+01 1.17646E-02-4.64738E-04 8.29164E-01-3.80891E-14-1.00144E-13
 -1       351 2.20353E+01-7.64384E-02-1.56468E-03 8.05572E-01-2.52010E-14-6.99741E-14
 -1       352 2.24095E+01-2.13677E-01-2.99189E-03 6.70974E-01-3.22582E-14-1.24685E-13
 -1       353 2.27656E+01-3.92971E-01-4.43766E-03 3.78244E-01 9.25852E-14-5.99062E-14
 -1       354 2.30554E+01-5.72956E-01-5.25161E-03-1.00679E-01 1.76519E-13-6.11952E-14
 -1       355 2.32064E+01-6.62241E-01-4.60660E-03-7.33582E-01 2.03391E-13 5.92788E-14
 -1       356 2.31336E+01-5.31062E-01-2.51558E-03-1.37725E+00 1.65526E-13 5.39391E-16
 -1       357 2.27944E+01-9.02947E-02 4.10166E-05-1.75656E+00 6.05673E-14-1.02914E-13
 -1       358 2.22849E+01 5.64090E-01 1.19079E-03-1.56501E+00-2.44045E-14-1.74309E-13
 -1       359 2.18710E+01 1.09908E+00 1.98633E-03-7.11581E-01-5.52731E-14-1.29036E-13
 -1       360 2.18273E+01 1.15609E+00 2.49142E-03 4.82712E-01-5.09271E-15 7.32054E-14
 -1       361 2.21855E+01 6.95802E-01 2.27139E-03 1.44455E+00-6.73075E-14-1.81264E-13
 -1       362 2.27026E+01 3.24489E-02 1.52605E-04 1.77362E+00-1.78076E-13-2.29588E-13
 -1       363 2.30910E+01-4.65315E-01-2.05600E-03 1.48955E+00-7.99072E-14-4.21207E-14
 -1       364 2.32205E+01-6.55860E-01-4.62663E-03 8.76066E-01 1.11177E-13 1.33107E-13
 -1       365 2.31121E+01-5.99261E-01-5.42941E-03 2.27647E-01-6.19246E-14 2.00295E-13
 -1       366 2.28491E+01-4.26872E-01-4.73015E-03-2.83468E-01-6.44734E-14 7.62732E-14
 -1       367 2.25096E+01-2.41358E-01-3.26626E-03-6.06906E-01-1.62457E-13 1.31054E-14
 -1       368 2.21467E+01-9.28845E-02-1.75893E-03-7.62637E-01-1.32960E-13-1.52511E-13
 -1       369 2.17922E+01 6.50305E-03-5.51417E-04-7.95969E-01 1.01788E-13-2.98535E-16
 -1       370 2.14640E+01 6.32405E-02 2.57698E-04-7.52473E-01 1.44258E-13 3.65300E-14
 -1       371 2.11715E+01 8.92118E-02 7.13979E-04-6.68134E-01-1.23351E-13-4.49947E-14
 -1       372 2.09183E+01 9.55724E-02 9.11279E-04-5.67755E-01 5.63030E-14 3.54125E-13
 -1       373 2.07048E+01 9.07895E-02 9.42529E-04-4.66694E-01-1.16680E-13 3.57284E-13
 -1       374 2.05286E+01 8.06132E-02 8.80998E-04-3.73402E-01-1.31571E-13 2.22549E-13
 -1       375 2.03863E+01 6.86840E-02 7.77956E-04-2.91678E-01 3.04636E-13 1.71024E-13
 -1       376 2.02737E+01 5.71930E-02 6.65372E-04-2.22378E-01 2.87302E-13 2.15639E-13
 -1       377 2.01862E+01 4.73874E-02 5.58861E-04-1.64600E-01 2.50381E-13 2.24850E-13
 -1       378 2.01198E+01 3.98779E-02 4.68455E-04-1.16561E-01-3.35924E-15 4.90830E-13
 -1       379 2.00706E+01 3.46651E-02 4.55811E-04-7.61390E-02-1.53401E-13 5.95095E-13
 -1       380 2.00376E+01 2.87971E-02 2.65367E-04-4.40656E-02-7.62850E-14 6.12730E-13
 -1       381 1.98805E+01 2.31191E-01 1.08626E-02 3.86977E-01 1.48630E-13 1.97270E-13
 -1       382 1.96039E+01 1.19971E-01 6.28368E-03 1.02372E-01 1.20711E-13 1.36593E-13
 -1       383 1.94866E+01 6.47108E-02 2.96975E-03-5.56483E-02 8.87981E-14 1.00687E-13
 -1       384 1.94718E+01 3.59131E-02 1.40578E-03-1.45860E-01 2.47955E-14 7.27948E-14
 -1       385 1.95229E+01 2.13871E-02 7.59504E-04-1.99655E-01 3.30393E-14 5.37740E-14
 -1       386 1.96182E+01 1.56148E-02 5.13424E-04-2.35301E-01 7.15490E-14 1.11286E-13
 -1       387 1.97457E+01 1.57757E-02 4.52922E-04-2.64540E-01 1.23981E-13 1.15908E-13
 -1       388 1.99006E+01 2.02325E-02 4.97402E-04-2.95493E-01 3.94308E-14 5.96067E-14
 -1       389 2.00824E+01 2.78596E-02 6.07468E-04-3.33998E-01 3.80311E-14 3.64056E-14
 -1       390 2.02942E+01 3.76533E-02 7.51006E-04-3.84141E-01-2.36221E-15 2.95846E-14
 -1       391 2.05408E+01 4.83876E-02 8.89388E-04-4.48238E-01 8.31115E-14-2.07817E-14
 -1       392 2.08282E+01 5.81952E-02 9.68048E-04-5.26275E-01 7.88663E-14 2.91778E-14
 -1       393 2.11612E+01 6.39991E-02 9.08433E-04-6.14685E-01 6.09554E-14 3.19095E-14
 -1       394 2.15422E+01 6.07838E-02 6.05392E-04-7.04304E-01 9.06123E-14 1.18367E-13
 -1       395 2.19680E+01 4.08556E-02-5.91454E-05-7.77414E-01 7.71023E-14 4.66003E-14
 -1       396 2.24267E+01-6.29772E-03-1.16975E-03-8.04300E-01 4.64827E-14 3.85417E-14
 -1       397 2.28933E+01-9.20185E-02-2.68310E-03-7.40977E-01-1.08803E-13-1.08043E-14
 -1       398 2.33248E+01-2.21536E-01-4.30501E-03-5.32359E-01-7.09710E-14-8.65546E-14
 -1       399 2.36555E+01-3.78805E-01-5.36686E-03-1.29117E-01-8.32234E-16-5.01725E-15
 -1       400 2.37971E+01-5.06486E-01-5.16368E-03 4.72417E-01 2.39819E-13 5.07996E-14
 -1       401 2.36553E+01-4.95934E-01-3.58858E-03 1.16839E+00 2.22500E-13 1.05174E-13
 -1       402 2.31846E+01-2.32686E-01-1.78656E-03 1.69729E+00-3.73987E-14 1.19385E-13
 -1       403 2.24872E+01 2.76931E-01-6.20958E-04 1.70243E+00-2.60206E-13 4.51401E-14
 -1       404 2.18718E+01 7.89401E-01-2.37538E-04 9.81008E-01 4.68679E-14-2.62795E-14
 -1       405 2.17026E+01 9.51762E-01 2.71862E-05-2.31872E-01 1.77819E-13 1.23114E-13
 -1       406 2.20978E+01 6.34814E-01 2.39257E-03-1.32673E+00-5.26809E-14-4.78320E-14
 -1       407 2.28041E+01 8.35565E-02 3.33655E-03-1.78683E+00-4.54195E-14 1.48768E-13
 -1       408 2.34427E+01-3.56084E-01-2.00373E-04-1.55246E+00 3.11448E-15 3.69432E-13
 -1       409 2.37829E+01-5.22917E-01-4.68128E-03-9.21756E-01 4.95502E-14 1.73213E-13
 -1       410 2.37981E+01-4.69621E-01-6.45555E-03-2.38924E-01 1.11448E-13-2.24775E-13
 -1       411 2.35670E+01-3.20618E-01-6.15365E-03 2.92436E-01 4.70375E-14-2.10881E-13
 -1       412 2.31888E+01-1.68134E-01-4.41275E-03 6.16034E-01-1.24733E-13-2.71352E-14
 -1       413 2.27444E+01-5.27011E-02-2.39030E-03 7.59034E-01 9.52540E-14 1.18152E-13
 -1       414 2.22902E+01 1.93900E-02-7.32641E-04 7.76140E-01 1.31999E-13 2.25983E-13
 -1       415 2.18615E+01 5.68028E-02 3.71167E-04 7.19278E-01-2.27769E-13 2.89774E-13
 -1       416 2.14775E+01 7.10878E-02 9.73434E-04 6.26961E-01-8.02841E-14 2.68731E-13
 -1       417 2.11467E+01 7.18216E-02 1.21498E-03 5.23959E-01-3.46053E-13 2.03956E-13
 -1       418 2.08702E+01 6.56131E-02 1.23390E-03 4.24414E-01 6.21890E-14 2.22704E-13
 -1       419 2.06447E+01 5.65682E-02 1.13512E-03 3.35297E-01 2.15863E-13 3.77745E-13
 -1       420 2.04648E+01 4.70611E-02 9.87714E-04 2.59140E-01 3.51338E-13 7.36495E-14
 -1       421 2.03242E+01 3.83975E-02 8.32056E-04 1.95895E-01 5.33672E-13 5.69430E-14
 -1       422 2.02166E+01 3.12522E-02 6.91009E-04 1.44062E-01 3.27871E-13-5.51052E-14
 -1       423 2.01365E+01 2.57862E-02 5.48179E-04 1.01542E-01 1.37211E-13-1.94464E-13
 -1       424 2.00786E+01 2.21988E-02 4.12981E-04 6.61094E-02 2.01560E-13-8.75680E-14
 -1       425 2.00386E+01 1.94588E-02 3.07059E-04 3.60071E-02-1.48151E-13-4.02557E-15
 -1       426 2.00208E+01 1.80454E-02 1.76871E-04 2.11878E-02-4.68995E-13 1.07496E-14
 -1       427 2.00089E+01 1.12558E-01 7.21555E-05 8.11685E-02-4.94928E-14 2.38679E-13
 -1       428 2.00215E+01 7.15514E-02 2.32275E-04 6.65995E-02-2.61362E-13 5.98451E-14
 -1       429 2.00243E+01 4.16907E-02 2.62317E-04 4.42835E-02-4.20301E-13 1.39863E-13
 -1       430 1.99957E+01 1.53102E-01-3.69613E-05 8.25510E-02 7.23820E-14-3.82120E-13
 -1       431 1.99835E+01 1.89892E-01-1.40489E-04 7.03833E-02 1.39889E-13 1.86433E-13
 -1       432 1.99744E+01 2.17308E-01-2.26120E-04 4.69194E-02 1.22878E-13 2.44270E-13
 -1       433 1.99697E+01 2.31775E-01-2.72100E-04 1.61104E-02-3.70806E-14 3.81925E-13
 -1       434 1.99698E+01 2.31394E-01-2.71849E-04-1.71508E-02 1.41133E-13 3.37956E-13
 -1       435 1.99748E+01 2.16240E-01-2.24682E-04-4.76862E-02 3.92673E-14-2.00831E-13
 -1       436 1.99837E+01 1.88944E-01-1.39313E-04-7.03878E-02 1.48810E-13-3.33412E-13
 -1       437 1.99959E+01 1.52133E-01-3.76145E-05-8.22952E-02 2.81804E-13 2.71457E-13
 -1       438 2.00092E+01 1.10982E-01 7.58426E-05-8.07424E-02 2.33167E-13-6.44368E-13
 -1       439 2.00216E+01 7.00352E-02 1.97347E-04-6.60033E-02-1.13972E-13-1.05159E-13
 -1       440 1.12231E+01-5.19387E+00 2.92370E-02 6.94813E+00-1.14769E-14 2.35451E-13
 -1       441 1.74519E+00-3.50415E+00 3.10189E-02-2.89686E-01 6.36483E-14 4.70318E-13
 -1       442 4.03361E+00-4.79218E+00-5.86225E-02 4.53262E+00 3.23769E-14 3.88606E-13
 -1       443 1.99971E+01-5.26735E+00-1.08316E-02 6.37571E+00 8.74162E-14-1.48492E-15
 -1       444 2.69937E+01-3.47958E+00-1.00010E-02 3.90732E+00 1.52135E-13 3.40381E-13
 -1       445 1.97992E+01 3.43999E+00-1.86765E-02-1.70661E+00-1.27915E-13-2.23776E-13
 -1       446 3.55322E+01 5.49084E+00 9.56342E-02 6.29345E-02 1.98369E-13 1.54432E-13
 -1       447 3.67643E+01 7.78962E+00 1.26986E-01-7.36303E-02 1.80300E-13 2.29393E-13
 -1       448 3.63750E+01 7.26608E+00 1.13399E-01 1.30372E-01 1.55348E-13 3.58602E-13
 -1       449 3.45740E+01 3.88284E+00 6.50215E-02-4.21147E-01 2.77875E-13 4.02484E-13
 -1       450 3.11443E+01-2.50052E-01 3.35279E-02-2.40479E+00 4.15414E-13 4.98906E-13
 -1       451 2.56890E+01-3.82772E+00 8.99532E-03-4.68791E+00 1.24525E-13 2.41418E-13
 -1       452 1.68177E+01-5.62247E+00-2.71990E-02-6.88164E+00 5.71210E-14-8.62817E-14
 -1       453 8.44865E+00-5.46621E+00-6.57482E-02-6.38599E+00 1.05471E-14-3.54966E-13
 -1       454 2.91766E+00-4.37386E+00-3.22440E-02-3.53836E+00 9.15171E-14-1.24734E-13
 -1       455 1.20481E+00-4.31169E+00-5.91508E-02 7.23349E-01 2.77452E-14-5.27356E-14
 -1       456 5.35914E+00-4.56977E+00-2.31861E-03 5.33082E+00 6.26998E-14-1.71502E-13
 -1       457 1.09177E+01-5.55518E+00-5.56733E-02 6.91481E+00-1.38223E-14-1.37716E-13
 -1       458 2.03198E+01-5.12159E+00 1.02115E-03 6.37748E+00 2.40502E-14-8.76729E-14
 -1       459 2.68442E+01-3.01580E+00-1.50027E-02 4.25821E+00-1.48492E-14-3.06269E-13
 -1       460 3.20116E+01 1.14563E+00-3.79847E-02 5.42062E-01-9.87058E-14-1.57319E-13
 -1       461 3.49583E+01 6.53179E+00 2.67912E-02-1.04459E-01-1.18461E-13-2.58168E-13
 -1       462 3.51624E+01 8.04998E+00 3.11216E-02 2.77009E-02-1.89626E-13-7.39773E-15
 -1       463 3.39819E+01 6.44667E+00-4.98549E-02 5.31358E-01-1.02376E-13-1.70142E-13
 -1       464 3.23277E+01 1.40405E+00-1.49138E-02-8.47103E-01-1.61402E-13-4.10783E-15
 -1       465 2.78179E+01-2.40389E+00 5.62186E-03-3.94844E+00-6.73094E-13-2.74489E-13
 -1       466 2.10445E+01-5.13813E+00 4.10422E-03-6.18685E+00-2.83523E-13-2.63123E-14
 -1       467 1.13986E+01-5.49800E+00-4.00519E-02-6.99424E+00 4.07452E-14 4.48624E-13
 -1       468 4.73537E+00-4.51519E+00-1.10533E-02-4.99492E+00-1.19904E-14 3.02564E-13
 -1       469 3.28507E+01 1.85386E+00 4.95687E-02 1.34989E+00 1.58318E-13 4.09534E-13
 -1       470 2.96358E+01-2.21121E+00-7.70883E-02 6.30279E-01 3.21039E-15 2.63317E-13
 -1       471 3.07506E+01 3.27995E+00-1.34577E-01 1.65496E+00-1.02952E-13 1.49845E-13
 -1       472 3.08109E+01 3.14376E+00-1.25767E-01-1.63493E+00 2.74919E-14-4.86278E-14
 -1       473 2.03718E+01 8.37780E-01 4.02499E-03 9.55243E-01 1.82672E-13 5.79253E-14
 -1       474 1.97450E+01 3.13289E+00-5.36972E-03-6.21339E-01-3.23980E-14-2.25588E-13
 -1       475 1.98414E+01 2.95359E+00-5.97429E-03-9.33817E-01-5.63457E-14-2.09540E-13
 -1       476 1.96763E+01 3.26073E+00-4.99204E-03 8.64924E-03 5.63767E-14-1.95191E-13
 -1       477 1.96952E+01 3.22628E+00-5.07247E-03 3.23419E-01 9.19180E-14-1.96360E-13
 -1       478 1.97497E+01 3.12558E+00-5.38895E-03 6.33081E-01 1.27907E-13-1.91212E-13
 -1       479 1.98486E+01 2.94186E+00-5.92737E-03 9.44655E-01 1.85605E-13-1.50990E-13
 -1       480 2.00025E+01 2.64988E+00-6.51672E-03 1.23818E+00 2.15573E-13-1.21464E-13
 -1       481 2.02400E+01 2.19700E+00-5.69278E-03 1.48380E+00 2.25275E-13-6.17392E-14
 -1       482 2.01187E+01 4.63874E-01 5.12540E-03 4.39867E-01 1.55737E-13 2.84452E-14
 -1       483 2.03472E+01 9.82813E-01 2.68651E-03-9.20644E-01-1.54757E-13-7.95520E-14
 -1       484 2.43927E+01-5.28344E+00-9.41761E-03 4.25871E+00-1.15609E-13 2.44322E-13
 -1       485 2.01836E+01 5.59570E-01 1.93143E-03-4.37123E-01-1.15377E-13-8.29852E-14
 -1       486 2.00474E+01 3.27227E-01 1.09841E-03-1.21733E-01-7.73340E-14-6.75213E-14
 -1       487 1.99619E+01 1.95137E-01 5.22852E-04 7.99094E-02-5.18522E-14-8.35655E-14
 -1       488 1.99238E+01 1.21250E-01 2.64094E-04 2.10240E-01-1.70878E-14-1.04578E-13
 -1       489 1.99239E+01 8.37623E-02 1.65916E-04 2.98518E-01-6.03053E-14-1.15079E-13
 -1       490 1.99539E+01 7.05834E-02 1.40797E-04 3.65190E-01-3.99373E-14-1.64686E-13
 -1       491 2.00077E+01 7.42971E-02 1.56094E-04 4.24728E-01-1.04904E-13-1.59039E-13
 -1       492 2.00818E+01 8.96929E-02 1.96302E-04 4.87376E-01-9.57750E-14-1.01214E-13
 -1       493 2.01748E+01 1.12327E-01 2.49895E-04 5.60063E-01-4.11151E-14-3.82172E-14
 -1       494 2.02869E+01 1.37427E-01 3.03593E-04 6.46657E-01 1.74759E-14-2.50940E-14
 -1       495 2.04200E+01 1.58822E-01 3.38982E-04 7.47652E-01-8.86823E-14-1.21009E-13
 -1       496 2.05773E+01 1.67724E-01 3.29520E-04 8.59267E-01-1.25416E-13-7.76672E-14
 -1       497 2.07644E+01 1.51434E-01 2.37671E-04 9.71921E-01-1.15589E-13 1.94709E-14
 -1       498 2.09897E+01 9.23552E-02 1.38680E-05 1.06804E+00-1.40624E-13 3.59224E-14
 -1       499 2.12662E+01-3.15200E-02-3.97502E-04 1.11941E+00-7.36426E-15 4.77806E-14
 -1       500 2.16109E+01-2.42095E-01-9.99823E-04 1.08461E+00-8.32084E-14 2.94230E-14
 -1       501 2.20411E+01-5.48376E-01-1.73890E-03 9.08759E-01 2.97827E-14 9.39716E-14
 -1       502 2.25616E+01-9.19599E-01-2.38563E-03 5.29574E-01 1.35821E-13-2.77571E-14
 -1       503 2.31329E+01-1.24189E+00-2.44225E-03-9.45713E-02 2.50087E-13-3.98469E-14
 -1       504 2.36429E+01-1.29925E+00-2.06158E-03-9.24902E-01 1.60085E-13-6.39439E-14
 -1       505 2.38944E+01-8.07853E-01-3.83773E-03-1.74836E+00 1.49460E-13-7.63658E-14
 -1       506 2.37430E+01 3.31043E-01-8.86706E-03-2.11643E+00-7.60683E-14 4.94320E-15
 -1       507 2.33136E+01 1.70520E+00-1.70886E-02-1.57167E+00-3.47725E-14-6.90458E-14
 -1       508 2.30385E+01 2.43505E+00-1.69434E-02-1.61456E-01 2.48837E-14-1.25811E-13
 -1       509 2.32325E+01 1.93624E+00-1.40015E-02 1.34213E+00-1.43092E-13-2.16662E-13
 -1       510 2.36710E+01 6.09823E-01-1.19284E-02 2.09400E+00-7.93176E-14-4.98040E-14
 -1       511 2.39022E+01-6.22704E-01-4.07480E-03 1.87898E+00 2.26818E-14 1.72455E-15
 -1       512 2.37251E+01-1.24787E+00-3.47603E-03 1.11115E+00 1.23630E-13 1.46998E-13
 -1       513 2.32542E+01-1.27984E+00-3.25095E-03 2.59684E-01-6.30272E-14 5.97081E-14
 -1       514 2.26858E+01-9.85646E-01-2.85827E-03-4.08922E-01-1.20254E-13 3.23545E-14
 -1       515 2.21549E+01-6.09311E-01-2.00860E-03-8.28670E-01-1.69574E-13 3.93190E-14
 -1       516 2.17120E+01-2.82884E-01-1.16090E-03-1.03253E+00-1.40545E-13 1.54878E-13
 -1       517 2.13588E+01-4.97372E-02-4.67376E-04-1.08098E+00 9.84521E-14 3.86279E-13
 -1       518 2.10792E+01 9.36955E-02-1.75838E-06-1.03102E+00 1.21802E-13 3.60502E-13
 -1       519 2.08559E+01 1.68034E-01 2.66081E-04-9.26721E-01-1.57078E-13 3.79733E-14
 -1       520 2.06753E+01 1.95629E-01 3.91290E-04-7.98723E-01-2.79208E-14 1.75209E-13
 -1       521 2.05279E+01 1.94751E-01 4.24971E-04-6.66682E-01 1.55003E-13 2.40867E-13
 -1       522 2.04073E+01 1.78499E-01 4.06461E-04-5.42122E-01 2.83172E-14 4.64314E-13
 -1       523 2.03092E+01 1.55563E-01 3.62377E-04-4.30916E-01-3.84543E-14 4.93088E-13
 -1       524 2.02299E+01 1.31388E-01 3.11336E-04-3.35198E-01 1.86447E-13 3.23384E-13
 -1       525 2.01663E+01 1.09219E-01 2.64537E-04-2.54750E-01 1.65616E-13 2.59578E-13
 -1       526 2.01158E+01 9.07068E-02 2.21953E-04-1.88018E-01 2.53202E-13 4.49013E-14
 -1       527 2.00759E+01 7.64685E-02 2.11027E-04-1.32839E-01-5.58028E-15-1.60026E-13
 -1       528 1.98459E+01 1.52019E-01 1.11756E-03-7.25987E-02 8.75667E-14 3.23957E-14
 -1       529 1.98116E+01 9.16428E-02 5.26352E-04-1.94831E-01 5.58297E-14-7.98005E-15
 -1       530 1.98249E+01 6.12331E-02 3.02014E-04-2.75073E-01 3.80448E-14-1.87006E-14
 -1       531 1.98737E+01 5.04585E-02 2.34315E-04-3.34157E-01 8.35322E-14-3.45709E-14
 -1       532 1.99505E+01 5.34473E-02 2.45885E-04-3.86529E-01 9.77779E-14 3.62828E-15
 -1       533 2.00511E+01 6.64124E-02 3.06508E-04-4.42539E-01 4.08212E-14 6.03400E-14
 -1       534 2.01742E+01 8.64173E-02 3.97564E-04-5.09579E-01 5.63660E-14 6.28057E-14
 -1       535 2.03207E+01 1.10503E-01 4.99739E-04-5.92486E-01 6.08165E-14 3.75892E-14
 -1       536 2.04928E+01 1.34803E-01 5.86968E-04-6.93329E-01 4.69929E-14-3.01686E-14
 -1       537 2.06936E+01 1.53444E-01 6.20785E-04-8.10531E-01 5.29557E-14 3.61478E-14
 -1       538 2.09275E+01 1.57150E-01 5.44477E-04-9.37192E-01 1.05501E-14 5.81419E-14
 -1       539 2.11998E+01 1.31656E-01 2.80274E-04-1.05851E+00 6.99280E-14 5.58583E-14
 -1       540 2.15181E+01 5.66096E-02-2.62816E-04-1.14825E+00 3.45375E-14 1.80229E-13
 -1       541 2.18926E+01-9.30558E-02-1.15756E-03-1.16486E+00-5.72903E-14 1.69422E-13
 -1       542 2.23348E+01-3.38979E-01-2.37574E-03-1.04914E+00-6.30537E-14 1.45759E-13
 -1       543 2.28491E+01-6.77520E-01-3.66885E-03-7.28245E-01 4.44166E-14 9.74592E-14
 -1       544 2.34091E+01-1.03716E+00-4.19554E-03-1.39734E-01 7.96575E-14-2.52021E-14
 -1       545 2.39254E+01-1.23832E+00-4.13931E-03 7.11953E-01 1.53667E-13 7.96017E-14
 -1       546 2.42180E+01-9.86060E-01-5.07604E-03 1.64904E+00 6.48215E-14 1.32467E-13
 -1       547 2.41052E+01-6.70257E-02-9.66905E-03 2.23213E+00-2.20440E-15 1.14424E-13
 -1       548 2.36468E+01 1.27594E+00-1.33704E-02 1.89927E+00 5.76735E-14-2.97192E-13
 -1       549 2.32585E+01 2.20340E+00-1.88278E-02 5.34268E-01-2.15210E-14-2.26764E-13
 -1       550 2.33659E+01 1.95526E+00-1.97326E-02-1.16475E+00-9.37297E-14 7.60318E-14
 -1       551 2.38490E+01 7.48788E-01-1.11758E-02-2.16423E+00-1.03737E-13 2.03134E-13
 -1       552 2.42109E+01-5.07318E-01-5.31553E-03-2.08662E+00-1.98993E-13 1.44008E-13
 -1       553 2.41474E+01-1.15660E+00-6.06874E-03-1.30251E+00 3.96687E-14 1.70281E-13
 -1       554 2.37483E+01-1.19463E+00-4.70374E-03-3.63934E-01 3.10648E-13 1.92356E-13
 -1       555 2.32022E+01-8.99118E-01-4.53988E-03 3.90290E-01 4.18668E-14 3.24706E-13
 -1       556 2.26591E+01-5.30796E-01-3.42082E-03 8.64027E-01-2.40299E-13 4.19785E-13
 -1       557 2.21789E+01-2.22019E-01-1.94866E-03 1.08924E+00-8.89092E-14 4.33293E-13
 -1       558 2.17732E+01-1.22750E-02-7.20322E-04 1.13646E+00 4.07731E-14 5.29459E-13
 -1       559 2.14333E+01 1.08323E-01 1.22386E-04 1.07442E+00-4.61320E-14 5.23049E-13
 -1       560 2.11483E+01 1.64450E-01 5.94780E-04 9.55286E-01 6.37018E-15 2.23022E-13
 -1       561 2.09092E+01 1.79782E-01 7.98338E-04 8.14082E-01-8.29805E-14 8.79848E-14
 -1       562 2.07096E+01 1.72130E-01 8.32772E-04 6.72147E-01-1.59523E-13-1.29671E-13
 -1       563 2.05446E+01 1.53332E-01 7.75383E-04 5.41127E-01 7.84373E-14-1.13184E-13
 -1       564 2.04098E+01 1.30654E-01 6.77258E-04 4.26319E-01 1.89110E-13 1.80265E-13
 -1       565 2.03014E+01 1.08297E-01 5.67322E-04 3.29085E-01 3.19503E-13 3.86054E-13
 -1       566 2.02154E+01 8.85254E-02 4.85695E-04 2.48576E-01 5.16819E-13 4.75007E-13
 -1       567 2.01485E+01 7.27616E-02 5.06634E-04 1.82871E-01 7.64472E-14 4.92817E-13
 -1       568 2.00970E+01 6.03321E-02 3.92047E-04 1.28526E-01 2.29644E-13 5.32137E-13
 -1       569 2.00566E+01 5.12725E-02 2.70752E-04 8.34398E-02 9.42596E-14 4.11157E-13
 -1       570 1.99756E+01 1.94355E-01-4.02045E-05 1.11148E-01 5.02567E-13-1.11033E-13
 -1       571 1.99532E+01 2.28345E-01-8.72455E-05 8.42481E-02 3.45424E-13 5.03809E-13
 -1       572 2.00288E+01 1.06853E-01 1.37275E-05 1.14319E-01 2.74146E-13 2.71141E-13
 -1       573 2.00025E+01 1.52286E-01 9.82695E-05 1.21308E-01 2.61009E-13 8.52552E-14
 -1       574 1.99386E+01 2.50133E-01-1.15360E-04 4.49003E-02 2.09935E-13 8.49380E-14
 -1       575 1.99338E+01 2.57264E-01-1.25299E-04-9.54948E-04 1.27173E-13 6.09087E-13
 -1       576 1.99392E+01 2.48990E-01-1.13419E-04-4.65831E-02 2.48249E-14-5.70897E-15
 -1       577 1.99538E+01 2.26825E-01-8.22073E-05-8.47437E-02 9.41054E-15-1.92025E-13
 -1       578 1.99761E+01 1.92461E-01-5.61946E-05-1.11083E-01 2.63498E-13-7.89641E-14
 -1       579 2.00026E+01 1.50109E-01-3.86918E-05-1.20945E-01-3.50771E-14-3.69486E-13
 -1       580 2.00294E+01 1.04688E-01 9.45689E-05-1.12750E-01-1.05051E-13-5.28825E-13
 -1       581 5.46357E+00-1.61951E+00 1.66172E-01 2.77448E+00 1.29514E-14 3.46237E-13
 -1       582 1.86547E+01-5.24337E+00 7.09177E-02 6.24105E+00-7.08600E-14-8.33465E-14
 -1       583 1.99436E+01 2.62254E-01 2.53783E-03 1.22837E-01 1.12980E-13 2.14996E-14
 -1       584 6.11222E+00-1.40204E+00 1.79322E-01-3.09460E+00 1.26382E-13 4.02442E-13
 -1       585 9.58918E+00-2.78913E+00 1.55309E-01 5.62082E+00-1.05992E-13 2.01381E-13
 -1       586 3.07021E+01 2.44068E+00-1.34525E-01-1.78557E+00 4.34652E-14-9.76233E-14
 -1       587 1.09986E+01-3.63109E+00 1.29227E-01-6.44838E+00-4.11754E-14 2.89144E-13
 -1       588 3.02764E+01 6.87901E+00-1.59662E-01-9.44936E-01-1.06290E-13 3.60271E-13
 -1       589 6.08140E+00-1.39613E+00 1.80000E-01 3.15553E+00-1.15939E-13-1.15935E-13
 -1       590 1.96922E+01 3.23079E+00-5.08041E-03-3.06194E-01 3.46149E-14-2.08341E-13
 -1       591 3.04143E+01 7.17105E+00-1.76800E-01 3.01115E-01-6.80012E-16 4.81859E-13
 -1       592 3.05397E+01 6.04531E+00-1.70440E-01-1.42937E+00 4.18277E-14 2.46202E-13
 -1       593 3.06171E+01 4.87524E+00-1.49467E-01 1.81602E+00 1.43913E-13 6.56489E-13
 -1       594 3.06439E+01 4.44366E-01-1.08111E-01 1.03317E+00 2.54363E-13 6.62512E-13
 -1       595 2.85831E+01-3.26896E+00-3.71997E-02-1.35162E+00 1.18423E-13 6.17825E-13
 -1       596 2.32903E+01-5.60092E+00 3.25135E-02-4.85137E+00-7.08253E-14 3.35176E-13
 -1       597 1.47287E+01-4.77732E+00 8.46718E-02-6.82123E+00-1.08094E-13-8.49286E-14
 -1       598 8.56033E+00-2.97504E+00 1.47250E-01-5.55764E+00-3.79211E-14-2.16438E-13
 -1       599 4.96474E+00-1.24273E+00 1.82522E-01-1.41968E+00-7.56426E-14-2.21184E-13
 -1       600 1.17225E+01-3.66345E+00 1.39991E-01 6.52926E+00-5.74540E-15-7.27057E-14
 -1       601 1.85280E+01-5.34160E+00 6.85053E-02 6.46779E+00 3.36051E-14-2.86490E-14
 -1       602 2.49609E+01-5.07419E+00 9.59866E-03 4.06364E+00 5.26176E-14-6.34215E-14
 -1       603 2.89879E+01-2.18473E+00-7.91003E-02-5.15157E-01-3.14488E-13-2.66898E-13
 -1       604 2.88683E+01-2.49737E+00-5.25615E-02 8.19569E-01 2.85384E-14 3.57075E-14
 -1       605 2.94603E+01 6.62008E+00-1.89595E-01 9.45748E-01-7.69940E-14 3.84859E-13
 -1       606 2.59068E+01-4.84736E+00 1.28279E-02-3.34074E+00-3.38098E-13-3.69656E-13
 -1       607 1.83663E+01-5.28746E+00 6.49408E-02-6.47408E+00 1.24636E-13 2.49474E-13
 -1       608 2.03914E+01 1.76272E+00-5.25189E-03-1.50809E+00-1.79484E-13-9.25058E-14
 -1       609 2.05770E+01 1.30752E+00-9.78796E-04 1.53560E+00 2.10187E-13 8.29356E-14
 -1       610 1.99893E+01 2.66948E+00-6.74828E-03-1.22546E+00-1.07838E-13-2.03376E-13
 -1       611 2.80420E+01 4.55409E+00-1.30436E-01 2.02106E+00 2.30510E-14 1.04378E-13
 -1       612 2.72467E+01-4.23196E+00-1.65579E-02 1.50963E+00-6.89865E-14 6.10623E-15
 -1       613 2.90620E+01-4.20604E-01-9.12682E-02-1.27124E+00 1.11852E-13-4.88637E-14
 -1       614 7.15583E+00-1.26389E-01 1.63432E-01-1.08992E-01 2.46045E-14 3.72272E-13
 -1       615 1.55781E+01-3.54507E+00 1.12181E-01 5.99369E+00-1.67553E-13 1.58207E-14
 -1       616 2.87775E+01-1.37835E-01-9.61397E-02 1.63827E+00 1.34788E-14 5.82936E-14
 -1       617 2.01704E+01 2.29308E+00-6.09751E-03-1.41756E+00-1.40392E-13-1.78084E-13
 -1       618 2.00537E+01 6.80823E-02 2.14680E-04-1.00032E-01-2.93699E-14 1.49836E-13
 -1       619 1.99661E+01 2.49478E+00-1.58353E-03 3.80060E-01 9.47042E-14-1.64453E-13
 -1       620 1.99325E+01 2.57334E+00-1.51192E-03 1.30711E-01 6.78404E-14-1.84999E-13
 -1       621 2.01308E+01 2.07591E+00-1.58346E-03 8.25304E-01 1.67623E-13-1.11302E-13
 -1       622 2.02497E+01 1.69568E+00-2.21915E-03 9.66519E-01 1.90002E-13-9.04953E-14
 -1       623 2.03280E+01 1.05237E+00 2.86477E-03 8.05494E-01 1.83015E-13-5.65447E-14
 -1       624 2.75831E+01 3.13407E+00-1.34443E-01-2.41948E+00-2.24997E-13-8.99628E-14
 -1       625 2.02562E+01 7.06134E-01 4.42108E-04-3.48901E-01-9.56453E-14-1.08736E-13
 -1       626 2.01902E+01 4.38797E-01 1.94415E-04-7.60096E-02-8.02916E-14-1.15220E-13
 -1       627 2.01333E+01 2.77418E-01 7.81002E-05 1.12894E-01-3.56827E-14-1.15855E-13
 -1       628 2.00940E+01 1.85335E-01 4.40087E-05 2.44017E-01-7.05367E-14-1.62184E-13
 -1       629 2.00726E+01 1.40535E-01 3.52492E-05 3.39945E-01-5.96036E-14-1.52338E-13
 -1       630 2.00669E+01 1.28987E-01 3.93806E-05 4.18335E-01-2.55745E-14-1.04699E-13
 -1       631 2.00743E+01 1.41033E-01 5.12238E-05 4.92529E-01-5.62546E-15-2.32302E-14
 -1       632 2.00929E+01 1.69101E-01 6.87130E-05 5.72306E-01-5.32445E-14 5.80091E-14
 -1       633 2.01216E+01 2.06064E-01 8.95495E-05 6.64339E-01-6.15377E-14-4.10272E-14
 -1       634 2.01607E+01 2.43773E-01 1.09805E-04 7.72309E-01-5.61767E-14-7.56401E-14
 -1       635 2.02129E+01 2.71488E-01 1.23634E-04 8.96649E-01-4.43419E-14 1.57923E-14
 -1       636 2.02842E+01 2.74112E-01 1.22131E-04 1.03385E+00-7.32437E-14 1.03884E-13
 -1       637 2.03864E+01 2.30401E-01 9.05408E-05 1.17523E+00-1.17054E-13 6.51672E-14
 -1       638 2.05403E+01 1.11827E-01 1.79161E-06 1.30493E+00-1.11018E-13 4.35795E-14
 -1       639 2.07793E+01-1.16064E-01-1.86966E-04 1.39653E+00-3.28720E-14-3.45380E-14
 -1       640 2.11515E+01-4.85481E-01-3.63970E-04 1.40759E+00 6.73152E-14-4.97288E-14
 -1       641 2.17140E+01-1.00479E+00-6.08549E-04 1.27301E+00 2.86525E-14-7.43418E-14
 -1       642 2.25163E+01-1.61473E+00-4.89438E-04 8.94891E-01 1.45619E-13-4.55427E-14
 -1       643 2.35133E+01-2.08529E+00-1.15592E-04 1.81200E-01 2.17886E-13-2.04075E-13
 -1       644 2.45079E+01-2.02066E+00-7.26554E-03-8.80627E-01 1.44561E-13-2.08154E-13
 -1       645 2.51148E+01-8.45040E-01-2.08999E-02-1.97554E+00 4.55079E-14-1.79134E-13
 -1       646 2.50462E+01 1.40901E+00-3.99420E-02-2.33300E+00-1.52729E-13-9.51752E-14
 -1       647 2.46084E+01 3.58089E+00-7.85167E-02-1.22555E+00-1.43382E-13-2.95852E-13
 -1       648 2.44978E+01 3.91225E+00-9.57042E-02 8.74769E-01-5.92946E-14-4.46194E-13
 -1       649 2.50324E+01 1.93671E+00-4.13032E-02 2.25905E+00-3.90712E-14-3.71798E-13
 -1       650 2.51537E+01-4.81302E-01-2.28038E-02 2.12217E+00-4.61089E-15-2.80803E-13
 -1       651 2.46937E+01-1.87773E+00-9.03317E-03 1.13343E+00 1.44613E-13-4.97276E-14
 -1       652 2.37279E+01-2.12952E+00-3.09038E-03 2.31215E-02-7.10854E-14-2.83621E-13
 -1       653 2.27060E+01-1.71660E+00-1.50596E-03-7.67804E-01-3.20104E-14-8.90779E-14
 -1       654 2.18632E+01-1.10897E+00-8.81029E-04-1.19825E+00-2.35542E-13-1.73545E-14
 -1       655 2.12569E+01-5.59431E-01-5.49731E-04-1.36566E+00-7.06372E-14 1.44851E-13
 -1       656 2.08533E+01-1.54223E-01-2.14524E-04-1.36797E+00-6.10155E-15 1.15701E-13
 -1       657 2.05945E+01 1.05317E-01-5.42736E-06-1.27658E+00 2.14201E-15-1.43159E-13
 -1       658 2.04296E+01 2.48997E-01 1.00377E-04-1.13775E+00-3.01015E-16-2.63817E-13
 -1       659 2.03221E+01 3.11538E-01 1.44081E-04-9.80558E-01-2.43223E-14-6.44870E-14
 -1       660 2.02486E+01 3.22424E-01 1.52628E-04-8.22824E-01 1.03901E-13 6.00946E-14
 -1       661 2.01954E+01 3.03523E-01 1.43327E-04-6.75029E-01 1.34677E-14-1.24086E-13
 -1       662 2.01546E+01 2.69853E-01 1.26321E-04-5.42739E-01 1.75416E-13-1.73601E-13
 -1       663 2.01220E+01 2.31179E-01 1.05530E-04-4.28175E-01 9.97831E-14-1.36883E-14
 -1       664 2.00951E+01 1.93522E-01 8.56162E-05-3.31362E-01 7.40771E-14-2.04279E-13
 -1       665 2.00725E+01 1.60321E-01 9.41188E-05-2.50898E-01 9.85190E-14-3.14322E-13
 -1       666 2.00529E+01 1.33087E-01 7.03064E-05-1.84792E-01 5.68922E-14-4.18295E-13
 -1       667 2.00267E+01 1.55931E-01 1.19739E-04-2.32899E-01 8.18570E-14 1.36735E-14
 -1       668 2.00480E+01 1.25971E-01 3.14070E-05 1.66686E-01 2.07093E-13 3.68096E-13
 -1       669 2.87101E+01-8.85011E-01-6.96123E-02-1.66166E+00-8.11122E-14-3.23519E-13
 -1       670 2.00641E+01 2.39347E-01 2.16784E-04-1.01253E-01 7.65221E-14 9.91302E-15
 -1       671 2.00268E+01 1.04170E-01 8.31406E-05-4.01929E-01 6.39849E-14 6.11607E-14
 -1       672 2.00557E+01 1.14759E-01 9.88479E-05-4.72594E-01 6.35539E-14 3.78601E-14
 -1       673 2.00995E+01 1.40941E-01 1.28130E-04-5.49315E-01 4.07161E-14 5.29424E-14
 -1       674 2.01567E+01 1.77517E-01 1.66373E-04-6.39622E-01 5.47340E-14 6.28707E-14
 -1       675 2.02269E+01 2.18748E-01 2.06466E-04-7.48257E-01 6.81270E-14 1.12348E-13
 -1       676 2.03113E+01 2.56851E-01 2.38897E-04-8.76933E-01-5.37440E-15 1.35083E-13
 -1       677 2.04135E+01 2.80136E-01 2.49533E-04-1.02351E+00-7.85698E-15 1.97690E-13
 -1       678 2.05413E+01 2.70782E-01 2.16241E-04-1.18056E+00 1.01176E-13 1.93315E-13
 -1       679 2.07097E+01 2.02499E-01 1.04691E-04-1.33315E+00-2.49895E-14 1.87651E-13
 -1       680 2.09455E+01 3.94446E-02-1.31857E-04-1.45536E+00 1.84483E-14 2.03261E-13
 -1       681 2.12914E+01-2.59921E-01-5.45391E-04-1.50498E+00-1.93745E-14 1.20564E-13
 -1       682 2.18059E+01-7.26338E-01-1.16050E-03-1.41660E+00 1.21343E-15 5.54704E-14
 -1       683 2.25506E+01-1.33929E+00-1.74299E-03-1.09218E+00 1.35774E-13 1.01306E-13
 -1       684 2.35264E+01-1.93451E+00-9.44226E-04-4.28498E-01 1.38714E-13 1.65914E-13
 -1       685 2.45994E+01-2.13855E+00-4.25218E-03 6.42127E-01 1.11240E-13 2.52445E-13
 -1       686 2.53881E+01-1.34214E+00-2.34159E-02 1.86800E+00 1.20160E-13 2.03575E-13
 -1       687 2.55506E+01 7.32441E-01-3.85376E-02 2.53372E+00 2.04211E-13-4.55348E-14
 -1       688 2.51000E+01 3.18043E+00-8.52256E-02 1.70232E+00 3.34593E-14 1.52972E-13
 -1       689 2.49202E+01 3.93240E+00-8.34174E-02-4.47274E-01-1.07046E-13 1.20912E-13
 -1       690 2.55319E+01-1.47834E-01-4.44836E-02-2.48756E+00 2.94556E-15 4.59283E-13
 -1       691 2.51526E+01-1.77531E+00-1.27105E-02-1.46285E+00 3.18920E-14 4.43612E-14
 -1       692 2.41986E+01-2.12137E+00-1.70986E-03-2.09652E-01 1.44740E-13-8.98953E-14
 -1       693 2.31375E+01-1.70187E+00-1.48139E-03 7.07809E-01 8.14497E-14 1.11754E-13
 -1       694 2.22551E+01-1.07261E+00-1.51383E-03 1.22244E+00-6.96445E-14 3.61027E-13
 -1       695 2.16101E+01-5.08211E-01-9.31620E-04 1.43871E+00-1.99248E-13 1.08996E-13
 -1       696 2.11721E+01-1.06569E-01-4.36338E-04 1.45713E+00 8.19398E-15 3.41707E-14
 -1       697 2.08787E+01 1.38171E-01-5.11047E-05 1.36335E+00-1.10682E-14 2.58630E-13
 -1       698 2.06772E+01 2.63949E-01 1.66323E-04 1.21285E+00 3.06520E-14 5.84628E-13
 -1       699 2.05319E+01 3.10695E-01 2.67762E-04 1.04084E+00 1.78964E-13 3.81441E-13
 -1       700 2.04214E+01 3.10152E-01 2.95227E-04 8.68715E-01 1.79501E-14 2.58380E-13
 -1       701 2.03335E+01 2.84435E-01 2.82155E-04 7.08594E-01-5.98041E-14 6.82417E-14
 -1       702 2.02618E+01 2.47741E-01 2.50319E-04 5.66511E-01-1.52679E-14 1.21530E-13
 -1       703 2.02027E+01 2.08673E-01 2.09864E-04 4.44566E-01 1.32084E-13 3.81937E-13
 -1       704 2.01540E+01 1.72188E-01 1.88879E-04 3.42452E-01 2.98818E-13 4.62535E-13
 -1       705 2.01139E+01 1.41047E-01 1.73686E-04 2.58678E-01 2.81571E-13 5.28731E-13
 -1       706 2.00760E+01 1.33489E-01 1.67225E-04 2.09735E-01 2.39513E-13 3.15604E-13
 -1       707 1.98881E+01 2.95505E-01-4.64713E-05 2.89561E-02 3.30083E-13 3.22555E-13
 -1       708 2.00410E+01 1.17570E-01 5.05774E-05-1.46698E-01 1.96941E-13-4.04184E-13
 -1       709 1.99353E+01 2.46842E-01-2.92388E-05 1.31757E-01 3.05230E-13-1.67752E-13
 -1       710 1.98887E+01 2.94589E-01-4.01274E-05-3.20917E-02 2.05563E-13 2.20120E-13
 -1       711 1.99043E+01 2.79047E-01-4.09207E-05 8.62050E-02 2.64628E-13 1.92370E-13
 -1       712 1.99054E+01 2.76950E-01-2.96829E-05-8.77093E-02 2.16205E-13-2.14471E-13
 -1       713 1.99367E+01 2.43840E-01-3.38228E-05-1.32164E-01 9.51292E-14 5.90114E-14
 -1       714 1.99783E+01 1.98817E-01-5.19390E-05-1.58062E-01-5.39017E-14-3.03584E-13
 -1       715 9.39675E+00-7.31381E-01 1.41808E-01-3.54191E+00-1.70182E-13-1.62433E-13
 -1       716 9.86079E+00-7.36292E-01 1.51649E-01 3.70561E+00-1.25969E-13 1.51851E-13
 -1       717 2.28734E+01-4.99410E+00 3.36148E-02 4.13923E+00 1.34209E-13 2.27480E-14
 -1       718 2.01302E+01 3.88748E-01 6.52874E-04 9.33077E-02 8.85071E-14-1.95419E-14
 -1       719 2.00158E+01 1.15142E-01 8.63924E-05-3.26775E-01 6.99527E-14-1.82000E-14
 -1       720 2.03034E+01 1.13758E+00-4.09527E-04-7.32761E-01-1.42646E-13-1.10890E-13
 -1       721 2.00325E+01 2.33354E+00-1.65052E-03 6.16753E-01 1.33076E-13-1.30999E-13
 -1       722 2.02215E+01 6.38205E-01 1.00723E-03 3.82230E-01 1.35479E-13-5.44535E-14
 -1       723 2.72382E+01 5.02483E+00-1.52960E-01 1.48544E+00 6.72587E-14 1.88068E-13
 -1       724 2.30126E+01-4.96653E+00 3.11459E-02-4.00849E+00-2.75370E-14-1.52442E-13
 -1       725 2.00267E+01 2.34409E+00-1.63209E-03-6.08590E-01-3.10575E-14-1.92932E-13
 -1       726 2.00330E+01-4.71461E+00 7.12761E-02-5.33646E+00-1.64476E-13 3.65702E-13
 -1       727 1.62101E+01-3.55197E+00 8.39861E-02-5.92303E+00-5.35301E-14 2.22961E-13
 -1       728 1.10365E+01-1.37323E+00 1.30782E-01-4.64771E+00 1.25434E-13 4.62227E-13
 -1       729 1.09556E+01-1.46999E+00 1.24493E-01 4.78504E+00-7.43954E-14-5.89043E-14
 -1       730 8.37438E+00 2.31055E-01 1.48376E-01 5.78969E-01-1.69519E-13-1.25192E-13
 -1       731 2.60693E+01-4.57827E+00-3.07634E-02-1.84766E+00 1.04309E-14 4.52385E-13
 -1       732 1.36527E+01-2.83518E+00 1.09825E-01-5.79208E+00-1.83319E-13-7.12069E-14
 -1       733 2.79723E+01 1.57013E+00-1.12485E-01 2.52359E+00 1.21347E-13 4.69954E-13
 -1       734 2.68276E+01 5.80623E+00-1.63804E-01-2.21476E-01-1.21375E-13 1.69825E-14
 -1       735 1.68821E+01-3.87084E+00 8.62094E-02 5.98060E+00 1.00316E-13-1.54217E-14
 -1       736 2.83333E+01-1.52691E+00-7.92177E-02 1.38188E+00 2.86857E-13 7.58560E-13
 -1       737 2.65409E+01-4.18364E+00-2.39014E-02 1.53802E+00 1.54692E-13 5.44877E-14
 -1       738 2.67963E+01-3.80504E+00-4.20651E-02-6.37234E-01-2.47432E-13-4.74273E-13
 -1       739 2.75333E+01 5.75299E+00-1.56708E-01-7.88564E-01-1.50546E-13 2.36182E-13
 -1       740 2.29314E+01-5.06225E+00 4.83488E-03 3.95406E+00-1.62554E-13 6.71945E-14
 -1       741 2.79178E+01 4.27524E+00-1.50299E-01-2.03371E+00-2.78340E-13 4.12795E-14
 -1       742 2.02784E+01 1.64309E+00 6.88787E-04-1.06533E+00-1.50772E-13-1.43600E-13
 -1       743 2.01274E+01 2.08832E+00-6.67233E-04-8.19047E-01-7.44152E-14-1.58844E-13
 -1       744 1.99314E+01 2.57507E+00-1.51506E-03-1.21744E-01 4.58413E-14-1.78269E-13
 -1       745 2.72545E+01 1.68051E+00-9.29753E-02 2.46116E+00 1.87003E-14-8.64933E-14
 -1       746 2.74952E+01 1.46054E+00-1.04874E-01-2.33590E+00-2.06814E-14-1.88769E-13
 -1       747 1.99763E+01 2.02794E-01-5.05752E-05 1.59407E-01 3.94654E-13 7.21669E-15
 -1       748 2.52471E+01 2.30069E+00-6.10264E-02-2.23797E+00-2.97809E-13 3.88363E-13
 -1       749 1.39992E+01-1.66830E+00 8.47596E-02 4.75995E+00-1.93658E-13 2.78933E-13
 -1       750 2.00156E+01-3.90182E+00 5.55257E-02 4.65469E+00-1.22633E-13 9.92921E-14
 -1       751 1.00427E+01 4.66402E-02 1.07006E-01-2.43078E+00 1.84422E-13 2.88682E-13
 -1       752 2.34841E+01-4.61273E+00 1.88233E-02-3.14739E+00-1.58209E-13 2.52567E-13
 -1       753 1.99629E+01 2.50056E+00-1.56040E-03-3.70611E-01 8.50317E-15-1.56765E-13
 -1       754 2.73591E+01-2.66307E+00-4.93311E-02-4.70828E-01 5.52267E-14-4.72469E-14
 -1       755 2.00116E+01 1.68535E-01-1.40964E-05-1.76987E-01-9.21507E-14-5.27059E-13
 -1       756 2.02821E+01 1.33819E+00 8.46143E-04 5.95273E-01 1.33507E-13-8.68547E-14
 -1       757 2.02715E+01 5.12198E-01 1.80349E-05-1.43806E-02-5.81085E-14-1.06635E-13
 -1       758 2.02292E+01 3.41306E-01-4.08856E-06 1.46821E-01-8.25055E-14-1.08840E-13
 -1       759 2.01839E+01 2.44940E-01-1.94259E-06 2.65592E-01-7.54432E-14-8.80777E-14
 -1       760 2.01399E+01 2.02609E-01 3.30536E-06 3.58691E-01-2.62280E-14-9.34058E-14
 -1       761 2.00982E+01 1.99685E-01 7.72828E-06 4.40246E-01 7.38571E-15-1.12167E-13
 -1       762 2.00581E+01 2.25016E-01 1.25624E-05 5.21554E-01-3.16946E-14-9.35690E-14
 -1       763 2.00185E+01 2.68965E-01 1.91463E-05 6.11236E-01-7.27856E-14-2.22804E-14
 -1       764 1.99788E+01 3.21769E-01 2.76594E-05 7.15492E-01-2.43455E-14 7.87047E-14
 -1       765 1.99396E+01 3.71847E-01 3.82821E-05 8.38321E-01 1.47472E-14 9.39416E-14
 -1       766 1.99046E+01 4.03863E-01 5.11329E-05 9.81628E-01-6.50058E-14 7.57776E-14
 -1       767 1.98829E+01 3.96581E-01 6.61543E-05 1.14514E+00-1.35907E-13 9.54391E-15
 -1       768 1.98924E+01 3.20642E-01 7.76751E-05 1.32598E+00-1.26420E-13 3.84053E-15
 -1       769 1.99657E+01 1.36897E-01 5.33314E-05 1.51719E+00-1.67748E-13-3.30571E-14
 -1       770 2.01574E+01-2.02682E-01-9.77800E-05 1.70311E+00 3.75168E-15-8.02873E-14
 -1       771 2.05523E+01-7.45480E-01 3.98680E-04 1.84818E+00 7.78458E-14-1.27802E-13
 -1       772 2.12559E+01-1.50273E+00 1.18130E-03 1.87493E+00 1.31366E-13-3.80038E-14
 -1       773 2.24375E+01-2.41353E+00-7.18844E-03 1.59779E+00 1.44298E-13-5.69588E-14
 -1       774 2.40308E+01-3.14258E+00-1.43165E-02 8.65340E-01 1.43291E-13-1.07859E-13
 -1       775 2.65870E+01-2.60784E-01-6.03226E-02-2.13898E+00 7.42427E-14-2.98929E-13
 -1       776 2.60594E+01-2.61679E+00-3.84052E-02 8.77020E-01 3.10463E-14-2.23229E-13
 -1       777 2.43787E+01-3.14422E+00 1.04493E-02-6.61937E-01-4.63853E-14-5.15097E-13
 -1       778 2.26887E+01-2.56442E+00 3.49542E-03-1.52776E+00-8.39177E-14-4.29286E-13
 -1       779 2.14545E+01-1.66734E+00 1.39313E-03-1.83729E+00-1.33498E-14-3.22128E-13
 -1       780 2.06630E+01-8.57486E-01 8.64279E-05-1.84184E+00-5.59034E-15-8.22281E-15
 -1       781 2.02147E+01-2.64130E-01 4.44827E-05-1.70304E+00-7.39113E-14-1.19130E-13
 -1       782 1.99881E+01 1.19610E-01 8.67774E-05-1.51102E+00-1.51711E-14 5.69726E-14
 -1       783 1.98931E+01 3.38306E-01 9.77100E-05-1.30658E+00-1.45610E-13-7.74686E-14
 -1       784 1.98694E+01 4.40594E-01 8.86679E-05-1.10815E+00 5.83564E-15-1.63917E-13
 -1       785 1.98804E+01 4.67070E-01 7.20822E-05-9.24086E-01 1.71267E-13-8.67994E-14
 -1       786 1.99050E+01 4.47994E-01 5.44052E-05-7.58360E-01 3.44346E-14-4.06567E-14
 -1       787 1.99322E+01 4.04530E-01 4.10497E-05-6.12728E-01 3.62120E-14-6.11222E-14
 -1       788 1.99567E+01 3.50917E-01 3.10295E-05-4.87489E-01 2.82341E-13-4.46520E-13
 -1       789 1.99764E+01 2.96227E-01 1.69160E-05-3.81706E-01 1.81550E-13-4.94381E-13
 -1       790 1.99912E+01 2.45811E-01 2.10222E-05-2.94052E-01 4.47473E-15-2.38018E-13
 -1       791 2.00056E+01 2.02968E-01 3.43545E-05-2.30567E-01-1.48277E-13-2.25419E-13
 -1       792 1.98382E+01 3.39816E-01-4.92632E-06-7.83581E-02 2.78619E-13 1.42010E-13
 -1       793 2.00704E+01 1.96326E-01 2.78648E-05-5.20303E-01 1.08199E-14 9.79341E-14
 -1       794 2.00905E+01 1.72779E-01 1.90846E-05-4.39145E-01 6.90056E-14 7.21100E-14
 -1       795 2.00389E+01 2.95319E-01 5.57214E-05-7.15066E-01 4.03290E-15 6.14527E-14
 -1       796 2.00245E+01 3.54315E-01 7.26320E-05-8.40172E-01 3.59760E-14 7.01920E-14
 -1       797 2.00118E+01 4.04469E-01 9.00904E-05-9.87595E-01-8.78744E-15 8.67830E-14
 -1       798 2.00058E+01 4.27821E-01 1.08947E-04-1.15706E+00 8.27707E-14-7.72681E-15
 -1       799 2.00190E+01 3.97825E-01 1.25233E-04-1.34539E+00 2.59275E-14 1.03772E-13
 -1       800 2.00768E+01 2.76255E-01 1.26509E-04-1.54535E+00 4.52744E-14 4.61344E-14
 -1       801 2.02263E+01 1.15742E-02 8.36325E-05-1.74262E+00 1.56972E-14-4.60434E-16
 -1       802 2.05467E+01-4.56795E-01 9.90800E-06-1.90672E+00 2.28525E-14-9.71359E-14
 -1       803 2.11510E+01-1.17358E+00-4.28153E-04-1.97404E+00-7.10841E-15-1.33600E-14
 -1       804 2.22105E+01-2.12173E+00-6.09390E-03-1.78143E+00-2.01317E-14 1.70109E-13
 -1       805 2.37861E+01-3.01456E+00-8.77470E-04-1.15209E+00 2.45736E-14 2.57562E-13
 -1       806 2.56530E+01-3.18067E+00-6.95971E-03 1.18514E-01 1.51937E-13 4.31215E-13
 -1       807 2.48230E+01-3.22817E+00-6.25823E-03 4.99904E-01-1.09175E-14 1.42987E-13
 -1       808 2.17638E+01-1.71319E+00-2.15859E-03 1.85924E+00-1.38073E-14 4.42928E-14
 -1       809 2.08957E+01-8.45173E-01-6.52018E-05 1.93408E+00-1.73203E-13 2.18681E-14
 -1       810 2.04164E+01-2.24011E-01-8.47621E-05 1.81239E+00-2.27217E-14 1.70470E-13
 -1       811 2.01719E+01 1.63078E-01 3.19124E-05 1.62235E+00-2.07943E-13 3.06926E-13
 -1       812 2.00622E+01 3.71842E-01 9.38806E-05 1.41052E+00-1.45856E-13 4.37623E-13
 -1       813 2.00225E+01 4.59682E-01 1.15351E-04 1.19972E+00 1.55853E-13 4.20758E-13
 -1       814 2.00150E+01 4.72556E-01 1.09614E-04 1.00148E+00 1.87032E-13 3.03472E-13
 -1       815 2.00195E+01 4.43169E-01 9.46746E-05 8.21700E-01-2.26940E-14-1.75526E-15
 -1       816 2.00263E+01 3.93148E-01 7.81481E-05 6.63217E-01-1.56943E-13 3.33339E-15
 -1       817 2.00314E+01 3.36097E-01 6.23631E-05 5.26812E-01-2.02509E-13 2.66095E-13
 -1       818 2.00337E+01 2.80239E-01 6.31326E-05 4.11851E-01 1.66068E-13 6.15454E-14
 -1       819 2.00330E+01 2.30500E-01 7.89059E-05 3.17063E-01 2.34719E-13 1.85949E-14
 -1       820 2.01342E+01 1.95589E+00-3.38029E-04 1.85733E-01 9.34852E-14-1.41323E-13
 -1       821 1.99294E+01 2.61693E-01-4.02301E-05-1.90675E-01-7.41337E-14-5.22012E-13
 -1       822 1.98249E+01 3.51408E-01-2.12309E-05-1.95009E-03 3.85151E-13 3.89056E-13
 -1       823 2.61634E+01 4.80595E+00-1.61680E-01 8.35560E-01-5.75928E-15-3.04563E-13
 -1       824 1.10654E+01 4.81208E-01 7.56343E-02-1.59953E+00-1.27795E-13-1.55088E-13
 -1       825 1.34621E+01-1.09671E+00 7.29948E-02-4.28354E+00-2.18647E-13-1.08392E-13
 -1       826 2.02926E+01 1.20222E+00-4.73963E-04-5.29064E-01-1.01534E-13-1.06094E-13
 -1       827 2.04997E+01-3.72261E+00 2.77926E-02 4.24209E+00 1.03695E-13-3.26544E-14
 -1       828 1.00905E+01 4.42767E-01 1.03617E-01 1.29381E+00-1.28093E-13 1.26909E-13
 -1       829 2.49018E+01-4.13868E+00 1.99851E-02 1.60753E+00 7.42904E-14-8.67813E-14
 -1       830 2.02379E+01 4.78020E-01-1.51196E-04 3.73683E-02 6.55786E-14-4.16109E-15
 -1       831 1.98744E+01 3.08959E-01-1.77086E-05-1.44151E-01 2.54585E-13-1.13216E-13
 -1       832 2.31092E+01-2.67275E+00-5.49476E-04 1.44305E+00 2.43781E-14 2.33261E-13
 -1       833 2.00538E+01 2.39702E-01 3.99331E-05-6.09971E-01 3.19589E-14 7.27243E-14
 -1       834 2.02001E+01 1.89394E+00 7.91728E-06-9.59680E-01-1.08966E-13-1.62055E-13
 -1       835 2.02894E+01 9.75017E-01 1.01137E-04 5.14783E-01 1.48563E-13-4.45025E-14
 -1       836 1.77066E+01-3.06570E+00 4.83868E-02-5.01019E+00-1.89914E-13 1.85661E-13
 -1       837 2.01913E+01 3.12262E-01 1.78393E-05-1.36389E-01 8.52501E-14-1.83885E-14
 -1       838 1.14894E+01 9.37227E-02 7.16060E-02 2.66391E+00-1.06393E-13-2.32973E-14
 -1       839 1.51980E+01-1.68768E+00 5.93864E-02-4.62471E+00 3.70207E-14 4.12326E-13
 -1       840 2.02995E+01 7.86149E-01-8.24712E-05-2.35384E-01-1.01240E-13-7.60188E-14
 -1       841 2.63789E+01 2.63732E-01-1.20686E-01-2.34846E+00-1.02869E-13 1.46985E-13
 -1       842 2.71184E+01-3.18420E+00-2.63404E-02-3.70104E-01 4.73805E-14-1.82375E-13
 -1       843 2.01722E+01-3.64393E+00 3.37936E-02-4.38781E+00 5.70499E-14-9.22509E-14
 -1       844 1.56387E+01-1.87104E+00 5.98345E-02 4.72973E+00 6.82197E-14 1.69847E-13
 -1       845 2.65921E+01-1.49663E+00-3.60266E-02 1.82712E+00 2.83639E-13 2.21573E-13
 -1       846 2.01210E+01 1.99655E+00-3.11364E-04 3.03290E-03 4.97405E-14-1.73613E-13
 -1       847 2.01709E+01 1.83585E+00-3.52332E-04 3.56496E-01 1.10178E-13-1.40585E-13
 -1       848 1.99266E+01 2.67260E-01-6.57011E-07 1.90803E-01 3.19605E-13 1.06875E-15
 -1       849 1.25161E+01-1.35607E-01 6.83321E-02 3.08447E+00-1.61364E-14-1.04725E-14
 -1       850 2.59087E+01-2.44965E+00-2.41956E-02-8.68973E-01 9.55082E-14-1.08222E-13
 -1       851 2.02201E+01 1.64346E+00-5.73827E-04-4.96021E-01-4.96178E-14-1.37626E-13
 -1       852 2.01498E+01 2.18887E-01 1.19418E-05-2.61328E-01 7.15732E-14-1.26171E-14
 -1       853 2.01164E+01 1.77006E-01 1.44569E-05-3.56977E-01 1.13939E-15 3.34990E-14
 -1       854 2.00130E+01 2.10333E-01-4.75907E-04 2.54311E-01 3.27079E-13-6.91198E-14
 -1       855 1.98718E+01 3.13389E-01-3.04295E-05 1.41536E-01 1.68580E-13 7.98404E-14
 -1       856 1.98366E+01 3.42295E-01-3.23889E-05 7.44831E-02 2.08078E-13 3.02202E-13
 -1       857 1.78062E+01-2.42037E+00 3.03335E-02 4.44590E+00-5.08309E-14 6.23538E-14
 -1       858 2.29895E+01-3.99411E+00 2.66418E-02 2.82525E+00-1.85504E-13-5.01561E-14
 -1       859 1.21941E+01 8.33069E-01 4.04376E-02 5.18900E-01-7.38310E-14-1.21286E-13
 -1       860 2.10427E+01-3.54248E+00 2.78482E-02-3.75022E+00-8.38999E-14 1.96073E-13
 -1       861 2.00004E+01 2.03507E-01-7.05187E-05 2.17850E-01 2.30334E-13 1.77282E-13
 -1       862 2.01663E+01 1.84325E+00-6.21726E-04-3.50324E-01-9.28472E-15-1.66298E-13
 -1       863 2.02244E+01 1.63235E+00-2.80333E-04 5.01328E-01 1.16421E-13-8.48597E-14
 -1       864 1.34485E+01-3.06959E-01 5.13690E-02-3.40790E+00 5.62250E-14 6.95298E-13
 -1       865 2.45459E+01-3.87631E+00 7.82766E-03-1.50393E+00-8.81200E-14-5.48531E-13
 -1       866 1.99651E+01 2.34809E-01 2.66697E-04-2.14558E-01-2.48840E-13-4.51331E-13
 -1       867 2.02698E+01 6.76395E-01-4.09121E-04 2.43915E-01 8.99289E-14-4.29381E-14
 -1       868 1.47705E+01-2.65757E-01 2.64185E-02 3.18653E+00 4.45942E-14 2.29736E-13
 -1       869 2.02720E+01 3.85351E-01-1.38309E-05 1.67800E-01-5.68211E-14-8.44881E-14
 -1       870 2.02130E+01 2.97288E-01-4.82352E-06 2.66467E-01-5.98529E-14-6.73483E-14
 -1       871 2.01425E+01 2.66543E-01-2.29463E-06 3.48837E-01-1.19635E-14-3.45792E-14
 -1       872 2.00626E+01 2.78620E-01-1.49104E-06 4.25732E-01-2.22820E-14-3.92949E-14
 -1       873 1.99733E+01 3.21374E-01 8.75888E-08 5.06232E-01 3.18195E-16-8.91344E-14
 -1       874 1.98734E+01 3.83555E-01 9.45854E-07 5.97672E-01-1.28737E-15-5.33770E-14
 -1       875 1.97620E+01 4.53285E-01 3.13994E-06 7.05997E-01 4.35527E-14-3.36458E-14
 -1       876 1.96392E+01 5.16267E-01 8.67031E-06 8.36389E-01-4.60937E-14-2.39026E-14
 -1       877 1.95082E+01 5.53712E-01 2.03300E-05 9.93924E-01-5.61560E-14 4.04523E-14
 -1       878 1.93782E+01 5.40105E-01 4.07868E-05 1.18454E+00-1.55478E-13 1.28874E-13
 -1       879 1.92682E+01 4.40565E-01 6.02280E-05 1.41619E+00-1.31337E-13 1.31588E-13
 -1       880 1.92159E+01 2.07412E-01-9.65805E-06 1.69871E+00-1.90633E-13 1.40566E-13
 -1       881 1.92885E+01-2.21391E-01-5.51323E-04 2.03809E+00 6.52961E-16 6.14806E-14
 -1       882 1.96047E+01-9.25094E-01 9.23851E-05 2.43159E+00 1.52130E-13 4.61189E-14
 -1       883 2.03914E+01-1.94561E+00 1.00371E-02 2.82412E+00 1.31803E-13-2.54629E-14
 -1       884 1.83979E+01-1.93304E+00 1.77151E-02-3.80136E+00 1.32951E-13-1.47638E-13
 -1       885 1.69895E+01-1.50174E+00 3.70187E-02-3.98869E+00-1.88779E-13 8.57838E-14
 -1       886 2.05624E+01-2.17385E+00 1.08319E-03-2.82506E+00-4.45658E-14-5.73519E-14
 -1       887 1.96999E+01-1.06649E+00 2.99489E-03-2.48451E+00 1.47928E-13-5.73205E-14
 -1       888 1.93160E+01-3.03784E-01 3.66284E-04-2.08685E+00-4.28340E-14 8.34888E-14
 -1       889 1.92000E+01 1.81358E-01 1.81934E-04-1.72687E+00 2.15515E-14-5.03892E-14
 -1       890 1.92268E+01 4.57255E-01 1.25016E-04-1.42290E+00-2.49472E-13-3.48355E-13
 -1       891 1.93192E+01 5.88971E-01 8.45819E-05-1.16990E+00-6.89229E-14-2.51021E-13
 -1       892 1.94346E+01 6.26384E-01 5.69269E-05-9.58111E-01 1.70710E-13 1.08928E-13
 -1       893 1.95505E+01 6.05686E-01 3.30929E-05-7.79459E-01 8.48951E-14 9.00940E-14
 -1       894 1.96555E+01 5.52283E-01 1.45527E-05-6.28407E-01-1.26658E-13-7.14595E-14
 -1       895 1.97453E+01 4.83552E-01 5.04254E-06-5.01284E-01 1.04167E-13-2.20494E-13
 -1       896 1.98186E+01 4.11557E-01 2.64796E-05-3.95240E-01 1.26986E-13-3.01896E-13
 -1       897 1.98766E+01 3.42928E-01-3.93396E-05-3.07256E-01 3.49103E-13-3.08236E-13
 -1       898 1.97321E+01 5.08253E-01 3.16588E-05-8.56466E-01-2.41392E-14 1.30110E-14
 -1       899 1.98369E+01 4.31723E-01 1.28439E-05-7.25630E-01-2.03168E-15-9.15841E-15
 -1       900 1.94870E+01 5.92890E-01 8.32872E-05-1.19948E+00 9.17070E-15 1.02176E-14
 -1       901 1.93645E+01 5.45582E-01 1.39528E-04-1.42225E+00 3.00301E-14 6.94770E-16
 -1       902 1.92758E+01 3.80827E-01 2.32361E-04-1.69003E+00 1.05993E-13-5.37493E-14
 -1       903 1.92777E+01 3.40815E-02 3.20080E-04-2.01333E+00 6.49392E-14-1.64898E-13
 -1       904 1.94824E+01-5.82946E-01-3.49842E-04-2.39353E+00-1.36590E-13-1.14777E-14
 -1       905 2.00913E+01-1.53969E+00 6.53977E-03-2.80063E+00-1.17085E-13 1.27789E-13
 -1       906 1.97961E+01-1.09454E+00 4.73557E-03 2.61729E+00-1.15924E-13 2.01542E-13
 -1       907 1.93021E+01 5.03090E-01 4.75686E-05 1.53506E+00-2.45807E-13 4.23464E-13
 -1       908 1.93991E+01 6.25030E-01 6.68510E-05 1.27373E+00 1.36376E-14 2.96505E-13
 -1       909 1.95145E+01 6.49480E-01 5.04008E-05 1.05158E+00 1.14193E-14 4.70538E-13
 -1       910 1.96255E+01 6.17004E-01 3.02616E-05 8.61236E-01 3.25770E-13 5.51855E-13
 -1       911 1.97223E+01 5.54700E-01 1.75419E-05 6.98002E-01-2.09194E-14 3.12419E-13
 -1       912 1.98018E+01 4.80157E-01 7.25112E-06 5.58888E-01-6.78201E-14 7.41955E-14
 -1       913 1.98644E+01 4.04520E-01 9.70644E-06 4.41729E-01 1.23307E-13-2.23776E-13
 -1       914 1.99116E+01 3.34625E-01-2.12385E-05 3.44607E-01 6.93352E-14 1.56896E-13
 -1       915 1.39399E+01 8.45076E-02 3.29544E-02-2.78425E+00-1.78076E-13-9.08145E-14
 -1       916 1.97524E+01 4.14316E-01-3.27251E-06-5.22588E-02 2.57635E-13 3.44080E-13
 -1       917 2.02968E+01 1.21164E+00 7.60303E-04-3.43111E-01-8.83721E-14-9.94405E-14
 -1       918 1.92691E+01 2.26490E-01 2.71543E-05 1.84460E+00-3.94622E-13 4.32410E-13
 -1       919 1.93841E+01-2.80018E-01-8.91076E-05 2.20873E+00-1.99449E-13 1.40806E-13
 -1       920 1.18398E+01 8.10315E-01 5.29412E-02-7.68853E-01-1.63426E-13 1.62486E-13
 -1       921 2.02974E+01 5.31192E-01-4.10030E-05-2.19739E-02 7.39241E-14-1.01953E-13
 -1       922 1.96140E+01 5.69503E-01 5.00827E-05-1.01293E+00 8.96913E-14 9.05190E-15
 -1       923 2.01321E+01 1.95919E+00-4.88572E-04-1.78451E-01 2.01551E-14-1.57402E-13
 -1       924 2.07759E+01-2.97102E+00 2.05585E-02 3.43597E+00 2.12001E-14-6.62023E-14
 -1       925 2.00795E+01 2.51882E-01-1.47212E-06-4.40466E-01 1.47281E-14-3.05362E-14
 -1       926 2.19999E+01-3.24765E+00 2.14971E-03-2.74721E+00 9.19729E-14-3.78453E-13
 -1       927 2.03301E+01 8.09058E-01-4.64436E-04-1.28105E-01-8.82346E-14-7.42397E-14
 -1       928 2.03140E+01 5.49518E-01 2.61311E-05 4.09549E-02-4.47770E-14-7.70306E-14
 -1       929 1.78283E+01-1.36186E+00 1.50584E-02 3.53320E+00 3.11689E-14 7.63408E-14
 -1       930 1.98528E+01 3.40022E-01-2.23675E-05-2.15623E-01 1.47815E-14-5.72022E-13
 -1       931 1.56205E+01-9.17395E-01 3.98500E-02 3.77041E+00-2.48829E-13 2.83480E-13
 -1       932 1.25606E+01 8.04859E-01 4.00894E-02 1.05376E+00-7.66615E-14 1.05925E-13
 -1       933 1.66581E+01-8.39750E-01 2.13764E-02-3.46762E+00 2.75169E-13 3.29153E-13
 -1       934 2.03166E+01 8.02007E-01 3.90684E-04 1.69680E-01 5.96937E-14-9.22228E-14
 -1       935 1.99285E+01 2.84206E-01 6.29435E-05-2.58613E-01 1.08851E-13-3.08461E-13
 -1       936 2.02561E+01 3.65975E-01-1.55676E-05-1.64207E-01 1.74474E-14-4.65083E-14
 -1       937 2.01443E+01 2.42586E-01-3.48252E-06-3.60192E-01 8.18710E-15-1.85263E-14
 -1       938 1.99282E+01 3.56113E-01 5.12592E-06-6.16168E-01 3.30493E-14 2.19502E-14
 -1       939 2.02556E+01 1.50019E+00-1.42512E-05 6.04539E-02 4.72050E-14-1.20343E-13
 -1       940 2.00082E+01 2.92935E-01 2.95160E-06-5.23139E-01 1.67392E-14-2.89829E-14
 -1       941 1.99211E+01 3.00639E-01 2.26118E-04 2.74120E-01 3.09563E-13 3.77103E-13
 -1       942 1.35901E+01 8.70248E-01 2.39127E-02-1.10431E+00-9.55810E-14-1.33954E-13
 -1       943 1.97870E+01 3.88461E-01 3.48381E-05-1.42632E-01 2.40450E-13-9.30580E-14
 -1       944 1.98475E+01 3.48167E-01 2.06935E-05 2.14260E-01 4.54850E-13-4.94290E-13
 -1       945 2.02696E+01 1.42637E+00-2.42586E-04 1.69402E-01 7.49021E-14-1.02741E-13
 -1       946 1.97510E+01 4.16217E-01-4.63330E-05 4.54070E-02 8.50493E-14 2.95433E-13
 -1       947 1.42915E+01 6.58577E-01 1.62811E-02 1.72975E+00-5.12672E-14 1.35388E-13
 -1       948 2.03070E+01 1.06504E+00-5.04295E-04 3.18341E-01 8.98422E-14-6.65026E-14
 -1       949 2.02752E+01 1.40054E+00 1.23904E-04-2.58257E-01-2.90374E-14-1.25867E-13
 -1       950 2.02750E+01 4.11321E-01-4.82317E-05 1.64899E-01-3.89373E-14-1.88184E-14
 -1       951 2.02919E+01 1.28095E+00-2.41301E-04 2.60993E-01 1.17127E-13-1.51809E-13
 -1       952 2.01959E+01 3.41512E-01-8.90176E-06 2.38908E-01 1.00775E-14 3.81627E-14
 -1       953 2.00957E+01 3.29576E-01-5.32111E-06 3.04523E-01 3.56494E-15 4.65746E-14
 -1       954 1.99763E+01 3.61362E-01-6.71305E-06 3.69760E-01-3.53907E-14 6.02119E-14
 -1       955 1.98373E+01 4.24204E-01-1.06967E-05 4.41411E-01 2.15816E-14 3.86846E-14
 -1       956 1.96766E+01 5.05839E-01-2.87602E-05 5.25568E-01 1.55024E-14 1.05481E-14
 -1       957 1.94915E+01 5.93388E-01-4.37846E-05 6.28173E-01 5.39564E-15 8.17135E-15
 -1       958 1.92796E+01 6.71091E-01-5.98129E-05 7.56065E-01-2.11857E-14 8.12801E-14
 -1       959 1.90403E+01 7.18990E-01-7.10956E-05 9.18254E-01-6.41760E-14 9.40805E-14
 -1       960 1.87763E+01 7.10826E-01-6.97958E-05 1.12826E+00-9.24796E-14 1.75135E-13
 -1       961 1.84970E+01 6.11637E-01-1.54779E-05 1.40787E+00-1.03711E-13 1.96224E-13
 -1       962 1.82263E+01 3.69821E-01-3.89144E-04 1.79161E+00-4.97661E-14 2.63859E-13
 -1       963 1.80352E+01-9.00043E-02-1.19350E-03 2.31702E+00 4.67725E-14 2.69017E-13
 -1       964 1.78786E+01-6.26794E-01 3.84296E-03 2.86782E+00 4.31708E-14 1.22486E-13
 -1       965 2.03391E+01 8.01800E-01-2.10461E-04 7.30351E-02 5.32340E-14-1.31553E-13
 -1       966 1.82684E+01 5.52323E-01 4.53689E-05-1.71648E+00 4.56380E-14 1.75558E-13
 -1       967 1.79746E+01-1.78975E-01 6.49145E-04-2.42077E+00 8.05614E-14 2.03070E-13
 -1       968 1.81540E+01 3.42888E-01 1.07119E-04-1.85242E+00-8.38782E-14 9.78307E-14
 -1       969 1.84075E+01 6.30144E-01-1.47599E-04-1.43935E+00-3.27378E-13 3.09996E-14
 -1       970 1.86745E+01 7.64210E-01-1.91602E-04-1.13467E+00 1.75809E-14 1.74992E-13
 -1       971 1.89263E+01 7.98452E-01-1.85800E-04-9.03465E-01 2.77723E-13 3.29059E-13
 -1       972 1.91506E+01 7.69912E-01-1.48036E-04-7.22220E-01 1.00649E-13 4.12051E-13
 -1       973 1.93433E+01 7.04552E-01-9.31833E-05-5.76864E-01-1.39729E-13 1.42184E-13
 -1       974 1.95040E+01 6.20953E-01-3.16967E-05-4.58457E-01-2.07504E-13 1.49706E-13
 -1       975 1.96351E+01 5.31378E-01-7.34911E-05-3.62216E-01 6.64698E-14-8.02331E-14
 -1       976 1.97384E+01 4.46463E-01 6.14461E-05-2.82472E-01 1.79528E-13-3.76569E-13
 -1       977 1.85794E+01 7.25521E-01 1.18367E-04-1.37863E+00 1.09491E-13 6.01509E-14
 -1       978 1.88757E+01 7.73440E-01 4.57156E-05-1.12963E+00 7.59875E-14 1.68418E-13
 -1       979 1.79955E+01 1.81479E-01 9.50789E-04-2.19053E+00-1.11347E-13 2.06288E-13
 -1       980 1.75021E+01-4.41070E-01 4.67697E-03-2.90473E+00-1.72549E-13 1.20003E-14
 -1       981 2.02035E+01 2.75992E-01-6.71073E-06-2.72196E-01-5.16668E-15 4.35026E-15
 -1       982 1.43215E+01 6.28388E-01 1.65002E-02-1.92159E+00-3.78742E-14 3.21742E-13
 -1       983 1.83772E+01 6.81982E-01-2.29391E-04 1.54216E+00-2.70901E-13 2.47504E-13
 -1       984 1.91756E+01 7.95559E-01-5.88323E-05 8.10445E-01 5.95335E-14 2.73435E-13
 -1       985 2.02557E+01 1.50110E+00 4.69817E-05-5.76436E-02 3.08697E-15-1.15192E-13
 -1       986 2.02584E+01 1.48599E+00 1.43092E-03-1.58510E-01-1.97728E-14-1.26218E-13
 -1       987 1.78779E+01-1.60907E-01 9.26097E-04 2.54180E+00-1.70228E-13 4.16569E-13
 -1       988 1.86710E+01 8.11787E-01-3.46528E-05 1.23345E+00-1.41520E-13 1.22919E-13
 -1       989 1.93721E+01 7.20763E-01-4.37826E-05 6.56515E-01 3.15290E-13 6.26736E-13
 -1       990 1.95325E+01 6.30101E-01-2.71852E-05 5.28186E-01 1.75584E-13 3.22275E-13
 -1       991 1.96606E+01 5.35736E-01-3.09370E-05 4.20795E-01 1.37601E-13 4.65153E-13
 -1       992 1.97605E+01 4.46563E-01-1.92007E-05 3.32185E-01-7.54501E-14 3.34944E-13
 -1       993 1.97841E+01 3.93325E-01-4.96935E-05 1.38705E-01 2.03115E-13 2.89077E-13
 -1       994 2.03282E+01 5.55782E-01-1.51793E-04 7.40982E-02-4.55526E-14-1.72350E-14
 -1       995 1.76529E+01-1.00736E+00 1.74321E-02 3.34140E+00-2.12881E-13 2.74030E-13
 -1       996 1.98063E+01 3.95642E-01 8.02954E-06 2.68583E-01 1.39434E-13-7.49194E-14
 -1       997 1.95733E+01 5.76942E-01 8.30277E-07-6.62174E-01 1.68430E-15 3.39930E-15
 -1       998 1.84694E+01-1.06601E+00 6.01673E-03-3.03760E+00 1.77239E-13 5.49450E-14
 -1       999 2.03266E+01 1.02251E+00 7.63775E-04 1.65633E-01 9.78520E-14-1.35379E-13
 -1      1000 2.03486E+01 7.93701E-01 2.64105E-04-4.15742E-02-5.44813E-14-3.39203E-14
 -1      1001 1.89412E+01 8.35103E-01-5.20499E-05 9.97883E-01-2.80549E-14 3.49473E-13
 -1      1002 1.80910E+01 3.86334E-01-7.37073E-05 1.96195E+00-4.17188E-13 4.89340E-13
 -1      1003 1.43584E+01 3.47462E-01 2.52465E-02 2.39411E+00-2.32716E-13-9.64532E-14
 -1      1004 1.60097E+01 3.12859E-02 1.86813E-02 2.63167E+00 5.54316E-14 1.93779E-13
 -1      1005 2.03282E+01 1.12951E+00 7.31928E-04 1.02457E-03 1.92787E-14-7.64999E-14
 -1      1006 2.01157E+01 3.08246E-01-1.46276E-06-3.29875E-01 1.52204E-14-9.98490E-14
 -1      1007 1.97427E+01 4.81334E-01-5.14154E-05-5.60640E-01-8.14783E-15-7.78472E-14
 -1      1008 1.39613E+01 1.03311E+00 1.77845E-02-5.92916E-01-2.44582E-13 1.80607E-13
 -1      1009 2.00103E+01 3.36186E-01-2.18202E-05-3.99920E-01 1.49626E-14-1.57128E-13
 -1      1010 1.97216E+01 4.50378E-01-7.63769E-05 1.79813E-01 3.36384E-13 3.48511E-14
 -1      1011 1.93747E+01 6.69983E-01 1.25082E-05-7.85800E-01 1.81187E-15-7.82947E-16
 -1      1012 1.44938E+01 1.06022E+00 5.63223E-03 3.38460E-01-7.87120E-14-4.29507E-14
 -1      1013 1.60287E+01 4.85461E-01 7.02501E-03-2.09718E+00-6.49478E-14 9.57833E-14
 -1      1014 2.03341E+01 1.08836E+00-3.25640E-05 5.38685E-02 2.83338E-14-9.85940E-14
 -1      1015 1.96501E+01 4.97481E-01 5.98597E-05-5.80374E-03 3.91195E-14 4.44533E-13
 -1      1016 1.96740E+01 4.80300E-01 3.88902E-05-1.25137E-01 5.45049E-14 3.48062E-14
 -1      1017 1.91423E+01 7.43695E-01 5.69268E-06-9.37937E-01 1.37743E-14 1.73062E-13
 -1      1018 2.03235E+01 5.52627E-01 1.86808E-05-6.55164E-02 1.66804E-14-9.47905E-14
 -1      1019 1.65288E+01 8.66365E-02 5.17329E-03-2.50296E+00 2.14543E-13 2.22119E-13
 -1      1020 1.64299E+01-3.48623E-02 9.19377E-03 2.70614E+00-1.83785E-13 2.43039E-13
 -1      1021 2.02483E+01 4.23054E-01 1.82526E-05 1.30601E-01-2.19881E-14-2.59703E-14
 -1      1022 2.01452E+01 3.77183E-01-7.74218E-05 1.77285E-01-2.61041E-14-3.99309E-14
 -1      1023 2.00145E+01 3.88925E-01-3.69573E-05 2.22084E-01 2.63949E-15-2.10651E-14
 -1      1024 1.98572E+01 4.42658E-01-1.02921E-05 2.69189E-01 6.83896E-15-2.12654E-14
 -1      1025 1.96709E+01 5.26480E-01-1.56365E-05 3.23649E-01-3.81198E-15-3.37447E-14
 -1      1026 1.94520E+01 6.26980E-01-1.05472E-04 3.89888E-01 2.85016E-14 4.49011E-14
 -1      1027 1.91940E+01 7.32491E-01-1.88634E-04 4.74353E-01-9.40183E-15-3.71291E-14
 -1      1028 1.88900E+01 8.26652E-01-2.32438E-04 5.83832E-01 3.77773E-16-4.82564E-14
 -1      1029 1.85298E+01 8.91533E-01-3.54845E-04 7.30380E-01-2.45016E-14 3.32440E-14
 -1      1030 1.81029E+01 9.03724E-01-3.34428E-04 9.32230E-01-6.21825E-14 7.82181E-14
 -1      1031 1.75934E+01 8.35287E-01 1.48470E-04 1.22235E+00-3.15283E-14 1.39537E-13
 -1      1032 1.69819E+01 6.48712E-01-7.16064E-04 1.64103E+00 3.57149E-14 1.85026E-13
 -1      1033 2.02753E+01 4.01032E-01-9.81940E-06-1.71994E-01 1.16882E-14-9.19312E-14
 -1      1034 1.71339E+01 5.60440E-01 1.91093E-03-1.79758E+00-1.01263E-13 1.73660E-13
 -1      1035 2.03525E+01 7.48974E-01 1.43272E-04 1.03805E-02-2.58086E-14-5.99108E-14
 -1      1036 1.76657E+01 8.09474E-01 4.56391E-04-1.32993E+00-2.38627E-13 6.40355E-14
 -1      1037 1.81198E+01 9.21088E-01 1.61316E-04-1.00924E+00 6.68611E-14 3.01197E-13
 -1      1038 1.85046E+01 9.37465E-01-1.12221E-04-7.82133E-01 1.91932E-13 2.74095E-13
 -1      1039 1.88241E+01 8.97798E-01-2.40741E-04-6.12852E-01 2.73244E-13 3.24334E-13
 -1      1040 1.90914E+01 8.19935E-01-1.03016E-04-4.83207E-01-1.22031E-13 3.60062E-13
 -1      1041 1.93095E+01 7.24421E-01-2.62508E-05-3.81450E-01-2.95316E-13 5.80133E-13
 -1      1042 1.94851E+01 6.22824E-01-9.19412E-05-2.99210E-01-4.19119E-13 3.10478E-13
 -1      1043 1.96251E+01 5.24307E-01-1.52365E-04-2.34209E-01-6.01955E-14-2.79509E-13
 -1      1044 1.76910E+01 9.34802E-01 1.37575E-05-1.14905E+00 4.41725E-14 1.41641E-13
 -1      1045 2.03368E+01 1.04995E+00-8.05999E-04-6.83586E-02-5.60345E-15-1.05449E-13
 -1      1046 1.82086E+01 9.58675E-01-9.90383E-05-9.12381E-01 1.08882E-13 6.68385E-14
 -1      1047 2.02044E+01 3.25318E-01-1.23154E-05-2.56907E-01 2.35744E-14-1.32250E-13
 -1      1048 1.90054E+01 8.77742E-01-2.44512E-04 5.25777E-01-5.21523E-15 1.40178E-13
 -1      1049 1.98869E+01 3.97523E-01-5.20195E-05-4.74753E-01-6.33512E-15-1.53125E-13
 -1      1050 1.92489E+01 7.72520E-01-1.37463E-04 4.25124E-01 2.02526E-13 4.68794E-13
 -1      1051 1.78721E+01 1.01118E+00 1.81422E-05 1.02490E+00-9.20260E-14-5.93807E-14
 -1      1052 1.94427E+01 6.62845E-01-7.90591E-05 3.40934E-01 7.67779E-15 5.17844E-13
 -1      1053 1.95952E+01 5.57042E-01 7.02663E-05 2.71893E-01 4.34219E-13 4.40169E-13
 -1      1054 1.65957E+01 6.70549E-01 2.07079E-04 1.79278E+00-2.37129E-13 2.39125E-13
 -1      1055 2.03299E+01 1.07691E+00 4.52229E-04 1.09194E-01 4.21666E-14-8.55249E-14
 -1      1056 2.03200E+01 5.41744E-01 2.40636E-04 7.68708E-02-3.72254E-14-6.55039E-14
 -1      1057 1.83309E+01 1.01732E+00-2.16145E-04 8.09379E-01-1.31129E-13-4.13500E-14
 -1      1058 1.96724E+01 4.82756E-01-3.94947E-05 9.21371E-02 4.26716E-13 7.98094E-14
 -1      1059 1.86332E+01 9.14238E-01-1.93758E-04-7.43017E-01 2.36812E-14-3.57776E-14
 -1      1060 1.96624E+01 5.02203E-01 1.59348E-04 2.22191E-01 5.14336E-13-1.21399E-13
 -1      1061 1.87031E+01 9.65195E-01-3.80542E-04 6.50998E-01-1.22446E-13-8.86755E-16
 -1      1062 1.70657E+01 8.04130E-01 2.03283E-04-1.50816E+00-2.23376E-14 8.28295E-14
 -1      1063 1.73009E+01 9.11200E-01-1.48746E-03 1.32760E+00-1.82425E-13 3.50002E-14
 -1      1064 1.58487E+01 7.83113E-01 7.24982E-03 1.52307E+00 3.37341E-14 2.84157E-13
 -1      1065 1.89857E+01 8.26168E-01-1.14551E-04-6.16444E-01-2.39296E-14 1.02320E-14
 -1      1066 2.01662E+01 3.65594E-01-7.65445E-05-2.08982E-01 1.81573E-14-1.14824E-13
 -1      1067 1.44649E+01 1.04095E+00 1.20423E-02 7.53320E-01-4.63175E-13-1.44337E-13
 -1      1068 1.55260E+01 9.56600E-01 4.16793E-03-1.20404E+00-5.49174E-14-6.20196E-14
 -1      1069 2.03510E+01 7.47356E-01-2.34569E-04 1.75565E-03 2.25773E-14-7.25672E-14
 -1      1070 2.00461E+01 3.70666E-01-2.60186E-05-2.61987E-01 4.68576E-14-8.86347E-14
 -1      1071 1.95388E+01 5.80574E-01-4.66637E-05-8.36132E-02-1.44944E-13 4.77573E-13
 -1      1072 1.92790E+01 7.17081E-01-1.44018E-05-5.17531E-01 1.14702E-16 5.68598E-14
 -1      1073 1.95209E+01 6.05946E-01-7.97718E-05-4.36537E-01-3.22355E-14 6.43761E-15
 -1      1074 1.95435E+01 5.78584E-01 2.01054E-04 3.75846E-02-2.37435E-14-3.14553E-13
 -1      1075 2.03558E+01 8.08206E-01-9.69189E-05 1.04841E-03 2.10017E-14-8.04745E-14
 -1      1076 1.77681E+01 1.16130E+00 2.83199E-03 4.58257E-01-1.53495E-13-2.02369E-13
 -1      1077 2.00730E+01 4.06746E-01 6.12840E-05 8.13267E-02-3.12667E-14-2.88714E-14
 -1      1078 1.99152E+01 4.41547E-01-1.20288E-04 1.00667E-01-3.10679E-15-7.13714E-14
 -1      1079 1.97259E+01 5.15937E-01-7.00517E-05 1.24006E-01-1.84408E-14-3.43165E-15
 -1      1080 1.94983E+01 6.20340E-01 5.95477E-04 1.55184E-01 3.10446E-14-7.24217E-14
 -1      1081 1.92242E+01 7.39364E-01 3.79132E-04 1.93187E-01 1.23354E-15-1.06434E-13
 -1      1082 1.88985E+01 8.59055E-01 1.91455E-04 2.42313E-01-7.93416E-15-2.92019E-14
 -1      1083 1.85042E+01 9.68563E-01 1.63971E-04 3.10446E-01 6.76681E-14-7.66245E-14
 -1      1084 1.80183E+01 1.05154E+00-3.86469E-04 4.05203E-01-5.47290E-14-1.75365E-14
 -1      1085 1.74310E+01 1.08523E+00 1.52774E-03 5.37487E-01 3.79579E-16 9.90088E-15
 -1      1086 1.66415E+01 1.06329E+00-2.23631E-03 7.43710E-01 6.80468E-14 1.20971E-13
 -1      1087 1.55110E+01 8.78349E-01 2.96266E-03 1.42193E+00-3.10727E-13 1.28370E-13
 -1      1088 1.75406E+01 1.12809E+00 6.64587E-04-4.99190E-01 1.00035E-13 3.23008E-14
 -1      1089 2.02604E+01 4.19600E-01-1.04980E-05-1.50781E-01 9.61896E-15-9.73899E-14
 -1      1090 1.73993E+01 1.11222E+00 3.70058E-04-6.72584E-01-1.08332E-13 3.37169E-14
 -1      1091 1.79632E+01 1.10780E+00 1.07870E-03-4.92727E-01 1.85329E-13-1.05518E-13
 -1      1092 1.84037E+01 1.05117E+00-1.23493E-04-3.74048E-01 1.48709E-13-6.78627E-14
 -1      1093 1.87690E+01 9.56989E-01-2.92795E-04-2.89824E-01 6.24789E-14-5.29375E-13
 -1      1094 1.90719E+01 8.45499E-01 1.45147E-03-2.24032E-01-3.03261E-14-5.32271E-13
 -1      1095 1.93057E+01 7.27114E-01 3.60446E-04-1.73530E-01-2.75148E-13-2.06409E-13
 -1      1096 1.89721E+01 8.97140E-01-3.56535E-04 2.43647E-01 8.39628E-15-3.27368E-13
 -1      1097 2.03267E+01 5.87675E-01-4.27223E-04 3.37372E-03 2.06747E-16-3.22456E-14
 -1      1098 2.03228E+01 5.41110E-01-1.38058E-04-8.24904E-02 1.99616E-14-1.32447E-13
 -1      1099 1.66137E+01 1.07500E+00 1.11416E-03-8.86741E-01-1.99047E-13-4.96663E-14
 -1      1100 1.94373E+01 6.53514E-01-4.21645E-05 1.61294E-01 2.05809E-13-4.03150E-13
 -1      1101 1.95905E+01 5.47754E-01-2.01584E-05 1.36962E-01 5.48090E-13 3.10893E-14
 -1      1102 1.81352E+01 1.05882E+00-1.29962E-04-4.02122E-01 2.76728E-14-1.82094E-14
 -1      1103 1.54431E+01 1.17629E+00 1.94526E-03-1.78529E-01-1.14519E-13-1.23532E-13
 -1      1104 1.92416E+01 7.71676E-01 9.39788E-04 1.97533E-01 9.14014E-14-2.53799E-13
 -1      1105 1.86492E+01 1.01296E+00-2.21796E-05 2.99988E-01-8.81519E-14-2.70854E-13
 -1      1106 1.52673E+01 1.05240E+00 3.50154E-03-7.82690E-01-7.52800E-14-1.01606E-13
 -1      1107 1.82444E+01 1.11174E+00-1.21393E-04 3.70708E-01-1.49513E-13-3.84469E-13
 -1      1108 2.03529E+01 7.37171E-01 3.96570E-04-1.37710E-02 5.23822E-14-7.24261E-14
 -1      1109 1.65524E+01 1.06183E+00-7.94413E-04 1.01290E+00-2.32963E-14-8.28381E-14
 -1      1110 2.01994E+01 4.23503E-01-1.38867E-05 6.24337E-02-4.29726E-15 4.66671E-16
 -1      1111 1.68186E+01 1.11579E+00-1.42900E-03-6.49200E-01 6.47092E-14 1.18412E-14
 -1      1112 2.02741E+01 4.84237E-01 9.25664E-05 2.58916E-02 1.38662E-15 1.17308E-14
 -1      1113 1.70868E+01 1.18348E+00 9.53660E-04 5.74945E-01-1.12453E-13-1.60754E-13
 -1      1114 1.59955E+01 1.15831E+00 2.90175E-03 2.50432E-01 1.07209E-13 5.01594E-14
 -1      1115 1.86042E+01 9.58318E-01-2.82679E-04-3.37994E-01-9.72231E-15-1.79669E-15
 -1      1116 1.97259E+01 5.03374E-01 8.03331E-05-3.70463E-01-3.18692E-14-1.25029E-14
 -1      1117 2.02203E+01 4.25307E-01 2.04680E-05-9.45775E-02-9.20984E-15-7.89582E-14
 -1      1118 1.92803E+01 7.42159E-01-8.46571E-04-2.60353E-03 1.17393E-13-1.99991E-13
 -1      1119 1.99003E+01 4.20476E-01 4.29073E-05-3.14372E-01-2.63183E-14-1.66419E-14
 -1      1120 1.89830E+01 8.39684E-01-2.46257E-04-2.87308E-01 2.10117E-14-8.29985E-14
 -1      1121 1.92939E+01 7.14618E-01-3.32480E-04-2.44983E-01-4.50744E-14-1.98589E-14
 -1      1122 2.01019E+01 3.98728E-01-3.32032E-05-1.23680E-01 5.83764E-15-5.54645E-14
 -1      1123 1.69780E+01 1.16536E+00-6.57884E-03 1.98055E-02 8.06967E-14 9.75943E-14
 -1      1124 1.59019E+01 1.16381E+00-5.31084E-03 5.22112E-01 6.30782E-14-6.62604E-14
 -1      1125 1.98145E+01 4.84561E-01 3.07649E-06-5.55855E-02-9.38609E-15-5.63569E-14
 -1      1126 1.95997E+01 5.76980E-01-3.86934E-04-6.27789E-02-4.45470E-14-5.99088E-14
 -1      1127 1.75187E+01 1.20608E+00-4.87431E-03-5.18058E-02-5.01111E-14 1.28693E-13
 -1      1128 1.66670E+01 1.23688E+00 9.10114E-04-1.03485E-01-1.19784E-13 1.40508E-13
 -1      1129 1.99722E+01 4.27229E-01 2.26756E-04-9.84480E-02-1.42586E-14-2.88437E-14
 -1      1130 2.03066E+01 5.28353E-01 7.60070E-05-4.97319E-02 1.55849E-15-5.34519E-14
 -1      1131 2.79083E+01 9.06844E+00 2.31969E+00-6.68677E+00-2.72005E-14 7.60558E-13
 -1      1132 2.05229E+01 6.21973E+00 2.09459E-01-3.89816E+00-1.51545E-14 9.13089E-14
 -1      1133 1.94263E+01 5.85057E+00 7.55709E-02-2.88251E+00-9.43690E-15-1.86646E-13
 -1      1134 1.90298E+01 5.72720E+00 6.08191E-02-2.22908E+00-4.77049E-15-3.20925E-13
 -1      1135 1.88521E+01 5.67308E+00 5.81526E-02-1.69479E+00-2.86923E-15-3.88084E-13
 -1      1136 1.87632E+01 5.64569E+00 5.57129E-02-1.22793E+00-1.83360E-15-4.05901E-13
 -1      1137 1.87175E+01 5.63138E+00 5.37559E-02-7.99527E-01-6.95190E-16-4.02404E-13
 -1      1138 1.86952E+01 5.62427E+00 5.23885E-02-3.90242E-01-2.43729E-16-3.91590E-13
 -1      1139 1.86889E+01 5.62224E+00 5.19483E-02 8.40951E-03 5.64110E-16-3.67535E-13
 -1      1140 1.86963E+01 5.62464E+00 5.25067E-02 4.07477E-01 2.68839E-15-3.58220E-13
 -1      1141 1.87197E+01 5.63213E+00 5.40203E-02 8.18134E-01 3.09822E-15-3.42336E-13
 -1      1142 1.87672E+01 5.64709E+00 5.64037E-02 1.24921E+00 5.40366E-15-3.09626E-13
 -1      1143 1.88570E+01 5.67475E+00 5.87899E-02 1.72063E+00 6.76195E-15-2.53351E-13
 -1      1144 1.90352E+01 5.72883E+00 6.08689E-02 2.26214E+00 8.20871E-15-1.53444E-13
 -1      1145 1.94230E+01 5.84781E+00 6.96598E-02 2.92304E+00 1.07137E-14 2.93550E-14
 -1      1146 2.04292E+01 6.17473E+00 1.53221E-01 3.87296E+00 1.10190E-14 3.78603E-13
 -1      1147 2.51666E+01 7.97790E+00 1.42626E+00 5.83713E+00 1.86517E-14 1.05776E-12
 -1      1148 2.87455E+01 3.60776E+00 1.26677E+00-4.20914E+00-1.00170E-13 1.17339E-12
 -1      1149 2.01769E+01-1.77605E-01-6.15783E-01-1.09857E-01-3.90313E-14 9.44772E-13
 -1      1150 1.87878E+01-9.65348E-02-2.36270E-01 6.22599E-02-1.44832E-14 6.30331E-13
 -1      1151 1.84592E+01-4.84489E-02-5.98767E-02 4.02004E-02-1.17931E-14 4.09756E-13
 -1      1152 1.84120E+01-2.52857E-02-1.58292E-02 2.64232E-02-8.60249E-15 2.36026E-13
 -1      1153 1.85065E+01-1.40772E-02-6.03495E-03 1.86780E-02-1.60072E-14 1.64008E-13
 -1      1154 1.86739E+01-8.06719E-03-3.05290E-03 1.37636E-02-8.94955E-15 8.40474E-14
 -1      1155 1.88785E+01-4.84503E-03-1.67196E-03 1.04307E-02-3.99003E-15 3.39190E-14
 -1      1156 1.91024E+01-3.28653E-03-1.18422E-03 8.08874E-03-7.01479E-17 3.69210E-14
 -1      1157 1.93387E+01-2.80574E-03-1.46777E-03 6.47335E-03-5.51780E-15-6.99779E-14
 -1      1158 1.95880E+01-3.05989E-03-2.40079E-03 5.47739E-03-3.20382E-16-1.99857E-13
 -1      1159 1.98561E+01-3.81504E-03-3.83901E-03 5.07537E-03 2.54948E-14-7.93749E-14
 -1      1160 2.01524E+01-4.87171E-03-5.61766E-03 5.28847E-03-1.56575E-14-2.42529E-13
 -1      1161 2.04890E+01-6.01028E-03-7.51720E-03 6.16357E-03 6.91374E-15-1.97377E-13
 -1      1162 2.08788E+01-6.93777E-03-9.19694E-03 7.74828E-03-6.00117E-15-1.88661E-13
 -1      1163 2.13328E+01-7.22860E-03-1.00973E-02 1.00454E-02-2.35329E-14-2.42643E-13
 -1      1164 2.18566E+01-6.26353E-03-9.31573E-03 1.29251E-02-1.18208E-14-5.47310E-13
 -1      1165 2.24439E+01-3.19410E-03-5.49532E-03 1.59675E-02 1.37287E-16-6.30277E-13
 -1      1166 2.30674E+01 2.99853E-03 3.15015E-03 1.82171E-02 5.69575E-15-6.36685E-13
 -1      1167 2.36671E+01 1.32070E-02 1.83938E-02 1.78792E-02 1.37841E-14-5.01207E-13
 -1      1168 2.41383E+01 2.74566E-02 4.06962E-02 1.21560E-02-2.93732E-14-5.50098E-13
 -1      1169 2.43290E+01 4.35546E-02 6.67601E-02-2.27283E-03 1.62067E-14-5.18448E-13
 -1      1170 2.40611E+01 5.55840E-02 8.67263E-02-2.73760E-02 2.66774E-14-1.99424E-13
 -1      1171 2.31972E+01 5.37077E-02 8.40243E-02-6.02164E-02-1.36358E-14-2.89595E-13
 -1      1172 2.17543E+01 2.81758E-02 4.28260E-02-8.93118E-02-2.12063E-14-8.43769E-14
 -1      1173 2.00144E+01-2.09301E-02-3.54666E-02-9.61816E-02-7.89516E-15 1.74707E-13
 -1      1174 1.85189E+01-7.43975E-02-1.19504E-01-6.67586E-02 4.27523E-14 1.85907E-13
 -1      1175 1.78520E+01-1.01101E-01-1.61057E-01-6.79484E-03 1.48145E-15-7.19737E-14
 -1      1176 1.83029E+01-8.29080E-02-1.32728E-01 5.64380E-02 1.78243E-15 1.30382E-13
 -1      1177 1.96742E+01-3.22813E-02-5.33850E-02 9.32558E-02-1.61572E-14-1.20598E-14
 -1      1178 2.14150E+01 1.96753E-02 2.93138E-02 9.30129E-02-2.56089E-15-1.68282E-13
 -1      1179 2.29519E+01 5.04967E-02 7.88903E-02 6.68521E-02-1.10589E-16-4.13808E-13
 -1      1180 2.39446E+01 5.64449E-02 8.83371E-02 3.35508E-02-2.90393E-15-3.56770E-13
 -1      1181 2.43299E+01 4.62280E-02 7.13251E-02 6.41283E-03-2.11901E-14-2.27018E-13
 -1      1182 2.42254E+01 3.02014E-02 4.52887E-02-1.00524E-02 2.58370E-14-2.20423E-13
 -1      1183 2.38093E+01 1.51808E-02 2.16291E-02-1.71837E-02 4.07792E-14-1.11158E-13
 -1      1184 2.32428E+01 3.96825E-03 4.73897E-03-1.82466E-02-1.72734E-14-9.92435E-14
 -1      1185 2.26418E+01-3.14306E-03-5.33435E-03-1.62008E-02-2.61657E-14-8.51368E-14
 -1      1186 2.20761E+01-6.94600E-03-1.02394E-02-1.30216E-02 1.02454E-14 1.19186E-13
 -1      1187 2.15803E+01-8.46046E-03-1.18101E-02-9.79057E-03 6.14580E-15-1.60512E-13
 -1      1188 2.11663E+01-8.56567E-03-1.14904E-02-6.99099E-03-3.72324E-14-5.59865E-13
 -1      1189 2.08324E+01-7.90482E-03-1.02525E-02-4.76897E-03-8.17045E-14-4.52066E-13
 -1      1190 2.05707E+01-6.90641E-03-8.69385E-03-3.10550E-03 2.26175E-14-4.39683E-13
 -1      1191 2.03706E+01-5.83856E-03-7.16292E-03-1.91118E-03-1.32896E-15-2.09809E-13
 -1      1192 2.02215E+01-4.86011E-03-5.86268E-03-1.06939E-03 4.24397E-14 1.67437E-13
 -1      1193 2.01142E+01-4.05641E-03-4.91533E-03-4.45097E-04-2.39894E-14 3.02066E-13
 -1      1194 2.00418E+01-3.45124E-03-4.34550E-03 1.31143E-04-2.83673E-14 2.21878E-14
 -1      1195 2.00001E+01-2.92353E-03-3.86316E-03 8.92265E-04 3.57947E-14-1.78464E-13
 -1      1196 1.99876E+01-2.59652E-03-2.04522E-03 2.26315E-03 1.53778E-14 4.35755E-13
 -1      1197 1.99955E+01 1.59992E-03 3.72729E-03 1.47260E-03 5.40630E-14 4.26691E-13
 -1      1198 2.77276E+01 5.24643E-01 3.74929E-01 1.96349E+00-2.31343E-14 1.61099E-12
 -1      1199 2.00345E+01-6.62771E-02-5.73158E-01 1.29451E-01 5.90847E-15 1.37326E-12
 -1      1200 1.88622E+01-4.07839E-02-1.93149E-01 1.96469E-02 4.16941E-15 1.12874E-12
 -1      1201 1.84878E+01-2.17722E-02-5.08057E-02 1.87609E-03 1.19835E-14 9.22991E-13
 -1      1202 1.84242E+01-1.29862E-02-1.39649E-02-3.46458E-03-2.37397E-15 7.76448E-13
 -1      1203 1.85123E+01-8.27878E-03-5.59752E-03-4.69973E-03 2.84755E-15 6.08822E-13
 -1      1204 1.86764E+01-5.59124E-03-3.36142E-03-4.63817E-03 6.93933E-15 5.55472E-13
 -1      1205 1.88792E+01-4.12471E-03-2.42423E-03-4.07578E-03-5.93736E-15 5.70108E-13
 -1      1206 1.91021E+01-3.49692E-03-2.15133E-03-3.26892E-03-3.47416E-15 4.51101E-13
 -1      1207 1.93382E+01-3.49779E-03-2.52556E-03-2.34651E-03 8.58550E-15 3.36205E-13
 -1      1208 1.95882E+01-3.99588E-03-3.52290E-03-1.40491E-03 1.61886E-14 1.15666E-13
 -1      1209 1.98585E+01-4.89156E-03-5.08333E-03-5.38566E-04-6.68416E-15 8.00514E-14
 -1      1210 2.01597E+01-6.08088E-03-7.12250E-03 1.38845E-04 5.36951E-16 1.79117E-13
 -1      1211 2.05057E+01-7.41399E-03-9.50341E-03 4.71030E-04-2.69869E-15 2.24692E-13
 -1      1212 2.09121E+01-8.63747E-03-1.19645E-02 2.31464E-04 7.32281E-15 7.80313E-14
 -1      1213 2.13944E+01-9.31374E-03-1.39954E-02-9.04006E-04 1.36564E-14-1.12448E-13
 -1      1214 2.19641E+01-8.72076E-03-1.46500E-02-3.36752E-03-1.68661E-14-1.69259E-13
 -1      1215 2.26228E+01-5.76695E-03-1.23123E-02-7.64828E-03 2.95315E-15-2.90837E-13
 -1      1216 2.33512E+01 9.66702E-04-4.54139E-03-1.40869E-02 1.37992E-14-5.10047E-13
 -1      1217 2.40949E+01 1.28095E-02 1.16414E-02-2.23654E-02-3.25213E-14-2.47070E-13
 -1      1218 2.47455E+01 2.98361E-02 3.83056E-02-3.05772E-02-1.98821E-15 6.47954E-14
 -1      1219 2.51279E+01 4.88165E-02 7.32642E-02-3.41214E-02 1.60982E-15 3.41771E-14
 -1      1220 2.50129E+01 6.11382E-02 1.05275E-01-2.55535E-02-1.37841E-14-1.85820E-13
 -1      1221 2.41879E+01 5.38164E-02 1.11967E-01 2.25814E-03 6.14959E-15-4.40016E-13
 -1      1222 2.26061E+01 1.82058E-02 6.90588E-02 4.79649E-02 3.13300E-14-5.31131E-13
 -1      1223 2.05637E+01-3.62189E-02-2.55446E-02 9.34668E-02 1.35326E-14-1.94234E-13
 -1      1224 1.87369E+01-7.93841E-02-1.31462E-01 1.08801E-01-1.44936E-14-2.41612E-13
 -1      1225 1.79066E+01-8.33940E-02-1.84433E-01 7.53143E-02-4.99514E-15-2.95836E-13
 -1      1226 1.84699E+01-4.93910E-02-1.50061E-01 7.20339E-03-1.36991E-14-1.61697E-13
 -1      1227 2.01522E+01-4.66607E-03-5.64074E-02-5.75032E-02-1.51094E-15-9.60620E-14
 -1      1228 2.22104E+01 2.60601E-02 3.53811E-02-8.85669E-02 3.87656E-14-1.88446E-13
 -1      1229 2.39190E+01 3.62199E-02 8.41096E-02-8.29629E-02 2.69333E-14-3.99389E-13
 -1      1230 2.49034E+01 3.22493E-02 8.78345E-02-5.68696E-02-4.48096E-14-6.06321E-14
 -1      1231 2.51550E+01 2.25470E-02 6.61706E-02-2.80004E-02-2.48972E-14 1.48637E-13
 -1      1232 2.48661E+01 1.27034E-02 3.86347E-02-5.88130E-03 1.28773E-14-7.17273E-14
 -1      1233 2.42695E+01 5.06107E-03 1.60500E-02 7.38391E-03-5.71818E-14 3.78343E-14
 -1      1234 2.35539E+01 2.87561E-05 1.32970E-03 1.34774E-02 8.37516E-14-3.03112E-13
 -1      1235 2.28418E+01-2.84160E-03-6.59694E-03 1.49688E-02 4.15629E-15-4.25698E-13
 -1      1236 2.21991E+01-4.18959E-03-9.90484E-03 1.40007E-02-1.53165E-14-1.35151E-13
 -1      1237 2.16528E+01-4.57597E-03-1.05207E-02 1.19842E-02-4.15874E-14-1.28293E-13
 -1      1238 2.12071E+01-4.41395E-03-9.77200E-03 9.72070E-03-3.44793E-14-2.72352E-14
 -1      1239 2.08542E+01-3.98185E-03-8.46124E-03 7.60903E-03 5.04262E-15-3.64101E-14
 -1      1240 2.05816E+01-3.45919E-03-7.03700E-03 5.81541E-03-2.59619E-14-1.06876E-13
 -1      1241 2.03754E+01-2.96052E-03-5.74233E-03 4.38191E-03-1.04259E-14-3.47134E-13
 -1      1242 2.02232E+01-2.55081E-03-4.70991E-03 3.28544E-03 5.04050E-14-5.05907E-13
 -1      1243 2.01145E+01-2.27545E-03-4.03237E-03 2.46850E-03 4.97312E-14-1.11502E-12
 -1      1244 2.00416E+01-2.14463E-03-3.74433E-03 1.82216E-03 5.01343E-14-1.46782E-12
 -1      1245 1.99998E+01-1.95734E-03-3.48074E-03 1.05071E-03 3.63587E-14-1.49127E-12
 -1      1246 1.99873E+01-8.27744E-04-1.60574E-03-4.40211E-04 5.72756E-14-1.44415E-12
 -1      1247 1.99960E+01 1.35961E-03 3.82945E-03-1.37550E-03-1.71411E-14-7.46774E-13
 -1      1248 2.00010E+01-4.10906E-03 3.49380E-03-1.43772E-03-8.76789E-13-1.45839E-13
 -1      1249 1.99980E+01-1.17980E-02-2.17814E-03-1.92069E-03-1.13367E-12-9.91632E-14
 -1      1250 1.99977E+01 3.46042E-03-3.43552E-03 1.34735E-05-4.57422E-13-4.12723E-14
 -1      1251 1.99984E+01 4.37858E-02-2.35868E-03 1.22780E-03-6.52113E-13-1.23644E-13
 -1      1252 1.99996E+01 9.95108E-02-5.96900E-04 1.78028E-03-5.27945E-13-2.30592E-13
 -1      1253 2.00008E+01 1.58236E-01 1.10912E-03 1.79469E-03-9.93956E-13 1.97291E-14
 -1      1254 2.00017E+01 2.09275E-01 2.46475E-03 1.43687E-03-2.90441E-13-5.32571E-14
 -1      1255 2.00024E+01 2.43997E-01 3.34164E-03 7.83225E-04 1.38994E-13-6.88197E-16
 -1      1256 2.00026E+01 2.56027E-01 3.63169E-03-5.55480E-06 6.73685E-14 6.76439E-14
 -1      1257 2.00023E+01 2.43422E-01 3.31316E-03-7.90822E-04 1.77932E-13 1.16350E-13
 -1      1258 2.00017E+01 2.08322E-01 2.41683E-03-1.43186E-03 1.97060E-13-1.94357E-13
 -1      1259 2.00008E+01 1.57192E-01 1.06342E-03-1.80061E-03-4.44374E-13 9.75002E-14
 -1      1260 1.99996E+01 9.87128E-02-6.16044E-04-1.76019E-03-2.81615E-13 1.88685E-15
 -1      1261 1.99984E+01 4.33808E-02-2.36152E-03-1.22918E-03-7.01892E-13 1.29907E-14
 -1      1262 1.99979E+01 2.83653E-03-3.52036E-03-5.65040E-05-7.21493E-13-5.47048E-14
 -1      1263 1.99977E+01-1.02057E-02-1.71165E-03 3.12866E-03-5.90444E-13-1.77292E-13
 -1      1264 2.00011E+01-4.69418E-03 3.37419E-03 1.72138E-03-3.25221E-13 8.22812E-14
 -1      1265-1.27711E+00-2.35809E+01-3.72295E+00-2.19969E+00 3.14471E-13 1.49894E-13
 -1      1266-1.82020E+00-1.50123E+01-3.09843E+00-4.04121E+00 1.28986E-12 3.83860E-13
 -1      1267 6.44381E-01-1.99820E+00-1.80625E+00 2.80486E-01 1.45262E-12 9.99756E-13
 -1      1268 9.95822E+00 7.92667E+00-1.99535E-01 8.75027E+00 1.02207E-12 8.83515E-13
 -1      1269 2.72913E+01 1.07593E+01 1.50774E+00 1.62648E+01 6.00853E-13 9.60565E-13
 -1      1270 4.77941E+01 7.63038E+00 3.04425E+00 1.74125E+01 4.61742E-13 1.29452E-12
 -1      1271 6.27588E+01 3.04367E+00 3.97016E+00 1.00026E+01 2.48468E-13 1.31284E-12
 -1      1272 6.69104E+01 1.74875E+00 4.25409E+00-2.37473E+00-7.77156E-15 6.78818E-13
 -1      1273 5.81386E+01 4.69307E+00 3.72296E+00-1.34906E+01-1.66256E-14 1.72196E-13
 -1      1274 4.03283E+01 9.32041E+00 2.53286E+00-1.80693E+01 2.39364E-13-3.88134E-13
 -1      1275 2.09693E+01 1.08103E+01 9.41101E-01-1.45748E+01 8.90399E-13-1.07403E-12
 -1      1276 6.42114E+00 5.80746E+00-6.81074E-01-6.16351E+00 1.06870E-12-9.56790E-13
 -1      1277-6.14890E-01-5.17157E+00-2.13720E+00 1.59214E+00 1.15707E-12-6.34270E-13
 -1      1278-1.65346E+00-1.75218E+01-3.21974E+00 4.14654E+00 6.23612E-13-2.33508E-13
 -1      1279-9.48573E-01-2.46253E+01-3.76364E+00 1.34420E+00 1.45856E-13-1.72605E-14
 -1      1280-1.28346E+00-2.24502E+01-3.59103E+00-2.81714E+00 1.63203E-14 5.70377E-15
 -1      1281-1.75088E+00-1.29564E+01-2.89620E+00-3.79619E+00-4.22773E-13-1.03806E-13
 -1      1282 1.16918E+00-3.86037E-01-1.60053E+00 9.78901E-01-4.52305E-13-3.78031E-13
 -1      1283 1.11391E+01 8.78270E+00-5.44557E-03 9.63671E+00-6.04850E-13-6.18394E-13
 -1      1284 2.93922E+01 1.08341E+01 1.77976E+00 1.67256E+01-5.56111E-13-8.94618E-13
 -1      1285 5.09041E+01 6.90033E+00 3.30123E+00 1.61097E+01-3.39451E-13-8.32667E-13
 -1      1286 6.48728E+01 2.48674E+00 4.16143E+00 6.67794E+00-6.49411E-14-3.82139E-13
 -1      1287 6.50163E+01 2.12789E+00 4.10353E+00-6.72247E+00-3.19154E-14 1.21403E-13
 -1      1288 5.09687E+01 6.85341E+00 3.25126E+00-1.60801E+01 5.35683E-14-6.01741E-14
 -1      1289 3.04172E+01 1.07453E+01 1.84351E+00-1.70255E+01-4.35207E-14 9.05942E-14
 -1      1290 1.17131E+01 8.95061E+00 2.98755E-02-1.00309E+01-7.81153E-13 7.30305E-13
 -1      1291 1.28791E+00-2.35173E-01-1.57065E+00-1.13036E+00-1.37890E-12 9.16600E-13
 -1      1292-1.65821E+00-1.35102E+01-2.90419E+00 3.83848E+00-1.21303E-12 5.59608E-13
 -1      1293-1.17252E+00-2.33637E+01-3.68730E+00 2.24668E+00-4.75842E-13 1.63591E-13
 -1      1294 2.22222E+01 1.83604E+00-7.24679E-01-2.78632E+00-3.97460E-14 6.04850E-13
 -1      1295 2.03402E+01 4.68563E+00-4.83905E-02-3.30043E+00-1.01016E-13-4.29101E-14
 -1      1296 2.08387E+01 4.80351E+00-1.13239E-01-4.15365E+00-1.31894E-13 1.06762E-13
 -1      1297 1.95269E+01 4.99228E+00-1.94652E-02-2.64742E+00-9.57567E-14-2.47077E-13
 -1      1298 1.98183E+01 5.08666E+00 2.33863E-04-3.03841E+00-1.12528E-13-1.60323E-13
 -1      1299 2.05106E+01 3.94943E+00-2.58772E-02-3.06626E+00-1.78288E-13-3.76782E-14
 -1      1300 1.91914E+01 5.08566E+00-3.25749E-03-2.06306E+00-6.82145E-14-3.48763E-13
 -1      1301 1.93348E+01 5.13942E+00 1.07580E-02-2.35659E+00-8.11989E-14-3.00066E-13
 -1      1302 1.97537E+01 4.36677E+00-2.36904E-02-2.48153E+00-1.47030E-13-1.98286E-13
 -1      1303 1.90225E+01 5.13537E+00 3.50829E-03-1.55679E+00-4.93858E-14-3.98891E-13
 -1      1304 1.90975E+01 5.16415E+00 1.30267E-02-1.80662E+00-5.31016E-14-3.79023E-13
 -1      1305 1.94013E+01 4.55837E+00-1.93131E-02-1.92214E+00-1.01276E-13-2.90049E-13
 -1      1306 1.89331E+01 5.16736E+00 6.53186E-03-1.11019E+00-2.87053E-14-4.07027E-13
 -1      1307 1.89736E+01 5.18319E+00 1.29309E-02-1.33103E+00-3.68551E-14-4.03873E-13
 -1      1308 1.92198E+01 4.66827E+00-1.58575E-02-1.43595E+00-7.26238E-14-3.25202E-13
 -1      1309 1.88841E+01 5.18889E+00 8.11829E-03-6.88881E-01-1.07835E-14-4.00593E-13
 -1      1310 1.89060E+01 5.19747E+00 1.20907E-02-8.98017E-01-1.54317E-14-4.06611E-13
 -1      1311 1.91204E+01 4.73667E+00-1.37951E-02-9.96981E-01-3.83786E-14-3.38701E-13
 -1      1312 1.88612E+01 5.20188E+00 9.21276E-03-2.86921E-01 8.93274E-15-3.88679E-13
 -1      1313 1.88707E+01 5.20560E+00 1.10824E-02-4.87625E-01 4.10739E-15-3.94084E-13
 -1      1314 1.90664E+01 4.77786E+00-1.27090E-02-5.83965E-01-1.00971E-14-3.23408E-13
 -1      1315 1.88578E+01 5.20716E+00 1.01787E-02 1.07382E-01 2.68975E-14-3.71279E-13
 -1      1316 1.88574E+01 5.20702E+00 1.01055E-02-9.07578E-02 1.96354E-14-3.82415E-13
 -1      1317 1.90429E+01 4.79704E+00-1.22524E-02-1.87455E-01 2.76986E-14-3.19030E-13
 -1      1318 1.88725E+01 5.20524E+00 1.11782E-02 5.04847E-01 5.24030E-14-3.51824E-13
 -1      1319 1.88623E+01 5.20124E+00 9.14896E-03 3.03714E-01 4.41275E-14-3.58782E-13
 -1      1320 1.90438E+01 4.79640E+00-1.22698E-02 2.03988E-01 5.50754E-14-3.02723E-13
 -1      1321 1.89094E+01 5.19630E+00 1.21867E-02 9.16750E-01 6.88963E-14-3.41850E-13
 -1      1322 1.88866E+01 5.18756E+00 8.06076E-03 7.06636E-01 6.50066E-14-3.50895E-13
 -1      1323 1.90691E+01 4.77577E+00-1.27634E-02 6.01199E-01 1.00081E-13-2.88040E-13
 -1      1324 1.89781E+01 5.18132E+00 1.30639E-02 1.34855E+00 8.74118E-14-3.01644E-13
 -1      1325 1.89367E+01 5.16511E+00 6.41378E-03 1.12625E+00 7.46378E-14-3.23843E-13
 -1      1326 1.91249E+01 4.73310E+00-1.37958E-02 1.01206E+00 1.17591E-13-2.71887E-13
 -1      1327 1.91052E+01 5.16012E+00 1.30477E-02 1.83277E+00 1.13881E-13-2.40266E-13
 -1      1328 1.90288E+01 5.13069E+00 3.18041E-03 1.58010E+00 9.89651E-14-2.75604E-13
 -1      1329 1.92269E+01 4.66167E+00-1.59580E-02 1.45371E+00 1.54394E-13-2.25701E-13
 -1      1330 1.93451E+01 5.13350E+00 1.04120E-02 2.39026E+00 1.32436E-13-1.36571E-13
 -1      1331 1.91998E+01 5.07782E+00-4.24155E-03 2.09279E+00 1.18700E-13-2.04354E-13
 -1      1332 1.94135E+01 4.54564E+00-1.98111E-02 1.94894E+00 1.89512E-13-1.69295E-13
 -1      1333 1.98439E+01 5.09567E+00 6.24393E-03 3.07701E+00 1.43927E-13 6.82371E-14
 -1      1334 1.95389E+01 4.98275E+00-2.02884E-02 2.68948E+00 1.28758E-13-5.29646E-14
 -1      1335 1.97732E+01 4.34600E+00-2.44032E-02 2.51917E+00 2.09478E-13-4.45755E-14
 -1      1336 2.10739E+01 4.89987E+00 8.28644E-03 4.04678E+00 1.10634E-13 4.35763E-13
 -1      1337 2.03145E+01 4.72925E+00-4.76411E-02 3.40986E+00 1.12077E-13 2.09152E-13
 -1      1338 2.05487E+01 3.91263E+00-2.22892E-02 3.17021E+00 2.08014E-13 1.83686E-13
 -1      1339 2.71458E+01 3.19891E+00 9.26115E-01 4.57399E+00 4.31877E-14 1.10018E-12
 -1      1340 2.19824E+01 3.51739E+00-1.81509E-01 3.87855E+00 4.98490E-14 6.46205E-13
 -1      1341 2.20790E+01 2.55849E+00-3.26208E-02 3.44932E+00 1.72386E-13 5.18474E-13
 -1      1342 2.13803E+01 3.59356E-01-7.62561E-01 1.18171E+00 8.21218E-14 1.08219E-12
 -1      1343 2.19563E+01 1.31257E-01-4.00446E-01-1.28269E+00-1.01405E-13 6.38350E-13
 -1      1344 2.06368E+01 3.06445E-01-1.64537E-01-8.03440E-01-9.27175E-14 5.26634E-13
 -1      1345 2.00419E+01 1.53548E-01-7.33704E-02-3.99814E-01-8.04981E-14 4.66879E-13
 -1      1346 1.95749E+01 9.14304E-02-1.47777E-02-3.27600E-01-8.02726E-14 3.53918E-13
 -1      1347 2.09403E+01 3.69058E-01-1.04107E-01-1.26907E+00-1.69954E-13 2.61017E-13
 -1      1348 1.92212E+01 6.48313E-02 3.15419E-03-1.32350E-01-6.96943E-14 3.20396E-13
 -1      1349 1.90704E+01 4.17754E-02 1.33587E-02-1.14353E-01-6.03198E-14 2.24668E-13
 -1      1350 1.98960E+01 1.34197E-01-3.52217E-02-4.98385E-01-1.35218E-13 1.87834E-13
 -1      1351 1.89152E+01 3.21753E-02 1.33592E-02-2.35025E-02-3.98882E-14 1.77539E-13
 -1      1352 1.89012E+01 2.02665E-02 1.12102E-02-1.37565E-02-4.98937E-14 1.16169E-13
 -1      1353 1.94275E+01 5.62898E-02-8.69558E-03-1.62057E-01-9.89001E-14 1.11286E-13
 -1      1354 1.88528E+01 1.70725E-02 8.90546E-03 3.21158E-02-3.49792E-14 9.14060E-14
 -1      1355 1.89038E+01 1.04155E-02 6.61991E-03 3.73343E-02-2.76897E-14 6.64243E-14
 -1      1356 1.92313E+01 2.58571E-02-3.82343E-03 1.08672E-03-6.86144E-14 3.79965E-14
 -1      1357 1.89152E+01 9.43602E-03 4.82474E-03 6.18338E-02-2.19865E-14 7.45168E-14
 -1      1358 1.89991E+01 5.41803E-03 3.88131E-03 6.45912E-02-2.61737E-14 3.58984E-14
 -1      1359 1.91933E+01 1.24470E-02-2.67754E-03 8.64925E-02-4.75613E-14 3.28596E-14
 -1      1360 1.90452E+01 5.42806E-03 2.62154E-03 7.81175E-02-1.53913E-15 4.77179E-14
 -1      1361 1.91462E+01 2.96628E-03 2.51100E-03 7.96058E-02-3.80653E-15 3.12103E-14
 -1      1362 1.92471E+01 6.01993E-03-1.96116E-03 1.33053E-01-1.92062E-14 3.65062E-14
 -1      1363 1.92136E+01 3.51598E-03 1.52869E-03 8.77695E-02-2.17360E-14 3.47743E-14
 -1      1364 1.93245E+01 2.06229E-03 1.80248E-03 8.87532E-02-1.29788E-14 5.83604E-15
 -1      1365 1.93559E+01 3.19881E-03-1.42146E-03 1.59833E-01-2.07185E-14 1.16179E-14
 -1      1366 1.94064E+01 2.96091E-03 9.46990E-04 9.50024E-02-1.94481E-14 1.31414E-14
 -1      1367 1.95249E+01 2.19363E-03 1.39549E-03 9.60177E-02-5.01966E-14-3.63984E-14
 -1      1368 1.95003E+01 2.56612E-03-1.13872E-03 1.77702E-01-3.93223E-14 1.53974E-14
 -1      1369 1.96187E+01 3.35329E-03 5.90560E-04 1.02669E-01-3.77828E-14-6.29436E-14
 -1      1370 1.97459E+01 3.04941E-03 1.13533E-03 1.04111E-01 8.55219E-16-1.11400E-13
 -1      1371 1.96710E+01 3.41681E-03-1.11713E-03 1.93615E-01-6.10596E-14 3.57473E-14
 -1      1372 1.98518E+01 4.42602E-03 3.29903E-04 1.12784E-01 1.03325E-14-1.21041E-13
 -1      1373 1.99912E+01 4.39840E-03 9.46184E-04 1.14942E-01-2.28472E-14-1.33355E-13
 -1      1374 1.98656E+01 5.32488E-03-1.31077E-03 2.12331E-01-2.21043E-14-7.22646E-14
 -1      1375 2.01113E+01 5.96048E-03 9.46335E-05 1.26721E-01-4.28334E-14-1.49580E-13
 -1      1376 2.02679E+01 6.01797E-03 7.75860E-04 1.29787E-01-1.60954E-14-1.79788E-13
 -1      1377 2.00862E+01 7.95828E-03-1.66121E-03 2.37129E-01-4.98810E-14-1.69822E-13
 -1      1378 2.04052E+01 7.71873E-03-1.64346E-04 1.45216E-01 2.73572E-14-1.66394E-13
 -1      1379 2.05847E+01 7.63154E-03 5.77262E-04 1.49267E-01 9.75131E-16-1.63236E-13
 -1      1380 2.03378E+01 1.09627E-02-2.10454E-03 2.69997E-01-6.12628E-15-1.07077E-13
 -1      1381 2.07426E+01 9.37350E-03-4.83736E-04 1.68192E-01-1.33884E-14-1.76499E-13
 -1      1382 2.09506E+01 8.83693E-03 3.06332E-04 1.73129E-01-2.76943E-14-1.60334E-13
 -1      1383 2.06266E+01 1.38475E-02-2.56175E-03 3.11446E-01-3.35996E-14-1.62821E-13
 -1      1384 2.11317E+01 1.04219E-02-8.80274E-04 1.94364E-01-7.33399E-14-2.13015E-13
 -1      1385 2.13716E+01 9.01903E-03-6.70105E-05 1.99811E-01-8.38815E-14-2.86772E-13
 -1      1386 2.09587E+01 1.58451E-02-2.92037E-03 3.59938E-01-8.05775E-14-2.11046E-13
 -1      1387 2.15765E+01 1.00806E-02-1.32633E-03 2.20602E-01-8.43649E-14-3.24981E-13
 -1      1388 2.18476E+01 7.25733E-03-5.30342E-04 2.25735E-01-8.71575E-14-4.27193E-13
 -1      1389 2.13372E+01 1.57349E-02-3.00871E-03 4.10862E-01-1.53393E-13-2.29342E-13
 -1      1390 2.20723E+01 7.18415E-03-1.70466E-03 2.41023E-01 6.86842E-16-4.82418E-13
 -1      1391 2.23657E+01 2.27586E-03-9.77869E-04 2.44346E-01-4.07562E-15-4.81198E-13
 -1      1392 2.17595E+01 1.16641E-02-2.56451E-03 4.55022E-01-6.74454E-14-2.74590E-13
 -1      1393 2.25999E+01 1.68675E-04-1.74643E-03 2.45994E-01 2.06367E-15-4.64098E-13
 -1      1394 2.28938E+01-7.43849E-03-1.14929E-03 2.45099E-01 6.55997E-15-4.42741E-13
 -1      1395 2.22124E+01 1.08970E-03-1.20927E-03 4.76839E-01 8.47196E-16-3.24922E-13
 -1      1396 2.31172E+01-1.26702E-02-9.93838E-04 2.21594E-01 2.36920E-14-4.64229E-13
 -1      1397 2.33717E+01-2.31006E-02-6.09541E-04 2.13072E-01-2.73742E-14-4.55955E-13
 -1      1398 2.26673E+01-1.88527E-02 1.53481E-03 4.52990E-01 2.06497E-15-3.61061E-13
 -1      1399 2.35522E+01-3.22888E-02 1.11416E-03 1.50837E-01-6.32177E-14-4.89622E-13
 -1      1400 2.37064E+01-4.43089E-02 1.11746E-03 1.30768E-01-4.24825E-14-5.20143E-13
 -1      1401 2.30744E+01-4.99853E-02 6.10121E-03 3.53398E-01-5.65164E-14-3.98041E-13
 -1      1402 2.38003E+01-5.69622E-02 4.86818E-03 1.89929E-02 3.85299E-14-4.57992E-13
 -1      1403 2.37775E+01-6.68045E-02 4.11960E-03-1.53122E-02 9.79538E-14-3.89187E-13
 -1      1404 2.33605E+01-9.00294E-02 1.24896E-02 1.48105E-01 9.10123E-15-4.39619E-13
 -1      1405 2.37363E+01-7.95685E-02 9.56868E-03-1.74700E-01 7.16354E-14-3.53648E-13
 -1      1406 2.34652E+01-8.03022E-02 7.38538E-03-2.21212E-01 2.74676E-14-2.90254E-13
 -1      1407 2.34346E+01-1.28277E-01 1.95055E-02-1.75479E-01 1.11619E-13-3.54946E-13
 -1      1408 2.32529E+01-8.60363E-02 1.27730E-02-4.00060E-01 3.91466E-14-2.11262E-13
 -1      1409 2.27089E+01-6.93188E-02 8.37248E-03-4.47677E-01 4.14634E-14-2.27880E-13
 -1      1410 2.32098E+01-1.42713E-01 2.39550E-02-5.84304E-01 6.82544E-14-2.44355E-13
 -1      1411 2.23307E+01-5.92314E-02 1.07797E-02-5.83797E-01 8.64044E-14-1.03063E-13
 -1      1412 2.15863E+01-2.14587E-02 3.95870E-03-6.11004E-01 1.13532E-13 4.94396E-14
 -1      1413 2.26481E+01-1.05761E-01 2.06773E-02-9.72110E-01 1.70844E-13-2.51518E-14
 -1      1414 2.11182E+01 6.96299E-03 1.41387E-03-6.24006E-01 3.47430E-14 4.72955E-14
 -1      1415 2.03654E+01 5.63821E-02-6.32267E-03-6.07590E-01 1.91843E-14 1.43927E-13
 -1      1416 2.18210E+01-4.80560E-03 5.40988E-03-1.16454E+00 1.08467E-13 1.96908E-14
 -1      1417 1.99566E+01 9.10740E-02-1.18385E-02-4.48326E-01-1.56195E-14 7.39825E-14
 -1      1418 1.94549E+01 1.28965E-01-1.74524E-02-3.82223E-01-7.78891E-16 2.75474E-15
 -1      1419 2.09494E+01 1.32223E-01-1.90575E-02-9.96035E-01-9.11944E-15 1.84696E-14
 -1      1420 1.92711E+01 1.46968E-01-2.07376E-02-8.72322E-02-1.07241E-14-3.33726E-14
 -1      1421 1.92210E+01 1.50942E-01-2.13074E-02 4.06459E-03-5.15542E-14-5.88175E-14
 -1      1422 2.03539E+01 2.37993E-01-3.96110E-02-4.42960E-01-9.30037E-14-9.07894E-14
 -1      1423 1.93457E+01 1.38603E-01-1.89834E-02 3.13406E-01 5.08101E-14-7.42878E-14
 -1      1424 1.97684E+01 1.06181E-01-1.41865E-02 3.87473E-01 3.19605E-14-3.15165E-14
 -1      1425 2.02943E+01 2.49142E-01-4.17722E-02 2.99617E-01-1.59421E-15-1.61298E-13
 -1      1426 2.01446E+01 7.30081E-02-8.64629E-03 5.80329E-01-9.37037E-14 5.00641E-14
 -1      1427 2.08683E+01 2.38267E-02-1.04395E-03 6.07208E-01-9.82591E-14-5.07858E-14
 -1      1428 2.07982E+01 1.58620E-01-2.38771E-02 9.13109E-01-5.15837E-14-1.34857E-13
 -1      1429 2.13390E+01-7.33523E-03 2.29595E-03 6.27316E-01-5.10217E-14-8.20455E-14
 -1      1430 2.21046E+01-4.86670E-02 9.41600E-03 6.07346E-01-8.93274E-14-1.47098E-13
 -1      1431 2.16422E+01 2.17749E-02 9.14552E-04 1.16426E+00-1.62820E-13-8.82905E-14
 -1      1432 2.25109E+01-6.25631E-02 7.94604E-03 4.90168E-01-1.25057E-13-1.60601E-13
 -1      1433 2.31064E+01-8.35162E-02 1.29041E-02 4.44818E-01-6.29228E-14-2.28508E-13
 -1      1434 2.25025E+01-9.00607E-02 1.84789E-02 1.03467E+00-1.47739E-13-1.37793E-13
 -1      1435 2.33564E+01-8.03419E-02 7.86677E-03 2.69131E-01 1.38015E-14-2.61319E-13
 -1      1436 2.36852E+01-8.24426E-02 1.04472E-02 2.21262E-01-2.98451E-14-2.51119E-13
 -1      1437 2.31312E+01-1.39819E-01 2.39439E-02 6.72198E-01-6.33070E-14-6.43218E-14
 -1      1438 2.37616E+01-7.03183E-02 4.81582E-03 5.53911E-02-8.13412E-15-2.05174E-13
 -1      1439 2.38329E+01-6.15708E-02 5.81518E-03 1.84448E-02 2.25410E-14-1.94367E-13
 -1      1440 2.34280E+01-1.33463E-01 2.05895E-02 2.58011E-01 1.70888E-14-1.00008E-13
 -1      1441 2.37664E+01-4.84139E-02 1.64372E-03-1.02566E-01 6.31114E-14-1.81344E-13
 -1      1442 2.36466E+01-3.63510E-02 1.78282E-03-1.25066E-01 7.26303E-14-1.08066E-13
 -1      1443 2.34146E+01-9.76253E-02 1.37343E-02-8.51106E-02 2.44683E-14 3.69743E-14
 -1      1444 2.34854E+01-2.62683E-02-3.49039E-04-1.95113E-01-1.53393E-14-2.00909E-13
 -1      1445 2.32529E+01-1.52869E-02-6.32654E-04-2.05260E-01-6.44797E-15-2.03226E-13
 -1      1446 2.31730E+01-5.64316E-02 7.04756E-03-3.10975E-01 2.48681E-14-1.27903E-13
 -1      1447 2.30430E+01-9.18610E-03-1.09147E-03-2.33552E-01-1.39345E-14-2.20563E-13
 -1      1448 2.27634E+01-9.22385E-04-1.59909E-03-2.35197E-01-1.05194E-14-1.90178E-13
 -1      1449 2.27969E+01-2.28343E-02 2.04928E-03-4.25546E-01-5.00234E-14-4.24703E-13
 -1      1450 2.25398E+01 1.88004E-03-1.03005E-03-2.35216E-01 4.89445E-14-2.06744E-13
 -1      1451 2.22579E+01 7.35765E-03-1.66471E-03-2.31913E-01 2.14679E-14-1.56635E-13
 -1      1452 2.23646E+01-3.65632E-04-1.08655E-03-4.56940E-01 6.74254E-15-3.60087E-13
 -1      1453 2.20436E+01 7.95527E-03-6.27069E-04-2.15696E-01-7.56569E-14 6.28698E-14
 -1      1454 2.17853E+01 1.11987E-02-1.32249E-03-2.10040E-01-2.07462E-15-8.39866E-14
 -1      1455 2.19317E+01 1.22853E-02-2.74482E-03-4.35846E-01 5.90478E-15-2.45127E-13
 -1      1456 2.15932E+01 1.05494E-02-1.81462E-04-1.86342E-01-2.60592E-14-2.18396E-13
 -1      1457 2.13705E+01 1.22176E-02-8.79729E-04-1.79978E-01-2.01049E-13-2.91230E-13
 -1      1458 2.15318E+01 1.79198E-02-3.40793E-03-3.86981E-01-1.16492E-13-2.20562E-13
 -1      1459 2.12060E+01 1.09942E-02 1.70942E-04-1.54381E-01-1.65130E-13-2.57469E-13
 -1      1460 2.10219E+01 1.16474E-02-4.83260E-04-1.48237E-01-1.30547E-13-4.36082E-13
 -1      1461 2.11818E+01 1.91844E-02-3.47311E-03-3.27291E-01-1.82286E-13-1.14313E-13
 -1      1462 2.08860E+01 1.02633E-02 3.97554E-04-1.23894E-01-1.20052E-14-3.47911E-13
 -1      1463 2.07388E+01 1.03164E-02-1.81390E-04-1.18420E-01 2.49793E-14-3.20297E-13
 -1      1464 2.08875E+01 1.80529E-02-3.21752E-03-2.67065E-01-7.70616E-14-1.92495E-13
 -1      1465 2.06296E+01 9.00024E-03 5.13564E-04-9.68414E-02 1.31350E-14-3.26081E-13
 -1      1466 2.05149E+01 8.73841E-03 2.46491E-05-9.21953E-02 6.03080E-14-2.78381E-13
 -1      1467 2.06474E+01 1.58282E-02-2.81819E-03-2.11783E-01 7.22892E-14-1.93442E-13
 -1      1468 2.04293E+01 7.60406E-03 5.46434E-04-7.38578E-02 6.40804E-14-9.89072E-14
 -1      1469 2.03422E+01 7.21539E-03 1.47814E-04-7.00257E-02 1.00333E-13 6.82017E-15
 -1      1470 2.04566E+01 1.33076E-02-2.38273E-03-1.63769E-01 1.80536E-13-7.84844E-14
 -1      1471 2.02768E+01 6.31352E-03 5.16190E-04-5.47899E-02 1.01572E-13-4.36212E-14
 -1      1472 2.02127E+01 5.91735E-03 1.95783E-04-5.16601E-02 1.47802E-14 7.01378E-14
 -1      1473 2.03087E+01 1.09565E-02-1.97579E-03-1.23404E-01 1.64735E-13 2.90313E-14
 -1      1474 2.01642E+01 5.26995E-03 4.24148E-04-3.90317E-02 1.50608E-13 1.41259E-13
 -1      1475 2.01190E+01 4.93565E-03 1.63524E-04-3.64340E-02 1.06704E-13 2.47983E-13
 -1      1476 2.01970E+01 9.04488E-03-1.63720E-03-8.99233E-02 1.79423E-13 1.67106E-13
 -1      1477 2.00847E+01 4.54884E-03 2.54175E-04-2.57354E-02-1.26383E-13 2.69964E-13
 -1      1478 2.00556E+01 4.28172E-03 5.53014E-05-2.34644E-02-1.70296E-13 9.27513E-14
 -1      1479 2.01156E+01 7.73229E-03-1.38625E-03-6.19358E-02-1.11297E-14 2.83596E-13
 -1      1480 2.00330E+01 4.09469E-03 2.28347E-05-1.40868E-02 1.88592E-14 2.05301E-14
 -1      1481 2.00183E+01 3.76928E-03-4.01998E-06-1.19450E-02 1.34525E-13 1.97348E-13
 -1      1482 2.00594E+01 7.01810E-03-1.18031E-03-3.78700E-02-1.00916E-13 3.85697E-13
 -1      1483 2.00051E+01 4.05710E-03 6.04364E-05-3.73203E-03 1.55139E-13 2.47647E-13
 -1      1484 2.00029E+01 2.69986E-03 5.91472E-04-1.65700E-03 3.28428E-14 3.31320E-13
 -1      1485 2.00240E+01 6.46794E-03-8.91494E-04-1.69467E-02 1.97834E-13 2.92706E-13
 -1      1486 1.99974E+01-1.08409E-03 1.51405E-03 2.64571E-03-3.43325E-13 3.46781E-13
 -1      1487 2.00041E+01 1.21564E-03 8.56030E-05-2.10677E-04-1.81491E-13 5.78661E-14
 -1      1488 2.02172E+01 7.54749E-02-1.51897E-01 4.82040E-01 7.71119E-14 9.12350E-13
 -1      1489 2.14843E+01 2.15933E-01-2.29158E-01 7.18779E-01 6.44207E-14 1.02808E-12
 -1      1490 2.16903E+01 8.80643E-01-8.53889E-02 2.05991E+00 1.35295E-13 6.93570E-13
 -1      1491 1.92945E+01 3.25245E-02-2.12868E-02 1.84047E-01 7.41889E-14 7.40706E-13
 -1      1492 1.97126E+01 1.13675E-01-6.25788E-02 2.36072E-01 6.68493E-14 8.41664E-13
 -1      1493 2.02708E+01 1.87635E-01-5.51503E-02 7.82213E-01 1.30090E-13 5.63597E-13
 -1      1494 1.89200E+01 1.54142E-02 5.64783E-03 5.06608E-02 3.24584E-14 5.98271E-13
 -1      1495 1.90553E+01 5.19496E-02 1.05503E-03 7.71347E-02 4.30021E-14 6.63358E-13
 -1      1496 1.95327E+01 7.21916E-02-1.21983E-02 2.94069E-01 1.07308E-13 4.27922E-13
 -1      1497 1.88205E+01 7.63588E-03 6.91068E-03-1.35342E-02 5.19103E-14 4.95853E-13
 -1      1498 1.88300E+01 2.64867E-02 1.11668E-02 1.21010E-03 4.13536E-14 5.65444E-13
 -1      1499 1.92072E+01 3.17910E-02-2.57473E-03 7.60890E-02 8.29146E-14 3.43874E-13
 -1      1500 1.88637E+01 3.98732E-03 4.66562E-03-4.65044E-02 3.63112E-14 3.94396E-13
 -1      1501 1.88116E+01 1.48258E-02 8.61867E-03-3.77937E-02 2.81047E-14 4.44454E-13
 -1      1502 1.91052E+01 1.45097E-02-1.81542E-03-3.31317E-02 7.20895E-14 2.90186E-13
 -1      1503 1.89843E+01 2.16705E-03 3.11223E-03-6.39495E-02-3.80035E-15 3.68389E-13
 -1      1504 1.89007E+01 8.80632E-03 5.49651E-03-5.85571E-02 2.70205E-15 3.65690E-13
 -1      1505 1.91284E+01 6.40313E-03-1.94909E-03-9.10676E-02 2.05133E-14 2.37884E-13
 -1      1506 1.91483E+01 1.34924E-03 2.24578E-03-7.35708E-02 2.95022E-14 3.42403E-13
 -1      1507 1.90481E+01 5.63586E-03 3.59888E-03-7.00010E-02 1.86038E-14 3.61365E-13
 -1      1508 1.92235E+01 2.53320E-03-1.85788E-03-1.22960E-01 2.91443E-14 1.99751E-13
 -1      1509 1.93389E+01 1.18472E-03 1.67203E-03-7.98470E-02 3.59156E-14 2.65514E-13
 -1      1510 1.92290E+01 4.15986E-03 2.54332E-03-7.71246E-02 4.00062E-14 3.26849E-13
 -1      1511 1.93623E+01 1.00714E-03-1.70417E-03-1.41968E-01 5.52014E-14 2.00078E-13
 -1      1512 1.95499E+01 1.49256E-03 1.18737E-03-8.57350E-02 5.43752E-14 1.45230E-13
 -1      1513 1.94321E+01 3.83751E-03 1.91873E-03-8.31515E-02 4.60579E-14 2.31207E-13
 -1      1514 1.95305E+01 9.76517E-04-1.65524E-03-1.56000E-01 8.44327E-14 1.39465E-13
 -1      1515 1.97819E+01 2.16122E-03 7.18401E-04-9.33563E-02 3.10279E-14 9.16038E-14
 -1      1516 1.96549E+01 4.37630E-03 1.51599E-03-9.03548E-02 1.69473E-14 1.35001E-13
 -1      1517 1.97231E+01 1.99104E-03-1.77255E-03-1.70355E-01 6.03335E-14 9.82718E-14
 -1      1518 2.00409E+01 3.10480E-03 2.40412E-04-1.04299E-01-2.05543E-15 8.86444E-14
 -1      1519 1.99007E+01 5.59131E-03 1.23974E-03-1.00417E-01 8.99790E-15 7.69333E-14
 -1      1520 1.99409E+01 3.77236E-03-2.06739E-03-1.88842E-01 1.42897E-14 1.13568E-13
 -1      1521 2.03362E+01 4.23270E-03-2.55234E-04-1.19719E-01-7.66488E-15 1.26371E-13
 -1      1522 2.01770E+01 7.33127E-03 1.03730E-03-1.14570E-01-2.42356E-14 7.22994E-14
 -1      1523 2.01890E+01 6.10542E-03-2.53464E-03-2.14246E-01-2.07961E-14 6.34898E-15
 -1      1524 2.06797E+01 5.41498E-03-7.65256E-04-1.40289E-01 1.58488E-14 1.21393E-13
 -1      1525 2.04945E+01 9.41745E-03 8.67970E-04-1.33580E-01 2.10044E-14 1.29233E-13
 -1      1526 2.04753E+01 8.75985E-03-3.15658E-03-2.48421E-01 1.09170E-14 5.47924E-14
 -1      1527 2.10838E+01 6.43385E-03-1.26192E-03-1.65956E-01 5.65177E-14-1.90993E-15
 -1      1528 2.08651E+01 1.15679E-02 6.93084E-04-1.57559E-01 3.89465E-14 8.18373E-14
 -1      1529 2.08090E+01 1.14015E-02-3.88854E-03-2.92058E-01 5.99625E-14 2.82064E-14
 -1      1530 2.15587E+01 6.91422E-03-1.66244E-03-1.95461E-01 3.32949E-14-5.56282E-14
 -1      1531 2.13003E+01 1.32891E-02 4.78406E-04-1.85553E-01 5.17932E-14 9.74047E-15
 -1      1532 2.11990E+01 1.34691E-02-4.62843E-03-3.44051E-01 6.98198E-14 7.16326E-14
 -1      1533 2.21084E+01 6.23392E-03-1.77238E-03-2.25500E-01-2.28394E-14-1.21337E-13
 -1      1534 2.18077E+01 1.37251E-02 2.11965E-04-2.14833E-01-1.16237E-14-1.15658E-13
 -1      1535 2.16508E+01 1.39998E-02-5.16503E-03-4.00334E-01 3.68295E-14 1.48275E-14
 -1      1536 2.27240E+01 3.43902E-03-1.20088E-03-2.49495E-01 4.86641E-14-2.07780E-13
 -1      1537 2.23858E+01 1.14797E-02-5.30884E-05-2.39807E-01 4.82080E-14-1.19757E-13
 -1      1538 2.21623E+01 1.14123E-02-5.10270E-03-4.52046E-01 6.28483E-14-2.52177E-14
 -1      1539 2.33731E+01-2.74288E-03 7.16479E-04-2.56102E-01-5.39074E-14-2.43512E-13
 -1      1540 2.30160E+01 4.50754E-03-1.26114E-04-2.50668E-01 2.00197E-14-2.22175E-13
 -1      1541 2.27178E+01 3.33355E-03-3.78252E-03-4.83111E-01 7.71874E-14 1.01637E-14
 -1      1542 2.39878E+01-1.35678E-02 4.85487E-03-2.28211E-01-6.77809E-14-6.11351E-14
 -1      1543 2.36517E+01-9.65375E-03 3.92836E-04-2.32324E-01-1.10981E-13-2.42799E-13
 -1      1544 2.32795E+01-1.32468E-02-2.82612E-04-4.67967E-01-1.04372E-13-2.29504E-15
 -1      1545 2.44535E+01-2.92218E-02 1.18145E-02-1.44435E-01-4.43265E-14 5.29706E-14
 -1      1546 2.42067E+01-3.27544E-02 2.07381E-03-1.65189E-01-2.70166E-14 2.65760E-15
 -1      1547 2.37796E+01-4.08655E-02 6.30473E-03-3.71756E-01-8.90000E-14-1.44745E-14
 -1      1548 2.46104E+01-4.68071E-02 2.06959E-02 1.32489E-02 9.41807E-14 4.57221E-14
 -1      1549 2.45489E+01-6.31775E-02 5.27300E-03-3.08800E-02 5.97786E-15 7.23007E-14
 -1      1550 2.41153E+01-7.85622E-02 1.60487E-02-1.57869E-01-1.79579E-14 1.29803E-13
 -1      1551 2.42853E+01-5.79887E-02 2.73330E-02 2.42162E-01 5.49534E-14-1.16945E-13
 -1      1552 2.45127E+01-9.19751E-02 9.22226E-03 1.73702E-01 7.81944E-14 3.49859E-14
 -1      1553 2.41586E+01-1.16750E-01 2.67217E-02 1.90555E-01 1.11864E-13 1.62900E-13
 -1      1554 2.33738E+01-4.92236E-02 2.38143E-02 4.94007E-01 7.24126E-14-3.53814E-13
 -1      1555 2.39505E+01-1.00450E-01 1.09489E-02 4.14314E-01 8.72523E-14-2.64427E-13
 -1      1556 2.37932E+01-1.32497E-01 3.25925E-02 6.33001E-01 1.71403E-13-7.64597E-14
 -1      1557 2.19663E+01-1.02153E-02 2.86658E-03 6.61915E-01-1.01959E-13-2.93932E-13
 -1      1558 2.28320E+01-6.66918E-02 5.77750E-03 6.02727E-01-6.38617E-14-4.20386E-13
 -1      1559 2.29897E+01-9.37680E-02 2.61333E-02 1.03416E+00 1.65987E-14-2.67807E-13
 -1      1560 2.04398E+01 5.01446E-02-3.21867E-02 6.17607E-01-6.53583E-14-1.90202E-13
 -1      1561 2.13610E+01 1.38845E-02-8.63297E-03 6.17898E-01-6.62968E-14-2.33272E-13
 -1      1562 2.18980E+01 1.61775E-02 4.73408E-03 1.17819E+00-1.48640E-13-2.40974E-13
 -1      1563 1.93808E+01 9.81251E-02-6.15380E-02 3.10725E-01-1.63359E-14-5.64687E-14
 -1      1564 2.00049E+01 1.08390E-01-2.64884E-02 3.86600E-01-4.98039E-15-1.21105E-13
 -1      1565 2.08775E+01 1.62786E-01-2.25078E-02 8.87631E-01-4.72539E-14 3.96801E-14
 -1      1566 1.92778E+01 9.91331E-02-6.22532E-02-1.47502E-01 4.35381E-14-1.63067E-13
 -1      1567 1.93204E+01 1.59395E-01-3.47899E-02-2.62604E-02 2.36946E-14-1.15742E-13
 -1      1568 2.03645E+01 2.58494E-01-3.91354E-02 2.00132E-01 7.01314E-14-2.48798E-14
 -1      1569 2.01853E+01 5.25768E-02-3.08812E-02-5.33672E-01-7.14402E-14-6.59542E-14
 -1      1570 1.96245E+01 1.33571E-01-2.49774E-02-4.27255E-01-1.16726E-13-1.66367E-13
 -1      1571 2.06055E+01 2.30671E-01-3.55772E-02-5.83147E-01-7.86628E-14 2.80852E-14
 -1      1572 2.16795E+01-7.47462E-03 1.03668E-02-6.78284E-01 1.83488E-15-7.07490E-14
 -1      1573 2.07727E+01 5.39928E-02-2.96820E-03-6.31080E-01 2.74841E-14-6.33660E-14
 -1      1574 2.14783E+01 9.55119E-02-1.86985E-02-1.09181E+00-3.37490E-14-9.31720E-14
 -1      1575 2.31595E+01-4.70660E-02 3.67004E-02-5.75203E-01 8.26856E-14-1.04701E-13
 -1      1576 2.22643E+01-2.59597E-02 1.63475E-02-5.89370E-01 7.28584E-14-6.35464E-14
 -1      1577 2.25875E+01-5.47755E-02-1.80240E-03-1.15138E+00 3.79167E-14-1.07976E-13
 -1      1578 2.41897E+01-5.65460E-02 4.07361E-02-3.38261E-01-2.30588E-14-9.18224E-14
 -1      1579 2.35636E+01-7.00025E-02 2.35298E-02-3.86642E-01-9.51322E-15-1.65028E-13
 -1      1580 2.35266E+01-1.41561E-01 7.73546E-03-8.52136E-01 4.76841E-14-2.54519E-14
 -1      1581 2.46298E+01-4.58280E-02 3.05677E-02-9.19248E-02-9.26342E-16 4.81924E-14
 -1      1582 2.43546E+01-7.56265E-02 1.97998E-02-1.45189E-01-2.21594E-14-2.58439E-14
 -1      1583 2.40668E+01-1.51256E-01 1.02468E-02-4.10672E-01-7.44214E-14 1.98036E-14
 -1      1584 2.45603E+01-2.85704E-02 1.66025E-02 9.33164E-02 8.45001E-14-8.27845E-14
 -1      1585 2.45858E+01-5.89921E-02 1.15457E-02 5.16900E-02 8.50188E-15 2.86316E-15
 -1      1586 2.41783E+01-1.14934E-01 8.77055E-03-8.34385E-03 5.32560E-14-1.86322E-13
 -1      1587 2.41512E+01-1.31233E-02 5.34539E-03 2.01280E-01-1.43505E-13-7.16302E-14
 -1      1588 2.43746E+01-3.63320E-02 3.87745E-03 1.75555E-01 8.18963E-15-3.99793E-14
 -1      1589 2.39520E+01-6.70214E-02 6.00948E-03 2.70737E-01 2.53877E-15-1.05633E-13
 -1      1590 2.35695E+01-2.40516E-03-1.47729E-03 2.45224E-01 8.27886E-15-9.57411E-14
 -1      1591 2.38914E+01-1.67633E-02-9.76312E-04 2.33037E-01-6.52273E-14-1.02833E-13
 -1      1592 2.35165E+01-2.70122E-02 3.49953E-03 4.19711E-01-3.40435E-14-2.34500E-14
 -1      1593 2.29399E+01 3.75655E-03-4.61504E-03 2.46672E-01 1.08905E-13-3.13622E-13
 -1      1594 2.32873E+01-3.20936E-03-3.12214E-03 2.43729E-01 1.38637E-13-8.98361E-14
 -1      1595 2.29866E+01-5.57822E-04 1.70299E-03 4.68225E-01 1.66836E-13-8.54629E-14
 -1      1596 2.23394E+01 6.60693E-03-5.43822E-03 2.24644E-01-1.75926E-13 6.35377E-14
 -1      1597 2.26683E+01 4.72859E-03-3.49957E-03 2.27060E-01-1.53220E-13-1.70934E-13
 -1      1598 2.24447E+01 1.38438E-02 5.72229E-04 4.52973E-01-1.25235E-13 8.58328E-14
 -1      1599 2.18077E+01 7.40657E-03-5.08626E-03 1.92456E-01-5.95728E-14 2.87045E-14
 -1      1600 2.20965E+01 8.55913E-03-3.01588E-03 1.97460E-01 2.59332E-14 9.93979E-14
 -1      1601 2.19408E+01 1.98650E-02-7.91230E-05 4.04128E-01-7.94022E-14 1.54118E-13
 -1      1602 2.13594E+01 7.09211E-03-4.27390E-03 1.58174E-01-8.65961E-14 1.71632E-13
 -1      1603 2.16007E+01 9.78362E-03-2.26384E-03 1.64041E-01-1.15584E-13 1.54659E-14
 -1      1604 2.14996E+01 2.08908E-02-4.23995E-04 3.42148E-01-1.13886E-13 2.31771E-13
 -1      1605 2.09946E+01 6.26406E-03-3.37692E-03 1.26082E-01-1.11315E-14 2.84248E-13
 -1      1606 2.11892E+01 9.53683E-03-1.54068E-03 1.31852E-01 5.03245E-14 3.44417E-13
 -1      1607 2.11292E+01 1.93300E-02-5.83005E-04 2.79165E-01-2.43256E-14 6.61166E-13
 -1      1608 2.07055E+01 5.27380E-03-2.56311E-03 9.80701E-02 1.12849E-13 1.44537E-13
 -1      1609 2.08583E+01 8.57080E-03-9.56490E-04 1.03275E-01 1.56017E-14 1.62841E-13
 -1      1610 2.08279E+01 1.66802E-02-6.32906E-04 2.21452E-01 1.14589E-13 4.66175E-13
 -1      1611 2.04817E+01 4.31412E-03-1.89236E-03 7.46346E-02-6.22903E-14-3.72289E-14
 -1      1612 2.05990E+01 7.34740E-03-5.27597E-04 7.91040E-02 4.36763E-14 5.73547E-14
 -1      1613 2.05890E+01 1.37914E-02-6.23230E-04 1.71604E-01 1.19780E-13 3.04953E-13
 -1      1614 2.03123E+01 3.48799E-03-1.37841E-03 5.55030E-02 2.71899E-13-4.63793E-13
 -1      1615 2.04003E+01 6.14052E-03-2.34561E-04 5.92448E-02 1.74401E-13-2.26165E-13
 -1      1616 2.04037E+01 1.11127E-02-5.89872E-04 1.30070E-01 2.31451E-13-1.44033E-13
 -1      1617 2.01874E+01 2.83841E-03-1.02379E-03 4.00012E-02 8.40438E-14-7.39040E-13
 -1      1618 2.02516E+01 5.10539E-03-5.46674E-05 4.31263E-02 7.02703E-14-6.44973E-13
 -1      1619 2.02633E+01 8.86760E-03-5.62990E-04 9.61082E-02 2.85042E-13-5.38881E-13
 -1      1620 2.00989E+01 2.38763E-03-8.41184E-04 2.72921E-02 1.58659E-13-1.01695E-12
 -1      1621 2.01437E+01 4.32863E-03 2.20394E-05 2.99692E-02 1.77976E-13-6.66789E-13
 -1      1622 2.01600E+01 7.14281E-03-5.75437E-04 6.83868E-02 2.20655E-13-5.08529E-13
 -1      1623 2.00408E+01 2.14503E-03-7.97781E-04 1.64287E-02 1.28219E-13-1.22293E-12
 -1      1624 2.00693E+01 3.87487E-03-5.80494E-06 1.88993E-02 6.56597E-14-1.09907E-12
 -1      1625 2.00870E+01 5.99884E-03-6.53985E-04 4.53186E-02 1.62310E-13-6.58970E-13
 -1      1626 2.00090E+01 2.00853E-03-5.91537E-04 6.58596E-03-5.43828E-14-1.15582E-12
 -1      1627 2.00231E+01 3.67566E-03-5.30423E-05 9.14836E-03 2.43904E-14-1.17268E-12
 -1      1628 2.00393E+01 5.46090E-03-7.04160E-04 2.53705E-02 4.32315E-14-7.45456E-13
 -1      1629 1.99995E+01 1.36041E-03 7.62977E-04-1.21923E-03-8.92921E-14-8.63387E-13
 -1      1630 2.00008E+01 2.86638E-03 2.16620E-04 9.49255E-04-9.28703E-14-1.08840E-12
 -1      1631 2.00122E+01 4.35224E-03-4.95135E-04 7.93157E-03-1.56589E-13-6.92164E-13
 -1      1632 1.99979E+01-1.23097E-03 1.52039E-03-2.30302E-03-4.70153E-13-5.48809E-13
 -1      1633 2.00033E+01 5.47819E-03-4.45798E-04 4.42552E-03-5.79702E-13 1.48053E-13
 -1      1634 2.00029E+01 2.70215E-03 4.90152E-04 2.43431E-03-7.93289E-13-3.70672E-14
 -1      1635 2.00029E+01 3.17197E-02-4.90796E-04 1.38695E-02-4.84674E-13-4.09209E-14
 -1      1636 2.00033E+01 1.76390E-02-3.26498E-04 1.19790E-02-4.57425E-13-1.09934E-13
 -1      1637 2.00066E+01 2.35582E-02-6.51378E-04 1.69756E-02-4.54998E-13 5.22044E-14
 -1      1638 2.00014E+01 7.30871E-02-2.99273E-04 2.09811E-02-5.18676E-13-1.61575E-13
 -1      1639 2.00023E+01 4.99386E-02-3.30282E-04 1.98074E-02-3.53688E-13 1.80535E-14
 -1      1640 2.00047E+01 5.41242E-02-7.70268E-04 3.32465E-02-3.39813E-13-7.61762E-14
 -1      1641 1.99997E+01 1.22542E-01-1.17580E-04 2.38936E-02-4.79459E-13-1.41810E-13
 -1      1642 2.00007E+01 9.51162E-02-1.81173E-04 2.36633E-02-3.92819E-13-8.42286E-14
 -1      1643 2.00022E+01 9.47790E-02-3.18866E-04 4.35500E-02-2.57887E-13-7.77753E-14
 -1      1644 1.99982E+01 1.70442E-01-1.80419E-05 2.23832E-02-4.40094E-13 1.37959E-13
 -1      1645 1.99990E+01 1.44497E-01-6.44970E-05 2.30121E-02-5.29015E-13-2.11290E-13
 -1      1646 1.99993E+01 1.39048E-01 1.82324E-04 4.55561E-02-2.66816E-13-1.78182E-13
 -1      1647 1.99970E+01 2.10119E-01 3.70773E-05 1.69254E-02-7.85331E-15 2.19618E-13
 -1      1648 1.99976E+01 1.89564E-01 8.18484E-06 1.82804E-02-4.01000E-13 2.30649E-13
 -1      1649 1.99969E+01 1.80263E-01 6.34718E-04 3.94373E-02-1.54621E-13 2.57003E-13
 -1      1650 1.99963E+01 2.34008E-01 5.73655E-05 8.61057E-03 8.38025E-14 4.47269E-14
 -1      1651 1.99966E+01 2.22866E-01 4.23697E-05 1.04201E-02-3.37586E-14 2.05799E-13
 -1      1652 1.99950E+01 2.12152E-01 9.66936E-04 2.65017E-02-2.51966E-14 2.79756E-13
 -1      1653 1.99962E+01 2.38256E-01 5.77375E-05-1.10775E-03 2.32905E-13 2.45526E-13
 -1      1654 1.99962E+01 2.38391E-01 5.64391E-05 8.52679E-04 1.67487E-13 2.29237E-13
 -1      1655 1.99941E+01 2.29281E-01 1.13852E-03 9.16587E-03 8.57405E-14 1.24786E-13
 -1      1656 1.99967E+01 2.22226E-01 4.05345E-05-1.06264E-02 4.13967E-13 1.28542E-13
 -1      1657 1.99963E+01 2.33598E-01 5.48938E-05-8.83401E-03 2.29129E-13 2.25916E-13
 -1      1658 1.99941E+01 2.28995E-01 1.13287E-03-9.64078E-03 4.02504E-13 2.60265E-13
 -1      1659 1.99977E+01 1.88607E-01 1.28816E-06-1.83737E-02 5.08267E-14-3.22639E-13
 -1      1660 1.99970E+01 2.09279E-01 3.81181E-05-1.70513E-02 3.41069E-13-1.14098E-13
 -1      1661 1.99951E+01 2.11370E-01 9.49917E-04-2.68357E-02 3.44625E-13 1.95675E-14
 -1      1662 1.99991E+01 1.43891E-01-6.01236E-05-2.29475E-02-1.05178E-13 2.50297E-13
 -1      1663 1.99982E+01 1.69791E-01-1.59619E-05-2.23414E-02 5.89049E-14-2.55414E-13
 -1      1664 1.99969E+01 1.79514E-01 6.25250E-04-3.94790E-02 1.28323E-13-4.34309E-13
 -1      1665 2.00007E+01 9.42879E-02-1.72337E-04-2.35337E-02-3.02709E-13-3.76645E-13
 -1      1666 1.99998E+01 1.21573E-01-1.17242E-04-2.37823E-02-1.51670E-13 8.61695E-14
 -1      1667 1.99994E+01 1.38278E-01 1.71440E-04-4.54060E-02 1.70452E-14 1.62399E-13
 -1      1668 2.00022E+01 4.93392E-02-3.65563E-04-1.96391E-02-5.28872E-13 3.82832E-15
 -1      1669 2.00014E+01 7.23887E-02-2.86955E-04-2.07929E-02-3.95894E-13-1.28634E-13
 -1      1670 2.00022E+01 9.37791E-02-3.31215E-04-4.32593E-02-8.71917E-14-3.34321E-13
 -1      1671 2.00038E+01 1.77541E-02-1.28362E-04-1.20457E-02-5.14619E-13 4.03688E-14
 -1      1672 2.00027E+01 3.15401E-02-5.10432E-04-1.39894E-02-4.80847E-13-2.26295E-14
 -1      1673 2.00045E+01 5.37007E-02-7.54971E-04-3.29001E-02-3.38272E-13-2.79707E-14
 -1      1674 2.00051E+01 6.84685E-03 5.37599E-04-5.50178E-03-2.68666E-13 1.14951E-14
 -1      1675 2.00051E+01 1.04264E-02-4.51163E-04-8.27918E-03-2.88607E-13 4.40039E-14
 -1      1676 2.00099E+01 2.92984E-02-1.22927E-04-2.17839E-02-1.71254E-13 2.76629E-13
 -1      1677 2.00138E+01 1.51202E-02 5.07382E-04-1.26280E-02 7.16494E-14 1.31029E-13
 -1      1678-4.53072E-01-1.36014E+01-1.50617E+00-7.65473E-01 5.06817E-13 4.88998E-13
 -1      1679-5.11394E-01-1.56300E+01-1.67841E+00 4.04191E-01-3.96072E-14 3.39173E-13
 -1      1680 1.36832E+00-7.78321E+00-1.16542E+00 5.15024E-01 8.63531E-13 4.64739E-13
 -1      1681 6.64499E-01-1.27900E+01-1.65529E+00-4.14942E-02 7.00773E-13 1.90729E-13
 -1      1682 8.09137E+00-4.52377E-01-4.65892E-01 5.06705E+00 7.81153E-13 5.68212E-13
 -1      1683 4.59793E+00-5.97172E+00-1.22408E+00 2.04508E+00 8.04468E-13 4.81004E-13
 -1      1684 1.80198E+01 4.68294E+00 2.16331E-01 9.61235E+00 6.07736E-13 5.93525E-13
 -1      1685 1.17578E+01 1.62264E+00-6.08303E-01 6.19750E+00 7.52509E-13 6.13731E-13
 -1      1686 3.30706E+01 5.70183E+00 9.76086E-01 1.17795E+01 4.18998E-13 8.00693E-13
 -1      1687 2.35557E+01 5.38880E+00 1.34726E-01 9.89812E+00 5.24025E-13 6.46372E-13
 -1      1688 4.63830E+01 5.02221E+00 1.65961E+00 1.03732E+01 2.72948E-13 8.73190E-13
 -1      1689 3.81433E+01 6.51464E+00 1.00558E+00 1.19797E+01 3.45945E-13 8.85958E-13
 -1      1690 5.44810E+01 3.52363E+00 1.92548E+00 3.87657E+00 2.30760E-13 7.58504E-13
 -1      1691 4.98627E+01 4.79788E+00 1.62596E+00 8.57289E+00 2.04281E-13 8.84404E-13
 -1      1692 5.37598E+01 3.87334E+00 1.76761E+00-4.08207E+00 2.11775E-14 5.58387E-13
 -1      1693 5.48841E+01 3.58035E+00 1.86069E+00 1.26620E+00 1.78302E-13 7.58893E-13
 -1      1694 4.56238E+01 5.51162E+00 1.36215E+00-1.00928E+01 8.60007E-14 1.85407E-13
 -1      1695 5.19172E+01 3.95222E+00 1.78519E+00-6.39647E+00 9.15934E-15 4.11338E-13
 -1      1696 3.27915E+01 6.76213E+00 7.26334E-01-1.21102E+01 3.35731E-13-1.21680E-13
 -1      1697 4.16623E+01 5.61660E+00 1.43073E+00-1.17778E+01 1.39888E-13 8.84848E-14
 -1      1698 1.93239E+01 5.26983E+00-6.10794E-02-9.49396E+00 7.70828E-13-5.14921E-13
 -1      1699 2.76612E+01 6.41362E+00 8.10261E-01-1.21387E+01 5.17364E-13-2.72227E-13
 -1      1700 9.37383E+00-4.95497E-01-8.09120E-01-4.79741E+00 6.96554E-13-4.98379E-13
 -1      1701 1.49980E+01 3.44515E+00 2.88719E-02-8.39109E+00 6.41598E-13-6.29941E-13
 -1      1702 2.59885E+00-7.76544E+00-1.48501E+00-8.01060E-01 6.85674E-13-3.96849E-13
 -1      1703 4.98827E+00-2.11400E+00-7.69636E-01-3.25516E+00 8.04468E-13-4.84224E-13
 -1      1704 7.51058E-02-1.46036E+01-1.84860E+00 4.29364E-01 2.56239E-13-2.43652E-13
 -1      1705 4.67018E-01-9.90928E+00-1.40942E+00 3.82356E-01 5.79981E-13-4.14030E-13
 -1      1706-6.85316E-01-1.67406E+01-1.86310E+00-4.61277E-01 1.34222E-13 5.88418E-15
 -1      1707-7.23431E-01-1.56612E+01-1.78818E+00 1.01997E+00 2.64455E-13-1.15297E-13
 -1      1708-3.20565E-01-1.31053E+01-1.53451E+00-6.88761E-01-3.58602E-14-6.48093E-14
 -1      1709-3.98654E-01-1.58728E+01-1.77701E+00 2.52467E-01 9.77551E-14-3.79141E-14
 -1      1710 1.76580E+00-6.84744E+00-1.14989E+00 7.58624E-01-2.10387E-13-7.42739E-14
 -1      1711 8.87704E-01-1.19403E+01-1.66546E+00-1.07960E-01-1.98619E-13-4.17652E-14
 -1      1712 7.95529E+00 7.48056E-01-4.64514E-01 5.26444E+00-2.97762E-13-3.49498E-13
 -1      1713 4.37581E+00-4.70990E+00-1.25385E+00 2.05235E+00-2.05391E-13-1.61537E-13
 -1      1714 1.89348E+01 5.36306E+00 2.87454E-01 1.01864E+01-3.45945E-13-4.30767E-13
 -1      1715 1.21704E+01 2.52531E+00-5.76441E-01 6.66328E+00-2.87659E-13-3.46168E-13
 -1      1716 3.41382E+01 5.80242E+00 9.76182E-01 1.19963E+01-2.64566E-13-4.91163E-13
 -1      1717 2.45115E+01 5.93038E+00 1.82487E-01 1.05036E+01-2.95985E-13-4.68736E-13
 -1      1718 4.73263E+01 4.42090E+00 1.44956E+00 8.04682E+00-1.78111E-13-3.80806E-13
 -1      1719 3.89712E+01 6.08612E+00 8.81432E-01 1.05480E+01-3.10724E-13-4.54081E-13
 -1      1720 5.39959E+01 3.63846E+00 1.78271E+00 1.27814E+00-1.41998E-13-2.93737E-13
 -1      1721 5.06851E+01 4.47777E+00 1.50224E+00 6.47100E+00-1.17434E-13-4.41591E-13
 -1      1722 5.15391E+01 4.38488E+00 1.63603E+00-6.96338E+00-7.25253E-14-6.55032E-14
 -1      1723 5.49466E+01 3.43032E+00 1.89388E+00-1.34682E+00-8.22398E-14-2.13329E-13
 -1      1724 3.95015E+01 5.99902E+00 9.27615E-01-1.04812E+01 9.28702E-14-6.69464E-14
 -1      1725 4.74227E+01 4.48572E+00 1.50197E+00-8.12597E+00 1.01277E-13 4.51861E-14
 -1      1726 2.51685E+01 6.31370E+00 2.52539E-01-1.09070E+01-2.80997E-13-1.06581E-14
 -1      1727 3.48402E+01 5.96354E+00 1.03563E+00-1.22243E+01-9.50351E-14-3.23297E-13
 -1      1728 1.25106E+01 2.74778E+00-5.37728E-01-6.81816E+00-8.90843E-13 4.52971E-13
 -1      1729 1.96542E+01 5.60583E+00 3.62904E-01-1.04537E+01-5.00044E-13 2.15716E-13
 -1      1730 4.70195E+00-4.74965E+00-1.21898E+00-2.21705E+00-8.18789E-13 6.18006E-13
 -1      1731 8.46309E+00 7.25576E-01-4.04915E-01-5.49232E+00-8.62421E-13 6.90115E-13
 -1      1732 6.78030E-01-1.25575E+01-1.72388E+00 2.15242E-01-5.62217E-13 3.72598E-13
 -1      1733 1.58217E+00-6.94825E+00-1.15940E+00-6.60652E-01-7.79377E-13 4.63157E-13
 -1      1734-5.19642E-01-1.59615E+01-1.73872E+00-4.52749E-01-1.60705E-13 1.43441E-13
 -1      1735-4.90601E-01-1.36877E+01-1.56896E+00 8.04205E-01-4.50195E-13 3.47139E-13
 -1      1736 2.55288E+01 5.68569E-01 3.14628E-01 6.96434E+00 4.29101E-13 4.04010E-13
 -1      1737 1.51708E+01-3.30384E+00-3.01110E-01 6.43945E+00 4.23772E-13 2.56517E-13
 -1      1738 2.00020E+01-9.25090E-04 4.49284E-04-1.84542E-03-6.80577E-13-3.92880E-13
 -1      1739 2.00061E+01 8.68497E-03 1.94837E-04 3.96942E-03-3.65663E-13-2.35529E-13
 -1      1740 7.44487E-01-9.56053E+00-1.08953E+00 2.41766E+00 2.12164E-13 4.24105E-13
 -1      1741 6.61057E+00-6.95623E+00-7.53091E-01 4.87875E+00 3.47389E-13 3.07396E-13
 -1      1742-1.11637E+00-1.03239E+01-1.15528E+00-1.37264E-02 2.22045E-14 4.54081E-13
 -1      1743 3.52456E+01 3.77895E+00 7.45932E-01 6.12159E+00 2.94154E-13 5.55223E-13
 -1      1744 4.36213E+01 6.29160E+00 1.37421E+00 4.66136E+00 1.94206E-13 5.44342E-13
 -1      1745 4.71795E+01 7.21162E+00 1.56102E+00 1.25829E+00 2.29095E-13 4.78451E-13
 -1      1746 4.58870E+01 7.08014E+00 1.46445E+00-2.35011E+00 1.58762E-13 5.46008E-13
 -1      1747 4.07803E+01 5.76086E+00 1.21118E+00-5.52219E+00 2.02199E-13 4.27880E-13
 -1      1748 3.19997E+01 3.45973E+00 7.04760E-01-7.36102E+00 3.83638E-13 2.48468E-13
 -1      1749 2.19238E+01-2.99232E-01 6.22266E-02-7.10047E+00 3.68372E-13-2.24820E-13
 -1      1750 1.23191E+01-4.12587E+00-4.25515E-01-6.00055E+00 4.24993E-13-3.24241E-13
 -1      1751 4.13395E+00-8.06800E+00-9.91032E-01-3.72793E+00 3.13971E-13-4.31225E-13
 -1      1752-3.34210E-01-1.09360E+01-1.30912E+00-1.56483E+00 1.71640E-13-2.61735E-13
 -1      1753-1.18122E+00-1.10883E+01-1.27348E+00 6.19894E-01 1.29396E-13-1.02696E-13
 -1      1754 1.21001E+00-9.54342E+00-1.13111E+00 2.67903E+00 2.22045E-14-1.46078E-13
 -1      1755 6.68215E+00-6.49512E+00-8.31831E-01 4.66876E+00-1.15907E-13-1.35919E-13
 -1      1756 1.52505E+01-2.20157E+00-2.58577E-01 6.57140E+00-4.79616E-14-1.57208E-13
 -1      1757 2.60130E+01 1.49751E+00 3.88398E-01 7.34338E+00-7.06102E-14-1.96176E-13
 -1      1758 3.61120E+01 4.38878E+00 8.98796E-01 5.46866E+00-1.51344E-13-2.01283E-13
 -1      1759 4.28010E+01 6.63403E+00 1.15715E+00 2.79004E+00-1.64979E-13-3.87912E-13
 -1      1760 4.67302E+01 7.41429E+00 1.52910E+00-1.92697E-01-1.61537E-13-3.69496E-13
 -1      1761 4.34085E+01 6.52447E+00 1.20163E+00-2.96559E+00 1.88183E-14-8.29892E-14
 -1      1762 3.63785E+01 4.60716E+00 9.11613E-01-5.67165E+00-5.48867E-14-8.12683E-14
 -1      1763 2.63922E+01 1.80715E+00 4.04712E-01-7.48000E+00-4.59244E-13-2.07390E-13
 -1      1764 1.57078E+01-2.25791E+00-2.53803E-01-6.63128E+00-6.34715E-13 2.45692E-13
 -1      1765 6.81859E+00-6.54908E+00-7.87447E-01-4.74912E+00-3.67595E-13 4.77327E-13
 -1      1766 7.97108E-01-9.81383E+00-1.17156E+00-2.42613E+00-2.03781E-13 4.03483E-13
 -1      1767 2.28188E+01 1.98198E+00-2.38047E-02-2.71671E+00-1.31346E-13 4.96603E-13
 -1      1768 1.98242E+01 3.72009E+00-3.48880E-02-2.14432E+00-1.42593E-13-1.64285E-13
 -1      1769 2.00480E+01 3.56060E+00-4.27836E-02-2.43099E+00-1.84398E-13-1.13583E-13
 -1      1770 2.03550E+01 3.18083E+00-4.50781E-02-2.57572E+00-1.89757E-13-5.19931E-14
 -1      1771 2.05662E+01 2.80670E+00-1.42349E-01-2.84432E+00-2.03587E-13 4.32571E-14
 -1      1772 2.04237E+01 2.69181E+00-3.00213E-03-2.21017E+00-1.93745E-13-7.90305E-14
 -1      1773 1.93693E+01 4.19877E+00-2.02435E-02-1.26006E+00-7.83874E-14-2.59369E-13
 -1      1774 1.94408E+01 4.15755E+00-1.70671E-02-1.48384E+00-9.60577E-14-2.53407E-13
 -1      1775 1.92749E+01 4.30817E+00-1.68447E-02-8.51332E-01-4.19296E-14-2.63345E-13
 -1      1776 1.93168E+01 4.28302E+00-1.42522E-02-1.06091E+00-5.58679E-14-2.63402E-13
 -1      1777 1.95410E+01 3.79740E+00-9.15434E-03-1.10787E+00-7.50525E-14-2.48529E-13
 -1      1778 1.92243E+01 4.37127E+00-1.48149E-02-4.61737E-01 3.00563E-15-2.58446E-13
 -1      1779 1.92460E+01 4.35765E+00-1.32326E-02-6.60381E-01-1.90304E-14-2.61445E-13
 -1      1780 1.94454E+01 3.92194E+00-9.02123E-03-7.24400E-01-3.27451E-14-2.51835E-13
 -1      1781 1.92052E+01 4.39817E+00-1.36404E-02-8.25878E-02 4.75290E-14-2.39628E-13
 -1      1782 1.92115E+01 4.39398E+00-1.31551E-02-2.76124E-01 2.10747E-14-2.52553E-13
 -1      1783 1.93955E+01 3.98919E+00-8.93390E-03-3.53622E-01 9.91993E-15-2.46778E-13
 -1      1784 1.92133E+01 4.39258E+00-1.31043E-02 2.94993E-01 8.62726E-14-2.27969E-13
 -1      1785 1.92057E+01 4.39731E+00-1.37250E-02 1.01293E-01 7.03401E-14-2.33404E-13
 -1      1786 1.93808E+01 4.00954E+00-8.90533E-03 1.04400E-02 6.92720E-14-2.29556E-13
 -1      1787 1.92501E+01 4.35356E+00-1.32338E-02 6.79995E-01 1.22642E-13-2.28536E-13
 -1      1788 1.92272E+01 4.36803E+00-1.49242E-02 4.80838E-01 1.07102E-13-2.31096E-13
 -1      1789 1.93983E+01 3.98581E+00-8.95854E-03 3.74707E-01 1.05896E-13-2.16591E-13
 -1      1790 1.93223E+01 4.27708E+00-1.42964E-02 1.07490E+00 1.48007E-13-2.01223E-13
 -1      1791 1.92797E+01 4.30273E+00-1.70071E-02 8.68109E-01 1.35181E-13-2.20834E-13
 -1      1792 1.94508E+01 3.91552E+00-8.99182E-03 7.42805E-01 1.35644E-13-2.10824E-13
 -1      1793 1.94508E+01 4.14586E+00-1.72784E-02 1.50334E+00 1.95174E-13-1.55789E-13
 -1      1794 1.93761E+01 4.18996E+00-2.05437E-02 1.27445E+00 1.71306E-13-1.81291E-13
 -1      1795 1.95491E+01 3.78744E+00-9.08670E-03 1.12371E+00 1.77946E-13-1.84476E-13
 -1      1796 1.96739E+01 3.92496E+00-2.50664E-02 1.96816E+00 2.26213E-13-9.66727E-14
 -1      1797 1.95445E+01 4.00341E+00-2.69223E-02 1.71094E+00 2.08417E-13-1.31187E-13
 -1      1798 1.97191E+01 3.57538E+00-8.59861E-03 1.52206E+00 2.10850E-13-1.26182E-13
 -1      1799 2.00726E+01 3.52272E+00-4.50378E-02 2.46144E+00 2.41774E-13 2.22704E-14
 -1      1800 1.98381E+01 3.68479E+00-3.96619E-02 2.17207E+00 2.31674E-13-5.32248E-14
 -1      1801 2.00089E+01 3.22735E+00-5.24000E-03 1.92164E+00 2.44910E-13-5.45276E-14
 -1      1802 2.09027E+01 2.67964E+00-5.74772E-02 2.84883E+00 2.23079E-13 2.54775E-13
 -1      1803 2.04036E+01 3.09563E+00-5.02731E-02 2.60655E+00 2.26567E-13 1.14651E-13
 -1      1804 2.05111E+01 2.61063E+00 3.18711E-03 2.23342E+00 2.41319E-13 6.92016E-14
 -1      1805 2.16999E+01 1.21189E+00-1.21860E-01 2.32339E+00 1.69642E-13 5.31242E-13
 -1      1806 2.12508E+01 2.26072E+00 1.27752E-04 2.73263E+00 1.96110E-13 3.52746E-13
 -1      1807 2.09195E+01 1.68448E+00-2.28236E-02 2.13145E+00 2.16336E-13 2.44540E-13
 -1      1808 2.09239E+01 7.78252E-01-6.22886E-02 1.51833E+00 1.71863E-13 4.74955E-13
 -1      1809 2.17682E+01 2.45492E+00 9.08127E-02-3.04076E+00-1.70241E-13 2.07362E-13
 -1      1810 2.00792E+01 2.98768E-01-8.77764E-03 6.50517E-01 1.65461E-13 3.68972E-13
 -1      1811 2.06280E+01 4.40809E-01-1.23518E-02 1.02782E+00 1.60573E-13 4.21675E-13
 -1      1812 2.07243E+01 8.45224E-01 2.19096E-03 1.40728E+00 1.91177E-13 2.92363E-13
 -1      1813 2.14843E+01 1.74108E+00 7.94343E-02-2.32936E+00-1.85799E-13 1.34073E-13
 -1      1814 2.05025E+01 5.02092E-01 3.25721E-02-9.13089E-01-1.50456E-13 1.09473E-13
 -1      1815 2.00751E+01 3.54192E-01 7.92178E-03-6.20185E-01-1.25403E-13 7.80738E-14
 -1      1816 1.98848E+01 2.60213E-01 2.75455E-02-3.79605E-01-1.25782E-13 7.44647E-14
 -1      1817 1.96995E+01 1.81994E-01 1.07751E-02-2.39722E-01-1.09622E-13 3.01868E-14
 -1      1818 2.01933E+01 4.87132E-01-6.09506E-03-7.08111E-01-1.49171E-13 4.82080E-15
 -1      1819 1.95835E+01 1.37641E-01 1.68257E-02-1.02512E-01-9.15370E-14 2.78215E-14
 -1      1820 1.95137E+01 9.92669E-02 7.45978E-03-2.83943E-02-7.87890E-14 1.67141E-15
 -1      1821 1.98777E+01 2.50525E-01-6.05767E-03-2.74496E-01-1.22211E-13-2.15487E-14
 -1      1822 1.94574E+01 7.57888E-02 8.93746E-03 5.06232E-02-5.48426E-14 5.64089E-15
 -1      1823 1.94550E+01 5.57200E-02 4.81798E-03 9.17020E-02-2.62524E-14 4.98299E-15
 -1      1824 1.97097E+01 1.35444E-01-4.98966E-03-2.72879E-02-7.16812E-14-2.23051E-14
 -1      1825 1.94410E+01 4.28905E-02 4.58844E-03 1.38195E-01-3.76482E-14-3.26345E-16
 -1      1826 1.94781E+01 3.25103E-02 3.39692E-03 1.61858E-01-2.28743E-14-1.38954E-14
 -1      1827 1.96439E+01 7.55711E-02-3.91742E-03 1.17296E-01-3.78465E-14-4.52285E-14
 -1      1828 1.94931E+01 2.57527E-02 2.31770E-03 1.90452E-01-2.03288E-14-1.50884E-14
 -1      1829 1.95547E+01 2.11440E-02 2.72655E-03 2.05251E-01-1.76901E-14-3.41713E-14
 -1      1830 1.96485E+01 4.43196E-02-2.92838E-03 2.04526E-01-2.74365E-14-4.19089E-14
 -1      1831 1.95900E+01 1.82447E-02 1.14036E-03 2.24867E-01-2.02609E-14-2.78747E-14
 -1      1832 1.96683E+01 1.74039E-02 2.48815E-03 2.36069E-01-2.66271E-14-1.58628E-14
 -1      1833 1.97016E+01 2.97728E-02-2.18913E-03 2.60892E-01-2.17601E-14-7.03395E-14
 -1      1834 1.97187E+01 1.71406E-02 5.53410E-04 2.52552E-01-6.89808E-14 6.44640E-15
 -1      1835 1.98104E+01 1.89087E-02 2.52555E-03 2.63681E-01-4.55914E-14-2.41167E-16
 -1      1836 1.97896E+01 2.59756E-02-1.72895E-03 3.03082E-01-2.06161E-14-8.10356E-14
 -1      1837 1.98736E+01 2.04930E-02 3.06621E-04 2.81040E-01-4.49859E-14-4.19464E-15
 -1      1838 1.99783E+01 2.40825E-02 2.74877E-03 2.94536E-01-6.73324E-14-4.40210E-14
 -1      1839 1.99053E+01 2.95281E-02-1.50249E-03 3.42265E-01-8.04201E-14-6.02262E-14
 -1      1840 2.00536E+01 2.68960E-02 2.59716E-04 3.15515E-01-6.63942E-14-7.99305E-14
 -1      1841 2.01729E+01 3.16322E-02 3.07852E-03 3.32996E-01-2.58752E-14-1.19025E-13
 -1      1842 2.00457E+01 3.81208E-02-1.44891E-03 3.86098E-01-8.40743E-14-7.87856E-14
 -1      1843 2.02610E+01 3.50562E-02 3.19301E-04 3.59263E-01-4.27873E-14-1.04300E-13
 -1      1844 2.03975E+01 4.01809E-02 3.41736E-03 3.81534E-01-5.55946E-14-1.23739E-13
 -1      1845 2.02109E+01 4.97650E-02-1.51178E-03 4.39592E-01-5.32778E-14-1.11579E-13
 -1      1846 2.04997E+01 4.34406E-02 4.13019E-04 4.13605E-01-1.68562E-14-1.36647E-13
 -1      1847 2.06563E+01 4.79088E-02 3.62779E-03 4.40464E-01-2.32519E-14-1.22849E-13
 -1      1848 2.04031E+01 6.22274E-02-1.64169E-03 5.05251E-01-3.00453E-14-1.19167E-13
 -1      1849 2.07743E+01 4.98949E-02 4.79506E-04 4.77356E-01-1.09276E-13-1.35164E-13
 -1      1850 2.09529E+01 5.21352E-02 3.51134E-03 5.07159E-01-1.24884E-13-1.33594E-13
 -1      1851 2.06254E+01 7.24615E-02-1.79508E-03 5.82625E-01-7.84961E-14-7.74904E-14
 -1      1852 2.10882E+01 5.11948E-02 4.67300E-04 5.45751E-01-1.37931E-13-1.21092E-13
 -1      1853 2.12884E+01 4.88423E-02 2.79380E-03 5.74722E-01-1.11889E-13-1.31665E-13
 -1      1854 2.08810E+01 7.59541E-02-1.93308E-03 6.67258E-01-1.24181E-13-1.48458E-14
 -1      1855 2.14418E+01 4.25737E-02 3.41309E-04 6.08819E-01-1.11109E-13-1.35270E-13
 -1      1856 2.16589E+01 3.22681E-02 1.13246E-03 6.30120E-01-5.83978E-14-1.56089E-13
 -1      1857 2.11716E+01 6.60318E-02-2.01946E-03 7.49002E-01-1.37367E-13-3.89188E-14
 -1      1858 2.18297E+01 1.74562E-02 9.43321E-05 6.49308E-01-3.12355E-14-2.02117E-13
 -1      1859 2.20525E+01-5.03060E-03-1.81918E-03 6.52089E-01 8.11403E-15-2.24690E-13
 -1      1860 2.14969E+01 3.34154E-02-2.01157E-03 8.09786E-01-6.89647E-14-5.75046E-14
 -1      1861 2.22377E+01-3.20023E-02-2.44023E-04 6.40790E-01 1.07496E-14-2.17442E-13
 -1      1862 2.24459E+01-7.07464E-02-6.23995E-03 6.09881E-01-5.14322E-14-2.59238E-13
 -1      1863 2.18521E+01-3.31928E-02-1.82783E-03 8.21367E-01-1.95310E-14-9.54560E-14
 -1      1864 2.26386E+01-1.12377E-01-6.44280E-04 5.47634E-01-5.99906E-14-2.45908E-13
 -1      1865 2.28012E+01-1.68459E-01-1.18087E-02 4.65268E-01-3.87845E-14-2.67547E-13
 -1      1866 2.22263E+01-1.43884E-01-1.27796E-03 7.44550E-01-4.70912E-14-9.51145E-14
 -1      1867 2.29876E+01-2.22609E-01-1.18353E-03 3.30348E-01 1.35655E-15-2.27798E-13
 -1      1868 2.30649E+01-2.88543E-01-1.71814E-02 1.82223E-01 1.15594E-13-2.10779E-13
 -1      1869 2.25983E+01-2.99242E-01 3.48526E-05 5.33077E-01 2.29695E-14-1.34899E-13
 -1      1870 2.32197E+01-3.42591E-01-2.19055E-03-3.79337E-02 1.48633E-13-2.02578E-13
 -1      1871 2.31710E+01-3.95511E-01-1.96553E-02-2.49957E-01 1.20764E-13-1.37563E-13
 -1      1872 2.29300E+01-4.74862E-01 2.78613E-03 1.47874E-01 1.49471E-13-9.21182E-14
 -1      1873 2.32540E+01-4.21436E-01-4.19805E-03-5.39520E-01 9.38329E-14-8.66069E-14
 -1      1874 2.30549E+01-4.21140E-01-1.57373E-02-7.79983E-01 1.72931E-13-1.81999E-14
 -1      1875 2.31601E+01-6.04715E-01 7.31229E-03-4.11405E-01 1.59738E-13 4.84711E-14
 -1      1876 2.30177E+01-3.78891E-01-7.53953E-03-1.07137E+00 1.68625E-13-1.85182E-14
 -1      1877 2.26838E+01-2.82752E-01-3.67171E-03-1.25951E+00 1.88585E-13 3.28244E-14
 -1      1878 2.32058E+01-5.79021E-01 1.24718E-02-1.05983E+00 1.97899E-13 3.56646E-14
 -1      1879 2.25002E+01-1.44595E-01-1.04628E-02-1.42644E+00 1.24857E-13-3.88656E-14
 -1      1880 2.21051E+01 5.04288E-02 1.23420E-02-1.45311E+00 6.82997E-14-1.88044E-14
 -1      1881 2.29947E+01-2.93618E-01 1.31283E-02-1.58812E+00 1.25449E-13-7.75382E-14
 -1      1882 2.18261E+01 2.54816E-01-8.68225E-03-1.35931E+00 9.45945E-15-9.09047E-14
 -1      1883 2.14932E+01 4.72117E-01 2.22441E-02-1.15242E+00-8.25503E-14-8.43674E-14
 -1      1884 2.25454E+01 2.42294E-01 3.60833E-03-1.69608E+00 2.70803E-14-1.61121E-13
 -1      1885 2.12653E+01 6.39166E-01 1.95337E-03-7.62096E-01-1.11671E-13-9.10843E-14
 -1      1886 2.11185E+01 7.48453E-01 1.85674E-02-3.66598E-01-1.01391E-13-1.38174E-13
 -1      1887 2.20463E+01 8.14359E-01-1.40451E-02-1.16914E+00-6.54346E-14-1.47873E-13
 -1      1888 2.10945E+01 7.66208E-01 1.64589E-02 1.74621E-01-3.95968E-14-2.35056E-14
 -1      1889 2.11938E+01 6.91612E-01 5.12125E-03 5.90115E-01 2.42688E-15-3.18990E-14
 -1      1890 2.17959E+01 1.09658E+00-2.41622E-02-1.17666E-01-9.82200E-15-1.13642E-14
 -1      1891 2.13909E+01 5.47963E-01 2.30599E-02 1.02833E+00-1.71911E-15-1.00634E-13
 -1      1892 2.16961E+01 3.42010E-01-6.77763E-03 1.28180E+00-3.50379E-14-1.00728E-13
 -1      1893 2.19678E+01 9.04712E-01-1.64485E-02 9.90235E-01-5.94915E-14-3.84718E-14
 -1      1894 2.19798E+01 1.34769E-01 1.52584E-02 1.43785E+00-1.57643E-13-9.83536E-14
 -1      1895 2.23737E+01-7.33043E-02-1.07386E-02 1.45533E+00-2.18129E-13-1.33333E-13
 -1      1896 2.24429E+01 3.65366E-01 6.42561E-04 1.64555E+00-1.16378E-13-2.64348E-13
 -1      1897 2.25845E+01-2.29044E-01-6.28815E-04 1.33219E+00-1.74389E-13-1.11287E-13
 -1      1898 2.29401E+01-3.46762E-01-8.26152E-03 1.16866E+00-6.47806E-14-1.39900E-13
 -1      1899 2.29239E+01-2.00567E-01 1.19946E-02 1.65614E+00-1.34833E-13-1.04750E-13
 -1      1900 2.30080E+01-4.07440E-01-1.40282E-02 8.91835E-01 3.03464E-14 2.03179E-14
 -1      1901 2.32392E+01-4.24105E-01-4.86860E-03 6.54765E-01 2.75700E-14 1.68399E-13
 -1      1902 2.31916E+01-5.42673E-01 1.28027E-02 1.19029E+00 5.86926E-14-9.15067E-15
 -1      1903 2.31786E+01-4.08299E-01-1.95804E-02 3.58554E-01-6.94948E-14 1.45277E-13
 -1      1904 2.32595E+01-3.61935E-01-2.43106E-03 1.37702E-01-5.78704E-14 1.28362E-13
 -1      1905 2.31970E+01-6.13682E-01 8.07108E-03 5.47493E-01-1.39316E-14 2.25527E-13
 -1      1906 2.31181E+01-3.10295E-01-1.80237E-02-9.71911E-02-5.17919E-14 1.95367E-13
 -1      1907 2.30673E+01-2.44032E-01-1.16869E-03-2.57456E-01 9.61904E-15 1.00988E-13
 -1      1908 2.30016E+01-5.04266E-01 3.27963E-03-3.68320E-02-3.49239E-14 9.65618E-14
 -1      1909 2.28886E+01-1.88069E-01-1.28967E-02-4.06552E-01-4.43339E-14-3.86093E-14
 -1      1910 2.27456E+01-1.28528E-01-4.79655E-04-4.99115E-01-4.61562E-14-1.19602E-13
 -1      1911 2.26912E+01-3.29495E-01 2.64643E-04-4.54014E-01-1.48988E-13-1.63736E-14
 -1      1912 2.25579E+01-8.35689E-02-7.18196E-03-5.71170E-01-5.85530E-14-2.67108E-13
 -1      1913 2.23640E+01-4.06787E-02 2.12378E-05-6.08270E-01-1.01701E-13-2.62894E-13
 -1      1914 2.23327E+01-1.65688E-01-1.26263E-03-6.91590E-01-1.18780E-13-4.68514E-14
 -1      1915 2.21832E+01-1.03975E-02-2.45585E-03-6.24142E-01-2.56502E-14-1.91831E-13
 -1      1916 2.19718E+01 1.57536E-02 4.60538E-04-6.23419E-01 6.08407E-14-2.25884E-13
 -1      1917 2.19686E+01-4.40097E-02-1.93738E-03-7.83811E-01 2.78727E-15-5.46380E-14
 -1      1918 2.18062E+01 3.32710E-02 8.05078E-04-6.04149E-01 9.55230E-14-2.16455E-13
 -1      1919 2.16004E+01 4.64486E-02 8.18679E-04-5.81442E-01 5.72944E-14-9.44035E-14
 -1      1920 2.16237E+01 3.25908E-02-2.19688E-03-7.76803E-01 1.14987E-13 5.22531E-15
 -1      1921 2.14539E+01 5.47469E-02 2.71156E-03-5.43593E-01-2.83228E-14-9.91731E-14
 -1      1922 2.12670E+01 5.92508E-02 1.06261E-03-5.10559E-01-1.95088E-13-5.76467E-14
 -1      1923 2.13111E+01 7.31302E-02-2.25458E-03-7.11511E-01 5.24233E-15-1.82143E-14
 -1      1924 2.11411E+01 6.16494E-02 3.59221E-03-4.65482E-01-1.31666E-13 1.84875E-13
 -1      1925 2.09795E+01 6.10020E-02 1.18644E-03-4.29663E-01 5.68252E-14 2.37744E-13
 -1      1926 2.10372E+01 8.89715E-02-2.19807E-03-6.18272E-01-1.96963E-14 1.01211E-13
 -1      1927 2.08737E+01 6.00159E-02 3.79172E-03-3.84340E-01-6.75165E-14 2.19059E-13
 -1      1928 2.07390E+01 5.67046E-02 1.21014E-03-3.50080E-01 1.09151E-14 2.09648E-13
 -1      1929 2.08037E+01 8.97764E-02-2.06577E-03-5.17042E-01-6.77099E-14 3.98395E-13
 -1      1930 2.06520E+01 5.40425E-02 3.58986E-03-3.08320E-01-2.25980E-14 1.07585E-13
 -1      1931 2.05430E+01 4.96758E-02 1.16622E-03-2.77760E-01-4.19234E-14 4.08345E-15
 -1      1932 2.06092E+01 8.25256E-02-1.88205E-03-4.19611E-01-6.21945E-14 3.06557E-13
 -1      1933 2.04728E+01 4.64231E-02 3.18507E-03-2.41251E-01 2.42079E-13-8.28997E-14
 -1      1934 2.03868E+01 4.19799E-02 1.08813E-03-2.15121E-01 2.93627E-13 1.05528E-13
 -1      1935 2.04507E+01 7.18142E-02-1.66801E-03-3.32011E-01 3.52014E-14 1.70062E-13
 -1      1936 2.03314E+01 3.87955E-02 2.70394E-03-1.84220E-01 2.14856E-13 1.94623E-13
 -1      1937 2.02653E+01 3.48425E-02 1.00149E-03-1.62397E-01 2.23795E-13 3.66746E-13
 -1      1938 2.03240E+01 6.04867E-02-1.44176E-03-2.56507E-01 3.28183E-13 2.62525E-13
 -1      1939 2.02223E+01 3.21083E-02 2.21610E-03-1.36668E-01 2.33182E-13 3.34531E-13
 -1      1940 2.01730E+01 2.89504E-02 9.16520E-04-1.18540E-01 1.77171E-13 3.60044E-13
 -1      1941 2.02248E+01 5.02147E-02-1.21841E-03-1.93034E-01 2.26582E-13 1.75523E-13
 -1      1942 2.01403E+01 2.68660E-02 1.74730E-03-9.71405E-02 6.74813E-15 4.00965E-13
 -1      1943 2.01051E+01 2.46379E-02 8.38297E-04-8.18745E-02-7.28690E-14 4.20780E-13
 -1      1944 2.01488E+01 4.19143E-02-1.00110E-03-1.40207E-01 1.32169E-13 3.01358E-13
 -1      1945 2.00805E+01 2.31095E-02 1.27232E-03-6.37858E-02-9.46414E-14 4.62348E-13
 -1      1946 2.00571E+01 2.15766E-02 7.35798E-04-5.06315E-02-5.21221E-14 5.17819E-13
 -1      1947 2.00917E+01 3.59778E-02-7.55910E-04-9.60847E-02-8.42190E-14 5.41509E-13
 -1      1948 2.00407E+01 1.99321E-02 9.41462E-04-3.60359E-02-4.55577E-14 4.78529E-13
 -1      1949 2.00263E+01 1.80920E-02 6.80640E-04-2.51928E-02 8.89315E-14 3.10719E-13
 -1      1950 2.00241E+01 2.35960E-02-5.54025E-04-3.05844E-02-9.39847E-14 3.63223E-13
 -1      1951 2.00511E+01 3.03564E-02-8.60123E-04-5.96969E-02-9.27583E-14 6.20040E-13
 -1      1952 1.96049E+01 1.43953E-01 8.04420E-03 2.50291E-01 1.19052E-13 2.75932E-13
 -1      1953 1.98727E+01 2.05581E-01 1.65606E-02 4.24428E-01 1.42754E-13 3.35528E-13
 -1      1954 2.00891E+01 3.52308E-01-1.62663E-03 6.44877E-01 1.73549E-13 2.23065E-13
 -1      1955 1.93748E+01 7.51367E-02 7.17910E-03 4.25840E-02 1.14607E-13 2.14160E-13
 -1      1956 1.94835E+01 1.04509E-01 1.43864E-02 1.33197E-01 9.26134E-14 2.44542E-13
 -1      1957 1.97063E+01 1.68624E-01-2.08925E-03 2.41513E-01 1.28676E-13 1.78176E-13
 -1      1958 1.93023E+01 4.10308E-02 4.76219E-03-7.02688E-02 6.56506E-14 1.79244E-13
 -1      1959 1.93231E+01 5.62166E-02 8.61878E-03-1.97484E-02 8.73347E-14 2.01776E-13
 -1      1960 1.95205E+01 8.61888E-02-3.02503E-03 2.19854E-02 1.12072E-13 1.19083E-13
 -1      1961 1.93269E+01 2.32037E-02 3.32828E-03-1.33531E-01-8.71915E-16 1.35612E-13
 -1      1962 1.92978E+01 3.12921E-02 4.74870E-03-1.04033E-01 4.04024E-14 1.70823E-13
 -1      1963 1.94622E+01 4.56104E-02-3.11874E-03-1.01172E-01 6.01834E-14 8.59603E-14
 -1      1964 1.94119E+01 1.42545E-02 2.62924E-03-1.70666E-01 4.66623E-14 1.31566E-13
 -1      1965 1.93533E+01 1.83325E-02 2.68402E-03-1.52360E-01 9.46758E-15 1.22967E-13
 -1      1966 1.94854E+01 2.51080E-02-2.68972E-03-1.72671E-01 2.00197E-14 6.86610E-14
 -1      1967 1.95365E+01 1.08335E-02 2.31047E-03-1.95291E-01 6.89525E-14 1.56243E-13
 -1      1968 1.94593E+01 1.24145E-02 1.65608E-03-1.82370E-01 5.84098E-14 1.61385E-13
 -1      1969 1.95617E+01 1.57221E-02-2.19764E-03-2.17071E-01 5.69993E-14 8.39881E-14
 -1      1970 1.96906E+01 1.12084E-02 2.20566E-03-2.16213E-01 1.11448E-13 1.05141E-13
 -1      1971 1.95996E+01 1.11414E-02 1.18619E-03-2.04833E-01 9.56692E-14 1.49768E-13
 -1      1972 1.96748E+01 1.33343E-02-1.83388E-03-2.49273E-01 9.44923E-14 1.16754E-13
 -1      1973 1.98706E+01 1.43582E-02 2.25154E-03-2.39582E-01 7.56036E-15 8.50284E-14
 -1      1974 1.97670E+01 1.31778E-02 1.03703E-03-2.26978E-01 6.11464E-14 6.86029E-14
 -1      1975 1.98168E+01 1.57744E-02-1.63490E-03-2.79156E-01 8.57398E-14 9.41919E-14
 -1      1976 2.00780E+01 1.95636E-02 2.41313E-03-2.69865E-01 6.36383E-15 6.26892E-14
 -1      1977 1.99603E+01 1.76636E-02 1.08648E-03-2.53955E-01 1.90466E-14 6.06631E-14
 -1      1978 1.99851E+01 2.17152E-02-1.58468E-03-3.13680E-01 3.95987E-14 5.07702E-14
 -1      1979 2.03177E+01 2.61591E-02 2.65002E-03-3.10213E-01-7.08754E-15 3.70729E-14
 -1      1980 2.01827E+01 2.39042E-02 1.25432E-03-2.89457E-01-4.84422E-16 5.60956E-14
 -1      1981 2.01813E+01 3.01418E-02-1.65862E-03-3.57807E-01 4.66966E-15 3.46242E-14
 -1      1982 2.05964E+01 3.33032E-02 2.89663E-03-3.62392E-01 8.93495E-14-2.90593E-15
 -1      1983 2.04399E+01 3.11343E-02 1.46882E-03-3.35843E-01 2.83085E-14 1.40039E-14
 -1      1984 2.04097E+01 3.99910E-02-1.83416E-03-4.14756E-01 3.98583E-14-1.58026E-14
 -1      1985 2.09216E+01 3.96896E-02 3.04313E-03-4.26275E-01 1.01934E-13 3.35683E-14
 -1      1986 2.07391E+01 3.82535E-02 1.64839E-03-3.93839E-01 4.90333E-14 1.76598E-14
 -1      1987 2.06757E+01 4.97814E-02-2.09016E-03-4.85725E-01 7.37210E-14 1.76200E-14
 -1      1988 2.12993E+01 4.31552E-02 2.91560E-03-4.98763E-01 4.08219E-14 6.49572E-14
 -1      1989 2.10875E+01 4.34735E-02 1.68878E-03-4.61745E-01 8.16304E-14 4.62181E-14
 -1      1990 2.09851E+01 5.71360E-02-2.40189E-03-5.69013E-01 9.14707E-14 3.61991E-14
 -1      1991 2.17310E+01 4.01824E-02 2.26502E-03-5.71972E-01 4.69545E-14 4.01495E-14
 -1      1992 2.14895E+01 4.38503E-02 1.45678E-03-5.33999E-01 6.87161E-14 9.13490E-14
 -1      1993 2.13420E+01 5.81540E-02-2.73143E-03-6.58404E-01 7.84553E-14 5.03746E-14
 -1      1994 2.22104E+01 2.54221E-02 7.91909E-04-6.30617E-01 6.78032E-14 6.01082E-16
 -1      1995 2.19444E+01 3.47571E-02 7.99397E-04-5.99001E-01 3.74987E-14 3.37751E-15
 -1      1996 2.17463E+01 4.67015E-02-3.00691E-03-7.40682E-01 7.90519E-14 1.08777E-13
 -1      1997 2.27174E+01-8.29797E-03-1.74470E-03-6.48951E-01 6.41083E-14 5.69952E-14
 -1      1998 2.24412E+01 9.58459E-03-4.17359E-04-6.36328E-01 7.87709E-14 4.16498E-14
 -1      1999 2.21914E+01 1.39950E-02-3.08112E-03-7.92419E-01 5.63940E-14 3.74763E-14
 -1      2000 2.32125E+01-6.83551E-02-5.27609E-03-5.88841E-01-1.54551E-13-1.19839E-14
 -1      2001 2.29534E+01-3.95231E-02-2.22853E-03-6.14295E-01-6.49142E-14 3.48775E-14
 -1      2002 2.26596E+01-5.04713E-02-2.66571E-03-7.77008E-01-3.19245E-14 6.41457E-15
 -1      2003 2.36318E+01-1.57119E-01-9.01365E-03-4.02943E-01-7.40796E-14-9.62641E-15
 -1      2004 2.34321E+01-1.18254E-01-4.46707E-03-4.90567E-01-1.20912E-13-7.55429E-14
 -1      2005 2.31175E+01-1.54516E-01-1.26748E-03-6.44825E-01-8.42256E-14-7.20114E-14
 -1      2006 2.38860E+01-2.61325E-01-1.11515E-02-5.05957E-02 3.57978E-14 4.59143E-14
 -1      2007 2.38010E+01-2.21687E-01-6.66647E-03-2.21438E-01-3.06890E-14 2.71220E-14
 -1      2008 2.35106E+01-2.92351E-01 1.79364E-03-3.42591E-01-4.18155E-14-3.16188E-14
 -1      2009 2.38734E+01-3.38968E-01-9.33759E-03 4.66113E-01 2.24824E-13 4.17852E-14
 -1      2010 2.39585E+01-3.21216E-01-8.17832E-03 2.12396E-01 1.23936E-13 1.16439E-13
 -1      2011 2.37603E+01-4.27657E-01 6.82415E-03 1.58796E-01 1.02571E-13 7.55950E-14
 -1      2012 2.35122E+01-3.15956E-01-2.80774E-03 1.04813E+00 1.82142E-13-7.88362E-14
 -1      2013 2.37977E+01-3.53707E-01-8.46714E-03 7.61054E-01 2.40483E-13 3.98466E-14
 -1      2014 2.37707E+01-4.78969E-01 1.27181E-02 8.13620E-01 2.73561E-13 3.21462E-14
 -1      2015 2.28048E+01-1.23215E-01 4.50678E-03 1.46398E+00-6.84828E-14-1.27627E-13
 -1      2016 2.32619E+01-2.37427E-01-7.08949E-03 1.25870E+00 3.23448E-14-8.79019E-14
 -1      2017 2.34632E+01-3.40215E-01 1.49904E-02 1.44193E+00 6.52403E-14 1.15101E-13
 -1      2018 2.19182E+01 2.17592E-01 4.86513E-03 1.41802E+00-1.93867E-13 3.05485E-15
 -1      2019 2.24342E+01 5.82237E-02-3.11283E-03 1.43736E+00-1.86903E-13-1.42202E-13
 -1      2020 2.28586E+01 3.48577E-02 8.01494E-03 1.72837E+00-1.58967E-13 9.78453E-14
 -1      2021 2.12058E+01 5.34353E-01-4.78508E-03 7.69259E-01 5.32109E-14 9.21520E-14
 -1      2022 2.15960E+01 4.22702E-01 3.71364E-03 1.07247E+00-4.46119E-14 4.45408E-14
 -1      2023 2.21668E+01 5.21465E-01-7.39223E-03 1.37480E+00-1.34760E-13 8.69530E-15
 -1      2024 2.10423E+01 6.07461E-01-1.57092E-02-2.57041E-01 1.33046E-13 5.15178E-14
 -1      2025 2.11325E+01 6.28928E-01 1.05525E-02 2.13094E-01 1.07039E-13 8.76577E-14
 -1      2026 2.17477E+01 8.39160E-01-1.96519E-02 3.86542E-01 1.59876E-13 8.18462E-14
 -1      2027 2.15407E+01 3.80845E-01-1.44344E-02-1.15442E+00-8.13273E-14 9.23914E-15
 -1      2028 2.12786E+01 5.24290E-01 1.29742E-02-7.52359E-01-2.68362E-14 5.44703E-16
 -1      2029 2.18628E+01 7.67758E-01-1.56576E-02-7.98505E-01 3.10169E-14 5.87030E-15
 -1      2030 2.24359E+01 2.55676E-02-2.09743E-03-1.51609E+00-3.64927E-14-2.16042E-14
 -1      2031 2.19375E+01 1.91173E-01 8.03262E-03-1.35403E+00-6.82033E-14-3.03230E-15
 -1      2032 2.24360E+01 3.57620E-01-5.25884E-04-1.58800E+00-3.11782E-14 1.55084E-14
 -1      2033 2.33065E+01-2.43369E-01 9.33756E-03-1.30611E+00-2.43538E-14 1.25436E-13
 -1      2034 2.27774E+01-1.44528E-01-1.65971E-03-1.38980E+00-1.84835E-14 1.00676E-13
 -1      2035 2.31278E+01-1.22102E-01 7.87000E-03-1.69030E+00-2.58136E-14 2.82753E-13
 -1      2036 2.38583E+01-3.37032E-01 1.29456E-02-7.73522E-01 3.54161E-14 6.68632E-14
 -1      2037 2.34699E+01-3.23442E-01-9.89468E-03-9.93207E-01 1.38500E-14 7.81042E-14
 -1      2038 2.36245E+01-4.25805E-01 4.96890E-03-1.24058E+00 1.35152E-14 2.62306E-13
 -1      2039 2.40168E+01-2.95693E-01 1.03306E-02-2.03308E-01-4.17982E-15-2.21775E-13
 -1      2040 2.38406E+01-3.35197E-01-1.30217E-02-4.39987E-01-2.93203E-14-1.61388E-13
 -1      2041 2.38026E+01-4.87882E-01-1.51612E-04-5.73420E-01 7.40658E-14-3.78642E-14
 -1      2042 2.38506E+01-1.98533E-01 5.27695E-03 2.36643E-01 7.12997E-14-1.72511E-13
 -1      2043 2.38728E+01-2.52772E-01-1.18060E-02 5.22266E-02 5.31328E-14-2.23825E-13
 -1      2044 2.36931E+01-3.92063E-01-3.20027E-03 3.61409E-02 1.09331E-13-2.47875E-13
 -1      2045 2.34753E+01-1.01926E-01 1.09821E-03 5.01254E-01-1.33228E-13-4.38625E-15
 -1      2046 2.36392E+01-1.48403E-01-8.46410E-03 3.88270E-01-5.60454E-14-1.17304E-13
 -1      2047 2.33864E+01-2.43959E-01-3.52488E-03 4.61902E-01-7.79914E-14-4.93251E-14
 -1      2048 2.29971E+01-2.98210E-02-1.28951E-03 6.15334E-01 1.05997E-13 2.19789E-15
 -1      2049 2.32398E+01-6.12440E-02-4.68882E-03 5.64354E-01-3.09371E-14 8.66451E-14
 -1      2050 2.29725E+01-1.11217E-01-2.56919E-03 6.92431E-01-2.22765E-14 8.07301E-14
 -1      2051 2.24938E+01 1.47402E-02-2.18255E-03 6.25927E-01 1.57836E-13 7.95310E-14
 -1      2052 2.27644E+01-2.68642E-03-1.50621E-03 6.18083E-01 1.39264E-13 3.64726E-16
 -1      2053 2.25202E+01-1.79382E-02-1.47936E-03 7.70090E-01 1.08952E-13 1.62079E-13
 -1      2054 2.20146E+01 3.75778E-02-2.18598E-03 5.76839E-01-2.88831E-13 1.06785E-13
 -1      2055 2.22790E+01 3.02418E-02 7.21897E-04 5.94318E-01-8.04031E-14 1.35612E-13
 -1      2056 2.20759E+01 3.65689E-02-7.46382E-04 7.48604E-01 1.50138E-14 3.07357E-13
 -1      2057 2.15859E+01 4.60422E-02-1.80091E-03 5.00020E-01-6.94208E-14 2.83009E-13
 -1      2058 2.18251E+01 4.49416E-02 2.03596E-03 5.29668E-01-1.37892E-13 1.42290E-13
 -1      2059 2.16673E+01 6.22738E-02-3.97850E-04 6.73092E-01-1.87499E-13 1.98788E-13
 -1      2060 2.12187E+01 4.61393E-02-1.32170E-03 4.15636E-01-2.94035E-13 3.37257E-13
 -1      2061 2.14243E+01 4.83946E-02 2.64040E-03 4.49043E-01-2.15750E-13 2.01460E-13
 -1      2062 2.13085E+01 6.97206E-02-3.01966E-04 5.74984E-01-1.65454E-13 2.79115E-13
 -1      2063 2.09143E+01 4.19853E-02-8.84431E-04 3.34938E-01 1.05659E-13 5.32591E-13
 -1      2064 2.10845E+01 4.57269E-02 2.76831E-03 3.67333E-01-2.21880E-14 4.94013E-13
 -1      2065 2.10040E+01 6.69997E-02-3.25154E-04 4.73547E-01-1.98757E-13 2.12918E-13
 -1      2066 2.06684E+01 3.61291E-02-5.32742E-04 2.63291E-01 1.26190E-13 4.09686E-13
 -1      2067 2.08053E+01 4.02513E-02 2.61610E-03 2.92332E-01 1.67789E-13 4.63430E-13
 -1      2068 2.07528E+01 5.94583E-02-3.79792E-04 3.79210E-01 1.95923E-13 2.26860E-13
 -1      2069 2.04742E+01 3.00441E-02-2.65982E-04 2.02480E-01 2.15676E-13 4.81406E-14
 -1      2070 2.05817E+01 3.39413E-02 2.32566E-03 2.27327E-01 1.93271E-13 2.50243E-13
 -1      2071 2.05502E+01 5.03162E-02-4.22690E-04 2.96645E-01 2.53512E-13 3.01793E-13
 -1      2072 2.03241E+01 2.45440E-02-6.60751E-05 1.52252E-01 4.04934E-13-1.13202E-13
 -1      2073 2.04066E+01 2.79073E-02 1.98867E-03 1.72939E-01 3.15124E-13-1.70737E-14
 -1      2074 2.03904E+01 4.13877E-02-4.40367E-04 2.27050E-01 4.46777E-13 1.87246E-14
 -1      2075 2.02106E+01 2.00418E-02 7.77605E-05 1.11219E-01 2.49037E-13-3.13613E-13
 -1      2076 2.02724E+01 2.27565E-02 1.65952E-03 1.28293E-01 3.89122E-13-2.43740E-13
 -1      2077 2.02667E+01 3.36566E-02-4.32518E-04 1.69636E-01 4.44079E-13 2.75219E-14
 -1      2078 2.01275E+01 1.66688E-02 1.64294E-04 7.75753E-02 1.32693E-13-3.39711E-13
 -1      2079 2.01722E+01 1.87061E-02 1.35249E-03 9.17729E-02 1.50535E-13-3.32008E-13
 -1      2080 2.01733E+01 2.74534E-02-4.39596E-04 1.22565E-01 1.59590E-13-1.38177E-13
 -1      2081 2.00693E+01 1.44884E-02 1.85428E-04 4.93465E-02 1.68462E-13-3.91884E-13
 -1      2082 2.00999E+01 1.58991E-02 1.06160E-03 6.15494E-02 1.65536E-13-2.79907E-13
 -1      2083 2.01048E+01 2.30239E-02-4.41804E-04 8.37169E-02 2.07244E-13-2.00593E-13
 -1      2084 2.00317E+01 1.29873E-02 3.55613E-04 2.52061E-02-1.29286E-13-4.36170E-13
 -1      2085 2.00502E+01 1.39452E-02 7.46259E-04 3.58551E-02 1.42997E-13-3.66904E-13
 -1      2086 2.00563E+01 2.01379E-02-3.91306E-04 5.09483E-02 5.85582E-14-2.51719E-14
 -1      2087 2.00133E+01 1.08024E-02 5.24659E-04 1.02267E-02-3.57686E-13-2.31969E-13
 -1      2088 2.00232E+01 1.29375E-02 4.84338E-04 1.86369E-02-3.61920E-13-4.19314E-13
 -1      2089 2.00284E+01 1.85868E-02-2.62718E-04 2.85404E-02-3.34540E-13-7.59146E-14
 -1      2090 2.00140E+01 1.54201E-02 6.87782E-05 1.45285E-02-4.47671E-13 1.78774E-13
 -1      2091 2.00035E+01 1.14422E-01-3.15643E-04 6.35629E-02-5.90541E-14 9.56868E-14
 -1      2092 2.00080E+01 9.40586E-02 5.21463E-04 6.02305E-02-1.74650E-13 1.82961E-13
 -1      2093 2.00120E+01 7.28820E-02-6.74737E-05 5.35395E-02-2.59683E-13-1.90935E-14
 -1      2094 2.00154E+01 5.54215E-02 5.65924E-04 4.54799E-02-3.42449E-13-4.27694E-14
 -1      2095 2.00149E+01 9.15581E-02-9.25249E-05 7.46535E-02-1.91209E-13 9.81081E-14
 -1      2096 2.00156E+01 4.02054E-02 1.37740E-04 3.51891E-02-4.92666E-13-4.17049E-14
 -1      2097 2.00163E+01 2.72817E-02 4.45105E-04 2.54902E-02-4.23174E-13 1.32608E-13
 -1      2098 2.00231E+01 2.94743E-02 2.70191E-04 3.25651E-02-4.19098E-13 1.04132E-13
 -1      2099 2.00218E+01 5.58863E-02-3.06167E-04 5.51843E-02-3.37220E-13 1.49481E-13
 -1      2100 1.99951E+01 1.55480E-01-5.65546E-04 6.28131E-02-9.57662E-15-3.28876E-13
 -1      2101 1.99995E+01 1.35256E-01 2.30006E-04 6.42914E-02-4.58889E-14-1.05911E-13
 -1      2102 2.00024E+01 1.33187E-01 1.15785E-04 8.24879E-02 5.13370E-16-2.49041E-14
 -1      2103 1.99876E+01 1.91939E-01-7.64006E-04 5.15167E-02-4.93817E-14 3.32074E-13
 -1      2104 1.99913E+01 1.74401E-01-1.14098E-04 5.74964E-02-6.67597E-17 9.09996E-14
 -1      2105 1.99902E+01 1.72892E-01 4.49184E-04 7.70715E-02 1.71513E-13-1.52301E-13
 -1      2106 1.99824E+01 2.17734E-01-8.62812E-04 3.17894E-02-4.79077E-15 1.25494E-13
 -1      2107 1.99848E+01 2.06023E-01-4.51547E-04 4.11076E-02-1.70052E-14 3.69893E-13
 -1      2108 1.99800E+01 2.05863E-01 6.95321E-04 5.90982E-02 1.47614E-13 2.48317E-13
 -1      2109 1.99802E+01 2.29192E-01-8.41132E-04 7.01706E-03 9.24786E-14 2.64821E-13
 -1      2110 1.99810E+01 2.25161E-01-7.08787E-04 1.80850E-02-5.05043E-15 2.37485E-13
 -1      2111 1.99733E+01 2.27378E-01 8.55531E-04 3.17492E-02 5.82715E-14 1.60877E-13
 -1      2112 1.99811E+01 2.24718E-01-6.95298E-04-1.88090E-02 3.06151E-13 2.37321E-13
 -1      2113 1.99802E+01 2.28995E-01-8.50518E-04-7.78786E-03 2.41453E-13 3.84992E-13
 -1      2114 1.99711E+01 2.34612E-01 9.07018E-04-5.27735E-04 5.36591E-14 4.14586E-13
 -1      2115 1.99850E+01 2.05031E-01-4.45686E-04-4.15842E-02 1.42615E-13-3.21934E-13
 -1      2116 1.99826E+01 2.16947E-01-8.58922E-04-3.23963E-02 2.66744E-13 5.03171E-14
 -1      2117 1.99735E+01 2.26632E-01 8.41471E-04-3.26665E-02 4.95024E-14 4.20557E-14
 -1      2118 1.99914E+01 1.73720E-01-1.13497E-04-5.74164E-02 1.13301E-13-2.44783E-13
 -1      2119 1.99878E+01 1.91008E-01-7.55356E-04-5.16532E-02 9.85696E-14-3.68260E-13
 -1      2120 1.99803E+01 2.04790E-01 6.87196E-04-5.94769E-02 1.05576E-13-3.48980E-13
 -1      2121 1.99996E+01 1.34272E-01 2.35761E-04-6.40734E-02 1.55940E-13 1.71860E-13
 -1      2122 1.99952E+01 1.54813E-01-5.58882E-04-6.26471E-02 1.75236E-13 2.52797E-13
 -1      2123 1.99904E+01 1.71905E-01 4.26456E-04-7.69410E-02 1.89455E-13-2.07853E-14
 -1      2124 2.00082E+01 9.27813E-02 5.09438E-04-5.98014E-02 9.67376E-14-4.48853E-13
 -1      2125 2.00037E+01 1.13119E-01-3.12576E-04-6.32505E-02 1.32312E-13-4.02349E-13
 -1      2126 2.00026E+01 1.31922E-01 1.25351E-04-8.21573E-02 3.24929E-13-7.89048E-14
 -1      2127 2.00148E+01 5.33975E-02 1.06375E-04-4.50487E-02-2.04871E-13-1.69040E-14
 -1      2128 2.00120E+01 7.18705E-02-4.28055E-05-5.30063E-02-1.54239E-13-1.63308E-13
 -1      2129 2.00150E+01 9.03613E-02-4.60305E-05-7.39178E-02 2.57166E-14-4.87072E-13
 -1      2130 1.11552E+01-5.09281E+00-8.39195E-02 6.64397E+00 1.11022E-13 1.76616E-13
 -1      2131 7.16898E+00-6.42837E+00-3.28300E-01 5.29572E+00 1.12965E-13 2.27679E-13
 -1      2132 6.87421E-01-6.10059E+00-2.54883E-01 7.88326E-01 1.48270E-13 5.73097E-13
 -1      2133 6.83952E-01-6.30716E+00-2.90159E-01-1.14284E+00-3.13083E-14 3.67761E-13
 -1      2134 3.71613E+00-6.37788E+00-3.07527E-01 4.25289E+00 1.59817E-13 1.97425E-13
 -1      2135 1.70980E+00-6.74332E+00-3.57327E-01 2.82791E+00 8.30447E-14 4.46032E-13
 -1      2136 1.99163E+01-3.23539E+00 3.29608E-03 6.71353E+00 2.82552E-13 1.46771E-13
 -1      2137 1.53216E+01-5.05802E+00-2.58846E-01 6.16378E+00 1.94511E-13 8.22675E-14
 -1      2138 2.81429E+01-1.08928E+00 8.87489E-03 4.90320E+00 2.75835E-13 4.06619E-13
 -1      2139 2.34281E+01-2.57120E+00-1.66220E-01 5.36748E+00 3.14526E-13 3.28293E-13
 -1      2140 1.95329E+01 4.02159E+00-2.56917E-02-1.68958E+00-1.07091E-13-2.46313E-13
 -1      2141 1.96578E+01 3.94639E+00-2.42116E-02-1.94459E+00-1.30423E-13-2.11681E-13
 -1      2142 1.99776E+01 3.25765E+00-7.96310E-03-1.89624E+00-1.47278E-13-1.71776E-13
 -1      2143 1.97046E+01 3.59252E+00-9.19008E-03-1.50449E+00-1.06003E-13-2.35742E-13
 -1      2144 3.99914E+01 5.87193E+00 4.39134E-01 1.77235E+00 1.69920E-13 2.41251E-13
 -1      2145 3.73383E+01 4.88681E+00 2.41287E-01 2.69532E+00 2.00034E-13 3.82472E-13
 -1      2146 4.10263E+01 7.11054E+00 3.88908E-01-4.65035E-02 1.47438E-13 3.46986E-13
 -1      2147 4.07826E+01 6.80554E+00 4.10266E-01 1.15025E+00 1.73472E-13 2.53020E-13
 -1      2148 3.94280E+01 6.35919E+00 3.16924E-01-1.56922E+00 1.74416E-13 3.23186E-13
 -1      2149 4.08517E+01 6.92159E+00 4.22579E-01-5.46895E-01 1.74083E-13 4.45532E-13
 -1      2150 3.53014E+01 3.73277E+00 1.78097E-01-3.30450E+00 3.00079E-13 2.81219E-13
 -1      2151 3.83029E+01 4.91664E+00 3.48090E-01-2.33321E+00 2.23210E-13 4.05176E-13
 -1      2152 2.88007E+01 4.08505E-01-3.35371E-02-4.86991E+00 4.22495E-13 2.59237E-13
 -1      2153 3.33647E+01 2.07098E+00 2.93755E-01-4.58347E+00 3.57131E-13 4.34097E-13
 -1      2154 2.14238E+01-3.18317E+00-1.70789E-01-5.70331E+00 2.09943E-13-1.04583E-13
 -1      2155 2.61441E+01-1.09018E+00 1.59745E-01-6.07149E+00 3.10918E-13 1.29730E-13
 -1      2156 1.22884E+01-5.66499E+00-3.44248E-01-5.99791E+00 2.56017E-13-1.92873E-13
 -1      2157 1.70012E+01-4.01865E+00-5.24717E-02-6.87782E+00 1.79967E-13-1.99757E-13
 -1      2158 4.89964E+00-7.06306E+00-4.55401E-01-4.49838E+00 9.52016E-14-3.45834E-13
 -1      2159 8.20024E+00-5.54250E+00-2.27355E-01-5.81521E+00 1.85629E-13-3.29084E-13
 -1      2160 9.31489E-01-7.23222E+00-4.20078E-01-1.90905E+00 1.57790E-13-1.03750E-13
 -1      2161 2.42919E+00-6.56419E+00-3.18275E-01-3.39220E+00 1.23568E-13-2.18159E-13
 -1      2162 5.64841E-01-6.61498E+00-3.27410E-01 1.46044E+00 5.12645E-14-8.57092E-14
 -1      2163 1.52959E-01-7.33703E+00-4.35995E-01-1.55109E-01 1.07178E-13-5.63993E-14
 -1      2164 4.77170E+00-6.12109E+00-2.57009E-01 4.76253E+00-2.77556E-15-1.10995E-13
 -1      2165 2.58681E+00-6.66408E+00-3.31131E-01 3.49297E+00 9.18154E-14-1.72529E-13
 -1      2166 1.08304E+01-4.84669E+00-1.66328E-01 6.45086E+00-5.30687E-14-1.49193E-13
 -1      2167 7.22076E+00-6.52931E+00-4.04519E-01 5.27349E+00-4.24105E-14-9.50628E-14
 -1      2168 8.03954E+00-5.36433E+00-1.32814E-01 6.06930E+00 3.50275E-14-1.49991E-13
 -1      2169 2.02499E+01-2.78421E+00 2.29790E-02 6.82553E+00-4.12448E-14-1.03806E-13
 -1      2170 1.54750E+01-4.69637E+00-2.97028E-01 6.13622E+00 2.45359E-14-1.51795E-13
 -1      2171 2.84177E+01-3.45189E-01 7.03196E-02 5.45560E+00-2.88103E-14-3.01814E-13
 -1      2172 2.34449E+01-1.90986E+00-1.49365E-01 5.67415E+00-8.76521E-14-1.92790E-13
 -1      2173 2.37585E+01-4.00832E+00 7.94765E-02 5.29984E+00-2.21489E-14-1.57790E-13
 -1      2174 3.47030E+01 3.08488E+00 7.83152E-02 2.13619E+00-1.73528E-13-1.99840E-13
 -1      2175 3.16043E+01 1.53926E+00 5.20900E-02 3.25475E+00-7.94781E-14-2.30260E-13
 -1      2176 3.95800E+01 6.71936E+00 4.36244E-01 1.04566E+00-9.99756E-14-3.47944E-13
 -1      2177 3.68700E+01 5.66015E+00 2.04323E-01 1.62971E+00-1.71085E-13-3.62821E-13
 -1      2178 4.01130E+01 7.08751E+00 3.42535E-01-5.79863E-01-2.02782E-13-2.48884E-13
 -1      2179 3.93700E+01 7.23922E+00 2.48966E-01 4.78334E-01-1.26676E-13-2.57280E-13
 -1      2180 3.62556E+01 5.64135E+00 9.74250E-02-1.34771E+00 4.50751E-14-1.62259E-13
 -1      2181 3.96841E+01 6.59087E+00 4.47027E-01-1.00496E+00-1.23568E-13-2.50217E-13
 -1      2182 3.51845E+01 7.65895E+00 2.56177E-01 2.90151E-01-1.80245E-13-1.13562E-13
 -1      2183 3.20111E+01 1.90163E+00 1.01375E-01-3.68848E+00-2.09152E-13-2.15383E-14
 -1      2184 3.49419E+01 3.25374E+00 9.16310E-02-2.28453E+00 1.81938E-14 1.43774E-14
 -1      2185 2.41377E+01-1.45559E+00-1.34170E-01-5.61068E+00-6.05349E-13-1.85019E-13
 -1      2186 2.92464E+01 2.85196E-01 1.56331E-01-5.52012E+00-5.23526E-13-3.03757E-13
 -1      2187 1.61558E+01-4.69589E+00-2.53189E-01-6.15078E+00-3.62821E-13 1.83131E-13
 -1      2188 2.09102E+01-2.72628E+00 5.42136E-02-6.76215E+00-4.80616E-13-3.18634E-14
 -1      2189 7.28677E+00-6.54779E+00-4.03833E-01-5.28105E+00-9.09273E-14 4.02192E-13
 -1      2190 1.13414E+01-4.79175E+00-1.31630E-01-6.60133E+00-2.05835E-13 4.79582E-13
 -1      2191 2.07174E+00-6.68130E+00-3.32860E-01-3.13216E+00-7.40241E-14 3.78086E-13
 -1      2192 4.25139E+00-6.18253E+00-2.73315E-01-4.56179E+00-1.40665E-13 2.80997E-13
 -1      2193 3.60811E+01 3.55373E+00 4.59920E-01 3.78738E+00 2.17930E-13 4.96159E-13
 -1      2194 3.17221E+01 1.60915E+00 1.23363E-01 3.78161E+00 2.31329E-13 4.77174E-13
 -1      2195 3.47524E+01 3.88337E+00 2.77901E-01 6.94860E-01 2.10082E-13 2.62901E-13
 -1      2196 2.37616E+01-4.26944E+00 7.21190E-02 5.20929E+00 8.91509E-14 1.73195E-13
 -1      2197 2.07157E+01 1.10880E+00-2.03954E-02-1.60818E+00-1.80897E-13 8.72427E-14
 -1      2198 3.00279E+01-5.95875E-01 7.29091E-02 3.07964E+00 1.82715E-13 4.19109E-13
 -1      2199 2.87025E+01-2.58994E+00 1.28997E-01 2.34427E+00 5.56499E-14 2.94681E-13
 -1      2200 3.08521E+01-5.71073E-01-2.02502E-01 9.04058E-01 6.12427E-14 3.79974E-13
 -1      2201 2.06142E+01 1.33041E+00-1.89424E-02-1.66656E+00-1.89838E-13-7.51309E-15
 -1      2202 7.50070E+00-5.06581E+00-7.51769E-02 5.85150E+00 4.30211E-14 2.26985E-13
 -1      2203 2.48126E+00-4.50303E+00-1.45927E-01 2.14098E+00 6.58223E-14 5.12257E-13
 -1      2204 2.00186E+01 4.46635E-02 2.77998E-04-4.18565E-02-1.23127E-13 2.10583E-13
 -1      2205 1.54598E+01-5.59521E+00-6.47717E-02 6.69139E+00 6.68354E-14 1.15803E-13
 -1      2206 2.89680E+00-4.36173E+00-1.27341E-01-2.67004E+00-2.29816E-14 4.34930E-13
 -1      2207 7.90753E+00-5.29607E+00-1.24942E-01-6.00588E+00 5.62883E-14 2.63373E-13
 -1      2208 1.62927E+01-5.45909E+00-2.94541E-02-6.75379E+00-1.62537E-13 2.94674E-13
 -1      2209 2.45794E+01-3.81674E+00 5.84575E-02-4.98857E+00-4.95548E-13-2.41251E-13
 -1      2210 3.44906E+01 4.20794E+00 1.55909E-01-6.42723E-01-4.24660E-14-3.25295E-14
 -1      2211 3.22535E+01 4.75630E+00-1.38039E-01 1.15459E+00-1.02723E-13-2.84495E-14
 -1      2212 3.18326E+01 2.55246E+00 4.40946E-02 3.99727E-01-1.50241E-13-3.67761E-14
 -1      2213 3.57957E+01 7.61395E+00 2.73147E-01-8.40247E-02-1.27287E-13-6.02018E-14
 -1      2214 3.00788E+01-6.73095E-01 1.68768E-01 2.49380E+00-6.31023E-14-2.63956E-13
 -1      2215 1.56444E+01-5.47003E+00-3.75238E-02 6.77588E+00 9.65894E-15-1.16254E-13
 -1      2216 2.98664E+00-4.76656E+00-1.49677E-01 3.09753E+00 5.36793E-14-1.25566E-13
 -1      2217 1.83326E+00-4.68691E+00-1.87496E-01-1.43126E+00 7.31915E-14-9.88654E-14
 -1      2218 5.45305E+00-5.27912E+00-1.71317E-01-4.96174E+00 1.13798E-14-2.96707E-13
 -1      2219 1.26495E+01-5.62781E+00-6.47753E-02-6.74980E+00 1.00586E-13-2.10748E-13
 -1      2220 2.14243E+01-4.87678E+00 1.79817E-02-5.83798E+00 5.49560E-14-1.13798E-14
 -1      2221 2.86393E+01-1.96130E+00 1.09643E-01-3.51376E+00 3.02203E-13 4.19775E-13
 -1      2222 3.33859E+01 2.05083E+00 2.50512E-01-1.45022E+00 3.22506E-13 4.49141E-13
 -1      2223 3.60815E+01 5.90808E+00 3.28691E-01-1.42064E-01 2.25819E-13 3.66762E-13
 -1      2224 3.67979E+01 7.02893E+00 3.84615E-01-7.38674E-04 1.84353E-13 1.71696E-13
 -1      2225 3.72517E+01 7.91829E+00 3.84832E-01 3.06793E-02 1.72140E-13 3.55237E-13
 -1      2226 3.43145E+01 4.02081E+00 1.05019E-01 6.63364E-01-1.18600E-13-2.46747E-13
 -1      2227 3.16069E+01 2.39338E+00 5.08254E-02-5.51622E-01-4.70179E-14-1.57874E-13
 -1      2228 3.25635E+01 4.66063E+00-1.61921E-01-9.36617E-01-5.46785E-14-1.68754E-13
 -1      2229 3.06654E+01-2.05028E-01 2.04210E-01-2.49479E+00-4.38989E-13-6.16729E-14
 -1      2230 2.01430E+01 5.11190E-01 4.00677E-03 6.63459E-01 1.63649E-13 1.27458E-13
 -1      2231 2.04064E+01 7.03284E-01 2.08236E-02 9.57059E-01 1.83947E-13 1.54197E-13
 -1      2232 1.95737E+01 3.54029E+00-1.12276E-02-5.81938E-01-2.31234E-14-2.32816E-13
 -1      2233 1.96093E+01 3.49282E+00-1.04537E-02-7.64289E-01-4.79790E-14-2.40076E-13
 -1      2234 1.96557E+01 3.40165E+00-1.29238E-02-9.26944E-01-5.18398E-14-2.32541E-13
 -1      2235 1.97160E+01 3.31897E+00-1.27830E-02-1.11493E+00-7.94122E-14-2.21193E-13
 -1      2236 1.97992E+01 3.05972E+00 3.55541E-04-7.77549E-01-4.07424E-14-2.17370E-13
 -1      2237 1.95262E+01 3.62638E+00-9.64012E-03 9.79650E-02 7.88255E-14-2.06854E-13
 -1      2238 1.95255E+01 3.62722E+00-9.64899E-03-7.88491E-02 4.36813E-14-2.26428E-13
 -1      2239 1.95526E+01 3.58532E+00-9.69669E-03 4.38423E-01 1.12708E-13-2.06613E-13
 -1      2240 1.95349E+01 3.60878E+00-1.02057E-02 2.60063E-01 9.06968E-14-2.08271E-13
 -1      2241 1.96902E+01 3.25525E+00-6.64983E-04 1.65998E-01 7.63575E-14-1.96780E-13
 -1      2242 1.96147E+01 3.48515E+00-1.05419E-02 7.77875E-01 1.48197E-13-1.97762E-13
 -1      2243 1.95783E+01 3.53374E+00-1.13108E-02 5.98365E-01 1.23217E-13-2.07566E-13
 -1      2244 1.97276E+01 3.18902E+00-2.88960E-04 4.78181E-01 1.07605E-13-1.97029E-13
 -1      2245 1.97246E+01 3.30620E+00-1.28481E-02 1.12823E+00 1.95651E-13-1.59362E-13
 -1      2246 1.96624E+01 3.39163E+00-1.29917E-02 9.40176E-01 1.70859E-13-1.83076E-13
 -1      2247 1.98052E+01 3.05040E+00 4.33253E-04 7.89005E-01 1.53984E-13-1.68571E-13
 -1      2248 1.99007E+01 3.01472E+00-1.80437E-02 1.47423E+00 2.22236E-13-1.12710E-13
 -1      2249 1.98030E+01 3.15827E+00-1.52920E-02 1.28419E+00 2.03770E-13-1.40147E-13
 -1      2250 1.99338E+01 2.81876E+00 2.05847E-03 1.09243E+00 1.99064E-13-1.38301E-13
 -1      2251 2.01726E+01 2.54949E+00-2.83113E-02 1.77956E+00 2.47418E-13-3.11973E-14
 -1      2252 2.00252E+01 2.79099E+00-1.71547E-02 1.60465E+00 2.29266E-13-8.16517E-14
 -1      2253 2.01254E+01 2.46117E+00 5.86618E-03 1.35784E+00 2.19076E-13-8.86218E-14
 -1      2254 1.98764E+01 2.76307E-01 5.13575E-03 2.64056E-01 1.39702E-13 8.76404E-14
 -1      2255 2.00308E+01 3.74251E-01 2.02403E-02 4.24634E-01 1.49144E-13 1.17334E-13
 -1      2256 2.02127E+01 6.42358E-01-2.47993E-03 6.84466E-01 1.73172E-13 5.63317E-14
 -1      2257 2.03991E+01 8.60403E-01 1.32585E-02-9.84166E-01-1.49284E-13-4.49352E-14
 -1      2258 2.01913E+01 6.35231E-01-4.18695E-03-6.72100E-01-1.40940E-13-5.36270E-14
 -1      2259 2.54289E+01-4.43215E+00-6.84521E-02 4.09621E+00 2.15938E-14 3.42532E-13
 -1      2260 2.23191E+01-5.23297E+00-1.41550E-02 5.18299E+00-5.86753E-14 1.25233E-13
 -1      2261 2.01302E+01 4.79740E-01 1.62028E-02-4.51575E-01-1.27992E-13-4.87567E-14
 -1      2262 1.99954E+01 3.57518E-01 4.02745E-04-2.75274E-01-1.03301E-13-6.00450E-14
 -1      2263 2.02505E+01 7.58044E-01-2.41111E-03-6.67685E-01-1.45561E-13-7.77129E-14
 -1      2264 1.99374E+01 2.75206E-01 1.08440E-02-1.31185E-01-8.68836E-14-3.49449E-14
 -1      2265 1.98681E+01 2.07153E-01 1.29137E-03-2.70939E-02-6.10616E-14-3.96940E-14
 -1      2266 2.00967E+01 4.35679E-01-4.01459E-03-2.73049E-01-9.42091E-14-7.39352E-14
 -1      2267 1.98308E+01 1.61117E-01 6.41018E-03 6.43180E-02-5.16047E-14-4.69477E-14
 -1      2268 1.98089E+01 1.23143E-01 1.52382E-03 1.27310E-01-3.53583E-14-5.97843E-14
 -1      2269 1.99890E+01 2.55185E-01-3.97760E-03-1.70724E-02-6.37492E-14-8.11363E-14
 -1      2270 1.97926E+01 9.75564E-02 3.62062E-03 1.85900E-01-1.47363E-14-6.84896E-14
 -1      2271 1.98033E+01 7.74500E-02 1.67770E-03 2.25640E-01-1.30873E-14-7.63487E-14
 -1      2272 1.99309E+01 1.53757E-01-3.34002E-03 1.47389E-01-3.96145E-14-9.75070E-14
 -1      2273 1.98045E+01 6.44970E-02 1.91318E-03 2.65094E-01-4.98406E-14-8.42946E-14
 -1      2274 1.98381E+01 5.58819E-02 1.85521E-03 2.92669E-01-2.58997E-14-9.40485E-14
 -1      2275 1.99149E+01 9.92152E-02-2.62158E-03 2.55662E-01-4.29936E-14-1.04757E-13
 -1      2276 1.98531E+01 5.13397E-02 8.62817E-04 3.22493E-01-8.50832E-15-1.18829E-13
 -1      2277 1.99038E+01 5.05624E-02 2.08238E-03 3.45229E-01-3.45722E-14-1.21110E-13
 -1      2278 1.99320E+01 7.46545E-02-2.03994E-03 3.32418E-01-4.87769E-14-1.48198E-13
 -1      2279 1.99299E+01 5.18657E-02 2.23452E-04 3.72143E-01-8.95205E-14-1.26332E-13
 -1      2280 1.99946E+01 5.65688E-02 2.36425E-03 3.95067E-01-1.04633E-13-1.24137E-13
 -1      2281 1.99753E+01 7.04009E-02-1.63513E-03 3.95012E-01-6.27298E-14-1.71740E-13
 -1      2282 2.00303E+01 6.19102E-02-1.46663E-04 4.23830E-01-8.91822E-14-1.10131E-13
 -1      2283 2.01080E+01 7.02941E-02 2.68302E-03 4.50372E-01-7.42553E-14-1.07312E-13
 -1      2284 2.00401E+01 8.02129E-02-1.38596E-03 4.55748E-01-1.03484E-13-1.30755E-13
 -1      2285 2.01528E+01 7.81142E-02-3.30943E-04 4.84205E-01-7.01653E-14-9.49906E-14
 -1      2286 2.02439E+01 8.84526E-02 2.99539E-03 5.16449E-01-2.25008E-14-7.80684E-14
 -1      2287 2.01240E+01 9.93273E-02-1.25916E-03 5.23188E-01-7.85177E-14-8.51326E-14
 -1      2288 2.02980E+01 9.70522E-02-3.74020E-04 5.57143E-01-1.32158E-14-5.36029E-14
 -1      2289 2.04035E+01 1.07267E-01 3.22635E-03 5.95764E-01 1.21626E-15-2.20086E-14
 -1      2290 2.02267E+01 1.23190E-01-1.22817E-03 6.02733E-01-4.54235E-15 2.75783E-15
 -1      2291 2.04681E+01 1.14419E-01-2.87015E-04 6.43511E-01-2.74927E-14-7.23939E-14
 -1      2292 2.05892E+01 1.21618E-01 3.25963E-03 6.87415E-01-1.08117E-13-6.96328E-14
 -1      2293 2.03492E+01 1.46371E-01-1.28384E-03 6.96592E-01-3.64590E-14-8.73710E-14
 -1      2294 2.06663E+01 1.24125E-01-4.50560E-05 7.40343E-01-1.39719E-13-4.25109E-14
 -1      2295 2.08037E+01 1.24078E-01 2.92678E-03 7.86006E-01-1.15901E-13-2.89912E-14
 -1      2296 2.04941E+01 1.61409E-01-1.44460E-03 8.03173E-01-1.10885E-13-9.88923E-14
 -1      2297 2.08967E+01 1.17292E-01 4.17868E-04 8.39386E-01-1.40002E-13-3.63900E-14
 -1      2298 2.10501E+01 1.03924E-01 2.00007E-03 8.79881E-01-1.15559E-13 1.58002E-14
 -1      2299 2.06659E+01 1.57551E-01-1.76851E-03 9.15879E-01-1.18847E-13-6.22660E-14
 -1      2300 2.11640E+01 8.13952E-02 1.20807E-03 9.25001E-01-1.25946E-13-2.54351E-14
 -1      2301 2.13311E+01 4.66014E-02 1.99638E-04 9.48851E-01-9.37333E-14-9.00853E-15
 -1      2302 2.08713E+01 1.19585E-01-2.36160E-03 1.02124E+00-1.45847E-13 3.30678E-14
 -1      2303 2.14736E+01 2.93052E-04 2.44443E-03 9.71620E-01-1.40882E-14-3.67931E-14
 -1      2304 2.16495E+01-6.51745E-02-2.75157E-03 9.61878E-01 9.44015E-15 2.87559E-14
 -1      2305 2.11208E+01 2.75854E-02-3.36008E-03 1.09650E+00-7.14409E-14 4.27599E-14
 -1      2306 2.18301E+01-1.43098E-01 4.18204E-03 9.41571E-01-5.59527E-14 8.66093E-15
 -1      2307 2.20060E+01-2.46254E-01-6.98776E-03 8.76172E-01-4.21958E-14-1.36242E-14
 -1      2308 2.14289E+01-1.40569E-01-4.82754E-03 1.10695E+00-4.19094E-14 2.65011E-14
 -1      2309 2.22343E+01-3.58472E-01 6.16401E-03 7.85428E-01-1.10183E-14-2.00863E-14
 -1      2310 2.23953E+01-4.96131E-01-1.22190E-02 6.40776E-01 6.25867E-14-1.28888E-14
 -1      2311 2.18133E+01-4.00347E-01-6.51615E-03 1.00441E+00-2.72406E-14 6.52869E-14
 -1      2312 2.26727E+01-6.30041E-01 7.42443E-03 4.49371E-01 1.17856E-13-8.83213E-15
 -1      2313 2.27960E+01-7.74164E-01-1.68911E-02 2.10258E-01 1.68567E-13-6.22667E-14
 -1      2314 2.22867E+01-7.40641E-01-7.51641E-03 7.30006E-01 7.93326E-14 2.85710E-14
 -1      2315 2.30987E+01-8.86800E-01 5.95427E-03-9.97059E-02 2.18185E-13-6.66911E-14
 -1      2316 2.31543E+01-9.70719E-01-1.78070E-02-4.19825E-01 2.47950E-13-2.88330E-14
 -1      2317 2.28364E+01-1.08690E+00-5.51098E-03 2.29428E-01 2.01143E-13-6.63623E-14
 -1      2318 2.34164E+01-9.82179E-01-1.01614E-03-8.23885E-01 1.65519E-13-4.05707E-14
 -1      2319 2.33763E+01-9.02906E-01-1.05237E-02-1.15784E+00 1.38110E-13-6.81013E-14
 -1      2320 2.33908E+01-1.27111E+00 1.48235E-03-5.01480E-01 1.98151E-13-8.13732E-15
 -1      2321 2.34877E+01-7.14077E-01-1.52579E-02-1.54501E+00 1.55068E-13-7.11714E-14
 -1      2322 2.33475E+01-3.87540E-01 5.44149E-03-1.75488E+00 9.82003E-14-5.95279E-14
 -1      2323 2.37955E+01-1.04159E+00 1.15936E-02-1.34492E+00 1.73426E-13-1.15358E-13
 -1      2324 2.32310E+01 3.12708E-02-2.99354E-02-1.91113E+00-1.46635E-14-8.36917E-14
 -1      2325 2.30373E+01 5.45637E-01 2.02095E-02-1.83198E+00-6.63185E-15-7.35393E-14
 -1      2326 2.38615E+01-2.18042E-01 1.29108E-02-1.96791E+00 3.15173E-14-4.77669E-14
 -1      2327 2.27711E+01 1.04117E+00-3.20983E-02-1.55337E+00-1.24570E-14-9.96755E-14
 -1      2328 2.26227E+01 1.47549E+00 1.73524E-02-1.12254E+00-1.27363E-14-8.12924E-14
 -1      2329 2.35582E+01 1.03482E+00-3.13428E-03-1.89850E+00-6.84869E-14-1.94714E-14
 -1      2330 2.24584E+01 1.73503E+00-1.05892E-02-4.45550E-01 2.52923E-14-1.11009E-13
 -1      2331 2.24427E+01 1.78130E+00-4.83829E-03 1.72886E-01 3.46181E-14 1.07537E-15
 -1      2332 2.31781E+01 2.06546E+00-2.58897E-02-9.00462E-01-7.98493E-15-1.28187E-13
 -1      2333 2.25568E+01 1.60529E+00 1.56104E-02 8.92882E-01-7.38264E-14-1.03744E-13
 -1      2334 2.26846E+01 1.23082E+00-2.75742E-02 1.38409E+00-1.25307E-13-1.85092E-13
 -1      2335 2.31329E+01 2.18057E+00-2.53099E-02 6.14559E-01-7.11878E-14-1.65152E-13
 -1      2336 2.29565E+01 7.52837E-01 2.20900E-02 1.75867E+00-1.02945E-13-1.51316E-13
 -1      2337 2.31497E+01 2.26362E-01-3.24415E-02 1.90793E+00-1.02965E-13-1.78423E-13
 -1      2338 2.34742E+01 1.28421E+00-8.45662E-03 1.77280E+00-1.07950E-13-1.06343E-13
 -1      2339 2.33084E+01-2.23577E-01 8.79942E-03 1.82663E+00-4.93884E-14-1.34266E-13
 -1      2340 2.34663E+01-5.97452E-01-1.82888E-02 1.66437E+00-2.44730E-14-7.63712E-15
 -1      2341 2.38295E+01 1.46495E-02 1.09349E-02 2.02736E+00-2.59263E-14-3.59903E-14
 -1      2342 2.33986E+01-8.35148E-01-8.32137E-03 1.30693E+00 1.40218E-14 6.72242E-14
 -1      2343 2.34616E+01-9.60626E-01-3.98671E-03 9.85991E-01 1.26959E-13 8.66435E-14
 -1      2344 2.38438E+01-9.20053E-01 1.23277E-02 1.50791E+00 4.89652E-14 7.50179E-14
 -1      2345 2.32219E+01-9.82094E-01-1.77310E-02 5.73950E-01 1.91314E-14 3.13632E-14
 -1      2346 2.31860E+01-9.21228E-01 4.78472E-03 2.44769E-01-3.41680E-14 1.54717E-13
 -1      2347 2.34968E+01-1.26307E+00 2.18627E-03 6.79335E-01 5.30211E-14 6.02254E-14
 -1      2348 2.28857E+01-8.20025E-01-1.78642E-02-8.62717E-02-4.59164E-14 1.07723E-13
 -1      2349 2.27765E+01-6.79880E-01 7.38108E-03-3.41727E-01-7.09840E-14 4.43083E-14
 -1      2350 2.29605E+01-1.13865E+00-5.37200E-03-8.67487E-02-1.10845E-13 4.94635E-14
 -1      2351 2.24932E+01-5.44678E-01-1.33787E-02-5.53134E-01-1.16577E-13-3.33064E-14
 -1      2352 2.23418E+01-4.01398E-01 6.65685E-03-7.13092E-01-1.71962E-13 2.95506E-14
 -1      2353 2.24056E+01-8.04226E-01-7.73557E-03-6.30070E-01-1.23633E-13-1.80559E-14
 -1      2354 2.21060E+01-2.82136E-01-8.01949E-03-8.17968E-01-1.93418E-13 5.03670E-14
 -1      2355 2.19372E+01-1.70055E-01 4.82377E-03-8.93705E-01-1.59821E-13-2.42708E-14
 -1      2356 2.19199E+01-4.51688E-01-7.00167E-03-9.39032E-01-2.02114E-13 9.42930E-14
 -1      2357 2.17511E+01-8.40127E-02-3.50395E-03-9.21113E-01-2.28429E-14 9.49801E-14
 -1      2358 2.15813E+01-9.93856E-03 3.08792E-03-9.35460E-01 1.44703E-13 2.08573E-13
 -1      2359 2.15248E+01-1.70473E-01-5.29243E-03-1.06230E+00 1.41937E-14 2.66841E-13
 -1      2360 2.14364E+01 4.34588E-02-2.90496E-04-9.13712E-01 1.18771E-13 1.78739E-13
 -1      2361 2.12759E+01 8.52819E-02 1.81636E-03-8.89374E-01 1.31804E-13 2.06621E-13
 -1      2362 2.12109E+01 1.88128E-02-3.73106E-03-1.05926E+00 9.01865E-14 4.07999E-13
 -1      2363 2.11622E+01 1.13339E-01 1.71246E-03-8.40519E-01 4.75027E-14 6.20729E-14
 -1      2364 2.10170E+01 1.32049E-01 1.00880E-03-7.95482E-01-1.54986E-13 1.68304E-14
 -1      2365 2.09612E+01 1.28275E-01-2.63842E-03-9.80494E-01 1.55072E-14 1.43368E-13
 -1      2366 2.09266E+01 1.42910E-01 2.77726E-03-7.34822E-01-8.86601E-14-2.96613E-14
 -1      2367 2.07994E+01 1.46874E-01 5.45616E-04-6.81587E-01 7.18313E-14 8.84037E-14
 -1      2368 2.07601E+01 1.79555E-01-1.96648E-03-8.63268E-01-1.34338E-13 1.33029E-13
 -1      2369 2.07268E+01 1.47240E-01 3.18828E-03-6.18862E-01 8.10447E-14 1.70130E-13
 -1      2370 2.06185E+01 1.42789E-01 3.03552E-04-5.65261E-01-3.90087E-14 2.09661E-13
 -1      2371 2.05966E+01 1.93108E-01-1.57289E-03-7.32592E-01 7.27151E-14 1.84278E-13
 -1      2372 2.05598E+01 1.37469E-01 3.18200E-03-5.06120E-01-7.53851E-14 3.22280E-13
 -1      2373 2.04699E+01 1.28930E-01 1.92128E-04-4.56524E-01 1.35802E-15 3.36989E-13
 -1      2374 2.04630E+01 1.84708E-01-1.33173E-03-6.03932E-01 7.76314E-14 4.09566E-13
 -1      2375 2.04225E+01 1.21106E-01 2.93371E-03-4.03811E-01-8.39795E-14 3.76993E-13
 -1      2376 2.03494E+01 1.11241E-01 1.54538E-04-3.60228E-01 8.77974E-14 3.30980E-13
 -1      2377 2.03541E+01 1.65286E-01-1.16127E-03-4.85888E-01 4.48906E-14 5.52656E-13
 -1      2378 2.03114E+01 1.02908E-01 2.56441E-03-3.14947E-01 2.54493E-13 3.31448E-13
 -1      2379 2.02532E+01 9.33918E-02 1.58926E-04-2.77874E-01 2.78093E-13 1.95414E-13
 -1      2380 2.02658E+01 1.41917E-01-1.01706E-03-3.82393E-01 7.59491E-14 4.29612E-13
 -1      2381 2.02228E+01 8.57388E-02 2.15157E-03-2.39882E-01 2.18715E-13 5.31677E-14
 -1      2382 2.01775E+01 7.75181E-02 1.82802E-04-2.08902E-01 2.17009E-13 1.88577E-13
 -1      2383 2.01948E+01 1.18946E-01-8.74884E-04-2.94356E-01 1.21802E-13 2.23549E-13
 -1      2384 2.01533E+01 7.11690E-02 1.73610E-03-1.77405E-01 3.19368E-13 6.85813E-14
 -1      2385 2.01188E+01 6.47148E-02 2.27601E-04-1.51662E-01 2.06244E-13 2.08891E-13
 -1      2386 2.01383E+01 9.88186E-02-7.30987E-04-2.20831E-01 2.43659E-13 2.17209E-13
 -1      2387 2.00995E+01 5.97329E-02 1.29569E-03-1.25530E-01 3.58940E-14 2.03809E-13
 -1      2388 2.00743E+01 5.53088E-02 4.27995E-04-1.04105E-01-1.30904E-13 2.65307E-13
 -1      2389 2.00934E+01 8.27861E-02-5.58960E-04-1.59941E-01 1.31045E-13-1.30837E-13
 -1      2390 1.96654E+01 9.02129E-02 2.83993E-03-1.13415E-01 5.26224E-14 4.19792E-14
 -1      2391 1.96797E+01 1.18987E-01 7.08390E-03-5.97016E-02 8.71663E-14 6.50299E-14
 -1      2392 1.96718E+01 5.51170E-02 2.36547E-03-2.00529E-01 3.45928E-14 1.10679E-14
 -1      2393 1.96503E+01 7.02961E-02 3.91818E-03-1.67536E-01 3.82265E-14 1.45615E-14
 -1      2394 1.98148E+01 1.16798E-01-3.61584E-03-1.36015E-01 7.45384E-14 1.07540E-14
 -1      2395 1.97250E+01 3.85319E-02 2.21937E-03-2.57944E-01 5.53865E-14 4.03079E-14
 -1      2396 1.96794E+01 4.51112E-02 2.12404E-03-2.35566E-01 3.65159E-14 8.57832E-15
 -1      2397 1.98081E+01 7.28045E-02-2.84518E-03-2.36204E-01 4.44796E-14-1.76422E-14
 -1      2398 1.98128E+01 3.43008E-02 2.28430E-03-3.01877E-01 1.00126E-13 3.06165E-14
 -1      2399 1.97497E+01 3.50122E-02 1.10805E-03-2.83560E-01 7.19684E-14 3.30854E-14
 -1      2400 1.98416E+01 5.30937E-02-2.21240E-03-3.05168E-01 5.78419E-14-1.71486E-14
 -1      2401 1.99286E+01 3.88515E-02 2.50979E-03-3.43550E-01 7.96431E-14 4.00461E-14
 -1      2402 1.98509E+01 3.53332E-02 5.46254E-04-3.24739E-01 1.10575E-13 5.43810E-14
 -1      2403 1.99059E+01 4.96979E-02-1.78964E-03-3.60397E-01 9.88242E-14-2.91469E-14
 -1      2404 2.00701E+01 4.97959E-02 2.85891E-03-3.91004E-01 4.87431E-14 4.47641E-14
 -1      2405 1.99783E+01 4.31895E-02 2.68456E-04-3.68423E-01 5.17962E-14 6.00371E-14
 -1      2406 1.99953E+01 5.78871E-02-1.55292E-03-4.14226E-01 6.65278E-14 4.04058E-14
 -1      2407 2.02379E+01 6.51561E-02 3.28345E-03-4.49919E-01 2.01875E-14 2.88931E-14
 -1      2408 2.01308E+01 5.64665E-02 1.73024E-04-4.21288E-01 6.75544E-14 4.87506E-14
 -1      2409 2.01074E+01 7.43815E-02-1.45806E-03-4.75498E-01 5.59265E-14 6.21193E-14
 -1      2410 2.04349E+01 8.27604E-02 3.70767E-03-5.23800E-01 6.31170E-14-1.83338E-14
 -1      2411 2.03101E+01 7.31678E-02 1.93073E-04-4.87836E-01 3.23475E-14 1.94957E-14
 -1      2412 2.02421E+01 9.63044E-02-1.46464E-03-5.50324E-01 5.75343E-14 4.65287E-14
 -1      2413 2.06647E+01 9.95762E-02 4.01012E-03-6.13577E-01 6.15057E-14 1.64632E-15
 -1      2414 2.05198E+01 9.08037E-02 2.84315E-04-5.70289E-01 7.05279E-14 2.48445E-16
 -1      2415 2.04010E+01 1.20306E-01-1.54502E-03-6.42182E-01 5.32169E-14-5.97158E-16
 -1      2416 2.09313E+01 1.10856E-01 4.00239E-03-7.16536E-01 6.57340E-14 3.93235E-14
 -1      2417 2.07642E+01 1.05645E-01 4.22778E-04-6.67863E-01 8.52914E-14 3.34040E-14
 -1      2418 2.05871E+01 1.41575E-01-1.69069E-03-7.51373E-01 5.58727E-14-9.30332E-15
 -1      2419 2.12376E+01 1.09055E-01 3.40871E-03-8.24444E-01 3.98275E-14 8.12048E-14
 -1      2420 2.10478E+01 1.11760E-01 6.09104E-04-7.75312E-01 3.26506E-14 5.97277E-14
 -1      2421 2.08042E+01 1.52583E-01-1.92300E-03-8.73751E-01 4.09477E-14 6.72797E-14
 -1      2422 2.15847E+01 8.26956E-02 1.86043E-03-9.20775E-01 8.72690E-14 9.32859E-14
 -1      2423 2.13743E+01 9.98574E-02 8.78629E-04-8.80593E-01 7.63013E-14 1.24721E-13
 -1      2424 2.10571E+01 1.41580E-01-2.30867E-03-9.98600E-01 1.82505E-14 4.65922E-14
 -1      2425 2.19699E+01 1.58840E-02-1.06183E-03-9.77249E-01 2.84332E-14 8.87797E-14
 -1      2426 2.17459E+01 5.63184E-02 1.30862E-03-9.61612E-01 8.10150E-14 1.29088E-13
 -1      2427 2.13523E+01 9.12258E-02-2.96314E-03-1.10558E+00 6.92826E-14 1.14032E-13
 -1      2428 2.23860E+01-1.09598E-01-5.67618E-03-9.50810E-01-5.15506E-14 6.38398E-14
 -1      2429 2.21617E+01-3.64116E-02 1.99346E-03-9.82560E-01-1.56613E-15 9.12413E-14
 -1      2430 2.16982E+01-2.12836E-02-4.00419E-03-1.16099E+00-1.04751E-14 1.60891E-13
 -1      2431 2.28174E+01-3.05874E-01-1.18606E-02-7.84211E-01-6.32385E-14 4.66294E-15
 -1      2432 2.26148E+01-1.95302E-01 2.93013E-03-8.91707E-01-5.33928E-14 5.45746E-14
 -1      2433 2.21057E+01-2.19404E-01-5.37933E-03-1.11450E+00-6.28139E-14 1.46948E-13
 -1      2434 2.32343E+01-5.58714E-01-1.82354E-02-4.16582E-01-6.53991E-16 3.72738E-14
 -1      2435 2.30853E+01-4.23447E-01 3.70932E-03-6.25414E-01-9.22786E-15 9.67499E-15
 -1      2436 2.25836E+01-5.12106E-01-6.49541E-03-8.99832E-01-2.28290E-14 1.11683E-13
 -1      2437 2.35818E+01-7.95955E-01-2.16635E-02 1.83664E-01 1.45059E-13 4.58824E-15
 -1      2438 2.35260E+01-6.82737E-01 3.20219E-03-1.29009E-01 3.10463E-14-3.26818E-14
 -1      2439 2.31238E+01-8.60608E-01-5.47638E-03-4.47420E-01 6.18828E-14 5.13793E-14
 -1      2440 2.37730E+01-8.61814E-01-1.71929E-02 9.59918E-01 1.81030E-13 1.21489E-13
 -1      2441 2.38467E+01-8.62785E-01-1.12020E-03 5.94142E-01 2.00720E-13 4.47806E-14
 -1      2442 2.36727E+01-1.13707E+00-1.13448E-04 2.74510E-01 1.18624E-13 9.75554E-15
 -1      2443 2.37012E+01-5.51610E-01-2.49854E-03 1.68649E+00 3.19571E-14 1.19374E-13
 -1      2444 2.39119E+01-7.69095E-01-1.16750E-02 1.40128E+00 1.33868E-13 1.38663E-13
 -1      2445 2.40968E+01-1.10135E+00 8.96012E-03 1.18307E+00 1.21407E-13 1.33833E-13
 -1      2446 2.33251E+01 2.07993E-01 1.54760E-02 1.96178E+00-1.49190E-13 1.50765E-14
 -1      2447 2.36187E+01-2.27805E-01-2.53181E-02 1.94595E+00-3.60311E-14 1.41762E-13
 -1      2448 2.42048E+01-5.05538E-01 1.29108E-02 1.97197E+00-1.13191E-15 1.31338E-13
 -1      2449 2.28064E+01 1.11869E+00 1.98402E-02 1.41296E+00 7.36564E-15-2.15997E-13
 -1      2450 2.30561E+01 6.77909E-01-2.85277E-02 1.78429E+00-1.14372E-13-1.26131E-13
 -1      2451 2.39078E+01 6.24824E-01 1.39950E-03 2.12383E+00 3.78031E-14-5.77195E-14
 -1      2452 2.25155E+01 1.57234E+00-2.82310E-04 1.23392E-01 7.29451E-14-5.25237E-14
 -1      2453 2.25888E+01 1.44138E+00-1.34476E-02 7.57741E-01 8.64933E-15-1.84379E-13
 -1      2454 2.34517E+01 1.73734E+00-2.34843E-02 1.26357E+00 2.32661E-14-3.26811E-13
 -1      2455 2.27291E+01 1.20127E+00-2.42295E-02-1.24678E+00-6.37407E-14 1.05992E-14
 -1      2456 2.25794E+01 1.48904E+00 9.84271E-03-6.84512E-01 5.08690E-14 8.31895E-14
 -1      2457 2.32976E+01 2.06763E+00-3.47108E-02-3.27059E-01-2.68015E-14-3.70659E-14
 -1      2458 2.32917E+01 3.09059E-01-2.81373E-02-1.95384E+00-7.29694E-14 1.88913E-13
 -1      2459 2.30079E+01 7.82108E-01 2.09253E-02-1.73597E+00-7.22859E-14 1.37993E-13
 -1      2460 2.36206E+01 1.35175E+00-1.69079E-02-1.72064E+00-1.20372E-13 1.78857E-13
 -1      2461 2.37838E+01-4.88883E-01-1.68066E-02-1.79883E+00-4.69425E-14 2.88355E-13
 -1      2462 2.35061E+01-1.32402E-01 9.70984E-03-1.93842E+00-1.01945E-13 2.36785E-13
 -1      2463 2.40680E+01 1.42243E-01 8.51806E-03-2.17750E+00-1.66331E-13 1.38293E-13
 -1      2464 2.39351E+01-8.45000E-01-4.89929E-03-1.10405E+00 6.11299E-14 1.92929E-13
 -1      2465 2.37682E+01-7.26071E-01-1.01376E-02-1.43321E+00 3.85768E-14 3.11169E-13
 -1      2466 2.42116E+01-8.17138E-01 1.05666E-02-1.71074E+00-9.73277E-14 1.21295E-13
 -1      2467 2.37574E+01-8.06869E-01 3.01977E-03-3.03412E-01 2.84110E-13-4.22202E-14
 -1      2468 2.37310E+01-8.65370E-01-2.01107E-02-6.49126E-01 2.00567E-13 1.31976E-13
 -1      2469 2.39632E+01-1.16955E+00 3.69256E-03-8.28073E-01 1.88549E-13 2.04794E-13
 -1      2470 2.33796E+01-5.77628E-01 4.61950E-03 3.36200E-01 2.10314E-14 2.11558E-14
 -1      2471 2.34717E+01-7.06740E-01-2.01688E-02 7.06885E-02 1.45814E-13 4.12476E-14
 -1      2472 2.34738E+01-1.04892E+00-3.93485E-03 2.64265E-02 2.13923E-13 2.24979E-13
 -1      2473 2.29252E+01-3.22171E-01 3.84899E-03 7.35457E-01-1.65389E-13 1.31446E-13
 -1      2474 2.30950E+01-4.48932E-01-1.49744E-02 5.74673E-01-9.69550E-14 7.27003E-14
 -1      2475 2.29224E+01-7.18778E-01-6.96481E-03 6.39657E-01-1.05508E-13 3.58699E-13
 -1      2476 2.24663E+01-1.18651E-01 2.61391E-03 9.20995E-01 1.06070E-14 1.98374E-13
 -1      2477 2.26752E+01-2.13267E-01-8.65465E-03 8.50684E-01-7.58872E-14 1.38379E-13
 -1      2478 2.24099E+01-3.80267E-01-6.56305E-03 9.86122E-01-1.76498E-13 4.80916E-13
 -1      2479 2.20379E+01 1.45318E-02 1.66673E-03 9.54299E-01 2.66934E-14 3.68096E-13
 -1      2480 2.22572E+01-4.42910E-02-3.32473E-03 9.47194E-01 7.63424E-14 3.15047E-13
 -1      2481 2.19680E+01-1.20473E-01-4.95264E-03 1.11892E+00-5.10442E-16 4.24848E-13
 -1      2482 2.16541E+01 8.79742E-02 1.13030E-03 8.95462E-01-1.48544E-13 4.85642E-13
 -1      2483 2.18648E+01 5.74746E-02 3.61794E-04 9.25850E-01-3.51216E-15 4.12817E-13
 -1      2484 2.15961E+01 4.49831E-02-3.50099E-03 1.10886E+00-2.41039E-14 4.68128E-13
 -1      2485 2.13196E+01 1.19670E-01 8.72282E-04 7.89983E-01-5.30251E-14 2.27986E-13
 -1      2486 2.15106E+01 1.08148E-01 2.54719E-03 8.38608E-01-9.13300E-14 3.53822E-13
 -1      2487 2.12840E+01 1.33447E-01-2.53694E-03 1.01645E+00 2.59726E-15 4.24397E-13
 -1      2488 2.10342E+01 1.25720E-01 7.59147E-04 6.67951E-01-1.69437E-13 1.47315E-13
 -1      2489 2.12002E+01 1.25456E-01 3.60010E-03 7.22259E-01-2.45172E-14 2.22421E-13
 -1      2490 2.10221E+01 1.69237E-01-1.98208E-03 8.85128E-01-3.39854E-14 1.82476E-13
 -1      2491 2.07955E+01 1.17811E-01 7.03641E-04 5.47231E-01-1.07923E-13 1.39236E-14
 -1      2492 2.09352E+01 1.23418E-01 3.89926E-03 5.99932E-01-2.72611E-13 7.15490E-14
 -1      2493 2.08029E+01 1.73182E-01-1.67303E-03 7.42895E-01-1.39077E-13-2.70928E-14
 -1      2494 2.05996E+01 1.03520E-01 6.63984E-04 4.37190E-01 1.49824E-13 1.22079E-13
 -1      2495 2.07141E+01 1.11589E-01 3.74897E-03 4.84607E-01 6.65451E-14-5.43701E-14
 -1      2496 2.06209E+01 1.60132E-01-1.48026E-03 6.06082E-01-5.48997E-14-2.12684E-13
 -1      2497 2.04415E+01 8.74059E-02 6.26821E-04 3.41756E-01 2.94029E-13 7.47656E-14
 -1      2498 2.05333E+01 9.59223E-02 3.36405E-03 3.82491E-01 1.83670E-13 1.93623E-13
 -1      2499 2.04715E+01 1.39632E-01-1.32805E-03 4.83038E-01 1.25097E-13 1.09850E-13
 -1      2500 2.03163E+01 7.20534E-02 5.87460E-04 2.61581E-01 4.48741E-13 2.51669E-13
 -1      2501 2.03883E+01 7.98960E-02 2.88246E-03 2.95588E-01 3.79830E-13 2.52962E-13
 -1      2502 2.03505E+01 1.17390E-01-1.18319E-03 3.77014E-01 2.57287E-13 2.36195E-13
 -1      2503 2.02189E+01 5.89100E-02 5.84346E-04 1.95480E-01 4.40491E-13 1.87478E-13
 -1      2504 2.02741E+01 6.54484E-02 2.38889E-03 2.23467E-01 5.85058E-13 2.88408E-13
 -1      2505 2.02539E+01 9.66092E-02-1.03580E-03 2.88178E-01 4.34467E-13 4.75620E-13
 -1      2506 2.01445E+01 4.84583E-02 5.34403E-04 1.41054E-01 9.32966E-14 1.96636E-13
 -1      2507 2.01857E+01 5.36465E-02 1.91939E-03 1.64208E-01 1.79648E-13 2.98170E-13
 -1      2508 2.01777E+01 7.90492E-02-9.41506E-04 2.15198E-01 2.84812E-13 4.64028E-13
 -1      2509 2.00889E+01 4.07894E-02 4.61002E-04 9.61786E-02 2.12253E-13 2.37613E-13
 -1      2510 2.01191E+01 4.45678E-02 1.54015E-03 1.15606E-01 2.13736E-13 2.76619E-13
 -1      2511 2.01184E+01 6.44882E-02-1.20367E-03 1.55080E-01 1.16549E-13 5.20866E-13
 -1      2512 2.00481E+01 3.53548E-02 4.50210E-04 5.90391E-02-1.01132E-13 2.12170E-13
 -1      2513 2.00697E+01 3.81440E-02 1.27149E-03 7.54647E-02 1.79727E-13 1.56852E-13
 -1      2514 2.00733E+01 5.35721E-02-1.19915E-03 1.05192E-01 2.19811E-13 4.74685E-13
 -1      2515 2.00328E+01 3.12537E-02 7.05893E-04 4.05533E-02-3.62189E-13 9.98127E-14
 -1      2516 1.99775E+01 1.90708E-01-9.39490E-04 9.00815E-02 3.57600E-13 1.58305E-14
 -1      2517 1.99873E+01 1.73853E-01 3.47448E-04 9.68935E-02 2.36293E-13-2.69482E-13
 -1      2518 1.99621E+01 2.21288E-01-9.53032E-04 6.47819E-02 3.14875E-13 5.14341E-13
 -1      2519 1.99694E+01 2.08691E-01-1.25906E-05 7.75917E-02 2.54126E-13 3.99377E-13
 -1      2520 1.99652E+01 2.13216E-01 6.73511E-04 9.83900E-02 4.51520E-13 1.72660E-13
 -1      2521 2.00169E+01 1.09040E-01-5.78148E-04 9.74096E-02 9.45278E-14 2.45406E-13
 -1      2522 2.00273E+01 8.98546E-02 8.29758E-04 9.05351E-02-2.87696E-14 2.38967E-13
 -1      2523 1.99973E+01 1.51447E-01-7.38418E-04 1.01437E-01 5.17065E-14-1.55004E-13
 -1      2524 2.00077E+01 1.32878E-01 6.73713E-04 1.00737E-01 4.80559E-14 2.13113E-13
 -1      2525 2.00139E+01 1.29607E-01-3.86560E-04 1.17882E-01 3.35594E-13 1.82883E-13
 -1      2526 1.99898E+01 1.74358E-01 4.83765E-04 1.17272E-01 3.26786E-13-2.62076E-14
 -1      2527 1.99531E+01 2.39470E-01-8.48063E-04 2.97096E-02 1.50082E-13 2.45741E-13
 -1      2528 1.99569E+01 2.32818E-01-3.61382E-04 4.64290E-02 1.84501E-13 1.65794E-13
 -1      2529 1.99470E+01 2.41624E-01 8.56673E-04 6.50186E-02 2.13706E-13 3.05589E-13
 -1      2530 1.99514E+01 2.43078E-01-6.36431E-04-9.74319E-03 1.75437E-13 5.17231E-13
 -1      2531 1.99513E+01 2.43245E-01-6.57292E-04 8.27764E-03-1.85298E-14 5.66307E-13
 -1      2532 1.99374E+01 2.56356E-01 9.50882E-04 2.21169E-02 1.91530E-13 2.95730E-13
 -1      2533 1.99574E+01 2.31734E-01-3.48387E-04-4.76294E-02-8.43808E-15-1.23261E-13
 -1      2534 1.99534E+01 2.38713E-01-8.55104E-04-3.10735E-02 4.28008E-14 1.39630E-13
 -1      2535 1.99377E+01 2.55774E-01 9.40741E-04-2.39379E-02 1.27895E-13 3.40432E-13
 -1      2536 1.99698E+01 2.07474E-01-2.49907E-06-7.78197E-02 9.24063E-14-3.32390E-13
 -1      2537 1.99626E+01 2.19999E-01-9.47175E-04-6.54288E-02 1.53057E-14-1.84682E-13
 -1      2538 1.99476E+01 2.40214E-01 8.46940E-04-6.61040E-02 1.95988E-14-1.06340E-13
 -1      2539 1.99876E+01 1.72380E-01 3.21742E-04-9.66774E-02 2.08192E-13 6.75359E-14
 -1      2540 1.99779E+01 1.89344E-01-9.21413E-04-9.00422E-02 2.10880E-13-1.39680E-13
 -1      2541 1.99657E+01 2.11449E-01 6.35421E-04-9.86129E-02 1.80481E-13-2.39136E-13
 -1      2542 2.00079E+01 1.30777E-01 5.23521E-04-1.00543E-01 8.20981E-14-3.86666E-13
 -1      2543 1.99975E+01 1.50120E-01-7.30216E-04-1.01138E-01 1.32987E-13 1.98237E-14
 -1      2544 1.99898E+01 1.72459E-01 3.51276E-04-1.16796E-01 9.97840E-14-1.30927E-13
 -1      2545 2.00269E+01 8.77658E-02 6.27050E-04-8.89126E-02-9.43019E-14-3.85350E-13
 -1      2546 2.00177E+01 1.07241E-01-4.30436E-04-9.65615E-02 1.79764E-14-7.04580E-13
 -1      2547 2.00156E+01 1.27482E-01-1.24458E-04-1.17530E-01-4.34367E-14-4.84571E-13
 -1      2548 4.70316E+00-3.21864E+00 4.53614E-02 3.69864E+00 3.08642E-14 4.72344E-13
 -1      2549 3.55489E+00-2.48218E+00 9.52517E-02 1.29976E+00 9.47228E-14 3.55160E-13
 -1      2550 1.92063E+01-5.35812E+00 2.05024E-02 6.41363E+00 5.55667E-14 2.93168E-15
 -1      2551 1.50445E+01-5.08037E+00 7.60621E-02 6.62972E+00-3.78031E-14 1.27384E-13
 -1      2552 1.97251E+01 1.55632E-01 3.83594E-03 2.80812E-02 1.03759E-13 6.29400E-14
 -1      2553 1.97945E+01 2.08120E-01 1.24983E-02 1.19547E-01 1.16048E-13 7.99384E-14
 -1      2554 1.98757E+01 1.99954E-01-4.20495E-03 2.12183E-02 9.95498E-14 2.42081E-14
 -1      2555 2.00306E+01 4.99794E-02 6.33614E-04-5.59883E-02-1.10498E-13 4.43348E-13
 -1      2556 3.92389E+00-2.34083E+00 1.08757E-01-1.70064E+00 5.68087E-14 4.04843E-13
 -1      2557 5.36856E+00-2.92714E+00 9.00773E-02-4.10693E+00 2.18714E-14 3.65707E-13
 -1      2558 1.01378E+01-4.00608E+00 3.72358E-02 6.23193E+00-2.76446E-14 1.37251E-13
 -1      2559 6.98200E+00-3.72886E+00 7.25108E-02 5.01998E+00-2.48968E-14 2.52021E-13
 -1      2560 7.54532E+00-2.30266E+00 1.68530E-01 4.26417E+00-6.82232E-14 3.25351E-13
 -1      2561 3.27535E+01 3.81217E+00-1.14141E-01-7.70301E-01 1.45911E-13 2.96430E-14
 -1      2562 3.18401E+01 2.09351E+00-5.98809E-02-4.57103E-01 1.29480E-13 1.17129E-13
 -1      2563 7.92745E+00-3.95962E+00 6.97338E-02-5.64091E+00-3.66374E-15 2.32925E-13
 -1      2564 1.10989E+01-4.61547E+00 1.05413E-02-6.79906E+00 1.62093E-14 3.41199E-13
 -1      2565 3.25191E+01 7.36918E+00-1.27957E-01-3.31820E-01-1.48825E-13 2.40759E-13
 -1      2566 3.26285E+01 6.67760E+00-7.63581E-02-7.71462E-01-1.22069E-13 6.19504E-14
 -1      2567 5.59002E+00-2.93730E+00 7.47313E-02 4.28734E+00-4.99600E-14-1.67200E-13
 -1      2568 3.74584E+00-2.69252E+00 9.39770E-02 1.89959E+00-4.25285E-14-8.09908E-14
 -1      2569 1.95328E+01 3.61188E+00-1.01636E-02-2.40944E-01 3.36376E-14-2.35837E-13
 -1      2570 1.95490E+01 3.59035E+00-9.65055E-03-4.19177E-01 1.07825E-14-2.30245E-13
 -1      2571 1.97235E+01 3.19488E+00-3.82283E-04-4.63718E-01 1.15213E-15-2.14390E-13
 -1      2572 1.96887E+01 3.25742E+00-6.83945E-04-1.48741E-01 3.84014E-14-2.05183E-13
 -1      2573 3.31190E+01 7.18573E+00-1.09332E-01 3.87404E-01 6.62803E-14 4.61520E-13
 -1      2574 3.32869E+01 7.40508E+00-1.12581E-01-3.20964E-02 1.02862E-13 4.59674E-13
 -1      2575 3.32904E+01 6.81203E+00-1.19642E-01-6.39571E-01 1.27787E-13 2.48274E-13
 -1      2576 3.28451E+01 5.72585E+00-1.07913E-01-8.58659E-01 1.24623E-13 2.12580E-13
 -1      2577 3.25182E+01 4.36905E+00-8.10531E-02 8.76747E-01 2.01394E-13 5.44231E-13
 -1      2578 3.31325E+01 5.93810E+00-1.18321E-01 8.64736E-01 1.42997E-13 4.93799E-13
 -1      2579 3.09127E+01 9.69513E-02-5.74713E-02-5.51910E-01 2.85556E-13 5.77427E-13
 -1      2580 3.22851E+01 2.01787E+00-1.13458E-01 2.10531E-01 2.21712E-13 5.89417E-13
 -1      2581 2.71802E+01-3.45497E+00-1.29083E-02-2.89787E+00 1.00531E-13 5.24442E-13
 -1      2582 2.96129E+01-1.89519E+00-6.76287E-02-1.96382E+00 2.74995E-13 6.01630E-13
 -1      2583 2.02625E+01-5.44287E+00 6.25287E-02-5.77619E+00-2.55074E-14 7.02355E-14
 -1      2584 2.41992E+01-4.88099E+00-6.30420E-02-4.87114E+00-1.85962E-15 2.87936E-13
 -1      2585 1.17727E+01-5.00547E+00 4.65459E-02-6.51309E+00-4.35207E-14-1.92193E-13
 -1      2586 1.54906E+01-5.26918E+00-4.73932E-02-6.92925E+00-1.70974E-14-4.24522E-14
 -1      2587 5.77494E+00-3.57819E+00 6.80740E-02-4.49182E+00 3.33067E-14-1.76970E-13
 -1      2588 8.46055E+00-4.24955E+00 2.91272E-02-6.04946E+00-7.66054E-15-2.76168E-13
 -1      2589 1.16897E+01-3.91537E+00 1.34846E-01-6.23066E+00-9.86988E-14-1.63258E-13
 -1      2590 3.13139E+00-2.66175E+00 7.12157E-02-2.70340E-01-3.27854E-14-1.48603E-13
 -1      2591 3.93807E+00-2.72476E+00 8.70455E-02-2.53682E+00 2.95458E-14-1.66922E-13
 -1      2592 1.13311E+01-4.61686E+00 3.14967E-02 6.81029E+00-1.37668E-14-1.14408E-13
 -1      2593 8.65516E+00-3.97493E+00 9.62857E-02 5.87504E+00 1.26288E-14-1.17684E-13
 -1      2594 1.92134E+01-5.30484E+00-1.16152E-02 6.50376E+00 7.60503E-15-3.81778E-14
 -1      2595 1.48897E+01-5.30788E+00 3.38665E-02 6.69382E+00-4.32987E-15-1.01044E-13
 -1      2596 1.51978E+01-4.57863E+00 1.17836E-01 6.53356E+00 2.33147E-14-9.77274E-14
 -1      2597 2.56454E+01-4.16346E+00-7.32368E-02 4.25924E+00 9.21485E-15-2.05780E-13
 -1      2598 2.26888E+01-4.99877E+00 7.76123E-03 5.08944E+00 2.40918E-14-5.45397E-14
 -1      2599 2.85532E+01-2.30196E+00-3.95045E-02-2.05586E+00-4.47559E-13-2.24987E-13
 -1      2600 3.03014E+01-4.64887E-01-1.28829E-01-6.93926E-01-2.64018E-13-9.81992E-14
 -1      2601 3.01349E+01-7.81129E-01-1.32490E-01 7.59510E-01-8.26561E-14-4.26326E-14
 -1      2602 2.81254E+01-2.70883E+00 2.75313E-03 2.42906E+00 1.03945E-14-1.57430E-13
 -1      2603 3.16169E+01 6.46405E+00-1.72836E-01 8.82642E-01-1.04805E-13 1.32741E-13
 -1      2604 3.21562E+01 7.28035E+00-1.10652E-01 3.44863E-01-9.78106E-14 1.78663E-13
 -1      2605 2.36170E+01-4.86175E+00 3.86041E-02-4.62949E+00-2.70450E-13-1.84575E-13
 -1      2606 2.66322E+01-3.80193E+00-6.14742E-02-3.70570E+00-5.15116E-13-3.30680E-13
 -1      2607 2.76769E+01-3.51204E+00 2.22917E-02-1.85288E+00-3.51816E-13-3.86635E-13
 -1      2608 1.51128E+01-5.25113E+00 6.14858E-02-6.66486E+00 1.08025E-13 3.21652E-13
 -1      2609 1.93773E+01-5.34458E+00-5.51915E-02-6.42158E+00-5.70932E-14 1.74062E-13
 -1      2610 2.05414E+01 1.95783E+00-1.35622E-02-1.88907E+00-1.92697E-13-7.14533E-14
 -1      2611 2.04064E+01 1.22117E+00-6.17383E-03-1.27344E+00-1.70705E-13-5.88679E-14
 -1      2612 2.03757E+01 1.38339E+00 3.73459E-03-1.21360E+00-1.65014E-13-8.62574E-14
 -1      2613 2.02873E+01 2.36865E+00-7.88491E-03-1.81228E+00-1.76545E-13-1.04826E-13
 -1      2614 2.04778E+01 8.76918E-01-7.08844E-03 1.21633E+00 2.02052E-13 1.69283E-13
 -1      2615 2.08251E+01 1.25767E+00-5.96953E-03 1.71780E+00 2.00919E-13 2.03428E-13
 -1      2616 2.06357E+01 1.71646E+00-1.57984E-02 1.91062E+00 2.23209E-13 1.20074E-13
 -1      2617 2.04439E+01 1.06197E+00-9.49872E-03 1.22711E+00 1.98957E-13 7.09766E-14
 -1      2618 3.07965E+01 6.80425E+00-5.81366E-02-5.78476E-01 2.27596E-14 4.33042E-13
 -1      2619 1.99234E+01 2.83326E+00 1.23248E-03-1.08133E+00-8.25591E-14-2.01724E-13
 -1      2620 1.97935E+01 3.17535E+00-1.48489E-02-1.27118E+00-9.75260E-14-2.23186E-13
 -1      2621 1.98881E+01 3.03718E+00-1.70507E-02-1.46037E+00-1.16413E-13-2.22656E-13
 -1      2622 2.00070E+01 3.52989E-01-3.80100E-03 2.74729E-01 1.37134E-13 2.37410E-14
 -1      2623 2.04186E+01 2.11807E+00-1.26991E-02 1.86216E+00 2.28862E-13 3.33691E-14
 -1      2624 2.23522E+01-5.21736E+00 7.58346E-02-5.00645E+00-1.25788E-13 1.01308E-14
 -1      2625 3.05599E+01 1.87199E-01-2.52370E-02-4.92515E-01 4.94327E-14 5.85643E-14
 -1      2626 3.09073E+01 5.32379E+00-9.93885E-02 1.35061E+00-7.87981E-14 1.32006E-13
 -1      2627 2.87645E+01 5.58553E+00-1.40851E-01 1.53541E+00-3.01981E-14 2.77042E-13
 -1      2628 2.93934E+01 3.93998E+00-1.39588E-01 1.71190E+00-2.94764E-14 2.10568E-13
 -1      2629 2.16275E+01-5.43146E+00 3.88931E-02 5.26397E+00-8.16569E-14 6.05106E-14
 -1      2630 2.80479E+01-3.41330E+00-1.96708E-01 1.10046E+00 6.25021E-15 1.61343E-13
 -1      2631 2.72837E+01-3.86159E+00 3.76605E-02 2.64957E+00 4.64906E-14 1.78135E-13
 -1      2632 2.58496E+01-4.60941E+00 3.34327E-02 2.94966E+00-7.32053E-14 9.82825E-14
 -1      2633 3.05803E+01 2.87450E-01-2.84437E-02-3.56412E-01-5.19029E-15-1.12826E-13
 -1      2634 2.90546E+01-1.36359E+00-3.10598E-02-1.46121E-01 4.23828E-14 3.15303E-14
 -1      2635 2.97911E+01 1.23439E+00-1.67591E-01-1.49463E+00 4.34930E-14-1.17822E-13
 -1      2636 8.36087E+00-2.60193E+00 1.40284E-01-4.83772E+00 2.44249E-14 2.91378E-13
 -1      2637 2.00386E+01 4.68671E-02 3.01628E-06 6.34236E-02-1.88031E-13 2.19167E-13
 -1      2638 2.00375E+01 6.15444E-02-4.92716E-05 7.51229E-02-1.05427E-13 2.56929E-13
 -1      2639 2.18813E+01-5.30131E+00 7.50062E-02 5.29049E+00 4.76286E-14 2.04420E-14
 -1      2640 6.15416E+00-8.94714E-01 1.08571E-01 1.24064E+00 4.35173E-14 3.27322E-13
 -1      2641 4.82908E+00-1.62713E+00 1.56957E-01-2.22035E-01 4.00366E-14 4.24633E-13
 -1      2642 6.59809E+00-7.58923E-01 1.49407E-01-1.47717E+00 8.80806E-14 4.02511E-13
 -1      2643 1.69047E+01-4.46976E+00 3.02873E-02 6.05157E+00-1.63147E-13-1.02557E-14
 -1      2644 1.36986E+01-4.28710E+00 1.24312E-01 6.46498E+00-9.95592E-14 1.89959E-13
 -1      2645 1.26840E+01-3.13915E+00 1.57616E-01 5.95506E+00-1.28023E-13 7.41490E-14
 -1      2646 6.60798E+00-2.17126E+00 1.54977E-01-3.52473E+00-1.70697E-14-2.32148E-13
 -1      2647 2.04361E+01 1.81359E+00 1.25130E-02 1.54720E+00 2.12121E-13 8.85837E-15
 -1      2648 3.08924E+01 4.39253E+00-4.78232E-02-1.65480E+00 4.92939E-14 6.96387E-14
 -1      2649 1.47839E+01-4.49318E+00 1.25625E-01-6.56575E+00 5.92026E-14 3.17038E-13
 -1      2650 3.08998E+01 5.16339E+00-7.74627E-02-1.27005E+00-6.37268E-14 1.85185E-13
 -1      2651 1.91523E+01-5.23456E+00 1.04364E-01-5.99123E+00-6.02851E-14 8.36753E-14
 -1      2652 2.60743E+01-4.59487E+00 3.11506E-03-3.13610E+00 1.87905E-14 4.98768E-13
 -1      2653 3.05409E+01 5.90938E-01-4.20313E-02 5.01370E-01-6.01880E-14-1.08247E-14
 -1      2654 2.95025E+01 1.49863E+00-2.08284E-01 1.70902E+00-4.16334E-17 1.18100E-13
 -1      2655 2.90995E+01-9.35089E-01 1.61677E-02 5.62822E-01-1.67172E-13-9.13297E-14
 -1      2656 2.98735E+01-1.31271E+00 2.25804E-02-1.05482E-01 1.70305E-13 6.07736E-13
 -1      2657 5.54099E+00-1.39473E+00 1.83026E-01 8.94765E-01-1.01631E-13-1.45994E-13
 -1      2658 3.09820E+01 2.76291E+00-3.30850E-02 1.44341E+00 2.15161E-13 6.76043E-13
 -1      2659 8.77018E+00-2.59884E+00 1.61052E-01 4.93840E+00-6.83620E-14-1.07914E-13
 -1      2660 3.01051E+01 6.92353E+00-9.35461E-02 4.50936E-02-6.07292E-14 3.59242E-13
 -1      2661 1.99937E+01 2.84781E+00-1.51679E-02-1.57084E+00-1.28777E-13-2.00995E-13
 -1      2662 2.01356E+01 2.62013E+00-2.19003E-02-1.73783E+00-1.57471E-13-1.56803E-13
 -1      2663 2.02841E+01 2.05872E+00 1.46108E-03-1.46847E+00-1.64037E-13-1.27480E-13
 -1      2664 2.00915E+01 2.50664E+00 2.66814E-03-1.32334E+00-1.19897E-13-1.95389E-13
 -1      2665 3.08273E+01 6.21318E+00-5.39738E-02 1.09865E+00 8.78464E-14 5.19848E-13
 -1      2666 2.72012E+01-3.76344E+00 4.68230E-02 2.42706E+00 5.12784E-14-6.25333E-14
 -1      2667 2.00471E+01 4.85597E-02 6.74915E-04-7.17522E-02-3.25358E-14 5.07051E-13
 -1      2668 2.00354E+01 6.86268E-02-4.78302E-04-8.26536E-02-4.42994E-14 4.07018E-14
 -1      2669 2.00421E+01 8.68865E-02 4.27640E-04-1.06911E-01-4.21577E-14-1.51692E-13
 -1      2670 2.00641E+01 5.25254E-02 1.15851E-03-8.85791E-02-1.22161E-13 3.77761E-13
 -1      2671 2.00452E+01 7.92413E-02 6.65796E-04 9.98126E-02 1.32873E-13 3.66055E-13
 -1      2672 2.00628E+01 7.08775E-02-7.60408E-04-1.16001E-01-5.70031E-14-5.75769E-14
 -1      2673 1.98543E+01 2.80194E+00-6.27844E-03 5.02765E-01 1.10585E-13-1.85588E-13
 -1      2674 1.98286E+01 2.85343E+00-5.86212E-03 3.55028E-01 8.85521E-14-1.83353E-13
 -1      2675 1.98111E+01 2.89289E+00-5.66357E-03 2.23711E-01 7.82633E-14-1.92566E-13
 -1      2676 1.98022E+01 2.91043E+00-5.54959E-03 7.27967E-02 6.58677E-14-1.87849E-13
 -1      2677 1.99550E+01 2.54897E+00 3.90126E-03 2.55608E-01 7.93907E-14-1.76475E-13
 -1      2678 2.00548E+01 2.34694E+00-1.06012E-02 1.02426E+00 1.99218E-13-1.22299E-13
 -1      2679 1.99906E+01 2.49899E+00-6.50896E-03 8.89669E-01 1.79241E-13-1.33006E-13
 -1      2680 2.02255E+01 1.92287E+00-1.19344E-02 1.20599E+00 2.09592E-13-7.84871E-14
 -1      2681 2.01348E+01 2.16415E+00-4.97524E-03 1.11202E+00 2.07557E-13-1.04871E-13
 -1      2682 2.01999E+01 1.91203E+00 6.52437E-03 9.01148E-01 1.83060E-13-1.00725E-13
 -1      2683 2.02213E+01 7.40526E-01-3.12570E-03 6.17344E-01 1.67893E-13-1.21872E-14
 -1      2684 2.03586E+01 9.62250E-01 9.16231E-03 8.85304E-01 1.79399E-13 8.28873E-17
 -1      2685 2.89082E+01 4.45188E+00-1.94121E-01-1.81418E+00-8.94840E-14 5.70655E-14
 -1      2686 2.91624E+01 2.94216E+00-8.96762E-02-2.21493E+00-1.17711E-13-8.92342E-14
 -1      2687 2.03408E+01 1.50820E+00-1.72405E-03 1.24950E+00 1.99290E-13-1.08017E-14
 -1      2688 2.02310E+01 6.51695E-01 8.46007E-03-3.99502E-01-1.05139E-13-9.80204E-14
 -1      2689 2.01526E+01 5.04542E-01-2.90872E-03-2.33550E-01-8.70764E-14-9.22726E-14
 -1      2690 2.01293E+01 3.97172E-01 6.40799E-03-1.04498E-01-8.09470E-14-9.20954E-14
 -1      2691 2.00785E+01 3.09258E-01-1.15962E-03 3.77743E-03-6.60663E-14-1.14442E-13
 -1      2692 2.02144E+01 5.68498E-01-1.81521E-03-2.08110E-01-9.30694E-14-1.00951E-13
 -1      2693 2.00559E+01 2.46030E-01 4.27437E-03 9.21219E-02-3.79724E-14-1.09178E-13
 -1      2694 2.00314E+01 1.94961E-01-4.33783E-05 1.63185E-01-2.85869E-14-1.01305E-13
 -1      2695 2.01528E+01 3.54560E-01-2.28854E-03 2.15109E-02-5.42983E-14-1.28934E-13
 -1      2696 2.00149E+01 1.59471E-01 2.58148E-03 2.24033E-01-3.73888E-14-1.19589E-13
 -1      2697 2.00118E+01 1.32591E-01 7.08147E-04 2.72690E-01-5.28734E-14-1.26794E-13
 -1      2698 2.01059E+01 2.28458E-01-2.12450E-03 1.80405E-01-6.22504E-14-1.26539E-13
 -1      2699 2.00024E+01 1.15622E-01 1.32830E-03 3.17047E-01-6.33612E-14-1.31421E-13
 -1      2700 2.00160E+01 1.05355E-01 1.24660E-03 3.53846E-01-6.42893E-14-1.49974E-13
 -1      2701 2.00770E+01 1.60611E-01-1.77613E-03 2.93063E-01-6.56689E-14-1.54417E-13
 -1      2702 2.00132E+01 1.01267E-01 4.20700E-04 3.90242E-01-3.48423E-14-1.46923E-13
 -1      2703 2.00400E+01 1.02723E-01 1.66992E-03 4.22720E-01-5.23522E-14-1.26582E-13
 -1      2704 2.00648E+01 1.32938E-01-1.42198E-03 3.79569E-01-3.87309E-14-1.41575E-13
 -1      2705 2.00428E+01 1.07713E-01-2.28271E-04 4.57574E-01-4.75144E-14-8.15584E-14
 -1      2706 2.00808E+01 1.17371E-01 2.02825E-03 4.91092E-01-5.24267E-14-4.65093E-14
 -1      2707 2.00668E+01 1.33574E-01-1.12421E-03 4.55378E-01-2.22889E-14-5.29784E-14
 -1      2708 2.00884E+01 1.28472E-01-6.78833E-04 5.29096E-01-9.00517E-14 3.03612E-15
 -1      2709 2.01366E+01 1.43331E-01 2.33818E-03 5.67291E-01-4.80762E-14 1.84199E-14
 -1      2710 2.00806E+01 1.53916E-01-8.98398E-04 5.32021E-01-2.17143E-14 2.45789E-14
 -1      2711 2.01488E+01 1.57724E-01-9.60950E-04 6.11638E-01-4.08351E-14 2.85900E-15
 -1      2712 2.02070E+01 1.74636E-01 2.59124E-03 6.56566E-01-1.44885E-15-2.29950E-14
 -1      2713 2.01048E+01 1.86633E-01-7.49221E-04 6.17709E-01-6.59965E-14 4.31935E-15
 -1      2714 2.02243E+01 1.89042E-01-1.07025E-03 7.08984E-01-1.70786E-14-9.81118E-14
 -1      2715 2.02931E+01 2.04055E-01 2.75760E-03 7.60990E-01-8.50363E-14-9.89609E-14
 -1      2716 2.01390E+01 2.24088E-01-6.93933E-04 7.17624E-01-5.67896E-14-7.73468E-14
 -1      2717 2.03171E+01 2.14082E-01-9.59102E-04 8.21573E-01-8.62059E-14-7.59297E-14
 -1      2718 2.03979E+01 2.21700E-01 2.78653E-03 8.78892E-01-8.92508E-14-3.93712E-14
 -1      2719 2.01847E+01 2.56811E-01-7.81069E-04 8.33843E-01-3.91685E-14-1.85883E-14
 -1      2720 2.04321E+01 2.21112E-01-5.24346E-04 9.45692E-01-1.18892E-13 2.99819E-14
 -1      2721 2.05271E+01 2.13491E-01 2.60289E-03 1.00376E+00-9.38162E-14 5.77982E-14
 -1      2722 2.02458E+01 2.71806E-01-1.11017E-03 9.64866E-01-5.92948E-14 6.76697E-14
 -1      2723 2.05782E+01 1.93487E-01 4.05566E-04 1.07208E+00-1.16315E-13 8.00784E-14
 -1      2724 2.06911E+01 1.59756E-01 2.09255E-03 1.12257E+00-1.25343E-13 6.90750E-14
 -1      2725 2.03310E+01 2.50746E-01-1.85621E-03 1.10466E+00-1.01297E-13 5.79706E-14
 -1      2726 2.07706E+01 1.08606E-01 2.07358E-03 1.18379E+00-1.07198E-13 7.47542E-14
 -1      2727 2.09068E+01 3.48832E-02 1.06381E-03 1.21341E+00-6.72366E-14 4.66751E-14
 -1      2728 2.04557E+01 1.68467E-01-3.28890E-03 1.24107E+00-1.01820E-13 6.42859E-14
 -1      2729 2.10328E+01-6.12097E-02 4.75544E-03 1.25321E+00-2.25702E-14 1.62281E-14
 -1      2730 2.11994E+01-1.89722E-01-7.75668E-04 1.24253E+00-5.34520E-14-1.39785E-14
 -1      2731 2.06462E+01-6.92357E-03-5.74631E-03 1.35312E+00-7.12418E-14-3.20626E-16
 -1      2732 2.13975E+01-3.42623E-01 8.69646E-03 1.23818E+00-2.16417E-14-9.83881E-15
 -1      2733 2.16012E+01-5.34945E-01-3.80498E-03 1.16133E+00 6.97922E-14 1.70754E-14
 -1      2734 2.09423E+01-3.09303E-01-9.42738E-03 1.40671E+00 5.75950E-15-2.91727E-14
 -1      2735 2.19011E+01-7.44746E-01 1.35825E-02 1.07885E+00 3.74776E-14 2.82821E-14
 -1      2736 2.21416E+01-9.89499E-01-8.68685E-03 9.05991E-01 7.77156E-14-2.91751E-14
 -1      2737 2.13971E+01-7.58897E-01-1.39537E-02 1.34834E+00 4.91179E-14-9.96477E-14
 -1      2738 2.25650E+01-1.22460E+00 1.77539E-02 6.97676E-01 1.45638E-13-1.07295E-14
 -1      2739 2.28221E+01-1.45836E+00-1.40199E-02 4.04728E-01 1.90659E-13-1.94204E-14
 -1      2740 2.20650E+01-1.33025E+00-1.83011E-02 1.09901E+00 9.76897E-14-5.68874E-14
 -1      2741 2.33441E+01-1.62616E+00 1.66891E-02 2.96536E-02 2.06091E-13-6.84008E-14
 -1      2742 2.35711E+01-1.71353E+00-1.63223E-02-3.72885E-01 1.91344E-13-9.31312E-14
 -1      2743 2.29634E+01-1.87703E+00-1.77519E-02 5.54925E-01 1.74850E-13-1.41640E-13
 -1      2744 2.40730E+01-1.65389E+00-5.81644E-04-9.02136E-01 1.65610E-13-1.29080E-13
 -1      2745 2.42001E+01-1.38437E+00-1.09826E-02-1.32530E+00 1.58511E-13-1.04199E-13
 -1      2746 2.39905E+01-2.05793E+00-5.18969E-03-3.33837E-01 1.80102E-13-2.33414E-13
 -1      2747 2.44646E+01-8.95026E-01-3.36979E-02-1.83624E+00 9.42497E-14-1.19208E-13
 -1      2748 2.44366E+01-1.55532E-01 3.79990E-04-2.05257E+00-1.32672E-14-7.05302E-14
 -1      2749 2.48517E+01-1.42410E+00 9.28221E-03-1.44517E+00 9.97466E-14-1.86582E-13
 -1      2750 2.43460E+01 7.38059E-01-6.58418E-02-2.18229E+00-1.39231E-13-2.03474E-14
 -1      2751 2.42017E+01 1.70627E+00 6.13264E-04-1.94413E+00-1.24865E-13-6.11451E-14
 -1      2752 2.51689E+01 2.79314E-01-1.20442E-02-2.21001E+00-4.22978E-14-9.66657E-14
 -1      2753 2.39268E+01 2.52188E+00-7.54773E-02-1.36537E+00-7.57727E-14-1.58364E-13
 -1      2754 2.38418E+01 3.05780E+00-2.66556E-02-6.76676E-01-4.60465E-14-2.34253E-13
 -1      2755 2.49022E+01 2.52397E+00-4.00254E-02-1.85175E+00-1.54765E-13-1.27398E-13
 -1      2756 2.38063E+01 3.14604E+00-3.31985E-02 3.25659E-01-5.91957E-14-2.54265E-13
 -1      2757 2.38564E+01 2.77906E+00-6.91265E-02 1.05972E+00-1.49398E-13-2.98742E-13
 -1      2758 2.46866E+01 3.78147E+00-5.00453E-02-1.87011E-01-1.00496E-13-3.87760E-13
 -1      2759 2.41230E+01 2.08142E+00 3.02738E-03 1.79027E+00-9.98542E-14-2.94164E-13
 -1      2760 2.42744E+01 1.12373E+00-6.98425E-02 2.14108E+00-3.20716E-14-1.73058E-13
 -1      2761 2.48344E+01 3.02764E+00-5.38409E-02 1.63670E+00-8.68333E-14-4.20341E-13
 -1      2762 2.44335E+01 1.87845E-01 3.28369E-03 2.10707E+00-4.65877E-14-1.49281E-13
 -1      2763 2.44799E+01-6.22187E-01-4.15309E-02 1.97056E+00 1.37146E-14-9.72291E-14
 -1      2764 2.51553E+01 6.30601E-01-2.83064E-02 2.23619E+00-1.56177E-14-3.24307E-13
 -1      2765 2.42915E+01-1.20190E+00-7.72517E-03 1.51629E+00 1.07342E-13-2.70966E-14
 -1      2766 2.41954E+01-1.56652E+00-5.67053E-03 1.11557E+00 1.40577E-13 3.97269E-14
 -1      2767 2.49597E+01-1.12851E+00 7.95860E-03 1.66706E+00 8.92238E-14-1.52802E-13
 -1      2768 2.37154E+01-1.70376E+00-1.90578E-02 5.67385E-01 4.52648E-14-5.95806E-14
 -1      2769 2.35092E+01-1.66904E+00 1.38969E-02 1.52471E-01-2.37542E-14-6.42346E-14
 -1      2770 2.41905E+01-2.01714E+00-7.81689E-03 5.61634E-01-1.34077E-14-2.18927E-13
 -1      2771 2.29773E+01-1.53076E+00-1.63122E-02-2.58221E-01-7.21333E-14 3.25172E-14
 -1      2772 2.27232E+01-1.30876E+00 1.75990E-02-5.72729E-01-1.05613E-13 2.00846E-14
 -1      2773 2.31694E+01-1.94904E+00-1.76873E-02-3.92374E-01-4.26812E-15-2.55549E-13
 -1      2774 2.22775E+01-1.07596E+00-1.01258E-02-8.08210E-01-1.73062E-13 6.80312E-14
 -1      2775 2.20338E+01-8.24832E-01 1.45028E-02-1.00054E+00-1.67091E-13 2.99032E-14
 -1      2776 2.22346E+01-1.43422E+00-1.87334E-02-9.97669E-01-1.43993E-13-2.95731E-14
 -1      2777 2.17107E+01-6.04392E-01-4.87192E-03-1.10065E+00-1.64584E-13 8.42749E-14
 -1      2778 2.15024E+01-3.97630E-01 9.73608E-03-1.19028E+00-1.29090E-13 1.87044E-13
 -1      2779 2.15213E+01-8.49553E-01-1.51753E-02-1.29121E+00-1.19651E-13 8.91615E-15
 -1      2780 2.12871E+01-2.30753E-01-1.39196E-03-1.20246E+00-2.02800E-16 2.67714E-13
 -1      2781 2.11174E+01-8.75366E-02 5.67325E-03-1.21905E+00 5.25093E-14 2.64250E-13
 -1      2782 2.10295E+01-3.66301E-01-1.03863E-02-1.37213E+00-6.25909E-14 2.53072E-13
 -1      2783 2.09803E+01 2.13398E-02 6.68505E-04-1.18015E+00 3.57944E-14 1.71599E-13
 -1      2784 2.08435E+01 1.07421E-01 2.79229E-03-1.15065E+00 9.70162E-14 1.59613E-13
 -1      2785 2.07085E+01-2.99164E-02-6.40396E-03-1.32513E+00-1.57676E-14-9.95043E-14
 -1      2786 2.07575E+01 1.68835E-01 1.80600E-03-1.08538E+00 7.95236E-14 1.12181E-13
 -1      2787 2.06463E+01 2.12116E-01 9.74479E-04-1.03044E+00-1.00485E-13-8.98668E-14
 -1      2788 2.05034E+01 1.74134E-01-3.69393E-03-1.20848E+00 6.90062E-15-1.97766E-13
 -1      2789 2.05918E+01 2.39838E-01 2.37326E-03-9.54530E-01-1.41187E-13 8.13761E-15
 -1      2790 2.05005E+01 2.54512E-01-5.97136E-05-8.88595E-01-6.10689E-14 9.52687E-14
 -1      2791 2.03710E+01 2.78572E-01-2.06151E-03-1.05952E+00-3.35889E-14-1.56986E-13
 -1      2792 2.04646E+01 2.60641E-01 2.58138E-03-8.11692E-01 4.38099E-16 2.12694E-13
 -1      2793 2.03891E+01 2.57976E-01-5.76730E-04-7.44098E-01 1.19200E-13 1.59173E-13
 -1      2794 2.02825E+01 3.15940E-01-1.16556E-03-9.01472E-01 4.38477E-14-4.23656E-14
 -1      2795 2.03642E+01 2.51598E-01 2.55831E-03-6.71825E-01 1.25964E-13 1.66581E-13
 -1      2796 2.03018E+01 2.39611E-01-7.76576E-04-6.08118E-01 5.74103E-14 1.15570E-13
 -1      2797 2.02201E+01 3.12224E-01-7.12119E-04-7.48376E-01 6.31246E-14 2.67571E-14
 -1      2798 2.02835E+01 2.26981E-01 2.38792E-03-5.43419E-01 8.86749E-14 1.47062E-13
 -1      2799 2.02322E+01 2.11002E-01-7.94610E-04-4.86469E-01 7.99569E-14 1.66672E-13
 -1      2800 2.01735E+01 2.86060E-01-4.96351E-04-6.08173E-01 1.06911E-13-2.10574E-13
 -1      2801 2.02179E+01 1.96180E-01 2.12894E-03-4.30508E-01-1.25528E-14 1.95827E-13
 -1      2802 2.01761E+01 1.79566E-01-7.17442E-04-3.81383E-01 1.12167E-13 6.31828E-14
 -1      2803 2.01369E+01 2.49943E-01-3.96648E-04-4.84703E-01 1.36239E-13-3.75127E-14
 -1      2804 2.01646E+01 1.65051E-01 1.82699E-03-3.34171E-01 1.40439E-13-2.04251E-14
 -1      2805 2.01309E+01 1.49810E-01-5.95440E-04-2.92797E-01 1.17784E-13 5.43945E-14
 -1      2806 2.01073E+01 2.11817E-01-3.41841E-04-3.79045E-01 1.06398E-13-1.34318E-13
 -1      2807 2.01211E+01 1.37104E-01 1.53344E-03-2.53621E-01 1.47145E-13 2.63947E-14
 -1      2808 2.00943E+01 1.24233E-01-4.33892E-04-2.19189E-01 1.50983E-13-4.22905E-14
 -1      2809 2.00826E+01 1.76491E-01-2.81341E-04-2.90496E-01 6.82193E-14-3.09781E-13
 -1      2810 2.00855E+01 1.13766E-01 1.16130E-03-1.87135E-01 9.45206E-14-1.14606E-13
 -1      2811 2.00647E+01 1.04238E-01-8.68043E-05-1.58740E-01 1.25497E-14-3.09360E-13
 -1      2812 2.00613E+01 1.46031E-01-4.04957E-04-2.17161E-01 7.69401E-14-3.34124E-13
 -1      2813 1.99292E+01 1.06786E-01 1.11695E-03-2.55659E-01 5.63035E-14 8.20673E-16
 -1      2814 1.99260E+01 1.30388E-01 2.99832E-03-2.10367E-01 6.96329E-14 3.18576E-14
 -1      2815 2.00379E+01 1.15810E-01-1.09791E-04 1.39446E-01 2.54307E-13 2.69349E-13
 -1      2816 2.00560E+01 8.79211E-02 5.69317E-04 1.24616E-01 1.75436E-13 4.05308E-13
 -1      2817 2.00761E+01 9.48265E-02 1.45882E-03 1.48930E-01 2.39996E-13 4.13338E-13
 -1      2818 2.94302E+01 5.96606E-01-2.06389E-01-1.63745E+00-3.91492E-14-1.64535E-13
 -1      2819 2.93223E+01-1.33093E+00 7.27488E-03-5.35507E-01 9.00668E-15-6.02851E-14
 -1      2820 1.99417E+01 1.61241E-01 5.71940E-04-1.50048E-01 7.29237E-14 1.36314E-14
 -1      2821 1.99646E+01 2.06236E-01 5.07854E-03-8.19450E-02 9.13904E-14 2.70258E-14
 -1      2822 2.00359E+01 1.94092E-01-2.66812E-03-1.69165E-01 8.09930E-14 1.60887E-14
 -1      2823 1.99917E+01 8.00913E-02 1.92801E-03-3.95588E-01 8.13377E-14 3.09479E-14
 -1      2824 1.99535E+01 7.89576E-02 5.94671E-04-3.66342E-01 7.83847E-14 1.20743E-14
 -1      2825 2.00565E+01 9.28669E-02 2.30349E-03-4.58903E-01 3.69044E-14 5.70328E-14
 -1      2826 2.00052E+01 8.42543E-02-7.23509E-05-4.28339E-01 7.05424E-14 3.42683E-14
 -1      2827 2.00366E+01 1.07735E-01-1.36203E-03-4.37204E-01 6.66528E-14 5.58457E-14
 -1      2828 2.01401E+01 1.16696E-01 2.68023E-03-5.30804E-01 5.24459E-14 5.65136E-14
 -1      2829 2.00767E+01 1.02784E-01-5.27093E-04-4.95000E-01 4.87955E-14 5.51339E-14
 -1      2830 2.00738E+01 1.26398E-01-1.11311E-03-5.10520E-01 4.48751E-14 3.63776E-14
 -1      2831 2.02421E+01 1.47485E-01 3.04038E-03-6.17436E-01 4.78823E-14 6.63404E-14
 -1      2832 2.01665E+01 1.30417E-01-8.26312E-04-5.73834E-01 5.50348E-14 7.69187E-14
 -1      2833 2.01248E+01 1.57953E-01-9.45297E-04-5.93777E-01 5.67598E-14 4.70290E-14
 -1      2834 2.03633E+01 1.80348E-01 3.33860E-03-7.22168E-01 4.68098E-14 2.67758E-14
 -1      2835 2.02746E+01 1.62815E-01-9.92083E-04-6.69662E-01 7.32307E-14 7.65402E-14
 -1      2836 2.01889E+01 1.96965E-01-8.49654E-04-6.93111E-01 5.86642E-14 7.77146E-14
 -1      2837 2.05059E+01 2.08298E-01 3.49769E-03-8.45036E-01 1.67703E-14 5.40043E-14
 -1      2838 2.04028E+01 1.94254E-01-1.00399E-03-7.84379E-01 2.86560E-14 5.66094E-14
 -1      2839 2.02663E+01 2.36679E-01-8.45579E-04-8.11771E-01 3.62699E-14 1.35333E-13
 -1      2840 2.06738E+01 2.20610E-01 3.40326E-03-9.81509E-01 2.02597E-14 1.14636E-13
 -1      2841 2.05547E+01 2.16162E-01-7.86457E-04-9.16092E-01 2.47728E-14 1.17008E-13
 -1      2842 2.03594E+01 2.67331E-01-9.96381E-04-9.49592E-01-9.66691E-15 1.51232E-13
 -1      2843 2.08737E+01 2.00907E-01 2.89256E-03-1.12051E+00 6.27844E-14 1.05185E-13
 -1      2844 2.07365E+01 2.15333E-01-1.89949E-04-1.05755E+00 4.88903E-14 1.14020E-13
 -1      2845 2.04736E+01 2.74068E-01-1.44149E-03-1.10187E+00 4.85288E-14 2.07319E-13
 -1      2846 2.11169E+01 1.25424E-01 1.73442E-03-1.24156E+00-1.06074E-14 1.91124E-13
 -1      2847 2.09588E+01 1.71997E-01 1.02982E-03-1.19369E+00 2.87135E-14 9.92172E-14
 -1      2848 2.06197E+01 2.34615E-01-2.43437E-03-1.25753E+00 4.33898E-14 1.84960E-13
 -1      2849 2.14221E+01-3.68026E-02-4.02319E-04-1.31113E+00-1.40015E-14 1.98666E-13
 -1      2850 2.12394E+01 5.87085E-02 3.20658E-03-1.29813E+00 3.18334E-14 1.95216E-13
 -1      2851 2.08175E+01 1.17514E-01-4.35426E-03-1.39634E+00-1.00069E-14 1.88051E-13
 -1      2852 2.18162E+01-3.17712E-01-3.93782E-03-1.27870E+00-3.79788E-14 1.45627E-13
 -1      2853 2.16051E+01-1.57236E-01 6.66214E-03-1.32862E+00-5.92746E-14 1.60162E-13
 -1      2854 2.11006E+01-1.16519E-01-7.62527E-03-1.48452E+00-9.62904E-15 1.41449E-13
 -1      2855 2.23295E+01-7.30658E-01-9.41629E-03-1.07528E+00 1.15955E-14 6.97577E-14
 -1      2856 2.20907E+01-5.02096E-01 1.13970E-02-1.22268E+00-4.08353E-14 1.08915E-13
 -1      2857 2.15189E+01-5.04126E-01-1.23614E-02-1.46858E+00 1.16031E-14 9.96459E-14
 -1      2858 2.29774E+01-1.22340E+00-1.56889E-02-6.19307E-01 1.08412E-13 1.07378E-13
 -1      2859 2.27255E+01-9.65870E-01 1.62553E-02-8.96577E-01 9.41159E-14 1.31233E-13
 -1      2860 2.21336E+01-1.05087E+00-1.78154E-02-1.26848E+00 3.74964E-14 6.04163E-14
 -1      2861 2.37173E+01-1.61847E+00-2.04569E-02 1.41077E-01 1.43082E-13 7.86955E-14
 -1      2862 2.34920E+01-1.44156E+00 1.80883E-02-2.68854E-01 1.34034E-13 9.42037E-14
 -1      2863 2.29853E+01-1.66211E+00-1.98385E-02-7.78290E-01 1.79292E-13 1.43737E-13
 -1      2864 2.43950E+01-1.55032E+00-1.75630E-02 1.14978E+00 9.07746E-14 1.62863E-13
 -1      2865 2.42668E+01-1.66821E+00 7.21421E-03 6.80344E-01 1.39198E-13 1.54486E-13
 -1      2866 2.40263E+01-2.05998E+00-1.24458E-02 8.51131E-02 1.05624E-13 1.89979E-13
 -1      2867 2.47415E+01-6.17768E-01-8.75121E-03 2.05878E+00 7.33320E-14 1.53052E-13
 -1      2868 2.47744E+01-1.21732E+00-2.47860E-02 1.73697E+00 6.62478E-14 1.99030E-13
 -1      2869 2.50062E+01-1.74608E+00-1.15847E-03 1.25541E+00 9.91828E-14 2.49302E-13
 -1      2870 2.45944E+01 1.16619E+00 4.69174E-03 2.21522E+00 1.36897E-13-1.35484E-13
 -1      2871 2.47538E+01 1.95521E-01-6.39057E-02 2.33781E+00 1.22142E-13 4.85445E-14
 -1      2872 2.55271E+01-3.01041E-01-7.01166E-03 2.24089E+00 1.77476E-13 2.65898E-14
 -1      2873 2.42001E+01 2.76442E+00-1.69549E-02 1.09834E+00 8.75688E-15-3.89497E-14
 -1      2874 2.43107E+01 2.05771E+00-8.48378E-02 1.74888E+00 1.06727E-13-1.07962E-13
 -1      2875 2.53830E+01 2.05351E+00-3.07787E-02 2.21080E+00 1.44405E-13 9.41330E-14
 -1      2876 2.41316E+01 2.87065E+00-5.72882E-02-7.93655E-01-9.84421E-14 1.48130E-13
 -1      2877 2.40559E+01 3.04427E+00-5.58103E-02 4.03508E-02-6.42195E-14 2.07690E-14
 -1      2878 2.50813E+01 3.67519E+00-5.13192E-02 6.81897E-01-6.42819E-14 1.16967E-13
 -1      2879 2.48246E+01-4.55063E-01-4.66128E-02-2.20968E+00-1.38940E-13 1.97307E-13
 -1      2880 2.47104E+01 4.21900E-01 7.78953E-03-2.27876E+00-3.04270E-14 2.21943E-13
 -1      2881 2.46195E+01-1.47683E+00-1.02055E-02-1.35540E+00 1.08108E-14 9.53057E-14
 -1      2882 2.46578E+01-1.07987E+00-1.00661E-02-1.75274E+00-1.15494E-13 1.15491E-13
 -1      2883 2.53566E+01-9.92709E-01-2.68881E-02-2.00068E+00-3.73659E-15 2.71616E-13
 -1      2884 2.39855E+01-1.62209E+00 1.34082E-02-2.95464E-01 1.71866E-13 1.64846E-13
 -1      2885 2.41558E+01-1.64958E+00-2.17180E-02-7.55273E-01 1.11246E-13 2.24239E-14
 -1      2886 2.46427E+01-1.97218E+00-1.31864E-02-8.25536E-01 1.02286E-13-1.05443E-13
 -1      2887 2.31959E+01-1.25477E+00 1.79586E-02 5.33839E-01 9.26021E-14 3.11887E-13
 -1      2888 2.34358E+01-1.48450E+00-1.96986E-02 1.74276E-01 1.81892E-13 1.81279E-13
 -1      2889 2.36218E+01-1.93523E+00-1.55009E-02 2.70742E-01 9.89347E-14-1.01030E-14
 -1      2890 2.24808E+01-7.62912E-01 1.45479E-02 1.03120E+00-1.86503E-13 4.28645E-13
 -1      2891 2.27270E+01-1.01836E+00-1.35596E-02 8.09693E-01-3.40019E-14 3.85741E-13
 -1      2892 2.26464E+01-1.40913E+00-1.91891E-02 9.80892E-01 4.45954E-15 2.54059E-13
 -1      2893 2.19117E+01-3.38623E-01 9.54784E-03 1.25538E+00-1.36764E-13 3.21747E-13
 -1      2894 2.21363E+01-5.43838E-01-7.43715E-03 1.15370E+00-2.08940E-13 3.12501E-13
 -1      2895 2.18944E+01-8.05776E-01-1.56344E-02 1.34210E+00-1.32964E-13 3.00372E-13
 -1      2896 2.14834E+01-4.34609E-02 5.32135E-03 1.29143E+00 2.25308E-14 3.22154E-13
 -1      2897 2.16783E+01-1.79157E-01-2.65877E-03 1.27442E+00-1.42590E-14 3.00843E-13
 -1      2898 2.13666E+01-3.16302E-01-1.03619E-02 1.45426E+00-6.52383E-14 1.25518E-15
 -1      2899 2.11622E+01 1.31712E-01 2.48995E-03 1.21558E+00 1.13411E-15 3.18589E-13
 -1      2900 2.13289E+01 5.51682E-02 3.50690E-04 1.25071E+00 3.92902E-14 3.91396E-13
 -1      2901 2.10110E+01 1.07785E-02-6.21893E-03 1.41367E+00-2.29564E-14 1.28522E-13
 -1      2902 2.09162E+01 2.17816E-01 8.04772E-04 1.08195E+00 4.68406E-14 3.18303E-13
 -1      2903 2.10584E+01 1.83232E-01 2.11339E-03 1.14445E+00 9.98532E-14 5.35159E-13
 -1      2904 2.07697E+01 1.98187E-01-3.52996E-03 1.28967E+00 1.15300E-14 4.72770E-13
 -1      2905 2.07225E+01 2.45965E-01-8.32582E-05 9.25979E-01 6.75834E-14 2.60075E-13
 -1      2906 2.08434E+01 2.37787E-01 3.01017E-03 9.99064E-01 1.26847E-13 3.62664E-13
 -1      2907 2.05996E+01 2.85511E-01-2.00723E-03 1.12726E+00 6.41119E-14 5.11149E-13
 -1      2908 2.05667E+01 2.40296E-01-4.80309E-04 7.69293E-01-6.58370E-14 3.39454E-14
 -1      2909 2.06687E+01 2.47003E-01 3.33340E-03 8.42596E-01-5.42591E-14 1.68161E-13
 -1      2910 2.04732E+01 3.09074E-01-1.23567E-03 9.54508E-01 1.04629E-13 3.30769E-13
 -1      2911 2.04399E+01 2.17301E-01-6.00231E-04 6.23922E-01-8.89154E-16 2.72842E-15
 -1      2912 2.05250E+01 2.31235E-01 3.29412E-03 6.91691E-01-7.58318E-14 2.99779E-14
 -1      2913 2.03746E+01 2.96127E-01-8.81342E-04 7.88014E-01-2.82766E-14 1.47864E-13
 -1      2914 2.03365E+01 1.87381E-01-5.76662E-04 4.95613E-01 9.14533E-14 2.49307E-13
 -1      2915 2.04065E+01 2.03803E-01 3.04185E-03 5.55169E-01 6.54268E-14 5.81379E-14
 -1      2916 2.02950E+01 2.65003E-01-7.26846E-04 6.36747E-01-5.97424E-14 4.33160E-14
 -1      2917 2.02527E+01 1.56721E-01-4.90521E-04 3.86133E-01 2.51243E-13 3.26051E-13
 -1      2918 2.03093E+01 1.72863E-01 2.67757E-03 4.36740E-01 2.24190E-13 3.40603E-13
 -1      2919 2.02298E+01 2.27187E-01-6.51561E-04 5.04702E-01 3.47505E-14 2.92428E-13
 -1      2920 2.01854E+01 1.28878E-01-3.16380E-04 2.94876E-01 4.06231E-13 4.81387E-13
 -1      2921 2.02304E+01 1.43169E-01 2.27479E-03 3.36923E-01 3.15562E-13 3.78493E-13
 -1      2922 2.01761E+01 1.89464E-01-6.02047E-04 3.92691E-01 2.17356E-13 3.91037E-13
 -1      2923 2.01330E+01 1.06119E-01 3.63392E-04 2.20095E-01 2.10974E-13 4.69719E-13
 -1      2924 2.01671E+01 1.17089E-01 1.87481E-03 2.54113E-01 3.65717E-13 4.91904E-13
 -1      2925 2.01313E+01 1.55563E-01-7.22879E-04 2.99686E-01 2.70545E-13 5.20298E-13
 -1      2926 2.00897E+01 9.63501E-02 7.19209E-04 1.68913E-01 2.54600E-13 2.54530E-13
 -1      2927 2.01150E+01 1.04833E-01 1.60228E-03 1.97418E-01 2.10821E-13 3.23017E-13
 -1      2928 2.00903E+01 1.35378E-01-1.55098E-03 2.33439E-01 2.87107E-13 4.45407E-13
 -1      2929 2.00574E+01 1.26636E-01-2.08761E-03 1.87157E-01 2.19293E-13 3.52629E-13
 -1      2930 1.99102E+01 2.75028E-01-6.70560E-04 1.32899E-02 1.97216E-13 4.31182E-13
 -1      2931 1.99135E+01 2.71821E-01-3.62721E-04 3.74820E-02 3.13593E-13 2.25712E-13
 -1      2932 2.00601E+01 9.84052E-02 9.38278E-04-1.40386E-01 1.06077E-13-2.12311E-13
 -1      2933 2.00482E+01 9.26307E-02 1.35044E-04-1.23586E-01 9.15068E-14-1.26612E-13
 -1      2934 2.00458E+01 1.24463E-01-5.26482E-04-1.65273E-01 9.99395E-14-3.61912E-13
 -1      2935 1.99420E+01 2.35841E-01-1.11467E-03 1.07126E-01 3.11154E-13 1.14767E-13
 -1      2936 1.99573E+01 2.20520E-01 3.84839E-04 1.21551E-01 4.36060E-13-1.03406E-13
 -1      2937 1.99141E+01 2.70823E-01-3.36021E-04-3.98617E-02 1.45703E-13 1.28439E-13
 -1      2938 1.99104E+01 2.74556E-01-6.93434E-04-1.57957E-02 1.79444E-13 4.60106E-13
 -1      2939 1.98896E+01 2.97707E-01 1.07881E-03-1.58736E-03 2.00355E-13 2.92540E-13
 -1      2940 1.99199E+01 2.62965E-01-9.43187E-04 6.47286E-02 1.84404E-13 9.04005E-14
 -1      2941 1.99298E+01 2.53159E-01 1.11296E-05 8.55564E-02 2.76910E-13 3.11293E-13
 -1      2942 1.99208E+01 2.65172E-01 8.94334E-04 1.09646E-01 2.58367E-13 1.78942E-13
 -1      2943 1.98973E+01 2.89831E-01 1.03246E-03 5.79368E-02 3.62679E-13 1.69383E-13
 -1      2944 1.99307E+01 2.51410E-01 4.65745E-05-8.65281E-02 9.11842E-14-1.92859E-13
 -1      2945 1.99207E+01 2.61339E-01-9.44737E-04-6.63443E-02 1.35247E-13-1.37344E-13
 -1      2946 1.98982E+01 2.88232E-01 1.02577E-03-6.02733E-02 2.17621E-13-4.25417E-14
 -1      2947 1.99582E+01 2.18136E-01 3.58503E-04-1.21679E-01 2.26994E-13-1.52498E-13
 -1      2948 1.99430E+01 2.33679E-01-1.08773E-03-1.07644E-01 6.38244E-14-7.58642E-14
 -1      2949 1.99220E+01 2.62530E-01 8.50065E-04-1.10673E-01 1.22371E-13-5.40819E-14
 -1      2950 1.99919E+01 1.74223E-01 1.97834E-04-1.39082E-01-5.23421E-14-3.47570E-13
 -1      2951 1.99748E+01 1.94280E-01-9.97480E-04-1.34146E-01 1.75999E-13-2.74592E-13
 -1      2952 1.99577E+01 2.23209E-01 5.72366E-04-1.46263E-01 7.31620E-14-2.13106E-13
 -1      2953 7.13266E+00-9.88489E-01 1.27798E-01-2.49972E+00-1.22118E-13-2.16882E-13
 -1      2954 8.91041E+00-1.85981E+00 1.17178E-01-4.56238E+00-1.02529E-13-1.85268E-13
 -1      2955 9.56309E+00-1.80499E+00 9.53308E-02 4.63667E+00-1.24581E-13 3.03646E-13
 -1      2956 7.85425E+00-1.11353E+00 2.11513E-01 3.21351E+00-1.05596E-13 2.62235E-13
 -1      2957 2.36801E+01-5.18461E+00-5.64530E-02 4.16795E+00 8.13238E-14 7.34482E-15
 -1      2958 2.09148E+01-5.04504E+00 1.02491E-01 5.21701E+00 8.89011E-14 3.92880E-14
 -1      2959 1.99927E+01 2.61741E-01-1.41790E-04 7.83313E-03 8.26396E-14 1.01464E-14
 -1      2960 2.00490E+01 3.40347E-01 7.73271E-03 1.14724E-01 9.65182E-14-1.18492E-15
 -1      2961 2.00864E+01 3.08467E-01-2.99779E-03-7.24391E-03 8.41933E-14-3.86301E-15
 -1      2962 1.99480E+01 8.27696E-02 1.54546E-03-3.31927E-01 8.04289E-14-2.02971E-14
 -1      2963 1.99251E+01 9.19082E-02 1.56878E-03-2.98494E-01 6.34729E-14-6.28404E-15
 -1      2964 2.00138E+01 1.32779E-01-2.16081E-03-2.80990E-01 7.52770E-14-1.36675E-14
 -1      2965 2.00155E+01 1.07503E-01-1.70966E-03-3.64810E-01 6.55009E-14 1.56786E-14
 -1      2966 2.03291E+01 1.07587E+00 5.88476E-03-8.30913E-01-1.45265E-13-9.23681E-14
 -1      2967 2.02396E+01 8.34709E-01-5.37049E-03-5.83790E-01-1.28701E-13-9.28759E-14
 -1      2968 2.02739E+01 9.20087E-01-8.17541E-05-5.34467E-01-1.24435E-13-1.04375E-13
 -1      2969 1.99344E+01 2.62666E+00-7.79757E-03 7.75532E-01 1.65123E-13-1.35069E-13
 -1      2970 1.98898E+01 2.72144E+00-6.31594E-03 6.28774E-01 1.32261E-13-1.62252E-13
 -1      2971 2.00058E+01 2.43113E+00 4.54257E-03 4.99066E-01 1.12939E-13-1.56823E-13
 -1      2972 2.00895E+01 2.22544E+00 5.74141E-03 7.22538E-01 1.50648E-13-1.17591E-13
 -1      2973 2.00882E+01 4.36544E-01-1.06591E-03 2.50483E-01 1.31078E-13-1.67082E-14
 -1      2974 2.01828E+01 5.70693E-01 1.03866E-02 4.19531E-01 1.42554E-13-2.55906E-14
 -1      2975 2.02651E+01 8.41086E-01 3.49470E-04 5.85414E-01 1.65539E-13-5.69708E-14
 -1      2976 2.01654E+01 5.06675E-01-2.43725E-03 2.33761E-01 1.12163E-13-4.35229E-14
 -1      2977 2.89155E+01 5.01530E+00-1.29647E-01 1.75995E+00 1.04278E-13 4.34458E-13
 -1      2978 2.86952E+01 5.95487E+00-2.15342E-01 8.12394E-01 1.75415E-14 3.12757E-13
 -1      2979 2.09810E+01-4.95274E+00 1.38459E-01-5.14062E+00 2.53686E-14 3.02449E-14
 -1      2980 2.41052E+01-5.11335E+00-9.92546E-02-3.76485E+00-1.42719E-13-2.85216E-13
 -1      2981 1.98845E+01 2.73033E+00-6.28918E-03-6.18793E-01-2.73930E-14-2.17755E-13
 -1      2982 1.99283E+01 2.63805E+00-7.65353E-03-7.65845E-01-4.59303E-14-2.00842E-13
 -1      2983 1.76138E+01-4.67251E+00 1.31156E-01-6.03327E+00-1.07025E-13 1.11182E-13
 -1      2984 2.13495E+01-5.26425E+00-3.03039E-02-5.13155E+00-1.13964E-13 3.57320E-13
 -1      2985 1.38008E+01-3.48594E+00 1.50874E-01-6.09550E+00-4.33265E-14 2.75724E-13
 -1      2986 1.69490E+01-4.55029E+00-4.43602E-02-6.26714E+00 6.95000E-14 1.98716E-13
 -1      2987 8.58111E+00-1.37497E+00 1.46976E-01-3.89932E+00 1.33726E-13 4.41425E-13
 -1      2988 1.08541E+01-2.50844E+00 9.58405E-02-5.57090E+00 1.68893E-14 3.27349E-13
 -1      2989 1.36207E+01-2.44311E+00 1.43578E-01-5.36152E+00-1.07969E-14 3.57908E-13
 -1      2990 1.11424E+01-2.65337E+00 5.91299E-02 5.67958E+00-4.16750E-14-6.91947E-14
 -1      2991 8.55937E+00-1.41474E+00 1.50448E-01 3.95510E+00-8.94285E-14-8.06577E-14
 -1      2992 7.13646E+00-5.81271E-01 1.26063E-01 1.84844E+00-1.51323E-13-6.70852E-14
 -1      2993 6.73681E+00-4.70681E-01 1.67932E-01-4.37111E-01-1.60542E-13-1.48326E-13
 -1      2994 2.47705E+01-4.91724E+00 3.71815E-02-3.29725E+00-3.22520E-14 3.92790E-13
 -1      2995 2.71353E+01-4.10685E+00-1.05615E-01-1.71799E+00 8.54455E-14 4.71345E-13
 -1      2996 1.12214E+01-2.84680E+00 1.40356E-01-5.60359E+00-1.27218E-13-1.42664E-13
 -1      2997 1.39509E+01-3.87832E+00 1.37877E-02-6.35078E+00-1.29868E-13-9.47298E-14
 -1      2998 2.92862E+01 1.06807E+00-1.09694E-01 1.85672E+00 2.30649E-13 5.62717E-13
 -1      2999 2.90637E+01 3.02454E+00-2.14307E-01 2.08459E+00 1.47493E-13 5.70016E-13
 -1      3000 2.81171E+01 6.19964E+00-1.95720E-01 3.97132E-01-1.06637E-13 2.31547E-13
 -1      3001 2.85612E+01 6.33437E+00-1.47313E-01-6.46332E-01-4.97935E-14 1.75596E-13
 -1      3002 1.74701E+01-4.71838E+00-1.01256E-02 6.26949E+00 5.95218E-14-4.09325E-14
 -1      3003 1.44507E+01-3.69085E+00 1.46992E-01 6.16466E+00 3.54994E-14-2.16355E-14
 -1      3004 2.85920E+01-2.17424E+00-9.21874E-03 1.83911E-01 1.83922E-13 6.13454E-13
 -1      3005 2.92596E+01-6.51219E-01-1.66525E-01 1.11943E+00 2.92086E-13 7.06046E-13
 -1      3006 2.82738E+01 3.86653E-02-6.64735E-02 1.93839E+00 2.07862E-13 6.17173E-13
 -1      3007 2.74981E+01-3.42937E+00-9.53133E-02 1.21618E+00 1.32529E-13 3.01426E-14
 -1      3008 2.58616E+01-4.52581E+00 1.91328E-02 2.67824E+00 1.02529E-13-2.01228E-15
 -1      3009 2.00349E+01 1.11196E-01 2.70967E-05-1.29588E-01 6.17031E-14-4.26068E-13
 -1      3010 2.65077E+01-4.09952E+00 5.68568E-02-1.82667E+00-3.00378E-13-4.86194E-13
 -1      3011 2.77407E+01-3.20762E+00-1.38849E-01-6.66321E-01-2.95812E-13-3.90105E-13
 -1      3012 2.89384E+01 6.43702E+00-1.78183E-01-1.59041E-01-6.88338E-14 3.76199E-13
 -1      3013 2.89859E+01 5.92036E+00-1.75733E-01-1.15814E+00-4.24660E-14 2.49481E-13
 -1      3014 2.36740E+01-5.23276E+00 1.36919E-02 4.17659E+00-1.47618E-13 1.18865E-13
 -1      3015 2.09137E+01-5.00803E+00 6.63178E-02 5.04064E+00-1.01558E-13 2.29469E-14
 -1      3016 2.90166E+01 5.54038E+00-1.91973E-01-1.44774E+00-2.13107E-13 2.47594E-13
 -1      3017 2.94768E+01 3.81246E+00-1.12302E-01-1.81975E+00-1.30840E-13 8.27810E-14
 -1      3018 2.03207E+01 1.69950E+00-6.71028E-03-1.27556E+00-1.61990E-13-1.16290E-13
 -1      3019 2.03046E+01 1.31554E+00-2.84673E-03-9.98002E-01-1.58417E-13-1.09764E-13
 -1      3020 2.02899E+01 1.39237E+00 5.11766E-04-8.96799E-01-1.48598E-13-1.31472E-13
 -1      3021 2.02306E+01 1.96576E+00-6.31298E-04-1.24537E+00-1.40956E-13-1.55715E-13
 -1      3022 1.99833E+01 2.51382E+00-6.21502E-03-8.81560E-01-6.51156E-14-1.83988E-13
 -1      3023 2.00479E+01 2.36657E+00-8.89377E-03-1.01332E+00-9.55743E-14-1.72866E-13
 -1      3024 2.00831E+01 2.23970E+00 6.21291E-03-7.16549E-01-5.23660E-14-1.66423E-13
 -1      3025 1.99374E+01 2.58838E+00 3.69210E-03 4.46543E-03 5.92141E-14-1.76639E-13
 -1      3026 1.98015E+01 2.91129E+00-5.60187E-03-5.97582E-02 5.41965E-14-1.85876E-13
 -1      3027 1.98093E+01 2.89606E+00-5.59320E-03-2.10739E-01 3.94058E-14-1.97290E-13
 -1      3028 2.78366E+01 3.43752E+00-6.34235E-02 2.13130E+00 1.00905E-13 2.85452E-13
 -1      3029 2.82849E+01 1.18603E+00-9.72689E-02-2.12597E+00-1.88363E-13-1.58970E-13
 -1      3030 2.02974E+01 1.60020E+00-1.30485E-03 1.14435E+00 2.02072E-13-5.56387E-14
 -1      3031 2.89825E+01 2.32259E+00-1.29318E-01 2.00168E+00 1.84297E-14 9.27591E-14
 -1      3032 2.75979E+01 3.11642E+00-1.43841E-01 2.23879E+00 2.25375E-14-2.30371E-14
 -1      3033 2.81065E+01 9.39017E-01-2.76431E-02 2.02292E+00 2.48135E-14 2.32869E-14
 -1      3034 2.75367E+01 5.17428E+00-1.31151E-01-1.15135E+00-1.59844E-13 4.08562E-14
 -1      3035 2.82079E+01-2.57800E+00-2.36325E-02 4.35227E-03-2.94469E-14-1.35003E-13
 -1      3036 2.91277E+01 2.17349E+00-1.18791E-01-1.89877E+00 1.82354E-14-9.35918E-14
 -1      3037 2.83414E+01 6.05737E-01-8.41287E-02-1.76893E+00 5.18197E-14-1.22097E-13
 -1      3038 2.77843E+01 2.79659E+00-1.10167E-01-2.24695E+00-1.70058E-13-1.16060E-13
 -1      3039 2.48743E+01-4.84248E+00-7.51106E-02 2.85287E+00-1.87107E-13-3.99403E-14
 -1      3040 2.75147E+01 5.53999E+00-1.07145E-01 3.99749E-01-4.41869E-14 2.73559E-13
 -1      3041 1.99569E+01 2.26465E-01 7.13545E-04 1.46041E-01 2.70233E-13-3.44472E-14
 -1      3042 1.99729E+01 1.96751E-01-1.33965E-03 1.34156E-01 4.19715E-13-7.63633E-14
 -1      3043 1.99920E+01 1.78422E-01 9.02093E-04 1.40765E-01 4.05695E-13-3.97237E-14
 -1      3044 2.02901E+01 1.38500E+00 2.50048E-03 8.94075E-01 1.82886E-13-7.21351E-14
 -1      3045 2.45068E+01 1.35559E+00-7.67819E-02-2.15973E+00-1.68053E-13 2.80901E-13
 -1      3046 2.43015E+01 2.24614E+00-1.96483E-02-1.68746E+00-2.06571E-13 2.28166E-13
 -1      3047 2.51339E+01 3.16947E+00-5.53827E-02-1.35861E+00-2.11373E-13 2.66915E-13
 -1      3048 2.55070E+01 1.04669E+00-2.70492E-02-2.41221E+00-1.02626E-13 4.57034E-13
 -1      3049 2.74739E+01-3.17606E+00-3.21778E-02-2.04847E-01 1.55882E-13 5.97772E-13
 -1      3050 2.78341E+01-2.16172E+00-9.93448E-02 5.27354E-01-1.20799E-13-1.83992E-13
 -1      3051 2.00213E+01 1.38872E-01-6.68868E-04 1.43822E-01 2.79256E-13 1.82160E-13
 -1      3052 1.20741E+01-2.15737E+00 1.69291E-01 5.16608E+00-1.92901E-13 2.95708E-13
 -1      3053 1.19722E+01-1.25920E+00 1.05157E-01 4.31197E+00-1.61225E-13 2.71116E-13
 -1      3054 1.45835E+01-2.65367E+00 4.05413E-02 5.31546E+00-1.37015E-13 1.24817E-13
 -1      3055 2.00536E+01-4.50219E+00 9.11392E-02 5.14143E+00 1.18905E-13 2.45672E-14
 -1      3056 8.39784E+00-4.48925E-01 1.70387E-01 1.88726E+00-5.22637E-14 1.75859E-13
 -1      3057 1.15570E+01-1.75821E+00 1.68494E-01-4.69480E+00-1.67158E-13-1.00059E-13
 -1      3058 8.80564E+00-2.15629E-01 1.68824E-01-1.47933E+00-1.75842E-13-1.87211E-13
 -1      3059 2.00209E+01 1.34573E-01 2.07840E-04-1.34256E-01 9.79106E-14-6.25252E-13
 -1      3060 1.94944E+01-4.54248E+00 9.57942E-02 5.41960E+00-1.13326E-13 5.29785E-14
 -1      3061 1.78398E+01-3.70519E+00 8.57963E-02 5.37933E+00-1.53974E-13 1.21542E-13
 -1      3062 2.13559E+01-4.40835E+00 2.74073E-02 4.24245E+00-9.58331E-14 1.58578E-13
 -1      3063 8.44444E+00-1.01230E-01 7.30679E-02-1.36295E+00 1.21746E-13 3.10640E-13
 -1      3064 8.36924E+00-6.58497E-01 1.75122E-01-2.75716E+00 1.58124E-13 3.88745E-13
 -1      3065 1.05340E+01-6.48179E-01 1.21926E-01-3.44001E+00 1.67314E-13 4.60409E-13
 -1      3066 2.48488E+01-4.63768E+00 4.39053E-02 2.77278E+00 1.27467E-13 4.50195E-14
 -1      3067 2.34492E+01-5.08026E+00 5.00989E-02-3.93605E+00-1.20182E-13 3.17742E-13
 -1      3068 2.46137E+01-4.65098E+00-4.67237E-02-2.49939E+00-8.79470E-14 3.69864E-13
 -1      3069 2.17740E+01-4.61714E+00 4.83785E-02-4.30414E+00-1.70544E-13 3.14502E-13
 -1      3070 9.49308E+00-5.46745E-01 1.65741E-01 2.73472E+00-1.11890E-13-5.77316E-14
 -1      3071 1.98255E+01 2.85864E+00-5.86431E-03-3.41742E-01 2.54419E-14-1.75099E-13
 -1      3072 1.98504E+01 2.80864E+00-6.17772E-03-4.92163E-01-1.35794E-14-1.93935E-13
 -1      3073 2.00013E+01 2.43892E+00 4.48612E-03-4.90311E-01-1.33765E-14-1.89054E-13
 -1      3074 1.99529E+01 2.55250E+00 3.86032E-03-2.46395E-01 2.66679E-14-1.68468E-13
 -1      3075 1.69614E+01-3.81517E+00 1.35109E-01-5.66861E+00-1.59345E-13 1.23762E-13
 -1      3076 2.80816E+01-1.58269E+00-1.09502E-01-8.77481E-01 1.07858E-13-7.93809E-15
 -1      3077 2.81142E+01-2.59887E+00-4.50310E-02 1.31851E-01 6.57981E-14 4.23828E-14
 -1      3078 2.69753E+01-3.36065E+00-1.53082E-02 5.65517E-01 1.11729E-13 2.03310E-14
 -1      3079 1.97646E+01-4.31919E+00 9.65483E-02-5.11144E+00-2.03310E-14 7.51604E-14
 -1      3080 2.50976E+01-4.44447E+00 2.74924E-02-2.33072E+00-1.36696E-13-3.51261E-13
 -1      3081 1.39791E+01-2.67293E+00 1.48908E-01 5.47388E+00 7.99361E-15-7.12486E-14
 -1      3082 2.00259E+01 1.42612E-01-2.82739E-04-1.61578E-01 5.08129E-14-5.62902E-13
 -1      3083 2.00058E+01 1.58989E-01-3.19662E-04-1.48255E-01-6.41558E-14-5.30924E-13
 -1      3084 1.99961E+01 1.84899E-01 7.12923E-04-1.67827E-01-1.48736E-13-3.37434E-13
 -1      3085 2.00336E+01 1.52638E-01 9.79334E-04-1.81302E-01 4.62410E-14-5.35886E-13
 -1      3086 2.76347E+01 4.50551E+00-1.14605E-01-1.61746E+00-1.75790E-13 6.71060E-14
 -1      3087 2.02505E+01 1.50377E+00-7.93787E-03 7.70797E-01 1.60373E-13-9.33590E-14
 -1      3088 2.02103E+01 1.70280E+00-7.29138E-04 7.16017E-01 1.45165E-13-9.81191E-14
 -1      3089 2.02371E+01 4.85381E-01 3.79224E-03-4.86215E-02-7.60645E-14-1.02692E-13
 -1      3090 2.02027E+01 3.88521E-01-1.75337E-03 4.99566E-02-6.19239E-14-1.27681E-13
 -1      3091 2.01865E+01 3.16511E-01 2.68608E-03 1.27054E-01-7.21037E-14-1.20678E-13
 -1      3092 2.01628E+01 2.59558E-01-6.01678E-04 1.96277E-01-9.60305E-14-1.49220E-13
 -1      3093 2.02459E+01 4.25061E-01-8.04682E-04 6.84517E-02-7.10451E-14-1.21597E-13
 -1      3094 2.01429E+01 2.19705E-01 1.60334E-03 2.52682E-01-8.19676E-14-1.27155E-13
 -1      3095 2.01298E+01 1.91041E-01 2.38156E-04 3.03650E-01-6.49699E-14-1.27037E-13
 -1      3096 2.02023E+01 2.91499E-01-9.47791E-04 2.07654E-01-7.68514E-14-7.82279E-14
 -1      3097 2.01089E+01 1.73978E-01 6.68360E-04 3.47826E-01-3.07649E-14-1.29845E-13
 -1      3098 2.01052E+01 1.65688E-01 8.50176E-04 3.89363E-01-2.32488E-14-9.83076E-14
 -1      3099 2.01583E+01 2.22441E-01-8.46440E-04 3.12916E-01-5.20487E-14-9.33228E-14
 -1      3100 2.00841E+01 1.65022E-01-1.01125E-04 4.28333E-01-1.38411E-14-7.67973E-14
 -1      3101 2.00881E+01 1.71437E-01 1.30916E-03 4.67178E-01-7.55758E-15-6.47283E-14
 -1      3102 2.01163E+01 2.00152E-01-6.45095E-04 3.99702E-01-1.34510E-14-9.42971E-14
 -1      3103 2.00668E+01 1.82393E-01-7.17840E-04 5.06517E-01-2.07748E-14-6.90659E-14
 -1      3104 2.00774E+01 1.98988E-01 1.66764E-03 5.47642E-01-3.68536E-14-3.27056E-14
 -1      3105 2.00763E+01 2.11696E-01-4.14990E-04 4.80714E-01-7.59264E-15-1.18951E-13
 -1      3106 2.00556E+01 2.17455E-01-1.19475E-03 5.91587E-01-8.32350E-14-2.30104E-15
 -1      3107 2.00719E+01 2.39998E-01 1.96154E-03 6.38405E-01-8.76717E-14-6.40099E-14
 -1      3108 2.00373E+01 2.46661E-01-1.92787E-04 5.65902E-01-6.25907E-14-4.88241E-14
 -1      3109 2.00496E+01 2.61754E-01-1.53023E-03 6.89974E-01-5.83402E-14 5.81107E-15
 -1      3110 2.00716E+01 2.85533E-01 2.21902E-03 7.44421E-01-4.35362E-14 3.47970E-15
 -1      3111 1.99984E+01 2.95327E-01-1.46127E-05 6.62663E-01-3.96044E-14 2.70747E-14
 -1      3112 2.00494E+01 3.05460E-01-1.69360E-03 8.05493E-01-1.77423E-14 4.03976E-14
 -1      3113 2.00781E+01 3.24431E-01 2.46893E-03 8.67942E-01-1.20493E-14 6.79161E-14
 -1      3114 1.99594E+01 3.46979E-01 6.21194E-05 7.76088E-01-7.26853E-16 8.83551E-14
 -1      3115 2.00582E+01 3.35638E-01-1.60951E-03 9.39245E-01-5.06999E-14 6.92440E-14
 -1      3116 2.00967E+01 3.41464E-01 2.74886E-03 1.00824E+00-5.19278E-14 1.02675E-13
 -1      3117 1.99224E+01 3.88077E-01-6.32445E-05 9.09128E-01-2.10865E-14 6.28708E-14
 -1      3118 2.00841E+01 3.34317E-01-1.13807E-03 1.08920E+00-8.69620E-14 2.86872E-14
 -1      3119 2.01379E+01 3.15345E-01 3.10444E-03 1.16098E+00-1.12722E-13 2.64458E-14
 -1      3120 1.98930E+01 4.00176E-01-5.62200E-04 1.06260E+00-1.07086E-13 2.63458E-14
 -1      3121 2.01422E+01 2.76561E-01-4.26730E-05 1.24934E+00-1.18554E-13 3.80262E-15
 -1      3122 2.02215E+01 2.16969E-01 3.55027E-03 1.31702E+00-1.25476E-13 2.21229E-14
 -1      3123 1.98842E+01 3.57707E-01-1.72096E-03 1.23496E+00-1.29031E-13-1.91547E-14
 -1      3124 2.02603E+01 1.29214E-01 2.05298E-03 1.40782E+00-1.34529E-13-2.09725E-14
 -1      3125 2.03810E+01 9.04691E-03 3.94748E-03 1.46001E+00-9.88816E-14-4.59444E-14
 -1      3126 1.99198E+01 2.25941E-01-3.99887E-03 1.42135E+00-1.39339E-13 9.58180E-15
 -1      3127 2.04831E+01-1.47765E-01 5.68879E-03 1.54300E+00-3.69164E-14-8.75251E-14
 -1      3128 2.06679E+01-3.49706E-01 3.88897E-03 1.56119E+00 5.27450E-14-5.17724E-14
 -1      3129 2.00417E+01-3.93556E-02-8.04424E-03 1.61077E+00-1.09846E-13-5.11387E-14
 -1      3130 2.08778E+01-5.92397E-01 1.18564E-02 1.61490E+00 6.24319E-14-6.98371E-14
 -1      3131 2.11520E+01-8.89047E-01 2.56766E-03 1.56992E+00 3.67443E-14-8.85988E-14
 -1      3132 2.03172E+01-4.87146E-01-1.43111E-02 1.77830E+00 5.74082E-14-1.14405E-13
 -1      3133 2.15267E+01-1.21437E+00 2.08310E-02 1.55199E+00 7.09322E-14-4.02904E-14
 -1      3134 2.19111E+01-1.59029E+00-1.60834E-03 1.40175E+00 1.25734E-13-3.30835E-14
 -1      3135 2.08434E+01-1.14810E+00-2.19563E-02 1.86676E+00 9.57000E-14-1.07728E-13
 -1      3136 2.25064E+01-1.94043E+00 3.15579E-02 1.23619E+00 1.27282E-13-6.45842E-14
 -1      3137 2.29854E+01-2.28311E+00-5.19562E-03 9.40033E-01 2.18023E-13-1.16571E-13
 -1      3138 2.17073E+01-2.00170E+00-4.23411E-02 1.75756E+00 1.14472E-13-8.28166E-14
 -1      3139 2.38307E+01-2.54584E+00 3.21247E-02 4.84829E-01 2.08323E-13-1.54597E-13
 -1      3140 2.42581E+01-2.60560E+00-2.59910E-02-1.68617E-02 1.36120E-13-1.79635E-13
 -1      3141 2.31542E+01-2.82350E+00-4.50755E-02 1.26608E+00 1.70643E-13-4.30472E-14
 -1      3142 2.57932E+01-6.54370E-01-6.89404E-02-2.00584E+00 1.68147E-14-2.44558E-13
 -1      3143 2.58785E+01 6.92012E-01-2.13202E-02-2.21032E+00-5.80265E-14-2.03752E-13
 -1      3144 2.63083E+01 2.63516E+00-1.24685E-01-2.14533E+00-2.18450E-13-1.31943E-13
 -1      3145 2.61895E+01 4.01339E+00-1.01338E-01-1.67101E+00-1.96787E-13-1.33876E-13
 -1      3146 2.55836E+01 4.65570E+00-1.54833E-01-6.96768E-01-1.85005E-13-1.90267E-13
 -1      3147 2.56056E+01 4.82181E+00-1.13746E-01 3.20587E-01-8.14626E-14-1.81267E-13
 -1      3148 2.59471E+01 3.16725E+00-7.27490E-02 1.74431E+00-3.88023E-14-2.78302E-13
 -1      3149 2.60676E+01 1.94871E+00-6.33442E-02 2.32607E+00-3.88925E-14-2.82073E-13
 -1      3150 2.60974E+01 3.81594E-01-8.48847E-02 2.25168E+00 1.58623E-14-2.58460E-13
 -1      3151 2.56645E+01-1.38647E+00-2.08315E-03 1.54344E+00 4.30662E-14-2.63613E-13
 -1      3152 2.53801E+01-2.22713E+00-2.60411E-02 9.98002E-01 1.19568E-13-1.24307E-13
 -1      3153 2.45326E+01-2.53411E+00-2.30645E-02 2.38502E-01 2.62997E-14-2.27143E-13
 -1      3154 2.40983E+01-2.56227E+00 3.27867E-02-2.70645E-01-1.17634E-13-2.82915E-13
 -1      3155 2.51346E+01-2.90829E+00-3.63517E-02 4.36038E-02 1.13442E-14-4.16335E-13
 -1      3156 2.32236E+01-2.40416E+00-1.71782E-02-7.66978E-01-5.58481E-14-3.18260E-13
 -1      3157 2.27537E+01-2.07712E+00 3.14025E-02-1.11159E+00-2.09598E-15-2.27310E-13
 -1      3158 2.34269E+01-2.93154E+00-3.38641E-02-1.13637E+00-6.85097E-14-4.33096E-13
 -1      3159 2.21026E+01-1.72389E+00-3.78417E-03-1.31709E+00-2.06241E-14-1.88850E-13
 -1      3160 2.17024E+01-1.34262E+00 2.28502E-02-1.49390E+00-1.58244E-13-1.72436E-13
 -1      3161 2.19748E+01-2.15342E+00-3.09526E-02-1.69728E+00-4.74357E-14-4.10603E-13
 -1      3162 2.12832E+01-1.00015E+00 1.55817E-03-1.53075E+00-1.77142E-13-7.46406E-14
 -1      3163 2.09893E+01-6.82212E-01 1.34280E-02-1.58932E+00-1.22649E-14 1.72537E-14
 -1      3164 2.09888E+01-1.28810E+00-2.44971E-02-1.84865E+00-2.57445E-14-1.88532E-13
 -1      3165 2.07503E+01-4.18836E-01 3.63996E-03-1.54088E+00-8.20396E-14 1.28663E-14
 -1      3166 2.05509E+01-1.95447E-01 6.89738E-03-1.52768E+00-1.12927E-13-5.43548E-14
 -1      3167 2.03970E+01-5.75485E-01-1.58276E-02-1.77565E+00-8.25186E-15 3.63013E-15
 -1      3168 2.04299E+01-1.95870E-02 3.86589E-03-1.44304E+00-6.39734E-14-2.57825E-14
 -1      3169 2.02999E+01 1.18671E-01 2.83132E-03-1.38996E+00-6.01057E-14-7.01900E-14
 -1      3170 2.00788E+01-7.97794E-02-8.98321E-03-1.60803E+00-4.71184E-14-1.18824E-13
 -1      3171 2.02493E+01 2.21911E-01 3.46140E-03-1.29332E+00-7.24126E-14-8.42558E-14
 -1      3172 2.01650E+01 2.95573E-01 4.75996E-04-1.22058E+00-7.61264E-14-1.87009E-13
 -1      3173 1.99299E+01 2.25634E-01-4.53705E-03-1.40878E+00-8.15837E-14 3.81685E-14
 -1      3174 2.01528E+01 3.46141E-01 2.96963E-03-1.12377E+00-7.22260E-15-2.47881E-13
 -1      3175 2.00967E+01 3.75605E-01-7.83129E-04-1.04394E+00 1.05745E-14-1.33578E-13
 -1      3176 1.98773E+01 3.88373E-01-1.94371E-03-1.20690E+00-9.98763E-14-1.44903E-13
 -1      3177 2.01034E+01 3.91359E-01 2.56131E-03-9.52746E-01 1.03624E-13-1.03027E-13
 -1      3178 2.00640E+01 3.93017E-01-1.37499E-03-8.73588E-01 1.55654E-13-7.64267E-14
 -1      3179 1.98743E+01 4.53837E-01-5.60391E-04-1.01544E+00 1.06182E-13-1.07929E-13
 -1      3180 2.00784E+01 3.87664E-01 2.24120E-03-7.90901E-01 8.90021E-14 2.61861E-14
 -1      3181 2.00492E+01 3.73427E-01-1.57484E-03-7.17036E-01-2.77566E-14 1.12235E-14
 -1      3182 1.98935E+01 4.57970E-01 9.88355E-05-8.40434E-01 1.27204E-13-1.62729E-13
 -1      3183 2.00652E+01 3.56654E-01 1.97405E-03-6.44194E-01 6.78113E-15-1.13567E-13
 -1      3184 2.00423E+01 3.34679E-01-1.54952E-03-5.78117E-01 1.79707E-13-1.55937E-13
 -1      3185 1.99199E+01 4.26793E-01 3.55409E-04-6.84704E-01-2.96292E-14 1.96643E-14
 -1      3186 2.00569E+01 3.12996E-01 1.72729E-03-5.15464E-01 1.93657E-13-3.22209E-13
 -1      3187 2.00383E+01 2.88614E-01-1.40618E-03-4.58175E-01 1.99591E-13-2.64573E-13
 -1      3188 1.99457E+01 3.78205E-01 4.12794E-04-5.49277E-01 1.82378E-13-2.81023E-13
 -1      3189 2.00503E+01 2.66152E-01 1.48067E-03-4.05339E-01 1.53729E-13-2.24691E-13
 -1      3190 2.00348E+01 2.42651E-01-1.21657E-03-3.56837E-01 8.35229E-14-2.58381E-13
 -1      3191 1.99675E+01 3.23957E-01 3.72183E-04-4.33824E-01 2.35109E-13-5.65015E-13
 -1      3192 2.00439E+01 2.21956E-01 1.23475E-03-3.13075E-01-5.01973E-15-2.13697E-13
 -1      3193 2.00313E+01 2.01341E-01-8.66946E-04-2.72675E-01 4.84105E-14-2.53596E-13
 -1      3194 1.99843E+01 2.71522E-01 3.66965E-04-3.37159E-01 6.85414E-14-4.01312E-13
 -1      3195 2.00400E+01 1.83628E-01 1.07753E-03-2.41173E-01-1.08863E-14-2.95075E-13
 -1      3196 2.00291E+01 1.66811E-01-5.05383E-04-2.07465E-01-4.60802E-14-3.97854E-13
 -1      3197 2.00079E+01 1.84640E-01-4.99546E-04-2.03234E-01-1.68855E-13-3.81924E-13
 -1      3198 1.99984E+01 2.24013E-01-5.55594E-05-2.61845E-01-1.36236E-14-2.19522E-13
 -1      3199 1.98728E+01 3.07724E-01-2.03835E-05-8.33946E-02 2.20289E-13 3.62415E-14
 -1      3200 1.98621E+01 3.15557E-01-8.93380E-04-5.44075E-02 2.30103E-13 2.18449E-13
 -1      3201 2.00872E+01 1.70809E-01 1.90869E-03-5.35728E-01 1.73003E-14 6.56709E-14
 -1      3202 2.00640E+01 1.55003E-01-6.12478E-04-4.95726E-01 5.51453E-14 7.07291E-14
 -1      3203 2.00754E+01 1.45000E-01 1.52562E-03-4.56858E-01 7.73122E-14 5.79864E-14
 -1      3204 2.00607E+01 1.39375E-01 6.03273E-05-4.19349E-01 6.66979E-14 7.43226E-14
 -1      3205 2.00779E+01 1.83599E-01-6.69072E-04-4.79548E-01 4.57678E-14 8.74011E-14
 -1      3206 2.01351E+01 2.60230E-01 2.52519E-03-7.32388E-01 2.87125E-14 9.46979E-14
 -1      3207 2.00974E+01 2.34103E-01-1.54833E-03-6.77254E-01 4.12496E-14 6.07462E-14
 -1      3208 2.01701E+01 3.08835E-01 2.78259E-03-8.59159E-01 1.85215E-14 1.18817E-13
 -1      3209 2.01249E+01 2.83871E-01-1.81955E-03-7.94310E-01 5.81892E-14 1.25104E-13
 -1      3210 2.00317E+01 3.24833E-01 3.79879E-05-7.76725E-01 8.16180E-15 8.84614E-14
 -1      3211 2.02149E+01 3.45243E-01 3.02002E-03-1.00606E+00-2.97564E-14 1.31138E-13
 -1      3212 2.01608E+01 3.28127E-01-1.89540E-03-9.32408E-01-8.36047E-15 1.23599E-13
 -1      3213 2.00186E+01 3.79615E-01 9.62690E-05-9.12953E-01 2.11002E-14 5.80921E-14
 -1      3214 2.02763E+01 3.51494E-01 3.26332E-03-1.16935E+00 9.94642E-14 1.10790E-13
 -1      3215 2.02094E+01 3.52237E-01-1.65016E-03-1.09025E+00 2.52403E-14 1.01827E-13
 -1      3216 2.00090E+01 4.16388E-01-1.08754E-04-1.07148E+00 2.73771E-14 3.08084E-14
 -1      3217 2.03683E+01 3.01027E-01 3.53612E-03-1.34018E+00 3.25038E-15 1.60342E-13
 -1      3218 2.02815E+01 3.34356E-01-8.58066E-04-1.26230E+00 7.02898E-14 1.74281E-13
 -1      3219 2.00111E+01 4.12652E-01-8.40551E-04-1.25058E+00 4.45146E-14 5.43704E-14
 -1      3220 2.05177E+01 1.56460E-01 3.79605E-03-1.50233E+00 1.81309E-14 1.25720E-13
 -1      3221 2.03982E+01 2.42841E-01 8.58593E-04-1.43710E+00 2.52043E-14 1.28061E-13
 -1      3222 2.00424E+01 3.35608E-01-2.53446E-03-1.44512E+00 5.29400E-14 8.06008E-14
 -1      3223 2.07698E+01-1.29670E-01 3.71618E-03-1.62801E+00-5.51127E-15 6.47241E-14
 -1      3224 2.05974E+01 3.51065E-02 4.08691E-03-1.59388E+00 2.08916E-14 1.28303E-13
 -1      3225 2.01374E+01 1.39659E-01-5.87456E-03-1.64448E+00 2.65276E-14 1.88021E-14
 -1      3226 2.11930E+01-6.04447E-01 2.50316E-03-1.66960E+00 1.55165E-14 2.98130E-14
 -1      3227 2.09412E+01-3.38036E-01 9.60812E-03-1.69544E+00-2.11288E-14 4.54738E-14
 -1      3228 2.03563E+01-2.32430E-01-1.17644E-02-1.82695E+00 6.58707E-16-6.23002E-14
 -1      3229 2.18734E+01-1.28522E+00-2.17224E-03-1.54829E+00 5.74011E-14 6.18169E-15
 -1      3230 2.15167E+01-9.12454E-01 1.81844E-02-1.67623E+00 2.50453E-14 1.43570E-14
 -1      3231 2.07936E+01-8.35352E-01-2.10233E-02-1.94536E+00 2.38923E-14-4.43944E-14
 -1      3232 2.28841E+01-2.05972E+00-5.88411E-03-1.14427E+00 5.52102E-14 2.23942E-13
 -1      3233 2.24214E+01-1.65791E+00 3.03733E-02-1.42052E+00 8.82629E-14 1.13545E-13
 -1      3234 2.15643E+01-1.68924E+00-4.04569E-02-1.89708E+00-9.73614E-16 2.82764E-14
 -1      3235 2.41728E+01-2.63587E+00-2.63736E-02-2.79206E-01 5.43437E-14 3.09104E-13
 -1      3236 2.37012E+01-2.40403E+00 3.72475E-02-7.65128E-01 4.50091E-14 2.57925E-13
 -1      3237 2.28723E+01-2.61760E+00-4.67601E-02-1.48525E+00-8.36657E-15 1.94356E-13
 -1      3238 2.55428E+01-2.22018E+00-2.46866E-02 1.00727E+00 1.26940E-13 3.00963E-13
 -1      3239 2.51500E+01-2.59426E+00 1.99041E-02 4.07390E-01 1.22767E-13 3.76490E-13
 -1      3240 2.45742E+01-3.14371E+00-4.61097E-02-5.37145E-01 8.60917E-14 3.69422E-13
 -1      3241 2.65512E+01 2.62256E+00-8.06784E-02 2.14690E+00 6.07847E-14 3.16896E-13
 -1      3242 2.66643E+01 1.01692E+00-1.15093E-01 2.49485E+00 1.49727E-13 2.48510E-13
 -1      3243 2.59903E+01 4.63022E+00-1.09633E-01 4.63725E-01-4.48253E-15 1.14612E-13
 -1      3244 2.60484E+01 3.92942E+00-1.85899E-01 1.54791E+00 3.60129E-14 1.61029E-13
 -1      3245 2.60773E+01-3.78144E+00 5.43404E-02-7.62672E-01 7.79828E-14 4.62616E-13
 -1      3246 2.67637E+01-2.54292E+00-8.37938E-02 6.83030E-01 2.38879E-13 6.16099E-13
 -1      3247 2.45907E+01-2.62170E+00 2.90000E-02 1.08378E-01 1.17443E-13-1.68073E-14
 -1      3248 2.50829E+01-2.55325E+00-1.42446E-02-4.97444E-01 7.50598E-14 3.50293E-14
 -1      3249 2.20518E+01-1.33656E+00 2.65504E-02 1.52330E+00-2.68603E-14 2.23462E-13
 -1      3250 2.24681E+01-1.73827E+00-3.98672E-03 1.31137E+00 1.54252E-14 1.73847E-13
 -1      3251 2.12850E+01-6.46470E-01 1.47863E-02 1.67069E+00-1.96487E-13 1.28487E-13
 -1      3252 2.15957E+01-9.82372E-01-4.19136E-04 1.59050E+00-6.38777E-14 1.79572E-13
 -1      3253 2.12416E+01-1.31753E+00-3.20395E-02 1.91252E+00-1.04567E-13-5.18223E-14
 -1      3254 2.08120E+01-1.49542E-01 7.24277E-03 1.62672E+00-1.22746E-14 4.53484E-14
 -1      3255 2.10277E+01-3.76055E-01 2.98547E-03 1.63174E+00-1.34664E-13 1.12771E-13
 -1      3256 2.06119E+01-5.50125E-01-1.69738E-02 1.87666E+00-1.22196E-13 1.65019E-13
 -1      3257 2.05341E+01 1.57835E-01 2.79559E-03 1.48909E+00-1.25592E-13 2.89042E-13
 -1      3258 2.06809E+01 2.42274E-02 3.54049E-03 1.54290E+00-1.18889E-13 1.49947E-13
 -1      3259 2.02713E+01-3.77333E-02-9.18691E-03 1.71888E+00-1.03436E-13 2.08438E-13
 -1      3260 2.03733E+01 3.20193E-01 2.93822E-04 1.31023E+00-8.19128E-14 5.34770E-13
 -1      3261 2.04757E+01 2.54206E-01 3.44993E-03 1.38843E+00-7.63952E-14 4.04662E-13
 -1      3262 2.01070E+01 2.64501E-01-4.39147E-03 1.51673E+00-1.96061E-13 3.72115E-13
 -1      3263 2.02781E+01 3.84762E-01-9.76121E-04 1.11994E+00 1.56096E-13 3.71199E-13
 -1      3264 2.03531E+01 3.62889E-01 3.18961E-03 1.20705E+00 8.40651E-14 5.07792E-13
 -1      3265 2.00390E+01 4.14967E-01-1.72673E-03 1.30481E+00 1.30934E-14 4.10417E-13
 -1      3266 2.02178E+01 3.89510E-01-1.51657E-03 9.35215E-01 1.28312E-13 2.52384E-13
 -1      3267 2.02757E+01 3.93806E-01 2.92121E-03 1.02169E+00 1.96013E-13 2.51325E-13
 -1      3268 2.00184E+01 4.66238E-01-4.11440E-04 1.09996E+00 1.80064E-13 4.02881E-13
 -1      3269 2.01756E+01 3.61321E-01-1.64615E-03 7.65403E-01-5.28671E-14 1.63843E-14
 -1      3270 2.02223E+01 3.79454E-01 2.66276E-03 8.45736E-01 3.00574E-14 9.88211E-14
 -1      3271 2.00180E+01 4.58248E-01 1.33244E-04 9.10767E-01 1.01102E-13 1.26405E-13
 -1      3272 2.01432E+01 3.17795E-01-1.55975E-03 6.15113E-01-7.86027E-14 6.13562E-14
 -1      3273 2.01817E+01 3.41842E-01 2.40129E-03 6.86500E-01-9.24117E-14-2.27158E-15
 -1      3274 2.00237E+01 4.18522E-01 2.87217E-04 7.41558E-01-1.17939E-13 2.32635E-14
 -1      3275 2.01163E+01 2.69841E-01-1.37507E-03 4.85878E-01-7.95967E-14 3.21654E-13
 -1      3276 2.01483E+01 2.94967E-01 2.12692E-03 5.47310E-01-1.16890E-13 1.05464E-13
 -1      3277 2.00295E+01 3.64860E-01 2.66912E-04 5.94107E-01-2.02217E-13 1.05408E-13
 -1      3278 2.00934E+01 2.23982E-01-1.10226E-03 3.77231E-01 2.13556E-13 2.93689E-13
 -1      3279 2.01199E+01 2.47333E-01 1.84679E-03 4.28844E-01 1.15355E-13 2.06593E-13
 -1      3280 2.00329E+01 3.08243E-01 1.80918E-04 4.68450E-01 1.48635E-14 1.97608E-13
 -1      3281 2.00742E+01 1.84569E-01-3.07253E-04 2.87728E-01 2.49515E-13 3.31360E-13
 -1      3282 2.00953E+01 2.03757E-01 1.62445E-03 3.29840E-01 2.31914E-13 2.73683E-13
 -1      3283 2.00329E+01 2.54998E-01-1.00181E-04 3.63481E-01 1.65564E-13 7.14055E-14
 -1      3284 2.62516E+01 3.97506E+00-1.18130E-01-1.56024E+00-2.80415E-13 2.60521E-13
 -1      3285 2.63480E+01 2.69137E+00-9.71602E-02-2.34339E+00-2.58106E-13 1.76893E-13
 -1      3286 2.00457E+01 2.21666E+00-4.32292E-03 2.78766E-01 9.46801E-14-1.52169E-13
 -1      3287 2.00313E+01 2.25710E+00-3.51902E-03 1.61907E-01 7.33175E-14-1.67168E-13
 -1      3288 1.99553E+01 2.29887E-01 1.36327E-04-1.74196E-01-9.69283E-14-3.65182E-13
 -1      3289 1.99304E+01 2.50936E-01-1.21424E-03-1.60814E-01 1.46089E-15-1.76923E-13
 -1      3290 1.98566E+01 3.21829E-01-4.73747E-04-1.76792E-02 2.85430E-13 2.20961E-13
 -1      3291 1.98562E+01 3.22206E-01-5.20860E-04 1.41332E-02 3.51029E-13 3.71383E-13
 -1      3292 1.98328E+01 3.48351E-01 1.20189E-03-4.04100E-02 3.23430E-13 2.18823E-13
 -1      3293 2.61476E+01 4.73487E+00-1.46709E-01-6.63772E-01-1.33824E-13 1.51650E-13
 -1      3294 2.71720E+01 4.76105E+00-1.27938E-01 1.45338E+00 3.42504E-14-1.69212E-13
 -1      3295 2.78582E+01 5.63722E+00-1.48164E-01 9.00434E-01-4.55191E-14 9.01640E-14
 -1      3296 2.65298E+01 5.31796E+00-1.44032E-01 3.31152E-01-7.59948E-14-1.03884E-13
 -1      3297 9.65586E+00 3.08628E-01 6.85602E-02-5.85495E-01-1.32947E-13-1.72792E-13
 -1      3298 1.02294E+01-9.18591E-02 1.12562E-01-2.53990E+00-1.62398E-13-1.62953E-13
 -1      3299 1.14391E+01-9.42348E-01 8.15753E-02-3.91095E+00-2.06706E-13-1.23498E-13
 -1      3300 1.34308E+01-2.01543E+00 3.86978E-02-5.03536E+00-2.05017E-13-8.98587E-14
 -1      3301 2.03041E+01 1.18505E+00 5.60647E-03-6.32390E-01-1.26380E-13-1.10261E-13
 -1      3302 2.02700E+01 9.46468E-01-4.50126E-03-4.38736E-01-1.01330E-13-1.14090E-13
 -1      3303 2.13589E+01-4.49058E+00-7.04217E-02 4.28787E+00 9.83588E-14 1.55813E-14
 -1      3304 1.88422E+01-3.64830E+00 1.20715E-01 5.03200E+00 1.21611E-13-2.35020E-14
 -1      3305 9.77589E+00-2.19960E-01 5.94962E-02 2.46593E+00-1.80168E-13 6.36435E-14
 -1      3306 8.74110E+00 2.21716E-01 1.87033E-01 6.24460E-01-6.53253E-14 2.48010E-13
 -1      3307 2.56105E+01-4.28064E+00-4.40654E-02 1.62194E+00 1.02293E-13 3.93435E-15
 -1      3308 2.39883E+01-4.42361E+00 6.86986E-02 2.75517E+00 1.18319E-13-3.64014E-14
 -1      3309 2.00117E+01 1.66367E-01 4.30610E-04 1.65364E-01 3.39674E-13 1.24230E-13
 -1      3310 2.01523E+01 3.52138E-01-1.42218E-03-3.32411E-02 7.30219E-14 1.37371E-15
 -1      3311 2.01912E+01 4.43998E-01 4.22347E-03 6.99653E-02 9.22081E-14-7.64078E-16
 -1      3312 1.99075E+01 2.76294E-01 3.88166E-04-1.38292E-01 1.51814E-13-4.29909E-14
 -1      3313 1.98876E+01 2.91075E-01-1.17557E-03-1.14992E-01 2.65355E-13-1.58487E-13
 -1      3314 1.98575E+01 3.26794E-01 1.07074E-03-1.11913E-01 2.84465E-13-1.26601E-14
 -1      3315 1.99025E+01 2.87380E-01 7.52304E-04-1.68794E-01 6.54627E-14-3.79751E-13
 -1      3316 2.31815E+01-2.12713E+00 3.34301E-02 1.04945E+00 2.52376E-14 1.24763E-13
 -1      3317 2.36723E+01-2.45049E+00-1.34139E-02 6.28774E-01 8.58896E-14 6.33583E-14
 -1      3318 2.38623E+01-2.95365E+00-2.26635E-02 9.79114E-01 1.39359E-14 1.93592E-13
 -1      3319 2.23412E+01-2.21576E+00-3.15335E-02 1.66840E+00 6.19123E-15 1.71609E-13
 -1      3320 2.01075E+01 2.11437E-01 2.23646E-03-6.25631E-01 3.79246E-14 5.91773E-14
 -1      3321 2.00769E+01 1.88720E-01-1.14246E-03-5.79280E-01 3.26125E-14 8.49561E-14
 -1      3322 2.00604E+01 2.17410E-01-3.97761E-04-5.64620E-01 2.34811E-14 7.78840E-14
 -1      3323 2.00455E+01 2.67229E-01-1.53184E-04-6.61765E-01 2.09139E-14 4.90967E-14
 -1      3324 2.00951E+01 2.26986E+00-6.24245E-03-1.09615E+00-1.01141E-13-1.81046E-13
 -1      3325 2.01723E+01 2.08414E+00-8.22794E-03-1.17870E+00-1.24132E-13-1.74572E-13
 -1      3326 2.02440E+01 1.78556E+00 5.84576E-03-1.01435E+00-1.32433E-13-1.56530E-13
 -1      3327 2.01773E+01 2.00701E+00 8.05292E-03-8.90379E-01-8.76388E-14-1.57804E-13
 -1      3328 2.03009E+01 1.01273E+00-8.20752E-04 6.58077E-01 1.63985E-13-5.98051E-14
 -1      3329 2.02797E+01 1.33677E+00 4.36614E-03 7.41862E-01 1.62524E-13-6.72020E-14
 -1      3330 2.02948E+01 1.16544E+00 5.45682E-03 5.60299E-01 1.42767E-13-6.02846E-14
 -1      3331 2.02470E+01 8.04237E-01-3.47941E-03 4.44557E-01 1.41316E-13-4.94488E-14
 -1      3332 1.58351E+01-2.93652E+00 1.03731E-01-5.37410E+00-2.02657E-13 9.41816E-14
 -1      3333 1.86875E+01-3.94026E+00 1.05754E-02-5.17464E+00-1.86802E-13 2.82219E-13
 -1      3334 1.57064E+01-2.07999E+00 1.11980E-01-4.68308E+00-1.87905E-13 4.45408E-14
 -1      3335 2.01109E+01 2.30126E-01-3.68984E-04-1.85836E-01 8.61071E-14-9.91397E-15
 -1      3336 2.01342E+01 2.83968E-01 3.30420E-03-1.15396E-01 7.34781E-14 1.22634E-14
 -1      3337 2.02082E+01 3.92385E-01-1.56221E-03-5.24894E-02 7.24732E-14-1.37122E-14
 -1      3338 1.10793E+01-6.94635E-01 6.15692E-02 3.70626E+00-1.12875E-13-4.98629E-14
 -1      3339 9.89740E+00 1.38868E-01 9.24313E-02 1.67793E+00-1.32160E-13-8.96366E-14
 -1      3340 1.31865E+01-1.51138E+00 1.00994E-01-4.61519E+00 9.19265E-14 4.19317E-13
 -1      3341 1.54511E+01-2.67176E+00-3.64350E-03-5.30133E+00-5.10772E-14 3.12327E-13
 -1      3342 2.02839E+01 7.57701E-01 4.38385E-03-2.95775E-01-9.05257E-14-9.53727E-14
 -1      3343 2.02437E+01 6.03578E-01-3.24828E-03-1.55455E-01-8.04340E-14-1.03062E-13
 -1      3344 2.02819E+01 6.47777E-01-2.95892E-04-1.21800E-01-7.81537E-14-7.15856E-14
 -1      3345 2.64551E+01-2.94863E+00 3.48609E-02 1.87747E-01-1.07869E-13-3.16386E-13
 -1      3346 2.72485E+01-1.66828E+00-1.33382E-01 1.14432E+00-2.01037E-14-2.25861E-14
 -1      3347 2.69700E+01 1.66989E+00-1.23259E-01-2.38442E+00-1.67671E-13 1.92138E-14
 -1      3348 2.76881E+01-2.27574E-01-3.83155E-02-2.07368E+00-9.72139E-14-7.09294E-14
 -1      3349 2.76473E+01-2.10413E+00-1.35225E-01-9.78844E-01-5.06539E-16-3.35551E-13
 -1      3350 2.74075E+01-3.57316E+00 5.62315E-02 5.25680E-01-1.02069E-13-1.57152E-13
 -1      3351 1.84354E+01-3.47206E+00 1.37861E-01-5.07592E+00-1.21014E-14 6.08819E-14
 -1      3352 2.12585E+01-4.47426E+00-9.28396E-02-4.27905E+00 3.31679E-15-3.18287E-14
 -1      3353 1.60224E+01-2.97604E+00-1.92270E-02 5.38560E+00 1.00690E-13 2.87548E-14
 -1      3354 1.34646E+01-1.62824E+00 1.18455E-01 4.73727E+00-8.97199E-15 3.51386E-14
 -1      3355 2.72482E+01-3.84770E-02-6.19879E-02 2.16517E+00 1.76116E-13 3.81327E-13
 -1      3356 2.60884E+01-3.32265E-01-4.25797E-02 2.15921E+00 2.72386E-13 4.53144E-14
 -1      3357 2.59770E+01-1.47479E+00-5.50422E-02 1.83185E+00 2.34949E-13 1.79246E-13
 -1      3358 2.74186E+01-1.49555E+00-3.91952E-02 1.62915E+00 2.58828E-13 5.33650E-13
 -1      3359 2.00236E+01 2.27716E+00-3.79769E-03 6.31993E-02 5.47372E-14-1.74524E-13
 -1      3360 2.00230E+01 2.27808E+00-3.78746E-03-5.56686E-02 4.75148E-14-1.74253E-13
 -1      3361 2.01336E+01 1.99159E+00 5.29385E-03 9.46843E-02 5.93537E-14-1.51845E-13
 -1      3362 2.00950E+01 2.07427E+00-5.33971E-03 4.81575E-01 1.18540E-13-1.39453E-13
 -1      3363 2.00677E+01 2.15753E+00-3.32123E-03 3.72060E-01 1.00382E-13-1.46931E-13
 -1      3364 2.01590E+01 1.91198E+00 5.52204E-03 2.71821E-01 1.03314E-13-1.47194E-13
 -1      3365 2.02937E+01 9.93895E-01 2.28125E-04-3.77583E-01-1.05124E-13-8.83803E-14
 -1      3366 2.60659E+01-3.49536E+00-1.87864E-02 5.98239E-01 5.91523E-14-6.79595E-14
 -1      3367 1.99278E+01 2.55119E-01-1.39117E-03 1.60363E-01 2.78817E-13-2.02033E-13
 -1      3368 1.99550E+01 2.35499E-01 1.02589E-03 1.74789E-01 2.96427E-13 7.87239E-14
 -1      3369 1.14277E+01-3.85394E-01 1.72115E-01 3.35787E+00-7.53599E-14 1.09163E-13
 -1      3370 1.12470E+01 1.02198E-01 5.54267E-02 2.26440E+00-9.82860E-14 8.73052E-14
 -1      3371 1.31094E+01-9.40595E-01 4.32991E-02 3.88896E+00-1.64160E-13 1.60968E-13
 -1      3372 2.54984E+01-1.57033E+00-2.18865E-02-1.42961E+00 6.70471E-14-2.20924E-13
 -1      3373 2.62896E+01-1.35263E+00-2.79655E-02-1.55822E+00 8.24271E-14-1.97491E-13
 -1      3374 2.51915E+01-2.25922E+00-1.41784E-02-8.55640E-01 9.60844E-14-1.66612E-13
 -1      3375 2.01261E+01 1.98346E+00-2.94296E-03-5.56785E-01-4.11200E-14-1.56610E-13
 -1      3376 2.01657E+01 1.85103E+00-6.36002E-03-6.54163E-01-5.56159E-14-1.52146E-13
 -1      3377 2.58117E+01-2.17131E-02-1.37084E-01-2.42744E+00-5.08690E-14 3.99738E-13
 -1      3378 2.59000E+01 1.34676E+00-6.97683E-02-2.31543E+00-1.90709E-13 2.71634E-13
 -1      3379 2.00850E+01 1.65270E-01 4.54787E-04-2.95178E-01 6.87487E-14-2.01570E-14
 -1      3380 2.00931E+01 1.92608E-01 1.98576E-03-2.44586E-01 8.47464E-14-9.20298E-15
 -1      3381 2.01649E+01 2.63395E-01-1.44812E-03-2.00520E-01 7.58633E-14-2.48843E-14
 -1      3382 2.00998E+01 1.73556E-01-9.54760E-04-3.98347E-01 2.26579E-14 4.59079E-14
 -1      3383 2.00739E+01 1.40539E-01 1.05870E-03-3.80509E-01 2.16933E-14 4.01999E-14
 -1      3384 2.00694E+01 1.48860E-01 9.12883E-04-3.40092E-01 2.71180E-14 5.30909E-15
 -1      3385 2.58620E+01-3.27541E+00-1.02179E-02 1.24340E-01 2.24248E-14 3.28643E-14
 -1      3386 2.60908E+01-2.35234E+00-5.56300E-03-1.01873E+00 1.26690E-13-6.39905E-14
 -1      3387 2.28127E+01-4.02557E+00 3.75110E-02 2.98754E+00 6.54719E-14-5.11258E-14
 -1      3388 2.63990E+01-1.47165E+00-3.19456E-02-1.56283E+00 1.03764E-13 1.51277E-13
 -1      3389 2.00656E+01 1.78076E-01 1.26762E-03 2.58286E-01 2.92444E-13 1.97598E-13
 -1      3390 2.00204E+01 2.20002E-01-8.99466E-04 2.84969E-01 3.08392E-13-1.73889E-14
 -1      3391 2.00471E+01 1.72296E-01 5.35804E-04 2.32712E-01 2.26552E-13 2.10364E-13
 -1      3392 1.98857E+01 2.94347E-01-1.17649E-03 1.12952E-01 2.26364E-13 2.82546E-13
 -1      3393 1.99054E+01 2.79943E-01 3.25055E-04 1.36797E-01 3.11474E-13-3.21117E-14
 -1      3394 1.99000E+01 2.92592E-01 9.28680E-04 1.67032E-01 2.87101E-13 4.34066E-14
 -1      3395 2.69372E+01 6.28467E-01-9.96819E-02-2.22891E+00 3.22312E-14-2.26832E-13
 -1      3396 2.78114E+01-3.25918E-01-7.29049E-02-1.74957E+00 1.49485E-13-1.87433E-13
 -1      3397 1.22204E+01-2.45130E-01 1.12392E-01-2.96548E+00-2.05920E-13-1.43420E-13
 -1      3398 1.98610E+01 3.17295E-01-8.73696E-04 5.08918E-02 3.06850E-13 2.48439E-13
 -1      3399 1.98713E+01 3.09935E-01-9.64285E-05 8.07621E-02 2.76049E-13 1.49035E-13
 -1      3400 1.98553E+01 3.30387E-01 1.08635E-03 1.08627E-01 1.52230E-13 2.76909E-13
 -1      3401 1.98320E+01 3.49597E-01 1.19497E-03 3.64592E-02 3.32595E-13 3.36738E-13
 -1      3402 1.68460E+01-2.93165E+00 1.03560E-01 5.15558E+00-8.01095E-14 3.90105E-14
 -1      3403 1.59333E+01-2.08810E+00 4.56790E-02 4.67000E+00-4.11962E-14 1.57825E-13
 -1      3404 1.87788E+01-3.16963E+00 1.38158E-02 4.51956E+00-1.14662E-13 7.02320E-14
 -1      3405 2.47867E+01-3.91941E+00 1.38397E-02-1.51177E+00-1.08802E-14 3.53488E-13
 -1      3406 2.30510E+01-4.44990E+00 5.99964E-02 3.37967E+00-1.75485E-13-5.89077E-14
 -1      3407 2.14358E+01-3.95264E+00 8.81420E-03 3.78426E+00-1.68435E-13-1.11816E-13
 -1      3408 9.94716E+00 2.95052E-01 1.28501E-01-5.43523E-01 8.86236E-14 2.05891E-13
 -1      3409 1.05548E+01 5.38980E-01 1.21566E-01 5.43017E-01-1.06823E-13-1.69934E-13
 -1      3410 1.15788E+01 6.52261E-01 4.32002E-02-4.48660E-01-7.72446E-14-1.47340E-13
 -1      3411 1.17809E+01 4.77488E-01 4.17297E-02 1.47991E+00-8.79088E-14-8.31557E-14
 -1      3412 2.06664E+01-4.09549E+00 7.87053E-02-4.47105E+00-1.20223E-13 2.96223E-13
 -1      3413 2.20678E+01-4.12204E+00-3.02735E-02-3.43939E+00-1.13359E-13 2.02556E-13
 -1      3414 1.93737E+01-3.31574E+00 3.32166E-02-4.41919E+00-1.25872E-13 1.84082E-13
 -1      3415 1.80567E+01-2.82046E+00 5.77813E-02 4.60355E+00 1.26579E-13 8.66321E-15
 -1      3416 1.99837E+01 2.00912E-01-1.80093E-03 1.87941E-01 3.70407E-13 2.05738E-13
 -1      3417 2.00275E+01 1.65624E-01 9.90785E-04 1.92177E-01 1.96490E-13 3.44572E-13
 -1      3418 2.00408E+01 1.71223E-01 1.57135E-03 2.15248E-01 1.22847E-13 2.72190E-13
 -1      3419 1.99638E+01 2.37194E-01 6.70170E-04 2.05848E-01 3.37177E-13 5.63755E-14
 -1      3420 2.00648E+01 2.16352E+00-3.27109E-03-3.64620E-01 3.56461E-15-1.67592E-13
 -1      3421 2.00911E+01 2.08314E+00-5.05305E-03-4.75671E-01-2.25034E-14-1.81664E-13
 -1      3422 2.01988E+01 1.75764E+00 4.40075E-03-4.23794E-01-4.23983E-14-1.51081E-13
 -1      3423 1.77209E+01-2.65094E+00 8.41002E-02-4.60847E+00-8.25728E-15 8.92342E-14
 -1      3424 2.70648E+01-1.38318E+00-4.47491E-02-1.32642E+00 7.72854E-14-1.98334E-13
 -1      3425 2.01671E+01 1.84121E+00-6.83077E-03 6.56601E-01 1.40002E-13-9.49575E-14
 -1      3426 2.01299E+01 1.97475E+00-2.78445E-03 5.63259E-01 1.19782E-13-1.10602E-13
 -1      3427 2.02047E+01 1.75167E+00 5.97107E-03 4.30496E-01 1.13298E-13-1.15222E-13
 -1      3428 2.02591E+01 1.50629E+00 6.40699E-03 5.51859E-01 1.27171E-13-8.58802E-14
 -1      3429 1.23815E+01-8.39710E-01 9.81750E-02-4.00736E+00 1.42754E-13 6.31689E-13
 -1      3430 1.43328E+01-9.50379E-01 7.49393E-02-3.93361E+00 6.95468E-14 6.30801E-13
 -1      3431 1.16845E+01-1.88848E-01 3.40762E-02-2.95939E+00 1.21269E-13 4.02053E-13
 -1      3432 2.61859E+01 1.47863E+00-7.21131E-02-2.35149E+00-8.27116E-14-1.98185E-13
 -1      3433 1.35163E+01-8.35374E-01 1.01793E-01 3.79951E+00-2.54449E-14 8.40300E-14
 -1      3434 2.40124E+01-4.21076E+00 1.11876E-01-2.58931E+00-6.35846E-14-3.60430E-13
 -1      3435 2.54172E+01-3.94449E+00-9.42582E-02-1.17327E+00-1.89414E-13-4.67352E-13
 -1      3436 2.53024E+01-4.30717E+00-1.09038E-02 1.85340E+00-1.39486E-13-7.75699E-14
 -1      3437 2.25151E+01-3.85156E+00 2.50201E-02-2.99383E+00 1.06859E-14-3.26099E-13
 -1      3438 1.99885E+01 2.00227E-01-4.41411E-04-1.95656E-01-2.33630E-13-3.88337E-13
 -1      3439 1.99705E+01 2.15323E-01-6.27212E-04-1.85649E-01-2.20748E-13-2.52714E-13
 -1      3440 1.99477E+01 2.49320E-01 6.37403E-04-2.02920E-01-1.73583E-13-5.25095E-13
 -1      3441 1.99862E+01 2.20285E-01 8.17411E-04-2.22818E-01-1.98785E-13-3.16066E-13
 -1      3442 2.01971E+01 5.30379E-01-1.69712E-03 1.66015E-01 8.92150E-14-4.04335E-14
 -1      3443 2.02485E+01 6.69614E-01 4.10790E-03 3.16829E-01 1.11595E-13-4.75788E-14
 -1      3444 2.02705E+01 8.14947E-01-4.92861E-03 3.74237E-01 1.31262E-13-3.96497E-14
 -1      3445 2.02451E+01 5.77595E-01-2.07023E-03 1.35879E-01 6.97829E-14-6.43779E-15
 -1      3446 2.02492E+01 1.50587E+00-5.17030E-03-8.50141E-01-1.33426E-13-1.45626E-13
 -1      3447 2.49228E+01-2.84163E+00-1.56849E-02 1.49612E-02 9.49418E-14-6.73181E-14
 -1      3448 2.02431E+01 1.53422E+00-2.76390E-03-7.38505E-01-1.05569E-13-1.33201E-13
 -1      3449 2.50687E+01-3.89214E+00-1.79940E-02 1.35749E+00-1.01152E-13-2.13510E-14
 -1      3450 2.62512E+01 4.31158E+00-1.13489E-01 1.47518E+00 9.20097E-15-2.73906E-13
 -1      3451 2.67721E+01-6.80654E-01-5.51310E-02 1.76266E+00 3.06803E-14-1.33484E-13
 -1      3452 1.50447E+01-1.06905E+00 5.07826E-03 3.94461E+00 4.65235E-14 2.32231E-13
 -1      3453 1.32244E+01-9.33964E-02 6.01154E-02 2.96954E+00-1.41050E-14 1.24789E-13
 -1      3454 2.02145E+01 1.62967E+00-2.87202E-03-6.79502E-01-8.30437E-14-1.38567E-13
 -1      3455 2.02535E+01 3.68015E-01 1.44005E-03 1.55673E-01-6.22957E-14-8.44467E-14
 -1      3456 2.02281E+01 3.12265E-01-7.35933E-04 2.17017E-01-5.93181E-14-7.21159E-14
 -1      3457 2.02006E+01 2.73995E-01 7.27120E-04 2.64793E-01-6.70991E-14-8.49330E-14
 -1      3458 2.01771E+01 2.48695E-01 2.91476E-06 3.12986E-01-4.93952E-14-7.26752E-14
 -1      3459 2.02409E+01 3.40734E-01-6.82990E-06 2.18094E-01-5.76165E-14-7.00170E-14
 -1      3460 2.01424E+01 2.35796E-01 2.06785E-05 3.52984E-01-2.06705E-14-7.31338E-14
 -1      3461 2.01212E+01 2.33164E-01 5.52297E-04 3.94940E-01-1.46203E-15-8.77396E-14
 -1      3462 2.01765E+01 2.81482E-01-6.78740E-06 3.08114E-01-2.97698E-14-5.51766E-14
 -1      3463 2.00807E+01 2.38946E-01-6.26959E-04 4.32657E-01-7.03880E-15-1.08176E-13
 -1      3464 2.00613E+01 2.52860E-01 9.62007E-04 4.73962E-01-1.95195E-14-8.66576E-14
 -1      3465 2.01021E+01 2.72425E-01 1.33975E-04 3.87318E-01-2.02674E-14-3.46619E-14
 -1      3466 2.00151E+01 2.71818E-01-1.19888E-03 5.13981E-01-2.01116E-14-1.00380E-13
 -1      3467 1.99967E+01 2.96940E-01 1.28168E-03 5.58923E-01-1.70926E-14-5.34466E-14
 -1      3468 2.00184E+01 3.00199E-01 3.61345E-04 4.65673E-01-1.10625E-14-7.29727E-14
 -1      3469 1.99446E+01 3.23949E-01-1.69436E-03 6.04922E-01-3.07336E-14-1.14027E-14
 -1      3470 1.99268E+01 3.54964E-01 1.56446E-03 6.56613E-01-1.90576E-14 1.40230E-14
 -1      3471 1.99248E+01 3.53067E-01 6.26999E-04 5.51373E-01 3.05230E-15-4.54119E-14
 -1      3472 1.98684E+01 3.84495E-01-2.10727E-03 7.11536E-01 7.33827E-15 2.51462E-14
 -1      3473 1.98515E+01 4.15287E-01 1.87790E-03 7.72051E-01 3.10374E-14 3.03416E-14
 -1      3474 1.98202E+01 4.19433E-01 8.81149E-04 6.51034E-01 1.36466E-14-5.13925E-14
 -1      3475 1.97870E+01 4.40509E-01-2.41167E-03 8.38364E-01-9.65893E-15 1.74596E-14
 -1      3476 1.97728E+01 4.63194E-01 2.31398E-03 9.08851E-01-4.41685E-14 1.28040E-14
 -1      3477 1.97039E+01 4.86138E-01 1.04508E-03 7.70191E-01 5.36853E-16-3.90171E-14
 -1      3478 1.97042E+01 4.74954E-01-2.54948E-03 9.88815E-01-8.28603E-14 4.38271E-14
 -1      3479 1.96973E+01 4.78818E-01 3.01021E-03 1.06955E+00-1.24642E-13 3.31749E-14
 -1      3480 1.95773E+01 5.36548E-01 1.00619E-03 9.13940E-01-4.12081E-14 6.78861E-15
 -1      3481 1.96292E+01 4.64547E-01-2.40332E-03 1.16556E+00-1.71389E-13 6.68075E-14
 -1      3482 1.96389E+01 4.34886E-01 4.15852E-03 1.25590E+00-1.36085E-13 5.41906E-14
 -1      3483 1.94460E+01 5.48319E-01 5.61858E-04 1.08774E+00-1.15821E-13 7.30640E-14
 -1      3484 1.95815E+01 3.77479E-01-1.72943E-03 1.37080E+00-1.39781E-13 8.10750E-14
 -1      3485 1.96243E+01 2.94342E-01 5.93558E-03 1.46875E+00-1.82730E-13 3.80528E-14
 -1      3486 1.93233E+01 4.90960E-01-6.32380E-04 1.29844E+00-1.20321E-13 1.24600E-13
 -1      3487 1.95973E+01 1.71281E-01-3.80509E-05 1.60536E+00-2.15233E-13 4.43362E-14
 -1      3488 1.97005E+01 8.73153E-03 8.27756E-03 1.70579E+00-9.84672E-14 9.69597E-15
 -1      3489 1.92355E+01 3.22591E-01-3.24039E-03 1.55499E+00-1.85286E-13 1.57988E-13
 -1      3490 1.97398E+01-2.07205E-01 3.53445E-03 1.86386E+00-3.64932E-15-7.18815E-15
 -1      3491 1.99451E+01-4.77679E-01 1.15330E-02 1.95290E+00 5.57832E-14-5.43960E-14
 -1      3492 1.92322E+01-1.27160E-02-8.42829E-03 1.86600E+00-9.45430E-14 8.68999E-14
 -1      3493 2.01149E+01-8.19907E-01 1.06096E-02 2.12307E+00 1.21424E-13-3.93978E-14
 -1      3494 2.04749E+01-1.21702E+00 1.42045E-02 2.16091E+00 1.49497E-13-6.26333E-15
 -1      3495 1.94010E+01-5.83442E-01-1.68599E-02 2.23394E+00 9.64096E-14 2.38462E-14
 -1      3496 2.08878E+01-1.68899E+00 2.78201E-02 2.30413E+00 1.20119E-13-1.98973E-15
 -1      3497 2.15387E+01-2.19437E+00 2.43426E-02 2.17768E+00 1.19758E-13-7.87599E-14
 -1      3498 1.99208E+01-1.44073E+00-1.36844E-02 2.62823E+00 1.20699E-13 3.94276E-14
 -1      3499 1.69172E+01-1.79475E+00 5.77697E-02-4.20080E+00 6.29288E-14 1.35239E-13
 -1      3500 1.90206E+01-2.83926E+00-5.04641E-02-4.13185E+00 8.53206E-14-9.49067E-14
 -1      3501 1.52717E+01-1.30233E+00 4.87307E-02-4.12208E+00-1.91430E-13 1.46515E-14
 -1      3502 1.72548E+01-2.30732E+00 1.77313E-02-4.51326E+00-1.64816E-13 9.42579E-14
 -1      3503 2.51158E+01 4.27907E+00-1.96676E-01 8.26349E-01-2.20449E-14-4.11965E-13
 -1      3504 2.16858E+01-2.40881E+00 6.54211E-03-2.19830E+00-1.00862E-13-3.39838E-13
 -1      3505 2.10825E+01-1.87284E+00 2.84139E-02-2.29878E+00-1.64638E-14-1.99864E-13
 -1      3506 2.06189E+01-1.37553E+00 1.35274E-02-2.17745E+00 1.29148E-13-1.83912E-13
 -1      3507 2.02239E+01-9.41561E-01 1.45410E-02-2.14345E+00 1.45715E-13-3.49764E-16
 -1      3508 2.00395E+01-1.63037E+00-2.41565E-02-2.66124E+00 2.48100E-14-6.65214E-14
 -1      3509 2.00156E+01-5.77237E-01 1.14981E-02-1.97525E+00-1.36869E-14 3.20903E-14
 -1      3510 1.97852E+01-2.76842E-01 5.26914E-03-1.88633E+00-3.14215E-14-3.34522E-15
 -1      3511 1.94602E+01-7.03056E-01-1.77616E-02-2.28489E+00 7.14289E-14 9.39275E-14
 -1      3512 1.97228E+01-3.54996E-02 8.82789E-03-1.72051E+00-3.98292E-14-9.81930E-14
 -1      3513 1.96023E+01 1.50495E-01 7.34336E-04-1.61566E+00 6.30616E-14 9.89069E-15
 -1      3514 1.92343E+01-6.78163E-02-9.15132E-03-1.90434E+00-6.99024E-14 2.95081E-14
 -1      3515 1.96155E+01 2.93854E-01 6.18233E-03-1.46933E+00-6.71922E-14-1.32685E-13
 -1      3516 1.95619E+01 3.95098E-01-1.33851E-03-1.36416E+00-1.70779E-13-1.69939E-13
 -1      3517 1.92054E+01 3.17413E-01-3.68226E-03-1.57246E+00-4.72499E-14-2.77948E-13
 -1      3518 1.96099E+01 4.67962E-01 4.21411E-03-1.23893E+00-1.22918E-13-2.28696E-13
 -1      3519 1.95933E+01 5.11205E-01-2.19166E-03-1.13969E+00-5.07444E-14-1.54904E-13
 -1      3520 1.92727E+01 5.23614E-01-7.64262E-04-1.29450E+00-1.88334E-13-3.21554E-13
 -1      3521 1.96535E+01 5.36927E-01 2.92458E-03-1.03304E+00 7.42942E-14 1.38785E-14
 -1      3522 1.96552E+01 5.42959E-01-2.44898E-03-9.42252E-01 1.51300E-13 3.30846E-14
 -1      3523 1.93801E+01 6.09220E-01 6.65314E-04-1.06254E+00 7.55621E-14 1.90368E-14
 -1      3524 1.97159E+01 5.39263E-01 2.12855E-03-8.51407E-01 1.50998E-13 5.72810E-15
 -1      3525 1.97250E+01 5.23163E-01-2.41307E-03-7.70172E-01 1.12275E-13-3.70219E-14
 -1      3526 1.94970E+01 6.17903E-01 1.27102E-03-8.67604E-01 1.29726E-13 4.44036E-14
 -1      3527 1.97804E+01 5.02706E-01 1.64185E-03-6.92992E-01-6.60765E-14-7.55238E-14
 -1      3528 1.97912E+01 4.74948E-01-2.23282E-03-6.21747E-01-8.97436E-14-1.42939E-14
 -1      3529 1.96075E+01 5.80821E-01 1.43272E-03-7.02927E-01-3.73267E-14 6.55197E-14
 -1      3530 1.98388E+01 4.46405E-01 1.33035E-03-5.56693E-01 5.88741E-14-4.67889E-14
 -1      3531 1.98486E+01 4.14119E-01-1.97305E-03-4.95421E-01 2.57164E-13-2.00102E-13
 -1      3532 1.97044E+01 5.19519E-01 1.35633E-03-5.63936E-01-1.77646E-14-2.09111E-13
 -1      3533 1.98877E+01 3.83360E-01 1.10327E-03-4.41146E-01 1.98130E-13-2.82331E-13
 -1      3534 1.98954E+01 3.51221E-01-1.66216E-03-3.89330E-01 1.61194E-13-4.37054E-13
 -1      3535 1.97853E+01 4.48880E-01 1.20451E-03-4.47458E-01 1.02214E-13-2.61733E-13
 -1      3536 1.99263E+01 3.21233E-01 7.50265E-04-3.44340E-01 3.10091E-13-3.89184E-13
 -1      3537 1.99332E+01 2.92395E-01-1.04322E-03-3.01663E-01 1.77453E-13-2.49828E-13
 -1      3538 1.98501E+01 3.78738E-01 1.09614E-03-3.50449E-01 2.81582E-13-3.52989E-13
 -1      3539 2.44822E+01-3.59973E+00 1.00862E-02 1.24496E+00 1.05662E-13-1.02633E-13
 -1      3540 2.53907E+01-3.31742E+00-2.94856E-02 4.05929E-01 8.95360E-14-5.70377E-14
 -1      3541 2.39477E+01-3.64323E+00 7.39709E-03 1.64876E+00-1.27919E-13 1.38993E-13
 -1      3542 1.98726E+01 4.59425E-01 2.29871E-03-9.21779E-01-2.11291E-14 5.66233E-14
 -1      3543 1.98758E+01 4.27635E-01-2.56886E-03-8.49340E-01 4.19112E-15 1.57211E-14
 -1      3544 1.99314E+01 3.95846E-01 1.97133E-03-7.82839E-01 9.63131E-15 2.50222E-14
 -1      3545 1.99359E+01 3.60465E-01-2.17320E-03-7.21057E-01-1.24687E-14 4.00043E-14
 -1      3546 1.97878E+01 4.71350E-01 1.15824E-03-7.90072E-01-4.57960E-15-1.55154E-14
 -1      3547 1.97551E+01 4.99173E-01 3.70322E-03-1.27239E+00-8.10522E-16 3.22497E-14
 -1      3548 1.97440E+01 5.06347E-01-2.84586E-03-1.17941E+00 4.34085E-14-9.33167E-15
 -1      3549 1.97257E+01 4.15559E-01 5.23036E-03-1.48469E+00 3.98293E-14 4.97401E-14
 -1      3550 1.96911E+01 4.68168E-01-2.40958E-03-1.38435E+00 3.46600E-14 5.40015E-14
 -1      3551 1.94287E+01 5.70911E-01 5.57055E-04-1.30923E+00-6.04389E-15 4.60733E-15
 -1      3552 1.97617E+01 2.01834E-01 7.64164E-03-1.71940E+00 3.68919E-14-3.72670E-14
 -1      3553 1.96799E+01 3.26590E-01-1.08207E-03-1.61653E+00 6.26996E-14-1.29839E-15
 -1      3554 1.93185E+01 4.63603E-01-1.29058E-03-1.55399E+00 8.06705E-14-1.18797E-14
 -1      3555 1.99333E+01-2.06218E-01 1.09407E-02-1.96752E+00 7.33477E-14-1.61456E-13
 -1      3556 1.97646E+01 2.50469E-02 2.07162E-03-1.87297E+00 4.70696E-14-9.94023E-14
 -1      3557 1.92645E+01 2.04473E-01-5.26022E-03-1.84878E+00 8.03628E-14-9.50058E-14
 -1      3558 2.03552E+01-8.77075E-01 1.48010E-02-2.19755E+00-6.54110E-14 1.11671E-14
 -1      3559 2.00421E+01-5.05497E-01 8.87947E-03-2.13765E+00-1.30325E-14-8.81237E-14
 -1      3560 1.93423E+01-2.82465E-01-1.31817E-02-2.20088E+00-3.66072E-14-1.11327E-13
 -1      3561 2.12387E+01-1.85079E+00 2.21294E-02-2.30222E+00-6.86595E-14 1.15494E-13
 -1      3562 2.06730E+01-1.31963E+00 2.57346E-02-2.35426E+00-6.81157E-14 4.92351E-14
 -1      3563 1.96986E+01-1.09392E+00-2.76474E-02-2.59653E+00-1.10917E-13 7.23033E-14
 -1      3564 2.25983E+01-3.32581E+00 1.84844E-02-2.45480E+00-2.39253E-14 1.71848E-13
 -1      3565 2.17429E+01-2.75240E+00 2.94647E-02-2.66206E+00-6.80515E-14 1.78560E-13
 -1      3566 2.38272E+01-3.69833E+00 7.30770E-02-2.07314E+00-5.35318E-14 2.54456E-13
 -1      3567 2.61406E+01-2.40839E+00-1.71448E-02 9.51421E-01 2.26488E-13 3.06071E-13
 -1      3568 2.26145E+01-3.52953E+00 2.17330E-02 2.55448E+00 1.05145E-13-5.82269E-14
 -1      3569 2.03970E+01-9.44040E-01 1.98558E-02 2.25353E+00-1.96264E-13 6.41430E-14
 -1      3570 2.08412E+01-1.42664E+00 1.43031E-02 2.25654E+00-7.07759E-14 5.86350E-14
 -1      3571 1.96838E+01 4.35083E-01-1.63029E-03 1.47241E+00-1.79808E-13 4.15157E-13
 -1      3572 1.97448E+01 3.37872E-01 6.23941E-03 1.58069E+00-2.05108E-13 4.11659E-13
 -1      3573 1.97093E+01 5.38828E-01-2.51644E-03 1.23760E+00 6.63030E-14 3.04900E-13
 -1      3574 1.97340E+01 5.02335E-01 4.27119E-03 1.34246E+00-4.13507E-14 3.57405E-13
 -1      3575 1.93514E+01 5.65197E-01-4.09403E-04 1.40256E+00-1.21230E-13 3.52638E-13
 -1      3576 1.97620E+01 5.57181E-01-2.74595E-03 1.02781E+00 9.99769E-14 4.87251E-13
 -1      3577 1.97698E+01 5.57830E-01 3.02987E-03 1.12532E+00 1.00272E-13 5.02062E-13
 -1      3578 1.94610E+01 6.39308E-01 1.04592E-03 1.16123E+00 1.81268E-14 3.34458E-13
 -1      3579 1.98195E+01 5.26286E-01-2.65239E-03 8.42773E-01 1.36124E-13 2.19791E-13
 -1      3580 1.98206E+01 5.47676E-01 2.29109E-03 9.30886E-01 2.39786E-13 4.53383E-13
 -1      3581 1.95751E+01 6.35404E-01 1.53399E-03 9.55243E-01 1.80909E-13 5.50789E-13
 -1      3582 1.98715E+01 4.70334E-01-2.40503E-03 6.81766E-01-7.42708E-14 1.09353E-13
 -1      3583 1.98710E+01 5.01661E-01 1.85509E-03 7.59468E-01-2.10504E-14 1.17675E-13
 -1      3584 1.96787E+01 5.87817E-01 1.57204E-03 7.78591E-01 1.38672E-13 4.36969E-13
 -1      3585 1.99142E+01 4.04849E-01-2.09580E-03 5.43809E-01-2.13311E-13 1.58860E-13
 -1      3586 1.99142E+01 4.39262E-01 1.57117E-03 6.10834E-01-1.44292E-13 1.66455E-14
 -1      3587 1.97661E+01 5.19038E-01 1.39208E-03 6.27506E-01-2.46781E-14 2.13978E-13
 -1      3588 1.99472E+01 3.39514E-01-1.73062E-03 4.27503E-01 1.53821E-13-7.97736E-14
 -1      3589 1.99482E+01 3.72782E-01 1.36447E-03 4.84176E-01-3.89526E-14 3.24941E-14
 -1      3590 1.98363E+01 4.43563E-01 1.14059E-03 4.99435E-01-9.18023E-15-1.52976E-13
 -1      3591 1.99717E+01 2.80612E-01-9.87467E-04 3.31152E-01 1.80572E-13 1.16895E-14
 -1      3592 1.99735E+01 3.09735E-01 1.28801E-03 3.77819E-01 1.77870E-13 6.57364E-14
 -1      3593 1.98900E+01 3.70125E-01 6.68482E-04 3.92242E-01 1.30072E-13-3.51418E-14
 -1      3594 1.24392E+01 2.38927E-01 2.34622E-02-2.22342E+00-1.51277E-13-1.36613E-13
 -1      3595 1.36363E+01-4.88215E-01 4.22204E-02-3.51239E+00-1.89418E-13-1.38833E-13
 -1      3596 1.97959E+01 3.76216E-01-1.86922E-04-6.58668E-02 3.18330E-13 1.96185E-13
 -1      3597 1.97876E+01 3.81260E-01-8.35132E-04-2.63319E-02 2.94374E-13 4.02836E-13
 -1      3598 2.02920E+01 1.21194E+00-2.20455E-04-4.35736E-01-9.40187E-14-9.84161E-14
 -1      3599 2.02937E+01 9.90444E-01-3.80638E-03-2.87960E-01-1.02494E-13-9.41016E-14
 -1      3600 1.97290E+01 1.95494E-01 6.19381E-04 1.73027E+00-2.84198E-13 3.16092E-13
 -1      3601 1.98587E+01 6.52030E-03 9.06100E-03 1.83385E+00-1.67057E-13 2.41041E-13
 -1      3602 1.92783E+01 3.63456E-01-3.58808E-03 1.68749E+00-3.54639E-13 4.80529E-13
 -1      3603 1.99221E+01-2.43773E-01 5.65028E-03 2.00152E+00-1.13672E-13 1.03653E-13
 -1      3604 2.01698E+01-5.60041E-01 1.24880E-02 2.08153E+00-1.99064E-13 1.60270E-14
 -1      3605 1.95359E+01-7.09202E-01-1.92719E-02 2.41007E+00-1.78518E-13 1.67990E-13
 -1      3606 1.08534E+01 5.81344E-01 3.29782E-02 2.23718E-01-7.31019E-14 1.27662E-13
 -1      3607 1.09589E+01 4.80469E-01 1.02592E-01-1.55911E+00 1.87940E-14 1.87753E-13
 -1      3608 2.17330E+01-3.02962E+00 2.83004E-02 2.76959E+00 1.15800E-13-7.96238E-15
 -1      3609 2.02442E+01 4.16450E-01-1.65154E-03-7.95517E-02 8.20745E-14-5.10658E-14
 -1      3610 2.02724E+01 5.11744E-01 2.60552E-03 9.64993E-03 6.35778E-14-6.87837E-14
 -1      3611 2.66405E+01-2.57330E+00-3.76322E-02-6.60236E-01 8.46753E-14-9.86433E-14
 -1      3612 2.70714E+01-4.43664E-01-3.58208E-02-2.12803E+00-4.68930E-14 6.13051E-14
 -1      3613 1.98108E+01 5.02004E-01 2.81264E-03-1.08468E+00 7.91346E-14-2.57520E-15
 -1      3614 1.98101E+01 4.83014E-01-2.82629E-03-1.00148E+00 3.43327E-14 4.79049E-14
 -1      3615 1.96773E+01 5.40677E-01 1.36739E-03-9.33580E-01 3.29821E-14 2.16990E-14
 -1      3616 1.95549E+01 5.83175E-01 1.26064E-03-1.10488E+00 6.58891E-14 1.69589E-14
 -1      3617 2.00302E+01 2.25946E+00-3.48952E-03-1.54079E-01 3.37175E-14-1.72311E-13
 -1      3618 2.00437E+01 2.22126E+00-4.18510E-03-2.71155E-01 1.35602E-14-1.57982E-13
 -1      3619 2.01549E+01 1.91579E+00 4.61088E-03-2.64755E-01 8.73325E-15-1.63045E-13
 -1      3620 2.17892E+01-3.48026E+00-1.24359E-03 3.13263E+00-1.30521E-13-1.15866E-13
 -1      3621 2.04856E+01-3.37880E+00 7.74011E-02 4.00139E+00-8.52304E-14-1.26298E-13
 -1      3622 1.92266E+01-2.73275E+00 3.29806E-03 3.99370E+00-5.43177E-14-7.77572E-14
 -1      3623 2.00762E+01 2.25230E-01 1.11710E-03-4.80874E-01 1.27059E-14 4.13149E-14
 -1      3624 2.00857E+01 2.12378E-01-4.90940E-04-4.39252E-01 4.75214E-14 3.42948E-14
 -1      3625 2.53235E+01-3.27369E+00-2.27184E-02-3.46044E-01-7.15704E-14-4.07837E-13
 -1      3626 2.45840E+01-3.36752E+00 8.89600E-02-1.04299E+00-4.33700E-14-6.21793E-13
 -1      3627 2.31551E+01-3.25917E+00 4.67222E-02 2.07455E+00-3.49894E-14 1.68303E-13
 -1      3628 2.03587E+01-2.77106E+00 1.03776E-03 3.43396E+00 1.48291E-13-2.84339E-14
 -1      3629 2.30607E+01-3.69229E+00-8.04532E-02-2.19358E+00 3.78543E-14-4.09769E-13
 -1      3630 2.31951E+01-3.29080E+00-1.81279E-02-1.75306E+00 2.34517E-14-5.39429E-13
 -1      3631 2.24497E+01-2.79248E+00 5.74966E-02-2.08227E+00-6.23859E-14-4.72361E-13
 -1      3632 2.12836E+01-3.32926E+00 9.00084E-02-3.49610E+00 1.11863E-13-2.02894E-13
 -1      3633 2.03191E+01 8.07069E-01 2.91794E-03-1.83701E-01-9.59420E-14-7.70716E-14
 -1      3634 2.02975E+01 6.56384E-01-2.85820E-03-7.13489E-02-5.76398E-14-9.30433E-14
 -1      3635 2.03135E+01 1.00301E+00-8.93100E-04-2.31229E-01-8.50553E-14-8.75046E-14
 -1      3636 2.02963E+01 5.37466E-01 2.20865E-03 1.15002E-02-4.07506E-14-1.01486E-13
 -1      3637 2.02709E+01 4.40563E-01-1.69979E-03 9.39517E-02-5.74841E-14-9.63147E-14
 -1      3638 2.02916E+01 4.66854E-01 2.49446E-04 1.05837E-01-5.12633E-14-8.37303E-14
 -1      3639 1.88973E+01-2.47764E+00 6.03212E-03 3.90271E+00 1.01679E-13-3.53537E-14
 -1      3640 1.69321E+01-1.53722E+00 9.35314E-02 4.04918E+00 3.97881E-14 1.31527E-13
 -1      3641 1.63340E+01-8.97328E-01 4.10676E-03 3.44506E+00 3.11296E-14 1.64563E-13
 -1      3642 1.90382E+01-1.69087E+00-1.82665E-02 3.21807E+00 1.01086E-13-1.53488E-14
 -1      3643 1.25822E+01 3.10782E-01 8.22947E-02-2.10653E+00-7.20153E-14 3.28237E-13
 -1      3644 2.02619E+01 1.43747E+00 3.31790E-03-5.18455E-01-6.45639E-14-1.18553E-13
 -1      3645 1.98935E+01 3.01127E-01 5.78901E-04-2.03227E-01 1.88273E-14-5.80061E-13
 -1      3646 1.98605E+01 3.22050E-01-1.52164E-03-1.79429E-01 1.06953E-13-2.57277E-13
 -1      3647 1.49201E+01-1.24411E+00 1.02874E-01 4.24623E+00-2.13815E-13 2.67789E-13
 -1      3648 1.40136E+01-5.90547E-01 1.96879E-02 3.50032E+00-1.28432E-13 9.73770E-14
 -1      3649 1.66853E+01-1.67377E+00 3.93691E-02 4.08004E+00-1.40216E-13 2.21857E-13
 -1      3650 1.24178E+01 3.20995E-01 2.51433E-02 2.03777E+00-5.15603E-15 3.49859E-14
 -1      3651 1.15307E+01 6.71837E-01 1.23917E-01 1.14240E+00-5.23089E-14 1.93345E-13
 -1      3652 1.21480E+01 7.82514E-01 2.88084E-02 2.01985E-01-1.11467E-13 1.70437E-13
 -1      3653 2.02714E+01-2.60235E+00 4.07114E-02-3.35779E+00 1.40405E-13-2.37059E-13
 -1      3654 1.59947E+01-1.27891E+00 3.26081E-02-4.02181E+00 1.59463E-13 4.11697E-13
 -1      3655 1.75738E+01-1.34917E+00 4.19962E-02-3.56633E+00 1.94880E-13 7.52913E-14
 -1      3656 1.50404E+01-6.24581E-01 7.19466E-03-3.45961E+00 1.23433E-13 5.41595E-13
 -1      3657 2.03056E+01 6.62565E-01 2.83134E-05 7.07486E-02 6.80730E-14-1.11264E-13
 -1      3658 2.02783E+01 6.32806E-01-1.74045E-03 1.03834E-01 5.24725E-14-5.00946E-14
 -1      3659 1.89616E+01-2.52239E+00 5.69903E-02-3.96338E+00-1.17600E-13 1.17652E-13
 -1      3660 2.01544E+01-1.99723E+00-6.92798E-03 3.02312E+00 3.90556E-14 1.85211E-13
 -1      3661 2.13580E+01-2.28321E+00 2.42209E-02 2.55822E+00 3.91189E-14 7.20049E-14
 -1      3662 1.99600E+01 2.66297E-01 5.19837E-04-2.76408E-01 5.02078E-14-2.18599E-13
 -1      3663 1.99672E+01 2.42306E-01-5.12463E-04-2.44981E-01-1.63945E-14-2.03428E-13
 -1      3664 1.99473E+01 2.58483E-01-3.96898E-05-2.35881E-01-3.24395E-14-4.68963E-13
 -1      3665 1.99047E+01 3.14716E-01 9.05561E-04-2.82988E-01 1.94555E-13-2.42764E-13
 -1      3666 2.00038E+01 2.04719E-01-1.79396E-03 2.35372E-01 2.39143E-13 2.12917E-15
 -1      3667 2.02035E+01 2.89223E-01-6.70790E-04-2.13300E-01 3.34392E-14-2.84950E-14
 -1      3668 2.02276E+01 3.44798E-01 1.93665E-03-1.48211E-01 5.15506E-14-4.18916E-14
 -1      3669 2.02741E+01 4.47557E-01-2.36975E-04-9.49604E-02 5.00612E-14-6.67306E-14
 -1      3670 2.01186E+01 2.07720E-01 6.87858E-04-4.00247E-01 2.92658E-14 4.09129E-14
 -1      3671 2.01321E+01 2.11438E-01 2.40225E-04-3.57526E-01 3.15964E-15 3.33193E-14
 -1      3672 2.01106E+01 2.46784E-01-1.26016E-04-4.00432E-01 4.48382E-15-3.62517E-14
 -1      3673 2.01325E+01 1.99286E+00 5.09064E-03-8.79605E-02 3.68992E-14-1.67333E-13
 -1      3674 1.98847E+01 3.94787E-01 8.27867E-04-6.70121E-01 1.18743E-14 6.30382E-15
 -1      3675 1.99844E+01 3.28168E-01 1.70751E-03-6.65778E-01 2.53282E-14 4.18738E-14
 -1      3676 1.99898E+01 2.95642E-01-1.68966E-03-6.13394E-01 4.63355E-14 4.61498E-14
 -1      3677 2.03818E+01-2.51812E+00-2.08217E-02-3.27425E+00-1.09816E-13 1.64847E-13
 -1      3678 2.01284E+01 1.96196E-01-1.23326E-03-3.10038E-01 4.75435E-14 5.46538E-15
 -1      3679 2.02600E+01 1.43219E+00 1.95716E-03-4.23715E-01-6.23054E-14-1.12955E-13
 -1      3680 2.01908E+01 1.71972E+00-3.44157E-03 1.19014E-01 6.92699E-14-1.20329E-13
 -1      3681 2.01860E+01 1.74082E+00-2.74551E-03 3.56205E-02 4.88259E-14-1.55554E-13
 -1      3682 2.00321E+01 2.68229E-01 1.44304E-03-5.66905E-01 2.24479E-14 3.14486E-16
 -1      3683 2.00390E+01 2.43384E-01-1.13032E-03-5.21627E-01 1.05796E-14 3.20647E-14
 -1      3684 2.00436E+01 2.72363E-01 1.57004E-04-4.81525E-01 2.53963E-14-3.27116E-14
 -1      3685 1.99691E+01 3.24924E-01 4.83158E-04-5.69091E-01 2.10706E-14 4.59947E-15
 -1      3686 1.54955E+01-6.51057E-01 7.82130E-02-3.42877E+00-2.17765E-13 8.29545E-15
 -1      3687 1.99773E+01 2.67870E-01 1.10395E-03 2.97368E-01 2.65782E-13 1.50799E-13
 -1      3688 1.99143E+01 3.16996E-01-5.44041E-04 3.08501E-01 1.21596E-13 3.40555E-13
 -1      3689 1.99696E+01 2.55780E-01 4.62991E-04 2.65105E-01 3.44961E-13 1.55111E-13
 -1      3690 1.25079E+01 7.13570E-01 9.05716E-02-1.33927E+00-9.80986E-14-1.61822E-13
 -1      3691 1.37103E+01 5.04703E-01 2.79346E-02-1.88210E+00-1.22882E-13-1.11324E-13
 -1      3692 1.28015E+01 8.10195E-01 3.68381E-03-3.41944E-01-8.81049E-14-1.14703E-13
 -1      3693 1.98107E+01 3.61916E-01-1.21209E-03-1.09752E-01 2.74115E-13-1.67358E-14
 -1      3694 1.97717E+01 4.04092E-01 1.46101E-03-9.81918E-02 2.80191E-13 7.17848E-14
 -1      3695 1.98328E+01 3.48715E-01 4.59139E-04-1.43741E-01 2.61200E-13 3.11099E-14
 -1      3696 1.98566E+01 3.28929E-01-1.30248E-03 1.76685E-01 2.74730E-13-2.22585E-13
 -1      3697 1.98890E+01 3.06812E-01 1.95002E-04 2.01869E-01 4.47801E-13-1.38171E-13
 -1      3698 2.02151E+01 1.62197E+00-3.95227E-03 2.59332E-01 1.01249E-13-1.39554E-13
 -1      3699 2.02016E+01 1.68337E+00-2.33486E-03 1.81692E-01 9.13128E-14-1.30291E-13
 -1      3700 2.02688E+01 1.47736E+00 5.11996E-03 1.15342E-01 5.15300E-14-9.72495E-14
 -1      3701 1.97528E+01 4.18251E-01 1.31369E-03-3.47778E-03 1.54223E-13 3.76060E-13
 -1      3702 1.97872E+01 3.82395E-01-6.91228E-04 2.09187E-02 2.19267E-13 4.33254E-13
 -1      3703 1.97940E+01 3.78096E-01-3.89292E-04 6.03289E-02 1.52545E-13 2.99876E-13
 -1      3704 2.02959E+01 7.45599E-01 9.19052E-04 2.10352E-01 6.60396E-14-6.74507E-14
 -1      3705 1.93023E+01-3.32159E-02-9.73251E-03 2.02402E+00-2.71032E-13 2.93567E-13
 -1      3706 1.45050E+01 1.99646E-01 1.78502E-02 2.39756E+00 8.75168E-16 1.75089E-13
 -1      3707 1.30609E+01 4.05836E-01 6.43233E-02 2.17111E+00-6.50946E-14 4.75557E-14
 -1      3708 1.31838E+01 7.19920E-01 2.59500E-03 1.17924E+00-7.23189E-14 7.59982E-15
 -1      3709 2.20519E+01-2.88878E+00-1.54412E-03 2.43797E+00-1.08186E-14 1.20631E-13
 -1      3710 1.98849E+01 3.26768E-01 1.19350E-03 2.44469E-01 4.36961E-13-6.35208E-14
 -1      3711 1.99201E+01 2.82163E-01-1.28132E-03 2.30654E-01 3.96405E-13 1.05221E-13
 -1      3712 2.02862E+01 1.19009E+00-4.79173E-03 4.51598E-01 1.10294E-13-8.27965E-14
 -1      3713 2.02705E+01 1.34084E+00-5.04469E-04 4.13524E-01 1.00920E-13-7.45022E-14
 -1      3714 2.11644E+01-2.77232E+00-4.42261E-02-2.80705E+00 2.09667E-14-2.41631E-13
 -1      3715 2.02382E+01 1.52153E+00-3.53587E-03-3.71175E-01-4.92657E-14-1.39622E-13
 -1      3716 2.02896E+01 1.31936E+00 4.20552E-03-3.04660E-01-5.55038E-14-1.15849E-13
 -1      3717 2.02173E+01 1.62169E+00-1.38995E-03-3.06890E-01-2.40109E-14-1.44535E-13
 -1      3718 1.99265E+01 2.71689E-01-8.95631E-04-2.23721E-01 4.77563E-14-4.89676E-13
 -1      3719 2.03202E+01 6.82800E-01 1.10628E-03-4.08211E-02-6.83481E-14-6.96358E-14
 -1      3720 1.98894E+01 3.13429E-01 1.48025E-04-2.38200E-01 9.21685E-14-5.35293E-13
 -1      3721 2.02746E+01 4.01054E-01 4.58416E-04 1.65564E-01-4.90596E-14-6.48812E-14
 -1      3722 2.02435E+01 3.52359E-01-7.13065E-04 2.15565E-01-4.83952E-14-4.88025E-14
 -1      3723 2.02514E+01 1.44599E+00-4.57280E-03 3.77147E-01 1.19979E-13-1.14681E-13
 -1      3724 2.02335E+01 1.55011E+00-1.61318E-03 3.12720E-01 1.17295E-13-1.42771E-13
 -1      3725 2.03044E+01 1.18386E+00 3.28459E-03 2.91480E-01 1.05996E-13-1.03939E-13
 -1      3726 1.98196E+01 3.65968E-01 5.05296E-04-1.80742E-01 1.03925E-13-1.97341E-13
 -1      3727 2.02050E+01 3.20797E-01-1.01000E-05 2.52178E-01-2.25049E-14-2.82912E-15
 -1      3728 2.01691E+01 3.03214E-01-1.48408E-04 2.93852E-01-1.02916E-14 5.79489E-15
 -1      3729 2.02358E+01 3.76506E-01 6.21597E-04 2.02381E-01-1.12490E-14 1.73194E-14
 -1      3730 2.01190E+01 2.98188E-01-5.47766E-04 3.26553E-01-9.48259E-15 3.93450E-14
 -1      3731 2.00791E+01 3.04256E-01 2.69052E-04 3.65083E-01-1.28270E-14 3.82064E-14
 -1      3732 2.01465E+01 3.35854E-01 6.84600E-04 2.71897E-01 7.18042E-15 3.98279E-14
 -1      3733 2.00185E+01 3.18962E-01-1.09364E-03 3.98030E-01-3.17773E-14 2.71164E-14
 -1      3734 1.99746E+01 3.42275E-01 5.77558E-04 4.37802E-01-1.79947E-14 3.49451E-15
 -1      3735 2.00375E+01 3.46094E-01 8.46870E-04 3.37018E-01-2.04106E-14 3.74577E-14
 -1      3736 1.99034E+01 3.70707E-01-1.63732E-03 4.74552E-01 8.61419E-15-9.74724E-15
 -1      3737 1.98550E+01 4.05367E-01 8.18761E-04 5.19138E-01 3.53640E-14-1.09846E-15
 -1      3738 1.99094E+01 3.93861E-01 1.14447E-03 4.05192E-01-1.60405E-14 3.99505E-14
 -1      3739 1.97722E+01 4.41644E-01-2.18988E-03 5.62812E-01 1.71119E-14-4.15599E-14
 -1      3740 1.97186E+01 4.81597E-01 1.06415E-03 6.15123E-01 3.40058E-14 3.69706E-15
 -1      3741 1.97610E+01 4.66625E-01 1.50659E-03 4.82871E-01 1.70254E-14 9.38193E-15
 -1      3742 1.96231E+01 5.19284E-01-2.76180E-03 6.68737E-01 2.09101E-14-2.18266E-14
 -1      3743 1.95645E+01 5.57489E-01 1.41018E-03 7.31397E-01-3.49164E-14-9.85465E-15
 -1      3744 1.95896E+01 5.51828E-01 1.91094E-03 5.75985E-01 1.65819E-14 2.06881E-14
 -1      3745 1.94549E+01 5.88536E-01-3.36298E-03 7.98314E-01-4.13893E-14 4.18400E-14
 -1      3746 1.93932E+01 6.16000E-01 2.00242E-03 8.73977E-01-1.88041E-14 7.88486E-14
 -1      3747 1.93927E+01 6.35071E-01 2.30161E-03 6.90929E-01-9.54434E-15 3.67435E-14
 -1      3748 1.92691E+01 6.29885E-01-4.01397E-03 9.58529E-01-6.00721E-14 9.19501E-14
 -1      3749 1.92093E+01 6.34722E-01 3.06435E-03 1.05050E+00-1.17403E-13 1.42833E-13
 -1      3750 1.91685E+01 6.98481E-01 2.61461E-03 8.35525E-01-4.60596E-14 9.10837E-14
 -1      3751 1.90720E+01 6.17299E-01-4.70217E-03 1.15900E+00-1.13426E-13 1.76339E-13
 -1      3752 1.90244E+01 5.83598E-01 4.96138E-03 1.27190E+00-8.94696E-14 1.91125E-13
 -1      3753 1.89177E+01 7.18750E-01 2.68960E-03 1.02094E+00-7.60946E-14 1.17989E-13
 -1      3754 1.88787E+01 5.15782E-01-5.28284E-03 1.41430E+00-1.05275E-13 1.83103E-13
 -1      3755 1.88633E+01 4.21492E-01 8.15099E-03 1.55450E+00-1.31701E-13 2.19968E-13
 -1      3756 1.86458E+01 6.65171E-01 2.33860E-03 1.26450E+00-9.93297E-14 1.97948E-13
 -1      3757 1.87221E+01 2.76747E-01-5.30160E-03 1.74554E+00-1.09375E-13 1.94576E-13
 -1      3758 1.87728E+01 8.98519E-02 1.20272E-02 1.92008E+00-3.19579E-14 1.79932E-13
 -1      3759 1.83677E+01 4.94282E-01 8.68497E-04 1.59381E+00-6.89097E-14 2.01444E-13
 -1      3760 1.86677E+01-1.62207E-01-2.78829E-03 2.17249E+00 2.94196E-14 1.83268E-13
 -1      3761 1.88365E+01-4.84313E-01 1.77348E-02 2.39311E+00 1.11942E-13 1.39325E-13
 -1      3762 1.81217E+01 1.38634E-01-3.70428E-03 2.04712E+00-1.92285E-14 2.89997E-13
 -1      3763 1.87426E+01-7.93975E-01-5.92388E-03 2.64238E+00 8.26127E-14 9.12493E-14
 -1      3764 1.91025E+01-1.26650E+00 1.85474E-02 2.89471E+00 8.26041E-14 2.63164E-14
 -1      3765 1.78742E+01-9.48356E-01 2.84429E-02 3.18036E+00 2.82187E-14 1.09419E-13
 -1      3766 1.79390E+01-3.84399E-01-1.68883E-02 2.58679E+00 6.23178E-14 1.84750E-13
 -1      3767 2.03166E+01 6.61442E-01-2.13948E-03 2.61674E-02 5.97131E-14-1.21520E-13
 -1      3768 2.03283E+01 8.05377E-01 7.99420E-04 1.21156E-01 6.19693E-14-1.25492E-13
 -1      3769 1.85780E+01-1.54562E+00 3.06718E-03-3.37652E+00-1.36329E-13 1.11305E-13
 -1      3770 1.98619E+01 3.41262E-01-6.80102E-04-2.60149E-01 1.50692E-13-4.96948E-13
 -1      3771 1.87839E+01 3.08003E-01 1.12264E-02-1.86681E+00 3.95166E-14 1.64514E-14
 -1      3772 1.87694E+01 4.54110E-01-5.97814E-03-1.70522E+00 1.10329E-13 3.59890E-14
 -1      3773 2.03055E+01 1.09331E+00-2.51297E-03-2.00478E-01-5.89036E-14-9.08554E-14
 -1      3774 1.88577E+01-6.09275E-01 1.71390E-02-2.47428E+00 9.71194E-14 1.63854E-13
 -1      3775 1.86648E+01-2.48362E-01-3.97997E-04-2.25334E+00 4.15705E-14 1.75014E-13
 -1      3776 1.87507E+01 3.59771E-02 1.34596E-02-1.97691E+00-7.91996E-14 6.35613E-14
 -1      3777 1.86806E+01 2.50229E-01-4.22400E-03-1.79273E+00-4.26827E-14 7.32375E-14
 -1      3778 1.80592E+01 8.55770E-02-2.76536E-03-2.12704E+00-8.17819E-15 7.16122E-14
 -1      3779 1.88093E+01 4.17543E-01 8.02519E-03-1.58598E+00-9.74863E-14-9.72730E-14
 -1      3780 1.88145E+01 5.33494E-01-4.80128E-03-1.43520E+00-2.72171E-13-2.02392E-13
 -1      3781 1.82862E+01 4.90216E-01 7.72377E-04-1.64012E+00-1.93357E-13 1.03267E-13
 -1      3782 1.89513E+01 6.18575E-01 4.71137E-03-1.27957E+00-1.76613E-13-1.42000E-13
 -1      3783 1.89920E+01 6.68537E-01-4.44182E-03-1.15632E+00-3.04696E-14-9.88032E-14
 -1      3784 1.85496E+01 7.01186E-01 1.98530E-03-1.28320E+00-1.69658E-13 2.12738E-14
 -1      3785 1.91212E+01 6.98836E-01 2.73381E-03-1.03646E+00 1.47457E-13 3.66082E-14
 -1      3786 1.91751E+01 7.06126E-01-3.87396E-03-9.34383E-01 2.69157E-13 1.98910E-13
 -1      3787 1.88095E+01 7.85209E-01 2.40668E-03-1.01653E+00 1.36933E-13 2.66234E-13
 -1      3788 1.92903E+01 7.01617E-01 1.61517E-03-8.39559E-01 1.21932E-13 2.39650E-13
 -1      3789 1.93455E+01 6.82747E-01-3.31819E-03-7.53970E-01 6.95759E-14 1.39930E-13
 -1      3790 1.90469E+01 7.87638E-01 2.39986E-03-8.11084E-01 1.96490E-13 3.80535E-13
 -1      3791 1.94445E+01 6.57657E-01 1.00589E-03-6.77451E-01-6.79248E-14 4.57285E-14
 -1      3792 1.94950E+01 6.24266E-01-2.80919E-03-6.05284E-01-1.48701E-13 7.25168E-14
 -1      3793 1.92544E+01 7.40292E-01 2.29128E-03-6.48237E-01-2.92137E-14 1.84660E-13
 -1      3794 1.95776E+01 5.88584E-01 6.78495E-04-5.42832E-01-1.66327E-13-2.91341E-14
 -1      3795 1.96209E+01 5.48640E-01-2.38336E-03-4.82050E-01-3.53495E-14-9.52396E-14
 -1      3796 1.94301E+01 6.65305E-01 2.07343E-03-5.16714E-01-2.04331E-13 1.65915E-13
 -1      3797 1.96885E+01 5.09188E-01 4.93148E-04-4.31162E-01 5.97867E-14-2.42275E-13
 -1      3798 1.97237E+01 4.68626E-01-1.97106E-03-3.80398E-01 1.15878E-13-2.27860E-13
 -1      3799 1.95749E+01 5.78265E-01 1.80137E-03-4.09374E-01-6.35072E-14 4.09440E-14
 -1      3800 1.97777E+01 4.29935E-01 3.68660E-04-3.38727E-01 2.25264E-13-3.29262E-13
 -1      3801 1.98064E+01 3.92589E-01-1.19535E-03-2.96515E-01 2.67420E-13-3.44156E-13
 -1      3802 1.96914E+01 4.90192E-01 1.41635E-03-3.22007E-01 2.06205E-13-2.26619E-13
 -1      3803 1.89312E+01 5.63097E-01 6.84106E-03-1.53409E+00 9.21577E-14-1.16559E-14
 -1      3804 1.89663E+01 6.25797E-01-5.51448E-03-1.40349E+00 7.98956E-14 1.81196E-14
 -1      3805 1.84348E+01 6.44216E-01 2.95046E-03-1.54262E+00 7.76071E-14 9.93797E-14
 -1      3806 1.91202E+01 6.65622E-01 4.00259E-03-1.27473E+00 3.42039E-14 3.64258E-14
 -1      3807 1.91753E+01 6.75563E-01-4.78212E-03-1.16754E+00 3.22345E-14 9.26984E-14
 -1      3808 1.87395E+01 7.54452E-01 3.54494E-03-1.25128E+00 9.97415E-14 1.03576E-13
 -1      3809 1.87644E+01-1.77845E-01 1.91867E-02-2.29527E+00-1.79232E-13 1.02677E-13
 -1      3810 1.86381E+01 9.40133E-02-4.70810E-03-2.09821E+00-4.59997E-14 3.15288E-14
 -1      3811 1.81360E+01 3.71824E-01 2.17174E-03-1.94630E+00-3.67732E-14 2.12379E-13
 -1      3812 1.88597E+01-9.61784E-01 4.03795E-02-2.87945E+00-1.37504E-13 9.76692E-14
 -1      3813 1.85229E+01-5.26037E-01 1.65942E-03-2.64212E+00-1.72442E-13 1.04142E-14
 -1      3814 1.77490E+01-1.30135E-01 6.30855E-04-2.53488E+00-1.55885E-13 8.48356E-14
 -1      3815 1.72160E+01-1.00594E+00-8.76612E-03-3.42656E+00-1.88976E-13 8.25260E-14
 -1      3816 2.01610E+01 2.25102E-01 1.11183E-04-3.15189E-01-4.52965E-15 3.58903E-14
 -1      3817 2.01795E+01 2.50978E-01 1.05955E-03-2.65167E-01 2.10934E-14 6.68440E-15
 -1      3818 2.01718E+01 2.58501E-01-3.26877E-04-3.16776E-01 3.02585E-15-6.94886E-15
 -1      3819 1.30615E+01 6.80441E-01 8.13055E-03-1.38902E+00-1.26912E-13 2.34184E-13
 -1      3820 1.38559E+01 1.94534E-01 3.69319E-02-2.63828E+00-4.96374E-14 5.76168E-13
 -1      3821 1.88353E+01 5.81695E-01-5.91378E-03 1.54131E+00-2.97845E-13 3.42090E-13
 -1      3822 1.88305E+01 4.66766E-01 8.88295E-03 1.69450E+00-3.58885E-13 3.97666E-13
 -1      3823 1.98005E+01 3.92685E-01 8.83335E-04-2.47712E-01 5.97317E-14-4.48630E-13
 -1      3824 1.93950E+01 7.00783E-01-3.80171E-03 8.38456E-01 1.74946E-13 4.28236E-13
 -1      3825 1.93432E+01 7.25678E-01 1.79547E-03 9.29408E-01-5.79959E-15 3.02952E-13
 -1      3826 2.02620E+01 1.51560E+00 5.59303E-03 1.45058E-03 3.66095E-14-1.22885E-13
 -1      3827 2.01850E+01 1.74149E+00-2.91221E-03-3.10026E-02 4.43494E-14-1.38046E-13
 -1      3828 2.01891E+01 1.72283E+00-3.29496E-03-1.13288E-01 1.31518E-14-1.26580E-13
 -1      3829 2.01951E+01 1.71416E+00-1.80514E-03-1.70875E-01 3.63145E-15-1.37016E-13
 -1      3830 2.02082E+01 1.65662E+00-2.95369E-03-2.49814E-01-1.38230E-14-1.48148E-13
 -1      3831 2.02658E+01 1.45623E+00 3.51986E-03-2.06187E-01-2.34705E-14-1.31030E-13
 -1      3832 2.02606E+01 1.50301E+00 4.13975E-03-1.09274E-01-1.34087E-14-1.17033E-13
 -1      3833 1.86470E+01-2.30819E-01-2.10585E-03 2.37189E+00-1.79640E-13 3.44927E-13
 -1      3834 1.88699E+01-6.08118E-01 2.32536E-02 2.59510E+00-1.24686E-13 2.71453E-13
 -1      3835 1.90290E+01 7.09655E-01-5.22986E-03 1.25672E+00-9.34403E-14 2.98233E-13
 -1      3836 1.89882E+01 6.65215E-01 5.18933E-03 1.38343E+00-2.28347E-13 3.02445E-13
 -1      3837 1.85359E+01 7.52361E-01 3.19118E-03 1.38410E+00-2.39844E-13 2.02747E-13
 -1      3838 1.95424E+01 6.33157E-01-3.19893E-03 6.79475E-01 1.56682E-13 4.77393E-13
 -1      3839 1.94970E+01 6.71236E-01 1.19535E-03 7.57448E-01 3.15236E-13 5.69303E-13
 -1      3840 1.92834E+01 7.61931E-01 3.10364E-03 7.32315E-01 1.31375E-13 5.45015E-13
 -1      3841 1.96632E+01 5.51214E-01-2.68432E-03 5.45324E-01 7.27250E-14 2.15905E-13
 -1      3842 1.96258E+01 5.94351E-01 8.93945E-04 6.11954E-01 4.24334E-14 2.95300E-13
 -1      3843 1.94602E+01 6.78566E-01 2.67513E-03 5.91456E-01 2.93513E-13 4.40474E-13
 -1      3844 1.97593E+01 4.66782E-01-2.22310E-03 4.32677E-01 1.02310E-13 1.01789E-13
 -1      3845 1.97300E+01 5.09770E-01 7.49471E-04 4.88987E-01 7.62314E-14 2.44074E-13
 -1      3846 1.96028E+01 5.85373E-01 2.18122E-03 4.73684E-01 1.45814E-13 4.06492E-13
 -1      3847 1.98342E+01 3.88232E-01-1.51629E-03 3.39137E-01-4.85361E-14 2.56894E-13
 -1      3848 1.98120E+01 4.27463E-01 8.35322E-04 3.85953E-01 2.63230E-14 7.73776E-14
 -1      3849 1.97153E+01 4.92638E-01 1.55812E-03 3.75666E-01 1.96124E-14 3.25255E-13
 -1      3850 1.98294E+01 3.52547E-01 3.76067E-05 1.40072E-01 1.31734E-13 5.51998E-14
 -1      3851 1.98165E+01 3.73447E-01 1.09473E-03 1.77339E-01 3.28035E-13-1.18955E-13
 -1      3852 1.98083E+01 3.66179E-01-1.06256E-03 1.05467E-01 1.72614E-13 3.79963E-13
 -1      3853 2.03221E+01 5.56483E-01 7.38506E-04 5.66338E-02-4.76032E-14-5.55648E-14
 -1      3854 2.02989E+01 4.67382E-01-1.46035E-03 1.20583E-01-5.50986E-14-7.08543E-14
 -1      3855 2.03020E+01 4.83676E-01 7.13173E-04 1.20266E-01-4.77776E-14-1.92731E-14
 -1      3856 2.03093E+01 9.38931E-01 9.21901E-04 2.44772E-01 7.54594E-14-6.60680E-14
 -1      3857 2.02961E+01 8.76890E-01 2.12775E-03 2.86607E-01 8.98891E-14-6.33359E-14
 -1      3858 1.87264E+01-1.07278E+00-1.45131E-03 2.97444E+00-1.19987E-13 2.36221E-13
 -1      3859 1.91314E+01-1.98045E+00 3.10519E-02 3.46786E+00-6.87159E-14 1.06443E-13
 -1      3860 1.77052E+01-1.66163E+00 3.92723E-02 3.88419E+00-1.53424E-13 1.96555E-13
 -1      3861 1.77607E+01-6.11154E-01-6.94992E-03 2.92825E+00-1.68371E-13 3.26785E-13
 -1      3862 1.95614E+01-2.03490E+00 3.19029E-02-3.31569E+00 6.08159E-14-1.19350E-13
 -1      3863 2.02841E+01 9.97366E-01 1.72842E-03 4.19246E-01 1.19790E-13-6.07117E-14
 -1      3864 1.98625E+01 3.46982E-01-7.22333E-04 2.71411E-01 1.96874E-13 1.56462E-13
 -1      3865 1.98596E+01 3.67544E-01 1.13800E-03 3.07321E-01 5.27275E-14 2.23427E-13
 -1      3866 1.97841E+01 4.20909E-01 1.39213E-04 2.99587E-01 4.03708E-14 3.42558E-13
 -1      3867 1.98265E+01 3.70401E-01-5.86949E-04 2.40740E-01 2.94215E-13-4.84022E-13
 -1      3868 1.96517E+01 5.44800E-01 1.30010E-03-7.58386E-01-1.86965E-14-9.46163E-16
 -1      3869 1.97015E+01 5.00348E-01-2.77509E-03-6.95500E-01 5.26765E-15-2.03972E-15
 -1      3870 1.99641E+01 2.50747E-01 3.39224E-04 2.45426E-01 3.22029E-13 1.92496E-13
 -1      3871 1.84089E+01-1.52010E+00-7.59691E-03-3.40384E+00 1.35419E-13-5.39378E-14
 -1      3872 1.95515E+01-1.59652E+00 2.71607E-02-2.93635E+00-1.10850E-14 2.46526E-15
 -1      3873 1.91111E+01-1.06025E+00 1.08525E-02-2.73851E+00 5.69930E-14-7.59246E-14
 -1      3874 1.75517E+01-9.69430E-01 2.59526E-04-3.22938E+00 2.97838E-13 1.80101E-13
 -1      3875 2.03194E+01 9.14053E-01-4.38623E-04 1.67254E-01 8.89352E-14-1.18074E-13
 -1      3876 2.03140E+01 1.04311E+00-1.48526E-03 2.39743E-01 1.02120E-13-1.02259E-13
 -1      3877 2.03088E+01 1.15092E+00 2.50777E-04 2.14570E-01 1.03886E-13-1.49220E-13
 -1      3878 2.03323E+01 9.14573E-01 1.08424E-03 1.19502E-01 7.41075E-14-1.33423E-13
 -1      3879 2.03412E+01 8.07355E-01 1.77555E-03-8.47241E-02-7.76429E-14-5.01344E-14
 -1      3880 2.03279E+01 6.66979E-01-2.68578E-03-3.89392E-04-5.63088E-14-4.51030E-14
 -1      3881 2.03390E+01 6.75990E-01 1.13559E-03 1.73746E-02-5.26150E-14-2.03974E-14
 -1      3882 1.57533E+01-2.31299E-01-3.05789E-03-2.90052E+00-1.78522E-13-2.03622E-14
 -1      3883 1.92217E+01 7.35491E-01-4.47755E-03 1.02773E+00-6.53908E-14 3.98621E-13
 -1      3884 1.91692E+01 7.34936E-01 3.00790E-03 1.13425E+00-2.00480E-14 3.65912E-13
 -1      3885 1.90695E+01 8.19717E-01 3.46910E-03 9.02613E-01 2.36296E-14 2.83378E-13
 -1      3886 1.86813E+01 2.93996E-01-5.57332E-03 1.90398E+00-4.27530E-13 4.62553E-13
 -1      3887 1.87549E+01 7.18400E-02 1.45943E-02 2.09104E+00-3.13504E-13 3.51442E-13
 -1      3888 1.82410E+01 5.37874E-01 9.88638E-04 1.74611E+00-3.47140E-13 3.87626E-13
 -1      3889 1.66131E+01-9.87174E-01 3.76220E-03 3.53993E+00-2.45917E-13 3.19279E-13
 -1      3890 2.02860E+01 1.36657E+00 4.22983E-03 2.15908E-01 9.50959E-14-1.22361E-13
 -1      3891 1.49234E+01-2.73533E-01 2.87780E-02 3.07853E+00-2.00388E-13-1.50643E-14
 -1      3892 1.35762E+01 1.66826E-01 9.32132E-02 2.71905E+00-5.92850E-14-1.24685E-13
 -1      3893 1.33757E+01 5.22120E-01-1.87738E-03 1.79450E+00-1.35675E-13 5.58928E-15
 -1      3894 1.68438E+01-6.85969E-01 4.60014E-03 3.09139E+00 4.40550E-14 1.39506E-13
 -1      3895 1.54730E+01-4.67875E-02 6.67597E-02 2.90924E+00 4.03579E-14 1.97441E-13
 -1      3896 1.50938E+01 2.98125E-01-1.18079E-03 2.23020E+00 5.25101E-15 2.03336E-13
 -1      3897 1.69382E+01-3.16232E-01 5.62153E-03 2.76540E+00 7.27335E-14 1.52676E-13
 -1      3898 1.54253E+01-5.35568E-02 3.97743E-02-2.74721E+00 9.27002E-14 3.96209E-13
 -1      3899 2.02896E+01 1.30479E+00-2.68271E-03 2.77765E-02 3.98822E-14-1.05401E-13
 -1      3900 2.02912E+01 1.30698E+00-2.00349E-03-2.46434E-02 2.19041E-15-1.08874E-13
 -1      3901 2.02271E+01 3.19969E-01-3.90794E-04-2.19350E-01 9.54990E-15-2.01686E-14
 -1      3902 2.03184E+01 1.08328E+00 6.71736E-04-1.48100E-01-3.78809E-14-7.80743E-14
 -1      3903 1.81696E+01-6.34516E-01-1.25368E-02-2.72949E+00 1.58173E-13 1.64598E-13
 -1      3904 1.79796E+01 1.09882E-01-3.86857E-03 2.24412E+00-2.75439E-13 4.32856E-13
 -1      3905 2.00978E+01 2.80120E-01 3.41670E-04-3.85260E-01 3.82994E-17-6.22258E-14
 -1      3906 2.01304E+01 2.75962E-01-3.54338E-04-3.44671E-01 5.82711E-15-6.21174E-14
 -1      3907 1.97891E+01 4.58413E-01 1.05572E-03-6.42497E-01-3.71467E-15-3.07685E-14
 -1      3908 1.98328E+01 4.15886E-01-2.19979E-03-5.89420E-01 1.02584E-14-4.75218E-14
 -1      3909 1.96636E+01 5.31243E-01 1.97302E-03-6.10490E-01-1.02640E-14-3.25550E-14
 -1      3910 1.88185E+01 8.28492E-01 3.68732E-03 1.11321E+00-7.06214E-14 2.20809E-13
 -1      3911 1.30345E+01 9.39453E-01 6.29423E-02-7.02028E-01-1.97670E-13 2.13682E-13
 -1      3912 1.41643E+01 8.29481E-01 2.57967E-02-1.21332E+00-9.24614E-14 1.69637E-13
 -1      3913 1.31866E+01 8.99599E-01 3.70493E-03 1.75822E-01-1.88171E-13 1.44575E-13
 -1      3914 1.97588E+01 4.16825E-01-9.71020E-04-2.09529E-01 1.55836E-13-2.93083E-13
 -1      3915 1.97680E+01 4.07780E-01 1.13651E-03 9.24707E-02 1.32871E-13 3.02812E-13
 -1      3916 2.00093E+01 3.15447E-01 6.59777E-04-4.61447E-01 1.95796E-14-8.47461E-14
 -1      3917 2.00443E+01 2.93288E-01-9.79057E-04-4.20291E-01 1.73064E-14-8.63076E-14
 -1      3918 2.00640E+01 3.22599E-01 6.59101E-04-3.64879E-01 1.99027E-14-1.30571E-13
 -1      3919 1.97526E+01 4.20051E-01-7.20019E-04 1.58783E-01 2.98102E-13 2.50034E-13
 -1      3920 1.97843E+01 3.98633E-01-5.16515E-04 1.98242E-01 3.65131E-13-3.03898E-13
 -1      3921 1.97645E+01 4.25552E-01 1.03281E-03 2.24931E-01 2.55268E-13-1.87166E-13
 -1      3922 1.95487E+01 5.84323E-01-3.36516E-03-8.23266E-01-5.36452E-15 3.27571E-15
 -1      3923 1.94815E+01 6.26354E-01 2.54619E-03-7.23092E-01 1.07536E-14-1.76230E-14
 -1      3924 1.94929E+01 6.22651E-01 1.70315E-03-8.98067E-01 4.95285E-14 8.01304E-15
 -1      3925 1.34863E+01 9.84064E-01 6.22050E-02 4.28230E-01-7.65846E-14-6.59776E-14
 -1      3926 1.39826E+01 9.49583E-01-3.36600E-03-3.36692E-01-8.70424E-14-5.92287E-14
 -1      3927 1.43076E+01 8.49838E-01-9.05904E-03 1.00484E+00-7.21315E-14 2.53061E-14
 -1      3928 1.51187E+01 2.94143E-01 4.04550E-02-2.42795E+00-1.18850E-13 5.83613E-14
 -1      3929 1.67568E+01 6.17296E-02 2.28551E-02-2.48581E+00-1.09877E-13 2.34114E-14
 -1      3930 1.69813E+01 2.94867E-01-1.93680E-02-2.14948E+00-5.64312E-14 9.35433E-14
 -1      3931 1.47476E+01 6.24385E-01-1.89077E-02-1.65873E+00-8.92394E-14 5.22846E-15
 -1      3932 2.02971E+01 1.25296E+00-2.48056E-03 1.08107E-01 4.44670E-14-9.17804E-14
 -1      3933 2.02919E+01 1.28918E+00-2.12602E-03 6.11735E-02 3.52394E-14-1.09171E-13
 -1      3934 2.03326E+01 1.11967E+00 3.23974E-03 2.54932E-02 3.39150E-14-8.88425E-14
 -1      3935 1.97014E+01 4.54669E-01-3.51787E-04-2.98538E-02 1.48359E-13 4.37310E-13
 -1      3936 1.97001E+01 4.55205E-01-7.26833E-04 2.04320E-02 1.09880E-13 3.64263E-13
 -1      3937 1.97318E+01 4.33378E-01-2.92320E-05-1.34173E-01 1.85734E-13-9.04729E-14
 -1      3938 1.97114E+01 4.44562E-01-1.45127E-03-8.79339E-02 1.64121E-13 1.75109E-13
 -1      3939 1.96639E+01 4.91567E-01 1.49614E-03-6.60734E-02-2.81825E-15 2.86311E-13
 -1      3940 1.93135E+01 6.72302E-01 2.48417E-03-1.06727E+00 3.32469E-14 1.20255E-13
 -1      3941 1.93726E+01 6.50564E-01-4.05679E-03-9.78045E-01 6.22785E-14 8.33444E-14
 -1      3942 1.92678E+01 7.10549E-01 3.04886E-03-8.60515E-01-9.03268E-15 5.88940E-14
 -1      3943 2.02889E+01 4.55262E-01-1.49901E-03-1.14681E-01 2.25593E-14-7.32703E-14
 -1      3944 2.03125E+01 5.46674E-01 1.29590E-03-4.24616E-02 4.44245E-14-9.26042E-14
 -1      3945 2.03322E+01 6.77041E-01 1.15347E-03 1.93043E-03 3.44290E-14-1.10201E-13
 -1      3946 1.90201E+01 7.63008E-01 3.44346E-03-1.03190E+00 5.02549E-14 2.14502E-13
 -1      3947 1.75070E+01-4.64162E-01 2.38187E-02-2.79527E+00 2.75109E-13 1.33230E-13
 -1      3948 1.72497E+01-6.98986E-02-8.89224E-03-2.46155E+00 1.28650E-13 2.09954E-13
 -1      3949 1.65598E+01-3.67413E-01 1.16901E-02-2.97540E+00 2.71215E-13 2.13756E-13
 -1      3950 1.71341E+01-1.25137E-01-1.19338E-02 2.61254E+00-1.91209E-13 3.71927E-13
 -1      3951 1.70869E+01-5.08710E-01 3.15525E-02 3.00181E+00-2.27701E-13 2.57528E-13
 -1      3952 1.60705E+01-4.62500E-01 3.31355E-02 3.22087E+00-1.97244E-13 2.50387E-13
 -1      3953 2.02610E+01 4.17741E-01-4.28602E-04 1.47266E-01-3.20116E-14-7.31159E-15
 -1      3954 2.02214E+01 3.81053E-01-4.75657E-04 1.84522E-01-2.45313E-15-9.73617E-16
 -1      3955 2.01699E+01 3.59507E-01-6.23223E-04 2.08200E-01 9.58150E-16-6.38795E-15
 -1      3956 2.01197E+01 3.52994E-01-2.99684E-04 2.40578E-01-5.20913E-15-1.23739E-14
 -1      3957 2.01986E+01 3.99953E-01 9.97295E-04 1.54243E-01-2.36363E-14-3.32784E-14
 -1      3958 2.00538E+01 3.58557E-01-9.82147E-04 2.63708E-01-6.95562E-15-3.26465E-14
 -1      3959 1.99945E+01 3.75266E-01-5.81270E-05 2.95422E-01-1.71513E-14-3.27802E-15
 -1      3960 2.00820E+01 3.83951E-01 1.11943E-03 1.99631E-01-1.34189E-14-2.37438E-14
 -1      3961 1.99147E+01 4.00379E-01-1.44343E-03 3.20321E-01-4.98906E-15 1.46017E-14
 -1      3962 1.98460E+01 4.34030E-01 1.06882E-04 3.54544E-01 1.76836E-14 1.40323E-14
 -1      3963 1.99392E+01 4.17066E-01 1.43995E-03 2.45414E-01 9.16915E-15-1.88529E-14
 -1      3964 1.97511E+01 4.72619E-01-1.98599E-03 3.83837E-01 1.85138E-15 1.80097E-14
 -1      3965 1.96720E+01 5.16987E-01 1.88075E-04 4.23511E-01 2.46027E-15 1.46176E-14
 -1      3966 1.97690E+01 4.86395E-01 1.91267E-03 2.95919E-01-3.84888E-15-3.23482E-14
 -1      3967 1.95600E+01 5.62741E-01-2.66985E-03 4.59693E-01 2.40256E-14 1.65897E-14
 -1      3968 1.94693E+01 6.11703E-01 3.08717E-04 5.07580E-01 2.90923E-14 2.70524E-14
 -1      3969 1.95684E+01 5.79556E-01 2.52386E-03 3.56325E-01 2.06956E-14 8.40609E-15
 -1      3970 1.93370E+01 6.57822E-01-3.50528E-03 5.53846E-01 1.41395E-14-2.61112E-14
 -1      3971 1.92338E+01 7.03877E-01 5.40708E-04 6.13269E-01 4.51787E-16 4.92554E-15
 -1      3972 1.93321E+01 6.83440E-01 3.08032E-03 4.31128E-01-3.12066E-15 2.21162E-14
 -1      3973 1.90774E+01 7.41914E-01-4.56186E-03 6.73351E-01-2.54788E-14 1.55987E-14
 -1      3974 1.89616E+01 7.76152E-01 1.06186E-03 7.48682E-01-2.93845E-14 2.07183E-14
 -1      3975 1.90543E+01 7.84359E-01 3.98277E-03 5.27778E-01-3.57615E-15-5.56529E-14
 -1      3976 1.87757E+01 7.95658E-01-6.02353E-03 8.28666E-01-3.94166E-14 2.96303E-14
 -1      3977 1.86493E+01 8.06665E-01 2.05443E-03 9.26681E-01-7.07521E-14 6.65428E-14
 -1      3978 1.87259E+01 8.65314E-01 5.03030E-03 6.55134E-01-6.26482E-15-2.03107E-14
 -1      3979 1.84276E+01 7.94047E-01-8.01101E-03 1.03593E+00-8.55638E-14 8.87510E-14
 -1      3980 1.82965E+01 7.67722E-01 4.12073E-03 1.16729E+00-7.40220E-14 1.22872E-13
 -1      3981 1.83366E+01 9.05457E-01 6.20483E-03 8.28675E-01-6.08175E-14 5.62172E-14
 -1      3982 1.80302E+01 7.04703E-01-1.05736E-02 1.32216E+00-6.24246E-14 1.49896E-13
 -1      3983 1.79078E+01 6.18931E-01 7.53090E-03 1.50399E+00-1.53539E-14 1.77057E-13
 -1      3984 1.78735E+01 8.79436E-01 7.94725E-03 1.07241E+00-4.41633E-14 1.15974E-13
 -1      3985 1.75854E+01 4.84908E-01-1.27941E-02 1.72951E+00-3.83786E-15 2.21161E-13
 -1      3986 1.75087E+01 3.00955E-01 1.07097E-02 1.98570E+00 4.10713E-14 2.35309E-13
 -1      3987 1.73181E+01 7.48002E-01 8.76446E-03 1.42531E+00 2.00908E-14 1.40566E-13
 -1      3988 2.02392E+01 3.36135E-01-7.18878E-04-2.22180E-01 8.87379E-15-5.11808E-14
 -1      3989 2.02675E+01 3.86960E-01 8.44416E-04-1.66967E-01 1.02278E-14-5.78599E-14
 -1      3990 2.02993E+01 4.76606E-01 6.42723E-04-1.19889E-01 2.04365E-14-9.37897E-14
 -1      3991 1.75703E+01 2.20620E-01 1.78358E-02-2.09402E+00-6.14678E-15 1.46956E-13
 -1      3992 1.76231E+01 4.23697E-01-1.48323E-02-1.82494E+00-3.14804E-14 1.25269E-13
 -1      3993 1.68646E+01 3.44471E-01 1.36860E-02-2.13597E+00 2.74299E-14 2.08500E-13
 -1      3994 2.03474E+01 7.72467E-01-8.63695E-04-1.84769E-02-3.06815E-14-5.16507E-14
 -1      3995 2.03393E+01 6.49456E-01-1.04056E-03 4.11939E-02-3.09537E-14-3.16868E-14
 -1      3996 1.79136E+01 5.94613E-01 9.15502E-03-1.58233E+00-1.52730E-13 5.58731E-14
 -1      3997 1.80206E+01 7.00081E-01-1.10753E-02-1.38670E+00-2.84860E-13 1.31290E-13
 -1      3998 1.74309E+01 6.99964E-01 1.18402E-02-1.55602E+00-1.68045E-13 7.83145E-14
 -1      3999 1.82652E+01 7.85928E-01 5.02601E-03-1.21825E+00-1.65887E-13 1.76794E-13
 -1      4000 1.83854E+01 8.28412E-01-8.04303E-03-1.07485E+00 7.72181E-14 2.92573E-13
 -1      4001 1.79178E+01 8.75257E-01 8.41466E-03-1.16530E+00-7.14509E-14 1.86009E-13
 -1      4002 1.85893E+01 8.57155E-01 2.64145E-03-9.53323E-01 1.06485E-13 3.45432E-13
 -1      4003 1.87061E+01 8.58609E-01-5.92291E-03-8.45355E-01 2.02047E-13 3.46181E-13
 -1      4004 1.83312E+01 9.37191E-01 6.37835E-03-8.91877E-01 1.12126E-13 2.95128E-13
 -1      4005 1.88746E+01 8.51211E-01 1.26374E-03-7.54051E-01 2.55251E-13 3.42511E-13
 -1      4006 1.89807E+01 8.26666E-01-4.45473E-03-6.69709E-01 2.35794E-13 4.41005E-13
 -1      4007 1.86788E+01 9.24159E-01 4.83809E-03-6.95816E-01 2.41709E-13 1.92140E-13
 -1      4008 1.91200E+01 7.96778E-01 6.47546E-04-5.99179E-01-6.04894E-14 4.39618E-13
 -1      4009 1.92120E+01 7.57158E-01-3.32946E-03-5.31869E-01-1.24595E-13 3.00438E-13
 -1      4010 1.89698E+01 8.63940E-01 3.99273E-03-5.46397E-01 4.82784E-14 3.44875E-13
 -1      4011 1.93254E+01 7.15367E-01 3.03729E-04-4.76200E-01-1.79153E-13 4.62513E-13
 -1      4012 1.94026E+01 6.68783E-01-2.51429E-03-4.21548E-01-2.87260E-13 4.64643E-13
 -1      4013 1.92100E+01 7.76305E-01 3.32692E-03-4.31444E-01-1.34450E-13 4.29815E-13
 -1      4014 1.94941E+01 6.21830E-01 4.79162E-05-3.76854E-01-3.21650E-13 3.44198E-13
 -1      4015 1.95567E+01 5.73268E-01-2.33013E-03-3.32842E-01-1.86372E-13 1.67387E-13
 -1      4016 1.94059E+01 6.76771E-01 2.94090E-03-3.39513E-01-3.96059E-13 4.88454E-13
 -1      4017 1.96298E+01 5.28762E-01 1.64035E-04-2.95794E-01 3.57502E-14-7.21152E-14
 -1      4018 1.96804E+01 4.84040E-01-9.07991E-04-2.59248E-01 8.08074E-14-3.14116E-13
 -1      4019 1.95605E+01 5.76796E-01 2.11143E-03-2.66199E-01-2.14735E-13-2.99381E-14
 -1      4020 1.79750E+01 7.56427E-01 5.71163E-03-1.42855E+00 3.18080E-14 1.53512E-13
 -1      4021 1.81203E+01 8.12018E-01-1.02485E-02-1.27105E+00 9.69263E-14 9.38844E-14
 -1      4022 2.03060E+01 1.21900E+00-1.09123E-03-1.56506E-01-1.64308E-14-1.13520E-13
 -1      4023 2.03419E+01 9.23218E-01-1.19935E-05-5.60367E-02-3.13214E-14-7.67874E-14
 -1      4024 2.03453E+01 9.03076E-01 1.61919E-03-3.03860E-02-1.52432E-14-8.25351E-14
 -1      4025 2.02978E+01 1.26017E+00-8.32617E-04-1.15473E-01-1.16583E-14-1.09753E-13
 -1      4026 1.83886E+01 8.49148E-01 2.85424E-03-1.14180E+00 1.04036E-13 7.32056E-14
 -1      4027 1.85300E+01 8.54360E-01-7.47183E-03-1.02657E+00 9.40071E-14 1.29978E-13
 -1      4028 1.79781E+01 9.57110E-01 9.04832E-03-1.02666E+00 9.70094E-14 1.12093E-13
 -1      4029 2.01745E+01 2.82919E-01-1.11223E-04-3.08691E-01 2.27382E-14-8.78433E-14
 -1      4030 2.02052E+01 3.02633E-01 2.64731E-04-2.63758E-01 2.02954E-14-7.19201E-14
 -1      4031 2.02395E+01 3.62972E-01 4.04506E-04-2.15150E-01 2.12701E-14-1.09147E-13
 -1      4032 2.01601E+01 3.16827E-01 4.62922E-04-2.93716E-01 1.89028E-14-1.09245E-13
 -1      4033 1.91817E+01 7.93607E-01-4.07682E-03 5.94413E-01 1.07186E-13 4.13140E-13
 -1      4034 1.90859E+01 8.38096E-01 7.48294E-05 6.65437E-01 2.05026E-14 2.83901E-13
 -1      4035 1.99073E+01 3.78290E-01 8.77522E-04-5.45136E-01-7.19548E-15-6.09317E-14
 -1      4036 1.99460E+01 3.43367E-01-1.59354E-03-4.99513E-01 1.15562E-15-7.59744E-14
 -1      4037 1.99508E+01 3.67792E-01 9.82341E-04-4.37022E-01-2.45663E-15-1.67008E-13
 -1      4038 1.98184E+01 4.41036E-01 1.39937E-03-5.17111E-01 1.67266E-15-1.13429E-13
 -1      4039 1.93851E+01 6.97029E-01-3.17650E-03 4.79243E-01 2.44254E-13 4.43715E-13
 -1      4040 1.93068E+01 7.47554E-01-7.30493E-05 5.38508E-01 3.27542E-13 5.49519E-13
 -1      4041 1.91395E+01 8.30022E-01 4.11928E-03 4.74571E-01 9.31177E-14 2.89477E-13
 -1      4042 1.82568E+01 8.97212E-01-8.97798E-03 1.13613E+00-9.53180E-14-4.76452E-14
 -1      4043 1.81191E+01 8.57310E-01 4.30829E-03 1.27955E+00-1.55505E-13 5.04807E-14
 -1      4044 1.95473E+01 5.95773E-01-2.53849E-03 3.83007E-01 1.35434E-13 5.81694E-13
 -1      4045 1.94846E+01 6.47355E-01-7.10413E-05 4.32870E-01 1.54180E-13 4.90895E-13
 -1      4046 1.93553E+01 7.21355E-01 3.18857E-03 3.82409E-01 1.30230E-13 4.75778E-13
 -1      4047 1.96751E+01 4.99311E-01-1.68633E-03 3.03650E-01 1.78623E-13 3.15731E-13
 -1      4048 1.96260E+01 5.47144E-01 7.51620E-05 3.44700E-01 3.46276E-13 4.91759E-13
 -1      4049 1.95263E+01 6.12498E-01 2.50133E-03 3.05827E-01 2.37885E-13 5.04678E-13
 -1      4050 1.73317E+01 5.02117E-01-1.31892E-02 1.89550E+00-3.17173E-13 3.57398E-13
 -1      4051 1.72343E+01 2.85109E-01 1.71250E-02 2.17692E+00-1.97362E-13 3.08522E-13
 -1      4052 1.53861E+01 3.16270E-01-1.23812E-02-2.24152E+00 8.75593E-14 2.70577E-13
 -1      4053 2.03065E+01 1.17551E+00-2.20294E-03 1.81133E-01 7.75405E-14-1.22268E-13
 -1      4054 2.02990E+01 1.24589E+00-1.46688E-03 1.41116E-01 5.29686E-14-8.14995E-14
 -1      4055 2.03357E+01 1.09273E+00 3.96670E-03 8.23441E-02 3.26549E-14-8.89865E-14
 -1      4056 2.03281E+01 1.05491E+00 1.76769E-03 1.37812E-01 6.42388E-14-1.03010E-13
 -1      4057 2.03229E+01 5.49240E-01-4.26134E-04 7.38695E-02-3.42998E-14-2.51888E-14
 -1      4058 2.02967E+01 4.74211E-01-6.56425E-04 1.20266E-01-3.86942E-14-2.34123E-14
 -1      4059 2.02858E+01 4.81108E-01 9.91107E-04 1.03864E-01-2.75419E-14-3.80632E-14
 -1      4060 1.86250E+01 9.15993E-01-6.70152E-03 9.09108E-01-8.16402E-14 3.44643E-14
 -1      4061 1.84950E+01 9.19996E-01 1.77664E-03 1.01776E+00-7.31843E-14 2.23714E-14
 -1      4062 1.81263E+01 1.02391E+00 7.93305E-03 9.14530E-01-9.86655E-14 1.50237E-14
 -1      4063 1.97110E+01 4.47873E-01-7.43184E-04 6.82014E-02 2.55357E-13 1.31731E-13
 -1      4064 1.97277E+01 4.37154E-01-5.98103E-04 1.16151E-01 2.92486E-13 2.17576E-13
 -1      4065 1.96982E+01 4.69092E-01 1.19062E-03 1.36053E-01 3.74907E-13 1.35349E-13
 -1      4066 1.96629E+01 4.92490E-01 1.35518E-03 4.35264E-02 2.83721E-13 2.15872E-13
 -1      4067 1.87495E+01 8.47450E-01 1.26826E-03-9.33102E-01 7.32847E-14 8.33163E-14
 -1      4068 1.88785E+01 8.20513E-01-5.60487E-03-8.44846E-01 2.39292E-14 9.02518E-14
 -1      4069 1.84419E+01 9.44775E-01 6.79044E-03-8.25683E-01 6.73854E-14-2.25460E-15
 -1      4070 1.97332E+01 4.47434E-01-9.11609E-04 2.46450E-01 3.44892E-13-9.84078E-14
 -1      4071 1.97108E+01 4.76445E-01 7.60429E-04 2.77704E-01 2.53597E-13 1.47392E-13
 -1      4072 1.96310E+01 5.31065E-01 1.22313E-03 2.46288E-01 4.51592E-13 1.48526E-13
 -1      4073 1.96918E+01 4.74802E-01-5.18955E-04 2.00763E-01 4.08651E-13-1.12199E-13
 -1      4074 1.89305E+01 8.73009E-01-5.21632E-03 7.34817E-01 1.33576E-14 1.24733E-13
 -1      4075 1.88169E+01 9.02623E-01 4.98751E-04 8.21302E-01-2.44494E-14 1.76502E-13
 -1      4076 1.88697E+01 9.27736E-01 4.98642E-03 5.87158E-01-6.39614E-14 4.04843E-14
 -1      4077 1.75226E+01 5.13146E-01 1.01135E-02-1.84250E+00-5.69632E-14 1.28357E-13
 -1      4078 1.76433E+01 6.49564E-01-1.49317E-02-1.61760E+00-5.80552E-15 1.43054E-13
 -1      4079 1.74165E+01 8.84775E-01 1.40951E-02-1.32198E+00-5.76823E-15 1.13631E-13
 -1      4080 1.78208E+01 7.76416E-01-1.28506E-02 1.44718E+00-1.83247E-13 1.05041E-13
 -1      4081 1.76926E+01 6.68628E-01 8.57986E-03 1.64587E+00-2.93232E-13 2.96455E-13
 -1      4082 1.76159E+01 9.73303E-01 8.62415E-03 1.17156E+00-1.16172E-13-1.39316E-14
 -1      4083 1.53505E+01 1.05192E-01-1.42814E-02 2.57834E+00-1.99048E-13 7.45237E-15
 -1      4084 1.64930E+01 3.39273E-01 7.26774E-03 2.23965E+00-1.89775E-13 2.25151E-13
 -1      4085 1.59002E+01 4.11966E-01 7.60731E-03 2.05026E+00 4.35303E-14 2.83812E-13
 -1      4086 1.51667E+01 7.64602E-01 5.00976E-02 1.62321E+00-5.11288E-15 2.67022E-13
 -1      4087 1.88259E+01 8.76492E-01 5.34137E-03-6.78299E-01-1.16493E-14-4.21099E-14
 -1      4088 1.90597E+01 7.87002E-01 5.75360E-04-7.74502E-01-3.04181E-14 5.45962E-14
 -1      4089 1.91730E+01 7.41970E-01-4.25205E-03-7.04435E-01-2.69577E-14 5.75159E-14
 -1      4090 2.03382E+01 6.42836E-01 9.09882E-04 4.29770E-02-3.48980E-14-6.48251E-14
 -1      4091 2.03322E+01 9.37543E-01-1.60373E-03 9.29257E-02 4.73611E-14-1.07038E-13
 -1      4092 1.85369E+01 9.98313E-01 6.13669E-03 7.28640E-01-1.45591E-13-1.02266E-13
 -1      4093 1.69853E+01 7.97378E-01 6.66945E-03 1.54936E+00-2.44625E-13 2.15449E-13
 -1      4094 2.01403E+01 3.36167E-01-3.46484E-04-2.69158E-01 2.91209E-14-1.16989E-13
 -1      4095 2.01852E+01 3.46235E-01-3.56776E-04-2.32819E-01 1.76908E-14-1.20046E-13
 -1      4096 1.36301E+01 9.77842E-01 6.62349E-02 8.87004E-01-3.04248E-13-3.15008E-14
 -1      4097 1.41519E+01 1.02499E+00 1.72976E-03 1.20913E-01-3.61502E-13 3.98032E-15
 -1      4098 1.43470E+01 7.07621E-01 1.21236E-02 1.54306E+00-4.12997E-13-2.08028E-14
 -1      4099 1.51183E+01 8.92123E-01-1.02086E-02 9.85298E-01-2.61961E-14 1.28090E-13
 -1      4100 2.02966E+01 1.27145E+00-1.53784E-03-7.16001E-02-6.95667E-15-1.16636E-13
 -1      4101 1.47158E+01 9.55220E-01-1.42356E-02-8.98246E-01-1.47712E-13 9.49154E-15
 -1      4102 1.49874E+01 8.04773E-01 2.45263E-02-1.54953E+00-3.39720E-14 4.08484E-14
 -1      4103 2.03344E+01 6.48855E-01-1.78455E-03-3.19261E-02 1.62232E-14-8.85844E-14
 -1      4104 2.03465E+01 7.77830E-01 6.40992E-04 3.63574E-02 3.85747E-14-1.03308E-13
 -1      4105 2.03419E+01 9.08989E-01 4.43261E-04 5.37966E-02 3.47442E-14-8.28637E-14
 -1      4106 2.03323E+01 1.10390E+00 2.20988E-03-3.36829E-02 5.77064E-15-9.64191E-14
 -1      4107 2.00275E+01 3.53033E-01-1.25371E-04-3.30195E-01 2.41018E-14-1.37166E-13
 -1      4108 2.00805E+01 3.39048E-01-7.07212E-04-2.95739E-01 3.57263E-14-1.15461E-13
 -1      4109 2.01085E+01 3.68614E-01 1.12630E-03-2.35533E-01 3.50482E-14-1.09401E-13
 -1      4110 1.59873E+01 5.56849E-01 1.38463E-02-1.85273E+00 7.73658E-14 1.58755E-13
 -1      4111 1.96091E+01 5.30708E-01 7.77041E-04-1.04843E-01-7.17703E-14 3.69250E-13
 -1      4112 1.95933E+01 5.37089E-01-8.72334E-04-4.40264E-02-7.30621E-14 4.51928E-13
 -1      4113 1.97021E+01 4.66927E-01 5.54522E-04-2.04792E-01 7.98629E-14-2.35182E-13
 -1      4114 1.65975E+01 6.62071E-01 1.86927E-02-1.79280E+00-3.36018E-14 6.54492E-14
 -1      4115 1.93233E+01 6.94904E-01 3.28067E-04-6.49590E-01 2.81960E-14 3.19667E-14
 -1      4116 1.94204E+01 6.42586E-01-3.31901E-03-5.92464E-01 1.25681E-14 4.24026E-14
 -1      4117 1.91445E+01 7.76437E-01 4.14188E-03-5.65980E-01-4.86709E-15 6.22926E-14
 -1      4118 1.95463E+01 5.91308E-01 2.83679E-04-5.48743E-01-2.28097E-14-1.39860E-15
 -1      4119 1.96273E+01 5.38762E-01-3.33544E-03-5.01993E-01-2.43035E-14-3.09249E-14
 -1      4120 1.94122E+01 6.64585E-01 3.85301E-03-4.76293E-01-1.71527E-14 1.19404E-14
 -1      4121 1.95960E+01 5.35744E-01-7.65743E-04 1.59609E-02 4.42281E-15 1.53933E-15
 -1      4122 1.96075E+01 5.30118E-01-2.44877E-04 6.54495E-02 2.63751E-13-1.39378E-13
 -1      4123 1.95445E+01 5.80596E-01 1.48202E-03-2.29359E-02-8.66415E-14 1.07397E-13
 -1      4124 2.03438E+01 9.63776E-01 5.79630E-05 4.74733E-04 1.89992E-14-6.74704E-14
 -1      4125 2.03452E+01 9.30690E-01-1.39251E-03-2.40491E-02 5.64124E-15-9.02940E-14
 -1      4126 2.03527E+01 7.87894E-01 8.65545E-04 9.11312E-03-7.81979E-15-7.04410E-14
 -1      4127 1.96464E+01 5.00782E-01-1.23325E-03-1.79618E-01-3.55202E-14-1.99834E-13
 -1      4128 2.03455E+01 9.43798E-01-1.12251E-03 1.96142E-02 2.35721E-14-9.67147E-14
 -1      4129 1.80255E+01 1.08115E+00-7.56973E-03 6.39805E-01-1.50230E-13-1.09973E-13
 -1      4130 1.78017E+01 1.09258E+00 3.91503E-04 7.33734E-01-1.62009E-13-1.08197E-13
 -1      4131 1.65269E+01 3.51478E-01 7.86927E-03 2.10374E+00 1.88495E-14 2.12451E-13
 -1      4132 1.70664E+01-4.72361E-02 2.98202E-04 2.45768E+00 5.38374E-14 2.18846E-13
 -1      4133 2.01072E+01 3.90537E-01-1.14362E-03 1.29365E-01-2.17560E-14-2.05760E-14
 -1      4134 2.00430E+01 3.97212E-01-2.10477E-04 1.51137E-01 2.02198E-15-5.35215E-15
 -1      4135 1.99626E+01 4.13644E-01-1.40111E-03 1.62340E-01-1.11234E-14-4.13192E-14
 -1      4136 1.98850E+01 4.41915E-01-3.08459E-04 1.84355E-01-1.86156E-14-6.38172E-14
 -1      4137 1.99985E+01 4.25117E-01 1.81659E-03 9.07469E-02-2.10299E-14-5.76494E-14
 -1      4138 1.97886E+01 4.77271E-01-1.66464E-03 1.97879E-01-1.90497E-14-1.20102E-14
 -1      4139 1.96958E+01 5.21191E-01-5.67729E-04 2.22381E-01-1.52482E-14-2.94192E-14
 -1      4140 1.98261E+01 4.80346E-01 2.04524E-03 1.12220E-01 3.03174E-15-4.79843E-14
 -1      4141 1.95821E+01 5.68982E-01-2.05260E-03 2.39526E-01 1.78464E-14-5.38362E-14
 -1      4142 1.94718E+01 6.21960E-01-1.07665E-03 2.67959E-01 3.90746E-14-1.90428E-14
 -1      4143 1.96226E+01 5.70608E-01 3.68170E-03 1.39239E-01 4.10886E-16-3.01755E-15
 -1      4144 1.93345E+01 6.77185E-01-3.30207E-03 2.92671E-01-1.25073E-14-1.28021E-14
 -1      4145 1.92078E+01 7.34513E-01-7.14641E-04 3.29011E-01-3.96103E-14-3.02653E-14
 -1      4146 1.93745E+01 6.87446E-01 5.98790E-03 1.74259E-01 2.11805E-14-1.14908E-13
 -1      4147 1.90419E+01 7.86913E-01-4.75029E-03 3.60533E-01-2.60551E-14-6.63476E-15
 -1      4148 1.88931E+01 8.41117E-01-9.44052E-04 4.06990E-01-7.19932E-15-2.40494E-14
 -1      4149 1.90859E+01 8.08758E-01 9.10587E-03 2.17988E-01 8.44675E-15-2.28554E-14
 -1      4150 1.86913E+01 8.85533E-01-6.44415E-03 4.50388E-01 4.57897E-14-4.66748E-14
 -1      4151 1.85155E+01 9.28429E-01-1.09188E-03 5.12416E-01 3.62444E-14 1.05626E-14
 -1      4152 1.87353E+01 9.27450E-01 1.23657E-02 2.77019E-01 1.98662E-14-7.60340E-14
 -1      4153 1.82655E+01 9.55769E-01-9.01929E-03 5.73450E-01-2.09138E-14 4.01439E-14
 -1      4154 1.80586E+01 9.77576E-01-8.53085E-04 6.60080E-01-5.00458E-14 9.31549E-14
 -1      4155 1.83064E+01 1.02830E+00 1.59447E-02 3.58419E-01 1.22880E-14-6.86118E-14
 -1      4156 1.77424E+01 9.78537E-01-1.21908E-02 7.48867E-01-8.73851E-15 6.72211E-14
 -1      4157 1.75049E+01 9.70439E-01 3.36724E-03 8.77266E-01 2.95738E-15 9.23680E-14
 -1      4158 1.77634E+01 1.08690E+00 1.47860E-02 4.70322E-01-4.84399E-14 3.51932E-15
 -1      4159 1.70928E+01 9.24026E-01-1.51938E-02 1.00436E+00-1.69955E-14 1.43308E-13
 -1      4160 1.68116E+01 8.74480E-01 9.72803E-03 1.18697E+00 5.46064E-14 1.43475E-13
 -1      4161 1.70896E+01 1.08483E+00 1.35965E-02 6.34862E-01 3.72436E-14 7.00282E-14
 -1      4162 1.59357E+01 4.60156E-01 1.90726E-02 2.06965E+00-2.81833E-13 1.71600E-13
 -1      4163 1.49921E+01 6.45124E-01 3.31251E-02 1.88638E+00-3.58680E-13 8.06031E-14
 -1      4164 1.49326E+01 9.27214E-01-1.74316E-02 1.10807E+00-3.82014E-13-8.08728E-15
 -1      4165 1.60225E+01 7.40518E-01-1.63336E-02 1.61685E+00-2.69403E-13 1.53347E-13
 -1      4166 1.62868E+01 7.25258E-01-1.75444E-02-1.53499E+00-9.94346E-14 1.06738E-13
 -1      4167 1.76114E+01 1.02478E+00-2.04272E-03-8.19209E-01 5.66666E-14 9.64222E-14
 -1      4168 1.78622E+01 1.01901E+00-1.20501E-02-7.20500E-01 1.05281E-13 4.16514E-14
 -1      4169 2.02315E+01 3.70846E-01-6.83832E-04-2.03666E-01 1.67540E-14-1.06515E-13
 -1      4170 2.02681E+01 4.11983E-01 3.63526E-05-1.61040E-01 1.75372E-14-1.00147E-13
 -1      4171 2.02146E+01 3.92872E-01 9.39895E-04-1.80307E-01 1.99044E-14-8.80473E-14
 -1      4172 1.75128E+01 9.65794E-01-6.54873E-04-9.96335E-01-1.93920E-13 1.32015E-13
 -1      4173 1.77377E+01 9.98429E-01-1.10415E-02-8.51981E-01-2.11538E-14 1.50582E-13
 -1      4174 1.80378E+01 1.01393E+00 5.71417E-04-7.52432E-01 8.02002E-14 7.59842E-14
 -1      4175 1.82172E+01 1.00504E+00-1.03160E-02-6.53895E-01 1.90767E-13 1.37436E-13
 -1      4176 1.77309E+01 1.12057E+00 1.53890E-02-5.79114E-01 1.98299E-14-1.69055E-13
 -1      4177 1.84534E+01 9.92788E-01-1.11593E-03-5.74262E-01 1.99616E-13 1.37737E-13
 -1      4178 1.86099E+01 9.61438E-01-6.80222E-03-5.01682E-01 2.38453E-13 1.56204E-13
 -1      4179 1.82163E+01 1.10092E+00 1.44369E-02-4.29972E-01 2.01942E-13-6.55621E-14
 -1      4180 1.87954E+01 9.25059E-01-1.65343E-03-4.46476E-01 1.60536E-13-1.34435E-14
 -1      4181 1.89275E+01 8.78986E-01-4.94473E-03-3.91144E-01-8.72226E-15-6.69830E-14
 -1      4182 1.86271E+01 1.02034E+00 1.41333E-02-3.30137E-01 9.64722E-14-2.76157E-13
 -1      4183 1.90746E+01 8.31767E-01-1.39809E-03-3.49023E-01-7.73998E-14-8.62129E-14
 -1      4184 1.91858E+01 7.79222E-01-2.69917E-03-3.04483E-01-1.53101E-13-1.26953E-14
 -1      4185 1.89421E+01 9.12627E-01 9.04956E-03-2.57139E-01-3.12283E-15-5.96905E-13
 -1      4186 1.93008E+01 7.26686E-01-8.80998E-04-2.76118E-01-3.18349E-13 9.38890E-14
 -1      4187 1.93884E+01 6.73045E-01-2.34157E-03-2.38147E-01-3.46183E-13 8.79773E-14
 -1      4188 1.92006E+01 7.86311E-01 3.31233E-03-1.95910E-01-1.51144E-13-4.38686E-13
 -1      4189 1.95773E+01 5.53632E-01-4.49237E-04-1.61256E-01-1.47958E-13 4.85451E-14
 -1      4190 1.91099E+01 8.26309E-01-3.74803E-03 3.36804E-01 2.15588E-14 5.19752E-14
 -1      4191 1.89872E+01 8.83372E-01-2.10680E-03 3.78962E-01 2.99201E-14-4.51907E-14
 -1      4192 2.03422E+01 6.97746E-01 7.55571E-04 1.72667E-03 1.52495E-14-5.90371E-14
 -1      4193 2.03408E+01 6.66594E-01-1.19208E-03 1.47436E-02-1.65480E-14-4.76668E-14
 -1      4194 2.03231E+01 5.71971E-01 6.34106E-04 4.25666E-02-2.77520E-14-5.31952E-14
 -1      4195 2.02974E+01 4.69102E-01-1.32998E-03-1.26991E-01 1.25499E-14-1.13278E-13
 -1      4196 2.03242E+01 5.49290E-01 3.37563E-04-7.37670E-02 1.05512E-14-1.16849E-13
 -1      4197 2.03377E+01 6.45201E-01 9.89622E-04-4.17132E-02 2.24965E-14-1.05596E-13
 -1      4198 2.02923E+01 4.82554E-01 1.20126E-03-1.17471E-01 1.93490E-14-1.20232E-13
 -1      4199 1.68388E+01 8.28863E-01 7.40403E-04-1.33793E+00-1.69006E-13 6.41074E-14
 -1      4200 1.71075E+01 9.16760E-01-1.47651E-02-1.12449E+00-2.01338E-13 2.16427E-14
 -1      4201 1.70560E+01 1.11011E+00 1.71335E-02-7.76605E-01-1.54797E-13 6.29757E-14
 -1      4202 1.61378E+01 1.03275E+00 2.20643E-02-1.04243E+00-1.45484E-13-9.47025E-14
 -1      4203 1.95129E+01 6.03146E-01-1.59103E-03 2.18793E-01 2.99693E-13-1.43479E-14
 -1      4204 1.94357E+01 6.57645E-01-1.01600E-03 2.48966E-01 7.76747E-14-1.96865E-15
 -1      4205 1.96312E+01 5.13143E-01-8.38554E-04 1.14540E-01 4.76406E-13 1.05280E-13
 -1      4206 1.96562E+01 4.98061E-01-5.06112E-04 1.58613E-01 4.50098E-13 8.43468E-14
 -1      4207 1.96247E+01 5.25330E-01-1.96716E-04 1.79539E-01 5.44823E-13 1.31025E-14
 -1      4208 1.95664E+01 5.65306E-01 7.77087E-04 8.84215E-02 2.40775E-13-1.04604E-13
 -1      4209 1.81666E+01 1.00728E+00-1.83581E-03-6.51947E-01 6.57579E-14 3.13361E-14
 -1      4210 1.83765E+01 9.73375E-01-7.60929E-03-5.82014E-01 8.41718E-15 5.20685E-15
 -1      4211 1.78879E+01 1.11129E+00 1.66161E-02-4.44770E-01 6.46637E-14-4.94808E-14
 -1      4212 1.47611E+01 1.12578E+00 2.77281E-02-3.83157E-01-2.19876E-13 1.09062E-14
 -1      4213 1.54780E+01 1.06682E+00 5.49792E-03-6.66746E-01-1.04174E-13-9.27560E-14
 -1      4214 1.49183E+01 1.08376E+00-1.05542E-02 2.76840E-01-2.70793E-13-1.34815E-13
 -1      4215 1.93350E+01 7.14990E-01-2.27475E-03 2.72300E-01-1.90175E-14 1.21192E-13
 -1      4216 1.92379E+01 7.72151E-01-1.10631E-03 3.09614E-01 1.15961E-13 6.94828E-14
 -1      4217 1.91231E+01 8.31555E-01 2.34979E-03 2.16244E-01 3.30224E-14-3.80892E-13
 -1      4218 1.93464E+01 7.15884E-01 3.07458E-03 1.79934E-01 1.39191E-13-2.42520E-13
 -1      4219 1.88242E+01 9.34930E-01-5.60786E-03 4.16740E-01-2.17185E-15-2.09888E-14
 -1      4220 1.86755E+01 9.84860E-01-2.19269E-03 4.68184E-01-1.13465E-13-5.15702E-14
 -1      4221 1.88444E+01 9.69952E-01 1.23601E-02 2.74539E-01 2.07090E-14-2.69727E-13
 -1      4222 1.95061E+01 6.02969E-01-6.85602E-04-1.88434E-01-3.01153E-13 2.65978E-13
 -1      4223 1.94276E+01 6.53308E-01 7.65570E-04-1.27484E-01-2.01550E-13 1.59040E-13
 -1      4224 1.45233E+01 9.95813E-01 4.48105E-02-9.32889E-01-8.48763E-14-1.22873E-13
 -1      4225 1.55887E+01 7.85067E-01 5.41142E-03-1.43438E+00-7.22977E-14-3.10624E-15
 -1      4226 1.84674E+01 1.02360E+00-7.76933E-03 5.16361E-01-1.81183E-13-2.22395E-13
 -1      4227 1.82854E+01 1.05703E+00-2.75776E-03 5.82766E-01-1.43508E-13-2.20574E-13
 -1      4228 1.80343E+01 1.13428E+00 4.94187E-03 4.19410E-01-1.33351E-13-3.28951E-13
 -1      4229 1.61343E+01 8.96100E-01-1.97657E-02-1.18581E+00-1.68030E-14-1.04365E-15
 -1      4230 2.03442E+01 9.08004E-01 6.11803E-08 2.14465E-02 3.31843E-14-8.77063E-14
 -1      4231 2.03520E+01 7.78948E-01 6.79865E-04-9.24025E-03 4.62266E-14-8.28109E-14
 -1      4232 1.68900E+01 9.57835E-01-2.10067E-02 1.17890E+00-9.88238E-14-9.09104E-16
 -1      4233 1.65877E+01 8.81716E-01 7.57072E-03 1.38316E+00-1.31068E-13 1.39542E-13
 -1      4234 1.60982E+01 9.76485E-01 1.46834E-02 1.20691E+00-1.45723E-13 3.30794E-14
 -1      4235 2.02220E+01 4.21268E-01-1.31738E-03 9.62171E-02 2.55904E-15-2.15573E-14
 -1      4236 2.01718E+01 3.99033E-01-3.65074E-04 1.19094E-01-7.11622E-15-1.81841E-14
 -1      4237 2.01392E+01 4.15268E-01 1.46622E-03 7.13873E-02-2.03050E-14 6.11317E-15
 -1      4238 1.48139E+01 1.03395E+00-1.58768E-02-2.51363E-01-9.02451E-14-6.93096E-14
 -1      4239 1.69115E+01 9.70937E-01-2.21207E-03-1.06270E+00 2.91724E-14 3.55399E-14
 -1      4240 1.72177E+01 1.00415E+00-1.56095E-02-9.08195E-01 4.41502E-14 9.42975E-14
 -1      4241 1.72406E+01 1.12924E+00 1.58553E-02-5.74243E-01 5.90056E-14 6.76191E-14
 -1      4242 2.02968E+01 5.10979E-01-1.10419E-03 5.46170E-02-2.45602E-14-3.56137E-14
 -1      4243 2.02611E+01 4.55685E-01 1.57316E-04 7.84899E-02-1.07900E-14-1.67366E-14
 -1      4244 2.02375E+01 4.56359E-01 1.34772E-03 4.18225E-02-1.19704E-15-1.52751E-15
 -1      4245 2.03011E+01 5.38625E-01 1.28895E-03 1.20289E-02 4.51473E-15 1.66313E-15
 -1      4246 1.74575E+01 1.07619E+00-1.21724E-02 8.15570E-01-1.14706E-13-1.08134E-13
 -1      4247 1.71879E+01 1.05935E+00 5.12447E-03 9.42894E-01-1.27592E-13-1.36566E-13
 -1      4248 1.74589E+01 1.17943E+00 9.80075E-03 5.11059E-01-1.48492E-13-1.27210E-13
 -1      4249 1.61319E+01 1.10352E+00 2.07996E-02-7.13995E-01 1.96820E-14-4.21711E-14
 -1      4250 2.03430E+01 9.11126E-01-1.65727E-03 3.29132E-02 2.52932E-14-7.57040E-14
 -1      4251 1.53351E+01 1.15164E+00 3.78615E-02 2.97154E-01 1.53540E-14 6.21486E-15
 -1      4252 1.55873E+01 1.09449E+00-1.14357E-02-2.20437E-01 1.88629E-15-1.08148E-14
 -1      4253 1.63819E+01 1.12728E+00-8.49523E-03-2.21036E-01 9.71185E-14 3.60430E-14
 -1      4254 1.58683E+01 9.68708E-01-3.06054E-03 8.72359E-01 7.63166E-14 1.11171E-13
 -1      4255 1.86147E+01 9.33585E-01-2.08800E-03-5.35692E-01-1.54932E-14-4.39926E-15
 -1      4256 1.87898E+01 8.83041E-01-5.44294E-03-4.83443E-01 5.12447E-15-3.34715E-14
 -1      4257 1.84113E+01 1.02386E+00 1.39681E-02-3.68114E-01-4.97432E-16 3.62663E-14
 -1      4258 1.63913E+01 6.85129E-01-1.73077E-02 1.57086E+00 1.83395E-14 2.41916E-13
 -1      4259 1.84894E+01 1.07989E+00 1.55362E-02 3.33004E-01-1.47630E-13-4.17229E-13
 -1      4260 1.96313E+01 5.60076E-01 3.57696E-03-4.02826E-01-3.52526E-14 4.44271E-15
 -1      4261 1.97339E+01 4.92791E-01 3.08507E-04-4.64198E-01-1.83686E-14-5.42873E-14
 -1      4262 1.98045E+01 4.47172E-01-2.11350E-03-4.23785E-01-6.55791E-15-8.16343E-14
 -1      4263 2.01913E+01 3.93606E-01-9.55800E-04-1.52021E-01 1.34739E-14-8.86072E-14
 -1      4264 2.02396E+01 4.21835E-01-5.64835E-04-1.22605E-01 4.98335E-15-8.50661E-14
 -1      4265 1.62714E+01 9.37035E-01 1.15725E-02 1.11956E+00 6.13994E-14 1.69612E-13
 -1      4266 2.03409E+01 6.59862E-01-6.92192E-04-9.90677E-03 3.46944E-14-5.95774E-14
 -1      4267 1.92947E+01 7.34728E-01 6.14855E-04-9.02634E-02-9.14080E-14-1.25377E-13
 -1      4268 1.94137E+01 6.59292E-01-8.92044E-04-4.70713E-02 5.25902E-15 1.75609E-13
 -1      4269 1.94191E+01 6.58776E-01 2.82978E-04 1.83228E-02 4.20240E-14-2.79979E-13
 -1      4270 1.60011E+01 1.10630E+00-1.28533E-02-5.57714E-01-1.89042E-13-1.02350E-13
 -1      4271 1.68431E+01 1.14530E+00 1.39965E-02 7.86135E-01-5.62256E-14-1.29403E-13
 -1      4272 1.98929E+01 4.08960E-01 3.67828E-05-3.93200E-01-1.91020E-14-1.13815E-13
 -1      4273 1.99545E+01 3.76621E-01-1.23054E-03-3.57126E-01-1.35178E-14-1.00283E-13
 -1      4274 1.99778E+01 3.96851E-01 1.87013E-03-2.88237E-01 7.45390E-15-6.01935E-14
 -1      4275 1.98201E+01 4.64681E-01 2.78504E-03-3.42441E-01-2.89184E-14 1.50747E-15
 -1      4276 1.95900E+01 5.52593E-01-4.15537E-04 2.03203E-01 5.05215E-13 1.78291E-13
 -1      4277 2.03511E+01 7.47200E-01 1.17938E-03-3.78256E-03 2.35713E-14-7.36728E-14
 -1      4278 1.89815E+01 8.30596E-01-1.59865E-03-4.48165E-01 2.85178E-14-1.57785E-14
 -1      4279 1.91273E+01 7.71835E-01-3.90716E-03-4.06518E-01-6.65594E-15-7.85618E-15
 -1      4280 1.88238E+01 9.10726E-01 1.03068E-02-3.11262E-01 2.01471E-14-5.09561E-14
 -1      4281 1.92837E+01 7.14824E-01-1.15953E-03-3.78341E-01-4.67303E-14 1.93649E-14
 -1      4282 1.94013E+01 6.54970E-01-4.03059E-03-3.41396E-01-4.08255E-14-8.55186E-15
 -1      4283 1.91589E+01 7.85214E-01 6.86220E-03-2.66250E-01-1.36632E-14-4.53856E-14
 -1      4284 2.00705E+01 3.82597E-01-1.36901E-03-1.93145E-01 3.86013E-14-5.43494E-14
 -1      4285 2.01331E+01 3.81651E-01-5.87927E-04-1.66768E-01 1.42603E-14-7.34076E-14
 -1      4286 2.01637E+01 4.12016E-01 1.25882E-03-1.10184E-01 7.11383E-15-6.86568E-14
 -1      4287 1.62778E+01 1.08035E+00-1.92448E-02 4.98837E-01 9.62521E-14 8.34116E-14
 -1      4288 1.95190E+01 6.01545E-01 1.43205E-03 1.48752E-01 3.22814E-13-2.83712E-13
 -1      4289 1.68114E+01 1.12183E+00-1.53967E-03 3.56051E-01 9.68837E-14 8.59875E-14
 -1      4290 1.65480E+01 1.17751E+00 1.57556E-02 1.27123E-01 9.16949E-14 9.72941E-14
 -1      4291 1.68772E+01 1.13101E+00-1.03074E-02-3.00179E-01 5.51727E-14 6.78042E-14
 -1      4292 1.71767E+01 1.10657E+00-1.38234E-02 2.78752E-01 2.40498E-14 3.41256E-14
 -1      4293 1.94873E+01 6.14310E-01-1.33289E-03 9.74186E-02 8.32303E-14-3.35299E-13
 -1      4294 1.56983E+01 1.02838E+00-1.37189E-03 9.47232E-01-1.08808E-13-2.04166E-15
 -1      4295 1.52631E+01 1.11211E+00 2.04035E-02 6.24429E-01-1.91784E-13-1.03880E-13
 -1      4296 1.56692E+01 1.16148E+00-3.82618E-03 2.00214E-01 8.19917E-15-7.43478E-14
 -1      4297 1.61927E+01 1.09209E+00-1.64167E-02 7.75842E-01 2.42341E-15-1.13838E-13
 -1      4298 1.98618E+01 4.59414E-01-2.25381E-03 2.32605E-02 1.12128E-14-5.11232E-14
 -1      4299 1.97683E+01 4.98537E-01-1.16715E-03 3.28811E-02-6.01957E-15-5.07610E-14
 -1      4300 1.96597E+01 5.43904E-01-2.09149E-03 3.27639E-02-2.50389E-14-2.53203E-14
 -1      4301 1.95418E+01 5.95527E-01-2.83002E-03 4.69751E-02-6.49228E-15-4.53484E-14
 -1      4302 1.97173E+01 5.34617E-01 3.68216E-03-5.93086E-02-2.09600E-14-6.69740E-14
 -1      4303 1.93841E+01 6.67506E-01-2.12722E-03-3.99401E-02-5.38079E-15-7.32421E-14
 -1      4304 1.92405E+01 7.25882E-01-3.95301E-03-2.92976E-02 9.60907E-15-8.39208E-14
 -1      4305 1.90797E+01 7.85286E-01-6.09374E-03-4.16208E-02 2.69903E-14-1.12432E-13
 -1      4306 1.89118E+01 8.48021E-01-5.96527E-03-2.58703E-02 1.60037E-14-5.16998E-14
 -1      4307 1.87168E+01 9.02967E-01-8.81932E-03-4.05884E-02-9.27698E-15-5.55359E-14
 -1      4308 1.85141E+01 9.61073E-01-8.22858E-03-1.83156E-02 3.09372E-14-5.27078E-14
 -1      4309 1.82737E+01 1.00574E+00-1.16128E-02-3.57616E-02 5.11196E-14-7.98800E-14
 -1      4310 1.80259E+01 1.05213E+00-1.02025E-02-4.63936E-03-4.86189E-15-6.89993E-14
 -1      4311 1.77252E+01 1.08698E+00-1.10891E-02-2.27186E-02 1.43919E-14-1.63131E-14
 -1      4312 1.74203E+01 1.11453E+00-6.80494E-03 1.23913E-02 4.33990E-14 2.71055E-14
 -1      4313 1.93582E+01 6.97858E-01-3.88865E-04 8.41543E-02 1.68137E-13-3.00339E-13
 -1      4314 2.01495E+01 4.09834E-01-1.25292E-03-2.66295E-02-1.55761E-14-3.74979E-14
 -1      4315 2.00859E+01 4.06325E-01-1.14275E-04-2.10425E-02-3.70152E-14-5.72762E-14
 -1      4316 1.74406E+01 1.15974E+00-5.44667E-03-3.46690E-01-1.20093E-13 4.75575E-14
 -1      4317 1.77096E+01 1.14378E+00-1.29131E-02-2.68188E-01 5.89106E-14-2.10975E-14
 -1      4318 1.66208E+01 1.14889E+00-4.80077E-03-4.75123E-01-1.61476E-13 1.07820E-13
 -1      4319 1.70106E+01 1.15480E+00-1.14978E-02-3.98874E-01-1.04994E-13 9.90631E-14
 -1      4320 1.71479E+01 1.23335E+00 1.30061E-02-7.73418E-02-1.37067E-13 1.37803E-13
 -1      4321 1.61171E+01 1.21682E+00 1.47432E-02-1.48058E-01-9.49334E-14 1.76064E-14
 -1      4322 1.80487E+01 1.11777E+00-6.51930E-03-4.97587E-02 5.29218E-14-1.17025E-13
 -1      4323 1.82697E+01 1.07662E+00-1.05135E-02-1.51741E-02 4.98776E-15-2.61570E-13
 -1      4324 1.84774E+01 1.02714E+00-1.07517E-02-3.00818E-02-5.99409E-14-2.45455E-13
 -1      4325 1.86657E+01 9.80763E-01-9.26834E-03-7.29827E-04-2.56312E-14-4.04165E-13
 -1      4326 1.88337E+01 9.26031E-01-7.49613E-03-1.40279E-02 4.67510E-14-4.26963E-13
 -1      4327 1.89916E+01 8.74780E-01-3.70279E-03 5.22875E-03 3.65224E-14-4.04110E-13
 -1      4328 1.91680E+01 7.91267E-01-2.39482E-03-1.13696E-01 4.77906E-14-3.23763E-13
 -1      4329 2.03361E+01 6.32980E-01-1.89681E-03-4.62011E-02 3.56896E-14-9.72026E-14
 -1      4330 2.00196E+01 4.14191E-01-1.82276E-03-6.45840E-03-4.07466E-14-5.56369E-14
 -1      4331 1.99421E+01 4.35412E-01-2.96418E-04 1.84428E-04-4.89948E-15-4.78744E-14
 -1      4332 1.99003E+01 4.59198E-01 3.05659E-03-7.82479E-02-5.77035E-15-3.46302E-14
 -1      4333 2.00412E+01 4.15346E-01 2.08192E-03-1.12883E-01-1.89257E-14-3.46903E-14
 -1      4334 1.76445E+01 1.17595E+00-2.00726E-03 2.04569E-01-5.79395E-14 3.22252E-16
 -1      4335 1.72905E+01 1.19050E+00-7.31778E-03 2.41645E-01-7.33772E-14 5.42210E-14
 -1      4336 2.03335E+01 6.29175E-01 1.18352E-03-3.42961E-02 3.68611E-14-5.15168E-14
 -1      4337 2.03126E+01 5.57254E-01-1.45567E-03-2.56806E-02 6.28076E-15-4.15590E-14
 -1      4338 2.02891E+01 5.06583E-01-4.74259E-04-1.17911E-02 1.18940E-14-1.62057E-14
 -1      4339 2.03155E+01 5.38452E-01 6.59988E-04-6.63564E-02 1.60649E-14-9.77981E-14
 -1      4340 1.95526E+01 5.93469E-01-7.67237E-04-2.46717E-01-5.36551E-14-3.58170E-14
 -1      4341 1.96539E+01 5.39080E-01-2.68505E-03-2.20444E-01-4.48389E-14-4.49062E-14
 -1      4342 1.94599E+01 6.49744E-01 4.17408E-03-1.50998E-01-5.14104E-14-4.68212E-14
 -1      4343 1.92599E+01 7.56625E-01 1.31900E-04 9.75711E-02 1.44652E-13-2.84579E-13
 -1      4344 2.02091E+01 4.28740E-01 2.05577E-05-1.54928E-02-2.58319E-14-4.29586E-14
 -1      4345 2.02455E+01 4.53883E-01-1.06656E-03-3.29962E-02-1.09943E-14-2.92149E-14
 -1      4346 1.91324E+01 8.25429E-01 2.28967E-03 1.14979E-01 4.42923E-14-3.16307E-13
 -1      4347 2.02659E+01 4.76382E-01 1.33230E-03-7.10651E-02-1.15887E-14-6.52643E-14
 -1      4348 2.02828E+01 4.72495E-01-9.74977E-04-9.88814E-02-5.92674E-15-9.09599E-14
 -1      4349 1.62909E+01 1.20696E+00 1.90177E-03 1.93127E-01-1.29881E-14 3.93244E-14
 -1      4350 1.68392E+01 1.19565E+00-1.09701E-02 2.52970E-01-1.62463E-13-2.41899E-14
 -1      4351 1.65627E+01 1.16084E+00-8.26398E-04 4.49125E-01-7.36639E-14-4.80304E-14
 -1      4352 1.72588E+01 1.15319E+00-1.73341E-04-2.46932E-01 1.02634E-13 1.12036E-13
 -1      4353 1.79090E+01 1.17300E+00 7.37439E-03 1.72810E-01-7.25806E-14-1.28535E-13
 -1      4354 2.00067E+01 3.99827E-01-6.74111E-04-1.81426E-01 2.05016E-14-3.73429E-14
 -1      4355 1.99302E+01 4.21495E-01-1.89300E-03-2.05718E-01-8.31111E-15-3.14523E-14
 -1      4356 1.97617E+01 4.92766E-01-1.91334E-03-2.10975E-01-3.10874E-14-4.55145E-14
 -1      4357 1.98512E+01 4.53886E-01-1.37258E-03-1.87002E-01-1.56049E-14-1.69993E-14
 -3
    1PSTEP                         3           1           1          
  100CL  101 1.000000000        4357                     0    1           1
 -4  TOSTRAIN    6    1
 -5  EXX         1    4    1    1
 -5  EYY         1    4    2    2
 -5  EZZ         1    4    3    3
 -5  EXY         1    4    1    2
 -5  EYZ         1    4    2    3
 -5  EZX         1    4    3    1
 -1         1 3.07670E-04-9.52698E-05-7.84332E-05 1.02279E-06-3.39740E-19-1.00115E-18
 -1         2 3.51929E-05-1.08927E-04 1.97797E-05-1.87082E-07-1.31240E-18-2.16787E-19
 -1         3 9.52266E-05-2.85821E-05-2.85403E-05-4.28203E-09-2.65565E-18-2.36182E-18
 -1         4 9.52264E-05-2.85822E-05-2.85404E-05 4.73923E-09 8.72120E-19 9.47788E-19
 -1         5 1.43022E-04-2.14285E-05-4.24379E-05 3.84641E-05-1.30602E-19 9.75655E-18
 -1         6 1.45085E-04 2.56950E-10-4.40947E-05-5.34261E-05-5.60736E-19 8.21357E-18
 -1         7 9.04655E-05-5.10323E-07-3.90059E-05-2.92095E-05-1.00162E-19 1.37995E-18
 -1         8 8.50591E-05 8.52216E-08-3.63094E-05-2.02381E-05-1.04609E-19-6.62319E-19
 -1         9 8.28072E-05 7.52456E-08-3.53462E-05-1.56050E-05-7.75697E-20-1.76261E-18
 -1        10 8.18124E-05 3.71203E-08-3.48959E-05-1.20378E-05-3.45629E-20-2.32464E-18
 -1        11 8.13191E-05 1.81346E-08-3.46799E-05-8.97194E-06-4.14583E-20-2.55931E-18
 -1        12 8.10673E-05 8.07635E-09-3.45741E-05-6.24843E-06-1.36584E-20-2.56087E-18
 -1        13 8.09362E-05 3.64525E-09-3.45214E-05-3.66139E-06-2.08946E-21-2.50692E-18
 -1        14 8.08817E-05 1.89025E-09-3.45001E-05-1.17539E-06-1.82786E-21-2.41918E-18
 -1        15 8.08839E-05 1.87616E-09-3.45009E-05 1.27976E-06 4.14965E-20-2.27611E-18
 -1        16 8.09430E-05 3.55577E-09-3.45237E-05 3.77099E-06 4.39084E-20-2.21200E-18
 -1        17 8.10795E-05 7.23867E-09-3.45779E-05 6.37047E-06 4.64660E-20-2.10534E-18
 -1        18 8.13363E-05 1.67952E-08-3.46853E-05 9.11408E-06 7.69179E-20-1.83215E-18
 -1        19 8.18339E-05 3.66224E-08-3.49039E-05 1.22167E-05 1.08645E-19-1.40721E-18
 -1        20 8.28297E-05 7.98548E-08-3.53585E-05 1.58341E-05 1.23839E-19-6.02998E-19
 -1        21 8.50242E-05 1.67986E-07-3.63471E-05 2.04499E-05 1.35605E-19 8.81118E-19
 -1        22 9.14979E-05-9.90057E-08-3.86775E-05 2.79593E-05 2.61521E-20 3.74946E-18
 -1        23 1.12703E-04-3.80354E-05-3.53159E-05-4.39514E-06-3.75394E-19 6.24973E-18
 -1        24 9.25785E-05-2.76298E-05-2.89300E-05 3.89686E-07-1.09284E-19 4.72863E-18
 -1        25 8.89192E-05-2.67927E-05-2.68689E-05 3.74068E-07-9.01296E-20 3.13533E-18
 -1        26 8.78490E-05-2.64394E-05-2.63419E-05 2.01877E-07 4.00273E-21 1.86821E-18
 -1        27 8.79258E-05-2.64333E-05-2.63497E-05 1.37373E-07-1.33096E-19 1.11468E-18
 -1        28 8.85400E-05-2.65944E-05-2.65441E-05 9.83417E-08-4.08267E-20 7.72971E-19
 -1        29 8.94214E-05-2.68457E-05-2.68154E-05 7.29341E-08-6.41414E-20 3.03096E-19
 -1        30 9.04387E-05-2.71439E-05-2.71243E-05 5.53726E-08-2.60443E-20 2.77853E-19
 -1        31 9.15322E-05-2.74685E-05-2.74552E-05 4.30546E-08 8.44941E-20-2.36822E-20
 -1        32 9.26866E-05-2.78131E-05-2.78044E-05 3.48489E-08-1.76945E-19-8.10283E-19
 -1        33 9.39165E-05-2.81816E-05-2.81766E-05 3.03488E-08 2.51742E-19-1.00845E-18
 -1        34 9.52584E-05-2.85843E-05-2.85830E-05 2.95482E-08-1.25827E-19-7.97113E-19
 -1        35 9.67635E-05-2.90361E-05-2.90388E-05 3.26873E-08 1.52061E-19-1.47777E-18
 -1        36 9.84909E-05-2.95544E-05-2.95613E-05 4.01334E-08-3.32398E-20-1.19668E-18
 -1        37 1.00498E-04-3.01558E-05-3.01672E-05 5.21954E-08-1.12147E-19-1.07559E-18
 -1        38 1.02824E-04-3.08516E-05-3.08672E-05 6.87555E-08-9.37663E-20-2.36933E-18
 -1        39 1.05468E-04-3.16411E-05-3.16587E-05 8.85524E-08-8.48011E-20-3.90975E-18
 -1        40 1.08351E-04-3.25004E-05-3.25146E-05 1.07917E-07-3.00585E-20-3.82319E-18
 -1        41 1.11270E-04-3.33684E-05-3.33685E-05 1.18878E-07 1.54193E-19-3.60909E-18
 -1        42 1.13835E-04-3.41300E-05-3.40995E-05 1.07086E-07-2.50534E-19-3.15097E-18
 -1        43 1.15437E-04-3.46055E-05-3.45247E-05 5.15892E-08-8.11034E-20-3.48599E-18
 -1        44 1.15289E-04-3.45619E-05-3.44199E-05-6.90213E-08 3.35097E-19-2.39433E-18
 -1        45 1.12625E-04-3.37714E-05-3.35865E-05-2.59046E-07-4.37463E-20-1.14477E-18
 -1        46 1.07128E-04-3.21362E-05-3.19746E-05-4.77759E-07-2.37575E-19-1.73819E-18
 -1        47 9.94810E-05-2.98538E-05-2.98185E-05-6.21853E-07 9.61523E-20 5.01682E-19
 -1        48 9.16539E-05-2.75097E-05-2.76753E-05-5.64210E-07-6.69851E-21 1.45123E-18
 -1        49 8.63969E-05-2.59311E-05-2.62641E-05-2.59038E-07 3.41328E-19 3.94042E-19
 -1        50 8.58708E-05-2.57730E-05-2.61240E-05 1.75189E-07-7.36588E-20-7.23551E-20
 -1        51 9.03035E-05-2.71046E-05-2.73107E-05 5.20778E-07-4.63320E-20 9.74194E-19
 -1        52 9.78413E-05-2.93637E-05-2.93648E-05 6.29284E-07 7.90971E-20-6.03802E-19
 -1        53 1.05728E-04-3.17191E-05-3.15747E-05 5.16503E-07-3.69521E-19-1.59404E-18
 -1        54 1.11767E-04-3.35168E-05-3.33295E-05 3.02961E-07 1.40730E-19-2.73269E-18
 -1        55 1.15021E-04-3.44832E-05-3.43296E-05 1.01745E-07-3.77462E-19-1.70523E-18
 -1        56 1.15653E-04-3.46705E-05-3.45778E-05-3.33823E-08 7.98072E-20-1.87308E-18
 -1        57 1.14385E-04-3.42944E-05-3.42555E-05-1.00041E-07 1.46130E-19-9.36590E-19
 -1        58 1.12028E-04-3.35951E-05-3.35909E-05-1.18246E-07 1.97537E-20-3.67493E-19
 -1        59 1.09241E-04-3.27669E-05-3.27797E-05-1.09787E-07-3.40417E-20-6.25289E-19
 -1        60 1.06461E-04-3.19394E-05-3.19575E-05-9.03199E-08-2.68667E-19 4.66222E-19
 -1        61 1.03934E-04-3.11857E-05-3.12030E-05-6.88385E-08 6.33171E-19-3.28536E-19
 -1        62 1.01770E-04-3.05387E-05-3.05527E-05-4.95855E-08-8.69435E-19-2.15047E-18
 -1        63 9.99912E-05-3.00059E-05-3.00162E-05-3.40370E-08-3.29044E-19-3.40722E-18
 -1        64 9.85749E-05-2.95810E-05-2.95879E-05-2.22843E-08-1.72185E-19-2.76001E-18
 -1        65 9.74767E-05-2.92509E-05-2.92552E-05-1.38244E-08-1.32479E-20-2.07142E-18
 -1        66 9.66461E-05-2.90008E-05-2.90033E-05-7.94320E-09 5.38973E-19-2.88671E-19
 -1        67 9.60362E-05-2.88168E-05-2.88185E-05-3.84851E-09-8.34288E-20 1.28674E-18
 -1        68 9.56084E-05-2.86874E-05-2.86893E-05-6.16226E-10-1.30318E-19 1.91090E-18
 -1        69 9.53359E-05-2.86044E-05-2.86076E-05 2.99818E-09-3.02315E-19-1.71081E-18
 -1        70 9.52028E-05-2.85630E-05-2.85669E-05 9.30560E-09 6.65645E-19 9.84885E-19
 -1        71 9.51953E-05-2.85591E-05-2.85555E-05 1.64397E-08-3.64588E-19 3.61793E-18
 -1        72 1.01924E-04-3.05095E-05-3.40706E-05-1.92289E-06 5.38925E-20 9.24769E-18
 -1        73 9.23337E-05-2.74456E-05-2.88380E-05-3.31560E-07 6.42554E-20 7.60354E-18
 -1        74 8.89042E-05-2.66414E-05-2.69114E-05-1.23709E-07 7.53032E-20 6.20129E-18
 -1        75 8.78749E-05-2.63888E-05-2.63849E-05-9.24530E-08-5.43656E-20 5.20131E-18
 -1        76 8.79550E-05-2.64112E-05-2.63750E-05-7.24456E-08 1.86839E-20 4.16908E-18
 -1        77 8.85669E-05-2.65860E-05-2.65594E-05-5.73175E-08 9.00899E-20 3.39764E-18
 -1        78 8.94441E-05-2.68434E-05-2.68257E-05-4.54407E-08-9.35309E-20 3.45931E-18
 -1        79 9.04566E-05-2.71442E-05-2.71316E-05-3.54809E-08 5.32072E-20 3.18068E-18
 -1        80 9.15464E-05-2.74697E-05-2.74606E-05-2.69062E-08-4.02520E-20 2.41495E-18
 -1        81 9.26997E-05-2.78150E-05-2.78093E-05-1.96629E-08 4.37891E-20 1.26987E-18
 -1        82 9.39343E-05-2.81851E-05-2.81832E-05-1.39601E-08 1.56934E-19 3.68428E-19
 -1        83 9.52911E-05-2.85919E-05-2.85948E-05-1.02268E-08-8.53423E-20 8.93555E-19
 -1        84 9.68291E-05-2.90530E-05-2.90614E-05-9.15111E-09 8.21057E-20 1.33806E-18
 -1        85 9.86192E-05-2.95892E-05-2.96043E-05-1.17647E-08-3.11620E-20 1.13292E-18
 -1        86 1.00736E-04-3.02227E-05-3.02454E-05-1.95252E-08 1.76783E-19-1.67501E-19
 -1        87 1.03246E-04-3.09725E-05-3.10030E-05-3.43113E-08-5.06321E-20-1.13621E-18
 -1        88 1.06180E-04-3.18480E-05-3.18843E-05-5.81288E-08-1.39925E-19-1.22697E-18
 -1        89 1.09497E-04-3.28371E-05-3.28724E-05-9.21146E-08 1.70861E-19-2.58372E-18
 -1        90 1.13025E-04-3.38888E-05-3.39082E-05-1.34133E-07-3.48482E-19-3.03152E-18
 -1        91 1.16374E-04-3.48903E-05-3.48669E-05-1.74216E-07-3.96786E-20-1.08883E-19
 -1        92 1.18867E-04-3.56441E-05-3.55399E-05-1.88410E-07-2.27354E-19 3.27921E-19
 -1        93 1.19529E-04-3.58638E-05-3.56451E-05-1.35922E-07 2.94642E-19-1.92035E-19
 -1        94 1.17279E-04-3.52254E-05-3.48987E-05 2.89820E-08-7.44479E-20-1.95773E-18
 -1        95 1.11449E-04-3.35125E-05-3.31732E-05 3.14418E-07 9.81723E-20-3.52882E-18
 -1        96 1.02600E-04-3.08591E-05-3.06985E-05 6.27861E-07 2.07249E-20-1.84698E-18
 -1        97 9.31021E-05-2.79531E-05-2.81539E-05 7.69523E-07 2.00029E-20-1.47879E-18
 -1        98 8.66131E-05-2.59173E-05-2.64696E-05 5.67913E-07-2.75823E-19-1.12429E-18
 -1        99 8.61162E-05-2.57132E-05-2.63563E-05 7.55394E-08-8.60169E-20-2.02528E-18
 -1       100 9.18642E-05-2.74573E-05-2.78615E-05-4.26778E-07 1.13196E-19-4.74233E-19
 -1       101 1.01184E-04-3.03196E-05-3.03456E-05-6.74389E-07 4.11109E-20-6.58171E-19
 -1       102 1.10360E-04-3.31308E-05-3.28794E-05-6.23539E-07 1.52661E-19-1.81720E-18
 -1       103 1.16745E-04-3.50691E-05-3.47339E-05-4.08125E-07-2.82342E-20-1.49002E-18
 -1       104 1.19531E-04-3.59002E-05-3.56206E-05-1.79496E-07-2.22710E-19 9.48161E-19
 -1       105 1.19268E-04-3.58060E-05-3.56328E-05-1.46375E-08 5.61441E-19 1.88657E-19
 -1       106 1.17027E-04-3.51199E-05-3.50423E-05 7.57526E-08-7.23923E-19-5.18113E-19
 -1       107 1.13823E-04-3.41502E-05-3.41364E-05 1.10468E-07 6.38445E-20-7.84697E-20
 -1       108 1.10387E-04-3.31156E-05-3.31354E-05 1.12514E-07 4.46787E-19-3.74383E-18
 -1       109 1.07152E-04-3.21441E-05-3.21770E-05 9.91908E-08-7.95113E-20-5.51815E-19
 -1       110 1.04326E-04-3.12968E-05-3.13313E-05 8.08356E-08-6.15024E-19-1.27474E-18
 -1       111 1.01976E-04-3.05925E-05-3.06234E-05 6.26933E-08 6.31006E-20-1.64420E-19
 -1       112 1.00088E-04-3.00267E-05-3.00522E-05 4.69778E-08-6.34558E-19-2.95026E-19
 -1       113 9.86110E-05-2.95841E-05-2.96042E-05 3.43231E-08 4.47593E-19-5.73034E-19
 -1       114 9.74817E-05-2.92456E-05-2.92609E-05 2.46308E-08-7.89243E-19-8.19558E-19
 -1       115 9.66372E-05-2.89924E-05-2.90039E-05 1.74794E-08 4.35188E-19-3.01856E-18
 -1       116 9.60229E-05-2.88081E-05-2.88170E-05 1.22992E-08 2.99068E-19-4.52168E-18
 -1       117 9.55958E-05-2.86797E-05-2.86876E-05 8.46686E-09 1.94328E-19-8.78377E-18
 -1       118 9.53263E-05-2.85982E-05-2.86065E-05 4.78425E-09 7.15591E-19-9.97783E-18
 -1       119 9.51985E-05-2.85589E-05-2.85668E-05-1.85784E-09-1.09345E-19-9.58915E-18
 -1       120 9.51953E-05-2.85564E-05-2.85561E-05-1.41367E-08 1.11009E-18-6.82764E-18
 -1       121 9.52483E-05-2.86094E-05-2.85575E-05-1.88630E-08-7.41169E-18-8.05807E-19
 -1       122 9.52449E-05-2.85982E-05-2.85707E-05-5.06352E-09-4.05884E-18-3.95469E-19
 -1       123 9.52042E-05-2.84620E-05-2.86111E-05 4.94751E-09-2.92213E-18 4.48714E-19
 -1       124 9.51352E-05-2.82312E-05-2.86768E-05 1.04199E-08-4.25274E-18-1.17092E-18
 -1       125 9.50535E-05-2.79566E-05-2.87554E-05 1.19642E-08-4.95435E-18-1.50873E-18
 -1       126 9.49764E-05-2.76966E-05-2.88304E-05 1.07191E-08-4.63201E-18 1.23347E-18
 -1       127 9.49152E-05-2.74908E-05-2.88900E-05 7.27353E-09 5.93912E-20 9.54197E-19
 -1       128 9.48822E-05-2.73792E-05-2.89224E-05 2.53614E-09 9.24839E-19 3.46028E-19
 -1       129 9.48826E-05-2.73806E-05-2.89220E-05-2.61294E-09 1.75242E-19 1.30746E-18
 -1       130 9.49163E-05-2.74944E-05-2.88890E-05-7.29041E-09 2.83270E-18-1.47807E-19
 -1       131 9.49777E-05-2.77013E-05-2.88291E-05-1.07351E-08-1.13602E-18-1.52916E-18
 -1       132 9.50548E-05-2.79609E-05-2.87542E-05-1.18540E-08-2.09234E-18 2.55801E-18
 -1       133 9.51360E-05-2.82340E-05-2.86759E-05-1.02203E-08-3.44356E-18-1.17998E-18
 -1       134 9.52042E-05-2.84635E-05-2.86107E-05-5.72790E-09-4.20657E-18 1.82748E-19
 -1       135 9.52451E-05-2.85966E-05-2.85706E-05 6.78043E-09-4.30570E-18-5.60622E-19
 -1       136 9.52435E-05-2.86066E-05-2.85565E-05 2.88210E-08-3.66083E-18 2.29876E-20
 -1       137 2.51151E-05-8.56867E-05 1.51997E-05-2.29140E-05 6.35063E-18 1.23116E-18
 -1       138 7.39130E-06-3.29001E-05 2.97672E-06-1.74874E-05 8.57536E-18 4.48377E-18
 -1       139 1.49936E-05 1.59933E-05-1.66455E-05 2.79298E-05 7.60127E-18 6.15539E-18
 -1       140 6.38954E-05 2.47235E-05-3.64005E-05 8.04802E-05 4.84291E-18 5.32699E-18
 -1       141 1.61821E-04-1.09134E-05-5.76539E-05 1.13032E-04 3.09379E-18 7.28660E-18
 -1       142 2.52773E-04-6.12790E-05-7.13249E-05 9.20573E-05 1.86247E-18 8.22469E-18
 -1       143 3.06351E-04-9.39113E-05-7.83466E-05 2.50742E-05 1.06427E-18 6.32067E-18
 -1       144 2.93475E-04-8.57363E-05-7.67817E-05-5.28813E-05-7.05436E-19 2.37233E-18
 -1       145 2.20400E-04-4.23894E-05-6.67811E-05-1.05603E-04 1.79783E-19-7.76306E-19
 -1       146 1.23931E-04 6.40185E-06-5.06730E-05-1.08010E-04 3.18760E-18-4.19281E-18
 -1       147 4.51529E-05 2.74867E-05-3.10009E-05-6.70080E-05 6.60770E-18-6.79913E-18
 -1       148 7.35962E-06 6.02639E-06-1.05240E-05-1.13533E-05 7.13117E-18-4.56678E-18
 -1       149 1.07669E-05-4.62535E-05 6.38280E-06 2.32775E-05 6.00673E-18-2.71771E-18
 -1       150 2.98864E-05-9.64380E-05 1.72136E-05 2.04851E-05 2.02293E-18-6.84773E-19
 -1       151 3.55404E-05-1.08801E-04 1.95841E-05-5.83837E-06 5.42736E-19 3.74468E-19
 -1       152 2.21898E-05-7.77881E-05 1.34383E-05-2.44445E-05-1.66717E-18-1.89894E-19
 -1       153 5.80936E-06-2.47351E-05 6.98296E-07-1.41671E-05-2.05702E-18-7.83505E-19
 -1       154 1.56905E-05 2.06324E-05-1.84567E-05 3.24718E-05-3.42667E-18-3.38940E-18
 -1       155 7.07230E-05 2.42906E-05-3.85932E-05 8.58236E-05-3.74770E-18-4.64386E-18
 -1       156 1.72174E-04-1.66225E-05-5.92385E-05 1.11183E-04-2.85027E-18-5.45405E-18
 -1       157 2.69686E-04-7.11544E-05-7.38163E-05 7.67117E-05-6.97611E-19-3.54949E-18
 -1       158 2.69238E-04-7.11227E-05-7.37024E-05-7.85790E-05 3.57342E-20 7.58518E-19
 -1       159 1.76589E-04-1.89240E-05-5.99855E-05-1.11133E-04 5.05679E-19-1.32307E-18
 -1       160 7.49921E-05 2.36658E-05-3.98613E-05-8.88607E-05-1.94098E-18 2.65714E-18
 -1       161 1.66644E-05 2.10393E-05-1.89131E-05-3.41010E-05-7.63304E-18 5.90933E-18
 -1       162 5.80975E-06-2.45963E-05 7.02539E-07 1.41183E-05-8.24883E-18 4.16931E-18
 -1       163 2.40082E-05-8.27613E-05 1.45367E-05 2.38225E-05-5.31196E-18 2.35523E-18
 -1       164 9.47643E-05-1.23371E-05-3.55284E-05-2.22969E-05-1.21907E-18 3.27484E-19
 -1       165 8.92138E-05-8.45247E-06-3.47740E-05-1.73314E-05-1.12522E-18-9.41887E-19
 -1       166 8.65751E-05-6.51114E-06-3.44235E-05-1.35362E-05-7.88604E-19-1.61618E-18
 -1       167 8.52408E-05-5.50837E-06-3.42538E-05-1.03096E-05-5.54294E-19-2.00593E-18
 -1       168 8.45125E-05-4.92870E-06-3.41760E-05-7.49531E-06-3.53690E-19-2.08820E-18
 -1       169 8.40926E-05-4.57394E-06-3.41407E-05-4.86452E-06-1.60633E-19-2.08140E-18
 -1       170 8.38768E-05-4.38274E-06-3.41265E-05-2.37428E-06 6.95746E-20-2.02641E-18
 -1       171 8.38130E-05-4.32455E-06-3.41230E-05 5.07544E-08 2.75046E-19-1.94266E-18
 -1       172 8.38870E-05-4.39133E-06-3.41273E-05 2.47791E-06 5.11111E-19-1.81908E-18
 -1       173 8.41151E-05-4.59350E-06-3.41422E-05 4.97483E-06 7.25433E-19-1.80957E-18
 -1       174 8.45411E-05-4.95614E-06-3.41770E-05 7.57175E-06 8.67315E-19-1.58066E-18
 -1       175 8.53009E-05-5.56851E-06-3.42555E-05 1.04549E-05 1.13629E-18-1.27989E-18
 -1       176 8.66666E-05-6.60963E-06-3.44259E-05 1.37258E-05 1.31052E-18-8.23237E-19
 -1       177 8.93612E-05-8.60086E-06-3.47780E-05 1.75692E-05 1.40517E-18 2.14935E-19
 -1       178 9.56708E-05-1.35994E-05-3.53844E-05 2.18442E-05 1.23081E-18 1.99106E-18
 -1       179 1.05415E-04-2.60509E-05-3.52014E-05 1.86258E-05 8.04562E-19 4.30605E-18
 -1       180 1.03236E-04-2.72573E-05-3.25596E-05-1.20946E-05-9.94920E-19 1.83714E-18
 -1       181 9.69735E-05-2.82480E-05-2.94887E-05-4.69977E-06-9.43198E-19 1.29049E-18
 -1       182 9.34096E-05-2.76043E-05-2.81539E-05-1.72831E-06-7.04080E-19 9.38340E-19
 -1       183 9.19246E-05-2.73852E-05-2.76239E-05-3.60460E-07-5.03171E-19 4.09001E-19
 -1       184 9.14227E-05-2.73285E-05-2.74501E-05 3.37271E-07-3.63665E-19 1.12741E-19
 -1       185 9.14902E-05-2.73955E-05-2.74597E-05 7.13137E-07-2.18899E-19 2.21804E-19
 -1       186 9.18925E-05-2.75397E-05-2.75746E-05 9.22623E-07-5.00821E-20 1.80409E-19
 -1       187 9.25020E-05-2.77322E-05-2.77552E-05 1.05012E-06-1.81094E-19 8.95423E-21
 -1       188 9.32535E-05-2.79577E-05-2.79814E-05 1.14753E-06-4.02387E-19 2.76292E-19
 -1       189 9.41209E-05-2.82112E-05-2.82448E-05 1.24972E-06-1.52586E-19 9.01818E-21
 -1       190 9.51046E-05-2.84945E-05-2.85448E-05 1.38104E-06-3.08208E-19-7.25183E-19
 -1       191 9.62222E-05-2.88149E-05-2.88863E-05 1.55778E-06-1.79710E-19-8.20119E-19
 -1       192 9.75018E-05-2.91828E-05-2.92768E-05 1.78814E-06-4.09492E-20-8.25891E-19
 -1       193 9.89741E-05-2.96105E-05-2.97245E-05 2.06994E-06-2.79242E-19-1.02297E-18
 -1       194 1.00663E-04-3.01102E-05-3.02348E-05 2.38576E-06-8.62111E-19-1.45610E-18
 -1       195 1.02574E-04-3.06910E-05-3.08061E-05 2.69507E-06-8.21387E-19-1.46293E-18
 -1       196 1.04673E-04-3.13542E-05-3.14240E-05 2.92351E-06-5.97269E-20-1.93274E-18
 -1       197 1.06868E-04-3.20868E-05-3.20542E-05 2.95160E-06 1.76450E-19-2.00137E-18
 -1       198 1.08979E-04-3.28495E-05-3.26357E-05 2.61028E-06-2.24136E-19-2.45781E-18
 -1       199 1.10714E-04-3.35603E-05-3.30784E-05 1.69972E-06-4.13392E-19-2.69656E-18
 -1       200 1.11673E-04-3.40739E-05-3.32706E-05 5.90503E-08 7.08194E-19-2.32008E-18
 -1       201 1.11398E-04-3.41729E-05-3.31078E-05-2.28812E-06 3.89341E-19-2.11626E-18
 -1       202 1.09530E-04-3.36060E-05-3.25433E-05-4.93466E-06 7.60808E-19-7.92821E-19
 -1       203 1.06076E-04-3.22245E-05-3.16469E-05-6.96810E-06 1.18758E-18 3.38651E-19
 -1       204 1.01716E-04-3.02241E-05-3.06316E-05-7.19138E-06 3.42382E-19 1.94414E-19
 -1       205 9.78618E-05-2.83009E-05-2.98039E-05-4.85461E-06-5.34835E-19-2.25119E-19
 -1       206 9.61174E-05-2.73930E-05-2.94464E-05-4.86120E-07-5.29336E-19-6.81924E-19
 -1       207 9.73010E-05-2.80107E-05-2.96878E-05 4.09762E-06 2.85705E-19-1.09915E-18
 -1       208 1.00855E-04-2.98033E-05-3.04419E-05 6.93663E-06-7.95088E-19-1.64298E-19
 -1       209 1.05251E-04-3.18596E-05-3.14489E-05 7.20300E-06-1.08225E-18-6.80247E-19
 -1       210 1.08980E-04-3.33998E-05-3.23942E-05 5.44677E-06-6.92016E-19-5.96788E-19
 -1       211 1.11205E-04-3.41317E-05-3.30414E-05 2.84337E-06-7.83439E-20-4.36492E-19
 -1       212 1.11804E-04-3.41536E-05-3.32925E-05 3.98933E-07 3.71735E-20 2.10087E-20
 -1       213 1.11095E-04-3.37136E-05-3.31762E-05-1.37801E-06 5.76138E-19-1.86686E-19
 -1       214 1.09534E-04-3.30431E-05-3.27913E-05-2.40322E-06-1.34237E-19-1.81849E-18
 -1       215 1.07545E-04-3.23028E-05-3.22520E-05-2.81447E-06-4.75365E-19-2.35819E-18
 -1       216 1.05446E-04-3.15869E-05-3.16555E-05-2.81041E-06 5.45775E-19-2.42050E-18
 -1       217 1.03443E-04-3.09434E-05-3.10703E-05-2.56781E-06-2.47862E-19-7.89692E-19
 -1       218 1.01651E-04-3.03913E-05-3.05371E-05-2.21528E-06-1.65388E-18-1.23580E-18
 -1       219 1.00117E-04-2.99333E-05-3.00754E-05-1.83485E-06-7.54813E-19-8.60558E-19
 -1       220 9.88491E-05-2.95632E-05-2.96904E-05-1.47298E-06 5.18774E-19-9.64259E-19
 -1       221 9.78293E-05-2.92705E-05-2.93790E-05-1.15199E-06 6.45662E-19-1.44172E-18
 -1       222 9.70291E-05-2.90438E-05-2.91335E-05-8.78993E-07 1.05785E-18 2.62583E-19
 -1       223 9.64165E-05-2.88717E-05-2.89451E-05-6.52017E-07 9.39342E-19 6.40100E-19
 -1       224 9.59610E-05-2.87440E-05-2.88051E-05-4.63867E-07 1.19105E-18 1.63477E-18
 -1       225 9.56364E-05-2.86522E-05-2.87058E-05-3.04658E-07-1.17816E-18 2.16473E-18
 -1       226 9.54207E-05-2.85905E-05-2.86402E-05-1.65180E-07 4.14142E-19 2.20154E-18
 -1       227 9.52905E-05-2.85557E-05-2.85996E-05-4.36977E-08 1.29823E-18 1.07907E-18
 -1       228 9.93361E-05-2.85060E-05-3.05369E-05 7.18589E-06 8.50937E-19 3.80191E-18
 -1       229 9.42823E-05-2.77495E-05-2.84845E-05 2.71721E-06 8.22350E-19 3.02655E-18
 -1       230 9.20019E-05-2.73697E-05-2.76542E-05 8.92389E-07 4.47131E-19 2.23372E-18
 -1       231 9.11109E-05-2.72221E-05-2.73536E-05 9.65467E-09 6.02278E-19 1.90337E-18
 -1       232 9.09855E-05-2.72380E-05-2.73064E-05-4.51055E-07 3.43632E-19 1.57850E-18
 -1       233 9.12973E-05-2.73586E-05-2.73949E-05-7.00054E-07-5.28957E-20 1.20677E-18
 -1       234 9.18676E-05-2.75429E-05-2.75633E-05-8.40840E-07 3.13892E-19 1.17208E-18
 -1       235 9.26027E-05-2.77677E-05-2.77835E-05-9.32568E-07 4.35287E-19 1.12210E-18
 -1       236 9.34603E-05-2.80228E-05-2.80424E-05-1.01353E-06 6.04120E-19 5.53768E-19
 -1       237 9.44323E-05-2.83074E-05-2.83373E-05-1.11074E-06 1.16751E-19 6.63259E-19
 -1       238 9.55343E-05-2.86273E-05-2.86727E-05-1.24409E-06 1.43220E-20 4.09028E-19
 -1       239 9.67985E-05-2.89931E-05-2.90578E-05-1.42793E-06-2.17096E-19 1.42205E-19
 -1       240 9.82676E-05-2.94190E-05-2.95051E-05-1.67052E-06 2.60118E-19 2.11516E-19
 -1       241 9.99867E-05-2.99207E-05-3.00273E-05-1.97153E-06 6.06493E-19 1.84845E-19
 -1       242 1.01993E-04-3.05133E-05-3.06339E-05-2.31651E-06 3.51118E-19 5.30293E-19
 -1       243 1.04298E-04-3.12070E-05-3.13259E-05-2.66762E-06 2.97917E-20-3.13418E-19
 -1       244 1.06865E-04-3.20018E-05-3.20875E-05-2.94999E-06 6.09543E-19-2.35201E-20
 -1       245 1.09575E-04-3.28769E-05-3.28752E-05-3.03535E-06 8.11758E-20 2.17307E-19
 -1       246 1.12179E-04-3.37759E-05-3.36060E-05-2.73128E-06-9.58305E-19-2.81466E-19
 -1       247 1.14268E-04-3.45857E-05-3.41513E-05-1.79752E-06-3.60153E-19 4.04796E-19
 -1       248 1.15273E-04-3.51124E-05-3.43481E-05-2.95283E-08 4.27136E-19 8.14449E-19
 -1       249 1.14556E-04-3.50794E-05-3.40454E-05 2.55233E-06 9.87088E-19 5.56977E-19
 -1       250 1.11683E-04-3.41913E-05-3.31906E-05 5.42632E-06 9.07986E-19-1.32307E-18
 -1       251 1.06858E-04-3.23458E-05-3.19259E-05 7.41192E-06-8.34388E-19-1.89810E-18
 -1       252 1.01336E-04-2.99521E-05-3.06138E-05 7.05393E-06-7.78268E-19-6.00904E-19
 -1       253 9.72763E-05-2.80317E-05-2.97234E-05 3.72357E-06 1.26155E-19 4.17303E-19
 -1       254 9.66357E-05-2.76624E-05-2.96070E-05-1.40283E-06 4.35600E-19-1.27558E-19
 -1       255 9.97666E-05-2.90864E-05-3.03087E-05-5.83271E-06-8.51592E-19-1.86433E-19
 -1       256 1.05117E-04-3.14663E-05-3.15488E-05-7.60716E-06 1.24557E-19-6.01771E-19
 -1       257 1.10412E-04-3.36416E-05-3.28739E-05-6.57090E-06 4.54198E-19-1.31733E-19
 -1       258 1.14019E-04-3.49244E-05-3.38780E-05-3.94812E-06-2.43012E-19 1.64377E-20
 -1       259 1.15426E-04-3.52532E-05-3.43541E-05-1.13966E-06-7.63653E-20-5.04420E-19
 -1       260 1.14934E-04-3.48939E-05-3.43074E-05 1.02350E-06 5.21503E-19-1.27872E-18
 -1       261 1.13163E-04-3.41569E-05-3.38683E-05 2.31939E-06-7.08579E-19-3.63298E-21
 -1       262 1.10729E-04-3.32766E-05-3.32016E-05 2.87418E-06 4.23300E-19-8.72060E-19
 -1       263 1.08099E-04-3.23977E-05-3.24487E-05 2.92397E-06 9.83135E-19-1.41316E-19
 -1       264 1.05575E-04-3.15959E-05-3.17075E-05 2.68646E-06-1.64904E-18 7.30370E-19
 -1       265 1.03317E-04-3.09033E-05-3.10344E-05 2.31858E-06-1.37574E-19 1.40255E-18
 -1       266 1.01391E-04-3.03269E-05-3.04549E-05 1.91783E-06-9.26324E-19 2.62099E-18
 -1       267 9.98055E-05-2.98605E-05-2.99745E-05 1.53755E-06 6.16693E-19 4.29008E-18
 -1       268 9.85347E-05-2.94914E-05-2.95878E-05 1.20237E-06 7.55330E-19 2.32445E-18
 -1       269 9.75395E-05-2.92051E-05-2.92840E-05 9.19787E-07 4.92797E-19 3.88729E-19
 -1       270 9.67771E-05-2.89872E-05-2.90508E-05 6.87744E-07 2.59737E-18-2.15240E-18
 -1       271 9.62072E-05-2.88250E-05-2.88764E-05 4.98985E-07 9.74174E-19-3.88211E-18
 -1       272 9.57957E-05-2.87077E-05-2.87508E-05 3.44187E-07 1.31050E-18-3.10273E-18
 -1       273 9.55149E-05-2.86267E-05-2.86657E-05 2.12809E-07 1.10051E-18-4.68349E-18
 -1       274 9.53428E-05-2.85763E-05-2.86134E-05 9.59870E-08-8.93984E-19-4.94586E-18
 -1       275 9.52589E-05-2.85619E-05-2.85825E-05 1.14951E-09-1.46902E-18-3.70136E-18
 -1       276 9.52536E-05-2.85180E-05-2.86001E-05 5.14716E-08-2.60216E-18 1.14132E-18
 -1       277 9.52182E-05-2.84008E-05-2.86358E-05 1.60004E-07-2.74255E-18-8.81969E-19
 -1       278 9.51527E-05-2.82247E-05-2.86834E-05 2.47557E-07-1.72482E-18-1.20101E-20
 -1       279 9.50744E-05-2.80150E-05-2.87398E-05 2.86298E-07-1.42715E-18-2.45130E-19
 -1       280 9.49975E-05-2.78069E-05-2.87963E-05 2.72693E-07-9.72902E-19-8.48564E-19
 -1       281 9.49314E-05-2.76265E-05-2.88456E-05 2.11212E-07-7.29511E-19 2.44779E-18
 -1       282 9.48877E-05-2.75064E-05-2.88786E-05 1.14117E-07-9.53249E-20 6.58885E-19
 -1       283 9.48727E-05-2.74652E-05-2.88899E-05-1.56584E-09 1.81650E-18 1.74862E-18
 -1       284 9.48887E-05-2.75091E-05-2.88779E-05-1.16768E-07 2.91659E-18 1.33991E-18
 -1       285 9.49332E-05-2.76312E-05-2.88444E-05-2.12626E-07 1.22059E-18-2.33350E-18
 -1       286 9.49983E-05-2.78089E-05-2.87958E-05-2.71977E-07 9.70618E-19-4.71178E-19
 -1       287 9.50763E-05-2.80202E-05-2.87384E-05-2.84988E-07-4.43044E-19-1.45750E-18
 -1       288 9.51540E-05-2.82289E-05-2.86821E-05-2.45079E-07-1.21836E-18-9.02807E-19
 -1       289 9.52174E-05-2.84001E-05-2.86352E-05-1.59320E-07-1.97718E-18 4.97785E-19
 -1       290 9.52675E-05-2.84863E-05-2.86198E-05-1.09461E-07-3.61198E-19 1.36925E-18
 -1       291 1.15272E-05-4.17858E-05 1.04238E-05 8.90927E-06 8.91343E-19 3.99747E-18
 -1       292 2.68667E-05-4.18253E-05 3.88532E-06 2.24009E-05 2.08645E-18 1.50131E-18
 -1       293 5.97454E-05-3.90856E-05-1.01975E-05 3.76480E-05 1.86368E-18 1.14667E-18
 -1       294 9.56617E-05-3.35337E-05-2.69120E-05 4.37566E-05 2.87949E-18 2.04982E-18
 -1       295 1.41576E-04-3.60943E-05-4.42974E-05 3.81632E-05 2.23966E-18 3.02751E-18
 -1       296 1.79747E-04-3.34320E-05-6.00055E-05 3.66920E-05 1.47990E-18 3.64923E-18
 -1       297 2.06174E-04-3.63873E-05-6.91237E-05 1.91159E-05 1.23233E-18 2.64094E-18
 -1       298 2.08682E-04-3.49922E-05-7.09575E-05-3.84957E-06 1.06589E-18 3.56768E-18
 -1       299 1.95310E-04-3.41161E-05-6.60258E-05-2.42388E-05 8.60797E-19 2.81808E-18
 -1       300 1.65652E-04-3.20241E-05-5.50183E-05-4.20006E-05 1.69761E-18 2.12182E-18
 -1       301 1.23664E-04-2.99806E-05-3.93749E-05-4.68246E-05 2.89124E-18 3.37119E-19
 -1       302 8.57145E-05-3.58472E-05-2.19892E-05-4.20958E-05 1.82006E-18-2.06983E-18
 -1       303 4.49812E-05-3.71616E-05-5.44375E-06-3.09042E-05 2.54872E-18-2.04855E-18
 -1       304 2.14992E-05-4.48939E-05 6.85099E-06-1.66888E-05 1.24704E-18-2.45560E-18
 -1       305 1.16028E-05-4.89111E-05 1.24652E-05-3.52199E-06 1.29421E-18-5.89535E-19
 -1       306 1.34743E-05-4.35709E-05 1.00500E-05 1.14598E-05 5.15843E-19-9.73241E-19
 -1       307 2.94291E-05-4.16964E-05 2.54991E-06 2.28941E-05-5.01020E-19-3.62768E-19
 -1       308 5.64360E-05-3.39555E-05-1.12889E-05 3.58910E-05-4.17375E-19-1.08388E-18
 -1       309 9.60103E-05-2.97446E-05-2.85522E-05 4.56067E-05-6.70427E-19-7.70800E-19
 -1       310 1.43215E-04-3.28206E-05-4.61224E-05 4.16911E-05-3.26637E-19-1.36330E-18
 -1       311 1.76856E-04-3.17583E-05-6.03953E-05 2.27827E-05-1.36526E-18-1.56743E-18
 -1       312 2.00953E-04-3.22591E-05-6.93120E-05 9.69746E-06-9.15113E-19-2.53400E-18
 -1       313 2.08318E-04-3.59619E-05-7.02829E-05-1.24019E-05-8.99443E-19-1.79560E-18
 -1       314 1.77142E-04-3.16731E-05-6.05337E-05-2.22285E-05 9.72394E-19 2.68086E-19
 -1       315 1.44639E-04-3.12282E-05-4.71988E-05-4.40274E-05-1.81625E-18-2.07438E-18
 -1       316 9.76944E-05-2.94642E-05-2.93233E-05-4.58133E-05-3.97237E-18 9.31736E-21
 -1       317 5.93452E-05-3.53651E-05-1.17245E-05-3.71824E-05-2.75180E-18 2.81363E-18
 -1       318 2.79226E-05-4.19958E-05 3.23317E-06-2.19886E-05-1.64494E-18 2.15596E-18
 -1       319 1.20834E-05-4.39420E-05 1.07864E-05-9.21466E-06-7.91129E-19 2.06877E-18
 -1       320 9.16301E-05-1.44352E-05-3.31612E-05-1.29056E-05-1.08248E-18-7.93796E-19
 -1       321 9.56507E-05-1.90967E-05-3.28711E-05-1.45742E-05-1.29596E-18-1.72987E-19
 -1       322 8.80497E-05-1.03379E-05-3.33601E-05-8.07530E-06-5.93554E-19-1.48523E-18
 -1       323 8.72396E-05-9.39802E-06-3.34090E-05-5.65273E-06-3.36122E-19-1.55922E-18
 -1       324 8.67781E-05-8.85220E-06-3.34415E-05-3.32408E-06-4.24237E-20-1.53508E-18
 -1       325 8.65708E-05-8.60350E-06-3.34578E-05-1.05805E-06 2.29717E-19-1.50024E-18
 -1       326 8.65797E-05-8.61325E-06-3.34574E-05 1.18746E-06 5.74891E-19-1.33621E-18
 -1       327 8.68061E-05-8.88346E-06-3.34403E-05 3.45581E-06 7.68075E-19-1.35139E-18
 -1       328 8.72801E-05-9.44337E-06-3.34071E-05 5.74902E-06 9.83984E-19-1.25749E-18
 -1       329 8.81155E-05-1.04140E-05-3.33559E-05 8.17500E-06 1.24318E-18-9.76427E-19
 -1       330 8.95149E-05-1.20143E-05-3.32810E-05 1.06807E-05 1.43945E-18-6.29164E-19
 -1       331 9.19006E-05-1.47125E-05-3.31615E-05 1.30923E-05 1.58863E-18-9.17972E-20
 -1       332 9.57424E-05-1.94410E-05-3.28080E-05 1.43146E-05 1.47415E-18 9.75848E-19
 -1       333 9.86806E-05-2.44142E-05-3.19163E-05 1.18526E-05 1.21437E-18 2.05904E-18
 -1       334 9.63054E-05-2.67822E-05-2.97660E-05 5.68882E-06 1.18281E-18 1.52038E-18
 -1       335 9.63870E-05-2.60014E-05-3.01205E-05-6.26999E-06-9.66438E-19 2.46996E-20
 -1       336 9.49075E-05-2.70026E-05-2.90765E-05-2.72818E-06-8.56044E-19-6.87503E-20
 -1       337 9.39848E-05-2.74006E-05-2.85212E-05-7.63220E-07-6.04292E-19-1.54402E-19
 -1       338 9.35441E-05-2.76191E-05-2.82464E-05 3.74499E-07-2.57900E-19-1.63430E-19
 -1       339 9.34626E-05-2.77828E-05-2.81449E-05 1.04928E-06-1.85732E-19-2.66573E-19
 -1       340 9.36334E-05-2.79302E-05-2.81565E-05 1.46758E-06-1.59278E-19-3.50360E-19
 -1       341 9.39832E-05-2.80735E-05-2.82456E-05 1.75549E-06-1.94692E-21-4.61978E-19
 -1       342 9.44682E-05-2.82183E-05-2.83915E-05 1.99562E-06-3.83124E-19-3.63963E-19
 -1       343 9.50680E-05-2.83701E-05-2.85833E-05 2.24456E-06-5.51672E-19-3.48229E-19
 -1       344 9.57792E-05-2.85370E-05-2.88162E-05 2.54094E-06-4.27052E-19-5.93488E-19
 -1       345 9.66104E-05-2.87304E-05-2.90891E-05 2.90822E-06-3.24081E-19-7.48349E-19
 -1       346 9.75777E-05-2.89665E-05-2.94022E-05 3.35367E-06 3.77347E-20-4.23848E-19
 -1       347 9.87014E-05-2.92671E-05-2.97549E-05 3.86386E-06-9.32944E-19-3.24121E-19
 -1       348 1.00001E-04-2.96622E-05-3.01431E-05 4.39611E-06-8.08026E-19-1.39777E-19
 -1       349 1.01492E-04-3.01911E-05-3.05567E-05 4.86610E-06-6.43080E-19-1.73358E-19
 -1       350 1.03178E-04-3.09016E-05-3.09773E-05 5.13292E-06-2.35789E-19-6.19942E-19
 -1       351 1.05041E-04-3.18407E-05-3.13772E-05 4.98687E-06-1.56006E-19-4.33174E-19
 -1       352 1.07021E-04-3.30268E-05-3.17226E-05 4.15365E-06-1.99693E-19-7.71862E-19
 -1       353 1.08975E-04-3.43872E-05-3.19820E-05 2.34151E-06 5.73144E-19-3.70847E-19
 -1       354 1.10614E-04-3.56572E-05-3.21428E-05-6.23248E-07 1.09274E-18-3.78828E-19
 -1       355 1.11459E-04-3.62990E-05-3.22279E-05-4.54122E-06 1.25909E-18 3.66964E-19
 -1       356 1.10922E-04-3.55732E-05-3.23013E-05-8.52582E-06 1.02468E-18 3.33850E-21
 -1       357 1.08674E-04-3.29935E-05-3.24343E-05-1.08739E-05 3.74939E-19-6.37088E-19
 -1       358 1.05311E-04-2.91512E-05-3.26358E-05-9.68816E-06-1.51073E-19-1.07906E-18
 -1       359 1.02575E-04-2.60134E-05-3.28049E-05-4.40502E-06-3.42178E-19-7.98792E-19
 -1       360 1.02284E-04-2.56803E-05-3.28216E-05 2.98822E-06-3.15222E-20 4.53176E-19
 -1       361 1.04648E-04-2.83835E-05-3.26768E-05 8.94247E-06-4.16669E-19-1.12211E-18
 -1       362 1.08061E-04-3.22780E-05-3.24779E-05 1.09795E-05-1.10238E-18-1.42126E-18
 -1       363 1.10625E-04-3.52000E-05-3.23322E-05 9.22100E-06-4.94669E-19-2.60750E-19
 -1       364 1.11517E-04-3.62886E-05-3.22572E-05 5.42327E-06 6.88236E-19 8.23996E-19
 -1       365 1.10922E-04-3.58632E-05-3.21871E-05 1.40924E-06-3.83339E-19 1.23992E-18
 -1       366 1.09422E-04-3.46676E-05-3.20543E-05-1.75480E-06-3.99122E-19 4.72167E-19
 -1       367 1.07538E-04-3.33013E-05-3.18274E-05-3.75704E-06-1.00569E-18 8.11282E-20
 -1       368 1.05596E-04-3.20780E-05-3.15138E-05-4.72108E-06-8.23085E-19-9.44114E-19
 -1       369 1.03764E-04-3.11000E-05-3.11437E-05-4.92743E-06 6.30116E-19-1.84792E-21
 -1       370 1.02119E-04-3.03621E-05-3.07520E-05-4.65817E-06 8.93026E-19 2.26138E-19
 -1       371 1.00688E-04-2.98212E-05-3.03690E-05-4.13607E-06-7.63601E-19-2.78539E-19
 -1       372 9.94732E-05-2.94295E-05-3.00155E-05-3.51467E-06 3.48543E-19 2.19220E-18
 -1       373 9.84631E-05-2.91472E-05-2.97034E-05-2.88906E-06-7.22303E-19 2.21176E-18
 -1       374 9.76389E-05-2.89440E-05-2.94376E-05-2.31154E-06-8.14488E-19 1.37768E-18
 -1       375 9.69785E-05-2.87974E-05-2.92177E-05-1.80563E-06 1.88584E-18 1.05872E-18
 -1       376 9.64586E-05-2.86910E-05-2.90409E-05-1.37662E-06 1.77854E-18 1.33491E-18
 -1       377 9.60564E-05-2.86126E-05-2.89025E-05-1.01895E-06 1.54998E-18 1.39193E-18
 -1       378 9.57510E-05-2.85534E-05-2.87973E-05-7.21567E-07-2.07953E-20 3.03847E-18
 -1       379 9.55240E-05-2.85078E-05-2.87196E-05-4.71337E-07-9.49625E-19 3.68392E-18
 -1       380 9.53757E-05-2.84884E-05-2.86650E-05-2.72787E-07-4.72240E-19 3.79309E-18
 -1       381 9.43232E-05-2.73153E-05-2.86793E-05 2.39557E-06 9.20086E-19 1.22119E-18
 -1       382 9.31715E-05-2.74432E-05-2.81470E-05 6.33734E-07 7.47257E-19 8.45580E-19
 -1       383 9.26967E-05-2.75341E-05-2.79163E-05-3.44489E-07 5.49700E-19 6.23302E-19
 -1       384 9.26694E-05-2.76478E-05-2.78614E-05-9.02943E-07 1.53495E-19 4.50635E-19
 -1       385 9.29345E-05-2.77891E-05-2.79168E-05-1.23596E-06 2.04529E-19 3.32887E-19
 -1       386 9.33968E-05-2.79523E-05-2.80458E-05-1.45662E-06 4.42922E-19 6.88914E-19
 -1       387 9.40041E-05-2.81337E-05-2.82286E-05-1.63763E-06 7.67500E-19 7.17528E-19
 -1       388 9.47351E-05-2.83338E-05-2.84559E-05-1.82924E-06 2.44095E-19 3.68994E-19
 -1       389 9.55898E-05-2.85573E-05-2.87261E-05-2.06761E-06 2.35430E-19 2.25368E-19
 -1       390 9.65840E-05-2.88134E-05-2.90419E-05-2.37802E-06-1.46229E-20 1.83142E-19
 -1       391 9.77431E-05-2.91149E-05-2.94089E-05-2.77481E-06 5.14501E-19-1.28649E-19
 -1       392 9.90974E-05-2.94788E-05-2.98331E-05-3.25789E-06 4.88222E-19 1.80625E-19
 -1       393 1.00675E-04-2.99269E-05-3.03174E-05-3.80519E-06 3.77342E-19 1.97535E-19
 -1       394 1.02494E-04-3.04860E-05-3.08585E-05-4.35998E-06 5.60933E-19 7.32746E-19
 -1       395 1.04551E-04-3.11882E-05-3.14414E-05-4.81256E-06 4.77300E-19 2.88480E-19
 -1       396 1.06804E-04-3.20664E-05-3.20346E-05-4.97900E-06 2.87750E-19 2.38589E-19
 -1       397 1.09151E-04-3.31390E-05-3.25860E-05-4.58700E-06-6.73543E-19-6.68817E-20
 -1       398 1.11393E-04-3.43700E-05-3.30252E-05-3.29556E-06-4.39342E-19-5.35814E-19
 -1       399 1.13194E-04-3.55897E-05-3.32779E-05-7.99294E-07-5.14837E-21-3.10582E-20
 -1       400 1.14051E-04-3.64003E-05-3.32969E-05 2.92449E-06 1.48460E-18 3.14472E-19
 -1       401 1.13358E-04-3.61498E-05-3.31020E-05 7.23290E-06 1.37739E-18 6.51069E-19
 -1       402 1.10738E-04-3.42264E-05-3.27970E-05 1.05070E-05-2.31513E-19 7.39046E-19
 -1       403 1.06687E-04-3.08050E-05-3.25232E-05 1.05388E-05-1.61079E-18 2.79441E-19
 -1       404 1.03024E-04-2.74860E-05-3.23743E-05 6.07291E-06 2.90152E-19-1.62685E-19
 -1       405 1.01986E-04-2.64715E-05-3.23632E-05-1.43540E-06 1.10079E-18 7.62131E-19
 -1       406 1.04317E-04-2.85488E-05-3.24638E-05-8.21307E-06-3.26108E-19-2.96117E-19
 -1       407 1.08467E-04-3.21842E-05-3.26808E-05-1.10613E-05-2.81172E-19 9.20943E-19
 -1       408 1.12141E-04-3.51849E-05-3.29818E-05-9.61046E-06 1.92882E-20 2.28696E-18
 -1       409 1.14006E-04-3.64590E-05-3.32509E-05-5.70611E-06 3.06738E-19 1.07227E-18
 -1       410 1.14004E-04-3.62243E-05-3.33571E-05-1.47905E-06 6.89908E-19-1.39147E-18
 -1       411 1.12691E-04-3.51851E-05-3.32384E-05 1.81032E-06 2.91181E-19-1.30545E-18
 -1       412 1.10669E-04-3.39212E-05-3.29077E-05 3.81354E-06-7.72156E-19-1.67983E-19
 -1       413 1.08385E-04-3.27395E-05-3.24281E-05 4.69878E-06 5.89669E-19 7.31418E-19
 -1       414 1.06117E-04-3.17498E-05-3.18744E-05 4.80468E-06 8.17138E-19 1.39894E-18
 -1       415 1.04021E-04-3.09607E-05-3.13101E-05 4.45267E-06-1.41000E-18 1.79384E-18
 -1       416 1.02171E-04-3.03451E-05-3.07791E-05 3.88119E-06-4.96997E-19 1.66357E-18
 -1       417 1.00594E-04-2.98693E-05-3.03064E-05 3.24356E-06-2.14223E-18 1.26258E-18
 -1       418 9.92862E-05-2.95038E-05-2.99024E-05 2.62732E-06 3.84980E-19 1.37864E-18
 -1       419 9.82255E-05-2.92246E-05-2.95678E-05 2.07565E-06 1.33629E-18 2.33842E-18
 -1       420 9.73826E-05-2.90127E-05-2.92979E-05 1.60420E-06 2.17495E-18 4.55925E-19
 -1       421 9.67257E-05-2.88529E-05-2.90854E-05 1.21268E-06 3.30369E-18 3.52504E-19
 -1       422 9.62240E-05-2.87330E-05-2.89222E-05 8.91811E-07 2.02968E-18-3.41127E-19
 -1       423 9.58504E-05-2.86444E-05-2.88006E-05 6.28591E-07 8.49401E-19-1.20382E-18
 -1       424 9.55801E-05-2.85786E-05-2.87135E-05 4.09249E-07 1.24776E-18-5.42088E-19
 -1       425 9.53938E-05-2.85344E-05-2.86529E-05 2.22901E-07-9.17127E-19-2.49202E-20
 -1       426 9.53111E-05-2.85155E-05-2.86261E-05 1.31162E-07-2.90330E-18 6.65450E-20
 -1       427 9.51196E-05-2.80483E-05-2.87446E-05 5.02472E-07-3.06384E-19 1.47754E-18
 -1       428 9.52381E-05-2.82618E-05-2.87033E-05 4.12283E-07-1.61796E-18 3.70469E-19
 -1       429 9.52939E-05-2.84080E-05-2.86645E-05 2.74136E-07-2.60187E-18 8.65820E-19
 -1       430 9.49991E-05-2.78362E-05-2.87842E-05 5.11030E-07 4.48079E-19-2.36550E-18
 -1       431 9.48884E-05-2.76434E-05-2.88198E-05 4.35706E-07 8.65980E-19 1.15411E-18
 -1       432 9.48061E-05-2.74998E-05-2.88464E-05 2.90454E-07 7.60676E-19 1.51215E-18
 -1       433 9.47630E-05-2.74240E-05-2.88605E-05 9.97311E-08-2.29546E-19 2.36430E-18
 -1       434 9.47641E-05-2.74260E-05-2.88601E-05-1.06171E-07 8.73681E-19 2.09211E-18
 -1       435 9.48093E-05-2.75053E-05-2.88454E-05-2.95201E-07 2.43084E-19-1.24324E-18
 -1       436 9.48909E-05-2.76483E-05-2.88188E-05-4.35734E-07 9.21203E-19-2.06398E-18
 -1       437 9.50012E-05-2.78410E-05-2.87830E-05-5.09447E-07 1.74450E-18 1.68045E-18
 -1       438 9.51233E-05-2.80562E-05-2.87428E-05-4.99834E-07 1.44342E-18-3.98895E-18
 -1       439 9.52405E-05-2.82690E-05-2.87014E-05-4.08592E-07-7.05539E-19-6.50986E-19
 -1       440 6.08216E-05-4.08075E-05-8.47401E-06 4.30122E-05-7.10449E-20 1.45753E-18
 -1       441 1.32720E-05-1.92239E-05 2.66052E-06-1.79329E-06 3.93996E-19 2.91125E-18
 -1       442 2.61374E-05-2.84984E-05 8.04510E-07 2.80591E-05 2.00323E-19 2.40536E-18
 -1       443 1.02764E-04-5.36344E-05-2.10940E-05 3.94687E-05 5.41148E-19-9.15854E-21
 -1       444 1.33527E-04-5.51176E-05-3.36392E-05 2.41882E-05 9.41795E-19 2.10689E-18
 -1       445 8.93945E-05-1.18771E-05-3.32878E-05-1.05647E-05-7.91853E-19-1.38528E-18
 -1       446 1.61220E-04-2.47501E-05-5.81490E-05 3.89595E-07 1.22830E-18 9.56088E-19
 -1       447 1.63759E-04-1.56084E-05-6.30438E-05-4.55806E-07 1.11628E-18 1.41989E-18
 -1       448 1.62672E-04-1.75259E-05-6.18044E-05 8.07062E-07 9.61594E-19 2.22013E-18
 -1       449 1.58998E-04-3.09946E-05-5.46288E-05-2.60710E-06 1.72022E-18 2.49144E-18
 -1       450 1.48616E-04-4.57305E-05-4.39750E-05-1.48868E-05 2.57154E-18 3.08892E-18
 -1       451 1.27784E-04-5.49386E-05-3.11875E-05-2.90204E-05 7.70641E-19 1.49491E-18
 -1       452 8.81554E-05-5.07602E-05-1.61227E-05-4.26006E-05 3.53954E-19-5.34200E-19
 -1       453 4.81344E-05-3.80051E-05-4.57372E-06-3.95323E-05 6.49039E-20-2.19752E-18
 -1       454 2.01881E-05-2.49499E-05 1.92674E-06-2.19041E-05 5.66559E-19-7.71435E-19
 -1       455 1.19812E-05-2.21685E-05 4.15672E-06 4.47787E-06 1.71762E-19-3.25896E-19
 -1       456 3.20513E-05-2.94134E-05-1.13872E-06 3.30003E-05 3.88153E-19-1.06144E-18
 -1       457 6.00047E-05-4.19705E-05-7.92591E-06 4.28060E-05-8.55503E-20-8.52433E-19
 -1       458 1.04076E-04-5.34183E-05-2.17069E-05 3.94796E-05 1.48231E-19-5.42895E-19
 -1       459 1.32159E-04-5.26884E-05-3.41121E-05 2.63603E-05-9.16913E-20-1.89566E-18
 -1       460 1.50854E-04-4.02212E-05-4.75484E-05 3.35562E-06-6.11002E-19-9.73664E-19
 -1       461 1.57099E-04-1.88749E-05-5.91439E-05-6.46653E-07-7.33319E-19-1.59825E-18
 -1       462 1.55896E-04-1.19433E-05-6.15838E-05 1.71482E-07-1.17367E-18-4.58060E-20
 -1       463 1.52680E-04-1.77759E-05-5.79925E-05 3.28936E-06-6.33581E-19-1.05355E-18
 -1       464 1.51957E-04-3.94752E-05-4.82592E-05-5.24397E-06-9.99234E-19-2.53051E-20
 -1       465 1.35892E-04-5.11950E-05-3.62790E-05-2.44427E-05-4.16677E-18-1.69936E-18
 -1       466 1.07546E-04-5.45366E-05-2.27038E-05-3.82995E-05-1.75516E-18-1.62683E-19
 -1       467 6.21904E-05-4.24074E-05-8.62011E-06-4.32977E-05 2.51675E-19 2.77708E-18
 -1       468 2.90154E-05-2.82499E-05-3.67176E-07-3.09209E-05-7.44330E-20 1.87311E-18
 -1       469 1.53713E-04-3.81725E-05-4.93419E-05 8.35646E-06 9.80176E-19 2.53485E-18
 -1       470 1.44392E-04-5.27563E-05-3.95450E-05 3.90173E-06 1.98854E-20 1.63006E-18
 -1       471 1.41938E-04-2.81184E-05-4.92560E-05 1.02450E-05-6.37181E-19 9.27713E-19
 -1       472 1.42407E-04-2.88657E-05-4.91056E-05-1.01210E-05 1.70095E-19-3.00961E-19
 -1       473 9.58060E-05-2.51189E-05-3.02802E-05 5.91341E-06 1.13082E-18 3.58587E-19
 -1       474 8.95557E-05-1.32809E-05-3.27082E-05-3.84639E-06-2.00559E-19-1.39650E-18
 -1       475 9.02720E-05-1.42716E-05-3.25927E-05-5.78077E-06-3.48807E-19-1.29715E-18
 -1       476 8.90455E-05-1.25746E-05-3.27909E-05 5.35429E-08 3.48999E-19-1.20832E-18
 -1       477 8.91849E-05-1.27655E-05-3.27691E-05 2.00212E-06 5.69016E-19-1.21556E-18
 -1       478 8.95890E-05-1.33225E-05-3.27047E-05 3.91907E-06 7.91805E-19-1.18369E-18
 -1       479 9.03230E-05-1.43378E-05-3.25860E-05 5.84787E-06 1.14898E-18-9.34701E-19
 -1       480 9.14736E-05-1.59472E-05-3.23915E-05 7.66493E-06 1.33450E-18-7.51917E-19
 -1       481 9.32503E-05-1.84442E-05-3.20799E-05 9.18543E-06 1.39456E-18-3.82192E-19
 -1       482 9.51333E-05-2.65394E-05-2.93793E-05 2.72299E-06 9.64084E-19 1.76089E-19
 -1       483 9.54838E-05-2.43913E-05-3.04587E-05-5.69922E-06-9.58022E-19-4.92463E-19
 -1       484 1.23717E-04-5.99925E-05-2.73438E-05 2.63634E-05-7.15796E-19 1.51251E-18
 -1       485 9.53102E-05-2.61718E-05-2.96239E-05-2.70600E-06-7.14240E-19-5.13717E-19
 -1       486 9.49946E-05-2.70825E-05-2.91013E-05-7.53586E-07-4.78736E-19-4.17990E-19
 -1       487 9.47772E-05-2.75885E-05-2.87933E-05 4.94677E-07-3.20989E-19-5.17311E-19
 -1       488 9.47017E-05-2.78856E-05-2.86346E-05 1.30149E-06-1.05781E-19-6.47386E-19
 -1       489 9.47560E-05-2.80641E-05-2.85817E-05 1.84797E-06-3.73318E-19-7.12392E-19
 -1       490 9.49176E-05-2.81697E-05-2.86057E-05 2.26070E-06-2.47231E-19-1.01948E-18
 -1       491 9.51684E-05-2.82289E-05-2.86878E-05 2.62927E-06-6.49407E-19-9.84528E-19
 -1       492 9.54994E-05-2.82615E-05-2.88155E-05 3.01709E-06-5.92893E-19-6.26565E-19
 -1       493 9.59098E-05-2.82866E-05-2.89805E-05 3.46705E-06-2.54522E-19-2.36583E-19
 -1       494 9.64078E-05-2.83274E-05-2.91762E-05 4.00311E-06 1.08184E-19-1.55344E-19
 -1       495 9.70106E-05-2.84156E-05-2.93967E-05 4.62832E-06-5.48986E-19-7.49104E-19
 -1       496 9.77470E-05-2.85979E-05-2.96342E-05 5.31927E-06-7.76387E-19-4.80797E-19
 -1       497 9.86612E-05-2.89426E-05-2.98786E-05 6.01665E-06-7.15553E-19 1.20534E-19
 -1       498 9.98192E-05-2.95456E-05-3.01172E-05 6.61170E-06-8.70527E-19 2.22377E-19
 -1       499 1.01313E-04-3.05299E-05-3.03372E-05 6.92967E-06-4.55882E-20 2.95785E-19
 -1       500 1.03256E-04-3.20241E-05-3.05316E-05 6.71426E-06-5.15099E-19 1.82142E-19
 -1       501 1.05744E-04-3.40962E-05-3.07122E-05 5.62565E-06 1.84369E-19 5.81729E-19
 -1       502 1.08753E-04-3.66065E-05-3.09285E-05 3.27831E-06 8.40799E-19-1.71830E-19
 -1       503 1.11934E-04-3.89573E-05-3.12845E-05-5.85441E-07 1.54816E-18-2.46671E-19
 -1       504 1.14444E-04-3.99595E-05-3.19293E-05-5.72558E-06 9.91007E-19-3.95844E-19
 -1       505 1.14943E-04-3.79764E-05-3.29991E-05-1.08232E-05 9.25226E-19-4.72740E-19
 -1       506 1.12601E-04-3.23294E-05-3.44337E-05-1.31017E-05-4.70897E-19 3.05960E-20
 -1       507 1.08606E-04-2.51607E-05-3.58225E-05-9.72936E-06-2.15272E-19-4.27430E-19
 -1       508 1.06253E-04-2.12924E-05-3.64714E-05-9.99491E-07 1.54041E-19-7.78840E-19
 -1       509 1.07885E-04-2.39492E-05-3.60221E-05 8.30844E-06-8.85811E-19-1.34125E-18
 -1       510 1.11865E-04-3.08948E-05-3.47437E-05 1.29629E-05-4.91014E-19-3.08306E-19
 -1       511 1.14715E-04-3.71055E-05-3.32759E-05 1.16318E-05 1.40410E-19 1.06755E-20
 -1       512 1.14764E-04-3.98303E-05-3.21269E-05 6.87855E-06 7.65331E-19 9.09989E-19
 -1       513 1.12567E-04-3.93101E-05-3.14074E-05 1.60757E-06-3.90168E-19 3.69620E-19
 -1       514 1.09440E-04-3.70977E-05-3.10138E-05-2.53142E-06-7.44427E-19 2.00287E-19
 -1       515 1.06373E-04-3.45485E-05-3.07890E-05-5.12986E-06-1.04975E-18 2.43404E-19
 -1       516 1.03796E-04-3.23625E-05-3.06186E-05-6.39187E-06-8.70040E-19 9.58771E-19
 -1       517 1.01780E-04-3.07487E-05-3.04437E-05-6.69178E-06 6.09466E-19 2.39125E-18
 -1       518 1.00244E-04-2.96670E-05-3.02471E-05-6.38252E-06 7.54012E-19 2.23168E-18
 -1       519 9.90736E-05-2.89944E-05-3.00330E-05-5.73684E-06-9.72389E-19 2.35073E-19
 -1       520 9.81737E-05-2.86051E-05-2.98137E-05-4.94448E-06-1.72843E-19 1.08463E-18
 -1       521 9.74729E-05-2.83987E-05-2.96017E-05-4.12708E-06 9.59543E-19 1.49108E-18
 -1       522 9.69222E-05-2.83039E-05-2.94064E-05-3.35599E-06 1.75297E-19 2.87433E-18
 -1       523 9.64877E-05-2.82729E-05-2.92336E-05-2.66758E-06-2.38051E-19 3.05245E-18
 -1       524 9.61446E-05-2.82746E-05-2.90860E-05-2.07504E-06 1.15420E-18 2.00190E-18
 -1       525 9.58737E-05-2.82893E-05-2.89638E-05-1.57702E-06 1.02524E-18 1.60691E-18
 -1       526 9.56596E-05-2.83052E-05-2.88654E-05-1.16392E-06 1.56744E-18 2.77960E-19
 -1       527 9.54900E-05-2.83160E-05-2.87881E-05-8.22335E-07-3.45446E-20-9.90635E-19
 -1       528 9.42854E-05-2.76290E-05-2.85631E-05-4.49420E-07 5.42080E-19 2.00545E-19
 -1       529 9.42093E-05-2.78666E-05-2.84307E-05-1.20610E-06 3.45613E-19-4.94009E-20
 -1       530 9.43162E-05-2.80301E-05-2.84073E-05-1.70283E-06 2.35515E-19-1.15766E-19
 -1       531 9.45643E-05-2.81511E-05-2.84620E-05-2.06859E-06 5.17104E-19-2.14010E-19
 -1       532 9.49255E-05-2.82465E-05-2.85759E-05-2.39280E-06 6.05292E-19 2.24609E-20
 -1       533 9.53860E-05-2.83286E-05-2.87378E-05-2.73953E-06 2.52702E-19 3.73533E-19
 -1       534 9.59437E-05-2.84094E-05-2.89419E-05-3.15454E-06 3.48932E-19 3.88797E-19
 -1       535 9.66068E-05-2.85041E-05-2.91851E-05-3.66777E-06 3.76483E-19 2.32695E-19
 -1       536 9.73912E-05-2.86343E-05-2.94652E-05-4.29204E-06 2.90909E-19-1.86758E-19
 -1       537 9.83209E-05-2.88325E-05-2.97785E-05-5.01757E-06 3.27821E-19 2.23772E-19
 -1       538 9.94293E-05-2.91488E-05-3.01183E-05-5.80167E-06 6.53097E-20 3.59926E-19
 -1       539 1.00763E-04-2.96589E-05-3.04722E-05-6.55266E-06 4.32887E-19 3.45790E-19
 -1       540 1.02387E-04-3.04702E-05-3.08223E-05-7.10819E-06 2.13803E-19 1.11570E-18
 -1       541 1.04385E-04-3.17166E-05-3.11478E-05-7.21104E-06-3.54654E-19 1.04880E-18
 -1       542 1.06844E-04-3.35176E-05-3.14339E-05-6.49466E-06-3.90331E-19 9.02317E-19
 -1       543 1.09778E-04-3.58626E-05-3.16911E-05-4.50818E-06 2.74961E-19 6.03320E-19
 -1       544 1.12959E-04-3.83744E-05-3.19799E-05-8.65019E-07 4.93120E-19-1.56014E-19
 -1       545 1.15705E-04-4.00700E-05-3.24298E-05 4.40733E-06 9.51269E-19 4.92774E-19
 -1       546 1.16740E-04-3.92855E-05-3.32127E-05 1.02084E-05 4.01276E-19 8.20033E-19
 -1       547 1.14896E-04-3.47414E-05-3.43863E-05 1.38179E-05-1.36452E-20 7.08338E-19
 -1       548 1.10800E-04-2.76862E-05-3.56676E-05 1.17574E-05 3.57031E-19-1.83976E-18
 -1       549 1.07634E-04-2.27071E-05-3.64637E-05 3.30737E-06-1.33222E-19-1.40378E-18
 -1       550 1.08501E-04-2.40409E-05-3.62671E-05-7.21036E-06-5.80218E-19 4.70674E-19
 -1       551 1.12513E-04-3.04884E-05-3.51929E-05-1.33976E-05-6.42180E-19 1.25749E-18
 -1       552 1.16022E-04-3.69951E-05-3.38875E-05-1.29172E-05-1.23186E-18 8.91476E-19
 -1       553 1.16649E-04-3.99953E-05-3.28730E-05-8.06317E-06 2.45568E-19 1.05412E-18
 -1       554 1.14801E-04-3.96082E-05-3.22420E-05-2.25292E-06 1.92306E-18 1.19077E-18
 -1       555 1.11777E-04-3.74210E-05-3.18831E-05 2.41608E-06 2.59176E-19 2.01008E-18
 -1       556 1.08663E-04-3.48928E-05-3.16281E-05 5.34874E-06-1.48757E-18 2.59867E-18
 -1       557 1.05934E-04-3.27386E-05-3.13763E-05 6.74293E-06-5.50390E-19 2.68229E-18
 -1       558 1.03700E-04-3.11619E-05-3.10904E-05 7.03521E-06 2.52405E-19 3.27760E-18
 -1       559 1.01909E-04-3.01034E-05-3.07732E-05 6.65118E-06-2.85580E-19 3.23793E-18
 -1       560 1.00470E-04-2.94296E-05-3.04439E-05 5.91368E-06 3.94343E-20 1.38061E-18
 -1       561 9.93095E-05-2.90153E-05-3.01233E-05 5.03955E-06-5.13688E-19 5.44668E-19
 -1       562 9.83700E-05-2.87667E-05-2.98271E-05 4.16091E-06-9.87526E-19-8.02725E-19
 -1       563 9.76112E-05-2.86203E-05-2.95647E-05 3.34983E-06 4.85565E-19-7.00661E-19
 -1       564 9.70021E-05-2.85357E-05-2.93403E-05 2.63911E-06 1.17068E-18 1.11593E-18
 -1       565 9.65176E-05-2.84871E-05-2.91540E-05 2.03719E-06 1.97788E-18 2.38986E-18
 -1       566 9.61368E-05-2.84583E-05-2.90033E-05 1.53880E-06 3.19936E-18 2.94052E-18
 -1       567 9.58404E-05-2.84377E-05-2.88850E-05 1.13206E-06 4.73245E-19 3.05077E-18
 -1       568 9.56131E-05-2.84232E-05-2.87943E-05 7.95639E-07 1.42160E-18 3.29418E-18
 -1       569 9.54341E-05-2.84086E-05-2.87243E-05 5.16532E-07 5.83512E-19 2.54526E-18
 -1       570 9.48442E-05-2.76110E-05-2.88144E-05 6.88056E-07 3.11113E-18-6.87345E-19
 -1       571 9.46890E-05-2.74171E-05-2.88312E-05 5.21536E-07 2.13834E-18 3.11882E-18
 -1       572 9.52226E-05-2.81038E-05-2.87652E-05 7.07687E-07 1.69710E-18 1.67849E-18
 -1       573 9.50322E-05-2.78499E-05-2.87921E-05 7.50957E-07 1.61577E-18 5.27770E-19
 -1       574 9.45887E-05-2.72925E-05-2.88417E-05 2.77954E-07 1.29960E-18 5.25807E-19
 -1       575 9.45555E-05-2.72516E-05-2.88450E-05-5.91158E-09 7.87264E-19 3.77054E-18
 -1       576 9.45931E-05-2.72988E-05-2.88408E-05-2.88372E-07 1.53678E-19-3.53413E-20
 -1       577 9.46942E-05-2.74252E-05-2.88299E-05-5.24604E-07 5.82557E-20-1.18873E-18
 -1       578 9.48497E-05-2.76208E-05-2.88126E-05-6.87654E-07 1.63118E-18-4.88825E-19
 -1       579 9.50362E-05-2.78603E-05-2.87898E-05-7.48709E-07-2.17144E-19-2.28729E-18
 -1       580 9.52285E-05-2.81151E-05-2.87626E-05-6.97973E-07-6.50314E-19-3.27368E-18
 -1       581 2.80932E-05-1.57544E-05-4.70022E-06 1.71754E-05 8.01240E-20 2.14342E-18
 -1       582 9.62212E-05-5.17194E-05-1.88214E-05 3.86351E-05-4.38710E-19-5.15962E-19
 -1       583 9.45912E-05-2.72456E-05-2.88534E-05 7.60417E-07 6.99397E-19 1.33092E-19
 -1       584 3.08526E-05-1.56643E-05-5.87491E-06-1.91571E-05 7.82394E-19 2.49112E-18
 -1       585 4.94254E-05-2.72023E-05-8.97479E-06 3.47956E-05-6.55921E-19 1.24662E-18
 -1       586 1.42906E-04-3.20457E-05-4.79875E-05-1.10535E-05 2.69251E-19-6.04464E-19
 -1       587 5.73768E-05-3.31878E-05-9.90959E-06-3.99185E-05-2.54745E-19 1.78978E-18
 -1       588 1.34574E-04-1.02666E-05-5.38394E-05-5.84960E-06-6.58039E-19 2.23026E-18
 -1       589 3.06964E-05-1.55931E-05-5.83609E-06 1.95342E-05-7.17807E-19-7.17860E-19
 -1       590 8.91643E-05-1.27398E-05-3.27713E-05-1.89549E-06 2.14283E-19-1.28973E-18
 -1       591 1.34838E-04-9.04854E-06-5.45352E-05 1.86404E-06-4.02341E-21 2.98293E-18
 -1       592 1.37034E-04-1.45974E-05-5.30759E-05-8.84849E-06 2.58874E-19 1.52410E-18
 -1       593 1.39044E-04-2.03097E-05-5.14150E-05 1.12420E-05 8.90708E-19 4.06401E-18
 -1       594 1.45443E-04-4.15065E-05-4.49266E-05 6.39581E-06 1.57455E-18 4.10117E-18
 -1       595 1.40833E-04-5.63463E-05-3.63402E-05-8.36715E-06 7.33081E-19 3.82467E-18
 -1       596 1.18861E-04-5.99893E-05-2.51157E-05-3.00323E-05-4.38392E-19 2.07483E-18
 -1       597 7.68403E-05-4.39111E-05-1.38130E-05-4.22267E-05-6.69209E-19-5.25796E-19
 -1       598 4.48032E-05-2.66063E-05-7.27780E-06-3.44044E-05-2.34840E-19-1.33969E-18
 -1       599 2.51562E-05-1.32710E-05-4.44801E-06-8.78847E-06-4.68250E-19-1.36912E-18
 -1       600 6.08551E-05-3.43914E-05-1.08464E-05 4.04192E-05-3.53636E-20-4.50304E-19
 -1       601 9.57613E-05-5.20026E-05-1.85114E-05 4.00387E-05 2.07894E-19-1.77361E-19
 -1       602 1.26096E-04-5.98349E-05-2.83638E-05 2.51559E-05 3.25631E-19-3.92626E-19
 -1       603 1.41272E-04-5.17017E-05-3.86669E-05-3.18907E-06-1.94681E-18-1.65208E-18
 -1       604 1.41111E-04-5.30576E-05-3.79231E-05 5.07352E-06 1.76669E-19 2.20917E-19
 -1       605 1.31101E-04-1.02911E-05-5.24462E-05 5.85463E-06-4.76456E-19 2.38254E-18
 -1       606 1.30272E-04-6.01108E-05-3.00239E-05-2.06808E-05-2.09304E-18-2.28839E-18
 -1       607 9.49195E-05-5.15088E-05-1.83749E-05-4.00777E-05 7.71488E-19 1.54433E-18
 -1       608 9.45912E-05-2.07292E-05-3.16737E-05-9.33579E-06-1.11109E-18-5.72656E-19
 -1       609 9.61195E-05-2.31681E-05-3.12683E-05 9.50611E-06 1.30115E-18 5.13414E-19
 -1       610 9.13831E-05-1.58346E-05-3.24018E-05-7.58616E-06-6.67569E-19-1.25899E-18
 -1       611 1.27214E-04-1.81875E-05-4.71870E-05 1.25113E-05 1.42884E-19 6.46154E-19
 -1       612 1.35816E-04-5.90524E-05-3.29571E-05 9.34534E-06-4.27044E-19 3.79312E-20
 -1       613 1.39121E-04-4.33896E-05-4.13508E-05-7.86961E-06 6.92449E-19-3.02444E-19
 -1       614 3.40225E-05-1.10579E-05-9.26381E-06-6.74713E-07 1.52299E-19 2.30446E-18
 -1       615 7.90856E-05-3.92960E-05-1.66558E-05 3.71038E-05-1.03717E-18 9.79382E-20
 -1       616 1.37370E-04-4.16297E-05-4.13716E-05 1.01417E-05 8.33269E-20 3.60995E-19
 -1       617 9.27824E-05-1.78867E-05-3.21197E-05-8.77539E-06-8.69093E-19-1.10242E-18
 -1       618 9.53962E-05-2.83242E-05-2.87444E-05-6.19245E-07-1.81814E-19 9.27555E-19
 -1       619 9.15148E-05-1.66408E-05-3.20945E-05 2.35275E-06 5.86264E-19-1.01804E-18
 -1       620 9.12425E-05-1.62188E-05-3.21584E-05 8.09163E-07 4.19964E-19-1.14523E-18
 -1       621 9.28978E-05-1.88708E-05-3.17315E-05 5.10902E-06 1.03767E-18-6.89014E-19
 -1       622 9.40080E-05-2.08503E-05-3.13611E-05 5.98321E-06 1.17620E-18-5.60210E-19
 -1       623 9.52924E-05-2.40328E-05-3.05297E-05 4.98639E-06 1.13295E-18-3.50040E-19
 -1       624 1.27063E-04-2.42883E-05-4.45219E-05-1.49777E-05-1.39295E-18-5.56871E-19
 -1       625 9.54488E-05-2.55756E-05-2.99441E-05-2.15986E-06-5.92090E-19-6.73125E-19
 -1       626 9.55166E-05-2.67539E-05-2.94690E-05-4.70536E-07-4.97043E-19-7.13265E-19
 -1       627 9.54763E-05-2.74409E-05-2.91578E-05 6.98869E-07-2.20893E-19-7.17198E-19
 -1       628 9.54207E-05-2.78232E-05-2.89702E-05 1.51058E-06-4.36656E-19-1.00400E-18
 -1       629 9.53828E-05-2.80059E-05-2.88757E-05 2.10442E-06-3.68974E-19-9.43046E-19
 -1       630 9.53722E-05-2.80528E-05-2.88510E-05 2.58969E-06-1.58319E-19-6.48137E-19
 -1       631 9.53906E-05-2.80061E-05-2.88789E-05 3.04899E-06-3.48242E-20-1.43806E-19
 -1       632 9.54389E-05-2.78990E-05-2.89454E-05 3.54285E-06-3.29609E-19 3.59104E-19
 -1       633 9.55226E-05-2.77640E-05-2.90391E-05 4.11257E-06-3.80948E-19-2.53978E-19
 -1       634 9.56550E-05-2.76404E-05-2.91488E-05 4.78096E-06-3.47761E-19-4.68248E-19
 -1       635 9.58639E-05-2.75829E-05-2.92628E-05 5.55069E-06-2.74497E-19 9.77618E-20
 -1       636 9.61995E-05-2.76723E-05-2.93684E-05 6.40002E-06-4.53413E-19 6.43092E-19
 -1       637 9.67487E-05-2.80264E-05-2.94521E-05 7.27524E-06-7.24620E-19 4.03416E-19
 -1       638 9.76510E-05-2.88107E-05-2.95030E-05 8.07815E-06-6.87255E-19 2.69778E-19
 -1       639 9.91151E-05-3.02371E-05-2.95198E-05 8.64521E-06-2.03493E-19-2.13807E-19
 -1       640 1.01416E-04-3.25278E-05-2.95247E-05 8.71367E-06 4.16712E-19-3.07845E-19
 -1       641 1.04836E-04-3.58039E-05-2.95875E-05 7.88054E-06 1.77373E-19-4.60210E-19
 -1       642 1.09528E-04-3.98547E-05-2.98617E-05 5.53980E-06 9.01453E-19-2.81931E-19
 -1       643 1.14947E-04-4.35202E-05-3.06120E-05 1.12172E-06 1.34882E-18-1.26332E-18
 -1       644 1.19602E-04-4.46232E-05-3.21593E-05-5.45150E-06 8.94902E-19-1.28857E-18
 -1       645 1.20831E-04-3.98724E-05-3.47706E-05-1.22295E-05 2.81724E-19-1.10892E-18
 -1       646 1.17312E-04-2.90137E-05-3.79834E-05-1.44424E-05-9.45467E-19-5.89188E-19
 -1       647 1.12180E-04-1.79909E-05-4.06444E-05-7.58676E-06-8.87598E-19-1.83146E-18
 -1       648 1.11204E-04-1.62303E-05-4.10415E-05 5.41524E-06-3.67030E-19-2.76215E-18
 -1       649 1.16494E-04-2.64792E-05-3.87240E-05 1.39846E-05-2.41854E-19-2.30163E-18
 -1       650 1.20500E-04-3.81932E-05-3.53549E-05 1.31373E-05-2.85443E-20-1.73830E-18
 -1       651 1.20284E-04-4.42054E-05-3.26372E-05 7.01650E-06 8.95220E-19-3.07842E-19
 -1       652 1.16037E-04-4.40332E-05-3.08696E-05 1.43133E-07-4.40052E-19-1.75575E-18
 -1       653 1.10578E-04-4.06093E-05-2.99920E-05-4.75307E-06-1.98161E-19-5.51435E-19
 -1       654 1.05696E-04-3.65127E-05-2.96531E-05-7.41775E-06-1.45811E-18-1.07432E-19
 -1       655 1.02023E-04-3.30302E-05-2.95705E-05-8.45408E-06-4.37276E-19 8.96699E-19
 -1       656 9.95219E-05-3.05245E-05-2.95711E-05-8.46838E-06-3.77716E-20 7.16245E-19
 -1       657 9.79186E-05-2.89192E-05-2.95712E-05-7.90263E-06 1.32603E-20-8.86220E-19
 -1       658 9.69280E-05-2.79996E-05-2.95404E-05-7.04323E-06-1.86344E-21-1.63315E-18
 -1       659 9.63266E-05-2.75483E-05-2.94759E-05-6.07012E-06-1.50567E-19-3.99205E-19
 -1       660 9.59612E-05-2.73915E-05-2.93865E-05-5.09367E-06 6.43196E-19 3.72014E-19
 -1       661 9.57347E-05-2.74054E-05-2.92835E-05-4.17875E-06 8.33714E-20-7.68150E-19
 -1       662 9.55887E-05-2.75075E-05-2.91772E-05-3.35982E-06 1.08591E-18-1.07467E-18
 -1       663 9.54887E-05-2.76450E-05-2.90755E-05-2.65061E-06 6.17705E-19-8.47373E-20
 -1       664 9.54144E-05-2.77859E-05-2.89833E-05-2.05129E-06 4.58572E-19-1.26458E-18
 -1       665 9.53542E-05-2.79117E-05-2.89036E-05-1.55318E-06 6.09879E-19-1.94580E-18
 -1       666 9.52999E-05-2.80134E-05-2.88368E-05-1.14395E-06 3.52190E-19-2.58944E-18
 -1       667 9.51422E-05-2.78672E-05-2.88317E-05-1.44176E-06 5.06734E-19 8.46453E-20
 -1       668 9.52867E-05-2.80402E-05-2.88198E-05 1.03187E-06 1.28200E-18 2.27869E-18
 -1       669 1.38079E-04-4.51294E-05-4.00816E-05-1.02865E-05-5.02158E-19-2.00270E-18
 -1       670 9.52012E-05-2.75236E-05-2.90039E-05-6.26804E-07 4.73709E-19 6.13663E-20
 -1       671 9.52170E-05-2.81139E-05-2.87582E-05-2.48813E-06 3.96097E-19 3.78614E-19
 -1       672 9.53393E-05-2.81047E-05-2.88145E-05-2.92558E-06 3.93429E-19 2.34372E-19
 -1       673 9.55106E-05-2.80427E-05-2.89144E-05-3.40052E-06 2.52052E-19 3.27739E-19
 -1       674 9.57306E-05-2.79502E-05-2.90481E-05-3.95956E-06 3.38830E-19 3.89200E-19
 -1       675 9.60058E-05-2.78542E-05-2.92071E-05-4.63207E-06 4.21739E-19 6.95486E-19
 -1       676 9.63531E-05-2.77933E-05-2.93819E-05-5.42863E-06-3.32701E-20 8.36230E-19
 -1       677 9.68064E-05-2.78284E-05-2.95611E-05-6.33600E-06-4.86385E-20 1.22380E-18
 -1       678 9.74283E-05-2.80555E-05-2.97304E-05-7.30822E-06 6.26326E-19 1.19671E-18
 -1       679 9.83282E-05-2.86212E-05-2.98741E-05-8.25283E-06-1.54697E-19 1.16165E-18
 -1       680 9.96843E-05-2.97341E-05-2.99791E-05-9.00938E-06 1.14204E-19 1.25828E-18
 -1       681 1.01760E-04-3.16532E-05-3.00476E-05-9.31652E-06-1.19937E-19 7.46348E-19
 -1       682 1.04877E-04-3.46084E-05-3.01192E-05-8.76946E-06 7.51265E-21 3.43388E-19
 -1       683 1.09299E-04-3.85902E-05-3.03101E-05-6.76109E-06 8.40507E-19 6.27132E-19
 -1       684 1.14795E-04-4.28197E-05-3.08500E-05-2.65261E-06 8.58704E-19 1.02709E-18
 -1       685 1.20201E-04-4.53195E-05-3.21071E-05 3.97507E-06 6.88627E-19 1.56276E-18
 -1       686 1.22847E-04-4.26265E-05-3.44629E-05 1.15638E-05 7.43864E-19 1.26022E-18
 -1       687 1.20678E-04-3.29580E-05-3.77307E-05 1.56849E-05 1.26418E-18-2.81863E-19
 -1       688 1.15102E-04-2.05905E-05-4.08065E-05 1.05382E-05 2.07139E-19 9.46963E-19
 -1       689 1.13169E-04-1.67555E-05-4.16153E-05-2.76884E-06-6.62618E-19 7.48486E-19
 -1       690 1.21855E-04-3.71146E-05-3.64748E-05-1.53992E-05 1.82178E-20 2.84320E-18
 -1       691 1.22329E-04-4.43680E-05-3.34567E-05-9.05572E-06 1.97428E-19 2.74617E-19
 -1       692 1.18264E-04-4.46687E-05-3.15470E-05-1.29784E-06 8.96009E-19-5.56496E-19
 -1       693 1.12612E-04-4.11556E-05-3.06293E-05 4.38167E-06 5.04212E-19 6.91811E-19
 -1       694 1.07511E-04-3.68985E-05-3.02679E-05 7.56749E-06-4.31134E-19 2.23493E-18
 -1       695 1.03632E-04-3.32903E-05-3.01500E-05 8.90628E-06-1.23344E-18 6.74735E-19
 -1       696 1.00972E-04-3.07527E-05-3.00957E-05 9.02033E-06 5.07242E-20 2.11532E-19
 -1       697 9.92249E-05-2.91686E-05-3.00243E-05 8.43977E-06-6.85172E-20 1.60104E-18
 -1       698 9.80855E-05-2.82822E-05-2.99151E-05 7.50809E-06 1.89750E-19 3.61912E-18
 -1       699 9.73268E-05-2.78522E-05-2.97739E-05 6.44330E-06 1.10787E-18 2.36130E-18
 -1       700 9.68011E-05-2.76969E-05-2.96150E-05 5.37776E-06 1.11120E-19 1.59949E-18
 -1       701 9.64193E-05-2.76938E-05-2.94528E-05 4.38653E-06-3.70216E-19 4.22449E-19
 -1       702 9.61305E-05-2.77661E-05-2.92981E-05 3.50697E-06-9.45158E-20 7.52328E-19
 -1       703 9.59050E-05-2.78676E-05-2.91581E-05 2.75207E-06 8.17661E-19 2.36437E-18
 -1       704 9.57254E-05-2.79718E-05-2.90366E-05 2.11994E-06 1.84983E-18 2.86331E-18
 -1       705 9.55788E-05-2.80628E-05-2.89348E-05 1.60134E-06 1.74306E-18 3.27310E-18
 -1       706 9.54090E-05-2.80446E-05-2.88699E-05 1.29836E-06 1.48270E-18 1.95374E-18
 -1       707 9.42833E-05-2.70044E-05-2.88340E-05 1.79252E-07 2.04337E-18 1.99677E-18
 -1       708 9.52655E-05-2.80703E-05-2.87978E-05-9.08133E-07 1.21916E-18-2.50209E-18
 -1       709 9.45776E-05-2.73036E-05-2.88318E-05 8.15640E-07 1.88952E-18-1.03847E-18
 -1       710 9.42874E-05-2.70096E-05-2.88335E-05-1.98663E-07 1.27253E-18 1.36265E-18
 -1       711 9.43839E-05-2.71059E-05-2.88336E-05 5.33650E-07 1.63817E-18 1.19086E-18
 -1       712 9.43922E-05-2.71175E-05-2.88321E-05-5.42962E-07 1.33841E-18-1.32768E-18
 -1       713 9.45882E-05-2.73198E-05-2.88295E-05-8.18158E-07 5.88895E-19 3.65308E-19
 -1       714 9.48507E-05-2.75936E-05-2.88247E-05-9.78477E-07-3.33677E-19-1.87933E-18
 -1       715 4.55887E-05-1.71093E-05-1.17038E-05-2.19261E-05-1.05352E-18-1.00559E-18
 -1       716 4.77914E-05-1.78096E-05-1.23129E-05 2.29395E-05-7.79813E-19 9.40101E-19
 -1       717 1.16007E-04-5.65057E-05-2.53818E-05 2.56238E-05 8.30833E-19 1.40839E-19
 -1       718 9.53017E-05-2.69071E-05-2.93096E-05 5.77619E-07 5.47901E-19-1.20974E-19
 -1       719 9.51489E-05-2.80459E-05-2.87581E-05-2.02289E-06 4.33041E-19-1.12667E-19
 -1       720 9.50583E-05-2.35872E-05-3.06319E-05-4.53614E-06-8.83044E-19-6.86461E-19
 -1       721 9.20616E-05-1.75034E-05-3.19593E-05 3.81799E-06 8.23802E-19-8.10944E-19
 -1       722 9.53797E-05-2.58502E-05-2.97948E-05 2.36619E-06 8.38680E-19-3.37093E-19
 -1       723 1.22746E-04-1.47654E-05-4.68184E-05 9.19559E-06 4.16423E-19 1.16425E-18
 -1       724 1.16635E-04-5.65698E-05-2.56318E-05-2.48144E-05-1.70492E-19-9.43697E-19
 -1       725 9.20189E-05-1.74449E-05-3.19660E-05-3.76746E-06-1.92261E-19-1.19434E-18
 -1       726 1.02029E-04-5.11709E-05-2.15440E-05-3.30353E-05-1.01816E-18 2.26389E-18
 -1       727 8.21452E-05-4.01914E-05-1.76831E-05-3.66664E-05-3.31375E-19 1.38024E-18
 -1       728 5.43298E-05-2.24925E-05-1.31819E-05-2.87715E-05 7.76531E-19 2.86141E-18
 -1       729 5.40914E-05-2.28286E-05-1.29580E-05 2.96217E-05-4.60561E-19-3.64754E-19
 -1       730 3.93360E-05-1.10751E-05-1.15869E-05 3.58410E-06-1.04940E-18-7.74956E-19
 -1       731 1.30724E-04-5.89992E-05-3.08479E-05-1.14379E-05 6.45598E-20 2.80054E-18
 -1       732 6.89063E-05-3.31617E-05-1.49306E-05-3.58557E-05-1.13473E-18-4.40775E-19
 -1       733 1.31119E-04-3.23229E-05-4.27391E-05 1.56222E-05 7.51318E-19 2.90929E-18
 -1       734 1.19690E-04-1.04424E-05-4.73998E-05-1.37104E-06-7.51371E-19 1.05131E-19
 -1       735 8.57975E-05-4.26730E-05-1.81770E-05 3.70227E-05 6.20981E-19-9.54633E-20
 -1       736 1.37215E-04-4.76340E-05-3.86721E-05 8.55449E-06 1.77576E-18 4.69584E-18
 -1       737 1.32396E-04-5.78035E-05-3.20528E-05 9.52107E-06 9.57604E-19 3.37251E-19
 -1       738 1.33097E-04-5.63395E-05-3.30449E-05-3.94478E-06-1.53173E-18-2.93595E-18
 -1       739 1.23116E-04-1.17142E-05-4.82981E-05-4.88159E-06-9.32054E-19 1.46206E-18
 -1       740 1.16422E-04-5.68721E-05-2.55044E-05 2.44775E-05-1.00630E-18 4.15992E-19
 -1       741 1.27049E-04-1.93095E-05-4.67057E-05-1.25897E-05-1.72308E-18 2.55539E-19
 -1       742 9.42158E-05-2.11460E-05-3.13132E-05-6.59487E-06-9.33353E-19-8.88951E-19
 -1       743 9.28623E-05-1.88081E-05-3.17399E-05-5.07029E-06-4.60665E-19-9.83319E-19
 -1       744 9.12350E-05-1.62090E-05-3.21594E-05-7.53656E-07 2.83779E-19-1.10357E-18
 -1       745 1.27515E-04-3.07997E-05-4.17784E-05 1.52358E-05 1.15779E-19-5.35484E-19
 -1       746 1.28993E-04-3.21741E-05-4.18647E-05-1.44603E-05-1.28034E-19-1.16853E-18
 -1       747 9.48358E-05-2.75719E-05-2.88276E-05 9.86804E-07 2.44309E-18 4.46748E-20
 -1       748 1.17025E-04-2.50244E-05-3.96446E-05-1.38541E-05-1.84357E-18 2.40416E-18
 -1       749 6.89249E-05-2.80642E-05-1.72119E-05 2.94663E-05-1.19887E-18 1.72676E-18
 -1       750 1.00807E-04-4.72532E-05-2.27553E-05 2.88148E-05-7.59167E-19 6.14655E-19
 -1       751 4.76031E-05-1.42775E-05-1.39038E-05-1.50477E-05 1.14165E-18 1.78700E-18
 -1       752 1.18392E-04-5.55410E-05-2.68695E-05-1.94839E-05-9.79382E-19 1.56352E-18
 -1       753 9.14913E-05-1.66087E-05-3.20980E-05-2.29426E-06 5.26385E-20-9.70450E-19
 -1       754 1.34156E-04-5.16952E-05-3.55149E-05-2.91465E-06 3.41851E-19-2.92491E-19
 -1       755 9.50528E-05-2.77855E-05-2.88289E-05-1.09563E-06-5.70456E-19-3.26275E-18
 -1       756 9.46687E-05-2.26034E-05-3.08821E-05 3.68503E-06 8.26471E-19-5.37672E-19
 -1       757 9.57993E-05-2.65203E-05-2.96909E-05-8.90224E-08-3.59719E-19-6.60123E-19
 -1       758 9.58420E-05-2.72736E-05-2.93865E-05 9.08889E-07-5.10748E-19-6.73772E-19
 -1       759 9.57638E-05-2.76677E-05-2.91840E-05 1.64414E-06-4.67029E-19-5.45243E-19
 -1       760 9.56147E-05-2.78065E-05-2.90607E-05 2.22047E-06-1.62364E-19-5.78226E-19
 -1       761 9.54203E-05-2.77608E-05-2.89969E-05 2.72533E-06 4.57210E-20-6.94368E-19
 -1       762 9.51932E-05-2.75829E-05-2.89758E-05 3.22867E-06-1.96205E-19-5.79237E-19
 -1       763 9.49420E-05-2.73171E-05-2.89820E-05 3.78384E-06-4.50577E-19-1.37926E-19
 -1       764 9.46773E-05-2.70089E-05-2.90007E-05 4.42923E-06-1.50710E-19 4.87220E-19
 -1       765 9.44191E-05-2.67145E-05-2.90162E-05 5.18961E-06 9.12921E-20 5.81543E-19
 -1       766 9.42069E-05-2.65121E-05-2.90119E-05 6.07675E-06-4.02417E-19 4.69100E-19
 -1       767 9.41137E-05-2.65157E-05-2.89703E-05 7.08895E-06-8.41328E-19 5.90815E-20
 -1       768 9.42673E-05-2.68909E-05-2.88753E-05 8.20847E-06-7.82597E-19 2.37748E-20
 -1       769 9.48790E-05-2.78706E-05-2.87177E-05 9.39211E-06-1.03844E-18-2.04639E-19
 -1       770 9.62771E-05-2.97612E-05-2.85071E-05 1.05431E-05 2.32236E-20-4.97017E-19
 -1       771 9.89327E-05-3.29109E-05-2.82936E-05 1.14411E-05 4.81902E-19-7.91156E-19
 -1       772 1.03364E-04-3.75231E-05-2.82132E-05 1.16067E-05 8.13217E-19-2.35260E-19
 -1       773 1.10304E-04-4.35364E-05-2.86400E-05 9.89110E-06 8.93272E-19-3.52594E-19
 -1       774 1.18942E-04-4.92740E-05-2.99085E-05 5.35687E-06 8.87039E-19-6.67694E-19
 -1       775 1.27064E-04-3.91371E-05-3.78962E-05-1.32413E-05 4.59595E-19-1.85048E-18
 -1       776 1.27885E-04-4.96337E-05-3.36723E-05 5.42917E-06 1.92174E-19-1.38188E-18
 -1       777 1.20566E-04-4.98141E-05-3.02852E-05-4.09770E-06-2.87146E-19-3.18869E-18
 -1       778 1.11700E-04-4.46289E-05-2.87323E-05-9.45756E-06-5.19493E-19-2.65749E-18
 -1       779 1.04544E-04-3.85910E-05-2.82608E-05-1.13737E-05-8.26411E-20-1.99413E-18
 -1       780 9.96200E-05-3.36019E-05-2.82932E-05-1.14019E-05-3.46086E-20-5.09020E-20
 -1       781 9.66380E-05-3.01360E-05-2.85007E-05-1.05427E-05-4.57546E-19-7.37471E-19
 -1       782 9.50104E-05-2.79850E-05-2.87249E-05-9.35392E-06-9.39164E-20 3.52687E-19
 -1       783 9.42454E-05-2.68078E-05-2.89015E-05-8.08832E-06-9.01393E-19-4.79567E-19
 -1       784 9.39868E-05-2.62870E-05-2.90139E-05-6.85996E-06 3.61253E-20-1.01473E-18
 -1       785 9.40012E-05-2.61765E-05-2.90675E-05-5.72054E-06 1.06023E-18-5.37330E-19
 -1       786 9.41457E-05-2.63025E-05-2.90755E-05-4.69461E-06 2.13166E-19-2.51684E-19
 -1       787 9.43375E-05-2.65484E-05-2.90523E-05-3.79308E-06 2.24170E-19-3.78376E-19
 -1       788 9.45307E-05-2.68386E-05-2.90108E-05-3.01779E-06 1.74782E-18-2.76417E-18
 -1       789 9.47024E-05-2.71271E-05-2.89608E-05-2.36294E-06 1.12388E-18-3.06045E-18
 -1       790 9.48448E-05-2.73883E-05-2.89099E-05-1.82032E-06 2.77008E-20-1.47344E-18
 -1       791 9.49746E-05-2.76129E-05-2.88692E-05-1.42732E-06-9.17905E-19-1.39545E-18
 -1       792 9.39824E-05-2.67222E-05-2.88258E-05-4.85074E-07 1.72478E-18 8.79107E-19
 -1       793 9.52927E-05-2.77371E-05-2.89523E-05-3.22092E-06 6.69804E-20 6.06259E-19
 -1       794 9.54223E-05-2.78780E-05-2.89475E-05-2.71852E-06 4.27178E-19 4.46396E-19
 -1       795 9.50012E-05-2.72207E-05-2.90486E-05-4.42660E-06 2.49656E-20 3.80421E-19
 -1       796 9.48486E-05-2.69194E-05-2.91123E-05-5.20107E-06 2.22708E-19 4.34522E-19
 -1       797 9.47165E-05-2.66624E-05-2.91657E-05-6.11368E-06-5.43985E-20 5.37228E-19
 -1       798 9.46545E-05-2.65427E-05-2.91904E-05-7.16277E-06 5.12390E-19-4.78325E-20
 -1       799 9.47599E-05-2.67043E-05-2.91663E-05-8.32858E-06 1.60503E-19 6.42400E-19
 -1       800 9.52091E-05-2.73659E-05-2.90752E-05-9.56643E-06 2.80270E-19 2.85594E-19
 -1       801 9.62993E-05-2.88398E-05-2.89109E-05-1.07877E-05 9.71728E-20-2.84964E-21
 -1       802 9.84939E-05-3.15276E-05-2.86998E-05-1.18035E-05 1.41467E-19-6.01319E-19
 -1       803 1.02396E-04-3.58036E-05-2.85413E-05-1.22203E-05-4.40085E-20-8.27015E-20
 -1       804 1.08804E-04-4.18240E-05-2.87272E-05-1.10279E-05-1.24630E-19 1.05305E-18
 -1       805 1.17575E-04-4.83339E-05-2.96778E-05-7.13197E-06 1.52127E-19 1.59443E-18
 -1       806 1.26711E-04-5.17833E-05-3.21365E-05 7.33658E-07 9.40569E-19 2.66943E-18
 -1       807 1.22826E-04-5.08248E-05-3.08796E-05 3.09465E-06-6.75840E-20 8.85163E-19
 -1       808 1.06088E-04-3.92461E-05-2.86540E-05 1.15096E-05-8.54734E-20 2.74193E-19
 -1       809 1.00711E-04-3.38756E-05-2.86439E-05 1.19729E-05-1.07221E-18 1.35372E-19
 -1       810 9.75409E-05-3.02328E-05-2.88466E-05 1.12195E-05-1.40658E-19 1.05529E-18
 -1       811 9.58236E-05-2.80405E-05-2.90498E-05 1.00431E-05-1.28727E-18 1.90002E-18
 -1       812 9.50031E-05-2.68898E-05-2.91911E-05 8.73179E-06-9.02919E-19 2.70910E-18
 -1       813 9.46886E-05-2.64148E-05-2.92598E-05 7.42686E-06 9.64802E-19 2.60469E-18
 -1       814 9.46343E-05-2.63428E-05-2.92674E-05 6.19961E-06 1.15782E-18 1.87864E-18
 -1       815 9.46975E-05-2.64890E-05-2.92319E-05 5.08671E-06-1.40486E-19-1.08661E-20
 -1       816 9.48013E-05-2.67369E-05-2.91702E-05 4.10563E-06-9.71549E-19 2.06353E-20
 -1       817 9.49074E-05-2.70159E-05-2.90961E-05 3.26122E-06-1.25363E-18 1.64725E-18
 -1       818 9.49983E-05-2.72852E-05-2.90197E-05 2.54955E-06 1.02804E-18 3.80995E-19
 -1       819 9.50656E-05-2.75210E-05-2.89474E-05 1.96277E-06 1.45302E-18 1.15111E-19
 -1       820 9.30835E-05-1.94489E-05-3.15589E-05 1.14978E-06 5.78718E-19-8.74860E-19
 -1       821 9.45281E-05-2.72243E-05-2.88446E-05-1.18037E-06-4.58923E-19-3.23150E-18
 -1       822 9.39025E-05-2.66479E-05-2.88235E-05-1.20720E-08 2.38427E-18 2.40844E-18
 -1       823 1.17953E-04-1.42598E-05-4.50118E-05 5.17251E-06-3.55754E-20-1.88540E-18
 -1       824 5.18971E-05-1.36243E-05-1.61350E-05-9.90187E-06-7.91122E-19-9.60085E-19
 -1       825 6.55677E-05-2.45583E-05-1.73172E-05-2.65171E-05-1.35351E-18-6.71088E-19
 -1       826 9.49145E-05-2.32638E-05-3.07091E-05-3.27516E-06-6.28545E-19-6.56770E-19
 -1       827 1.02896E-04-4.70517E-05-2.38349E-05 2.62606E-05 6.41919E-19-2.02150E-19
 -1       828 4.72696E-05-1.24547E-05-1.45542E-05 8.00930E-06-7.92957E-19 7.85570E-19
 -1       829 1.24464E-04-5.53105E-05-2.95664E-05 9.95139E-06 4.59866E-19-5.37231E-19
 -1       830 9.56881E-05-2.66347E-05-2.95948E-05 2.31328E-07 4.05963E-19-2.57596E-20
 -1       831 9.41988E-05-2.69208E-05-2.88335E-05-8.92360E-07 1.57600E-18-7.00863E-19
 -1       832 1.13863E-04-4.57397E-05-2.91975E-05 8.93315E-06 1.50912E-19 1.44400E-18
 -1       833 9.51517E-05-2.75069E-05-2.89905E-05-3.77601E-06 1.97841E-19 4.50198E-19
 -1       834 9.34851E-05-1.98385E-05-3.15628E-05-5.94088E-06-6.74554E-19-1.00319E-18
 -1       835 9.52231E-05-2.43420E-05-3.03772E-05 3.18675E-06 9.19678E-19-2.75492E-19
 -1       836 8.86275E-05-3.99628E-05-2.06851E-05-3.10155E-05-1.17562E-18 1.14936E-18
 -1       837 9.57029E-05-2.73578E-05-2.92907E-05-8.44316E-07 5.27739E-19-1.13833E-19
 -1       838 5.44753E-05-1.60694E-05-1.62064E-05 1.64909E-05-6.58614E-19-1.44234E-19
 -1       839 7.46975E-05-2.98328E-05-1.90176E-05-2.86291E-05 2.29195E-19 2.55248E-18
 -1       840 9.55415E-05-2.52557E-05-3.01228E-05-1.45714E-06-6.26727E-19-4.70593E-19
 -1       841 1.25409E-04-3.62558E-05-3.86356E-05-1.45381E-05-6.36863E-19 9.09934E-19
 -1       842 1.33722E-04-5.38657E-05-3.43171E-05-2.29112E-06 2.93298E-19-1.12898E-18
 -1       843 1.01216E-04-4.62178E-05-2.34509E-05-2.71626E-05 3.53186E-19-5.71066E-19
 -1       844 7.70576E-05-3.13363E-05-1.93832E-05 2.92793E-05 4.22305E-19 1.05141E-18
 -1       845 1.28818E-04-4.50640E-05-3.60222E-05 1.13107E-05 1.75587E-18 1.37165E-18
 -1       846 9.29624E-05-1.92364E-05-3.15979E-05 1.87751E-08 3.07918E-19-1.07475E-18
 -1       847 9.34297E-05-2.00729E-05-3.14399E-05 2.20688E-06 6.82056E-19-8.70289E-19
 -1       848 9.45065E-05-2.71938E-05-2.88483E-05 1.18116E-06 1.97851E-18 6.61606E-21
 -1       849 5.96964E-05-1.86235E-05-1.73610E-05 1.90944E-05-9.98969E-20-6.47451E-20
 -1       850 1.26909E-04-4.86428E-05-3.36281E-05-5.37936E-06 5.91245E-19-6.69937E-19
 -1       851 9.39390E-05-2.10590E-05-3.12363E-05-3.07060E-06-3.07158E-19-8.51972E-19
 -1       852 9.56386E-05-2.77431E-05-2.90980E-05-1.61775E-06 4.43072E-19-7.81062E-20
 -1       853 9.55393E-05-2.78948E-05-2.89905E-05-2.20986E-06 7.05346E-21 2.07375E-19
 -1       854 9.50001E-05-2.75877E-05-2.88927E-05 1.57430E-06 2.02477E-18-4.27885E-19
 -1       855 9.41798E-05-2.68959E-05-2.88361E-05 8.76176E-07 1.04359E-18 4.94250E-19
 -1       856 9.39710E-05-2.67080E-05-2.88271E-05 4.61086E-07 1.28810E-18 1.87077E-18
 -1       857 8.82058E-05-3.70064E-05-2.18353E-05 2.75222E-05-3.14679E-19 3.86015E-19
 -1       858 1.15142E-04-5.18998E-05-2.70095E-05 1.74897E-05-1.14836E-18-3.10500E-19
 -1       859 5.68191E-05-1.35109E-05-1.84176E-05 3.21224E-06-4.57046E-19-7.50809E-19
 -1       860 1.05224E-04-4.69697E-05-2.48677E-05-2.32156E-05-5.19387E-19 1.21379E-18
 -1       861 9.49492E-05-2.76028E-05-2.88630E-05 1.34859E-06 1.42587E-18 1.09746E-18
 -1       862 9.33979E-05-2.00308E-05-3.14452E-05-2.16867E-06-5.74766E-20-1.02946E-18
 -1       863 9.39752E-05-2.11185E-05-3.12253E-05 3.10346E-06 7.20701E-19-5.25322E-19
 -1       864 6.44055E-05-2.07472E-05-1.85290E-05-2.10965E-05 3.48051E-19 4.30420E-18
 -1       865 1.22412E-04-5.35354E-05-2.94908E-05-9.31007E-06-5.45488E-19-3.39567E-18
 -1       866 9.47362E-05-2.74039E-05-2.88558E-05-1.32822E-06-1.54044E-18-2.79396E-18
 -1       867 9.55573E-05-2.57354E-05-2.99251E-05 1.50995E-06 5.56702E-19-2.65807E-19
 -1       868 7.06777E-05-2.24040E-05-2.05953E-05 1.97261E-05 2.76062E-19 1.42214E-18
 -1       869 9.59826E-05-2.71249E-05-2.95105E-05 1.03876E-06-3.51750E-19-5.23021E-19
 -1       870 9.58275E-05-2.74600E-05-2.93004E-05 1.64956E-06-3.70518E-19-4.16918E-19
 -1       871 9.55361E-05-2.75058E-05-2.91558E-05 2.15947E-06-7.40596E-20-2.14062E-19
 -1       872 9.51384E-05-2.73342E-05-2.90590E-05 2.63548E-06-1.37936E-19-2.43254E-19
 -1       873 9.46518E-05-2.70029E-05-2.89924E-05 3.13382E-06 1.96970E-21-5.51785E-19
 -1       874 9.40875E-05-2.65642E-05-2.89386E-05 3.69987E-06-7.96952E-21-3.30429E-19
 -1       875 9.34573E-05-2.60730E-05-2.88790E-05 4.37046E-06 2.69612E-19-2.08284E-19
 -1       876 9.27825E-05-2.55976E-05-2.87935E-05 5.17765E-06-2.85342E-19-1.47969E-19
 -1       877 9.21053E-05-2.52322E-05-2.86598E-05 6.15286E-06-3.47633E-19 2.50419E-19
 -1       878 9.15053E-05-2.51112E-05-2.84545E-05 7.33290E-06-9.62482E-19 7.97789E-19
 -1       879 9.11241E-05-2.54282E-05-2.81552E-05 8.76686E-06-8.13040E-19 8.14595E-19
 -1       880 9.12080E-05-2.64636E-05-2.77476E-05 1.05158E-05-1.18011E-18 8.70171E-19
 -1       881 9.21669E-05-2.86084E-05-2.72413E-05 1.26167E-05 4.04222E-21 3.80594E-19
 -1       882 9.46774E-05-3.24121E-05-2.66848E-05 1.50527E-05 9.41753E-19 2.85499E-19
 -1       883 9.98668E-05-3.84096E-05-2.63033E-05 1.74826E-05 8.15924E-19-1.57639E-19
 -1       884 9.03450E-05-3.55129E-05-2.34368E-05-2.35322E-05 8.23040E-19-9.13968E-19
 -1       885 8.29947E-05-3.14747E-05-2.19491E-05-2.46919E-05-1.16863E-18 5.31057E-19
 -1       886 1.01020E-04-3.97281E-05-2.62643E-05-1.74885E-05-2.75890E-19-3.55037E-19
 -1       887 9.53283E-05-3.32255E-05-2.66049E-05-1.53803E-05 9.15743E-19-3.54841E-19
 -1       888 9.24145E-05-2.90414E-05-2.71586E-05-1.29186E-05-2.65162E-19 5.16835E-19
 -1       889 9.11694E-05-2.65653E-05-2.76868E-05-1.06901E-05 1.33414E-19-3.11933E-19
 -1       890 9.09027E-05-2.52896E-05-2.81194E-05-8.80842E-06-1.54435E-18-2.15648E-18
 -1       891 9.11546E-05-2.47943E-05-2.84398E-05-7.24225E-06-4.26665E-19-1.55394E-18
 -1       892 9.16510E-05-2.47811E-05-2.86583E-05-5.93116E-06 1.05678E-18 6.74316E-19
 -1       893 9.22322E-05-2.50451E-05-2.87944E-05-4.82522E-06 5.25541E-19 5.57725E-19
 -1       894 9.28088E-05-2.54495E-05-2.88683E-05-3.89014E-06-7.84071E-19-4.42368E-19
 -1       895 9.33345E-05-2.59050E-05-2.88983E-05-3.10319E-06 6.44845E-19-1.36496E-18
 -1       896 9.37861E-05-2.63525E-05-2.89000E-05-2.44672E-06 7.86104E-19-1.86888E-18
 -1       897 9.41606E-05-2.67621E-05-2.88852E-05-1.90206E-06 2.16111E-18-1.90812E-18
 -1       898 9.32363E-05-2.57685E-05-2.89146E-05-5.30193E-06-1.49433E-19 8.05441E-20
 -1       899 9.38446E-05-2.62826E-05-2.89551E-05-4.49199E-06-1.25769E-20-5.66947E-20
 -1       900 9.19480E-05-2.50154E-05-2.86851E-05-7.42536E-06 5.67709E-20 6.32518E-20
 -1       901 9.14323E-05-2.50657E-05-2.84423E-05-8.80439E-06 1.85901E-19 4.30046E-21
 -1       902 9.12451E-05-2.57237E-05-2.80798E-05-1.04621E-05 6.56147E-19-3.32734E-19
 -1       903 9.17494E-05-2.73777E-05-2.75867E-05-1.24635E-05 4.02005E-19-1.02079E-18
 -1       904 9.36065E-05-3.06074E-05-2.70008E-05-1.48171E-05-8.45556E-19-7.10482E-20
 -1       905 9.78630E-05-3.60430E-05-2.64711E-05-1.73372E-05-7.24815E-19 7.91082E-19
 -1       906 9.58240E-05-3.34990E-05-2.66940E-05 1.62023E-05-7.17627E-19 1.24764E-18
 -1       907 9.11958E-05-2.51788E-05-2.82928E-05 9.50273E-06-1.52167E-18 2.62145E-18
 -1       908 9.14835E-05-2.47367E-05-2.86055E-05 7.88499E-06 8.44233E-20 1.83550E-18
 -1       909 9.19983E-05-2.47852E-05-2.88054E-05 6.50980E-06 7.06906E-20 2.91285E-18
 -1       910 9.25734E-05-2.50984E-05-2.89178E-05 5.33146E-06 2.01667E-18 3.41624E-18
 -1       911 9.31232E-05-2.55333E-05-2.89671E-05 4.32097E-06-1.29501E-19 1.93402E-18
 -1       912 9.36083E-05-2.60018E-05-2.89742E-05 3.45978E-06-4.19839E-19 4.59305E-19
 -1       913 9.40144E-05-2.64514E-05-2.89555E-05 2.73451E-06 7.63332E-19-1.38528E-18
 -1       914 9.43390E-05-2.68516E-05-2.89232E-05 2.13328E-06 4.29218E-19 9.71259E-19
 -1       915 6.62126E-05-1.95588E-05-1.98779E-05-1.72358E-05-1.10238E-18-5.62185E-19
 -1       916 9.34670E-05-2.62447E-05-2.88096E-05-3.23507E-07 1.59488E-18 2.13002E-18
 -1       917 9.49196E-05-2.32269E-05-3.07228E-05-2.12402E-06-5.47065E-19-6.15584E-19
 -1       918 9.14342E-05-2.64489E-05-2.78508E-05 1.14190E-05-2.44290E-18 2.67682E-18
 -1       919 9.27053E-05-2.90248E-05-2.72919E-05 1.36731E-05-1.23468E-18 8.71658E-19
 -1       920 5.51467E-05-1.31310E-05-1.78195E-05-4.75956E-06-1.01169E-18 1.00585E-18
 -1       921 9.58957E-05-2.64668E-05-2.97554E-05-1.36029E-07 4.57625E-19-6.31140E-19
 -1       922 9.25862E-05-2.53081E-05-2.88333E-05-6.27049E-06 5.55232E-19 5.60352E-20
 -1       923 9.30692E-05-1.94300E-05-3.15614E-05-1.10470E-06 1.24770E-19-9.74392E-19
 -1       924 1.03148E-04-4.38570E-05-2.53376E-05 2.12703E-05 1.31231E-19-4.09823E-19
 -1       925 9.52570E-05-2.74856E-05-2.90449E-05-2.72670E-06 9.11737E-20-1.89034E-19
 -1       926 1.09398E-04-4.68965E-05-2.67787E-05-1.70065E-05 5.69365E-19-2.34281E-18
 -1       927 9.56551E-05-2.51897E-05-3.02011E-05-7.93033E-07-5.46214E-19-4.59579E-19
 -1       928 9.59482E-05-2.64033E-05-2.98049E-05 2.53530E-07-2.77191E-19-4.76856E-19
 -1       929 8.68205E-05-3.19755E-05-2.34517E-05 2.18722E-05 1.92966E-19 4.72591E-19
 -1       930 9.40513E-05-2.67419E-05-2.88470E-05-1.33481E-06 9.15049E-20-3.54109E-18
 -1       931 7.56369E-05-2.67405E-05-2.08147E-05 2.33406E-05-1.54037E-18 1.75488E-18
 -1       932 5.86053E-05-1.41683E-05-1.89026E-05 6.52328E-06-4.74568E-19 6.55749E-19
 -1       933 8.04934E-05-2.78266E-05-2.24959E-05-2.14662E-05 1.70343E-18 2.03761E-18
 -1       934 9.55994E-05-2.52052E-05-3.01676E-05 1.05040E-06 3.69533E-19-5.70904E-19
 -1       935 9.44914E-05-2.71160E-05-2.88749E-05-1.60093E-06 6.73837E-19-1.90952E-18
 -1       936 9.59348E-05-2.71945E-05-2.94602E-05-1.01652E-06 1.08008E-19-2.87908E-19
 -1       937 9.55786E-05-2.76224E-05-2.91241E-05-2.22976E-06 5.06821E-20-1.14686E-19
 -1       938 9.43874E-05-2.67731E-05-2.89776E-05-3.81437E-06 2.04591E-19 1.35882E-19
 -1       939 9.43121E-05-2.17928E-05-3.10798E-05 3.74239E-07 2.92221E-19-7.44979E-19
 -1       940 9.48587E-05-2.71882E-05-2.90016E-05-3.23848E-06 1.03623E-19-1.79418E-19
 -1       941 9.44326E-05-2.70274E-05-2.88871E-05 1.69694E-06 1.91634E-18 2.33445E-18
 -1       942 6.34375E-05-1.53046E-05-2.05438E-05-6.83621E-06-5.91695E-19-8.29242E-19
 -1       943 9.36688E-05-2.64174E-05-2.88219E-05-8.82961E-07 1.48850E-18-5.76073E-19
 -1       944 9.40145E-05-2.66957E-05-2.88508E-05 1.32637E-06 2.81574E-18-3.05989E-18
 -1       945 9.44844E-05-2.21639E-05-3.09953E-05 1.04868E-06 4.63680E-19-6.36016E-19
 -1       946 9.34576E-05-2.62336E-05-2.88105E-05 2.81091E-07 5.26496E-19 1.82887E-18
 -1       947 6.70906E-05-1.73036E-05-2.12797E-05 1.07080E-05-3.17373E-19 8.38113E-19
 -1       948 9.51794E-05-2.39377E-05-3.05339E-05 1.97068E-06 5.56166E-19-4.11682E-19
 -1       949 9.45477E-05-2.22956E-05-3.09648E-05-1.59873E-06-1.79756E-19-7.79179E-19
 -1       950 9.59603E-05-2.70056E-05-2.95522E-05 1.02080E-06-2.41041E-19-1.16495E-19
 -1       951 9.47985E-05-2.28883E-05-3.08195E-05 1.61567E-06 7.25070E-19-9.39768E-19
 -1       952 9.56829E-05-2.72250E-05-2.93391E-05 1.47896E-06 6.23844E-20 2.36245E-19
 -1       953 9.52229E-05-2.71387E-05-2.91789E-05 1.88514E-06 2.20687E-20 2.88319E-19
 -1       954 9.46090E-05-2.68168E-05-2.90538E-05 2.28899E-06-2.19085E-19 3.72740E-19
 -1       955 9.38573E-05-2.63190E-05-2.89450E-05 2.73255E-06 1.33601E-19 2.39476E-19
 -1       956 9.29756E-05-2.57007E-05-2.88322E-05 3.25351E-06 9.59672E-20 6.52971E-20
 -1       957 9.19690E-05-2.50193E-05-2.86929E-05 3.88869E-06 3.34015E-20 5.05847E-20
 -1       958 9.08492E-05-2.43466E-05-2.85013E-05 4.68040E-06-1.31149E-19 5.03163E-19
 -1       959 8.96409E-05-2.37765E-05-2.82279E-05 5.68443E-06-3.97280E-19 5.82403E-19
 -1       960 8.83954E-05-2.34382E-05-2.78390E-05 6.98447E-06-5.72493E-19 1.08417E-18
 -1       961 8.72072E-05-2.35117E-05-2.72981E-05 8.71541E-06-6.42023E-19 1.21472E-18
 -1       962 8.62643E-05-2.42760E-05-2.65678E-05 1.10909E-05-3.08076E-19 1.63341E-18
 -1       963 8.60120E-05-2.61914E-05-2.56416E-05 1.43434E-05 2.89542E-19 1.66534E-18
 -1       964 8.60263E-05-2.85311E-05-2.46272E-05 1.77532E-05 2.67249E-19 7.58246E-19
 -1       965 9.57075E-05-2.52374E-05-3.02022E-05 4.52122E-07 3.29544E-19-8.14377E-19
 -1       966 8.62032E-05-2.34676E-05-2.68865E-05-1.06258E-05 2.82521E-19 1.08679E-18
 -1       967 8.58478E-05-2.65311E-05-2.54192E-05-1.49857E-05 4.98713E-19 1.25710E-18
 -1       968 8.59577E-05-2.43017E-05-2.64236E-05-1.14674E-05-5.19245E-19 6.05618E-19
 -1       969 8.67549E-05-2.32956E-05-2.71974E-05-8.91027E-06-2.02663E-18 1.91903E-19
 -1       970 8.78349E-05-2.30385E-05-2.77705E-05-7.02413E-06 1.08834E-19 1.08329E-18
 -1       971 8.89847E-05-2.32351E-05-2.81790E-05-5.59288E-06 1.71924E-18 2.03703E-18
 -1       972 9.00935E-05-2.36915E-05-2.84585E-05-4.47089E-06 6.23065E-19 2.55079E-18
 -1       973 9.11047E-05-2.42782E-05-2.86403E-05-3.57106E-06-8.64990E-19 8.80184E-19
 -1       974 9.19892E-05-2.49059E-05-2.87501E-05-2.83807E-06-1.28455E-18 9.26754E-19
 -1       975 9.27415E-05-2.55197E-05-2.88096E-05-2.24229E-06 4.11479E-19-4.96681E-19
 -1       976 9.33545E-05-2.60718E-05-2.88352E-05-1.74864E-06 1.11136E-18-2.33114E-18
 -1       977 8.74368E-05-2.30873E-05-2.75779E-05-8.53438E-06 6.77802E-19 3.72363E-19
 -1       978 8.87795E-05-2.32824E-05-2.80700E-05-6.99294E-06 4.70398E-19 1.04259E-18
 -1       979 8.54324E-05-2.48451E-05-2.59626E-05-1.35604E-05-6.89291E-19 1.27702E-18
 -1       980 8.39667E-05-2.71100E-05-2.43506E-05-1.79817E-05-1.06816E-18 7.42850E-20
 -1       981 9.58129E-05-2.75479E-05-2.92565E-05-1.68502E-06-3.19843E-20 2.69303E-20
 -1       982 6.72762E-05-1.74905E-05-2.12784E-05-1.18956E-05-2.34456E-19 1.99174E-18
 -1       983 8.65364E-05-2.30053E-05-2.72285E-05 9.54673E-06-1.67700E-18 1.53216E-18
 -1       984 9.01757E-05-2.36052E-05-2.85304E-05 5.01704E-06 3.68541E-19 1.69269E-18
 -1       985 9.43110E-05-2.17886E-05-3.10809E-05-3.56841E-07 1.91100E-20-7.13091E-19
 -1       986 9.43438E-05-2.18665E-05-3.10566E-05-9.81253E-07-1.22403E-19-7.81351E-19
 -1       987 8.53612E-05-2.63073E-05-2.53055E-05 1.57350E-05-1.05380E-18 2.57876E-18
 -1       988 8.77497E-05-2.28071E-05-2.78327E-05 7.63564E-06-8.76077E-19 7.60929E-19
 -1       989 9.12187E-05-2.42422E-05-2.87044E-05 4.06414E-06 1.95179E-18 3.87980E-18
 -1       990 9.21118E-05-2.49031E-05-2.88038E-05 3.26972E-06 1.08695E-18 1.99503E-18
 -1       991 9.28568E-05-2.55355E-05-2.88521E-05 2.60492E-06 8.51817E-19 2.87952E-18
 -1       992 9.34599E-05-2.61028E-05-2.88674E-05 2.05638E-06-4.67072E-19 2.07347E-18
 -1       993 9.36482E-05-2.63900E-05-2.88251E-05 8.58647E-07 1.25738E-18 1.78952E-18
 -1       994 9.60074E-05-2.63936E-05-2.98351E-05 4.58703E-07-2.81992E-19-1.06693E-19
 -1       995 8.54757E-05-3.00403E-05-2.36963E-05 2.06848E-05-1.31784E-18 1.69638E-18
 -1       996 9.37507E-05-2.64108E-05-2.88599E-05 1.66265E-06 8.63161E-19-4.63787E-19
 -1       997 9.23821E-05-2.52145E-05-2.87861E-05-4.09917E-06 1.04265E-20 2.10434E-20
 -1       998 8.94638E-05-3.14697E-05-2.48333E-05-1.88042E-05 1.09719E-18 3.40135E-19
 -1       999 9.53314E-05-2.41700E-05-3.04951E-05 1.02535E-06 6.05751E-19-8.38061E-19
 -1      1000 9.57636E-05-2.52902E-05-3.02020E-05-2.57364E-07-3.37265E-19-2.09983E-19
 -1      1001 8.90034E-05-2.30821E-05-2.82521E-05 6.17737E-06-1.73673E-19 2.16341E-18
 -1      1002 8.55956E-05-2.40044E-05-2.63965E-05 1.21454E-05-2.58259E-18 3.02925E-18
 -1      1003 6.78409E-05-1.88935E-05-2.08882E-05 1.48207E-05-1.44062E-18-5.97082E-19
 -1      1004 7.61653E-05-2.27487E-05-2.28268E-05 1.62913E-05 3.43151E-19 1.19957E-18
 -1      1005 9.51862E-05-2.36627E-05-3.06503E-05 6.34257E-09 1.19344E-19-4.73571E-19
 -1      1006 9.53488E-05-2.72689E-05-2.91771E-05-2.04209E-06 9.42217E-20-6.18113E-19
 -1      1007 9.33254E-05-2.59117E-05-2.88918E-05-3.47063E-06-5.04390E-20-4.81911E-19
 -1      1008 6.49811E-05-1.50506E-05-2.13359E-05-3.67043E-06-1.51408E-18 1.11805E-18
 -1      1009 9.48070E-05-2.69853E-05-2.90665E-05-2.47570E-06 9.26259E-20-9.72695E-19
 -1      1010 9.32692E-05-2.60290E-05-2.88175E-05 1.11313E-06 2.08238E-18 2.15745E-19
 -1      1011 9.13033E-05-2.44878E-05-2.86352E-05-4.86448E-06 1.12163E-20-4.84685E-21
 -1      1012 6.74955E-05-1.56648E-05-2.21932E-05 2.09523E-06-4.87267E-19-2.65885E-19
 -1      1013 7.56238E-05-2.05965E-05-2.35583E-05-1.29825E-05-4.02058E-19 5.92946E-19
 -1      1014 9.52744E-05-2.38660E-05-3.06037E-05 3.33472E-07 1.75400E-19-6.10344E-19
 -1      1015 9.28611E-05-2.57027E-05-2.87820E-05-3.59279E-08 2.42168E-19 2.75187E-18
 -1      1016 9.29997E-05-2.58187E-05-2.87917E-05-7.74657E-07 3.37411E-19 2.15467E-19
 -1      1017 9.00915E-05-2.38048E-05-2.84086E-05-5.80628E-06 8.52689E-20 1.07134E-18
 -1      1018 9.59893E-05-2.64021E-05-2.98230E-05-4.05578E-07 1.03259E-19-5.86798E-19
 -1      1019 7.85773E-05-2.32074E-05-2.37117E-05-1.54945E-05 1.32813E-18 1.37502E-18
 -1      1020 7.82744E-05-2.36504E-05-2.33777E-05 1.67523E-05-1.13771E-18 1.50452E-18
 -1      1021 9.58159E-05-2.69116E-05-2.95304E-05 8.08483E-07-1.36117E-19-1.60768E-19
 -1      1022 9.53908E-05-2.69826E-05-2.93181E-05 1.09748E-06-1.61597E-19-2.47191E-19
 -1      1023 9.47514E-05-2.67400E-05-2.91479E-05 1.37480E-06 1.63397E-20-1.30403E-19
 -1      1024 9.39259E-05-2.62596E-05-2.89999E-05 1.66641E-06 4.23365E-20-1.31643E-19
 -1      1025 9.29186E-05-2.55941E-05-2.88534E-05 2.00354E-06-2.35980E-20-2.08896E-19
 -1      1026 9.17332E-05-2.48029E-05-2.86848E-05 2.41359E-06 1.76438E-19 2.77959E-19
 -1      1027 9.03537E-05-2.39316E-05-2.84673E-05 2.93647E-06-5.82020E-20-2.29847E-19
 -1      1028 8.87716E-05-2.30489E-05-2.81677E-05 3.61420E-06 2.33872E-21-2.98730E-19
 -1      1029 8.69638E-05-2.22252E-05-2.77464E-05 4.52140E-06-1.51676E-19 2.05797E-19
 -1      1030 8.49139E-05-2.15574E-05-2.71540E-05 5.77095E-06-3.84940E-19 4.84207E-19
 -1      1031 8.25848E-05-2.11561E-05-2.63260E-05 7.56696E-06-1.95175E-19 8.63798E-19
 -1      1032 7.99405E-05-2.11697E-05-2.51900E-05 1.01587E-05 2.21093E-19 1.14540E-18
 -1      1033 9.59763E-05-2.70551E-05-2.95377E-05-1.06473E-06 7.23553E-20-5.69098E-19
 -1      1034 8.07867E-05-2.18110E-05-2.52685E-05-1.11279E-05-6.26866E-19 1.07504E-18
 -1      1035 9.58466E-05-2.55087E-05-3.01443E-05 6.42604E-08-1.59767E-19-3.70876E-19
 -1      1036 8.29654E-05-2.13827E-05-2.63909E-05-8.23290E-06-1.47722E-18 3.96411E-19
 -1      1037 8.49688E-05-2.14996E-05-2.72005E-05-6.24765E-06 4.13902E-19 1.86455E-18
 -1      1038 8.67781E-05-2.19709E-05-2.77749E-05-4.84177E-06 1.18815E-18 1.69678E-18
 -1      1039 8.83562E-05-2.26160E-05-2.81753E-05-3.79385E-06 1.69151E-18 2.00778E-18
 -1      1040 8.97402E-05-2.33688E-05-2.84453E-05-2.99128E-06-7.55428E-19 2.22895E-18
 -1      1041 9.09152E-05-2.41354E-05-2.86200E-05-2.36136E-06-1.82815E-18 3.59130E-18
 -1      1042 9.18964E-05-2.48698E-05-2.87260E-05-1.85225E-06-2.59454E-18 1.92201E-18
 -1      1043 9.27039E-05-2.55389E-05-2.87856E-05-1.44986E-06-3.72639E-19-1.73029E-18
 -1      1044 8.29075E-05-2.08215E-05-2.66083E-05-7.11316E-06 2.73449E-19 8.76822E-19
 -1      1045 9.53432E-05-2.40517E-05-3.05564E-05-4.23172E-07-3.46881E-20-6.52781E-19
 -1      1046 8.53383E-05-2.14470E-05-2.73823E-05-5.64807E-06 6.74032E-19 4.13763E-19
 -1      1047 9.57467E-05-2.73143E-05-2.93282E-05-1.59038E-06 1.45937E-19-8.18689E-19
 -1      1048 8.92481E-05-2.29704E-05-2.84056E-05 3.25481E-06-3.22849E-20 8.67769E-19
 -1      1049 9.41317E-05-2.65168E-05-2.89780E-05-2.93895E-06-3.92173E-20-9.47914E-19
 -1      1050 9.05580E-05-2.38196E-05-2.86027E-05 2.63172E-06 1.25373E-18 2.90206E-18
 -1      1051 8.36604E-05-2.07164E-05-2.69760E-05 6.34462E-06-5.69685E-19-3.67595E-19
 -1      1052 9.16377E-05-2.46188E-05-2.87226E-05 2.11054E-06 4.75291E-20 3.20570E-18
 -1      1053 9.25146E-05-2.53407E-05-2.87886E-05 1.68315E-06 2.68802E-18 2.72485E-18
 -1      1054 7.80689E-05-2.05153E-05-2.46651E-05 1.10982E-05-1.46794E-18 1.48029E-18
 -1      1055 9.52702E-05-2.39153E-05-3.05791E-05 6.75965E-07 2.61031E-19-5.29440E-19
 -1      1056 9.59877E-05-2.64492E-05-2.98014E-05 4.75867E-07-2.30443E-19-4.05500E-19
 -1      1057 8.58372E-05-2.13424E-05-2.76414E-05 5.01044E-06-8.11751E-19-2.55977E-19
 -1      1058 9.29885E-05-2.58045E-05-2.87933E-05 5.70372E-07 2.64157E-18 4.94058E-19
 -1      1059 8.74238E-05-2.22651E-05-2.79258E-05-4.59963E-06 1.46598E-19-2.21481E-19
 -1      1060 9.29127E-05-2.56979E-05-2.88058E-05 1.37547E-06 3.18399E-18-7.51516E-19
 -1      1061 8.76841E-05-2.21220E-05-2.80994E-05 4.02999E-06-7.57998E-19-5.48971E-21
 -1      1062 8.01160E-05-2.05506E-05-2.55273E-05-9.33622E-06-1.38279E-19 5.12756E-19
 -1      1063 8.10858E-05-2.03744E-05-2.60244E-05 8.21851E-06-1.12929E-18 2.16670E-19
 -1      1064 7.43408E-05-1.89222E-05-2.37252E-05 9.42852E-06 2.08832E-19 1.75907E-18
 -1      1065 8.92281E-05-2.31882E-05-2.83032E-05-3.81608E-06-1.48135E-19 6.33409E-20
 -1      1066 9.55075E-05-2.70679E-05-2.93316E-05-1.29370E-06 1.12403E-19-7.10815E-19
 -1      1067 6.73760E-05-1.57244E-05-2.20938E-05 4.66341E-06-2.86727E-18-8.93522E-19
 -1      1068 7.25610E-05-1.76308E-05-2.35268E-05-7.45360E-06-3.39964E-19-3.83930E-19
 -1      1069 9.58423E-05-2.55137E-05-3.01416E-05 1.08683E-08 1.39764E-19-4.49225E-19
 -1      1070 9.49282E-05-2.68722E-05-2.91670E-05-1.62183E-06 2.90071E-19-5.48690E-19
 -1      1071 9.22125E-05-2.51478E-05-2.87422E-05-5.17605E-07-8.97273E-19 2.95641E-18
 -1      1072 9.07804E-05-2.41267E-05-2.85659E-05-3.20376E-06 7.10277E-22 3.51989E-19
 -1      1073 9.20911E-05-2.50014E-05-2.87530E-05-2.70237E-06-1.99553E-19 3.98518E-20
 -1      1074 9.22374E-05-2.51644E-05-2.87448E-05 2.32666E-07-1.46984E-19-1.94723E-18
 -1      1075 9.57777E-05-2.52309E-05-3.02347E-05 6.49014E-09 1.30011E-19-4.98175E-19
 -1      1076 8.29471E-05-1.98571E-05-2.70285E-05 2.83683E-06-9.50206E-19-1.25276E-18
 -1      1077 9.50045E-05-2.67389E-05-2.92565E-05 5.03451E-07-1.93556E-19-1.78728E-19
 -1      1078 9.42037E-05-2.63475E-05-2.90816E-05 6.23175E-07-1.92325E-20-4.41823E-19
 -1      1079 9.31958E-05-2.57229E-05-2.89172E-05 7.67654E-07-1.14157E-19-2.12435E-20
 -1      1080 9.19619E-05-2.49015E-05-2.87380E-05 9.60664E-07 1.92180E-19-4.48325E-19
 -1      1081 9.04869E-05-2.39429E-05-2.85175E-05 1.19592E-06 7.63715E-21-6.58878E-19
 -1      1082 8.87652E-05-2.29074E-05-2.82241E-05 1.50003E-06-4.91154E-20-1.80775E-19
 -1      1083 8.67311E-05-2.18225E-05-2.78174E-05 1.92181E-06 4.18897E-19-4.74342E-19
 -1      1084 8.42998E-05-2.07326E-05-2.72445E-05 2.50840E-06-3.38798E-19-1.08559E-19
 -1      1085 8.14523E-05-1.97359E-05-2.64445E-05 3.32730E-06 2.35043E-21 6.12908E-20
 -1      1086 7.77293E-05-1.87071E-05-2.53031E-05 4.60392E-06 4.21243E-19 7.48870E-19
 -1      1087 7.26029E-05-1.79802E-05-2.33992E-05 8.80243E-06-1.92355E-18 7.94668E-19
 -1      1088 8.19141E-05-1.96871E-05-2.66664E-05-3.09022E-06 6.19266E-19 1.99958E-19
 -1      1089 9.58789E-05-2.69454E-05-2.95430E-05-9.33403E-07 5.95459E-20-6.02890E-19
 -1      1090 8.12643E-05-1.95603E-05-2.64432E-05-4.16362E-06-6.70624E-19 2.08724E-19
 -1      1091 8.39549E-05-2.03880E-05-2.72391E-05-3.05021E-06 1.14727E-18-6.53208E-19
 -1      1092 8.61353E-05-2.12853E-05-2.77933E-05-2.31553E-06 9.20577E-19-4.20102E-19
 -1      1093 8.80094E-05-2.22553E-05-2.81814E-05-1.79415E-06 3.86776E-19-3.27708E-18
 -1      1094 8.96087E-05-2.32215E-05-2.84465E-05-1.38687E-06-1.87733E-19-3.29501E-18
 -1      1095 9.08924E-05-2.41176E-05-2.86165E-05-1.07423E-06-1.70330E-18-1.27777E-18
 -1      1096 8.90623E-05-2.28304E-05-2.83863E-05 1.50829E-06 5.19771E-20-2.02657E-18
 -1      1097 9.59547E-05-2.62390E-05-2.98796E-05 2.08849E-08 1.27980E-21-1.99616E-19
 -1      1098 9.60026E-05-2.64557E-05-2.98063E-05-5.10655E-07 1.23572E-19-8.19910E-19
 -1      1099 7.75757E-05-1.86164E-05-2.52643E-05-5.48935E-06-1.23220E-18-3.07459E-19
 -1      1100 9.16251E-05-2.46556E-05-2.87014E-05 9.98488E-07 1.27406E-18-2.49569E-18
 -1      1101 9.25057E-05-2.53781E-05-2.87691E-05 8.47860E-07 3.39293E-18 1.92458E-19
 -1      1102 8.48456E-05-2.08652E-05-2.74206E-05-2.48933E-06 1.71308E-19-1.12725E-19
 -1      1103 7.18552E-05-1.64629E-05-2.37327E-05-1.10518E-06-7.08926E-19-7.64724E-19
 -1      1104 9.05230E-05-2.38147E-05-2.85859E-05 1.22282E-06 5.65818E-19-1.57114E-18
 -1      1105 8.73587E-05-2.18181E-05-2.80889E-05 1.85707E-06-5.45703E-19-1.67671E-18
 -1      1106 7.11931E-05-1.68040E-05-2.32972E-05-4.84523E-06-4.66023E-19-6.28986E-19
 -1      1107 8.52902E-05-2.07693E-05-2.76522E-05 2.29486E-06-9.25557E-19-2.38005E-18
 -1      1108 9.58647E-05-2.55657E-05-3.01267E-05-8.52491E-08 3.24271E-19-4.48352E-19
 -1      1109 7.73050E-05-1.85888E-05-2.51669E-05 6.27035E-06-1.44214E-19-5.12808E-19
 -1      1110 9.55826E-05-2.68396E-05-2.94614E-05 3.86494E-07-2.66022E-20 2.88895E-21
 -1      1111 7.84965E-05-1.87112E-05-2.56273E-05-4.01886E-06 4.00582E-19 7.33052E-20
 -1      1112 9.58515E-05-2.66573E-05-2.96543E-05 1.60281E-07 8.58394E-21 7.26191E-20
 -1      1113 7.96736E-05-1.87755E-05-2.60959E-05 3.55918E-06-6.96138E-19-9.95143E-19
 -1      1114 7.45103E-05-1.73391E-05-2.44917E-05 1.55029E-06 6.63670E-19 3.10514E-19
 -1      1115 8.72228E-05-2.20136E-05-2.79478E-05-2.09234E-06-6.01863E-20-1.11230E-20
 -1      1116 9.32137E-05-2.57830E-05-2.88986E-05-2.29334E-06-1.97286E-19-7.73983E-20
 -1      1117 9.56793E-05-2.68608E-05-2.94936E-05-5.85480E-07-5.70133E-20-4.88789E-19
 -1      1118 9.07521E-05-2.40080E-05-2.86076E-05-1.61171E-08 7.26719E-19-1.23804E-18
 -1      1119 9.41626E-05-2.64268E-05-2.90295E-05-1.94612E-06-1.62923E-19-1.03021E-19
 -1      1120 8.91959E-05-2.31197E-05-2.83193E-05-1.77857E-06 1.30072E-19-5.13801E-19
 -1      1121 9.08553E-05-2.41593E-05-2.85852E-05-1.51656E-06-2.79033E-19-1.22936E-19
 -1      1122 9.51536E-05-2.68182E-05-2.92867E-05-7.65641E-07 3.61378E-20-3.43352E-19
 -1      1123 7.91924E-05-1.86956E-05-2.59505E-05 1.22605E-07 4.99551E-19 6.04154E-19
 -1      1124 7.40682E-05-1.71674E-05-2.44049E-05 3.23212E-06 3.90485E-19-4.10182E-19
 -1      1125 9.36627E-05-2.59991E-05-2.89987E-05-3.44101E-07-5.81043E-20-3.48876E-19
 -1      1126 9.25081E-05-2.52515E-05-2.88256E-05-3.88631E-07-2.75767E-19-3.70864E-19
 -1      1127 8.17063E-05-1.92765E-05-2.67729E-05-3.20702E-07-3.10211E-19 7.96671E-19
 -1      1128 7.75983E-05-1.79213E-05-2.55726E-05-6.40623E-07-7.41518E-19 8.69816E-19
 -1      1129 9.44952E-05-2.64977E-05-2.91410E-05-6.09440E-07-8.82674E-20-1.78556E-19
 -1      1130 9.59433E-05-2.64936E-05-2.97639E-05-3.07864E-07 9.64787E-21-3.30893E-19
 -1      1131 1.16628E-04 2.56950E-10-4.17777E-05-4.13943E-05-1.68560E-19 4.70802E-18
 -1      1132 8.85437E-05 7.18471E-11-3.72064E-05-2.41315E-05-9.39148E-20 5.65183E-19
 -1      1133 8.40403E-05 4.14514E-11-3.57500E-05-1.78441E-05-5.83923E-20-1.15545E-18
 -1      1134 8.23496E-05 3.20521E-11-3.50775E-05-1.37991E-05-2.95138E-20-1.98668E-18
 -1      1135 8.15844E-05 2.73185E-11-3.47590E-05-1.04915E-05-1.77348E-20-2.40241E-18
 -1      1136 8.12038E-05 2.45363E-11-3.46046E-05-7.60145E-06-1.13555E-20-2.51270E-18
 -1      1137 8.10093E-05 2.28325E-11-3.45281E-05-4.94945E-06-4.30134E-21-2.49106E-18
 -1      1138 8.09151E-05 2.19033E-11-3.44926E-05-2.41578E-06-1.51209E-21-2.42414E-18
 -1      1139 8.08885E-05 2.16205E-11-3.44828E-05 5.20589E-08 3.49153E-21-2.27523E-18
 -1      1140 8.09196E-05 2.19483E-11-3.44941E-05 2.52248E-06 1.66412E-20-2.21755E-18
 -1      1141 8.10185E-05 2.29344E-11-3.45311E-05 5.06464E-06 1.91807E-20-2.11921E-18
 -1      1142 8.12198E-05 2.47001E-11-3.46090E-05 7.73320E-06 3.34446E-20-1.91673E-18
 -1      1143 8.16046E-05 2.76239E-11-3.47655E-05 1.06515E-05 4.18620E-20-1.56836E-18
 -1      1144 8.23728E-05 3.25180E-11-3.50873E-05 1.40037E-05 5.08220E-20-9.49895E-19
 -1      1145 8.40370E-05 4.19397E-11-3.57694E-05 1.80950E-05 6.63333E-20 1.81715E-19
 -1      1146 8.82419E-05 6.66745E-11-3.72760E-05 2.39755E-05 6.81862E-20 2.34369E-18
 -1      1147 1.06407E-04 1.63569E-10-4.05576E-05 3.61346E-05 1.15408E-19 6.54799E-18
 -1      1148 1.29920E-04-2.56949E-05-4.01868E-05-2.60566E-05-6.20134E-19 7.26331E-18
 -1      1149 9.72139E-05-2.87902E-05-3.15027E-05-6.80066E-07-2.41669E-19 5.84855E-18
 -1      1150 8.99412E-05-2.69619E-05-2.78269E-05 3.85419E-07-8.96796E-20 3.90202E-18
 -1      1151 8.80557E-05-2.65155E-05-2.65862E-05 2.48860E-07-7.30037E-20 2.53663E-18
 -1      1152 8.77349E-05-2.64006E-05-2.63421E-05 1.63572E-07-5.32589E-20 1.46108E-18
 -1      1153 8.81548E-05-2.64962E-05-2.64465E-05 1.15626E-07-9.90938E-20 1.01530E-18
 -1      1154 8.89391E-05-2.67110E-05-2.66800E-05 8.52034E-08-5.54012E-20 5.20290E-19
 -1      1155 8.99068E-05-2.69899E-05-2.69703E-05 6.45707E-08-2.47013E-20 2.09958E-19
 -1      1156 9.09701E-05-2.73031E-05-2.72901E-05 5.00732E-08-4.33443E-22 2.28560E-19
 -1      1157 9.20953E-05-2.76380E-05-2.76297E-05 4.00731E-08-3.41578E-20-4.33191E-19
 -1      1158 9.32842E-05-2.79941E-05-2.79900E-05 3.39077E-08-1.98317E-21-1.23720E-18
 -1      1159 9.45636E-05-2.83785E-05-2.83786E-05 3.14189E-08 1.57825E-19-4.91368E-19
 -1      1160 9.59788E-05-2.88043E-05-2.88089E-05 3.27381E-08-9.69270E-20-1.50137E-18
 -1      1161 9.75862E-05-2.92879E-05-2.92973E-05 3.81554E-08 4.28000E-20-1.22186E-18
 -1      1162 9.94460E-05-2.98468E-05-2.98608E-05 4.79656E-08-3.71503E-20-1.16791E-18
 -1      1163 1.01610E-04-3.04955E-05-3.05132E-05 6.21858E-08-1.45680E-19-1.50207E-18
 -1      1164 1.04101E-04-3.12403E-05-3.12592E-05 8.00123E-08-7.31765E-20-3.38813E-18
 -1      1165 1.06888E-04-3.20700E-05-3.20843E-05 9.88467E-08 8.50135E-22-3.90167E-18
 -1      1166 1.09836E-04-3.29436E-05-3.29427E-05 1.12772E-07 3.52606E-20-3.94139E-18
 -1      1167 1.12655E-04-3.37735E-05-3.37414E-05 1.10681E-07 8.53320E-20-3.10268E-18
 -1      1168 1.14847E-04-3.44107E-05-3.43288E-05 7.52513E-08-1.81837E-19-3.40536E-18
 -1      1169 1.15695E-04-3.46437E-05-3.45000E-05-1.40699E-08 1.00330E-19-3.20944E-18
 -1      1170 1.14373E-04-3.42322E-05-3.40394E-05-1.69470E-07 1.65148E-19-1.23452E-18
 -1      1171 1.10266E-04-3.30032E-05-3.28155E-05-3.72768E-07-8.44121E-20-1.79280E-18
 -1      1172 1.03490E-04-3.10046E-05-3.09139E-05-5.52883E-07-1.31277E-19-5.22408E-19
 -1      1173 9.53873E-05-2.86410E-05-2.87310E-05-5.95410E-07-4.88748E-20 1.08156E-18
 -1      1174 8.84623E-05-2.66391E-05-2.69184E-05-4.13268E-07 2.64658E-19 1.15091E-18
 -1      1175 8.53841E-05-2.57542E-05-2.61254E-05-4.20633E-08 9.14531E-21-4.45539E-19
 -1      1176 8.74645E-05-2.63521E-05-2.66605E-05 3.49378E-07 1.10379E-20 8.07064E-19
 -1      1177 9.38093E-05-2.81835E-05-2.83142E-05 5.77298E-07-1.00019E-19-7.45918E-20
 -1      1178 1.01906E-04-3.05411E-05-3.04814E-05 5.75794E-07-1.58521E-20-1.04174E-18
 -1      1179 1.09110E-04-3.26607E-05-3.24850E-05 4.13847E-07-6.74979E-22-2.56175E-18
 -1      1180 1.13815E-04-3.40639E-05-3.38665E-05 2.07696E-07-1.79697E-20-2.20856E-18
 -1      1181 1.15689E-04-3.46388E-05-3.44834E-05 3.96985E-08-1.31178E-19-1.40535E-18
 -1      1182 1.15251E-04-3.45287E-05-3.44353E-05-6.22291E-08 1.59947E-19-1.36450E-18
 -1      1183 1.13325E-04-3.39718E-05-3.39319E-05-1.06375E-07 2.52444E-19-6.88135E-19
 -1      1184 1.10668E-04-3.31919E-05-3.31871E-05-1.12955E-07-1.06931E-19-6.14364E-19
 -1      1185 1.07830E-04-3.23528E-05-3.23664E-05-1.00291E-07-1.61978E-19-5.27027E-19
 -1      1186 1.05149E-04-3.15558E-05-3.15761E-05-8.06097E-08 6.34245E-20 7.37819E-19
 -1      1187 1.02792E-04-3.08525E-05-3.08732E-05-6.06083E-08 3.80453E-20-9.93636E-19
 -1      1188 1.00820E-04-3.02619E-05-3.02800E-05-4.32776E-08-2.30486E-19-3.46583E-18
 -1      1189 9.92279E-05-2.97836E-05-2.97981E-05-2.95222E-08-5.05790E-19-2.79850E-18
 -1      1190 9.79781E-05-2.94072E-05-2.94183E-05-1.92245E-08 1.40014E-19-2.72185E-18
 -1      1191 9.70214E-05-2.91184E-05-2.91266E-05-1.18311E-08-8.22631E-21-1.29882E-18
 -1      1192 9.63080E-05-2.89026E-05-2.89088E-05-6.62005E-09 2.62722E-19 1.03651E-18
 -1      1193 9.57946E-05-2.87468E-05-2.87521E-05-2.75536E-09-1.48505E-19 1.86993E-18
 -1      1194 9.54482E-05-2.86414E-05-2.86469E-05 8.11835E-10-1.75607E-19 1.37353E-19
 -1      1195 9.52480E-05-2.85799E-05-2.85857E-05 5.52355E-09 2.21587E-19-1.10478E-18
 -1      1196 9.51856E-05-2.85631E-05-2.85597E-05 1.40100E-08 9.51956E-20 2.69753E-18
 -1      1197 9.52092E-05-2.85627E-05-2.85496E-05 9.11607E-09 3.34676E-19 2.64142E-18
 -1      1198 1.30751E-04-3.76482E-05-3.85750E-05 1.21549E-05-1.43254E-19 9.97254E-18
 -1      1199 9.63156E-05-2.81175E-05-3.12553E-05 8.01365E-07 3.65548E-20 8.50103E-18
 -1      1200 9.01541E-05-2.68643E-05-2.78075E-05 1.21623E-07 2.58213E-20 6.98743E-18
 -1      1201 8.81406E-05-2.64422E-05-2.66219E-05 1.16139E-08 7.41849E-20 5.71377E-18
 -1      1202 8.77729E-05-2.63622E-05-2.63683E-05-2.14474E-08-1.46957E-20 4.80659E-18
 -1      1203 8.81734E-05-2.64775E-05-2.64609E-05-2.90936E-08 1.76247E-20 3.76887E-18
 -1      1204 8.89480E-05-2.67024E-05-2.66886E-05-2.87125E-08 4.29576E-20 3.43860E-18
 -1      1205 8.99101E-05-2.69864E-05-2.69759E-05-2.52310E-08-3.67549E-20 3.52922E-18
 -1      1206 9.09704E-05-2.73023E-05-2.72939E-05-2.02362E-08-2.15065E-20 2.79254E-18
 -1      1207 9.20953E-05-2.76391E-05-2.76330E-05-1.45260E-08 5.31486E-20 2.08127E-18
 -1      1208 9.32880E-05-2.79972E-05-2.79943E-05-8.69706E-09 1.00215E-19 7.16021E-19
 -1      1209 9.45786E-05-2.83853E-05-2.83865E-05-3.33398E-09-4.13781E-20 4.95561E-19
 -1      1210 9.60175E-05-2.88184E-05-2.88248E-05 8.59519E-10 3.32403E-21 1.10882E-18
 -1      1211 9.76702E-05-2.93155E-05-2.93285E-05 2.91590E-09-1.67062E-20 1.39095E-18
 -1      1212 9.96107E-05-2.98984E-05-2.99190E-05 1.43287E-09 4.53312E-20 4.83060E-19
 -1      1213 1.01911E-04-3.05878E-05-3.06167E-05-5.59623E-09 8.45395E-20-6.96115E-19
 -1      1214 1.04625E-04-3.13979E-05-3.14347E-05-2.08466E-08-1.04410E-19-1.04781E-18
 -1      1215 1.07753E-04-3.23281E-05-3.23686E-05-4.73465E-08 1.82828E-20-1.80043E-18
 -1      1216 1.11201E-04-3.33478E-05-3.33819E-05-8.72044E-08 8.54240E-20-3.15742E-18
 -1      1217 1.14703E-04-3.43769E-05-3.43842E-05-1.38452E-07-2.01322E-19-1.52948E-18
 -1      1218 1.17739E-04-3.52634E-05-3.52110E-05-1.89287E-07-1.23084E-20 4.01110E-19
 -1      1219 1.19482E-04-3.57693E-05-3.56179E-05-2.11228E-07 9.96587E-21 2.11563E-19
 -1      1220 1.18871E-04-3.55920E-05-3.53188E-05-1.58188E-07-8.53286E-20-1.15035E-18
 -1      1221 1.14944E-04-3.44578E-05-3.40978E-05 1.39790E-08 3.80702E-20-2.72385E-18
 -1      1222 1.07523E-04-3.23063E-05-3.19915E-05 2.96925E-07 1.93944E-19-3.28797E-18
 -1      1223 9.80107E-05-2.95127E-05-2.94466E-05 5.78604E-07 8.37735E-20-1.20226E-18
 -1      1224 8.95246E-05-2.69572E-05-2.72796E-05 6.73532E-07-8.97259E-20-1.49586E-18
 -1      1225 8.56520E-05-2.57144E-05-2.63399E-05 4.66232E-07-3.09233E-20-1.83139E-18
 -1      1226 8.82370E-05-2.64064E-05-2.70296E-05 4.45924E-08-8.48026E-20-1.00098E-18
 -1      1227 9.60502E-05-2.87305E-05-2.90508E-05-3.55972E-07-9.35210E-21-5.94723E-19
 -1      1228 1.05676E-04-3.16556E-05-3.15979E-05-5.48272E-07 2.39978E-19-1.16679E-18
 -1      1229 1.13728E-04-3.41176E-05-3.38212E-05-5.13580E-07 1.66740E-19-2.47254E-18
 -1      1230 1.18416E-04-3.55482E-05-3.52041E-05-3.52050E-07-2.77387E-19-3.75289E-19
 -1      1231 1.19659E-04-3.59229E-05-3.56528E-05-1.73336E-07-1.54137E-19 9.20123E-19
 -1      1232 1.18337E-04-3.55177E-05-3.53572E-05-3.64080E-08 7.97170E-20-4.44031E-19
 -1      1233 1.15539E-04-3.46696E-05-3.46016E-05 4.57099E-08-3.53986E-19 2.34205E-19
 -1      1234 1.12160E-04-3.36502E-05-3.36422E-05 8.34318E-08 5.18462E-19-1.87644E-18
 -1      1235 1.08784E-04-3.26353E-05-3.26585E-05 9.26642E-08 2.57292E-20-2.63528E-18
 -1      1236 1.05730E-04-3.17188E-05-3.17542E-05 8.66709E-08-9.48156E-20-8.36630E-19
 -1      1237 1.03130E-04-3.09393E-05-3.09761E-05 7.41881E-08-2.57445E-19-7.94173E-19
 -1      1238 1.01006E-04-3.03029E-05-3.03361E-05 6.01758E-08-2.13444E-19-1.68606E-19
 -1      1239 9.93236E-05-2.97986E-05-2.98264E-05 4.71035E-08 3.12170E-20-2.25403E-19
 -1      1240 9.80224E-05-2.94087E-05-2.94308E-05 3.60001E-08-1.60715E-19-6.61612E-19
 -1      1241 9.70382E-05-2.91136E-05-2.91309E-05 2.71261E-08-6.45416E-20-2.14892E-18
 -1      1242 9.63114E-05-2.88957E-05-2.89091E-05 2.03384E-08 3.12031E-19-3.13181E-18
 -1      1243 9.57925E-05-2.87401E-05-2.87510E-05 1.52812E-08 3.07860E-19-6.90249E-18
 -1      1244 9.54446E-05-2.86357E-05-2.86456E-05 1.12800E-08 3.10355E-19-9.08653E-18
 -1      1245 9.52450E-05-2.85755E-05-2.85850E-05 6.50437E-09 2.25078E-19-9.23168E-18
 -1      1246 9.51812E-05-2.85550E-05-2.85598E-05-2.72511E-09 3.54563E-19-8.93998E-18
 -1      1247 9.52118E-05-2.85648E-05-2.85495E-05-8.51498E-09-1.06111E-19-4.62289E-18
 -1      1248 9.52439E-05-2.85975E-05-2.85504E-05-8.90018E-09-5.42774E-18-9.02816E-19
 -1      1249 9.52487E-05-2.86217E-05-2.85621E-05-1.18900E-08-7.01796E-18-6.13867E-19
 -1      1250 9.52269E-05-2.85467E-05-2.85894E-05 8.34071E-11-2.83166E-18-2.55495E-19
 -1      1251 9.51714E-05-2.83573E-05-2.86430E-05 7.60069E-09-4.03689E-18-7.65415E-19
 -1      1252 9.50949E-05-2.80961E-05-2.87159E-05 1.10208E-08-3.26823E-18-1.42748E-18
 -1      1253 9.50141E-05-2.78206E-05-2.87933E-05 1.11100E-08-6.15306E-18 1.22132E-19
 -1      1254 9.49439E-05-2.75809E-05-2.88611E-05 8.89492E-09-1.79797E-18-3.29687E-19
 -1      1255 9.48960E-05-2.74177E-05-2.89075E-05 4.84854E-09 8.60437E-19-4.26019E-21
 -1      1256 9.48794E-05-2.73611E-05-2.89236E-05-3.43869E-11 4.17043E-19 4.18748E-19
 -1      1257 9.48968E-05-2.74204E-05-2.89067E-05-4.89557E-09 1.10149E-18 7.20262E-19
 -1      1258 9.49451E-05-2.75853E-05-2.88599E-05-8.86388E-09 1.21989E-18-1.20316E-18
 -1      1259 9.50156E-05-2.78255E-05-2.87920E-05-1.11466E-08-2.75089E-18 6.03573E-19
 -1      1260 9.50959E-05-2.80999E-05-2.87148E-05-1.08964E-08-1.74333E-18 1.16805E-20
 -1      1261 9.51719E-05-2.83592E-05-2.86424E-05-7.60920E-09-4.34504E-18 8.04183E-20
 -1      1262 9.52289E-05-2.85498E-05-2.85892E-05-3.49787E-10-4.46639E-18-3.38649E-19
 -1      1263 9.52440E-05-2.86143E-05-2.85617E-05 1.93679E-08-3.65513E-18-1.09752E-18
 -1      1264 9.52453E-05-2.86002E-05-2.85503E-05 1.06562E-08-2.01327E-18 5.09360E-19
 -1      1265 3.29240E-05-1.05147E-04 1.77831E-05-1.36171E-05 1.94691E-18 9.27766E-19
 -1      1266 1.72048E-05-6.44605E-05 9.29200E-06-2.50170E-05 7.98329E-18 2.37635E-18
 -1      1267 8.50341E-06-7.85542E-06-6.66717E-06 1.73634E-06 8.99380E-18 6.18842E-18
 -1      1268 3.63813E-05 2.38051E-05-2.65000E-05 5.41683E-05 6.32564E-18 5.46844E-18
 -1      1269 1.12434E-04 1.00931E-05-4.71783E-05 1.00687E-04 3.71932E-18 5.94617E-18
 -1      1270 2.12342E-04-3.62911E-05-6.46815E-05 1.07792E-04 2.85874E-18 8.01124E-18
 -1      1271 2.88832E-04-8.08335E-05-7.50981E-05 6.19207E-05 1.53816E-18 8.12728E-18
 -1      1272 3.10046E-04-9.33362E-05-7.78270E-05-1.47007E-05-4.82279E-20 4.20192E-18
 -1      1273 2.64827E-04-6.60256E-05-7.20311E-05-8.35133E-05-1.03338E-19 1.06557E-18
 -1      1274 1.75106E-04-1.68473E-05-5.88655E-05-1.11858E-04 1.48104E-18-2.40388E-18
 -1      1275 8.30661E-05 2.01771E-05-4.09180E-05-9.02249E-05 5.50995E-18-6.64751E-18
 -1      1276 2.32535E-05 1.94545E-05-2.07126E-05-3.81550E-05 6.61533E-18-5.92330E-18
 -1      1277 7.51304E-06-2.06950E-05-1.91076E-06 9.85613E-06 7.16251E-18-3.92684E-18
 -1      1278 2.17571E-05-7.64754E-05 1.20611E-05 2.56691E-05 3.86162E-18-1.44525E-18
 -1      1279 3.60386E-05-1.10532E-04 1.86120E-05 8.32123E-06 9.02302E-19-1.06859E-19
 -1      1280 3.10901E-05-9.99422E-05 1.68051E-05-1.74395E-05 1.02491E-19 3.53372E-20
 -1      1281 1.43090E-05-5.50583E-05 7.21892E-06-2.35003E-05-2.61733E-18-6.42898E-19
 -1      1282 8.40549E-06-1.22207E-06-8.74035E-06 6.05986E-06-2.79860E-18-2.34205E-18
 -1      1283 4.05044E-05 2.59172E-05-2.84857E-05 5.96558E-05-3.74389E-18-3.82859E-18
 -1      1284 1.21943E-04 7.05947E-06-4.89911E-05 1.03539E-04-3.44319E-18-5.53451E-18
 -1      1285 2.27827E-04-4.45775E-05-6.68576E-05 9.97269E-05-2.10107E-18-5.15674E-18
 -1      1286 2.99421E-04-8.67787E-05-7.64116E-05 4.13396E-05-4.02076E-19-2.36449E-18
 -1      1287 3.00699E-04-8.86098E-05-7.63796E-05-4.16153E-05-1.97570E-19 7.51742E-19
 -1      1288 2.28273E-04-4.48219E-05-6.71209E-05-9.95435E-05 3.31613E-19-3.71847E-19
 -1      1289 1.26860E-04 5.08127E-06-5.00250E-05-1.05396E-04-2.69356E-19 5.62430E-19
 -1      1290 4.29475E-05 2.58463E-05-2.93774E-05-6.20959E-05-4.83486E-18 4.52316E-18
 -1      1291 8.71267E-06-7.15958E-07-8.98321E-06-6.99744E-06-8.53979E-18 5.67597E-18
 -1      1292 1.55529E-05-5.78165E-05 7.83968E-06 2.37620E-05-7.51064E-18 3.46394E-18
 -1      1293 3.30608E-05-1.04313E-04 1.74931E-05 1.39080E-05-2.94640E-18 1.01257E-18
 -1      1294 1.04232E-04-2.19677E-05-3.78197E-05-1.72487E-05-2.45640E-19 3.74431E-18
 -1      1295 9.02333E-05-6.67572E-06-3.59816E-05-2.04312E-05-6.25269E-19-2.65651E-19
 -1      1296 9.25313E-05-6.73388E-06-3.71709E-05-2.57131E-05-8.16540E-19 6.60845E-19
 -1      1297 8.58814E-05-4.09505E-06-3.51202E-05-1.63888E-05-5.92791E-19-1.52956E-18
 -1      1298 8.71058E-05-4.08997E-06-3.55774E-05-1.88092E-05-6.96579E-19-9.92431E-19
 -1      1299 9.20645E-05-1.04571E-05-3.50661E-05-1.89816E-05-1.10368E-18-2.33146E-19
 -1      1300 8.41272E-05-3.19422E-06-3.46971E-05-1.27714E-05-4.22259E-19-2.15902E-18
 -1      1301 8.47130E-05-3.16309E-06-3.49119E-05-1.45884E-05-5.02688E-19-1.85754E-18
 -1      1302 8.78608E-05-7.39159E-06-3.45706E-05-1.53618E-05-9.10190E-19-1.22746E-18
 -1      1303 8.32423E-05-2.72594E-06-3.44946E-05-9.63728E-06-3.05726E-19-2.46933E-18
 -1      1304 8.35447E-05-2.70964E-06-3.45975E-05-1.11838E-05-3.28702E-19-2.34631E-18
 -1      1305 8.59026E-05-5.98196E-06-3.43200E-05-1.18989E-05-6.26950E-19-1.79550E-18
 -1      1306 8.27662E-05-2.45011E-06-3.43981E-05-6.87262E-06-1.77705E-19-2.51971E-18
 -1      1307 8.29277E-05-2.44180E-06-3.44482E-05-8.23968E-06-2.28156E-19-2.50015E-18
 -1      1308 8.48767E-05-5.20437E-06-3.42014E-05-8.88922E-06-4.49579E-19-2.01316E-18
 -1      1309 8.24998E-05-2.27982E-06-3.43513E-05-4.26450E-06-6.67551E-20-2.47985E-18
 -1      1310 8.25865E-05-2.27603E-06-3.43760E-05-5.55915E-06-9.55327E-20-2.51709E-18
 -1      1311 8.43025E-05-4.73957E-06-3.41472E-05-6.17179E-06-2.37581E-19-2.09670E-18
 -1      1312 8.23710E-05-2.18692E-06-3.43320E-05-1.77618E-06 5.52981E-20-2.40610E-18
 -1      1313 8.24081E-05-2.18544E-06-3.43419E-05-3.01863E-06 2.54275E-20-2.43957E-18
 -1      1314 8.39849E-05-4.46783E-06-3.41237E-05-3.61502E-06-6.25059E-20-2.00206E-18
 -1      1315 8.23455E-05-2.15819E-06-3.43300E-05 6.64747E-07 1.66510E-19-2.29842E-18
 -1      1316 8.23441E-05-2.15824E-06-3.43296E-05-5.61834E-07 1.21553E-19-2.36735E-18
 -1      1317 8.38451E-05-4.34357E-06-3.41154E-05-1.16043E-06 1.71468E-19-1.97495E-18
 -1      1318 8.24170E-05-2.18985E-06-3.43435E-05 3.12524E-06 3.24395E-19-2.17793E-18
 -1      1319 8.23770E-05-2.19138E-06-3.43329E-05 1.88014E-06 2.73171E-19-2.22103E-18
 -1      1320 8.38501E-05-4.34785E-06-3.41158E-05 1.26278E-06 3.40942E-19-1.87401E-18
 -1      1321 8.26042E-05-2.28658E-06-3.43787E-05 5.67512E-06 4.26508E-19-2.11621E-18
 -1      1322 8.25140E-05-2.28976E-06-3.43533E-05 4.37441E-06 4.02418E-19-2.17223E-18
 -1      1323 8.40009E-05-4.48156E-06-3.41249E-05 3.72171E-06 6.19549E-19-1.78308E-18
 -1      1324 8.29514E-05-2.45728E-06-3.44513E-05 8.34814E-06 5.41115E-19-1.86732E-18
 -1      1325 8.27867E-05-2.46577E-06-3.44005E-05 6.97200E-06 4.62050E-19-2.00475E-18
 -1      1326 8.43289E-05-4.76292E-06-3.41485E-05 6.26515E-06 7.27940E-19-1.68311E-18
 -1      1327 8.35869E-05-2.73976E-06-3.46026E-05 1.13457E-05 7.05009E-19-1.48734E-18
 -1      1328 8.32792E-05-2.75667E-06-3.44984E-05 9.78156E-06 6.12650E-19-1.70611E-18
 -1      1329 8.49201E-05-5.24583E-06-3.42026E-05 8.99915E-06 9.55767E-19-1.39715E-18
 -1      1330 8.47711E-05-3.20551E-06-3.49199E-05 1.47969E-05 8.19875E-19-8.45445E-19
 -1      1331 8.41797E-05-3.24215E-06-3.47025E-05 1.29553E-05 7.34854E-19-1.26504E-18
 -1      1332 8.59800E-05-6.05943E-06-3.43218E-05 1.20649E-05 1.17317E-18-1.04799E-18
 -1      1333 8.72064E-05-4.09226E-06-3.55983E-05 1.90482E-05 8.91026E-19 4.22405E-19
 -1      1334 8.59530E-05-4.15632E-06-3.51275E-05 1.66492E-05 7.97058E-19-3.27855E-19
 -1      1335 8.79845E-05-7.51738E-06-3.45723E-05 1.55949E-05 1.29674E-18-2.76000E-19
 -1      1336 9.33405E-05-6.78477E-06-3.70660E-05 2.50515E-05 6.85038E-19 2.69743E-18
 -1      1337 9.00478E-05-6.43246E-06-3.60037E-05 2.11086E-05 6.93879E-19 1.29480E-18
 -1      1338 9.22933E-05-1.06919E-05-3.50509E-05 1.96251E-05 1.28775E-18 1.13714E-18
 -1      1339 1.23373E-04-2.48699E-05-3.89395E-05 2.83152E-05 2.67345E-19 6.81014E-18
 -1      1340 9.99125E-05-1.43947E-05-3.72926E-05 2.40101E-05 3.08744E-19 4.00011E-18
 -1      1341 1.01530E-04-1.93116E-05-3.53518E-05 2.13529E-05 1.06712E-18 3.20983E-18
 -1      1342 1.02387E-04-2.77427E-05-3.46880E-05 7.31538E-06 5.08432E-19 6.69876E-18
 -1      1343 1.04938E-04-3.01690E-05-3.34605E-05-7.94047E-06-6.27651E-19 3.95183E-18
 -1      1344 9.80677E-05-2.77868E-05-3.07024E-05-4.97368E-06-5.73918E-19 3.26012E-18
 -1      1345 9.53230E-05-2.77953E-05-2.92000E-05-2.47504E-06-4.98294E-19 2.89020E-18
 -1      1346 9.31041E-05-2.75076E-05-2.81651E-05-2.02800E-06-4.96917E-19 2.19093E-18
 -1      1347 9.93373E-05-2.80086E-05-3.09377E-05-7.85616E-06-1.05201E-18 1.61587E-18
 -1      1348 9.14323E-05-2.71546E-05-2.75364E-05-8.19307E-07-4.31438E-19 1.98343E-18
 -1      1349 9.07327E-05-2.70636E-05-2.72395E-05-7.07897E-07-3.73416E-19 1.39078E-18
 -1      1350 9.46016E-05-2.77336E-05-2.87823E-05-3.08524E-06-8.37054E-19 1.16279E-18
 -1      1351 9.00075E-05-2.68876E-05-2.70041E-05-1.45492E-07-2.46930E-19 1.09903E-18
 -1      1352 8.99608E-05-2.69212E-05-2.69773E-05-8.51590E-08-3.08863E-19 7.19157E-19
 -1      1353 9.24441E-05-2.74732E-05-2.78755E-05-1.00321E-06-6.12226E-19 6.88916E-19
 -1      1354 8.97382E-05-2.68640E-05-2.69146E-05 1.98812E-07-2.16541E-19 5.65858E-19
 -1      1355 8.99938E-05-2.69653E-05-2.69888E-05 2.31117E-07-1.71415E-19 4.11182E-19
 -1      1356 9.15462E-05-2.73447E-05-2.75284E-05 6.72734E-09-4.24751E-19 2.35210E-19
 -1      1357 9.00521E-05-2.69837E-05-2.70123E-05 3.82781E-07-1.36107E-19 4.61289E-19
 -1      1358 9.04585E-05-2.71213E-05-2.71308E-05 3.99851E-07-1.62026E-19 2.22227E-19
 -1      1359 9.13827E-05-2.73559E-05-2.74495E-05 5.35430E-07-2.94427E-19 2.03420E-19
 -1      1360 9.06800E-05-2.71853E-05-2.72027E-05 4.83585E-07-9.52829E-21 2.95383E-19
 -1      1361 9.11646E-05-2.73412E-05-2.73440E-05 4.92798E-07-2.35647E-20 1.93216E-19
 -1      1362 9.16468E-05-2.74643E-05-2.75137E-05 8.23663E-07-1.18894E-19 2.25991E-19
 -1      1363 9.14862E-05-2.74335E-05-2.74458E-05 5.43335E-07-1.34555E-19 2.15269E-19
 -1      1364 9.20158E-05-2.75991E-05-2.76008E-05 5.49425E-07-8.03445E-20 3.61312E-20
 -1      1365 9.21685E-05-2.76340E-05-2.76626E-05 9.89439E-07-1.28257E-19 7.19209E-20
 -1      1366 9.24057E-05-2.77106E-05-2.77231E-05 5.88110E-07-1.20392E-19 8.13516E-20
 -1      1367 9.29704E-05-2.78842E-05-2.78892E-05 5.94395E-07-3.10741E-19-2.25317E-19
 -1      1368 9.28565E-05-2.78437E-05-2.78666E-05 1.10006E-06-2.43424E-19 9.53168E-20
 -1      1369 9.34167E-05-2.80116E-05-2.80287E-05 6.35573E-07-2.33893E-19-3.89645E-19
 -1      1370 9.40221E-05-2.81955E-05-2.82074E-05 6.44495E-07 5.29396E-21-6.89617E-19
 -1      1371 9.36682E-05-2.80836E-05-2.81116E-05 1.19857E-06-3.77989E-19 2.21294E-19
 -1      1372 9.45257E-05-2.83392E-05-2.83645E-05 6.98188E-07 6.39626E-20-7.49303E-19
 -1      1373 9.51887E-05-2.85393E-05-2.85607E-05 7.11543E-07-1.41435E-19-8.25530E-19
 -1      1374 9.45925E-05-2.83522E-05-2.83933E-05 1.31443E-06-1.36838E-19-4.47352E-19
 -1      1375 9.57594E-05-2.87022E-05-2.87385E-05 7.84462E-07-2.65159E-19-9.25969E-19
 -1      1376 9.65039E-05-2.89265E-05-2.89590E-05 8.03445E-07-9.96389E-20-1.11297E-18
 -1      1377 9.56397E-05-2.86543E-05-2.87139E-05 1.46794E-06-3.08787E-19-1.05128E-18
 -1      1378 9.71567E-05-2.91133E-05-2.91621E-05 8.98956E-07 1.69353E-19-1.03006E-18
 -1      1379 9.80106E-05-2.93712E-05-2.94148E-05 9.24036E-07 6.03759E-21-1.01050E-18
 -1      1380 9.68339E-05-2.89988E-05-2.90796E-05 1.67141E-06-3.79254E-20-6.62856E-19
 -1      1381 9.87618E-05-2.95870E-05-2.96480E-05 1.04119E-06-8.28802E-20-1.09261E-18
 -1      1382 9.97515E-05-2.98877E-05-2.99405E-05 1.07175E-06-1.71440E-19-9.92547E-19
 -1      1383 9.82058E-05-2.93970E-05-2.94986E-05 1.92800E-06-2.07996E-19-1.00794E-18
 -1      1384 1.00614E-04-3.01373E-05-3.02073E-05 1.20321E-06-4.54007E-19-1.31866E-18
 -1      1385 1.01757E-04-3.04879E-05-3.05441E-05 1.23692E-06-5.19266E-19-1.77526E-18
 -1      1386 9.97848E-05-2.98613E-05-2.99775E-05 2.22819E-06-4.98811E-19-1.30648E-18
 -1      1387 1.02733E-04-3.07737E-05-3.08443E-05 1.36563E-06-5.22259E-19-2.01178E-18
 -1      1388 1.04026E-04-3.11755E-05-3.12237E-05 1.39741E-06-5.39547E-19-2.64454E-18
 -1      1389 1.01588E-04-3.04025E-05-3.05185E-05 2.54343E-06-9.49574E-19-1.41974E-18
 -1      1390 1.05099E-04-3.14953E-05-3.15503E-05 1.49205E-06 4.25212E-21-2.98638E-18
 -1      1391 1.06502E-04-3.19388E-05-3.19589E-05 1.51262E-06-2.52298E-20-2.97883E-18
 -1      1392 1.03604E-04-3.10258E-05-3.11138E-05 2.81680E-06-4.17518E-19-1.69984E-18
 -1      1393 1.07621E-04-3.22822E-05-3.22941E-05 1.52282E-06 1.27758E-20-2.87300E-18
 -1      1394 1.09030E-04-3.27392E-05-3.27003E-05 1.51728E-06 4.06088E-20-2.74077E-18
 -1      1395 1.05774E-04-3.17251E-05-3.17393E-05 2.95186E-06 5.24453E-21-2.01143E-18
 -1      1396 1.10101E-04-3.30835E-05-3.30112E-05 1.37177E-06 1.46664E-19-2.87377E-18
 -1      1397 1.11328E-04-3.34973E-05-3.33581E-05 1.31902E-06-1.69463E-19-2.82258E-18
 -1      1398 1.07964E-04-3.24738E-05-3.23476E-05 2.80423E-06 1.27832E-20-2.23514E-18
 -1      1399 1.12198E-04-3.38014E-05-3.35946E-05 9.33752E-07-3.91349E-19-3.03100E-18
 -1      1400 1.12949E-04-3.40789E-05-3.37977E-05 8.09517E-07-2.62994E-19-3.21993E-18
 -1      1401 1.09941E-04-3.32101E-05-3.28629E-05 2.18770E-06-3.49868E-19-2.46406E-18
 -1      1402 1.13409E-04-3.42787E-05-3.38959E-05 1.17575E-07 2.38506E-19-2.83519E-18
 -1      1403 1.13316E-04-3.42919E-05-3.38528E-05-9.47895E-08 6.06376E-19-2.40926E-18
 -1      1404 1.11351E-04-3.38187E-05-3.31840E-05 9.16839E-07 5.63409E-20-2.72145E-18
 -1      1405 1.13130E-04-3.43016E-05-3.37498E-05-1.08147E-06 4.43448E-19-2.18925E-18
 -1      1406 1.11843E-04-3.39146E-05-3.33718E-05-1.36941E-06 1.70035E-19-1.79682E-18
 -1      1407 1.11749E-04-3.41167E-05-3.32018E-05-1.08630E-06 6.90980E-19-2.19729E-18
 -1      1408 1.10833E-04-3.36464E-05-3.30347E-05-2.47656E-06 2.42331E-19-1.30777E-18
 -1      1409 1.08225E-04-3.27834E-05-3.23024E-05-2.77133E-06 2.56691E-19-1.41068E-18
 -1      1410 1.10692E-04-3.38707E-05-3.28389E-05-3.61712E-06 4.22517E-19-1.51269E-18
 -1      1411 1.06406E-04-3.21984E-05-3.17650E-05-3.61398E-06 5.34881E-19-6.38028E-19
 -1      1412 1.02817E-04-3.09455E-05-3.07881E-05-3.78240E-06 7.02819E-19 3.06097E-19
 -1      1413 1.07969E-04-3.28875E-05-3.21048E-05-6.01783E-06 1.05761E-18-1.55708E-19
 -1      1414 1.00551E-04-3.01377E-05-3.01721E-05-3.86289E-06 2.15072E-19 2.92809E-19
 -1      1415 9.69066E-05-2.88159E-05-2.92041E-05-3.76127E-06 1.18757E-19 8.90973E-19
 -1      1416 1.03909E-04-3.12035E-05-3.11402E-05-7.20904E-06 6.71458E-19 1.21907E-19
 -1      1417 9.49184E-05-2.80589E-05-2.86960E-05-2.77535E-06-9.66941E-20 4.58033E-19
 -1      1418 9.24829E-05-2.71536E-05-2.80600E-05-2.36614E-06-4.80426E-21 1.70465E-20
 -1      1419 9.95972E-05-2.92708E-05-3.02073E-05-6.16593E-06-5.64600E-20 1.14323E-19
 -1      1420 9.15867E-05-2.68006E-05-2.78388E-05-5.40009E-07-6.63862E-20-2.06597E-19
 -1      1421 9.13436E-05-2.67094E-05-2.77757E-05 2.51617E-08-3.19146E-19-3.64112E-19
 -1      1422 9.66401E-05-2.78872E-05-2.96057E-05-2.74214E-06-5.75744E-19-5.62039E-19
 -1      1423 9.19514E-05-2.69496E-05-2.79251E-05 1.94013E-06 3.14540E-19-4.59899E-19
 -1      1424 9.40039E-05-2.77147E-05-2.84598E-05 2.39864E-06 1.97862E-19-1.95135E-19
 -1      1425 9.63434E-05-2.77458E-05-2.95467E-05 1.85477E-06-9.88646E-21-9.98510E-19
 -1      1426 9.58345E-05-2.84179E-05-2.89234E-05 3.59251E-06-5.80065E-19 3.09855E-19
 -1      1427 9.93404E-05-2.96969E-05-2.98509E-05 3.75890E-06-6.08269E-19-3.14249E-19
 -1      1428 9.88465E-05-2.89223E-05-3.00520E-05 5.65258E-06-3.19345E-19-8.34830E-19
 -1      1429 1.01621E-04-3.05224E-05-3.04628E-05 3.88339E-06-3.15851E-19-5.07902E-19
 -1      1430 1.05316E-04-3.18232E-05-3.14636E-05 3.75976E-06-5.52980E-19-9.10560E-19
 -1      1431 1.03026E-04-3.08151E-05-3.09442E-05 7.20731E-06-1.00794E-18-5.46548E-19
 -1      1432 1.07273E-04-3.24677E-05-3.20312E-05 3.03437E-06-7.74175E-19-9.94258E-19
 -1      1433 1.10131E-04-3.34253E-05-3.28284E-05 2.75363E-06-3.89516E-19-1.41460E-18
 -1      1434 1.07257E-04-3.26017E-05-3.19298E-05 6.40508E-06-9.14571E-19-8.52989E-19
 -1      1435 1.11324E-04-3.37601E-05-3.32140E-05 1.66605E-06 8.54444E-20-1.61770E-18
 -1      1436 1.12889E-04-3.42435E-05-3.36685E-05 1.36971E-06-1.84746E-19-1.55452E-18
 -1      1437 1.10314E-04-3.37446E-05-3.27308E-05 4.16123E-06-3.91885E-19-3.98185E-19
 -1      1438 1.13244E-04-3.42868E-05-3.38217E-05 3.42897E-07-5.03521E-20-1.27015E-18
 -1      1439 1.13570E-04-3.43485E-05-3.39314E-05 1.14182E-07 1.39522E-19-1.20322E-18
 -1      1440 1.11723E-04-3.41336E-05-3.31799E-05 1.59721E-06 1.05786E-19-6.19093E-19
 -1      1441 1.13240E-04-3.41849E-05-3.38750E-05-6.34931E-07 3.90687E-19-1.12261E-18
 -1      1442 1.12652E-04-3.39565E-05-3.37204E-05-7.74218E-07 4.49616E-19-6.68971E-19
 -1      1443 1.11618E-04-3.39339E-05-3.32445E-05-5.26875E-07 1.51473E-19 2.28887E-19
 -1      1444 1.11873E-04-3.36752E-05-3.35147E-05-1.20784E-06-9.49603E-20-1.24373E-18
 -1      1445 1.10751E-04-3.32904E-05-3.31997E-05-1.27066E-06-3.99197E-20-1.25807E-18
 -1      1446 1.10418E-04-3.33831E-05-3.29902E-05-1.92508E-06 1.53945E-19-7.91781E-19
 -1      1447 1.09743E-04-3.29607E-05-3.29106E-05-1.44580E-06-8.62621E-20-1.36537E-18
 -1      1448 1.08401E-04-3.25213E-05-3.25255E-05-1.45598E-06-6.51206E-20-1.17728E-18
 -1      1449 1.08586E-04-3.26786E-05-3.25246E-05-2.63433E-06-3.09667E-19-2.62912E-18
 -1      1450 1.07331E-04-3.21893E-05-3.22073E-05-1.45610E-06 3.02990E-19-1.27983E-18
 -1      1451 1.05982E-04-3.17596E-05-3.18155E-05-1.43565E-06 1.32897E-19-9.69634E-19
 -1      1452 1.06500E-04-3.19496E-05-3.19541E-05-2.82868E-06 4.17399E-20-2.22910E-18
 -1      1453 1.04959E-04-3.14521E-05-3.15052E-05-1.33526E-06-4.68352E-19 3.89198E-19
 -1      1454 1.03726E-04-3.10667E-05-3.11442E-05-1.30025E-06-1.28428E-20-5.19926E-19
 -1      1455 1.04423E-04-3.12685E-05-3.13616E-05-2.69809E-06 3.65531E-20-1.51745E-18
 -1      1456 1.02810E-04-3.07969E-05-3.08634E-05-1.15355E-06-1.61318E-19-1.35197E-18
 -1      1457 1.01748E-04-3.04698E-05-3.05509E-05-1.11415E-06-1.24459E-18-1.80284E-18
 -1      1458 1.02511E-04-3.06694E-05-3.08015E-05-2.39559E-06-7.21140E-19-1.36538E-18
 -1      1459 1.00965E-04-3.02422E-05-3.03092E-05-9.55692E-07-1.02223E-18-1.59385E-18
 -1      1460 1.00089E-04-2.99752E-05-3.00503E-05-9.17656E-07-8.08147E-19-2.69955E-18
 -1      1461 1.00843E-04-3.01634E-05-3.03037E-05-2.02609E-06-1.12844E-18-7.07650E-19
 -1      1462 9.94421E-05-2.97889E-05-2.98500E-05-7.66963E-07-7.43189E-20-2.15374E-18
 -1      1463 9.87415E-05-2.95774E-05-2.96424E-05-7.33077E-07 1.54633E-19-1.98279E-18
 -1      1464 9.94429E-05-2.97487E-05-2.98803E-05-1.65326E-06-4.77050E-19-1.19163E-18
 -1      1465 9.82225E-05-2.94287E-05-2.94812E-05-5.99494E-07 8.13119E-20-2.01860E-18
 -1      1466 9.76774E-05-2.92654E-05-2.93193E-05-5.70733E-07 3.73336E-19-1.72331E-18
 -1      1467 9.83023E-05-2.94169E-05-2.95323E-05-1.31104E-06 4.47505E-19-1.19750E-18
 -1      1468 9.72708E-05-2.91493E-05-2.91930E-05-4.57215E-07 3.96688E-19-6.12284E-19
 -1      1469 9.68573E-05-2.90262E-05-2.90699E-05-4.33493E-07 6.21110E-19 4.22210E-20
 -1      1470 9.73969E-05-2.91570E-05-2.92541E-05-1.01381E-06 1.11760E-18-4.85855E-19
 -1      1471 9.65467E-05-2.89376E-05-2.89735E-05-3.39175E-07 6.28780E-19-2.70038E-19
 -1      1472 9.62421E-05-2.88474E-05-2.88828E-05-3.19800E-07 9.14961E-20 4.34187E-19
 -1      1473 9.66953E-05-2.89574E-05-2.90375E-05-7.63927E-07 1.01979E-18 1.79718E-19
 -1      1474 9.60119E-05-2.87815E-05-2.88115E-05-2.41625E-07 9.32335E-19 8.74461E-19
 -1      1475 9.57976E-05-2.87182E-05-2.87477E-05-2.25544E-07 6.60551E-19 1.53514E-18
 -1      1476 9.61657E-05-2.88075E-05-2.88736E-05-5.56668E-07 1.11071E-18 1.03447E-18
 -1      1477 9.56343E-05-2.86711E-05-2.86976E-05-1.59314E-07-7.82372E-19 1.67121E-18
 -1      1478 9.54968E-05-2.86306E-05-2.86568E-05-1.45256E-07-1.05421E-18 5.74175E-19
 -1      1479 9.57794E-05-2.86978E-05-2.87542E-05-3.83412E-07-6.88984E-20 1.75559E-18
 -1      1480 9.53895E-05-2.85991E-05-2.86244E-05-8.72040E-08 1.16747E-19 1.27091E-19
 -1      1481 9.53199E-05-2.85796E-05-2.86030E-05-7.39455E-08 8.32776E-19 1.22167E-18
 -1      1482 9.55128E-05-2.86212E-05-2.86720E-05-2.34433E-07-6.24719E-19 2.38765E-18
 -1      1483 9.52563E-05-2.85594E-05-2.85842E-05-2.31030E-08 9.60382E-19 1.53305E-18
 -1      1484 9.52471E-05-2.85635E-05-2.85766E-05-1.02576E-08 2.03313E-19 2.05103E-18
 -1      1485 9.53443E-05-2.85736E-05-2.86192E-05-1.04908E-07 1.22469E-18 1.81199E-18
 -1      1486 9.52249E-05-2.85750E-05-2.85589E-05 1.63782E-08-2.12534E-18 2.14674E-18
 -1      1487 9.52558E-05-2.85716E-05-2.85786E-05-1.30419E-09-1.12352E-18 3.58219E-19
 -1      1488 9.63816E-05-2.83053E-05-2.97129E-05 2.98406E-06 4.77356E-19 5.64791E-18
 -1      1489 1.02325E-04-2.93363E-05-3.20916E-05 4.44959E-06 3.98741E-19 6.36429E-18
 -1      1490 1.02151E-04-2.66706E-05-3.26508E-05 1.27518E-05 8.37557E-19 4.29361E-18
 -1      1491 9.18625E-05-2.73783E-05-2.77114E-05 1.13934E-06 4.59277E-19 4.58531E-18
 -1      1492 9.37966E-05-2.75302E-05-2.86213E-05 1.46140E-06 4.13855E-19 5.21029E-18
 -1      1493 9.63383E-05-2.79860E-05-2.94889E-05 4.84227E-06 8.05290E-19 3.48893E-18
 -1      1494 9.00650E-05-2.69632E-05-2.70237E-05 3.13615E-07 2.00919E-19 3.70360E-18
 -1      1495 9.06637E-05-2.69759E-05-2.72910E-05 4.77501E-07 2.66200E-19 4.10652E-18
 -1      1496 9.29273E-05-2.75427E-05-2.80651E-05 1.82043E-06 6.64286E-19 2.64904E-18
 -1      1497 8.96007E-05-2.68600E-05-2.68644E-05-8.37831E-08 3.21353E-19 3.06957E-18
 -1      1498 8.96127E-05-2.67898E-05-2.68846E-05 7.49111E-09 2.55998E-19 3.50036E-18
 -1      1499 9.14211E-05-2.72838E-05-2.74965E-05 4.71027E-07 5.13275E-19 2.12873E-18
 -1      1500 8.98150E-05-2.69359E-05-2.69317E-05-2.87884E-07 2.24785E-19 2.44151E-18
 -1      1501 8.95457E-05-2.68155E-05-2.68539E-05-2.33961E-07 1.73982E-19 2.75139E-18
 -1      1502 9.09592E-05-2.72215E-05-2.73226E-05-2.05101E-07 4.46267E-19 1.79638E-18
 -1      1503 9.03940E-05-2.71146E-05-2.71087E-05-3.95878E-07-2.35258E-20 2.28049E-18
 -1      1504 8.99829E-05-2.69669E-05-2.69874E-05-3.62496E-07 1.67264E-20 2.26379E-18
 -1      1505 9.10812E-05-2.72930E-05-2.73447E-05-5.63752E-07 1.26990E-19 1.47262E-18
 -1      1506 9.11773E-05-2.73515E-05-2.73460E-05-4.55439E-07 1.82633E-19 2.11964E-18
 -1      1507 9.06920E-05-2.71899E-05-2.72025E-05-4.33339E-07 1.15166E-19 2.23700E-18
 -1      1508 9.15396E-05-2.74475E-05-2.74746E-05-7.61180E-07 1.80416E-19 1.23656E-18
 -1      1509 9.20860E-05-2.76238E-05-2.76208E-05-4.94291E-07 2.22335E-19 1.64366E-18
 -1      1510 9.15570E-05-2.74538E-05-2.74638E-05-4.77438E-07 2.47658E-19 2.02335E-18
 -1      1511 9.22023E-05-2.76532E-05-2.76699E-05-8.78852E-07 3.41724E-19 1.23858E-18
 -1      1512 9.30907E-05-2.79230E-05-2.79248E-05-5.30741E-07 3.36609E-19 8.99043E-19
 -1      1513 9.25257E-05-2.77447E-05-2.77565E-05-5.14748E-07 2.85120E-19 1.43128E-18
 -1      1514 9.30036E-05-2.78938E-05-2.79101E-05-9.65716E-07 5.22680E-19 8.63358E-19
 -1      1515 9.41954E-05-2.82506E-05-2.82595E-05-5.77920E-07 1.92078E-19 5.67069E-19
 -1      1516 9.35865E-05-2.80598E-05-2.80775E-05-5.59339E-07 1.04912E-19 8.35717E-19
 -1      1517 9.39194E-05-2.81639E-05-2.81872E-05-1.05458E-06 3.73494E-19 6.08349E-19
 -1      1518 9.54280E-05-2.86154E-05-2.86331E-05-6.45660E-07-1.27241E-20 5.48752E-19
 -1      1519 9.47555E-05-2.84047E-05-2.84316E-05-6.21629E-07 5.57019E-20 4.76254E-19
 -1      1520 9.49544E-05-2.84661E-05-2.85023E-05-1.16902E-06 8.84612E-20 7.03043E-19
 -1      1521 9.68335E-05-2.90312E-05-2.90590E-05-7.41120E-07-4.74512E-20 7.82301E-19
 -1      1522 9.60691E-05-2.87909E-05-2.88299E-05-7.09246E-07-1.50030E-19 4.47571E-19
 -1      1523 9.61331E-05-2.88088E-05-2.88622E-05-1.32628E-06-1.28736E-19 3.93027E-20
 -1      1524 9.84683E-05-2.95156E-05-2.95539E-05-8.68454E-07 9.81119E-20 7.51484E-19
 -1      1525 9.75781E-05-2.92342E-05-2.92872E-05-8.26927E-07 1.30028E-19 8.00013E-19
 -1      1526 9.74933E-05-2.92042E-05-2.92779E-05-1.53784E-06 6.75815E-20 3.39192E-19
 -1      1527 1.00391E-04-3.00872E-05-3.01349E-05-1.02735E-06 3.49873E-19-1.18188E-20
 -1      1528 9.93401E-05-2.97532E-05-2.98205E-05-9.75362E-07 2.41097E-19 5.06618E-19
 -1      1529 9.90799E-05-2.96673E-05-2.97620E-05-1.80798E-06 3.71196E-19 1.74611E-19
 -1      1530 1.02653E-04-3.07628E-05-3.08159E-05-1.21000E-06 2.06110E-19-3.44359E-19
 -1      1531 1.01410E-04-3.03664E-05-3.04457E-05-1.14866E-06 3.20625E-19 6.02982E-20
 -1      1532 1.00935E-04-3.02136E-05-3.03256E-05-2.12984E-06 4.32215E-19 4.43442E-19
 -1      1533 1.05272E-04-3.15513E-05-3.16008E-05-1.39595E-06-1.41388E-19-7.51133E-19
 -1      1534 1.03826E-04-3.10889E-05-3.11725E-05-1.32992E-06-7.19573E-20-7.15988E-19
 -1      1535 1.03087E-04-3.08557E-05-3.09744E-05-2.47826E-06 2.27992E-19 9.17939E-20
 -1      1536 1.08206E-04-3.24448E-05-3.24735E-05-1.54449E-06 3.01254E-19-1.28626E-18
 -1      1537 1.06583E-04-3.19250E-05-3.19964E-05-1.48452E-06 2.98431E-19-7.41339E-19
 -1      1538 1.05526E-04-3.15988E-05-3.17011E-05-2.79838E-06 3.89059E-19-1.56106E-19
 -1      1539 1.11303E-04-3.34042E-05-3.33827E-05-1.58539E-06-3.33713E-19-1.50745E-18
 -1      1540 1.09594E-04-3.28584E-05-3.28870E-05-1.55175E-06 1.23932E-19-1.37538E-18
 -1      1541 1.08180E-04-3.24327E-05-3.24767E-05-2.99069E-06 4.77827E-19 6.29253E-20
 -1      1542 1.14240E-04-3.43398E-05-3.42257E-05-1.41273E-06-4.19596E-19-3.78465E-19
 -1      1543 1.12640E-04-3.38347E-05-3.37725E-05-1.43820E-06-6.87023E-19-1.50305E-18
 -1      1544 1.10874E-04-3.33191E-05-3.32389E-05-2.89694E-06-6.46112E-19-1.42143E-20
 -1      1545 1.16470E-04-3.50897E-05-3.48356E-05-8.94120E-07-2.74399E-19 3.27914E-19
 -1      1546 1.15314E-04-3.47400E-05-3.45244E-05-1.02260E-06-1.67249E-19 1.64510E-20
 -1      1547 1.13286E-04-3.41745E-05-3.38825E-05-2.30135E-06-5.50955E-19-8.96002E-20
 -1      1548 1.17230E-04-3.54102E-05-3.49923E-05 8.20168E-08 5.83023E-19 2.83041E-19
 -1      1549 1.16982E-04-3.53782E-05-3.49545E-05-1.91162E-07 3.70114E-20 4.47571E-19
 -1      1550 1.14924E-04-3.48475E-05-3.42618E-05-9.77284E-07-1.11173E-19 8.03540E-19
 -1      1551 1.15688E-04-3.50084E-05-3.44802E-05 1.49910E-06 3.40190E-19-7.23975E-19
 -1      1552 1.16845E-04-3.54693E-05-3.48429E-05 1.07530E-06 4.84073E-19 2.16576E-19
 -1      1553 1.15170E-04-3.51064E-05-3.42183E-05 1.17963E-06 6.92476E-19 1.00843E-18
 -1      1554 1.11340E-04-3.36596E-05-3.32075E-05 3.05814E-06 4.48266E-19-2.19027E-18
 -1      1555 1.14178E-04-3.47089E-05-3.40193E-05 2.56480E-06 5.40136E-19-1.63697E-18
 -1      1556 1.13444E-04-3.46678E-05-3.36458E-05 3.91858E-06 1.06107E-18-4.73333E-19
 -1      1557 1.04612E-04-3.14332E-05-3.13522E-05 4.09757E-06-6.31172E-19-1.81959E-18
 -1      1558 1.08811E-04-3.29429E-05-3.24943E-05 3.73116E-06-3.95336E-19-2.60240E-18
 -1      1559 1.09571E-04-3.33263E-05-3.25840E-05 6.40195E-06 1.02762E-19-1.65786E-18
 -1      1560 9.73069E-05-2.89150E-05-2.94247E-05 3.82328E-06-4.04597E-19-1.17759E-18
 -1      1561 1.01712E-04-3.04373E-05-3.05767E-05 3.82508E-06-4.10407E-19-1.44403E-18
 -1      1562 1.04246E-04-3.12126E-05-3.12834E-05 7.29358E-06-9.20149E-19-1.49176E-18
 -1      1563 9.22374E-05-2.71317E-05-2.81201E-05 1.92353E-06-1.01101E-19-3.49586E-19
 -1      1564 9.51444E-05-2.80244E-05-2.88594E-05 2.39324E-06-3.08108E-20-7.49783E-19
 -1      1565 9.92164E-05-2.90177E-05-3.01648E-05 5.49486E-06-2.92491E-19 2.45626E-19
 -1      1566 9.17463E-05-2.69787E-05-2.79778E-05-9.13110E-07 2.69515E-19-1.00943E-18
 -1      1567 9.18241E-05-2.67919E-05-2.79940E-05-1.62565E-07 1.46682E-19-7.16497E-19
 -1      1568 9.66606E-05-2.78053E-05-2.96478E-05 1.23891E-06 4.34157E-19-1.54013E-19
 -1      1569 9.60893E-05-2.85416E-05-2.90583E-05-3.30368E-06-4.42237E-19-4.08270E-19
 -1      1570 9.32948E-05-2.73632E-05-2.83447E-05-2.64491E-06-7.22572E-19-1.02989E-18
 -1      1571 9.78427E-05-2.82872E-05-2.99354E-05-3.60996E-06-4.86951E-19 1.73867E-19
 -1      1572 1.03232E-04-3.10212E-05-3.09107E-05-4.19890E-06 1.13597E-20-4.37916E-19
 -1      1573 9.88447E-05-2.94139E-05-2.97666E-05-3.90669E-06 1.70141E-19-3.92229E-19
 -1      1574 1.02168E-04-3.02017E-05-3.09088E-05-6.75885E-06-2.08919E-19-5.76724E-19
 -1      1575 1.10298E-04-3.33615E-05-3.28429E-05-3.56078E-06 5.11859E-19-6.48139E-19
 -1      1576 1.06034E-04-3.19531E-05-3.16912E-05-3.64848E-06 4.51012E-19-3.93447E-19
 -1      1577 1.07641E-04-3.25262E-05-3.21982E-05-7.12759E-06 2.34708E-19-6.68415E-19
 -1      1578 1.15211E-04-3.48841E-05-3.42819E-05-2.09399E-06-1.42752E-19-5.68412E-19
 -1      1579 1.12274E-04-3.40293E-05-3.34503E-05-2.39350E-06-5.88820E-20-1.02163E-18
 -1      1580 1.12223E-04-3.42946E-05-3.33704E-05-5.27513E-06 2.95204E-19-1.57561E-19
 -1      1581 1.17307E-04-3.54474E-05-3.49744E-05-5.69058E-07-5.73071E-21 2.98341E-19
 -1      1582 1.16054E-04-3.51806E-05-3.45899E-05-8.98790E-07-1.37173E-19-1.59930E-19
 -1      1583 1.14805E-04-3.51161E-05-3.41163E-05-2.54225E-06-4.60680E-19 1.22582E-19
 -1      1584 1.16971E-04-3.52459E-05-3.49662E-05 5.77673E-07 5.23102E-19-5.12468E-19
 -1      1585 1.17143E-04-3.54200E-05-3.49833E-05 3.19986E-07 5.26352E-20 1.77248E-20
 -1      1586 1.15286E-04-3.51002E-05-3.43344E-05-5.16524E-08 3.29688E-19-1.15342E-18
 -1      1587 1.15017E-04-3.45718E-05-3.44575E-05 1.24602E-06-8.88366E-19-4.43435E-19
 -1      1588 1.16116E-04-3.49994E-05-3.47505E-05 1.08677E-06 5.06996E-20-2.47486E-19
 -1      1589 1.14144E-04-3.45449E-05-3.40928E-05 1.67599E-06 1.57098E-20-6.53923E-19
 -1      1590 1.12241E-04-3.36801E-05-3.36743E-05 1.51805E-06 5.12496E-20-5.92658E-19
 -1      1591 1.13794E-04-3.42089E-05-3.41112E-05 1.44261E-06-4.03792E-19-6.36585E-19
 -1      1592 1.12017E-04-3.37287E-05-3.35398E-05 2.59821E-06-2.10746E-19-1.45167E-19
 -1      1593 1.09239E-04-3.27467E-05-3.27986E-05 1.52702E-06 6.74173E-19-1.94145E-18
 -1      1594 1.10901E-04-3.32784E-05-3.32778E-05 1.50880E-06 8.58228E-19-5.56143E-19
 -1      1595 1.09459E-04-3.28431E-05-3.28291E-05 2.89853E-06 1.03279E-18-5.29048E-19
 -1      1596 1.06376E-04-3.18742E-05-3.19487E-05 1.39065E-06-1.08907E-18 3.93328E-19
 -1      1597 1.07943E-04-3.23558E-05-3.24068E-05 1.40561E-06-9.48503E-19-1.05817E-18
 -1      1598 1.06859E-04-3.19988E-05-3.20810E-05 2.80412E-06-7.75264E-19 5.31348E-19
 -1      1599 1.03843E-04-3.11113E-05-3.11886E-05 1.19140E-06-3.68783E-19 1.77692E-19
 -1      1600 1.05213E-04-3.15213E-05-3.15930E-05 1.22237E-06 1.60540E-19 6.15310E-19
 -1      1601 1.04452E-04-3.12493E-05-3.13727E-05 2.50174E-06-4.91539E-19 9.54064E-19
 -1      1602 1.01708E-04-3.04736E-05-3.05440E-05 9.79173E-07-5.36073E-19 1.06248E-18
 -1      1603 1.02850E-04-3.08084E-05-3.08829E-05 1.01549E-06-7.15518E-19 9.57412E-20
 -1      1604 1.02350E-04-3.06136E-05-3.07455E-05 2.11806E-06-7.05009E-19 1.43477E-18
 -1      1605 9.99700E-05-2.99576E-05-3.00173E-05 7.80507E-07-6.89099E-20 1.75963E-18
 -1      1606 1.00890E-04-3.02227E-05-3.02912E-05 8.16224E-07 3.11533E-19 2.13210E-18
 -1      1607 1.00588E-04-3.00917E-05-3.02149E-05 1.72816E-06-1.50587E-19 4.09293E-18
 -1      1608 9.85938E-05-2.95505E-05-2.95990E-05 6.07101E-07 6.98590E-19 8.94751E-19
 -1      1609 9.93145E-05-2.97554E-05-2.98144E-05 6.39319E-07 9.65800E-20 1.00806E-18
 -1      1610 9.91575E-05-2.96738E-05-2.97810E-05 1.37089E-06 7.09362E-19 2.88585E-18
 -1      1611 9.75286E-05-2.92364E-05-2.92748E-05 4.62024E-07-3.85607E-19-2.30464E-19
 -1      1612 9.80807E-05-2.93914E-05-2.94401E-05 4.89692E-07 2.70377E-19 3.55054E-19
 -1      1613 9.80239E-05-2.93463E-05-2.94355E-05 1.06231E-06 7.41498E-19 1.88780E-18
 -1      1614 9.67222E-05-2.89990E-05-2.90291E-05 3.43590E-07 1.68319E-18-2.87110E-18
 -1      1615 9.71358E-05-2.91137E-05-2.91531E-05 3.66754E-07 1.07963E-18-1.40007E-18
 -1      1616 9.71455E-05-2.90944E-05-2.91669E-05 8.05195E-07 1.43279E-18-8.91635E-19
 -1      1617 9.61277E-05-2.88241E-05-2.88480E-05 2.47627E-07 5.20271E-19-4.57501E-18
 -1      1618 9.64288E-05-2.89064E-05-2.89384E-05 2.66973E-07 4.35007E-19-3.99269E-18
 -1      1619 9.64802E-05-2.89046E-05-2.89630E-05 5.94956E-07 1.76454E-18-3.33593E-18
 -1      1620 9.57067E-05-2.87001E-05-2.87201E-05 1.68951E-07 9.82178E-19-6.29538E-18
 -1      1621 9.59161E-05-2.87561E-05-2.87828E-05 1.85524E-07 1.10176E-18-4.12774E-18
 -1      1622 9.59904E-05-2.87651E-05-2.88129E-05 4.23347E-07 1.36596E-18-3.14804E-18
 -1      1623 9.54305E-05-2.86184E-05-2.86366E-05 1.01701E-07 7.93739E-19-7.57051E-18
 -1      1624 9.55626E-05-2.86520E-05-2.86760E-05 1.16996E-07 4.06464E-19-6.80378E-18
 -1      1625 9.56448E-05-2.86662E-05-2.87074E-05 2.80544E-07 1.00477E-18-4.07934E-18
 -1      1626 9.52791E-05-2.85739E-05-2.85900E-05 4.07702E-08-3.36655E-19-7.15509E-18
 -1      1627 9.53428E-05-2.85868E-05-2.86099E-05 5.66327E-08 1.50988E-19-7.25946E-18
 -1      1628 9.54185E-05-2.86006E-05-2.86387E-05 1.57055E-07 2.67624E-19-4.61473E-18
 -1      1629 9.52327E-05-2.85653E-05-2.85690E-05-7.54762E-09-5.52760E-19-5.34478E-18
 -1      1630 9.52374E-05-2.85592E-05-2.85756E-05 5.87634E-09-5.74912E-19-6.73769E-18
 -1      1631 9.52907E-05-2.85674E-05-2.85974E-05 4.91002E-08-9.69358E-19-4.28483E-18
 -1      1632 9.52275E-05-2.85764E-05-2.85594E-05-1.42568E-08-2.91047E-18-3.39739E-18
 -1      1633 9.52464E-05-2.85494E-05-2.85860E-05 2.73961E-08-3.58863E-18 9.16517E-19
 -1      1634 9.52474E-05-2.85634E-05-2.85771E-05 1.50696E-08-4.91084E-18-2.29464E-19
 -1      1635 9.52072E-05-2.84238E-05-2.86232E-05 8.58589E-08-3.00036E-18-2.53319E-19
 -1      1636 9.52292E-05-2.84917E-05-2.86029E-05 7.41560E-08-2.83168E-18-6.80545E-19
 -1      1637 9.52368E-05-2.84677E-05-2.86176E-05 1.05087E-07-2.81666E-18 3.23170E-19
 -1      1638 9.51410E-05-2.82250E-05-2.86793E-05 1.29883E-07-3.21085E-18-1.00023E-18
 -1      1639 9.51782E-05-2.83364E-05-2.86476E-05 1.22617E-07-2.18949E-18 1.11760E-19
 -1      1640 9.51844E-05-2.83194E-05-2.86592E-05 2.05812E-07-2.10360E-18-4.71567E-19
 -1      1641 9.50619E-05-2.79873E-05-2.87467E-05 1.47913E-07-2.96808E-18-8.77869E-19
 -1      1642 9.51058E-05-2.81192E-05-2.87092E-05 1.46487E-07-2.43173E-18-5.21415E-19
 -1      1643 9.51135E-05-2.81227E-05-2.87114E-05 2.69595E-07-1.59645E-18-4.81466E-19
 -1      1644 9.49860E-05-2.77572E-05-2.88124E-05 1.38563E-07-2.72439E-18 8.54030E-19
 -1      1645 9.50272E-05-2.78819E-05-2.87768E-05 1.42456E-07-3.27486E-18-1.30798E-18
 -1      1646 9.50360E-05-2.79086E-05-2.87682E-05 2.82014E-07-1.65172E-18-1.10303E-18
 -1      1647 9.49234E-05-2.75666E-05-2.88671E-05 1.04776E-07-4.86142E-20 1.35954E-18
 -1      1648 9.49560E-05-2.76654E-05-2.88388E-05 1.13165E-07-2.48238E-18 1.42782E-18
 -1      1649 9.49647E-05-2.77095E-05-2.88214E-05 2.44136E-07-9.57176E-19 1.59097E-18
 -1      1650 9.48860E-05-2.74519E-05-2.89001E-05 5.33035E-08 5.18777E-19 2.76881E-19
 -1      1651 9.49036E-05-2.75054E-05-2.88848E-05 6.45055E-08-2.08981E-19 1.27399E-18
 -1      1652 9.49100E-05-2.75555E-05-2.88628E-05 1.64058E-07-1.55979E-19 1.73182E-18
 -1      1653 9.48794E-05-2.74315E-05-2.89061E-05-6.85750E-09 1.44179E-18 1.51992E-18
 -1      1654 9.48792E-05-2.74308E-05-2.89062E-05 5.27849E-09 1.03682E-18 1.41909E-18
 -1      1655 9.48807E-05-2.74728E-05-2.88851E-05 5.67411E-08 5.30774E-19 7.72486E-19
 -1      1656 9.49047E-05-2.75085E-05-2.88839E-05-6.57823E-08 2.56266E-18 7.95736E-19
 -1      1657 9.48867E-05-2.74539E-05-2.88996E-05-5.46867E-08 1.41841E-18 1.39853E-18
 -1      1658 9.48812E-05-2.74742E-05-2.88847E-05-5.96810E-08 2.49169E-18 1.61116E-18
 -1      1659 9.49576E-05-2.76700E-05-2.88375E-05-1.13742E-07 3.14641E-19-1.99729E-18
 -1      1660 9.49249E-05-2.75707E-05-2.88660E-05-1.05556E-07 2.11138E-18-7.06321E-19
 -1      1661 9.49113E-05-2.75592E-05-2.88618E-05-1.66125E-07 2.13339E-18 1.21132E-19
 -1      1662 9.50282E-05-2.78848E-05-2.87760E-05-1.42056E-07-6.51103E-19 1.54946E-18
 -1      1663 9.49871E-05-2.77603E-05-2.88115E-05-1.38304E-07 3.64648E-19-1.58113E-18
 -1      1664 9.49662E-05-2.77131E-05-2.88205E-05-2.44394E-07 7.94382E-19-2.68858E-18
 -1      1665 9.51071E-05-2.81232E-05-2.87080E-05-1.45685E-07-1.87391E-18-2.33161E-18
 -1      1666 9.50635E-05-2.79920E-05-2.87453E-05-1.47224E-07-9.38909E-19 5.33430E-19
 -1      1667 9.50373E-05-2.79123E-05-2.87673E-05-2.81085E-07 1.05518E-19 1.00533E-18
 -1      1668 9.51787E-05-2.83391E-05-2.86468E-05-1.21575E-07-3.27397E-18 2.36989E-20
 -1      1669 9.51420E-05-2.82284E-05-2.86783E-05-1.28718E-07-2.45077E-18-7.96308E-19
 -1      1670 9.51150E-05-2.81275E-05-2.87101E-05-2.67795E-07-5.39758E-19-2.06961E-18
 -1      1671 9.52308E-05-2.84921E-05-2.86028E-05-7.45689E-08-3.18574E-18 2.49902E-19
 -1      1672 9.52065E-05-2.84243E-05-2.86227E-05-8.66008E-08-2.97667E-18-1.40088E-19
 -1      1673 9.51839E-05-2.83211E-05-2.86582E-05-2.03667E-07-2.09406E-18-1.73152E-19
 -1      1674 9.52516E-05-2.85468E-05-2.85859E-05-3.40586E-08-1.66317E-18 7.11602E-20
 -1      1675 9.52482E-05-2.85284E-05-2.85958E-05-5.12521E-08-1.78662E-18 2.72405E-19
 -1      1676 9.52438E-05-2.84459E-05-2.86281E-05-1.34853E-07-1.06014E-18 1.71247E-18
 -1      1677 9.52815E-05-2.85199E-05-2.86103E-05-7.81733E-08 4.43544E-19 8.11131E-19
 -1      1678 1.94248E-05-6.19696E-05 1.29055E-05-4.73864E-06 3.13741E-18 3.02687E-18
 -1      1679 2.22911E-05-7.13003E-05 1.50667E-05 2.50214E-06-2.45216E-19 2.09937E-18
 -1      1680 1.92996E-05-3.73527E-05 3.61450E-06 3.18825E-06 5.34647E-18 2.87716E-18
 -1      1681 2.38004E-05-5.94893E-05 9.43981E-06-2.56869E-07 4.33681E-18 1.18086E-18
 -1      1682 3.98421E-05-1.30477E-05-1.31314E-05 3.13674E-05 4.83656E-18 3.51773E-18
 -1      1683 3.21746E-05-3.32566E-05-3.86639E-06 1.26600E-05 4.98140E-18 2.97732E-18
 -1      1684 7.88096E-05-3.75188E-06-3.14023E-05 5.95051E-05 3.76167E-18 3.67528E-18
 -1      1685 5.45403E-05-8.20096E-06-2.20115E-05 3.83655E-05 4.65953E-18 3.79894E-18
 -1      1686 1.47939E-04-2.14865E-05-5.07411E-05 7.29208E-05 2.59361E-18 4.95768E-18
 -1      1687 1.04279E-04-8.18249E-06-4.07077E-05 6.12741E-05 3.24414E-18 4.00138E-18
 -1      1688 2.11326E-04-4.47170E-05-6.55331E-05 6.42152E-05 1.68983E-18 5.40492E-18
 -1      1689 1.70892E-04-2.49049E-05-5.90086E-05 7.41599E-05 2.14172E-18 5.48623E-18
 -1      1690 2.51649E-04-6.38015E-05-7.36949E-05 2.39978E-05 1.42873E-18 4.69595E-18
 -1      1691 2.28265E-04-5.07082E-05-7.03439E-05 5.30703E-05 1.26473E-18 5.47437E-18
 -1      1692 2.47941E-04-6.08804E-05-7.39159E-05-2.52699E-05 1.31290E-19 3.45632E-18
 -1      1693 2.53580E-04-6.40146E-05-7.46602E-05 7.83839E-06 1.10411E-18 4.69764E-18
 -1      1694 2.07436E-04-4.08770E-05-6.65642E-05-6.24794E-05 5.32307E-19 1.14773E-18
 -1      1695 2.39028E-04-5.78976E-05-7.13125E-05-3.95972E-05 5.67512E-20 2.54576E-18
 -1      1696 1.45452E-04-1.56820E-05-5.30465E-05-7.49678E-05 2.07777E-18-7.52165E-19
 -1      1697 1.88324E-04-3.48157E-05-6.07282E-05-7.29101E-05 8.66303E-19 5.47183E-19
 -1      1698 8.45777E-05-2.42393E-06-3.54248E-05-5.87721E-05 4.77134E-18-3.18823E-18
 -1      1699 1.21400E-04-1.01325E-05-4.48200E-05-7.51444E-05 3.20263E-18-1.68560E-18
 -1      1700 4.65010E-05-1.45948E-05-1.65363E-05-2.96983E-05 4.31140E-18-3.08574E-18
 -1      1701 6.64563E-05-5.06151E-06-2.62099E-05-5.19448E-05 3.97089E-18-3.89974E-18
 -1      1702 2.55904E-05-3.85695E-05 3.09376E-07-4.95894E-06 4.24533E-18-2.45661E-18
 -1      1703 2.78731E-05-1.60933E-05-7.77103E-06-2.01510E-05 4.97886E-18-2.99850E-18
 -1      1704 2.38607E-05-6.70072E-05 1.19521E-05 2.65797E-06 1.58649E-18-1.50804E-18
 -1      1705 1.83935E-05-4.58407E-05 6.77743E-06 2.36697E-06 3.59057E-18-2.56280E-18
 -1      1706 2.33132E-05-7.60764E-05 1.60222E-05-2.85553E-06 8.30833E-19 3.68459E-20
 -1      1707 2.14828E-05-7.09893E-05 1.48915E-05 6.31412E-06 1.63647E-18-7.13625E-19
 -1      1708 1.93875E-05-5.97559E-05 1.18726E-05-4.26376E-06-2.20652E-19-4.01176E-19
 -1      1709 2.33157E-05-7.24768E-05 1.47830E-05 1.56289E-06 6.05205E-19-2.34205E-19
 -1      1710 1.98333E-05-3.34868E-05 1.78384E-06 4.69625E-06-1.30443E-18-4.59515E-19
 -1      1711 2.36639E-05-5.57474E-05 7.85865E-06-6.68327E-07-1.22820E-18-2.58451E-19
 -1      1712 3.74773E-05-7.13894E-06-1.46453E-05 3.25894E-05-1.84314E-18-2.16332E-18
 -1      1713 2.93568E-05-2.68880E-05-5.49343E-06 1.27050E-05-1.27224E-18-9.99922E-19
 -1      1714 8.20934E-05-1.92193E-06-3.33423E-05 6.30584E-05-2.14130E-18-2.66561E-18
 -1      1715 5.51702E-05-4.53752E-06-2.37388E-05 4.12489E-05-1.78131E-18-2.14215E-18
 -1      1716 1.52879E-04-2.25328E-05-5.24095E-05 7.42631E-05-1.63731E-18-3.03915E-18
 -1      1717 1.07989E-04-7.03730E-06-4.26195E-05 6.50220E-05-1.83298E-18-2.90109E-18
 -1      1718 2.16977E-04-4.86280E-05-6.70220E-05 4.98136E-05-1.10247E-18-2.35729E-18
 -1      1719 1.75623E-04-2.79508E-05-6.01703E-05 6.52972E-05-1.92298E-18-2.81130E-18
 -1      1720 2.49379E-04-6.23578E-05-7.38457E-05 7.91229E-06-8.78797E-19-1.81847E-18
 -1      1721 2.32815E-04-5.32306E-05-7.16506E-05 4.00586E-05-7.26331E-19-2.73253E-18
 -1      1722 2.36823E-04-5.50841E-05-7.21008E-05-4.31066E-05-4.48716E-19-4.04458E-19
 -1      1723 2.54045E-04-6.48659E-05-7.43771E-05-8.33745E-06-5.08432E-19-1.32052E-18
 -1      1724 1.78207E-04-2.91891E-05-6.05835E-05-6.48837E-05 5.75135E-19-4.13352E-19
 -1      1725 2.17268E-04-4.85318E-05-6.70027E-05-5.03036E-05 6.26778E-19 2.80368E-19
 -1      1726 1.10470E-04-6.25054E-06-4.37720E-05-6.75198E-05-1.73811E-18-6.60686E-20
 -1      1727 1.55907E-04-2.28535E-05-5.33595E-05-7.56740E-05-5.88688E-19-1.99984E-18
 -1      1728 5.64168E-05-4.01938E-06-2.43582E-05-4.22077E-05-5.51418E-18 2.80537E-18
 -1      1729 8.50648E-05-1.90149E-06-3.43577E-05-6.47135E-05-3.09591E-18 1.33492E-18
 -1      1730 3.09169E-05-2.75930E-05-5.73654E-06-1.37246E-05-5.06865E-18 3.82689E-18
 -1      1731 3.98423E-05-8.05655E-06-1.50548E-05-3.40001E-05-5.33885E-18 4.27413E-18
 -1      1732 2.36307E-05-5.83037E-05 8.76176E-06 1.33245E-06-3.48131E-18 2.30647E-18
 -1      1733 1.91165E-05-3.36909E-05 2.14490E-06-4.08975E-06-4.82385E-18 2.86742E-18
 -1      1734 2.28116E-05-7.27810E-05 1.52649E-05-2.80274E-06-9.94946E-19 8.87691E-19
 -1      1735 1.94590E-05-6.22371E-05 1.27834E-05 4.97841E-06-2.78759E-18 2.14935E-18
 -1      1736 1.20304E-04-3.42117E-05-3.57837E-05 4.31126E-05 2.65587E-18 2.50214E-18
 -1      1737 7.73918E-05-3.69750E-05-1.83867E-05 3.98633E-05 2.62326E-18 1.58776E-18
 -1      1738 9.52482E-05-2.85793E-05-2.85708E-05-1.14240E-08-4.21309E-18-2.43212E-18
 -1      1739 9.52547E-05-2.85391E-05-2.85917E-05 2.45726E-08-2.26363E-18-1.45803E-18
 -1      1740 1.87595E-05-4.50334E-05 7.40613E-06 1.49665E-05 1.31290E-18 2.62559E-18
 -1      1741 4.24922E-05-4.14927E-05-3.09235E-06 3.02018E-05 2.14977E-18 1.90289E-18
 -1      1742 1.10828E-05-4.59163E-05 1.08420E-05-8.49727E-08 1.37696E-19 2.81088E-18
 -1      1743 1.61372E-04-3.34215E-05-5.21974E-05 3.78955E-05 1.82112E-18 3.43641E-18
 -1      1744 1.96769E-04-3.43193E-05-6.47603E-05 2.88560E-05 1.20236E-18 3.36907E-18
 -1      1745 2.12132E-04-3.52883E-05-7.02681E-05 7.78941E-06 1.41836E-18 2.96186E-18
 -1      1746 2.06303E-04-3.39300E-05-6.86938E-05-1.45483E-05 9.82982E-19 3.38093E-18
 -1      1747 1.84232E-04-3.25552E-05-6.07199E-05-3.41850E-05 1.25181E-18 2.64952E-18
 -1      1748 1.46430E-04-3.02457E-05-4.73003E-05-4.55682E-05 2.37423E-18 1.53821E-18
 -1      1749 1.04737E-04-3.28335E-05-3.05959E-05-4.39553E-05 2.28148E-18-1.39125E-18
 -1      1750 6.51644E-05-3.66378E-05-1.37309E-05-3.71462E-05 2.63088E-18-2.00747E-18
 -1      1751 3.26270E-05-4.29090E-05 9.00873E-07-2.30777E-05 1.94479E-18-2.66958E-18
 -1      1752 1.59015E-05-4.97285E-05 9.86637E-06-9.68701E-06 1.06260E-18-1.62080E-18
 -1      1753 1.20348E-05-4.92947E-05 1.14637E-05 3.83744E-06 8.00658E-19-6.35275E-19
 -1      1754 2.10113E-05-4.55576E-05 6.51862E-06 1.65845E-05 1.36796E-19-9.04419E-19
 -1      1755 4.22868E-05-3.92868E-05-4.22828E-06 2.89019E-05-7.17437E-19-8.41421E-19
 -1      1756 7.61360E-05-3.19007E-05-1.98727E-05 4.06801E-05-2.96462E-19-9.74088E-19
 -1      1757 1.21177E-04-3.05853E-05-3.74513E-05 4.54590E-05-4.36645E-19-1.21380E-18
 -1      1758 1.64408E-04-3.19735E-05-5.35782E-05 3.38536E-05-9.36713E-19-1.24599E-18
 -1      1759 1.92684E-04-3.12067E-05-6.51112E-05 1.72717E-05-1.02110E-18-2.40134E-18
 -1      1760 2.09748E-04-3.36356E-05-7.00678E-05-1.19289E-06-9.99922E-19-2.28731E-18
 -1      1761 1.95670E-04-3.26598E-05-6.56107E-05-1.83584E-05 1.16679E-19-5.14573E-19
 -1      1762 1.65347E-04-3.13328E-05-5.42100E-05-3.51102E-05-3.39554E-19-5.02291E-19
 -1      1763 1.22517E-04-2.96758E-05-3.83576E-05-4.63047E-05-2.84264E-18-1.28325E-18
 -1      1764 7.83873E-05-3.28291E-05-2.04227E-05-4.10508E-05-3.92854E-18 1.52169E-18
 -1      1765 4.29502E-05-3.98020E-05-4.13476E-06-2.93993E-05-2.27598E-18 2.95487E-18
 -1      1766 1.94892E-05-4.61976E-05 7.30219E-06-1.50189E-05-1.26123E-18 2.49748E-18
 -1      1767 1.05863E-04-2.31262E-05-3.55430E-05-1.68177E-05-8.13033E-19 3.07452E-18
 -1      1768 8.91366E-05-1.05558E-05-3.38009E-05-1.32743E-05-8.82718E-19-1.01702E-18
 -1      1769 9.04412E-05-1.16236E-05-3.39303E-05-1.50490E-05-1.14153E-18-7.03143E-19
 -1      1770 9.24490E-05-1.38674E-05-3.38373E-05-1.59449E-05-1.17469E-18-3.21846E-19
 -1      1771 9.41282E-05-1.58117E-05-3.40677E-05-1.76077E-05-1.26031E-18 2.67768E-19
 -1      1772 9.34145E-05-1.63543E-05-3.30364E-05-1.36820E-05-1.19938E-18-4.89214E-19
 -1      1773 8.62654E-05-7.64735E-06-3.37651E-05-7.80040E-06-4.85256E-19-1.60560E-18
 -1      1774 8.66602E-05-7.95029E-06-3.37932E-05-9.18567E-06-5.94647E-19-1.56868E-18
 -1      1775 8.56549E-05-6.99645E-06-3.37704E-05-5.27015E-06-2.59564E-19-1.63022E-18
 -1      1776 8.58863E-05-7.17968E-06-3.37818E-05-6.56755E-06-3.45848E-19-1.63059E-18
 -1      1777 8.76408E-05-9.81986E-06-3.33842E-05-6.85823E-06-4.64611E-19-1.53852E-18
 -1      1778 8.53209E-05-6.62659E-06-3.37785E-05-2.85837E-06 1.86058E-20-1.59990E-18
 -1      1779 8.54411E-05-6.72459E-06-3.37824E-05-4.08807E-06-1.17806E-19-1.61844E-18
 -1      1780 8.70073E-05-9.09038E-06-3.34249E-05-4.48438E-06-2.02707E-19-1.55897E-18
 -1      1781 8.51897E-05-6.47287E-06-3.37840E-05-5.11258E-07 2.94227E-19-1.48341E-18
 -1      1782 8.52252E-05-6.50257E-06-3.37848E-05-1.70934E-06 1.30462E-19-1.56340E-18
 -1      1783 8.66736E-05-8.69900E-06-3.34493E-05-2.18909E-06 6.14093E-20-1.52767E-18
 -1      1784 8.52353E-05-6.51173E-06-3.37850E-05 1.82615E-06 5.34069E-19-1.41122E-18
 -1      1785 8.51935E-05-6.47752E-06-3.37840E-05 6.27054E-07 4.35438E-19-1.44487E-18
 -1      1786 8.65745E-05-8.58113E-06-3.34572E-05 6.46285E-08 4.28827E-19-1.42106E-18
 -1      1787 8.54668E-05-6.75001E-06-3.37826E-05 4.20949E-06 7.59214E-19-1.41470E-18
 -1      1788 8.53392E-05-6.64589E-06-3.37785E-05 2.97662E-06 6.63013E-19-1.43059E-18
 -1      1789 8.66916E-05-8.71898E-06-3.34485E-05 2.31962E-06 6.55545E-19-1.34079E-18
 -1      1790 8.59212E-05-7.21581E-06-3.37815E-05 6.65414E-06 9.16235E-19-1.24567E-18
 -1      1791 8.56857E-05-7.02896E-06-3.37702E-05 5.37401E-06 8.36835E-19-1.36707E-18
 -1      1792 8.70421E-05-9.12865E-06-3.34233E-05 4.59831E-06 8.39700E-19-1.30511E-18
 -1      1793 8.67246E-05-8.01992E-06-3.37917E-05 9.30638E-06 1.20822E-18-9.64413E-19
 -1      1794 8.63108E-05-7.69858E-06-3.37636E-05 7.88947E-06 1.06047E-18-1.12225E-18
 -1      1795 8.76934E-05-9.87891E-06-3.33812E-05 6.95628E-06 1.10157E-18-1.14199E-18
 -1      1796 8.81140E-05-9.37948E-06-3.38320E-05 1.21838E-05 1.40037E-18-5.98429E-19
 -1      1797 8.73883E-05-8.81838E-06-3.37680E-05 1.05915E-05 1.29020E-18-8.12119E-19
 -1      1798 8.88052E-05-1.11323E-05-3.33188E-05 9.42230E-06 1.30527E-18-7.81150E-19
 -1      1799 9.06155E-05-1.18359E-05-3.39220E-05 1.52375E-05 1.49668E-18 1.37828E-19
 -1      1800 8.92597E-05-1.07368E-05-3.37930E-05 1.34461E-05 1.43417E-18-3.29549E-19
 -1      1801 9.06775E-05-1.32084E-05-3.32196E-05 1.18959E-05 1.51611E-18-3.37529E-19
 -1      1802 9.57906E-05-1.70187E-05-3.39627E-05 1.76356E-05 1.38098E-18 1.57712E-18
 -1      1803 9.28095E-05-1.43351E-05-3.38097E-05 1.61358E-05 1.40257E-18 7.09761E-19
 -1      1804 9.39379E-05-1.68746E-05-3.30159E-05 1.38259E-05 1.49388E-18 4.28413E-19
 -1      1805 1.01776E-04-2.50549E-05-3.33115E-05 1.43829E-05 1.05011E-18 3.28871E-18
 -1      1806 9.79644E-05-1.95931E-05-3.35872E-05 1.69163E-05 1.21404E-18 2.18370E-18
 -1      1807 9.72428E-05-2.18311E-05-3.24001E-05 1.31947E-05 1.33920E-18 1.51383E-18
 -1      1808 9.86148E-05-2.60963E-05-3.12997E-05 9.39919E-06 1.06395E-18 2.94022E-18
 -1      1809 1.00021E-04-1.95370E-05-3.41720E-05-1.88238E-05-1.05379E-18 1.28368E-18
 -1      1810 9.52012E-05-2.72494E-05-2.91532E-05 4.02701E-06 1.02430E-18 2.28414E-18
 -1      1811 9.76165E-05-2.73518E-05-3.01571E-05 6.36272E-06 9.93993E-19 2.61038E-18
 -1      1812 9.74766E-05-2.55844E-05-3.08032E-05 8.71174E-06 1.18341E-18 1.80985E-18
 -1      1813 9.97056E-05-2.25145E-05-3.28009E-05-1.44199E-05-1.15019E-18 8.29986E-19
 -1      1814 9.68672E-05-2.69449E-05-2.98515E-05-5.65246E-06-9.31366E-19 6.77695E-19
 -1      1815 9.50783E-05-2.70034E-05-2.91469E-05-3.83924E-06-7.76306E-19 4.83312E-19
 -1      1816 9.42785E-05-2.72071E-05-2.86474E-05-2.34993E-06-7.78635E-19 4.60984E-19
 -1      1817 9.35317E-05-2.72909E-05-2.83508E-05-1.48399E-06-6.78606E-19 1.86857E-19
 -1      1818 9.54716E-05-2.65193E-05-2.95726E-05-4.38354E-06-9.23438E-19 2.98480E-20
 -1      1819 9.30342E-05-2.73451E-05-2.80930E-05-6.34599E-07-5.66652E-19 1.72229E-19
 -1      1820 9.27697E-05-2.74146E-05-2.79829E-05-1.75774E-07-4.87742E-19 1.03497E-20
 -1      1821 9.43066E-05-2.71951E-05-2.87835E-05-1.69926E-06-7.56543E-19-1.33401E-19
 -1      1822 9.25332E-05-2.74482E-05-2.78620E-05 3.13382E-07-3.39505E-19 3.49186E-20
 -1      1823 9.25561E-05-2.75343E-05-2.78494E-05 5.67679E-07-1.62515E-19 3.08472E-20
 -1      1824 9.36695E-05-2.75047E-05-2.83740E-05-1.68925E-07-4.43741E-19-1.38080E-19
 -1      1825 9.25081E-05-2.75751E-05-2.78122E-05 8.55494E-07-2.33060E-19-2.02080E-21
 -1      1826 9.27017E-05-2.76759E-05-2.78562E-05 1.00198E-06-1.41604E-19-8.60202E-20
 -1      1827 9.34400E-05-2.76972E-05-2.81893E-05 7.26119E-07-2.34289E-19-2.79986E-19
 -1      1828 9.27841E-05-2.77279E-05-2.78730E-05 1.17899E-06-1.25845E-19-9.34036E-20
 -1      1829 9.30837E-05-2.78386E-05-2.79526E-05 1.27060E-06-1.09510E-19-2.11536E-19
 -1      1830 9.35049E-05-2.78540E-05-2.81465E-05 1.26611E-06-1.69847E-19-2.59436E-19
 -1      1831 9.32579E-05-2.79004E-05-2.80063E-05 1.39204E-06-1.25425E-19-1.72558E-19
 -1      1832 9.36302E-05-2.80183E-05-2.81106E-05 1.46138E-06-1.64835E-19-9.81979E-20
 -1      1833 9.37775E-05-2.80002E-05-2.81980E-05 1.61504E-06-1.34705E-19-4.35435E-19
 -1      1834 9.38734E-05-2.80888E-05-2.81915E-05 1.56342E-06-4.27024E-19 3.99065E-20
 -1      1835 9.43048E-05-2.82142E-05-2.83156E-05 1.63231E-06-2.82232E-19-1.49306E-21
 -1      1836 9.42017E-05-2.81447E-05-2.83162E-05 1.87622E-06-1.27623E-19-5.01649E-19
 -1      1837 9.46064E-05-2.82937E-05-2.84187E-05 1.73977E-06-2.78484E-19-2.59670E-20
 -1      1838 9.50966E-05-2.84297E-05-2.85618E-05 1.82332E-06-4.16820E-19-2.72511E-19
 -1      1839 9.47471E-05-2.82934E-05-2.84855E-05 2.11878E-06-4.97839E-19-3.72829E-19
 -1      1840 9.54545E-05-2.85203E-05-2.86852E-05 1.95319E-06-4.11012E-19-4.94808E-19
 -1      1841 9.60121E-05-2.86723E-05-2.88490E-05 2.06140E-06-1.60179E-19-7.36821E-19
 -1      1842 9.54031E-05-2.84531E-05-2.86980E-05 2.39013E-06-5.20460E-19-4.87720E-19
 -1      1843 9.64302E-05-2.87777E-05-2.89928E-05 2.22401E-06-2.64873E-19-6.45664E-19
 -1      1844 9.70688E-05-2.89529E-05-2.91804E-05 2.36188E-06-3.44157E-19-7.66004E-19
 -1      1845 9.61733E-05-2.86335E-05-2.89510E-05 2.72128E-06-3.29814E-19-6.90724E-19
 -1      1846 9.75550E-05-2.90790E-05-2.93454E-05 2.56041E-06-1.04348E-19-8.45911E-19
 -1      1847 9.82897E-05-2.92860E-05-2.95602E-05 2.72668E-06-1.43940E-19-7.60492E-19
 -1      1848 9.70710E-05-2.88486E-05-2.92440E-05 3.12774E-06-1.85995E-19-7.37701E-19
 -1      1849 9.88534E-05-2.94407E-05-2.97466E-05 2.95506E-06-6.76472E-19-8.36729E-19
 -1      1850 9.96961E-05-2.96894E-05-2.99905E-05 3.13956E-06-7.73092E-19-8.27009E-19
 -1      1851 9.81153E-05-2.91173E-05-2.95770E-05 3.60673E-06-4.85928E-19-4.79702E-19
 -1      1852 1.00346E-04-2.98829E-05-3.01970E-05 3.37846E-06-8.53863E-19-7.49618E-19
 -1      1853 1.01299E-04-3.01834E-05-3.04684E-05 3.55781E-06-6.92646E-19-8.15067E-19
 -1      1854 9.93274E-05-2.94655E-05-2.99477E-05 4.13065E-06-7.68739E-19-9.19027E-20
 -1      1855 1.02042E-04-3.04289E-05-3.06903E-05 3.76888E-06-6.87816E-19-8.37389E-19
 -1      1856 1.03090E-04-3.07892E-05-3.09820E-05 3.90074E-06-3.61511E-19-9.66269E-19
 -1      1857 1.00726E-04-2.99279E-05-3.03491E-05 4.63668E-06-8.50366E-19-2.40926E-19
 -1      1858 1.03926E-04-3.11023E-05-3.12098E-05 4.01953E-06-1.93363E-19-1.25120E-18
 -1      1859 1.05022E-04-3.15249E-05-3.15050E-05 4.03674E-06 5.02299E-20-1.39094E-18
 -1      1860 1.02321E-04-3.05478E-05-3.07671E-05 5.01296E-06-4.26924E-19-3.55982E-19
 -1      1861 1.05940E-04-3.19202E-05-3.17236E-05 3.96679E-06 6.65467E-20-1.34606E-18
 -1      1862 1.06995E-04-3.23935E-05-3.19942E-05 3.77545E-06-3.18390E-19-1.60480E-18
 -1      1863 1.04108E-04-3.13728E-05-3.11786E-05 5.08465E-06-1.20907E-19-5.90918E-19
 -1      1864 1.07964E-04-3.28750E-05-3.21834E-05 3.39011E-06-3.71371E-19-1.52229E-18
 -1      1865 1.08835E-04-3.33585E-05-3.23887E-05 2.88023E-06-2.40101E-19-1.65625E-18
 -1      1866 1.06047E-04-3.24352E-05-3.15524E-05 4.60912E-06-2.91518E-19-5.88804E-19
 -1      1867 1.09785E-04-3.38978E-05-3.25271E-05 2.04501E-06 8.40085E-21-1.41018E-18
 -1      1868 1.10270E-04-3.42993E-05-3.26195E-05 1.12805E-06 7.15584E-19-1.30482E-18
 -1      1869 1.08038E-04-3.37082E-05-3.18556E-05 3.30000E-06 1.42189E-19-8.35086E-19
 -1      1870 1.11062E-04-3.47992E-05-3.26920E-05-2.34828E-07 9.20103E-19-1.25405E-18
 -1      1871 1.10931E-04-3.49567E-05-3.26300E-05-1.54735E-06 7.47586E-19-8.51581E-19
 -1      1872 1.09865E-04-3.50223E-05-3.20655E-05 9.15408E-07 9.25297E-19-5.70255E-19
 -1      1873 1.11342E-04-3.52209E-05-3.26380E-05-3.33989E-06 5.80866E-19-5.36139E-19
 -1      1874 1.10409E-04-3.49185E-05-3.24089E-05-4.82847E-06 1.07052E-18-1.12675E-19
 -1      1875 1.11139E-04-3.59758E-05-3.21871E-05-2.54679E-06 9.88851E-19 3.00059E-19
 -1      1876 1.10160E-04-3.46759E-05-3.23771E-05-6.63231E-06 1.04387E-18-1.14641E-19
 -1      1877 1.08427E-04-3.37466E-05-3.20189E-05-7.79695E-06 1.16744E-18 2.03189E-19
 -1      1878 1.11313E-04-3.59262E-05-3.22646E-05-6.56083E-06 1.22509E-18 2.20783E-19
 -1      1879 1.07365E-04-3.28168E-05-3.19864E-05-8.83036E-06 7.72918E-19-2.40597E-19
 -1      1880 1.05173E-04-3.13563E-05-3.15920E-05-8.99542E-06 4.22807E-19-1.16401E-19
 -1      1881 1.09899E-04-3.42665E-05-3.23676E-05-9.83119E-06 7.76590E-19-4.79996E-19
 -1      1882 1.03582E-04-2.99544E-05-3.15856E-05-8.41478E-06 5.85611E-20-5.62734E-19
 -1      1883 1.01643E-04-2.84882E-05-3.12732E-05-7.13401E-06-5.11032E-19-5.22275E-19
 -1      1884 1.07008E-04-3.10591E-05-3.25367E-05-1.04995E-05 1.67636E-19-9.97418E-19
 -1      1885 1.00347E-04-2.73381E-05-3.12828E-05-4.71774E-06-6.91311E-19-5.63853E-19
 -1      1886 9.94686E-05-2.66318E-05-3.11501E-05-2.26941E-06-6.27665E-19-8.55358E-19
 -1      1887 1.03839E-04-2.75968E-05-3.27250E-05-7.23751E-06-4.05067E-19-9.15408E-19
 -1      1888 9.93318E-05-2.65099E-05-3.11512E-05 1.08099E-06-2.45110E-19-1.45508E-19
 -1      1889 9.99276E-05-2.69908E-05-3.12405E-05 3.65309E-06 1.50348E-20-1.97478E-19
 -1      1890 1.02258E-04-2.58807E-05-3.28186E-05-7.28412E-07-6.08077E-20-7.03476E-20
 -1      1891 1.01046E-04-2.79821E-05-3.12315E-05 6.36583E-06-1.06541E-20-6.22960E-19
 -1      1892 1.02836E-04-2.93561E-05-3.15153E-05 7.93494E-06-2.16900E-19-6.23582E-19
 -1      1893 1.03340E-04-2.70510E-05-3.27534E-05 6.13003E-06-3.68294E-19-2.38162E-19
 -1      1894 1.04451E-04-3.07798E-05-3.15196E-05 8.90098E-06-9.75881E-19-6.08858E-19
 -1      1895 1.06662E-04-3.22962E-05-3.19089E-05 9.00917E-06-1.35033E-18-8.25394E-19
 -1      1896 1.06348E-04-3.03223E-05-3.25801E-05 1.01867E-05-7.20438E-19-1.63644E-18
 -1      1897 1.07873E-04-3.33533E-05-3.19393E-05 8.24691E-06-1.07955E-18-6.88929E-19
 -1      1898 1.09746E-04-3.44110E-05-3.23155E-05 7.23456E-06-4.01020E-19-8.66048E-19
 -1      1899 1.09431E-04-3.37206E-05-3.24048E-05 1.02523E-05-8.34690E-19-6.48463E-19
 -1      1900 1.10164E-04-3.47887E-05-3.23533E-05 5.52088E-06 1.87869E-19 1.25791E-19
 -1      1901 1.11276E-04-3.52115E-05-3.26162E-05 4.05331E-06 1.70677E-19 1.04247E-18
 -1      1902 1.11193E-04-3.57332E-05-3.22946E-05 7.36848E-06 3.63331E-19-5.66486E-20
 -1      1903 1.10986E-04-3.50286E-05-3.26222E-05 2.21962E-06-4.30200E-19 8.99327E-19
 -1      1904 1.11280E-04-3.49479E-05-3.27224E-05 8.52439E-07-3.58249E-19 7.94619E-19
 -1      1905 1.11327E-04-3.60723E-05-3.22234E-05 3.38924E-06-8.62518E-20 1.39612E-18
 -1      1906 1.10555E-04-3.44777E-05-3.26684E-05-6.01659E-07-3.20609E-19 1.20941E-18
 -1      1907 1.10195E-04-3.41137E-05-3.26103E-05-1.59378E-06 5.95438E-20 6.25163E-19
 -1      1908 1.10247E-04-3.52654E-05-3.21234E-05-2.28007E-07-2.16192E-19 5.97763E-19
 -1      1909 1.09281E-04-3.35752E-05-3.24908E-05-2.51675E-06-2.74445E-19-2.39014E-19
 -1      1910 1.08497E-04-3.31051E-05-3.23125E-05-3.08976E-06-2.85728E-19-7.40394E-19
 -1      1911 1.08524E-04-3.39854E-05-3.19440E-05-2.81057E-06-9.22313E-19-1.01361E-19
 -1      1912 1.07548E-04-3.26133E-05-3.21404E-05-3.53582E-06-3.62467E-19-1.65352E-18
 -1      1913 1.06553E-04-3.21423E-05-3.18903E-05-3.76548E-06-6.29579E-19-1.62744E-18
 -1      1914 1.06585E-04-3.26910E-05-3.16732E-05-4.28127E-06-7.35302E-19-2.90033E-19
 -1      1915 1.05653E-04-3.17363E-05-3.16871E-05-3.86373E-06-1.58787E-19-1.18752E-18
 -1      1916 1.04604E-04-3.13139E-05-3.14086E-05-3.85926E-06 3.76633E-19-1.39833E-18
 -1      1917 1.04678E-04-3.15906E-05-3.13301E-05-4.85216E-06 1.72554E-20-3.38237E-19
 -1      1918 1.03791E-04-3.09945E-05-3.11955E-05-3.73997E-06 5.91333E-19-1.33996E-18
 -1      1919 1.02791E-04-3.06376E-05-3.09201E-05-3.59940E-06 3.54680E-19-5.84401E-19
 -1      1920 1.02926E-04-3.07326E-05-3.09480E-05-4.80878E-06 7.11824E-19 3.23469E-20
 -1      1921 1.02080E-04-3.03917E-05-3.07138E-05-3.36510E-06-1.75332E-19-6.13928E-19
 -1      1922 1.01185E-04-3.01008E-05-3.04611E-05-3.16060E-06-1.20769E-18-3.56861E-19
 -1      1923 1.01380E-04-3.00930E-05-3.05596E-05-4.40460E-06 3.24524E-20-1.12754E-19
 -1      1924 1.00579E-04-2.99131E-05-3.02725E-05-2.88156E-06-8.15075E-19 1.14446E-18
 -1      1925 9.98135E-05-2.96819E-05-3.00522E-05-2.65982E-06 3.51775E-19 1.47175E-18
 -1      1926 1.00053E-04-2.96263E-05-3.01907E-05-3.82740E-06-1.21928E-19 6.26547E-19
 -1      1927 9.93073E-05-2.95391E-05-2.98872E-05-2.37925E-06-4.17959E-19 1.35608E-18
 -1      1928 9.86743E-05-2.93588E-05-2.97024E-05-2.16716E-06 6.75699E-20 1.29782E-18
 -1      1929 9.89397E-05-2.92891E-05-2.98576E-05-3.20074E-06-4.19157E-19 2.46626E-18
 -1      1930 9.82603E-05-2.92506E-05-2.95629E-05-1.90865E-06-1.39892E-19 6.66001E-19
 -1      1931 9.77509E-05-2.91122E-05-2.94125E-05-1.71947E-06-2.59525E-19 2.52783E-20
 -1      1932 9.80237E-05-2.90460E-05-2.95685E-05-2.59759E-06-3.85013E-19 1.89773E-18
 -1      1933 9.74186E-05-2.90303E-05-2.92980E-05-1.49346E-06 1.49858E-18-5.13188E-19
 -1      1934 9.70186E-05-2.89257E-05-2.91788E-05-1.33170E-06 1.81769E-18 6.53271E-19
 -1      1935 9.72839E-05-2.88709E-05-2.93258E-05-2.05530E-06 2.17913E-19 1.05277E-18
 -1      1936 9.67567E-05-2.88639E-05-2.90873E-05-1.14041E-06 1.33006E-18 1.20481E-18
 -1      1937 9.64502E-05-2.87859E-05-2.89954E-05-1.00531E-06 1.38540E-18 2.27033E-18
 -1      1938 9.66967E-05-2.87442E-05-2.91276E-05-1.58790E-06 2.03161E-18 1.62516E-18
 -1      1939 9.62474E-05-2.87392E-05-2.89243E-05-8.46039E-07 1.44351E-18 2.07091E-18
 -1      1940 9.60192E-05-2.86820E-05-2.88556E-05-7.33818E-07 1.09678E-18 2.22884E-18
 -1      1941 9.62388E-05-2.86518E-05-2.89702E-05-1.19497E-06 1.40265E-18 1.08657E-18
 -1      1942 9.58651E-05-2.86464E-05-2.88019E-05-6.01346E-07 4.17743E-20 2.48216E-18
 -1      1943 9.57020E-05-2.86054E-05-2.87527E-05-5.06842E-07-4.51094E-19 2.60483E-18
 -1      1944 9.58882E-05-2.85830E-05-2.88486E-05-8.67951E-07 8.18189E-19 1.86555E-18
 -1      1945 9.55868E-05-2.85782E-05-2.87134E-05-3.94864E-07-5.85875E-19 2.86215E-18
 -1      1946 9.54781E-05-2.85513E-05-2.86803E-05-3.13433E-07-3.22661E-19 3.20555E-18
 -1      1947 9.56243E-05-2.85300E-05-2.87574E-05-5.94810E-07-5.21356E-19 3.35220E-18
 -1      1948 9.54020E-05-2.85360E-05-2.86535E-05-2.23079E-07-2.82024E-19 2.96232E-18
 -1      1949 9.53367E-05-2.85239E-05-2.86316E-05-1.55955E-07 5.50529E-19 1.92350E-18
 -1      1950 9.53202E-05-2.84928E-05-2.86423E-05-1.89332E-07-5.81810E-19 2.24852E-18
 -1      1951 9.54392E-05-2.84986E-05-2.86919E-05-3.69552E-07-5.74219E-19 3.83834E-18
 -1      1952 9.31398E-05-2.73331E-05-2.81744E-05 1.54942E-06 7.36978E-19 1.70815E-18
 -1      1953 9.43145E-05-2.74342E-05-2.86044E-05 2.62741E-06 8.83733E-19 2.07708E-18
 -1      1954 9.51612E-05-2.70187E-05-2.92097E-05 3.99209E-06 1.07436E-18 1.38088E-18
 -1      1955 9.21434E-05-2.73308E-05-2.77515E-05 2.63615E-07 7.09466E-19 1.32575E-18
 -1      1956 9.26089E-05-2.73565E-05-2.79144E-05 8.24554E-07 5.73322E-19 1.51383E-18
 -1      1957 9.36017E-05-2.73459E-05-2.84027E-05 1.49508E-06 7.96555E-19 1.10299E-18
 -1      1958 9.18504E-05-2.73862E-05-2.76107E-05-4.34997E-07 4.06405E-19 1.10960E-18
 -1      1959 9.19222E-05-2.73491E-05-2.76437E-05-1.22252E-07 5.40640E-19 1.24908E-18
 -1      1960 9.28358E-05-2.74717E-05-2.80239E-05 1.36100E-07 6.93770E-19 7.37177E-19
 -1      1961 9.19949E-05-2.75041E-05-2.76271E-05-8.26621E-07-5.39653E-21 8.39504E-19
 -1      1962 9.18427E-05-2.74260E-05-2.75904E-05-6.44016E-07 2.50110E-19 1.05747E-18
 -1      1963 9.26166E-05-2.75816E-05-2.78832E-05-6.26300E-07 3.72562E-19 5.32135E-19
 -1      1964 9.24133E-05-2.76671E-05-2.77391E-05-1.05651E-06 2.88861E-19 8.14459E-19
 -1      1965 9.21287E-05-2.75642E-05-2.76610E-05-9.43180E-07 5.86082E-20 7.61225E-19
 -1      1966 9.27558E-05-2.77129E-05-2.78850E-05-1.06892E-06 1.23931E-19 4.25044E-19
 -1      1967 9.30123E-05-2.78610E-05-2.79138E-05-1.20895E-06 4.26850E-19 9.67221E-19
 -1      1968 9.26434E-05-2.77423E-05-2.78089E-05-1.12896E-06 3.61584E-19 9.99052E-19
 -1      1969 9.31317E-05-2.78673E-05-2.79782E-05-1.34378E-06 3.52853E-19 5.19927E-19
 -1      1970 9.37454E-05-2.80792E-05-2.81349E-05-1.33846E-06 6.89915E-19 6.50870E-19
 -1      1971 9.33138E-05-2.79481E-05-2.80097E-05-1.26801E-06 5.92238E-19 9.27138E-19
 -1      1972 9.36733E-05-2.80408E-05-2.81347E-05-1.54312E-06 5.84953E-19 7.22764E-19
 -1      1973 9.45980E-05-2.83214E-05-2.83963E-05-1.48312E-06 4.68023E-20 5.26366E-19
 -1      1974 9.41080E-05-2.81772E-05-2.82524E-05-1.40510E-06 3.78525E-19 4.24684E-19
 -1      1975 9.43454E-05-2.82322E-05-2.83400E-05-1.72811E-06 5.30771E-19 5.83093E-19
 -1      1976 9.55780E-05-2.85931E-05-2.86993E-05-1.67059E-06 3.93953E-20 3.88076E-19
 -1      1977 9.50223E-05-2.84322E-05-2.85348E-05-1.57210E-06 1.17908E-19 3.75534E-19
 -1      1978 9.51383E-05-2.84445E-05-2.85887E-05-1.94183E-06 2.45135E-19 3.14292E-19
 -1      1979 9.67096E-05-2.89044E-05-2.90500E-05-1.92036E-06-4.38761E-20 2.29498E-19
 -1      1980 9.60720E-05-2.87204E-05-2.88606E-05-1.79188E-06-2.99853E-21 3.47258E-19
 -1      1981 9.60609E-05-2.86846E-05-2.88814E-05-2.21500E-06 2.89083E-20 2.14341E-19
 -1      1982 9.80265E-05-2.92690E-05-2.94572E-05-2.24338E-06 5.53117E-19-1.79895E-20
 -1      1983 9.72862E-05-2.90537E-05-2.92373E-05-2.07903E-06 1.75243E-19 8.66910E-20
 -1      1984 9.71345E-05-2.89636E-05-2.92226E-05-2.56754E-06 2.46743E-19-9.78256E-20
 -1      1985 9.95658E-05-2.97034E-05-2.99303E-05-2.63885E-06 6.31018E-19 2.07804E-19
 -1      1986 9.87008E-05-2.94475E-05-2.96741E-05-2.43805E-06 3.03541E-19 1.09323E-19
 -1      1987 9.83878E-05-2.92967E-05-2.96178E-05-3.00687E-06 4.56369E-19 1.09076E-19
 -1      1988 1.01359E-04-3.02262E-05-3.04753E-05-3.08758E-06 2.52707E-19 4.02114E-19
 -1      1989 1.00352E-04-2.99204E-05-3.01790E-05-2.85842E-06 5.05330E-19 2.86114E-19
 -1      1990 9.98511E-05-2.97033E-05-3.00718E-05-3.52246E-06 5.66246E-19 2.24090E-19
 -1      1991 1.03420E-04-3.08562E-05-3.10909E-05-3.54078E-06 2.90672E-19 2.48546E-19
 -1      1992 1.02266E-04-3.04926E-05-3.07550E-05-3.30571E-06 4.25386E-19 5.65495E-19
 -1      1993 1.01549E-04-3.02077E-05-3.05846E-05-4.07583E-06 4.85676E-19 3.11843E-19
 -1      1994 1.05726E-04-3.16092E-05-3.17617E-05-3.90382E-06 4.19734E-19 3.72231E-21
 -1      1995 1.04446E-04-3.11848E-05-3.13950E-05-3.70810E-06 2.32135E-19 2.09111E-20
 -1      1996 1.03492E-04-3.08395E-05-3.11472E-05-4.58518E-06 4.89369E-19 6.73380E-19
 -1      1997 1.08192E-04-3.24904E-05-3.24498E-05-4.01732E-06 3.96861E-19 3.52829E-19
 -1      1998 1.06850E-04-3.20126E-05-3.20745E-05-3.93917E-06 4.87629E-19 2.57836E-19
 -1      1999 1.05658E-04-3.16310E-05-3.17367E-05-4.90545E-06 3.49106E-19 2.31994E-19
 -1      2000 1.10641E-04-3.34787E-05-3.30882E-05-3.64521E-06-9.56744E-19-7.41882E-20
 -1      2001 1.09361E-04-3.29755E-05-3.27447E-05-3.80278E-06-4.01848E-19 2.15914E-19
 -1      2002 1.07979E-04-3.26074E-05-3.23115E-05-4.81005E-06-1.97630E-19 3.97047E-20
 -1      2003 1.12769E-04-3.44950E-05-3.35781E-05-2.49441E-06-4.58596E-19-5.95934E-20
 -1      2004 1.11757E-04-3.40311E-05-3.33267E-05-3.03684E-06-7.48506E-19-4.67652E-19
 -1      2005 1.10306E-04-3.37590E-05-3.28103E-05-3.99177E-06-5.21392E-19-4.45784E-19
 -1      2006 1.14132E-04-3.53513E-05-3.38026E-05-3.13212E-07 2.21605E-19 2.84230E-19
 -1      2007 1.13664E-04-3.50476E-05-3.37165E-05-1.37081E-06-1.89987E-19 1.67898E-19
 -1      2008 1.12371E-04-3.49813E-05-3.31604E-05-2.12080E-06-2.58855E-19-1.95736E-19
 -1      2009 1.14180E-04-3.57056E-05-3.36651E-05 2.88546E-06 1.39177E-18 2.58669E-19
 -1      2010 1.14559E-04-3.57443E-05-3.38065E-05 1.31483E-06 7.67227E-19 7.20815E-19
 -1      2011 1.13746E-04-3.59895E-05-3.32999E-05 9.83023E-07 6.34957E-19 4.67971E-19
 -1      2012 1.12418E-04-3.50894E-05-3.31508E-05 6.48842E-06 1.12755E-18-4.88023E-19
 -1      2013 1.13840E-04-3.56689E-05-3.35317E-05 4.71128E-06 1.48871E-18 2.46659E-19
 -1      2014 1.13860E-04-3.62571E-05-3.32133E-05 5.03669E-06 1.69349E-18 1.98996E-19
 -1      2015 1.08764E-04-3.31714E-05-3.23808E-05 9.06272E-06-4.23943E-19-7.90070E-19
 -1      2016 1.11120E-04-3.43518E-05-3.29259E-05 7.79193E-06 2.00237E-19-5.44166E-19
 -1      2017 1.12194E-04-3.51603E-05-3.29614E-05 8.92625E-06 4.03876E-19 7.12520E-19
 -1      2018 1.04055E-04-3.02825E-05-3.15994E-05 8.77822E-06-1.20013E-18 1.89391E-20
 -1      2019 1.06751E-04-3.17671E-05-3.21468E-05 8.89792E-06-1.15702E-18-8.80305E-19
 -1      2020 1.08789E-04-3.25006E-05-3.26668E-05 1.06994E-05-9.84084E-19 6.05708E-19
 -1      2021 1.00223E-04-2.77426E-05-3.10801E-05 4.76208E-06 3.29416E-19 5.70463E-19
 -1      2022 1.02229E-04-2.88439E-05-3.14377E-05 6.63911E-06-2.76159E-19 2.75736E-19
 -1      2023 1.04822E-04-2.91731E-05-3.24470E-05 8.51066E-06-8.34208E-19 5.38263E-20
 -1      2024 9.93563E-05-2.71454E-05-3.10031E-05-1.59121E-06 8.23620E-19 3.18934E-19
 -1      2025 9.97174E-05-2.72095E-05-3.10375E-05 1.31915E-06 6.62618E-19 5.42648E-19
 -1      2026 1.02390E-04-2.70441E-05-3.23605E-05 2.39288E-06 9.89732E-19 5.06663E-19
 -1      2027 1.02051E-04-2.89383E-05-3.13852E-05-7.14638E-06-5.03462E-19 5.72012E-20
 -1      2028 1.00559E-04-2.79199E-05-3.10852E-05-4.65746E-06-1.66138E-19 3.36166E-21
 -1      2029 1.03034E-04-2.75542E-05-3.24039E-05-4.94313E-06 1.92025E-19 3.63331E-20
 -1      2030 1.06804E-04-3.19265E-05-3.20977E-05-9.38532E-06-2.25908E-19-1.33765E-19
 -1      2031 1.04180E-04-3.04404E-05-3.15741E-05-8.38209E-06-4.22213E-19-1.87935E-20
 -1      2032 1.06328E-04-3.03477E-05-3.25648E-05-9.83046E-06-1.92998E-19 9.59927E-20
 -1      2033 1.11318E-04-3.44673E-05-3.29029E-05-8.08543E-06-1.50765E-19 7.76517E-19
 -1      2034 1.08673E-04-3.32250E-05-3.23406E-05-8.60354E-06-1.14419E-19 6.23218E-19
 -1      2035 1.10296E-04-3.36324E-05-3.28278E-05-1.04637E-05-1.59795E-19 1.75037E-18
 -1      2036 1.14074E-04-3.57068E-05-3.35402E-05-4.78847E-06 2.19256E-19 4.13908E-19
 -1      2037 1.12238E-04-3.50545E-05-3.31135E-05-6.14843E-06 8.57489E-20 4.83510E-19
 -1      2038 1.13099E-04-3.57840E-05-3.31173E-05-7.67978E-06 8.36577E-20 1.62379E-18
 -1      2039 1.14774E-04-3.57326E-05-3.38381E-05-1.25857E-06-2.58742E-20-1.37290E-18
 -1      2040 1.14024E-04-3.56356E-05-3.36412E-05-2.72373E-06-1.81530E-19-9.99069E-19
 -1      2041 1.14043E-04-3.63267E-05-3.33074E-05-3.54974E-06 4.58496E-19-2.34397E-19
 -1      2042 1.13850E-04-3.50252E-05-3.37635E-05 1.46493E-06 4.41364E-19-1.06793E-18
 -1      2043 1.14058E-04-3.52908E-05-3.37991E-05 3.23308E-07 3.28913E-19-1.38559E-18
 -1      2044 1.13389E-04-3.57097E-05-3.33024E-05 2.23729E-07 6.76799E-19-1.53446E-18
 -1      2045 1.11931E-04-3.40231E-05-3.33853E-05 3.10300E-06-8.24742E-19-2.71580E-20
 -1      2046 1.12792E-04-3.44649E-05-3.35986E-05 2.40358E-06-3.46959E-19-7.26165E-19
 -1      2047 1.11718E-04-3.45659E-05-3.30775E-05 2.85939E-06-4.82805E-19-3.05349E-19
 -1      2048 1.09554E-04-3.29932E-05-3.28165E-05 3.80921E-06 6.56173E-19 1.36055E-20
 -1      2049 1.10760E-04-3.34846E-05-3.31345E-05 3.49362E-06-1.91509E-19 5.36370E-19
 -1      2050 1.09555E-04-3.33438E-05-3.26712E-05 4.28648E-06-1.37894E-19 4.99759E-19
 -1      2051 1.07096E-04-3.20607E-05-3.21655E-05 3.87478E-06 9.77081E-19 4.92331E-19
 -1      2052 1.08408E-04-3.25312E-05-3.25239E-05 3.82623E-06 8.62111E-19 2.25324E-21
 -1      2053 1.07267E-04-3.22550E-05-3.21531E-05 4.76722E-06 6.74467E-19 1.00334E-18
 -1      2054 1.04781E-04-3.12674E-05-3.15135E-05 3.57091E-06-1.78800E-18 6.61046E-19
 -1      2055 1.06046E-04-3.16842E-05-3.18670E-05 3.67911E-06-4.97735E-19 8.39506E-19
 -1      2056 1.05072E-04-3.13618E-05-3.15928E-05 4.63422E-06 9.29428E-20 1.90268E-18
 -1      2057 1.02727E-04-3.06152E-05-3.09114E-05 3.09536E-06-4.29748E-19 1.75196E-18
 -1      2058 1.03862E-04-3.09676E-05-3.12332E-05 3.27890E-06-8.53617E-19 8.80843E-19
 -1      2059 1.03089E-04-3.06562E-05-3.10442E-05 4.16676E-06-1.16071E-18 1.23059E-18
 -1      2060 1.00978E-04-3.00909E-05-3.03847E-05 2.57298E-06-1.82022E-18 2.08778E-18
 -1      2061 1.01947E-04-3.03794E-05-3.06626E-05 2.77979E-06-1.33560E-18 1.24713E-18
 -1      2062 1.01370E-04-3.01083E-05-3.05417E-05 3.55942E-06-1.02424E-18 1.72785E-18
 -1      2063 9.95334E-05-2.96764E-05-2.99418E-05 2.07343E-06 6.54079E-19 3.29699E-18
 -1      2064 1.00333E-04-2.99069E-05-3.01728E-05 2.27396E-06-1.37353E-19 3.05817E-18
 -1      2065 9.99240E-05-2.96863E-05-3.01030E-05 2.93148E-06-1.23040E-18 1.31806E-18
 -1      2066 9.83703E-05-2.93535E-05-2.95805E-05 1.62989E-06 7.81175E-19 2.53615E-18
 -1      2067 9.90118E-05-2.95340E-05-2.97670E-05 1.80967E-06 1.03869E-18 2.86885E-18
 -1      2068 9.87384E-05-2.93632E-05-2.97336E-05 2.34749E-06 1.21285E-18 1.40437E-18
 -1      2069 9.74538E-05-2.91054E-05-2.92931E-05 1.25345E-06 1.33514E-18 2.98013E-19
 -1      2070 9.79565E-05-2.92442E-05-2.94399E-05 1.40726E-06 1.19644E-18 1.54912E-18
 -1      2071 9.77870E-05-2.91173E-05-2.94314E-05 1.83637E-06 1.56936E-18 1.86825E-18
 -1      2072 9.67463E-05-2.89174E-05-2.90697E-05 9.42512E-07 2.50674E-18-7.00774E-19
 -1      2073 9.71316E-05-2.90222E-05-2.91827E-05 1.07057E-06 1.95077E-18-1.05694E-19
 -1      2074 9.70384E-05-2.89314E-05-2.91903E-05 1.40555E-06 2.76577E-18 1.15914E-19
 -1      2075 9.62123E-05-2.87770E-05-2.89006E-05 6.88496E-07 1.54166E-18-1.94141E-18
 -1      2076 9.65004E-05-2.88546E-05-2.89852E-05 7.94197E-07 2.40885E-18-1.50886E-18
 -1      2077 9.64607E-05-2.87916E-05-2.90026E-05 1.05013E-06 2.74906E-18 1.70373E-19
 -1      2078 9.58213E-05-2.86745E-05-2.87766E-05 4.80228E-07 8.21430E-19-2.10297E-18
 -1      2079 9.60294E-05-2.87303E-05-2.88377E-05 5.68118E-07 9.31885E-19-2.05529E-18
 -1      2080 9.60248E-05-2.86877E-05-2.88603E-05 7.58737E-07 9.87936E-19-8.55383E-19
 -1      2081 9.55471E-05-2.86017E-05-2.86902E-05 3.05479E-07 1.04286E-18-2.42595E-18
 -1      2082 9.56894E-05-2.86399E-05-2.87318E-05 3.81020E-07 1.02475E-18-1.73276E-18
 -1      2083 9.57047E-05-2.86108E-05-2.87561E-05 5.18247E-07 1.28294E-18-1.24177E-18
 -1      2084 9.53700E-05-2.85554E-05-2.86336E-05 1.56038E-07-8.00340E-19-2.70010E-18
 -1      2085 9.54561E-05-2.85778E-05-2.86595E-05 2.21960E-07 8.85219E-19-2.27131E-18
 -1      2086 9.54778E-05-2.85554E-05-2.86824E-05 3.15394E-07 3.62504E-19-1.55827E-19
 -1      2087 9.52850E-05-2.85397E-05-2.86033E-05 6.33082E-08-2.21425E-18-1.43600E-18
 -1      2088 9.53292E-05-2.85436E-05-2.86207E-05 1.15371E-07-2.24046E-18-2.59575E-18
 -1      2089 9.53472E-05-2.85231E-05-2.86398E-05 1.76679E-07-2.07096E-18-4.69948E-19
 -1      2090 9.52828E-05-2.85181E-05-2.86132E-05 8.99386E-08-2.77130E-18 1.10670E-18
 -1      2091 9.50920E-05-2.80312E-05-2.87415E-05 3.93485E-07-3.65573E-19 5.92347E-19
 -1      2092 9.51413E-05-2.81358E-05-2.87148E-05 3.72856E-07-1.08117E-18 1.13262E-18
 -1      2093 9.51914E-05-2.82415E-05-2.86931E-05 3.31435E-07-1.60756E-18-1.18198E-19
 -1      2094 9.52315E-05-2.83303E-05-2.86699E-05 2.81542E-07-2.11992E-18-2.64763E-19
 -1      2095 9.51786E-05-2.81567E-05-2.87240E-05 4.62141E-07-1.18367E-18 6.07336E-19
 -1      2096 9.52546E-05-2.84024E-05-2.86504E-05 2.17837E-07-3.04984E-18-2.58174E-19
 -1      2097 9.52761E-05-2.84654E-05-2.86316E-05 1.57796E-07-2.61965E-18 8.20905E-19
 -1      2098 9.53058E-05-2.84645E-05-2.86453E-05 2.01593E-07-2.59442E-18 6.44629E-19
 -1      2099 9.52625E-05-2.83360E-05-2.86839E-05 3.41617E-07-2.08755E-18 9.25356E-19
 -1      2100 9.49933E-05-2.78232E-05-2.87892E-05 3.88843E-07-5.92840E-20-2.03590E-18
 -1      2101 9.50421E-05-2.79269E-05-2.87628E-05 3.97995E-07-2.84074E-19-6.55639E-19
 -1      2102 9.50590E-05-2.79408E-05-2.87646E-05 5.10639E-07 3.17803E-21-1.54168E-19
 -1      2103 9.49059E-05-2.76386E-05-2.88315E-05 3.18913E-07-3.05696E-19 2.05569E-18
 -1      2104 9.49476E-05-2.77283E-05-2.88087E-05 3.55930E-07-4.13384E-22 5.63331E-19
 -1      2105 9.49439E-05-2.77348E-05-2.88023E-05 4.77109E-07 1.06174E-18-9.42817E-19
 -1      2106 9.48446E-05-2.75083E-05-2.88615E-05 1.96792E-07-2.96571E-20 7.76870E-19
 -1      2107 9.48720E-05-2.75680E-05-2.88462E-05 2.54475E-07-1.05270E-19 2.28982E-18
 -1      2108 9.48476E-05-2.75635E-05-2.88336E-05 3.65846E-07 9.13800E-19 1.53720E-18
 -1      2109 9.48175E-05-2.74505E-05-2.88745E-05 4.34389E-08 5.72487E-19 1.63937E-18
 -1      2110 9.48268E-05-2.74710E-05-2.88693E-05 1.11955E-07-3.12644E-20 1.47014E-18
 -1      2111 9.47850E-05-2.74518E-05-2.88541E-05 1.96542E-07 3.60728E-19 9.95904E-19
 -1      2112 9.48280E-05-2.74733E-05-2.88687E-05-1.16437E-07 1.89522E-18 1.46913E-18
 -1      2113 9.48180E-05-2.74515E-05-2.88743E-05-4.82106E-08 1.49471E-18 2.38328E-18
 -1      2114 9.47640E-05-2.74142E-05-2.88610E-05-3.26693E-09 3.32175E-19 2.56648E-18
 -1      2115 9.48745E-05-2.75731E-05-2.88451E-05-2.57426E-07 8.82855E-19-1.99292E-18
 -1      2116 9.48467E-05-2.75123E-05-2.88606E-05-2.00548E-07 1.65127E-18 3.11486E-19
 -1      2117 9.47871E-05-2.74556E-05-2.88534E-05-2.02221E-07 3.06444E-19 2.60345E-19
 -1      2118 9.49492E-05-2.77317E-05-2.88079E-05-3.55435E-07 7.01389E-19-1.51532E-18
 -1      2119 9.49082E-05-2.76434E-05-2.88305E-05-3.19758E-07 6.10193E-19-2.27970E-18
 -1      2120 9.48506E-05-2.75690E-05-2.88325E-05-3.68190E-07 6.53567E-19-2.16036E-18
 -1      2121 9.50440E-05-2.79318E-05-2.87615E-05-3.96645E-07 9.65343E-19 1.06389E-18
 -1      2122 9.49947E-05-2.78265E-05-2.87884E-05-3.87816E-07 1.08479E-18 1.56494E-18
 -1      2123 9.49460E-05-2.77397E-05-2.88012E-05-4.76302E-07 1.17282E-18-1.28671E-19
 -1      2124 9.51438E-05-2.81420E-05-2.87132E-05-3.70199E-07 5.98852E-19-2.77861E-18
 -1      2125 9.50946E-05-2.80376E-05-2.87398E-05-3.91551E-07 8.19074E-19-2.49073E-18
 -1      2126 9.50620E-05-2.79472E-05-2.87630E-05-5.08593E-07 2.01147E-18-4.88458E-19
 -1      2127 9.52324E-05-2.83385E-05-2.86684E-05-2.78873E-07-1.26825E-18-1.04643E-19
 -1      2128 9.51927E-05-2.82463E-05-2.86915E-05-3.28134E-07-9.54811E-19-1.01095E-18
 -1      2129 9.51805E-05-2.81625E-05-2.87222E-05-4.57587E-07 1.59198E-19-3.01521E-18
 -1      2130 6.05154E-05-4.00676E-05-9.06021E-06 4.11293E-05 6.86944E-19 1.09344E-18
 -1      2131 4.37904E-05-4.03837E-05-2.62135E-06 3.27830E-05 6.98802E-19 1.40957E-18
 -1      2132 1.23527E-05-2.96683E-05 6.51937E-06 4.88012E-06 9.18078E-19 3.54737E-18
 -1      2133 1.26817E-05-3.05966E-05 6.65144E-06-7.07472E-06-1.93865E-19 2.27682E-18
 -1      2134 2.72464E-05-3.52403E-05 2.33809E-06 2.63274E-05 9.90182E-19 1.22206E-18
 -1      2135 1.82857E-05-3.40431E-05 5.48918E-06 1.75061E-05 5.14361E-19 2.76133E-18
 -1      2136 9.94568E-05-4.38632E-05-2.38142E-05 4.15599E-05 1.74912E-18 9.08443E-19
 -1      2137 8.05556E-05-4.56041E-05-1.58949E-05 3.81568E-05 1.20363E-18 5.09702E-19
 -1      2138 1.35557E-04-4.54038E-05-3.86057E-05 3.03531E-05 1.70741E-18 2.51653E-18
 -1      2139 1.15473E-04-4.54750E-05-3.05870E-05 3.32273E-05 1.94733E-18 2.03161E-18
 -1      2140 8.73052E-05-8.71698E-06-3.37716E-05-1.04593E-05-6.62946E-19-1.52477E-18
 -1      2141 8.80055E-05-9.25565E-06-3.38356E-05-1.20379E-05-8.07368E-19-1.31041E-18
 -1      2142 9.04892E-05-1.30155E-05-3.32312E-05-1.17386E-05-9.11725E-19-1.06337E-18
 -1      2143 8.87123E-05-1.10290E-05-3.33253E-05-9.31351E-06-6.56209E-19-1.45937E-18
 -1      2144 1.81420E-04-2.97964E-05-6.34280E-05 1.09717E-05 1.05180E-18 1.49332E-18
 -1      2145 1.70476E-04-3.04146E-05-5.91726E-05 1.66853E-05 1.23815E-18 2.36703E-18
 -1      2146 1.84650E-04-2.53049E-05-6.69149E-05-2.87879E-07 9.13102E-19 2.14797E-18
 -1      2147 1.83894E-04-2.64395E-05-6.60293E-05 7.12057E-06 1.07488E-18 1.56659E-18
 -1      2148 1.78215E-04-2.64966E-05-6.39011E-05-9.71424E-06 1.07954E-18 2.00069E-18
 -1      2149 1.84040E-04-2.60033E-05-6.62353E-05-3.38554E-06 1.07743E-18 2.75805E-18
 -1      2150 1.62515E-04-3.29099E-05-5.49150E-05-2.04564E-05 1.85765E-18 1.74065E-18
 -1      2151 1.74874E-04-3.18031E-05-6.00846E-05-1.44437E-05 1.38172E-18 2.50764E-18
 -1      2152 1.36610E-04-3.91506E-05-4.18871E-05-3.01470E-05 2.61521E-18 1.60470E-18
 -1      2153 1.55501E-04-3.82217E-05-4.92236E-05-2.83738E-05 2.21076E-18 2.68764E-18
 -1      2154 1.06809E-04-4.55193E-05-2.68713E-05-3.53062E-05 1.30020E-18-6.47133E-19
 -1      2155 1.25825E-04-4.27682E-05-3.50306E-05-3.75854E-05 1.92531E-18 8.03411E-19
 -1      2156 6.71009E-05-4.40393E-05-1.11013E-05-3.71299E-05 1.58565E-18-1.19389E-18
 -1      2157 8.67737E-05-4.33488E-05-1.87963E-05-4.25770E-05 1.11512E-18-1.23667E-18
 -1      2158 3.40723E-05-3.99825E-05 9.22030E-07-2.78471E-05 5.90382E-19-2.14088E-18
 -1      2159 4.72914E-05-3.77827E-05-4.87942E-06-3.59989E-05 1.15027E-18-2.03717E-18
 -1      2160 1.53675E-05-3.51697E-05 7.00067E-06-1.18179E-05 9.76841E-19-6.42051E-19
 -1      2161 2.13996E-05-3.42736E-05 4.39155E-06-2.09993E-05 7.64871E-19-1.35081E-18
 -1      2162 1.26074E-05-3.18391E-05 7.08396E-06 9.04079E-06 3.17214E-19-5.30243E-19
 -1      2163 1.18327E-05-3.45339E-05 8.18679E-06-9.60196E-07 6.63439E-19-3.48554E-19
 -1      2164 3.18340E-05-3.55976E-05 7.03849E-07 2.94824E-05-1.77877E-20-6.86944E-19
 -1      2165 2.23113E-05-3.49561E-05 4.24786E-06 2.16231E-05 5.67936E-19-1.06853E-18
 -1      2166 5.87348E-05-3.83139E-05-9.34019E-06 3.99339E-05-3.29072E-19-9.23584E-19
 -1      2167 4.42901E-05-4.08294E-05-2.91408E-06 3.26454E-05-2.63851E-19-5.88476E-19
 -1      2168 4.61366E-05-3.68398E-05-4.45417E-06 3.75719E-05 2.16840E-19-9.28348E-19
 -1      2169 1.00373E-04-4.22194E-05-2.48416E-05 4.22533E-05-2.55804E-19-6.43322E-19
 -1      2170 8.08238E-05-4.40464E-05-1.68124E-05 3.79861E-05 1.52466E-19-9.39783E-19
 -1      2171 1.35715E-04-4.23409E-05-3.97687E-05 3.37727E-05-1.78300E-19-1.86855E-18
 -1      2172 1.14584E-04-4.23740E-05-3.14757E-05 3.51257E-05-5.42525E-19-1.19389E-18
 -1      2173 1.18748E-04-5.31415E-05-2.78361E-05 3.28086E-05-1.37008E-19-9.76841E-19
 -1      2174 1.60734E-04-3.49977E-05-5.36098E-05 1.32241E-05-1.07404E-18-1.23667E-18
 -1      2175 1.48223E-04-3.78936E-05-4.70999E-05 2.01484E-05-4.92100E-19-1.42471E-18
 -1      2176 1.78254E-04-2.51691E-05-6.40647E-05 6.47314E-06-6.18758E-19-2.15358E-18
 -1      2177 1.67193E-04-2.60102E-05-5.97843E-05 1.00887E-05-1.05921E-18-2.24633E-18
 -1      2178 1.80400E-04-2.40435E-05-6.57982E-05-3.58963E-06-1.25573E-18-1.54086E-18
 -1      2179 1.76779E-04-2.21260E-05-6.53990E-05 2.96112E-06-7.84353E-19-1.59274E-18
 -1      2180 1.64447E-04-2.50692E-05-5.93888E-05-8.34297E-06 2.79097E-19-1.00458E-18
 -1      2181 1.78918E-04-2.59451E-05-6.39784E-05-6.22121E-06-7.64871E-19-1.54986E-18
 -1      2182 1.56238E-04-1.41583E-05-5.99850E-05 1.79617E-06-1.11597E-18-7.03037E-19
 -1      2183 1.49572E-04-3.68196E-05-4.79640E-05-2.28335E-05-1.29485E-18-1.33831E-19
 -1      2184 1.61611E-04-3.45540E-05-5.41289E-05-1.41423E-05 1.12444E-19 8.97855E-20
 -1      2185 1.17213E-04-4.12222E-05-3.30420E-05-3.47328E-05-3.74685E-18-1.14561E-18
 -1      2186 1.38638E-04-4.06459E-05-4.14436E-05-3.41721E-05-3.24096E-18-1.88126E-18
 -1      2187 8.40024E-05-4.50793E-05-1.75769E-05-3.80763E-05-2.24633E-18 1.13312E-18
 -1      2188 1.03390E-04-4.29315E-05-2.57189E-05-4.18609E-05-2.97605E-18-1.96935E-19
 -1      2189 4.46298E-05-4.10127E-05-2.97870E-06-3.26922E-05-5.63277E-19 2.48969E-18
 -1      2190 6.10398E-05-3.88317E-05-9.98339E-06-4.08654E-05-1.27521E-18 2.96880E-18
 -1      2191 1.98857E-05-3.42998E-05 5.00004E-06-1.93896E-05-4.58668E-19 2.34078E-18
 -1      2192 2.94674E-05-3.51236E-05 1.45727E-06-2.82396E-05-8.70750E-19 1.73981E-18
 -1      2193 1.66081E-04-3.52789E-05-5.44311E-05 2.34457E-05 1.34911E-18 3.07176E-18
 -1      2194 1.48583E-04-3.78309E-05-4.70286E-05 2.34100E-05 1.43233E-18 2.95360E-18
 -1      2195 1.59543E-04-3.15510E-05-5.38706E-05 4.30152E-06 1.30062E-18 1.62715E-18
 -1      2196 1.19147E-04-5.43789E-05-2.75025E-05 3.22480E-05 5.51207E-19 1.07213E-18
 -1      2197 9.70914E-05-2.42847E-05-3.12750E-05-9.95540E-06-1.11978E-18 5.40089E-19
 -1      2198 1.43737E-04-4.58387E-05-4.16986E-05 1.90644E-05 1.13100E-18 2.59489E-18
 -1      2199 1.40194E-04-5.35210E-05-3.66894E-05 1.45121E-05 3.44531E-19 1.82387E-18
 -1      2200 1.48020E-04-4.65045E-05-4.42229E-05 5.59655E-06 3.79259E-19 2.35158E-18
 -1      2201 9.62892E-05-2.30865E-05-3.14396E-05-1.03168E-05-1.17515E-18-4.65074E-20
 -1      2202 4.30619E-05-3.47308E-05-3.83639E-06 3.62236E-05 2.66180E-19 1.40544E-18
 -1      2203 1.84569E-05-2.47792E-05 2.19336E-06 1.32537E-05 4.07423E-19 3.17087E-18
 -1      2204 9.52624E-05-2.83857E-05-2.86605E-05-2.59111E-07-7.62212E-19 1.30361E-18
 -1      2205 8.17039E-05-4.86368E-05-1.44007E-05 4.14229E-05 4.13776E-19 7.16855E-19
 -1      2206 2.02073E-05-2.47265E-05 1.48637E-06-1.65288E-05-1.42196E-19 2.69272E-18
 -1      2207 4.53992E-05-3.63374E-05-4.32561E-06-3.71793E-05 3.48554E-19 1.63033E-18
 -1      2208 8.54252E-05-4.92289E-05-1.56169E-05-4.18092E-05-1.00585E-18 1.82419E-18
 -1      2209 1.22414E-04-5.33719E-05-2.93826E-05-3.08816E-05-3.06732E-18-1.49374E-18
 -1      2210 1.58007E-04-2.94572E-05-5.45412E-05-3.97876E-06-2.63004E-19-2.00747E-19
 -1      2211 1.46991E-04-2.32302E-05-5.35285E-05 7.14747E-06-6.36545E-19-1.75971E-19
 -1      2212 1.47875E-04-3.33836E-05-4.89116E-05 2.47450E-06-9.30042E-19-2.27640E-19
 -1      2213 1.59188E-04-1.52700E-05-6.07131E-05-5.20153E-07-7.87741E-19-3.72589E-19
 -1      2214 1.43953E-04-4.64160E-05-4.12045E-05 1.54378E-05-3.90906E-19-1.63393E-18
 -1      2215 8.23649E-05-4.83432E-05-1.47134E-05 4.19459E-05 5.97158E-20-7.19660E-19
 -1      2216 2.12453E-05-2.67507E-05 1.83000E-06 1.91752E-05 3.32037E-19-7.76729E-19
 -1      2217 1.56932E-05-2.46697E-05 3.18382E-06-8.86018E-06 4.53163E-19-6.11558E-19
 -1      2218 3.37533E-05-3.26840E-05-1.06426E-06-3.07155E-05 7.05155E-20-1.83721E-18
 -1      2219 6.83680E-05-4.47773E-05-1.03394E-05-4.17845E-05 6.22569E-19-1.30454E-18
 -1      2220 1.08962E-04-5.38546E-05-2.35537E-05-3.61399E-05 3.40084E-19-7.03037E-20
 -1      2221 1.39023E-04-5.04095E-05-3.75894E-05-2.17518E-05 1.87057E-18 2.59827E-18
 -1      2222 1.55693E-04-3.82862E-05-4.94310E-05-8.97754E-06 1.99640E-18 2.77954E-18
 -1      2223 1.62907E-04-2.38808E-05-5.84199E-05-8.79446E-07 1.39739E-18 2.27090E-18
 -1      2224 1.64637E-04-1.96468E-05-6.07783E-05-4.57274E-09 1.14138E-18 1.06260E-18
 -1      2225 1.65527E-04-1.60603E-05-6.26960E-05 1.89920E-07 1.06514E-18 2.19922E-18
 -1      2226 1.57508E-04-3.00240E-05-5.42646E-05 4.10654E-06-7.34378E-19-1.52720E-18
 -1      2227 1.47017E-04-3.38283E-05-4.83298E-05-3.41480E-06-2.91379E-19-9.77053E-19
 -1      2228 1.48638E-04-2.40945E-05-5.39484E-05-5.79810E-06-3.38601E-19-1.04460E-18
 -1      2229 1.46027E-04-4.50758E-05-4.25424E-05-1.54439E-05-2.71755E-18-3.81588E-19
 -1      2230 9.51830E-05-2.63472E-05-2.94869E-05 4.10712E-06 1.01308E-18 7.89021E-19
 -1      2231 9.61390E-05-2.58328E-05-3.00576E-05 5.92465E-06 1.13870E-18 9.54553E-19
 -1      2232 8.81667E-05-1.10879E-05-3.30735E-05-3.60247E-06-1.43145E-19-1.44124E-18
 -1      2233 8.84027E-05-1.13659E-05-3.30528E-05-4.73131E-06-2.97012E-19-1.48620E-18
 -1      2234 8.87574E-05-1.18628E-05-3.30006E-05-5.73823E-06-3.20913E-19-1.43956E-18
 -1      2235 8.91624E-05-1.23428E-05-3.29679E-05-6.90194E-06-4.91599E-19-1.36929E-18
 -1      2236 8.99101E-05-1.37149E-05-3.26538E-05-4.81340E-06-2.52215E-19-1.34562E-18
 -1      2237 8.78150E-05-1.06123E-05-3.31210E-05 6.06450E-07 4.87967E-19-1.28053E-18
 -1      2238 8.78104E-05-1.06072E-05-3.31212E-05-4.88113E-07 2.70408E-19-1.40171E-18
 -1      2239 8.79995E-05-1.08454E-05-3.31003E-05 2.71405E-06 6.97717E-19-1.27903E-18
 -1      2240 8.78827E-05-1.07078E-05-3.31111E-05 1.60991E-06 5.61456E-19-1.28930E-18
 -1      2241 8.91135E-05-1.26267E-05-3.27824E-05 1.02760E-06 4.72690E-19-1.21816E-18
 -1      2242 8.84394E-05-1.14099E-05-3.30499E-05 4.81542E-06 9.17411E-19-1.22424E-18
 -1      2243 8.81978E-05-1.11255E-05-3.30710E-05 3.70416E-06 7.62771E-19-1.28494E-18
 -1      2244 8.93858E-05-1.29961E-05-3.27395E-05 2.96017E-06 6.66123E-19-1.21970E-18
 -1      2245 8.92217E-05-1.24158E-05-3.29623E-05 6.98431E-06 1.21117E-18-9.86529E-19
 -1      2246 8.88040E-05-1.19200E-05-3.29962E-05 5.82014E-06 1.05770E-18-1.13334E-18
 -1      2247 8.99523E-05-1.37681E-05-3.26488E-05 4.88432E-06 9.53235E-19-1.04353E-18
 -1      2248 9.04844E-05-1.40480E-05-3.28223E-05 9.12621E-06 1.37575E-18-6.97724E-19
 -1      2249 8.98100E-05-1.32287E-05-3.28746E-05 7.94976E-06 1.26143E-18-8.67567E-19
 -1      2250 9.08933E-05-1.50572E-05-3.24939E-05 6.76268E-06 1.23230E-18-8.56152E-19
 -1      2251 9.24582E-05-1.66371E-05-3.25949E-05 1.10163E-05 1.53164E-18-1.93117E-19
 -1      2252 9.13953E-05-1.52924E-05-3.26762E-05 9.93357E-06 1.41926E-18-5.05474E-19
 -1      2253 9.23110E-05-1.70391E-05-3.22386E-05 8.40569E-06 1.35618E-18-5.48599E-19
 -1      2254 9.42476E-05-2.70865E-05-2.87652E-05 1.63463E-06 8.64817E-19 5.42541E-19
 -1      2255 9.48211E-05-2.68621E-05-2.90536E-05 2.62869E-06 9.23273E-19 7.26351E-19
 -1      2256 9.53370E-05-2.58129E-05-2.98048E-05 4.23717E-06 1.07201E-18 3.48723E-19
 -1      2257 9.58906E-05-2.50634E-05-3.03076E-05-6.09245E-06-9.24146E-19-2.78168E-19
 -1      2258 9.52477E-05-2.58139E-05-2.97722E-05-4.16062E-06-8.72490E-19-3.31972E-19
 -1      2259 1.27519E-04-5.73346E-05-3.03213E-05 2.53575E-05 1.33514E-19 2.12076E-18
 -1      2260 1.13777E-04-5.67831E-05-2.44761E-05 3.20852E-05-3.63377E-19 7.75141E-19
 -1      2261 9.51495E-05-2.64961E-05-2.93656E-05-2.79546E-06-7.92335E-19-3.01827E-19
 -1      2262 9.47051E-05-2.68630E-05-2.90737E-05-1.70408E-06-6.39478E-19-3.71707E-19
 -1      2263 9.53517E-05-2.53162E-05-3.00237E-05-4.13329E-06-9.01094E-19-4.81079E-19
 -1      2264 9.45312E-05-2.71869E-05-2.88235E-05-8.12096E-07-5.37853E-19-2.16328E-19
 -1      2265 9.43120E-05-2.73983E-05-2.86727E-05-1.67724E-07-3.78001E-19-2.45726E-19
 -1      2266 9.50820E-05-2.66292E-05-2.93511E-05-1.69030E-06-5.83202E-19-4.57696E-19
 -1      2267 9.41930E-05-2.75716E-05-2.85293E-05 3.98159E-07-3.19458E-19-2.90629E-19
 -1      2268 9.41498E-05-2.77141E-05-2.84670E-05 7.88107E-07-2.18885E-19-3.70093E-19
 -1      2269 9.48270E-05-2.73349E-05-2.89392E-05-1.05686E-07-3.94637E-19-5.02272E-19
 -1      2270 9.41061E-05-2.78158E-05-2.83973E-05 1.15081E-06-9.12246E-20-4.23983E-19
 -1      2271 9.41885E-05-2.79241E-05-2.83931E-05 1.39682E-06-8.10166E-20-4.72634E-19
 -1      2272 9.46941E-05-2.77357E-05-2.87082E-05 9.12409E-07-2.45232E-19-6.03615E-19
 -1      2273 9.42125E-05-2.79878E-05-2.83752E-05 1.64106E-06-3.08537E-19-5.21823E-19
 -1      2274 9.43848E-05-2.80767E-05-2.84112E-05 1.81176E-06-1.60331E-19-5.82205E-19
 -1      2275 9.46948E-05-2.79736E-05-2.86040E-05 1.58267E-06-2.66151E-19-6.48493E-19
 -1      2276 9.44641E-05-2.81183E-05-2.84308E-05 1.99639E-06-5.26705E-20-7.35606E-19
 -1      2277 9.47046E-05-2.81961E-05-2.84962E-05 2.13713E-06-2.14018E-19-7.49729E-19
 -1      2278 9.48107E-05-2.81159E-05-2.85907E-05 2.05782E-06-3.01952E-19-9.17419E-19
 -1      2279 9.48297E-05-2.82246E-05-2.85443E-05 2.30374E-06-5.54174E-19-7.82052E-19
 -1      2280 9.51280E-05-2.82977E-05-2.86332E-05 2.44565E-06-6.47726E-19-7.68466E-19
 -1      2281 9.50222E-05-2.81986E-05-2.86445E-05 2.44532E-06-3.88328E-19-1.06315E-18
 -1      2282 9.52940E-05-2.83196E-05-2.87038E-05 2.62371E-06-5.52080E-19-6.81764E-19
 -1      2283 9.56483E-05-2.83949E-05-2.88134E-05 2.78802E-06-4.59676E-19-6.64312E-19
 -1      2284 9.53162E-05-2.82447E-05-2.87498E-05 2.82130E-06-6.40616E-19-8.09437E-19
 -1      2285 9.58544E-05-2.84172E-05-2.89028E-05 2.99746E-06-4.34357E-19-5.88037E-19
 -1      2286 9.62690E-05-2.85030E-05-2.90320E-05 3.19707E-06-1.39291E-19-4.83281E-19
 -1      2287 9.56885E-05-2.82738E-05-2.88965E-05 3.23878E-06-4.86062E-19-5.27011E-19
 -1      2288 9.65190E-05-2.85344E-05-2.91376E-05 3.44898E-06-8.18117E-20-3.31828E-19
 -1      2289 9.70019E-05-2.86417E-05-2.92858E-05 3.68806E-06 7.52900E-21-1.36244E-19
 -1      2290 9.61433E-05-2.83069E-05-2.90771E-05 3.73121E-06-2.81194E-20 1.70723E-20
 -1      2291 9.73041E-05-2.86949E-05-2.94050E-05 3.98364E-06-1.70193E-19-4.48153E-19
 -1      2292 9.78655E-05-2.88387E-05-2.95714E-05 4.25543E-06-6.69292E-19-4.31060E-19
 -1      2293 9.66936E-05-2.83714E-05-2.92855E-05 4.31223E-06-2.25698E-19-5.40868E-19
 -1      2294 9.82339E-05-2.89322E-05-2.97009E-05 4.58307E-06-8.64927E-19-2.63163E-19
 -1      2295 9.88840E-05-2.91330E-05-2.98829E-05 4.86575E-06-7.17484E-19-1.79469E-19
 -1      2296 9.73626E-05-2.85067E-05-2.95148E-05 4.97202E-06-6.86431E-19-6.12190E-19
 -1      2297 9.93401E-05-2.92945E-05-3.00180E-05 5.19620E-06-8.66681E-19-2.25271E-19
 -1      2298 1.00087E-04-2.95795E-05-3.02104E-05 5.44688E-06-7.15363E-19 9.78107E-20
 -1      2299 9.81865E-05-2.87700E-05-2.97562E-05 5.66973E-06-7.35717E-19-3.85456E-19
 -1      2300 1.00663E-04-2.98485E-05-3.03449E-05 5.72620E-06-7.79666E-19-1.57455E-19
 -1      2301 1.01510E-04-3.02514E-05-3.05386E-05 5.87384E-06-5.80254E-19-5.57673E-20
 -1      2302 9.92198E-05-2.92434E-05-2.99983E-05 6.32199E-06-9.02863E-19 2.04706E-19
 -1      2303 1.02251E-04-3.06786E-05-3.06653E-05 6.01479E-06-8.72134E-20-2.27767E-19
 -1      2304 1.03190E-04-3.12343E-05-3.08478E-05 5.95448E-06 5.84399E-20 1.78013E-19
 -1      2305 1.00540E-04-3.00364E-05-3.02279E-05 6.78788E-06-4.42253E-19 2.64704E-19
 -1      2306 1.04151E-04-3.18733E-05-3.09616E-05 5.82877E-06-3.46374E-19 5.36137E-20
 -1      2307 1.05152E-04-3.25998E-05-3.11186E-05 5.42392E-06-2.61214E-19-8.43414E-20
 -1      2308 1.02250E-04-3.12752E-05-3.04349E-05 6.85255E-06-2.59439E-19 1.64054E-19
 -1      2309 1.06381E-04-3.34791E-05-3.12219E-05 4.86217E-06-6.82060E-20-1.24344E-19
 -1      2310 1.07370E-04-3.43383E-05-3.13426E-05 3.96671E-06 3.87438E-19-7.97857E-20
 -1      2311 1.04454E-04-3.30590E-05-3.06210E-05 6.21779E-06-1.68632E-19 4.04157E-19
 -1      2312 1.08855E-04-3.54004E-05-3.14542E-05 2.78182E-06 7.29583E-19-5.46742E-20
 -1      2313 1.09683E-04-3.62281E-05-3.15402E-05 1.30160E-06 1.04352E-18-3.85462E-19
 -1      2314 1.07196E-04-3.53543E-05-3.08159E-05 4.51909E-06 4.91107E-19 1.76868E-19
 -1      2315 1.11252E-04-3.72295E-05-3.17030E-05-6.17227E-07 1.35067E-18-4.12852E-19
 -1      2316 1.11671E-04-3.76747E-05-3.17757E-05-2.59891E-06 1.53492E-18-1.78489E-19
 -1      2317 1.10305E-04-3.77912E-05-3.10969E-05 1.42027E-06 1.24517E-18-4.10814E-19
 -1      2318 1.12911E-04-3.81276E-05-3.20537E-05-5.10024E-06 1.02464E-18-2.51151E-19
 -1      2319 1.12621E-04-3.76792E-05-3.21550E-05-7.16760E-06 8.54974E-19-4.21578E-19
 -1      2320 1.13198E-04-3.94704E-05-3.15924E-05-3.10440E-06 1.22665E-18-5.03736E-20
 -1      2321 1.12888E-04-3.69324E-05-3.26064E-05-9.56434E-06 9.59950E-19-4.40584E-19
 -1      2322 1.11724E-04-3.52067E-05-3.27740E-05-1.08635E-05 6.07905E-19-3.68506E-19
 -1      2323 1.14783E-04-3.89701E-05-3.24504E-05-8.32572E-06 1.07359E-18-7.14122E-19
 -1      2324 1.10622E-04-3.29955E-05-3.33744E-05-1.18308E-05-9.07765E-20-5.18096E-19
 -1      2325 1.08893E-04-3.03411E-05-3.35937E-05-1.13408E-05-4.10612E-20-4.55247E-19
 -1      2326 1.13919E-04-3.51446E-05-3.37149E-05-1.21823E-05 1.95109E-19-2.95701E-19
 -1      2327 1.06992E-04-2.75263E-05-3.41703E-05-9.61608E-06-7.71065E-20-6.17044E-19
 -1      2328 1.05594E-04-2.53167E-05-3.43433E-05-6.94903E-06-7.88535E-20-5.03237E-19
 -1      2329 1.10708E-04-2.87224E-05-3.51478E-05-1.17526E-05-4.23966E-19-1.20543E-19
 -1      2330 1.04481E-04-2.38063E-05-3.46125E-05-2.75817E-06 1.56582E-19-6.87205E-19
 -1      2331 1.04332E-04-2.35717E-05-3.46288E-05 1.07025E-06 2.14313E-19 6.65260E-21
 -1      2332 1.07458E-04-2.32391E-05-3.61855E-05-5.57429E-06-4.94323E-20-7.93538E-19
 -1      2333 1.05098E-04-2.46020E-05-3.44429E-05 5.52736E-06-4.57014E-19-6.42231E-19
 -1      2334 1.06303E-04-2.65062E-05-3.42962E-05 8.56815E-06-7.75723E-19-1.14580E-18
 -1      2335 1.07078E-04-2.26272E-05-3.62827E-05 3.80441E-06-4.40695E-19-1.02238E-18
 -1      2336 1.08210E-04-2.92416E-05-3.37653E-05 1.08870E-05-6.37286E-19-9.36711E-19
 -1      2337 1.09960E-04-3.19468E-05-3.35489E-05 1.18110E-05-6.37402E-19-1.10452E-18
 -1      2338 1.09959E-04-2.74072E-05-3.54095E-05 1.09745E-05-6.68276E-19-6.58323E-19
 -1      2339 1.11299E-04-3.43749E-05-3.29364E-05 1.13077E-05-3.05736E-19-8.31176E-19
 -1      2340 1.12624E-04-3.63421E-05-3.27568E-05 1.03032E-05-1.51506E-19-4.72767E-20
 -1      2341 1.13437E-04-3.39880E-05-3.40110E-05 1.25504E-05-1.60496E-19-2.22796E-19
 -1      2342 1.12627E-04-3.73915E-05-3.22731E-05 8.09053E-06 8.68076E-20 4.16148E-19
 -1      2343 1.13100E-04-3.80853E-05-3.21632E-05 6.10376E-06 7.85936E-19 5.36365E-19
 -1      2344 1.14839E-04-3.84614E-05-3.26895E-05 9.33469E-06 3.03117E-19 4.64398E-19
 -1      2345 1.12009E-04-3.78255E-05-3.18556E-05 3.55303E-06 1.18429E-19 1.94152E-19
 -1      2346 1.11719E-04-3.75166E-05-3.17841E-05 1.51524E-06-2.11517E-19 9.57775E-19
 -1      2347 1.13691E-04-3.95845E-05-3.17520E-05 4.20541E-06 3.28225E-19 3.72824E-19
 -1      2348 1.10177E-04-3.65733E-05-3.16075E-05-5.34063E-07-2.84246E-19 6.66858E-19
 -1      2349 1.09420E-04-3.57859E-05-3.15314E-05-2.11545E-06-4.39423E-19 2.74288E-19
 -1      2350 1.10970E-04-3.82152E-05-3.11997E-05-5.37016E-07-6.86181E-19 3.06202E-19
 -1      2351 1.07908E-04-3.47077E-05-3.14187E-05-3.42416E-06-7.21669E-19-2.06182E-19
 -1      2352 1.06954E-04-3.38378E-05-3.13118E-05-4.41438E-06-1.06453E-18 1.82933E-19
 -1      2353 1.07853E-04-3.58266E-05-3.08959E-05-3.90043E-06-7.65346E-19-1.11775E-19
 -1      2354 1.05681E-04-3.29121E-05-3.12151E-05-5.06361E-06-1.19735E-18 3.11795E-19
 -1      2355 1.04699E-04-3.21555E-05-3.10729E-05-5.53246E-06-9.89369E-19-1.50249E-19
 -1      2356 1.05036E-04-3.34550E-05-3.07022E-05-5.81306E-06-1.25118E-18 5.83719E-19
 -1      2357 1.03702E-04-3.14681E-05-3.09697E-05-5.70213E-06-1.41409E-19 5.87972E-19
 -1      2358 1.02778E-04-3.08822E-05-3.08016E-05-5.79094E-06 8.95780E-19 1.29117E-18
 -1      2359 1.02750E-04-3.15539E-05-3.05313E-05-6.57617E-06 8.78660E-20 1.65187E-18
 -1      2360 1.02016E-04-3.04161E-05-3.06869E-05-5.65631E-06 7.35251E-19 1.10648E-18
 -1      2361 1.01190E-04-2.99907E-05-3.05074E-05-5.50565E-06 8.15930E-19 1.27908E-18
 -1      2362 1.00983E-04-3.02064E-05-3.03460E-05-6.55730E-06 5.58297E-19 2.52571E-18
 -1      2363 1.00608E-04-2.96945E-05-3.03855E-05-5.20322E-06 2.94065E-19 3.84261E-19
 -1      2364 9.98907E-05-2.93969E-05-3.02081E-05-4.92441E-06-9.59434E-19 1.04188E-19
 -1      2365 9.96356E-05-2.93299E-05-3.01403E-05-6.06972E-06 9.59968E-20 8.87516E-19
 -1      2366 9.94423E-05-2.92186E-05-3.00861E-05-4.54890E-06-5.48849E-19-1.83618E-19
 -1      2367 9.88342E-05-2.90148E-05-2.99207E-05-4.21935E-06 4.44670E-19 5.47261E-19
 -1      2368 9.86040E-05-2.87995E-05-2.99232E-05-5.34404E-06-8.31617E-19 8.23514E-19
 -1      2369 9.84840E-05-2.89131E-05-2.98048E-05-3.83105E-06 5.01705E-19 1.05319E-18
 -1      2370 9.79789E-05-2.87755E-05-2.96575E-05-3.49923E-06-2.41483E-19 1.29790E-18
 -1      2371 9.78055E-05-2.85019E-05-2.97071E-05-4.53510E-06 4.50141E-19 1.14077E-18
 -1      2372 9.77029E-05-2.87211E-05-2.95524E-05-3.13313E-06-4.66670E-19 1.99507E-18
 -1      2373 9.72911E-05-2.86290E-05-2.94259E-05-2.82610E-06 8.40705E-21 2.08613E-18
 -1      2374 9.71811E-05-2.83514E-05-2.95031E-05-3.73863E-06 4.80575E-19 2.53541E-18
 -1      2375 9.70728E-05-2.86025E-05-2.93340E-05-2.49978E-06-5.19874E-19 2.33376E-18
 -1      2376 9.67428E-05-2.85411E-05-2.92288E-05-2.22998E-06 5.43509E-19 2.04892E-18
 -1      2377 9.66898E-05-2.82885E-05-2.93189E-05-3.00788E-06 2.77893E-19 3.42120E-18
 -1      2378 9.65700E-05-2.85298E-05-2.91510E-05-1.94967E-06 1.57543E-18 2.05182E-18
 -1      2379 9.63102E-05-2.84887E-05-2.90658E-05-1.72017E-06 1.72153E-18 1.20971E-18
 -1      2380 9.63024E-05-2.82739E-05-2.91587E-05-2.36719E-06 4.70161E-19 2.65950E-18
 -1      2381 9.61735E-05-2.84845E-05-2.90020E-05-1.48499E-06 1.35395E-18 3.29133E-19
 -1      2382 9.59724E-05-2.84561E-05-2.89349E-05-1.29320E-06 1.34339E-18 1.16738E-18
 -1      2383 9.59971E-05-2.82821E-05-2.90238E-05-1.82220E-06 7.54015E-19 1.38387E-18
 -1      2384 9.58642E-05-2.84541E-05-2.88839E-05-1.09822E-06 1.97704E-18 4.24551E-19
 -1      2385 9.57112E-05-2.84334E-05-2.88326E-05-9.38858E-07 1.27675E-18 1.29314E-18
 -1      2386 9.57563E-05-2.82973E-05-2.89136E-05-1.36705E-06 1.50836E-18 1.34463E-18
 -1      2387 9.56246E-05-2.84310E-05-2.87927E-05-7.77087E-07 2.22201E-19 1.26167E-18
 -1      2388 9.55121E-05-2.84147E-05-2.87545E-05-6.44458E-07-8.10358E-19 1.64238E-18
 -1      2389 9.55653E-05-2.83098E-05-2.88258E-05-9.90110E-07 8.11232E-19-8.09946E-19
 -1      2390 9.35120E-05-2.76679E-05-2.82088E-05-7.02096E-07 3.25758E-19 2.59871E-19
 -1      2391 9.35329E-05-2.75574E-05-2.82501E-05-3.69581E-07 5.39600E-19 4.02567E-19
 -1      2392 9.35931E-05-2.78435E-05-2.81701E-05-1.24137E-06 2.14145E-19 6.85151E-20
 -1      2393 9.34668E-05-2.77427E-05-2.81536E-05-1.03713E-06 2.36640E-19 9.01420E-20
 -1      2394 9.41946E-05-2.77456E-05-2.84910E-05-8.41998E-07 4.61428E-19 6.65707E-20
 -1      2395 9.38703E-05-2.79982E-05-2.82230E-05-1.59679E-06 3.42869E-19 2.49525E-19
 -1      2396 9.36441E-05-2.79017E-05-2.81678E-05-1.45827E-06 2.26051E-19 5.31035E-20
 -1      2397 9.42242E-05-2.79465E-05-2.84148E-05-1.46221E-06 2.75351E-19-1.09214E-19
 -1      2398 9.42942E-05-2.81439E-05-2.83421E-05-1.86876E-06 6.19827E-19 1.89531E-19
 -1      2399 9.39945E-05-2.80487E-05-2.82586E-05-1.75537E-06 4.45518E-19 2.04814E-19
 -1      2400 9.44113E-05-2.80892E-05-2.84316E-05-1.88914E-06 3.58069E-19-1.06158E-19
 -1      2401 9.48389E-05-2.82880E-05-2.85129E-05-2.12674E-06 4.93028E-19 2.47905E-19
 -1      2402 9.44769E-05-2.81910E-05-2.84063E-05-2.01029E-06 6.84512E-19 3.36644E-19
 -1      2403 9.47216E-05-2.81978E-05-2.85165E-05-2.23103E-06 6.11769E-19-1.80433E-19
 -1      2404 9.54965E-05-2.84385E-05-2.87290E-05-2.42050E-06 3.01743E-19 2.77111E-19
 -1      2405 9.50725E-05-2.83351E-05-2.86008E-05-2.28071E-06 3.20643E-19 3.71658E-19
 -1      2406 9.51353E-05-2.82869E-05-2.86548E-05-2.56426E-06 4.11839E-19 2.50131E-19
 -1      2407 9.62733E-05-2.86057E-05-2.89888E-05-2.78521E-06 1.24971E-19 1.78862E-19
 -1      2408 9.57799E-05-2.84896E-05-2.88381E-05-2.60797E-06 4.18194E-19 3.01790E-19
 -1      2409 9.56453E-05-2.83685E-05-2.88380E-05-2.94356E-06 3.46211E-19 3.84548E-19
 -1      2410 9.71854E-05-2.88039E-05-2.92932E-05-3.24257E-06 3.90725E-19-1.13495E-19
 -1      2411 9.66101E-05-2.86663E-05-2.91181E-05-3.01994E-06 2.00248E-19 1.20687E-19
 -1      2412 9.62553E-05-2.84566E-05-2.90618E-05-3.40677E-06 3.56165E-19 2.88035E-19
 -1      2413 9.82553E-05-2.90525E-05-2.96441E-05-3.79833E-06 3.80750E-19 1.01915E-20
 -1      2414 9.75833E-05-2.88820E-05-2.94424E-05-3.53036E-06 4.36602E-19 1.53799E-21
 -1      2415 9.69781E-05-2.85692E-05-2.93235E-05-3.97541E-06 3.29438E-19-3.69672E-21
 -1      2416 9.95087E-05-2.93797E-05-3.00412E-05-4.43570E-06 4.06924E-19 2.43431E-19
 -1      2417 9.87256E-05-2.91607E-05-2.98121E-05-4.13439E-06 5.27995E-19 2.06786E-19
 -1      2418 9.78341E-05-2.87336E-05-2.96205E-05-4.65136E-06 3.45879E-19-5.75920E-20
 -1      2419 1.00971E-04-2.98250E-05-3.04790E-05-5.10370E-06 2.46551E-19 5.02695E-19
 -1      2420 1.00067E-04-2.95369E-05-3.02250E-05-4.79955E-06 2.02122E-19 3.69743E-19
 -1      2421 9.88525E-05-2.89910E-05-2.99474E-05-5.40894E-06 2.53485E-19 4.16493E-19
 -1      2422 1.02663E-04-3.04441E-05-3.09445E-05-5.70004E-06 5.40237E-19 5.77484E-19
 -1      2423 1.01638E-04-3.00605E-05-3.06732E-05-5.45129E-06 4.72340E-19 7.72085E-19
 -1      2424 1.00073E-04-2.94041E-05-3.02949E-05-6.18181E-06 1.12980E-19 2.88428E-19
 -1      2425 1.04597E-04-3.13084E-05-3.14133E-05-6.04963E-06 1.76015E-19 5.49586E-19
 -1      2426 1.03470E-04-3.07993E-05-3.11398E-05-5.95283E-06 5.01522E-19 7.99119E-19
 -1      2427 1.01551E-04-3.00646E-05-3.06476E-05-6.84407E-06 4.28892E-19 7.05913E-19
 -1      2428 1.06765E-04-3.24938E-05-3.18505E-05-5.88597E-06-3.19123E-19 3.95199E-19
 -1      2429 1.05581E-04-3.18358E-05-3.15981E-05-6.08251E-06-9.69538E-21 5.64825E-19
 -1      2430 1.03361E-04-3.10931E-05-3.09861E-05-7.18706E-06-6.48462E-20 9.95994E-19
 -1      2431 1.09108E-04-3.40358E-05-3.22157E-05-4.85464E-06-3.91475E-19 2.88653E-20
 -1      2432 1.07964E-04-3.32411E-05-3.20139E-05-5.52009E-06-3.30525E-19 3.37844E-19
 -1      2433 1.05587E-04-3.26167E-05-3.12918E-05-6.89928E-06-3.88847E-19 9.09680E-19
 -1      2434 1.11464E-04-3.58263E-05-3.24805E-05-2.57884E-06-4.04988E-21 2.30745E-19
 -1      2435 1.10530E-04-3.50008E-05-3.23565E-05-3.87161E-06-5.71218E-20 5.98945E-20
 -1      2436 1.08282E-04-3.46916E-05-3.15617E-05-5.57039E-06-1.41322E-19 6.91372E-19
 -1      2437 1.13462E-04-3.74476E-05-3.26543E-05 1.13697E-06 8.97974E-19 2.84025E-20
 -1      2438 1.13000E-04-3.68643E-05-3.26180E-05-7.98630E-07 1.92204E-19-2.02313E-19
 -1      2439 1.11351E-04-3.71244E-05-3.18307E-05-2.76974E-06 3.83086E-19 3.18062E-19
 -1      2440 1.14460E-04-3.80407E-05-3.28121E-05 5.94235E-06 1.12067E-18 7.52073E-19
 -1      2441 1.14790E-04-3.81736E-05-3.28395E-05 3.67802E-06 1.24256E-18 2.77212E-19
 -1      2442 1.14352E-04-3.92326E-05-3.21943E-05 1.69935E-06 7.34338E-19 6.03912E-20
 -1      2443 1.13654E-04-3.64820E-05-3.30827E-05 1.04402E-05 1.97829E-19 7.38990E-19
 -1      2444 1.14981E-04-3.78055E-05-3.31167E-05 8.67459E-06 8.28709E-19 8.58387E-19
 -1      2445 1.16307E-04-3.96814E-05-3.28080E-05 7.32379E-06 7.51570E-19 8.28490E-19
 -1      2446 1.10753E-04-3.23532E-05-3.35450E-05 1.21443E-05-9.23557E-19 9.33457E-20
 -1      2447 1.12832E-04-3.47896E-05-3.35361E-05 1.20464E-05-2.23045E-19 8.77579E-19
 -1      2448 1.15965E-04-3.70040E-05-3.37946E-05 1.22075E-05-7.00126E-21 8.13046E-19
 -1      2449 1.06976E-04-2.72818E-05-3.40843E-05 8.74688E-06 4.56074E-20-1.33713E-18
 -1      2450 1.08863E-04-2.96684E-05-3.40415E-05 1.10456E-05-7.08014E-19-7.80812E-19
 -1      2451 1.12952E-04-3.11807E-05-3.50400E-05 1.31475E-05 2.34033E-19-3.57309E-19
 -1      2452 1.04971E-04-2.46773E-05-3.44126E-05 7.63854E-07 4.51535E-19-3.25143E-19
 -1      2453 1.05526E-04-2.53868E-05-3.43929E-05 4.69078E-06 5.35484E-20-1.14140E-18
 -1      2454 1.09227E-04-2.51959E-05-3.60962E-05 7.82210E-06 1.44049E-19-2.02312E-18
 -1      2455 1.06552E-04-2.67152E-05-3.43016E-05-7.71815E-06-3.94559E-19 6.55987E-20
 -1      2456 1.05380E-04-2.51797E-05-3.43366E-05-4.23746E-06 3.14937E-19 5.14988E-19
 -1      2457 1.08037E-04-2.33868E-05-3.64013E-05-2.02465E-06-1.65899E-19-2.29449E-19
 -1      2458 1.10511E-04-3.17619E-05-3.38493E-05-1.20952E-05-4.51713E-19 1.16947E-18
 -1      2459 1.08414E-04-2.91740E-05-3.38861E-05-1.07465E-05-4.47472E-19 8.54226E-19
 -1      2460 1.10572E-04-2.72827E-05-3.57553E-05-1.06516E-05-7.45177E-19 1.10721E-18
 -1      2461 1.13979E-04-3.62809E-05-3.33585E-05-1.11356E-05-2.90592E-19 1.78506E-18
 -1      2462 1.12109E-04-3.42245E-05-3.33447E-05-1.19997E-05-6.31089E-19 1.46580E-18
 -1      2463 1.14394E-04-3.37177E-05-3.45455E-05-1.34797E-05-1.02966E-18 8.56099E-19
 -1      2464 1.15191E-04-3.82098E-05-3.30092E-05-6.83460E-06 3.78415E-19 1.19432E-18
 -1      2465 1.14234E-04-3.73976E-05-3.29656E-05-8.87223E-06 2.38804E-19 1.92629E-18
 -1      2466 1.16446E-04-3.84942E-05-3.33703E-05-1.05903E-05-6.02505E-19 7.50872E-19
 -1      2467 1.14279E-04-3.77857E-05-3.27721E-05-1.87827E-06 1.75877E-18-2.61363E-19
 -1      2468 1.14270E-04-3.79936E-05-3.27610E-05-4.01840E-06 1.24160E-18 8.16996E-19
 -1      2469 1.15776E-04-3.98077E-05-3.25447E-05-5.12617E-06 1.16721E-18 1.26777E-18
 -1      2470 1.12150E-04-3.61566E-05-3.25522E-05 2.08124E-06 1.30195E-19 1.30966E-19
 -1      2471 1.12809E-04-3.68677E-05-3.26175E-05 4.37595E-07 9.02666E-19 2.55342E-19
 -1      2472 1.13284E-04-3.85232E-05-3.20542E-05 1.63592E-07 1.32429E-18 1.39273E-18
 -1      2473 1.09623E-04-3.42900E-05-3.22718E-05 4.55283E-06-1.02383E-18 8.13716E-19
 -1      2474 1.10639E-04-3.51092E-05-3.24228E-05 3.55750E-06-6.00196E-19 4.50049E-19
 -1      2475 1.10191E-04-3.61591E-05-3.17526E-05 3.95978E-06-6.53148E-19 2.22052E-18
 -1      2476 1.07148E-04-3.26634E-05-3.19127E-05 5.70140E-06 6.56633E-20 1.22803E-18
 -1      2477 1.08294E-04-3.33964E-05-3.21297E-05 5.26614E-06-4.69777E-19 8.56633E-19
 -1      2478 1.07267E-04-3.38156E-05-3.15022E-05 6.10457E-06-1.09261E-18 2.97710E-18
 -1      2479 1.04919E-04-3.14158E-05-3.14955E-05 5.90756E-06 1.65245E-19 2.27869E-18
 -1      2480 1.06055E-04-3.20022E-05-3.17486E-05 5.86358E-06 4.72596E-19 1.95029E-18
 -1      2481 1.04789E-04-3.19495E-05-3.12343E-05 6.92665E-06-3.15900E-21 2.63001E-18
 -1      2482 1.02988E-04-3.05172E-05-3.10548E-05 5.54334E-06-9.19557E-19 3.00636E-18
 -1      2483 1.04036E-04-3.09623E-05-3.13158E-05 5.73145E-06-2.17420E-20 2.55553E-18
 -1      2484 1.02779E-04-3.06323E-05-3.09325E-05 6.86439E-06-1.49215E-19 2.89793E-18
 -1      2485 1.01350E-04-2.98880E-05-3.06234E-05 4.89037E-06-3.28250E-19 1.41134E-18
 -1      2486 1.02273E-04-3.02180E-05-3.08717E-05 5.19138E-06-5.65376E-19 2.19032E-18
 -1      2487 1.01165E-04-2.97667E-05-3.06085E-05 6.29231E-06 1.60781E-20 2.62722E-18
 -1      2488 9.99824E-05-2.94513E-05-3.02249E-05 4.13494E-06-1.04890E-18 9.11952E-19
 -1      2489 1.00769E-04-2.96938E-05-3.04481E-05 4.47113E-06-1.51773E-19 1.37689E-18
 -1      2490 9.98663E-05-2.92228E-05-3.02828E-05 5.47936E-06-2.10386E-19 1.12961E-18
 -1      2491 9.88571E-05-2.91479E-05-2.98729E-05 3.38762E-06-6.68095E-19 8.61939E-20
 -1      2492 9.95098E-05-2.93254E-05-3.00652E-05 3.71387E-06-1.68759E-18 4.42922E-19
 -1      2493 9.88166E-05-2.88914E-05-2.99738E-05 4.59887E-06-8.60955E-19-1.67717E-19
 -1      2494 9.79443E-05-2.89359E-05-2.95727E-05 2.70642E-06 9.27481E-19 7.55726E-19
 -1      2495 9.84737E-05-2.90655E-05-2.97331E-05 2.99995E-06 4.11948E-19-3.36576E-19
 -1      2496 9.79683E-05-2.86938E-05-2.96943E-05 3.75194E-06-3.39855E-19-1.31662E-18
 -1      2497 9.72147E-05-2.87868E-05-2.93240E-05 2.11564E-06 1.82018E-18 4.62834E-19
 -1      2498 9.76357E-05-2.88813E-05-2.94543E-05 2.36780E-06 1.13701E-18 1.19862E-18
 -1      2499 9.72859E-05-2.85782E-05-2.94509E-05 2.99024E-06 7.74409E-19 6.80023E-19
 -1      2500 9.66403E-05-2.86810E-05-2.91234E-05 1.61931E-06 2.77792E-18 1.55795E-18
 -1      2501 9.69688E-05-2.87498E-05-2.92265E-05 1.82983E-06 2.35133E-18 1.56595E-18
 -1      2502 9.67413E-05-2.85115E-05-2.92455E-05 2.33390E-06 1.59273E-18 1.46216E-18
 -1      2503 9.61954E-05-2.86044E-05-2.89655E-05 1.21011E-06 2.72685E-18 1.16058E-18
 -1      2504 9.64465E-05-2.86548E-05-2.90451E-05 1.38337E-06 3.62179E-18 1.78538E-18
 -1      2505 9.63108E-05-2.84727E-05-2.90772E-05 1.78396E-06 2.68956E-18 2.94431E-18
 -1      2506 9.58561E-05-2.85478E-05-2.88445E-05 8.73192E-07 5.77550E-19 1.21727E-18
 -1      2507 9.60432E-05-2.85841E-05-2.89043E-05 1.01652E-06 1.11211E-18 1.84582E-18
 -1      2508 9.59728E-05-2.84475E-05-2.89427E-05 1.33218E-06 1.76312E-18 2.87256E-18
 -1      2509 9.56026E-05-2.85049E-05-2.87545E-05 5.95391E-07 1.31394E-18 1.47094E-18
 -1      2510 9.57391E-05-2.85315E-05-2.87978E-05 7.15658E-07 1.32313E-18 1.71240E-18
 -1      2511 9.57113E-05-2.84317E-05-2.88384E-05 9.60020E-07 7.21491E-19 3.22441E-18
 -1      2512 9.54162E-05-2.84725E-05-2.86886E-05 3.65480E-07-6.26053E-19 1.31343E-18
 -1      2513 9.55135E-05-2.84911E-05-2.87194E-05 4.67163E-07 1.11260E-18 9.70988E-19
 -1      2514 9.55126E-05-2.84194E-05-2.87585E-05 6.51191E-07 1.36073E-18 2.93852E-18
 -1      2515 9.53486E-05-2.84705E-05-2.86596E-05 2.51044E-07-2.24212E-18 6.17888E-19
 -1      2516 9.48597E-05-2.76298E-05-2.88162E-05 5.57647E-07 2.21371E-18 9.79983E-20
 -1      2517 9.49286E-05-2.77259E-05-2.87999E-05 5.99817E-07 1.46276E-18-1.66822E-18
 -1      2518 9.47429E-05-2.74622E-05-2.88380E-05 4.01031E-07 1.94923E-18 3.18401E-18
 -1      2519 9.47942E-05-2.75339E-05-2.88259E-05 4.80330E-07 1.57316E-18 2.47233E-18
 -1      2520 9.47667E-05-2.75073E-05-2.88231E-05 6.09081E-07 2.79512E-18 1.06884E-18
 -1      2521 9.51637E-05-2.80755E-05-2.87541E-05 6.03012E-07 5.85172E-19 1.51918E-18
 -1      2522 9.52383E-05-2.81837E-05-2.87348E-05 5.60455E-07-1.78098E-19 1.47932E-18
 -1      2523 9.50101E-05-2.78454E-05-2.87875E-05 6.27942E-07 3.20088E-19-9.59551E-19
 -1      2524 9.50841E-05-2.79507E-05-2.87691E-05 6.23613E-07 2.97489E-19 1.31927E-18
 -1      2525 9.51197E-05-2.79736E-05-2.87783E-05 7.29749E-07 2.07749E-18 1.13213E-18
 -1      2526 9.49399E-05-2.77273E-05-2.88037E-05 7.25972E-07 2.02296E-18-1.62238E-19
 -1      2527 9.46737E-05-2.73628E-05-2.88505E-05 1.83917E-07 9.29081E-19 1.52126E-18
 -1      2528 9.47007E-05-2.74007E-05-2.88441E-05 2.87418E-07 1.14215E-18 1.02635E-18
 -1      2529 9.46392E-05-2.73463E-05-2.88368E-05 4.02496E-07 1.32294E-18 1.89174E-18
 -1      2530 9.46605E-05-2.73436E-05-2.88523E-05-6.03150E-08 1.08604E-18 3.20190E-18
 -1      2531 9.46597E-05-2.73426E-05-2.88525E-05 5.12425E-08-1.14708E-19 3.50571E-18
 -1      2532 9.45725E-05-2.72626E-05-2.88437E-05 1.36914E-07 1.18566E-18 1.83071E-18
 -1      2533 9.47045E-05-2.74065E-05-2.88432E-05-2.94849E-07-5.22357E-20-7.63041E-19
 -1      2534 9.46764E-05-2.73669E-05-2.88499E-05-1.92360E-07 2.64958E-19 8.64377E-19
 -1      2535 9.45745E-05-2.72658E-05-2.88433E-05-1.48187E-07 7.91729E-19 2.10744E-18
 -1      2536 9.47980E-05-2.75403E-05-2.88247E-05-4.81741E-07 5.72039E-19-2.05765E-18
 -1      2537 9.47472E-05-2.74691E-05-2.88368E-05-4.05035E-07 9.47493E-20-1.14327E-18
 -1      2538 9.46441E-05-2.73539E-05-2.88357E-05-4.09215E-07 1.21326E-19-6.58293E-19
 -1      2539 9.49323E-05-2.77333E-05-2.87984E-05-5.98479E-07 1.28881E-18 4.18079E-19
 -1      2540 9.48638E-05-2.76369E-05-2.88148E-05-5.57404E-07 1.30545E-18-8.64686E-19
 -1      2541 9.47719E-05-2.75165E-05-2.88215E-05-6.10461E-07 1.11726E-18-1.48037E-18
 -1      2542 9.50882E-05-2.79607E-05-2.87671E-05-6.22407E-07 5.08226E-19-2.39364E-18
 -1      2543 9.50126E-05-2.78519E-05-2.87857E-05-6.26093E-07 8.23254E-19 1.22718E-19
 -1      2544 9.49427E-05-2.77361E-05-2.88016E-05-7.23021E-07 6.17710E-19-8.10501E-19
 -1      2545 9.52401E-05-2.81929E-05-2.87323E-05-5.50411E-07-5.83774E-19-2.38550E-18
 -1      2546 9.51700E-05-2.80855E-05-2.87520E-05-5.97762E-07 1.11283E-19-4.36169E-18
 -1      2547 9.51304E-05-2.79865E-05-2.87764E-05-7.27570E-07-2.68894E-19-2.99972E-18
 -1      2548 2.69292E-05-2.21104E-05-1.90474E-06 2.28963E-05 1.90900E-19 2.92417E-18
 -1      2549 2.03379E-05-1.70344E-05-1.07886E-06 8.04611E-06 5.86359E-19 2.19805E-18
 -1      2550 9.90836E-05-5.29817E-05-1.96854E-05 3.97034E-05 3.43472E-19 1.80921E-20
 -1      2551 7.87894E-05-4.57930E-05-1.38723E-05 4.10411E-05-2.34205E-19 7.88482E-19
 -1      2552 9.37011E-05-2.74431E-05-2.83827E-05 1.73836E-07 6.42312E-19 3.89629E-19
 -1      2553 9.39442E-05-2.73046E-05-2.85156E-05 7.40051E-07 7.18388E-19 4.94854E-19
 -1      2554 9.43668E-05-2.74358E-05-2.86996E-05 1.31352E-07 6.16260E-19 1.49859E-19
 -1      2555 9.53116E-05-2.83781E-05-2.86836E-05-3.46594E-07-6.84032E-19 2.74453E-18
 -1      2556 2.18738E-05-1.69077E-05-1.74362E-06-1.05277E-05 3.51730E-19 2.50616E-18
 -1      2557 2.96175E-05-2.17368E-05-3.05881E-06-2.54238E-05 1.35314E-19 2.26348E-18
 -1      2558 5.39449E-05-3.36123E-05-8.58226E-06 3.85786E-05-1.70889E-19 8.49786E-19
 -1      2559 3.84710E-05-2.78344E-05-4.30205E-06 3.10761E-05-1.54372E-19 1.56002E-18
 -1      2560 3.89789E-05-2.19848E-05-6.68700E-06 2.63973E-05-4.22352E-19 2.01446E-18
 -1      2561 1.50686E-04-2.84745E-05-5.27802E-05-4.76853E-06 9.03572E-19 1.83171E-19
 -1      2562 1.48714E-04-3.54312E-05-4.87617E-05-2.82968E-06 8.01611E-19 7.24637E-19
 -1      2563 4.33067E-05-3.02799E-05-5.33626E-06-3.49199E-05-2.26581E-20 1.44165E-18
 -1      2564 5.94303E-05-3.78490E-05-9.21181E-06-4.20894E-05 9.99499E-20 2.11208E-18
 -1      2565 1.44508E-04-1.11817E-05-5.75925E-05-2.05412E-06-9.21572E-19 1.49039E-18
 -1      2566 1.45943E-04-1.47050E-05-5.65152E-05-4.77572E-06-7.55553E-19 3.83812E-19
 -1      2567 3.07085E-05-2.20797E-05-3.43374E-06 2.65406E-05-3.09167E-19-1.03465E-18
 -1      2568 2.15495E-05-1.83070E-05-1.05724E-06 1.17594E-05-2.63321E-19-5.00596E-19
 -1      2569 8.78682E-05-1.06901E-05-3.31123E-05-1.49156E-06 2.08233E-19-1.45995E-18
 -1      2570 8.79752E-05-1.08165E-05-3.31022E-05-2.59490E-06 6.67491E-20-1.42532E-18
 -1      2571 8.93580E-05-1.29622E-05-3.27424E-05-2.87064E-06 7.13216E-21-1.32718E-18
 -1      2572 8.91035E-05-1.26143E-05-3.27835E-05-9.20775E-07 2.37723E-19-1.27019E-18
 -1      2573 1.47600E-04-1.29389E-05-5.80988E-05 2.39822E-06 4.09964E-19 2.85704E-18
 -1      2574 1.48091E-04-1.21296E-05-5.86675E-05-1.98692E-07 6.37392E-19 2.84558E-18
 -1      2575 1.48965E-04-1.49485E-05-5.78589E-05-3.95925E-06 7.91129E-19 1.53694E-18
 -1      2576 1.48380E-04-1.95014E-05-5.56152E-05-5.31551E-06 7.71859E-19 1.31608E-18
 -1      2577 1.48723E-04-2.55338E-05-5.30821E-05 5.42748E-06 1.24683E-18 3.36950E-18
 -1      2578 1.49460E-04-1.88865E-05-5.63786E-05 5.35313E-06 8.85361E-19 3.05694E-18
 -1      2579 1.47147E-04-4.36173E-05-4.45732E-05-3.41659E-06 1.76760E-18 3.57448E-18
 -1      2580 1.51018E-04-3.63506E-05-4.95446E-05 1.30329E-06 1.37219E-18 3.64859E-18
 -1      2581 1.34384E-04-5.52626E-05-3.39546E-05-1.79392E-05 6.22146E-19 3.24647E-18
 -1      2582 1.43818E-04-5.12323E-05-3.99188E-05-1.21570E-05 1.70238E-18 3.72462E-18
 -1      2583 1.04174E-04-5.49541E-05-2.08731E-05-3.57573E-05-1.57760E-19 4.34634E-19
 -1      2584 1.22297E-04-5.77229E-05-2.78976E-05-3.01547E-05-1.18585E-20 1.78258E-18
 -1      2585 6.31446E-05-4.07202E-05-9.44582E-06-4.03191E-05-2.69568E-19-1.18976E-18
 -1      2586 8.13599E-05-4.71531E-05-1.48277E-05-4.28953E-05-1.05667E-19-2.62845E-19
 -1      2587 3.25141E-05-2.53862E-05-2.81405E-06-2.78065E-05 2.06041E-19-1.09479E-18
 -1      2588 4.63175E-05-3.23641E-05-5.87702E-06-3.74490E-05-4.70103E-20-1.70952E-18
 -1      2589 6.10662E-05-3.55369E-05-1.04641E-05-3.85707E-05-6.10923E-19-1.01072E-18
 -1      2590 1.86121E-05-1.72502E-05-3.31786E-07-1.67353E-06-2.02944E-19-9.19878E-19
 -1      2591 2.25209E-05-1.87252E-05-1.31880E-06-1.57042E-05 1.82959E-19-1.03317E-18
 -1      2592 6.05081E-05-3.82173E-05-9.44177E-06 4.21589E-05-8.53386E-20-7.08225E-19
 -1      2593 4.67560E-05-3.14303E-05-6.22753E-06 3.63693E-05 7.79270E-20-7.28660E-19
 -1      2594 9.90872E-05-5.26922E-05-1.99247E-05 4.02613E-05 4.65868E-20-2.36375E-19
 -1      2595 7.84375E-05-4.65950E-05-1.35270E-05 4.14379E-05-2.64698E-20-6.25428E-19
 -1      2596 7.87429E-05-4.36824E-05-1.46091E-05 4.04458E-05 1.44419E-19-6.04887E-19
 -1      2597 1.28173E-04-5.63576E-05-3.10372E-05 2.63667E-05 5.71747E-20-1.27351E-18
 -1      2598 1.15172E-04-5.62273E-05-2.52345E-05 3.15061E-05 1.48654E-19-3.37649E-19
 -1      2599 1.39312E-04-5.16955E-05-3.76899E-05-1.27268E-05-2.77049E-18-1.39295E-18
 -1      2600 1.45140E-04-4.53174E-05-4.32370E-05-4.29574E-06-1.63446E-18-6.07746E-19
 -1      2601 1.44805E-04-4.65802E-05-4.25648E-05 4.70173E-06-5.11714E-19-2.63427E-19
 -1      2602 1.37796E-04-5.30822E-05-3.62962E-05 1.50370E-05 6.42686E-20-9.74511E-19
 -1      2603 1.41569E-04-1.41390E-05-5.52244E-05 5.46398E-06-6.48827E-19 8.21834E-19
 -1      2604 1.42882E-04-1.11110E-05-5.68648E-05 2.13486E-06-6.05417E-19 1.10596E-18
 -1      2605 1.19352E-04-5.69450E-05-2.66094E-05-2.86588E-05-1.67437E-18-1.14265E-18
 -1      2606 1.32339E-04-5.60626E-05-3.29074E-05-2.29400E-05-3.18887E-18-2.04707E-18
 -1      2607 1.36780E-04-5.62943E-05-3.44151E-05-1.14702E-05-2.17793E-18-2.39350E-18
 -1      2608 7.93796E-05-4.66830E-05-1.37954E-05-4.12586E-05 6.68733E-19 1.99111E-18
 -1      2609 9.99868E-05-5.30534E-05-2.03096E-05-3.97527E-05-3.53213E-19 1.07751E-18
 -1      2610 9.50387E-05-2.00025E-05-3.22063E-05-1.16943E-05-1.19286E-18-4.42323E-19
 -1      2611 9.54376E-05-2.33281E-05-3.09259E-05-7.88319E-06-1.05675E-18-3.64421E-19
 -1      2612 9.50458E-05-2.25260E-05-3.10667E-05-7.51275E-06-1.02152E-18-5.33975E-19
 -1      2613 9.32338E-05-1.76914E-05-3.24032E-05-1.12189E-05-1.09289E-18-6.48933E-19
 -1      2614 9.62705E-05-2.50680E-05-3.05404E-05 7.52965E-06 1.25078E-18 1.04795E-18
 -1      2615 9.73788E-05-2.37527E-05-3.15752E-05 1.06340E-05 1.24376E-18 1.25930E-18
 -1      2616 9.58359E-05-2.12834E-05-3.20070E-05 1.18277E-05 1.38176E-18 7.43324E-19
 -1      2617 9.58486E-05-2.41351E-05-3.07680E-05 7.59638E-06 1.23164E-18 4.39378E-19
 -1      2618 1.37013E-04-1.15108E-05-5.39923E-05-3.58104E-06 1.41243E-19 2.68075E-18
 -1      2619 9.08241E-05-1.49721E-05-3.25037E-05-6.69395E-06-5.11080E-19-1.24877E-18
 -1      2620 8.97399E-05-1.31345E-05-3.28834E-05-7.86920E-06-6.03731E-19-1.38163E-18
 -1      2621 9.03906E-05-1.39244E-05-3.28315E-05-9.04041E-06-7.20653E-19-1.37835E-18
 -1      2622 9.47728E-05-2.68951E-05-2.91038E-05 1.70071E-06 8.48927E-19 1.46965E-19
 -1      2623 9.42237E-05-1.90652E-05-3.22557E-05 1.15277E-05 1.41676E-18 2.06570E-19
 -1      2624 1.13784E-04-5.68846E-05-2.41172E-05-3.09923E-05-7.78423E-19 6.27334E-20
 -1      2625 1.45292E-04-4.27295E-05-4.40446E-05-3.04890E-06 3.05885E-19 3.62530E-19
 -1      2626 1.39714E-04-1.86600E-05-5.22320E-05 8.36095E-06-4.88103E-19 8.16963E-19
 -1      2627 1.29196E-04-1.42932E-05-4.97422E-05 9.50491E-06-1.86983E-19 1.71503E-18
 -1      2628 1.34539E-04-2.30293E-05-4.82838E-05 1.05975E-05-1.82112E-19 1.30348E-18
 -1      2629 1.10692E-04-5.68161E-05-2.29520E-05 3.25865E-05-5.05679E-19 3.74547E-19
 -1      2630 1.38719E-04-5.60412E-05-3.61290E-05 6.81240E-06 3.86723E-20 9.98652E-19
 -1      2631 1.35385E-04-5.74191E-05-3.32809E-05 1.64021E-05 2.87885E-19 1.10305E-18
 -1      2632 1.29630E-04-5.89253E-05-3.01839E-05 1.82598E-05-4.53163E-19 6.08487E-19
 -1      2633 1.45251E-04-4.22768E-05-4.42323E-05-2.20636E-06-3.21343E-20-6.98379E-19
 -1      2634 1.40348E-04-4.79555E-05-3.97065E-05-9.04557E-07 2.62342E-19 1.95241E-19
 -1      2635 1.40339E-04-3.64413E-05-4.51203E-05-9.25249E-06 2.69251E-19-7.29295E-19
 -1      2636 4.33303E-05-2.45346E-05-7.55905E-06-2.99478E-05 1.51301E-19 1.80354E-18
 -1      2637 9.53551E-05-2.84035E-05-2.86936E-05 3.92622E-07-1.16400E-18 1.35675E-18
 -1      2638 9.53289E-05-2.83319E-05-2.87132E-05 4.65046E-07-6.52642E-19 1.59051E-18
 -1      2639 1.11663E-04-5.66104E-05-2.33285E-05 3.27506E-05 2.94767E-19 1.26526E-19
 -1      2640 3.04286E-05-1.32073E-05-6.99650E-06 7.68014E-06 2.69370E-19 2.02631E-18
 -1      2641 2.50958E-05-1.48711E-05-3.82680E-06-1.37450E-06 2.47837E-19 2.62877E-18
 -1      2642 3.22902E-05-1.32532E-05-7.63020E-06-9.14442E-06 5.45277E-19 2.49155E-18
 -1      2643 8.68409E-05-4.54775E-05-1.76200E-05 3.74621E-05-1.00988E-18-6.35275E-20
 -1      2644 7.11783E-05-4.01618E-05-1.28530E-05 4.00213E-05-6.16428E-19 1.17589E-18
 -1      2645 6.46594E-05-3.32935E-05-1.28850E-05 3.68647E-05-7.92293E-19 4.58986E-19
 -1      2646 3.43470E-05-2.00007E-05-5.60019E-06-2.18198E-05-1.05773E-19-1.43678E-18
 -1      2647 9.47059E-05-2.05761E-05-3.17257E-05 9.57788E-06 1.31313E-18 5.48321E-20
 -1      2648 1.40900E-04-2.31468E-05-5.06347E-05-1.02440E-05 3.04932E-19 4.31034E-19
 -1      2649 7.66388E-05-4.26954E-05-1.41028E-05-4.06451E-05 3.66342E-19 1.96236E-18
 -1      2650 1.39876E-04-1.94443E-05-5.18877E-05-7.86221E-06-3.94294E-19 1.14667E-18
 -1      2651 9.85301E-05-5.24360E-05-1.93855E-05-3.70886E-05-3.73118E-19 5.17908E-19
 -1      2652 1.30723E-04-5.91338E-05-3.06701E-05-1.94140E-05 1.16255E-19 3.08765E-18
 -1      2653 1.44649E-04-4.07558E-05-4.46742E-05 3.10372E-06-3.72589E-19-6.73391E-20
 -1      2654 1.38645E-04-3.47125E-05-4.52792E-05 1.05797E-05-2.11758E-22 7.30989E-19
 -1      2655 1.39882E-04-4.60467E-05-4.01579E-05 3.48414E-06-1.03497E-18-5.65289E-19
 -1      2656 1.44098E-04-4.89597E-05-4.06936E-05-6.52984E-07 1.05424E-18 3.76252E-18
 -1      2657 2.81167E-05-1.48187E-05-5.05169E-06 5.53902E-06-6.29134E-19-9.03784E-19
 -1      2658 1.43633E-04-3.10560E-05-4.83645E-05 8.93542E-06 1.33196E-18 4.18498E-18
 -1      2659 4.52453E-05-2.51344E-05-8.04928E-06 3.05711E-05-4.23093E-19-6.68521E-19
 -1      2660 1.33601E-04-9.90451E-06-5.33435E-05 2.79151E-07-3.75871E-19 2.22391E-18
 -1      2661 9.11617E-05-1.49798E-05-3.27030E-05-9.72427E-06-7.97190E-19-1.24425E-18
 -1      2662 9.21719E-05-1.62570E-05-3.26125E-05-1.07580E-05-9.74823E-19-9.70687E-19
 -1      2663 9.36479E-05-1.91759E-05-3.19114E-05-9.09051E-06-1.01547E-18-7.89170E-19
 -1      2664 9.20892E-05-1.67696E-05-3.22704E-05-8.19208E-06-7.42216E-19-1.20955E-18
 -1      2665 1.37998E-04-1.43753E-05-5.31719E-05 6.80118E-06 5.43795E-19 3.21798E-18
 -1      2666 1.34839E-04-5.68468E-05-3.32595E-05 1.50246E-05 3.17531E-19-3.87306E-19
 -1      2667 9.53918E-05-2.84084E-05-2.87048E-05-4.44180E-07-2.01412E-19 3.13889E-18
 -1      2668 9.53092E-05-2.82945E-05-2.87223E-05-5.11665E-07-2.74234E-19 2.51964E-19
 -1      2669 9.53140E-05-2.82185E-05-2.87537E-05-6.61829E-07-2.60976E-19-9.39049E-19
 -1      2670 9.54667E-05-2.84145E-05-2.87325E-05-5.48347E-07-7.56238E-19 2.33852E-18
 -1      2671 9.53393E-05-2.82596E-05-2.87461E-05 6.17888E-07 8.22549E-19 2.26605E-18
 -1      2672 9.54371E-05-2.83226E-05-2.87660E-05-7.18100E-07-3.52877E-19-3.56428E-19
 -1      2673 9.05504E-05-1.50117E-05-3.23959E-05 3.11235E-06 6.84571E-19-1.14888E-18
 -1      2674 9.03540E-05-1.47305E-05-3.24308E-05 2.19779E-06 5.48179E-19-1.13504E-18
 -1      2675 9.02141E-05-1.45178E-05-3.24613E-05 1.38488E-06 4.84487E-19-1.19207E-18
 -1      2676 9.01463E-05-1.44217E-05-3.24730E-05 4.50646E-07 4.07753E-19-1.16287E-18
 -1      2677 9.13768E-05-1.63747E-05-3.21299E-05 1.58233E-06 4.91466E-19-1.09247E-18
 -1      2678 9.21612E-05-1.74586E-05-3.20529E-05 6.34066E-06 1.23326E-18-7.57090E-19
 -1      2679 9.16327E-05-1.66488E-05-3.21590E-05 5.50747E-06 1.10959E-18-8.23376E-19
 -1      2680 9.35822E-05-1.97201E-05-3.16974E-05 7.46567E-06 1.29747E-18-4.85866E-19
 -1      2681 9.27954E-05-1.84514E-05-3.18793E-05 6.88396E-06 1.28488E-18-6.49198E-19
 -1      2682 9.34493E-05-1.97614E-05-3.15574E-05 5.57854E-06 1.13323E-18-6.23539E-19
 -1      2683 9.52383E-05-2.53568E-05-2.99603E-05 3.82165E-06 1.03934E-18-7.54447E-20
 -1      2684 9.55582E-05-2.45147E-05-3.04148E-05 5.48045E-06 1.11056E-18 5.14920E-22
 -1      2685 1.31576E-04-1.98207E-05-4.85817E-05-1.12306E-05-5.54383E-19 3.53213E-19
 -1      2686 1.34794E-04-2.75222E-05-4.62907E-05-1.37115E-05-7.28660E-19-5.52477E-19
 -1      2687 9.47090E-05-2.18740E-05-3.12211E-05 7.73501E-06 1.23371E-18-6.68693E-20
 -1      2688 9.53951E-05-2.58102E-05-2.97922E-05-2.47311E-06-6.50863E-19-6.06794E-19
 -1      2689 9.52483E-05-2.63827E-05-2.95241E-05-1.44579E-06-5.39044E-19-5.71212E-19
 -1      2690 9.52771E-05-2.68739E-05-2.92930E-05-6.46892E-07-5.01100E-19-5.70115E-19
 -1      2691 9.51716E-05-2.72092E-05-2.91309E-05 2.33841E-08-4.08982E-19-7.08451E-19
 -1      2692 9.54493E-05-2.61679E-05-2.96984E-05-1.28830E-06-5.76144E-19-6.24934E-19
 -1      2693 9.51467E-05-2.74858E-05-2.89824E-05 5.70279E-07-2.35068E-19-6.75864E-19
 -1      2694 9.51090E-05-2.76878E-05-2.88950E-05 1.01019E-06-1.76966E-19-6.27130E-19
 -1      2695 9.54625E-05-2.70981E-05-2.93071E-05 1.33163E-07-3.36133E-19-7.98161E-19
 -1      2696 9.50777E-05-2.78371E-05-2.88083E-05 1.38687E-06-2.31454E-19-7.40314E-19
 -1      2697 9.51038E-05-2.79579E-05-2.87743E-05 1.68808E-06-3.27312E-19-7.84917E-19
 -1      2698 9.54192E-05-2.76318E-05-2.90593E-05 1.11680E-06-3.85360E-19-7.83339E-19
 -1      2699 9.50826E-05-2.80262E-05-2.87337E-05 1.96267E-06-3.92236E-19-8.13556E-19
 -1      2700 9.51619E-05-2.80944E-05-2.87388E-05 2.19047E-06-3.97982E-19-9.28409E-19
 -1      2701 9.53780E-05-2.79141E-05-2.89194E-05 1.81420E-06-4.06522E-19-9.55916E-19
 -1      2702 9.51555E-05-2.81086E-05-2.87329E-05 2.41578E-06-2.15691E-19-9.09525E-19
 -1      2703 9.52795E-05-2.81418E-05-2.87674E-05 2.61684E-06-3.24085E-19-7.83601E-19
 -1      2704 9.53588E-05-2.80289E-05-2.88607E-05 2.34971E-06-2.39763E-19-8.76417E-19
 -1      2705 9.52882E-05-2.81193E-05-2.87875E-05 2.83260E-06-2.94137E-19-5.04885E-19
 -1      2706 9.54523E-05-2.81308E-05-2.88449E-05 3.04009E-06-3.24547E-19-2.87915E-19
 -1      2707 9.53667E-05-2.80291E-05-2.88630E-05 2.81901E-06-1.37979E-19-3.27962E-19
 -1      2708 9.54765E-05-2.80850E-05-2.88845E-05 3.27536E-06-5.57463E-19 1.87949E-20
 -1      2709 9.56805E-05-2.80874E-05-2.89602E-05 3.51180E-06-2.97615E-19 1.14028E-19
 -1      2710 9.54032E-05-2.79523E-05-2.89107E-05 3.29346E-06-1.34422E-19 1.52155E-19
 -1      2711 9.57227E-05-2.80316E-05-2.90139E-05 3.78633E-06-2.52789E-19 1.76985E-20
 -1      2712 9.59708E-05-2.80393E-05-2.91043E-05 4.06445E-06-8.96912E-21-1.42350E-19
 -1      2713 9.54714E-05-2.78313E-05-2.89913E-05 3.82391E-06-4.08550E-19 2.67389E-20
 -1      2714 9.60376E-05-2.79901E-05-2.91670E-05 4.38895E-06-1.05725E-19-6.07359E-19
 -1      2715 9.63385E-05-2.80224E-05-2.92685E-05 4.71089E-06-5.26415E-19-6.12615E-19
 -1      2716 9.55809E-05-2.77019E-05-2.90934E-05 4.44244E-06-3.51555E-19-4.78814E-19
 -1      2717 9.64435E-05-2.80036E-05-2.93348E-05 5.08593E-06-5.33656E-19-4.70041E-19
 -1      2718 9.68120E-05-2.80881E-05-2.94432E-05 5.44076E-06-5.52505E-19-2.43727E-19
 -1      2719 9.57516E-05-2.76112E-05-2.92058E-05 5.16188E-06-2.42472E-19-1.15070E-19
 -1      2720 9.69804E-05-2.81350E-05-2.95070E-05 5.85429E-06-7.36001E-19 1.85602E-19
 -1      2721 9.74393E-05-2.83115E-05-2.96170E-05 6.21377E-06-5.80767E-19 3.57798E-19
 -1      2722 9.60219E-05-2.76267E-05-2.93162E-05 5.97298E-06-3.67063E-19 4.18908E-19
 -1      2723 9.77145E-05-2.84767E-05-2.96719E-05 6.63666E-06-7.20046E-19 4.95723E-19
 -1      2724 9.82979E-05-2.88010E-05-2.97770E-05 6.94922E-06-7.75931E-19 4.27607E-19
 -1      2725 9.64586E-05-2.78476E-05-2.94113E-05 6.83839E-06-6.27079E-19 3.58866E-19
 -1      2726 9.87495E-05-2.91581E-05-2.98176E-05 7.32821E-06-6.63610E-19 4.62764E-19
 -1      2727 9.95049E-05-2.97023E-05-2.99116E-05 7.51157E-06-4.16227E-19 2.88941E-19
 -1      2728 9.71721E-05-2.84155E-05-2.94787E-05 7.68278E-06-6.30316E-19 3.97960E-19
 -1      2729 1.00237E-04-3.03451E-05-2.99368E-05 7.75795E-06-1.39720E-19 1.00460E-19
 -1      2730 1.01222E-04-3.11872E-05-3.00176E-05 7.69188E-06-3.30893E-19-8.65343E-20
 -1      2731 9.83331E-05-2.95193E-05-2.95120E-05 8.37647E-06-4.41021E-19-1.98441E-21
 -1      2732 1.02370E-04-3.22118E-05-3.00370E-05 7.66493E-06-1.33972E-19-6.09072E-20
 -1      2733 1.03633E-04-3.34008E-05-3.01128E-05 7.18919E-06 4.32045E-19 1.05705E-19
 -1      2734 1.00181E-04-3.13770E-05-2.95206E-05 8.70822E-06 3.56544E-20-1.80593E-19
 -1      2735 1.05336E-04-3.48531E-05-3.01587E-05 6.67858E-06 2.32005E-19 1.75080E-19
 -1      2736 1.06862E-04-3.63303E-05-3.02586E-05 5.60852E-06 4.81100E-19-1.80607E-19
 -1      2737 1.02995E-04-3.41611E-05-2.95495E-05 8.34689E-06 3.04061E-19-6.16867E-19
 -1      2738 1.09177E-04-3.80926E-05-3.04018E-05 4.31895E-06 9.01571E-19-6.64201E-20
 -1      2739 1.10780E-04-3.95275E-05-3.05863E-05 2.50546E-06 1.18028E-18-1.20221E-19
 -1      2740 1.06998E-04-3.78298E-05-2.97082E-05 6.80339E-06 6.04747E-19-3.52159E-19
 -1      2741 1.13462E-04-4.11162E-05-3.09462E-05 1.83570E-07 1.27580E-18-4.23434E-19
 -1      2742 1.14714E-04-4.18093E-05-3.13028E-05-2.30833E-06 1.18452E-18-5.76528E-19
 -1      2743 1.12056E-04-4.17177E-05-3.02079E-05 3.43525E-06 1.08241E-18-8.76816E-19
 -1      2744 1.16997E-04-4.22648E-05-3.20300E-05-5.58465E-06 1.02520E-18-7.99071E-19
 -1      2745 1.17232E-04-4.11480E-05-3.26461E-05-8.20422E-06 9.81257E-19-6.45045E-19
 -1      2746 1.17188E-04-4.40644E-05-3.13569E-05-2.06661E-06 1.11492E-18-1.44494E-18
 -1      2747 1.17825E-04-3.91633E-05-3.38313E-05-1.13672E-05 5.83449E-19-7.37954E-19
 -1      2748 1.16587E-04-3.56506E-05-3.46855E-05-1.27064E-05-8.21093E-20-4.36622E-19
 -1      2749 1.20362E-04-4.22971E-05-3.34237E-05-8.94627E-06 6.17487E-19-1.15504E-18
 -1      2750 1.14973E-04-3.11714E-05-3.61480E-05-1.35094E-05-8.61909E-19-1.25963E-19
 -1      2751 1.12808E-04-2.64497E-05-3.70085E-05-1.20351E-05-7.72971E-19-3.78544E-19
 -1      2752 1.19470E-04-3.46083E-05-3.64119E-05-1.36810E-05-2.61866E-19-5.98442E-19
 -1      2753 1.10442E-04-2.20643E-05-3.81432E-05-8.45231E-06-4.69097E-19-9.80355E-19
 -1      2754 1.09202E-04-1.94607E-05-3.85550E-05-4.18895E-06-2.85027E-19-1.45015E-18
 -1      2755 1.15034E-04-2.34985E-05-3.93709E-05-1.14632E-05-9.58100E-19-7.88694E-19
 -1      2756 1.08917E-04-1.89805E-05-3.86615E-05 2.01599E-06-3.66501E-19-1.57403E-18
 -1      2757 1.09731E-04-2.07483E-05-3.83799E-05 6.56016E-06-9.24828E-19-1.84935E-18
 -1      2758 1.12225E-04-1.71880E-05-4.09070E-05-1.15769E-06-6.22040E-19-2.40043E-18
 -1      2759 1.11894E-04-2.45542E-05-3.74205E-05 1.10826E-05-6.18149E-19-1.82102E-18
 -1      2760 1.14087E-04-2.92268E-05-3.66156E-05 1.32543E-05-1.98537E-19-1.07127E-18
 -1      2761 1.14011E-04-2.09834E-05-4.00592E-05 1.01320E-05-5.37442E-19-2.60216E-18
 -1      2762 1.16077E-04-3.40152E-05-3.51578E-05 1.30437E-05-2.88388E-19-9.24116E-19
 -1      2763 1.17519E-04-3.78747E-05-3.42802E-05 1.21987E-05 8.48985E-20-6.01896E-19
 -1      2764 1.18927E-04-3.28928E-05-3.69718E-05 1.38431E-05-9.66809E-20-2.00760E-18
 -1      2765 1.17402E-04-4.04145E-05-3.30219E-05 9.38655E-06 6.64501E-19-1.67742E-19
 -1      2766 1.17462E-04-4.20163E-05-3.23539E-05 6.90591E-06 8.70235E-19 2.45934E-19
 -1      2767 1.20457E-04-4.10419E-05-3.40067E-05 1.03199E-05 5.52325E-19-9.45924E-19
 -1      2768 1.15392E-04-4.19651E-05-3.15360E-05 3.51238E-06 2.80211E-19-3.68830E-19
 -1      2769 1.14313E-04-4.15523E-05-3.11341E-05 9.43865E-07-1.47051E-19-3.97647E-19
 -1      2770 1.18086E-04-4.41521E-05-3.17134E-05 3.47678E-06-8.29960E-20-1.35526E-18
 -1      2771 1.11626E-04-4.00907E-05-3.07155E-05-1.59851E-06-4.46539E-19 2.01294E-19
 -1      2772 1.10050E-04-3.87190E-05-3.05082E-05-3.54546E-06-6.53793E-19 1.24330E-19
 -1      2773 1.13140E-04-4.23550E-05-3.03990E-05-2.42898E-06-2.64201E-20-1.58197E-18
 -1      2774 1.07635E-04-3.69341E-05-3.03361E-05-5.00321E-06-1.07133E-18 4.21142E-19
 -1      2775 1.06080E-04-3.54253E-05-3.02295E-05-6.19384E-06-1.03437E-18 1.85115E-19
 -1      2776 1.07954E-04-3.85665E-05-2.98040E-05-6.17605E-06-8.91383E-19-1.83071E-19
 -1      2777 1.04255E-04-3.38864E-05-3.01751E-05-6.81354E-06-1.01885E-18 5.21702E-19
 -1      2778 1.02947E-04-3.26251E-05-3.01033E-05-7.36841E-06-7.99129E-19 1.15789E-18
 -1      2779 1.03718E-04-3.47686E-05-2.96034E-05-7.99319E-06-7.40696E-19 5.51945E-20
 -1      2780 1.01699E-04-3.15070E-05-3.00872E-05-7.44377E-06-1.25483E-21 1.65728E-18
 -1      2781 1.00676E-04-3.05927E-05-3.00157E-05-7.54653E-06 3.25057E-19 1.63583E-18
 -1      2782 1.00678E-04-3.17716E-05-2.95683E-05-8.49415E-06-3.87468E-19 1.56664E-18
 -1      2783 9.98750E-05-2.98713E-05-2.99992E-05-7.30569E-06 2.21584E-19 1.06228E-18
 -1      2784 9.90972E-05-2.92689E-05-2.99166E-05-7.12308E-06 6.00577E-19 9.88079E-19
 -1      2785 9.86640E-05-2.97169E-05-2.95714E-05-8.20317E-06-9.76081E-20-6.15979E-19
 -1      2786 9.86016E-05-2.88522E-05-2.98862E-05-6.71899E-06 4.92289E-19 6.94454E-19
 -1      2787 9.80115E-05-2.84861E-05-2.97931E-05-6.37894E-06-6.22051E-19-5.56319E-19
 -1      2788 9.73918E-05-2.84561E-05-2.95569E-05-7.48107E-06 4.27184E-20-1.22427E-18
 -1      2789 9.77102E-05-2.82782E-05-2.97482E-05-5.90899E-06-8.74016E-19 5.03757E-20
 -1      2790 9.72578E-05-2.80744E-05-2.96503E-05-5.50083E-06-3.78046E-19 5.89759E-19
 -1      2791 9.66100E-05-2.77720E-05-2.95093E-05-6.55891E-06-2.07932E-19-9.71818E-19
 -1      2792 9.70745E-05-2.79977E-05-2.95952E-05-5.02476E-06 2.71212E-21 1.31668E-18
 -1      2793 9.67233E-05-2.78980E-05-2.94986E-05-4.60632E-06 7.37906E-19 9.85359E-19
 -1      2794 9.61338E-05-2.74689E-05-2.94319E-05-5.58054E-06 2.71438E-19-2.62263E-19
 -1      2795 9.66094E-05-2.78973E-05-2.94390E-05-4.15892E-06 7.79777E-19 1.03121E-18
 -1      2796 9.63340E-05-2.78604E-05-2.93486E-05-3.76454E-06 3.55397E-19 7.15430E-19
 -1      2797 9.58411E-05-2.73980E-05-2.93353E-05-4.63280E-06 3.90772E-19 1.65640E-19
 -1      2798 9.62603E-05-2.78989E-05-2.92893E-05-3.36403E-06 5.48940E-19 9.10381E-19
 -1      2799 9.60433E-05-2.78972E-05-2.92083E-05-3.01147E-06 4.94971E-19 1.03178E-18
 -1      2800 9.56562E-05-2.74563E-05-2.92303E-05-3.76488E-06 6.61828E-19-1.30355E-18
 -1      2801 9.59925E-05-2.79516E-05-2.91529E-05-2.66505E-06-7.77076E-20 1.21226E-18
 -1      2802 9.58213E-05-2.79669E-05-2.90830E-05-2.36094E-06 6.94370E-19 3.91132E-19
 -1      2803 9.55337E-05-2.75763E-05-2.91260E-05-3.00054E-06 8.43385E-19-2.32221E-19
 -1      2804 9.57833E-05-2.80232E-05-2.90336E-05-2.06868E-06 8.69383E-19-1.26441E-19
 -1      2805 9.56482E-05-2.80442E-05-2.89753E-05-1.81255E-06 7.29140E-19 3.36728E-19
 -1      2806 9.54468E-05-2.77155E-05-2.90289E-05-2.34647E-06 6.58653E-19-8.31489E-19
 -1      2807 9.56167E-05-2.80938E-05-2.89330E-05-1.57003E-06 9.10896E-19 1.63395E-19
 -1      2808 9.55102E-05-2.81139E-05-2.88856E-05-1.35689E-06 9.34656E-19-2.61798E-19
 -1      2809 9.53795E-05-2.78485E-05-2.89428E-05-1.79831E-06 4.22310E-19-1.91769E-18
 -1      2810 9.54812E-05-2.81535E-05-2.88506E-05-1.15846E-06 5.85128E-19-7.09468E-19
 -1      2811 9.53975E-05-2.81674E-05-2.88132E-05-9.82674E-07 7.76886E-20-1.91509E-18
 -1      2812 9.53219E-05-2.79630E-05-2.88695E-05-1.34433E-06 4.76296E-19-2.06838E-18
 -1      2813 9.47470E-05-2.79634E-05-2.86176E-05-1.58265E-06 3.48545E-19 5.08018E-21
 -1      2814 9.46954E-05-2.78492E-05-2.86378E-05-1.30227E-06 4.31061E-19 1.97214E-19
 -1      2815 9.52535E-05-2.80740E-05-2.87916E-05 8.63235E-07 1.57428E-18 1.66740E-18
 -1      2816 9.53783E-05-2.82336E-05-2.87743E-05 7.71433E-07 1.08603E-18 2.50905E-18
 -1      2817 9.54630E-05-2.82307E-05-2.88087E-05 9.21949E-07 1.48569E-18 2.55876E-18
 -1      2818 1.39586E-04-3.89074E-05-4.38783E-05-1.01366E-05-2.42357E-19-1.01856E-18
 -1      2819 1.41521E-04-4.82371E-05-3.99530E-05-3.31504E-06 5.56924E-20-3.73542E-19
 -1      2820 9.47293E-05-2.77211E-05-2.87157E-05-9.28871E-07 4.51432E-19 8.43843E-20
 -1      2821 9.47679E-05-2.75461E-05-2.87914E-05-5.07279E-07 5.65750E-19 1.67303E-19
 -1      2822 9.51356E-05-2.76947E-05-2.89127E-05-1.04721E-06 5.01385E-19 9.95967E-20
 -1      2823 9.50816E-05-2.81810E-05-2.86649E-05-2.44888E-06 5.03519E-19 1.91582E-19
 -1      2824 9.49028E-05-2.81298E-05-2.86149E-05-2.26783E-06 4.85239E-19 7.47456E-20
 -1      2825 9.53711E-05-2.82132E-05-2.87738E-05-2.84083E-06 2.28455E-19 3.53061E-19
 -1      2826 9.51426E-05-2.81775E-05-2.86996E-05-2.65162E-06 4.36691E-19 2.12137E-19
 -1      2827 9.52606E-05-2.81088E-05-2.87841E-05-2.70650E-06 4.12612E-19 3.45711E-19
 -1      2828 9.57347E-05-2.82197E-05-2.89255E-05-3.28593E-06 3.24665E-19 3.49846E-19
 -1      2829 9.54573E-05-2.81908E-05-2.88304E-05-3.06428E-06 3.02067E-19 3.41305E-19
 -1      2830 9.54105E-05-2.80734E-05-2.88627E-05-3.16036E-06 2.77798E-19 2.25195E-19
 -1      2831 9.61757E-05-2.82193E-05-2.91134E-05-3.82222E-06 2.96414E-19 4.10678E-19
 -1      2832 9.58456E-05-2.81870E-05-2.89995E-05-3.55231E-06 3.40691E-19 4.76164E-19
 -1      2833 9.56083E-05-2.79963E-05-2.89799E-05-3.67576E-06 3.51370E-19 2.91132E-19
 -1      2834 9.67055E-05-2.82363E-05-2.93321E-05-4.47056E-06 2.89775E-19 1.65755E-19
 -1      2835 9.63145E-05-2.81870E-05-2.92010E-05-4.14553E-06 4.53333E-19 4.73820E-19
 -1      2836 9.58573E-05-2.79021E-05-2.91267E-05-4.29069E-06 3.63159E-19 4.81090E-19
 -1      2837 9.73444E-05-2.83072E-05-2.95750E-05-5.23118E-06 1.03816E-19 3.34312E-19
 -1      2838 9.68803E-05-2.82205E-05-2.94292E-05-4.85568E-06 1.77394E-19 3.50439E-19
 -1      2839 9.61693E-05-2.78236E-05-2.92940E-05-5.02525E-06 2.24528E-19 8.37777E-19
 -1      2840 9.81265E-05-2.84883E-05-2.98329E-05-6.07601E-06 1.25417E-19 7.09653E-19
 -1      2841 9.75720E-05-2.83334E-05-2.96764E-05-5.67105E-06 1.53355E-19 7.24335E-19
 -1      2842 9.65691E-05-2.78104E-05-2.94715E-05-5.87843E-06-5.98427E-20 9.36200E-19
 -1      2843 9.91073E-05-2.88670E-05-3.00928E-05-6.93648E-06 3.88665E-19 6.51143E-19
 -1      2844 9.84379E-05-2.85979E-05-2.99321E-05-6.54673E-06 3.02654E-19 7.05837E-19
 -1      2845 9.71039E-05-2.79409E-05-2.96464E-05-6.82108E-06 3.00416E-19 1.28340E-18
 -1      2846 1.00375E-04-2.95723E-05-3.03380E-05-7.68585E-06-6.56649E-20 1.18315E-18
 -1      2847 9.95569E-05-2.91237E-05-3.01820E-05-7.38949E-06 1.77750E-19 6.14202E-19
 -1      2848 9.78574E-05-2.83360E-05-2.98035E-05-7.78472E-06 2.68603E-19 1.14499E-18
 -1      2849 1.02063E-04-3.07777E-05-3.05524E-05-8.11652E-06-8.66755E-20 1.22983E-18
 -1      2850 1.01052E-04-3.00670E-05-3.04106E-05-8.03602E-06 1.97064E-19 1.20848E-18
 -1      2851 9.89694E-05-2.91735E-05-2.99279E-05-8.64401E-06-6.19473E-20 1.16412E-18
 -1      2852 1.04346E-04-3.26733E-05-3.07309E-05-7.91577E-06-2.35105E-19 9.01499E-19
 -1      2853 1.03097E-04-3.16227E-05-3.06081E-05-8.22479E-06-3.66937E-19 9.91479E-19
 -1      2854 1.00656E-04-3.06877E-05-3.00136E-05-9.18988E-06-5.96087E-20 8.75639E-19
 -1      2855 1.07388E-04-3.53652E-05-3.09003E-05-6.65650E-06 7.17811E-20 4.31834E-19
 -1      2856 1.05895E-04-3.39653E-05-3.07866E-05-7.56897E-06-2.52789E-19 6.74240E-19
 -1      2857 1.03209E-04-3.31243E-05-3.00800E-05-9.09122E-06 7.18295E-20 6.16854E-19
 -1      2858 1.11186E-04-3.86282E-05-3.11519E-05-3.83380E-06 6.71121E-19 6.64726E-19
 -1      2859 1.09573E-04-3.70876E-05-3.10077E-05-5.55024E-06 5.82622E-19 8.12399E-19
 -1      2860 1.06925E-04-3.65981E-05-3.02030E-05-7.85251E-06 2.32121E-19 3.74003E-19
 -1      2861 1.15281E-04-4.15596E-05-3.16672E-05 8.73334E-07 8.85745E-19 4.87164E-19
 -1      2862 1.13900E-04-4.04505E-05-3.14146E-05-1.66433E-06 8.29734E-19 5.83166E-19
 -1      2863 1.11857E-04-4.07226E-05-3.05562E-05-4.81798E-06 1.10990E-18 8.89798E-19
 -1      2864 1.18407E-04-4.22074E-05-3.27189E-05 7.11768E-06 5.61940E-19 1.00821E-18
 -1      2865 1.17929E-04-4.26210E-05-3.22493E-05 4.21165E-06 8.61703E-19 9.56347E-19
 -1      2866 1.17371E-04-4.41149E-05-3.14397E-05 5.26890E-07 6.53871E-19 1.17606E-18
 -1      2867 1.18712E-04-3.82743E-05-3.45042E-05 1.27448E-05 4.53970E-19 9.47459E-19
 -1      2868 1.19748E-04-4.11533E-05-3.37709E-05 1.07527E-05 4.10116E-19 1.23209E-18
 -1      2869 1.21573E-04-4.40362E-05-3.32343E-05 7.77158E-06 6.13993E-19 1.54330E-18
 -1      2870 1.15444E-04-2.95883E-05-3.67785E-05 1.37133E-05 8.47456E-19-8.38715E-19
 -1      2871 1.17687E-04-3.43402E-05-3.59462E-05 1.44722E-05 7.56096E-19 3.00511E-19
 -1      2872 1.21998E-04-3.78909E-05-3.60707E-05 1.38722E-05 1.09864E-18 1.64642E-19
 -1      2873 1.11314E-04-2.13835E-05-3.86015E-05 6.79926E-06 5.42366E-20-2.41126E-19
 -1      2874 1.12947E-04-2.48098E-05-3.80732E-05 1.08264E-05 6.60686E-19-6.68340E-19
 -1      2875 1.17982E-04-2.64388E-05-3.93416E-05 1.36859E-05 8.93990E-19 5.82706E-19
 -1      2876 1.10893E-04-2.07221E-05-3.88475E-05-4.91310E-06-6.09387E-19 9.16996E-19
 -1      2877 1.10283E-04-1.97894E-05-3.89803E-05 2.49791E-07-3.97523E-19 1.28577E-19
 -1      2878 1.14258E-04-1.82563E-05-4.13251E-05 4.22127E-06-3.97788E-19 7.24068E-19
 -1      2879 1.18929E-04-3.75641E-05-3.50356E-05-1.36789E-05-8.60092E-19 1.22143E-18
 -1      2880 1.17055E-04-3.33026E-05-3.58661E-05-1.41066E-05-1.88332E-19 1.37393E-18
 -1      2881 1.19360E-04-4.21886E-05-3.31095E-05-8.39056E-06 6.69239E-20 5.89978E-19
 -1      2882 1.18975E-04-4.03533E-05-3.37307E-05-1.08503E-05-7.14969E-19 7.14936E-19
 -1      2883 1.22202E-04-4.09124E-05-3.49335E-05-1.23852E-05-2.31478E-20 1.68144E-18
 -1      2884 1.16515E-04-4.20084E-05-3.18839E-05-1.82906E-06 1.06393E-18 1.02048E-18
 -1      2885 1.17415E-04-4.23324E-05-3.22551E-05-4.67550E-06 6.88664E-19 1.38811E-19
 -1      2886 1.20182E-04-4.45763E-05-3.24492E-05-5.11046E-06 6.33197E-19-6.52771E-19
 -1      2887 1.12224E-04-3.91378E-05-3.12590E-05 3.30472E-06 5.73251E-19 1.93073E-18
 -1      2888 1.13748E-04-4.05205E-05-3.14528E-05 1.07885E-06 1.12600E-18 1.12220E-18
 -1      2889 1.15271E-04-4.29386E-05-3.10546E-05 1.67602E-06 6.12448E-19-6.25435E-20
 -1      2890 1.08120E-04-3.57691E-05-3.09562E-05 6.38362E-06-1.15454E-18 2.65352E-18
 -1      2891 1.09698E-04-3.72970E-05-3.10769E-05 5.01238E-06-2.10489E-19 2.38792E-18
 -1      2892 1.09880E-04-3.90347E-05-3.04303E-05 6.07219E-06 2.76080E-20 1.57275E-18
 -1      2893 1.04811E-04-3.29285E-05-3.07732E-05 7.77139E-06-8.46635E-19 1.99176E-18
 -1      2894 1.06198E-04-3.42023E-05-3.08817E-05 7.14194E-06-1.29344E-18 1.93453E-18
 -1      2895 1.05432E-04-3.50924E-05-3.02010E-05 8.30822E-06-8.23108E-19 1.85945E-18
 -1      2896 1.02356E-04-3.09051E-05-3.06031E-05 7.99456E-06 1.39477E-19 1.99428E-18
 -1      2897 1.03490E-04-3.18183E-05-3.07257E-05 7.88924E-06-8.82701E-20 1.86236E-18
 -1      2898 1.02212E-04-3.20151E-05-3.01212E-05 9.00255E-06-4.03857E-19 7.76929E-21
 -1      2899 1.00581E-04-2.96080E-05-3.04080E-05 7.52503E-06 7.02080E-21 1.97222E-18
 -1      2900 1.01487E-04-3.02076E-05-3.05470E-05 7.74248E-06 2.43225E-19 2.42293E-18
 -1      2901 1.00046E-04-2.99555E-05-3.00608E-05 8.75132E-06-1.42111E-19 7.95611E-19
 -1      2902 9.92885E-05-2.88442E-05-3.01876E-05 6.69776E-06 2.89965E-19 1.97045E-18
 -1      2903 1.00013E-04-2.92139E-05-3.03351E-05 7.08467E-06 6.18139E-19 3.31289E-18
 -1      2904 9.86253E-05-2.87222E-05-2.99710E-05 7.98367E-06 7.13761E-20 2.92667E-18
 -1      2905 9.83274E-05-2.84322E-05-2.99554E-05 5.73225E-06 4.18373E-19 1.60999E-18
 -1      2906 9.89104E-05-2.86483E-05-3.01017E-05 6.18468E-06 7.85243E-19 2.24506E-18
 -1      2907 9.76883E-05-2.80655E-05-2.98454E-05 6.97826E-06 3.96883E-19 3.16426E-18
 -1      2908 9.75941E-05-2.82361E-05-2.97266E-05 4.76229E-06-4.07563E-19 2.10138E-19
 -1      2909 9.80649E-05-2.83553E-05-2.98637E-05 5.21607E-06-3.35889E-19 1.04100E-18
 -1      2910 9.70515E-05-2.77738E-05-2.96948E-05 5.90886E-06 6.47701E-19 2.04762E-18
 -1      2911 9.70233E-05-2.81643E-05-2.95132E-05 3.86238E-06-5.50427E-21 1.68903E-20
 -1      2912 9.74030E-05-2.82250E-05-2.96361E-05 4.28189E-06-4.69435E-19 1.85578E-19
 -1      2913 9.66000E-05-2.76951E-05-2.95338E-05 4.87818E-06-1.75046E-19 9.15346E-19
 -1      2914 9.65738E-05-2.81591E-05-2.93226E-05 3.06808E-06 5.66139E-19 1.54333E-18
 -1      2915 9.68784E-05-2.81860E-05-2.94288E-05 3.43676E-06 4.05023E-19 3.59901E-19
 -1      2916 9.62655E-05-2.77299E-05-2.93749E-05 3.94177E-06-3.69834E-19 2.68147E-19
 -1      2917 9.62182E-05-2.81854E-05-2.91586E-05 2.39035E-06 1.55531E-18 2.01841E-18
 -1      2918 9.64604E-05-2.81940E-05-2.92475E-05 2.70363E-06 1.38785E-18 2.10850E-18
 -1      2919 9.60088E-05-2.78169E-05-2.92274E-05 3.12434E-06 2.15122E-19 1.81027E-18
 -1      2920 9.59373E-05-2.82221E-05-2.90219E-05 1.82542E-06 2.51477E-18 2.98002E-18
 -1      2921 9.61274E-05-2.82220E-05-2.90942E-05 2.08571E-06 1.95348E-18 2.34305E-18
 -1      2922 9.58067E-05-2.79199E-05-2.90965E-05 2.43094E-06 1.34554E-18 2.42070E-18
 -1      2923 9.57194E-05-2.82566E-05-2.89113E-05 1.36249E-06 1.30603E-18 2.90779E-18
 -1      2924 9.58637E-05-2.82552E-05-2.89684E-05 1.57308E-06 2.26396E-18 3.04512E-18
 -1      2925 9.56422E-05-2.80172E-05-2.89847E-05 1.85520E-06 1.67480E-18 3.22089E-18
 -1      2926 9.55265E-05-2.82418E-05-2.88338E-05 1.04565E-06 1.57610E-18 1.57566E-18
 -1      2927 9.56338E-05-2.82388E-05-2.88779E-05 1.22211E-06 1.30508E-18 1.99963E-18
 -1      2928 9.54769E-05-2.80536E-05-2.89012E-05 1.44510E-06 1.77733E-18 2.75728E-18
 -1      2929 9.53334E-05-2.80474E-05-2.88442E-05 1.15859E-06 1.35753E-18 2.18294E-18
 -1      2930 9.44186E-05-2.71326E-05-2.88393E-05 8.22708E-08 1.22086E-18 2.66922E-18
 -1      2931 9.44385E-05-2.71530E-05-2.88379E-05 2.32031E-07 1.94129E-18 1.39726E-18
 -1      2932 9.53824E-05-2.81900E-05-2.87934E-05-8.69059E-07 6.56668E-19-1.31431E-18
 -1      2933 9.53350E-05-2.81994E-05-2.87720E-05-7.65054E-07 5.66471E-19-7.83788E-19
 -1      2934 9.52792E-05-2.80435E-05-2.88172E-05-1.02312E-06 6.18673E-19-2.24041E-18
 -1      2935 9.46264E-05-2.73639E-05-2.88307E-05 6.63161E-07 1.92619E-18 7.10461E-19
 -1      2936 9.47193E-05-2.74609E-05-2.88237E-05 7.52461E-07 2.69942E-18-6.40133E-19
 -1      2937 9.44428E-05-2.71587E-05-2.88373E-05-2.46763E-07 9.01969E-19 7.95096E-19
 -1      2938 9.44204E-05-2.71351E-05-2.88390E-05-9.77831E-08 1.11084E-18 2.84828E-18
 -1      2939 9.42855E-05-2.69976E-05-2.88338E-05-9.82650E-09 1.24030E-18 1.81096E-18
 -1      2940 9.44822E-05-2.72034E-05-2.88371E-05 4.00701E-07 1.14155E-18 5.59622E-19
 -1      2941 9.45422E-05-2.72656E-05-2.88328E-05 5.29635E-07 1.71420E-18 1.92705E-18
 -1      2942 9.44809E-05-2.71969E-05-2.88329E-05 6.78759E-07 1.59941E-18 1.10773E-18
 -1      2943 9.43338E-05-2.70461E-05-2.88339E-05 3.58656E-07 2.24516E-18 1.04856E-18
 -1      2944 9.45489E-05-2.72753E-05-2.88314E-05-5.35650E-07 5.64474E-19-1.19389E-18
 -1      2945 9.44885E-05-2.72123E-05-2.88360E-05-4.10703E-07 8.37240E-19-8.50226E-19
 -1      2946 9.43403E-05-2.70550E-05-2.88329E-05-3.73121E-07 1.34718E-18-2.63354E-19
 -1      2947 9.47267E-05-2.74734E-05-2.88216E-05-7.53254E-07 1.40520E-18-9.44036E-19
 -1      2948 9.46342E-05-2.73756E-05-2.88289E-05-6.66368E-07 3.95104E-19-4.69635E-19
 -1      2949 9.44902E-05-2.72110E-05-2.88309E-05-6.85119E-07 7.57536E-19-3.34793E-19
 -1      2950 9.49504E-05-2.77305E-05-2.88078E-05-8.60982E-07-3.24022E-19-2.15162E-18
 -1      2951 9.48419E-05-2.76088E-05-2.88177E-05-8.30429E-07 1.08952E-18-1.69986E-18
 -1      2952 9.47171E-05-2.74490E-05-2.88272E-05-9.05439E-07 4.52907E-19-1.31923E-18
 -1      2953 3.51946E-05-1.50792E-05-8.16882E-06-1.54745E-05-7.55924E-19-1.34276E-18
 -1      2954 4.49200E-05-2.17528E-05-9.51429E-06-2.82433E-05-6.34745E-19-1.14667E-18
 -1      2955 4.79809E-05-2.23929E-05-1.06290E-05 2.87032E-05-7.71118E-19 1.87999E-18
 -1      2956 3.86898E-05-1.68250E-05-8.62239E-06 1.98932E-05-6.53698E-19 1.62334E-18
 -1      2957 1.20250E-04-5.84367E-05-2.66910E-05 2.58016E-05 5.03349E-19 4.54221E-20
 -1      2958 1.06655E-04-5.40487E-05-2.21830E-05 3.22958E-05 5.50360E-19 2.43244E-19
 -1      2959 9.48296E-05-2.73144E-05-2.89356E-05 4.84908E-08 5.11580E-19 6.28114E-20
 -1      2960 9.49741E-05-2.70317E-05-2.90908E-05 7.10196E-07 5.97493E-19-7.33585E-21
 -1      2961 9.52130E-05-2.72217E-05-2.91498E-05-4.48432E-08 5.21196E-19-2.39136E-20
 -1      2962 9.48699E-05-2.81052E-05-2.86080E-05-2.05479E-06 4.97893E-19-1.25649E-19
 -1      2963 9.47477E-05-2.80290E-05-2.85882E-05-1.84782E-06 3.92927E-19-3.89014E-20
 -1      2964 9.51173E-05-2.79558E-05-2.87911E-05-1.73946E-06 4.66001E-19-8.46082E-20
 -1      2965 9.51608E-05-2.80792E-05-2.87553E-05-2.25834E-06 4.05482E-19 9.70579E-20
 -1      2966 9.52597E-05-2.39267E-05-3.05504E-05-5.14375E-06-8.99260E-19-5.71802E-19
 -1      2967 9.51945E-05-2.49313E-05-3.01318E-05-3.61394E-06-7.96721E-19-5.74946E-19
 -1      2968 9.52283E-05-2.45813E-05-3.02776E-05-3.30860E-06-7.70308E-19-6.46128E-19
 -1      2969 9.11843E-05-1.59586E-05-3.22672E-05 4.80091E-06 1.02219E-18-8.36144E-19
 -1      2970 9.08344E-05-1.54457E-05-3.23318E-05 3.89241E-06 8.18757E-19-1.00442E-18
 -1      2971 9.17861E-05-1.70094E-05-3.20311E-05 3.08946E-06 6.99145E-19-9.70809E-19
 -1      2972 9.24767E-05-1.81101E-05-3.18511E-05 4.47286E-06 9.32582E-19-7.27942E-19
 -1      2973 9.50360E-05-2.66171E-05-2.93262E-05 1.55061E-06 8.11436E-19-1.03433E-19
 -1      2974 9.52783E-05-2.61298E-05-2.95983E-05 2.59710E-06 8.82474E-19-1.58418E-19
 -1      2975 9.52985E-05-2.49455E-05-3.01500E-05 3.62399E-06 1.02476E-18-3.52676E-19
 -1      2976 9.53052E-05-2.63914E-05-2.95431E-05 1.44709E-06 6.94342E-19-2.69428E-19
 -1      2977 1.30713E-04-1.72403E-05-4.90900E-05 1.08949E-05 6.45016E-19 2.68944E-18
 -1      2978 1.28445E-04-1.23290E-05-5.05256E-05 5.02910E-06 1.08632E-19 1.93613E-18
 -1      2979 1.06787E-04-5.37551E-05-2.22381E-05-3.18229E-05 1.57125E-19 1.87254E-19
 -1      2980 1.22233E-04-5.86436E-05-2.76039E-05-2.33062E-05-8.83667E-19-1.76559E-18
 -1      2981 9.07967E-05-1.53959E-05-3.23369E-05-3.83062E-06-1.69576E-19-1.34800E-18
 -1      2982 9.11388E-05-1.58959E-05-3.22740E-05-4.74095E-06-2.84331E-19-1.24331E-18
 -1      2983 9.03631E-05-4.76001E-05-1.78631E-05-3.73488E-05-6.62486E-19 6.88267E-19
 -1      2984 1.09228E-04-5.55238E-05-2.31232E-05-3.17667E-05-7.05367E-19 2.21199E-18
 -1      2985 7.04823E-05-3.65306E-05-1.40170E-05-3.77340E-05-2.68298E-19 1.70688E-18
 -1      2986 8.72731E-05-4.58175E-05-1.79236E-05-3.87966E-05 4.30293E-19 1.23010E-18
 -1      2987 4.26167E-05-1.90162E-05-9.59460E-06-2.41386E-05 8.27869E-19 2.73295E-18
 -1      2988 5.51328E-05-2.75877E-05-1.14660E-05-3.44865E-05 1.04714E-19 2.02663E-18
 -1      2989 6.81454E-05-3.12971E-05-1.52842E-05-3.31904E-05-6.67568E-20 2.21563E-18
 -1      2990 5.67651E-05-2.86373E-05-1.18456E-05 3.51593E-05-2.57922E-19-4.28387E-19
 -1      2991 4.25650E-05-1.91795E-05-9.49019E-06 2.44840E-05-5.53695E-19-4.99114E-19
 -1      2992 3.46334E-05-1.31430E-05-8.76425E-06 1.14427E-05-9.36818E-19-4.15258E-19
 -1      2993 3.25125E-05-1.21052E-05-8.15193E-06-2.70593E-06-9.93821E-19-9.18184E-19
 -1      2994 1.24926E-04-5.88550E-05-2.81848E-05-2.04115E-05-1.99741E-19 2.43146E-18
 -1      2995 1.35234E-04-5.81703E-05-3.34007E-05-1.06352E-05 5.28866E-19 2.91760E-18
 -1      2996 5.73015E-05-2.97872E-05-1.12953E-05-3.46889E-05-7.87635E-19-8.83244E-19
 -1      2997 7.19536E-05-3.84178E-05-1.43237E-05-3.93144E-05-8.03834E-19-5.86359E-19
 -1      2998 1.38089E-04-3.65947E-05-4.38856E-05 1.14940E-05 1.42767E-18 3.48332E-18
 -1      2999 1.34384E-04-2.68109E-05-4.68609E-05 1.29046E-05 9.12890E-19 3.52874E-18
 -1      3000 1.25314E-04-1.03657E-05-4.99560E-05 2.45844E-06-6.60050E-19 1.43346E-18
 -1      3001 1.27167E-04-1.04275E-05-5.05522E-05-4.00110E-06-3.08532E-19 1.08696E-18
 -1      3002 8.99458E-05-4.74112E-05-1.82649E-05 3.88111E-05 3.68248E-19-2.53369E-19
 -1      3003 7.38755E-05-3.84293E-05-1.46713E-05 3.81622E-05 2.19699E-19-1.33937E-19
 -1      3004 1.39272E-04-5.11861E-05-3.77836E-05 1.13849E-06 1.13854E-18 3.79778E-18
 -1      3005 1.40499E-04-4.46625E-05-4.16620E-05 6.92978E-06 1.80810E-18 4.37080E-18
 -1      3006 1.34677E-04-4.01121E-05-4.07630E-05 1.19995E-05 1.28685E-18 3.82054E-18
 -1      3007 1.35979E-04-5.54772E-05-3.48378E-05 7.52874E-06 8.20444E-19 1.86453E-19
 -1      3008 1.29589E-04-5.85239E-05-3.03886E-05 1.65796E-05 6.34745E-19-1.24937E-20
 -1      3009 9.52452E-05-2.80918E-05-2.87800E-05-8.02212E-07 3.81972E-19-2.63757E-18
 -1      3010 1.32002E-04-5.74709E-05-3.17410E-05-1.13079E-05-1.85953E-18-3.00983E-18
 -1      3011 1.36879E-04-5.47056E-05-3.57085E-05-4.12485E-06-1.83123E-18-2.41489E-18
 -1      3012 1.28861E-04-1.04336E-05-5.13848E-05-9.84541E-07-4.26269E-19 2.32887E-18
 -1      3013 1.29821E-04-1.29652E-05-5.07029E-05-7.16947E-06-2.62792E-19 1.54446E-18
 -1      3014 1.20189E-04-5.87574E-05-2.62794E-05 2.58551E-05-9.13843E-19 7.35860E-19
 -1      3015 1.06648E-04-5.38191E-05-2.24065E-05 3.12040E-05-6.28816E-19 1.42063E-19
 -1      3016 1.30534E-04-1.47953E-05-5.02813E-05-8.96218E-06-1.31947E-18 1.53260E-18
 -1      3017 1.35080E-04-2.37946E-05-4.80908E-05-1.12651E-05-8.09975E-19 5.12349E-19
 -1      3018 9.43469E-05-2.09271E-05-3.14894E-05-7.89630E-06-1.00279E-18-7.19891E-19
 -1      3019 9.48135E-05-2.27381E-05-3.08995E-05-6.17811E-06-9.80677E-19-6.79489E-19
 -1      3020 9.46289E-05-2.23560E-05-3.09723E-05-5.55161E-06-9.19891E-19-8.13874E-19
 -1      3021 9.35289E-05-1.95392E-05-3.17121E-05-7.70943E-06-8.72582E-19-9.63950E-19
 -1      3022 9.15762E-05-1.65681E-05-3.21683E-05-5.45728E-06-4.03097E-19-1.13898E-18
 -1      3023 9.20981E-05-1.73578E-05-3.20630E-05-6.27296E-06-5.91650E-19-1.07012E-18
 -1      3024 9.24255E-05-1.80338E-05-3.18602E-05-4.43578E-06-3.24171E-19-1.03024E-18
 -1      3025 9.12372E-05-1.61617E-05-3.21622E-05 2.76431E-08 3.66563E-19-1.09348E-18
 -1      3026 9.01420E-05-1.44166E-05-3.24736E-05-3.69932E-07 3.35502E-19-1.15066E-18
 -1      3027 9.02009E-05-1.45003E-05-3.24629E-05-1.30457E-06 2.43940E-19-1.22132E-18
 -1      3028 1.27735E-04-2.33067E-05-4.49793E-05 1.31937E-05 6.24687E-19 1.76723E-18
 -1      3029 1.33135E-04-3.46203E-05-4.25645E-05-1.31608E-05-1.16615E-18-9.84041E-19
 -1      3030 9.43701E-05-2.13744E-05-3.12885E-05 7.08407E-06 1.25092E-18-3.44431E-19
 -1      3031 1.34879E-04-3.01589E-05-4.53374E-05 1.23913E-05 1.14032E-19 5.74077E-19
 -1      3032 1.27172E-04-2.43800E-05-4.45625E-05 1.38592E-05 1.39655E-19-1.42672E-19
 -1      3033 1.32538E-04-3.56411E-05-4.16252E-05 1.25229E-05 1.53419E-19 1.43996E-19
 -1      3034 1.23923E-04-1.45113E-05-4.73545E-05-7.12742E-06-9.89546E-19 2.52945E-19
 -1      3035 1.38040E-04-5.25394E-05-3.67267E-05 2.69426E-08-1.82324E-19-8.35704E-19
 -1      3036 1.35768E-04-3.10913E-05-4.52816E-05-1.17543E-05 1.12867E-19-5.79476E-19
 -1      3037 1.34214E-04-3.74831E-05-4.17537E-05-1.09505E-05 3.20814E-19-7.55871E-19
 -1      3038 1.28468E-04-2.62174E-05-4.42116E-05-1.39097E-05-1.05276E-18-7.18496E-19
 -1      3039 1.25474E-04-5.84868E-05-2.89745E-05 1.76606E-05-1.15821E-18-2.47175E-19
 -1      3040 1.23261E-04-1.27727E-05-4.77311E-05 2.47464E-06-2.73380E-19 1.69343E-18
 -1      3041 9.47081E-05-2.74324E-05-2.88299E-05 9.04062E-07 1.67287E-18-2.13245E-19
 -1      3042 9.48297E-05-2.75938E-05-2.88201E-05 8.30490E-07 2.59823E-18-4.72725E-19
 -1      3043 9.49437E-05-2.77116E-05-2.88106E-05 8.71401E-07 2.51145E-18-2.45908E-19
 -1      3044 9.46375E-05-2.23942E-05-3.09526E-05 5.53475E-06 1.13215E-18-4.46552E-19
 -1      3045 1.14872E-04-2.84449E-05-3.73119E-05-1.33697E-05-1.04033E-18 1.73890E-18
 -1      3046 1.12541E-04-2.39925E-05-3.80188E-05-1.04462E-05-1.27870E-18 1.41246E-18
 -1      3047 1.15236E-04-2.07337E-05-4.06971E-05-8.41042E-06-1.30856E-18 1.65235E-18
 -1      3048 1.20005E-04-3.14156E-05-3.80626E-05-1.49327E-05-6.35248E-19 2.82926E-18
 -1      3049 1.35411E-04-5.43265E-05-3.48644E-05-1.26810E-06 9.64996E-19 3.70037E-18
 -1      3050 1.35773E-04-4.99150E-05-3.71479E-05 3.26457E-06-7.47851E-19-1.13884E-18
 -1      3051 9.51419E-05-2.79395E-05-2.88034E-05 8.90327E-07 1.72873E-18 1.12766E-18
 -1      3052 6.03357E-05-2.77637E-05-1.33606E-05 3.19805E-05-1.19410E-18 1.83044E-18
 -1      3053 5.86589E-05-2.32495E-05-1.48035E-05 2.66931E-05-9.98070E-19 1.67840E-18
 -1      3054 7.31782E-05-3.35280E-05-1.68495E-05 3.29052E-05-8.48251E-19 7.72812E-19
 -1      3055 1.01795E-04-5.02172E-05-2.17823E-05 3.18279E-05 7.36178E-19 1.52122E-19
 -1      3056 4.03876E-05-1.43781E-05-1.05442E-05 1.16831E-05-3.23514E-19 1.08875E-18
 -1      3057 5.73042E-05-2.51231E-05-1.31959E-05-2.90631E-05-1.03470E-18-6.19605E-19
 -1      3058 4.19985E-05-1.38475E-05-1.14675E-05-9.15778E-06-1.08853E-18-1.15895E-18
 -1      3059 9.51451E-05-2.79608E-05-2.87925E-05-8.31106E-07 6.06113E-19-3.87061E-18
 -1      3060 9.91830E-05-4.96169E-05-2.09038E-05 3.35499E-05-7.01555E-19 3.27908E-19
 -1      3061 9.01218E-05-4.32517E-05-1.97837E-05 3.33006E-05-9.53124E-19 7.52377E-19
 -1      3062 1.07953E-04-5.15397E-05-2.40802E-05 2.62628E-05-5.93294E-19 9.81685E-19
 -1      3063 4.02518E-05-1.26499E-05-1.15709E-05-8.43728E-06 7.53661E-19 1.92287E-18
 -1      3064 4.05441E-05-1.53419E-05-1.01814E-05-1.70682E-05 9.78852E-19 2.40663E-18
 -1      3065 5.09139E-05-1.83094E-05-1.35421E-05-2.12953E-05 1.03579E-18 2.85005E-18
 -1      3066 1.24890E-04-5.76452E-05-2.86639E-05 1.71648E-05 7.89117E-19 2.78674E-19
 -1      3067 1.18849E-04-5.77621E-05-2.60027E-05-2.43660E-05-7.43854E-19 1.96694E-18
 -1      3068 1.23919E-04-5.72432E-05-2.87407E-05-1.54724E-05-5.44430E-19 2.28958E-18
 -1      3069 1.10212E-04-5.31612E-05-2.42794E-05-2.66447E-05-1.05572E-18 1.94694E-18
 -1      3070 4.57494E-05-1.64019E-05-1.19912E-05 1.69292E-05-6.92635E-19-3.57448E-19
 -1      3071 9.03316E-05-1.47011E-05-3.24338E-05-2.11554E-06 1.57497E-19-1.08395E-18
 -1      3072 9.05222E-05-1.49744E-05-3.23995E-05-3.04672E-06-8.40632E-20-1.20055E-18
 -1      3073 9.17539E-05-1.69659E-05-3.20362E-05-3.03526E-06-8.28073E-20-1.17033E-18
 -1      3074 9.13618E-05-1.63549E-05-3.21322E-05-1.52530E-06 1.65087E-19-1.04290E-18
 -1      3075 8.60257E-05-4.25910E-05-1.81369E-05-3.50914E-05-9.86476E-19 7.66141E-19
 -1      3076 1.36139E-04-4.74967E-05-3.83770E-05-5.43202E-06 6.67674E-19-4.89162E-20
 -1      3077 1.37654E-04-5.24744E-05-3.66649E-05 8.16223E-07 4.07370E-19 2.62368E-19
 -1      3078 1.33276E-04-5.45173E-05-3.38081E-05 3.50082E-06 6.91655E-19 1.25784E-19
 -1      3079 1.00149E-04-4.89406E-05-2.16051E-05-3.16423E-05-1.25996E-19 4.65286E-19
 -1      3080 1.25822E-04-5.70571E-05-2.93735E-05-1.44282E-05-8.46186E-19-2.17449E-18
 -1      3081 7.01730E-05-3.29111E-05-1.54426E-05 3.38859E-05 4.93397E-20-4.41304E-19
 -1      3082 9.51582E-05-2.79289E-05-2.88135E-05-1.00024E-06 3.14556E-19-3.48463E-18
 -1      3083 9.50390E-05-2.78221E-05-2.88083E-05-9.17770E-07-3.97155E-19-3.28667E-18
 -1      3084 9.49542E-05-2.76863E-05-2.88265E-05-1.03893E-06-9.20748E-19-2.08888E-18
 -1      3085 9.51788E-05-2.78940E-05-2.88329E-05-1.12235E-06 2.86254E-19-3.31739E-18
 -1      3086 1.25321E-04-1.78596E-05-4.64604E-05-1.00129E-05-1.08823E-18 4.15417E-19
 -1      3087 9.42940E-05-2.17571E-05-3.11153E-05 4.77160E-06 9.92784E-19-5.77936E-19
 -1      3088 9.38078E-05-2.07622E-05-3.13078E-05 4.43249E-06 8.98643E-19-6.07403E-19
 -1      3089 9.56681E-05-2.66042E-05-2.95854E-05-3.00990E-07-4.70876E-19-6.35713E-19
 -1      3090 9.56508E-05-2.70084E-05-2.94244E-05 3.09255E-07-3.83338E-19-7.90408E-19
 -1      3091 9.56704E-05-2.73346E-05-2.92773E-05 7.86524E-07-4.46356E-19-7.47055E-19
 -1      3092 9.56433E-05-2.75671E-05-2.91776E-05 1.21505E-06-5.94474E-19-9.23742E-19
 -1      3093 9.58030E-05-2.68975E-05-2.95338E-05 4.23749E-07-4.39803E-19-7.52740E-19
 -1      3094 9.56024E-05-2.77316E-05-2.90818E-05 1.56422E-06-5.07418E-19-7.87150E-19
 -1      3095 9.55831E-05-2.78475E-05-2.90287E-05 1.87974E-06-4.02195E-19-7.86418E-19
 -1      3096 9.57864E-05-2.74710E-05-2.92814E-05 1.28548E-06-4.75747E-19-4.84268E-19
 -1      3097 9.55072E-05-2.78995E-05-2.89724E-05 2.15321E-06-1.90449E-19-8.03804E-19
 -1      3098 9.55010E-05-2.79339E-05-2.89543E-05 2.41034E-06-1.43921E-19-6.08571E-19
 -1      3099 9.56754E-05-2.77371E-05-2.91194E-05 1.93710E-06-3.22206E-19-5.77713E-19
 -1      3100 9.54029E-05-2.79056E-05-2.89278E-05 2.65158E-06-8.56829E-20-4.75412E-19
 -1      3101 9.54109E-05-2.78828E-05-2.89360E-05 2.89206E-06-4.67849E-20-4.00699E-19
 -1      3102 9.55070E-05-2.77836E-05-2.90266E-05 2.47434E-06-8.32678E-20-5.83744E-19
 -1      3103 9.52969E-05-2.77974E-05-2.89309E-05 3.13558E-06-1.28606E-19-4.27551E-19
 -1      3104 9.53198E-05-2.77368E-05-2.89583E-05 3.39016E-06-2.28141E-19-2.02463E-19
 -1      3105 9.52997E-05-2.76718E-05-2.89849E-05 2.97585E-06-4.70022E-20-7.36363E-19
 -1      3106 9.51941E-05-2.76137E-05-2.89672E-05 3.66220E-06-5.15264E-19-1.42447E-20
 -1      3107 9.52347E-05-2.75341E-05-2.90076E-05 3.95203E-06-5.42730E-19-3.96252E-19
 -1      3108 9.50639E-05-2.74499E-05-2.89781E-05 3.50320E-06-3.87466E-19-3.02244E-19
 -1      3109 9.51025E-05-2.73936E-05-2.90235E-05 4.27127E-06-3.61154E-19 3.59733E-20
 -1      3110 9.51678E-05-2.73171E-05-2.90710E-05 4.60832E-06-2.69510E-19 2.15410E-20
 -1      3111 9.48087E-05-2.71628E-05-2.89911E-05 4.10220E-06-2.45170E-19 1.67606E-19
 -1      3112 9.50392E-05-2.71850E-05-2.90864E-05 4.98639E-06-1.09833E-19 2.50081E-19
 -1      3113 9.51432E-05-2.71417E-05-2.91348E-05 5.37298E-06-7.45911E-20 4.20433E-19
 -1      3114 9.45492E-05-2.68613E-05-2.90089E-05 4.80435E-06-4.49959E-21 5.46960E-19
 -1      3115 9.50383E-05-2.70541E-05-2.91418E-05 5.81437E-06-3.13857E-19 4.28654E-19
 -1      3116 9.52068E-05-2.70875E-05-2.91843E-05 6.24149E-06-3.21458E-19 6.35609E-19
 -1      3117 9.43141E-05-2.66124E-05-2.90152E-05 5.62793E-06-1.30536E-19 3.89200E-19
 -1      3118 9.51624E-05-2.70979E-05-2.91745E-05 6.74267E-06-5.38336E-19 1.77588E-19
 -1      3119 9.54398E-05-2.72712E-05-2.92041E-05 7.18701E-06-6.97805E-19 1.63712E-19
 -1      3120 9.41579E-05-2.65122E-05-2.89930E-05 6.57801E-06-6.62915E-19 1.63093E-19
 -1      3121 9.55204E-05-2.74576E-05-2.91699E-05 7.73399E-06-7.33908E-19 2.35402E-20
 -1      3122 9.59779E-05-2.78598E-05-2.91809E-05 8.15300E-06-7.76755E-19 1.36951E-19
 -1      3123 9.41780E-05-2.67002E-05-2.89252E-05 7.64497E-06-7.98763E-19-1.18577E-19
 -1      3124 9.62900E-05-2.83309E-05-2.91181E-05 8.71508E-06-8.32801E-19-1.29830E-19
 -1      3125 9.70339E-05-2.90783E-05-2.91099E-05 9.03815E-06-6.12125E-19-2.84418E-19
 -1      3126 9.45393E-05-2.73753E-05-2.87987E-05 8.79886E-06-8.62577E-19 5.93159E-20
 -1      3127 9.77417E-05-2.99734E-05-2.90234E-05 9.55188E-06-2.28531E-19-5.41821E-19
 -1      3128 9.89125E-05-3.11964E-05-2.90074E-05 9.66450E-06 3.26516E-19-3.20496E-19
 -1      3129 9.55043E-05-2.88069E-05-2.86131E-05 9.97141E-06-6.80000E-19-3.16574E-19
 -1      3130 1.00248E-04-3.26633E-05-2.89227E-05 9.99698E-06 3.86483E-19-4.32325E-19
 -1      3131 1.01990E-04-3.44543E-05-2.89348E-05 9.71856E-06 2.27464E-19-5.48468E-19
 -1      3132 9.74647E-05-3.13238E-05-2.83967E-05 1.10085E-05 3.55382E-19-7.08225E-19
 -1      3133 1.04213E-04-3.65650E-05-2.89184E-05 9.60755E-06 4.39106E-19-2.49416E-19
 -1      3134 1.06613E-04-3.88721E-05-2.90374E-05 8.67750E-06 7.78350E-19-2.04806E-19
 -1      3135 1.00926E-04-3.52120E-05-2.82406E-05 1.15561E-05 5.92428E-19-6.66886E-19
 -1      3136 1.09900E-04-4.14372E-05-2.92297E-05 7.65262E-06 7.87939E-19-3.99806E-19
 -1      3137 1.12723E-04-4.37008E-05-2.95995E-05 5.81925E-06 1.34967E-18-7.21622E-19
 -1      3138 1.06288E-04-4.04819E-05-2.83525E-05 1.08801E-05 7.08634E-19-5.12680E-19
 -1      3139 1.17070E-04-4.62128E-05-3.02539E-05 3.00133E-06 1.28962E-18-9.57030E-19
 -1      3140 1.19274E-04-4.70249E-05-3.10559E-05-1.04382E-07 8.42650E-19-1.11202E-18
 -1      3141 1.14356E-04-4.64583E-05-2.92585E-05 7.83762E-06 1.05636E-18-2.66471E-19
 -1      3142 1.23858E-04-3.98649E-05-3.62409E-05-1.24171E-05 1.04092E-19-1.51390E-18
 -1      3143 1.22273E-04-3.36436E-05-3.80594E-05-1.36829E-05-3.59248E-19-1.26131E-18
 -1      3144 1.21691E-04-2.48568E-05-4.19415E-05-1.32806E-05-1.35218E-18-8.16778E-19
 -1      3145 1.19123E-04-1.81575E-05-4.36296E-05-1.03443E-05-1.21814E-18-8.28742E-19
 -1      3146 1.15397E-04-1.41568E-05-4.39363E-05-4.31332E-06-1.14519E-18-1.17785E-18
 -1      3147 1.15205E-04-1.34559E-05-4.40093E-05 1.98458E-06-5.04408E-19-1.12213E-18
 -1      3148 1.19137E-04-2.18812E-05-4.19384E-05 1.07981E-05-2.40134E-19-1.72285E-18
 -1      3149 1.21438E-04-2.78694E-05-4.03250E-05 1.43995E-05-2.40663E-19-1.74616E-18
 -1      3150 1.23850E-04-3.53436E-05-3.82314E-05 1.39389E-05 9.82029E-20-1.59997E-18
 -1      3151 1.24196E-04-4.32628E-05-3.46929E-05 9.55462E-06 2.66577E-19-1.63190E-18
 -1      3152 1.24077E-04-4.68255E-05-3.31997E-05 6.17811E-06 7.40174E-19-7.69529E-19
 -1      3153 1.20475E-04-4.70808E-05-3.15362E-05 1.47644E-06 1.62808E-19-1.40612E-18
 -1      3154 1.18367E-04-4.66742E-05-3.06096E-05-1.67542E-06-7.28207E-19-1.75138E-18
 -1      3155 1.23895E-04-4.97037E-05-3.19250E-05 2.69928E-07 7.02309E-20-2.57731E-18
 -1      3156 1.14048E-04-4.46004E-05-2.98238E-05-4.74796E-06-3.45728E-19-1.97018E-18
 -1      3157 1.11273E-04-4.24411E-05-2.93884E-05-6.88127E-06-1.29768E-20-1.40716E-18
 -1      3158 1.15793E-04-4.73784E-05-2.94404E-05-7.03465E-06-4.24115E-19-2.68106E-18
 -1      3159 1.07719E-04-3.97788E-05-2.91305E-05-8.15341E-06-1.27674E-19-1.16907E-18
 -1      3160 1.05230E-04-3.74295E-05-2.89766E-05-9.24798E-06-9.79605E-19-1.06746E-18
 -1      3161 1.07762E-04-4.16027E-05-2.84636E-05-1.05070E-05-2.93647E-19-2.54183E-18
 -1      3162 1.02775E-04-3.51694E-05-2.89684E-05-9.47605E-06-1.09659E-18-4.62060E-19
 -1      3163 1.00904E-04-3.32525E-05-2.89462E-05-9.83867E-06-7.59228E-20 1.06809E-19
 -1      3164 1.01822E-04-3.60828E-05-2.82605E-05-1.14440E-05-1.59374E-19-1.16711E-18
 -1      3165 9.94041E-05-3.16429E-05-2.90276E-05-9.53878E-06-5.07863E-19 7.96488E-20
 -1      3166 9.81308E-05-3.02990E-05-2.90464E-05-9.45708E-06-6.99071E-19-3.36483E-19
 -1      3167 9.79731E-05-3.18563E-05-2.83918E-05-1.09921E-05-5.10834E-20 2.24712E-20
 -1      3168 9.73079E-05-2.92844E-05-2.91392E-05-8.93308E-06-3.96026E-19-1.59606E-19
 -1      3169 9.64928E-05-2.84388E-05-2.91559E-05-8.60454E-06-3.72083E-19-4.34510E-19
 -1      3170 9.57401E-05-2.90511E-05-2.86128E-05-9.95450E-06-2.91685E-19-7.35580E-19
 -1      3171 9.61035E-05-2.78759E-05-2.92282E-05-8.00628E-06-4.48268E-19-5.21584E-19
 -1      3172 9.56008E-05-2.74003E-05-2.92271E-05-7.55599E-06-4.71259E-19-1.15767E-18
 -1      3173 9.45885E-05-2.73904E-05-2.88153E-05-8.72103E-06-5.05042E-19 2.36281E-19
 -1      3174 9.54672E-05-2.71457E-05-2.92701E-05-6.95666E-06-4.47113E-20-1.53450E-18
 -1      3175 9.51629E-05-2.69198E-05-2.92498E-05-6.46248E-06 6.54611E-20-8.26913E-19
 -1      3176 9.41016E-05-2.65439E-05-2.89602E-05-7.47130E-06-6.18282E-19-8.97020E-19
 -1      3177 9.51676E-05-2.68592E-05-2.92660E-05-5.89795E-06 6.41485E-19-6.37788E-19
 -1      3178 9.49836E-05-2.67894E-05-2.92309E-05-5.40792E-06 9.63570E-19-4.73118E-19
 -1      3179 9.39919E-05-2.62299E-05-2.90428E-05-6.28606E-06 6.57317E-19-6.68131E-19
 -1      3180 9.50544E-05-2.68406E-05-2.92266E-05-4.89606E-06 5.50966E-19 1.62104E-19
 -1      3181 9.49410E-05-2.68612E-05-2.91826E-05-4.43879E-06-1.71826E-19 6.94789E-20
 -1      3182 9.40767E-05-2.62386E-05-2.90731E-05-5.20269E-06 7.87453E-19-1.00737E-18
 -1      3183 9.50360E-05-2.69690E-05-2.91646E-05-3.98787E-06 4.19785E-20-7.03036E-19
 -1      3184 9.49635E-05-2.70359E-05-2.91173E-05-3.57882E-06 1.11247E-18-9.65325E-19
 -1      3185 9.42463E-05-2.64251E-05-2.90650E-05-4.23864E-06-1.83419E-19 1.21732E-19
 -1      3186 9.50595E-05-2.71647E-05-2.90916E-05-3.19097E-06 1.19883E-18-1.99463E-18
 -1      3187 9.50101E-05-2.72498E-05-2.90451E-05-2.83632E-06 1.23556E-18-1.63783E-18
 -1      3188 9.44385E-05-2.66934E-05-2.90321E-05-3.40029E-06 1.12901E-18-1.73966E-18
 -1      3189 9.50954E-05-2.73781E-05-2.90165E-05-2.50924E-06 9.51656E-19-1.39095E-18
 -1      3190 9.50590E-05-2.74640E-05-2.89736E-05-2.20899E-06 5.17046E-19-1.59950E-18
 -1      3191 9.46199E-05-2.69829E-05-2.89860E-05-2.68558E-06 1.45544E-18-3.49771E-18
 -1      3192 9.51282E-05-2.75790E-05-2.89453E-05-1.93808E-06-3.10745E-20-1.32289E-18
 -1      3193 9.51005E-05-2.76561E-05-2.89078E-05-1.68799E-06 2.99684E-19-1.56988E-18
 -1      3194 9.47748E-05-2.72565E-05-2.89351E-05-2.08717E-06 4.24304E-19-2.48431E-18
 -1      3195 9.51648E-05-2.77557E-05-2.88858E-05-1.49298E-06-6.73912E-20-1.82666E-18
 -1      3196 9.51392E-05-2.78180E-05-2.88538E-05-1.28431E-06-2.85258E-19-2.46291E-18
 -1      3197 9.50128E-05-2.77028E-05-2.88489E-05-1.25812E-06-1.04530E-18-2.36429E-18
 -1      3198 9.49105E-05-2.75023E-05-2.88894E-05-1.62094E-06-8.43366E-20-1.35894E-18
 -1      3199 9.41926E-05-2.69243E-05-2.88293E-05-5.16252E-07 1.36369E-18 2.24352E-19
 -1      3200 9.41317E-05-2.68704E-05-2.88294E-05-3.36808E-07 1.42445E-18 1.35230E-18
 -1      3201 9.54067E-05-2.78854E-05-2.89310E-05-3.31641E-06 1.07097E-19 4.06534E-19
 -1      3202 9.53225E-05-2.79239E-05-2.88873E-05-3.06878E-06 3.41375E-19 4.37847E-19
 -1      3203 9.53878E-05-2.79908E-05-2.88790E-05-2.82817E-06 4.78599E-19 3.58963E-19
 -1      3204 9.53280E-05-2.79946E-05-2.88570E-05-2.59597E-06 4.12891E-19 4.60092E-19
 -1      3205 9.53476E-05-2.78074E-05-2.89481E-05-2.96863E-06 2.83324E-19 5.41055E-19
 -1      3206 9.55059E-05-2.75288E-05-2.91241E-05-4.53383E-06 1.77744E-19 5.86225E-19
 -1      3207 9.53697E-05-2.75936E-05-2.90524E-05-4.19253E-06 2.55355E-19 3.76048E-19
 -1      3208 9.56027E-05-2.73477E-05-2.92423E-05-5.31860E-06 1.14657E-19 7.35536E-19
 -1      3209 9.54301E-05-2.73956E-05-2.91641E-05-4.91716E-06 3.60219E-19 7.74452E-19
 -1      3210 9.49247E-05-2.70699E-05-2.90805E-05-4.80830E-06 5.05253E-20 5.47618E-19
 -1      3211 9.57639E-05-2.72387E-05-2.93573E-05-6.22800E-06-1.84206E-19 8.11809E-19
 -1      3212 9.55375E-05-2.72359E-05-2.92789E-05-5.77205E-06-5.17553E-20 7.65134E-19
 -1      3213 9.47842E-05-2.67904E-05-2.91398E-05-5.65161E-06 1.30620E-19 3.59618E-19
 -1      3214 9.60469E-05-2.72970E-05-2.94527E-05-7.23886E-06 6.15731E-19 6.85841E-19
 -1      3215 9.57344E-05-2.71909E-05-2.93816E-05-6.74914E-06 1.56249E-19 6.30359E-19
 -1      3216 9.46864E-05-2.66014E-05-2.91797E-05-6.63296E-06 1.69477E-19 1.90719E-19
 -1      3217 9.65569E-05-2.76692E-05-2.95108E-05-8.29636E-06 2.01213E-20 9.92593E-19
 -1      3218 9.61023E-05-2.73802E-05-2.94554E-05-7.81423E-06 4.35128E-19 1.07888E-18
 -1      3219 9.47024E-05-2.66210E-05-2.91807E-05-7.74170E-06 2.75566E-19 3.36579E-19
 -1      3220 9.74745E-05-2.85714E-05-2.95165E-05-9.30012E-06 1.12239E-19 7.78266E-19
 -1      3221 9.67862E-05-2.79852E-05-2.94831E-05-8.89635E-06 1.56027E-19 7.92758E-19
 -1      3222 9.49644E-05-2.70303E-05-2.91236E-05-8.94598E-06 3.27723E-19 4.98957E-19
 -1      3223 9.90838E-05-3.02939E-05-2.94682E-05-1.00782E-05-3.41175E-20 4.00674E-19
 -1      3224 9.80270E-05-2.92636E-05-2.94556E-05-9.86686E-06 1.29329E-19 7.94258E-19
 -1      3225 9.57015E-05-2.80943E-05-2.89953E-05-1.01801E-05 1.64219E-19 1.16395E-19
 -1      3226 1.01779E-04-3.31577E-05-2.94004E-05-1.03356E-05 9.60555E-20 1.84558E-19
 -1      3227 1.00189E-04-3.15394E-05-2.93873E-05-1.04956E-05-1.30797E-19 2.81503E-19
 -1      3228 9.72836E-05-3.01704E-05-2.88044E-05-1.13097E-05 4.07717E-21-3.85666E-19
 -1      3229 1.05998E-04-3.73647E-05-2.94221E-05-9.58468E-06 3.55337E-19 3.82720E-20
 -1      3230 1.03738E-04-3.51092E-05-2.93481E-05-1.03767E-05 1.55045E-19 8.88785E-20
 -1      3231 1.00240E-04-3.36529E-05-2.86118E-05-1.20427E-05 1.47902E-19-2.74821E-19
 -1      3232 1.11923E-04-4.24914E-05-2.97772E-05-7.08359E-06 3.41778E-19 1.38631E-18
 -1      3233 1.09094E-04-3.99688E-05-2.95175E-05-8.79371E-06 5.46391E-19 7.02898E-19
 -1      3234 1.05158E-04-3.87924E-05-2.85857E-05-1.17438E-05-6.03346E-21 1.75045E-19
 -1      3235 1.18912E-04-4.70467E-05-3.08926E-05-1.72842E-06 3.36431E-19 1.91351E-18
 -1      3236 1.16244E-04-4.53598E-05-3.02471E-05-4.73651E-06 2.78628E-19 1.59668E-18
 -1      3237 1.12722E-04-4.50727E-05-2.91579E-05-9.19442E-06-5.18080E-20 1.20316E-18
 -1      3238 1.24840E-04-4.70268E-05-3.34357E-05 6.23547E-06 7.85835E-19 1.86311E-18
 -1      3239 1.23439E-04-4.83106E-05-3.21277E-05 2.52194E-06 7.59984E-19 2.33065E-18
 -1      3240 1.21577E-04-5.00102E-05-3.08346E-05-3.32518E-06 5.32943E-19 2.28690E-18
 -1      3241 1.22803E-04-2.53266E-05-4.20609E-05 1.32903E-05 3.76083E-19 1.96181E-18
 -1      3242 1.25684E-04-3.30849E-05-4.00926E-05 1.54443E-05 9.26866E-19 1.53842E-18
 -1      3243 1.17305E-04-1.49238E-05-4.42657E-05 2.87068E-06-2.76344E-20 7.09493E-19
 -1      3244 1.18692E-04-1.82348E-05-4.37106E-05 9.58230E-06 2.22981E-19 9.96839E-19
 -1      3245 1.29502E-04-5.53378E-05-3.15925E-05-4.72130E-06 4.82769E-19 2.86379E-18
 -1      3246 1.31199E-04-5.02234E-05-3.50002E-05 4.22828E-06 1.47880E-18 3.81395E-18
 -1      3247 1.20803E-04-4.76553E-05-3.12462E-05 6.70914E-07 7.27026E-19-1.04043E-19
 -1      3248 1.23110E-04-4.79708E-05-3.22531E-05-3.07941E-06 4.64651E-19 2.16840E-19
 -1      3249 1.06880E-04-3.79051E-05-2.94668E-05 9.42993E-06-1.66282E-19 1.38334E-18
 -1      3250 1.09480E-04-4.03690E-05-2.96330E-05 8.11799E-06 9.54897E-20 1.07620E-18
 -1      3251 1.02259E-04-3.35067E-05-2.94132E-05 1.03424E-05-1.21635E-18 7.95396E-19
 -1      3252 1.04240E-04-3.55283E-05-2.94495E-05 9.84594E-06-3.95435E-19 1.11164E-18
 -1      3253 1.03079E-04-3.65734E-05-2.86156E-05 1.18394E-05-6.47321E-19-3.20807E-19
 -1      3254 9.93079E-05-3.04538E-05-2.94833E-05 1.00701E-05-7.59858E-20 2.80728E-19
 -1      3255 1.00665E-04-3.18346E-05-2.94882E-05 1.01012E-05-8.33637E-19 6.98104E-19
 -1      3256 9.89622E-05-3.20410E-05-2.87406E-05 1.16174E-05-7.56450E-19 1.02154E-18
 -1      3257 9.75517E-05-2.85868E-05-2.95465E-05 9.21820E-06-7.77474E-19 1.78931E-18
 -1      3258 9.84407E-05-2.94338E-05-2.95619E-05 9.55129E-06-7.35981E-19 9.28244E-19
 -1      3259 9.65973E-05-2.91256E-05-2.89489E-05 1.06407E-05-6.40314E-19 1.29033E-18
 -1      3260 9.65577E-05-2.75804E-05-2.95607E-05 8.11095E-06-5.07079E-19 3.31048E-18
 -1      3261 9.71351E-05-2.80454E-05-2.95977E-05 8.59507E-06-4.72923E-19 2.50505E-18
 -1      3262 9.53759E-05-2.74585E-05-2.91230E-05 9.38931E-06-1.21371E-18 2.30357E-18
 -1      3263 9.60141E-05-2.71351E-05-2.95230E-05 6.93297E-06 9.66306E-19 2.29790E-18
 -1      3264 9.63964E-05-2.73523E-05-2.95790E-05 7.47218E-06 5.20403E-19 3.14347E-18
 -1      3265 9.48334E-05-2.66486E-05-2.92281E-05 8.07739E-06 8.10543E-20 2.54068E-18
 -1      3266 9.57210E-05-2.70256E-05-2.94462E-05 5.78943E-06 7.94311E-19 1.56238E-18
 -1      3267 9.59844E-05-2.70942E-05-2.95140E-05 6.32473E-06 1.21341E-18 1.55582E-18
 -1      3268 9.46604E-05-2.63770E-05-2.92658E-05 6.80925E-06 1.11468E-18 2.49403E-18
 -1      3269 9.55607E-05-2.70994E-05-2.93464E-05 4.73821E-06-3.27273E-19 1.01426E-19
 -1      3270 9.57509E-05-2.70859E-05-2.94184E-05 5.23551E-06 1.86070E-19 6.11750E-19
 -1      3271 9.46689E-05-2.64152E-05-2.92511E-05 5.63808E-06 6.25870E-19 7.82510E-19
 -1      3272 9.54681E-05-2.72604E-05-2.92374E-05 3.80784E-06-4.86588E-19 3.79824E-19
 -1      3273 9.56114E-05-2.72066E-05-2.93079E-05 4.24976E-06-5.72072E-19-1.40623E-20
 -1      3274 9.47528E-05-2.66128E-05-2.92019E-05 4.59060E-06-7.30098E-19 1.44012E-19
 -1      3275 9.54085E-05-2.74507E-05-2.91296E-05 3.00782E-06-4.92742E-19 1.99119E-18
 -1      3276 9.55201E-05-2.73818E-05-2.91946E-05 3.38811E-06-7.23603E-19 6.52873E-19
 -1      3277 9.48568E-05-2.68765E-05-2.91335E-05 3.67781E-06-1.25182E-18 6.52524E-19
 -1      3278 9.53643E-05-2.76367E-05-2.90300E-05 2.33524E-06 1.32201E-18 1.81807E-18
 -1      3279 9.54529E-05-2.75675E-05-2.90872E-05 2.65475E-06 7.14102E-19 1.27891E-18
 -1      3280 9.49540E-05-2.71508E-05-2.90579E-05 2.89993E-06 9.20120E-20 1.22329E-18
 -1      3281 9.53282E-05-2.77981E-05-2.89426E-05 1.78117E-06 1.54461E-18 2.05128E-18
 -1      3282 9.53984E-05-2.77396E-05-2.89909E-05 2.04187E-06 1.43566E-18 1.69423E-18
 -1      3283 9.50308E-05-2.74041E-05-2.89832E-05 2.25012E-06 1.02492E-18 4.42034E-19
 -1      3284 1.19498E-04-1.84047E-05-4.37435E-05-9.65865E-06-1.73589E-18 1.61275E-18
 -1      3285 1.21761E-04-2.46851E-05-4.19474E-05-1.45067E-05-1.59787E-18 1.09508E-18
 -1      3286 9.22953E-05-1.80750E-05-3.18240E-05 1.72569E-06 5.86115E-19-9.42001E-19
 -1      3287 9.21676E-05-1.78630E-05-3.18573E-05 1.00228E-06 4.53870E-19-1.03485E-18
 -1      3288 9.46967E-05-2.74131E-05-2.88354E-05-1.07836E-06-6.00032E-19-2.26065E-18
 -1      3289 9.45498E-05-2.72753E-05-2.88362E-05-9.95514E-07 9.04369E-21-1.09524E-18
 -1      3290 9.40961E-05-2.68333E-05-2.88286E-05-1.09443E-07 1.76695E-18 1.36785E-18
 -1      3291 9.40939E-05-2.68310E-05-2.88288E-05 8.74913E-08 2.17303E-18 2.29904E-18
 -1      3292 9.39425E-05-2.66755E-05-2.88245E-05-2.50157E-07 2.00219E-18 1.35462E-18
 -1      3293 1.17958E-04-1.45971E-05-4.48164E-05-4.10907E-06-8.28398E-19 9.38777E-19
 -1      3294 1.22772E-04-1.59627E-05-4.62279E-05 8.99714E-06 2.12076E-19-1.04749E-18
 -1      3295 1.24817E-04-1.27419E-05-4.85562E-05 5.57412E-06-2.81744E-19 5.58248E-19
 -1      3296 1.18941E-04-1.23703E-05-4.61827E-05 2.04999E-06-4.70315E-19-6.43090E-19
 -1      3297 4.54414E-05-1.24224E-05-1.39085E-05-3.62449E-06-8.23005E-19-1.06959E-18
 -1      3298 4.86818E-05-1.52116E-05-1.39462E-05-1.57232E-05-1.00530E-18-1.00871E-18
 -1      3299 5.57014E-05-2.09454E-05-1.46069E-05-2.42107E-05-1.27960E-18-7.64553E-19
 -1      3300 6.67799E-05-2.88394E-05-1.61234E-05-3.11713E-05-1.26907E-18-5.56289E-19
 -1      3301 9.49853E-05-2.33708E-05-3.06721E-05-3.91479E-06-7.82352E-19-6.82569E-19
 -1      3302 9.51781E-05-2.44437E-05-3.03307E-05-2.71598E-06-6.27283E-19-7.06270E-19
 -1      3303 1.08225E-04-5.17959E-05-2.44330E-05 2.65440E-05 6.08911E-19 9.64294E-20
 -1      3304 9.47643E-05-4.44628E-05-2.11308E-05 3.11505E-05 7.52880E-19-1.45478E-19
 -1      3305 4.67811E-05-1.50980E-05-1.33680E-05 1.52653E-05-1.11533E-18 3.93870E-19
 -1      3306 4.10404E-05-1.16987E-05-1.19134E-05 3.86570E-06-4.04402E-19 1.53525E-18
 -1      3307 1.28133E-04-5.69074E-05-3.06810E-05 1.00406E-05 6.33210E-19 2.43787E-20
 -1      3308 1.20451E-04-5.54319E-05-2.76224E-05 1.70558E-05 7.32472E-19-2.25350E-19
 -1      3309 9.50557E-05-2.77966E-05-2.88238E-05 1.02368E-06 2.10274E-18 7.69043E-19
 -1      3310 9.54622E-05-2.71101E-05-2.92988E-05-2.05778E-07 4.52041E-19 8.50352E-21
 -1      3311 9.55080E-05-2.67363E-05-2.94587E-05 4.33119E-07 5.70813E-19-4.73013E-21
 -1      3312 9.44022E-05-2.71241E-05-2.88321E-05-8.56093E-07 9.39800E-19-2.66134E-19
 -1      3313 9.42887E-05-2.70231E-05-2.88323E-05-7.11858E-07 1.64267E-18-9.81113E-19
 -1      3314 9.40910E-05-2.68132E-05-2.88296E-05-6.92797E-07 1.76097E-18-7.83723E-20
 -1      3315 9.43620E-05-2.70647E-05-2.88390E-05-1.04492E-06 4.05246E-19-2.35084E-18
 -1      3316 1.13379E-04-4.32934E-05-2.99185E-05 6.49658E-06 1.56231E-19 7.72347E-19
 -1      3317 1.16245E-04-4.54673E-05-3.03807E-05 3.89241E-06 5.31685E-19 3.92218E-19
 -1      3318 1.17882E-04-4.81216E-05-2.99774E-05 6.06118E-06 8.62782E-20 1.19842E-18
 -1      3319 1.09597E-04-4.24223E-05-2.89008E-05 1.03282E-05 3.83282E-20 1.06235E-18
 -1      3320 9.54447E-05-2.77213E-05-2.90164E-05-3.87295E-06 2.34771E-19 3.66336E-19
 -1      3321 9.53362E-05-2.77809E-05-2.89563E-05-3.58602E-06 2.01887E-19 5.25919E-19
 -1      3322 9.52159E-05-2.76219E-05-2.89703E-05-3.49527E-06 1.45359E-19 4.82139E-19
 -1      3323 9.50735E-05-2.73638E-05-2.90190E-05-4.09664E-06 1.29467E-19 3.03932E-19
 -1      3324 9.24575E-05-1.78896E-05-3.19797E-05-6.78571E-06-6.26108E-19-1.12076E-18
 -1      3325 9.30928E-05-1.88813E-05-3.18340E-05-7.29670E-06-7.68438E-19-1.08068E-18
 -1      3326 9.38407E-05-2.04256E-05-3.14429E-05-6.27930E-06-8.19826E-19-9.68992E-19
 -1      3327 9.32037E-05-1.92790E-05-3.16535E-05-5.51187E-06-5.42526E-19-9.76883E-19
 -1      3328 9.52252E-05-2.41775E-05-3.04519E-05 4.07381E-06 1.01515E-18-3.70222E-19
 -1      3329 9.46542E-05-2.26117E-05-3.08599E-05 4.59248E-06 1.00610E-18-4.16012E-19
 -1      3330 9.49693E-05-2.34507E-05-3.06315E-05 3.46852E-06 8.83796E-19-3.73190E-19
 -1      3331 9.52706E-05-2.50897E-05-3.00898E-05 2.75202E-06 8.74811E-19-3.06112E-19
 -1      3332 7.94521E-05-3.67532E-05-1.79326E-05-3.32682E-05-1.25456E-18 5.83182E-19
 -1      3333 9.46021E-05-4.54747E-05-2.10172E-05-3.20335E-05-1.15636E-18 1.74711E-18
 -1      3334 7.76036E-05-3.25023E-05-1.89330E-05-2.89905E-05-1.16316E-18 2.75762E-19
 -1      3335 9.54378E-05-2.76335E-05-2.90603E-05-1.15041E-06 5.33044E-19-6.13719E-20
 -1      3336 9.54670E-05-2.74157E-05-2.91531E-05-7.14357E-07 4.54864E-19 7.59165E-20
 -1      3337 9.56712E-05-2.69981E-05-2.94368E-05-3.24935E-07 4.48644E-19-8.48853E-20
 -1      3338 5.36630E-05-1.92233E-05-1.45421E-05 2.29435E-05-6.98670E-19-3.08744E-19
 -1      3339 4.68001E-05-1.36099E-05-1.38974E-05 1.03872E-05-8.18154E-19-5.54912E-19
 -1      3340 6.48075E-05-2.61791E-05-1.61978E-05-2.85702E-05 5.69074E-19 2.59584E-18
 -1      3341 7.73986E-05-3.47904E-05-1.82735E-05-3.28178E-05-3.16155E-19 1.93351E-18
 -1      3342 9.55014E-05-2.53752E-05-3.00386E-05-1.83099E-06-5.60397E-19-5.90403E-19
 -1      3343 9.55408E-05-2.60407E-05-2.97972E-05-9.62343E-07-4.97925E-19-6.38005E-19
 -1      3344 9.56557E-05-2.58891E-05-2.99010E-05-7.54002E-07-4.83809E-19-4.43149E-19
 -1      3345 1.30139E-04-5.18838E-05-3.34146E-05 1.16224E-06-6.67780E-19-1.95855E-18
 -1      3346 1.32328E-04-4.66800E-05-3.71783E-05 7.08387E-06-1.24501E-19-1.39760E-19
 -1      3347 1.26219E-04-3.04006E-05-4.15010E-05-1.47607E-05-1.03809E-18 1.18955E-19
 -1      3348 1.32228E-04-4.05834E-05-3.94118E-05-1.28371E-05-6.01764E-19-4.39187E-19
 -1      3349 1.34853E-04-4.93227E-05-3.71342E-05-6.05951E-06-3.17637E-21-2.07724E-18
 -1      3350 1.35536E-04-5.62490E-05-3.37813E-05 3.25421E-06-6.31880E-19-9.72817E-19
 -1      3351 9.25507E-05-4.30668E-05-2.07197E-05-3.14224E-05-7.50418E-20 3.76930E-19
 -1      3352 1.07755E-04-5.15426E-05-2.44195E-05-2.64894E-05 2.04876E-20-1.97041E-19
 -1      3353 8.05762E-05-3.70333E-05-1.87292E-05 3.33394E-05 6.23310E-19 1.78036E-19
 -1      3354 6.62738E-05-2.71578E-05-1.63450E-05 2.93259E-05-5.55601E-20 2.17476E-19
 -1      3355 1.29897E-04-3.90207E-05-3.91662E-05 1.34034E-05 1.09034E-18 2.36057E-18
 -1      3356 1.24766E-04-3.87905E-05-3.69972E-05 1.33665E-05 1.68620E-18 2.80527E-19
 -1      3357 1.25886E-04-4.40542E-05-3.52653E-05 1.13400E-05 1.45447E-18 1.10963E-18
 -1      3358 1.32757E-04-4.62351E-05-3.72196E-05 1.00852E-05 1.60227E-18 3.30359E-18
 -1      3359 9.21026E-05-1.77560E-05-3.18762E-05 3.91234E-07 3.38849E-19-1.08039E-18
 -1      3360 9.20986E-05-1.77509E-05-3.18767E-05-3.44615E-07 2.94139E-19-1.07871E-18
 -1      3361 9.30218E-05-1.92862E-05-3.15823E-05 5.86141E-07 3.67428E-19-9.39993E-19
 -1      3362 9.27348E-05-1.88220E-05-3.16958E-05 2.98118E-06 7.33819E-19-8.63282E-19
 -1      3363 9.24829E-05-1.83894E-05-3.17661E-05 2.30323E-06 6.21414E-19-9.09571E-19
 -1      3364 9.32558E-05-1.97017E-05-3.15036E-05 1.68270E-06 6.39560E-19-9.11204E-19
 -1      3365 9.52164E-05-2.42585E-05-3.04097E-05-2.33742E-06-6.50765E-19-5.47116E-19
 -1      3366 1.29144E-04-5.38548E-05-3.23331E-05 3.70338E-06 3.66143E-19-4.20711E-19
 -1      3367 9.45316E-05-2.72514E-05-2.88393E-05 9.92721E-07 1.72601E-18-1.25068E-18
 -1      3368 9.46859E-05-2.73872E-05-2.88387E-05 1.08203E-06 1.83502E-18 4.87338E-19
 -1      3369 5.47221E-05-1.84063E-05-1.49551E-05 2.07868E-05-4.66530E-19 6.75773E-19
 -1      3370 5.33322E-05-1.56597E-05-1.59493E-05 1.40177E-05-6.08434E-19 5.40513E-19
 -1      3371 6.37077E-05-2.32686E-05-1.71779E-05 2.40745E-05-1.01623E-18 9.96428E-19
 -1      3372 1.23696E-04-4.38728E-05-3.42872E-05-8.84996E-06 4.15073E-19-1.36762E-18
 -1      3373 1.27161E-04-4.39577E-05-3.57574E-05-9.64612E-06 5.10284E-19-1.22253E-18
 -1      3374 1.23207E-04-4.67257E-05-3.28279E-05-5.29682E-06 5.94807E-19-1.03140E-18
 -1      3375 9.30090E-05-1.93023E-05-3.15990E-05-3.44676E-06-2.54552E-19-9.69490E-19
 -1      3376 9.33919E-05-1.99847E-05-3.14828E-05-4.04958E-06-3.44288E-19-9.41853E-19
 -1      3377 1.23140E-04-3.67814E-05-3.74956E-05-1.50270E-05-3.14911E-19 2.47458E-18
 -1      3378 1.21509E-04-3.04872E-05-3.92561E-05-1.43336E-05-1.18055E-18 1.68154E-18
 -1      3379 9.54059E-05-2.79064E-05-2.89267E-05-1.82729E-06 4.25587E-19-1.24781E-19
 -1      3380 9.54032E-05-2.77900E-05-2.89701E-05-1.51411E-06 5.24620E-19-5.69709E-20
 -1      3381 9.56490E-05-2.75506E-05-2.91902E-05-1.24131E-06 4.69630E-19-1.54046E-19
 -1      3382 9.54670E-05-2.78862E-05-2.89665E-05-2.46595E-06 1.40263E-19 2.84192E-19
 -1      3383 9.53875E-05-2.80092E-05-2.88727E-05-2.35553E-06 1.34292E-19 2.48857E-19
 -1      3384 9.53546E-05-2.79630E-05-2.88789E-05-2.10533E-06 1.67874E-19 3.28658E-20
 -1      3385 1.27846E-04-5.25283E-05-3.23152E-05 7.69722E-07 1.38794E-19 2.03447E-19
 -1      3386 1.27610E-04-4.84662E-05-3.39385E-05-6.30641E-06 7.84273E-19-3.96094E-19
 -1      3387 1.14329E-04-5.18125E-05-2.66602E-05 1.84943E-05 4.05305E-19-3.16539E-19
 -1      3388 1.27858E-04-4.46752E-05-3.57627E-05-9.67468E-06 6.42369E-19 9.36474E-19
 -1      3389 9.52945E-05-2.78190E-05-2.89136E-05 1.59891E-06 1.81037E-18 1.22322E-18
 -1      3390 9.50224E-05-2.75517E-05-2.89192E-05 1.76409E-06 1.90909E-18-1.07646E-19
 -1      3391 9.52153E-05-2.78190E-05-2.88823E-05 1.44060E-06 1.40246E-18 1.30226E-18
 -1      3392 9.42752E-05-2.70049E-05-2.88343E-05 6.99228E-07 1.40130E-18 1.74910E-18
 -1      3393 9.43870E-05-2.71036E-05-2.88346E-05 8.46837E-07 1.92817E-18-1.98786E-19
 -1      3394 9.43428E-05-2.70367E-05-2.88422E-05 1.03401E-06 1.77729E-18 2.68708E-19
 -1      3395 1.27517E-04-3.53466E-05-3.98542E-05-1.37980E-05 1.99635E-19-1.40417E-18
 -1      3396 1.33005E-04-4.11785E-05-3.96122E-05-1.08307E-05 9.25331E-19-1.16033E-18
 -1      3397 5.83818E-05-1.87855E-05-1.65723E-05-1.83577E-05-1.27473E-18-8.87955E-19
 -1      3398 9.41242E-05-2.68607E-05-2.88303E-05 3.15044E-07 1.89955E-18 1.53795E-18
 -1      3399 9.41825E-05-2.69115E-05-2.88307E-05 4.99956E-07 1.70887E-18 9.22597E-19
 -1      3400 9.40754E-05-2.67930E-05-2.88315E-05 6.72451E-07 9.42376E-19 1.71420E-18
 -1      3401 9.39369E-05-2.66684E-05-2.88251E-05 2.25700E-07 2.05892E-18 2.08457E-18
 -1      3402 8.42591E-05-3.81739E-05-1.93845E-05 3.19155E-05-4.95832E-19 2.41510E-19
 -1      3403 7.87907E-05-3.27705E-05-1.95614E-05 2.89095E-05-2.55063E-19 9.77053E-19
 -1      3404 9.39313E-05-4.19401E-05-2.22331E-05 2.79782E-05-7.09840E-19 4.34740E-19
 -1      3405 1.23611E-04-5.40932E-05-2.97445E-05-9.35860E-06-6.73788E-20 2.18828E-18
 -1      3406 1.16038E-04-5.42058E-05-2.62874E-05 2.09218E-05-1.08635E-18-3.64661E-19
 -1      3407 1.07709E-04-4.94573E-05-2.49340E-05 2.34264E-05-1.04264E-18-6.92211E-19
 -1      3408 4.67624E-05-1.29888E-05-1.40198E-05-3.36466E-06 5.48611E-19 1.27447E-18
 -1      3409 4.93173E-05-1.26854E-05-1.52694E-05 3.36153E-06-6.61288E-19-1.05201E-18
 -1      3410 5.41436E-05-1.34969E-05-1.72672E-05-2.77742E-06-4.78183E-19-9.12043E-19
 -1      3411 5.53579E-05-1.46158E-05-1.73133E-05 9.16137E-06-5.44199E-19-5.14731E-19
 -1      3412 1.04150E-04-4.91382E-05-2.32979E-05-2.76779E-05-7.44277E-19 1.83377E-18
 -1      3413 1.11017E-04-5.11110E-05-2.57810E-05-2.12915E-05-7.01714E-19 1.25392E-18
 -1      3414 9.69453E-05-4.35135E-05-2.27818E-05-2.73569E-05-7.79191E-19 1.13955E-18
 -1      3415 8.99311E-05-3.93086E-05-2.14909E-05 2.84981E-05 7.83585E-19 5.36278E-20
 -1      3416 9.48758E-05-2.75888E-05-2.88437E-05 1.16344E-06 2.29300E-18 1.27361E-18
 -1      3417 9.51309E-05-2.78234E-05-2.88426E-05 1.18967E-06 1.21636E-18 2.13306E-18
 -1      3418 9.51856E-05-2.78166E-05-2.88669E-05 1.33249E-06 7.60483E-19 1.68499E-18
 -1      3419 9.47261E-05-2.73912E-05-2.88554E-05 1.27430E-06 2.08729E-18 3.48991E-19
 -1      3420 9.24608E-05-1.83569E-05-3.17704E-05-2.25717E-06 2.20666E-20-1.03747E-18
 -1      3421 9.27032E-05-1.87746E-05-3.17015E-05-2.94463E-06-1.39307E-19-1.12459E-18
 -1      3422 9.36677E-05-2.04920E-05-3.13454E-05-2.62349E-06-2.62465E-19-9.35265E-19
 -1      3423 8.80523E-05-3.80593E-05-2.11281E-05-2.85286E-05-5.11131E-20 5.52451E-19
 -1      3424 1.30920E-04-4.51867E-05-3.69012E-05-8.21120E-06 4.78415E-19-1.22777E-18
 -1      3425 9.34135E-05-2.00328E-05-3.14730E-05 4.06468E-06 8.66680E-19-5.87832E-19
 -1      3426 9.30397E-05-1.93495E-05-3.15914E-05 3.48684E-06 7.41505E-19-6.84683E-19
 -1      3427 9.37020E-05-2.05311E-05-3.13378E-05 2.66498E-06 7.01367E-19-7.13277E-19
 -1      3428 9.43109E-05-2.17779E-05-3.10629E-05 3.41627E-06 7.87247E-19-5.31639E-19
 -1      3429 6.00188E-05-2.18267E-05-1.60207E-05-2.48075E-05 8.83694E-19 3.91043E-18
 -1      3430 6.95019E-05-2.51080E-05-1.87608E-05-2.43509E-05 4.30544E-19 3.90498E-18
 -1      3431 5.58617E-05-1.76401E-05-1.62601E-05-1.83200E-05 7.50723E-19 2.48869E-18
 -1      3432 1.22685E-04-3.02643E-05-3.98641E-05-1.45569E-05-5.11978E-19-1.22677E-18
 -1      3433 6.54115E-05-2.34325E-05-1.76309E-05 2.35208E-05-1.57522E-19 5.20237E-19
 -1      3434 1.20200E-04-5.45144E-05-2.77553E-05-1.60290E-05-3.93592E-19-2.23126E-18
 -1      3435 1.26804E-04-5.49589E-05-3.11242E-05-7.26309E-06-1.17253E-18-2.89316E-18
 -1      3436 1.26656E-04-5.66410E-05-3.00451E-05 1.14734E-05-8.63444E-19-4.80162E-19
 -1      3437 1.12681E-04-5.05409E-05-2.65430E-05-1.85332E-05 6.61480E-20-2.01869E-18
 -1      3438 9.48981E-05-2.76009E-05-2.88432E-05-1.21120E-06-1.44628E-18-2.40399E-18
 -1      3439 9.47909E-05-2.75031E-05-2.88399E-05-1.14926E-06-1.36654E-18-1.56442E-18
 -1      3440 9.46319E-05-2.73104E-05-2.88498E-05-1.25617E-06-1.07456E-18-3.25059E-18
 -1      3441 9.48564E-05-2.75039E-05-2.88625E-05-1.37935E-06-1.23058E-18-1.95660E-18
 -1      3442 9.54213E-05-2.63249E-05-2.96187E-05 1.02771E-06 5.52283E-19-2.50302E-19
 -1      3443 9.54591E-05-2.57437E-05-2.98635E-05 1.96132E-06 6.90824E-19-2.94535E-19
 -1      3444 9.53690E-05-2.50701E-05-3.01455E-05 2.31670E-06 8.12574E-19-2.45450E-19
 -1      3445 9.55829E-05-2.61681E-05-2.97565E-05 8.41155E-07 4.31989E-19-3.98529E-20
 -1      3446 9.42809E-05-2.17492E-05-3.11033E-05-5.26278E-06-8.25972E-19-9.01493E-19
 -1      3447 1.22762E-04-4.91131E-05-3.16192E-05 9.26168E-08 5.87732E-19-4.16737E-19
 -1      3448 9.42078E-05-2.16089E-05-3.11236E-05-4.57170E-06-6.53522E-19-8.24580E-19
 -1      3449 1.24960E-04-5.43207E-05-3.03379E-05 8.40354E-06-6.26182E-19-1.32190E-19
 -1      3450 1.19008E-04-1.68082E-05-4.42015E-05 9.13208E-06 5.69630E-20-1.69557E-18
 -1      3451 1.28538E-04-4.14084E-05-3.75361E-05 1.09117E-05 1.89894E-19-8.26334E-19
 -1      3452 7.31612E-05-2.65903E-05-1.99410E-05 2.44190E-05 2.88004E-19 1.43763E-18
 -1      3453 6.30210E-05-1.94227E-05-1.84723E-05 1.83829E-05-8.72973E-20 7.72521E-19
 -1      3454 9.39357E-05-2.11135E-05-3.12197E-05-4.20644E-06-5.14080E-19-8.57797E-19
 -1      3455 9.59175E-05-2.71832E-05-2.94525E-05 9.63689E-07-3.85639E-19-5.22765E-19
 -1      3456 9.58792E-05-2.74092E-05-2.93469E-05 1.34344E-06-3.67207E-19-4.46432E-19
 -1      3457 9.58007E-05-2.75542E-05-2.92459E-05 1.63919E-06-4.15376E-19-5.25776E-19
 -1      3458 9.57260E-05-2.76401E-05-2.91796E-05 1.93753E-06-3.05780E-19-4.49894E-19
 -1      3459 9.58983E-05-2.72930E-05-2.94023E-05 1.35011E-06-3.56673E-19-4.33439E-19
 -1      3460 9.55794E-05-2.76521E-05-2.91116E-05 2.18514E-06-1.27960E-19-4.52733E-19
 -1      3461 9.54814E-05-2.76351E-05-2.90750E-05 2.44487E-06-9.05080E-21-5.43150E-19
 -1      3462 9.56765E-05-2.74832E-05-2.92257E-05 1.90737E-06-1.84290E-19-3.41569E-19
 -1      3463 9.52818E-05-2.75480E-05-2.90310E-05 2.67835E-06-4.35737E-20-6.69663E-19
 -1      3464 9.51672E-05-2.74562E-05-2.90156E-05 2.93405E-06-1.20835E-19-5.36452E-19
 -1      3465 9.53348E-05-2.74202E-05-2.91058E-05 2.39768E-06-1.25465E-19-2.14573E-19
 -1      3466 9.49234E-05-2.72969E-05-2.89870E-05 3.18179E-06-1.24501E-19-6.21398E-19
 -1      3467 9.47964E-05-2.71546E-05-2.89848E-05 3.46000E-06-1.05811E-19-3.30860E-19
 -1      3468 9.48962E-05-2.71687E-05-2.90248E-05 2.88274E-06-6.84827E-20-4.51736E-19
 -1      3469 9.45139E-05-2.69473E-05-2.89631E-05 3.74476E-06-1.90256E-19-7.05879E-20
 -1      3470 9.43802E-05-2.67788E-05-2.89665E-05 4.06474E-06-1.17975E-19 8.68089E-20
 -1      3471 9.43746E-05-2.67836E-05-2.89654E-05 3.41326E-06 1.88951E-20-2.81122E-19
 -1      3472 9.40652E-05-2.65495E-05-2.89427E-05 4.40475E-06 4.54274E-20 1.55667E-19
 -1      3473 9.39348E-05-2.63844E-05-2.89436E-05 4.77936E-06 1.92136E-19 1.87829E-19
 -1      3474 9.37813E-05-2.63185E-05-2.89095E-05 4.03021E-06 8.44792E-20-3.18144E-19
 -1      3475 9.35981E-05-2.61661E-05-2.89080E-05 5.18987E-06-5.97936E-20 1.08083E-19
 -1      3476 9.34912E-05-2.60445E-05-2.88975E-05 5.62622E-06-2.73424E-19 7.92629E-20
 -1      3477 9.31319E-05-2.58349E-05-2.88379E-05 4.76785E-06 3.32353E-21-2.41534E-19
 -1      3478 9.31545E-05-2.58835E-05-2.88395E-05 6.12124E-06-5.12945E-19 2.71310E-19
 -1      3479 9.31081E-05-2.58631E-05-2.88086E-05 6.62101E-06-7.71593E-19 2.05368E-19
 -1      3480 9.24572E-05-2.54140E-05-2.87293E-05 5.65773E-06-2.55098E-19 4.20248E-20
 -1      3481 9.28122E-05-2.58262E-05-2.87168E-05 7.21536E-06-1.06098E-18 4.13570E-19
 -1      3482 9.28912E-05-2.59906E-05-2.86570E-05 7.77459E-06-8.42431E-19 3.35466E-19
 -1      3483 9.18161E-05-2.51698E-05-2.85607E-05 6.73361E-06-7.16987E-19 4.52301E-19
 -1      3484 9.27085E-05-2.61736E-05-2.85211E-05 8.48591E-06-8.65311E-19 5.01893E-19
 -1      3485 9.30201E-05-2.66416E-05-2.84269E-05 9.09226E-06-1.13119E-18 2.35565E-19
 -1      3486 9.13151E-05-2.52659E-05-2.83091E-05 8.03797E-06-7.44844E-19 7.71334E-19
 -1      3487 9.30760E-05-2.71805E-05-2.82410E-05 9.93795E-06-1.33239E-18 2.74461E-19
 -1      3488 9.37875E-05-2.81138E-05-2.81166E-05 1.05597E-05-6.09560E-19 6.00219E-20
 -1      3489 9.11414E-05-2.59385E-05-2.79556E-05 9.62611E-06-1.14701E-18 9.78022E-19
 -1      3490 9.42900E-05-2.91914E-05-2.78869E-05 1.15382E-05-2.25928E-20-4.44974E-20
 -1      3491 9.56424E-05-3.07841E-05-2.77556E-05 1.20894E-05 3.45324E-19-3.36738E-19
 -1      3492 9.16120E-05-2.75231E-05-2.74965E-05 1.15514E-05-5.85267E-19 5.37951E-19
 -1      3493 9.69415E-05-3.26551E-05-2.75138E-05 1.31428E-05 7.51669E-19-2.43892E-19
 -1      3494 9.92181E-05-3.50655E-05-2.74437E-05 1.33771E-05 9.25453E-19-3.87708E-20
 -1      3495 9.32433E-05-3.04699E-05-2.69625E-05 1.38292E-05 5.96820E-19 1.47620E-19
 -1      3496 1.01839E-04-3.79222E-05-2.72943E-05 1.42637E-05 7.43594E-19-1.23250E-20
 -1      3497 1.05665E-04-4.12537E-05-2.75188E-05 1.34809E-05 7.41359E-19-4.87573E-19
 -1      3498 9.69388E-05-3.52994E-05-2.64653E-05 1.62700E-05 7.47176E-19 2.44076E-19
 -1      3499 8.30393E-05-3.27963E-05-2.13284E-05-2.60050E-05 3.89556E-19 8.37186E-19
 -1      3500 9.47023E-05-4.06204E-05-2.33565E-05-2.55781E-05 5.28204E-19-5.87523E-19
 -1      3501 7.45132E-05-2.80879E-05-1.97242E-05-2.55177E-05-1.18505E-18 9.06855E-20
 -1      3502 8.54366E-05-3.56623E-05-2.12691E-05-2.79392E-05-1.02025E-18 5.83473E-19
 -1      3503 1.13767E-04-1.52223E-05-4.29293E-05 5.11549E-06-1.36478E-19-2.55026E-18
 -1      3504 1.06698E-04-4.24596E-05-2.75074E-05-1.36085E-05-6.24379E-19-2.10377E-18
 -1      3505 1.03028E-04-3.90768E-05-2.73071E-05-1.42305E-05-1.01919E-19-1.23726E-18
 -1      3506 1.00131E-04-3.60251E-05-2.74262E-05-1.34794E-05 7.99487E-19-1.13850E-18
 -1      3507 9.76287E-05-3.33957E-05-2.74770E-05-1.32690E-05 9.02044E-19-2.16597E-21
 -1      3508 9.77900E-05-3.63571E-05-2.64138E-05-1.64743E-05 1.53585E-19-4.11797E-19
 -1      3509 9.61207E-05-3.13589E-05-2.77144E-05-1.22277E-05-8.47281E-20 1.98654E-19
 -1      3510 9.46030E-05-2.95903E-05-2.78439E-05-1.16773E-05-1.94514E-19-2.07094E-20
 -1      3511 9.36973E-05-3.11228E-05-2.68805E-05-1.41446E-05 4.42180E-19 5.81455E-19
 -1      3512 9.39564E-05-2.83571E-05-2.80827E-05-1.06508E-05-2.46561E-19-6.07863E-19
 -1      3513 9.31283E-05-2.72877E-05-2.82148E-05-1.00017E-05 3.90382E-19 6.12279E-20
 -1      3514 9.17018E-05-2.77874E-05-2.74243E-05-1.17888E-05-4.32729E-19 1.82670E-19
 -1      3515 9.29786E-05-2.66317E-05-2.84125E-05-9.09584E-06-4.15952E-19-8.21383E-19
 -1      3516 9.25896E-05-2.60623E-05-2.85164E-05-8.44477E-06-1.05720E-18-1.05200E-18
 -1      3517 9.10062E-05-2.59196E-05-2.79073E-05-9.73429E-06-2.92499E-19-1.72063E-18
 -1      3518 9.27060E-05-2.57918E-05-2.86626E-05-7.66958E-06-7.60924E-19-1.41573E-18
 -1      3519 9.25741E-05-2.55529E-05-2.87311E-05-7.05522E-06-3.14132E-19-9.58927E-19
 -1      3520 9.10279E-05-2.50380E-05-2.82841E-05-8.01359E-06-1.16588E-18-1.99057E-18
 -1      3521 9.28171E-05-2.55239E-05-2.88296E-05-6.39503E-06 4.59916E-19 8.59148E-20
 -1      3522 9.28239E-05-2.54898E-05-2.88661E-05-5.83299E-06 9.36618E-19 2.04810E-19
 -1      3523 9.14149E-05-2.47858E-05-2.85530E-05-6.57764E-06 4.67765E-19 1.17847E-19
 -1      3524 9.31118E-05-2.56007E-05-2.89258E-05-5.27062E-06 9.34751E-19 3.54597E-20
 -1      3525 9.31846E-05-2.56839E-05-2.89374E-05-4.76773E-06 6.95036E-19-2.29183E-19
 -1      3526 9.19582E-05-2.49122E-05-2.87295E-05-5.37088E-06 8.03068E-19 2.74880E-19
 -1      3527 9.34717E-05-2.58662E-05-2.89680E-05-4.28995E-06-4.09045E-19-4.67528E-19
 -1      3528 9.35686E-05-2.60083E-05-2.89623E-05-3.84891E-06-5.55556E-19-8.84859E-20
 -1      3529 9.25373E-05-2.52469E-05-2.88336E-05-4.35146E-06-2.31070E-19 4.05598E-19
 -1      3530 9.38307E-05-2.62173E-05-2.89725E-05-3.44620E-06 3.64459E-19-2.89645E-19
 -1      3531 9.39284E-05-2.63804E-05-2.89562E-05-3.06689E-06 1.59196E-18-1.23873E-18
 -1      3532 9.30866E-05-2.56772E-05-2.88849E-05-3.49103E-06-1.09971E-19-1.29450E-18
 -1      3533 9.41539E-05-2.65870E-05-2.89533E-05-2.73091E-06 1.22652E-18-1.74776E-18
 -1      3534 9.42408E-05-2.67472E-05-2.89317E-05-2.41014E-06 9.97867E-19-2.70557E-18
 -1      3535 9.35727E-05-2.61289E-05-2.89002E-05-2.76998E-06 6.32754E-19-1.62025E-18
 -1      3536 9.44272E-05-2.69375E-05-2.89215E-05-2.13163E-06 1.91961E-18-2.40923E-18
 -1      3537 9.45037E-05-2.70821E-05-2.88986E-05-1.86744E-06 1.09852E-18-1.54656E-18
 -1      3538 9.39818E-05-2.65554E-05-2.88932E-05-2.16945E-06 1.74313E-18-2.18517E-18
 -1      3539 1.21710E-04-5.21306E-05-2.97841E-05 7.70688E-06 6.54081E-19-6.35367E-19
 -1      3540 1.25689E-04-5.20275E-05-3.16737E-05 2.51289E-06 5.54277E-19-3.53133E-19
 -1      3541 1.19231E-04-5.15703E-05-2.89711E-05 1.02066E-05-7.91863E-19 8.60447E-19
 -1      3542 9.39718E-05-2.62050E-05-2.90348E-05-5.70625E-06-1.30799E-19 3.50525E-19
 -1      3543 9.40394E-05-2.63540E-05-2.90171E-05-5.25782E-06 2.59448E-20 9.73213E-20
 -1      3544 9.43432E-05-2.65913E-05-2.90296E-05-4.84614E-06 5.96224E-20 1.54899E-19
 -1      3545 9.44211E-05-2.67603E-05-2.90052E-05-4.46369E-06-7.71873E-20 2.47646E-19
 -1      3546 9.35528E-05-2.60255E-05-2.89362E-05-4.89092E-06-2.83495E-20-9.60479E-20
 -1      3547 9.33536E-05-2.58499E-05-2.89171E-05-7.87668E-06-5.01788E-21 1.99641E-19
 -1      3548 9.33000E-05-2.57905E-05-2.89427E-05-7.30114E-06 2.68719E-19-5.77674E-20
 -1      3549 9.33305E-05-2.62081E-05-2.87483E-05-9.19093E-06 2.46562E-19 3.07914E-19
 -1      3550 9.31018E-05-2.58973E-05-2.88104E-05-8.56976E-06 2.14562E-19 3.34294E-19
 -1      3551 9.17014E-05-2.50375E-05-2.85683E-05-8.10474E-06-3.74142E-20 2.85215E-20
 -1      3552 9.38042E-05-2.72809E-05-2.84830E-05-1.06439E-05 2.28378E-19-2.30701E-19
 -1      3553 9.32487E-05-2.65574E-05-2.85858E-05-1.00071E-05 3.88140E-19-8.03813E-21
 -1      3554 9.13323E-05-2.53883E-05-2.82662E-05-9.61996E-06 4.99389E-19-7.35413E-20
 -1      3555 9.51996E-05-2.94738E-05-2.81295E-05-1.21799E-05 4.54057E-19-9.99490E-19
 -1      3556 9.40785E-05-2.81189E-05-2.82611E-05-1.15946E-05 2.91382E-19-6.15347E-19
 -1      3557 9.14510E-05-2.65395E-05-2.78378E-05-1.14449E-05 4.97484E-19-5.88131E-19
 -1      3558 9.81612E-05-3.32765E-05-2.77554E-05-1.36039E-05-4.04926E-19 6.91312E-20
 -1      3559 9.61481E-05-3.10514E-05-2.78672E-05-1.32331E-05-8.06799E-20-5.45529E-19
 -1      3560 9.25285E-05-2.89581E-05-2.72911E-05-1.36245E-05-2.26615E-19-6.89167E-19
 -1      3561 1.03749E-04-3.91859E-05-2.75917E-05-1.42518E-05-4.25032E-19 7.14962E-19
 -1      3562 1.00291E-04-3.58536E-05-2.75252E-05-1.45740E-05-4.21678E-19 3.04793E-19
 -1      3563 9.54049E-05-3.33105E-05-2.67097E-05-1.60738E-05-6.86633E-19 4.47594E-19
 -1      3564 1.12336E-04-4.81469E-05-2.74441E-05-1.51964E-05-1.48112E-19 1.06383E-18
 -1      3565 1.07427E-04-4.42100E-05-2.69890E-05-1.64794E-05-4.21280E-19 1.10538E-18
 -1      3566 1.18642E-04-5.17543E-05-2.84075E-05-1.28337E-05-3.31395E-19 1.57522E-18
 -1      3567 1.27944E-04-4.87877E-05-3.39847E-05 5.88975E-06 1.40205E-18 1.89473E-18
 -1      3568 1.12699E-04-4.91448E-05-2.71608E-05 1.58134E-05 6.50885E-19-3.60446E-19
 -1      3569 9.84487E-05-3.36623E-05-2.76953E-05 1.39504E-05-1.21497E-18 3.97075E-19
 -1      3570 1.01261E-04-3.65871E-05-2.76670E-05 1.39690E-05-4.38141E-19 3.62983E-19
 -1      3571 9.31133E-05-2.60456E-05-2.87491E-05 9.11494E-06-1.11310E-18 2.57002E-18
 -1      3572 9.35313E-05-2.66069E-05-2.86598E-05 9.78524E-06-1.26971E-18 2.54837E-18
 -1      3573 9.30878E-05-2.55867E-05-2.89379E-05 7.66135E-06 4.10447E-19 1.88748E-18
 -1      3574 9.32479E-05-2.58055E-05-2.88888E-05 8.31049E-06-2.55981E-19 2.21251E-18
 -1      3575 9.13429E-05-2.49529E-05-2.84543E-05 8.68253E-06-7.50472E-19 2.18300E-18
 -1      3576 9.33129E-05-2.55743E-05-2.90405E-05 6.36265E-06 6.18905E-19 3.01631E-18
 -1      3577 9.33404E-05-2.55905E-05-2.90250E-05 6.96626E-06 6.20730E-19 3.10801E-18
 -1      3578 9.17568E-05-2.47586E-05-2.87098E-05 7.18857E-06 1.12213E-19 2.07046E-18
 -1      3579 9.36307E-05-2.58037E-05-2.90781E-05 5.21717E-06 8.42671E-19 1.36061E-18
 -1      3580 9.35983E-05-2.57105E-05-2.90867E-05 5.76263E-06 1.48439E-18 2.80666E-18
 -1      3581 9.23050E-05-2.49409E-05-2.88649E-05 5.91341E-06 1.11991E-18 3.40965E-18
 -1      3582 9.39578E-05-2.61448E-05-2.90712E-05 4.22046E-06-4.59772E-19 6.76946E-19
 -1      3583 9.39047E-05-2.60010E-05-2.90950E-05 4.70147E-06-1.30312E-19 7.28461E-19
 -1      3584 9.28663E-05-2.53156E-05-2.89447E-05 4.81985E-06 8.58449E-19 2.70505E-18
 -1      3585 9.42543E-05-2.65180E-05-2.90372E-05 3.36644E-06-1.32049E-18 9.83418E-19
 -1      3586 9.41999E-05-2.63594E-05-2.90689E-05 3.78135E-06-8.93235E-19 1.03044E-19
 -1      3587 9.33808E-05-2.57677E-05-2.89721E-05 3.88456E-06-1.52769E-19 1.32462E-18
 -1      3588 9.45041E-05-2.68768E-05-2.89892E-05 2.64645E-06 9.52222E-19-4.93837E-19
 -1      3589 9.44571E-05-2.67243E-05-2.90235E-05 2.99728E-06-2.41136E-19 2.01154E-19
 -1      3590 9.38231E-05-2.62269E-05-2.89658E-05 3.09174E-06-5.68301E-20-9.46993E-19
 -1      3591 9.47040E-05-2.71934E-05-2.89366E-05 2.04999E-06 1.11782E-18 7.23635E-20
 -1      3592 9.46676E-05-2.70605E-05-2.89699E-05 2.33888E-06 1.10110E-18 4.06939E-19
 -1      3593 9.41846E-05-2.66527E-05-2.89399E-05 2.42816E-06 8.05209E-19-2.17544E-19
 -1      3594 5.88596E-05-1.66661E-05-1.79999E-05-1.37640E-05-9.36481E-19-8.45709E-19
 -1      3595 6.55717E-05-2.18655E-05-1.85819E-05-2.17433E-05-1.17258E-18-8.59474E-19
 -1      3596 9.37288E-05-2.64880E-05-2.88181E-05-4.07747E-07 1.97062E-18 1.21448E-18
 -1      3597 9.36830E-05-2.64512E-05-2.88166E-05-1.63007E-07 1.82232E-18 2.49375E-18
 -1      3598 9.48975E-05-2.32171E-05-3.07210E-05-2.69742E-06-5.82020E-19-6.09243E-19
 -1      3599 9.52273E-05-2.42692E-05-3.04241E-05-1.78261E-06-6.34484E-19-5.82533E-19
 -1      3600 9.36672E-05-2.72542E-05-2.84605E-05 1.07112E-05-1.75932E-18 1.95676E-18
 -1      3601 9.45428E-05-2.83514E-05-2.83357E-05 1.13524E-05-1.03416E-18 1.49216E-18
 -1      3602 9.12874E-05-2.58046E-05-2.80768E-05 1.04464E-05-2.19539E-18 2.97470E-18
 -1      3603 9.52073E-05-2.96290E-05-2.80850E-05 1.23903E-05-7.03681E-19 6.41657E-19
 -1      3604 9.68288E-05-3.14987E-05-2.79545E-05 1.28857E-05-1.23230E-18 9.92145E-20
 -1      3605 9.40686E-05-3.12580E-05-2.69870E-05 1.49195E-05-1.10511E-18 1.03994E-18
 -1      3606 5.08050E-05-1.27836E-05-1.61782E-05 1.38492E-06-4.52536E-19 7.90335E-19
 -1      3607 5.13523E-05-1.35142E-05-1.58534E-05-9.65161E-06 1.16335E-19 1.16224E-18
 -1      3608 1.07778E-04-4.55143E-05-2.65843E-05 1.71451E-05 7.16841E-19-4.92702E-20
 -1      3609 9.58086E-05-2.69349E-05-2.95231E-05-4.92463E-07 5.08080E-19-3.16122E-19
 -1      3610 9.58006E-05-2.65275E-05-2.96793E-05 5.97377E-08 3.93577E-19-4.25804E-19
 -1      3611 1.30589E-04-5.02578E-05-3.45609E-05-4.08717E-06 5.24168E-19-6.10552E-19
 -1      3612 1.29596E-04-4.07349E-05-3.82102E-05-1.31735E-05-2.90321E-19 3.79471E-19
 -1      3613 9.36162E-05-2.59147E-05-2.90050E-05-6.71469E-06 4.89881E-19-1.59414E-20
 -1      3614 9.36479E-05-2.59961E-05-2.90037E-05-6.19963E-06 2.12536E-19 2.96554E-19
 -1      3615 9.29272E-05-2.55378E-05-2.88763E-05-5.77931E-06 2.04175E-19 1.34327E-19
 -1      3616 9.22837E-05-2.51604E-05-2.87627E-05-6.83973E-06 4.07885E-19 1.04983E-19
 -1      3617 9.21590E-05-1.78502E-05-3.18590E-05-9.53823E-07 2.08727E-19-1.06669E-18
 -1      3618 9.22789E-05-1.80504E-05-3.18270E-05-1.67858E-06 8.39441E-20-9.77983E-19
 -1      3619 9.32324E-05-1.96765E-05-3.15077E-05-1.63896E-06 5.40633E-20-1.00932E-18
 -1      3620 1.08732E-04-4.76984E-05-2.61616E-05 1.93925E-05-8.07990E-19-7.17271E-19
 -1      3621 1.02267E-04-4.54653E-05-2.40698E-05 2.47705E-05-5.27622E-19-7.81851E-19
 -1      3622 9.54545E-05-4.04844E-05-2.35469E-05 2.47229E-05-3.36246E-19-4.81353E-19
 -1      3623 9.52775E-05-2.76093E-05-2.89967E-05-2.97684E-06 7.86557E-20 2.55759E-19
 -1      3624 9.53436E-05-2.76819E-05-2.89996E-05-2.71918E-06 2.94180E-19 2.12301E-19
 -1      3625 1.25297E-04-5.17330E-05-3.16079E-05-2.14218E-06-4.43051E-19-2.52471E-18
 -1      3626 1.21750E-04-5.12829E-05-2.98857E-05-6.45660E-06-2.68476E-19-3.84918E-18
 -1      3627 1.14852E-04-4.86654E-05-2.82003E-05 1.28424E-05-2.16602E-19 1.04188E-18
 -1      3628 1.00903E-04-4.22809E-05-2.51203E-05 2.12578E-05 9.17992E-19-1.76024E-19
 -1      3629 1.15203E-04-5.04113E-05-2.80523E-05-1.35793E-05 2.34337E-19-2.53667E-18
 -1      3630 1.15180E-04-4.87804E-05-2.85210E-05-1.08523E-05 1.45193E-19-3.33931E-18
 -1      3631 1.10811E-04-4.54507E-05-2.78080E-05-1.28902E-05-3.86214E-19-2.92415E-18
 -1      3632 1.05978E-04-4.63874E-05-2.52205E-05-2.16425E-05 6.92529E-19-1.25602E-18
 -1      3633 9.56007E-05-2.51883E-05-3.01664E-05-1.13720E-06-5.93926E-19-4.77110E-19
 -1      3634 9.57212E-05-2.58667E-05-2.99477E-05-4.41683E-07-3.56818E-19-5.75982E-19
 -1      3635 9.52992E-05-2.42417E-05-3.04564E-05-1.43142E-06-5.26533E-19-5.41695E-19
 -1      3636 9.58783E-05-2.64386E-05-2.97521E-05 7.11916E-08-2.52266E-19-6.28245E-19
 -1      3637 9.59011E-05-2.68581E-05-2.95959E-05 5.81606E-07-3.55854E-19-5.96234E-19
 -1      3638 9.59595E-05-2.67653E-05-2.96538E-05 6.55184E-07-3.17344E-19-5.18330E-19
 -1      3639 9.35181E-05-3.88031E-05-2.34280E-05 2.41596E-05 6.29438E-19-2.18905E-19
 -1      3640 8.26916E-05-3.16425E-05-2.15473E-05 2.50664E-05 2.46305E-19 8.14210E-19
 -1      3641 7.90568E-05-2.76131E-05-2.20328E-05 2.13265E-05 1.92713E-19 1.01869E-18
 -1      3642 9.30996E-05-3.52231E-05-2.48688E-05 1.99214E-05 6.25759E-19-9.50133E-20
 -1      3643 5.93536E-05-1.66122E-05-1.80266E-05-1.30405E-05-4.45817E-19 2.03193E-18
 -1      3644 9.44268E-05-2.21052E-05-3.09832E-05-3.20948E-06-3.99681E-19-7.33897E-19
 -1      3645 9.43001E-05-2.69862E-05-2.88468E-05-1.25807E-06 1.16550E-19-3.59086E-18
 -1      3646 9.41161E-05-2.68364E-05-2.88395E-05-1.11075E-06 6.62088E-19-1.59267E-18
 -1      3647 7.26785E-05-2.73857E-05-1.90473E-05 2.62862E-05-1.32362E-18 1.65772E-18
 -1      3648 6.75471E-05-2.28597E-05-1.90821E-05 2.16686E-05-7.95086E-19 6.02823E-19
 -1      3649 8.17889E-05-3.18628E-05-2.12576E-05 2.52574E-05-8.67997E-19 1.37338E-18
 -1      3650 5.86380E-05-1.62471E-05-1.80786E-05 1.26148E-05-3.19159E-20 2.16629E-19
 -1      3651 5.37712E-05-1.34502E-05-1.68421E-05 7.07198E-06-3.23818E-19 1.19686E-18
 -1      3652 5.66887E-05-1.36692E-05-1.83350E-05 1.25038E-06-6.90034E-19 1.05509E-18
 -1      3653 1.00190E-04-4.14095E-05-2.50477E-05-2.07863E-05 8.69201E-19-1.46751E-18
 -1      3654 7.79456E-05-2.89862E-05-2.08673E-05-2.48969E-05 9.87151E-19 2.54862E-18
 -1      3655 8.55521E-05-3.15900E-05-2.29780E-05-2.20773E-05 1.20640E-18 4.66073E-19
 -1      3656 7.25029E-05-2.44708E-05-2.05598E-05-2.14166E-05 7.64110E-19 3.35274E-18
 -1      3657 9.57467E-05-2.58530E-05-2.99544E-05 4.37968E-07 4.21404E-19-6.88778E-19
 -1      3658 9.56620E-05-2.59532E-05-2.98813E-05 6.42784E-07 3.24830E-19-3.10110E-19
 -1      3659 9.38154E-05-3.91808E-05-2.32132E-05-2.45352E-05-7.27998E-19 7.28342E-19
 -1      3660 9.88363E-05-3.82927E-05-2.59718E-05 1.87146E-05 2.41762E-19 1.14655E-18
 -1      3661 1.04932E-04-4.14184E-05-2.71343E-05 1.58366E-05 2.42159E-19 4.45745E-19
 -1      3662 9.46665E-05-2.72470E-05-2.88923E-05-1.71110E-06 3.10810E-19-1.35323E-18
 -1      3663 9.47367E-05-2.73701E-05-2.88732E-05-1.51655E-06-1.01490E-19-1.25932E-18
 -1      3664 9.46178E-05-2.72652E-05-2.88656E-05-1.46022E-06-2.00816E-19-2.90311E-18
 -1      3665 9.43332E-05-2.69379E-05-2.88805E-05-1.75183E-06 1.20439E-18-1.50283E-18
 -1      3666 9.49663E-05-2.75994E-05-2.88779E-05 1.45706E-06 1.48041E-18 1.31805E-20
 -1      3667 9.57951E-05-2.74840E-05-2.92786E-05-1.32043E-06 2.07005E-19-1.76398E-19
 -1      3668 9.58266E-05-2.72574E-05-2.93799E-05-9.17494E-07 3.19123E-19-2.59329E-19
 -1      3669 9.59042E-05-2.68314E-05-2.96035E-05-5.87850E-07 3.09902E-19-4.13094E-19
 -1      3670 9.55052E-05-2.77527E-05-2.90344E-05-2.47772E-06 1.81169E-19 2.53271E-19
 -1      3671 9.55647E-05-2.77536E-05-2.90610E-05-2.21326E-06 1.95597E-20 2.06262E-19
 -1      3672 9.54126E-05-2.75541E-05-2.90826E-05-2.47886E-06 2.77570E-20-2.24415E-19
 -1      3673 9.30150E-05-1.92782E-05-3.15835E-05-5.44518E-07 2.28424E-19-1.03587E-18
 -1      3674 9.41238E-05-2.65279E-05-2.89667E-05-4.14837E-06 7.35075E-20 3.90238E-20
 -1      3675 9.46927E-05-2.69889E-05-2.90099E-05-4.12148E-06 1.56793E-19 2.59218E-19
 -1      3676 9.47697E-05-2.71467E-05-2.89873E-05-3.79720E-06 2.86838E-19 2.85690E-19
 -1      3677 1.00683E-04-4.10782E-05-2.56187E-05-2.02692E-05-6.79817E-19 1.02049E-18
 -1      3678 9.55711E-05-2.78188E-05-2.90410E-05-1.91928E-06 2.94317E-19 3.38333E-20
 -1      3679 9.44275E-05-2.21257E-05-3.09795E-05-2.62300E-06-3.85700E-19-6.99244E-19
 -1      3680 9.36946E-05-2.06499E-05-3.13171E-05 7.36755E-07 4.28814E-19-7.44897E-19
 -1      3681 9.36408E-05-2.05436E-05-3.13371E-05 2.20508E-07 3.02256E-19-9.62952E-19
 -1      3682 9.50058E-05-2.73421E-05-2.89936E-05-3.50941E-06 1.38963E-19 1.94698E-21
 -1      3683 9.50778E-05-2.74666E-05-2.89802E-05-3.22912E-06 6.54924E-20 1.98495E-19
 -1      3684 9.50566E-05-2.73370E-05-2.90221E-05-2.98087E-06 1.57216E-19-2.02500E-19
 -1      3685 9.46262E-05-2.69808E-05-2.89892E-05-3.52294E-06 1.30437E-19 2.84730E-20
 -1      3686 7.46066E-05-2.53485E-05-2.08340E-05-2.12257E-05-1.34807E-18 5.13381E-20
 -1      3687 9.47456E-05-2.72650E-05-2.89164E-05 1.84085E-06 1.64532E-18 9.33519E-19
 -1      3688 9.43782E-05-2.69388E-05-2.89045E-05 1.90977E-06 7.52738E-19 2.10820E-18
 -1      3689 9.47272E-05-2.73106E-05-2.88912E-05 1.64112E-06 2.13547E-18 9.60210E-19
 -1      3690 5.84124E-05-1.45998E-05-1.84565E-05-8.29069E-06-6.07290E-19-1.00175E-18
 -1      3691 6.45261E-05-1.72227E-05-2.01741E-05-1.16511E-05-7.60698E-19-6.89141E-19
 -1      3692 5.97970E-05-1.44351E-05-1.94278E-05-2.11680E-06-5.45416E-19-7.10078E-19
 -1      3693 9.38213E-05-2.65758E-05-2.88238E-05-6.79415E-07 1.69690E-18-1.03603E-19
 -1      3694 9.35714E-05-2.63231E-05-2.88156E-05-6.07854E-07 1.73451E-18 4.44382E-19
 -1      3695 9.39433E-05-2.66727E-05-2.88286E-05-8.89825E-07 1.61695E-18 1.92585E-19
 -1      3696 9.40871E-05-2.67983E-05-2.88426E-05 1.09376E-06 1.70071E-18-1.37791E-18
 -1      3697 9.42708E-05-2.69521E-05-2.88502E-05 1.24966E-06 2.77210E-18-8.55343E-19
 -1      3698 9.39512E-05-2.11495E-05-3.12147E-05 1.60539E-06 6.26782E-19-8.63907E-19
 -1      3699 9.37965E-05-2.08400E-05-3.12753E-05 1.12476E-06 5.65270E-19-8.06562E-19
 -1      3700 9.44003E-05-2.19277E-05-3.10416E-05 7.14023E-07 3.18995E-19-6.02021E-19
 -1      3701 9.34614E-05-2.62284E-05-2.88095E-05-2.15291E-08 9.54716E-19 2.32799E-18
 -1      3702 9.36795E-05-2.64455E-05-2.88170E-05 1.29497E-07 1.35737E-18 2.68205E-18
 -1      3703 9.37177E-05-2.64762E-05-2.88192E-05 3.73465E-07 9.44324E-19 1.85638E-18
 -1      3704 9.55806E-05-2.54450E-05-3.00549E-05 1.30218E-06 4.08816E-19-4.17552E-19
 -1      3705 9.19771E-05-2.77190E-05-2.75736E-05 1.25297E-05-1.67782E-18 1.81732E-18
 -1      3706 6.87605E-05-1.97962E-05-2.09216E-05 1.48421E-05 5.41638E-21 1.08388E-18
 -1      3707 6.15230E-05-1.68177E-05-1.89319E-05 1.34402E-05-4.02969E-19 2.94397E-19
 -1      3708 6.17477E-05-1.54095E-05-1.98501E-05 7.30004E-06-4.47697E-19 4.70368E-20
 -1      3709 1.09138E-04-4.52566E-05-2.73833E-05 1.50922E-05-6.69685E-20 7.46764E-19
 -1      3710 9.42215E-05-2.68527E-05-2.88681E-05 1.51338E-06 2.70500E-18-3.93224E-19
 -1      3711 9.44563E-05-2.71118E-05-2.88665E-05 1.42786E-06 2.45394E-18 6.51367E-19
 -1      3712 9.49076E-05-2.33063E-05-3.07032E-05 2.79561E-06 6.82774E-19-5.12549E-19
 -1      3713 9.46115E-05-2.25722E-05-3.08758E-05 2.55991E-06 6.24742E-19-4.61204E-19
 -1      3714 1.04806E-04-4.33732E-05-2.64850E-05-1.73770E-05 1.29785E-19-1.49582E-18
 -1      3715 9.42036E-05-2.16612E-05-3.11021E-05-2.29775E-06-3.04979E-19-8.64326E-19
 -1      3716 9.47264E-05-2.27085E-05-3.08499E-05-1.88599E-06-3.43595E-19-7.17158E-19
 -1      3717 9.39584E-05-2.11576E-05-3.12053E-05-1.89980E-06-1.48639E-19-8.94738E-19
 -1      3718 9.45011E-05-2.71713E-05-2.88588E-05-1.38494E-06 2.95634E-19-3.03133E-18
 -1      3719 9.57858E-05-2.57790E-05-2.99990E-05-2.52702E-07-4.23107E-19-4.31079E-19
 -1      3720 9.42633E-05-2.69211E-05-2.88604E-05-1.47457E-06 5.70567E-19-3.31372E-18
 -1      3721 9.59719E-05-2.70545E-05-2.95344E-05 1.02492E-06-3.03702E-19-4.01645E-19
 -1      3722 9.58953E-05-2.72404E-05-2.94261E-05 1.33445E-06-2.99589E-19-3.02111E-19
 -1      3723 9.43761E-05-2.20384E-05-3.10180E-05 2.33472E-06 7.42727E-19-7.09933E-19
 -1      3724 9.41381E-05-2.15213E-05-3.11272E-05 1.93588E-06 7.26114E-19-8.83821E-19
 -1      3725 9.49918E-05-2.33736E-05-3.06819E-05 1.80440E-06 6.56163E-19-6.43432E-19
 -1      3726 9.38553E-05-2.65717E-05-2.88341E-05-1.11888E-06 6.43344E-19-1.22163E-18
 -1      3727 9.57560E-05-2.73367E-05-2.93226E-05 1.56110E-06-1.39316E-19-1.75136E-20
 -1      3728 9.56102E-05-2.73689E-05-2.92468E-05 1.81908E-06-6.37098E-20 3.58731E-20
 -1      3729 9.58220E-05-2.71162E-05-2.94431E-05 1.25283E-06-6.96365E-20 1.07215E-19
 -1      3730 9.53794E-05-2.73207E-05-2.91700E-05 2.02152E-06-5.87020E-20 2.43564E-19
 -1      3731 9.51797E-05-2.72360E-05-2.91178E-05 2.26004E-06-7.94054E-20 2.36516E-19
 -1      3732 9.54549E-05-2.71824E-05-2.92572E-05 1.68317E-06 4.44502E-20 2.46553E-19
 -1      3733 9.48721E-05-2.70774E-05-2.90587E-05 2.46400E-06-1.96717E-19 1.67863E-19
 -1      3734 9.46275E-05-2.69061E-05-2.90214E-05 2.71020E-06-1.11396E-19 2.16326E-20
 -1      3735 9.49210E-05-2.69781E-05-2.91154E-05 2.08630E-06-1.26352E-19 2.31881E-19
 -1      3736 9.42510E-05-2.66659E-05-2.89708E-05 2.93770E-06 5.33260E-20-6.03401E-20
 -1      3737 9.39672E-05-2.64351E-05-2.89394E-05 3.21371E-06 2.18920E-19-6.79999E-21
 -1      3738 9.42426E-05-2.65682E-05-2.89993E-05 2.50833E-06-9.92983E-20 2.47313E-19
 -1      3739 9.35257E-05-2.61399E-05-2.88874E-05 3.48407E-06 1.05931E-19-2.57276E-19
 -1      3740 9.32087E-05-2.58777E-05-2.88524E-05 3.80790E-06 2.10512E-19 2.28863E-20
 -1      3741 9.34311E-05-2.60101E-05-2.88894E-05 2.98920E-06 1.05395E-19 5.80786E-20
 -1      3742 9.27052E-05-2.55562E-05-2.87879E-05 4.13980E-06 1.29443E-19-1.35117E-19
 -1      3743 9.23657E-05-2.52965E-05-2.87389E-05 4.52769E-06-2.16149E-19-6.10051E-20
 -1      3744 9.24927E-05-2.53601E-05-2.87644E-05 3.56562E-06 1.02650E-19 1.28069E-19
 -1      3745 9.18064E-05-2.49854E-05-2.86495E-05 4.94194E-06-2.56220E-19 2.59009E-19
 -1      3746 9.14656E-05-2.47741E-05-2.85750E-05 5.41033E-06-1.16406E-19 4.88110E-19
 -1      3747 9.14355E-05-2.46830E-05-2.86001E-05 4.27718E-06-5.90843E-20 2.27460E-19
 -1      3748 9.08637E-05-2.45222E-05-2.84463E-05 5.93375E-06-3.71874E-19 5.69215E-19
 -1      3749 9.05616E-05-2.44237E-05-2.83340E-05 6.50311E-06-7.26781E-19 8.84205E-19
 -1      3750 9.02769E-05-2.40612E-05-2.83689E-05 5.17230E-06-2.85131E-19 5.63851E-19
 -1      3751 8.99440E-05-2.42995E-05-2.81500E-05 7.17479E-06-7.02160E-19 1.09162E-18
 -1      3752 8.97517E-05-2.44058E-05-2.79878E-05 7.87368E-06-5.53860E-19 1.18316E-18
 -1      3753 8.90536E-05-2.36065E-05-2.80392E-05 6.32010E-06-4.71061E-19 7.30405E-19
 -1      3754 8.91693E-05-2.45059E-05-2.77316E-05 8.75518E-06-6.51700E-19 1.13349E-18
 -1      3755 8.92116E-05-2.49522E-05-2.75109E-05 9.62311E-06-8.15291E-19 1.36170E-18
 -1      3756 8.78358E-05-2.34727E-05-2.75759E-05 7.82785E-06-6.14899E-19 1.22539E-18
 -1      3757 8.87653E-05-2.54205E-05-2.71665E-05 1.08057E-05-6.77086E-19 1.20452E-18
 -1      3758 8.92489E-05-2.64077E-05-2.68894E-05 1.18862E-05-1.97835E-19 1.11387E-18
 -1      3759 8.67578E-05-2.38871E-05-2.69415E-05 9.86642E-06-4.26584E-19 1.24703E-18
 -1      3760 8.91297E-05-2.74366E-05-2.64497E-05 1.34488E-05 1.82120E-19 1.13452E-18
 -1      3761 9.03641E-05-2.92409E-05-2.61329E-05 1.48145E-05 6.92973E-19 8.62490E-19
 -1      3762 8.61011E-05-2.52227E-05-2.61038E-05 1.26726E-05-1.19034E-19 1.79522E-18
 -1      3763 9.03932E-05-3.05475E-05-2.56691E-05 1.63576E-05 5.11416E-19 5.64877E-19
 -1      3764 9.27472E-05-3.33468E-05-2.53917E-05 1.79196E-05 5.11370E-19 1.62910E-19
 -1      3765 8.64295E-05-3.00912E-05-2.40444E-05 1.96880E-05 1.74691E-19 6.77362E-19
 -1      3766 8.59971E-05-2.74335E-05-2.51584E-05 1.60134E-05 3.85771E-19 1.14369E-18
 -1      3767 9.58041E-05-2.58710E-05-2.99789E-05 1.61989E-07 3.69653E-19-7.52267E-19
 -1      3768 9.56496E-05-2.52064E-05-3.01871E-05 7.50016E-07 3.83620E-19-7.76859E-19
 -1      3769 9.06703E-05-3.39045E-05-2.43173E-05-2.09023E-05-8.43949E-19 6.89028E-19
 -1      3770 9.40940E-05-2.67481E-05-2.88649E-05-1.61045E-06 9.32857E-19-3.07635E-18
 -1      3771 8.89912E-05-2.53835E-05-2.72207E-05-1.15565E-05 2.44627E-19 1.01842E-19
 -1      3772 8.87379E-05-2.46425E-05-2.74906E-05-1.05561E-05 6.82990E-19 2.22788E-19
 -1      3773 9.51347E-05-2.37981E-05-3.05817E-05-1.24105E-06-3.64642E-19-5.62438E-19
 -1      3774 9.06447E-05-2.98654E-05-2.59876E-05-1.53170E-05 6.01213E-19 1.01434E-18
 -1      3775 8.92353E-05-2.78461E-05-2.63111E-05-1.39493E-05 2.57342E-19 1.08342E-18
 -1      3776 8.92184E-05-2.66346E-05-2.67740E-05-1.22380E-05-4.90282E-19 3.93475E-19
 -1      3777 8.86040E-05-2.54890E-05-2.70642E-05-1.10978E-05-2.64226E-19 4.53375E-19
 -1      3778 8.58781E-05-2.53875E-05-2.59343E-05-1.31674E-05-5.06255E-20 4.43313E-19
 -1      3779 8.89603E-05-2.48936E-05-2.74288E-05-9.81794E-06-6.03486E-19-6.02167E-19
 -1      3780 8.88376E-05-2.43305E-05-2.76628E-05-8.88458E-06-1.68487E-18-1.25291E-18
 -1      3781 8.63757E-05-2.37899E-05-2.68197E-05-1.01531E-05-1.19697E-18 6.39269E-19
 -1      3782 8.93540E-05-2.41345E-05-2.79346E-05-7.92114E-06-1.09332E-18-8.79046E-19
 -1      3783 8.94893E-05-2.39416E-05-2.81076E-05-7.15816E-06-1.88621E-19-6.11639E-19
 -1      3784 8.73270E-05-2.31633E-05-2.74917E-05-7.94363E-06-1.05026E-18 1.31695E-19
 -1      3785 9.00512E-05-2.39921E-05-2.83013E-05-6.41616E-06 9.12831E-19 2.26622E-19
 -1      3786 9.03068E-05-2.40250E-05-2.84202E-05-5.78428E-06 1.66621E-18 1.23135E-18
 -1      3787 8.84439E-05-2.31351E-05-2.79810E-05-6.29280E-06 8.47678E-19 1.64812E-18
 -1      3788 9.08540E-05-2.42188E-05-2.85522E-05-5.19727E-06 7.54819E-19 1.48355E-18
 -1      3789 9.11507E-05-2.43805E-05-2.86275E-05-4.66743E-06 4.30708E-19 8.66231E-19
 -1      3790 8.95707E-05-2.34626E-05-2.83236E-05-5.02100E-06 1.21637E-18 2.35569E-18
 -1      3791 9.16519E-05-2.46476E-05-2.87126E-05-4.19374E-06-4.20487E-19 2.83081E-19
 -1      3792 9.19453E-05-2.48732E-05-2.87551E-05-3.74699E-06-9.20533E-19 4.48913E-19
 -1      3793 9.06270E-05-2.39844E-05-2.85530E-05-4.01290E-06-1.80846E-19 1.14313E-18
 -1      3794 9.23851E-05-2.51663E-05-2.88057E-05-3.36039E-06-1.02964E-18-1.80354E-19
 -1      3795 9.26524E-05-2.54138E-05-2.88249E-05-2.98412E-06-2.18830E-19-5.89579E-19
 -1      3796 9.15708E-05-2.45921E-05-2.86978E-05-3.19870E-06-1.26490E-18 1.02709E-18
 -1      3797 9.30264E-05-2.57024E-05-2.88514E-05-2.66910E-06 3.70108E-19-1.49980E-18
 -1      3798 9.32556E-05-2.59423E-05-2.88555E-05-2.35485E-06 7.17340E-19-1.41056E-18
 -1      3799 9.23851E-05-2.52130E-05-2.87816E-05-2.53422E-06-3.93140E-19 2.53463E-19
 -1      3800 9.35648E-05-2.62071E-05-2.88663E-05-2.09688E-06 1.39449E-18-2.03829E-18
 -1      3801 9.37572E-05-2.64237E-05-2.88614E-05-1.83557E-06 1.65546E-18-2.13049E-18
 -1      3802 9.30663E-05-2.57984E-05-2.88241E-05-1.99338E-06 1.27651E-18-1.40288E-18
 -1      3803 8.93344E-05-2.43729E-05-2.78164E-05-9.49678E-06 5.70500E-19-7.21556E-20
 -1      3804 8.94294E-05-2.41068E-05-2.80149E-05-8.68829E-06 4.94592E-19 1.12168E-19
 -1      3805 8.68602E-05-2.32719E-05-2.72417E-05-9.54956E-06 4.80425E-19 6.15207E-19
 -1      3806 9.00921E-05-2.41507E-05-2.82464E-05-7.89117E-06 2.11739E-19 2.25492E-19
 -1      3807 9.03525E-05-2.41694E-05-2.83811E-05-7.22760E-06 1.99547E-19 5.73848E-19
 -1      3808 8.81529E-05-2.31832E-05-2.78316E-05-7.74604E-06 6.17447E-19 6.41187E-19
 -1      3809 8.95812E-05-2.76806E-05-2.64609E-05-1.42088E-05-1.10953E-18 6.35618E-19
 -1      3810 8.86253E-05-2.61715E-05-2.67826E-05-1.29889E-05-2.84759E-19 1.95180E-19
 -1      3811 8.58278E-05-2.41411E-05-2.64295E-05-1.20485E-05-2.27643E-19 1.31473E-18
 -1      3812 9.11244E-05-3.15801E-05-2.53762E-05-1.78252E-05-8.51222E-19 6.04621E-19
 -1      3813 8.89535E-05-2.89686E-05-2.57019E-05-1.63560E-05-1.06749E-18 6.44721E-20
 -1      3814 8.47038E-05-2.59762E-05-2.51667E-05-1.56921E-05-9.65002E-19 5.25170E-19
 -1      3815 8.34307E-05-2.93720E-05-2.31990E-05-2.12120E-05-1.16986E-18 5.10867E-19
 -1      3816 9.56829E-05-2.77296E-05-2.91224E-05-1.95117E-06-2.80406E-20 2.22178E-19
 -1      3817 9.57328E-05-2.76342E-05-2.91814E-05-1.64151E-06 1.30578E-19 4.13796E-20
 -1      3818 9.56872E-05-2.75854E-05-2.91877E-05-1.96099E-06 1.87315E-20-4.30165E-20
 -1      3819 6.12139E-05-1.54307E-05-1.95926E-05-8.59870E-06-7.85630E-19 1.44972E-18
 -1      3820 6.56500E-05-1.89206E-05-1.98963E-05-1.63322E-05-3.07274E-19 3.56675E-18
 -1      3821 8.88694E-05-2.41292E-05-2.77667E-05 9.54142E-06-1.84380E-18 2.11770E-18
 -1      3822 8.89894E-05-2.46907E-05-2.75252E-05 1.04898E-05-2.22167E-18 2.46174E-18
 -1      3823 9.37257E-05-2.64177E-05-2.88432E-05-1.53346E-06 3.69768E-19-2.77723E-18
 -1      3824 9.13612E-05-2.43646E-05-2.87263E-05 5.19044E-06 1.08300E-18 2.65098E-18
 -1      3825 9.10712E-05-2.41801E-05-2.86613E-05 5.75348E-06-3.59022E-20 1.87542E-18
 -1      3826 9.43126E-05-2.17366E-05-3.10842E-05 8.97977E-09 2.26630E-19-7.60714E-19
 -1      3827 9.36356E-05-2.05388E-05-3.13375E-05-1.91921E-07 2.74544E-19-8.54568E-19
 -1      3828 9.36820E-05-2.06329E-05-3.13184E-05-7.01308E-07 8.14158E-20-7.83590E-19
 -1      3829 9.37210E-05-2.06849E-05-3.13075E-05-1.05779E-06 2.24805E-20-8.48193E-19
 -1      3830 9.38673E-05-2.09760E-05-3.12496E-05-1.54647E-06-8.55710E-20-9.17107E-19
 -1      3831 9.44184E-05-2.20217E-05-3.10147E-05-1.27640E-06-1.45294E-19-8.11141E-19
 -1      3832 9.43258E-05-2.17924E-05-3.10711E-05-6.76457E-07-8.30058E-20-7.24492E-19
 -1      3833 8.91281E-05-2.77347E-05-2.63189E-05 1.46831E-05-1.11206E-18 2.13526E-18
 -1      3834 9.06921E-05-2.98860E-05-2.59775E-05 1.60649E-05-7.71869E-19 1.68042E-18
 -1      3835 8.96079E-05-2.37975E-05-2.82230E-05 7.77969E-06-5.78440E-19 1.84620E-18
 -1      3836 8.94621E-05-2.39657E-05-2.80515E-05 8.56409E-06-1.41358E-18 1.87228E-18
 -1      3837 8.71868E-05-2.29017E-05-2.75395E-05 8.56822E-06-1.48475E-18 1.25510E-18
 -1      3838 9.21592E-05-2.48981E-05-2.88375E-05 4.20628E-06 9.69935E-19 2.95529E-18
 -1      3839 9.18820E-05-2.46581E-05-2.88060E-05 4.68896E-06 1.95146E-18 3.52426E-18
 -1      3840 9.07327E-05-2.39239E-05-2.86214E-05 4.53338E-06 8.13273E-19 3.37390E-18
 -1      3841 9.28505E-05-2.54616E-05-2.88905E-05 3.37582E-06 4.50202E-19 1.33655E-18
 -1      3842 9.26059E-05-2.52079E-05-2.88817E-05 3.78829E-06 2.62683E-19 1.82805E-18
 -1      3843 9.16945E-05-2.45729E-05-2.87569E-05 3.66139E-06 1.81699E-18 2.72675E-18
 -1      3844 9.34283E-05-2.60016E-05-2.89050E-05 2.67848E-06 6.33346E-19 6.30125E-19
 -1      3845 9.32232E-05-2.57593E-05-2.89104E-05 3.02706E-06 4.71909E-19 1.51094E-18
 -1      3846 9.25075E-05-2.52197E-05-2.88299E-05 2.93233E-06 9.02659E-19 2.51638E-18
 -1      3847 9.38960E-05-2.64836E-05-2.88964E-05 2.09942E-06-3.00462E-19 1.59030E-18
 -1      3848 9.37312E-05-2.62686E-05-2.89096E-05 2.38923E-06 1.62952E-19 4.79004E-19
 -1      3849 9.31762E-05-2.58210E-05-2.88610E-05 2.32555E-06 1.21410E-19 2.01348E-18
 -1      3850 9.39221E-05-2.66490E-05-2.88312E-05 8.67109E-07 8.15496E-19 3.41713E-19
 -1      3851 9.38294E-05-2.65326E-05-2.88376E-05 1.09781E-06 2.03069E-18-7.36386E-19
 -1      3852 9.38035E-05-2.65523E-05-2.88257E-05 6.52893E-07 1.06856E-18 2.35215E-18
 -1      3853 9.59761E-05-2.63828E-05-2.98231E-05 3.50590E-07-2.94686E-19-3.43972E-19
 -1      3854 9.59959E-05-2.67707E-05-2.96731E-05 7.46464E-07-3.41087E-19-4.38622E-19
 -1      3855 9.59842E-05-2.67006E-05-2.96904E-05 7.44506E-07-2.95766E-19-1.19310E-19
 -1      3856 9.53682E-05-2.45435E-05-3.03502E-05 1.51525E-06 4.67129E-19-4.08992E-19
 -1      3857 9.53921E-05-2.48217E-05-3.02369E-05 1.77423E-06 5.56456E-19-3.92078E-19
 -1      3858 9.07080E-05-3.18584E-05-2.52264E-05 1.84132E-05-7.42775E-19 1.46232E-18
 -1      3859 9.38868E-05-3.68056E-05-2.43535E-05 2.14677E-05-4.25396E-19 6.58925E-19
 -1      3860 8.66279E-05-3.32617E-05-2.27323E-05 2.40450E-05-9.49762E-19 1.21679E-18
 -1      3861 8.54579E-05-2.82728E-05-2.45325E-05 1.81272E-05-1.04230E-18 2.02295E-18
 -1      3862 9.60111E-05-3.76804E-05-2.48860E-05-2.05257E-05 3.76486E-19-7.38838E-19
 -1      3863 9.51639E-05-2.42305E-05-3.03939E-05 2.59533E-06 7.41559E-19-3.75835E-19
 -1      3864 9.40889E-05-2.67217E-05-2.88742E-05 1.68016E-06 1.21875E-18 9.68577E-19
 -1      3865 9.40428E-05-2.66223E-05-2.88905E-05 1.90246E-06 3.26408E-19 1.38312E-18
 -1      3866 9.36087E-05-2.62589E-05-2.88637E-05 1.85459E-06 2.49914E-19 2.12060E-18
 -1      3867 9.38835E-05-2.65589E-05-2.88555E-05 1.49029E-06 1.82133E-18-2.99633E-18
 -1      3868 9.27992E-05-2.54814E-05-2.88459E-05-4.69477E-06-1.15740E-19-5.85721E-21
 -1      3869 9.31059E-05-2.57584E-05-2.88730E-05-4.30548E-06 3.26096E-20-1.26267E-20
 -1      3870 9.47086E-05-2.73266E-05-2.88768E-05 1.51930E-06 1.99351E-18 1.19164E-18
 -1      3871 8.98438E-05-3.35261E-05-2.41630E-05-2.10714E-05 8.38308E-19-3.33910E-19
 -1      3872 9.53445E-05-3.55720E-05-2.55207E-05-1.81774E-05-6.86212E-20 1.52664E-20
 -1      3873 9.25045E-05-3.23659E-05-2.57353E-05-1.69527E-05 3.52816E-19-4.70009E-19
 -1      3874 8.49642E-05-2.96906E-05-2.36878E-05-1.99914E-05 1.84376E-18 1.11490E-18
 -1      3875 9.54541E-05-2.46745E-05-3.03357E-05 1.03538E-06 5.50551E-19-7.30936E-19
 -1      3876 9.52452E-05-2.40506E-05-3.05172E-05 1.48412E-06 6.32170E-19-6.33034E-19
 -1      3877 9.50642E-05-2.35324E-05-3.06556E-05 1.32829E-06 6.43102E-19-9.23744E-19
 -1      3878 9.55124E-05-2.46926E-05-3.03475E-05 7.39773E-07 4.58761E-19-8.25953E-19
 -1      3879 9.57068E-05-2.52168E-05-3.02037E-05-5.24482E-07-4.80647E-19-3.10356E-19
 -1      3880 9.58507E-05-2.58600E-05-3.00055E-05-2.41052E-09-3.48578E-19-2.79209E-19
 -1      3881 9.58848E-05-2.58383E-05-3.00159E-05 1.07557E-07-3.25712E-19-1.26270E-19
 -1      3882 7.53504E-05-2.36017E-05-2.21888E-05-1.79556E-05-1.10514E-18-1.26049E-19
 -1      3883 9.04877E-05-2.39509E-05-2.85316E-05 6.36212E-06-4.04800E-19 2.46766E-18
 -1      3884 9.02277E-05-2.38892E-05-2.84202E-05 7.02152E-06-1.24107E-19 2.26517E-18
 -1      3885 8.96313E-05-2.33437E-05-2.83967E-05 5.58760E-06 1.46278E-19 1.75425E-18
 -1      3886 8.85467E-05-2.52797E-05-2.71341E-05 1.17865E-05-2.64661E-18 2.86343E-18
 -1      3887 8.91857E-05-2.64715E-05-2.68259E-05 1.29446E-05-1.94074E-18 2.17560E-18
 -1      3888 8.60921E-05-2.34987E-05-2.68222E-05 1.08093E-05-2.14896E-18 2.39959E-18
 -1      3889 8.05149E-05-2.84392E-05-2.23048E-05 2.19139E-05-1.52235E-18 1.97649E-18
 -1      3890 9.46415E-05-2.24785E-05-3.09120E-05 1.33657E-06 5.88689E-19-7.57473E-19
 -1      3891 7.14135E-05-2.26628E-05-2.07914E-05 1.90575E-05-1.24050E-18-9.32530E-20
 -1      3892 6.42769E-05-1.87333E-05-1.91890E-05 1.68322E-05-3.66997E-19-7.71859E-19
 -1      3893 6.29505E-05-1.66191E-05-1.98629E-05 1.11088E-05-8.39893E-19 3.46225E-20
 -1      3894 8.11820E-05-2.73357E-05-2.30607E-05 1.91372E-05 2.72723E-19 8.63616E-19
 -1      3895 7.36524E-05-2.24224E-05-2.17195E-05 1.80096E-05 2.49835E-19 1.22223E-18
 -1      3896 7.14512E-05-2.01413E-05-2.19941E-05 1.38060E-05 3.25049E-20 1.25874E-18
 -1      3897 8.11019E-05-2.57114E-05-2.37189E-05 1.71191E-05 4.50251E-19 9.45143E-19
 -1      3898 7.34734E-05-2.23480E-05-2.17702E-05-1.70065E-05 5.73871E-19 2.45273E-18
 -1      3899 9.47571E-05-2.27681E-05-3.08619E-05 1.71949E-07 2.46890E-19-6.52482E-19
 -1      3900 9.47605E-05-2.27608E-05-3.08641E-05-1.52554E-07 1.35599E-20-6.73983E-19
 -1      3901 9.58632E-05-2.73717E-05-2.93549E-05-1.35788E-06 5.91183E-20-1.24853E-19
 -1      3902 9.52056E-05-2.38687E-05-3.05706E-05-9.16810E-07-2.34501E-19-4.83317E-19
 -1      3903 8.74461E-05-2.89601E-05-2.51098E-05-1.68969E-05 9.79169E-19 1.01894E-18
 -1      3904 8.54656E-05-2.51563E-05-2.58605E-05 1.38922E-05-1.70510E-18 2.67958E-18
 -1      3905 9.53032E-05-2.73778E-05-2.91097E-05-2.38494E-06 2.37091E-22-3.85207E-19
 -1      3906 9.54651E-05-2.74430E-05-2.91536E-05-2.13368E-06 3.60725E-20-3.84536E-19
 -1      3907 9.35776E-05-2.60888E-05-2.89201E-05-3.97736E-06-2.29953E-20-1.90471E-19
 -1      3908 9.38507E-05-2.63490E-05-2.89371E-05-3.64879E-06 6.35047E-20-2.94183E-19
 -1      3909 9.28745E-05-2.55640E-05-2.88404E-05-3.77922E-06-6.35394E-20-2.01531E-19
 -1      3910 8.84230E-05-2.29436E-05-2.80495E-05 6.89129E-06-4.37180E-19 1.36691E-18
 -1      3911 6.06370E-05-1.42370E-05-1.96630E-05-4.34589E-06-1.22366E-18 1.32280E-18
 -1      3912 6.62273E-05-1.63217E-05-2.12969E-05-7.51101E-06-5.72381E-19 1.05014E-18
 -1      3913 6.15031E-05-1.45595E-05-2.01056E-05 1.08842E-06-1.16486E-18 8.94996E-19
 -1      3914 9.34953E-05-2.62405E-05-2.88269E-05-1.29709E-06 9.64699E-19-1.81432E-18
 -1      3915 9.35493E-05-2.62999E-05-2.88172E-05 5.72438E-07 8.22537E-19 1.87455E-18
 -1      3916 9.48309E-05-2.70836E-05-2.90323E-05-2.85658E-06 1.21207E-19-5.24619E-19
 -1      3917 9.50316E-05-2.72368E-05-2.90584E-05-2.60180E-06 1.07135E-19-5.34285E-19
 -1      3918 9.50810E-05-2.71276E-05-2.91206E-05-2.25878E-06 1.23207E-19-8.08295E-19
 -1      3919 9.34609E-05-2.62167E-05-2.88215E-05 9.82939E-07 1.84540E-18 1.54783E-18
 -1      3920 9.36421E-05-2.63643E-05-2.88352E-05 1.22721E-06 2.26034E-18-1.88127E-18
 -1      3921 9.35072E-05-2.62100E-05-2.88380E-05 1.39243E-06 1.58023E-18-1.15865E-18
 -1      3922 9.22591E-05-2.51394E-05-2.87775E-05-5.09641E-06-3.32087E-20 2.02781E-20
 -1      3923 9.18707E-05-2.48517E-05-2.87134E-05-4.47629E-06 6.65698E-20-1.09095E-19
 -1      3924 9.19314E-05-2.48844E-05-2.87284E-05-5.55946E-06 3.06605E-19 4.96038E-20
 -1      3925 6.27257E-05-1.46689E-05-2.03757E-05 2.65095E-06-4.74090E-19-4.08435E-19
 -1      3926 6.52321E-05-1.54485E-05-2.13477E-05-2.08429E-06-5.38832E-19-3.66659E-19
 -1      3927 6.69305E-05-1.63797E-05-2.16967E-05 6.22046E-06-4.46529E-19 1.56648E-19
 -1      3928 7.15159E-05-2.02553E-05-2.18257E-05-1.50302E-05-7.35734E-19 3.61293E-19
 -1      3929 7.96733E-05-2.36769E-05-2.39176E-05-1.53883E-05-6.80194E-19 1.44926E-19
 -1      3930 8.04698E-05-2.28272E-05-2.47725E-05-1.33063E-05-3.49337E-19 5.79079E-19
 -1      3931 6.93615E-05-1.80677E-05-2.20499E-05-1.02683E-05-5.52438E-19 3.23659E-20
 -1      3932 9.48665E-05-2.30259E-05-3.07976E-05 6.69233E-07 2.75272E-19-5.68164E-19
 -1      3933 9.47895E-05-2.28465E-05-3.08403E-05 3.78693E-07 2.18148E-19-6.75822E-19
 -1      3934 9.52175E-05-2.37194E-05-3.06306E-05 1.57815E-07 2.09950E-19-5.49977E-19
 -1      3935 9.31673E-05-2.59793E-05-2.87961E-05-1.84810E-07 9.18410E-19 2.70716E-18
 -1      3936 9.31606E-05-2.59743E-05-2.87967E-05 1.26484E-07 6.80210E-19 2.25496E-18
 -1      3937 9.33421E-05-2.61246E-05-2.88076E-05-8.30596E-07 1.14978E-18-5.60070E-19
 -1      3938 9.32306E-05-2.60401E-05-2.88011E-05-5.44353E-07 1.01599E-18 1.08401E-18
 -1      3939 9.29332E-05-2.57526E-05-2.87864E-05-4.09026E-07-1.74463E-20 1.77240E-18
 -1      3940 9.10049E-05-2.43928E-05-2.85393E-05-6.60694E-06 2.05814E-19 7.44437E-19
 -1      3941 9.13268E-05-2.45714E-05-2.86238E-05-6.05456E-06 3.85534E-19 5.15941E-19
 -1      3942 9.07322E-05-2.41463E-05-2.85260E-05-5.32700E-06-5.59166E-20 3.64582E-19
 -1      3943 9.59657E-05-2.68141E-05-2.96417E-05-7.09931E-07 1.39653E-19-4.53578E-19
 -1      3944 9.59435E-05-2.64165E-05-2.97927E-05-2.62858E-07 2.75009E-19-5.73264E-19
 -1      3945 9.58511E-05-2.58236E-05-3.00077E-05 1.19503E-08 2.13132E-19-6.82197E-19
 -1      3946 8.94768E-05-2.35431E-05-2.82451E-05-6.38793E-06 3.11101E-19 1.32787E-18
 -1      3947 8.39958E-05-2.72543E-05-2.42335E-05-1.73041E-05 1.70307E-18 8.24754E-19
 -1      3948 8.22541E-05-2.49626E-05-2.45849E-05-1.52382E-05 7.96403E-19 1.29972E-18
 -1      3949 7.93643E-05-2.54231E-05-2.30763E-05-1.84191E-05 1.67895E-18 1.32326E-18
 -1      3950 8.17868E-05-2.50561E-05-2.43554E-05 1.61728E-05-1.18368E-18 2.30240E-18
 -1      3951 8.20480E-05-2.68774E-05-2.35329E-05 1.85826E-05-1.40957E-18 1.59422E-18
 -1      3952 7.71398E-05-2.52076E-05-2.21394E-05 1.99387E-05-1.22103E-18 1.55002E-18
 -1      3953 9.58848E-05-2.69544E-05-2.95431E-05 9.11644E-07-1.98167E-19-4.52622E-20
 -1      3954 9.57485E-05-2.70724E-05-2.94343E-05 1.14228E-06-1.51861E-20-6.02712E-21
 -1      3955 9.55344E-05-2.71013E-05-2.93307E-05 1.28886E-06 5.93151E-21-3.95444E-20
 -1      3956 9.53040E-05-2.70610E-05-2.92481E-05 1.48929E-06-3.22470E-20-7.66005E-20
 -1      3957 9.56110E-05-2.69520E-05-2.94217E-05 9.54838E-07-1.46320E-19-2.06009E-19
 -1      3958 9.49835E-05-2.69395E-05-2.91652E-05 1.63248E-06-4.30585E-20-2.02097E-19
 -1      3959 9.46757E-05-2.67765E-05-2.90999E-05 1.82881E-06-1.06175E-19-2.02923E-20
 -1      3960 9.50784E-05-2.68618E-05-2.92317E-05 1.23581E-06-8.30697E-20-1.46985E-19
 -1      3961 9.42618E-05-2.65409E-05-2.90283E-05 1.98294E-06-3.08846E-20 9.03917E-20
 -1      3962 9.38844E-05-2.62847E-05-2.89709E-05 2.19480E-06 1.09470E-19 8.68668E-20
 -1      3963 9.43505E-05-2.65005E-05-2.90735E-05 1.51923E-06 5.67615E-20-1.16708E-19
 -1      3964 9.33803E-05-2.59624E-05-2.89004E-05 2.37614E-06 1.14612E-20 1.11489E-19
 -1      3965 9.29372E-05-2.56412E-05-2.88405E-05 2.62174E-06 1.52305E-20 9.04894E-20
 -1      3966 9.34407E-05-2.59280E-05-2.89272E-05 1.83188E-06-2.38260E-20-2.00251E-19
 -1      3967 9.23427E-05-2.52593E-05-2.87595E-05 2.84572E-06 1.48730E-19 1.02698E-19
 -1      3968 9.18365E-05-2.49008E-05-2.86856E-05 3.14216E-06 1.80095E-19 1.67467E-19
 -1      3969 9.23512E-05-2.51986E-05-2.87707E-05 2.20582E-06 1.28116E-19 5.20377E-20
 -1      3970 9.11464E-05-2.44869E-05-2.85808E-05 3.42857E-06 8.75305E-20-1.61641E-19
 -1      3971 9.05833E-05-2.41258E-05-2.84798E-05 3.79642E-06 2.79670E-21 3.04918E-20
 -1      3972 9.10770E-05-2.43673E-05-2.85790E-05 2.66888E-06-1.93189E-20 1.36910E-19
 -1      3973 8.97916E-05-2.37140E-05-2.83351E-05 4.16836E-06-1.57726E-19 9.65633E-20
 -1      3974 8.91831E-05-2.33936E-05-2.81917E-05 4.63470E-06-1.81904E-19 1.28256E-19
 -1      3975 8.96088E-05-2.34911E-05-2.83220E-05 3.26720E-06-2.21378E-20-3.44518E-19
 -1      3976 8.82800E-05-2.30250E-05-2.79878E-05 5.12984E-06-2.44007E-19 1.83426E-19
 -1      3977 8.76511E-05-2.28036E-05-2.77845E-05 5.73660E-06-4.37989E-19 4.11932E-19
 -1      3978 8.79278E-05-2.26380E-05-2.79635E-05 4.05559E-06-3.87818E-20-1.25732E-19
 -1      3979 8.66275E-05-2.25325E-05-2.74976E-05 6.41289E-06-5.29681E-19 5.49411E-19
 -1      3980 8.60234E-05-2.24879E-05-2.72149E-05 7.22607E-06-4.58232E-19 7.60636E-19
 -1      3981 8.60146E-05-2.18922E-05-2.74590E-05 5.12989E-06-3.76489E-19 3.48011E-19
 -1      3982 8.48664E-05-2.23866E-05-2.68145E-05 8.18480E-06-3.86438E-19 9.27929E-19
 -1      3983 8.43801E-05-2.26460E-05-2.64308E-05 9.31039E-06-9.50484E-20 1.09606E-18
 -1      3984 8.38442E-05-2.13571E-05-2.67521E-05 6.63870E-06-2.73392E-19 7.17932E-19
 -1      3985 8.30656E-05-2.27946E-05-2.58757E-05 1.07065E-05-2.37591E-20 1.36909E-18
 -1      3986 8.29297E-05-2.35947E-05-2.53914E-05 1.22924E-05 2.54251E-19 1.45667E-18
 -1      3987 8.13860E-05-2.11907E-05-2.57670E-05 8.82337E-06 1.24373E-19 8.70174E-19
 -1      3988 9.58978E-05-2.73114E-05-2.93967E-05-1.37540E-06 5.49330E-20-3.16833E-19
 -1      3989 9.59580E-05-2.71121E-05-2.95024E-05-1.03361E-06 6.33153E-20-3.58180E-19
 -1      3990 9.59814E-05-2.67303E-05-2.96767E-05-7.42169E-07 1.26512E-19-5.80603E-19
 -1      3991 8.33273E-05-2.40753E-05-2.53306E-05-1.29630E-05-3.80503E-20 9.09727E-19
 -1      3992 8.33354E-05-2.31370E-05-2.58517E-05-1.12972E-05-1.94878E-19 7.75477E-19
 -1      3993 7.97960E-05-2.24715E-05-2.45192E-05-1.32226E-05 1.69804E-19 1.29071E-18
 -1      3994 9.57901E-05-2.53881E-05-3.01754E-05-1.14381E-07-1.89933E-19-3.19742E-19
 -1      3995 9.59275E-05-2.59620E-05-2.99889E-05 2.55010E-07-1.91618E-19-1.96156E-19
 -1      3996 8.44405E-05-2.27725E-05-2.63968E-05-9.79537E-06-9.45470E-19 3.45882E-19
 -1      3997 8.48283E-05-2.23942E-05-2.67966E-05-8.58431E-06-1.76342E-18 8.12746E-19
 -1      3998 8.19875E-05-2.15851E-05-2.58449E-05-9.63250E-06-1.04028E-18 4.84805E-19
 -1      3999 8.58470E-05-2.23577E-05-2.71919E-05-7.54157E-06-1.02692E-18 1.09444E-18
 -1      4000 8.63774E-05-2.23085E-05-2.74866E-05-6.65381E-06 4.78017E-19 1.81117E-18
 -1      4001 8.40603E-05-2.14409E-05-2.68071E-05-7.21374E-06-4.42314E-19 1.15148E-18
 -1      4002 8.72923E-05-2.24782E-05-2.77681E-05-5.90152E-06 6.59196E-19 2.13839E-18
 -1      4003 8.78586E-05-2.26259E-05-2.79778E-05-5.23315E-06 1.25077E-18 2.14303E-18
 -1      4004 8.59435E-05-2.17337E-05-2.74959E-05-5.52115E-06 6.94113E-19 1.82698E-18
 -1      4005 8.86613E-05-2.29122E-05-2.81737E-05-4.66793E-06 1.58013E-18 2.12031E-18
 -1      4006 8.92095E-05-2.31724E-05-2.83174E-05-4.14582E-06 1.45968E-18 2.73003E-18
 -1      4007 8.76197E-05-2.22902E-05-2.79812E-05-4.30743E-06 1.49629E-18 1.18944E-18
 -1      4008 8.99083E-05-2.35210E-05-2.84494E-05-3.70920E-06-3.74458E-19 2.72145E-18
 -1      4009 9.04087E-05-2.38354E-05-2.85432E-05-3.29252E-06-7.71300E-19 1.85986E-18
 -1      4010 8.90923E-05-2.29914E-05-2.83149E-05-3.38246E-06 2.98866E-19 2.13494E-18
 -1      4011 9.10035E-05-2.42017E-05-2.86283E-05-2.94790E-06-1.10905E-18 2.86318E-18
 -1      4012 9.14415E-05-2.45297E-05-2.86854E-05-2.60958E-06-1.77828E-18 2.87636E-18
 -1      4013 9.03623E-05-2.37509E-05-2.85360E-05-2.67085E-06-8.32312E-19 2.66076E-18
 -1      4014 9.19405E-05-2.48876E-05-2.87368E-05-2.33290E-06-1.99117E-18 2.13075E-18
 -1      4015 9.23116E-05-2.52050E-05-2.87682E-05-2.06045E-06-1.15373E-18 1.03621E-18
 -1      4016 9.14380E-05-2.45042E-05-2.86755E-05-2.10175E-06-2.45180E-18 3.02376E-18
 -1      4017 9.27196E-05-2.55249E-05-2.87971E-05-1.83111E-06 2.21311E-19-4.46427E-19
 -1      4018 9.30258E-05-2.58086E-05-2.88106E-05-1.60487E-06 5.00236E-19-1.94452E-18
 -1      4019 9.23182E-05-2.51999E-05-2.87575E-05-1.64790E-06-1.32931E-18-1.85331E-19
 -1      4020 8.45066E-05-2.20847E-05-2.67320E-05-8.84341E-06 1.96907E-19 9.50313E-19
 -1      4021 8.51419E-05-2.20048E-05-2.70950E-05-7.86843E-06 6.00021E-19 5.81189E-19
 -1      4022 9.49554E-05-2.32023E-05-3.07552E-05-9.68848E-07-1.01715E-19-7.02746E-19
 -1      4023 9.55475E-05-2.46636E-05-3.03788E-05-3.46894E-07-1.93894E-19-4.75350E-19
 -1      4024 9.55898E-05-2.47666E-05-3.03471E-05-1.88104E-07-9.43627E-20-5.10932E-19
 -1      4025 9.48572E-05-2.29949E-05-3.08011E-05-7.14834E-07-7.21706E-20-6.79423E-19
 -1      4026 8.63477E-05-2.22300E-05-2.74689E-05-7.06826E-06 6.44030E-19 4.53178E-19
 -1      4027 8.70281E-05-2.23923E-05-2.77275E-05-6.35497E-06 5.81948E-19 8.04629E-19
 -1      4028 8.42298E-05-2.11383E-05-2.70072E-05-6.35554E-06 6.00535E-19 6.93910E-19
 -1      4029 9.56649E-05-2.74733E-05-2.92254E-05-1.91095E-06 1.40760E-19-5.43792E-19
 -1      4030 9.57823E-05-2.74238E-05-2.92956E-05-1.63279E-06 1.25638E-19-4.45219E-19
 -1      4031 9.58593E-05-2.71857E-05-2.94301E-05-1.33188E-06 1.31672E-19-6.75670E-19
 -1      4032 9.55474E-05-2.72922E-05-2.92506E-05-1.81824E-06 1.17017E-19-6.76280E-19
 -1      4033 9.02133E-05-2.36175E-05-2.85555E-05 3.67970E-06 6.63532E-19 2.55753E-18
 -1      4034 8.96880E-05-2.32748E-05-2.84625E-05 4.11937E-06 1.26920E-19 1.75748E-18
 -1      4035 9.42551E-05-2.66389E-05-2.89753E-05-3.37465E-06-4.45436E-20-3.77196E-19
 -1      4036 9.44925E-05-2.68569E-05-2.89923E-05-3.09223E-06 7.15387E-21-4.70318E-19
 -1      4037 9.44769E-05-2.67511E-05-2.90219E-05-2.70537E-06-1.52076E-20-1.03386E-18
 -1      4038 9.37411E-05-2.62138E-05-2.89353E-05-3.20116E-06 1.03548E-20-7.02180E-19
 -1      4039 9.13187E-05-2.43692E-05-2.87038E-05 2.96674E-06 1.51205E-18 2.74681E-18
 -1      4040 9.08693E-05-2.40212E-05-2.86494E-05 3.33362E-06 2.02764E-18 3.40178E-18
 -1      4041 8.99490E-05-2.33956E-05-2.85083E-05 2.93782E-06 5.76443E-19 1.79200E-18
 -1      4042 8.56683E-05-2.17959E-05-2.74056E-05 7.03318E-06-5.90063E-19-2.94946E-19
 -1      4043 8.50503E-05-2.18081E-05-2.70886E-05 7.92105E-06-9.62648E-19 3.12501E-19
 -1      4044 9.22347E-05-2.50840E-05-2.87878E-05 2.37100E-06 8.38402E-19 3.60096E-18
 -1      4045 9.18591E-05-2.47524E-05-2.87603E-05 2.67967E-06 9.54449E-19 3.03888E-18
 -1      4046 9.11329E-05-2.42199E-05-2.86657E-05 2.36729E-06 8.06187E-19 2.94530E-18
 -1      4047 9.29800E-05-2.57272E-05-2.88286E-05 1.87974E-06 1.10576E-18 1.95453E-18
 -1      4048 9.26754E-05-2.54318E-05-2.88184E-05 2.13386E-06 2.14361E-18 3.04422E-18
 -1      4049 9.21036E-05-2.49816E-05-2.87577E-05 1.89321E-06 1.47262E-18 3.12420E-18
 -1      4050 8.18335E-05-2.23497E-05-2.55397E-05 1.17341E-05-1.96345E-18 2.21246E-18
 -1      4051 8.16363E-05-2.32872E-05-2.49462E-05 1.34761E-05-1.22177E-18 1.90990E-18
 -1      4052 7.28332E-05-2.04565E-05-2.24910E-05-1.38761E-05 5.42035E-19 1.67501E-18
 -1      4053 9.50214E-05-2.34085E-05-3.06991E-05 1.12130E-06 4.80013E-19-7.56899E-19
 -1      4054 9.48843E-05-2.30637E-05-3.07854E-05 8.73578E-07 3.27901E-19-5.04521E-19
 -1      4055 9.52699E-05-2.38532E-05-3.05931E-05 5.09749E-07 2.02149E-19-5.50869E-19
 -1      4056 9.52909E-05-2.40193E-05-3.05387E-05 8.53123E-07 3.97668E-19-6.37680E-19
 -1      4057 9.59915E-05-2.64166E-05-2.98193E-05 4.57287E-07-2.12332E-19-1.55931E-19
 -1      4058 9.59746E-05-2.67363E-05-2.96759E-05 7.44503E-07-2.39536E-19-1.44933E-19
 -1      4059 9.59103E-05-2.66901E-05-2.96623E-05 6.42969E-07-1.70498E-19-2.35629E-19
 -1      4060 8.73913E-05-2.22356E-05-2.79476E-05 5.62781E-06-5.05391E-19 2.13350E-19
 -1      4061 8.67547E-05-2.20430E-05-2.77273E-05 6.30044E-06-4.53046E-19 1.38489E-19
 -1      4062 8.48414E-05-2.10302E-05-2.73196E-05 5.66138E-06-6.10787E-19 9.30024E-20
 -1      4063 9.32231E-05-2.60248E-05-2.88019E-05 4.22199E-07 1.58078E-18 8.15478E-19
 -1      4064 9.33178E-05-2.60999E-05-2.88098E-05 7.19031E-07 1.81063E-18 1.34690E-18
 -1      4065 9.31292E-05-2.59082E-05-2.88048E-05 8.42235E-07 2.32086E-18 8.37875E-19
 -1      4066 9.29276E-05-2.57467E-05-2.87870E-05 2.69449E-07 1.75637E-18 1.33635E-18
 -1      4067 8.80708E-05-2.27513E-05-2.79896E-05-5.77634E-06 4.53667E-19 5.15768E-19
 -1      4068 8.87336E-05-2.30541E-05-2.81682E-05-5.23000E-06 1.48132E-19 5.58701E-19
 -1      4069 8.64592E-05-2.18564E-05-2.76629E-05-5.11137E-06 4.17148E-19-1.39566E-20
 -1      4070 9.33296E-05-2.60583E-05-2.88338E-05 1.52565E-06 2.13505E-18-6.09191E-19
 -1      4071 9.31793E-05-2.58906E-05-2.88353E-05 1.71912E-06 1.56989E-18 9.12427E-19
 -1      4072 9.27208E-05-2.55172E-05-2.87972E-05 1.52464E-06 2.79557E-18 9.19448E-19
 -1      4073 9.30931E-05-2.58695E-05-2.88120E-05 1.24282E-06 2.52975E-18-6.94562E-19
 -1      4074 8.89053E-05-2.28789E-05-2.83155E-05 4.54887E-06 8.26898E-20 7.72159E-19
 -1      4075 8.83140E-05-2.25838E-05-2.81683E-05 5.08425E-06-1.51353E-19 1.09263E-18
 -1      4076 8.85234E-05-2.25461E-05-2.82583E-05 3.63478E-06-3.95951E-19 2.50616E-19
 -1      4077 8.26934E-05-2.26032E-05-2.57172E-05-1.14060E-05-3.52630E-19 7.94591E-19
 -1      4078 8.31092E-05-2.20903E-05-2.62038E-05-1.00137E-05-3.59391E-20 8.85573E-19
 -1      4079 8.16515E-05-2.06876E-05-2.60775E-05-8.18370E-06-3.57053E-20 7.03428E-19
 -1      4080 8.37700E-05-2.17427E-05-2.66286E-05 8.95876E-06-1.13439E-18 6.50253E-19
 -1      4081 8.32828E-05-2.21034E-05-2.61894E-05 1.01887E-05-1.81525E-18 1.83520E-18
 -1      4082 8.24824E-05-2.05431E-05-2.65149E-05 7.25253E-06-7.19161E-19-8.62435E-20
 -1      4083 7.29680E-05-2.14080E-05-2.21476E-05 1.59611E-05-1.23220E-18 4.61368E-20
 -1      4084 7.80432E-05-2.19563E-05-2.40115E-05 1.38645E-05-1.17480E-18 1.39379E-18
 -1      4085 7.51157E-05-2.07636E-05-2.32668E-05 1.26921E-05 2.69479E-19 1.75693E-18
 -1      4086 7.10583E-05-1.80973E-05-2.25204E-05 1.00484E-05-3.16512E-20 1.65300E-18
 -1      4087 8.83874E-05-2.27280E-05-2.81208E-05-4.19900E-06-7.21144E-20-2.60681E-19
 -1      4088 8.96354E-05-2.34813E-05-2.83497E-05-4.79454E-06-1.88302E-19 3.37976E-19
 -1      4089 9.02462E-05-2.38508E-05-2.84702E-05-4.36079E-06-1.66881E-19 3.56051E-19
 -1      4090 9.59290E-05-2.59948E-05-2.99686E-05 2.66048E-07-2.16035E-19-4.01298E-19
 -1      4091 9.54828E-05-2.45792E-05-3.03929E-05 5.75255E-07 2.93188E-19-6.62619E-19
 -1      4092 8.68360E-05-2.17362E-05-2.78782E-05 4.51063E-06-9.01281E-19-6.33076E-19
 -1      4093 7.97339E-05-2.04772E-05-2.53721E-05 9.59125E-06-1.51435E-18 1.33373E-18
 -1      4094 9.54265E-05-2.71706E-05-2.92538E-05-1.66622E-06 1.80272E-19-7.24216E-19
 -1      4095 9.56260E-05-2.71868E-05-2.93324E-05-1.44126E-06 1.09514E-19-7.43140E-19
 -1      4096 6.34138E-05-1.49098E-05-2.05531E-05 5.49098E-06-1.88344E-18-1.94996E-19
 -1      4097 6.59234E-05-1.53386E-05-2.16731E-05 7.48511E-07-2.23787E-18 2.46367E-20
 -1      4098 6.72910E-05-1.71434E-05-2.14489E-05 9.55231E-06-2.55665E-18-1.28769E-19
 -1      4099 7.07318E-05-1.73347E-05-2.29206E-05 6.09946E-06-1.62170E-19 7.92945E-19
 -1      4100 9.48364E-05-2.29384E-05-3.08188E-05-4.43239E-07-4.30652E-20-7.22032E-19
 -1      4101 6.87309E-05-1.64536E-05-2.24549E-05-5.56057E-06-9.14409E-19 5.87629E-20
 -1      4102 7.01839E-05-1.76134E-05-2.24435E-05-9.59232E-06-2.10309E-19 2.52882E-19
 -1      4103 9.59060E-05-2.59568E-05-2.99845E-05-1.97638E-07 1.00430E-19-5.48379E-19
 -1      4104 9.57761E-05-2.53634E-05-3.01746E-05 2.25070E-07 2.38796E-19-6.39525E-19
 -1      4105 9.55669E-05-2.47319E-05-3.03563E-05 3.33027E-07 2.15083E-19-5.12966E-19
 -1      4106 9.52404E-05-2.37927E-05-3.06126E-05-2.08513E-07 3.57230E-20-5.96881E-19
 -1      4107 9.48650E-05-2.69295E-05-2.91157E-05-2.04406E-06 1.49201E-19-8.49126E-19
 -1      4108 9.51383E-05-2.70710E-05-2.91742E-05-1.83076E-06 2.21162E-19-7.14759E-19
 -1      4109 9.52266E-05-2.69727E-05-2.92477E-05-1.45806E-06 2.16965E-19-6.77246E-19
 -1      4110 7.53146E-05-2.02071E-05-2.35685E-05-1.14693E-05 4.78933E-19 9.82767E-19
 -1      4111 9.26175E-05-2.54869E-05-2.87675E-05-6.49025E-07-4.44292E-19 2.28583E-18
 -1      4112 9.25354E-05-2.54316E-05-2.87618E-05-2.72544E-07-4.52289E-19 2.79765E-18
 -1      4113 9.31517E-05-2.59232E-05-2.88103E-05-1.26776E-06 4.94390E-19-1.45589E-18
 -1      4114 7.80634E-05-2.05847E-05-2.45676E-05-1.10983E-05-2.08009E-19 4.05163E-19
 -1      4115 9.10227E-05-2.42962E-05-2.85959E-05-4.02127E-06 1.74546E-19 1.97889E-19
 -1      4116 9.15650E-05-2.46788E-05-2.86773E-05-3.66764E-06 7.78027E-20 2.62493E-19
 -1      4117 9.00492E-05-2.36579E-05-2.84388E-05-3.50369E-06-3.01294E-20 3.85621E-19
 -1      4118 9.22327E-05-2.51080E-05-2.87667E-05-3.39698E-06-1.41203E-19-8.65794E-21
 -1      4119 9.26983E-05-2.54686E-05-2.88245E-05-3.10757E-06-1.50450E-19-1.91440E-19
 -1      4120 9.14840E-05-2.45725E-05-2.86627E-05-2.94848E-06-1.06183E-19 7.39167E-20
 -1      4121 9.25498E-05-2.54420E-05-2.87632E-05 9.88053E-08 2.73792E-20 9.52920E-21
 -1      4122 9.26123E-05-2.54861E-05-2.87693E-05 4.05164E-07 1.63274E-18-8.62816E-19
 -1      4123 9.22377E-05-2.51582E-05-2.87431E-05-1.41984E-07-5.36352E-19 6.64836E-19
 -1      4124 9.54982E-05-2.44732E-05-3.04391E-05 2.93882E-09 1.17614E-19-4.17674E-19
 -1      4125 9.55543E-05-2.46307E-05-3.04007E-05-1.48875E-07 3.49221E-20-5.58963E-19
 -1      4126 9.57907E-05-2.53246E-05-3.01967E-05 5.64146E-08-4.84083E-20-4.36063E-19
 -1      4127 9.28404E-05-2.56798E-05-2.87875E-05-1.11192E-06-2.19887E-19-1.23707E-18
 -1      4128 9.55368E-05-2.45692E-05-3.04187E-05 1.21422E-07 1.45922E-19-5.98710E-19
 -1      4129 8.43018E-05-2.05915E-05-2.73312E-05 3.96070E-06-9.29998E-19-6.80788E-19
 -1      4130 8.32086E-05-2.02288E-05-2.69899E-05 4.54216E-06-1.00291E-18-6.69790E-19
 -1      4131 7.81862E-05-2.19474E-05-2.40745E-05 1.30232E-05 1.16692E-19 1.31518E-18
 -1      4132 8.13355E-05-2.46059E-05-2.43116E-05 1.52142E-05 3.33278E-19 1.35476E-18
 -1      4133 9.51922E-05-2.68632E-05-2.92879E-05 8.00828E-07-1.34680E-19-1.27375E-19
 -1      4134 9.48759E-05-2.67411E-05-2.92014E-05 9.35610E-07 1.25169E-20-3.31324E-20
 -1      4135 9.44711E-05-2.65463E-05-2.91156E-05 1.00496E-06-6.88591E-20-2.55786E-19
 -1      4136 9.40597E-05-2.63024E-05-2.90399E-05 1.14125E-06-1.15240E-19-3.95059E-19
 -1      4137 9.46208E-05-2.65474E-05-2.91679E-05 5.61767E-07-1.30185E-19-3.56878E-19
 -1      4138 9.35520E-05-2.59943E-05-2.89592E-05 1.22496E-06-1.17927E-19-7.43485E-20
 -1      4139 9.30457E-05-2.56542E-05-2.88841E-05 1.37665E-06-9.43935E-20-1.82119E-19
 -1      4140 9.37207E-05-2.60385E-05-2.89994E-05 6.94692E-07 1.87680E-20-2.97045E-19
 -1      4141 9.24380E-05-2.52620E-05-2.87970E-05 1.48278E-06 1.10478E-19-3.33272E-19
 -1      4142 9.18357E-05-2.48536E-05-2.87105E-05 1.65880E-06 2.41890E-19-1.17885E-19
 -1      4143 9.26203E-05-2.53203E-05-2.88298E-05 8.61954E-07 2.54337E-21-1.86802E-20
 -1      4144 9.11063E-05-2.43913E-05-2.86038E-05 1.81178E-06-7.74265E-20-7.92508E-20
 -1      4145 9.04174E-05-2.39410E-05-2.84924E-05 2.03673E-06-2.45207E-19-1.87357E-19
 -1      4146 9.12689E-05-2.44129E-05-2.86314E-05 1.07875E-06 1.31117E-19-7.11338E-19
 -1      4147 8.95583E-05-2.34487E-05-2.83495E-05 2.23187E-06-1.61294E-19-4.10727E-20
 -1      4148 8.87670E-05-2.29835E-05-2.81963E-05 2.51946E-06-4.45660E-20-1.48878E-19
 -1      4149 8.97171E-05-2.34274E-05-2.83776E-05 1.34945E-06 5.22894E-20-1.41486E-19
 -1      4150 8.77505E-05-2.24759E-05-2.79976E-05 2.78812E-06 2.83460E-19-2.88939E-19
 -1      4151 8.68445E-05-2.20281E-05-2.77823E-05 3.17210E-06 2.24369E-19 6.53880E-20
 -1      4152 8.78733E-05-2.23660E-05-2.80308E-05 1.71488E-06 1.22982E-19-4.70687E-19
 -1      4153 8.56261E-05-2.15294E-05-2.75019E-05 3.54993E-06-1.29467E-19 2.48511E-19
 -1      4154 8.45980E-05-2.11417E-05-2.71986E-05 4.08621E-06-3.09807E-19 5.76672E-19
 -1      4155 8.56816E-05-2.12781E-05-2.75451E-05 2.21879E-06 7.60667E-20-4.24739E-19
 -1      4156 8.31071E-05-2.06692E-05-2.68023E-05 4.63584E-06-5.40955E-20 4.16131E-19
 -1      4157 8.19655E-05-2.03907E-05-2.63773E-05 5.43070E-06 1.83070E-20 5.71799E-19
 -1      4158 8.30136E-05-2.02216E-05-2.68585E-05 2.91152E-06-2.99865E-19 2.17830E-20
 -1      4159 8.00959E-05-1.99964E-05-2.58106E-05 6.21748E-06-1.05206E-19 8.87148E-19
 -1      4160 7.87923E-05-1.98663E-05-2.52196E-05 7.34789E-06 3.38040E-19 8.88178E-19
 -1      4161 7.98097E-05-1.92673E-05-2.58987E-05 3.93010E-06 2.30558E-19 4.33507E-19
 -1      4162 7.51995E-05-2.06013E-05-2.33318E-05 1.28121E-05-1.74468E-18 1.06229E-18
 -1      4163 7.04219E-05-1.83926E-05-2.21811E-05 1.16776E-05-2.22040E-18 4.98975E-19
 -1      4164 6.98082E-05-1.68921E-05-2.27400E-05 6.85945E-06-2.36485E-18-5.00742E-20
 -1      4165 7.52628E-05-1.93396E-05-2.40249E-05 1.00091E-05-1.66773E-18 9.49287E-19
 -1      4166 7.65451E-05-1.97882E-05-2.43865E-05-9.50234E-06-6.15548E-19 6.60762E-19
 -1      4167 8.24026E-05-2.02763E-05-2.66328E-05-5.07130E-06 3.50793E-19 5.96900E-19
 -1      4168 8.36197E-05-2.06478E-05-2.70306E-05-4.46024E-06 6.51742E-19 2.57842E-19
 -1      4169 9.58117E-05-2.71352E-05-2.94352E-05-1.26079E-06 1.03715E-19-6.59378E-19
 -1      4170 9.59263E-05-2.69927E-05-2.95428E-05-9.96916E-07 1.08564E-19-6.19960E-19
 -1      4171 9.56975E-05-2.70085E-05-2.94348E-05-1.11618E-06 1.23218E-19-5.45055E-19
 -1      4172 8.20158E-05-2.04184E-05-2.64012E-05-6.16779E-06-1.20045E-18 8.17234E-19
 -1      4173 8.30549E-05-2.05694E-05-2.68185E-05-5.27417E-06-1.30952E-19 9.32174E-19
 -1      4174 8.44451E-05-2.09409E-05-2.72140E-05-4.65791E-06 4.96478E-19 4.70378E-19
 -1      4175 8.53275E-05-2.12239E-05-2.75095E-05-4.04792E-06 1.18093E-18 8.50797E-19
 -1      4176 8.28102E-05-2.00158E-05-2.68574E-05-3.58499E-06 1.22757E-19-1.04653E-18
 -1      4177 8.64568E-05-2.16329E-05-2.77856E-05-3.55496E-06 1.23572E-18 8.52657E-19
 -1      4178 8.72547E-05-2.19976E-05-2.79914E-05-3.10565E-06 1.47614E-18 9.66977E-19
 -1      4179 8.51511E-05-2.08015E-05-2.75273E-05-2.66173E-06 1.25012E-18-4.05859E-19
 -1      4180 8.81825E-05-2.24431E-05-2.81799E-05-2.76390E-06 9.93793E-19-8.32222E-20
 -1      4181 8.88823E-05-2.28466E-05-2.83185E-05-2.42137E-06-5.39951E-20-4.14657E-19
 -1      4182 8.72227E-05-2.17716E-05-2.80005E-05-2.04370E-06 5.97211E-19-1.70954E-18
 -1      4183 8.96454E-05-2.32867E-05-2.84444E-05-2.16062E-06-4.79141E-19-5.33699E-19
 -1      4184 9.02518E-05-2.36939E-05-2.85344E-05-1.88489E-06-9.47769E-19-7.85905E-20
 -1      4185 8.88840E-05-2.27273E-05-2.83209E-05-1.59181E-06-1.93312E-20-3.69513E-18
 -1      4186 9.08719E-05-2.41110E-05-2.86149E-05-1.70930E-06-1.97073E-18 5.81217E-19
 -1      4187 9.13674E-05-2.44893E-05-2.86703E-05-1.47424E-06-2.14304E-18 5.44621E-19
 -1      4188 9.03033E-05-2.36898E-05-2.85369E-05-1.21278E-06-9.35652E-19-2.71567E-18
 -1      4189 9.24351E-05-2.53306E-05-2.87606E-05-9.98252E-07-9.15933E-19 3.00517E-19
 -1      4190 8.98242E-05-2.33596E-05-2.84981E-05 2.08498E-06 1.33459E-19 3.21751E-19
 -1      4191 8.91564E-05-2.29151E-05-2.83966E-05 2.34596E-06 1.85220E-19-2.79753E-19
 -1      4192 9.58698E-05-2.57388E-05-3.00535E-05 1.06889E-08 9.44017E-20-3.65467E-19
 -1      4193 9.59105E-05-2.58824E-05-3.00163E-05 9.12701E-08-1.02440E-19-2.95080E-19
 -1      4194 9.59587E-05-2.63102E-05-2.98471E-05 2.63507E-07-1.71798E-19-3.29303E-19
 -1      4195 9.59860E-05-2.67605E-05-2.96727E-05-7.86137E-07 7.76899E-20-7.01248E-19
 -1      4196 9.59966E-05-2.64194E-05-2.98176E-05-4.56653E-07 6.53168E-20-7.23349E-19
 -1      4197 9.59232E-05-2.59829E-05-2.99709E-05-2.58224E-07 1.39264E-19-6.53690E-19
 -1      4198 9.59390E-05-2.66928E-05-2.96727E-05-7.27199E-07 1.19780E-19-7.44296E-19
 -1      4199 7.89997E-05-2.01095E-05-2.52360E-05-8.28240E-06-1.04623E-18 3.96853E-19
 -1      4200 8.01755E-05-2.00526E-05-2.58192E-05-6.96113E-06-1.24638E-18 1.33978E-19
 -1      4201 7.96088E-05-1.91040E-05-2.58700E-05-4.80755E-06-9.58268E-19 3.89850E-19
 -1      4202 7.53396E-05-1.81676E-05-2.44242E-05-6.45312E-06-9.00617E-19-5.86254E-19
 -1      4203 9.20591E-05-2.50012E-05-2.87448E-05 1.35444E-06 1.85524E-18-8.88200E-20
 -1      4204 9.16128E-05-2.46321E-05-2.87096E-05 1.54122E-06 4.80843E-19-1.21868E-20
 -1      4205 9.27499E-05-2.55998E-05-2.87816E-05 7.09055E-07 2.94918E-18 6.51735E-19
 -1      4206 9.28903E-05-2.57079E-05-2.87942E-05 9.81890E-07 2.78632E-18 5.22147E-19
 -1      4207 9.27005E-05-2.55334E-05-2.87866E-05 1.11143E-06 3.37271E-18 8.11110E-20
 -1      4208 9.23646E-05-2.52612E-05-2.87559E-05 5.47371E-07 1.49051E-18-6.47551E-19
 -1      4209 8.50714E-05-2.11531E-05-2.74000E-05-4.03586E-06 4.07073E-19 1.93986E-19
 -1      4210 8.61273E-05-2.16061E-05-2.76789E-05-3.60294E-06 5.21055E-20 3.22321E-20
 -1      4211 8.35690E-05-2.02860E-05-2.70625E-05-2.75334E-06 4.00300E-19-3.06312E-19
 -1      4212 6.86431E-05-1.57660E-05-2.25635E-05-2.37192E-06-1.36113E-18 6.75178E-20
 -1      4213 7.21729E-05-1.70392E-05-2.36093E-05-4.12748E-06-6.44885E-19-5.74206E-19
 -1      4214 6.95064E-05-1.61360E-05-2.29103E-05 1.71377E-06-1.67634E-18-8.34572E-19
 -1      4215 9.10533E-05-2.42135E-05-2.86537E-05 1.68567E-06-1.17727E-19 7.50235E-19
 -1      4216 9.05074E-05-2.38042E-05-2.85910E-05 1.91666E-06 7.17857E-19 4.30131E-19
 -1      4217 8.98710E-05-2.33623E-05-2.84954E-05 1.33865E-06 2.04424E-19-2.35790E-18
 -1      4218 9.10988E-05-2.42332E-05-2.86458E-05 1.11388E-06 8.61658E-19-1.50131E-18
 -1      4219 8.83116E-05-2.24317E-05-2.82541E-05 2.57982E-06-1.34446E-20-1.29931E-19
 -1      4220 8.75270E-05-2.19863E-05-2.80966E-05 2.89828E-06-7.02402E-19-3.19244E-19
 -1      4221 8.83321E-05-2.23195E-05-2.82474E-05 1.69953E-06 1.28199E-19-1.66974E-18
 -1      4222 9.20257E-05-2.49936E-05-2.87305E-05-1.16649E-06-1.86428E-18 1.64653E-18
 -1      4223 9.15780E-05-2.46438E-05-2.86834E-05-7.89184E-07-1.24769E-18 9.84533E-19
 -1      4224 6.76718E-05-1.60696E-05-2.19567E-05-5.77503E-06-5.25428E-19-7.60629E-19
 -1      4225 7.31027E-05-1.85389E-05-2.33653E-05-8.87948E-06-4.47562E-19-1.92303E-20
 -1      4226 8.64889E-05-2.14966E-05-2.78813E-05 3.19652E-06-1.12161E-18-1.37673E-18
 -1      4227 8.55673E-05-2.10846E-05-2.76452E-05 3.60760E-06-8.88383E-19-1.36545E-18
 -1      4228 8.42502E-05-2.03690E-05-2.73602E-05 2.59635E-06-8.25506E-19-2.03636E-18
 -1      4229 7.55780E-05-1.87536E-05-2.44232E-05-7.34074E-06-1.04015E-19-6.45739E-21
 -1      4230 9.55799E-05-2.47393E-05-3.03603E-05 1.32764E-07 2.05427E-19-5.42944E-19
 -1      4231 9.58007E-05-2.53660E-05-3.01839E-05-5.72016E-08 2.86165E-19-5.12639E-19
 -1      4232 7.90903E-05-1.95375E-05-2.55970E-05 7.29798E-06-6.11767E-19-5.62483E-21
 -1      4233 7.77187E-05-1.95089E-05-2.49203E-05 8.56245E-06-8.11373E-19 8.63831E-19
 -1      4234 7.52423E-05-1.83685E-05-2.43225E-05 7.47133E-06-9.02096E-19 2.04777E-19
 -1      4235 9.56951E-05-2.68806E-05-2.94966E-05 5.95630E-07 1.58417E-20-1.33450E-19
 -1      4236 9.54865E-05-2.69161E-05-2.93886E-05 7.37247E-07-4.40530E-20-1.12568E-19
 -1      4237 9.53055E-05-2.67949E-05-2.93565E-05 4.41921E-07-1.25698E-19 3.78435E-20
 -1      4238 6.90878E-05-1.62164E-05-2.27153E-05-1.55605E-06-5.58663E-19-4.29064E-19
 -1      4239 7.91472E-05-1.95326E-05-2.55569E-05-6.57862E-06 1.80590E-19 2.20012E-19
 -1      4240 8.05770E-05-1.97928E-05-2.61056E-05-5.62216E-06 2.73312E-19 5.83745E-19
 -1      4241 8.04623E-05-1.92748E-05-2.61671E-05-3.55484E-06 3.65273E-19 4.18596E-19
 -1      4242 9.59230E-05-2.65606E-05-2.97306E-05 3.38105E-07-1.52039E-19-2.20465E-19
 -1      4243 9.58302E-05-2.67747E-05-2.95946E-05 4.85890E-07-6.67952E-20-1.03608E-19
 -1      4244 9.57154E-05-2.67396E-05-2.95563E-05 2.58901E-07-7.41025E-21-9.45603E-21
 -1      4245 9.59004E-05-2.64385E-05-2.97649E-05 7.44646E-08 2.79482E-20 1.02953E-20
 -1      4246 8.16111E-05-1.97972E-05-2.65347E-05 5.04877E-06-7.10082E-19-6.69401E-19
 -1      4247 8.03266E-05-1.95170E-05-2.60431E-05 5.83697E-06-7.89855E-19-8.45408E-19
 -1      4248 8.14388E-05-1.93390E-05-2.65796E-05 3.16370E-06-9.19236E-19-7.87491E-19
 -1      4249 7.52125E-05-1.78205E-05-2.45230E-05-4.41997E-06 1.21843E-19-2.61052E-19
 -1      4250 9.55722E-05-2.47204E-05-3.03709E-05 2.03748E-07 1.56577E-19-4.68643E-19
 -1      4251 7.13250E-05-1.64774E-05-2.33722E-05 1.83953E-06 9.50431E-20 3.84755E-20
 -1      4252 7.26780E-05-1.70394E-05-2.38856E-05-1.36461E-06 1.16748E-20-6.69479E-20
 -1      4253 7.64107E-05-1.80225E-05-2.50535E-05-1.36832E-06 6.01211E-19 2.23125E-19
 -1      4254 7.41836E-05-1.80517E-05-2.40674E-05 5.40032E-06 4.72436E-19 6.88208E-19
 -1      4255 8.73110E-05-2.21439E-05-2.79361E-05-3.31619E-06-9.59108E-20-2.72337E-20
 -1      4256 8.82217E-05-2.26299E-05-2.81300E-05-2.99274E-06 3.17226E-20-2.07204E-19
 -1      4257 8.61901E-05-2.14462E-05-2.76980E-05-2.27880E-06-3.08125E-21 2.24506E-19
 -1      4258 7.70997E-05-2.01289E-05-2.44773E-05 9.72435E-06 1.13532E-19 1.49757E-18
 -1      4259 8.64799E-05-2.12933E-05-2.78821E-05 2.06145E-06-9.13900E-19-2.58285E-18
 -1      4260 9.26771E-05-2.53828E-05-2.88278E-05-2.49368E-06-2.18230E-19 2.75025E-20
 -1      4261 9.32667E-05-2.58452E-05-2.88939E-05-2.87360E-06-1.13710E-19-3.36064E-19
 -1      4262 9.36712E-05-2.61597E-05-2.89410E-05-2.62343E-06-4.05965E-20-5.05355E-19
 -1      4263 9.55881E-05-2.69690E-05-2.94115E-05-9.41082E-07 8.34099E-20-5.48520E-19
 -1      4264 9.57774E-05-2.69042E-05-2.95191E-05-7.58982E-07 3.08492E-20-5.26600E-19
 -1      4265 7.61275E-05-1.87993E-05-2.45283E-05 6.93060E-06 3.80091E-19 1.04998E-18
 -1      4266 9.59196E-05-2.59152E-05-3.00043E-05-6.13276E-08 2.14775E-19-3.68812E-19
 -1      4267 9.08289E-05-2.40660E-05-2.86105E-05-5.58773E-07-5.65859E-19-7.76142E-19
 -1      4268 9.15058E-05-2.45931E-05-2.86800E-05-2.91394E-07 3.25559E-20 1.08710E-18
 -1      4269 9.15303E-05-2.46049E-05-2.86813E-05 1.13427E-07 2.60149E-19-1.73320E-18
 -1      4270 7.46338E-05-1.75723E-05-2.45004E-05-3.45251E-06-1.17026E-18-6.33596E-19
 -1      4271 7.85492E-05-1.86278E-05-2.56311E-05 4.86655E-06-3.48063E-19-8.01064E-19
 -1      4272 9.41438E-05-2.64711E-05-2.90025E-05-2.43410E-06-1.18250E-19-7.04567E-19
 -1      4273 9.44852E-05-2.67113E-05-2.90503E-05-2.21078E-06-8.36817E-20-6.20798E-19
 -1      4274 9.45630E-05-2.66527E-05-2.90978E-05-1.78432E-06 4.61432E-20-3.72626E-19
 -1      4275 9.37136E-05-2.61056E-05-2.89650E-05-2.11987E-06-1.79019E-19 9.33225E-21
 -1      4276 9.24967E-05-2.53537E-05-2.87770E-05 1.25792E-06 3.12752E-18 1.10370E-18
 -1      4277 9.58407E-05-2.55165E-05-3.01348E-05-2.34159E-08 1.45917E-19-4.56070E-19
 -1      4278 8.92037E-05-2.31589E-05-2.83106E-05-2.77436E-06 1.76539E-19-9.76766E-20
 -1      4279 8.99854E-05-2.36437E-05-2.84459E-05-2.51654E-06-4.12031E-20-4.86338E-20
 -1      4280 8.83216E-05-2.25691E-05-2.81432E-05-1.92686E-06 1.24719E-19-3.15444E-19
 -1      4281 9.08078E-05-2.41426E-05-2.85749E-05-2.34211E-06-2.89283E-19 1.19878E-19
 -1      4282 9.14573E-05-2.45915E-05-2.86710E-05-2.11340E-06-2.52729E-19-5.29404E-20
 -1      4283 9.01011E-05-2.36405E-05-2.84589E-05-1.64822E-06-8.45815E-20-2.80958E-19
 -1      4284 9.50294E-05-2.68483E-05-2.92253E-05-1.19566E-06 2.38960E-19-3.36449E-19
 -1      4285 9.53276E-05-2.69434E-05-2.93096E-05-1.03237E-06 8.82780E-20-4.54428E-19
 -1      4286 9.54274E-05-2.68452E-05-2.93880E-05-6.82090E-07 4.40379E-20-4.25019E-19
 -1      4287 7.59974E-05-1.80820E-05-2.48890E-05 3.08804E-06 5.95843E-19 5.16356E-19
 -1      4288 9.20861E-05-2.50218E-05-2.87368E-05 9.20843E-07 1.99837E-18-1.75631E-18
 -1      4289 7.84537E-05-1.86720E-05-2.56262E-05 2.20412E-06 5.99755E-19 5.32303E-19
 -1      4290 7.70955E-05-1.80554E-05-2.52472E-05 7.86952E-07 5.67633E-19 6.02297E-19
 -1      4291 7.87666E-05-1.87098E-05-2.57751E-05-1.85825E-06 3.41546E-19 4.19740E-19
 -1      4292 8.02326E-05-1.92490E-05-2.61847E-05 1.72561E-06 1.48883E-19 2.11255E-19
 -1      4293 9.19211E-05-2.49118E-05-2.87230E-05 6.03068E-07 5.15235E-19-2.07566E-18
 -1      4294 7.32866E-05-1.75271E-05-2.39018E-05 5.86382E-06-6.73572E-19-1.26393E-20
 -1      4295 7.10637E-05-1.65378E-05-2.32961E-05 3.86552E-06-1.18724E-18-6.43065E-19
 -1      4296 7.29615E-05-1.68483E-05-2.40621E-05 1.23942E-06 5.07558E-20-4.60245E-19
 -1      4297 7.55714E-05-1.79085E-05-2.47707E-05 4.80283E-06 1.50017E-20-7.04711E-19
 -1      4298 9.39270E-05-2.61831E-05-2.90411E-05 1.43994E-07 6.94124E-20-3.16477E-19
 -1      4299 9.34242E-05-2.58648E-05-2.89582E-05 2.03550E-07-3.72641E-20-3.14234E-19
 -1      4300 9.28438E-05-2.54923E-05-2.88723E-05 2.02824E-07-1.55003E-19-1.56745E-19
 -1      4301 9.22093E-05-2.50769E-05-2.87810E-05 2.90798E-07-4.01909E-20-2.80728E-19
 -1      4302 9.31230E-05-2.56271E-05-2.89138E-05-3.67149E-07-1.29752E-19-4.14601E-19
 -1      4303 9.13545E-05-2.45099E-05-2.86552E-05-2.47248E-07-3.33110E-20-4.53404E-19
 -1      4304 9.05899E-05-2.40241E-05-2.85422E-05-1.81366E-07 5.94850E-20-5.19510E-19
 -1      4305 8.97426E-05-2.35086E-05-2.84076E-05-2.57653E-07 1.67084E-19-6.96010E-19
 -1      4306 8.88532E-05-2.29701E-05-2.82567E-05-1.60150E-07 9.90702E-20-3.20048E-19
 -1      4307 8.78501E-05-2.24258E-05-2.80702E-05-2.51262E-07-5.74291E-20-3.43795E-19
 -1      4308 8.68011E-05-2.18604E-05-2.78608E-05-1.13382E-07 1.91515E-19-3.26288E-19
 -1      4309 8.55975E-05-2.12995E-05-2.75974E-05-2.21381E-07 3.16456E-19-4.94495E-19
 -1      4310 8.43493E-05-2.07266E-05-2.73030E-05-2.87198E-08-3.00957E-20-4.27140E-19
 -1      4311 8.28690E-05-2.01298E-05-2.69274E-05-1.40639E-07 8.90940E-20-1.00985E-19
 -1      4312 8.13716E-05-1.95692E-05-2.65108E-05 7.67079E-08 2.68659E-19 1.67796E-19
 -1      4313 9.11856E-05-2.43309E-05-2.86534E-05 5.20955E-07 1.04085E-18-1.85924E-18
 -1      4314 9.53661E-05-2.68316E-05-2.93764E-05-1.64849E-07-9.64238E-20-2.32130E-19
 -1      4315 9.50668E-05-2.67591E-05-2.92751E-05-1.30263E-07-2.29142E-19-3.54567E-19
 -1      4316 8.14014E-05-1.93848E-05-2.65978E-05-2.14618E-06-7.43435E-19 2.94404E-19
 -1      4317 8.27158E-05-1.98344E-05-2.69949E-05-1.66021E-06 3.64686E-19-1.30604E-19
 -1      4318 7.75123E-05-1.82663E-05-2.54082E-05-2.94123E-06-9.99613E-19 6.67457E-19
 -1      4319 7.93694E-05-1.87853E-05-2.60053E-05-2.46922E-06-6.49964E-19 6.13249E-19
 -1      4320 7.98763E-05-1.86425E-05-2.61970E-05-4.78783E-07-8.48508E-19 8.53070E-19
 -1      4321 7.49885E-05-1.72510E-05-2.46925E-05-9.16551E-07-5.87683E-19 1.08993E-19
 -1      4322 8.43588E-05-2.04519E-05-2.74118E-05-3.08030E-07 3.27610E-19-7.24438E-19
 -1      4323 8.54754E-05-2.09578E-05-2.76876E-05-9.39346E-08 3.08762E-20-1.61925E-18
 -1      4324 8.65356E-05-2.14898E-05-2.79148E-05-1.86221E-07-3.71064E-19-1.51949E-18
 -1      4325 8.74964E-05-2.19817E-05-2.81105E-05-4.51798E-09-1.58668E-19-2.50197E-18
 -1      4326 8.83719E-05-2.24848E-05-2.82638E-05-8.68394E-08 2.89413E-19-2.64311E-18
 -1      4327 8.91916E-05-2.29599E-05-2.83981E-05 3.23684E-08 2.26091E-19-2.50163E-18
 -1      4328 9.01492E-05-2.36115E-05-2.85246E-05-7.03831E-07 2.95846E-19-2.00425E-18
 -1      4329 9.59370E-05-2.60347E-05-2.99649E-05-2.86007E-07 2.20936E-19-6.01730E-19
 -1      4330 9.47426E-05-2.66246E-05-2.91999E-05-3.99806E-08-2.52241E-19-3.44419E-19
 -1      4331 9.43409E-05-2.64149E-05-2.91122E-05 1.14170E-09-3.03301E-20-2.96365E-19
 -1      4332 9.41028E-05-2.62466E-05-2.90704E-05-4.84392E-07-3.57212E-20-2.14378E-19
 -1      4333 9.48378E-05-2.66554E-05-2.92137E-05-6.98799E-07-1.17159E-19-2.14750E-19
 -1      4334 8.23443E-05-1.96038E-05-2.68959E-05 1.26638E-06-3.58674E-19 1.99454E-21
 -1      4335 8.06453E-05-1.90212E-05-2.64362E-05 1.49590E-06-4.54239E-19 3.35653E-19
 -1      4336 9.59258E-05-2.60535E-05-2.99411E-05-2.12309E-07 2.28188E-19-3.18913E-19
 -1      4337 9.59326E-05-2.63623E-05-2.98210E-05-1.58975E-07 3.88811E-20-2.57270E-19
 -1      4338 9.58915E-05-2.65714E-05-2.97103E-05-7.29924E-08 7.36296E-20-1.00321E-19
 -1      4339 9.59703E-05-2.64590E-05-2.97882E-05-4.10778E-07 9.94495E-20-6.05417E-19
 -1      4340 9.22611E-05-2.51052E-05-2.87838E-05-1.52729E-06-3.32150E-19-2.21724E-19
 -1      4341 9.28237E-05-2.55061E-05-2.88599E-05-1.36465E-06-2.77575E-19-2.77990E-19
 -1      4342 9.17323E-05-2.47119E-05-2.87083E-05-9.34751E-07-3.18255E-19-2.89845E-19
 -1      4343 9.06328E-05-2.39114E-05-2.85944E-05 6.04011E-07 8.95464E-19-1.76168E-18
 -1      4344 9.56214E-05-2.68286E-05-2.94826E-05-9.59079E-08-1.59912E-19-2.65934E-19
 -1      4345 9.57601E-05-2.67592E-05-2.95756E-05-2.04262E-07-6.80600E-20-1.80854E-19
 -1      4346 8.99242E-05-2.34047E-05-2.85003E-05 7.11774E-07 2.74190E-19-1.95809E-18
 -1      4347 9.58216E-05-2.66846E-05-2.96254E-05-4.39927E-07-7.17400E-20-4.04017E-19
 -1      4348 9.59110E-05-2.67240E-05-2.96550E-05-6.12123E-07-3.66894E-20-5.63085E-19
 -1      4349 7.58486E-05-1.75279E-05-2.49878E-05 1.19555E-06-8.04003E-20 2.43439E-19
 -1      4350 7.84940E-05-1.83467E-05-2.58162E-05 1.56600E-06-1.00572E-18-1.49747E-19
 -1      4351 7.72127E-05-1.81320E-05-2.53232E-05 2.78030E-06-4.56015E-19-2.97330E-19
 -1      4352 8.05374E-05-1.91637E-05-2.63036E-05-1.52863E-06 6.35355E-19 6.93558E-19
 -1      4353 8.35946E-05-2.00091E-05-2.72249E-05 1.06978E-06-4.49309E-19-7.95692E-19
 -1      4354 9.46995E-05-2.66760E-05-2.91553E-05-1.12311E-06 1.26915E-19-2.31170E-19
 -1      4355 9.43061E-05-2.64618E-05-2.90828E-05-1.27349E-06-5.14498E-20-1.94704E-19
 -1      4356 9.34020E-05-2.58817E-05-2.89440E-05-1.30604E-06-1.92446E-19-2.81757E-19
 -1      4357 9.38833E-05-2.61956E-05-2.90139E-05-1.15763E-06-9.66019E-20-1.05234E-19
 -3
    1PSTEP                         4           1           1          
  100CL  101 1.000000000        4357                     0    1           1
 -4  ERROR       1    1
 -5  STR(%)      1    1    0    0
 -1         1 1.27108E+01
 -1         2 2.64140E+01
 -1         3 1.15617E-02
 -1         4 1.32950E-02
 -1         5 1.40438E+01
 -1         6 1.31475E+01
 -1         7 1.31475E+01
 -1         8 3.64365E+00
 -1         9 1.80839E+00
 -1        10 1.28096E+00
 -1        11 1.03548E+00
 -1        12 8.91972E-01
 -1        13 8.00797E-01
 -1        14 7.46964E-01
 -1        15 7.48958E-01
 -1        16 8.05135E-01
 -1        17 8.92936E-01
 -1        18 1.04432E+00
 -1        19 1.29850E+00
 -1        20 1.81716E+00
 -1        21 3.48521E+00
 -1        22 8.63111E+00
 -1        23 1.31475E+01
 -1        24 4.33926E+00
 -1        25 3.36470E+00
 -1        26 2.13738E+00
 -1        27 1.39340E+00
 -1        28 1.06491E+00
 -1        29 8.38101E-01
 -1        30 6.72408E-01
 -1        31 5.47833E-01
 -1        32 4.53773E-01
 -1        33 3.82815E-01
 -1        34 3.68728E-01
 -1        35 4.17423E-01
 -1        36 4.74545E-01
 -1        37 5.33503E-01
 -1        38 5.98945E-01
 -1        39 7.56796E-01
 -1        40 9.51294E-01
 -1        41 1.13309E+00
 -1        42 1.23622E+00
 -1        43 1.23622E+00
 -1        44 1.26766E+00
 -1        45 1.26766E+00
 -1        46 1.62771E+00
 -1        47 2.61656E+00
 -1        48 3.59432E+00
 -1        49 3.62127E+00
 -1        50 3.68858E+00
 -1        51 3.68858E+00
 -1        52 2.86896E+00
 -1        53 1.67819E+00
 -1        54 1.29935E+00
 -1        55 1.25355E+00
 -1        56 1.22804E+00
 -1        57 1.22804E+00
 -1        58 1.14825E+00
 -1        59 9.74125E-01
 -1        60 7.76803E-01
 -1        61 6.19603E-01
 -1        62 4.97715E-01
 -1        63 4.25178E-01
 -1        64 3.49881E-01
 -1        65 2.79261E-01
 -1        66 2.16939E-01
 -1        67 1.63875E-01
 -1        68 1.31092E-01
 -1        69 1.12338E-01
 -1        70 8.62180E-02
 -1        71 4.45570E-02
 -1        72 1.40438E+01
 -1        73 3.41449E+00
 -1        74 2.43567E+00
 -1        75 1.69175E+00
 -1        76 1.17490E+00
 -1        77 9.61050E-01
 -1        78 8.02814E-01
 -1        79 6.79997E-01
 -1        80 5.85608E-01
 -1        81 5.15896E-01
 -1        82 4.68027E-01
 -1        83 4.38751E-01
 -1        84 4.34542E-01
 -1        85 5.02293E-01
 -1        86 5.76603E-01
 -1        87 6.46556E-01
 -1        88 6.93941E-01
 -1        89 7.09059E-01
 -1        90 8.91734E-01
 -1        91 1.10943E+00
 -1        92 1.23108E+00
 -1        93 1.48287E+00
 -1        94 1.63821E+00
 -1        95 1.78805E+00
 -1        96 2.13619E+00
 -1        97 3.22483E+00
 -1        98 3.62767E+00
 -1        99 4.15412E+00
 -1       100 4.15412E+00
 -1       101 3.41557E+00
 -1       102 1.97419E+00
 -1       103 1.31052E+00
 -1       104 1.24514E+00
 -1       105 1.42762E+00
 -1       106 1.42762E+00
 -1       107 1.37684E+00
 -1       108 1.20559E+00
 -1       109 1.01518E+00
 -1       110 8.32131E-01
 -1       111 6.53654E-01
 -1       112 4.94524E-01
 -1       113 3.67614E-01
 -1       114 2.89733E-01
 -1       115 2.22808E-01
 -1       116 1.66913E-01
 -1       117 1.20579E-01
 -1       118 8.10374E-02
 -1       119 6.51066E-02
 -1       120 3.64434E-02
 -1       121 1.43788E-02
 -1       122 1.56973E-02
 -1       123 1.56973E-02
 -1       124 1.03877E-02
 -1       125 5.87647E-03
 -1       126 1.14807E-02
 -1       127 1.52240E-02
 -1       128 1.63288E-02
 -1       129 1.63288E-02
 -1       130 1.50978E-02
 -1       131 1.11871E-02
 -1       132 5.82571E-03
 -1       133 1.04968E-02
 -1       134 1.53187E-02
 -1       135 1.90577E-02
 -1       136 2.06582E-02
 -1       137 2.64140E+01
 -1       138 4.64254E+01
 -1       139 4.64254E+01
 -1       140 1.86279E+01
 -1       141 1.18318E+01
 -1       142 1.19760E+01
 -1       143 1.19973E+01
 -1       144 1.24390E+01
 -1       145 1.24390E+01
 -1       146 1.20497E+01
 -1       147 2.52062E+01
 -1       148 3.03237E+01
 -1       149 3.03237E+01
 -1       150 2.46385E+01
 -1       151 2.54689E+01
 -1       152 2.54689E+01
 -1       153 4.56015E+01
 -1       154 4.56015E+01
 -1       155 1.73837E+01
 -1       156 1.34418E+01
 -1       157 1.34418E+01
 -1       158 1.31524E+01
 -1       159 1.31524E+01
 -1       160 1.72103E+01
 -1       161 4.50365E+01
 -1       162 4.50365E+01
 -1       163 2.56903E+01
 -1       164 6.05281E+00
 -1       165 2.28272E+00
 -1       166 1.49717E+00
 -1       167 1.15081E+00
 -1       168 9.65118E-01
 -1       169 8.57428E-01
 -1       170 7.88942E-01
 -1       171 7.48958E-01
 -1       172 7.92419E-01
 -1       173 8.60402E-01
 -1       174 9.74071E-01
 -1       175 1.16502E+00
 -1       176 1.51877E+00
 -1       177 2.25021E+00
 -1       178 3.91590E+00
 -1       179 1.40438E+01
 -1       180 4.33926E+00
 -1       181 3.36470E+00
 -1       182 2.13738E+00
 -1       183 1.46837E+00
 -1       184 1.06491E+00
 -1       185 8.38101E-01
 -1       186 6.72408E-01
 -1       187 5.47833E-01
 -1       188 4.53773E-01
 -1       189 3.82815E-01
 -1       190 3.31322E-01
 -1       191 3.68728E-01
 -1       192 4.17423E-01
 -1       193 4.74545E-01
 -1       194 5.46892E-01
 -1       195 6.70268E-01
 -1       196 7.90669E-01
 -1       197 9.51294E-01
 -1       198 1.13309E+00
 -1       199 1.23622E+00
 -1       200 1.16694E+00
 -1       201 1.26766E+00
 -1       202 1.19295E+00
 -1       203 1.62771E+00
 -1       204 2.61656E+00
 -1       205 3.59432E+00
 -1       206 3.62127E+00
 -1       207 3.68858E+00
 -1       208 2.86896E+00
 -1       209 1.79250E+00
 -1       210 1.29935E+00
 -1       211 1.25355E+00
 -1       212 1.19811E+00
 -1       213 1.22804E+00
 -1       214 1.14825E+00
 -1       215 9.74125E-01
 -1       216 8.11330E-01
 -1       217 6.96757E-01
 -1       218 5.81519E-01
 -1       219 4.62503E-01
 -1       220 3.52354E-01
 -1       221 2.79261E-01
 -1       222 2.17430E-01
 -1       223 1.69636E-01
 -1       224 1.31092E-01
 -1       225 1.12338E-01
 -1       226 8.62180E-02
 -1       227 4.86310E-02
 -1       228 3.41449E+00
 -1       229 2.43567E+00
 -1       230 1.69175E+00
 -1       231 1.17490E+00
 -1       232 9.61050E-01
 -1       233 8.02814E-01
 -1       234 6.79997E-01
 -1       235 5.85608E-01
 -1       236 5.15896E-01
 -1       237 4.68027E-01
 -1       238 4.38751E-01
 -1       239 4.23656E-01
 -1       240 4.34542E-01
 -1       241 5.02293E-01
 -1       242 5.76603E-01
 -1       243 6.46556E-01
 -1       244 6.93941E-01
 -1       245 7.71727E-01
 -1       246 9.09257E-01
 -1       247 1.10943E+00
 -1       248 1.23108E+00
 -1       249 1.48287E+00
 -1       250 1.63821E+00
 -1       251 1.78805E+00
 -1       252 2.21922E+00
 -1       253 3.22483E+00
 -1       254 3.62767E+00
 -1       255 4.15412E+00
 -1       256 3.41557E+00
 -1       257 1.97419E+00
 -1       258 1.31052E+00
 -1       259 1.16259E+00
 -1       260 1.24514E+00
 -1       261 1.42762E+00
 -1       262 1.37684E+00
 -1       263 1.20559E+00
 -1       264 1.01518E+00
 -1       265 8.41053E-01
 -1       266 6.79743E-01
 -1       267 5.28709E-01
 -1       268 3.97027E-01
 -1       269 2.89733E-01
 -1       270 2.22808E-01
 -1       271 1.66913E-01
 -1       272 1.20953E-01
 -1       273 8.54524E-02
 -1       274 6.51066E-02
 -1       275 3.64434E-02
 -1       276 2.34619E-02
 -1       277 2.67004E-02
 -1       278 2.67004E-02
 -1       279 1.44868E-02
 -1       280 2.19657E-02
 -1       281 2.95538E-02
 -1       282 3.26286E-02
 -1       283 3.26286E-02
 -1       284 3.25692E-02
 -1       285 2.91222E-02
 -1       286 2.16667E-02
 -1       287 1.47776E-02
 -1       288 2.65856E-02
 -1       289 2.65856E-02
 -1       290 3.02773E-02
 -1       291 3.20234E+01
 -1       292 2.76756E+01
 -1       293 4.64254E+01
 -1       294 1.99068E+01
 -1       295 1.16076E+01
 -1       296 1.18318E+01
 -1       297 1.19760E+01
 -1       298 1.19973E+01
 -1       299 1.24390E+01
 -1       300 1.15767E+01
 -1       301 1.20497E+01
 -1       302 2.80169E+01
 -1       303 3.39258E+01
 -1       304 3.39258E+01
 -1       305 2.98936E+01
 -1       306 2.98936E+01
 -1       307 3.87225E+01
 -1       308 4.56015E+01
 -1       309 1.83454E+01
 -1       310 1.15645E+01
 -1       311 1.34418E+01
 -1       312 1.27108E+01
 -1       313 1.19669E+01
 -1       314 1.31524E+01
 -1       315 1.15383E+01
 -1       316 1.75720E+01
 -1       317 4.50365E+01
 -1       318 3.92090E+01
 -1       319 3.20234E+01
 -1       320 1.05491E+00
 -1       321 2.45857E+00
 -1       322 7.82343E-01
 -1       323 6.88655E-01
 -1       324 6.25353E-01
 -1       325 5.81015E-01
 -1       326 5.84240E-01
 -1       327 6.28004E-01
 -1       328 6.94747E-01
 -1       329 7.89851E-01
 -1       330 9.24958E-01
 -1       331 1.14436E+00
 -1       332 1.31133E+00
 -1       333 2.19961E+00
 -1       334 1.91053E+00
 -1       335 1.74529E+00
 -1       336 1.28303E+00
 -1       337 9.21468E-01
 -1       338 6.85157E-01
 -1       339 5.84103E-01
 -1       340 4.93351E-01
 -1       341 4.13135E-01
 -1       342 3.42826E-01
 -1       343 2.80446E-01
 -1       344 2.90562E-01
 -1       345 3.30228E-01
 -1       346 3.74993E-01
 -1       347 4.78709E-01
 -1       348 5.93804E-01
 -1       349 6.92782E-01
 -1       350 7.87033E-01
 -1       351 8.92266E-01
 -1       352 9.36632E-01
 -1       353 8.56645E-01
 -1       354 6.97922E-01
 -1       355 7.20985E-01
 -1       356 1.11507E+00
 -1       357 1.62214E+00
 -1       358 2.13230E+00
 -1       359 2.27966E+00
 -1       360 2.25067E+00
 -1       361 2.20619E+00
 -1       362 1.68669E+00
 -1       363 1.23835E+00
 -1       364 7.21200E-01
 -1       365 7.11940E-01
 -1       366 8.13889E-01
 -1       367 9.26484E-01
 -1       368 9.02062E-01
 -1       369 8.05252E-01
 -1       370 7.21476E-01
 -1       371 6.34659E-01
 -1       372 5.30724E-01
 -1       373 4.25670E-01
 -1       374 3.28998E-01
 -1       375 2.45395E-01
 -1       376 1.76407E-01
 -1       377 1.28667E-01
 -1       378 9.39478E-02
 -1       379 6.73297E-02
 -1       380 4.57078E-02
 -1       381 1.14627E+00
 -1       382 9.01507E-01
 -1       383 7.10671E-01
 -1       384 5.46045E-01
 -1       385 4.77836E-01
 -1       386 4.32555E-01
 -1       387 3.92618E-01
 -1       388 3.60376E-01
 -1       389 3.36253E-01
 -1       390 3.26674E-01
 -1       391 3.75798E-01
 -1       392 4.96434E-01
 -1       393 6.39736E-01
 -1       394 7.79144E-01
 -1       395 8.93263E-01
 -1       396 1.00170E+00
 -1       397 1.02901E+00
 -1       398 1.02901E+00
 -1       399 9.12500E-01
 -1       400 7.00161E-01
 -1       401 8.42793E-01
 -1       402 1.59754E+00
 -1       403 2.04641E+00
 -1       404 2.14710E+00
 -1       405 2.04946E+00
 -1       406 2.33538E+00
 -1       407 2.21038E+00
 -1       408 1.48079E+00
 -1       409 8.67981E-01
 -1       410 7.26724E-01
 -1       411 9.72251E-01
 -1       412 1.03017E+00
 -1       413 1.05615E+00
 -1       414 9.86385E-01
 -1       415 8.84273E-01
 -1       416 7.68000E-01
 -1       417 6.35145E-01
 -1       418 5.04911E-01
 -1       419 3.87798E-01
 -1       420 2.88265E-01
 -1       421 2.13855E-01
 -1       422 1.63259E-01
 -1       423 1.20953E-01
 -1       424 8.54524E-02
 -1       425 5.52500E-02
 -1       426 2.98442E-02
 -1       427 3.03224E-02
 -1       428 4.52885E-02
 -1       429 4.52885E-02
 -1       430 3.06165E-02
 -1       431 4.21351E-02
 -1       432 4.77136E-02
 -1       433 4.77136E-02
 -1       434 4.73368E-02
 -1       435 4.73368E-02
 -1       436 4.16627E-02
 -1       437 2.97600E-02
 -1       438 3.05173E-02
 -1       439 4.24050E-02
 -1       440 2.76756E+01
 -1       441 3.20234E+01
 -1       442 2.89257E+01
 -1       443 1.55590E+01
 -1       444 8.85800E+00
 -1       445 9.06109E-01
 -1       446 9.67514E+00
 -1       447 9.78158E+00
 -1       448 9.88808E+00
 -1       449 8.82739E+00
 -1       450 7.11821E+00
 -1       451 1.06684E+01
 -1       452 1.89148E+01
 -1       453 3.39258E+01
 -1       454 3.55820E+01
 -1       455 3.55820E+01
 -1       456 2.85727E+01
 -1       457 2.66510E+01
 -1       458 1.56054E+01
 -1       459 8.19727E+00
 -1       460 7.62899E+00
 -1       461 9.44189E+00
 -1       462 1.09909E+01
 -1       463 1.07184E+01
 -1       464 7.29250E+00
 -1       465 8.35370E+00
 -1       466 1.51480E+01
 -1       467 2.76688E+01
 -1       468 2.92081E+01
 -1       469 7.72880E+00
 -1       470 3.88971E+00
 -1       471 7.51625E+00
 -1       472 7.94181E+00
 -1       473 1.05984E+00
 -1       474 4.80584E-01
 -1       475 5.05754E-01
 -1       476 4.24695E-01
 -1       477 4.50988E-01
 -1       478 4.81121E-01
 -1       479 5.05807E-01
 -1       480 5.05807E-01
 -1       481 5.92228E-01
 -1       482 9.01507E-01
 -1       483 7.94678E-01
 -1       484 7.24245E+00
 -1       485 7.07383E-01
 -1       486 5.88753E-01
 -1       487 4.68300E-01
 -1       488 3.92821E-01
 -1       489 3.41516E-01
 -1       490 2.84710E-01
 -1       491 2.25396E-01
 -1       492 1.96480E-01
 -1       493 2.27013E-01
 -1       494 2.93658E-01
 -1       495 4.05271E-01
 -1       496 5.21490E-01
 -1       497 6.34832E-01
 -1       498 7.32455E-01
 -1       499 8.06164E-01
 -1       500 9.27981E-01
 -1       501 1.02234E+00
 -1       502 1.04921E+00
 -1       503 1.23529E+00
 -1       504 1.37421E+00
 -1       505 1.56746E+00
 -1       506 1.73204E+00
 -1       507 2.48239E+00
 -1       508 2.57666E+00
 -1       509 2.44872E+00
 -1       510 1.80186E+00
 -1       511 1.58216E+00
 -1       512 1.35659E+00
 -1       513 1.28762E+00
 -1       514 1.03989E+00
 -1       515 1.04336E+00
 -1       516 9.63512E-01
 -1       517 8.47803E-01
 -1       518 7.65976E-01
 -1       519 6.80401E-01
 -1       520 5.78025E-01
 -1       521 4.73453E-01
 -1       522 3.75688E-01
 -1       523 2.89491E-01
 -1       524 2.16722E-01
 -1       525 1.57453E-01
 -1       526 1.10756E-01
 -1       527 7.50678E-02
 -1       528 5.46045E-01
 -1       529 4.71218E-01
 -1       530 4.06042E-01
 -1       531 3.41118E-01
 -1       532 2.78316E-01
 -1       533 2.27456E-01
 -1       534 2.62928E-01
 -1       535 3.03853E-01
 -1       536 4.24664E-01
 -1       537 5.59732E-01
 -1       538 6.98113E-01
 -1       539 8.26529E-01
 -1       540 9.28542E-01
 -1       541 1.01454E+00
 -1       542 1.13138E+00
 -1       543 1.18338E+00
 -1       544 1.15942E+00
 -1       545 1.40738E+00
 -1       546 1.55109E+00
 -1       547 1.75652E+00
 -1       548 2.32309E+00
 -1       549 2.89838E+00
 -1       550 2.77855E+00
 -1       551 2.06690E+00
 -1       552 1.71154E+00
 -1       553 1.30020E+00
 -1       554 1.32894E+00
 -1       555 1.13702E+00
 -1       556 1.16315E+00
 -1       557 1.08556E+00
 -1       558 9.85596E-01
 -1       559 8.94114E-01
 -1       560 7.86915E-01
 -1       561 6.62527E-01
 -1       562 5.37055E-01
 -1       563 4.21462E-01
 -1       564 3.21065E-01
 -1       565 2.37522E-01
 -1       566 1.70432E-01
 -1       567 1.16721E-01
 -1       568 7.94822E-02
 -1       569 5.52500E-02
 -1       570 5.43028E-02
 -1       571 6.33360E-02
 -1       572 6.56422E-02
 -1       573 6.56422E-02
 -1       574 6.41030E-02
 -1       575 6.41030E-02
 -1       576 6.40834E-02
 -1       577 6.27456E-02
 -1       578 5.31798E-02
 -1       579 5.10884E-02
 -1       580 5.10884E-02
 -1       581 2.89257E+01
 -1       582 1.30458E+01
 -1       583 7.10671E-01
 -1       584 2.92081E+01
 -1       585 1.87381E+01
 -1       586 5.71378E+00
 -1       587 1.89569E+01
 -1       588 7.34964E+00
 -1       589 2.85727E+01
 -1       590 4.50863E-01
 -1       591 8.56394E+00
 -1       592 7.96497E+00
 -1       593 7.12447E+00
 -1       594 4.42281E+00
 -1       595 6.24877E+00
 -1       596 1.11036E+01
 -1       597 1.44819E+01
 -1       598 2.31122E+01
 -1       599 3.55820E+01
 -1       600 1.82032E+01
 -1       601 1.32057E+01
 -1       602 7.84414E+00
 -1       603 4.27570E+00
 -1       604 5.03149E+00
 -1       605 7.69195E+00
 -1       606 8.95870E+00
 -1       607 1.23979E+01
 -1       608 8.75222E-01
 -1       609 1.32346E+00
 -1       610 5.05754E-01
 -1       611 5.75292E+00
 -1       612 5.35064E+00
 -1       613 3.32845E+00
 -1       614 1.95150E+01
 -1       615 1.27911E+01
 -1       616 4.36484E+00
 -1       617 4.59545E-01
 -1       618 4.57078E-02
 -1       619 3.54286E-01
 -1       620 3.37125E-01
 -1       621 3.59616E-01
 -1       622 3.37486E-01
 -1       623 5.34793E-01
 -1       624 4.42411E+00
 -1       625 3.93031E-01
 -1       626 3.71298E-01
 -1       627 3.18216E-01
 -1       628 2.52007E-01
 -1       629 2.16052E-01
 -1       630 1.68225E-01
 -1       631 1.11573E-01
 -1       632 1.29481E-01
 -1       633 2.18843E-01
 -1       634 3.21055E-01
 -1       635 4.35519E-01
 -1       636 5.61421E-01
 -1       637 6.95640E-01
 -1       638 8.30829E-01
 -1       639 9.52074E-01
 -1       640 1.16746E+00
 -1       641 1.40666E+00
 -1       642 1.65065E+00
 -1       643 2.06736E+00
 -1       644 2.36539E+00
 -1       645 1.82146E+00
 -1       646 3.36112E+00
 -1       647 4.96740E+00
 -1       648 5.17651E+00
 -1       649 2.71788E+00
 -1       650 2.29398E+00
 -1       651 2.21770E+00
 -1       652 2.12692E+00
 -1       653 1.65080E+00
 -1       654 1.46700E+00
 -1       655 1.22807E+00
 -1       656 1.00147E+00
 -1       657 8.76176E-01
 -1       658 7.48615E-01
 -1       659 6.21647E-01
 -1       660 5.04146E-01
 -1       661 4.00168E-01
 -1       662 3.11066E-01
 -1       663 2.36686E-01
 -1       664 1.75963E-01
 -1       665 1.27543E-01
 -1       666 8.14650E-02
 -1       667 3.10601E-01
 -1       668 1.05286E-01
 -1       669 3.14658E+00
 -1       670 3.78484E-01
 -1       671 2.18311E-01
 -1       672 1.60310E-01
 -1       673 1.65326E-01
 -1       674 2.24924E-01
 -1       675 3.36516E-01
 -1       676 4.62397E-01
 -1       677 6.01889E-01
 -1       678 7.51593E-01
 -1       679 9.03580E-01
 -1       680 1.04275E+00
 -1       681 1.20514E+00
 -1       682 1.45964E+00
 -1       683 1.70787E+00
 -1       684 1.90852E+00
 -1       685 2.50116E+00
 -1       686 1.68390E+00
 -1       687 2.38199E+00
 -1       688 4.07697E+00
 -1       689 4.27594E+00
 -1       690 3.12616E+00
 -1       691 2.32100E+00
 -1       692 2.22790E+00
 -1       693 1.81767E+00
 -1       694 1.61925E+00
 -1       695 1.36949E+00
 -1       696 1.13160E+00
 -1       697 1.00593E+00
 -1       698 8.66416E-01
 -1       699 7.22292E-01
 -1       700 5.86120E-01
 -1       701 4.64419E-01
 -1       702 3.59805E-01
 -1       703 2.72551E-01
 -1       704 2.01618E-01
 -1       705 1.43447E-01
 -1       706 1.06963E-01
 -1       707 8.75698E-02
 -1       708 5.10884E-02
 -1       709 8.31588E-02
 -1       710 8.69440E-02
 -1       711 8.75698E-02
 -1       712 8.69440E-02
 -1       713 8.13393E-02
 -1       714 6.16731E-02
 -1       715 1.61709E+01
 -1       716 1.31841E+01
 -1       717 7.70688E+00
 -1       718 4.56821E-01
 -1       719 2.69376E-01
 -1       720 3.94851E-01
 -1       721 3.59616E-01
 -1       722 5.15358E-01
 -1       723 5.43659E+00
 -1       724 8.64544E+00
 -1       725 3.58190E-01
 -1       726 9.15368E+00
 -1       727 9.97430E+00
 -1       728 1.48702E+01
 -1       729 1.49513E+01
 -1       730 1.36496E+01
 -1       731 4.90676E+00
 -1       732 1.16571E+01
 -1       733 4.07697E+00
 -1       734 5.44859E+00
 -1       735 9.93332E+00
 -1       736 3.60260E+00
 -1       737 4.57749E+00
 -1       738 5.09494E+00
 -1       739 5.42459E+00
 -1       740 6.61332E+00
 -1       741 4.96740E+00
 -1       742 3.60403E-01
 -1       743 3.58190E-01
 -1       744 3.36627E-01
 -1       745 3.94141E+00
 -1       746 3.36112E+00
 -1       747 1.05286E-01
 -1       748 3.51196E+00
 -1       749 9.58096E+00
 -1       750 7.28550E+00
 -1       751 1.07886E+01
 -1       752 5.20265E+00
 -1       753 3.53353E-01
 -1       754 3.03581E+00
 -1       755 6.07045E-02
 -1       756 2.40990E-01
 -1       757 2.32828E-01
 -1       758 2.11456E-01
 -1       759 1.69750E-01
 -1       760 1.28726E-01
 -1       761 9.96235E-02
 -1       762 1.06928E-01
 -1       763 1.71328E-01
 -1       764 2.54850E-01
 -1       765 3.56396E-01
 -1       766 4.72765E-01
 -1       767 6.13964E-01
 -1       768 7.90950E-01
 -1       769 1.01340E+00
 -1       770 1.27365E+00
 -1       771 1.53212E+00
 -1       772 1.94756E+00
 -1       773 2.58381E+00
 -1       774 4.15544E+00
 -1       775 2.70674E+00
 -1       776 2.74353E+00
 -1       777 3.35860E+00
 -1       778 2.62445E+00
 -1       779 2.17988E+00
 -1       780 1.62233E+00
 -1       781 1.34066E+00
 -1       782 1.08174E+00
 -1       783 8.54420E-01
 -1       784 6.80671E-01
 -1       785 5.33047E-01
 -1       786 4.26608E-01
 -1       787 3.36235E-01
 -1       788 2.57429E-01
 -1       789 1.91347E-01
 -1       790 1.37220E-01
 -1       791 9.54209E-02
 -1       792 1.13554E-01
 -1       793 8.72130E-02
 -1       794 1.07228E-01
 -1       795 2.38017E-01
 -1       796 3.46448E-01
 -1       797 4.79066E-01
 -1       798 6.38628E-01
 -1       799 8.24262E-01
 -1       800 1.04300E+00
 -1       801 1.30719E+00
 -1       802 1.58118E+00
 -1       803 1.98300E+00
 -1       804 2.64812E+00
 -1       805 3.91034E+00
 -1       806 3.72964E+00
 -1       807 4.26421E+00
 -1       808 2.44079E+00
 -1       809 1.79274E+00
 -1       810 1.48389E+00
 -1       811 1.21445E+00
 -1       812 9.72138E-01
 -1       813 7.79550E-01
 -1       814 6.13849E-01
 -1       815 4.75971E-01
 -1       816 3.64417E-01
 -1       817 2.77645E-01
 -1       818 2.08160E-01
 -1       819 1.51200E-01
 -1       820 2.82173E-01
 -1       821 9.77712E-02
 -1       822 1.11578E-01
 -1       823 5.17651E+00
 -1       824 8.49843E+00
 -1       825 9.10045E+00
 -1       826 2.55688E-01
 -1       827 6.42717E+00
 -1       828 9.64499E+00
 -1       829 5.18402E+00
 -1       830 2.86865E-01
 -1       831 1.13554E-01
 -1       832 3.01987E+00
 -1       833 1.48438E-01
 -1       834 2.67868E-01
 -1       835 2.74183E-01
 -1       836 7.25322E+00
 -1       837 2.53721E-01
 -1       838 9.45496E+00
 -1       839 8.22626E+00
 -1       840 2.21328E-01
 -1       841 3.12616E+00
 -1       842 5.35064E+00
 -1       843 6.79854E+00
 -1       844 8.59269E+00
 -1       845 2.90680E+00
 -1       846 2.73020E-01
 -1       847 2.82173E-01
 -1       848 1.03114E-01
 -1       849 6.80586E+00
 -1       850 3.03581E+00
 -1       851 2.78581E-01
 -1       852 2.01851E-01
 -1       853 1.55435E-01
 -1       854 1.29022E-01
 -1       855 1.14294E-01
 -1       856 1.14294E-01
 -1       857 6.42820E+00
 -1       858 4.29726E+00
 -1       859 8.49843E+00
 -1       860 4.73029E+00
 -1       861 1.05286E-01
 -1       862 2.82138E-01
 -1       863 2.76758E-01
 -1       864 7.67484E+00
 -1       865 5.52420E+00
 -1       866 8.66477E-02
 -1       867 2.65695E-01
 -1       868 6.52353E+00
 -1       869 1.40004E-01
 -1       870 1.12350E-01
 -1       871 1.24326E-01
 -1       872 1.42196E-01
 -1       873 1.68732E-01
 -1       874 2.52701E-01
 -1       875 3.54572E-01
 -1       876 4.72765E-01
 -1       877 6.07436E-01
 -1       878 7.56259E-01
 -1       879 9.75727E-01
 -1       880 1.27299E+00
 -1       881 1.79300E+00
 -1       882 2.84572E+00
 -1       883 3.70712E+00
 -1       884 5.27545E+00
 -1       885 6.00421E+00
 -1       886 3.37510E+00
 -1       887 2.25901E+00
 -1       888 1.92707E+00
 -1       889 1.38311E+00
 -1       890 1.03093E+00
 -1       891 8.06802E-01
 -1       892 6.61973E-01
 -1       893 5.31579E-01
 -1       894 4.18898E-01
 -1       895 3.23953E-01
 -1       896 2.45303E-01
 -1       897 1.81338E-01
 -1       898 4.65224E-01
 -1       899 3.39060E-01
 -1       900 7.76965E-01
 -1       901 9.79080E-01
 -1       902 1.27038E+00
 -1       903 1.74706E+00
 -1       904 2.75369E+00
 -1       905 4.55864E+00
 -1       906 3.74159E+00
 -1       907 1.16214E+00
 -1       908 9.04558E-01
 -1       909 7.37204E-01
 -1       910 5.87418E-01
 -1       911 4.59197E-01
 -1       912 3.52274E-01
 -1       913 2.64771E-01
 -1       914 1.95261E-01
 -1       915 5.98642E+00
 -1       916 1.52242E-01
 -1       917 1.42250E-01
 -1       918 1.53854E+00
 -1       919 2.14013E+00
 -1       920 7.14788E+00
 -1       921 1.81926E-01
 -1       922 6.11539E-01
 -1       923 2.82138E-01
 -1       924 4.26878E+00
 -1       925 1.26802E-01
 -1       926 4.52821E+00
 -1       927 1.27275E-01
 -1       928 1.47179E-01
 -1       929 4.80686E+00
 -1       930 1.47821E-01
 -1       931 6.03875E+00
 -1       932 5.44658E+00
 -1       933 5.13082E+00
 -1       934 1.66396E-01
 -1       935 1.27002E-01
 -1       936 1.67916E-01
 -1       937 1.11558E-01
 -1       938 2.31747E-01
 -1       939 2.07135E-01
 -1       940 1.51356E-01
 -1       941 1.46924E-01
 -1       942 5.08143E+00
 -1       943 1.52242E-01
 -1       944 1.57143E-01
 -1       945 2.07135E-01
 -1       946 1.41199E-01
 -1       947 5.11779E+00
 -1       948 1.65050E-01
 -1       949 1.66596E-01
 -1       950 1.09485E-01
 -1       951 1.98443E-01
 -1       952 1.31953E-01
 -1       953 1.57666E-01
 -1       954 1.83412E-01
 -1       955 2.28067E-01
 -1       956 3.20645E-01
 -1       957 4.34376E-01
 -1       958 5.75408E-01
 -1       959 7.52032E-01
 -1       960 9.75727E-01
 -1       961 1.25954E+00
 -1       962 1.68087E+00
 -1       963 2.60858E+00
 -1       964 3.13333E+00
 -1       965 9.61142E-02
 -1       966 1.65142E+00
 -1       967 2.49263E+00
 -1       968 1.65593E+00
 -1       969 1.31626E+00
 -1       970 1.03093E+00
 -1       971 8.02796E-01
 -1       972 6.23660E-01
 -1       973 4.82410E-01
 -1       974 3.70287E-01
 -1       975 2.81427E-01
 -1       976 2.10474E-01
 -1       977 1.27038E+00
 -1       978 9.79080E-01
 -1       979 2.67442E+00
 -1       980 4.78978E+00
 -1       981 1.34050E-01
 -1       982 4.79504E+00
 -1       983 1.49022E+00
 -1       984 6.97583E-01
 -1       985 2.01327E-01
 -1       986 1.94900E-01
 -1       987 2.42735E+00
 -1       988 1.16214E+00
 -1       989 5.38923E-01
 -1       990 4.13008E-01
 -1       991 3.13405E-01
 -1       992 2.34814E-01
 -1       993 1.57143E-01
 -1       994 9.73552E-02
 -1       995 3.74159E+00
 -1       996 1.81679E-01
 -1       997 4.24473E-01
 -1       998 2.64920E+00
 -1       999 8.61793E-02
 -1      1000 1.10996E-01
 -1      1001 9.00903E-01
 -1      1002 2.00268E+00
 -1      1003 4.47303E+00
 -1      1004 3.50280E+00
 -1      1005 1.34516E-01
 -1      1006 1.43651E-01
 -1      1007 3.07622E-01
 -1      1008 4.63898E+00
 -1      1009 1.66841E-01
 -1      1010 1.77762E-01
 -1      1011 5.69654E-01
 -1      1012 4.32776E+00
 -1      1013 4.55623E+00
 -1      1014 1.34516E-01
 -1      1015 1.79858E-01
 -1      1016 1.79858E-01
 -1      1017 7.50701E-01
 -1      1018 1.17277E-01
 -1      1019 3.89273E+00
 -1      1020 3.33828E+00
 -1      1021 1.32625E-01
 -1      1022 1.59652E-01
 -1      1023 1.90894E-01
 -1      1024 2.21539E-01
 -1      1025 2.67045E-01
 -1      1026 3.56726E-01
 -1      1027 4.79132E-01
 -1      1028 6.43855E-01
 -1      1029 8.71390E-01
 -1      1030 1.19707E+00
 -1      1031 1.68087E+00
 -1      1032 2.60858E+00
 -1      1033 1.13011E-01
 -1      1034 2.61892E+00
 -1      1035 6.73595E-02
 -1      1036 1.71829E+00
 -1      1037 1.14999E+00
 -1      1038 8.32142E-01
 -1      1039 6.24562E-01
 -1      1040 4.68830E-01
 -1      1041 3.53987E-01
 -1      1042 2.99173E-01
 -1      1043 1.78692E-01
 -1      1044 1.60688E+00
 -1      1045 1.30065E-01
 -1      1046 1.16115E+00
 -1      1047 1.20057E-01
 -1      1048 5.80771E-01
 -1      1049 2.12659E-01
 -1      1050 4.40229E-01
 -1      1051 1.44050E+00
 -1      1052 3.32372E-01
 -1      1053 2.51873E-01
 -1      1054 2.03816E+00
 -1      1055 1.20123E-01
 -1      1056 1.03408E-01
 -1      1057 1.03395E+00
 -1      1058 1.67405E-01
 -1      1059 8.50978E-01
 -1      1060 1.97692E-01
 -1      1061 7.67369E-01
 -1      1062 3.02757E+00
 -1      1063 2.00268E+00
 -1      1064 3.22833E+00
 -1      1065 6.31888E-01
 -1      1066 1.45530E-01
 -1      1067 3.52961E+00
 -1      1068 3.36587E+00
 -1      1069 6.34439E-02
 -1      1070 1.67158E-01
 -1      1071 3.32338E-01
 -1      1072 4.70949E-01
 -1      1073 3.91267E-01
 -1      1074 3.32338E-01
 -1      1075 6.58721E-02
 -1      1076 1.05174E+00
 -1      1077 1.90894E-01
 -1      1078 2.21539E-01
 -1      1079 2.67045E-01
 -1      1080 3.41711E-01
 -1      1081 4.44541E-01
 -1      1082 5.84208E-01
 -1      1083 7.73511E-01
 -1      1084 1.00983E+00
 -1      1085 1.31235E+00
 -1      1086 1.77303E+00
 -1      1087 3.12586E+00
 -1      1088 1.16613E+00
 -1      1089 1.24425E-01
 -1      1090 1.42216E+00
 -1      1091 1.04763E+00
 -1      1092 7.16196E-01
 -1      1093 4.96915E-01
 -1      1094 3.84843E-01
 -1      1095 3.10044E-01
 -1      1096 4.78994E-01
 -1      1097 8.37931E-02
 -1      1098 9.39503E-02
 -1      1099 2.27038E+00
 -1      1100 3.07657E-01
 -1      1101 1.91833E-01
 -1      1102 8.58625E-01
 -1      1103 2.76037E+00
 -1      1104 3.64672E-01
 -1      1105 6.18831E-01
 -1      1106 3.75739E+00
 -1      1107 1.04763E+00
 -1      1108 8.37931E-02
 -1      1109 1.68859E+00
 -1      1110 1.59652E-01
 -1      1111 2.49640E+00
 -1      1112 1.14489E-01
 -1      1113 1.29097E+00
 -1      1114 2.53512E+00
 -1      1115 6.33672E-01
 -1      1116 2.61605E-01
 -1      1117 1.46862E-01
 -1      1118 3.84843E-01
 -1      1119 1.99850E-01
 -1      1120 4.95551E-01
 -1      1121 3.92782E-01
 -1      1122 1.58858E-01
 -1      1123 1.61558E+00
 -1      1124 2.39396E+00
 -1      1125 2.51830E-01
 -1      1126 3.91267E-01
 -1      1127 1.26244E+00
 -1      1128 1.94037E+00
 -1      1129 1.90554E-01
 -1      1130 1.14489E-01
 -1      1131 1.31475E+01
 -1      1132 8.39557E+00
 -1      1133 2.72602E+00
 -1      1134 1.54468E+00
 -1      1135 1.15822E+00
 -1      1136 9.63728E-01
 -1      1137 8.46384E-01
 -1      1138 7.73880E-01
 -1      1139 7.47961E-01
 -1      1140 7.77046E-01
 -1      1141 8.49036E-01
 -1      1142 9.68629E-01
 -1      1143 1.17141E+00
 -1      1144 1.55783E+00
 -1      1145 2.65119E+00
 -1      1146 6.05816E+00
 -1      1147 1.13374E+01
 -1      1148 1.31475E+01
 -1      1149 8.74337E+00
 -1      1150 3.85198E+00
 -1      1151 2.75104E+00
 -1      1152 1.76539E+00
 -1      1153 1.22916E+00
 -1      1154 9.51508E-01
 -1      1155 7.55254E-01
 -1      1156 6.10120E-01
 -1      1157 5.00803E-01
 -1      1158 4.18294E-01
 -1      1159 3.75772E-01
 -1      1160 3.93075E-01
 -1      1161 4.45984E-01
 -1      1162 5.04024E-01
 -1      1163 5.66224E-01
 -1      1164 6.77870E-01
 -1      1165 8.54045E-01
 -1      1166 1.04219E+00
 -1      1167 1.18465E+00
 -1      1168 1.23622E+00
 -1      1169 1.25194E+00
 -1      1170 1.26766E+00
 -1      1171 1.44768E+00
 -1      1172 2.12213E+00
 -1      1173 3.10544E+00
 -1      1174 3.60780E+00
 -1      1175 3.65493E+00
 -1      1176 3.68858E+00
 -1      1177 3.27877E+00
 -1      1178 2.27357E+00
 -1      1179 1.48877E+00
 -1      1180 1.27645E+00
 -1      1181 1.24080E+00
 -1      1182 1.22804E+00
 -1      1183 1.18815E+00
 -1      1184 1.06119E+00
 -1      1185 8.75464E-01
 -1      1186 6.98203E-01
 -1      1187 5.58659E-01
 -1      1188 4.61447E-01
 -1      1189 3.87529E-01
 -1      1190 3.14571E-01
 -1      1191 2.48100E-01
 -1      1192 1.90407E-01
 -1      1193 1.47483E-01
 -1      1194 1.21715E-01
 -1      1195 9.92782E-02
 -1      1196 6.53875E-02
 -1      1197 2.89260E-02
 -1      1198 1.40438E+01
 -1      1199 8.72913E+00
 -1      1200 2.92508E+00
 -1      1201 2.06371E+00
 -1      1202 1.43333E+00
 -1      1203 1.06797E+00
 -1      1204 8.81932E-01
 -1      1205 7.41405E-01
 -1      1206 6.32802E-01
 -1      1207 5.50752E-01
 -1      1208 4.91961E-01
 -1      1209 4.53389E-01
 -1      1210 4.36647E-01
 -1      1211 4.68417E-01
 -1      1212 5.39448E-01
 -1      1213 6.11580E-01
 -1      1214 6.70249E-01
 -1      1215 7.01500E-01
 -1      1216 8.00397E-01
 -1      1217 1.00058E+00
 -1      1218 1.17026E+00
 -1      1219 1.35698E+00
 -1      1220 1.56054E+00
 -1      1221 1.71313E+00
 -1      1222 1.96212E+00
 -1      1223 2.68051E+00
 -1      1224 3.42625E+00
 -1      1225 3.89089E+00
 -1      1226 4.15412E+00
 -1      1227 3.78484E+00
 -1      1228 2.69488E+00
 -1      1229 1.64235E+00
 -1      1230 1.27783E+00
 -1      1231 1.33638E+00
 -1      1232 1.42762E+00
 -1      1233 1.40223E+00
 -1      1234 1.29121E+00
 -1      1235 1.11038E+00
 -1      1236 9.23654E-01
 -1      1237 7.42892E-01
 -1      1238 5.74089E-01
 -1      1239 4.31069E-01
 -1      1240 3.28673E-01
 -1      1241 2.56271E-01
 -1      1242 1.94861E-01
 -1      1243 1.43746E-01
 -1      1244 1.00808E-01
 -1      1245 7.30720E-02
 -1      1246 5.07750E-02
 -1      1247 2.40026E-02
 -1      1248 1.29703E-02
 -1      1249 1.50380E-02
 -1      1250 1.56973E-02
 -1      1251 1.30425E-02
 -1      1252 8.13207E-03
 -1      1253 8.67860E-03
 -1      1254 1.33524E-02
 -1      1255 1.57764E-02
 -1      1256 1.63288E-02
 -1      1257 1.57133E-02
 -1      1258 1.31424E-02
 -1      1259 8.50639E-03
 -1      1260 8.16126E-03
 -1      1261 1.29078E-02
 -1      1262 1.71882E-02
 -1      1263 1.98579E-02
 -1      1264 1.69766E-02
 -1      1265 2.64140E+01
 -1      1266 3.64197E+01
 -1      1267 4.64254E+01
 -1      1268 3.25267E+01
 -1      1269 1.52299E+01
 -1      1270 1.19039E+01
 -1      1271 1.19867E+01
 -1      1272 1.22181E+01
 -1      1273 1.24390E+01
 -1      1274 1.22443E+01
 -1      1275 1.86279E+01
 -1      1276 2.77649E+01
 -1      1277 3.03237E+01
 -1      1278 2.74811E+01
 -1      1279 2.50537E+01
 -1      1280 2.54689E+01
 -1      1281 3.55352E+01
 -1      1282 4.56015E+01
 -1      1283 3.14926E+01
 -1      1284 1.54128E+01
 -1      1285 1.34418E+01
 -1      1286 1.30763E+01
 -1      1287 1.29316E+01
 -1      1288 1.31524E+01
 -1      1289 1.51813E+01
 -1      1290 3.11234E+01
 -1      1291 4.50365E+01
 -1      1292 3.53634E+01
 -1      1293 2.60522E+01
 -1      1294 1.31475E+01
 -1      1295 4.84823E+00
 -1      1296 9.60015E+00
 -1      1297 2.04555E+00
 -1      1298 2.96318E+00
 -1      1299 4.16776E+00
 -1      1300 1.38906E+00
 -1      1301 1.65278E+00
 -1      1302 1.88994E+00
 -1      1303 1.09315E+00
 -1      1304 1.21589E+00
 -1      1305 1.32399E+00
 -1      1306 9.28545E-01
 -1      1307 1.00030E+00
 -1      1308 1.05797E+00
 -1      1309 8.29112E-01
 -1      1310 8.74700E-01
 -1      1311 9.11273E-01
 -1      1312 7.67953E-01
 -1      1313 7.94869E-01
 -1      1314 8.23185E-01
 -1      1315 7.48958E-01
 -1      1316 7.47961E-01
 -1      1317 7.68950E-01
 -1      1318 7.98777E-01
 -1      1319 7.70689E-01
 -1      1320 7.70689E-01
 -1      1321 8.76669E-01
 -1      1322 8.32769E-01
 -1      1323 8.26411E-01
 -1      1324 1.00920E+00
 -1      1325 9.33504E-01
 -1      1326 9.17237E-01
 -1      1327 1.23176E+00
 -1      1328 1.10467E+00
 -1      1329 1.06954E+00
 -1      1330 1.66797E+00
 -1      1331 1.40864E+00
 -1      1332 1.34190E+00
 -1      1333 2.86771E+00
 -1      1334 2.03368E+00
 -1      1335 1.88449E+00
 -1      1336 6.27351E+00
 -1      1337 3.70056E+00
 -1      1338 3.08306E+00
 -1      1339 1.40438E+01
 -1      1340 1.13374E+01
 -1      1341 8.97984E+00
 -1      1342 1.40438E+01
 -1      1343 8.74337E+00
 -1      1344 4.33926E+00
 -1      1345 3.85198E+00
 -1      1346 3.36470E+00
 -1      1347 3.85198E+00
 -1      1348 2.75104E+00
 -1      1349 2.13738E+00
 -1      1350 2.75104E+00
 -1      1351 1.80288E+00
 -1      1352 1.43089E+00
 -1      1353 1.80288E+00
 -1      1354 1.22916E+00
 -1      1355 1.06491E+00
 -1      1356 1.26664E+00
 -1      1357 9.51508E-01
 -1      1358 8.38101E-01
 -1      1359 9.51508E-01
 -1      1360 7.55254E-01
 -1      1361 6.72408E-01
 -1      1362 7.55254E-01
 -1      1363 6.10120E-01
 -1      1364 5.47833E-01
 -1      1365 6.10120E-01
 -1      1366 5.00803E-01
 -1      1367 4.53773E-01
 -1      1368 5.00803E-01
 -1      1369 4.18294E-01
 -1      1370 3.82815E-01
 -1      1371 4.18294E-01
 -1      1372 3.57069E-01
 -1      1373 3.50025E-01
 -1      1374 3.57069E-01
 -1      1375 3.68728E-01
 -1      1376 3.93075E-01
 -1      1377 3.50025E-01
 -1      1378 4.17423E-01
 -1      1379 4.45984E-01
 -1      1380 3.93075E-01
 -1      1381 4.74545E-01
 -1      1382 5.04024E-01
 -1      1383 4.45984E-01
 -1      1384 5.40198E-01
 -1      1385 5.72919E-01
 -1      1386 5.10719E-01
 -1      1387 6.34607E-01
 -1      1388 7.13532E-01
 -1      1389 6.08580E-01
 -1      1390 7.73732E-01
 -1      1391 8.70982E-01
 -1      1392 7.30469E-01
 -1      1393 9.51294E-01
 -1      1394 1.04219E+00
 -1      1395 8.70982E-01
 -1      1396 1.13309E+00
 -1      1397 1.18465E+00
 -1      1398 1.04219E+00
 -1      1399 1.23622E+00
 -1      1400 1.23622E+00
 -1      1401 1.18465E+00
 -1      1402 1.20158E+00
 -1      1403 1.21730E+00
 -1      1404 1.20158E+00
 -1      1405 1.26766E+00
 -1      1406 1.26766E+00
 -1      1407 1.21730E+00
 -1      1408 1.23030E+00
 -1      1409 1.41033E+00
 -1      1410 1.23030E+00
 -1      1411 1.62771E+00
 -1      1412 2.12213E+00
 -1      1413 1.41033E+00
 -1      1414 2.61656E+00
 -1      1415 3.10544E+00
 -1      1416 2.12213E+00
 -1      1417 3.59432E+00
 -1      1418 3.60780E+00
 -1      1419 3.10544E+00
 -1      1420 3.62127E+00
 -1      1421 3.65493E+00
 -1      1422 3.60780E+00
 -1      1423 3.68858E+00
 -1      1424 3.68858E+00
 -1      1425 3.65493E+00
 -1      1426 3.27877E+00
 -1      1427 2.86896E+00
 -1      1428 3.27877E+00
 -1      1429 2.33073E+00
 -1      1430 1.73534E+00
 -1      1431 2.33073E+00
 -1      1432 1.48877E+00
 -1      1433 1.29935E+00
 -1      1434 1.54593E+00
 -1      1435 1.27645E+00
 -1      1436 1.25355E+00
 -1      1437 1.27645E+00
 -1      1438 1.22583E+00
 -1      1439 1.21308E+00
 -1      1440 1.22583E+00
 -1      1441 1.22804E+00
 -1      1442 1.22804E+00
 -1      1443 1.21308E+00
 -1      1444 1.18815E+00
 -1      1445 1.14825E+00
 -1      1446 1.18815E+00
 -1      1447 1.06119E+00
 -1      1448 9.74125E-01
 -1      1449 1.06119E+00
 -1      1450 8.92727E-01
 -1      1451 7.94066E-01
 -1      1452 8.92727E-01
 -1      1453 7.36780E-01
 -1      1454 6.58180E-01
 -1      1455 7.54043E-01
 -1      1456 6.00561E-01
 -1      1457 5.39617E-01
 -1      1458 6.39138E-01
 -1      1459 4.80109E-01
 -1      1460 4.43841E-01
 -1      1461 5.22011E-01
 -1      1462 3.88766E-01
 -1      1463 3.51118E-01
 -1      1464 4.07429E-01
 -1      1465 3.14571E-01
 -1      1466 2.79261E-01
 -1      1467 3.15808E-01
 -1      1468 2.48345E-01
 -1      1469 2.17185E-01
 -1      1470 2.48345E-01
 -1      1471 1.93288E-01
 -1      1472 1.66755E-01
 -1      1473 1.93533E-01
 -1      1474 1.47483E-01
 -1      1475 1.31092E-01
 -1      1476 1.50364E-01
 -1      1477 1.21715E-01
 -1      1478 1.12338E-01
 -1      1479 1.21715E-01
 -1      1480 9.92782E-02
 -1      1481 8.62180E-02
 -1      1482 9.92782E-02
 -1      1483 6.74245E-02
 -1      1484 4.65940E-02
 -1      1485 6.74245E-02
 -1      1486 3.26076E-02
 -1      1487 3.46446E-02
 -1      1488 3.41449E+00
 -1      1489 8.72913E+00
 -1      1490 8.72913E+00
 -1      1491 2.43567E+00
 -1      1492 2.92508E+00
 -1      1493 2.92508E+00
 -1      1494 1.69175E+00
 -1      1495 2.06371E+00
 -1      1496 2.06371E+00
 -1      1497 1.17490E+00
 -1      1498 1.43333E+00
 -1      1499 1.43333E+00
 -1      1500 9.61050E-01
 -1      1501 1.06797E+00
 -1      1502 1.06797E+00
 -1      1503 8.02814E-01
 -1      1504 8.81932E-01
 -1      1505 8.81932E-01
 -1      1506 6.79997E-01
 -1      1507 7.41405E-01
 -1      1508 7.41405E-01
 -1      1509 5.85608E-01
 -1      1510 6.32802E-01
 -1      1511 6.32802E-01
 -1      1512 5.15896E-01
 -1      1513 5.50752E-01
 -1      1514 5.50752E-01
 -1      1515 4.68027E-01
 -1      1516 4.91961E-01
 -1      1517 4.91961E-01
 -1      1518 4.38751E-01
 -1      1519 4.53389E-01
 -1      1520 4.53389E-01
 -1      1521 4.29099E-01
 -1      1522 4.31204E-01
 -1      1523 4.31204E-01
 -1      1524 4.68417E-01
 -1      1525 4.34542E-01
 -1      1526 4.29099E-01
 -1      1527 5.39448E-01
 -1      1528 5.02293E-01
 -1      1529 4.68417E-01
 -1      1530 6.11580E-01
 -1      1531 5.76603E-01
 -1      1532 5.39448E-01
 -1      1533 6.70249E-01
 -1      1534 6.46556E-01
 -1      1535 6.11580E-01
 -1      1536 7.01500E-01
 -1      1537 6.93941E-01
 -1      1538 6.70249E-01
 -1      1539 8.31730E-01
 -1      1540 7.40393E-01
 -1      1541 7.32834E-01
 -1      1542 1.00934E+00
 -1      1543 9.00495E-01
 -1      1544 8.40492E-01
 -1      1545 1.17026E+00
 -1      1546 1.10943E+00
 -1      1547 1.00934E+00
 -1      1548 1.35698E+00
 -1      1549 1.23108E+00
 -1      1550 1.17026E+00
 -1      1551 1.56054E+00
 -1      1552 1.48287E+00
 -1      1553 1.35698E+00
 -1      1554 1.71313E+00
 -1      1555 1.63821E+00
 -1      1556 1.56054E+00
 -1      1557 1.96212E+00
 -1      1558 1.78805E+00
 -1      1559 1.71313E+00
 -1      1560 2.72202E+00
 -1      1561 2.17770E+00
 -1      1562 2.00364E+00
 -1      1563 3.42625E+00
 -1      1564 3.22483E+00
 -1      1565 2.72202E+00
 -1      1566 3.89089E+00
 -1      1567 3.62767E+00
 -1      1568 3.42625E+00
 -1      1569 4.15412E+00
 -1      1570 4.15412E+00
 -1      1571 3.89089E+00
 -1      1572 3.41557E+00
 -1      1573 3.78484E+00
 -1      1574 3.78484E+00
 -1      1575 1.97419E+00
 -1      1576 2.69488E+00
 -1      1577 2.69488E+00
 -1      1578 1.31052E+00
 -1      1579 1.64235E+00
 -1      1580 1.64235E+00
 -1      1581 1.20386E+00
 -1      1582 1.23655E+00
 -1      1583 1.23655E+00
 -1      1584 1.33638E+00
 -1      1585 1.24514E+00
 -1      1586 1.20386E+00
 -1      1587 1.42762E+00
 -1      1588 1.42762E+00
 -1      1589 1.33638E+00
 -1      1590 1.37684E+00
 -1      1591 1.40223E+00
 -1      1592 1.40223E+00
 -1      1593 1.20559E+00
 -1      1594 1.29121E+00
 -1      1595 1.29121E+00
 -1      1596 1.01518E+00
 -1      1597 1.11038E+00
 -1      1598 1.11038E+00
 -1      1599 8.36592E-01
 -1      1600 9.28115E-01
 -1      1601 9.28115E-01
 -1      1602 6.66698E-01
 -1      1603 7.55937E-01
 -1      1604 7.60398E-01
 -1      1605 5.11616E-01
 -1      1606 5.91181E-01
 -1      1607 6.04226E-01
 -1      1608 3.82320E-01
 -1      1609 4.45775E-01
 -1      1610 4.62868E-01
 -1      1611 2.89733E-01
 -1      1612 3.28673E-01
 -1      1613 3.43380E-01
 -1      1614 2.22808E-01
 -1      1615 2.56271E-01
 -1      1616 2.56271E-01
 -1      1617 1.66913E-01
 -1      1618 1.94861E-01
 -1      1619 1.94861E-01
 -1      1620 1.20766E-01
 -1      1621 1.43933E-01
 -1      1622 1.43933E-01
 -1      1623 8.32449E-02
 -1      1624 1.03016E-01
 -1      1625 1.03203E-01
 -1      1626 6.51066E-02
 -1      1627 7.30720E-02
 -1      1628 7.52795E-02
 -1      1629 3.64434E-02
 -1      1630 5.07750E-02
 -1      1631 5.07750E-02
 -1      1632 2.54111E-02
 -1      1633 1.95796E-02
 -1      1634 1.89203E-02
 -1      1635 2.11989E-02
 -1      1636 2.11989E-02
 -1      1637 2.50812E-02
 -1      1638 1.85441E-02
 -1      1639 2.11989E-02
 -1      1640 2.67004E-02
 -1      1641 1.01817E-02
 -1      1642 1.24373E-02
 -1      1643 2.05936E-02
 -1      1644 1.67232E-02
 -1      1645 1.39211E-02
 -1      1646 1.82263E-02
 -1      1647 2.23889E-02
 -1      1648 2.05172E-02
 -1      1649 2.57597E-02
 -1      1650 2.44787E-02
 -1      1651 2.39263E-02
 -1      1652 3.10912E-02
 -1      1653 2.44787E-02
 -1      1654 2.44787E-02
 -1      1655 3.26286E-02
 -1      1656 2.38335E-02
 -1      1657 2.44490E-02
 -1      1658 3.25989E-02
 -1      1659 2.01546E-02
 -1      1660 2.21100E-02
 -1      1661 3.08457E-02
 -1      1662 1.37462E-02
 -1      1663 1.64269E-02
 -1      1664 2.53944E-02
 -1      1665 1.26372E-02
 -1      1666 1.03016E-02
 -1      1667 1.82221E-02
 -1      1668 2.09522E-02
 -1      1669 1.85412E-02
 -1      1670 2.06816E-02
 -1      1671 2.28217E-02
 -1      1672 2.09522E-02
 -1      1673 2.65856E-02
 -1      1674 2.54677E-02
 -1      1675 2.46675E-02
 -1      1676 2.84314E-02
 -1      1677 3.94541E-02
 -1      1678 2.92187E+01
 -1      1679 2.92187E+01
 -1      1680 3.70505E+01
 -1      1681 2.70448E+01
 -1      1682 4.64254E+01
 -1      1683 4.64254E+01
 -1      1684 1.92673E+01
 -1      1685 3.31661E+01
 -1      1686 1.17197E+01
 -1      1687 1.51177E+01
 -1      1688 1.19039E+01
 -1      1689 1.18318E+01
 -1      1690 1.19867E+01
 -1      1691 1.19760E+01
 -1      1692 1.22181E+01
 -1      1693 1.19973E+01
 -1      1694 1.24390E+01
 -1      1695 1.24390E+01
 -1      1696 1.18132E+01
 -1      1697 1.20078E+01
 -1      1698 1.86279E+01
 -1      1699 1.20497E+01
 -1      1700 2.91703E+01
 -1      1701 2.66115E+01
 -1      1702 3.21247E+01
 -1      1703 3.21247E+01
 -1      1704 2.92821E+01
 -1      1705 3.21247E+01
 -1      1706 2.76812E+01
 -1      1707 2.72660E+01
 -1      1708 2.76812E+01
 -1      1709 2.76812E+01
 -1      1710 4.21620E+01
 -1      1711 3.20957E+01
 -1      1712 4.56015E+01
 -1      1713 4.56015E+01
 -1      1714 1.78645E+01
 -1      1715 3.19734E+01
 -1      1716 1.25032E+01
 -1      1717 1.44741E+01
 -1      1718 1.34418E+01
 -1      1719 1.34418E+01
 -1      1720 1.27108E+01
 -1      1721 1.30763E+01
 -1      1722 1.25597E+01
 -1      1723 1.23389E+01
 -1      1724 1.31524E+01
 -1      1725 1.31524E+01
 -1      1726 1.43743E+01
 -1      1727 1.23453E+01
 -1      1728 3.13043E+01
 -1      1729 1.73911E+01
 -1      1730 4.50365E+01
 -1      1731 4.50365E+01
 -1      1732 3.24497E+01
 -1      1733 4.21228E+01
 -1      1734 2.92187E+01
 -1      1735 2.88569E+01
 -1      1736 1.57572E+01
 -1      1737 3.31661E+01
 -1      1738 2.54111E-02
 -1      1739 2.99526E-02
 -1      1740 2.98495E+01
 -1      1741 3.70505E+01
 -1      1742 3.20234E+01
 -1      1743 1.17197E+01
 -1      1744 1.19039E+01
 -1      1745 1.19867E+01
 -1      1746 1.22181E+01
 -1      1747 1.20078E+01
 -1      1748 1.18132E+01
 -1      1749 2.00333E+01
 -1      1750 3.09713E+01
 -1      1751 3.39258E+01
 -1      1752 3.19097E+01
 -1      1753 2.98936E+01
 -1      1754 3.43080E+01
 -1      1755 4.21620E+01
 -1      1756 3.19734E+01
 -1      1757 1.49549E+01
 -1      1758 1.25032E+01
 -1      1759 1.30763E+01
 -1      1760 1.23389E+01
 -1      1761 1.25597E+01
 -1      1762 1.23453E+01
 -1      1763 1.45551E+01
 -1      1764 3.13043E+01
 -1      1765 4.21228E+01
 -1      1766 3.56162E+01
 -1      1767 9.60015E+00
 -1      1768 1.27604E+00
 -1      1769 1.66881E+00
 -1      1770 2.37064E+00
 -1      1771 4.25569E+00
 -1      1772 1.75674E+00
 -1      1773 8.73731E-01
 -1      1774 9.66577E-01
 -1      1775 7.73042E-01
 -1      1776 8.26887E-01
 -1      1777 7.35499E-01
 -1      1778 7.07147E-01
 -1      1779 7.41390E-01
 -1      1780 6.57004E-01
 -1      1781 6.64986E-01
 -1      1782 6.84978E-01
 -1      1783 6.03184E-01
 -1      1784 6.88330E-01
 -1      1785 6.66599E-01
 -1      1786 5.82627E-01
 -1      1787 7.44203E-01
 -1      1788 7.10212E-01
 -1      1789 6.06122E-01
 -1      1790 8.34409E-01
 -1      1791 7.77574E-01
 -1      1792 6.61375E-01
 -1      1793 9.77434E-01
 -1      1794 8.81961E-01
 -1      1795 7.42299E-01
 -1      1796 1.22187E+00
 -1      1797 1.04499E+00
 -1      1798 8.57405E-01
 -1      1799 1.69728E+00
 -1      1800 1.33157E+00
 -1      1801 1.03466E+00
 -1      1802 2.61362E+00
 -1      1803 1.78077E+00
 -1      1804 1.22784E+00
 -1      1805 8.12169E+00
 -1      1806 3.05776E+00
 -1      1807 1.75547E+00
 -1      1808 2.80705E+00
 -1      1809 5.19604E+00
 -1      1810 2.17310E+00
 -1      1811 2.66251E+00
 -1      1812 2.05507E+00
 -1      1813 3.39892E+00
 -1      1814 2.55499E+00
 -1      1815 1.94133E+00
 -1      1816 1.71020E+00
 -1      1817 1.37570E+00
 -1      1818 1.51416E+00
 -1      1819 1.19492E+00
 -1      1820 9.93191E-01
 -1      1821 1.10225E+00
 -1      1822 8.75036E-01
 -1      1823 7.61629E-01
 -1      1824 8.03313E-01
 -1      1825 7.11102E-01
 -1      1826 6.28255E-01
 -1      1827 6.34630E-01
 -1      1828 5.82879E-01
 -1      1829 5.20592E-01
 -1      1830 5.38727E-01
 -1      1831 4.80484E-01
 -1      1832 4.33454E-01
 -1      1833 4.53243E-01
 -1      1834 3.98299E-01
 -1      1835 3.62821E-01
 -1      1836 3.77980E-01
 -1      1837 3.31630E-01
 -1      1838 3.05884E-01
 -1      1839 3.11636E-01
 -1      1840 3.10942E-01
 -1      1841 3.29645E-01
 -1      1842 2.85504E-01
 -1      1843 3.49478E-01
 -1      1844 3.73826E-01
 -1      1845 3.10395E-01
 -1      1846 3.96208E-01
 -1      1847 4.24769E-01
 -1      1848 3.52610E-01
 -1      1849 4.76627E-01
 -1      1850 5.12801E-01
 -1      1851 4.26851E-01
 -1      1852 5.70348E-01
 -1      1853 6.32036E-01
 -1      1854 5.36256E-01
 -1      1855 6.81525E-01
 -1      1856 7.41725E-01
 -1      1857 6.43293E-01
 -1      1858 7.88851E-01
 -1      1859 8.69164E-01
 -1      1860 7.39908E-01
 -1      1861 9.21780E-01
 -1      1862 1.01268E+00
 -1      1863 8.39650E-01
 -1      1864 1.03486E+00
 -1      1865 1.08642E+00
 -1      1866 9.14449E-01
 -1      1867 1.04643E+00
 -1      1868 1.01179E+00
 -1      1869 8.96638E-01
 -1      1870 9.32432E-01
 -1      1871 9.82789E-01
 -1      1872 7.77284E-01
 -1      1873 9.94320E-01
 -1      1874 9.56966E-01
 -1      1875 7.09454E-01
 -1      1876 1.15401E+00
 -1      1877 1.37139E+00
 -1      1878 9.18027E-01
 -1      1879 1.62492E+00
 -1      1880 2.11935E+00
 -1      1881 1.36860E+00
 -1      1882 2.37443E+00
 -1      1883 2.86331E+00
 -1      1884 1.87722E+00
 -1      1885 2.93699E+00
 -1      1886 2.95047E+00
 -1      1887 2.20598E+00
 -1      1888 2.93597E+00
 -1      1889 2.96963E+00
 -1      1890 2.26516E+00
 -1      1891 2.94739E+00
 -1      1892 2.53757E+00
 -1      1893 2.22843E+00
 -1      1894 2.27782E+00
 -1      1895 1.73959E+00
 -1      1896 1.94644E+00
 -1      1897 1.51543E+00
 -1      1898 1.26885E+00
 -1      1899 1.46252E+00
 -1      1900 1.01028E+00
 -1      1901 9.87376E-01
 -1      1902 9.79777E-01
 -1      1903 9.82747E-01
 -1      1904 9.55023E-01
 -1      1905 7.16570E-01
 -1      1906 1.00600E+00
 -1      1907 1.02097E+00
 -1      1908 7.62914E-01
 -1      1909 1.07726E+00
 -1      1910 1.03737E+00
 -1      1911 8.70186E-01
 -1      1912 1.02516E+00
 -1      1913 9.38093E-01
 -1      1914 9.14273E-01
 -1      1915 8.89689E-01
 -1      1916 8.08291E-01
 -1      1917 8.53657E-01
 -1      1918 7.66403E-01
 -1      1919 7.09116E-01
 -1      1920 7.63364E-01
 -1      1921 6.65708E-01
 -1      1922 6.08089E-01
 -1      1923 6.78067E-01
 -1      1924 5.56122E-01
 -1      1925 4.96614E-01
 -1      1926 5.82692E-01
 -1      1927 4.44087E-01
 -1      1928 3.89012E-01
 -1      1929 4.78197E-01
 -1      1930 3.40676E-01
 -1      1931 3.04129E-01
 -1      1932 3.77334E-01
 -1      1933 2.62328E-01
 -1      1934 2.31413E-01
 -1      1935 2.87197E-01
 -1      1936 1.96919E-01
 -1      1937 1.73022E-01
 -1      1938 2.10901E-01
 -1      1939 1.49152E-01
 -1      1940 1.29880E-01
 -1      1941 1.52537E-01
 -1      1942 1.12520E-01
 -1      1943 1.03143E-01
 -1      1944 1.11307E-01
 -1      1945 8.98341E-02
 -1      1946 7.67739E-02
 -1      1947 8.06388E-02
 -1      1948 6.59629E-02
 -1      1949 4.71694E-02
 -1      1950 3.79925E-02
 -1      1951 5.65187E-02
 -1      1952 1.41901E+00
 -1      1953 1.79097E+00
 -1      1954 1.52840E+00
 -1      1955 1.03820E+00
 -1      1956 1.29663E+00
 -1      1957 1.02389E+00
 -1      1958 8.35860E-01
 -1      1959 9.42785E-01
 -1      1960 8.06089E-01
 -1      1961 6.74429E-01
 -1      1962 7.53548E-01
 -1      1963 6.28358E-01
 -1      1964 5.78916E-01
 -1      1965 6.40325E-01
 -1      1966 5.11940E-01
 -1      1967 5.09081E-01
 -1      1968 5.56276E-01
 -1      1969 4.55195E-01
 -1      1970 4.54257E-01
 -1      1971 4.89113E-01
 -1      1972 4.12586E-01
 -1      1973 4.14201E-01
 -1      1974 4.38136E-01
 -1      1975 3.76497E-01
 -1      1976 3.87502E-01
 -1      1977 4.02140E-01
 -1      1978 3.48314E-01
 -1      1979 3.75165E-01
 -1      1980 3.82713E-01
 -1      1981 3.31464E-01
 -1      1982 4.05170E-01
 -1      1983 3.99727E-01
 -1      1984 3.51236E-01
 -1      1985 4.99364E-01
 -1      1986 4.65488E-01
 -1      1987 4.36116E-01
 -1      1988 6.08169E-01
 -1      1989 5.71014E-01
 -1      1990 5.68085E-01
 -1      1991 7.12850E-01
 -1      1992 6.77874E-01
 -1      1993 7.09440E-01
 -1      1994 7.93602E-01
 -1      1995 7.69910E-01
 -1      1996 8.36204E-01
 -1      1997 8.86713E-01
 -1      1998 8.47820E-01
 -1      1999 9.47481E-01
 -1      2000 9.69133E-01
 -1      2001 9.00368E-01
 -1      2002 1.01535E+00
 -1      2003 1.06922E+00
 -1      2004 9.69133E-01
 -1      2005 1.02901E+00
 -1      2006 1.07179E+00
 -1      2007 1.01097E+00
 -1      2008 9.70755E-01
 -1      2009 1.09152E+00
 -1      2010 9.65622E-01
 -1      2011 8.06330E-01
 -1      2012 1.24050E+00
 -1      2013 1.16283E+00
 -1      2014 7.71477E-01
 -1      2015 1.69279E+00
 -1      2016 1.61787E+00
 -1      2017 1.22016E+00
 -1      2018 2.13281E+00
 -1      2019 1.91723E+00
 -1      2020 1.82197E+00
 -1      2021 2.68597E+00
 -1      2022 2.18316E+00
 -1      2023 2.09676E+00
 -1      2024 2.83856E+00
 -1      2025 2.63714E+00
 -1      2026 2.09828E+00
 -1      2027 3.24475E+00
 -1      2028 2.98152E+00
 -1      2029 2.19242E+00
 -1      2030 2.81298E+00
 -1      2031 3.18225E+00
 -1      2032 2.27288E+00
 -1      2033 1.72749E+00
 -1      2034 2.44818E+00
 -1      2035 1.84559E+00
 -1      2036 1.08925E+00
 -1      2037 1.42108E+00
 -1      2038 1.17439E+00
 -1      2039 9.44656E-01
 -1      2040 1.01862E+00
 -1      2041 7.97352E-01
 -1      2042 1.10869E+00
 -1      2043 1.06742E+00
 -1      2044 8.49488E-01
 -1      2045 1.22889E+00
 -1      2046 1.13765E+00
 -1      2047 1.00121E+00
 -1      2048 1.21650E+00
 -1      2049 1.24189E+00
 -1      2050 1.04316E+00
 -1      2051 1.09598E+00
 -1      2052 1.18161E+00
 -1      2053 1.02127E+00
 -1      2054 9.49725E-01
 -1      2055 1.04493E+00
 -1      2056 9.35329E-01
 -1      2057 8.04527E-01
 -1      2058 8.91589E-01
 -1      2059 8.26136E-01
 -1      2060 6.57444E-01
 -1      2061 7.38099E-01
 -1      2062 7.01573E-01
 -1      2063 5.16810E-01
 -1      2064 5.92327E-01
 -1      2065 5.70028E-01
 -1      2066 3.92413E-01
 -1      2067 4.58253E-01
 -1      2068 4.46355E-01
 -1      2069 2.88999E-01
 -1      2070 3.42646E-01
 -1      2071 3.38032E-01
 -1      2072 2.18332E-01
 -1      2073 2.51794E-01
 -1      2074 2.51060E-01
 -1      2075 1.65086E-01
 -1      2076 1.93034E-01
 -1      2077 1.88557E-01
 -1      2078 1.20953E-01
 -1      2079 1.43933E-01
 -1      2080 1.42106E-01
 -1      2081 8.54524E-02
 -1      2082 1.03203E-01
 -1      2083 1.03203E-01
 -1      2084 6.01783E-02
 -1      2085 7.03512E-02
 -1      2086 7.03512E-02
 -1      2087 3.31438E-02
 -1      2088 4.74754E-02
 -1      2089 4.25471E-02
 -1      2090 2.66530E-02
 -1      2091 2.24046E-02
 -1      2092 2.85114E-02
 -1      2093 3.59945E-02
 -1      2094 3.59945E-02
 -1      2095 3.78054E-02
 -1      2096 3.59945E-02
 -1      2097 3.43752E-02
 -1      2098 3.75663E-02
 -1      2099 4.52885E-02
 -1      2100 2.62911E-02
 -1      2101 2.25517E-02
 -1      2102 3.04694E-02
 -1      2103 3.58444E-02
 -1      2104 3.20504E-02
 -1      2105 3.63758E-02
 -1      2106 4.01711E-02
 -1      2107 3.86337E-02
 -1      2108 4.49243E-02
 -1      2109 4.01711E-02
 -1      2110 4.01711E-02
 -1      2111 4.77136E-02
 -1      2112 3.99530E-02
 -1      2113 3.99827E-02
 -1      2114 4.75252E-02
 -1      2115 3.82295E-02
 -1      2116 3.99530E-02
 -1      2117 4.73368E-02
 -1      2118 3.16647E-02
 -1      2119 3.53924E-02
 -1      2120 4.44997E-02
 -1      2121 2.22688E-02
 -1      2122 2.57134E-02
 -1      2123 3.57113E-02
 -1      2124 2.85515E-02
 -1      2125 2.26474E-02
 -1      2126 3.01386E-02
 -1      2127 3.44953E-02
 -1      2128 3.44953E-02
 -1      2129 3.64612E-02
 -1      2130 3.70505E+01
 -1      2131 2.76756E+01
 -1      2132 3.20234E+01
 -1      2133 3.20234E+01
 -1      2134 2.83006E+01
 -1      2135 3.04745E+01
 -1      2136 1.77329E+01
 -1      2137 3.09922E+01
 -1      2138 1.02328E+01
 -1      2139 1.43824E+01
 -1      2140 1.02846E+00
 -1      2141 1.20164E+00
 -1      2142 9.80509E-01
 -1      2143 8.44226E-01
 -1      2144 1.08256E+01
 -1      2145 1.07535E+01
 -1      2146 1.08894E+01
 -1      2147 1.08788E+01
 -1      2148 1.11635E+01
 -1      2149 1.09427E+01
 -1      2150 1.02021E+01
 -1      2151 1.06332E+01
 -1      2152 9.58394E+00
 -1      2153 9.34747E+00
 -1      2154 1.93427E+01
 -1      2155 1.13590E+01
 -1      2156 2.64203E+01
 -1      2157 2.34659E+01
 -1      2158 3.39258E+01
 -1      2159 3.39258E+01
 -1      2160 3.27378E+01
 -1      2161 3.47539E+01
 -1      2162 3.27378E+01
 -1      2163 3.27378E+01
 -1      2164 3.36476E+01
 -1      2165 2.92331E+01
 -1      2166 3.61262E+01
 -1      2167 3.26868E+01
 -1      2168 2.76119E+01
 -1      2169 1.69754E+01
 -1      2170 3.06035E+01
 -1      2171 9.88087E+00
 -1      2172 1.32713E+01
 -1      2173 1.19014E+01
 -1      2174 1.05354E+01
 -1      2175 9.59673E+00
 -1      2176 1.10764E+01
 -1      2177 1.14419E+01
 -1      2178 1.14789E+01
 -1      2179 1.18509E+01
 -1      2180 1.19354E+01
 -1      2181 1.13427E+01
 -1      2182 1.08547E+01
 -1      2183 9.41539E+00
 -1      2184 1.02225E+01
 -1      2185 1.29629E+01
 -1      2186 9.94599E+00
 -1      2187 3.00922E+01
 -1      2188 1.63600E+01
 -1      2189 3.34389E+01
 -1      2190 3.63527E+01
 -1      2191 3.06158E+01
 -1      2192 3.42086E+01
 -1      2193 9.78032E+00
 -1      2194 9.66820E+00
 -1      2195 8.70197E+00
 -1      2196 1.22085E+01
 -1      2197 2.91164E+00
 -1      2198 7.74865E+00
 -1      2199 6.37386E+00
 -1      2200 5.80926E+00
 -1      2201 2.10193E+00
 -1      2202 2.83006E+01
 -1      2203 3.04745E+01
 -1      2204 3.63411E-02
 -1      2205 2.16173E+01
 -1      2206 3.06158E+01
 -1      2207 2.84385E+01
 -1      2208 2.14084E+01
 -1      2209 1.17508E+01
 -1      2210 1.03343E+01
 -1      2211 9.11734E+00
 -1      2212 7.40438E+00
 -1      2213 1.02164E+01
 -1      2214 7.91313E+00
 -1      2215 2.11282E+01
 -1      2216 3.20773E+01
 -1      2217 3.55820E+01
 -1      2218 3.47539E+01
 -1      2219 2.64203E+01
 -1      2220 1.47916E+01
 -1      2221 8.89331E+00
 -1      2222 7.97280E+00
 -1      2223 9.35773E+00
 -1      2224 9.72836E+00
 -1      2225 9.83483E+00
 -1      2226 1.06918E+01
 -1      2227 7.78540E+00
 -1      2228 8.69185E+00
 -1      2229 7.82310E+00
 -1      2230 1.10306E+00
 -1      2231 1.48518E+00
 -1      2232 5.52968E-01
 -1      2233 5.84620E-01
 -1      2234 5.97205E-01
 -1      2235 6.44049E-01
 -1      2236 4.93169E-01
 -1      2237 5.04467E-01
 -1      2238 5.02855E-01
 -1      2239 5.39496E-01
 -1      2240 5.17614E-01
 -1      2241 4.37841E-01
 -1      2242 5.87934E-01
 -1      2243 5.54563E-01
 -1      2244 4.66054E-01
 -1      2245 6.47829E-01
 -1      2246 6.00277E-01
 -1      2247 4.93464E-01
 -1      2248 7.15383E-01
 -1      2249 6.47829E-01
 -1      2250 5.05807E-01
 -1      2251 8.68295E-01
 -1      2252 7.58593E-01
 -1      2253 5.49018E-01
 -1      2254 9.01507E-01
 -1      2255 1.02389E+00
 -1      2256 9.80674E-01
 -1      2257 1.26998E+00
 -1      2258 1.03885E+00
 -1      2259 8.05023E+00
 -1      2260 1.14007E+01
 -1      2261 9.95204E-01
 -1      2262 8.14425E-01
 -1      2263 7.51030E-01
 -1      2264 7.55110E-01
 -1      2265 6.36955E-01
 -1      2266 6.48068E-01
 -1      2267 5.76729E-01
 -1      2268 5.26201E-01
 -1      2269 5.28526E-01
 -1      2270 4.88462E-01
 -1      2271 4.43086E-01
 -1      2272 4.30561E-01
 -1      2273 4.17433E-01
 -1      2274 3.77325E-01
 -1      2275 3.67169E-01
 -1      2276 3.48923E-01
 -1      2277 3.13768E-01
 -1      2278 3.13113E-01
 -1      2279 2.84111E-01
 -1      2280 2.52921E-01
 -1      2281 2.55053E-01
 -1      2282 2.38463E-01
 -1      2283 2.43521E-01
 -1      2284 2.10938E-01
 -1      2285 2.58787E-01
 -1      2286 2.78621E-01
 -1      2287 2.11746E-01
 -1      2288 3.11943E-01
 -1      2289 3.34325E-01
 -1      2290 2.60335E-01
 -1      2291 3.90132E-01
 -1      2292 4.41990E-01
 -1      2293 3.49465E-01
 -1      2294 5.00100E-01
 -1      2295 5.57647E-01
 -1      2296 4.63381E-01
 -1      2297 6.14318E-01
 -1      2298 6.63807E-01
 -1      2299 5.78161E-01
 -1      2300 7.12619E-01
 -1      2301 7.59744E-01
 -1      2302 6.83644E-01
 -1      2303 7.96598E-01
 -1      2304 8.49215E-01
 -1      2305 7.69310E-01
 -1      2306 9.10123E-01
 -1      2307 9.32306E-01
 -1      2308 8.67072E-01
 -1      2309 9.79487E-01
 -1      2310 9.39494E-01
 -1      2311 9.75162E-01
 -1      2312 9.52930E-01
 -1      2313 8.73569E-01
 -1      2314 1.03578E+00
 -1      2315 9.66605E-01
 -1      2316 9.78136E-01
 -1      2317 1.14225E+00
 -1      2318 1.04760E+00
 -1      2319 1.24464E+00
 -1      2320 1.30475E+00
 -1      2321 1.34126E+00
 -1      2322 1.59480E+00
 -1      2323 1.47084E+00
 -1      2324 1.67709E+00
 -1      2325 1.93217E+00
 -1      2326 1.64975E+00
 -1      2327 2.30735E+00
 -1      2328 2.38103E+00
 -1      2329 2.10722E+00
 -1      2330 2.42816E+00
 -1      2331 2.41366E+00
 -1      2332 2.52953E+00
 -1      2333 2.34969E+00
 -1      2334 2.32745E+00
 -1      2335 2.51269E+00
 -1      2336 2.00402E+00
 -1      2337 1.74427E+00
 -1      2338 2.12529E+00
 -1      2339 1.63443E+00
 -1      2340 1.41026E+00
 -1      2341 1.69201E+00
 -1      2342 1.29747E+00
 -1      2343 1.03890E+00
 -1      2344 1.46938E+00
 -1      2345 1.00441E+00
 -1      2346 9.99778E-01
 -1      2347 1.32211E+00
 -1      2348 8.75917E-01
 -1      2349 9.26891E-01
 -1      2350 1.16375E+00
 -1      2351 9.28623E-01
 -1      2352 9.84920E-01
 -1      2353 1.04163E+00
 -1      2354 9.44998E-01
 -1      2355 9.32787E-01
 -1      2356 1.00343E+00
 -1      2357 8.74932E-01
 -1      2358 8.26528E-01
 -1      2359 9.05658E-01
 -1      2360 7.85614E-01
 -1      2361 7.43726E-01
 -1      2362 8.06889E-01
 -1      2363 7.00938E-01
 -1      2364 6.57530E-01
 -1      2365 7.23188E-01
 -1      2366 6.06342E-01
 -1      2367 5.54375E-01
 -1      2368 6.29213E-01
 -1      2369 5.02089E-01
 -1      2370 4.49562E-01
 -1      2371 5.25739E-01
 -1      2372 4.00679E-01
 -1      2373 3.52343E-01
 -1      2374 4.24571E-01
 -1      2375 3.09244E-01
 -1      2376 2.67443E-01
 -1      2377 3.32589E-01
 -1      2378 2.31058E-01
 -1      2379 1.96564E-01
 -1      2380 2.53106E-01
 -1      2381 1.66930E-01
 -1      2382 1.43060E-01
 -1      2383 1.87087E-01
 -1      2384 1.19712E-01
 -1      2385 1.02352E-01
 -1      2386 1.34105E-01
 -1      2387 8.45078E-02
 -1      2388 7.11988E-02
 -1      2389 9.29119E-02
 -1      2390 5.46045E-01
 -1      2391 6.28358E-01
 -1      2392 4.74527E-01
 -1      2393 5.08632E-01
 -1      2394 5.08632E-01
 -1      2395 4.19298E-01
 -1      2396 4.41939E-01
 -1      2397 4.38630E-01
 -1      2398 3.66868E-01
 -1      2399 3.86836E-01
 -1      2400 3.73580E-01
 -1      2401 3.19346E-01
 -1      2402 3.35467E-01
 -1      2403 3.09717E-01
 -1      2404 2.81854E-01
 -1      2405 2.93916E-01
 -1      2406 2.52886E-01
 -1      2407 2.94801E-01
 -1      2408 2.99590E-01
 -1      2409 2.45192E-01
 -1      2410 3.39826E-01
 -1      2411 3.15263E-01
 -1      2412 2.83390E-01
 -1      2413 4.60549E-01
 -1      2414 4.00231E-01
 -1      2415 3.64258E-01
 -1      2416 5.99734E-01
 -1      2417 5.28083E-01
 -1      2418 4.92198E-01
 -1      2419 7.38629E-01
 -1      2420 6.68924E-01
 -1      2421 6.28922E-01
 -1      2422 8.59896E-01
 -1      2423 8.02837E-01
 -1      2424 7.62321E-01
 -1      2425 9.65121E-01
 -1      2426 9.10903E-01
 -1      2427 8.77535E-01
 -1      2428 1.02177E+00
 -1      2429 1.00812E+00
 -1      2430 9.71540E-01
 -1      2431 1.08020E+00
 -1      2432 1.08020E+00
 -1      2433 1.07296E+00
 -1      2434 1.04794E+00
 -1      2435 1.10619E+00
 -1      2436 1.15738E+00
 -1      2437 9.29790E-01
 -1      2438 1.03596E+00
 -1      2439 1.17140E+00
 -1      2440 1.12509E+00
 -1      2441 1.05377E+00
 -1      2442 1.28340E+00
 -1      2443 1.57431E+00
 -1      2444 1.19694E+00
 -1      2445 1.47924E+00
 -1      2446 1.90146E+00
 -1      2447 1.67703E+00
 -1      2448 1.65380E+00
 -1      2449 2.23509E+00
 -1      2450 2.18475E+00
 -1      2451 2.03980E+00
 -1      2452 2.47392E+00
 -1      2453 2.52274E+00
 -1      2454 2.61073E+00
 -1      2455 2.55696E+00
 -1      2456 2.41400E+00
 -1      2457 2.83846E+00
 -1      2458 2.13864E+00
 -1      2459 2.20114E+00
 -1      2460 2.42272E+00
 -1      2461 1.59617E+00
 -1      2462 1.96096E+00
 -1      2463 1.88922E+00
 -1      2464 1.08409E+00
 -1      2465 1.39049E+00
 -1      2466 1.50587E+00
 -1      2467 1.02783E+00
 -1      2468 1.09846E+00
 -1      2469 1.31457E+00
 -1      2470 1.05464E+00
 -1      2471 9.31872E-01
 -1      2472 1.23298E+00
 -1      2473 1.09666E+00
 -1      2474 1.06770E+00
 -1      2475 1.15009E+00
 -1      2476 1.07086E+00
 -1      2477 1.05786E+00
 -1      2478 1.12436E+00
 -1      2479 9.85990E-01
 -1      2480 1.02088E+00
 -1      2481 1.03558E+00
 -1      2482 8.89194E-01
 -1      2483 9.40250E-01
 -1      2484 9.39855E-01
 -1      2485 7.77458E-01
 -1      2486 8.35594E-01
 -1      2487 8.40515E-01
 -1      2488 6.48836E-01
 -1      2489 7.15263E-01
 -1      2490 7.24721E-01
 -1      2491 5.20983E-01
 -1      2492 5.86100E-01
 -1      2493 5.99791E-01
 -1      2494 4.04630E-01
 -1      2495 4.63186E-01
 -1      2496 4.79259E-01
 -1      2497 3.04665E-01
 -1      2498 3.54432E-01
 -1      2499 3.71264E-01
 -1      2500 2.25688E-01
 -1      2501 2.62893E-01
 -1      2502 2.79294E-01
 -1      2503 1.66846E-01
 -1      2504 1.92143E-01
 -1      2505 2.03977E-01
 -1      2506 1.18837E-01
 -1      2507 1.39990E-01
 -1      2508 1.43576E-01
 -1      2509 8.24673E-02
 -1      2510 1.00217E-01
 -1      2511 9.81016E-02
 -1      2512 5.52500E-02
 -1      2513 7.03512E-02
 -1      2514 6.73661E-02
 -1      2515 5.02693E-02
 -1      2516 4.82189E-02
 -1      2517 4.24596E-02
 -1      2518 5.55248E-02
 -1      2519 5.27355E-02
 -1      2520 5.88194E-02
 -1      2521 4.79823E-02
 -1      2522 5.54654E-02
 -1      2523 4.81294E-02
 -1      2524 4.79823E-02
 -1      2525 6.56422E-02
 -1      2526 5.99725E-02
 -1      2527 5.59083E-02
 -1      2528 5.59083E-02
 -1      2529 6.37195E-02
 -1      2530 5.57199E-02
 -1      2531 5.59083E-02
 -1      2532 6.41030E-02
 -1      2533 5.57101E-02
 -1      2534 5.57101E-02
 -1      2535 6.40932E-02
 -1      2536 5.22042E-02
 -1      2537 5.50412E-02
 -1      2538 6.34145E-02
 -1      2539 4.14699E-02
 -1      2540 4.74212E-02
 -1      2541 5.79627E-02
 -1      2542 4.08029E-02
 -1      2543 4.04242E-02
 -1      2544 5.21341E-02
 -1      2545 4.67467E-02
 -1      2546 4.08029E-02
 -1      2547 5.10884E-02
 -1      2548 2.89257E+01
 -1      2549 3.04745E+01
 -1      2550 1.43024E+01
 -1      2551 2.03607E+01
 -1      2552 7.10671E-01
 -1      2553 8.06089E-01
 -1      2554 6.28358E-01
 -1      2555 4.40564E-02
 -1      2556 3.06158E+01
 -1      2557 2.92081E+01
 -1      2558 2.32068E+01
 -1      2559 2.38319E+01
 -1      2560 2.38319E+01
 -1      2561 7.69446E+00
 -1      2562 6.72129E+00
 -1      2563 2.40825E+01
 -1      2564 2.33128E+01
 -1      2565 9.17028E+00
 -1      2566 8.39576E+00
 -1      2567 2.85727E+01
 -1      2568 3.20773E+01
 -1      2569 5.15939E-01
 -1      2570 5.38108E-01
 -1      2571 4.65723E-01
 -1      2572 4.37779E-01
 -1      2573 9.22601E+00
 -1      2574 9.17276E+00
 -1      2575 8.87327E+00
 -1      2576 8.82005E+00
 -1      2577 7.97593E+00
 -1      2578 8.50627E+00
 -1      2579 5.77051E+00
 -1      2580 6.62510E+00
 -1      2581 8.45859E+00
 -1      2582 6.68349E+00
 -1      2583 1.50092E+01
 -1      2584 1.08860E+01
 -1      2585 2.42038E+01
 -1      2586 1.66983E+01
 -1      2587 2.93471E+01
 -1      2588 2.85190E+01
 -1      2589 1.87970E+01
 -1      2590 3.55820E+01
 -1      2591 3.55820E+01
 -1      2592 2.24271E+01
 -1      2593 2.33880E+01
 -1      2594 1.44056E+01
 -1      2595 1.99284E+01
 -1      2596 1.57045E+01
 -1      2597 8.02071E+00
 -1      2598 1.17248E+01
 -1      2599 6.31470E+00
 -1      2600 5.78410E+00
 -1      2601 6.33024E+00
 -1      2602 6.61438E+00
 -1      2603 9.20519E+00
 -1      2604 9.34144E+00
 -1      2605 1.20533E+01
 -1      2606 8.65620E+00
 -1      2607 6.61720E+00
 -1      2608 2.00333E+01
 -1      2609 1.37729E+01
 -1      2610 1.66690E+00
 -1      2611 1.31025E+00
 -1      2612 8.34950E-01
 -1      2613 9.65066E-01
 -1      2614 1.61699E+00
 -1      2615 1.76154E+00
 -1      2616 1.31739E+00
 -1      2617 1.19165E+00
 -1      2618 8.26445E+00
 -1      2619 5.05754E-01
 -1      2620 6.44049E-01
 -1      2621 7.05932E-01
 -1      2622 8.06089E-01
 -1      2623 1.23391E+00
 -1      2624 1.06783E+01
 -1      2625 4.80175E+00
 -1      2626 8.23568E+00
 -1      2627 6.72244E+00
 -1      2628 6.63459E+00
 -1      2629 1.01441E+01
 -1      2630 4.62018E+00
 -1      2631 7.10432E+00
 -1      2632 6.29655E+00
 -1      2633 5.47872E+00
 -1      2634 4.17997E+00
 -1      2635 5.63513E+00
 -1      2636 2.40825E+01
 -1      2637 5.02693E-02
 -1      2638 5.02693E-02
 -1      2639 1.05249E+01
 -1      2640 2.42203E+01
 -1      2641 2.57692E+01
 -1      2642 2.43616E+01
 -1      2643 1.29185E+01
 -1      2644 2.02333E+01
 -1      2645 1.57646E+01
 -1      2646 2.93471E+01
 -1      2647 9.57844E-01
 -1      2648 6.83937E+00
 -1      2649 1.56774E+01
 -1      2650 7.64573E+00
 -1      2651 1.27927E+01
 -1      2652 8.67619E+00
 -1      2653 5.82867E+00
 -1      2654 5.94055E+00
 -1      2655 4.32027E+00
 -1      2656 5.33579E+00
 -1      2657 3.20773E+01
 -1      2658 5.77364E+00
 -1      2659 2.33880E+01
 -1      2660 7.52079E+00
 -1      2661 6.82827E-01
 -1      2662 7.57227E-01
 -1      2663 6.67384E-01
 -1      2664 4.82650E-01
 -1      2665 7.84420E+00
 -1      2666 6.43782E+00
 -1      2667 4.57078E-02
 -1      2668 4.40564E-02
 -1      2669 4.83981E-02
 -1      2670 5.65187E-02
 -1      2671 6.04461E-02
 -1      2672 6.03878E-02
 -1      2673 4.17704E-01
 -1      2674 4.02637E-01
 -1      2675 3.94056E-01
 -1      2676 3.80910E-01
 -1      2677 3.45705E-01
 -1      2678 4.32712E-01
 -1      2679 4.32712E-01
 -1      2680 4.64857E-01
 -1      2681 4.21647E-01
 -1      2682 3.48551E-01
 -1      2683 7.18150E-01
 -1      2684 7.97317E-01
 -1      2685 6.19454E+00
 -1      2686 5.06895E+00
 -1      2687 8.26035E-01
 -1      2688 5.50207E-01
 -1      2689 4.90892E-01
 -1      2690 4.80026E-01
 -1      2691 4.19799E-01
 -1      2692 3.82164E-01
 -1      2693 3.93258E-01
 -1      2694 3.55519E-01
 -1      2695 3.44757E-01
 -1      2696 3.22414E-01
 -1      2697 2.96761E-01
 -1      2698 2.85112E-01
 -1      2699 2.78784E-01
 -1      2700 2.50381E-01
 -1      2701 2.34029E-01
 -1      2702 2.26468E-01
 -1      2703 1.96810E-01
 -1      2704 1.92139E-01
 -1      2705 1.68484E-01
 -1      2706 1.54026E-01
 -1      2707 1.39899E-01
 -1      2708 1.62980E-01
 -1      2709 1.78247E-01
 -1      2710 1.20527E-01
 -1      2711 2.22928E-01
 -1      2712 2.56250E-01
 -1      2713 1.74162E-01
 -1      2714 3.07356E-01
 -1      2715 3.63163E-01
 -1      2716 2.69949E-01
 -1      2717 4.20395E-01
 -1      2718 4.78505E-01
 -1      2719 3.78287E-01
 -1      2720 5.41455E-01
 -1      2721 5.98126E-01
 -1      2722 4.98470E-01
 -1      2723 6.65236E-01
 -1      2724 7.14048E-01
 -1      2725 6.28530E-01
 -1      2726 7.81642E-01
 -1      2727 8.18496E-01
 -1      2728 7.63234E-01
 -1      2729 8.79119E-01
 -1      2730 9.40027E-01
 -1      2731 8.91451E-01
 -1      2732 1.04772E+00
 -1      2733 1.09490E+00
 -1      2734 1.05977E+00
 -1      2735 1.21450E+00
 -1      2736 1.22794E+00
 -1      2737 1.28706E+00
 -1      2738 1.34993E+00
 -1      2739 1.44297E+00
 -1      2740 1.52865E+00
 -1      2741 1.65132E+00
 -1      2742 1.72079E+00
 -1      2743 1.85901E+00
 -1      2744 1.86980E+00
 -1      2745 1.96642E+00
 -1      2746 2.21638E+00
 -1      2747 1.69446E+00
 -1      2748 1.77675E+00
 -1      2749 2.09343E+00
 -1      2750 2.54658E+00
 -1      2751 2.92175E+00
 -1      2752 2.59129E+00
 -1      2753 3.72490E+00
 -1      2754 3.77203E+00
 -1      2755 4.16426E+00
 -1      2756 3.87659E+00
 -1      2757 3.81261E+00
 -1      2758 5.07195E+00
 -1      2759 2.58330E+00
 -1      2760 2.25987E+00
 -1      2761 3.94720E+00
 -1      2762 2.04792E+00
 -1      2763 1.93807E+00
 -1      2764 2.50593E+00
 -1      2765 1.89993E+00
 -1      2766 1.78715E+00
 -1      2767 2.25584E+00
 -1      2768 1.74176E+00
 -1      2769 1.70727E+00
 -1      2770 2.17231E+00
 -1      2771 1.46921E+00
 -1      2772 1.34535E+00
 -1      2773 1.88886E+00
 -1      2774 1.25345E+00
 -1      2775 1.25518E+00
 -1      2776 1.55890E+00
 -1      2777 1.13572E+00
 -1      2778 1.09579E+00
 -1      2779 1.34754E+00
 -1      2780 9.82491E-01
 -1      2781 9.24636E-01
 -1      2782 1.11477E+00
 -1      2783 8.61989E-01
 -1      2784 8.21076E-01
 -1      2785 9.38823E-01
 -1      2786 7.57296E-01
 -1      2787 7.14508E-01
 -1      2788 8.12396E-01
 -1      2789 6.51024E-01
 -1      2790 5.99836E-01
 -1      2791 6.85131E-01
 -1      2792 5.41086E-01
 -1      2793 4.88800E-01
 -1      2794 5.62897E-01
 -1      2795 4.36810E-01
 -1      2796 3.87928E-01
 -1      2797 4.52157E-01
 -1      2798 3.43377E-01
 -1      2799 3.00278E-01
 -1      2800 3.55617E-01
 -1      2801 2.63088E-01
 -1      2802 2.26704E-01
 -1      2803 2.73876E-01
 -1      2804 1.96342E-01
 -1      2805 1.66708E-01
 -1      2806 2.06324E-01
 -1      2807 1.42498E-01
 -1      2808 1.19149E-01
 -1      2809 1.51753E-01
 -1      2810 9.61105E-02
 -1      2811 7.82664E-02
 -1      2812 1.04504E-01
 -1      2813 3.58321E-01
 -1      2814 3.90909E-01
 -1      2815 8.54639E-02
 -1      2816 8.02678E-02
 -1      2817 9.23839E-02
 -1      2818 4.43018E+00
 -1      2819 3.51815E+00
 -1      2820 4.24851E-01
 -1      2821 4.62265E-01
 -1      2822 3.44542E-01
 -1      2823 2.48314E-01
 -1      2824 2.79714E-01
 -1      2825 1.93883E-01
 -1      2826 2.19313E-01
 -1      2827 1.89310E-01
 -1      2828 2.14127E-01
 -1      2829 1.96391E-01
 -1      2830 1.62818E-01
 -1      2831 2.64388E-01
 -1      2832 2.43926E-01
 -1      2833 1.95125E-01
 -1      2834 3.80590E-01
 -1      2835 3.20184E-01
 -1      2836 2.80720E-01
 -1      2837 5.11064E-01
 -1      2838 4.43530E-01
 -1      2839 3.99456E-01
 -1      2840 6.50001E-01
 -1      2841 5.80811E-01
 -1      2842 5.32143E-01
 -1      2843 7.89061E-01
 -1      2844 7.24853E-01
 -1      2845 6.76741E-01
 -1      2846 9.16061E-01
 -1      2847 8.65054E-01
 -1      2848 8.27586E-01
 -1      2849 1.02864E+00
 -1      2850 9.85646E-01
 -1      2851 9.73165E-01
 -1      2852 1.16826E+00
 -1      2853 1.10984E+00
 -1      2854 1.12394E+00
 -1      2855 1.32151E+00
 -1      2856 1.29551E+00
 -1      2857 1.33239E+00
 -1      2858 1.43364E+00
 -1      2859 1.44562E+00
 -1      2860 1.58376E+00
 -1      2861 1.65795E+00
 -1      2862 1.53397E+00
 -1      2863 1.80819E+00
 -1      2864 2.02612E+00
 -1      2865 1.95427E+00
 -1      2866 2.20484E+00
 -1      2867 1.72021E+00
 -1      2868 1.61750E+00
 -1      2869 2.09253E+00
 -1      2870 2.35254E+00
 -1      2871 2.06925E+00
 -1      2872 2.03295E+00
 -1      2873 3.48768E+00
 -1      2874 3.20003E+00
 -1      2875 3.22948E+00
 -1      2876 3.52724E+00
 -1      2877 3.58716E+00
 -1      2878 4.17645E+00
 -1      2879 2.41885E+00
 -1      2880 2.59653E+00
 -1      2881 1.81060E+00
 -1      2882 2.01627E+00
 -1      2883 2.72358E+00
 -1      2884 1.77842E+00
 -1      2885 1.76405E+00
 -1      2886 2.27445E+00
 -1      2887 1.47735E+00
 -1      2888 1.57331E+00
 -1      2889 2.02279E+00
 -1      2890 1.39120E+00
 -1      2891 1.37813E+00
 -1      2892 1.71846E+00
 -1      2893 1.22753E+00
 -1      2894 1.26632E+00
 -1      2895 1.49437E+00
 -1      2896 1.05860E+00
 -1      2897 1.10858E+00
 -1      2898 1.25055E+00
 -1      2899 9.50022E-01
 -1      2900 9.95763E-01
 -1      2901 1.06876E+00
 -1      2902 8.26665E-01
 -1      2903 8.80265E-01
 -1      2904 9.36173E-01
 -1      2905 6.92409E-01
 -1      2906 7.54603E-01
 -1      2907 7.94354E-01
 -1      2908 5.61588E-01
 -1      2909 6.24323E-01
 -1      2910 6.54206E-01
 -1      2911 4.42941E-01
 -1      2912 5.00737E-01
 -1      2913 5.25270E-01
 -1      2914 3.40435E-01
 -1      2915 3.90634E-01
 -1      2916 4.12112E-01
 -1      2917 2.55037E-01
 -1      2918 2.96808E-01
 -1      2919 3.16178E-01
 -1      2920 1.86025E-01
 -1      2921 2.19570E-01
 -1      2922 2.37085E-01
 -1      2923 1.30084E-01
 -1      2924 1.56939E-01
 -1      2925 1.72532E-01
 -1      2926 9.32227E-02
 -1      2927 1.11842E-01
 -1      2928 1.25205E-01
 -1      2929 1.06124E-01
 -1      2930 7.58364E-02
 -1      2931 7.58364E-02
 -1      2932 6.30781E-02
 -1      2933 4.83981E-02
 -1      2934 6.62767E-02
 -1      2935 7.32474E-02
 -1      2936 6.87308E-02
 -1      2937 7.55137E-02
 -1      2938 7.55235E-02
 -1      2939 8.72569E-02
 -1      2940 7.58364E-02
 -1      2941 7.54529E-02
 -1      2942 8.53643E-02
 -1      2943 8.75698E-02
 -1      2944 7.48448E-02
 -1      2945 7.55137E-02
 -1      2946 8.69440E-02
 -1      2947 6.72595E-02
 -1      2948 7.20424E-02
 -1      2949 8.41416E-02
 -1      2950 5.63808E-02
 -1      2951 5.74264E-02
 -1      2952 7.15062E-02
 -1      2953 2.58764E+01
 -1      2954 1.96416E+01
 -1      2955 1.59611E+01
 -1      2956 2.10549E+01
 -1      2957 7.77551E+00
 -1      2958 1.04563E+01
 -1      2959 5.01433E-01
 -1      2960 5.83746E-01
 -1      2961 4.17652E-01
 -1      2962 3.05247E-01
 -1      2963 3.37709E-01
 -1      2964 2.89988E-01
 -1      2965 2.43844E-01
 -1      2966 5.94764E-01
 -1      2967 5.51117E-01
 -1      2968 3.93941E-01
 -1      2969 4.32712E-01
 -1      2970 4.20369E-01
 -1      2971 3.56951E-01
 -1      2972 3.59616E-01
 -1      2973 6.13014E-01
 -1      2974 7.08432E-01
 -1      2975 5.25075E-01
 -1      2976 4.86089E-01
 -1      2977 6.28053E+00
 -1      2978 7.00026E+00
 -1      2979 1.05217E+01
 -1      2980 8.80207E+00
 -1      2981 4.19387E-01
 -1      2982 4.31972E-01
 -1      2983 1.18178E+01
 -1      2984 1.01286E+01
 -1      2985 1.44656E+01
 -1      2986 1.11861E+01
 -1      2987 2.20392E+01
 -1      2988 1.69135E+01
 -1      2989 1.24222E+01
 -1      2990 1.65773E+01
 -1      2991 2.17620E+01
 -1      2992 2.11112E+01
 -1      2993 2.46158E+01
 -1      2994 8.00519E+00
 -1      2995 5.57776E+00
 -1      2996 1.73847E+01
 -1      2997 1.30695E+01
 -1      2998 4.24989E+00
 -1      2999 5.60072E+00
 -1      3000 6.57027E+00
 -1      3001 6.39911E+00
 -1      3002 1.15695E+01
 -1      3003 1.40683E+01
 -1      3004 4.92568E+00
 -1      3005 4.01271E+00
 -1      3006 3.83979E+00
 -1      3007 4.80449E+00
 -1      3008 6.21082E+00
 -1      3009 5.10884E-02
 -1      3010 7.02682E+00
 -1      3011 4.68533E+00
 -1      3012 6.99427E+00
 -1      3013 6.69478E+00
 -1      3014 6.92789E+00
 -1      3015 9.82957E+00
 -1      3016 6.15852E+00
 -1      3017 6.45461E+00
 -1      3018 6.17813E-01
 -1      3019 5.77541E-01
 -1      3020 3.77627E-01
 -1      3021 4.09974E-01
 -1      3022 4.31972E-01
 -1      3023 4.31972E-01
 -1      3024 3.58190E-01
 -1      3025 3.36876E-01
 -1      3026 3.80661E-01
 -1      3027 3.93745E-01
 -1      3028 4.75678E+00
 -1      3029 3.78535E+00
 -1      3030 5.63511E-01
 -1      3031 5.72883E+00
 -1      3032 4.84717E+00
 -1      3033 4.15313E+00
 -1      3034 5.20799E+00
 -1      3035 4.24861E+00
 -1      3036 5.65146E+00
 -1      3037 3.34478E+00
 -1      3038 4.16426E+00
 -1      3039 5.98198E+00
 -1      3040 5.43059E+00
 -1      3041 9.42222E-02
 -1      3042 7.97942E-02
 -1      3043 8.54639E-02
 -1      3044 4.36139E-01
 -1      3045 2.78943E+00
 -1      3046 3.14525E+00
 -1      3047 3.89395E+00
 -1      3048 3.31906E+00
 -1      3049 4.25468E+00
 -1      3050 4.72989E+00
 -1      3051 8.54639E-02
 -1      3052 1.41595E+01
 -1      3053 1.13825E+01
 -1      3054 1.11860E+01
 -1      3055 8.82010E+00
 -1      3056 1.63495E+01
 -1      3057 1.39140E+01
 -1      3058 1.49103E+01
 -1      3059 5.10884E-02
 -1      3060 1.01657E+01
 -1      3061 1.00383E+01
 -1      3062 6.94941E+00
 -1      3063 1.51518E+01
 -1      3064 1.99984E+01
 -1      3065 1.28294E+01
 -1      3066 6.14219E+00
 -1      3067 8.15314E+00
 -1      3068 5.05471E+00
 -1      3069 7.17816E+00
 -1      3070 1.43005E+01
 -1      3071 4.02108E-01
 -1      3072 4.16968E-01
 -1      3073 3.55771E-01
 -1      3074 3.44990E-01
 -1      3075 1.04054E+01
 -1      3076 3.18213E+00
 -1      3077 4.03365E+00
 -1      3078 3.80665E+00
 -1      3079 9.30987E+00
 -1      3080 6.87019E+00
 -1      3081 1.24423E+01
 -1      3082 5.58965E-02
 -1      3083 5.58965E-02
 -1      3084 6.11888E-02
 -1      3085 7.10848E-02
 -1      3086 4.92435E+00
 -1      3087 2.89238E-01
 -1      3088 3.00303E-01
 -1      3089 3.02063E-01
 -1      3090 2.75522E-01
 -1      3091 2.64836E-01
 -1      3092 2.31731E-01
 -1      3093 2.22142E-01
 -1      3094 2.10879E-01
 -1      3095 1.92901E-01
 -1      3096 1.90603E-01
 -1      3097 1.72389E-01
 -1      3098 1.48476E-01
 -1      3099 1.49238E-01
 -1      3100 1.33924E-01
 -1      3101 1.05598E-01
 -1      3102 1.14175E-01
 -1      3103 1.09251E-01
 -1      3104 1.18205E-01
 -1      3105 1.03276E-01
 -1      3106 1.50405E-01
 -1      3107 1.95086E-01
 -1      3108 1.39128E-01
 -1      3109 2.36846E-01
 -1      3110 2.87952E-01
 -1      3111 2.13089E-01
 -1      3112 3.38725E-01
 -1      3113 3.95958E-01
 -1      3114 3.05623E-01
 -1      3115 4.54142E-01
 -1      3116 5.17093E-01
 -1      3117 4.14581E-01
 -1      3118 5.87692E-01
 -1      3119 6.54802E-01
 -1      3120 5.43365E-01
 -1      3121 7.43295E-01
 -1      3122 8.10890E-01
 -1      3123 7.02457E-01
 -1      3124 9.22114E-01
 -1      3125 9.82736E-01
 -1      3126 9.02175E-01
 -1      3127 1.11286E+00
 -1      3128 1.22055E+00
 -1      3129 1.14353E+00
 -1      3130 1.34979E+00
 -1      3131 1.46939E+00
 -1      3132 1.40289E+00
 -1      3133 1.67711E+00
 -1      3134 1.79911E+00
 -1      3135 1.73984E+00
 -1      3136 2.11723E+00
 -1      3137 2.32559E+00
 -1      3138 2.26569E+00
 -1      3139 3.11140E+00
 -1      3140 3.26042E+00
 -1      3141 3.36963E+00
 -1      3142 2.26410E+00
 -1      3143 3.03393E+00
 -1      3144 4.16426E+00
 -1      3145 4.96740E+00
 -1      3146 5.20799E+00
 -1      3147 5.31255E+00
 -1      3148 4.55896E+00
 -1      3149 3.32965E+00
 -1      3150 3.11769E+00
 -1      3151 2.51876E+00
 -1      3152 2.48061E+00
 -1      3153 2.78815E+00
 -1      3154 2.74276E+00
 -1      3155 3.05106E+00
 -1      3156 2.37569E+00
 -1      3157 2.13762E+00
 -1      3158 2.99152E+00
 -1      3159 1.91534E+00
 -1      3160 1.82344E+00
 -1      3161 2.40216E+00
 -1      3162 1.54466E+00
 -1      3163 1.42520E+00
 -1      3164 1.90111E+00
 -1      3165 1.28436E+00
 -1      3166 1.17106E+00
 -1      3167 1.48149E+00
 -1      3168 1.04161E+00
 -1      3169 9.78960E-01
 -1      3170 1.21120E+00
 -1      3171 8.65298E-01
 -1      3172 8.01518E-01
 -1      3173 9.68082E-01
 -1      3174 7.14643E-01
 -1      3175 6.51159E-01
 -1      3176 7.67546E-01
 -1      3177 5.77347E-01
 -1      3178 5.18597E-01
 -1      3179 6.06859E-01
 -1      3180 4.65377E-01
 -1      3181 4.13388E-01
 -1      3182 4.79828E-01
 -1      3183 3.68201E-01
 -1      3184 3.23650E-01
 -1      3185 3.81421E-01
 -1      3186 2.84247E-01
 -1      3187 2.47057E-01
 -1      3188 2.96832E-01
 -1      3189 2.14016E-01
 -1      3190 1.83655E-01
 -1      3191 2.24388E-01
 -1      3192 1.56591E-01
 -1      3193 1.32381E-01
 -1      3194 1.64283E-01
 -1      3195 1.11482E-01
 -1      3196 8.84430E-02
 -1      3197 7.80627E-02
 -1      3198 1.16320E-01
 -1      3199 1.00249E-01
 -1      3200 1.00249E-01
 -1      3201 1.26270E-01
 -1      3202 1.23761E-01
 -1      3203 1.33769E-01
 -1      3204 1.62770E-01
 -1      3205 9.72207E-02
 -1      3206 2.87266E-01
 -1      3207 2.31470E-01
 -1      3208 4.04422E-01
 -1      3209 3.41482E-01
 -1      3210 2.92232E-01
 -1      3211 5.40478E-01
 -1      3212 4.70731E-01
 -1      3213 4.12757E-01
 -1      3214 6.95110E-01
 -1      3215 6.20259E-01
 -1      3216 5.58847E-01
 -1      3217 8.63921E-01
 -1      3218 7.87927E-01
 -1      3219 7.31445E-01
 -1      3220 1.04288E+00
 -1      3221 9.73290E-01
 -1      3222 9.33631E-01
 -1      3223 1.25616E+00
 -1      3224 1.17497E+00
 -1      3225 1.17510E+00
 -1      3226 1.52041E+00
 -1      3227 1.39316E+00
 -1      3228 1.44419E+00
 -1      3229 1.84543E+00
 -1      3230 1.72132E+00
 -1      3231 1.78209E+00
 -1      3232 2.27832E+00
 -1      3233 2.17800E+00
 -1      3234 2.31556E+00
 -1      3235 3.20575E+00
 -1      3236 2.90943E+00
 -1      3237 3.27923E+00
 -1      3238 2.70677E+00
 -1      3239 3.11540E+00
 -1      3240 3.81999E+00
 -1      3241 4.07697E+00
 -1      3242 3.22948E+00
 -1      3243 4.85627E+00
 -1      3244 4.75678E+00
 -1      3245 4.31820E+00
 -1      3246 3.66612E+00
 -1      3247 3.24606E+00
 -1      3248 3.29261E+00
 -1      3249 2.03002E+00
 -1      3250 2.12923E+00
 -1      3251 1.58112E+00
 -1      3252 1.70599E+00
 -1      3253 2.11677E+00
 -1      3254 1.30774E+00
 -1      3255 1.42669E+00
 -1      3256 1.63831E+00
 -1      3257 1.11019E+00
 -1      3258 1.17302E+00
 -1      3259 1.34917E+00
 -1      3260 9.19277E-01
 -1      3261 9.89034E-01
 -1      3262 1.09329E+00
 -1      3263 7.50921E-01
 -1      3264 8.22983E-01
 -1      3265 8.75844E-01
 -1      3266 5.99984E-01
 -1      3267 6.68070E-01
 -1      3268 6.96700E-01
 -1      3269 4.70195E-01
 -1      3270 5.31045E-01
 -1      3271 5.44910E-01
 -1      3272 3.62111E-01
 -1      3273 4.14418E-01
 -1      3274 4.20194E-01
 -1      3275 2.75098E-01
 -1      3276 3.18725E-01
 -1      3277 3.21031E-01
 -1      3278 2.04889E-01
 -1      3279 2.40356E-01
 -1      3280 2.42903E-01
 -1      3281 1.47323E-01
 -1      3282 1.76409E-01
 -1      3283 1.79680E-01
 -1      3284 4.46828E+00
 -1      3285 3.96803E+00
 -1      3286 3.18229E-01
 -1      3287 3.09649E-01
 -1      3288 7.97222E-02
 -1      3289 8.95552E-02
 -1      3290 9.92611E-02
 -1      3291 9.95740E-02
 -1      3292 1.12566E-01
 -1      3293 4.85027E+00
 -1      3294 5.46472E+00
 -1      3295 6.43423E+00
 -1      3296 5.31255E+00
 -1      3297 1.10740E+01
 -1      3298 1.23347E+01
 -1      3299 1.26357E+01
 -1      3300 1.03788E+01
 -1      3301 3.25269E-01
 -1      3302 3.24359E-01
 -1      3303 7.06702E+00
 -1      3304 8.18024E+00
 -1      3305 1.14145E+01
 -1      3306 1.45800E+01
 -1      3307 4.88075E+00
 -1      3308 6.44545E+00
 -1      3309 1.05286E-01
 -1      3310 3.32674E-01
 -1      3311 3.71843E-01
 -1      3312 9.74468E-02
 -1      3313 1.00249E-01
 -1      3314 1.13554E-01
 -1      3315 1.05663E-01
 -1      3316 2.41877E+00
 -1      3317 2.62389E+00
 -1      3318 3.64204E+00
 -1      3319 2.73033E+00
 -1      3320 1.86681E-01
 -1      3321 1.56882E-01
 -1      3322 1.17825E-01
 -1      3323 1.93227E-01
 -1      3324 3.86811E-01
 -1      3325 3.63706E-01
 -1      3326 3.14135E-01
 -1      3327 3.13029E-01
 -1      3328 4.04488E-01
 -1      3329 3.05834E-01
 -1      3330 2.57587E-01
 -1      3331 3.94770E-01
 -1      3332 9.45516E+00
 -1      3333 8.20345E+00
 -1      3334 8.17683E+00
 -1      3335 2.82161E-01
 -1      3336 3.16102E-01
 -1      3337 2.70293E-01
 -1      3338 1.22031E+01
 -1      3339 1.15523E+01
 -1      3340 1.15482E+01
 -1      3341 9.10028E+00
 -1      3342 3.07179E-01
 -1      3343 2.96313E-01
 -1      3344 2.27078E-01
 -1      3345 3.91924E+00
 -1      3346 3.55419E+00
 -1      3347 3.77514E+00
 -1      3348 3.13637E+00
 -1      3349 4.24861E+00
 -1      3350 5.35064E+00
 -1      3351 8.38642E+00
 -1      3352 7.72199E+00
 -1      3353 9.26301E+00
 -1      3354 1.17720E+01
 -1      3355 3.49189E+00
 -1      3356 2.64440E+00
 -1      3357 2.29535E+00
 -1      3358 3.25470E+00
 -1      3359 3.05072E-01
 -1      3360 3.04824E-01
 -1      3361 2.77596E-01
 -1      3362 3.20895E-01
 -1      3363 3.18229E-01
 -1      3364 2.82173E-01
 -1      3365 2.38508E-01
 -1      3366 4.10991E+00
 -1      3367 9.31362E-02
 -1      3368 1.04200E-01
 -1      3369 9.99497E+00
 -1      3370 8.22542E+00
 -1      3371 8.19341E+00
 -1      3372 2.42864E+00
 -1      3373 2.87128E+00
 -1      3374 2.70060E+00
 -1      3375 3.18386E-01
 -1      3376 3.18386E-01
 -1      3377 3.12616E+00
 -1      3378 3.31906E+00
 -1      3379 2.35614E-01
 -1      3380 2.56226E-01
 -1      3381 2.27786E-01
 -1      3382 1.31331E-01
 -1      3383 1.86873E-01
 -1      3384 2.12405E-01
 -1      3385 4.80743E+00
 -1      3386 3.83582E+00
 -1      3387 5.80559E+00
 -1      3388 4.23840E+00
 -1      3389 1.36234E-01
 -1      3390 1.40111E-01
 -1      3391 1.17993E-01
 -1      3392 1.00932E-01
 -1      3393 9.87264E-02
 -1      3394 1.08704E-01
 -1      3395 3.03393E+00
 -1      3396 3.01760E+00
 -1      3397 8.79944E+00
 -1      3398 1.00932E-01
 -1      3399 1.00932E-01
 -1      3400 1.14294E-01
 -1      3401 1.12936E-01
 -1      3402 9.60965E+00
 -1      3403 8.00458E+00
 -1      3404 6.85685E+00
 -1      3405 4.46615E+00
 -1      3406 5.45529E+00
 -1      3407 5.79138E+00
 -1      3408 1.02168E+01
 -1      3409 1.10740E+01
 -1      3410 8.49843E+00
 -1      3411 8.97669E+00
 -1      3412 6.94198E+00
 -1      3413 4.96647E+00
 -1      3414 5.99175E+00
 -1      3415 7.50993E+00
 -1      3416 1.05286E-01
 -1      3417 1.05286E-01
 -1      3418 1.06124E-01
 -1      3419 1.04200E-01
 -1      3420 3.17745E-01
 -1      3421 3.20164E-01
 -1      3422 2.80360E-01
 -1      3423 7.51240E+00
 -1      3424 2.87128E+00
 -1      3425 3.18187E-01
 -1      3426 3.18187E-01
 -1      3427 2.79465E-01
 -1      3428 2.58874E-01
 -1      3429 1.12725E+01
 -1      3430 7.95055E+00
 -1      3431 9.23171E+00
 -1      3432 3.36112E+00
 -1      3433 9.02382E+00
 -1      3434 7.08482E+00
 -1      3435 5.30957E+00
 -1      3436 5.98198E+00
 -1      3437 6.16137E+00
 -1      3438 7.36761E-02
 -1      3439 7.41604E-02
 -1      3440 9.22095E-02
 -1      3441 9.10343E-02
 -1      3442 3.61258E-01
 -1      3443 3.90527E-01
 -1      3444 2.69939E-01
 -1      3445 2.76280E-01
 -1      3446 3.31359E-01
 -1      3447 3.59563E+00
 -1      3448 2.61778E-01
 -1      3449 4.82395E+00
 -1      3450 5.46472E+00
 -1      3451 3.34247E+00
 -1      3452 7.55811E+00
 -1      3453 7.98924E+00
 -1      3454 3.06939E-01
 -1      3455 1.75730E-01
 -1      3456 1.54877E-01
 -1      3457 1.41050E-01
 -1      3458 1.20538E-01
 -1      3459 1.26177E-01
 -1      3460 1.26526E-01
 -1      3461 1.11975E-01
 -1      3462 1.18338E-01
 -1      3463 1.20910E-01
 -1      3464 1.24562E-01
 -1      3465 1.33261E-01
 -1      3466 1.37830E-01
 -1      3467 1.70030E-01
 -1      3468 1.55464E-01
 -1      3469 2.12015E-01
 -1      3470 2.53775E-01
 -1      3471 2.10717E-01
 -1      3472 3.04711E-01
 -1      3473 3.55484E-01
 -1      3474 3.03636E-01
 -1      3475 4.14581E-01
 -1      3476 4.72765E-01
 -1      3477 4.13668E-01
 -1      3478 5.40101E-01
 -1      3479 6.10700E-01
 -1      3480 5.40101E-01
 -1      3481 6.85112E-01
 -1      3482 7.73605E-01
 -1      3483 6.81848E-01
 -1      3484 8.83339E-01
 -1      3485 9.94563E-01
 -1      3486 8.65993E-01
 -1      3487 1.14319E+00
 -1      3488 1.27332E+00
 -1      3489 1.12436E+00
 -1      3490 1.53333E+00
 -1      3491 1.66256E+00
 -1      3492 1.53300E+00
 -1      3493 2.18892E+00
 -1      3494 2.39664E+00
 -1      3495 2.31936E+00
 -1      3496 2.82734E+00
 -1      3497 3.14546E+00
 -1      3498 3.27642E+00
 -1      3499 6.75085E+00
 -1      3500 6.03699E+00
 -1      3501 7.55233E+00
 -1      3502 6.62871E+00
 -1      3503 5.17651E+00
 -1      3504 2.99977E+00
 -1      3505 2.77749E+00
 -1      3506 2.21945E+00
 -1      3507 1.94067E+00
 -1      3508 2.81705E+00
 -1      3509 1.77470E+00
 -1      3510 1.63386E+00
 -1      3511 2.09304E+00
 -1      3512 1.36188E+00
 -1      3513 1.23243E+00
 -1      3514 1.65509E+00
 -1      3515 1.05634E+00
 -1      3516 9.42674E-01
 -1      3517 1.20702E+00
 -1      3518 8.30611E-01
 -1      3519 7.43736E-01
 -1      3520 9.18865E-01
 -1      3521 6.71322E-01
 -1      3522 5.97510E-01
 -1      3523 7.34387E-01
 -1      3524 5.32313E-01
 -1      3525 4.79093E-01
 -1      3526 5.96776E-01
 -1      3527 4.22753E-01
 -1      3528 3.77566E-01
 -1      3529 4.75238E-01
 -1      3530 3.30094E-01
 -1      3531 2.90691E-01
 -1      3532 3.71426E-01
 -1      3533 2.51366E-01
 -1      3534 2.18325E-01
 -1      3535 2.84628E-01
 -1      3536 1.86342E-01
 -1      3537 1.59279E-01
 -1      3538 2.13320E-01
 -1      3539 4.66973E+00
 -1      3540 4.10991E+00
 -1      3541 4.28074E+00
 -1      3542 4.72145E-01
 -1      3543 4.05836E-01
 -1      3544 3.42754E-01
 -1      3545 2.88538E-01
 -1      3546 4.02142E-01
 -1      3547 8.00614E-01
 -1      3548 7.07797E-01
 -1      3549 1.01104E+00
 -1      3550 9.01671E-01
 -1      3551 8.78023E-01
 -1      3552 1.28879E+00
 -1      3553 1.15669E+00
 -1      3554 1.12473E+00
 -1      3555 1.66412E+00
 -1      3556 1.52712E+00
 -1      3557 1.50872E+00
 -1      3558 2.36834E+00
 -1      3559 2.16744E+00
 -1      3560 2.25037E+00
 -1      3561 3.60338E+00
 -1      3562 3.27082E+00
 -1      3563 3.65616E+00
 -1      3564 4.32031E+00
 -1      3565 3.68921E+00
 -1      3566 4.55649E+00
 -1      3567 3.31822E+00
 -1      3568 5.29130E+00
 -1      3569 2.76717E+00
 -1      3570 3.09119E+00
 -1      3571 1.06714E+00
 -1      3572 1.18829E+00
 -1      3573 8.42054E-01
 -1      3574 9.38348E-01
 -1      3575 1.03335E+00
 -1      3576 6.75526E-01
 -1      3577 7.58377E-01
 -1      3578 8.20881E-01
 -1      3579 5.31694E-01
 -1      3580 6.00633E-01
 -1      3581 6.62311E-01
 -1      3582 4.11807E-01
 -1      3583 4.67584E-01
 -1      3584 5.23307E-01
 -1      3585 3.14960E-01
 -1      3586 3.58346E-01
 -1      3587 4.05735E-01
 -1      3588 2.36466E-01
 -1      3589 2.71208E-01
 -1      3590 3.08523E-01
 -1      3591 1.73231E-01
 -1      3592 2.01711E-01
 -1      3593 2.30016E-01
 -1      3594 7.24243E+00
 -1      3595 7.54344E+00
 -1      3596 1.32898E-01
 -1      3597 1.31910E-01
 -1      3598 1.98969E-01
 -1      3599 1.81789E-01
 -1      3600 1.37650E+00
 -1      3601 1.51122E+00
 -1      3602 1.35034E+00
 -1      3603 1.81201E+00
 -1      3604 1.96643E+00
 -1      3605 2.94086E+00
 -1      3606 8.39643E+00
 -1      3607 8.96823E+00
 -1      3608 4.50549E+00
 -1      3609 2.17824E-01
 -1      3610 2.34395E-01
 -1      3611 3.03581E+00
 -1      3612 3.13637E+00
 -1      3613 6.25084E-01
 -1      3614 5.45303E-01
 -1      3615 5.38382E-01
 -1      3616 6.94252E-01
 -1      3617 3.09382E-01
 -1      3618 3.17745E-01
 -1      3619 2.82138E-01
 -1      3620 4.28302E+00
 -1      3621 5.77714E+00
 -1      3622 5.34849E+00
 -1      3623 1.07007E-01
 -1      3624 1.17015E-01
 -1      3625 4.13386E+00
 -1      3626 4.44140E+00
 -1      3627 3.65857E+00
 -1      3628 5.06714E+00
 -1      3629 5.02620E+00
 -1      3630 3.94340E+00
 -1      3631 3.57633E+00
 -1      3632 5.66337E+00
 -1      3633 1.74301E-01
 -1      3634 1.80052E-01
 -1      3635 1.34763E-01
 -1      3636 1.90004E-01
 -1      3637 1.79318E-01
 -1      3638 1.43592E-01
 -1      3639 5.61701E+00
 -1      3640 6.69978E+00
 -1      3641 5.66520E+00
 -1      3642 4.25699E+00
 -1      3643 7.41136E+00
 -1      3644 2.67135E-01
 -1      3645 1.22796E-01
 -1      3646 1.30688E-01
 -1      3647 7.80986E+00
 -1      3648 6.42230E+00
 -1      3649 6.23347E+00
 -1      3650 6.12622E+00
 -1      3651 7.54578E+00
 -1      3652 6.29723E+00
 -1      3653 4.90183E+00
 -1      3654 6.67854E+00
 -1      3655 5.20313E+00
 -1      3656 6.40283E+00
 -1      3657 1.74161E-01
 -1      3658 2.26630E-01
 -1      3659 5.36725E+00
 -1      3660 4.00519E+00
 -1      3661 3.35479E+00
 -1      3662 1.32111E-01
 -1      3663 1.11212E-01
 -1      3664 1.06825E-01
 -1      3665 1.54170E-01
 -1      3666 1.17154E-01
 -1      3667 1.84884E-01
 -1      3668 2.10818E-01
 -1      3669 1.74921E-01
 -1      3670 1.09393E-01
 -1      3671 1.33496E-01
 -1      3672 1.19180E-01
 -1      3673 2.77579E-01
 -1      3674 2.85403E-01
 -1      3675 2.34882E-01
 -1      3676 1.90092E-01
 -1      3677 4.64446E+00
 -1      3678 1.78643E-01
 -1      3679 2.10416E-01
 -1      3680 2.44654E-01
 -1      3681 2.40078E-01
 -1      3682 1.49897E-01
 -1      3683 1.19285E-01
 -1      3684 1.39079E-01
 -1      3685 1.91552E-01
 -1      3686 5.99532E+00
 -1      3687 1.49062E-01
 -1      3688 1.71093E-01
 -1      3689 1.37973E-01
 -1      3690 6.78993E+00
 -1      3691 5.53392E+00
 -1      3692 6.78993E+00
 -1      3693 1.32898E-01
 -1      3694 1.52242E-01
 -1      3695 1.32898E-01
 -1      3696 1.35718E-01
 -1      3697 1.30128E-01
 -1      3698 2.44654E-01
 -1      3699 2.44654E-01
 -1      3700 2.07135E-01
 -1      3701 1.46721E-01
 -1      3702 1.26389E-01
 -1      3703 1.27747E-01
 -1      3704 2.16046E-01
 -1      3705 1.83934E+00
 -1      3706 5.82066E+00
 -1      3707 7.28637E+00
 -1      3708 6.80811E+00
 -1      3709 3.64433E+00
 -1      3710 1.52033E-01
 -1      3711 1.25019E-01
 -1      3712 2.03020E-01
 -1      3713 2.20904E-01
 -1      3714 3.95165E+00
 -1      3715 2.22589E-01
 -1      3716 1.54423E-01
 -1      3717 2.24367E-01
 -1      3718 1.12387E-01
 -1      3719 1.37227E-01
 -1      3720 1.37412E-01
 -1      3721 1.24745E-01
 -1      3722 1.10917E-01
 -1      3723 2.37600E-01
 -1      3724 2.40308E-01
 -1      3725 1.81746E-01
 -1      3726 1.50032E-01
 -1      3727 1.22152E-01
 -1      3728 1.28140E-01
 -1      3729 1.20719E-01
 -1      3730 1.40996E-01
 -1      3731 1.49931E-01
 -1      3732 1.44810E-01
 -1      3733 1.62804E-01
 -1      3734 1.76072E-01
 -1      3735 1.70539E-01
 -1      3736 1.98400E-01
 -1      3737 2.40384E-01
 -1      3738 2.05740E-01
 -1      3739 2.86673E-01
 -1      3740 3.37608E-01
 -1      3741 2.74356E-01
 -1      3742 3.94474E-01
 -1      3743 4.53571E-01
 -1      3744 3.77510E-01
 -1      3745 5.24087E-01
 -1      3746 5.91422E-01
 -1      3747 5.04892E-01
 -1      3748 6.79734E-01
 -1      3749 7.54146E-01
 -1      3750 6.63720E-01
 -1      3751 8.65993E-01
 -1      3752 9.75727E-01
 -1      3753 8.63880E-01
 -1      3754 1.11763E+00
 -1      3755 1.26626E+00
 -1      3756 1.11763E+00
 -1      3757 1.47693E+00
 -1      3758 1.73694E+00
 -1      3759 1.47021E+00
 -1      3760 2.20079E+00
 -1      3761 2.72715E+00
 -1      3762 2.14473E+00
 -1      3763 2.98952E+00
 -1      3764 3.42022E+00
 -1      3765 3.97010E+00
 -1      3766 2.87095E+00
 -1      3767 1.39020E-01
 -1      3768 1.31255E-01
 -1      3769 5.28142E+00
 -1      3770 1.64579E-01
 -1      3771 1.69924E+00
 -1      3772 1.46090E+00
 -1      3773 1.46936E-01
 -1      3774 2.37582E+00
 -1      3775 2.20985E+00
 -1      3776 1.79150E+00
 -1      3777 1.51952E+00
 -1      3778 2.07428E+00
 -1      3779 1.34969E+00
 -1      3780 1.17359E+00
 -1      3781 1.48610E+00
 -1      3782 1.03093E+00
 -1      3783 9.18865E-01
 -1      3784 1.17359E+00
 -1      3785 8.04799E-01
 -1      3786 7.32385E-01
 -1      3787 9.16862E-01
 -1      3788 6.42816E-01
 -1      3789 5.77619E-01
 -1      3790 7.13228E-01
 -1      3791 5.06995E-01
 -1      3792 4.50654E-01
 -1      3793 5.53035E-01
 -1      3794 3.94593E-01
 -1      3795 3.47120E-01
 -1      3796 4.26349E-01
 -1      3797 3.02690E-01
 -1      3798 2.63365E-01
 -1      3799 3.25857E-01
 -1      3800 2.27889E-01
 -1      3801 1.95906E-01
 -1      3802 2.45950E-01
 -1      3803 1.27038E+00
 -1      3804 1.12473E+00
 -1      3805 1.46090E+00
 -1      3806 9.79080E-01
 -1      3807 8.78023E-01
 -1      3808 1.12473E+00
 -1      3809 2.71406E+00
 -1      3810 2.21074E+00
 -1      3811 2.16292E+00
 -1      3812 4.67421E+00
 -1      3813 3.77173E+00
 -1      3814 3.73210E+00
 -1      3815 5.39699E+00
 -1      3816 1.44742E-01
 -1      3817 1.67951E-01
 -1      3818 1.22804E-01
 -1      3819 5.97146E+00
 -1      3820 6.23494E+00
 -1      3821 1.32618E+00
 -1      3822 1.51438E+00
 -1      3823 1.79148E-01
 -1      3824 6.42500E-01
 -1      3825 7.17393E-01
 -1      3826 2.04231E-01
 -1      3827 2.37173E-01
 -1      3828 2.41732E-01
 -1      3829 2.38519E-01
 -1      3830 2.38519E-01
 -1      3831 1.80748E-01
 -1      3832 1.98113E-01
 -1      3833 2.28374E+00
 -1      3834 3.08447E+00
 -1      3835 1.03335E+00
 -1      3836 1.16214E+00
 -1      3837 1.32618E+00
 -1      3838 4.99060E-01
 -1      3839 5.63171E-01
 -1      3840 6.18253E-01
 -1      3841 3.82641E-01
 -1      3842 4.36102E-01
 -1      3843 4.75965E-01
 -1      3844 2.89088E-01
 -1      3845 3.32840E-01
 -1      3846 3.63206E-01
 -1      3847 2.15038E-01
 -1      3848 2.49793E-01
 -1      3849 2.74110E-01
 -1      3850 1.35718E-01
 -1      3851 1.57143E-01
 -1      3852 1.35718E-01
 -1      3853 1.22267E-01
 -1      3854 1.18680E-01
 -1      3855 1.03420E-01
 -1      3856 1.65723E-01
 -1      3857 2.15373E-01
 -1      3858 3.74159E+00
 -1      3859 4.00519E+00
 -1      3860 5.08489E+00
 -1      3861 3.08447E+00
 -1      3862 4.32527E+00
 -1      3863 2.53343E-01
 -1      3864 1.64301E-01
 -1      3865 1.88470E-01
 -1      3866 2.08246E-01
 -1      3867 1.69411E-01
 -1      3868 4.44848E-01
 -1      3869 3.81766E-01
 -1      3870 1.26105E-01
 -1      3871 3.96233E+00
 -1      3872 3.01215E+00
 -1      3873 2.45411E+00
 -1      3874 3.89001E+00
 -1      3875 1.26288E-01
 -1      3876 1.25615E-01
 -1      3877 1.42311E-01
 -1      3878 9.11468E-02
 -1      3879 1.19136E-01
 -1      3880 1.29088E-01
 -1      3881 1.04176E-01
 -1      3882 5.38810E+00
 -1      3883 8.19054E-01
 -1      3884 9.02731E-01
 -1      3885 7.99243E-01
 -1      3886 1.77061E+00
 -1      3887 2.07140E+00
 -1      3888 1.74645E+00
 -1      3889 4.89017E+00
 -1      3890 2.02789E-01
 -1      3891 5.25589E+00
 -1      3892 5.63944E+00
 -1      3893 4.95981E+00
 -1      3894 4.15483E+00
 -1      3895 5.01317E+00
 -1      3896 4.31029E+00
 -1      3897 3.31807E+00
 -1      3898 4.96293E+00
 -1      3899 1.70826E-01
 -1      3900 1.67921E-01
 -1      3901 1.50983E-01
 -1      3902 1.38796E-01
 -1      3903 2.57092E+00
 -1      3904 2.21502E+00
 -1      3905 1.35226E-01
 -1      3906 1.27604E-01
 -1      3907 3.23341E-01
 -1      3908 2.69684E-01
 -1      3909 3.66047E-01
 -1      3910 1.03152E+00
 -1      3911 5.89343E+00
 -1      3912 4.71701E+00
 -1      3913 5.04278E+00
 -1      3914 1.81358E-01
 -1      3915 1.49171E-01
 -1      3916 1.59099E-01
 -1      3917 1.46821E-01
 -1      3918 1.55246E-01
 -1      3919 1.67452E-01
 -1      3920 1.67452E-01
 -1      3921 1.79721E-01
 -1      3922 5.17439E-01
 -1      3923 4.97063E-01
 -1      3924 5.90597E-01
 -1      3925 6.41310E+00
 -1      3926 4.70459E+00
 -1      3927 4.72277E+00
 -1      3928 5.27133E+00
 -1      3929 4.67300E+00
 -1      3930 3.61533E+00
 -1      3931 4.81883E+00
 -1      3932 1.70826E-01
 -1      3933 1.70826E-01
 -1      3934 1.34516E-01
 -1      3935 1.66050E-01
 -1      3936 1.60528E-01
 -1      3937 1.66050E-01
 -1      3938 1.66050E-01
 -1      3939 1.79858E-01
 -1      3940 7.63833E-01
 -1      3941 6.81120E-01
 -1      3942 6.60178E-01
 -1      3943 1.42596E-01
 -1      3944 1.49602E-01
 -1      3945 1.06696E-01
 -1      3946 8.64891E-01
 -1      3947 3.27096E+00
 -1      3948 3.19268E+00
 -1      3949 4.51177E+00
 -1      3950 2.88282E+00
 -1      3951 3.53994E+00
 -1      3952 4.68852E+00
 -1      3953 1.21055E-01
 -1      3954 1.32289E-01
 -1      3955 1.45802E-01
 -1      3956 1.58659E-01
 -1      3957 1.46139E-01
 -1      3958 1.74280E-01
 -1      3959 1.87153E-01
 -1      3960 1.75273E-01
 -1      3961 2.02475E-01
 -1      3962 2.24803E-01
 -1      3963 2.06216E-01
 -1      3964 2.47556E-01
 -1      3965 2.93845E-01
 -1      3966 2.44292E-01
 -1      3967 3.38685E-01
 -1      3968 3.95551E-01
 -1      3969 3.11886E-01
 -1      3970 4.56754E-01
 -1      3971 5.27270E-01
 -1      3972 4.17929E-01
 -1      3973 6.09632E-01
 -1      3974 6.97944E-01
 -1      3975 5.61494E-01
 -1      3976 8.11711E-01
 -1      3977 9.23559E-01
 -1      3978 7.57623E-01
 -1      3979 1.08640E+00
 -1      3980 1.22830E+00
 -1      3981 1.03423E+00
 -1      3982 1.47021E+00
 -1      3983 1.68087E+00
 -1      3984 1.43897E+00
 -1      3985 2.14473E+00
 -1      3986 2.60858E+00
 -1      3987 2.14473E+00
 -1      3988 1.23530E-01
 -1      3989 1.40463E-01
 -1      3990 1.15144E-01
 -1      3991 2.55578E+00
 -1      3992 2.13743E+00
 -1      3993 3.25582E+00
 -1      3994 8.91780E-02
 -1      3995 8.23573E-02
 -1      3996 1.68711E+00
 -1      3997 1.51728E+00
 -1      3998 2.16861E+00
 -1      3999 1.23313E+00
 -1      4000 1.09046E+00
 -1      4001 1.43414E+00
 -1      4002 9.31535E-01
 -1      4003 8.17469E-01
 -1      4004 9.91068E-01
 -1      4005 7.13679E-01
 -1      4006 6.24111E-01
 -1      4007 7.28352E-01
 -1      4008 5.46245E-01
 -1      4009 4.75620E-01
 -1      4010 5.46696E-01
 -1      4011 4.18198E-01
 -1      4012 3.62137E-01
 -1      4013 4.11408E-01
 -1      4014 3.34730E-01
 -1      4015 2.90300E-01
 -1      4016 3.26580E-01
 -1      4017 2.30059E-01
 -1      4018 1.94583E-01
 -1      4019 2.38933E-01
 -1      4020 1.62915E+00
 -1      4021 1.43863E+00
 -1      4022 1.48331E-01
 -1      4023 1.20531E-01
 -1      4024 9.87122E-02
 -1      4025 1.62482E-01
 -1      4026 1.21577E+00
 -1      4027 1.07012E+00
 -1      4028 1.38402E+00
 -1      4029 1.15807E-01
 -1      4030 1.27053E-01
 -1      4031 1.16534E-01
 -1      4032 1.31854E-01
 -1      4033 5.59847E-01
 -1      4034 6.39177E-01
 -1      4035 2.22203E-01
 -1      4036 1.82008E-01
 -1      4037 1.89750E-01
 -1      4038 2.60140E-01
 -1      4039 4.26618E-01
 -1      4040 4.89576E-01
 -1      4041 5.10500E-01
 -1      4042 1.30132E+00
 -1      4043 1.46536E+00
 -1      4044 3.22888E-01
 -1      4045 3.72690E-01
 -1      4046 3.86300E-01
 -1      4047 2.43343E-01
 -1      4048 2.82639E-01
 -1      4049 2.92122E-01
 -1      4050 2.02042E+00
 -1      4051 2.23275E+00
 -1      4052 4.34388E+00
 -1      4053 1.59283E-01
 -1      4054 1.63629E-01
 -1      4055 1.27319E-01
 -1      4056 1.03151E-01
 -1      4057 1.00382E-01
 -1      4058 1.06446E-01
 -1      4059 1.18017E-01
 -1      4060 9.67425E-01
 -1      4061 1.09804E+00
 -1      4062 1.23722E+00
 -1      4063 1.54302E-01
 -1      4064 1.62274E-01
 -1      4065 1.72583E-01
 -1      4066 1.73631E-01
 -1      4067 9.15029E-01
 -1      4068 8.00840E-01
 -1      4069 1.00606E+00
 -1      4070 1.89686E-01
 -1      4071 2.16253E-01
 -1      4072 2.24783E-01
 -1      4073 1.87727E-01
 -1      4074 7.32476E-01
 -1      4075 8.34136E-01
 -1      4076 6.74070E-01
 -1      4077 2.85099E+00
 -1      4078 2.33949E+00
 -1      4079 2.31722E+00
 -1      4080 1.74645E+00
 -1      4081 2.00268E+00
 -1      4082 1.72159E+00
 -1      4083 3.90566E+00
 -1      4084 2.68822E+00
 -1      4085 3.36557E+00
 -1      4086 4.17306E+00
 -1      4087 7.41433E-01
 -1      4088 6.91295E-01
 -1      4089 6.00771E-01
 -1      4090 8.53837E-02
 -1      4091 1.08118E-01
 -1      4092 9.00658E-01
 -1      4093 2.02042E+00
 -1      4094 1.44590E-01
 -1      4095 1.32793E-01
 -1      4096 4.48809E+00
 -1      4097 4.08429E+00
 -1      4098 4.00132E+00
 -1      4099 3.77804E+00
 -1      4100 1.65696E-01
 -1      4101 4.00242E+00
 -1      4102 4.08045E+00
 -1      4103 9.03606E-02
 -1      4104 7.97791E-02
 -1      4105 9.17832E-02
 -1      4106 1.32291E-01
 -1      4107 1.66999E-01
 -1      4108 1.55404E-01
 -1      4109 1.56344E-01
 -1      4110 3.62930E+00
 -1      4111 2.56098E-01
 -1      4112 2.56098E-01
 -1      4113 1.95166E-01
 -1      4114 3.79190E+00
 -1      4115 5.20301E-01
 -1      4116 4.47711E-01
 -1      4117 5.51418E-01
 -1      4118 4.07870E-01
 -1      4119 3.49445E-01
 -1      4120 4.31108E-01
 -1      4121 2.56098E-01
 -1      4122 2.49871E-01
 -1      4123 3.32338E-01
 -1      4124 1.00194E-01
 -1      4125 9.79685E-02
 -1      4126 6.66158E-02
 -1      4127 1.79275E-01
 -1      4128 1.00194E-01
 -1      4129 1.04284E+00
 -1      4130 1.24612E+00
 -1      4131 3.05569E+00
 -1      4132 3.05569E+00
 -1      4133 1.75273E-01
 -1      4134 1.90894E-01
 -1      4135 2.06216E-01
 -1      4136 2.21539E-01
 -1      4137 2.06216E-01
 -1      4138 2.44292E-01
 -1      4139 2.67045E-01
 -1      4140 2.44292E-01
 -1      4141 3.04378E-01
 -1      4142 3.49219E-01
 -1      4143 3.04378E-01
 -1      4144 4.00634E-01
 -1      4145 4.61837E-01
 -1      4146 3.93126E-01
 -1      4147 5.31670E-01
 -1      4148 6.14032E-01
 -1      4149 5.14375E-01
 -1      4150 7.08683E-01
 -1      4151 8.22450E-01
 -1      4152 6.78859E-01
 -1      4153 9.40609E-01
 -1      4154 1.10345E+00
 -1      4155 8.91670E-01
 -1      4156 1.25471E+00
 -1      4157 1.49661E+00
 -1      4158 1.16109E+00
 -1      4159 1.72695E+00
 -1      4160 2.19080E+00
 -1      4161 1.54269E+00
 -1      4162 3.23207E+00
 -1      4163 3.79944E+00
 -1      4164 3.32773E+00
 -1      4165 2.58201E+00
 -1      4166 2.99239E+00
 -1      4167 1.38650E+00
 -1      4168 1.16364E+00
 -1      4169 1.22241E-01
 -1      4170 1.18718E-01
 -1      4171 1.34978E-01
 -1      4172 1.57023E+00
 -1      4173 1.28608E+00
 -1      4174 1.09881E+00
 -1      4175 9.39888E-01
 -1      4176 1.23490E+00
 -1      4177 7.74169E-01
 -1      4178 6.70379E-01
 -1      4179 8.81915E-01
 -1      4180 5.60739E-01
 -1      4181 4.82872E-01
 -1      4182 6.06556E-01
 -1      4183 4.26836E-01
 -1      4184 3.69415E-01
 -1      4185 4.40879E-01
 -1      4186 3.32015E-01
 -1      4187 3.04609E-01
 -1      4188 3.47443E-01
 -1      4189 2.55515E-01
 -1      4190 4.59612E-01
 -1      4191 5.29882E-01
 -1      4192 7.48326E-02
 -1      4193 7.55763E-02
 -1      4194 9.36005E-02
 -1      4195 1.03481E-01
 -1      4196 1.05614E-01
 -1      4197 7.86971E-02
 -1      4198 1.09188E-01
 -1      4199 2.44465E+00
 -1      4200 1.99433E+00
 -1      4201 1.84627E+00
 -1      4202 2.81812E+00
 -1      4203 2.79765E-01
 -1      4204 3.20014E-01
 -1      4205 1.79619E-01
 -1      4206 1.84798E-01
 -1      4207 1.94763E-01
 -1      4208 2.62086E-01
 -1      4209 1.00989E+00
 -1      4210 8.54802E-01
 -1      4211 1.01238E+00
 -1      4212 3.69968E+00
 -1      4213 3.06312E+00
 -1      4214 3.14499E+00
 -1      4215 3.48522E-01
 -1      4216 4.02450E-01
 -1      4217 4.21833E-01
 -1      4218 3.36164E-01
 -1      4219 5.99801E-01
 -1      4220 6.93100E-01
 -1      4221 5.48912E-01
 -1      4222 3.15755E-01
 -1      4223 3.21191E-01
 -1      4224 4.41941E+00
 -1      4225 4.15681E+00
 -1      4226 9.07501E-01
 -1      4227 1.04079E+00
 -1      4228 1.04969E+00
 -1      4229 3.39248E+00
 -1      4230 1.09155E-01
 -1      4231 7.48326E-02
 -1      4232 1.84564E+00
 -1      4233 1.86338E+00
 -1      4234 2.40723E+00
 -1      4235 1.46139E-01
 -1      4236 1.59652E-01
 -1      4237 1.75273E-01
 -1      4238 4.04257E+00
 -1      4239 2.76198E+00
 -1      4240 2.05164E+00
 -1      4241 1.83126E+00
 -1      4242 1.08948E-01
 -1      4243 1.23557E-01
 -1      4244 1.37070E-01
 -1      4245 9.91411E-02
 -1      4246 1.36574E+00
 -1      4247 1.64682E+00
 -1      4248 1.17136E+00
 -1      4249 3.12689E+00
 -1      4250 9.89801E-02
 -1      4251 3.43144E+00
 -1      4252 3.14625E+00
 -1      4253 2.51576E+00
 -1      4254 2.88172E+00
 -1      4255 7.42325E-01
 -1      4256 6.32780E-01
 -1      4257 7.46148E-01
 -1      4258 2.91845E+00
 -1      4259 8.33232E-01
 -1      4260 3.26436E-01
 -1      4261 2.84613E-01
 -1      4262 2.37132E-01
 -1      4263 1.46196E-01
 -1      4264 1.35643E-01
 -1      4265 2.50068E+00
 -1      4266 8.37931E-02
 -1      4267 3.47443E-01
 -1      4268 3.58590E-01
 -1      4269 3.58590E-01
 -1      4270 2.51538E+00
 -1      4271 1.48978E+00
 -1      4272 2.06255E-01
 -1      4273 1.83346E-01
 -1      4274 1.83504E-01
 -1      4275 2.30728E-01
 -1      4276 2.21853E-01
 -1      4277 7.36185E-02
 -1      4278 5.63720E-01
 -1      4279 4.83250E-01
 -1      4280 5.64611E-01
 -1      4281 4.31865E-01
 -1      4282 3.92024E-01
 -1      4283 4.44166E-01
 -1      4284 1.63008E-01
 -1      4285 1.52194E-01
 -1      4286 1.52860E-01
 -1      4287 2.15407E+00
 -1      4288 2.49745E-01
 -1      4289 1.69431E+00
 -1      4290 2.07535E+00
 -1      4291 2.05599E+00
 -1      4292 1.46396E+00
 -1      4293 3.19997E-01
 -1      4294 2.75991E+00
 -1      4295 2.96178E+00
 -1      4296 2.57717E+00
 -1      4297 2.04128E+00
 -1      4298 2.36684E-01
 -1      4299 2.59438E-01
 -1      4300 3.29156E-01
 -1      4301 3.66489E-01
 -1      4302 3.21549E-01
 -1      4303 3.67246E-01
 -1      4304 4.18661E-01
 -1      4305 4.70046E-01
 -1      4306 5.39880E-01
 -1      4307 6.08940E-01
 -1      4308 7.03591E-01
 -1      4309 8.16068E-01
 -1      4310 9.34227E-01
 -1      4311 1.08798E+00
 -1      4312 1.23924E+00
 -1      4313 3.46250E-01
 -1      4314 1.59255E-01
 -1      4315 1.74876E-01
 -1      4316 1.34230E+00
 -1      4317 1.15504E+00
 -1      4318 2.10537E+00
 -1      4319 1.68127E+00
 -1      4320 1.60140E+00
 -1      4321 2.35037E+00
 -1      4322 1.04763E+00
 -1      4323 8.81915E-01
 -1      4324 6.67514E-01
 -1      4325 5.57873E-01
 -1      4326 4.87954E-01
 -1      4327 4.31918E-01
 -1      4328 3.84843E-01
 -1      4329 8.88717E-02
 -1      4330 1.90724E-01
 -1      4331 2.06046E-01
 -1      4332 2.21192E-01
 -1      4333 1.74706E-01
 -1      4334 1.15709E+00
 -1      4335 1.27671E+00
 -1      4336 9.91411E-02
 -1      4337 9.91411E-02
 -1      4338 1.14489E-01
 -1      4339 1.04220E-01
 -1      4340 3.91267E-01
 -1      4341 3.26436E-01
 -1      4342 3.92024E-01
 -1      4343 3.74757E-01
 -1      4344 1.53257E-01
 -1      4345 1.30675E-01
 -1      4346 4.31918E-01
 -1      4347 1.30675E-01
 -1      4348 1.19457E-01
 -1      4349 2.16717E+00
 -1      4350 1.61567E+00
 -1      4351 1.81448E+00
 -1      4352 1.39085E+00
 -1      4353 1.15504E+00
 -1      4354 1.78856E-01
 -1      4355 1.95202E-01
 -1      4356 2.56717E-01
 -1      4357 2.25840E-01
 -3
 9999
